>compound MLS002154202-01!Nalbuphine hydrochloride23277-43-2
>formula C21H27NO4
>ionization [M+H]+
>parentmass 358.200348
#inchi InChI=1S/C21H27NO4/c23-14-5-4-13-10-16-21(25)7-6-15(24)19-20(21,17(13)18(14)26-19)8-9-22(16)11-12-2-1-3-12/h4-5,12,15-16,19,23-25H,1-3,6-11H2/t15-,16+,19-,20-,21+/m0/s1
#inchikey NETZHAKZCGBWSS
#origInchi InChI=1S/C21H27NO4.ClH/c23-14-5-4-13-10-16-21(25)7-6-15(24)19-20(21,17(13)18(14)26-19)8-9-22(16)11-12-2-1-3-12;/h4-5,12,15-16,19,23-25H,1-3,6-11H2;1H/t15-,16+,19-,20-,21+;/m0./s1
#Ion_Source LC-ESI
#Instrument qTof
#Compound_Source NIH Pharmacologically Active Library
#PI Dorrestein
#Data_Collector VP/LMS
#Scan -1
#Precursor_MZ 358.201
#ExactMass 357.194
#Charge 1
#CAS_Number N/A
#Pubmed_ID N/A
#Smiles O[C@H]1CC[C@@]2(O)[C@H]3Cc4ccc(O)c5O[C@@H]1[C@]2(CCN3CC6CCC6)c54.Cl
#INCHI_AUX N/A
#Library_Class 1
#SpectrumID CCMSLIB00000085926
#IonMode Positive
#UpdateWorkflowName UPDATE-SINGLE-ANNOTATED-GOLD
#LibraryQualityString Gold
#TaskID d252d724072548979f1f6f1ced849daf
##Scan# 1234
#SpectrumFile p4-H02_GH2_01_18410.mzXML
#LibraryName Pharm_Active_Library.mgf
#MQScore -1
#Organism Pharm_Active_Library
#TIC_Query 0
#RT_Query -1
#MZErrorPPM -1
#SharedPeaks 0
#MassDiff 0
#LibMZ -1
#SpecMZ 358.201
#SpecCharge 0
#internalFilename spec-00000.mgf

>collision 10
44.936169 216.0
44.952183 172.0
45.045643 128.0
45.068356 80.0
45.187355 140.0
45.206089 172.0
45.231522 196.0
45.250263 152.0
45.260975 160.0
45.282402 224.0
45.303833 176.0
45.332363 192.0
45.368164 92.0
45.382912 180.0
45.455345 144.0
45.523811 124.0
45.579578 140.0
45.672997 192.0
45.773975 152.0
45.839947 148.0
45.858494 168.0
45.872295 124.0
45.88982 156.0
45.901958 244.0
45.966709 124.0
45.9883 164.0
46.009899 200.0
46.097698 200.0
46.228874 48.0
46.254593 216.0
46.339912 192.0
46.508163 120.0
46.528393 120.0
46.531624 208.0
46.599064 188.0
46.641193 144.0
46.810383 192.0
46.822868 136.0
46.852123 100.0
46.901184 96.0
46.960026 180.0
46.977547 124.0
46.988461 104.0
47.045784 116.0
47.089481 136.0
47.099041 108.0
47.175568 144.0
47.196724 160.0
47.217957 148.0
47.280891 212.0
47.361671 180.0
47.391811 168.0
47.420593 92.0
47.434299 84.0
47.45433 164.0
47.65696 168.0
47.686867 148.0
47.812027 136.0
47.861584 156.0
47.915302 132.0
47.931835 196.0
47.949753 156.0
48.105621 116.0
48.147045 132.0
48.194012 164.0
48.296318 128.0
48.307384 144.0
48.391365 176.0
48.434738 164.0
48.456905 176.0
48.486004 84.0
48.516502 140.0
48.570583 180.0
48.586517 124.0
48.63858 120.0
48.701065 184.0
48.710789 136.0
48.75386 180.0
48.808075 68.0
48.830326 112.0
48.857784 184.0
48.94305 148.0
48.965332 120.0
49.014091 116.0
49.033604 200.0
49.068455 188.0
49.089367 200.0
49.108894 168.0
49.182846 124.0
49.226128 196.0
49.241489 152.0
49.273621 148.0
49.284798 140.0
49.303112 188.0
49.449818 72.0
49.512821 164.0
49.539436 148.0
49.602497 224.0
49.654064 180.0
49.742809 184.0
49.759624 100.0
49.801754 64.0
49.928249 208.0
49.953568 208.0
50.018238 360.0
50.046455 104.0
50.1493 68.0
50.159164 144.0
50.209927 96.0
50.231083 124.0
50.286114 72.0
50.307289 136.0
50.332703 100.0
50.368011 68.0
50.411812 112.0
50.442905 204.0
50.499466 56.0
50.582951 160.0
50.602772 124.0
50.645256 156.0
50.701931 144.0
50.760056 208.0
50.808281 88.0
50.893475 176.0
50.937469 220.0
50.950539 180.0
50.969284 132.0
51.004257 132.0
51.038376 192.0
51.050762 192.0
51.085312 136.0
51.132267 104.0
51.146503 236.0
51.306053 116.0
51.384495 136.0
51.445866 148.0
51.46014 116.0
51.547276 88.0
51.568714 180.0
51.57872 148.0
51.613029 228.0
51.654507 176.0
51.721764 124.0
51.779037 160.0
51.858185 216.0
51.956787 188.0
51.985485 148.0
52.015625 292.0
52.035725 140.0
52.050083 116.0
52.06588 144.0
52.106098 80.0
52.169334 200.0
52.236927 132.0
52.265701 148.0
52.309162 180.0
52.356392 164.0
52.42477 216.0
52.490417 92.0
52.501953 32.0
52.520706 136.0
52.583393 152.0
52.595737 180.0
52.623169 184.0
52.644459 204.0
52.734406 100.0
52.835629 168.0
52.894962 200.0
52.968815 68.0
53.042721 140.0
53.090569 220.0
53.115131 124.0
53.168911 136.0
53.240047 128.0
53.276363 212.0
53.315594 208.0
53.381016 120.0
53.401375 152.0
53.449387 136.0
53.488682 148.0
53.640636 204.0
53.667881 40.0
53.70142 160.0
53.742268 200.0
53.76416 172.0
53.790432 104.0
53.807144 376.0
53.849892 172.0
53.882439 132.0
53.968674 96.0
54.003773 212.0
54.02425 128.0
54.163319 124.0
54.18383 148.0
54.210205 132.0
54.274479 208.0
54.292301 152.0
54.312836 200.0
54.462559 368.0
54.572548 204.0
54.665451 76.0
54.688999 152.0
54.753784 52.0
54.790611 136.0
54.906487 248.0
54.98378 164.0
55.135902 144.0
55.192078 184.0
55.211304 156.0
55.221657 184.0
55.242363 348.0
55.343006 176.0
55.378548 204.0
55.394844 136.0
55.431885 152.0
55.566818 160.0
55.58017 124.0
55.608368 112.0
55.623211 72.0
55.664783 76.0
55.701916 140.0
55.788109 104.0
55.798515 112.0
55.883293 68.0
56.066456 88.0
56.091793 136.0
56.115101 284.0
56.212605 204.0
56.308151 216.0
56.506969 144.0
56.525085 208.0
56.551865 148.0
56.613522 176.0
56.679161 160.0
56.691151 172.0
56.746613 100.0
56.769104 212.0
56.835934 224.0
56.859119 132.0
56.869629 148.0
56.912693 204.0
56.956718 128.0
56.983761 148.0
57.07996 84.0
57.174736 372.0
57.201828 276.0
57.425648 164.0
57.429585 192.0
57.456516 188.0
57.470097 68.0
57.548584 88.0
57.559155 132.0
57.59087 232.0
57.64526 140.0
57.660374 160.0
57.68758 208.0
57.758656 192.0
57.802219 156.0
57.928196 148.0
57.997902 156.0
58.03537 168.0
58.055519 128.0
58.081303 180.0
58.107094 152.0
58.158142 272.0
58.292339 112.0
58.377472 128.0
58.617996 148.0
58.649288 180.0
58.664181 200.0
58.704891 172.0
58.773537 84.0
58.792767 100.0
58.80851 240.0
58.897202 44.0
58.949146 128.0
58.979828 160.0
58.994678 152.0
59.019463 116.0
59.072269 156.0
59.152569 168.0
59.169411 180.0
59.196972 156.0
59.255177 132.0
59.28064 52.0
59.327602 172.0
59.350208 200.0
59.410774 188.0
59.433041 124.0
59.456799 232.0
59.474476 128.0
59.534355 132.0
59.549713 80.0
59.59734 108.0
59.641907 220.0
59.672653 108.0
59.695316 168.0
59.731094 188.0
59.775711 332.0
59.801876 164.0
59.815727 144.0
59.891182 208.0
59.948189 260.0
59.98518 44.0
60.008305 148.0
60.088509 208.0
60.267612 96.0
60.338715 192.0
60.473297 108.0
60.536774 212.0
60.563103 156.0
60.592537 144.0
60.783257 36.0
60.828266 204.0
60.89814 184.0
60.93853 52.0
60.968056 200.0
61.020908 88.0
61.087784 96.0
61.109562 168.0
61.126678 168.0
61.171818 140.0
61.249676 152.0
61.271488 172.0
61.323265 124.0
61.344734 96.0
61.361885 128.0
61.411785 184.0
61.471889 176.0
61.541317 156.0
61.577232 140.0
61.641289 160.0
61.683487 76.0
61.706936 160.0
61.767929 324.0
61.798576 136.0
61.868576 204.0
61.900967 104.0
61.930721 140.0
61.947952 160.0
61.994961 168.0
62.105335 220.0
62.139221 164.0
62.176441 156.0
62.255383 84.0
62.373219 172.0
62.526413 152.0
62.530758 180.0
62.58992 152.0
62.624985 108.0
62.638962 160.0
62.647331 172.0
62.662792 168.0
62.722679 132.0
62.762093 124.0
62.796787 184.0
62.833069 108.0
62.866207 104.0
62.957771 156.0
63.048424 168.0
63.081017 72.0
63.130032 160.0
63.153755 152.0
63.182228 192.0
63.253445 88.0
63.27536 180.0
63.334202 172.0
63.376976 204.0
63.394405 68.0
63.46101 232.0
63.5625 44.0
63.587894 128.0
63.690308 128.0
63.727642 188.0
63.751476 200.0
63.786057 180.0
63.855465 108.0
63.93755 156.0
63.969383 180.0
64.028297 120.0
64.044228 84.0
64.160561 120.0
64.171715 116.0
64.230728 140.0
64.284973 160.0
64.300934 152.0
64.38076 144.0
64.423889 212.0
64.435066 140.0
64.510185 192.0
64.546959 116.0
64.602936 220.0
64.625336 132.0
64.660545 156.0
64.676552 84.0
64.77713 172.0
64.791847 244.0
64.995476 152.0
65.021378 184.0
65.062561 176.0
65.130341 176.0
65.204559 124.0
65.255219 68.0
65.313583 88.0
65.334496 116.0
65.378136 168.0
65.408958 148.0
65.443939 188.0
65.471321 120.0
65.4842 100.0
65.613937 244.0
65.620399 124.0
65.624931 184.0
65.698593 132.0
65.809959 84.0
65.825821 200.0
65.900169 188.0
66.039444 116.0
66.065323 88.0
66.139763 148.0
66.173508 152.0
66.204529 104.0
66.228821 72.0
66.24826 192.0
66.285522 100.0
66.314697 148.0
66.34874 196.0
66.386032 140.0
66.426117 180.0
66.460655 140.0
66.486618 120.0
66.538559 152.0
66.571037 92.0
66.608391 168.0
66.639984 144.0
66.691269 88.0
66.759552 84.0
66.782082 412.0
66.800217 208.0
66.8116 116.0
66.846016 224.0
66.889717 236.0
66.914139 112.0
66.945076 132.0
67.003716 112.0
67.034676 128.0
67.047714 224.0
67.088463 156.0
67.101501 88.0
67.140106 184.0
67.191208 172.0
67.217316 96.0
67.305458 128.0
67.331589 144.0
67.343025 100.0
67.360443 196.0
67.375694 48.0
67.498833 156.0
67.529358 188.0
67.678276 176.0
67.835564 180.0
67.983177 132.0
68.065262 136.0
68.089897 188.0
68.163818 152.0
68.20491 88.0
68.216415 156.0
68.275612 168.0
68.344704 152.0
68.372681 124.0
68.474754 148.0
68.491226 152.0
68.534058 60.0
68.552185 216.0
68.606583 160.0
68.690689 132.0
68.751732 116.0
68.791351 128.0
68.812813 76.0
68.86235 152.0
68.951576 168.0
68.989594 200.0
69.004471 180.0
69.067314 140.0
69.089973 252.0
69.128532 276.0
69.211296 56.0
69.310684 196.0
69.377342 112.0
69.400192 164.0
69.425613 184.0
69.452972 136.0
69.484787 224.0
69.529587 128.0
69.555641 196.0
69.566719 216.0
69.595993 200.0
69.624962 164.0
69.647476 144.0
69.770447 312.0
69.82869 152.0
69.854042 212.0
69.878555 116.0
69.890205 232.0
69.910172 128.0
69.935135 164.0
70.008713 124.0
70.058365 136.0
70.158356 88.0
70.173363 188.0
70.186699 196.0
70.216721 164.0
70.251747 160.0
70.321831 252.0
70.368576 124.0
70.460434 164.0
70.567406 60.0
70.661064 44.0
70.678696 208.0
70.734703 140.0
70.751442 168.0
70.861122 176.0
70.935722 172.0
70.984344 80.0
71.00782 204.0
71.029633 212.0
71.061508 164.0
71.093384 236.0
71.123596 168.0
71.163887 128.0
71.194115 184.0
71.2966 180.0
71.315086 96.0
71.372452 196.0
71.483269 132.0
71.560699 184.0
71.614304 216.0
71.666809 236.0
71.744339 164.0
71.776375 456.0
71.832039 168.0
71.904594 144.0
71.97718 160.0
72.032043 184.0
72.073463 112.0
72.085297 180.0
72.107269 144.0
72.14901 144.0
72.176575 104.0
72.20871 40.0
72.296654 144.0
72.322678 236.0
72.337982 236.0
72.350853 112.0
72.379639 36.0
72.558075 128.0
72.572037 88.0
72.833313 208.0
72.852844 152.0
72.924217 112.0
72.978615 136.0
73.005829 212.0
73.061958 180.0
73.114708 312.0
73.155556 104.0
73.175987 208.0
73.203232 312.0
73.228783 212.0
73.286697 108.0
73.308853 176.0
73.366806 164.0
73.388969 136.0
73.409431 152.0
73.477661 204.0
73.498138 108.0
73.511787 136.0
73.525444 56.0
73.662041 140.0
73.697922 260.0
73.720131 128.0
73.735512 132.0
73.923462 156.0
73.964714 196.0
74.009232 92.0
74.154846 164.0
74.204559 96.0
74.284424 232.0
74.328056 252.0
74.400146 84.0
74.465157 228.0
74.510063 124.0
74.527245 72.0
74.61834 148.0
74.67337 176.0
74.706047 112.0
74.726585 184.0
74.761108 36.0
74.816193 224.0
74.867851 92.0
74.929863 156.0
74.9953 144.0
75.00145 140.0
75.024651 148.0
75.191971 148.0
75.245483 132.0
75.316292 216.0
75.328384 164.0
75.350838 64.0
75.362938 120.0
75.411324 192.0
75.425148 208.0
75.50988 132.0
75.552498 368.0
75.585999 164.0
75.616119 148.0
75.621208 188.0
75.733154 172.0
75.805923 112.0
75.87352 144.0
75.889122 192.0
76.033112 320.0
76.092125 32.0
76.140747 104.0
76.299034 180.0
76.31279 212.0
76.358002 116.0
76.380615 120.0
76.397278 176.0
76.410187 160.0
76.481537 232.0
76.623085 184.0
76.690559 108.0
76.810875 84.0
76.870193 188.0
76.882416 212.0
76.943504 184.0
76.966202 220.0
77.023842 172.0
77.046547 148.0
77.064018 124.0
77.086739 164.0
77.184631 108.0
77.203506 196.0
77.230919 196.0
77.254593 264.0
77.338585 136.0
77.359596 124.0
77.403366 176.0
77.472885 276.0
77.506714 136.0
77.520737 76.0
77.597862 144.0
77.620377 152.0
77.641701 176.0
77.66275 128.0
77.689056 176.0
77.724152 152.0
77.743454 148.0
77.876884 164.0
77.88829 160.0
78.238258 92.0
78.31134 184.0
78.34481 132.0
78.381805 120.0
78.425865 172.0
78.545776 152.0
78.63047 104.0
78.695786 148.0
78.716972 80.0
78.812363 156.0
78.869354 132.0
78.914528 140.0
78.934334 176.0
78.978546 152.0
79.034164 180.0
79.061699 264.0
79.079399 148.0
79.130737 48.0
79.191925 160.0
79.197388 88.0
79.202133 128.0
79.270676 140.0
79.312775 164.0
79.350441 92.0
79.371719 280.0
79.416054 148.0
79.452187 216.0
79.471046 116.0
79.554466 164.0
79.589973 124.0
79.602402 240.0
79.67878 240.0
79.700104 148.0
79.732094 176.0
79.844101 140.0
79.906357 188.0
79.938385 188.0
80.063972 140.0
80.098877 200.0
80.114662 236.0
80.266159 52.0
80.292915 152.0
80.321449 136.0
80.366051 160.0
80.387466 104.0
80.407097 132.0
80.433868 148.0
80.583885 184.0
80.605324 128.0
80.624985 68.0
80.638496 272.0
80.664307 196.0
80.709007 156.0
80.957741 156.0
81.022224 52.0
81.083778 172.0
81.174965 132.0
81.233772 112.0
81.298973 224.0
81.346832 68.0
81.42141 124.0
81.434814 232.0
81.454575 156.0
81.550545 216.0
81.591766 148.0
81.614525 156.0
81.633133 128.0
81.723251 216.0
81.769241 136.0
81.79084 148.0
81.841248 148.0
81.895279 112.0
82.026817 108.0
82.106155 152.0
82.158463 196.0
82.189262 228.0
82.207184 148.0
82.254105 116.0
82.282158 156.0
82.315498 196.0
82.389549 136.0
82.409424 100.0
82.469063 224.0
82.530525 240.0
82.595634 148.0
82.691536 60.0
82.809219 76.0
82.845451 84.0
82.859947 120.0
82.915375 228.0
83.050529 216.0
83.068428 72.0
83.091019 180.0
83.20636 144.0
83.255386 188.0
83.30806 160.0
83.33168 100.0
83.346214 96.0
83.395287 120.0
83.41861 200.0
83.473457 160.0
83.493462 144.0
83.506195 224.0
83.528023 172.0
83.591705 108.0
83.619003 156.0
83.71003 124.0
83.726418 152.0
83.739166 132.0
83.764671 96.0
83.779243 184.0
83.863068 152.0
83.927788 48.0
83.983414 144.0
84.076462 116.0
84.11232 180.0
84.177017 192.0
84.323021 96.0
84.338562 176.0
84.396149 152.0
84.429062 140.0
84.527847 136.0
84.580025 144.0
84.633072 116.0
84.652328 224.0
84.668816 68.0
84.740257 44.0
84.842232 212.0
84.894234 156.0
84.912575 152.0
84.932747 120.0
85.046555 168.0
85.068542 152.0
85.112602 172.0
85.251381 144.0
85.336838 120.0
85.366196 120.0
85.38459 116.0
85.461853 236.0
85.719643 120.0
85.74176 164.0
85.754662 120.0
85.795219 160.0
85.811806 72.0
85.843155 152.0
85.892952 164.0
85.918785 64.0
85.992592 156.0
86.014748 128.0
86.119995 132.0
86.273369 208.0
86.323296 224.0
86.337402 140.0
86.375084 256.0
86.413933 160.0
86.428734 208.0
86.517578 132.0
86.558311 176.0
86.597198 68.0
86.619431 60.0
86.636101 92.0
86.656479 56.0
86.687431 228.0
86.760269 168.0
86.819611 84.0
86.938339 136.0
86.966179 312.0
87.038582 156.0
87.113571 108.0
87.144463 52.0
87.198349 132.0
87.280914 156.0
87.309006 248.0
87.338028 168.0
87.406639 156.0
87.451309 140.0
87.533669 216.0
87.583511 68.0
87.621117 64.0
87.656166 176.0
87.702766 224.0
87.749367 156.0
87.911652 148.0
87.950844 192.0
88.087166 100.0
88.160034 144.0
88.173111 104.0
88.195541 136.0
88.214233 180.0
88.251068 200.0
88.365723 68.0
88.388176 152.0
88.42347 200.0
88.442451 92.0
88.491127 152.0
88.545433 116.0
88.676582 132.0
88.699074 52.0
88.809708 124.0
88.832222 180.0
88.881554 176.0
88.987991 76.0
89.04245 120.0
89.173965 160.0
89.294304 192.0
89.31311 120.0
89.409103 196.0
89.433533 176.0
89.469299 280.0
89.561577 168.0
89.621208 184.0
89.656914 160.0
89.736839 184.0
89.763237 136.0
89.919823 148.0
89.948135 192.0
89.995331 56.0
90.031212 148.0
90.07843 160.0
90.093544 148.0
90.161568 76.0
90.229622 176.0
90.25798 204.0
90.275002 68.0
90.346878 200.0
90.522911 156.0
90.562683 104.0
90.666885 172.0
90.759773 128.0
90.875481 200.0
90.902046 120.0
91.025436 220.0
91.052887 588.0
91.109009 144.0
91.151115 100.0
91.196426 132.0
91.223885 164.0
91.24205 156.0
91.298416 124.0
91.358055 184.0
91.457008 204.0
91.510315 120.0
91.613159 136.0
91.677177 188.0
91.708443 100.0
91.79995 124.0
91.838097 76.0
91.878159 212.0
91.893417 96.0
91.958305 140.0
91.994576 168.0
92.009842 84.0
92.038483 152.0
92.065224 216.0
92.132072 156.0
92.254387 256.0
92.267769 164.0
92.320541 200.0
92.388252 152.0
92.415253 220.0
92.438004 100.0
92.555283 164.0
92.611458 184.0
92.755943 60.0
92.815376 216.0
93.003387 196.0
93.072678 176.0
93.185951 188.0
93.239632 260.0
93.256935 168.0
93.455009 140.0
93.470406 196.0
93.508896 172.0
93.522369 176.0
93.537766 80.0
93.662842 164.0
93.675369 176.0
93.707245 104.0
93.745255 176.0
93.760101 140.0
93.819031 44.0
93.844452 172.0
93.876869 172.0
93.950005 144.0
93.952888 472.0
94.043945 268.0
94.064476 684.0
94.102638 220.0
94.139328 328.0
94.152847 104.0
94.188637 180.0
94.21273 36.0
94.268761 172.0
94.357674 80.0
94.396347 120.0
94.493065 108.0
94.553055 168.0
94.572403 132.0
94.646645 232.0
94.675797 160.0
94.715698 144.0
94.835831 104.0
94.876541 128.0
95.056923 148.0
95.072678 192.0
95.221947 136.0
95.24128 176.0
95.262733 112.0
95.321022 228.0
95.357948 160.0
95.379333 172.0
95.406548 124.0
95.474602 160.0
95.566032 160.0
95.721718 200.0
95.79187 132.0
95.945137 176.0
96.078918 484.0
96.226776 192.0
96.299591 168.0
96.369362 204.0
96.389771 180.0
96.446495 204.0
96.470985 176.0
96.492493 152.0
96.523781 128.0
96.539421 104.0
96.618889 192.0
96.705727 144.0
96.815361 200.0
97.009346 144.0
97.023071 140.0
97.0634 144.0
97.087776 148.0
97.119156 164.0
97.162354 188.0
97.234917 192.0
97.364502 204.0
97.427353 120.0
97.446152 188.0
97.46862 204.0
97.485542 144.0
97.517746 144.0
97.594421 184.0
97.686859 164.0
97.739197 300.0
97.79705 324.0
97.923065 164.0
97.970337 104.0
98.059799 180.0
98.075706 160.0
98.09655 748.0
98.162582 120.0
98.255173 168.0
98.346985 160.0
98.380547 40.0
98.435829 100.0
98.45163 48.0
98.46743 168.0
98.489151 200.0
98.581169 188.0
98.613632 156.0
98.64724 160.0
98.722374 160.0
98.738045 104.0
98.938049 204.0
98.953888 172.0
98.997452 148.0
99.058487 152.0
99.140091 88.0
99.18766 64.0
99.225327 188.0
99.299316 116.0
99.348289 180.0
99.377266 172.0
99.422562 148.0
99.495148 136.0
99.544792 72.0
99.576569 232.0
99.610336 108.0
99.673912 200.0
99.686234 144.0
99.711761 168.0
99.785225 208.0
99.862778 160.0
99.892616 240.0
99.926544 148.0
100.004044 136.0
100.031914 180.0
100.090698 152.0
100.129616 180.0
100.21315 156.0
100.25898 204.0
100.280907 180.0
100.328743 296.0
100.382584 68.0
100.518234 128.0
100.616035 136.0
100.685928 68.0
100.725876 120.0
100.783813 152.0
100.829773 340.0
100.859756 192.0
100.913734 168.0
100.931732 172.0
100.986595 212.0
101.043739 192.0
101.059746 116.0
101.125984 160.0
101.155807 152.0
101.191849 180.0
101.214203 192.0
101.448288 184.0
101.510445 112.0
101.524483 160.0
101.644852 112.0
101.658897 136.0
101.67495 208.0
101.719109 180.0
101.733162 108.0
101.855659 196.0
101.921135 176.0
101.984261 112.0
102.030495 148.0
102.096855 140.0
102.153175 140.0
102.197433 120.0
102.251099 144.0
102.283974 128.0
102.316185 184.0
102.330276 92.0
102.41687 156.0
102.474182 148.0
102.535751 84.0
102.634529 248.0
102.666794 212.0
102.68808 204.0
102.830215 124.0
102.850403 76.0
102.939232 120.0
102.987709 76.0
103.057205 428.0
103.121063 124.0
103.157448 144.0
103.181709 164.0
103.232254 132.0
103.268661 156.0
103.341492 116.0
103.371841 144.0
103.407715 188.0
103.448753 116.0
103.541901 152.0
103.556076 188.0
103.610771 76.0
103.718132 192.0
103.76886 176.0
103.828178 204.0
103.861961 212.0
103.904747 296.0
103.939026 188.0
104.032608 108.0
104.048843 224.0
104.073212 164.0
104.099609 164.0
104.121948 108.0
104.180855 184.0
104.347511 212.0
104.363777 184.0
104.378853 152.0
104.463432 176.0
104.479706 156.0
104.498016 200.0
104.548889 184.0
104.658813 92.0
104.74028 128.0
104.778984 168.0
104.880188 188.0
104.995064 336.0
105.028992 168.0
105.069199 716.0
105.109299 160.0
105.150116 192.0
105.249107 172.0
105.280281 148.0
105.354317 60.0
105.383781 164.0
105.411522 124.0
105.46875 364.0
105.505547 152.0
105.523949 228.0
105.673256 136.0
105.71418 180.0
105.729187 108.0
105.761253 196.0
105.830383 172.0
105.878258 196.0
105.942749 176.0
105.970146 156.0
106.04187 124.0
106.064301 448.0
106.084564 240.0
106.107468 152.0
106.140274 132.0
106.267067 260.0
106.380325 100.0
106.481033 88.0
106.537773 240.0
106.569275 140.0
106.587769 156.0
106.629532 184.0
106.676147 128.0
106.79747 136.0
106.820038 144.0
106.908569 152.0
106.992966 120.0
107.050392 348.0
107.07338 512.0
107.097984 148.0
107.16391 72.0
107.192757 168.0
107.209244 112.0
107.225731 144.0
107.285507 112.0
107.310249 184.0
107.415428 156.0
107.462883 200.0
107.48558 152.0
107.510345 112.0
107.543365 216.0
107.575363 168.0
107.840797 88.0
107.856888 168.0
107.902817 124.0
107.929695 36.0
107.952438 120.0
107.9776 48.0
108.014488 104.0
108.051727 176.0
108.080894 1020.0
108.14698 144.0
108.16555 128.0
108.262863 132.0
108.343643 120.0
108.447258 132.0
108.499084 168.0
108.561287 172.0
108.596542 160.0
108.653267 164.0
108.785378 124.0
108.939049 80.0
108.976814 160.0
109.016792 196.0
109.045029 172.0
109.062172 240.0
109.087212 264.0
109.120316 240.0
109.140656 120.0
109.280853 184.0
109.311226 132.0
109.438202 128.0
109.517906 88.0
109.550667 84.0
109.659027 184.0
109.684036 164.0
109.729904 100.0
109.779945 156.0
109.984413 156.0
110.028252 148.0
110.058716 352.0
110.097443 148.0
110.174446 152.0
110.198471 144.0
110.419014 200.0
110.477585 156.0
110.626167 148.0
110.644463 168.0
110.650078 124.0
110.772758 132.0
110.793159 136.0
110.814659 208.0
110.888008 116.0
110.902679 140.0
111.041206 172.0
111.0998 128.0
111.145958 200.0
111.259293 184.0
111.301292 96.0
111.395798 180.0
111.439919 132.0
111.517677 204.0
111.574432 132.0
111.603867 112.0
111.687996 64.0
111.720284 192.0
111.752159 144.0
111.913177 232.0
111.963715 176.0
111.997421 188.0
112.033226 84.0
112.060616 76.0
112.075371 176.0
112.113617 340.0
112.313599 184.0
112.362122 172.0
112.400345 204.0
112.423309 180.0
112.611214 204.0
112.649239 156.0
112.714737 104.0
112.744949 180.0
112.786591 112.0
112.915565 164.0
112.984352 248.0
113.021347 140.0
113.116646 144.0
113.13652 96.0
113.197037 192.0
113.26693 52.0
113.302948 180.0
113.407692 252.0
113.427979 160.0
113.572174 208.0
113.659157 112.0
113.767403 200.0
113.781113 108.0
113.797127 164.0
113.824821 204.0
113.940086 168.0
113.979797 168.0
114.001045 192.0
114.156044 88.0
114.239189 160.0
114.256836 176.0
114.396667 44.0
114.513779 172.0
114.530823 132.0
114.635216 40.0
114.708534 200.0
114.76738 160.0
114.869751 140.0
114.991379 196.0
115.054214 928.0
115.121613 96.0
115.153648 212.0
115.179276 140.0
115.209183 184.0
115.290382 164.0
115.36335 176.0
115.407951 164.0
115.551262 184.0
115.686089 156.0
115.726768 100.0
115.755623 160.0
115.820999 176.0
115.932411 124.0
115.988205 132.0
116.067467 304.0
116.107056 168.0
116.215469 160.0
116.254097 72.0
116.290581 112.0
116.393631 184.0
116.457558 188.0
116.700897 116.0
116.776985 208.0
116.821342 252.0
116.849312 148.0
116.870827 172.0
116.909561 124.0
116.948303 136.0
117.036339 152.0
117.062698 192.0
117.133484 224.0
117.178726 104.0
117.4935 232.0
117.553917 192.0
117.571182 136.0
117.607872 148.0
117.664001 108.0
117.91674 156.0
117.951324 176.0
117.985916 104.0
118.037315 176.0
118.065086 360.0
118.104851 168.0
118.163261 44.0
118.25415 96.0
118.323425 168.0
118.34507 128.0
118.444695 328.0
118.481522 164.0
118.52919 148.0
118.639732 168.0
118.68309 204.0
118.715919 204.0
118.752487 124.0
118.772011 100.0
118.808937 180.0
118.873985 192.0
118.90654 156.0
118.991196 108.0
119.034622 184.0
119.049576 236.0
119.085724 228.0
119.120583 240.0
119.219276 116.0
119.280457 216.0
119.334488 192.0
119.375801 140.0
119.397461 200.0
119.430176 140.0
119.454102 132.0
119.46933 136.0
119.506226 188.0
119.540794 128.0
119.544037 108.0
119.552757 164.0
119.62384 108.0
119.695694 172.0
119.73925 136.0
119.765388 152.0
119.832916 164.0
119.874321 144.0
119.890808 172.0
119.917908 168.0
119.992027 116.0
120.009468 128.0
120.049248 312.0
120.08007 1196.0
120.103249 176.0
120.121155 76.0
120.153419 32.0
120.183121 280.0
120.205788 152.0
120.286545 136.0
120.406631 148.0
120.454689 152.0
120.626152 344.0
120.699471 108.0
120.727898 172.0
120.745399 124.0
120.791328 80.0
120.852592 136.0
120.881035 120.0
121.000816 216.0
121.063637 604.0
121.088921 288.0
121.128441 152.0
121.264832 224.0
121.303749 156.0
121.321289 192.0
121.341682 80.0
121.367332 152.0
121.422157 64.0
121.450668 112.0
121.538429 128.0
121.602066 196.0
121.664558 196.0
121.687683 172.0
121.714333 176.0
121.762344 144.0
121.815063 136.0
121.887566 160.0
121.940308 48.0
121.960091 124.0
121.985458 164.0
122.063637 376.0
122.099777 256.0
122.156097 148.0
122.1866 136.0
122.208862 100.0
122.290024 184.0
122.41111 60.0
122.514633 200.0
122.569717 160.0
122.635834 164.0
122.790176 196.0
122.868614 204.0
122.929161 76.0
123.015244 56.0
123.043236 844.0
123.083321 220.0
123.123436 120.0
123.14994 68.0
123.172028 100.0
123.300179 144.0
123.359863 104.0
123.391533 184.0
123.412926 304.0
123.439461 124.0
123.483612 192.0
123.560028 204.0
123.609795 208.0
123.63192 152.0
123.695053 136.0
123.722168 156.0
123.772011 176.0
123.806816 152.0
123.939735 156.0
123.966324 44.0
123.981834 180.0
124.049812 180.0
124.078377 148.0
124.111816 1540.0
124.137451 216.0
124.267899 84.0
124.454971 212.0
124.503197 112.0
124.705376 56.0
124.727608 168.0
124.758728 120.0
124.845444 96.0
124.914398 232.0
124.941093 116.0
124.977615 144.0
125.001167 216.0
125.083519 84.0
125.112457 172.0
125.170349 80.0
125.210205 192.0
125.268349 100.0
125.307503 132.0
125.377632 172.0
125.395363 140.0
125.44706 164.0
125.509056 188.0
125.538712 196.0
125.569267 144.0
125.633957 140.0
125.689735 148.0
125.712051 168.0
125.833374 204.0
125.87719 156.0
125.924149 160.0
125.988922 152.0
126.033607 192.0
126.123787 160.0
126.230324 140.0
126.344398 172.0
126.364532 124.0
126.432556 120.0
126.485382 176.0
126.635406 104.0
126.662285 132.0
126.718292 128.0
126.781036 136.0
126.819138 96.0
126.884148 88.0
126.920021 268.0
126.985054 104.0
127.037361 200.0
127.056145 268.0
127.198219 92.0
127.229652 124.0
127.308235 168.0
127.337433 180.0
127.362144 204.0
127.481216 144.0
127.521675 164.0
127.584618 104.0
127.631828 148.0
127.670059 128.0
127.735291 180.0
127.832909 152.0
127.922066 188.0
127.942329 172.0
127.987358 216.0
128.060394 660.0
128.112656 140.0
128.147278 72.0
128.165314 48.0
128.190094 140.0
128.229156 168.0
128.31633 168.0
128.332108 216.0
128.440582 200.0
128.584763 56.0
128.655167 128.0
128.731506 176.0
128.858002 140.0
128.891891 284.0
128.932571 144.0
128.95517 164.0
129.00264 148.0
129.071259 596.0
129.102127 136.0
129.129272 64.0
129.156418 84.0
129.172241 168.0
129.260483 192.0
129.296692 80.0
129.409882 156.0
129.430267 144.0
129.532181 216.0
129.656799 44.0
129.710953 188.0
129.82457 204.0
129.874466 132.0
129.949326 152.0
130.013321 160.0
130.063904 1068.0
130.0923 148.0
130.1082 264.0
130.137711 152.0
130.176727 132.0
130.285843 184.0
130.364868 144.0
130.389877 96.0
130.418808 280.0
130.460342 60.0
130.477432 140.0
130.714584 272.0
130.731003 124.0
130.756042 72.0
130.775772 168.0
130.827393 196.0
130.867584 164.0
130.995132 208.0
131.050171 404.0
131.082428 608.0
131.163757 156.0
131.235229 216.0
131.289154 156.0
131.332489 140.0
131.350739 112.0
131.460266 168.0
131.544708 140.0
131.576675 212.0
131.636032 240.0
131.745682 208.0
131.818787 164.0
131.853073 52.0
131.879791 128.0
131.919357 192.0
131.939331 244.0
132.003952 100.0
132.038727 116.0
132.054276 160.0
132.080063 1704.0
132.175522 164.0
132.196121 120.0
132.235016 172.0
132.275269 96.0
132.295715 116.0
132.470871 188.0
132.491486 112.0
132.516693 168.0
132.563629 216.0
132.670258 144.0
132.704636 64.0
132.782608 156.0
132.858307 184.0
132.889481 452.0
132.92485 216.0
132.973511 124.0
132.996002 188.0
133.028137 56.0
133.060516 548.0
133.085327 384.0
133.099075 156.0
133.209549 136.0
133.246307 156.0
133.441666 112.0
133.627975 124.0
133.761688 192.0
133.800583 128.0
133.860458 96.0
133.92955 164.0
133.968704 160.0
134.007874 32.0
134.037827 168.0
134.067017 356.0
134.09726 304.0
134.270676 180.0
134.388321 188.0
134.41832 48.0
134.442657 304.0
134.506027 200.0
134.531418 160.0
134.568359 80.0
134.605301 124.0
134.750824 152.0
134.783173 164.0
134.806274 152.0
134.921844 64.0
134.957596 112.0
134.974411 196.0
135.008469 104.0
135.048447 316.0
135.105515 144.0
135.132309 168.0
135.182907 116.0
135.23645 84.0
135.297089 164.0
135.320602 172.0
135.39389 220.0
135.470337 192.0
135.516663 136.0
135.569962 268.0
135.641815 140.0
135.679718 136.0
135.710587 304.0
135.757385 200.0
135.805771 176.0
135.859802 168.0
135.927094 160.0
135.981934 76.0
136.045456 80.0
136.07457 2512.0
136.115341 416.0
136.166901 148.0
136.208023 120.0
136.226608 52.0
136.282013 132.0
136.310562 180.0
136.410187 176.0
136.468307 92.0
136.497025 240.0
136.554352 136.0
136.572968 116.0
136.603333 220.0
136.620392 192.0
136.654388 176.0
136.710236 120.0
136.788116 152.0
136.82196 160.0
136.838257 156.0
136.901123 180.0
136.945374 120.0
136.975662 156.0
137.019928 152.0
137.03624 68.0
137.059509 4300.0
137.166748 152.0
137.301987 100.0
137.349945 128.0
137.380692 156.0
137.404617 200.0
137.427948 152.0
137.483871 112.0
137.634109 224.0
137.675385 188.0
137.815552 264.0
137.864624 120.0
137.941757 140.0
137.974655 168.0
138.064377 412.0
138.085297 236.0
138.121811 120.0
138.156906 76.0
138.179092 116.0
138.215393 128.0
138.285599 184.0
138.31604 180.0
138.334763 136.0
138.374557 308.0
138.426071 132.0
138.547867 156.0
138.648636 116.0
138.721298 136.0
138.775223 136.0
138.80336 100.0
138.826813 220.0
138.845566 92.0
138.899521 76.0
138.920624 136.0
138.95816 36.0
139.054382 180.0
139.185852 88.0
139.206985 64.0
139.225769 80.0
139.251602 176.0
139.324417 116.0
139.368011 152.0
139.409012 56.0
139.425461 128.0
139.453674 88.0
139.545349 128.0
139.622955 132.0
139.698227 156.0
139.733505 132.0
139.794693 188.0
139.87001 176.0
139.975952 40.0
140.04425 152.0
140.099014 224.0
140.193817 132.0
140.246887 68.0
140.307526 216.0
140.343552 152.0
140.383636 108.0
140.426086 188.0
140.532242 112.0
140.560562 120.0
140.581802 204.0
140.676208 120.0
140.77774 220.0
140.803726 152.0
140.834427 176.0
140.872223 92.0
140.924194 128.0
140.95491 148.0
140.976181 100.0
141.006912 188.0
141.070023 1788.0
141.118011 132.0
141.136932 104.0
141.179489 136.0
141.323792 132.0
141.354553 192.0
141.394592 100.0
141.484741 76.0
141.513153 64.0
141.532089 200.0
141.566956 144.0
141.593658 164.0
141.624451 136.0
141.655243 196.0
141.707367 208.0
141.723892 144.0
141.774734 176.0
141.8293 204.0
141.937286 48.0
142.07283 160.0
142.105698 116.0
142.134171 188.0
142.152206 140.0
142.184006 112.0
142.233856 212.0
142.2742 136.0
142.321686 208.0
142.365631 336.0
142.400055 104.0
142.566376 132.0
142.656693 164.0
142.706619 40.0
142.74704 240.0
142.780334 124.0
142.837418 140.0
142.856995 248.0
142.889755 140.0
142.957352 168.0
142.973038 276.0
143.049728 500.0
143.081879 840.0
143.113495 152.0
143.168808 228.0
143.225433 196.0
143.251633 220.0
143.280212 108.0
143.311188 128.0
143.385071 216.0
143.475647 136.0
143.552856 144.0
143.581299 144.0
143.609634 156.0
143.65213 180.0
143.695068 204.0
143.776199 112.0
143.883621 156.0
143.97197 128.0
144.05513 644.0
144.079361 496.0
144.103348 104.0
144.391022 188.0
144.411728 200.0
144.461411 172.0
144.547089 188.0
144.576813 100.0
144.593567 228.0
144.69313 148.0
144.740585 196.0
144.777924 168.0
144.840195 140.0
144.912064 156.0
144.951752 128.0
144.981552 176.0
145.064514 1220.0
145.09494 328.0
145.358063 212.0
145.46846 112.0
145.530884 160.0
145.61734 120.0
145.660583 112.0
145.718231 56.0
145.771103 132.0
145.805389 148.0
145.90329 120.0
145.975433 108.0
146.001892 276.0
146.022156 188.0
146.03038 80.0
146.060776 280.0
146.091339 172.0
146.116669 212.0
146.170288 188.0
146.229523 208.0
146.333969 220.0
146.363205 168.0
146.476059 160.0
146.516998 112.0
146.538696 168.0
146.560379 108.0
146.603745 164.0
146.678467 44.0
146.758026 60.0
146.823135 128.0
146.946167 188.0
146.96788 88.0
147.043976 3192.0
147.080719 272.0
147.100616 196.0
147.245667 56.0
147.267227 108.0
147.400116 188.0
147.438782 120.0
147.475037 144.0
147.516129 204.0
147.564468 108.0
147.666046 132.0
147.753128 356.0
147.789413 172.0
147.82814 152.0
147.928467 168.0
147.953995 148.0
147.980637 148.0
148.052521 464.0
148.075424 2408.0
148.110657 1496.0
148.14653 128.0
148.193771 216.0
148.230118 108.0
148.283447 160.0
148.353745 132.0
148.497635 212.0
148.554138 176.0
148.607346 168.0
148.681198 140.0
148.78302 152.0
148.809845 164.0
148.829285 124.0
148.848709 148.0
148.914276 168.0
149.058609 1308.0
149.08075 684.0
149.109116 148.0
149.211349 152.0
149.328308 128.0
149.373688 160.0
149.436935 52.0
149.539139 160.0
149.585388 64.0
149.610382 180.0
149.753403 64.0
149.777771 180.0
149.891937 200.0
150.03595 144.0
150.041824 136.0
150.048981 192.0
150.065338 288.0
150.083832 384.0
150.098495 308.0
150.13118 160.0
150.162888 132.0
150.182404 212.0
150.250702 68.0
150.301941 132.0
150.328781 184.0
150.397125 180.0
150.483673 172.0
150.614441 224.0
150.636429 136.0
150.761032 204.0
150.85881 164.0
150.900375 168.0
150.937042 40.0
150.954163 196.0
151.010422 52.0
151.032425 164.0
151.057648 228.0
151.074402 228.0
151.099014 336.0
151.128357 208.0
151.218384 120.0
151.31839 188.0
151.382416 136.0
151.428955 232.0
151.683777 196.0
151.803925 36.0
151.84317 124.0
151.938828 172.0
151.971832 204.0
152.060654 676.0
152.109695 164.0
152.196548 140.0
152.238297 124.0
152.307068 176.0
152.426483 132.0
152.47438 160.0
152.545425 172.0
152.570007 132.0
152.594589 148.0
152.611801 164.0
152.722687 92.0
152.792969 164.0
152.86763 140.0
152.98085 188.0
153.036865 192.0
153.069824 1520.0
153.200027 156.0
153.22467 156.0
153.247971 200.0
153.525391 308.0
153.611725 92.0
153.707947 160.0
153.748398 192.0
153.841217 128.0
153.901108 172.0
154.00174 212.0
154.019028 204.0
154.071548 836.0
154.154907 292.0
154.19693 80.0
154.256241 156.0
154.273544 104.0
154.444183 112.0
154.47139 160.0
154.533234 104.0
154.678406 176.0
154.797882 204.0
154.929596 200.0
155.026001 112.0
155.047592 384.0
155.08374 2336.0
155.118439 152.0
155.162338 68.0
155.239212 68.0
155.268967 32.0
155.296249 128.0
155.356049 152.0
155.384583 132.0
155.666199 132.0
155.687149 136.0
155.718201 40.0
155.755447 168.0
155.797684 140.0
155.93187 128.0
155.964188 248.0
156.08493 684.0
156.123306 148.0
156.160614 124.0
156.441803 168.0
156.479141 116.0
156.53392 80.0
156.688049 160.0
156.830399 80.0
156.917648 152.0
156.940094 200.0
156.972504 128.0
157.064819 6524.0
157.092529 388.0
157.154099 60.0
157.208984 136.0
157.21283 108.0
157.235626 120.0
157.295456 168.0
157.351776 188.0
157.456665 108.0
157.48497 72.0
157.521606 136.0
157.544083 120.0
157.579056 152.0
157.606552 192.0
157.679016 260.0
157.719009 100.0
157.819016 120.0
157.884033 48.0
158.014099 112.0
158.069 1804.0
158.091766 136.0
158.141724 68.0
158.242477 292.0
158.286942 124.0
158.316986 176.0
158.361481 68.0
158.414673 156.0
158.452255 220.0
158.53273 204.0
158.582565 268.0
158.67424 140.0
158.788162 180.0
158.823273 92.0
158.978836 148.0
158.998901 132.0
159.039932 180.0
159.079025 1048.0
159.139481 248.0
159.159576 64.0
159.237427 204.0
159.265045 120.0
159.306381 160.0
159.42334 84.0
159.447708 172.0
159.538467 144.0
159.544449 176.0
159.594269 100.0
159.97049 188.0
160.024536 204.0
160.048401 292.0
160.082886 356.0
160.11058 348.0
160.175644 156.0
160.203354 160.0
160.266342 136.0
160.389832 72.0
160.677322 176.0
160.70694 156.0
160.783188 92.0
160.846405 176.0
160.891846 68.0
160.931473 240.0
160.984512 360.0
161.032639 196.0
161.059952 19512.0
161.129242 160.0
161.152039 160.0
161.182312 52.0
161.21817 84.0
161.290985 208.0
161.312302 184.0
161.368774 124.0
161.415863 92.0
161.43573 128.0
161.451874 88.0
161.50325 332.0
161.573105 256.0
161.617233 92.0
161.643646 136.0
161.676758 152.0
161.710861 104.0
161.76149 28.0
161.817184 124.0
161.888092 48.0
161.93367 144.0
161.961533 72.0
162.024872 120.0
162.061523 1708.0
162.090164 344.0
162.127335 340.0
162.151611 260.0
162.247803 128.0
162.283386 116.0
162.308746 48.0
162.372147 88.0
162.468536 136.0
162.571396 112.0
162.608932 200.0
162.704559 168.0
162.788361 200.0
162.811218 92.0
162.836609 104.0
162.90773 168.0
162.950928 84.0
162.974228 216.0
163.034775 132.0
163.076584 420.0
163.137161 112.0
163.207642 112.0
163.238159 180.0
163.258499 140.0
163.309372 48.0
163.32869 160.0
163.365326 44.0
163.462021 112.0
163.490005 172.0
163.559525 64.0
163.645279 108.0
163.663116 164.0
163.719131 84.0
163.772446 60.0
163.887253 160.0
164.012131 112.0
164.047821 120.0
164.070892 84.0
164.081924 152.0
164.087479 144.0
164.099304 168.0
164.13707 136.0
164.170212 252.0
164.201553 140.0
164.249283 100.0
164.267136 40.0
164.2901 68.0
164.325821 148.0
164.374298 140.0
164.397263 64.0
164.552979 144.0
164.657669 140.0
164.692642 220.0
164.733749 128.0
164.775177 228.0
164.828842 164.0
164.920837 144.0
165.069809 3900.0
165.122986 128.0
165.184219 160.0
165.243057 140.0
165.322388 148.0
165.465729 160.0
165.493896 88.0
165.583527 124.0
165.679932 132.0
165.757736 144.0
165.839737 192.0
165.871628 172.0
165.933853 180.0
166.0056 220.0
166.075455 544.0
166.122635 540.0
166.20134 100.0
166.27063 132.0
166.296295 216.0
166.340012 140.0
166.363037 64.0
166.44339 232.0
166.468307 92.0
166.647614 300.0
166.699524 120.0
166.804901 136.0
166.858887 80.0
166.918015 184.0
166.93602 164.0
166.96431 124.0
167.033752 300.0
167.084702 1368.0
167.17012 160.0
167.190002 132.0
167.216446 140.0
167.293671 120.0
167.355469 148.0
167.38797 180.0
167.625931 84.0
167.664581 124.0
167.826996 136.0
167.999802 176.0
168.056183 488.0
168.08519 732.0
168.184082 212.0
168.221725 116.0
168.319839 128.0
168.356003 152.0
168.430893 52.0
168.464478 132.0
168.575592 168.0
168.624695 112.0
168.686722 120.0
168.720337 120.0
168.8367 156.0
168.870316 188.0
168.922043 36.0
168.973602 164.0
169.007431 168.0
169.065536 2436.0
169.094223 748.0
169.172638 180.0
169.204132 124.0
169.252319 204.0
169.287003 112.0
169.409195 152.0
169.470917 216.0
169.517563 88.0
169.53569 72.0
169.569382 168.0
169.660553 144.0
169.745682 64.0
169.776733 172.0
169.960983 180.0
169.993195 224.0
170.065292 536.0
170.095963 480.0
170.140152 132.0
170.29068 104.0
170.329651 136.0
170.415878 124.0
170.446564 40.0
170.652939 140.0
170.701309 180.0
170.781937 216.0
170.867783 188.0
171.044159 284.0
171.077881 1152.0
171.108704 184.0
171.224838 96.0
171.302551 152.0
171.349442 144.0
171.3871 44.0
171.615295 240.0
171.65181 184.0
171.688309 160.0
171.743088 424.0
171.779602 68.0
171.928253 152.0
172.029602 180.0
172.052261 468.0
172.07576 1512.0
172.111496 800.0
172.147629 172.0
172.182404 164.0
172.193832 52.0
172.201782 200.0
172.270386 184.0
172.340927 136.0
172.380127 140.0
172.560486 52.0
172.581406 112.0
172.633698 72.0
172.652008 52.0
172.827271 228.0
172.856064 144.0
173.05864 4004.0
173.093323 572.0
173.117142 504.0
173.170212 164.0
173.301208 136.0
173.330032 184.0
173.432236 132.0
173.45723 88.0
173.579056 144.0
173.707565 180.0
173.899124 180.0
174.022507 320.0
174.05722 1036.0
174.125992 200.0
174.185333 36.0
174.209335 160.0
174.22348 140.0
174.272034 72.0
174.295212 224.0
174.329849 156.0
174.376663 216.0
174.44812 340.0
174.550659 140.0
174.740051 196.0
174.758469 136.0
174.824249 56.0
174.857178 156.0
174.897949 164.0
175.01474 132.0
175.07428 1980.0
175.143494 176.0
175.160339 124.0
175.203415 68.0
175.268097 80.0
175.414246 64.0
175.501251 120.0
175.535522 136.0
175.567886 128.0
175.619919 152.0
175.860031 108.0
175.933945 28.0
175.961594 104.0
176.070724 820.0
176.098587 224.0
176.133438 228.0
176.314316 128.0
176.372467 60.0
176.536392 44.0
176.584 60.0
176.663345 204.0
176.710968 36.0
176.798294 92.0
176.920059 180.0
177.057541 208.0
177.095505 140.0
177.103302 180.0
177.139862 104.0
177.161057 68.0
177.179596 156.0
177.373047 64.0
177.396912 92.0
177.487061 216.0
177.56131 100.0
177.619659 204.0
177.638229 240.0
177.789474 136.0
177.87706 128.0
177.955826 168.0
178.044083 168.0
178.077316 580.0
178.124771 200.0
178.166519 132.0
178.254211 228.0
178.434952 140.0
178.506744 168.0
178.605148 140.0
178.730194 80.0
178.881897 108.0
178.980408 148.0
179.025681 184.0
179.08551 1344.0
179.12709 752.0
179.166855 160.0
179.196167 56.0
179.257446 244.0
179.350723 148.0
179.379059 108.0
179.529358 148.0
179.641388 120.0
179.740112 108.0
179.993698 144.0
180.041763 176.0
180.061676 432.0
180.083496 800.0
180.121063 184.0
180.180664 84.0
180.204712 228.0
180.236786 164.0
180.35704 96.0
180.39447 128.0
180.447937 96.0
180.468216 220.0
180.512909 148.0
180.589676 184.0
180.683304 248.0
180.72879 180.0
180.83316 120.0
180.910782 196.0
180.985748 108.0
181.017883 80.0
181.064621 2120.0
181.09938 1988.0
181.142578 180.0
181.161575 80.0
181.20047 120.0
181.224136 156.0
181.24826 200.0
181.325974 100.0
181.379578 60.0
181.446594 32.0
181.540451 56.0
181.655777 36.0
181.763107 60.0
181.873138 172.0
181.899979 188.0
181.935272 168.0
181.972473 136.0
182.004684 116.0
182.067291 1592.0
182.09671 1520.0
182.144348 128.0
182.165833 48.0
182.199936 220.0
182.22226 72.0
182.2948 128.0
182.318985 192.0
182.404999 180.0
182.507172 120.0
182.610947 68.0
182.641632 240.0
182.716965 184.0
182.743866 164.0
182.808441 236.0
182.851501 204.0
182.88649 160.0
182.989014 300.0
183.021103 144.0
183.039948 200.0
183.079498 7168.0
183.133926 152.0
183.159149 156.0
183.178513 72.0
183.260834 40.0
183.327911 220.0
183.355148 128.0
183.374023 144.0
183.39827 100.0
183.422531 96.0
183.455017 216.0
183.47789 120.0
183.533066 84.0
183.570831 160.0
183.669876 188.0
183.680222 136.0
183.732666 164.0
183.891876 96.0
183.911377 108.0
183.983658 144.0
184.00795 176.0
184.052002 1504.0
184.083282 1224.0
184.11058 1412.0
184.164581 180.0
184.196075 140.0
184.302368 236.0
184.321274 108.0
184.354858 224.0
184.391541 120.0
184.419464 132.0
184.446564 100.0
184.475342 40.0
184.499664 124.0
184.534821 120.0
184.594299 52.0
184.622757 84.0
184.734955 68.0
184.771866 248.0
184.859406 52.0
184.897293 340.0
184.959549 144.0
185.013168 244.0
185.059662 32920.0
185.167526 204.0
185.198853 176.0
185.235764 124.0
185.268341 148.0
185.298706 152.0
185.357529 148.0
185.447113 48.0
185.472626 176.0
185.50946 124.0
185.553619 108.0
185.579956 156.0
185.601639 168.0
185.626053 84.0
185.653168 108.0
185.678436 232.0
185.711563 60.0
185.769806 176.0
185.788788 68.0
185.815842 152.0
185.849884 100.0
185.902527 96.0
185.935318 160.0
185.966721 220.0
186.016754 188.0
186.063065 4632.0
186.090652 800.0
186.116333 212.0
186.155212 156.0
186.190521 160.0
186.221634 88.0
186.270355 112.0
186.324463 196.0
186.407852 108.0
186.435028 56.0
186.492111 348.0
186.513855 84.0
186.542053 128.0
186.554184 48.0
186.560257 108.0
186.624176 352.0
186.716187 136.0
186.76178 168.0
186.786316 116.0
186.90004 200.0
186.962631 148.0
187.07402 3564.0
187.113708 56.0
187.121979 200.0
187.151535 116.0
187.17244 112.0
187.197922 56.0
187.223129 88.0
187.30571 72.0
187.327499 40.0
187.348419 236.0
187.428299 100.0
187.466461 200.0
187.492569 124.0
187.605469 92.0
187.657272 236.0
187.766342 192.0
187.834534 68.0
187.856354 240.0
187.878189 80.0
187.919113 224.0
187.990051 48.0
188.038193 88.0
188.074203 708.0
188.10762 292.0
188.141724 452.0
188.1716 184.0
188.192047 140.0
188.306747 364.0
188.342255 52.0
188.38858 92.0
188.421478 32.0
188.443344 80.0
188.571777 144.0
188.711197 96.0
188.760422 132.0
188.823318 64.0
188.968307 52.0
189.007233 104.0
189.085526 560.0
189.14946 368.0
189.187256 120.0
189.236526 72.0
189.283081 116.0
189.340591 68.0
189.362503 68.0
189.44194 124.0
189.483032 196.0
189.513168 52.0
189.559753 88.0
189.61731 124.0
189.677612 124.0
189.822922 148.0
189.971024 228.0
190.082245 424.0
190.144745 196.0
190.230026 32.0
190.300369 76.0
190.377258 176.0
190.442123 168.0
190.555801 208.0
190.69014 104.0
190.781174 148.0
190.830658 152.0
190.9104 192.0
190.99292 128.0
191.014923 112.0
191.042435 148.0
191.085632 716.0
191.226791 144.0
191.24881 196.0
191.268082 60.0
191.389221 104.0
191.50705 92.0
191.820038 260.0
191.890701 168.0
191.978928 136.0
192.092514 400.0
192.130646 184.0
192.166504 160.0
192.21376 256.0
192.257568 148.0
192.384537 148.0
192.724258 60.0
192.774002 116.0
192.860611 196.0
192.942612 184.0
192.977173 132.0
193.005569 244.0
193.064774 1244.0
193.097824 420.0
193.133423 156.0
193.280045 36.0
193.38826 236.0
193.59285 140.0
193.656342 212.0
193.772903 104.0
193.850494 56.0
193.944717 116.0
194.069962 828.0
194.127075 140.0
194.149902 68.0
194.241425 52.0
194.332977 72.0
194.37793 180.0
194.466187 128.0
194.560562 48.0
194.602219 120.0
194.646637 108.0
194.690521 80.0
194.796616 216.0
194.885529 64.0
194.960556 100.0
195.034973 176.0
195.077072 1812.0
195.127335 312.0
195.244125 120.0
195.383209 132.0
195.554169 128.0
195.605835 60.0
195.639252 156.0
195.711639 44.0
195.859238 120.0
195.940033 144.0
196.018051 104.0
196.076355 1172.0
196.10878 528.0
196.252197 176.0
196.366531 80.0
196.500427 128.0
196.606476 168.0
196.6595 160.0
196.874481 44.0
196.944305 160.0
196.972244 80.0
197.005768 212.0
197.059769 1236.0
197.08812 1172.0
197.147095 124.0
197.228821 160.0
197.397064 148.0
197.428223 168.0
197.478165 212.0
197.548096 156.0
197.732101 132.0
197.82515 156.0
197.911942 140.0
197.934341 180.0
197.959549 128.0
197.993149 196.0
198.06633 1768.0
198.090134 1892.0
198.12648 816.0
198.17804 52.0
198.309753 160.0
198.343399 60.0
198.413803 108.0
198.477966 148.0
198.562088 116.0
198.642227 152.0
198.755661 112.0
198.800568 140.0
198.827805 68.0
198.949326 176.0
198.974594 92.0
199.041626 312.0
199.075485 9908.0
199.125259 272.0
199.162018 92.0
199.188034 76.0
199.216385 168.0
199.241089 108.0
199.268646 132.0
199.308029 124.0
199.355774 188.0
199.39595 148.0
199.44017 208.0
199.502777 224.0
199.522446 68.0
199.570251 68.0
199.620148 220.0
199.708054 56.0
199.775558 156.0
199.820663 132.0
199.852478 200.0
199.89801 216.0
199.93219 120.0
199.963196 176.0
199.983795 216.0
200.072662 3240.0
200.106354 4256.0
200.14357 10068.0
200.240005 168.0
200.293533 72.0
200.31752 108.0
200.371475 180.0
200.400589 56.0
200.435562 136.0
200.511902 72.0
200.533035 100.0
200.63002 172.0
200.659897 48.0
200.68808 128.0
200.747299 144.0
200.780441 156.0
200.8573 88.0
200.930649 140.0
201.018112 184.0
201.089508 3892.0
201.146744 1924.0
201.236938 92.0
201.293091 148.0
201.342773 100.0
201.371017 60.0
201.40358 76.0
201.450104 120.0
201.495316 56.0
201.540527 184.0
201.650742 36.0
201.687485 124.0
201.837326 164.0
201.857117 100.0
201.947617 64.0
202.009415 76.0
202.051819 452.0
202.088043 2032.0
202.11792 304.0
202.148163 436.0
202.213577 52.0
202.258865 32.0
202.29567 36.0
202.327377 204.0
202.354004 132.0
202.3806 220.0
202.44574 72.0
202.469513 152.0
202.496719 304.0
202.562698 232.0
202.584518 140.0
202.610382 256.0
202.680862 180.0
202.714859 112.0
202.76619 180.0
202.797043 172.0
202.858276 100.0
202.955811 200.0
203.08049 760.0
203.087677 768.0
203.095352 300.0
203.119705 292.0
203.124359 320.0
203.194061 160.0
203.228104 52.0
203.256485 148.0
203.304733 116.0
203.348129 108.0
203.398392 120.0
203.492081 220.0
203.597961 168.0
203.746979 64.0
203.80452 220.0
203.980728 300.0
204.103241 192.0
204.136719 1544.0
204.233795 76.0
204.276474 152.0
204.296387 140.0
204.341904 40.0
204.376053 120.0
204.402924 180.0
204.441498 92.0
204.492722 136.0
204.515503 232.0
204.563889 196.0
204.589508 132.0
204.64949 176.0
204.711945 92.0
204.880005 220.0
204.976883 80.0
205.067368 364.0
205.096603 240.0
205.140503 640.0
205.172379 128.0
205.23912 120.0
205.350342 52.0
205.381714 160.0
205.404541 220.0
205.430222 72.0
205.504395 52.0
205.57399 144.0
205.627106 172.0
205.786972 156.0
205.806946 136.0
205.961166 320.0
205.99382 236.0
206.041153 156.0
206.063629 296.0
206.093765 136.0
206.324097 136.0
206.375565 68.0
206.398438 132.0
206.442352 124.0
206.715958 128.0
206.744583 156.0
207.079346 1032.0
207.154037 44.0
207.257172 152.0
207.3452 156.0
207.409073 128.0
207.543808 92.0
207.601166 36.0
207.692947 176.0
207.718765 68.0
207.744583 72.0
207.77327 60.0
207.842133 176.0
208.046265 132.0
208.08194 504.0
208.11171 916.0
208.189484 124.0
208.212463 204.0
208.307251 144.0
208.338959 104.0
208.427917 100.0
208.594604 88.0
208.614731 88.0
208.711624 240.0
208.799911 180.0
209.065018 584.0
209.096893 1716.0
209.184326 148.0
209.218872 192.0
209.250549 80.0
209.282211 144.0
209.377243 32.0
209.44043 64.0
209.521271 40.0
209.625 148.0
209.821014 36.0
210.04306 116.0
210.090057 3160.0
210.170013 172.0
210.223343 116.0
210.276779 136.0
210.31282 132.0
210.36319 60.0
210.412537 132.0
210.510635 156.0
210.588608 140.0
210.671021 168.0
210.735657 124.0
210.770615 132.0
210.808182 144.0
210.874222 160.0
210.924698 176.0
210.968918 164.0
211.022079 120.0
211.075592 15980.0
211.247665 80.0
211.268631 196.0
211.319992 52.0
211.380768 60.0
211.406815 124.0
211.454727 76.0
211.482056 40.0
211.537048 68.0
211.569763 120.0
211.658661 32.0
211.696716 84.0
211.724274 108.0
211.803467 156.0
211.823746 124.0
211.879364 176.0
211.951218 88.0
211.97908 108.0
212.010284 136.0
212.077866 3640.0
212.203766 160.0
212.261383 48.0
212.301987 156.0
212.330994 60.0
212.397705 36.0
212.429611 44.0
212.525345 160.0
212.635757 148.0
212.818069 156.0
212.894012 132.0
212.934677 112.0
212.975342 76.0
213.034698 120.0
213.081375 9752.0
213.169998 76.0
213.239746 64.0
213.395233 148.0
213.434525 60.0
213.510132 124.0
213.565399 48.0
213.588669 44.0
213.62648 136.0
213.728989 256.0
213.753677 84.0
213.765167 60.0
213.7715 76.0
213.92392 156.0
214.026016 116.0
214.086517 5256.0
214.173752 28.0
214.263641 156.0
214.30484 28.0
214.404236 112.0
214.470596 128.0
214.522903 224.0
214.573975 368.0
214.595749 124.0
214.642975 156.0
214.762543 132.0
214.809219 196.0
214.849701 228.0
214.984283 144.0
215.037415 244.0
215.094177 2672.0
215.133148 140.0
215.185913 52.0
215.232407 28.0
215.360916 140.0
215.410568 56.0
215.482529 184.0
215.539551 136.0
215.577957 56.0
215.618896 124.0
215.664795 88.0
215.685989 212.0
215.721771 188.0
215.784653 168.0
215.876633 52.0
215.909698 168.0
215.963043 148.0
216.009094 140.0
216.058975 156.0
216.101028 2000.0
216.137009 1648.0
216.173691 76.0
216.309296 168.0
216.407867 92.0
216.434219 52.0
216.470581 124.0
216.511642 136.0
216.574799 44.0
216.621658 120.0
216.738861 192.0
216.851303 204.0
216.870743 236.0
216.896332 180.0
216.920563 44.0
216.942917 228.0
217.008514 144.0
217.090576 628.0
217.145538 1148.0
217.198837 76.0
217.266617 160.0
217.304764 168.0
217.414719 160.0
217.451492 96.0
217.507248 124.0
217.563034 48.0
217.759781 168.0
217.783279 120.0
217.894897 40.0
217.961441 180.0
218.068283 216.0
218.094742 180.0
218.149628 248.0
218.286728 232.0
218.338013 124.0
218.373993 152.0
218.400543 92.0
218.429947 180.0
218.538803 152.0
218.741882 152.0
218.762482 92.0
218.826706 152.0
218.897919 56.0
218.956818 60.0
219.078873 568.0
219.124725 136.0
219.23671 112.0
219.295654 140.0
219.602295 204.0
219.908371 228.0
219.988846 92.0
220.08226 360.0
220.130569 296.0
220.204407 188.0
220.244827 76.0
220.320694 164.0
220.42894 180.0
220.452576 40.0
220.54715 164.0
220.671326 272.0
220.703842 60.0
220.777771 136.0
220.851715 176.0
220.973007 116.0
221.087616 784.0
221.166245 140.0
221.292664 48.0
221.419998 68.0
221.609589 84.0
221.630325 208.0
221.864471 112.0
221.917847 116.0
221.941559 160.0
222.024185 172.0
222.072845 568.0
222.164001 184.0
222.208511 124.0
222.303467 72.0
222.345016 112.0
222.472656 88.0
222.578049 176.0
222.733978 136.0
222.796356 108.0
222.837952 164.0
222.870636 208.0
222.921524 192.0
223.025177 72.0
223.090668 272.0
223.114365 264.0
223.158951 52.0
223.530777 100.0
223.76593 196.0
223.797089 240.0
223.855255 168.0
224.010132 128.0
224.080612 580.0
224.105972 788.0
224.144394 128.0
224.206787 140.0
224.269379 88.0
224.471573 88.0
224.558594 144.0
224.809204 212.0
224.841797 100.0
224.884598 92.0
225.090836 2160.0
225.121338 116.0
225.189072 172.0
225.298904 52.0
225.319809 96.0
225.371429 160.0
225.511063 60.0
225.576828 156.0
225.676483 96.0
225.716309 160.0
225.762207 92.0
225.902786 136.0
226.013489 196.0
226.085815 9044.0
226.119644 1168.0
226.246948 96.0
226.274887 132.0
226.306824 220.0
226.360718 100.0
226.474533 136.0
226.534439 52.0
226.660278 160.0
226.714218 128.0
226.741196 96.0
227.017014 72.0
227.09964 3352.0
227.24498 104.0
227.294281 196.0
227.341003 80.0
227.362015 40.0
227.419037 84.0
227.458054 132.0
227.500092 84.0
227.548126 104.0
227.630005 148.0
227.666412 112.0
227.692261 76.0
227.771729 192.0
227.803406 132.0
227.899429 112.0
227.9384 176.0
228.015106 212.0
228.101303 31312.0
228.180679 164.0
228.216949 100.0
228.228577 60.0
228.240799 128.0
228.272858 252.0
228.305359 244.0
228.347473 116.0
228.386566 100.0
228.411057 140.0
228.441071 220.0
228.4823 68.0
228.51593 136.0
228.539627 132.0
228.559433 144.0
228.638824 128.0
228.703644 148.0
228.725845 228.0
228.753677 32.0
228.777771 84.0
228.833084 64.0
228.895187 108.0
228.943375 144.0
229.004944 172.0
229.025223 92.0
229.097366 3784.0
229.157242 52.0
229.196411 44.0
229.231018 208.0
229.280045 128.0
229.335052 116.0
229.377243 136.0
229.485779 44.0
229.534149 104.0
229.579269 44.0
229.609421 64.0
229.641022 168.0
229.711121 56.0
229.73912 72.0
229.764618 116.0
229.911118 76.0
229.974503 152.0
230.034866 92.0
230.117844 3968.0
230.173752 40.0
230.258316 132.0
230.281158 220.0
230.324768 60.0
230.368484 144.0
230.41539 136.0
230.480621 116.0
230.525757 76.0
230.551849 244.0
230.654129 116.0
230.711578 56.0
230.74324 144.0
230.778763 144.0
230.821243 264.0
230.877884 140.0
230.916763 56.0
231.00795 108.0
231.047272 204.0
231.115936 728.0
231.1465 172.0
231.189484 124.0
231.210678 180.0
231.301468 60.0
231.33931 144.0
231.483139 76.0
231.550674 256.0
231.577026 140.0
231.622452 76.0
231.680008 176.0
231.72998 288.0
231.781418 160.0
231.861038 140.0
231.931534 88.0
231.955063 84.0
232.016418 36.0
232.043701 92.0
232.098373 316.0
232.123337 120.0
232.222626 92.0
232.60495 188.0
232.650482 140.0
232.981506 44.0
233.039246 144.0
233.09375 196.0
233.139511 160.0
233.185104 76.0
233.25502 96.0
233.297577 56.0
233.397903 180.0
233.476181 184.0
233.548248 152.0
233.638199 56.0
233.665573 100.0
233.787292 124.0
233.936432 36.0
233.969925 64.0
234.042999 232.0
234.064316 196.0
234.088669 256.0
234.149582 100.0
234.234863 108.0
234.265335 148.0
234.341492 124.0
234.459091 156.0
234.533493 172.0
234.570068 160.0
234.665924 184.0
234.688965 96.0
235.07637 108.0
235.097733 116.0
235.123627 120.0
235.150681 188.0
235.247299 208.0
235.381638 128.0
235.485474 72.0
235.509918 48.0
235.610718 200.0
235.659607 100.0
235.934677 156.0
236.070282 164.0
236.105408 1572.0
236.215179 144.0
236.362885 132.0
236.494476 244.0
236.947708 80.0
237.015121 156.0
237.09024 3488.0
237.152328 140.0
237.1884 148.0
237.232727 64.0
237.257248 164.0
237.487244 40.0
237.741898 84.0
237.787933 64.0
238.039673 104.0
238.091492 1484.0
238.171738 172.0
238.316132 132.0
238.365295 72.0
238.487305 160.0
238.512817 72.0
238.632721 36.0
238.692825 124.0
238.72496 164.0
238.769226 148.0
238.969727 112.0
239.001816 40.0
239.095062 1072.0
239.211105 132.0
239.26651 56.0
239.349655 128.0
239.38353 176.0
239.509796 80.0
239.540604 84.0
239.623779 104.0
239.780945 120.0
239.845673 224.0
239.881622 212.0
239.958069 196.0
240.02449 140.0
240.055328 84.0
240.102112 720.0
240.162903 100.0
240.201233 104.0
240.345291 156.0
240.379242 128.0
240.595291 164.0
240.758957 92.0
240.857788 128.0
240.897949 100.0
240.941193 160.0
241.02771 128.0
241.076355 416.0
241.105637 280.0
241.146362 204.0
241.188416 100.0
241.296616 112.0
241.333389 148.0
241.652313 140.0
241.774918 92.0
241.823578 104.0
241.881317 84.0
242.084991 308.0
242.116791 3568.0
242.181686 168.0
242.268417 124.0
242.336578 192.0
242.364471 160.0
242.521851 240.0
242.550415 196.0
242.63385 188.0
242.708527 180.0
242.894623 80.0
242.941147 48.0
243.003204 168.0
243.094208 1172.0
243.120102 1288.0
243.179276 76.0
243.25148 124.0
243.40361 36.0
243.482285 132.0
243.518524 112.0
243.720459 140.0
243.807465 32.0
243.950439 112.0
244.095886 1516.0
244.131363 1004.0
244.180542 72.0
244.211655 44.0
244.267639 60.0
244.289413 156.0
244.39209 64.0
244.652832 72.0
244.831009 72.0
244.905762 112.0
244.980515 124.0
245.030365 60.0
245.108063 508.0
245.13295 224.0
245.46051 124.0
245.628937 104.0
245.697556 144.0
245.853577 120.0
245.950333 160.0
246.0952 208.0
246.120575 144.0
246.271957 180.0
246.625031 116.0
246.68309 84.0
246.762589 144.0
246.796982 128.0
246.82605 148.0
246.857407 172.0
247.056564 124.0
247.1035 172.0
247.147308 160.0
247.228668 68.0
247.256836 52.0
247.303787 48.0
247.457184 80.0
247.582428 132.0
247.652496 152.0
247.826767 128.0
247.88945 56.0
248.021072 48.0
248.105713 164.0
248.130798 148.0
248.168427 128.0
248.199783 132.0
248.273071 188.0
248.325775 160.0
248.413055 124.0
248.487457 156.0
248.54483 212.0
248.591904 180.0
248.864243 84.0
248.949783 208.0
249.093826 144.0
249.19165 76.0
249.245071 96.0
249.644302 96.0
249.678894 28.0
249.921112 60.0
250.081619 164.0
250.114746 328.0
250.157166 276.0
250.210678 92.0
250.232727 164.0
250.292542 28.0
250.352386 76.0
250.610687 92.0
250.68631 100.0
250.714676 160.0
250.739883 152.0
250.947952 112.0
250.992096 236.0
251.061462 156.0
251.106552 176.0
251.143463 176.0
251.168701 44.0
251.323685 96.0
251.3517 208.0
251.386398 104.0
251.866302 76.0
251.921402 208.0
252.046387 216.0
252.102036 1860.0
252.13562 348.0
252.171158 304.0
252.251831 104.0
252.280273 72.0
252.31929 132.0
252.360718 160.0
252.422562 156.0
252.506805 88.0
252.54274 164.0
252.634476 48.0
252.784805 156.0
252.835297 124.0
252.871796 52.0
252.897125 76.0
252.919281 72.0
252.954102 200.0
253.001587 180.0
253.030075 68.0
253.110336 1876.0
253.149109 212.0
253.182068 144.0
253.369629 132.0
253.416489 100.0
253.619308 136.0
253.689041 108.0
253.74295 44.0
253.809525 308.0
253.844406 240.0
253.920517 128.0
253.949066 164.0
254.062256 204.0
254.117081 24368.0
254.228271 128.0
254.299591 228.0
254.337967 128.0
254.405228 48.0
254.475861 36.0
254.548889 60.0
254.594482 56.0
254.680847 256.0
254.755341 120.0
254.783936 52.0
254.813187 156.0
254.867706 104.0
254.901505 132.0
254.94281 156.0
254.980347 104.0
255.019089 36.0
255.041336 148.0
255.119522 3640.0
255.238937 80.0
255.270248 92.0
255.32518 88.0
255.365662 212.0
255.582001 52.0
255.667923 148.0
255.801605 52.0
255.893921 128.0
255.99263 144.0
256.098541 2620.0
256.128876 1108.0
256.172699 60.0
256.191864 152.0
256.229889 60.0
256.292084 104.0
256.352631 84.0
256.445038 76.0
256.521545 32.0
256.684143 52.0
256.72879 164.0
256.768646 104.0
256.83017 188.0
256.910614 128.0
256.972809 132.0
257.006317 180.0
257.102783 356.0
257.110077 224.0
257.159515 52.0
257.215393 156.0
257.673645 44.0
257.721558 108.0
257.788666 60.0
257.830231 88.0
257.884552 140.0
257.958069 152.0
258.06485 92.0
258.088898 148.0
258.14917 396.0
258.290649 148.0
258.325836 68.0
258.380219 152.0
258.533813 196.0
258.82193 76.0
259.004456 180.0
259.270416 252.0
259.356934 96.0
259.517242 112.0
259.558929 180.0
259.584564 104.0
259.619843 136.0
259.646301 124.0
259.706451 180.0
259.764191 48.0
259.882904 56.0
260.030518 116.0
260.097931 120.0
260.210266 172.0
260.293762 132.0
260.647125 72.0
260.875214 140.0
261.04895 112.0
261.081085 64.0
261.11969 236.0
261.239044 152.0
261.26767 140.0
261.454285 52.0
261.576599 124.0
261.914703 40.0
262.104797 140.0
262.233704 128.0
262.32019 140.0
263.020752 160.0
263.082062 52.0
263.136658 128.0
263.498688 152.0
263.624725 192.0
264.130951 164.0
264.171143 168.0
264.449432 144.0
264.536835 160.0
264.682526 92.0
264.763489 124.0
264.802368 232.0
264.951355 160.0
264.98053 268.0
265.110138 164.0
265.147583 172.0
265.213837 172.0
265.431061 196.0
265.541321 184.0
265.635406 136.0
265.677582 196.0
265.833313 72.0
265.911194 116.0
265.946899 168.0
265.97287 40.0
266.117493 528.0
266.158691 208.0
266.258606 112.0
266.690735 140.0
266.776398 72.0
266.827271 112.0
266.989868 88.0
267.127197 340.0
267.163849 320.0
267.451874 48.0
267.686279 108.0
267.722107 84.0
267.749878 132.0
267.780731 108.0
267.875977 196.0
267.933838 124.0
267.986786 156.0
268.077209 104.0
268.13089 4164.0
268.172089 416.0
268.223877 60.0
268.289062 28.0
268.399933 80.0
268.455353 96.0
268.496674 176.0
268.535004 72.0
268.641266 180.0
268.683685 132.0
268.784851 56.0
268.872955 56.0
268.948029 140.0
268.993713 140.0
269.032898 92.0
269.136963 900.0
269.275574 120.0
269.375793 192.0
269.444397 132.0
269.62085 104.0
269.643738 200.0
269.715637 84.0
269.862762 180.0
269.928162 168.0
270.006622 144.0
270.111176 1472.0
270.144714 320.0
270.203156 52.0
270.248718 72.0
270.314148 40.0
270.350159 32.0
270.373077 136.0
270.396942 176.0
270.427765 112.0
270.494171 156.0
270.610413 204.0
270.697327 148.0
270.788849 192.0
270.847809 100.0
270.887146 188.0
270.937836 92.0
270.991974 52.0
271.11908 4388.0
271.375458 32.0
271.414795 60.0
271.477112 60.0
271.562378 108.0
271.588623 168.0
271.71106 100.0
271.759216 76.0
271.873108 176.0
271.910156 72.0
271.939545 172.0
271.977905 88.0
272.036469 236.0
272.079834 188.0
272.12738 26452.0
272.228088 72.0
272.275818 32.0
272.300507 120.0
272.381653 52.0
272.409271 64.0
272.497986 68.0
272.54718 180.0
272.570251 128.0
272.630829 92.0
272.72287 68.0
272.767456 44.0
272.797058 92.0
272.858765 52.0
272.905182 76.0
272.937256 56.0
273.014069 48.0
273.130127 4624.0
273.222687 76.0
273.290375 68.0
273.330475 88.0
273.338104 88.0
273.435181 60.0
273.484558 100.0
273.566833 32.0
273.612946 208.0
273.665619 48.0
273.705139 212.0
273.751221 56.0
274.027924 52.0
274.1315 580.0
274.238831 192.0
274.261902 144.0
274.304749 60.0
274.424469 156.0
274.545441 148.0
274.591614 164.0
274.619904 160.0
274.690582 68.0
274.894653 196.0
274.924835 180.0
274.980957 148.0
275.050262 60.0
275.104858 148.0
275.137817 152.0
275.19223 52.0
275.32431 68.0
275.347443 140.0
275.406891 164.0
275.459747 232.0
275.588593 160.0
275.641449 56.0
275.727386 160.0
275.776947 136.0
275.813324 116.0
275.856842 24.0
276.084442 112.0
276.138977 120.0
276.178894 100.0
276.206818 108.0
276.40863 100.0
276.610535 184.0
276.782684 152.0
277.004578 100.0
277.084106 116.0
277.121185 120.0
277.160309 112.0
277.186798 116.0
277.57135 176.0
277.873169 88.0
277.903046 84.0
278.109528 144.0
278.154266 208.0
278.606903 128.0
278.786346 152.0
278.822906 40.0
278.912628 60.0
278.935913 108.0
279.130859 444.0
279.160461 388.0
279.265106 48.0
279.290192 96.0
279.34494 248.0
279.428101 128.0
279.458038 40.0
279.488007 196.0
279.582642 100.0
279.904083 128.0
280.137512 496.0
280.166046 700.0
280.37381 64.0
280.497131 88.0
280.530457 148.0
280.830566 144.0
280.937317 136.0
281.004059 44.0
281.094147 148.0
281.140289 4396.0
281.264343 64.0
281.454651 148.0
281.526184 180.0
281.57489 36.0
281.621643 40.0
281.711823 156.0
281.864471 88.0
282.029297 180.0
282.052673 160.0
282.145386 1536.0
282.266663 68.0
282.306793 180.0
282.360291 132.0
282.500793 140.0
282.724976 80.0
283.036285 48.0
283.062317 120.0
283.155457 1652.0
283.250641 48.0
283.307587 116.0
283.361206 112.0
283.384644 128.0
283.431549 140.0
283.478485 112.0
283.57901 124.0
283.666168 88.0
283.91095 156.0
284.065216 40.0
284.125549 356.0
284.162964 1080.0
284.25647 132.0
284.347076 156.0
284.469147 132.0
284.582062 52.0
284.660858 152.0
284.739899 112.0
284.780212 128.0
284.90451 48.0
284.979828 160.0
285.109467 164.0
285.139008 176.0
285.164551 156.0
285.294342 236.0
285.412018 164.0
285.539825 112.0
285.681091 96.0
285.906525 108.0
286.031982 148.0
286.088287 68.0
286.142578 448.0
286.290314 48.0
286.337463 124.0
286.563812 84.0
286.62381 88.0
286.691223 156.0
286.746155 132.0
286.792328 236.0
286.819305 52.0
286.923798 100.0
287.16153 204.0
287.267792 84.0
287.304901 100.0
287.47699 100.0
287.790924 176.0
287.875336 128.0
288.179352 188.0
288.399017 176.0
288.480133 260.0
288.622162 72.0
288.899506 172.0
289.146515 144.0
289.512146 112.0
290.01358 240.0
290.08139 76.0
290.130371 316.0
290.186462 156.0
290.478149 208.0
290.576508 176.0
290.922699 168.0
291.000793 132.0
291.16037 88.0
291.313232 116.0
291.540894 172.0
291.642853 32.0
291.717621 128.0
292.064484 40.0
292.135773 132.0
292.220978 128.0
292.268616 136.0
292.677094 40.0
292.816711 52.0
292.843964 128.0
292.89505 200.0
293.126709 40.0
293.167603 124.0
293.263062 184.0
293.294891 212.0
293.375549 76.0
293.726776 116.0
293.780579 88.0
293.822296 92.0
293.853241 56.0
293.951965 164.0
294.111938 304.0
294.148529 2040.0
294.238678 68.0
294.464294 56.0
294.518707 44.0
294.612213 100.0
294.73941 180.0
294.904816 124.0
295.045654 80.0
295.085999 116.0
295.152466 908.0
295.254578 164.0
295.279602 124.0
295.393799 116.0
295.506714 76.0
295.585388 56.0
295.612762 104.0
295.694916 76.0
295.766785 168.0
295.816071 180.0
295.999603 48.0
296.048859 228.0
296.116028 164.0
296.164093 26580.0
296.226654 152.0
296.266754 84.0
296.311035 64.0
296.386688 100.0
296.41153 60.0
296.475342 64.0
296.508698 64.0
296.548187 188.0
296.578613 172.0
296.632507 188.0
296.674591 112.0
296.69986 152.0
296.729431 248.0
296.801453 48.0
297.003784 68.0
297.049377 68.0
297.088593 156.0
297.123474 144.0
297.166992 5164.0
297.25766 92.0
297.2966 216.0
297.443024 100.0
297.48764 36.0
297.532257 128.0
297.563171 48.0
297.642151 52.0
297.776062 152.0
297.824158 48.0
298.047485 184.0
298.178955 1252.0
298.230835 112.0
298.36026 44.0
298.456512 44.0
298.494354 172.0
298.518402 64.0
298.630402 220.0
298.703278 112.0
298.735107 124.0
298.783264 156.0
298.841766 100.0
298.894714 92.0
298.972534 180.0
299.006927 60.0
299.113098 128.0
299.184906 248.0
299.265106 100.0
299.378754 132.0
299.423523 36.0
299.537201 136.0
299.56131 104.0
299.703857 140.0
299.756256 180.0
299.84729 76.0
300.057587 116.0
300.169525 136.0
300.219635 104.0
300.250671 76.0
300.488708 48.0
300.516296 64.0
300.547363 48.0
300.630188 144.0
300.799316 148.0
300.923584 272.0
301.192963 144.0
301.279327 144.0
301.462463 48.0
301.626251 132.0
302.019104 128.0
302.140167 156.0
302.548553 92.0
302.576263 156.0
302.852386 76.0
302.900635 144.0
303.147797 168.0
303.199768 144.0
303.269073 112.0
303.341888 144.0
303.379883 120.0
303.761475 200.0
303.844727 36.0
303.969666 52.0
304.157074 116.0
304.243866 236.0
304.438293 120.0
305.162598 236.0
305.251495 72.0
305.735046 60.0
306.065765 168.0
306.147034 176.0
306.17572 168.0
306.344391 152.0
306.431488 144.0
306.504669 44.0
306.57785 52.0
306.717255 132.0
306.773041 112.0
307.158142 100.0
307.226379 128.0
307.250824 216.0
307.285706 92.0
307.390381 52.0
307.432251 60.0
307.520844 136.0
307.575348 116.0
308.022339 208.0
308.170044 156.0
308.2005 200.0
308.900818 144.0
309.046692 188.0
309.167786 164.0
309.213562 164.0
309.246155 140.0
309.505219 100.0
309.709717 156.0
309.894043 132.0
310.013184 188.0
310.14798 360.0
310.178955 160.0
310.737579 176.0
310.948608 188.0
311.001648 172.0
311.082947 100.0
311.152313 404.0
311.192688 124.0
311.265533 108.0
311.53949 80.0
311.592194 132.0
311.701111 152.0
311.883881 56.0
311.915497 124.0
311.996368 32.0
312.066681 120.0
312.158813 10144.0
312.238098 112.0
312.246765 72.0
312.355072 40.0
312.545044 180.0
312.594299 128.0
312.69989 92.0
312.738617 48.0
312.812531 100.0
312.879913 56.0
312.970947 188.0
313.020264 108.0
313.16275 4012.0
313.223267 200.0
313.252716 128.0
313.33374 52.0
313.359955 164.0
313.841278 56.0
313.954132 124.0
314.077576 72.0
314.169342 492.0
314.290192 168.0
314.638672 128.0
314.723419 212.0
314.823364 132.0
314.857605 144.0
314.973541 244.0
315.104889 44.0
315.157898 160.0
315.225037 164.0
315.320435 112.0
315.454773 140.0
315.504272 100.0
315.553741 112.0
315.649231 108.0
315.99942 156.0
316.035706 188.0
316.289612 160.0
316.905823 104.0
317.288605 152.0
318.498718 68.0
318.868256 140.0
319.141968 28.0
319.290466 148.0
319.355347 108.0
319.49408 76.0
319.647095 192.0
319.728943 228.0
320.120544 168.0
320.154266 224.0
320.266571 164.0
320.580109 280.0
320.615753 40.0
320.683472 116.0
320.844818 128.0
321.171936 164.0
321.221893 116.0
321.462982 108.0
321.507324 176.0
321.67865 96.0
321.703644 148.0
321.760773 172.0
321.949036 160.0
322.128601 192.0
322.178284 5812.0
322.283173 156.0
322.336121 160.0
322.363495 160.0
322.400177 116.0
322.425171 108.0
322.510956 36.0
322.603912 140.0
322.720856 140.0
322.907379 156.0
322.985199 108.0
323.183746 1288.0
323.39444 52.0
323.462463 136.0
323.568268 144.0
323.634308 44.0
323.881409 44.0
323.978149 140.0
324.060547 92.0
324.189667 236.0
324.458374 76.0
324.888733 76.0
324.971252 136.0
325.08252 92.0
325.164459 508.0
325.351715 88.0
325.829376 60.0
326.006866 100.0
326.134827 100.0
326.165466 152.0
326.231873 148.0
326.537537 204.0
326.631042 160.0
326.749756 204.0
326.843323 148.0
326.914307 44.0
327.080841 152.0
327.293274 148.0
327.505737 44.0
328.15802 104.0
328.295074 188.0
328.439331 148.0
328.670227 48.0
328.814575 132.0
329.013123 172.0
329.125031 104.0
329.247833 28.0
329.446503 256.0
329.559357 252.0
329.674133 132.0
329.771698 108.0
329.865692 148.0
330.386444 72.0
330.538422 276.0
330.726593 188.0
330.788147 164.0
330.90036 80.0
331.194489 168.0
331.277039 124.0
331.302368 144.0
331.367584 52.0
331.62851 172.0
331.738922 236.0
331.788025 124.0
331.817017 140.0
331.907654 72.0
332.20871 132.0
332.404633 96.0
332.433655 120.0
332.60788 204.0
332.774872 144.0
333.42511 48.0
333.977783 184.0
334.099884 176.0
334.760284 236.0
334.975159 156.0
335.222931 100.0
335.252014 180.0
335.335907 108.0
335.83963 132.0
336.017822 48.0
336.203918 108.0
336.280579 88.0
336.346283 128.0
336.415619 108.0
336.641998 80.0
336.820984 60.0
336.912292 96.0
336.978058 84.0
337.113281 48.0
337.2229 144.0
337.263123 148.0
337.398376 196.0
337.499634 168.0
337.599487 64.0
337.716522 72.0
337.749451 204.0
337.804321 144.0
337.893646 88.0
337.949524 184.0
338.003967 120.0
338.067749 104.0
338.134521 128.0
338.168732 184.0
338.29834 148.0
338.323975 112.0
338.353271 72.0
338.382568 56.0
338.419037 100.0
338.45578 144.0
338.514374 108.0
338.558319 108.0
338.602264 64.0
338.642548 116.0
338.690186 88.0
338.722443 144.0
338.824219 80.0
338.868591 176.0
338.895813 184.0
338.964966 116.0
339.002258 88.0
339.050385 108.0
339.10788 100.0
339.140869 68.0
339.18689 244.0
339.269165 164.0
339.300323 96.0
339.368164 116.0
339.448853 180.0
339.482513 288.0
339.533173 68.0
339.569855 112.0
339.595551 172.0
339.643219 80.0
339.686737 148.0
339.710846 92.0
339.729523 136.0
339.758606 176.0
339.786285 216.0
339.841431 228.0
339.870544 116.0
339.880646 148.0
339.924072 132.0
339.951935 156.0
339.989227 388.0
340.026611 408.0
340.07312 204.0
340.117004 396.0
340.191132 169272.0
340.305023 188.0
340.350494 204.0
340.391693 132.0
340.428284 40.0
340.463501 156.0
340.542023 312.0
340.593445 68.0
340.625214 204.0
340.63205 96.0
340.646576 144.0
340.688232 44.0
340.796051 496.0
340.850647 176.0
340.887268 272.0
340.897339 172.0
340.938263 156.0
340.970795 68.0
341.01886 140.0
341.060059 152.0
341.069855 80.0
341.084442 304.0
341.11615 108.0
341.193695 29632.0
341.33786 220.0
341.381592 116.0
341.444763 100.0
341.508942 148.0
341.554291 76.0
341.567749 52.0
341.620758 120.0
341.65744 40.0
341.703003 132.0
341.733734 104.0
341.787476 204.0
341.817352 216.0
341.849731 128.0
341.880554 168.0
341.937988 140.0
341.976471 60.0
342.00592 64.0
342.042145 128.0
342.070099 52.0
342.094269 80.0
342.120026 88.0
342.197754 3960.0
342.281067 60.0
342.294495 136.0
342.32547 96.0
342.386047 116.0
342.417084 36.0
342.450928 100.0
342.547363 204.0
342.591431 60.0
342.660614 108.0
342.753113 68.0
342.81485 44.0
342.858582 92.0
342.914062 180.0
342.972351 76.0
343.002411 152.0
343.059448 64.0
343.085266 88.0
343.125 180.0
343.132141 56.0
343.145966 108.0
343.201172 580.0
343.254364 144.0
343.301727 68.0
343.334137 228.0
343.384888 172.0
343.421417 136.0
343.489502 320.0
343.524933 124.0
343.590027 192.0
343.606659 104.0
343.703156 152.0
343.733185 60.0
343.739685 104.0
343.792175 88.0
343.836273 100.0
343.90506 52.0
343.973846 108.0
344.029694 68.0
344.06662 52.0
344.125702 44.0
344.177002 116.0
344.20694 136.0
344.242889 168.0
344.301361 140.0
344.354645 112.0
344.380524 32.0
344.500183 104.0
344.620636 72.0
344.657593 148.0
344.683441 116.0
344.768463 60.0
344.923676 80.0
345.016113 52.0
345.174286 72.0
345.267548 32.0
345.371124 84.0
345.474335 120.0
345.526489 136.0
345.611572 96.0
345.784241 100.0
345.834503 136.0
345.863251 72.0
345.892853 44.0
345.963196 48.0
346.055969 72.0
346.092773 44.0
346.181641 52.0
346.211273 60.0
346.511322 88.0
346.592834 76.0
346.733673 40.0
346.804077 72.0
346.904175 44.0
346.988586 132.0
347.033936 56.0
347.119202 72.0
347.182251 120.0
347.404816 28.0
347.627441 80.0
348.132324 88.0
348.507507 120.0
348.544647 60.0
349.031616 84.0
349.094818 68.0
350.755402 88.0
350.807587 88.0
351.695374 52.0
352.098633 48.0
352.316925 100.0
352.483429 92.0
352.625427 84.0
353.313477 40.0
354.088348 92.0
354.226929 132.0
354.259247 96.0
354.395508 128.0
354.574005 140.0
354.635376 124.0
354.661591 96.0
354.721588 60.0
354.804047 76.0
354.882782 44.0
354.965271 112.0
355.025299 92.0
355.167816 60.0
355.284088 52.0
355.636841 112.0
355.693909 40.0
355.765778 104.0
355.92218 56.0
356.046082 48.0
356.072388 144.0
356.106171 120.0
356.181305 160.0
356.372925 72.0
356.538269 100.0
356.744995 72.0
356.955536 36.0
357.173676 180.0
357.226349 64.0
357.534882 76.0
357.583801 64.0
357.86615 104.0
357.911346 128.0
357.952759 92.0
357.982361 56.0
358.050659 132.0
358.09964 184.0
358.200348 11880.0
358.287994 60.0
358.333191 48.0
358.375305 136.0
358.495239 48.0
358.540436 36.0
358.608276 56.0
358.653534 64.0
358.855774 68.0
359.002838 148.0
359.06073 28.0
359.204529 2404.0
359.339874 28.0
359.388916 36.0
359.479492 88.0
359.520996 60.0
360.053314 60.0
360.20697 704.0
360.370636 64.0
360.58606 92.0
360.707001 96.0
360.835541 40.0
360.914948 40.0
361.140289 68.0
361.266693 84.0
361.308289 140.0
361.493713 156.0
361.561829 36.0
361.611023 108.0
361.925232 76.0
362.130798 128.0
362.682953 56.0
363.631195 116.0
365.489532 56.0
365.645569 56.0
365.972961 104.0
366.132904 28.0
367.383148 64.0
367.707489 60.0
367.783813 88.0
368.513245 56.0
368.597321 48.0
369.251038 60.0
370.410828 84.0
372.463074 44.0
374.097382 104.0
374.595917 80.0
374.68277 108.0
375.322601 68.0
375.611847 56.0
377.957001 84.0
378.080811 56.0
381.323181 68.0
381.836395 84.0
383.202759 76.0
384.122833 88.0
385.704315 72.0
388.249329 44.0
388.669098 128.0
391.280121 68.0
391.873688 144.0
392.003723 72.0
392.054962 56.0
392.831696 80.0
392.898773 64.0
393.439453 84.0
394.525909 72.0
396.675507 56.0
397.690979 120.0
397.885498 92.0
398.509064 56.0
399.632538 60.0
400.203491 116.0
400.589813 48.0
401.865601 88.0
402.296661 84.0
402.656036 52.0
402.787842 72.0
404.19516 56.0
404.531342 80.0
405.051941 52.0
406.378937 64.0
408.604828 116.0
410.3367 56.0
415.28244 32.0
417.647461 96.0
417.796936 168.0
419.034637 32.0
419.401398 80.0
419.923309 76.0
420.110962 76.0
421.822052 72.0
422.779144 68.0
423.233551 52.0
425.484528 84.0
427.334045 144.0
428.009094 116.0
428.140869 100.0
431.396423 68.0
432.861115 84.0
433.830658 88.0
436.022339 128.0
436.458832 96.0
441.212036 60.0
441.780823 84.0
441.839386 120.0
442.065338 76.0
443.229492 76.0
443.552185 60.0
443.988251 68.0
444.588196 96.0
445.566559 128.0
447.863464 96.0
450.263397 72.0
451.637054 60.0
455.507202 128.0
456.025604 76.0
459.935791 96.0
460.858276 44.0
462.950073 88.0
468.39624 172.0
468.615967 68.0
469.909454 40.0
470.004364 92.0
471.187439 76.0
472.648865 124.0
474.606781 76.0
477.038116 68.0
477.151154 160.0
479.541016 84.0
480.277924 76.0
482.046112 88.0
482.439514 84.0
483.975189 132.0
484.798737 56.0
485.526489 84.0
486.452332 36.0
489.565338 68.0
498.497223 72.0
498.728333 132.0
499.24408 108.0
499.871338 108.0
503.348389 56.0
504.335724 88.0
505.073517 124.0
505.98645 80.0
506.93158 80.0
508.245453 68.0
508.335205 72.0
510.271179 152.0
513.373657 56.0
514.528809 64.0
514.777161 40.0
515.884155 124.0
519.348328 32.0
519.61145 52.0
520.719055 52.0
520.878052 40.0
522.710327 56.0
523.971558 84.0
529.146301 52.0
529.466797 116.0
530.704102 64.0
530.745361 76.0
533.468018 120.0
539.405518 68.0
539.655212 68.0
541.534058 40.0
542.025146 52.0
543.007996 92.0
545.761841 72.0
546.901611 72.0
549.31073 76.0
550.07605 68.0
551.472717 84.0
551.603577 56.0
554.950989 48.0
556.452454 68.0
556.583923 64.0
558.543701 60.0
558.852356 60.0
561.086731 64.0
561.728149 76.0
571.264282 144.0
575.83075 104.0
577.75238 36.0
578.168701 68.0
583.017334 60.0
583.147095 96.0
585.45166 64.0
585.836731 84.0
586.415222 84.0
592.160034 32.0
596.177185 104.0
599.111267 80.0
601.617981 68.0
616.42218 36.0
618.073853 108.0
618.281677 48.0
618.400452 76.0
621.736023 112.0
628.234497 64.0
628.309326 48.0
632.13678 28.0
632.361938 52.0
634.872009 76.0
636.864563 48.0
637.186096 128.0
649.502808 80.0
652.47998 100.0
656.721985 84.0
657.002502 116.0
658.329651 68.0
659.642761 100.0
662.764771 88.0
662.985107 80.0
665.698975 52.0
667.235352 84.0
679.138672 84.0
679.647095 64.0
680.243958 108.0
680.659302 76.0
682.706787 68.0
684.064819 64.0
688.287964 52.0
691.147217 144.0
697.204102 92.0
699.844849 52.0
700.529541 44.0
700.814026 52.0
703.013 100.0
703.329651 72.0
705.479675 108.0
706.849548 124.0
706.928955 60.0
709.895569 56.0
712.655884 84.0
715.490723 48.0
723.563232 104.0
726.26416 124.0
728.502625 64.0
730.852112 120.0
735.859497 72.0
736.928894 52.0
740.06604 120.0
745.523193 60.0
753.70282 120.0
760.268738 68.0
760.526672 100.0
766.868652 56.0
767.083618 92.0
767.877625 84.0
768.738281 64.0
782.251343 100.0
787.241577 52.0
788.252686 108.0
790.450378 140.0
793.676941 76.0
795.882141 76.0
808.860596 184.0
809.302185 168.0
811.925964 72.0
818.159424 108.0
830.066956 44.0
831.237183 44.0
839.434631 112.0
844.598022 84.0
848.941895 60.0
858.520142 52.0
863.548767 68.0
869.114197 76.0
869.390015 88.0
877.43103 184.0
878.935059 52.0
880.534912 112.0
881.622009 36.0
888.336487 84.0
889.588684 84.0
893.421814 64.0
896.243958 68.0
909.893188 92.0
910.950195 92.0
916.40094 140.0
921.312073 292.0
922.212463 96.0
923.288696 108.0
926.103088 48.0
927.387634 76.0
927.890808 88.0
928.10907 36.0
928.400146 76.0
930.420776 132.0
943.213928 152.0
950.260742 80.0
954.212158 40.0
956.205261 208.0
956.796204 48.0
970.568604 156.0
971.095703 44.0
971.368652 276.0
971.622986 44.0
972.224915 52.0
973.78949 124.0
974.367188 48.0
975.678528 44.0
975.983215 208.0
977.276978 136.0
979.823547 44.0
983.971069 68.0
985.501282 128.0
987.426758 100.0
994.651245 36.0
995.310486 64.0
997.421448 180.0
999.78009 248.0
1004.505737 128.0
1005.401672 72.0
1007.087463 164.0
1011.11499 100.0
1014.16156 224.0
1017.199951 80.0
1017.485657 68.0
1020.026794 36.0
1020.153931 176.0
1027.726685 200.0
1029.111816 104.0
1029.175659 44.0
1029.328857 64.0
1033.598999 88.0
1037.698364 172.0
1038.827148 136.0
1042.821167 240.0
1046.835815 136.0
1062.32251 148.0
1063.185425 156.0
1065.698486 160.0
1070.883423 108.0
1071.515259 140.0
1078.700684 140.0
1079.589844 124.0
1080.577637 100.0
1091.952515 72.0
1093.288086 68.0
1093.46582 84.0
1096.910767 172.0
1097.774536 116.0
1099.36438 144.0
1099.753784 100.0
1100.493164 64.0
1103.486328 216.0
1109.325562 124.0
1111.872681 148.0
1112.098267 132.0
1113.074219 188.0
1116.197388 212.0
1116.895752 120.0
1121.070312 168.0
1121.150391 56.0
1122.310303 244.0
1124.685303 36.0
1131.865601 48.0
1134.163696 116.0
1134.867554 164.0
1136.168701 60.0
1136.90686 88.0
1137.034424 224.0
1137.732422 44.0
1139.102417 88.0
1142.302246 188.0
1143.930786 144.0
1145.270874 164.0
1145.917603 148.0
1147.77124 148.0
1148.607544 216.0
1149.201172 80.0
1151.070923 152.0
1152.847656 232.0
1158.931152 108.0
1159.574951 136.0
1163.12915 116.0
1169.109131 112.0
1172.324829 136.0
1173.838135 72.0
1178.001587 176.0
1179.252075 196.0
1179.853638 44.0
1180.674194 80.0
1182.056152 144.0
1183.870239 196.0
1185.130737 112.0
1185.603516 160.0
1188.817383 116.0
1190.494995 192.0
1193.333008 152.0
1193.766235 184.0
1194.240723 92.0
1195.444702 192.0
1196.61499 40.0
1197.434448 48.0
1197.530884 120.0
1198.054321 144.0
1198.839844 84.0
1200.873779 224.0
1202.923096 128.0
1211.94873 140.0
1212.815063 92.0
1218.074829 48.0
1219.714844 156.0
1221.648071 120.0
1222.55957 48.0
1222.761353 64.0
1223.290405 180.0
1223.429565 44.0
1224.0354 32.0
1225.358765 132.0
1226.06958 140.0
1227.945068 80.0
1229.612549 264.0
1229.703247 92.0
1232.5177 152.0
1233.559082 48.0
1234.677856 196.0
1235.881104 156.0
1236.454956 132.0
1237.785034 120.0
1238.96875 132.0
1239.396118 248.0
1239.830688 44.0
1242.2146 132.0
1244.867798 60.0
1246.876953 108.0
1247.692383 148.0
1250.302124 152.0
1251.393188 120.0
1251.449585 56.0
1252.773682 48.0
1256.55957 84.0
1260.294678 136.0
1260.803467 128.0
1261.948608 136.0
1264.21936 116.0
1264.40332 196.0
1264.587402 148.0
1268.093384 164.0
1270.710205 108.0
1270.894653 180.0
1270.979736 72.0
1271.973389 204.0
1272.84668 112.0
1273.095215 60.0
1273.5 180.0
1273.911987 200.0
1274.957275 228.0
1275.240845 36.0
1276.463623 92.0
1278.754517 52.0
1278.889771 148.0
1280.028809 240.0
1280.228271 180.0
1280.51416 144.0
1283.171143 172.0
1285.517944 72.0
1286.63147 156.0
1287.445435 72.0
1288.981323 124.0
1290.58252 120.0
1291.412109 48.0
1295.986694 184.0
1302.429199 160.0
1304.441162 116.0
1307.562988 168.0
1310.342529 216.0
1310.479492 176.0
1311.279419 56.0
1314.207275 144.0
1314.755615 120.0
1315.571289 168.0
1315.629028 180.0
1315.715698 228.0
1317.43457 148.0
1319.588257 160.0
1321.533936 168.0
1323.046631 84.0
1323.234863 36.0
1325.813599 160.0
1327.829102 168.0
1329.374512 156.0
1330.263794 136.0
1331.334595 212.0
1332.366089 200.0
1333.063599 152.0
1333.986694 48.0
1334.728271 160.0
1336.990723 164.0
1338.774414 184.0
1340.129272 196.0
1341.703613 152.0
1342.294189 172.0
1346.439331 140.0
1346.731445 136.0
1347.198975 100.0
1347.922363 76.0
1348.229248 40.0
1348.653198 68.0
1348.85791 152.0
1349.852173 136.0
1352.961914 148.0
1355.452271 212.0
1357.666138 52.0
1359.023315 84.0
1360.380981 48.0
1361.372314 120.0
1362.687134 160.0
1362.767944 116.0
1364.656982 72.0
1364.833374 172.0
1367.091797 136.0
1367.364136 196.0
1368.019165 140.0
1370.980225 92.0
1371.614136 108.0
1371.73938 132.0
1373.428101 156.0
1373.509277 144.0
1374.055176 156.0
1374.719238 148.0
1374.903687 204.0
1375.051392 156.0
1375.139893 120.0
1375.92981 192.0
1380.230103 72.0
1384.337036 128.0
1384.44812 216.0
1385.929688 76.0
1386.744873 96.0
1387.886597 120.0
1388.499756 148.0
1389.726074 232.0
1391.128784 40.0
1391.753784 232.0
1393.602051 152.0
1395.058716 384.0
1396.888184 60.0
1397.022095 156.0
1397.609863 248.0
1398.688965 124.0
1399.053711 232.0
1400.975098 140.0
1402.41333 96.0
1403.73291 88.0
1403.971558 128.0
1406.120239 180.0
1406.1875 184.0
1407.889771 64.0
1408.786011 136.0
1409.234375 160.0
1410.228271 68.0
1412.17981 180.0
1412.523804 48.0
1414.664062 108.0
1414.723999 96.0
1417.480347 108.0
1418.27478 188.0
1419.324341 160.0
1419.669312 72.0
1420.456909 144.0
1421.454712 120.0
1422.57312 180.0
1423.654297 192.0
1425.073975 68.0
1426.667358 124.0
1428.419556 176.0
1428.622681 112.0
1428.675415 168.0
1430.549316 224.0
1436.276367 192.0
1439.219727 128.0
1439.416016 132.0
1439.468872 148.0
1441.357422 116.0
1441.584106 184.0
1444.578247 136.0
1445.395386 132.0
1446.212769 256.0
1446.538208 144.0
1446.750244 180.0
1447.234741 196.0
1449.87854 168.0
1449.954346 156.0
1450.174194 60.0
1450.947388 116.0
1452.577881 60.0
1453.177246 36.0
1453.761475 100.0
1453.882935 44.0
1454.869751 88.0
1455.188599 132.0
1455.644165 96.0
1456.213745 48.0
1458.4021 212.0
1460.546387 144.0
1462.349731 196.0
1463.095703 112.0
1463.841919 144.0
1464.908203 168.0
1465.197754 68.0
1465.571045 128.0
1466.554199 120.0
1467.415649 144.0
1469.52832 256.0
1469.711548 128.0
1469.871704 124.0
1471.138794 176.0
1471.474609 148.0
1472.121094 184.0
1473.261841 144.0
1474.132812 76.0
1474.935425 160.0
1476.377441 212.0
1476.548706 156.0
1476.625244 44.0
1476.984741 240.0
1477.420776 40.0
1477.688477 60.0
1481.731079 152.0
1482.117065 140.0
1482.382324 240.0
1482.803833 120.0
1483.134888 192.0
1483.578125 152.0
1484.206787 88.0
1485.771484 108.0
1486.446655 152.0
1486.554199 136.0
1489.717529 144.0
1491.239014 160.0
1491.923218 120.0
1492.468994 132.0
1492.93811 152.0
1495.107666 180.0
1495.276978 48.0
1496.624146 204.0
1498.14917 196.0
1499.104614 60.0
1499.243286 108.0
1499.335815 164.0
1499.829102 248.0
1500.908447 176.0
1501.494507 160.0
1502.281372 156.0
1502.520508 136.0
1504.372681 88.0
