>compound MLS001032259-01!
>formula C22H20N2O5
>ionization [M+H]+
>parentmass 393.144257
#inchi InChI=1S/C22H20N2O5/c25-20-3-1-2-18-16-8-14(11-24(18)20)10-23(12-16)21(26)13-28-17-6-4-15-5-7-22(27)29-19(15)9-17/h1-7,9,14,16H,8,10-13H2/t14-,16+/m1/s1
#inchikey UHZXKLAPOXRKTH
#Ion_Source LC-ESI
#Instrument qTof
#Compound_Source NIH Natural Product Library
#PI Dorrestein
#Data_Collector VVP/LMS
#Scan -1
#Precursor_MZ 393.145
#ExactMass 392.137
#Charge 1
#CAS_Number N/A
#Pubmed_ID N/A
#Smiles O=C(COc1ccc2ccc(=O)oc2c1)N3C[C@H]4C[C@@H](C3)c5cccc(=O)n5C4
#INCHI_AUX N/A
#Library_Class 1
#SpectrumID CCMSLIB00000079601
#IonMode Positive
#UpdateWorkflowName UPDATE-SINGLE-ANNOTATED-GOLD
#LibraryQualityString Gold
#TaskID b1d8e8f6646f4e71acdff9ca3d919d08
##Scan# 1575
#SpectrumFile p1-F08_GF8_01_17940.mzXML
#LibraryName NIH_Natural_Products_Library.mgf
#MQScore -1
#Organism NIH_Natural_Products_Library
#TIC_Query 0
#RT_Query -1
#MZErrorPPM -1
#SharedPeaks 0
#MassDiff 0
#LibMZ -1
#SpecMZ 393.145
#SpecCharge 0
#internalFilename spec-00000.mgf

>collision 10
95.038612 156.0
95.069664 360.0
95.141479 48.0
95.386246 172.0
95.582672 140.0
95.822159 156.0
95.847488 136.0
95.9235 208.0
95.937141 188.0
96.046349 136.0
96.284462 196.0
96.503319 32.0
96.720467 136.0
96.7929 108.0
96.891754 212.0
96.99469 48.0
97.108414 188.0
97.412659 112.0
97.585602 172.0
97.699669 220.0
98.190132 112.0
98.284821 172.0
98.417068 212.0
98.648216 184.0
98.885574 248.0
98.980598 124.0
99.127182 196.0
99.226288 88.0
99.297676 148.0
99.428612 80.0
99.488159 168.0
99.635117 108.0
99.66095 152.0
99.806046 128.0
99.83786 140.0
99.851784 252.0
99.895538 124.0
100.044792 164.0
100.122444 172.0
100.279839 148.0
100.389488 184.0
100.698822 124.0
100.872658 120.0
101.13269 176.0
101.185989 128.0
101.328934 60.0
101.368538 136.0
101.503311 80.0
101.523361 132.0
101.651749 168.0
101.665794 196.0
101.697906 212.0
101.738052 96.0
101.758133 256.0
101.894699 176.0
102.031364 160.0
102.081627 152.0
102.335159 136.0
102.411682 36.0
102.891617 104.0
103.05574 264.0
103.176476 180.0
103.224998 168.0
103.259377 208.0
103.316017 232.0
103.375313 220.0
103.445587 136.0
103.483994 140.0
103.544739 116.0
103.88121 156.0
103.927872 276.0
104.050041 308.0
104.167953 172.0
104.350334 52.0
104.480492 224.0
104.672737 120.0
104.808289 144.0
104.877106 172.0
104.910194 212.0
105.053314 112.0
105.059654 152.0
105.06646 180.0
105.083542 216.0
105.108025 156.0
105.289711 152.0
105.33873 124.0
105.559464 136.0
105.987274 192.0
106.003662 152.0
106.052849 180.0
106.068291 192.0
106.389259 204.0
106.428268 128.0
106.543282 244.0
106.595161 60.0
106.617249 188.0
106.717972 212.0
106.732368 72.0
106.868118 164.0
106.933975 180.0
107.049683 212.0
107.199638 124.0
107.214066 120.0
107.467697 160.0
107.504837 140.0
107.585335 180.0
107.696732 148.0
107.824936 184.0
108.046013 188.0
108.081558 192.0
108.110329 188.0
108.164146 144.0
108.470711 112.0
108.526688 152.0
108.709221 128.0
108.763184 52.0
108.856613 232.0
108.935532 116.0
108.958389 72.0
108.975006 80.0
109.031113 136.0
109.051857 1816.0
109.193275 144.0
109.266869 208.0
109.284225 116.0
109.478386 208.0
109.524208 128.0
110.034531 184.0
110.057213 312.0
110.22728 140.0
110.446793 184.0
110.492813 128.0
110.624657 152.0
110.662338 208.0
110.832001 56.0
110.855049 188.0
110.938881 40.0
111.063774 304.0
111.417366 172.0
111.561844 208.0
111.678017 144.0
111.908707 200.0
111.955826 144.0
111.970573 132.0
112.012115 232.0
112.282486 140.0
112.299355 136.0
112.369217 148.0
112.569489 160.0
112.677208 216.0
112.734261 36.0
112.791321 144.0
112.852631 236.0
112.926643 156.0
113.201767 136.0
113.297081 52.0
113.396667 200.0
113.576889 172.0
113.659081 184.0
113.973885 184.0
114.003632 148.0
114.035515 136.0
114.065269 36.0
114.43544 164.0
114.516357 140.0
114.580261 196.0
114.750763 96.0
114.80407 148.0
114.919258 96.0
115.02169 180.0
115.055443 260.0
115.45755 176.0
115.480339 196.0
115.538834 196.0
115.710045 180.0
115.945671 144.0
115.982101 140.0
116.005684 156.0
116.121468 164.0
116.370392 196.0
116.413338 128.0
116.447701 160.0
116.54007 180.0
116.819557 180.0
116.877647 172.0
116.907768 72.0
116.927139 268.0
116.96373 176.0
117.00248 160.0
117.033546 852.0
117.05912 684.0
117.2351 144.0
117.390312 144.0
117.44207 72.0
117.521889 248.0
117.647064 188.0
117.718315 196.0
117.737755 108.0
117.809029 280.0
117.878166 84.0
117.944336 172.0
117.966782 116.0
118.038948 196.0
118.066055 212.0
118.347694 180.0
118.419014 112.0
118.514328 168.0
118.641396 140.0
118.661713 140.0
118.707245 92.0
119.052376 612.0
119.143509 148.0
119.34346 236.0
119.441322 176.0
119.517471 180.0
119.547935 104.0
119.600166 36.0
119.630638 148.0
119.802681 164.0
119.924706 176.0
119.950859 40.0
120.046471 220.0
120.076813 316.0
120.110039 96.0
120.177666 220.0
120.367332 188.0
120.594765 244.0
120.728127 144.0
120.743439 232.0
120.935966 120.0
120.995071 68.0
121.031334 164.0
121.034912 288.0
121.058571 52.0
121.083107 196.0
121.304718 300.0
121.367538 196.0
121.538628 212.0
121.580315 120.0
121.615433 120.0
121.632996 44.0
121.665924 236.0
121.982254 96.0
121.999496 152.0
122.026787 204.0
122.05854 1560.0
122.237381 124.0
122.292397 112.0
122.587509 124.0
122.713226 116.0
122.838852 124.0
122.916069 196.0
122.960205 204.0
123.010971 148.0
123.063812 1048.0
123.103706 212.0
123.123581 36.0
123.203094 168.0
123.242867 156.0
123.390945 56.0
123.435165 132.0
123.474976 184.0
123.696236 72.0
123.731651 164.0
123.833511 252.0
123.85788 48.0
124.035141 176.0
124.072769 160.0
124.341225 168.0
124.390053 224.0
124.521057 124.0
124.582809 100.0
124.741028 200.0
125.072464 152.0
125.157539 184.0
125.196053 196.0
125.317429 192.0
125.464409 80.0
125.735756 180.0
125.767891 80.0
125.817001 180.0
126.020241 152.0
126.510025 164.0
126.675735 80.0
126.749733 140.0
126.769836 156.0
126.857246 208.0
126.879669 136.0
126.911057 208.0
127.101707 176.0
127.386841 160.0
127.772392 160.0
127.99633 144.0
128.09317 84.0
128.13147 240.0
128.201324 148.0
128.264435 80.0
128.593735 196.0
128.629852 200.0
128.675003 204.0
128.735962 164.0
128.787903 224.0
128.851166 212.0
128.913834 216.0
128.957367 40.0
129.058884 172.0
129.070602 172.0
129.423386 200.0
129.577393 32.0
129.63858 144.0
129.794983 180.0
130.064056 552.0
130.096741 48.0
130.426117 76.0
130.605743 192.0
130.705841 240.0
131.042831 208.0
131.073044 136.0
131.225159 176.0
131.359711 284.0
131.425873 172.0
131.485199 264.0
131.514877 136.0
131.645004 140.0
131.857468 116.0
131.912323 216.0
132.044876 1264.0
132.080475 772.0
132.106689 136.0
132.326401 168.0
132.353867 56.0
132.548569 192.0
133.02562 204.0
133.052673 928.0
133.246078 140.0
133.404648 212.0
133.44603 160.0
133.515015 224.0
133.650742 188.0
133.735886 108.0
133.777313 140.0
133.839478 68.0
133.878632 92.0
133.930008 180.0
134.01683 100.0
134.058762 2992.0
134.148193 108.0
134.17511 148.0
134.301407 216.0
134.378815 152.0
134.468811 100.0
134.524216 212.0
134.593475 116.0
134.667374 60.0
134.732056 160.0
134.757462 116.0
134.896133 148.0
135.066879 332.0
135.094177 136.0
135.115814 52.0
135.340332 144.0
135.42601 116.0
135.548798 124.0
135.715683 132.0
135.785248 168.0
136.059937 296.0
136.068817 220.0
136.10759 200.0
136.136551 96.0
136.440063 68.0
136.800644 168.0
137.045181 168.0
137.08461 152.0
137.338913 128.0
137.380905 184.0
137.714706 208.0
137.773102 120.0
138.091003 156.0
138.442047 96.0
138.470154 192.0
138.556824 168.0
138.638824 172.0
138.795883 196.0
138.873276 184.0
139.011688 128.0
139.082092 152.0
139.168961 236.0
139.286377 172.0
139.389755 124.0
139.417953 212.0
139.516678 208.0
139.66011 72.0
139.874237 132.0
139.93309 156.0
140.008438 160.0
140.168625 192.0
140.291183 124.0
140.328903 176.0
140.418518 172.0
140.586014 172.0
140.68515 116.0
141.039474 192.0
141.491302 144.0
141.683136 204.0
141.837158 152.0
141.863235 60.0
141.97467 96.0
142.01973 172.0
142.062912 536.0
142.093277 256.0
142.257019 96.0
142.394745 192.0
142.59668 212.0
142.667099 212.0
143.04982 180.0
143.071503 364.0
143.148605 144.0
143.393982 160.0
143.444046 140.0
144.042984 168.0
144.078522 368.0
144.109879 88.0
144.148102 116.0
144.27478 60.0
144.444565 148.0
144.468491 176.0
144.559402 200.0
144.629684 208.0
145.028015 1600.0
145.04924 760.0
145.066498 260.0
145.090988 544.0
145.146286 80.0
145.210358 224.0
145.31366 220.0
145.546997 152.0
145.68631 92.0
145.794434 96.0
145.852112 120.0
145.909805 100.0
146.028 284.0
146.059891 13680.0
146.098083 180.0
146.123856 56.0
146.157227 32.0
146.19603 32.0
146.238113 140.0
146.275192 184.0
146.301849 116.0
146.319794 48.0
146.324753 92.0
146.400665 76.0
146.523499 56.0
146.55159 176.0
146.587296 76.0
146.656036 40.0
146.727722 136.0
146.834457 168.0
147.065796 8952.0
147.126419 124.0
147.153168 52.0
147.225418 84.0
147.240906 68.0
147.289871 104.0
147.387268 132.0
147.488235 164.0
147.534698 104.0
147.670105 28.0
147.723312 68.0
147.778961 176.0
147.837036 100.0
147.873337 120.0
147.95079 272.0
147.977432 268.0
148.0737 3896.0
148.146957 128.0
148.200256 56.0
148.23175 296.0
148.251144 144.0
148.316574 60.0
148.401428 196.0
148.430527 88.0
148.616043 140.0
148.709503 64.0
148.826035 52.0
148.860016 144.0
149.021576 176.0
149.046417 292.0
149.07341 1244.0
149.102951 120.0
149.122391 236.0
149.222061 60.0
149.251236 124.0
149.341217 40.0
149.628357 120.0
149.798828 152.0
149.832932 228.0
149.964432 108.0
150.027908 112.0
150.054138 220.0
150.0737 168.0
150.232742 32.0
150.530518 28.0
150.57692 124.0
151.060883 156.0
151.156296 136.0
151.430481 60.0
151.489273 76.0
151.55542 96.0
151.734329 192.0
151.825058 44.0
151.997772 176.0
152.117035 180.0
152.13913 180.0
152.39946 168.0
153.047729 248.0
153.152237 136.0
153.46521 172.0
153.862427 132.0
153.934036 160.0
154.064575 400.0
154.289825 124.0
155.076172 376.0
155.195984 164.0
155.27533 204.0
155.664948 148.0
155.754364 184.0
155.945679 196.0
156.065002 172.0
156.0849 192.0
156.438187 112.0
156.814316 40.0
157.049896 188.0
157.083603 308.0
157.233307 48.0
157.260757 228.0
157.315674 152.0
157.356293 148.0
157.400558 248.0
157.428024 100.0
157.527939 200.0
157.570404 56.0
157.677856 148.0
157.816086 140.0
158.055344 340.0
158.275635 212.0
158.433517 88.0
158.59639 152.0
158.86972 152.0
159.045746 376.0
159.066177 956.0
159.140762 32.0
159.258804 68.0
159.278885 220.0
159.339188 180.0
159.380219 60.0
159.399185 164.0
159.462311 204.0
159.67601 212.0
159.743927 160.0
159.922577 208.0
159.953506 84.0
159.988022 204.0
160.045929 188.0
160.07486 10272.0
160.11644 172.0
160.146667 92.0
160.164291 32.0
160.189484 48.0
160.262543 60.0
160.2827 68.0
160.374878 188.0
160.456619 36.0
160.769394 160.0
160.84581 128.0
160.872879 92.0
161.037003 140.0
161.078262 652.0
161.631088 44.0
162.065918 196.0
162.089478 1784.0
162.150223 112.0
162.218658 36.0
162.37587 40.0
162.42659 128.0
162.543289 76.0
162.573746 128.0
162.830154 180.0
163.007126 140.0
163.03746 268.0
163.061356 248.0
163.094955 472.0
163.234222 184.0
163.26474 52.0
163.626053 180.0
163.82724 164.0
163.985229 40.0
164.2453 52.0
164.316727 220.0
164.342239 112.0
164.375412 72.0
164.564301 104.0
165.047211 68.0
165.095795 52.0
165.425858 124.0
165.679382 88.0
165.879257 168.0
166.482208 56.0
166.595215 120.0
166.985916 200.0
167.08316 164.0
167.238068 192.0
167.634674 192.0
167.714569 140.0
167.910156 172.0
168.016266 160.0
168.310501 88.0
168.416382 116.0
168.633423 300.0
169.088608 188.0
169.495178 160.0
169.622177 160.0
169.865921 188.0
170.066376 236.0
170.639816 144.0
170.762039 120.0
171.090042 148.0
171.139359 172.0
171.548386 136.0
171.817001 84.0
171.853516 196.0
171.916153 136.0
172.074387 1860.0
172.106705 84.0
172.224213 140.0
172.292145 64.0
172.31781 160.0
172.456757 164.0
172.475052 100.0
172.535187 188.0
172.880447 56.0
173.037201 448.0
173.083481 8912.0
173.126526 104.0
173.163193 32.0
173.540543 152.0
173.598221 48.0
173.624451 100.0
173.700516 36.0
173.7556 88.0
174.044113 472.0
174.08783 2252.0
174.285965 60.0
174.359543 68.0
174.577744 152.0
174.648743 160.0
174.669785 48.0
174.693466 116.0
174.864502 104.0
174.966248 348.0
175.038116 9704.0
175.08284 60.0
175.119888 160.0
175.172562 88.0
175.201538 172.0
175.27446 124.0
175.35965 40.0
175.380722 40.0
175.409729 92.0
175.429443 100.0
175.500122 136.0
175.54155 64.0
175.755203 140.0
175.976913 44.0
176.042557 604.0
176.090469 56.0
176.535675 168.0
176.627014 44.0
176.72226 96.0
176.81488 196.0
176.976349 128.0
177.042557 340.0
177.134201 152.0
177.243866 72.0
177.344574 172.0
177.450607 60.0
177.469177 92.0
177.511597 160.0
177.986572 180.0
178.010483 112.0
178.084839 148.0
178.180466 76.0
178.448898 220.0
178.475479 156.0
178.760101 192.0
178.83728 212.0
178.885193 160.0
179.066254 124.0
179.188797 44.0
179.250076 176.0
179.60199 104.0
179.649994 48.0
179.852798 176.0
179.9142 136.0
180.178589 180.0
180.298828 164.0
180.379013 104.0
180.568848 156.0
180.855133 212.0
180.991669 64.0
181.06665 132.0
181.346207 92.0
181.385483 128.0
181.605362 188.0
181.900513 92.0
181.921982 52.0
182.045486 140.0
182.091141 136.0
182.18248 200.0
182.225464 148.0
182.825089 72.0
182.91275 168.0
183.781693 176.0
183.860153 160.0
183.913925 128.0
184.038101 140.0
184.102921 76.0
184.524429 156.0
184.624481 152.0
184.678574 212.0
184.784073 68.0
184.957733 188.0
185.106171 232.0
185.268677 104.0
185.398743 136.0
185.452942 100.0
185.499023 40.0
185.523422 196.0
185.553238 196.0
185.57222 88.0
185.631866 60.0
185.710526 136.0
186.057861 140.0
186.112152 184.0
186.144745 152.0
186.264236 144.0
186.682785 152.0
186.875916 112.0
187.038925 164.0
187.086121 288.0
187.158981 132.0
187.295151 140.0
187.31694 136.0
187.534927 180.0
187.571487 192.0
187.766663 156.0
188.01767 72.0
188.070053 788.0
188.143219 148.0
188.274277 172.0
188.30159 208.0
188.361679 176.0
188.383545 228.0
188.424515 140.0
188.49556 220.0
188.613068 220.0
188.659546 164.0
188.697815 76.0
188.723129 220.0
188.81813 176.0
188.844635 180.0
188.883774 212.0
188.984299 384.0
189.005753 288.0
189.064331 444.0
189.10231 67900.0
189.145325 308.0
189.168365 32.0
189.195053 112.0
189.243927 60.0
189.254471 52.0
189.276657 152.0
189.311951 72.0
189.331192 240.0
189.376465 140.0
189.44075 60.0
189.479111 76.0
189.507492 48.0
189.554047 184.0
189.606598 296.0
189.631668 224.0
189.661423 76.0
189.697052 64.0
189.731247 76.0
189.807693 188.0
189.834137 44.0
189.872528 76.0
189.905441 40.0
190.026154 144.0
190.077545 724.0
190.105377 8584.0
190.170166 52.0
190.199036 68.0
190.286194 64.0
190.424179 76.0
190.451645 36.0
190.536804 56.0
190.61557 80.0
190.654953 100.0
190.74649 136.0
190.766541 80.0
190.842575 188.0
190.910614 96.0
190.949356 96.0
190.998352 120.0
191.009354 116.0
191.081696 1076.0
191.11731 3172.0
191.19397 92.0
191.216858 76.0
191.243515 108.0
191.262787 40.0
191.285034 48.0
191.406967 128.0
191.480301 60.0
191.507843 76.0
191.529373 88.0
191.608521 124.0
191.72377 60.0
191.824707 104.0
191.907425 64.0
192.034271 64.0
192.080673 320.0
192.118195 808.0
192.315689 136.0
192.369247 140.0
192.409546 132.0
192.428879 104.0
192.521744 108.0
192.641525 96.0
193.271881 52.0
193.294006 96.0
193.51268 48.0
193.684372 108.0
194.052948 136.0
194.266495 188.0
194.346024 60.0
194.432968 96.0
194.588409 48.0
194.835587 48.0
195.739532 64.0
196.026443 156.0
196.196457 140.0
196.32193 84.0
196.525558 244.0
196.986206 120.0
197.408234 132.0
198.576065 128.0
198.668625 144.0
198.696686 100.0
198.898727 32.0
199.038773 152.0
199.084503 188.0
199.488617 80.0
199.632019 72.0
200.034348 172.0
200.069717 220.0
200.301453 84.0
201.043365 180.0
201.113922 156.0
201.232483 52.0
201.370865 124.0
201.571442 152.0
201.624222 196.0
202.083221 144.0
202.420044 96.0
202.482346 48.0
202.700485 60.0
202.728821 136.0
202.799667 140.0
203.033295 276.0
203.080368 568.0
203.118073 1320.0
203.574188 168.0
203.71904 92.0
204.028793 48.0
204.113663 140.0
204.227844 60.0
205.144745 76.0
205.73526 64.0
205.997986 28.0
206.223709 44.0
206.764252 92.0
207.142197 140.0
208.036896 120.0
209.241455 48.0
209.601486 44.0
209.872437 120.0
210.383102 92.0
210.449493 68.0
210.703659 116.0
211.090973 60.0
211.24855 132.0
211.637848 212.0
211.666809 56.0
211.811615 148.0
212.043411 28.0
213.024139 104.0
213.053177 156.0
213.835373 188.0
214.104996 100.0
214.435349 136.0
214.837738 132.0
215.109131 196.0
215.471237 212.0
216.304688 192.0
217.0961 884.0
217.13681 60.0
217.356827 196.0
217.820694 96.0
218.078079 968.0
218.109406 156.0
218.423279 84.0
219.073837 112.0
219.100342 140.0
219.489395 132.0
219.53363 40.0
220.265579 132.0
220.602448 88.0
220.768021 144.0
221.306564 180.0
221.90506 92.0
223.381027 136.0
223.660736 120.0
223.788757 164.0
223.821503 108.0
223.875107 60.0
224.214722 88.0
224.712692 48.0
225.046982 172.0
225.91069 180.0
226.353638 152.0
227.08667 100.0
227.138855 180.0
227.700134 124.0
228.065613 648.0
228.851852 156.0
229.067459 148.0
229.514725 100.0
229.662491 48.0
229.828415 224.0
230.071869 332.0
230.320496 104.0
230.625671 112.0
230.680084 100.0
231.10994 1292.0
231.754456 80.0
232.042389 160.0
232.121048 1900.0
232.357803 40.0
233.034851 68.0
233.124786 508.0
233.226303 72.0
233.307617 48.0
233.746231 96.0
234.081192 152.0
234.318771 116.0
234.663162 116.0
234.782089 148.0
235.716217 140.0
239.271088 116.0
240.053711 40.0
240.09996 180.0
240.173981 40.0
240.874664 124.0
243.314926 172.0
243.420486 184.0
244.763809 236.0
244.966248 144.0
247.073441 116.0
247.09848 156.0
247.975266 148.0
248.166489 140.0
248.445618 112.0
248.649567 116.0
249.588837 168.0
250.196075 68.0
251.078339 148.0
251.984268 148.0
252.060089 96.0
252.243408 108.0
252.901321 168.0
253.008942 96.0
253.265442 116.0
253.623489 164.0
254.003998 88.0
258.038849 60.0
258.141174 172.0
258.915619 140.0
259.822723 44.0
261.641724 60.0
261.83493 160.0
263.076294 144.0
263.547821 152.0
263.657684 128.0
263.958344 144.0
264.109589 344.0
264.178253 144.0
264.249451 120.0
265.081573 108.0
265.115784 200.0
266.044891 60.0
266.805054 100.0
267.068451 88.0
267.921326 180.0
269.010529 168.0
269.578827 152.0
269.866486 124.0
270.272064 72.0
271.362732 132.0
272.481903 180.0
273.083466 92.0
273.178864 160.0
273.817413 112.0
274.136963 132.0
275.067047 144.0
278.039276 100.0
278.371246 168.0
279.301819 104.0
279.431549 112.0
280.047394 108.0
280.077362 136.0
280.493866 172.0
281.070831 76.0
281.170959 88.0
283.873993 60.0
286.438385 132.0
286.964111 108.0
288.253479 236.0
289.041351 212.0
289.17334 40.0
290.111603 72.0
292.319305 140.0
292.789093 100.0
292.993469 116.0
293.160431 64.0
293.671814 124.0
293.695679 56.0
295.119751 188.0
296.201172 80.0
296.317657 60.0
297.016968 124.0
297.943848 112.0
299.505585 120.0
300.664032 96.0
301.454865 100.0
302.270935 48.0
302.547821 44.0
304.277771 160.0
304.388275 160.0
305.504547 136.0
306.904633 180.0
307.253387 160.0
307.372009 96.0
309.052704 208.0
309.80545 160.0
310.197906 84.0
310.959045 144.0
313.829559 148.0
314.044678 48.0
314.831696 112.0
315.110748 148.0
315.943726 164.0
316.415802 68.0
316.989594 140.0
317.47525 64.0
317.929321 148.0
318.941559 132.0
320.354218 252.0
320.635712 164.0
320.910187 172.0
321.516602 56.0
321.595123 48.0
322.094452 108.0
322.613129 108.0
323.100189 144.0
323.725891 200.0
325.163452 132.0
326.072113 116.0
326.521515 76.0
326.827271 68.0
328.506165 132.0
329.845856 152.0
329.96875 108.0
330.435303 100.0
330.699463 120.0
332.301178 200.0
332.486237 168.0
332.51889 176.0
333.118011 168.0
334.259613 128.0
334.616302 112.0
335.461487 168.0
336.866425 80.0
338.05835 124.0
339.219391 176.0
339.941895 192.0
342.25769 120.0
342.51181 144.0
343.87973 224.0
343.986786 68.0
344.267365 60.0
344.76239 132.0
346.108887 128.0
346.7164 212.0
349.107178 220.0
349.41217 40.0
349.799194 76.0
350.104919 148.0
350.253479 172.0
351.102173 176.0
351.293488 96.0
353.363159 196.0
353.767334 92.0
354.048157 48.0
354.463959 80.0
355.052521 212.0
356.546692 160.0
356.990295 148.0
358.955994 164.0
359.005005 108.0
360.012604 148.0
362.312317 156.0
364.725739 108.0
366.148712 116.0
366.41156 144.0
366.506805 276.0
367.23111 128.0
367.463806 96.0
367.849243 156.0
368.743042 128.0
369.450409 176.0
369.515472 64.0
372.041046 96.0
372.705475 220.0
373.747467 220.0
373.93219 168.0
374.648407 92.0
375.132599 316.0
375.986359 148.0
376.142365 172.0
377.191406 72.0
377.855713 92.0
377.957153 44.0
378.170013 152.0
378.657837 112.0
381.31546 120.0
382.279907 224.0
383.085876 128.0
383.136505 92.0
383.272888 148.0
384.434906 184.0
384.630035 88.0
386.701599 212.0
386.999115 184.0
387.406433 120.0
387.704224 120.0
387.751251 132.0
388.790527 140.0
389.022095 92.0
389.336212 152.0
389.481506 104.0
389.83905 108.0
390.13382 140.0
390.26355 92.0
390.318604 84.0
390.523102 204.0
390.570312 172.0
390.684387 76.0
390.739471 56.0
390.766998 88.0
390.881104 32.0
391.279419 164.0
391.680298 172.0
391.763031 120.0
391.845764 116.0
391.893036 120.0
392.094025 100.0
392.155243 172.0
392.21225 84.0
392.243774 96.0
392.291107 120.0
392.342346 108.0
392.377808 80.0
392.500061 100.0
392.582275 80.0
392.59256 148.0
392.660156 152.0
392.693298 72.0
392.724823 104.0
392.80777 232.0
392.889496 148.0
392.961517 172.0
392.999176 208.0
393.06073 308.0
393.144257 53616.0
393.227631 176.0
393.238647 128.0
393.304688 56.0
393.315521 80.0
393.382538 100.0
393.423279 60.0
393.482147 88.0
393.554077 108.0
393.600952 44.0
393.646545 104.0
393.677948 48.0
393.735077 72.0
393.767181 180.0
393.812225 64.0
393.883759 112.0
393.952454 132.0
394.023315 68.0
394.070984 116.0
394.146484 10312.0
394.206329 340.0
394.266296 92.0
394.365082 48.0
394.39502 36.0
394.457611 72.0
394.487396 76.0
394.544952 164.0
394.647339 68.0
394.691528 144.0
394.728516 108.0
394.872833 80.0
394.937256 100.0
394.995239 40.0
395.035614 96.0
395.090973 76.0
395.148834 2120.0
395.257996 96.0
395.286163 112.0
395.41214 92.0
395.482727 40.0
395.526276 52.0
395.5896 40.0
395.629181 48.0
395.735016 160.0
395.767761 88.0
395.795471 88.0
395.837585 44.0
395.859131 100.0
395.922516 52.0
396.01593 84.0
396.105774 96.0
396.152649 260.0
396.216949 164.0
396.27475 88.0
396.3302 168.0
396.401184 44.0
396.415314 84.0
396.498993 128.0
396.544189 60.0
396.617279 128.0
396.70874 128.0
396.841522 96.0
396.924774 40.0
397.238098 116.0
397.305542 48.0
397.476135 120.0
397.52771 48.0
397.769836 72.0
397.817474 56.0
398.230408 108.0
398.477875 68.0
398.619751 76.0
398.667419 72.0
399.120605 48.0
399.188202 68.0
400.194885 80.0
401.139069 92.0
401.350372 88.0
401.477997 88.0
402.579407 132.0
402.663269 40.0
404.042328 100.0
404.834839 88.0
408.370544 128.0
408.632019 32.0
408.937866 56.0
409.110931 84.0
409.227692 56.0
409.590149 112.0
409.839905 104.0
412.766327 56.0
414.685242 116.0
416.815796 136.0
416.864532 120.0
417.787506 72.0
417.999084 84.0
420.680878 36.0
423.793945 104.0
428.176208 36.0
433.426697 104.0
440.750092 44.0
449.568481 60.0
449.678192 52.0
463.790985 96.0
474.031067 60.0
481.732056 40.0
496.756714 36.0
515.015808 92.0
518.631042 36.0
539.011047 84.0
543.544312 68.0
545.420593 44.0
550.671631 92.0
552.817505 92.0
566.087952 84.0
574.968323 84.0
576.687683 100.0
580.930115 84.0
585.298889 36.0
602.024048 72.0
646.321533 144.0
647.197205 104.0
651.177979 56.0
655.675476 84.0
660.577148 48.0
665.440552 44.0
676.281555 100.0
700.563354 52.0
726.710632 92.0
739.871887 76.0
745.572632 108.0
747.508606 56.0
750.499023 40.0
775.008423 124.0
790.63385 72.0
807.184021 72.0
881.108948 112.0
884.071289 176.0
886.87262 52.0
897.257629 76.0
898.140198 72.0
906.953674 204.0
912.644836 156.0
913.805664 164.0
916.985107 184.0
924.18335 136.0
936.439819 68.0
947.912781 88.0
955.631042 52.0
960.244934 112.0
960.904968 124.0
969.772583 152.0
970.045288 92.0
976.409546 76.0
982.451477 68.0
1012.319946 140.0
1014.271301 76.0
1019.297729 44.0
1036.122925 68.0
1060.500488 152.0
1066.536865 164.0
1081.453857 44.0
1085.168213 32.0
1090.340698 216.0
1092.661865 156.0
1096.948975 60.0
1099.363037 220.0
1100.663452 196.0
1109.330444 136.0
1112.156128 176.0
1113.975586 128.0
1116.654297 192.0
1126.354004 148.0
1130.517456 44.0
1131.072998 208.0
1131.755859 144.0
1137.125366 180.0
1137.675781 148.0
1137.783203 52.0
1140.161011 92.0
1143.200684 144.0
1144.533569 220.0
1151.452393 160.0
1157.091797 132.0
1164.184326 160.0
1164.37439 176.0
1166.140869 160.0
1171.829834 120.0
1174.270142 160.0
1177.539307 164.0
1178.113159 204.0
1184.735229 60.0
1196.81604 116.0
1197.504639 160.0
1204.443481 180.0
1211.291382 244.0
1211.804077 140.0
1216.33252 128.0
1216.485229 36.0
1216.533813 164.0
1218.33252 80.0
1221.857178 100.0
1225.916504 172.0
1228.559082 128.0
1229.870972 144.0
1235.00647 208.0
1235.845947 108.0
1237.567749 180.0
1239.094604 136.0
1240.881714 128.0
1241.667114 64.0
1245.204346 132.0
1246.770996 148.0
1248.75354 52.0
1249.06311 144.0
1253.026367 92.0
1255.740356 64.0
1260.159302 80.0
1262.216187 112.0
1263.949097 172.0
1264.041138 116.0
1266.285278 132.0
1267.978516 132.0
1269.006348 204.0
1273.633301 148.0
1278.012451 176.0
1279.549805 184.0
1281.601074 172.0
1286.450684 52.0
1288.121704 160.0
1288.964722 188.0
1289.693726 124.0
1297.288452 124.0
1298.564819 176.0
1299.834595 176.0
1311.038208 36.0
1320.683838 164.0
1324.715698 228.0
1324.932983 76.0
1324.998169 172.0
1325.389404 252.0
1331.279663 176.0
1335.996826 164.0
1337.299316 172.0
1337.634155 192.0
1338.955444 168.0
1340.882568 120.0
1341.115845 148.0
1343.857788 180.0
1346.580688 164.0
1349.072266 120.0
1349.832642 132.0
1355.058716 172.0
1356.018677 124.0
1356.157959 220.0
1356.407104 240.0
1357.910278 156.0
1360.199463 180.0
1363.908936 176.0
1366.968384 108.0
1368.786499 172.0
1369.265259 212.0
1370.517578 212.0
1374.079468 184.0
1375.259399 168.0
1377.053467 240.0
1377.179077 196.0
1378.782349 220.0
1381.244385 184.0
1381.621704 148.0
1383.072021 196.0
1383.893799 224.0
1385.063843 184.0
1385.819458 92.0
1388.532593 188.0
1389.081421 164.0
1390.773193 184.0
1391.716064 188.0
1392.792847 144.0
1394.806519 144.0
1395.90686 136.0
1396.52417 148.0
1402.532837 220.0
1403.054688 148.0
1407.565308 224.0
1408.054077 172.0
1410.385132 132.0
1413.97522 224.0
1414.858398 188.0
1416.955444 216.0
1421.244019 204.0
1423.916504 184.0
1424.344604 200.0
1428.644409 248.0
1429.374268 72.0
1429.848267 52.0
1429.953735 36.0
1430.864502 212.0
1435.317383 152.0
1435.845215 100.0
1439.134521 176.0
1441.355957 220.0
1441.862305 120.0
1444.516235 176.0
1445.492188 96.0
1454.070801 220.0
1454.632446 140.0
1454.890503 116.0
1455.52832 144.0
1455.725708 164.0
1457.495605 212.0
1459.821655 296.0
1461.304932 188.0
1462.198242 188.0
1462.400635 124.0
1462.52832 208.0
1463.428345 148.0
1463.92334 156.0
1464.258423 144.0
1468.312866 140.0
1470.098022 196.0
1471.731567 176.0
1472.220337 32.0
1472.533447 176.0
1472.892334 176.0
1473.740356 120.0
1474.06897 92.0
1475.161865 168.0
1475.444702 132.0
1477.463745 188.0
1477.945679 48.0
1479.522339 116.0
1479.820923 76.0
1481.697266 140.0
1483.904541 208.0
1484.502686 156.0
1485.492065 116.0
1486.443359 132.0
1487.103394 228.0
1487.4104 104.0
1488.070557 96.0
1489.913818 200.0
1491.320068 200.0
1492.642334 152.0
1494.203735 228.0
1495.958374 56.0
1496.497192 88.0
1496.812866 68.0
1498.576782 168.0
1498.908081 156.0
1499.617065 68.0
1500.133545 168.0
