>compound MLS001074090-01!FENBUFEN
>formula C16H14O3
>ionization [M+H]+
>parentmass 255.1015707600905
#inchi InChI=1S/C16H14O3/c17-15(10-11-16(18)19)14-8-6-13(7-9-14)12-4-2-1-3-5-12/h1-9H,10-11H2,(H,18,19)
#inchikey ZPAKPRAICRBAOD
#Ion_Source LC-ESI
#Instrument qTof
#Compound_Source NIH Pharmacologically Active Library
#PI Dorrestein
#Data_Collector VP/LMS
#Scan -1
#Precursor_MZ 255.104
#ExactMass 254.094
#Charge 1
#CAS_Number N/A
#Pubmed_ID N/A
#Smiles OC(=O)CCC(=O)c1ccc(cc1)c2ccccc2
#INCHI_AUX N/A
#Library_Class 1
#SpectrumID CCMSLIB00000084829
#IonMode Positive
#UpdateWorkflowName UPDATE-SINGLE-ANNOTATED-GOLD
#LibraryQualityString Gold
#TaskID d252d724072548979f1f6f1ced849daf
##Scan# 2103
#SpectrumFile p3-B04_GB4_01_18237.mzXML
#LibraryName Pharm_Active_Library.mgf
#MQScore -1
#Organism Pharm_Active_Library
#TIC_Query 0
#RT_Query -1
#MZErrorPPM -1
#SharedPeaks 0
#MassDiff 0
#LibMZ -1
#SpecMZ 255.104
#SpecCharge 0
#internalFilename spec-00000.mgf

>collision 10
45.067947 80.0
45.219059 140.0
45.780243 160.0
45.900177 68.0
46.461487 172.0
47.1259 148.0
48.141026 156.0
48.152073 216.0
48.353928 108.0
48.904945 168.0
49.498283 176.0
49.888329 124.0
50.044495 200.0
50.277084 156.0
52.207535 208.0
52.644192 192.0
53.179867 116.0
53.36581 156.0
53.804352 48.0
53.937286 100.0
53.948982 124.0
54.238827 128.0
54.931419 136.0
55.021439 184.0
55.172131 144.0
55.51268 200.0
55.67889 112.0
56.123833 144.0
56.576534 172.0
56.898861 148.0
57.02354 100.0
57.152866 40.0
57.295902 200.0
57.60667 156.0
58.063786 140.0
58.283901 172.0
58.519661 116.0
58.758945 52.0
59.049179 112.0
59.890278 172.0
60.98576 140.0
61.346889 192.0
61.851448 172.0
61.91251 104.0
62.00494 216.0
62.095554 176.0
62.144505 156.0
63.010544 196.0
63.238155 176.0
63.699574 140.0
65.238487 132.0
65.405785 124.0
66.088432 196.0
66.357292 252.0
66.673828 140.0
66.859222 136.0
67.49379 180.0
68.666321 216.0
69.641174 236.0
69.762474 188.0
70.265411 152.0
70.425667 168.0
70.572731 176.0
71.685623 188.0
71.773277 112.0
72.740997 232.0
73.363609 176.0
74.4879 188.0
75.223183 184.0
75.710762 40.0
75.911789 160.0
76.387672 64.0
76.790443 252.0
77.412186 192.0
78.432938 240.0
78.477013 88.0
78.607544 156.0
78.906044 180.0
78.998001 176.0
79.277756 172.0
79.623695 184.0
80.20015 108.0
80.439171 168.0
80.89679 152.0
81.364685 128.0
82.160141 164.0
82.232323 160.0
82.667862 68.0
83.222527 192.0
83.237053 40.0
83.346039 120.0
83.729874 192.0
84.233276 128.0
84.359367 48.0
84.571548 224.0
84.699722 176.0
84.74369 148.0
85.154594 164.0
85.296074 200.0
85.704628 148.0
86.265678 92.0
87.2575 192.0
87.292824 140.0
87.887032 100.0
89.051422 108.0
89.149117 160.0
89.209259 248.0
89.226181 172.0
89.282585 184.0
89.99865 172.0
90.265076 204.0
90.761177 100.0
92.496765 128.0
92.567604 92.0
92.659538 212.0
93.703117 196.0
94.866165 168.0
95.180466 108.0
96.10112 144.0
96.212364 232.0
96.395966 240.0
97.200768 128.0
97.236092 60.0
98.348114 136.0
98.387596 216.0
98.448807 204.0
98.802605 216.0
99.180832 192.0
99.746536 148.0
99.893684 180.0
100.130547 124.0
100.180344 264.0
101.539536 228.0
101.675957 72.0
103.055321 68.0
103.261513 136.0
103.301964 132.0
103.335953 160.0
103.504349 176.0
104.011185 48.0
104.348404 160.0
107.362579 104.0
107.515236 144.0
108.396179 96.0
108.705147 104.0
108.840073 200.0
108.93145 140.0
109.932907 184.0
110.060234 216.0
110.356934 132.0
110.373657 184.0
110.77549 192.0
112.556862 140.0
112.599098 208.0
113.002838 172.0
113.15522 172.0
113.193329 160.0
113.392464 156.0
113.422142 56.0
113.857079 100.0
114.086555 112.0
114.36734 216.0
114.578156 204.0
114.887276 116.0
115.055862 200.0
115.126328 164.0
115.735748 104.0
115.829979 160.0
115.932823 224.0
116.325317 240.0
116.34034 92.0
117.075684 304.0
117.465797 176.0
118.053261 140.0
118.343208 128.0
118.364861 168.0
118.455826 288.0
118.518646 168.0
118.809174 184.0
119.489159 112.0
120.323868 148.0
120.339149 212.0
120.398109 108.0
120.955635 160.0
121.093575 204.0
122.257133 140.0
122.640343 152.0
123.530205 140.0
123.696167 132.0
124.216896 164.0
126.261566 184.0
126.557137 228.0
126.707001 192.0
126.841454 132.0
126.964767 216.0
127.056358 216.0
127.11956 64.0
128.002975 192.0
128.057419 180.0
128.726807 136.0
128.771973 144.0
129.06485 160.0
129.604446 192.0
129.893723 148.0
131.031281 168.0
131.072296 52.0
131.117874 168.0
131.715652 204.0
132.685928 120.0
132.791397 148.0
133.816269 116.0
133.965973 192.0
134.191818 100.0
134.630234 168.0
134.916733 200.0
136.267868 136.0
136.316666 36.0
136.493317 56.0
137.224426 224.0
137.481003 172.0
137.649078 204.0
138.100113 144.0
138.291977 128.0
138.500351 108.0
138.8918 164.0
139.709259 88.0
139.803375 132.0
139.871628 208.0
140.163651 332.0
140.547989 180.0
140.864349 144.0
141.062836 276.0
141.578629 180.0
141.604675 84.0
142.081116 144.0
143.031647 112.0
143.20784 160.0
143.839706 36.0
144.018784 196.0
144.088058 160.0
144.566269 140.0
145.561081 192.0
146.462936 244.0
146.588211 136.0
146.911285 188.0
147.196075 84.0
147.592346 76.0
147.751984 100.0
148.059387 140.0
148.110245 176.0
148.570816 160.0
149.377319 236.0
150.046967 172.0
150.125031 176.0
150.764618 200.0
150.96019 244.0
151.054382 288.0
151.155884 32.0
151.670166 132.0
151.819336 176.0
151.84671 200.0
151.91539 168.0
151.98407 132.0
152.024689 188.0
152.062439 7912.0
152.108292 52.0
152.161789 88.0
152.21727 64.0
152.396576 136.0
152.465378 216.0
152.671875 172.0
152.821915 44.0
152.848984 128.0
152.905579 168.0
152.994202 160.0
153.069901 10072.0
153.244278 88.0
153.265106 108.0
153.316864 96.0
153.459824 68.0
153.713882 60.0
154.075272 944.0
154.208801 88.0
154.274536 140.0
154.316559 40.0
154.551529 116.0
154.692596 60.0
154.816391 144.0
155.047516 120.0
155.063339 140.0
155.070755 208.0
155.247574 48.0
155.753876 168.0
155.955139 184.0
156.009827 36.0
156.308273 52.0
156.746521 204.0
156.783905 80.0
156.808243 208.0
157.020737 140.0
157.060654 156.0
157.192871 140.0
157.619858 52.0
158.069946 164.0
158.653519 68.0
159.298447 80.0
159.595001 120.0
160.761261 96.0
162.352448 184.0
163.526184 36.0
164.066177 152.0
164.487091 92.0
164.568787 96.0
164.64624 132.0
165.070175 2040.0
165.333069 88.0
165.952957 120.0
166.077423 1720.0
166.517502 68.0
166.599701 164.0
167.044418 104.0
167.085876 564.0
168.093002 140.0
168.240112 44.0
169.066666 352.0
170.080582 172.0
170.129898 144.0
170.454559 164.0
171.082397 316.0
172.083237 228.0
172.61026 168.0
172.832581 180.0
173.296021 116.0
176.063797 236.0
176.1689 188.0
176.398804 56.0
176.869629 200.0
177.983688 156.0
178.076645 1400.0
178.410828 36.0
178.48793 56.0
178.565048 48.0
178.60228 140.0
178.620895 248.0
178.977524 44.0
179.017456 248.0
179.084381 1356.0
179.206573 108.0
179.305176 48.0
179.347809 44.0
179.398453 80.0
179.697144 108.0
180.065521 196.0
180.087906 296.0
180.108246 172.0
180.91243 184.0
180.985413 68.0
181.035385 200.0
181.06514 16152.0
181.098709 816.0
181.272018 52.0
181.30954 28.0
181.448914 56.0
181.585678 52.0
181.615173 84.0
181.666138 52.0
181.83786 112.0
181.929123 48.0
182.069839 2216.0
182.105118 368.0
182.135895 52.0
182.205734 72.0
182.286346 88.0
182.415344 76.0
182.762268 112.0
182.786484 64.0
182.931824 40.0
183.068024 396.0
183.128387 40.0
183.411285 68.0
183.458374 120.0
183.586533 116.0
184.140808 104.0
184.41806 136.0
184.980667 112.0
185.059174 144.0
187.130753 100.0
189.067078 472.0
189.394592 48.0
190.077896 752.0
190.755585 124.0
190.948044 144.0
191.03331 76.0
191.085861 3260.0
191.117691 232.0
191.561844 64.0
192.093719 364.0
192.173859 60.0
192.316544 68.0
193.096481 192.0
193.547546 144.0
194.07399 180.0
195.083588 244.0
195.738358 48.0
195.830261 112.0
197.113541 108.0
198.123566 184.0
198.381378 180.0
199.715149 48.0
201.064682 208.0
201.524963 96.0
202.444244 124.0
202.563202 44.0
209.055832 136.0
209.09729 1420.0
209.312027 32.0
210.094254 208.0
210.338348 76.0
210.884262 44.0
215.706406 104.0
218.080612 160.0
219.071838 216.0
220.089706 128.0
220.390976 108.0
226.89119 168.0
229.594315 64.0
229.850723 76.0
234.938751 124.0
235.482086 52.0
236.396149 56.0
237.091507 616.0
238.069901 72.0
238.092773 452.0
238.616837 80.0
250.300858 64.0
254.185654 140.0
258.23468 128.0
275.605835 76.0
277.035065 104.0
307.221924 72.0
333.895264 72.0
350.245178 76.0
352.468628 76.0
366.608521 72.0
380.102386 96.0
396.784241 88.0
487.226349 56.0
520.445862 132.0
559.759766 112.0
607.847961 48.0
734.556152 52.0
829.164551 60.0
869.33844 80.0
885.22522 112.0
931.463257 92.0
938.608093 124.0
973.375244 96.0
987.809387 188.0
1002.639648 172.0
1013.84436 180.0
1017.059875 168.0
1017.377258 208.0
1022.691345 176.0
1034.845825 120.0
1062.17041 52.0
1074.895874 144.0
1079.880371 144.0
1085.800903 140.0
1093.34375 136.0
1103.593506 84.0
1140.156982 164.0
1164.16626 152.0
1187.918091 40.0
1188.974731 164.0
1198.071533 228.0
1200.421753 180.0
1212.152344 120.0
1218.223145 260.0
1222.61731 160.0
1235.81958 124.0
1237.450317 160.0
1252.922119 72.0
1261.567017 184.0
1268.745361 196.0
1268.950928 124.0
1270.248657 96.0
1273.513794 244.0
1287.237183 88.0
1289.044312 112.0
1292.118896 204.0
1299.720703 152.0
1303.001831 104.0
1308.921265 156.0
1318.616699 128.0
1363.59314 68.0
1376.374268 112.0
1390.060791 136.0
1392.183838 144.0
1402.815918 140.0
1403.979126 144.0
1406.187378 160.0
1407.911865 32.0
1408.740967 68.0
1410.564331 152.0
1423.097656 192.0
1424.794922 148.0
1425.501221 168.0
1427.079712 148.0
1427.312744 156.0
1435.332031 132.0
1442.806641 180.0
1447.384033 160.0
1448.868408 104.0
1450.080811 168.0
1454.806396 168.0
1458.338501 96.0
1464.189087 216.0
1474.075684 120.0
1501.527954 144.0
