>compound MLS001141033-01!1-[(2S)-2-amino-4-methylpentanoyl]-N-[(2S)-1-[(4-methoxyphenyl)methylamino]-3-methyl-1-oxobutan-2-yl]piperidine-4-carboxamide
>formula C25H40N4O4
>ionization [M+H]+
>parentmass 461.313019
#inchi InChI=1S/C25H40N4O4/c1-16(2)14-21(26)25(32)29-12-10-19(11-13-29)23(30)28-22(17(3)4)24(31)27-15-18-6-8-20(33-5)9-7-18/h6-9,16-17,19,21-22H,10-15,26H2,1-5H3,(H,27,31)(H,28,30)/t21-,22-/m0/s1
#inchikey RCAVVTTVAJETSK
#Ion_Source LC-ESI
#Instrument qTof
#Compound_Source NIH Natural Product Library
#PI Dorrestein
#Data_Collector VVP/LMS
#Scan -1
#Precursor_MZ 461.313
#ExactMass 460.305
#Charge 1
#CAS_Number N/A
#Pubmed_ID N/A
#Smiles COc1ccc(CNC(=O)[C@@H](NC(=O)C2CCN(CC2)C(=O)[C@@H](N)CC(C)C)C(C)C)cc1
#INCHI_AUX N/A
#Library_Class 1
#SpectrumID CCMSLIB00000079358
#IonMode Positive
#UpdateWorkflowName UPDATE-SINGLE-ANNOTATED-GOLD
#LibraryQualityString Gold
#TaskID b1d8e8f6646f4e71acdff9ca3d919d08
##Scan# 1656
#SpectrumFile p1-A05_GA5_01_17878.mzXML
#LibraryName NIH_Natural_Products_Library.mgf
#MQScore -1
#Organism NIH_Natural_Products_Library
#TIC_Query 0
#RT_Query -1
#MZErrorPPM -1
#SharedPeaks 0
#MassDiff 0
#LibMZ -1
#SpecMZ 461.313
#SpecCharge 0
#internalFilename spec-00000.mgf

>collision 10
95.06356 136.0
95.110016 324.0
95.172256 144.0
95.193619 160.0
95.341248 140.0
95.397614 40.0
95.42289 204.0
95.45607 180.0
95.551247 148.0
95.576538 216.0
95.652435 36.0
95.675797 136.0
95.765366 120.0
95.825752 204.0
95.882256 60.0
96.001175 160.0
96.081139 224.0
96.176758 208.0
96.198227 112.0
96.211891 124.0
96.253265 168.0
96.409813 96.0
96.44323 196.0
96.473663 124.0
96.530357 192.0
96.639893 136.0
96.669243 172.0
96.738708 144.0
96.812141 132.0
96.868942 180.0
96.937515 172.0
97.037476 176.0
97.067993 388.0
97.191849 180.0
97.219887 136.0
97.241478 152.0
97.361229 104.0
97.403893 200.0
97.651665 204.0
97.679626 168.0
97.767159 212.0
97.844925 196.0
97.879082 276.0
97.951263 128.0
97.988693 84.0
98.049774 164.0
98.064209 132.0
98.094246 124.0
98.112671 136.0
98.164108 148.0
98.181854 152.0
98.228981 188.0
98.256813 128.0
98.276535 152.0
98.434441 144.0
98.454193 124.0
98.606308 208.0
98.688416 192.0
98.715034 128.0
98.738762 180.0
98.768433 172.0
98.82695 124.0
98.899017 224.0
98.984146 140.0
99.015831 188.0
99.051476 148.0
99.243706 204.0
99.31311 120.0
99.328979 284.0
99.366669 224.0
99.416275 212.0
99.432152 152.0
99.583038 192.0
99.61879 164.0
99.660507 72.0
99.777771 196.0
99.815544 148.0
99.859291 168.0
99.895096 120.0
99.960747 208.0
99.974678 184.0
100.014481 220.0
100.048325 152.0
100.062256 80.0
100.094116 68.0
100.112038 180.0
100.195686 204.0
100.359116 88.0
100.480774 96.0
100.532654 236.0
100.640434 60.0
100.784241 164.0
100.824211 84.0
100.854187 172.0
100.868179 76.0
100.930557 236.0
100.996544 160.0
101.115295 180.0
101.210732 140.0
101.352478 152.0
101.536903 120.0
101.601082 136.0
101.641212 208.0
101.729515 84.0
101.857613 156.0
101.902222 176.0
101.958488 80.0
102.046928 196.0
102.089149 132.0
102.155525 124.0
102.300407 192.0
102.330605 80.0
102.377876 160.0
102.453453 64.0
102.519943 212.0
102.562263 152.0
102.614677 180.0
102.63282 236.0
102.675171 132.0
102.713486 184.0
102.932457 152.0
103.032433 176.0
103.050613 152.0
103.23455 132.0
103.30938 172.0
103.370079 208.0
103.394363 156.0
103.622986 132.0
103.679901 132.0
103.696114 180.0
103.748817 144.0
103.844116 160.0
103.883171 188.0
104.01252 376.0
104.061241 148.0
104.081543 164.0
104.136368 164.0
104.16684 204.0
104.18512 172.0
104.337532 88.0
104.420898 132.0
104.435143 252.0
104.473785 176.0
104.564293 216.0
104.830086 240.0
104.848427 140.0
104.868805 112.0
104.915688 172.0
104.93811 128.0
104.987053 128.0
105.029877 152.0
105.113525 172.0
105.289078 140.0
105.356483 132.0
105.425949 148.0
105.532234 100.0
105.56086 184.0
105.602966 184.0
105.947685 112.0
105.966125 184.0
106.000954 108.0
106.021446 168.0
106.041641 1096.0
106.124924 176.0
106.193657 180.0
106.21212 188.0
106.255196 200.0
106.331116 136.0
106.3619 220.0
106.384483 168.0
106.466606 116.0
106.526169 160.0
106.668648 344.0
106.702904 60.0
106.717293 148.0
106.752243 212.0
106.76664 180.0
106.824234 156.0
106.855087 124.0
106.916817 132.0
106.939453 188.0
106.955917 260.0
107.044449 180.0
107.124763 132.0
107.321274 228.0
107.351479 224.0
107.367973 196.0
107.417473 132.0
107.495872 172.0
107.530952 48.0
107.573395 156.0
107.735367 164.0
107.828346 116.0
107.898628 192.0
108.014427 80.0
108.041321 216.0
108.055801 256.0
108.070282 140.0
108.258644 176.0
108.345634 100.0
108.45546 176.0
108.575706 128.0
108.617188 184.0
108.729225 48.0
108.76738 208.0
108.797714 168.0
108.851807 152.0
108.870384 180.0
108.928864 216.0
109.005409 180.0
109.057365 108.0
109.088539 180.0
109.165466 136.0
109.188339 104.0
109.242073 168.0
109.269463 176.0
109.298592 64.0
109.331886 160.0
109.381836 148.0
109.571335 132.0
109.604668 176.0
109.654686 160.0
109.671356 52.0
109.685944 124.0
109.750572 148.0
109.773506 196.0
109.827728 176.0
109.930092 180.0
110.015526 100.0
110.040581 232.0
110.059372 212.0
110.138725 116.0
110.16214 192.0
110.269913 172.0
110.429245 144.0
110.623795 224.0
110.722244 136.0
110.793457 256.0
110.85183 172.0
110.879776 184.0
110.9674 256.0
111.093231 148.0
111.117325 140.0
111.15197 208.0
111.217026 136.0
111.315697 184.0
111.408112 180.0
111.466934 108.0
111.536285 184.0
111.590942 208.0
111.645615 180.0
111.677162 180.0
111.762421 188.0
111.775429 348.0
111.797073 204.0
111.845482 48.0
111.874542 144.0
111.896088 192.0
111.96125 192.0
111.990822 136.0
112.026825 188.0
112.053474 492.0
112.076469 83120.0
112.117088 112.0
112.14135 76.0
112.170311 84.0
112.190369 248.0
112.212021 88.0
112.23513 108.0
112.257889 344.0
112.287491 128.0
112.32473 80.0
112.363861 220.0
112.377502 92.0
112.395142 68.0
112.42382 616.0
112.470428 72.0
112.488976 56.0
112.522346 84.0
112.53904 36.0
112.555573 48.0
112.581268 248.0
112.66153 40.0
112.6838 112.0
112.74604 96.0
112.781967 40.0
112.800995 180.0
112.849617 52.0
112.870758 60.0
112.889786 72.0
112.906708 60.0
112.946892 80.0
112.972275 60.0
112.993431 80.0
113.043861 112.0
113.078621 5568.0
113.11837 100.0
113.14035 160.0
113.194496 64.0
113.255913 128.0
113.277092 52.0
113.291924 88.0
113.338531 96.0
113.366081 80.0
113.448738 196.0
113.493256 44.0
113.525093 188.0
113.580208 28.0
113.609901 48.0
113.66082 52.0
113.690529 48.0
113.726387 116.0
113.742767 52.0
113.748337 152.0
113.785629 204.0
113.818703 188.0
113.870117 128.0
113.89859 64.0
113.92408 196.0
113.968498 184.0
113.992134 120.0
114.03244 280.0
114.082489 528.0
114.159996 172.0
114.289749 144.0
114.313156 204.0
114.394028 104.0
114.413773 160.0
114.466415 120.0
114.519653 36.0
114.549477 96.0
114.7323 172.0
114.937477 172.0
114.973755 104.0
115.016235 168.0
115.035652 112.0
115.095428 104.0
115.133865 208.0
115.156433 100.0
115.184807 164.0
115.238533 160.0
115.333504 216.0
115.396683 208.0
115.497139 156.0
115.53997 180.0
115.627701 128.0
115.762566 44.0
115.982185 164.0
116.011093 164.0
116.073273 236.0
116.186943 40.0
116.210541 128.0
116.238434 80.0
116.401031 208.0
116.433777 104.0
116.539032 120.0
116.588455 164.0
116.850777 124.0
116.947609 184.0
117.00914 116.0
117.035873 64.0
117.061707 156.0
117.087547 80.0
117.12632 200.0
117.152168 244.0
117.292229 188.0
117.364265 208.0
117.639511 172.0
117.69133 164.0
117.751793 180.0
117.874924 56.0
117.919968 128.0
118.032715 148.0
118.086777 76.0
118.147339 212.0
118.218742 148.0
118.331291 164.0
118.396248 104.0
118.418175 160.0
118.502388 132.0
118.76902 44.0
118.836273 160.0
118.892685 204.0
118.983849 200.0
119.051155 128.0
119.13369 108.0
119.179314 108.0
119.209732 52.0
119.225708 140.0
119.323814 172.0
119.398857 232.0
119.46846 184.0
119.55114 128.0
119.659966 140.0
119.686096 168.0
119.72747 104.0
119.742714 192.0
119.855988 116.0
120.028183 160.0
120.056526 148.0
120.130684 60.0
120.15686 136.0
120.185226 124.0
120.329819 224.0
120.396957 228.0
120.43409 36.0
120.473404 128.0
120.504448 228.0
120.556427 112.0
120.60405 152.0
120.663246 216.0
120.668976 188.0
120.700409 188.0
120.721245 272.0
120.757553 52.0
120.785477 156.0
120.814423 96.0
120.862976 312.0
120.891975 240.0
120.936333 168.0
120.968895 156.0
120.974625 316.0
120.994087 164.0
121.020065 216.0
121.065598 133512.0
121.116005 156.0
121.148613 200.0
121.171814 112.0
121.198486 120.0
121.21743 56.0
121.24218 72.0
121.283867 68.0
121.344398 152.0
121.39946 72.0
121.425171 1420.0
121.453384 56.0
121.475677 116.0
121.499039 140.0
121.523842 44.0
121.542931 148.0
121.559029 132.0
121.586853 100.0
121.626228 44.0
121.658112 64.0
121.68309 116.0
121.702019 40.0
121.742607 64.0
121.765701 32.0
121.799294 148.0
121.851364 56.0
121.907265 272.0
121.943169 200.0
122.012161 72.0
122.068489 13204.0
122.099075 336.0
122.11734 44.0
122.157333 88.0
122.205772 40.0
122.223923 80.0
122.240532 104.0
122.262543 168.0
122.313156 80.0
122.328873 72.0
122.37133 76.0
122.390213 68.0
122.421036 196.0
122.498741 128.0
122.515747 92.0
122.550148 64.0
122.564217 184.0
122.665588 56.0
122.700859 108.0
122.718826 160.0
122.774414 148.0
122.812172 100.0
122.836655 124.0
122.857437 36.0
122.898384 136.0
122.920097 120.0
122.930794 128.0
122.961357 40.0
122.976585 100.0
122.997665 88.0
123.022636 204.0
123.046959 96.0
123.07032 708.0
123.09613 264.0
123.104767 128.0
123.11145 168.0
123.184143 76.0
123.279144 36.0
123.314499 148.0
123.352074 44.0
123.438301 152.0
123.573219 100.0
123.593132 36.0
123.641815 84.0
123.77906 92.0
123.892014 56.0
123.916382 76.0
123.942787 100.0
123.982857 168.0
124.013878 52.0
124.057289 96.0
124.072594 148.0
124.112579 136.0
124.246704 64.0
124.30661 164.0
124.426468 132.0
124.666344 192.0
124.795265 84.0
124.848633 164.0
125.002121 88.0
125.155701 144.0
125.365082 136.0
125.418571 84.0
125.47876 48.0
125.572411 56.0
126.054604 120.0
126.56459 224.0
127.088661 408.0
127.124962 56.0
127.243927 100.0
127.412354 68.0
127.656807 84.0
127.8013 124.0
127.920578 108.0
128.01738 108.0
128.222382 76.0
128.314804 84.0
128.411758 116.0
128.592255 68.0
128.682541 176.0
128.750275 84.0
128.869995 204.0
128.955872 76.0
129.100601 724.0
129.138992 160.0
129.21817 116.0
129.573608 40.0
129.616653 128.0
129.714111 116.0
129.734512 172.0
129.925003 88.0
130.042984 88.0
130.085327 676.0
130.349564 92.0
130.392746 64.0
130.540497 96.0
130.560974 48.0
130.711105 124.0
130.756622 200.0
130.772552 124.0
131.424271 44.0
131.552078 192.0
131.750748 168.0
131.885574 112.0
131.93129 168.0
131.963287 232.0
132.121094 188.0
132.192017 108.0
132.496536 80.0
132.760117 156.0
132.966583 64.0
133.175507 144.0
134.049698 380.0
134.086578 196.0
134.181076 48.0
134.47403 116.0
134.758057 140.0
134.896713 56.0
134.922134 160.0
135.090958 108.0
135.382584 124.0
135.49144 76.0
135.651337 76.0
136.020142 156.0
136.052643 128.0
136.161774 136.0
136.873352 76.0
137.066681 176.0
137.778275 48.0
137.829666 188.0
137.86705 92.0
138.086807 196.0
138.110199 156.0
138.182709 188.0
138.311417 48.0
138.503418 196.0
138.522156 88.0
138.744781 128.0
138.974609 192.0
139.000427 224.0
139.43721 188.0
139.942947 176.0
140.022995 148.0
140.065216 208.0
140.093658 56.0
140.142548 3180.0
140.305756 68.0
140.343475 184.0
140.848495 56.0
141.144089 400.0
141.366241 60.0
141.423035 156.0
141.441971 68.0
141.574554 124.0
142.017731 188.0
142.155975 408.0
142.330017 128.0
142.338974 76.0
142.34407 156.0
142.383224 132.0
144.134079 104.0
144.667404 128.0
145.667343 100.0
145.996613 216.0
146.047119 188.0
146.152969 140.0
146.323837 172.0
146.755096 56.0
146.865707 152.0
147.044556 140.0
147.117798 184.0
147.353638 56.0
147.5784 116.0
147.648529 80.0
147.728348 200.0
147.946136 176.0
148.108368 156.0
148.156815 148.0
148.867462 144.0
149.504364 144.0
150.015839 136.0
150.123108 192.0
150.230423 100.0
150.633194 116.0
150.997375 152.0
151.087875 192.0
151.844742 144.0
151.908508 216.0
151.930588 112.0
152.104813 116.0
152.134262 144.0
152.465347 136.0
152.684647 52.0
152.728912 148.0
152.861755 116.0
152.947891 116.0
152.994659 220.0
153.573715 148.0
153.64032 200.0
155.481201 184.0
155.895905 76.0
156.142014 52.0
156.241516 144.0
156.358459 48.0
156.520264 188.0
156.642288 76.0
157.537811 100.0
157.590271 152.0
158.255554 216.0
158.556137 132.0
158.62883 148.0
158.922241 76.0
159.100433 144.0
159.45459 52.0
159.535019 164.0
159.645645 40.0
159.763855 112.0
159.899734 164.0
160.383301 96.0
160.829727 112.0
160.910507 72.0
160.939346 180.0
162.56839 152.0
162.918762 132.0
163.111877 164.0
163.613007 160.0
163.778748 224.0
163.796097 196.0
163.834564 204.0
163.987442 188.0
164.033325 232.0
164.111389 316.0
164.758041 180.0
165.072403 168.0
165.141815 144.0
165.364044 236.0
165.976288 56.0
166.11734 180.0
166.137863 60.0
166.199432 120.0
166.445831 144.0
166.522873 120.0
167.083221 192.0
167.157837 156.0
167.188721 140.0
167.332855 96.0
167.466766 136.0
167.51828 132.0
167.721832 160.0
168.099792 340.0
168.266129 92.0
168.71048 72.0
168.919937 128.0
169.12175 68.0
169.176117 160.0
169.800552 176.0
169.886139 132.0
170.057404 52.0
170.215759 148.0
170.272888 128.0
170.296249 76.0
170.55072 132.0
170.613266 116.0
171.201279 120.0
171.558228 112.0
172.837952 100.0
173.086609 180.0
174.132919 224.0
174.600708 156.0
174.62175 116.0
174.798004 52.0
175.435364 128.0
175.627853 92.0
175.81781 216.0
176.240295 124.0
176.361862 52.0
177.839767 104.0
177.985764 132.0
178.07872 228.0
178.291245 148.0
178.413513 208.0
178.783218 132.0
178.863068 124.0
178.977539 80.0
179.156021 220.0
179.454453 108.0
179.529114 100.0
179.634003 196.0
180.020126 196.0
180.141403 232.0
180.257858 132.0
180.784637 200.0
181.103226 160.0
181.131699 612.0
181.2854 84.0
181.395279 208.0
181.43013 212.0
181.641968 180.0
182.138092 192.0
182.493271 120.0
182.627914 116.0
182.716492 76.0
182.738007 136.0
182.807968 216.0
182.856415 144.0
183.000732 136.0
183.048645 164.0
183.075867 216.0
183.096008 212.0
183.148743 25588.0
183.191467 208.0
183.248093 52.0
183.299545 156.0
183.343857 84.0
183.362717 48.0
183.392365 76.0
183.435501 188.0
183.467834 108.0
183.564896 64.0
183.59996 60.0
183.632324 60.0
183.82312 88.0
183.867035 36.0
183.910217 68.0
184.028351 236.0
184.093796 32.0
184.151718 2424.0
184.212631 92.0
184.234238 64.0
184.296371 36.0
184.353119 76.0
184.387482 188.0
184.412582 48.0
184.463928 52.0
184.634262 60.0
184.685654 60.0
184.929153 92.0
185.059082 52.0
185.152985 320.0
185.297424 120.0
185.316391 56.0
185.373291 104.0
185.411087 80.0
185.502579 136.0
185.568436 120.0
185.600204 156.0
185.695877 100.0
185.723007 100.0
186.035049 164.0
186.241409 104.0
186.352798 68.0
186.524002 172.0
186.605545 152.0
186.627304 188.0
186.722473 64.0
187.441132 60.0
188.251266 200.0
188.559967 180.0
189.013901 212.0
189.375259 176.0
189.462921 80.0
189.53688 100.0
189.698578 212.0
189.717773 88.0
189.797272 188.0
189.874054 152.0
190.934113 176.0
191.049637 68.0
191.426697 72.0
191.616745 136.0
191.895096 144.0
191.930939 124.0
192.930359 80.0
193.206909 172.0
193.234573 40.0
193.342484 188.0
193.461502 176.0
193.511322 136.0
194.24292 260.0
194.995346 48.0
195.143951 316.0
195.490356 160.0
196.022217 128.0
196.147629 144.0
196.200592 96.0
196.493408 216.0
196.652466 168.0
196.680374 156.0
196.909317 164.0
196.973557 204.0
197.156708 188.0
197.185898 164.0
198.193298 196.0
198.442734 104.0
199.031937 156.0
199.074051 132.0
199.161118 172.0
199.636078 48.0
200.077805 172.0
200.649689 80.0
201.558502 196.0
202.500504 152.0
202.712967 152.0
202.922714 84.0
203.382263 180.0
203.566788 100.0
203.762772 128.0
204.448029 84.0
204.81813 144.0
205.522278 72.0
205.599319 180.0
205.810547 128.0
206.087601 268.0
206.150452 320.0
206.659424 64.0
206.854019 100.0
206.916992 156.0
207.398239 36.0
207.607529 184.0
207.670624 120.0
207.908737 60.0
207.948914 132.0
208.127991 608.0
209.12822 460.0
209.464157 208.0
209.579391 216.0
209.948349 108.0
210.031982 56.0
210.509857 172.0
210.638138 228.0
210.721909 124.0
210.757278 200.0
210.823761 112.0
210.909012 160.0
211.060074 192.0
211.100555 140.0
211.143936 33380.0
211.267868 88.0
211.352203 80.0
211.395599 72.0
211.415863 56.0
211.456375 72.0
211.48616 68.0
211.506302 112.0
211.542175 56.0
211.566071 72.0
211.621368 52.0
211.64743 124.0
211.685074 72.0
211.714203 64.0
211.740097 176.0
211.766159 48.0
211.818298 68.0
211.863007 128.0
211.898636 60.0
211.939972 44.0
211.96315 96.0
212.07515 100.0
212.146545 3740.0
212.314377 180.0
212.444412 192.0
212.519836 36.0
212.599518 148.0
212.630112 56.0
212.666122 196.0
212.720093 32.0
212.815887 60.0
212.932037 60.0
212.993027 44.0
213.042404 144.0
213.147659 388.0
213.187683 36.0
213.226044 60.0
213.359161 72.0
213.402771 92.0
213.431854 52.0
213.514267 116.0
213.59874 104.0
213.711075 76.0
213.74353 156.0
213.775818 112.0
213.79837 136.0
214.055389 216.0
214.159363 124.0
214.707275 172.0
214.736435 128.0
214.976074 56.0
215.787643 172.0
216.18544 44.0
216.328857 208.0
216.507446 156.0
216.677338 52.0
216.812119 52.0
218.791794 56.0
219.230652 144.0
219.87648 156.0
220.132462 160.0
220.611938 40.0
220.77153 176.0
221.09404 44.0
221.644821 184.0
221.834488 144.0
221.979767 52.0
222.074661 116.0
222.175507 140.0
222.668228 64.0
223.027725 76.0
223.144424 324.0
223.583878 208.0
223.795227 120.0
224.009644 160.0
224.173645 1536.0
224.361282 48.0
224.537201 68.0
224.689316 76.0
224.814636 120.0
224.925064 208.0
224.966858 180.0
225.165161 196.0
225.677872 92.0
225.956009 176.0
226.153717 500.0
226.677582 148.0
227.091278 136.0
227.163269 120.0
227.439331 40.0
227.556396 224.0
227.766602 44.0
227.937851 92.0
228.168472 604.0
228.196335 200.0
229.066025 180.0
229.656799 104.0
229.680923 44.0
229.900497 108.0
230.212097 168.0
230.423523 156.0
230.798294 44.0
231.013016 68.0
231.50029 208.0
232.128754 160.0
232.461212 52.0
232.570465 100.0
234.105743 148.0
234.258026 44.0
236.223862 56.0
236.416611 120.0
236.707413 68.0
236.777847 152.0
236.854416 172.0
237.081131 40.0
237.117828 152.0
237.159546 8868.0
237.20372 176.0
237.231308 44.0
237.386108 84.0
237.574509 96.0
237.887772 188.0
237.955307 156.0
238.163528 1144.0
238.207199 152.0
238.271622 48.0
238.317703 148.0
238.419113 48.0
238.462143 76.0
238.735748 92.0
238.760345 44.0
238.944901 56.0
239.160172 360.0
239.486664 192.0
239.733124 52.0
240.166718 812.0
240.241852 128.0
240.677002 112.0
240.698608 144.0
241.178909 136.0
241.52684 100.0
241.678421 164.0
241.901245 52.0
242.173721 132.0
242.570328 124.0
242.787354 56.0
243.175644 192.0
243.706146 32.0
245.028397 152.0
245.14679 68.0
245.346634 172.0
247.520782 112.0
247.765076 112.0
247.909195 128.0
248.934967 260.0
249.057449 200.0
249.931381 80.0
252.126068 164.0
252.198761 140.0
253.863998 188.0
254.117752 164.0
254.263702 52.0
254.593872 92.0
254.930588 124.0
255.235748 116.0
255.926193 80.0
256.24469 112.0
256.725983 120.0
257.69632 96.0
257.926392 160.0
257.974335 120.0
259.562317 168.0
259.9729 188.0
261.020081 168.0
261.16156 160.0
261.196503 140.0
261.518707 76.0
264.630554 112.0
264.905823 144.0
264.957642 160.0
266.453217 164.0
268.216949 68.0
268.526672 104.0
271.089661 200.0
272.493988 160.0
273.033051 144.0
273.236969 44.0
273.427826 120.0
275.049377 104.0
275.326721 44.0
277.208984 120.0
277.576904 132.0
277.689667 168.0
278.218689 152.0
279.16748 184.0
279.208008 844.0
279.430237 148.0
280.174744 220.0
280.210083 212.0
280.21994 464.0
280.439209 112.0
280.792603 156.0
281.162903 140.0
281.208313 212.0
281.693787 92.0
282.251892 108.0
282.586365 104.0
282.676697 64.0
282.987976 60.0
283.021454 136.0
284.46637 48.0
284.560364 128.0
284.704742 128.0
286.06308 104.0
287.174988 124.0
288.559448 144.0
291.470886 168.0
291.827759 56.0
291.875366 140.0
293.301758 152.0
293.693329 124.0
294.219208 88.0
294.895691 84.0
295.029449 148.0
295.044037 20.0
295.055908 156.0
295.360687 240.0
295.435944 60.0
295.846588 84.0
295.901367 92.0
295.928741 180.0
296.031464 44.0
296.232208 8024.0
296.658447 52.0
296.685883 36.0
296.761292 84.0
296.929321 48.0
296.97049 104.0
297.011627 84.0
297.080231 52.0
297.166016 80.0
297.233673 1396.0
297.474854 84.0
297.63623 56.0
297.677429 96.0
297.71347 80.0
297.73819 132.0
297.89035 40.0
297.917847 84.0
298.235413 424.0
298.268341 68.0
298.299255 124.0
298.337067 84.0
299.066284 128.0
299.176453 152.0
299.207428 44.0
299.255615 104.0
299.289001 132.0
299.420898 84.0
299.651703 80.0
299.844666 60.0
300.713745 116.0
302.0578 152.0
303.162231 104.0
303.228058 208.0
303.488037 40.0
304.001404 176.0
305.655426 176.0
305.871185 76.0
306.292511 36.0
306.316864 192.0
307.214539 148.0
307.54422 124.0
308.204865 176.0
308.232178 148.0
311.335785 148.0
311.546539 144.0
311.992828 44.0
312.372589 64.0
314.797363 104.0
315.037537 192.0
315.171783 100.0
316.61145 44.0
317.316589 124.0
317.727966 112.0
318.136078 76.0
320.615112 116.0
320.846802 84.0
322.281525 180.0
323.211151 48.0
323.526093 116.0
323.590515 116.0
323.683624 140.0
324.228027 5448.0
324.335632 32.0
324.37146 44.0
324.477356 56.0
324.522034 68.0
324.572235 52.0
324.68457 60.0
324.737183 84.0
325.156952 132.0
325.229828 752.0
325.311279 52.0
325.361542 224.0
325.505157 88.0
325.648804 28.0
325.839172 148.0
326.231964 192.0
326.500549 88.0
327.234589 172.0
327.289581 84.0
327.400208 92.0
327.457825 60.0
327.493835 76.0
327.857727 156.0
328.24704 112.0
329.0047 84.0
329.828278 88.0
330.168121 108.0
330.211517 120.0
330.736145 64.0
331.217712 136.0
331.873627 80.0
332.02594 80.0
332.497559 84.0
332.856934 128.0
335.348846 52.0
338.505188 124.0
339.131622 192.0
340.246735 168.0
340.610291 84.0
340.84906 44.0
340.977692 68.0
341.076935 120.0
341.411499 92.0
342.526642 164.0
343.080597 172.0
343.994232 176.0
344.596161 172.0
346.090363 144.0
346.471832 68.0
346.534821 124.0
346.627441 100.0
346.868347 136.0
346.92569 76.0
347.001801 40.0
347.509888 60.0
347.546997 80.0
347.587799 68.0
347.687988 68.0
347.713989 108.0
347.743652 100.0
347.847595 104.0
348.048737 132.0
348.061829 152.0
348.107483 96.0
348.227692 29040.0
348.34729 56.0
348.408325 52.0
348.441742 84.0
348.486328 40.0
348.539825 152.0
348.593506 144.0
348.650177 124.0
348.690704 64.0
348.732697 68.0
348.809631 128.0
348.902588 156.0
349.006683 96.0
349.056885 224.0
349.114502 92.0
349.152832 132.0
349.230988 7096.0
349.368958 96.0
349.441833 144.0
349.590668 44.0
349.619293 92.0
349.683685 64.0
349.728363 156.0
349.787445 64.0
349.888428 44.0
349.944275 84.0
349.977783 80.0
350.045471 108.0
350.108093 64.0
350.152802 52.0
350.235535 564.0
350.301758 60.0
350.398621 60.0
350.428436 56.0
350.838379 116.0
350.90921 40.0
351.062073 124.0
351.11972 140.0
351.228851 128.0
351.459076 116.0
351.575012 136.0
351.729889 40.0
352.140594 80.0
352.798218 64.0
352.869263 136.0
353.250397 152.0
353.422943 92.0
353.523804 44.0
353.695953 48.0
355.76886 44.0
356.144379 44.0
356.67038 96.0
357.196808 144.0
361.01355 108.0
362.088287 184.0
363.172241 72.0
364.295135 124.0
365.337341 88.0
366.620453 112.0
368.16925 140.0
369.071045 84.0
373.196564 140.0
373.773499 60.0
374.832397 96.0
379.144897 52.0
379.62558 84.0
381.081146 76.0
382.177551 140.0
382.917175 200.0
386.246399 132.0
386.316803 104.0
387.334564 104.0
388.844055 68.0
389.252289 136.0
389.319061 180.0
390.014435 64.0
391.229889 160.0
392.896851 64.0
416.281281 124.0
416.630585 72.0
417.28894 80.0
426.264587 164.0
427.259674 148.0
428.424683 148.0
428.618317 108.0
429.158264 60.0
429.298462 72.0
432.239532 84.0
435.165741 88.0
438.343445 108.0
443.286499 148.0
444.028717 76.0
444.274078 180.0
444.347504 96.0
445.28299 236.0
448.565369 96.0
449.632446 92.0
452.227386 56.0
453.985504 116.0
455.135437 64.0
456.588715 84.0
456.809875 52.0
458.92218 80.0
460.68045 56.0
460.881226 96.0
460.988068 112.0
461.240204 180.0
461.313019 2984.0
461.424011 68.0
461.830261 68.0
461.992798 224.0
462.316132 1812.0
462.793091 40.0
463.313721 380.0
464.31427 172.0
464.490112 212.0
465.283997 84.0
465.606018 64.0
467.045807 40.0
469.561035 88.0
470.01828 76.0
470.782318 72.0
471.655029 148.0
471.853882 108.0
474.785248 68.0
477.203796 128.0
482.312866 124.0
483.056213 68.0
491.15155 88.0
499.469849 124.0
505.309174 64.0
515.719238 136.0
516.564758 60.0
521.657043 56.0
524.1875 64.0
526.527649 132.0
531.567749 20.0
532.343506 92.0
543.003784 56.0
548.080017 148.0
552.810852 124.0
555.973206 116.0
562.175476 92.0
568.189209 88.0
571.538696 44.0
576.497742 96.0
578.085327 44.0
579.354126 180.0
585.579163 68.0
603.157898 84.0
609.07196 64.0
613.382263 104.0
642.536316 20.0
655.969727 56.0
670.392151 176.0
674.045471 40.0
675.524109 112.0
679.383301 160.0
692.670715 80.0
696.263367 64.0
702.700867 120.0
711.401062 44.0
711.926697 64.0
715.159058 204.0
719.829041 92.0
726.181213 44.0
730.04248 92.0
740.252136 84.0
741.015808 96.0
749.023071 100.0
750.243652 68.0
751.328857 20.0
755.234497 84.0
759.457336 72.0
766.20752 84.0
767.19397 112.0
778.11438 128.0
784.768372 56.0
789.939697 32.0
790.8349 116.0
792.565308 100.0
795.391724 108.0
797.677856 40.0
808.223816 116.0
834.466309 188.0
836.232239 36.0
838.639709 132.0
840.248474 56.0
847.15094 60.0
859.89032 140.0
866.363098 48.0
871.120483 208.0
872.301575 180.0
875.048828 104.0
875.926208 88.0
879.033142 148.0
885.156982 60.0
889.455078 100.0
892.788086 80.0
900.350403 60.0
907.243103 68.0
910.85553 156.0
919.199646 92.0
926.97583 44.0
928.685364 144.0
930.809387 168.0
936.020386 180.0
936.714661 76.0
939.604126 136.0
940.568298 160.0
945.384216 140.0
950.488525 100.0
951.734558 176.0
956.671265 40.0
965.611816 260.0
969.595154 48.0
980.337158 188.0
980.866943 236.0
981.106934 20.0
983.542786 204.0
985.316223 84.0
985.803528 168.0
986.416016 272.0
986.916138 184.0
988.254578 220.0
989.737976 108.0
989.869446 208.0
990.658569 196.0
1008.522461 64.0
1008.983887 236.0
1012.122009 164.0
1012.774292 144.0
1016.165649 188.0
1022.405884 208.0
1024.748535 180.0
1025.653442 120.0
1027.764282 164.0
1029.845337 168.0
1031.589722 108.0
1032.107544 204.0
1032.248169 88.0
1035.351807 200.0
1038.658813 168.0
1042.061157 120.0
1042.189697 184.0
1042.806519 180.0
1043.307861 224.0
1045.012207 216.0
1046.949585 152.0
1047.832031 20.0
1048.782104 180.0
1050.02356 204.0
1052.462769 136.0
1052.953613 180.0
1054.639771 104.0
1055.661255 104.0
1056.760864 196.0
1057.161987 180.0
1058.016357 160.0
1058.793335 148.0
1060.02417 244.0
1060.542603 92.0
1061.041748 160.0
1063.461182 120.0
1064.337646 192.0
1065.571655 140.0
1065.824951 112.0
1066.539795 196.0
1069.622925 248.0
1069.935425 196.0
1072.097778 180.0
1072.522949 176.0
1076.533691 204.0
1076.678467 112.0
1077.376221 116.0
1080.056274 140.0
1080.121704 128.0
1082.772339 144.0
1083.213013 176.0
1083.591187 136.0
1084.259521 220.0
1084.606812 152.0
1086.882446 96.0
1087.433716 132.0
1087.991577 264.0
1090.822876 44.0
1091.565796 192.0
1092.322021 152.0
1092.795654 184.0
1095.784668 132.0
1096.265747 180.0
1096.54248 180.0
1098.889893 120.0
1099.371582 132.0
1100.691772 292.0
1102.541382 196.0
1103.01062 136.0
1103.241943 152.0
1103.653809 252.0
1104.041992 100.0
1104.505005 176.0
1105.027588 124.0
1108.477173 168.0
1110.061401 208.0
1111.122559 160.0
1111.925415 60.0
1113.372681 188.0
1114.229492 176.0
1114.349121 100.0
1114.608276 104.0
1116.615845 112.0
1117.374146 172.0
1117.879761 184.0
1118.239136 140.0
1118.31897 160.0
1119.317505 88.0
1120.056763 132.0
1120.543091 92.0
1121.97583 136.0
1123.573486 140.0
1126.313232 140.0
1129.133667 152.0
1129.421265 84.0
1130.978638 168.0
1130.995483 128.0
1131.022949 204.0
1132.493408 184.0
1132.634033 152.0
1133.880249 104.0
1133.960693 88.0
1134.771729 244.0
1135.663574 188.0
1135.797729 196.0
1137.77063 240.0
1138.032471 104.0
1139.127075 68.0
1143.033081 184.0
1144.042603 168.0
1144.702393 160.0
1145.6521 196.0
1146.494263 156.0
1146.554932 164.0
1146.709961 168.0
1147.262695 156.0
1147.835693 92.0
1151.256836 64.0
1152.134888 144.0
1152.276855 156.0
1153.013306 116.0
1153.439087 36.0
1153.533691 164.0
1154.831909 124.0
1154.967163 200.0
1155.42041 188.0
1155.826416 116.0
1156.171509 244.0
1156.523438 188.0
1157.416992 160.0
1157.484741 212.0
1157.742065 196.0
1158.283813 220.0
1158.751221 168.0
1160.282837 144.0
1160.452393 204.0
1160.581177 132.0
1160.913452 208.0
1161.734131 200.0
1163.450928 148.0
1163.539185 148.0
1163.776855 136.0
1163.932983 180.0
1164.136719 124.0
1165.597168 156.0
1166.507812 104.0
1166.834106 192.0
1166.9021 52.0
1167.214844 152.0
1167.391602 156.0
1168.568359 180.0
1168.956177 160.0
1169.126343 276.0
1170.02478 96.0
1170.753296 192.0
1170.923584 60.0
1171.434326 168.0
1172.102173 224.0
1172.803955 212.0
1173.628784 140.0
1173.915161 184.0
1174.440308 176.0
1174.931396 100.0
1175.224854 160.0
1175.989136 156.0
1176.036865 48.0
1176.146118 176.0
1176.571289 208.0
1177.497925 184.0
1178.754883 192.0
1179.260498 180.0
1179.451904 132.0
1180.949341 164.0
1182.557129 204.0
1182.646118 132.0
1182.758911 192.0
1182.90979 212.0
1184.275635 212.0
1184.652344 180.0
1184.823608 120.0
1185.721191 96.0
1185.933594 180.0
1187.064087 200.0
1188.31311 224.0
1188.820801 164.0
1191.168823 152.0
1192.240723 132.0
1195.741089 160.0
1196.594604 252.0
1197.15918 156.0
1197.792847 172.0
1198.46106 208.0
1200.053223 132.0
1200.432373 148.0
1201.004761 184.0
1201.059937 196.0
1201.280762 124.0
1202.018921 124.0
1202.812622 180.0
1202.867798 60.0
1204.504272 172.0
1204.780518 176.0
1205.229614 180.0
1208.51416 148.0
1209.814941 220.0
1210.189331 152.0
1211.497681 220.0
1211.566895 188.0
1213.245972 68.0
1216.525146 116.0
1216.733398 220.0
1216.969482 172.0
1217.122192 188.0
1218.008667 196.0
1218.275146 148.0
1221.38916 72.0
1221.556152 92.0
1221.987427 168.0
1222.585815 148.0
1223.107788 116.0
1223.372314 228.0
1223.574219 196.0
1224.904297 76.0
1225.233398 80.0
1225.572998 88.0
1226.444092 148.0
1226.855347 264.0
1227.32251 180.0
1228.417358 176.0
1228.619751 144.0
1229.15686 152.0
1229.282471 136.0
1230.071167 224.0
1230.664551 176.0
1230.720337 44.0
1231.292969 140.0
1231.963501 108.0
1232.24292 84.0
1232.557373 104.0
1233.668579 168.0
1234.626465 180.0
1235.857544 200.0
1235.969482 236.0
1237.698364 128.0
1238.440674 128.0
1238.566772 188.0
1238.720825 140.0
1239.932983 116.0
1240.486694 208.0
1241.762695 176.0
1242.492188 68.0
1242.765869 244.0
1243.102661 68.0
1243.172852 64.0
1243.369263 184.0
1244.513428 108.0
1244.583618 276.0
1244.731079 208.0
1245.264893 152.0
1245.454468 220.0
1247.351562 52.0
1247.892944 188.0
1248.075684 116.0
1248.34729 160.0
1248.483521 212.0
1249.250122 148.0
1250.228149 180.0
1250.537842 104.0
1250.77002 152.0
1251.959229 208.0
1252.565552 236.0
1252.741699 212.0
1252.910767 176.0
1253.629395 212.0
1253.84082 84.0
1254.249634 188.0
1255.490479 140.0
1255.814819 60.0
1255.984131 180.0
1256.213989 172.0
1256.322754 200.0
1258.213989 84.0
1258.411621 108.0
1258.538696 200.0
1258.658813 112.0
1258.863525 208.0
1259.774658 120.0
1261.392822 132.0
1261.505859 172.0
1262.255249 164.0
1262.531128 132.0
1262.750366 180.0
1262.990845 160.0
1263.614502 120.0
1263.90332 152.0
1264.462402 88.0
1266.423462 156.0
1267.138916 124.0
1267.719971 108.0
1268.449951 252.0
1268.605957 200.0
1268.839844 172.0
1269.506348 172.0
1269.804199 192.0
1270.896606 124.0
1272.649658 160.0
1272.847778 176.0
1273.878296 196.0
1274.474976 172.0
1274.759277 220.0
1275.107422 148.0
1275.270874 144.0
1275.825317 184.0
1276.294556 128.0
1277.539185 104.0
1278.791504 184.0
1279.133057 184.0
1279.25415 216.0
1279.368042 112.0
1279.574463 144.0
1279.909058 88.0
1280.464478 108.0
1280.614868 184.0
1280.720947 128.0
1281.312744 208.0
1281.917725 160.0
1282.202881 164.0
1282.338257 68.0
1282.715942 116.0
1283.015381 152.0
1283.357544 208.0
1283.557251 64.0
1283.856689 228.0
1284.141968 192.0
1285.754272 104.0
1286.0271 188.0
1286.696533 172.0
1286.853516 132.0
1287.853271 212.0
1287.953247 156.0
1288.081909 196.0
1289.353638 168.0
1290.683228 140.0
1290.847656 196.0
1291.541382 216.0
1292.220947 68.0
1292.857788 144.0
1293.115356 168.0
1293.823975 72.0
1294.425415 172.0
1294.489868 152.0
1294.898071 140.0
1295.234619 208.0
1295.793457 188.0
1296.237671 124.0
1296.445435 116.0
1296.753662 124.0
1296.896973 88.0
1296.98291 140.0
1297.463257 192.0
1298.115723 144.0
1298.474243 140.0
1298.768311 188.0
1299.012207 140.0
1299.411743 212.0
1299.528687 216.0
1300.361084 200.0
1301.918945 208.0
1302.112793 116.0
1303.341187 156.0
1303.405884 228.0
1303.520874 44.0
1304.713867 200.0
1305.483276 180.0
1305.871582 280.0
1306.365234 284.0
1307.605469 188.0
1307.734985 196.0
1307.979736 192.0
1308.994751 160.0
1309.182007 192.0
1310.039062 204.0
1310.348877 196.0
1310.730713 204.0
1310.967529 152.0
1312.77063 212.0
1312.914917 160.0
1314.148315 268.0
1314.862671 140.0
1315.302979 192.0
1315.465088 104.0
1317.469238 140.0
1318.791504 200.0
1319.471069 136.0
1320.345947 160.0
1320.519531 132.0
1320.946289 196.0
1321.294922 156.0
1321.418701 132.0
1321.953125 192.0
1322.060425 252.0
1322.313721 148.0
1322.436768 144.0
1324.406128 144.0
1324.732056 156.0
1325.152222 156.0
1325.768066 80.0
1326.688599 104.0
1326.942383 180.0
1327.602173 180.0
1328.856934 132.0
1329.13269 160.0
1329.34314 208.0
1330.047119 168.0
1330.359253 172.0
1330.642334 224.0
1332.421631 216.0
1332.516113 208.0
1333.177246 200.0
1333.591553 140.0
1334.376587 184.0
1334.812744 184.0
1335.038208 176.0
1335.249146 184.0
1335.656372 144.0
1337.766602 144.0
1338.494629 148.0
1339.069946 164.0
1340.031494 172.0
1340.432129 152.0
1340.796509 160.0
1342.830566 176.0
1343.581787 68.0
1343.946655 208.0
1344.602173 196.0
1344.960938 76.0
1346.041382 148.0
1346.180176 60.0
1346.552612 216.0
1347.034668 156.0
1347.443726 252.0
1347.756958 152.0
1347.947876 184.0
1348.247437 80.0
1348.531738 200.0
1348.700562 172.0
1348.890625 196.0
1349.680176 92.0
1350.009277 132.0
1350.609009 88.0
1351.369751 208.0
1351.548584 220.0
1351.772217 80.0
1352.02832 164.0
1352.357666 256.0
1352.533325 40.0
1352.599121 208.0
1353.096924 152.0
1354.576172 200.0
1354.795898 144.0
1355.198853 196.0
1355.522949 244.0
1355.836304 84.0
1356.327393 168.0
1356.553589 148.0
1357.962402 156.0
1358.945312 152.0
1359.151978 180.0
1359.400269 140.0
1359.704834 40.0
1359.855225 200.0
1359.987427 188.0
1360.248535 132.0
1360.80957 240.0
1361.169312 188.0
1361.631958 148.0
1361.999146 192.0
1362.262817 152.0
1363.145264 108.0
1363.321533 208.0
1363.91687 60.0
1364.59314 148.0
1364.975464 200.0
1365.144653 180.0
1365.799194 168.0
1366.159668 136.0
1367.233887 40.0
1367.542969 120.0
1368.072144 168.0
1368.168579 40.0
1368.536743 232.0
1368.625 164.0
1368.949097 92.0
1369.604492 180.0
1370.897217 196.0
1371.483276 164.0
1371.549683 208.0
1371.608643 196.0
1371.844482 148.0
1372.972534 92.0
1373.053711 156.0
1373.577393 208.0
1374.241333 160.0
1374.558594 152.0
1374.831543 176.0
1374.879028 140.0
1375.650879 200.0
1375.717773 184.0
1376.226685 164.0
1376.597778 260.0
1377.371338 232.0
1377.873901 240.0
1378.117432 236.0
1378.597778 172.0
1379.00415 124.0
1379.057129 172.0
1379.551147 124.0
1380.54187 64.0
1380.726807 124.0
1380.793335 132.0
1380.904297 212.0
1380.978149 224.0
1381.126099 100.0
1381.836304 148.0
1382.561401 92.0
1382.702026 140.0
1383.026123 156.0
1383.382935 136.0
1383.728516 224.0
1384.175171 156.0
1384.515747 164.0
1385.263794 208.0
1385.500854 136.0
1386.129883 168.0
1386.471436 184.0
1386.827271 168.0
1387.116333 116.0
1387.828003 84.0
1387.939209 64.0
1388.228394 84.0
1388.569458 156.0
1389.548584 132.0
1389.949219 188.0
1390.208984 132.0
1390.283203 188.0
1390.483521 140.0
1391.047607 132.0
1391.151611 128.0
1391.337158 172.0
1391.960815 160.0
1393.223389 188.0
1393.453735 320.0
1393.852905 188.0
1394.352783 212.0
1395.274536 176.0
1395.348877 108.0
1395.623901 156.0
1395.735474 188.0
1396.351196 168.0
1396.903076 160.0
1397.319702 248.0
1397.617188 52.0
1398.115845 132.0
1398.569824 112.0
1398.659058 100.0
1399.537476 28.0
1399.745972 236.0
1399.805542 164.0
1400.188721 136.0
1400.307495 212.0
1400.527954 144.0
1401.950928 128.0
1402.025391 172.0
1402.129761 36.0
1402.211792 204.0
1402.562012 188.0
1402.933228 232.0
1402.963379 184.0
1403.083862 256.0
1403.516235 176.0
1404.254517 108.0
1404.411133 180.0
1405.052612 176.0
1406.074829 156.0
1407.88147 144.0
1408.120483 104.0
1408.232544 144.0
1408.57605 164.0
1408.986938 176.0
1409.158691 204.0
1410.057495 144.0
1410.855225 144.0
1411.064575 176.0
1411.296143 148.0
1411.335327 184.0
1411.909424 208.0
1412.073975 140.0
1413.00354 244.0
1413.495361 144.0
1414.42334 132.0
1415.516357 232.0
1415.875732 248.0
1415.980591 120.0
1416.055542 184.0
1416.931885 204.0
1417.209106 196.0
1417.761475 348.0
1417.890991 152.0
1418.003418 228.0
1418.505615 208.0
1418.572998 152.0
1418.850342 144.0
1419.015381 136.0
1419.202759 184.0
1419.270264 108.0
1419.727661 248.0
1419.833618 288.0
1420.222656 172.0
1420.372681 140.0
1421.002808 184.0
1421.655518 152.0
1421.723145 120.0
1422.376099 160.0
1422.578735 124.0
1422.758911 176.0
1422.976562 60.0
1423.141724 220.0
1423.194336 136.0
1423.329468 156.0
1423.637329 116.0
1423.757446 196.0
1423.870117 268.0
1424.148071 232.0
1424.311035 136.0
1424.358276 204.0
1424.463501 184.0
1424.651245 108.0
1424.809082 144.0
1425.345947 140.0
1426.597534 204.0
1427.086182 56.0
1427.156738 192.0
1427.943481 204.0
1428.116455 160.0
1428.958984 196.0
1429.35022 108.0
1429.779053 104.0
1429.899536 120.0
1430.953369 228.0
1431.216797 112.0
1431.278931 232.0
1431.397583 108.0
1432.248535 180.0
1433.288208 152.0
1433.642334 148.0
1433.913574 188.0
1434.509033 164.0
1434.818115 196.0
1434.923706 116.0
1435.149902 60.0
1435.300659 172.0
1435.61731 148.0
1435.677612 128.0
1436.115112 164.0
1436.390503 192.0
1436.658203 244.0
1437.744629 220.0
1438.220093 152.0
1438.537109 120.0
1438.929688 124.0
1439.578979 172.0
1439.881104 168.0
1440.024414 172.0
1441.057251 196.0
1441.338989 140.0
1441.618652 208.0
1442.283691 180.0
1442.612549 144.0
1443.213501 172.0
1443.296631 216.0
1444.43103 140.0
1444.589844 152.0
1444.879517 164.0
1445.316162 168.0
1445.376709 168.0
1445.966919 216.0
1446.121704 220.0
1446.277222 228.0
1446.489136 176.0
1446.633057 84.0
1446.822266 172.0
1447.102417 148.0
1447.480957 200.0
1447.836914 216.0
1448.670044 188.0
1448.844238 124.0
1449.579102 180.0
1450.628784 212.0
1450.78418 244.0
1451.170898 136.0
1451.603027 228.0
1452.97583 232.0
1454.865479 224.0
1455.024902 180.0
1455.412109 184.0
1455.71582 60.0
1456.2854 108.0
1457.333618 148.0
1458.458374 160.0
1458.686401 168.0
1458.914429 124.0
1459.233765 224.0
1460.2146 60.0
1460.617676 180.0
1461.05542 180.0
1461.408936 144.0
1461.912354 212.0
1461.979614 60.0
1462.040405 332.0
1462.421021 116.0
1463.243042 64.0
1463.410522 136.0
1463.593262 160.0
1463.783691 168.0
1464.187256 180.0
1464.522339 116.0
1464.89563 168.0
1465.020508 216.0
1465.245972 184.0
1465.497437 128.0
1465.771729 176.0
1466.274658 240.0
1467.501831 116.0
1467.616211 104.0
1467.768799 240.0
1468.310181 96.0
1468.958496 152.0
1470.118164 144.0
1470.270752 168.0
1470.621826 156.0
1470.705811 168.0
1470.766846 176.0
1471.14856 116.0
1471.27832 80.0
1471.873779 64.0
1472.156372 212.0
1472.362549 172.0
1472.431274 180.0
1472.591675 44.0
1472.767334 132.0
1472.920044 120.0
1473.133911 124.0
1473.302002 128.0
1473.722168 116.0
1473.875 164.0
1474.188232 120.0
1474.379272 124.0
1474.746094 200.0
1475.314331 212.0
1475.976929 88.0
1476.428101 168.0
1476.749268 148.0
1477.315308 116.0
1477.590698 136.0
1477.774292 152.0
1478.394043 108.0
1478.677246 92.0
1479.090576 132.0
1479.725952 116.0
1480.231201 204.0
1480.476318 136.0
1480.95874 176.0
1481.471924 104.0
1481.61084 148.0
1482.008179 176.0
1482.288574 228.0
1483.357056 180.0
1483.472046 144.0
1483.683716 284.0
1484.292358 168.0
1484.461548 176.0
1484.668091 56.0
1485.389038 180.0
1485.458008 180.0
1485.864624 240.0
1486.348022 208.0
1487.368652 172.0
1487.537476 144.0
1487.906006 128.0
1488.105591 144.0
1488.259155 192.0
1488.735229 180.0
1488.965576 104.0
1489.3573 204.0
1489.441772 268.0
1489.495605 120.0
1490.294434 160.0
1490.617188 188.0
1490.678711 160.0
1490.91687 172.0
1491.999512 180.0
1492.026367 136.0
1492.200562 156.0
1492.600342 188.0
1492.823364 148.0
1492.892578 152.0
1493.023315 144.0
1493.407837 196.0
1493.500122 236.0
1493.684692 140.0
1493.813354 236.0
1494.377075 156.0
1495.754517 152.0
1495.908447 128.0
1496.20874 108.0
1496.562866 136.0
1496.732178 148.0
1496.994019 156.0
1497.479248 232.0
1497.671753 120.0
1497.833496 84.0
1497.925903 236.0
1498.072266 124.0
1498.172363 184.0
1498.611572 184.0
1498.996826 112.0
1499.212524 172.0
1499.875366 148.0
1500.85437 76.0
1501.201416 204.0
1501.371094 168.0
1501.712402 244.0
1502.072876 132.0
1502.56665 88.0
1503.392212 76.0
1503.546509 160.0
1503.916992 124.0
1504.174194 176.0
