>compound MLS001140925-01!1-[(2S)-2-amino-3-phenylpropanoyl]-N-[(2S)-1-[(4-methoxyphenyl)methylamino]-3-methyl-1-oxobutan-2-yl]piperidine-4-carboxamide
>formula C28H38N4O4
>ionization [M+H]+
>parentmass 495.2965821480905
#inchi InChI=1S/C28H38N4O4/c1-19(2)25(27(34)30-18-21-9-11-23(36-3)12-10-21)31-26(33)22-13-15-32(16-14-22)28(35)24(29)17-20-7-5-4-6-8-20/h4-12,19,22,24-25H,13-18,29H2,1-3H3,(H,30,34)(H,31,33)/t24-,25-/m0/s1
#inchikey PBVWYDDSHIDNBJ
#Ion_Source LC-ESI
#Instrument qTof
#Compound_Source NIH Natural Product Library
#PI Dorrestein
#Data_Collector VVP/LMS
#Scan -1
#Precursor_MZ 495.297
#ExactMass 494.289
#Charge 1
#CAS_Number N/A
#Pubmed_ID N/A
#Smiles COc1ccc(CNC(=O)[C@@H](NC(=O)C2CCN(CC2)C(=O)[C@@H](N)Cc3ccccc3)C(C)C)cc1
#INCHI_AUX N/A
#Library_Class 1
#SpectrumID CCMSLIB00000079408
#IonMode Positive
#UpdateWorkflowName UPDATE-SINGLE-ANNOTATED-GOLD
#LibraryQualityString Gold
#TaskID b1d8e8f6646f4e71acdff9ca3d919d08
##Scan# 1665
#SpectrumFile p1-H05_GH5_01_17961.mzXML
#LibraryName NIH_Natural_Products_Library.mgf
#MQScore -1
#Organism NIH_Natural_Products_Library
#TIC_Query 0
#RT_Query -1
#MZErrorPPM -1
#SharedPeaks 0
#MassDiff 0
#LibMZ -1
#SpecMZ 495.297
#SpecCharge 0
#internalFilename spec-00000.mgf

>collision 10
94.95562 48.0
94.978897 184.0
95.00605 144.0
95.075905 76.0
95.091431 180.0
95.12001 188.0
95.223457 104.0
95.283676 188.0
95.309258 168.0
95.362785 152.0
95.392502 212.0
95.419136 160.0
95.452774 128.0
95.513062 132.0
95.544189 212.0
95.569298 208.0
95.619011 212.0
95.75811 192.0
95.786774 228.0
95.820648 84.0
95.842079 80.0
95.885292 136.0
95.933678 148.0
95.999969 188.0
96.042877 164.0
96.075371 244.0
96.117012 132.0
96.17791 176.0
96.197037 152.0
96.224365 140.0
96.282944 156.0
96.306381 176.0
96.350098 244.0
96.394295 176.0
96.411339 196.0
96.471252 128.0
96.504539 320.0
96.527222 124.0
96.567757 176.0
96.575195 128.0
96.609367 56.0
96.761589 164.0
96.812927 204.0
96.959167 136.0
97.008865 220.0
97.037514 124.0
97.075523 76.0
97.09906 52.0
97.161827 52.0
97.175568 184.0
97.191551 268.0
97.204422 136.0
97.263878 52.0
97.31884 236.0
97.466042 196.0
97.521187 228.0
97.556564 176.0
97.603752 132.0
97.62355 176.0
97.64003 228.0
97.67379 196.0
97.688324 240.0
97.755219 132.0
97.794579 196.0
97.831978 160.0
97.867416 148.0
97.916504 160.0
97.959984 140.0
97.997879 104.0
98.023033 96.0
98.052589 152.0
98.096626 448.0
98.149185 196.0
98.200462 172.0
98.230049 172.0
98.294243 292.0
98.315994 204.0
98.366203 164.0
98.433334 132.0
98.447159 200.0
98.498978 144.0
98.518265 168.0
98.59137 184.0
98.688232 152.0
98.775734 196.0
98.820747 236.0
98.897926 168.0
98.92366 140.0
98.952278 148.0
98.97316 40.0
99.069862 116.0
99.099922 136.0
99.190918 192.0
99.244614 176.0
99.308075 104.0
99.32196 64.0
99.355682 196.0
99.448944 156.0
99.498573 172.0
99.532326 176.0
99.58197 140.0
99.619095 180.0
99.75087 156.0
99.802032 132.0
99.818466 196.0
99.870224 160.0
100.011444 168.0
100.049271 48.0
100.071167 156.0
100.212578 172.0
100.316216 180.0
100.348114 172.0
100.362068 140.0
100.389984 156.0
100.425888 144.0
100.455803 40.0
100.487724 220.0
100.579521 168.0
100.673363 100.0
100.693336 104.0
100.747261 60.0
100.813202 132.0
100.837181 156.0
100.89315 124.0
101.013138 48.0
101.061157 152.0
101.121788 200.0
101.179237 132.0
101.199257 124.0
101.230011 180.0
101.303406 192.0
101.343475 168.0
101.417076 132.0
101.469742 148.0
101.491798 148.0
101.640228 188.0
101.818893 144.0
101.834961 128.0
101.867752 184.0
101.891205 188.0
101.925362 96.0
101.953499 172.0
102.019829 164.0
102.047409 172.0
102.102264 124.0
102.138466 100.0
102.176689 172.0
102.190773 116.0
102.218941 148.0
102.239182 208.0
102.273285 152.0
102.345757 192.0
102.371933 180.0
102.880035 164.0
102.898209 160.0
102.912338 108.0
102.948685 196.0
102.989082 152.0
103.013321 200.0
103.054337 7456.0
103.104248 92.0
103.152756 108.0
103.191162 184.0
103.217453 64.0
103.245766 40.0
103.2761 124.0
103.304741 152.0
103.384018 152.0
103.406067 220.0
103.425827 160.0
103.50074 84.0
103.520988 136.0
103.599976 28.0
103.629814 200.0
103.729675 156.0
103.780357 136.0
103.843834 212.0
103.860596 120.0
103.869469 68.0
103.874924 184.0
103.924362 56.0
103.958862 132.0
103.989304 56.0
104.00351 132.0
104.059044 1292.0
104.080658 60.0
104.156502 196.0
104.202393 184.0
104.350891 124.0
104.426132 60.0
104.546165 152.0
104.604416 200.0
104.631653 136.0
104.70089 152.0
104.715706 136.0
104.729401 220.0
104.776253 132.0
104.846405 112.0
104.931145 120.0
104.94828 160.0
104.971001 168.0
105.012718 92.0
105.035347 168.0
105.069298 544.0
105.120842 240.0
105.151451 200.0
105.261696 152.0
105.36586 116.0
105.523232 128.0
105.570259 92.0
105.584579 144.0
105.632446 188.0
105.674583 148.0
105.70118 160.0
105.729836 472.0
105.744156 160.0
105.806641 276.0
105.860352 180.0
105.893623 160.0
105.977608 236.0
106.041206 632.0
106.129478 128.0
106.176453 200.0
106.205963 216.0
106.243813 124.0
106.342636 144.0
106.364922 140.0
106.440102 176.0
106.597298 176.0
106.650726 112.0
106.702126 180.0
106.737076 108.0
106.888184 200.0
106.975739 156.0
107.008675 184.0
107.033386 256.0
107.048691 360.0
107.06176 164.0
107.084869 196.0
107.107529 120.0
107.128128 220.0
107.154907 128.0
107.241455 192.0
107.280624 200.0
107.311546 144.0
107.334229 188.0
107.363724 132.0
107.412598 180.0
107.462112 76.0
107.48687 252.0
107.627235 160.0
107.649612 220.0
107.670601 92.0
107.705711 132.0
107.724304 140.0
107.767036 204.0
107.821419 120.0
107.906601 192.0
107.921661 212.0
107.984749 164.0
108.017838 104.0
108.075768 164.0
108.31385 212.0
108.378075 52.0
108.570854 356.0
108.620636 108.0
108.666275 148.0
108.682877 156.0
108.765884 136.0
108.797028 132.0
108.952782 156.0
109.096725 76.0
109.116341 372.0
109.187668 68.0
109.233429 244.0
109.279198 184.0
109.295837 148.0
109.318253 188.0
109.335381 200.0
109.38533 192.0
109.401985 204.0
109.504013 96.0
109.566505 152.0
109.61026 200.0
109.666534 152.0
109.708221 208.0
109.738289 236.0
109.768684 80.0
109.808311 192.0
109.916794 188.0
109.95018 60.0
109.973137 208.0
110.021149 156.0
110.057671 480.0
110.081703 132.0
110.146446 116.0
110.192406 140.0
110.222153 152.0
110.338707 28.0
110.508713 356.0
110.556244 160.0
110.575073 140.0
110.625313 176.0
110.639969 136.0
110.70697 176.0
110.757233 172.0
110.797035 136.0
110.86618 92.0
110.9524 152.0
111.006943 192.0
111.054787 200.0
111.107315 152.0
111.138786 164.0
111.180756 188.0
111.199646 164.0
111.312515 168.0
111.373917 112.0
111.462631 172.0
111.581291 152.0
111.700958 320.0
111.735146 196.0
111.823776 188.0
111.876198 188.0
111.889923 168.0
111.929886 144.0
111.939331 260.0
111.951843 188.0
111.982414 184.0
111.988777 136.0
111.999512 212.0
112.009109 188.0
112.076172 73016.0
112.136284 112.0
112.150696 88.0
112.166451 68.0
112.203033 172.0
112.22187 116.0
112.236351 120.0
112.244148 152.0
112.253174 72.0
112.258423 128.0
112.295395 148.0
112.323235 208.0
112.344124 80.0
112.361214 88.0
112.387177 40.0
112.422478 1116.0
112.438866 124.0
112.447578 112.0
112.473656 56.0
112.487831 60.0
112.503586 112.0
112.540611 80.0
112.578621 52.0
112.60141 136.0
112.620857 52.0
112.641487 220.0
112.662834 208.0
112.685547 116.0
112.723778 224.0
112.749741 52.0
112.769844 176.0
112.810791 76.0
112.847504 64.0
112.885002 132.0
112.942139 56.0
112.977211 180.0
113.001373 184.0
113.043114 88.0
113.078934 6440.0
113.122398 172.0
113.14106 48.0
113.177048 256.0
113.206528 152.0
113.244202 116.0
113.322792 84.0
113.330284 128.0
113.365578 136.0
113.384651 284.0
113.444 48.0
113.488525 60.0
113.505486 84.0
113.541534 92.0
113.602814 72.0
113.639633 180.0
113.686897 108.0
113.709061 108.0
113.711838 104.0
113.720253 136.0
113.757957 100.0
113.779106 196.0
113.800522 132.0
113.837494 96.0
113.868675 140.0
113.91227 192.0
113.966713 124.0
113.983093 96.0
113.997963 156.0
114.040474 220.0
114.081039 648.0
114.096802 72.0
114.210571 184.0
114.285034 168.0
114.306313 72.0
114.349915 188.0
114.376541 56.0
114.401466 152.0
114.47448 188.0
114.508553 156.0
114.549019 44.0
114.593758 84.0
114.623589 104.0
114.704582 164.0
114.770668 140.0
114.792793 192.0
114.812683 216.0
114.874054 152.0
114.92424 124.0
114.94558 136.0
114.989395 204.0
115.014938 80.0
115.084602 152.0
115.148392 148.0
115.269493 192.0
115.346916 228.0
115.398071 180.0
115.421928 132.0
115.501427 116.0
115.575935 220.0
115.693649 60.0
115.732857 192.0
115.785721 76.0
115.860695 128.0
115.879974 160.0
115.963249 144.0
116.048416 156.0
116.111488 188.0
116.182266 116.0
116.29171 116.0
116.336784 120.0
116.366165 152.0
116.410225 176.0
116.641823 204.0
116.727821 168.0
116.861183 104.0
116.889153 52.0
116.95372 196.0
117.020454 136.0
117.052429 216.0
117.072136 140.0
117.119514 72.0
117.146523 172.0
117.220772 128.0
117.248787 172.0
117.298363 212.0
117.449303 164.0
117.501076 124.0
117.557175 64.0
117.660416 140.0
117.719078 64.0
117.779556 180.0
117.984848 100.0
118.065575 464.0
118.166512 180.0
118.188148 192.0
118.229263 128.0
118.244415 200.0
118.337502 228.0
118.356987 184.0
118.379654 176.0
118.426285 148.0
118.53894 200.0
118.567116 36.0
118.699348 196.0
118.727547 152.0
118.75116 180.0
118.794785 100.0
118.814682 140.0
118.84034 60.0
118.894592 196.0
118.909782 56.0
118.992271 96.0
119.070129 384.0
119.170372 220.0
119.242081 232.0
119.298599 96.0
119.403015 208.0
119.549789 180.0
119.598785 128.0
119.618378 120.0
119.633614 140.0
119.688042 148.0
119.77951 120.0
119.799782 224.0
119.814445 152.0
119.84269 244.0
119.856346 240.0
119.871422 232.0
119.909256 176.0
119.926125 168.0
119.942284 148.0
119.990898 164.0
120.017952 216.0
120.043137 324.0
120.080948 67360.0
120.132698 160.0
120.153633 52.0
120.176376 152.0
120.228256 212.0
120.249756 60.0
120.264565 172.0
120.306931 172.0
120.343086 84.0
120.374634 332.0
120.405098 76.0
120.439194 488.0
120.48278 228.0
120.505981 136.0
120.537796 64.0
120.550934 188.0
120.582466 48.0
120.623497 176.0
120.660622 168.0
120.685005 88.0
120.709366 164.0
120.723221 104.0
120.739624 172.0
120.761749 128.0
120.779243 52.0
120.80687 172.0
120.82737 208.0
120.84269 220.0
120.86087 180.0
120.882072 116.0
120.904686 360.0
120.921822 204.0
120.945831 200.0
120.971054 208.0
120.996811 280.0
121.013016 112.0
121.035408 532.0
121.065285 125116.0
121.136047 108.0
121.193886 76.0
121.232613 160.0
121.255615 176.0
121.286316 200.0
121.318665 284.0
121.348831 72.0
121.375854 192.0
121.402893 272.0
121.425652 1720.0
121.456009 60.0
121.472145 124.0
121.498528 240.0
121.55426 80.0
121.570168 76.0
121.598839 124.0
121.631294 212.0
121.678642 108.0
121.757393 128.0
121.783951 64.0
121.81443 112.0
121.841675 148.0
121.872055 92.0
121.916283 112.0
121.960899 180.0
121.980888 128.0
122.001404 156.0
122.036087 216.0
122.067825 17404.0
122.096054 340.0
122.14196 56.0
122.167809 128.0
122.203011 100.0
122.226242 76.0
122.27343 72.0
122.288834 36.0
122.383492 240.0
122.423126 32.0
122.453964 60.0
122.469383 64.0
122.506424 88.0
122.547363 100.0
122.589607 84.0
122.614792 48.0
122.634262 96.0
122.642715 120.0
122.687538 100.0
122.707375 60.0
122.742653 104.0
122.772545 72.0
122.797882 232.0
122.823669 136.0
122.850609 76.0
122.871544 64.0
122.900627 220.0
122.913147 96.0
122.938705 64.0
122.960716 52.0
122.974388 96.0
122.996918 144.0
123.019913 48.0
123.035301 88.0
123.041183 172.0
123.068466 408.0
123.097694 76.0
123.122864 96.0
123.159767 136.0
123.184067 44.0
123.219131 64.0
123.237083 48.0
123.274651 64.0
123.35643 56.0
123.416122 40.0
123.464767 52.0
123.511215 40.0
123.539177 100.0
123.620323 76.0
123.652824 56.0
123.787865 64.0
123.891968 44.0
123.983818 92.0
124.011627 80.0
124.053741 44.0
124.072067 180.0
124.12912 36.0
124.246681 56.0
124.952362 132.0
125.004349 92.0
125.068001 80.0
125.173531 108.0
125.240341 72.0
125.327225 76.0
125.389618 60.0
125.646049 68.0
125.733078 204.0
125.931778 152.0
126.132881 100.0
126.403496 68.0
126.446014 160.0
126.831261 60.0
126.876091 116.0
126.894028 140.0
127.083305 312.0
127.127304 128.0
127.178925 76.0
127.360802 96.0
127.459648 28.0
127.648476 124.0
127.68895 68.0
127.758682 52.0
127.922958 104.0
128.067078 164.0
128.091843 64.0
128.211273 72.0
128.346527 36.0
128.470566 44.0
128.497635 36.0
128.679535 148.0
128.897293 132.0
128.98996 88.0
129.073608 168.0
129.101089 868.0
129.315674 132.0
129.336044 68.0
129.437912 92.0
129.542099 104.0
129.689392 168.0
129.784607 112.0
129.988754 200.0
130.011444 208.0
130.059265 284.0
130.083374 284.0
130.156723 28.0
130.361176 96.0
130.445267 128.0
130.486191 88.0
130.788742 212.0
130.939011 60.0
130.980011 84.0
131.009628 120.0
131.049072 1280.0
131.084808 200.0
131.23526 44.0
131.415451 80.0
131.561508 44.0
131.821884 136.0
131.936172 184.0
132.041351 148.0
132.07933 300.0
132.121414 152.0
132.169464 80.0
132.222092 88.0
132.407547 52.0
132.677933 136.0
132.847626 32.0
133.028915 120.0
133.056473 212.0
133.263168 36.0
133.544983 68.0
133.905838 96.0
134.010941 168.0
134.096207 180.0
134.163055 176.0
134.393692 136.0
134.77005 128.0
134.978088 132.0
135.015091 180.0
135.098358 168.0
135.197845 108.0
135.406204 160.0
135.904617 188.0
136.241257 140.0
136.362091 108.0
136.550415 112.0
136.629501 176.0
136.703964 128.0
136.759811 172.0
136.804047 200.0
136.836639 184.0
137.407654 164.0
138.075714 80.0
138.127167 164.0
138.391632 56.0
138.454849 120.0
138.696182 92.0
138.841537 76.0
138.900177 136.0
139.264008 144.0
139.37912 124.0
139.851822 192.0
139.90831 56.0
139.936569 116.0
140.049606 176.0
140.091995 152.0
140.249878 228.0
140.93663 132.0
141.07843 32.0
141.215591 192.0
141.376465 92.0
141.632156 140.0
141.667694 72.0
141.757736 56.0
141.852539 92.0
141.990051 156.0
142.07782 104.0
142.134766 148.0
142.883194 72.0
143.075974 128.0
143.276016 136.0
143.399933 92.0
143.545364 52.0
143.717102 176.0
143.986847 160.0
144.041519 184.0
144.737747 120.0
144.88385 52.0
144.914993 204.0
145.590149 200.0
146.170792 132.0
146.202072 196.0
146.25502 96.0
147.062485 216.0
147.137314 192.0
147.613312 56.0
147.719727 152.0
147.908478 88.0
148.076782 236.0
149.036179 184.0
149.186874 164.0
149.371689 116.0
149.573654 116.0
149.702698 212.0
149.936569 152.0
150.19014 156.0
150.338959 112.0
151.128235 48.0
151.804306 132.0
152.113449 180.0
152.344284 144.0
152.870453 116.0
153.023056 136.0
153.113129 172.0
153.350693 84.0
153.77739 132.0
153.846497 116.0
153.915634 52.0
154.202194 168.0
154.239273 164.0
154.476654 188.0
154.615219 128.0
154.850418 84.0
155.083313 124.0
155.65889 128.0
156.255417 120.0
157.055069 220.0
157.189789 148.0
157.676773 236.0
157.831757 332.0
157.909286 132.0
158.773331 144.0
158.798416 52.0
159.095688 144.0
159.408463 92.0
159.471298 172.0
159.566818 32.0
159.627167 100.0
160.178345 68.0
160.720383 180.0
160.768341 60.0
160.823288 140.0
160.874344 184.0
161.149628 224.0
161.549072 180.0
161.916092 104.0
161.936356 216.0
162.471222 132.0
162.69455 108.0
163.024734 124.0
163.245911 192.0
163.27388 224.0
163.350189 124.0
163.460724 116.0
164.109787 412.0
165.139359 120.0
165.616882 84.0
165.865433 132.0
166.09108 208.0
166.234756 104.0
166.363098 52.0
166.676437 140.0
166.948914 216.0
167.028641 168.0
167.082672 172.0
167.156097 216.0
167.324585 80.0
167.525467 160.0
167.759979 100.0
167.943054 196.0
168.056564 160.0
168.095688 268.0
168.224319 156.0
168.332764 156.0
168.386993 164.0
168.645355 132.0
168.691895 40.0
168.717743 112.0
168.885818 144.0
169.100571 156.0
169.152344 100.0
169.312881 240.0
169.331009 132.0
169.841614 168.0
169.921326 252.0
170.153015 144.0
170.184174 140.0
170.207535 132.0
170.355576 88.0
170.55307 140.0
170.612854 100.0
170.68045 280.0
170.854721 164.0
171.464035 104.0
171.533356 160.0
171.581329 80.0
172.497635 140.0
172.761765 148.0
172.968491 92.0
173.005142 200.0
173.40329 168.0
173.460953 140.0
173.702194 120.0
173.731064 56.0
174.003998 116.0
174.090652 92.0
174.127151 6812.0
174.214096 172.0
174.324448 60.0
174.40329 180.0
174.446381 148.0
174.497925 60.0
174.642563 76.0
174.671494 68.0
175.128967 688.0
175.197983 96.0
175.266495 80.0
175.461533 72.0
175.635574 168.0
175.844025 180.0
175.986572 56.0
176.143387 644.0
176.176727 132.0
176.27977 124.0
176.300919 112.0
176.507111 208.0
176.533554 160.0
176.61554 140.0
176.890732 48.0
177.073425 152.0
177.396698 64.0
177.457672 108.0
177.688416 176.0
177.964447 148.0
178.036148 136.0
178.331039 44.0
179.041412 132.0
179.782532 100.0
179.81723 44.0
179.921341 180.0
180.089569 76.0
181.095245 132.0
181.132507 1172.0
181.205078 72.0
181.30423 80.0
181.462372 128.0
181.561584 156.0
181.776199 48.0
182.135956 244.0
182.211182 192.0
182.506836 56.0
182.579437 156.0
182.748581 132.0
182.808105 124.0
182.88884 164.0
182.969604 176.0
183.007294 136.0
183.050369 76.0
183.082687 116.0
183.148621 26912.0
183.206589 48.0
183.243118 80.0
183.273956 112.0
183.354797 60.0
183.388535 116.0
183.457214 80.0
183.488571 124.0
183.528915 88.0
183.566971 68.0
183.659454 116.0
183.689011 92.0
183.753876 28.0
183.772766 52.0
183.851013 68.0
183.915787 48.0
183.977081 68.0
184.1064 140.0
184.152161 2008.0
184.191208 96.0
184.293869 120.0
184.337112 80.0
184.41008 148.0
184.428146 132.0
184.84549 144.0
184.872543 96.0
184.896896 132.0
185.005173 116.0
185.064743 132.0
185.150375 248.0
185.175766 64.0
185.213684 120.0
185.240768 56.0
185.403336 136.0
185.460251 56.0
185.51622 124.0
185.563278 100.0
185.675125 128.0
185.734116 48.0
186.097778 156.0
186.132294 336.0
186.50798 80.0
186.701019 124.0
187.095566 156.0
187.60228 52.0
187.749512 56.0
188.333588 96.0
188.377289 124.0
188.396408 40.0
188.459244 140.0
188.691574 152.0
189.365158 124.0
190.233948 44.0
190.662445 220.0
190.733902 44.0
191.306076 76.0
191.476791 124.0
191.724731 168.0
191.755051 64.0
191.862564 84.0
191.925964 160.0
192.130066 128.0
192.76236 200.0
192.958603 68.0
193.633789 152.0
194.110443 188.0
194.268539 96.0
194.709869 192.0
194.748764 48.0
195.14621 368.0
195.299103 240.0
196.1064 140.0
196.151489 132.0
196.745346 108.0
196.887756 108.0
196.963165 248.0
197.15036 120.0
197.253769 64.0
197.337646 36.0
197.872025 172.0
198.185715 88.0
198.437973 76.0
198.785797 52.0
198.81105 124.0
198.850342 88.0
199.347427 220.0
199.378342 112.0
199.909851 48.0
200.211075 96.0
200.377258 56.0
200.785995 100.0
201.186676 72.0
201.743195 132.0
203.12796 108.0
203.312393 56.0
203.352127 188.0
203.871841 112.0
204.363785 164.0
204.409317 196.0
204.503235 136.0
206.406082 108.0
206.683548 220.0
206.800873 172.0
206.966919 148.0
207.092926 100.0
207.723526 136.0
209.12709 1648.0
209.505859 96.0
209.580765 108.0
210.067993 168.0
210.134689 136.0
210.162949 180.0
210.281525 116.0
210.428741 152.0
210.570236 148.0
210.777115 208.0
210.838928 168.0
210.882278 208.0
210.911179 104.0
210.931412 136.0
211.029709 48.0
211.075974 64.0
211.099106 84.0
211.143219 20148.0
211.209 120.0
211.269745 60.0
211.298676 40.0
211.353653 92.0
211.415237 180.0
211.458862 132.0
211.515732 112.0
211.538162 64.0
211.556946 232.0
211.590988 100.0
211.659302 108.0
211.756042 116.0
211.862717 248.0
211.900894 44.0
212.060272 60.0
212.114792 196.0
212.146225 3092.0
212.211014 124.0
212.334854 204.0
212.356003 84.0
212.622925 180.0
212.735535 232.0
212.811615 40.0
212.916153 160.0
213.00618 104.0
213.041046 128.0
213.075912 68.0
213.110779 88.0
213.150543 156.0
213.248108 92.0
213.294907 180.0
213.346191 68.0
213.413055 108.0
213.470032 196.0
213.689362 148.0
213.747559 116.0
213.814499 72.0
213.983322 64.0
214.009521 172.0
214.056122 148.0
214.13121 352.0
214.653488 56.0
214.83432 116.0
215.125336 172.0
215.187454 148.0
215.836105 60.0
215.882889 72.0
216.10228 128.0
216.441803 48.0
216.573593 176.0
216.872467 88.0
217.171524 68.0
217.732727 164.0
219.032135 68.0
219.153687 204.0
219.630508 132.0
220.117477 180.0
220.170624 180.0
220.409912 132.0
221.101883 128.0
221.140579 180.0
221.255814 56.0
221.294296 92.0
222.097397 112.0
222.361465 32.0
222.765289 68.0
223.100418 192.0
223.141724 360.0
224.297791 128.0
224.348465 36.0
225.112289 108.0
225.605286 88.0
225.883392 80.0
226.152252 660.0
226.203583 60.0
226.473068 124.0
226.622864 136.0
226.769699 44.0
227.030533 144.0
227.155746 280.0
227.928085 40.0
228.170761 420.0
228.559265 168.0
228.896683 112.0
229.16803 136.0
229.375717 84.0
229.761719 116.0
229.89447 76.0
229.927673 56.0
230.728134 116.0
230.909576 100.0
231.158447 104.0
231.605713 60.0
232.114868 136.0
232.136093 120.0
232.172485 112.0
233.07103 180.0
233.663925 160.0
233.83432 80.0
234.105286 140.0
234.632416 96.0
235.98494 72.0
236.597504 92.0
236.691742 120.0
237.118423 128.0
237.159348 5800.0
237.218719 144.0
237.491623 84.0
237.549896 156.0
237.666489 136.0
237.841415 124.0
238.162521 1120.0
238.2258 112.0
238.2491 84.0
238.274414 56.0
239.167389 200.0
239.70517 36.0
239.79454 68.0
239.920914 64.0
240.025742 40.0
240.167664 1324.0
240.216965 44.0
240.602722 48.0
241.125793 244.0
241.161972 184.0
241.56691 60.0
241.907303 52.0
242.099274 152.0
242.120956 84.0
242.746948 84.0
243.61911 88.0
243.702988 44.0
244.051102 60.0
244.181717 120.0
244.53952 164.0
244.785461 32.0
245.967072 48.0
246.798096 32.0
247.160934 100.0
248.646332 96.0
249.092682 128.0
250.079514 140.0
250.158524 180.0
250.214874 148.0
250.807114 80.0
250.92691 208.0
252.404587 104.0
252.651291 112.0
253.015228 192.0
254.276825 152.0
254.759476 112.0
255.379318 148.0
255.71022 68.0
255.777054 64.0
256.87323 160.0
257.581879 168.0
258.160248 936.0
258.397064 144.0
259.146301 348.0
259.229584 96.0
260.14624 192.0
260.234222 40.0
260.368439 96.0
260.660797 168.0
261.159088 124.0
262.576233 132.0
262.818176 164.0
262.9021 144.0
264.82251 116.0
265.509613 96.0
267.840027 160.0
269.409088 80.0
271.097412 124.0
271.169525 152.0
271.469299 180.0
273.063934 64.0
273.21524 232.0
273.438995 136.0
273.564087 88.0
274.180023 44.0
274.803253 168.0
275.321503 100.0
275.50647 68.0
276.194061 168.0
276.435577 40.0
276.584503 120.0
276.922241 152.0
277.155029 368.0
277.190582 164.0
278.142426 128.0
278.627258 168.0
279.834564 44.0
280.981049 152.0
281.151245 108.0
283.468719 108.0
285.200775 144.0
285.873138 64.0
286.199646 116.0
286.361298 56.0
286.984711 108.0
287.122986 180.0
288.164154 164.0
288.385681 48.0
288.723785 128.0
288.804962 108.0
288.98764 168.0
289.133148 36.0
289.807007 188.0
292.081604 52.0
292.231293 140.0
293.327881 252.0
295.486206 124.0
295.585785 184.0
296.307892 172.0
297.384644 184.0
297.408661 88.0
297.800079 196.0
298.229584 124.0
298.274261 36.0
298.384277 44.0
299.674927 132.0
300.360962 116.0
301.856415 68.0
302.247314 148.0
302.908569 164.0
303.196136 76.0
304.153412 132.0
304.261047 108.0
304.674316 236.0
304.729889 48.0
305.397339 68.0
305.738312 128.0
306.807648 64.0
306.964539 172.0
307.037781 172.0
308.025543 44.0
308.895966 152.0
308.937927 180.0
309.676514 160.0
310.18808 156.0
310.216125 256.0
312.21048 156.0
312.639679 32.0
312.692474 156.0
313.191132 716.0
313.24881 120.0
314.198944 172.0
314.218536 192.0
315.185699 124.0
315.217499 236.0
315.443695 276.0
315.486115 32.0
316.381165 104.0
316.72467 164.0
317.348389 148.0
317.408661 44.0
320.009613 120.0
320.262451 124.0
320.333679 120.0
321.078613 100.0
322.578247 72.0
323.232758 108.0
323.735779 100.0
324.194824 212.0
325.92926 120.0
326.374969 160.0
327.360931 116.0
328.16449 100.0
328.427734 92.0
328.553986 100.0
329.13147 96.0
329.178406 60.0
329.846802 64.0
329.962494 148.0
330.00589 144.0
330.21637 9984.0
330.291565 40.0
330.414581 92.0
330.501404 48.0
330.533966 68.0
330.562927 52.0
330.673309 72.0
330.74234 76.0
330.850128 92.0
330.990051 132.0
331.218933 2704.0
331.783539 52.0
331.827057 48.0
331.935822 108.0
332.077271 44.0
332.111176 204.0
332.136505 108.0
332.221619 400.0
332.284027 48.0
332.367462 28.0
332.436432 40.0
332.810303 60.0
332.842987 72.0
333.071777 32.0
333.206207 116.0
333.23526 116.0
333.605957 116.0
334.184235 100.0
334.402557 80.0
334.715637 36.0
334.752075 64.0
335.294861 52.0
335.626587 60.0
336.243103 68.0
336.341644 164.0
336.37085 32.0
336.995361 180.0
337.924042 60.0
338.374207 84.0
338.751434 96.0
339.106171 108.0
339.205811 160.0
339.92099 248.0
339.987061 96.0
340.310089 188.0
340.379852 204.0
341.077881 88.0
341.175537 252.0
342.202881 284.0
343.224243 136.0
343.275848 176.0
343.559875 80.0
343.762787 48.0
344.017456 80.0
344.202057 200.0
345.825012 112.0
345.965698 164.0
346.532318 76.0
346.843628 108.0
346.878876 156.0
346.932587 84.0
347.0401 112.0
347.225525 104.0
347.577087 136.0
347.618744 96.0
347.649353 216.0
347.747437 156.0
347.782043 140.0
347.863708 96.0
347.941681 84.0
347.993652 116.0
348.111084 212.0
348.171906 144.0
348.226929 17312.0
348.527557 108.0
348.639984 48.0
348.666016 72.0
348.726776 68.0
348.784943 92.0
348.814697 68.0
348.848145 60.0
348.910034 68.0
348.959656 68.0
349.0224 128.0
349.060059 64.0
349.086334 60.0
349.120514 156.0
349.18161 104.0
349.228729 3740.0
349.283203 60.0
349.391083 100.0
349.480377 72.0
349.625519 72.0
349.699951 60.0
349.927032 64.0
350.049896 60.0
350.229858 760.0
350.295715 52.0
350.388855 56.0
350.526703 68.0
350.733734 88.0
350.925537 68.0
350.966553 48.0
351.194031 104.0
351.4104 60.0
351.473846 40.0
351.526093 152.0
352.373688 52.0
352.657684 80.0
353.379425 92.0
354.056946 168.0
354.49527 40.0
356.183594 136.0
356.626984 48.0
357.215729 132.0
357.311371 56.0
357.379089 196.0
357.778046 144.0
357.864624 116.0
358.150848 164.0
358.210602 5240.0
358.421814 56.0
358.497467 28.0
358.678375 84.0
358.742462 68.0
358.802765 64.0
358.95163 92.0
359.212646 1516.0
359.257782 144.0
359.323242 48.0
359.560944 88.0
359.59491 56.0
360.219635 180.0
361.000305 180.0
361.026794 36.0
361.216492 152.0
361.31427 36.0
361.397491 52.0
361.45047 108.0
361.522369 60.0
361.68512 92.0
361.91983 84.0
362.620667 44.0
362.87085 68.0
364.886871 56.0
371.209991 116.0
371.286682 84.0
374.029999 60.0
375.189545 92.0
376.366302 124.0
388.243103 160.0
390.375488 40.0
390.922302 228.0
393.318573 60.0
394.725037 108.0
394.831818 48.0
394.930695 112.0
397.267792 72.0
400.161041 80.0
404.124359 204.0
411.653198 56.0
412.259155 48.0
413.181061 84.0
413.33075 88.0
415.802765 88.0
418.078644 92.0
423.660278 72.0
425.653625 44.0
430.149506 116.0
435.279236 72.0
437.058289 52.0
437.228912 152.0
438.249146 100.0
438.361633 76.0
439.011963 116.0
439.095367 68.0
443.229828 52.0
446.235107 124.0
447.253143 116.0
450.283112 184.0
450.842346 84.0
452.619049 72.0
464.261261 104.0
465.243866 108.0
472.176971 56.0
475.187561 132.0
477.282654 112.0
477.292816 132.0
477.308014 164.0
477.624664 76.0
477.850861 88.0
478.259949 64.0
479.226715 164.0
479.257202 120.0
483.0336 136.0
483.458008 64.0
484.491364 60.0
490.053467 60.0
491.587952 76.0
493.173462 84.0
493.317871 168.0
494.026886 56.0
494.341034 96.0
495.071472 124.0
495.293549 2384.0
495.399231 156.0
495.514435 140.0
495.784729 36.0
495.93985 72.0
496.06839 40.0
496.126007 64.0
496.296661 1628.0
496.365448 64.0
496.449951 72.0
496.52951 44.0
496.596039 132.0
496.693634 76.0
496.888824 64.0
497.283752 452.0
497.337036 148.0
497.514587 32.0
498.345093 44.0
498.469513 108.0
498.873962 92.0
499.158539 88.0
499.207428 92.0
499.25528 200.0
499.371979 36.0
501.946075 72.0
502.271637 68.0
503.963623 80.0
505.09021 104.0
505.345215 120.0
513.133301 112.0
516.270386 96.0
517.266907 88.0
517.307678 120.0
520.971802 72.0
525.123169 36.0
525.214355 88.0
525.264526 132.0
526.291382 120.0
528.782837 44.0
529.606934 40.0
529.712341 56.0
531.523254 60.0
535.688721 68.0
536.269287 128.0
545.629333 44.0
560.820068 176.0
569.360046 52.0
570.633545 112.0
578.778259 88.0
581.26123 76.0
594.828186 64.0
598.328308 68.0
599.458374 48.0
601.638611 32.0
601.838745 204.0
616.709534 228.0
626.435242 44.0
629.58252 84.0
630.137024 124.0
633.133301 76.0
639.851807 124.0
645.06311 120.0
645.841797 200.0
646.772827 100.0
650.006226 100.0
654.026245 88.0
654.937683 84.0
660.158752 104.0
670.853882 124.0
671.065247 76.0
684.37616 112.0
685.136536 68.0
686.330078 120.0
692.863342 144.0
692.900024 124.0
703.449524 52.0
706.144348 160.0
721.651123 116.0
723.009827 64.0
736.405518 336.0
736.537476 180.0
736.905151 460.0
737.720886 164.0
738.202087 48.0
741.309387 28.0
741.369019 32.0
745.428162 160.0
745.944458 248.0
773.571106 64.0
776.419067 200.0
794.575867 60.0
795.395203 144.0
796.299194 88.0
815.731262 68.0
819.048706 148.0
830.646851 164.0
844.228088 56.0
850.311157 164.0
858.566711 108.0
863.753235 56.0
867.325073 192.0
872.449768 124.0
872.632019 168.0
876.328247 140.0
881.17218 164.0
883.306335 56.0
890.799133 184.0
896.183289 80.0
898.890381 156.0
904.424561 204.0
909.969727 192.0
913.629822 132.0
920.657898 184.0
921.521729 128.0
922.700256 208.0
927.288635 48.0
929.034973 120.0
931.85199 144.0
935.080994 212.0
942.172668 60.0
943.963501 204.0
946.551941 68.0
949.180725 136.0
951.641235 164.0
952.986328 76.0
955.500977 120.0
955.962463 76.0
956.313232 176.0
957.279785 236.0
958.376282 140.0
958.832275 72.0
960.416809 180.0
960.959656 112.0
961.169495 192.0
963.064758 164.0
964.455017 52.0
965.085571 204.0
965.41333 112.0
966.625793 136.0
966.817627 84.0
968.421143 172.0
968.792786 160.0
969.932983 56.0
971.706604 184.0
973.469421 116.0
974.705566 208.0
974.979004 152.0
975.774658 56.0
977.802551 140.0
978.01416 200.0
978.848389 92.0
981.562805 232.0
984.088318 192.0
984.285889 128.0
984.335815 192.0
984.529419 116.0
985.410156 184.0
985.947571 160.0
987.260437 52.0
987.54187 156.0
987.82959 56.0
987.9422 52.0
988.66803 72.0
990.715515 208.0
991.316956 196.0
991.874817 88.0
994.509216 264.0
994.747742 84.0
997.103149 72.0
997.492859 160.0
998.863708 148.0
1000.575439 176.0
1000.63208 164.0
1000.98468 140.0
1001.186218 136.0
1001.727844 184.0
1001.967285 92.0
1003.202454 28.0
1004.167236 132.0
1004.463684 244.0
1005.902405 128.0
1008.959961 164.0
1009.472107 160.0
1011.541016 76.0
1011.597961 140.0
1011.914551 168.0
1013.130493 136.0
1013.928894 200.0
1014.119019 216.0
1014.600769 204.0
1015.272888 140.0
1015.513916 172.0
1021.408386 184.0
1021.694641 176.0
1022.534546 192.0
1022.820984 176.0
1023.744141 128.0
1024.769653 180.0
1025.447876 192.0
1026.554443 108.0
1026.758545 92.0
1027.90686 180.0
1028.047241 72.0
1029.968994 160.0
1030.013672 108.0
1033.459595 128.0
1034.98938 172.0
1035.577515 212.0
1036.808594 140.0
1036.936768 160.0
1037.667603 168.0
1038.090698 180.0
1038.943848 184.0
1039.072144 212.0
1039.514893 160.0
1039.630371 52.0
1039.707397 148.0
1040.338379 208.0
1041.19043 136.0
1041.427979 144.0
1041.504395 196.0
1041.697754 128.0
1042.616577 180.0
1043.227295 224.0
1044.178833 220.0
1045.491333 164.0
1047.120117 180.0
1047.474365 120.0
1047.854492 164.0
1047.912476 184.0
1048.099365 152.0
1049.293579 164.0
1050.491211 124.0
1051.943237 188.0
1054.177856 200.0
1054.442871 172.0
1054.578613 104.0
1055.600098 96.0
1055.697021 132.0
1056.046265 148.0
1056.62207 240.0
1057.689819 176.0
1057.806274 180.0
1058.201172 184.0
1058.758057 172.0
1059.723267 164.0
1062.796631 176.0
1062.887451 64.0
1063.296265 132.0
1063.504028 172.0
1065.094849 68.0
1065.250732 172.0
1065.575562 172.0
1065.750977 192.0
1065.848389 144.0
1066.654297 112.0
1066.933838 144.0
1068.345093 112.0
1068.767944 176.0
1068.976196 76.0
1071.515625 168.0
1071.789185 232.0
1074.42981 164.0
1075.225952 148.0
1075.297729 212.0
1075.545654 108.0
1075.983032 112.0
1076.564209 120.0
1076.929932 120.0
1077.10022 184.0
1078.681152 136.0
1079.858032 124.0
1080.53186 132.0
1081.015991 220.0
1081.199341 96.0
1081.416016 176.0
1081.690186 180.0
1081.997803 192.0
1082.181152 164.0
1082.665771 148.0
1083.320679 112.0
1083.530396 176.0
1083.641724 168.0
1085.005005 100.0
1085.55249 164.0
1085.713135 120.0
1086.106689 188.0
1086.78894 112.0
1088.009644 120.0
1089.480713 164.0
1090.05896 104.0
1091.90625 120.0
1092.886475 204.0
1093.215454 188.0
1094.025024 68.0
1094.097412 64.0
1096.963135 144.0
1097.417969 200.0
1100.07019 144.0
1100.872559 204.0
1101.331299 128.0
1102.844482 136.0
1104.160156 44.0
1104.629761 88.0
1105.092896 156.0
1105.714966 224.0
1106.006104 164.0
1107.456177 180.0
1107.628418 176.0
1107.959595 148.0
1108.449951 168.0
1108.562622 136.0
1108.622192 100.0
1108.688477 172.0
1110.100586 224.0
1110.491821 80.0
1111.214844 116.0
1111.261353 136.0
1111.652832 196.0
1112.210327 176.0
1112.469238 188.0
1113.099976 172.0
1113.385498 160.0
1113.816406 164.0
1114.0896 144.0
1114.474976 208.0
1116.229736 188.0
1116.296265 124.0
1116.71521 148.0
1116.761841 96.0
1117.087769 144.0
1117.540161 180.0
1117.58667 168.0
1118.391968 176.0
1118.784668 172.0
1119.543701 116.0
1119.883423 192.0
1120.296387 216.0
1120.736084 148.0
1121.47583 120.0
1121.589111 220.0
1122.249146 136.0
1123.556396 164.0
1124.790771 168.0
1124.931152 144.0
1126.981445 116.0
1127.602905 208.0
1128.512085 204.0
1128.839722 100.0
1130.083862 128.0
1131.014038 160.0
1131.475952 136.0
1131.909424 176.0
1132.728271 120.0
1132.862183 96.0
1133.130127 124.0
1133.177124 208.0
1133.445068 148.0
1133.887329 84.0
1134.99353 164.0
1135.355591 120.0
1136.918701 164.0
1137.77124 84.0
1139.138062 156.0
1139.235229 112.0
1139.584595 188.0
1139.994507 176.0
1140.592651 216.0
1140.955688 184.0
1141.204346 216.0
1141.567505 160.0
1142.02478 144.0
1142.805176 200.0
1144.157959 228.0
1144.333008 196.0
1144.595581 92.0
1144.891968 168.0
1145.201782 184.0
1145.34314 132.0
1145.942749 108.0
1147.162598 176.0
1147.870483 156.0
1148.554932 184.0
1148.659546 140.0
1148.781006 100.0
1148.915894 124.0
1148.996948 132.0
1149.536743 148.0
1149.921387 144.0
1150.083374 196.0
1150.265625 152.0
1150.400635 144.0
1150.501831 144.0
1150.805664 100.0
1151.271606 172.0
1151.616089 84.0
1151.940308 168.0
1152.115967 200.0
1152.217285 124.0
1152.460449 148.0
1152.609131 76.0
1152.994385 176.0
1153.075439 172.0
1153.582397 212.0
1155.624756 140.0
1155.685669 156.0
1156.172974 128.0
1156.856567 100.0
1157.614868 120.0
1158.183716 132.0
1158.400513 180.0
1158.495361 168.0
1158.820557 176.0
1159.145752 108.0
1159.382935 168.0
1159.782837 140.0
1160.196411 160.0
1160.453979 152.0
1160.976074 164.0
1161.11853 180.0
1161.274536 180.0
1162.170044 64.0
1162.421021 160.0
1162.509277 100.0
1163.670044 188.0
1163.873657 196.0
1164.13855 168.0
1165.252441 160.0
1166.15625 192.0
1166.788452 188.0
1167.292603 168.0
1168.032959 188.0
1168.087402 180.0
1168.373047 132.0
1168.876587 84.0
1169.083618 208.0
1169.162354 136.0
1169.652466 148.0
1169.870239 108.0
1170.455811 152.0
1170.918823 156.0
1171.157227 60.0
1171.361572 136.0
1171.688599 164.0
1172.070068 96.0
1172.165527 80.0
1173.992432 132.0
1174.1698 208.0
1175.268066 148.0
1175.684326 132.0
1176.667236 180.0
1176.953979 180.0
1177.206665 164.0
1178.490845 144.0
1178.900757 164.0
1179.037476 104.0
1179.153076 148.0
1179.324585 212.0
1179.864624 200.0
1180.27478 112.0
1181.4375 140.0
1183.326416 148.0
1184.317993 172.0
1184.874268 168.0
1185.37439 192.0
1185.57312 180.0
1186.025513 200.0
1186.759033 68.0
1187.143066 108.0
1187.465332 116.0
1187.602539 132.0
1187.739746 72.0
1187.822021 164.0
1188.543945 196.0
1188.967896 144.0
1189.214966 152.0
1189.615112 136.0
1190.526245 68.0
1190.622437 108.0
1190.704834 108.0
1190.807861 164.0
1191.426025 136.0
1191.474121 128.0
1191.577393 156.0
1191.762695 72.0
1192.168091 136.0
1193.494873 140.0
1193.542969 28.0
1193.708008 224.0
1193.905518 216.0
1194.065552 228.0
1194.120605 156.0
1194.230713 160.0
1194.520874 176.0
1194.753418 164.0
1194.808472 124.0
1194.870361 124.0
1195.682373 116.0
1196.060913 168.0
1196.198608 228.0
1196.866455 116.0
1196.942139 148.0
1197.15564 76.0
1198.726318 116.0
1199.153564 176.0
1200.077271 144.0
1200.532349 144.0
1201.518799 156.0
1201.925781 128.0
1202.553833 192.0
1202.733276 112.0
1203.313232 68.0
1203.430542 72.0
1203.513428 160.0
1204.238525 224.0
1204.673706 148.0
1204.825684 108.0
1205.758545 120.0
1206.076416 144.0
1206.387451 140.0
1206.930054 156.0
1207.11792 148.0
1207.964233 220.0
1208.607544 204.0
1209.098877 148.0
1209.888062 136.0
1210.541138 264.0
1210.601196 128.0
1211.605469 140.0
1211.654053 108.0
1211.702515 200.0
1212.04895 152.0
1212.166748 164.0
1212.681763 112.0
1213.906738 68.0
1214.295044 68.0
1214.621094 200.0
1215.550781 56.0
1215.620117 172.0
1216.256836 136.0
1216.522461 188.0
1216.827881 212.0
1216.890015 144.0
1217.126465 192.0
1218.300171 144.0
1218.585083 184.0
1218.640625 116.0
1218.744873 160.0
1218.974121 132.0
1219.328613 192.0
1219.432861 184.0
1220.16272 176.0
1220.369873 152.0
1220.42688 152.0
1220.586792 132.0
1221.233643 160.0
1221.511841 136.0
1222.513794 164.0
1222.63208 168.0
1223.181885 228.0
1223.467285 160.0
1223.940796 116.0
1224.093994 132.0
1224.212402 156.0
1224.720581 168.0
1224.957642 140.0
1225.062134 184.0
1225.995728 140.0
1226.344238 184.0
1226.420898 116.0
1226.867065 188.0
1227.076172 168.0
1227.257446 164.0
1227.327148 204.0
1227.402832 168.0
1227.836182 132.0
1228.080322 152.0
1228.547729 176.0
1228.680298 188.0
1228.79187 192.0
1228.854736 164.0
1229.112793 112.0
1229.357056 188.0
1229.419922 164.0
1229.531494 140.0
1229.789795 116.0
1229.953613 216.0
1230.15271 44.0
1230.278442 188.0
1230.564697 228.0
1231.563232 248.0
1232.164062 152.0
1232.226929 148.0
1232.282837 128.0
1232.408569 156.0
1232.54834 144.0
1233.009521 52.0
1233.11438 88.0
1234.037109 92.0
1234.28186 100.0
1234.330811 212.0
1234.967163 188.0
1235.030151 100.0
1235.890625 156.0
1236.157837 208.0
1236.303467 60.0
1236.38269 208.0
1237.031372 184.0
1237.115356 184.0
1238.186768 180.0
1238.522949 140.0
1239.328491 148.0
1239.559814 256.0
1241.151001 168.0
1241.298218 136.0
1241.361328 164.0
1241.45166 156.0
1241.662842 84.0
1241.810181 88.0
1242.434448 160.0
1243.002808 148.0
1243.332642 140.0
1243.423828 136.0
1243.564209 176.0
1243.746704 236.0
1243.964355 40.0
1244.30835 224.0
1244.427734 128.0
1245.544312 148.0
1245.818237 160.0
1246.724609 156.0
1247.223633 156.0
1247.392334 112.0
1247.61731 224.0
1247.687622 92.0
1247.849365 240.0
1248.053223 44.0
1248.109497 212.0
1248.46106 156.0
1249.529419 180.0
1249.628784 140.0
1249.720215 128.0
1250.065063 56.0
1250.353516 48.0
1250.758301 156.0
1250.930664 140.0
1251.803711 60.0
1252.430542 176.0
1252.585571 100.0
1252.754639 136.0
1253.036377 172.0
1253.184326 68.0
1253.353516 184.0
1253.741089 148.0
1253.931274 72.0
1254.833618 160.0
1254.98877 172.0
1255.256714 196.0
1255.771484 88.0
1255.905518 228.0
1256.192139 132.0
1256.963745 168.0
1257.034302 156.0
1257.821533 168.0
1258.32605 188.0
1259.168579 160.0
1259.590088 116.0
1259.915039 140.0
1260.211792 164.0
1260.572144 192.0
1260.657227 184.0
1260.80249 160.0
1261.335449 168.0
1261.391968 76.0
1261.929321 152.0
1262.070679 176.0
1262.685913 136.0
1262.884033 36.0
1263.103271 204.0
1263.30127 272.0
1263.584351 132.0
1263.89563 164.0
1264.405151 32.0
1264.539551 148.0
1265.353638 176.0
1265.488159 152.0
1266.104248 132.0
1266.81958 180.0
1267.060547 176.0
1267.280151 172.0
1267.65564 172.0
1267.740723 140.0
1268.527466 152.0
1268.733032 120.0
1269.527222 124.0
1269.777588 140.0
1269.931396 148.0
1270.016602 192.0
1270.165527 96.0
1270.24353 228.0
1271.074951 164.0
1271.165894 124.0
1271.854248 152.0
1272.024658 204.0
1272.706177 116.0
1273.210327 152.0
1274.652466 216.0
1275.162476 152.0
1275.583496 152.0
1275.910522 152.0
1276.507812 164.0
1277.290161 156.0
1277.531982 168.0
1278.001587 104.0
1278.841309 244.0
1278.914795 208.0
1279.197144 168.0
1279.25415 124.0
1279.802368 180.0
1279.86853 192.0
1280.080078 132.0
1280.222412 140.0
1280.763794 136.0
1280.984497 176.0
1281.640015 160.0
1281.839478 124.0
1281.989136 220.0
1282.587891 140.0
1283.036987 148.0
1283.140747 100.0
1283.521729 192.0
1283.60022 172.0
1284.020996 72.0
1284.106567 168.0
1284.263428 168.0
1284.655762 64.0
1285.155151 264.0
1285.454834 204.0
1286.161499 116.0
1286.582642 148.0
1286.889648 128.0
1287.182373 128.0
1287.339478 156.0
1287.60376 96.0
1288.425171 160.0
1288.567993 160.0
1288.656006 176.0
1288.84668 232.0
1289.189697 188.0
1289.496948 124.0
1290.147461 144.0
1290.526367 184.0
1290.626465 124.0
1290.80542 168.0
1290.967163 216.0
1292.50061 144.0
1292.621826 156.0
1293.158936 212.0
1293.330688 188.0
1293.459595 108.0
1293.566895 96.0
1293.946411 252.0
1294.09668 28.0
1294.150513 176.0
1294.612305 216.0
1294.748413 124.0
1295.314209 164.0
1295.679565 216.0
1296.353027 68.0
1296.804565 152.0
1297.514282 176.0
1298.159546 124.0
1298.625732 176.0
1299.005859 164.0
1299.378906 168.0
1299.787964 164.0
1300.893188 164.0
1301.043945 112.0
1301.467529 56.0
1301.639893 56.0
1301.761963 84.0
1301.876831 212.0
1301.984619 100.0
1302.862915 160.0
1303.05481 292.0
1303.1698 176.0
1303.414062 96.0
1303.47876 116.0
1303.579346 128.0
1303.766235 164.0
1304.039307 96.0
1304.19751 116.0
1304.355591 176.0
1304.434692 148.0
1304.772583 180.0
1304.952271 144.0
1305.074585 188.0
1305.577881 48.0
1305.664185 164.0
1305.72168 52.0
1306.052612 320.0
1306.099854 212.0
1306.33313 76.0
1306.599243 100.0
1306.822388 124.0
1307.074219 160.0
1307.477173 188.0
1308.153687 160.0
1308.237671 168.0
1308.420166 124.0
1308.693726 236.0
1308.794556 212.0
1309.068115 36.0
1309.457031 144.0
1309.925171 136.0
1310.105347 44.0
1310.508789 68.0
1310.847412 96.0
1310.977173 164.0
1311.207764 208.0
1311.374634 156.0
1311.523071 228.0
1311.863647 128.0
1312.296265 68.0
1312.462036 152.0
1312.72168 40.0
1313.00293 252.0
1313.145996 196.0
1313.882935 96.0
1313.955078 192.0
1314.286987 184.0
1314.388062 200.0
1314.647827 216.0
1315.391235 156.0
1315.773804 184.0
1316.098755 160.0
1316.517822 108.0
1316.647461 172.0
1316.849731 176.0
1316.994141 88.0
1317.102539 132.0
1317.21814 132.0
1317.398682 176.0
1317.564819 124.0
1318.171753 200.0
1318.815063 184.0
1318.865601 144.0
1319.03186 172.0
1319.776489 160.0
1320.188721 184.0
1320.651489 120.0
1320.709351 176.0
1321.331543 132.0
1321.57373 156.0
1321.758423 164.0
1321.939331 232.0
1323.119141 140.0
1323.58252 72.0
1323.691162 168.0
1324.248779 148.0
1324.306763 36.0
1324.408081 172.0
1324.538452 180.0
1324.741333 160.0
1325.620972 168.0
1325.820923 156.0
1326.18335 152.0
1326.719727 160.0
1327.104004 116.0
1327.401245 100.0
1327.876831 140.0
1327.928833 312.0
1328.025024 144.0
1328.148315 156.0
1328.296021 208.0
1328.35144 168.0
1328.532715 164.0
1329.287354 212.0
1330.092896 180.0
1330.201782 192.0
1330.550293 228.0
1330.637329 40.0
1331.014893 176.0
1331.065796 160.0
1331.189209 200.0
1331.392578 144.0
1331.625 160.0
1331.864624 240.0
1331.937256 120.0
1332.140625 124.0
1332.3396 128.0
1332.453125 164.0
1332.809082 264.0
1332.925293 184.0
1333.157837 184.0
1333.514038 160.0
1333.790161 156.0
1334.342651 164.0
1334.873535 36.0
1335.331665 176.0
1335.528076 204.0
1335.709839 120.0
1336.059082 180.0
1336.619263 368.0
1336.692017 180.0
1336.996582 136.0
1337.252441 96.0
1337.485352 104.0
1337.543579 156.0
1337.616333 184.0
1337.747437 120.0
1337.994873 236.0
1338.380859 148.0
1338.606567 68.0
1338.854126 176.0
1339.071655 144.0
1339.167358 240.0
1339.320312 188.0
1339.422241 196.0
1339.560669 160.0
1339.953979 136.0
1340.427612 132.0
1340.937744 156.0
1341.520874 152.0
1341.9729 144.0
1342.155151 52.0
1342.235474 160.0
1343.599365 168.0
1343.891113 216.0
1344.816528 228.0
1344.893311 216.0
1345.000488 176.0
1345.102661 196.0
1345.927612 172.0
1347.234985 144.0
1347.405151 232.0
1347.556396 160.0
1347.69519 172.0
1347.980225 88.0
1348.126343 164.0
1348.352905 180.0
1348.63269 160.0
1348.798828 164.0
1349.091187 136.0
1349.171631 204.0
1349.325073 128.0
1349.544434 148.0
1349.697998 104.0
1349.749146 140.0
1349.895508 172.0
1350.049072 112.0
1350.582886 184.0
1350.831665 164.0
1351.175659 168.0
1351.694946 180.0
1352.068115 112.0
1352.148682 112.0
1352.2146 72.0
1352.565918 196.0
1352.928345 172.0
1353.136841 172.0
1353.861816 212.0
1353.92041 116.0
1354.44043 144.0
1354.616211 192.0
1354.799316 60.0
1354.960571 124.0
1355.290283 152.0
1355.524658 188.0
1355.707886 288.0
1356.35083 236.0
1356.51416 172.0
1356.947998 180.0
1357.87793 168.0
1358.017334 180.0
1358.134644 124.0
1358.270752 132.0
1358.450073 152.0
1358.61145 128.0
1358.787598 360.0
1360.240601 128.0
1360.35144 192.0
1360.526855 196.0
1360.79126 152.0
1361.158325 108.0
1361.481445 148.0
1362.513184 140.0
1362.674561 124.0
1362.811035 164.0
1362.97998 204.0
1363.207764 108.0
1363.91333 216.0
1364.218384 156.0
1364.624023 188.0
1365.405884 128.0
1365.83252 56.0
1365.95752 140.0
1366.031128 232.0
1366.134155 48.0
1366.192993 120.0
1366.700684 112.0
1366.847778 252.0
1367.186279 112.0
1367.240356 160.0
1368.165283 136.0
1368.592285 100.0
1368.67334 112.0
1369.115112 132.0
1369.387573 156.0
1369.475952 240.0
1369.88855 56.0
1370.249512 176.0
1370.522095 148.0
1370.964233 176.0
1371.458008 132.0
1372.173096 236.0
1374.162354 180.0
1374.680908 308.0
1375.020386 196.0
1375.204956 212.0
1375.492798 232.0
1376.07605 128.0
1376.578125 172.0
1376.674072 216.0
1377.397949 184.0
1377.52356 156.0
1377.811646 84.0
1378.942139 172.0
1379.030884 92.0
1379.089966 112.0
1379.38562 200.0
1379.496582 200.0
1380.265503 148.0
1380.59082 236.0
1380.650024 160.0
1382.35144 52.0
1382.743774 144.0
1382.995361 184.0
1383.454346 140.0
1383.683838 192.0
1383.950317 176.0
1384.735352 200.0
1384.816772 128.0
1384.898315 136.0
1385.135254 220.0
1385.283447 216.0
1385.557495 180.0
1386.505981 152.0
1387.047119 236.0
1387.395508 216.0
1387.658203 176.0
1388.114746 128.0
1388.515137 148.0
1388.589355 148.0
1388.708008 180.0
1388.923096 180.0
1389.546265 136.0
1390.03894 180.0
1390.087891 208.0
1390.184326 188.0
1390.466309 36.0
1391.245728 168.0
1391.602173 240.0
1391.728394 144.0
1391.847168 128.0
1392.155762 156.0
1392.277832 192.0
1392.634399 180.0
1392.994263 204.0
1393.459595 136.0
1394.610718 208.0
1394.72229 136.0
1395.473145 120.0
1395.696167 164.0
1395.901611 184.0
1396.543945 200.0
1396.677856 220.0
1396.810669 228.0
1397.325073 132.0
1397.40686 144.0
1397.510986 132.0
1397.65979 160.0
1397.972412 232.0
1398.32959 64.0
1398.529907 192.0
1399.04187 92.0
1399.170776 256.0
1399.218506 216.0
1399.423828 168.0
1400.265381 200.0
1400.354736 172.0
1400.436646 176.0
1400.526001 192.0
1400.680176 132.0
1400.816528 172.0
1400.868652 132.0
1401.203979 208.0
1401.360352 148.0
1401.597656 160.0
1401.747925 116.0
1402.016113 136.0
1402.988281 216.0
1403.096924 188.0
1403.201294 220.0
1403.338013 208.0
1403.671021 156.0
1404.103638 128.0
1404.15918 148.0
1404.319946 152.0
1404.411011 140.0
1404.56543 148.0
1405.006226 164.0
1405.110596 156.0
1405.903198 176.0
1405.991089 152.0
1406.058228 136.0
1406.185181 108.0
1406.663696 180.0
1406.722534 176.0
1407.133179 128.0
1407.245117 32.0
1407.334717 200.0
1407.633423 172.0
1408.103882 148.0
1408.230957 204.0
1408.31311 148.0
1408.783691 180.0
1409.463501 192.0
1409.650391 192.0
1409.867065 204.0
1409.954834 128.0
1410.195923 136.0
1410.794556 192.0
1410.995728 100.0
1411.406982 160.0
1411.623901 224.0
1411.765991 192.0
1412.685913 120.0
1413.299438 304.0
1413.359253 152.0
1413.411621 212.0
1413.547729 220.0
1413.823242 296.0
1413.980347 160.0
1414.14502 188.0
1414.447021 232.0
1414.504272 44.0
1414.646606 112.0
1414.78125 152.0
1414.938477 164.0
1414.990967 120.0
1415.185547 204.0
1415.425171 96.0
1415.709717 200.0
1415.92688 124.0
1417.103027 108.0
1417.297852 184.0
1417.709961 220.0
1418.384521 144.0
1418.481934 340.0
1418.916748 144.0
1418.976685 124.0
1419.052002 124.0
1420.146606 176.0
1420.281616 104.0
1420.34021 128.0
1421.159302 204.0
1421.234375 140.0
1421.609497 124.0
1421.699585 156.0
1421.827148 132.0
1421.902222 180.0
1422.029785 192.0
1422.88562 152.0
1423.185913 172.0
1423.33606 156.0
1423.734009 80.0
1424.500244 176.0
1424.552734 128.0
1425.00354 176.0
1425.078613 180.0
1425.182373 60.0
1425.46936 128.0
1425.73999 212.0
1426.461426 160.0
1427.010254 168.0
1427.281006 144.0
1427.341187 176.0
1428.296265 100.0
1428.529419 44.0
1428.604614 44.0
1428.898071 132.0
1429.259277 212.0
1429.590332 96.0
1430.501099 188.0
1430.907593 140.0
1431.012939 116.0
1431.171143 144.0
1431.668091 40.0
1432.037109 156.0
1432.150146 216.0
1432.496582 76.0
1432.579468 132.0
1432.706055 144.0
1432.763916 228.0
1432.918457 88.0
1432.993774 288.0
1433.42334 144.0
1433.993896 168.0
1434.109131 156.0
1434.199585 132.0
1434.817749 172.0
1435.006226 48.0
1435.194702 168.0
1435.423218 184.0
1435.464844 240.0
1435.59436 184.0
1436.046875 220.0
1436.114746 252.0
1436.439087 148.0
1436.687988 76.0
1436.831421 296.0
1437.110474 220.0
1437.533081 216.0
1437.798218 160.0
1438.129272 100.0
1438.491577 144.0
1438.55957 172.0
1438.733154 36.0
1438.989868 164.0
1439.06543 96.0
1439.163574 172.0
1439.850708 104.0
1440.326538 124.0
1440.92334 324.0
1441.474976 188.0
1441.527832 120.0
1441.580688 148.0
1441.716797 100.0
1441.883057 152.0
1441.95105 176.0
1442.192871 108.0
1442.555664 180.0
1442.669067 120.0
1442.87793 180.0
1443.485718 176.0
1443.78064 196.0
1443.848633 164.0
1444.136108 216.0
1444.234375 84.0
1444.514282 268.0
1444.665527 164.0
1444.937866 220.0
1445.157349 156.0
1445.316284 76.0
1445.442383 136.0
1445.709717 204.0
1445.7854 156.0
1446.491455 244.0
1446.689575 280.0
1447.080811 184.0
1447.428101 164.0
1447.921631 216.0
1448.442993 140.0
1449.117188 56.0
1449.314209 116.0
1449.541504 168.0
1449.814331 64.0
1450.026489 192.0
1450.534302 140.0
1450.800659 240.0
1451.140869 140.0
1451.307617 176.0
1451.56543 88.0
1451.641357 168.0
1451.81189 96.0
1451.967407 192.0
1452.232788 132.0
1452.316284 196.0
1452.543823 180.0
1452.604492 172.0
1453.177734 224.0
1453.221069 168.0
1453.294922 224.0
1453.932373 140.0
1454.106934 116.0
1454.228271 148.0
1454.327026 216.0
1454.691284 104.0
1454.865967 108.0
1454.949463 176.0
1455.207642 120.0
1455.526489 208.0
1455.701172 180.0
1455.89856 116.0
1456.420166 148.0
1456.521362 152.0
1456.787231 124.0
1457.349487 160.0
1457.554565 132.0
1457.736938 176.0
1457.949829 224.0
1458.048584 172.0
1458.147339 188.0
1458.466553 164.0
1459.226807 112.0
1459.363647 128.0
1459.462524 160.0
1460.059448 160.0
1460.116455 148.0
1460.321777 204.0
1460.443481 224.0
1460.771118 128.0
1460.861938 148.0
1461.074951 128.0
1461.493408 144.0
1461.668335 224.0
1461.729248 196.0
1462.064087 176.0
1462.185913 164.0
1462.505493 64.0
1462.96228 36.0
1463.114502 116.0
1463.64624 224.0
1463.860718 128.0
1463.967285 180.0
1464.066284 140.0
1464.157715 112.0
1464.508057 216.0
1464.713745 112.0
1464.812744 108.0
1464.888916 200.0
1465.117432 160.0
1465.307861 156.0
1465.391724 184.0
1465.666016 160.0
1465.760986 204.0
1466.374756 172.0
1466.473755 132.0
1466.610962 152.0
1466.679565 176.0
1467.175049 160.0
1467.640137 152.0
1468.029053 96.0
1468.431641 196.0
1468.578247 164.0
1468.76123 160.0
1468.951904 216.0
1469.11145 160.0
1469.235352 160.0
1469.699585 152.0
1469.791138 208.0
1470.256714 184.0
1470.958862 124.0
1471.042847 204.0
1471.470337 136.0
1471.745239 216.0
1471.974365 168.0
1472.043091 112.0
1472.160889 120.0
1472.303345 136.0
1472.508911 156.0
1472.843994 120.0
1473.02063 184.0
1473.142822 208.0
1473.418823 172.0
1473.509521 112.0
1473.997803 184.0
1474.28418 296.0
1474.533569 140.0
1474.709351 80.0
1474.885132 112.0
1475.060913 176.0
1475.190918 160.0
1475.412598 116.0
1475.580811 204.0
1475.871338 168.0
1476.108398 108.0
1476.376465 180.0
1476.498413 124.0
1476.635986 40.0
1476.817505 172.0
1477.179077 196.0
1477.615112 176.0
1477.706909 220.0
1477.854004 168.0
1478.173706 112.0
1478.288452 124.0
1478.342041 164.0
1478.464478 140.0
1479.115112 192.0
1479.215454 140.0
1479.306396 108.0
1479.467163 196.0
1480.454956 280.0
1480.615723 196.0
1480.814941 176.0
1481.006348 56.0
1481.182739 192.0
1481.274414 168.0
1481.519653 168.0
1481.914673 168.0
1482.132568 128.0
1482.232178 128.0
1482.707275 152.0
1482.822266 160.0
1483.135742 124.0
1483.266846 164.0
1483.504395 112.0
1483.653931 128.0
1483.918457 152.0
1484.117798 160.0
1484.746582 192.0
1485.068726 192.0
1485.314209 124.0
1485.48291 140.0
1485.805054 352.0
1486.1427 144.0
1486.288452 168.0
1486.500488 264.0
1486.733521 172.0
1486.810303 152.0
1486.864014 176.0
1486.956177 208.0
1487.017578 136.0
1487.086548 148.0
1487.178711 120.0
1487.232422 160.0
1487.531738 192.0
1488.161377 140.0
1488.376343 132.0
1488.437744 72.0
1488.703613 160.0
1488.783325 148.0
1488.890869 212.0
1489.052124 80.0
1489.27478 164.0
1489.400024 148.0
1490.06604 164.0
1490.296631 120.0
1490.53479 64.0
1490.611572 132.0
1491.147095 148.0
1491.287964 272.0
1491.564575 168.0
1491.833618 208.0
1492.756348 168.0
1492.825562 76.0
1493.067871 200.0
1493.417725 128.0
1493.579224 108.0
1493.779175 120.0
1493.871582 160.0
1494.233154 52.0
1494.286987 100.0
1494.494751 184.0
1494.66394 60.0
1494.810181 168.0
1494.871704 108.0
1495.487427 120.0
1495.849243 220.0
1495.964722 184.0
1496.0802 128.0
1496.280273 176.0
1496.488159 132.0
1496.588257 296.0
1496.827026 144.0
1496.911743 148.0
1496.965576 188.0
1497.027222 196.0
1497.242798 132.0
1497.57312 160.0
1498.33667 48.0
1498.521606 168.0
1498.675659 92.0
1499.199585 140.0
1499.35376 144.0
1499.484741 148.0
1499.546387 108.0
1499.615845 176.0
1499.762207 180.0
1499.908691 132.0
1500.170776 212.0
1500.340454 196.0
1500.61792 124.0
1500.710449 320.0
1501.126831 156.0
1501.188599 52.0
1501.438843 348.0
1501.790161 172.0
1502.198975 216.0
1502.368652 216.0
1502.484375 112.0
1502.739014 184.0
1503.086182 184.0
1503.402588 180.0
1503.610962 68.0
1503.734375 184.0
