>compound Nelarabine
>formula C11H15N5O5 
>ionization [M+H]+
>parentmass 298.1145950320905
#inchi InChI=1S/C11H15N5O5/c1-20-9-5-8(14-11(12)15-9)16(3-13-5)10-7(19)6(18)4(2-17)21-10/h3-4,6-7,10,17-19H,2H2,1H3,(H2,12,14,15)/t4-,6-,7+,10-/m1/s1
#inchikey IXOXBSCIXZEQEQ
#Ion_Source LC-ESI
#Instrument qTof
#Compound_Source Isolated
#PI Sirenas
#Data_Collector Ed Esquenazi 
#Scan -1
#Precursor_MZ 298.115
#ExactMass 0.0
#Charge 1
#CAS_Number N/A
#Pubmed_ID N/A
#Smiles N/A
#INCHI_AUX N/A
#Library_Class 3
#SpectrumID CCMSLIB00000005884
#IonMode Positive
#UpdateWorkflowName UPDATE-SINGLE-ANNOTATED-BRONZE
#LibraryQualityString Bronze
#TaskID d19310cd93df49b68e9fcbec27720eb5
##Scan# 2
#SpectrumFile Nelarabine.mgf
#LibraryName fda_library.mgf
#MQScore -1
#Organism fda_library
#TIC_Query 0
#RT_Query -1
#MZErrorPPM -1
#SharedPeaks 0
#MassDiff 0
#LibMZ -1
#SpecMZ 298.115
#SpecCharge 0
#internalFilename spec-00000.mgf

>collision 10
130.939346 72.576149
130.960693 9.455882
134.954178 16.694441
153.015549 21.63912
164.867081 7.666667
165.170975 6.380208
165.176987 15.50649
165.37265 4.225
165.985703 8.671296
166.072006 1553.498047
166.107376 3.027778
166.133652 3.355392
166.190292 33.81609
166.236801 4.388158
166.265717 14.36111
166.335495 7.66821
166.408936 13.91159
166.488998 28.289289
166.505554 11.49662
166.57338 6.840517
166.770996 8.775641
167.076767 4.107143
174.947845 74.837387
177.015244 40.303028
180.558594 9.142858
180.600677 4.0
182.975601 38.238819
219.953186 3.375
220.970322 17.197371
244.083298 14.00556
252.956894 16.09358
280.10614 17.7815
298.112183 21.54459
