>compound MLS001159093-01!2-[4-(4-methoxyphenyl)-8-methyl-2-oxochromen-7-yl]oxy-N-(pyridin-2-ylmethyl)propanamide
>formula C26H24N2O5
>ionization [M+H]+
>parentmass 445.176514
#inchi InChI=1S/C26H24N2O5/c1-16-23(32-17(2)26(30)28-15-19-6-4-5-13-27-19)12-11-21-22(14-24(29)33-25(16)21)18-7-9-20(31-3)10-8-18/h4-14,17H,15H2,1-3H3,(H,28,30)
#inchikey UPVUIHYDECYHEG
#Ion_Source LC-ESI
#Instrument qTof
#Compound_Source NIH Natural Product Library
#PI Dorrestein
#Data_Collector VVP/LMS
#Scan -1
#Precursor_MZ 445.176
#ExactMass 444.169
#Charge 1
#CAS_Number N/A
#Pubmed_ID N/A
#Smiles COc1ccc(cc1)c2cc(=O)oc3c(C)c(OC(C)C(=O)NCc4ccccn4)ccc23
#INCHI_AUX N/A
#Library_Class 1
#SpectrumID CCMSLIB00000080542
#IonMode Positive
#UpdateWorkflowName UPDATE-SINGLE-ANNOTATED-GOLD
#LibraryQualityString Gold
#TaskID b1d8e8f6646f4e71acdff9ca3d919d08
##Scan# 1997
#SpectrumFile p2-D10_GD10_01_18022.mzXML
#LibraryName NIH_Natural_Products_Library.mgf
#MQScore -1
#Organism NIH_Natural_Products_Library
#TIC_Query 0
#RT_Query -1
#MZErrorPPM -1
#SharedPeaks 0
#MassDiff 0
#LibMZ -1
#SpecMZ 445.176
#SpecCharge 0
#internalFilename spec-00000.mgf

>collision 10
94.978104 144.0
95.010605 232.0
95.040184 140.0
95.068626 184.0
95.176056 156.0
95.265388 148.0
95.302307 180.0
95.330368 324.0
95.372261 260.0
95.407257 148.0
95.43206 184.0
95.467529 172.0
95.483086 128.0
95.536652 364.0
95.55117 116.0
95.591438 184.0
95.61747 412.0
95.656258 144.0
95.680878 240.0
95.706871 104.0
95.776985 184.0
95.860229 208.0
95.917274 28.0
95.993309 136.0
96.061577 160.0
96.092941 204.0
96.117989 192.0
96.157181 152.0
96.180603 152.0
96.19622 156.0
96.231361 136.0
96.276268 40.0
96.309471 184.0
96.339813 188.0
96.358307 180.0
96.377846 148.0
96.424789 168.0
96.445724 180.0
96.477524 68.0
96.524445 92.0
96.579208 124.0
96.602676 136.0
96.632027 176.0
96.667633 120.0
96.672951 144.0
96.696594 200.0
96.722046 196.0
96.751587 172.0
96.780449 120.0
96.814728 328.0
96.823296 112.0
96.829865 164.0
96.859108 164.0
96.884575 184.0
96.902206 152.0
96.917152 216.0
96.960991 176.0
97.018036 156.0
97.087105 208.0
97.113724 204.0
97.144348 160.0
97.160995 108.0
97.208084 216.0
97.221825 316.0
97.237526 68.0
97.257149 136.0
97.288559 284.0
97.314598 168.0
97.353348 168.0
97.40049 196.0
97.431984 116.0
97.447632 148.0
97.506302 192.0
97.532135 152.0
97.547859 240.0
97.571892 196.0
97.60318 136.0
97.646172 68.0
97.848854 164.0
97.877663 196.0
97.940063 240.0
98.014297 128.0
98.032036 152.0
98.065536 556.0
98.091164 192.0
98.128616 160.0
98.17791 192.0
98.214767 216.0
98.250893 72.0
98.280487 160.0
98.302193 160.0
98.317978 112.0
98.343636 216.0
98.367119 172.0
98.416679 32.0
98.472977 244.0
98.517403 276.0
98.53083 136.0
98.618179 104.0
98.632011 200.0
98.660393 112.0
98.709114 84.0
98.726913 124.0
98.761284 340.0
98.778336 172.0
98.801849 172.0
98.832558 216.0
98.916855 60.0
98.942589 400.0
99.019524 220.0
99.033676 76.0
99.061409 104.0
99.141876 76.0
99.176338 332.0
99.215546 164.0
99.273483 192.0
99.317116 204.0
99.334969 28.0
99.360359 180.0
99.386635 88.0
99.409828 256.0
99.434174 132.0
99.473869 136.0
99.545815 252.0
99.581093 140.0
99.626778 176.0
99.68837 132.0
99.702278 64.0
99.724144 60.0
99.795708 160.0
99.813606 212.0
99.84343 72.0
99.876732 172.0
99.894196 140.0
99.913223 416.0
99.946869 140.0
99.974297 200.0
100.02668 156.0
100.060318 120.0
100.087532 132.0
100.114082 76.0
100.134239 144.0
100.155907 152.0
100.193329 204.0
100.201027 160.0
100.214653 204.0
100.315315 132.0
100.328445 136.0
100.366005 208.0
100.39241 144.0
100.44294 128.0
100.476852 200.0
100.508774 128.0
100.536713 84.0
100.60437 156.0
100.652489 160.0
100.688133 212.0
100.712975 224.0
100.754349 176.0
100.781303 132.0
100.852264 72.0
100.905807 112.0
100.936546 128.0
101.046234 176.0
101.105827 200.0
101.157265 200.0
101.232384 132.0
101.250412 108.0
101.27845 172.0
101.332535 176.0
101.386635 196.0
101.416702 148.0
101.466667 160.0
101.472069 148.0
101.52095 160.0
101.537872 248.0
101.593163 180.0
101.621246 148.0
101.707542 68.0
101.726921 228.0
101.747688 128.0
101.765755 84.0
101.848091 192.0
101.862152 144.0
101.876213 212.0
101.920418 232.0
101.940506 104.0
101.973618 152.0
102.004822 112.0
102.075188 152.0
102.097313 144.0
102.125465 152.0
102.141556 140.0
102.175758 144.0
102.191849 148.0
102.228073 176.0
102.266914 212.0
102.356079 216.0
102.38308 144.0
102.409264 128.0
102.424751 168.0
102.450554 152.0
102.480751 164.0
102.52813 120.0
102.614708 168.0
102.64505 100.0
102.671265 360.0
102.699501 72.0
102.723709 124.0
102.739555 140.0
102.772125 120.0
102.788269 140.0
102.802391 244.0
102.840736 160.0
102.859192 56.0
102.887161 128.0
102.900833 200.0
102.957832 172.0
102.970917 136.0
103.022308 148.0
103.054794 124.0
103.112579 168.0
103.129562 156.0
103.149117 156.0
103.258965 156.0
103.277168 84.0
103.339874 136.0
103.362137 228.0
103.392487 208.0
103.445114 172.0
103.468544 212.0
103.507507 176.0
103.519875 108.0
103.522469 136.0
103.580788 128.0
103.6213 52.0
103.67524 168.0
103.708435 188.0
103.728706 116.0
103.761139 200.0
103.777359 176.0
103.800148 148.0
103.817917 128.0
103.840225 88.0
103.865417 160.0
103.897934 160.0
103.955452 160.0
104.049759 5752.0
104.085777 132.0
104.10202 160.0
104.15712 184.0
104.18605 140.0
104.207642 236.0
104.250313 88.0
104.289223 140.0
104.353378 204.0
104.382614 224.0
104.404564 164.0
104.414551 132.0
104.422119 268.0
104.439392 244.0
104.455666 144.0
104.497772 160.0
104.528374 204.0
104.556404 136.0
104.57164 140.0
104.618927 104.0
104.638817 328.0
104.652321 132.0
104.706009 104.0
104.728416 84.0
104.756935 136.0
104.769928 180.0
104.827454 144.0
104.851944 140.0
104.88327 144.0
104.915886 204.0
104.955978 184.0
104.982651 156.0
105.0158 160.0
105.056931 16328.0
105.092094 260.0
105.125534 188.0
105.169548 156.0
105.193321 96.0
105.211693 140.0
105.231194 120.0
105.289284 176.0
105.320572 108.0
105.341705 180.0
105.383247 100.0
105.428764 204.0
105.479919 148.0
105.499573 148.0
105.529655 120.0
105.560013 156.0
105.610886 136.0
105.628128 204.0
105.6521 200.0
105.689178 172.0
105.704269 172.0
105.730873 72.0
105.771805 68.0
105.792274 176.0
105.833221 64.0
105.874786 176.0
105.921112 232.0
105.949966 232.0
105.970451 144.0
105.986839 136.0
106.007332 104.0
106.065582 31944.0
106.112022 164.0
106.140572 48.0
106.171837 136.0
106.204147 36.0
106.252716 148.0
106.270584 304.0
106.296471 116.0
106.316986 64.0
106.339478 92.0
106.414429 136.0
106.454109 136.0
106.477119 80.0
106.508362 212.0
106.557228 128.0
106.588051 148.0
106.620621 212.0
106.632576 156.0
106.652924 240.0
106.69545 204.0
106.701408 212.0
106.74276 188.0
106.767303 200.0
106.78746 148.0
106.819901 232.0
106.854691 152.0
106.862938 104.0
106.874207 248.0
106.898552 312.0
106.928535 232.0
106.954521 144.0
106.975487 184.0
106.992233 264.0
107.011719 356.0
107.025047 364.0
107.061554 173684.0
107.112213 36.0
107.134262 220.0
107.15638 164.0
107.199684 124.0
107.229805 136.0
107.252861 244.0
107.268303 176.0
107.285995 108.0
107.317383 224.0
107.334999 132.0
107.34285 76.0
107.376228 64.0
107.399773 1980.0
107.419716 172.0
107.460312 120.0
107.51606 124.0
107.554962 72.0
107.570297 108.0
107.600548 144.0
107.644379 168.0
107.690208 176.0
107.730225 128.0
107.749512 96.0
107.775314 216.0
107.791977 184.0
107.811478 120.0
107.827011 112.0
107.853294 124.0
107.864914 100.0
107.893913 128.0
107.914635 348.0
107.935692 208.0
107.948952 180.0
107.981033 84.0
108.06501 18076.0
108.101616 152.0
108.116096 68.0
108.145073 276.0
108.175735 172.0
108.224396 172.0
108.255501 164.0
108.282005 288.0
108.29895 116.0
108.330399 132.0
108.353561 136.0
108.375999 136.0
108.409019 272.0
108.437431 128.0
108.456337 104.0
108.478561 72.0
108.504204 260.0
108.526245 124.0
108.551125 36.0
108.56813 56.0
108.584305 108.0
108.604759 116.0
108.623718 172.0
108.640312 144.0
108.669815 104.0
108.688622 124.0
108.740997 252.0
108.755699 136.0
108.775993 164.0
108.817482 76.0
108.85006 200.0
108.867836 252.0
108.905396 204.0
108.909386 96.0
108.940392 148.0
108.967758 88.0
108.993263 132.0
109.010727 232.0
109.039436 164.0
109.076843 14644.0
109.136681 64.0
109.157471 68.0
109.175911 60.0
109.20916 108.0
109.250587 104.0
109.262138 124.0
109.301003 40.0
109.350945 144.0
109.365517 72.0
109.392578 48.0
109.439735 224.0
109.457115 52.0
109.490433 148.0
109.525841 200.0
109.565422 200.0
109.589905 64.0
109.621681 36.0
109.661278 76.0
109.771767 88.0
109.821815 168.0
109.859367 36.0
109.888573 156.0
109.951172 152.0
109.974129 48.0
109.992912 132.0
110.022858 128.0
110.040649 148.0
110.061302 756.0
110.079147 852.0
110.149521 52.0
110.182945 136.0
110.224731 80.0
110.239365 36.0
110.258171 120.0
110.318787 72.0
110.360596 228.0
110.385689 172.0
110.429604 32.0
110.488174 68.0
110.502823 200.0
110.530022 96.0
110.559319 88.0
110.573967 128.0
110.69809 224.0
110.714233 44.0
110.755219 176.0
110.772881 196.0
110.81897 116.0
110.851784 176.0
110.889137 132.0
110.916466 96.0
110.93502 160.0
111.020752 124.0
111.046906 180.0
111.065308 244.0
111.133469 112.0
111.152359 68.0
111.199036 180.0
111.253098 172.0
111.290886 116.0
111.33709 184.0
111.469429 76.0
111.484138 64.0
111.503052 112.0
111.517769 188.0
111.538788 92.0
111.599144 124.0
111.659752 100.0
111.715851 176.0
111.738564 52.0
111.776436 68.0
111.805893 76.0
111.847992 48.0
111.877464 44.0
111.915359 52.0
111.955368 156.0
111.970108 132.0
111.999596 88.0
112.048042 76.0
112.077545 128.0
112.113838 240.0
112.149193 192.0
112.185028 120.0
112.198853 96.0
112.244064 152.0
112.296783 48.0
112.315765 76.0
112.343185 224.0
112.357956 160.0
112.400154 64.0
112.425476 128.0
112.490906 100.0
112.516235 172.0
112.564796 100.0
112.647171 144.0
112.702095 180.0
112.721115 228.0
112.776062 120.0
112.80777 44.0
112.860619 48.0
112.88134 160.0
112.905029 48.0
112.933273 80.0
113.034065 396.0
113.055229 52.0
113.101791 64.0
113.117981 136.0
113.152596 64.0
113.169533 144.0
113.252121 52.0
113.286018 124.0
113.472511 168.0
113.510674 172.0
113.561577 180.0
113.614601 152.0
113.629456 60.0
113.650673 116.0
113.71373 196.0
113.729187 188.0
113.858398 56.0
113.902946 72.0
113.924545 140.0
113.939415 180.0
114.072998 192.0
114.156219 188.0
114.223152 136.0
114.258316 148.0
114.29023 216.0
114.430702 84.0
114.482872 176.0
114.515877 148.0
114.547829 148.0
114.590439 156.0
114.647964 124.0
114.68808 200.0
114.722649 204.0
114.746017 152.0
114.76487 100.0
114.829178 104.0
114.895309 152.0
114.974258 60.0
114.991325 148.0
115.010536 248.0
115.052605 304.0
115.074577 44.0
115.198448 128.0
115.27536 84.0
115.360527 184.0
115.422852 120.0
115.43782 164.0
115.489944 140.0
115.5084 40.0
115.551186 136.0
115.65818 60.0
115.788788 120.0
115.973045 164.0
116.060936 212.0
116.090958 68.0
116.125275 112.0
116.152618 156.0
116.247559 100.0
116.324821 168.0
116.350578 92.0
116.389229 144.0
116.478485 192.0
116.539581 212.0
116.55677 96.0
116.573181 196.0
116.625542 108.0
116.713684 180.0
116.735184 144.0
116.833183 156.0
116.87146 136.0
116.902977 48.0
116.932419 88.0
117.006287 152.0
117.033096 88.0
117.070786 456.0
117.150574 148.0
117.178581 200.0
117.235077 164.0
117.249695 200.0
117.301422 92.0
117.357475 188.0
117.389816 116.0
117.435104 140.0
117.465149 56.0
117.538658 80.0
117.555679 72.0
117.596924 144.0
117.645584 128.0
117.670265 164.0
117.687592 204.0
117.760277 164.0
117.791252 80.0
117.808533 116.0
117.844337 196.0
117.929535 144.0
118.016006 92.0
118.037628 116.0
118.065575 1884.0
118.109001 180.0
118.124138 80.0
118.22583 152.0
118.258293 188.0
118.383858 192.0
118.509331 216.0
118.572334 136.0
118.594009 248.0
118.609184 152.0
118.663376 188.0
118.698067 56.0
118.746506 128.0
118.767471 148.0
118.828209 180.0
118.89135 204.0
118.928032 168.0
118.960587 136.0
119.06002 1808.0
119.108253 108.0
119.13649 56.0
119.169075 212.0
119.206017 96.0
119.238617 124.0
119.273582 136.0
119.290779 72.0
119.371223 168.0
119.385063 132.0
119.449516 80.0
119.56266 132.0
119.588455 328.0
119.738998 196.0
119.793457 200.0
119.860992 56.0
119.882782 36.0
119.980103 80.0
120.000488 200.0
120.057343 268.0
120.079247 204.0
120.126976 184.0
120.159698 128.0
120.233894 272.0
120.436935 160.0
120.46315 292.0
120.50029 28.0
120.53743 144.0
120.596436 32.0
120.641891 156.0
120.696152 176.0
120.836983 132.0
120.888565 136.0
120.917946 172.0
120.941956 128.0
121.036156 172.0
121.074265 1396.0
121.174866 204.0
121.200439 156.0
121.222351 124.0
121.283714 108.0
121.362831 176.0
121.460175 168.0
121.518356 112.0
121.570351 184.0
121.605171 200.0
121.729073 88.0
121.83889 132.0
121.942947 192.0
121.992722 56.0
122.014709 136.0
122.045486 48.0
122.075493 192.0
122.26326 36.0
122.289742 132.0
122.353508 112.0
122.375526 148.0
122.470215 172.0
122.567146 40.0
122.643394 228.0
122.710419 216.0
122.772293 132.0
122.855972 212.0
122.897888 140.0
122.930626 196.0
122.98175 148.0
123.092133 168.0
123.120071 184.0
123.151108 144.0
123.178268 148.0
123.226868 128.0
123.26001 172.0
123.317467 140.0
123.395699 184.0
123.474442 208.0
123.492134 112.0
123.559631 152.0
123.578407 228.0
123.597191 192.0
123.624878 60.0
123.644913 144.0
123.770973 100.0
123.899429 140.0
123.961708 148.0
123.98806 188.0
124.101112 136.0
124.143242 80.0
124.198692 188.0
124.316277 192.0
124.401421 220.0
124.422813 68.0
124.489426 88.0
124.531898 64.0
124.636032 72.0
124.678253 64.0
124.733818 112.0
124.782722 184.0
124.807182 168.0
124.83387 104.0
124.902809 112.0
124.920609 100.0
124.960648 116.0
125.066452 128.0
125.175697 156.0
125.196594 132.0
125.241142 132.0
125.296829 152.0
125.332481 116.0
125.354759 164.0
125.417213 176.0
125.444794 212.0
125.537552 136.0
125.724945 176.0
125.751724 64.0
125.818687 228.0
125.845482 184.0
125.899071 72.0
126.039803 156.0
126.147079 124.0
126.240982 68.0
126.267822 88.0
126.285713 108.0
126.366241 124.0
126.386383 168.0
126.439392 168.0
126.457993 48.0
126.49604 132.0
126.622795 164.0
126.639343 120.0
126.715508 224.0
126.863419 180.0
126.937706 212.0
126.964317 132.0
127.000206 172.0
127.056282 140.0
127.074234 148.0
127.188683 208.0
127.307671 168.0
127.363823 148.0
127.50312 116.0
127.554817 192.0
127.65374 132.0
127.734703 104.0
127.770699 56.0
127.806694 172.0
127.833694 116.0
127.858452 76.0
127.934982 88.0
128.020538 152.0
128.060989 292.0
128.097122 132.0
128.124771 132.0
128.266113 56.0
128.322479 188.0
128.360809 176.0
128.427216 180.0
128.708298 60.0
128.776047 184.0
128.796371 176.0
128.859634 152.0
128.918381 156.0
128.936462 200.0
128.979401 128.0
129.006531 196.0
129.068939 152.0
129.133148 172.0
129.179138 64.0
129.221375 44.0
129.270187 160.0
129.363953 136.0
129.437805 192.0
129.504333 124.0
129.595871 88.0
129.658401 216.0
129.687866 232.0
129.737732 176.0
129.774002 140.0
129.855637 120.0
129.91008 188.0
129.925964 124.0
129.946381 188.0
129.99176 144.0
130.071198 112.0
130.098434 140.0
130.214233 152.0
130.241486 156.0
130.311905 36.0
130.331406 172.0
130.39827 176.0
130.536148 132.0
130.572647 228.0
130.60289 152.0
130.633041 188.0
130.680237 180.0
130.707535 120.0
130.798569 164.0
130.814514 48.0
130.841827 96.0
130.967072 208.0
130.994873 272.0
131.019455 124.0
131.060944 6028.0
131.108322 192.0
131.149353 72.0
131.182297 280.0
131.215454 164.0
131.249908 180.0
131.282074 148.0
131.329285 96.0
131.337326 172.0
131.363693 56.0
131.379654 164.0
131.664978 164.0
131.683243 128.0
131.726639 180.0
131.77005 104.0
131.792892 180.0
131.838593 128.0
131.984894 160.0
132.063263 668.0
132.083893 200.0
132.115265 92.0
132.147614 140.0
132.206787 116.0
132.254837 152.0
132.350998 168.0
132.376175 176.0
132.399078 180.0
132.518188 256.0
132.653412 116.0
132.713013 140.0
132.765747 144.0
132.847885 104.0
132.881882 128.0
132.914856 136.0
132.955048 192.0
133.000519 124.0
133.052673 12156.0
133.128342 112.0
133.149002 36.0
133.311661 160.0
133.423187 184.0
133.473373 244.0
133.491425 68.0
133.521729 180.0
133.55574 128.0
133.596176 176.0
133.629059 124.0
133.650879 148.0
133.730682 200.0
133.761597 80.0
133.796921 36.0
133.895752 184.0
134.015701 192.0
134.055893 1544.0
134.114059 80.0
134.158829 192.0
134.186783 64.0
134.215424 124.0
134.269806 116.0
134.290558 68.0
134.313629 168.0
134.441986 144.0
134.472824 164.0
134.551315 104.0
134.609909 196.0
134.643677 92.0
134.703857 136.0
134.773026 176.0
134.81694 44.0
134.837738 152.0
134.877029 160.0
134.901642 124.0
134.939026 156.0
134.969116 48.0
135.004181 164.0
135.044891 3388.0
135.092041 47196.0
135.125809 148.0
135.167908 92.0
135.199966 204.0
135.220566 68.0
135.25972 208.0
135.305603 216.0
135.346237 44.0
135.379074 124.0
135.410522 160.0
135.428391 60.0
135.453186 48.0
135.536591 120.0
135.554672 40.0
135.585266 64.0
135.601486 48.0
135.617706 200.0
135.640884 120.0
135.679626 212.0
135.722031 220.0
135.768936 172.0
135.840912 168.0
135.904694 180.0
135.947037 40.0
136.048279 388.0
136.095444 2524.0
136.138397 128.0
136.165253 140.0
136.20343 224.0
136.234131 120.0
136.269791 48.0
136.302322 52.0
136.335678 124.0
136.381332 64.0
136.416199 112.0
136.451874 120.0
136.488663 160.0
136.544083 124.0
136.559372 104.0
136.648758 80.0
136.699951 56.0
136.809341 144.0
136.848923 156.0
136.871643 200.0
137.024368 204.0
137.049759 104.0
137.101532 340.0
137.130783 92.0
137.150711 152.0
137.175064 112.0
137.217026 80.0
137.268326 88.0
137.291061 96.0
137.350082 148.0
137.550629 192.0
137.594986 224.0
137.615997 64.0
137.699677 160.0
137.749115 128.0
137.839111 164.0
137.90567 148.0
137.963608 132.0
137.971695 244.0
138.043594 156.0
138.062302 96.0
138.097382 144.0
138.153519 116.0
138.172241 156.0
138.204987 116.0
138.235413 164.0
138.280838 292.0
138.33371 156.0
138.401611 100.0
138.560867 120.0
138.619446 88.0
138.685074 216.0
138.746017 152.0
138.837296 172.0
138.951279 160.0
138.985245 124.0
139.034515 152.0
139.060333 148.0
139.271255 140.0
139.393814 96.0
139.429062 148.0
139.450211 156.0
139.508987 140.0
139.625397 164.0
139.687698 152.0
139.727692 156.0
139.744156 196.0
139.758881 188.0
139.952408 140.0
139.979538 208.0
140.060379 196.0
140.070511 64.0
140.077576 172.0
140.13028 40.0
140.156204 212.0
140.672699 56.0
140.75769 132.0
140.82518 180.0
140.951385 208.0
140.976303 280.0
141.019913 228.0
141.068695 196.0
141.128662 68.0
141.334442 124.0
141.353363 208.0
141.417267 116.0
141.459869 40.0
141.478806 220.0
141.497742 152.0
141.559311 120.0
141.745712 128.0
141.841248 124.0
141.883911 108.0
142.042801 148.0
142.08075 152.0
142.214691 208.0
142.244492 136.0
142.329956 156.0
142.351334 72.0
142.401199 156.0
142.503357 36.0
142.574631 176.0
142.624542 64.0
142.75769 184.0
142.883743 172.0
142.900406 108.0
142.938477 136.0
142.959885 168.0
142.986069 180.0
143.043396 188.0
143.069382 72.0
143.108414 216.0
143.131271 56.0
143.312302 120.0
143.386169 44.0
143.41716 124.0
143.433838 136.0
143.507736 120.0
143.553055 136.0
143.615051 128.0
143.677078 132.0
143.765366 172.0
143.856049 128.0
143.872772 52.0
143.953949 128.0
143.975433 204.0
144.020813 212.0
144.049484 100.0
144.092484 48.0
144.128326 64.0
144.369751 104.0
144.419968 64.0
144.53241 152.0
144.637711 184.0
144.728043 184.0
144.805969 132.0
144.932281 132.0
144.982605 144.0
144.999374 80.0
145.035324 372.0
145.075256 9376.0
145.121628 208.0
145.140808 36.0
145.171066 52.0
145.212753 184.0
145.234344 180.0
145.263123 144.0
145.299103 172.0
145.344696 124.0
145.416687 148.0
145.557907 296.0
145.594345 40.0
145.678406 56.0
145.710907 180.0
145.733673 116.0
145.752884 72.0
145.77623 180.0
145.795181 180.0
145.815369 124.0
145.839401 156.0
145.879578 112.0
145.956772 204.0
146.031754 192.0
146.083527 10100.0
146.149628 60.0
146.219421 84.0
146.278244 72.0
146.347 200.0
146.397568 68.0
146.421646 40.0
146.454987 176.0
146.501129 76.0
146.530045 68.0
146.638474 104.0
146.707626 168.0
146.721283 180.0
146.744537 56.0
146.761414 240.0
146.79277 92.0
146.830429 188.0
146.905472 168.0
147.002625 312.0
147.056931 120.0
147.088806 1772.0
147.18367 148.0
147.207809 120.0
147.228317 148.0
147.326172 108.0
147.442139 148.0
147.463898 280.0
147.485657 76.0
147.515793 212.0
147.6017 128.0
147.645218 56.0
148.039261 280.0
148.056625 120.0
148.073578 236.0
148.094269 324.0
148.149002 60.0
148.192276 64.0
148.218369 144.0
148.337692 192.0
148.381317 60.0
148.405563 176.0
148.466187 144.0
148.555939 164.0
148.626297 124.0
148.67482 120.0
148.720932 48.0
148.784042 60.0
148.842316 220.0
148.88504 176.0
148.973907 156.0
149.023834 264.0
149.063797 656.0
149.144394 212.0
149.24324 196.0
149.294052 116.0
149.328354 40.0
149.374557 200.0
149.983307 112.0
150.030624 152.0
150.085693 160.0
150.181885 200.0
150.39064 192.0
150.463867 184.0
150.499252 204.0
150.671463 112.0
150.776535 132.0
150.831512 168.0
151.038361 3800.0
151.066193 120.0
151.08461 152.0
151.104187 132.0
151.134811 184.0
151.242508 176.0
151.285294 132.0
151.373428 140.0
151.434647 96.0
151.532089 232.0
151.597336 108.0
151.667419 176.0
151.763031 136.0
151.789993 188.0
151.893005 148.0
151.939606 144.0
151.969055 132.0
152.041916 296.0
152.062149 652.0
152.123672 48.0
152.286957 208.0
152.320114 96.0
152.440491 172.0
152.468262 176.0
152.54126 176.0
152.657227 196.0
152.762573 76.0
152.926941 176.0
153.001282 148.0
153.031693 172.0
153.06929 788.0
153.087967 176.0
153.220474 148.0
153.328888 112.0
153.512711 156.0
153.568039 132.0
153.713593 208.0
153.992554 72.0
154.096298 216.0
154.154602 148.0
154.172897 144.0
154.208023 192.0
154.3311 84.0
154.496811 196.0
154.524017 148.0
154.548767 160.0
154.632904 112.0
154.650223 140.0
154.667557 68.0
154.813156 192.0
154.900314 148.0
155.059784 520.0
155.103989 200.0
155.146362 124.0
155.2845 212.0
155.418457 168.0
155.46312 208.0
155.682877 244.0
155.71962 136.0
155.838074 160.0
156.051819 132.0
156.091599 100.0
156.126404 172.0
156.143814 112.0
156.198532 56.0
156.225906 140.0
156.376633 264.0
156.395737 204.0
156.469788 180.0
156.498611 160.0
156.556931 156.0
156.574371 72.0
156.594299 140.0
156.806061 164.0
157.003021 160.0
157.060379 336.0
157.151642 164.0
157.201233 200.0
157.220062 140.0
157.279449 372.0
157.332382 208.0
157.572128 192.0
157.629593 140.0
157.695908 100.0
157.722061 92.0
157.807068 144.0
157.987122 144.0
158.032166 136.0
158.071045 320.0
158.475327 180.0
158.512909 132.0
158.650757 140.0
158.695892 208.0
159.04364 1212.0
159.082916 380.0
159.132446 128.0
159.167603 196.0
159.195221 196.0
159.252991 108.0
159.389633 184.0
159.529388 140.0
159.562073 88.0
159.609848 152.0
159.798477 320.0
159.924301 164.0
159.987228 108.0
160.044403 312.0
160.085434 172.0
160.128235 96.0
160.208847 132.0
160.448257 204.0
160.478027 148.0
160.533981 132.0
160.715591 168.0
160.775009 220.0
160.864426 144.0
160.940231 188.0
161.041245 116.0
161.065918 168.0
161.192825 180.0
161.266113 64.0
161.324249 156.0
161.354599 112.0
161.389984 60.0
161.513901 76.0
161.650528 60.0
161.69101 232.0
161.726517 136.0
161.766953 96.0
161.787201 64.0
161.822647 172.0
161.868225 152.0
161.893539 120.0
161.921402 176.0
162.004608 132.0
162.025253 56.0
162.04805 156.0
162.079971 368.0
162.101257 152.0
162.179825 88.0
162.207703 128.0
162.274185 216.0
162.352234 104.0
162.448608 168.0
162.488449 296.0
162.605133 140.0
162.71846 132.0
162.788712 68.0
162.824265 40.0
162.888962 152.0
162.928192 144.0
163.004471 176.0
163.019699 136.0
163.056595 336.0
163.087143 35044.0
163.25415 176.0
163.313217 156.0
163.347855 184.0
163.370743 68.0
163.404892 104.0
163.441986 124.0
163.480011 72.0
163.550919 208.0
163.5896 148.0
163.617599 108.0
163.647018 108.0
163.679871 140.0
163.691101 120.0
163.738083 152.0
163.747467 92.0
163.753555 152.0
163.78566 236.0
163.822433 184.0
163.842255 200.0
163.872284 144.0
163.91954 132.0
163.96402 104.0
163.985123 312.0
164.010956 172.0
164.095215 55696.0
164.149353 148.0
164.197403 48.0
164.226074 56.0
164.266068 156.0
164.302246 100.0
164.361282 56.0
164.378128 260.0
164.410309 56.0
164.446304 196.0
164.517426 140.0
164.559464 148.0
164.59201 44.0
164.658844 52.0
164.686035 96.0
164.72435 68.0
164.761459 76.0
164.783112 36.0
164.836777 56.0
164.874222 196.0
164.92366 64.0
164.964172 292.0
164.999054 164.0
165.070908 2988.0
165.098053 6696.0
165.140213 120.0
165.157593 148.0
165.184479 76.0
165.207504 52.0
165.255386 100.0
165.269165 176.0
165.31752 112.0
165.350784 96.0
165.368286 68.0
165.440369 48.0
165.481339 104.0
165.499252 60.0
165.645233 48.0
165.796799 76.0
165.814346 180.0
165.849091 80.0
165.87207 76.0
165.893799 96.0
165.914307 120.0
165.953659 136.0
165.989273 236.0
166.077286 4228.0
166.139984 124.0
166.176331 120.0
166.237701 96.0
166.277924 60.0
166.353683 160.0
166.376587 144.0
166.429077 100.0
166.471085 136.0
166.501907 52.0
166.527588 156.0
166.571243 120.0
166.601852 136.0
166.663742 36.0
166.684296 60.0
166.743393 32.0
166.830795 32.0
166.906097 68.0
166.93364 80.0
166.956772 96.0
167.000504 64.0
167.049377 144.0
167.081406 764.0
167.152283 40.0
167.189499 244.0
167.224335 204.0
167.304138 32.0
167.371078 212.0
167.531448 132.0
167.559097 52.0
167.693085 240.0
167.714661 120.0
167.76268 172.0
167.865814 40.0
167.902893 200.0
168.002518 76.0
168.059433 472.0
168.136688 144.0
168.16507 120.0
168.255417 200.0
168.319763 200.0
168.384537 128.0
168.671326 120.0
168.887268 172.0
168.929916 136.0
168.948013 196.0
169.041168 48.0
169.062088 136.0
169.10173 324.0
169.126572 180.0
169.21199 192.0
169.291992 168.0
169.499496 104.0
169.673141 232.0
169.950668 180.0
170.07045 204.0
170.101181 104.0
170.482971 84.0
170.68454 216.0
170.706543 172.0
170.737747 176.0
170.779358 96.0
170.834839 196.0
170.932846 216.0
170.969284 124.0
171.078796 616.0
171.143692 84.0
171.172333 216.0
171.190552 96.0
171.26088 156.0
171.570969 164.0
171.63353 124.0
171.681351 60.0
171.823929 176.0
171.860458 148.0
171.902206 164.0
171.933517 100.0
172.089081 284.0
172.112228 200.0
172.147583 168.0
172.171097 196.0
172.308289 176.0
172.3853 68.0
172.48201 40.0
172.567551 232.0
172.685944 88.0
173.026123 124.0
173.059662 2180.0
173.102051 184.0
173.209427 36.0
173.24086 168.0
173.329941 60.0
173.447876 96.0
173.489822 184.0
173.513412 280.0
173.631409 148.0
173.65239 136.0
173.736328 128.0
173.809799 40.0
174.065887 448.0
174.235123 104.0
174.311325 240.0
174.718857 156.0
174.755692 136.0
174.850418 212.0
174.892532 104.0
174.963608 172.0
175.042664 140.0
175.049454 112.0
175.060059 208.0
175.078674 140.0
175.113693 132.0
175.137405 176.0
175.166382 56.0
175.222916 208.0
175.284927 140.0
175.411438 124.0
175.501068 244.0
175.593369 80.0
175.709427 124.0
175.78067 40.0
175.915176 244.0
175.962799 112.0
175.994476 144.0
176.012955 136.0
176.059952 592.0
176.118591 152.0
176.299454 212.0
176.380188 60.0
176.800705 92.0
176.872177 104.0
176.923508 112.0
176.932571 44.0
176.975418 116.0
177.069275 1896.0
177.134308 52.0
177.210571 148.0
177.306534 168.0
177.330383 44.0
177.431122 128.0
177.478836 168.0
177.60878 136.0
177.87413 80.0
177.938217 252.0
178.038834 116.0
178.076767 3368.0
178.15065 180.0
178.248596 84.0
178.275177 52.0
178.293777 188.0
178.323013 112.0
178.354904 184.0
178.596863 296.0
178.636765 104.0
178.734421 136.0
178.799072 148.0
178.85231 144.0
178.932159 68.0
178.990738 176.0
179.084167 2244.0
179.126572 92.0
179.164307 236.0
179.211823 184.0
179.270432 180.0
179.331726 184.0
179.483688 72.0
179.50502 40.0
179.523682 192.0
179.55835 76.0
179.595688 96.0
179.614365 132.0
179.654373 216.0
179.907898 56.0
179.92926 92.0
180.052719 136.0
180.092133 604.0
180.247086 172.0
180.329941 52.0
180.648132 124.0
180.802139 160.0
180.9328 72.0
180.958557 124.0
181.064835 840.0
181.101089 432.0
181.23175 92.0
181.255875 112.0
181.329712 108.0
181.408646 84.0
181.440811 144.0
181.636566 76.0
181.81633 256.0
181.84317 104.0
182.012299 356.0
182.075394 520.0
182.105637 400.0
182.227173 60.0
182.458298 144.0
182.479614 140.0
182.724335 240.0
182.840256 256.0
182.867157 176.0
182.89946 256.0
183.006577 172.0
183.016647 136.0
183.080368 432.0
183.112167 184.0
183.160645 100.0
183.214523 184.0
183.446274 92.0
183.516373 168.0
183.686737 116.0
183.907532 140.0
183.950714 152.0
183.977707 116.0
184.047913 132.0
184.084991 180.0
184.161331 156.0
184.312622 176.0
184.33963 40.0
184.401794 164.0
184.888596 88.0
185.063858 368.0
185.093475 176.0
185.124115 136.0
185.316437 60.0
185.384186 88.0
185.410324 204.0
185.476334 224.0
185.584763 72.0
185.748871 160.0
185.967255 48.0
186.059235 208.0
186.100281 136.0
186.165451 188.0
186.195328 152.0
186.241486 128.0
186.306686 292.0
186.475159 184.0
186.551254 232.0
186.592041 156.0
186.646423 40.0
186.755203 136.0
186.782394 168.0
186.812317 132.0
186.880341 104.0
187.046341 220.0
187.073761 168.0
187.362228 100.0
187.506638 176.0
187.749283 128.0
187.801102 156.0
188.038467 124.0
188.073944 144.0
188.177673 60.0
188.349716 112.0
188.438705 160.0
188.614761 152.0
188.710449 80.0
188.808884 108.0
188.83934 152.0
188.871796 132.0
188.986694 120.0
189.022263 136.0
189.066956 188.0
189.509644 196.0
189.612198 188.0
189.631546 108.0
189.674072 92.0
189.764542 176.0
189.929077 152.0
189.989426 144.0
190.07843 476.0
190.398407 220.0
190.428619 112.0
190.461578 64.0
190.595566 124.0
190.626419 84.0
190.697876 80.0
190.928818 136.0
191.038834 172.0
191.083969 484.0
191.168152 48.0
191.214066 204.0
191.415894 136.0
191.435165 224.0
191.498505 136.0
191.702377 148.0
191.876022 116.0
192.04538 184.0
192.092804 292.0
192.327499 180.0
192.367065 100.0
192.399307 148.0
192.499588 232.0
192.670837 60.0
192.944443 128.0
193.067276 852.0
193.103043 916.0
193.176727 36.0
193.334442 56.0
193.406403 96.0
193.425781 100.0
193.465515 168.0
193.537949 216.0
193.749771 212.0
193.816269 92.0
193.853424 132.0
193.924347 176.0
193.977005 180.0
194.073334 9452.0
194.110123 312.0
194.170105 156.0
194.223785 56.0
194.276489 52.0
194.301468 84.0
194.368057 108.0
194.395798 84.0
194.445755 208.0
194.465179 140.0
194.532089 192.0
194.609528 148.0
194.698395 56.0
194.755844 180.0
194.892838 48.0
194.954361 224.0
195.077362 2192.0
195.113556 172.0
195.159668 140.0
195.226486 128.0
195.300339 164.0
195.348785 152.0
195.390503 84.0
195.421112 124.0
195.499023 140.0
195.58252 220.0
195.785767 152.0
195.812744 88.0
195.847031 56.0
195.897171 172.0
195.930603 72.0
196.052307 176.0
196.084488 2808.0
196.231598 100.0
196.290146 68.0
196.345917 184.0
196.575058 148.0
196.596436 100.0
196.647995 152.0
196.839859 128.0
196.901291 200.0
197.059647 460.0
197.093979 688.0
197.133163 184.0
197.155518 40.0
197.561829 176.0
197.673935 136.0
197.748428 92.0
197.779205 160.0
197.860397 216.0
197.941589 120.0
198.067093 424.0
198.099655 260.0
198.160065 212.0
198.241318 128.0
198.260941 76.0
198.345016 160.0
198.403885 76.0
198.448181 100.0
198.526062 160.0
198.656265 132.0
198.717987 128.0
198.868942 124.0
198.962158 124.0
199.001465 200.0
199.040771 148.0
199.075958 640.0
199.116592 120.0
199.318604 136.0
199.39473 140.0
199.675873 104.0
199.765869 52.0
199.853088 36.0
199.971283 108.0
200.038834 52.0
200.073303 156.0
200.114838 156.0
200.199707 88.0
200.345779 256.0
200.68602 160.0
200.697647 104.0
200.791138 64.0
200.881393 120.0
201.016815 120.0
201.055298 2396.0
201.093292 316.0
201.119644 128.0
201.166397 176.0
201.245392 216.0
201.273682 96.0
201.310394 48.0
201.431839 132.0
201.477036 72.0
201.776611 232.0
201.858597 176.0
202.057495 688.0
202.130157 148.0
202.155624 232.0
202.322617 52.0
202.430206 92.0
202.478348 76.0
202.498169 192.0
202.894882 120.0
202.951584 56.0
203.085709 880.0
203.240891 60.0
203.274948 160.0
203.453751 112.0
203.479309 308.0
203.587204 128.0
203.618439 212.0
203.783203 192.0
203.948013 40.0
203.999191 132.0
204.058762 460.0
204.09465 632.0
204.132812 108.0
204.187088 140.0
204.232346 148.0
204.309158 300.0
204.38028 76.0
204.525421 68.0
204.605133 128.0
204.701935 192.0
204.770279 136.0
204.938354 216.0
204.966843 140.0
205.006744 132.0
205.065536 3672.0
205.102371 212.0
205.140701 56.0
205.203415 80.0
205.294662 156.0
205.363098 188.0
205.448685 156.0
205.539978 92.0
205.571365 192.0
205.699799 208.0
205.774017 172.0
205.85968 176.0
205.922516 44.0
205.9673 200.0
206.071243 2396.0
206.140793 176.0
206.171066 48.0
206.398102 196.0
206.702957 300.0
206.765915 168.0
206.817429 112.0
206.891846 60.0
206.992065 156.0
207.079575 2304.0
207.11145 268.0
207.241257 76.0
207.328339 100.0
207.428452 164.0
207.476273 144.0
207.496338 144.0
207.613892 48.0
207.737228 136.0
208.088867 2376.0
208.147644 172.0
208.265396 88.0
208.377426 104.0
208.409027 124.0
208.526855 68.0
208.555969 184.0
208.650452 36.0
208.739578 132.0
208.782715 148.0
208.82103 248.0
208.838181 112.0
208.866119 88.0
208.917908 104.0
208.950836 132.0
208.985565 212.0
209.06369 476.0
209.09613 14340.0
209.170517 56.0
209.214828 68.0
209.234467 120.0
209.280533 60.0
209.318176 56.0
209.375565 196.0
209.408386 96.0
209.505875 116.0
209.634827 76.0
209.654999 32.0
209.749954 72.0
209.81929 40.0
209.851013 156.0
209.890137 112.0
210.000961 72.0
210.064102 340.0
210.101624 4076.0
210.140396 96.0
210.176941 72.0
210.220215 136.0
210.332779 72.0
210.367416 28.0
210.433823 176.0
210.514664 100.0
210.546432 92.0
210.589752 32.0
210.624405 40.0
210.820557 108.0
210.881561 60.0
210.920395 100.0
211.034775 172.0
211.074615 1124.0
211.110062 1312.0
211.234329 140.0
211.266144 52.0
211.376083 88.0
211.429245 88.0
211.454224 76.0
211.506317 244.0
211.541061 144.0
211.610931 144.0
211.738159 164.0
211.769806 220.0
211.795868 128.0
211.868286 112.0
211.905945 96.0
211.93782 140.0
212.040192 148.0
212.083649 684.0
212.109528 192.0
212.129105 236.0
212.205338 172.0
212.265366 160.0
212.340759 128.0
212.424881 56.0
212.643906 156.0
212.686035 180.0
212.819565 104.0
213.060623 240.0
213.09198 828.0
213.130386 176.0
213.254654 192.0
213.31926 88.0
213.403564 56.0
213.639145 252.0
213.90686 160.0
214.070679 216.0
214.101929 192.0
214.129776 208.0
214.247574 112.0
214.26796 152.0
214.428223 52.0
214.498184 76.0
214.568146 132.0
214.708099 244.0
214.769348 124.0
214.848114 132.0
215.081177 168.0
215.101547 160.0
215.335571 136.0
215.364777 124.0
215.386307 136.0
215.411514 128.0
215.461182 84.0
215.497589 112.0
215.638779 108.0
215.689117 96.0
215.765121 132.0
215.88208 140.0
215.949341 152.0
215.972733 220.0
216.075836 180.0
216.195084 68.0
216.285812 140.0
216.47612 180.0
216.546402 184.0
216.669434 156.0
216.78273 132.0
217.06218 224.0
217.100464 140.0
217.361374 108.0
217.434738 140.0
217.47876 128.0
217.516922 168.0
217.572693 176.0
217.637283 184.0
218.089096 196.0
218.142609 112.0
218.501373 180.0
218.79567 104.0
218.822174 160.0
218.848679 168.0
219.079758 744.0
219.114944 312.0
219.187393 156.0
219.461517 168.0
219.621414 72.0
219.709259 68.0
219.815475 116.0
220.055389 316.0
220.088623 772.0
220.243561 204.0
220.332169 124.0
220.394226 40.0
220.423767 40.0
220.49765 148.0
220.737106 128.0
220.813995 172.0
220.905685 164.0
220.950058 200.0
220.992279 148.0
221.059113 2132.0
221.09671 1296.0
221.163666 108.0
221.231201 184.0
221.281525 104.0
221.349625 136.0
221.379242 152.0
221.476974 148.0
221.586578 204.0
221.613235 52.0
221.954102 108.0
222.010437 52.0
222.065674 2232.0
222.10347 2072.0
222.170609 40.0
222.286316 44.0
222.324905 28.0
222.372391 156.0
222.408035 208.0
222.504929 220.0
222.5811 156.0
222.672241 136.0
222.725708 52.0
222.808884 144.0
223.002029 160.0
223.075912 1672.0
223.10817 768.0
223.189316 120.0
223.348312 156.0
223.354858 72.0
223.366135 132.0
223.445099 144.0
223.477829 92.0
223.564117 52.0
223.635544 108.0
223.769501 252.0
223.861801 128.0
223.995834 56.0
224.016678 56.0
224.082825 2188.0
224.111099 156.0
224.210358 144.0
224.311691 112.0
224.33255 36.0
224.365341 144.0
224.448837 196.0
224.525482 164.0
224.630753 68.0
224.836624 152.0
224.869461 84.0
224.923187 124.0
224.980301 176.0
225.019547 100.0
225.051758 104.0
225.092499 3152.0
225.126984 2032.0
225.197876 112.0
225.269562 244.0
225.296448 128.0
225.338272 52.0
225.409988 100.0
225.472733 172.0
225.486633 68.0
225.49826 148.0
225.571121 96.0
225.628174 152.0
225.673233 56.0
225.7388 36.0
225.782227 136.0
225.86142 52.0
226.019073 212.0
226.047928 140.0
226.094635 404.0
226.11911 96.0
226.241455 60.0
226.30043 228.0
226.48024 172.0
226.537918 148.0
226.594849 60.0
226.816605 88.0
226.903534 108.0
227.029465 212.0
227.072144 3436.0
227.105103 1660.0
227.179428 140.0
227.224442 136.0
227.356461 128.0
227.497528 172.0
227.68219 72.0
227.800827 148.0
227.827866 100.0
227.866913 140.0
227.902969 152.0
228.073471 608.0
228.109772 984.0
228.149414 224.0
228.185501 128.0
228.260666 116.0
228.535858 164.0
228.618637 196.0
228.663773 340.0
228.684845 136.0
228.760086 88.0
228.81102 192.0
229.103394 128.0
229.290207 144.0
229.410767 136.0
229.839035 132.0
229.869217 148.0
229.953705 120.0
230.059357 140.0
230.198242 96.0
230.255615 132.0
230.313004 112.0
230.551682 156.0
230.581909 168.0
230.72699 112.0
230.778397 108.0
230.987061 84.0
231.059662 152.0
231.091888 148.0
231.456161 116.0
231.83783 40.0
232.019699 132.0
232.056076 204.0
232.087723 248.0
232.137939 56.0
232.395767 192.0
232.459488 168.0
232.641602 188.0
232.696243 100.0
232.783417 152.0
232.841995 176.0
232.908813 96.0
233.063126 156.0
233.100647 400.0
233.167068 168.0
233.337296 88.0
233.364655 184.0
233.410263 56.0
233.483246 124.0
233.57753 164.0
233.641418 168.0
233.836151 68.0
233.865402 72.0
234.062851 292.0
234.101364 456.0
234.155838 64.0
234.332504 104.0
234.701309 124.0
234.734848 148.0
234.792786 176.0
234.986389 164.0
235.045975 144.0
235.077621 1316.0
235.113297 1436.0
235.174377 216.0
235.349747 208.0
235.445877 36.0
235.54361 140.0
235.671921 180.0
235.815552 136.0
235.882782 176.0
235.959213 132.0
236.012726 168.0
236.082596 608.0
236.116409 236.0
236.246689 64.0
236.283401 72.0
236.381302 160.0
236.538925 128.0
236.580246 100.0
236.625702 104.0
236.658463 124.0
236.708832 36.0
236.733337 128.0
236.779266 76.0
236.825211 252.0
236.874451 156.0
236.917114 160.0
236.969193 96.0
237.051636 360.0
237.09198 30204.0
237.126465 1028.0
237.161545 52.0
237.169785 96.0
237.201111 108.0
237.230301 100.0
237.295868 116.0
237.327789 44.0
237.382828 76.0
237.402313 100.0
237.470078 80.0
237.511795 84.0
237.545456 144.0
237.573853 156.0
237.616089 192.0
237.653534 156.0
237.685028 72.0
237.72348 220.0
237.809418 40.0
237.895355 80.0
237.99469 420.0
238.035049 64.0
238.098328 9460.0
238.1707 120.0
238.238144 204.0
238.365265 28.0
238.404404 76.0
238.543518 60.0
238.578293 64.0
238.626526 108.0
238.650681 112.0
238.691101 60.0
238.774124 52.0
238.807953 64.0
238.864731 148.0
238.891006 144.0
238.91748 112.0
239.073227 1244.0
239.105423 3452.0
239.241821 52.0
239.279053 44.0
239.324951 112.0
239.349579 128.0
239.383453 76.0
239.416122 112.0
239.463242 88.0
239.518967 160.0
239.559006 116.0
239.597885 148.0
239.65451 36.0
239.700729 68.0
239.764053 68.0
239.811676 100.0
239.913391 124.0
240.025269 196.0
240.078964 1344.0
240.107956 696.0
240.231033 112.0
240.292725 52.0
240.32666 52.0
240.382202 136.0
240.440842 72.0
240.593536 128.0
240.640106 84.0
240.712494 96.0
240.761902 84.0
240.823685 144.0
240.87001 60.0
241.084412 1704.0
241.117386 708.0
241.179001 48.0
241.235306 116.0
241.281006 32.0
241.370667 84.0
241.469635 272.0
241.49437 48.0
241.585831 92.0
241.720215 88.0
241.927582 52.0
241.974014 56.0
242.008072 72.0
242.045227 168.0
242.085999 660.0
242.123291 184.0
242.196976 116.0
242.237244 60.0
242.333282 196.0
242.41655 156.0
242.69281 136.0
242.934723 140.0
242.965744 68.0
243.019791 104.0
243.111572 184.0
243.151917 76.0
243.175858 140.0
243.589706 28.0
243.953278 164.0
244.074539 176.0
244.186478 160.0
244.211365 204.0
244.332687 104.0
244.59407 108.0
244.647003 112.0
244.681244 48.0
244.77153 56.0
245.005127 176.0
245.099869 396.0
245.307404 56.0
245.332336 48.0
245.432892 112.0
245.538132 112.0
245.575562 168.0
245.850098 52.0
245.915649 124.0
246.077972 148.0
246.109192 128.0
246.41214 140.0
246.440262 164.0
246.829681 116.0
246.931046 104.0
247.074539 204.0
247.122284 180.0
247.165665 76.0
247.225128 144.0
247.356567 104.0
247.582001 56.0
247.707275 84.0
247.744873 184.0
247.785599 68.0
247.917206 184.0
248.082764 756.0
248.120377 308.0
248.374939 160.0
248.440811 48.0
248.509842 168.0
248.534943 200.0
248.616531 60.0
248.862671 168.0
249.018372 108.0
249.08992 1024.0
249.159729 32.0
249.279129 48.0
249.307404 108.0
249.35141 112.0
249.376541 44.0
249.530579 124.0
249.599747 72.0
249.955185 180.0
249.994263 96.0
250.098038 996.0
250.13269 100.0
250.229019 80.0
250.336075 148.0
250.562317 116.0
250.616425 148.0
250.755066 152.0
251.072388 1804.0
251.103012 976.0
251.253281 52.0
251.524673 84.0
251.688828 72.0
251.796204 84.0
251.856201 116.0
252.07814 484.0
252.107635 304.0
252.153198 212.0
252.355515 36.0
252.390289 36.0
252.425064 108.0
252.477524 212.0
252.576874 144.0
252.63382 56.0
252.773026 144.0
252.858917 84.0
252.934433 84.0
252.956589 152.0
253.029404 116.0
253.086304 2608.0
253.122955 2972.0
253.213058 88.0
253.263733 60.0
253.308075 32.0
253.431625 88.0
253.456985 60.0
253.640793 32.0
253.675659 160.0
253.832657 116.0
253.89444 180.0
253.938828 124.0
254.008621 76.0
254.053467 452.0
254.09375 2608.0
254.243393 36.0
254.335434 52.0
254.404007 60.0
254.649765 120.0
254.786362 60.0
254.834015 136.0
254.872147 88.0
255.060791 204.0
255.093246 572.0
255.12738 312.0
255.231323 72.0
255.7435 84.0
255.797607 112.0
255.909027 148.0
256.100922 276.0
256.562134 132.0
256.804474 80.0
256.884216 148.0
256.94165 168.0
257.077423 108.0
257.15863 176.0
257.299103 92.0
257.589691 88.0
257.615234 60.0
257.698029 96.0
257.877258 120.0
257.976349 96.0
258.26413 88.0
258.382477 104.0
258.526489 160.0
258.626068 168.0
258.776154 40.0
258.840179 80.0
258.952271 144.0
259.000305 96.0
259.073425 160.0
259.46817 104.0
259.545105 128.0
260.026306 56.0
260.077179 184.0
260.122589 160.0
260.575409 112.0
260.720001 60.0
260.755341 152.0
260.973938 96.0
261.092926 124.0
261.456451 196.0
261.527252 208.0
261.598053 144.0
262.071472 124.0
262.104675 160.0
262.255157 72.0
262.297058 140.0
262.503418 80.0
262.780792 160.0
262.92923 140.0
263.035736 136.0
263.069397 348.0
263.10495 1680.0
263.252045 44.0
263.313416 84.0
263.432922 136.0
263.474915 92.0
263.503998 148.0
263.594452 72.0
263.62677 68.0
263.759277 48.0
264.072906 260.0
264.104095 412.0
264.373779 64.0
264.571228 164.0
264.606842 60.0
264.710449 56.0
264.91449 120.0
265.037598 104.0
265.08606 3388.0
265.118622 732.0
265.232056 32.0
265.33255 164.0
265.37973 144.0
265.452515 164.0
265.57251 144.0
265.673065 196.0
265.699005 112.0
265.724976 200.0
265.757416 160.0
266.093658 6776.0
266.216675 148.0
266.267059 80.0
266.388 256.0
266.455444 80.0
266.601685 72.0
266.650421 144.0
266.682922 100.0
266.712189 120.0
266.809692 136.0
266.890991 160.0
266.944824 164.0
267.061584 736.0
267.100616 1988.0
267.583984 40.0
267.694702 44.0
267.750061 72.0
267.955261 96.0
268.073395 1232.0
268.105927 528.0
268.206177 76.0
268.243622 140.0
268.281158 144.0
268.423004 88.0
268.46048 120.0
268.736755 120.0
268.897644 104.0
269.079956 1004.0
269.108307 248.0
269.165344 92.0
269.279633 84.0
269.609589 156.0
269.80899 220.0
269.923431 72.0
270.077118 264.0
270.129456 92.0
270.2276 40.0
270.345398 56.0
270.42395 120.0
270.54834 116.0
270.628601 108.0
270.784088 216.0
270.852875 124.0
271.086884 148.0
271.213287 96.0
271.341125 104.0
271.819061 96.0
272.092438 148.0
272.131836 172.0
272.158081 44.0
272.193176 64.0
272.332153 184.0
272.41098 128.0
272.512817 80.0
272.805298 124.0
273.065063 88.0
273.206512 328.0
273.693604 72.0
273.729828 140.0
274.510803 148.0
274.596527 112.0
275.121185 132.0
275.176453 172.0
275.259857 144.0
275.461304 192.0
275.484436 52.0
275.914032 112.0
276.009918 148.0
276.078552 396.0
276.145508 48.0
276.27121 152.0
276.296234 128.0
276.473053 96.0
276.535919 140.0
276.903412 176.0
276.98291 128.0
277.08313 464.0
277.161804 124.0
277.294373 148.0
277.387177 76.0
277.466736 200.0
277.592926 156.0
277.901215 80.0
278.023987 116.0
278.092957 856.0
278.237701 184.0
278.345978 112.0
278.53653 232.0
278.619904 104.0
278.658203 188.0
278.781555 160.0
278.967865 160.0
279.073242 376.0
279.125092 556.0
279.326385 172.0
279.399567 64.0
279.479431 208.0
279.529327 168.0
279.841003 164.0
279.932129 160.0
280.067505 124.0
280.072754 128.0
280.111298 352.0
280.305206 80.0
280.351837 152.0
280.505157 28.0
280.598511 124.0
280.635193 108.0
280.661865 96.0
280.765228 72.0
280.818573 124.0
280.855286 148.0
280.886169 136.0
280.911987 104.0
281.025208 176.0
281.080658 8384.0
281.117645 17848.0
281.168457 168.0
281.199921 96.0
281.272369 56.0
281.302399 72.0
281.332458 40.0
281.361969 76.0
281.412567 92.0
281.481079 176.0
281.539459 76.0
281.602905 160.0
281.679749 176.0
281.753571 40.0
281.814575 132.0
281.910278 68.0
281.957886 212.0
282.043945 104.0
282.085724 3028.0
282.121857 4388.0
282.24118 136.0
282.296356 72.0
282.379761 192.0
282.413605 148.0
282.478638 72.0
282.505402 52.0
282.535522 124.0
282.57901 72.0
282.602417 36.0
282.625854 92.0
282.652618 124.0
282.682587 84.0
282.766388 80.0
282.809906 56.0
282.85965 256.0
282.900269 120.0
282.939941 172.0
283.019775 180.0
283.097137 35820.0
283.173645 44.0
283.221741 144.0
283.262482 24.0
283.307983 48.0
283.345673 64.0
283.419952 48.0
283.446198 72.0
283.484924 84.0
283.536682 112.0
283.582703 204.0
283.645233 64.0
283.690857 104.0
283.71698 64.0
283.743286 120.0
283.787445 120.0
283.821625 100.0
283.861847 120.0
283.902466 112.0
283.929932 160.0
283.995728 52.0
284.031708 112.0
284.100525 5596.0
284.144257 164.0
284.240906 72.0
284.264374 148.0
284.339172 112.0
284.432465 48.0
284.476532 152.0
284.767944 96.0
284.870087 88.0
284.883057 120.0
284.999756 176.0
285.04007 64.0
285.100555 1328.0
285.181213 108.0
285.224915 156.0
285.27533 72.0
285.319031 136.0
285.393005 248.0
285.489624 76.0
285.530884 56.0
285.638489 116.0
285.732697 56.0
285.76297 84.0
285.863922 68.0
285.921112 92.0
285.961517 120.0
286.013306 76.0
286.075958 128.0
286.119049 60.0
286.123718 228.0
286.163483 44.0
286.187042 196.0
286.220734 124.0
286.25827 108.0
286.362152 88.0
286.453094 88.0
286.480042 60.0
286.503632 52.0
286.628296 40.0
286.695679 68.0
286.739502 132.0
286.773193 152.0
286.877686 92.0
286.934998 76.0
287.077209 232.0
287.724457 80.0
288.136475 156.0
288.420319 52.0
288.450745 52.0
288.481171 76.0
288.592743 188.0
289.079803 128.0
289.105682 216.0
289.147491 216.0
289.381073 148.0
289.421692 64.0
289.499573 132.0
289.682465 80.0
289.807831 52.0
289.90271 76.0
290.011139 160.0
290.111328 180.0
290.228119 124.0
290.277679 212.0
290.306091 96.0
290.445984 188.0
290.703003 92.0
290.81839 72.0
291.10257 1272.0
291.29715 52.0
291.585968 104.0
292.107819 308.0
292.266052 116.0
292.357941 92.0
292.633667 164.0
292.763062 64.0
292.967407 72.0
293.06839 188.0
293.103699 136.0
293.260437 112.0
293.417267 172.0
293.454742 56.0
293.71051 236.0
293.75827 92.0
293.908386 108.0
294.019653 92.0
294.088989 3296.0
294.137054 148.0
294.167755 64.0
294.334534 52.0
294.697113 100.0
295.038879 48.0
295.096527 964.0
295.158539 192.0
295.288483 112.0
295.319275 256.0
295.387665 36.0
295.572418 72.0
295.596375 92.0
295.688782 32.0
295.788696 148.0
295.986603 64.0
296.096741 276.0
296.202362 56.0
296.860382 140.0
296.994141 116.0
297.323517 108.0
297.534241 132.0
297.62558 84.0
297.732056 28.0
297.756073 116.0
297.914093 120.0
297.97937 160.0
298.024017 104.0
298.109924 44.0
298.997162 68.0
299.12912 216.0
299.420624 88.0
299.458496 180.0
299.792694 56.0
299.8237 172.0
300.120148 104.0
300.292572 152.0
300.45816 88.0
300.672089 156.0
300.706604 172.0
300.913696 68.0
301.079437 128.0
301.127808 116.0
301.221069 132.0
301.431793 224.0
301.646088 156.0
302.131775 264.0
302.237457 92.0
302.272888 100.0
302.71167 116.0
302.829437 116.0
303.487854 124.0
304.075989 120.0
304.122681 104.0
304.240723 132.0
304.740814 164.0
304.782501 104.0
304.959747 40.0
305.060547 112.0
305.290009 124.0
305.446533 164.0
306.0242 96.0
306.112183 508.0
306.382935 116.0
306.511841 184.0
306.581543 124.0
306.696564 64.0
306.755798 84.0
306.937103 112.0
306.982422 96.0
307.119812 1936.0
307.177734 64.0
307.435913 188.0
307.568542 44.0
307.620911 108.0
307.767548 112.0
308.115326 372.0
308.199249 96.0
308.296661 84.0
308.333435 168.0
308.378876 144.0
308.413818 136.0
308.441803 72.0
308.481537 128.0
308.538177 192.0
308.564148 80.0
308.6026 168.0
308.627075 72.0
308.654388 152.0
308.74823 68.0
308.801697 60.0
308.844879 236.0
308.917084 284.0
308.964569 112.0
309.013489 176.0
309.049652 108.0
309.113342 53584.0
309.229675 184.0
309.317841 124.0
309.350128 136.0
309.402588 92.0
309.461334 100.0
309.503296 76.0
309.528717 132.0
309.577423 108.0
309.587372 64.0
309.600464 136.0
309.641876 48.0
309.696625 120.0
309.787415 88.0
309.811829 92.0
309.90213 136.0
309.97818 88.0
310.030762 76.0
310.061829 184.0
310.117096 9484.0
310.172211 144.0
310.262085 44.0
310.313202 120.0
310.346222 96.0
310.458435 44.0
310.48999 56.0
310.521576 68.0
310.566864 48.0
310.619781 48.0
310.703979 40.0
310.739044 36.0
310.792145 92.0
310.823273 68.0
310.86618 160.0
310.903961 108.0
310.981445 132.0
311.037323 80.0
311.119324 1788.0
311.178925 48.0
311.217651 124.0
311.253845 72.0
311.283081 68.0
311.342804 72.0
311.397491 56.0
311.446594 64.0
311.550018 28.0
311.70813 88.0
311.738525 80.0
311.806519 52.0
311.838165 60.0
311.866272 56.0
311.940094 60.0
311.97525 68.0
312.035004 80.0
312.073669 116.0
312.1185 172.0
312.175659 72.0
312.297699 96.0
312.339874 92.0
312.386688 40.0
312.425385 76.0
312.516846 64.0
312.569611 80.0
312.707642 144.0
312.759674 56.0
312.787811 64.0
312.83252 80.0
313.041321 92.0
313.072998 68.0
313.097656 144.0
313.14621 92.0
313.242065 136.0
313.275024 68.0
313.31955 44.0
313.481628 52.0
313.798859 148.0
314.049255 148.0
314.176239 124.0
314.292664 76.0
314.345581 64.0
314.783295 44.0
315.43338 112.0
315.859924 76.0
315.907196 108.0
316.098267 104.0
316.124664 144.0
316.197357 100.0
316.554901 120.0
317.065033 68.0
317.309601 96.0
317.501068 84.0
318.104248 148.0
318.146851 180.0
318.548126 96.0
318.580109 80.0
318.718658 132.0
319.017181 84.0
319.097626 2000.0
319.170074 40.0
319.223419 64.0
319.582672 224.0
319.607574 48.0
319.689423 152.0
319.934998 52.0
319.984833 124.0
320.096069 640.0
320.205627 44.0
320.248352 132.0
320.772125 84.0
321.095917 124.0
321.246399 76.0
321.328461 148.0
321.646057 48.0
322.074402 160.0
322.117493 176.0
322.449677 60.0
322.52832 108.0
322.646271 40.0
323.082581 56.0
323.526337 144.0
323.794891 60.0
324.034882 48.0
324.093414 272.0
324.429108 52.0
325.695801 28.0
325.774811 76.0
325.835876 124.0
326.026306 52.0
326.757385 128.0
327.072906 116.0
327.137726 172.0
327.551819 196.0
327.829254 64.0
328.132568 212.0
328.611694 124.0
328.968964 124.0
329.102539 164.0
329.200043 60.0
329.380615 56.0
329.485382 36.0
329.644348 84.0
330.106873 168.0
330.266174 76.0
330.928436 44.0
331.122711 128.0
332.120667 68.0
332.149689 92.0
332.864655 128.0
333.623993 92.0
333.816681 120.0
333.874878 132.0
333.969452 144.0
334.109283 1740.0
334.271393 108.0
334.861145 140.0
334.908508 84.0
335.11499 4892.0
335.240021 72.0
335.272827 44.0
335.407684 88.0
335.447784 160.0
335.480591 88.0
335.899933 44.0
335.987488 96.0
336.120087 1188.0
336.210052 48.0
336.279388 92.0
336.410797 76.0
336.724823 52.0
336.827087 52.0
336.870056 172.0
337.109741 1944.0
337.443329 88.0
337.583618 52.0
338.110535 824.0
339.051605 144.0
339.124573 128.0
339.476837 120.0
339.572205 80.0
339.744598 60.0
340.552155 56.0
340.838684 72.0
340.923218 56.0
341.1008 88.0
341.136383 132.0
342.12558 156.0
342.667328 200.0
342.881042 152.0
342.90683 112.0
343.127991 136.0
343.367676 100.0
344.125641 128.0
345.047791 188.0
345.119415 184.0
345.150238 164.0
346.126129 212.0
347.547791 80.0
348.119781 440.0
348.441803 192.0
349.122009 304.0
350.734863 104.0
351.118896 112.0
351.637482 72.0
351.693451 124.0
353.109497 156.0
353.143158 272.0
353.824188 132.0
354.097534 96.0
354.146942 308.0
355.120697 124.0
356.126617 244.0
356.539856 112.0
356.712738 40.0
357.160187 124.0
357.197815 152.0
358.131287 180.0
359.092377 100.0
361.87738 56.0
362.616028 64.0
362.84726 120.0
362.907928 84.0
365.136932 140.0
365.327118 76.0
365.445068 136.0
366.142273 124.0
367.125824 304.0
367.193512 72.0
368.025391 116.0
368.139954 104.0
368.957611 100.0
369.11438 124.0
370.132202 236.0
370.476898 64.0
370.817932 52.0
371.185944 60.0
371.891815 44.0
372.121674 128.0
372.456238 120.0
373.12796 500.0
373.436371 80.0
373.463287 68.0
374.135498 296.0
375.145996 164.0
376.075592 72.0
376.121918 100.0
376.156647 132.0
376.260864 40.0
376.612274 92.0
377.280762 88.0
377.957611 232.0
379.119293 108.0
382.119263 180.0
382.14801 324.0
382.354248 60.0
382.506042 120.0
383.141327 140.0
383.171295 144.0
383.842346 84.0
384.123138 272.0
384.156189 220.0
384.271393 84.0
384.626495 60.0
384.938843 48.0
385.10675 164.0
385.143494 188.0
385.950867 100.0
386.142487 100.0
386.169861 128.0
388.602478 192.0
388.936035 52.0
390.739746 56.0
391.26712 76.0
392.934174 88.0
393.123566 128.0
394.102844 176.0
394.146301 168.0
395.079346 112.0
395.154541 152.0
395.18222 44.0
395.292999 216.0
395.403809 60.0
395.44339 56.0
396.116516 108.0
396.144226 160.0
397.115356 96.0
398.139282 112.0
398.175018 116.0
399.168427 744.0
400.099518 88.0
400.17334 264.0
400.74472 196.0
400.800507 84.0
401.194061 256.0
401.522034 132.0
402.192291 264.0
407.582733 76.0
408.350525 160.0
409.148621 344.0
409.219727 36.0
409.95282 100.0
410.138031 652.0
410.267212 128.0
410.791443 64.0
411.045593 100.0
411.143066 364.0
412.14621 548.0
412.515717 88.0
413.146667 160.0
413.158936 132.0
413.171692 168.0
413.490479 92.0
414.146393 132.0
414.75415 104.0
415.062256 76.0
416.068451 60.0
416.535461 48.0
416.742645 56.0
417.096191 80.0
417.986847 120.0
418.454926 52.0
418.486938 128.0
422.90033 64.0
422.96991 52.0
424.182404 44.0
426.604309 132.0
427.036041 108.0
427.164856 3080.0
427.227722 100.0
427.332214 60.0
427.377472 44.0
427.426849 56.0
427.56073 68.0
427.747864 40.0
428.069 56.0
428.166199 1044.0
428.254333 56.0
428.505615 116.0
428.539673 60.0
428.843506 32.0
428.954803 68.0
429.169983 216.0
429.342346 136.0
429.585693 40.0
430.175812 236.0
430.307892 76.0
430.510223 160.0
430.609344 64.0
430.654785 68.0
431.088562 192.0
431.365479 40.0
431.563904 76.0
432.49057 76.0
433.086792 68.0
433.285614 84.0
433.704163 20.0
433.903137 76.0
434.969269 100.0
435.949432 56.0
436.244507 84.0
436.518921 84.0
436.984772 84.0
439.81015 76.0
440.86676 48.0
441.38092 64.0
441.665314 92.0
441.970703 108.0
442.397583 40.0
443.176575 60.0
443.264557 124.0
443.532776 44.0
443.847198 92.0
443.893311 124.0
444.274994 120.0
444.316956 136.0
444.828918 152.0
445.114075 152.0
445.176514 5456.0
445.328583 52.0
445.476288 48.0
445.559052 60.0
445.950409 84.0
446.059692 36.0
446.110138 76.0
446.180756 1688.0
446.240448 68.0
446.328735 100.0
446.47171 72.0
446.624603 68.0
446.740906 44.0
447.183136 452.0
447.304779 128.0
447.384766 72.0
447.460541 204.0
447.57608 76.0
447.662628 52.0
447.923767 112.0
447.995361 44.0
448.181152 128.0
448.277649 144.0
448.720245 116.0
448.922638 32.0
449.050751 144.0
449.12085 124.0
449.563812 60.0
449.682007 68.0
450.095703 124.0
450.306854 128.0
450.509583 36.0
453.475769 76.0
453.959045 120.0
453.988739 76.0
457.847412 132.0
458.192444 92.0
459.945068 84.0
460.205505 36.0
460.910248 80.0
462.158783 92.0
462.946381 68.0
466.056244 108.0
470.15564 124.0
470.397339 80.0
472.761505 168.0
473.454163 68.0
474.242645 88.0
477.94696 56.0
484.377655 48.0
484.622986 80.0
488.675446 64.0
490.049133 52.0
491.702728 56.0
493.107147 104.0
494.380798 64.0
495.877686 60.0
504.691864 88.0
505.183807 96.0
505.497009 84.0
505.622284 64.0
505.832672 64.0
507.396088 40.0
508.104675 56.0
510.880981 84.0
510.966461 40.0
515.506897 100.0
516.922302 44.0
517.320557 72.0
521.770874 148.0
523.404236 120.0
524.894226 72.0
525.00824 104.0
526.253967 92.0
536.245056 96.0
537.871826 80.0
539.961609 124.0
547.24231 92.0
548.360291 72.0
549.390747 92.0
551.099487 72.0
552.717285 140.0
560.818176 104.0
566.403076 88.0
567.972046 120.0
568.769165 52.0
571.696777 96.0
575.772766 148.0
576.298218 188.0
579.575745 96.0
581.066833 68.0
585.859863 72.0
588.802124 84.0
589.666931 36.0
590.07782 60.0
591.974487 104.0
592.110107 148.0
597.065063 72.0
597.687744 44.0
603.198669 76.0
605.429688 64.0
616.19696 52.0
617.566284 76.0
618.006531 128.0
620.175537 84.0
620.59198 48.0
620.864685 80.0
624.823425 72.0
634.101074 36.0
635.123901 84.0
637.890625 28.0
643.396606 128.0
649.443542 148.0
652.246338 68.0
656.354736 28.0
662.508179 88.0
665.631653 64.0
672.700439 104.0
673.883057 88.0
678.178162 88.0
679.038818 44.0
682.206116 60.0
682.658447 124.0
684.906738 60.0
685.0578 88.0
689.843018 172.0
692.322998 164.0
693.072083 36.0
696.671082 52.0
698.100708 92.0
701.038086 84.0
702.825623 68.0
705.989746 168.0
707.75708 40.0
708.434998 68.0
710.019775 104.0
715.088135 48.0
716.70697 96.0
720.794189 56.0
729.23999 52.0
732.980103 176.0
737.280884 56.0
744.413818 72.0
744.507629 116.0
745.920227 76.0
746.675964 224.0
748.068909 176.0
748.204956 28.0
752.402771 84.0
755.654541 56.0
758.798157 184.0
765.765808 200.0
768.720703 132.0
772.289551 172.0
772.676758 84.0
775.223755 88.0
776.559814 152.0
776.887085 148.0
777.319824 212.0
779.591003 136.0
785.604126 156.0
787.814758 112.0
788.429321 128.0
789.072144 104.0
790.789429 116.0
791.024536 152.0
793.921143 160.0
796.474792 116.0
799.364441 204.0
806.98468 72.0
807.81604 92.0
815.385437 160.0
819.858521 116.0
821.375061 100.0
821.529053 176.0
822.459167 60.0
827.644287 104.0
828.766907 68.0
830.343262 200.0
831.548096 180.0
831.639893 196.0
831.771912 188.0
831.817871 52.0
833.678711 104.0
836.68689 168.0
838.507019 160.0
840.00885 172.0
841.529663 96.0
842.21106 132.0
842.765686 120.0
845.743835 172.0
845.963806 156.0
846.340149 140.0
846.600708 176.0
847.475342 188.0
847.701355 124.0
851.588196 92.0
851.646301 200.0
852.790894 128.0
854.704102 84.0
855.903198 124.0
856.217651 168.0
858.233826 80.0
858.280457 92.0
859.114441 44.0
861.560486 52.0
861.893494 208.0
864.07428 80.0
866.46875 168.0
867.189514 124.0
867.441528 76.0
868.637756 72.0
870.79187 52.0
871.032654 28.0
872.231323 144.0
873.454407 180.0
874.413452 180.0
874.531128 128.0
874.760681 180.0
875.066833 160.0
875.149231 188.0
876.745544 212.0
877.364441 152.0
879.06897 100.0
879.449646 208.0
879.635559 32.0
879.913025 152.0
879.995667 136.0
880.13147 72.0
883.340515 112.0
885.169312 232.0
885.417969 104.0
885.500916 72.0
885.595642 152.0
885.844421 164.0
888.280701 192.0
888.36969 192.0
888.419495 132.0
888.974854 172.0
890.803528 84.0
891.023315 156.0
892.241638 56.0
894.255249 156.0
894.369629 196.0
894.77002 116.0
894.859314 92.0
899.628601 60.0
901.175415 176.0
901.665405 136.0
902.332825 228.0
903.608704 76.0
904.147217 44.0
904.308838 152.0
904.745789 188.0
906.063293 192.0
906.153137 48.0
906.302917 48.0
906.368835 160.0
908.185303 132.0
910.904358 48.0
910.982422 180.0
912.899719 92.0
913.026001 172.0
913.236511 236.0
913.53125 152.0
914.205078 240.0
916.758362 228.0
917.156128 140.0
918.187134 40.0
918.886841 232.0
919.025574 228.0
919.429871 128.0
919.997253 76.0
920.936401 180.0
921.791016 92.0
923.374878 180.0
923.598633 160.0
924.03418 64.0
924.25592 236.0
924.494019 164.0
924.705872 168.0
924.74823 172.0
925.523071 112.0
925.638123 168.0
925.716858 196.0
925.898499 152.0
926.025696 92.0
926.528442 176.0
926.964661 208.0
927.667725 180.0
927.855652 332.0
928.613647 208.0
929.663147 116.0
930.792175 176.0
930.883301 92.0
931.095825 196.0
932.499207 52.0
932.693726 216.0
932.900391 164.0
933.003723 40.0
933.1922 44.0
933.325989 176.0
933.782043 32.0
934.688477 196.0
936.356384 56.0
937.325012 196.0
937.587036 40.0
937.654053 180.0
937.971008 164.0
938.855042 180.0
939.098999 80.0
940.508423 120.0
940.606079 116.0
943.330383 68.0
943.483215 176.0
944.039612 104.0
944.106873 168.0
944.57782 180.0
944.963257 148.0
945.250793 160.0
946.174988 180.0
946.352539 172.0
946.56073 124.0
947.246643 156.0
947.730652 148.0
948.128906 172.0
948.478271 200.0
949.115845 172.0
952.356079 192.0
952.41748 160.0
953.308289 196.0
953.750793 160.0
953.812256 92.0
953.866394 168.0
954.211853 148.0
955.128113 220.0
955.460266 120.0
956.561768 136.0
956.8573 172.0
957.122009 156.0
957.663147 212.0
957.996582 156.0
958.169067 120.0
958.261475 60.0
959.081055 88.0
959.339966 180.0
959.524902 160.0
960.456055 168.0
960.610229 112.0
960.69043 180.0
962.048035 136.0
962.307312 156.0
962.511108 92.0
963.054504 232.0
963.480774 184.0
964.117188 148.0
964.487976 160.0
964.645264 152.0
965.069092 52.0
965.124756 128.0
965.866821 196.0
966.83197 92.0
967.896729 180.0
968.231079 112.0
968.540771 188.0
968.633667 208.0
969.327576 52.0
969.432922 136.0
969.680786 152.0
970.058899 116.0
972.464417 92.0
973.638855 188.0
973.750671 180.0
974.079834 40.0
974.2724 204.0
975.359863 100.0
975.521484 208.0
975.620972 108.0
976.796204 156.0
977.542786 140.0
978.333252 180.0
978.439087 120.0
978.638306 184.0
978.968323 172.0
979.248535 188.0
979.39801 48.0
979.665894 144.0
980.924622 136.0
981.053833 160.0
981.489807 152.0
981.74762 64.0
981.79126 216.0
982.090637 176.0
982.402527 164.0
982.578308 204.0
982.708191 48.0
985.917725 124.0
986.336426 160.0
986.461487 180.0
986.5802 180.0
987.180481 196.0
988.857056 160.0
989.445435 140.0
990.322083 144.0
990.397217 184.0
990.553833 128.0
990.785583 148.0
991.048767 164.0
991.568848 132.0
991.80072 188.0
992.578125 156.0
994.20282 228.0
994.271851 144.0
994.35968 108.0
994.698608 116.0
994.886963 176.0
995.615295 140.0
996.029785 156.0
996.186829 124.0
996.612793 184.0
997.355591 152.0
997.663574 156.0
998.286011 220.0
998.732544 132.0
999.673157 156.0
1000.387451 208.0
1000.488159 160.0
1000.5448 140.0
1000.639221 112.0
1000.985535 180.0
1001.237427 176.0
1001.50824 204.0
1001.760193 148.0
1002.201172 80.0
1002.42804 196.0
1003.304138 68.0
1003.386047 120.0
1003.537415 204.0
1003.97876 184.0
1004.552734 220.0
1005.739014 168.0
1006.153076 248.0
1006.894348 240.0
1007.191223 160.0
1007.380737 204.0
1007.974609 104.0
1008.063049 100.0
1009.162842 200.0
1009.403137 168.0
1010.105164 156.0
1010.244324 120.0
1010.541626 168.0
1010.699829 152.0
1011.454102 172.0
1011.547852 168.0
1012.807922 144.0
1012.940918 120.0
1013.149963 124.0
1013.549133 184.0
1014.081421 132.0
1014.471191 136.0
1014.563171 112.0
1014.683594 156.0
1015.114746 140.0
1015.440979 196.0
1016.535645 200.0
1016.6745 164.0
1017.062439 180.0
1017.309998 256.0
1017.855957 132.0
1018.052795 164.0
1018.93573 168.0
1019.170776 196.0
1019.507568 124.0
1019.907959 144.0
1019.952454 152.0
1020.162231 220.0
1020.27887 148.0
1020.537292 132.0
1020.770142 212.0
1021.67572 196.0
1022.031982 184.0
1022.345825 184.0
1022.572876 88.0
1022.668335 136.0
1023.725159 120.0
1023.833252 148.0
1024.081787 188.0
1024.234619 140.0
1024.929077 72.0
1024.992798 124.0
1025.987061 184.0
1026.057129 216.0
1026.101807 152.0
1026.401489 184.0
1026.847778 172.0
1027.153931 112.0
1027.453735 56.0
1027.645142 196.0
1027.689819 204.0
1028.544922 184.0
1028.838623 176.0
1028.896118 144.0
1029.036499 164.0
1029.509033 60.0
1030.473511 136.0
1030.566284 148.0
1030.633301 160.0
1030.746338 240.0
1031.278687 180.0
1031.470459 60.0
1031.694214 108.0
1032.26355 164.0
1032.589355 200.0
1033.075439 132.0
1033.248169 68.0
1033.395264 188.0
1033.536133 152.0
1033.63208 200.0
1033.72168 164.0
1035.245117 236.0
1035.385986 172.0
1035.482056 176.0
1035.623047 120.0
1035.821533 124.0
1036.03833 120.0
1036.109863 144.0
1036.398193 172.0
1036.55835 196.0
1037.731323 160.0
1038.629028 152.0
1039.180786 156.0
1039.289795 168.0
1039.334717 232.0
1039.520874 184.0
1039.6427 208.0
1039.694092 140.0
1039.796753 188.0
1039.854492 168.0
1040.515625 172.0
1040.584839 172.0
1041.061401 224.0
1042.018433 128.0
1042.089111 184.0
1043.072388 112.0
1043.130249 128.0
1043.220215 212.0
1043.644531 168.0
1043.895264 184.0
1044.281128 136.0
1044.390503 172.0
1044.467651 208.0
1044.609253 200.0
1044.866577 180.0
1044.917969 180.0
1044.97583 228.0
1045.265381 100.0
1045.374756 172.0
1045.863892 156.0
1046.140747 208.0
1046.211548 152.0
1046.649292 140.0
1046.733032 180.0
1047.594604 212.0
1047.731323 180.0
1047.789307 220.0
1048.607666 160.0
1048.775269 156.0
1048.923462 204.0
1049.181274 184.0
1049.32959 44.0
1049.581055 76.0
1050.116333 144.0
1050.187256 200.0
1050.477539 224.0
1050.632324 132.0
1050.754883 232.0
1051.23877 124.0
1052.574951 112.0
1053.233765 140.0
1053.498535 76.0
1053.550171 80.0
1053.653564 92.0
1053.815063 152.0
1053.995972 92.0
1054.099365 136.0
1054.332031 92.0
1055.262817 168.0
1055.39209 148.0
1055.624878 132.0
1055.741333 160.0
1055.928833 144.0
1056.168213 104.0
1056.576172 184.0
1056.698608 188.0
1056.795654 108.0
1057.222778 224.0
1057.455688 240.0
1058.931885 208.0
1059.430542 180.0
1059.663818 168.0
1060.10437 84.0
1060.285889 120.0
1060.408936 120.0
1060.454346 244.0
1060.525635 144.0
1060.901611 40.0
1061.12854 160.0
1061.548218 164.0
1062.010376 196.0
1062.062256 160.0
1062.860229 180.0
1063.054932 136.0
1063.515625 208.0
1063.646729 148.0
1064.067505 208.0
1064.223267 84.0
1064.281738 180.0
1064.469971 172.0
1064.690796 164.0
1064.937622 96.0
1065.24292 48.0
1065.775635 256.0
1065.918579 160.0
1065.983521 152.0
1066.035522 128.0
1066.581421 132.0
1066.737427 76.0
1068.512695 152.0
1068.714478 156.0
1068.981201 136.0
1069.208984 120.0
1069.63208 148.0
1069.768677 208.0
1069.827271 168.0
1069.898926 120.0
1069.996582 76.0
1070.087769 152.0
1070.71936 216.0
1070.810547 100.0
1071.110107 168.0
1071.155762 160.0
1071.325073 156.0
1071.695068 176.0
1072.230713 248.0
1072.289429 160.0
1072.42627 148.0
1072.752197 160.0
1072.817383 48.0
1072.89563 228.0
1073.016724 188.0
1073.439697 244.0
1073.606323 196.0
1074.665039 220.0
1074.81311 132.0
1076.242554 192.0
1076.320801 104.0
1076.366577 136.0
1076.458008 152.0
1076.915161 144.0
1077.202515 120.0
1077.405029 220.0
1077.829712 152.0
1078.019165 64.0
1078.189087 204.0
1079.221924 140.0
1079.785645 184.0
1080.006592 184.0
1080.232422 208.0
1080.791626 212.0
1080.857056 128.0
1080.956299 176.0
1081.249756 196.0
1081.302002 124.0
1081.35437 152.0
1081.550781 144.0
1081.609619 52.0
1082.768555 152.0
1082.932251 176.0
1083.200806 144.0
1083.475952 232.0
1083.613525 144.0
1083.665894 184.0
1083.921509 180.0
1084.609619 188.0
1084.714478 112.0
1084.786621 148.0
1085.861816 240.0
1086.012695 184.0
1086.150513 168.0
1086.307861 212.0
1086.544067 244.0
1086.852417 172.0
1087.292114 136.0
1087.403687 156.0
1087.909058 156.0
1088.007568 168.0
1088.119141 152.0
1088.171631 248.0
1088.401489 160.0
1088.677246 128.0
1089.005615 184.0
1089.051514 120.0
1089.189453 204.0
1089.248657 128.0
1089.320923 116.0
1089.807861 128.0
1090.153198 204.0
1091.016235 176.0
1091.114868 116.0
1091.226685 148.0
1091.290527 180.0
1091.759277 144.0
1091.825073 140.0
1093.147217 96.0
1093.199951 344.0
1093.700073 228.0
1093.792236 168.0
1093.864624 52.0
1094.404419 124.0
1095.26062 156.0
1095.442871 136.0
1095.543823 40.0
1095.774414 84.0
1095.853394 116.0
1096.611206 120.0
1096.657349 76.0
1097.197876 56.0
1097.666016 160.0
1097.765747 252.0
1098.028687 160.0
1098.088135 104.0
1098.536621 180.0
1099.222778 140.0
1099.414062 156.0
1099.664917 160.0
1099.856323 164.0
1100.150391 180.0
1100.338135 176.0
1100.404175 200.0
1100.873047 204.0
1100.925781 180.0
1101.31543 216.0
1101.7052 116.0
1102.055298 224.0
1102.240356 112.0
1102.656616 176.0
1103.277954 148.0
1103.463135 80.0
1103.582886 196.0
1103.747437 144.0
1103.91272 160.0
1104.230103 156.0
1104.331299 132.0
1104.37561 220.0
1104.435181 128.0
1104.811401 124.0
1105.123169 140.0
1105.169434 240.0
1105.526733 196.0
1105.928955 152.0
1106.036377 200.0
1106.095947 72.0
1106.698364 200.0
1106.830811 132.0
1107.036133 144.0
1107.148682 236.0
1107.373779 68.0
1107.48645 64.0
1108.208496 148.0
1108.254883 132.0
1109.295898 204.0
1109.348389 144.0
1109.394775 124.0
1109.633423 176.0
1109.885376 124.0
1110.084351 124.0
1110.19043 176.0
1110.27002 132.0
1110.316406 180.0
1110.442383 180.0
1110.544922 164.0
1111.052124 216.0
1111.178711 228.0
1111.258301 124.0
1112.008179 84.0
1112.087769 132.0
1112.154175 108.0
1112.863525 180.0
1113.010498 220.0
1113.488647 220.0
1113.614868 124.0
1113.767578 180.0
1114.212646 128.0
1114.358887 44.0
1114.737549 112.0
1114.897095 148.0
1115.023315 152.0
1115.222656 64.0
1115.368896 136.0
1115.614868 216.0
1116.286377 404.0
1116.386108 160.0
1116.838379 152.0
1117.05127 188.0
1117.357178 116.0
1117.543457 140.0
1117.709839 172.0
1117.769775 224.0
1118.348755 144.0
1119.600342 116.0
1119.733521 104.0
1120.559448 232.0
1121.019287 140.0
1121.185791 144.0
1121.512451 124.0
1121.565674 160.0
1121.90564 136.0
1122.105713 136.0
1122.352417 144.0
1122.945923 100.0
1123.012573 152.0
1123.464233 152.0
1123.606201 76.0
1123.679688 76.0
1123.886597 148.0
1124.113281 172.0
1124.293457 176.0
1124.386963 148.0
1125.722046 180.0
1125.969116 132.0
1126.014038 116.0
1126.082642 112.0
1126.32312 184.0
1126.757324 44.0
1126.904297 96.0
1127.29187 84.0
1127.39209 192.0
1127.565796 204.0
1127.846558 144.0
1127.926758 176.0
1128.140625 216.0
1128.983154 164.0
1129.203735 196.0
1129.437866 164.0
1129.531494 152.0
1130.073364 224.0
1130.769287 132.0
1130.963379 160.0
1131.099121 180.0
1131.19104 100.0
1131.418579 132.0
1131.55249 224.0
1131.820312 68.0
1131.957153 184.0
1133.099487 220.0
1133.702515 164.0
1134.138184 64.0
1134.560547 236.0
1134.942627 80.0
1135.056641 124.0
1135.432129 152.0
1135.653442 156.0
1135.86145 132.0
1136.055176 104.0
1136.243774 200.0
1136.475098 152.0
1136.733521 72.0
1136.948242 184.0
1137.022095 112.0
1137.129517 156.0
1137.290527 180.0
1137.371094 172.0
1137.45166 156.0
1137.686646 100.0
1138.096191 164.0
1138.17981 180.0
1138.774414 180.0
1139.016235 216.0
1139.224365 176.0
1139.59729 168.0
1139.782104 188.0
1140.615356 120.0
1140.788208 216.0
1140.812744 152.0
1140.837769 176.0
1140.951538 152.0
1141.254028 92.0
1141.42041 184.0
1141.502808 140.0
1141.570068 108.0
1142.565552 208.0
1142.720215 152.0
1142.801025 200.0
1142.908569 204.0
1142.982666 184.0
1143.137451 224.0
1143.628662 84.0
1143.768555 188.0
1143.864258 160.0
1143.951782 144.0
1144.328735 188.0
1144.502075 132.0
1144.874146 124.0
1145.443481 196.0
1145.972046 140.0
1146.201172 168.0
1146.314087 176.0
1146.336182 132.0
1146.351196 180.0
1146.430298 168.0
1146.484253 92.0
1146.671753 48.0
1147.117798 136.0
1147.191895 52.0
1147.265991 180.0
1147.360474 124.0
1147.414307 176.0
1147.71875 136.0
1147.953735 168.0
1148.088623 68.0
1148.85083 184.0
1149.107178 164.0
1149.194824 188.0
1149.356812 164.0
1149.842651 28.0
1150.335327 120.0
1150.605347 164.0
1151.881714 84.0
1151.969482 120.0
1152.199219 204.0
1152.489746 112.0
1152.658569 148.0
1152.782471 160.0
1152.929077 176.0
1153.334473 192.0
1153.557495 104.0
1153.672363 52.0
1153.868408 56.0
1153.983398 128.0
1154.302124 208.0
1154.470215 152.0
1154.517578 156.0
1154.612183 240.0
1154.720459 144.0
1154.984253 148.0
1155.829834 132.0
1155.960327 152.0
1156.567505 168.0
1156.777344 156.0
1157.257935 128.0
1157.352783 152.0
1157.521362 204.0
1157.637817 156.0
1157.792236 148.0
1158.199341 48.0
1158.266968 204.0
1158.434204 192.0
1158.598999 84.0
1159.134155 56.0
1159.262939 180.0
1159.63562 144.0
1159.737305 200.0
1159.994873 180.0
1160.706787 204.0
1161.323853 188.0
1161.432373 128.0
1162.327881 164.0
1162.857178 200.0
1163.359497 224.0
1163.583496 92.0
1163.696167 20.0
1163.984131 48.0
1164.323608 176.0
1164.391479 204.0
1164.635986 180.0
1165.196167 156.0
1165.686523 140.0
1166.728882 92.0
1166.871704 172.0
1166.946533 136.0
1167.093872 160.0
1167.170898 176.0
1167.497314 76.0
1167.612915 140.0
1167.660522 180.0
1167.70813 120.0
1168.105713 140.0
1168.408691 204.0
1168.521973 152.0
1168.653564 200.0
1168.803345 192.0
1168.857788 48.0
1168.924438 160.0
1169.415771 184.0
1169.572266 160.0
1170.035156 116.0
1170.491333 132.0
1170.770508 240.0
1170.893066 160.0
1171.328979 148.0
1171.424438 112.0
1171.676392 156.0
1172.15332 136.0
1172.20105 208.0
1172.425903 84.0
1172.582642 136.0
1173.196167 144.0
1173.291626 196.0
1174.647949 200.0
1174.750977 176.0
1174.798706 220.0
1175.146606 132.0
1175.576416 144.0
1175.631104 156.0
1175.97229 140.0
1176.252075 164.0
1176.299927 40.0
1176.422729 196.0
1176.531982 140.0
1176.661743 120.0
1176.736816 72.0
1176.955322 56.0
1177.056519 112.0
1177.1875 72.0
1177.248901 152.0
1177.351318 188.0
1177.501587 176.0
1178.123169 168.0
1178.423706 52.0
1178.86792 180.0
1179.206787 156.0
1179.723267 196.0
1179.858887 192.0
1180.029907 152.0
1180.487915 204.0
1180.604248 148.0
1180.884644 144.0
1181.144531 144.0
1181.33606 160.0
1182.00647 156.0
1182.136475 68.0
1183.128906 132.0
1183.354858 148.0
1183.483398 136.0
1183.63562 156.0
1183.841064 132.0
1184.060181 148.0
1184.251953 152.0
1184.499756 172.0
1185.101318 180.0
1185.231567 152.0
1185.457642 160.0
1185.820923 152.0
1185.915894 148.0
1186.033325 148.0
1186.081299 184.0
1186.15918 172.0
1186.266357 156.0
1186.4104 152.0
1186.667114 244.0
1186.828613 200.0
1187.082764 168.0
1187.459473 48.0
1187.822998 148.0
1187.960205 60.0
1188.179688 56.0
1188.385498 176.0
1188.451416 196.0
1188.496582 148.0
1188.680542 164.0
1188.762939 152.0
1188.872681 168.0
1189.037354 148.0
1189.119751 116.0
1189.229492 148.0
1189.703125 100.0
1189.768921 244.0
1190.135742 132.0
1190.630127 164.0
1190.691895 156.0
1191.011719 184.0
1191.158936 184.0
1191.282593 168.0
1191.584839 120.0
1191.825317 196.0
1191.907837 156.0
1192.67749 148.0
1193.007446 172.0
1193.069336 152.0
1193.165527 180.0
1193.282349 156.0
1193.43689 144.0
1193.571167 148.0
1193.722412 120.0
1194.410156 104.0
1194.568359 132.0
1194.8573 136.0
1195.118774 176.0
1195.342651 184.0
1195.421509 192.0
1195.510986 152.0
1195.600464 168.0
1195.676147 376.0
1196.502075 36.0
1196.681152 116.0
1197.342163 108.0
1197.438599 192.0
1197.486816 120.0
1197.564209 132.0
1197.693359 384.0
1197.762329 212.0
1198.671631 56.0
1198.802612 120.0
1198.85083 192.0
1198.912842 60.0
1199.34021 152.0
1199.540039 168.0
1199.595215 160.0
1199.712402 156.0
1199.843384 120.0
1199.946777 152.0
1200.167358 172.0
1200.560425 184.0
1200.960449 140.0
1201.036255 208.0
1201.132935 96.0
1201.381226 132.0
1201.946899 92.0
1202.166016 188.0
1202.492065 100.0
1202.561157 196.0
1202.650879 152.0
1202.90625 188.0
1203.168579 172.0
1203.223755 216.0
1203.534424 200.0
1203.783081 216.0
1203.934937 120.0
1204.067383 176.0
1204.197388 244.0
1204.411499 172.0
1204.901367 172.0
1205.150635 176.0
1205.268188 152.0
1205.356079 172.0
1205.841675 196.0
1205.936768 204.0
1206.007568 172.0
1206.297852 116.0
1206.595093 192.0
1206.910889 148.0
1207.314209 144.0
1207.466309 96.0
1207.521729 176.0
1207.726318 172.0
1207.998901 236.0
1208.086792 160.0
1208.137329 116.0
1208.372559 168.0
1208.566284 148.0
1208.642334 172.0
1208.829224 124.0
1209.500488 152.0
1209.611206 76.0
1210.392456 396.0
1210.504272 188.0
1210.552734 156.0
1210.629028 108.0
1210.746704 120.0
1210.918213 172.0
1211.009888 196.0
1211.155273 120.0
1211.425415 164.0
1211.93811 332.0
1212.326172 112.0
1212.446167 228.0
1212.5271 156.0
1212.589478 208.0
1212.991455 160.0
1213.608521 48.0
1213.704956 144.0
1214.170166 132.0
1214.232544 120.0
1214.399048 256.0
1214.454468 128.0
1214.674561 352.0
1214.740967 176.0
1214.815186 36.0
1215.418823 196.0
1216.286255 156.0
1216.702759 256.0
1216.827759 144.0
1217.147095 68.0
1217.292969 164.0
1218.008301 252.0
1218.112427 120.0
1218.174927 180.0
1218.272217 188.0
1218.355591 124.0
1218.411133 156.0
1218.834961 128.0
1219.064209 128.0
1219.578491 124.0
1219.710571 108.0
1219.828735 124.0
1219.884399 84.0
1220.14856 188.0
1220.357056 140.0
1220.788208 240.0
1221.038574 188.0
1221.337646 184.0
1221.421143 172.0
1221.476807 172.0
1221.532349 60.0
1221.594971 100.0
1221.796753 204.0
1221.842041 164.0
1222.186401 76.0
1222.276855 168.0
1222.95874 144.0
1223.647949 164.0
1223.724487 144.0
1223.86377 116.0
1223.93103 388.0
1224.197998 236.0
1224.330322 240.0
1224.553101 144.0
1224.80603 208.0
1224.901367 124.0
1225.089478 144.0
1225.904663 200.0
1225.995239 168.0
1226.105835 172.0
1226.22522 40.0
1226.287964 152.0
1226.476196 164.0
1226.559814 164.0
1226.755005 164.0
1227.012939 200.0
1227.222046 220.0
1227.765503 172.0
1228.149536 120.0
1228.302979 156.0
1228.470337 156.0
1228.728516 140.0
1228.819214 164.0
1228.972656 108.0
1229.028564 240.0
1229.265747 60.0
1229.793823 172.0
1229.82019 116.0
1230.012451 144.0
1230.459229 132.0
1230.640747 36.0
1230.815308 172.0
1230.878174 120.0
1230.968994 196.0
1231.122559 36.0
1231.220337 152.0
1231.332153 116.0
1231.548584 164.0
1231.819336 240.0
1231.925781 224.0
1232.275146 196.0
1232.351929 140.0
1232.449707 132.0
1232.519653 80.0
1232.645386 236.0
1232.802734 384.0
1232.945923 196.0
1233.682251 180.0
1233.952393 80.0
1234.455811 144.0
1234.542603 196.0
1235.302124 120.0
1235.651855 108.0
1236.113647 176.0
1236.400635 92.0
1236.456543 168.0
1236.561523 116.0
1236.981445 180.0
1237.352539 208.0
1237.439209 244.0
1237.527588 200.0
1237.751587 196.0
1237.968628 164.0
1238.143799 160.0
1238.332886 256.0
1238.409912 168.0
1238.507935 196.0
1238.570923 196.0
1238.858154 124.0
1239.082397 80.0
1239.24353 144.0
1239.509766 196.0
1239.649902 180.0
1239.965088 200.0
1240.03186 152.0
1240.231567 144.0
1240.567993 128.0
1240.820435 132.0
1241.156982 132.0
1241.514526 156.0
1241.633789 124.0
1242.047607 144.0
1242.162964 212.0
1242.629761 140.0
1242.707031 148.0
1242.798218 136.0
1243.078857 116.0
1243.266357 144.0
1243.28479 220.0
1243.674438 156.0
1244.180786 240.0
1244.805908 112.0
1245.002319 168.0
1245.093628 216.0
1245.177856 124.0
1245.374512 160.0
1245.662476 232.0
1246.245605 36.0
1246.498535 188.0
1246.863892 168.0
1246.96936 116.0
1247.116943 72.0
1247.42627 84.0
1247.482422 128.0
1247.791748 116.0
1248.375366 136.0
1248.523071 144.0
1248.635498 144.0
1249.11377 204.0
1249.240479 184.0
1249.443237 192.0
1249.531006 104.0
1249.690674 176.0
1249.73999 180.0
1249.824341 168.0
1249.965088 140.0
1250.098755 136.0
1250.345093 156.0
1250.556274 48.0
1250.661865 196.0
1250.753296 128.0
1251.330566 144.0
1251.469604 148.0
1251.591064 176.0
1251.738892 148.0
1251.809326 128.0
1252.844727 180.0
1253.006714 148.0
1253.514038 104.0
1253.591553 196.0
1253.922729 188.0
1254.021362 84.0
1254.111572 152.0
1254.377319 184.0
1254.500732 188.0
1254.550049 220.0
1254.754517 140.0
1254.86731 148.0
1255.103638 168.0
1255.166504 156.0
1255.381958 140.0
1255.55835 112.0
1255.798462 224.0
1255.953247 108.0
1256.002686 88.0
1256.150757 132.0
1256.214233 100.0
1256.447021 196.0
1256.517578 244.0
1256.891479 172.0
1257.005615 204.0
1257.279663 160.0
1257.420776 60.0
1257.844238 128.0
1258.006592 124.0
1258.077148 164.0
1258.232544 144.0
1258.42334 156.0
1258.514893 112.0
1258.790283 132.0
1259.108032 64.0
1259.449585 196.0
1259.680176 180.0
1259.842651 132.0
1260.068726 92.0
1260.535034 200.0
1260.73291 160.0
1260.909546 212.0
1261.029663 80.0
1261.206421 144.0
1261.474976 144.0
1261.616333 208.0
1262.040405 184.0
1262.252686 44.0
1262.546631 100.0
1262.599243 172.0
1262.832642 204.0
1262.931641 84.0
1263.101318 208.0
1263.200439 324.0
1263.426758 208.0
1263.723877 156.0
1264.180298 128.0
1264.445679 136.0
1264.509399 172.0
1264.70752 108.0
1264.856201 236.0
1264.94104 124.0
1265.118042 52.0
1265.750366 164.0
1266.035034 116.0
1266.047729 168.0
1266.229736 160.0
1266.364258 184.0
1266.63623 352.0
1266.768066 144.0
1267.207275 104.0
1267.582764 156.0
1267.639404 152.0
1268.036255 164.0
1268.305664 192.0
1268.638794 204.0
1268.858521 168.0
1268.979004 144.0
1269.273315 112.0
1269.319336 212.0
1269.773193 172.0
1270.106567 116.0
1270.285034 184.0
1270.61731 164.0
1270.894043 152.0
1270.950806 156.0
1271.355225 196.0
1271.513794 176.0
1271.603638 204.0
1272.270874 136.0
1272.398682 148.0
1272.554199 220.0
1272.675537 152.0
1272.932861 240.0
1273.05188 172.0
1273.115723 108.0
1274.586182 152.0
1274.856201 112.0
1275.030151 108.0
1275.154663 124.0
1275.204468 132.0
1275.410522 128.0
1275.559814 140.0
1275.822876 76.0
1276.53479 168.0
1276.770752 224.0
1276.946289 96.0
1277.038696 196.0
1277.109863 168.0
1277.19519 152.0
1277.415771 204.0
1277.52124 168.0
1277.608521 208.0
1277.664673 172.0
1277.750122 172.0
1277.909302 224.0
1278.022583 148.0
1278.255249 140.0
1278.603516 172.0
1278.945557 172.0
1278.995361 164.0
1279.063477 284.0
1279.159058 160.0
1279.216064 156.0
1279.47229 160.0
1279.522095 56.0
1279.692871 160.0
1279.897217 204.0
1280.143188 164.0
1280.298218 228.0
1280.440674 180.0
1280.782471 144.0
1281.110229 184.0
1281.359497 116.0
1281.416504 328.0
1281.687256 160.0
1281.794189 168.0
1282.107666 164.0
1282.37854 124.0
1282.428345 68.0
1282.506836 192.0
1282.606567 224.0
1282.770508 160.0
1282.870361 160.0
1283.072754 184.0
1283.255249 136.0
1283.312378 136.0
1283.476318 148.0
1283.583252 128.0
1283.676025 220.0
1283.818604 172.0
1283.932739 316.0
1284.381958 116.0
1284.439087 216.0
1284.603149 68.0
1284.688721 148.0
1284.767212 144.0
1284.852783 132.0
1285.145386 72.0
1285.216675 148.0
1285.338013 164.0
1285.409302 140.0
1286.08728 84.0
1286.422729 256.0
1286.622681 116.0
1286.776245 200.0
1287.022461 124.0
1287.20813 84.0
1287.421143 160.0
1287.779419 152.0
1288.000488 148.0
1288.452148 224.0
1288.622314 140.0
1288.865234 168.0
1289.122437 184.0
1289.343994 156.0
1289.415527 124.0
1289.509644 92.0
1289.922974 204.0
1290.040894 152.0
1290.150635 132.0
1290.258911 188.0
1290.440796 168.0
1290.545776 172.0
1290.666504 160.0
1290.734375 164.0
1290.815918 136.0
1290.93811 104.0
1291.124146 192.0
1291.331543 228.0
1291.926514 192.0
1292.417358 188.0
1292.547607 224.0
1292.652466 192.0
1292.705078 92.0
1292.787476 192.0
1292.905396 36.0
1292.991333 148.0
1293.535278 68.0
1293.651855 96.0
1293.933105 220.0
1294.265503 92.0
1294.773926 88.0
1295.017334 132.0
1295.669189 44.0
1295.819702 148.0
1295.948608 236.0
1296.063232 164.0
1296.385742 172.0
1297.152588 168.0
1297.331787 176.0
1297.539673 140.0
1297.640747 212.0
1297.790649 172.0
1298.261963 164.0
1298.304688 396.0
1298.428833 216.0
1298.600952 228.0
1298.851929 208.0
1298.973877 172.0
1299.192749 152.0
1299.284912 188.0
1299.356567 180.0
1299.418701 184.0
1299.705688 124.0
1300.164917 124.0
1300.351562 180.0
1300.681641 120.0
1300.753418 168.0
1301.019043 68.0
1301.119507 132.0
1301.284668 208.0
1301.464111 56.0
1301.571899 156.0
1301.830322 180.0
1302.21814 176.0
1302.340332 120.0
1302.627563 148.0
1302.685059 180.0
1302.773682 192.0
1302.857422 164.0
1303.015503 232.0
1303.0802 160.0
1303.223877 192.0
1303.324463 200.0
1303.547241 308.0
1304.103394 84.0
1304.783447 128.0
1304.884033 236.0
1304.962402 144.0
1305.373047 140.0
1305.495239 100.0
1305.588745 184.0
1305.710938 168.0
1305.862061 160.0
1306.360107 196.0
1306.44458 200.0
1306.624512 148.0
1306.825928 152.0
1307.546753 128.0
1307.804565 220.0
1308.070923 164.0
1308.243652 168.0
1308.488403 44.0
1308.718872 188.0
1308.898804 188.0
1309.504639 116.0
1309.569946 184.0
1309.651733 196.0
1309.718018 188.0
1309.784668 184.0
1309.928711 120.0
1310.022339 184.0
1310.245728 264.0
1310.548218 148.0
1311.074097 136.0
1311.27832 172.0
1311.499512 180.0
1311.672485 236.0
1311.874268 28.0
1312.075439 200.0
1312.566406 232.0
1312.706055 228.0
1313.391846 236.0
1313.518433 244.0
1313.667114 216.0
1313.79248 244.0
1313.94397 132.0
1314.090332 180.0
1314.762329 216.0
1315.15625 104.0
1315.24292 152.0
1315.358398 156.0
1315.560547 160.0
1315.769897 204.0
1315.892578 140.0
1316.000854 144.0
1316.138062 152.0
1316.260864 92.0
1316.593018 176.0
1316.68689 164.0
1316.811646 204.0
1316.896362 76.0
1317.170776 336.0
1317.329712 168.0
1317.709717 164.0
1318.001587 204.0
1318.119141 144.0
1318.543579 128.0
1318.630249 160.0
1318.781982 132.0
1319.092896 232.0
1319.403687 260.0
1319.736206 160.0
1320.242432 192.0
1320.543823 172.0
1320.654663 184.0
1320.777588 56.0
1321.218872 252.0
1321.710815 152.0
1321.783203 132.0
1321.927856 168.0
1322.029175 220.0
1322.210083 164.0
1322.275269 108.0
1322.398315 196.0
1322.463379 160.0
1322.78186 200.0
1323.113892 152.0
1323.172852 184.0
1323.621704 140.0
1323.68689 144.0
1323.757812 192.0
1323.889648 104.0
1323.983765 152.0
1324.273438 64.0
1324.345947 160.0
1324.563232 84.0
1325.060669 232.0
1325.309326 120.0
1325.425293 168.0
1325.613647 236.0
1325.997803 196.0
1326.599365 192.0
1326.802368 148.0
1327.092285 216.0
1327.302612 124.0
1327.621704 52.0
1327.744995 176.0
1328.375977 188.0
1328.825684 148.0
1328.920044 240.0
1329.123169 168.0
1329.203003 248.0
1329.464233 160.0
1329.943237 184.0
1330.349731 180.0
1330.43689 192.0
1330.654663 360.0
1330.734497 176.0
1331.068481 56.0
1331.141113 140.0
1331.402466 168.0
1331.526489 224.0
1331.939941 180.0
1332.156616 164.0
1332.184204 136.0
1332.197876 236.0
1332.281372 180.0
1332.339478 148.0
1332.680908 184.0
1332.953125 184.0
1333.044312 144.0
1333.305908 80.0
1333.516602 56.0
1333.880005 32.0
1333.996338 168.0
1334.132202 132.0
1334.338013 76.0
1334.563354 120.0
1334.723389 156.0
1334.905151 216.0
1335.057861 176.0
1335.152344 180.0
1335.217896 172.0
1335.399658 164.0
1335.625122 120.0
1335.83606 168.0
1335.894287 120.0
1335.952515 140.0
1336.090698 168.0
1336.233032 188.0
1336.322632 260.0
1336.476318 132.0
1336.643677 228.0
1336.854614 112.0
1336.923462 132.0
1337.06604 160.0
1337.182129 148.0
1337.724487 148.0
1337.917236 176.0
1338.223022 148.0
1338.557983 120.0
1338.630859 128.0
1339.002197 192.0
1339.665039 148.0
1339.723267 120.0
1339.83252 56.0
1340.36438 204.0
1340.459106 72.0
1340.604858 176.0
1340.823486 160.0
1341.187866 164.0
1341.447144 184.0
1341.822144 148.0
1341.960938 188.0
1342.150146 196.0
1342.223145 152.0
1342.420044 188.0
1342.843018 52.0
1342.918335 176.0
1342.988892 168.0
1343.112793 160.0
1343.368164 132.0
1343.473633 68.0
1343.587036 164.0
1343.966309 116.0
1344.126831 132.0
1344.31665 280.0
1344.593872 100.0
1344.885864 128.0
1345.126709 152.0
1345.272705 196.0
1345.499023 140.0
1345.550171 148.0
1345.696167 132.0
1345.90686 144.0
1345.995483 176.0
1346.126953 164.0
1346.185303 168.0
1346.382446 132.0
1346.477417 180.0
1346.718506 188.0
1347.07312 176.0
1347.394775 216.0
1347.470825 172.0
1347.529297 188.0
1347.719238 240.0
1347.853516 176.0
1348.05542 228.0
1348.545044 68.0
1348.596191 176.0
1348.895874 144.0
1348.998169 148.0
1349.085938 180.0
1349.26416 132.0
1349.575684 148.0
1350.255737 144.0
1350.645752 152.0
1350.738525 200.0
1350.840942 168.0
1350.939575 148.0
1351.148193 156.0
1351.294434 180.0
1351.472656 244.0
1351.543213 204.0
1351.696899 132.0
1351.748047 156.0
1351.821289 112.0
1351.953003 116.0
1352.223755 168.0
1352.472656 64.0
1352.606689 260.0
1352.911865 188.0
1353.138794 68.0
1353.336426 176.0
1353.453613 140.0
1353.945923 188.0
1354.288452 204.0
1354.339722 228.0
1354.464233 284.0
1354.5448 144.0
1354.727905 168.0
1354.793823 180.0
1355.013672 164.0
1355.094238 144.0
1355.182129 180.0
1355.387329 140.0
1355.533813 120.0
1355.61438 188.0
1355.863525 176.0
1356.354614 208.0
1356.435303 48.0
1356.926392 152.0
1357.198975 156.0
1357.413208 184.0
1357.4729 148.0
1357.79895 140.0
1358.065186 264.0
1358.126953 236.0
1358.217041 236.0
1358.451782 156.0
1358.818604 144.0
1359.207397 224.0
1359.310181 172.0
1359.434937 144.0
1359.926636 136.0
1360.000244 132.0
1360.645996 108.0
1360.704712 180.0
1360.995239 152.0
1361.057129 236.0
1361.262695 152.0
1361.539551 164.0
1361.666626 184.0
1361.945679 220.0
1362.092651 140.0
1362.239868 156.0
1362.298218 244.0
1362.530884 188.0
1362.599487 52.0
1362.790527 40.0
1362.921753 148.0
1363.069702 232.0
1363.133911 164.0
1363.260742 148.0
1363.312134 164.0
1363.492798 188.0
1363.767822 212.0
1364.245605 112.0
1364.311768 120.0
1364.487305 164.0
1364.635254 144.0
1364.745483 168.0
1364.819092 180.0
1364.885254 188.0
1365.010254 224.0
1365.0802 208.0
1365.311768 52.0
1365.648438 236.0
1365.694214 308.0
1365.883911 196.0
1365.897949 220.0
1366.054565 92.0
1366.400391 72.0
1366.702148 140.0
1366.907959 184.0
1366.974243 156.0
1367.209717 144.0
1367.283325 136.0
1367.496704 76.0
1367.702881 124.0
1367.889526 244.0
1368.085571 72.0
1368.571533 192.0
1368.644897 128.0
1368.669312 124.0
1368.683716 164.0
1368.863892 196.0
1368.932251 120.0
1369.013306 140.0
1369.07959 160.0
1369.462524 140.0
1369.698242 168.0
1369.823486 200.0
1369.919189 40.0
1370.037109 132.0
1370.110718 88.0
1370.433105 108.0
1370.619141 244.0
1370.913818 224.0
1371.274902 296.0
1371.415039 176.0
1371.540283 148.0
1371.680298 156.0
1371.761475 40.0
1371.938354 144.0
1372.071045 176.0
1372.28479 132.0
1372.41748 156.0
1372.551392 192.0
1372.771484 284.0
1372.859985 200.0
1373.083252 192.0
1373.154907 196.0
1373.331909 148.0
1373.545898 212.0
1373.752441 140.0
1373.870483 168.0
1373.951538 144.0
1374.017944 140.0
1374.084351 164.0
1374.309692 184.0
1374.622925 152.0
1374.718872 156.0
1374.866455 120.0
1374.932861 208.0
1374.991943 104.0
1375.05835 160.0
1375.127808 216.0
1375.309326 176.0
1375.442139 40.0
1375.82605 44.0
1376.165649 156.0
1376.494507 396.0
1376.63269 184.0
1376.697266 176.0
1376.771118 132.0
1376.837524 140.0
1376.904053 184.0
1377.022217 160.0
1377.184692 136.0
1377.472778 164.0
1377.806274 140.0
1378.130249 172.0
1378.255859 148.0
1378.447998 152.0
1378.898682 76.0
1379.083496 196.0
1379.23877 244.0
1379.438477 224.0
1379.471069 172.0
1379.556519 356.0
1379.630493 124.0
1380.096313 176.0
1380.155396 148.0
1380.303345 52.0
1380.599121 168.0
1380.717407 156.0
1380.798706 116.0
1381.19812 92.0
1381.279541 120.0
1381.671509 104.0
1381.880371 140.0
1382.041504 136.0
1382.223267 216.0
1382.317749 192.0
1382.491943 160.0
1382.673828 116.0
1382.929443 108.0
1383.329224 132.0
1383.417969 204.0
1383.669678 192.0
1383.847412 136.0
1383.936279 156.0
1384.136963 220.0
1384.328735 156.0
1384.412231 248.0
1384.594849 168.0
1385.224854 100.0
1385.343384 196.0
1385.439697 180.0
1385.498901 36.0
1385.761841 172.0
1385.876709 136.0
1386.081177 208.0
1386.232422 172.0
1386.462158 96.0
1387.136597 64.0
1387.188477 176.0
1387.440552 48.0
1387.978882 260.0
1388.122681 184.0
1388.174561 108.0
1388.345093 116.0
1388.604614 128.0
1388.753052 216.0
1388.856812 324.0
1389.051147 124.0
1389.123901 180.0
1389.183228 224.0
1389.335083 176.0
1389.739624 176.0
1389.806396 148.0
1389.982056 208.0
1390.125488 176.0
1390.240845 224.0
1390.54248 196.0
1390.630127 160.0
1390.682007 156.0
1391.209106 188.0
1391.498535 120.0
1391.572632 184.0
1391.782227 220.0
1391.869751 128.0
1391.977661 152.0
1392.137085 128.0
1392.389404 176.0
1392.60498 68.0
1392.86499 192.0
1393.035767 276.0
1393.095215 116.0
1393.206665 148.0
1393.28833 184.0
1393.582153 144.0
1393.734131 176.0
1394.142822 152.0
1394.804321 68.0
1394.873291 156.0
1395.137085 156.0
1395.272583 148.0
1395.62207 136.0
1395.674072 148.0
1395.778198 152.0
1396.031006 160.0
1396.113037 152.0
1396.224365 224.0
1396.633423 172.0
1396.953369 180.0
1397.141357 136.0
1397.258301 108.0
1397.593018 192.0
1397.645142 152.0
1397.786499 200.0
1397.853516 152.0
1398.009766 152.0
1398.216553 156.0
1398.545532 108.0
1398.619995 152.0
1398.925781 188.0
1399.20813 128.0
1399.260132 164.0
1399.536255 156.0
1399.638428 204.0
1399.744141 152.0
1399.94519 164.0
1400.488892 52.0
1400.645264 172.0
1401.239258 232.0
1401.338013 188.0
1401.509399 172.0
1401.576538 48.0
1401.708008 136.0
1401.800049 180.0
1401.889404 64.0
1401.99585 212.0
1402.224854 200.0
1402.321655 180.0
1402.515503 172.0
1402.724121 164.0
1403.029785 116.0
1403.283325 136.0
1403.380249 192.0
1403.439819 152.0
1403.797729 168.0
1403.917114 72.0
1404.066284 236.0
1404.158203 204.0
1404.379517 204.0
1404.491333 132.0
1404.715088 56.0
1405.073242 312.0
1405.213013 228.0
1405.274292 212.0
1405.52832 304.0
1405.714844 196.0
1406.072998 196.0
1406.371582 52.0
1406.446167 92.0
1406.580566 180.0
1406.677612 428.0
1406.864258 148.0
1407.103149 132.0
1407.439087 172.0
1407.56604 176.0
1407.737793 108.0
1407.790039 144.0
1407.894531 152.0
1408.118652 208.0
1408.417358 220.0
1408.55188 136.0
1409.104614 140.0
1409.650391 200.0
1409.851807 116.0
1410.143311 216.0
1410.210571 60.0
1410.345093 212.0
1410.479858 108.0
1410.756226 204.0
1411.10498 200.0
1411.219727 128.0
1411.302002 84.0
1411.388184 180.0
1411.54126 132.0
1411.840332 224.0
1412.019775 180.0
1412.07959 112.0
1412.158691 188.0
1412.21228 232.0
1412.588257 156.0
1412.640625 76.0
1412.707886 128.0
1413.05957 148.0
1413.189209 192.0
1413.259033 216.0
1413.351318 192.0
1413.448608 144.0
1413.860107 76.0
1413.942505 160.0
1414.017334 188.0
1414.481323 48.0
1414.653564 116.0
1414.967896 192.0
1415.034912 136.0
1415.177612 124.0
1415.401855 192.0
1415.469604 140.0
1415.626831 104.0
1415.855713 164.0
1416.188477 64.0
1416.413208 48.0
1416.480591 100.0
1416.630493 148.0
1417.027466 180.0
1417.199829 164.0
1417.267212 116.0
1417.619751 156.0
1417.739258 120.0
1418.039062 140.0
1418.376343 172.0
1418.458862 168.0
1418.736206 68.0
1418.965576 140.0
1419.238525 144.0
1419.403442 116.0
1419.72583 140.0
1419.875854 144.0
1419.943359 216.0
1420.160889 184.0
1420.280884 96.0
1420.348389 176.0
1420.445923 40.0
1420.640869 124.0
1420.970947 236.0
1421.158569 172.0
1421.26355 176.0
1421.353638 140.0
1421.59375 140.0
1421.886475 120.0
1422.026978 52.0
1422.20166 112.0
1422.659546 100.0
1422.852783 156.0
1423.012329 120.0
1423.087402 180.0
1423.200073 156.0
1423.357788 44.0
1423.410278 160.0
1423.613037 168.0
1423.688599 180.0
1423.80188 144.0
1423.988525 148.0
1424.174194 156.0
1424.28894 160.0
1424.37915 172.0
1424.55188 160.0
1424.66333 288.0
1424.807251 168.0
1424.938965 212.0
1425.025146 52.0
1425.092163 204.0
1425.178589 132.0
1425.754028 164.0
1425.941895 144.0
1426.25 72.0
1426.415405 168.0
1426.484741 164.0
1426.630615 64.0
1426.76123 180.0
1426.843872 244.0
1427.099487 140.0
1427.192505 204.0
1427.546997 152.0
1427.776245 36.0
1427.949219 108.0
1428.06958 128.0
1428.476318 240.0
1428.611084 116.0
1428.732544 200.0
1428.957153 148.0
1429.386108 168.0
1429.559937 144.0
1429.641968 124.0
1430.018188 132.0
1430.206299 136.0
1430.349365 112.0
1430.582764 112.0
1430.906372 124.0
1431.011841 172.0
1431.260254 132.0
1431.421021 184.0
1431.529419 168.0
1431.70459 180.0
1431.915405 172.0
1432.020874 128.0
1432.205078 88.0
1432.46521 52.0
1432.578247 176.0
1432.864502 128.0
1432.932373 32.0
1433.158325 108.0
1433.286377 148.0
1433.339233 160.0
1433.640625 116.0
1433.773193 128.0
1433.819092 388.0
1433.934448 152.0
1434.045898 212.0
1434.115356 172.0
1434.245239 180.0
1434.348999 132.0
1434.514038 188.0
1434.703369 136.0
1434.861938 216.0
1435.268799 144.0
1435.32251 164.0
1435.487427 136.0
1435.864502 156.0
1435.985352 196.0
1436.135986 288.0
1436.656494 100.0
1436.784668 124.0
1436.943115 152.0
1437.010986 156.0
1437.388306 40.0
1437.539185 148.0
1437.867676 152.0
1437.96936 140.0
1438.618286 148.0
1439.260254 132.0
1439.479126 188.0
1439.55957 348.0
1439.724243 192.0
1440.043213 180.0
1440.19165 216.0
1440.282837 192.0
1440.415649 224.0
1440.566772 36.0
1440.619629 180.0
1440.710327 160.0
1440.989746 360.0
1441.095581 204.0
1441.311523 304.0
1441.614502 288.0
1441.820923 320.0
1442.040161 240.0
1442.244263 192.0
1442.334961 356.0
1442.5979 176.0
1442.66748 96.0
1442.968262 152.0
1443.13623 168.0
1443.287476 132.0
1443.378174 204.0
1443.521851 116.0
1443.869751 80.0
1444.126831 280.0
1444.331055 220.0
1444.569702 216.0
1444.602905 120.0
1444.629272 208.0
1444.906006 184.0
1444.981567 160.0
1445.113892 136.0
1445.471436 208.0
1445.692871 176.0
1445.870728 72.0
1445.980469 156.0
1446.091431 208.0
1446.347778 164.0
1446.563232 232.0
1446.654053 268.0
1446.722168 156.0
1446.884644 140.0
1447.154907 260.0
1447.214233 76.0
1447.290039 152.0
1447.343018 176.0
1447.577759 148.0
1447.827637 52.0
1448.024536 148.0
1448.176025 128.0
1448.547119 208.0
1448.64563 116.0
1448.766846 156.0
1448.838745 152.0
1449.244141 124.0
1449.335083 168.0
1449.501709 148.0
1449.55481 172.0
1450.047363 136.0
1450.244385 220.0
1450.497314 160.0
1450.555176 184.0
1450.714355 116.0
1451.078247 132.0
1451.184326 112.0
1451.262695 108.0
1451.366333 52.0
1451.43457 160.0
1451.60144 68.0
1451.765869 184.0
1451.995728 100.0
1452.048828 140.0
1452.162598 136.0
1452.519043 120.0
1452.648071 176.0
1452.739014 104.0
1453.141113 216.0
1453.201782 152.0
1453.270142 216.0
1453.353516 176.0
1453.421875 120.0
1453.493164 192.0
1453.664673 136.0
1453.740479 176.0
1453.892334 152.0
1454.021362 152.0
1454.324951 100.0
1454.404541 140.0
1454.765137 136.0
1454.97522 152.0
1455.524414 236.0
1455.790161 188.0
1456.002808 168.0
1456.428101 172.0
1456.602783 156.0
1456.655884 84.0
1457.012939 36.0
1457.081299 196.0
1457.362427 184.0
1458.190674 120.0
1458.364502 152.0
1458.464355 184.0
1458.65625 160.0
1458.973633 132.0
1459.095215 132.0
1459.163696 164.0
1459.216919 156.0
1459.27771 156.0
1459.634399 192.0
1459.726318 128.0
1460.240601 212.0
1460.578125 156.0
1460.678589 188.0
1460.791138 272.0
1460.874756 200.0
1461.14856 184.0
1461.384521 72.0
1461.452026 156.0
1461.833374 344.0
1461.985596 132.0
1462.046509 212.0
1462.1073 224.0
1462.579224 120.0
1462.685791 196.0
1462.822754 228.0
1462.914185 228.0
1463.2948 176.0
1463.500366 188.0
1463.683105 104.0
1463.759277 252.0
1463.911499 140.0
1464.550293 188.0
1464.636719 144.0
1464.71875 208.0
1464.821289 204.0
1464.951904 232.0
1465.072998 224.0
1465.182373 188.0
1465.449341 160.0
1465.671021 156.0
1466.318848 168.0
1466.555054 128.0
1466.677002 148.0
1466.852295 172.0
1467.119141 136.0
1467.218262 124.0
1467.286865 188.0
1467.515625 120.0
1467.690918 144.0
1467.744263 236.0
1467.835815 152.0
1467.987915 140.0
1468.216797 220.0
1468.488647 264.0
1468.58313 120.0
1468.901489 168.0
1469.031738 172.0
1469.361206 144.0
1469.700073 180.0
1470.032593 164.0
1470.635498 76.0
1470.948486 132.0
1471.314941 224.0
1471.803467 220.0
1472.39917 144.0
1472.666382 184.0
1472.749512 164.0
1472.872681 56.0
1473.094238 208.0
1473.605957 76.0
1473.791748 196.0
1473.92688 216.0
1474.079712 168.0
1474.14856 144.0
1474.446533 196.0
1474.50769 136.0
1474.602051 152.0
1474.824219 204.0
1474.905151 188.0
1475.088501 60.0
1475.256714 120.0
1475.594727 188.0
1475.707764 100.0
1475.845459 152.0
1475.921875 92.0
1476.059204 180.0
1476.181885 188.0
1476.258301 72.0
1476.418945 212.0
1476.643799 208.0
1476.900757 344.0
1477.030762 32.0
1477.155396 188.0
1477.214355 248.0
1477.33667 148.0
1477.496948 160.0
1477.749878 116.0
1477.826294 184.0
1478.133545 212.0
1478.216553 96.0
1478.522705 148.0
1478.599243 124.0
1478.663818 224.0
1478.880127 152.0
1479.030884 224.0
1479.203857 224.0
1479.555908 160.0
1479.732056 216.0
1479.854492 40.0
1480.011475 136.0
1480.237427 168.0
1480.367554 84.0
1480.474731 136.0
1480.5896 164.0
1480.804077 156.0
1480.879028 136.0
1481.010864 172.0
1481.064453 172.0
1481.298096 240.0
1481.458252 148.0
1481.651001 112.0
1481.753906 40.0
1482.037354 108.0
1482.144653 180.0
1482.205933 180.0
1482.451172 200.0
1482.625977 168.0
1482.900146 252.0
1482.930176 148.0
1482.942993 180.0
1483.347412 140.0
1483.515503 160.0
1483.807739 180.0
1483.874512 232.0
1484.175781 152.0
1484.674194 212.0
1484.881348 112.0
1485.019287 148.0
1485.25708 44.0
1485.459595 148.0
1485.563965 188.0
1485.671265 148.0
1485.817139 48.0
1486.369507 76.0
1486.469238 140.0
1486.622681 128.0
1487.282715 388.0
1487.382568 124.0
1487.613525 180.0
1487.988892 184.0
1488.096436 132.0
1488.180908 176.0
1488.338013 156.0
1488.608887 188.0
1488.871948 120.0
1489.017822 196.0
1489.148438 200.0
1489.22522 148.0
1489.294312 92.0
1489.440308 264.0
1489.693726 148.0
1489.747559 124.0
1489.893555 204.0
1490.454346 192.0
1490.684937 124.0
1490.746338 172.0
1490.815552 60.0
1490.900024 120.0
1491.361206 280.0
1491.414917 128.0
1491.637817 172.0
1492.037598 96.0
1492.214478 176.0
1492.3125 144.0
1492.375854 228.0
1492.598877 80.0
1492.668091 76.0
1492.909912 152.0
1493.069824 144.0
1493.167847 152.0
1493.234497 224.0
1493.47998 216.0
1494.090942 148.0
1494.144775 176.0
1494.37561 232.0
1494.729492 152.0
1494.897461 168.0
1495.306641 136.0
1495.391357 176.0
1495.793091 180.0
1495.86084 180.0
1495.977051 84.0
1496.084106 184.0
1496.15332 140.0
1496.276489 156.0
1496.368896 152.0
1496.461304 160.0
1496.515137 192.0
1496.738525 88.0
1497.008545 152.0
1497.400757 164.0
1497.531616 148.0
1497.744629 180.0
1497.924438 88.0
1498.06311 36.0
1498.332764 88.0
1499.126343 176.0
1499.5271 192.0
1499.588745 120.0
1499.735229 68.0
1499.812256 76.0
1499.961182 512.0
1500.436646 196.0
1500.536865 148.0
1500.59082 208.0
1500.71521 160.0
1500.81665 176.0
1500.999512 196.0
1501.0979 192.0
1501.493042 168.0
1501.636108 264.0
1501.919556 196.0
1502.218994 160.0
1502.295166 176.0
1502.349121 208.0
1502.545776 276.0
1502.608521 136.0
1503.051392 184.0
1503.282715 344.0
1503.881836 284.0
