>compound MLS001048951-01!8-methoxy-9-methylfuro[2,3-b]quinolin-4-one
>formula C13H11NO3
>ionization [M+H]+
>parentmass 230.082748
#inchi InChI=1S/C13H11NO3/c1-14-11-8(4-3-5-10(11)16-2)12(15)9-6-7-17-13(9)14/h3-7H,1-2H3
#inchikey VNBUMBNLPGLBML
#Ion_Source LC-ESI
#Instrument qTof
#Compound_Source NIH Natural Product Library
#PI Dorrestein
#Data_Collector VVP/LMS
#Scan -1
#Precursor_MZ 230.082
#ExactMass 229.074
#Charge 1
#CAS_Number N/A
#Pubmed_ID N/A
#Smiles COc1cccc2c(=O)c3ccoc3n(C)c12
#INCHI_AUX N/A
#Library_Class 1
#SpectrumID CCMSLIB00000080208
#IonMode Positive
#UpdateWorkflowName UPDATE-SINGLE-ANNOTATED-GOLD
#LibraryQualityString Gold
#TaskID b1d8e8f6646f4e71acdff9ca3d919d08
##Scan# 1770
#SpectrumFile p2-E05_GE5_01_18029.mzXML
#LibraryName NIH_Natural_Products_Library.mgf
#MQScore -1
#Organism NIH_Natural_Products_Library
#TIC_Query 0
#RT_Query -1
#MZErrorPPM -1
#SharedPeaks 0
#MassDiff 0
#LibMZ -1
#SpecMZ 230.082
#SpecCharge 0
#internalFilename spec-00000.mgf

>collision 10
94.948967 144.0
94.987762 84.0
95.016861 128.0
95.0382 108.0
95.111946 128.0
95.203201 92.0
95.293274 184.0
95.31781 168.0
95.343071 156.0
95.362366 160.0
95.484795 196.0
95.564751 140.0
95.609505 136.0
95.656219 148.0
95.804222 48.0
95.948753 196.0
95.981583 128.0
96.016678 148.0
96.086906 104.0
96.145439 224.0
96.266479 140.0
96.291862 184.0
96.414948 136.0
96.465767 188.0
96.500954 184.0
96.598961 176.0
96.631996 192.0
96.649605 120.0
96.677002 100.0
96.794456 180.0
96.884552 152.0
96.899094 224.0
96.941376 104.0
96.984489 100.0
97.000175 136.0
97.114128 136.0
97.239464 164.0
97.255173 228.0
97.300316 80.0
97.402435 200.0
97.4319 168.0
97.459412 236.0
97.49469 180.0
97.581268 80.0
97.63829 112.0
97.677338 116.0
97.776108 140.0
97.817345 140.0
97.882309 96.0
97.945335 132.0
97.970543 216.0
98.049759 132.0
98.067497 208.0
98.084091 184.0
98.102982 164.0
98.179878 148.0
98.207489 152.0
98.270615 172.0
98.364296 196.0
98.440804 156.0
98.514633 420.0
98.596436 180.0
98.719002 144.0
98.770424 200.0
98.796143 160.0
98.841644 152.0
98.965355 168.0
99.039619 152.0
99.065369 244.0
99.085182 200.0
99.13472 156.0
99.22168 160.0
99.405319 148.0
99.43219 40.0
99.505638 68.0
99.565208 140.0
99.620827 180.0
99.652611 104.0
99.751976 52.0
99.779808 228.0
99.833496 100.0
99.875259 208.0
100.052368 156.0
100.076256 232.0
100.090195 212.0
100.108261 168.0
100.139984 180.0
100.309349 168.0
100.323303 136.0
100.363174 156.0
100.454918 104.0
100.490829 168.0
100.574646 160.0
100.600594 144.0
100.634537 148.0
100.669357 164.0
100.716415 144.0
100.732391 124.0
100.766357 120.0
100.790329 188.0
100.812309 184.0
100.826302 116.0
100.90226 128.0
100.922249 156.0
100.936249 160.0
100.992249 172.0
101.074272 132.0
101.096283 176.0
101.119095 200.0
101.149788 196.0
101.222397 140.0
101.266457 144.0
101.335846 236.0
101.390724 156.0
101.57914 356.0
101.737679 204.0
101.773811 236.0
101.809959 212.0
101.838074 196.0
101.880257 180.0
101.946968 140.0
101.991516 176.0
102.018921 252.0
102.046471 1696.0
102.091309 28.0
102.141586 200.0
102.161705 152.0
102.18557 116.0
102.262314 156.0
102.372017 204.0
102.445549 240.0
102.471741 200.0
102.514053 216.0
102.584602 168.0
102.663231 28.0
102.729797 184.0
102.794357 196.0
102.828667 184.0
102.848846 256.0
102.931679 140.0
102.949799 192.0
102.980087 100.0
103.02655 180.0
103.053413 2456.0
103.109398 200.0
103.153603 308.0
103.210556 188.0
103.285301 68.0
103.344849 208.0
103.382843 168.0
103.416817 116.0
103.530197 72.0
103.560577 104.0
103.573944 144.0
103.629448 176.0
103.739677 188.0
103.757133 196.0
103.795654 252.0
103.838242 48.0
103.895851 200.0
103.947792 48.0
104.020859 140.0
104.047073 840.0
104.120201 168.0
104.126892 216.0
104.163002 96.0
104.293045 152.0
104.321503 260.0
104.347931 164.0
104.396736 244.0
104.468765 164.0
104.575768 176.0
104.726433 124.0
104.79631 240.0
104.811775 180.0
104.877213 184.0
104.920021 148.0
104.93837 52.0
104.968956 136.0
104.991386 196.0
105.035477 172.0
105.055092 464.0
105.096962 180.0
105.236252 112.0
105.262802 172.0
105.291389 112.0
105.424896 180.0
105.454834 144.0
105.591141 144.0
105.643555 164.0
105.683876 240.0
105.753456 196.0
105.882439 164.0
105.912758 224.0
106.029472 432.0
106.07299 212.0
106.160545 148.0
106.243195 80.0
106.333481 164.0
106.420761 180.0
106.466774 164.0
106.561417 140.0
106.635391 60.0
106.678581 200.0
106.720955 172.0
106.758743 176.0
106.774384 212.0
106.859535 116.0
106.962433 52.0
106.99604 136.0
107.048409 900.0
107.114815 164.0
107.14814 112.0
107.232254 268.0
107.263176 72.0
107.364899 344.0
107.403389 136.0
107.432274 132.0
107.599434 152.0
107.686165 216.0
107.784103 184.0
107.797722 220.0
107.872124 200.0
107.927948 128.0
107.952759 132.0
108.026459 424.0
108.05545 188.0
108.128609 48.0
108.149307 108.0
108.223831 120.0
108.24868 188.0
108.304596 220.0
108.343956 244.0
108.494232 176.0
108.611366 148.0
108.80851 200.0
108.850037 216.0
108.928955 152.0
109.014481 340.0
109.057785 204.0
109.097282 160.0
109.11911 224.0
109.132881 204.0
109.215813 164.0
109.261574 292.0
109.296944 116.0
109.345528 220.0
109.479958 192.0
109.487656 176.0
109.534279 108.0
109.598137 184.0
109.613449 28.0
109.628036 184.0
109.671806 172.0
109.746857 136.0
109.890091 160.0
109.943604 224.0
109.965233 284.0
110.027756 208.0
110.080711 164.0
110.174706 212.0
110.294434 176.0
110.310539 140.0
110.364899 144.0
110.390221 180.0
110.412994 180.0
110.481331 164.0
110.52446 168.0
110.575668 240.0
110.634789 136.0
110.67038 168.0
110.687134 156.0
110.756241 144.0
110.812805 180.0
111.021523 328.0
111.068558 156.0
111.133598 116.0
111.179756 144.0
111.268066 168.0
111.368164 228.0
111.412827 196.0
111.547318 68.0
111.654556 132.0
111.675316 124.0
111.740479 184.0
111.871277 216.0
111.944969 188.0
112.058716 152.0
112.189377 156.0
112.275826 236.0
112.320122 160.0
112.38694 208.0
112.47477 320.0
112.61351 180.0
112.68322 248.0
112.735771 240.0
112.791 184.0
112.905174 104.0
112.947472 136.0
112.989777 116.0
113.03952 528.0
113.076294 140.0
113.131569 84.0
113.167213 220.0
113.190857 84.0
113.231094 124.0
113.387871 132.0
113.415421 144.0
113.442978 180.0
113.53627 124.0
113.614754 60.0
113.778168 148.0
113.841866 172.0
113.899208 40.0
113.916145 140.0
113.962944 192.0
114.003319 112.0
114.042076 704.0
114.119583 172.0
114.135788 176.0
114.184021 44.0
114.21167 48.0
114.264854 216.0
114.296768 40.0
114.330818 152.0
114.364868 132.0
114.42234 196.0
114.468506 176.0
114.547989 204.0
114.648132 112.0
114.982956 128.0
115.054932 2332.0
115.098236 88.0
115.12706 104.0
115.166573 144.0
115.226089 172.0
115.271416 212.0
115.294762 136.0
115.402641 192.0
115.519264 136.0
115.57489 176.0
115.589874 200.0
115.606987 232.0
115.737564 176.0
115.765404 212.0
115.818947 176.0
115.838226 180.0
115.928215 80.0
115.943214 204.0
115.971077 176.0
116.02681 76.0
116.050819 1636.0
116.090729 212.0
116.144753 92.0
116.183365 84.0
116.215546 96.0
116.252029 84.0
116.285919 184.0
116.341835 228.0
116.34893 192.0
116.367935 104.0
116.410881 240.0
116.434502 200.0
116.483902 168.0
116.5634 28.0
116.593483 144.0
116.61927 176.0
116.664413 208.0
116.705261 180.0
116.832153 140.0
116.862274 80.0
116.926834 408.0
116.948357 152.0
117.002167 128.0
117.032768 188.0
117.057526 1852.0
117.12056 168.0
117.150764 128.0
117.173119 252.0
117.196007 212.0
117.264969 196.0
117.305923 200.0
117.323166 212.0
117.422356 116.0
117.437454 132.0
117.454712 144.0
117.471397 332.0
117.605751 72.0
117.648926 148.0
117.750404 148.0
117.801506 232.0
117.880226 184.0
117.913872 176.0
117.970802 144.0
118.040535 1272.0
118.122177 160.0
118.165443 136.0
118.321266 220.0
118.427376 180.0
118.444702 64.0
118.490898 124.0
118.520905 184.0
118.569916 172.0
118.795876 216.0
118.811058 120.0
118.863129 172.0
118.949944 188.0
119.037079 800.0
119.070007 152.0
119.093254 124.0
119.169289 164.0
119.460609 128.0
119.554169 180.0
119.604225 148.0
119.634705 164.0
119.693489 108.0
119.837242 160.0
119.86097 144.0
120.00119 180.0
120.020393 144.0
120.045464 1580.0
120.08139 136.0
120.201378 116.0
120.314873 180.0
120.349808 136.0
120.417503 132.0
120.459007 152.0
120.543358 164.0
120.598846 60.0
120.6688 168.0
120.756271 176.0
120.881737 148.0
120.905045 208.0
121.027351 180.0
121.062668 188.0
121.117416 172.0
121.167801 188.0
121.222267 140.0
121.281754 192.0
121.334366 212.0
121.42646 196.0
121.4813 156.0
121.641487 204.0
121.707352 148.0
121.789001 180.0
121.806183 280.0
121.84684 136.0
121.962189 108.0
122.021805 136.0
122.05748 304.0
122.107307 176.0
122.149818 244.0
122.177696 136.0
122.239296 96.0
122.263504 108.0
122.320732 52.0
122.351555 212.0
122.384575 196.0
122.43869 160.0
122.466057 140.0
122.534348 124.0
122.598053 180.0
122.62249 40.0
122.673805 144.0
122.690826 148.0
122.734062 144.0
122.82534 188.0
122.865044 108.0
122.880493 144.0
122.931236 212.0
122.962135 172.0
123.006737 156.0
123.023941 184.0
123.07914 204.0
123.264687 160.0
123.313301 292.0
123.378609 48.0
123.437103 212.0
123.51368 276.0
123.572029 152.0
123.859818 200.0
123.921844 164.0
123.950653 232.0
124.038094 216.0
124.12133 192.0
124.190079 184.0
124.238884 124.0
124.376465 184.0
124.41864 136.0
124.434181 208.0
124.52301 244.0
124.55632 140.0
124.591866 128.0
124.634079 96.0
124.649635 176.0
124.686417 176.0
124.778549 132.0
125.150108 156.0
125.408524 184.0
125.490082 208.0
125.537834 132.0
125.649361 196.0
125.772095 148.0
125.80558 164.0
125.908287 164.0
125.982002 76.0
126.061737 268.0
126.172417 176.0
126.330734 212.0
126.400093 164.0
126.423592 156.0
126.511131 164.0
126.517143 216.0
126.60183 168.0
126.71891 176.0
126.762856 168.0
126.87941 216.0
126.987213 208.0
127.05661 156.0
127.090233 116.0
127.12838 160.0
127.224892 152.0
127.334923 144.0
127.413544 128.0
127.438255 116.0
127.487686 148.0
127.543877 136.0
127.757507 212.0
127.773254 80.0
127.892517 132.0
128.050629 5468.0
128.099686 84.0
128.162354 176.0
128.180298 160.0
128.207825 160.0
128.268677 104.0
128.297989 140.0
128.318283 156.0
128.383911 152.0
128.47757 96.0
128.560486 148.0
128.608688 60.0
128.620911 212.0
128.708618 264.0
128.728943 92.0
128.753784 40.0
128.789917 208.0
128.864471 112.0
128.968414 52.0
128.984238 204.0
129.05722 2464.0
129.102539 160.0
129.119247 180.0
129.176453 208.0
129.354004 172.0
129.386902 196.0
129.420868 212.0
129.51825 140.0
129.554489 148.0
129.597534 112.0
129.672318 228.0
129.694992 160.0
129.756195 92.0
129.828751 208.0
129.930832 160.0
129.953506 188.0
130.007797 204.0
130.034119 168.0
130.06546 14420.0
130.119202 44.0
130.150787 92.0
130.168869 232.0
130.184036 60.0
130.210022 28.0
130.248642 44.0
130.379196 156.0
130.466309 168.0
130.494064 140.0
130.522827 68.0
130.557739 72.0
130.590973 140.0
130.635071 64.0
130.655548 84.0
130.699234 208.0
130.744293 148.0
130.771591 40.0
130.83989 176.0
130.931656 224.0
130.948364 168.0
130.97197 52.0
130.994293 120.0
131.049591 10280.0
131.070511 3696.0
131.140884 60.0
131.173233 148.0
131.209976 144.0
131.229477 104.0
131.259125 56.0
131.277359 52.0
131.309296 40.0
131.336655 204.0
131.352631 52.0
131.383453 164.0
131.423355 36.0
131.492737 168.0
131.516922 104.0
131.544312 148.0
131.569427 184.0
131.617371 136.0
131.71785 216.0
131.76355 88.0
131.786392 156.0
131.807587 248.0
131.829636 52.0
131.877594 88.0
131.90065 176.0
131.934952 60.0
131.957809 120.0
132.002548 176.0
132.054703 2164.0
132.181961 248.0
132.20256 124.0
132.228745 156.0
132.281738 236.0
132.387985 56.0
132.442947 192.0
132.465866 152.0
132.486481 36.0
132.590668 196.0
132.606613 160.0
132.621674 188.0
132.644592 144.0
132.740891 64.0
132.818863 220.0
132.850983 128.0
132.87532 196.0
132.924072 168.0
132.940582 152.0
132.979477 204.0
133.052185 2872.0
133.101791 128.0
133.197281 120.0
133.201187 72.0
133.291809 124.0
133.321671 160.0
133.390625 120.0
133.411316 184.0
133.441208 144.0
133.495743 212.0
133.530884 112.0
133.606796 96.0
133.671219 172.0
133.694229 228.0
133.733353 132.0
133.929062 120.0
134.002792 208.0
134.034988 152.0
134.04126 176.0
134.056458 492.0
134.088257 136.0
134.150284 64.0
134.323227 144.0
134.34169 108.0
134.360138 180.0
134.428833 204.0
134.450134 156.0
134.55983 92.0
134.600174 164.0
134.662537 108.0
134.775726 152.0
134.898224 204.0
134.962952 196.0
134.979141 156.0
135.019974 152.0
135.044128 936.0
135.07164 176.0
135.099518 164.0
135.152618 80.0
135.300751 72.0
135.326218 52.0
135.423477 176.0
135.439682 172.0
135.497604 128.0
135.620422 72.0
135.6436 76.0
135.687637 120.0
135.738647 188.0
135.773438 116.0
135.796631 188.0
135.88942 192.0
135.952072 192.0
136.056519 176.0
136.102951 356.0
136.135468 160.0
136.277161 108.0
136.35849 128.0
136.411957 56.0
136.539841 140.0
136.59845 180.0
136.656143 52.0
136.700348 184.0
136.798111 176.0
136.865616 132.0
136.961105 176.0
137.005371 164.0
137.05896 180.0
137.270844 120.0
137.422684 212.0
137.595856 124.0
137.740189 68.0
137.864014 156.0
137.957504 140.0
138.061554 144.0
138.070251 184.0
138.109253 132.0
138.230133 228.0
138.283813 224.0
138.308395 236.0
138.34584 228.0
138.420761 116.0
138.474625 112.0
138.537018 164.0
138.583649 180.0
138.608154 144.0
138.734726 156.0
139.060776 168.0
139.173447 200.0
139.208679 136.0
139.312027 212.0
139.328461 108.0
139.422455 264.0
139.542328 124.0
139.656143 224.0
139.688141 152.0
139.71402 344.0
139.768127 152.0
139.819901 36.0
139.83638 156.0
139.888153 160.0
139.915237 148.0
139.99646 224.0
140.048584 2220.0
140.092392 176.0
140.116592 128.0
140.158905 188.0
140.185303 76.0
140.240372 144.0
140.380585 132.0
140.406525 168.0
140.423035 164.0
140.46785 168.0
140.517395 120.0
140.679016 140.0
140.721146 176.0
140.758148 156.0
140.812454 196.0
140.878601 260.0
140.966019 168.0
141.05661 1260.0
141.122025 148.0
141.178772 100.0
141.263916 144.0
141.310028 204.0
141.337265 232.0
141.386963 196.0
141.596283 144.0
141.640305 148.0
141.727951 64.0
141.806152 212.0
141.926941 160.0
141.948395 252.0
141.969742 204.0
141.988708 128.0
142.041641 1632.0
142.065979 1036.0
142.10495 164.0
142.169022 120.0
142.247345 144.0
142.278198 164.0
142.332703 180.0
142.401672 28.0
142.462173 196.0
142.617889 116.0
142.653549 84.0
142.722488 148.0
142.774063 64.0
142.815247 168.0
142.848541 116.0
142.875763 108.0
142.953232 160.0
143.019867 180.0
143.047714 588.0
143.070633 460.0
143.15033 60.0
143.491531 304.0
143.53923 108.0
143.73822 236.0
144.044922 1932.0
144.102524 124.0
144.143448 388.0
144.334381 196.0
144.468307 60.0
144.49054 160.0
144.52095 176.0
144.614273 204.0
144.63588 144.0
144.654968 140.0
144.683701 212.0
144.826492 152.0
144.851318 188.0
145.011856 44.0
145.05043 844.0
145.081375 168.0
145.129333 180.0
145.251053 216.0
145.316406 156.0
145.373993 196.0
145.393478 100.0
145.442276 160.0
145.472397 84.0
145.558838 116.0
145.599655 52.0
145.626083 152.0
145.650101 108.0
145.690933 108.0
145.751892 116.0
145.782242 228.0
145.890396 192.0
145.968643 252.0
146.025101 1644.0
146.058914 504.0
146.086639 208.0
146.251221 152.0
146.269928 176.0
146.311401 140.0
146.371597 216.0
146.407715 176.0
146.534409 180.0
146.60878 156.0
146.675156 172.0
146.802933 156.0
146.864761 184.0
146.899414 136.0
146.91629 136.0
146.947662 156.0
146.983856 136.0
147.027939 352.0
147.045792 608.0
147.133499 204.0
147.201096 160.0
147.227661 188.0
147.263885 156.0
147.321869 144.0
147.355682 144.0
147.379852 188.0
147.411255 72.0
147.435425 164.0
147.456543 288.0
147.488602 72.0
147.553391 200.0
147.757019 148.0
147.899796 56.0
147.930054 168.0
147.970001 132.0
148.040695 392.0
148.074707 448.0
148.110458 40.0
148.139526 212.0
148.229172 148.0
148.45723 192.0
148.510391 164.0
148.527374 84.0
148.556473 196.0
148.675369 148.0
148.723907 188.0
148.740906 184.0
148.80159 156.0
148.884155 188.0
149.021545 256.0
149.049118 160.0
149.075241 376.0
149.102798 116.0
149.465134 92.0
149.528412 160.0
149.625778 192.0
149.642822 40.0
149.701248 176.0
149.730484 148.0
149.869324 136.0
149.908112 140.0
149.949753 100.0
149.998489 184.0
150.042374 116.0
150.181366 148.0
150.250381 220.0
150.297379 108.0
150.332626 84.0
150.420502 200.0
150.452225 140.0
150.469315 248.0
150.59874 140.0
150.689133 88.0
150.708679 124.0
150.758347 196.0
150.843094 244.0
150.879761 140.0
150.913986 140.0
150.96048 164.0
151.08519 160.0
151.163712 172.0
151.189423 184.0
151.256485 160.0
151.382523 172.0
151.457275 132.0
151.533218 132.0
151.59938 136.0
151.670456 176.0
151.77832 144.0
151.831207 212.0
152.049088 140.0
152.065338 140.0
152.102539 204.0
152.222458 176.0
152.300354 156.0
152.455826 76.0
152.517273 180.0
152.57135 196.0
152.642654 192.0
152.792694 208.0
152.915726 120.0
152.962494 172.0
152.982193 168.0
153.026505 136.0
153.046204 36.0
153.063431 116.0
153.253098 216.0
153.344284 184.0
153.4133 224.0
153.578506 104.0
153.617035 184.0
153.682114 220.0
153.746109 120.0
153.825256 136.0
153.867233 32.0
153.8965 168.0
153.946243 212.0
154.032684 148.0
154.069641 204.0
154.195755 108.0
154.475159 184.0
154.62114 164.0
154.71521 120.0
154.764725 112.0
154.784531 196.0
154.908356 128.0
155.050232 280.0
155.076859 140.0
155.123947 164.0
155.173538 80.0
155.31488 132.0
155.349609 188.0
155.379379 192.0
155.416595 176.0
155.451172 172.0
155.538208 192.0
155.570038 68.0
155.602753 128.0
155.656921 132.0
155.679718 196.0
155.71698 64.0
155.861053 92.0
156.000244 188.0
156.043365 3232.0
156.0802 268.0
156.144455 44.0
156.18425 64.0
156.20166 124.0
156.276291 20.0
156.293716 96.0
156.328552 140.0
156.362854 204.0
156.507767 104.0
156.579987 112.0
156.619843 152.0
156.687103 52.0
156.736923 160.0
156.76683 204.0
156.844101 152.0
156.876495 208.0
156.903915 136.0
157.011139 124.0
157.051376 996.0
157.124557 156.0
157.162476 168.0
157.228195 172.0
157.260635 92.0
157.282867 132.0
157.325531 188.0
157.387955 132.0
157.447891 152.0
157.500336 116.0
157.532806 108.0
157.56778 56.0
157.612762 144.0
157.690231 156.0
157.720215 76.0
157.747711 96.0
157.776825 124.0
157.84523 176.0
157.867722 108.0
157.895233 124.0
157.935257 64.0
157.969955 136.0
158.009598 124.0
158.060593 20184.0
158.101929 200.0
158.153839 144.0
158.177979 56.0
158.205505 56.0
158.223038 36.0
158.247772 68.0
158.283127 56.0
158.328201 32.0
158.348145 104.0
158.369675 136.0
158.388123 104.0
158.481873 172.0
158.598785 184.0
158.655655 180.0
158.716614 36.0
158.799362 192.0
158.864594 120.0
158.898148 148.0
158.919205 244.0
158.952408 240.0
158.982468 212.0
159.045639 6764.0
159.067047 9960.0
159.118454 152.0
159.150696 56.0
159.168274 128.0
159.202362 132.0
159.255585 68.0
159.269882 172.0
159.301392 56.0
159.326508 64.0
159.349121 72.0
159.380142 92.0
159.467224 100.0
159.552689 32.0
159.580826 188.0
159.600464 124.0
159.665848 60.0
159.683441 108.0
159.706085 120.0
159.746323 88.0
159.770035 152.0
159.889328 152.0
159.948563 184.0
159.987915 84.0
160.008057 172.0
160.048386 2936.0
160.069183 1560.0
160.170197 196.0
160.212051 152.0
160.296631 168.0
160.303802 96.0
160.360153 188.0
160.398529 236.0
160.434341 116.0
160.534668 148.0
160.587631 156.0
160.6633 188.0
160.683487 216.0
160.751617 144.0
160.836136 156.0
160.964478 172.0
160.988907 136.0
161.021744 68.0
161.048828 676.0
161.07077 184.0
161.117447 180.0
161.139267 76.0
161.167633 144.0
161.198578 72.0
161.340118 104.0
161.375687 172.0
161.466553 156.0
161.507019 52.0
161.550018 72.0
161.572784 116.0
161.671463 48.0
161.798035 124.0
161.820816 124.0
161.955032 148.0
161.975296 228.0
162.031021 168.0
162.057037 316.0
162.119705 172.0
162.19574 176.0
162.223633 56.0
162.434097 56.0
162.67009 156.0
162.710709 116.0
162.736099 188.0
162.842758 68.0
162.863068 148.0
162.954529 132.0
163.005341 208.0
163.048553 196.0
163.125244 136.0
163.165878 228.0
163.201218 176.0
163.305328 136.0
163.353653 140.0
163.521591 176.0
163.67688 220.0
163.822052 196.0
163.844986 124.0
163.885742 64.0
163.949158 136.0
164.023361 152.0
164.074356 116.0
164.120239 48.0
164.148285 104.0
164.2146 36.0
164.354904 56.0
164.474854 88.0
164.732758 168.0
164.827286 220.0
164.865616 164.0
164.92952 132.0
164.982788 176.0
165.044205 368.0
165.134064 68.0
165.162201 40.0
165.307465 252.0
165.459045 172.0
165.504333 180.0
165.674164 104.0
165.69722 176.0
166.030441 200.0
166.057587 248.0
166.13739 156.0
166.505234 48.0
166.533478 188.0
166.574402 176.0
166.654221 180.0
166.690308 180.0
166.723602 100.0
166.844406 212.0
166.926682 52.0
167.033249 160.0
167.096115 156.0
167.114456 168.0
167.155624 96.0
167.178787 232.0
167.343521 128.0
167.433655 44.0
167.494827 148.0
167.536682 60.0
167.758301 236.0
167.784729 196.0
167.864014 188.0
167.890594 164.0
167.9646 148.0
168.042221 2028.0
168.114243 160.0
168.156723 116.0
168.243301 436.0
168.424408 124.0
168.52739 124.0
168.604919 160.0
168.633347 136.0
168.664352 144.0
168.747086 164.0
168.793625 240.0
168.811722 160.0
168.847931 144.0
168.969513 200.0
169.051575 1144.0
169.179184 196.0
169.212784 136.0
169.259399 204.0
169.308594 180.0
169.36142 184.0
169.445877 68.0
169.47438 72.0
169.622101 100.0
169.78804 268.0
169.850876 148.0
169.876099 160.0
169.938492 160.0
170.003357 128.0
170.035522 4148.0
170.05983 8756.0
170.148712 60.0
170.229202 40.0
170.255173 64.0
170.281143 84.0
170.319855 160.0
170.364639 56.0
170.416229 48.0
170.473389 88.0
170.507172 104.0
170.557907 400.0
170.592957 36.0
170.618942 104.0
170.686554 152.0
170.759369 232.0
170.803574 96.0
170.850403 80.0
170.970093 72.0
170.990921 124.0
171.042725 924.0
171.064529 728.0
171.10025 44.0
171.170547 224.0
171.204391 48.0
171.22995 156.0
171.399765 148.0
171.446671 52.0
171.550934 80.0
171.584824 228.0
171.638855 208.0
171.656189 216.0
171.741287 64.0
171.789627 344.0
171.850845 112.0
171.884766 128.0
171.912766 184.0
171.936966 80.0
171.959183 140.0
171.983948 116.0
172.004822 152.0
172.039932 31968.0
172.136673 96.0
172.167099 188.0
172.229385 180.0
172.247665 120.0
172.271179 64.0
172.299911 92.0
172.356186 252.0
172.407043 144.0
172.447067 128.0
172.463455 96.0
172.488373 136.0
172.590027 92.0
172.628586 220.0
172.684174 64.0
172.726013 56.0
172.775177 232.0
172.869919 144.0
172.945251 92.0
173.041809 2156.0
173.087189 212.0
173.157883 124.0
173.207657 232.0
173.246948 92.0
173.268341 96.0
173.298965 84.0
173.362228 76.0
173.412033 112.0
173.464447 92.0
173.80014 32.0
173.835281 124.0
173.914169 112.0
173.965485 108.0
173.991745 184.0
174.053207 1048.0
174.090195 148.0
174.188705 144.0
174.222855 68.0
174.288528 120.0
174.410172 140.0
174.448853 48.0
174.898071 212.0
175.061646 172.0
175.09613 140.0
175.174255 204.0
175.222565 48.0
175.34642 120.0
175.425491 64.0
175.459763 68.0
175.494034 100.0
175.565231 48.0
175.823883 188.0
175.953506 116.0
175.976868 160.0
176.033676 312.0
176.064667 456.0
176.093063 212.0
176.116837 140.0
176.14325 148.0
176.167023 168.0
176.225143 188.0
176.248932 172.0
176.433929 160.0
176.695755 172.0
176.848312 172.0
176.955704 148.0
177.037216 100.0
177.06369 196.0
177.084885 56.0
177.262375 92.0
177.339233 144.0
177.365738 164.0
177.429367 160.0
177.477081 80.0
177.514206 236.0
177.56459 124.0
177.607025 220.0
177.758255 64.0
177.906891 104.0
177.967957 132.0
178.043854 192.0
178.068863 56.0
178.233566 92.0
178.265457 144.0
178.307968 128.0
178.539261 172.0
178.557877 76.0
178.798569 128.0
178.84523 140.0
178.935745 128.0
178.996979 124.0
179.052902 120.0
179.103516 200.0
179.415283 124.0
179.457947 204.0
179.519272 164.0
179.580612 124.0
179.639297 68.0
179.660645 88.0
179.734329 184.0
179.890137 32.0
179.91684 180.0
179.948868 160.0
180.010284 144.0
180.178558 56.0
180.472549 232.0
180.868484 116.0
181.047867 140.0
181.082687 124.0
181.347931 48.0
181.402756 212.0
181.433716 80.0
181.465881 176.0
181.523407 424.0
181.557053 96.0
181.683121 100.0
181.943069 116.0
182.060989 128.0
182.222748 116.0
182.279175 176.0
182.534546 172.0
182.752411 208.0
182.849289 212.0
182.924652 176.0
182.948883 128.0
182.997345 156.0
183.061188 180.0
183.11409 136.0
183.161621 176.0
183.266678 88.0
183.317886 108.0
183.39064 128.0
183.42363 184.0
183.603638 176.0
183.797867 96.0
183.843735 208.0
183.908508 192.0
183.931137 104.0
184.002991 200.0
184.041092 968.0
184.068573 192.0
184.138168 196.0
184.194733 108.0
184.229843 156.0
184.275772 128.0
184.329819 220.0
184.381149 144.0
184.408188 40.0
184.505493 160.0
184.598206 124.0
184.757004 180.0
184.80571 132.0
184.848999 196.0
184.918304 164.0
185.046814 7516.0
185.14325 212.0
185.153809 148.0
185.225327 156.0
185.409561 52.0
185.435318 80.0
185.480042 216.0
185.509857 52.0
185.550522 184.0
185.586166 136.0
185.774109 124.0
185.794601 144.0
185.846909 72.0
185.864792 156.0
185.88414 144.0
185.919693 192.0
185.977798 164.0
186.007339 288.0
186.055634 57068.0
186.147446 236.0
186.174606 280.0
186.195496 184.0
186.228485 124.0
186.232468 104.0
186.26535 116.0
186.274185 48.0
186.288239 100.0
186.298065 132.0
186.351593 68.0
186.381912 76.0
186.401276 116.0
186.429962 44.0
186.465881 176.0
186.487305 216.0
186.533249 40.0
186.552277 108.0
186.581818 216.0
186.615723 200.0
186.658951 184.0
186.703827 216.0
186.734451 244.0
186.765854 240.0
186.816055 212.0
186.896317 72.0
186.935776 116.0
186.964478 228.0
187.001022 172.0
187.063232 48820.0
187.140121 232.0
187.169022 220.0
187.210083 52.0
187.228516 76.0
187.286697 40.0
187.324432 180.0
187.343063 64.0
187.365234 56.0
187.415771 172.0
187.458023 56.0
187.481781 128.0
187.511612 108.0
187.533508 164.0
187.557877 216.0
187.586716 228.0
187.604187 180.0
187.626099 80.0
187.664368 248.0
187.687592 116.0
187.720306 96.0
187.757385 132.0
187.785751 56.0
187.818542 200.0
187.875381 28.0
187.965805 72.0
188.006027 152.0
188.066605 4648.0
188.144806 48.0
188.161057 60.0
188.192368 76.0
188.240631 92.0
188.283356 92.0
188.312515 136.0
188.354263 112.0
188.391739 88.0
188.424515 104.0
188.466949 108.0
188.514679 84.0
188.544632 96.0
188.557037 56.0
188.563965 64.0
188.585739 100.0
188.607605 32.0
188.680893 92.0
188.741562 108.0
188.853683 56.0
188.891983 68.0
188.990479 60.0
189.067505 676.0
189.141907 132.0
189.171097 164.0
189.250488 88.0
189.287735 240.0
189.332642 232.0
189.380859 100.0
189.390045 92.0
189.450424 92.0
189.521652 72.0
189.563538 128.0
189.596558 96.0
189.618988 128.0
189.655945 192.0
189.726532 64.0
189.773819 92.0
189.842377 172.0
190.049377 288.0
190.113953 140.0
190.146896 144.0
190.215515 76.0
190.330811 48.0
190.395096 128.0
190.424179 64.0
190.459885 80.0
190.528564 128.0
190.613739 44.0
190.635727 184.0
190.789642 100.0
191.0289 52.0
191.055634 156.0
191.16922 204.0
191.21875 80.0
191.238022 96.0
191.27655 240.0
191.488571 112.0
191.521622 108.0
191.543655 196.0
191.990158 156.0
192.00946 132.0
192.257751 88.0
192.310181 148.0
192.370911 148.0
192.393005 52.0
192.815613 32.0
192.975937 104.0
193.036774 136.0
193.058899 164.0
193.310638 132.0
193.365982 192.0
193.581924 80.0
193.623459 124.0
193.656693 220.0
193.737015 168.0
193.784119 164.0
193.858932 92.0
193.953171 156.0
194.011383 48.0
194.122284 208.0
194.391357 164.0
194.46907 76.0
194.488495 68.0
194.516251 92.0
194.682846 52.0
194.77449 84.0
194.882843 144.0
194.994003 44.0
195.019012 108.0
195.43187 156.0
195.475113 96.0
195.660843 180.0
195.756256 176.0
195.937302 116.0
196.043182 1220.0
196.124008 152.0
196.188126 76.0
196.221573 56.0
196.634415 124.0
196.662323 176.0
196.880737 192.0
196.924789 64.0
196.980652 136.0
197.050201 876.0
197.131516 100.0
197.199295 112.0
197.260086 84.0
197.353928 100.0
197.497757 124.0
197.525726 156.0
197.73558 72.0
198.056305 3648.0
198.116394 112.0
198.170395 176.0
198.536835 60.0
198.649017 224.0
198.752823 112.0
198.863876 112.0
198.924026 64.0
199.008713 172.0
199.022141 148.0
199.06279 816.0
199.442566 180.0
199.489487 200.0
199.513962 152.0
199.571457 160.0
199.722046 256.0
199.871796 248.0
199.93869 108.0
199.989349 48.0
200.035568 9444.0
200.106522 96.0
200.147003 84.0
200.255875 164.0
200.341339 120.0
200.361053 52.0
200.386414 84.0
200.462494 108.0
200.558319 76.0
200.609055 96.0
200.63443 128.0
200.772583 144.0
200.806427 104.0
200.831818 44.0
200.862839 104.0
200.937683 128.0
201.003906 184.0
201.036926 1116.0
201.094208 164.0
201.143967 96.0
201.187363 72.0
201.489548 48.0
201.591263 64.0
201.786301 356.0
202.037079 300.0
202.08699 360.0
202.148346 120.0
202.292694 68.0
202.397171 124.0
202.451248 100.0
202.652359 236.0
202.743042 56.0
202.934723 200.0
202.972656 124.0
203.032211 196.0
203.092667 164.0
203.199554 228.0
203.355637 172.0
203.384018 132.0
203.594116 44.0
203.778748 240.0
203.804321 60.0
203.863998 164.0
204.05159 116.0
204.089584 144.0
204.350815 268.0
204.526657 168.0
204.620605 200.0
204.75444 160.0
204.899704 168.0
204.968094 220.0
205.019379 120.0
205.218811 108.0
205.335831 152.0
205.38147 96.0
205.455643 116.0
205.858398 184.0
206.146606 188.0
206.209488 132.0
206.618393 32.0
206.644135 48.0
206.698502 92.0
206.861633 52.0
207.013382 176.0
207.216751 124.0
207.294113 72.0
207.348557 132.0
207.403015 156.0
207.45462 388.0
207.672546 208.0
207.721298 208.0
207.864761 112.0
207.902054 52.0
207.950851 156.0
208.375839 104.0
208.786896 156.0
208.910568 148.0
208.994003 116.0
209.019897 44.0
209.060196 168.0
209.463272 212.0
209.54393 92.0
209.578506 240.0
209.679367 128.0
209.912872 196.0
209.941711 172.0
210.03978 140.0
210.166718 200.0
210.365845 104.0
210.395309 196.0
210.510208 112.0
210.689285 168.0
210.780212 220.0
211.001404 212.0
211.085266 144.0
211.172012 124.0
211.577133 120.0
211.745071 204.0
211.810135 144.0
211.944962 168.0
211.987396 260.0
212.035004 7780.0
212.165222 48.0
212.200012 52.0
212.345001 52.0
212.388519 128.0
212.655457 140.0
212.742538 164.0
212.761505 60.0
212.783173 164.0
212.908035 72.0
213.038376 1280.0
213.10556 104.0
213.317719 152.0
213.428619 232.0
213.495071 84.0
213.518341 116.0
213.545807 260.0
213.584595 184.0
213.639267 188.0
213.673492 212.0
213.706696 132.0
213.725754 120.0
213.752975 140.0
213.791809 56.0
213.820908 204.0
213.86734 268.0
213.951889 200.0
213.974548 244.0
213.993393 188.0
214.050888 40464.0
214.142014 164.0
214.189255 204.0
214.231583 96.0
214.265335 108.0
214.304642 68.0
214.363174 132.0
214.383972 184.0
214.403717 100.0
214.429047 176.0
214.45108 76.0
214.492264 192.0
214.54509 148.0
214.580353 128.0
214.599625 208.0
214.640701 256.0
214.658737 160.0
214.723877 184.0
214.757919 132.0
214.795822 120.0
214.838882 312.0
214.890121 56.0
214.921799 92.0
214.945038 176.0
214.965622 284.0
215.011505 316.0
215.058838 89316.0
215.099442 304.0
215.164276 112.0
215.235001 88.0
215.265045 100.0
215.289413 64.0
215.316284 184.0
215.360596 84.0
215.394562 144.0
215.443161 124.0
215.453644 76.0
215.463989 148.0
215.511871 32.0
215.540344 428.0
215.563522 188.0
215.602432 148.0
215.643738 76.0
215.719742 48.0
215.746048 68.0
215.76651 52.0
215.798676 72.0
215.832428 44.0
215.881348 64.0
215.908234 60.0
215.952103 128.0
215.993149 168.0
216.061554 11200.0
216.164169 88.0
216.219437 136.0
216.289291 96.0
216.363419 124.0
216.392349 52.0
216.408936 144.0
216.471664 44.0
216.498993 216.0
216.541367 60.0
216.596222 72.0
216.622787 40.0
216.671951 84.0
216.70105 116.0
216.731598 216.0
216.799515 48.0
216.819656 68.0
216.896469 80.0
216.934586 64.0
216.958038 56.0
216.99028 80.0
217.016678 140.0
217.06424 1068.0
217.110504 148.0
217.129791 60.0
217.148636 116.0
217.18512 164.0
217.231674 60.0
217.317123 92.0
217.348114 112.0
217.392136 64.0
217.419418 120.0
217.474304 56.0
217.537277 108.0
217.580322 104.0
217.599426 64.0
217.630005 100.0
217.657715 84.0
217.717667 296.0
217.752686 64.0
217.82373 68.0
217.879532 40.0
217.944183 64.0
218.041153 208.0
218.105804 100.0
218.20282 252.0
218.246918 96.0
218.279266 44.0
218.31456 48.0
218.361603 92.0
218.391022 68.0
218.417496 32.0
218.487671 56.0
218.536972 72.0
218.573425 192.0
218.673477 52.0
218.814774 96.0
218.956116 144.0
219.053314 188.0
219.091614 124.0
219.179993 76.0
219.289032 52.0
219.430527 96.0
219.601562 80.0
219.645798 76.0
220.188889 32.0
222.017853 64.0
222.240326 104.0
222.409485 56.0
222.543076 96.0
223.262177 80.0
223.785889 156.0
224.128418 40.0
224.256561 136.0
224.402634 56.0
224.650162 40.0
224.856049 88.0
225.318878 64.0
225.853973 72.0
225.910812 108.0
225.952682 56.0
226.012527 40.0
226.087341 80.0
226.189102 28.0
226.245972 48.0
226.314835 96.0
226.494522 68.0
227.01001 120.0
227.186981 128.0
227.493073 104.0
227.700256 208.0
227.829422 48.0
228.073471 160.0
228.397552 104.0
228.821869 168.0
229.056763 180.0
229.315887 252.0
229.346024 44.0
229.376175 124.0
229.493744 76.0
229.858719 196.0
229.922089 76.0
229.943222 160.0
229.991516 124.0
230.038406 628.0
230.0439 552.0
230.082748 17716.0
230.126358 160.0
230.147141 116.0
230.196808 116.0
230.245117 36.0
230.276718 52.0
230.365936 84.0
230.394379 116.0
230.440918 44.0
230.4673 80.0
230.598602 108.0
230.625809 52.0
230.70137 44.0
230.75882 40.0
230.783005 44.0
230.80719 88.0
230.867676 68.0
230.920319 168.0
231.084625 2932.0
231.14296 64.0
231.176239 60.0
231.225708 92.0
231.247253 60.0
231.283173 80.0
231.312439 76.0
231.357849 188.0
231.393311 56.0
231.451706 56.0
231.542542 80.0
231.600098 40.0
232.087341 336.0
232.182007 68.0
232.34581 48.0
232.448975 76.0
232.494492 164.0
232.68924 100.0
232.725983 76.0
233.199081 88.0
233.959549 92.0
234.077271 84.0
234.660263 36.0
239.074234 72.0
240.964417 128.0
241.508484 104.0
242.211105 68.0
242.79689 88.0
243.197128 116.0
244.68924 68.0
244.720383 128.0
245.549286 84.0
246.481155 112.0
247.050415 348.0
247.652725 92.0
248.186569 80.0
248.549316 52.0
249.324966 64.0
253.921707 80.0
255.443146 48.0
262.369995 92.0
263.444641 120.0
267.657715 92.0
268.1203 80.0
275.569244 52.0
275.863373 96.0
277.80722 52.0
277.866943 52.0
279.851135 124.0
280.724152 132.0
288.990845 60.0
290.101685 160.0
290.759705 56.0
291.360718 56.0
292.956238 60.0
294.843109 144.0
294.897797 112.0
295.407257 72.0
296.938354 88.0
301.434387 56.0
305.668335 36.0
306.462219 72.0
307.044373 92.0
312.072876 128.0
312.864471 88.0
314.373047 72.0
315.701324 52.0
316.331085 72.0
317.07135 120.0
319.475189 40.0
319.631744 80.0
320.279694 52.0
322.306061 100.0
324.919739 88.0
326.410278 80.0
328.506409 104.0
329.781067 48.0
330.265564 64.0
330.761261 40.0
332.076538 128.0
332.312317 36.0
334.958893 100.0
335.57843 32.0
336.37738 76.0
342.983734 44.0
343.444641 56.0
344.001801 56.0
346.127686 72.0
352.630493 80.0
357.792023 72.0
358.247681 96.0
358.292877 76.0
359.990204 68.0
366.529938 72.0
368.109131 156.0
368.605713 48.0
368.701263 104.0
372.079681 48.0
372.709564 96.0
375.739655 28.0
377.021606 72.0
377.899384 32.0
380.845581 68.0
381.346802 96.0
382.583771 44.0
384.099609 124.0
384.684937 40.0
385.579407 124.0
385.809998 48.0
386.365326 76.0
393.024902 64.0
400.270782 96.0
405.043335 60.0
410.767365 80.0
414.63681 100.0
416.072723 40.0
416.434113 64.0
427.205017 68.0
427.373688 92.0
428.90567 44.0
431.55188 84.0
434.272583 80.0
437.705261 104.0
445.131683 44.0
452.820984 88.0
457.835297 112.0
459.11377 112.0
462.531769 32.0
463.032715 76.0
470.58374 36.0
482.776703 64.0
500.334045 56.0
500.396362 32.0
501.830994 84.0
513.436096 104.0
516.805908 140.0
538.013245 36.0
538.142517 92.0
538.281006 68.0
539.454529 116.0
541.722046 124.0
549.21051 96.0
551.13385 124.0
553.687988 64.0
555.070374 84.0
555.328308 88.0
560.070801 132.0
568.937195 48.0
570.942322 60.0
573.475159 40.0
574.190308 136.0
574.83905 52.0
592.688721 132.0
596.517883 88.0
610.201416 32.0
615.769653 144.0
622.167175 120.0
623.607666 68.0
624.144592 84.0
636.180359 100.0
652.650818 68.0
654.049805 60.0
688.890076 128.0
690.913147 72.0
694.601013 92.0
695.036499 52.0
704.618958 272.0
705.9245 48.0
706.142334 208.0
707.813599 164.0
710.628113 144.0
716.130005 76.0
719.110413 64.0
723.531006 132.0
728.002747 56.0
728.367981 44.0
735.56189 72.0
736.385315 20.0
739.615845 204.0
757.383057 80.0
758.983337 160.0
761.633972 72.0
763.579651 164.0
772.769653 44.0
786.473572 48.0
790.094604 116.0
793.960205 148.0
794.654968 76.0
798.739075 112.0
804.949768 180.0
813.538635 176.0
815.839355 216.0
816.777649 68.0
822.45282 180.0
831.983765 132.0
837.930298 176.0
842.435852 136.0
848.697876 200.0
852.801331 144.0
859.207458 132.0
869.928528 172.0
871.572937 136.0
880.149048 160.0
895.728821 68.0
897.003967 136.0
899.539124 36.0
902.239319 144.0
906.99823 52.0
908.935364 176.0
927.98938 96.0
932.420654 184.0
934.03186 148.0
938.867737 120.0
941.00946 144.0
949.772644 212.0
953.284363 136.0
958.163574 88.0
960.752808 148.0
963.432068 124.0
969.570007 72.0
976.82196 180.0
977.786377 160.0
978.969177 60.0
985.512512 44.0
989.765747 152.0
996.332397 192.0
997.438354 160.0
1001.66687 68.0
1003.469177 272.0
1003.771851 116.0
1006.5672 104.0
1006.996582 192.0
1007.482971 100.0
1008.787231 200.0
1014.19043 140.0
1015.978638 184.0
1018.40979 136.0
1020.049133 156.0
1022.854309 156.0
1023.032532 84.0
1024.802979 176.0
1026.728027 132.0
1028.105957 124.0
1028.693237 208.0
1030.909424 164.0
1030.960571 172.0
1032.450073 148.0
1033.787109 160.0
1033.972656 180.0
1034.536011 56.0
1037.085327 88.0
1038.527954 152.0
1039.63147 56.0
1040.607056 152.0
1041.307007 136.0
1041.904419 144.0
1047.082397 132.0
1048.854248 120.0
1049.885742 160.0
1050.479126 116.0
1051.195312 220.0
1053.41626 204.0
1057.567505 48.0
1060.935791 120.0
1061.221069 132.0
1063.887451 156.0
1064.264038 76.0
1065.056274 52.0
1065.725464 72.0
1068.976562 72.0
1069.952881 156.0
1070.271851 260.0
1074.508301 104.0
1075.049927 292.0
1075.128174 248.0
1077.929688 160.0
1078.438354 120.0
1079.347412 188.0
1080.466553 100.0
1082.056763 116.0
1082.220459 144.0
1088.731812 148.0
1088.940918 128.0
1090.597656 200.0
1095.43396 128.0
1097.081421 216.0
1098.960938 148.0
1099.72644 252.0
1099.772705 184.0
1099.818848 72.0
1100.346924 164.0
1101.601685 144.0
1103.749634 96.0
1106.263672 140.0
1108.720947 160.0
1109.310913 192.0
1109.609253 128.0
1110.265625 220.0
1112.305054 32.0
1116.953857 132.0
1118.211304 44.0
1118.790405 144.0
1118.950195 136.0
1122.36145 200.0
1123.688721 160.0
1123.822144 128.0
1124.803223 104.0
1127.935913 180.0
1131.542358 176.0
1133.611328 172.0
1141.413208 180.0
1147.383423 200.0
1148.676636 124.0
1149.285278 232.0
1150.473145 136.0
1152.661377 196.0
1155.298218 48.0
1155.677002 180.0
1156.420654 172.0
1157.552002 132.0
1157.606201 180.0
1157.985352 156.0
1158.175049 124.0
1158.256348 136.0
1158.798218 164.0
1159.028564 32.0
1159.367432 92.0
1161.80835 144.0
1163.864746 40.0
1165.922974 132.0
1166.004517 164.0
1168.105469 160.0
1169.275757 140.0
1170.140259 248.0
1170.385376 92.0
1170.664551 52.0
1173.212769 124.0
1176.154541 128.0
1176.371216 48.0
1176.418945 240.0
1177.306641 164.0
1177.682251 84.0
1178.802612 188.0
1179.588623 160.0
1182.440796 108.0
1182.892456 160.0
1183.864746 180.0
1183.92627 156.0
1184.166016 112.0
1184.405762 128.0
1185.330566 160.0
1185.810303 104.0
1186.872925 160.0
1189.129761 172.0
1190.557739 152.0
1192.398926 112.0
1193.03125 164.0
1196.422729 168.0
1196.959839 188.0
1197.682861 148.0
1199.646729 212.0
1200.446533 152.0
1201.681152 144.0
1203.662109 192.0
1204.546143 248.0
1205.105713 100.0
1205.423462 188.0
1206.992554 164.0
1207.241577 164.0
1208.334351 48.0
1208.576538 28.0
1209.206299 132.0
1209.905396 184.0
1210.064575 148.0
1211.983154 148.0
1212.537476 136.0
1212.939453 152.0
1213.119751 160.0
1213.674316 188.0
1213.84082 92.0
1213.993286 152.0
1214.30542 40.0
1214.582886 196.0
1214.922729 164.0
1216.713257 172.0
1219.171997 140.0
1219.394409 204.0
1220.868286 128.0
1220.930786 176.0
1221.661133 204.0
1222.809204 144.0
1223.129395 160.0
1224.995605 160.0
1225.385742 108.0
1226.640015 152.0
1227.358154 112.0
1228.005249 224.0
1231.5802 140.0
1231.936401 196.0
1233.012451 208.0
1237.601318 192.0
1239.604614 152.0
1240.039062 172.0
1240.102173 236.0
1242.500366 52.0
1242.703735 132.0
1242.802002 136.0
1242.858154 84.0
1243.019531 144.0
1243.138794 144.0
1244.507568 32.0
1244.921875 152.0
1247.936279 104.0
1248.723877 100.0
1250.489746 164.0
1251.763916 180.0
1252.432983 72.0
1253.531982 152.0
1253.595459 76.0
1254.772461 152.0
1257.692993 88.0
1258.077148 148.0
1259.952637 152.0
1262.143555 128.0
1262.235474 200.0
1262.921509 128.0
1263.147827 168.0
1265.617676 192.0
1265.886841 140.0
1267.154663 172.0
1267.515991 200.0
1267.572632 280.0
1267.686035 64.0
1269.103638 80.0
1270.366089 132.0
1270.827148 176.0
1272.218262 192.0
1273.027588 172.0
1279.967773 148.0
1280.12439 128.0
1280.480469 168.0
1281.064575 160.0
1282.069214 140.0
1283.352295 108.0
1283.480591 120.0
1284.036865 156.0
1284.628784 112.0
1286.105835 168.0
1287.405273 152.0
1289.434082 88.0
1289.712891 64.0
1291.528931 156.0
1291.858032 80.0
1291.95813 196.0
1292.895508 64.0
1293.403687 204.0
1293.518188 164.0
1293.589722 148.0
1294.864258 92.0
1298.418945 160.0
1299.157715 120.0
1299.537964 120.0
1299.875122 72.0
1301.174316 196.0
1301.842041 64.0
1302.409424 96.0
1305.010864 156.0
1306.255005 128.0
1307.787598 168.0
1307.931519 164.0
1309.623535 132.0
1310.13501 204.0
1311.12207 168.0
1311.842896 160.0
1311.922119 116.0
1312.066406 136.0
1312.585449 48.0
1313.681763 120.0
1313.941406 64.0
1313.999146 176.0
1316.901001 184.0
1318.620483 228.0
1318.91687 172.0
1324.321655 212.0
1324.893921 44.0
1325.408325 60.0
1325.538696 108.0
1326.596924 164.0
1327.060913 132.0
1327.793213 104.0
1327.894775 148.0
1329.323975 124.0
1329.541626 140.0
1329.701294 52.0
1330.775635 256.0
1331.138672 168.0
1331.545288 184.0
1331.886719 196.0
1332.889282 100.0
1332.940063 80.0
1333.027344 192.0
1333.179932 164.0
1333.427002 56.0
1334.451904 192.0
1336.568481 156.0
1337.754761 76.0
1338.414917 148.0
1338.478638 176.0
1338.963379 144.0
1339.706421 76.0
1339.983154 156.0
1340.588013 172.0
1341.783325 216.0
1341.834351 164.0
1342.723999 184.0
1342.829834 444.0
1343.730591 252.0
1344.825195 132.0
1345.409058 196.0
1345.460205 136.0
1345.650024 188.0
1346.85498 156.0
1347.198242 188.0
1347.994629 168.0
1348.060425 128.0
1349.14209 144.0
1350.714355 180.0
1351.453125 100.0
1351.694702 128.0
1352.104492 160.0
1352.748535 116.0
1352.931519 72.0
1353.422119 200.0
1353.934692 104.0
1356.044556 128.0
1356.147217 172.0
1357.026855 168.0
1357.246826 172.0
1358.310181 316.0
1358.809082 152.0
1360.386841 212.0
1361.517578 40.0
1362.97937 136.0
1363.236572 140.0
1363.449707 172.0
1363.978882 76.0
1364.647827 112.0
1364.912476 168.0
1365.647949 172.0
1365.861206 60.0
1365.993652 104.0
1366.096558 212.0
1368.69458 248.0
1370.528564 200.0
1370.926514 92.0
1372.216431 136.0
1372.651489 152.0
1374.296265 156.0
1376.089722 140.0
1376.163574 128.0
1376.421997 200.0
1376.879883 64.0
1377.219604 60.0
1377.500244 132.0
1379.458496 228.0
1379.91687 160.0
1380.634033 100.0
1381.003906 96.0
1381.455078 68.0
1381.662231 112.0
1381.935913 168.0
1382.550049 184.0
1382.890503 100.0
1383.408691 116.0
1383.464722 160.0
1384.000977 136.0
1384.128418 200.0
1384.956299 108.0
1385.134033 116.0
1386.964233 92.0
1387.097656 144.0
1387.994629 116.0
1388.466187 176.0
1388.832642 176.0
1389.210938 124.0
1389.975098 168.0
1390.041992 52.0
1390.42041 148.0
1391.281372 40.0
1391.41687 172.0
1392.268921 124.0
1392.697632 200.0
1392.727295 144.0
1392.937378 204.0
1394.103882 132.0
1394.646362 148.0
1394.928833 120.0
1395.151855 56.0
1395.3302 180.0
1395.709473 72.0
1395.90271 196.0
1396.274536 172.0
1396.348999 152.0
1396.542358 148.0
1397.010986 96.0
1397.271362 152.0
1398.908447 128.0
1399.317993 196.0
1400.241333 148.0
1400.360474 232.0
1400.650879 44.0
1400.99353 156.0
1401.671631 140.0
1403.125 140.0
1403.281494 200.0
1403.520142 72.0
1404.735718 120.0
1405.101318 96.0
1405.444458 180.0
1405.54895 84.0
1406.056396 52.0
1406.377319 140.0
1406.653442 140.0
1406.765503 144.0
1407.078979 160.0
1407.526978 152.0
1408.378296 220.0
1408.804077 188.0
1408.960938 120.0
1409.401733 152.0
1410.298584 144.0
1410.590088 220.0
1410.664795 120.0
1412.197632 188.0
1412.339722 160.0
1412.53418 120.0
1412.736206 184.0
1412.998047 136.0
1413.237427 120.0
1413.955811 176.0
1414.76416 208.0
1416.097046 120.0
1418.097412 72.0
1418.539673 168.0
1418.712036 40.0
1419.004395 116.0
1419.12439 184.0
1419.439331 184.0
1420.084229 176.0
1421.344482 184.0
1421.682251 220.0
1421.779785 88.0
1423.161011 128.0
1423.401245 184.0
1423.483765 80.0
1424.542847 140.0
1425.091187 176.0
1426.068115 92.0
1427.195679 172.0
1427.869751 188.0
1428.065308 200.0
1428.902954 184.0
1428.970703 172.0
1430.091919 216.0
1430.317749 180.0
1430.679077 132.0
1431.597656 184.0
1431.77832 188.0
1432.584351 144.0
1433.300049 48.0
1433.397949 192.0
1434.57373 136.0
1435.614136 116.0
1436.209961 120.0
1436.338257 156.0
1436.7229 116.0
1436.903931 164.0
1437.877319 168.0
1439.681152 172.0
1440.134766 232.0
1442.053833 208.0
1443.036499 168.0
1443.119751 160.0
1443.369263 88.0
1444.243774 224.0
1444.760864 160.0
1445.615845 180.0
1446.092529 132.0
1446.395386 156.0
1446.910156 180.0
1447.674805 168.0
1448.856445 188.0
1448.909424 60.0
1451.039062 132.0
1451.175537 56.0
1451.251343 208.0
1451.456543 180.0
1452.616333 260.0
1453.734253 252.0
1454.262939 136.0
1456.016724 104.0
1456.252075 172.0
1456.616699 140.0
1456.707886 80.0
1457.566284 156.0
1458.28064 116.0
1458.926758 104.0
1459.086426 252.0
1459.238525 148.0
1459.629028 108.0
1460.166138 216.0
1460.659668 212.0
1460.835449 156.0
1461.132202 60.0
1461.185425 136.0
1461.573486 140.0
1462.014771 136.0
1462.159424 228.0
1462.661743 200.0
1462.737915 176.0
1463.179321 156.0
1465.060425 136.0
1465.220337 108.0
1466.172852 192.0
1466.774902 120.0
1467.018921 148.0
1467.819458 148.0
1468.170166 60.0
1468.459961 164.0
1468.652466 52.0
1468.841309 228.0
1468.910034 180.0
1470.039185 136.0
1470.36731 176.0
1471.321411 152.0
1471.680298 188.0
1472.268188 96.0
1472.375122 168.0
1472.627197 196.0
1472.917358 188.0
1474.437866 68.0
1474.896362 88.0
1475.056885 128.0
1476.012573 132.0
1476.456055 196.0
1476.754272 184.0
1477.305054 136.0
1477.511597 184.0
1477.848267 132.0
1478.154297 168.0
1478.490967 152.0
1478.682373 156.0
1478.78186 168.0
1478.934937 116.0
1478.988525 100.0
1479.355835 164.0
1479.616211 208.0
1479.738647 136.0
1479.845825 236.0
1480.098511 168.0
1480.320557 232.0
1480.557983 156.0
1481.048096 120.0
1481.124756 116.0
1481.667603 116.0
1482.105347 104.0
1482.235596 184.0
1482.572754 176.0
1482.649414 128.0
1482.994263 132.0
1483.799072 192.0
1485.279175 156.0
1485.432495 188.0
1485.655029 124.0
1486.076904 108.0
1486.138306 196.0
1486.192017 144.0
1487.596436 56.0
1487.74231 188.0
1487.865112 216.0
1488.172241 256.0
1489.593018 84.0
1489.738892 128.0
1490.21521 60.0
1490.298462 120.0
1491.052856 112.0
1491.206543 140.0
1492.328857 164.0
1492.38269 152.0
1493.428467 148.0
1494.776489 156.0
1495.128784 232.0
1495.305786 164.0
1496.33728 136.0
1496.891602 228.0
1497.330566 48.0
1497.623169 68.0
1497.684814 172.0
1498.247192 200.0
1498.786499 200.0
1498.932861 136.0
1499.210327 144.0
1499.426025 240.0
1499.849976 160.0
1500.374146 244.0
1500.859863 232.0
1501.654175 164.0
1503.143066 140.0
