>compound 8-chloro-1-methyl-6-phenyl-4H-[1,2,4]triazolo[4,3-a][1,4]benzodiazepine
>formula C17H13ClN4
>ionization [M+H]+
>parentmass 309.09015054809055
#inchi InChI=1S/C17H13ClN4/c1-11-20-21-16-10-19-17(12-5-3-2-4-6-12)14-9-13(18)7-8-15(14)22(11)16/h2-9H,10H2,1H3
#inchikey VREFGVBLTWBCJP
#Ion_Source LC-ESI
#Instrument qTof
#Compound_Source Commercial
#PI Dorrestein
#Data_Collector Garg_Neha
#Scan -1
#Precursor_MZ 309.09
#ExactMass 308.083
#Charge 1
#CAS_Number N/A
#Pubmed_ID N/A
#Smiles Cc1nnc2CN=C(c3ccccc3)c4cc(Cl)ccc4-n12
#INCHI_AUX N/A
#Library_Class 1
#SpectrumID CCMSLIB00000078969
#IonMode Positive
#UpdateWorkflowName UPDATE-SINGLE-ANNOTATED-GOLD
#LibraryQualityString Gold
#TaskID 278b19f5865741e282cec7349aa7e7a1
##Scan# 1256
#SpectrumFile NCP003352_A2_B11_BC4_01_15718.mzXML
#LibraryName NIHcollectionI_05062014.mgf
#MQScore -1
#Organism NIHcollectionI_05062014
#TIC_Query 0
#RT_Query -1
#MZErrorPPM -1
#SharedPeaks 0
#MassDiff 0
#LibMZ -1
#SpecMZ 309.09
#SpecCharge 0
#internalFilename spec-00000.mgf

>collision 10
45.384628 176.0
45.591625 152.0
45.695164 208.0
46.314796 184.0
46.712517 140.0
46.863636 164.0
47.20488 152.0
47.381451 164.0
47.456829 224.0
47.504829 176.0
47.516373 116.0
47.561092 168.0
47.86079 208.0
48.914368 200.0
49.209919 180.0
50.443417 212.0
50.787502 176.0
51.660706 156.0
51.788101 140.0
51.990253 232.0
52.161171 200.0
52.341007 212.0
53.220146 200.0
53.443985 176.0
53.494923 140.0
53.709129 176.0
53.881386 184.0
53.913532 144.0
54.13443 144.0
54.239918 180.0
55.447063 144.0
55.500431 164.0
55.607239 156.0
55.836037 164.0
56.080208 196.0
56.186085 152.0
56.217419 172.0
56.445972 176.0
56.508793 148.0
56.963039 184.0
57.283447 148.0
57.461338 220.0
57.650082 148.0
58.070961 148.0
59.411793 144.0
60.799782 204.0
60.980667 160.0
61.394794 152.0
61.541756 224.0
61.750877 168.0
62.160515 116.0
62.784286 144.0
63.614967 232.0
63.662598 164.0
63.802422 196.0
63.897846 164.0
64.061821 180.0
64.26429 184.0
64.360062 220.0
64.684601 152.0
64.752464 208.0
65.160896 264.0
65.291092 152.0
65.371529 164.0
65.534164 172.0
65.690544 160.0
65.736626 128.0
65.755089 144.0
65.808357 248.0
66.445541 144.0
66.826218 152.0
66.840858 172.0
67.080276 140.0
67.374016 152.0
67.587715 144.0
67.833862 168.0
68.004448 208.0
68.020859 160.0
68.219627 192.0
69.72377 144.0
69.882607 168.0
70.840027 164.0
71.230881 160.0
71.28508 168.0
71.314896 152.0
71.437645 156.0
72.597908 144.0
72.810135 164.0
73.288139 196.0
73.390404 256.0
73.689095 168.0
73.742065 156.0
74.002083 176.0
74.482262 160.0
74.881294 152.0
75.378136 152.0
75.576988 148.0
75.648666 248.0
75.815674 148.0
75.864487 140.0
76.025787 176.0
76.547302 144.0
77.641258 212.0
78.101944 112.0
78.136604 168.0
78.905548 148.0
79.312706 140.0
79.532646 172.0
79.685371 152.0
79.993027 188.0
80.199654 152.0
80.345879 140.0
80.729904 200.0
81.075409 188.0
81.184761 156.0
81.36599 140.0
81.829834 272.0
82.659271 204.0
83.073212 180.0
83.16394 144.0
84.517982 164.0
85.600983 244.0
85.890175 140.0
86.093353 172.0
86.62233 156.0
86.676056 212.0
86.822502 212.0
86.922676 172.0
87.095329 172.0
87.497002 184.0
87.632957 140.0
87.799606 160.0
87.860413 140.0
88.144211 140.0
88.333038 288.0
88.992714 144.0
89.19561 156.0
89.227562 148.0
89.315948 200.0
89.517326 168.0
89.786812 152.0
89.807556 152.0
89.939636 180.0
90.132263 220.0
90.289169 156.0
90.442421 172.0
90.842239 152.0
90.939011 160.0
91.113708 144.0
91.326614 196.0
92.128227 180.0
92.770203 140.0
92.78746 156.0
93.075256 156.0
93.248154 196.0
93.472626 152.0
93.814766 272.0
93.958694 144.0
94.509331 188.0
94.662247 192.0
95.075157 144.0
95.170273 140.0
95.249901 164.0
95.67382 144.0
96.055771 164.0
96.079178 176.0
96.955551 264.0
97.152687 212.0
97.500748 140.0
97.654099 196.0
97.931015 184.0
98.061646 140.0
98.215439 152.0
98.238556 100.0
98.83577 272.0
98.881287 192.0
99.1427 168.0
99.503708 168.0
99.53746 168.0
100.253593 148.0
100.413078 180.0
100.580681 148.0
100.774391 168.0
100.812355 144.0
101.11834 224.0
101.197784 116.0
101.314568 220.0
101.635353 200.0
102.033028 312.0
102.216934 184.0
102.768158 340.0
102.794937 176.0
103.044327 144.0
103.147827 168.0
103.511993 164.0
103.765266 184.0
103.872749 168.0
104.028999 144.0
104.050835 1056.0
104.205681 148.0
104.31675 184.0
104.494385 156.0
104.885376 180.0
104.973045 152.0
105.054626 176.0
105.097473 152.0
105.187271 164.0
105.403755 144.0
106.153557 236.0
106.175507 148.0
106.557304 168.0
107.259048 168.0
107.84938 172.0
108.197845 176.0
108.354301 204.0
108.889473 192.0
109.143494 168.0
109.26123 208.0
109.440536 184.0
109.722603 136.0
109.803131 216.0
110.01387 200.0
110.057716 188.0
110.274971 172.0
110.743637 172.0
110.999313 160.0
111.322472 152.0
111.35817 192.0
111.374977 172.0
111.650299 164.0
111.88176 144.0
111.936241 132.0
111.978615 236.0
112.081841 164.0
112.292648 164.0
112.368591 144.0
112.586006 144.0
112.778259 200.0
113.288223 168.0
113.315765 296.0
113.578629 212.0
113.837555 200.0
114.677895 152.0
115.070404 180.0
115.189995 176.0
115.247673 180.0
115.998856 180.0
116.054596 236.0
116.224632 176.0
116.412941 160.0
116.881554 148.0
117.068222 156.0
117.464096 172.0
117.730873 172.0
117.791351 156.0
117.914505 192.0
118.126404 144.0
118.74588 144.0
118.943321 140.0
119.14093 248.0
119.460495 148.0
119.730392 168.0
120.045227 196.0
121.012177 176.0
121.193962 160.0
121.218071 160.0
121.409416 196.0
121.940079 176.0
121.966454 160.0
122.157753 144.0
122.62455 192.0
123.136406 144.0
123.271164 168.0
123.293266 180.0
123.467911 204.0
123.919479 240.0
124.336357 140.0
124.618629 168.0
124.693924 200.0
124.70948 200.0
124.749489 156.0
124.91497 140.0
125.522057 180.0
125.778618 164.0
125.899185 148.0
125.919281 164.0
126.500633 212.0
126.885956 148.0
127.040695 180.0
127.141663 148.0
127.921593 140.0
128.04776 1488.0
128.113007 164.0
128.24144 200.0
128.318085 172.0
128.677399 168.0
129.008911 140.0
129.047592 848.0
129.128738 168.0
129.585999 188.0
130.052063 292.0
130.151733 132.0
130.308548 196.0
130.450668 200.0
130.582535 212.0
131.061615 2528.0
131.465195 140.0
131.987305 212.0
132.026184 140.0
132.064545 300.0
132.632339 212.0
132.775055 268.0
133.011627 148.0
133.061874 152.0
133.197372 148.0
133.61026 152.0
133.903488 168.0
133.93573 168.0
133.984955 212.0
134.018341 144.0
134.403717 172.0
135.151627 200.0
135.464905 232.0
136.409363 168.0
136.523285 152.0
136.741974 140.0
136.783859 172.0
136.909592 172.0
137.012085 176.0
137.214828 188.0
137.303436 160.0
137.336334 116.0
137.845032 216.0
137.870743 168.0
137.8871 140.0
138.010178 3904.0
138.383011 188.0
138.427505 164.0
138.474335 164.0
138.628952 176.0
138.927689 184.0
139.018723 376.0
139.163757 152.0
139.26004 196.0
139.471512 164.0
140.00647 868.0
140.050323 180.0
140.524628 180.0
141.055511 236.0
141.291992 148.0
142.063492 300.0
142.24939 236.0
142.337311 112.0
143.005249 140.0
143.059601 196.0
144.020966 172.0
144.054398 156.0
144.077209 300.0
144.214493 192.0
144.296799 116.0
144.369003 120.0
144.453613 156.0
144.965973 148.0
145.035477 196.0
145.076233 228.0
146.055954 160.0
146.347137 172.0
146.877319 164.0
147.058289 172.0
148.323303 176.0
148.536682 212.0
148.558517 248.0
148.912903 140.0
148.959045 216.0
149.319901 172.0
149.345535 196.0
149.437973 156.0
149.691116 180.0
149.861618 144.0
149.963959 212.0
150.092026 140.0
150.139984 160.0
150.649628 148.0
150.813339 356.0
150.876907 160.0
151.055069 276.0
151.366241 148.0
151.655319 196.0
152.027725 516.0
152.048523 100.0
152.252899 176.0
152.37677 140.0
152.789795 148.0
153.047745 144.0
153.343842 224.0
153.472031 168.0
153.731033 156.0
153.918625 192.0
154.021744 156.0
154.071762 156.0
154.365891 212.0
154.432663 140.0
154.702377 152.0
155.071762 152.0
155.498032 156.0
156.06041 404.0
156.129059 140.0
156.206161 192.0
156.517258 144.0
156.681641 192.0
156.973267 144.0
157.030624 204.0
157.073029 188.0
157.089432 164.0
157.162827 144.0
157.347519 140.0
157.49736 164.0
157.682251 164.0
157.732239 164.0
157.842484 160.0
158.242569 140.0
158.276962 152.0
158.39032 168.0
158.771286 152.0
159.059814 140.0
159.089951 172.0
159.29837 248.0
159.49437 144.0
160.076569 144.0
160.377533 160.0
160.519028 176.0
160.629028 136.0
160.816711 160.0
160.844696 192.0
160.868134 196.0
160.988388 176.0
161.584915 168.0
161.92157 164.0
162.012161 592.0
162.661942 184.0
162.877777 152.0
163.005585 1028.0
163.054459 112.0
163.223923 100.0
163.297165 116.0
163.40654 140.0
163.561783 140.0
163.822556 136.0
163.852081 164.0
164.009109 284.0
164.067627 204.0
164.649048 208.0
164.673462 172.0
164.719437 144.0
165.021515 7044.0
165.070175 596.0
165.308105 96.0
165.925781 168.0
166.026108 460.0
166.079895 324.0
166.122208 140.0
166.271027 148.0
166.295975 156.0
166.725601 172.0
167.019241 2372.0
167.062424 144.0
167.216812 144.0
167.324921 160.0
167.530945 156.0
167.904694 144.0
167.942215 168.0
168.016098 200.0
168.067139 176.0
168.720627 176.0
169.077087 560.0
169.168182 184.0
169.684601 188.0
170.018677 208.0
170.084595 216.0
170.188278 168.0
170.553345 148.0
170.632965 108.0
171.078964 1324.0
171.117844 168.0
171.347031 148.0
171.670242 160.0
171.915451 192.0
172.027679 236.0
172.05954 176.0
172.086777 3416.0
172.123505 140.0
172.458679 160.0
172.730606 264.0
173.057739 148.0
173.087143 344.0
173.41925 204.0
173.933334 140.0
174.29393 144.0
174.435059 160.0
174.511292 180.0
174.700653 144.0
174.737473 188.0
175.16658 224.0
175.926041 156.0
176.059433 284.0
176.142578 156.0
176.25354 232.0
176.422684 144.0
176.703018 156.0
176.830414 140.0
177.019379 444.0
177.137177 200.0
177.404816 172.0
177.455185 140.0
177.626297 176.0
177.912338 200.0
178.040924 152.0
178.077042 1012.0
178.371063 152.0
179.021576 272.0
179.079132 108.0
179.980194 144.0
180.023804 108.0
180.076248 260.0
180.390259 204.0
180.691147 180.0
181.060349 172.0
181.415665 96.0
181.66803 136.0
181.692963 140.0
181.808502 144.0
182.012512 156.0
182.281128 256.0
182.437012 152.0
182.536484 152.0
182.650482 160.0
183.031754 144.0
183.074692 252.0
183.834885 152.0
183.933701 124.0
184.034637 160.0
184.234482 140.0
184.303223 172.0
184.556107 140.0
185.094559 204.0
185.192047 152.0
185.244736 168.0
185.389832 204.0
185.452164 172.0
185.717865 184.0
185.823669 172.0
186.181976 152.0
186.293335 152.0
186.769028 140.0
186.828873 164.0
187.5168 168.0
187.711334 156.0
188.025055 228.0
188.625931 188.0
188.858353 148.0
189.015717 160.0
189.057693 172.0
189.753815 152.0
189.923096 148.0
190.00856 160.0
190.036301 204.0
190.065735 1444.0
190.261353 160.0
190.373932 196.0
190.5737 180.0
190.895813 144.0
191.074326 2672.0
191.92865 172.0
192.01413 160.0
192.032394 156.0
192.076477 344.0
192.149292 148.0
192.229843 124.0
192.394913 148.0
192.444611 156.0
192.839645 208.0
192.980621 144.0
193.058319 196.0
193.088943 304.0
193.312546 188.0
193.630905 140.0
194.541214 172.0
194.734741 220.0
195.026474 152.0
195.298965 156.0
195.412308 156.0
195.547562 164.0
196.071045 268.0
196.177551 132.0
197.011063 116.0
197.046799 192.0
197.084015 1212.0
198.091156 1236.0
198.516296 196.0
198.903458 152.0
199.030975 1404.0
199.093781 148.0
199.234818 160.0
199.267731 180.0
199.532715 160.0
199.619888 176.0
199.639572 168.0
199.906815 176.0
200.013763 156.0
200.035568 280.0
200.098206 152.0
200.486923 140.0
200.943726 148.0
201.028366 324.0
201.146912 144.0
201.207748 160.0
202.023132 100.0
202.071625 128.0
202.450302 140.0
202.488632 224.0
202.526764 140.0
202.552261 168.0
202.829941 160.0
203.034378 400.0
203.073837 520.0
203.935623 148.0
204.032349 1788.0
204.080688 3652.0
204.121704 152.0
204.36348 196.0
204.48703 212.0
204.779099 216.0
205.037247 336.0
205.077225 16724.0
205.219269 120.0
205.289169 148.0
205.384064 96.0
205.459503 184.0
205.656601 152.0
205.994202 148.0
206.04808 2908.0
206.080231 3284.0
206.308533 112.0
206.913498 164.0
207.053406 472.0
207.080566 252.0
207.642853 148.0
207.828201 196.0
208.043823 768.0
208.078262 368.0
208.3461 140.0
209.050537 156.0
209.084381 116.0
209.136871 160.0
209.450729 180.0
209.88887 136.0
210.613144 144.0
211.037949 240.0
211.194717 152.0
211.347443 164.0
212.034302 212.0
212.233765 176.0
212.332352 236.0
212.465775 272.0
212.488998 212.0
212.904068 144.0
213.005722 160.0
213.030853 288.0
213.107407 144.0
213.415497 160.0
213.633621 160.0
213.918793 152.0
213.977097 144.0
214.043823 348.0
214.233307 164.0
214.288651 164.0
214.530548 200.0
215.054977 96.0
215.329468 144.0
215.47316 180.0
215.671875 196.0
215.973038 140.0
216.035629 252.0
216.068848 2792.0
216.866058 188.0
217.032959 176.0
217.076843 744.0
218.055222 164.0
218.088638 920.0
218.360489 144.0
218.551697 144.0
218.572296 144.0
218.810089 144.0
219.102692 3032.0
219.777435 104.0
220.01059 156.0
220.104797 448.0
220.453629 180.0
220.941498 140.0
220.962204 256.0
221.082626 412.0
221.48259 152.0
221.972214 188.0
222.092087 296.0
222.357864 164.0
223.258957 168.0
223.54361 184.0
223.69838 196.0
224.026352 6676.0
224.108658 208.0
224.425308 168.0
224.945251 156.0
225.030487 1316.0
225.380432 160.0
225.810898 148.0
225.852783 192.0
226.042831 2304.0
226.221176 136.0
226.26947 176.0
226.29866 160.0
226.634125 176.0
226.932175 344.0
227.048981 5084.0
227.269775 168.0
227.409439 140.0
227.565948 112.0
228.043945 940.0
228.081894 500.0
228.233932 144.0
228.833511 192.0
228.883865 140.0
229.016373 204.0
229.048035 2208.0
229.26738 140.0
229.408096 156.0
229.555832 188.0
230.052719 268.0
230.564117 140.0
230.91481 164.0
231.044312 232.0
231.088394 240.0
231.747284 176.0
232.047989 484.0
232.087433 1092.0
232.365784 168.0
232.461197 152.0
232.660172 188.0
232.741272 140.0
232.878799 164.0
233.042328 144.0
233.094437 2124.0
233.944031 172.0
234.049606 312.0
234.093887 688.0
234.593262 140.0
234.718765 184.0
235.058914 144.0
235.104309 284.0
235.271133 208.0
235.516479 156.0
235.537857 216.0
235.574509 148.0
236.04213 188.0
236.816391 160.0
236.98793 168.0
237.079346 732.0
237.28299 148.0
237.537491 140.0
237.610321 144.0
237.757614 144.0
238.042984 1720.0
238.270386 224.0
238.832932 168.0
238.866776 156.0
238.951584 196.0
239.039047 1336.0
239.938431 156.0
240.048248 3644.0
240.333206 140.0
240.583206 156.0
240.629517 196.0
241.053452 15072.0
241.227661 116.0
241.26796 116.0
241.323532 152.0
241.59819 100.0
241.773529 152.0
241.919601 132.0
242.054886 3180.0
242.457611 148.0
242.479309 228.0
242.659088 116.0
242.702499 168.0
242.89917 172.0
243.051163 3936.0
243.229889 152.0
243.309174 104.0
243.338547 412.0
243.496918 312.0
243.90831 108.0
244.05571 808.0
244.093582 408.0
244.613144 168.0
244.65361 192.0
244.694077 144.0
244.787491 188.0
244.901367 140.0
244.96814 160.0
245.108124 2304.0
245.407562 192.0
245.605438 132.0
246.105942 920.0
246.203262 172.0
246.824661 220.0
247.110336 908.0
248.108032 288.0
248.582413 160.0
249.062744 148.0
249.150711 152.0
250.02298 164.0
250.377426 140.0
251.037842 9064.0
251.115829 136.0
251.540863 144.0
251.828201 164.0
251.939941 96.0
252.044052 2368.0
252.588928 136.0
252.643723 144.0
252.675354 176.0
252.915558 128.0
253.046982 1636.0
253.326309 128.0
253.539795 168.0
253.688766 196.0
253.750717 132.0
253.847473 140.0
254.070114 904.0
254.1651 104.0
254.50412 184.0
254.594498 156.0
254.727692 120.0
254.964722 152.0
255.068604 5324.0
255.132156 136.0
255.162704 136.0
255.577209 144.0
255.627594 144.0
255.756485 148.0
256.072906 1668.0
256.641449 136.0
257.067657 1724.0
257.111206 164.0
257.210144 184.0
258.069977 292.0
258.226196 216.0
258.424194 200.0
259.073822 168.0
259.182068 96.0
259.744385 184.0
259.790131 136.0
259.864166 192.0
260.518005 140.0
260.905426 124.0
261.038696 148.0
261.463318 148.0
261.707977 160.0
262.565125 196.0
262.590942 148.0
262.768341 168.0
263.740356 140.0
264.057281 1544.0
264.094757 132.0
264.45517 140.0
264.672058 196.0
264.788635 160.0
264.814545 144.0
265.060364 280.0
265.559998 144.0
266.011963 124.0
266.059021 508.0
266.134399 144.0
266.780914 212.0
266.819916 168.0
266.851257 188.0
267.067291 220.0
268.060425 1220.0
268.164703 156.0
269.070587 204.0
269.718323 232.0
269.933716 188.0
270.015472 180.0
270.062378 388.0
270.888306 120.0
271.04306 124.0
271.138397 208.0
271.250763 140.0
271.335083 176.0
271.42688 212.0
271.531799 188.0
272.040314 284.0
272.110138 312.0
272.572021 124.0
273.113922 1840.0
273.177399 192.0
273.960297 116.0
274.122162 33716.0
274.233368 100.0
274.280518 188.0
274.324036 216.0
274.604828 288.0
274.850403 160.0
274.923645 112.0
275.124756 5808.0
275.192932 204.0
275.273071 164.0
275.327271 168.0
275.815094 184.0
276.128204 580.0
276.197357 196.0
276.233154 136.0
276.391602 276.0
276.516571 236.0
276.805695 144.0
277.026886 160.0
277.13208 156.0
277.457306 152.0
277.699371 144.0
278.129883 116.0
278.163879 148.0
278.255035 116.0
278.295258 128.0
278.494995 156.0
278.539124 204.0
278.562378 140.0
278.621338 96.0
278.848114 148.0
279.065033 460.0
279.180573 148.0
279.313599 160.0
280.064026 1872.0
280.277802 248.0
280.296661 100.0
280.422363 152.0
280.475677 168.0
280.580902 172.0
280.615692 244.0
280.679047 152.0
280.74411 164.0
280.868073 176.0
280.894348 272.0
280.964355 232.0
281.004883 140.0
281.073059 91880.0
281.180023 184.0
281.247711 176.0
281.457031 128.0
281.928101 112.0
281.965515 160.0
282.010742 216.0
282.076538 14884.0
282.137878 196.0
282.230103 148.0
282.324615 168.0
282.370972 184.0
282.43045 156.0
282.641602 132.0
282.681763 116.0
282.74527 112.0
282.859406 172.0
283.069946 21840.0
283.437897 188.0
283.522522 104.0
283.601074 180.0
283.666382 176.0
283.933868 204.0
283.974335 128.0
283.998352 140.0
284.074493 2364.0
284.113312 216.0
284.192596 164.0
284.291229 100.0
284.31897 172.0
284.887177 156.0
285.001373 124.0
285.040619 196.0
285.072266 144.0
285.491699 124.0
285.607697 100.0
285.757935 128.0
285.945221 144.0
286.02121 188.0
286.065155 120.0
286.244019 136.0
286.686127 192.0
286.985291 160.0
287.979736 108.0
288.93396 176.0
289.639923 132.0
289.989899 100.0
290.286682 152.0
290.588196 144.0
291.080353 164.0
291.107513 148.0
291.199219 184.0
291.393646 232.0
291.776886 168.0
292.057007 276.0
293.022491 168.0
293.0672 204.0
293.431488 140.0
293.808899 228.0
294.060364 436.0
294.52005 152.0
295.065338 156.0
295.118103 168.0
295.494324 188.0
295.834686 148.0
295.95636 180.0
297.727844 152.0
297.849426 156.0
297.94397 136.0
298.640533 148.0
299.421967 152.0
299.639008 164.0
299.751953 184.0
300.100067 144.0
300.616272 184.0
301.142242 164.0
301.194031 160.0
301.352936 156.0
302.033966 136.0
303.363678 156.0
303.91983 156.0
304.998596 172.0
305.681 148.0
306.31488 100.0
306.432343 184.0
306.806244 112.0
306.890717 132.0
307.089111 100.0
307.157471 168.0
307.191895 156.0
307.221222 320.0
307.516144 120.0
307.545319 156.0
307.632019 140.0
307.666321 124.0
307.764709 196.0
307.800964 240.0
307.826782 204.0
307.864166 156.0
307.949097 108.0
308.011169 368.0
308.084167 4232.0
308.145844 96.0
308.199646 184.0
308.224762 208.0
308.255249 236.0
308.267303 116.0
308.308044 132.0
308.322235 276.0
308.362274 172.0
308.394104 280.0
308.444336 200.0
308.478088 164.0
308.539307 204.0
308.570831 168.0
308.643646 128.0
308.666595 104.0
308.704529 292.0
308.822479 464.0
308.870728 352.0
308.896362 416.0
308.93161 360.0
308.964905 180.0
309.014709 884.0
309.024902 664.0
309.03891 712.0
309.092743 246940.0
309.203217 384.0
309.292328 104.0
309.332336 208.0
309.386414 184.0
309.420197 1080.0
309.481354 240.0
309.524445 520.0
309.626831 740.0
309.672272 10004.0
309.711334 360.0
309.761261 272.0
309.842041 268.0
309.868561 172.0
309.927155 232.0
309.969757 276.0
310.002167 152.0
310.095093 94540.0
310.185333 96.0
310.233948 212.0
310.297455 400.0
310.343323 156.0
310.391663 120.0
310.50061 136.0
310.526001 156.0
310.596893 152.0
310.643677 136.0
310.687561 364.0
310.744171 180.0
310.831085 164.0
310.876556 100.0
310.919586 360.0
310.953308 320.0
311.008087 272.0
311.039276 452.0
311.089691 129884.0
311.182953 232.0
311.266205 144.0
311.311493 148.0
311.339111 196.0
311.371765 248.0
311.533325 200.0
311.622559 148.0
311.667145 1000.0
311.710999 244.0
311.836945 164.0
311.928009 108.0
311.968781 336.0
312.024689 180.0
312.091125 18480.0
312.146301 280.0
312.218262 344.0
312.255981 232.0
312.284576 396.0
312.361633 524.0
312.406281 260.0
312.45285 204.0
312.477264 284.0
312.512756 240.0
312.805908 180.0
312.861847 120.0
312.930084 184.0
313.00705 108.0
313.090759 292.0
313.286652 144.0
313.352844 124.0
313.451843 124.0
313.480988 164.0
313.560974 136.0
313.724304 104.0
313.75946 108.0
313.853455 124.0
313.890198 160.0
313.9263 296.0
313.97879 188.0
314.020874 108.0
314.06308 208.0
314.107544 96.0
314.216553 144.0
314.258484 156.0
314.275604 116.0
314.334869 116.0
314.461609 100.0
314.577209 104.0
314.661652 108.0
314.976074 128.0
315.176666 108.0
315.39682 112.0
316.641846 124.0
320.642334 116.0
321.444183 104.0
322.627716 132.0
325.410126 252.0
326.357758 140.0
326.502747 112.0
329.218872 200.0
333.474884 140.0
347.485565 192.0
374.414948 172.0
384.596375 168.0
387.443146 164.0
408.463928 96.0
492.238892 144.0
520.365662 104.0
547.383118 100.0
565.159546 108.0
598.66449 148.0
947.744385 96.0
1134.319214 156.0
1347.789795 152.0
1361.95813 144.0
1405.877808 140.0
1412.355225 152.0
1551.242065 140.0
1675.653076 188.0
1771.845825 212.0
1780.603027 160.0
1788.784058 248.0
1813.973877 176.0
1829.894165 148.0
1848.835327 188.0
1849.862427 160.0
1866.893433 268.0
1871.893188 176.0
1889.04248 192.0
1890.928711 164.0
1891.976074 140.0
1895.101196 128.0
1897.997559 200.0
1899.281006 224.0
1901.910156 152.0
1971.257935 212.0
