>compound MLS001075356-01!(2S)-2-[2-[(7-methyl-4-oxo-2,3-dihydro-1H-cyclopenta[c]chromen-9-yl)oxy]propanoylamino]-2-phenylacetic acid
>formula C24H23NO6
>ionization [M+H]+
>parentmass 422.15981390809054
#inchi InChI=1S/C24H23NO6/c1-13-11-18(20-16-9-6-10-17(16)24(29)31-19(20)12-13)30-14(2)22(26)25-21(23(27)28)15-7-4-3-5-8-15/h3-5,7-8,11-12,14,21H,6,9-10H2,1-2H3,(H,25,26)(H,27,28)/t14?,21-/m0/s1
#inchikey DSAGYHKERFGOOJ
#Ion_Source LC-ESI
#Instrument qTof
#Compound_Source NIH Natural Product Library
#PI Dorrestein
#Data_Collector VVP/LMS
#Scan -1
#Precursor_MZ 422.16
#ExactMass 421.153
#Charge 1
#CAS_Number N/A
#Pubmed_ID N/A
#Smiles CC(Oc1cc(C)cc2oc(=O)c3CCCc3c12)C(=O)N[C@H](C(=O)O)c4ccccc4
#INCHI_AUX N/A
#Library_Class 1
#SpectrumID CCMSLIB00000079443
#IonMode Positive
#UpdateWorkflowName UPDATE-SINGLE-ANNOTATED-GOLD
#LibraryQualityString Gold
#TaskID b1d8e8f6646f4e71acdff9ca3d919d08
##Scan# 2174
#SpectrumFile p1-D06_GD6_01_17914.mzXML
#LibraryName NIH_Natural_Products_Library.mgf
#MQScore -1
#Organism NIH_Natural_Products_Library
#TIC_Query 0
#RT_Query -1
#MZErrorPPM -1
#SharedPeaks 0
#MassDiff 0
#LibMZ -1
#SpecMZ 422.16
#SpecCharge 0
#internalFilename spec-00000.mgf

>collision 10
94.98806 184.0
95.164665 84.0
95.316162 152.0
95.80645 244.0
95.91362 168.0
95.946671 176.0
96.286278 68.0
96.348778 128.0
96.579437 152.0
96.673347 180.0
96.886765 164.0
97.02198 136.0
97.120026 212.0
97.198502 116.0
97.414162 184.0
97.504837 116.0
97.943848 180.0
98.046036 208.0
98.260963 160.0
98.339897 176.0
98.393913 164.0
98.440575 188.0
98.513657 92.0
98.582802 184.0
98.671753 168.0
98.701408 172.0
98.78447 120.0
98.865219 236.0
98.885384 80.0
98.972481 184.0
99.327217 156.0
99.517731 248.0
99.579292 92.0
99.690536 180.0
99.8564 84.0
99.996803 76.0
100.044571 140.0
100.072441 212.0
100.122223 104.0
100.287582 120.0
100.347389 192.0
100.365334 124.0
100.389259 96.0
100.433136 192.0
100.596756 156.0
100.618713 76.0
100.698586 156.0
100.720558 168.0
100.754517 148.0
100.816452 168.0
101.078835 152.0
101.276604 48.0
101.334694 188.0
101.507065 160.0
101.605347 152.0
101.77623 168.0
101.842209 188.0
101.960747 168.0
102.079353 96.0
102.095444 188.0
102.121582 32.0
102.135666 124.0
102.254372 120.0
102.302681 192.0
102.47789 208.0
102.538338 124.0
102.552444 76.0
102.641151 56.0
102.667366 132.0
102.733925 228.0
102.85096 176.0
103.052032 168.0
103.113518 168.0
103.257065 164.0
103.441185 88.0
103.532295 88.0
103.591026 68.0
103.745041 64.0
103.844391 84.0
103.927567 136.0
104.052277 516.0
104.246353 148.0
104.323586 212.0
104.551392 132.0
104.600235 140.0
104.657234 244.0
104.726479 44.0
105.019974 200.0
105.070412 4884.0
105.092018 152.0
105.098015 204.0
105.270996 40.0
105.295502 180.0
105.338394 180.0
105.37925 104.0
105.466637 200.0
105.499825 64.0
105.534576 212.0
105.604111 136.0
105.763695 152.0
105.786217 180.0
105.984871 104.0
106.011505 184.0
106.025848 188.0
106.042244 176.0
106.066925 4300.0
106.146378 156.0
106.222679 100.0
106.298592 180.0
106.362213 44.0
106.432007 72.0
106.454597 56.0
106.680603 136.0
106.803978 152.0
106.927422 40.0
106.958298 220.0
107.04924 3064.0
107.16629 92.0
107.205437 96.0
107.339424 88.0
107.407486 152.0
107.593201 52.0
107.615913 108.0
107.777016 196.0
107.795609 136.0
107.810074 200.0
107.958916 180.0
108.049675 496.0
108.070229 172.0
108.2714 164.0
108.439209 44.0
108.5242 92.0
108.617523 132.0
108.654861 204.0
108.729561 100.0
108.816742 132.0
108.847885 116.0
108.96212 184.0
109.027466 464.0
109.063889 292.0
109.203247 140.0
109.255249 168.0
109.400917 148.0
109.419655 196.0
109.475876 144.0
109.525856 176.0
109.727989 72.0
109.89901 132.0
109.959526 40.0
110.034668 160.0
110.339691 64.0
110.508888 120.0
110.561409 216.0
110.580246 56.0
110.599083 32.0
110.69957 196.0
110.84288 164.0
110.883919 96.0
111.34967 68.0
111.517746 124.0
111.70015 208.0
111.776413 160.0
111.873222 232.0
111.887962 204.0
111.942703 152.0
111.962875 248.0
112.069084 92.0
112.24614 88.0
112.564758 136.0
112.642906 144.0
112.729523 136.0
112.854233 184.0
112.967628 188.0
113.252075 132.0
113.326218 144.0
113.374954 124.0
113.480934 108.0
113.540306 148.0
113.565758 168.0
113.731255 156.0
113.99247 212.0
114.377411 132.0
114.816307 100.0
114.841896 160.0
114.93576 132.0
114.965637 148.0
115.012589 136.0
115.05407 828.0
115.121475 176.0
115.243225 204.0
115.33725 188.0
115.371452 104.0
115.43132 80.0
115.504036 108.0
115.531837 144.0
115.739441 152.0
115.831528 152.0
115.870087 152.0
116.062904 308.0
116.202393 76.0
116.432068 192.0
116.664124 172.0
116.773781 132.0
116.922226 164.0
116.984642 132.0
117.068954 800.0
117.103073 100.0
117.118149 52.0
117.146149 184.0
117.172005 156.0
117.195702 176.0
117.262505 140.0
117.373917 120.0
117.763039 152.0
117.819206 188.0
117.942375 200.0
118.043983 204.0
118.067398 196.0
118.072166 124.0
118.143471 196.0
118.173759 204.0
118.250771 120.0
118.366394 124.0
118.422699 168.0
118.450859 48.0
118.695755 176.0
118.713104 144.0
118.767319 136.0
118.845421 172.0
119.021225 64.0
119.049454 188.0
119.081009 408.0
119.116783 144.0
119.140678 260.0
119.342796 124.0
119.381935 156.0
119.640854 164.0
119.664108 176.0
119.710526 192.0
119.730125 236.0
120.054832 148.0
120.103088 220.0
120.155167 176.0
120.37561 168.0
120.478264 164.0
120.517586 220.0
120.633415 204.0
120.696815 172.0
120.895874 84.0
121.065887 516.0
121.095093 164.0
121.158615 132.0
121.189293 208.0
121.408485 172.0
121.480865 260.0
121.645447 232.0
121.671791 216.0
121.796951 44.0
121.871643 116.0
121.983727 164.0
122.069473 160.0
122.117851 68.0
122.267456 128.0
122.379715 128.0
122.414948 176.0
122.478813 160.0
122.575752 168.0
122.599991 68.0
122.641861 176.0
122.820457 148.0
122.864578 176.0
123.045982 316.0
123.089699 224.0
123.257576 32.0
123.43219 176.0
123.615791 36.0
123.644554 184.0
123.932426 188.0
124.055534 124.0
124.120827 208.0
124.449211 96.0
124.591347 72.0
124.649117 136.0
124.766907 220.0
124.784691 220.0
124.824715 172.0
124.955849 188.0
125.029373 124.0
125.056076 152.0
125.457024 204.0
125.50161 100.0
125.610886 176.0
125.6912 216.0
125.773773 132.0
125.892097 188.0
125.956863 220.0
125.981438 116.0
126.019417 156.0
126.041275 184.0
126.213867 168.0
126.405334 184.0
126.603226 192.0
126.789162 184.0
126.822784 116.0
127.013367 168.0
127.050232 360.0
127.316353 68.0
127.380943 180.0
127.401703 176.0
127.741142 324.0
127.765892 112.0
127.86039 260.0
127.927917 64.0
128.061783 1376.0
128.094559 180.0
128.290604 156.0
128.500336 188.0
128.588333 116.0
128.644913 176.0
128.836716 168.0
128.899979 36.0
128.938126 168.0
128.943954 148.0
128.950531 236.0
129.068909 668.0
129.41568 136.0
129.436066 96.0
129.52211 44.0
129.714722 220.0
129.875702 180.0
129.94603 112.0
129.980057 196.0
130.016373 36.0
130.075821 876.0
130.135071 164.0
130.422913 52.0
130.509293 100.0
130.618454 92.0
130.652573 388.0
130.698074 116.0
130.750412 244.0
130.818695 204.0
130.914322 52.0
131.051529 428.0
131.083771 1224.0
131.110229 188.0
131.256134 224.0
131.30835 208.0
131.362686 160.0
131.523041 132.0
131.676422 44.0
131.714844 184.0
131.854218 160.0
132.016525 208.0
132.057831 660.0
132.080612 7612.0
132.114868 168.0
132.213257 176.0
132.366638 64.0
132.396393 252.0
132.433044 88.0
132.595703 44.0
132.657593 208.0
132.74472 140.0
132.774536 176.0
132.811218 312.0
132.939896 144.0
132.978714 192.0
133.024017 152.0
133.064713 1128.0
133.083344 908.0
133.107742 196.0
133.137115 132.0
133.201431 84.0
133.507111 52.0
133.693451 164.0
133.829254 220.0
133.873001 144.0
133.939789 164.0
134.02272 176.0
134.069107 160.0
134.101074 116.0
134.126434 144.0
134.39856 36.0
134.417007 196.0
134.502411 100.0
134.652481 248.0
134.705597 172.0
134.747559 196.0
134.899704 128.0
134.985245 124.0
135.044586 6584.0
135.077255 316.0
135.142532 68.0
135.33696 144.0
135.473373 204.0
135.645065 76.0
135.70372 80.0
135.853775 176.0
135.893204 156.0
135.976746 144.0
136.047699 464.0
136.094025 244.0
136.181061 108.0
136.241455 140.0
136.304184 176.0
136.394821 196.0
136.444885 156.0
136.515717 160.0
136.694824 216.0
136.911819 332.0
136.946243 104.0
136.978851 184.0
137.059082 704.0
137.116318 124.0
137.132645 76.0
137.235214 148.0
137.538467 192.0
137.704239 124.0
137.762634 168.0
137.874786 132.0
137.972961 128.0
138.138992 136.0
138.370667 260.0
138.473694 128.0
138.59552 228.0
138.729095 192.0
138.897934 136.0
138.947189 136.0
139.031662 40.0
139.362701 168.0
139.635437 148.0
140.063019 184.0
140.101486 92.0
140.327728 184.0
140.361664 112.0
140.497528 160.0
140.65799 56.0
140.875229 180.0
141.069321 920.0
141.154114 260.0
141.18959 120.0
141.726929 184.0
141.824097 164.0
141.929352 272.0
142.004288 120.0
142.076004 508.0
142.12764 128.0
142.264557 144.0
142.289627 64.0
142.35405 136.0
142.414886 156.0
142.472488 80.0
142.626343 148.0
142.647736 208.0
142.773758 188.0
142.885544 92.0
142.909073 180.0
142.99501 192.0
143.056885 300.0
143.087128 1348.0
143.261688 160.0
143.57869 128.0
143.712265 148.0
143.888885 44.0
144.057495 1000.0
144.088882 556.0
144.256775 108.0
144.292633 112.0
144.574875 76.0
144.605988 120.0
144.773315 148.0
144.895721 180.0
144.931656 196.0
144.979309 180.0
145.064667 6912.0
145.100952 772.0
145.420868 60.0
145.526489 144.0
145.584106 68.0
145.821945 44.0
145.922913 104.0
146.028717 132.0
146.067963 660.0
146.103271 528.0
146.209152 88.0
146.228394 44.0
146.510117 100.0
146.799347 32.0
146.825867 236.0
146.973022 156.0
147.02092 136.0
147.041901 188.0
147.079697 1452.0
147.120239 164.0
147.141968 56.0
147.173355 44.0
147.28685 144.0
147.332748 28.0
147.38591 72.0
147.731628 128.0
147.845337 132.0
147.925217 172.0
148.052261 148.0
148.084076 196.0
148.177063 168.0
148.271561 132.0
148.351547 160.0
148.712967 108.0
148.756653 208.0
148.865906 164.0
148.897476 172.0
148.967926 156.0
149.055756 384.0
149.417648 192.0
149.527145 128.0
149.634247 48.0
149.887558 144.0
149.941162 96.0
149.963104 68.0
150.059128 272.0
150.582794 136.0
150.739151 180.0
150.854019 144.0
151.039322 704.0
151.06485 220.0
151.475555 180.0
151.654419 144.0
151.719543 148.0
152.019836 108.0
152.070877 1152.0
152.154831 196.0
152.174469 164.0
152.370941 144.0
152.407806 140.0
152.42746 128.0
152.600342 180.0
152.643768 28.0
152.683105 60.0
152.916824 176.0
153.070053 364.0
153.101471 172.0
153.137924 40.0
153.259125 128.0
153.290375 396.0
153.562332 224.0
153.73996 184.0
153.806595 76.0
153.964508 104.0
154.018936 116.0
154.048584 176.0
154.077164 1036.0
154.320419 140.0
154.397079 156.0
154.651901 232.0
154.701416 152.0
154.770737 200.0
155.056091 612.0
155.085754 692.0
155.127487 36.0
155.286179 104.0
155.420135 172.0
155.737885 216.0
155.874527 188.0
155.959015 56.0
155.97641 104.0
156.056107 156.0
156.088638 820.0
156.175323 192.0
156.337036 124.0
156.366898 92.0
156.459 76.0
156.52623 204.0
156.583496 148.0
156.770737 200.0
156.959793 152.0
157.06369 456.0
157.089401 136.0
157.196762 132.0
157.453888 200.0
157.561295 80.0
157.81871 140.0
157.873718 140.0
157.978775 120.0
158.006287 160.0
158.072052 4136.0
158.106369 148.0
158.217346 156.0
158.344208 36.0
158.424362 176.0
158.589737 80.0
158.64238 120.0
158.777771 112.0
158.805359 144.0
159.07869 3032.0
159.116241 668.0
159.568726 216.0
160.016556 40.0
160.036697 68.0
160.077545 1020.0
160.129868 84.0
160.223068 48.0
160.424667 124.0
160.626404 180.0
160.739929 152.0
160.782822 136.0
161.060181 2716.0
161.094559 1092.0
161.136322 176.0
161.229828 160.0
161.442169 112.0
161.535416 152.0
161.581284 152.0
161.697678 148.0
161.74324 56.0
161.821716 44.0
161.941254 96.0
162.016724 104.0
162.061722 296.0
162.091187 216.0
162.166229 196.0
162.797928 108.0
162.985886 144.0
163.038864 764.0
163.063705 168.0
163.097717 248.0
163.240768 176.0
163.435944 52.0
163.481735 108.0
164.151688 72.0
164.368515 176.0
164.422104 184.0
164.575256 56.0
164.627228 192.0
164.69017 168.0
164.958466 76.0
165.042313 100.0
165.058899 156.0
165.077072 204.0
165.122101 212.0
165.413788 192.0
165.582764 168.0
165.637955 172.0
166.0737 160.0
166.513733 108.0
166.670425 116.0
166.742386 172.0
166.768082 156.0
166.966049 328.0
167.140961 116.0
167.16156 104.0
167.511688 128.0
167.576096 208.0
167.774536 124.0
167.867355 224.0
167.983414 200.0
168.050491 112.0
168.264709 228.0
168.331833 224.0
168.396393 160.0
168.417053 108.0
168.670273 144.0
169.063217 600.0
169.097229 232.0
169.260132 224.0
169.317093 168.0
169.52507 128.0
169.777008 224.0
170.073578 256.0
170.097549 156.0
170.219528 40.0
170.29744 184.0
170.35199 132.0
170.372772 132.0
170.765259 260.0
170.791275 196.0
170.873886 148.0
171.017639 96.0
171.046265 172.0
171.079529 7868.0
171.113144 168.0
171.145187 76.0
171.236328 260.0
171.384811 52.0
171.473419 48.0
171.575073 52.0
171.778473 180.0
171.868835 196.0
171.916763 180.0
171.981995 52.0
172.00946 100.0
172.05603 288.0
172.085327 976.0
172.164749 40.0
172.206543 60.0
172.397247 112.0
172.475662 36.0
172.619446 152.0
172.663895 36.0
172.917664 208.0
173.017136 132.0
173.056641 280.0
173.09465 312.0
173.119797 172.0
173.200439 96.0
173.240524 172.0
173.284271 68.0
173.347153 140.0
173.737808 148.0
173.790283 216.0
173.815384 184.0
173.924118 84.0
174.063416 336.0
174.102646 204.0
174.286926 156.0
174.328568 196.0
174.573029 164.0
174.754532 148.0
174.859787 216.0
175.046249 164.0
175.06987 184.0
175.109894 144.0
175.188919 300.0
175.281128 112.0
175.325928 92.0
175.568451 196.0
175.726715 132.0
176.051376 196.0
176.080429 136.0
176.106842 176.0
176.463577 120.0
176.601089 136.0
176.721817 176.0
176.79686 148.0
177.050797 412.0
177.268219 136.0
177.406052 144.0
177.484482 124.0
178.086563 1440.0
178.162354 68.0
178.321777 64.0
178.345703 212.0
178.388229 36.0
178.420135 192.0
178.553085 96.0
179.026779 176.0
179.078644 176.0
179.391785 180.0
179.413116 84.0
179.471771 164.0
179.511765 200.0
179.754501 108.0
179.879944 104.0
180.010773 148.0
180.160339 96.0
180.328674 88.0
180.430237 160.0
180.585327 116.0
181.080124 128.0
181.107254 128.0
181.171539 168.0
181.431473 192.0
181.718445 204.0
181.737213 120.0
181.80162 176.0
181.906296 188.0
181.992203 140.0
182.0271 128.0
182.06958 364.0
182.405914 124.0
182.430115 104.0
182.456985 188.0
182.591431 80.0
182.844315 168.0
183.013229 80.0
183.081955 344.0
183.369492 148.0
183.509857 160.0
183.671463 216.0
183.717316 136.0
183.925095 216.0
184.014175 204.0
184.055481 120.0
184.08757 308.0
184.241028 60.0
184.341003 208.0
184.465317 144.0
184.508575 208.0
184.527496 204.0
185.000931 144.0
185.060791 168.0
185.08757 144.0
185.111938 212.0
185.691864 140.0
185.887192 228.0
186.065231 288.0
186.539001 220.0
186.76741 128.0
187.074036 3644.0
187.110977 916.0
187.232819 32.0
187.303619 144.0
187.385345 88.0
187.442825 84.0
187.467087 128.0
187.54068 96.0
187.617004 64.0
187.674255 60.0
187.761505 160.0
187.813324 36.0
187.945862 352.0
187.979752 48.0
188.080658 1156.0
188.150177 72.0
188.244522 72.0
188.400208 56.0
188.441193 172.0
188.460312 84.0
188.588745 184.0
188.859436 160.0
188.944229 68.0
189.052551 1052.0
189.088913 4084.0
189.138519 164.0
189.198746 52.0
189.299454 72.0
189.353241 176.0
189.395905 40.0
189.518112 144.0
189.587677 96.0
189.658936 192.0
189.891983 136.0
189.993469 40.0
190.059006 168.0
190.09375 344.0
190.136154 148.0
190.270645 160.0
190.451889 104.0
190.476608 124.0
190.77887 152.0
190.935608 128.0
191.063538 172.0
191.106476 136.0
191.373123 108.0
191.428192 128.0
191.549377 100.0
191.824921 144.0
191.891083 228.0
192.249664 56.0
192.365585 144.0
192.44841 112.0
192.50087 232.0
192.738419 172.0
192.779861 128.0
192.981644 196.0
193.288666 236.0
193.33847 196.0
193.410431 72.0
193.526703 144.0
193.601456 156.0
193.715012 36.0
194.122437 112.0
194.366531 128.0
194.483078 192.0
194.741302 84.0
195.058044 76.0
195.244324 176.0
196.051651 140.0
196.263489 172.0
196.414093 116.0
196.497772 184.0
196.902512 196.0
197.058136 492.0
197.095215 312.0
197.173508 172.0
197.207047 252.0
197.55098 180.0
197.746841 192.0
197.788818 52.0
197.816818 184.0
197.933273 160.0
198.065216 288.0
198.10553 340.0
198.337814 132.0
198.865112 132.0
198.935287 120.0
199.044785 236.0
199.075256 1200.0
199.110641 632.0
199.145874 152.0
199.238571 368.0
199.300385 152.0
199.474625 100.0
199.764252 132.0
200.048462 288.0
200.082565 544.0
200.11322 104.0
200.135742 180.0
200.561127 108.0
200.67952 72.0
200.888214 60.0
201.029282 168.0
201.057236 444.0
201.088715 400.0
201.122421 36.0
201.144989 68.0
201.176041 108.0
201.257919 240.0
201.430191 100.0
201.449966 116.0
201.500809 84.0
201.526245 108.0
201.565796 104.0
201.718414 124.0
202.066666 184.0
202.091705 132.0
202.298294 136.0
202.558823 104.0
202.6353 184.0
203.100632 104.0
203.171112 128.0
203.239212 48.0
203.307312 168.0
203.826965 192.0
204.071396 176.0
204.318832 104.0
204.466797 80.0
204.518021 176.0
205.389908 48.0
205.42984 172.0
205.545685 252.0
205.658112 148.0
205.695221 148.0
205.889359 132.0
206.079239 220.0
206.180756 56.0
206.312241 180.0
206.47522 156.0
206.552444 164.0
206.984573 236.0
207.0867 608.0
207.119186 140.0
207.219437 224.0
207.391373 172.0
207.494568 196.0
208.364151 184.0
208.838455 192.0
209.0746 144.0
209.218277 92.0
209.393921 172.0
209.569641 132.0
209.634918 208.0
210.033768 96.0
210.059723 148.0
210.128967 144.0
210.221298 80.0
210.267471 124.0
210.504181 136.0
211.435028 160.0
211.57106 180.0
211.715836 148.0
211.779541 204.0
211.993927 164.0
212.147537 208.0
212.170731 140.0
212.353409 108.0
212.533264 192.0
212.553574 128.0
213.018097 172.0
213.050842 116.0
213.093369 136.0
213.340652 132.0
213.567459 72.0
213.747818 120.0
213.779831 124.0
213.803116 180.0
213.835129 64.0
213.874527 252.0
213.913712 252.0
213.980667 72.0
214.060944 2112.0
214.093124 152.0
214.13208 184.0
214.152466 72.0
214.248596 188.0
214.298126 88.0
214.354614 256.0
214.382629 136.0
214.40593 136.0
214.470062 100.0
214.510864 56.0
214.589569 68.0
214.624557 80.0
214.668304 56.0
214.741211 192.0
214.790787 220.0
214.847641 208.0
214.889969 40.0
214.912094 96.0
214.935425 132.0
215.070404 27920.0
215.106445 6560.0
215.193436 92.0
215.234177 176.0
215.293808 264.0
215.335327 92.0
215.367798 140.0
215.462189 56.0
215.487671 72.0
215.550278 80.0
215.61705 52.0
215.681351 76.0
215.721588 68.0
215.757355 80.0
215.816635 188.0
215.897705 96.0
215.962051 112.0
215.997147 168.0
216.074997 7640.0
216.108932 1044.0
216.198608 56.0
216.232193 72.0
216.307404 128.0
216.331619 120.0
216.409775 52.0
216.430267 104.0
216.45369 216.0
216.515381 176.0
216.607483 172.0
216.705582 124.0
216.746994 152.0
216.76712 212.0
216.812622 136.0
216.894043 232.0
216.926956 260.0
216.965118 172.0
216.998001 208.0
217.050247 500.0
217.086121 67744.0
217.167953 140.0
217.21579 112.0
217.238113 128.0
217.260727 140.0
217.293228 184.0
217.378784 172.0
217.449371 112.0
217.496307 108.0
217.52533 76.0
217.545792 64.0
217.563934 124.0
217.626373 76.0
217.630478 116.0
217.660248 108.0
217.687088 96.0
217.730667 84.0
217.764542 60.0
217.823288 84.0
217.871643 148.0
217.929184 100.0
217.977661 96.0
218.038116 124.0
218.088364 8352.0
218.14064 60.0
218.340576 80.0
218.384689 48.0
218.422928 92.0
218.475876 56.0
218.49942 60.0
218.528839 52.0
218.549423 88.0
218.568954 104.0
218.601089 80.0
218.628876 384.0
218.65831 64.0
218.746613 136.0
218.820526 288.0
219.023392 60.0
219.091522 720.0
219.18837 80.0
219.230255 56.0
219.256149 36.0
219.298553 76.0
219.320984 80.0
219.374039 72.0
219.424164 84.0
219.506714 128.0
219.565689 172.0
219.617538 76.0
219.64827 76.0
219.671875 68.0
219.772186 128.0
219.881195 72.0
219.928589 68.0
220.005325 104.0
220.067322 32.0
220.090942 140.0
220.259277 84.0
220.359726 52.0
220.537018 112.0
220.634567 108.0
220.68483 120.0
220.714401 100.0
220.880005 64.0
221.27359 32.0
221.780136 52.0
222.581116 48.0
222.616745 180.0
222.803879 92.0
223.011871 52.0
223.300262 112.0
223.770416 240.0
223.800186 84.0
224.074203 96.0
224.589905 48.0
224.965881 232.0
225.010651 136.0
225.08786 324.0
225.115158 244.0
225.67691 140.0
225.814453 240.0
225.946075 40.0
226.22438 36.0
226.311203 68.0
226.35611 96.0
227.073135 180.0
227.372345 196.0
227.420364 60.0
227.7146 28.0
228.075134 156.0
228.523209 68.0
229.086014 76.0
229.873077 52.0
230.096436 220.0
230.325928 132.0
230.966721 116.0
231.072601 60.0
231.684128 60.0
232.017487 40.0
232.326813 116.0
232.502792 120.0
233.119263 184.0
233.155716 112.0
234.534424 68.0
236.088409 164.0
236.587143 160.0
237.297897 140.0
237.813583 180.0
238.753342 140.0
239.205627 152.0
240.321228 152.0
240.883087 136.0
240.969589 136.0
241.037552 100.0
241.084457 540.0
241.256989 44.0
241.349747 104.0
241.541489 32.0
242.011871 72.0
242.112701 192.0
242.191483 96.0
242.35257 48.0
242.439331 124.0
242.473419 180.0
242.529205 156.0
242.557114 76.0
242.591202 188.0
242.712112 100.0
242.749329 328.0
242.811356 108.0
242.851669 92.0
242.875061 148.0
242.954025 460.0
243.002823 192.0
243.021667 40.0
243.030655 132.0
243.101913 46588.0
243.197693 84.0
243.262939 44.0
243.285355 100.0
243.316406 72.0
243.348785 60.0
243.382324 60.0
243.4142 80.0
243.458694 124.0
243.49411 108.0
243.537598 32.0
243.566986 52.0
243.612961 116.0
243.66185 52.0
243.73642 60.0
243.763306 104.0
243.873154 72.0
243.949417 208.0
243.97261 60.0
244.02858 128.0
244.056564 192.0
244.104416 6960.0
244.167145 164.0
244.268036 40.0
244.32402 60.0
244.395584 52.0
244.510727 48.0
244.535614 56.0
244.647675 32.0
244.713043 68.0
244.741074 96.0
244.85318 36.0
244.899261 72.0
244.99646 52.0
245.058762 44.0
245.107651 1072.0
245.465378 44.0
245.49202 36.0
245.55751 36.0
245.62677 176.0
245.680725 112.0
245.704117 112.0
245.778992 40.0
245.881973 144.0
245.902695 100.0
245.944397 104.0
245.972488 52.0
246.107468 372.0
246.234756 60.0
246.312836 92.0
246.709686 40.0
247.366608 48.0
248.03067 72.0
248.632843 108.0
250.550858 108.0
251.335907 60.0
253.020477 92.0
253.343506 72.0
254.002838 64.0
254.508118 92.0
255.098343 100.0
256.071991 52.0
256.20575 72.0
257.235779 64.0
257.34494 100.0
257.516754 56.0
259.455841 104.0
260.787964 92.0
261.640381 80.0
268.095795 96.0
269.113495 148.0
269.175507 72.0
270.082672 160.0
270.117279 160.0
271.095825 2172.0
272.082947 236.0
272.108429 436.0
272.970032 88.0
273.674194 76.0
273.983765 156.0
274.570465 180.0
275.098389 148.0
276.873932 128.0
277.123291 252.0
278.040863 60.0
278.127136 148.0
280.348785 60.0
283.882202 72.0
286.116974 156.0
286.938934 176.0
287.10379 80.0
287.144257 168.0
287.731384 44.0
287.82254 184.0
288.121918 4256.0
288.427246 52.0
288.521118 52.0
288.684204 44.0
289.123108 1008.0
289.228882 28.0
289.821533 76.0
289.950287 76.0
289.990967 80.0
290.098633 168.0
290.108124 128.0
290.125702 112.0
290.133575 168.0
290.411377 100.0
290.706543 68.0
290.743866 128.0
290.883026 68.0
291.090118 112.0
292.099487 80.0
293.161743 132.0
293.669708 84.0
294.256622 140.0
294.304413 44.0
294.693787 132.0
299.651459 80.0
300.030548 100.0
303.068451 72.0
303.113495 156.0
303.151611 88.0
305.112854 276.0
307.123322 180.0
318.565704 80.0
325.454926 68.0
327.191437 76.0
333.020477 72.0
333.111267 140.0
340.166199 60.0
341.018341 124.0
341.191101 172.0
343.839447 108.0
344.515137 48.0
346.531403 64.0
347.903564 36.0
349.152008 196.0
366.087646 88.0
369.125122 80.0
375.287811 88.0
376.151184 384.0
377.164093 156.0
377.697571 28.0
382.030426 84.0
382.762115 28.0
386.251068 120.0
390.298279 52.0
390.455566 64.0
393.647583 44.0
399.032257 64.0
400.671936 72.0
402.199188 92.0
403.381531 68.0
406.260712 132.0
418.152435 48.0
421.283905 72.0
421.337006 100.0
422.163635 372.0
423.160248 404.0
423.69751 64.0
424.160583 64.0
425.243378 116.0
425.752472 124.0
430.682312 128.0
441.952454 60.0
443.594147 88.0
443.87085 92.0
448.735535 32.0
457.496643 64.0
462.0159 76.0
488.796692 52.0
489.302856 72.0
490.778809 72.0
500.152832 64.0
502.777924 76.0
505.648621 56.0
510.838348 72.0
511.06778 112.0
515.712585 112.0
527.567383 64.0
528.084106 92.0
531.217102 60.0
537.317078 136.0
537.792358 88.0
539.177917 64.0
543.688538 60.0
544.421997 56.0
546.225342 84.0
561.697327 104.0
562.900757 64.0
563.339966 88.0
572.475708 84.0
596.33783 88.0
600.89563 76.0
605.593262 68.0
607.593201 84.0
609.611145 52.0
613.193787 168.0
617.57312 48.0
623.825745 64.0
624.0047 88.0
631.52948 108.0
633.907471 100.0
647.635925 172.0
648.61377 72.0
656.234131 72.0
667.539734 48.0
673.079041 120.0
684.413696 120.0
697.587097 56.0
704.199768 84.0
706.663086 108.0
740.902222 76.0
757.484497 96.0
775.302795 104.0
787.704468 28.0
789.621582 244.0
809.951477 92.0
814.063232 56.0
850.521301 148.0
852.397156 56.0
853.565491 120.0
861.532654 136.0
867.636414 76.0
906.058716 104.0
910.25116 140.0
928.439758 204.0
929.245911 160.0
929.688843 64.0
936.187317 240.0
946.096863 116.0
947.523743 156.0
957.757751 132.0
959.964111 96.0
972.026367 164.0
975.386169 40.0
994.932373 204.0
1003.141724 64.0
1003.68573 68.0
1013.816772 76.0
1016.61969 168.0
1021.12384 116.0
1026.186157 160.0
1028.80188 172.0
1036.803345 128.0
1041.737427 164.0
1048.332153 140.0
1050.943604 152.0
1052.499146 160.0
1054.449951 204.0
1059.328491 144.0
1062.466064 160.0
1063.108398 144.0
1068.215088 72.0
1079.131958 216.0
1083.091064 108.0
1085.057007 140.0
1086.453857 88.0
1088.606689 256.0
1089.565552 144.0
1092.359497 192.0
1098.769165 168.0
1099.943848 204.0
1110.072754 160.0
1110.994629 156.0
1111.744385 176.0
1122.36084 160.0
1123.047729 188.0
1124.19519 220.0
1129.847778 180.0
1130.055176 180.0
1130.208984 148.0
1130.369629 140.0
1130.483398 180.0
1134.93103 116.0
1136.21875 132.0
1138.326294 168.0
1139.575562 220.0
1140.375244 112.0
1142.661499 204.0
1142.9104 84.0
1150.188721 136.0
1160.756104 44.0
1168.118042 192.0
1169.853271 84.0
1170.220947 148.0
1172.162109 164.0
1178.302734 136.0
1179.211548 244.0
1182.268555 80.0
1183.630737 168.0
1196.015381 160.0
1196.132446 64.0
1197.480835 132.0
1200.555542 108.0
1204.379028 140.0
1204.682983 128.0
1205.857544 84.0
1206.859985 164.0
1210.845703 192.0
1211.780884 212.0
1214.345703 176.0
1216.302246 168.0
1218.774536 200.0
1220.150635 224.0
1220.644287 168.0
1224.854858 136.0
1230.133301 148.0
1230.601074 104.0
1231.921021 172.0
1232.507812 68.0
1234.777344 132.0
1235.584106 160.0
1236.213867 112.0
1240.423096 108.0
1242.877563 180.0
1247.59021 132.0
1252.332764 108.0
1252.593384 176.0
1252.776489 184.0
1258.489014 184.0
1260.339478 116.0
1264.278198 200.0
1265.757568 196.0
1266.047974 36.0
1266.670776 184.0
1267.252075 204.0
1268.2229 360.0
1270.300537 116.0
1273.388062 60.0
1274.617065 48.0
1277.268799 112.0
1278.485352 180.0
1284.320312 128.0
1284.755371 184.0
1285.604492 216.0
1285.72583 144.0
1287.374878 164.0
1290.497314 132.0
1292.235352 160.0
1294.439819 144.0
1299.055298 56.0
1299.442749 168.0
1302.493652 164.0
1304.74292 204.0
1314.249634 88.0
1314.321777 108.0
1317.093994 140.0
1320.274048 180.0
1321.033447 176.0
1322.343018 152.0
1324.710693 192.0
1324.833862 164.0
1327.044312 84.0
1327.934692 148.0
1330.838867 132.0
1332.509277 136.0
1334.667969 168.0
1335.220581 68.0
1336.108032 196.0
1336.559082 184.0
1339.507568 288.0
1340.709717 192.0
1341.460449 144.0
1342.182129 200.0
1342.255127 204.0
1345.304688 168.0
1346.443726 216.0
1351.066528 168.0
1352.8927 200.0
1353.009888 128.0
1356.108276 104.0
1356.474731 264.0
1357.904541 228.0
1358.844116 220.0
1359.437744 88.0
1360.472656 100.0
1362.19104 68.0
1362.837524 196.0
1368.250488 128.0
1371.049438 184.0
1371.241089 64.0
1372.309937 220.0
1373.224365 76.0
1374.404663 196.0
1375.083496 200.0
1375.172119 168.0
1379.204834 200.0
1380.58728 256.0
1381.2677 128.0
1382.999146 184.0
1384.30957 140.0
1387.614136 200.0
1389.653687 164.0
1392.407593 244.0
1392.986938 92.0
1393.908203 208.0
1394.807373 112.0
1395.745483 108.0
1396.093628 84.0
1396.435669 76.0
1399.680298 184.0
1399.985596 160.0
1400.708008 148.0
1401.222046 144.0
1401.281616 164.0
1401.415771 188.0
1401.818115 140.0
1402.153442 192.0
1403.659302 160.0
1409.612427 184.0
1410.594971 196.0
1415.615112 160.0
1416.910889 128.0
1418.364624 148.0
1420.134155 100.0
1424.014404 152.0
1425.043579 168.0
1425.111084 116.0
1425.449219 112.0
1427.11792 88.0
1427.350952 204.0
1429.404419 116.0
1429.871094 116.0
1429.968872 192.0
1431.421753 80.0
1431.474487 112.0
1434.985718 240.0
1436.795654 268.0
1437.942627 136.0
1441.129272 252.0
1442.149414 132.0
1443.071655 124.0
1444.281616 96.0
1444.561401 120.0
1445.650879 156.0
1445.915771 120.0
1447.195068 220.0
1447.846313 148.0
1448.187134 212.0
1448.255981 224.0
1448.376465 140.0
1448.671875 224.0
1449.452148 60.0
1450.551147 224.0
1451.953735 188.0
1452.99292 212.0
1453.668213 136.0
1454.981323 152.0
1455.231812 248.0
1455.48999 116.0
1455.839233 192.0
1456.059448 196.0
1456.211426 136.0
1457.654785 112.0
1463.389771 40.0
1464.021729 172.0
1464.0979 152.0
1464.174072 156.0
1464.638672 180.0
1465.545166 152.0
1465.827148 136.0
1468.663086 124.0
1470.494141 112.0
1471.265137 112.0
1476.12439 152.0
1477.768921 168.0
1479.544434 76.0
1479.896606 176.0
1481.443604 180.0
1483.160034 164.0
1486.388672 148.0
1487.371948 164.0
1488.138672 136.0
1488.361328 144.0
1489.743652 192.0
1490.527344 108.0
1490.788574 212.0
1491.019165 52.0
1491.534058 172.0
1491.764648 176.0
1493.394775 80.0
1495.033447 44.0
1495.118164 176.0
1495.410522 124.0
1497.104248 120.0
1497.227539 148.0
1498.837402 184.0
1500.317261 260.0
