>compound MLS001142428-01!
>formula C23H20BrN3O2
>ionization [M+H]+
>parentmass 450.082
#inchi InChI=1S/C23H20BrN3O2/c24-15-6-3-5-14(11-15)21-22-18(17-8-1-2-9-19(17)26-22)12-20(27-21)23(28)25-13-16-7-4-10-29-16/h1-3,5-6,8-9,11-12,16,27H,4,7,10,13H2,(H,25,28)
#inchikey ZWQHZYLQZNZIFJ
#Ion_Source LC-ESI
#Instrument qTof
#Compound_Source NIH Natural Product Library
#PI Dorrestein
#Data_Collector VVP/LMS
#Scan -1
#Precursor_MZ 450.082
#ExactMass 449.074
#Charge 1
#CAS_Number N/A
#Pubmed_ID N/A
#Smiles Brc1cccc(c1)c2[nH]c(cc3c4ccccc4nc23)C(=O)NCC5CCCO5
#INCHI_AUX N/A
#Library_Class 1
#SpectrumID CCMSLIB00000079863
#IonMode Positive
#UpdateWorkflowName UPDATE-SINGLE-ANNOTATED-GOLD
#LibraryQualityString Gold
#TaskID b1d8e8f6646f4e71acdff9ca3d919d08
##Scan# 2585
#SpectrumFile p1-B12_GB12_01_17896.mzXML
#LibraryName NIH_Natural_Products_Library.mgf
#MQScore -1
#Organism NIH_Natural_Products_Library
#TIC_Query 0
#RT_Query -1
#MZErrorPPM -1
#SharedPeaks 0
#MassDiff 0
#LibMZ -1
#SpecMZ 450.082
#SpecCharge 0
#internalFilename spec-00000.mgf

>collision 10
94.837173 140.0
94.885162 112.0
94.92289 128.0
94.967392 112.0
94.998367 104.0
95.049278 164.0
95.064415 164.0
95.096474 148.0
95.12751 208.0
95.162384 164.0
95.168686 160.0
95.174461 200.0
95.200241 140.0
95.263359 132.0
95.313103 236.0
95.339088 100.0
95.359886 124.0
95.381668 52.0
95.407074 124.0
95.430389 140.0
95.46492 140.0
95.482582 140.0
95.506714 204.0
95.54895 128.0
95.565849 168.0
95.586395 160.0
95.671478 116.0
95.696777 128.0
95.731567 100.0
95.746895 212.0
95.755112 160.0
95.759499 208.0
95.77462 76.0
95.800331 116.0
95.831085 68.0
95.845917 136.0
95.860481 124.0
95.879768 180.0
95.909866 124.0
95.939857 236.0
95.955742 176.0
95.976662 76.0
96.006409 120.0
96.02005 100.0
96.040657 112.0
96.060982 124.0
96.078529 132.0
96.133949 76.0
96.186134 160.0
96.201401 128.0
96.239571 304.0
96.280052 52.0
96.31263 184.0
96.354301 232.0
96.394241 100.0
96.429932 168.0
96.457138 88.0
96.476669 168.0
96.503357 164.0
96.527473 236.0
96.56852 60.0
96.598671 160.0
96.631081 124.0
96.644768 148.0
96.703079 88.0
96.719086 136.0
96.76017 252.0
96.797348 136.0
96.832573 132.0
96.864975 128.0
96.894798 188.0
96.914795 64.0
96.94809 116.0
96.993141 188.0
97.008087 144.0
97.036018 176.0
97.128349 116.0
97.145996 204.0
97.185211 80.0
97.226395 124.0
97.251892 88.0
97.271507 148.0
97.28524 196.0
97.336212 208.0
97.363731 124.0
97.378502 152.0
97.404945 120.0
97.432114 148.0
97.463257 212.0
97.508888 236.0
97.538483 156.0
97.556274 140.0
97.593498 160.0
97.623688 264.0
97.656387 120.0
97.685875 192.0
97.730011 116.0
97.781319 200.0
97.828453 248.0
97.859352 136.0
97.884529 124.0
97.910469 88.0
97.933807 104.0
97.977043 136.0
98.018394 212.0
98.058525 148.0
98.079445 180.0
98.125084 292.0
98.150375 172.0
98.181908 228.0
98.20359 116.0
98.217384 112.0
98.250404 144.0
98.268646 196.0
98.341675 128.0
98.385017 156.0
98.417847 288.0
98.459999 84.0
98.492615 212.0
98.528107 288.0
98.551323 216.0
98.594688 92.0
98.639687 136.0
98.661049 140.0
98.703957 112.0
98.726624 124.0
98.754128 328.0
98.782654 336.0
98.80938 220.0
98.832008 156.0
98.856041 136.0
98.86985 136.0
98.888756 144.0
98.908531 36.0
98.946167 196.0
98.973068 220.0
98.997078 128.0
99.013939 148.0
99.047928 172.0
99.068832 280.0
99.108429 128.0
99.15992 132.0
99.215385 116.0
99.247093 112.0
99.27285 136.0
99.294655 116.0
99.334297 64.0
99.386902 384.0
99.419563 172.0
99.521393 156.0
99.547951 112.0
99.659683 40.0
99.710571 160.0
99.741837 132.0
99.772438 156.0
99.794754 320.0
99.824455 152.0
99.880211 180.0
99.906059 128.0
99.927544 104.0
99.954193 96.0
99.974159 64.0
100.036324 128.0
100.040794 64.0
100.050819 112.0
100.053864 152.0
100.084343 164.0
100.120079 108.0
100.156715 116.0
100.172646 112.0
100.201546 188.0
100.228394 164.0
100.249031 140.0
100.288139 100.0
100.371666 168.0
100.385437 168.0
100.412392 224.0
100.439156 188.0
100.452194 172.0
100.476784 212.0
100.50737 76.0
100.523323 68.0
100.565208 88.0
100.594376 212.0
100.631042 132.0
100.70488 172.0
100.744812 52.0
100.764 76.0
100.785324 164.0
100.80072 132.0
100.821472 180.0
100.897453 84.0
100.919289 168.0
100.937767 192.0
101.036499 244.0
101.059212 356.0
101.074539 160.0
101.12249 172.0
101.157089 176.0
101.180725 108.0
101.217476 176.0
101.236534 132.0
101.252167 168.0
101.270737 148.0
101.292976 160.0
101.311264 200.0
101.33062 104.0
101.354645 148.0
101.394699 132.0
101.434547 148.0
101.464813 96.0
101.480843 296.0
101.50489 176.0
101.546974 32.0
101.581055 256.0
101.597092 68.0
101.623695 208.0
101.645081 180.0
101.678581 132.0
101.682457 84.0
101.690407 180.0
101.767578 144.0
101.785637 128.0
101.813736 140.0
101.831795 172.0
101.855881 128.0
101.880981 80.0
101.896347 196.0
101.929741 148.0
101.948929 212.0
101.982269 64.0
102.014565 120.0
102.041359 136.0
102.078827 108.0
102.106964 100.0
102.151253 128.0
102.171448 200.0
102.189392 204.0
102.237167 132.0
102.271492 136.0
102.277954 112.0
102.282303 140.0
102.316101 344.0
102.344276 168.0
102.387291 224.0
102.410286 140.0
102.447182 184.0
102.473099 148.0
102.514061 152.0
102.557884 80.0
102.626045 180.0
102.643013 240.0
102.684898 148.0
102.730484 32.0
102.771492 180.0
102.801849 220.0
102.81897 272.0
102.852837 152.0
102.905594 188.0
102.924614 144.0
102.943359 152.0
102.968086 156.0
103.029533 188.0
103.073997 176.0
103.156807 188.0
103.191154 136.0
103.214607 192.0
103.246132 136.0
103.290184 120.0
103.334663 188.0
103.360275 180.0
103.395332 196.0
103.421623 132.0
103.447441 168.0
103.49221 212.0
103.522987 208.0
103.566231 168.0
103.609833 252.0
103.632782 132.0
103.662262 148.0
103.682732 48.0
103.697952 148.0
103.718719 160.0
103.755661 460.0
103.7901 180.0
103.819336 236.0
103.839752 200.0
103.879341 136.0
103.899559 136.0
103.92794 168.0
103.97126 200.0
104.01445 276.0
104.053703 80.0
104.123825 224.0
104.152542 188.0
104.15831 132.0
104.179596 92.0
104.205933 112.0
104.242188 276.0
104.274979 140.0
104.358704 132.0
104.365654 164.0
104.374069 288.0
104.387558 184.0
104.415169 52.0
104.43956 160.0
104.466896 108.0
104.490387 204.0
104.50869 128.0
104.585968 204.0
104.605484 88.0
104.632889 192.0
104.658882 220.0
104.680542 200.0
104.702126 188.0
104.726982 228.0
104.76709 72.0
104.783379 312.0
104.799667 248.0
104.845261 328.0
104.871574 168.0
104.891319 132.0
104.909653 164.0
104.989166 176.0
105.021736 72.0
105.0466 40.0
105.060875 140.0
105.074783 188.0
105.103287 116.0
105.117561 40.0
105.141014 256.0
105.170586 100.0
105.188286 124.0
105.231789 196.0
105.24794 92.0
105.29097 176.0
105.310104 160.0
105.339828 120.0
105.38237 176.0
105.399521 156.0
105.446259 368.0
105.517647 60.0
105.550339 132.0
105.587128 136.0
105.638229 120.0
105.672646 192.0
105.743248 156.0
105.770309 132.0
105.793365 168.0
105.819794 196.0
105.842766 184.0
105.865273 144.0
105.90535 172.0
105.923042 160.0
105.969147 172.0
105.988098 164.0
106.029495 132.0
106.053444 212.0
106.098969 160.0
106.126373 192.0
106.162231 196.0
106.182724 192.0
106.2314 140.0
106.263748 192.0
106.281693 276.0
106.326248 188.0
106.365219 196.0
106.383194 216.0
106.440865 152.0
106.448563 116.0
106.456398 224.0
106.460747 144.0
106.498306 140.0
106.505173 120.0
106.512825 164.0
106.535553 184.0
106.562248 152.0
106.5951 68.0
106.616875 192.0
106.660629 128.0
106.694275 184.0
106.740532 136.0
106.757057 96.0
106.790283 128.0
106.819061 160.0
106.860176 96.0
106.876625 184.0
106.895134 216.0
106.913559 292.0
106.936272 160.0
106.954781 180.0
106.980164 172.0
107.022675 164.0
107.04792 120.0
107.082359 80.0
107.099586 156.0
107.13588 192.0
107.162811 196.0
107.183167 112.0
107.204842 180.0
107.218506 348.0
107.251205 128.0
107.312263 176.0
107.356285 104.0
107.37896 128.0
107.418121 128.0
107.471725 184.0
107.529472 132.0
107.557831 240.0
107.562386 180.0
107.56913 232.0
107.640877 44.0
107.659454 172.0
107.706924 48.0
107.771973 324.0
107.803101 180.0
107.824623 152.0
107.903778 176.0
107.921593 200.0
107.924171 140.0
107.971313 128.0
107.996117 136.0
108.022995 180.0
108.091072 164.0
108.161545 144.0
108.178101 132.0
108.213272 116.0
108.235535 164.0
108.248451 192.0
108.265564 192.0
108.280693 124.0
108.296051 124.0
108.34964 140.0
108.40226 252.0
108.463013 152.0
108.476768 104.0
108.52179 92.0
108.54113 168.0
108.579811 76.0
108.602615 100.0
108.621559 204.0
108.656517 76.0
108.721542 100.0
108.747765 76.0
108.774727 128.0
108.809998 124.0
108.855652 88.0
108.874329 152.0
108.89093 136.0
108.928299 216.0
108.990585 136.0
109.026741 252.0
109.05555 184.0
109.077141 160.0
109.111053 52.0
109.156769 180.0
109.180321 108.0
109.214188 96.0
109.235756 148.0
109.271736 232.0
109.27993 160.0
109.305344 128.0
109.323082 160.0
109.350121 144.0
109.376907 128.0
109.393806 148.0
109.485359 124.0
109.526993 76.0
109.543236 164.0
109.574875 196.0
109.623146 132.0
109.645676 304.0
109.671631 144.0
109.69352 128.0
109.756088 156.0
109.776932 176.0
109.822784 136.0
109.868645 100.0
109.897835 152.0
109.915344 172.0
109.967773 112.0
109.991692 44.0
110.014633 36.0
110.031326 132.0
110.060959 160.0
110.121811 180.0
110.150284 124.0
110.165611 152.0
110.179237 392.0
110.202263 152.0
110.234917 188.0
110.26931 356.0
110.294617 208.0
110.327805 92.0
110.346603 60.0
110.382126 120.0
110.433197 176.0
110.459465 104.0
110.483299 160.0
110.494331 100.0
110.554283 184.0
110.580742 68.0
110.597481 176.0
110.613052 124.0
110.631996 152.0
110.685791 152.0
110.725113 236.0
110.786606 180.0
110.806755 84.0
110.833672 136.0
110.869576 196.0
110.892616 112.0
110.909378 104.0
110.947083 108.0
110.980606 144.0
111.045113 180.0
111.068214 160.0
111.123138 116.0
111.142014 180.0
111.174522 140.0
111.204308 284.0
111.211807 200.0
111.236397 200.0
111.259476 168.0
111.274162 160.0
111.288849 132.0
111.339211 80.0
111.360092 76.0
111.386864 208.0
111.404129 164.0
111.435776 84.0
111.459831 264.0
111.476265 100.0
111.499924 176.0
111.507881 96.0
111.540855 124.0
111.570198 172.0
111.590836 136.0
111.65519 136.0
111.682526 412.0
111.708328 144.0
111.731781 164.0
111.753059 112.0
111.815338 176.0
111.83284 60.0
111.850441 156.0
111.868423 264.0
111.902405 212.0
111.920021 180.0
111.951927 144.0
111.968048 124.0
111.982864 204.0
112.018158 152.0
112.048157 208.0
112.076843 156.0
112.090881 296.0
112.117126 156.0
112.133972 352.0
112.176643 156.0
112.28434 160.0
112.310966 144.0
112.338371 160.0
112.351364 144.0
112.384758 104.0
112.40374 156.0
112.448029 112.0
112.483521 160.0
112.499229 132.0
112.555168 56.0
112.618942 148.0
112.665382 120.0
112.747734 176.0
112.785759 92.0
112.846321 180.0
112.89563 168.0
112.92099 152.0
112.956696 212.0
112.978065 232.0
113.008904 84.0
113.026695 132.0
113.047844 148.0
113.102066 208.0
113.174469 172.0
113.217094 164.0
113.254059 112.0
113.30735 140.0
113.352921 152.0
113.459724 124.0
113.491791 168.0
113.536781 140.0
113.56369 200.0
113.602615 80.0
113.617455 124.0
113.650597 152.0
113.672585 104.0
113.70652 144.0
113.721367 144.0
113.745819 144.0
113.785728 160.0
113.810562 284.0
113.865646 160.0
113.892258 224.0
113.939301 144.0
113.942917 100.0
113.984535 148.0
114.003288 140.0
114.059021 116.0
114.103333 160.0
114.115959 184.0
114.148109 212.0
114.188492 112.0
114.207626 96.0
114.259201 76.0
114.266205 144.0
114.30117 140.0
114.326691 116.0
114.345833 44.0
114.362259 188.0
114.381996 520.0
114.407608 204.0
114.428474 192.0
114.486252 108.0
114.503212 124.0
114.507607 120.0
114.619125 68.0
114.673309 180.0
114.711021 208.0
114.75457 264.0
114.772659 164.0
114.797188 260.0
114.820633 132.0
114.837685 64.0
114.872681 208.0
114.895294 176.0
114.934761 180.0
114.941521 176.0
114.98156 184.0
115.023201 180.0
115.046669 124.0
115.065872 136.0
115.095741 204.0
115.111832 156.0
115.13195 120.0
115.193008 140.0
115.2071 208.0
115.215912 120.0
115.256042 128.0
115.287872 136.0
115.311111 164.0
115.345551 40.0
115.363823 252.0
115.401291 176.0
115.458344 188.0
115.514374 108.0
115.554573 164.0
115.569962 328.0
115.597755 100.0
115.640533 68.0
115.693886 116.0
115.78389 136.0
115.86998 140.0
115.911537 380.0
115.933571 136.0
115.974174 92.0
116.032974 140.0
116.091957 76.0
116.143738 152.0
116.176476 220.0
116.225204 108.0
116.274529 52.0
116.291695 72.0
116.31958 164.0
116.381798 176.0
116.41613 244.0
116.474083 188.0
116.489113 176.0
116.504143 252.0
116.536346 124.0
116.560555 132.0
116.583588 196.0
116.614929 156.0
116.622528 92.0
116.630997 168.0
116.661011 156.0
116.695297 136.0
116.713478 156.0
116.751167 188.0
116.787636 120.0
116.839302 216.0
116.869217 140.0
116.87767 128.0
116.895813 156.0
116.914963 172.0
116.987701 180.0
117.019974 180.0
117.080231 156.0
117.108208 160.0
117.131889 84.0
117.15126 152.0
117.174942 216.0
117.208778 208.0
117.240837 140.0
117.249535 168.0
117.27372 188.0
117.312782 184.0
117.33313 184.0
117.367432 416.0
117.421524 116.0
117.467209 152.0
117.536942 320.0
117.55204 196.0
117.583366 160.0
117.603531 128.0
117.650978 120.0
117.677155 156.0
117.705208 116.0
117.722473 160.0
117.737579 80.0
117.773804 84.0
117.834717 44.0
117.85199 112.0
117.877907 196.0
117.892105 152.0
117.931679 116.0
117.969444 232.0
118.014259 228.0
118.061661 72.0
118.07373 172.0
118.12587 168.0
118.149162 112.0
118.180435 72.0
118.215332 148.0
118.243149 128.0
118.355896 124.0
118.377289 56.0
118.398933 140.0
118.419792 140.0
118.479027 184.0
118.533829 168.0
118.568306 140.0
118.591682 180.0
118.63623 148.0
118.660957 112.0
118.7108 108.0
118.73597 152.0
118.754143 44.0
118.783333 276.0
118.805122 132.0
118.82785 116.0
118.843033 120.0
118.886406 92.0
118.921104 132.0
118.936287 84.0
118.9702 116.0
119.001373 148.0
119.026588 168.0
119.051628 128.0
119.077522 272.0
119.103935 140.0
119.148811 168.0
119.173264 84.0
119.194038 164.0
119.197281 144.0
119.206177 220.0
119.233658 108.0
119.268051 168.0
119.299095 168.0
119.344757 144.0
119.39444 112.0
119.474869 48.0
119.52845 200.0
119.574898 124.0
119.600998 124.0
119.646683 88.0
119.664093 132.0
119.688438 84.0
119.736771 200.0
119.789673 276.0
119.809914 340.0
119.836227 140.0
119.927513 148.0
119.953651 108.0
119.980316 168.0
120.007034 208.0
120.03035 120.0
120.082214 228.0
120.144249 140.0
120.186859 140.0
120.267555 164.0
120.301964 168.0
120.318619 168.0
120.342987 152.0
120.384644 272.0
120.413437 112.0
120.420212 96.0
120.455971 152.0
120.490158 108.0
120.519417 116.0
120.570549 172.0
120.600891 164.0
120.619011 132.0
120.652115 156.0
120.698212 148.0
120.747932 92.0
120.82663 120.0
120.859428 176.0
120.903282 148.0
120.922844 108.0
120.968781 140.0
121.010063 216.0
121.057831 184.0
121.083321 140.0
121.13073 128.0
121.163567 216.0
121.20517 176.0
121.222687 112.0
121.270874 116.0
121.324432 116.0
121.340973 92.0
121.377823 240.0
121.3927 152.0
121.428635 168.0
121.446167 112.0
121.492203 44.0
121.553711 152.0
121.600517 188.0
121.633522 168.0
121.663086 188.0
121.687317 96.0
121.701256 128.0
121.73568 156.0
121.780861 164.0
121.797028 156.0
121.831352 96.0
121.847633 56.0
121.887154 140.0
121.934059 192.0
121.970619 76.0
121.991982 232.0
122.000534 168.0
122.030632 260.0
122.056046 168.0
122.078278 144.0
122.161201 116.0
122.174995 208.0
122.22187 176.0
122.275398 200.0
122.294228 216.0
122.324547 232.0
122.355247 92.0
122.376816 164.0
122.382317 124.0
122.393974 72.0
122.440361 164.0
122.455597 100.0
122.485252 140.0
122.513809 172.0
122.554802 200.0
122.599686 132.0
122.653191 124.0
122.691788 168.0
122.757034 372.0
122.796593 260.0
122.81134 136.0
122.840675 164.0
122.872932 136.0
122.903809 132.0
122.932472 304.0
122.981445 152.0
123.027618 180.0
123.056618 144.0
123.075867 116.0
123.102348 152.0
123.132065 120.0
123.157524 184.0
123.197258 164.0
123.222771 252.0
123.241234 220.0
123.301048 48.0
123.316505 376.0
123.33075 232.0
123.361031 180.0
123.424652 168.0
123.460121 200.0
123.496071 212.0
123.526428 152.0
123.542587 244.0
123.559593 96.0
123.582291 120.0
123.666985 172.0
123.711113 212.0
123.745384 132.0
123.767517 96.0
123.802925 156.0
123.871658 148.0
123.905731 72.0
123.947388 176.0
123.967438 116.0
123.999969 156.0
124.02449 172.0
124.055351 52.0
124.077484 376.0
124.106308 156.0
124.129074 308.0
124.156898 140.0
124.186501 196.0
124.225998 36.0
124.245888 152.0
124.252296 148.0
124.271973 312.0
124.315002 308.0
124.331444 108.0
124.359818 104.0
124.377274 184.0
124.393867 132.0
124.434471 184.0
124.465538 156.0
124.538361 168.0
124.559349 136.0
124.578735 128.0
124.621643 124.0
124.649788 132.0
124.714203 116.0
124.749741 160.0
124.770042 88.0
124.826385 164.0
124.881859 168.0
124.918518 148.0
124.957413 164.0
124.975182 180.0
125.011017 88.0
125.040939 64.0
125.072693 176.0
125.091293 148.0
125.149094 104.0
125.199631 148.0
125.23365 112.0
125.281273 152.0
125.303535 152.0
125.323639 136.0
125.348068 216.0
125.379768 132.0
125.448036 68.0
125.475037 116.0
125.501274 124.0
125.590508 108.0
125.623573 204.0
125.677872 180.0
125.700172 152.0
125.714684 140.0
125.764854 116.0
125.784927 144.0
125.802032 108.0
125.807236 72.0
125.826378 256.0
125.848984 180.0
125.871941 148.0
125.9021 140.0
125.958992 104.0
125.988892 152.0
126.0215 88.0
126.097946 252.0
126.145706 72.0
126.176987 288.0
126.265007 112.0
126.319267 176.0
126.352188 380.0
126.37455 104.0
126.402824 348.0
126.423744 96.0
126.460899 144.0
126.503464 144.0
126.507576 92.0
126.518997 188.0
126.542305 124.0
126.557968 132.0
126.57811 100.0
126.59507 232.0
126.661987 260.0
126.681068 172.0
126.704933 116.0
126.72361 160.0
126.744881 116.0
126.772873 120.0
126.795273 60.0
126.812653 252.0
126.840973 184.0
126.914421 152.0
126.938652 124.0
126.965546 100.0
127.014595 192.0
127.052795 152.0
127.066986 156.0
127.102303 180.0
127.128952 244.0
127.161461 144.0
127.176315 144.0
127.205475 148.0
127.224716 216.0
127.252098 164.0
127.295227 100.0
127.331131 144.0
127.35807 112.0
127.399727 176.0
127.431252 228.0
127.439499 312.0
127.528725 276.0
127.546692 128.0
127.56691 136.0
127.611488 152.0
127.645119 144.0
127.652985 208.0
127.695 132.0
127.749641 152.0
127.775925 160.0
127.833115 180.0
127.861816 164.0
127.901871 128.0
127.989578 144.0
128.034622 188.0
128.054886 148.0
128.084778 140.0
128.108902 132.0
128.131424 60.0
128.16069 112.0
128.195801 136.0
128.250458 144.0
128.291321 168.0
128.326492 132.0
128.390808 160.0
128.433212 108.0
128.489365 152.0
128.509888 164.0
128.528137 220.0
128.570847 64.0
128.606934 144.0
128.629486 144.0
128.647537 168.0
128.687866 96.0
128.720764 228.0
128.775436 100.0
128.803253 164.0
128.864212 220.0
128.898071 160.0
128.934204 164.0
128.954544 132.0
128.991852 108.0
129.072021 140.0
129.112701 128.0
129.158524 304.0
129.185516 148.0
129.214432 136.0
129.271362 176.0
129.289047 120.0
129.33429 288.0
129.354645 84.0
129.371964 204.0
129.401672 220.0
129.429306 104.0
129.470642 292.0
129.488144 104.0
129.50766 208.0
129.54248 60.0
129.570679 128.0
129.601944 136.0
129.60849 180.0
129.638596 116.0
129.669281 172.0
129.714447 132.0
129.747238 268.0
129.794464 192.0
129.818848 188.0
129.85791 128.0
129.876541 104.0
129.898148 120.0
129.923767 148.0
129.98204 76.0
130.052353 160.0
130.090302 132.0
130.121765 140.0
130.141525 132.0
130.186523 148.0
130.207672 248.0
130.251556 168.0
130.279282 200.0
130.29744 112.0
130.327606 140.0
130.348022 160.0
130.388275 116.0
130.417816 152.0
130.442795 144.0
130.482635 164.0
130.554138 308.0
130.588226 176.0
130.610962 128.0
130.713272 112.0
130.751938 72.0
130.774185 128.0
130.806534 124.0
130.824722 188.0
130.857773 128.0
130.895264 300.0
130.913467 64.0
130.937592 100.0
131.025009 112.0
131.042404 276.0
131.115845 148.0
131.128128 140.0
131.187271 196.0
131.238968 128.0
131.2733 132.0
131.366745 124.0
131.396393 176.0
131.432175 184.0
131.440994 128.0
131.457581 168.0
131.477493 220.0
131.572006 140.0
131.610794 152.0
131.678574 300.0
131.726654 116.0
131.758148 244.0
131.802551 112.0
131.823105 372.0
131.841309 140.0
131.86116 156.0
131.897079 272.0
131.928177 192.0
131.947815 188.0
131.968918 224.0
132.021851 140.0
132.05751 192.0
132.101852 124.0
132.123642 164.0
132.141586 148.0
132.157913 116.0
132.185867 168.0
132.220764 148.0
132.270981 164.0
132.335144 32.0
132.353455 52.0
132.369476 88.0
132.412949 204.0
132.442719 192.0
132.474274 188.0
132.501389 140.0
132.521576 216.0
132.575516 164.0
132.609863 116.0
132.645203 132.0
132.669434 80.0
132.720123 324.0
132.745041 96.0
132.777206 116.0
132.804626 84.0
132.825256 116.0
132.858109 320.0
132.877563 84.0
132.944489 60.0
132.968155 140.0
132.992661 52.0
133.008713 100.0
133.029358 108.0
133.046112 176.0
133.155579 120.0
133.195404 180.0
133.211319 296.0
133.240509 132.0
133.273956 276.0
133.28949 144.0
133.33696 156.0
133.363602 268.0
133.394379 228.0
133.427368 124.0
133.456818 140.0
133.482941 176.0
133.530746 228.0
133.578232 92.0
133.630829 128.0
133.675247 156.0
133.704697 92.0
133.7323 164.0
133.771408 132.0
133.794037 148.0
133.81282 152.0
133.870346 168.0
133.89978 132.0
133.922821 140.0
133.943085 80.0
133.952148 132.0
133.996948 220.0
134.018036 180.0
134.053864 156.0
134.105194 72.0
134.144348 116.0
134.162781 44.0
134.209625 60.0
134.237991 256.0
134.246918 164.0
134.319489 140.0
134.344849 104.0
134.395401 108.0
134.51915 124.0
134.547806 152.0
134.577866 148.0
134.628479 196.0
134.672424 204.0
134.700119 252.0
134.723206 204.0
134.746292 372.0
134.779922 292.0
134.889587 100.0
134.910278 284.0
134.984222 92.0
135.011948 172.0
135.0448 228.0
135.078979 96.0
135.102112 52.0
135.170258 160.0
135.268036 160.0
135.306091 160.0
135.340347 164.0
135.381989 156.0
135.451691 208.0
135.478088 148.0
135.51857 128.0
135.539413 132.0
135.556244 208.0
135.578232 232.0
135.599625 208.0
135.635971 212.0
135.663544 108.0
135.687195 164.0
135.71347 144.0
135.736313 272.0
135.765518 172.0
135.866608 152.0
135.929886 328.0
135.979752 128.0
136.009903 300.0
136.033112 212.0
136.081833 292.0
136.114319 104.0
136.137527 96.0
136.162872 160.0
136.241974 160.0
136.265198 108.0
136.29538 224.0
136.331543 144.0
136.398849 300.0
136.417099 108.0
136.4505 204.0
136.456589 160.0
136.470978 428.0
136.492828 104.0
136.532333 196.0
136.624481 44.0
136.656433 180.0
136.670868 164.0
136.702057 124.0
136.727646 168.0
136.748566 156.0
136.778931 152.0
136.83046 80.0
136.860641 116.0
136.891891 152.0
136.9254 112.0
136.953339 236.0
136.987198 272.0
137.027832 60.0
137.058105 92.0
137.122345 192.0
137.169159 152.0
137.189453 360.0
137.244461 160.0
137.260773 120.0
137.286407 168.0
137.307373 40.0
137.348404 60.0
137.362595 116.0
137.40863 156.0
137.443634 144.0
137.476822 364.0
137.515671 216.0
137.540558 164.0
137.580032 164.0
137.588287 164.0
137.615204 104.0
137.692963 200.0
137.741241 96.0
137.782867 240.0
137.799606 152.0
137.817291 364.0
137.840836 304.0
137.861847 256.0
137.922516 148.0
137.939743 200.0
138.045761 236.0
138.098434 136.0
138.119675 244.0
138.155655 224.0
138.199173 288.0
138.237 132.0
138.278687 40.0
138.305664 84.0
138.330139 204.0
138.348862 120.0
138.368225 128.0
138.377472 140.0
138.386765 160.0
138.408875 172.0
138.412949 284.0
138.436768 112.0
138.482681 108.0
138.555923 172.0
138.584076 104.0
138.619171 132.0
138.646149 104.0
138.669556 124.0
138.69397 96.0
138.726303 128.0
138.777328 152.0
138.80545 40.0
138.829666 216.0
138.852661 140.0
138.867889 56.0
138.887482 80.0
138.904358 160.0
138.928055 264.0
138.955475 116.0
138.994934 132.0
139.01561 312.0
139.051285 112.0
139.08609 172.0
139.126862 104.0
139.15564 140.0
139.190033 164.0
139.208801 176.0
139.255753 156.0
139.293304 56.0
139.326172 112.0
139.349655 140.0
139.399216 232.0
139.42128 256.0
139.462387 92.0
139.483353 116.0
139.555618 128.0
139.579086 136.0
139.687973 80.0
139.722549 68.0
139.756088 156.0
139.798477 152.0
139.824707 136.0
139.84787 132.0
139.876602 528.0
139.911392 188.0
139.927856 104.0
139.948395 132.0
139.980011 124.0
139.996109 232.0
140.030228 176.0
140.053574 116.0
140.120422 128.0
140.177383 176.0
140.243332 104.0
140.304581 152.0
140.325775 152.0
140.34935 120.0
140.371704 184.0
140.408264 60.0
140.429474 164.0
140.445969 48.0
140.514343 108.0
140.538971 136.0
140.576233 32.0
140.596878 188.0
140.629456 108.0
140.639328 156.0
140.661484 72.0
140.666397 136.0
140.692886 348.0
140.71344 184.0
140.771255 140.0
140.814301 160.0
140.851501 132.0
140.87207 200.0
140.88649 136.0
140.913956 76.0
140.967407 176.0
141.014557 108.0
141.017654 144.0
141.050079 200.0
141.072357 232.0
141.098419 216.0
141.120956 208.0
141.146942 144.0
141.227295 52.0
141.258026 120.0
141.295853 168.0
141.326599 152.0
141.343155 188.0
141.412231 148.0
141.496902 160.0
141.515823 104.0
141.546127 160.0
141.577362 132.0
141.610672 160.0
141.636536 160.0
141.662567 112.0
141.686249 164.0
141.705765 180.0
141.731232 136.0
141.750183 96.0
141.78096 140.0
141.804642 168.0
141.84729 80.0
141.863876 208.0
141.893906 160.0
141.941025 192.0
141.959976 208.0
141.987091 168.0
142.024612 144.0
142.052963 152.0
142.086655 136.0
142.103256 256.0
142.119843 136.0
142.164902 116.0
142.189621 172.0
142.217087 136.0
142.239731 120.0
142.257416 176.0
142.290802 160.0
142.319107 124.0
142.335709 124.0
142.376053 168.0
142.427704 148.0
142.46814 172.0
142.474777 136.0
142.517288 204.0
142.554108 140.0
142.584335 116.0
142.620621 36.0
142.639618 188.0
142.672882 100.0
142.705963 204.0
142.744171 160.0
142.804977 212.0
142.861145 188.0
142.886795 184.0
142.925552 168.0
142.95813 120.0
142.99855 152.0
143.014511 68.0
143.062531 76.0
143.099716 176.0
143.143692 108.0
143.161697 460.0
143.199615 312.0
143.225616 160.0
143.254684 132.0
143.318634 96.0
143.35556 104.0
143.389465 152.0
143.419876 128.0
143.450287 136.0
143.550613 160.0
143.571762 112.0
143.606186 168.0
143.634338 148.0
143.656281 136.0
143.715179 220.0
143.749969 160.0
143.786942 116.0
143.825104 80.0
143.846573 64.0
143.863281 104.0
143.885452 172.0
143.937637 220.0
143.98259 140.0
144.029892 132.0
144.055466 316.0
144.094055 144.0
144.163239 144.0
144.195084 140.0
144.218475 176.0
144.253433 168.0
144.339447 140.0
144.374268 76.0
144.395782 48.0
144.459229 156.0
144.487366 156.0
144.527527 236.0
144.552963 140.0
144.584595 124.0
144.616989 132.0
144.711548 112.0
144.754532 172.0
144.802811 164.0
144.822647 200.0
144.831955 92.0
144.839462 140.0
144.84877 160.0
144.853149 200.0
144.881317 120.0
144.910126 112.0
144.954453 156.0
144.979568 132.0
144.999619 184.0
145.027466 124.0
145.054688 188.0
145.112732 88.0
145.142319 64.0
145.200745 140.0
145.323471 348.0
145.358215 128.0
145.393478 128.0
145.414749 224.0
145.470596 164.0
145.511734 188.0
145.526703 120.0
145.557236 100.0
145.565033 132.0
145.587296 248.0
145.618088 192.0
145.655914 164.0
145.710632 148.0
145.743576 192.0
145.792389 184.0
145.835831 220.0
145.868622 160.0
145.902069 124.0
145.941544 100.0
145.968445 364.0
145.982819 160.0
146.006424 112.0
146.030457 132.0
146.059891 180.0
146.084885 132.0
146.109802 140.0
146.129028 172.0
146.182297 132.0
146.214981 156.0
146.235046 124.0
146.278946 144.0
146.328674 120.0
146.351379 100.0
146.366745 348.0
146.402267 136.0
146.450699 176.0
146.475479 260.0
146.520798 156.0
146.553299 284.0
146.587982 128.0
146.611862 164.0
146.630997 184.0
146.680634 180.0
146.704254 192.0
146.73024 148.0
146.769287 328.0
146.803055 104.0
146.851059 160.0
146.884201 196.0
146.916336 132.0
146.940445 100.0
146.979843 244.0
147.032089 168.0
147.056274 140.0
147.0755 236.0
147.111694 104.0
147.206055 224.0
147.252075 92.0
147.306549 124.0
147.357864 172.0
147.388229 236.0
147.423065 120.0
147.51123 144.0
147.546265 296.0
147.606674 156.0
147.651031 204.0
147.66951 104.0
147.691269 132.0
147.713013 284.0
147.732361 156.0
147.757874 72.0
147.780716 60.0
147.809479 264.0
147.862946 124.0
147.892044 132.0
147.94519 128.0
147.970215 116.0
148.00325 140.0
148.031265 104.0
148.056503 28.0
148.084824 108.0
148.102722 40.0
148.157333 140.0
148.221115 88.0
148.303467 228.0
148.337906 128.0
148.359177 160.0
148.424606 168.0
148.506973 140.0
148.523071 108.0
148.584259 236.0
148.626221 92.0
148.647629 180.0
148.703003 216.0
148.712402 180.0
148.742447 84.0
148.802338 92.0
148.825546 92.0
148.88179 132.0
148.912079 56.0
148.939056 140.0
148.960632 144.0
148.999466 144.0
149.026779 272.0
149.050461 152.0
149.09668 136.0
149.15976 144.0
149.190704 180.0
149.256943 100.0
149.28125 148.0
149.30069 148.0
149.324997 276.0
149.356598 436.0
149.380905 112.0
149.414932 116.0
149.434387 124.0
149.45668 180.0
149.505859 224.0
149.562149 240.0
149.604507 148.0
149.631409 176.0
149.657791 104.0
149.666092 140.0
149.748215 84.0
149.782288 128.0
149.832565 204.0
149.875473 132.0
149.895508 184.0
149.929932 152.0
149.951416 136.0
150.067825 260.0
150.114105 104.0
150.160751 108.0
150.181076 204.0
150.231049 156.0
150.254929 156.0
150.304306 128.0
150.354904 120.0
150.379425 144.0
150.41539 128.0
150.452484 180.0
150.480911 172.0
150.500015 132.0
150.5504 188.0
150.5867 208.0
150.603775 128.0
150.691666 152.0
150.723419 112.0
150.787094 180.0
150.806458 156.0
150.831604 176.0
150.889984 144.0
150.924362 244.0
150.957932 148.0
150.975037 124.0
151.006271 160.0
151.03125 104.0
151.063034 340.0
151.139954 132.0
151.191315 160.0
151.221985 152.0
151.257843 208.0
151.308701 112.0
151.344315 120.0
151.371231 152.0
151.398987 116.0
151.427383 148.0
151.482941 336.0
151.520798 164.0
151.567429 132.0
151.57576 152.0
151.586807 216.0
151.59758 112.0
151.620941 336.0
151.660126 108.0
151.694427 148.0
151.718933 104.0
151.736084 148.0
151.766953 272.0
151.814392 104.0
151.843674 84.0
151.887955 128.0
151.926376 236.0
151.966476 140.0
151.995911 136.0
152.038162 152.0
152.07193 148.0
152.102386 96.0
152.114761 184.0
152.155334 280.0
152.176437 140.0
152.200912 80.0
152.249924 140.0
152.295349 156.0
152.327133 68.0
152.371323 56.0
152.394974 280.0
152.444839 192.0
152.488663 144.0
152.521133 156.0
152.551224 192.0
152.588638 192.0
152.619415 164.0
152.683304 52.0
152.706558 128.0
152.73288 120.0
152.779175 108.0
152.811142 152.0
152.828354 112.0
152.858795 200.0
152.881363 200.0
152.952499 276.0
152.979004 160.0
153.017532 140.0
153.044342 104.0
153.054291 216.0
153.058823 104.0
153.092575 180.0
153.111694 136.0
153.140793 108.0
153.172791 56.0
153.19249 192.0
153.224503 64.0
153.271088 160.0
153.290985 148.0
153.313477 212.0
153.362701 132.0
153.416595 244.0
153.43631 168.0
153.454315 364.0
153.485596 88.0
153.516525 124.0
153.539871 200.0
153.602585 136.0
153.620468 100.0
153.642258 260.0
153.684525 192.0
153.769104 128.0
153.796143 96.0
153.82724 200.0
153.848053 132.0
153.867889 104.0
153.936874 120.0
153.966492 144.0
154.002838 132.0
154.043457 224.0
154.077347 168.0
154.107208 132.0
154.144241 288.0
154.166473 128.0
154.203522 144.0
154.235626 276.0
154.265274 128.0
154.315506 204.0
154.358414 172.0
154.387756 92.0
154.437576 176.0
154.490173 152.0
154.510712 196.0
154.590485 184.0
154.621231 116.0
154.641022 384.0
154.657089 160.0
154.680588 188.0
154.722961 128.0
154.784515 76.0
154.829056 140.0
154.850067 172.0
154.87767 156.0
154.898361 156.0
154.923126 144.0
154.939896 88.0
154.960266 192.0
155.01474 172.0
155.045288 132.0
155.069611 260.0
155.10611 180.0
155.133392 128.0
155.151199 292.0
155.204559 128.0
155.221634 140.0
155.262482 144.0
155.287262 256.0
155.31218 180.0
155.334366 188.0
155.37323 124.0
155.426102 124.0
155.505463 64.0
155.534119 156.0
155.579834 188.0
155.658417 260.0
155.679138 132.0
155.702545 112.0
155.737183 156.0
155.745987 60.0
155.755951 212.0
155.759033 260.0
155.808228 104.0
155.851135 112.0
155.875015 204.0
155.900101 172.0
155.91748 72.0
156.018616 152.0
156.049149 208.0
156.098846 324.0
156.127792 148.0
156.159576 140.0
156.211624 320.0
156.235458 184.0
156.241165 172.0
156.31015 128.0
156.33139 176.0
156.364868 152.0
156.396927 108.0
156.406631 96.0
156.434341 112.0
156.477661 188.0
156.526581 204.0
156.66098 188.0
156.680908 132.0
156.736038 156.0
156.792969 120.0
156.817871 136.0
156.875168 96.0
156.915604 168.0
156.936203 132.0
156.957382 48.0
156.987289 136.0
157.00972 164.0
157.031525 124.0
157.06456 104.0
157.094467 152.0
157.134369 212.0
157.161789 76.0
157.194626 304.0
157.229126 184.0
157.264038 300.0
157.288986 188.0
157.32634 152.0
157.378799 276.0
157.395569 200.0
157.42836 216.0
157.448425 192.0
157.466156 144.0
157.512177 152.0
157.544846 100.0
157.591766 248.0
157.609085 144.0
157.635544 132.0
157.685883 116.0
157.708954 236.0
157.745834 100.0
157.763321 176.0
157.780807 120.0
157.815781 260.0
157.843277 152.0
157.874542 164.0
157.925552 104.0
157.964172 332.0
158.015747 108.0
158.04689 140.0
158.083176 116.0
158.097763 140.0
158.130783 84.0
158.158295 132.0
158.180817 64.0
158.226028 112.0
158.234528 276.0
158.276825 172.0
158.315933 72.0
158.34346 128.0
158.381653 108.0
158.391861 84.0
158.39949 136.0
158.446915 152.0
158.476135 144.0
158.503693 128.0
158.536636 132.0
158.588028 196.0
158.606476 204.0
158.640305 140.0
158.658981 112.0
158.690948 200.0
158.804398 156.0
158.834518 144.0
158.861984 124.0
158.89859 40.0
158.912018 84.0
158.91539 120.0
158.990402 132.0
159.011185 128.0
159.070145 296.0
159.102753 140.0
159.145401 152.0
159.162979 180.0
159.198105 128.0
159.216934 104.0
159.258347 160.0
159.278427 176.0
159.300308 212.0
159.386383 148.0
159.439041 132.0
159.480148 108.0
159.488129 280.0
159.511368 116.0
159.536804 172.0
159.590378 152.0
159.638351 180.0
159.677811 176.0
159.70546 72.0
159.730606 400.0
159.782349 96.0
159.81488 140.0
159.850708 156.0
159.909271 208.0
159.959885 136.0
159.987122 180.0
160.021194 120.0
160.061844 132.0
160.102859 40.0
160.125519 136.0
160.158234 148.0
160.175858 176.0
160.195999 60.0
160.255173 120.0
160.29924 144.0
160.32637 140.0
160.381927 192.0
160.417618 156.0
160.462143 172.0
160.495728 48.0
160.518402 132.0
160.553406 140.0
160.571075 40.0
160.593781 184.0
160.632919 156.0
160.697372 40.0
160.745285 300.0
160.791351 184.0
160.830307 96.0
160.849838 124.0
160.884018 152.0
160.988998 232.0
161.058151 156.0
161.101746 152.0
161.111938 144.0
161.136169 208.0
161.153732 200.0
161.193192 180.0
161.232376 64.0
161.250885 156.0
161.290466 108.0
161.312744 132.0
161.316574 108.0
161.326736 168.0
161.356155 132.0
161.37384 136.0
161.404587 24.0
161.430222 332.0
161.45723 176.0
161.481537 248.0
161.491287 152.0
161.501099 168.0
161.530045 104.0
161.57605 32.0
161.624908 148.0
161.660294 100.0
161.701141 92.0
161.734924 208.0
161.758133 124.0
161.791016 80.0
161.815613 240.0
161.839096 152.0
161.859344 172.0
161.907593 200.0
161.947922 160.0
161.965637 164.0
161.987991 140.0
162.011383 176.0
162.041595 112.0
162.074509 216.0
162.115891 176.0
162.147949 56.0
162.174683 144.0
162.238983 180.0
162.275635 160.0
162.286331 64.0
162.299057 136.0
162.363403 172.0
162.406982 88.0
162.428879 148.0
162.464706 84.0
162.496307 208.0
162.518585 144.0
162.545853 100.0
162.582474 224.0
162.608749 128.0
162.733566 108.0
162.751328 240.0
162.785583 232.0
162.79274 188.0
162.835068 444.0
162.885834 120.0
162.90361 176.0
162.922272 200.0
162.986374 192.0
163.037064 172.0
163.055969 164.0
163.078827 100.0
163.114395 208.0
163.169693 224.0
163.216797 188.0
163.289093 196.0
163.322418 204.0
163.340561 112.0
163.376862 132.0
163.434631 176.0
163.465149 144.0
163.491592 140.0
163.533813 204.0
163.577057 112.0
163.599197 80.0
163.625 208.0
163.671844 156.0
163.681763 184.0
163.740082 144.0
163.797165 156.0
163.849731 144.0
163.892654 32.0
163.915573 116.0
163.95668 88.0
164.00975 164.0
164.013962 292.0
164.063309 164.0
164.096008 260.0
164.142181 120.0
164.194321 268.0
164.214645 124.0
164.272293 172.0
164.330521 172.0
164.359741 80.0
164.374374 116.0
164.404892 160.0
164.436203 180.0
164.466095 100.0
164.489059 80.0
164.522232 104.0
164.550293 208.0
164.578598 168.0
164.611893 116.0
164.643982 168.0
164.653549 120.0
164.659836 112.0
164.728943 96.0
164.772339 48.0
164.804642 136.0
164.825974 132.0
164.847992 64.0
164.879593 280.0
164.928772 120.0
164.983887 184.0
164.993744 152.0
165.060989 128.0
165.083847 140.0
165.099503 224.0
165.120026 124.0
165.167755 320.0
165.211792 184.0
165.269745 260.0
165.307678 152.0
165.397995 180.0
165.495514 164.0
165.529129 124.0
165.568283 188.0
165.59227 180.0
165.617432 204.0
165.651825 148.0
165.672089 144.0
165.703201 128.0
165.738876 152.0
165.756805 128.0
165.807663 136.0
165.869492 160.0
165.912277 328.0
165.97023 88.0
165.9953 124.0
166.043747 164.0
166.069366 100.0
166.087311 108.0
166.125763 364.0
166.159988 120.0
166.211975 148.0
166.259109 156.0
166.282196 324.0
166.315536 96.0
166.350906 268.0
166.359344 124.0
166.368378 160.0
166.426804 208.0
166.464005 236.0
166.492584 124.0
166.515671 44.0
166.573303 124.0
166.597824 92.0
166.641785 160.0
166.682556 100.0
166.700531 108.0
166.726212 196.0
166.756622 100.0
166.780151 124.0
166.811966 136.0
166.867508 152.0
167.012833 124.0
167.063339 140.0
167.103333 164.0
167.16774 40.0
167.197205 140.0
167.204727 112.0
167.240265 156.0
167.258286 100.0
167.284256 152.0
167.307159 144.0
167.325165 276.0
167.345749 208.0
167.365952 160.0
167.42038 228.0
167.442444 296.0
167.479843 184.0
167.5056 192.0
167.554581 148.0
167.588776 192.0
167.630463 160.0
167.687561 244.0
167.723358 228.0
167.767929 148.0
167.791199 92.0
167.819534 72.0
167.854156 220.0
167.901276 144.0
167.926605 204.0
167.975327 256.0
168.072495 88.0
168.117554 112.0
168.158981 108.0
168.180466 160.0
168.198532 152.0
168.225189 148.0
168.275925 80.0
168.298462 196.0
168.357559 144.0
168.412704 152.0
168.431885 204.0
168.456589 152.0
168.508759 188.0
168.573196 176.0
168.596802 132.0
168.618073 124.0
168.645096 104.0
168.665771 132.0
168.699341 124.0
168.744171 196.0
168.78978 200.0
168.828552 172.0
168.882584 156.0
168.942276 120.0
169.03656 168.0
169.08432 172.0
169.093323 136.0
169.103851 92.0
169.114227 180.0
169.132874 172.0
169.139771 120.0
169.198593 152.0
169.221268 180.0
169.236923 344.0
169.288895 140.0
169.313995 172.0
169.333923 200.0
169.354416 140.0
169.378296 184.0
169.385452 144.0
169.406799 152.0
169.411041 92.0
169.466644 144.0
169.483719 172.0
169.51445 144.0
169.570099 288.0
169.632614 176.0
169.656586 164.0
169.673798 108.0
169.703461 180.0
169.751648 128.0
169.766769 184.0
169.823486 208.0
169.876343 136.0
169.893875 244.0
170.002197 132.0
170.038971 164.0
170.074646 176.0
170.128433 88.0
170.170914 172.0
170.202438 300.0
170.227219 196.0
170.233749 136.0
170.299713 176.0
170.331207 152.0
170.408752 92.0
170.430786 88.0
170.45549 132.0
170.488144 188.0
170.496109 268.0
170.539368 152.0
170.598343 124.0
170.665359 124.0
170.699295 136.0
170.721344 204.0
170.786484 260.0
170.847839 172.0
170.894638 56.0
170.915451 224.0
170.940643 116.0
170.970062 188.0
170.989731 164.0
171.011673 64.0
171.03508 200.0
171.054489 128.0
171.082993 68.0
171.159317 80.0
171.179214 372.0
171.256271 104.0
171.328857 120.0
171.349991 144.0
171.36821 316.0
171.425507 140.0
171.445236 180.0
171.453049 104.0
171.459976 136.0
171.50885 44.0
171.589615 136.0
171.637177 324.0
171.659775 192.0
171.702209 152.0
171.756393 212.0
171.81749 248.0
171.868515 132.0
171.889374 196.0
171.928497 68.0
171.959793 156.0
171.98056 112.0
172.02005 232.0
172.124146 108.0
172.143585 212.0
172.20491 144.0
172.212585 136.0
172.221695 128.0
172.229858 184.0
172.251434 120.0
172.260574 164.0
172.33873 236.0
172.385269 172.0
172.442673 128.0
172.481842 136.0
172.505356 204.0
172.570236 164.0
172.618622 368.0
172.654297 244.0
172.696121 124.0
172.73465 152.0
172.819 148.0
172.90007 124.0
172.917877 104.0
172.962646 104.0
173.017822 240.0
173.054474 160.0
173.138153 192.0
173.220932 256.0
173.27916 208.0
173.313553 176.0
173.346924 252.0
173.390945 124.0
173.416946 144.0
173.512619 56.0
173.532944 196.0
173.575211 164.0
173.63269 88.0
173.728149 168.0
173.751129 184.0
173.803574 160.0
173.82193 180.0
173.840286 152.0
173.858643 108.0
173.890106 164.0
173.909637 136.0
173.918961 60.0
173.92868 136.0
173.957443 180.0
174.023911 188.0
174.049057 164.0
174.092133 92.0
174.135864 176.0
174.163406 180.0
174.190308 252.0
174.231262 148.0
174.26799 184.0
174.285706 120.0
174.296707 108.0
174.324615 188.0
174.347809 124.0
174.418991 156.0
174.440109 400.0
174.464783 148.0
174.496994 140.0
174.562653 196.0
174.587692 104.0
174.597626 196.0
174.624527 148.0
174.658646 152.0
174.713135 176.0
174.743607 188.0
174.777786 212.0
174.843536 132.0
174.884613 104.0
174.917694 248.0
174.951385 236.0
174.998535 104.0
175.008743 60.0
175.018082 92.0
175.101379 312.0
175.146133 140.0
175.171204 160.0
175.214188 164.0
175.276459 188.0
175.293976 232.0
175.314636 64.0
175.335709 164.0
175.390564 220.0
175.441727 176.0
175.45285 204.0
175.487061 316.0
175.534317 104.0
175.556198 128.0
175.586014 172.0
175.638306 172.0
175.700439 164.0
175.78537 324.0
175.823303 112.0
175.858353 184.0
175.911591 68.0
175.979721 148.0
176.006485 156.0
176.04718 88.0
176.069748 176.0
176.101608 200.0
176.161362 208.0
176.192734 64.0
176.21579 88.0
176.321365 104.0
176.332611 116.0
176.342743 124.0
176.414581 84.0
176.444458 272.0
176.473587 108.0
176.506744 68.0
176.542175 168.0
176.562561 88.0
176.59816 168.0
176.645645 184.0
176.674728 120.0
176.705643 208.0
176.737045 108.0
176.761459 160.0
176.815674 136.0
176.835831 68.0
176.942795 56.0
176.975113 116.0
177.017441 148.0
177.097733 240.0
177.12439 168.0
177.149796 328.0
177.194794 156.0
177.215988 60.0
177.252701 188.0
177.290131 180.0
177.332977 164.0
177.366013 204.0
177.388229 124.0
177.396576 152.0
177.443771 144.0
177.482391 56.0
177.51149 152.0
177.549683 116.0
177.657349 156.0
177.681259 188.0
177.803711 168.0
177.827057 220.0
177.870544 156.0
177.89769 172.0
177.923676 140.0
177.971436 152.0
178.035126 100.0
178.072525 116.0
178.087326 72.0
178.126785 196.0
178.194397 344.0
178.229401 176.0
178.305939 156.0
178.344727 212.0
178.369202 148.0
178.457886 144.0
178.501465 436.0
178.555679 160.0
178.584915 136.0
178.612289 376.0
178.643402 156.0
178.699753 208.0
178.770935 220.0
178.802948 144.0
178.858582 180.0
178.864731 160.0
178.889313 180.0
178.942886 100.0
178.98703 104.0
179.009872 180.0
179.090317 104.0
179.117737 160.0
179.146454 136.0
179.258987 52.0
179.289078 160.0
179.332504 276.0
179.403122 112.0
179.428024 148.0
179.452789 276.0
179.550354 156.0
179.59903 176.0
179.633743 148.0
179.664017 104.0
179.705612 188.0
179.79187 244.0
179.812408 112.0
179.835159 180.0
179.88208 164.0
179.908844 288.0
179.951126 60.0
180.004486 168.0
180.030182 160.0
180.0979 136.0
180.116592 60.0
180.156631 88.0
180.175323 116.0
180.23941 120.0
180.2621 108.0
180.287216 124.0
180.309128 148.0
180.437073 136.0
180.494385 212.0
180.546463 188.0
180.578705 96.0
180.610779 244.0
180.640182 148.0
180.675705 184.0
180.750305 272.0
180.77655 144.0
180.818787 116.0
180.82843 192.0
180.871994 140.0
180.915955 248.0
180.937042 108.0
180.975571 232.0
181.003937 152.0
181.052826 136.0
181.076202 44.0
181.108322 112.0
181.143127 160.0
181.169891 244.0
181.19696 184.0
181.231613 260.0
181.26297 84.0
181.294022 124.0
181.33638 164.0
181.369919 220.0
181.393692 204.0
181.436203 232.0
181.486526 124.0
181.539551 152.0
181.558304 32.0
181.600204 164.0
181.641403 124.0
181.662842 144.0
181.68161 112.0
181.71373 176.0
181.767593 116.0
181.786194 152.0
181.844208 100.0
181.934662 148.0
181.973969 172.0
182.000793 160.0
182.029541 240.0
182.057144 44.0
182.100967 320.0
182.117706 64.0
182.178207 120.0
182.200531 184.0
182.242386 212.0
182.271912 88.0
182.309509 192.0
182.341751 124.0
182.36055 148.0
182.395767 156.0
182.416962 144.0
182.469711 208.0
182.522064 168.0
182.553574 104.0
182.599686 152.0
182.621185 124.0
182.727631 108.0
182.763702 312.0
182.783096 196.0
182.850632 120.0
182.87851 132.0
182.906799 168.0
182.968094 216.0
183.017822 240.0
183.06955 116.0
183.151093 120.0
183.204071 136.0
183.214188 92.0
183.228394 176.0
183.236465 152.0
183.275681 44.0
183.318024 172.0
183.339569 172.0
183.360825 144.0
183.385574 232.0
183.44371 308.0
183.470169 232.0
183.48024 200.0
183.499786 144.0
183.544312 312.0
183.572159 144.0
183.611694 148.0
183.632584 192.0
183.660217 180.0
183.713272 152.0
183.756683 280.0
183.766724 220.0
183.838165 132.0
183.859741 284.0
183.913559 164.0
183.948746 160.0
183.973465 228.0
184.004654 100.0
184.025208 212.0
184.099503 152.0
184.125839 96.0
184.17308 92.0
184.197021 120.0
184.240219 120.0
184.277222 256.0
184.323929 284.0
184.356339 92.0
184.391449 144.0
184.442078 272.0
184.507767 136.0
184.543762 156.0
184.571152 116.0
184.59137 180.0
184.64801 204.0
184.68866 192.0
184.707596 152.0
184.761658 140.0
184.784668 164.0
184.804916 180.0
184.857574 156.0
184.913101 132.0
184.964813 136.0
184.991547 372.0
185.026718 208.0
185.064865 156.0
185.102478 140.0
185.134949 124.0
185.156601 156.0
185.199905 136.0
185.238312 152.0
185.28363 208.0
185.343979 76.0
185.375015 196.0
185.435165 100.0
185.499603 244.0
185.526474 196.0
185.557388 136.0
185.630554 120.0
185.694275 192.0
185.726624 148.0
185.7715 76.0
185.807983 160.0
185.896225 164.0
185.919128 152.0
185.947601 132.0
185.969467 144.0
186.004044 224.0
186.04541 72.0
186.084671 140.0
186.115005 284.0
186.138611 200.0
186.182266 212.0
186.223053 156.0
186.246231 92.0
186.265244 160.0
186.292389 128.0
186.330124 244.0
186.361023 156.0
186.378372 132.0
186.406433 144.0
186.42598 128.0
186.479752 148.0
186.503677 164.0
186.564758 152.0
186.621033 160.0
186.643784 212.0
186.699829 112.0
186.733475 160.0
186.75824 172.0
186.794144 172.0
186.828079 404.0
186.861206 144.0
186.892761 136.0
186.943161 120.0
186.990753 92.0
187.03064 156.0
187.051422 132.0
187.093903 152.0
187.144974 284.0
187.25383 180.0
187.26506 64.0
187.275421 168.0
187.315262 156.0
187.339066 108.0
187.382355 156.0
187.41803 148.0
187.439575 240.0
187.480667 124.0
187.505493 136.0
187.524231 212.0
187.559647 156.0
187.608688 176.0
187.629578 120.0
187.684341 188.0
187.743103 348.0
187.812637 160.0
187.830597 84.0
187.886841 396.0
187.935547 152.0
187.960999 160.0
188.008453 128.0
188.028473 168.0
188.059006 124.0
188.088486 232.0
188.10759 140.0
188.129333 148.0
188.186707 88.0
188.205811 68.0
188.229156 156.0
188.253143 188.0
188.287674 148.0
188.328125 176.0
188.335373 144.0
188.343384 244.0
188.38179 156.0
188.407059 300.0
188.451477 124.0
188.522675 320.0
188.548386 220.0
188.575928 196.0
188.636368 92.0
188.741028 36.0
188.771088 148.0
188.799667 236.0
188.848053 104.0
188.889267 216.0
188.93782 144.0
188.996887 140.0
189.049118 148.0
189.085495 116.0
189.115265 348.0
189.197647 260.0
189.228882 232.0
189.267166 156.0
189.342682 152.0
189.391953 160.0
189.427536 36.0
189.460739 188.0
189.50145 232.0
189.531723 152.0
189.678009 144.0
189.70961 100.0
189.747971 160.0
189.763916 136.0
189.770203 136.0
189.798279 156.0
189.832565 96.0
189.891571 188.0
189.926102 108.0
189.972305 168.0
190.041245 164.0
190.082382 108.0
190.104324 112.0
190.128738 168.0
190.156433 156.0
190.196579 132.0
190.22226 104.0
190.252441 92.0
190.305038 96.0
190.32811 132.0
190.347916 212.0
190.357483 156.0
190.42807 152.0
190.502182 144.0
190.525909 168.0
190.532425 204.0
190.649353 148.0
190.683624 116.0
190.71167 156.0
190.72229 184.0
190.744949 240.0
190.774582 196.0
190.796051 120.0
190.829025 324.0
190.892227 284.0
190.947189 140.0
190.988419 164.0
191.012344 200.0
191.040649 260.0
191.081894 144.0
191.163086 164.0
191.194641 172.0
191.216476 136.0
191.275375 140.0
191.295547 164.0
191.322922 188.0
191.357162 424.0
191.403717 80.0
191.427368 176.0
191.478027 132.0
191.513809 96.0
191.535828 108.0
191.567062 116.0
191.607407 124.0
191.628357 244.0
191.676254 172.0
191.712051 176.0
191.738647 116.0
191.783661 116.0
191.802948 160.0
191.860992 116.0
191.943588 108.0
191.990936 148.0
192.039825 104.0
192.05983 252.0
192.088089 284.0
192.129776 372.0
192.19072 196.0
192.227402 72.0
192.27153 96.0
192.311157 164.0
192.352982 220.0
192.377426 196.0
192.41806 168.0
192.481201 60.0
192.53363 100.0
192.552963 248.0
192.597122 148.0
192.663773 140.0
192.681641 52.0
192.726578 180.0
192.73172 160.0
192.743378 140.0
192.792313 172.0
192.848404 132.0
192.902435 328.0
192.93721 136.0
192.957962 292.0
192.978241 152.0
193.041809 264.0
193.066681 168.0
193.116425 116.0
193.16066 152.0
193.205399 236.0
193.237 140.0
193.30719 120.0
193.345917 48.0
193.373581 164.0
193.417831 172.0
193.459335 132.0
193.500229 164.0
193.553528 180.0
193.61377 108.0
193.707397 220.0
193.758942 280.0
193.846848 124.0
193.88797 160.0
193.904556 148.0
193.932266 184.0
193.974258 160.0
194.038132 144.0
194.104477 60.0
194.123871 160.0
194.16333 168.0
194.210526 156.0
194.234238 132.0
194.242142 108.0
194.260178 184.0
194.306824 104.0
194.32901 96.0
194.351196 72.0
194.373367 204.0
194.412201 116.0
194.443954 268.0
194.500092 168.0
194.506027 116.0
194.515427 148.0
194.569839 416.0
194.595291 392.0
194.622299 180.0
194.646271 32.0
194.684082 176.0
194.711838 112.0
194.772903 96.0
194.815567 76.0
194.824066 140.0
194.86174 96.0
194.908218 76.0
194.926682 104.0
194.977341 160.0
195.006149 164.0
195.078384 156.0
195.137192 184.0
195.189514 164.0
195.251633 148.0
195.286789 140.0
195.327103 144.0
195.347946 88.0
195.386383 180.0
195.409119 232.0
195.43692 136.0
195.480057 264.0
195.498489 200.0
195.563126 244.0
195.606583 144.0
195.626053 176.0
195.651184 120.0
195.696381 232.0
195.734558 112.0
195.758591 152.0
195.779709 236.0
195.829193 156.0
195.863922 184.0
195.884872 92.0
195.909927 112.0
195.934982 100.0
195.963593 216.0
196.003143 192.0
196.026871 140.0
196.057632 176.0
196.09404 300.0
196.11731 160.0
196.128036 348.0
196.17601 168.0
196.244141 124.0
196.267441 144.0
196.31102 196.0
196.357529 136.0
196.391861 108.0
196.411362 180.0
196.436462 160.0
196.467117 216.0
196.536835 280.0
196.564713 88.0
196.593826 136.0
196.667358 216.0
196.787872 168.0
196.823715 128.0
196.845123 116.0
196.904114 120.0
196.95253 132.0
196.9785 188.0
197.000732 196.0
197.050247 156.0
197.078171 208.0
197.103302 164.0
197.122849 156.0
197.167526 168.0
197.21167 92.0
197.238937 92.0
197.243668 124.0
197.308167 140.0
197.332352 180.0
197.375854 176.0
197.39505 228.0
197.417175 108.0
197.454926 232.0
197.506149 384.0
197.532944 320.0
197.567123 100.0
197.668533 192.0
197.704147 160.0
197.732117 104.0
197.78978 176.0
197.827744 192.0
197.871979 180.0
197.93634 132.0
197.978317 160.0
198.012085 384.0
198.090759 140.0
198.13237 124.0
198.190109 196.0
198.216278 148.0
198.241486 144.0
198.291336 60.0
198.298981 144.0
198.309479 124.0
198.339523 180.0
198.371078 212.0
198.443954 116.0
198.477264 140.0
198.555267 164.0
198.600113 144.0
198.636566 124.0
198.675812 60.0
198.709961 148.0
198.744827 156.0
198.790771 216.0
198.818817 196.0
198.892853 172.0
198.903625 68.0
198.91037 188.0
198.951813 116.0
198.975906 116.0
199.01178 224.0
199.074127 172.0
199.15271 64.0
199.183594 92.0
199.251434 96.0
199.296417 148.0
199.338409 140.0
199.356232 140.0
199.385757 204.0
199.447556 64.0
199.486877 196.0
199.509277 144.0
199.517303 140.0
199.531372 120.0
199.541489 128.0
199.59996 212.0
199.62738 288.0
199.647049 256.0
199.744247 196.0
199.819 164.0
199.952377 180.0
199.957153 108.0
200.032272 88.0
200.05629 164.0
200.104523 148.0
200.133316 144.0
200.167755 112.0
200.194473 148.0
200.202377 96.0
200.243317 100.0
200.284363 268.0
200.31369 156.0
200.336319 96.0
200.364365 184.0
200.389694 140.0
200.434753 120.0
200.457275 136.0
200.478271 176.0
200.510406 144.0
200.52179 124.0
200.55867 84.0
200.615326 184.0
200.68309 208.0
200.740021 296.0
200.778458 60.0
200.817505 212.0
200.839813 172.0
200.857788 296.0
200.925125 136.0
200.956055 84.0
200.990372 176.0
201.0289 124.0
201.060394 32.0
201.14328 188.0
201.228241 136.0
201.283585 140.0
201.305847 104.0
201.336884 104.0
201.415924 160.0
201.500519 116.0
201.5345 148.0
201.555695 180.0
201.576859 160.0
201.595291 152.0
201.629898 344.0
201.664413 308.0
201.714066 200.0
201.773315 216.0
201.831604 152.0
201.853775 176.0
201.898926 68.0
201.929718 492.0
201.94838 176.0
201.996384 216.0
202.041168 200.0
202.065704 96.0
202.102463 172.0
202.125092 116.0
202.153366 180.0
202.189346 72.0
202.234238 88.0
202.285324 196.0
202.331573 140.0
202.355469 120.0
202.402313 168.0
202.463654 124.0
202.470886 172.0
202.517624 128.0
202.579529 196.0
202.641541 172.0
202.678711 124.0
202.70047 160.0
202.725739 192.0
202.753357 164.0
202.783524 148.0
202.827744 464.0
202.870377 348.0
202.887695 188.0
202.918945 120.0
202.963196 176.0
203.010147 120.0
203.084869 132.0
203.115768 40.0
203.147232 184.0
203.244888 36.0
203.298523 192.0
203.311356 68.0
203.320206 184.0
203.354233 212.0
203.416641 168.0
203.45636 64.0
203.518784 88.0
203.552841 308.0
203.60112 316.0
203.629471 208.0
203.689133 196.0
203.7117 136.0
203.719528 132.0
203.728134 132.0
203.779922 88.0
203.832016 360.0
203.913406 104.0
203.950165 264.0
204.047226 148.0
204.103745 384.0
204.155563 328.0
204.23793 208.0
204.269363 268.0
204.280518 144.0
204.316925 96.0
204.343887 100.0
204.415543 188.0
204.459427 176.0
204.508087 176.0
204.538757 96.0
204.5672 144.0
204.632568 148.0
204.657135 256.0
204.703781 168.0
204.757141 128.0
204.780624 56.0
204.850571 316.0
204.871414 148.0
204.940048 156.0
204.968521 212.0
204.998688 148.0
205.05397 200.0
205.075775 344.0
205.132217 180.0
205.172226 148.0
205.216354 148.0
205.238892 136.0
205.26622 132.0
205.340271 132.0
205.414902 348.0
205.461472 68.0
205.504242 40.0
205.540482 124.0
205.589264 168.0
205.675354 152.0
205.709595 120.0
205.729553 92.0
205.763794 140.0
205.799286 196.0
205.872391 224.0
205.899399 124.0
205.945862 204.0
205.978699 200.0
206.005417 140.0
206.063492 164.0
206.092926 168.0
206.114792 112.0
206.123566 108.0
206.168961 124.0
206.204239 408.0
206.248856 112.0
206.269012 152.0
206.298874 160.0
206.350845 152.0
206.449127 168.0
206.468964 132.0
206.538284 168.0
206.62175 144.0
206.665741 176.0
206.735123 128.0
206.756989 296.0
206.780792 308.0
206.81189 232.0
206.849442 96.0
206.920959 152.0
206.992493 196.0
207.012527 160.0
207.044006 140.0
207.073761 184.0
207.105545 128.0
207.170639 188.0
207.182327 176.0
207.191681 68.0
207.203003 148.0
207.222931 232.0
207.294998 132.0
207.336044 160.0
207.358963 304.0
207.393326 132.0
207.419113 140.0
207.471527 152.0
207.4953 148.0
207.540771 172.0
207.574753 188.0
207.606827 132.0
207.634018 76.0
207.673492 192.0
207.707611 220.0
207.74295 80.0
207.808884 116.0
207.877716 84.0
207.917862 148.0
207.952286 352.0
207.989777 112.0
208.018555 240.0
208.085754 128.0
208.133545 200.0
208.164581 88.0
208.258224 128.0
208.288834 168.0
208.380844 484.0
208.462952 168.0
208.494751 144.0
208.552185 176.0
208.572296 128.0
208.619125 240.0
208.652649 120.0
208.673111 160.0
208.701584 140.0
208.785049 156.0
208.833786 168.0
208.846024 108.0
208.889191 160.0
208.937271 240.0
208.9599 200.0
209.02066 104.0
209.063797 192.0
209.105118 296.0
209.14711 108.0
209.242157 212.0
209.282852 164.0
209.343689 268.0
209.385666 124.0
209.414673 164.0
209.424042 156.0
209.433975 196.0
209.535736 280.0
209.567398 160.0
209.596191 148.0
209.627869 264.0
209.657501 140.0
209.680817 284.0
209.716827 136.0
209.74884 92.0
209.777649 152.0
209.81102 228.0
209.887146 104.0
209.911392 288.0
209.954651 208.0
209.990891 180.0
210.034134 148.0
210.083145 148.0
210.103317 128.0
210.123505 92.0
210.144974 136.0
210.17189 128.0
210.234192 196.0
210.255524 168.0
210.300339 176.0
210.342682 148.0
210.366913 120.0
210.406921 272.0
210.452316 140.0
210.494431 256.0
210.529755 128.0
210.582184 164.0
210.635345 96.0
210.657761 112.0
210.688309 64.0
210.720764 124.0
210.752365 148.0
210.772736 164.0
210.796204 96.0
210.827606 180.0
210.856491 88.0
210.876709 120.0
210.928696 144.0
210.984787 184.0
211.018265 112.0
211.038498 188.0
211.067657 168.0
211.074219 164.0
211.086411 212.0
211.121109 200.0
211.171951 268.0
211.196579 160.0
211.261047 112.0
211.295731 104.0
211.344238 176.0
211.370056 160.0
211.408508 88.0
211.428757 188.0
211.466354 148.0
211.496857 152.0
211.537231 96.0
211.613968 160.0
211.652191 308.0
211.68335 172.0
211.716354 148.0
211.727676 92.0
211.793259 160.0
211.847595 124.0
211.865067 420.0
211.911987 324.0
211.9832 176.0
212.031158 236.0
212.065521 100.0
212.126358 112.0
212.164017 168.0
212.200623 120.0
212.240005 176.0
212.279846 148.0
212.317795 232.0
212.342117 84.0
212.392319 324.0
212.403046 328.0
212.445145 108.0
212.472839 180.0
212.496063 164.0
212.535019 112.0
212.561127 120.0
212.58432 60.0
212.648254 88.0
212.696854 220.0
212.815613 104.0
212.858688 160.0
212.894745 164.0
212.913712 124.0
212.965195 44.0
213.013748 136.0
213.110672 104.0
213.170547 356.0
213.210144 120.0
213.269287 164.0
213.289627 216.0
213.316284 160.0
213.391312 72.0
213.430054 168.0
213.522293 216.0
213.545334 156.0
213.594757 104.0
213.635452 148.0
213.655807 172.0
213.682114 244.0
213.7285 60.0
213.775696 120.0
213.805115 1444.0
213.889648 128.0
213.932098 128.0
213.964096 68.0
213.994965 132.0
214.020889 172.0
214.07988 208.0
214.118332 208.0
214.14743 192.0
214.167816 88.0
214.199829 156.0
214.220215 84.0
214.263885 244.0
214.290085 140.0
214.341599 180.0
214.382141 196.0
214.417892 140.0
214.466736 140.0
214.510056 136.0
214.571213 116.0
214.59697 144.0
214.639297 180.0
214.647491 144.0
214.712967 112.0
214.807404 932.0
214.86235 128.0
214.897934 196.0
214.941269 200.0
214.986542 324.0
215.036133 76.0
215.058899 124.0
215.170319 132.0
215.205338 200.0
215.231598 172.0
215.275375 128.0
215.300323 168.0
215.349243 180.0
215.382187 316.0
215.414062 296.0
215.457947 124.0
215.465714 156.0
215.531845 84.0
215.558548 116.0
215.578995 32.0
215.6082 184.0
215.636139 204.0
215.681061 148.0
215.707504 148.0
215.748413 136.0
215.76886 36.0
215.81308 680.0
215.897446 120.0
215.944199 340.0
215.995163 120.0
216.015121 124.0
216.099152 208.0
216.118301 116.0
216.183945 104.0
216.210266 132.0
216.247742 128.0
216.287079 152.0
216.307938 144.0
216.362381 88.0
216.428421 164.0
216.458939 168.0
216.482361 252.0
216.508698 244.0
216.55159 132.0
216.600403 180.0
216.731277 124.0
216.754608 148.0
216.786682 84.0
216.81279 184.0
216.88559 180.0
216.988953 104.0
217.01239 128.0
217.032898 220.0
217.057129 164.0
217.088577 156.0
217.114212 140.0
217.132538 284.0
217.163803 180.0
217.213974 148.0
217.263977 124.0
217.311371 160.0
217.37294 92.0
217.441376 184.0
217.450516 160.0
217.510803 248.0
217.546005 128.0
217.578445 208.0
217.61055 140.0
217.634018 184.0
217.722061 124.0
217.761597 348.0
217.783707 116.0
217.824402 120.0
217.895874 132.0
218.015656 124.0
218.133148 244.0
218.178802 140.0
218.230103 180.0
218.250671 92.0
218.31691 200.0
218.359406 76.0
218.391739 100.0
218.436859 160.0
218.462296 156.0
218.502289 172.0
218.546463 224.0
218.57576 136.0
218.618134 224.0
218.688721 176.0
218.742371 204.0
218.795883 140.0
218.852463 420.0
218.878632 140.0
218.907166 148.0
218.932938 172.0
218.956039 164.0
219.011932 176.0
219.044785 152.0
219.13205 144.0
219.143478 92.0
219.178741 112.0
219.197296 280.0
219.228928 220.0
219.271515 116.0
219.342209 52.0
219.362839 140.0
219.43808 104.0
219.46254 276.0
219.502365 128.0
219.522766 128.0
219.557312 208.0
219.614441 260.0
219.642792 104.0
219.67746 116.0
219.719437 52.0
219.759644 276.0
219.798843 172.0
219.828537 92.0
219.889328 164.0
219.958069 300.0
219.993576 156.0
220.052887 180.0
220.141251 140.0
220.197449 104.0
220.240158 96.0
220.279984 188.0
220.319687 196.0
220.374466 40.0
220.461487 160.0
220.513428 212.0
220.536896 132.0
220.566437 136.0
220.620834 204.0
220.651718 92.0
220.688187 172.0
220.727951 60.0
220.767349 124.0
220.78804 88.0
220.840973 128.0
220.869675 156.0
220.895447 180.0
220.937393 176.0
220.978226 84.0
221.006317 168.0
221.039337 80.0
221.067154 276.0
221.110306 260.0
221.193665 136.0
221.223984 200.0
221.257248 144.0
221.324417 204.0
221.368958 180.0
221.412842 160.0
221.439301 168.0
221.461563 228.0
221.513779 192.0
221.559296 116.0
221.633698 164.0
221.662674 144.0
221.746674 148.0
221.769699 184.0
221.808884 100.0
221.858398 156.0
222.027054 152.0
222.069641 64.0
222.125961 132.0
222.187103 96.0
222.230637 156.0
222.261322 156.0
222.289032 144.0
222.320541 180.0
222.333099 112.0
222.340393 164.0
222.375046 88.0
222.409607 104.0
222.460297 168.0
222.52771 108.0
222.604202 292.0
222.64505 132.0
222.684082 160.0
222.716278 136.0
222.760803 172.0
222.806168 200.0
222.829056 160.0
222.867691 148.0
222.935989 116.0
222.970306 260.0
223.001343 88.0
223.026764 100.0
223.063522 124.0
223.120163 128.0
223.173248 148.0
223.181824 128.0
223.189926 244.0
223.227142 272.0
223.281876 220.0
223.348389 216.0
223.371155 132.0
223.393585 140.0
223.435181 156.0
223.476837 224.0
223.574982 180.0
223.595795 140.0
223.64209 184.0
223.677719 344.0
223.721542 148.0
223.771317 216.0
223.798096 160.0
223.820404 124.0
223.85463 76.0
223.884384 164.0
223.943924 204.0
223.96431 136.0
224.034393 152.0
224.063004 264.0
224.093765 60.0
224.156906 328.0
224.205933 168.0
224.251938 144.0
224.274445 204.0
224.301254 156.0
224.328064 104.0
224.399689 372.0
224.445312 136.0
224.522888 368.0
224.578247 184.0
224.621841 124.0
224.667816 176.0
224.709427 192.0
224.742355 164.0
224.855667 72.0
224.894455 160.0
224.952621 152.0
224.983948 180.0
225.013779 216.0
225.060989 156.0
225.099472 128.0
225.106186 152.0
225.158066 284.0
225.235901 132.0
225.255524 216.0
225.276428 156.0
225.31395 84.0
225.415588 204.0
225.42366 116.0
225.504562 144.0
225.527679 152.0
225.581039 132.0
225.622726 184.0
225.655334 156.0
225.696945 232.0
225.730408 308.0
225.775269 124.0
225.846863 92.0
225.856644 88.0
225.909775 124.0
225.930695 144.0
225.977859 156.0
226.000641 144.0
226.02243 292.0
226.074646 172.0
226.097824 144.0
226.122086 120.0
226.160645 144.0
226.183624 156.0
226.240021 208.0
226.296097 48.0
226.343475 96.0
226.395416 248.0
226.447083 136.0
226.469971 232.0
226.530487 116.0
226.573563 124.0
226.612885 128.0
226.659286 208.0
226.704865 156.0
226.738281 96.0
226.768997 156.0
226.82164 148.0
226.873047 360.0
226.945831 256.0
226.967911 84.0
226.989319 112.0
227.011292 164.0
227.048508 304.0
227.14917 56.0
227.182144 128.0
227.227112 104.0
227.263733 168.0
227.326996 124.0
227.378296 164.0
227.430176 164.0
227.458038 176.0
227.508347 364.0
227.557877 224.0
227.608063 116.0
227.678986 360.0
227.728104 300.0
227.755524 120.0
227.845535 136.0
227.966156 240.0
228.04213 144.0
228.076431 272.0
228.097458 140.0
228.151535 112.0
228.210464 52.0
228.253067 152.0
228.280121 96.0
228.300354 168.0
228.333679 208.0
228.371872 176.0
228.419006 120.0
228.477966 220.0
228.546921 192.0
228.667084 176.0
228.722733 148.0
228.771347 124.0
228.800949 160.0
228.849091 240.0
228.872421 180.0
228.883331 136.0
228.912277 120.0
228.943726 152.0
229.008499 136.0
229.087997 148.0
229.144058 36.0
229.168152 172.0
229.211136 188.0
229.27356 140.0
229.300659 136.0
229.350662 300.0
229.377777 180.0
229.426071 108.0
229.437119 160.0
229.478027 152.0
229.50853 140.0
229.559402 200.0
229.58844 120.0
229.642365 140.0
229.686356 52.0
229.72554 116.0
229.787811 208.0
229.809692 132.0
229.885345 172.0
229.964569 196.0
230.062561 128.0
230.091461 184.0
230.214188 112.0
230.237625 104.0
230.292664 148.0
230.33493 132.0
230.35907 404.0
230.389267 116.0
230.422485 148.0
230.461731 160.0
230.491928 68.0
230.527237 284.0
230.547363 136.0
230.609772 112.0
230.636292 200.0
230.71846 44.0
230.74263 164.0
230.783737 240.0
230.820938 420.0
230.845383 224.0
230.89978 136.0
230.926987 100.0
230.976501 168.0
231.01062 96.0
231.073975 264.0
231.170731 116.0
231.212128 180.0
231.254227 140.0
231.31102 128.0
231.353363 152.0
231.389404 136.0
231.423203 200.0
231.458084 244.0
231.484665 236.0
231.520554 180.0
231.582855 168.0
231.619675 156.0
231.642471 196.0
231.672546 200.0
231.698105 128.0
231.743408 152.0
231.789307 172.0
231.813461 152.0
231.852829 176.0
231.893188 136.0
231.950592 72.0
232.012039 356.0
232.089127 172.0
232.16301 136.0
232.216415 144.0
232.249756 108.0
232.284729 224.0
232.330826 156.0
232.340805 116.0
232.350632 160.0
232.385193 148.0
232.413467 100.0
232.451279 160.0
232.478714 160.0
232.499573 308.0
232.537598 108.0
232.624237 164.0
232.70163 136.0
232.74411 172.0
232.80481 176.0
232.829086 188.0
232.911041 76.0
232.986328 160.0
233.03479 116.0
233.07196 196.0
233.120544 184.0
233.171646 136.0
233.20871 140.0
233.244003 148.0
233.32103 116.0
233.3423 196.0
233.403061 164.0
233.427383 156.0
233.448654 136.0
233.475998 188.0
233.506393 168.0
233.54213 148.0
233.591507 104.0
233.618866 104.0
233.693192 144.0
233.719208 180.0
233.749939 76.0
233.786102 108.0
233.904999 140.0
233.950363 76.0
233.982513 148.0
233.99585 76.0
234.016266 140.0
234.065552 192.0
234.105545 228.0
234.162003 160.0
234.192978 204.0
234.227295 124.0
234.268661 136.0
234.283615 72.0
234.288757 104.0
234.330811 88.0
234.361008 144.0
234.373184 128.0
234.422165 100.0
234.461761 296.0
234.48613 192.0
234.513245 348.0
234.551987 136.0
234.581985 296.0
234.62175 100.0
234.673645 144.0
234.705475 104.0
234.736374 172.0
234.7771 172.0
234.802689 116.0
234.810135 176.0
234.841812 164.0
234.862305 236.0
234.903595 120.0
234.954086 264.0
234.987305 164.0
235.063187 152.0
235.10849 120.0
235.119293 168.0
235.170731 140.0
235.208542 176.0
235.232941 140.0
235.275665 132.0
235.317795 208.0
235.376358 180.0
235.412979 152.0
235.445953 184.0
235.524109 156.0
235.563004 264.0
235.6297 124.0
235.660873 96.0
235.702988 140.0
235.742691 140.0
235.776581 124.0
235.835922 212.0
235.946625 272.0
235.970261 104.0
236.013519 84.0
236.078278 156.0
236.111145 272.0
236.167374 92.0
236.212463 144.0
236.241287 180.0
236.272781 136.0
236.318176 136.0
236.362961 140.0
236.386688 104.0
236.411987 124.0
236.456329 80.0
236.469589 108.0
236.500412 136.0
236.526733 132.0
236.558807 196.0
236.581711 188.0
236.633316 280.0
236.669418 156.0
236.719437 196.0
236.784714 140.0
236.840332 212.0
236.86441 148.0
236.894867 148.0
236.932175 156.0
237.001602 220.0
237.051605 144.0
237.115921 216.0
237.170898 136.0
237.220062 172.0
237.255203 212.0
237.286728 172.0
237.297455 108.0
237.339554 148.0
237.397156 136.0
237.438004 184.0
237.491043 160.0
237.522461 160.0
237.554108 148.0
237.575562 108.0
237.598434 96.0
237.623901 188.0
237.658905 152.0
237.669525 124.0
237.741638 152.0
237.779343 124.0
237.80072 132.0
237.811249 56.0
237.825836 124.0
237.849411 188.0
237.879181 196.0
237.943604 160.0
237.972031 200.0
238.02504 160.0
238.0504 204.0
238.112396 92.0
238.16304 224.0
238.2229 128.0
238.253601 112.0
238.276688 148.0
238.32373 168.0
238.411972 160.0
238.44191 168.0
238.485962 120.0
238.512772 112.0
238.545517 188.0
238.575607 212.0
238.601425 288.0
238.627029 164.0
238.669006 132.0
238.708206 100.0
238.756332 156.0
238.794342 164.0
238.85083 272.0
238.900925 92.0
238.966415 172.0
238.992828 208.0
239.040634 236.0
239.062378 136.0
239.104797 92.0
239.15564 204.0
239.187851 188.0
239.273987 112.0
239.330536 128.0
239.360153 176.0
239.384766 300.0
239.421707 120.0
239.452484 120.0
239.488144 136.0
239.564117 120.0
239.590027 100.0
239.60054 164.0
239.667984 132.0
239.702621 156.0
239.774963 408.0
239.870636 136.0
239.940735 340.0
239.968842 208.0
239.977066 140.0
240.031479 92.0
240.086319 292.0
240.114258 120.0
240.118408 136.0
240.16156 136.0
240.204086 148.0
240.238846 216.0
240.28334 196.0
240.316833 252.0
240.331848 172.0
240.36319 364.0
240.407837 200.0
240.453522 304.0
240.519943 328.0
240.570786 140.0
240.64357 96.0
240.705292 292.0
240.730652 176.0
240.781204 5024.0
240.847321 444.0
240.855911 136.0
240.894028 368.0
240.920059 152.0
240.959946 148.0
240.994812 216.0
241.040359 224.0
241.085861 244.0
241.134995 344.0
241.192917 252.0
241.218933 292.0
241.22998 340.0
241.264465 300.0
241.289459 584.0
241.326828 388.0
241.378464 368.0
241.400833 488.0
241.412643 520.0
241.440964 396.0
241.474411 340.0
241.49765 284.0
241.510223 436.0
241.517685 444.0
241.530487 264.0
241.552444 664.0
241.599777 496.0
241.623505 632.0
241.646423 716.0
241.699295 1504.0
241.748566 1812.0
241.791611 333504.0
241.859268 248.0
241.891541 396.0
241.941742 200.0
242.000854 596.0
242.042755 192.0
242.07666 1280.0
242.125641 932.0
242.152512 624.0
242.17897 740.0
242.260513 1356.0
242.302689 12624.0
242.340149 680.0
242.373611 300.0
242.419189 332.0
242.441864 216.0
242.481186 268.0
242.505951 252.0
242.53923 448.0
242.584442 320.0
242.638565 260.0
242.649994 348.0
242.684189 480.0
242.708908 332.0
242.74408 516.0
242.792648 130176.0
242.878052 108.0
242.887009 136.0
242.943726 188.0
242.979599 212.0
243.033417 192.0
243.085068 452.0
243.131088 140.0
243.143906 152.0
243.153259 180.0
243.211014 32.0
243.244965 180.0
243.270813 108.0
243.304855 672.0
243.331436 348.0
243.376358 248.0
243.41423 60.0
243.438324 228.0
243.460556 144.0
243.481613 96.0
243.508682 268.0
243.560226 140.0
243.585846 432.0
243.624222 168.0
243.664795 148.0
243.699188 172.0
243.711212 212.0
243.794174 10732.0
243.868912 188.0
243.907913 136.0
243.930573 152.0
243.982605 272.0
244.006439 240.0
244.055511 180.0
244.077957 268.0
244.103943 184.0
244.153839 256.0
244.19014 376.0
244.230499 128.0
244.261658 464.0
244.324371 316.0
244.356308 532.0
244.386047 192.0
244.410355 364.0
244.466644 504.0
244.52565 312.0
244.572418 300.0
244.580841 296.0
244.592346 196.0
244.617599 328.0
244.645676 436.0
244.68576 644.0
244.69986 180.0
244.707993 236.0
244.771667 228.0
244.801346 592.0
244.893402 188.0
244.94545 152.0
244.989243 144.0
244.998398 136.0
245.064209 96.0
245.091522 128.0
245.102921 120.0
245.150726 224.0
245.207825 92.0
245.270325 352.0
245.27449 196.0
245.309402 112.0
245.332779 228.0
245.354172 220.0
245.395111 124.0
245.430664 132.0
245.500824 260.0
245.520935 140.0
245.570435 124.0
245.60376 208.0
245.701523 100.0
245.735062 128.0
245.767563 72.0
245.778824 64.0
245.853989 84.0
245.909805 176.0
245.930664 128.0
245.978439 56.0
246.036453 156.0
246.069687 64.0
246.093536 188.0
246.17189 144.0
246.235062 176.0
246.285355 232.0
246.309113 64.0
246.376297 80.0
246.435181 104.0
246.499268 92.0
246.538757 156.0
246.583298 88.0
246.631012 76.0
246.680954 108.0
246.704224 148.0
246.754211 136.0
246.819687 100.0
246.832474 128.0
246.840927 168.0
246.918076 100.0
246.981125 264.0
247.037109 44.0
247.065002 104.0
247.103775 136.0
247.174316 68.0
247.283173 104.0
247.305374 188.0
247.337448 92.0
247.402191 168.0
247.412872 200.0
247.451599 136.0
247.510117 80.0
247.535645 124.0
247.629822 84.0
247.656204 104.0
247.715973 96.0
247.768875 120.0
247.823242 92.0
247.93689 160.0
247.985275 60.0
248.014145 148.0
248.074387 104.0
248.120819 120.0
248.163849 256.0
248.188919 188.0
248.211823 192.0
248.267258 152.0
248.288101 148.0
248.323669 64.0
248.348755 124.0
248.371384 180.0
248.400787 100.0
248.431885 120.0
248.461609 48.0
248.501022 128.0
248.61055 88.0
248.652893 160.0
248.68605 148.0
248.772095 116.0
248.809753 80.0
248.845764 100.0
248.901306 44.0
248.946823 96.0
248.979202 168.0
249.06395 96.0
249.092194 88.0
249.120453 60.0
249.148712 92.0
249.246811 180.0
249.290009 108.0
249.31514 100.0
249.344345 204.0
249.396805 44.0
249.434494 168.0
249.467041 244.0
249.489441 172.0
249.557022 108.0
249.591599 56.0
249.628845 112.0
249.673294 236.0
249.711014 116.0
249.765213 176.0
249.79274 52.0
249.823883 168.0
249.932861 120.0
250.03038 216.0
250.061523 160.0
250.107208 56.0
250.151245 60.0
250.185852 44.0
250.245636 128.0
250.286545 204.0
250.327164 132.0
250.393265 132.0
250.43248 260.0
250.500763 64.0
250.557236 52.0
250.632812 112.0
250.692642 196.0
250.763962 168.0
250.789764 164.0
250.868271 116.0
250.906052 128.0
250.917221 96.0
250.926956 156.0
250.968735 156.0
250.991913 52.0
251.023438 192.0
251.128174 80.0
251.172623 216.0
251.218857 104.0
251.272461 136.0
251.300827 212.0
251.452209 52.0
251.498779 120.0
251.546829 224.0
251.59552 120.0
251.698288 92.0
251.719116 96.0
251.748138 180.0
251.802429 136.0
251.848022 72.0
251.887741 160.0
251.959412 128.0
252.002441 124.0
252.052353 172.0
252.085892 92.0
252.106583 108.0
252.137115 40.0
252.197128 48.0
252.219238 80.0
252.272934 128.0
252.307693 176.0
252.48465 92.0
252.571716 276.0
252.615128 172.0
252.645035 136.0
252.704514 116.0
252.72403 260.0
252.766022 164.0
252.83876 88.0
252.904205 104.0
252.979721 156.0
253.020828 108.0
253.069687 84.0
253.105026 264.0
253.150162 84.0
253.193115 52.0
253.231094 264.0
253.256409 156.0
253.281738 184.0
253.315506 144.0
253.345062 180.0
253.436111 116.0
253.490707 48.0
253.554047 100.0
253.576218 84.0
253.734619 156.0
253.766693 224.0
253.814575 392.0
253.883148 188.0
253.93924 112.0
253.945358 64.0
253.966522 156.0
254.035706 120.0
254.0896 60.0
254.12764 92.0
254.194244 68.0
254.216431 80.0
254.269424 124.0
254.307343 212.0
254.335419 320.0
254.36203 160.0
254.374771 80.0
254.382843 216.0
254.444473 176.0
254.449219 100.0
254.487473 172.0
254.533127 148.0
254.59079 108.0
254.619354 112.0
254.64476 200.0
254.682846 136.0
254.708237 108.0
254.765625 160.0
254.814301 88.0
254.890182 300.0
254.941193 164.0
254.962158 124.0
254.994019 164.0
255.07402 64.0
255.116028 116.0
255.156036 120.0
255.19693 156.0
255.299026 152.0
255.321274 92.0
255.356232 124.0
255.378494 176.0
255.417267 80.0
255.451599 96.0
255.473862 156.0
255.513245 92.0
255.550156 72.0
255.596741 136.0
255.62648 32.0
255.693268 168.0
255.733597 188.0
255.77597 96.0
255.796646 52.0
255.839325 192.0
255.877045 200.0
255.907516 104.0
256.018127 192.0
256.141937 72.0
256.253357 60.0
256.299683 132.0
256.329773 64.0
256.375702 144.0
256.397308 156.0
256.440704 260.0
256.530457 56.0
256.565491 168.0
256.597351 28.0
256.63559 56.0
256.696136 84.0
256.752289 168.0
256.81723 248.0
256.842743 160.0
256.88739 116.0
256.924469 164.0
256.979828 152.0
257.003601 108.0
257.059265 108.0
257.069672 92.0
257.078339 100.0
257.132904 60.0
257.167999 120.0
257.241364 112.0
257.277374 96.0
257.321136 120.0
257.359406 148.0
257.414581 76.0
257.444122 212.0
257.466949 144.0
257.49585 256.0
257.539032 108.0
257.665833 80.0
257.770966 100.0
257.791656 100.0
257.836975 168.0
257.884491 144.0
257.908234 204.0
258.007568 28.0
258.03952 76.0
258.066803 96.0
258.087463 136.0
258.167358 224.0
258.218506 88.0
258.247253 64.0
258.283234 236.0
258.307983 68.0
258.358307 124.0
258.4039 48.0
258.481171 176.0
258.527527 128.0
258.630981 132.0
258.663696 148.0
258.698151 88.0
258.771088 160.0
258.867737 224.0
258.896118 128.0
258.925354 80.0
258.955994 76.0
258.992554 468.0
259.050171 196.0
259.075806 52.0
259.161102 144.0
259.235901 96.0
259.28714 196.0
259.415283 128.0
259.470612 72.0
259.555786 112.0
259.566986 172.0
259.604523 144.0
259.651855 116.0
259.675781 136.0
259.772339 536.0
259.815887 120.0
259.851654 180.0
259.931305 128.0
260.005066 188.0
260.059326 44.0
260.067688 108.0
260.08136 168.0
260.106354 56.0
260.173798 100.0
260.404968 188.0
260.438232 96.0
260.502441 108.0
260.555939 156.0
260.622192 160.0
260.656555 120.0
260.679047 204.0
260.730438 132.0
260.793762 84.0
260.820374 80.0
260.907104 40.0
261.038849 116.0
261.123199 312.0
261.148132 84.0
261.186707 164.0
261.228485 168.0
261.273499 228.0
261.29599 64.0
261.324249 148.0
261.337128 116.0
261.369965 124.0
261.444641 128.0
261.469513 180.0
261.495392 172.0
261.594025 196.0
261.7789 172.0
261.810699 144.0
261.839661 136.0
261.957489 84.0
261.981293 104.0
262.016724 40.0
262.132629 168.0
262.332336 76.0
262.371002 104.0
262.419312 76.0
262.461212 64.0
262.489807 128.0
262.536621 152.0
262.575775 140.0
262.699738 184.0
262.757751 116.0
262.790009 120.0
262.828705 164.0
262.864166 216.0
262.925446 80.0
262.969299 100.0
262.993195 92.0
263.028656 104.0
263.086548 140.0
263.125458 240.0
263.199677 124.0
263.238373 128.0
263.32431 96.0
263.42337 156.0
263.515503 132.0
263.661316 168.0
263.703308 116.0
263.761993 140.0
263.817932 208.0
263.890808 168.0
263.943604 136.0
263.97348 112.0
264.017548 172.0
264.084473 120.0
264.120148 80.0
264.210663 108.0
264.257233 128.0
264.356171 152.0
264.398224 140.0
264.534058 128.0
264.563202 104.0
264.589081 160.0
264.626923 240.0
264.718506 184.0
264.767059 128.0
264.792938 52.0
264.815613 96.0
264.954987 136.0
264.994781 104.0
265.042236 156.0
265.110229 140.0
265.142609 120.0
265.223602 56.0
265.277435 180.0
265.314301 192.0
265.382355 92.0
265.41922 360.0
265.463348 172.0
265.499023 128.0
265.550873 56.0
265.609222 124.0
265.642822 244.0
265.676025 216.0
265.706482 128.0
265.743256 92.0
265.787537 96.0
265.864563 80.0
265.972412 120.0
266.021057 136.0
266.07135 56.0
266.160034 116.0
266.209259 108.0
266.352081 168.0
266.459198 168.0
266.546875 112.0
266.605347 164.0
266.628082 148.0
266.660248 84.0
266.683868 132.0
266.743195 136.0
266.779266 68.0
266.858582 176.0
266.917389 152.0
266.976257 144.0
267.025604 80.0
267.062256 160.0
267.164246 80.0
267.203247 188.0
267.226013 212.0
267.259216 152.0
267.341461 128.0
267.378845 68.0
267.424408 60.0
267.450409 160.0
267.489441 88.0
267.612305 180.0
267.668396 116.0
267.700958 148.0
267.759247 840.0
267.787933 364.0
267.928802 172.0
268.077576 128.0
268.153503 64.0
268.240356 216.0
268.277283 104.0
268.358734 64.0
268.404358 44.0
268.48584 124.0
268.529388 176.0
268.575592 148.0
268.599915 148.0
268.638214 144.0
268.661865 88.0
268.689026 144.0
268.769745 1248.0
268.817017 96.0
268.857513 128.0
268.925995 132.0
268.987976 124.0
269.067719 120.0
269.115234 108.0
269.138062 52.0
269.304504 92.0
269.366547 152.0
269.471008 156.0
269.496918 152.0
269.640808 164.0
269.777435 132.0
269.846619 88.0
269.882568 104.0
270.023102 144.0
270.065582 92.0
270.127228 108.0
270.170868 160.0
270.271576 120.0
270.348236 136.0
270.393494 224.0
270.444885 132.0
270.529938 120.0
270.628113 132.0
270.716461 188.0
270.773254 204.0
270.89975 108.0
270.955414 140.0
270.995117 128.0
271.05365 120.0
271.079865 144.0
271.106049 128.0
271.233795 144.0
271.276367 188.0
271.312195 112.0
271.378113 76.0
271.421692 92.0
271.515594 144.0
271.569397 76.0
271.627045 96.0
271.726318 184.0
271.760132 208.0
271.790955 124.0
271.823761 76.0
271.924927 128.0
271.994324 124.0
272.02713 52.0
272.073059 36.0
272.322449 64.0
272.371704 188.0
272.396545 100.0
272.470184 180.0
272.52652 232.0
272.563812 148.0
272.601532 132.0
272.679504 160.0
272.727142 80.0
272.743896 172.0
272.888275 176.0
272.979309 104.0
273.027893 216.0
273.09436 96.0
273.206116 188.0
273.248871 72.0
273.294891 164.0
273.374817 144.0
273.466431 128.0
273.495514 136.0
273.528412 248.0
273.554749 132.0
273.604095 164.0
273.64389 160.0
273.671173 256.0
273.74054 360.0
273.791656 84.0
273.86734 124.0
273.893982 188.0
273.920013 132.0
273.944122 148.0
274.010406 144.0
274.094513 160.0
274.12088 68.0
274.153809 116.0
274.25531 232.0
274.361328 108.0
274.394287 148.0
274.50705 176.0
274.575531 164.0
274.631561 176.0
274.742676 432.0
274.855743 196.0
274.956787 88.0
275.109528 136.0
275.162506 180.0
275.195129 260.0
275.221893 124.0
275.244995 68.0
275.304413 116.0
275.393524 140.0
275.47934 96.0
275.518951 144.0
275.553284 152.0
275.655579 96.0
275.680756 132.0
275.707184 124.0
275.733765 92.0
275.761993 144.0
275.795807 144.0
275.826111 88.0
275.878967 132.0
275.960663 188.0
276.038452 104.0
276.091766 120.0
276.265625 120.0
276.288757 128.0
276.421021 124.0
276.589722 224.0
276.614563 132.0
276.669128 152.0
276.759796 176.0
276.784912 176.0
276.821655 84.0
276.890839 128.0
277.049438 180.0
277.135437 148.0
277.188782 148.0
277.218597 44.0
277.251709 188.0
277.308014 208.0
277.414032 124.0
277.465302 100.0
277.512146 168.0
277.744446 160.0
277.775238 88.0
277.871399 120.0
278.013977 180.0
278.121307 100.0
278.152618 120.0
278.161072 184.0
278.186462 104.0
278.213013 88.0
278.242859 164.0
278.42276 152.0
278.461884 76.0
278.555206 36.0
278.634521 128.0
278.717529 136.0
278.74408 156.0
278.822021 308.0
279.049683 196.0
279.109497 112.0
279.182617 204.0
279.232483 64.0
279.265717 80.0
279.29895 148.0
279.392761 148.0
279.422577 168.0
279.481812 88.0
279.510223 180.0
279.571594 32.0
279.594879 80.0
279.656158 200.0
279.700653 256.0
279.777832 100.0
279.940887 124.0
279.964172 84.0
279.994141 120.0
280.034058 132.0
280.127289 100.0
280.207184 236.0
280.264282 164.0
280.307068 104.0
280.337036 152.0
280.360352 116.0
280.412872 172.0
280.485352 208.0
280.554199 252.0
280.668945 160.0
280.726746 144.0
280.786835 136.0
280.88681 168.0
280.923492 176.0
280.960175 184.0
281.160248 216.0
281.367065 140.0
281.439392 220.0
281.487183 148.0
281.520569 144.0
281.580627 132.0
281.93454 152.0
281.992157 144.0
282.037079 120.0
282.071503 188.0
282.118256 208.0
282.141663 140.0
282.265717 180.0
282.392273 108.0
282.429047 228.0
282.492554 108.0
282.526001 76.0
282.552734 120.0
282.629639 108.0
282.69458 172.0
282.760071 104.0
282.820282 184.0
282.897217 144.0
282.966278 156.0
282.98877 156.0
283.067871 132.0
283.134796 96.0
283.166534 108.0
283.201752 40.0
283.235229 104.0
283.33902 276.0
283.369141 96.0
283.493042 112.0
283.539917 140.0
283.565918 168.0
283.630371 116.0
283.767517 120.0
283.793854 220.0
283.83139 136.0
283.858215 88.0
283.925232 80.0
283.95874 120.0
284.049255 84.0
284.079437 128.0
284.116821 128.0
284.203491 104.0
284.257141 108.0
284.327576 72.0
284.434906 148.0
284.468445 76.0
284.498627 72.0
284.557678 188.0
284.745544 188.0
284.827454 236.0
284.878357 216.0
284.925842 112.0
284.988312 152.0
285.072632 100.0
285.126373 112.0
285.176727 184.0
285.237213 120.0
285.373688 96.0
285.39743 204.0
285.53775 120.0
285.660278 76.0
285.700989 52.0
285.724518 108.0
285.86026 164.0
285.885925 204.0
285.92627 132.0
285.953186 84.0
286.01535 108.0
286.081024 104.0
286.107941 152.0
286.235779 100.0
286.343475 60.0
286.464661 92.0
286.491608 216.0
286.532013 188.0
286.629669 120.0
286.727325 52.0
286.750885 116.0
286.784576 132.0
286.855316 140.0
286.889008 72.0
286.940704 208.0
287.017059 124.0
287.040649 216.0
287.148499 116.0
287.188599 120.0
287.270203 148.0
287.44516 160.0
287.472137 108.0
287.536224 144.0
287.559845 144.0
287.583435 80.0
287.623932 140.0
287.694763 176.0
287.762238 156.0
287.785858 176.0
287.814575 268.0
287.907349 128.0
288.015381 96.0
288.059265 144.0
288.08963 52.0
288.244965 288.0
288.285492 132.0
288.366547 148.0
288.40033 292.0
288.437134 124.0
288.501648 136.0
288.612488 184.0
288.6875 120.0
288.758484 176.0
288.799042 72.0
288.8396 164.0
288.870026 152.0
288.973297 104.0
289.00061 192.0
289.120239 108.0
289.143921 40.0
289.21347 140.0
289.279236 128.0
289.363831 148.0
289.526245 168.0
289.590546 232.0
289.623871 128.0
289.692108 112.0
289.753052 120.0
289.797058 92.0
289.898651 180.0
289.986725 320.0
290.060974 156.0
290.161224 136.0
290.325531 184.0
290.349243 232.0
290.464508 96.0
290.501801 124.0
290.651978 68.0
290.705231 96.0
290.777374 176.0
290.830627 132.0
290.871429 112.0
290.92572 156.0
290.967072 148.0
291.020721 148.0
291.047882 164.0
291.119751 180.0
291.153076 144.0
291.203003 160.0
291.24176 124.0
291.400879 80.0
291.431458 156.0
291.529938 108.0
291.587463 144.0
291.738708 128.0
291.781281 96.0
291.805084 120.0
291.828857 60.0
291.852661 92.0
291.905945 100.0
291.947815 32.0
292.019165 140.0
292.053162 184.0
292.083771 144.0
292.107544 148.0
292.153748 172.0
292.243561 104.0
292.280945 104.0
292.325165 164.0
292.352386 68.0
292.47821 56.0
292.50885 144.0
292.55307 136.0
292.725006 60.0
292.852539 104.0
292.930542 144.0
292.955811 152.0
293.002319 160.0
293.049988 148.0
293.164001 100.0
293.284973 188.0
293.315643 144.0
293.356506 116.0
293.429169 164.0
293.523468 180.0
293.56778 160.0
293.634247 176.0
293.748505 148.0
293.798096 204.0
293.850708 132.0
293.963409 148.0
293.993927 92.0
294.09967 188.0
294.142792 136.0
294.300964 56.0
294.331085 180.0
294.35672 92.0
294.410156 48.0
294.437469 84.0
294.462128 52.0
294.498901 128.0
294.543274 80.0
294.638489 220.0
294.67984 196.0
294.724213 172.0
294.751556 144.0
294.826691 172.0
294.854004 120.0
294.915588 136.0
294.963043 152.0
295.025177 72.0
295.09314 128.0
295.168304 64.0
295.335785 148.0
295.465698 60.0
295.516968 160.0
295.55011 180.0
295.625488 168.0
295.776886 112.0
295.827087 208.0
295.876099 56.0
296.035889 148.0
296.088257 136.0
296.137512 164.0
296.218353 164.0
296.245056 212.0
296.300507 108.0
296.3396 72.0
296.368988 144.0
296.396393 120.0
296.611786 128.0
296.636047 156.0
296.759491 96.0
296.893127 128.0
296.966888 144.0
297.019958 140.0
297.078217 96.0
297.14679 172.0
297.205078 176.0
297.376556 132.0
297.455475 104.0
297.500519 176.0
297.585358 148.0
297.637299 148.0
297.695648 132.0
297.726532 128.0
297.764282 204.0
297.802063 100.0
297.833801 308.0
297.862579 208.0
297.929962 200.0
297.973694 188.0
298.045807 148.0
298.076721 72.0
298.104187 184.0
298.236115 220.0
298.249298 112.0
298.308441 120.0
298.321075 56.0
298.332825 128.0
298.378998 88.0
298.421509 140.0
298.46759 220.0
298.530182 100.0
298.57486 288.0
298.620209 204.0
298.682281 204.0
298.750977 152.0
298.820038 172.0
298.84967 128.0
298.92511 160.0
298.973694 152.0
299.030762 140.0
299.057648 164.0
299.08374 104.0
299.14566 68.0
299.266083 168.0
299.328033 148.0
299.381042 172.0
299.437225 236.0
299.48291 152.0
299.534546 64.0
299.579285 76.0
299.617157 268.0
299.661926 120.0
299.710144 148.0
299.775574 84.0
299.841003 68.0
299.872009 204.0
299.902985 128.0
299.968445 220.0
300.058014 216.0
300.093658 116.0
300.254456 156.0
300.433014 148.0
300.495056 80.0
300.554382 144.0
300.60611 156.0
300.645691 100.0
300.726715 144.0
300.799255 88.0
300.829407 160.0
300.892395 108.0
300.945679 156.0
300.993683 288.0
301.056061 180.0
301.112701 192.0
301.141663 292.0
301.18576 64.0
301.292786 136.0
301.366669 212.0
301.451599 164.0
301.514557 272.0
301.558685 208.0
301.589752 68.0
301.703766 128.0
301.727966 208.0
301.772858 96.0
301.810883 188.0
301.838196 128.0
301.904175 88.0
301.978607 60.0
302.063171 176.0
302.100922 140.0
302.11145 112.0
302.125916 136.0
302.136719 132.0
302.315399 136.0
302.375397 164.0
302.464325 132.0
302.488556 120.0
302.540436 96.0
302.58194 48.0
302.626923 196.0
302.665009 176.0
302.778656 108.0
302.825104 124.0
302.852844 192.0
302.879578 196.0
302.917664 168.0
302.973053 148.0
303.10498 156.0
303.156586 140.0
303.187744 192.0
303.218903 108.0
303.293152 220.0
303.399048 276.0
303.448608 148.0
303.513397 116.0
303.592102 56.0
303.638153 308.0
303.665894 112.0
303.726501 148.0
303.79068 108.0
303.826569 80.0
303.873871 112.0
303.925903 148.0
303.972168 128.0
304.036865 224.0
304.071564 84.0
304.130524 148.0
304.17215 168.0
304.210297 132.0
304.250366 124.0
304.420227 136.0
304.494843 88.0
304.536499 124.0
304.56601 112.0
304.645081 144.0
304.701813 232.0
304.761688 144.0
304.828156 100.0
304.894135 140.0
305.05484 148.0
305.088654 156.0
305.129364 128.0
305.164154 164.0
305.197662 148.0
305.318115 128.0
305.366669 168.0
305.412445 136.0
305.511139 212.0
305.700439 136.0
305.790863 80.0
305.834259 56.0
305.964783 136.0
306.065704 204.0
306.090057 188.0
306.11441 104.0
306.170105 44.0
306.228119 168.0
306.281494 144.0
306.305847 136.0
306.389618 64.0
306.417267 128.0
306.580933 68.0
306.639801 120.0
306.662628 200.0
306.713287 160.0
306.772491 136.0
306.81781 140.0
306.849579 96.0
306.877014 140.0
306.915741 112.0
306.991333 120.0
307.054749 140.0
307.107056 180.0
307.162811 176.0
307.267395 152.0
307.325409 144.0
307.347595 376.0
307.383362 160.0
307.420837 44.0
307.483612 136.0
307.53244 92.0
307.574066 120.0
307.587769 112.0
307.659454 168.0
307.692932 120.0
307.762695 148.0
307.926727 40.0
307.968628 132.0
308.041931 80.0
308.143158 136.0
308.195557 140.0
308.300323 120.0
308.324768 68.0
308.419403 160.0
308.460785 212.0
308.506409 140.0
308.579773 92.0
308.625824 356.0
308.681122 168.0
308.722504 132.0
308.868744 100.0
308.908295 124.0
308.995697 72.0
309.121582 180.0
309.191528 160.0
309.240509 160.0
309.292969 112.0
309.401428 144.0
309.555389 100.0
309.619446 120.0
309.929962 128.0
309.957031 224.0
309.970856 164.0
309.984192 172.0
310.05954 60.0
310.094543 124.0
310.11908 140.0
310.179504 112.0
310.23468 112.0
310.3573 112.0
310.507996 88.0
310.54657 100.0
310.61084 188.0
310.660095 104.0
310.700684 124.0
310.827332 244.0
310.898682 240.0
310.953308 136.0
311.002869 152.0
311.104034 148.0
311.157043 196.0
311.197784 168.0
311.245331 132.0
311.297119 156.0
311.354309 96.0
311.577942 148.0
311.621857 80.0
311.663849 148.0
311.760529 216.0
311.813232 104.0
311.851868 76.0
312.003357 160.0
312.066895 204.0
312.096619 264.0
312.16806 100.0
312.213745 116.0
312.248901 104.0
312.287933 164.0
312.347321 148.0
312.40686 124.0
312.483704 140.0
312.517639 116.0
312.74115 132.0
312.820892 144.0
312.951569 144.0
313.109528 272.0
313.188049 92.0
313.226776 104.0
313.277466 100.0
313.352814 160.0
313.363525 128.0
313.372528 140.0
313.431824 136.0
313.467957 104.0
313.667969 204.0
313.738831 20.0
313.811401 172.0
313.875092 184.0
313.945312 152.0
313.98761 260.0
314.054565 192.0
314.276672 204.0
314.336639 84.0
314.369019 112.0
314.562378 324.0
314.663544 124.0
314.748077 340.0
314.788483 148.0
314.823486 144.0
314.869354 140.0
314.912079 152.0
314.95459 108.0
315.031738 152.0
315.071899 140.0
315.134918 180.0
315.194153 188.0
315.24057 144.0
315.271851 128.0
315.338959 92.0
315.388397 80.0
315.487488 184.0
315.532257 112.0
315.575653 116.0
315.6539 144.0
315.724091 220.0
315.766479 36.0
315.805359 116.0
315.875854 128.0
315.909943 200.0
315.946777 108.0
316.006897 108.0
316.091736 64.0
316.123566 116.0
316.168091 164.0
316.216095 176.0
316.279205 108.0
316.344299 120.0
316.42218 328.0
316.517731 144.0
316.597656 124.0
316.671967 56.0
316.771088 96.0
316.838348 152.0
316.863129 144.0
316.94458 176.0
317.003723 160.0
317.031097 176.0
317.078735 172.0
317.124695 136.0
317.174805 156.0
317.231476 92.0
317.330688 172.0
317.355469 160.0
317.40509 124.0
317.468323 152.0
317.517395 132.0
317.564087 144.0
317.632904 100.0
317.678009 268.0
317.701965 188.0
317.72641 104.0
317.844666 124.0
317.902985 152.0
317.980255 104.0
318.009857 172.0
318.107117 156.0
318.17807 148.0
318.252594 132.0
318.319214 192.0
318.392548 200.0
318.517273 188.0
318.531403 108.0
318.540894 140.0
318.616882 152.0
318.650146 120.0
318.781525 64.0
318.817047 68.0
318.845459 88.0
318.8703 112.0
318.934265 108.0
318.995972 148.0
319.050018 136.0
319.070984 156.0
319.104767 172.0
319.15271 140.0
319.184082 176.0
319.275543 80.0
319.315338 208.0
319.358643 64.0
319.373108 128.0
319.407318 144.0
319.436127 264.0
319.484467 184.0
319.494293 244.0
319.605103 880.0
319.702393 104.0
319.755341 176.0
319.795441 144.0
319.838715 176.0
319.869049 112.0
319.873779 108.0
319.899597 144.0
319.948608 160.0
319.957397 40.0
319.971497 328.0
320.007812 168.0
320.045135 244.0
320.079987 192.0
320.113953 132.0
320.150391 304.0
320.177795 368.0
320.201904 164.0
320.243927 444.0
320.290741 120.0
320.32251 148.0
320.353455 252.0
320.416412 244.0
320.466125 380.0
320.484558 216.0
320.490967 136.0
320.525879 340.0
320.543304 540.0
320.613098 202912.0
320.718567 144.0
320.728485 140.0
320.743927 192.0
320.753448 128.0
320.790527 92.0
320.853302 224.0
320.896271 160.0
320.949127 264.0
320.963287 168.0
320.997589 212.0
321.033783 196.0
321.078339 164.0
321.143982 128.0
321.200226 1072.0
321.284088 232.0
321.320404 132.0
321.356812 204.0
321.38797 224.0
321.428925 128.0
321.464203 228.0
321.488892 348.0
321.523285 348.0
321.613678 40904.0
321.678406 108.0
321.704651 232.0
321.749664 316.0
321.775513 112.0
321.791382 132.0
321.815216 228.0
321.855133 324.0
321.895447 240.0
321.92627 300.0
321.9729 208.0
322.009796 92.0
322.059021 244.0
322.092407 240.0
322.137329 128.0
322.200745 168.0
322.236725 196.0
322.308136 92.0
322.374023 276.0
322.405823 392.0
322.438324 156.0
322.481476 152.0
322.519592 484.0
322.608582 181376.0
322.696259 272.0
322.742859 96.0
322.790863 240.0
322.837708 220.0
322.9021 220.0
322.931915 196.0
322.940674 68.0
322.978455 204.0
323.016266 200.0
323.085327 220.0
323.093597 260.0
323.139435 108.0
323.196808 824.0
323.248932 124.0
323.293793 252.0
323.373199 204.0
323.423889 164.0
323.439819 196.0
323.44809 220.0
323.464111 120.0
323.474762 152.0
323.534698 396.0
323.60907 24356.0
323.678223 284.0
323.712189 204.0
323.748169 168.0
323.791534 148.0
323.839539 356.0
323.89212 204.0
323.936554 64.0
323.946167 176.0
323.973999 152.0
324.008148 164.0
324.096222 212.0
324.150208 104.0
324.188019 116.0
324.277039 92.0
324.339081 188.0
324.420807 236.0
324.443878 140.0
324.477722 132.0
324.506927 196.0
324.571228 112.0
324.611115 656.0
324.669189 168.0
324.709137 92.0
324.776886 84.0
324.812134 164.0
324.850983 68.0
324.874878 104.0
324.937042 128.0
324.977356 104.0
325.029663 228.0
325.109985 132.0
325.170135 56.0
325.19696 136.0
325.261841 148.0
325.334778 160.0
325.339569 140.0
325.380646 128.0
325.417664 96.0
325.456299 68.0
325.461914 108.0
325.488739 272.0
325.519623 200.0
325.548615 300.0
325.599945 132.0
325.623657 104.0
325.665649 76.0
325.742859 212.0
325.805054 352.0
325.8508 176.0
325.886749 116.0
325.949371 124.0
326.010406 272.0
326.05307 56.0
326.078217 104.0
326.103027 44.0
326.137115 156.0
326.162079 172.0
326.199341 228.0
326.238892 104.0
326.308136 60.0
326.379669 192.0
326.441864 100.0
326.503113 140.0
326.631561 184.0
326.687286 164.0
326.717865 36.0
326.743011 44.0
326.799805 76.0
326.834381 88.0
326.904846 104.0
326.953705 136.0
326.995483 248.0
327.052124 80.0
327.09906 56.0
327.145844 88.0
327.171021 144.0
327.197113 156.0
327.292877 60.0
327.357635 176.0
327.395508 140.0
327.513977 148.0
327.577698 100.0
327.61731 100.0
327.656891 104.0
327.790131 40.0
327.927734 180.0
327.976288 164.0
328.006805 168.0
328.047241 188.0
328.082367 176.0
328.114319 112.0
328.169189 172.0
328.220886 188.0
328.254852 136.0
328.287292 28.0
328.323334 56.0
328.355743 148.0
328.380981 48.0
328.425598 64.0
328.472839 108.0
328.521576 116.0
328.737915 172.0
328.784821 68.0
328.824493 164.0
328.870575 112.0
328.929077 160.0
329.062592 176.0
329.091431 88.0
329.149384 68.0
329.23941 44.0
329.304382 128.0
329.373169 132.0
329.41626 192.0
329.466827 64.0
329.495697 52.0
329.524597 172.0
329.614532 88.0
329.679871 100.0
329.725769 152.0
329.82074 124.0
329.860474 132.0
329.964783 164.0
330.013641 228.0
330.053223 112.0
330.116211 168.0
330.165253 92.0
330.193481 76.0
330.297729 112.0
330.345917 96.0
330.413422 48.0
330.438721 204.0
330.50235 188.0
330.589081 200.0
330.623138 32.0
330.771454 144.0
330.818481 124.0
330.858276 40.0
330.959595 160.0
331.003021 72.0
331.07901 48.0
331.116699 180.0
331.185272 112.0
331.228973 156.0
331.311523 260.0
331.432251 152.0
331.477234 124.0
331.579254 72.0
331.614868 44.0
331.64386 80.0
331.681641 128.0
332.053284 108.0
332.230927 76.0
332.28894 124.0
332.317932 56.0
332.356201 160.0
332.399231 96.0
332.441864 140.0
332.465027 100.0
332.550934 160.0
332.64798 124.0
332.67337 184.0
332.698761 148.0
332.803986 116.0
332.887451 188.0
332.912872 40.0
332.956421 92.0
332.993378 152.0
333.031219 132.0
333.097961 156.0
333.174225 84.0
333.203247 48.0
333.243195 304.0
333.365356 188.0
333.403992 116.0
333.507263 180.0
333.544647 120.0
333.593262 176.0
333.737183 72.0
333.832886 168.0
333.935547 188.0
333.998871 184.0
334.083374 132.0
334.109528 92.0
334.22168 192.0
334.327759 120.0
334.35199 204.0
334.397034 136.0
334.45343 220.0
334.529816 136.0
334.608948 620.0
334.660797 108.0
334.715393 116.0
334.837158 192.0
334.848053 88.0
334.863373 144.0
334.902374 60.0
334.951691 104.0
335.092529 104.0
335.17041 48.0
335.235962 152.0
335.290588 68.0
335.323364 88.0
335.348877 76.0
335.378021 96.0
335.429016 52.0
335.473328 148.0
335.536774 76.0
335.582031 160.0
335.612518 120.0
335.756134 160.0
335.802887 140.0
335.866302 44.0
335.90274 140.0
335.968384 116.0
336.008484 48.0
336.095978 200.0
336.136108 104.0
336.179382 92.0
336.263763 52.0
336.307526 104.0
336.351166 124.0
336.391418 72.0
336.442505 256.0
336.482635 132.0
336.57019 200.0
336.603241 160.0
336.694275 248.0
336.730774 76.0
336.803436 136.0
336.817688 128.0
336.875336 72.0
336.945984 88.0
337.003784 164.0
337.063019 164.0
337.090515 112.0
337.154053 164.0
337.207794 56.0
337.25946 132.0
337.344727 132.0
337.443359 128.0
337.512329 48.0
337.545227 136.0
337.582458 64.0
337.600708 88.0
337.609833 76.0
337.642517 160.0
337.691284 120.0
337.741058 112.0
337.762085 224.0
337.791168 152.0
337.844025 140.0
337.902008 104.0
337.951569 192.0
337.985992 160.0
338.052643 308.0
338.100006 112.0
338.10556 204.0
338.147583 68.0
338.17688 156.0
338.189056 152.0
338.197723 104.0
338.250305 256.0
338.300781 132.0
338.315643 192.0
338.344482 236.0
338.389374 108.0
338.436249 448.0
338.446716 288.0
338.506683 380.0
338.531891 436.0
338.601562 207580.0
338.688232 236.0
338.734528 308.0
338.803253 80.0
338.827484 272.0
338.886078 264.0
338.933929 292.0
338.985352 96.0
339.035706 220.0
339.042633 264.0
339.105194 132.0
339.127686 100.0
339.158051 88.0
339.203003 516.0
339.24115 132.0
339.288208 140.0
339.34436 272.0
339.369965 116.0
339.428558 268.0
339.460205 184.0
339.500488 180.0
339.602966 38944.0
339.703644 80.0
339.822906 284.0
339.857788 196.0
339.905457 224.0
339.951141 168.0
339.985657 128.0
339.99707 216.0
340.053741 116.0
340.11319 240.0
340.156708 216.0
340.223053 180.0
340.247528 192.0
340.304626 436.0
340.319183 392.0
340.354462 172.0
340.393188 452.0
340.441315 436.0
340.457855 152.0
340.499634 456.0
340.50882 420.0
340.539185 300.0
340.597137 178656.0
340.730316 268.0
340.800781 140.0
340.877045 64.0
340.915283 100.0
340.952209 256.0
340.979675 72.0
340.991943 140.0
341.015045 176.0
341.067902 188.0
341.094635 236.0
341.138397 156.0
341.150513 80.0
341.202026 300.0
341.237 196.0
341.305206 260.0
341.369843 180.0
341.384766 108.0
341.414581 240.0
341.440979 272.0
341.467987 116.0
341.487305 116.0
341.498108 124.0
341.59848 23364.0
341.691589 116.0
341.730591 252.0
341.806274 212.0
341.834473 224.0
341.889313 192.0
341.932739 232.0
341.975891 60.0
342.061859 152.0
342.11084 188.0
342.146851 116.0
342.185211 148.0
342.216339 124.0
342.230774 152.0
342.271454 120.0
342.310425 136.0
342.342041 92.0
342.379517 44.0
342.459839 52.0
342.506165 172.0
342.598053 612.0
342.681213 88.0
342.739197 68.0
342.791199 52.0
342.839691 148.0
342.890625 48.0
342.923676 76.0
342.967163 72.0
343.002655 120.0
343.025787 196.0
343.051056 100.0
343.101501 188.0
343.149841 44.0
343.203552 208.0
343.230499 84.0
343.258545 60.0
343.292938 40.0
343.312042 124.0
343.354858 60.0
343.414856 84.0
343.426666 84.0
343.468506 120.0
343.500305 244.0
343.540009 124.0
343.583282 68.0
343.603729 212.0
343.655579 204.0
343.688141 100.0
343.730438 128.0
343.788452 80.0
343.837463 76.0
343.874634 128.0
343.919983 292.0
344.009674 140.0
344.057922 104.0
344.131805 100.0
344.184662 48.0
344.230652 68.0
344.251526 132.0
344.281738 116.0
344.311096 92.0
344.382355 64.0
344.426758 84.0
344.578369 156.0
344.637939 60.0
344.671906 88.0
344.723633 64.0
344.7901 200.0
344.823486 92.0
344.880768 212.0
344.91568 60.0
344.946777 56.0
345.019135 180.0
345.058563 84.0
345.115204 136.0
345.160004 92.0
345.205658 64.0
345.266693 48.0
345.472321 136.0
345.503296 92.0
345.573547 104.0
345.597351 40.0
345.691864 36.0
345.717743 148.0
345.758453 76.0
345.873108 164.0
345.924896 80.0
345.980133 60.0
346.032196 44.0
346.095093 36.0
346.172791 152.0
346.235718 76.0
346.276428 76.0
346.317139 88.0
346.372681 92.0
346.446716 48.0
346.53186 104.0
346.568909 56.0
346.620148 244.0
346.668884 88.0
346.702209 188.0
346.725739 104.0
346.783691 84.0
346.850372 132.0
346.890198 64.0
346.950928 112.0
347.015991 68.0
347.045349 128.0
347.076385 100.0
347.109741 80.0
347.138916 280.0
347.228333 48.0
347.301392 108.0
347.402557 72.0
347.447266 136.0
347.502655 104.0
347.589386 12036.0
347.656769 108.0
347.68808 32.0
347.732574 228.0
347.758545 108.0
347.806763 148.0
347.877258 160.0
347.958862 40.0
347.990784 140.0
348.040497 160.0
348.073914 112.0
348.114716 100.0
348.160645 172.0
348.190399 116.0
348.229767 108.0
348.267578 44.0
348.30481 180.0
348.385834 152.0
348.439972 148.0
348.468475 132.0
348.572876 32532.0
348.698669 156.0
348.808655 76.0
348.836975 56.0
348.864777 96.0
348.903961 148.0
348.966125 160.0
348.975311 108.0
348.992096 164.0
349.05658 136.0
349.087738 164.0
349.116333 40.0
349.143402 172.0
349.209503 52.0
349.275116 96.0
349.307037 124.0
349.35318 68.0
349.39624 192.0
349.441711 212.0
349.492767 116.0
349.580383 13964.0
349.679993 92.0
349.766388 116.0
349.841675 68.0
349.876038 112.0
349.923767 84.0
350.043488 104.0
350.091858 40.0
350.125336 60.0
350.196075 56.0
350.220795 72.0
350.268433 120.0
350.329163 180.0
350.382965 176.0
350.427979 136.0
350.483856 160.0
350.569183 35192.0
350.655914 132.0
350.692963 180.0
350.73642 104.0
350.765015 96.0
350.816864 96.0
350.887421 56.0
350.933472 68.0
350.96698 72.0
351.004242 108.0
351.040863 68.0
351.093689 68.0
351.138794 236.0
351.178986 80.0
351.21936 56.0
351.265747 100.0
351.306183 36.0
351.354156 68.0
351.385315 88.0
351.457397 100.0
351.500061 188.0
351.569366 3516.0
351.631439 160.0
351.68576 136.0
351.790985 68.0
351.852509 212.0
351.892242 88.0
351.93924 136.0
351.970093 116.0
352.014343 56.0
352.069489 120.0
352.119354 84.0
352.171631 124.0
352.209808 52.0
352.236755 112.0
352.282593 144.0
352.408997 96.0
352.461395 104.0
352.506256 32.0
352.53299 112.0
352.578888 664.0
352.652527 140.0
352.707855 188.0
352.787781 128.0
352.843201 164.0
352.924866 76.0
352.964813 128.0
352.987305 80.0
353.065582 212.0
353.105621 72.0
353.151276 132.0
353.243713 92.0
353.274689 60.0
353.361084 152.0
353.505463 96.0
353.579102 152.0
353.602692 212.0
353.722412 100.0
353.784332 304.0
353.815918 60.0
353.868317 76.0
353.898254 40.0
353.928192 124.0
354.001587 104.0
354.116058 60.0
354.14151 96.0
354.175934 40.0
354.268799 64.0
354.362396 40.0
354.452271 104.0
354.482208 60.0
354.557129 108.0
354.756073 88.0
354.813721 240.0
354.916748 80.0
354.954224 72.0
354.997528 80.0
355.07959 92.0
355.197845 100.0
355.2276 120.0
355.362823 84.0
355.441559 96.0
355.49408 100.0
355.574768 56.0
355.659088 64.0
355.760376 76.0
356.030548 108.0
356.075592 136.0
356.210724 272.0
356.244507 100.0
356.394714 116.0
356.46228 68.0
356.653229 124.0
356.702667 96.0
356.82666 64.0
356.932526 68.0
356.9888 112.0
357.151978 56.0
357.191223 124.0
357.217529 136.0
357.296478 36.0
357.37674 80.0
357.401764 180.0
357.461914 128.0
357.503296 104.0
357.611786 52.0
357.792938 84.0
357.886993 36.0
357.984833 52.0
358.065308 84.0
358.161743 36.0
358.264709 88.0
358.323639 96.0
358.372589 88.0
358.538269 52.0
358.56842 92.0
358.719086 92.0
358.783142 128.0
358.832123 48.0
358.866028 64.0
359.009216 72.0
359.084595 64.0
359.322083 124.0
359.423889 60.0
359.472931 44.0
359.58606 84.0
359.616241 56.0
359.898346 180.0
360.28418 80.0
360.510742 40.0
360.590057 116.0
360.646729 60.0
360.699615 68.0
360.839386 80.0
360.952759 76.0
360.998108 124.0
361.122833 116.0
361.262695 100.0
361.47821 40.0
361.590454 384.0
361.84137 108.0
361.954865 92.0
361.992706 60.0
362.019196 44.0
362.151672 140.0
362.28418 60.0
362.5 160.0
362.582642 360.0
362.814392 128.0
362.852295 72.0
362.956482 96.0
363.079651 44.0
363.128937 108.0
363.200958 112.0
363.348785 124.0
363.462555 52.0
363.582428 128.0
363.689117 196.0
363.762177 84.0
363.822876 52.0
364.042969 112.0
364.145447 64.0
364.200378 168.0
364.358032 68.0
364.469116 88.0
364.559296 172.0
364.597321 148.0
364.642853 80.0
364.93158 156.0
365.193787 104.0
365.391479 112.0
365.457031 132.0
365.528351 52.0
365.577026 1820.0
365.661469 140.0
365.698303 152.0
365.737549 136.0
365.786835 88.0
365.833862 188.0
365.916351 52.0
365.96582 56.0
366.019104 148.0
366.068573 64.0
366.095215 136.0
366.152283 156.0
366.247467 176.0
366.327393 64.0
366.460083 188.0
366.499908 300.0
366.561646 29044.0
366.655273 228.0
366.7034 188.0
366.784363 104.0
366.81485 48.0
366.883423 44.0
366.95993 52.0
367.041626 124.0
367.136658 44.0
367.296204 88.0
367.332397 148.0
367.367432 64.0
367.414734 140.0
367.47757 188.0
367.508514 128.0
367.564423 6676.0
367.729706 44.0
367.79837 64.0
367.830322 80.0
367.941284 60.0
367.978943 212.0
368.014008 96.0
368.084961 116.0
368.147614 92.0
368.260071 32.0
368.324982 168.0
368.367737 88.0
368.431183 208.0
368.477264 288.0
368.557404 27760.0
368.677948 64.0
368.687378 48.0
368.702972 184.0
368.798309 92.0
368.848145 104.0
368.915405 100.0
368.967621 72.0
368.995117 84.0
369.041962 120.0
369.089111 56.0
369.129547 104.0
369.188202 20.0
369.243439 44.0
369.287567 76.0
369.314331 64.0
369.358429 112.0
369.369629 60.0
369.459595 192.0
369.486359 52.0
369.559265 3848.0
369.617004 128.0
369.656281 92.0
369.704651 48.0
369.73645 100.0
369.770844 144.0
369.826721 136.0
369.923828 76.0
370.018005 44.0
370.054993 108.0
370.062012 72.0
370.083252 148.0
370.166077 128.0
370.228455 64.0
370.266754 72.0
370.333099 96.0
370.410858 80.0
370.478302 60.0
370.559326 136.0
370.617401 152.0
370.684052 44.0
370.714691 56.0
370.810425 68.0
370.856384 36.0
370.913361 96.0
370.982117 88.0
371.143738 100.0
371.178223 100.0
371.231873 52.0
371.304688 40.0
371.408173 72.0
371.438843 92.0
371.465332 44.0
371.546204 56.0
371.634369 32.0
371.697113 188.0
371.818451 144.0
371.887512 32.0
371.937378 100.0
371.968048 76.0
372.008484 108.0
372.048615 128.0
372.136871 40.0
372.179077 56.0
372.400055 104.0
372.547546 64.0
372.582092 156.0
372.620483 56.0
372.648315 124.0
372.701141 100.0
373.004822 112.0
373.124664 60.0
373.231232 72.0
373.523102 140.0
373.569458 160.0
373.719421 36.0
373.88092 212.0
374.433319 112.0
374.508087 32.0
374.535034 52.0
374.588043 176.0
374.635132 116.0
374.981689 64.0
375.025208 216.0
375.216705 36.0
375.266785 64.0
375.58667 80.0
375.864258 80.0
375.925964 96.0
376.184387 60.0
376.246124 80.0
376.273132 116.0
376.485382 108.0
376.593445 116.0
377.099274 56.0
377.153351 208.0
377.560852 420.0
377.821899 120.0
377.953369 64.0
377.980438 40.0
378.194916 128.0
378.413666 56.0
378.483337 228.0
378.573517 368.0
378.789093 40.0
378.998169 164.0
379.296387 104.0
379.431976 48.0
379.501709 128.0
379.554962 364.0
379.724976 132.0
379.807892 56.0
380.017242 104.0
380.173645 168.0
380.410583 84.0
380.554474 276.0
380.641785 156.0
380.87854 52.0
381.022186 44.0
381.134796 56.0
381.266815 132.0
381.48822 80.0
381.523193 156.0
381.628113 68.0
381.705811 56.0
381.869049 48.0
382.623474 116.0
382.650726 80.0
383.2229 136.0
383.571655 88.0
383.873444 132.0
384.1073 60.0
384.228149 44.0
384.267151 76.0
384.294434 40.0
384.347382 160.0
384.384125 28.0
384.454315 100.0
384.88736 64.0
384.953674 88.0
385.285461 96.0
385.582245 112.0
386.277802 76.0
386.430267 92.0
386.566101 136.0
386.731415 80.0
386.86441 96.0
387.099182 60.0
387.392731 60.0
387.424072 36.0
387.580688 92.0
387.76474 56.0
387.862671 44.0
388.572876 304.0
389.152527 148.0
389.466492 92.0
389.501831 148.0
389.713837 72.0
389.800232 172.0
389.91806 76.0
390.118378 80.0
390.554596 76.0
390.597839 152.0
391.14444 104.0
391.262451 80.0
391.593018 156.0
391.679626 52.0
391.817413 96.0
391.896149 44.0
392.160034 84.0
392.341248 64.0
392.554016 136.0
392.762909 112.0
392.885132 60.0
393.192719 104.0
393.638519 84.0
393.930603 44.0
394.147766 156.0
394.321533 124.0
394.459778 112.0
394.586212 52.0
395.586456 168.0
395.784302 136.0
395.823883 60.0
396.671173 48.0
396.766266 84.0
396.797974 52.0
396.980255 104.0
397.25769 56.0
397.440094 56.0
397.651123 76.0
398.039093 104.0
398.130371 80.0
398.18988 100.0
398.380432 92.0
398.551178 48.0
399.011932 76.0
399.127167 140.0
399.270233 76.0
400.260468 92.0
400.312225 36.0
400.38385 64.0
400.548401 132.0
400.662506 72.0
400.869568 52.0
401.0448 88.0
401.522949 168.0
401.561401 248.0
402.005341 56.0
402.109039 88.0
402.268616 40.0
402.356384 52.0
402.539948 160.0
403.154724 316.0
403.575745 160.0
404.172302 100.0
404.533752 128.0
404.572998 84.0
405.52652 132.0
405.935181 32.0
406.067444 36.0
406.131561 60.0
406.496429 60.0
406.540527 140.0
406.568604 116.0
406.908722 184.0
407.266754 76.0
407.535767 112.0
407.620087 148.0
408.21463 140.0
408.291016 80.0
408.407562 164.0
408.496002 72.0
408.584442 172.0
408.869965 64.0
409.413116 72.0
409.763336 64.0
410.339294 44.0
410.794708 140.0
410.960754 180.0
411.028564 100.0
411.286713 48.0
411.468262 72.0
411.948517 108.0
412.037354 124.0
412.12616 40.0
412.937897 84.0
413.039246 56.0
413.566833 144.0
413.68631 56.0
413.954742 68.0
414.01001 92.0
414.426971 72.0
414.530548 124.0
414.542816 72.0
414.880615 56.0
415.50882 112.0
415.565216 88.0
415.869751 96.0
415.963043 84.0
416.149658 52.0
416.251129 148.0
416.31604 80.0
416.42157 84.0
416.543365 144.0
416.661102 84.0
417.006256 60.0
417.94101 52.0
418.17688 100.0
418.290771 128.0
418.555237 140.0
418.664459 144.0
418.848297 76.0
418.929718 76.0
419.288055 68.0
419.558319 160.0
419.801392 108.0
420.164185 44.0
420.192719 100.0
420.237579 152.0
420.523041 44.0
420.551605 184.0
420.932983 52.0
421.339203 148.0
421.56369 136.0
421.759857 72.0
421.825226 88.0
421.955963 92.0
422.123474 112.0
422.27063 32.0
422.634308 96.0
422.76123 136.0
422.863495 52.0
423.264435 80.0
423.710602 112.0
424.058685 52.0
424.525757 68.0
424.788086 40.0
425.776642 84.0
425.813568 88.0
426.0065 48.0
426.187164 100.0
426.60611 164.0
426.99649 88.0
427.230804 88.0
427.370575 56.0
427.469269 76.0
427.61734 152.0
428.362152 80.0
428.633881 76.0
428.897491 72.0
429.144684 96.0
429.334259 40.0
429.725861 132.0
430.113556 80.0
430.794464 108.0
430.868774 60.0
431.544861 2232.0
431.620544 96.0
431.656036 120.0
431.707306 84.0
431.774109 104.0
431.86438 52.0
431.980133 64.0
432.050415 40.0
432.116547 108.0
432.21579 148.0
432.360535 36.0
432.549377 608.0
433.039093 120.0
433.17157 36.0
433.440674 56.0
433.538818 2844.0
434.017426 52.0
434.277588 48.0
434.30661 48.0
434.543335 288.0
434.82489 148.0
434.858093 80.0
435.044769 104.0
435.082092 68.0
435.235626 96.0
435.430664 32.0
435.522003 128.0
435.80014 124.0
436.244568 80.0
436.35257 48.0
436.419067 188.0
436.481384 140.0
436.522949 84.0
436.709991 108.0
437.620758 84.0
439.14917 108.0
439.390961 132.0
439.474365 40.0
439.874451 56.0
440.367126 124.0
440.663544 68.0
440.695679 132.0
441.056122 88.0
441.486481 88.0
441.99234 108.0
442.368774 52.0
442.43988 84.0
443.277039 124.0
443.482269 88.0
443.612122 48.0
443.746216 96.0
444.031158 56.0
444.07309 164.0
444.685272 40.0
444.962128 28.0
445.180328 56.0
445.213928 152.0
445.268463 172.0
445.453156 148.0
445.700897 92.0
445.91507 40.0
445.961273 60.0
446.095703 44.0
446.161621 64.0
446.305786 48.0
446.373016 80.0
446.71347 160.0
446.75827 160.0
446.818573 108.0
447.289612 84.0
447.824005 168.0
447.878723 116.0
447.967133 136.0
448.118713 76.0
448.16925 60.0
448.372772 92.0
448.394958 80.0
448.444672 120.0
448.501953 112.0
448.636749 100.0
448.704163 132.0
448.746307 108.0
448.891418 104.0
448.919067 112.0
448.978088 60.0
449.01181 136.0
449.091888 72.0
449.157501 124.0
449.214142 96.0
449.243652 108.0
449.327972 220.0
449.382782 64.0
449.43927 176.0
449.532654 17256.0
449.667389 84.0
449.709747 60.0
449.753906 48.0
449.787659 52.0
449.867798 92.0
449.956421 64.0
450.026031 112.0
450.058411 72.0
450.095642 124.0
450.142059 136.0
450.255951 192.0
450.282898 76.0
450.323547 44.0
450.393433 216.0
450.427673 96.0
450.536591 5212.0
450.67395 116.0
450.741516 136.0
450.796417 80.0
450.842865 124.0
450.881592 48.0
450.950592 104.0
451.011841 108.0
451.12738 88.0
451.157654 188.0
451.253052 40.0
451.356689 128.0
451.408997 152.0
451.449341 112.0
451.529327 16924.0
451.612335 140.0
451.725403 104.0
451.84436 32.0
451.88681 116.0
451.960846 124.0
452.047333 64.0
452.109161 60.0
452.157318 176.0
452.211029 60.0
452.243927 84.0
452.302704 212.0
452.336639 100.0
452.389954 100.0
452.42804 84.0
452.528168 3980.0
452.605743 144.0
452.64093 52.0
452.681915 52.0
452.775024 40.0
452.838776 64.0
452.917542 120.0
452.933319 80.0
453.030823 84.0
453.094086 76.0
453.16214 116.0
453.261871 48.0
453.291534 92.0
453.342346 80.0
453.405884 60.0
453.53717 244.0
453.596497 68.0
453.672729 48.0
453.765961 60.0
453.799835 52.0
453.865936 80.0
454.07312 76.0
454.12616 36.0
454.168549 44.0
454.312683 80.0
454.39978 52.0
454.503021 72.0
454.617981 56.0
455.046448 28.0
455.25946 204.0
455.364716 124.0
455.721313 100.0
456.014374 76.0
456.078064 72.0
456.515717 60.0
457.08963 52.0
457.195923 64.0
457.242706 116.0
457.332031 84.0
457.387329 108.0
457.591553 104.0
457.863892 48.0
457.953278 104.0
458.707001 76.0
458.924286 52.0
460.143768 80.0
460.75412 112.0
461.03595 128.0
461.467407 52.0
461.864868 60.0
462.630341 64.0
462.673126 68.0
463.263733 92.0
463.327942 132.0
463.456421 104.0
463.529205 92.0
463.751923 52.0
464.098938 64.0
464.174377 92.0
464.218933 56.0
464.411804 92.0
464.763336 88.0
464.844818 84.0
464.994934 72.0
465.230865 72.0
466.253662 88.0
466.970032 76.0
467.15918 44.0
467.421448 84.0
467.946259 60.0
468.372314 76.0
468.738281 108.0
468.86319 136.0
468.914856 52.0
469.319824 84.0
469.505127 100.0
469.875854 88.0
470.639313 92.0
470.829193 40.0
470.893951 84.0
471.006165 84.0
472.50528 88.0
472.795013 60.0
473.071838 104.0
473.221741 36.0
473.309814 148.0
473.591156 88.0
473.695038 72.0
473.738312 76.0
473.768646 92.0
473.829254 68.0
473.96347 88.0
474.305634 80.0
474.366272 104.0
474.530914 64.0
474.782257 72.0
474.84726 52.0
475.033661 84.0
475.714539 68.0
475.965149 84.0
476.191864 96.0
476.960449 108.0
476.994995 84.0
477.134216 68.0
477.22113 112.0
477.268921 72.0
477.421021 40.0
478.064453 44.0
478.473358 60.0
478.608246 72.0
478.991241 80.0
479.121857 56.0
479.23941 120.0
479.661865 124.0
480.032227 92.0
480.28067 92.0
480.699219 100.0
481.039429 56.0
481.334229 64.0
482.751068 56.0
483.008942 152.0
483.402435 116.0
483.861755 128.0
485.15332 68.0
486.573853 52.0
487.526398 64.0
487.855835 148.0
488.365601 76.0
488.770081 80.0
489.280304 84.0
489.720398 104.0
490.570282 76.0
490.817841 108.0
491.055023 92.0
491.288635 72.0
491.32605 100.0
491.526764 60.0
492.078125 168.0
492.197266 52.0
492.448822 60.0
492.810852 112.0
493.040466 68.0
493.508759 112.0
493.672241 84.0
493.990509 116.0
494.680389 36.0
495.16272 76.0
495.317657 120.0
496.469269 60.0
496.548492 64.0
497.010132 128.0
497.356079 76.0
497.635559 92.0
498.248077 44.0
498.798767 84.0
499.540924 44.0
499.749878 88.0
500.021149 104.0
501.596893 64.0
501.73056 128.0
502.345581 72.0
502.996674 36.0
504.304596 44.0
504.746887 48.0
504.947998 112.0
505.3414 52.0
506.509094 108.0
507.086731 92.0
507.176331 108.0
507.817078 72.0
509.827148 68.0
511.355286 64.0
512.570435 64.0
512.719055 68.0
513.097412 76.0
513.146973 120.0
513.899719 40.0
514.565796 60.0
515.077271 96.0
516.107056 64.0
516.165771 112.0
516.816711 44.0
516.870972 112.0
517.002136 84.0
517.183044 88.0
517.377563 112.0
518.282837 100.0
518.468506 40.0
518.658752 60.0
518.709534 76.0
519.442688 64.0
520.317993 28.0
520.826294 48.0
520.894348 108.0
521.584656 84.0
521.766357 56.0
521.966309 96.0
522.075378 72.0
522.388977 80.0
523.121155 60.0
523.822021 136.0
524.988037 116.0
525.909058 124.0
526.123474 36.0
526.242126 88.0
526.693909 68.0
526.986145 92.0
528.489441 48.0
530.329224 52.0
530.746155 48.0
531.131104 76.0
531.984131 48.0
532.034546 64.0
532.273193 72.0
532.938782 92.0
534.629883 44.0
535.830933 80.0
536.010498 112.0
536.208557 68.0
536.351379 68.0
536.415833 56.0
537.743408 88.0
538.204773 76.0
538.264771 76.0
538.610901 32.0
538.763245 128.0
539.32666 72.0
539.668518 40.0
539.705505 48.0
540.269409 88.0
540.602356 92.0
540.653198 40.0
541.300903 96.0
543.547668 60.0
546.04541 44.0
546.096497 84.0
546.180176 120.0
546.347534 104.0
546.64978 80.0
546.803284 48.0
547.203308 68.0
547.398743 84.0
548.623352 64.0
548.697937 76.0
549.415649 60.0
549.830688 92.0
550.29718 80.0
550.385864 60.0
550.469849 84.0
551.08136 116.0
551.240112 40.0
551.338196 68.0
551.487671 96.0
552.090393 40.0
552.478394 76.0
553.04425 112.0
554.481201 68.0
554.949646 60.0
555.104309 28.0
555.788696 52.0
556.8396 116.0
556.881836 104.0
557.196411 80.0
558.149902 124.0
558.746887 60.0
559.085449 112.0
559.25946 96.0
559.889954 52.0
560.007629 88.0
560.308899 80.0
562.495667 136.0
563.179932 136.0
563.500916 84.0
564.072388 72.0
564.284973 88.0
564.318054 44.0
564.49292 60.0
565.069641 72.0
565.131104 80.0
565.405396 56.0
565.622925 88.0
566.967224 76.0
567.436218 104.0
567.59729 60.0
567.914856 36.0
567.971741 40.0
568.294128 104.0
568.355774 80.0
568.53595 56.0
569.874207 88.0
570.045166 44.0
570.239868 68.0
570.51062 88.0
570.653198 68.0
570.849915 120.0
571.504028 120.0
572.046204 80.0
572.436401 64.0
573.14209 84.0
573.469543 92.0
573.622009 48.0
574.031738 92.0
575.023438 60.0
575.433655 32.0
575.481384 96.0
575.81543 108.0
575.910889 80.0
576.517273 104.0
577.515869 56.0
577.855286 76.0
578.118347 76.0
578.701904 136.0
578.76416 84.0
578.878967 36.0
578.945984 72.0
579.941895 76.0
583.194092 76.0
583.31897 104.0
584.025391 104.0
584.059021 52.0
584.948669 68.0
586.166382 48.0
586.455383 56.0
586.559692 116.0
586.860046 64.0
586.908203 48.0
587.756653 108.0
588.610474 64.0
588.832458 52.0
589.204163 60.0
590.605164 132.0
590.66803 44.0
590.759888 176.0
591.262756 112.0
591.642761 108.0
591.746521 84.0
591.969116 108.0
592.641968 72.0
592.695251 28.0
593.673828 120.0
594.856934 68.0
596.531799 68.0
597.440613 52.0
597.576721 104.0
597.815002 96.0
598.466858 60.0
598.729675 60.0
598.797791 96.0
599.601196 96.0
600.068848 76.0
601.687561 76.0
602.497742 48.0
603.220581 52.0
603.50885 72.0
603.785095 104.0
604.652771 176.0
604.843567 36.0
605.675415 80.0
605.944702 40.0
606.811646 44.0
608.238281 48.0
608.601379 32.0
609.406372 36.0
609.504578 76.0
611.131104 80.0
611.258911 64.0
614.484253 116.0
614.523682 76.0
615.150085 72.0
615.238892 84.0
615.273376 92.0
615.426331 76.0
616.087769 76.0
616.695129 36.0
617.06073 72.0
618.316345 108.0
619.647095 88.0
620.117981 120.0
620.311218 44.0
621.961975 76.0
622.919739 60.0
623.068665 80.0
623.148071 60.0
623.421204 36.0
624.554077 72.0
624.966675 104.0
625.036316 96.0
626.309998 92.0
626.937378 76.0
628.901123 36.0
629.105652 52.0
631.1828 112.0
631.557617 32.0
632.332642 80.0
633.123169 84.0
633.58374 76.0
634.189636 64.0
634.380005 80.0
634.620544 60.0
635.588989 76.0
636.541077 100.0
637.459778 52.0
638.977295 76.0
639.052734 56.0
639.706543 64.0
640.869202 60.0
641.005188 60.0
641.060547 48.0
642.002686 48.0
642.849609 60.0
643.232971 76.0
645.81842 64.0
645.980164 64.0
649.305847 64.0
649.52887 52.0
653.133057 80.0
654.485901 60.0
656.288513 48.0
656.466858 36.0
656.701294 68.0
657.180542 40.0
657.537537 96.0
659.589478 116.0
659.650818 112.0
660.749634 60.0
663.595398 100.0
663.984863 60.0
664.851379 100.0
665.148865 52.0
665.415649 44.0
665.718384 56.0
666.447327 56.0
667.289734 72.0
668.893799 68.0
670.026001 100.0
672.030334 60.0
674.109924 88.0
674.352661 48.0
675.344788 92.0
675.934143 28.0
676.446228 56.0
676.85498 52.0
677.341492 108.0
678.14801 80.0
679.551147 40.0
680.55481 68.0
680.804932 40.0
681.681274 88.0
682.949036 108.0
683.812195 60.0
684.452087 36.0
685.764038 96.0
686.159973 52.0
686.827087 64.0
686.931335 48.0
688.579651 56.0
688.663208 76.0
689.326233 36.0
690.684692 88.0
690.982727 124.0
691.44812 64.0
693.547058 32.0
693.71991 100.0
694.453552 52.0
697.990967 164.0
698.279968 52.0
698.931885 60.0
699.031799 68.0
702.538635 64.0
703.598694 88.0
704.569824 80.0
704.955322 72.0
705.087341 32.0
705.420105 92.0
706.117615 60.0
708.46106 60.0
708.694031 184.0
709.223633 96.0
709.658081 64.0
711.933044 36.0
713.451721 40.0
714.004333 52.0
715.253235 64.0
716.350159 72.0
716.414062 80.0
716.493896 84.0
717.314026 88.0
717.527161 96.0
718.438538 68.0
718.513184 60.0
718.774475 88.0
722.54425 96.0
724.240112 64.0
725.20929 48.0
726.120178 48.0
726.184509 68.0
726.575867 60.0
727.503662 40.0
727.986572 116.0
729.09259 52.0
731.511414 96.0
731.586731 60.0
731.726624 92.0
733.040039 52.0
733.470947 108.0
734.122925 52.0
734.311523 100.0
739.105652 48.0
739.170532 28.0
739.835815 60.0
740.707153 88.0
740.864136 44.0
742.321167 56.0
743.649536 72.0
746.700989 104.0
746.994507 96.0
747.46759 72.0
747.837402 92.0
747.946167 88.0
749.596985 80.0
750.826599 76.0
753.734375 56.0
757.211487 84.0
757.578247 76.0
758.00531 52.0
758.624268 76.0
758.744812 100.0
760.992798 48.0
763.634338 144.0
764.536072 96.0
764.720093 96.0
764.783569 40.0
766.208862 64.0
768.991821 96.0
770.06781 96.0
770.310669 76.0
772.46521 60.0
772.691833 28.0
773.659729 140.0
774.998474 96.0
776.528198 68.0
776.80542 152.0
777.559509 48.0
778.358398 108.0
778.819092 128.0
779.024475 112.0
779.996338 44.0
780.857605 100.0
781.002136 36.0
781.92511 100.0
782.359009 48.0
782.987793 52.0
783.086243 88.0
785.42749 56.0
785.572449 88.0
785.807922 104.0
786.14679 68.0
787.201172 48.0
787.64209 88.0
787.871033 116.0
788.507629 56.0
791.683289 44.0
792.310242 96.0
793.648865 132.0
795.213013 104.0
795.802124 52.0
796.032166 92.0
798.188599 60.0
800.26355 36.0
800.477417 84.0
804.235352 60.0
807.165588 44.0
808.064392 60.0
808.239624 48.0
808.720398 60.0
809.27478 60.0
809.631348 40.0
811.205505 84.0
811.426453 80.0
811.862793 108.0
812.168823 80.0
817.318298 100.0
818.706421 56.0
819.281311 56.0
819.366699 104.0
825.024475 56.0
825.504456 84.0
825.601624 88.0
827.008179 36.0
827.211975 108.0
827.877869 96.0
828.36438 72.0
829.143127 80.0
829.744629 104.0
832.02655 48.0
833.174438 76.0
835.005432 108.0
835.518555 92.0
835.944031 172.0
838.4245 40.0
839.496094 20.0
840.395386 68.0
841.140564 80.0
841.929871 40.0
842.530212 96.0
844.852783 60.0
845.124512 64.0
846.91803 88.0
847.242188 92.0
848.168823 72.0
848.249878 96.0
851.137268 100.0
852.960388 172.0
853.814514 180.0
854.7854 60.0
854.977356 64.0
857.3927 56.0
859.34491 88.0
860.756531 60.0
862.397156 72.0
863.104065 140.0
863.980835 36.0
864.776123 64.0
865.606934 56.0
867.070557 76.0
867.955139 160.0
868.992676 92.0
870.834778 32.0
872.103088 64.0
872.232361 56.0
872.637695 88.0
872.9198 120.0
873.345398 48.0
873.760376 52.0
875.171997 76.0
880.092285 52.0
881.001221 48.0
883.299316 92.0
883.630371 92.0
885.499756 72.0
885.837158 60.0
892.802124 100.0
894.334961 40.0
894.447937 52.0
895.638123 56.0
896.543152 44.0
897.73468 120.0
898.134033 108.0
899.523438 60.0
900.752808 88.0
903.273743 28.0
904.583374 84.0
905.52887 96.0
910.46759 56.0
913.464905 96.0
916.768311 68.0
921.574524 36.0
924.789673 72.0
929.920044 60.0
933.058594 132.0
933.362427 120.0
933.44751 36.0
934.334961 80.0
935.758179 80.0
942.621948 96.0
942.988342 48.0
944.118713 76.0
944.888916 60.0
945.647217 68.0
946.828125 68.0
947.960693 76.0
951.55896 44.0
951.669434 92.0
956.25238 72.0
959.545898 100.0
960.22998 144.0
960.624451 84.0
963.900818 76.0
968.073669 100.0
969.311829 56.0
970.371033 40.0
971.548645 160.0
973.179871 120.0
973.906006 116.0
976.09845 68.0
976.577026 96.0
976.670227 64.0
976.831848 76.0
981.725037 136.0
982.260315 68.0
984.536987 88.0
984.948975 80.0
988.5979 44.0
989.041992 88.0
989.423584 80.0
992.886536 44.0
993.670105 88.0
994.504211 36.0
999.050781 36.0
1000.591675 52.0
1000.748962 88.0
1002.656433 148.0
1005.164734 64.0
1005.461121 120.0
1006.36322 92.0
1008.516052 60.0
1009.830383 120.0
1010.285522 76.0
1011.761169 120.0
1012.993225 44.0
1014.32312 60.0
1016.903015 48.0
1018.229126 104.0
1018.755981 56.0
1020.172241 48.0
1022.180786 52.0
1027.204468 72.0
1028.122681 56.0
1032.368164 140.0
1032.905151 68.0
1037.032471 72.0
1037.109375 64.0
1038.198608 80.0
1040.211914 96.0
1042.638306 112.0
1042.869507 44.0
1044.546631 88.0
1045.073853 64.0
1046.797852 104.0
1053.068848 72.0
1054.34729 60.0
1056.596069 108.0
1060.271729 116.0
1060.731567 76.0
1064.278076 84.0
1067.739502 56.0
1068.175049 52.0
1068.45459 56.0
1068.734131 80.0
1069.306396 68.0
1069.859375 68.0
1072.561035 48.0
1073.87085 72.0
1074.574829 92.0
1076.681885 108.0
1077.700317 116.0
1080.431519 60.0
1083.408325 40.0
1088.01416 64.0
1093.001221 56.0
1093.369507 68.0
1097.253296 164.0
1099.072632 44.0
1101.183716 68.0
1101.322388 120.0
1102.993042 104.0
1103.825562 64.0
1108.469482 64.0
1109.045654 68.0
1112.240723 100.0
1119.849121 164.0
1120.161987 40.0
1122.639771 48.0
1123.699707 36.0
1130.430786 100.0
1130.939087 112.0
1132.016235 92.0
1132.437866 60.0
1133.683228 92.0
1138.564087 56.0
1140.789429 104.0
1142.144165 64.0
1143.885864 112.0
1146.362793 92.0
1147.710083 40.0
1151.459717 72.0
1152.02002 100.0
1152.080811 120.0
1152.755981 60.0
1153.167969 80.0
1155.398071 36.0
1156.873413 116.0
1158.672729 96.0
1160.13562 196.0
1160.203369 68.0
1161.802856 64.0
1164.217651 80.0
1164.920898 168.0
1165.738403 80.0
1167.37561 76.0
1174.079224 148.0
1178.540771 40.0
1179.503784 48.0
1180.655029 144.0
1182.600342 60.0
1185.14624 56.0
1186.803955 72.0
1188.737061 72.0
1191.591675 92.0
1192.566895 68.0
1194.82605 112.0
1197.545166 80.0
1203.223633 32.0
1203.48584 52.0
1208.120361 120.0
1209.434326 60.0
1211.30957 100.0
1213.719849 84.0
1215.237915 40.0
1219.137939 124.0
1219.742188 32.0
1220.284058 52.0
1221.65332 92.0
1223.934692 44.0
1225.215454 192.0
1227.904297 112.0
1230.986938 176.0
1233.053589 96.0
1233.291016 84.0
1237.05188 72.0
1237.464722 124.0
1238.82251 100.0
1239.788818 116.0
1241.028809 112.0
1245.032959 68.0
1245.397949 36.0
1245.510254 112.0
1246.394897 108.0
1247.504761 216.0
1248.432251 84.0
1250.098389 124.0
1252.258301 108.0
1253.588989 60.0
1259.363403 44.0
1264.528564 32.0
1265.858643 108.0
1268.577637 208.0
1268.988525 40.0
1269.966553 176.0
1270.179199 248.0
1270.498291 212.0
1271.254272 108.0
1271.398804 84.0
1271.717163 168.0
1272.782227 76.0
1274.79834 72.0
1275.451782 48.0
1276.211914 204.0
1279.119873 40.0
1280.728027 152.0
1281.233521 92.0
1282.522461 44.0
1283.755127 88.0
1284.546265 140.0
1287.556396 184.0
1288.655762 80.0
1290.255737 64.0
1291.985352 52.0
1293.866333 44.0
1295.20459 68.0
1298.24231 172.0
1298.685913 220.0
1300.593262 160.0
1302.423096 88.0
1303.313354 188.0
1303.679688 28.0
1304.017212 172.0
1304.110596 96.0
1305.008545 164.0
1305.116333 116.0
1305.56189 144.0
1308.373535 164.0
1308.754883 136.0
1312.038208 108.0
1312.513794 40.0
1313.731934 120.0
1314.049072 148.0
1314.380859 140.0
1315.563721 48.0
1315.62146 92.0
1316.985352 120.0
1317.606201 136.0
1318.617188 144.0
1319.397339 80.0
1319.932007 100.0
1321.522339 104.0
1321.847778 104.0
1322.780762 64.0
1323.243774 276.0
1323.352295 256.0
1323.446411 168.0
1323.764771 136.0
1327.574219 76.0
1330.866455 160.0
1332.165649 140.0
1332.274536 176.0
1338.016235 144.0
1338.125366 144.0
1338.460083 160.0
1339.923096 96.0
1340.163452 180.0
1340.38916 140.0
1343.310913 84.0
1344.171265 60.0
1346.228516 124.0
1347.418335 152.0
1348.754883 60.0
1349.558472 176.0
1349.989624 144.0
1353.302246 148.0
1353.931641 156.0
1354.260986 156.0
1355.227417 84.0
1355.725342 128.0
1356.06958 124.0
1358.524414 156.0
1358.803101 68.0
1360.614746 44.0
1361.209106 80.0
1362.706543 196.0
1362.926758 132.0
1363.418823 92.0
1365.718628 124.0
1366.527344 160.0
1368.189575 44.0
1368.682495 80.0
1369.845459 104.0
1369.955933 156.0
1372.615845 160.0
1374.413574 80.0
1377.129395 160.0
1379.388184 240.0
1381.302124 108.0
1382.507324 180.0
1384.053467 68.0
1385.711548 40.0
1389.023315 112.0
1389.297607 100.0
1389.801758 128.0
1390.521118 72.0
1391.901001 100.0
1392.561523 176.0
1392.650635 40.0
1392.799072 56.0
1394.076172 40.0
1394.946289 140.0
1395.703125 92.0
1396.743652 108.0
1397.070679 124.0
1398.052246 120.0
1399.331787 148.0
1400.701172 148.0
1400.76709 128.0
1401.28186 60.0
1406.536011 88.0
1406.677734 144.0
1408.861328 108.0
1409.827637 108.0
1410.044312 60.0
1411.164795 120.0
1411.792603 96.0
1413.347534 200.0
1414.432007 56.0
1414.529175 144.0
1415.195068 120.0
1415.546753 152.0
1415.72644 100.0
1415.868652 32.0
1416.662109 172.0
1418.219727 84.0
1418.693359 88.0
1419.748169 112.0
1422.755127 56.0
1422.973389 192.0
1423.565552 120.0
1425.119385 144.0
1425.209595 240.0
1425.442383 120.0
1426.779419 52.0
1428.613159 52.0
1429.643311 124.0
1430.591064 108.0
1431.765015 180.0
1431.907959 132.0
1432.879028 236.0
1433.014648 136.0
1433.737549 120.0
1433.986084 148.0
1434.834595 184.0
1435.560791 100.0
1435.824585 40.0
1435.937622 64.0
1437.897949 200.0
1438.267578 128.0
1438.938965 68.0
1439.1427 56.0
1439.21814 196.0
1440.871216 160.0
1441.39978 184.0
1443.779419 112.0
1446.463745 116.0
1446.615112 172.0
1447.515503 124.0
1449.226196 96.0
1449.521606 172.0
1452.038208 172.0
1452.21875 112.0
1454.440552 160.0
1456.049072 84.0
1457.324463 144.0
1457.438354 28.0
1457.673828 164.0
1458.767578 96.0
1460.340576 40.0
1461.001953 80.0
1463.420532 48.0
1463.968506 28.0
1464.143555 160.0
1464.219604 112.0
1464.288086 112.0
1466.008789 160.0
1466.206787 100.0
1466.618164 84.0
1466.778076 96.0
1466.968506 96.0
1467.219971 124.0
1468.126709 104.0
1468.271606 168.0
1468.408813 68.0
1468.515503 140.0
1469.651367 92.0
1471.222656 124.0
1471.718628 112.0
1472.275635 72.0
1473.626831 144.0
1476.812622 132.0
1477.156616 188.0
1477.309448 168.0
1477.890503 148.0
1478.150513 132.0
1479.129517 224.0
1480.277222 36.0
1481.14209 132.0
1481.547852 92.0
1482.451416 116.0
1484.22876 188.0
1485.278687 32.0
1487.962891 136.0
1488.128662 132.0
1489.106323 228.0
1489.497803 144.0
1489.613037 108.0
1489.78186 52.0
1489.966187 120.0
1490.396118 180.0
1490.626465 128.0
1492.38562 116.0
1493.108032 120.0
1493.907471 108.0
1494.207275 100.0
1497.015015 76.0
1497.661499 148.0
1497.907837 44.0
1498.931885 40.0
1501.034912 48.0
1501.150513 160.0
1501.320068 112.0
