>compound fluvastatin
>formula C24H26FNO4 
>ionization [M+H]+
>parentmass 412.191681
#inchi InChI=1S/C24H26FNO4/c1-15(2)26-21-6-4-3-5-20(21)24(16-7-9-17(25)10-8-16)22(26)12-11-18(27)13-19(28)14-23(29)30/h3-12,15,18-19,27-28H,13-14H2,1-2H3,(H,29,30)/b12-11+/t18-,19-/m1/s1
#inchikey FJLGEFLZQAZZCD
#Ion_Source LC-ESI
#Instrument qTof
#Compound_Source Commercial
#PI Dorrestein
#Data_Collector Garg_Neha
#Scan -1
#Precursor_MZ 412.194
#ExactMass 411.185
#Charge 1
#CAS_Number N/A
#Pubmed_ID N/A
#Smiles N/A
#INCHI_AUX N/A
#Library_Class 1
#SpectrumID CCMSLIB00000077106
#IonMode Positive
#UpdateWorkflowName UPDATE-SINGLE-ANNOTATED-GOLD
#LibraryQualityString Gold
#TaskID 48f7f52fc6d249b5abbcc6e7b3df5969
##Scan# 1869
#SpectrumFile NCP003106_E2_F11_BB4_01_15707.mzXML
#LibraryName NIH_Clinical_Collection_2.mgf
#MQScore -1
#Organism NIHcollection2_04212014_2_mgf
#TIC_Query 0
#RT_Query -1
#MZErrorPPM -1
#SharedPeaks 0
#MassDiff 0
#LibMZ -1
#SpecMZ 412.194
#SpecCharge 0
#internalFilename spec-00000.mgf

>collision 10
50.823524 160.0
110.912476 184.0
116.036568 200.0
119.086021 220.0
122.249298 176.0
123.045006 200.0
159.059052 164.0
168.009705 224.0
178.083389 200.0
178.81987 144.0
194.689651 172.0
196.069946 260.0
197.078293 820.0
204.078613 140.0
205.083344 152.0
209.07872 208.0
211.072067 176.0
211.141464 192.0
212.084366 496.0
222.073853 440.0
223.077713 1332.0
223.180191 208.0
224.087173 7248.0
225.0215 144.0
225.089478 1436.0
229.088165 180.0
233.443573 168.0
235.079071 140.0
236.084213 344.0
237.094711 148.0
238.100998 660.0
239.101166 300.0
239.140152 172.0
239.275589 156.0
241.117111 144.0
244.124237 176.0
249.100266 188.0
250.104691 340.0
251.110504 152.0
252.110825 176.0
253.121231 144.0
254.137192 300.0
261.099701 144.0
262.107025 216.0
264.077606 120.0
264.11438 276.0
265.138184 172.0
266.099274 264.0
266.135986 4108.0
266.881348 176.0
267.139038 572.0
268.108551 148.0
269.136108 164.0
274.105286 264.0
279.142242 128.0
280.147858 980.0
281.154694 312.0
282.151184 404.0
289.124146 168.0
290.13089 280.0
306.088867 140.0
306.169739 204.0
308.089386 176.0
329.124969 180.0
334.125061 180.0
335.1716 148.0
336.225494 208.0
348.828156 148.0
352.129974 372.0
352.191071 192.0
352.931 184.0
353.142731 152.0
354.151001 160.0
368.137329 204.0
368.825043 176.0
369.13089 184.0
370.141754 348.0
371.158722 160.0
376.169373 332.0
377.177704 100.0
394.176544 1128.0
395.187927 732.0
397.128815 152.0
411.185089 692.0
412.191681 4304.0
412.274963 144.0
413.197021 1064.0
414.19223 240.0
