>compound MLS001140931-01!4-[[2-(2-oxo-4-phenylchromen-7-yl)oxypropanoylamino]methyl]cyclohexane-1-carboxylic acid
>formula C26H27NO6
>ionization [M+H]+
>parentmass 450.192
#inchi InChI=1S/C26H27NO6/c1-16(25(29)27-15-17-7-9-19(10-8-17)26(30)31)32-20-11-12-21-22(18-5-3-2-4-6-18)14-24(28)33-23(21)13-20/h2-6,11-14,16-17,19H,7-10,15H2,1H3,(H,27,29)(H,30,31)/t16?,17-,19-
#inchikey BRIRKFJSVSFJIQ
#Ion_Source LC-ESI
#Instrument qTof
#Compound_Source NIH Natural Product Library
#PI Dorrestein
#Data_Collector VVP/LMS
#Scan -1
#Precursor_MZ 450.192
#ExactMass 449.184
#Charge 1
#CAS_Number N/A
#Pubmed_ID N/A
#Smiles CC(Oc1ccc2c(cc(=O)oc2c1)c3ccccc3)C(=O)NC[C@H]4CC[C@@H](CC4)C(=O)O
#INCHI_AUX N/A
#Library_Class 1
#SpectrumID CCMSLIB00000079596
#IonMode Positive
#UpdateWorkflowName UPDATE-SINGLE-ANNOTATED-GOLD
#LibraryQualityString Gold
#TaskID b1d8e8f6646f4e71acdff9ca3d919d08
##Scan# 2103
#SpectrumFile p1-F08_GF8_01_17940.mzXML
#LibraryName NIH_Natural_Products_Library.mgf
#MQScore -1
#Organism NIH_Natural_Products_Library
#TIC_Query 0
#RT_Query -1
#MZErrorPPM -1
#SharedPeaks 0
#MassDiff 0
#LibMZ -1
#SpecMZ 450.192
#SpecCharge 0
#internalFilename spec-00000.mgf

>collision 10
95.061531 108.0
95.079636 160.0
95.117477 44.0
95.15271 3452.0
95.235962 180.0
95.265106 96.0
95.364243 168.0
95.452118 176.0
95.475098 76.0
95.514015 92.0
95.673637 96.0
96.086945 168.0
96.153831 360.0
96.172836 164.0
96.197769 172.0
96.666374 180.0
96.745773 52.0
96.820206 152.0
96.927986 216.0
96.963272 52.0
97.159424 172.0
97.300781 168.0
97.487442 68.0
97.558228 104.0
97.95784 88.0
98.050484 140.0
98.121468 88.0
98.354324 108.0
98.397774 132.0
98.545952 136.0
98.559792 60.0
98.743698 136.0
98.769417 104.0
99.153664 136.0
99.278603 100.0
99.302414 112.0
99.330193 120.0
99.383774 144.0
99.45723 120.0
99.498375 144.0
99.741371 148.0
99.850761 132.0
100.009987 148.0
100.075706 112.0
100.120613 212.0
100.143433 200.0
100.268997 192.0
100.32283 232.0
100.418938 156.0
100.46447 172.0
100.496407 104.0
100.534332 188.0
100.548309 176.0
100.652145 108.0
100.680115 184.0
100.830002 140.0
100.855995 208.0
100.895988 112.0
100.965996 140.0
101.004013 72.0
101.072372 176.0
101.164154 164.0
101.603188 84.0
101.791924 192.0
102.09346 128.0
102.149796 184.0
102.270569 136.0
102.347099 136.0
102.69384 144.0
102.711998 144.0
102.808647 180.0
102.841179 188.0
102.901756 44.0
102.976501 116.0
103.018936 124.0
103.124855 160.0
103.210999 264.0
103.383003 104.0
103.613914 240.0
103.895813 204.0
104.180122 144.0
104.279724 224.0
104.316322 228.0
104.342766 92.0
104.44651 172.0
104.6175 232.0
104.717308 196.0
104.919113 192.0
104.953789 176.0
105.010902 192.0
105.05761 144.0
105.084366 72.0
105.107491 800.0
105.141113 176.0
105.161942 184.0
105.278351 140.0
105.503189 180.0
105.57515 220.0
105.758972 144.0
105.781494 140.0
106.144875 200.0
106.240974 144.0
106.333061 136.0
106.478874 148.0
106.717331 188.0
106.931343 196.0
107.118782 208.0
107.162056 220.0
107.399216 144.0
107.454933 196.0
107.469376 160.0
107.717201 52.0
107.733734 80.0
108.137093 172.0
108.178505 120.0
108.503868 256.0
108.844254 164.0
109.104057 72.0
109.139412 156.0
109.176041 316.0
109.208069 108.0
109.260086 68.0
109.376663 80.0
109.503716 40.0
109.647522 40.0
109.751793 172.0
109.849846 124.0
110.002228 192.0
110.039825 68.0
110.143471 264.0
110.173935 856.0
110.196518 172.0
110.221603 192.0
110.324776 184.0
110.370064 200.0
110.405624 52.0
110.512344 208.0
110.621208 164.0
110.650528 92.0
110.679192 132.0
110.761551 164.0
110.799271 124.0
111.002655 84.0
111.063499 124.0
111.107567 192.0
111.139046 192.0
111.182724 868.0
111.363747 164.0
111.418381 216.0
111.47303 152.0
111.843307 152.0
111.910698 132.0
111.954933 144.0
112.04554 212.0
112.190613 2112.0
112.294365 116.0
112.387215 76.0
112.475883 180.0
112.549797 84.0
112.668114 152.0
112.735756 56.0
112.822441 212.0
113.161186 144.0
113.195435 488.0
113.368721 172.0
113.737885 164.0
113.784927 160.0
113.880196 188.0
113.992836 48.0
114.092766 204.0
114.141685 96.0
114.201248 164.0
114.286377 128.0
114.384308 228.0
114.57177 104.0
114.61866 124.0
114.68261 164.0
114.890152 288.0
115.132942 136.0
115.167122 100.0
115.325294 56.0
115.635529 108.0
115.674072 128.0
115.873299 168.0
115.91188 240.0
116.016937 72.0
116.068413 100.0
116.381798 140.0
116.542946 160.0
117.052902 136.0
117.28566 208.0
117.460381 60.0
117.609322 160.0
117.795082 132.0
118.257973 152.0
118.286118 188.0
118.316437 140.0
118.789024 88.0
118.884521 168.0
118.947487 184.0
119.160385 104.0
119.325623 128.0
119.351723 144.0
119.586746 52.0
120.026962 40.0
120.163216 340.0
120.286674 212.0
120.419914 120.0
120.485466 164.0
120.798187 176.0
120.912003 104.0
121.036827 168.0
121.117889 168.0
121.14418 100.0
121.179245 156.0
121.28228 108.0
121.356842 140.0
121.438011 208.0
121.481895 172.0
121.497253 132.0
121.677277 140.0
121.802498 152.0
121.824471 160.0
121.881615 128.0
121.967354 204.0
122.090523 68.0
122.183395 808.0
122.429543 156.0
122.502258 116.0
122.586006 124.0
122.669792 72.0
122.762428 132.0
122.899231 156.0
123.007416 244.0
123.095757 168.0
123.165901 272.0
123.192146 204.0
123.387512 112.0
123.453873 156.0
123.599922 100.0
123.856819 320.0
124.162071 680.0
124.186684 140.0
124.264862 176.0
124.313087 220.0
124.354752 236.0
124.386963 184.0
124.406952 28.0
124.433601 184.0
124.584671 312.0
124.809227 112.0
124.962746 184.0
125.051788 60.0
125.16552 172.0
125.316879 136.0
125.4841 112.0
125.513092 132.0
126.060181 112.0
126.142403 304.0
126.180923 144.0
126.30172 144.0
126.330811 100.0
126.559174 152.0
126.628616 132.0
126.691353 208.0
126.72049 100.0
127.262581 204.0
127.396011 192.0
127.472427 80.0
127.652153 264.0
127.697319 88.0
127.86837 144.0
127.884132 176.0
128.153702 156.0
128.235611 164.0
128.395737 208.0
128.418304 40.0
128.492767 216.0
128.653061 168.0
128.727585 108.0
128.908371 180.0
129.126022 180.0
129.172989 164.0
129.191101 148.0
129.424286 172.0
129.476395 148.0
129.635025 176.0
129.687164 100.0
129.830048 180.0
129.845932 192.0
129.973007 140.0
130.054749 100.0
130.079712 152.0
130.095612 164.0
130.166122 172.0
130.284164 136.0
130.452393 164.0
130.582047 96.0
131.001007 180.0
131.134567 176.0
131.153 160.0
131.176544 140.0
131.395538 84.0
131.500549 184.0
131.546219 164.0
131.676407 140.0
131.99646 168.0
132.012466 204.0
132.060516 204.0
132.152054 116.0
132.202408 52.0
132.252777 128.0
132.527679 124.0
132.685883 168.0
133.059967 152.0
133.158752 100.0
133.354111 188.0
133.577225 184.0
133.618637 64.0
133.964081 124.0
134.05397 120.0
134.27536 120.0
134.354874 280.0
134.429993 76.0
134.496948 132.0
134.975327 196.0
135.088699 136.0
135.180679 92.0
135.431396 124.0
135.521774 252.0
135.575089 180.0
135.600601 56.0
135.878952 92.0
136.185486 196.0
136.413284 152.0
136.459793 180.0
136.647461 236.0
136.792587 168.0
137.051178 184.0
137.079163 100.0
137.122406 684.0
137.200394 224.0
137.32196 176.0
137.436035 160.0
137.473389 124.0
137.506073 188.0
137.576126 192.0
137.830795 176.0
138.008499 120.0
138.045914 148.0
138.125473 56.0
138.159073 132.0
138.189682 852.0
138.226028 3720.0
138.281113 40.0
138.32431 76.0
138.350189 60.0
138.544632 96.0
138.781433 204.0
138.81427 92.0
138.896393 80.0
139.016083 188.0
139.065384 108.0
139.187912 140.0
139.231689 424.0
139.290054 104.0
139.484802 168.0
139.518906 148.0
139.64592 52.0
139.699112 252.0
139.747116 108.0
139.853043 148.0
140.05751 432.0
140.116882 188.0
140.135727 128.0
140.170532 184.0
140.179642 140.0
140.205353 15052.0
140.274826 44.0
140.300766 64.0
140.351807 56.0
140.376251 80.0
140.409271 36.0
140.480057 56.0
140.574463 148.0
140.654739 52.0
140.753922 128.0
141.170654 508.0
141.210587 1524.0
141.435043 52.0
141.457016 144.0
141.482407 128.0
141.617416 136.0
141.641113 112.0
141.712219 76.0
141.769104 152.0
141.795181 48.0
141.984909 100.0
142.020493 204.0
142.039474 264.0
142.058472 128.0
142.122543 72.0
142.169662 132.0
142.205627 48.0
142.264999 144.0
142.300613 60.0
142.319626 104.0
142.341003 124.0
142.35762 88.0
142.435394 128.0
142.749863 152.0
142.890244 180.0
142.957138 192.0
142.99736 252.0
143.075943 140.0
143.14978 140.0
143.226013 124.0
143.273682 72.0
143.349945 180.0
143.366638 204.0
143.674332 152.0
143.79306 184.0
143.973282 156.0
144.179535 164.0
144.196472 228.0
144.422272 244.0
144.455765 128.0
144.714325 116.0
144.850876 104.0
145.131973 376.0
145.160156 168.0
145.184814 220.0
145.480728 252.0
145.700394 44.0
146.012985 160.0
146.061111 112.0
146.388535 180.0
146.415039 120.0
146.453583 172.0
146.800766 220.0
146.981735 104.0
147.010712 64.0
147.203888 232.0
147.25946 176.0
147.278793 164.0
147.327118 128.0
147.34404 156.0
147.428635 92.0
147.751114 184.0
147.822937 144.0
147.95369 128.0
148.011826 192.0
148.216705 180.0
148.423889 204.0
148.520935 160.0
149.123291 64.0
149.164627 176.0
149.204819 392.0
149.222992 212.0
149.337326 152.0
149.556381 192.0
149.71225 200.0
149.8414 40.0
149.982788 88.0
150.00473 68.0
150.109604 228.0
150.143753 152.0
150.299942 96.0
150.83252 220.0
151.099167 20.0
151.162811 68.0
151.451797 208.0
151.961884 176.0
151.981506 56.0
152.170105 472.0
152.213013 472.0
152.263916 176.0
152.307159 60.0
152.418732 76.0
152.467896 76.0
152.485107 76.0
152.561325 60.0
152.706467 28.0
152.844269 64.0
153.097916 148.0
153.144714 152.0
153.178207 688.0
153.21199 172.0
153.349289 44.0
153.687256 152.0
154.07254 144.0
154.144226 72.0
154.180573 148.0
154.312363 184.0
154.398941 156.0
154.433578 48.0
154.621674 124.0
155.192612 632.0
155.23378 120.0
155.38266 216.0
155.447189 184.0
155.548996 132.0
155.583755 68.0
155.655777 40.0
155.698013 60.0
155.727829 192.0
155.777527 132.0
155.911743 208.0
156.184326 140.0
156.362045 96.0
156.451782 192.0
156.511459 136.0
156.62854 68.0
156.680878 132.0
156.795547 176.0
157.229645 192.0
157.374466 208.0
157.491882 180.0
157.539368 176.0
157.851898 112.0
157.929443 120.0
158.019531 100.0
158.147202 224.0
158.19725 172.0
158.229843 140.0
158.54306 44.0
158.610748 172.0
158.635818 80.0
158.808899 192.0
158.864105 92.0
158.921829 112.0
159.162872 172.0
159.205582 148.0
159.318649 184.0
159.5625 176.0
159.718475 156.0
159.75119 184.0
159.992859 160.0
160.015533 228.0
160.081009 156.0
160.161636 136.0
160.53981 164.0
160.66597 140.0
160.913391 68.0
161.03717 180.0
161.241882 128.0
161.380966 104.0
161.573257 44.0
161.697281 168.0
162.158386 192.0
162.272507 128.0
162.42218 180.0
162.602386 176.0
162.724274 140.0
162.805557 116.0
162.932602 172.0
162.980896 96.0
163.085129 208.0
163.154083 608.0
163.545654 116.0
163.871735 128.0
164.15477 136.0
164.185379 228.0
164.251709 108.0
164.312958 184.0
164.420166 120.0
164.524857 76.0
164.675568 48.0
164.913269 148.0
165.092285 104.0
165.186172 3324.0
165.471115 48.0
165.740143 48.0
165.781158 176.0
165.94014 152.0
166.094055 128.0
166.122284 176.0
166.140244 164.0
166.191803 1440.0
166.238937 1608.0
166.34819 160.0
166.366165 56.0
166.391846 220.0
166.636368 112.0
166.792725 136.0
167.201813 748.0
167.247253 4628.0
167.325424 156.0
167.366638 100.0
167.400116 132.0
167.505753 104.0
167.553238 96.0
167.620117 32.0
167.708603 100.0
167.804794 60.0
167.938934 240.0
168.057648 60.0
168.17688 444.0
168.208603 276.0
168.250259 816.0
168.426941 144.0
168.522568 40.0
168.576843 128.0
168.659576 120.0
168.680267 160.0
168.778534 60.0
169.089081 148.0
169.183777 1288.0
169.221558 176.0
169.261185 200.0
169.316986 52.0
169.560593 144.0
169.612457 124.0
169.6306 44.0
169.739532 144.0
170.014603 176.0
170.183502 332.0
170.222351 108.0
170.370453 44.0
170.432831 76.0
170.729263 164.0
171.06105 144.0
171.166565 496.0
171.202835 176.0
171.333359 188.0
171.427185 224.0
171.552338 132.0
172.024673 156.0
172.048172 124.0
172.144806 168.0
172.20752 280.0
172.683365 132.0
173.026276 180.0
173.18869 204.0
173.262054 72.0
173.524231 120.0
173.650146 72.0
174.099075 164.0
174.885452 160.0
174.953918 116.0
175.130066 152.0
175.198929 136.0
175.314896 156.0
175.544327 44.0
175.573334 152.0
175.765976 68.0
176.185181 880.0
176.212357 208.0
176.336594 100.0
176.466171 228.0
176.508484 44.0
176.548172 136.0
176.81546 180.0
176.97699 56.0
177.080307 152.0
177.194061 1660.0
177.22229 132.0
177.541611 64.0
177.580643 300.0
177.653061 36.0
177.857452 76.0
177.968994 128.0
178.04071 116.0
178.202286 2188.0
178.25383 80.0
178.521881 152.0
178.897171 204.0
178.950439 60.0
178.97789 168.0
179.005295 276.0
179.179565 172.0
179.207474 704.0
179.531525 32.0
179.560883 92.0
179.630249 76.0
180.030746 200.0
180.186554 116.0
180.209778 168.0
180.292633 188.0
180.712601 100.0
180.747406 200.0
181.084824 196.0
181.195343 644.0
181.227325 848.0
181.344803 108.0
181.452072 48.0
181.481567 172.0
181.572784 180.0
181.618393 216.0
181.645218 76.0
181.714996 136.0
181.878754 68.0
182.139297 116.0
182.194885 304.0
182.23494 196.0
182.679794 140.0
182.954376 68.0
183.209473 2180.0
183.242111 120.0
183.374741 148.0
183.417877 192.0
183.469116 60.0
183.568909 200.0
183.919754 164.0
183.94136 160.0
184.049393 168.0
184.164108 164.0
184.212784 828.0
184.261215 2096.0
184.441254 172.0
184.46019 40.0
184.730698 68.0
184.755051 40.0
184.828125 152.0
185.069107 176.0
185.266129 528.0
185.508148 104.0
185.627487 124.0
185.890717 128.0
186.124573 160.0
186.164978 176.0
186.809372 124.0
186.989014 32.0
187.170929 100.0
187.253189 192.0
188.085083 152.0
188.451157 136.0
188.710907 208.0
188.839478 92.0
189.102219 216.0
189.318573 252.0
189.587143 68.0
189.647461 180.0
189.803772 180.0
189.90802 140.0
190.056213 196.0
190.210892 192.0
190.256638 84.0
190.277954 100.0
190.341782 100.0
190.38298 164.0
190.699036 132.0
190.888794 204.0
190.927307 112.0
191.141953 188.0
191.219498 1112.0
191.312668 40.0
191.483444 96.0
192.023819 156.0
192.225159 280.0
192.377136 112.0
192.656143 196.0
192.880051 196.0
192.935364 176.0
193.029404 120.0
193.159439 160.0
193.200577 1072.0
193.237045 776.0
193.361481 164.0
193.400253 108.0
193.659317 180.0
193.790848 184.0
193.965515 120.0
194.073669 120.0
194.159653 200.0
194.208908 1200.0
194.254578 4356.0
194.373337 60.0
194.426086 84.0
194.612137 76.0
194.687134 56.0
194.914993 100.0
195.156906 308.0
195.217636 1640.0
195.260025 924.0
195.485245 88.0
195.641174 28.0
196.084213 164.0
196.194122 204.0
196.226181 364.0
196.278061 172.0
196.427277 100.0
196.455185 132.0
196.49147 112.0
196.58078 160.0
196.656158 108.0
196.792999 256.0
196.837692 68.0
196.860031 248.0
197.024887 184.0
197.121704 188.0
197.198029 1960.0
197.233047 1560.0
197.301666 100.0
197.360397 124.0
197.486282 180.0
197.760574 100.0
197.883789 40.0
198.135941 100.0
198.202744 416.0
198.235474 148.0
198.276093 100.0
198.357407 192.0
198.379837 60.0
198.59021 192.0
198.694046 180.0
198.713684 68.0
198.733337 72.0
198.75528 88.0
198.896164 176.0
198.927048 208.0
199.160187 92.0
199.181335 168.0
199.187393 88.0
199.197769 140.0
199.224823 152.0
199.458145 136.0
199.511566 92.0
199.562195 248.0
199.933624 188.0
200.040619 140.0
200.080048 80.0
200.167358 124.0
200.226517 68.0
200.263153 48.0
200.353317 104.0
200.387131 104.0
200.499893 76.0
200.570374 120.0
200.993561 236.0
201.202484 124.0
201.711151 104.0
201.869537 168.0
202.124222 220.0
202.211807 460.0
202.452698 144.0
202.716507 44.0
203.234146 476.0
203.269394 120.0
203.55336 104.0
203.883011 136.0
204.010956 104.0
204.234314 556.0
204.463364 112.0
204.534546 204.0
204.699738 92.0
204.745316 124.0
204.799454 60.0
204.859283 52.0
205.018906 84.0
205.213791 208.0
205.312637 92.0
205.983612 144.0
206.218582 156.0
206.335236 112.0
206.360977 156.0
206.65567 180.0
206.864655 140.0
207.131058 124.0
207.17691 112.0
207.232452 316.0
207.260025 156.0
207.300156 164.0
207.432037 168.0
207.655777 112.0
207.770554 52.0
207.813599 160.0
207.951385 192.0
208.126572 148.0
208.198212 216.0
208.238602 124.0
208.301819 132.0
208.425125 172.0
208.894196 224.0
208.917206 84.0
209.110062 176.0
209.241257 2440.0
209.270996 204.0
209.375031 152.0
209.746841 40.0
209.853531 112.0
209.931412 56.0
210.121033 84.0
210.162262 140.0
210.216431 656.0
210.246353 500.0
210.277725 64.0
210.39035 96.0
210.453888 124.0
210.595444 144.0
210.66478 244.0
210.881577 88.0
211.133194 60.0
211.219833 316.0
211.570267 56.0
212.19046 120.0
212.225266 116.0
212.361618 192.0
212.855133 156.0
212.942291 32.0
213.041077 168.0
213.061432 160.0
213.292877 168.0
213.389954 68.0
213.421951 252.0
213.555771 128.0
213.66925 112.0
213.945831 168.0
214.126419 200.0
214.152634 76.0
214.24588 152.0
214.757538 224.0
215.229111 112.0
215.366425 192.0
215.434769 188.0
215.480392 156.0
215.685028 100.0
216.132629 160.0
216.202881 160.0
216.229233 132.0
216.484024 192.0
216.560196 128.0
216.598282 136.0
216.841553 196.0
217.152451 208.0
217.237534 116.0
217.572205 208.0
218.225357 168.0
218.613068 68.0
218.677841 168.0
218.898712 216.0
218.931122 200.0
218.992981 100.0
219.19928 160.0
219.234161 592.0
219.736099 64.0
219.76561 204.0
220.116989 92.0
220.190842 92.0
220.211533 96.0
220.24263 176.0
220.379974 112.0
220.672684 136.0
220.799881 104.0
221.01886 164.0
221.089905 196.0
221.21582 1152.0
221.253036 1384.0
221.311996 176.0
221.489746 48.0
221.58754 140.0
221.881042 64.0
221.975952 132.0
222.177719 200.0
222.221893 668.0
222.258926 540.0
222.453796 156.0
222.646866 44.0
223.030273 60.0
223.074875 80.0
223.095688 184.0
223.14624 224.0
223.199524 332.0
223.229614 1480.0
223.280106 156.0
223.300934 76.0
223.809982 156.0
223.979782 72.0
224.235397 744.0
224.376266 84.0
224.441879 52.0
224.534363 244.0
224.802948 112.0
224.886536 76.0
225.056763 148.0
225.209122 140.0
225.642563 72.0
225.681442 140.0
226.097397 96.0
226.542511 184.0
226.89444 144.0
226.933426 164.0
227.154984 136.0
227.39856 232.0
227.431915 180.0
228.076019 120.0
228.402451 116.0
228.465652 136.0
228.670334 160.0
228.73056 96.0
228.838974 248.0
228.920303 48.0
229.040802 208.0
229.239731 116.0
229.363342 160.0
229.402542 120.0
229.818878 136.0
230.205383 120.0
230.336014 184.0
230.383652 208.0
230.435028 112.0
230.817978 116.0
231.472855 176.0
231.500122 128.0
231.57283 76.0
231.654648 116.0
231.784958 196.0
232.26326 180.0
233.100082 144.0
233.245255 72.0
233.28479 68.0
233.631592 104.0
233.735077 172.0
233.859894 160.0
234.707092 80.0
234.737595 164.0
234.786407 128.0
234.893188 108.0
235.244247 124.0
235.476379 124.0
235.558884 104.0
235.638336 156.0
235.731995 212.0
235.922653 176.0
236.020538 116.0
236.243881 176.0
236.265289 128.0
236.764389 180.0
236.813416 84.0
237.107635 116.0
237.172028 76.0
237.220459 156.0
237.258041 5708.0
237.337631 36.0
237.494095 68.0
237.61377 60.0
237.721191 56.0
237.751892 184.0
237.829651 208.0
237.880859 100.0
237.936127 72.0
237.973816 44.0
238.006775 208.0
238.062057 52.0
238.132721 48.0
238.212479 172.0
238.260986 1336.0
238.320175 116.0
238.372437 120.0
238.504639 208.0
238.575363 120.0
238.622208 104.0
238.737167 152.0
238.787598 56.0
238.820297 128.0
238.829758 80.0
238.862259 180.0
238.894119 200.0
238.935303 100.0
239.003967 324.0
239.027634 180.0
239.054779 132.0
239.079041 272.0
239.090683 176.0
239.144409 364.0
239.193466 260.0
239.239227 70780.0
239.322845 104.0
239.397171 40.0
239.427139 164.0
239.481674 96.0
239.504227 96.0
239.55249 132.0
239.598694 100.0
239.624878 80.0
239.657944 76.0
239.663406 80.0
239.680038 60.0
239.708405 88.0
239.746414 224.0
239.813217 72.0
239.85022 96.0
239.917038 60.0
239.972412 188.0
240.020874 128.0
240.104706 236.0
240.242386 12416.0
240.316528 104.0
240.343826 40.0
240.387054 64.0
240.454239 140.0
240.501923 116.0
240.521561 84.0
240.560867 160.0
240.627884 60.0
240.680389 76.0
240.705109 60.0
240.783875 72.0
240.816315 48.0
240.88121 56.0
240.915207 72.0
240.952286 120.0
240.986282 204.0
241.011017 52.0
241.109772 76.0
241.200592 100.0
241.246063 2300.0
241.323303 100.0
241.380341 136.0
241.437744 80.0
241.500702 92.0
241.535049 80.0
241.564606 128.0
241.611023 104.0
241.660538 112.0
241.700775 92.0
241.742447 156.0
241.774002 76.0
241.799698 84.0
241.813614 152.0
241.882843 208.0
241.935593 228.0
241.940613 104.0
241.952942 104.0
242.000092 124.0
242.06308 92.0
242.109543 76.0
242.165924 80.0
242.23967 192.0
242.261368 128.0
242.304749 36.0
242.335739 104.0
242.441132 104.0
242.472137 48.0
242.649994 112.0
242.692307 48.0
242.751251 100.0
242.913712 120.0
242.985504 88.0
243.058456 108.0
243.095703 56.0
243.13916 36.0
243.415543 44.0
243.443497 60.0
243.590714 84.0
243.667221 116.0
244.186523 180.0
244.298538 76.0
244.379456 72.0
244.441711 140.0
244.466614 52.0
244.65654 116.0
244.887054 192.0
245.35463 100.0
245.473145 96.0
245.68219 84.0
245.910065 84.0
246.203629 76.0
246.362991 176.0
246.43927 128.0
246.541153 196.0
246.591171 132.0
246.794434 140.0
246.907043 168.0
247.249496 312.0
247.329575 160.0
247.376541 48.0
247.454834 80.0
248.254272 280.0
248.524002 72.0
248.900787 128.0
249.913254 84.0
250.236359 332.0
250.593582 176.0
250.666077 60.0
250.883621 36.0
251.250168 576.0
251.375839 176.0
251.669495 144.0
252.178268 156.0
252.24231 192.0
252.434433 56.0
252.788849 52.0
252.817352 108.0
253.149857 112.0
253.419189 84.0
253.628418 128.0
253.745758 44.0
253.964645 56.0
254.024933 76.0
254.069366 44.0
254.920593 84.0
255.202393 96.0
256.075836 180.0
256.273407 132.0
256.560333 48.0
256.809143 236.0
257.042114 172.0
257.083618 112.0
257.201752 52.0
257.300751 56.0
257.498779 228.0
258.080597 116.0
258.39093 132.0
258.800751 64.0
258.823181 104.0
259.32309 100.0
259.480225 144.0
259.560425 128.0
260.465759 188.0
261.160309 36.0
261.244537 112.0
261.295441 208.0
261.391998 48.0
262.916809 48.0
263.346344 152.0
264.077057 96.0
264.122345 132.0
264.25827 132.0
264.413666 116.0
264.64032 144.0
264.711578 128.0
264.734253 212.0
264.824982 44.0
264.861816 108.0
264.890289 200.0
264.944885 60.0
264.970795 100.0
265.035614 132.0
265.126556 168.0
265.150696 136.0
265.190155 132.0
265.273163 36992.0
265.379303 68.0
265.405273 200.0
265.456421 88.0
265.492859 100.0
265.523438 84.0
265.572144 172.0
265.65509 44.0
265.737335 148.0
265.79422 192.0
265.832642 108.0
265.872803 60.0
265.93924 52.0
265.982941 32.0
266.015411 64.0
266.168915 168.0
266.223267 84.0
266.276367 8584.0
266.351379 168.0
266.389587 88.0
266.453979 92.0
266.53064 68.0
266.557373 64.0
266.588806 52.0
266.671783 48.0
266.857727 64.0
266.912415 80.0
266.961212 76.0
266.983978 64.0
267.032776 76.0
267.117401 132.0
267.20459 196.0
267.244324 76.0
267.279785 1244.0
267.472198 60.0
267.527557 112.0
267.595947 32.0
267.664337 96.0
267.734863 68.0
267.764313 64.0
267.804443 88.0
267.845612 148.0
267.913422 36.0
268.055359 128.0
268.151367 144.0
268.174988 152.0
268.244476 80.0
268.28241 256.0
268.305878 96.0
268.339996 108.0
268.391357 96.0
268.714905 100.0
268.743622 72.0
268.870941 164.0
268.90683 60.0
268.965607 44.0
269.122375 48.0
269.168091 84.0
269.543884 64.0
269.671387 40.0
269.726959 108.0
270.122772 52.0
270.348602 68.0
271.157806 92.0
271.239777 88.0
271.758087 40.0
272.211243 108.0
273.447754 60.0
274.011047 144.0
274.541931 60.0
274.951141 140.0
275.261566 120.0
276.342804 84.0
277.266968 96.0
278.069855 112.0
278.551483 164.0
280.632202 108.0
281.386475 168.0
283.290039 108.0
283.457275 72.0
283.504578 68.0
283.531799 156.0
283.725861 36.0
284.407074 160.0
284.611938 100.0
288.511444 76.0
289.07309 116.0
289.222076 48.0
289.994598 76.0
290.75116 88.0
291.525726 200.0
292.301331 260.0
293.057495 220.0
293.287415 1640.0
293.335022 188.0
293.678131 60.0
294.294678 688.0
294.457947 100.0
294.736816 88.0
295.140289 56.0
295.293793 160.0
296.3284 172.0
299.838043 144.0
300.956085 140.0
301.039001 48.0
301.5401 232.0
301.61618 104.0
303.524414 160.0
305.793701 176.0
305.849426 64.0
306.633362 148.0
307.05188 148.0
307.345001 60.0
308.12738 224.0
309.183746 32.0
309.337799 56.0
309.705597 108.0
310.010498 132.0
310.133209 56.0
310.325684 9080.0
310.400696 212.0
310.438324 40.0
310.61026 52.0
310.6409 60.0
310.694458 108.0
310.78006 156.0
310.817322 92.0
310.908569 76.0
311.122772 52.0
311.256226 40.0
311.329529 1640.0
311.628693 48.0
311.899384 124.0
311.959167 32.0
312.157501 152.0
312.329193 328.0
312.610046 100.0
312.926971 48.0
313.08194 116.0
313.293365 80.0
313.459015 96.0
313.631775 80.0
314.026794 44.0
314.732849 68.0
316.29245 72.0
316.540375 72.0
316.671448 56.0
320.705566 108.0
322.335999 312.0
323.349487 148.0
323.93689 60.0
324.349121 136.0
324.406494 92.0
328.218842 80.0
329.041779 52.0
329.807861 104.0
333.375397 124.0
334.415894 124.0
335.414246 184.0
340.079498 108.0
341.487183 76.0
343.809052 72.0
344.355652 84.0
344.880493 152.0
348.123352 96.0
349.424774 128.0
350.445282 52.0
350.956085 108.0
351.534454 112.0
352.307617 80.0
352.442169 160.0
353.373474 84.0
353.523193 96.0
355.588898 136.0
355.817963 40.0
359.813843 52.0
360.830505 80.0
361.988708 132.0
375.414673 116.0
379.282257 72.0
384.304657 68.0
384.777069 116.0
385.855743 68.0
388.381439 80.0
392.016449 120.0
394.314056 108.0
395.580231 88.0
401.7659 156.0
402.212982 116.0
403.451782 116.0
403.755768 92.0
403.895782 92.0
404.23999 92.0
404.329834 136.0
404.364075 108.0
404.469513 6196.0
404.572296 52.0
404.847534 128.0
405.0065 92.0
405.072113 124.0
405.1091 168.0
405.205292 68.0
405.24939 112.0
405.276642 40.0
405.47406 2328.0
405.550049 108.0
405.610199 84.0
405.734497 52.0
405.774597 104.0
406.183807 68.0
406.478699 448.0
406.649384 40.0
406.702545 68.0
406.789917 76.0
407.462585 140.0
408.438019 156.0
408.594971 88.0
412.253387 36.0
416.066162 56.0
421.914368 96.0
422.736786 100.0
425.746826 128.0
426.433167 160.0
426.684021 160.0
426.815643 104.0
428.042267 40.0
428.132904 96.0
429.35318 184.0
431.145538 104.0
434.508972 156.0
436.507507 148.0
444.866638 76.0
452.195129 40.0
452.258636 80.0
455.733032 68.0
461.181183 112.0
465.174744 112.0
473.135559 84.0
480.875702 60.0
484.195251 68.0
485.06308 128.0
488.304626 32.0
507.316589 68.0
520.659241 80.0
546.415771 108.0
553.718994 64.0
557.2948 88.0
560.95282 96.0
586.633545 108.0
586.922913 64.0
599.984436 112.0
602.963013 96.0
645.088501 52.0
647.300232 72.0
657.414795 72.0
661.878906 48.0
664.622192 84.0
689.901245 68.0
712.204895 80.0
713.039368 296.0
743.247498 68.0
752.547363 108.0
760.449463 68.0
763.912354 136.0
786.166321 196.0
794.438843 64.0
796.522217 128.0
797.444031 88.0
799.23291 148.0
802.720886 120.0
804.069641 104.0
815.929504 148.0
820.354431 116.0
827.813171 200.0
855.637085 68.0
876.64325 76.0
878.784424 68.0
895.090332 116.0
896.079407 124.0
901.517151 272.0
903.383301 104.0
906.821472 44.0
916.753235 212.0
917.054688 148.0
917.718018 248.0
918.846252 44.0
920.102051 100.0
924.152832 64.0
924.570496 204.0
928.443054 164.0
932.317566 48.0
956.109863 180.0
957.575623 96.0
960.714172 308.0
961.325195 184.0
973.667664 172.0
974.581116 232.0
980.862732 220.0
989.536743 180.0
1009.680054 128.0
1022.449036 48.0
1024.73584 64.0
1026.195923 232.0
1026.986938 188.0
1035.086914 264.0
1038.837524 140.0
1044.177124 192.0
1048.621094 288.0
1050.02063 140.0
1054.483398 88.0
1067.239014 164.0
1086.716431 164.0
1090.00061 96.0
1094.442139 244.0
1098.655151 224.0
1109.9823 172.0
1114.922852 184.0
1115.481445 116.0
1115.54126 64.0
1116.419189 76.0
1118.648926 40.0
1125.732056 120.0
1130.225586 176.0
1131.129395 116.0
1140.194092 124.0
1141.00769 140.0
1145.349609 144.0
1149.004639 212.0
1150.949097 176.0
1152.462646 120.0
1153.38208 80.0
1155.472412 164.0
1159.401123 88.0
1159.733276 132.0
1161.666504 184.0
1162.026123 120.0
1176.124634 164.0
1183.387207 216.0
1184.496948 160.0
1187.918823 132.0
1187.980469 172.0
1188.598267 176.0
1188.694336 148.0
1190.747681 120.0
1191.386719 188.0
1192.5896 56.0
1197.882935 132.0
1200.337402 48.0
1205.067139 192.0
1205.122437 216.0
1205.599365 148.0
1211.815308 160.0
1212.799683 200.0
1213.846924 68.0
1221.34314 208.0
1222.616821 72.0
1224.12793 172.0
1225.730713 164.0
1226.469727 168.0
1227.83667 176.0
1235.865845 124.0
1239.578247 196.0
1240.272339 168.0
1244.117798 48.0
1247.280029 164.0
1248.813354 128.0
1255.986206 152.0
1256.346069 184.0
1263.483765 132.0
1267.485596 92.0
1272.402466 264.0
1277.385864 224.0
1284.540283 108.0
1286.967651 164.0
1290.999146 176.0
1297.667969 56.0
1299.174561 152.0
1302.08252 152.0
1302.808228 132.0
1303.340088 132.0
1309.824463 192.0
1310.437012 228.0
1313.790527 188.0
1315.061035 112.0
1315.227051 192.0
1318.969971 36.0
1324.637817 60.0
1329.823975 168.0
1330.49939 80.0
1333.616699 176.0
1338.164917 36.0
1342.80835 144.0
1343.260742 140.0
1343.523438 88.0
1345.355835 104.0
1345.699097 240.0
1347.648438 200.0
1348.607544 44.0
1349.207153 60.0
1359.20813 144.0
1359.829712 204.0
1360.742676 44.0
1361.675659 228.0
1363.013062 68.0
1363.660034 88.0
1365.587036 60.0
1366.080078 88.0
1366.55835 128.0
1367.0 144.0
1370.734741 56.0
1372.06189 140.0
1375.892212 152.0
1376.268799 200.0
1377.923828 180.0
1378.714844 176.0
1380.178955 140.0
1380.763306 160.0
1381.007446 20.0
1381.7771 104.0
1383.405762 160.0
1387.822876 200.0
1388.57959 156.0
1392.105957 256.0
1394.223877 232.0
1394.803833 156.0
1398.58374 116.0
1398.650757 168.0
1399.484863 112.0
1400.207397 52.0
1402.413574 132.0
1402.704346 196.0
1402.980225 148.0
1403.890259 140.0
1409.012451 148.0
1409.169312 172.0
1409.490723 184.0
1409.544678 228.0
1410.687866 164.0
1413.275513 172.0
1413.956787 116.0
1415.491943 228.0
1416.345337 220.0
1416.645752 236.0
1416.735718 212.0
1418.887329 188.0
1421.453369 188.0
1422.016357 176.0
1422.849854 120.0
1422.91748 180.0
1425.735229 144.0
1429.014893 156.0
1433.247925 136.0
1435.487427 144.0
1438.068481 160.0
1438.287476 152.0
1439.556274 148.0
1440.553589 172.0
1440.91626 208.0
1441.657104 136.0
1443.691284 160.0
1445.984375 168.0
1449.128052 164.0
1449.431274 124.0
1452.464844 188.0
1452.798706 144.0
1453.960083 212.0
1455.007935 64.0
1461.325928 112.0
1462.353516 176.0
1464.341431 172.0
1465.591187 108.0
1466.246704 56.0
1466.704224 296.0
1469.229126 184.0
1471.06897 212.0
1477.628296 204.0
1480.928711 136.0
1481.963257 172.0
1482.691528 188.0
1483.174561 224.0
1484.33252 140.0
1488.907837 164.0
1489.991333 208.0
1492.613159 60.0
1492.990112 140.0
1494.752319 104.0
1499.328125 204.0
1500.423096 180.0
1502.722168 128.0
1503.548218 92.0
1504.490234 200.0
1505.308838 124.0
