>compound VINCRISTINE SULFATE
>formula C46H56N4O10
>ionization [M+H]+
>parentmass 825.407776
#inchi InChI=1S/C46H56N4O10/c1-7-42(55)22-28-23-45(40(53)58-5,36-30(14-18-48(24-28)25-42)29-12-9-10-13-33(29)47-36)32-20-31-34(21-35(32)57-4)50(26-51)38-44(31)16-19-49-17-11-15-43(8-2,37(44)49)39(60-27(3)52)46(38,56)41(54)59-6/h9-13,15,20-21,26,28,37-39,47,55-56H,7-8,14,16-19,22-25H2,1-6H3/t28-,37-,38+,39+,42-,43+,44+,45-,46-/m0/s1
#inchikey OGWKCGZFUXNPDA
#Ion_Source LC-ESI
#Instrument qTof
#Compound_Source Commercial
#PI Dorrestein
#Data_Collector Garg_Neha
#Scan -1
#Precursor_MZ 825.407
#ExactMass 824.4
#Charge 1
#CAS_Number N/A
#Pubmed_ID N/A
#Smiles CC[C@]1(O)C[C@@H]2CN(C1)CCc3c([nH]c4ccccc34)[C@@](C2)(C(=O)OC)c5cc6c(cc5OC)N(C=O)[C@@H]7[C@@]86CCN9CC=C[C@](CC)([C@H]98)[C@@H](OC(=O)C)[C@]7(O)C(=O)OC
#INCHI_AUX N/A
#Library_Class 1
#SpectrumID CCMSLIB00000079222
#IonMode Positive
#UpdateWorkflowName UPDATE-SINGLE-ANNOTATED-GOLD
#LibraryQualityString Gold
#TaskID 278b19f5865741e282cec7349aa7e7a1
##Scan# 1079
#SpectrumFile NCP003672_A27B27C27D27_BE4_01_15740.mzXML
#LibraryName NIHcollectionI_05062014.mgf
#MQScore -1
#Organism NIHcollectionI_05062014
#TIC_Query 0
#RT_Query -1
#MZErrorPPM -1
#SharedPeaks 0
#MassDiff 0
#LibMZ -1
#SpecMZ 825.407
#SpecCharge 0
#internalFilename spec-00000.mgf

>collision 10
77.221344 176.0
109.095757 168.0
116.914452 144.0
122.101532 200.0
124.111702 232.0
134.102341 196.0
138.133926 204.0
140.107605 148.0
142.117233 148.0
144.077438 284.0
147.694534 204.0
152.107849 148.0
154.060226 160.0
156.085129 188.0
156.133514 152.0
164.10527 184.0
165.528488 140.0
168.074387 128.0
178.122238 152.0
186.098785 140.0
192.070312 148.0
194.133545 212.0
222.106842 188.0
223.654922 180.0
224.129074 500.0
225.137131 564.0
226.147079 200.0
228.093857 148.0
254.10556 160.0
264.176575 204.0
265.172974 264.0
265.214478 140.0
266.171509 176.0
278.175323 156.0
293.171265 160.0
295.185028 140.0
305.163605 176.0
312.515656 180.0
336.183441 184.0
337.189331 276.0
353.145905 176.0
355.202026 148.0
356.236572 208.0
367.139252 144.0
368.20401 140.0
370.192627 152.0
383.186768 168.0
393.71109 220.0
394.181183 168.0
395.917816 184.0
400.219849 168.0
412.220123 148.0
413.219025 164.0
425.159882 140.0
425.190918 168.0
428.15918 184.0
435.199127 104.0
437.197815 156.0
442.225677 192.0
453.197388 188.0
454.234558 184.0
455.215088 128.0
465.283112 196.0
466.219482 144.0
467.210663 168.0
492.267975 176.0
494.58905 140.0
501.268585 216.0
507.252991 152.0
511.200836 168.0
529.307068 344.0
531.242981 140.0
532.248108 152.0
540.275696 120.0
541.291687 112.0
542.28656 160.0
548.762024 148.0
550.731323 172.0
552.296936 112.0
554.272766 140.0
556.284729 116.0
557.27771 164.0
562.22937 148.0
564.272278 128.0
566.273987 244.0
571.312561 176.0
572.312012 172.0
576.299316 164.0
584.285828 148.0
587.292847 148.0
588.296509 148.0
589.368713 168.0
590.281982 144.0
596.248352 104.0
598.984253 192.0
599.292603 352.0
600.281982 144.0
602.286316 116.0
604.307983 232.0
606.332703 196.0
612.294556 172.0
616.29425 160.0
623.301758 108.0
627.322021 144.0
628.3526 152.0
636.313171 124.0
637.380066 144.0
639.401611 144.0
646.340332 232.0
648.321106 128.0
649.386169 164.0
650.313232 112.0
654.27771 160.0
655.337524 116.0
659.368958 236.0
661.32782 168.0
663.352234 120.0
664.30835 252.0
664.343018 148.0
665.326477 112.0
665.349609 96.0
670.134766 180.0
674.32782 100.0
676.310486 140.0
677.304749 140.0
678.309021 144.0
678.342896 388.0
679.337952 104.0
682.011353 148.0
683.332214 144.0
687.341614 148.0
687.432922 172.0
688.360535 108.0
691.346985 172.0
694.32959 112.0
695.31842 100.0
696.350525 216.0
697.351929 220.0
701.325745 140.0
705.366272 1164.0
706.140991 180.0
706.370056 448.0
707.36554 188.0
715.33429 132.0
716.373901 136.0
717.351379 100.0
719.394958 172.0
723.380493 768.0
724.371033 164.0
725.378662 292.0
733.364014 448.0
734.369202 252.0
736.328369 148.0
737.393921 120.0
747.375671 248.0
748.373718 408.0
749.379028 236.0
765.383362 1912.0
765.533264 196.0
766.388428 708.0
767.390442 340.0
768.392151 140.0
775.365479 236.0
776.372986 100.0
777.662781 140.0
778.376465 136.0
781.552795 192.0
783.393738 568.0
785.361023 128.0
789.18866 152.0
793.369934 148.0
800.860046 204.0
806.763611 156.0
807.395752 1676.0
807.566528 160.0
808.400269 1000.0
809.401428 216.0
810.306335 192.0
812.080627 140.0
813.34021 140.0
822.382141 164.0
823.389282 1036.0
824.398071 420.0
825.148315 100.0
825.201172 144.0
825.298035 204.0
825.407776 11124.0
825.54718 164.0
825.684875 136.0
826.413513 5484.0
826.5401 164.0
826.627563 140.0
827.032898 156.0
827.29364 124.0
827.411377 1908.0
828.067749 156.0
828.136475 164.0
828.336975 156.0
828.42041 376.0
829.374084 148.0
829.418762 244.0
829.944336 160.0
830.378967 324.0
831.365723 136.0
833.190125 292.0
