>compound MLS002153946-01!Tetrandrine
>formula C38H42N2O6
>ionization [M+H]+
>parentmass 623.309692
#inchi InChI=1S/C38H42N2O6/c1-39-15-13-25-20-32(42-4)34-22-28(25)29(39)17-23-7-10-27(11-8-23)45-33-19-24(9-12-31(33)41-3)18-30-36-26(14-16-40(30)2)21-35(43-5)37(44-6)38(36)46-34/h7-12,19-22,29-30H,13-18H2,1-6H3/t29-,30-/m0/s1
#inchikey WVTKBKWTSCPRNU
#Ion_Source LC-ESI
#Instrument qTof
#Compound_Source NIH Pharmacologically Active Library
#PI Dorrestein
#Data_Collector VP/LMS
#Scan -1
#Precursor_MZ 623.319
#ExactMass 622.304
#Charge 1
#CAS_Number N/A
#Pubmed_ID N/A
#Smiles COc1cc2CCN(C)[C@H]3Cc4ccc(OC)c(Oc5ccc(C[C@@H]6N(C)CCc7cc(OC)c(Oc(c1OC)c32)cc67)cc5)c4
#INCHI_AUX N/A
#Library_Class 1
#SpectrumID CCMSLIB00000085685
#IonMode Positive
#UpdateWorkflowName UPDATE-SINGLE-ANNOTATED-GOLD
#LibraryQualityString Gold
#TaskID d252d724072548979f1f6f1ced849daf
##Scan# 1449
#SpectrumFile p4-E03_GE3_01_18375.mzXML
#LibraryName Pharm_Active_Library.mgf
#MQScore -1
#Organism Pharm_Active_Library
#TIC_Query 0
#RT_Query -1
#MZErrorPPM -1
#SharedPeaks 0
#MassDiff 0
#LibMZ -1
#SpecMZ 623.319
#SpecCharge 0
#internalFilename spec-00000.mgf

>collision 10
45.204529 148.0
45.413528 156.0
45.546413 32.0
45.588066 72.0
45.668732 128.0
45.726589 156.0
45.741394 240.0
45.97052 152.0
46.475258 104.0
46.539051 108.0
46.635506 184.0
47.056446 100.0
47.413475 172.0
47.502598 92.0
47.897118 164.0
48.282204 160.0
48.33754 180.0
48.672997 176.0
49.022156 260.0
49.223034 176.0
49.74049 148.0
49.968727 196.0
50.127838 184.0
50.158844 184.0
50.264622 188.0
50.490654 120.0
50.646343 128.0
50.84626 104.0
52.334427 204.0
53.036541 80.0
53.139503 196.0
53.232403 168.0
53.296318 80.0
53.398079 224.0
53.443176 188.0
53.749168 156.0
54.058964 148.0
54.859459 156.0
54.978931 132.0
55.658409 96.0
55.746052 200.0
56.307701 128.0
56.666718 124.0
56.728165 48.0
56.741657 144.0
57.145676 168.0
57.364052 152.0
58.064133 52.0
58.466736 184.0
59.552269 160.0
59.75211 176.0
60.259354 160.0
60.38921 48.0
61.670418 100.0
61.772057 140.0
62.053951 136.0
62.41037 196.0
64.436043 208.0
64.648712 60.0
64.70153 140.0
65.622139 56.0
66.194145 168.0
66.311783 104.0
66.352936 132.0
66.425911 108.0
66.565491 204.0
66.757248 168.0
67.2509 208.0
67.875084 180.0
68.465805 200.0
68.835205 140.0
69.904427 212.0
70.1838 180.0
70.317734 136.0
70.389519 212.0
70.447983 36.0
70.641899 148.0
71.025497 72.0
71.16983 140.0
71.213493 60.0
71.452194 172.0
71.80088 180.0
72.016922 196.0
72.28141 184.0
72.316193 140.0
72.365288 188.0
72.39238 176.0
72.999908 140.0
73.069641 136.0
73.260323 188.0
73.657791 188.0
73.683418 56.0
73.833839 136.0
74.490311 124.0
74.722397 128.0
74.810165 164.0
75.084137 124.0
75.261879 120.0
75.322327 124.0
75.377617 28.0
75.451935 236.0
76.218033 228.0
76.518936 52.0
76.80648 160.0
77.800453 68.0
77.858391 56.0
77.881226 208.0
77.942719 136.0
77.990166 140.0
78.027084 176.0
78.053459 136.0
78.266373 132.0
79.862686 144.0
80.604332 88.0
80.725891 72.0
80.888702 144.0
81.248909 136.0
81.277618 252.0
81.557777 212.0
81.721428 88.0
82.522255 72.0
83.208931 168.0
83.554245 132.0
84.015175 116.0
85.275002 124.0
85.43866 152.0
86.349907 168.0
86.61274 60.0
86.653496 116.0
86.753571 104.0
86.875969 52.0
86.94648 156.0
87.193489 68.0
87.347809 160.0
87.420372 192.0
88.12896 40.0
90.033775 36.0
90.309715 52.0
90.574707 160.0
90.933067 200.0
90.974831 140.0
91.657631 204.0
91.823486 104.0
91.916962 176.0
92.054405 180.0
92.165199 168.0
92.318123 160.0
92.383156 192.0
92.582214 240.0
94.082016 152.0
94.354424 140.0
94.702744 76.0
94.925621 132.0
95.232254 180.0
95.815842 232.0
95.944466 212.0
96.045868 160.0
96.334778 96.0
96.588898 156.0
96.784607 216.0
97.302231 160.0
97.355247 176.0
97.799583 236.0
97.872421 52.0
98.543045 140.0
98.659653 104.0
99.041573 132.0
99.716179 176.0
99.889168 128.0
100.600586 132.0
100.820297 128.0
100.944244 200.0
101.924469 204.0
101.957237 144.0
103.01445 188.0
103.054573 200.0
103.297462 196.0
103.603142 128.0
104.034325 104.0
104.402878 324.0
104.57988 64.0
105.071678 180.0
105.160774 80.0
105.428322 112.0
105.849731 36.0
106.208389 152.0
106.403343 136.0
106.491646 84.0
107.047272 120.0
107.197304 148.0
107.483932 116.0
107.837074 180.0
107.911499 200.0
108.06041 236.0
108.197006 116.0
108.399994 184.0
109.394875 120.0
110.511436 148.0
110.706108 104.0
110.741707 144.0
111.253357 252.0
112.67704 56.0
112.731979 216.0
113.413467 152.0
113.597946 172.0
113.682823 104.0
114.020493 128.0
114.929794 180.0
115.055252 348.0
115.183853 200.0
115.23085 152.0
115.335564 216.0
115.395424 176.0
115.50663 116.0
116.050598 200.0
116.181427 116.0
116.582947 156.0
116.920593 240.0
117.899704 156.0
118.070107 156.0
118.092125 128.0
118.182983 132.0
118.325836 208.0
118.737549 144.0
118.826485 136.0
118.887245 76.0
119.050064 144.0
119.123909 100.0
119.506546 152.0
119.550064 140.0
120.201637 192.0
120.811226 92.0
120.879051 40.0
121.055717 148.0
121.157127 64.0
121.198753 76.0
121.244774 116.0
121.569344 164.0
121.66153 196.0
121.846008 196.0
121.889954 104.0
122.032829 128.0
122.058784 184.0
122.066582 148.0
122.162582 120.0
123.042992 132.0
123.08165 180.0
123.831337 136.0
124.092827 48.0
124.123871 156.0
124.661072 92.0
125.108147 152.0
125.239525 72.0
125.455673 196.0
125.567169 124.0
125.788063 56.0
125.968941 216.0
126.174538 36.0
126.326614 140.0
126.46759 100.0
126.559372 148.0
126.604156 184.0
127.032265 360.0
127.088348 56.0
127.530762 176.0
127.582458 184.0
127.712883 132.0
128.04599 68.0
128.709 104.0
128.862595 56.0
130.044693 164.0
130.064514 272.0
130.380829 132.0
131.046738 256.0
131.065796 180.0
131.129608 176.0
131.218506 144.0
131.373581 140.0
131.578979 212.0
131.919373 152.0
132.076843 276.0
132.58316 36.0
132.849136 184.0
132.888138 180.0
133.061447 148.0
133.088577 188.0
133.510651 172.0
133.641769 172.0
133.931839 72.0
133.980209 160.0
134.073959 192.0
134.081528 132.0
134.088623 172.0
134.360611 204.0
135.039749 164.0
135.079346 236.0
135.099884 160.0
135.222733 184.0
135.271133 132.0
135.546753 132.0
135.95256 68.0
136.091843 148.0
137.058609 652.0
137.099075 256.0
137.238953 176.0
137.292572 88.0
137.616928 152.0
138.061523 364.0
138.166168 64.0
138.236374 168.0
138.493896 144.0
139.077744 148.0
139.169296 116.0
139.289078 184.0
139.575806 180.0
139.999374 192.0
140.032349 172.0
140.520325 160.0
141.072952 164.0
141.167526 260.0
141.430145 224.0
141.543777 140.0
141.626663 188.0
141.825699 184.0
142.065201 204.0
142.34053 96.0
142.547195 192.0
143.047775 364.0
143.22525 128.0
143.301483 236.0
143.332458 128.0
143.766464 100.0
143.84523 176.0
143.952667 168.0
144.014771 168.0
144.080978 444.0
144.198746 72.0
145.031235 152.0
145.06044 300.0
145.084732 332.0
145.11319 188.0
145.199509 160.0
145.225891 92.0
145.492249 160.0
145.722824 116.0
145.89827 72.0
145.965591 120.0
146.058517 168.0
146.095261 2640.0
146.148392 44.0
146.432465 36.0
146.473404 40.0
146.550507 44.0
147.096497 372.0
147.213852 104.0
147.349121 32.0
147.823029 76.0
148.004578 92.0
148.053009 136.0
148.074921 344.0
148.100433 192.0
148.147476 64.0
148.532913 188.0
148.576584 228.0
148.690628 48.0
149.057404 352.0
149.088531 316.0
149.142395 120.0
149.448807 152.0
150.065033 204.0
150.088562 252.0
150.345566 264.0
150.369965 168.0
150.616577 88.0
151.071014 648.0
151.257233 184.0
152.053818 184.0
152.076965 260.0
152.525406 168.0
152.820526 212.0
153.066666 156.0
153.253876 104.0
153.401749 188.0
153.786545 164.0
153.981598 152.0
154.414124 36.0
155.156982 172.0
155.387634 100.0
155.722763 64.0
155.837036 216.0
156.011002 192.0
156.406525 196.0
157.036926 184.0
157.066849 76.0
157.134216 152.0
157.791061 56.0
158.072525 212.0
158.091232 136.0
158.238907 176.0
158.359116 256.0
158.386658 124.0
159.043625 164.0
159.079437 296.0
159.104492 296.0
159.191742 144.0
159.216858 108.0
159.704453 52.0
160.051743 80.0
160.07695 480.0
160.109665 160.0
160.207901 48.0
160.258286 28.0
160.333893 192.0
160.500259 204.0
160.974655 200.0
161.05603 428.0
161.083496 500.0
161.151474 136.0
161.915421 92.0
161.933151 112.0
161.978745 136.0
162.063095 144.0
162.090088 1740.0
162.224548 52.0
162.597412 136.0
162.869095 68.0
163.013901 128.0
163.092636 376.0
163.782257 48.0
164.069077 160.0
164.090607 172.0
164.154358 156.0
164.552399 112.0
164.922821 196.0
165.068542 184.0
165.093292 468.0
165.137589 208.0
166.051956 200.0
166.126343 116.0
166.326492 176.0
166.375275 260.0
166.729736 168.0
167.066589 488.0
167.571198 72.0
167.68457 204.0
168.00174 120.0
168.409592 176.0
168.693832 132.0
169.094757 132.0
169.203476 120.0
169.387344 104.0
169.584274 128.0
169.918793 80.0
169.999237 152.0
171.059662 244.0
171.093338 172.0
171.859772 136.0
172.0737 332.0
172.604202 160.0
172.889343 164.0
173.064728 212.0
173.092896 180.0
173.297852 188.0
173.601913 156.0
173.809143 128.0
173.830139 204.0
173.903625 64.0
173.929871 160.0
174.008621 136.0
174.034882 164.0
174.055252 132.0
174.090637 8736.0
174.13205 204.0
174.201157 52.0
174.415817 80.0
174.46051 52.0
174.486801 168.0
174.58934 100.0
174.749802 100.0
174.915604 156.0
175.095673 1488.0
175.152588 44.0
175.17366 40.0
175.323853 148.0
175.447739 124.0
175.62442 80.0
176.05014 144.0
176.071884 184.0
176.104996 3016.0
176.160263 60.0
176.186691 100.0
176.212494 120.0
176.281799 40.0
176.302948 44.0
176.361099 36.0
176.458908 88.0
176.527649 52.0
176.686356 84.0
176.739273 36.0
176.927185 96.0
177.080887 532.0
177.109695 576.0
177.218521 88.0
177.321869 104.0
177.488892 272.0
177.799255 124.0
177.854996 96.0
178.086456 164.0
178.16835 52.0
178.253372 116.0
178.383606 60.0
178.947617 180.0
179.087997 292.0
179.142029 152.0
179.437851 88.0
179.555176 152.0
180.095856 320.0
180.192108 68.0
180.406952 188.0
180.444382 192.0
180.61554 184.0
180.931305 116.0
181.054489 208.0
181.086487 164.0
182.070923 144.0
182.103149 252.0
182.732178 136.0
182.928635 96.0
183.09288 144.0
183.772186 164.0
184.085953 216.0
184.977539 224.0
185.090256 132.0
185.497635 204.0
185.58168 144.0
186.08931 200.0
186.874557 196.0
187.048721 248.0
187.09906 180.0
187.144012 108.0
188.038147 164.0
188.068176 220.0
188.10878 452.0
188.152802 152.0
189.083755 464.0
189.112869 420.0
189.235474 92.0
189.301193 28.0
189.347748 108.0
189.506638 72.0
189.857498 168.0
190.052277 120.0
190.084808 1508.0
190.118378 172.0
190.639908 132.0
190.945068 104.0
191.092178 3920.0
191.162399 60.0
191.330307 72.0
191.369446 148.0
191.509293 32.0
191.572647 196.0
191.641525 152.0
191.964035 156.0
192.063828 148.0
192.101257 2536.0
192.220581 120.0
192.26474 56.0
192.286819 36.0
192.325455 52.0
192.466248 180.0
192.778397 188.0
192.844727 100.0
193.061523 144.0
193.072174 60.0
193.08139 160.0
193.104797 316.0
193.245712 64.0
193.403458 136.0
193.483734 112.0
193.566788 36.0
193.813324 128.0
193.949127 124.0
194.113541 208.0
194.187576 80.0
194.995514 180.0
195.084198 164.0
195.108139 148.0
195.155197 96.0
195.329178 180.0
195.526733 100.0
195.69931 64.0
195.741089 108.0
196.08374 444.0
197.057388 136.0
197.093964 68.0
197.242081 160.0
198.089966 136.0
198.398224 200.0
198.529999 60.0
198.813354 164.0
199.026688 176.0
199.085663 164.0
199.105316 140.0
200.069794 184.0
200.112015 152.0
200.740372 180.0
200.858826 188.0
201.095856 168.0
201.471405 140.0
201.544876 96.0
201.570297 112.0
201.7314 128.0
202.084854 152.0
202.127365 96.0
202.18396 112.0
202.401932 40.0
202.651199 176.0
203.008362 196.0
203.070129 248.0
203.096191 140.0
203.118973 144.0
203.164352 92.0
203.442474 112.0
203.669647 148.0
204.078156 316.0
204.102707 1024.0
204.687073 236.0
204.781784 180.0
205.070297 168.0
205.105286 480.0
205.762741 136.0
206.078812 336.0
206.115585 1048.0
206.145493 152.0
206.448517 60.0
206.514297 180.0
207.079254 328.0
207.119171 260.0
207.321655 96.0
207.376114 160.0
207.829224 132.0
207.944016 140.0
207.989929 44.0
208.084244 524.0
208.211014 56.0
208.256973 156.0
209.061981 92.0
209.093384 460.0
209.295151 124.0
209.358505 92.0
210.101715 128.0
210.113586 96.0
210.123993 220.0
210.422516 200.0
210.705551 144.0
210.945419 140.0
211.07695 584.0
211.101547 156.0
211.555817 132.0
212.080124 128.0
212.155487 140.0
212.50351 80.0
213.088409 704.0
213.209137 148.0
213.607483 120.0
214.093781 492.0
214.12558 168.0
214.626816 152.0
215.008972 204.0
215.070267 192.0
215.096527 88.0
216.002396 196.0
216.564392 212.0
216.743103 184.0
217.099426 456.0
217.135925 152.0
217.599564 60.0
217.922638 172.0
218.116501 704.0
218.266541 44.0
218.381241 76.0
218.802048 56.0
218.852097 68.0
219.125015 172.0
219.818924 180.0
219.998978 44.0
220.093231 176.0
220.125641 208.0
220.26474 192.0
220.790863 124.0
220.867752 68.0
220.956512 176.0
221.042313 188.0
221.063034 144.0
221.09581 252.0
221.137009 148.0
222.103195 476.0
222.420441 104.0
222.61937 168.0
223.072433 288.0
223.106659 152.0
223.180984 88.0
223.377274 52.0
223.404053 88.0
223.963684 196.0
224.078339 216.0
224.109665 124.0
224.494186 176.0
225.089737 444.0
225.694611 176.0
226.334946 124.0
226.418793 132.0
226.505661 152.0
227.106033 828.0
227.387177 52.0
228.108215 128.0
228.517075 128.0
228.694626 84.0
228.998718 236.0
229.438675 152.0
229.921295 104.0
230.117508 128.0
230.325882 148.0
231.115173 200.0
231.490295 64.0
231.514511 148.0
232.156982 108.0
232.32077 140.0
232.937027 164.0
233.09465 136.0
233.12236 124.0
234.083572 196.0
234.103516 200.0
234.229828 160.0
235.073822 580.0
235.138458 184.0
235.64537 168.0
235.899017 40.0
235.941818 92.0
236.079117 372.0
236.129349 160.0
236.486328 184.0
237.093964 320.0
237.383972 184.0
238.095703 544.0
238.876663 88.0
239.039734 124.0
239.066345 172.0
239.102768 1096.0
239.138672 132.0
239.215164 136.0
239.285965 60.0
239.338318 172.0
239.378342 44.0
239.748016 60.0
239.880554 228.0
240.084045 224.0
240.115265 296.0
240.299973 164.0
240.543777 52.0
240.778442 192.0
240.806229 44.0
240.883453 124.0
241.099106 396.0
241.120087 468.0
241.486206 116.0
241.749176 40.0
241.941086 172.0
242.086609 136.0
242.117584 128.0
243.097214 116.0
243.131348 136.0
243.385895 72.0
244.085052 156.0
244.312088 48.0
244.831909 132.0
244.925339 100.0
245.081116 264.0
245.102921 132.0
245.152786 96.0
245.327332 84.0
245.583023 108.0
245.891907 152.0
246.104187 144.0
246.335297 144.0
246.74469 180.0
246.800964 80.0
247.085587 184.0
247.109116 168.0
247.279602 92.0
247.548843 228.0
248.078506 168.0
248.118301 140.0
248.985153 96.0
249.090515 324.0
249.865295 132.0
250.060394 156.0
250.098221 568.0
250.510681 156.0
250.551636 40.0
251.09816 432.0
251.142227 152.0
251.601837 72.0
251.863937 132.0
251.98082 56.0
252.117523 168.0
252.290543 88.0
252.92955 140.0
252.986526 104.0
253.074905 344.0
253.11615 136.0
254.035461 176.0
254.074936 164.0
254.117081 336.0
254.292496 168.0
254.667145 132.0
255.106064 316.0
255.547729 156.0
255.59227 72.0
255.7323 188.0
256.075989 156.0
256.08786 148.0
256.097809 136.0
256.44574 112.0
256.611511 232.0
256.777344 212.0
256.802856 40.0
257.118713 120.0
257.176178 128.0
258.077057 164.0
259.303131 160.0
259.598053 176.0
260.106445 172.0
260.368286 100.0
261.039917 32.0
261.089233 208.0
261.120331 96.0
261.149292 132.0
261.657715 136.0
261.973328 96.0
262.100372 168.0
262.492249 144.0
262.563171 60.0
262.824493 128.0
263.050415 168.0
263.107391 500.0
263.592987 48.0
264.080139 280.0
264.105011 664.0
264.139404 100.0
264.926025 56.0
265.089294 524.0
265.101715 340.0
265.113861 304.0
265.159332 140.0
265.772217 112.0
266.117157 360.0
266.216949 140.0
266.58728 48.0
267.100647 408.0
267.703094 184.0
268.100891 700.0
268.129669 340.0
268.286346 48.0
268.442841 56.0
268.674408 88.0
268.795135 72.0
269.083588 344.0
269.112518 224.0
269.143829 160.0
269.611542 60.0
269.774963 32.0
270.115082 120.0
270.344086 164.0
270.835205 84.0
271.012115 52.0
271.086426 188.0
271.123535 168.0
272.383453 116.0
272.619995 140.0
273.100006 104.0
273.182251 148.0
274.077789 96.0
274.106415 164.0
274.235962 148.0
274.608521 224.0
274.898865 128.0
275.12027 244.0
275.162933 48.0
275.615417 148.0
276.107971 160.0
276.76651 112.0
276.885712 152.0
277.094452 280.0
277.120514 264.0
277.190491 176.0
277.521973 120.0
278.006287 108.0
278.093628 204.0
278.117981 128.0
278.158966 88.0
278.324951 52.0
278.474396 156.0
278.753448 40.0
278.99942 140.0
279.101837 404.0
279.807861 52.0
280.063232 180.0
280.118011 216.0
280.270813 60.0
280.894287 116.0
281.079895 284.0
281.117798 860.0
282.078888 112.0
282.136627 820.0
282.370636 108.0
282.457581 172.0
282.57132 184.0
282.71521 116.0
282.942841 132.0
283.02652 152.0
283.081787 180.0
283.1297 536.0
284.101593 168.0
284.113495 128.0
284.13855 220.0
284.535309 132.0
284.649475 132.0
285.112671 168.0
285.150055 140.0
285.210541 256.0
286.85321 100.0
287.114838 152.0
287.521057 124.0
288.082611 156.0
289.078918 152.0
289.126373 132.0
289.207611 104.0
289.33963 128.0
289.441193 80.0
290.054413 64.0
290.103058 240.0
290.128998 164.0
290.190033 40.0
290.515594 132.0
290.705627 156.0
290.899078 164.0
291.098145 120.0
291.137817 180.0
291.214874 88.0
291.24884 100.0
292.102814 120.0
292.112579 244.0
292.123383 144.0
293.034821 148.0
293.072327 116.0
293.117828 396.0
293.870178 100.0
294.067108 168.0
294.122589 480.0
294.180725 256.0
294.235352 108.0
295.09256 232.0
295.123138 688.0
295.783966 160.0
295.845581 100.0
296.009949 136.0
296.136688 508.0
296.287384 132.0
296.417572 108.0
296.551239 56.0
297.039978 144.0
297.068207 172.0
297.101624 436.0
297.161652 252.0
298.114288 148.0
298.15564 172.0
298.367157 128.0
298.745453 92.0
299.075775 120.0
299.124908 572.0
299.2789 108.0
299.368439 36.0
299.661224 172.0
299.778381 36.0
299.951111 164.0
300.135803 196.0
300.764771 172.0
301.037506 156.0
301.122528 304.0
301.324219 100.0
301.707825 52.0
302.140137 164.0
303.099213 28.0
303.138184 112.0
303.307159 148.0
303.51709 148.0
304.121643 220.0
304.129852 180.0
304.161987 128.0
304.19516 152.0
304.233368 116.0
304.32016 184.0
304.886383 156.0
305.104004 312.0
305.286163 60.0
305.922882 132.0
306.107635 408.0
307.09549 156.0
307.136597 152.0
307.397217 64.0
307.791687 136.0
308.057098 116.0
308.115295 172.0
308.127716 304.0
308.141327 300.0
308.410034 204.0
309.132111 200.0
310.07608 188.0
310.118286 720.0
310.819519 32.0
311.125793 372.0
311.254791 72.0
311.556854 32.0
312.020752 136.0
312.144012 188.0
312.530731 40.0
312.836945 108.0
313.090027 96.0
313.120758 144.0
314.126709 124.0
314.165527 152.0
314.779663 120.0
315.065765 144.0
315.094025 276.0
315.141388 164.0
315.178802 52.0
315.468628 56.0
316.14212 184.0
316.324707 40.0
316.430908 116.0
316.593811 132.0
316.816956 60.0
316.870087 96.0
317.096863 92.0
317.497498 192.0
318.130585 156.0
318.608521 40.0
319.059875 128.0
319.084747 92.0
319.12561 180.0
319.55423 124.0
319.920807 96.0
319.945709 88.0
320.091705 120.0
320.127563 240.0
320.191406 144.0
320.21991 144.0
321.131256 408.0
321.756805 52.0
322.10321 72.0
322.147003 300.0
322.585632 36.0
322.617798 36.0
322.767975 140.0
322.946777 164.0
323.133575 364.0
323.261627 36.0
323.711487 132.0
323.827271 80.0
324.01712 164.0
324.154083 228.0
324.193359 192.0
325.132751 308.0
325.171783 176.0
325.387146 36.0
325.509247 64.0
326.141541 360.0
326.555023 96.0
327.100159 128.0
327.141571 116.0
327.977264 100.0
328.02774 76.0
328.112732 232.0
328.147522 144.0
328.608368 128.0
329.122131 144.0
329.160614 116.0
330.10437 168.0
330.161652 168.0
330.722443 136.0
331.048279 236.0
331.12796 168.0
331.175049 180.0
331.559082 92.0
332.117432 124.0
332.168213 168.0
332.287933 204.0
332.875946 184.0
333.068451 84.0
333.097504 164.0
333.135345 316.0
333.613525 96.0
334.13562 336.0
334.293701 108.0
335.144012 620.0
335.200439 196.0
335.309753 164.0
335.654114 52.0
335.944214 68.0
336.081604 140.0
336.114014 284.0
336.147003 200.0
336.356567 96.0
336.794739 68.0
336.831268 44.0
337.123016 204.0
337.15152 128.0
337.180084 176.0
337.514709 188.0
338.135559 1188.0
338.319641 120.0
339.144073 428.0
339.187805 132.0
339.250153 76.0
339.48114 76.0
339.556244 208.0
339.811249 128.0
340.148407 292.0
340.427917 108.0
340.457306 64.0
340.923859 76.0
341.117889 148.0
341.157928 460.0
342.071411 108.0
342.152283 332.0
342.553833 176.0
342.881744 96.0
343.121521 396.0
343.161926 144.0
343.334198 132.0
343.681976 136.0
343.718872 160.0
343.833282 136.0
344.12677 292.0
345.096619 140.0
345.150482 176.0
345.177979 56.0
346.125488 132.0
346.162292 208.0
346.343781 68.0
347.157654 176.0
347.167908 88.0
347.182404 120.0
347.392822 76.0
347.964355 116.0
348.146912 360.0
348.350586 224.0
349.148956 352.0
349.346863 88.0
349.904663 176.0
350.05777 116.0
350.134491 928.0
350.19928 156.0
350.325928 76.0
350.467499 36.0
350.571838 88.0
350.921448 96.0
350.948334 72.0
351.138885 464.0
351.325012 100.0
351.95578 100.0
352.01178 44.0
352.108887 124.0
352.151764 480.0
352.945984 108.0
353.165649 300.0
353.619354 76.0
354.06488 120.0
354.113586 232.0
354.168182 560.0
354.267151 88.0
354.814301 148.0
354.881805 104.0
354.99054 168.0
355.125366 88.0
355.134613 312.0
355.15976 368.0
355.331879 40.0
355.557007 116.0
355.598297 32.0
356.150879 212.0
356.416962 48.0
356.537231 128.0
357.11618 280.0
357.146667 484.0
357.195221 32.0
357.481171 80.0
357.959229 96.0
358.015717 88.0
358.106262 156.0
358.149048 212.0
359.044586 100.0
359.156525 800.0
359.191681 136.0
359.610504 124.0
359.923828 92.0
359.950287 148.0
360.089996 132.0
360.13385 144.0
360.475342 32.0
360.755035 116.0
361.01593 128.0
361.160858 112.0
361.447174 68.0
362.041504 208.0
362.124817 100.0
362.170288 96.0
362.435455 88.0
362.795532 112.0
362.985107 204.0
363.169495 1120.0
363.303711 56.0
363.618652 148.0
364.018951 172.0
364.168976 404.0
364.260345 52.0
364.286926 76.0
364.374298 116.0
364.982452 148.0
365.009064 116.0
365.176544 776.0
365.945099 116.0
366.156128 740.0
366.424988 156.0
366.619324 104.0
366.968048 124.0
367.111115 88.0
367.174896 184.0
367.236969 36.0
367.629913 116.0
367.736786 80.0
368.026917 60.0
368.122375 132.0
368.172699 448.0
368.30188 188.0
369.163177 264.0
370.102997 92.0
370.161896 400.0
370.98819 48.0
371.099365 152.0
371.134369 168.0
371.167358 224.0
371.177643 164.0
371.233582 100.0
371.555756 140.0
371.601807 140.0
371.636353 32.0
372.089233 152.0
372.144165 136.0
372.179108 172.0
372.450928 64.0
372.515533 52.0
372.815216 92.0
373.135437 396.0
373.180511 344.0
373.322662 172.0
373.406555 108.0
373.480347 44.0
374.158051 148.0
374.172363 136.0
374.186462 256.0
375.1539 416.0
375.340485 64.0
375.43689 128.0
375.668335 108.0
376.027191 140.0
376.150665 188.0
376.471161 48.0
376.691315 156.0
376.838135 156.0
377.135681 116.0
377.197266 112.0
377.545502 76.0
377.622864 136.0
378.029083 88.0
378.156799 132.0
378.201691 260.0
378.303894 56.0
378.330994 108.0
379.047516 112.0
379.168884 548.0
379.213074 256.0
379.458374 80.0
379.935425 60.0
380.058075 144.0
380.123657 348.0
380.181702 144.0
380.241974 84.0
380.288544 160.0
380.362305 220.0
380.459808 132.0
380.50882 124.0
380.641815 116.0
380.688416 88.0
380.812714 180.0
380.855957 144.0
380.920288 272.0
380.975861 128.0
381.026184 168.0
381.110107 168.0
381.179932 22008.0
381.31131 84.0
381.364777 44.0
381.424042 216.0
381.463562 72.0
381.564972 68.0
381.596527 136.0
381.652954 224.0
381.698761 124.0
381.738708 60.0
381.828918 100.0
381.885162 100.0
381.951569 68.0
381.97879 80.0
382.08197 92.0
382.129791 180.0
382.182739 6036.0
382.253815 164.0
382.353485 40.0
382.40979 68.0
382.466675 80.0
382.592072 104.0
382.620911 28.0
382.648163 104.0
382.702667 88.0
382.760529 84.0
382.979187 84.0
383.033722 60.0
383.120636 272.0
383.187561 1224.0
383.329803 44.0
383.360992 44.0
383.602631 100.0
383.707886 88.0
383.847473 80.0
383.877167 108.0
383.92627 72.0
383.976959 68.0
384.074463 72.0
384.138947 232.0
384.192841 188.0
384.324158 36.0
384.410004 80.0
384.456818 52.0
384.517242 112.0
384.615051 88.0
384.745667 92.0
384.901855 44.0
384.983856 48.0
385.140778 408.0
385.178253 424.0
385.409637 140.0
385.590881 96.0
385.636292 124.0
385.792664 100.0
385.878662 40.0
385.995972 48.0
386.105469 152.0
386.146057 272.0
386.173737 564.0
386.425446 60.0
387.158051 236.0
387.232635 172.0
387.675354 52.0
388.043793 176.0
388.129089 308.0
388.162842 208.0
388.459503 84.0
388.65567 32.0
388.957855 148.0
388.993195 36.0
389.091339 196.0
389.138855 248.0
389.181641 280.0
389.499756 88.0
389.822174 120.0
390.173065 148.0
390.521729 56.0
390.568909 100.0
390.710541 76.0
391.147369 200.0
391.328461 44.0
391.974426 52.0
392.009888 44.0
392.096588 104.0
392.14389 136.0
392.180481 164.0
392.41983 160.0
393.066711 116.0
393.118774 168.0
393.173279 156.0
394.153931 252.0
394.721832 104.0
394.974945 88.0
395.190613 536.0
396.099152 136.0
396.201477 1044.0
396.332886 56.0
396.848175 148.0
397.197998 592.0
397.915466 136.0
397.990906 148.0
398.130524 192.0
398.170288 156.0
398.195679 56.0
398.210144 168.0
398.455597 72.0
399.149872 552.0
399.186737 376.0
399.258545 60.0
399.708069 136.0
399.759796 128.0
400.190186 1276.0
400.480408 36.0
401.164764 332.0
401.191467 756.0
401.329254 132.0
402.179626 444.0
402.390564 44.0
403.025635 44.0
403.150055 144.0
403.167664 88.0
403.179626 192.0
403.215607 104.0
404.089172 32.0
404.179016 256.0
405.15213 112.0
405.39856 116.0
406.01593 120.0
406.108185 168.0
406.477264 144.0
407.11792 184.0
408.152313 36.0
408.196564 104.0
408.425812 36.0
408.478088 176.0
409.14209 176.0
409.172913 104.0
409.210052 124.0
410.155396 172.0
410.205627 160.0
410.604797 156.0
410.923462 148.0
411.16394 316.0
411.234192 80.0
411.415863 60.0
411.464294 132.0
411.682343 72.0
412.070129 200.0
412.181396 308.0
412.999908 152.0
413.18457 368.0
413.266907 200.0
413.392334 112.0
414.027924 108.0
414.146088 252.0
414.197388 132.0
414.595123 176.0
414.704529 96.0
415.160645 272.0
415.188507 220.0
415.22995 176.0
415.308685 204.0
415.799622 156.0
415.970093 116.0
416.108124 144.0
416.139435 152.0
416.169189 276.0
416.22699 136.0
417.111542 76.0
417.148132 144.0
417.198395 144.0
417.327026 156.0
418.142395 136.0
418.187653 164.0
418.559906 144.0
419.154419 140.0
419.18692 160.0
420.545319 116.0
420.843323 108.0
421.966919 108.0
422.135529 168.0
422.171387 68.0
422.87915 140.0
422.928284 116.0
424.180328 136.0
425.151733 108.0
425.186615 96.0
426.142548 96.0
426.151215 120.0
426.177277 364.0
426.222534 152.0
426.653015 172.0
426.821594 128.0
426.949097 132.0
427.072479 172.0
427.183411 304.0
428.187103 132.0
428.201813 284.0
428.459747 80.0
428.70697 64.0
428.987244 96.0
429.16217 268.0
429.222229 124.0
430.197357 184.0
431.155365 108.0
431.203369 284.0
431.728851 108.0
431.981171 76.0
432.206482 172.0
432.399078 172.0
432.883453 68.0
433.098816 104.0
433.207214 144.0
434.031281 76.0
434.914948 48.0
436.165222 164.0
437.163422 120.0
437.862823 72.0
438.191895 100.0
439.19104 124.0
440.182648 312.0
441.221893 112.0
441.799042 56.0
442.187927 548.0
443.191132 168.0
443.215363 164.0
443.251709 164.0
443.834564 108.0
444.144897 136.0
444.191742 228.0
444.291718 84.0
445.173157 116.0
445.231964 80.0
445.572205 128.0
446.152161 104.0
446.199524 120.0
446.265686 72.0
447.229065 140.0
448.191254 244.0
449.462677 140.0
450.125397 124.0
450.374573 136.0
452.192688 112.0
453.204773 192.0
454.162872 60.0
454.197693 444.0
455.117767 104.0
455.176819 180.0
455.20932 144.0
455.237579 128.0
455.372559 76.0
456.01413 140.0
456.186707 132.0
456.226837 140.0
457.189819 188.0
457.226898 132.0
458.172272 176.0
458.210571 124.0
458.252502 148.0
459.032532 68.0
459.143402 104.0
459.177521 116.0
459.214691 112.0
459.309753 136.0
460.193512 280.0
460.714203 140.0
461.201355 132.0
462.165039 388.0
463.182495 160.0
464.18515 140.0
465.034821 136.0
465.120667 80.0
466.16864 128.0
467.019897 84.0
468.035553 224.0
468.169037 120.0
468.227631 132.0
469.211792 196.0
469.992462 136.0
470.139191 112.0
470.182343 116.0
471.17688 212.0
471.234406 140.0
471.810791 148.0
472.231842 160.0
472.476807 184.0
473.169281 52.0
473.221954 160.0
473.476715 128.0
473.771271 236.0
474.211304 128.0
474.260925 116.0
475.193298 144.0
475.23233 96.0
476.21225 116.0
477.171387 108.0
477.204346 120.0
478.213501 112.0
480.021484 208.0
480.230804 52.0
480.75 104.0
481.046783 104.0
481.5271 64.0
481.85907 92.0
482.707062 128.0
482.746399 88.0
482.785767 72.0
483.193481 192.0
483.376343 108.0
483.8797 84.0
484.199371 144.0
484.865295 104.0
485.158966 36.0
485.202271 136.0
485.237793 320.0
485.281738 140.0
485.549225 144.0
486.239777 232.0
486.514557 52.0
486.677002 184.0
486.786804 212.0
487.167572 132.0
487.221954 164.0
488.02594 96.0
488.171051 88.0
488.2258 444.0
488.470123 144.0
488.729675 160.0
489.162659 112.0
489.197845 396.0
490.165161 112.0
490.332642 84.0
490.73819 96.0
490.94986 140.0
491.117432 144.0
491.186432 200.0
491.213348 108.0
491.743988 240.0
492.004425 92.0
492.196869 212.0
492.711029 56.0
493.208038 224.0
494.572754 84.0
495.197052 132.0
495.232483 116.0
495.267944 160.0
495.77301 172.0
496.136475 56.0
496.792816 92.0
497.227661 120.0
498.102356 200.0
498.173431 92.0
498.28894 104.0
498.684448 48.0
499.088989 120.0
499.173492 188.0
499.266876 120.0
499.404755 140.0
500.195251 152.0
501.173737 120.0
501.209991 160.0
501.435028 184.0
502.170898 184.0
502.198486 140.0
502.241455 144.0
503.005096 196.0
503.168945 212.0
503.201324 108.0
504.188385 200.0
504.649139 112.0
505.208649 356.0
505.257416 44.0
505.288727 96.0
505.467712 184.0
505.507965 80.0
506.20166 300.0
506.546692 180.0
506.882721 144.0
506.940979 136.0
507.205872 188.0
508.174072 140.0
508.24588 88.0
508.591431 132.0
508.889282 116.0
509.249298 144.0
510.217621 88.0
510.968689 100.0
511.436676 140.0
512.927673 180.0
513.856628 136.0
514.194336 120.0
514.262817 108.0
514.321472 176.0
514.885864 104.0
515.1698 112.0
515.246887 168.0
516.21344 252.0
516.332092 56.0
517.2146 344.0
517.254822 244.0
518.213928 236.0
519.169556 380.0
519.245361 160.0
519.316772 128.0
519.425659 72.0
519.820374 152.0
520.188843 344.0
520.24115 108.0
521.223083 312.0
521.355286 148.0
521.832581 96.0
522.180298 200.0
522.22821 124.0
522.419312 132.0
522.560303 116.0
522.942566 92.0
523.202026 248.0
523.237549 140.0
523.311279 120.0
523.82135 116.0
524.076538 52.0
524.205933 100.0
524.267883 88.0
525.19989 160.0
525.809387 148.0
526.334351 112.0
526.58551 132.0
526.891602 124.0
527.225159 148.0
528.219666 132.0
529.19696 132.0
529.416504 120.0
529.672974 128.0
529.737122 152.0
530.210815 104.0
530.768311 108.0
531.181641 188.0
531.249939 140.0
532.188477 156.0
532.250427 140.0
533.201355 136.0
534.217407 552.0
534.346375 160.0
534.387817 28.0
534.52124 80.0
535.224731 264.0
535.791992 220.0
536.218872 328.0
536.280457 160.0
536.557068 128.0
537.096619 72.0
537.22113 472.0
538.233582 184.0
540.237793 160.0
540.654236 88.0
541.955444 100.0
542.238159 128.0
543.216492 112.0
543.657288 184.0
543.777954 112.0
544.130737 64.0
544.242493 184.0
545.199097 136.0
545.246948 88.0
545.333923 84.0
545.74762 64.0
546.219482 904.0
546.319702 44.0
546.75708 48.0
546.836182 128.0
547.162048 96.0
547.221008 184.0
547.404175 88.0
548.163513 108.0
548.242493 440.0
549.224182 596.0
549.71167 88.0
550.136414 140.0
550.224182 884.0
551.173279 140.0
551.23114 288.0
551.28772 136.0
551.579895 72.0
551.822998 164.0
552.242859 240.0
552.274231 112.0
553.203125 44.0
553.245239 48.0
553.80719 192.0
553.844604 116.0
554.238159 112.0
555.522766 56.0
557.21759 200.0
557.325623 144.0
557.828491 172.0
558.030701 132.0
558.21405 160.0
558.745544 140.0
559.202026 148.0
559.247986 120.0
559.286743 216.0
559.540955 48.0
560.240845 1516.0
560.316833 140.0
560.52063 76.0
560.57251 112.0
560.760986 116.0
561.093628 180.0
561.234009 920.0
561.52478 112.0
561.8125 148.0
562.223328 672.0
562.463745 144.0
562.718689 92.0
562.928772 112.0
563.232178 348.0
563.455444 72.0
563.502686 100.0
564.074524 48.0
564.220093 400.0
564.248657 344.0
565.248657 264.0
565.298523 156.0
566.252197 548.0
567.24762 208.0
567.30304 76.0
567.706055 88.0
568.262207 160.0
568.29425 164.0
569.609314 136.0
571.073303 140.0
571.434814 124.0
573.28717 160.0
574.221558 88.0
574.34082 92.0
574.693848 228.0
574.991699 152.0
575.229187 184.0
575.271301 84.0
575.600769 152.0
575.98761 100.0
576.246338 908.0
576.699585 44.0
576.766479 60.0
577.172852 112.0
577.239746 1160.0
577.670227 76.0
578.0578 180.0
578.261169 940.0
578.354553 72.0
578.842834 72.0
579.000916 124.0
579.268555 356.0
579.35791 104.0
579.55658 72.0
579.96875 124.0
580.040649 48.0
580.198181 140.0
580.268311 3492.0
580.520081 128.0
580.683167 92.0
580.799927 104.0
580.889404 68.0
580.975769 36.0
581.268799 2360.0
581.357727 364.0
581.489197 180.0
581.609192 68.0
581.777161 48.0
582.007629 48.0
582.271057 376.0
582.379456 168.0
582.483093 88.0
582.723328 56.0
582.814575 92.0
583.279602 232.0
583.771179 52.0
584.733337 76.0
587.142273 108.0
587.195312 68.0
587.769409 168.0
589.039185 56.0
589.275879 164.0
589.889648 80.0
590.23291 132.0
590.269958 316.0
590.793945 68.0
590.852051 40.0
590.929443 112.0
590.99231 84.0
591.171387 180.0
591.286316 492.0
591.461792 120.0
592.267456 3480.0
592.376953 188.0
592.517456 180.0
593.060181 28.0
593.094116 36.0
593.157166 136.0
593.270996 2760.0
593.409241 100.0
593.467407 136.0
593.535339 84.0
593.646851 144.0
593.928162 56.0
593.966919 104.0
594.015442 108.0
594.276062 608.0
594.345337 188.0
594.636536 88.0
594.893799 60.0
595.02002 64.0
595.261047 192.0
595.300659 276.0
595.82135 100.0
596.27655 148.0
596.320251 300.0
596.360779 100.0
596.467712 176.0
596.764282 84.0
597.177612 112.0
597.347839 80.0
597.693298 68.0
597.848999 96.0
597.980408 44.0
598.092346 76.0
598.131287 80.0
599.563293 148.0
599.884949 76.0
600.474976 36.0
601.533813 68.0
601.816956 52.0
603.712952 100.0
604.2901 44.0
606.087097 172.0
606.21936 60.0
606.822327 120.0
607.283875 680.0
607.778748 112.0
608.282532 704.0
608.524841 228.0
609.256592 144.0
609.302307 128.0
610.160889 128.0
610.24939 84.0
610.287109 184.0
611.110107 88.0
612.020691 104.0
612.232422 132.0
612.823547 68.0
615.837708 56.0
615.980957 104.0
616.183533 148.0
616.287292 108.0
616.450378 128.0
617.444031 52.0
617.686401 60.0
618.10199 116.0
618.384094 160.0
618.463257 60.0
618.778625 108.0
619.111877 104.0
619.270325 80.0
619.349609 56.0
619.433777 100.0
619.532898 84.0
620.250977 160.0
620.426208 136.0
620.64801 72.0
620.945557 108.0
620.990234 64.0
621.084473 76.0
621.205139 172.0
621.282898 100.0
621.3573 32.0
621.574036 92.0
621.640137 76.0
621.699646 64.0
621.734436 172.0
621.818787 164.0
621.997498 44.0
622.085571 112.0
622.156128 104.0
622.387024 128.0
622.442688 88.0
622.638 116.0
622.672729 176.0
622.717468 104.0
622.806824 132.0
622.866455 92.0
622.919495 112.0
622.997314 428.0
623.037842 276.0
623.089722 152.0
623.118835 148.0
623.173767 304.0
623.309692 17396.0
623.510986 44.0
623.580627 60.0
623.617676 152.0
623.67926 144.0
623.736023 84.0
623.78363 80.0
623.830505 84.0
623.909058 84.0
624.020691 92.0
624.130798 240.0
624.229309 76.0
624.311096 9616.0
624.43811 100.0
624.499268 96.0
624.541565 52.0
624.62616 60.0
624.685852 56.0
624.752502 80.0
624.794434 116.0
624.889282 200.0
625.002014 108.0
625.05896 128.0
625.093811 44.0
625.132202 112.0
625.314636 2416.0
625.46405 144.0
625.879761 76.0
625.940063 64.0
626.0448 124.0
626.089417 84.0
626.164124 92.0
626.223938 52.0
626.314941 396.0
626.370544 184.0
626.577576 76.0
626.6922 72.0
626.813049 64.0
626.886536 48.0
627.080872 48.0
627.307434 364.0
627.396912 204.0
627.516846 96.0
627.644226 108.0
627.743958 116.0
627.888 104.0
628.023254 76.0
628.224548 120.0
628.507141 76.0
628.640015 84.0
628.751709 80.0
628.78949 68.0
628.877014 112.0
628.921387 64.0
629.261658 48.0
630.299744 72.0
630.454651 56.0
631.321533 60.0
632.07489 76.0
632.154968 68.0
632.200012 44.0
632.375183 56.0
634.158264 80.0
634.333679 84.0
637.646484 64.0
638.013428 48.0
639.839661 144.0
641.038452 88.0
641.88031 56.0
642.520874 60.0
642.995178 52.0
645.253174 100.0
645.713318 72.0
645.976379 56.0
646.710083 104.0
647.819031 128.0
649.709961 44.0
650.552429 76.0
650.791016 88.0
651.169556 96.0
655.266846 88.0
657.337036 92.0
665.552734 84.0
667.459106 52.0
673.809204 72.0
681.721497 72.0
689.96228 84.0
710.083191 48.0
725.831482 40.0
726.255188 80.0
734.797852 108.0
744.421875 124.0
768.446899 116.0
775.021118 68.0
775.220581 44.0
776.490112 96.0
778.193726 32.0
778.46582 80.0
788.739685 56.0
789.539246 116.0
789.95874 40.0
795.147339 104.0
796.775757 60.0
797.360168 88.0
798.164062 104.0
802.832397 116.0
804.406555 96.0
811.994324 116.0
812.550232 88.0
816.628967 92.0
822.018372 128.0
822.566284 64.0
822.868896 112.0
829.93512 148.0
833.919189 100.0
842.747803 72.0
855.425781 64.0
863.981079 48.0
867.887634 104.0
870.680908 64.0
874.031738 160.0
880.25061 60.0
882.45459 68.0
883.826843 36.0
891.470459 92.0
900.269409 40.0
907.174133 104.0
919.740417 52.0
920.271667 76.0
923.480591 120.0
931.566833 76.0
944.960999 56.0
954.400574 76.0
958.130432 72.0
958.684998 36.0
968.911255 84.0
986.229736 28.0
987.642822 100.0
1002.358948 88.0
1002.440918 56.0
1013.847717 72.0
1023.267883 108.0
1023.993835 84.0
1026.574951 96.0
1028.501709 40.0
1034.613037 84.0
1045.473511 116.0
1048.777588 112.0
1051.099243 104.0
1054.76123 108.0
1056.591309 104.0
1069.205811 116.0
1069.596313 76.0
1081.633179 108.0
1093.94812 88.0
1098.178467 52.0
1121.118286 56.0
1122.304932 80.0
1130.146484 36.0
1153.862305 96.0
1168.144653 128.0
1176.322144 48.0
1178.979004 36.0
1181.762207 216.0
1189.019165 88.0
1189.705566 52.0
1208.105957 160.0
1214.888184 152.0
1216.657837 108.0
1229.947021 96.0
1232.817627 68.0
1234.782104 132.0
1236.398193 76.0
1244.522827 180.0
1273.647949 192.0
1273.910767 176.0
1280.582886 264.0
1291.181641 124.0
1297.009888 136.0
1305.050415 84.0
1305.525024 52.0
1307.165161 52.0
1308.129639 32.0
1328.581299 76.0
1333.9552 108.0
1336.420654 104.0
1336.471558 76.0
1336.71167 176.0
1338.276733 132.0
1378.341919 96.0
1388.669312 180.0
1393.977539 184.0
1397.330933 204.0
1397.836914 48.0
1398.231323 120.0
1407.796387 96.0
1422.966919 204.0
1429.724609 44.0
1436.460693 72.0
1439.192749 224.0
1439.38147 104.0
1445.451416 128.0
1445.739014 124.0
1445.829834 148.0
1446.791138 44.0
1450.192383 60.0
1450.692627 204.0
1456.43457 148.0
1457.994507 104.0
1458.944702 140.0
1459.393311 200.0
1463.083252 52.0
1470.98877 224.0
1473.34082 136.0
1478.303223 152.0
1487.89209 56.0
1491.052612 192.0
1491.19519 104.0
1498.906494 180.0
1502.553467 256.0
1503.410034 152.0
