>compound MLS001162678-01!
>formula C20H22N2O4
>ionization [M+H]+
>parentmass 355.16523363609053
#inchi InChI=1S/C20H22N2O4/c1-25-17-7-6-14(9-18(17)26-2)20(24)21-10-13-8-15(12-21)16-4-3-5-19(23)22(16)11-13/h3-7,9,13,15H,8,10-12H2,1-2H3/t13-,15+/m1/s1
#inchikey WWWDAHVNLIIAGH
#Ion_Source LC-ESI
#Instrument qTof
#Compound_Source NIH Natural Product Library
#PI Dorrestein
#Data_Collector VVP/LMS
#Scan -1
#Precursor_MZ 355.166
#ExactMass 354.158
#Charge 1
#CAS_Number N/A
#Pubmed_ID N/A
#Smiles COc1ccc(cc1OC)C(=O)N2C[C@H]3C[C@@H](C2)c4cccc(=O)n4C3
#INCHI_AUX N/A
#Library_Class 1
#SpectrumID CCMSLIB00000080149
#IonMode Positive
#UpdateWorkflowName UPDATE-SINGLE-ANNOTATED-GOLD
#LibraryQualityString Gold
#TaskID b1d8e8f6646f4e71acdff9ca3d919d08
##Scan# 1520
#SpectrumFile p2-G04_GG4_01_18052.mzXML
#LibraryName NIH_Natural_Products_Library.mgf
#MQScore -1
#Organism NIH_Natural_Products_Library
#TIC_Query 0
#RT_Query -1
#MZErrorPPM -1
#SharedPeaks 0
#MassDiff 0
#LibMZ -1
#SpecMZ 355.166
#SpecCharge 0
#internalFilename spec-00000.mgf

>collision 10
95.008629 304.0
95.039673 228.0
95.206619 160.0
95.315407 188.0
95.367882 168.0
95.461197 200.0
95.599319 96.0
95.616837 224.0
95.683022 64.0
95.75312 92.0
95.780388 136.0
95.799866 76.0
95.868065 172.0
96.020126 48.0
96.238693 140.0
96.293373 204.0
96.344162 80.0
96.439911 188.0
96.533752 196.0
96.813271 144.0
97.046371 228.0
97.086006 180.0
97.131119 140.0
97.176239 72.0
97.429504 208.0
97.637863 112.0
97.874016 264.0
97.978401 320.0
98.035019 528.0
98.056305 128.0
98.159737 160.0
98.362953 236.0
98.524887 152.0
98.785843 196.0
98.880814 192.0
99.124405 140.0
99.245323 96.0
99.358376 188.0
99.394089 160.0
99.713821 208.0
100.008186 144.0
100.124809 160.0
100.31295 76.0
100.566284 272.0
100.684074 136.0
101.239044 88.0
101.288116 144.0
101.44442 168.0
101.462463 56.0
101.566742 180.0
101.717712 220.0
102.10302 184.0
102.362625 188.0
102.451248 148.0
102.691124 200.0
102.919167 76.0
102.935318 172.0
102.97773 240.0
103.010902 208.0
103.309235 200.0
103.402313 48.0
103.501076 92.0
103.722343 172.0
103.805466 136.0
104.026627 60.0
104.044891 36.0
104.164711 148.0
104.21347 144.0
104.227692 152.0
104.27037 212.0
104.290695 188.0
104.353714 212.0
104.388283 216.0
104.406586 80.0
104.516434 176.0
104.699646 156.0
104.744453 188.0
104.860596 144.0
104.896126 224.0
104.944176 84.0
104.960487 208.0
105.0336 344.0
105.119598 168.0
105.178787 108.0
105.237991 140.0
105.401398 76.0
105.730644 264.0
105.751114 232.0
105.785912 52.0
105.892387 192.0
106.033752 168.0
106.154709 40.0
106.195724 140.0
106.281891 284.0
106.458427 176.0
106.48307 72.0
106.538536 164.0
106.779083 176.0
106.875717 172.0
106.953926 148.0
107.012482 768.0
107.047081 572.0
107.081581 124.0
107.170166 216.0
107.196953 188.0
107.291763 136.0
107.456757 176.0
107.514542 92.0
107.559944 40.0
107.648727 144.0
107.754066 120.0
108.018692 200.0
108.052422 184.0
108.159401 160.0
108.175957 184.0
108.22979 80.0
108.32299 188.0
108.629791 160.0
108.689957 212.0
108.776375 156.0
108.839409 100.0
108.907944 192.0
108.934944 148.0
108.974419 128.0
109.0298 1204.0
109.064003 3436.0
109.12513 180.0
109.182068 184.0
109.267578 76.0
109.292549 76.0
109.481979 84.0
109.513222 204.0
109.577324 256.0
109.725685 188.0
109.819618 224.0
109.857162 228.0
110.036957 192.0
110.067917 612.0
110.124352 232.0
110.259697 356.0
110.346397 172.0
110.379318 204.0
110.645042 164.0
110.9048 148.0
111.007561 1200.0
111.048882 140.0
111.799522 164.0
111.839508 160.0
112.012177 196.0
112.213882 152.0
112.262985 148.0
112.281967 164.0
112.606995 180.0
112.953644 72.0
112.989609 128.0
113.023628 204.0
113.050499 108.0
113.186447 264.0
113.309296 64.0
113.427971 156.0
113.474617 164.0
113.686737 172.0
113.816223 140.0
113.873566 168.0
113.969162 168.0
114.164726 164.0
114.209389 164.0
114.260445 124.0
114.488205 168.0
114.590454 140.0
114.701271 264.0
114.767357 136.0
114.846268 180.0
114.88253 124.0
115.006294 144.0
115.057526 148.0
115.271118 120.0
115.348061 84.0
115.658226 128.0
115.705322 212.0
116.307709 44.0
116.640656 192.0
116.689529 120.0
116.705956 140.0
116.870773 200.0
116.896599 140.0
117.010681 252.0
117.034363 168.0
117.055344 140.0
117.201096 168.0
117.607819 200.0
117.687691 148.0
117.765434 84.0
117.925323 144.0
117.940453 128.0
118.425133 156.0
118.635323 172.0
118.828346 184.0
118.899605 200.0
118.958557 168.0
118.986778 160.0
119.012833 276.0
119.067123 196.0
119.10405 68.0
119.195297 176.0
119.363998 192.0
119.71521 168.0
119.776192 132.0
119.808609 168.0
119.896027 168.0
119.91346 148.0
120.002388 136.0
120.122787 68.0
120.179512 156.0
120.327927 172.0
120.404358 180.0
120.448036 196.0
120.537613 208.0
120.60318 164.0
120.673134 156.0
120.875244 160.0
121.028442 2592.0
121.067009 40.0
121.150246 56.0
121.224739 180.0
121.415474 96.0
121.959976 212.0
122.001747 188.0
122.035622 5996.0
122.065506 128.0
122.199684 192.0
122.25029 116.0
122.410995 172.0
122.536545 144.0
122.554169 148.0
122.600449 56.0
123.036667 732.0
123.563194 124.0
123.757965 72.0
123.906357 264.0
123.950676 88.0
123.988342 180.0
124.051285 160.0
124.077011 32.0
124.203415 120.0
124.261093 224.0
124.525261 192.0
124.836395 124.0
124.95874 108.0
125.02327 216.0
125.050873 268.0
125.488823 160.0
125.511124 76.0
125.899414 92.0
125.930679 148.0
126.031654 2328.0
126.066963 180.0
126.127304 152.0
126.261459 204.0
126.44268 112.0
126.545654 172.0
126.590439 160.0
127.028656 100.0
127.245178 192.0
127.328262 156.0
127.364204 208.0
127.695175 240.0
128.038956 304.0
128.422119 208.0
128.471741 72.0
128.53717 188.0
128.909775 116.0
129.059067 164.0
129.104187 212.0
129.448166 44.0
129.47081 216.0
129.539261 160.0
129.750275 168.0
129.858368 232.0
129.903732 208.0
130.060928 216.0
130.644318 48.0
130.83548 180.0
131.003342 48.0
131.086029 80.0
131.295761 128.0
131.398407 148.0
131.919113 224.0
132.02887 208.0
132.047165 184.0
132.079071 148.0
132.291992 192.0
132.358398 156.0
132.37442 104.0
132.658524 192.0
132.754837 104.0
132.816757 144.0
133.053131 816.0
133.275909 176.0
133.296585 200.0
133.360947 200.0
133.464386 208.0
133.558685 108.0
133.64151 104.0
133.678314 188.0
133.765778 100.0
133.795715 204.0
133.873993 152.0
133.892426 180.0
133.908539 60.0
133.952301 144.0
134.014511 160.0
134.055984 152.0
134.547287 216.0
134.884567 96.0
135.043793 436.0
135.382019 188.0
135.449188 172.0
135.472351 56.0
135.497833 136.0
135.64151 100.0
135.660065 152.0
135.769043 200.0
135.785278 164.0
135.840942 160.0
135.857178 272.0
135.90126 64.0
135.966232 156.0
136.055191 212.0
136.228622 168.0
136.865875 196.0
136.949722 172.0
137.021606 324.0
137.059998 10104.0
137.548981 92.0
137.575836 204.0
137.612015 148.0
137.724106 40.0
137.839417 180.0
137.927399 52.0
138.029129 296.0
138.061859 836.0
138.327408 216.0
138.369537 36.0
138.399979 160.0
138.439789 92.0
138.563934 164.0
138.657669 132.0
138.735016 144.0
139.007095 80.0
139.039948 196.0
139.069443 156.0
139.143234 140.0
139.173752 144.0
139.213669 144.0
139.368713 176.0
139.533234 208.0
139.810806 152.0
139.869644 88.0
139.921432 68.0
139.937912 116.0
140.02504 136.0
140.055664 128.0
140.232376 52.0
140.35968 232.0
140.68248 216.0
140.99707 144.0
141.030167 188.0
141.054092 488.0
141.351807 172.0
141.401505 192.0
141.545914 172.0
141.801773 148.0
141.863403 192.0
141.934525 152.0
142.022278 108.0
142.058853 172.0
142.088699 108.0
143.003586 176.0
143.070557 176.0
143.09642 160.0
143.134521 188.0
143.227402 156.0
143.358444 244.0
143.42041 68.0
143.472855 140.0
143.60878 116.0
143.677948 192.0
143.723282 192.0
144.081909 160.0
144.313263 136.0
144.337173 152.0
144.425659 116.0
144.715225 184.0
145.05542 308.0
145.115356 156.0
145.182495 200.0
145.218475 112.0
145.6241 164.0
145.722595 160.0
145.761047 184.0
145.797089 156.0
145.91246 124.0
146.060989 432.0
146.107269 132.0
146.152985 116.0
146.321472 76.0
146.465958 168.0
146.506912 164.0
146.714172 120.0
146.839554 88.0
146.858856 60.0
146.914337 136.0
146.960175 208.0
147.062866 108.0
147.11705 128.0
147.290924 220.0
147.324738 188.0
147.341644 148.0
147.505981 240.0
147.556747 164.0
148.077026 184.0
148.108505 188.0
148.295074 228.0
148.382339 200.0
148.559387 168.0
148.753525 184.0
148.874496 204.0
149.023102 184.0
149.047394 84.0
149.234558 224.0
149.309937 192.0
149.368317 216.0
149.528915 176.0
149.560547 120.0
149.606796 160.0
149.645752 268.0
149.694458 92.0
150.033417 172.0
150.055084 132.0
150.186768 164.0
150.386841 116.0
150.667664 156.0
150.704315 60.0
150.863174 264.0
150.890076 120.0
151.035934 180.0
151.071045 88.0
151.176254 124.0
151.362305 104.0
151.685699 56.0
151.842621 168.0
152.02417 196.0
152.672729 136.0
152.70224 244.0
152.948303 168.0
152.987686 148.0
153.052628 724.0
153.113266 48.0
153.236435 144.0
153.865341 156.0
153.976471 140.0
154.027893 716.0
154.095032 136.0
154.114807 80.0
154.47081 168.0
154.493073 132.0
154.606903 196.0
154.676193 160.0
154.847046 140.0
154.918884 152.0
154.953568 148.0
155.020462 164.0
155.039139 156.0
155.070419 2804.0
155.221268 220.0
156.028214 68.0
156.072433 200.0
156.214737 56.0
156.278625 212.0
156.339142 148.0
156.43425 224.0
156.520859 164.0
156.680267 168.0
156.922028 204.0
157.014282 184.0
157.535965 208.0
157.675888 236.0
157.895905 172.0
158.033493 116.0
158.064484 176.0
158.15361 256.0
158.38147 120.0
158.524277 236.0
159.061005 316.0
159.091141 188.0
159.131302 128.0
159.224213 128.0
159.244308 192.0
159.329712 36.0
159.674088 176.0
160.011292 184.0
160.075974 892.0
160.14978 64.0
160.452179 112.0
160.797775 100.0
160.81543 140.0
161.030045 128.0
161.080048 648.0
161.591248 140.0
161.75827 68.0
161.788651 80.0
162.033661 156.0
162.076401 176.0
162.252274 120.0
162.391983 168.0
162.536346 204.0
162.899399 68.0
163.206924 120.0
163.295929 164.0
163.392593 36.0
163.456207 104.0
163.47403 112.0
163.509659 132.0
163.694275 108.0
163.762314 84.0
163.779053 104.0
163.919662 100.0
163.962982 192.0
164.149094 156.0
164.166931 96.0
164.217941 148.0
164.264847 196.0
164.420334 172.0
164.440918 92.0
164.481308 92.0
164.545746 176.0
164.604324 192.0
164.630829 180.0
164.664597 164.0
164.730774 88.0
164.753998 124.0
164.815323 204.0
164.851746 200.0
164.870331 124.0
164.893677 200.0
164.940033 280.0
164.968674 316.0
165.014481 200.0
165.055237 125272.0
165.121841 124.0
165.140549 300.0
165.157516 108.0
165.198395 80.0
165.218018 40.0
165.264999 60.0
165.268723 96.0
165.31366 88.0
165.335541 96.0
165.360931 80.0
165.400131 108.0
165.423965 104.0
165.452103 92.0
165.475403 1252.0
165.509369 96.0
165.533386 236.0
165.558197 152.0
165.577591 164.0
165.616074 48.0
165.658417 68.0
165.709991 248.0
165.759537 88.0
165.784958 48.0
165.792603 40.0
165.800644 132.0
165.858856 32.0
165.913269 240.0
165.951294 84.0
165.96788 132.0
165.990036 172.0
166.058624 15564.0
166.123627 44.0
166.152542 204.0
166.185196 48.0
166.213425 92.0
166.233948 84.0
166.300812 76.0
166.333817 136.0
166.362274 64.0
166.386871 72.0
166.436737 128.0
166.462219 104.0
166.501236 68.0
166.543747 216.0
166.568771 88.0
166.600204 68.0
166.674698 120.0
166.696182 36.0
166.807739 100.0
166.865311 128.0
166.947495 100.0
166.988449 76.0
167.019043 172.0
167.05925 1892.0
167.097168 116.0
167.134766 64.0
167.159058 128.0
167.184204 176.0
167.19342 116.0
167.203568 136.0
167.212921 60.0
167.241165 144.0
167.258575 120.0
167.285034 76.0
167.294617 144.0
167.298462 172.0
167.31778 180.0
167.338242 72.0
167.371521 172.0
167.404221 136.0
167.424377 120.0
167.46254 68.0
167.476334 268.0
167.50148 32.0
167.529816 88.0
167.589081 104.0
167.658646 32.0
167.712769 88.0
167.748871 64.0
167.973206 44.0
168.062607 160.0
168.208038 96.0
168.285477 116.0
168.326797 32.0
168.373276 136.0
168.633514 124.0
168.698853 72.0
168.77124 44.0
168.797104 32.0
169.024734 64.0
169.069595 108.0
169.125671 40.0
169.617828 76.0
169.731903 76.0
169.773392 100.0
171.609238 28.0
171.648346 124.0
172.055374 32.0
172.225113 176.0
172.72699 112.0
172.754028 120.0
173.085541 204.0
173.242691 88.0
173.373703 100.0
173.911362 88.0
174.053131 40.0
174.092712 584.0
174.860199 36.0
175.089249 144.0
175.260483 196.0
175.798416 68.0
175.816895 124.0
176.760315 36.0
177.01709 100.0
177.409225 80.0
178.096512 36.0
178.26123 56.0
179.547058 68.0
181.067764 176.0
182.543793 44.0
184.358047 56.0
185.036987 132.0
185.264481 60.0
187.203827 52.0
189.104111 464.0
189.52298 32.0
190.214111 68.0
191.697525 68.0
194.7565 48.0
196.094818 92.0
199.091217 204.0
199.127731 144.0
199.161438 72.0
200.06691 60.0
200.097885 52.0
201.541992 60.0
204.915619 76.0
206.082581 164.0
210.050201 120.0
211.967056 104.0
212.724045 80.0
213.770386 148.0
216.998077 96.0
217.097946 792.0
218.102783 92.0
220.752396 48.0
222.37294 112.0
228.357635 48.0
231.045349 28.0
234.665634 116.0
235.106186 152.0
235.523178 36.0
236.22319 148.0
236.330261 104.0
237.939362 156.0
238.332504 104.0
242.492477 72.0
252.844116 116.0
256.292816 104.0
264.683167 112.0
265.986481 60.0
266.392395 124.0
269.324097 256.0
269.95813 104.0
272.685791 72.0
279.445129 128.0
279.628174 64.0
280.157593 112.0
288.362091 92.0
288.446594 52.0
289.349854 136.0
291.836823 88.0
294.037445 156.0
310.076111 124.0
310.626617 124.0
314.35611 124.0
318.150452 172.0
318.548187 116.0
327.328827 76.0
332.672668 80.0
334.100891 48.0
335.266052 72.0
342.483856 52.0
342.885468 40.0
347.771332 68.0
349.759918 44.0
351.925903 172.0
355.168488 2404.0
356.166107 336.0
356.428253 92.0
364.697296 40.0
366.699341 76.0
369.578735 108.0
370.43631 128.0
373.391846 48.0
391.237823 84.0
392.336945 112.0
398.777374 132.0
398.809174 36.0
398.896606 64.0
409.468109 100.0
411.133148 108.0
412.029572 140.0
415.377472 88.0
435.47525 64.0
438.562531 92.0
441.096222 80.0
445.643341 64.0
455.024017 72.0
465.764404 48.0
495.107941 72.0
501.505768 72.0
507.32135 120.0
528.651184 184.0
535.279968 76.0
539.076416 52.0
541.681274 88.0
543.902405 92.0
578.650208 52.0
639.641602 64.0
648.273193 48.0
650.520081 112.0
709.28009 176.0
712.405579 80.0
730.420654 52.0
734.277161 152.0
748.214172 84.0
756.107178 36.0
759.591919 28.0
783.072815 148.0
806.402344 152.0
814.15271 48.0
818.833252 136.0
857.022766 212.0
860.317993 204.0
863.853516 152.0
870.029419 148.0
874.015076 128.0
875.692871 120.0
899.32074 40.0
905.850342 52.0
920.942383 52.0
929.108337 204.0
929.357117 128.0
929.520935 124.0
942.851379 188.0
951.752197 148.0
968.638306 192.0
968.731201 220.0
971.508423 196.0
979.770508 196.0
996.794006 68.0
1001.01001 164.0
1002.849609 132.0
1002.993896 188.0
1004.634094 212.0
1004.753967 132.0
1017.335083 112.0
1019.450195 192.0
1019.863281 168.0
1028.685425 192.0
1029.477173 180.0
1036.654785 172.0
1039.617432 168.0
1044.384521 188.0
1046.334351 140.0
1048.234497 108.0
1055.30896 200.0
1057.650757 204.0
1058.570068 116.0
1065.757202 92.0
1074.944946 188.0
1080.603394 124.0
1086.572021 96.0
1087.956787 188.0
1090.49231 188.0
1101.429932 196.0
1104.92688 152.0
1108.47583 168.0
1112.289307 44.0
1112.495117 196.0
1114.620483 164.0
1120.842041 176.0
1126.554199 116.0
1127.100952 120.0
1127.81604 156.0
1128.51123 96.0
1128.812134 244.0
1133.397339 172.0
1136.106079 100.0
1136.622681 116.0
1138.179321 212.0
1139.691284 156.0
1142.642822 144.0
1149.164673 112.0
1157.200806 208.0
1158.385986 112.0
1162.935791 108.0
1169.766968 144.0
1171.585205 228.0
1173.69812 108.0
1179.603638 84.0
1181.354248 152.0
1184.701782 108.0
1185.003174 224.0
1185.201172 180.0
1188.17749 156.0
1188.493164 200.0
1192.407349 160.0
1195.873779 148.0
1196.266113 52.0
1200.834473 180.0
1201.055176 44.0
1204.541016 128.0
1205.529053 148.0
1206.061157 100.0
1213.225708 200.0
1219.535522 60.0
1225.736328 200.0
1227.046631 148.0
1234.322021 112.0
1234.447998 200.0
1236.665649 132.0
1236.959717 64.0
1237.855835 168.0
1238.45813 200.0
1238.801392 176.0
1238.871338 160.0
1240.474854 200.0
1242.650146 48.0
1243.000977 180.0
1243.071167 184.0
1245.303711 176.0
1246.490967 88.0
1247.256958 220.0
1247.524048 208.0
1250.647217 120.0
1253.154297 88.0
1254.394653 156.0
1255.282959 296.0
1255.586182 172.0
1255.748413 184.0
1258.705322 172.0
1259.72937 208.0
1260.527832 200.0
1263.235596 164.0
1264.90564 132.0
1277.216797 168.0
1278.234131 188.0
1279.750244 164.0
1282.100952 156.0
1284.382446 148.0
1285.966431 164.0
1287.037354 228.0
1287.60144 144.0
1288.787231 196.0
1289.816406 216.0
1291.932983 180.0
1295.333374 152.0
1296.623047 128.0
1297.669556 164.0
1298.630493 144.0
1299.771118 212.0
1299.914673 232.0
1300.130005 136.0
1300.352417 132.0
1300.976929 80.0
1301.256958 176.0
1301.623047 168.0
1302.578247 132.0
1302.772217 244.0
1304.252563 184.0
1306.100464 108.0
1306.532104 236.0
1306.632812 136.0
1307.82019 200.0
1310.938599 92.0
1311.169189 168.0
1313.858765 180.0
1315.11438 248.0
1316.685913 164.0
1318.884644 136.0
1321.104614 120.0
1326.137085 208.0
1327.637817 208.0
1328.116577 132.0
1329.103149 204.0
1329.76355 148.0
1331.491455 132.0
1332.77002 120.0
1333.424072 108.0
1334.528931 132.0
1335.583374 132.0
1335.954346 144.0
1338.814941 204.0
1339.004272 132.0
1339.907471 52.0
1340.446655 196.0
1341.190063 148.0
1341.860718 208.0
1343.355713 208.0
1348.788574 132.0
1349.409912 132.0
1350.645752 96.0
1351.084717 196.0
1353.748901 192.0
1354.063843 160.0
1357.750244 184.0
1357.904297 132.0
1358.346924 184.0
1358.85791 180.0
1362.4552 172.0
1365.718994 176.0
1365.902954 152.0
1368.162109 204.0
1368.544922 64.0
1368.868896 124.0
1373.504639 168.0
1374.448975 160.0
1375.18689 64.0
1376.478882 172.0
1378.576782 36.0
1379.796387 188.0
1382.73291 72.0
1383.236328 128.0
1384.776367 144.0
1385.361572 152.0
1386.480347 164.0
1386.813843 176.0
1386.976929 244.0
1388.363403 72.0
1389.958252 216.0
1390.403564 60.0
1390.826538 184.0
1391.598633 168.0
1392.088745 92.0
1393.656006 220.0
1395.915649 152.0
1396.837891 152.0
1399.077881 160.0
1399.703247 184.0
1402.012573 84.0
1405.733765 156.0
1406.383057 68.0
1406.651733 164.0
1413.026367 204.0
1413.37793 132.0
1415.136963 132.0
1416.41748 132.0
1417.638672 208.0
1420.097778 48.0
1420.450317 188.0
1421.088013 132.0
1423.129517 220.0
1424.856934 156.0
1424.992188 152.0
1426.149414 156.0
1426.630493 156.0
1427.134155 96.0
1427.194336 172.0
1427.337158 92.0
1427.389893 164.0
1427.540283 140.0
1428.856567 144.0
1429.217651 136.0
1430.060547 148.0
1431.701782 148.0
1433.140503 156.0
1433.763428 152.0
1433.954346 164.0
1436.600952 176.0
1439.317993 176.0
1439.582275 172.0
1440.579346 148.0
1440.9646 180.0
1442.022461 124.0
1442.196289 200.0
1442.952271 196.0
1444.109253 144.0
1445.400146 220.0
1445.69043 116.0
1447.151367 200.0
1447.499634 160.0
1450.583252 144.0
1452.471313 160.0
1452.782349 192.0
1455.545044 116.0
1455.62854 72.0
1456.547485 176.0
1456.744995 204.0
1457.77063 148.0
1459.792725 152.0
1462.797974 152.0
1463.650635 140.0
1465.47876 176.0
1465.5625 160.0
1465.935913 168.0
1466.042603 156.0
1466.324585 68.0
1467.275391 172.0
1469.779053 128.0
1470.305664 72.0
1470.748291 152.0
1473.176514 156.0
1473.367554 204.0
1474.208008 128.0
1476.937378 128.0
1477.427002 116.0
1478.169067 188.0
1478.658936 200.0
1479.661621 84.0
1480.389038 184.0
1480.87915 180.0
1482.081909 196.0
1482.955566 176.0
1483.116455 220.0
1485.309448 128.0
1489.485107 136.0
1491.905762 152.0
1492.297852 156.0
1492.574707 232.0
1494.005249 168.0
1495.082397 216.0
1496.922241 64.0
1497.353516 156.0
1497.53833 116.0
1498.701538 220.0
1500.235229 140.0
1501.291626 160.0
1502.124634 216.0
1503.065796 136.0
1503.575073 196.0
1504.076782 240.0
