>compound Orlistat (Alli, Xenical)
>formula C29H53NO5
>ionization [M+Na]+
>parentmass 518.3815944960905
#inchi InChI=1S/C29H53NO5/c1-5-7-9-11-12-13-14-15-16-18-24(34-29(33)26(30-22-31)20-23(3)4)21-27-25(28(32)35-27)19-17-10-8-6-2/h22-27H,5-21H2,1-4H3,(H,30,31)/t24-,25-,26-,27-/m0/s1
#inchikey AHLBNYSZXLDEJQ
#Ion_Source LC-ESI
#Instrument qTof
#Compound_Source Commercial
#PI Dorrestein
#Data_Collector Garg_Neha
#Scan -1
#Precursor_MZ 518.382
#ExactMass 495.392
#Charge 1
#CAS_Number 96829-58-2
#Pubmed_ID N/A
#Smiles C1([C@H]([C@@H](O1)C[C@H](CCCCCCCCCCC)OC(=O)[C@H](CC(C)C)NC(=O)[H])CCCCCC)=O
#INCHI_AUX N/A
#Library_Class 1
#SpectrumID CCMSLIB00000078214
#IonMode Positive
#UpdateWorkflowName UPDATE-SINGLE-ANNOTATED-GOLD
#LibraryQualityString Gold
#TaskID 77f51c88eb8b467eb4a01dd2d0cb90d2
##Scan# 4445
#SpectrumFile Plate3_61_88_GH1_01_16501.mzXML
#LibraryName FDALibrary_2_04302014.mgf
#MQScore -1
#Organism FDALibrary_2_04302014
#TIC_Query 0
#RT_Query -1
#MZErrorPPM -1
#SharedPeaks 0
#MassDiff 0
#LibMZ -1
#SpecMZ 518.382
#SpecCharge 0
#internalFilename spec-00000.mgf

>collision 10
45.066349 180.0
47.480118 220.0
48.86562 204.0
48.935211 208.0
49.366371 212.0
50.542355 212.0
50.821487 148.0
51.246613 212.0
51.484825 232.0
52.082062 156.0
53.456989 212.0
54.80267 176.0
54.873413 176.0
56.412952 180.0
56.88332 192.0
57.044052 160.0
57.071114 148.0
58.450607 176.0
58.729397 184.0
59.523674 148.0
60.147194 140.0
60.293922 192.0
62.571377 188.0
63.746593 168.0
63.94379 164.0
64.452499 184.0
64.798096 164.0
65.141403 288.0
66.821114 216.0
66.967613 228.0
67.707466 160.0
67.920532 152.0
68.015701 176.0
68.457962 188.0
69.047112 240.0
70.007996 188.0
70.318085 188.0
70.908913 224.0
71.418877 152.0
72.502792 140.0
73.444695 212.0
73.470284 144.0
74.181679 164.0
74.250267 168.0
75.241394 176.0
75.517876 248.0
75.765404 200.0
76.148758 216.0
76.489548 152.0
77.091255 160.0
77.521744 168.0
77.855049 156.0
78.68969 144.0
78.800957 172.0
78.91584 140.0
79.637085 184.0
80.481194 196.0
81.335136 168.0
82.298271 188.0
84.751602 192.0
85.003204 176.0
86.024673 168.0
86.438667 220.0
87.145119 208.0
87.206444 180.0
87.62513 212.0
88.772797 276.0
89.394585 192.0
89.661995 188.0
90.693939 176.0
91.016449 144.0
91.17244 172.0
93.692238 192.0
94.008446 168.0
96.941025 200.0
99.288963 160.0
99.670105 152.0
100.087814 224.0
100.398674 168.0
100.556282 168.0
101.069862 176.0
103.523682 188.0
103.657379 140.0
103.746559 200.0
105.086807 208.0
105.689552 196.0
106.283188 196.0
107.081375 160.0
107.17614 160.0
107.510193 192.0
108.500961 168.0
109.777618 172.0
110.176277 184.0
110.579842 164.0
111.04496 180.0
111.112083 212.0
111.523666 208.0
111.959167 148.0
112.127708 180.0
112.214134 148.0
112.406075 228.0
114.092018 192.0
115.033607 152.0
115.234352 164.0
116.898254 176.0
119.316444 212.0
119.331665 140.0
119.625359 148.0
120.419044 180.0
120.889076 184.0
122.617409 156.0
123.27063 176.0
125.414505 204.0
125.43457 216.0
128.95636 216.0
130.55925 224.0
131.799316 192.0
132.217789 244.0
132.730927 172.0
133.582977 172.0
133.983536 236.0
134.802628 164.0
135.056946 212.0
136.754303 140.0
139.123276 196.0
139.142059 156.0
139.60965 144.0
139.666092 144.0
140.195816 140.0
140.490555 232.0
140.847 192.0
141.779175 152.0
141.855026 168.0
143.08728 204.0
144.075317 180.0
144.706696 164.0
145.598709 168.0
145.923096 212.0
146.529602 192.0
147.492462 236.0
147.768143 176.0
147.831055 148.0
148.730209 212.0
148.992462 184.0
149.875641 180.0
150.209641 204.0
150.424377 152.0
151.255463 204.0
151.436661 172.0
151.497894 148.0
152.172318 216.0
152.550659 212.0
152.577698 152.0
152.9039 156.0
152.961456 148.0
154.083359 880.0
154.115631 172.0
154.620087 148.0
154.746323 172.0
154.763657 160.0
154.904831 144.0
155.086472 196.0
156.058838 168.0
157.726624 176.0
157.934158 172.0
158.352142 196.0
158.86348 208.0
159.384598 108.0
159.463593 140.0
160.183212 212.0
160.500763 176.0
160.944855 176.0
161.131744 160.0
162.2453 180.0
162.854294 152.0
163.286362 232.0
163.744476 176.0
164.238937 172.0
164.330765 212.0
165.790833 160.0
166.298645 160.0
167.310181 124.0
167.481384 144.0
167.927277 164.0
168.1698 164.0
168.626953 180.0
169.146835 176.0
169.392838 148.0
169.594955 140.0
170.056961 132.0
170.231033 112.0
170.628098 160.0
170.773727 168.0
171.903412 192.0
172.063599 196.0
173.903839 176.0
174.010101 216.0
174.313522 160.0
175.859421 156.0
176.710312 184.0
177.153824 168.0
177.335266 148.0
177.409485 160.0
179.062592 200.0
179.248703 212.0
179.411285 148.0
180.321503 152.0
180.457825 148.0
181.23938 152.0
181.447098 168.0
181.794998 232.0
181.871994 152.0
181.947433 180.0
181.985764 376.0
182.043015 188.0
182.080002 61380.0
182.178604 120.0
182.435959 156.0
182.534317 200.0
183.044418 212.0
183.083252 4808.0
183.156235 108.0
183.593704 96.0
183.809967 144.0
184.023193 160.0
184.084396 648.0
184.199966 96.0
184.404694 112.0
184.452301 236.0
184.539627 112.0
185.128906 100.0
185.945129 272.0
187.393143 216.0
188.58429 160.0
189.027328 152.0
189.517456 272.0
190.702957 176.0
190.722198 168.0
191.897675 152.0
193.192932 140.0
193.95166 200.0
194.165146 140.0
194.375977 176.0
194.48143 152.0
199.424057 144.0
199.771118 192.0
200.089706 236.0
200.745621 152.0
200.855621 140.0
201.095459 148.0
202.874649 208.0
203.152573 172.0
204.177933 256.0
204.31163 140.0
205.040558 156.0
205.180237 192.0
206.651077 140.0
207.616394 192.0
208.27652 160.0
209.273087 140.0
209.7901 160.0
209.841995 176.0
210.268921 140.0
210.534515 156.0
211.057541 176.0
211.320755 180.0
211.763657 140.0
213.161957 156.0
215.419937 164.0
215.63324 140.0
217.270081 144.0
219.203445 164.0
219.304947 196.0
220.228455 140.0
221.517883 108.0
221.755157 172.0
222.220718 144.0
222.500671 132.0
222.835297 212.0
223.111694 184.0
223.629272 164.0
223.901672 156.0
223.94487 188.0
224.050537 120.0
224.183212 168.0
224.684128 160.0
226.505966 184.0
227.353088 180.0
227.837875 104.0
227.881439 188.0
230.342911 180.0
232.077011 208.0
232.243805 164.0
232.714172 172.0
233.036118 196.0
233.875427 160.0
233.948486 184.0
234.449692 132.0
234.624802 144.0
235.849838 128.0
236.938278 156.0
237.232468 192.0
237.569702 132.0
238.122299 156.0
238.764633 152.0
238.881516 152.0
239.531021 144.0
239.660416 200.0
240.05188 156.0
240.422058 216.0
240.956238 148.0
242.630554 160.0
243.182693 152.0
243.226151 148.0
243.819382 180.0
243.940598 156.0
244.351105 196.0
245.185608 172.0
245.662659 208.0
247.728973 140.0
247.910706 156.0
248.258667 144.0
248.666504 196.0
249.580658 148.0
250.22879 196.0
250.757996 184.0
250.973511 168.0
251.180511 188.0
251.473938 144.0
251.612839 144.0
251.663345 164.0
252.134018 140.0
252.393234 184.0
252.585693 164.0
254.094055 188.0
254.700378 148.0
255.982071 176.0
256.122192 152.0
256.686279 172.0
258.008118 160.0
258.036896 148.0
259.566711 156.0
259.753387 176.0
260.752258 120.0
262.119629 172.0
262.451202 120.0
262.641907 140.0
262.993622 232.0
263.242188 156.0
263.300323 140.0
263.773834 160.0
263.881958 168.0
264.894897 176.0
266.322113 140.0
267.011139 156.0
267.466644 140.0
267.89975 152.0
269.104919 200.0
269.148712 172.0
270.214539 160.0
270.298248 108.0
270.482727 140.0
270.718445 204.0
270.918243 160.0
272.086304 160.0
272.44043 172.0
273.028778 148.0
275.081451 164.0
276.993866 212.0
277.108704 148.0
277.231293 180.0
278.475403 172.0
278.674713 140.0
279.269745 216.0
280.151855 160.0
280.698456 148.0
282.257843 228.0
283.081024 144.0
283.650574 208.0
283.771271 200.0
283.834961 140.0
284.260986 164.0
285.11731 168.0
285.530823 152.0
285.641815 152.0
288.416901 188.0
288.694153 140.0
289.079773 176.0
289.543579 148.0
289.777283 148.0
289.8078 144.0
290.119598 148.0
290.214203 128.0
290.367126 140.0
291.925903 220.0
293.212738 204.0
293.27066 156.0
293.482025 140.0
294.07901 160.0
294.591187 160.0
294.871399 140.0
296.663086 144.0
297.038757 144.0
297.117645 144.0
297.869446 180.0
297.90036 148.0
298.161499 148.0
298.192413 140.0
299.334564 144.0
300.258118 208.0
300.351227 144.0
300.5755 156.0
301.64267 168.0
302.289429 168.0
302.436523 112.0
302.462463 144.0
302.618256 164.0
303.512177 180.0
303.949707 140.0
304.37616 188.0
304.605377 192.0
304.82428 200.0
305.140564 200.0
305.168365 196.0
305.867615 168.0
306.226257 236.0
307.299927 140.0
307.329681 152.0
307.844116 136.0
309.18335 144.0
309.652496 148.0
311.102753 144.0
311.167328 176.0
311.198914 204.0
312.59436 152.0
312.682343 144.0
312.766815 144.0
313.390137 224.0
313.432434 180.0
313.908295 208.0
314.451569 164.0
315.136627 196.0
316.066559 164.0
316.604614 164.0
317.011993 144.0
317.251709 164.0
317.444489 144.0
317.955322 192.0
318.125702 164.0
318.214447 160.0
319.301788 144.0
320.130981 204.0
320.294495 176.0
320.70459 196.0
320.821838 112.0
321.30896 212.0
322.206879 172.0
322.476135 148.0
323.483551 164.0
323.795074 160.0
324.565521 204.0
327.011932 152.0
327.166718 160.0
327.444336 116.0
328.143036 144.0
328.691284 184.0
329.716858 196.0
330.223022 160.0
330.584778 152.0
330.657166 192.0
332.556305 144.0
332.723297 228.0
333.021057 148.0
333.100952 148.0
333.547913 144.0
333.627869 188.0
334.518707 136.0
334.854126 200.0
334.941528 148.0
336.480438 144.0
336.553467 160.0
336.757965 152.0
338.077759 224.0
338.249878 132.0
338.301025 168.0
339.326813 164.0
339.733887 232.0
340.490021 228.0
340.611206 176.0
340.838989 184.0
341.587738 128.0
342.438171 164.0
343.043549 140.0
343.26474 148.0
343.445465 168.0
343.714783 148.0
344.176178 196.0
344.209412 156.0
344.481567 156.0
344.923706 172.0
345.349304 180.0
345.410522 176.0
345.466003 184.0
346.065552 140.0
346.28775 224.0
347.731567 224.0
348.312927 152.0
348.643585 160.0
348.859161 148.0
349.152893 208.0
349.591888 196.0
349.86731 156.0
350.067963 144.0
350.623444 152.0
350.671875 140.0
350.832184 140.0
350.884369 144.0
350.953339 140.0
351.119293 168.0
351.25354 152.0
351.354279 160.0
351.753571 160.0
351.873016 156.0
352.156311 144.0
352.243622 120.0
352.373474 224.0
353.008911 176.0
353.22583 152.0
353.895721 160.0
353.955627 160.0
355.440002 140.0
355.661407 196.0
355.800293 180.0
355.857422 168.0
356.093201 156.0
356.327087 332.0
356.431305 152.0
356.492218 172.0
356.822174 148.0
356.923706 156.0
357.277252 200.0
357.437531 180.0
357.466095 184.0
357.559448 176.0
358.2146 208.0
358.387909 144.0
358.930664 160.0
358.968384 216.0
359.284515 156.0
359.713806 132.0
360.096771 172.0
361.416077 220.0
361.680969 228.0
361.856964 148.0
364.175873 160.0
365.396088 168.0
365.879425 188.0
365.982239 172.0
366.24881 224.0
366.866119 168.0
367.277954 184.0
367.682159 144.0
367.827393 164.0
368.01828 148.0
368.174835 188.0
369.390289 164.0
369.581573 204.0
370.508087 152.0
371.098297 176.0
371.923096 140.0
372.111176 156.0
372.191833 148.0
372.314697 148.0
372.618164 168.0
372.876526 124.0
373.37204 160.0
373.737 212.0
374.406372 180.0
374.498932 160.0
374.996246 164.0
375.096466 144.0
375.181274 184.0
375.555298 180.0
375.944183 196.0
376.473846 148.0
377.436035 180.0
377.640991 216.0
377.714996 116.0
377.962463 116.0
378.210785 212.0
378.43042 164.0
378.992035 140.0
379.02301 140.0
379.356323 144.0
380.089355 164.0
380.128052 152.0
381.316498 144.0
381.467743 144.0
382.744171 196.0
382.818146 152.0
383.262207 148.0
383.819611 156.0
384.201813 148.0
384.489014 140.0
384.916077 140.0
385.029327 188.0
385.396515 172.0
385.492157 144.0
386.346558 144.0
386.808319 208.0
387.24292 172.0
387.830658 160.0
387.872162 164.0
388.183472 156.0
388.469788 176.0
388.560028 140.0
389.042847 160.0
389.792908 212.0
391.263916 140.0
391.673462 212.0
392.055603 156.0
392.278229 664.0
392.326416 188.0
392.911255 140.0
393.25061 180.0
393.279633 216.0
393.684875 140.0
393.925812 172.0
394.185547 172.0
394.293274 168.0
395.239105 176.0
395.558929 212.0
395.679779 220.0
395.745026 184.0
395.8638 232.0
395.896545 120.0
396.414429 168.0
397.413666 308.0
397.786713 176.0
397.921692 140.0
397.997131 152.0
398.525391 220.0
398.902924 220.0
398.962555 156.0
399.782837 140.0
400.454742 164.0
400.636383 132.0
401.171967 180.0
401.379272 164.0
401.522827 140.0
401.993591 176.0
403.102448 128.0
403.151642 176.0
403.358368 144.0
403.587372 144.0
403.883301 160.0
404.007294 196.0
404.085907 172.0
404.383423 144.0
404.743713 160.0
405.004028 180.0
406.395111 192.0
406.688049 144.0
407.08551 148.0
407.274261 152.0
407.372467 152.0
407.43396 164.0
407.503235 200.0
408.480316 164.0
408.528412 192.0
408.858337 140.0
409.252838 172.0
409.513336 116.0
409.558899 164.0
409.679749 140.0
410.070587 140.0
410.127686 144.0
410.223755 160.0
410.489868 152.0
410.868988 140.0
410.980804 152.0
411.07074 168.0
411.256378 320.0
411.361328 180.0
412.686432 164.0
412.743042 140.0
413.487366 140.0
414.580811 172.0
414.791565 160.0
415.048798 108.0
415.088959 132.0
415.334778 108.0
415.553986 220.0
415.724396 156.0
415.760925 168.0
416.246796 300.0
417.007477 120.0
417.463074 148.0
418.394836 148.0
418.81427 152.0
418.850922 176.0
419.050537 168.0
419.282806 148.0
419.400146 124.0
419.637421 172.0
419.938904 172.0
420.63678 120.0
421.466034 172.0
421.735687 192.0
421.968689 160.0
422.09137 152.0
422.201752 148.0
422.434906 172.0
422.473816 180.0
422.88855 124.0
423.065094 228.0
423.403625 136.0
423.527832 144.0
423.654816 188.0
423.990784 172.0
424.031769 188.0
424.421204 188.0
424.877502 144.0
426.28479 160.0
426.317657 172.0
426.810944 152.0
426.943726 244.0
427.522583 160.0
427.835388 156.0
428.005402 176.0
428.560577 200.0
429.001221 140.0
429.45932 168.0
430.485901 200.0
430.895477 236.0
431.370728 152.0
431.76651 172.0
431.865326 208.0
432.07373 144.0
432.50412 168.0
432.810455 192.0
433.021667 152.0
433.292419 120.0
433.419342 152.0
434.082794 192.0
434.231842 180.0
435.144775 140.0
435.277466 100.0
435.888245 144.0
435.958893 152.0
436.029541 180.0
436.470184 156.0
436.599091 156.0
437.257263 160.0
438.064178 140.0
438.144501 144.0
438.20166 188.0
438.431915 220.0
438.782745 148.0
439.298096 144.0
439.606842 144.0
439.794647 168.0
440.458557 140.0
440.615997 180.0
440.667419 148.0
441.198486 108.0
442.297272 168.0
443.102386 228.0
443.186188 156.0
444.053925 148.0
444.477142 136.0
445.098877 156.0
445.359253 160.0
445.649109 188.0
445.993683 148.0
446.035736 208.0
446.174438 160.0
446.259979 128.0
446.780029 168.0
447.546021 172.0
447.588135 300.0
447.638672 140.0
448.191742 144.0
448.460175 144.0
448.502319 156.0
448.593353 128.0
448.670929 172.0
448.831146 148.0
449.894348 144.0
450.559113 224.0
451.022217 184.0
451.124756 172.0
451.257599 136.0
451.461914 176.0
451.605713 164.0
451.67337 144.0
452.018402 108.0
452.147247 192.0
452.333496 164.0
452.447784 168.0
452.534058 212.0
452.811951 144.0
453.008942 144.0
453.388123 160.0
453.981598 148.0
454.68158 172.0
454.762238 180.0
455.140045 152.0
455.326904 160.0
455.968933 168.0
456.053406 148.0
456.117188 164.0
456.46579 196.0
456.603516 236.0
456.640167 140.0
456.911163 124.0
457.00174 180.0
458.743591 180.0
458.87149 180.0
459.447235 204.0
459.592285 148.0
459.910217 224.0
460.4375 176.0
460.679626 152.0
461.215118 164.0
461.666168 136.0
461.719604 140.0
461.826538 156.0
461.921387 116.0
462.002167 140.0
462.366943 144.0
462.419281 156.0
462.588196 168.0
462.799072 156.0
462.883606 172.0
463.345856 164.0
464.117645 140.0
464.267731 188.0
464.330933 180.0
464.430725 140.0
464.59259 136.0
465.12262 96.0
465.301819 156.0
465.344757 192.0
465.559448 376.0
465.908722 176.0
466.063202 176.0
466.173767 148.0
466.328461 192.0
466.392944 260.0
466.698181 152.0
466.747162 236.0
467.199493 164.0
467.575714 152.0
467.700378 104.0
467.820007 132.0
467.935944 156.0
467.9935 148.0
468.126801 220.0
468.234589 104.0
468.458405 168.0
468.647949 192.0
468.755127 284.0
468.87204 152.0
469.036865 148.0
469.098999 180.0
469.147156 96.0
469.514374 232.0
469.559387 248.0
469.656708 160.0
469.708466 156.0
469.806519 104.0
469.918274 196.0
469.975952 148.0
470.081451 184.0
470.330475 104.0
470.371735 124.0
470.575897 152.0
470.612335 228.0
470.721344 140.0
470.908142 144.0
471.190521 140.0
471.242371 140.0
471.69046 252.0
471.928375 112.0
472.069092 104.0
472.136505 148.0
472.179504 148.0
472.230103 224.0
472.430084 248.0
472.470032 144.0
472.572174 140.0
472.702484 196.0
472.754303 168.0
472.82428 140.0
472.96405 284.0
473.003204 124.0
473.036591 124.0
473.076965 96.0
473.152344 100.0
473.195374 236.0
473.234589 280.0
473.3414 228.0
473.405945 184.0
473.448364 276.0
473.476685 128.0
473.539368 308.0
473.60022 336.0
473.690887 432.0
473.757568 132.0
473.808044 528.0
473.852203 172.0
473.906006 144.0
473.97644 372.0
474.016724 144.0
474.060425 232.0
474.077911 160.0
474.164368 348.0
474.215088 132.0
474.266296 652.0
474.319244 704.0
474.328583 548.0
474.394287 194096.0
474.54361 164.0
474.646698 164.0
474.688934 208.0
474.722534 96.0
474.766052 288.0
474.801819 156.0
474.867981 440.0
474.902466 132.0
474.981873 340.0
475.040192 180.0
475.110138 1660.0
475.186157 432.0
475.212372 268.0
475.244995 256.0
475.29306 228.0
475.305084 300.0
475.396576 73584.0
475.537109 120.0
475.677795 132.0
475.735901 336.0
475.763916 184.0
475.876587 368.0
476.016602 132.0
476.103943 332.0
476.188202 336.0
476.233856 236.0
476.278992 196.0
476.398224 9172.0
476.568237 196.0
476.636505 300.0
476.790344 204.0
476.834045 172.0
476.917206 348.0
476.958435 260.0
477.021271 132.0
477.154144 144.0
477.279572 172.0
477.397339 1872.0
477.617188 204.0
477.675171 116.0
477.719177 124.0
477.796021 212.0
477.850281 168.0
477.948578 244.0
477.978699 128.0
478.019287 368.0
478.090942 244.0
478.21405 172.0
478.246521 268.0
478.332977 320.0
478.371918 240.0
478.420441 284.0
478.474945 392.0
478.673523 132.0
478.810303 116.0
478.917114 124.0
478.967682 144.0
479.132843 284.0
479.288849 196.0
479.405609 392.0
479.440033 124.0
479.625702 240.0
479.819397 112.0
479.902405 140.0
480.534485 152.0
480.741669 140.0
481.300507 164.0
481.412903 108.0
482.015045 136.0
482.538483 152.0
482.620056 152.0
483.263885 160.0
483.766296 172.0
484.423157 148.0
485.21637 164.0
485.880127 160.0
486.406769 168.0
486.850708 144.0
487.248352 172.0
487.613068 156.0
488.339783 164.0
488.466064 208.0
488.560638 112.0
490.037689 180.0
490.235962 208.0
490.390198 188.0
491.885468 160.0
492.252075 120.0
492.711273 176.0
492.891388 156.0
493.104553 144.0
493.46701 148.0
493.534607 168.0
493.60849 156.0
495.135223 144.0
495.662537 112.0
496.287384 168.0
496.799011 164.0
497.367371 108.0
499.075745 196.0
499.138 200.0
501.698059 216.0
502.442291 172.0
502.865387 120.0
503.165802 140.0
505.111481 204.0
505.172363 140.0
505.842438 140.0
506.242065 200.0
506.694458 156.0
507.052917 200.0
509.080658 148.0
510.141022 200.0
510.527374 224.0
510.889801 220.0
510.998352 132.0
511.18222 144.0
511.404999 160.0
511.657898 160.0
511.84787 168.0
512.183594 112.0
512.376465 124.0
512.496094 112.0
512.638977 144.0
513.022095 216.0
513.281799 212.0
514.118103 140.0
514.555237 188.0
514.730835 104.0
515.101624 264.0
515.218079 160.0
515.308777 136.0
515.346924 252.0
515.406616 404.0
515.536133 256.0
515.674011 100.0
516.070862 120.0
516.132019 184.0
516.163818 100.0
516.309387 164.0
516.358948 292.0
516.443298 236.0
516.522278 160.0
516.565674 100.0
516.697327 148.0
516.838989 128.0
516.970276 192.0
517.034973 316.0
517.099304 136.0
517.163086 140.0
517.197754 148.0
517.309998 284.0
517.350769 204.0
517.385132 148.0
517.413208 264.0
517.46228 168.0
517.529724 244.0
517.614197 236.0
517.716187 264.0
517.841003 212.0
517.898438 424.0
517.936401 148.0
517.993958 196.0
518.104309 268.0
518.158325 144.0
518.217896 408.0
518.262878 488.0
518.294922 484.0
518.383972 170648.0
518.513855 192.0
518.543152 208.0
518.667053 140.0
518.706665 232.0
518.750549 120.0
518.83075 236.0
518.891541 100.0
518.949768 184.0
518.983582 204.0
519.061951 200.0
519.130127 1116.0
519.187012 212.0
519.247375 392.0
519.314331 236.0
519.385315 77056.0
519.535095 104.0
519.565552 320.0
519.630005 168.0
519.713928 156.0
519.768555 112.0
519.82196 120.0
519.891602 364.0
519.945801 204.0
520.115417 152.0
520.191895 164.0
520.273743 220.0
520.387817 11872.0
520.492798 212.0
520.572632 104.0
520.618408 136.0
520.714661 232.0
520.807983 160.0
520.880005 108.0
521.00177 100.0
521.082703 256.0
521.214905 128.0
521.276184 212.0
521.316589 196.0
521.386414 1200.0
521.48822 96.0
521.622864 116.0
521.69989 136.0
521.74292 180.0
521.886169 284.0
521.948975 164.0
522.025391 232.0
522.090576 232.0
522.141846 312.0
522.186646 172.0
522.220215 224.0
522.283752 260.0
522.364502 224.0
522.407288 148.0
522.45697 184.0
522.508179 252.0
522.566284 128.0
522.596497 412.0
522.672424 140.0
522.861877 204.0
522.91217 132.0
522.990601 100.0
523.204346 104.0
523.385376 100.0
523.59198 140.0
523.64856 124.0
523.686279 116.0
524.042725 148.0
524.542297 172.0
525.634033 104.0
528.360168 96.0
528.970581 124.0
529.294922 96.0
534.041687 100.0
534.844299 120.0
536.385498 100.0
537.191467 124.0
548.460693 156.0
569.075806 140.0
573.009094 140.0
629.3526 144.0
644.011597 140.0
649.444153 176.0
651.427246 148.0
688.071533 144.0
693.454163 232.0
745.953186 196.0
855.672424 144.0
1151.829346 152.0
1160.423828 148.0
1182.891724 140.0
1409.38147 164.0
1474.226929 144.0
1620.143799 140.0
1631.097412 252.0
1652.435669 172.0
1660.219849 144.0
1754.398071 140.0
1819.277588 216.0
1820.203003 184.0
1825.573486 164.0
1827.504395 156.0
1838.701416 156.0
1850.900146 264.0
1888.559937 224.0
1903.327026 176.0
1915.067261 168.0
1951.022949 156.0
1997.956665 152.0
2001.543579 160.0
