>compound Aphidicolin
>formula C20H34O4
>ionization [M+H]+
>parentmass 339.25298602009053
#inchi InChI=1S/C20H34O4/c1-17(11-21)15-4-3-13-9-14-10-19(13,7-8-20(14,24)12-22)18(15,2)6-5-16(17)23/h13-16,21-24H,3-12H2,1-2H3/t13-,14+,15-,16+,17-,18-,19-,20-/m0/s1
#inchikey NOFOAYPPHIUXJR
#Ion_Source DI-ESI
#Instrument qTof
#Compound_Source Isolated
#PI Norberto Lopes
#Data_Collector Monica Pupo
#Scan -1
#Precursor_MZ 339.23
#ExactMass 338.246
#Charge 1
#CAS_Number 38966-21-1
#Pubmed_ID N/A
#Smiles OC[C@@]1(O)CC[C@]23[C@](CC[C@]4([H])[C@]2(C)CC[C@@H](O)[C@@]4(C)CO)([H])C[C@@]1(C3)[H]
#INCHI_AUX N/A
#Library_Class 3
#SpectrumID CCMSLIB00000081679
#IonMode Positive
#UpdateWorkflowName UPDATE-SINGLE-ANNOTATED-BRONZE
#LibraryQualityString Bronze
#TaskID 52bd5f0db6314c93924d5ce5c86348eb
##Scan# 1
#SpectrumFile gnps_Aphidicolin_pos_MplusH.mgf
#LibraryName gnps_library.mgf
#MQScore -1
#Organism batch_27_05_V02
#TIC_Query 0
#RT_Query -1
#MZErrorPPM -1
#SharedPeaks 0
#MassDiff 0
#LibMZ -1
#SpecMZ 339.23
#SpecCharge 0
#internalFilename spec-00000.mgf

>collision 10
119.075523 115.0
131.074814 213.0
133.087387 208.0
135.10405 238.0
143.070358 144.0
145.087067 285.0
147.102036 193.0
149.120346 205.0
157.087296 249.0
159.102005 347.0
161.116913 461.0
171.099594 257.0
173.115616 259.0
175.130173 254.0
185.113754 251.0
187.130707 291.0
189.110565 223.0
191.128113 129.0
197.114258 147.0
199.129776 179.0
201.146088 134.0
203.125443 194.0
211.126312 289.0
213.143463 130.0
215.159317 230.0
225.142715 206.0
227.158676 520.0
229.167465 158.0
239.158844 202.0
241.172485 109.0
245.166 218.0
255.187149 298.0
257.202789 574.0
267.184875 2239.0
273.199585 180.0
285.19635 4028.0
303.202545 1108.0
321.211517 102.0
