>compound Acetamide, 2-amino-N-(1-methyl-1,2-diphenylethyl)-, (+/-)- [CAS]
>formula C17H20N2O
>ionization [M+H]+
>parentmass 269.165
#inchi InChI=1S/C17H20N2O/c1-17(19-16(20)13-18,15-10-6-3-7-11-15)12-14-8-4-2-5-9-14/h2-11H,12-13,18H2,1H3,(H,19,20)
#inchikey YSGASDXSLKIKOD
#Ion_Source LC-ESI
#Instrument qTof
#Compound_Source Commercial
#PI Dorrestein
#Data_Collector Garg_Neha
#Scan -1
#Precursor_MZ 269.165
#ExactMass 268.158
#Charge 1
#CAS_Number N/A
#Pubmed_ID N/A
#Smiles CC(Cc1ccccc1)(NC(=O)CN)c2ccccc2
#INCHI_AUX N/A
#Library_Class 1
#SpectrumID CCMSLIB00000079267
#IonMode Positive
#UpdateWorkflowName UPDATE-SINGLE-ANNOTATED-GOLD
#LibraryQualityString Gold
#TaskID 278b19f5865741e282cec7349aa7e7a1
##Scan# 1125
#SpectrumFile NCP003512_A2_B11_BD4_01_15728.mzXML
#LibraryName NIHcollectionI_05062014.mgf
#MQScore -1
#Organism NIHcollectionI_05062014
#TIC_Query 0
#RT_Query -1
#MZErrorPPM -1
#SharedPeaks 0
#MassDiff 0
#LibMZ -1
#SpecMZ 269.165
#SpecCharge 0
#internalFilename spec-00000.mgf

>collision 10
45.060658 144.0
48.101696 220.0
49.042149 140.0
49.094528 164.0
49.188606 168.0
49.507385 220.0
49.550808 168.0
50.063499 140.0
51.010052 160.0
51.95686 176.0
52.239868 148.0
52.422966 188.0
52.657875 144.0
52.770592 196.0
52.921062 144.0
53.442127 156.0
53.468323 156.0
53.591427 200.0
54.063755 176.0
54.468414 152.0
54.842152 140.0
55.229 140.0
55.393307 204.0
55.476292 216.0
55.947216 168.0
55.96806 208.0
56.08873 152.0
56.514351 180.0
57.379463 188.0
57.752457 248.0
58.031097 180.0
59.209015 184.0
60.750401 152.0
61.014408 176.0
61.120171 152.0
63.104359 144.0
64.22393 212.0
64.397903 148.0
64.532135 176.0
66.439049 228.0
67.667885 192.0
68.076172 144.0
68.814758 184.0
68.990616 156.0
69.111351 156.0
69.160995 140.0
70.279427 144.0
70.329491 144.0
70.693832 172.0
70.791916 192.0
70.87635 144.0
72.118332 176.0
74.056328 172.0
74.227699 144.0
74.320328 140.0
74.684525 148.0
75.032784 300.0
75.57296 164.0
75.940208 184.0
75.997452 148.0
76.363998 164.0
76.715729 156.0
77.306076 156.0
77.505699 212.0
78.011154 188.0
78.053345 208.0
78.069176 180.0
78.708839 256.0
78.883743 164.0
79.175682 152.0
79.324516 172.0
79.595963 156.0
79.613716 216.0
79.939034 216.0
80.69532 144.0
80.866005 128.0
81.456963 188.0
81.796814 148.0
82.496727 184.0
82.978287 144.0
83.179649 172.0
83.419434 164.0
84.126236 188.0
84.385658 140.0
85.118568 172.0
85.381348 160.0
87.064957 144.0
87.340027 184.0
88.214569 148.0
88.474594 192.0
89.694801 208.0
90.224197 208.0
90.31118 152.0
90.879501 144.0
90.938324 156.0
91.055161 9724.0
91.132019 188.0
91.836372 148.0
92.060135 688.0
92.926765 148.0
93.064957 148.0
93.184036 144.0
93.339722 152.0
93.357033 160.0
95.251122 196.0
96.203354 160.0
97.340889 184.0
97.806831 140.0
98.131874 200.0
99.207359 216.0
99.751282 212.0
100.352501 196.0
101.813248 188.0
102.340088 152.0
102.706863 204.0
103.096519 140.0
104.188644 204.0
105.300819 156.0
105.556267 196.0
106.980148 172.0
109.556343 152.0
111.601097 196.0
113.096794 216.0
113.891914 148.0
114.807083 188.0
115.054428 7692.0
115.086617 168.0
116.058952 712.0
116.613937 124.0
116.718971 184.0
116.94738 156.0
117.039848 164.0
117.070381 24148.0
117.179955 176.0
117.296326 176.0
117.345901 188.0
117.544342 140.0
118.024696 116.0
118.073112 2356.0
118.963264 120.0
121.706306 164.0
121.746956 172.0
122.429756 172.0
122.484818 176.0
123.036118 156.0
123.418335 164.0
123.714798 228.0
123.989456 164.0
124.402008 204.0
126.853615 140.0
127.015167 452.0
127.461823 152.0
127.659637 140.0
128.017624 156.0
128.224701 216.0
129.064453 184.0
129.088242 116.0
130.093033 172.0
131.137085 152.0
131.917725 260.0
132.813049 140.0
133.065475 220.0
133.350311 176.0
134.786011 216.0
136.640884 152.0
136.685089 172.0
136.761887 160.0
137.115906 180.0
138.890488 192.0
139.15332 176.0
139.418747 160.0
141.073364 164.0
141.601013 184.0
141.747894 160.0
142.04187 148.0
142.45491 228.0
142.882812 152.0
145.615005 192.0
146.139053 216.0
146.924469 148.0
147.115112 204.0
147.479858 200.0
148.089569 160.0
148.843781 176.0
150.387222 324.0
150.652618 216.0
151.054276 440.0
151.894012 172.0
152.062958 576.0
152.852615 176.0
153.071243 516.0
155.085144 172.0
156.037476 172.0
156.334366 176.0
156.356766 152.0
156.545959 160.0
157.041245 168.0
157.703552 156.0
157.946091 140.0
159.976135 188.0
160.245605 184.0
160.729706 188.0
160.863464 144.0
162.067276 156.0
162.087555 140.0
163.051865 196.0
163.466385 156.0
163.591095 172.0
163.988449 176.0
164.932831 188.0
165.042755 152.0
165.069641 1552.0
165.467468 148.0
165.874786 200.0
166.076965 816.0
166.629272 172.0
167.085495 7552.0
168.090057 1452.0
168.758148 148.0
169.09317 316.0
169.288589 152.0
169.317078 168.0
170.390945 148.0
171.85936 176.0
172.731934 220.0
175.832336 220.0
176.101624 172.0
176.81546 164.0
176.94252 188.0
177.064331 168.0
178.078949 920.0
178.640961 144.0
178.73674 164.0
178.93103 156.0
179.084595 976.0
179.423645 128.0
180.093872 752.0
181.099289 220.0
181.238647 144.0
182.027252 148.0
182.115875 248.0
183.817307 184.0
183.930862 160.0
187.279327 172.0
188.50972 160.0
188.933517 156.0
189.34137 200.0
190.644455 180.0
190.715912 188.0
191.805908 172.0
192.454208 140.0
192.885178 144.0
192.932175 140.0
193.109955 188.0
194.110306 108.0
194.444534 144.0
194.577011 128.0
194.667664 160.0
194.742004 140.0
194.786057 212.0
194.901703 152.0
194.962952 220.0
195.002838 132.0
195.027527 300.0
195.065247 256.0
195.1185 146440.0
195.200714 96.0
195.248535 120.0
195.293869 188.0
195.345917 156.0
195.455841 108.0
195.510529 220.0
195.574722 1100.0
195.610321 188.0
195.682983 112.0
195.710983 192.0
196.000641 104.0
196.028488 140.0
196.074875 172.0
196.121063 20756.0
196.170181 176.0
196.248566 152.0
196.470306 112.0
196.9133 136.0
197.028549 112.0
197.125671 1000.0
197.18782 236.0
197.224167 156.0
197.289932 144.0
197.362915 244.0
197.399948 192.0
197.455887 100.0
197.578247 108.0
197.614716 140.0
197.642548 112.0
197.695938 256.0
197.955795 116.0
198.044189 100.0
198.3759 136.0
201.133957 152.0
201.196198 168.0
212.409058 160.0
249.96315 204.0
267.060181 584.0
267.172394 164.0
268.057373 532.0
268.113373 148.0
268.227448 172.0
269.044739 180.0
269.167725 404.0
269.258484 172.0
358.065491 172.0
382.157898 148.0
823.447388 144.0
1104.829834 224.0
1128.901001 140.0
1152.758545 184.0
1196.115845 188.0
1233.987183 164.0
1245.191895 232.0
1267.058838 212.0
1267.349365 172.0
1270.142578 168.0
1276.491699 176.0
1279.294922 160.0
1281.196289 180.0
1341.444824 268.0
1356.400757 180.0
1386.79834 176.0
1388.459106 152.0
1393.164917 204.0
1397.091919 176.0
1431.550049 192.0
1433.177124 176.0
1441.341187 200.0
1452.99353 140.0
1453.190796 164.0
1455.634766 168.0
1499.832764 176.0
1502.601196 172.0
1506.716187 204.0
1509.173828 176.0
1510.109497 216.0
1511.525269 144.0
1511.695435 152.0
1522.020508 204.0
1527.468384 192.0
1535.873047 176.0
1539.978516 148.0
1553.551514 188.0
1559.660645 248.0
1586.785034 180.0
1593.31665 152.0
1595.351074 148.0
1601.389526 148.0
1613.887207 224.0
1634.380615 272.0
1641.856079 140.0
1650.81189 176.0
1652.510498 148.0
1664.22229 208.0
1667.934814 176.0
1680.451538 188.0
1682.304077 228.0
1686.625244 152.0
1696.931763 232.0
1699.761475 240.0
1700.139038 148.0
1706.694092 152.0
1717.449219 156.0
1720.882202 176.0
1741.294434 220.0
1745.657349 144.0
1759.179688 156.0
1764.350708 148.0
1767.336548 204.0
1771.530884 168.0
1792.619629 164.0
1798.168701 144.0
1805.64563 208.0
1821.520874 164.0
1821.614258 152.0
1830.869995 140.0
1831.660156 232.0
1842.963867 156.0
1846.331909 184.0
1850.387817 140.0
1854.585205 168.0
1872.585205 244.0
1887.151489 176.0
1899.743896 160.0
1906.264282 164.0
1910.890015 164.0
1928.12915 188.0
1932.335083 212.0
1933.910156 176.0
1935.50354 156.0
1964.727051 196.0
1969.299561 144.0
1983.421021 144.0
1984.830566 144.0
1992.987671 140.0
1995.671997 172.0
1996.80127 228.0
2002.052002 176.0
