>compound Leflunomide
>formula C12H9F3N2O2 
>ionization [M+H]+
>parentmass 271.07
#inchi InChI=1S/C12H9F3N2O2/c1-7-10(6-16-19-7)11(18)17-9-4-2-8(3-5-9)12(13,14)15/h2-6H,1H3,(H,17,18)
#inchikey VHOGYURTWQBHIL
#Ion_Source LC-ESI
#Instrument qTof
#Compound_Source Isolated
#PI Sirenas
#Data_Collector Ed Esquenazi 
#Scan -1
#Precursor_MZ 271.07
#ExactMass 0.0
#Charge 1
#CAS_Number N/A
#Pubmed_ID N/A
#Smiles N/A
#INCHI_AUX N/A
#Library_Class 3
#SpectrumID CCMSLIB00000004456
#IonMode Positive
#UpdateWorkflowName UPDATE-SINGLE-ANNOTATED-BRONZE
#LibraryQualityString Bronze
#TaskID d19310cd93df49b68e9fcbec27720eb5
##Scan# 3
#SpectrumFile Leflunomide.mgf
#LibraryName fda_library.mgf
#MQScore -1
#Organism fda_library
#TIC_Query 0
#RT_Query -1
#MZErrorPPM -1
#SharedPeaks 0
#MassDiff 0
#LibMZ -1
#SpecMZ 271.07
#SpecCharge 0
#internalFilename spec-00000.mgf

>collision 10
107.026459 6.399193
107.238907 13.93548
109.432953 12.82996
109.480713 10.8375
109.531479 7.058333
110.024101 4645.188965
110.067345 7.428572
110.078316 8.472222
110.094322 5.802778
110.104683 13.63636
110.133064 15.34131
110.165947 12.03157
110.175957 16.830721
110.199585 11.74167
110.207069 18.445181
110.219589 16.34981
110.22863 13.34569
110.260872 13.34131
110.290092 9.0
110.299858 9.963235
110.315674 4.741667
110.351624 9.75
110.374817 15.0789
110.39534 16.21212
110.427025 30.01786
110.439941 13.0
110.509712 35.77124
110.527824 4.016667
110.543938 10.75556
110.553307 5.686403
110.576775 7.757576
110.586143 5.708333
110.605881 25.27619
110.637756 20.73374
111.025894 16.36149
111.376015 4.583333
111.568848 5.669117
111.752907 13.34259
111.937141 11.38816
112.215881 12.09722
114.134377 8.595239
115.034378 21.09886
118.504776 6.272727
120.990028 51.845058
121.128212 12.0672
125.022285 13.06888
128.047226 10.8442
131.05835 36.972858
134.040924 86.514648
134.88353 6.352941
140.035797 51.7962
140.402908 4.761905
141.781601 8.001666
142.046127 329.023193
142.158722 10.015
142.424332 6.535
143.336517 4.013889
144.026077 53.632729
144.729782 7.927469
145.025909 580.16687
145.077164 4.001984
151.027985 53.51173
160.03714 67.96933
161.273544 16.35677
162.052216 210.234802
162.211502 14.66667
162.508514 5.041667
163.414474 4.0
164.033524 34.47953
166.045242 36.32579
167.042099 17.200001
189.986099 3.094697
192.019485 5.413462
208.038483 99.281578
208.087555 6.98077
208.288086 4.008333
212.031708 11.94707
403.269928 23.493891
1380.918945 10.88889
