>compound L-694,247
>formula C20H21N5O3S
>ionization [M+H]+
>parentmass 412.145599
#inchi InChI=1S/C20H21N5O3S/c1-29(26,27)25-16-5-2-13(3-6-16)10-19-23-20(28-24-19)14-4-7-18-17(11-14)15(8-9-21)12-22-18/h2-7,11-12,22,25H,8-10,21H2,1H3
#inchikey HKXMQLISPYELRD
#Ion_Source LC-ESI
#Instrument qTof
#Compound_Source Commercial
#PI Dorrestein
#Data_Collector Garg_Neha
#Scan -1
#Precursor_MZ 412.144
#ExactMass 411.137
#Charge 1
#CAS_Number N/A
#Pubmed_ID N/A
#Smiles CS(=O)(=O)Nc1ccc(Cc2noc(n2)c3ccc4[nH]cc(CCN)c4c3)cc1
#INCHI_AUX N/A
#Library_Class 1
#SpectrumID CCMSLIB00000079078
#IonMode Positive
#UpdateWorkflowName UPDATE-SINGLE-ANNOTATED-GOLD
#LibraryQualityString Gold
#TaskID 278b19f5865741e282cec7349aa7e7a1
##Scan# 1077
#SpectrumFile NCP003432_E2_F11_BD2_01_15724.mzXML
#LibraryName NIHcollectionI_05062014.mgf
#MQScore -1
#Organism NIHcollectionI_05062014
#TIC_Query 0
#RT_Query -1
#MZErrorPPM -1
#SharedPeaks 0
#MassDiff 0
#LibMZ -1
#SpecMZ 412.144
#SpecCharge 0
#internalFilename spec-00000.mgf

>collision 10
45.167709 200.0
45.505421 188.0
45.611549 268.0
45.763569 140.0
46.129177 176.0
46.242798 140.0
46.37011 160.0
46.682354 172.0
46.783039 204.0
46.812992 164.0
46.870205 140.0
47.063896 172.0
47.787594 140.0
48.263447 200.0
48.550095 188.0
49.443104 168.0
49.5047 144.0
50.297661 148.0
51.312542 128.0
51.52034 152.0
51.936378 176.0
52.355137 172.0
53.254726 200.0
53.414612 196.0
53.488823 188.0
54.071198 144.0
54.27042 160.0
54.374573 156.0
54.655254 156.0
54.875759 192.0
54.927803 184.0
56.24847 176.0
56.303711 144.0
56.646229 152.0
56.737644 168.0
57.337395 216.0
57.559151 148.0
57.647495 144.0
58.169285 144.0
58.296867 192.0
58.779587 196.0
58.938393 192.0
59.488213 240.0
60.837448 148.0
61.162334 196.0
61.483402 220.0
61.969711 156.0
62.131195 200.0
62.239491 164.0
62.398182 184.0
62.720894 180.0
62.828125 208.0
62.89756 148.0
63.549568 152.0
63.573372 240.0
64.028038 164.0
64.198563 168.0
65.406601 168.0
65.41787 164.0
65.570885 224.0
65.593452 196.0
66.643768 164.0
67.112534 148.0
67.174507 144.0
68.294914 168.0
68.421623 172.0
68.614174 160.0
69.408005 164.0
69.73671 208.0
70.059517 148.0
70.176186 184.0
71.165016 156.0
71.420448 180.0
72.524719 240.0
74.979111 156.0
75.208504 160.0
75.338005 152.0
75.548912 188.0
75.95253 144.0
75.966408 184.0
77.190804 192.0
77.24852 172.0
77.523407 140.0
77.779465 140.0
77.854958 140.0
78.129921 204.0
78.234749 160.0
78.271721 140.0
79.432869 204.0
80.079865 168.0
80.338326 244.0
81.125175 140.0
81.500267 140.0
81.532616 172.0
81.692642 148.0
81.924866 144.0
82.144791 220.0
82.572861 144.0
82.697701 196.0
82.739334 228.0
83.556015 144.0
83.97316 220.0
84.718933 176.0
84.938911 168.0
85.206924 184.0
86.310959 160.0
86.636696 176.0
87.730034 156.0
87.83757 236.0
87.953262 180.0
88.495399 152.0
88.658363 176.0
89.138763 168.0
89.793892 156.0
89.869347 140.0
90.474129 200.0
90.593437 176.0
90.606697 196.0
90.999283 224.0
91.071449 192.0
91.651672 160.0
91.972061 172.0
92.279625 176.0
93.203468 156.0
93.568901 148.0
93.624741 144.0
93.802002 184.0
94.597862 168.0
94.822548 212.0
95.381538 144.0
95.439857 176.0
95.642181 156.0
95.89344 196.0
96.176254 160.0
96.858658 180.0
98.153793 160.0
98.491272 164.0
99.203629 196.0
99.382118 148.0
100.125572 236.0
100.19529 176.0
100.23912 176.0
100.480377 156.0
100.709946 160.0
101.406219 148.0
101.875992 164.0
102.918999 144.0
103.309059 176.0
104.018311 156.0
104.241714 332.0
104.304718 252.0
104.530464 156.0
105.060638 168.0
105.609688 164.0
105.726303 156.0
106.065445 14236.0
106.187263 148.0
106.267265 160.0
107.019516 216.0
107.048935 336.0
107.067444 1608.0
108.057198 188.0
108.115616 168.0
108.469788 160.0
108.487495 228.0
108.517464 172.0
108.795471 208.0
109.810898 140.0
109.894341 176.0
110.596504 204.0
110.747253 144.0
111.978035 184.0
112.070724 216.0
112.530518 188.0
112.754433 144.0
112.887611 164.0
113.020874 168.0
113.296112 152.0
113.790253 160.0
113.943169 156.0
114.030289 156.0
114.931076 184.0
115.054329 1068.0
115.283401 196.0
115.925385 148.0
116.045975 468.0
116.805649 140.0
117.066406 220.0
117.259956 164.0
117.333244 172.0
118.064674 1020.0
118.851562 184.0
118.970924 140.0
119.06842 160.0
120.065613 172.0
120.084991 188.0
120.836456 148.0
121.07505 160.0
121.283188 172.0
121.524414 188.0
122.059738 432.0
122.146126 172.0
122.663589 148.0
122.86264 152.0
124.335716 140.0
126.27758 192.0
126.797874 172.0
126.98172 180.0
127.129784 148.0
128.047729 148.0
128.087555 152.0
128.31517 152.0
129.061142 120.0
129.750778 172.0
129.89592 176.0
129.970779 188.0
130.043396 164.0
130.065125 1212.0
130.118317 172.0
131.069702 156.0
131.354004 152.0
132.043381 144.0
132.065903 496.0
132.245132 156.0
134.276154 176.0
135.343781 152.0
136.236694 168.0
136.736603 144.0
137.043991 140.0
138.04068 180.0
138.761841 140.0
139.177124 156.0
140.021347 288.0
140.055466 288.0
140.830307 232.0
141.057724 160.0
141.674774 184.0
141.705566 244.0
142.065277 3836.0
142.086792 240.0
142.78801 148.0
142.807037 140.0
142.978333 180.0
143.025925 144.0
143.072601 1900.0
143.981995 152.0
144.013504 168.0
144.044998 624.0
144.081268 8376.0
144.27829 160.0
145.051834 176.0
145.083206 404.0
145.995071 152.0
146.070602 1860.0
147.075577 736.0
147.395615 164.0
148.061905 192.0
148.088074 152.0
148.607452 196.0
148.812561 164.0
149.067856 152.0
149.327728 156.0
149.938812 144.0
150.929901 140.0
151.399734 156.0
151.853134 148.0
152.184418 164.0
152.346497 184.0
153.609329 212.0
154.079758 228.0
154.370026 180.0
154.954178 156.0
155.055771 164.0
155.199539 140.0
156.046204 164.0
156.079941 904.0
156.257599 144.0
157.055893 408.0
157.076965 508.0
157.491547 148.0
157.978973 196.0
158.060974 10212.0
158.156631 240.0
158.413651 112.0
159.062195 1128.0
159.090439 364.0
159.227219 148.0
159.629303 176.0
160.059265 268.0
160.07489 444.0
160.099884 144.0
160.194366 160.0
160.295776 272.0
160.616562 200.0
160.737656 140.0
160.815887 144.0
160.896667 180.0
161.04425 160.0
161.108795 180.0
161.710602 152.0
162.382004 172.0
162.414978 152.0
162.732178 148.0
162.840057 192.0
163.025558 152.0
163.454041 172.0
163.767166 140.0
163.848679 220.0
165.066162 160.0
165.731659 140.0
166.58342 152.0
167.06218 404.0
167.591904 144.0
168.067429 1096.0
168.746902 244.0
169.075806 996.0
169.159531 160.0
169.229706 112.0
169.352127 136.0
169.374451 184.0
169.592102 176.0
169.831009 168.0
169.851395 180.0
169.931427 332.0
170.022232 204.0
170.060867 82436.0
170.131332 208.0
170.186356 372.0
170.380157 176.0
170.482742 292.0
170.791336 124.0
170.847595 96.0
171.06366 10268.0
171.191864 104.0
171.369598 192.0
171.413895 152.0
171.74675 112.0
171.79715 208.0
172.064636 808.0
172.105118 208.0
172.200211 116.0
172.418579 216.0
172.655823 204.0
173.030655 172.0
173.070999 3780.0
173.106598 212.0
173.254044 108.0
173.306763 172.0
174.048355 192.0
174.074203 452.0
174.744461 176.0
175.064713 1516.0
175.959442 152.0
176.905869 152.0
176.961472 184.0
178.080521 220.0
178.372803 232.0
181.423996 188.0
182.444122 140.0
182.686157 164.0
182.88797 144.0
183.320053 120.0
183.407806 208.0
183.627136 152.0
183.728409 144.0
183.764603 128.0
183.873154 248.0
183.901398 140.0
183.920303 160.0
183.939194 224.0
183.994446 184.0
184.043518 84688.0
184.134949 196.0
184.281921 144.0
184.29866 184.0
184.360474 136.0
184.521927 112.0
184.593903 108.0
184.792343 120.0
185.045792 6792.0
185.071075 1312.0
185.324982 168.0
185.890533 192.0
186.039581 3124.0
186.073669 400.0
186.167023 148.0
186.334595 96.0
186.376205 128.0
186.446823 104.0
186.506943 128.0
187.041214 356.0
187.086731 5124.0
187.132721 184.0
187.473206 140.0
187.816727 152.0
187.942215 140.0
188.089264 1064.0
189.375259 112.0
189.404099 172.0
190.851059 220.0
191.178406 184.0
193.942978 168.0
194.502701 116.0
195.056931 180.0
195.927048 176.0
196.084976 148.0
196.640884 176.0
196.964767 224.0
197.069443 192.0
198.064453 280.0
199.085403 168.0
199.936737 184.0
200.083099 404.0
201.089417 148.0
202.40506 132.0
203.217407 180.0
204.849243 184.0
206.004547 144.0
209.034866 168.0
209.077148 224.0
210.10112 208.0
210.161713 144.0
210.638046 208.0
210.976151 156.0
211.074829 2420.0
211.291367 180.0
211.502625 144.0
211.955994 160.0
212.082672 30204.0
212.138962 196.0
212.676514 188.0
212.908783 196.0
213.084473 3316.0
213.144073 140.0
213.283569 140.0
214.086075 440.0
214.800629 140.0
215.089508 156.0
215.895874 176.0
217.081512 128.0
218.836075 180.0
220.060928 128.0
222.23262 156.0
223.069565 172.0
223.426422 140.0
224.082626 228.0
225.032791 164.0
226.066345 324.0
227.247589 144.0
228.750214 248.0
229.103958 120.0
230.073608 148.0
230.535721 172.0
230.56897 140.0
231.095123 208.0
232.037033 188.0
232.105515 220.0
234.11702 164.0
235.597733 148.0
235.863586 212.0
235.888046 156.0
237.124603 180.0
238.859375 168.0
240.804276 152.0
242.614426 204.0
244.88588 152.0
245.102509 408.0
245.29718 160.0
246.082703 180.0
246.115982 380.0
246.761307 152.0
247.125595 300.0
247.462128 156.0
248.127151 128.0
248.314468 156.0
253.538483 176.0
256.382751 156.0
258.095673 180.0
258.660004 200.0
259.091492 112.0
259.118744 128.0
259.829651 192.0
260.086121 144.0
260.118286 132.0
261.100494 540.0
262.101959 260.0
262.199463 168.0
262.341278 188.0
263.193024 180.0
263.632324 208.0
264.087708 168.0
265.007538 152.0
265.062286 272.0
269.281982 144.0
269.340759 176.0
270.658722 148.0
272.121185 496.0
272.534882 204.0
273.125183 696.0
274.127411 200.0
275.109161 144.0
275.134247 128.0
276.116302 204.0
276.141296 152.0
278.16095 176.0
279.225677 144.0
282.444275 228.0
282.705231 200.0
283.157166 148.0
283.197357 200.0
285.113068 148.0
285.688019 160.0
286.106079 196.0
287.124603 244.0
287.332031 184.0
288.106842 136.0
288.133423 112.0
289.129639 168.0
290.128235 172.0
290.403503 172.0
290.651154 160.0
293.559509 216.0
293.794861 260.0
294.224854 228.0
294.477539 200.0
295.496216 172.0
296.174011 164.0
296.880035 176.0
297.200928 188.0
297.892517 140.0
298.121307 176.0
299.104187 176.0
299.167145 208.0
300.105621 180.0
301.116302 112.0
301.247742 192.0
302.118378 160.0
302.946259 236.0
303.125275 2280.0
304.131683 2156.0
304.861481 160.0
305.138031 420.0
305.424713 164.0
306.821106 140.0
307.141907 152.0
307.305878 192.0
308.199707 192.0
308.461823 216.0
309.315308 160.0
312.080872 2180.0
313.083923 1040.0
314.086945 288.0
314.948334 148.0
315.124603 2572.0
315.584442 176.0
316.131866 14340.0
316.636536 152.0
317.049896 188.0
317.134277 2668.0
318.135376 672.0
319.158447 336.0
323.21759 172.0
325.034271 156.0
325.100372 196.0
325.150146 144.0
327.100769 148.0
328.7659 140.0
330.735626 196.0
331.120087 124.0
333.04892 144.0
333.16272 308.0
334.163086 800.0
335.171631 228.0
335.257294 152.0
335.439545 264.0
335.833344 148.0
336.129456 328.0
339.765656 172.0
340.110809 276.0
342.106598 152.0
344.717896 148.0
345.372253 140.0
346.942322 228.0
347.064667 148.0
348.029388 168.0
348.935944 160.0
349.787811 140.0
349.966522 160.0
351.121704 156.0
351.423828 160.0
351.785858 200.0
352.106964 140.0
353.094391 132.0
353.347961 220.0
354.096588 300.0
354.748566 148.0
355.296082 216.0
355.618774 176.0
357.001312 192.0
357.136719 168.0
359.404572 276.0
364.626587 160.0
365.588745 144.0
365.957977 172.0
368.110443 164.0
368.35675 152.0
368.498108 140.0
369.104034 328.0
370.10614 156.0
370.495148 164.0
370.644562 188.0
371.046997 140.0
371.511047 152.0
373.147064 144.0
373.854797 236.0
377.221893 164.0
379.661133 208.0
380.903107 160.0
381.28775 200.0
382.042084 168.0
382.495361 156.0
382.660858 164.0
383.117981 10728.0
383.271179 208.0
383.424896 112.0
383.699646 184.0
383.863007 144.0
384.035736 100.0
384.120117 1764.0
384.437347 112.0
384.905212 188.0
385.011658 156.0
385.11615 1316.0
385.230865 156.0
385.27774 188.0
385.328522 148.0
386.114166 300.0
388.195831 132.0
389.95636 152.0
390.84906 160.0
392.507324 152.0
392.878082 152.0
393.102966 144.0
393.623627 116.0
393.824249 184.0
393.997223 180.0
394.084137 180.0
394.128143 128.0
394.263367 104.0
394.32486 196.0
394.486023 180.0
394.657715 292.0
394.687592 100.0
394.872437 108.0
394.967041 248.0
395.034637 96.0
395.061737 384.0
395.118958 142500.0
395.258057 172.0
395.303925 124.0
395.3591 148.0
395.404755 112.0
395.469421 144.0
395.511993 180.0
395.558228 156.0
395.592072 120.0
395.637817 108.0
395.675568 140.0
395.736511 104.0
395.766907 396.0
395.869446 196.0
395.951324 124.0
396.001587 116.0
396.031982 172.0
396.120667 34196.0
396.48822 112.0
396.601685 124.0
396.761169 180.0
396.975983 164.0
397.117798 7472.0
397.242828 148.0
397.561523 100.0
397.7005 116.0
398.062775 160.0
398.112579 1796.0
398.242615 164.0
398.332703 180.0
398.431274 256.0
398.591431 104.0
398.649292 116.0
398.701477 100.0
398.780457 100.0
398.808136 148.0
399.025604 116.0
399.128357 100.0
399.561401 256.0
399.595917 196.0
399.769073 124.0
399.805573 124.0
400.057129 164.0
400.466675 96.0
401.587128 148.0
402.367096 140.0
402.662598 140.0
403.008606 124.0
403.403625 104.0
403.904968 100.0
405.655487 156.0
406.322815 156.0
407.390381 144.0
409.232452 184.0
409.350006 148.0
409.930054 172.0
410.059082 132.0
410.129303 156.0
410.181702 144.0
410.233734 124.0
410.290558 172.0
410.741089 132.0
410.844696 264.0
411.046234 144.0
411.081543 132.0
411.159302 136.0
411.265961 224.0
411.294678 136.0
411.449432 140.0
411.504913 108.0
411.631012 252.0
411.797302 384.0
411.824036 164.0
411.871185 104.0
411.94458 180.0
411.996246 124.0
412.051697 444.0
412.145599 162160.0
412.245911 196.0
412.279114 212.0
412.49231 200.0
412.524261 132.0
412.654358 168.0
412.708466 112.0
412.753937 180.0
412.811096 640.0
412.928009 96.0
412.999207 236.0
413.086212 224.0
413.147888 35684.0
413.340057 144.0
413.514282 148.0
413.662903 168.0
413.755524 132.0
413.798828 148.0
413.860901 252.0
414.060272 144.0
414.14386 8552.0
414.408478 100.0
414.436798 264.0
415.143646 1188.0
415.247284 192.0
415.407715 200.0
415.509979 100.0
415.58017 144.0
415.694733 128.0
415.733276 132.0
415.828156 140.0
415.939972 212.0
416.144073 236.0
416.237427 96.0
416.377594 176.0
416.736053 120.0
416.798126 124.0
416.961243 148.0
417.004608 136.0
417.301361 96.0
417.496124 176.0
428.97049 140.0
430.14682 96.0
432.382172 156.0
522.78479 144.0
541.382874 120.0
551.337585 164.0
629.174438 152.0
652.206238 160.0
669.329407 156.0
756.044617 148.0
778.52771 108.0
952.421814 140.0
1225.217407 144.0
1287.090576 224.0
1373.234375 216.0
1389.10022 172.0
1391.230957 152.0
1430.612305 140.0
1433.760742 276.0
1446.305664 144.0
1474.989624 164.0
1475.478882 164.0
1489.179932 184.0
1491.338867 152.0
1510.314209 176.0
1537.788208 180.0
1545.540405 152.0
1552.32373 140.0
1573.520996 220.0
1585.647217 180.0
1586.043579 144.0
1599.077393 144.0
1614.346802 176.0
1616.234619 164.0
1616.675537 196.0
1617.571167 144.0
1619.773193 152.0
1627.953857 148.0
1633.185791 160.0
1638.756592 168.0
1654.618652 168.0
1663.950073 268.0
1682.030518 140.0
1685.060303 184.0
1687.487671 148.0
1692.765137 172.0
1695.665161 152.0
1711.001099 220.0
1714.889038 168.0
1727.017944 156.0
1732.572388 148.0
1735.357056 160.0
1735.755005 160.0
1742.012817 164.0
1743.283936 152.0
1744.979614 160.0
1747.616211 164.0
1748.764526 232.0
1763.268188 172.0
1774.233521 188.0
1775.197754 168.0
1794.613037 164.0
1803.003662 168.0
1806.174194 208.0
1816.45752 176.0
1820.437988 144.0
1825.511108 152.0
1830.685059 140.0
1831.775269 144.0
1847.285645 228.0
1847.644897 148.0
1859.632812 152.0
1865.998169 152.0
1872.856567 164.0
1874.11438 168.0
1876.570801 184.0
1879.391113 212.0
1879.549805 176.0
1880.44397 172.0
1881.764648 168.0
1886.256958 176.0
1899.522827 224.0
1900.702637 148.0
1900.832886 160.0
1907.372437 140.0
1911.016235 148.0
1916.283691 184.0
1918.078979 156.0
1918.898438 152.0
1921.3927 144.0
1939.415283 176.0
1946.500122 196.0
1962.465088 200.0
1980.227051 152.0
1982.574829 208.0
1986.165527 180.0
1991.944092 164.0
1999.991211 140.0
2001.656006 152.0
