>compound MLS002153354-01!Tyrphostin A910537-47-0
>formula C18H22N2O
>ionization [M+H]+
>parentmass 283.1804897760905
#inchi InChI=1S/C18H22N2O/c1-17(2,3)14-8-12(7-13(10-19)11-20)9-15(16(14)21)18(4,5)6/h7-9,21H,1-6H3
#inchikey MZOPWQKISXCCTP
#Ion_Source LC-ESI
#Instrument qTof
#Compound_Source NIH Pharmacologically Active Library
#PI Dorrestein
#Data_Collector VP/LMS
#Scan -1
#Precursor_MZ 283.175
#ExactMass 282.173
#Charge 1
#CAS_Number N/A
#Pubmed_ID N/A
#Smiles CC(C)(C)c1cc(C=C(C#N)C#N)cc(c1O)C(C)(C)C
#INCHI_AUX N/A
#Library_Class 3
#SpectrumID CCMSLIB00000085313
#IonMode Positive
#UpdateWorkflowName UPDATE-SINGLE-ANNOTATED-BRONZE
#LibraryQualityString Bronze
#TaskID d252d724072548979f1f6f1ced849daf
##Scan# 2763
#SpectrumFile p3-H03_GH3_01_18308.mzXML
#LibraryName Pharm_Active_Library.mgf
#MQScore -1
#Organism Pharm_Active_Library
#TIC_Query 0
#RT_Query -1
#MZErrorPPM -1
#SharedPeaks 0
#MassDiff 0
#LibMZ -1
#SpecMZ 283.175
#SpecCharge 0
#internalFilename spec-00000.mgf

>collision 10
55.240734 36.0
70.045273 128.0
76.767662 204.0
80.412926 120.0
85.164612 176.0
86.292465 96.0
88.375725 108.0
100.231972 132.0
100.690819 96.0
107.047516 244.0
107.086647 148.0
107.179359 240.0
109.893661 240.0
111.235199 180.0
117.693283 176.0
118.049843 196.0
128.825516 60.0
129.060089 148.0
130.068756 176.0
131.078598 144.0
138.004105 136.0
140.043488 168.0
140.059967 184.0
142.050385 60.0
142.653564 152.0
143.050858 240.0
144.060852 176.0
145.659851 164.0
149.137115 168.0
154.638992 88.0
155.054184 196.0
155.141846 28.0
156.079941 204.0
156.882111 140.0
157.009277 164.0
159.472977 100.0
165.076218 68.0
166.064804 116.0
166.98175 192.0
167.064056 120.0
167.084641 156.0
168.053406 124.0
168.072906 184.0
169.07576 336.0
170.466797 64.0
170.71637 140.0
171.065033 252.0
171.109283 96.0
172.105301 92.0
174.416061 116.0
179.05574 176.0
180.046371 168.0
180.064041 316.0
181.063919 132.0
182.090164 108.0
182.743408 168.0
183.054672 304.0
183.090668 144.0
183.411285 64.0
184.074463 140.0
184.111832 188.0
184.964523 212.0
185.061981 152.0
185.110886 128.0
185.557816 144.0
186.396545 72.0
189.457947 128.0
190.876999 156.0
192.061279 176.0
193.069412 156.0
194.085724 72.0
194.862915 28.0
195.061417 160.0
195.091736 344.0
195.502472 120.0
196.062256 204.0
196.103027 168.0
197.069656 1164.0
197.119949 128.0
197.547729 40.0
198.072235 164.0
199.094986 160.0
199.52771 60.0
199.848358 128.0
200.104492 108.0
207.107895 168.0
208.585678 52.0
209.105576 188.0
210.112366 196.0
211.08728 316.0
212.09169 1396.0
213.097168 248.0
213.216217 52.0
214.677704 116.0
223.102249 200.0
225.098587 176.0
226.113602 108.0
227.119202 504.0
228.127777 148.0
238.036484 156.0
241.15123 136.0
251.115036 112.0
252.112717 224.0
253.131363 120.0
282.219971 108.0
285.869659 48.0
355.734985 100.0
387.712952 76.0
457.685852 20.0
461.718628 60.0
1229.989258 128.0
1341.9375 176.0
1351.213379 188.0
1382.783203 196.0
1488.221558 240.0
