>compound Stypoldione
>formula C27H38O4 
>ionization [M+H]+
>parentmass 427.285736
#inchi InChI=1S/C27H38O4/c1-15-13-18(28)22(30)17-14-27(31-23(15)17)16(2)7-8-20-25(5)11-10-21(29)24(3,4)19(25)9-12-26(20,27)6/h13,16,19-21,29H,7-12,14H2,1-6H3/t16-,19-,20+,21-,25-,26+,27-/m0/s1
#inchikey LLWMPGSQZXZZAE
#Ion_Source LC-ESI
#Instrument qToF
#Compound_Source Isolated
#PI Dorrestein/Gerwick
#Data_Collector Luzzatto/Garg
#Scan -1
#Precursor_MZ 427.294
#ExactMass 426.277
#Charge 1
#CAS_Number N/A
#Pubmed_ID 3761306
#Smiles N/A
#INCHI_AUX N/A
#Library_Class 2
#SpectrumID CCMSLIB00000070283
#IonMode Positive
#UpdateWorkflowName UPDATE-SINGLE-ANNOTATED-SILVER
#LibraryQualityString Silver
#TaskID 6c7cf0ddbcd944488b3f58728dc48405
##Scan# 1714
#SpectrumFile 2E6_Stypoldione_MH_427.mzXML
#LibraryName gnps_library.mgf
#MQScore -1
#Organism Dorrestein_TLK_Lib
#TIC_Query 0
#RT_Query -1
#MZErrorPPM -1
#SharedPeaks 0
#MassDiff 0
#LibMZ -1
#SpecMZ 427.294
#SpecCharge 0
#internalFilename spec-00000.mgf

>collision 10
95.085953 204.0
95.233147 180.0
96.208321 164.0
96.765274 164.0
98.651184 244.0
99.933823 200.0
101.052666 252.0
103.432442 224.0
105.075798 156.0
105.145149 156.0
106.859589 208.0
107.052994 252.0
107.08387 924.0
107.100342 244.0
109.069389 148.0
109.101295 280.0
110.999771 156.0
111.639992 176.0
112.887894 284.0
114.178871 260.0
114.740784 216.0
115.688934 164.0
116.278145 200.0
116.701157 208.0
118.42469 244.0
119.086243 784.0
119.982094 240.0
120.09108 224.0
120.881615 180.0
121.065422 216.0
121.102821 480.0
121.181465 180.0
121.600128 260.0
122.107437 148.0
122.36039 356.0
123.07666 220.0
123.116394 944.0
123.153923 196.0
125.058876 212.0
126.57296 140.0
127.040482 164.0
127.57769 204.0
128.016251 144.0
128.604431 192.0
131.091339 168.0
131.410431 140.0
131.972076 208.0
132.562393 244.0
133.069092 240.0
133.10054 388.0
133.924194 184.0
134.10672 256.0
134.239807 168.0
135.046875 412.0
135.075531 160.0
135.117203 220.0
137.063187 224.0
137.092316 192.0
137.413971 156.0
138.250137 200.0
138.964523 228.0
139.678406 172.0
139.894806 252.0
140.177322 248.0
141.312592 196.0
141.894974 224.0
142.077515 180.0
143.087738 240.0
143.349045 208.0
143.797195 180.0
144.093185 216.0
144.217392 220.0
145.102737 504.0
146.07254 176.0
146.476776 276.0
147.045822 152.0
147.085114 264.0
147.115494 740.0
147.489807 184.0
147.765381 180.0
148.600891 200.0
149.132019 776.0
150.052277 228.0
150.098587 196.0
151.043335 232.0
151.074539 344.0
151.111816 168.0
151.145355 212.0
151.709137 236.0
153.054901 10664.0
153.127792 276.0
153.937363 168.0
154.057541 828.0
154.609482 160.0
155.010498 236.0
155.052612 224.0
155.068909 220.0
155.352509 172.0
156.042633 240.0
157.09993 244.0
158.169708 204.0
159.081772 252.0
159.119614 508.0
159.214783 164.0
161.057648 168.0
161.098053 180.0
161.136826 628.0
161.542786 208.0
161.952682 204.0
162.098297 124.0
162.140884 256.0
163.148407 824.0
164.047089 400.0
164.124619 164.0
164.151352 176.0
164.667953 188.0
165.053665 424.0
165.089462 340.0
165.127808 184.0
165.161041 164.0
165.898209 180.0
167.071671 636.0
169.106415 240.0
171.092773 192.0
171.115936 208.0
172.076447 236.0
173.131577 676.0
174.062943 152.0
174.320267 228.0
175.078003 480.0
175.148087 748.0
177.053833 464.0
177.089233 140.0
177.162247 356.0
177.327591 152.0
178.061981 196.0
178.09671 264.0
178.830246 188.0
179.070831 1196.0
179.144775 372.0
180.074844 220.0
180.149597 228.0
181.086594 696.0
181.310364 232.0
182.983139 180.0
186.142654 156.0
187.080276 184.0
187.148361 844.0
188.154694 192.0
189.087921 212.0
189.121231 268.0
189.164795 676.0
189.348389 144.0
190.091003 212.0
190.166977 424.0
191.073486 648.0
191.106674 620.0
191.143158 560.0
191.182083 368.0
191.360367 152.0
192.07843 196.0
192.182907 220.0
192.90741 204.0
193.085297 1408.0
193.15065 228.0
194.089966 328.0
194.16394 176.0
194.299805 148.0
195.113907 124.0
196.167831 156.0
197.395798 180.0
199.073639 224.0
201.090302 196.0
201.162231 488.0
202.094147 192.0
202.167313 228.0
203.106186 196.0
203.180969 980.0
204.030441 156.0
204.078751 236.0
204.471146 208.0
205.085037 912.0
205.122589 228.0
205.156494 448.0
205.445236 148.0
206.084549 180.0
206.158752 148.0
207.104599 268.0
209.114349 196.0
212.085205 208.0
213.164368 220.0
214.172104 152.0
215.180206 400.0
217.084869 208.0
218.092697 164.0
219.102707 748.0
219.172104 176.0
220.106857 648.0
220.186646 236.0
220.943039 160.0
221.119614 280.0
221.187363 208.0
222.186798 144.0
225.003998 156.0
226.097549 220.0
226.576447 168.0
227.11174 256.0
227.145782 200.0
227.174789 224.0
228.106293 164.0
228.184418 224.0
229.074844 220.0
229.12001 208.0
229.193695 396.0
230.05751 188.0
231.098022 160.0
231.212845 216.0
233.118088 724.0
233.183624 168.0
233.66243 156.0
233.975769 148.0
234.121902 332.0
235.15535 212.0
237.028809 244.0
237.132965 264.0
239.106964 204.0
239.799637 148.0
241.086044 324.0
241.206528 148.0
243.098114 196.0
243.213837 324.0
244.110382 184.0
245.107315 140.0
245.127136 236.0
245.229309 192.0
246.122513 172.0
246.238007 196.0
246.450653 200.0
247.131348 384.0
247.211884 204.0
248.136673 296.0
249.143631 160.0
249.819244 172.0
251.134552 232.0
253.114105 176.0
255.123566 208.0
255.212021 696.0
256.131897 160.0
256.213348 244.0
257.158142 172.0
257.186859 164.0
257.227722 2596.0
258.230713 956.0
259.137268 416.0
259.234283 180.0
259.264893 180.0
260.791931 144.0
261.146576 176.0
262.123749 192.0
262.155945 180.0
269.225952 352.0
270.123627 176.0
270.236267 212.0
271.137268 380.0
273.151611 604.0
273.224854 1060.0
273.702759 152.0
274.160461 484.0
274.223816 300.0
274.410126 196.0
275.133087 236.0
275.17688 248.0
275.238922 2692.0
276.241272 172.0
277.24649 200.0
283.04303 192.0
284.135223 204.0
285.152252 164.0
287.164642 396.0
287.250488 164.0
288.018372 176.0
288.91864 200.0
289.177612 336.0
289.211456 140.0
295.492432 144.0
299.161407 360.0
303.59256 188.0
313.186584 168.0
314.193756 212.0
315.201416 160.0
316.196289 184.0
316.833527 156.0
317.173584 172.0
319.921906 148.0
320.837067 144.0
322.044006 276.0
325.181885 164.0
327.708313 188.0
328.194702 204.0
328.349701 148.0
335.194855 164.0
340.199829 172.0
341.20813 116.0
341.242767 188.0
347.875153 144.0
353.204163 196.0
354.208099 180.0
355.902527 208.0
357.200195 148.0
360.564178 164.0
361.231323 152.0
366.957733 148.0
367.205475 176.0
373.784302 200.0
379.928864 176.0
380.805786 192.0
381.244598 224.0
391.26236 536.0
392.26355 360.0
393.271271 192.0
409.218994 172.0
409.273438 6208.0
409.43634 144.0
409.875244 176.0
410.276672 2176.0
411.205505 184.0
411.275635 132.0
424.441956 196.0
424.851898 148.0
426.267822 196.0
427.285736 5208.0
428.290771 1312.0
429.29364 368.0
430.389374 232.0
430.567108 124.0
483.618866 144.0
689.516968 148.0
935.519226 148.0
1066.220215 280.0
1104.523193 132.0
1225.237793 184.0
1239.59729 220.0
1290.107056 256.0
1440.543579 188.0
1461.079346 140.0
1494.039062 256.0
1500.551758 184.0
1570.019409 152.0
1573.213623 168.0
1599.489136 204.0
1626.351196 268.0
1655.808228 164.0
1668.469482 284.0
1730.636353 144.0
1743.43042 200.0
1769.009399 168.0
1772.877319 240.0
1794.917847 204.0
1830.799683 236.0
1831.489258 300.0
1837.138428 192.0
1856.666504 176.0
1895.278564 200.0
1913.658569 220.0
1923.244019 212.0
1950.061035 160.0
1953.515259 252.0
1970.496582 272.0
1977.647705 216.0
1988.598145 232.0
1998.075806 236.0
