>compound MLS001141046-01!
>formula C30H35N5O4
>ionization [M+H]+
>parentmass 530.275452
#inchi InChI=1S/C30H35N5O4/c1-19(27(36)31-21-11-14-33(15-12-21)18-20-7-5-4-6-8-20)35-28(37)30(2)26-23(13-16-34(30)29(35)38)24-17-22(39-3)9-10-25(24)32-26/h4-10,17,19,21,32H,11-16,18H2,1-3H3,(H,31,36)/t19-,30-/m0/s1
#inchikey ZWCCRPJSIQVJAC
#Ion_Source LC-ESI
#Instrument qTof
#Compound_Source NIH Natural Product Library
#PI Dorrestein
#Data_Collector VVP/LMS
#Scan -1
#Precursor_MZ 530.277
#ExactMass 529.269
#Charge 1
#CAS_Number N/A
#Pubmed_ID N/A
#Smiles COc1ccc2[nH]c3c(CCN4C(=O)N([C@@H](C)C(=O)NC5CCN(Cc6ccccc6)CC5)C(=O)[C@@]43C)c2c1
#INCHI_AUX N/A
#Library_Class 1
#SpectrumID CCMSLIB00000079395
#IonMode Positive
#UpdateWorkflowName UPDATE-SINGLE-ANNOTATED-GOLD
#LibraryQualityString Gold
#TaskID b1d8e8f6646f4e71acdff9ca3d919d08
##Scan# 1772
#SpectrumFile p1-G05_GG5_01_17949.mzXML
#LibraryName NIH_Natural_Products_Library.mgf
#MQScore -1
#Organism NIH_Natural_Products_Library
#TIC_Query 0
#RT_Query -1
#MZErrorPPM -1
#SharedPeaks 0
#MassDiff 0
#LibMZ -1
#SpecMZ 530.277
#SpecCharge 0
#internalFilename spec-00000.mgf

>collision 10
95.022034 72.0
95.099655 164.0
95.27636 132.0
95.295784 100.0
95.316727 124.0
95.338539 128.0
95.41629 144.0
95.437675 92.0
95.482399 88.0
95.499901 80.0
95.558266 180.0
95.581612 196.0
95.597183 124.0
95.719818 124.0
95.741234 132.0
95.761475 92.0
95.817207 80.0
95.937172 100.0
96.019928 60.0
96.039429 168.0
96.079559 176.0
96.250198 176.0
96.276764 232.0
96.353714 204.0
96.448181 188.0
96.601997 156.0
96.627426 140.0
96.641121 200.0
96.688087 40.0
96.715485 120.0
96.770302 96.0
96.817299 112.0
96.923035 168.0
96.97599 108.0
97.074959 240.0
97.105392 132.0
97.146584 188.0
97.171211 116.0
97.230957 160.0
97.309471 216.0
97.327141 180.0
97.425346 300.0
97.471642 92.0
97.516663 180.0
97.576675 164.0
97.600266 32.0
97.623863 152.0
97.706474 40.0
97.751732 104.0
98.025444 132.0
98.110199 212.0
98.200905 132.0
98.220192 108.0
98.23838 128.0
98.297569 152.0
98.333092 92.0
98.370598 140.0
98.419502 176.0
98.53846 80.0
98.627121 300.0
98.64518 144.0
98.749969 208.0
98.868355 244.0
98.916183 156.0
98.971611 156.0
99.007256 168.0
99.169716 184.0
99.22522 156.0
99.270828 152.0
99.376305 136.0
99.399765 128.0
99.566521 140.0
99.701614 56.0
99.717514 160.0
99.795036 272.0
99.8368 156.0
99.864639 236.0
99.915085 144.0
100.11142 180.0
100.137314 68.0
100.18512 228.0
100.386429 64.0
100.430305 216.0
100.464211 60.0
100.550011 204.0
100.567978 116.0
100.587936 44.0
100.823624 124.0
100.933563 140.0
100.970963 200.0
100.994576 196.0
101.104561 504.0
101.201691 208.0
101.217705 172.0
101.406021 152.0
101.443855 160.0
101.546364 264.0
101.688812 64.0
101.714905 112.0
101.765099 120.0
101.799232 148.0
101.829353 168.0
101.851242 176.0
101.927795 104.0
101.961952 144.0
102.32 108.0
102.34819 80.0
102.380409 108.0
102.432777 200.0
102.446877 136.0
102.620201 112.0
102.664558 188.0
102.680695 228.0
102.704895 192.0
102.773483 148.0
102.845612 200.0
102.902664 120.0
102.928558 116.0
103.023834 148.0
103.054047 172.0
103.086472 156.0
103.254265 124.0
103.57608 156.0
103.669281 128.0
103.73819 208.0
103.792931 124.0
103.828629 172.0
103.892311 188.0
103.918686 192.0
103.949127 108.0
104.089188 116.0
104.166878 220.0
104.21106 324.0
104.302505 96.0
104.347229 208.0
104.371628 164.0
104.414337 132.0
104.438744 168.0
104.698189 260.0
104.780731 192.0
104.841866 152.0
104.984566 136.0
105.006996 140.0
105.025352 144.0
105.070847 428.0
105.202881 128.0
105.306946 236.0
105.380562 128.0
105.413254 76.0
105.524757 204.0
105.554306 108.0
105.633675 188.0
105.726135 208.0
105.836678 100.0
105.863297 196.0
105.922691 64.0
105.961617 136.0
105.998497 348.0
106.014893 204.0
106.039482 112.0
106.066887 576.0
106.12558 208.0
106.141983 128.0
106.289673 180.0
106.413673 224.0
106.444183 176.0
106.476486 172.0
106.499077 192.0
106.544266 184.0
106.764198 148.0
106.840309 140.0
106.856766 72.0
106.932899 100.0
107.000832 160.0
107.072899 68.0
107.363487 184.0
107.503769 116.0
107.547112 160.0
107.571877 216.0
107.588394 148.0
107.604912 160.0
107.838333 148.0
107.854874 104.0
107.91069 152.0
108.032707 172.0
108.081787 144.0
108.190826 176.0
108.218971 184.0
108.252098 92.0
108.600273 128.0
108.637611 88.0
108.668732 192.0
108.743439 184.0
108.834778 108.0
108.855537 140.0
109.044594 136.0
109.059135 152.0
109.138443 108.0
109.223404 192.0
109.244202 112.0
109.30246 128.0
109.340492 144.0
109.362808 152.0
109.437752 160.0
109.473152 68.0
109.516891 144.0
109.541885 128.0
109.593971 232.0
109.675247 236.0
109.983948 156.0
110.002731 116.0
110.025696 240.0
110.058083 172.0
110.098412 252.0
110.153084 164.0
110.357887 128.0
110.377327 68.0
110.402039 216.0
110.500114 144.0
110.604752 200.0
110.67289 160.0
110.807877 124.0
110.916435 160.0
110.962975 128.0
111.019585 40.0
111.105583 148.0
111.130478 176.0
111.199646 160.0
111.231491 168.0
111.349075 92.0
111.437302 112.0
111.458313 48.0
111.49614 276.0
111.592834 180.0
111.611755 116.0
111.704292 160.0
111.765305 192.0
111.860008 148.0
111.950546 216.0
111.965286 140.0
112.03978 208.0
112.076935 184.0
112.186531 84.0
112.203392 176.0
112.231346 172.0
112.268761 160.0
112.356186 196.0
112.492409 176.0
112.513519 136.0
112.549416 164.0
112.566307 200.0
112.581085 56.0
112.648674 172.0
112.80928 104.0
112.902313 92.0
112.938934 200.0
113.056747 148.0
113.091759 236.0
113.308723 140.0
113.323547 200.0
113.350266 112.0
113.546127 160.0
113.583275 164.0
113.641586 132.0
113.664597 180.0
113.709488 208.0
113.850281 164.0
113.983437 168.0
114.117348 188.0
114.147774 116.0
114.170509 196.0
114.200287 32.0
114.374756 60.0
114.39817 64.0
114.474823 80.0
114.589844 160.0
114.637207 192.0
114.679344 160.0
114.715584 160.0
114.734764 72.0
114.81739 120.0
114.854187 212.0
114.877426 192.0
114.903252 144.0
114.952324 56.0
115.055511 340.0
115.18718 52.0
115.212814 132.0
115.244858 152.0
115.368813 164.0
115.430817 112.0
115.475731 36.0
115.554878 144.0
115.589111 132.0
115.634056 160.0
115.649033 76.0
115.732529 152.0
115.825424 124.0
115.863693 132.0
116.006752 188.0
116.051781 172.0
116.186897 216.0
116.298477 200.0
116.317795 116.0
116.360733 52.0
116.43589 32.0
116.499451 220.0
116.62365 204.0
116.661499 180.0
116.748032 132.0
116.812035 108.0
116.855057 256.0
116.889481 176.0
116.945435 120.0
116.971268 124.0
117.01432 128.0
117.038727 180.0
117.070671 1128.0
117.11338 112.0
117.186371 172.0
117.214233 192.0
117.303001 224.0
117.354744 132.0
117.512192 164.0
117.650314 200.0
117.746895 176.0
117.773399 92.0
117.81012 196.0
117.892227 112.0
117.957062 160.0
118.070915 248.0
118.09761 136.0
118.113853 220.0
118.23175 140.0
118.277206 168.0
118.480927 156.0
118.547928 212.0
118.615814 124.0
118.673653 64.0
118.775574 168.0
118.797272 172.0
118.834152 184.0
118.860191 112.0
118.953514 120.0
119.133751 56.0
119.16851 156.0
119.418503 116.0
119.562096 184.0
119.588211 192.0
119.71666 144.0
119.777649 56.0
119.803787 80.0
119.837036 152.0
119.889938 168.0
120.080231 1544.0
120.135147 36.0
120.172234 60.0
120.196236 212.0
120.316277 184.0
120.364311 140.0
120.386147 132.0
120.425461 88.0
120.487991 224.0
120.556541 168.0
120.676765 200.0
120.779549 152.0
120.948036 48.0
120.976494 124.0
121.037796 148.0
121.08374 472.0
121.342354 168.0
121.388657 200.0
121.451996 184.0
121.531937 148.0
121.559059 100.0
121.611198 172.0
121.645096 132.0
121.884483 168.0
121.972397 120.0
122.02961 152.0
122.053734 144.0
122.099236 220.0
122.148308 152.0
122.431328 204.0
122.548981 108.0
122.676804 44.0
122.81131 52.0
122.93396 216.0
123.027565 72.0
123.043015 100.0
123.171097 220.0
123.232956 40.0
123.411377 204.0
123.484962 288.0
123.52256 32.0
123.55761 128.0
123.593361 120.0
123.608849 84.0
123.633194 360.0
123.648682 208.0
123.672775 212.0
123.754936 52.0
123.876747 148.0
123.960938 128.0
123.994179 176.0
124.085915 180.0
124.119415 292.0
124.149361 52.0
124.451149 180.0
124.46669 160.0
124.626114 196.0
124.702171 108.0
124.73996 132.0
124.773041 204.0
124.805733 232.0
124.837784 152.0
124.983917 196.0
125.062492 144.0
125.078072 200.0
125.258438 88.0
125.401039 176.0
125.51696 104.0
125.670868 220.0
125.740044 44.0
125.755669 104.0
125.772453 144.0
125.869522 92.0
125.956619 164.0
126.077301 176.0
126.114975 92.0
126.240463 168.0
126.291901 96.0
126.31427 236.0
126.365723 80.0
126.419426 196.0
126.658989 124.0
126.701553 140.0
126.717232 108.0
126.746361 124.0
126.803291 180.0
126.858421 132.0
126.905502 76.0
126.921196 96.0
126.966049 112.0
127.013451 148.0
127.058014 156.0
127.084885 172.0
127.118591 160.0
127.181435 124.0
127.199394 204.0
127.244293 92.0
127.379036 132.0
127.410484 236.0
127.443176 128.0
127.480133 112.0
127.590271 204.0
127.670334 124.0
127.7117 160.0
127.747696 276.0
127.77919 168.0
127.821938 192.0
127.98851 164.0
128.031296 140.0
128.057678 112.0
128.098862 360.0
128.116882 184.0
128.263367 152.0
128.328735 136.0
128.391876 108.0
128.48436 156.0
128.528061 140.0
128.602097 180.0
128.704498 164.0
128.741669 120.0
129.06778 520.0
129.171097 36.0
129.27066 124.0
129.34761 72.0
129.399673 48.0
129.474396 140.0
129.535553 116.0
129.603516 144.0
129.65564 48.0
129.85968 112.0
129.961975 176.0
129.998077 176.0
130.025299 128.0
130.06485 136.0
130.12291 136.0
130.211472 104.0
130.320511 124.0
130.365952 232.0
130.56601 116.0
130.83223 72.0
130.921036 32.0
130.982529 168.0
131.028091 196.0
131.083466 424.0
131.087418 404.0
131.142029 124.0
131.217255 36.0
131.630234 120.0
131.769562 136.0
131.831268 140.0
131.872406 116.0
132.043869 200.0
132.059875 148.0
132.082611 616.0
132.12851 180.0
132.208588 148.0
132.328644 196.0
132.373413 112.0
132.45816 168.0
132.703125 188.0
132.850143 132.0
132.896027 96.0
132.918976 132.0
133.050674 136.0
133.263397 176.0
133.484726 180.0
133.564545 112.0
133.619766 80.0
133.684189 120.0
133.727921 168.0
133.847626 88.0
133.893677 40.0
133.985825 200.0
134.095383 132.0
134.260117 144.0
134.30394 100.0
134.373138 148.0
134.458527 148.0
134.486221 60.0
134.696335 160.0
134.733292 68.0
134.818787 52.0
134.888123 88.0
134.913559 180.0
135.098557 152.0
135.161026 220.0
135.184174 196.0
135.200378 224.0
135.220551 112.0
135.306854 168.0
135.52919 148.0
135.544327 164.0
135.573227 84.0
135.642746 164.0
135.658981 124.0
135.722794 176.0
135.766815 132.0
135.784195 132.0
135.895645 164.0
135.915359 144.0
135.933594 220.0
136.033615 200.0
136.081207 184.0
136.383209 152.0
136.402969 172.0
136.429703 176.0
136.457596 96.0
136.487823 144.0
136.592484 144.0
136.632034 160.0
136.685547 156.0
136.741394 172.0
136.763657 248.0
136.815887 80.0
136.869431 188.0
136.916733 168.0
137.067429 324.0
137.10704 64.0
137.137344 160.0
137.267883 244.0
137.333191 92.0
137.356522 88.0
137.393845 164.0
137.426498 72.0
137.46524 132.0
137.533859 112.0
137.601547 84.0
137.624893 144.0
137.741669 196.0
137.814087 160.0
137.865494 80.0
137.951981 180.0
137.973022 112.0
138.047836 108.0
138.110352 148.0
138.338776 128.0
138.391815 320.0
138.537018 112.0
138.586212 192.0
138.7034 136.0
138.735321 180.0
138.855789 188.0
138.921478 124.0
139.101776 168.0
139.181992 44.0
139.259491 136.0
139.327606 64.0
139.555588 72.0
139.577423 164.0
139.629364 192.0
139.651718 148.0
139.682571 108.0
139.856705 104.0
139.915543 92.0
139.948517 120.0
139.974014 164.0
140.00032 140.0
140.0168 132.0
140.052124 148.0
140.108658 164.0
140.275986 132.0
140.313705 192.0
140.43161 188.0
140.523605 112.0
140.592041 172.0
140.719498 100.0
140.754913 204.0
140.792694 72.0
140.914276 176.0
141.065979 164.0
141.173172 52.0
141.199188 36.0
141.244125 124.0
141.272522 140.0
141.397919 164.0
141.525757 128.0
141.581482 128.0
141.731827 132.0
141.783951 124.0
141.819504 116.0
141.916702 260.0
141.966507 168.0
142.068497 148.0
142.184753 148.0
142.20137 52.0
142.241714 164.0
142.339066 136.0
142.372314 80.0
142.407928 168.0
142.519592 156.0
142.626526 196.0
142.641617 160.0
142.666931 220.0
142.700226 52.0
142.716873 80.0
142.738266 120.0
142.802475 68.0
142.870529 92.0
142.959488 136.0
142.980911 364.0
143.07579 392.0
143.178513 112.0
143.288086 72.0
143.412003 124.0
143.481125 180.0
143.557434 164.0
143.588425 140.0
143.640564 140.0
143.82225 208.0
143.936844 136.0
143.961761 156.0
144.032135 120.0
144.075378 508.0
144.175735 88.0
144.26149 168.0
144.300034 156.0
144.32579 180.0
144.400467 120.0
144.427994 220.0
144.462646 168.0
144.493744 64.0
144.510498 128.0
144.656479 160.0
144.721252 144.0
144.771011 168.0
144.784195 212.0
144.845657 104.0
144.917526 136.0
144.948669 228.0
144.994202 268.0
145.051102 152.0
145.100662 1216.0
145.132141 204.0
145.43071 64.0
145.485931 140.0
145.538742 200.0
145.560349 208.0
145.586777 152.0
145.641617 172.0
145.702072 148.0
145.858261 168.0
145.896729 88.0
145.951736 132.0
145.976074 168.0
146.028976 92.0
146.067459 84.0
146.095047 1352.0
146.194977 168.0
146.244476 184.0
146.308105 72.0
146.361084 124.0
146.440552 112.0
146.585098 128.0
146.669449 204.0
146.876282 128.0
146.950272 152.0
147.067734 128.0
147.095474 168.0
147.263 184.0
147.310669 136.0
147.333054 192.0
147.362045 100.0
147.470795 112.0
147.64003 160.0
147.661789 168.0
147.712585 168.0
147.819046 156.0
147.930374 88.0
148.136215 192.0
148.259781 160.0
148.407639 176.0
148.439163 228.0
148.494949 160.0
148.662338 136.0
148.71817 160.0
148.941544 136.0
149.009567 136.0
149.078323 188.0
149.135925 168.0
149.213715 44.0
149.267212 140.0
149.286667 144.0
149.415573 232.0
149.52507 152.0
149.606247 172.0
149.727142 200.0
149.753937 164.0
149.922043 184.0
149.99028 124.0
150.058548 188.0
150.239014 132.0
150.25853 212.0
150.282928 160.0
150.365906 156.0
150.385422 196.0
150.420288 212.0
150.565933 124.0
150.803085 140.0
150.864197 140.0
150.912842 160.0
150.949768 48.0
151.020691 152.0
151.057388 148.0
151.086502 160.0
151.147903 168.0
151.209076 84.0
151.302094 148.0
151.375168 128.0
151.483322 132.0
151.557968 248.0
151.691605 160.0
151.941742 80.0
151.993271 136.0
152.073349 152.0
152.204376 140.0
152.41069 188.0
152.447556 72.0
152.464752 136.0
152.531128 172.0
152.57045 116.0
152.624542 160.0
152.671265 148.0
152.781952 164.0
152.879303 176.0
153.06424 328.0
153.085464 140.0
153.121628 108.0
153.168427 164.0
153.188141 124.0
153.222626 132.0
153.466629 64.0
153.540665 180.0
153.829285 120.0
153.878662 216.0
154.004608 152.0
154.071304 172.0
154.088593 128.0
154.120712 216.0
154.183456 256.0
154.227966 180.0
154.301132 176.0
154.395096 156.0
154.494034 120.0
154.519058 144.0
154.64003 184.0
154.731628 52.0
154.761337 172.0
154.909927 168.0
154.947083 120.0
155.006561 172.0
155.048676 176.0
155.076889 128.0
155.098984 204.0
155.165192 144.0
155.346222 36.0
155.365341 204.0
155.442978 240.0
155.5224 144.0
155.651489 92.0
155.698685 64.0
155.730957 108.0
155.783127 152.0
155.830338 132.0
155.922272 144.0
156.036621 144.0
156.068939 120.0
156.088837 184.0
156.126129 124.0
156.146027 252.0
156.183334 172.0
156.203232 136.0
156.250504 148.0
156.287781 216.0
156.429672 104.0
156.574097 56.0
156.61145 40.0
156.658264 192.0
156.665329 152.0
156.689056 240.0
156.773392 156.0
156.888046 104.0
157.027679 196.0
157.096024 192.0
157.164886 36.0
157.232269 184.0
157.252228 92.0
157.299652 112.0
157.697891 176.0
157.98674 156.0
158.016891 156.0
158.059464 804.0
158.1064 176.0
158.126984 80.0
158.252151 56.0
158.419952 168.0
158.475067 212.0
158.531586 180.0
158.650497 136.0
158.676941 168.0
158.818512 180.0
158.836075 108.0
158.951477 140.0
159.039322 152.0
159.066269 992.0
159.095627 324.0
159.159821 108.0
159.257767 152.0
159.413528 116.0
159.58696 80.0
159.629715 76.0
159.71019 96.0
159.800751 180.0
159.8302 176.0
159.913986 120.0
159.96434 176.0
160.017105 100.0
160.074432 1476.0
160.301819 144.0
160.321991 148.0
160.384995 148.0
160.439041 172.0
160.506012 108.0
160.571579 184.0
160.677521 168.0
160.770996 160.0
160.886978 252.0
160.912231 112.0
160.960205 152.0
161.074722 640.0
161.128021 72.0
161.212814 104.0
161.321503 160.0
161.392288 136.0
161.41188 96.0
161.455704 204.0
161.526321 172.0
161.573807 224.0
161.63118 196.0
161.804688 108.0
162.005783 208.0
162.085831 192.0
162.135071 168.0
162.369751 100.0
162.504196 104.0
162.593719 116.0
162.618393 136.0
162.641235 148.0
162.679321 172.0
162.953598 112.0
163.095901 124.0
163.243362 88.0
163.263702 112.0
163.296768 156.0
163.439224 180.0
163.541016 76.0
163.58429 200.0
163.602112 200.0
163.805832 128.0
163.878799 212.0
164.070862 124.0
164.104004 268.0
164.315704 112.0
164.445831 144.0
164.494339 180.0
164.560715 72.0
164.647537 144.0
164.708832 160.0
164.931137 128.0
164.959244 204.0
165.028275 68.0
165.05188 172.0
165.08197 152.0
165.102432 148.0
165.222656 100.0
165.278946 180.0
165.337799 156.0
165.414581 192.0
165.486267 64.0
165.511871 164.0
165.589081 212.0
165.652725 76.0
165.688599 252.0
165.953842 124.0
166.028229 176.0
166.104141 164.0
166.152634 36.0
166.20137 116.0
166.432388 144.0
166.496582 176.0
166.596756 232.0
166.742554 140.0
166.789474 156.0
166.82547 108.0
166.894882 128.0
166.997757 148.0
167.044052 212.0
167.064072 168.0
167.092926 196.0
167.134094 192.0
167.185562 120.0
167.298813 200.0
167.421616 184.0
167.471344 148.0
167.558929 156.0
167.623337 84.0
167.649109 100.0
167.705811 88.0
167.783142 148.0
167.875961 144.0
167.936813 140.0
168.069427 92.0
168.115875 148.0
168.172073 180.0
168.213959 136.0
168.257843 140.0
168.309479 220.0
168.49028 124.0
168.888367 32.0
168.906479 160.0
168.950455 132.0
168.989258 152.0
169.04628 224.0
169.065536 140.0
169.100525 120.0
169.128677 140.0
169.249817 108.0
169.376419 116.0
169.408661 136.0
169.451279 216.0
169.47084 172.0
169.525253 84.0
169.582275 196.0
169.693741 212.0
169.719666 132.0
169.797455 128.0
169.849335 144.0
169.886414 164.0
169.919373 148.0
170.064697 144.0
170.09584 96.0
170.129593 148.0
170.15036 80.0
170.298935 168.0
170.386688 88.0
170.604996 160.0
170.76622 136.0
170.89888 140.0
170.930115 136.0
170.950027 208.0
171.065445 184.0
171.094086 132.0
171.12532 156.0
171.185211 144.0
171.237305 184.0
171.305023 132.0
171.434738 208.0
171.513489 56.0
171.541031 132.0
171.59169 96.0
171.623611 116.0
171.656876 136.0
171.719467 140.0
171.809143 148.0
171.826416 224.0
171.84729 152.0
172.035187 44.0
172.068146 336.0
172.11142 7208.0
172.160522 56.0
172.215363 156.0
172.236267 84.0
172.267609 36.0
172.291122 112.0
172.351212 192.0
172.431213 156.0
172.474045 76.0
172.592453 68.0
172.630905 56.0
172.659668 188.0
172.704132 136.0
172.747437 252.0
172.769531 104.0
172.791443 160.0
172.812637 152.0
172.866348 156.0
172.951996 204.0
173.047394 128.0
173.082291 5164.0
173.118591 772.0
173.166443 216.0
173.290527 104.0
173.327209 172.0
173.410919 152.0
173.419785 148.0
173.447769 92.0
173.484299 196.0
173.531662 96.0
173.570984 60.0
173.601486 216.0
173.642105 164.0
173.672775 228.0
173.698029 92.0
173.730972 196.0
173.770325 44.0
173.819763 176.0
173.824921 176.0
173.834 452.0
173.854813 160.0
173.890488 328.0
173.969742 128.0
174.013916 128.0
174.036911 224.0
174.08963 8180.0
174.127396 100292.0
174.179382 288.0
174.231552 164.0
174.263336 108.0
174.299118 96.0
174.330963 244.0
174.341858 212.0
174.384186 192.0
174.425262 132.0
174.451202 276.0
174.484207 192.0
174.50174 188.0
174.539032 56.0
174.560028 436.0
174.612106 72.0
174.652725 80.0
174.678543 196.0
174.727859 52.0
174.736618 152.0
174.781906 68.0
174.839798 52.0
174.881119 136.0
174.904129 72.0
174.968781 180.0
175.000366 264.0
175.038773 136.0
175.093597 828.0
175.13002 18180.0
175.183624 96.0
175.203156 60.0
175.239014 92.0
175.269028 80.0
175.298019 212.0
175.325516 120.0
175.366257 132.0
175.404419 176.0
175.44957 128.0
175.494125 120.0
175.532257 204.0
175.57402 208.0
175.66185 48.0
175.706711 68.0
175.729507 112.0
175.750961 76.0
175.851837 168.0
175.913818 224.0
175.96138 140.0
175.985062 60.0
176.018509 188.0
176.079025 180.0
176.10141 224.0
176.135635 684.0
176.170425 308.0
176.207977 348.0
176.248337 84.0
176.294067 124.0
176.302231 96.0
176.312286 172.0
176.339371 108.0
176.366074 144.0
176.393463 80.0
176.424316 260.0
176.443115 196.0
176.469391 116.0
176.507355 88.0
176.545715 280.0
176.565521 92.0
176.615433 60.0
176.636597 64.0
176.669662 192.0
176.747711 56.0
176.80632 224.0
177.001816 32.0
177.044189 176.0
177.155426 128.0
177.203125 100.0
177.277313 280.0
177.343567 172.0
177.364777 56.0
177.420441 96.0
177.507935 140.0
177.559326 116.0
177.635239 60.0
177.659119 56.0
177.722794 216.0
177.770554 132.0
177.879379 40.0
177.9245 48.0
178.006805 60.0
178.301682 44.0
178.381424 168.0
178.514359 88.0
178.562241 108.0
178.631393 196.0
178.705887 80.0
178.727173 104.0
178.790009 104.0
178.800842 64.0
178.808517 148.0
178.937439 64.0
178.974701 124.0
179.190445 44.0
179.310364 172.0
179.39566 152.0
179.463989 260.0
179.531631 100.0
179.643661 184.0
179.715698 140.0
179.755203 144.0
179.921204 124.0
179.963913 184.0
179.982605 140.0
180.001297 200.0
180.041351 36.0
180.065399 56.0
180.110794 240.0
180.500992 240.0
180.522385 148.0
180.591919 92.0
180.709625 120.0
180.757782 64.0
180.830032 180.0
180.937119 168.0
180.962631 136.0
180.98262 104.0
181.095215 272.0
181.100861 460.0
181.371078 88.0
181.454178 144.0
181.523895 52.0
181.548035 40.0
181.575638 164.0
181.631073 100.0
181.735809 48.0
181.845825 68.0
181.937088 144.0
181.972 248.0
182.009583 224.0
182.055237 252.0
182.085861 148.0
182.093536 200.0
182.232513 140.0
182.512054 88.0
182.789108 120.0
183.001755 64.0
183.028671 56.0
183.067169 132.0
183.089539 204.0
183.119904 160.0
183.422012 132.0
183.616135 120.0
183.675476 28.0
183.705154 76.0
183.827164 196.0
184.002014 88.0
184.074783 172.0
184.098068 188.0
184.145126 188.0
184.228867 76.0
184.436935 216.0
184.454132 132.0
184.515335 184.0
184.625153 136.0
184.739792 88.0
184.791199 160.0
184.880493 152.0
184.97522 84.0
185.018539 224.0
185.0392 76.0
185.079575 132.0
185.348969 36.0
185.370636 52.0
185.506165 100.0
185.557663 124.0
185.584778 152.0
185.68512 100.0
185.7258 196.0
185.828552 132.0
186.013428 76.0
186.048721 160.0
186.092346 712.0
186.167084 168.0
186.206207 76.0
186.236084 52.0
186.336594 80.0
186.776993 264.0
186.83139 44.0
186.92662 156.0
187.016434 116.0
187.101929 196.0
187.149826 176.0
187.29689 76.0
187.348633 216.0
187.465805 140.0
187.566635 136.0
187.604813 204.0
187.730225 172.0
187.757492 112.0
187.970276 172.0
188.046692 108.0
188.108109 128.0
188.191376 144.0
188.338837 60.0
188.608902 148.0
188.642151 104.0
188.792526 148.0
189.088516 148.0
189.137817 444.0
189.411087 44.0
189.526154 68.0
189.582474 180.0
189.654953 84.0
189.752274 144.0
190.033386 108.0
190.145905 216.0
190.222748 152.0
190.313354 216.0
190.332565 132.0
190.395737 192.0
190.502853 108.0
190.546814 152.0
190.670456 152.0
190.70253 232.0
190.747421 136.0
190.983887 60.0
191.093933 160.0
191.152771 1216.0
191.258286 200.0
191.27832 184.0
191.479034 160.0
191.55368 76.0
191.592438 120.0
191.730011 116.0
191.815094 152.0
191.900925 68.0
192.08017 108.0
192.135941 300.0
192.158005 220.0
192.353363 72.0
192.389252 72.0
192.557678 76.0
192.659882 180.0
192.764877 36.0
192.82843 64.0
192.975754 136.0
193.091003 124.0
193.154709 128.0
193.270081 136.0
193.37883 116.0
193.664001 116.0
193.769272 116.0
193.89119 200.0
194.035339 116.0
194.118515 92.0
194.157333 168.0
194.176575 128.0
194.59021 192.0
194.665192 64.0
194.779053 104.0
194.940201 192.0
195.051361 196.0
195.112534 92.0
195.457413 56.0
195.641098 128.0
195.77475 148.0
195.916809 140.0
195.939087 164.0
195.994812 124.0
196.028259 104.0
196.061691 184.0
196.337692 88.0
196.412994 112.0
196.493896 60.0
196.617386 188.0
196.675293 132.0
196.73111 172.0
196.775711 144.0
197.07045 288.0
197.326172 176.0
197.362534 184.0
197.424042 100.0
197.58754 152.0
197.734589 152.0
197.768173 60.0
197.801758 144.0
197.844437 196.0
198.006149 124.0
198.090637 1804.0
198.121445 376.0
198.163025 100.0
198.199448 36.0
198.238678 32.0
198.297531 120.0
198.345169 152.0
198.485352 160.0
198.605942 56.0
198.641739 216.0
198.664856 72.0
198.743408 116.0
198.830399 140.0
198.987595 36.0
199.088867 520.0
199.130814 88.0
199.282501 176.0
199.605743 108.0
199.691254 176.0
199.723862 136.0
199.751984 172.0
199.822327 140.0
199.991165 144.0
200.062485 324.0
200.107254 1164.0
200.174164 164.0
200.309341 120.0
200.374146 148.0
200.531937 140.0
200.605225 164.0
200.799789 156.0
200.963394 160.0
201.005722 28.0
201.104263 248.0
201.158127 116.0
201.352951 332.0
201.576126 168.0
202.089691 224.0
202.180328 232.0
202.328491 44.0
202.521042 176.0
202.651352 60.0
202.722198 144.0
202.747696 108.0
202.957474 112.0
202.982986 172.0
203.087402 196.0
203.513519 156.0
203.559036 100.0
203.589813 152.0
203.652756 188.0
203.797638 152.0
203.837418 128.0
203.868668 152.0
203.936874 68.0
203.959625 136.0
203.979523 172.0
204.241119 272.0
204.303696 188.0
204.37767 156.0
204.75058 128.0
204.94429 108.0
205.083923 148.0
205.294907 176.0
205.371902 128.0
205.442642 160.0
205.563049 164.0
205.585876 116.0
205.631546 176.0
205.808533 232.0
206.065598 160.0
206.094162 116.0
206.137024 52.0
206.17131 224.0
206.228485 140.0
206.262772 136.0
206.322815 128.0
206.382843 244.0
206.50296 148.0
206.554443 156.0
206.663162 192.0
206.723251 192.0
207.091064 156.0
207.252991 132.0
207.321762 104.0
207.344681 56.0
207.378204 172.0
207.609344 380.0
207.635315 192.0
207.685867 92.0
207.829315 48.0
207.912537 132.0
208.190994 164.0
208.343231 72.0
208.432297 76.0
208.512756 112.0
208.541504 100.0
208.593246 184.0
208.630615 164.0
209.139771 112.0
209.283707 88.0
209.352814 168.0
209.7285 132.0
209.920517 64.0
210.079025 280.0
210.174347 116.0
210.228012 168.0
210.356171 132.0
210.431229 228.0
210.49765 148.0
210.558289 184.0
210.613174 132.0
210.829849 56.0
211.061111 112.0
211.104492 108.0
211.370148 192.0
211.430161 132.0
211.474808 176.0
211.587692 184.0
211.706406 388.0
211.787506 196.0
211.813568 124.0
211.926559 128.0
211.975815 104.0
212.036682 156.0
212.104141 192.0
212.155518 180.0
212.239594 232.0
212.280197 124.0
212.352692 212.0
212.439713 204.0
212.547058 180.0
212.756027 164.0
212.932358 204.0
213.029007 104.0
213.100632 2144.0
213.133606 56.0
213.220779 176.0
213.284729 56.0
213.528961 108.0
213.601151 68.0
213.767502 196.0
213.86937 100.0
213.88974 144.0
213.918854 96.0
213.950882 156.0
214.108643 948.0
214.233353 92.0
214.329834 184.0
214.431503 184.0
214.45105 68.0
214.915573 44.0
214.973938 128.0
215.017715 68.0
215.060547 236.0
215.115112 4764.0
215.257095 36.0
215.428864 256.0
215.473236 52.0
215.540436 48.0
215.598877 140.0
215.636871 108.0
215.978958 64.0
216.037476 120.0
216.085449 192.0
216.1194 1012.0
216.160355 104.0
216.186325 32.0
216.297913 56.0
216.359375 104.0
216.417938 132.0
216.44722 64.0
216.546783 60.0
216.728409 64.0
216.86322 164.0
216.907181 152.0
216.939743 188.0
216.986343 96.0
217.062576 56.0
217.090744 208.0
217.16597 304.0
217.300156 128.0
217.42926 108.0
217.452744 104.0
217.482101 52.0
217.614197 108.0
217.702286 104.0
217.737534 92.0
217.778641 156.0
217.79953 184.0
217.860901 84.0
218.00975 176.0
218.100388 372.0
218.148666 164.0
218.275314 76.0
218.366791 148.0
218.413528 200.0
218.563568 112.0
218.707779 160.0
218.801971 132.0
218.835953 84.0
218.884415 64.0
219.078812 152.0
219.104553 168.0
219.22612 144.0
219.252655 44.0
219.3116 116.0
219.344025 128.0
219.364655 148.0
219.432465 116.0
219.47374 172.0
219.562195 128.0
219.612335 200.0
219.665436 120.0
219.789352 120.0
219.910339 292.0
219.954041 204.0
220.078613 124.0
220.116989 164.0
220.329651 136.0
220.368057 132.0
220.465576 124.0
220.545883 160.0
220.731628 220.0
220.932739 96.0
220.962326 172.0
220.985992 224.0
221.136917 160.0
221.205002 56.0
221.231644 68.0
221.428024 160.0
221.539627 100.0
221.720367 248.0
221.752975 212.0
221.830032 132.0
222.022766 136.0
222.079117 216.0
222.132507 40.0
222.34317 116.0
222.610352 116.0
222.699448 72.0
222.791519 84.0
222.940094 200.0
222.981689 128.0
223.008438 64.0
223.091675 84.0
223.339249 172.0
223.424744 208.0
223.522934 144.0
223.740204 84.0
223.874191 96.0
224.108765 316.0
224.292328 152.0
224.744614 72.0
224.884872 180.0
224.917709 92.0
225.06459 208.0
225.104721 152.0
225.192398 140.0
225.222275 152.0
225.362671 116.0
225.383591 112.0
225.541977 160.0
225.631668 176.0
225.76622 56.0
226.078873 656.0
226.116608 164.0
226.250946 160.0
226.337769 144.0
226.434387 168.0
226.514465 120.0
226.652283 104.0
226.700226 68.0
226.746185 204.0
226.847092 188.0
226.874069 224.0
227.08287 392.0
227.101685 172.0
227.109604 240.0
227.167953 96.0
227.329971 136.0
227.365982 88.0
227.453033 136.0
227.97261 208.0
228.029724 184.0
228.086823 160.0
228.113876 160.0
228.139435 108.0
228.399551 148.0
228.444672 44.0
228.477753 288.0
228.525894 116.0
228.589767 68.0
228.867157 200.0
228.944305 148.0
229.037674 160.0
229.097809 116.0
229.236511 100.0
229.266647 96.0
229.302811 96.0
229.418091 148.0
229.69664 252.0
229.807068 128.0
230.094498 164.0
230.263046 180.0
230.322632 288.0
230.797104 112.0
230.872696 112.0
230.969482 184.0
230.990662 152.0
231.104355 124.0
231.166138 116.0
231.190353 160.0
231.468842 176.0
231.932373 28.0
231.953598 160.0
232.014221 184.0
232.050598 212.0
232.108398 136.0
232.144608 252.0
232.232559 108.0
232.30838 180.0
232.356918 128.0
232.387268 196.0
232.566315 188.0
232.708984 156.0
232.833481 168.0
232.909424 52.0
232.933716 192.0
233.118774 436.0
233.362228 164.0
233.775909 140.0
233.909149 144.0
234.09082 220.0
234.131653 208.0
234.356018 180.0
234.381882 164.0
234.430634 204.0
234.579971 116.0
234.820862 108.0
234.875763 112.0
234.973373 208.0
235.108795 256.0
235.144348 132.0
235.354904 212.0
235.428192 212.0
235.571732 92.0
235.648117 104.0
235.675613 156.0
235.733673 156.0
236.102737 176.0
236.148224 352.0
236.219803 208.0
236.244278 108.0
236.274857 168.0
236.482941 56.0
236.534973 156.0
236.683182 196.0
236.721741 104.0
236.810547 128.0
236.890198 172.0
237.07402 76.0
237.113861 140.0
237.153717 144.0
237.199692 112.0
237.322311 60.0
237.35202 64.0
237.463379 328.0
237.552338 124.0
237.635162 100.0
237.668915 208.0
237.696533 184.0
237.739487 48.0
237.76712 120.0
237.871475 160.0
237.929794 32.0
237.972778 128.0
238.012695 132.0
238.089462 288.0
238.123245 104.0
238.230759 148.0
238.359802 140.0
238.3936 188.0
238.448914 80.0
238.676407 92.0
238.722534 96.0
238.784042 180.0
238.80864 132.0
238.900925 180.0
239.044403 88.0
239.076996 196.0
239.325638 152.0
239.38414 244.0
239.416656 108.0
239.436493 268.0
239.479614 92.0
239.605911 176.0
239.772308 180.0
239.806213 92.0
240.078674 168.0
240.112289 160.0
240.136108 392.0
240.194717 96.0
240.2379 36.0
240.333542 140.0
240.419937 168.0
240.475494 76.0
240.555756 152.0
240.583527 180.0
240.651276 156.0
240.784241 172.0
240.818207 52.0
240.928894 188.0
240.981934 284.0
241.040649 316.0
241.095367 8000.0
241.156021 156.0
241.185898 192.0
241.222992 36.0
241.244629 52.0
241.315735 36.0
241.343567 92.0
241.420868 60.0
241.445602 156.0
241.522934 88.0
241.581711 92.0
241.66156 64.0
241.748779 236.0
241.894257 128.0
241.948685 48.0
242.024277 76.0
242.097366 2024.0
242.141953 148.0
242.284439 32.0
242.315414 60.0
242.337112 60.0
242.429932 188.0
242.563339 68.0
242.60054 116.0
242.622238 140.0
242.733856 52.0
242.941666 116.0
242.989502 156.0
243.019226 180.0
243.066483 140.0
243.110306 1484.0
243.147919 152.0
243.273712 52.0
243.369949 152.0
243.487961 104.0
243.528336 164.0
243.655457 212.0
243.692978 156.0
243.823486 156.0
243.863892 56.0
243.919846 96.0
243.966476 92.0
244.111786 384.0
244.361435 80.0
244.414337 144.0
244.548157 148.0
244.673889 112.0
244.731827 48.0
244.943588 80.0
245.102478 164.0
245.156876 220.0
245.236481 148.0
245.401703 84.0
245.473419 176.0
245.604416 36.0
245.638718 144.0
245.668274 160.0
245.688629 268.0
245.729187 88.0
245.932037 164.0
246.039154 380.0
246.12558 132.0
246.175552 136.0
246.284851 164.0
246.366074 136.0
246.403564 52.0
246.495239 152.0
246.569168 184.0
246.61293 212.0
246.709839 156.0
246.919327 172.0
246.96312 156.0
247.019424 88.0
247.093079 272.0
247.441895 128.0
247.711227 140.0
247.905472 108.0
248.043381 96.0
248.105637 584.0
248.247177 112.0
248.413406 196.0
248.60228 100.0
248.758591 152.0
248.830795 56.0
248.909286 148.0
248.952942 204.0
249.056885 72.0
249.114288 1308.0
249.371094 112.0
249.393097 276.0
249.465393 160.0
249.496826 132.0
249.600586 156.0
249.845917 188.0
250.031555 164.0
250.072464 80.0
250.119629 3108.0
250.178467 244.0
250.267654 116.0
250.308578 36.0
250.583328 228.0
250.752777 56.0
250.806351 64.0
250.904083 124.0
250.980118 136.0
251.083801 100.0
251.125732 856.0
251.156357 304.0
251.508606 180.0
251.55394 68.0
251.58551 44.0
251.810989 304.0
251.977112 232.0
252.067627 272.0
252.107315 260.0
252.12999 200.0
252.342545 244.0
252.729416 64.0
252.773911 76.0
252.938477 116.0
253.105316 516.0
253.248779 56.0
253.378662 136.0
253.486389 124.0
253.603653 164.0
253.625839 88.0
253.72261 152.0
253.809708 56.0
253.923874 104.0
254.047577 156.0
254.12735 192.0
254.164963 180.0
254.359055 156.0
254.441101 132.0
254.529999 144.0
254.685623 116.0
254.726913 112.0
254.76503 188.0
254.825394 120.0
254.857162 36.0
254.891296 108.0
254.94931 108.0
255.079636 128.0
255.118317 164.0
255.149567 192.0
255.260849 48.0
255.353073 100.0
255.384888 80.0
255.416687 84.0
255.572571 120.0
255.604401 136.0
255.639404 100.0
255.671219 120.0
255.818222 124.0
255.858261 84.0
255.941803 164.0
256.011871 168.0
256.085114 48.0
256.109039 168.0
256.144531 196.0
256.212524 228.0
256.279419 156.0
256.346344 172.0
256.387787 92.0
256.416443 92.0
256.467438 48.0
256.703369 68.0
256.741638 92.0
256.763977 72.0
256.946838 228.0
257.0383 164.0
257.09082 180.0
257.121277 208.0
257.161072 144.0
257.300049 88.0
257.475647 212.0
257.517181 136.0
257.597046 96.0
257.651337 200.0
257.721619 132.0
257.993286 88.0
258.085815 328.0
258.140991 296.0
258.175537 44.0
258.62027 132.0
258.658661 204.0
258.684265 72.0
258.786713 124.0
258.908417 176.0
258.95282 156.0
259.026917 56.0
259.08136 124.0
259.119812 124.0
259.25119 92.0
259.603821 56.0
260.078644 36.0
260.103607 160.0
260.245575 100.0
260.293732 148.0
260.57962 104.0
260.682434 196.0
260.894562 48.0
260.991028 132.0
261.048889 116.0
261.114624 172.0
261.25473 160.0
261.284546 60.0
261.328735 112.0
261.40918 56.0
261.432251 176.0
261.48642 160.0
261.55722 116.0
261.653809 92.0
261.863098 80.0
261.89209 136.0
262.004852 188.0
262.062836 200.0
262.120728 1876.0
262.232635 180.0
262.330322 56.0
262.481873 100.0
262.643097 56.0
262.694733 128.0
262.797974 164.0
263.001831 136.0
263.121643 484.0
263.165894 72.0
263.204651 100.0
263.246429 136.0
263.288605 60.0
263.317688 120.0
263.391968 116.0
263.414581 72.0
263.450104 184.0
263.485657 120.0
263.621368 120.0
263.650452 144.0
263.776489 188.0
263.841156 136.0
263.887207 132.0
263.939728 156.0
264.002563 168.0
264.081696 184.0
264.08847 124.0
264.136932 21188.0
264.207581 168.0
264.234802 164.0
264.271301 136.0
264.296753 60.0
264.335999 116.0
264.381317 60.0
264.420502 36.0
264.522797 56.0
264.575989 144.0
264.60144 84.0
264.694183 140.0
264.834595 80.0
264.954437 140.0
265.054871 68.0
265.084442 164.0
265.140747 5240.0
265.272034 136.0
265.340088 116.0
265.382263 168.0
265.433258 144.0
265.531403 132.0
265.590546 124.0
265.687103 76.0
265.768219 152.0
265.907776 44.0
266.143036 560.0
266.183716 44.0
266.219421 80.0
266.310364 76.0
266.3461 72.0
266.430542 196.0
266.50528 160.0
266.552338 124.0
266.580017 196.0
266.690521 28.0
266.732758 88.0
266.788025 112.0
266.814026 116.0
266.914825 44.0
266.963593 72.0
267.022156 92.0
267.123016 700.0
267.147064 648.0
267.191284 100.0
267.292145 132.0
267.394867 176.0
267.469391 88.0
267.53952 80.0
267.575317 136.0
267.699066 60.0
267.760925 44.0
267.829315 32.0
267.858643 140.0
267.946594 172.0
267.978912 96.0
268.034576 60.0
268.07666 248.0
268.108582 464.0
268.143494 812.0
268.21936 172.0
268.58374 152.0
268.72583 40.0
268.948639 216.0
269.022797 96.0
269.089966 2388.0
269.18985 48.0
269.215454 168.0
269.257904 208.0
269.387299 116.0
269.578064 52.0
269.66629 64.0
269.689178 168.0
269.872253 180.0
269.945648 312.0
270.088593 940.0
270.126678 360.0
270.156311 140.0
270.263397 116.0
270.294189 60.0
270.454559 52.0
270.497101 48.0
270.608398 164.0
270.696808 176.0
270.762299 64.0
270.880219 72.0
270.912994 120.0
271.089233 400.0
271.130127 192.0
271.273468 64.0
271.367035 176.0
271.41333 104.0
271.482239 128.0
271.607941 140.0
271.732574 64.0
271.831024 196.0
271.876953 144.0
271.952454 128.0
272.001678 140.0
272.119873 100.0
272.382599 136.0
272.415436 56.0
272.559998 116.0
272.671722 164.0
272.747314 292.0
272.850616 180.0
272.924835 148.0
272.997192 148.0
273.043243 100.0
273.111969 116.0
273.260345 152.0
273.457764 60.0
273.523621 168.0
273.566406 80.0
273.64212 132.0
273.787018 104.0
273.908875 64.0
273.970551 124.0
274.000092 156.0
274.093353 148.0
274.1362 108.0
274.195526 100.0
274.218597 176.0
274.317474 180.0
274.465851 128.0
274.488922 136.0
274.663727 176.0
274.726257 200.0
274.775879 48.0
275.092682 148.0
275.134247 300.0
275.340332 104.0
275.470428 52.0
275.627716 164.0
275.660767 52.0
275.690521 180.0
275.769318 132.0
276.014465 128.0
276.04422 124.0
276.132324 188.0
276.398163 140.0
276.457947 60.0
276.600037 88.0
276.636475 100.0
276.735779 64.0
276.788757 92.0
276.831818 164.0
276.917908 124.0
277.136749 144.0
277.259155 120.0
277.355286 120.0
277.385101 164.0
277.497833 164.0
277.530975 60.0
277.617188 72.0
277.690155 88.0
277.771576 88.0
277.856018 68.0
277.955566 156.0
278.011963 132.0
278.084991 116.0
278.304077 156.0
278.822296 188.0
278.948578 92.0
279.0849 76.0
279.154724 60.0
279.347626 100.0
279.527283 152.0
279.553925 88.0
279.643768 108.0
279.740295 156.0
279.810211 120.0
279.846832 132.0
279.910095 76.0
280.104645 48.0
280.166565 52.0
280.193207 108.0
280.233185 200.0
280.353149 168.0
280.493134 88.0
280.656494 144.0
280.683167 164.0
280.962555 156.0
281.066772 160.0
281.106812 156.0
281.160858 508.0
281.196899 212.0
281.253662 112.0
281.320404 108.0
281.40387 136.0
281.467316 52.0
281.617706 220.0
281.804657 224.0
281.841431 112.0
282.0672 124.0
282.122131 1904.0
282.269287 64.0
282.329468 180.0
282.513428 152.0
282.670685 28.0
282.697449 44.0
282.72757 80.0
282.761047 192.0
282.824646 80.0
282.861023 152.0
283.008759 88.0
283.124298 272.0
283.246552 160.0
283.284943 248.0
283.325836 344.0
283.410706 36.0
283.448578 156.0
283.497833 132.0
283.555542 180.0
283.59375 332.0
283.659851 104.0
283.761688 212.0
283.807495 356.0
283.830872 112.0
283.861542 120.0
283.890839 176.0
283.945496 156.0
283.97287 272.0
283.987152 124.0
283.99295 180.0
284.066681 176.0
284.139221 75188.0
284.251862 204.0
284.27475 112.0
284.319214 60.0
284.354187 184.0
284.410065 72.0
284.433563 92.0
284.478088 180.0
284.502625 88.0
284.548065 60.0
284.600128 72.0
284.63266 120.0
284.666809 124.0
284.692444 472.0
284.749176 196.0
284.792206 152.0
284.825012 132.0
284.868011 184.0
284.897064 236.0
284.930084 188.0
284.966125 152.0
284.996094 60.0
285.141724 13104.0
285.209656 312.0
285.282379 140.0
285.321594 80.0
285.373962 52.0
285.401123 28.0
285.429352 80.0
285.454895 68.0
285.539978 144.0
285.582489 120.0
285.653351 104.0
285.683624 80.0
285.707153 72.0
285.768219 56.0
285.824921 44.0
285.869781 36.0
285.925873 124.0
285.962891 56.0
286.022278 192.0
286.035187 84.0
286.121155 3096.0
286.187347 328.0
286.215332 124.0
286.275146 228.0
286.33255 172.0
286.407349 184.0
286.508392 80.0
286.550354 80.0
286.581329 136.0
286.612854 88.0
286.65329 60.0
286.739594 92.0
286.776947 52.0
286.837128 68.0
286.880127 80.0
286.9617 116.0
286.983093 184.0
287.057281 156.0
287.116608 420.0
287.187164 56.0
287.214996 112.0
287.237854 192.0
287.342255 48.0
287.374878 52.0
287.479462 68.0
287.50235 168.0
287.621216 76.0
287.655121 104.0
287.714508 188.0
287.742737 152.0
287.76825 108.0
287.83728 152.0
287.901459 108.0
288.002441 212.0
288.164764 1776.0
288.238983 244.0
288.265442 128.0
288.300568 76.0
288.423279 116.0
288.587402 144.0
288.614441 100.0
288.712524 172.0
288.74295 104.0
288.765259 88.0
288.810608 56.0
289.088013 156.0
289.130219 548.0
289.136017 556.0
289.221893 108.0
289.297882 76.0
289.362213 124.0
289.415527 96.0
289.422211 72.0
289.435028 148.0
289.507812 100.0
289.605225 68.0
289.690704 56.0
289.727966 44.0
289.812653 64.0
289.839783 128.0
290.145935 560.0
290.334686 108.0
290.361816 72.0
290.582306 88.0
290.738403 144.0
291.147339 296.0
291.278259 124.0
291.342804 152.0
291.601044 144.0
291.703003 160.0
291.784607 136.0
292.104248 96.0
292.138275 64.0
292.584076 68.0
293.115417 148.0
293.258545 128.0
293.309692 144.0
293.493774 124.0
293.551758 148.0
293.780273 124.0
293.804138 68.0
293.923553 68.0
294.114075 180.0
294.218933 184.0
294.275116 220.0
294.377563 40.0
294.61322 140.0
294.749908 124.0
294.869507 52.0
294.910522 152.0
295.093475 380.0
295.161713 92.0
295.259247 76.0
295.300293 84.0
295.344757 60.0
295.450806 92.0
295.47818 48.0
295.563721 40.0
295.587646 120.0
295.673889 80.0
295.734833 200.0
295.762207 64.0
295.892273 68.0
296.001862 88.0
296.101959 1460.0
296.269012 112.0
296.388916 176.0
296.440308 52.0
296.567139 76.0
296.680237 84.0
296.872253 112.0
296.935272 192.0
297.108032 2076.0
297.177551 108.0
297.211853 76.0
297.287354 72.0
297.342255 100.0
297.596283 52.0
297.658081 92.0
297.716461 144.0
297.812622 176.0
298.001556 40.0
298.112335 780.0
298.176819 112.0
298.231812 116.0
298.341797 168.0
298.434631 44.0
298.472443 32.0
298.720093 64.0
298.76825 88.0
298.895538 188.0
298.923065 136.0
299.06073 104.0
299.121155 436.0
299.198853 196.0
299.239746 136.0
299.325806 64.0
299.38092 48.0
299.515228 76.0
299.55658 136.0
299.694366 100.0
299.824738 140.0
299.939056 164.0
300.00708 136.0
300.121399 184.0
300.183838 128.0
300.214874 68.0
300.311462 128.0
300.342499 196.0
300.521881 108.0
300.659912 44.0
300.728943 116.0
300.880829 124.0
301.007874 100.0
301.091461 196.0
301.136444 140.0
301.222687 72.0
301.257233 188.0
301.305603 84.0
301.340149 124.0
301.378174 52.0
301.409271 56.0
301.506012 164.0
301.678833 96.0
301.796387 80.0
301.862091 60.0
302.107666 180.0
302.432922 124.0
302.720276 128.0
302.789551 144.0
302.858826 208.0
302.889984 68.0
303.045868 148.0
303.142975 336.0
303.489532 196.0
303.527679 216.0
303.572754 104.0
303.808624 36.0
303.839844 108.0
303.964752 124.0
303.990967 116.0
304.044739 140.0
304.149261 384.0
304.263245 128.0
304.416016 200.0
304.461151 188.0
304.67218 132.0
304.725159 216.0
304.801575 132.0
304.928284 192.0
305.161255 1912.0
305.239563 152.0
305.369537 156.0
305.566528 44.0
305.87973 40.0
305.949341 136.0
306.032898 244.0
306.130402 288.0
306.168152 560.0
306.203522 80.0
306.482208 112.0
306.778473 156.0
306.872589 104.0
307.155304 244.0
307.256226 48.0
307.367889 44.0
307.654083 168.0
307.818176 152.0
307.853088 96.0
307.884521 104.0
308.034729 76.0
308.104584 148.0
308.174469 100.0
308.282776 168.0
308.398132 120.0
308.475006 52.0
308.523956 168.0
308.565918 44.0
308.691772 144.0
308.7966 136.0
309.104004 176.0
309.150055 84.0
309.199036 152.0
309.304047 104.0
309.493103 132.0
309.647186 56.0
310.067017 276.0
310.119843 1716.0
310.204285 128.0
310.256866 44.0
310.326996 152.0
310.533905 116.0
310.618073 64.0
310.740845 84.0
310.794952 144.0
310.975983 96.0
311.035645 164.0
311.122498 1188.0
311.204163 140.0
311.330566 92.0
311.442963 56.0
311.47998 184.0
311.586029 132.0
311.618591 144.0
311.688873 80.0
311.745087 104.0
311.796661 148.0
311.868103 116.0
311.906921 164.0
311.948944 136.0
311.993195 144.0
312.027496 176.0
312.080383 316.0
312.133423 30768.0
312.199188 168.0
312.223206 124.0
312.28363 184.0
312.311127 32.0
312.356842 60.0
312.399078 104.0
312.448822 72.0
312.509216 52.0
312.55661 132.0
312.587158 52.0
312.645355 108.0
312.682312 96.0
312.724548 72.0
312.763641 92.0
312.77887 56.0
312.789948 76.0
312.891754 60.0
312.96405 68.0
313.133942 5364.0
313.235107 104.0
313.265045 48.0
313.289703 112.0
313.317902 60.0
313.370728 56.0
313.472931 72.0
313.504639 68.0
313.614685 176.0
313.721588 72.0
313.848755 96.0
313.874786 100.0
313.977051 48.0
314.036987 28.0
314.138489 848.0
314.246887 112.0
314.460388 64.0
314.516846 52.0
314.577148 96.0
314.68277 136.0
314.815308 164.0
314.825958 108.0
314.840881 124.0
314.891113 80.0
315.00769 40.0
315.050537 268.0
315.085388 96.0
315.151215 228.0
315.230255 232.0
315.346893 132.0
315.392853 60.0
315.417572 160.0
315.470612 68.0
315.522522 152.0
315.562531 108.0
315.59787 88.0
315.64386 56.0
315.700439 108.0
315.802979 164.0
315.926788 188.0
315.962189 176.0
316.085999 48.0
316.114319 100.0
316.145294 160.0
316.397491 64.0
316.535553 136.0
317.116547 168.0
317.155548 96.0
317.400177 72.0
317.566833 96.0
317.70163 160.0
317.808075 44.0
318.148438 120.0
318.546509 120.0
318.69574 44.0
318.816559 76.0
318.880524 92.0
318.930267 64.0
319.143585 124.0
319.174194 184.0
319.207581 48.0
319.236023 148.0
319.307159 120.0
319.356964 220.0
319.520569 132.0
319.677155 152.0
319.748322 60.0
319.894257 232.0
320.047333 40.0
320.300201 132.0
320.371429 44.0
320.414185 176.0
320.521088 136.0
320.62442 120.0
320.809753 64.0
320.888214 144.0
320.923859 188.0
320.988037 112.0
321.087891 140.0
321.180634 180.0
321.787292 92.0
321.915833 68.0
322.089569 136.0
322.120605 132.0
322.276611 104.0
322.61969 176.0
322.86142 160.0
323.077454 248.0
323.115906 556.0
323.506897 116.0
323.546265 96.0
323.86496 104.0
323.890045 228.0
324.132843 1004.0
324.398865 100.0
324.499268 152.0
324.703644 100.0
324.789734 152.0
324.829193 72.0
324.875824 128.0
324.918884 164.0
324.953827 168.0
325.141388 200.0
325.284912 152.0
325.310059 140.0
325.35672 68.0
325.779877 120.0
326.098969 232.0
326.144531 116.0
326.168579 168.0
326.294403 156.0
326.374176 164.0
326.452606 136.0
327.006622 92.0
327.083679 316.0
327.132935 128.0
327.394775 192.0
327.456665 104.0
327.856567 196.0
328.015167 68.0
328.105286 84.0
328.166718 188.0
328.199036 44.0
328.249512 92.0
328.938599 200.0
329.064972 76.0
329.140778 120.0
329.173279 84.0
329.37915 120.0
329.707947 156.0
329.85614 168.0
329.922424 164.0
329.971802 176.0
330.015198 144.0
330.109222 36.0
330.176819 132.0
330.326935 80.0
330.409424 140.0
330.575867 92.0
330.745972 160.0
330.869049 96.0
331.053711 92.0
331.14389 3372.0
331.274628 160.0
331.401428 64.0
331.522919 100.0
331.974152 168.0
332.145477 784.0
332.182739 156.0
332.282471 168.0
332.547363 124.0
332.656281 60.0
332.866852 148.0
333.159424 896.0
333.498993 96.0
333.789825 64.0
333.851654 48.0
333.906189 112.0
333.931641 72.0
333.971649 84.0
334.160095 288.0
334.259064 52.0
334.284546 140.0
334.35733 60.0
334.459229 120.0
334.896149 104.0
335.138824 296.0
335.310028 188.0
335.670807 108.0
335.748993 68.0
336.343719 160.0
336.489746 144.0
336.683258 52.0
336.81839 100.0
336.898773 76.0
337.081451 148.0
337.12442 164.0
337.183197 124.0
337.381165 88.0
337.436005 168.0
337.629791 68.0
337.779755 80.0
337.924103 200.0
337.988281 96.0
338.076111 152.0
338.108917 244.0
338.136353 708.0
338.273743 124.0
338.325012 132.0
338.574005 120.0
338.687531 48.0
338.856049 124.0
338.891937 100.0
338.980621 88.0
339.064911 200.0
339.14389 3432.0
339.222534 136.0
339.464508 60.0
339.823975 92.0
339.875336 124.0
340.050354 156.0
340.128601 972.0
340.424561 140.0
340.462677 156.0
340.598572 36.0
340.683044 112.0
340.830017 100.0
340.991699 184.0
341.125366 1100.0
341.344635 180.0
341.381409 56.0
341.43985 156.0
341.671967 48.0
341.697723 108.0
341.819153 100.0
342.006836 36.0
342.032623 136.0
342.146729 124.0
342.235077 60.0
342.739716 120.0
342.853943 56.0
342.898163 124.0
342.931335 164.0
343.067719 168.0
343.140076 216.0
343.410645 92.0
343.609833 96.0
343.738983 48.0
343.80542 92.0
343.849701 136.0
343.930908 120.0
344.121796 208.0
344.131256 148.0
344.566071 72.0
344.724945 164.0
344.86908 100.0
345.057587 108.0
345.15625 176.0
345.33493 184.0
345.420013 120.0
345.686401 92.0
346.160217 132.0
346.219482 40.0
346.808563 148.0
347.179321 120.0
347.579956 72.0
347.780334 44.0
347.954803 144.0
348.043915 84.0
348.187073 184.0
348.266754 140.0
348.461456 116.0
348.523071 124.0
348.547516 140.0
348.820404 88.0
348.853851 80.0
348.905914 128.0
348.946808 60.0
348.99884 124.0
349.166199 48.0
349.415405 108.0
349.67215 100.0
349.794983 144.0
349.884338 72.0
349.984863 96.0
350.186371 296.0
350.804504 128.0
351.043121 200.0
351.145905 568.0
351.279663 160.0
351.472107 48.0
351.535522 200.0
352.12912 120.0
352.158997 176.0
352.18515 164.0
352.211273 96.0
352.81665 192.0
353.171906 272.0
353.524963 152.0
353.927856 76.0
353.954071 88.0
354.242462 132.0
354.647156 148.0
354.755859 88.0
354.920807 112.0
355.130341 456.0
355.265869 40.0
355.333374 148.0
355.35965 96.0
355.427185 128.0
355.513489 160.0
355.633606 256.0
355.806274 176.0
356.082184 100.0
356.146729 144.0
356.241882 48.0
356.92215 76.0
357.102661 188.0
357.153748 560.0
357.19693 324.0
357.275696 100.0
357.441254 68.0
357.874115 72.0
357.987091 152.0
358.161102 1244.0
358.280884 64.0
358.476807 176.0
358.925385 104.0
359.138641 1728.0
359.185913 284.0
359.823364 132.0
359.913971 64.0
359.966827 72.0
360.027252 92.0
360.057465 52.0
360.137573 864.0
360.163361 416.0
360.216095 124.0
360.344543 140.0
360.438263 120.0
360.624176 160.0
360.658203 64.0
360.733795 128.0
360.813202 232.0
360.911499 92.0
361.146545 132.0
361.308624 136.0
361.444824 216.0
361.565918 36.0
361.872528 48.0
361.9104 176.0
361.967194 76.0
362.073242 72.0
362.486145 244.0
362.99231 168.0
363.141998 204.0
363.225464 124.0
363.817444 176.0
364.341522 144.0
364.394379 184.0
364.66452 168.0
364.725311 144.0
365.12265 104.0
365.908417 212.0
366.194 96.0
366.453033 108.0
366.632141 256.0
367.169678 108.0
367.3909 216.0
367.478638 80.0
367.621735 184.0
367.833557 108.0
367.917542 112.0
368.150452 116.0
368.249756 68.0
368.601227 172.0
368.670013 108.0
368.811432 80.0
368.914642 64.0
369.17215 208.0
369.319946 104.0
369.664276 164.0
369.855652 88.0
369.937592 148.0
370.132111 164.0
370.196381 80.0
370.556427 108.0
371.058502 36.0
371.085358 200.0
371.142853 112.0
371.169708 132.0
371.514893 100.0
371.614624 76.0
371.864075 84.0
371.971527 136.0
372.132782 112.0
372.176178 132.0
372.562927 148.0
372.589813 108.0
372.62439 104.0
372.727722 76.0
372.736938 136.0
372.747986 164.0
372.843414 152.0
372.929169 116.0
373.037445 140.0
373.104797 172.0
373.161407 176.0
373.240509 188.0
373.380219 120.0
373.49704 48.0
373.581665 84.0
373.637085 148.0
373.703308 84.0
373.742035 124.0
373.824036 88.0
373.902161 80.0
373.935669 40.0
373.969086 168.0
374.027466 160.0
374.122009 148.0
374.184418 21704.0
374.337738 80.0
374.463104 68.0
374.508118 172.0
374.556793 88.0
374.661499 64.0
374.693024 64.0
374.736877 236.0
374.874146 128.0
374.922607 76.0
374.963867 152.0
375.03183 164.0
375.106598 88.0
375.187531 7112.0
375.272369 48.0
375.342651 52.0
375.399597 184.0
375.440613 44.0
375.455536 64.0
375.532349 124.0
375.56543 156.0
375.600159 72.0
375.67923 80.0
375.743164 56.0
375.998718 172.0
376.042145 80.0
376.187469 1176.0
376.238647 156.0
376.348846 48.0
376.399048 60.0
376.468536 68.0
376.522614 64.0
376.552216 88.0
376.634613 96.0
376.847107 48.0
376.966888 116.0
377.001648 68.0
377.04184 100.0
377.078949 44.0
377.137573 164.0
377.185699 104.0
377.277466 56.0
377.347046 136.0
377.380463 76.0
377.430725 68.0
377.481506 124.0
377.567566 104.0
377.631836 76.0
377.697601 128.0
377.732391 68.0
377.774963 100.0
377.829102 88.0
377.867798 156.0
377.989197 120.0
378.175018 308.0
378.231567 144.0
378.438385 136.0
378.478516 96.0
378.525787 100.0
378.59552 36.0
378.688446 48.0
378.785278 80.0
378.916992 100.0
379.114624 84.0
379.17392 292.0
379.242523 232.0
379.53714 140.0
379.843536 196.0
380.025848 76.0
380.12674 40.0
380.179993 116.0
380.219879 120.0
380.338257 152.0
380.922668 168.0
381.141479 148.0
381.154785 136.0
381.707733 72.0
382.159607 116.0
382.590942 48.0
382.664917 80.0
383.116669 72.0
383.167236 188.0
383.330963 132.0
383.459564 136.0
383.537537 44.0
383.712952 140.0
384.181793 92.0
384.399445 36.0
384.539917 48.0
384.586761 152.0
384.614075 96.0
384.785858 56.0
384.840515 76.0
385.190186 164.0
385.317017 68.0
385.445953 144.0
385.51236 144.0
385.567078 140.0
385.661377 192.0
385.801605 188.0
386.165253 316.0
386.23175 96.0
386.814789 48.0
386.893066 148.0
387.148712 168.0
387.180542 164.0
387.225922 212.0
387.406097 76.0
387.523621 88.0
387.621582 60.0
387.65686 92.0
387.759247 128.0
387.837128 160.0
388.163544 124.0
388.472382 116.0
389.057098 84.0
389.167023 128.0
389.229858 168.0
389.359436 36.0
389.430145 40.0
390.275024 280.0
390.436279 48.0
390.628998 36.0
390.707672 124.0
390.750946 156.0
391.168091 148.0
391.286194 80.0
391.360992 48.0
392.184357 76.0
392.791595 128.0
392.937531 80.0
393.188934 264.0
393.563629 96.0
393.644073 164.0
393.731476 184.0
393.786255 60.0
394.054871 120.0
394.390198 168.0
394.549103 148.0
394.631897 96.0
394.766357 144.0
394.797974 128.0
394.95224 200.0
395.043213 108.0
395.164368 140.0
395.18399 68.0
395.199951 180.0
395.522003 168.0
395.644745 60.0
395.92981 92.0
396.174133 88.0
396.345764 140.0
396.841217 92.0
397.043457 288.0
397.17038 108.0
397.19812 88.0
397.530701 112.0
397.74176 148.0
397.896576 120.0
398.214996 148.0
398.47641 128.0
398.579712 60.0
398.615479 120.0
398.694977 64.0
398.929474 124.0
399.442444 204.0
399.665253 132.0
399.693085 116.0
399.749542 148.0
399.911957 108.0
399.95575 100.0
399.98761 56.0
400.152954 124.0
400.425568 40.0
400.493286 124.0
400.537109 160.0
400.672546 136.0
400.700439 40.0
400.927551 88.0
401.015228 80.0
401.051117 136.0
401.142792 176.0
401.170685 44.0
401.214539 116.0
401.242462 68.0
401.358093 56.0
401.492065 152.0
401.584808 216.0
401.641235 288.0
401.721008 120.0
401.791687 128.0
401.87262 140.0
401.908905 328.0
401.99231 184.0
402.044189 128.0
402.088104 148.0
402.18045 16540.0
402.263733 148.0
402.291656 100.0
402.329742 28.0
402.375488 28.0
402.424561 92.0
402.451355 196.0
402.533112 208.0
402.575134 64.0
402.723267 44.0
402.778839 192.0
402.837708 92.0
402.877258 132.0
402.938629 140.0
403.181976 4512.0
403.258911 240.0
403.315521 132.0
403.354248 176.0
403.42218 132.0
403.449768 124.0
403.566132 56.0
403.691132 92.0
403.742065 36.0
403.823059 48.0
403.966034 92.0
404.185577 872.0
404.314148 88.0
404.522278 136.0
404.556183 172.0
404.706451 48.0
404.827545 100.0
404.916229 132.0
404.95874 48.0
405.028839 152.0
405.192596 492.0
405.25116 76.0
405.319275 96.0
405.435486 176.0
405.571747 72.0
405.669159 188.0
405.740112 64.0
405.768188 120.0
405.948608 120.0
406.060913 96.0
406.125092 124.0
406.168884 144.0
406.229797 116.0
406.522278 32.0
406.62854 120.0
406.694855 100.0
406.743011 108.0
406.779144 172.0
406.971832 132.0
407.164581 88.0
407.260986 96.0
407.309174 92.0
407.405579 80.0
407.461823 144.0
407.493988 40.0
407.972229 132.0
408.028503 64.0
408.092834 160.0
408.17453 100.0
408.261719 40.0
408.293884 104.0
409.114716 100.0
409.192566 132.0
409.376434 120.0
410.158051 64.0
410.412048 48.0
410.839539 48.0
410.944946 136.0
411.013031 152.0
411.187469 144.0
411.255188 116.0
411.6185 184.0
411.840637 84.0
412.075165 148.0
412.196136 252.0
412.333557 124.0
412.511383 204.0
412.580322 168.0
412.648834 80.0
412.798462 116.0
412.964264 124.0
413.166534 168.0
413.372864 52.0
413.660248 76.0
414.012482 156.0
414.162323 172.0
414.190704 96.0
414.437805 44.0
414.555328 108.0
414.672852 132.0
414.70932 52.0
414.887695 52.0
415.017426 132.0
415.244507 128.0
415.706207 264.0
415.820648 88.0
415.983002 140.0
416.230652 40.0
416.437775 200.0
416.907471 176.0
417.559509 96.0
417.604248 88.0
417.661194 92.0
417.744751 96.0
417.819855 68.0
418.059906 108.0
418.528046 76.0
418.556549 76.0
418.621674 124.0
418.914948 108.0
419.030914 144.0
419.228668 128.0
419.273499 132.0
419.391693 172.0
419.587372 148.0
419.717834 84.0
419.791229 56.0
419.921722 104.0
420.056335 52.0
420.407227 84.0
420.449554 32.0
420.884827 148.0
421.165009 196.0
421.192474 180.0
421.223785 100.0
421.330017 120.0
421.383118 132.0
422.061615 148.0
422.233368 128.0
422.323334 224.0
423.092651 124.0
423.129486 112.0
423.197937 4216.0
423.289154 36.0
423.498016 84.0
423.665985 40.0
423.805267 64.0
423.952789 52.0
424.200531 1264.0
424.268402 196.0
424.94223 148.0
425.154388 164.0
425.194336 880.0
426.194122 172.0
426.328888 108.0
426.88797 192.0
426.962006 64.0
427.04837 40.0
427.121033 168.0
427.18988 108.0
427.303406 84.0
427.636719 156.0
427.900177 128.0
428.162903 104.0
428.452057 120.0
428.67865 172.0
428.806427 92.0
428.913574 56.0
429.045502 148.0
429.10733 44.0
429.185028 576.0
429.478485 100.0
429.672363 64.0
430.097412 84.0
430.164612 416.0
430.189514 448.0
430.283173 72.0
430.489624 132.0
430.601135 80.0
430.630035 120.0
430.882019 108.0
431.1922 252.0
431.320038 40.0
431.3862 96.0
431.923767 168.0
432.154602 120.0
432.184875 232.0
432.229919 120.0
432.275421 280.0
432.333344 40.0
432.399567 88.0
432.667847 104.0
432.785217 128.0
432.883942 116.0
433.016449 104.0
433.185394 280.0
433.426575 88.0
433.753998 104.0
433.812012 196.0
433.928101 172.0
434.056641 144.0
434.152008 168.0
434.18103 68.0
434.807495 92.0
434.952759 156.0
434.985962 128.0
435.289062 132.0
435.517456 236.0
435.795807 116.0
435.91629 64.0
436.203064 52.0
436.718689 112.0
436.947479 140.0
437.213776 136.0
437.542603 88.0
437.674866 120.0
437.754944 112.0
437.888214 112.0
438.05484 72.0
438.129822 44.0
438.210297 1016.0
438.267303 96.0
438.413147 108.0
438.721588 64.0
439.046814 100.0
439.109375 48.0
439.214966 416.0
439.35965 160.0
439.408875 100.0
439.835388 160.0
439.926544 152.0
440.217102 352.0
440.45755 148.0
440.808472 140.0
440.8461 52.0
441.619537 128.0
442.322479 44.0
442.527618 132.0
442.649048 184.0
443.02179 168.0
443.241608 164.0
443.553986 128.0
443.87262 208.0
444.157806 124.0
444.296234 64.0
444.686493 124.0
444.929932 120.0
444.986084 152.0
445.480072 156.0
445.622925 204.0
446.20282 172.0
446.4552 144.0
446.640259 172.0
447.199677 752.0
447.608246 248.0
447.810364 120.0
447.999939 172.0
448.079956 76.0
448.207184 448.0
448.358063 172.0
448.547729 164.0
448.922974 120.0
449.066376 160.0
449.215607 164.0
449.437592 152.0
449.496674 120.0
449.573273 160.0
449.960968 96.0
450.645172 148.0
451.029724 136.0
451.101593 256.0
451.198822 56.0
451.363708 112.0
451.43985 36.0
451.566711 108.0
452.21405 188.0
452.383362 52.0
452.514587 112.0
452.578094 116.0
452.802551 84.0
453.162598 60.0
453.48468 124.0
453.861969 112.0
454.517303 148.0
454.769806 104.0
454.88443 112.0
454.956573 172.0
455.759277 88.0
456.031281 184.0
456.205536 160.0
456.299072 136.0
456.536835 96.0
456.860443 128.0
456.937012 184.0
457.196594 144.0
457.230835 164.0
457.400879 80.0
457.867462 144.0
457.921936 140.0
458.265381 92.0
458.423065 132.0
458.458923 184.0
458.512543 84.0
458.887665 136.0
459.497559 112.0
459.642609 84.0
460.065155 52.0
461.034729 148.0
461.898407 96.0
462.81424 60.0
463.178253 156.0
463.726715 136.0
464.03894 124.0
464.181122 60.0
464.481354 64.0
464.55426 168.0
464.648651 188.0
465.077789 80.0
465.253784 120.0
465.477051 108.0
465.661713 100.0
465.760498 48.0
466.061218 92.0
466.705963 204.0
466.796234 148.0
466.981171 140.0
467.338226 112.0
467.41568 72.0
468.218201 104.0
469.776703 92.0
469.914734 84.0
470.294495 148.0
470.419678 72.0
471.222931 96.0
471.547028 100.0
471.767487 120.0
471.879089 152.0
472.152313 164.0
472.463745 152.0
472.558929 132.0
472.662781 168.0
472.78418 144.0
472.909454 108.0
473.060944 68.0
473.112885 76.0
473.563232 164.0
473.862732 172.0
474.005127 40.0
474.25647 104.0
474.304169 44.0
474.412537 88.0
474.859131 128.0
475.119415 52.0
475.757355 176.0
475.968231 176.0
476.243683 168.0
476.632385 136.0
476.730286 140.0
477.138855 148.0
477.582428 36.0
477.873871 76.0
478.030518 128.0
478.222015 48.0
478.330841 144.0
478.404846 152.0
478.683472 156.0
478.753174 96.0
479.158234 196.0
479.210541 112.0
479.703003 112.0
479.916626 48.0
480.104126 132.0
480.252411 148.0
480.431244 104.0
480.62323 180.0
480.906891 132.0
481.181885 156.0
481.247772 132.0
481.692841 116.0
481.723419 184.0
481.797699 176.0
481.920013 196.0
482.03363 240.0
482.352661 180.0
482.426971 96.0
482.581573 196.0
482.750214 164.0
482.945007 112.0
483.739349 168.0
483.88382 96.0
484.085236 116.0
484.230652 172.0
484.41452 196.0
485.601562 152.0
485.83844 76.0
486.347443 108.0
486.729401 184.0
486.834778 112.0
487.093903 136.0
487.436615 68.0
487.827759 128.0
488.025604 64.0
488.544556 56.0
489.138641 120.0
489.376373 32.0
490.136627 152.0
490.226501 156.0
490.42041 140.0
490.596741 120.0
490.733398 40.0
490.975922 100.0
491.258209 112.0
491.655334 112.0
491.805389 92.0
492.010956 120.0
492.286621 76.0
492.441193 132.0
492.489777 128.0
493.050873 100.0
493.280701 136.0
493.41333 136.0
493.532715 56.0
493.612305 112.0
494.669708 136.0
494.802521 84.0
495.216553 232.0
495.249756 144.0
495.71051 132.0
495.883362 176.0
495.963135 184.0
496.042938 48.0
496.379883 196.0
496.415344 112.0
497.218323 144.0
497.284882 120.0
498.079681 52.0
498.757935 156.0
499.235229 88.0
499.279694 180.0
499.729279 120.0
500.441101 132.0
500.579193 244.0
500.819641 72.0
501.113647 160.0
501.17157 168.0
501.216125 136.0
501.532562 140.0
501.898102 116.0
503.107208 128.0
503.187561 116.0
503.3349 148.0
503.584991 100.0
504.147919 84.0
504.505493 156.0
505.0242 112.0
505.766937 116.0
505.919159 204.0
506.120605 164.0
506.223602 136.0
506.40274 128.0
506.49234 96.0
506.590881 92.0
506.940338 164.0
506.976196 132.0
507.047913 108.0
507.29071 140.0
507.563446 152.0
507.630707 148.0
508.213837 212.0
508.741547 68.0
509.613678 124.0
509.735992 112.0
509.771942 136.0
510.356323 92.0
510.387787 80.0
510.545166 156.0
510.603638 168.0
510.702576 148.0
510.878021 52.0
511.107483 128.0
511.296478 64.0
511.359467 132.0
511.895203 116.0
511.998779 192.0
512.27002 400.0
512.381653 136.0
512.440247 68.0
512.743042 176.0
512.949463 180.0
512.990051 116.0
513.084717 184.0
513.183899 196.0
513.246826 544.0
513.689026 108.0
513.962158 116.0
514.036377 188.0
514.0979 108.0
514.154602 184.0
514.245239 332.0
514.262695 152.0
514.703003 148.0
514.821899 56.0
514.885132 128.0
515.138062 40.0
515.251343 1496.0
515.422668 140.0
515.635071 60.0
515.779724 76.0
515.90625 100.0
515.992188 108.0
516.046448 152.0
516.25354 136.0
516.457947 60.0
516.589111 88.0
516.770081 108.0
517.247253 128.0
517.290527 116.0
517.441956 100.0
517.562195 64.0
517.65271 168.0
517.734253 120.0
518.173645 116.0
518.273315 60.0
518.404724 112.0
518.445496 152.0
518.586792 200.0
518.876099 168.0
519.297852 36.0
519.338623 128.0
519.55188 184.0
519.765076 108.0
519.842224 60.0
520.564026 112.0
520.791077 92.0
521.045471 88.0
521.540771 44.0
521.963623 104.0
522.250122 212.0
522.554871 180.0
522.641357 160.0
522.81427 64.0
523.014526 160.0
523.091919 84.0
523.28717 148.0
523.350525 64.0
523.376953 132.0
523.533569 108.0
523.620056 96.0
523.788574 108.0
524.009399 120.0
524.157654 48.0
524.216858 100.0
524.362671 176.0
524.466919 92.0
524.535889 116.0
525.083069 44.0
525.187927 72.0
525.352173 104.0
525.528625 100.0
525.708069 100.0
525.746338 104.0
525.823486 164.0
525.856567 104.0
526.068604 52.0
526.200989 188.0
526.351685 88.0
526.397339 68.0
526.429321 108.0
526.470398 80.0
526.657654 88.0
526.730774 80.0
526.817566 56.0
526.858643 108.0
527.058167 72.0
527.15564 228.0
527.207581 120.0
527.290039 148.0
527.352173 84.0
527.397888 80.0
527.456543 96.0
527.539368 96.0
527.706726 100.0
527.754456 136.0
527.791016 156.0
527.829163 100.0
527.897827 128.0
527.997375 220.0
528.078857 132.0
528.148743 312.0
528.220947 120.0
528.264099 192.0
528.362732 168.0
528.434692 216.0
528.485291 96.0
528.519165 104.0
528.559326 96.0
528.595581 280.0
528.722534 256.0
528.778198 112.0
528.82196 152.0
528.872253 200.0
528.907654 216.0
528.942383 128.0
528.961548 80.0
528.97113 68.0
528.979614 84.0
529.021118 332.0
529.070801 156.0
529.130493 124.0
529.166748 264.0
529.19397 84.0
529.263 80.0
529.324829 120.0
529.415527 144.0
529.489014 84.0
529.557556 100.0
529.605469 228.0
529.633606 52.0
529.676575 152.0
529.734436 356.0
529.801453 288.0
529.833191 172.0
529.890991 140.0
529.91449 252.0
529.932007 212.0
529.948608 224.0
529.959534 280.0
529.988831 320.0
530.036621 452.0
530.069092 336.0
530.141357 360.0
530.190308 784.0
530.275452 146248.0
530.403259 168.0
530.465759 132.0
530.517334 100.0
530.548462 192.0
530.60083 300.0
530.646729 276.0
530.705017 220.0
530.780823 104.0
530.789612 132.0
530.842285 124.0
530.905457 144.0
530.973877 196.0
531.035828 580.0
531.091797 324.0
531.136108 188.0
531.158386 184.0
531.278687 46100.0
531.447693 336.0
531.541443 108.0
531.592102 140.0
531.632324 84.0
531.644775 60.0
531.688354 76.0
531.748474 112.0
531.851868 136.0
531.903687 104.0
531.954956 56.0
532.018555 144.0
532.030823 132.0
532.075073 356.0
532.151611 348.0
532.279785 10656.0
532.421753 224.0
532.477112 192.0
532.515747 104.0
532.578247 160.0
532.61438 156.0
532.705994 164.0
532.767578 184.0
532.867676 140.0
532.919373 152.0
533.01593 92.0
533.060425 72.0
533.122864 84.0
533.163574 60.0
533.213562 80.0
533.286194 1048.0
533.35199 152.0
533.390747 84.0
533.463013 76.0
533.513733 128.0
533.561157 68.0
533.608154 72.0
533.630981 136.0
533.642578 156.0
533.681885 84.0
533.71759 44.0
533.730713 76.0
533.746826 96.0
533.786682 200.0
533.827026 164.0
533.871521 80.0
533.896545 64.0
533.94574 60.0
534.012512 92.0
534.053223 76.0
534.06842 104.0
534.121826 92.0
534.168945 76.0
534.219971 236.0
534.283081 168.0
534.330994 120.0
534.371643 212.0
534.431885 280.0
534.47937 160.0
534.489136 152.0
534.507751 92.0
534.526855 164.0
534.566345 244.0
534.654785 64.0
534.691772 120.0
534.74939 64.0
534.800415 120.0
534.83374 152.0
534.927673 96.0
534.997559 120.0
535.061157 172.0
535.116455 132.0
535.26123 40.0
535.329102 120.0
535.34491 168.0
535.407043 148.0
535.540283 196.0
535.634277 52.0
535.708008 92.0
535.797852 116.0
535.887695 68.0
535.924561 52.0
536.035156 28.0
536.129456 64.0
536.190125 44.0
536.380981 100.0
536.481262 76.0
536.537537 80.0
536.615906 140.0
536.717346 60.0
536.749634 44.0
536.866272 80.0
536.943298 68.0
537.061707 132.0
537.168213 68.0
537.3927 104.0
537.450745 208.0
537.566101 76.0
537.603027 48.0
537.639954 76.0
537.676819 40.0
537.763 36.0
537.842529 80.0
537.891174 92.0
538.16156 76.0
538.524414 48.0
539.08075 116.0
539.427368 32.0
539.468994 92.0
539.621582 52.0
539.91748 164.0
540.046997 44.0
540.120239 100.0
540.222778 116.0
540.278259 80.0
540.347656 32.0
540.588257 96.0
540.782654 64.0
540.870605 64.0
540.94928 96.0
540.993896 68.0
541.051147 100.0
541.180786 104.0
541.55127 112.0
542.385254 68.0
543.108643 84.0
544.282776 48.0
544.575317 132.0
544.742554 108.0
544.821533 28.0
545.669495 104.0
545.718506 100.0
545.997498 80.0
546.62085 68.0
546.834961 40.0
546.951294 76.0
547.062988 96.0
547.319092 52.0
547.673035 148.0
548.008423 108.0
548.157532 44.0
548.371887 52.0
548.413879 104.0
548.712219 40.0
548.744812 120.0
548.964966 116.0
549.024597 48.0
549.248474 100.0
549.738342 52.0
550.048279 100.0
550.125732 76.0
550.177124 76.0
550.499268 80.0
550.550659 120.0
551.428955 40.0
552.205078 40.0
552.322021 60.0
552.991089 80.0
553.084717 36.0
553.988464 128.0
554.082153 112.0
554.766357 60.0
555.038269 132.0
555.596436 112.0
555.910767 52.0
556.267517 88.0
557.526245 92.0
558.348999 64.0
560.528564 44.0
562.45752 64.0
562.5047 60.0
562.783264 68.0
564.025696 60.0
565.274292 108.0
565.477783 68.0
566.197388 96.0
567.732849 36.0
568.107605 44.0
568.805176 112.0
570.154053 84.0
570.581848 56.0
573.580933 96.0
574.095825 72.0
575.369812 64.0
575.718384 40.0
575.981079 52.0
579.209839 52.0
580.105896 76.0
580.431946 116.0
580.945129 92.0
583.952026 72.0
586.981201 124.0
587.912231 84.0
593.843628 48.0
595.833862 124.0
598.216797 152.0
601.233826 80.0
603.461304 116.0
604.126404 92.0
604.880005 52.0
606.913147 72.0
610.679749 60.0
613.215393 40.0
613.70343 28.0
615.119324 84.0
616.576355 104.0
617.575073 84.0
618.148987 92.0
619.139038 72.0
620.129944 120.0
623.668823 68.0
624.399719 96.0
625.773071 112.0
648.018616 136.0
648.180786 64.0
648.839661 92.0
649.001892 108.0
649.48877 88.0
651.590393 120.0
653.90918 80.0
654.021118 128.0
656.813416 64.0
660.199646 56.0
661.903687 76.0
666.921021 52.0
667.106079 132.0
670.678467 64.0
670.8125 96.0
676.070435 128.0
676.189453 84.0
677.152466 96.0
677.566833 100.0
679.204956 80.0
682.976013 68.0
683.132019 68.0
684.235291 56.0
684.302979 40.0
685.855408 124.0
689.122253 48.0
690.863159 76.0
691.025391 204.0
692.611572 52.0
696.556152 60.0
696.655945 76.0
698.190735 40.0
699.074524 40.0
699.758789 60.0
701.676575 104.0
702.27771 80.0
703.41748 88.0
709.607056 104.0
710.354858 52.0
710.646606 160.0
710.752747 96.0
711.527649 180.0
713.009644 124.0
713.929382 76.0
714.642151 84.0
718.622192 120.0
721.607788 60.0
721.709351 88.0
723.519104 188.0
724.717468 136.0
726.164856 80.0
729.037048 44.0
730.424194 64.0
731.877258 64.0
734.442505 56.0
734.617371 48.0
734.871216 80.0
735.154663 56.0
736.191162 160.0
738.872131 84.0
739.916626 60.0
741.200256 56.0
741.308655 36.0
741.834412 192.0
743.792664 84.0
744.433289 148.0
745.666504 80.0
746.465637 68.0
750.440552 84.0
753.267456 48.0
756.099731 56.0
757.243958 104.0
759.244385 136.0
760.440369 56.0
762.587891 48.0
763.132141 108.0
763.72052 148.0
763.83606 120.0
765.404541 144.0
766.528259 232.0
772.706787 112.0
773.846924 60.0
774.073975 48.0
775.780457 108.0
777.227966 40.0
778.660217 176.0
780.177124 56.0
780.733154 76.0
781.320862 100.0
782.202026 168.0
782.469238 84.0
782.664124 188.0
782.736511 116.0
783.137451 64.0
784.073486 108.0
784.145935 72.0
784.775818 188.0
786.215027 64.0
786.304321 136.0
786.912781 156.0
787.80072 96.0
787.862183 60.0
788.979919 48.0
789.594971 52.0
792.074463 144.0
794.916992 48.0
795.360352 220.0
795.624207 148.0
795.85437 40.0
796.550781 80.0
797.033936 76.0
799.716431 52.0
802.155396 72.0
804.253723 120.0
804.389221 52.0
804.72229 180.0
805.416931 48.0
805.936646 68.0
806.394409 52.0
807.214111 48.0
807.785339 80.0
808.826538 128.0
811.829346 164.0
813.877808 160.0
814.326416 92.0
814.366211 84.0
815.479797 60.0
816.144897 100.0
816.855835 76.0
817.265442 132.0
819.081482 80.0
820.004517 20.0
822.360107 124.0
822.656921 100.0
824.924744 68.0
825.033386 60.0
828.215027 52.0
831.138794 164.0
831.678223 176.0
833.125305 116.0
833.952759 100.0
834.533386 44.0
834.769104 80.0
836.397278 88.0
837.433716 40.0
838.822327 88.0
840.569885 144.0
840.731445 88.0
841.147034 176.0
841.649292 80.0
842.521423 60.0
843.607849 116.0
844.000977 108.0
844.920593 84.0
845.464539 64.0
845.533936 196.0
846.552856 72.0
846.738159 156.0
847.352173 228.0
847.724731 120.0
849.439209 68.0
851.069946 44.0
852.06897 156.0
852.214233 76.0
853.16156 60.0
853.719727 96.0
856.746399 176.0
856.826904 136.0
857.78949 80.0
859.352417 168.0
861.810547 136.0
863.751465 184.0
865.091492 60.0
868.378662 192.0
869.000488 152.0
869.8573 136.0
870.250671 52.0
871.672119 120.0
873.900635 72.0
874.277222 116.0
874.630371 72.0
875.648926 56.0
876.02594 148.0
876.709412 176.0
878.484131 52.0
878.926636 100.0
879.434143 132.0
879.499084 96.0
881.111206 168.0
883.25116 172.0
885.571411 220.0
885.695801 108.0
886.969727 184.0
887.491455 56.0
887.639648 160.0
888.102234 248.0
891.65271 96.0
891.759705 88.0
892.336304 176.0
894.406555 156.0
894.966125 124.0
898.070984 128.0
898.243958 224.0
898.715271 96.0
900.840637 88.0
901.43811 124.0
901.760803 144.0
904.530151 44.0
906.099182 208.0
906.218994 76.0
908.647156 132.0
911.102661 180.0
911.180725 196.0
911.379028 148.0
912.100159 92.0
915.716309 124.0
917.0177 156.0
917.9823 112.0
922.480347 128.0
922.589172 224.0
923.211914 144.0
924.070862 72.0
924.149536 160.0
924.590332 112.0
926.752319 96.0
926.868164 208.0
928.118591 124.0
928.213867 40.0
928.426086 96.0
928.60199 84.0
929.906433 136.0
930.112793 180.0
930.197754 84.0
932.123047 60.0
933.314392 96.0
933.971191 188.0
935.182068 64.0
935.638611 192.0
937.386658 148.0
937.471985 144.0
940.576355 124.0
942.206848 212.0
942.322937 56.0
942.561218 136.0
942.860657 112.0
943.06842 160.0
943.343506 200.0
943.777588 72.0
944.065002 176.0
944.994751 28.0
946.084106 180.0
946.194336 192.0
947.186401 100.0
948.007385 224.0
948.632507 176.0
948.742859 156.0
948.951294 148.0
949.06781 84.0
950.104309 152.0
950.441772 212.0
951.767578 204.0
952.013245 88.0
952.584412 100.0
952.959167 200.0
953.026794 192.0
954.200684 60.0
954.889404 112.0
954.96936 56.0
955.01239 172.0
955.412231 168.0
955.781372 40.0
957.973206 180.0
958.644775 168.0
958.749512 168.0
962.111145 96.0
962.944763 180.0
964.032043 132.0
965.429199 100.0
969.471619 80.0
970.370422 184.0
971.350281 196.0
972.125427 192.0
972.85199 204.0
975.144043 108.0
975.454834 96.0
976.275513 132.0
977.015747 212.0
977.669067 160.0
979.025085 116.0
980.870422 204.0
981.058472 212.0
984.226807 208.0
985.601013 56.0
985.744751 176.0
988.127014 176.0
989.115723 176.0
990.812805 156.0
991.151123 44.0
991.715149 176.0
991.796631 188.0
991.903198 156.0
992.260559 48.0
992.316956 88.0
993.627747 124.0
994.261536 148.0
994.864075 152.0
994.970825 168.0
995.963013 168.0
997.841919 160.0
998.049438 180.0
1000.056213 156.0
1000.427612 164.0
1001.157715 88.0
1002.701477 168.0
1003.243591 228.0
1003.344421 80.0
1003.520935 124.0
1004.048401 156.0
1004.504761 36.0
1006.158142 60.0
1006.290771 168.0
1007.572815 184.0
1008.805176 140.0
1009.348877 116.0
1010.025574 144.0
1011.23407 172.0
1013.304749 168.0
1013.488525 68.0
1014.287048 76.0
1014.363098 148.0
1016.265686 180.0
1016.614685 216.0
1017.173218 208.0
1017.789001 108.0
1017.898499 180.0
1017.966797 92.0
1018.112854 116.0
1019.027588 128.0
1020.001709 124.0
1020.076172 184.0
1020.648376 112.0
1021.157104 56.0
1021.296997 168.0
1021.86322 128.0
1022.365906 96.0
1022.524963 168.0
1022.677734 48.0
1022.97052 172.0
1023.842834 36.0
1025.422852 192.0
1025.467407 128.0
1025.633179 44.0
1026.104858 176.0
1027.112427 48.0
1027.267578 112.0
1027.980103 44.0
1029.039673 96.0
1029.658936 124.0
1030.745117 76.0
1030.872925 248.0
1030.981567 168.0
1031.684692 120.0
1033.213135 132.0
1034.264771 60.0
1035.479126 200.0
1036.862915 68.0
1037.151367 96.0
1037.478271 60.0
1037.984741 188.0
1039.286865 108.0
1039.64624 180.0
1040.134033 108.0
1040.37793 144.0
1041.893555 140.0
1042.536133 232.0
1045.178955 232.0
1045.687378 184.0
1046.015625 44.0
1047.773682 236.0
1048.282715 128.0
1049.436523 220.0
1050.287842 176.0
1050.700684 208.0
1050.920044 160.0
1052.42395 128.0
1052.895264 124.0
1053.631714 120.0
1054.032227 184.0
1054.122681 132.0
1055.525391 36.0
1056.081543 160.0
1056.599121 132.0
1056.85144 56.0
1056.961426 292.0
1057.362671 128.0
1057.479126 168.0
1058.864624 56.0
1060.77124 136.0
1061.703247 132.0
1062.62439 156.0
1062.825439 120.0
1062.929321 112.0
1064.169067 156.0
1064.220947 164.0
1064.753418 60.0
1064.902832 100.0
1065.519897 124.0
1066.130737 152.0
1066.865234 156.0
1067.27478 104.0
1067.502441 52.0
1071.166626 56.0
1072.574097 156.0
1073.121704 156.0
1073.375977 64.0
1076.762939 176.0
1077.0177 160.0
1077.226685 188.0
1077.736328 216.0
1077.945435 136.0
1078.062988 80.0
1079.730103 136.0
1080.110962 156.0
1080.645874 104.0
1081.352539 160.0
1081.627441 184.0
1083.244873 40.0
1083.598633 184.0
1083.86731 148.0
1084.306396 96.0
1085.571655 156.0
1085.761841 184.0
1086.693237 140.0
1086.968872 208.0
1087.047607 80.0
1087.474121 52.0
1090.271973 48.0
1090.449463 120.0
1094.213745 80.0
1094.771729 148.0
1095.04834 84.0
1099.148804 148.0
1099.650391 80.0
1101.109497 136.0
1101.981445 72.0
1104.764771 160.0
1105.33374 104.0
1108.266968 176.0
1108.552002 216.0
1109.228027 188.0
1111.529297 88.0
1111.622192 64.0
1111.808105 132.0
1111.881104 128.0
1112.173096 40.0
1112.438599 104.0
1113.520874 168.0
1114.264893 140.0
1115.474365 128.0
1116.218994 128.0
1116.465088 192.0
1116.957275 56.0
1117.156738 180.0
1120.045776 72.0
1120.592041 136.0
1121.525024 180.0
1122.184937 148.0
1122.38501 36.0
1122.605103 152.0
1122.865112 140.0
1123.105225 116.0
1123.538818 108.0
1124.866821 68.0
1125.931274 132.0
1126.135498 136.0
1126.743408 164.0
1126.85022 144.0
1127.926147 168.0
1128.119995 60.0
1129.082886 112.0
1129.209961 144.0
1130.286987 136.0
1130.655029 184.0
1130.936157 72.0
1131.572144 244.0
1131.699341 132.0
1131.933716 176.0
1132.087646 144.0
1132.476196 52.0
1134.486328 140.0
1134.546753 148.0
1134.727783 148.0
1134.888672 144.0
1135.018311 168.0
1135.311035 160.0
1136.947998 48.0
1137.243286 44.0
1137.317139 164.0
1137.404419 148.0
1137.484985 192.0
1137.666138 176.0
1139.345093 144.0
1139.81543 200.0
1142.148315 188.0
1144.86731 200.0
1145.810303 172.0
1148.567505 124.0
1148.904785 136.0
1149.512085 152.0
1149.56604 28.0
1149.889893 152.0
1150.166626 196.0
1150.443481 128.0
1151.375244 236.0
1151.476562 172.0
1152.638428 220.0
1153.287231 128.0
1156.039795 136.0
1156.885864 64.0
1157.258301 144.0
1157.711914 152.0
1158.748291 44.0
1159.005737 160.0
1159.134521 148.0
1159.446289 164.0
1160.130859 60.0
1161.181763 168.0
1161.371704 196.0
1161.927979 204.0
1162.165405 120.0
1163.013672 212.0
1163.665405 208.0
1164.792725 96.0
1166.37207 140.0
1168.667847 116.0
1169.191772 212.0
1169.470825 36.0
1170.430664 172.0
1170.532837 180.0
1170.812012 148.0
1171.152588 216.0
1171.36377 56.0
1172.474365 124.0
1172.624268 92.0
1172.971924 148.0
1175.80249 136.0
1176.02771 140.0
1176.300781 64.0
1176.484985 240.0
1176.894653 100.0
1177.038086 92.0
1178.227051 228.0
1178.568115 144.0
1178.752563 176.0
1179.401855 52.0
1179.606934 68.0
1181.733765 156.0
1181.918579 148.0
1182.431763 204.0
1182.767212 252.0
1183.275513 224.0
1183.588745 228.0
1185.177856 148.0
1185.568359 116.0
1186.246948 156.0
1187.542847 124.0
1188.139648 132.0
1189.464111 164.0
1189.553345 216.0
1190.541992 152.0
1191.15332 124.0
1192.383179 68.0
1192.919312 76.0
1193.627563 60.0
1194.026367 176.0
1194.2052 48.0
1195.195801 112.0
1196.014771 136.0
1196.18689 256.0
1196.551758 56.0
1196.923462 168.0
1197.233398 152.0
1198.142578 100.0
1198.673096 184.0
1199.631104 248.0
1199.934448 212.0
1200.02417 156.0
1200.748169 140.0
1200.913696 156.0
1201.155151 108.0
1202.459229 132.0
1203.646606 180.0
1203.784668 172.0
1203.895142 180.0
1204.198975 144.0
1204.378662 232.0
1205.82959 168.0
1206.182007 128.0
1208.865601 156.0
1210.241089 192.0
1211.621338 120.0
1212.205688 256.0
1214.636841 92.0
1217.121338 152.0
1218.038086 252.0
1219.323486 76.0
1219.467285 140.0
1220.108887 188.0
1221.068481 112.0
1221.138062 156.0
1221.652832 196.0
1221.944946 48.0
1222.00061 120.0
1223.093262 72.0
1223.253296 64.0
1223.852051 208.0
1224.945435 88.0
1225.063843 216.0
1227.435791 228.0
1227.831055 108.0
1228.96814 176.0
1229.100708 208.0
1229.442627 48.0
1229.526367 64.0
1231.118042 120.0
1231.404419 136.0
1231.551025 200.0
1232.647949 140.0
1232.857544 128.0
1233.234985 216.0
1233.365845 44.0
1233.633423 60.0
1234.493408 200.0
1234.619263 176.0
1235.136841 212.0
1235.54248 80.0
1236.781128 112.0
1238.244507 196.0
1238.846802 128.0
1239.134033 160.0
1239.253174 112.0
1239.908447 164.0
1240.50769 208.0
1241.755737 204.0
1242.022339 52.0
1242.822021 48.0
1244.21167 92.0
1248.589355 120.0
1249.412231 84.0
1250.784546 136.0
1251.946167 92.0
1254.010498 176.0
1255.596802 160.0
1255.857666 168.0
1256.386719 144.0
1257.304077 176.0
1258.172241 112.0
1258.553467 68.0
1258.850098 164.0
1260.001343 148.0
1260.54541 72.0
1261.004761 36.0
1261.188599 120.0
1262.114624 172.0
1262.50354 152.0
1262.800659 156.0
1262.899658 220.0
1262.977417 40.0
1263.663696 28.0
1264.166016 216.0
1264.314697 156.0
1265.022461 172.0
1266.615723 204.0
1267.657227 116.0
1268.110718 132.0
1269.890015 148.0
1270.003784 152.0
1270.578369 172.0
1270.741577 88.0
1272.359741 108.0
1272.558594 156.0
1273.098267 196.0
1273.169189 216.0
1273.602417 100.0
1274.653931 120.0
1275.911987 168.0
1276.239014 340.0
1277.02832 76.0
1277.56897 32.0
1277.744263 180.0
1278.878296 100.0
1279.462036 196.0
1280.950317 148.0
1281.320801 160.0
1281.40625 172.0
1281.919312 204.0
1282.332642 192.0
1282.411011 168.0
1282.803101 68.0
1283.95813 144.0
1284.567139 212.0
1285.192261 144.0
1286.027222 44.0
1286.391235 188.0
1286.933838 208.0
1287.612183 148.0
1288.21936 184.0
1289.298218 136.0
1289.705566 160.0
1289.805664 128.0
1290.084473 212.0
1290.141724 172.0
1290.277466 104.0
1290.727905 76.0
1291.078369 84.0
1291.192749 172.0
1291.543213 132.0
1291.757812 124.0
1293.546753 184.0
1293.93335 68.0
1294.348633 84.0
1294.87854 152.0
1294.964478 180.0
1295.938721 108.0
1296.282715 228.0
1296.863159 120.0
1297.881226 88.0
1298.074829 180.0
1299.057373 168.0
1300.219727 144.0
1300.908813 92.0
1301.016479 172.0
1301.846436 224.0
1303.709961 168.0
1303.824951 216.0
1305.291504 244.0
1305.420898 160.0
1305.708618 76.0
1307.140137 108.0
1307.39917 176.0
1307.557495 144.0
1308.190918 196.0
1309.609497 132.0
1309.782349 132.0
1310.094971 80.0
1311.244995 152.0
1311.482788 84.0
1311.864868 32.0
1312.203735 160.0
1314.446899 84.0
1314.519043 132.0
1314.656128 184.0
1316.20813 132.0
1316.504272 84.0
1316.735352 112.0
1316.858154 48.0
1316.930298 244.0
1318.165649 188.0
1318.259644 112.0
1318.794434 52.0
1319.372803 184.0
1319.878906 124.0
1320.225952 128.0
1321.08667 136.0
1322.671387 176.0
1322.866821 192.0
1323.076782 116.0
1323.337402 212.0
1323.388062 172.0
1323.996338 204.0
1324.981445 208.0
1325.198853 160.0
1325.829224 144.0
1326.699097 96.0
1326.858521 216.0
1327.619873 56.0
1327.938965 128.0
1328.359741 208.0
1328.606323 148.0
1328.736938 176.0
1328.990845 280.0
1329.041626 72.0
1329.558105 160.0
1330.943359 124.0
1331.633301 116.0
1331.749512 72.0
1332.010986 80.0
1332.751953 116.0
1333.72583 156.0
1334.009277 132.0
1334.082031 116.0
1334.416382 120.0
1334.489136 188.0
1334.547241 128.0
1335.456299 144.0
1335.529053 156.0
1336.656616 48.0
1337.078735 120.0
1337.974121 196.0
1338.279907 160.0
1338.775024 164.0
1339.124634 188.0
1339.190186 228.0
1339.255737 112.0
1339.583496 132.0
1339.769287 140.0
1339.925903 132.0
1340.559814 144.0
1340.661865 184.0
1342.122559 104.0
1343.855591 128.0
1344.074585 180.0
1344.453979 180.0
1344.812622 128.0
1344.994019 180.0
1345.26416 188.0
1345.782471 100.0
1345.89209 164.0
1346.17688 204.0
1346.512695 116.0
1346.761108 248.0
1347.239014 192.0
1347.316284 84.0
1348.412354 148.0
1348.843506 160.0
1349.720825 176.0
1350.086426 172.0
1350.254639 88.0
1350.422852 144.0
1350.744751 120.0
1352.142212 100.0
1352.471558 156.0
1352.932739 188.0
1354.844116 152.0
1354.946777 128.0
1355.349731 184.0
1355.518188 68.0
1356.104492 56.0
1357.028198 176.0
1357.600098 72.0
1359.015869 208.0
1359.624878 116.0
1359.87439 232.0
1360.065308 256.0
1360.762695 180.0
1361.034302 96.0
1361.489624 204.0
1361.607056 68.0
1362.246094 72.0
1363.665527 304.0
1363.78186 228.0
1364.766968 188.0
1367.665405 224.0
1367.783203 156.0
1368.099731 160.0
1368.283813 116.0
1369.218994 160.0
1369.491455 72.0
1369.926025 368.0
1370.449219 164.0
1370.544922 272.0
1370.692261 188.0
1371.974731 56.0
1372.387695 184.0
1373.980713 156.0
1375.094971 160.0
1375.285156 232.0
1375.338501 180.0
1375.774048 200.0
1376.076782 144.0
1376.733887 108.0
1377.287842 144.0
1377.361694 196.0
1378.684204 156.0
1379.482422 148.0
1379.652466 196.0
1379.704224 48.0
1380.502808 80.0
1381.038818 172.0
1381.153564 192.0
1381.464233 144.0
1381.553101 244.0
1383.358765 160.0
1383.43689 180.0
1383.802856 208.0
1384.187988 176.0
1386.736328 76.0
1387.192139 156.0
1389.140991 212.0
1391.565552 168.0
1392.300659 160.0
1392.558716 252.0
1392.835449 100.0
1393.845825 176.0
1394.640991 156.0
1394.781616 196.0
1395.756226 136.0
1396.016479 260.0
1397.407349 184.0
1401.21936 84.0
1402.217896 40.0
1402.27002 72.0
1402.709839 132.0
1403.343506 216.0
1403.984741 148.0
1404.782837 184.0
1406.879761 128.0
1407.424805 48.0
1407.56665 48.0
1408.328491 124.0
1408.813965 48.0
1409.53125 220.0
1409.635864 124.0
1409.755371 200.0
1410.607422 144.0
1411.355103 180.0
1411.414917 224.0
1412.31311 180.0
1413.741333 116.0
1414.1604 180.0
1414.534668 132.0
1414.602051 160.0
1414.741089 140.0
1416.237671 212.0
1416.30188 152.0
1416.391724 152.0
1416.990967 148.0
1417.043457 140.0
1417.732788 212.0
1417.88269 172.0
1418.279907 120.0
1418.504883 232.0
1418.707275 108.0
1419.381958 180.0
1419.771973 160.0
1420.364502 140.0
1420.416992 100.0
1420.724487 172.0
1421.647461 200.0
1422.945923 184.0
1423.899658 172.0
1424.808472 224.0
1424.966309 208.0
1425.326904 140.0
1425.507324 192.0
1426.657227 184.0
1427.732422 160.0
1427.822754 168.0
1427.897949 188.0
1428.41687 180.0
1429.206909 144.0
1429.4552 104.0
1429.786255 172.0
1431.698486 236.0
1431.826538 84.0
1432.35376 164.0
1433.551636 164.0
1433.604492 236.0
1433.883301 192.0
1434.018921 152.0
1434.93103 132.0
1435.172363 148.0
1435.338257 224.0
1435.451294 160.0
1436.997559 176.0
1437.465454 76.0
1437.918213 180.0
1438.242798 116.0
1438.52417 204.0
1438.541504 56.0
1438.57251 180.0
1438.997681 168.0
1439.420532 196.0
1439.58667 380.0
1441.006714 192.0
1442.314087 116.0
1442.518066 68.0
1443.508545 180.0
1443.583496 216.0
1444.00769 196.0
1444.696045 144.0
1445.202881 204.0
1446.164185 180.0
1446.232056 172.0
1447.572144 116.0
1447.662964 128.0
1448.42041 192.0
1449.147583 140.0
1449.890259 128.0
1450.360107 164.0
1450.951416 164.0
1451.504883 200.0
1451.618652 164.0
1451.823364 80.0
1452.437744 204.0
1453.241943 192.0
1453.66687 100.0
1454.357422 152.0
1455.462646 204.0
1455.640503 136.0
1455.913818 208.0
1457.493896 108.0
1457.653442 124.0
1458.041016 168.0
1458.595825 216.0
1459.014038 196.0
1461.752075 152.0
1462.04895 160.0
1462.185913 172.0
1462.421875 208.0
1463.853149 164.0
1464.013062 168.0
1465.589844 156.0
1465.749878 200.0
1466.412842 192.0
1466.633911 212.0
1466.724365 156.0
1467.670654 188.0
1468.181641 188.0
1468.303589 152.0
1468.486694 80.0
1470.409302 204.0
1471.539062 180.0
1472.478271 80.0
1472.883057 140.0
1473.249756 32.0
1473.654663 104.0
1473.746338 160.0
1473.960327 184.0
1474.774658 100.0
1475.267212 208.0
1475.588379 52.0
1475.833008 160.0
1475.917114 112.0
1476.391235 60.0
1476.850098 140.0
1477.35498 140.0
1477.829346 160.0
1478.250122 156.0
1478.678711 228.0
1478.755249 168.0
1479.650879 68.0
1480.64624 176.0
1481.121216 216.0
1481.718628 100.0
1481.841309 52.0
1482.040527 180.0
1482.561523 176.0
1482.676514 196.0
1483.044434 188.0
1483.243652 96.0
1483.772583 192.0
1483.948975 172.0
1484.600708 172.0
1484.6698 164.0
1484.7771 48.0
1486.679688 132.0
1486.871582 156.0
1487.23999 140.0
1487.324341 48.0
1488.330078 196.0
1488.775513 120.0
1489.005859 148.0
1489.121094 160.0
1489.213257 144.0
1489.397583 180.0
1489.458984 136.0
1490.242554 152.0
1491.241577 208.0
1491.464478 176.0
1491.54834 160.0
1491.756592 180.0
1492.12561 176.0
1493.41748 48.0
1493.855957 172.0
1494.040527 192.0
1494.386841 176.0
1494.571411 156.0
1494.740723 136.0
1495.43335 60.0
1495.525757 184.0
1495.618042 36.0
1495.679688 136.0
1496.087646 40.0
1497.17334 188.0
1497.650757 160.0
1498.498169 224.0
1498.72937 184.0
1499.037598 184.0
1501.581543 228.0
1502.677002 80.0
1503.070435 120.0
1503.259033 244.0
1503.656982 184.0
