>compound MLS002172448-01!LY-367,265
>formula C24H25FN4O2S
>ionization [M+H]+
>parentmass 453.1755017120905
#inchi InChI=1S/C24H25FN4O2S/c25-19-6-7-20-21(16-26-22(20)15-19)17-8-11-27(12-9-17)13-14-28-23-5-1-3-18-4-2-10-29(24(18)23)32(28,30)31/h1,3,5-8,15-16,26H,2,4,9-14H2
#inchikey BJIPVHLRWSDKOS
#Ion_Source LC-ESI
#Instrument qTof
#Compound_Source NIH Pharmacologically Active Library
#PI Dorrestein
#Data_Collector VP/LMS
#Scan -1
#Precursor_MZ 453.186
#ExactMass 452.168
#Charge 1
#CAS_Number N/A
#Pubmed_ID N/A
#Smiles Fc1ccc2c(c[nH]c2c1)C3=CCN(CCN4c5cccc6CCCN(c56)S4(=O)=O)CC3
#INCHI_AUX N/A
#Library_Class 1
#SpectrumID CCMSLIB00000085564
#IonMode Positive
#UpdateWorkflowName UPDATE-SINGLE-ANNOTATED-GOLD
#LibraryQualityString Gold
#TaskID d252d724072548979f1f6f1ced849daf
##Scan# 1839
#SpectrumFile p4-C08_GC8_01_18356.mzXML
#LibraryName Pharm_Active_Library.mgf
#MQScore -1
#Organism Pharm_Active_Library
#TIC_Query 0
#RT_Query -1
#MZErrorPPM -1
#SharedPeaks 0
#MassDiff 0
#LibMZ -1
#SpecMZ 453.186
#SpecCharge 0
#internalFilename spec-00000.mgf

>collision 10
44.896564 256.0
44.908611 184.0
44.939602 208.0
44.973927 160.0
44.992214 124.0
45.011539 144.0
45.031853 240.0
45.035336 164.0
45.047619 200.0
45.067173 128.0
45.087051 148.0
45.100418 196.0
45.118443 144.0
45.142742 176.0
45.191353 192.0
45.2141 224.0
45.228344 224.0
45.251579 68.0
45.278362 104.0
45.288429 248.0
45.314529 200.0
45.344711 224.0
45.376263 192.0
45.394951 172.0
45.411045 184.0
45.430485 352.0
45.440556 164.0
45.475445 124.0
45.508301 152.0
45.529148 180.0
45.549294 316.0
45.576164 228.0
45.589565 148.0
45.614407 132.0
45.6269 112.0
45.63979 220.0
45.658649 144.0
45.672958 176.0
45.693138 336.0
45.714256 256.0
45.72543 176.0
45.736763 172.0
45.765553 244.0
45.78297 108.0
45.796787 208.0
45.813679 156.0
45.839943 128.0
45.852081 200.0
45.878941 280.0
45.895164 160.0
45.913727 188.0
45.933231 160.0
45.947765 184.0
45.969078 196.0
45.991791 144.0
46.018929 176.0
46.040901 208.0
46.054237 220.0
46.067917 116.0
46.077374 200.0
46.088486 124.0
46.100342 140.0
46.111153 128.0
46.121967 120.0
46.132782 216.0
46.150356 244.0
46.163452 152.0
46.173859 168.0
46.261295 172.0
46.275162 132.0
46.289726 124.0
46.310696 132.0
46.340622 160.0
46.384293 140.0
46.392166 204.0
46.402905 136.0
46.4156 184.0
46.423664 124.0
46.441364 252.0
46.461464 164.0
46.493137 152.0
46.503925 192.0
46.51614 200.0
46.528358 204.0
46.548725 172.0
46.566406 240.0
46.603947 116.0
46.620724 132.0
46.631554 136.0
46.664791 152.0
46.696381 160.0
46.712955 196.0
46.734943 172.0
46.753994 80.0
46.774815 160.0
46.802319 204.0
46.823174 280.0
46.838085 180.0
46.858845 132.0
46.874203 336.0
46.893257 172.0
46.916004 416.0
46.934364 196.0
46.972183 172.0
46.988682 172.0
47.001019 304.0
47.022476 124.0
47.048412 176.0
47.059334 124.0
47.078449 144.0
47.099892 120.0
47.120014 112.0
47.14674 184.0
47.157688 168.0
47.186153 204.0
47.217846 152.0
47.228222 96.0
47.248829 172.0
47.254635 112.0
47.257927 160.0
47.273838 112.0
47.324017 204.0
47.345123 184.0
47.362926 160.0
47.388058 144.0
47.419868 172.0
47.441032 52.0
47.46434 296.0
47.478485 140.0
47.489876 220.0
47.50922 216.0
47.52195 128.0
47.548923 128.0
47.571701 204.0
47.598228 268.0
47.616665 160.0
47.633148 176.0
47.648258 200.0
47.668674 200.0
47.71059 360.0
47.743103 108.0
47.752731 112.0
47.784527 172.0
47.799503 332.0
47.81818 244.0
47.854969 188.0
47.884445 148.0
47.904438 92.0
47.931694 184.0
47.946785 160.0
47.949883 200.0
47.960636 164.0
47.974419 124.0
47.997181 96.0
48.02544 112.0
48.038826 176.0
48.057819 192.0
48.108231 64.0
48.136028 228.0
48.157089 136.0
48.175392 208.0
48.19524 148.0
48.210373 164.0
48.219666 172.0
48.224308 240.0
48.244289 188.0
48.257652 128.0
48.281734 224.0
48.298923 100.0
48.31329 208.0
48.345219 160.0
48.38974 224.0
48.399212 120.0
48.404587 184.0
48.41449 112.0
48.437363 168.0
48.454884 148.0
48.489517 348.0
48.516212 188.0
48.560703 56.0
48.575962 220.0
48.600426 168.0
48.642887 172.0
48.669022 148.0
48.681656 312.0
48.702274 112.0
48.720333 272.0
48.735615 100.0
48.745342 136.0
48.766495 232.0
48.792576 148.0
48.794918 144.0
48.801792 196.0
48.80444 132.0
48.835709 156.0
48.856033 196.0
48.870483 188.0
48.883007 196.0
48.906582 200.0
48.954002 124.0
48.968533 92.0
48.987431 124.0
49.001362 184.0
49.014748 180.0
49.062332 176.0
49.080971 168.0
49.119854 136.0
49.137993 200.0
49.157524 152.0
49.210567 152.0
49.225677 292.0
49.24324 252.0
49.28825 188.0
49.299698 168.0
49.324677 164.0
49.335587 148.0
49.376617 212.0
49.394508 244.0
49.412849 120.0
49.41481 160.0
49.432484 236.0
49.443413 188.0
49.461105 204.0
49.467289 208.0
49.4888 112.0
49.502804 160.0
49.5256 144.0
49.55072 152.0
49.565296 124.0
49.592464 128.0
49.607185 172.0
49.623306 152.0
49.635445 156.0
49.648102 292.0
49.672832 224.0
49.683613 184.0
49.697266 132.0
49.710575 148.0
49.72052 140.0
49.75378 180.0
49.783268 148.0
49.804333 100.0
49.815571 152.0
49.827 176.0
49.847885 300.0
49.867561 92.0
49.879871 300.0
49.902702 172.0
49.928013 128.0
49.950798 140.0
49.971657 160.0
50.002579 112.0
50.022549 192.0
50.047623 188.0
50.064434 128.0
50.090416 208.0
50.120869 176.0
50.15704 180.0
50.172413 140.0
50.189857 180.0
50.211597 144.0
50.218845 48.0
50.221966 168.0
50.247837 152.0
50.265808 188.0
50.279613 172.0
50.322479 136.0
50.332832 176.0
50.356457 176.0
50.4016 92.0
50.436993 176.0
50.461025 168.0
50.489079 252.0
50.501694 200.0
50.532345 348.0
50.5518 180.0
50.562492 120.0
50.589764 172.0
50.623089 156.0
50.632931 164.0
50.654476 160.0
50.657536 112.0
50.664032 144.0
50.666492 176.0
50.681656 176.0
50.690144 108.0
50.728588 104.0
50.742935 168.0
50.783165 180.0
50.794064 312.0
50.808304 152.0
50.825203 196.0
50.837605 144.0
50.854008 172.0
50.865616 184.0
50.88184 156.0
50.897419 172.0
50.910198 196.0
50.920532 188.0
50.945709 136.0
50.955654 104.0
50.978626 284.0
50.995441 120.0
51.030979 236.0
51.044945 156.0
51.067909 124.0
51.100132 116.0
51.111588 232.0
51.117664 140.0
51.121124 224.0
51.136246 96.0
51.180294 204.0
51.202332 96.0
51.208443 124.0
51.212498 108.0
51.23423 132.0
51.251076 220.0
51.296078 132.0
51.315735 156.0
51.325714 96.0
51.3414 180.0
51.351383 136.0
51.377235 64.0
51.390045 156.0
51.407021 216.0
51.423717 200.0
51.446945 288.0
51.497799 164.0
51.512672 124.0
51.552681 316.0
51.564789 120.0
51.587814 224.0
51.606998 212.0
51.667065 180.0
51.679943 60.0
51.70713 152.0
51.721443 216.0
51.758667 208.0
51.767948 116.0
51.801632 184.0
51.847481 116.0
51.869576 144.0
51.874973 176.0
51.913425 152.0
51.924896 60.0
51.934937 124.0
51.956131 124.0
51.968548 300.0
51.9995 128.0
52.029774 136.0
52.04113 112.0
52.051182 96.0
52.088524 140.0
52.112946 200.0
52.180496 196.0
52.190414 120.0
52.208038 104.0
52.230827 172.0
52.240898 356.0
52.250748 132.0
52.269672 180.0
52.279743 176.0
52.298306 172.0
52.311642 172.0
52.327244 272.0
52.344486 152.0
52.377647 180.0
52.38773 200.0
52.415104 140.0
52.431805 160.0
52.46627 160.0
52.485733 224.0
52.502571 204.0
52.531887 104.0
52.541985 116.0
52.559494 204.0
52.574551 192.0
52.588161 100.0
52.602592 140.0
52.619919 128.0
52.63147 144.0
52.654572 164.0
52.664684 200.0
52.691814 184.0
52.723919 160.0
52.749966 180.0
52.765839 44.0
52.78355 144.0
52.801987 116.0
52.812111 208.0
52.826576 196.0
52.849724 144.0
52.861301 168.0
52.887348 248.0
52.904961 96.0
52.920647 136.0
52.943813 152.0
52.958298 160.0
52.971333 132.0
52.99593 180.0
53.030556 156.0
53.046684 100.0
53.072781 176.0
53.08728 100.0
53.10997 284.0
53.1395 112.0
53.164539 208.0
53.212463 224.0
53.217167 164.0
53.241108 292.0
53.263767 140.0
53.296936 120.0
53.330688 152.0
53.340897 176.0
53.354443 380.0
53.387886 296.0
53.414703 164.0
53.432976 184.0
53.465145 112.0
53.487099 168.0
53.497959 148.0
53.515247 144.0
53.536324 188.0
53.558941 136.0
53.568363 188.0
53.584389 324.0
53.613533 172.0
53.63102 200.0
53.642258 272.0
53.661633 196.0
53.671841 60.0
53.690796 200.0
53.718224 164.0
53.74176 192.0
53.761246 192.0
53.774616 124.0
53.778439 56.0
53.790554 204.0
53.807529 184.0
53.820671 176.0
53.852436 340.0
53.861969 144.0
53.884129 152.0
53.905392 184.0
53.937542 152.0
53.953476 120.0
53.968243 112.0
53.988682 168.0
54.035007 196.0
54.046497 108.0
54.06625 160.0
54.076496 324.0
54.094154 184.0
54.11412 256.0
54.137962 172.0
54.169132 256.0
54.184887 184.0
54.211231 120.0
54.236706 188.0
54.240944 132.0
54.292934 196.0
54.2952 144.0
54.308479 156.0
54.323566 196.0
54.345814 92.0
54.372902 148.0
54.413647 104.0
54.432735 36.0
54.469452 132.0
54.487411 124.0
54.50177 180.0
54.518387 156.0
54.5336 188.0
54.564369 196.0
54.60141 312.0
54.644833 160.0
54.656738 336.0
54.674633 188.0
54.703255 192.0
54.74448 348.0
54.760006 148.0
54.773216 172.0
54.810768 128.0
54.826534 172.0
54.857155 240.0
54.877281 160.0
54.898258 136.0
54.925541 80.0
54.949291 164.0
54.97002 152.0
54.987103 160.0
55.013901 192.0
55.028049 192.0
55.064503 68.0
55.076355 156.0
55.093536 116.0
55.125786 152.0
55.14872 148.0
55.198982 136.0
55.209335 180.0
55.23597 240.0
55.256668 132.0
55.30106 148.0
55.314426 140.0
55.336727 216.0
55.354927 312.0
55.389744 228.0
55.410332 192.0
55.438545 192.0
55.445366 284.0
55.485146 176.0
55.49897 168.0
55.505322 100.0
55.508999 156.0
55.522442 132.0
55.556095 224.0
55.567223 156.0
55.575806 160.0
55.603649 148.0
55.62122 256.0
55.638103 192.0
55.652107 124.0
55.6647 128.0
55.691006 140.0
55.720531 212.0
55.739353 184.0
55.772724 192.0
55.78986 164.0
55.800968 192.0
55.81435 88.0
55.835899 220.0
55.854248 116.0
55.869381 172.0
55.8941 208.0
55.914021 44.0
55.940208 140.0
55.967045 200.0
55.998882 136.0
56.013168 176.0
56.063618 328.0
56.089657 136.0
56.097946 172.0
56.10915 92.0
56.131367 200.0
56.13662 180.0
56.142365 196.0
56.145176 176.0
56.168468 180.0
56.180733 180.0
56.199848 192.0
56.213558 100.0
56.228481 148.0
56.257019 136.0
56.289471 312.0
56.296268 148.0
56.301468 252.0
56.336113 192.0
56.348053 208.0
56.368225 208.0
56.394264 60.0
56.406639 196.0
56.436646 148.0
56.4594 120.0
56.485474 136.0
56.528114 128.0
56.551491 132.0
56.583866 132.0
56.614346 152.0
56.628727 164.0
56.669609 76.0
56.688068 120.0
56.721836 160.0
56.74551 156.0
56.748028 100.0
56.754021 88.0
56.825943 208.0
56.83271 200.0
56.853161 320.0
56.888275 184.0
56.909588 348.0
56.931995 104.0
56.953686 132.0
56.972668 296.0
56.983089 216.0
57.024326 168.0
57.027607 116.0
57.034061 140.0
57.038597 96.0
57.044563 128.0
57.05743 124.0
57.069214 116.0
57.088402 64.0
57.132549 136.0
57.147064 124.0
57.174225 160.0
57.190392 192.0
57.207264 88.0
57.234989 96.0
57.24876 128.0
57.282555 204.0
57.298107 148.0
57.312687 132.0
57.323765 136.0
57.356392 136.0
57.383526 96.0
57.40115 116.0
57.418209 84.0
57.459923 316.0
57.490139 200.0
57.516277 164.0
57.527489 188.0
57.546471 176.0
57.556808 164.0
57.602348 136.0
57.642166 236.0
57.68697 180.0
57.710499 196.0
57.735352 72.0
57.759552 136.0
57.773544 96.0
57.792835 180.0
57.809212 212.0
57.843746 156.0
57.872166 116.0
57.883789 156.0
57.898796 144.0
57.923031 212.0
57.960903 220.0
57.974327 112.0
57.991215 140.0
58.002377 176.0
58.023048 144.0
58.039661 196.0
58.06702 176.0
58.085739 232.0
58.104942 60.0
58.126183 124.0
58.139843 116.0
58.158527 128.0
58.199043 140.0
58.212708 128.0
58.230888 164.0
58.284103 76.0
58.316193 204.0
58.350449 180.0
58.37402 156.0
58.396538 280.0
58.425499 148.0
58.449841 64.0
58.460495 200.0
58.472668 168.0
58.484844 156.0
58.498543 116.0
58.513031 132.0
58.553719 252.0
58.569294 224.0
58.602104 212.0
58.638676 104.0
58.659119 204.0
58.697308 168.0
58.716263 156.0
58.745411 156.0
58.80167 280.0
58.806969 116.0
58.812698 192.0
58.825859 256.0
58.836166 136.0
58.856575 224.0
58.872746 336.0
58.91333 144.0
58.924023 188.0
58.939667 216.0
58.960697 180.0
58.985153 80.0
59.008701 148.0
59.040192 220.0
59.060078 148.0
59.070782 184.0
59.103695 172.0
59.118214 248.0
59.137104 184.0
59.165813 488.0
59.202087 180.0
59.214607 224.0
59.229855 252.0
59.235523 232.0
59.265709 92.0
59.301991 36.0
59.321198 196.0
59.357182 120.0
59.372517 152.0
59.41806 156.0
59.431915 188.0
59.462051 220.0
59.475822 168.0
59.490662 68.0
59.504478 180.0
59.533653 108.0
59.55854 156.0
59.579731 108.0
59.594479 140.0
59.61507 220.0
59.630436 124.0
59.644272 156.0
59.662716 196.0
59.676556 164.0
59.744225 116.0
59.762707 300.0
59.788174 156.0
59.793251 88.0
59.798164 144.0
59.821884 176.0
59.839642 188.0
59.858749 156.0
59.869785 292.0
59.896603 184.0
59.913567 228.0
59.925415 104.0
59.966606 180.0
60.000694 172.0
60.019913 84.0
60.073891 124.0
60.097031 216.0
60.12635 124.0
60.146416 168.0
60.161854 164.0
60.175747 156.0
60.188919 132.0
60.219025 296.0
60.234432 180.0
60.248333 212.0
60.265781 232.0
60.294777 136.0
60.333332 128.0
60.354977 168.0
60.393375 208.0
60.42429 196.0
60.445503 320.0
60.464314 176.0
60.478737 160.0
60.494217 176.0
60.534519 128.0
60.563896 124.0
60.591778 368.0
60.608822 172.0
60.623383 224.0
60.636688 220.0
60.639385 216.0
60.658417 152.0
60.688992 188.0
60.695305 136.0
60.701981 160.0
60.731247 244.0
60.775867 256.0
60.807251 188.0
60.819981 176.0
60.846123 164.0
60.856991 196.0
60.869267 232.0
60.875961 148.0
60.901352 120.0
60.928432 152.0
60.948631 76.0
60.989361 408.0
61.008236 192.0
61.072666 56.0
61.090332 56.0
61.104111 308.0
61.119171 164.0
61.149239 180.0
61.163246 160.0
61.198612 184.0
61.232841 172.0
61.257809 176.0
61.272903 48.0
61.285675 236.0
61.296524 208.0
61.302792 120.0
61.305595 100.0
61.330444 152.0
61.347057 108.0
61.39632 136.0
61.416218 124.0
61.435036 168.0
61.451546 196.0
61.464027 156.0
61.485874 56.0
61.497635 252.0
61.509048 156.0
61.538948 96.0
61.565495 148.0
61.577988 196.0
61.596729 160.0
61.621727 68.0
61.642036 168.0
61.687363 124.0
61.708099 212.0
61.729218 192.0
61.733654 224.0
61.751595 100.0
61.782753 52.0
61.886089 160.0
61.905712 208.0
61.910183 116.0
61.928242 140.0
61.950161 64.0
61.975788 148.0
62.000271 148.0
62.022732 180.0
62.052124 184.0
62.075058 168.0
62.105629 200.0
62.142609 156.0
62.157215 128.0
62.169567 160.0
62.195042 152.0
62.219994 148.0
62.253994 212.0
62.274956 120.0
62.296944 112.0
62.337761 260.0
62.364391 104.0
62.367592 96.0
62.373173 196.0
62.384945 140.0
62.408764 152.0
62.431187 88.0
62.44627 120.0
62.500217 176.0
62.511959 180.0
62.542248 300.0
62.568722 172.0
62.592594 208.0
62.626156 96.0
62.655243 132.0
62.669804 40.0
62.682411 152.0
62.724445 232.0
62.750187 188.0
62.760887 156.0
62.783524 140.0
62.805649 608.0
62.815567 192.0
62.842064 188.0
62.881111 140.0
62.898071 220.0
62.912682 136.0
62.934875 140.0
62.946701 212.0
62.967945 124.0
62.980583 224.0
63.016041 152.0
63.039036 116.0
63.072227 144.0
63.094357 104.0
63.130722 108.0
63.143375 236.0
63.156029 168.0
63.168682 136.0
63.19083 240.0
63.218052 196.0
63.270218 176.0
63.292027 252.0
63.33453 124.0
63.364677 164.0
63.370483 152.0
63.389008 208.0
63.400684 140.0
63.437885 192.0
63.466423 236.0
63.477558 172.0
63.490059 324.0
63.515583 192.0
63.531128 180.0
63.616428 356.0
63.640232 176.0
63.669537 156.0
63.699715 164.0
63.716419 132.0
63.72744 124.0
63.747414 184.0
63.775337 196.0
63.795059 136.0
63.818836 176.0
63.820877 168.0
63.827209 216.0
63.865025 112.0
63.900391 172.0
63.926479 176.0
64.01265 200.0
64.028954 184.0
64.04248 132.0
64.061066 152.0
64.078957 196.0
64.105423 252.0
64.124329 172.0
64.147522 176.0
64.165993 192.0
64.181938 116.0
64.201279 152.0
64.242722 172.0
64.276634 144.0
64.288643 112.0
64.293922 100.0
64.29718 132.0
64.335098 124.0
64.364609 188.0
64.396431 200.0
64.409851 172.0
64.422928 188.0
64.438904 244.0
64.460579 172.0
64.486847 372.0
64.515617 136.0
64.55069 144.0
64.581177 172.0
64.595573 152.0
64.611572 132.0
64.624374 240.0
64.655525 196.0
64.669289 112.0
64.681984 132.0
64.695305 200.0
64.731613 144.0
64.750832 136.0
64.78289 140.0
64.817001 208.0
64.832535 160.0
64.852615 180.0
64.895409 148.0
64.916679 168.0
64.92823 220.0
64.956635 160.0
64.975685 376.0
64.995033 192.0
65.010544 156.0
65.046432 300.0
65.077957 148.0
65.090225 200.0
65.110992 168.0
65.150284 276.0
65.179398 128.0
65.201645 108.0
65.220932 144.0
65.235397 120.0
65.278809 172.0
65.296242 176.0
65.319954 500.0
65.331413 176.0
65.33773 152.0
65.343903 120.0
65.368614 160.0
65.397858 176.0
65.431824 124.0
65.457428 132.0
65.476753 252.0
65.511452 204.0
65.552467 392.0
65.571655 132.0
65.589714 176.0
65.607269 92.0
65.62661 140.0
65.649185 220.0
65.662704 168.0
65.701286 160.0
65.723648 252.0
65.758911 164.0
65.771599 344.0
65.800858 144.0
65.817009 100.0
65.828308 132.0
65.852119 140.0
65.8703 160.0
65.896088 100.0
65.918121 160.0
65.932632 228.0
65.99118 236.0
66.023392 172.0
66.026703 172.0
66.064697 140.0
66.086929 96.0
66.111206 192.0
66.127388 196.0
66.151665 88.0
66.181778 180.0
66.200928 124.0
66.221489 164.0
66.271515 128.0
66.288147 136.0
66.310867 140.0
66.338814 136.0
66.377228 132.0
66.39959 176.0
66.417412 216.0
66.43985 188.0
66.460007 188.0
66.473114 180.0
66.495293 44.0
66.525345 248.0
66.532448 108.0
66.535637 276.0
66.571594 124.0
66.608902 140.0
66.631691 208.0
66.646317 132.0
66.667442 148.0
66.689003 104.0
66.69986 156.0
66.749077 144.0
66.773026 236.0
66.789375 188.0
66.801079 124.0
66.821907 152.0
66.867432 160.0
66.896774 120.0
66.920921 216.0
66.923256 180.0
66.966789 160.0
67.008575 184.0
67.021225 192.0
67.045189 164.0
67.058029 228.0
67.077583 60.0
67.101089 172.0
67.129761 184.0
67.150414 180.0
67.175278 176.0
67.20549 212.0
67.224167 256.0
67.243874 204.0
67.273338 200.0
67.29129 72.0
67.31089 92.0
67.325584 152.0
67.338646 148.0
67.367363 200.0
67.372108 116.0
67.392555 220.0
67.423058 192.0
67.441307 192.0
67.460381 128.0
67.505516 264.0
67.522217 188.0
67.553581 140.0
67.574646 152.0
67.584839 140.0
67.60186 96.0
67.61409 176.0
67.650726 184.0
67.662827 192.0
67.691887 120.0
67.703354 184.0
67.718094 112.0
67.731689 156.0
67.747574 104.0
67.770515 140.0
67.799301 176.0
67.821312 128.0
67.842621 172.0
67.865578 140.0
67.87883 216.0
67.9244 180.0
67.937889 88.0
67.955788 72.0
67.973831 208.0
67.988091 140.0
68.012756 140.0
68.017059 212.0
68.034782 300.0
68.050285 152.0
68.077248 148.0
68.092033 128.0
68.110451 148.0
68.13752 296.0
68.149529 184.0
68.168007 160.0
68.189438 140.0
68.205399 60.0
68.235741 184.0
68.258743 184.0
68.278618 240.0
68.317894 156.0
68.358353 84.0
68.372871 320.0
68.384972 180.0
68.425278 236.0
68.460075 156.0
68.490059 284.0
68.52446 228.0
68.567497 144.0
68.590569 184.0
68.621025 228.0
68.636986 156.0
68.644356 148.0
68.647774 144.0
68.700264 300.0
68.711983 212.0
68.759796 120.0
68.785378 160.0
68.811272 244.0
68.838043 180.0
68.854561 136.0
68.874374 172.0
68.913094 156.0
68.933853 128.0
68.947075 108.0
68.980003 104.0
69.008881 164.0
69.033035 152.0
69.059502 144.0
69.074387 128.0
69.09053 184.0
69.131111 200.0
69.146065 312.0
69.166862 144.0
69.191689 244.0
69.220856 196.0
69.286278 60.0
69.313034 216.0
69.344276 76.0
69.360847 60.0
69.392349 128.0
69.414551 164.0
69.426788 176.0
69.432808 140.0
69.438965 204.0
69.451897 132.0
69.483566 228.0
69.513878 208.0
69.535004 136.0
69.554916 168.0
69.589615 156.0
69.592789 232.0
69.626312 164.0
69.643501 160.0
69.664513 148.0
69.688759 176.0
69.69429 184.0
69.704994 260.0
69.780846 312.0
69.799057 168.0
69.817192 168.0
69.828735 220.0
69.855629 124.0
69.892471 172.0
69.907639 160.0
69.943756 164.0
69.969864 164.0
70.005119 356.0
70.027473 172.0
70.040451 84.0
70.067902 184.0
70.096977 168.0
70.115799 252.0
70.134689 244.0
70.180435 128.0
70.207115 116.0
70.249153 160.0
70.279747 156.0
70.293633 88.0
70.332001 160.0
70.348465 204.0
70.382332 80.0
70.404037 180.0
70.425751 112.0
70.457397 148.0
70.464127 140.0
70.474197 156.0
70.51709 180.0
70.523163 120.0
70.586189 132.0
70.633011 104.0
70.653091 128.0
70.680916 380.0
70.690521 140.0
70.697029 168.0
70.736763 200.0
70.755173 156.0
70.797585 196.0
70.81134 140.0
70.829987 136.0
70.854385 136.0
70.867386 216.0
70.878647 176.0
70.903 244.0
70.932747 120.0
70.947632 156.0
71.004845 164.0
71.021614 188.0
71.056839 152.0
71.093506 240.0
71.138283 136.0
71.174263 104.0
71.206512 148.0
71.235046 132.0
71.259132 196.0
71.274605 132.0
71.295815 292.0
71.31852 232.0
71.344025 132.0
71.397827 168.0
71.416328 140.0
71.431412 128.0
71.443359 172.0
71.466797 104.0
71.498764 188.0
71.542526 180.0
71.574516 180.0
71.590096 48.0
71.606346 204.0
71.640205 156.0
71.656471 140.0
71.659637 224.0
71.678726 148.0
71.697487 396.0
71.717712 212.0
71.732887 136.0
71.761581 164.0
71.803444 212.0
71.809174 180.0
71.841171 204.0
71.862419 104.0
71.889999 364.0
71.903458 220.0
71.923492 68.0
71.940376 56.0
71.965981 144.0
71.984398 116.0
72.014671 172.0
72.029869 184.0
72.054565 368.0
72.068726 128.0
72.089554 172.0
72.121117 228.0
72.169884 212.0
72.19381 164.0
72.220901 208.0
72.242683 136.0
72.253807 228.0
72.28347 152.0
72.298698 164.0
72.320923 120.0
72.356247 176.0
72.381645 84.0
72.393501 332.0
72.423538 168.0
72.437408 328.0
72.459557 172.0
72.479889 124.0
72.497681 136.0
72.515472 168.0
72.544289 376.0
72.559525 216.0
72.595154 212.0
72.613304 120.0
72.630768 176.0
72.648476 156.0
72.673874 108.0
72.680397 144.0
72.691849 200.0
72.720695 144.0
72.732582 144.0
72.764526 156.0
72.776718 128.0
72.787811 92.0
72.813599 184.0
72.849747 120.0
72.861641 172.0
72.888504 144.0
72.921112 180.0
72.947739 132.0
72.987411 80.0
73.001015 176.0
73.016235 168.0
73.043251 144.0
73.060539 168.0
73.077553 136.0
73.096985 180.0
73.11731 132.0
73.133713 108.0
73.171165 200.0
73.186485 140.0
73.21714 388.0
73.237572 268.0
73.266205 164.0
73.278458 200.0
73.313309 164.0
73.33091 72.0
73.392654 96.0
73.421745 132.0
73.438698 40.0
73.450638 120.0
73.464287 104.0
73.480888 260.0
73.500114 152.0
73.513763 164.0
73.525711 152.0
73.537659 148.0
73.549606 200.0
73.568382 396.0
73.586327 152.0
73.642845 288.0
73.6828 112.0
73.734062 168.0
73.75502 184.0
73.772957 312.0
73.80835 212.0
73.815826 116.0
73.827682 320.0
73.862297 164.0
73.914391 80.0
73.937576 112.0
73.96154 136.0
73.978592 164.0
73.991745 124.0
74.000313 204.0
74.013618 128.0
74.04715 120.0
74.066338 196.0
74.105629 200.0
74.137764 152.0
74.184227 80.0
74.197937 212.0
74.216797 112.0
74.252808 128.0
74.267456 156.0
74.288979 196.0
74.302048 136.0
74.32486 204.0
74.342018 372.0
74.411484 128.0
74.439255 124.0
74.475929 108.0
74.500259 196.0
74.513725 108.0
74.541702 172.0
74.562431 116.0
74.577286 168.0
74.603302 128.0
74.649147 152.0
74.662292 176.0
74.711426 124.0
74.740677 168.0
74.759407 316.0
74.795929 188.0
74.817032 292.0
74.832626 180.0
74.843948 196.0
74.88308 188.0
74.904678 168.0
74.921455 48.0
74.936958 132.0
74.966347 152.0
74.984024 156.0
75.030838 204.0
75.061058 180.0
75.093826 120.0
75.138672 128.0
75.155579 156.0
75.160103 124.0
75.167641 208.0
75.212181 168.0
75.223236 196.0
75.237045 168.0
75.267494 188.0
75.29863 120.0
75.323387 132.0
75.344116 72.0
75.391563 288.0
75.423767 176.0
75.444183 208.0
75.463455 156.0
75.478607 168.0
75.492767 152.0
75.523926 212.0
75.555031 160.0
75.583244 188.0
75.596107 288.0
75.623184 364.0
75.654106 188.0
75.665993 332.0
75.707123 156.0
75.74749 248.0
75.76104 132.0
75.789444 136.0
75.826668 180.0
75.872475 200.0
75.888916 168.0
75.9049 132.0
75.951088 352.0
75.991623 172.0
76.003769 164.0
76.027382 156.0
76.038918 124.0
76.062149 172.0
76.072014 156.0
76.088814 88.0
76.120979 76.0
76.14959 132.0
76.172165 132.0
76.20623 184.0
76.232979 164.0
76.261414 284.0
76.280518 412.0
76.311195 88.0
76.323364 176.0
76.34597 160.0
76.398155 136.0
76.424248 172.0
76.44165 160.0
76.457314 172.0
76.479935 188.0
76.493134 144.0
76.514748 144.0
76.528297 236.0
76.549019 192.0
76.562683 152.0
76.613396 224.0
76.633179 196.0
76.661064 84.0
76.67762 136.0
76.704399 208.0
76.729042 112.0
76.762169 140.0
76.804817 368.0
76.827904 208.0
76.852867 144.0
76.896492 204.0
76.908714 128.0
76.936859 96.0
76.962158 156.0
76.979698 200.0
77.004745 140.0
77.025116 268.0
77.04879 180.0
77.084167 216.0
77.139503 64.0
77.14399 156.0
77.186684 140.0
77.198578 188.0
77.218468 56.0
77.238846 132.0
77.2547 160.0
77.320671 136.0
77.325493 96.0
77.330757 180.0
77.387779 284.0
77.404137 208.0
77.433372 148.0
77.513817 180.0
77.534348 196.0
77.55896 100.0
77.574974 152.0
77.608467 44.0
77.630829 80.0
77.65715 192.0
77.675537 176.0
77.690903 128.0
77.703178 148.0
77.730087 132.0
77.761086 148.0
77.789169 144.0
77.81559 504.0
77.850761 100.0
77.862915 180.0
77.877769 184.0
77.899803 164.0
77.929665 168.0
77.969849 180.0
78.006065 124.0
78.03067 196.0
78.03833 92.0
78.042656 140.0
78.101944 96.0
78.119125 188.0
78.133606 68.0
78.149445 216.0
78.161758 128.0
78.175835 312.0
78.202187 148.0
78.226875 80.0
78.264854 308.0
78.293007 156.0
78.311394 100.0
78.335457 180.0
78.345284 140.0
78.388908 156.0
78.422096 232.0
78.445312 124.0
78.474693 192.0
78.492912 188.0
78.531586 140.0
78.551117 132.0
78.563461 188.0
78.580643 248.0
78.611099 212.0
78.628578 164.0
78.665298 356.0
78.679939 252.0
78.723724 220.0
78.74527 60.0
78.769997 184.0
78.786545 120.0
78.800362 172.0
78.813438 88.0
78.828918 144.0
78.861877 192.0
78.87841 484.0
78.899002 120.0
78.944969 116.0
78.963165 264.0
78.996262 220.0
79.009644 52.0
79.059532 264.0
79.115753 92.0
79.132912 148.0
79.14772 180.0
79.164406 192.0
79.179642 384.0
79.213997 216.0
79.231827 236.0
79.267105 220.0
79.279892 188.0
79.291656 168.0
79.300568 188.0
79.313828 176.0
79.339447 156.0
79.366409 140.0
79.380592 192.0
79.403648 168.0
79.42263 188.0
79.445152 160.0
79.472832 156.0
79.531723 128.0
79.563347 200.0
79.580917 200.0
79.608086 140.0
79.623169 208.0
79.67794 312.0
79.711891 164.0
79.734955 104.0
79.758827 176.0
79.776169 180.0
79.788971 392.0
79.805809 288.0
79.826309 328.0
79.84491 148.0
79.881546 196.0
79.919296 172.0
79.933144 144.0
79.972816 216.0
79.988098 264.0
79.992073 116.0
80.022034 252.0
80.059792 288.0
80.071358 200.0
80.095337 240.0
80.118202 252.0
80.130676 144.0
80.153839 84.0
80.190155 220.0
80.211288 116.0
80.229813 224.0
80.255081 244.0
80.271484 148.0
80.332123 208.0
80.358345 184.0
80.381386 72.0
80.407059 180.0
80.437401 116.0
80.46418 160.0
80.498718 176.0
80.517754 88.0
80.553726 180.0
80.561531 120.0
80.58297 164.0
80.607651 148.0
80.649963 172.0
80.671844 212.0
80.685715 140.0
80.714966 420.0
80.766182 128.0
80.797287 176.0
80.809349 188.0
80.851166 48.0
80.866379 80.0
80.878906 148.0
80.892181 204.0
80.905762 152.0
80.920082 56.0
80.934402 160.0
80.953232 156.0
80.979172 160.0
81.002457 192.0
81.06517 180.0
81.081299 120.0
81.115883 176.0
81.153 156.0
81.165779 192.0
81.181686 148.0
81.201416 232.0
81.286758 168.0
81.300682 144.0
81.323997 148.0
81.34874 168.0
81.365326 376.0
81.377968 248.0
81.409821 188.0
81.423004 60.0
81.432274 108.0
81.454491 128.0
81.474121 168.0
81.494019 136.0
81.531975 160.0
81.555336 156.0
81.571762 168.0
81.606346 88.0
81.656441 124.0
81.691353 240.0
81.706535 176.0
81.725952 196.0
81.759575 164.0
81.772743 172.0
81.813194 376.0
81.825302 160.0
81.861404 160.0
81.878967 316.0
81.900185 164.0
81.916786 208.0
81.947975 280.0
81.983452 232.0
82.009247 180.0
82.053337 176.0
82.056404 136.0
82.063545 240.0
82.088326 180.0
82.107841 184.0
82.143921 152.0
82.213524 200.0
82.239548 44.0
82.257378 196.0
82.292015 192.0
82.31176 140.0
82.337044 176.0
82.365944 432.0
82.380394 120.0
82.404221 168.0
82.427971 144.0
82.44664 192.0
82.478813 232.0
82.501472 188.0
82.515022 188.0
82.584648 180.0
82.603287 212.0
82.619019 144.0
82.631554 212.0
82.643578 264.0
82.669281 164.0
82.691399 148.0
82.704063 148.0
82.72036 164.0
82.740273 176.0
82.754898 148.0
82.776062 104.0
82.809082 104.0
82.835304 192.0
82.845772 124.0
82.883354 144.0
82.919594 148.0
82.932281 168.0
82.962021 148.0
82.980934 124.0
82.993919 244.0
83.0205 176.0
83.048325 332.0
83.062836 136.0
83.095444 156.0
83.128151 168.0
83.156792 184.0
83.160515 144.0
83.184914 72.0
83.192406 148.0
83.197174 132.0
83.215271 200.0
83.240616 192.0
83.269753 100.0
83.309654 136.0
83.3349 208.0
83.356911 196.0
83.372063 152.0
83.389664 132.0
83.419426 96.0
83.496651 164.0
83.524055 340.0
83.551498 184.0
83.584793 132.0
83.591476 152.0
83.618523 172.0
83.633179 180.0
83.647942 156.0
83.663277 220.0
83.684326 276.0
83.718605 240.0
83.742622 184.0
83.764481 92.0
83.790398 212.0
83.82019 256.0
83.845787 384.0
83.897507 120.0
83.917046 84.0
83.959106 184.0
83.995979 152.0
84.010948 136.0
84.018181 164.0
84.045242 168.0
84.065086 160.0
84.103638 108.0
84.13636 328.0
84.152924 172.0
84.180557 152.0
84.225769 144.0
84.237717 224.0
84.266159 116.0
84.282608 104.0
84.303535 168.0
84.339752 236.0
84.347092 240.0
84.350609 304.0
84.365868 180.0
84.399475 268.0
84.403015 252.0
84.410965 236.0
84.416702 144.0
84.444778 208.0
84.471535 164.0
84.501419 160.0
84.540436 140.0
84.562401 188.0
84.595345 104.0
84.608162 92.0
84.648438 148.0
84.666756 164.0
84.694229 32.0
84.717339 168.0
84.733292 208.0
84.820656 164.0
84.848633 148.0
84.869492 144.0
84.884827 200.0
84.908661 156.0
84.968994 220.0
84.991211 204.0
85.019722 360.0
85.035255 60.0
85.057541 196.0
85.103134 324.0
85.150917 112.0
85.169479 152.0
85.19278 148.0
85.207863 152.0
85.23542 164.0
85.25235 172.0
85.275856 160.0
85.300804 180.0
85.329163 164.0
85.351768 244.0
85.384323 152.0
85.418022 224.0
85.435318 260.0
85.440369 136.0
85.464546 164.0
85.49839 144.0
85.512741 180.0
85.54808 212.0
85.583183 124.0
85.608841 104.0
85.627312 148.0
85.651199 192.0
85.675552 200.0
85.715683 120.0
85.745926 156.0
85.764694 412.0
85.791252 116.0
85.818764 160.0
85.845749 200.0
85.866844 196.0
85.879761 212.0
85.918015 200.0
85.934868 160.0
85.940163 140.0
85.970161 88.0
85.990456 84.0
86.010818 132.0
86.040199 144.0
86.058762 72.0
86.082237 408.0
86.118103 120.0
86.156647 148.0
86.188858 180.0
86.24028 168.0
86.283905 152.0
86.29895 76.0
86.33062 128.0
86.348877 180.0
86.363678 304.0
86.398827 84.0
86.41362 96.0
86.435059 96.0
86.453384 180.0
86.504837 208.0
86.519669 160.0
86.54306 120.0
86.549332 112.0
86.556664 156.0
86.604942 148.0
86.64032 304.0
86.716118 124.0
86.741409 116.0
86.756241 172.0
86.795174 172.0
86.843246 208.0
86.895012 212.0
86.932289 332.0
86.961739 160.0
86.986847 140.0
87.004829 184.0
87.023918 264.0
87.054199 192.0
87.088387 92.0
87.119049 180.0
87.138542 332.0
87.152016 144.0
87.173851 188.0
87.192429 152.0
87.218811 328.0
87.234612 104.0
87.237518 140.0
87.258995 232.0
87.281937 184.0
87.298393 132.0
87.339867 304.0
87.37014 188.0
87.395119 96.0
87.411865 100.0
87.43792 180.0
87.46212 120.0
87.495621 140.0
87.532593 172.0
87.56517 184.0
87.587761 260.0
87.637169 88.0
87.659531 244.0
87.68251 396.0
87.696747 136.0
87.720345 304.0
87.755043 132.0
87.799347 52.0
87.81884 176.0
87.839607 232.0
87.864632 160.0
87.881187 196.0
87.901947 160.0
87.923172 96.0
87.936546 148.0
87.976974 268.0
87.995674 132.0
88.00396 128.0
88.007233 216.0
88.03627 196.0
88.0681 92.0
88.104172 244.0
88.127876 116.0
88.14843 88.0
88.161514 148.0
88.187675 112.0
88.210106 248.0
88.239944 208.0
88.265144 488.0
88.324257 84.0
88.341003 112.0
88.372368 152.0
88.379326 116.0
88.384895 208.0
88.391129 212.0
88.397453 164.0
88.423332 96.0
88.472 92.0
88.486687 176.0
88.508064 152.0
88.53566 100.0
88.557388 140.0
88.578697 144.0
88.607903 268.0
88.648056 144.0
88.691658 344.0
88.704811 112.0
88.728439 176.0
88.756783 104.0
88.812721 156.0
88.838226 196.0
88.862595 220.0
88.895592 336.0
88.926926 160.0
88.940628 168.0
88.961281 176.0
88.978172 148.0
89.002335 272.0
89.055168 144.0
89.127693 204.0
89.157379 256.0
89.188789 220.0
89.217499 184.0
89.235565 224.0
89.254364 172.0
89.267532 220.0
89.322067 204.0
89.338737 176.0
89.360764 148.0
89.38089 152.0
89.40329 164.0
89.453247 264.0
89.487679 148.0
89.523582 172.0
89.576187 92.0
89.604034 348.0
89.630157 116.0
89.660469 300.0
89.717995 384.0
89.76033 232.0
89.792992 164.0
89.846252 184.0
89.878479 152.0
89.906136 68.0
89.923126 116.0
89.952507 232.0
89.960304 132.0
89.96524 192.0
89.981224 180.0
90.024399 328.0
90.028992 356.0
90.053398 164.0
90.080826 176.0
90.111954 216.0
90.153282 280.0
90.189949 88.0
90.196274 168.0
90.219681 140.0
90.248039 188.0
90.266235 328.0
90.289925 196.0
90.308403 100.0
90.331909 196.0
90.373138 244.0
90.389252 220.0
90.416397 252.0
90.430252 136.0
90.447311 132.0
90.475075 144.0
90.514114 412.0
90.531876 140.0
90.582039 164.0
90.621872 156.0
90.651222 68.0
90.687225 164.0
90.706184 144.0
90.725136 164.0
90.751678 208.0
90.770638 168.0
90.814262 244.0
90.830421 176.0
90.861679 236.0
90.874962 148.0
90.902428 156.0
90.939484 180.0
90.960854 124.0
90.981987 164.0
91.00592 176.0
91.019218 120.0
91.0382 176.0
91.068588 248.0
91.092911 148.0
91.116081 144.0
91.140778 108.0
91.171181 152.0
91.184486 224.0
91.224403 120.0
91.239609 52.0
91.2715 192.0
91.318794 112.0
91.325294 204.0
91.36132 192.0
91.370483 108.0
91.375343 172.0
91.402901 192.0
91.421257 208.0
91.439339 148.0
91.473595 176.0
91.498772 160.0
91.53936 96.0
91.564987 212.0
91.582924 172.0
91.598061 188.0
91.620224 120.0
91.671669 120.0
91.690216 148.0
91.722679 136.0
91.764435 228.0
91.784042 168.0
91.797958 144.0
91.823486 176.0
91.826569 112.0
91.834579 204.0
91.86042 140.0
91.896667 196.0
91.915749 348.0
91.957733 136.0
91.976822 164.0
92.018005 228.0
92.057755 332.0
92.083618 288.0
92.095665 304.0
92.121826 128.0
92.152901 156.0
92.183083 136.0
92.20166 216.0
92.224777 196.0
92.260559 180.0
92.283035 164.0
92.297775 168.0
92.335381 144.0
92.354263 216.0
92.372879 148.0
92.403748 168.0
92.437408 96.0
92.452721 80.0
92.47377 208.0
92.498657 124.0
92.545662 188.0
92.596306 136.0
92.617371 264.0
92.636673 52.0
92.672928 140.0
92.701851 180.0
92.728394 176.0
92.764175 124.0
92.799423 188.0
92.818596 200.0
92.843452 216.0
92.895317 136.0
92.912659 96.0
92.930519 196.0
92.949036 140.0
92.979271 132.0
93.037804 192.0
93.056519 120.0
93.071877 132.0
93.108253 136.0
93.125648 168.0
93.161407 136.0
93.185196 136.0
93.204414 132.0
93.236511 108.0
93.263985 132.0
93.277443 96.0
93.298164 180.0
93.314713 136.0
93.343285 340.0
93.367729 184.0
93.386612 216.0
93.40435 108.0
93.434525 228.0
93.439919 156.0
93.461357 228.0
93.507507 268.0
93.525261 248.0
93.593948 132.0
93.617989 136.0
93.63282 176.0
93.660355 164.0
93.675034 272.0
93.705933 200.0
93.738586 152.0
93.766479 152.0
93.832306 156.0
93.880066 188.0
93.898331 196.0
93.916283 108.0
93.934074 148.0
93.957146 208.0
93.969757 192.0
94.038261 104.0
94.059898 164.0
94.077423 168.0
94.099792 96.0
94.122337 160.0
94.153366 168.0
94.185089 92.0
94.216965 252.0
94.242958 236.0
94.263618 184.0
94.311287 248.0
94.34127 184.0
94.36496 232.0
94.382744 308.0
94.426605 156.0
94.449814 124.0
94.468201 180.0
94.493301 192.0
94.540771 320.0
94.563164 192.0
94.587196 144.0
94.612358 264.0
94.639763 128.0
94.655975 244.0
94.678986 108.0
94.715149 408.0
94.740173 132.0
94.757614 360.0
94.786087 132.0
94.813805 184.0
94.836235 292.0
94.855766 320.0
94.908127 140.0
94.943718 208.0
94.970428 148.0
94.990242 168.0
95.003304 164.0
95.019341 92.0
95.04055 212.0
95.077408 156.0
95.10022 112.0
95.131142 180.0
95.157509 200.0
95.185875 172.0
95.213448 244.0
95.250847 188.0
95.276093 212.0
95.28965 280.0
95.303993 164.0
95.318352 156.0
95.332886 308.0
95.366936 92.0
95.390259 164.0
95.405815 152.0
95.423309 120.0
95.43692 80.0
95.486679 340.0
95.547363 216.0
95.575706 136.0
95.641182 108.0
95.66156 180.0
95.67524 160.0
95.691795 120.0
95.720406 144.0
95.724663 100.0
95.731209 132.0
95.759949 144.0
95.775681 52.0
95.812546 144.0
95.844505 272.0
95.891678 312.0
95.908028 156.0
95.928276 220.0
95.95015 244.0
95.988144 168.0
96.003204 176.0
96.015625 172.0
96.033768 180.0
96.060234 280.0
96.068779 128.0
96.072578 208.0
96.095238 68.0
96.108894 72.0
96.130356 84.0
96.149872 160.0
96.171341 164.0
96.184578 128.0
96.218193 180.0
96.265053 196.0
96.280678 136.0
96.303749 108.0
96.332741 164.0
96.371429 428.0
96.410149 116.0
96.416237 92.0
96.424446 328.0
96.459229 480.0
96.521606 344.0
96.544502 44.0
96.597305 172.0
96.652084 160.0
96.671509 160.0
96.72332 252.0
96.755821 100.0
96.785187 172.0
96.801376 224.0
96.820137 104.0
96.838058 184.0
96.851547 172.0
96.906624 52.0
96.942169 164.0
97.020493 160.0
97.053627 116.0
97.069313 80.0
97.094185 216.0
97.125801 204.0
97.132797 324.0
97.200737 312.0
97.236649 344.0
97.256775 144.0
97.264389 276.0
97.276283 324.0
97.302299 164.0
97.328285 224.0
97.404915 132.0
97.418663 312.0
97.463852 104.0
97.478195 224.0
97.500641 188.0
97.540863 192.0
97.593765 212.0
97.627007 36.0
97.645905 184.0
97.677849 188.0
97.698868 232.0
97.738686 124.0
97.76899 160.0
97.807259 220.0
97.812431 292.0
97.833603 184.0
97.851318 44.0
97.867065 376.0
97.881836 160.0
97.907631 160.0
97.947815 184.0
97.968803 128.0
98.001923 268.0
98.016426 208.0
98.059387 216.0
98.07457 120.0
98.096405 136.0
98.119255 200.0
98.136604 232.0
98.151016 184.0
98.176903 160.0
98.190918 128.0
98.196991 104.0
98.205132 232.0
98.231064 184.0
98.238258 128.0
98.264893 208.0
98.272141 236.0
98.2827 152.0
98.28907 188.0
98.31929 204.0
98.333679 336.0
98.352066 208.0
98.375763 152.0
98.400841 180.0
98.417175 112.0
98.474037 216.0
98.500122 160.0
98.531677 300.0
98.573219 180.0
98.607651 132.0
98.63826 132.0
98.66465 136.0
98.705803 160.0
98.736938 152.0
98.776505 136.0
98.836205 204.0
98.8582 176.0
98.909431 232.0
98.930862 116.0
98.962883 144.0
98.980705 136.0
99.010551 164.0
99.053978 68.0
99.085678 168.0
99.124275 316.0
99.154816 148.0
99.195023 184.0
99.210526 196.0
99.244019 224.0
99.247589 196.0
99.26487 304.0
99.285728 108.0
99.303726 100.0
99.329506 164.0
99.35331 156.0
99.379105 116.0
99.408913 176.0
99.447914 184.0
99.491882 136.0
99.525978 136.0
99.548119 160.0
99.567116 140.0
99.588036 244.0
99.601448 112.0
99.637009 200.0
99.643517 224.0
99.647514 276.0
99.662476 172.0
99.734276 176.0
99.776321 156.0
99.812111 236.0
99.842026 172.0
99.861824 176.0
99.882652 204.0
99.901604 156.0
99.917519 176.0
99.946289 148.0
99.962845 108.0
99.970673 84.0
99.974579 168.0
99.988777 172.0
100.013039 176.0
100.034935 224.0
100.07283 116.0
100.11657 196.0
100.140465 156.0
100.17942 172.0
100.217056 152.0
100.235191 140.0
100.254021 104.0
100.269966 208.0
100.315323 184.0
100.34256 160.0
100.369247 244.0
100.410713 208.0
100.447395 216.0
100.466621 248.0
100.48732 140.0
100.523491 304.0
100.570587 256.0
100.611053 100.0
100.625031 284.0
100.640999 44.0
100.684387 172.0
100.698563 240.0
100.72702 108.0
100.759895 152.0
100.780815 136.0
100.804543 192.0
100.829773 216.0
100.85276 56.0
100.875679 180.0
100.911537 124.0
100.930305 212.0
100.986717 164.0
101.030724 64.0
101.044731 176.0
101.062187 200.0
101.100754 88.0
101.120766 320.0
101.147987 180.0
101.167633 192.0
101.190529 188.0
101.210854 160.0
101.232277 308.0
101.246147 140.0
101.264618 184.0
101.269417 244.0
101.290955 252.0
101.309708 268.0
101.381119 128.0
101.402412 236.0
101.425209 124.0
101.441246 100.0
101.471352 240.0
101.490654 156.0
101.508255 180.0
101.530251 200.0
101.58786 208.0
101.611702 176.0
101.635429 136.0
101.650101 324.0
101.665878 100.0
101.679932 88.0
101.734329 264.0
101.756973 308.0
101.782623 232.0
101.819275 196.0
101.844566 132.0
101.860634 84.0
101.887657 164.0
101.917351 132.0
101.940941 144.0
101.979179 164.0
102.01088 364.0
102.038704 184.0
102.064934 128.0
102.113892 144.0
102.127968 192.0
102.159248 196.0
102.187042 228.0
102.216484 116.0
102.255966 200.0
102.270699 128.0
102.294975 168.0
102.311531 180.0
102.336472 124.0
102.35466 160.0
102.403053 196.0
102.428818 248.0
102.446007 140.0
102.460999 468.0
102.529655 244.0
102.560555 180.0
102.609192 176.0
102.639961 120.0
102.653603 164.0
102.675789 220.0
102.695953 164.0
102.727242 196.0
102.752434 172.0
102.768578 144.0
102.796829 296.0
102.846771 140.0
102.905258 232.0
102.938446 184.0
102.955887 176.0
103.032448 176.0
103.05687 732.0
103.073463 120.0
103.10984 280.0
103.128029 140.0
103.18261 48.0
103.206871 164.0
103.256706 124.0
103.277649 108.0
103.328224 160.0
103.360596 160.0
103.376785 116.0
103.40097 164.0
103.443573 288.0
103.457748 212.0
103.480873 212.0
103.518356 268.0
103.558296 152.0
103.566383 172.0
103.573418 224.0
103.592415 232.0
103.61351 156.0
103.634018 212.0
103.654205 144.0
103.708923 80.0
103.734283 184.0
103.761543 196.0
103.777306 180.0
103.810287 120.0
103.847565 164.0
103.867912 184.0
103.903374 184.0
103.936966 116.0
103.966652 100.0
104.015205 140.0
104.048874 1032.0
104.086472 132.0
104.102509 188.0
104.127617 208.0
104.177971 184.0
104.204063 140.0
104.244705 180.0
104.265808 52.0
104.315842 144.0
104.340851 172.0
104.377983 148.0
104.435806 76.0
104.479881 252.0
104.507004 112.0
104.523285 164.0
104.54567 96.0
104.589027 144.0
104.608765 124.0
104.637321 140.0
104.686134 124.0
104.700386 200.0
104.740105 56.0
104.754623 108.0
104.76683 180.0
104.798164 160.0
104.812424 108.0
104.835091 172.0
104.851639 180.0
104.878685 196.0
104.904831 184.0
104.946953 152.0
104.997932 180.0
105.02224 148.0
105.057808 324.0
105.063835 324.0
105.0867 164.0
105.120331 244.0
105.135635 180.0
105.15094 100.0
105.195595 132.0
105.230553 28.0
105.248924 136.0
105.27594 88.0
105.298752 200.0
105.322395 152.0
105.339569 188.0
105.404167 172.0
105.428223 528.0
105.454811 184.0
105.49205 144.0
105.516457 132.0
105.557663 136.0
105.578987 200.0
105.606842 168.0
105.632904 136.0
105.679626 172.0
105.705521 128.0
105.744598 188.0
105.764099 204.0
105.794807 152.0
105.818703 196.0
105.841896 164.0
105.862846 208.0
105.886047 100.0
105.920792 176.0
105.935646 340.0
105.954544 116.0
106.003716 436.0
106.043068 160.0
106.063736 848.0
106.081154 148.0
106.096634 180.0
106.128555 168.0
106.145157 268.0
106.201515 168.0
106.220314 136.0
106.236763 252.0
106.284637 228.0
106.361252 228.0
106.389908 124.0
106.416176 136.0
106.440636 120.0
106.462166 144.0
106.480858 184.0
106.509453 132.0
106.524727 144.0
106.597031 176.0
106.623466 176.0
106.642067 152.0
106.678192 188.0
106.699753 204.0
106.713913 268.0
106.763435 188.0
106.794113 32.0
106.823624 208.0
106.87484 148.0
106.895111 168.0
106.946983 156.0
106.96582 124.0
106.984932 212.0
106.998474 192.0
107.014008 140.0
107.051361 168.0
107.068611 192.0
107.117363 128.0
107.162956 224.0
107.199684 204.0
107.214104 60.0
107.250954 132.0
107.27388 160.0
107.292862 212.0
107.343269 244.0
107.374908 112.0
107.420288 124.0
107.447769 136.0
107.471863 40.0
107.502815 160.0
107.550285 148.0
107.601326 160.0
107.652855 228.0
107.672623 172.0
107.703644 200.0
107.7258 72.0
107.74646 212.0
107.761215 360.0
107.784409 196.0
107.811714 172.0
107.844826 232.0
107.85833 204.0
107.894653 124.0
107.90905 184.0
107.930405 152.0
107.959602 196.0
107.996872 168.0
108.039154 96.0
108.066299 216.0
108.163963 264.0
108.203957 168.0
108.238708 176.0
108.282196 176.0
108.30912 52.0
108.335495 164.0
108.344131 120.0
108.346848 152.0
108.365852 228.0
108.400284 120.0
108.432343 256.0
108.456238 360.0
108.483772 392.0
108.509521 176.0
108.550484 200.0
108.568863 296.0
108.591003 48.0
108.614281 180.0
108.644936 184.0
108.666878 180.0
108.686432 52.0
108.700958 160.0
108.716293 212.0
108.746613 132.0
108.769371 220.0
108.790306 164.0
108.819267 136.0
108.84626 88.0
108.867027 144.0
108.904701 204.0
108.924644 172.0
108.952187 180.0
108.991661 184.0
109.02491 220.0
109.076553 204.0
109.144936 296.0
109.148727 212.0
109.183449 184.0
109.244781 192.0
109.261353 240.0
109.299393 176.0
109.332687 108.0
109.359749 148.0
109.415565 152.0
109.446548 212.0
109.464684 180.0
109.497696 184.0
109.515976 216.0
109.550362 96.0
109.577377 200.0
109.600594 392.0
109.619072 100.0
109.636574 152.0
109.651726 192.0
109.699417 224.0
109.728065 228.0
109.76181 188.0
109.782669 444.0
109.826462 144.0
109.843147 212.0
109.8825 196.0
109.907822 136.0
109.953979 136.0
109.979736 384.0
110.029198 184.0
110.082893 276.0
110.107468 144.0
110.134285 48.0
110.149223 216.0
110.171013 200.0
110.218941 152.0
110.239838 132.0
110.256554 160.0
110.27829 160.0
110.310898 116.0
110.338074 212.0
110.354721 112.0
110.374054 320.0
110.426979 240.0
110.432716 324.0
110.448906 116.0
110.477936 224.0
110.499107 144.0
110.524216 164.0
110.554283 368.0
110.584908 88.0
110.605309 180.0
110.619942 168.0
110.643517 112.0
110.686501 128.0
110.719826 204.0
110.751083 184.0
110.765289 148.0
110.802483 256.0
110.824059 156.0
110.84668 176.0
110.882309 180.0
110.901169 40.0
110.924339 148.0
110.970688 124.0
110.977913 224.0
110.99823 148.0
111.022652 140.0
111.025978 252.0
111.036011 152.0
111.041199 188.0
111.087791 320.0
111.120636 128.0
111.14286 156.0
111.157593 148.0
111.177612 168.0
111.201996 140.0
111.23484 156.0
111.281349 164.0
111.306061 80.0
111.329155 136.0
111.356461 152.0
111.385864 188.0
111.406342 116.0
111.487701 212.0
111.522812 116.0
111.551865 124.0
111.606529 168.0
111.624359 108.0
111.644379 124.0
111.672508 160.0
111.690651 204.0
111.711685 184.0
111.837936 308.0
111.871193 140.0
111.90757 152.0
111.963615 252.0
111.975899 160.0
112.023323 96.0
112.038788 104.0
112.055061 264.0
112.06958 176.0
112.123215 172.0
112.127075 156.0
112.162308 376.0
112.179169 92.0
112.208687 56.0
112.23156 184.0
112.24469 260.0
112.265617 92.0
112.28038 136.0
112.32045 168.0
112.350121 188.0
112.371078 44.0
112.401138 212.0
112.446053 176.0
112.495598 124.0
112.518814 132.0
112.544708 168.0
112.568886 140.0
112.594597 108.0
112.64975 152.0
112.664536 100.0
112.689888 96.0
112.751884 216.0
112.767151 156.0
112.823036 128.0
112.869736 132.0
112.889366 204.0
112.907143 180.0
112.922417 276.0
112.945679 64.0
113.000679 156.0
113.032417 208.0
113.045868 196.0
113.061859 144.0
113.091675 184.0
113.110725 124.0
113.159981 180.0
113.183258 220.0
113.189781 140.0
113.222939 212.0
113.246193 180.0
113.26989 192.0
113.285576 56.0
113.333801 232.0
113.3564 124.0
113.403824 180.0
113.432701 156.0
113.451775 124.0
113.470993 184.0
113.506905 144.0
113.521744 140.0
113.548531 228.0
113.561241 64.0
113.626923 164.0
113.631195 60.0
113.655014 140.0
113.671387 192.0
113.716919 192.0
113.746193 96.0
113.78331 140.0
113.83503 236.0
113.863411 168.0
113.88253 48.0
113.915253 364.0
113.93988 116.0
113.998329 220.0
114.010742 172.0
114.026291 164.0
114.039818 340.0
114.073761 184.0
114.120895 188.0
114.162956 164.0
114.22142 236.0
114.249107 176.0
114.290688 136.0
114.311974 124.0
114.339638 140.0
114.363045 136.0
114.384331 112.0
114.439034 196.0
114.459312 200.0
114.497528 152.0
114.514328 152.0
114.533386 136.0
114.558945 176.0
114.61731 148.0
114.626511 168.0
114.648468 220.0
114.663025 156.0
114.693253 128.0
114.730766 216.0
114.750748 188.0
114.772064 52.0
114.790016 172.0
114.850975 172.0
114.925278 212.0
114.939468 100.0
114.986679 172.0
114.993256 152.0
115.017403 204.0
115.051918 120.0
115.094009 196.0
115.145508 220.0
115.181816 196.0
115.200264 188.0
115.235229 168.0
115.299332 120.0
115.329605 144.0
115.374825 264.0
115.394188 152.0
115.423317 100.0
115.463951 184.0
115.491753 172.0
115.520912 196.0
115.540955 100.0
115.555923 96.0
115.573044 128.0
115.594086 96.0
115.617004 132.0
115.633629 308.0
115.66507 192.0
115.689453 220.0
115.728874 164.0
115.737595 132.0
115.766273 132.0
115.793427 208.0
115.810669 164.0
115.827805 96.0
115.853508 132.0
115.885536 244.0
115.917786 192.0
115.959114 112.0
115.984222 176.0
116.000786 132.0
116.014488 132.0
116.036263 184.0
116.052711 500.0
116.080696 144.0
116.09967 184.0
116.132561 152.0
116.183754 200.0
116.198669 144.0
116.231331 164.0
116.265182 136.0
116.295227 108.0
116.325279 108.0
116.376808 144.0
116.395752 160.0
116.454041 228.0
116.490631 176.0
116.506966 152.0
116.522057 248.0
116.544334 128.0
116.574684 164.0
116.600204 112.0
116.628151 260.0
116.677589 120.0
116.701035 128.0
116.709244 116.0
116.734894 180.0
116.761475 324.0
116.791222 128.0
116.834579 192.0
116.854439 208.0
116.879761 64.0
116.896027 172.0
116.918922 224.0
116.976265 100.0
117.00029 124.0
117.056984 2004.0
117.086418 412.0
117.131416 148.0
117.163963 228.0
117.181366 104.0
117.198387 112.0
117.245842 184.0
117.264336 256.0
117.315849 108.0
117.338524 208.0
117.355774 100.0
117.375183 152.0
117.394585 60.0
117.416153 148.0
117.439407 164.0
117.472229 144.0
117.526909 140.0
117.545906 136.0
117.562637 200.0
117.615959 184.0
117.652016 168.0
117.68438 200.0
117.699753 284.0
117.732315 128.0
117.752983 232.0
117.770111 84.0
117.801201 112.0
117.849396 108.0
117.895859 156.0
117.920723 152.0
117.942802 164.0
117.951324 152.0
118.017914 292.0
118.063614 1644.0
118.100807 112.0
118.128922 136.0
118.163048 124.0
118.214111 140.0
118.246758 156.0
118.319656 292.0
118.354317 244.0
118.371918 160.0
118.394302 164.0
118.401817 100.0
118.406883 172.0
118.440628 156.0
118.462288 184.0
118.476753 148.0
118.51783 132.0
118.5849 136.0
118.606247 176.0
118.631317 272.0
118.67453 60.0
118.71804 112.0
118.748535 176.0
118.794899 192.0
118.821281 224.0
118.856537 184.0
118.882912 92.0
118.902443 120.0
118.921539 120.0
118.99144 92.0
119.039207 176.0
119.060059 884.0
119.113045 44.0
119.130424 168.0
119.159622 172.0
119.171219 108.0
119.191261 104.0
119.219826 356.0
119.235992 116.0
119.269493 172.0
119.288887 200.0
119.302277 200.0
119.353477 140.0
119.373848 120.0
119.393425 208.0
119.410522 176.0
119.415344 152.0
119.422112 188.0
119.463463 104.0
119.491882 196.0
119.510033 204.0
119.577644 296.0
119.610992 180.0
119.635834 176.0
119.654533 116.0
119.682838 164.0
119.718964 104.0
119.763412 292.0
119.778664 192.0
119.796089 84.0
119.841835 264.0
119.88324 164.0
119.908554 148.0
119.939903 40.0
119.971184 160.0
119.998764 116.0
120.025932 200.0
120.057632 156.0
120.08062 408.0
120.10511 180.0
120.129478 200.0
120.178947 176.0
120.208153 164.0
120.253204 148.0
120.291382 152.0
120.34304 136.0
120.384315 172.0
120.443939 192.0
120.470154 204.0
120.485443 140.0
120.510262 56.0
120.527275 312.0
120.550995 200.0
120.611732 168.0
120.660278 164.0
120.708138 140.0
120.763054 160.0
120.784927 56.0
120.801178 112.0
120.83609 228.0
120.854179 128.0
120.876816 96.0
120.89814 168.0
120.942787 152.0
120.972076 152.0
120.985153 80.0
121.009239 96.0
121.076591 3524.0
121.115448 172.0
121.130783 44.0
121.165115 196.0
121.185547 156.0
121.205269 248.0
121.236298 124.0
121.249542 196.0
121.270241 204.0
121.308273 48.0
121.341156 72.0
121.367271 176.0
121.392715 296.0
121.479317 284.0
121.494675 256.0
121.510033 188.0
121.542946 100.0
121.580246 132.0
121.600731 72.0
121.636757 508.0
121.670242 148.0
121.698608 324.0
121.738068 184.0
121.792381 432.0
121.819572 92.0
121.853859 112.0
121.897713 188.0
121.912651 296.0
121.941612 236.0
121.966095 188.0
121.985939 152.0
122.038383 312.0
122.07782 452.0
122.100754 168.0
122.115883 188.0
122.158684 136.0
122.211792 292.0
122.252815 132.0
122.278275 136.0
122.319229 124.0
122.336342 212.0
122.36689 160.0
122.396477 324.0
122.413406 160.0
122.441193 188.0
122.447273 116.0
122.483025 308.0
122.534988 160.0
122.554375 180.0
122.586182 148.0
122.611671 160.0
122.656235 220.0
122.686615 136.0
122.750549 180.0
122.79686 192.0
122.815834 312.0
122.831337 108.0
122.8498 180.0
122.867416 184.0
122.918198 96.0
122.951294 196.0
122.973038 136.0
122.991676 240.0
123.030754 264.0
123.09037 76.0
123.112167 156.0
123.121223 136.0
123.152206 252.0
123.18396 284.0
123.216995 340.0
123.267029 156.0
123.286041 116.0
123.311653 120.0
123.340019 284.0
123.390862 44.0
123.415176 204.0
123.463013 152.0
123.510277 100.0
123.535713 272.0
123.589279 168.0
123.638596 120.0
123.660545 152.0
123.723083 228.0
123.73941 184.0
123.762253 144.0
123.806847 112.0
123.825966 164.0
123.844063 144.0
123.875504 240.0
123.906525 120.0
123.936165 444.0
123.967903 140.0
123.996071 136.0
124.03727 184.0
124.066299 168.0
124.083817 140.0
124.101219 204.0
124.145485 168.0
124.181389 216.0
124.198463 252.0
124.234161 192.0
124.26535 212.0
124.337837 132.0
124.363365 228.0
124.405724 156.0
124.436577 168.0
124.466072 156.0
124.488991 212.0
124.516518 228.0
124.533379 196.0
124.567604 212.0
124.590118 328.0
124.621323 156.0
124.660919 148.0
124.690758 100.0
124.709808 212.0
124.74086 256.0
124.785393 172.0
124.800957 140.0
124.854324 220.0
124.874336 88.0
124.938187 192.0
124.946442 116.0
124.952858 188.0
124.962646 172.0
124.967567 136.0
125.019661 220.0
125.084625 120.0
125.112503 120.0
125.131157 68.0
125.162064 204.0
125.194527 216.0
125.228218 124.0
125.281677 388.0
125.313225 148.0
125.330406 216.0
125.353935 176.0
125.390862 144.0
125.411415 180.0
125.446754 204.0
125.474808 200.0
125.531303 232.0
125.566986 252.0
125.583878 160.0
125.612923 248.0
125.636742 176.0
125.676292 200.0
125.699532 96.0
125.739716 180.0
125.77002 120.0
125.787224 192.0
125.828606 164.0
125.872841 72.0
125.901749 156.0
125.927277 116.0
125.946411 172.0
125.979248 120.0
126.001366 204.0
126.033539 120.0
126.053604 192.0
126.125671 124.0
126.165405 232.0
126.182442 164.0
126.292862 168.0
126.31662 116.0
126.370583 124.0
126.396202 80.0
126.432045 152.0
126.453247 164.0
126.518867 96.0
126.54557 148.0
126.594994 104.0
126.621407 136.0
126.680099 172.0
126.712029 212.0
126.723465 204.0
126.765244 132.0
126.787331 264.0
126.82251 280.0
126.845566 224.0
126.875587 172.0
126.919907 108.0
126.968513 272.0
126.996155 164.0
127.0298 92.0
127.064362 252.0
127.086983 200.0
127.107651 160.0
127.126869 152.0
127.164925 144.0
127.173866 156.0
127.182281 176.0
127.213806 128.0
127.260956 136.0
127.2808 148.0
127.326073 192.0
127.362007 164.0
127.396011 148.0
127.414719 284.0
127.441757 176.0
127.48243 180.0
127.509033 156.0
127.548508 104.0
127.586723 116.0
127.615097 180.0
127.62336 256.0
127.675354 284.0
127.713501 336.0
127.749847 156.0
127.818382 248.0
127.838631 164.0
127.864006 132.0
127.917938 220.0
127.948387 168.0
127.959572 104.0
127.963722 244.0
128.050613 196.0
128.076859 196.0
128.087906 84.0
128.095581 256.0
128.109344 152.0
128.131348 176.0
128.160629 328.0
128.180664 180.0
128.204803 232.0
128.214645 140.0
128.220093 228.0
128.251297 172.0
128.300369 160.0
128.321838 160.0
128.33049 156.0
128.339615 132.0
128.382538 136.0
128.40184 220.0
128.431152 216.0
128.492828 152.0
128.531235 176.0
128.556168 284.0
128.590057 216.0
128.624756 168.0
128.646484 168.0
128.679718 220.0
128.697449 396.0
128.724548 68.0
128.757095 164.0
128.790039 212.0
128.830688 204.0
128.864182 112.0
128.971756 136.0
129.000748 144.0
129.042267 116.0
129.068451 484.0
129.102814 292.0
129.160889 160.0
129.196594 168.0
129.231659 340.0
129.260269 104.0
129.28064 72.0
129.322586 156.0
129.381165 192.0
129.443298 404.0
129.475052 168.0
129.529678 88.0
129.593109 104.0
129.608978 184.0
129.647491 44.0
129.704163 156.0
129.733627 160.0
129.75856 292.0
129.774292 124.0
129.790863 156.0
129.832993 164.0
129.867416 144.0
129.901093 132.0
129.978195 192.0
130.010681 160.0
130.028412 212.0
130.06543 9608.0
130.127502 208.0
130.174301 392.0
130.203308 160.0
130.248444 124.0
130.298172 152.0
130.332016 280.0
130.335663 184.0
130.375961 128.0
130.397995 156.0
130.42305 304.0
130.438141 256.0
130.481506 184.0
130.505402 232.0
130.519608 176.0
130.540436 96.0
130.573944 148.0
130.607864 112.0
130.632431 260.0
130.674637 136.0
130.705688 128.0
130.730728 156.0
130.770386 196.0
130.798996 196.0
130.833206 168.0
130.85437 188.0
130.883545 204.0
130.94075 160.0
130.971664 260.0
130.999191 216.0
131.019394 256.0
131.061096 39944.0
131.110611 88.0
131.138763 192.0
131.175415 196.0
131.222717 200.0
131.257248 400.0
131.277435 308.0
131.334335 144.0
131.356583 200.0
131.384384 156.0
131.409882 252.0
131.459061 156.0
131.500458 128.0
131.509766 160.0
131.537537 120.0
131.557343 260.0
131.572113 212.0
131.610596 408.0
131.639069 196.0
131.655411 64.0
131.669968 120.0
131.697372 76.0
131.722351 60.0
131.753555 188.0
131.812698 156.0
131.834335 148.0
131.875 148.0
131.944168 172.0
131.963257 232.0
131.983032 160.0
132.017334 104.0
132.0681 4764.0
132.1129 312.0
132.137482 68.0
132.178802 196.0
132.218475 208.0
132.262131 172.0
132.291901 28.0
132.311279 240.0
132.340729 152.0
132.362091 200.0
132.390182 108.0
132.419678 208.0
132.457687 140.0
132.510147 212.0
132.532364 132.0
132.566742 76.0
132.604416 76.0
132.635498 132.0
132.671143 232.0
132.701813 176.0
132.725586 420.0
132.752808 172.0
132.789108 164.0
132.816635 84.0
132.841873 48.0
132.864807 160.0
132.887756 132.0
132.917572 160.0
132.933838 228.0
132.952118 148.0
132.977249 112.0
133.016342 232.0
133.043427 204.0
133.04834 156.0
133.08728 1572.0
133.144165 200.0
133.173676 108.0
133.204559 72.0
133.220642 100.0
133.287262 124.0
133.308365 228.0
133.356201 180.0
133.397125 188.0
133.417862 376.0
133.441254 268.0
133.471832 216.0
133.489044 124.0
133.527664 160.0
133.544739 208.0
133.570038 132.0
133.618347 88.0
133.662064 44.0
133.685074 112.0
133.775482 148.0
133.821884 348.0
133.847412 104.0
133.878738 124.0
133.897461 332.0
133.91716 168.0
133.923965 152.0
133.949203 200.0
133.958359 144.0
133.98378 164.0
134.008591 208.0
134.04361 80.0
134.04982 344.0
134.068436 76.0
134.095062 292.0
134.146042 224.0
134.164154 64.0
134.188873 172.0
134.244858 168.0
134.26561 136.0
134.297897 188.0
134.319809 208.0
134.358444 160.0
134.374023 128.0
134.424362 256.0
134.448547 176.0
134.473251 152.0
134.496323 112.0
134.519775 100.0
134.541672 124.0
134.577133 152.0
134.648163 152.0
134.670593 76.0
134.695053 192.0
134.709595 168.0
134.730835 36.0
134.751221 220.0
134.788742 180.0
134.813431 120.0
134.831223 264.0
134.867889 240.0
134.894196 212.0
134.915741 228.0
134.935242 124.0
134.988419 148.0
135.004608 136.0
135.050552 336.0
135.094742 128.0
135.10347 124.0
135.139725 236.0
135.16748 204.0
135.193298 176.0
135.22438 264.0
135.263733 128.0
135.310852 136.0
135.327209 152.0
135.335495 64.0
135.343796 152.0
135.360291 176.0
135.377319 200.0
135.421478 128.0
135.438522 164.0
135.491531 196.0
135.528503 148.0
135.57872 60.0
135.638992 136.0
135.669128 108.0
135.724808 220.0
135.779099 84.0
135.819855 164.0
135.84317 152.0
135.863922 340.0
135.894089 108.0
135.954666 108.0
135.982559 168.0
136.013489 124.0
136.048447 248.0
136.123871 140.0
136.16568 92.0
136.184753 176.0
136.217636 128.0
136.246979 140.0
136.300415 104.0
136.325607 156.0
136.357056 128.0
136.378876 68.0
136.395996 156.0
136.414291 196.0
136.44072 208.0
136.470703 120.0
136.500488 156.0
136.525894 136.0
136.561295 364.0
136.583862 220.0
136.63858 152.0
136.700562 136.0
136.747482 180.0
136.787064 320.0
136.827896 172.0
136.853989 112.0
136.895905 124.0
136.941574 176.0
137.010025 176.0
137.025513 144.0
137.065948 104.0
137.087814 136.0
137.10556 44.0
137.134094 216.0
137.209381 156.0
137.23143 236.0
137.266418 200.0
137.324707 152.0
137.350372 224.0
137.368912 156.0
137.450684 196.0
137.488937 132.0
137.546371 168.0
137.604736 100.0
137.639755 88.0
137.674789 100.0
137.70491 200.0
137.774597 120.0
137.794922 144.0
137.814941 156.0
137.848267 156.0
137.894394 116.0
137.92244 172.0
137.948151 72.0
137.966858 160.0
137.991562 204.0
138.042297 144.0
138.060379 56.0
138.087524 184.0
138.134552 140.0
138.174561 188.0
138.217102 156.0
138.254547 92.0
138.270935 136.0
138.291992 188.0
138.324768 148.0
138.362701 172.0
138.39798 176.0
138.437149 152.0
138.46759 168.0
138.534393 204.0
138.599823 116.0
138.624542 140.0
138.665482 128.0
138.692505 156.0
138.720642 104.0
138.737045 176.0
138.753464 36.0
138.794876 108.0
138.826141 156.0
138.85527 192.0
138.884781 120.0
138.962189 204.0
138.992279 136.0
139.000732 112.0
139.027893 188.0
139.100708 176.0
139.131912 204.0
139.149948 184.0
139.180466 164.0
139.222031 160.0
139.257965 176.0
139.306213 156.0
139.33548 184.0
139.370026 40.0
139.375961 212.0
139.382996 272.0
139.420029 128.0
139.463623 280.0
139.494705 160.0
139.531754 160.0
139.577576 100.0
139.601089 116.0
139.622528 172.0
139.643158 148.0
139.666946 140.0
139.68811 136.0
139.705276 316.0
139.728043 184.0
139.755371 204.0
139.795181 220.0
139.838577 160.0
139.884995 340.0
139.953384 192.0
139.9823 180.0
140.017868 116.0
140.04834 152.0
140.076736 128.0
140.120728 376.0
140.140717 156.0
140.168396 184.0
140.189835 316.0
140.247925 208.0
140.314407 80.0
140.32193 56.0
140.388474 144.0
140.411194 168.0
140.432434 196.0
140.463089 204.0
140.484314 148.0
140.514923 148.0
140.56601 152.0
140.586273 396.0
140.652557 108.0
140.682541 56.0
140.74025 172.0
140.758102 140.0
140.779343 144.0
140.806412 208.0
140.845474 96.0
140.876358 224.0
140.896729 212.0
140.91597 100.0
140.951797 180.0
140.973053 96.0
141.015594 180.0
141.050674 128.0
141.07579 308.0
141.109467 216.0
141.14325 112.0
141.215424 160.0
141.244156 144.0
141.279633 192.0
141.289154 128.0
141.313995 192.0
141.351349 96.0
141.379807 152.0
141.436279 172.0
141.480499 148.0
141.51709 144.0
141.543137 148.0
141.588135 188.0
141.622192 220.0
141.668671 116.0
141.689987 76.0
141.72789 140.0
141.761551 136.0
141.829636 168.0
141.858246 96.0
141.887909 124.0
141.9104 104.0
141.927002 192.0
141.949127 160.0
142.021057 276.0
142.060699 344.0
142.152344 188.0
142.168945 112.0
142.211716 204.0
142.24617 120.0
142.296478 148.0
142.345795 120.0
142.375488 200.0
142.416168 188.0
142.483948 224.0
142.546219 160.0
142.570282 176.0
142.595581 248.0
142.627899 116.0
142.672485 316.0
142.696686 164.0
142.725906 112.0
142.741959 180.0
142.77803 176.0
142.820618 164.0
142.841324 172.0
142.860367 152.0
142.881775 188.0
142.922211 212.0
142.952469 168.0
142.993607 116.0
143.018188 160.0
143.062683 328.0
143.133041 104.0
143.151993 412.0
143.189423 344.0
143.235138 236.0
143.257904 100.0
143.274582 128.0
143.29126 156.0
143.324615 108.0
143.343674 124.0
143.37352 92.0
143.415558 200.0
143.446167 124.0
143.467621 136.0
143.48764 60.0
143.512909 140.0
143.534378 236.0
143.593567 336.0
143.655319 196.0
143.672363 168.0
143.692688 212.0
143.723175 184.0
143.746674 76.0
143.810135 188.0
143.837357 144.0
143.868393 140.0
143.944855 164.0
143.994949 136.0
144.028381 132.0
144.071289 1208.0
144.132187 392.0
144.176514 272.0
144.217361 176.0
144.235596 188.0
144.257782 116.0
144.28862 356.0
144.327103 348.0
144.360977 172.0
144.42276 108.0
144.439514 32.0
144.470734 152.0
144.492142 128.0
144.550385 152.0
144.574371 184.0
144.611786 156.0
144.632904 208.0
144.651321 156.0
144.692505 200.0
144.70993 172.0
144.741058 172.0
144.78035 304.0
144.798523 124.0
144.821579 156.0
144.84404 136.0
144.872787 216.0
144.906326 188.0
144.950104 172.0
144.989944 332.0
145.020142 96.0
145.076248 30780.0
145.128815 104.0
145.152145 164.0
145.184372 144.0
145.205963 60.0
145.235931 132.0
145.256332 108.0
145.287079 164.0
145.328201 196.0
145.361343 192.0
145.391113 180.0
145.424332 228.0
145.444244 364.0
145.463669 196.0
145.481888 116.0
145.508026 192.0
145.528824 168.0
145.540482 140.0
145.545273 140.0
145.590088 260.0
145.621155 68.0
145.646988 64.0
145.706207 128.0
145.722046 164.0
145.745041 268.0
145.770111 156.0
145.806152 128.0
145.832596 248.0
145.850647 156.0
145.882797 180.0
145.92041 268.0
145.937775 180.0
145.958893 128.0
145.978928 92.0
146.001968 212.0
146.076248 5352.0
146.095306 3840.0
146.143799 124.0
146.167923 192.0
146.218018 232.0
146.252441 120.0
146.272766 80.0
146.30658 156.0
146.32399 72.0
146.355057 240.0
146.372681 220.0
146.395554 156.0
146.428421 164.0
146.467804 184.0
146.489487 48.0
146.510178 176.0
146.550339 212.0
146.61853 320.0
146.650253 188.0
146.692093 144.0
146.73288 128.0
146.753067 140.0
146.786469 88.0
146.806427 92.0
146.845963 76.0
146.90097 120.0
146.924408 256.0
146.98613 152.0
147.009109 84.0
147.031982 144.0
147.056458 372.0
147.091934 14136.0
147.127777 152.0
147.136856 80.0
147.143784 140.0
147.171265 132.0
147.187424 180.0
147.233124 176.0
147.251617 220.0
147.29715 204.0
147.323517 200.0
147.343475 152.0
147.36264 168.0
147.388794 132.0
147.415955 112.0
147.432236 92.0
147.446121 132.0
147.48999 328.0
147.515656 176.0
147.546478 64.0
147.5634 260.0
147.583817 144.0
147.633514 68.0
147.660126 172.0
147.677048 128.0
147.713699 132.0
147.744781 120.0
147.781738 272.0
147.807693 240.0
147.841232 180.0
147.855774 92.0
147.861923 156.0
147.891159 188.0
147.916595 300.0
147.972336 144.0
148.000748 152.0
148.009338 116.0
148.027969 88.0
148.055817 1208.0
148.095154 1924.0
148.158142 204.0
148.208191 168.0
148.25325 252.0
148.292023 128.0
148.313019 232.0
148.330811 48.0
148.350204 120.0
148.376862 156.0
148.412354 236.0
148.432953 148.0
148.474228 112.0
148.561172 216.0
148.602097 152.0
148.623322 104.0
148.632797 92.0
148.642197 152.0
148.663681 116.0
148.711624 524.0
148.742828 232.0
148.762589 144.0
148.804855 116.0
148.879898 220.0
148.901138 64.0
148.922852 88.0
148.964447 128.0
149.008255 124.0
149.057205 368.0
149.108307 4100.0
149.170685 180.0
149.193787 336.0
149.214447 156.0
149.235794 168.0
149.286102 136.0
149.321716 340.0
149.366257 108.0
149.37558 156.0
149.430573 180.0
149.472076 112.0
149.510193 116.0
149.56987 184.0
149.588074 156.0
149.618301 156.0
149.65593 192.0
149.679214 200.0
149.708389 208.0
149.741699 148.0
149.779022 140.0
149.80246 160.0
149.817642 84.0
149.833649 236.0
149.891083 100.0
149.912369 104.0
149.923355 116.0
149.950775 132.0
149.975327 200.0
150.078079 184.0
150.112686 236.0
150.173874 144.0
150.198273 128.0
150.222031 188.0
150.267838 524.0
150.295853 112.0
150.34465 152.0
150.40065 136.0
150.407349 128.0
150.418381 96.0
150.423615 148.0
150.458618 208.0
150.518707 208.0
150.536926 136.0
150.560898 228.0
150.593674 164.0
150.61322 108.0
150.636383 108.0
150.666962 168.0
150.686508 148.0
150.758636 252.0
150.775299 200.0
150.800827 168.0
150.828232 252.0
150.852783 184.0
150.879837 184.0
150.901581 96.0
150.926346 156.0
150.958237 140.0
150.977921 164.0
151.001831 128.0
151.020233 184.0
151.039658 240.0
151.070328 112.0
151.107025 192.0
151.124146 400.0
151.148621 112.0
151.179901 168.0
151.219589 172.0
151.263321 140.0
151.292603 164.0
151.322876 160.0
151.34407 168.0
151.374115 292.0
151.40564 76.0
151.425049 152.0
151.451218 172.0
151.496277 296.0
151.518326 112.0
151.537582 176.0
151.564865 164.0
151.581543 324.0
151.621841 176.0
151.667587 180.0
151.693756 348.0
151.72908 136.0
151.773392 164.0
151.790222 340.0
151.847519 244.0
151.898285 216.0
151.948959 184.0
151.97905 192.0
152.030777 172.0
152.059845 180.0
152.097046 164.0
152.116684 148.0
152.161392 112.0
152.166565 152.0
152.232071 68.0
152.255371 164.0
152.2854 236.0
152.304901 220.0
152.34407 100.0
152.381561 144.0
152.418472 144.0
152.499863 240.0
152.536148 152.0
152.578522 136.0
152.611755 208.0
152.646774 164.0
152.664581 32.0
152.694092 136.0
152.761536 220.0
152.790787 268.0
152.82045 284.0
152.847641 220.0
152.874222 184.0
152.893372 212.0
152.942596 196.0
152.966492 192.0
152.973724 136.0
153.00354 116.0
153.037155 168.0
153.074249 168.0
153.148239 172.0
153.164673 160.0
153.191284 108.0
153.210999 176.0
153.230713 52.0
153.255341 212.0
153.292297 148.0
153.33667 140.0
153.36853 164.0
153.404205 172.0
153.457245 200.0
153.479279 164.0
153.494598 232.0
153.529266 192.0
153.562469 136.0
153.593079 152.0
153.611206 172.0
153.6194 60.0
153.631516 152.0
153.6819 152.0
153.718826 132.0
153.746048 132.0
153.78801 32.0
153.851303 224.0
153.884277 140.0
153.941071 40.0
153.989624 248.0
154.016083 196.0
154.05307 320.0
154.100204 132.0
154.151047 192.0
154.188828 220.0
154.225189 244.0
154.253754 292.0
154.299347 164.0
154.344238 128.0
154.371048 128.0
154.388351 36.0
154.422623 192.0
154.48024 160.0
154.506943 168.0
154.55011 308.0
154.58873 236.0
154.618423 108.0
154.646896 264.0
154.75621 204.0
154.816299 164.0
154.837799 164.0
154.846695 236.0
154.893265 400.0
154.93042 76.0
154.970062 184.0
154.990158 144.0
155.050583 144.0
155.06604 300.0
155.151367 344.0
155.175766 176.0
155.207855 140.0
155.26532 140.0
155.282394 228.0
155.323532 200.0
155.352631 176.0
155.396271 172.0
155.401535 156.0
155.411163 176.0
155.421097 140.0
155.436966 328.0
155.490662 148.0
155.515945 192.0
155.560287 40.0
155.578568 212.0
155.61937 232.0
155.65712 180.0
155.676895 224.0
155.730255 196.0
155.736008 124.0
155.739761 144.0
155.811111 228.0
155.827362 172.0
155.857452 208.0
155.896011 136.0
155.932877 188.0
155.951324 104.0
156.006058 184.0
156.028351 184.0
156.080231 448.0
156.102402 280.0
156.1371 80.0
156.191544 212.0
156.213837 152.0
156.242706 112.0
156.259384 156.0
156.290024 348.0
156.324539 184.0
156.342789 164.0
156.347031 136.0
156.384705 168.0
156.424438 184.0
156.431778 96.0
156.441422 176.0
156.462769 128.0
156.507889 160.0
156.544418 136.0
156.553253 216.0
156.571686 192.0
156.632034 88.0
156.708511 80.0
156.718948 112.0
156.725037 180.0
156.755829 312.0
156.788986 80.0
156.808075 164.0
156.842026 192.0
156.852753 96.0
156.863266 296.0
156.889267 232.0
156.93071 276.0
156.980301 248.0
157.00589 164.0
157.021301 156.0
157.076035 3632.0
157.12262 192.0
157.155548 144.0
157.192215 192.0
157.214828 116.0
157.235397 104.0
157.257339 152.0
157.284225 224.0
157.30571 156.0
157.34024 120.0
157.373978 124.0
157.423355 140.0
157.500061 64.0
157.539917 100.0
157.560013 176.0
157.59819 200.0
157.644638 228.0
157.679947 212.0
157.714523 148.0
157.764786 224.0
157.788086 204.0
157.81781 180.0
157.851425 216.0
157.867996 164.0
157.892853 136.0
157.914017 312.0
157.94429 368.0
157.961685 88.0
157.978317 380.0
158.008148 164.0
158.049332 180.0
158.0961 4812.0
158.132156 228.0
158.173752 216.0
158.222046 268.0
158.273483 104.0
158.294617 136.0
158.299011 200.0
158.322037 128.0
158.362244 192.0
158.404251 356.0
158.427139 140.0
158.430847 292.0
158.454407 120.0
158.479553 196.0
158.503555 136.0
158.517853 68.0
158.541016 244.0
158.587906 124.0
158.593094 320.0
158.610184 156.0
158.636063 244.0
158.654602 188.0
158.664413 200.0
158.675095 348.0
158.700272 240.0
158.732559 188.0
158.763596 224.0
158.76944 316.0
158.788834 292.0
158.794052 292.0
158.827148 620.0
158.854141 304.0
158.873779 304.0
158.881119 272.0
158.900543 296.0
158.905914 568.0
158.915329 720.0
158.922897 216.0
158.933945 584.0
158.966217 580.0
158.988815 832.0
159.011444 644.0
159.093353 429460.0
159.164093 192.0
159.17215 268.0
159.187683 256.0
159.208603 136.0
159.277969 272.0
159.325378 784.0
159.355438 316.0
159.386795 344.0
159.40683 416.0
159.438522 152.0
159.477158 960.0
159.507111 8252.0
159.536453 440.0
159.569366 148.0
159.605484 292.0
159.627426 148.0
159.646423 132.0
159.665421 180.0
159.696915 176.0
159.734268 304.0
159.770905 212.0
159.80838 112.0
159.849228 216.0
159.875168 120.0
159.898483 368.0
159.920395 276.0
159.925903 172.0
159.949768 236.0
159.954407 180.0
159.97757 316.0
160.000183 68.0
160.022446 152.0
160.055542 300.0
160.095413 83592.0
160.151108 60.0
160.161896 312.0
160.201523 160.0
160.24852 80.0
160.265274 72.0
160.300034 212.0
160.327026 88.0
160.343597 136.0
160.383453 160.0
160.402344 156.0
160.424316 64.0
160.434509 40.0
160.440216 208.0
160.484406 76.0
160.511261 156.0
160.533997 144.0
160.566101 116.0
160.58551 152.0
160.621628 92.0
160.648087 72.0
160.688156 188.0
160.71843 96.0
160.764786 160.0
160.809143 108.0
160.837433 156.0
160.860489 172.0
160.886047 152.0
160.899826 180.0
160.922455 84.0
160.934753 88.0
160.945099 68.0
160.955521 88.0
160.96492 116.0
160.973557 160.0
160.995071 336.0
161.035461 328.0
161.099289 4388.0
161.144394 320.0
161.161133 344.0
161.183243 252.0
161.202042 184.0
161.241852 392.0
161.262878 72.0
161.270798 332.0
161.277328 164.0
161.30368 88.0
161.327271 240.0
161.339523 116.0
161.356079 332.0
161.409012 316.0
161.444153 188.0
161.469864 160.0
161.485306 308.0
161.503769 240.0
161.512878 140.0
161.553085 140.0
161.577103 224.0
161.611038 80.0
161.644485 244.0
161.709412 284.0
161.733109 184.0
161.777893 100.0
161.816895 156.0
161.854385 164.0
161.876236 180.0
161.933716 172.0
161.974869 116.0
162.007019 204.0
162.016449 304.0
162.036118 92.0
162.072464 1344.0
162.09761 288.0
162.150848 132.0
162.174683 188.0
162.235825 80.0
162.270233 152.0
162.299713 100.0
162.334167 124.0
162.35289 104.0
162.363174 140.0
162.395706 108.0
162.439468 200.0
162.488098 104.0
162.514938 40.0
162.535934 144.0
162.577469 180.0
162.672272 148.0
162.705109 180.0
162.737869 268.0
162.756058 88.0
162.888123 64.0
162.933685 184.0
162.942947 172.0
162.948242 168.0
162.977036 176.0
163.074295 208.0
163.099014 48.0
163.132065 160.0
163.155502 128.0
163.183701 64.0
163.213074 148.0
163.240631 120.0
163.270264 104.0
163.292252 48.0
163.331711 156.0
163.368561 28.0
163.401978 88.0
163.421982 76.0
163.442337 88.0
163.489487 160.0
163.527359 128.0
163.598938 80.0
163.694336 176.0
163.749344 160.0
163.798767 144.0
163.826782 180.0
163.870087 92.0
163.898117 124.0
163.960983 60.0
163.992416 80.0
164.026199 172.0
164.053589 328.0
164.076523 480.0
164.131027 192.0
164.218048 24.0
164.238388 88.0
164.28511 152.0
164.314636 164.0
164.357086 68.0
164.382599 56.0
164.438736 40.0
164.479584 92.0
164.497452 136.0
164.517105 188.0
164.565247 216.0
164.595459 152.0
164.625107 88.0
164.704285 84.0
164.737488 212.0
164.768143 168.0
164.801361 148.0
164.956024 176.0
165.005814 108.0
165.048706 320.0
165.095306 160.0
165.122635 76.0
165.149017 176.0
165.274368 176.0
165.321716 136.0
165.434784 124.0
165.484253 44.0
165.512421 160.0
165.538025 104.0
165.555954 132.0
165.591797 120.0
165.677505 124.0
165.712204 36.0
165.786499 40.0
165.812134 128.0
165.845459 104.0
165.930038 44.0
165.964523 196.0
166.022354 228.0
166.083908 28.0
166.129486 120.0
166.2202 160.0
166.255798 76.0
166.322525 68.0
166.366165 156.0
166.407242 48.0
166.50444 136.0
166.54335 60.0
166.566467 164.0
166.602707 188.0
166.656387 132.0
166.707779 80.0
166.790009 164.0
166.83371 168.0
166.939133 148.0
167.005997 32.0
167.029144 164.0
167.071548 140.0
167.092834 148.0
167.141678 92.0
167.196381 124.0
167.219543 216.0
167.263306 152.0
167.286469 308.0
167.31424 76.0
167.392029 100.0
167.416321 176.0
167.453842 32.0
167.483002 116.0
167.581207 180.0
167.601654 220.0
167.677979 156.0
167.76561 172.0
167.830063 104.0
167.850693 100.0
167.878937 392.0
167.91774 52.0
167.944519 168.0
167.979645 168.0
168.00383 32.0
168.055634 176.0
168.060913 80.0
168.082687 300.0
168.168015 76.0
168.211884 140.0
168.245453 204.0
168.266098 172.0
168.304474 176.0
168.340973 96.0
168.439987 180.0
168.495956 204.0
168.553833 80.0
168.562805 32.0
168.572372 76.0
168.6017 108.0
168.612503 76.0
168.759003 144.0
168.795776 28.0
168.837143 128.0
168.886292 80.0
168.912354 200.0
168.948669 172.0
168.984726 148.0
169.018219 68.0
169.054016 144.0
169.077209 132.0
169.103622 216.0
169.147186 164.0
169.201981 80.0
169.251175 152.0
169.282257 120.0
169.300385 52.0
169.442001 196.0
169.468018 156.0
169.489471 72.0
169.525757 56.0
169.547928 208.0
169.582764 76.0
169.614822 152.0
169.64032 80.0
169.696411 172.0
169.740906 108.0
169.77356 128.0
169.826492 72.0
169.866959 172.0
169.976959 52.0
170.03772 164.0
170.082825 768.0
170.124893 172.0
170.185486 216.0
170.205383 104.0
170.298187 184.0
170.379395 96.0
170.40538 164.0
170.46727 112.0
170.519714 200.0
170.563416 176.0
170.631485 84.0
170.67308 92.0
170.711304 200.0
170.757278 244.0
170.78627 228.0
170.894165 152.0
170.926178 184.0
170.96962 128.0
171.009689 92.0
171.047714 128.0
171.092285 7644.0
171.136414 164.0
171.157043 60.0
171.177887 68.0
171.21434 180.0
171.256012 196.0
171.284668 160.0
171.310715 88.0
171.347183 32.0
171.368027 96.0
171.391479 116.0
171.430054 264.0
171.465637 236.0
171.500275 48.0
171.527267 116.0
171.576523 56.0
171.610413 56.0
171.659958 60.0
171.682495 196.0
171.717728 52.0
171.766891 76.0
171.797775 248.0
171.821671 196.0
171.873856 88.0
171.906631 64.0
171.926041 84.0
171.962891 68.0
172.02652 104.0
172.059418 296.0
172.09761 5920.0
172.174042 100.0
172.209702 160.0
172.240967 148.0
172.270691 32.0
172.307266 88.0
172.352234 228.0
172.385651 52.0
172.435181 216.0
172.479736 60.0
172.512512 200.0
172.533707 160.0
172.569321 148.0
172.62352 100.0
172.656769 84.0
172.663284 176.0
172.743835 160.0
172.772614 144.0
172.790924 96.0
172.820694 180.0
172.850296 144.0
172.869415 168.0
172.904922 176.0
172.974106 92.0
173.011673 320.0
173.063217 296.0
173.107712 25272.0
173.157394 124.0
173.207153 60.0
173.230728 172.0
173.301468 128.0
173.323547 128.0
173.365372 148.0
173.406281 80.0
173.440353 32.0
173.474625 168.0
173.508514 176.0
173.563568 96.0
173.623886 116.0
173.643555 72.0
173.68158 68.0
173.75766 48.0
173.805206 152.0
173.82785 96.0
173.835785 72.0
173.846664 152.0
173.88623 60.0
173.918304 164.0
174.037384 172.0
174.071701 1096.0
174.103485 11920.0
174.17778 216.0
174.202271 88.0
174.239731 32.0
174.278503 188.0
174.301819 172.0
174.35759 156.0
174.404602 176.0
174.429932 44.0
174.464676 128.0
174.516785 228.0
174.543732 56.0
174.562836 160.0
174.588806 256.0
174.626755 28.0
174.638702 148.0
174.667099 204.0
174.722534 192.0
174.745499 136.0
174.832336 72.0
174.856018 144.0
174.892868 84.0
174.930771 180.0
174.986374 100.0
175.011337 200.0
175.033173 136.0
175.07547 352.0
175.121048 5028.0
175.164078 80.0
175.208542 72.0
175.22052 176.0
175.282639 32.0
175.30275 76.0
175.364334 92.0
175.392273 180.0
175.430222 44.0
175.451324 180.0
175.510544 160.0
175.53421 164.0
175.593704 48.0
175.652588 124.0
175.711823 196.0
175.744064 140.0
175.793228 140.0
175.891861 120.0
175.918259 160.0
175.939377 92.0
175.981613 72.0
176.019531 332.0
176.084381 48.0
176.127228 744.0
176.192902 48.0
176.245743 36.0
176.314438 136.0
176.335587 88.0
176.375229 84.0
176.414886 56.0
176.453125 188.0
176.549911 116.0
176.568237 188.0
176.605545 296.0
176.668747 60.0
176.697845 96.0
176.723297 52.0
176.766647 132.0
176.793106 88.0
176.86319 116.0
176.93074 48.0
177.011505 120.0
177.016022 152.0
177.079025 48.0
177.119324 132.0
177.155838 32.0
177.182327 140.0
177.244995 184.0
177.285675 196.0
177.328079 116.0
177.510986 160.0
177.530472 128.0
177.633972 120.0
177.667221 40.0
177.725845 28.0
177.763 120.0
177.802795 220.0
177.839966 196.0
177.857971 56.0
177.893051 52.0
177.919586 104.0
177.970032 168.0
178.001907 76.0
178.063889 164.0
178.168701 200.0
178.227676 92.0
178.278168 128.0
178.312714 64.0
178.341949 116.0
178.419037 32.0
178.458923 56.0
178.551987 84.0
178.578125 164.0
178.646378 196.0
178.684982 128.0
178.746185 36.0
178.767471 76.0
178.919189 156.0
178.975098 104.0
179.0177 84.0
179.142883 120.0
179.193497 40.0
179.217468 388.0
179.24678 72.0
179.268097 80.0
179.364044 156.0
179.414703 172.0
179.500015 172.0
179.598694 232.0
179.633362 168.0
179.705399 120.0
179.748093 36.0
179.817474 188.0
179.869522 172.0
179.894882 80.0
179.9189 136.0
180.004349 172.0
180.077805 432.0
180.174942 192.0
180.18425 168.0
180.272766 68.0
180.373032 128.0
180.429169 72.0
180.484665 164.0
180.520081 168.0
180.539856 192.0
180.562866 104.0
180.648453 44.0
180.726044 108.0
180.792938 92.0
180.822372 120.0
180.846466 96.0
180.932114 148.0
180.950867 60.0
180.998413 152.0
181.085892 364.0
181.108856 220.0
181.146042 204.0
181.232086 236.0
181.261566 156.0
181.341949 172.0
181.366074 144.0
181.40361 72.0
181.510849 184.0
181.531006 108.0
181.559113 92.0
181.583252 100.0
181.680588 208.0
181.733475 160.0
181.883408 152.0
181.942154 164.0
181.971222 144.0
182.004562 60.0
182.079758 140.0
182.098557 76.0
182.124603 172.0
182.152267 124.0
182.214584 100.0
182.269501 176.0
182.369919 124.0
182.434433 116.0
182.480133 108.0
182.633408 220.0
182.677444 108.0
182.743698 48.0
182.808289 120.0
182.886337 104.0
182.921326 148.0
182.964401 224.0
182.987793 156.0
183.062668 276.0
183.127274 148.0
183.20079 152.0
183.332733 144.0
183.375732 164.0
183.495132 156.0
183.554443 76.0
183.627258 132.0
183.708176 184.0
183.802612 120.0
183.821503 144.0
183.861969 128.0
183.940247 156.0
183.964539 128.0
184.02446 104.0
184.05986 376.0
184.098129 180.0
184.12114 72.0
184.172455 116.0
184.202927 72.0
184.221481 172.0
184.264313 64.0
184.361572 120.0
184.426437 152.0
184.445358 132.0
184.528595 152.0
184.563324 120.0
184.59819 204.0
184.627762 156.0
184.680603 72.0
184.740112 152.0
184.780685 156.0
184.821274 84.0
184.884155 204.0
184.922516 92.0
184.948471 84.0
184.967407 248.0
185.006927 156.0
185.063919 13600.0
185.106766 5004.0
185.179413 120.0
185.212952 152.0
185.237183 96.0
185.276352 48.0
185.36824 204.0
185.423401 168.0
185.490204 176.0
185.56517 128.0
185.604523 216.0
185.634598 92.0
185.741028 88.0
185.777634 176.0
185.810059 160.0
185.921448 112.0
185.956726 64.0
186.024582 180.0
186.068985 4004.0
186.110992 788.0
186.152191 164.0
186.214645 128.0
186.271698 88.0
186.33017 76.0
186.368759 284.0
186.418396 176.0
186.458237 244.0
186.513519 132.0
186.59549 184.0
186.633652 236.0
186.68129 204.0
186.736481 236.0
186.811707 152.0
186.84256 184.0
186.860458 180.0
186.929626 136.0
186.95256 176.0
186.984055 56.0
187.009354 136.0
187.074112 556.0
187.106232 176.0
187.112625 224.0
187.123413 120.0
187.158752 116.0
187.196396 180.0
187.272659 100.0
187.296646 104.0
187.370712 40.0
187.395233 104.0
187.414307 140.0
187.447006 156.0
187.471527 116.0
187.531494 32.0
187.566925 180.0
187.586502 176.0
187.714142 180.0
187.781433 148.0
187.8396 116.0
187.918716 152.0
187.940536 104.0
188.011093 144.0
188.031052 168.0
188.086502 1128.0
188.139694 132.0
188.180725 184.0
188.199844 68.0
188.22168 152.0
188.259918 108.0
188.281754 88.0
188.31485 120.0
188.360962 156.0
188.396484 128.0
188.42926 56.0
188.456589 52.0
188.498245 80.0
188.560425 136.0
188.579559 80.0
188.601425 60.0
188.623291 64.0
188.683426 100.0
188.765457 72.0
188.803741 76.0
188.895096 60.0
188.956909 208.0
189.000687 40.0
189.049942 136.0
189.091385 372.0
189.218338 216.0
189.241547 156.0
189.304535 196.0
189.390839 116.0
189.471603 44.0
189.496262 48.0
189.523117 100.0
189.562653 136.0
189.627792 156.0
189.674393 120.0
189.707291 76.0
189.822433 88.0
189.874542 112.0
189.918427 128.0
190.044617 120.0
190.094009 212.0
190.218124 140.0
190.236725 76.0
190.297852 120.0
190.324585 248.0
190.475632 152.0
190.544296 176.0
190.602005 88.0
190.865875 152.0
190.901108 148.0
190.942871 180.0
191.003387 180.0
191.039139 184.0
191.107117 124.0
191.143692 136.0
191.173965 164.0
191.262039 140.0
191.295059 40.0
191.460266 132.0
191.485046 180.0
191.504333 116.0
191.59523 36.0
191.627533 132.0
191.713715 128.0
191.796387 100.0
192.003174 44.0
192.052811 132.0
192.085403 276.0
192.113495 60.0
192.168686 108.0
192.207306 132.0
192.232147 120.0
192.281815 144.0
192.353577 160.0
192.491623 76.0
192.519241 148.0
192.545303 136.0
192.60611 148.0
192.645325 156.0
192.688614 184.0
192.731934 160.0
192.792725 52.0
192.823578 148.0
192.897751 32.0
192.94751 124.0
193.030457 164.0
193.058105 132.0
193.079071 132.0
193.12352 184.0
193.149384 168.0
193.190872 168.0
193.246201 140.0
193.304306 128.0
193.347275 160.0
193.381546 180.0
193.571548 104.0
193.603271 116.0
193.658676 44.0
193.755615 80.0
193.775009 180.0
193.926071 140.0
193.999496 172.0
194.090988 164.0
194.163086 100.0
194.243118 56.0
194.418304 144.0
194.464172 160.0
194.498795 168.0
194.518234 140.0
194.573746 124.0
194.609833 104.0
194.837585 168.0
194.859802 56.0
194.883224 160.0
195.029312 108.0
195.059891 132.0
195.082123 228.0
195.110336 136.0
195.226944 48.0
195.357437 184.0
195.376907 112.0
195.404282 128.0
195.432556 148.0
195.572952 220.0
195.596741 48.0
195.635712 168.0
195.697037 152.0
195.727585 200.0
195.772141 140.0
195.816696 60.0
195.889114 180.0
195.922546 176.0
195.983841 132.0
196.059082 72.0
196.089737 132.0
196.1427 108.0
196.190079 60.0
196.217957 128.0
196.262573 156.0
196.304398 200.0
196.514969 252.0
196.563812 112.0
196.648941 240.0
196.6922 104.0
196.71402 196.0
196.806656 364.0
196.87088 220.0
196.893219 136.0
196.987442 120.0
197.050919 120.0
197.109299 152.0
197.23967 152.0
197.267624 168.0
197.292786 92.0
197.362686 284.0
197.410217 164.0
197.432587 108.0
197.477341 132.0
197.530487 108.0
197.61441 172.0
197.64238 140.0
197.709549 148.0
197.753586 212.0
197.812103 204.0
197.832703 176.0
197.885895 108.0
198.006302 104.0
198.07016 996.0
198.205185 68.0
198.380554 192.0
198.391174 168.0
198.451843 348.0
198.502319 168.0
198.569626 88.0
198.602753 64.0
198.709869 160.0
198.764679 212.0
198.810898 180.0
198.836151 92.0
198.892288 44.0
198.934387 132.0
198.982117 160.0
199.00177 176.0
199.04097 112.0
199.077911 728.0
199.150604 92.0
199.183838 168.0
199.258118 72.0
199.288254 136.0
199.350067 184.0
199.369095 124.0
199.422897 48.0
199.441467 88.0
199.470917 80.0
199.490601 168.0
199.510269 132.0
199.539398 208.0
199.574936 160.0
199.619461 168.0
199.627319 140.0
199.641159 116.0
199.650345 108.0
199.693115 148.0
199.730621 100.0
199.760544 184.0
199.78653 172.0
199.820099 180.0
199.858704 140.0
199.889969 308.0
199.928467 156.0
199.964539 208.0
200.024857 384.0
200.087509 60680.0
200.155655 156.0
200.16217 40.0
200.182022 48.0
200.192383 168.0
200.202972 168.0
200.223831 80.0
200.257706 64.0
200.275665 148.0
200.306366 120.0
200.350845 112.0
200.373749 44.0
200.401016 248.0
200.430603 272.0
200.501236 128.0
200.528122 252.0
200.568527 64.0
200.59407 108.0
200.616623 68.0
200.678635 68.0
200.701202 100.0
200.731369 140.0
200.743286 156.0
200.802429 180.0
200.829086 80.0
200.861069 168.0
200.884506 196.0
200.942871 240.0
200.989395 152.0
201.009933 132.0
201.091003 8536.0
201.173874 140.0
201.270142 100.0
201.29805 208.0
201.365158 84.0
201.414581 92.0
201.453827 364.0
201.498398 132.0
201.545471 224.0
201.59877 312.0
201.632751 260.0
201.654068 236.0
201.678268 352.0
201.699127 172.0
201.719482 152.0
201.760956 200.0
201.805649 124.0
201.824417 92.0
201.858902 184.0
201.910263 344.0
201.945435 316.0
201.967484 460.0
202.008698 296.0
202.029663 340.0
202.099396 1348.0
202.135162 291892.0
202.223038 180.0
202.241852 132.0
202.246979 144.0
202.300751 164.0
202.327042 216.0
202.395813 296.0
202.447449 324.0
202.475662 260.0
202.493576 44.0
202.498962 168.0
202.539261 172.0
202.569763 252.0
202.600647 3592.0
202.639923 240.0
202.67807 80.0
202.707596 100.0
202.741699 156.0
202.789017 116.0
202.810059 208.0
202.820847 160.0
202.849655 188.0
202.888229 160.0
202.927338 112.0
202.950638 100.0
202.989426 296.0
203.027771 212.0
203.046753 184.0
203.087753 352.0
203.137299 50688.0
203.199875 84.0
203.228851 228.0
203.248764 160.0
203.271317 52.0
203.307373 104.0
203.316864 100.0
203.340118 168.0
203.363922 112.0
203.373398 68.0
203.39859 100.0
203.427536 144.0
203.455551 68.0
203.484085 104.0
203.521896 156.0
203.561172 44.0
203.594193 80.0
203.626541 220.0
203.665131 192.0
203.734848 64.0
203.766693 136.0
203.79071 56.0
203.809723 68.0
203.853577 176.0
203.891479 52.0
203.917053 28.0
203.949432 80.0
203.970428 212.0
204.026871 44.0
204.054413 184.0
204.089081 220.0
204.140793 2412.0
204.210373 120.0
204.252472 124.0
204.271591 292.0
204.307053 96.0
204.32872 176.0
204.370697 164.0
204.395798 124.0
204.433151 112.0
204.44223 192.0
204.465408 64.0
204.485062 112.0
204.509567 140.0
204.540817 52.0
204.568985 172.0
204.590347 72.0
204.594833 172.0
204.629745 136.0
204.6483 160.0
204.679749 224.0
204.723969 360.0
204.767349 112.0
204.793304 376.0
204.83609 208.0
204.873276 76.0
204.886917 76.0
204.915848 136.0
204.938644 44.0
204.974655 44.0
204.995636 68.0
205.033875 76.0
205.062607 44.0
205.138138 160.0
205.170441 84.0
205.196457 96.0
205.226517 148.0
205.311432 36.0
205.316452 52.0
205.32933 72.0
205.341599 56.0
205.35025 92.0
205.406006 64.0
205.417831 112.0
205.437881 140.0
205.468948 68.0
205.506485 100.0
205.529633 104.0
205.572784 112.0
205.625885 88.0
205.645508 64.0
205.736267 196.0
205.774323 64.0
205.805725 80.0
205.828568 76.0
205.865692 44.0
205.902817 64.0
206.028488 52.0
206.08786 108.0
206.177078 56.0
206.225662 48.0
206.24852 72.0
206.279297 68.0
206.357147 176.0
206.405762 116.0
206.465805 60.0
206.486954 92.0
206.540176 112.0
206.597382 128.0
206.646622 152.0
206.686081 76.0
206.714691 104.0
206.766205 64.0
206.799347 44.0
206.88356 124.0
206.940811 60.0
206.969452 100.0
207.006668 56.0
207.142715 40.0
207.178528 52.0
207.22908 96.0
207.304581 56.0
207.36763 52.0
207.433563 124.0
207.726044 100.0
207.774811 56.0
207.85228 80.0
208.047455 64.0
208.215469 116.0
208.348984 80.0
208.452423 48.0
208.587494 76.0
208.630615 52.0
209.039597 180.0
209.110977 176.0
209.413284 140.0
209.586136 28.0
209.828232 64.0
209.891663 308.0
210.03009 40.0
210.065567 124.0
210.177231 56.0
210.252258 104.0
210.448639 112.0
210.623779 112.0
210.656479 60.0
210.676697 108.0
210.760483 100.0
210.861618 96.0
211.009048 40.0
211.075546 324.0
211.295364 68.0
211.416885 36.0
211.573181 36.0
211.712173 56.0
211.920731 84.0
211.966614 148.0
211.989746 192.0
212.022141 164.0
212.051132 176.0
212.08754 2716.0
212.140976 76.0
212.172867 80.0
212.19606 132.0
212.268555 76.0
212.474472 36.0
212.552811 44.0
212.610855 84.0
212.671799 68.0
212.728577 136.0
212.771103 76.0
212.863403 76.0
213.088043 568.0
213.159698 80.0
213.316635 48.0
213.383499 60.0
213.430023 76.0
213.463516 108.0
213.517258 64.0
213.566711 36.0
213.607422 32.0
213.642334 36.0
213.665604 76.0
213.700516 56.0
213.851837 72.0
213.924606 48.0
213.973053 56.0
214.089523 1468.0
214.130676 288.0
214.26825 52.0
214.355652 104.0
214.486801 56.0
214.518875 40.0
214.556763 36.0
214.62674 60.0
214.667557 48.0
214.778381 48.0
214.801727 48.0
214.836731 80.0
214.921341 80.0
215.026382 100.0
215.052658 108.0
215.098129 1480.0
215.268463 100.0
215.341705 120.0
215.575409 168.0
215.595871 56.0
215.674789 84.0
215.747864 84.0
215.914673 84.0
215.99057 152.0
216.102005 268.0
216.341721 92.0
216.382706 96.0
216.493973 164.0
216.526184 128.0
216.60527 32.0
216.65506 84.0
216.810364 100.0
216.918808 68.0
217.464371 120.0
217.546555 52.0
217.60527 220.0
217.739365 128.0
217.807907 48.0
217.937164 60.0
218.001801 160.0
218.051773 64.0
218.084747 180.0
218.142883 56.0
218.442825 40.0
218.7724 120.0
218.937286 44.0
219.273148 68.0
219.364517 208.0
219.452957 84.0
219.532562 44.0
219.680038 68.0
220.208252 84.0
220.403366 64.0
220.559998 64.0
220.769913 100.0
220.920746 88.0
220.976959 140.0
221.083481 124.0
221.107162 136.0
221.512787 172.0
221.895081 36.0
222.052246 116.0
222.197586 68.0
222.843216 88.0
223.056549 168.0
223.558441 144.0
223.629868 192.0
224.091431 140.0
224.559448 136.0
224.660858 112.0
225.153351 96.0
225.395325 212.0
225.46405 208.0
225.975372 48.0
226.098053 136.0
226.136963 156.0
226.418381 32.0
226.592117 156.0
226.61908 52.0
226.792892 172.0
226.867828 36.0
226.924789 128.0
226.954773 184.0
226.97876 108.0
227.093094 280.0
227.144775 148.0
227.206711 100.0
227.73201 108.0
227.816116 140.0
227.873199 128.0
228.056503 108.0
228.1138 132.0
228.154434 256.0
228.233871 196.0
228.281982 88.0
228.360184 116.0
228.579788 120.0
228.633957 88.0
228.791351 96.0
228.965118 140.0
228.995224 44.0
229.113754 14772.0
229.190125 68.0
229.260345 36.0
229.299515 44.0
229.323639 160.0
229.377747 164.0
229.51355 36.0
229.537674 100.0
229.558777 48.0
229.597427 64.0
229.652267 168.0
229.730698 176.0
229.803101 196.0
229.89061 60.0
229.923798 52.0
230.020386 68.0
230.074722 76.0
230.1138 2292.0
230.361603 60.0
230.542892 184.0
230.648666 40.0
230.717361 72.0
230.897491 136.0
231.127838 220.0
231.177948 40.0
231.359543 88.0
231.48671 100.0
231.576355 200.0
231.735077 64.0
231.838104 120.0
231.913879 124.0
231.983322 136.0
232.040543 208.0
232.124191 160.0
232.189774 72.0
232.233383 124.0
232.2565 88.0
232.471909 84.0
232.508316 80.0
232.535629 72.0
232.757248 132.0
233.325409 72.0
233.863815 48.0
234.04039 96.0
234.070831 80.0
234.483261 104.0
235.143906 56.0
235.48584 180.0
235.626358 52.0
235.803589 68.0
235.895279 112.0
236.167419 76.0
236.381577 164.0
236.614197 68.0
236.822418 132.0
237.065643 72.0
237.260605 44.0
237.288208 84.0
237.309662 104.0
237.380188 120.0
237.978516 236.0
238.046066 104.0
238.070633 184.0
238.393188 112.0
239.060501 156.0
239.211304 64.0
239.272873 40.0
239.633209 48.0
240.663361 48.0
240.762177 92.0
241.117447 124.0
241.322586 100.0
241.507019 104.0
241.884506 60.0
241.997772 68.0
242.023026 156.0
242.466797 148.0
242.934982 180.0
243.102524 40.0
243.136673 144.0
243.23909 72.0
243.987747 48.0
244.585007 100.0
244.712646 92.0
244.812286 72.0
245.522812 108.0
245.834763 64.0
246.356186 96.0
246.393677 100.0
246.706177 96.0
246.765579 100.0
246.846878 100.0
246.965714 136.0
246.994492 60.0
247.028275 80.0
247.666824 184.0
248.569717 36.0
251.09584 92.0
251.24408 48.0
251.900696 80.0
252.219833 180.0
252.40004 56.0
252.491745 52.0
253.051834 148.0
253.48259 96.0
253.904221 88.0
254.672272 76.0
254.808868 64.0
254.840637 132.0
255.005875 160.0
255.269745 128.0
255.680115 112.0
256.036682 108.0
257.181244 112.0
257.261047 104.0
257.286591 104.0
257.732605 104.0
258.014984 216.0
258.13327 64.0
259.407532 96.0
260.765259 100.0
260.797394 92.0
260.961334 56.0
262.158752 144.0
262.261871 104.0
263.229706 100.0
263.265228 120.0
263.468719 60.0
263.501038 100.0
263.63028 68.0
264.09259 76.0
264.22641 76.0
264.438782 44.0
264.629761 196.0
264.726929 136.0
264.825958 192.0
264.936401 176.0
265.024933 100.0
265.067047 224.0
265.365234 112.0
265.394409 96.0
265.426849 56.0
265.456024 188.0
265.506714 76.0
265.58252 40.0
265.637665 48.0
265.66037 108.0
265.689545 192.0
265.805237 332.0
265.835693 116.0
265.868011 92.0
265.963531 128.0
265.990509 164.0
266.034637 192.0
266.096222 49152.0
266.208344 144.0
266.254333 32.0
266.292358 208.0
266.375336 140.0
266.432404 68.0
266.43808 56.0
266.467346 160.0
266.494507 64.0
266.533691 176.0
266.592194 40.0
266.63501 40.0
266.693817 176.0
266.735199 68.0
266.757507 92.0
266.827789 100.0
266.874573 156.0
266.979034 64.0
267.008301 44.0
267.050903 232.0
267.09903 6648.0
267.154022 20.0
267.236603 44.0
267.269409 108.0
267.341461 108.0
267.408478 48.0
267.476593 120.0
267.620087 48.0
267.688568 116.0
267.753571 116.0
267.818726 40.0
267.864319 52.0
267.900146 56.0
267.962067 148.0
268.004425 28.0
268.09079 2492.0
268.291229 156.0
268.330322 60.0
268.434662 68.0
268.512939 72.0
268.584686 44.0
268.649933 48.0
268.693909 84.0
268.718445 40.0
268.741272 96.0
268.780426 96.0
268.829376 92.0
268.888123 140.0
268.920776 108.0
268.955383 92.0
268.986053 84.0
269.067505 136.0
269.104248 392.0
269.155823 104.0
269.335419 92.0
269.750397 64.0
269.822327 68.0
269.923676 56.0
270.105194 120.0
270.15918 64.0
270.633728 44.0
270.869507 76.0
270.977631 132.0
271.098267 68.0
271.511932 76.0
272.072998 120.0
272.871338 68.0
272.897644 200.0
272.98642 100.0
273.588531 36.0
273.657654 36.0
274.158325 60.0
274.837616 92.0
275.289856 40.0
275.547485 100.0
275.950684 80.0
276.271484 88.0
276.413757 64.0
276.757996 44.0
276.828644 84.0
277.06601 88.0
277.427216 88.0
277.450439 72.0
278.137085 72.0
278.173615 100.0
278.435913 136.0
278.617188 84.0
279.393188 116.0
279.446442 100.0
280.009003 64.0
280.688812 44.0
280.918945 112.0
281.082397 68.0
281.135803 108.0
281.159149 36.0
281.7034 44.0
282.194672 60.0
282.438782 28.0
282.659576 60.0
283.312469 68.0
283.855438 112.0
285.131073 148.0
285.208374 40.0
285.430267 92.0
285.961792 36.0
286.386017 96.0
286.837524 48.0
287.117371 88.0
287.944214 52.0
288.508484 40.0
289.076721 104.0
289.337341 64.0
289.777618 120.0
290.397949 52.0
290.5065 124.0
290.760986 64.0
291.742615 92.0
291.86499 88.0
292.181305 96.0
292.50119 92.0
292.647552 124.0
294.205597 56.0
294.762329 76.0
295.019745 96.0
295.309296 76.0
295.671967 148.0
296.154694 92.0
296.641266 44.0
296.997864 108.0
297.780426 56.0
297.886902 80.0
298.244263 76.0
298.577759 40.0
298.808228 88.0
299.896362 112.0
300.420502 68.0
300.630951 88.0
300.796631 72.0
302.127045 212.0
302.968292 44.0
303.172729 104.0
303.373749 76.0
303.619049 48.0
304.116058 152.0
304.859253 68.0
304.973938 48.0
305.272949 108.0
305.335541 88.0
305.50946 72.0
306.832825 56.0
307.125732 36.0
307.279236 36.0
308.389679 48.0
308.718292 76.0
309.83136 80.0
310.293945 56.0
310.932373 88.0
311.617096 56.0
311.947449 208.0
312.394043 96.0
313.799194 28.0
313.97818 84.0
315.037903 88.0
315.118042 136.0
316.254303 44.0
316.321564 40.0
316.72876 104.0
317.455322 104.0
318.839813 84.0
318.914429 108.0
319.753815 88.0
320.284302 132.0
320.498047 80.0
320.580017 52.0
321.607147 64.0
321.671387 84.0
321.871307 80.0
322.988068 100.0
323.233185 88.0
324.45813 48.0
324.899231 36.0
329.301514 104.0
329.51825 100.0
330.639191 48.0
331.584442 48.0
332.081146 64.0
333.06839 92.0
333.144653 136.0
333.191895 96.0
333.497131 140.0
333.649811 96.0
333.864319 44.0
333.915253 100.0
334.471924 44.0
334.701294 64.0
335.845581 104.0
335.874756 60.0
336.987335 84.0
337.807098 32.0
337.848938 156.0
339.007996 52.0
339.576233 48.0
340.04953 28.0
341.228668 164.0
341.611145 104.0
342.483521 52.0
343.14682 104.0
343.519287 52.0
343.66687 84.0
344.146149 136.0
344.445831 60.0
345.155396 124.0
345.639954 60.0
346.010071 84.0
346.165588 108.0
346.984436 108.0
347.949036 88.0
348.134674 84.0
348.769989 104.0
349.885956 100.0
351.246124 56.0
351.664001 72.0
352.676208 84.0
353.382965 40.0
353.465271 60.0
353.914459 64.0
353.989349 64.0
354.498596 76.0
354.727417 80.0
354.757416 92.0
355.192383 124.0
355.665161 76.0
355.83786 136.0
356.510193 120.0
358.135498 112.0
358.380341 44.0
359.179565 156.0
359.454987 72.0
359.621033 40.0
360.145844 88.0
360.176056 124.0
361.397125 40.0
361.529572 76.0
362.548279 68.0
362.96524 52.0
363.621521 96.0
363.758179 80.0
364.293579 68.0
364.730591 76.0
365.312378 60.0
365.628174 92.0
368.16333 104.0
370.201599 80.0
370.80307 60.0
371.769501 92.0
372.668671 48.0
374.040924 116.0
377.149841 56.0
379.581085 124.0
379.996094 44.0
380.896729 144.0
381.845123 56.0
381.981232 40.0
382.744049 116.0
384.126801 100.0
384.560669 88.0
385.220551 72.0
385.251801 100.0
387.196869 572.0
388.204926 156.0
388.504944 60.0
389.203308 136.0
389.623779 104.0
390.107147 120.0
390.211731 40.0
391.271606 84.0
391.586609 36.0
391.626007 136.0
392.378662 60.0
393.704437 104.0
394.901917 76.0
396.121033 96.0
396.184418 104.0
396.596527 96.0
397.135773 172.0
397.266663 64.0
397.758698 108.0
398.425842 76.0
399.602631 32.0
400.454498 48.0
401.155792 92.0
402.624084 116.0
403.831055 44.0
403.903046 64.0
404.139099 48.0
405.051849 76.0
405.564728 48.0
408.335083 104.0
408.560333 40.0
409.26062 44.0
409.37738 36.0
409.631134 60.0
413.563995 92.0
414.673737 60.0
415.878326 76.0
416.621429 100.0
416.751434 52.0
418.345673 32.0
419.119476 96.0
419.665649 104.0
420.175476 144.0
421.200104 44.0
422.991089 68.0
423.298157 60.0
423.822449 84.0
425.779144 60.0
426.687256 52.0
426.962738 56.0
427.061432 56.0
427.301392 60.0
427.793884 44.0
428.893677 48.0
430.886841 88.0
431.374481 56.0
432.661041 108.0
434.667053 76.0
434.733459 60.0
435.106995 60.0
436.224487 108.0
437.684784 100.0
439.021362 112.0
443.646759 56.0
445.257996 48.0
447.14566 96.0
447.309814 48.0
448.244781 48.0
448.969849 108.0
452.510803 100.0
453.845428 84.0
453.998077 64.0
455.165039 52.0
455.487793 56.0
455.58551 52.0
457.107605 56.0
457.154419 64.0
457.920715 52.0
458.636505 96.0
459.425385 36.0
460.159424 52.0
460.979523 68.0
461.710541 52.0
463.397064 52.0
464.052795 88.0
464.258636 124.0
465.747894 92.0
470.656219 76.0
471.080597 100.0
471.378723 56.0
472.615356 48.0
476.439331 96.0
476.526215 92.0
477.578217 104.0
478.79248 40.0
482.352753 124.0
482.763733 148.0
483.682495 72.0
483.826965 60.0
483.9758 84.0
484.505768 92.0
485.413025 56.0
486.99292 116.0
487.603607 88.0
488.636963 56.0
489.270691 84.0
492.401398 76.0
494.054535 40.0
494.722748 76.0
495.174408 72.0
496.920898 96.0
499.399658 76.0
504.156677 48.0
505.583252 60.0
506.657867 100.0
506.899811 88.0
507.630463 52.0
511.498718 92.0
512.791443 104.0
515.01123 64.0
515.39978 76.0
516.254089 52.0
516.882874 84.0
517.679565 64.0
517.964905 64.0
519.03894 80.0
521.06781 56.0
522.258789 48.0
524.353149 100.0
526.232483 60.0
531.794434 52.0
533.254944 68.0
533.907776 56.0
534.252747 44.0
534.860168 88.0
536.214294 112.0
537.403992 120.0
538.10553 40.0
540.263794 44.0
541.314392 104.0
543.660034 64.0
546.596863 60.0
549.513611 48.0
551.619812 44.0
552.03595 104.0
552.606567 56.0
553.90332 56.0
554.540527 80.0
555.140625 96.0
555.689453 36.0
556.576538 64.0
556.919312 124.0
557.628784 84.0
558.644409 92.0
562.961731 48.0
567.016052 36.0
567.348633 92.0
567.679749 76.0
568.125549 36.0
568.737671 104.0
568.81366 64.0
572.074585 56.0
573.422546 100.0
573.908813 100.0
574.00415 72.0
574.309387 72.0
575.445129 100.0
575.726868 112.0
576.285706 36.0
576.338257 104.0
583.551697 64.0
583.657471 88.0
584.157654 56.0
584.946838 52.0
588.268127 84.0
591.613342 56.0
591.966797 48.0
592.872681 60.0
595.031189 104.0
599.096802 64.0
599.252258 88.0
599.652283 108.0
600.612793 68.0
602.702271 56.0
603.327881 116.0
605.191895 40.0
605.280029 76.0
605.755066 28.0
611.55896 132.0
613.046265 76.0
613.98291 52.0
614.446594 128.0
618.370056 56.0
622.956543 76.0
623.851013 160.0
626.742615 72.0
628.018799 140.0
630.250305 104.0
634.404236 92.0
635.728394 68.0
636.385925 48.0
639.210754 80.0
640.489502 72.0
643.525391 112.0
644.373901 52.0
648.721069 104.0
649.688599 60.0
652.370972 44.0
654.920288 84.0
658.669312 96.0
663.987183 80.0
664.664307 64.0
665.480408 36.0
666.029907 104.0
666.502502 84.0
669.120483 68.0
671.557861 76.0
672.357544 44.0
673.472717 48.0
676.430359 64.0
678.139648 180.0
682.058411 60.0
682.344299 80.0
684.087036 76.0
685.368225 56.0
686.760132 52.0
686.86969 64.0
686.973999 28.0
688.038574 104.0
688.226562 112.0
689.673584 92.0
691.561768 96.0
693.028076 68.0
693.405334 64.0
695.036255 212.0
695.10968 48.0
698.498352 76.0
701.378662 168.0
703.108582 32.0
703.91626 120.0
703.979614 80.0
704.613464 104.0
706.643616 48.0
706.855286 56.0
707.733948 92.0
708.819824 172.0
710.680908 80.0
712.533875 48.0
716.033936 136.0
716.209656 224.0
716.891602 60.0
720.242126 100.0
722.824341 52.0
725.486206 44.0
728.115356 40.0
732.676636 96.0
733.937805 64.0
735.388977 64.0
740.503662 216.0
741.598083 68.0
741.809448 88.0
743.767639 104.0
747.240173 136.0
747.82782 148.0
749.423401 112.0
751.282532 84.0
755.527222 176.0
755.784363 40.0
755.899292 144.0
756.780518 36.0
757.487 84.0
758.977661 100.0
760.167969 148.0
765.274353 112.0
766.838806 104.0
770.154785 224.0
770.718262 44.0
771.77948 40.0
774.086914 28.0
775.566101 40.0
778.23999 116.0
778.484314 64.0
779.095276 116.0
779.278625 72.0
782.587952 92.0
784.125427 64.0
784.978333 176.0
785.960083 72.0
786.328369 56.0
786.613037 128.0
787.182495 144.0
788.322083 152.0
790.184021 64.0
790.318298 144.0
790.693237 64.0
797.024353 48.0
797.867371 64.0
798.103516 140.0
798.994385 180.0
801.621582 96.0
804.89325 56.0
812.403687 64.0
813.82251 136.0
819.37915 92.0
820.205444 120.0
821.944885 128.0
825.263428 124.0
826.086975 68.0
826.945251 148.0
827.489075 136.0
830.394348 180.0
831.071228 160.0
833.069153 96.0
833.701172 52.0
834.902649 80.0
835.265015 52.0
836.450378 72.0
839.302124 128.0
839.780762 172.0
840.571106 144.0
841.869934 136.0
841.921936 172.0
842.776855 148.0
845.135864 128.0
845.500427 64.0
846.264526 84.0
846.617737 136.0
847.260681 164.0
848.999512 40.0
849.863831 48.0
850.258423 88.0
850.45575 176.0
853.755737 88.0
854.628235 132.0
855.291687 200.0
855.518738 140.0
855.629333 96.0
855.809814 68.0
856.840698 124.0
857.446716 168.0
857.592407 92.0
859.861145 60.0
860.614197 120.0
860.771851 76.0
861.33252 132.0
861.601257 120.0
861.758972 192.0
863.173462 132.0
867.998474 40.0
868.356201 84.0
870.005005 104.0
871.485046 144.0
874.584167 164.0
874.778381 168.0
876.303711 172.0
876.427429 100.0
876.657227 136.0
877.358643 204.0
881.277466 92.0
883.19281 156.0
883.660156 196.0
883.991516 188.0
885.021484 84.0
886.425293 104.0
887.320251 200.0
887.676025 76.0
888.103027 136.0
891.243469 164.0
894.615601 60.0
895.097839 196.0
896.146179 72.0
896.938721 56.0
899.145569 108.0
900.57843 36.0
901.301331 160.0
901.659851 140.0
901.875 140.0
903.076782 136.0
903.160522 208.0
903.447693 152.0
905.482788 180.0
905.656494 228.0
908.016357 244.0
910.29834 52.0
913.219055 140.0
913.790527 48.0
914.75946 140.0
915.560242 156.0
916.825317 136.0
918.031006 120.0
918.597961 216.0
921.314453 84.0
922.823059 188.0
923.375671 84.0
924.676392 116.0
925.529968 168.0
926.608032 172.0
926.717102 288.0
928.972351 80.0
929.03302 188.0
931.224304 88.0
931.363953 204.0
931.528015 48.0
932.080872 128.0
932.49408 164.0
933.089783 124.0
933.624878 128.0
933.679626 52.0
934.068848 148.0
934.79895 184.0
936.119934 60.0
937.106689 116.0
937.265076 200.0
938.746338 180.0
940.393494 84.0
941.290894 168.0
941.919983 152.0
942.842529 220.0
943.240479 184.0
944.028503 108.0
946.004761 192.0
946.114929 140.0
946.868103 132.0
946.917053 132.0
947.762451 152.0
948.363037 248.0
948.510132 112.0
949.166077 156.0
949.350098 44.0
950.153564 136.0
950.834656 208.0
951.000366 64.0
951.628601 200.0
951.902832 148.0
952.461731 184.0
952.541565 180.0
953.057617 48.0
954.760376 128.0
955.074036 176.0
955.270874 120.0
955.523132 192.0
956.680054 36.0
957.166443 132.0
959.544739 160.0
961.185425 136.0
962.117371 48.0
962.222351 172.0
962.419922 176.0
962.549561 76.0
962.605164 104.0
963.03125 148.0
964.155701 120.0
965.299316 204.0
965.971985 164.0
966.177612 156.0
966.524109 132.0
967.471008 96.0
969.161804 48.0
970.097656 140.0
970.289795 124.0
971.281982 144.0
971.50531 164.0
972.386414 128.0
973.986206 120.0
974.342407 156.0
974.882935 208.0
976.343872 116.0
977.762268 180.0
978.285156 168.0
978.403442 136.0
980.190979 144.0
980.795471 152.0
980.943909 128.0
981.406433 40.0
982.005066 128.0
982.217163 152.0
982.279541 136.0
982.884644 252.0
983.084351 152.0
983.908264 176.0
984.482666 100.0
986.882141 176.0
987.720154 64.0
988.070496 232.0
988.852661 188.0
989.372192 72.0
990.048401 228.0
990.123596 188.0
991.075745 164.0
991.25116 88.0
991.629089 156.0
991.783875 196.0
992.304199 184.0
993.389099 192.0
996.239075 160.0
996.364746 196.0
996.433838 176.0
996.760559 208.0
997.043335 160.0
997.653015 176.0
997.917114 136.0
998.382385 184.0
999.03656 108.0
999.646851 180.0
999.923767 132.0
1000.251038 164.0
1000.389526 160.0
1000.446167 156.0
1000.559509 176.0
1000.685425 180.0
1001.730835 164.0
1003.507996 156.0
1004.018738 96.0
1004.220581 204.0
1004.655823 32.0
1006.397705 156.0
1007.180786 44.0
1007.243958 172.0
1007.515564 148.0
1010.385742 196.0
1012.442871 44.0
1012.51886 176.0
1013.240967 168.0
1014.609863 76.0
1014.907837 140.0
1016.848999 140.0
1017.375854 104.0
1018.029846 112.0
1018.213989 184.0
1020.336304 136.0
1021.048462 136.0
1021.506409 56.0
1022.549927 268.0
1023.644897 136.0
1023.778625 120.0
1024.192627 152.0
1024.396362 188.0
1024.60022 228.0
1025.702759 240.0
1026.257324 220.0
1026.37854 152.0
1026.646362 132.0
1028.802856 168.0
1028.885864 220.0
1029.1604 84.0
1029.345581 140.0
1029.454224 148.0
1030.77002 156.0
1032.758301 148.0
1032.803101 48.0
1033.206055 128.0
1033.385254 124.0
1033.807495 108.0
1034.370728 152.0
1034.530762 160.0
1035.113403 200.0
1036.264404 148.0
1037.42627 148.0
1037.875122 148.0
1038.259888 232.0
1038.497192 156.0
1038.676758 76.0
1041.231201 204.0
1041.30835 64.0
1041.468872 228.0
1041.533081 192.0
1041.616577 56.0
1041.809326 156.0
1041.950684 124.0
1042.368286 204.0
1042.811768 144.0
1043.133057 164.0
1043.460938 164.0
1044.104004 44.0
1045.191162 192.0
1045.313354 72.0
1045.892578 140.0
1046.028564 184.0
1046.150024 168.0
1046.291748 180.0
1047.470215 76.0
1048.533325 72.0
1049.609863 108.0
1050.170898 204.0
1050.286987 204.0
1050.422485 164.0
1050.499878 80.0
1050.744995 108.0
1051.13208 204.0
1051.190186 112.0
1051.467651 92.0
1052.255249 140.0
1052.655518 120.0
1052.888062 148.0
1052.965454 176.0
1053.062378 252.0
1053.905151 176.0
1054.005493 168.0
1054.0896 64.0
1054.134766 152.0
1054.600098 164.0
1055.273315 144.0
1055.362915 84.0
1055.647461 220.0
1056.177734 52.0
1056.345947 124.0
1056.915283 196.0
1057.458862 136.0
1057.551758 212.0
1059.077515 216.0
1059.524414 244.0
1060.794678 188.0
1061.118774 192.0
1061.605103 208.0
1061.741211 144.0
1062.532593 128.0
1063.194458 100.0
1063.259277 144.0
1063.862915 184.0
1063.966797 144.0
1065.233154 128.0
1065.648926 176.0
1065.928345 188.0
1067.052734 124.0
1067.254395 176.0
1067.37793 144.0
1067.611938 152.0
1067.735596 240.0
1067.787598 164.0
1067.969727 208.0
1069.036621 196.0
1069.53125 180.0
1071.439209 152.0
1071.595581 220.0
1072.240723 44.0
1072.429688 80.0
1072.599243 200.0
1072.7948 208.0
1073.342407 164.0
1073.772827 200.0
1073.844482 196.0
1074.248901 156.0
1074.353271 156.0
1074.640381 160.0
1074.72522 136.0
1076.186035 188.0
1077.323608 136.0
1077.611084 64.0
1078.44751 132.0
1078.839844 204.0
1079.107788 160.0
1079.218872 108.0
1079.918701 100.0
1080.0625 56.0
1080.74292 156.0
1081.587158 176.0
1081.731079 200.0
1082.680542 212.0
1083.099609 100.0
1083.636841 112.0
1083.682739 140.0
1083.738525 156.0
1084.547729 176.0
1085.314697 56.0
1085.360596 168.0
1085.767212 156.0
1086.200073 176.0
1086.70166 148.0
1086.823364 220.0
1086.928345 228.0
1088.208252 28.0
1088.385498 184.0
1088.58252 148.0
1088.779541 48.0
1088.878052 128.0
1089.258911 148.0
1089.302734 156.0
1089.731934 192.0
1089.797607 188.0
1089.89624 160.0
1090.908325 172.0
1093.625 44.0
1093.796143 84.0
1093.986938 140.0
1094.30957 168.0
1095.297363 168.0
1095.435669 196.0
1095.672852 144.0
1096.358154 184.0
1096.476807 184.0
1096.89856 172.0
1097.524902 152.0
1098.065674 160.0
1098.157959 152.0
1098.217285 204.0
1098.527344 64.0
1098.72522 128.0
1099.292725 108.0
1099.531738 224.0
1099.847046 120.0
1100.03186 268.0
1100.388428 132.0
1100.830811 260.0
1100.896851 156.0
1101.240234 240.0
1102.204712 144.0
1102.32373 184.0
1103.572998 172.0
1103.64563 88.0
1104.168091 184.0
1104.498779 216.0
1104.77002 172.0
1104.948608 104.0
1105.319092 188.0
1105.464722 168.0
1105.583862 160.0
1105.709595 164.0
1106.02063 132.0
1106.219238 156.0
1106.829102 228.0
1107.371338 88.0
1107.430908 152.0
1108.868652 212.0
1109.080811 172.0
1109.578247 164.0
1109.770264 180.0
1109.81665 84.0
1110.081909 124.0
1110.559326 192.0
1111.322266 88.0
1114.07312 228.0
1114.19043 112.0
1114.303345 160.0
1114.708618 116.0
1114.874756 192.0
1115.140625 156.0
1115.406494 136.0
1115.466309 180.0
1115.925049 176.0
1116.02478 148.0
1116.091187 264.0
1116.284058 220.0
1116.437012 28.0
1116.5625 132.0
1117.002319 124.0
1117.654297 128.0
1117.873901 100.0
1117.927124 156.0
1119.484863 164.0
1119.86084 216.0
1120.497314 176.0
1120.79126 188.0
1120.923706 148.0
1121.036987 36.0
1121.290283 100.0
1121.536865 200.0
1122.490234 108.0
1122.923706 152.0
1123.036987 144.0
1123.317139 176.0
1123.383911 184.0
1123.710815 140.0
1125.032227 196.0
1125.098999 148.0
1125.205811 212.0
1125.352661 124.0
1126.260864 196.0
1126.975708 204.0
1127.58374 104.0
1127.877808 140.0
1129.141479 136.0
1129.215088 44.0
1129.382324 168.0
1129.783691 140.0
1129.870605 32.0
1130.098022 148.0
1130.412598 108.0
1130.57312 108.0
1131.068481 232.0
1132.099487 124.0
1133.01709 168.0
1133.09082 148.0
1133.841309 160.0
1135.021118 108.0
1135.872803 132.0
1136.013672 136.0
1136.973145 116.0
1138.490356 156.0
1138.550781 104.0
1139.074707 72.0
1139.222534 168.0
1139.961548 108.0
1140.08252 144.0
1140.270752 128.0
1140.432007 64.0
1140.660522 44.0
1140.815186 220.0
1141.695923 112.0
1141.924561 160.0
1142.052368 144.0
1142.813721 180.0
1143.344116 144.0
1143.714355 148.0
1143.80188 152.0
1144.091309 104.0
1144.313477 136.0
1144.879028 52.0
1144.953125 92.0
1145.300781 216.0
1145.950073 128.0
1146.718262 148.0
1146.94751 128.0
1147.014893 208.0
1147.142944 184.0
1147.29126 176.0
1147.783447 200.0
1147.894531 188.0
1148.073364 248.0
1148.150757 144.0
1148.613159 120.0
1148.815308 68.0
1149.037964 96.0
1149.166138 152.0
1149.287598 104.0
1149.463013 152.0
1149.86792 160.0
1150.232422 156.0
1150.630737 244.0
1150.900757 144.0
1151.468018 152.0
1151.704346 132.0
1152.359619 164.0
1152.406982 164.0
1152.562378 68.0
1152.704224 144.0
1153.062378 180.0
1153.468018 152.0
1153.70459 176.0
1153.988525 160.0
1154.279297 152.0
1154.461792 156.0
1154.712036 76.0
1154.786499 68.0
1154.83374 168.0
1155.469604 120.0
1155.719971 204.0
1155.780884 152.0
1155.929688 156.0
1156.430542 164.0
1156.816406 152.0
1157.21582 168.0
1157.489502 180.0
1157.540771 208.0
1158.028442 160.0
1158.827759 152.0
1159.058105 64.0
1159.105591 204.0
1159.180054 124.0
1159.302002 32.0
1159.837524 132.0
1160.508667 200.0
1160.85437 160.0
1161.051025 144.0
1161.159546 164.0
1161.417358 44.0
1161.951538 176.0
1162.238159 148.0
1162.350342 176.0
1162.896484 208.0
1162.950806 216.0
1164.729736 140.0
1164.797607 188.0
1164.909424 192.0
1165.028564 152.0
1165.232422 152.0
1165.320679 124.0
1165.612915 132.0
1165.748779 84.0
1166.102173 196.0
1166.156494 200.0
1166.408081 192.0
1166.911133 196.0
1167.026733 180.0
1167.121826 172.0
1167.406128 204.0
1167.910767 96.0
1167.971924 184.0
1168.108032 168.0
1168.162476 140.0
1168.366455 136.0
1168.672607 184.0
1169.169434 140.0
1169.516479 148.0
1169.788818 132.0
1170.061035 232.0
1170.217651 132.0
1170.789673 128.0
1171.307251 168.0
1171.392456 152.0
1171.682007 160.0
1171.741577 196.0
1171.889526 172.0
1172.267944 76.0
1172.465576 108.0
1172.550781 120.0
1172.724487 160.0
1172.81311 108.0
1172.874512 148.0
1172.969849 56.0
1173.322266 188.0
1173.40625 52.0
1173.515259 180.0
1173.713013 124.0
1173.801636 188.0
1174.013062 224.0
1174.125854 140.0
1174.545044 132.0
1174.927856 160.0
1175.261353 188.0
1175.418335 164.0
1176.193604 236.0
1176.643555 140.0
1177.1521 96.0
1177.276978 340.0
1177.835083 124.0
1178.415771 60.0
1178.648071 88.0
1178.880371 176.0
1179.386108 188.0
1179.645874 232.0
1179.768921 136.0
1180.113892 160.0
1180.587158 156.0
1181.334961 148.0
1181.410156 148.0
1181.724854 212.0
1182.087524 48.0
1182.231201 120.0
1182.566528 168.0
1182.785645 128.0
1182.888306 144.0
1182.970459 104.0
1183.401733 192.0
1183.600342 144.0
1183.83313 112.0
1183.949585 108.0
1184.291992 148.0
1184.54541 164.0
1184.771484 232.0
1184.853638 136.0
1184.949585 140.0
1185.312744 108.0
1185.429199 72.0
1185.682739 172.0
1186.046021 168.0
1186.224243 164.0
1186.327026 112.0
1186.813843 112.0
1187.156738 144.0
1187.314453 180.0
1187.465332 212.0
1187.533936 60.0
1187.767822 112.0
1187.99353 164.0
1188.247314 152.0
1188.590332 72.0
1188.713867 184.0
1188.782471 152.0
1189.276611 252.0
1189.585571 128.0
1189.710571 180.0
1189.942505 140.0
1190.478027 96.0
1190.690918 172.0
1191.322876 144.0
1191.391602 196.0
1192.058105 132.0
1192.113037 108.0
1192.731567 188.0
1193.467163 244.0
1193.652832 228.0
1193.94165 156.0
1194.244263 140.0
1194.512451 128.0
1194.6521 236.0
1194.849609 108.0
1195.018311 140.0
1195.585815 204.0
1195.923096 144.0
1196.022949 156.0
1196.074463 188.0
1196.136475 72.0
1197.010864 68.0
1197.100342 176.0
1197.172607 204.0
1197.396484 140.0
1197.506592 176.0
1197.647217 40.0
1197.96814 180.0
1198.401978 148.0
1198.642822 180.0
1198.884521 136.0
1199.180908 32.0
1199.26355 164.0
1199.827271 88.0
1200.083862 196.0
1200.235596 72.0
1200.542114 172.0
1200.856201 68.0
1200.911499 108.0
1200.994263 128.0
1201.125244 124.0
1201.242554 140.0
1201.290771 160.0
1201.470215 232.0
1201.552979 120.0
1201.628906 156.0
1201.794434 124.0
1202.056641 100.0
1202.594971 164.0
1202.705322 192.0
1202.947021 100.0
1203.258179 208.0
1203.430176 164.0
1203.692627 336.0
1204.113892 156.0
1204.203613 184.0
1204.535156 220.0
1204.919922 220.0
1204.947998 152.0
1204.964722 184.0
1205.302002 216.0
1206.186646 160.0
1206.255737 148.0
1206.580688 156.0
1206.691284 112.0
1206.760498 236.0
1206.864136 160.0
1207.310669 188.0
1208.053711 132.0
1208.337402 48.0
1208.489502 148.0
1208.537964 104.0
1208.738647 184.0
1208.821655 120.0
1208.899658 176.0
1209.25769 172.0
1209.430664 112.0
1209.596802 36.0
1209.865234 164.0
1210.157593 144.0
1210.256226 132.0
1210.836182 60.0
1211.035645 144.0
1211.169189 204.0
1211.431885 152.0
1211.515015 112.0
1211.570435 208.0
1211.688232 200.0
1211.812866 228.0
1211.895996 148.0
1212.020752 176.0
1212.388062 48.0
1212.450439 116.0
1212.665283 96.0
1212.893921 196.0
1213.573364 220.0
1214.544189 100.0
1215.099243 84.0
1215.161621 132.0
1215.224121 112.0
1215.293457 152.0
1215.536377 220.0
1215.724731 196.0
1215.897217 124.0
1216.056763 180.0
1216.216431 64.0
1216.542725 136.0
1216.806519 116.0
1217.084229 152.0
1217.153687 120.0
1217.209229 128.0
1217.938354 108.0
1218.125977 136.0
1218.299683 64.0
1218.611572 176.0
1218.855469 152.0
1219.418335 236.0
1219.612915 168.0
1219.946655 144.0
1220.182983 124.0
1220.315063 228.0
1220.903931 232.0
1221.53418 172.0
1221.664307 200.0
1222.680176 156.0
1223.000244 176.0
1223.334351 104.0
1224.197754 92.0
1224.253418 112.0
1224.385742 116.0
1224.922119 128.0
1225.016113 364.0
1225.242554 108.0
1225.806885 204.0
1225.883545 156.0
1226.162354 104.0
1226.587402 68.0
1226.901123 176.0
1227.166138 148.0
1227.744873 192.0
1228.023804 92.0
1228.288818 200.0
1228.498413 200.0
1228.958618 140.0
1229.286499 124.0
1229.775024 208.0
1229.858765 180.0
1229.970459 200.0
1230.298584 104.0
1230.717529 148.0
1230.864136 136.0
1231.122437 132.0
1231.415771 156.0
1231.629517 180.0
1231.841919 168.0
1231.967651 164.0
1232.142212 80.0
1232.792114 104.0
1233.043701 172.0
1233.316284 148.0
1233.609863 68.0
1233.791626 160.0
1234.155151 128.0
1234.281006 40.0
1234.735596 188.0
1234.884644 208.0
1235.050293 152.0
1235.260132 156.0
1235.32312 112.0
1235.560913 156.0
1235.73584 36.0
1235.861816 252.0
1235.945679 124.0
1236.283325 356.0
1236.358643 128.0
1236.449585 140.0
1236.848511 168.0
1237.108398 224.0
1237.252686 148.0
1237.345581 84.0
1237.394531 188.0
1237.499512 204.0
1238.02478 48.0
1238.255859 124.0
1238.444946 136.0
1238.683105 56.0
1238.809204 200.0
1239.040405 172.0
1239.292603 220.0
1239.465942 116.0
1239.671021 168.0
1239.811157 72.0
1240.203613 164.0
1240.336792 168.0
1240.41394 112.0
1240.753174 120.0
1241.416504 96.0
1241.654907 132.0
1241.851318 220.0
1241.998535 164.0
1242.124878 124.0
1242.180908 124.0
1242.86145 132.0
1242.934692 176.0
1243.289551 164.0
1243.542236 144.0
1243.605347 152.0
1243.818726 184.0
1243.865112 176.0
1244.039185 184.0
1244.16687 68.0
1244.412598 104.0
1244.679443 36.0
1244.877075 172.0
1245.395752 280.0
1245.564331 120.0
1245.676758 48.0
1245.775635 224.0
1246.154419 208.0
1246.330078 172.0
1246.438721 328.0
1246.547974 292.0
1246.597168 112.0
1246.990723 104.0
1247.125488 160.0
1248.164673 136.0
1248.445923 112.0
1248.811646 208.0
1249.458862 152.0
1249.578369 136.0
1249.916138 180.0
1250.049805 184.0
1250.197632 168.0
1250.394653 100.0
1250.465088 128.0
1250.633911 120.0
1251.056274 112.0
1251.281616 192.0
1251.527954 136.0
1251.746338 136.0
1251.830811 116.0
1252.436523 160.0
1253.087769 164.0
1253.866699 44.0
1253.986572 124.0
1254.042969 128.0
1254.599731 124.0
1254.776001 112.0
1255.058105 128.0
1255.262573 128.0
1255.784424 148.0
1255.852051 120.0
1255.90979 216.0
1256.003052 188.0
1256.571899 132.0
1256.906128 144.0
1257.050903 188.0
1257.202393 180.0
1257.273071 180.0
1257.336548 108.0
1257.703491 56.0
1257.922363 160.0
1258.141235 148.0
1258.233032 172.0
1258.374146 120.0
1258.557739 140.0
1258.755493 96.0
1259.242798 212.0
1259.48999 96.0
1259.737183 192.0
1259.83606 252.0
1259.913818 76.0
1260.189331 184.0
1260.24585 108.0
1260.733398 172.0
1261.023193 108.0
1261.263428 140.0
1261.397827 304.0
1261.758301 180.0
1261.810547 196.0
1262.628052 212.0
1262.755493 180.0
1262.83313 204.0
1262.925049 96.0
1263.887207 196.0
1264.000366 212.0
1264.278809 228.0
1264.354248 156.0
1264.446289 156.0
1264.71521 84.0
1264.849731 160.0
1265.080322 124.0
1265.416016 164.0
1265.84082 180.0
1265.997314 196.0
1266.159546 108.0
1266.302856 104.0
1266.371948 180.0
1266.522583 188.0
1266.592407 160.0
1266.761597 80.0
1267.450195 136.0
1267.661377 188.0
1267.78186 224.0
1267.921265 148.0
1268.355957 240.0
1268.530518 176.0
1268.703247 164.0
1268.930176 144.0
1269.220825 52.0
1269.437744 136.0
1269.671875 164.0
1269.880371 124.0
1270.08606 88.0
1270.213745 212.0
1270.653564 120.0
1271.199829 88.0
1271.483765 36.0
1271.682495 272.0
1271.895386 124.0
1271.952148 172.0
1272.569824 188.0
1272.662109 316.0
1272.718872 152.0
1272.768677 128.0
1272.882202 64.0
1273.031372 76.0
1273.215942 160.0
1273.272827 224.0
1273.414795 216.0
1273.713135 144.0
1274.011475 88.0
1274.146484 184.0
1274.444946 160.0
1274.702271 220.0
1274.984985 104.0
1275.05603 180.0
1275.134155 28.0
1275.18396 96.0
1275.240845 164.0
1275.347412 176.0
1275.395386 140.0
1275.567749 136.0
1275.96582 132.0
1276.427979 180.0
1276.56311 100.0
1276.6698 100.0
1276.996948 84.0
1277.046753 136.0
1277.125 212.0
1277.445068 124.0
1278.052002 128.0
1278.097534 140.0
1278.327271 104.0
1278.434082 84.0
1278.597656 236.0
1278.868164 200.0
1278.967773 168.0
1279.03894 120.0
1279.181396 204.0
1279.380615 168.0
1279.561401 204.0
1279.786499 200.0
1279.857666 200.0
1280.057007 140.0
1280.477173 156.0
1280.598267 204.0
1280.890381 200.0
1280.993408 304.0
1281.403198 60.0
1281.49585 132.0
1281.574219 104.0
1281.702515 132.0
1282.088989 140.0
1282.32959 200.0
1282.443848 172.0
1283.035278 196.0
1283.12793 144.0
1283.353516 164.0
1283.414062 64.0
1283.439087 172.0
1284.033569 172.0
1284.283203 176.0
1284.461548 56.0
1284.518555 124.0
1284.594727 152.0
1284.732544 196.0
1284.796753 140.0
1284.968018 116.0
1285.039307 168.0
1285.110718 148.0
1285.174927 212.0
1285.317627 144.0
1285.4104 116.0
1285.481689 192.0
1285.881348 168.0
1286.181152 132.0
1286.245361 156.0
1286.380981 236.0
1286.548096 256.0
1286.859375 184.0
1287.000122 188.0
1287.347778 200.0
1287.437744 204.0
1287.501953 148.0
1288.280518 104.0
1288.430542 164.0
1288.487671 156.0
1289.287964 180.0
1289.352295 152.0
1289.616699 156.0
1289.807251 188.0
1289.955566 216.0
1290.145752 172.0
1290.403076 136.0
1290.567505 220.0
1290.686401 192.0
1290.824951 160.0
1290.960815 116.0
1291.089478 184.0
1291.182495 136.0
1291.640259 40.0
1291.733276 92.0
1291.990723 108.0
1292.205444 152.0
1292.710205 136.0
1292.792114 96.0
1292.920898 56.0
1293.02832 128.0
1293.23584 208.0
1293.386108 188.0
1293.715454 68.0
1293.85144 196.0
1293.908691 216.0
1293.990479 332.0
1294.538818 112.0
1294.782349 40.0
1294.832397 176.0
1294.954224 136.0
1295.08313 192.0
1295.290894 56.0
1295.369629 200.0
1295.491455 200.0
1295.591675 224.0
1295.719727 160.0
1295.744141 140.0
1295.856812 108.0
1295.928467 216.0
1296.243286 112.0
1296.365479 136.0
1296.45874 172.0
1296.630737 100.0
1296.709473 100.0
1296.809814 208.0
1297.060669 40.0
1297.153931 132.0
1297.388062 124.0
1297.684448 76.0
1297.853271 160.0
1298.014282 144.0
1298.39502 152.0
1299.18335 132.0
1299.298096 48.0
1299.420044 144.0
1299.972534 112.0
1300.135864 160.0
1300.238037 124.0
1300.491821 204.0
1300.70459 164.0
1300.943359 196.0
1301.314819 164.0
1301.386597 276.0
1301.594849 136.0
1301.666626 136.0
1301.858032 188.0
1301.925171 192.0
1301.982666 276.0
1302.061646 84.0
1302.111938 84.0
1302.269897 124.0
1302.348877 232.0
1302.600342 156.0
1302.708008 220.0
1302.873291 48.0
1302.930786 108.0
1303.041992 280.0
1303.131958 160.0
1303.354614 152.0
1303.505493 368.0
1303.699585 52.0
1303.838501 168.0
1304.17395 40.0
1304.389526 184.0
1304.447021 116.0
1304.648315 100.0
1304.75061 160.0
1304.878418 120.0
1304.931885 188.0
1305.022217 196.0
1305.1875 184.0
1305.36731 44.0
1305.417603 68.0
1305.654907 156.0
1305.892334 152.0
1305.949585 128.0
1306.158447 188.0
1306.215942 168.0
1306.323853 68.0
1306.604492 240.0
1306.892212 144.0
1307.27356 144.0
1307.338379 128.0
1307.415283 176.0
1307.604614 52.0
1307.778442 156.0
1307.957275 184.0
1308.540405 208.0
1308.662842 56.0
1308.806763 204.0
1308.921997 88.0
1309.022827 168.0
1309.123657 180.0
1309.296509 168.0
1309.43335 168.0
1309.887085 136.0
1310.557129 104.0
1310.794922 172.0
1311.325439 152.0
1311.767822 180.0
1311.861572 64.0
1311.962524 136.0
1312.092285 192.0
1312.170654 96.0
1312.387817 56.0
1312.474365 140.0
1312.647461 96.0
1312.856567 100.0
1313.296509 140.0
1313.844727 32.0
1313.974609 172.0
1314.089966 136.0
1314.154907 164.0
1314.328125 176.0
1314.537354 144.0
1314.694458 152.0
1314.804321 140.0
1315.157959 204.0
1315.50061 136.0
1315.572144 136.0
1315.894287 148.0
1315.966553 28.0
1316.356445 196.0
1317.454224 128.0
1317.72876 228.0
1317.779419 48.0
1317.89502 264.0
1318.068359 160.0
1318.301514 332.0
1318.87085 188.0
1319.252441 180.0
1319.318726 180.0
1319.49231 96.0
1319.694702 120.0
1320.2771 156.0
1320.547974 224.0
1320.650269 252.0
1320.981934 124.0
1321.126709 172.0
1321.188477 164.0
1321.293091 120.0
1321.379272 176.0
1321.481201 136.0
1321.748901 220.0
1322.023804 196.0
1322.588379 208.0
1322.759155 204.0
1323.015503 168.0
1323.134033 224.0
1323.307129 252.0
1323.376831 220.0
1323.47876 124.0
1323.572998 348.0
1323.679565 156.0
1323.76123 56.0
1324.623047 128.0
1324.749756 160.0
1324.869385 184.0
1325.431152 196.0
1325.672607 148.0
1326.079468 164.0
1326.162842 184.0
1326.464355 168.0
1326.536133 216.0
1326.681152 172.0
1326.746338 368.0
1327.223999 224.0
1327.377075 220.0
1327.768677 144.0
1327.833984 156.0
1328.11377 152.0
1328.225708 152.0
1328.450562 292.0
1328.515869 236.0
1328.726196 216.0
1328.838989 144.0
1328.953125 204.0
1329.139771 208.0
1329.284912 84.0
1329.393799 132.0
1329.640503 176.0
1329.81958 164.0
1329.945312 80.0
1330.133667 180.0
1330.24292 212.0
1330.438965 196.0
1330.722046 172.0
1331.026978 164.0
1331.092407 140.0
1331.361084 64.0
1331.698608 132.0
1331.868042 200.0
1332.181763 152.0
1332.301514 152.0
1332.428833 140.0
1332.602173 184.0
1332.862671 200.0
1332.880737 144.0
1333.01001 136.0
1333.460571 184.0
1333.572388 180.0
1333.693237 148.0
1333.831299 96.0
1333.940308 236.0
1334.064941 192.0
1334.14978 164.0
1334.27478 176.0
1334.471069 104.0
1334.681885 212.0
1334.782837 168.0
1335.103638 88.0
1335.278687 164.0
1335.423706 100.0
1335.598267 188.0
1335.678223 156.0
1335.809204 148.0
1335.998291 164.0
1336.114502 136.0
1336.194702 56.0
1336.365845 96.0
1336.434814 100.0
1336.562134 164.0
1337.126099 176.0
1337.373657 200.0
1337.460938 160.0
1337.715698 216.0
1338.15979 184.0
1338.259521 92.0
1338.436523 120.0
1338.654907 144.0
1338.837036 168.0
1338.953491 52.0
1339.072876 316.0
1339.470581 124.0
1339.754761 212.0
1339.929565 184.0
1340.067993 188.0
1340.322998 120.0
1340.454224 96.0
1340.54895 140.0
1340.697144 144.0
1340.811279 156.0
1341.43811 124.0
1341.576538 176.0
1341.741089 208.0
1342.050537 164.0
1342.407715 96.0
1342.706787 128.0
1342.78418 236.0
1342.973877 192.0
1343.179932 60.0
1343.45105 280.0
1343.633179 196.0
1343.944458 192.0
1344.088745 228.0
1344.209595 148.0
1344.450317 136.0
1344.596313 132.0
1345.34082 176.0
1345.57605 180.0
1345.676636 136.0
1346.025269 180.0
1346.268066 172.0
1346.333252 232.0
1346.61084 196.0
1346.998535 212.0
1347.279541 136.0
1347.480591 84.0
1347.539062 56.0
1347.595459 144.0
1347.831299 220.0
1347.960083 128.0
1348.229126 160.0
1348.401367 160.0
1348.503662 188.0
1348.788696 184.0
1349.059814 100.0
1349.285767 168.0
1349.410034 172.0
1349.556274 104.0
1349.607544 188.0
1349.761108 156.0
1349.855225 140.0
1350.134033 56.0
1350.192505 156.0
1350.463135 68.0
1350.580078 84.0
1350.704468 148.0
1350.792236 116.0
1351.041016 220.0
1351.128784 180.0
1351.179932 180.0
1351.392212 116.0
1351.443359 140.0
1351.637329 132.0
1351.856689 148.0
1352.094604 172.0
1352.145874 128.0
1352.197144 76.0
1352.365479 148.0
1352.628906 184.0
1352.679077 140.0
1352.789917 104.0
1352.987671 132.0
1353.060791 112.0
1353.129517 156.0
1353.192261 148.0
1353.42041 148.0
1353.478149 132.0
1353.7052 200.0
1353.786011 180.0
1354.049316 116.0
1354.151855 152.0
1354.503418 164.0
1354.757446 184.0
1354.89917 180.0
1354.993408 124.0
1355.36792 176.0
1355.515747 196.0
1355.580444 144.0
1355.631714 76.0
1355.785645 188.0
1355.924927 200.0
1356.012817 120.0
1356.122803 72.0
1356.527832 220.0
1356.684814 216.0
1356.813721 140.0
1356.995117 188.0
1357.134399 108.0
1357.215088 260.0
1357.35437 128.0
1357.60376 156.0
1357.999756 124.0
1358.454468 180.0
1358.601196 128.0
1358.878052 116.0
1358.990356 220.0
1359.107422 172.0
1359.422974 220.0
1359.560303 132.0
1359.620972 148.0
1359.716553 140.0
1360.002808 124.0
1360.39917 184.0
1360.457886 144.0
1360.587158 212.0
1360.663452 36.0
1360.722168 136.0
1360.832275 220.0
1361.140747 148.0
1361.294922 180.0
1361.465942 204.0
1361.786987 164.0
1361.897095 184.0
1362.124756 144.0
1362.228149 176.0
1362.292847 128.0
1362.720947 264.0
1362.778687 148.0
1363.210083 224.0
1363.263672 164.0
1363.416992 124.0
1363.542847 164.0
1363.655151 160.0
1363.726562 140.0
1363.889771 196.0
1364.219116 148.0
1364.47644 184.0
1364.682251 124.0
1364.843994 112.0
1365.005737 120.0
1365.174927 140.0
1365.255859 148.0
1365.402954 92.0
1365.630859 120.0
1365.839111 296.0
1366.020752 96.0
1366.258667 160.0
1366.312622 180.0
1366.373901 164.0
1366.50061 196.0
1366.565186 104.0
1366.624023 124.0
1366.690186 120.0
1367.344116 164.0
1367.499756 140.0
1367.593018 204.0
1367.779419 172.0
1367.894897 156.0
1368.080933 184.0
1368.331543 188.0
1368.648071 92.0
1368.830933 192.0
1368.942627 120.0
1369.03833 156.0
1369.185669 136.0
1369.399292 168.0
1369.46936 284.0
1369.590698 164.0
1369.693848 112.0
1369.78479 160.0
1370.032715 108.0
1370.091675 32.0
1370.346558 148.0
1370.452637 184.0
1370.623779 192.0
1370.946411 204.0
1371.042114 164.0
1371.233765 152.0
1371.46228 92.0
1371.513916 160.0
1371.594971 128.0
1371.810425 124.0
1371.876221 176.0
1372.011963 240.0
1372.213257 220.0
1372.298218 128.0
1372.361694 212.0
1372.450073 128.0
1372.516479 72.0
1372.641846 112.0
1372.737671 136.0
1372.810181 184.0
1373.076904 168.0
1373.1875 132.0
1373.394043 284.0
1373.504761 132.0
1373.585815 120.0
1373.725952 156.0
1373.904785 220.0
1374.087524 164.0
1374.150269 140.0
1374.520874 220.0
1374.633545 72.0
1374.832764 232.0
1375.002441 364.0
1375.282959 268.0
1375.38623 192.0
1375.445312 140.0
1375.712769 140.0
1375.851318 140.0
1375.94104 152.0
1376.087524 176.0
1376.294312 180.0
1376.442017 164.0
1376.701904 104.0
1376.774292 188.0
1377.166626 156.0
1377.268433 204.0
1377.446411 120.0
1377.539917 208.0
1377.744873 208.0
1377.815796 72.0
1377.926636 212.0
1377.990479 220.0
1378.229492 48.0
1378.303345 136.0
1378.362549 196.0
1378.473389 208.0
1378.658081 148.0
1378.842896 104.0
1378.894531 156.0
1379.150269 172.0
1379.375 100.0
1379.522827 104.0
1379.596802 152.0
1379.64856 184.0
1379.892456 236.0
1380.047729 208.0
1380.159546 168.0
1380.23999 176.0
1380.321289 184.0
1380.759277 184.0
1380.824219 112.0
1380.883423 60.0
1381.009155 152.0
1381.223633 152.0
1381.563843 92.0
1381.637817 340.0
1381.948608 196.0
1382.000366 144.0
1382.05957 128.0
1382.507568 188.0
1383.591675 44.0
1384.061768 132.0
1384.295044 152.0
1384.583862 124.0
1384.680054 184.0
1384.73938 176.0
1384.961548 120.0
1385.020874 176.0
1385.249634 156.0
1385.413452 176.0
1385.472656 140.0
1385.628296 112.0
1385.84314 192.0
1385.970947 200.0
1386.109863 144.0
1386.19519 116.0
1386.255737 188.0
1386.764526 120.0
1387.043701 168.0
1387.162231 192.0
1387.255127 224.0
1387.325317 180.0
1387.807251 156.0
1387.894897 156.0
1388.111328 176.0
1388.541382 180.0
1388.622925 188.0
1388.711914 180.0
1388.852905 164.0
1388.993774 224.0
1389.379517 188.0
1389.57251 92.0
1389.835571 236.0
1389.921143 148.0
1389.987915 116.0
1390.05481 88.0
1390.205322 320.0
1390.269897 144.0
1390.529663 80.0
1390.893433 172.0
1391.191895 200.0
1391.254883 108.0
1391.319458 200.0
1391.390747 156.0
1391.665405 184.0
1392.071289 104.0
1392.363525 120.0
1392.437744 108.0
1392.511963 160.0
1392.811279 268.0
1392.90564 140.0
1393.143433 128.0
1393.251099 208.0
1393.708008 192.0
1394.153931 204.0
1394.236084 172.0
1394.437744 184.0
1394.532959 208.0
1394.919434 164.0
1395.157349 156.0
1395.361694 152.0
1395.46582 152.0
1395.758301 260.0
1395.994507 100.0
1396.099731 192.0
1396.220581 160.0
1396.51062 156.0
1396.741211 80.0
1396.830444 148.0
1396.949463 180.0
1397.075928 176.0
1397.203125 164.0
1397.321411 144.0
1397.552124 104.0
1397.819946 148.0
1397.892944 148.0
1398.02832 152.0
1398.333496 124.0
1398.459717 196.0
1398.608887 68.0
1398.787476 104.0
1398.95459 212.0
1399.112427 152.0
1399.249023 164.0
1399.387817 196.0
1399.655151 132.0
1399.675537 184.0
1399.762817 208.0
1400.276611 52.0
1400.537354 244.0
1400.589478 120.0
1400.857666 156.0
1400.939575 124.0
1401.625 316.0
1401.744263 264.0
1401.855957 208.0
1402.551758 180.0
1403.175293 192.0
1403.257324 80.0
1403.606079 144.0
1403.689819 160.0
1404.092407 140.0
1404.221436 200.0
1404.331177 188.0
1404.450439 164.0
1404.733887 168.0
1404.950195 120.0
1405.328491 136.0
1405.602783 176.0
1405.890381 40.0
1406.211304 144.0
1406.26355 156.0
1406.801025 204.0
1406.972656 164.0
1407.161987 136.0
1407.240723 144.0
1407.465454 152.0
1407.576904 124.0
1407.602051 176.0
1407.666992 128.0
1407.741699 260.0
1407.831299 136.0
1408.070312 92.0
1408.130005 108.0
1408.34668 148.0
1408.453979 164.0
1408.637573 140.0
1408.802368 144.0
1408.884521 224.0
1409.056274 152.0
1409.177368 164.0
1409.235596 116.0
1409.459717 48.0
1409.571899 76.0
1409.689331 136.0
1409.77356 156.0
1409.863281 112.0
1409.983765 224.0
1410.094971 120.0
1410.162231 88.0
1410.2146 112.0
1410.379639 196.0
1410.463379 152.0
1410.565918 148.0
1410.677979 236.0
1410.8125 184.0
1411.09668 120.0
1411.148926 160.0
1411.567749 196.0
1411.896729 164.0
1412.106079 120.0
1412.158447 140.0
1412.312744 176.0
1412.472656 132.0
1412.532471 188.0
1412.622192 92.0
1412.756836 152.0
1412.816772 160.0
1413.205811 156.0
1413.420288 132.0
1413.527466 28.0
1413.670288 164.0
1413.783691 136.0
1414.080688 160.0
1414.204834 128.0
1414.410645 152.0
1414.47229 212.0
1414.560303 148.0
1415.091919 140.0
1415.144287 100.0
1415.21167 176.0
1415.275513 168.0
1415.331421 124.0
1415.406372 168.0
1415.530029 148.0
1415.705933 60.0
1415.765747 112.0
1415.818237 216.0
1416.031006 188.0
1416.245117 124.0
1416.334961 68.0
1416.477295 144.0
1416.769409 128.0
1416.926758 88.0
1417.293335 116.0
1417.353149 136.0
1417.428833 204.0
1417.656494 188.0
1417.781006 104.0
1417.930908 232.0
1418.005859 232.0
1418.190552 192.0
1418.537964 96.0
1418.867798 172.0
1419.130249 136.0
1419.310181 120.0
1419.415161 36.0
1419.557617 108.0
1419.674805 128.0
1419.788452 168.0
1419.811646 152.0
1419.960205 344.0
1420.03125 152.0
1420.120117 160.0
1420.187622 156.0
1420.870239 104.0
1420.945312 156.0
1421.312866 124.0
1421.567993 56.0
1421.674194 160.0
1421.905762 192.0
1422.025879 160.0
1422.281006 192.0
1422.328735 180.0
1422.593628 224.0
1422.736572 52.0
1422.919067 176.0
1423.095825 104.0
1423.174438 80.0
1423.245117 172.0
1423.407104 92.0
1423.527344 64.0
1423.617432 156.0
1423.760132 160.0
1424.052979 124.0
1424.154785 372.0
1424.390991 184.0
1424.458618 180.0
1424.796631 152.0
1424.924316 152.0
1425.164795 152.0
1425.220337 224.0
1425.510132 204.0
1425.841064 120.0
1425.953857 196.0
1426.131348 196.0
1426.254517 104.0
1426.404785 76.0
1426.487549 152.0
1426.560303 164.0
1427.058838 76.0
1427.157959 200.0
1427.324829 188.0
1427.404663 208.0
1427.517578 184.0
1427.592773 224.0
1427.75061 228.0
1427.873901 176.0
1427.929199 144.0
1427.955688 108.0
1427.979004 172.0
1428.201904 96.0
1428.487793 124.0
1428.848877 72.0
1428.969238 132.0
1429.044434 204.0
1429.112183 340.0
1429.27771 52.0
1429.473389 44.0
1429.668945 160.0
1429.796875 64.0
1429.917358 128.0
1430.030029 148.0
1430.165771 172.0
1430.346313 172.0
1430.406616 60.0
1430.880859 148.0
1430.986206 100.0
1431.422974 112.0
1431.686523 132.0
1431.807007 128.0
1431.912476 216.0
1431.980225 160.0
1432.145996 124.0
1432.232178 196.0
1432.409546 168.0
1432.477417 240.0
1432.590332 180.0
1432.822632 120.0
1432.921631 128.0
1433.059814 284.0
1433.485352 168.0
1433.547241 180.0
1433.78833 112.0
1433.886353 68.0
1434.079346 236.0
1434.218018 56.0
1434.293335 164.0
1434.346191 268.0
1434.459229 124.0
1434.701294 148.0
1434.798462 188.0
1435.152832 128.0
1435.236084 144.0
1435.469482 76.0
1435.597656 184.0
1435.700195 176.0
1435.831421 152.0
1436.129517 136.0
1436.216064 148.0
1436.401001 140.0
1436.56311 72.0
1436.67627 196.0
1436.729004 44.0
1436.796997 60.0
1436.91394 164.0
1437.094849 100.0
1437.18103 140.0
1437.400513 180.0
1437.483398 180.0
1437.689453 156.0
1437.949463 164.0
1438.457153 140.0
1438.819458 76.0
1438.89502 172.0
1439.114014 108.0
1439.434692 412.0
1439.638428 168.0
1439.756592 156.0
1439.861572 96.0
1439.94458 108.0
1439.997437 156.0
1440.174927 56.0
1440.276978 80.0
1440.594238 84.0
1440.70752 108.0
1440.943848 116.0
1441.046387 188.0
1441.123047 212.0
1441.37146 188.0
1441.546143 76.0
1442.031738 176.0
1442.143188 200.0
1442.271729 128.0
1442.327881 184.0
1442.551392 152.0
1442.732788 124.0
1442.861328 116.0
1442.959595 180.0
1443.057861 152.0
1443.148682 144.0
1443.254517 148.0
1443.41748 184.0
1443.473755 132.0
1443.821655 144.0
1444.148193 164.0
1444.343506 36.0
1444.79126 152.0
1444.924805 160.0
1444.994019 164.0
1445.228638 96.0
1445.337891 152.0
1445.433594 172.0
1445.4646 244.0
1445.637451 188.0
1445.793091 208.0
1446.000488 204.0
1446.149902 124.0
1446.175049 176.0
1446.424316 132.0
1446.681519 260.0
1446.83313 152.0
1446.92395 140.0
1447.246338 192.0
1447.378296 328.0
1447.461548 48.0
1447.522095 160.0
1447.588501 152.0
1447.825073 180.0
1447.893188 92.0
1448.014404 144.0
1448.135498 204.0
1448.211304 100.0
1448.347656 136.0
1448.461304 144.0
1448.567261 64.0
1448.665771 168.0
1448.911743 112.0
1449.147217 168.0
1449.403809 252.0
1449.461304 72.0
1449.543213 184.0
1449.696167 164.0
1449.991699 144.0
1450.173706 124.0
1450.23291 176.0
1450.252197 144.0
1450.340454 192.0
1450.416138 140.0
1450.518188 312.0
1450.635986 188.0
1450.795166 152.0
1450.878662 160.0
1451.242554 156.0
1451.318359 128.0
1451.429565 264.0
1451.507935 128.0
1451.595459 220.0
1451.811279 188.0
1451.864258 184.0
1451.940186 216.0
1452.077393 160.0
1452.235962 140.0
1452.531738 196.0
1452.584839 156.0
1452.979126 152.0
1453.27356 148.0
1453.365601 148.0
1453.658325 116.0
1453.738037 112.0
1453.803833 132.0
1453.932251 204.0
1454.013794 132.0
1454.193481 156.0
1454.481812 216.0
1454.641235 100.0
1454.795898 160.0
1454.880249 172.0
1454.944946 168.0
1455.029541 216.0
1455.248535 116.0
1455.331055 120.0
1455.430786 160.0
1455.742188 140.0
1455.871216 72.0
1455.985107 180.0
1456.106689 96.0
1456.205444 180.0
1456.309448 136.0
1456.497803 220.0
1456.718628 112.0
1456.78418 224.0
1456.882812 156.0
1457.038086 196.0
1457.177734 172.0
1457.367676 132.0
1457.420898 212.0
1457.477539 160.0
1457.717163 92.0
1457.785645 152.0
1457.878418 144.0
1458.394775 208.0
1458.629272 152.0
1458.682373 136.0
1459.123291 44.0
1459.222168 168.0
1459.404663 224.0
1459.533936 84.0
1459.587158 196.0
1459.655518 160.0
1459.734985 224.0
1460.109375 180.0
1460.203125 160.0
1460.416016 180.0
1460.643799 212.0
1461.001831 176.0
1461.184326 192.0
1461.412842 156.0
1461.473511 148.0
1461.624268 128.0
1461.747437 184.0
1461.797363 192.0
1461.933472 160.0
1462.12793 196.0
1462.248657 208.0
1462.424683 128.0
1462.599854 300.0
1462.695801 228.0
1462.752075 144.0
1462.812988 172.0
1462.941162 212.0
1463.185913 172.0
1463.284912 164.0
1463.439453 188.0
1463.665649 120.0
1463.718872 208.0
1463.84082 188.0
1463.961426 208.0
1464.061646 220.0
1464.152954 136.0
1464.55481 184.0
1464.686157 136.0
1464.777588 212.0
1464.97229 164.0
1465.025635 212.0
1465.554565 132.0
1465.625732 152.0
1465.790771 148.0
1465.859375 252.0
1466.126099 180.0
1466.309082 148.0
1466.568115 108.0
1466.678711 152.0
1466.766357 144.0
1466.842529 172.0
1466.956909 180.0
1467.189941 104.0
1467.331543 328.0
1467.399048 240.0
1467.522949 172.0
1467.59729 80.0
1467.993774 156.0
1468.131104 136.0
1468.207397 236.0
1468.256226 204.0
1468.400513 216.0
1468.861694 200.0
1468.954834 124.0
1469.130249 132.0
1469.191284 136.0
1469.252319 256.0
1469.504028 196.0
1469.681885 196.0
1469.771118 108.0
1469.847412 168.0
1469.916138 164.0
1470.053467 168.0
1470.122192 36.0
1470.183228 40.0
1470.381592 200.0
1470.511353 172.0
1470.664062 136.0
1471.076172 164.0
1471.205933 108.0
1471.396118 208.0
1471.54541 184.0
1471.793823 136.0
1471.900757 172.0
1471.954224 172.0
1472.137451 148.0
1472.33606 192.0
1472.652588 164.0
1472.859863 200.0
1473.025269 148.0
1473.214355 44.0
1473.321411 164.0
1473.443604 212.0
1473.59375 208.0
1473.763306 236.0
1473.886719 124.0
1474.047241 160.0
1474.103394 164.0
1474.169434 164.0
1474.254517 192.0
1474.329956 108.0
1474.421631 244.0
1474.559204 144.0
1474.620361 152.0
1474.721191 172.0
1474.834351 188.0
1474.933716 120.0
1475.040771 284.0
1475.094238 176.0
1475.30835 140.0
1475.522705 152.0
1475.659912 180.0
1475.893921 128.0
1475.98877 156.0
1476.416992 180.0
1476.585205 100.0
1476.675293 244.0
1476.883545 44.0
1476.937012 296.0
1477.113037 164.0
1477.19873 156.0
1477.55249 212.0
1477.701782 112.0
1477.858276 180.0
1478.185669 132.0
1478.329468 232.0
1478.383057 48.0
1478.789185 168.0
1478.849854 148.0
1478.908325 176.0
1479.309204 108.0
1479.52356 140.0
1479.645996 92.0
1479.742554 168.0
1479.94458 288.0
1480.021118 152.0
1480.162231 180.0
1480.225098 212.0
1480.296875 180.0
1480.672119 104.0
1480.740967 156.0
1481.083984 160.0
1481.147705 176.0
1481.28479 156.0
1481.346069 224.0
1481.422729 196.0
1481.540527 292.0
1481.696289 180.0
1482.250122 152.0
1482.395386 160.0
1482.424805 152.0
1482.533691 384.0
1482.633301 188.0
1483.031616 152.0
1483.24646 104.0
1483.560913 176.0
1483.69873 128.0
1483.863525 160.0
1483.997681 112.0
1484.051392 68.0
1484.105103 120.0
1484.51709 208.0
1484.749146 88.0
1484.833618 152.0
1485.11731 288.0
1485.313965 132.0
1485.400391 196.0
1485.661987 128.0
1486.163452 188.0
1486.319702 256.0
1486.582642 172.0
1486.664551 168.0
1486.751465 196.0
1486.812866 208.0
1487.043091 96.0
1487.258057 100.0
1487.316406 120.0
1487.410278 164.0
1487.572754 348.0
1487.634155 124.0
1487.764648 180.0
1488.255981 116.0
1488.632324 68.0
1488.85498 224.0
1489.034912 192.0
1489.190552 140.0
1489.313477 132.0
1489.341553 92.0
1489.430786 220.0
1489.492432 140.0
1489.715454 148.0
1489.856445 192.0
1489.937988 112.0
1490.037842 192.0
1490.137817 152.0
1490.306763 128.0
1490.391357 192.0
1490.44104 120.0
1490.456665 56.0
1490.488281 148.0
1490.813965 152.0
1490.906128 160.0
1491.009521 144.0
1491.205933 124.0
1491.421143 240.0
1491.521973 156.0
1491.651733 176.0
1491.757568 180.0
1491.994751 180.0
1492.074463 252.0
1492.308472 252.0
1492.360107 228.0
1492.645874 152.0
1492.766479 156.0
1492.861328 136.0
1492.989502 116.0
1493.080566 308.0
1493.147583 168.0
1493.235596 124.0
1493.450928 28.0
1493.597168 152.0
1493.889404 204.0
1493.98938 188.0
1494.066406 148.0
1494.12793 208.0
1494.422974 216.0
1494.551025 84.0
1494.785522 188.0
1494.989624 184.0
1495.097412 120.0
1495.282104 72.0
1495.351318 84.0
1495.451416 108.0
1495.565186 160.0
1495.674683 156.0
1495.759277 140.0
1496.082642 52.0
1496.169434 208.0
1496.307983 172.0
1496.42395 152.0
1496.585083 232.0
1496.706299 76.0
1496.87561 140.0
1497.170044 144.0
1497.342529 168.0
1497.595459 368.0
1497.699707 152.0
1497.884521 168.0
1498.149048 164.0
1498.268555 108.0
1498.432983 128.0
1498.585571 184.0
1498.716553 160.0
1499.055664 148.0
1499.192383 168.0
1499.223877 124.0
1499.363892 196.0
1499.456421 128.0
1499.886475 176.0
1500.535522 228.0
1500.658936 140.0
1500.963745 180.0
1501.02124 152.0
1501.175537 144.0
1501.306641 268.0
1501.530273 216.0
1501.761597 140.0
1501.939087 156.0
1502.147339 48.0
1502.301636 196.0
1502.409546 164.0
1502.517578 216.0
1502.651611 120.0
1502.71814 124.0
1502.915894 200.0
1503.165649 184.0
1503.412598 160.0
1503.62915 84.0
1503.906616 212.0
1503.976074 112.0
1504.091797 112.0
1504.176758 164.0
1504.230713 112.0
1504.362061 40.0
1504.508667 160.0
1504.647583 72.0
1504.808838 156.0
1504.917847 140.0
1505.126343 212.0
