>compound Budesonide
>formula C25H34O6 
>ionization [M+H]+
>parentmass 431.24281526009054
#inchi InChI=1S/C25H34O6/c1-4-5-21-30-20-11-17-16-7-6-14-10-15(27)8-9-23(14,2)22(16)18(28)12-24(17,3)25(20,31-21)19(29)13-26/h8-10,16-18,20-22,26,28H,4-7,11-13H2,1-3H3/t16-,17-,18-,20+,21?,22+,23-,24-,25+/m0/s1
#inchikey VOVIALXJUBGFJZ
#Ion_Source LC-ESI
#Instrument qTof
#Compound_Source Isolated
#PI Sirenas
#Data_Collector Ed Esquenazi 
#Scan -1
#Precursor_MZ 431.245
#ExactMass 0.0
#Charge 1
#CAS_Number N/A
#Pubmed_ID N/A
#Smiles N/A
#INCHI_AUX N/A
#Library_Class 3
#SpectrumID CCMSLIB00000004381
#IonMode Positive
#UpdateWorkflowName UPDATE-SINGLE-ANNOTATED-BRONZE
#LibraryQualityString Bronze
#TaskID d19310cd93df49b68e9fcbec27720eb5
##Scan# 2
#SpectrumFile Budesonide.mgf
#LibraryName fda_library.mgf
#MQScore -1
#Organism fda_library
#TIC_Query 0
#RT_Query -1
#MZErrorPPM -1
#SharedPeaks 0
#MassDiff 0
#LibMZ -1
#SpecMZ 431.245
#SpecCharge 0
#internalFilename spec-00000.mgf

>collision 10
100.084808 29.05797
100.824303 17.226851
101.022797 718.650085
101.060188 109.929398
101.10041 11.33929
101.243919 15.16162
101.313942 12.04748
101.359367 3.094697
102.402367 7.69482
104.548088 3.854167
105.069321 432.4599
105.127464 1.666667
105.214684 11.13038
105.373734 3.335526
107.049004 119.913902
107.085449 976.867493
107.115913 9.151881
107.127251 6.041667
107.148857 12.67325
107.159653 13.81037
107.282257 19.520321
107.347084 12.75347
107.675507 2.016667
109.026176 63.04113
109.065086 467.280914
109.100227 313.222595
109.157036 13.65333
109.200401 18.337749
109.227859 11.42424
109.23658 9.347222
109.320404 5.666667
109.356987 11.87879
109.42955 7.810714
111.042648 352.15329
111.078484 133.3414
111.256721 2.020833
113.021927 66.058769
113.059212 195.503296
113.224854 6.049603
113.261627 2.386905
113.395027 17.01667
115.037178 32.74292
115.05365 39.681
115.076271 33.040001
115.184349 8.65661
115.296127 3.688725
115.68512 8.022223
116.063591 27.03788
117.056236 87.788551
117.06974 221.841995
117.136093 11.63095
117.518585 9.1875
118.584114 3.802778
118.679169 6.906746
118.853233 4.380952
119.050537 9.32545
119.084724 646.715271
119.136467 7.105556
119.247932 1.694445
119.277611 9.852012
119.33741 13.67262
120.39801 10.67348
120.466728 12.72588
120.508675 31.624479
120.534706 43.3176
120.583199 7.0
120.595032 1.777778
120.604225 6.728535
120.692894 45.139519
120.931595 17.707081
121.064888 3749.733887
121.099434 314.428986
121.136192 4.672619
121.143524 3.0
121.173218 24.111111
121.215851 5.966667
121.244339 27.412239
121.262268 9.280702
121.2929 2.669872
121.319839 19.413361
121.415535 13.74107
121.480713 12.67014
121.561249 10.01894
121.650108 21.178329
121.661064 5.88587
121.747124 11.13038
121.880135 23.65205
122.06588 30.912901
122.199669 3.0
123.039169 31.48119
123.079865 556.775818
123.614243 19.69565
123.672272 10.54167
123.924072 5.939394
124.847298 8.018518
124.979904 8.727273
125.058266 408.168213
125.095612 194.416595
125.123573 2.008333
125.134697 23.743839
125.247993 17.386749
125.69223 6.05
126.399406 8.230769
127.038994 54.299648
127.075623 197.479599
127.138176 3.440476
128.061768 46.30014
129.052887 103.666702
129.066849 129.310806
129.100464 4.66821
130.344635 10.66764
131.08429 490.42569
131.148178 1.671296
131.268173 12.00397
132.37413 22.667139
132.473038 2.741667
133.064713 725.075623
133.101135 385.568512
133.138458 2.520833
133.151764 4.666667
133.220016 16.339911
133.248352 16.11204
133.387177 9.669444
134.405365 13.2549
134.463654 4.002778
134.511658 3.413462
134.948181 14.34524
135.0802 2111.458008
135.114746 124.296097
135.129181 5.75
135.146408 10.38636
135.210953 8.2
135.237946 13.77778
135.329803 4.761905
135.393097 8.039474
135.418228 9.561992
135.433578 13.40833
135.463409 32.59127
135.522659 3.678571
135.55101 4.763889
135.599625 5.068182
135.755142 6.71627
136.531876 12.24008
137.060059 971.941711
137.09639 114.749802
137.123062 1.675
137.167847 2.016667
137.257492 5.088768
137.290482 7.041667
137.36348 2.337121
137.421982 32.597519
137.48175 2.35
137.506104 2.053571
137.771362 26.013889
137.845032 9.66821
138.311066 12.66919
138.652405 14.65988
139.075577 807.952698
139.247528 15.125
139.446777 4.844298
139.557632 9.670455
139.759842 9.926471
141.05278 61.40036
141.069534 203.785294
141.088593 216.597107
141.111328 6.020833
141.144379 2.35
141.219681 9.906746
141.448898 8.222222
141.471664 11.70417
142.36644 12.03354
142.391251 23.810289
142.665512 6.88587
143.084961 264.040192
143.107254 66.73394
144.052292 3.773809
144.148407 4.681667
144.566437 11.20417
144.692825 5.371913
145.065994 540.330688
145.099701 271.799286
145.259323 84.361908
145.316086 13.41182
145.353836 23.337549
145.525925 15.73555
145.539291 3.926282
146.174438 5.136111
146.196579 4.761905
146.206528 77.226341
146.236786 6.075
146.282684 11.36232
146.290222 4.094697
146.299088 15.33333
146.307495 5.755435
146.316177 8.950757
146.335449 14.77778
146.349609 12.40333
146.370041 15.91313
146.400787 9.886111
146.417709 3.694444
146.429596 12.0
146.46405 59.11005
146.484329 20.570339
146.509552 5.001544
146.539001 13.02815
146.564117 32.59161
146.640121 11.6768
146.687881 15.13636
146.72438 2.35
146.779175 8.765873
146.851822 51.18124
147.01506 3.375
147.045059 14.9481
147.080261 17228.029297
147.116226 151.835495
147.133377 31.66856
147.144196 51.10408
147.162933 11.09643
147.173843 13.98732
147.193359 11.05357
147.234177 62.90292
147.256668 37.62141
147.271805 27.32955
147.283234 30.256411
147.300217 41.217899
147.327316 19.68939
147.335602 30.68519
147.355865 18.282049
147.376602 29.584261
147.393295 30.70079
147.412033 4.481482
147.423401 26.74869
147.450089 9.34543
147.489151 44.765621
147.507614 23.57515
147.522827 25.729731
147.538818 10.67064
147.562531 27.529249
147.60231 18.13389
147.64563 12.62976
147.654556 10.77564
147.670135 24.19092
147.724808 16.288099
147.780594 52.366291
147.816681 43.819069
147.966721 16.887409
148.020935 13.67167
148.205429 7.266666
148.688309 1.791667
148.737091 26.23461
148.983276 4.682971
149.060455 269.582886
149.187241 13.72115
149.195938 8.097222
149.408218 16.694639
149.477798 4.761905
150.117065 4.125
150.456116 7.333333
150.583313 5.927083
151.075165 374.750214
151.113983 4.054824
151.122543 4.0
151.216644 13.53743
151.282959 2.458333
151.349289 7.339743
151.358185 10.5307
151.371155 19.494949
151.40065 3.002778
151.670456 4.37037
153.066986 54.909672
153.089035 152.962006
153.123856 70.240067
153.152206 3.413462
153.406296 2.666667
153.434418 4.734848
153.510056 7.339285
153.526962 10.33333
154.239029 7.022223
154.253235 9.053572
154.582047 12.63667
155.044266 20.210529
155.070419 1598.269043
155.121994 2.005952
155.146072 10.27222
155.160675 2.671296
155.23436 5.371913
155.26416 7.348485
155.291077 18.42178
155.316727 9.599999
155.329727 6.671568
155.338409 7.757883
155.347076 7.716667
155.364426 8.68883
155.381775 16.021429
155.398819 24.073071
155.407791 6.020833
155.489334 2.520833
155.498749 19.346149
155.59433 5.334877
155.611679 6.041667
156.090591 20.6299
156.2155 24.33514
156.355179 10.45581
156.844437 3.708333
157.060074 36.739342
157.083054 27.09524
157.100449 293.816193
157.733719 6.592949
158.072601 129.201797
158.125137 2.333333
158.254288 9.897988
158.419022 4.011905
159.079803 1725.817993
159.11763 100.001701
159.1595 10.82372
159.180832 17.827379
159.282364 5.564815
159.313126 6.977273
159.357452 4.001984
159.396866 6.688726
159.456833 33.482368
159.549942 14.50718
159.599487 2.816667
159.744476 17.023809
159.942062 6.335526
160.09169 6.338889
160.100494 11.4375
160.20636 4.5
160.22818 12.90221
160.333893 6.520061
160.506683 6.047619
160.93158 10.38294
161.060059 190.982498
161.095261 2159.99292
161.151764 6.456349
161.181839 27.884359
161.211685 8.031566
161.295624 10.13636
161.311844 15.76136
161.33078 5.76923
161.339813 5.748333
161.38858 16.59325
161.519455 8.375
161.591476 24.226851
161.625031 24.545071
162.181015 9.741667
162.220383 4.75
162.326721 8.066667
162.561844 8.333333
162.938965 11.33772
163.074478 1724.07605
163.111984 38.787811
163.132187 9.260417
163.158554 9.25641
163.169876 9.668859
163.247757 17.188841
163.2677 2.733333
163.401901 7.481667
163.512329 8.001263
163.6436 5.416667
163.727417 11.66786
163.774933 15.32527
163.975311 5.0625
164.309921 15.00298
165.055481 44.719299
165.090088 438.908386
165.1353 2.386905
165.216202 8.333333
165.225769 15.55864
165.275345 4.926282
165.399475 6.001667
165.412842 4.402778
165.704391 4.523809
165.838379 11.82315
166.026443 10.60093
166.07515 26.432541
166.134048 1.666667
166.278061 6.001984
167.049744 24.48576
167.072998 290.484314
167.104538 90.228996
167.315598 9.739865
167.397095 30.567591
168.026779 6.427083
168.090927 85.333344
168.316055 11.81071
168.334045 16.128031
168.367432 3.666667
169.063904 24.01667
169.085678 209.162292
169.097702 139.897293
169.140228 6.786364
169.211914 30.680559
169.770035 2.125
170.135208 10.0
170.181335 12.81492
170.198868 6.160715
170.226578 7.481482
170.266403 25.02927
170.307678 5.742284
170.362183 8.816667
170.389786 8.047619
170.493866 10.0
170.671066 23.601959
170.855743 8.881667
170.934799 19.136749
171.079758 5879.035156
171.115982 196.278793
171.219086 56.49715
171.244202 6.338542
171.266113 54.39753
171.289627 19.34849
171.328995 10.2
171.342377 19.3717
171.394516 2.761364
171.406189 24.29389
171.4254 5.016667
171.434586 12.38021
171.467422 9.027778
171.49794 18.210529
171.517471 5.017857
171.527115 4.59375
171.631927 51.2328
171.681519 13.34343
171.724686 31.85412
171.973373 15.06944
172.051132 27.151939
172.151352 11.67064
172.161545 7.4
172.194717 42.405411
172.251389 9.355392
172.308014 103.935799
172.32991 5.388889
172.345596 6.818182
172.382568 10.55556
172.429306 28.42063
172.457306 12.40278
172.845856 5.0
172.859314 29.06818
173.001434 18.102779
173.09581 12400.009766
173.134338 180.697403
173.15239 78.436867
173.172745 41.13512
173.18367 10.13333
173.196579 15.41667
173.237259 20.28125
173.265244 90.758858
173.277969 6.973485
173.321091 5.190476
173.329422 23.78854
173.354065 18.103451
173.390717 45.703911
173.417404 46.682579
173.442444 10.84005
173.486679 30.392191
173.500427 14.67262
173.522202 8.353174
173.534286 10.02778
173.559875 13.21491
173.592178 6.333333
173.668564 21.367121
173.697708 15.66945
173.73555 20.173031
173.782455 8.125
173.821442 12.33333
173.930603 17.09399
174.06926 14.44138
174.1772 29.60334
174.286896 13.06187
174.365128 12.2549
174.565262 12.71204
174.59285 5.668333
174.784073 16.3869
175.07373 133.344299
175.241592 7.843137
176.436401 21.83333
177.091522 528.870178
177.150208 2.520833
177.222839 4.011905
178.072784 51.928421
178.521973 15.02521
179.063492 14.01667
179.105881 164.340103
179.117447 3.333333
179.546051 8.018518
180.083755 5.414216
180.260117 5.09375
181.087311 815.51001
181.321854 2.761364
181.601028 7.675
182.071823 29.76829
183.323608 8.445988
184.020721 3.440476
184.11644 8.444445
184.157578 45.207581
184.843048 21.84967
184.98819 4.852273
185.057327 61.397129
185.095642 1543.640991
185.127319 29.148809
185.178726 10.04688
185.307388 30.83333
185.393173 15.39524
185.410767 2.678571
185.609787 14.00079
186.255569 15.62703
186.273926 14.41346
186.474518 2.14881
186.52565 2.669444
186.69191 3.335526
187.075546 458.851898
187.111664 1791.75
187.177139 5.777778
187.224609 5.003788
187.31044 10.71415
187.357956 7.935
187.46283 8.816667
187.486313 9.422101
187.513977 7.111111
187.551147 28.54743
187.653397 10.69823
187.667694 7.360043
187.891769 7.408951
188.097687 1.708333
188.192368 3.802778
189.048416 9.518678
189.090897 199.25
190.149307 10.45833
191.066788 44.264801
191.109329 138.820496
191.297562 17.404341
191.634537 3.666667
192.091736 7.120098
192.30452 11.46136
193.097031 35.688889
193.126083 56.181221
194.073883 54.79961
194.171478 5.939394
194.447632 5.801667
194.666672 4.963235
195.078445 317.653809
195.095108 41.511299
195.113724 37.001492
195.145721 6.225
195.287872 29.69136
195.321823 10.67083
195.513443 3.703704
195.64772 4.09375
195.994247 20.3887
196.086365 114.951202
196.951233 6.973485
197.056915 69.594307
197.095993 1266.719971
197.131012 70.574409
197.188416 14.77177
197.26178 11.05333
197.381668 14.95964
197.41394 14.07331
197.4534 6.741667
197.491257 42.83522
197.52507 6.35
197.968155 16.37809
198.073624 3.002451
198.378067 5.333333
199.110916 1367.084961
199.166946 4.047619
199.211227 9.755555
199.225891 10.72803
199.255951 7.779321
199.299545 6.335526
199.477219 10.38095
199.584488 4.678571
199.672989 6.690476
199.766388 9.823148
200.046768 4.054824
200.318268 21.00054
200.519409 8.166667
201.090607 503.416412
201.127136 124.647499
201.155396 20.33333
201.193893 3.720238
201.671448 20.337959
203.078461 5.666667
203.105637 200.155899
203.147079 33.34343
203.406845 5.047619
203.44165 14.75212
203.486069 8.066667
205.096115 168.490402
205.118652 65.873131
205.129623 224.514999
205.161896 1.666667
205.431671 7.779321
205.846786 23.269979
207.285141 5.030303
207.964096 17.76333
208.087204 133.125397
208.119629 41.69389
208.293106 3.010417
208.3405 3.893518
208.514084 14.00071
208.687714 17.144051
208.754669 9.047619
208.765625 12.61404
209.0961 870.135315
209.113251 376.471313
209.130264 114.270302
209.249405 7.5625
209.373657 16.52466
209.474686 3.345238
209.489792 8.667792
209.509888 6.686403
209.585678 17.00556
209.661407 29.997009
210.054123 8.666667
210.578812 9.733334
210.866669 6.840517
211.073654 84.5942
211.110947 1586.993042
211.143738 53.481621
211.164291 1.833333
211.179993 15.01923
211.200806 41.950859
211.273865 29.946659
211.351913 8.702381
211.404984 6.75
211.448029 2.4
211.463196 14.34444
211.475845 4.791667
211.496933 9.297619
211.513489 2.449074
211.595078 24.024691
211.665665 4.402778
211.821838 12.9685
211.940567 13.44004
211.990234 10.59572
212.177063 16.158899
212.522446 12.37306
212.567429 21.67593
212.731125 28.718241
212.998962 6.763889
213.089615 391.950592
213.128082 971.747009
213.196899 2.35
213.250366 17.753969
213.283203 4.427083
213.303574 6.0
213.442474 10.97436
213.490082 40.669239
213.720413 12.66912
213.760254 22.336109
213.862839 9.736842
213.878113 10.03157
213.898453 8.336805
215.068329 84.818611
215.104843 362.915314
215.142975 155.0439
215.172348 9.696875
215.479004 7.714285
215.519501 7.388514
215.712906 11.12247
215.78392 10.875
216.30162 10.00154
217.090759 48.880051
217.118896 57.545189
217.146652 5.724359
217.900925 13.08255
218.044937 19.24103
219.095444 45.676529
219.115692 100.277802
219.192261 4.225
219.841232 17.01042
220.086044 726.14801
220.806885 5.840278
221.120911 194.483597
221.134079 25.41927
221.291733 16.815969
221.435898 20.75758
221.567459 6.880952
221.749786 4.297619
221.830032 10.23214
221.85762 6.927469
222.102219 168.034103
222.133438 86.271248
222.188354 14.47244
222.246323 6.671053
223.035416 12.44983
223.070709 28.867229
223.111557 2664.218994
223.196411 2.4
223.249878 10.66865
223.269196 24.25194
223.336777 1.666667
223.460831 4.708333
223.482025 10.37862
223.637405 21.71059
223.691208 17.08333
223.733292 14.5307
223.825684 7.019737
223.846573 7.005208
223.884018 17.336109
223.89917 20.43803
223.96936 14.84828
223.992462 11.36687
224.031937 4.741667
224.160553 10.97365
224.429993 17.763161
224.507767 4.898148
224.525711 36.307961
224.643631 15.00362
224.689941 7.148148
224.708817 1.833333
224.732666 7.041667
224.753143 7.007576
224.784317 23.41601
224.863037 6.306159
224.893982 16.33893
224.913147 25.438959
225.067337 74.166656
225.090179 310.702301
225.127167 7180.299805
225.190796 69.925987
225.221039 35.667889
225.249542 10.32328
225.279755 94.330254
225.311798 9.791667
225.340225 62.92321
225.35881 21.27212
225.375443 71.786362
225.395111 12.41967
225.425064 44.845539
225.449951 32.870548
225.485474 35.235611
225.499588 9.738475
225.639389 18.733931
225.665649 4.15
225.747498 19.8955
225.807327 50.59201
225.995285 21.56167
226.035309 34.214649
226.134689 3632.775879
226.210617 3.375
226.249924 12.56481
226.26297 12.66667
226.294342 9.338235
226.4776 16.217739
226.564301 23.89394
226.590042 24.373409
226.639725 26.006359
226.666061 6.755556
226.749176 38.597351
226.769974 28.665251
226.949478 4.225
226.966003 5.041667
227.107346 318.938507
227.142685 5134.233887
227.208176 52.010811
227.229294 5.015
227.305511 9.797101
227.324692 48.611889
227.385315 12.89286
227.431412 6.67803
227.499817 20.69253
227.521469 21.799931
227.546844 11.33681
227.645844 41.61475
227.68335 12.40333
227.720032 16.33951
227.777802 12.66755
227.853241 4.680556
227.924637 7.535
227.987869 6.720238
228.07193 4.669117
228.147156 36.891811
228.339951 2.005952
228.600647 21.63036
228.692856 39.14584
228.751068 7.481667
228.798676 6.066667
228.902771 3.0
229.083954 393.3591
229.098282 40.302422
229.160568 226.796707
229.223969 2.4
229.28717 10.33333
229.460434 8.552536
230.104904 20.83567
231.081833 24.039709
231.102707 132.382904
232.121445 53.859581
232.15123 8.333333
232.787735 10.45333
232.80925 7.741667
233.094635 78.014793
233.116272 21.256201
233.132614 37.33889
233.150436 9.629902
233.78714 7.958333
233.829529 5.939394
234.106979 131.154694
234.141235 41.945351
234.15918 8.41565
235.08046 29.901159
235.110611 1306.208008
235.152328 70.88723
235.17189 5.208333
235.225098 2.347222
235.266876 27.00901
235.393875 9.653985
235.598587 4.166667
235.71669 4.898148
235.732239 2.695513
235.903198 15.35263
235.919235 3.669444
235.953278 20.321541
235.970474 46.45557
236.015427 6.708333
236.068878 10.13626
236.188293 12.80293
236.91423 16.74107
237.093719 209.205902
237.128326 2337.413086
237.159882 157.461197
237.235733 12.19032
237.2677 14.425
237.305222 8.380815
237.372604 8.300439
237.464172 21.861019
237.482147 6.054825
237.528305 25.248249
237.611359 47.800968
237.648422 2.083333
237.76091 11.01293
237.795441 8.881667
237.862961 9.267858
237.884048 5.844298
237.900436 5.741667
238.007782 3.003788
238.066818 4.010417
238.797394 7.435606
238.95192 11.875
239.036896 19.378151
239.104126 387.029205
239.142441 2710.465088
239.203796 11.0032
239.222275 16.858089
239.276093 5.678764
239.324371 2.053571
239.383728 9.361486
239.436646 69.828369
239.47525 11.0
239.578537 7.852564
239.598923 3.066667
239.609848 6.023809
239.648239 9.556818
239.690643 6.338542
239.728638 25.07947
239.836731 16.505079
239.946579 6.639493
240.201843 18.73127
240.264587 10.96212
240.315826 5.358974
240.806732 4.670455
240.850021 12.00079
240.947113 9.520833
240.975327 5.857143
241.082321 52.055031
241.121902 196.1073
241.1577 1462.063965
241.244324 3.669872
241.365112 16.80093
241.406448 5.801667
241.833649 11.68519
242.040833 28.7505
242.098831 10.35556
242.231552 24.29554
242.36412 15.08265
243.109772 98.957283
243.135208 365.423889
243.173813 41.630779
243.23436 27.381411
243.291138 2.347222
243.353165 9.25641
243.474487 2.075
243.562531 4.363636
243.866287 9.934524
244.123215 77.78968
244.154678 2.354167
244.393921 3.686404
244.470932 7.111111
244.911255 25.234501
245.096024 4.669872
245.127777 128.627396
245.441055 7.653986
245.82637 13.225
245.960098 20.27586
246.099808 50.92905
246.116791 26.801519
246.301132 2.722222
246.738113 7.486111
246.841949 10.20833
247.072403 33.808731
247.112228 395.977905
247.14563 174.625397
247.191879 19.807289
247.667969 12.67244
247.829956 40.050201
248.116379 230.356506
248.276062 3.333333
248.303543 10.71667
248.534927 9.939394
248.692978 24.551991
248.868439 14.53294
249.087875 67.357483
249.127121 1881.417969
249.163315 85.130882
249.227707 11.08889
249.260895 5.054487
249.293106 18.789471
249.34108 8.927469
249.373596 2.670455
249.488968 8.334523
249.570297 43.548981
249.751648 46.422951
249.82428 7.35
249.84642 23.44022
249.909698 16.46558
249.956482 20.48007
250.027313 5.016667
250.192825 7.022223
250.217453 16.75362
250.377762 4.458333
251.093155 87.658508
251.106369 56.965611
251.143784 1471.369995
251.21225 17.56818
251.229706 7.190217
251.25621 9.395833
251.273422 13.85195
251.442963 2.782408
251.471054 20.820829
251.488663 5.523809
251.504105 7.576149
251.537292 3.380953
251.680786 7.783046
251.741501 8.451206
251.769089 11.00595
251.890533 10.14286
251.945816 14.67105
251.991516 18.10734
252.358902 10.42708
252.562103 12.9631
252.874878 10.22685
253.080582 105.9039
253.12439 420.590393
253.158295 1079.230957
253.206345 4.375
253.310135 9.928572
253.330078 16.77932
253.363342 7.741667
253.510895 9.700269
253.844467 23.24297
253.90033 11.57407
254.137115 1.720238
254.204544 20.958969
254.533646 4.007576
254.686554 7.078432
254.891495 6.402778
255.108292 112.962502
255.136658 863.278687
255.180466 60.538551
255.351822 4.680556
255.381012 7.737069
256.113281 48.30225
257.118744 52.668159
257.156647 10.45
257.528107 5.884804
258.101501 85.553497
258.16333 18.74679
259.107758 121.423599
259.145935 456.162506
259.330017 2.669444
259.888397 4.297619
260.041473 7.083333
260.118439 169.116104
260.212677 4.481482
260.274353 13.3592
260.352905 12.47619
260.431274 4.469445
260.814453 8.814815
260.881958 24.140869
261.126556 1311.144043
261.159882 114.622002
261.190002 6.669445
261.214905 9.523809
261.27005 12.61232
261.298157 34.07164
261.43985 17.852011
261.454712 28.402399
261.525696 18.829359
261.544312 16.355391
261.593262 31.8923
261.608398 5.482143
261.696716 27.367109
261.722931 15.97766
261.786316 15.66987
261.850037 9.338889
261.913788 35.1838
262.011993 17.45503
262.134766 5400.306152
262.327362 7.714285
262.349335 16.43219
262.382782 27.962891
262.648224 9.013888
262.831909 21.421301
263.104279 396.804993
263.212311 6.342593
263.232422 19.52968
263.288513 13.41733
263.308289 11.04762
263.359802 79.122803
263.406738 14.49921
263.473053 31.58252
263.523224 27.680559
263.551086 2.008333
263.583221 32.294868
263.658386 17.34234
263.680908 27.712879
263.707428 23.577841
263.733948 62.303391
263.751221 8.613757
263.795044 45.210491
263.883057 4.816667
263.91153 31.086901
263.942688 6.906746
263.957672 15.79427
263.988251 9.002778
264.013184 23.298071
264.048309 7.148809
264.105011 104.5009
264.149719 833.041016
264.246216 13.32237
264.280151 12.32051
264.316895 6.958333
264.567505 21.26466
264.619598 11.19444
264.771301 9.177631
264.855804 17.771931
264.933746 7.541667
264.960999 14.8287
265.120911 325.362915
265.1586 4498.894043
265.227753 40.674931
265.259491 58.182362
265.287781 16.70039
265.321075 19.76589
265.339264 18.294121
265.360016 33.41927
265.384033 3.802778
265.404266 25.453039
265.424316 20.676189
265.454285 37.127831
265.494171 14.70588
265.581146 14.11532
265.648193 25.490919
265.673584 19.26976
265.815399 20.920919
265.842804 20.461361
265.877411 7.704166
265.937439 35.054829
265.969452 33.24044
266.034637 16.188339
266.064636 9.599999
266.331421 8.366936
266.51416 14.71573
266.729797 9.783334
266.876709 16.110359
267.101318 166.218796
267.138916 980.688477
267.174774 1325.838989
267.231506 16.773371
267.352081 16.966961
267.413116 40.436489
267.458679 37.240131
267.482544 20.85281
267.531097 14.69091
267.627441 10.33796
267.655884 2.678571
267.702362 26.17592
267.778259 4.875
267.801575 13.05
268.071533 5.672619
268.284546 5.815476
269.069336 5.013889
269.114929 59.915192
269.24649 3.339286
269.27594 4.054824
269.406586 17.39646
270.585327 24.43269
271.007477 19.07184
271.133667 88.691231
271.207733 4.333333
271.360687 8.266666
271.620544 8.684524
271.649048 10.67157
272.117065 289.992096
272.252563 18.375
272.400696 13.43678
272.45813 3.002451
272.487396 8.347222
273.241211 16.157049
273.607849 5.160714
274.133881 241.041702
274.325043 9.506945
274.350891 18.34849
274.454376 3.337121
274.546722 10.33452
275.101105 87.315903
275.142365 862.667725
275.210388 9.42735
275.233734 11.3344
275.275024 35.465408
275.304657 12.08223
275.388824 7.667793
275.417786 29.45579
275.461365 62.072659
275.49295 18.18243
275.564758 47.705849
275.695862 30.42592
275.735992 16.194441
275.949066 20.779619
276.00119 18.699301
276.048096 17.668909
276.112 50.280991
276.481049 2.722222
276.59079 40.08387
276.753326 30.887251
276.810608 19.77844
277.123657 441.729492
277.158844 6192.03418
277.231171 27.044399
277.285767 15.34248
277.309753 49.661251
277.340729 28.16293
277.364258 35.98735
277.397949 71.293297
277.440308 14.55556
277.484558 38.116959
277.505646 34.813259
277.518494 73.112083
277.554688 27.412161
277.633179 7.022059
277.660309 26.37866
277.706512 28.381321
277.764587 3.047619
277.946594 12.75788
278.100983 9.25641
278.271393 4.011905
278.707306 17.65761
278.921478 7.408333
279.13562 1077.532959
279.175293 667.04657
279.25058 2.761364
279.304108 23.94289
279.415619 38.315781
279.439056 6.001812
279.496094 14.16329
279.613373 25.026369
279.734802 8.714286
279.758942 14.4406
279.893188 8.388441
279.963684 7.481667
280.026733 5.013889
280.272766 29.38604
280.721558 2.893518
280.813324 19.1875
280.836517 14.86111
280.917053 10.54688
281.119781 74.257751
281.153168 2154.350098
281.188141 275.4198
281.215637 12.06187
281.250275 28.38846
281.297241 5.107456
281.418854 13.18673
281.466522 24.08169
281.519043 7.720238
281.54837 20.82305
281.566376 28.50132
281.676666 3.355392
281.711792 20.621099
281.888489 17.53194
281.951141 5.672222
282.235504 6.888889
282.512207 4.002193
282.605804 4.120098
282.732544 6.816667
282.856323 6.833333
283.073853 11.42432
283.12738 64.633797
283.169098 1938.337036
283.266266 4.42803
283.30542 10.63377
283.320221 13.53452
283.340088 11.33929
283.416595 24.02206
283.454468 19.33412
283.477844 1.666667
283.530579 11.04167
283.770813 7.429762
283.994202 10.59572
284.042786 22.64254
284.058044 3.0
284.21051 2.670455
284.228058 1.720238
284.720978 11.36905
284.798309 9.926111
285.148651 40.98674
285.402313 12.43011
285.619751 13.93667
286.096252 7.395202
286.251526 9.280702
286.308167 16.74132
286.378113 40.110359
286.696625 13.34543
287.142548 2004.082031
287.25177 4.933333
287.356842 44.10062
287.39682 16.122549
287.498413 12.30697
287.59967 17.75556
287.645935 4.001984
287.699799 12.56517
287.830963 50.870998
288.117126 64.146347
288.259766 10.7002
288.732605 15.16447
288.935181 5.414216
289.158539 934.432007
289.217529 11.71264
289.325134 3.888889
289.386932 4.560185
289.471985 2.347222
289.525269 4.017857
289.836578 7.266666
289.868835 16.03261
290.017822 7.407609
290.13208 203.110901
290.391663 11.0545
290.467224 7.03858
291.139038 213.230194
291.196777 3.094697
291.226624 2.333333
291.737427 13.35756
292.172943 29.427219
293.114319 68.950241
293.15451 1879.003052
293.187378 16.226851
293.254517 17.33712
293.272522 11.25621
293.311432 20.89575
293.384155 18.75
293.463196 13.68182
293.504913 4.069444
293.554138 37.424419
293.636749 10.08056
293.688324 15.44537
293.713531 13.35756
293.75528 14.36111
293.791992 5.333333
293.934296 8.560484
293.951721 6.727941
294.189911 86.411987
294.298065 11.00595
294.370453 7.208333
294.483154 4.001984
294.648834 26.97167
294.740021 3.802778
294.877319 8.679598
295.13443 185.041794
295.169373 4194.233887
295.237946 3.408334
295.277191 47.119259
295.313477 10.49359
295.343475 15.12842
295.374054 18.469589
295.427155 6.004902
295.457153 12.08681
295.492249 24.40741
295.522308 23.098761
295.558746 16.12175
295.571167 7.005952
295.600739 11.96037
295.700378 25.92326
295.750153 4.001984
295.881775 21.510969
295.908783 4.875
295.984802 18.07527
296.085297 17.30769
296.103546 10.40653
296.395386 19.05724
296.978058 15.2381
297.013885 4.120098
297.147858 335.548798
297.187439 86.4198
297.331726 2.671296
297.355743 5.003205
297.529694 12.66667
297.550812 6.958333
297.847839 6.057692
297.901886 7.058333
298.022339 13.96154
298.124084 6.673611
298.484619 15.04167
298.671265 19.019609
299.159332 212.843704
299.705963 7.013889
299.998108 3.0
300.079468 12.47451
301.105042 18.172041
301.147034 14.11204
301.367188 19.26235
302.271362 21.52083
303.141174 295.415405
303.201904 26.19149
303.239563 3.0
303.287933 3.440476
303.312286 15.58854
303.378906 6.775537
303.397095 9.05235
303.427399 3.708333
303.500122 5.671875
303.548889 9.748334
303.611389 14.43056
303.645599 9.689815
303.841919 5.510417
303.918182 6.44079
304.367432 2.4
304.552979 28.71719
304.646667 10.03852
304.90271 35.103722
305.102356 69.614342
305.153748 5886.766113
305.23053 55.275551
305.24707 7.347222
305.310425 16.26136
305.330353 4.458333
305.352814 53.28796
305.380951 16.01647
305.417084 11.71667
305.458405 30.904989
305.498657 50.677292
305.539948 7.0
305.588989 13.58681
305.617035 39.690121
305.652069 27.1614
305.678345 31.037201
305.710205 12.40833
305.75531 22.39167
305.784882 30.35232
305.818085 38.723011
305.923218 9.32545
305.941406 3.703704
306.017639 10.41987
306.038422 29.42942
306.057007 7.046875
306.270416 3.490385
306.407654 6.469444
306.739227 15.13611
307.12912 26.0
307.168701 1600.98999
307.251404 16.322371
307.287659 7.081667
307.382721 12.44588
307.41095 18.038931
307.476746 14.67816
307.51944 13.36012
307.642914 32.032558
307.775024 36.882561
307.867004 17.115391
307.934448 1.720238
308.58493 10.5
309.14386 42.790001
309.217804 27.370541
309.316498 3.490385
309.805328 10.66667
310.192139 42.268661
310.491516 4.349638
311.161255 383.531586
311.381012 4.007576
311.412384 16.1024
311.436035 21.338539
311.516083 8.003968
311.559052 8.34543
312.1427 16.667351
312.240265 10.2608
313.178497 792.778076
313.256165 3.333333
313.286987 6.401515
313.47464 7.5625
313.545624 6.030303
313.607605 9.796296
313.76236 5.703947
313.847534 3.375
313.878723 11.07562
314.18045 6.75
315.123077 11.27273
315.163086 13.29643
315.229614 3.375
315.248138 8.086538
316.182007 36.56517
317.196991 27.17289
317.556213 14.54667
318.15274 16.2288
318.61731 10.64015
319.203094 126.810997
319.301422 11.39706
319.829346 8.704166
321.000092 9.700269
321.062408 17.714199
321.112305 5.898148
321.151947 305.935303
321.209625 120.461502
321.252625 17.474911
321.279816 3.15
321.315033 36.30159
321.367981 1.675
321.38678 44.957829
321.433228 32.685589
321.474609 8.160714
321.492676 13.11177
321.511383 10.66759
321.567993 15.69823
321.742218 25.780001
321.866974 4.453432
321.898407 9.375
322.066925 17.72673
322.291656 5.466667
322.623047 14.91667
322.760162 5.347222
322.835175 5.76923
322.916443 9.240384
323.098663 29.72394
323.164581 10731.570312
323.244141 107.808998
323.262848 32.191669
323.298523 36.2397
323.322357 32.41663
323.345154 42.53529
323.413635 68.034767
323.454681 4.898148
323.48642 11.69551
323.530823 54.14563
323.560455 18.67539
323.582214 10.30044
323.637756 23.25646
323.656281 10.3869
323.676788 54.7547
323.897003 21.153879
323.956635 12.39852
323.989838 32.169182
324.017639 5.010417
324.092346 41.255489
324.117401 44.95076
324.367249 3.852273
324.711914 15.17143
324.844604 12.075
325.009247 6.4
325.143188 53.14539
325.180756 1572.151978
325.220551 58.229679
325.257721 5.260417
325.307434 21.207439
325.390503 4.763889
325.437714 25.5012
325.47403 33.245831
326.019287 5.354167
326.058868 13.00463
326.217072 40.310661
326.537506 20.000971
327.678955 4.166667
328.022095 8.625
328.328033 9.063725
328.983643 11.48981
329.154022 8.692307
329.829803 7.242816
331.204407 96.263153
331.639191 10.74383
331.778564 11.92628
335.199829 89.695793
337.214661 54.968151
338.965729 3.185606
338.997223 12.48981
339.118744 27.337851
339.157501 187.934601
339.341309 2.520833
339.438232 5.746795
340.287384 13.7219
340.349792 7.486111
340.548431 4.35
340.612946 7.533333
341.123901 20.061871
341.175568 2187.907959
341.251617 5.558333
341.376587 7.481482
341.396729 2.347222
341.537079 23.741671
341.559143 2.375
341.661804 9.338889
341.695129 28.602079
341.861694 10.17339
341.972595 12.46944
342.097748 22.636221
342.257019 4.531863
342.30014 11.30044
342.322083 3.053571
343.002563 6.333333
343.190125 173.307693
343.308655 7.777778
344.30188 14.02778
344.438568 8.680555
347.19751 303.880096
347.562988 7.666667
349.179718 44.347408
349.481567 7.008333
350.227173 26.370831
351.192322 20.543859
353.209351 85.00219
355.93396 11.9616
357.169159 25.884899
357.267578 4.033333
357.550476 20.667589
358.175812 57.02216
359.18576 47.340439
359.206696 86.478996
359.319794 7.964285
359.351807 8.666667
365.203796 80.331123
365.521088 8.727273
367.218292 19.77976
367.239105 15.33594
377.212799 169.880402
377.616943 9.926075
377.796204 10.92045
377.909485 14.32783
378.17926 6.416667
385.237396 45.64743
393.42395 11.5126
394.113983 16.019739
395.222504 384.121307
406.910187 12.04167
410.363281 19.75758
410.394501 8.347222
410.444305 34.508171
410.505524 6.446428
410.529999 18.976339
410.565338 77.261223
410.649933 70.617592
410.706787 46.4436
410.74765 67.501511
410.779785 17.680031
410.816437 25.966169
410.846344 55.207031
410.872406 44.43993
410.906219 32.75111
410.941742 71.004204
410.974243 3.148809
411.004639 11.83712
411.124542 22.425261
411.187469 5.166667
411.508545 13.03852
411.547913 8.20119
411.799225 5.721154
412.071167 20.684509
412.309845 12.42857
412.615448 25.096491
412.699066 3.714286
412.720459 8.166667
413.125458 102.894402
413.187347 17.35294
413.23288 17476.410156
413.343384 76.945129
413.390137 25.05699
413.413391 13.67262
413.44632 38.71545
413.504913 199.621994
413.558807 105.2444
413.598389 45.022621
413.646362 47.886311
413.67749 75.435463
413.727814 50.718578
413.78894 28.353769
413.811371 77.439957
413.836487 31.75741
413.854584 43.94817
413.899689 95.052971
413.962921 64.371323
414.10553 65.611191
414.203186 13.15152
414.418243 17.105101
414.471344 3.0
414.538666 12.98718
414.582916 35.89286
414.6315 8.189394
414.772369 28.79092
415.042542 34.460609
415.176239 28.104561
415.474213 6.037037
415.70108 3.675926
415.837158 7.852564
416.211914 6.675
416.297119 6.352941
416.454224 4.375
417.135071 2.354167
417.540222 6.880952
418.273163 11.17083
418.898834 21.007351
423.036041 30.81333
431.207092 20.386669
431.235779 87.184143
589.572693 13.21338
677.472656 6.306159
967.5849 33.735882
1164.605347 9.688597
1531.375122 18.308331
