>compound (2R)-N-methyl-1-phenyl-N-prop-2-ynylpropan-2-amine
>formula C13H17N 
>ionization [M+H]+
>parentmass 188.144348
#inchi InChI=1S/C13H17N/c1-4-10-14(3)12(2)11-13-8-6-5-7-9-13/h1,5-9,12H,10-11H2,2-3H3/t12-/m1/s1
#inchikey MEZLKOACVSPNER
#Ion_Source LC-ESI
#Instrument qTof
#Compound_Source Commercial
#PI Dorrestein
#Data_Collector Garg_Neha
#Scan -1
#Precursor_MZ 188.145
#ExactMass 187.136
#Charge 1
#CAS_Number N/A
#Pubmed_ID N/A
#Smiles N/A
#INCHI_AUX N/A
#Library_Class 1
#SpectrumID CCMSLIB00000077070
#IonMode Positive
#UpdateWorkflowName UPDATE-SINGLE-ANNOTATED-GOLD
#LibraryQualityString Gold
#TaskID 48f7f52fc6d249b5abbcc6e7b3df5969
##Scan# 1045
#SpectrumFile NCP003017_G2_H11_2_BB1_01_15712.mzXML
#LibraryName NIH_Clinical_Collection_2.mgf
#MQScore -1
#Organism NIHcollection2_04212014_2_mgf
#TIC_Query 0
#RT_Query -1
#MZErrorPPM -1
#SharedPeaks 0
#MassDiff 0
#LibMZ -1
#SpecMZ 188.145
#SpecCharge 0
#internalFilename spec-00000.mgf

>collision 10
49.636822 172.0
52.540054 172.0
52.934643 172.0
53.11871 144.0
53.27113 148.0
53.54604 236.0
54.895798 144.0
55.024166 200.0
59.96244 176.0
60.07346 156.0
60.122833 192.0
60.342175 184.0
60.747929 284.0
61.349751 140.0
63.018085 180.0
64.065186 168.0
71.310051 200.0
71.400841 240.0
71.931587 160.0
73.278122 192.0
78.88279 200.0
91.032295 156.0
91.054893 5256.0
91.121109 132.0
92.058609 248.0
94.207993 160.0
96.079453 144.0
96.648003 256.0
97.092674 212.0
98.255173 176.0
99.291664 176.0
101.953629 136.0
106.040497 188.0
110.059212 148.0
116.957207 176.0
117.96888 168.0
118.945831 220.0
119.085907 13564.0
119.954475 116.0
120.088806 1648.0
122.627106 156.0
125.616081 140.0
125.959846 176.0
127.027596 172.0
127.088165 168.0
128.934677 192.0
141.027542 192.0
141.98642 176.0
145.033493 160.0
145.11499 192.0
145.955353 148.0
148.113785 408.0
148.714233 164.0
150.493744 200.0
157.104538 140.0
162.451782 184.0
164.990768 156.0
167.00116 200.0
167.977386 204.0
177.644287 176.0
178.108505 228.0
185.943588 172.0
187.053223 208.0
187.905518 196.0
188.017395 156.0
188.036499 144.0
188.058334 176.0
188.144348 14532.0
188.281021 176.0
188.370407 124.0
189.055878 140.0
189.147095 1684.0
190.09996 148.0
190.150391 232.0
190.398514 116.0
190.588013 168.0
910.572937 164.0
1261.658081 152.0
1277.14502 156.0
1346.288818 144.0
1355.395996 204.0
1368.610107 148.0
1399.649902 224.0
1402.294556 148.0
1424.51001 236.0
1439.059937 160.0
1445.159424 208.0
1509.552856 148.0
1509.645752 148.0
1534.282593 268.0
1537.831787 196.0
1557.618164 204.0
1607.011108 192.0
1608.232056 180.0
1654.777588 140.0
1669.057739 208.0
1740.182129 176.0
1741.785889 172.0
1800.272461 216.0
1802.325195 152.0
1805.571289 156.0
1812.605957 168.0
1838.790161 144.0
1885.485474 188.0
1920.291504 176.0
1952.108154 168.0
1955.493896 204.0
1965.788574 208.0
1989.837524 152.0
1997.782593 208.0
1998.298584 180.0
1999.766846 184.0
2002.188477 140.0
