>compound MLS001157764-01!
>formula C24H23N3O3
>ionization [M+H]+
>parentmass 402.18121804809056
#inchi InChI=1S/C24H23N3O3/c1-29-21-11-5-3-9-17(21)22-23-18(16-8-2-4-10-19(16)26-23)13-20(27-22)24(28)25-14-15-7-6-12-30-15/h2-5,8-11,13,15,27H,6-7,12,14H2,1H3,(H,25,28)
#inchikey SNXUWOKRCVICFV
#Ion_Source LC-ESI
#Instrument qTof
#Compound_Source NIH Natural Product Library
#PI Dorrestein
#Data_Collector VVP/LMS
#Scan -1
#Precursor_MZ 402.182
#ExactMass 401.174
#Charge 1
#CAS_Number N/A
#Pubmed_ID N/A
#Smiles COc1ccccc1c2[nH]c(cc3c4ccccc4nc23)C(=O)NCC5CCCO5
#INCHI_AUX N/A
#Library_Class 1
#SpectrumID CCMSLIB00000080252
#IonMode Positive
#UpdateWorkflowName UPDATE-SINGLE-ANNOTATED-GOLD
#LibraryQualityString Gold
#TaskID b1d8e8f6646f4e71acdff9ca3d919d08
##Scan# 2331
#SpectrumFile p2-B06_GB6_01_17994.mzXML
#LibraryName NIH_Natural_Products_Library.mgf
#MQScore -1
#Organism NIH_Natural_Products_Library
#TIC_Query 0
#RT_Query -1
#MZErrorPPM -1
#SharedPeaks 0
#MassDiff 0
#LibMZ -1
#SpecMZ 402.182
#SpecCharge 0
#internalFilename spec-00000.mgf

>collision 10
94.95327 176.0
94.98037 260.0
95.022659 120.0
95.081787 196.0
95.102226 180.0
95.118492 116.0
95.152184 136.0
95.196594 184.0
95.222603 180.0
95.253036 216.0
95.314919 208.0
95.34597 128.0
95.380547 152.0
95.412178 236.0
95.443535 312.0
95.460274 256.0
95.474495 236.0
95.49276 152.0
95.522888 104.0
95.542831 232.0
95.581841 152.0
95.599762 36.0
95.619225 252.0
95.637695 316.0
95.668594 132.0
95.691872 112.0
95.70842 200.0
95.735619 188.0
95.767769 188.0
95.813942 116.0
95.839867 144.0
95.859665 128.0
95.891663 172.0
95.912186 188.0
95.930908 216.0
95.984268 88.0
96.00106 144.0
96.014717 172.0
96.039337 216.0
96.067375 84.0
96.088058 120.0
96.139214 264.0
96.169662 124.0
96.183578 160.0
96.212685 96.0
96.234558 356.0
96.272438 156.0
96.2938 120.0
96.318428 176.0
96.343414 224.0
96.393433 140.0
96.411018 260.0
96.434692 180.0
96.448158 180.0
96.479233 116.0
96.512672 104.0
96.538094 108.0
96.578148 100.0
96.618858 316.0
96.637199 108.0
96.65937 152.0
96.692535 404.0
96.708382 316.0
96.750427 288.0
96.79248 156.0
96.812065 80.0
96.82872 188.0
96.850182 156.0
96.874741 144.0
96.910004 112.0
96.923721 116.0
96.937439 108.0
96.969528 120.0
96.986664 136.0
97.017799 132.0
97.047203 108.0
97.07235 160.0
97.077271 132.0
97.109413 276.0
97.122536 140.0
97.138603 220.0
97.167923 384.0
97.194313 100.0
97.232666 116.0
97.253189 92.0
97.296371 132.0
97.321899 104.0
97.33564 204.0
97.363243 72.0
97.406807 260.0
97.424026 288.0
97.442574 208.0
97.459389 176.0
97.498688 124.0
97.525307 152.0
97.544693 368.0
97.565521 232.0
97.581253 100.0
97.607529 132.0
97.628441 84.0
97.653481 240.0
97.681549 128.0
97.712135 124.0
97.719437 168.0
97.742287 160.0
97.746361 140.0
97.779472 140.0
97.792999 156.0
97.800667 104.0
97.831673 264.0
97.869133 176.0
97.888199 104.0
97.916031 188.0
97.938354 124.0
97.960304 332.0
98.008354 184.0
98.025108 128.0
98.065346 148.0
98.105408 248.0
98.131012 204.0
98.164787 224.0
98.193665 152.0
98.209442 172.0
98.22522 108.0
98.248894 64.0
98.266335 76.0
98.276985 84.0
98.328186 148.0
98.369392 184.0
98.400711 108.0
98.426384 112.0
98.451927 176.0
98.473846 200.0
98.497627 76.0
98.516037 124.0
98.545204 140.0
98.581451 168.0
98.620132 104.0
98.635246 308.0
98.653732 104.0
98.669548 132.0
98.702744 188.0
98.725197 116.0
98.743286 124.0
98.757423 128.0
98.781006 144.0
98.79673 352.0
98.808701 168.0
98.833382 104.0
98.861412 184.0
98.896965 384.0
98.928955 172.0
98.939041 160.0
98.953522 128.0
98.997108 132.0
99.016472 236.0
99.049225 172.0
99.092033 240.0
99.1129 144.0
99.154091 112.0
99.181541 132.0
99.220291 176.0
99.254547 288.0
99.275444 92.0
99.304932 120.0
99.323418 320.0
99.34288 192.0
99.364708 172.0
99.39344 100.0
99.411545 172.0
99.430061 304.0
99.457977 100.0
99.48378 116.0
99.516685 160.0
99.5354 96.0
99.553436 424.0
99.573135 128.0
99.591194 168.0
99.642654 216.0
99.658981 352.0
99.720154 72.0
99.75013 152.0
99.781776 208.0
99.8116 196.0
99.838348 240.0
99.850441 216.0
99.865913 156.0
99.897125 108.0
99.930946 188.0
99.952835 148.0
99.971352 196.0
100.004021 172.0
100.030312 224.0
100.052109 164.0
100.071259 240.0
100.122177 116.0
100.142693 108.0
100.165878 364.0
100.185997 180.0
100.213509 176.0
100.23127 188.0
100.24839 244.0
100.262413 144.0
100.278275 144.0
100.297157 188.0
100.333427 136.0
100.375122 156.0
100.398056 304.0
100.432961 76.0
100.477737 124.0
100.506142 164.0
100.509956 148.0
100.554535 76.0
100.591309 168.0
100.617088 176.0
100.638451 276.0
100.670197 116.0
100.689735 92.0
100.716393 264.0
100.760757 172.0
100.774956 216.0
100.801941 140.0
100.828033 132.0
100.86586 224.0
100.886246 136.0
100.929756 252.0
100.950401 172.0
100.978539 156.0
100.99823 176.0
101.019592 100.0
101.033577 164.0
101.047668 472.0
101.066246 148.0
101.08107 160.0
101.101929 48.0
101.132637 136.0
101.147896 132.0
101.160866 116.0
101.182121 268.0
101.195068 176.0
101.221649 176.0
101.23629 76.0
101.255089 216.0
101.27845 72.0
101.318565 160.0
101.334778 240.0
101.363251 292.0
101.418022 256.0
101.424583 116.0
101.429016 196.0
101.444664 152.0
101.474182 320.0
101.489876 104.0
101.513603 88.0
101.5317 128.0
101.545029 164.0
101.581474 164.0
101.606087 172.0
101.639175 116.0
101.64637 108.0
101.660149 152.0
101.677383 144.0
101.689827 188.0
101.723343 184.0
101.77179 104.0
101.785843 140.0
101.808952 356.0
101.827858 116.0
101.831207 68.0
101.877357 304.0
101.909149 144.0
101.949104 192.0
101.974686 124.0
102.005371 104.0
102.065987 144.0
102.089279 72.0
102.112877 120.0
102.120644 208.0
102.141121 144.0
102.169785 192.0
102.211533 160.0
102.24147 196.0
102.286163 344.0
102.30455 440.0
102.346725 196.0
102.379341 148.0
102.401596 120.0
102.421364 176.0
102.439903 196.0
102.466927 84.0
102.498596 260.0
102.524117 120.0
102.543137 128.0
102.570473 128.0
102.600708 112.0
102.639015 144.0
102.663574 68.0
102.691322 124.0
102.721565 152.0
102.749947 120.0
102.792061 308.0
102.795753 120.0
102.826561 128.0
102.866531 156.0
102.889206 152.0
102.907303 328.0
102.950089 164.0
102.98822 116.0
103.019669 192.0
103.027222 292.0
103.049194 92.0
103.068237 168.0
103.090126 160.0
103.114685 140.0
103.131607 148.0
103.167992 84.0
103.20797 248.0
103.23127 324.0
103.246017 232.0
103.267624 464.0
103.319702 336.0
103.345039 136.0
103.365425 156.0
103.396034 184.0
103.41687 260.0
103.46302 172.0
103.511337 92.0
103.54435 336.0
103.578392 144.0
103.585907 116.0
103.61377 148.0
103.633484 120.0
103.654945 176.0
103.66996 168.0
103.702385 72.0
103.744949 116.0
103.766937 52.0
103.79969 164.0
103.841766 144.0
103.856956 112.0
103.872963 280.0
103.896034 100.0
103.92041 132.0
103.951111 124.0
103.968765 220.0
103.997025 104.0
104.02758 236.0
104.053024 300.0
104.071236 252.0
104.102051 176.0
104.169571 200.0
104.178093 100.0
104.189835 192.0
104.213066 104.0
104.240715 184.0
104.258476 104.0
104.283882 128.0
104.324486 244.0
104.351433 148.0
104.369102 180.0
104.384384 192.0
104.403961 340.0
104.436768 156.0
104.444107 224.0
104.463837 48.0
104.506889 196.0
104.526802 244.0
104.569031 176.0
104.576698 188.0
104.610352 116.0
104.655144 172.0
104.68325 164.0
104.708084 328.0
104.727882 100.0
104.767754 232.0
104.78685 160.0
104.79982 140.0
104.835754 144.0
104.892334 112.0
104.917961 180.0
104.93335 132.0
104.955269 320.0
104.993736 124.0
105.023232 212.0
105.056641 436.0
105.077042 220.0
105.129959 180.0
105.155167 224.0
105.163658 152.0
105.209694 340.0
105.248489 144.0
105.275574 180.0
105.318771 192.0
105.352646 72.0
105.409859 192.0
105.425186 120.0
105.452034 196.0
105.480484 104.0
105.498665 124.0
105.524323 40.0
105.540146 108.0
105.561127 160.0
105.57885 144.0
105.597939 168.0
105.619797 120.0
105.663322 112.0
105.698181 176.0
105.732269 212.0
105.751389 176.0
105.780556 128.0
105.805595 232.0
105.822174 152.0
105.850525 244.0
105.900848 180.0
105.930145 160.0
105.964355 132.0
105.994659 196.0
106.00309 168.0
106.035622 280.0
106.072968 120.0
106.097435 124.0
106.111923 140.0
106.133942 200.0
106.177002 228.0
106.203575 144.0
106.244202 136.0
106.276001 268.0
106.310936 172.0
106.335579 288.0
106.351936 116.0
106.371338 220.0
106.406349 228.0
106.448425 168.0
106.474098 160.0
106.494858 256.0
106.571838 336.0
106.606598 124.0
106.629303 256.0
106.672371 108.0
106.688049 172.0
106.709572 128.0
106.725822 268.0
106.7453 112.0
106.761406 212.0
106.788902 196.0
106.79705 132.0
106.834038 52.0
106.851051 172.0
106.875977 68.0
106.916191 184.0
106.931541 180.0
106.976151 196.0
107.006592 132.0
107.046951 296.0
107.088013 132.0
107.106339 156.0
107.133331 212.0
107.154556 172.0
107.209564 156.0
107.234299 216.0
107.260033 140.0
107.300262 132.0
107.314697 96.0
107.367378 168.0
107.386871 112.0
107.401306 124.0
107.420105 180.0
107.45298 160.0
107.483231 152.0
107.500221 144.0
107.515739 164.0
107.541611 180.0
107.566383 188.0
107.580833 220.0
107.598869 136.0
107.632446 88.0
107.666588 196.0
107.691711 368.0
107.722183 200.0
107.764175 124.0
107.791046 144.0
107.798882 112.0
107.806915 96.0
107.835739 188.0
107.868698 228.0
107.877197 156.0
107.884674 304.0
107.921082 168.0
107.941002 224.0
107.970276 176.0
107.993904 204.0
108.029266 208.0
108.072716 140.0
108.090454 196.0
108.108231 148.0
108.116516 24.0
108.122055 152.0
108.159081 164.0
108.175339 116.0
108.195938 208.0
108.24659 152.0
108.275581 80.0
108.312103 340.0
108.324104 212.0
108.34214 288.0
108.362747 392.0
108.372017 108.0
108.377274 216.0
108.403183 128.0
108.422676 64.0
108.456139 276.0
108.483452 168.0
108.503403 364.0
108.599884 160.0
108.621254 72.0
108.673019 148.0
108.686462 224.0
108.718872 160.0
108.742065 168.0
108.769043 72.0
108.807068 256.0
108.83548 112.0
108.864548 168.0
108.900589 164.0
108.916473 288.0
108.963089 228.0
108.969574 100.0
108.97776 184.0
109.003502 144.0
109.053093 128.0
109.0923 208.0
109.120132 160.0
109.160561 108.0
109.183838 132.0
109.212685 276.0
109.241592 108.0
109.269043 120.0
109.287994 168.0
109.313293 120.0
109.349777 424.0
109.402153 272.0
109.426071 336.0
109.459282 152.0
109.473671 104.0
109.489998 384.0
109.521759 140.0
109.558914 312.0
109.602356 216.0
109.630898 248.0
109.657959 76.0
109.675949 120.0
109.705139 144.0
109.721817 144.0
109.75309 132.0
109.767685 148.0
109.785034 152.0
109.81366 176.0
109.841293 284.0
109.886131 236.0
109.901588 164.0
109.939407 196.0
109.963783 68.0
109.988831 132.0
110.007111 148.0
110.029732 256.0
110.071602 124.0
110.09861 244.0
110.130814 248.0
110.14753 192.0
110.161148 188.0
110.177383 164.0
110.220688 136.0
110.241806 96.0
110.267029 208.0
110.285255 180.0
110.321655 256.0
110.354736 228.0
110.388924 128.0
110.412102 164.0
110.420555 96.0
110.426041 128.0
110.448524 76.0
110.466881 256.0
110.53849 132.0
110.573486 276.0
110.613052 176.0
110.642204 196.0
110.679077 168.0
110.711105 140.0
110.719246 128.0
110.739464 244.0
110.754128 144.0
110.770172 176.0
110.788094 280.0
110.804955 120.0
110.822197 156.0
110.844437 76.0
110.870285 100.0
110.932274 244.0
110.954826 124.0
110.969856 68.0
110.975639 228.0
111.000107 156.0
111.026596 152.0
111.05761 156.0
111.104202 92.0
111.131584 160.0
111.149391 88.0
111.168083 152.0
111.200279 132.0
111.225197 424.0
111.240608 156.0
111.261047 152.0
111.280495 72.0
111.335205 148.0
111.372894 52.0
111.402794 276.0
111.435669 200.0
111.450966 248.0
111.487801 304.0
111.527428 168.0
111.558746 144.0
111.584274 68.0
111.609901 136.0
111.623932 160.0
111.642715 220.0
111.669258 200.0
111.696159 156.0
111.719261 88.0
111.752304 192.0
111.769821 468.0
111.807747 256.0
111.84845 340.0
111.881783 268.0
111.932144 320.0
111.958984 56.0
111.983696 100.0
112.045616 156.0
112.069771 124.0
112.093109 204.0
112.118767 220.0
112.144196 160.0
112.172493 172.0
112.191643 144.0
112.237541 328.0
112.286957 168.0
112.321419 160.0
112.365089 196.0
112.388557 160.0
112.424232 124.0
112.480392 112.0
112.505798 148.0
112.526207 60.0
112.532867 104.0
112.540634 200.0
112.559448 88.0
112.593124 180.0
112.613953 160.0
112.659958 304.0
112.70285 280.0
112.71701 176.0
112.740982 324.0
112.786644 164.0
112.807884 152.0
112.829811 100.0
112.850174 148.0
112.877655 232.0
112.902061 52.0
112.929245 224.0
112.952354 280.0
112.977448 268.0
113.000336 100.0
113.02549 176.0
113.030983 132.0
113.056648 196.0
113.089218 320.0
113.119881 168.0
113.164719 208.0
113.211121 72.0
113.238571 148.0
113.258606 200.0
113.27343 100.0
113.304092 212.0
113.327431 112.0
113.34758 324.0
113.402222 280.0
113.442116 192.0
113.48027 180.0
113.513351 252.0
113.521782 228.0
113.543205 200.0
113.567986 108.0
113.572548 104.0
113.586319 304.0
113.628777 188.0
113.658577 148.0
113.680229 172.0
113.732819 188.0
113.762169 160.0
113.779221 244.0
113.788414 124.0
113.797989 104.0
113.802177 176.0
113.845131 124.0
113.88076 148.0
113.911064 196.0
113.930412 172.0
113.947227 208.0
113.96611 168.0
113.990547 116.0
114.026672 100.0
114.058556 140.0
114.073936 192.0
114.092567 100.0
114.107445 120.0
114.134201 184.0
114.1521 144.0
114.187088 324.0
114.205994 152.0
114.223381 348.0
114.24749 316.0
114.256615 156.0
114.283981 116.0
114.30407 216.0
114.356873 252.0
114.37706 216.0
114.399384 248.0
114.424454 92.0
114.451805 104.0
114.465393 176.0
114.492104 140.0
114.517082 104.0
114.563553 164.0
114.580643 212.0
114.609177 148.0
114.621025 152.0
114.64341 104.0
114.651588 160.0
114.682495 236.0
114.693802 116.0
114.718254 224.0
114.756889 124.0
114.822922 120.0
114.856384 64.0
114.861511 44.0
114.878227 336.0
114.900726 144.0
114.930199 168.0
114.948792 52.0
114.978729 140.0
114.999771 160.0
115.05571 408.0
115.093414 112.0
115.147652 132.0
115.180756 208.0
115.200386 380.0
115.219429 176.0
115.268394 236.0
115.298409 192.0
115.313972 36.0
115.350838 180.0
115.403755 96.0
115.42514 328.0
115.450577 116.0
115.479721 276.0
115.499672 184.0
115.535019 128.0
115.580643 276.0
115.610405 96.0
115.662079 152.0
115.692581 276.0
115.748451 228.0
115.786026 184.0
115.805092 320.0
115.824463 212.0
115.843414 116.0
115.867203 156.0
115.873749 108.0
115.898331 120.0
115.926048 100.0
115.949623 160.0
116.010345 184.0
116.043938 356.0
116.071068 172.0
116.097549 164.0
116.12793 192.0
116.161888 140.0
116.181999 180.0
116.214363 176.0
116.260757 100.0
116.279129 100.0
116.287964 132.0
116.302376 204.0
116.321701 220.0
116.354111 168.0
116.372414 152.0
116.391533 300.0
116.458534 60.0
116.486031 164.0
116.516106 128.0
116.537514 112.0
116.545349 164.0
116.552025 212.0
116.569176 284.0
116.6203 172.0
116.637062 124.0
116.687798 196.0
116.720291 160.0
116.769897 108.0
116.79541 164.0
116.815926 240.0
116.851067 220.0
116.879997 500.0
116.903046 184.0
116.922371 124.0
116.950485 236.0
116.971176 120.0
117.012917 172.0
117.057831 2420.0
117.101204 72.0
117.119255 260.0
117.135002 104.0
117.151817 108.0
117.172287 64.0
117.190475 272.0
117.208916 152.0
117.241364 140.0
117.26722 144.0
117.285286 192.0
117.291527 84.0
117.308891 144.0
117.331772 172.0
117.362396 176.0
117.407364 140.0
117.435913 104.0
117.500214 152.0
117.532356 148.0
117.557198 168.0
117.584145 144.0
117.601562 268.0
117.627312 108.0
117.652184 168.0
117.656998 64.0
117.66143 164.0
117.696518 136.0
117.733238 196.0
117.767662 164.0
117.800064 100.0
117.81778 120.0
117.832474 176.0
117.851486 80.0
117.85894 64.0
117.863441 96.0
117.892792 144.0
117.901222 132.0
117.918907 148.0
117.927277 156.0
117.934036 284.0
117.959976 172.0
117.990242 140.0
118.015755 220.0
118.04213 128.0
118.062523 984.0
118.094101 132.0
118.128326 104.0
118.164917 276.0
118.194832 136.0
118.223007 176.0
118.257614 276.0
118.279083 132.0
118.318398 252.0
118.37336 228.0
118.390968 180.0
118.401299 124.0
118.410103 120.0
118.438187 112.0
118.467751 188.0
118.505341 72.0
118.520508 84.0
118.562157 192.0
118.583351 132.0
118.613701 108.0
118.631042 36.0
118.652718 140.0
118.671585 116.0
118.7043 212.0
118.727745 244.0
118.761147 208.0
118.785004 84.0
118.803169 268.0
118.826363 128.0
118.853615 64.0
118.857956 128.0
118.877258 92.0
118.892677 152.0
118.910683 156.0
118.949097 136.0
118.989037 156.0
119.022942 160.0
119.04921 2528.0
119.072174 240.0
119.115372 168.0
119.142174 140.0
119.160576 152.0
119.194038 252.0
119.212662 136.0
119.229156 348.0
119.262711 144.0
119.280792 100.0
119.309654 156.0
119.336296 80.0
119.371025 112.0
119.387199 176.0
119.462036 180.0
119.48452 132.0
119.498772 148.0
119.525757 88.0
119.553772 156.0
119.58596 220.0
119.608765 252.0
119.639374 164.0
119.669151 144.0
119.713066 48.0
119.758797 340.0
119.774483 160.0
119.790161 100.0
119.805641 380.0
119.827415 104.0
119.852783 288.0
119.858345 144.0
119.86644 244.0
119.906952 300.0
119.930931 228.0
119.988152 80.0
120.00386 184.0
120.010941 188.0
120.050934 276.0
120.076279 180.0
120.114502 176.0
120.15255 184.0
120.193893 364.0
120.20858 192.0
120.217056 252.0
120.238457 100.0
120.262466 132.0
120.27774 68.0
120.293022 132.0
120.310486 32.0
120.332123 136.0
120.338936 228.0
120.347382 120.0
120.375626 180.0
120.410927 152.0
120.43277 112.0
120.457237 144.0
120.468895 104.0
120.483612 188.0
120.508072 272.0
120.535545 88.0
120.555115 112.0
120.574783 152.0
120.593506 204.0
120.627617 188.0
120.655663 60.0
120.707176 56.0
120.736565 100.0
120.751877 196.0
120.77607 128.0
120.807793 92.0
120.834137 284.0
120.870865 112.0
120.897705 152.0
120.903603 216.0
120.932938 132.0
120.985512 160.0
121.009613 184.0
121.04319 128.0
121.082863 200.0
121.108719 164.0
121.12616 52.0
121.178047 192.0
121.192429 176.0
121.242279 124.0
121.259811 92.0
121.283089 220.0
121.300308 304.0
121.332512 164.0
121.3815 300.0
121.395515 120.0
121.440361 112.0
121.461258 156.0
121.476463 232.0
121.520966 220.0
121.538231 104.0
121.555206 172.0
121.595375 68.0
121.633354 184.0
121.665611 168.0
121.683182 48.0
121.710686 256.0
121.745865 204.0
121.800682 184.0
121.827827 136.0
121.870758 168.0
121.879387 204.0
121.893486 80.0
121.902023 208.0
121.933594 124.0
121.95118 316.0
121.981949 152.0
122.056664 128.0
122.080612 288.0
122.108383 148.0
122.173271 104.0
122.198395 248.0
122.2276 196.0
122.243515 100.0
122.278893 116.0
122.303688 224.0
122.351868 288.0
122.373543 132.0
122.391159 116.0
122.438583 112.0
122.482277 192.0
122.505371 168.0
122.511063 300.0
122.529915 152.0
122.556305 172.0
122.598587 192.0
122.618965 120.0
122.668755 148.0
122.69165 260.0
122.71505 44.0
122.73629 120.0
122.765343 140.0
122.796646 132.0
122.825226 184.0
122.847252 140.0
122.869438 144.0
122.9002 324.0
122.929825 264.0
122.950508 252.0
122.965721 132.0
123.003578 292.0
123.023918 220.0
123.038078 212.0
123.069237 112.0
123.086967 116.0
123.102379 272.0
123.150948 212.0
123.169792 204.0
123.223129 156.0
123.240173 272.0
123.257401 112.0
123.279724 196.0
123.298813 256.0
123.322083 128.0
123.350937 212.0
123.37867 96.0
123.416878 304.0
123.450676 188.0
123.484711 104.0
123.522552 124.0
123.546394 284.0
123.564453 160.0
123.588295 188.0
123.63839 140.0
123.697525 184.0
123.715195 292.0
123.755104 212.0
123.770599 160.0
123.801659 176.0
123.80793 48.0
123.839752 160.0
123.845047 152.0
123.872726 148.0
123.904099 60.0
123.920105 232.0
123.934746 312.0
123.950325 116.0
123.977219 164.0
123.998085 308.0
124.0121 92.0
124.077843 128.0
124.18 112.0
124.218109 272.0
124.271385 372.0
124.31517 264.0
124.340927 212.0
124.357651 112.0
124.397682 152.0
124.428955 168.0
124.459854 168.0
124.526665 176.0
124.556969 160.0
124.596283 92.0
124.625366 136.0
124.661041 180.0
124.673317 96.0
124.677063 148.0
124.70517 96.0
124.726898 340.0
124.734367 264.0
124.751129 160.0
124.781136 220.0
124.807434 84.0
124.838562 76.0
124.885269 176.0
124.907509 220.0
124.921944 104.0
124.972084 144.0
125.00396 204.0
125.032059 192.0
125.056587 152.0
125.07885 104.0
125.106323 216.0
125.125725 140.0
125.152664 180.0
125.178566 152.0
125.201759 136.0
125.232193 452.0
125.270355 272.0
125.309555 188.0
125.328857 108.0
125.350075 116.0
125.404045 144.0
125.424103 200.0
125.443542 204.0
125.458923 304.0
125.490219 176.0
125.497368 136.0
125.505188 140.0
125.51503 168.0
125.537086 172.0
125.583282 144.0
125.610985 272.0
125.63327 160.0
125.679024 156.0
125.693962 288.0
125.720154 180.0
125.742104 188.0
125.770462 172.0
125.842331 204.0
125.850967 100.0
125.86734 172.0
125.90757 180.0
125.958023 156.0
125.984528 112.0
126.002083 108.0
126.02964 348.0
126.083954 212.0
126.103149 520.0
126.122429 164.0
126.175133 252.0
126.191299 312.0
126.221123 128.0
126.264015 44.0
126.300423 200.0
126.328476 124.0
126.352119 204.0
126.370888 96.0
126.377869 52.0
126.385483 100.0
126.422447 144.0
126.451546 100.0
126.476166 108.0
126.496605 152.0
126.516457 140.0
126.533653 264.0
126.581726 236.0
126.606018 156.0
126.62394 168.0
126.668625 276.0
126.713539 144.0
126.736946 196.0
126.752739 348.0
126.790146 192.0
126.844475 112.0
126.87973 144.0
126.899559 96.0
126.919739 108.0
126.937683 144.0
126.963203 156.0
127.023972 120.0
127.04454 384.0
127.077789 388.0
127.127304 196.0
127.150795 336.0
127.175484 56.0
127.203682 164.0
127.268394 248.0
127.305992 184.0
127.325912 92.0
127.341042 76.0
127.370834 196.0
127.409027 40.0
127.429245 116.0
127.449875 132.0
127.459854 104.0
127.495445 240.0
127.552841 40.0
127.58432 72.0
127.601898 196.0
127.648987 172.0
127.684265 108.0
127.714737 88.0
127.744759 84.0
127.769386 164.0
127.794449 120.0
127.824135 244.0
127.840332 292.0
127.854897 148.0
127.874962 132.0
127.913353 120.0
127.953278 80.0
127.975586 224.0
128.007309 196.0
128.02533 144.0
128.049881 3160.0
128.104156 100.0
128.125702 220.0
128.148071 176.0
128.166183 152.0
128.186096 444.0
128.20607 244.0
128.222733 128.0
128.250183 124.0
128.288086 176.0
128.328934 292.0
128.355637 316.0
128.377686 212.0
128.428864 204.0
128.446793 164.0
128.479309 204.0
128.502121 236.0
128.546539 324.0
128.564941 244.0
128.612518 144.0
128.631836 224.0
128.650009 152.0
128.703796 128.0
128.753754 56.0
128.770996 196.0
128.790558 128.0
128.817001 188.0
128.840897 180.0
128.862183 152.0
128.88208 84.0
128.920929 48.0
128.950317 140.0
128.993256 128.0
129.021271 216.0
129.051178 568.0
129.080338 132.0
129.098755 192.0
129.126892 208.0
129.150131 128.0
129.190506 108.0
129.246552 152.0
129.271454 208.0
129.300873 88.0
129.323502 60.0
129.350662 44.0
129.368774 232.0
129.386887 92.0
129.409531 248.0
129.435745 288.0
129.480423 116.0
129.514404 180.0
129.530396 228.0
129.570328 188.0
129.6315 36.0
129.654861 316.0
129.682297 116.0
129.709015 120.0
129.750748 176.0
129.772034 216.0
129.875397 332.0
129.900574 112.0
129.918228 272.0
129.982422 156.0
129.991562 144.0
130.019287 156.0
130.062515 172.0
130.085083 236.0
130.130051 172.0
130.153442 216.0
130.196442 148.0
130.225891 136.0
130.24707 212.0
130.272659 184.0
130.313309 100.0
130.348175 208.0
130.356247 332.0
130.377045 272.0
130.419449 376.0
130.43721 140.0
130.455399 80.0
130.475677 152.0
130.505737 204.0
130.527802 360.0
130.548615 180.0
130.57486 216.0
130.612595 168.0
130.64003 172.0
130.655518 176.0
130.676361 256.0
130.699707 172.0
130.741379 224.0
130.775269 192.0
130.796616 296.0
130.860153 92.0
130.88974 276.0
130.902496 256.0
130.94046 68.0
130.958115 116.0
130.989304 180.0
131.00441 172.0
131.031372 380.0
131.052765 156.0
131.084808 232.0
131.115479 288.0
131.141357 228.0
131.18158 196.0
131.226166 136.0
131.288742 244.0
131.336639 296.0
131.364929 224.0
131.382263 124.0
131.420288 104.0
131.452469 140.0
131.49617 152.0
131.511475 64.0
131.522247 116.0
131.530853 104.0
131.571274 232.0
131.609177 152.0
131.647766 148.0
131.689575 140.0
131.708771 216.0
131.756241 144.0
131.777618 152.0
131.800079 164.0
131.834442 108.0
131.857132 208.0
131.883362 160.0
131.938965 156.0
131.943329 148.0
131.966934 52.0
131.990173 144.0
132.00975 200.0
132.028641 132.0
132.056122 180.0
132.076706 96.0
132.117874 140.0
132.154739 296.0
132.185516 312.0
132.235748 152.0
132.255173 152.0
132.293747 164.0
132.30629 84.0
132.313446 96.0
132.328583 232.0
132.351959 116.0
132.369644 128.0
132.413162 192.0
132.437927 356.0
132.495987 232.0
132.554916 188.0
132.575974 144.0
132.595123 156.0
132.612488 432.0
132.646866 228.0
132.667496 160.0
132.69458 148.0
132.72023 84.0
132.769592 284.0
132.788681 288.0
132.794617 232.0
132.824051 152.0
132.843262 212.0
132.876389 228.0
132.896835 100.0
132.917801 208.0
132.97641 208.0
133.0047 100.0
133.026566 356.0
133.05574 188.0
133.082764 164.0
133.102325 84.0
133.144684 196.0
133.174789 360.0
133.191406 156.0
133.211502 228.0
133.271103 60.0
133.296371 52.0
133.330841 124.0
133.3759 180.0
133.405701 196.0
133.426514 168.0
133.470276 188.0
133.502609 28.0
133.520004 132.0
133.546539 196.0
133.551788 160.0
133.559021 212.0
133.585571 132.0
133.604752 212.0
133.661438 180.0
133.670898 124.0
133.676956 220.0
133.724869 148.0
133.741791 184.0
133.767334 196.0
133.792618 244.0
133.810684 160.0
133.866867 144.0
133.901154 172.0
133.93425 160.0
133.955185 224.0
133.986633 156.0
134.00145 120.0
134.036346 160.0
134.0504 148.0
134.147949 316.0
134.172287 100.0
134.199997 280.0
134.221359 100.0
134.272675 128.0
134.304749 204.0
134.336212 188.0
134.370972 204.0
134.390427 236.0
134.410873 92.0
134.438843 100.0
134.467133 148.0
134.496262 48.0
134.521729 364.0
134.55629 136.0
134.578766 152.0
134.588089 88.0
134.603928 220.0
134.637268 232.0
134.680984 132.0
134.731064 260.0
134.752625 312.0
134.789078 416.0
134.815521 136.0
134.832962 144.0
134.876175 160.0
134.905472 108.0
134.955215 144.0
134.988358 116.0
135.009171 124.0
135.04631 268.0
135.071899 120.0
135.091461 148.0
135.124557 136.0
135.148911 164.0
135.170395 204.0
135.204666 116.0
135.219696 192.0
135.236389 116.0
135.29245 168.0
135.302643 72.0
135.307831 140.0
135.329269 144.0
135.37851 128.0
135.412491 268.0
135.427368 168.0
135.448654 136.0
135.504471 180.0
135.536682 152.0
135.552902 100.0
135.568817 136.0
135.585632 244.0
135.620392 224.0
135.644592 328.0
135.681641 256.0
135.698257 176.0
135.739594 260.0
135.755997 220.0
135.794556 168.0
135.825378 292.0
135.841644 96.0
135.852203 128.0
135.891708 148.0
135.917953 144.0
135.944534 100.0
135.967209 164.0
135.975677 200.0
136.006622 180.0
136.052841 264.0
136.09996 128.0
136.129837 196.0
136.164169 320.0
136.198151 92.0
136.23317 152.0
136.258209 192.0
136.290634 128.0
136.33522 148.0
136.35405 196.0
136.373413 84.0
136.392212 100.0
136.443802 152.0
136.47226 88.0
136.479126 84.0
136.502533 168.0
136.556793 252.0
136.579346 188.0
136.602615 180.0
136.620651 116.0
136.646912 164.0
136.707565 148.0
136.724777 140.0
136.74707 48.0
136.771912 188.0
136.803177 128.0
136.849304 128.0
136.877243 136.0
136.907623 160.0
136.957184 100.0
136.994385 240.0
137.017548 168.0
137.047867 328.0
137.070526 176.0
137.07724 168.0
137.119064 144.0
137.149765 208.0
137.157898 196.0
137.164413 108.0
137.200027 156.0
137.230392 120.0
137.260101 136.0
137.285034 424.0
137.300751 92.0
137.323441 236.0
137.341019 408.0
137.3647 288.0
137.40152 140.0
137.415466 216.0
137.46579 308.0
137.488007 124.0
137.539688 56.0
137.547256 116.0
137.556427 176.0
137.586029 100.0
137.62207 128.0
137.648056 140.0
137.693054 160.0
137.702103 108.0
137.739868 212.0
137.773376 148.0
137.796326 92.0
137.829926 160.0
137.839737 192.0
137.843689 280.0
137.862488 112.0
137.893555 228.0
137.927597 128.0
137.952805 120.0
137.99794 156.0
138.02449 180.0
138.058731 212.0
138.101212 224.0
138.138947 196.0
138.18103 116.0
138.198822 148.0
138.222397 164.0
138.252609 340.0
138.277542 176.0
138.296265 240.0
138.332947 112.0
138.34166 88.0
138.350159 84.0
138.354355 168.0
138.363541 112.0
138.374268 232.0
138.413086 144.0
138.437134 60.0
138.470795 148.0
138.505127 132.0
138.524872 148.0
138.604004 152.0
138.627518 156.0
138.652054 164.0
138.682098 208.0
138.698868 284.0
138.718292 104.0
138.734695 124.0
138.768616 260.0
138.78627 200.0
138.821121 200.0
138.856628 108.0
138.877579 172.0
138.916138 228.0
138.96701 352.0
138.990875 140.0
139.048492 296.0
139.076355 92.0
139.110031 216.0
139.134354 236.0
139.158096 108.0
139.175781 164.0
139.20282 308.0
139.229034 328.0
139.28862 564.0
139.319046 184.0
139.35907 100.0
139.394226 192.0
139.428757 144.0
139.44075 100.0
139.445236 176.0
139.500702 120.0
139.545517 120.0
139.565643 156.0
139.607727 248.0
139.635559 176.0
139.69046 136.0
139.716339 72.0
139.746368 168.0
139.754501 128.0
139.79805 128.0
139.81752 60.0
139.844177 336.0
139.889145 140.0
139.9216 128.0
139.937119 188.0
139.97995 68.0
140.005859 260.0
140.047974 556.0
140.091995 196.0
140.121277 152.0
140.149979 176.0
140.178925 172.0
140.21553 268.0
140.244095 348.0
140.293594 308.0
140.330292 192.0
140.355957 388.0
140.378494 244.0
140.398941 156.0
140.427719 44.0
140.444229 128.0
140.475571 112.0
140.491165 296.0
140.507935 80.0
140.538605 48.0
140.55983 128.0
140.583405 148.0
140.624619 212.0
140.634277 192.0
140.673004 168.0
140.696732 188.0
140.735626 188.0
140.774643 156.0
140.825592 56.0
140.832199 140.0
140.863525 152.0
140.898651 336.0
140.941681 320.0
140.994354 216.0
141.01799 172.0
141.044266 196.0
141.073944 160.0
141.100204 56.0
141.128708 140.0
141.155334 196.0
141.184677 320.0
141.228012 308.0
141.261215 184.0
141.285187 172.0
141.313583 140.0
141.368347 116.0
141.396393 144.0
141.415329 208.0
141.462402 140.0
141.474777 140.0
141.496796 144.0
141.542145 220.0
141.595001 128.0
141.618637 120.0
141.663849 276.0
141.710434 192.0
141.744278 160.0
141.777695 120.0
141.804855 104.0
141.822723 128.0
141.857056 224.0
141.897461 152.0
141.919922 172.0
141.951935 136.0
141.994385 100.0
142.027298 144.0
142.067154 444.0
142.128113 176.0
142.154922 160.0
142.194931 228.0
142.215469 116.0
142.244934 160.0
142.262665 332.0
142.302582 160.0
142.32373 192.0
142.356369 124.0
142.382599 308.0
142.418274 152.0
142.438599 208.0
142.479385 132.0
142.504379 264.0
142.522812 60.0
142.541809 160.0
142.578751 176.0
142.586273 96.0
142.594162 148.0
142.605881 100.0
142.613831 144.0
142.648529 156.0
142.677597 164.0
142.696304 156.0
142.714691 284.0
142.740692 156.0
142.788071 352.0
142.815216 176.0
142.831863 200.0
142.858032 136.0
142.888962 124.0
142.905609 80.0
142.929947 104.0
142.967896 296.0
142.998413 112.0
143.022125 176.0
143.06015 256.0
143.105148 172.0
143.14357 144.0
143.149963 128.0
143.165665 372.0
143.189301 160.0
143.205551 240.0
143.225677 144.0
143.254944 120.0
143.261459 136.0
143.293304 172.0
143.317825 228.0
143.335068 372.0
143.390579 212.0
143.408951 212.0
143.428391 136.0
143.466629 344.0
143.495377 140.0
143.526932 112.0
143.553192 92.0
143.563446 188.0
143.594864 128.0
143.627243 256.0
143.662277 192.0
143.676224 212.0
143.708832 184.0
143.731644 136.0
143.777756 212.0
143.804993 128.0
143.834137 160.0
143.865005 312.0
143.882004 172.0
143.91481 120.0
143.950775 92.0
143.981705 112.0
144.022079 84.0
144.02771 168.0
144.035995 200.0
144.072693 332.0
144.091324 212.0
144.119232 144.0
144.138336 56.0
144.158707 92.0
144.181015 196.0
144.202591 196.0
144.250671 128.0
144.287582 128.0
144.321808 180.0
144.383759 116.0
144.427612 112.0
144.457733 156.0
144.501495 156.0
144.522095 188.0
144.554901 160.0
144.598953 144.0
144.624664 192.0
144.64537 164.0
144.687958 356.0
144.743851 148.0
144.773392 216.0
144.797409 124.0
144.846222 188.0
144.875259 136.0
144.906403 152.0
144.937958 92.0
144.983627 148.0
145.002502 312.0
145.02832 288.0
145.077164 156.0
145.107651 132.0
145.130768 156.0
145.168808 160.0
145.196442 96.0
145.24408 116.0
145.280792 300.0
145.306396 268.0
145.330215 148.0
145.366089 128.0
145.400772 200.0
145.432251 288.0
145.453171 140.0
145.509445 280.0
145.528015 428.0
145.56665 176.0
145.594833 88.0
145.61644 276.0
145.640167 128.0
145.666016 88.0
145.697083 140.0
145.72287 396.0
145.760178 168.0
145.789413 152.0
145.84848 168.0
145.868195 144.0
145.925537 140.0
145.956299 124.0
146.002121 152.0
146.034988 212.0
146.061356 352.0
146.119919 160.0
146.142899 152.0
146.165085 128.0
146.218918 216.0
146.248779 132.0
146.282028 176.0
146.306076 92.0
146.329361 152.0
146.376602 172.0
146.425583 212.0
146.446991 124.0
146.481796 156.0
146.508621 164.0
146.521042 260.0
146.542587 124.0
146.569626 160.0
146.639664 148.0
146.664093 136.0
146.679947 164.0
146.701248 124.0
146.721832 180.0
146.731934 184.0
146.754517 60.0
146.788086 224.0
146.816055 132.0
146.839523 136.0
146.857681 184.0
146.882599 200.0
146.903564 164.0
146.912888 120.0
146.91951 116.0
146.95665 320.0
147.001984 176.0
147.08519 172.0
147.118988 116.0
147.14325 164.0
147.183716 84.0
147.215408 180.0
147.233139 164.0
147.269669 148.0
147.298721 148.0
147.317749 232.0
147.343582 80.0
147.364822 260.0
147.38707 96.0
147.41124 148.0
147.454498 80.0
147.474915 92.0
147.495911 212.0
147.518555 128.0
147.550873 160.0
147.578018 156.0
147.604614 140.0
147.643051 148.0
147.669449 104.0
147.715866 268.0
147.73764 272.0
147.781845 176.0
147.812637 92.0
147.845001 216.0
147.906067 176.0
147.917526 156.0
147.941711 120.0
147.97084 156.0
147.990524 148.0
148.01355 128.0
148.030502 136.0
148.062134 136.0
148.096909 144.0
148.144333 140.0
148.173416 84.0
148.233719 148.0
148.241058 48.0
148.250336 192.0
148.276535 136.0
148.335327 156.0
148.362442 60.0
148.397507 176.0
148.42305 80.0
148.440033 232.0
148.45929 140.0
148.48262 360.0
148.505508 312.0
148.521515 268.0
148.526413 116.0
148.551193 200.0
148.602356 52.0
148.616272 140.0
148.674469 212.0
148.706268 352.0
148.79306 152.0
148.816742 188.0
148.842834 148.0
148.8647 160.0
148.888306 304.0
148.920547 124.0
148.954697 184.0
148.972626 156.0
149.004562 328.0
149.022995 320.0
149.055664 176.0
149.095474 140.0
149.122208 180.0
149.150238 196.0
149.184464 160.0
149.202103 88.0
149.235947 280.0
149.260269 96.0
149.277802 120.0
149.306793 148.0
149.350327 112.0
149.359756 92.0
149.37738 136.0
149.408997 128.0
149.424301 156.0
149.450287 188.0
149.482224 124.0
149.522385 244.0
149.565018 220.0
149.576202 148.0
149.636917 132.0
149.671188 96.0
149.725586 140.0
149.747559 144.0
149.782532 128.0
149.809723 168.0
149.84967 136.0
149.859039 128.0
149.893661 140.0
149.946442 300.0
149.982468 212.0
150.001663 116.0
150.07579 156.0
150.099335 140.0
150.132904 204.0
150.18042 220.0
150.214859 196.0
150.267303 280.0
150.322968 176.0
150.372421 292.0
150.381805 348.0
150.411102 148.0
150.445755 200.0
150.480484 232.0
150.50592 104.0
150.543503 132.0
150.615814 96.0
150.657455 452.0
150.678223 168.0
150.698257 148.0
150.740417 196.0
150.762405 136.0
150.779755 180.0
150.81839 76.0
150.858307 388.0
150.876099 156.0
150.899292 316.0
150.918854 92.0
150.9543 168.0
150.963791 200.0
151.022018 332.0
151.054459 188.0
151.084686 144.0
151.107178 132.0
151.132446 232.0
151.160095 236.0
151.197006 260.0
151.213318 236.0
151.236481 176.0
151.254013 120.0
151.285828 144.0
151.316544 132.0
151.341385 136.0
151.365799 164.0
151.385666 232.0
151.424881 112.0
151.440521 224.0
151.462448 228.0
151.507248 116.0
151.553406 112.0
151.608917 296.0
151.628525 200.0
151.655823 96.0
151.690781 248.0
151.71138 268.0
151.719528 184.0
151.746704 136.0
151.769943 124.0
151.805679 164.0
151.829788 240.0
151.892883 132.0
151.935257 64.0
151.986786 160.0
152.024628 380.0
152.047531 340.0
152.07251 452.0
152.097229 248.0
152.138275 204.0
152.14473 148.0
152.185593 124.0
152.251907 160.0
152.273727 144.0
152.337372 220.0
152.365585 156.0
152.395279 108.0
152.413086 192.0
152.441055 140.0
152.458267 176.0
152.485489 148.0
152.514206 100.0
152.537048 208.0
152.574188 244.0
152.60083 116.0
152.618042 220.0
152.649841 176.0
152.667221 100.0
152.748199 376.0
152.771866 176.0
152.823929 212.0
152.849258 136.0
152.881241 156.0
152.924255 160.0
152.954056 120.0
152.980072 168.0
153.006775 136.0
153.040131 296.0
153.063522 324.0
153.083115 144.0
153.105789 172.0
153.13858 436.0
153.156998 156.0
153.202042 164.0
153.23938 180.0
153.263229 192.0
153.28511 356.0
153.309433 128.0
153.353638 188.0
153.360275 152.0
153.369873 176.0
153.411728 192.0
153.435974 172.0
153.465042 80.0
153.483643 116.0
153.510651 192.0
153.535645 164.0
153.583862 244.0
153.626404 252.0
153.646652 124.0
153.679382 80.0
153.710251 156.0
153.740952 152.0
153.765991 288.0
153.799179 256.0
153.83725 128.0
153.858658 244.0
153.881332 288.0
153.925797 120.0
153.932709 136.0
153.955063 280.0
153.983261 176.0
154.030045 216.0
154.063843 624.0
154.104156 200.0
154.113495 188.0
154.159515 196.0
154.19635 112.0
154.225388 124.0
154.259995 108.0
154.283096 128.0
154.30043 180.0
154.345886 108.0
154.370667 132.0
154.407028 164.0
154.438934 284.0
154.469406 164.0
154.499863 48.0
154.528275 280.0
154.58844 176.0
154.612946 132.0
154.662918 292.0
154.715118 452.0
154.760284 252.0
154.808823 68.0
154.842255 208.0
154.874924 140.0
154.896133 260.0
154.915771 252.0
154.943024 148.0
154.958359 368.0
155.013657 320.0
155.062103 186012.0
155.140411 344.0
155.145706 148.0
155.184662 188.0
155.206528 144.0
155.226242 236.0
155.256393 380.0
155.284164 308.0
155.317276 172.0
155.324463 32.0
155.341217 212.0
155.394455 320.0
155.418365 144.0
155.46936 1264.0
155.498917 140.0
155.523529 188.0
155.555313 204.0
155.600067 260.0
155.634384 48.0
155.641113 52.0
155.651276 136.0
155.666641 496.0
155.685974 160.0
155.734711 156.0
155.770569 192.0
155.79129 112.0
155.813599 360.0
155.837799 68.0
155.856842 260.0
155.900879 108.0
155.931473 244.0
155.981308 132.0
155.999756 332.0
156.064301 20944.0
156.121902 92.0
156.140244 148.0
156.163406 188.0
156.198929 92.0
156.222031 108.0
156.278748 304.0
156.300873 72.0
156.333252 244.0
156.355438 88.0
156.416092 220.0
156.435547 48.0
156.460434 100.0
156.491699 124.0
156.515213 168.0
156.549591 148.0
156.581421 372.0
156.6026 396.0
156.638657 144.0
156.669937 128.0
156.716019 240.0
156.751373 144.0
156.782684 204.0
156.839081 100.0
156.85994 76.0
156.894699 140.0
156.910629 108.0
156.944748 72.0
156.969345 72.0
156.993652 84.0
157.029175 492.0
157.051849 980.0
157.064926 1564.0
157.153427 104.0
157.175079 84.0
157.217148 364.0
157.277863 160.0
157.299545 72.0
157.329819 296.0
157.348236 268.0
157.373688 204.0
157.411652 168.0
157.422256 252.0
157.448105 180.0
157.481033 92.0
157.500305 40.0
157.530289 48.0
157.553253 268.0
157.571884 132.0
157.622726 160.0
157.646301 240.0
157.677032 108.0
157.695679 204.0
157.72226 300.0
157.771057 160.0
157.789673 176.0
157.822647 156.0
157.841019 156.0
157.870865 204.0
157.897614 100.0
157.92453 116.0
157.958725 184.0
157.982758 104.0
158.017776 72.0
158.046997 380.0
158.073578 296.0
158.091415 112.0
158.125137 84.0
158.141479 216.0
158.184875 132.0
158.234787 164.0
158.267426 188.0
158.286331 100.0
158.316254 380.0
158.349869 156.0
158.393188 104.0
158.404892 76.0
158.417953 180.0
158.445892 116.0
158.481827 164.0
158.521057 140.0
158.556213 196.0
158.591751 212.0
158.622543 192.0
158.656525 168.0
158.664673 108.0
158.673431 300.0
158.699142 172.0
158.717178 164.0
158.743576 272.0
158.774185 136.0
158.780258 132.0
158.790054 188.0
158.816696 116.0
158.873489 200.0
158.904694 120.0
158.937775 172.0
158.96994 144.0
158.987503 144.0
159.017624 112.0
159.059784 120.0
159.09198 220.0
159.113205 152.0
159.151398 152.0
159.176529 308.0
159.19838 168.0
159.220978 92.0
159.259201 240.0
159.281174 128.0
159.367142 192.0
159.419449 108.0
159.444275 220.0
159.448044 116.0
159.474838 492.0
159.517471 88.0
159.541245 156.0
159.563507 216.0
159.585342 132.0
159.63118 140.0
159.657013 64.0
159.692352 36.0
159.718628 104.0
159.757324 136.0
159.785736 172.0
159.849457 124.0
159.889725 304.0
159.913956 240.0
159.934296 124.0
159.956696 144.0
160.022507 304.0
160.048706 384.0
160.090454 332.0
160.114517 180.0
160.132721 116.0
160.154083 72.0
160.180298 156.0
160.229858 284.0
160.24675 188.0
160.287598 180.0
160.320862 180.0
160.348083 60.0
160.36824 84.0
160.412308 288.0
160.444763 296.0
160.474121 108.0
160.500748 100.0
160.534363 168.0
160.592819 280.0
160.620392 164.0
160.644897 184.0
160.671036 288.0
160.707748 108.0
160.735245 152.0
160.769257 92.0
160.786911 76.0
160.838943 124.0
160.858566 164.0
160.892929 108.0
160.928284 220.0
160.945099 196.0
160.984482 156.0
161.00058 272.0
161.013351 64.0
161.023087 176.0
161.078354 272.0
161.126389 228.0
161.150894 112.0
161.19603 120.0
161.261734 132.0
161.2854 140.0
161.303619 300.0
161.334381 124.0
161.356964 196.0
161.390381 232.0
161.451447 96.0
161.473923 212.0
161.492615 164.0
161.51355 208.0
161.552155 172.0
161.586884 144.0
161.630676 216.0
161.694214 308.0
161.719559 156.0
161.748642 176.0
161.782806 220.0
161.825851 140.0
161.847641 184.0
161.87764 168.0
161.896744 156.0
161.993271 204.0
162.036758 248.0
162.04451 96.0
162.072723 128.0
162.090027 128.0
162.142883 152.0
162.254608 136.0
162.294586 104.0
162.313843 140.0
162.332626 248.0
162.353165 268.0
162.387344 228.0
162.416168 208.0
162.472885 160.0
162.503937 104.0
162.561981 188.0
162.601532 360.0
162.671814 168.0
162.69516 104.0
162.703873 152.0
162.771774 248.0
162.790894 156.0
162.816376 160.0
162.862289 220.0
162.881241 216.0
162.908768 168.0
162.929092 144.0
162.974503 160.0
162.984222 120.0
163.00415 132.0
163.042374 164.0
163.05307 96.0
163.057663 240.0
163.084091 80.0
163.127304 116.0
163.152374 152.0
163.186005 140.0
163.208664 160.0
163.236633 300.0
163.26297 280.0
163.326233 104.0
163.351089 144.0
163.408218 148.0
163.449707 220.0
163.48848 128.0
163.516541 108.0
163.579254 184.0
163.607147 184.0
163.631729 260.0
163.673508 308.0
163.708603 280.0
163.73288 140.0
163.757965 132.0
163.777939 276.0
163.822021 120.0
163.862045 152.0
163.916412 320.0
163.955353 160.0
163.992065 180.0
164.020142 192.0
164.074417 108.0
164.138428 288.0
164.170578 144.0
164.178574 108.0
164.206512 124.0
164.230789 288.0
164.258347 120.0
164.306076 156.0
164.412399 136.0
164.432526 112.0
164.467163 92.0
164.494675 196.0
164.526352 260.0
164.566055 160.0
164.587158 140.0
164.6315 120.0
164.659866 168.0
164.689301 36.0
164.73172 140.0
164.77771 144.0
164.782043 144.0
164.837479 96.0
164.885406 164.0
164.930038 348.0
164.953659 160.0
164.985062 108.0
165.014313 108.0
165.062805 244.0
165.125198 212.0
165.167282 72.0
165.221359 116.0
165.247208 204.0
165.283142 140.0
165.327286 288.0
165.380539 152.0
165.404877 240.0
165.435898 140.0
165.461563 104.0
165.498917 192.0
165.522537 252.0
165.560745 144.0
165.579361 188.0
165.601807 204.0
165.619919 120.0
165.63118 136.0
165.667389 76.0
165.70874 132.0
165.735626 176.0
165.751724 160.0
165.781754 136.0
165.799683 172.0
165.848389 176.0
165.871155 284.0
165.921021 136.0
165.961182 204.0
166.004776 220.0
166.050262 152.0
166.072189 112.0
166.108261 204.0
166.194702 164.0
166.240784 64.0
166.295746 172.0
166.330109 124.0
166.35817 76.0
166.396149 136.0
166.404175 128.0
166.414536 92.0
166.426422 100.0
166.451263 64.0
166.476944 160.0
166.505127 140.0
166.533447 120.0
166.55426 120.0
166.582077 144.0
166.600418 116.0
166.628494 60.0
166.661743 200.0
166.698898 120.0
166.728378 92.0
166.768143 164.0
166.797211 392.0
166.818558 92.0
166.840393 212.0
166.861633 192.0
166.912689 140.0
166.936935 296.0
166.966034 152.0
166.994614 188.0
167.033951 100.0
167.059738 948.0
167.126709 176.0
167.180023 188.0
167.212357 176.0
167.312592 84.0
167.335648 264.0
167.374176 144.0
167.394623 196.0
167.415939 320.0
167.451645 96.0
167.514587 388.0
167.562744 220.0
167.593948 116.0
167.619095 140.0
167.645844 168.0
167.681717 40.0
167.690918 124.0
167.698853 300.0
167.728867 108.0
167.746414 40.0
167.767303 248.0
167.788071 236.0
167.84198 112.0
167.891602 312.0
167.939896 108.0
167.96788 184.0
168.017075 56.0
168.05986 252.0
168.088409 112.0
168.113266 76.0
168.14798 128.0
168.173569 140.0
168.23494 352.0
168.301971 108.0
168.336212 84.0
168.359695 128.0
168.3936 388.0
168.462769 140.0
168.479523 120.0
168.511566 152.0
168.59166 172.0
168.621063 508.0
168.663162 204.0
168.735046 112.0
168.752228 148.0
168.78923 216.0
168.814285 120.0
168.858246 116.0
168.876343 136.0
168.915497 204.0
168.944229 148.0
169.008209 112.0
169.03569 128.0
169.074295 176.0
169.10498 96.0
169.171341 88.0
169.189453 244.0
169.207581 120.0
169.243149 76.0
169.265152 168.0
169.302536 160.0
169.34407 180.0
169.373306 260.0
169.407898 200.0
169.443253 84.0
169.487305 100.0
169.526917 144.0
169.555664 84.0
169.59874 88.0
169.635025 120.0
169.663956 192.0
169.692062 232.0
169.712799 100.0
169.743423 204.0
169.785019 212.0
169.845062 40.0
169.865036 156.0
169.891357 204.0
169.909927 76.0
169.938461 132.0
169.986679 192.0
170.063141 316.0
170.098526 136.0
170.14537 320.0
170.222717 140.0
170.281113 128.0
170.320068 132.0
170.343979 120.0
170.373688 160.0
170.39592 264.0
170.42659 80.0
170.445923 156.0
170.480988 252.0
170.487122 148.0
170.497238 192.0
170.520844 188.0
170.564117 244.0
170.592361 132.0
170.610474 148.0
170.620758 136.0
170.670914 152.0
170.700455 100.0
170.748932 124.0
170.772141 148.0
170.826965 172.0
170.858185 164.0
170.886795 40.0
170.912811 144.0
170.943665 140.0
170.967468 136.0
170.996094 96.0
171.061203 272.0
171.126648 156.0
171.170731 48.0
171.204361 140.0
171.227097 160.0
171.272079 100.0
171.319611 260.0
171.349167 176.0
171.389313 104.0
171.430588 152.0
171.467972 140.0
171.489471 120.0
171.557556 180.0
171.593582 172.0
171.635498 196.0
171.640503 108.0
171.650681 148.0
171.710724 136.0
171.754761 132.0
171.797241 152.0
171.802383 128.0
171.861694 160.0
171.887177 196.0
171.916046 148.0
171.944763 84.0
171.973465 144.0
172.013229 260.0
172.038864 180.0
172.066086 308.0
172.090652 180.0
172.09877 160.0
172.11084 120.0
172.115814 152.0
172.152283 108.0
172.184952 208.0
172.218903 156.0
172.235275 120.0
172.252853 144.0
172.273758 184.0
172.305771 304.0
172.328995 112.0
172.353561 140.0
172.369156 156.0
172.401779 128.0
172.43222 68.0
172.468704 220.0
172.493256 92.0
172.513474 180.0
172.523926 132.0
172.589996 276.0
172.630981 160.0
172.669769 244.0
172.700806 140.0
172.73645 208.0
172.777191 244.0
172.795349 148.0
172.847031 140.0
172.870712 148.0
172.913086 120.0
172.98027 184.0
172.985748 180.0
173.018143 152.0
173.050491 140.0
173.079071 156.0
173.119598 180.0
173.154449 284.0
173.215485 128.0
173.273026 124.0
173.291458 180.0
173.327499 132.0
173.375305 160.0
173.393646 152.0
173.427719 180.0
173.455353 104.0
173.494812 148.0
173.505768 88.0
173.513168 216.0
173.549866 156.0
173.628357 184.0
173.666321 112.0
173.739777 180.0
173.761536 212.0
173.795792 148.0
173.82373 128.0
173.84581 272.0
173.904175 188.0
173.978592 128.0
174.030655 144.0
174.062607 164.0
174.151886 188.0
174.192429 148.0
174.212311 172.0
174.235947 488.0
174.28183 312.0
174.3069 188.0
174.346024 180.0
174.356705 272.0
174.414597 204.0
174.430008 156.0
174.437317 96.0
174.451019 200.0
174.460342 176.0
174.498764 316.0
174.535583 172.0
174.566742 212.0
174.575348 196.0
174.618958 152.0
174.643402 128.0
174.672333 172.0
174.69075 148.0
174.717056 192.0
174.744217 148.0
174.764908 280.0
174.825806 132.0
174.860779 192.0
174.892258 124.0
174.903122 212.0
174.922806 216.0
174.958389 176.0
174.990204 132.0
175.03685 224.0
175.064499 132.0
175.118881 412.0
175.147324 124.0
175.203842 128.0
175.223083 172.0
175.247009 208.0
175.278137 76.0
175.29895 160.0
175.329559 136.0
175.359558 168.0
175.417694 220.0
175.453094 112.0
175.486954 172.0
175.51915 156.0
175.550064 164.0
175.575256 196.0
175.629211 176.0
175.668259 128.0
175.704926 84.0
175.751221 144.0
175.822632 96.0
175.864639 160.0
175.901947 216.0
175.963867 184.0
175.990036 116.0
176.014359 208.0
176.032852 188.0
176.055893 132.0
176.095703 156.0
176.124725 128.0
176.173569 168.0
176.198685 148.0
176.221268 144.0
176.284225 144.0
176.320236 188.0
176.346664 180.0
176.382019 100.0
176.42012 112.0
176.438614 200.0
176.493744 160.0
176.515182 332.0
176.547287 140.0
176.596268 260.0
176.658691 120.0
176.693237 132.0
176.733261 64.0
176.769577 92.0
176.79892 80.0
176.825378 120.0
176.852188 128.0
176.870377 300.0
176.888916 108.0
176.921036 148.0
176.942795 124.0
176.96376 120.0
176.996002 108.0
177.016785 224.0
177.071808 164.0
177.118622 128.0
177.196106 112.0
177.223999 236.0
177.244919 208.0
177.295425 116.0
177.313538 208.0
177.373367 500.0
177.42598 380.0
177.472946 160.0
177.541046 184.0
177.572525 284.0
177.596603 144.0
177.62822 208.0
177.652176 140.0
177.677521 184.0
177.731308 56.0
177.738785 124.0
177.776001 228.0
177.815475 84.0
177.85022 144.0
177.877655 200.0
177.90686 204.0
177.962601 264.0
178.026047 260.0
178.077255 120.0
178.135757 212.0
178.183044 40.0
178.208527 184.0
178.23967 220.0
178.291962 160.0
178.339828 136.0
178.378204 224.0
178.402603 288.0
178.430222 152.0
178.457718 320.0
178.478073 144.0
178.51796 136.0
178.544556 68.0
178.59256 236.0
178.648285 112.0
178.690857 172.0
178.714798 132.0
178.754639 140.0
178.800369 220.0
178.845367 244.0
178.885773 180.0
178.911743 132.0
178.933899 176.0
178.960556 60.0
179.004929 92.0
179.060074 2396.0
179.104172 200.0
179.129547 208.0
179.169098 132.0
179.2034 204.0
179.236679 116.0
179.258621 188.0
179.280838 204.0
179.324631 144.0
179.342743 40.0
179.377426 148.0
179.423767 164.0
179.467545 124.0
179.494751 240.0
179.52095 100.0
179.561478 124.0
179.593536 148.0
179.640656 192.0
179.700912 120.0
179.709915 124.0
179.758484 64.0
179.797958 236.0
179.821854 176.0
179.863403 160.0
179.905472 124.0
179.929718 148.0
179.935913 300.0
179.977753 184.0
180.012634 124.0
180.06543 812.0
180.121536 96.0
180.164383 152.0
180.205185 232.0
180.250656 132.0
180.28006 148.0
180.321167 52.0
180.342606 164.0
180.375229 368.0
180.394363 104.0
180.458237 188.0
180.489807 112.0
180.519882 168.0
180.604279 220.0
180.629807 428.0
180.656326 336.0
180.67688 136.0
180.723022 208.0
180.771149 164.0
180.828506 260.0
180.889069 228.0
180.945358 104.0
180.965836 148.0
181.000732 248.0
181.033524 300.0
181.065567 336.0
181.12532 116.0
181.159027 72.0
181.220612 160.0
181.229752 176.0
181.253021 340.0
181.272186 128.0
181.312302 156.0
181.346008 132.0
181.371582 168.0
181.403641 168.0
181.435013 148.0
181.471451 152.0
181.491211 140.0
181.52832 168.0
181.539124 160.0
181.565018 116.0
181.591888 164.0
181.609802 112.0
181.633621 172.0
181.664307 88.0
181.701859 56.0
181.730835 180.0
181.780472 192.0
181.833344 120.0
181.853882 228.0
181.865189 148.0
181.869919 96.0
181.943405 100.0
181.981125 164.0
182.003311 116.0
182.026764 128.0
182.066925 128.0
182.101837 176.0
182.144806 136.0
182.173096 212.0
182.223755 372.0
182.256744 108.0
182.306015 228.0
182.356888 288.0
182.38147 188.0
182.424271 108.0
182.45311 116.0
182.482269 292.0
182.505234 88.0
182.5345 92.0
182.569458 104.0
182.598724 132.0
182.609253 116.0
182.661011 220.0
182.695404 340.0
182.731277 156.0
182.770004 124.0
182.779129 68.0
182.802933 152.0
182.834457 120.0
182.869904 316.0
182.894165 192.0
182.904709 232.0
182.945404 244.0
183.01358 260.0
183.04039 112.0
183.070007 104.0
183.091431 312.0
183.17775 136.0
183.207382 124.0
183.235489 304.0
183.273666 248.0
183.31575 72.0
183.386658 224.0
183.41925 244.0
183.446945 40.0
183.468781 148.0
183.50621 156.0
183.541611 552.0
183.593292 312.0
183.624359 184.0
183.642792 136.0
183.673721 136.0
183.7034 32.0
183.727127 328.0
183.742371 72.0
183.801453 156.0
183.854935 164.0
183.925262 236.0
183.964203 340.0
184.021851 108.0
184.055603 208.0
184.060226 304.0
184.087723 112.0
184.111511 144.0
184.132645 132.0
184.183884 112.0
184.25769 180.0
184.294647 120.0
184.3367 256.0
184.365814 184.0
184.398636 100.0
184.422104 164.0
184.453979 176.0
184.475723 204.0
184.521683 196.0
184.547333 172.0
184.573563 264.0
184.616318 36.0
184.643372 104.0
184.667709 172.0
184.686646 140.0
184.749588 192.0
184.77861 152.0
184.796463 136.0
184.824615 92.0
184.846252 120.0
184.88414 32.0
184.921509 176.0
184.96788 196.0
185.012436 152.0
185.021805 196.0
185.049255 220.0
185.070465 212.0
185.095291 220.0
185.130753 168.0
185.154724 236.0
185.181946 116.0
185.28096 488.0
185.317245 124.0
185.385147 148.0
185.435272 120.0
185.488129 96.0
185.508224 284.0
185.536636 112.0
185.588806 88.0
185.632935 168.0
185.653519 144.0
185.699493 172.0
185.739288 132.0
185.801132 196.0
185.819397 128.0
185.848709 88.0
185.867355 208.0
185.884705 236.0
185.919373 116.0
185.967545 140.0
185.992661 364.0
186.02713 120.0
186.056274 176.0
186.083374 276.0
186.118469 176.0
186.153488 168.0
186.201721 144.0
186.242462 128.0
186.283203 124.0
186.32251 116.0
186.342972 100.0
186.37468 104.0
186.402039 236.0
186.451218 180.0
186.48671 184.0
186.52002 152.0
186.628281 136.0
186.667984 260.0
186.701843 168.0
186.71521 128.0
186.726593 160.0
186.772491 92.0
186.810364 196.0
186.83313 256.0
186.86499 52.0
186.916687 60.0
186.962875 368.0
187.010895 136.0
187.029404 216.0
187.099045 184.0
187.14859 248.0
187.19162 160.0
187.259705 172.0
187.282486 176.0
187.311447 136.0
187.33873 280.0
187.356155 108.0
187.398636 92.0
187.444946 152.0
187.46402 136.0
187.492371 208.0
187.526703 220.0
187.549881 56.0
187.574478 288.0
187.593887 124.0
187.631943 224.0
187.65834 152.0
187.720276 144.0
187.771744 128.0
187.80481 200.0
187.859558 180.0
187.886658 120.0
187.913864 168.0
187.936981 80.0
187.953995 268.0
187.976685 284.0
187.997498 100.0
188.028244 144.0
188.055283 120.0
188.077667 100.0
188.10347 168.0
188.123032 116.0
188.14592 164.0
188.171127 120.0
188.225601 128.0
188.26059 176.0
188.29657 180.0
188.324524 176.0
188.381943 196.0
188.41629 244.0
188.437851 112.0
188.459198 220.0
188.478683 144.0
188.498001 132.0
188.533051 396.0
188.569962 216.0
188.595078 120.0
188.6185 200.0
188.6492 104.0
188.670441 188.0
188.713531 288.0
188.739487 128.0
188.770355 200.0
188.796783 156.0
188.819366 204.0
188.881012 168.0
188.918198 208.0
188.962677 136.0
188.982224 152.0
189.028748 224.0
189.068695 196.0
189.117126 184.0
189.164276 92.0
189.218872 276.0
189.250275 60.0
189.362823 132.0
189.395599 172.0
189.4375 108.0
189.491562 160.0
189.516739 128.0
189.579666 132.0
189.6035 100.0
189.702759 88.0
189.754425 196.0
189.812119 192.0
189.845688 180.0
189.872345 224.0
189.912674 172.0
189.946564 92.0
189.970749 176.0
190.028854 108.0
190.071915 104.0
190.145432 216.0
190.154175 84.0
190.162842 136.0
190.173935 196.0
190.228195 184.0
190.266449 168.0
190.293564 108.0
190.32254 168.0
190.35643 284.0
190.417053 180.0
190.445648 140.0
190.466888 264.0
190.474106 148.0
190.533844 108.0
190.579926 200.0
190.613129 300.0
190.636459 184.0
190.67337 124.0
190.768097 252.0
190.779617 164.0
190.828094 104.0
190.865784 148.0
190.8871 140.0
190.90593 92.0
191.006851 92.0
191.045364 88.0
191.085205 1412.0
191.165878 120.0
191.172531 372.0
191.196259 100.0
191.283661 208.0
191.342957 152.0
191.372742 172.0
191.40889 240.0
191.448013 140.0
191.494934 172.0
191.566025 120.0
191.600128 156.0
191.654602 84.0
191.677032 144.0
191.716095 164.0
191.776154 180.0
191.81012 140.0
191.848114 152.0
191.872421 88.0
191.907303 124.0
191.917877 120.0
191.943237 152.0
191.966919 408.0
192.00885 156.0
192.019028 124.0
192.055756 184.0
192.063889 200.0
192.081726 644.0
192.106934 388.0
192.131714 264.0
192.171555 180.0
192.201767 176.0
192.251068 156.0
192.311325 176.0
192.422043 128.0
192.487549 356.0
192.546356 184.0
192.59137 212.0
192.623306 204.0
192.690277 140.0
192.71048 136.0
192.744675 172.0
192.807281 128.0
192.83493 168.0
192.85997 128.0
192.914886 168.0
192.95137 224.0
192.973404 124.0
193.019775 132.0
193.075043 152.0
193.098648 124.0
193.138168 124.0
193.162155 104.0
193.183319 72.0
193.208221 104.0
193.277222 68.0
193.343399 108.0
193.373779 96.0
193.441116 444.0
193.473892 172.0
193.497528 152.0
193.531616 108.0
193.56076 108.0
193.596832 200.0
193.615112 100.0
193.664963 104.0
193.686417 140.0
193.716461 172.0
193.76181 96.0
193.795166 204.0
193.845047 44.0
193.895447 176.0
193.944809 100.0
193.96666 132.0
193.975784 116.0
193.997589 160.0
194.057114 228.0
194.078033 136.0
194.106003 140.0
194.138885 68.0
194.168228 164.0
194.216537 124.0
194.249329 132.0
194.277573 228.0
194.301285 160.0
194.329849 156.0
194.37468 76.0
194.401199 140.0
194.457001 168.0
194.499557 184.0
194.527328 160.0
194.589355 104.0
194.641617 332.0
194.678802 160.0
194.709259 84.0
194.720337 148.0
194.72905 160.0
194.766983 168.0
194.796677 264.0
194.828979 192.0
194.874329 156.0
194.943939 88.0
194.985626 224.0
195.005081 204.0
195.037384 116.0
195.090088 100.0
195.118805 112.0
195.171234 140.0
195.175842 160.0
195.249741 128.0
195.284485 120.0
195.319275 108.0
195.350998 92.0
195.372116 116.0
195.413788 176.0
195.446854 188.0
195.484955 152.0
195.539078 116.0
195.604202 260.0
195.648727 152.0
195.694962 236.0
195.727615 200.0
195.79068 236.0
195.831421 128.0
195.858932 164.0
195.880814 152.0
195.910568 220.0
195.945633 276.0
195.965134 148.0
195.98819 360.0
196.021103 132.0
196.068085 152.0
196.084564 356.0
196.124634 296.0
196.150452 116.0
196.190186 136.0
196.218155 112.0
196.237259 132.0
196.256393 80.0
196.287231 228.0
196.327499 384.0
196.376877 240.0
196.401077 168.0
196.431519 204.0
196.486099 112.0
196.517624 128.0
196.572479 200.0
196.593582 188.0
196.644821 92.0
196.680267 228.0
196.719162 256.0
196.763321 104.0
196.793503 132.0
196.814224 188.0
196.845459 112.0
196.878403 216.0
196.903137 152.0
196.94223 136.0
196.989853 156.0
197.030899 116.0
197.067825 372.0
197.133209 168.0
197.218842 108.0
197.285767 140.0
197.307571 48.0
197.336807 160.0
197.355621 172.0
197.406952 176.0
197.435242 340.0
197.453735 132.0
197.583374 364.0
197.632935 72.0
197.658142 152.0
197.701767 200.0
197.752533 152.0
197.777527 108.0
197.808777 172.0
197.841919 144.0
197.87149 92.0
197.914246 168.0
197.950455 136.0
197.983795 172.0
198.063141 148.0
198.082748 96.0
198.170166 228.0
198.190781 144.0
198.214111 148.0
198.220474 156.0
198.285263 156.0
198.320999 136.0
198.359329 148.0
198.403793 148.0
198.431519 652.0
198.463043 304.0
198.483521 120.0
198.529327 172.0
198.57605 88.0
198.595688 152.0
198.620941 156.0
198.651794 184.0
198.686234 228.0
198.75209 128.0
198.777267 172.0
198.812576 188.0
198.867508 192.0
198.952057 140.0
198.973404 180.0
198.99202 188.0
199.053558 160.0
199.075012 180.0
199.115372 260.0
199.164703 116.0
199.168732 176.0
199.19606 176.0
199.2258 80.0
199.249756 88.0
199.324249 148.0
199.349472 140.0
199.395874 132.0
199.41684 200.0
199.491119 160.0
199.511368 176.0
199.542038 80.0
199.620773 172.0
199.640457 176.0
199.677673 152.0
199.696701 196.0
199.736969 176.0
199.775909 208.0
199.803589 232.0
199.848602 120.0
199.870468 156.0
199.916138 136.0
199.941071 200.0
199.949005 100.0
199.957275 220.0
199.994949 176.0
200.018875 96.0
200.042725 428.0
200.046494 320.0
200.096283 136.0
200.12059 152.0
200.145081 144.0
200.168137 300.0
200.240829 180.0
200.289703 164.0
200.330109 140.0
200.356201 292.0
200.386841 120.0
200.439148 104.0
200.501053 172.0
200.539871 68.0
200.545898 112.0
200.558487 104.0
200.598206 152.0
200.617615 408.0
200.635513 160.0
200.695496 148.0
200.721786 140.0
200.752289 88.0
200.762802 96.0
200.850937 116.0
200.860107 92.0
200.870804 120.0
200.884903 192.0
200.908875 108.0
200.958206 132.0
201.034912 112.0
201.068817 164.0
201.117828 328.0
201.150009 148.0
201.190399 176.0
201.212616 100.0
201.22403 124.0
201.246613 176.0
201.273849 124.0
201.302551 100.0
201.324844 108.0
201.344971 144.0
201.408905 176.0
201.449036 124.0
201.562973 212.0
201.584656 236.0
201.617249 96.0
201.674011 188.0
201.709564 152.0
201.752411 280.0
201.79689 152.0
201.863586 168.0
201.913498 172.0
201.950836 152.0
201.974396 136.0
202.013763 344.0
202.042313 368.0
202.060455 460.0
202.080887 352.0
202.119751 368.0
202.154953 196.0
202.187134 176.0
202.21582 164.0
202.236923 264.0
202.297104 176.0
202.336792 304.0
202.400238 148.0
202.42514 176.0
202.456284 132.0
202.46756 160.0
202.495209 92.0
202.513519 264.0
202.547806 116.0
202.557892 48.0
202.567688 128.0
202.587158 184.0
202.621155 164.0
202.639816 144.0
202.664917 224.0
202.706833 136.0
202.774612 184.0
202.815308 184.0
202.861038 124.0
202.887558 136.0
202.922943 108.0
202.931732 152.0
202.942383 296.0
202.969238 124.0
203.003815 140.0
203.034821 224.0
203.04332 60.0
203.074677 744.0
203.144699 308.0
203.187897 144.0
203.236404 136.0
203.271118 172.0
203.306534 84.0
203.320831 48.0
203.331757 120.0
203.373215 156.0
203.378845 112.0
203.3992 88.0
203.454941 156.0
203.499786 96.0
203.541412 176.0
203.585556 164.0
203.615341 164.0
203.66806 316.0
203.69632 124.0
203.716217 32.0
203.747467 120.0
203.774719 148.0
203.784103 40.0
203.79599 144.0
203.819763 116.0
203.849884 160.0
203.878159 88.0
203.938309 124.0
203.962631 128.0
203.991669 124.0
204.081375 2384.0
204.126328 156.0
204.190887 124.0
204.242737 192.0
204.279068 60.0
204.31395 168.0
204.357651 156.0
204.387115 184.0
204.442993 276.0
204.498169 80.0
204.537689 316.0
204.559784 216.0
204.616119 192.0
204.673401 368.0
204.724365 176.0
204.780991 260.0
204.831116 260.0
204.899994 176.0
204.960403 128.0
204.990417 340.0
205.0336 180.0
205.084961 1672.0
205.133362 324.0
205.16452 176.0
205.196075 84.0
205.263062 244.0
205.287323 128.0
205.307281 64.0
205.3358 76.0
205.358932 176.0
205.404251 76.0
205.436996 208.0
205.476089 44.0
205.524796 180.0
205.548508 276.0
205.589752 224.0
205.643112 140.0
205.653534 132.0
205.666016 76.0
205.676849 164.0
205.701019 448.0
205.732422 128.0
205.807693 208.0
205.833481 152.0
205.873795 180.0
205.912628 328.0
205.975891 260.0
206.015137 160.0
206.046143 164.0
206.089951 1020.0
206.14006 52.0
206.164566 216.0
206.188644 280.0
206.220871 116.0
206.245651 96.0
206.278702 292.0
206.302856 240.0
206.339722 244.0
206.367294 108.0
206.383911 120.0
206.419449 104.0
206.4776 96.0
206.487503 144.0
206.509644 160.0
206.566071 132.0
206.60405 188.0
206.650482 328.0
206.700821 184.0
206.728699 184.0
206.769455 284.0
206.795761 204.0
206.83107 336.0
206.876526 236.0
206.933167 92.0
206.959641 316.0
206.998459 96.0
207.068649 900.0
207.138947 112.0
207.144379 96.0
207.179245 168.0
207.225311 144.0
207.276688 156.0
207.281052 176.0
207.323669 136.0
207.354263 84.0
207.385483 280.0
207.410187 156.0
207.420181 184.0
207.49472 164.0
207.540787 284.0
207.566391 60.0
207.58934 140.0
207.625626 128.0
207.658066 140.0
207.699692 156.0
207.752823 84.0
207.778046 192.0
207.805588 264.0
207.840515 136.0
207.891861 244.0
207.919235 164.0
207.962296 160.0
207.98526 80.0
208.010574 136.0
208.036926 368.0
208.058929 248.0
208.078293 316.0
208.137939 196.0
208.171173 196.0
208.232224 152.0
208.25766 332.0
208.312607 80.0
208.347458 180.0
208.416992 360.0
208.459137 332.0
208.492111 92.0
208.50209 80.0
208.5112 168.0
208.531113 176.0
208.595398 360.0
208.628708 64.0
208.6716 152.0
208.689133 276.0
208.746201 180.0
208.781097 200.0
208.808029 196.0
208.839355 172.0
208.87413 116.0
208.896149 88.0
208.958618 392.0
208.982452 160.0
209.014114 344.0
209.037735 172.0
209.065735 132.0
209.11174 104.0
209.176544 200.0
209.236023 280.0
209.264954 108.0
209.30275 228.0
209.345413 128.0
209.39122 128.0
209.424713 204.0
209.502457 156.0
209.528534 156.0
209.565567 192.0
209.584732 152.0
209.624573 76.0
209.679321 112.0
209.740021 508.0
209.807465 184.0
209.843109 176.0
209.871078 292.0
209.920044 164.0
209.932175 136.0
209.964737 148.0
209.99762 220.0
210.015564 212.0
210.041306 164.0
210.081894 104.0
210.101242 100.0
210.189758 152.0
210.231476 96.0
210.259018 192.0
210.28894 452.0
210.306671 180.0
210.317047 152.0
210.337677 300.0
210.361893 124.0
210.388901 124.0
210.421921 160.0
210.443756 288.0
210.466858 188.0
210.518829 112.0
210.544235 156.0
210.619919 120.0
210.640137 204.0
210.665009 204.0
210.709564 124.0
210.741257 168.0
210.76886 296.0
210.79686 148.0
210.851212 152.0
210.913315 96.0
210.947708 320.0
210.983734 196.0
211.015823 120.0
211.036057 220.0
211.077972 156.0
211.125793 132.0
211.164932 184.0
211.186447 208.0
211.225769 160.0
211.283142 112.0
211.310837 52.0
211.331085 176.0
211.351013 140.0
211.367996 164.0
211.404358 148.0
211.428909 144.0
211.444839 168.0
211.492172 72.0
211.524979 56.0
211.567307 328.0
211.606461 216.0
211.65448 148.0
211.673752 124.0
211.701202 180.0
211.726791 160.0
211.756622 200.0
211.776886 80.0
211.799271 116.0
211.80545 84.0
211.820236 104.0
211.886703 132.0
211.896881 104.0
211.933807 120.0
211.965195 96.0
211.99939 80.0
212.026352 184.0
212.089813 132.0
212.170761 264.0
212.23822 296.0
212.279068 216.0
212.311646 164.0
212.355453 136.0
212.376877 60.0
212.397171 148.0
212.452286 132.0
212.490005 140.0
212.526276 168.0
212.571243 148.0
212.59816 116.0
212.633423 224.0
212.693146 132.0
212.717834 120.0
212.764359 240.0
212.800552 132.0
212.849716 168.0
212.853561 140.0
212.903473 172.0
212.927399 324.0
212.971939 132.0
213.000931 128.0
213.038498 236.0
213.058258 176.0
213.113617 176.0
213.143295 360.0
213.189026 92.0
213.225601 160.0
213.268799 296.0
213.299454 60.0
213.350983 280.0
213.371674 128.0
213.430359 236.0
213.451416 96.0
213.494843 320.0
213.553192 132.0
213.596832 176.0
213.636978 60.0
213.663284 156.0
213.710815 152.0
213.751022 252.0
213.78772 160.0
213.825974 328.0
213.906342 316.0
213.936066 176.0
213.963501 168.0
213.991043 112.0
214.01738 196.0
214.036484 212.0
214.068619 300.0
214.114914 104.0
214.145096 192.0
214.253235 140.0
214.298431 100.0
214.343613 220.0
214.401779 136.0
214.431625 96.0
214.443268 68.0
214.471848 420.0
214.510178 140.0
214.515228 92.0
214.527145 176.0
214.573746 164.0
214.682953 152.0
214.693405 80.0
214.700073 164.0
214.744507 176.0
214.774139 304.0
214.788025 208.0
214.796783 224.0
214.822739 168.0
214.899445 208.0
214.977936 492.0
215.011856 176.0
215.049973 100.0
215.07605 316.0
215.117935 152.0
215.145325 280.0
215.195023 236.0
215.231796 116.0
215.255157 108.0
215.287277 152.0
215.309906 436.0
215.332504 188.0
215.376358 120.0
215.405365 120.0
215.448669 172.0
215.499634 160.0
215.538162 168.0
215.579407 48.0
215.617401 260.0
215.640778 152.0
215.697021 164.0
215.723022 144.0
215.742249 168.0
215.819992 196.0
215.85112 176.0
215.862259 168.0
215.921448 160.0
215.945847 92.0
215.995255 168.0
216.045944 304.0
216.083084 2076.0
216.132065 232.0
216.152557 144.0
216.181381 80.0
216.198792 120.0
216.243271 160.0
216.281662 380.0
216.345428 144.0
216.353088 124.0
216.395142 204.0
216.417526 164.0
216.486267 80.0
216.50676 160.0
216.541626 256.0
216.585846 112.0
216.606339 108.0
216.629227 116.0
216.64679 164.0
216.694229 152.0
216.749161 192.0
216.782135 136.0
216.809204 136.0
216.854248 244.0
216.905899 244.0
216.961884 208.0
217.0056 308.0
217.090134 15332.0
217.182709 324.0
217.224457 300.0
217.26059 88.0
217.278671 192.0
217.319839 200.0
217.361282 88.0
217.387329 160.0
217.408646 168.0
217.444962 224.0
217.466476 288.0
217.49971 168.0
217.532974 132.0
217.565262 112.0
217.615173 32.0
217.648117 108.0
217.733063 248.0
217.782181 160.0
217.807037 120.0
217.861877 112.0
217.906403 128.0
217.942871 168.0
217.987869 168.0
217.999573 148.0
218.007355 84.0
218.034546 224.0
218.097672 44612.0
218.139008 280.0
218.174133 220.0
218.202377 116.0
218.227631 88.0
218.256393 68.0
218.275223 44.0
218.300873 64.0
218.32515 208.0
218.364212 200.0
218.411346 52.0
218.426407 140.0
218.461487 220.0
218.489059 200.0
218.516724 140.0
218.535904 152.0
218.548309 108.0
218.589218 156.0
218.634506 192.0
218.669617 40.0
218.687988 140.0
218.722137 88.0
218.774216 168.0
218.797073 232.0
218.839752 128.0
218.858673 180.0
218.880981 128.0
218.889847 124.0
218.901825 172.0
218.939941 168.0
218.960556 292.0
218.988007 40.0
218.993668 120.0
219.003983 140.0
219.015839 124.0
219.10083 6868.0
219.142761 132.0
219.193787 104.0
219.220291 196.0
219.264786 188.0
219.321823 224.0
219.344803 248.0
219.37294 108.0
219.424118 152.0
219.446777 204.0
219.47934 224.0
219.538712 204.0
219.59111 288.0
219.611694 196.0
219.635376 160.0
219.645767 68.0
219.667831 180.0
219.700699 96.0
219.710495 136.0
219.717072 164.0
219.757553 148.0
219.784286 96.0
219.834579 44.0
219.880493 144.0
219.943787 136.0
219.981583 100.0
220.020538 32.0
220.076935 1296.0
220.187973 148.0
220.228302 224.0
220.261414 208.0
220.298187 200.0
220.352448 52.0
220.402054 116.0
220.417511 108.0
220.427246 160.0
220.454529 292.0
220.501236 136.0
220.536682 128.0
220.561966 140.0
220.594635 108.0
220.646515 136.0
220.670547 244.0
220.705597 348.0
220.753799 284.0
220.780899 324.0
220.80397 168.0
220.81311 236.0
220.850739 332.0
220.913376 100.0
220.937515 128.0
220.959015 80.0
221.042206 72.0
221.082367 840.0
221.128235 168.0
221.172058 140.0
221.219711 176.0
221.246063 96.0
221.282944 272.0
221.331146 196.0
221.355484 136.0
221.379898 120.0
221.43335 136.0
221.460678 148.0
221.482986 152.0
221.515259 108.0
221.573624 116.0
221.628403 188.0
221.640747 120.0
221.645844 164.0
221.684982 136.0
221.71344 96.0
221.738846 152.0
221.797531 152.0
221.829819 328.0
221.880798 212.0
221.902161 56.0
221.948608 312.0
221.99855 112.0
222.087067 68.0
222.111877 180.0
222.133774 180.0
222.172165 184.0
222.200226 152.0
222.234024 148.0
222.277054 184.0
222.316727 136.0
222.363968 112.0
222.410934 324.0
222.458359 148.0
222.495529 204.0
222.540054 36.0
222.584595 128.0
222.62825 280.0
222.675858 180.0
222.70636 192.0
222.727142 192.0
222.792496 176.0
222.831924 176.0
222.883209 68.0
222.91806 184.0
222.943375 72.0
222.973755 100.0
223.009415 116.0
223.046921 52.0
223.111053 208.0
223.133759 184.0
223.156723 184.0
223.194016 240.0
223.236649 112.0
223.275696 220.0
223.324982 132.0
223.343826 196.0
223.369446 48.0
223.397491 132.0
223.437469 160.0
223.446701 228.0
223.481873 192.0
223.510422 60.0
223.522522 128.0
223.558929 428.0
223.631042 268.0
223.681641 152.0
223.724228 264.0
223.758011 156.0
223.794769 192.0
223.858093 212.0
223.89624 188.0
223.934738 156.0
223.960587 112.0
223.981705 232.0
224.102158 260.0
224.213074 104.0
224.248642 180.0
224.288574 224.0
224.315643 148.0
224.326477 280.0
224.38588 172.0
224.430466 84.0
224.467133 192.0
224.492035 132.0
224.571335 164.0
224.641266 128.0
224.679947 152.0
224.734482 160.0
224.771744 68.0
224.810455 212.0
224.84108 116.0
224.866089 116.0
224.891251 128.0
224.931564 156.0
224.984848 164.0
225.05368 144.0
225.118256 104.0
225.159927 228.0
225.205322 136.0
225.226227 96.0
225.28299 112.0
225.33078 124.0
225.387085 128.0
225.43985 184.0
225.465683 120.0
225.516052 224.0
225.553009 256.0
225.57869 328.0
225.6147 68.0
225.642929 148.0
225.709091 204.0
225.751785 316.0
225.772034 84.0
225.792252 384.0
225.8172 156.0
225.840134 236.0
225.868698 132.0
225.917908 164.0
225.958633 92.0
226.000092 84.0
226.052353 136.0
226.060989 172.0
226.09549 224.0
226.140854 152.0
226.163528 176.0
226.202698 144.0
226.221985 216.0
226.342926 284.0
226.382538 340.0
226.411255 152.0
226.440567 168.0
226.488495 128.0
226.515442 236.0
226.536423 216.0
226.584351 152.0
226.629776 224.0
226.650269 84.0
226.676559 212.0
226.688705 164.0
226.710251 240.0
226.740158 276.0
226.762756 328.0
226.852509 208.0
226.933182 228.0
226.979797 132.0
227.026611 168.0
227.075409 548.0
227.162048 120.0
227.233536 124.0
227.255936 208.0
227.277802 168.0
227.324188 172.0
227.351639 220.0
227.411987 132.0
227.465698 192.0
227.518417 156.0
227.559753 168.0
227.626663 116.0
227.648224 128.0
227.670181 176.0
227.74292 128.0
227.765335 88.0
227.820541 192.0
227.860611 120.0
227.90448 96.0
227.933624 280.0
227.985611 156.0
228.012054 344.0
228.08078 3944.0
228.157593 112.0
228.201263 92.0
228.213562 96.0
228.224136 148.0
228.255951 260.0
228.29306 148.0
228.316299 128.0
228.343369 184.0
228.380905 292.0
228.434616 368.0
228.456894 124.0
228.493774 120.0
228.550217 300.0
228.572968 132.0
228.599091 160.0
228.653763 136.0
228.683685 172.0
228.712692 96.0
228.74054 52.0
228.775406 216.0
228.827469 236.0
228.846664 300.0
228.873016 260.0
228.902191 116.0
228.951309 112.0
228.989563 68.0
229.013474 224.0
229.076538 6408.0
229.127014 208.0
229.176056 72.0
229.233307 308.0
229.25676 152.0
229.280914 68.0
229.352676 156.0
229.386734 192.0
229.415176 168.0
229.444199 132.0
229.479095 180.0
229.50174 144.0
229.539017 156.0
229.589767 168.0
229.5979 92.0
229.609451 80.0
229.619217 128.0
229.63353 108.0
229.643723 96.0
229.711914 180.0
229.721954 164.0
229.761688 84.0
229.794312 252.0
229.824219 240.0
229.862991 168.0
229.898529 96.0
229.919037 128.0
229.95665 112.0
229.998871 168.0
230.021652 152.0
230.084503 20184.0
230.172501 284.0
230.225128 364.0
230.258026 156.0
230.291504 140.0
230.32782 152.0
230.391602 392.0
230.432465 124.0
230.455231 296.0
230.498444 220.0
230.544632 128.0
230.597412 412.0
230.631805 96.0
230.673492 532.0
230.715805 208.0
230.766052 140.0
230.817657 304.0
230.860916 144.0
230.91861 116.0
230.927841 176.0
230.938065 208.0
230.978333 168.0
231.013672 328.0
231.088974 4480.0
231.157242 276.0
231.192261 168.0
231.30452 108.0
231.35054 60.0
231.383301 188.0
231.409271 56.0
231.471146 164.0
231.524338 104.0
231.551743 424.0
231.597015 164.0
231.6194 220.0
231.637512 136.0
231.660629 60.0
231.68486 52.0
231.736374 164.0
231.785187 144.0
231.812119 180.0
231.836639 136.0
231.879669 128.0
231.91243 116.0
231.951538 128.0
232.006317 176.0
232.034866 168.0
232.078735 944.0
232.148804 308.0
232.181961 108.0
232.21344 64.0
232.279022 96.0
232.357346 88.0
232.409485 120.0
232.444107 68.0
232.476852 196.0
232.507675 144.0
232.570312 180.0
232.605713 248.0
232.656876 156.0
232.723785 196.0
232.754227 124.0
232.786819 116.0
232.823273 152.0
232.856613 136.0
232.931824 116.0
232.979401 164.0
232.998489 180.0
233.005524 88.0
233.021774 160.0
233.084595 19952.0
233.15744 148.0
233.192886 212.0
233.217361 208.0
233.25618 80.0
233.305237 128.0
233.35408 116.0
233.390671 104.0
233.410156 72.0
233.449005 192.0
233.464676 204.0
233.478317 84.0
233.489578 220.0
233.558945 228.0
233.609146 252.0
233.665741 84.0
233.693024 100.0
233.712982 128.0
233.736145 104.0
233.755066 48.0
233.790939 152.0
233.827927 176.0
233.864899 152.0
233.92189 112.0
233.928589 180.0
233.968872 292.0
233.982986 56.0
233.992279 112.0
234.041245 180.0
234.087128 3704.0
234.12178 136.0
234.163513 156.0
234.200165 120.0
234.246628 56.0
234.256332 68.0
234.301285 268.0
234.323517 180.0
234.377319 196.0
234.423126 160.0
234.452942 212.0
234.491684 320.0
234.523361 152.0
234.567505 92.0
234.613251 188.0
234.624832 112.0
234.690704 236.0
234.745346 152.0
234.774292 176.0
234.807449 156.0
234.882843 244.0
234.913345 32.0
234.934692 136.0
234.979111 384.0
234.997482 248.0
235.029282 168.0
235.063263 772.0
235.089478 828.0
235.125854 136.0
235.160767 136.0
235.184921 112.0
235.212387 148.0
235.249176 228.0
235.279144 92.0
235.337357 244.0
235.432434 456.0
235.48291 120.0
235.52565 164.0
235.557434 212.0
235.599808 92.0
235.619644 220.0
235.675873 172.0
235.722031 272.0
235.768005 148.0
235.823273 104.0
235.880646 104.0
235.904037 104.0
235.930801 180.0
235.966232 152.0
235.996384 220.0
236.016983 236.0
236.068207 136.0
236.078232 348.0
236.188873 272.0
236.229156 204.0
236.250809 200.0
236.289139 136.0
236.312088 164.0
236.370468 156.0
236.396942 128.0
236.472717 164.0
236.522018 108.0
236.544144 136.0
236.565659 176.0
236.598557 160.0
236.659073 280.0
236.69516 148.0
236.756271 92.0
236.793152 112.0
236.856827 268.0
236.937119 116.0
236.964691 144.0
236.989548 176.0
237.016312 200.0
237.059677 384.0
237.084671 180.0
237.094482 124.0
237.106781 196.0
237.170013 148.0
237.21788 156.0
237.288452 88.0
237.316849 168.0
237.357788 304.0
237.406082 176.0
237.453613 364.0
237.49649 100.0
237.522339 132.0
237.572617 228.0
237.633041 188.0
237.700165 152.0
237.731461 184.0
237.777008 132.0
237.817963 144.0
237.854797 160.0
237.882172 216.0
237.962326 136.0
237.988815 128.0
238.025345 144.0
238.057785 120.0
238.08815 188.0
238.13205 144.0
238.161087 276.0
238.198685 196.0
238.247162 160.0
238.270493 188.0
238.3069 120.0
238.378494 200.0
238.412537 232.0
238.448624 136.0
238.480621 132.0
238.502136 152.0
238.551895 172.0
238.60051 168.0
238.672592 172.0
238.723831 188.0
238.739487 208.0
238.827103 308.0
238.849594 188.0
238.883133 168.0
238.904129 176.0
238.927643 204.0
238.962082 92.0
238.97171 52.0
238.983139 128.0
238.993713 104.0
239.003479 108.0
239.06134 228.0
239.091217 272.0
239.145233 192.0
239.182983 128.0
239.217712 108.0
239.240646 152.0
239.264374 224.0
239.292801 240.0
239.315781 224.0
239.373154 140.0
239.379898 164.0
239.395721 316.0
239.429657 156.0
239.449936 172.0
239.493484 152.0
239.542038 160.0
239.556061 104.0
239.565323 212.0
239.633713 96.0
239.656174 84.0
239.726837 232.0
239.753342 188.0
239.762024 160.0
239.799454 112.0
239.828293 324.0
239.856949 108.0
239.898865 188.0
239.921234 188.0
239.94281 172.0
239.978531 184.0
240.025391 292.0
240.066147 144.0
240.12915 232.0
240.190628 100.0
240.226532 156.0
240.274063 148.0
240.312286 156.0
240.351654 280.0
240.399857 316.0
240.451263 296.0
240.476471 232.0
240.511658 232.0
240.559036 120.0
240.587357 140.0
240.623428 164.0
240.636368 100.0
240.647186 144.0
240.674042 60.0
240.706604 292.0
240.763596 160.0
240.798218 132.0
240.852478 144.0
240.861984 112.0
240.93837 232.0
240.974091 116.0
241.076324 8620.0
241.182861 192.0
241.195251 112.0
241.208313 228.0
241.261063 96.0
241.288559 232.0
241.347321 232.0
241.433487 204.0
241.458954 144.0
241.492722 152.0
241.522644 148.0
241.572067 456.0
241.59758 80.0
241.611374 124.0
241.678726 160.0
241.722275 216.0
241.768326 124.0
241.789978 80.0
241.828812 316.0
241.892044 160.0
241.931717 172.0
241.942291 176.0
241.988754 256.0
242.020905 168.0
242.042343 108.0
242.085266 29084.0
242.12471 276.0
242.163666 176.0
242.220047 132.0
242.277573 68.0
242.300171 284.0
242.338074 256.0
242.369217 364.0
242.422424 108.0
242.490952 216.0
242.504868 68.0
242.509491 204.0
242.55191 132.0
242.596268 184.0
242.624695 384.0
242.649933 84.0
242.689453 176.0
242.721725 148.0
242.742157 148.0
242.775375 376.0
242.821655 152.0
242.853333 240.0
242.882599 232.0
242.911606 64.0
242.95961 112.0
242.985825 52.0
243.013123 152.0
243.091232 17724.0
243.138199 292.0
243.174927 144.0
243.196182 160.0
243.22731 76.0
243.260254 280.0
243.295349 232.0
243.320801 336.0
243.381378 196.0
243.426193 120.0
243.455963 240.0
243.496536 268.0
243.568283 140.0
243.591202 160.0
243.630798 148.0
243.642105 224.0
243.651352 152.0
243.668335 148.0
243.706375 152.0
243.746765 304.0
243.76944 136.0
243.793564 132.0
243.819595 192.0
243.858185 144.0
243.866486 92.0
243.877853 156.0
243.945358 160.0
243.982132 292.0
244.007858 136.0
244.096756 3944.0
244.161545 136.0
244.206482 128.0
244.248978 248.0
244.302536 164.0
244.326523 120.0
244.365387 184.0
244.409073 152.0
244.457443 240.0
244.481781 184.0
244.512344 112.0
244.568176 296.0
244.597809 112.0
244.608185 152.0
244.618423 236.0
244.642975 80.0
244.702606 232.0
244.771347 220.0
244.856384 232.0
244.862244 56.0
244.899063 112.0
244.920731 160.0
244.96109 364.0
244.995056 152.0
245.044159 352.0
245.108749 45956.0
245.214493 76.0
245.25354 172.0
245.298904 184.0
245.339493 204.0
245.386261 260.0
245.41687 468.0
245.423203 96.0
245.436005 236.0
245.457291 176.0
245.485626 192.0
245.501465 76.0
245.523163 144.0
245.554016 120.0
245.580017 216.0
245.620667 156.0
245.648331 52.0
245.673721 312.0
245.713699 116.0
245.761887 172.0
245.829025 196.0
245.858658 548.0
245.893951 232.0
245.975204 340.0
246.020523 216.0
246.09343 86776.0
246.165268 100.0
246.17305 108.0
246.184448 156.0
246.206696 72.0
246.214294 160.0
246.244675 136.0
246.288849 136.0
246.33725 112.0
246.371689 108.0
246.405457 152.0
246.440689 224.0
246.48848 60.0
246.492981 92.0
246.522644 324.0
246.550079 160.0
246.597992 252.0
246.649261 216.0
246.679596 196.0
246.76738 120.0
246.79834 120.0
246.827896 124.0
246.879929 376.0
246.90303 72.0
246.948227 212.0
246.980911 180.0
247.047379 240.0
247.096085 14888.0
247.196518 204.0
247.217957 124.0
247.269104 172.0
247.293274 132.0
247.331482 112.0
247.367584 260.0
247.428406 52.0
247.469528 168.0
247.502121 224.0
247.50589 176.0
247.587631 172.0
247.613052 376.0
247.673904 116.0
247.681229 276.0
247.712097 108.0
247.736008 212.0
247.795685 208.0
247.832458 80.0
247.861526 72.0
247.899445 152.0
247.925003 160.0
247.966827 236.0
248.026352 92.0
248.097916 1132.0
248.145813 152.0
248.205734 100.0
248.230255 148.0
248.237534 132.0
248.258713 136.0
248.317307 72.0
248.342728 276.0
248.401367 196.0
248.434753 88.0
248.460693 120.0
248.496841 188.0
248.507721 116.0
248.542999 184.0
248.555359 104.0
248.566055 152.0
248.606812 236.0
248.625748 308.0
248.668091 176.0
248.69191 144.0
248.731812 148.0
248.774109 44.0
248.805405 276.0
248.814865 180.0
248.876923 124.0
248.917313 160.0
248.928833 96.0
248.937164 324.0
248.959625 212.0
249.001328 124.0
249.038284 120.0
249.069473 156.0
249.094925 164.0
249.122314 224.0
249.158081 124.0
249.195221 176.0
249.23027 200.0
249.277771 164.0
249.324966 280.0
249.366486 232.0
249.390915 136.0
249.46106 268.0
249.476868 128.0
249.49826 120.0
249.520401 312.0
249.579742 252.0
249.61412 400.0
249.662567 404.0
249.731354 216.0
249.76152 120.0
249.812012 144.0
249.844559 176.0
249.87204 300.0
249.903091 240.0
249.937378 68.0
249.963242 144.0
250.084885 144.0
250.141037 176.0
250.228317 140.0
250.255936 148.0
250.286407 104.0
250.334732 164.0
250.366226 100.0
250.403015 188.0
250.474167 236.0
250.521347 196.0
250.549942 148.0
250.594437 116.0
250.640289 196.0
250.681259 164.0
250.738861 172.0
250.775803 188.0
250.818665 96.0
250.840851 144.0
250.882217 100.0
250.924698 196.0
250.96843 152.0
251.001953 152.0
251.046921 120.0
251.093384 184.0
251.16362 148.0
251.213058 184.0
251.254364 120.0
251.28801 184.0
251.313171 100.0
251.346527 176.0
251.414978 192.0
251.44545 176.0
251.483429 176.0
251.511765 156.0
251.578415 232.0
251.628448 224.0
251.702621 168.0
251.734009 344.0
251.756973 308.0
251.782242 44.0
251.807495 260.0
251.846924 192.0
251.886459 128.0
251.941086 180.0
251.99295 132.0
252.018738 192.0
252.034836 164.0
252.084137 136.0
252.164261 156.0
252.19928 36.0
252.241425 124.0
252.257767 112.0
252.280151 164.0
252.351028 232.0
252.376312 132.0
252.407013 380.0
252.469604 200.0
252.512573 136.0
252.567642 168.0
252.60408 208.0
252.645142 140.0
252.687851 128.0
252.710236 132.0
252.762039 148.0
252.791351 172.0
252.817047 220.0
252.867554 152.0
252.873978 100.0
252.91095 152.0
252.94577 168.0
252.986923 336.0
253.00827 172.0
253.072403 264.0
253.10733 252.0
253.140793 240.0
253.172073 84.0
253.20224 156.0
253.22757 112.0
253.267365 128.0
253.370773 336.0
253.411209 136.0
253.477844 164.0
253.511246 132.0
253.537811 108.0
253.558273 152.0
253.59938 160.0
253.663437 272.0
253.696533 104.0
253.7314 100.0
253.75769 236.0
253.791641 312.0
253.850632 320.0
253.924835 144.0
253.961945 80.0
254.024506 76.0
254.086731 860.0
254.137375 124.0
254.15834 92.0
254.197662 204.0
254.226227 176.0
254.25766 168.0
254.289108 280.0
254.316238 164.0
254.373627 268.0
254.424255 172.0
254.462601 160.0
254.551331 236.0
254.642014 140.0
254.697495 156.0
254.724686 164.0
254.746933 164.0
254.772339 72.0
254.815781 408.0
254.883286 312.0
254.907501 104.0
254.961258 140.0
254.991318 164.0
255.048294 180.0
255.093353 17952.0
255.155609 256.0
255.199478 272.0
255.221649 172.0
255.245911 84.0
255.288925 76.0
255.311996 204.0
255.333237 156.0
255.366882 196.0
255.438049 196.0
255.47612 156.0
255.525009 104.0
255.605499 364.0
255.659637 176.0
255.707962 196.0
255.740555 264.0
255.771301 100.0
255.804398 552.0
255.848755 284.0
255.88327 88.0
255.89769 128.0
255.903061 128.0
255.936142 156.0
255.966644 184.0
256.005066 92.0
256.03186 328.0
256.096375 11044.0
256.180115 84.0
256.225311 156.0
256.262543 152.0
256.286377 88.0
256.319733 208.0
256.362793 336.0
256.38205 40.0
256.392853 264.0
256.428528 188.0
256.468842 144.0
256.514008 132.0
256.537476 192.0
256.577301 100.0
256.60025 164.0
256.657501 164.0
256.726318 164.0
256.751129 228.0
256.763641 176.0
256.80426 84.0
256.812164 196.0
256.82373 192.0
256.884644 148.0
256.922333 84.0
256.949738 412.0
257.004059 140.0
257.037872 168.0
257.084961 14520.0
257.132935 184.0
257.143341 252.0
257.201141 376.0
257.220795 32.0
257.232239 288.0
257.259521 272.0
257.282654 360.0
257.306152 116.0
257.343903 108.0
257.35025 156.0
257.397736 164.0
257.434113 192.0
257.481354 144.0
257.515228 172.0
257.555328 224.0
257.592407 180.0
257.650238 304.0
257.68335 224.0
257.712891 420.0
257.753662 360.0
257.785645 408.0
257.820801 200.0
257.853699 412.0
257.88269 200.0
257.938049 232.0
257.997009 700.0
258.04187 1344.0
258.082001 272868.0
258.175232 272.0
258.196136 192.0
258.263428 80.0
258.274048 44.0
258.302704 288.0
258.33606 244.0
258.380829 372.0
258.424133 408.0
258.451416 236.0
258.456573 132.0
258.472015 184.0
258.521667 276.0
258.54422 204.0
258.570374 468.0
258.609375 4704.0
258.643951 320.0
258.674713 212.0
258.706604 224.0
258.734528 224.0
258.76889 196.0
258.814758 160.0
258.851349 188.0
258.885437 232.0
258.938873 312.0
258.973236 136.0
259.021118 296.0
259.084442 89712.0
259.155396 76.0
259.159668 176.0
259.187561 260.0
259.205048 188.0
259.230408 168.0
259.293182 184.0
259.332367 172.0
259.364227 272.0
259.410797 144.0
259.443939 296.0
259.474731 216.0
259.525818 260.0
259.575897 32.0
259.612518 140.0
259.643097 228.0
259.677429 272.0
259.733826 228.0
259.770355 148.0
259.824219 164.0
259.835724 88.0
259.85495 184.0
259.891632 308.0
259.91217 164.0
259.93689 180.0
259.946289 120.0
259.994049 188.0
260.018799 228.0
260.086365 5564.0
260.172058 232.0
260.209412 68.0
260.220245 252.0
260.230469 192.0
260.241302 156.0
260.274963 192.0
260.319641 208.0
260.344666 344.0
260.37326 156.0
260.413177 240.0
260.453033 92.0
260.499664 212.0
260.526184 336.0
260.559631 152.0
260.607391 260.0
260.633942 172.0
260.669891 344.0
260.691559 272.0
260.723145 256.0
260.734467 160.0
260.750458 96.0
260.760834 380.0
260.834656 404.0
260.866333 188.0
260.895477 200.0
260.932465 196.0
260.960327 216.0
260.974152 272.0
261.022858 328.0
261.044739 252.0
261.08493 976.0
261.119202 428.0
261.159973 476.0
261.226746 172.0
261.270691 132.0
261.297272 196.0
261.324585 172.0
261.338043 40.0
261.344543 188.0
261.36972 64.0
261.400177 120.0
261.431763 124.0
261.466156 116.0
261.502411 156.0
261.53244 56.0
261.56723 76.0
261.614319 72.0
261.638641 68.0
261.686066 72.0
261.696503 124.0
261.70636 140.0
261.731598 132.0
261.764221 160.0
261.786438 280.0
261.820465 108.0
261.858429 124.0
261.870331 80.0
261.880981 252.0
261.940857 380.0
261.987579 284.0
262.023071 168.0
262.091583 232.0
262.139343 188.0
262.176575 60.0
262.219849 84.0
262.242249 136.0
262.273651 228.0
262.325195 312.0
262.386627 240.0
262.411865 112.0
262.435699 144.0
262.502258 140.0
262.582764 68.0
262.65094 180.0
262.706024 88.0
262.793945 240.0
262.838623 104.0
262.90683 196.0
262.91333 104.0
262.95047 112.0
262.973907 140.0
263.039612 144.0
263.070984 192.0
263.099915 120.0
263.148102 148.0
263.184174 132.0
263.244354 148.0
263.285492 132.0
263.297272 204.0
263.312164 184.0
263.381378 136.0
263.409058 132.0
263.451569 204.0
263.472565 352.0
263.503815 268.0
263.523743 176.0
263.573822 68.0
263.619934 168.0
263.658478 112.0
263.706329 188.0
263.748352 116.0
263.782928 40.0
263.805054 116.0
263.858276 132.0
263.902618 72.0
263.908752 52.0
263.927063 144.0
263.990265 160.0
264.039337 60.0
264.068451 48.0
264.09433 148.0
264.126892 128.0
264.181458 252.0
264.253662 188.0
264.274292 132.0
264.306335 148.0
264.362488 36.0
264.441711 172.0
264.475861 156.0
264.578247 124.0
264.630829 112.0
264.673615 180.0
264.723969 156.0
264.76001 104.0
264.804565 100.0
264.848419 168.0
264.904846 80.0
264.961975 100.0
265.039612 176.0
265.068787 80.0
265.091461 224.0
265.120636 56.0
265.150421 112.0
265.172485 140.0
265.2276 192.0
265.248993 228.0
265.281738 68.0
265.290192 180.0
265.340698 152.0
265.411133 124.0
265.452454 156.0
265.495209 96.0
265.532349 92.0
265.567017 128.0
265.644897 144.0
265.675079 168.0
265.732788 96.0
265.782135 100.0
265.808105 124.0
265.839325 136.0
265.937927 140.0
265.9664 180.0
266.059692 148.0
266.103485 188.0
266.165161 136.0
266.202271 160.0
266.243103 164.0
266.30481 160.0
266.340271 200.0
266.397736 144.0
266.410187 232.0
266.448364 188.0
266.495636 284.0
266.554749 128.0
266.561066 96.0
266.600464 76.0
266.646454 160.0
266.727203 160.0
266.755676 164.0
266.777588 128.0
266.826019 108.0
266.862244 92.0
266.88327 144.0
266.90979 248.0
266.967804 136.0
266.993805 124.0
267.028412 120.0
267.057007 400.0
267.0979 168.0
267.136932 132.0
267.172729 100.0
267.218079 72.0
267.277466 92.0
267.342896 164.0
267.367523 220.0
267.459076 264.0
267.492371 156.0
267.51767 76.0
267.540466 80.0
267.568512 280.0
267.595795 112.0
267.6698 72.0
267.704346 192.0
267.779572 128.0
267.832703 64.0
267.855042 96.0
267.880798 148.0
267.92041 48.0
267.986633 164.0
268.032257 64.0
268.091187 184.0
268.129547 108.0
268.160706 268.0
268.212128 208.0
268.276093 256.0
268.309296 144.0
268.348419 164.0
268.398376 184.0
268.442993 148.0
268.503143 160.0
268.539032 196.0
268.561951 116.0
268.593018 164.0
268.623047 196.0
268.67868 76.0
268.709473 120.0
268.731171 180.0
268.820038 140.0
268.848755 144.0
268.895691 172.0
268.952576 164.0
268.999542 88.0
269.036804 148.0
269.077087 188.0
269.195526 288.0
269.230743 164.0
269.294769 172.0
269.330688 248.0
269.449249 328.0
269.484222 128.0
269.509918 272.0
269.550537 152.0
269.615234 176.0
269.642761 132.0
269.688873 128.0
269.713226 56.0
269.745392 144.0
269.77182 116.0
269.800903 116.0
269.822968 188.0
269.847504 160.0
269.88446 192.0
269.925629 124.0
269.960419 200.0
269.994293 148.0
270.043213 168.0
270.082672 380.0
270.107544 96.0
270.146545 144.0
270.257446 164.0
270.314575 360.0
270.347473 148.0
270.438263 124.0
270.450409 192.0
270.477966 288.0
270.505035 56.0
270.531586 116.0
270.563385 112.0
270.604736 136.0
270.627319 212.0
270.672974 248.0
270.725342 208.0
270.736145 88.0
270.748077 184.0
270.759735 156.0
270.769806 120.0
270.853119 116.0
270.875458 140.0
270.895142 164.0
270.919952 188.0
270.940887 128.0
270.966339 80.0
271.008484 176.0
271.045868 352.0
271.087402 3528.0
271.12558 148.0
271.151611 292.0
271.206146 284.0
271.231262 76.0
271.269928 100.0
271.33667 84.0
271.365631 248.0
271.397675 240.0
271.492798 424.0
271.535828 248.0
271.573761 320.0
271.612061 144.0
271.660248 132.0
271.710175 108.0
271.744995 132.0
271.76413 108.0
271.787903 228.0
271.888397 240.0
271.918396 304.0
271.946808 108.0
271.978516 244.0
272.021271 616.0
272.095367 16924.0
272.193359 288.0
272.220337 236.0
272.24646 144.0
272.271088 196.0
272.310394 132.0
272.329468 416.0
272.35257 344.0
272.365173 252.0
272.382629 276.0
272.417236 188.0
272.44693 376.0
272.500793 264.0
272.540894 232.0
272.568695 120.0
272.633087 308.0
272.656982 224.0
272.682129 428.0
272.725037 460.0
272.756622 548.0
272.800323 468.0
272.846954 848.0
272.901947 640.0
272.958099 1060.0
272.966644 556.0
273.007812 1180.0
273.02301 716.0
273.105621 482812.0
273.181183 220.0
273.220215 328.0
273.26239 188.0
273.287872 204.0
273.332947 392.0
273.398956 628.0
273.417297 488.0
273.48996 404.0
273.533417 528.0
273.601044 372.0
273.647736 9624.0
273.684296 536.0
273.690216 720.0
273.706451 396.0
273.712555 380.0
273.746399 492.0
273.773468 252.0
273.79538 180.0
273.811157 160.0
273.8255 188.0
273.838562 172.0
273.871887 360.0
273.899078 288.0
273.924408 568.0
273.938416 304.0
273.944519 276.0
274.006653 436.0
274.038574 552.0
274.107819 159188.0
274.175385 140.0
274.205963 152.0
274.239227 396.0
274.279236 288.0
274.312897 92.0
274.3396 360.0
274.379059 124.0
274.402557 304.0
274.44223 232.0
274.504791 228.0
274.536896 148.0
274.574921 52.0
274.629486 272.0
274.67276 340.0
274.71817 72.0
274.740509 140.0
274.800964 104.0
274.823425 176.0
274.846771 168.0
274.89093 120.0
274.927399 216.0
274.992859 400.0
275.028778 232.0
275.039795 136.0
275.051453 116.0
275.110168 11308.0
275.170471 236.0
275.211884 392.0
275.23819 164.0
275.270325 52.0
275.277466 128.0
275.293457 180.0
275.299255 124.0
275.313416 68.0
275.357635 304.0
275.412811 144.0
275.447296 156.0
275.508636 220.0
275.534454 136.0
275.596344 232.0
275.621552 132.0
275.629517 136.0
275.653687 360.0
275.666107 56.0
275.676117 304.0
275.688019 288.0
275.729767 192.0
275.738678 308.0
275.778198 144.0
275.818939 420.0
275.863373 312.0
275.901459 472.0
275.975311 220.0
276.011902 400.0
276.03653 484.0
276.065094 272.0
276.112457 1004.0
276.169617 484.0
276.202209 388.0
276.264343 144.0
276.313446 152.0
276.361908 184.0
276.38504 196.0
276.418579 156.0
276.459198 128.0
276.510254 268.0
276.562653 184.0
276.608459 184.0
276.62381 140.0
276.629761 52.0
276.664825 28.0
276.700653 264.0
276.727936 124.0
276.773773 204.0
276.827301 132.0
276.876709 136.0
276.933472 96.0
276.971497 80.0
276.997559 72.0
277.038116 280.0
277.096252 260.0
277.126282 60.0
277.154449 192.0
277.204224 120.0
277.263397 48.0
277.326141 60.0
277.330566 152.0
277.363831 256.0
277.44281 32.0
277.47348 116.0
277.509949 116.0
277.561737 48.0
277.588287 64.0
277.633209 44.0
277.678284 56.0
277.763763 184.0
277.77533 80.0
277.782715 120.0
277.830383 140.0
277.862457 96.0
277.884308 48.0
277.89566 96.0
277.905884 196.0
277.959808 112.0
278.01886 152.0
278.065155 32.0
278.11441 252.0
278.153961 160.0
278.175537 192.0
278.199463 172.0
278.222229 276.0
278.265167 100.0
278.293365 48.0
278.331573 160.0
278.367889 64.0
278.386414 124.0
278.425446 80.0
278.481018 48.0
278.607239 64.0
278.762329 184.0
278.793304 160.0
278.819885 76.0
278.854218 24.0
278.931885 144.0
278.971436 124.0
279.000824 64.0
279.030487 72.0
279.059235 80.0
279.087463 148.0
279.128754 140.0
279.162292 172.0
279.19754 192.0
279.258759 164.0
279.293396 124.0
279.33429 112.0
279.386719 172.0
279.414307 156.0
279.471649 80.0
279.544861 72.0
279.574799 88.0
279.653381 72.0
279.721252 68.0
279.754547 176.0
279.857758 64.0
279.901031 68.0
280.010925 56.0
280.048401 128.0
280.090851 60.0
280.118622 144.0
280.163361 96.0
280.257446 52.0
280.311951 100.0
280.350739 120.0
280.404053 44.0
280.484039 188.0
280.528473 184.0
280.590729 56.0
280.664062 108.0
280.707428 144.0
280.747437 256.0
280.84082 56.0
280.87085 80.0
281.024292 36.0
281.086212 116.0
281.127747 32.0
281.174469 72.0
281.201172 192.0
281.287933 40.0
281.394775 96.0
281.478241 48.0
281.521667 68.0
281.583527 44.0
281.720184 152.0
281.821747 208.0
281.855133 96.0
281.922546 48.0
281.961853 84.0
281.984833 180.0
282.068542 88.0
282.162537 60.0
282.230072 36.0
282.265594 72.0
282.296234 152.0
282.375671 88.0
282.434052 184.0
282.469177 112.0
282.519379 112.0
282.561188 216.0
282.611359 120.0
282.668243 112.0
282.725128 48.0
282.805481 120.0
282.842285 100.0
282.879211 220.0
282.909241 76.0
282.936005 52.0
282.97821 80.0
283.118683 80.0
283.139587 220.0
283.179749 56.0
283.250793 152.0
283.331207 36.0
283.444824 92.0
283.455017 84.0
283.464996 172.0
283.515472 64.0
283.618073 72.0
283.701202 188.0
283.748199 84.0
283.783661 52.0
283.830597 56.0
283.870819 108.0
283.951324 92.0
283.999634 108.0
284.028473 172.0
284.083252 356.0
284.13916 40.0
284.216339 132.0
284.256592 52.0
284.283447 64.0
284.316986 136.0
284.384125 52.0
284.441193 88.0
284.483917 104.0
284.545258 164.0
284.585541 76.0
284.61911 96.0
284.642609 100.0
284.679565 160.0
284.75885 92.0
284.820618 100.0
284.893219 124.0
284.918793 196.0
285.009521 124.0
285.045837 108.0
285.090912 6508.0
285.163574 172.0
285.234467 96.0
285.291077 220.0
285.391846 140.0
285.47934 196.0
285.506256 100.0
285.573517 84.0
285.620605 148.0
285.721527 76.0
285.75116 296.0
285.793549 88.0
285.85025 108.0
285.915131 172.0
285.934937 160.0
285.969269 124.0
286.053467 88.0
286.092285 1780.0
286.162415 128.0
286.187347 108.0
286.230652 168.0
286.301422 188.0
286.353699 80.0
286.37265 112.0
286.428467 204.0
286.451752 92.0
286.485382 80.0
286.582123 204.0
286.617126 196.0
286.681152 140.0
286.727783 124.0
286.811249 60.0
286.869904 140.0
286.938385 64.0
287.030365 140.0
287.087219 844.0
287.119263 344.0
287.151703 228.0
287.195496 128.0
287.255859 200.0
287.307526 128.0
287.44519 216.0
287.532715 140.0
287.561371 80.0
287.584991 208.0
287.642365 104.0
287.676117 100.0
287.877502 156.0
287.907349 88.0
287.949341 92.0
287.96283 84.0
288.073456 428.0
288.095886 352.0
288.136505 160.0
288.189484 48.0
288.239258 88.0
288.286499 116.0
288.313934 68.0
288.354645 100.0
288.3638 88.0
288.376862 152.0
288.388428 156.0
288.448395 208.0
288.476746 192.0
288.522339 164.0
288.618835 184.0
288.64328 108.0
288.68399 80.0
288.821655 80.0
288.878693 144.0
288.934784 76.0
288.988251 128.0
289.038544 176.0
289.08667 480.0
289.13974 304.0
289.231079 84.0
289.263977 160.0
289.325867 248.0
289.38858 92.0
289.417267 108.0
289.457916 64.0
289.487244 60.0
289.578613 124.0
289.623199 64.0
289.671204 104.0
289.711273 104.0
289.723846 84.0
289.77597 204.0
289.843597 180.0
289.875427 116.0
289.906616 80.0
289.950073 176.0
289.970093 256.0
289.995056 80.0
290.042664 120.0
290.07663 116.0
290.10965 288.0
290.197662 184.0
290.223541 184.0
290.234894 144.0
290.274689 220.0
290.315582 200.0
290.387604 240.0
290.433929 140.0
290.47699 144.0
290.503387 212.0
290.548157 192.0
290.576416 80.0
290.602234 256.0
290.651062 188.0
290.681061 344.0
290.707214 336.0
290.718994 184.0
290.768341 72.0
290.808685 128.0
290.833405 60.0
290.861389 232.0
290.901642 500.0
290.913269 152.0
290.927246 276.0
290.975067 588.0
291.00531 396.0
291.039093 496.0
291.115784 229604.0
291.205994 148.0
291.250702 216.0
291.278748 260.0
291.34256 136.0
291.383331 76.0
291.394348 92.0
291.421478 88.0
291.443146 416.0
291.487946 224.0
291.518005 220.0
291.541107 76.0
291.564545 100.0
291.603912 88.0
291.62851 152.0
291.674561 1424.0
291.740631 124.0
291.748993 176.0
291.76236 104.0
291.774689 184.0
291.828278 148.0
291.888214 184.0
291.933716 68.0
291.978516 196.0
292.057434 296.0
292.118103 57084.0
292.21579 84.0
292.294434 76.0
292.335419 132.0
292.375641 108.0
292.43045 88.0
292.481628 136.0
292.527161 348.0
292.563324 172.0
292.591278 88.0
292.644287 56.0
292.703308 100.0
292.747955 180.0
292.757355 64.0
292.770844 156.0
292.80899 96.0
292.846802 184.0
292.942566 32.0
292.99707 92.0
293.036804 132.0
293.07724 140.0
293.119598 5136.0
293.206604 28.0
293.235596 64.0
293.266266 104.0
293.325378 112.0
293.356079 160.0
293.439789 88.0
293.481628 92.0
293.492645 128.0
293.502686 80.0
293.535156 176.0
293.574371 72.0
293.595978 72.0
293.681641 232.0
293.749298 264.0
293.771851 104.0
293.795929 136.0
293.827698 232.0
293.834045 64.0
293.848602 164.0
293.856781 220.0
293.891998 244.0
293.944672 116.0
293.971771 160.0
294.001892 156.0
294.034637 112.0
294.130066 652.0
294.226196 160.0
294.296265 60.0
294.30484 148.0
294.333557 276.0
294.357574 36.0
294.369507 100.0
294.419434 88.0
294.4953 144.0
294.528564 96.0
294.562866 56.0
294.585846 44.0
294.619476 60.0
294.659515 84.0
294.713196 100.0
294.819122 44.0
294.849823 120.0
294.91861 76.0
294.973785 112.0
295.026215 180.0
295.078918 72.0
295.137024 80.0
295.192322 288.0
295.221375 96.0
295.232422 80.0
295.236969 156.0
295.481873 104.0
295.554993 208.0
295.629608 36.0
295.700989 88.0
295.846588 136.0
295.90686 80.0
295.943176 192.0
295.968475 36.0
296.013428 132.0
296.078064 40.0
296.146576 92.0
296.252747 56.0
296.287018 60.0
296.362396 120.0
296.412903 164.0
296.583588 160.0
296.654266 96.0
296.758881 88.0
296.923187 100.0
297.008209 84.0
297.044617 104.0
297.147522 44.0
297.178406 84.0
297.205872 52.0
297.240173 44.0
297.288208 104.0
297.321808 172.0
297.346558 64.0
297.376648 172.0
297.466705 76.0
297.531921 52.0
297.566254 48.0
297.600586 48.0
297.624634 84.0
297.708649 136.0
297.748108 92.0
297.796326 52.0
297.823792 108.0
297.9104 96.0
297.96463 64.0
298.007874 144.0
298.034821 112.0
298.095215 68.0
298.167389 128.0
298.277374 116.0
298.36673 92.0
298.449982 76.0
298.607452 176.0
298.700226 156.0
298.708008 152.0
298.72168 192.0
298.814606 180.0
298.920502 128.0
298.982452 116.0
299.052399 236.0
299.0914 152.0
299.24646 108.0
299.314392 148.0
299.343903 56.0
299.423126 72.0
299.466003 168.0
299.519562 84.0
299.564331 52.0
299.681824 140.0
299.702728 156.0
299.767609 92.0
299.802765 140.0
299.848328 124.0
299.895111 48.0
299.965149 204.0
300.02951 144.0
300.115112 26488.0
300.220703 104.0
300.246796 88.0
300.281036 120.0
300.328033 136.0
300.361145 100.0
300.405151 48.0
300.463531 184.0
300.470428 48.0
300.524597 84.0
300.566467 144.0
300.599609 144.0
300.640076 60.0
300.68689 128.0
300.726349 92.0
300.7565 240.0
300.800842 48.0
300.854065 84.0
300.87973 84.0
300.909088 200.0
300.915741 144.0
300.953094 64.0
300.982269 124.0
301.032043 124.0
301.100189 50068.0
301.190887 104.0
301.221252 68.0
301.264252 140.0
301.303009 100.0
301.364685 132.0
301.374207 80.0
301.421356 136.0
301.458282 60.0
301.463257 96.0
301.487335 76.0
301.519196 152.0
301.570374 120.0
301.593536 60.0
301.649902 64.0
301.692871 164.0
301.736115 76.0
301.782837 72.0
301.851776 124.0
301.883362 80.0
301.914825 28.0
301.956329 48.0
301.994049 220.0
302.020325 72.0
302.102905 8652.0
302.211304 68.0
302.265839 60.0
302.305725 72.0
302.33551 204.0
302.386139 68.0
302.416473 40.0
302.451111 48.0
302.501221 92.0
302.568787 56.0
302.615051 108.0
302.665314 32.0
302.696991 92.0
302.746887 36.0
302.817932 76.0
302.90036 200.0
302.957977 64.0
303.029419 232.0
303.106079 2188.0
303.190369 44.0
303.220001 36.0
303.252228 40.0
303.259674 72.0
303.290802 168.0
303.372528 76.0
303.403717 124.0
303.444 112.0
303.507568 124.0
303.53894 68.0
303.5979 60.0
303.642975 40.0
303.670715 68.0
303.705414 104.0
303.736633 88.0
303.775543 92.0
303.834045 92.0
303.861511 88.0
303.949951 164.0
303.982941 108.0
304.017639 140.0
304.068878 68.0
304.109619 144.0
304.184235 76.0
304.291077 160.0
304.350891 72.0
304.415131 128.0
304.51062 44.0
304.58136 144.0
304.632202 112.0
304.6698 68.0
304.71286 100.0
304.819824 76.0
304.894012 80.0
304.944916 72.0
304.972748 156.0
305.010956 56.0
305.08963 432.0
305.133759 176.0
305.202911 96.0
305.256622 132.0
305.282166 40.0
305.344757 52.0
305.376068 40.0
305.449097 120.0
305.483887 60.0
305.549988 88.0
305.598694 104.0
305.68219 180.0
305.72049 108.0
305.901459 84.0
305.929321 76.0
305.995453 96.0
306.045502 32.0
306.08902 80.0
306.242706 56.0
306.470581 132.0
306.507477 56.0
306.950165 64.0
306.974548 72.0
307.044312 40.0
307.19931 92.0
307.330353 88.0
307.368744 44.0
307.462952 68.0
307.508331 64.0
307.560669 148.0
307.595581 80.0
307.90097 60.0
307.925751 72.0
307.973969 144.0
308.039062 76.0
308.119415 188.0
308.290619 52.0
308.41037 92.0
308.451385 120.0
308.670471 60.0
308.864014 36.0
309.014435 44.0
309.112396 84.0
309.247131 120.0
309.462433 100.0
309.592499 196.0
309.623505 132.0
310.082458 40.0
310.208649 184.0
310.369904 32.0
310.513702 88.0
310.554321 156.0
310.787292 88.0
310.994354 96.0
311.119354 92.0
311.140045 112.0
311.215515 100.0
311.289246 36.0
311.49646 76.0
311.552673 68.0
311.626465 44.0
311.654572 148.0
311.681427 68.0
311.75296 104.0
311.801605 216.0
311.904083 80.0
312.009552 120.0
312.109863 200.0
312.252167 124.0
312.512482 88.0
312.561737 100.0
312.602783 84.0
312.730652 140.0
312.808105 100.0
313.040466 144.0
313.139069 144.0
313.477264 108.0
313.523102 56.0
313.55127 40.0
313.69931 112.0
313.988434 64.0
314.124054 456.0
314.217743 64.0
314.358856 80.0
314.485931 48.0
314.535339 48.0
314.676544 156.0
314.715393 32.0
314.987305 36.0
315.134399 208.0
315.22757 100.0
315.312378 88.0
315.439606 108.0
315.492645 36.0
315.520935 136.0
315.581024 68.0
315.655273 60.0
315.704773 200.0
315.828583 56.0
315.860413 52.0
315.973602 108.0
316.001923 240.0
316.111542 536.0
316.182373 68.0
316.366211 124.0
316.426605 32.0
316.536377 40.0
316.589508 60.0
316.639069 44.0
316.671997 136.0
316.918915 60.0
317.107056 140.0
317.276886 124.0
317.326538 56.0
317.947296 68.0
318.004059 96.0
318.124817 1400.0
318.232025 164.0
318.323578 36.0
318.382538 148.0
318.543793 172.0
318.629028 164.0
318.696533 96.0
318.806702 104.0
318.877777 60.0
318.938202 56.0
318.986176 104.0
319.009277 132.0
319.052368 312.0
319.109222 31792.0
319.175354 368.0
319.224365 188.0
319.251953 64.0
319.286621 144.0
319.318634 40.0
319.362335 72.0
319.411102 64.0
319.446686 80.0
319.482269 60.0
319.522278 128.0
319.553406 140.0
319.587097 172.0
319.628143 76.0
319.658051 108.0
319.716919 116.0
319.777588 32.0
319.824554 84.0
319.873688 132.0
319.940369 132.0
319.980499 76.0
320.018402 136.0
320.064758 60.0
320.112701 5512.0
320.187012 56.0
320.215515 68.0
320.302856 100.0
320.332703 72.0
320.418549 48.0
320.454681 112.0
320.4953 160.0
320.603851 52.0
320.6362 88.0
320.696503 84.0
320.767792 84.0
320.824829 68.0
320.897308 48.0
321.026611 156.0
321.113678 1196.0
321.159393 136.0
321.217102 60.0
321.250824 132.0
321.324127 76.0
321.376343 100.0
321.520386 100.0
321.545349 68.0
321.805939 72.0
321.916626 40.0
321.959473 156.0
322.013062 80.0
322.06662 84.0
322.130737 72.0
322.16153 56.0
322.195221 188.0
322.230743 64.0
322.377441 40.0
322.556152 72.0
322.681274 36.0
322.82431 76.0
322.973694 136.0
323.013855 64.0
323.078247 56.0
323.189148 244.0
323.469696 156.0
323.539917 68.0
323.632996 44.0
323.786957 100.0
323.833527 52.0
323.99472 44.0
324.030548 60.0
324.066376 56.0
324.557404 36.0
324.708038 60.0
324.754669 72.0
324.890961 92.0
325.075745 96.0
325.140411 108.0
325.188782 108.0
325.698639 44.0
326.039978 56.0
326.147797 100.0
326.388641 72.0
326.597229 72.0
326.816681 108.0
326.867065 28.0
327.165802 96.0
327.230591 56.0
327.266602 40.0
327.471863 32.0
327.56192 104.0
327.803314 68.0
327.979889 32.0
328.113281 108.0
328.152924 132.0
328.380127 96.0
329.134338 160.0
329.304077 144.0
329.347412 64.0
329.45578 48.0
329.672577 104.0
330.120239 524.0
330.330597 68.0
330.79837 76.0
331.140015 168.0
331.268158 76.0
332.149017 188.0
332.399353 96.0
332.48645 176.0
332.85672 120.0
332.943878 116.0
333.078247 44.0
333.612427 152.0
333.888763 128.0
333.92514 108.0
333.961517 52.0
334.066986 124.0
334.281647 52.0
334.492737 40.0
334.547363 88.0
334.649292 144.0
334.722107 64.0
334.845917 56.0
335.151917 104.0
335.19928 120.0
335.425262 64.0
335.592957 60.0
335.651306 40.0
335.862823 92.0
335.899292 44.0
336.030609 60.0
336.22403 100.0
336.486816 100.0
336.581757 44.0
336.643829 104.0
336.724182 100.0
336.778961 44.0
336.936035 148.0
337.020081 132.0
337.05661 92.0
337.504486 96.0
338.241547 44.0
338.296448 80.0
338.546295 84.0
338.589386 120.0
338.626007 108.0
338.728577 100.0
338.816467 112.0
338.94104 44.0
339.267242 80.0
339.501923 88.0
339.534912 76.0
339.575256 168.0
339.91275 44.0
340.414642 92.0
340.4487 88.0
340.665405 48.0
340.819733 120.0
340.907898 124.0
341.264465 68.0
341.702148 156.0
342.05542 96.0
342.134125 104.0
342.408875 92.0
343.111115 76.0
343.9021 72.0
344.119232 124.0
344.182648 68.0
344.448547 140.0
344.592621 104.0
345.069397 96.0
345.138824 160.0
345.450317 120.0
345.631592 52.0
345.768524 116.0
346.072083 48.0
346.312775 76.0
347.020569 124.0
347.513855 104.0
347.677124 96.0
347.78476 64.0
347.959229 76.0
348.601807 68.0
349.552216 124.0
349.832916 56.0
349.858978 128.0
350.048859 108.0
350.644897 96.0
351.125854 164.0
351.293701 44.0
351.569794 60.0
351.61084 132.0
351.737762 92.0
351.869354 80.0
352.111115 176.0
352.148468 120.0
352.798645 152.0
352.940704 88.0
353.131439 144.0
353.228699 68.0
353.291046 84.0
353.647095 136.0
353.977203 208.0
354.1586 148.0
354.441681 52.0
354.561615 88.0
354.921478 132.0
355.09024 80.0
355.177643 156.0
355.217743 40.0
355.315308 52.0
355.78064 140.0
355.953369 216.0
356.309387 132.0
356.731079 132.0
356.757385 72.0
356.866425 76.0
357.163818 136.0
357.411804 68.0
357.449432 76.0
357.599976 92.0
357.630066 148.0
357.773132 60.0
357.97644 48.0
358.096954 100.0
358.166046 116.0
358.986359 52.0
360.141205 124.0
360.167633 180.0
360.277191 176.0
360.307404 76.0
360.371643 40.0
360.40564 84.0
360.923492 84.0
360.949951 68.0
361.150391 104.0
361.687683 92.0
361.922394 64.0
362.403442 104.0
362.513306 132.0
363.286774 60.0
363.3367 124.0
363.389221 72.0
363.670013 32.0
363.818054 68.0
364.144623 80.0
364.175018 196.0
364.243378 96.0
364.429535 52.0
364.646118 32.0
364.722137 120.0
364.988251 104.0
365.200958 108.0
365.505829 124.0
365.730103 140.0
366.156525 164.0
366.349274 60.0
366.503174 56.0
366.731842 68.0
366.869049 52.0
367.03299 48.0
367.132141 64.0
367.301544 96.0
367.578461 40.0
367.815094 60.0
367.921173 188.0
368.131989 92.0
368.193085 168.0
368.223633 144.0
368.406982 84.0
368.578888 40.0
368.674438 84.0
368.861725 48.0
369.037567 64.0
369.251709 52.0
369.289948 152.0
369.328217 120.0
369.389404 172.0
369.559357 72.0
369.737579 52.0
370.216125 100.0
370.763947 180.0
371.097443 72.0
371.454102 108.0
371.510223 108.0
371.588348 116.0
371.933746 92.0
372.006683 168.0
372.05658 120.0
372.133362 48.0
372.174438 348.0
372.356079 132.0
372.605774 80.0
373.106781 176.0
373.197632 124.0
373.347595 48.0
373.643799 84.0
373.897736 96.0
374.771881 76.0
375.053192 80.0
375.153412 68.0
375.18219 84.0
375.326904 108.0
375.581451 80.0
375.685577 156.0
376.426636 120.0
376.68927 28.0
376.793579 72.0
377.191589 44.0
377.253448 140.0
377.357819 92.0
377.775513 108.0
377.968964 60.0
378.549591 72.0
379.122925 48.0
379.277954 56.0
379.502808 108.0
379.584229 104.0
379.704437 72.0
380.026398 48.0
380.204895 160.0
380.464966 88.0
380.581451 76.0
380.62027 100.0
381.105804 104.0
381.148529 120.0
381.230133 116.0
381.303986 72.0
381.36615 248.0
381.397247 68.0
381.440002 48.0
381.945496 56.0
382.264526 96.0
382.383453 128.0
383.183441 180.0
383.386047 144.0
383.577026 152.0
383.6745 116.0
383.822662 52.0
383.86554 124.0
384.171936 6092.0
384.29071 52.0
384.458496 116.0
384.494049 72.0
384.595093 40.0
384.702362 116.0
384.745575 128.0
384.778564 92.0
384.926941 164.0
384.954254 60.0
385.176056 2028.0
385.227661 64.0
385.309692 112.0
385.397247 104.0
385.512878 36.0
385.542419 136.0
385.598877 164.0
385.888123 124.0
385.970245 64.0
386.179626 204.0
386.630005 116.0
386.733093 72.0
387.140259 100.0
387.179413 72.0
387.206848 36.0
387.63385 124.0
388.100281 88.0
388.625885 64.0
388.731812 48.0
389.088989 156.0
389.340302 44.0
389.572021 52.0
390.071106 132.0
390.31485 84.0
390.37384 160.0
390.578339 88.0
390.849792 124.0
391.026886 44.0
391.296967 52.0
391.495361 84.0
391.538696 72.0
391.601715 160.0
391.650696 96.0
391.924744 60.0
392.265717 100.0
392.391937 84.0
392.531769 60.0
392.969574 60.0
393.143188 172.0
393.174774 116.0
393.707733 72.0
393.865692 52.0
393.932861 72.0
394.114594 128.0
394.229187 104.0
394.600739 120.0
395.019928 104.0
395.205872 136.0
395.340424 96.0
396.064941 176.0
396.112457 36.0
396.480957 88.0
396.528503 40.0
397.139099 40.0
397.412811 200.0
397.603271 84.0
397.730286 76.0
397.821594 84.0
398.004211 92.0
398.102478 120.0
398.4133 52.0
398.512604 60.0
398.552338 168.0
398.703339 80.0
398.759003 60.0
398.969666 136.0
399.005432 104.0
399.359344 88.0
399.538361 212.0
399.57547 108.0
399.677612 56.0
399.765137 52.0
399.892517 116.0
400.061096 112.0
400.092682 224.0
400.230865 152.0
400.330414 56.0
400.704834 160.0
400.736938 72.0
400.816406 128.0
400.856262 192.0
400.901428 132.0
400.951904 96.0
401.027618 52.0
401.139221 120.0
401.17511 104.0
401.203003 76.0
401.2341 100.0
401.290924 80.0
401.428284 88.0
401.480591 188.0
401.553894 292.0
401.633667 136.0
401.712921 212.0
401.719971 184.0
401.734955 144.0
401.763153 268.0
401.792114 84.0
401.822327 96.0
401.858612 72.0
401.885895 228.0
401.945557 92.0
401.996918 252.0
402.066803 268.0
402.123871 596.0
402.183533 60376.0
402.299255 60.0
402.37326 36.0
402.447357 76.0
402.524475 152.0
402.553772 96.0
402.584686 64.0
402.612732 52.0
402.643463 144.0
402.680939 144.0
402.721008 76.0
402.765778 108.0
402.806 168.0
402.874725 200.0
402.931061 208.0
402.959015 112.0
402.995972 192.0
403.054901 44.0
403.097839 104.0
403.18576 13372.0
403.303894 132.0
403.338654 68.0
403.386078 244.0
403.416931 48.0
403.433197 92.0
403.460815 156.0
403.52655 124.0
403.58252 88.0
403.624908 180.0
403.686066 108.0
403.709442 124.0
403.832733 92.0
403.878448 152.0
403.911255 40.0
403.949127 40.0
404.064117 88.0
404.094971 148.0
404.141205 312.0
404.186646 2344.0
404.283997 76.0
404.358582 44.0
404.433289 136.0
404.534882 80.0
404.597351 104.0
404.686829 32.0
404.814972 32.0
404.857819 96.0
404.939117 116.0
405.048859 60.0
405.101776 56.0
405.143402 100.0
405.184998 284.0
405.311676 104.0
405.347717 120.0
405.395813 52.0
405.451294 52.0
405.492004 84.0
405.54425 108.0
405.617706 120.0
405.687347 124.0
405.736511 120.0
405.768585 72.0
405.81012 144.0
405.86969 56.0
405.917328 124.0
405.952118 196.0
406.069336 100.0
406.165588 56.0
406.231232 56.0
406.342377 60.0
406.402283 64.0
406.446411 68.0
406.542114 80.0
406.578857 164.0
406.711456 88.0
406.771484 92.0
406.815643 108.0
406.968201 56.0
407.028442 60.0
407.108765 60.0
407.185059 64.0
407.259735 88.0
407.427399 72.0
407.719391 108.0
407.791718 60.0
407.864075 44.0
408.032928 68.0
408.155396 104.0
408.218964 44.0
408.342529 56.0
408.451141 44.0
408.620087 48.0
408.660339 48.0
408.781036 96.0
408.817261 72.0
409.372803 48.0
409.47348 80.0
409.613647 80.0
409.78363 56.0
410.178589 80.0
410.239044 112.0
410.49707 72.0
410.977081 120.0
411.598694 132.0
411.639069 60.0
412.362183 36.0
412.709839 104.0
412.814972 68.0
413.263977 52.0
413.547241 120.0
413.648438 80.0
413.810364 128.0
414.008789 32.0
414.31662 36.0
414.742096 36.0
414.782623 76.0
415.22052 68.0
415.926483 164.0
416.088867 84.0
416.555878 44.0
416.750885 92.0
416.92157 40.0
417.14917 112.0
417.352448 44.0
417.42157 120.0
417.65744 104.0
417.852722 108.0
417.913757 68.0
418.585358 84.0
418.911163 72.0
418.977051 120.0
419.070068 36.0
419.208618 40.0
419.502808 64.0
419.742615 84.0
420.435883 76.0
420.595276 92.0
420.649261 52.0
421.248596 84.0
421.318054 72.0
421.440613 72.0
421.51416 68.0
421.677612 96.0
421.845215 48.0
421.931061 112.0
422.290894 56.0
422.470886 76.0
423.056091 80.0
423.404114 84.0
423.473724 104.0
424.297363 120.0
424.768982 92.0
425.405029 76.0
425.433746 68.0
426.215393 140.0
426.419556 68.0
426.637848 116.0
427.028046 52.0
427.447662 56.0
427.636627 96.0
427.822205 224.0
427.958069 124.0
428.189697 112.0
429.157043 80.0
429.243652 120.0
429.280762 100.0
429.338501 44.0
429.829376 76.0
429.994446 40.0
430.250366 40.0
430.423767 56.0
430.873993 28.0
431.113098 92.0
431.183899 144.0
431.460846 60.0
431.91983 56.0
432.16391 36.0
432.271515 52.0
432.474518 72.0
433.066376 72.0
433.120209 68.0
433.161652 52.0
433.787354 64.0
433.853699 36.0
433.920013 72.0
433.973907 104.0
434.343018 60.0
434.633423 88.0
434.725464 88.0
435.625671 72.0
435.891571 60.0
436.153381 48.0
436.294739 48.0
436.677277 104.0
436.822845 32.0
436.947662 132.0
437.101593 48.0
437.15155 68.0
437.43457 128.0
437.913391 76.0
438.546692 68.0
438.809326 48.0
439.247192 76.0
439.530884 100.0
439.864777 64.0
440.094391 84.0
440.177887 32.0
440.532898 100.0
441.076111 72.0
441.498413 44.0
442.001617 108.0
442.130096 68.0
442.360321 68.0
442.48172 44.0
442.552887 52.0
443.034515 76.0
443.13089 76.0
443.277527 56.0
443.470306 88.0
443.515015 120.0
443.579285 84.0
443.709229 104.0
444.057281 64.0
444.522949 104.0
444.674011 96.0
444.955261 88.0
445.383606 112.0
445.555817 80.0
445.676361 64.0
445.715485 116.0
446.001251 64.0
446.12738 32.0
446.640381 68.0
446.687408 92.0
446.73291 36.0
446.930664 72.0
447.58728 96.0
447.73468 60.0
447.772583 44.0
448.198059 56.0
449.066467 64.0
449.631805 28.0
450.075043 40.0
450.387573 96.0
451.034058 76.0
451.318787 124.0
451.782532 116.0
452.125244 92.0
452.408844 136.0
453.221985 72.0
453.450836 52.0
453.522888 72.0
454.010437 84.0
454.095276 44.0
454.447357 44.0
455.521423 96.0
455.86557 68.0
456.367157 88.0
456.792419 148.0
456.966858 72.0
457.46051 176.0
458.384735 112.0
458.623383 116.0
459.284271 56.0
459.386658 68.0
459.506104 64.0
460.086517 120.0
460.227417 40.0
461.043304 100.0
461.423737 68.0
461.492126 88.0
461.70166 48.0
461.872742 104.0
462.086639 72.0
462.852783 64.0
463.628113 72.0
464.116791 44.0
464.648621 36.0
465.30957 104.0
465.635895 72.0
465.738983 72.0
466.276062 48.0
466.486664 80.0
466.641418 124.0
467.071472 88.0
467.247833 80.0
467.351105 72.0
467.699677 64.0
468.186188 68.0
469.069427 84.0
469.371216 128.0
469.798218 76.0
470.937775 52.0
472.493958 68.0
473.065186 112.0
473.552246 108.0
473.736389 56.0
474.204376 76.0
474.291046 100.0
474.494812 32.0
474.551147 92.0
474.984833 60.0
475.227783 52.0
477.412689 64.0
477.651886 104.0
478.36554 44.0
478.51355 72.0
478.97879 72.0
479.219116 92.0
479.371613 88.0
479.681061 64.0
480.160675 68.0
480.583801 116.0
480.65799 60.0
480.911102 80.0
480.989655 108.0
481.020233 72.0
481.30835 48.0
481.347656 268.0
481.408783 96.0
481.766937 100.0
481.87616 132.0
482.496765 80.0
482.540497 80.0
483.787323 48.0
483.839844 128.0
483.888 92.0
484.190155 72.0
484.448578 60.0
484.704865 68.0
485.07959 116.0
485.63208 80.0
485.776825 44.0
485.930359 40.0
486.21106 128.0
486.62381 68.0
486.887299 36.0
487.049805 80.0
487.203522 108.0
487.959442 108.0
488.13092 164.0
488.254059 84.0
488.503235 128.0
488.702728 72.0
489.208862 104.0
489.583099 92.0
489.688812 88.0
489.820923 64.0
490.402557 44.0
490.486298 108.0
490.662628 80.0
491.244751 56.0
491.694794 80.0
491.889008 64.0
492.039093 80.0
493.019684 72.0
493.055054 80.0
493.289307 60.0
494.620758 88.0
495.169769 56.0
495.298218 100.0
495.577332 96.0
495.66095 96.0
496.197815 56.0
496.268738 104.0
496.99173 84.0
497.107086 64.0
497.320099 76.0
497.582001 68.0
497.928375 56.0
498.281891 68.0
498.350372 40.0
498.39035 40.0
498.488129 88.0
498.576996 72.0
499.230499 72.0
499.266052 64.0
499.693085 132.0
500.115814 88.0
500.543213 84.0
500.574371 44.0
501.260376 68.0
501.85321 64.0
501.884399 84.0
501.928986 92.0
502.206818 68.0
502.541046 92.0
503.080078 36.0
503.115784 44.0
504.098419 80.0
504.679504 36.0
504.800232 36.0
504.997009 124.0
505.663635 104.0
505.860596 108.0
506.559143 68.0
506.962372 136.0
507.594452 80.0
507.890442 36.0
508.653229 60.0
509.349243 72.0
509.407623 88.0
509.901886 56.0
510.526764 120.0
511.741699 76.0
511.935303 48.0
511.966827 52.0
512.056885 64.0
512.390259 100.0
512.511902 36.0
513.16095 88.0
514.424133 120.0
514.595642 40.0
514.631775 52.0
514.789795 44.0
514.970459 88.0
515.268616 64.0
515.828979 96.0
515.928406 68.0
516.394165 32.0
516.475586 44.0
516.751526 48.0
517.167847 32.0
517.217651 88.0
517.462097 60.0
518.467651 80.0
518.58551 76.0
519.102356 40.0
520.086792 52.0
521.322144 64.0
521.722107 48.0
522.022217 48.0
523.2052 64.0
523.610413 92.0
523.801758 40.0
523.94751 120.0
524.348511 68.0
524.41687 100.0
525.105286 44.0
525.506714 80.0
525.70752 92.0
525.771362 92.0
526.912903 36.0
527.136841 148.0
527.735596 100.0
528.311829 44.0
528.34845 68.0
528.773987 40.0
529.616455 108.0
529.68512 44.0
530.67041 60.0
530.858459 80.0
531.133606 88.0
532.519775 52.0
532.790771 48.0
532.94696 120.0
533.190552 100.0
533.383545 72.0
533.880127 64.0
534.110046 96.0
534.366882 68.0
534.432129 120.0
534.979797 40.0
535.071838 84.0
535.507446 100.0
535.647461 40.0
535.933105 56.0
535.979187 72.0
536.310974 68.0
536.39856 36.0
537.445435 72.0
537.551575 84.0
537.736206 96.0
539.329651 96.0
539.930664 80.0
540.083313 56.0
540.161926 80.0
540.365479 96.0
540.587585 76.0
540.740295 68.0
540.875793 72.0
541.124512 44.0
541.277344 52.0
541.633911 40.0
542.176025 96.0
542.505066 64.0
542.913086 76.0
543.015137 112.0
543.061523 72.0
543.799194 44.0
544.124146 112.0
544.933899 80.0
545.113464 64.0
545.373718 76.0
545.429504 52.0
545.736328 80.0
546.05719 40.0
547.08551 96.0
547.523193 48.0
547.956421 44.0
548.74408 52.0
548.911926 108.0
549.126465 60.0
549.210388 40.0
549.583618 116.0
550.395752 96.0
550.87677 72.0
551.531006 64.0
552.078003 84.0
552.452148 76.0
553.02771 48.0
553.088562 100.0
554.371826 68.0
554.70929 84.0
554.868652 112.0
555.615723 96.0
555.661255 56.0
555.722229 120.0
555.985046 56.0
556.482605 100.0
557.435303 48.0
558.263428 116.0
558.348083 28.0
558.390442 96.0
558.931396 92.0
559.030212 92.0
559.114929 96.0
559.35968 128.0
560.683167 48.0
560.928284 52.0
561.017822 68.0
561.140442 56.0
561.578979 48.0
562.569885 76.0
563.174255 116.0
563.821533 80.0
564.067322 48.0
564.100403 64.0
565.273315 88.0
566.45697 52.0
567.229309 40.0
568.362793 48.0
568.766174 60.0
570.26709 60.0
570.36554 48.0
572.48407 32.0
573.012817 136.0
574.74353 72.0
576.056458 76.0
576.759155 64.0
577.41864 144.0
577.461731 28.0
578.136292 96.0
578.260681 88.0
578.462341 96.0
578.610168 72.0
579.108154 60.0
579.168823 120.0
579.462646 64.0
583.02301 92.0
583.546143 100.0
583.825867 72.0
583.902771 80.0
584.239502 76.0
584.581116 88.0
584.648499 92.0
585.014282 92.0
585.26947 64.0
585.548767 28.0
586.334045 128.0
586.806458 56.0
587.578064 64.0
587.616699 96.0
587.95929 40.0
588.253723 68.0
589.896118 28.0
591.390747 84.0
591.908752 48.0
593.105347 76.0
593.619263 52.0
594.114014 52.0
594.638062 64.0
596.002625 44.0
596.11438 32.0
598.079163 44.0
598.20575 88.0
598.293335 56.0
599.5354 32.0
599.759583 96.0
600.149597 80.0
601.134888 40.0
601.223022 68.0
601.461914 132.0
601.940369 52.0
602.135681 68.0
603.098206 56.0
603.337708 80.0
603.386597 40.0
603.846252 144.0
604.761169 64.0
604.893311 52.0
606.740173 76.0
608.157776 44.0
608.510132 88.0
608.619263 44.0
608.791138 152.0
609.002319 44.0
609.066162 44.0
609.468994 104.0
610.122681 32.0
610.442261 80.0
611.426147 124.0
611.524597 56.0
611.750977 68.0
612.312317 36.0
613.499817 48.0
614.343079 116.0
614.525635 80.0
614.619324 32.0
616.925781 40.0
617.336182 68.0
618.949341 48.0
619.414856 60.0
620.792664 60.0
621.804688 112.0
622.484802 96.0
622.738098 84.0
623.77655 92.0
624.572144 76.0
624.611938 108.0
625.303528 52.0
625.935791 80.0
627.12146 88.0
627.186218 100.0
627.320801 76.0
627.794495 32.0
628.383057 132.0
628.507812 80.0
629.316406 60.0
629.915649 48.0
630.050537 88.0
630.405273 116.0
630.680176 64.0
631.635193 84.0
632.515869 112.0
633.507385 32.0
633.702759 48.0
634.018433 48.0
635.367249 60.0
635.442505 52.0
636.215332 40.0
637.868042 104.0
638.255188 72.0
638.39093 112.0
639.694031 96.0
639.920593 60.0
641.053894 32.0
642.107544 104.0
642.632141 88.0
642.945007 36.0
643.581055 52.0
643.892334 56.0
645.662964 64.0
645.986633 48.0
646.28009 52.0
646.932922 64.0
647.155701 60.0
647.191162 96.0
649.197754 52.0
649.476685 44.0
649.578125 76.0
650.425537 104.0
650.471252 92.0
650.699707 60.0
651.187134 72.0
651.395386 80.0
651.674805 144.0
652.096619 104.0
652.620178 64.0
653.739258 92.0
653.785034 68.0
653.866455 88.0
655.720276 96.0
656.01593 56.0
656.270813 72.0
656.459473 56.0
657.484863 60.0
657.673706 76.0
657.729858 56.0
658.802185 56.0
659.241638 100.0
659.865173 52.0
660.171997 64.0
660.849548 120.0
661.0672 84.0
662.183228 40.0
662.608398 72.0
663.274597 72.0
664.212952 52.0
664.295044 80.0
665.162231 64.0
665.316223 64.0
667.602661 56.0
667.947266 92.0
668.204468 84.0
669.424377 148.0
670.805115 56.0
671.723022 76.0
673.193909 92.0
673.447021 60.0
673.963562 44.0
677.378052 96.0
677.631897 116.0
677.947998 92.0
679.036682 80.0
679.130066 96.0
680.043213 48.0
683.655151 76.0
684.035095 76.0
684.26416 80.0
684.534912 36.0
685.48822 60.0
687.852966 92.0
689.266113 48.0
692.300049 80.0
693.164429 44.0
693.881653 108.0
694.412109 40.0
695.414185 76.0
695.450928 44.0
696.175415 108.0
696.590332 116.0
697.909485 44.0
698.351196 80.0
699.514038 68.0
699.677246 80.0
699.831055 96.0
701.210083 56.0
701.289124 96.0
703.641785 108.0
704.846069 64.0
705.464417 60.0
706.178223 72.0
707.222839 56.0
709.084839 64.0
709.805847 104.0
709.970215 60.0
710.421082 52.0
711.06311 76.0
711.365601 76.0
712.74115 88.0
713.144653 112.0
713.336365 64.0
713.671326 60.0
714.011658 48.0
715.224731 60.0
716.374878 64.0
716.98761 100.0
717.903687 96.0
718.000549 84.0
718.261902 68.0
718.955505 104.0
719.00885 28.0
719.291748 136.0
719.457214 84.0
719.713501 112.0
719.809631 44.0
719.862976 68.0
719.980469 60.0
721.166565 88.0
722.519409 152.0
722.658508 48.0
724.735962 48.0
724.843079 52.0
725.094971 52.0
725.866943 76.0
726.006348 32.0
727.455017 64.0
728.743896 108.0
729.329651 128.0
729.958679 52.0
730.561035 52.0
731.405884 104.0
731.987305 52.0
732.545471 56.0
732.876038 116.0
732.967651 40.0
733.490417 56.0
733.948669 52.0
734.854797 56.0
735.275696 176.0
735.475403 104.0
736.080017 60.0
736.944275 44.0
737.041504 96.0
737.176575 36.0
739.859314 84.0
740.297913 28.0
740.428711 108.0
740.595764 108.0
742.791016 76.0
744.077148 76.0
744.734192 48.0
747.599304 48.0
748.513794 76.0
749.428894 60.0
750.306335 96.0
750.415405 88.0
750.557129 60.0
750.818909 88.0
750.867981 52.0
751.217041 92.0
751.77356 48.0
752.488647 56.0
754.187561 124.0
754.400696 88.0
755.237305 52.0
755.669495 68.0
755.938904 100.0
756.988586 48.0
757.602051 60.0
758.303406 76.0
758.851562 72.0
759.087341 112.0
759.981445 88.0
761.238403 36.0
763.804993 48.0
763.970032 72.0
766.844299 64.0
767.0979 60.0
767.831177 40.0
768.401978 84.0
769.2547 40.0
769.519714 56.0
771.348267 56.0
771.514099 84.0
772.697632 40.0
773.273071 80.0
774.51886 40.0
775.726807 48.0
776.408813 164.0
778.700012 224.0
779.517517 88.0
780.49585 72.0
781.391296 96.0
782.086914 76.0
785.55835 28.0
785.658752 72.0
788.35553 48.0
788.579102 96.0
789.020691 52.0
789.21637 48.0
789.501526 116.0
789.803589 48.0
790.441345 72.0
793.056641 104.0
794.598755 48.0
795.92334 80.0
796.355774 48.0
796.945618 36.0
797.063599 76.0
797.355774 96.0
798.125916 44.0
799.447815 60.0
799.869934 64.0
800.252747 92.0
800.648315 112.0
801.384827 72.0
802.562805 72.0
803.905273 52.0
807.396484 48.0
808.171448 56.0
809.127991 76.0
810.243652 32.0
810.827271 64.0
811.07666 88.0
811.864746 72.0
812.624817 84.0
813.39093 100.0
813.68042 48.0
817.727661 72.0
820.296509 64.0
820.564453 80.0
822.281433 72.0
825.423401 48.0
825.983826 68.0
826.784851 52.0
827.151123 76.0
827.466003 48.0
828.949463 56.0
829.115662 96.0
829.826477 76.0
830.038574 40.0
830.411377 28.0
831.007935 48.0
832.856384 140.0
833.292969 72.0
833.511353 68.0
833.557312 176.0
836.524963 96.0
838.788757 96.0
840.882507 76.0
842.198914 100.0
842.568604 168.0
842.753479 36.0
845.280273 60.0
846.327942 64.0
847.353088 40.0
848.657166 80.0
849.799744 112.0
850.026001 52.0
851.291504 100.0
851.587646 44.0
852.557861 56.0
853.522827 64.0
854.337097 60.0
855.017822 56.0
858.017639 96.0
859.586548 80.0
859.662415 56.0
860.643066 88.0
860.92334 28.0
861.034302 152.0
865.11554 108.0
868.033264 72.0
869.934204 56.0
870.462585 104.0
870.865234 36.0
873.877625 156.0
874.60144 36.0
875.337341 216.0
875.737793 100.0
878.136597 96.0
879.322449 104.0
879.588074 32.0
883.488159 100.0
884.091675 120.0
884.233704 148.0
884.677612 180.0
886.561157 156.0
887.355408 60.0
887.585693 124.0
888.950928 156.0
889.087463 80.0
891.789673 64.0
893.270264 68.0
893.752136 44.0
895.061646 72.0
895.359375 96.0
895.907349 56.0
896.81311 52.0
898.106934 60.0
898.375366 52.0
898.50061 48.0
900.368896 68.0
900.595886 80.0
900.972168 52.0
901.390442 68.0
904.51825 68.0
905.667908 44.0
907.327759 268.0
907.693542 88.0
907.849426 148.0
908.089294 84.0
908.650208 128.0
910.11499 36.0
910.804016 96.0
911.859741 76.0
912.16626 116.0
912.532959 60.0
912.665222 192.0
913.032043 172.0
913.422974 64.0
913.489136 40.0
913.639526 32.0
914.138916 176.0
917.403381 92.0
918.802429 148.0
919.146362 76.0
919.653259 208.0
920.981628 52.0
921.712585 68.0
922.776367 28.0
922.909363 92.0
923.127075 76.0
923.550415 76.0
925.341614 68.0
926.328735 76.0
927.680054 76.0
928.989868 84.0
929.554138 132.0
930.221741 148.0
931.338989 92.0
932.074097 44.0
933.648499 116.0
934.226318 60.0
934.341919 92.0
935.047729 52.0
935.120789 132.0
935.303406 76.0
936.027832 56.0
938.093201 196.0
938.209045 72.0
940.209656 76.0
940.25238 132.0
941.137512 80.0
941.326782 156.0
941.797058 76.0
943.084045 56.0
948.871033 72.0
949.40448 140.0
949.58844 92.0
949.925781 72.0
950.662048 32.0
952.927795 68.0
953.259583 56.0
954.322937 88.0
955.079346 116.0
955.83606 160.0
956.445312 108.0
956.537659 128.0
958.379028 80.0
959.346619 80.0
959.500732 84.0
960.018677 108.0
960.394897 136.0
963.481323 52.0
964.17334 84.0
964.599792 116.0
964.809998 152.0
966.164307 192.0
967.222473 84.0
968.324585 184.0
971.870422 40.0
973.080688 52.0
973.819641 48.0
974.881958 68.0
977.697571 148.0
977.761292 172.0
979.031311 76.0
980.389343 72.0
982.465637 84.0
982.846191 124.0
985.199951 60.0
985.337402 124.0
985.418579 64.0
985.862244 128.0
986.299744 84.0
987.093689 60.0
989.521362 52.0
990.36676 96.0
990.892944 64.0
991.281433 36.0
991.431824 60.0
992.673035 92.0
992.911316 44.0
994.460999 104.0
994.774841 44.0
995.358704 96.0
996.482971 80.0
996.947937 80.0
997.614197 84.0
999.576477 68.0
1000.633911 224.0
1000.96759 76.0
1001.465088 156.0
1002.315552 52.0
1002.819702 52.0
1003.670776 176.0
1005.043213 128.0
1005.437012 40.0
1005.56958 128.0
1005.866211 44.0
1005.9104 160.0
1008.095642 156.0
1008.620239 52.0
1011.510925 32.0
1012.023682 84.0
1012.663269 64.0
1013.239746 44.0
1013.898682 184.0
1015.198303 144.0
1015.293396 68.0
1017.133362 204.0
1019.387939 56.0
1019.680298 164.0
1020.443054 40.0
1020.786438 44.0
1021.320618 132.0
1021.638672 84.0
1022.03949 96.0
1022.109497 60.0
1022.446777 168.0
1025.248901 124.0
1025.5802 176.0
1025.637573 144.0
1027.250854 64.0
1028.239868 52.0
1031.59314 108.0
1031.823242 48.0
1032.533081 44.0
1033.102295 128.0
1033.690918 176.0
1033.793335 160.0
1036.937744 100.0
1038.733521 144.0
1039.554199 40.0
1041.114136 48.0
1042.55957 88.0
1043.125122 64.0
1043.33728 152.0
1044.822876 28.0
1045.369751 68.0
1046.699707 164.0
1047.037109 204.0
1047.893799 44.0
1048.905518 116.0
1049.730835 60.0
1050.227417 144.0
1050.743408 84.0
1051.253174 216.0
1052.324707 188.0
1053.138306 56.0
1054.094482 44.0
1054.747192 60.0
1055.393677 32.0
1055.477661 80.0
1056.027344 180.0
1057.470215 108.0
1062.712646 184.0
1063.050049 168.0
1064.289795 72.0
1065.523804 60.0
1066.355591 144.0
1067.038086 168.0
1068.137085 120.0
1068.520874 116.0
1068.664062 124.0
1070.128418 64.0
1070.343262 168.0
1073.373535 80.0
1073.660156 108.0
1074.573364 92.0
1076.825439 36.0
1077.97522 96.0
1078.177734 52.0
1078.90332 44.0
1080.891602 60.0
1081.618042 68.0
1082.835815 100.0
1084.755615 56.0
1087.4646 88.0
1087.602417 148.0
1087.766479 72.0
1087.937134 60.0
1088.212891 156.0
1088.324463 88.0
1088.422974 168.0
1089.119141 232.0
1089.532959 84.0
1090.342285 92.0
1091.070801 64.0
1091.412598 144.0
1091.951904 132.0
1092.070312 132.0
1092.19519 192.0
1092.418823 100.0
1094.320801 160.0
1094.531494 60.0
1094.953003 136.0
1095.644531 56.0
1098.20874 124.0
1099.422729 164.0
1100.690063 104.0
1100.769287 88.0
1102.077148 56.0
1102.876831 104.0
1103.240356 188.0
1104.490112 108.0
1105.469238 76.0
1107.985352 140.0
1108.959351 36.0
1109.542725 36.0
1110.809326 80.0
1111.691772 196.0
1112.030151 92.0
1113.437622 220.0
1115.557251 176.0
1116.740723 52.0
1117.612183 140.0
1118.191162 104.0
1118.557251 60.0
1119.236328 48.0
1120.668335 88.0
1120.996094 224.0
1123.041504 60.0
1125.670898 76.0
1127.080322 256.0
1127.494629 104.0
1130.289795 72.0
1130.851929 52.0
1136.199219 160.0
1136.756104 128.0
1136.876831 84.0
1137.167969 64.0
1137.326538 80.0
1138.95813 168.0
1139.260376 168.0
1140.496826 52.0
1141.747314 144.0
1142.016357 72.0
1142.379639 212.0
1142.769775 140.0
1142.904297 208.0
1143.429199 148.0
1143.785889 88.0
1144.082153 100.0
1145.435669 92.0
1145.705078 92.0
1145.860107 184.0
1145.967896 132.0
1146.143066 104.0
1147.025879 172.0
1147.443848 136.0
1147.571899 44.0
1147.66626 52.0
1149.635986 68.0
1149.966675 148.0
1151.215576 244.0
1152.113892 76.0
1153.505981 136.0
1153.617554 152.0
1154.182007 104.0
1156.177612 208.0
1156.88147 40.0
1157.314819 148.0
1157.69397 44.0
1158.648926 148.0
1159.611206 72.0
1160.031372 80.0
1161.143433 152.0
1161.536743 68.0
1162.310181 92.0
1162.520508 48.0
1162.853027 60.0
1163.246704 76.0
1163.511475 40.0
1164.210815 48.0
1164.781372 140.0
1164.890015 84.0
1165.88208 80.0
1168.214111 132.0
1169.3573 40.0
1169.53418 180.0
1173.696655 112.0
1173.880737 52.0
1174.890137 132.0
1176.077515 60.0
1176.336914 48.0
1176.459717 124.0
1176.596313 180.0
1176.691895 60.0
1176.848877 136.0
1177.33374 36.0
1177.845947 112.0
1178.665771 220.0
1179.649902 128.0
1179.950684 64.0
1180.005371 144.0
1180.572876 176.0
1181.879395 160.0
1182.009399 128.0
1182.502075 56.0
1182.994995 160.0
1183.953491 164.0
1184.796021 156.0
1185.13855 100.0
1185.234497 64.0
1185.330444 124.0
1185.734741 140.0
1186.098022 132.0
1186.145996 88.0
1186.283081 120.0
1187.709351 92.0
1188.271851 52.0
1188.800171 164.0
1188.978516 40.0
1190.186768 172.0
1190.241699 144.0
1190.942139 128.0
1191.052002 44.0
1191.155029 144.0
1191.285522 68.0
1191.498535 100.0
1191.986328 140.0
1192.30249 124.0
1193.581055 116.0
1194.076172 152.0
1194.612671 92.0
1194.901611 48.0
1195.920044 92.0
1196.381226 144.0
1196.757812 160.0
1196.959595 112.0
1197.11792 92.0
1197.200562 88.0
1197.930664 48.0
1198.00647 176.0
1198.872681 116.0
1199.384644 216.0
1199.743042 48.0
1201.439453 144.0
1201.812012 128.0
1202.9646 108.0
1204.324829 124.0
1204.746216 100.0
1205.547729 124.0
1205.685913 164.0
1205.734253 52.0
1206.68811 88.0
1206.854126 160.0
1208.486328 52.0
1209.171387 92.0
1210.618286 88.0
1211.290161 68.0
1211.594971 120.0
1212.01062 108.0
1212.671021 68.0
1213.937622 128.0
1214.457764 120.0
1214.561768 196.0
1214.70752 108.0
1215.137573 128.0
1215.269409 100.0
1215.359619 116.0
1215.477539 132.0
1215.546997 144.0
1216.352051 76.0
1216.969849 204.0
1218.574219 88.0
1219.408081 108.0
1219.499268 108.0
1219.971069 112.0
1220.103149 140.0
1220.381226 80.0
1220.492554 152.0
1220.930664 180.0
1221.048828 124.0
1222.349731 164.0
1223.156982 92.0
1223.456299 292.0
1223.908936 192.0
1224.052734 180.0
1224.243164 32.0
1224.869995 172.0
1225.099854 128.0
1225.266968 100.0
1225.343628 60.0
1225.531738 88.0
1226.305298 184.0
1227.093018 164.0
1227.155762 32.0
1228.2854 56.0
1229.611084 156.0
1230.469727 72.0
1231.07019 44.0
1232.572021 204.0
1232.711792 36.0
1232.837524 144.0
1233.179321 124.0
1233.256836 124.0
1234.256592 112.0
1234.354492 108.0
1234.445312 48.0
1234.529297 120.0
1234.922241 128.0
1235.053833 168.0
1235.403564 40.0
1235.634399 116.0
1235.88623 96.0
1236.873047 72.0
1236.928955 152.0
1237.22998 188.0
1238.82666 140.0
1239.492188 180.0
1241.875732 148.0
1242.268555 196.0
1243.061401 156.0
1243.784302 128.0
1243.964478 156.0
1244.191406 220.0
1244.261597 84.0
1244.682861 92.0
1244.83728 172.0
1244.984863 92.0
1245.441284 172.0
1245.841675 132.0
1246.755127 180.0
1246.824463 144.0
1247.802368 120.0
1247.942993 144.0
1248.041504 124.0
1248.414185 96.0
1248.87085 132.0
1250.010986 256.0
1250.806274 164.0
1251.158203 56.0
1251.249756 64.0
1252.05249 124.0
1252.538452 124.0
1252.637085 100.0
1252.770874 156.0
1252.890625 60.0
1252.947021 124.0
1253.038574 140.0
1253.094971 96.0
1253.373291 112.0
1253.440186 108.0
1254.222412 136.0
1254.525513 96.0
1254.863892 128.0
1255.117798 156.0
1255.533813 124.0
1255.724243 116.0
1256.020508 56.0
1256.73999 108.0
1256.916382 52.0
1257.036377 204.0
1257.488037 212.0
1257.657471 144.0
1258.193848 164.0
1258.835449 144.0
1259.161255 104.0
1259.994751 56.0
1260.552979 148.0
1260.793213 96.0
1260.878052 108.0
1261.224365 140.0
1261.358643 40.0
1261.556519 164.0
1261.620117 48.0
1261.719116 168.0
1262.433228 52.0
1263.154663 144.0
1263.437622 108.0
1263.579102 112.0
1264.899292 256.0
1265.383789 68.0
1266.502686 164.0
1267.24646 124.0
1267.61499 112.0
1267.848022 204.0
1267.866699 180.0
1268.203125 184.0
1268.401611 204.0
1268.621338 156.0
1269.415405 104.0
1269.536011 168.0
1269.77002 96.0
1270.259399 104.0
1270.763062 144.0
1271.92688 32.0
1272.714966 200.0
1273.098389 112.0
1273.169434 148.0
1273.226196 76.0
1273.467651 136.0
1273.560059 132.0
1273.702026 148.0
1273.936523 172.0
1274.511963 56.0
1275.108887 148.0
1275.165771 200.0
1275.608521 144.0
1275.755737 76.0
1275.819702 172.0
1276.559082 100.0
1276.914673 136.0
1277.305908 120.0
1277.88916 64.0
1278.444214 100.0
1279.063354 192.0
1279.141724 160.0
1279.483398 100.0
1279.711182 56.0
1280.095703 208.0
1280.174072 72.0
1280.458862 156.0
1280.544312 132.0
1280.622681 188.0
1280.978882 188.0
1281.64856 32.0
1281.926392 164.0
1282.66687 112.0
1282.967041 88.0
1283.302124 40.0
1283.42334 84.0
1283.836914 68.0
1284.393188 136.0
1284.660156 168.0
1285.070923 140.0
1285.213623 140.0
1285.420532 192.0
1285.556152 80.0
1286.141357 124.0
1286.29126 88.0
1287.697754 48.0
1288.047729 64.0
1288.869385 56.0
1289.362427 36.0
1289.862671 128.0
1290.105713 96.0
1292.029419 188.0
1293.160034 80.0
1294.641968 72.0
1294.742188 188.0
1295.222046 212.0
1296.060303 88.0
1296.363892 140.0
1296.920288 44.0
1298.37561 104.0
1299.415771 64.0
1299.494629 112.0
1299.774414 160.0
1301.152466 80.0
1301.401367 84.0
1301.459351 212.0
1301.8573 144.0
1302.236816 124.0
1302.682129 140.0
1302.789917 144.0
1303.084473 104.0
1303.199341 212.0
1303.472412 160.0
1304.370728 100.0
1304.435425 176.0
1304.485718 40.0
1304.651123 144.0
1305.326904 136.0
1305.442017 120.0
1305.643311 200.0
1305.740723 140.0
1306.154053 116.0
1306.671997 108.0
1308.015015 200.0
1308.147217 144.0
1308.571899 148.0
1309.349609 44.0
1309.961914 120.0
1310.314819 136.0
1310.516602 100.0
1310.977783 136.0
1311.48938 84.0
1311.914673 156.0
1312.53479 204.0
1312.621216 144.0
1312.787109 144.0
1314.438965 100.0
1315.94751 84.0
1316.055786 64.0
1316.351929 176.0
1316.561279 48.0
1316.792358 108.0
1316.93689 68.0
1317.427979 172.0
1317.608643 112.0
1317.818115 152.0
1318.204956 76.0
1318.656372 136.0
1319.220215 160.0
1319.422607 192.0
1320.398682 140.0
1320.463867 76.0
1320.521729 120.0
1321.172729 36.0
1321.686401 84.0
1321.903442 176.0
1321.961304 40.0
1322.567505 172.0
1322.648804 68.0
1322.715088 136.0
1323.028442 100.0
1323.589966 72.0
1323.713135 64.0
1324.466309 80.0
1325.074829 136.0
1325.618164 140.0
1326.474609 96.0
1327.241943 72.0
1327.321655 156.0
1327.43042 36.0
1327.50293 148.0
1327.734985 236.0
1328.656128 128.0
1329.0625 88.0
1329.476074 180.0
1330.049438 148.0
1330.187378 60.0
1330.65918 104.0
1330.768066 52.0
1330.927856 108.0
1332.293213 84.0
1332.583862 48.0
1332.903564 172.0
1333.165161 132.0
1334.11731 84.0
1334.269897 172.0
1334.324829 136.0
1334.553467 112.0
1334.729614 176.0
1335.52063 72.0
1335.913452 136.0
1336.306274 140.0
1336.990234 132.0
1337.688965 48.0
1337.841919 132.0
1338.105469 208.0
1338.686401 56.0
1338.737427 164.0
1339.087036 184.0
1339.181641 92.0
1340.414307 212.0
1340.638672 120.0
1341.374878 88.0
1342.140381 196.0
1342.213257 32.0
1342.942505 128.0
1343.817871 112.0
1344.372437 96.0
1344.49646 188.0
1345.511108 48.0
1345.664429 136.0
1345.832275 148.0
1346.044067 44.0
1346.255859 100.0
1346.327515 128.0
1346.449585 120.0
1346.50415 56.0
1347.161499 116.0
1348.074707 60.0
1348.136475 108.0
1348.425537 168.0
1348.54248 104.0
1348.761719 120.0
1348.842163 132.0
1348.943481 144.0
1349.026978 196.0
1349.536621 168.0
1349.887573 164.0
1350.619019 164.0
1350.676636 172.0
1350.896973 200.0
1351.526123 64.0
1351.591919 140.0
1351.829712 216.0
1352.433594 44.0
1352.58728 136.0
1353.202148 100.0
1353.319336 96.0
1353.744019 76.0
1353.83728 108.0
1353.985718 92.0
1354.300537 132.0
1354.886597 124.0
1355.055054 184.0
1355.318848 72.0
1355.692627 40.0
1356.5354 180.0
1356.626465 116.0
1357.187866 148.0
1358.001953 100.0
1358.361328 84.0
1358.838135 52.0
1359.161011 148.0
1359.569702 184.0
1359.595703 128.0
1359.953491 304.0
1360.386597 124.0
1360.592163 84.0
1360.694946 208.0
1360.783081 64.0
1360.973877 100.0
1361.355713 108.0
1361.803711 64.0
1361.855103 80.0
1361.943237 136.0
1362.076416 136.0
1362.479492 88.0
1362.98645 200.0
1364.507935 92.0
1364.684326 180.0
1364.890259 168.0
1364.949097 44.0
1365.11084 84.0
1365.419678 80.0
1365.7948 124.0
1365.985962 44.0
1366.111084 112.0
1366.493652 176.0
1367.295654 152.0
1367.398682 132.0
1367.788818 156.0
1367.972778 144.0
1368.39978 208.0
1368.605957 160.0
1369.327637 172.0
1369.511719 76.0
1369.673828 148.0
1369.821167 40.0
1370.451904 176.0
1370.636841 116.0
1371.022095 140.0
1371.375854 108.0
1371.641113 72.0
1371.773804 168.0
1371.994995 132.0
1373.041992 148.0
1373.491943 100.0
1373.764893 168.0
1374.015625 144.0
1374.185303 156.0
1374.406738 156.0
1374.473145 108.0
1375.698242 48.0
1375.804443 92.0
1376.052612 32.0
1376.104248 56.0
1376.362671 184.0
1376.584229 176.0
1376.724487 100.0
1376.960815 148.0
1377.152832 140.0
1377.270996 64.0
1377.559082 104.0
1377.72168 88.0
1378.578735 48.0
1378.815186 144.0
1378.874268 56.0
1379.096069 56.0
1379.199463 104.0
1379.302979 188.0
1379.694824 144.0
1379.938721 124.0
1380.108765 180.0
1380.286255 124.0
1380.71521 176.0
1381.447388 156.0
1382.231689 176.0
1382.905029 76.0
1383.178955 92.0
1383.260376 104.0
1383.504639 124.0
1383.682251 104.0
1384.333862 100.0
1384.422729 136.0
1384.778198 160.0
1384.985596 164.0
1385.422607 100.0
1385.630127 44.0
1385.741211 132.0
1385.993164 152.0
1386.356201 72.0
1386.422607 172.0
1386.541504 220.0
1386.650269 212.0
1386.949097 148.0
1387.275269 68.0
1388.113037 112.0
1388.417114 156.0
1388.550537 244.0
1388.654419 64.0
1389.27002 224.0
1389.618774 104.0
1389.826538 236.0
1390.383057 80.0
1390.464722 112.0
1390.570557 160.0
1391.288574 32.0
1391.370239 148.0
1391.633179 128.0
1392.038452 120.0
1392.139282 128.0
1392.305786 52.0
1392.486694 176.0
1392.907349 96.0
1393.159912 208.0
1393.338257 136.0
1393.47937 144.0
1393.962402 80.0
1394.014404 104.0
1395.032593 136.0
1395.129272 140.0
1395.612549 144.0
1395.768677 104.0
1396.147827 136.0
1396.460205 160.0
1397.218994 120.0
1397.665405 140.0
1397.895996 148.0
1398.446777 144.0
1398.707275 132.0
1398.811523 96.0
1399.265625 136.0
1399.354858 76.0
1400.084595 148.0
1400.211182 104.0
1400.610352 204.0
1400.687866 60.0
1401.075317 136.0
1401.127441 172.0
1401.4552 184.0
1401.529785 84.0
1401.790527 84.0
1401.850098 140.0
1402.192993 252.0
1402.580566 112.0
1403.050171 216.0
1403.147095 104.0
1403.885254 128.0
1403.940552 232.0
1404.056763 148.0
1404.19104 76.0
1404.25061 140.0
1404.45752 192.0
1404.899536 104.0
1405.272583 72.0
1405.369629 104.0
1406.153076 136.0
1406.377075 148.0
1406.518799 72.0
1406.780151 148.0
1407.011475 108.0
1407.750732 52.0
1407.810425 140.0
1407.885132 112.0
1408.026978 80.0
1408.086792 88.0
1408.385498 136.0
1408.624512 68.0
1409.050293 164.0
1409.266968 208.0
1410.671997 96.0
1411.228882 172.0
1411.509399 144.0
1411.726196 128.0
1411.883301 108.0
1411.943115 156.0
1412.444214 84.0
1412.519043 140.0
1412.711182 208.0
1412.78833 160.0
1412.848145 160.0
1412.900513 136.0
1413.229736 100.0
1414.037842 64.0
1414.352173 156.0
1414.524414 160.0
1414.659058 136.0
1414.980957 144.0
1415.299072 188.0
1415.467651 132.0
1415.842041 84.0
1416.059326 196.0
1416.134155 132.0
1416.29895 92.0
1416.621094 100.0
1416.678101 144.0
1416.868286 96.0
1416.943237 120.0
1417.19043 152.0
1417.362793 96.0
1417.595093 40.0
1417.714966 108.0
1418.538696 180.0
1418.66687 92.0
1418.719238 68.0
1419.491577 84.0
1419.671509 104.0
1419.85144 136.0
1420.639038 88.0
1420.984131 72.0
1421.224243 164.0
1421.306763 164.0
1421.94458 236.0
1422.372437 128.0
1422.680176 68.0
1423.255859 136.0
1423.340942 76.0
1424.043213 100.0
1424.151978 112.0
1424.722778 132.0
1425.27124 128.0
1425.346436 128.0
1425.639526 76.0
1426.225708 112.0
1426.428589 156.0
1426.609009 172.0
1426.716187 112.0
1427.736816 180.0
1427.917358 140.0
1428.31604 144.0
1428.62439 200.0
1429.188599 180.0
1429.241333 108.0
1429.34668 136.0
1429.474609 200.0
1429.542358 92.0
1429.798218 96.0
1430.159424 72.0
1430.272339 76.0
1430.324951 52.0
1430.964844 160.0
1431.183228 116.0
1431.258545 108.0
1431.46936 68.0
1431.604858 120.0
1431.823242 152.0
1432.463501 180.0
1432.870239 104.0
1433.292236 132.0
1433.834839 36.0
1434.52063 96.0
1434.678955 28.0
1434.882568 204.0
1435.093628 168.0
1435.380493 228.0
1435.546021 144.0
1435.62146 120.0
1435.779785 60.0
1435.880371 216.0
1436.337891 192.0
1436.390747 116.0
1436.59436 84.0
1436.871582 48.0
1436.928833 96.0
1437.145142 140.0
1437.349976 136.0
1437.643188 128.0
1438.080811 64.0
1438.156372 132.0
1438.563965 172.0
1438.654541 88.0
1439.077271 148.0
1439.137695 152.0
1439.508179 132.0
1439.583252 232.0
1439.681396 140.0
1439.756958 180.0
1439.998535 76.0
1440.157227 152.0
1440.285522 180.0
1440.814331 160.0
1440.889893 52.0
1441.841919 60.0
1442.362549 164.0
1442.786743 240.0
1443.348267 208.0
1443.68335 192.0
1443.95874 168.0
1444.556274 80.0
1444.866455 116.0
1445.176636 60.0
1445.297729 160.0
1445.850098 84.0
1446.077148 48.0
1446.349609 148.0
1446.841675 116.0
1447.160645 148.0
1447.24292 56.0
1447.348389 120.0
1447.62915 152.0
1447.894165 148.0
1448.333496 132.0
1449.121338 116.0
1449.386475 128.0
1449.484985 88.0
1449.592651 96.0
1449.674438 204.0
1449.737915 204.0
1449.848755 156.0
1449.91687 96.0
1450.257935 132.0
1450.690063 144.0
1451.069092 176.0
1452.536865 160.0
1453.511353 216.0
1453.716187 96.0
1453.7771 132.0
1454.069214 116.0
1454.179199 152.0
1454.2323 136.0
1454.41687 220.0
1454.596558 196.0
1454.858154 228.0
1455.071655 364.0
1455.13562 224.0
1455.207275 164.0
1455.333008 64.0
1455.484863 108.0
1455.658936 56.0
1455.917725 192.0
1455.970825 96.0
1456.244263 128.0
1456.411377 224.0
1457.284912 136.0
1457.715698 104.0
1458.409668 116.0
1458.911255 116.0
1459.154541 48.0
1459.367432 124.0
1459.534668 140.0
1459.694458 224.0
1460.135498 48.0
1460.333252 112.0
1460.591797 144.0
1461.078613 196.0
1461.22876 164.0
1461.344971 92.0
1461.519897 136.0
1462.143921 48.0
1462.471191 84.0
1462.608154 120.0
1462.859375 80.0
1463.049683 116.0
1463.110596 48.0
1463.187744 60.0
1463.498901 84.0
1463.67395 140.0
1464.252686 112.0
1464.328857 112.0
1464.405029 172.0
1465.486816 176.0
1465.63916 172.0
1465.94397 144.0
1466.3479 144.0
1466.599365 120.0
1467.094849 104.0
1467.422607 128.0
1467.750488 104.0
1467.986938 92.0
1468.08606 152.0
1468.866455 180.0
1469.192017 184.0
1469.494263 84.0
1469.596313 128.0
1469.779419 72.0
1470.191528 168.0
1470.267822 96.0
1470.322998 88.0
1470.542603 72.0
1470.767578 140.0
1470.939453 76.0
1471.015747 136.0
1471.107422 36.0
1471.176025 236.0
1471.649414 136.0
1471.779175 128.0
1472.092285 84.0
1472.199219 152.0
1472.558105 116.0
1472.779663 136.0
1472.947632 92.0
1473.077515 128.0
1473.153931 160.0
1473.375488 100.0
1473.597046 100.0
1474.101318 136.0
1474.284668 128.0
1474.766113 44.0
1474.85791 220.0
1474.926636 144.0
1474.980225 164.0
1476.10376 140.0
1476.21875 172.0
1476.570557 172.0
1476.74646 240.0
1476.884033 148.0
1477.220581 144.0
1477.407837 188.0
1477.740845 128.0
1477.889771 188.0
1478.406494 108.0
1478.521362 124.0
1478.842773 96.0
1479.452515 192.0
1480.46582 192.0
1480.810425 28.0
1481.384888 164.0
1481.681763 188.0
1481.744995 172.0
1482.411499 108.0
1482.753174 180.0
1482.925049 160.0
1483.35144 184.0
1483.692627 160.0
1484.150635 144.0
1484.24353 92.0
1484.419922 152.0
1484.488892 100.0
1484.72937 132.0
1485.524292 156.0
1485.731445 208.0
1485.938599 76.0
1486.360596 160.0
1486.560059 148.0
1486.782593 128.0
1486.989868 124.0
1487.335205 128.0
1487.696045 52.0
1487.811157 72.0
1488.25354 76.0
1488.452026 228.0
1488.578979 124.0
1488.80481 176.0
1489.011597 152.0
1489.108765 104.0
1489.175049 160.0
1489.423706 100.0
1489.477539 180.0
1489.700195 100.0
1490.081787 164.0
1490.214966 104.0
1490.652954 96.0
1490.968018 168.0
1491.090942 64.0
1491.383057 124.0
1491.536743 104.0
1491.590576 224.0
1491.667358 96.0
1491.944092 248.0
1492.028687 124.0
1492.236328 152.0
1492.305542 224.0
1492.474609 196.0
1492.689941 68.0
1493.182129 44.0
1493.243652 44.0
1493.312866 124.0
1493.451294 200.0
1493.597412 76.0
1493.658936 160.0
1493.73584 60.0
1493.859009 160.0
1494.028198 180.0
1494.319458 148.0
1494.428223 108.0
1494.682129 116.0
1495.097656 184.0
1495.220825 116.0
1495.436279 148.0
1495.648071 148.0
1496.090576 160.0
1496.252319 60.0
1496.360107 76.0
1496.429321 104.0
1496.691162 36.0
1496.814331 176.0
1497.130005 192.0
1497.299438 200.0
1497.707642 152.0
1497.784668 152.0
1497.946411 160.0
1498.192993 56.0
1498.27002 168.0
1498.593506 140.0
1499.025024 108.0
1499.08667 124.0
1499.163696 156.0
1499.394897 132.0
1499.501831 156.0
1499.703247 132.0
1500.88269 124.0
1501.086792 156.0
1501.607544 172.0
1501.661621 120.0
1501.715576 92.0
1501.862061 164.0
1501.977783 152.0
1502.702881 144.0
1502.949829 156.0
1503.381958 136.0
1503.543945 244.0
1503.960815 136.0
1504.230957 148.0
1504.284912 168.0
