>compound MLS001148159-01!METHYLPREDNISOLONE
>formula C22H30O5
>ionization [M+H]+
>parentmass 375.2166005120905
#inchi InChI=1S/C22H30O5/c1-12-8-14-15-5-7-22(27,18(26)11-23)21(15,3)10-17(25)19(14)20(2)6-4-13(24)9-16(12)20/h4,6,9,12,14-15,17,19,23,25,27H,5,7-8,10-11H2,1-3H3/t12-,14-,15-,17-,19+,20-,21-,22-/m0/s1
#inchikey VHRSUDSXCMQTMA
#Ion_Source LC-ESI
#Instrument qTof
#Compound_Source NIH Pharmacologically Active Library
#PI Dorrestein
#Data_Collector VP/LMS
#Scan -1
#Precursor_MZ 375.213
#ExactMass 374.209
#Charge 1
#CAS_Number N/A
#Pubmed_ID N/A
#Smiles C[C@H]1C[C@H]2[C@@H]3CC[C@](O)(C(=O)CO)[C@@]3(C)C[C@H](O)[C@@H]2[C@@]4(C)C=CC(=O)C=C14
#INCHI_AUX N/A
#Library_Class 1
#SpectrumID CCMSLIB00000085960
#IonMode Positive
#UpdateWorkflowName UPDATE-SINGLE-ANNOTATED-GOLD
#LibraryQualityString Gold
#TaskID d252d724072548979f1f6f1ced849daf
##Scan# 1740
#SpectrumFile p4-H07_GH7_01_18415.mzXML
#LibraryName Pharm_Active_Library.mgf
#MQScore -1
#Organism Pharm_Active_Library
#TIC_Query 0
#RT_Query -1
#MZErrorPPM -1
#SharedPeaks 0
#MassDiff 0
#LibMZ -1
#SpecMZ 375.213
#SpecCharge 0
#internalFilename spec-00000.mgf

>collision 10
44.937225 252.0
44.956757 224.0
44.97411 188.0
45.007484 128.0
45.07962 52.0
45.309765 156.0
45.341927 168.0
45.480076 64.0
45.560646 176.0
45.572739 116.0
45.640358 184.0
45.709896 200.0
45.739506 136.0
45.773163 212.0
45.805489 112.0
45.820305 196.0
45.863846 156.0
45.90118 244.0
45.918713 132.0
45.948387 140.0
45.983475 152.0
46.021275 192.0
46.049633 128.0
46.086105 288.0
46.130707 152.0
46.140171 224.0
46.221325 168.0
46.234859 128.0
46.252655 188.0
46.299843 128.0
46.324223 168.0
46.362164 148.0
46.398762 168.0
46.46386 104.0
46.480145 124.0
46.531723 64.0
46.561596 196.0
46.584686 180.0
46.647198 156.0
46.753292 68.0
46.873192 184.0
46.925259 132.0
46.983574 184.0
47.057274 144.0
47.137863 40.0
47.152897 160.0
47.181602 92.0
47.20348 204.0
47.30336 48.0
47.315681 172.0
47.375938 108.0
47.511665 124.0
47.563812 204.0
47.621483 136.0
47.760307 32.0
47.781776 432.0
47.808464 108.0
47.855267 132.0
47.874542 176.0
47.951694 148.0
47.982021 132.0
48.002705 128.0
48.030289 140.0
48.131039 128.0
48.153133 196.0
48.180763 172.0
48.227745 136.0
48.280285 148.0
48.295498 192.0
48.359146 84.0
48.44223 244.0
48.507362 152.0
48.672462 184.0
48.700832 144.0
48.735466 308.0
48.853146 180.0
48.89489 236.0
49.016048 220.0
49.084354 136.0
49.116432 144.0
49.173637 208.0
49.244846 156.0
49.293743 176.0
49.321697 216.0
49.358047 152.0
49.379025 52.0
49.469654 208.0
49.486778 148.0
49.52599 196.0
49.654938 116.0
49.664757 148.0
49.692814 148.0
49.704041 60.0
49.723686 132.0
49.789673 204.0
49.843056 112.0
49.969604 212.0
50.020267 224.0
50.075016 136.0
50.101948 180.0
50.147038 28.0
50.309258 120.0
50.361507 120.0
50.497196 204.0
50.512756 136.0
50.592003 200.0
50.771957 224.0
50.824448 156.0
50.844315 48.0
50.875542 188.0
50.911831 244.0
51.036091 200.0
51.046608 192.0
51.068798 164.0
51.090137 140.0
51.102943 188.0
51.179806 200.0
51.386478 104.0
51.577847 156.0
51.609299 160.0
51.677952 220.0
51.702282 164.0
51.832596 160.0
51.961643 188.0
51.978863 168.0
52.072178 68.0
52.109528 104.0
52.123898 164.0
52.205837 180.0
52.254742 80.0
52.329586 140.0
52.452042 140.0
52.535683 160.0
52.589073 116.0
52.638161 148.0
52.836182 164.0
52.89262 72.0
53.053417 184.0
53.132141 156.0
53.189781 156.0
53.199944 48.0
53.249928 224.0
53.279819 152.0
53.457211 180.0
53.483406 116.0
53.505245 204.0
53.535824 232.0
53.605747 68.0
53.869839 148.0
53.944828 216.0
53.979458 184.0
54.11261 160.0
54.23127 188.0
54.28405 144.0
54.413174 128.0
54.46751 164.0
54.518936 136.0
54.67041 148.0
54.723404 136.0
54.854523 196.0
54.878113 128.0
55.05962 176.0
55.109848 120.0
55.163052 100.0
55.245865 152.0
55.256222 128.0
55.306538 28.0
55.351185 180.0
55.385017 252.0
55.396614 188.0
55.416126 152.0
55.430946 156.0
55.548073 72.0
55.591103 200.0
55.631271 188.0
55.796982 276.0
55.848129 156.0
55.888298 140.0
55.900204 240.0
55.912109 152.0
55.964211 180.0
55.992504 72.0
56.086372 96.0
56.213146 136.0
56.229561 184.0
56.248966 144.0
56.32869 236.0
56.410721 240.0
56.495541 192.0
56.525463 148.0
56.544918 124.0
56.555397 244.0
56.595818 204.0
56.741154 132.0
56.771404 92.0
56.919708 136.0
56.962479 184.0
56.975281 100.0
56.997818 212.0
57.170757 184.0
57.240005 264.0
57.339436 152.0
57.39521 260.0
57.528717 152.0
57.550629 80.0
57.594425 124.0
57.617085 168.0
57.636726 144.0
57.668465 236.0
57.774315 196.0
57.81517 128.0
57.848469 176.0
57.868153 132.0
57.880264 188.0
57.907524 100.0
57.959034 200.0
58.004501 120.0
58.016628 128.0
58.087902 224.0
58.131905 48.0
58.254143 112.0
58.336952 244.0
58.379524 236.0
58.417549 136.0
58.43885 68.0
58.482983 124.0
58.501247 132.0
58.533222 212.0
58.617004 164.0
58.642914 124.0
58.867184 216.0
59.157692 180.0
59.168407 152.0
59.209751 180.0
59.255707 160.0
59.266434 52.0
59.281757 160.0
59.356869 136.0
59.372208 136.0
59.51799 196.0
59.52874 52.0
59.597866 164.0
59.60862 168.0
59.639359 164.0
59.676163 204.0
59.885548 120.0
59.906094 212.0
60.075146 152.0
60.214069 168.0
60.295956 156.0
60.334599 156.0
60.410378 72.0
60.461441 128.0
60.52491 172.0
60.537296 128.0
60.551235 192.0
60.636448 172.0
60.648849 136.0
60.788433 136.0
60.816368 168.0
60.833443 132.0
61.083324 160.0
61.160103 196.0
61.230236 152.0
61.432583 156.0
61.501244 128.0
61.602745 144.0
61.636513 216.0
61.647411 136.0
61.688694 76.0
61.729866 180.0
61.766884 116.0
61.848251 184.0
61.915577 144.0
61.953171 28.0
61.964138 244.0
62.061314 116.0
62.075428 148.0
62.482246 156.0
62.508995 196.0
62.649582 180.0
62.702702 132.0
62.738956 188.0
62.772068 212.0
62.844627 180.0
62.942036 180.0
62.985134 188.0
63.007252 272.0
63.021469 136.0
63.139538 64.0
63.19698 172.0
63.234325 180.0
63.312538 212.0
63.342632 176.0
63.448811 220.0
63.480522 168.0
63.537624 140.0
63.548733 164.0
63.667557 220.0
63.696377 160.0
64.06385 188.0
64.108467 184.0
64.215576 196.0
64.258354 172.0
64.279099 120.0
64.323784 84.0
64.352524 172.0
64.370087 136.0
64.38446 140.0
64.550659 192.0
64.574654 156.0
64.62104 36.0
64.649841 116.0
64.729889 88.0
64.765121 196.0
64.846878 156.0
64.882454 92.0
64.888107 172.0
64.891945 200.0
64.912567 140.0
64.935608 152.0
64.975121 28.0
65.039314 88.0
65.060181 92.0
65.076241 164.0
65.095505 52.0
65.188896 148.0
65.231728 220.0
65.238007 116.0
65.265839 84.0
65.34626 160.0
65.420662 176.0
65.584602 192.0
65.599113 132.0
65.650703 180.0
65.726524 172.0
65.737823 144.0
65.794312 116.0
65.816917 116.0
65.855675 152.0
65.89283 168.0
65.942924 84.0
66.001129 188.0
66.015678 64.0
66.17588 180.0
66.239037 120.0
66.284401 208.0
66.321678 108.0
66.371933 96.0
66.457909 164.0
66.470886 96.0
66.52607 112.0
66.550423 112.0
66.64463 144.0
66.683632 184.0
66.764923 188.0
66.911377 148.0
67.018875 56.0
67.054726 144.0
67.10862 188.0
67.159073 172.0
67.203125 188.0
67.283096 200.0
67.309914 136.0
67.413765 144.0
67.531075 176.0
67.564201 176.0
67.599808 168.0
67.634567 192.0
67.754555 192.0
67.773773 80.0
67.795074 196.0
67.816628 188.0
67.881958 208.0
67.934448 176.0
67.951271 204.0
68.009933 180.0
68.085457 184.0
68.182388 220.0
68.24157 172.0
68.271164 144.0
68.322159 140.0
68.353416 96.0
68.369873 64.0
68.389626 104.0
68.420898 148.0
68.432426 116.0
68.445602 72.0
68.459381 200.0
68.570801 188.0
68.636742 160.0
68.662331 184.0
68.763771 92.0
68.809998 40.0
68.92231 132.0
69.056221 76.0
69.200195 204.0
69.251526 116.0
69.291283 144.0
69.327744 176.0
69.357574 208.0
69.385056 180.0
69.467018 132.0
69.485268 124.0
69.511818 164.0
69.548088 252.0
69.652939 136.0
69.721062 92.0
69.736023 136.0
69.825806 80.0
69.922302 44.0
69.9506 92.0
69.988892 232.0
70.010536 160.0
70.073837 212.0
70.168839 84.0
70.212196 188.0
70.225533 156.0
70.282257 120.0
70.388359 220.0
70.454231 100.0
70.479294 120.0
70.542801 172.0
70.644814 216.0
70.664886 76.0
70.710068 140.0
70.757584 228.0
70.798805 76.0
70.82225 168.0
70.849052 152.0
70.925453 224.0
70.973083 144.0
71.087151 144.0
71.181839 208.0
71.285309 36.0
71.305473 200.0
71.360947 136.0
71.401306 168.0
71.416443 80.0
71.495522 204.0
71.525818 140.0
71.668968 104.0
71.751556 48.0
71.815636 152.0
71.830818 188.0
71.847687 192.0
71.88987 164.0
71.932068 168.0
72.058731 120.0
72.094162 124.0
72.146614 184.0
72.202194 188.0
72.33947 160.0
72.351318 92.0
72.371635 164.0
72.393654 156.0
72.535973 152.0
72.578362 180.0
72.619057 128.0
72.863503 184.0
72.890694 92.0
72.926384 112.0
73.009933 196.0
73.067528 92.0
73.141777 284.0
73.18837 144.0
73.230942 180.0
73.309319 56.0
73.389435 196.0
73.401253 180.0
73.442299 164.0
73.510544 176.0
73.578819 160.0
73.599312 108.0
73.652252 68.0
73.669334 416.0
73.684708 196.0
73.720596 108.0
73.746231 216.0
73.852173 204.0
73.891586 148.0
73.944633 128.0
73.978867 168.0
74.067917 124.0
74.108963 100.0
74.126167 200.0
74.153587 144.0
74.190804 180.0
74.282188 140.0
74.306206 72.0
74.331947 76.0
74.386871 136.0
74.407471 168.0
74.474442 160.0
74.525978 172.0
74.548317 208.0
74.637711 56.0
74.666946 160.0
74.685555 180.0
74.71167 136.0
74.770172 76.0
74.811485 140.0
74.836571 156.0
74.888969 112.0
74.955994 168.0
75.03717 136.0
75.144104 168.0
75.211601 72.0
75.391037 104.0
75.487846 156.0
75.525894 152.0
75.539734 44.0
75.607216 116.0
75.671265 148.0
75.702431 180.0
75.797707 180.0
75.8237 216.0
75.861832 120.0
75.884369 180.0
75.941597 68.0
75.957214 172.0
76.02314 104.0
76.07869 180.0
76.123833 164.0
76.141197 184.0
76.172462 180.0
76.193306 212.0
76.242096 160.0
76.32888 144.0
76.3741 168.0
76.388016 116.0
76.48024 172.0
76.572525 184.0
76.593422 340.0
76.723686 180.0
76.822693 208.0
76.829666 108.0
76.832787 156.0
76.895943 272.0
76.984108 168.0
77.199059 176.0
77.277779 120.0
77.312775 96.0
77.375786 204.0
77.586029 100.0
77.633369 180.0
77.684235 196.0
77.782509 136.0
77.812347 132.0
77.926514 48.0
78.197327 120.0
78.267235 176.0
78.359337 196.0
78.435112 168.0
78.454506 184.0
78.57267 160.0
78.607956 132.0
78.673264 128.0
78.70858 160.0
78.864044 140.0
79.109924 64.0
79.232124 152.0
79.292366 160.0
79.331367 112.0
79.373917 108.0
79.395195 156.0
79.53714 172.0
79.593956 136.0
79.673882 132.0
79.778732 92.0
79.800072 148.0
79.819626 224.0
79.839188 144.0
80.035515 160.0
80.093712 124.0
80.131042 184.0
80.200623 188.0
80.230927 148.0
80.337929 180.0
80.559296 44.0
80.573586 160.0
80.789406 228.0
80.84359 144.0
80.902657 216.0
80.916977 68.0
80.965324 108.0
80.981445 192.0
81.131973 112.0
81.244957 52.0
81.437027 176.0
81.453194 132.0
81.508888 60.0
81.585358 176.0
81.643715 160.0
81.703072 176.0
81.733665 212.0
81.899666 136.0
81.970924 232.0
82.007401 164.0
82.02182 184.0
82.220589 160.0
82.254517 132.0
82.348412 184.0
82.415253 128.0
82.438744 76.0
82.568916 224.0
82.672035 156.0
82.894783 152.0
82.941902 132.0
82.976349 372.0
83.018051 96.0
83.043442 184.0
83.07428 140.0
83.106934 152.0
83.216103 240.0
83.270317 176.0
83.29393 152.0
83.31842 108.0
83.36116 252.0
83.428406 44.0
83.47596 132.0
83.49958 312.0
83.562996 228.0
83.589363 124.0
83.674019 144.0
83.723183 252.0
83.755966 132.0
83.779648 148.0
83.930923 128.0
83.971046 148.0
84.026138 236.0
84.039902 188.0
84.135277 68.0
84.232063 180.0
84.248466 188.0
84.275909 88.0
84.316109 176.0
84.411171 248.0
84.489822 128.0
84.502312 320.0
84.671043 116.0
84.716835 124.0
84.861618 140.0
84.947815 208.0
85.057388 192.0
85.096474 208.0
85.114838 152.0
85.151566 40.0
85.175446 220.0
85.247101 168.0
85.305214 168.0
85.344521 88.0
85.35923 148.0
85.412567 216.0
85.482483 176.0
85.521133 32.0
85.742149 216.0
85.928398 248.0
86.055748 120.0
86.073875 152.0
86.144394 196.0
86.159752 128.0
86.203522 204.0
86.215462 160.0
86.344025 144.0
86.363319 168.0
86.379166 216.0
86.425423 184.0
86.49575 208.0
86.508705 124.0
86.551292 152.0
86.564255 148.0
86.63649 96.0
86.662422 64.0
86.841309 148.0
86.97258 116.0
87.003922 140.0
87.046394 196.0
87.073761 212.0
87.247063 144.0
87.304703 152.0
87.373528 160.0
87.393997 144.0
87.440521 172.0
87.632324 140.0
87.666023 144.0
87.697861 168.0
87.72924 124.0
87.756935 192.0
87.788902 116.0
87.86911 56.0
87.888069 176.0
87.908295 136.0
87.973625 116.0
88.057655 100.0
88.08567 100.0
88.173492 108.0
88.349258 180.0
88.38855 168.0
88.444695 132.0
88.515839 148.0
88.540184 168.0
88.590759 92.0
88.676956 68.0
88.725693 164.0
88.782776 196.0
88.829239 132.0
88.898262 168.0
88.941429 172.0
88.978973 164.0
89.025917 200.0
89.043083 196.0
89.072868 188.0
89.09729 220.0
89.179977 212.0
89.204414 256.0
89.228851 32.0
89.288269 188.0
89.47332 136.0
89.489326 208.0
89.503563 388.0
89.524277 132.0
89.582664 192.0
89.607155 144.0
89.740974 152.0
89.776802 156.0
89.845001 204.0
89.917747 248.0
89.973038 176.0
89.99192 56.0
90.016472 80.0
90.184616 220.0
90.292381 180.0
90.358589 116.0
90.373726 176.0
90.443748 164.0
90.479721 160.0
90.59903 164.0
90.625557 116.0
90.729797 84.0
90.803749 116.0
90.834724 232.0
90.879631 132.0
90.921379 68.0
90.976425 168.0
91.055252 2356.0
91.144768 152.0
91.181572 164.0
91.206284 172.0
91.221489 120.0
91.334473 144.0
91.484016 116.0
91.535423 148.0
91.586845 256.0
91.661148 244.0
91.912346 196.0
92.002556 160.0
92.015923 68.0
92.040749 188.0
92.055916 368.0
92.153442 236.0
92.239441 216.0
92.302536 88.0
92.356087 108.0
92.407738 164.0
92.478539 112.0
92.555115 172.0
92.587677 60.0
92.604912 168.0
92.660461 132.0
92.700706 176.0
92.731483 196.0
92.790794 196.0
92.936562 172.0
92.978783 192.0
93.011406 204.0
93.06868 696.0
93.120857 232.0
93.165039 88.0
93.250717 184.0
93.278419 88.0
93.355545 208.0
93.538109 172.0
93.557358 256.0
93.748993 188.0
93.823219 176.0
94.146019 108.0
94.230453 200.0
94.307747 124.0
94.346413 156.0
94.373482 140.0
94.410217 140.0
94.46244 116.0
94.479851 60.0
94.516617 40.0
94.576614 120.0
94.628883 136.0
94.673416 160.0
94.702469 64.0
94.737335 100.0
94.752838 76.0
94.927284 116.0
94.971893 180.0
95.049042 216.0
95.088318 552.0
95.115479 180.0
95.197029 164.0
95.255295 108.0
95.366051 144.0
95.42437 276.0
95.443817 192.0
95.461319 136.0
95.506783 148.0
95.58387 176.0
95.605278 232.0
95.685081 216.0
95.818985 80.0
95.866974 244.0
95.953949 120.0
96.04509 132.0
96.086571 132.0
96.10218 152.0
96.17244 180.0
96.231087 192.0
96.385315 228.0
96.469727 276.0
96.584732 184.0
96.732491 204.0
96.76281 252.0
96.799332 148.0
96.816368 148.0
96.870529 228.0
96.915588 176.0
96.93322 148.0
96.97438 180.0
97.063133 516.0
97.086128 188.0
97.246124 124.0
97.346321 144.0
97.389435 172.0
97.451248 124.0
97.502045 188.0
97.549515 132.0
97.708618 184.0
97.736435 188.0
97.887924 152.0
97.923378 188.0
97.966713 208.0
98.19931 108.0
98.26046 156.0
98.331505 144.0
98.392693 52.0
98.447983 152.0
98.491432 160.0
98.51181 204.0
98.572441 120.0
98.593201 164.0
98.772125 176.0
98.807732 132.0
98.825539 132.0
98.867096 224.0
98.892883 172.0
98.966072 72.0
99.035385 40.0
99.088875 120.0
99.234695 112.0
99.328751 72.0
99.342636 148.0
99.416054 148.0
99.484138 172.0
99.519272 156.0
99.592758 116.0
99.614609 144.0
99.751724 188.0
99.787399 148.0
99.89888 56.0
99.920761 220.0
99.939255 136.0
99.993347 244.0
100.044151 36.0
100.302231 152.0
100.341003 228.0
100.360939 116.0
100.516525 60.0
100.532494 68.0
100.597076 224.0
100.698204 140.0
100.920021 120.0
101.02002 172.0
101.06311 164.0
101.086044 284.0
101.133705 140.0
101.320312 200.0
101.464615 136.0
101.486671 244.0
101.516747 28.0
101.578926 280.0
101.645134 156.0
101.665047 156.0
101.719391 176.0
101.805733 144.0
101.964447 212.0
102.04686 68.0
102.121323 160.0
102.14138 152.0
102.254059 140.0
102.324516 132.0
102.380898 60.0
102.399025 176.0
102.437294 144.0
102.552155 128.0
102.820404 172.0
102.963745 164.0
102.985962 76.0
103.036461 112.0
103.055916 596.0
103.232529 136.0
103.392387 220.0
103.465225 88.0
103.49762 160.0
103.686012 196.0
103.734665 180.0
103.941536 164.0
103.955742 148.0
104.014603 152.0
104.062042 180.0
104.145477 212.0
104.21769 164.0
104.367928 136.0
104.451492 44.0
104.572609 132.0
104.606148 44.0
104.634644 148.0
104.694756 184.0
104.726288 128.0
104.928032 196.0
104.953674 256.0
105.03376 236.0
105.071022 5076.0
105.17691 104.0
105.193245 192.0
105.213654 68.0
105.479233 236.0
105.570923 184.0
105.600334 212.0
105.653053 176.0
105.67556 228.0
105.693977 136.0
105.904839 132.0
105.945808 136.0
105.962204 104.0
106.017525 184.0
106.074615 452.0
106.097466 184.0
106.204102 156.0
106.230766 64.0
106.271797 236.0
106.304832 124.0
106.346207 156.0
106.393311 256.0
106.599152 124.0
106.662003 136.0
106.678452 172.0
106.840912 144.0
106.857376 168.0
106.946198 220.0
107.048698 652.0
107.086021 1940.0
107.157974 172.0
107.176895 144.0
107.199188 192.0
107.300652 176.0
107.318741 76.0
107.663353 188.0
107.731522 124.0
107.807968 92.0
107.892715 168.0
107.940269 224.0
108.053246 188.0
108.089401 356.0
108.234108 40.0
108.415527 104.0
108.466148 224.0
108.501389 140.0
108.719193 232.0
108.76693 52.0
108.782715 276.0
108.862434 172.0
108.96006 104.0
108.991226 160.0
109.024475 68.0
109.065079 808.0
109.100609 712.0
109.136726 52.0
109.228233 208.0
109.244873 68.0
109.405121 124.0
109.684265 156.0
109.784348 280.0
109.821144 188.0
109.84922 116.0
109.874039 188.0
110.034744 204.0
110.073929 208.0
110.106941 196.0
110.13916 132.0
110.183029 108.0
110.197655 124.0
110.21228 168.0
110.23735 132.0
110.256165 220.0
110.285324 164.0
110.31469 160.0
110.433876 192.0
110.452705 208.0
110.505005 208.0
110.551041 36.0
110.743652 200.0
110.844215 148.0
110.903999 244.0
110.959496 160.0
111.009819 148.0
111.046432 180.0
111.062256 428.0
111.080902 556.0
111.133583 124.0
111.190239 224.0
111.232224 160.0
111.320404 172.0
111.351906 184.0
111.37291 40.0
111.526527 144.0
111.726067 200.0
111.772362 164.0
111.944977 224.0
112.048187 164.0
112.069252 140.0
112.15947 208.0
112.324348 100.0
112.362328 200.0
112.427734 388.0
112.520615 232.0
112.556511 124.0
112.613396 128.0
112.649437 72.0
112.939034 160.0
112.985573 132.0
113.02578 112.0
113.040588 160.0
113.076569 236.0
113.095619 132.0
113.118904 152.0
113.279839 160.0
113.349762 128.0
113.476936 192.0
113.650864 164.0
113.767593 208.0
113.820679 148.0
113.907753 208.0
114.088387 136.0
114.103271 152.0
114.213852 128.0
114.350029 112.0
114.42453 304.0
114.454338 164.0
114.631142 144.0
114.671638 112.0
114.703613 180.0
114.820885 128.0
114.84642 160.0
114.89772 196.0
114.963318 188.0
114.991562 196.0
115.012909 192.0
115.054985 3252.0
115.125237 144.0
115.377739 172.0
115.536469 240.0
115.570702 176.0
115.600655 124.0
115.675568 240.0
115.73111 144.0
115.793335 168.0
115.812614 64.0
115.883308 144.0
116.063408 892.0
116.09552 152.0
116.16201 76.0
116.21994 160.0
116.258568 216.0
116.318665 236.0
116.355156 176.0
116.393806 112.0
116.417427 104.0
116.608635 64.0
116.662376 160.0
116.716125 92.0
116.737625 128.0
116.788383 140.0
116.827965 284.0
116.892517 164.0
116.925743 188.0
116.995827 64.0
117.031784 308.0
117.070076 3532.0
117.15168 152.0
117.191818 76.0
117.497986 104.0
117.562714 188.0
117.63826 120.0
117.664169 276.0
117.95797 68.0
118.027161 108.0
118.050941 180.0
118.072311 264.0
118.195877 148.0
118.28894 140.0
118.425362 44.0
118.557526 44.0
118.594368 160.0
118.668076 136.0
118.724457 200.0
118.862099 204.0
118.973984 148.0
119.051865 180.0
119.084694 3192.0
119.191185 88.0
119.228127 36.0
119.254204 192.0
119.348831 152.0
119.367256 160.0
119.475716 128.0
119.824356 172.0
119.928955 164.0
120.011795 244.0
120.05777 340.0
120.08918 536.0
120.144836 216.0
120.162292 172.0
120.251762 56.0
120.360916 80.0
120.483231 156.0
120.553154 116.0
120.634026 248.0
120.671188 196.0
120.742867 216.0
120.9534 148.0
120.968727 160.0
121.065041 10640.0
121.101463 528.0
121.146111 116.0
121.424484 188.0
121.521011 164.0
121.540756 48.0
121.556114 52.0
121.62854 204.0
121.694405 68.0
121.760284 68.0
121.815193 92.0
121.840256 208.0
121.874512 136.0
121.955826 36.0
121.971214 100.0
122.004189 140.0
122.068024 444.0
122.114929 232.0
122.312164 116.0
122.340309 148.0
122.369408 52.0
122.429886 232.0
122.464096 100.0
122.565437 100.0
122.587471 36.0
122.602898 156.0
122.625923 60.0
122.666817 36.0
122.863091 112.0
122.890633 116.0
122.911301 132.0
122.928551 108.0
123.030815 200.0
123.046272 184.0
123.082329 432.0
123.163315 136.0
123.188477 92.0
123.238426 148.0
123.278206 188.0
123.304726 112.0
123.353348 196.0
123.441788 128.0
123.457268 136.0
123.514107 184.0
123.654175 144.0
123.707298 80.0
123.738289 136.0
123.791435 124.0
123.837944 160.0
123.904396 212.0
124.055099 200.0
124.081703 148.0
124.143791 200.0
124.194611 208.0
124.319046 40.0
124.33902 148.0
124.441132 156.0
124.55217 184.0
124.575699 176.0
124.614372 116.0
124.704338 108.0
124.855316 164.0
124.914505 140.0
125.060211 648.0
125.091331 188.0
125.11702 156.0
125.279594 148.0
125.571602 148.0
125.587212 100.0
125.613983 288.0
125.738937 152.0
125.776878 140.0
125.955513 56.0
125.993492 108.0
126.009132 132.0
126.040001 196.0
126.064995 212.0
126.100754 128.0
126.143227 224.0
126.158875 140.0
126.194641 196.0
126.315407 160.0
126.395088 196.0
126.489952 144.0
126.507858 172.0
126.548164 144.0
126.637741 128.0
126.720627 96.0
126.805779 252.0
127.023277 244.0
127.051353 264.0
127.207291 132.0
127.270149 168.0
127.411652 184.0
127.541992 188.0
127.708382 136.0
127.757874 144.0
127.833298 172.0
127.883881 132.0
128.062729 1248.0
128.239761 112.0
128.262299 252.0
128.302872 32.0
128.422577 192.0
128.458481 156.0
128.638123 204.0
128.797089 168.0
128.851303 156.0
128.923615 172.0
128.943954 208.0
129.043411 140.0
129.069641 1852.0
129.122253 120.0
129.459778 100.0
129.557175 48.0
129.60022 204.0
129.681793 276.0
129.772476 136.0
129.913895 148.0
129.92897 236.0
129.944855 124.0
130.046982 192.0
130.07692 756.0
130.330856 124.0
130.399033 244.0
130.430847 160.0
130.469498 44.0
130.635513 140.0
130.665085 128.0
130.692383 212.0
130.719696 144.0
130.88089 132.0
131.015686 184.0
131.05159 564.0
131.085556 3884.0
131.147858 220.0
131.188889 36.0
131.325714 164.0
131.373611 148.0
131.462601 160.0
131.494553 164.0
131.530807 36.0
131.887405 200.0
131.93541 140.0
132.058899 732.0
132.089935 676.0
132.105103 140.0
132.225922 140.0
132.276276 32.0
132.344955 196.0
132.372437 112.0
132.493835 192.0
132.58548 180.0
132.610703 40.0
132.633621 144.0
132.716156 224.0
132.775772 136.0
132.867523 124.0
132.975372 184.0
133.019577 348.0
133.065842 992.0
133.102066 2440.0
133.159058 128.0
133.191208 176.0
133.295807 188.0
133.418716 140.0
133.571121 192.0
133.639511 176.0
133.665405 144.0
133.745377 152.0
133.892731 200.0
133.941101 164.0
134.066574 156.0
134.105011 448.0
134.125443 64.0
134.14389 168.0
134.261475 272.0
134.348526 216.0
134.386047 44.0
134.47374 216.0
134.556839 196.0
134.871017 76.0
134.950577 260.0
134.987137 196.0
135.009735 176.0
135.044678 624.0
135.080627 20128.0
135.10997 300.0
135.163391 124.0
135.190186 52.0
135.234161 120.0
135.285934 76.0
135.336029 252.0
135.352234 40.0
135.382339 148.0
135.398544 88.0
135.449509 52.0
135.484253 48.0
135.542389 44.0
135.794876 52.0
135.826401 108.0
135.873749 376.0
135.9039 88.0
135.92247 128.0
135.976303 60.0
136.016922 40.0
136.031845 220.0
136.050705 236.0
136.085358 1432.0
136.303284 144.0
136.366043 92.0
136.419495 108.0
136.510178 168.0
136.563675 140.0
136.673004 144.0
136.707916 140.0
136.73584 208.0
136.775406 200.0
136.796356 52.0
136.982666 144.0
137.058746 596.0
137.095993 376.0
137.129456 128.0
137.194733 260.0
137.294983 160.0
137.411621 176.0
137.432617 152.0
137.813217 212.0
137.895004 84.0
137.92305 160.0
137.948776 92.0
138.05983 152.0
138.330078 236.0
138.421387 180.0
138.506714 188.0
138.540848 44.0
138.618164 96.0
138.700195 224.0
138.761139 380.0
138.779907 88.0
138.831497 64.0
138.856934 180.0
138.892471 168.0
139.078827 468.0
139.109436 140.0
139.542984 96.0
139.606476 176.0
139.738205 200.0
139.931198 152.0
140.034805 236.0
140.0513 172.0
140.070145 68.0
140.144485 172.0
140.164917 124.0
140.206802 168.0
140.510666 204.0
140.633698 208.0
140.744659 52.0
140.765915 188.0
140.791885 232.0
140.812546 236.0
140.869827 152.0
141.028152 100.0
141.069733 1776.0
141.125076 56.0
141.151093 32.0
141.243927 204.0
141.359253 200.0
141.427887 152.0
141.4776 144.0
141.584152 148.0
141.62915 168.0
141.648102 208.0
141.740509 160.0
141.75946 156.0
141.790268 160.0
141.825821 100.0
141.8685 160.0
141.888 176.0
141.968079 88.0
142.077759 2608.0
142.103287 176.0
142.143631 136.0
142.169739 180.0
142.255173 188.0
142.288422 116.0
142.40477 60.0
142.44516 140.0
142.477325 156.0
142.623367 236.0
142.739868 124.0
142.808838 148.0
142.908752 156.0
142.949203 152.0
143.046783 148.0
143.085403 2980.0
143.168213 168.0
143.339737 80.0
143.394547 140.0
143.468445 156.0
143.532822 96.0
143.570236 132.0
143.625839 168.0
143.659225 180.0
143.692627 52.0
143.816727 192.0
143.859695 160.0
143.885956 168.0
143.986252 104.0
144.058273 1348.0
144.092529 1108.0
144.129578 116.0
144.170197 112.0
144.200424 112.0
144.261032 140.0
144.36145 208.0
144.394928 40.0
144.526505 160.0
144.610275 152.0
144.729965 68.0
144.861694 72.0
144.964722 132.0
145.003067 376.0
145.027084 184.0
145.065033 4844.0
145.101318 2584.0
145.182877 44.0
145.21405 140.0
145.369995 236.0
145.420395 112.0
145.590393 124.0
145.634094 88.0
145.759018 144.0
145.982574 68.0
146.072845 4088.0
146.106628 340.0
146.134125 120.0
146.175018 36.0
146.199097 156.0
146.261673 112.0
146.309814 76.0
146.348343 100.0
146.37001 144.0
146.456711 148.0
146.583527 172.0
146.756699 232.0
146.779648 64.0
146.926788 76.0
146.950912 112.0
147.040192 196.0
147.080383 2488.0
147.11348 1020.0
147.180206 200.0
147.255615 180.0
147.299393 116.0
147.48703 128.0
147.518463 48.0
147.551132 156.0
147.697205 220.0
147.753036 124.0
147.864349 156.0
148.03624 104.0
148.090607 196.0
148.117462 108.0
148.167038 148.0
148.348801 204.0
148.365768 48.0
148.479736 204.0
148.537949 136.0
148.715088 148.0
148.841324 260.0
149.016205 184.0
149.059479 104.0
149.096619 1976.0
149.132858 144.0
149.222809 220.0
149.25441 144.0
149.27446 100.0
149.376022 176.0
149.412506 136.0
149.468475 36.0
149.553986 148.0
149.616943 124.0
149.692429 164.0
150.00502 132.0
150.100418 544.0
150.167664 188.0
150.306351 212.0
150.340881 196.0
150.489777 204.0
150.548386 184.0
150.748703 152.0
150.932053 176.0
150.984451 204.0
151.052505 220.0
151.073563 196.0
151.110992 172.0
151.134109 236.0
151.218277 72.0
151.333328 188.0
151.372513 164.0
151.45578 208.0
151.732895 152.0
151.808716 168.0
151.946075 232.0
152.064331 812.0
152.130127 72.0
152.319214 132.0
152.390472 36.0
152.446976 124.0
152.64856 100.0
152.729721 236.0
152.862579 140.0
153.068344 1336.0
153.177719 100.0
153.197433 56.0
153.816406 160.0
154.07724 644.0
154.169601 136.0
154.332748 156.0
154.582581 112.0
154.698914 132.0
154.847488 180.0
155.058563 504.0
155.083832 1180.0
155.261383 180.0
155.397812 204.0
155.469772 116.0
155.492035 148.0
155.556641 112.0
155.581467 100.0
155.653473 172.0
155.847214 176.0
155.991364 92.0
156.092178 1072.0
156.153 92.0
156.259964 168.0
156.344559 180.0
156.610962 140.0
156.63588 108.0
156.665344 208.0
156.70314 152.0
156.740509 84.0
156.792648 244.0
156.852661 80.0
157.065399 1236.0
157.10144 2332.0
157.199356 60.0
157.234283 236.0
157.254257 64.0
157.334137 52.0
157.36409 48.0
157.431519 92.0
157.44899 60.0
157.683853 80.0
157.706345 176.0
157.768295 108.0
157.813843 128.0
157.867645 116.0
157.97641 120.0
158.028275 196.0
158.073318 3308.0
158.105072 692.0
158.161575 52.0
158.225723 96.0
158.262695 92.0
158.319321 164.0
158.354385 168.0
158.381927 144.0
158.411987 84.0
158.510895 56.0
158.527252 184.0
158.625 96.0
158.655075 68.0
158.715256 172.0
158.858215 136.0
158.971115 228.0
159.006165 120.0
159.080353 7456.0
159.115097 1248.0
159.181992 116.0
159.223984 232.0
159.261566 140.0
159.410583 244.0
159.448288 48.0
159.496033 64.0
159.533752 168.0
159.573975 76.0
159.62677 164.0
159.863235 56.0
159.963913 208.0
159.999161 144.0
160.087357 2052.0
160.17041 88.0
160.235901 64.0
160.326614 200.0
160.401932 100.0
160.60144 60.0
160.629181 192.0
160.742722 72.0
160.901733 172.0
160.92897 168.0
161.009354 116.0
161.060791 432.0
161.096268 21556.0
161.129135 428.0
161.156937 100.0
161.192215 204.0
161.257736 56.0
161.308472 40.0
161.374207 44.0
161.394257 112.0
161.430679 192.0
161.455124 112.0
161.488007 60.0
161.533539 60.0
161.649918 64.0
161.67775 80.0
161.763809 32.0
161.799255 40.0
161.842972 164.0
161.918274 44.0
161.957291 168.0
161.985657 252.0
162.014526 200.0
162.062668 180.0
162.100006 3032.0
162.136154 192.0
162.176697 68.0
162.260361 32.0
162.285721 68.0
162.313599 76.0
162.40744 88.0
162.49115 132.0
162.519073 80.0
162.585037 132.0
162.783997 140.0
162.800842 252.0
162.866867 180.0
162.970154 196.0
163.047272 32.0
163.075943 464.0
163.107117 624.0
163.159317 184.0
163.207413 84.0
163.354935 36.0
163.431259 220.0
163.451614 184.0
163.599228 76.0
163.627243 124.0
163.703629 184.0
163.741821 132.0
163.841171 148.0
164.034851 108.0
164.077682 180.0
164.131729 136.0
164.233521 224.0
164.302628 52.0
164.371506 132.0
164.440414 40.0
164.731506 160.0
164.879715 124.0
164.92572 160.0
165.070694 640.0
165.08989 564.0
165.130356 208.0
165.286316 76.0
165.30423 32.0
165.452682 132.0
165.532059 48.0
165.85231 140.0
166.026657 112.0
166.075317 904.0
166.270096 108.0
166.378189 184.0
166.468063 168.0
166.737808 140.0
166.820068 240.0
166.843201 136.0
167.045013 152.0
167.084824 1600.0
167.270248 104.0
167.29599 132.0
167.375793 180.0
167.424728 200.0
167.692673 136.0
168.040802 172.0
168.058868 176.0
168.091934 876.0
168.144028 96.0
168.219681 256.0
168.50296 164.0
168.521057 80.0
168.598572 116.0
168.95282 184.0
168.976105 104.0
169.070129 1052.0
169.101181 1288.0
169.205673 172.0
169.273773 144.0
169.346283 68.0
169.408447 144.0
169.46286 236.0
169.976273 176.0
170.072342 1284.0
170.106903 320.0
170.16777 108.0
170.217682 200.0
170.256638 148.0
170.305801 172.0
170.511246 224.0
170.594421 148.0
170.682816 40.0
170.711426 152.0
170.789444 148.0
170.8909 44.0
171.080002 4468.0
171.114258 644.0
171.251419 164.0
171.445557 160.0
171.541992 200.0
171.577271 128.0
171.721924 48.0
171.755829 52.0
172.08786 4868.0
172.277908 192.0
172.338013 192.0
172.392883 64.0
172.426849 32.0
172.515732 136.0
172.534027 52.0
172.614624 168.0
172.690933 172.0
172.778915 188.0
172.853409 152.0
172.976135 40.0
173.095032 3704.0
173.130554 628.0
173.256348 36.0
173.371643 52.0
173.455521 148.0
173.75972 36.0
173.846313 128.0
173.877808 124.0
173.922424 88.0
174.064285 356.0
174.101624 816.0
174.135132 188.0
174.192886 100.0
174.215118 104.0
174.442535 92.0
174.495117 188.0
174.534561 64.0
174.637115 192.0
174.700256 112.0
174.789703 136.0
174.899109 120.0
174.947632 96.0
175.002914 136.0
175.07402 528.0
175.111893 1432.0
175.146622 188.0
175.187439 68.0
175.205719 112.0
175.234695 176.0
175.253143 40.0
175.445541 200.0
175.492996 116.0
175.624863 36.0
175.679047 156.0
175.735657 112.0
176.055069 152.0
176.117889 276.0
176.155441 168.0
176.332474 220.0
176.358902 72.0
176.397156 200.0
176.46994 76.0
176.54567 168.0
176.570419 124.0
176.718567 172.0
176.872055 112.0
176.932938 168.0
177.089676 888.0
177.124741 316.0
177.518143 228.0
177.643173 100.0
177.696243 144.0
177.818314 80.0
177.932449 132.0
177.988205 44.0
178.006805 148.0
178.076797 1480.0
178.176788 124.0
178.218933 144.0
178.259155 76.0
178.423965 40.0
178.514359 48.0
178.55957 100.0
178.650009 96.0
178.708542 104.0
178.743134 156.0
178.807007 172.0
178.956085 172.0
178.985367 184.0
179.086777 1572.0
179.154053 180.0
179.198456 156.0
179.555664 196.0
179.600998 56.0
179.654358 200.0
179.758408 176.0
179.803787 236.0
179.979965 168.0
180.012009 188.0
180.033371 200.0
180.089691 704.0
180.132202 136.0
180.209686 88.0
180.391418 40.0
180.452896 64.0
180.672211 128.0
180.755157 172.0
180.843475 148.0
181.004105 140.0
181.065338 2056.0
181.101898 1832.0
181.172836 64.0
181.266617 208.0
181.344345 196.0
181.37114 156.0
181.408676 192.0
181.650024 152.0
181.773438 176.0
181.880798 120.0
181.915695 152.0
181.985489 144.0
182.04718 152.0
182.070786 780.0
182.107391 584.0
182.229919 184.0
182.280975 132.0
182.318588 68.0
182.37709 184.0
182.584747 160.0
182.633682 144.0
182.72731 76.0
182.848404 100.0
182.881256 216.0
182.97493 48.0
183.081665 2172.0
183.117111 1400.0
183.17421 148.0
183.405945 116.0
183.467957 168.0
183.621658 84.0
183.66481 100.0
183.743042 180.0
183.796997 100.0
184.058838 136.0
184.085266 832.0
184.11673 308.0
184.342468 156.0
184.391113 40.0
184.455994 240.0
184.474915 52.0
184.515472 256.0
184.57225 92.0
184.691238 72.0
184.729111 60.0
184.769699 160.0
184.804871 140.0
184.850861 136.0
184.902283 112.0
184.963501 104.0
185.031342 124.0
185.096176 20336.0
185.131393 620.0
185.178452 44.0
185.200119 40.0
185.315582 124.0
185.378922 232.0
185.427567 76.0
185.467606 236.0
185.490051 80.0
185.595795 196.0
185.617477 52.0
185.662598 132.0
185.725967 48.0
185.796494 76.0
185.93576 144.0
185.983734 60.0
186.057037 188.0
186.100037 2044.0
186.130341 268.0
186.171509 124.0
186.217239 68.0
186.365417 144.0
186.510696 132.0
186.578659 288.0
186.684708 164.0
186.76358 176.0
186.782608 80.0
186.807098 44.0
186.853348 40.0
186.872391 40.0
187.07338 184.0
187.111176 8168.0
187.155991 164.0
187.208313 88.0
187.248062 156.0
187.269852 40.0
187.327499 144.0
187.356125 148.0
187.436035 72.0
187.456055 80.0
187.522186 104.0
187.547775 104.0
187.599564 76.0
187.791641 212.0
187.850449 52.0
187.943207 40.0
188.030533 184.0
188.052368 148.0
188.082321 168.0
188.117157 1180.0
188.240753 180.0
188.278976 76.0
188.380035 96.0
188.407364 148.0
188.483871 84.0
188.56311 80.0
188.625977 32.0
188.709091 164.0
188.768158 104.0
188.80098 48.0
188.885757 116.0
188.932266 60.0
188.995193 148.0
189.089706 2112.0
189.122269 736.0
189.241547 36.0
189.38942 128.0
189.4086 32.0
189.447342 84.0
189.482559 160.0
189.519485 124.0
189.734711 52.0
189.869064 116.0
189.954102 72.0
190.085419 188.0
190.09166 560.0
190.135193 100.0
190.3246 92.0
190.382278 172.0
190.541595 152.0
190.802689 140.0
190.82193 40.0
191.034943 44.0
191.086105 812.0
191.134125 136.0
191.153381 160.0
191.185028 84.0
191.212555 28.0
191.427292 128.0
191.653168 64.0
191.719299 172.0
192.09201 1372.0
192.248795 48.0
192.276398 48.0
192.40889 72.0
192.517456 164.0
192.779022 248.0
192.961456 52.0
193.017792 96.0
193.10054 2060.0
193.167191 112.0
193.218674 212.0
193.243576 140.0
193.279541 152.0
193.348724 48.0
193.370865 60.0
193.393005 48.0
193.431763 240.0
193.459442 156.0
193.520355 52.0
193.650513 56.0
193.775162 48.0
193.808411 92.0
193.858292 36.0
193.933655 148.0
193.971924 96.0
194.007019 188.0
194.072128 512.0
194.107712 1056.0
194.179886 84.0
194.704437 112.0
194.9767 168.0
195.081207 3052.0
195.116394 1124.0
195.413284 72.0
195.557999 68.0
195.580261 80.0
195.750092 52.0
195.835754 140.0
195.869858 196.0
195.917206 120.0
196.087952 5140.0
196.124878 92.0
196.187531 40.0
196.279541 76.0
196.33017 308.0
196.625473 120.0
196.773422 156.0
196.840424 188.0
196.865555 140.0
196.91304 128.0
196.968903 236.0
197.017395 112.0
197.094147 3060.0
197.135345 504.0
197.198029 112.0
197.290268 96.0
197.393723 76.0
197.416092 144.0
197.516785 104.0
197.611908 168.0
197.928192 160.0
198.102585 2212.0
198.145035 220.0
198.191498 68.0
198.306396 60.0
198.350357 88.0
198.457779 144.0
198.536301 56.0
198.609222 116.0
198.668121 64.0
198.842102 160.0
199.041321 164.0
199.071182 304.0
199.112442 3552.0
199.291412 108.0
199.313889 152.0
199.493774 56.0
199.836884 160.0
199.929749 184.0
200.019806 136.0
200.089096 184.0
200.116745 484.0
200.414093 72.0
200.461945 208.0
200.59729 64.0
200.874832 76.0
201.092972 148.0
201.126663 988.0
201.16713 44.0
201.497543 92.0
201.542755 136.0
201.63884 112.0
201.689713 156.0
201.94136 140.0
202.030899 80.0
202.078903 232.0
202.121887 144.0
202.27243 40.0
202.504608 32.0
202.816284 192.0
202.85881 228.0
202.934219 204.0
202.966553 176.0
203.040283 112.0
203.084824 644.0
203.142838 448.0
203.193451 36.0
203.238861 40.0
203.275742 72.0
203.437531 152.0
203.482956 72.0
203.505661 184.0
203.602219 144.0
203.630615 164.0
203.707306 140.0
203.778336 236.0
203.89769 92.0
203.954529 112.0
204.090256 400.0
204.463654 204.0
204.617371 136.0
204.64299 64.0
204.697083 48.0
204.739807 40.0
204.759735 48.0
204.833801 36.0
204.870834 160.0
205.071045 200.0
205.101532 748.0
205.209991 92.0
205.26416 152.0
205.432434 144.0
205.709244 76.0
205.837738 180.0
205.866287 144.0
205.98053 152.0
206.037674 48.0
206.070526 172.0
206.110703 668.0
206.277725 180.0
206.377792 84.0
206.569412 208.0
206.721054 44.0
206.763977 156.0
207.08284 588.0
207.115723 1060.0
207.207825 184.0
207.81105 132.0
208.088364 2244.0
208.118408 432.0
208.173965 184.0
208.246262 160.0
208.346405 204.0
208.435883 84.0
208.54509 160.0
208.685944 128.0
208.743454 84.0
208.844116 64.0
208.962067 164.0
209.096725 6976.0
209.129883 920.0
209.186539 32.0
209.246994 160.0
209.353546 196.0
209.388107 36.0
209.469406 88.0
209.555176 96.0
209.723602 72.0
209.751144 60.0
209.779968 60.0
210.016434 32.0
210.057907 368.0
210.100494 3772.0
210.229935 52.0
210.258789 120.0
210.28476 132.0
210.316513 80.0
210.447372 148.0
210.615631 176.0
210.651474 160.0
210.703476 92.0
210.77861 184.0
210.798828 168.0
210.902878 48.0
210.94046 172.0
211.012726 60.0
211.038086 88.0
211.112473 11780.0
211.235413 188.0
211.273254 144.0
211.310242 60.0
211.391647 48.0
211.426376 68.0
211.571106 172.0
211.660858 80.0
211.68692 148.0
211.814362 148.0
211.854919 44.0
212.084854 200.0
212.115128 2416.0
212.315796 64.0
212.3564 72.0
212.681366 116.0
212.771362 68.0
212.849762 136.0
212.957214 248.0
213.089462 332.0
213.126831 3188.0
213.178009 152.0
213.224503 52.0
213.314621 60.0
213.340775 60.0
213.625778 124.0
213.651962 112.0
213.742157 140.0
213.835281 32.0
213.972092 108.0
214.041977 60.0
214.062363 76.0
214.131805 328.0
214.175949 40.0
214.301208 48.0
214.339096 144.0
214.371323 68.0
214.432358 92.0
214.715164 124.0
215.087372 288.0
215.10968 216.0
215.134216 100.0
215.15181 168.0
215.22876 68.0
215.41861 56.0
215.497482 36.0
215.553009 44.0
215.742996 96.0
216.089417 748.0
216.134918 48.0
216.175873 76.0
216.360275 96.0
216.421768 28.0
216.486191 92.0
216.509613 44.0
216.603348 72.0
216.691238 44.0
216.761551 92.0
216.852402 184.0
216.943283 92.0
217.048828 212.0
217.103226 1556.0
217.14267 80.0
217.204269 168.0
217.597519 132.0
217.688538 140.0
218.077942 172.0
218.107697 700.0
218.267441 136.0
218.385071 60.0
218.458618 72.0
218.493912 212.0
218.523331 52.0
218.552765 68.0
218.770554 96.0
218.912933 124.0
219.029694 136.0
219.078781 316.0
219.11467 1252.0
219.171112 96.0
219.398056 164.0
219.495361 40.0
219.539597 156.0
219.920181 56.0
219.979584 128.0
220.087006 800.0
220.122208 868.0
220.230209 80.0
220.262711 172.0
220.419296 32.0
220.468796 176.0
220.531601 160.0
220.697144 160.0
220.722626 104.0
220.981094 36.0
221.039917 236.0
221.095047 1784.0
221.128143 924.0
221.214905 36.0
221.647308 124.0
221.908783 168.0
221.952637 160.0
222.104095 4980.0
222.132523 280.0
222.163208 116.0
222.362015 108.0
222.388733 132.0
222.525284 100.0
222.679703 164.0
222.9263 40.0
223.006531 28.0
223.03923 68.0
223.07193 172.0
223.112 9116.0
223.145538 1128.0
223.217621 48.0
223.52327 64.0
223.593109 72.0
223.705566 100.0
223.735336 76.0
223.798935 64.0
223.845505 100.0
223.890182 52.0
224.009323 192.0
224.119614 5020.0
224.194839 60.0
224.365768 100.0
224.408676 84.0
224.486206 48.0
224.50708 80.0
224.542175 172.0
224.700974 172.0
224.748703 204.0
224.821777 172.0
225.126419 4604.0
225.19101 176.0
225.22937 76.0
225.289108 56.0
225.326706 68.0
225.357819 40.0
225.474365 76.0
225.53215 96.0
225.632797 116.0
225.725479 80.0
225.857086 36.0
226.131012 1072.0
226.179138 116.0
226.305984 64.0
226.459854 168.0
226.62648 124.0
226.674423 136.0
226.728363 116.0
226.914215 64.0
226.974182 44.0
227.104691 432.0
227.142212 1320.0
227.226135 80.0
227.304138 28.0
227.376175 120.0
227.49498 124.0
227.616333 92.0
227.677429 116.0
227.718445 100.0
227.856628 168.0
228.090317 480.0
228.118958 164.0
228.143494 336.0
228.292465 36.0
228.454895 160.0
228.509048 68.0
228.596313 52.0
228.770874 56.0
229.071899 192.0
229.077194 184.0
229.088806 140.0
229.112564 516.0
229.557281 144.0
229.744293 116.0
230.108124 176.0
230.1306 168.0
230.314819 44.0
230.904205 84.0
230.946548 36.0
231.077057 632.0
231.118484 320.0
231.137802 1032.0
231.300583 76.0
231.567047 72.0
232.085251 260.0
232.128616 296.0
232.17926 60.0
232.245987 136.0
232.701187 64.0
233.029221 76.0
233.095871 1100.0
233.130493 860.0
233.661621 140.0
233.722473 160.0
234.104279 988.0
234.133942 272.0
234.221756 68.0
234.334473 36.0
234.416748 56.0
234.541702 108.0
234.672806 188.0
234.758179 80.0
234.886276 136.0
234.947296 140.0
234.99176 164.0
235.048767 148.0
235.111984 3576.0
235.14682 1124.0
235.261627 148.0
235.722839 84.0
235.777847 52.0
236.068268 156.0
236.118576 3332.0
236.212021 172.0
236.616913 132.0
236.799713 48.0
236.943695 144.0
236.986588 164.0
237.032547 164.0
237.087051 656.0
237.126083 6364.0
237.357483 88.0
237.694901 36.0
237.863708 224.0
237.946594 72.0
238.096863 268.0
238.132919 2952.0
238.324387 96.0
238.518005 112.0
238.588699 120.0
239.062393 72.0
239.139603 2300.0
239.228592 100.0
239.397949 148.0
239.576599 168.0
239.616638 148.0
239.786133 40.0
240.014252 96.0
240.104523 232.0
240.15007 1080.0
240.37825 84.0
240.668411 140.0
240.730164 84.0
241.001999 60.0
241.099075 260.0
241.120407 324.0
241.158798 648.0
241.481171 80.0
241.502823 112.0
241.926758 108.0
242.109436 172.0
242.162033 192.0
242.26741 172.0
242.475021 68.0
242.822266 56.0
243.088501 188.0
243.096237 128.0
243.117416 420.0
243.139587 200.0
243.424332 32.0
243.57341 84.0
243.95253 52.0
244.089325 192.0
244.110001 148.0
244.13356 140.0
244.415955 44.0
244.608917 68.0
244.674286 104.0
245.010635 84.0
245.095352 748.0
245.132477 408.0
245.287994 72.0
245.599823 52.0
245.871262 168.0
245.911835 184.0
246.102783 468.0
246.380234 44.0
246.403214 56.0
246.523972 100.0
247.039536 168.0
247.108292 1752.0
247.149048 604.0
247.21196 120.0
247.443588 56.0
247.784225 176.0
248.079575 172.0
248.119537 964.0
248.2677 196.0
248.330841 208.0
248.42453 140.0
248.942413 124.0
249.020935 164.0
249.087662 196.0
249.126251 2748.0
249.357941 92.0
249.423126 188.0
249.838226 88.0
249.964081 88.0
250.069916 184.0
250.093872 268.0
250.133926 1816.0
250.212738 188.0
250.458374 132.0
250.608658 256.0
250.811295 72.0
250.864883 288.0
250.946854 140.0
251.021759 116.0
251.142975 6984.0
251.22438 60.0
251.278015 44.0
251.694656 48.0
251.719925 68.0
251.969452 144.0
252.047073 92.0
252.145462 1548.0
252.219803 36.0
252.374008 72.0
252.560608 60.0
252.924484 156.0
252.994141 40.0
253.085953 44.0
253.120224 320.0
253.157242 5020.0
253.266464 72.0
253.405853 52.0
253.469223 168.0
253.615005 28.0
253.649887 36.0
253.725967 36.0
253.754501 204.0
253.798889 64.0
253.863998 68.0
253.913055 128.0
253.957458 68.0
254.099411 128.0
254.123581 268.0
254.156738 2292.0
254.249344 68.0
254.38266 76.0
254.592224 32.0
254.614441 100.0
254.662094 44.0
254.6875 56.0
254.730255 104.0
254.890823 92.0
255.084702 100.0
255.116318 148.0
255.141922 308.0
255.170242 640.0
255.319992 40.0
255.399506 104.0
255.545853 68.0
256.052002 40.0
256.096588 160.0
256.132812 260.0
256.182587 204.0
256.239929 176.0
256.858398 120.0
257.094513 228.0
257.128174 396.0
257.171112 232.0
257.353088 136.0
257.758728 68.0
257.960083 44.0
258.103119 544.0
258.238281 224.0
258.88797 128.0
259.11438 972.0
259.151306 232.0
259.227539 28.0
260.120117 800.0
260.369629 60.0
260.690887 80.0
261.057373 132.0
261.127289 2288.0
261.171875 212.0
261.237488 40.0
261.287933 248.0
261.334015 128.0
261.511017 60.0
261.568939 136.0
261.816864 52.0
261.907043 100.0
262.003693 204.0
262.133362 852.0
262.177704 156.0
262.532318 136.0
262.816193 32.0
263.022736 136.0
263.071167 120.0
263.143433 2116.0
263.18277 836.0
263.394073 84.0
263.429626 44.0
263.474854 44.0
263.587921 92.0
263.818848 148.0
263.873413 88.0
264.026245 116.0
264.111542 824.0
264.143494 1100.0
264.18045 532.0
264.289612 108.0
264.318726 96.0
264.3414 48.0
264.490265 168.0
264.516174 84.0
264.55954 120.0
264.84491 76.0
264.88208 148.0
264.946869 152.0
264.985748 136.0
265.014923 100.0
265.037598 68.0
265.070007 148.0
265.158264 5652.0
265.200653 140.0
265.30011 244.0
265.329315 144.0
265.468719 48.0
265.621155 52.0
265.702271 108.0
265.747681 56.0
266.160706 2180.0
266.312561 100.0
266.484741 60.0
266.61795 108.0
266.663452 72.0
266.790222 72.0
266.812988 68.0
266.943054 140.0
267.137085 520.0
267.291138 60.0
267.463623 112.0
267.808777 116.0
267.942322 48.0
267.965118 52.0
267.991211 112.0
268.105255 112.0
268.1521 356.0
268.444305 92.0
268.819427 84.0
269.11554 164.0
269.153687 212.0
269.364685 92.0
269.407166 104.0
269.583588 112.0
269.917023 100.0
270.132416 292.0
270.221222 48.0
270.744965 80.0
271.108612 104.0
271.142853 308.0
272.121155 312.0
272.795715 136.0
273.129333 1284.0
273.176819 180.0
273.940918 196.0
274.129364 896.0
274.323181 84.0
274.748596 96.0
274.979584 236.0
275.148315 732.0
275.184265 200.0
275.227173 104.0
275.967316 140.0
276.143768 248.0
276.195526 148.0
276.556183 76.0
276.8078 96.0
276.980011 68.0
277.119995 392.0
277.15921 980.0
277.190918 188.0
277.24176 176.0
277.284851 148.0
277.36441 40.0
278.16568 796.0
278.499207 172.0
278.808197 44.0
278.838104 52.0
279.024261 172.0
279.13913 1212.0
279.172943 2620.0
279.240417 180.0
279.300293 72.0
279.360168 80.0
279.412415 184.0
279.896667 60.0
280.179962 5168.0
280.242432 56.0
280.342407 44.0
280.699097 156.0
280.767578 64.0
280.809143 28.0
281.187073 1452.0
281.483276 160.0
281.847382 120.0
282.158844 132.0
282.193481 472.0
282.325409 88.0
282.40567 60.0
282.435791 44.0
283.115204 148.0
283.153839 128.0
283.239136 40.0
283.909485 144.0
284.013458 92.0
284.080536 96.0
284.115967 72.0
284.231537 84.0
284.980316 68.0
285.162842 148.0
285.25589 96.0
286.096924 84.0
286.247894 128.0
286.952667 92.0
287.003235 116.0
287.147583 200.0
287.350647 156.0
287.610504 48.0
288.149384 972.0
289.154663 344.0
289.344696 80.0
289.744354 52.0
290.160095 580.0
290.890594 124.0
290.951721 64.0
291.128784 220.0
291.173065 1052.0
291.379639 56.0
292.148438 88.0
292.179382 160.0
292.692566 44.0
293.152466 556.0
293.190582 1056.0
293.258087 28.0
293.622894 68.0
294.1604 436.0
294.19278 536.0
294.732361 212.0
294.947693 56.0
295.165771 96.0
295.556427 120.0
296.059662 80.0
296.234344 48.0
296.357666 48.0
296.789551 52.0
297.148956 1040.0
297.184753 172.0
297.458557 96.0
298.151978 136.0
298.540863 104.0
298.960571 116.0
299.20105 120.0
299.377136 132.0
299.632019 76.0
299.818085 72.0
301.167145 180.0
301.263855 36.0
301.495361 60.0
301.930969 124.0
302.197327 32.0
302.370361 80.0
303.173767 1456.0
303.341858 104.0
303.371399 80.0
303.569031 48.0
303.86734 104.0
303.947144 84.0
304.085968 152.0
304.178101 600.0
305.165222 116.0
305.837769 72.0
306.149292 212.0
307.164246 188.0
308.177216 232.0
308.359528 32.0
308.485382 60.0
308.967987 60.0
309.184387 844.0
309.577026 48.0
310.192169 112.0
310.239258 168.0
311.105774 80.0
311.161987 232.0
311.207184 580.0
312.107117 44.0
312.180939 48.0
312.205566 208.0
312.384949 44.0
312.444763 72.0
312.775543 60.0
312.842438 116.0
313.20163 128.0
313.416534 100.0
314.156921 44.0
314.375671 72.0
314.449799 36.0
315.152557 144.0
318.887726 120.0
319.189911 188.0
320.079529 144.0
321.186188 580.0
322.191132 168.0
323.156372 140.0
325.170319 120.0
326.172424 156.0
327.194122 144.0
328.336395 104.0
329.224182 176.0
330.16745 64.0
330.406189 64.0
334.426941 60.0
337.041779 148.0
339.157135 56.0
339.196259 292.0
339.31842 68.0
339.373413 80.0
339.564117 80.0
340.18338 228.0
340.212311 240.0
341.198181 304.0
342.58194 104.0
343.145813 28.0
345.528046 56.0
346.131348 140.0
346.372101 88.0
348.350037 96.0
352.103882 68.0
353.34491 140.0
354.400757 64.0
356.145233 164.0
357.141296 144.0
357.209351 324.0
357.265442 168.0
358.214111 156.0
363.093872 76.0
365.863953 88.0
366.324738 108.0
370.347076 112.0
372.437561 56.0
373.217712 204.0
374.888367 124.0
375.246826 80.0
377.211884 96.0
378.117004 40.0
381.802704 40.0
382.273438 96.0
382.331787 76.0
382.775604 72.0
385.033569 136.0
386.350861 88.0
386.867432 84.0
398.939484 108.0
398.971313 108.0
401.260529 124.0
401.364197 136.0
403.012726 76.0
405.429718 112.0
408.489288 124.0
412.323853 64.0
416.858765 60.0
418.265991 72.0
421.026306 28.0
423.209991 112.0
423.29187 80.0
426.228943 56.0
427.038849 52.0
436.077271 48.0
437.096191 80.0
442.124817 40.0
442.288025 64.0
442.677399 44.0
445.201965 52.0
445.82373 100.0
449.825073 36.0
451.434845 72.0
459.522583 116.0
464.352234 56.0
476.126251 76.0
479.140717 60.0
480.117126 100.0
483.275421 52.0
503.37558 76.0
506.869232 60.0
509.426636 128.0
510.464874 56.0
514.059692 72.0
514.506592 104.0
516.078857 48.0
516.617065 60.0
520.524048 140.0
529.874695 100.0
529.957153 92.0
541.770386 64.0
545.789795 48.0
548.904968 100.0
550.295471 60.0
552.529541 72.0
552.988159 88.0
553.123901 112.0
556.353821 68.0
557.086426 104.0
566.512085 64.0
567.09491 52.0
567.858276 92.0
571.777954 68.0
583.233337 84.0
593.070618 76.0
598.721191 92.0
604.295837 44.0
607.127197 100.0
616.866455 72.0
617.014771 60.0
617.593384 88.0
637.617493 108.0
639.523682 84.0
642.532166 60.0
644.026428 80.0
647.339111 76.0
656.144775 32.0
660.490662 84.0
663.640259 44.0
674.528992 64.0
675.542603 176.0
688.036133 60.0
697.229126 56.0
698.175415 208.0
701.381897 100.0
702.795288 56.0
710.785339 56.0
714.440857 40.0
721.475159 68.0
727.325012 80.0
731.071167 68.0
751.549561 92.0
753.537048 176.0
758.709045 68.0
768.808044 52.0
775.932617 216.0
783.26825 224.0
787.323181 248.0
819.126221 80.0
833.364929 132.0
835.906494 68.0
838.803528 200.0
841.745972 112.0
843.06311 200.0
849.379883 180.0
852.398926 80.0
861.570007 176.0
863.692078 164.0
864.675049 200.0
865.131592 144.0
881.94989 72.0
882.753967 220.0
885.713196 124.0
894.215942 100.0
904.290894 100.0
905.200867 132.0
905.566223 164.0
912.755859 40.0
919.804871 216.0
921.242126 188.0
923.817444 36.0
937.022095 168.0
947.659363 152.0
962.236328 196.0
963.483887 192.0
963.99054 136.0
968.445068 164.0
970.409546 160.0
973.251343 172.0
974.897461 240.0
978.667175 220.0
980.149658 160.0
981.111267 140.0
982.824646 156.0
983.355103 216.0
983.748352 148.0
983.867004 116.0
988.016785 56.0
994.979675 52.0
997.102844 128.0
1000.600342 52.0
1006.148438 164.0
1009.883118 172.0
1010.578979 152.0
1011.351074 44.0
1011.642273 144.0
1017.576355 196.0
1017.652527 112.0
1018.814819 96.0
1023.152161 200.0
1031.387817 112.0
1032.308472 96.0
1037.918091 160.0
1039.823364 160.0
1041.524902 36.0
1042.064575 92.0
1043.787109 284.0
1045.923096 228.0
1048.112793 228.0
1048.873291 172.0
1050.085571 148.0
1053.810303 144.0
1053.991211 160.0
1056.985229 204.0
1061.020386 216.0
1061.552124 36.0
1064.485229 168.0
1070.370361 164.0
1071.256104 60.0
1072.689697 208.0
1073.80481 172.0
1074.763672 180.0
1078.806519 84.0
1079.604248 132.0
1081.920654 188.0
1083.36792 96.0
1083.990356 76.0
1086.167114 128.0
1086.46228 128.0
1086.882202 208.0
1090.44812 132.0
1094.520386 100.0
1094.908936 124.0
1098.507812 52.0
1100.983032 184.0
1103.011475 204.0
1103.090698 172.0
1103.414673 120.0
1105.577759 168.0
1106.616943 212.0
1107.391724 156.0
1107.762695 156.0
1109.273682 180.0
1112.391479 132.0
1117.216064 220.0
1118.600342 36.0
1121.02478 144.0
1121.238037 112.0
1125.654297 80.0
1126.202026 224.0
1127.832397 172.0
1130.467529 120.0
1130.782104 44.0
1132.322021 108.0
1135.653076 172.0
1136.558716 196.0
1137.713257 220.0
1138.868164 184.0
1139.788574 40.0
1140.151489 156.0
1141.529663 168.0
1142.141724 168.0
1143.568115 36.0
1143.985474 236.0
1145.298584 120.0
1145.985718 56.0
1149.026489 152.0
1150.335815 48.0
1151.990234 168.0
1152.301025 244.0
1154.930786 132.0
1155.032227 168.0
1155.113403 108.0
1159.453613 148.0
1163.876587 168.0
1165.275879 120.0
1166.369995 220.0
1171.187622 184.0
1172.809326 156.0
1173.259155 228.0
1173.900146 160.0
1174.595825 32.0
1175.892212 124.0
1180.852539 148.0
1181.180908 180.0
1181.782959 96.0
1184.651611 208.0
1186.17981 156.0
1187.15332 192.0
1187.365967 76.0
1187.990112 56.0
1188.436157 160.0
1188.799805 252.0
1189.756592 180.0
1192.206055 112.0
1193.237183 212.0
1194.502563 208.0
1197.179932 128.0
1197.737793 172.0
1197.792969 140.0
1198.082275 140.0
1198.812622 44.0
1200.024414 172.0
1200.474121 220.0
1200.584351 140.0
1201.488037 168.0
1205.306274 184.0
1205.810669 148.0
1206.190918 148.0
1206.944458 132.0
1207.075806 208.0
1208.493896 172.0
1209.545776 116.0
1212.07373 176.0
1213.099487 212.0
1213.342163 148.0
1213.869141 92.0
1215.096802 140.0
1215.256348 192.0
1215.540894 172.0
1217.019409 160.0
1217.873657 100.0
1218.095947 56.0
1220.159912 212.0
1220.883057 136.0
1224.188721 128.0
1225.219604 116.0
1226.216064 136.0
1227.66626 216.0
1228.607788 132.0
1231.169556 160.0
1232.713501 164.0
1233.726929 104.0
1233.936646 136.0
1234.51709 136.0
1235.741211 216.0
1235.930054 140.0
1240.854126 128.0
1241.681519 208.0
1243.007446 136.0
1243.26709 232.0
1245.963501 180.0
1246.399048 172.0
1246.532593 192.0
1248.585449 156.0
1249.591309 172.0
1249.957153 128.0
1250.632812 40.0
1252.519897 180.0
1257.1875 232.0
1260.004883 248.0
1260.372314 180.0
1260.958862 144.0
1262.372803 108.0
1264.75 144.0
1265.415405 200.0
1266.35022 184.0
1266.739746 176.0
1266.91687 232.0
1267.356201 136.0
1269.80896 144.0
1271.767334 168.0
1272.022827 144.0
1273.169312 128.0
1273.251221 128.0
1273.677368 272.0
1275.595947 208.0
1276.10791 96.0
1277.985596 32.0
1279.373413 152.0
1279.750854 132.0
1280.968628 184.0
1281.139648 188.0
1281.524414 188.0
1282.044556 164.0
1282.115845 36.0
1284.090698 232.0
1284.31897 140.0
1284.575806 124.0
1285.103638 156.0
1286.602539 148.0
1287.045166 228.0
1287.587891 112.0
1289.166748 104.0
1291.147095 220.0
1291.211426 208.0
1291.883789 112.0
1292.177124 252.0
1292.234375 156.0
1293.114624 168.0
1294.926025 168.0
1296.717285 168.0
1299.406372 132.0
1301.674561 180.0
1301.961792 132.0
1302.493286 48.0
1303.261963 188.0
1303.376953 120.0
1303.829712 140.0
1305.05896 104.0
1305.310669 116.0
1305.389771 128.0
1308.721436 124.0
1308.771851 164.0
1309.419922 240.0
1309.996216 120.0
1310.363647 168.0
1313.679932 128.0
1314.516846 76.0
1315.512939 124.0
1315.917236 132.0
1317.845703 168.0
1318.228638 192.0
1318.568359 208.0
1318.92981 176.0
1319.790039 176.0
1320.432983 152.0
1320.723022 140.0
1322.817749 224.0
1323.183472 156.0
1323.646851 100.0
1324.631836 156.0
1327.342529 212.0
1327.639893 192.0
1328.183838 168.0
1328.343384 36.0
1329.576904 60.0
1330.4552 136.0
1331.00708 164.0
1331.370117 124.0
1331.929443 160.0
1332.081909 180.0
1332.561401 268.0
1334.582031 168.0
1334.822021 112.0
1335.6875 136.0
1336.254883 188.0
1338.992065 80.0
1340.572876 56.0
1343.883423 88.0
1344.642456 164.0
1344.70813 104.0
1346.445801 176.0
1346.511475 128.0
1346.745239 224.0
1347.073975 204.0
1347.351562 100.0
1347.461182 100.0
1348.338013 160.0
1349.814697 236.0
1350.575317 180.0
1350.67041 160.0
1352.17041 188.0
1352.902344 172.0
1353.378296 144.0
1353.641846 204.0
1354.564697 160.0
1355.099609 248.0
1355.480591 116.0
1356.352783 176.0
1356.492065 220.0
1357.10791 172.0
1357.203125 32.0
1357.929199 180.0
1358.912231 148.0
1359.007568 92.0
1360.98938 152.0
1361.268433 284.0
1361.319824 96.0
1361.74585 132.0
1362.061646 124.0
1363.487061 132.0
1364.935303 72.0
1365.678101 152.0
1365.913452 172.0
1366.369629 168.0
1366.840454 188.0
1367.333618 168.0
1367.701538 136.0
1370.013916 120.0
1370.352783 196.0
1371.819336 84.0
1372.011108 152.0
1372.586182 40.0
1373.065552 176.0
1374.216309 112.0
1374.297485 128.0
1374.703369 100.0
1376.024658 188.0
1376.519287 164.0
1376.969849 128.0
1378.51062 128.0
1378.646851 172.0
1380.080933 164.0
1380.398926 68.0
1381.31604 64.0
1382.078125 160.0
1383.854492 168.0
1384.454346 140.0
1384.550537 160.0
1386.550903 120.0
1388.997803 36.0
1389.131348 388.0
1389.902954 112.0
1390.400146 56.0
1390.845459 128.0
1396.351196 156.0
1396.842163 208.0
1397.3927 152.0
1397.474487 172.0
1397.653076 144.0
1399.283203 184.0
1400.109741 136.0
1402.009521 112.0
1402.53125 244.0
1402.903931 76.0
1403.798706 180.0
1403.910522 180.0
1404.223755 152.0
1404.939941 208.0
1406.910156 100.0
1409.509277 192.0
1410.772461 248.0
1410.832275 176.0
1411.632324 216.0
1412.178223 168.0
1413.652954 208.0
1413.779419 252.0
1413.839233 56.0
1414.205933 120.0
1415.620972 168.0
1415.890625 164.0
1418.408081 292.0
1419.225342 200.0
1419.675293 136.0
1419.832764 128.0
1419.937744 144.0
1419.990234 92.0
1420.207764 172.0
1420.852905 156.0
1421.760864 216.0
1422.473877 180.0
1422.751709 124.0
1423.14209 176.0
1423.28479 172.0
1423.96814 180.0
1424.125854 164.0
1424.294189 160.0
1425.004761 180.0
1425.170166 124.0
1425.545776 120.0
1427.09436 152.0
1429.162842 80.0
1429.689575 160.0
1430.51001 152.0
1430.741577 240.0
1432.69397 136.0
1434.766479 148.0
1435.535522 108.0
1436.236938 152.0
1436.4104 180.0
1436.515991 160.0
1437.693115 180.0
1438.177368 196.0
1439.890015 196.0
1441.506836 132.0
1441.680542 164.0
1441.741089 132.0
1442.073608 160.0
1443.585693 156.0
1445.24231 120.0
1445.590332 144.0
1446.029297 160.0
1446.097412 112.0
1446.218506 144.0
1446.445679 212.0
1446.566772 172.0
1447.831177 176.0
1447.967529 172.0
1449.15686 204.0
1450.02832 184.0
1451.741699 72.0
1451.870605 64.0
1453.129883 152.0
1453.327148 180.0
1454.237793 156.0
1454.404785 156.0
1455.680298 128.0
1456.234741 184.0
1456.652466 152.0
1457.845337 196.0
1458.879028 144.0
1459.479736 148.0
1459.844727 172.0
1461.03125 88.0
1461.662842 148.0
1462.827271 188.0
1464.045532 168.0
1464.456787 192.0
1466.910522 140.0
1467.715332 260.0
1468.14563 92.0
1468.473633 128.0
1468.99231 104.0
1469.152466 216.0
1470.861938 144.0
1470.96875 108.0
1473.580688 196.0
1474.726929 172.0
1474.948608 192.0
1476.906128 180.0
1479.30127 156.0
1480.181763 148.0
1481.116089 304.0
1481.208008 172.0
1481.560425 140.0
1482.058472 180.0
1482.840088 168.0
1483.169678 64.0
1484.17395 148.0
1484.595703 116.0
1485.408813 152.0
1486.367798 160.0
1486.452271 188.0
1487.281128 144.0
1487.680298 104.0
1488.724487 176.0
1488.786011 196.0
1488.893433 256.0
1490.614258 376.0
1491.359741 212.0
1492.051636 156.0
1492.805176 148.0
1493.128174 116.0
1497.738647 292.0
1497.992798 212.0
1498.447388 172.0
1499.757446 108.0
1501.577026 164.0
1501.700439 176.0
1502.633911 128.0
1503.891724 68.0
1504.964844 128.0
1505.335449 240.0
