>compound MLS001141191-01!
>formula C24H30N4O3
>ionization [M+H]+
>parentmass 423.24
#inchi InChI=1S/C24H30N4O3/c1-15(2)22(23(30)25-19-7-4-6-16(3)10-19)26-24(31)27-12-17-11-18(14-27)20-8-5-9-21(29)28(20)13-17/h4-10,15,17-18,22H,11-14H2,1-3H3,(H,25,30)(H,26,31)/t17-,18+,22+/m1/s1
#inchikey YFZBJVTZUSFVJF
#Ion_Source LC-ESI
#Instrument qTof
#Compound_Source NIH Natural Product Library
#PI Dorrestein
#Data_Collector VVP/LMS
#Scan -1
#Precursor_MZ 423.24
#ExactMass 422.232
#Charge 1
#CAS_Number N/A
#Pubmed_ID N/A
#Smiles CC(C)[C@H](NC(=O)N1C[C@H]2C[C@@H](C1)c3cccc(=O)n3C2)C(=O)Nc4cccc(C)c4
#INCHI_AUX N/A
#Library_Class 1
#SpectrumID CCMSLIB00000080333
#IonMode Positive
#UpdateWorkflowName UPDATE-SINGLE-ANNOTATED-GOLD
#LibraryQualityString Gold
#TaskID b1d8e8f6646f4e71acdff9ca3d919d08
##Scan# 1821
#SpectrumFile p2-D07_GD7_01_18019.mzXML
#LibraryName NIH_Natural_Products_Library.mgf
#MQScore -1
#Organism NIH_Natural_Products_Library
#TIC_Query 0
#RT_Query -1
#MZErrorPPM -1
#SharedPeaks 0
#MassDiff 0
#LibMZ -1
#SpecMZ 423.24
#SpecCharge 0
#internalFilename spec-00000.mgf

>collision 10
94.952133 84.0
94.965706 140.0
95.010323 236.0
95.025841 92.0
95.046051 224.0
95.05883 196.0
95.085999 176.0
95.148109 48.0
95.190826 52.0
95.235497 124.0
95.249092 228.0
95.299599 204.0
95.313202 248.0
95.358536 244.0
95.381226 148.0
95.425934 152.0
95.502655 220.0
95.541977 144.0
95.556503 152.0
95.573753 92.0
95.593208 212.0
95.632133 204.0
95.680801 204.0
95.700264 80.0
95.713898 140.0
95.735313 164.0
95.7509 80.0
95.789848 176.0
95.811279 96.0
95.836609 208.0
95.85656 116.0
95.919479 140.0
95.96109 180.0
95.978897 180.0
96.017075 180.0
96.045029 556.0
96.074463 96.0
96.101776 140.0
96.199356 52.0
96.237267 184.0
96.274551 140.0
96.296982 104.0
96.329308 160.0
96.35363 160.0
96.410294 152.0
96.425934 148.0
96.448746 536.0
96.49826 80.0
96.525627 344.0
96.573692 104.0
96.613647 84.0
96.664062 176.0
96.697784 176.0
96.72036 172.0
96.727142 92.0
96.735428 172.0
96.767761 176.0
96.788712 200.0
96.807411 112.0
96.830917 140.0
96.862251 164.0
96.897514 176.0
96.927605 212.0
96.991577 168.0
97.022942 120.0
97.046608 156.0
97.093529 204.0
97.152374 136.0
97.181854 140.0
97.211098 184.0
97.249657 304.0
97.287781 108.0
97.32312 92.0
97.336868 148.0
97.358467 192.0
97.378105 248.0
97.399712 176.0
97.423698 208.0
97.445549 132.0
97.478294 132.0
97.517944 204.0
97.556915 200.0
97.585266 132.0
97.609993 148.0
97.635559 116.0
97.660561 248.0
97.676865 120.0
97.712753 360.0
97.735062 220.0
97.75238 172.0
97.771301 124.0
97.825211 176.0
97.87957 52.0
97.923851 116.0
97.948502 168.0
97.964264 152.0
97.985931 124.0
98.01683 144.0
98.033218 196.0
98.061996 180.0
98.098259 128.0
98.114029 168.0
98.196846 184.0
98.341637 220.0
98.370483 156.0
98.386276 176.0
98.402069 88.0
98.433723 128.0
98.451439 132.0
98.478813 232.0
98.51226 176.0
98.546249 176.0
98.568954 188.0
98.604996 148.0
98.632484 216.0
98.662857 88.0
98.696465 180.0
98.743927 220.0
98.75975 176.0
98.795166 128.0
98.834923 160.0
98.880188 64.0
98.946518 156.0
98.993279 240.0
99.053436 128.0
99.088348 104.0
99.146873 248.0
99.154526 172.0
99.203293 212.0
99.250877 156.0
99.267578 164.0
99.372925 156.0
99.395676 184.0
99.417503 164.0
99.456909 164.0
99.498695 172.0
99.519043 232.0
99.536606 144.0
99.603645 148.0
99.611214 92.0
99.61911 200.0
99.659332 224.0
99.675652 148.0
99.699501 180.0
99.713409 60.0
99.73925 100.0
99.757141 180.0
99.777016 64.0
99.810814 148.0
99.876442 108.0
99.928307 168.0
99.965111 120.0
99.979904 132.0
100.040184 112.0
100.061516 148.0
100.07943 80.0
100.11129 160.0
100.153114 268.0
100.20491 176.0
100.234482 128.0
100.259544 188.0
100.303467 228.0
100.347282 184.0
100.37233 192.0
100.420319 128.0
100.440262 128.0
100.462082 128.0
100.476845 204.0
100.508751 236.0
100.527924 188.0
100.548203 172.0
100.565842 112.0
100.595467 176.0
100.641701 168.0
100.655678 164.0
100.691628 148.0
100.711594 156.0
100.758949 176.0
100.819016 104.0
100.862038 164.0
100.903435 56.0
100.918182 212.0
100.939423 100.0
100.959419 200.0
101.00676 472.0
101.055191 424.0
101.109459 144.0
101.143486 180.0
101.16861 80.0
101.199539 176.0
101.215561 444.0
101.237587 132.0
101.255608 152.0
101.309135 144.0
101.337738 44.0
101.36779 152.0
101.395851 160.0
101.421906 148.0
101.444893 240.0
101.46801 116.0
101.526161 104.0
101.599197 164.0
101.621475 172.0
101.638496 120.0
101.65995 164.0
101.68264 220.0
101.704636 188.0
101.756584 148.0
101.783012 160.0
101.833221 116.0
101.899506 148.0
101.999985 176.0
102.044632 232.0
102.064705 148.0
102.082649 140.0
102.107498 196.0
102.142754 148.0
102.168907 176.0
102.239326 128.0
102.255569 112.0
102.285622 112.0
102.326126 196.0
102.364395 124.0
102.382263 168.0
102.452133 132.0
102.558281 120.0
102.579712 188.0
102.616791 112.0
102.655388 124.0
102.736336 192.0
102.761215 220.0
102.78154 160.0
102.802544 224.0
102.820488 172.0
102.897766 176.0
102.92997 92.0
103.005486 192.0
103.062729 168.0
103.092361 152.0
103.106514 76.0
103.150978 112.0
103.165123 148.0
103.185669 200.0
103.213646 32.0
103.23185 232.0
103.24839 112.0
103.300613 68.0
103.35704 132.0
103.373993 164.0
103.399757 112.0
103.417839 236.0
103.442261 112.0
103.466553 216.0
103.531837 200.0
103.549576 196.0
103.563751 176.0
103.584007 208.0
103.610344 148.0
103.658974 116.0
103.710205 124.0
103.733963 192.0
103.760315 168.0
103.778511 156.0
103.802895 68.0
103.817085 100.0
103.858337 172.0
103.873878 140.0
103.894363 160.0
103.927826 196.0
103.985474 104.0
104.027657 92.0
104.047646 440.0
104.082916 116.0
104.14048 172.0
104.160088 128.0
104.178368 292.0
104.237289 152.0
104.296402 188.0
104.334282 200.0
104.35218 84.0
104.39991 160.0
104.426743 208.0
104.452988 128.0
104.503654 140.0
104.587151 152.0
104.601334 184.0
104.643112 192.0
104.666481 88.0
104.683357 112.0
104.727577 208.0
104.740913 140.0
104.83963 72.0
104.85936 188.0
104.886505 96.0
104.910973 224.0
104.972008 188.0
104.983147 200.0
105.027199 184.0
105.058266 312.0
105.094521 188.0
105.124741 172.0
105.146667 108.0
105.219017 156.0
105.237129 124.0
105.284363 196.0
105.309677 152.0
105.364021 408.0
105.396713 200.0
105.426384 184.0
105.524338 172.0
105.584778 116.0
105.637955 148.0
105.74707 184.0
105.77343 172.0
105.796532 100.0
105.826233 48.0
105.894012 288.0
105.928635 132.0
105.971657 144.0
106.02903 124.0
106.048279 132.0
106.063286 1420.0
106.137672 144.0
106.159515 92.0
106.206932 228.0
106.236336 152.0
106.307495 112.0
106.371559 160.0
106.405754 92.0
106.449097 288.0
106.578979 96.0
106.645531 188.0
106.665436 196.0
106.710526 172.0
106.757812 192.0
106.817459 168.0
106.833916 92.0
106.856117 92.0
106.869293 164.0
106.919846 184.0
106.951599 168.0
106.973846 104.0
106.996704 156.0
107.012962 180.0
107.035614 176.0
107.052086 144.0
107.070282 480.0
107.089157 168.0
107.115936 60.0
107.142715 192.0
107.169495 52.0
107.231316 88.0
107.25811 156.0
107.286972 104.0
107.303101 224.0
107.350891 200.0
107.387001 176.0
107.402451 100.0
107.424553 140.0
107.474312 120.0
107.511795 124.0
107.530373 60.0
107.551758 308.0
107.579575 260.0
107.600555 108.0
107.63678 44.0
107.66375 204.0
107.7351 188.0
107.778175 128.0
107.796776 200.0
107.837685 176.0
107.883583 164.0
107.908386 144.0
107.956795 68.0
108.045883 1124.0
108.080879 880.0
108.110062 144.0
108.135933 180.0
108.156631 112.0
108.212524 132.0
108.243584 136.0
108.307777 180.0
108.405151 168.0
108.458549 272.0
108.4786 136.0
108.524857 192.0
108.558594 220.0
108.579018 212.0
108.61248 152.0
108.633217 200.0
108.651894 160.0
108.674713 124.0
108.72451 128.0
108.761871 164.0
108.851074 184.0
108.886444 292.0
108.975769 208.0
108.992393 156.0
109.016701 160.0
109.051582 704.0
109.084213 292.0
109.123337 112.0
109.158684 136.0
109.194031 64.0
109.221077 128.0
109.247223 112.0
109.264755 168.0
109.350075 220.0
109.392365 188.0
109.472733 160.0
109.499977 172.0
109.595795 132.0
109.61483 60.0
109.639557 200.0
109.660919 96.0
109.718765 92.0
109.735443 208.0
109.767281 164.0
109.788651 164.0
109.820938 28.0
109.844337 220.0
109.860573 192.0
109.877846 176.0
109.891869 148.0
109.923615 204.0
109.950294 28.0
110.006645 180.0
110.057938 448.0
110.090164 384.0
110.106873 172.0
110.14238 160.0
110.169533 136.0
110.219673 84.0
110.234299 140.0
110.2696 140.0
110.273643 136.0
110.317902 196.0
110.404388 188.0
110.439186 220.0
110.470001 180.0
110.524956 160.0
110.550064 340.0
110.595703 352.0
110.614784 176.0
110.654724 256.0
110.688004 152.0
110.722733 100.0
110.763313 164.0
110.771339 140.0
110.790848 124.0
110.820862 196.0
110.851608 124.0
110.872566 204.0
110.927063 168.0
110.952217 80.0
111.000443 56.0
111.015121 204.0
111.071892 176.0
111.119232 140.0
111.178307 172.0
111.236816 164.0
111.264809 60.0
111.285797 124.0
111.325699 148.0
111.359299 180.0
111.392906 192.0
111.443329 228.0
111.474846 136.0
111.501289 168.0
111.516029 140.0
111.552605 68.0
111.576859 112.0
111.611473 156.0
111.634605 80.0
111.670357 80.0
111.687187 136.0
111.708893 200.0
111.729256 212.0
111.807106 172.0
111.821838 148.0
111.878807 128.0
111.946045 132.0
111.960793 204.0
112.003281 160.0
112.023979 128.0
112.045044 60.0
112.059792 148.0
112.080864 388.0
112.108253 40.0
112.194672 140.0
112.211243 144.0
112.226295 236.0
112.268303 156.0
112.297997 132.0
112.321617 160.0
112.41539 216.0
112.423737 140.0
112.449905 172.0
112.549118 112.0
112.570236 136.0
112.593002 128.0
112.623032 124.0
112.639931 172.0
112.665535 164.0
112.703011 140.0
112.728668 196.0
112.766708 176.0
112.787842 164.0
112.844917 136.0
112.860909 256.0
112.887207 80.0
112.913445 228.0
112.970291 136.0
113.010719 144.0
113.034981 284.0
113.096657 156.0
113.115707 232.0
113.13839 168.0
113.166512 40.0
113.218231 132.0
113.28511 120.0
113.367744 232.0
113.399529 64.0
113.42878 180.0
113.437096 144.0
113.473724 136.0
113.497986 172.0
113.502403 76.0
113.513634 212.0
113.577637 116.0
113.617935 120.0
113.648949 128.0
113.690208 180.0
113.753754 160.0
113.78772 120.0
113.832306 172.0
113.879028 128.0
113.902084 164.0
113.968254 84.0
113.986481 204.0
114.042236 196.0
114.06601 328.0
114.125534 164.0
114.16581 144.0
114.203568 104.0
114.229408 200.0
114.272293 152.0
114.297874 164.0
114.343048 128.0
114.397858 92.0
114.423401 160.0
114.497925 64.0
114.514297 140.0
114.538391 124.0
114.553307 72.0
114.578873 156.0
114.593353 224.0
114.696075 228.0
114.743965 124.0
114.778244 128.0
114.798409 120.0
114.86026 152.0
114.934822 164.0
114.985321 156.0
115.055672 416.0
115.096474 240.0
115.1185 156.0
115.146263 196.0
115.219139 180.0
115.270828 168.0
115.291534 200.0
115.321457 220.0
115.370621 180.0
115.413383 88.0
115.441177 96.0
115.483948 96.0
115.498924 136.0
115.550262 80.0
115.627296 116.0
115.652977 160.0
115.695793 172.0
115.734329 92.0
115.767853 116.0
115.785721 116.0
115.815704 52.0
115.845695 196.0
115.865303 208.0
115.918541 148.0
115.969185 184.0
116.03186 124.0
116.048164 200.0
116.055244 184.0
116.061005 268.0
116.152229 36.0
116.225166 168.0
116.283112 124.0
116.308662 212.0
116.371124 180.0
116.418449 160.0
116.435539 164.0
116.458847 160.0
116.495636 196.0
116.583725 164.0
116.603355 180.0
116.626701 160.0
116.65255 144.0
116.674713 232.0
116.701996 124.0
116.736404 180.0
116.788017 160.0
116.871376 144.0
116.93647 244.0
116.977371 204.0
117.007507 160.0
117.026321 168.0
117.05658 936.0
117.088722 212.0
117.115181 80.0
117.136871 364.0
117.160416 120.0
117.184113 160.0
117.222893 120.0
117.249908 284.0
117.344032 108.0
117.386726 176.0
117.419067 316.0
117.438484 152.0
117.481621 176.0
117.516144 120.0
117.565773 156.0
117.598145 244.0
117.647789 196.0
117.697449 112.0
117.714722 160.0
117.77179 340.0
117.843201 316.0
117.875931 184.0
117.896179 200.0
117.911308 48.0
118.005234 168.0
118.027351 164.0
118.035301 112.0
118.043365 92.0
118.064194 688.0
118.097244 316.0
118.121033 132.0
118.146011 132.0
118.18161 128.0
118.214066 112.0
118.276833 160.0
118.337448 104.0
118.36776 120.0
118.385742 352.0
118.414871 164.0
118.430565 168.0
118.502045 48.0
118.60173 148.0
118.623405 144.0
118.679779 156.0
118.710129 172.0
118.790581 160.0
118.812073 180.0
118.84156 156.0
118.870659 104.0
118.931419 164.0
118.981346 112.0
119.00058 140.0
119.034172 212.0
119.073822 292.0
119.079567 276.0
119.089455 192.0
119.09462 244.0
119.201294 136.0
119.225388 204.0
119.248451 224.0
119.276787 196.0
119.332558 336.0
119.365036 204.0
119.433342 64.0
119.448563 176.0
119.524712 188.0
119.550819 172.0
119.628738 132.0
119.669601 176.0
119.70079 148.0
119.708153 132.0
119.733688 120.0
119.785965 92.0
119.8312 136.0
119.872429 140.0
119.901443 140.0
119.926704 332.0
119.949394 500.0
119.997353 164.0
120.040962 92.0
120.082397 344.0
120.097 284.0
120.124565 112.0
120.156654 92.0
120.187103 136.0
120.211105 168.0
120.239479 304.0
120.270576 176.0
120.277061 140.0
120.348625 152.0
120.378006 140.0
120.417526 256.0
120.464371 180.0
120.498161 188.0
120.53521 240.0
120.556137 256.0
120.623146 200.0
120.752892 104.0
120.771469 128.0
120.850075 264.0
120.875397 156.0
120.923546 120.0
121.006729 220.0
121.043945 124.0
121.068039 104.0
121.10527 296.0
121.13929 128.0
121.17318 204.0
121.196289 184.0
121.247818 188.0
121.265213 220.0
121.293701 140.0
121.309052 72.0
121.359474 220.0
121.381401 144.0
121.411827 160.0
121.440613 160.0
121.469124 516.0
121.504799 168.0
121.544853 224.0
121.596382 160.0
121.635895 160.0
121.664879 388.0
121.693802 148.0
121.698181 204.0
121.728104 60.0
121.780807 124.0
121.834587 216.0
121.87252 380.0
121.89724 120.0
121.923615 132.0
121.945587 148.0
121.963173 56.0
121.991753 196.0
122.020332 220.0
122.058365 1148.0
122.082619 152.0
122.108284 160.0
122.125877 172.0
122.154335 188.0
122.182777 120.0
122.233681 192.0
122.259354 204.0
122.262871 136.0
122.322449 144.0
122.385559 188.0
122.414185 144.0
122.493469 164.0
122.541931 192.0
122.589111 172.0
122.638893 144.0
122.680779 196.0
122.733688 196.0
122.757347 324.0
122.786568 188.0
122.835136 88.0
122.859406 200.0
122.876122 276.0
122.910149 156.0
122.934418 76.0
122.974144 116.0
123.051575 308.0
123.065834 276.0
123.100761 216.0
123.128365 376.0
123.162582 116.0
123.186142 200.0
123.239342 132.0
123.345917 164.0
123.382797 56.0
123.405434 180.0
123.503784 196.0
123.533813 152.0
123.55751 84.0
123.588486 136.0
123.61557 200.0
123.634285 160.0
123.663719 152.0
123.734558 72.0
123.763344 204.0
123.803894 152.0
123.851418 212.0
123.918381 124.0
123.949455 148.0
124.038994 172.0
124.060219 168.0
124.104553 168.0
124.14225 100.0
124.171082 208.0
124.2005 136.0
124.220421 148.0
124.250938 176.0
124.344131 92.0
124.388893 144.0
124.50386 156.0
124.573868 60.0
124.610596 96.0
124.643929 136.0
124.70916 180.0
124.728256 144.0
124.748383 136.0
124.775063 160.0
124.85733 180.0
124.884842 184.0
124.915543 232.0
124.950752 180.0
124.974937 124.0
124.98941 156.0
125.008247 300.0
125.039368 160.0
125.099861 132.0
125.126831 136.0
125.168877 96.0
125.197823 116.0
125.239517 172.0
125.271324 120.0
125.310524 168.0
125.347076 168.0
125.382729 128.0
125.402 340.0
125.455406 132.0
125.485268 28.0
125.534676 76.0
125.55439 40.0
125.634369 364.0
125.679314 132.0
125.708801 92.0
125.737328 52.0
125.800735 108.0
125.837242 184.0
125.905884 224.0
125.94149 108.0
125.987503 196.0
126.023155 208.0
126.058907 188.0
126.105835 72.0
126.144188 228.0
126.192368 96.0
126.245117 200.0
126.291679 204.0
126.333382 184.0
126.437828 216.0
126.52861 208.0
126.557716 120.0
126.629379 104.0
126.64505 104.0
126.694336 152.0
126.822914 188.0
126.902039 124.0
126.936394 124.0
126.96106 168.0
126.990219 148.0
127.054298 508.0
127.078262 144.0
127.129311 156.0
127.158485 212.0
127.176445 124.0
127.21946 172.0
127.268478 192.0
127.304413 96.0
127.322372 132.0
127.35157 188.0
127.384636 172.0
127.411423 192.0
127.457756 60.0
127.502098 160.0
127.51889 144.0
127.544807 224.0
127.583015 192.0
127.608261 176.0
127.627472 548.0
127.699944 140.0
127.733902 124.0
127.789055 124.0
127.807922 228.0
127.828178 256.0
127.879936 152.0
127.91024 204.0
127.938461 72.0
127.955124 200.0
127.991211 252.0
128.044586 308.0
128.06459 160.0
128.089706 104.0
128.136642 120.0
128.15242 164.0
128.172699 156.0
128.208755 132.0
128.242371 236.0
128.250488 108.0
128.292145 192.0
128.314682 108.0
128.363571 188.0
128.386017 196.0
128.416168 136.0
128.436462 124.0
128.471375 136.0
128.488342 156.0
128.504135 140.0
128.535721 160.0
128.587631 192.0
128.63884 140.0
128.65535 112.0
128.680023 176.0
128.7005 96.0
128.728745 204.0
128.748093 216.0
128.822449 208.0
128.838272 116.0
128.90712 160.0
128.978378 248.0
129.008347 244.0
129.051987 268.0
129.070953 420.0
129.099457 288.0
129.124268 160.0
129.157532 220.0
129.175995 156.0
129.270218 180.0
129.324432 128.0
129.353867 144.0
129.381363 176.0
129.399139 44.0
129.467072 180.0
129.508453 116.0
129.538742 140.0
129.582581 192.0
129.641495 104.0
129.682999 260.0
129.723099 260.0
129.7435 272.0
129.788834 156.0
129.840607 208.0
129.861069 132.0
129.913574 120.0
129.958954 56.0
129.977097 100.0
130.065353 1048.0
130.111069 192.0
130.128891 188.0
130.165512 116.0
130.211639 164.0
130.231369 160.0
130.260895 180.0
130.310867 64.0
130.394135 124.0
130.48587 76.0
130.515427 356.0
130.531342 92.0
130.550415 208.0
130.593719 184.0
130.653702 176.0
130.706497 144.0
130.749725 60.0
130.778229 164.0
130.827118 44.0
130.845337 164.0
130.869476 176.0
130.920471 152.0
131.011581 180.0
131.070435 944.0
131.130066 248.0
131.207443 172.0
131.223526 168.0
131.24176 180.0
131.291931 128.0
131.369476 168.0
131.386703 196.0
131.460739 160.0
131.494308 516.0
131.542908 344.0
131.579437 164.0
131.597702 184.0
131.637527 108.0
131.676682 316.0
131.712112 148.0
131.734726 184.0
131.778137 176.0
131.80098 108.0
131.823837 60.0
131.853333 180.0
131.861725 152.0
131.868576 236.0
131.926682 120.0
131.949539 140.0
131.966843 120.0
131.985977 64.0
132.006699 28.0
132.044952 5760.0
132.079193 932.0
132.118774 160.0
132.134796 260.0
132.180557 156.0
132.205719 80.0
132.226318 132.0
132.255646 224.0
132.327042 132.0
132.360687 400.0
132.393448 64.0
132.421829 204.0
132.439255 272.0
132.457581 240.0
132.475906 152.0
132.503387 188.0
132.533173 104.0
132.636307 288.0
132.690002 188.0
132.71196 172.0
132.74176 176.0
132.773865 128.0
132.805435 176.0
132.828918 184.0
132.849655 176.0
132.885071 116.0
132.891571 168.0
132.936676 124.0
132.943359 136.0
133.016464 164.0
133.051849 3256.0
133.108063 76.0
133.119522 128.0
133.247849 372.0
133.330399 48.0
133.386902 136.0
133.428177 88.0
133.431473 92.0
133.462769 132.0
133.568558 108.0
133.605484 216.0
133.665024 188.0
133.692795 196.0
133.713501 72.0
133.729614 232.0
133.752625 232.0
133.789459 128.0
133.806549 168.0
133.82399 132.0
133.93454 148.0
133.971619 204.0
133.998856 156.0
134.028946 348.0
134.059265 6392.0
134.091873 392.0
134.144226 260.0
134.167145 140.0
134.231934 96.0
134.257202 184.0
134.280258 200.0
134.321777 188.0
134.366333 152.0
134.400818 184.0
134.42099 148.0
134.441757 116.0
134.492523 56.0
134.516251 360.0
134.567902 172.0
134.588303 104.0
134.626053 144.0
134.644913 48.0
134.672623 80.0
134.704956 72.0
134.77121 184.0
134.795059 76.0
134.813553 212.0
134.832031 184.0
134.849258 88.0
134.863388 92.0
134.912933 160.0
134.931427 104.0
134.947617 176.0
134.9823 60.0
135.033173 72.0
135.064331 732.0
135.093674 128.0
135.130325 176.0
135.15448 200.0
135.180618 180.0
135.214996 88.0
135.224747 100.0
135.230774 168.0
135.257614 176.0
135.322433 204.0
135.371048 180.0
135.391525 152.0
135.44516 172.0
135.466003 128.0
135.514664 208.0
135.533203 156.0
135.551727 120.0
135.577225 60.0
135.632843 92.0
135.698868 152.0
135.723267 104.0
135.743301 124.0
135.778915 192.0
135.843048 172.0
135.908813 104.0
135.941299 84.0
135.985397 152.0
136.030136 188.0
136.049377 284.0
136.066574 276.0
136.094299 92.0
136.136307 240.0
136.154877 128.0
136.226044 188.0
136.264053 40.0
136.375595 76.0
136.431381 48.0
136.466248 88.0
136.482529 96.0
136.517487 124.0
136.551956 156.0
136.615097 184.0
136.691879 152.0
136.757034 84.0
136.822327 156.0
136.881851 212.0
136.984619 208.0
137.000626 92.0
137.038803 124.0
137.069092 120.0
137.138458 168.0
137.145279 128.0
137.171844 96.0
137.215942 116.0
137.257904 196.0
137.288223 224.0
137.317825 184.0
137.376846 128.0
137.408112 240.0
137.436935 164.0
137.479507 88.0
137.536789 52.0
137.565872 148.0
137.616623 172.0
137.703674 188.0
137.787186 140.0
137.805557 120.0
137.827438 108.0
137.864838 260.0
137.899887 68.0
137.989182 20.0
138.042358 204.0
138.066452 380.0
138.095154 224.0
138.116714 120.0
138.136047 116.0
138.217926 96.0
138.243668 60.0
138.268402 148.0
138.319534 184.0
138.384109 228.0
138.409866 164.0
138.464966 188.0
138.491837 104.0
138.524124 208.0
138.532227 164.0
138.542252 84.0
138.603897 172.0
138.639038 392.0
138.660797 168.0
138.689651 176.0
138.713089 188.0
138.73616 140.0
138.841049 184.0
138.899673 208.0
138.950073 108.0
138.970062 128.0
138.995865 144.0
139.028717 184.0
139.085052 140.0
139.154343 124.0
139.199936 196.0
139.228012 188.0
139.278229 188.0
139.308121 96.0
139.330246 152.0
139.350266 188.0
139.385651 148.0
139.406799 124.0
139.432083 132.0
139.460861 112.0
139.507339 160.0
139.620728 100.0
139.699936 208.0
139.709702 140.0
139.713028 184.0
139.761871 124.0
139.7854 136.0
139.820023 240.0
139.846588 180.0
139.882385 208.0
139.912491 152.0
139.963486 316.0
139.992554 176.0
140.047806 216.0
140.091476 40.0
140.121048 188.0
140.138153 152.0
140.162155 300.0
140.185715 196.0
140.206924 164.0
140.244629 60.0
140.263489 44.0
140.296494 188.0
140.330002 132.0
140.386093 80.0
140.407318 140.0
140.428543 172.0
140.478073 136.0
140.498535 160.0
140.527618 148.0
140.579529 236.0
140.624359 144.0
140.656387 312.0
140.693359 160.0
140.761963 168.0
140.834595 96.0
140.900635 176.0
140.924271 156.0
140.954987 116.0
140.973892 144.0
141.008728 200.0
141.058411 136.0
141.078018 144.0
141.100677 148.0
141.148819 160.0
141.285995 152.0
141.333313 208.0
141.358383 188.0
141.39592 200.0
141.41568 252.0
141.438995 248.0
141.498993 128.0
141.520294 200.0
141.541611 136.0
141.596069 180.0
141.697083 112.0
141.764267 80.0
141.782593 148.0
141.802185 128.0
141.873291 188.0
141.889893 112.0
141.91597 56.0
141.945496 168.0
141.982117 148.0
141.998962 412.0
142.02269 104.0
142.065292 736.0
142.107224 228.0
142.157913 156.0
142.202881 216.0
142.230957 144.0
142.299469 172.0
142.320633 152.0
142.350189 164.0
142.376312 32.0
142.434845 180.0
142.484161 164.0
142.542343 208.0
142.577164 224.0
142.59964 180.0
142.627319 136.0
142.67659 120.0
142.70108 196.0
142.74054 164.0
142.773193 68.0
142.854858 104.0
142.873093 324.0
142.927811 68.0
142.951614 124.0
142.978973 144.0
142.995239 108.0
143.037292 232.0
143.060318 192.0
143.078094 280.0
143.149185 140.0
143.169128 160.0
143.297546 152.0
143.346802 108.0
143.356064 104.0
143.359924 196.0
143.382645 164.0
143.425385 180.0
143.446991 200.0
143.492294 32.0
143.508987 180.0
143.549118 192.0
143.585739 148.0
143.615067 168.0
143.717392 148.0
143.737961 100.0
143.766602 136.0
143.78569 132.0
143.824356 180.0
143.842834 140.0
143.862793 316.0
143.956055 284.0
143.988617 204.0
144.033463 176.0
144.039413 212.0
144.080093 696.0
144.153458 168.0
144.201248 180.0
144.246658 132.0
144.273895 316.0
144.325562 92.0
144.38295 148.0
144.409256 64.0
144.48819 140.0
144.512939 104.0
144.533646 176.0
144.564194 120.0
144.607071 200.0
144.636551 144.0
144.674866 160.0
144.707901 180.0
144.717285 144.0
144.725174 148.0
144.756256 108.0
144.796982 116.0
144.823318 140.0
144.861649 56.0
145.012604 120.0
145.054794 484.0
145.088715 496.0
145.130066 172.0
145.153976 156.0
145.173218 188.0
145.196976 132.0
145.212234 164.0
145.252823 84.0
145.281158 188.0
145.332947 284.0
145.365128 172.0
145.384048 144.0
145.39296 120.0
145.425125 140.0
145.446732 148.0
145.489944 144.0
145.542755 196.0
145.597992 140.0
145.619598 140.0
145.64888 388.0
145.679657 112.0
145.696472 220.0
145.72049 140.0
145.743103 136.0
145.78537 160.0
145.816605 152.0
145.850266 164.0
145.876694 176.0
145.900803 164.0
145.930008 140.0
145.956039 180.0
145.972488 148.0
146.000854 304.0
146.018555 128.0
146.060944 39456.0
146.096725 1536.0
146.131287 240.0
146.15004 116.0
146.203934 148.0
146.215317 56.0
146.219666 136.0
146.239914 52.0
146.268188 96.0
146.294098 188.0
146.311096 128.0
146.326614 124.0
146.350647 64.0
146.386017 116.0
146.389862 140.0
146.424454 172.0
146.466034 204.0
146.531281 188.0
146.548141 56.0
146.605972 220.0
146.637299 172.0
146.678284 64.0
146.704788 52.0
146.724075 156.0
146.759369 132.0
146.806198 140.0
146.870743 360.0
146.886856 56.0
146.926666 148.0
146.965256 252.0
146.982147 44.0
147.023178 136.0
147.063324 3672.0
147.09874 264.0
147.133759 192.0
147.160156 96.0
147.177658 136.0
147.214874 216.0
147.251556 160.0
147.296005 196.0
147.312912 76.0
147.351913 140.0
147.378143 64.0
147.397476 96.0
147.461578 168.0
147.477219 200.0
147.525055 132.0
147.622284 164.0
147.64888 144.0
147.699661 96.0
147.721436 112.0
147.757721 164.0
147.803696 140.0
147.85936 84.0
147.880951 148.0
147.912598 168.0
147.940964 256.0
147.96344 344.0
147.984344 180.0
148.002182 140.0
148.024506 256.0
148.036652 184.0
148.076385 21920.0
148.144104 120.0
148.177048 152.0
148.228088 136.0
148.250076 152.0
148.271942 196.0
148.289612 116.0
148.348618 180.0
148.366806 136.0
148.430649 188.0
148.452881 100.0
148.525635 116.0
148.557373 188.0
148.615402 132.0
148.645355 184.0
148.699402 280.0
148.720932 208.0
148.759521 156.0
148.775253 120.0
148.807144 168.0
148.910995 88.0
148.969849 164.0
148.991867 204.0
149.025726 220.0
149.04274 232.0
149.078491 1852.0
149.123962 160.0
149.169998 176.0
149.312561 144.0
149.365524 192.0
149.404968 356.0
149.473114 108.0
149.504745 144.0
149.553421 156.0
149.589935 144.0
149.607529 160.0
149.67012 120.0
149.678284 112.0
149.685532 152.0
149.70874 176.0
149.748215 128.0
149.862701 176.0
149.926361 156.0
149.932831 144.0
150.021118 120.0
150.06012 180.0
150.080826 152.0
150.130829 148.0
150.16954 92.0
150.178589 164.0
150.193222 220.0
150.221664 184.0
150.282059 208.0
150.326477 100.0
150.334686 176.0
150.43338 192.0
150.45047 124.0
150.491974 108.0
150.523712 44.0
150.545685 124.0
150.565216 148.0
150.655075 208.0
150.698227 292.0
150.736862 244.0
150.760666 204.0
150.782654 216.0
150.826645 108.0
150.852997 216.0
150.870651 156.0
150.893082 160.0
150.917099 64.0
150.947021 188.0
150.980682 176.0
151.029587 120.0
151.052094 120.0
151.071182 148.0
151.105423 156.0
151.132263 136.0
151.165161 164.0
151.187744 180.0
151.22699 308.0
151.281631 148.0
151.367325 164.0
151.386917 100.0
151.452286 220.0
151.494675 172.0
151.512009 168.0
151.62944 108.0
151.663757 176.0
151.705429 212.0
151.769882 208.0
151.808395 132.0
151.852539 224.0
151.873489 192.0
151.918777 164.0
151.967834 132.0
152.016907 172.0
152.054245 208.0
152.080719 164.0
152.176453 92.0
152.201019 200.0
152.272095 232.0
152.313065 128.0
152.34346 108.0
152.401581 188.0
152.422668 156.0
152.442459 192.0
152.493607 176.0
152.568253 252.0
152.60994 332.0
152.648224 216.0
152.665436 140.0
152.692642 196.0
152.71463 240.0
152.892914 128.0
152.920425 228.0
152.928406 148.0
152.936813 212.0
152.979446 160.0
152.997604 224.0
153.014832 240.0
153.170486 200.0
153.189682 208.0
153.206924 172.0
153.315903 88.0
153.437057 188.0
153.470642 156.0
153.544617 144.0
153.593948 52.0
153.653656 136.0
153.695084 164.0
153.721161 120.0
153.746918 156.0
153.791336 196.0
153.860306 136.0
153.914764 72.0
153.936996 76.0
154.012314 264.0
154.066101 704.0
154.100021 100.0
154.11731 136.0
154.230164 180.0
154.292786 148.0
154.319977 156.0
154.342239 52.0
154.431259 48.0
154.448578 112.0
154.500519 176.0
154.539124 160.0
154.60318 148.0
154.668365 208.0
154.736298 236.0
154.786148 180.0
154.80249 148.0
154.876785 172.0
154.90155 80.0
154.943665 124.0
154.963486 64.0
154.980835 80.0
155.022949 108.0
155.072098 284.0
155.125641 100.0
155.159943 104.0
155.224518 152.0
155.267349 160.0
155.315506 152.0
155.36557 108.0
155.389542 184.0
155.411438 176.0
155.452164 196.0
155.473419 188.0
155.491653 80.0
155.512451 192.0
155.546265 164.0
155.568604 100.0
155.603363 88.0
155.630676 96.0
155.654556 188.0
155.67244 136.0
155.710129 144.0
155.754837 120.0
155.792099 88.0
155.835007 104.0
155.891479 168.0
155.923492 196.0
156.023224 152.0
156.040619 168.0
156.080582 1784.0
156.110245 288.0
156.147552 172.0
156.185806 188.0
156.244324 128.0
156.266953 160.0
156.29631 180.0
156.371979 212.0
156.466049 168.0
156.493439 76.0
156.563156 120.0
156.603012 184.0
156.640366 192.0
156.664062 148.0
156.715103 280.0
156.754364 148.0
156.842194 240.0
156.864639 108.0
156.899536 76.0
156.926956 56.0
156.971832 208.0
157.053375 164.0
157.085693 296.0
157.12648 136.0
157.226288 288.0
157.288681 72.0
157.306152 132.0
157.366074 156.0
157.403519 120.0
157.431 192.0
157.470947 164.0
157.562393 136.0
157.695816 60.0
157.719604 196.0
157.735474 96.0
157.753296 196.0
157.816254 180.0
157.863388 140.0
157.874817 120.0
157.91333 112.0
157.963348 36.0
157.990875 52.0
158.011673 64.0
158.060135 13708.0
158.138504 240.0
158.177246 208.0
158.210373 152.0
158.247101 180.0
158.271179 36.0
158.293518 152.0
158.343872 132.0
158.381378 176.0
158.41394 44.0
158.48584 76.0
158.546158 88.0
158.581497 216.0
158.619415 180.0
158.636963 84.0
158.699631 136.0
158.742264 144.0
158.764832 148.0
158.782379 172.0
158.804962 104.0
158.86911 284.0
158.922867 200.0
158.939407 128.0
159.004852 220.0
159.031357 136.0
159.067093 4340.0
159.131851 148.0
159.142471 72.0
159.149658 112.0
159.183762 136.0
159.246689 184.0
159.264267 68.0
159.314514 116.0
159.33461 72.0
159.409988 108.0
159.450195 100.0
159.484024 52.0
159.515549 196.0
159.54068 160.0
159.568344 128.0
159.588455 152.0
159.651321 152.0
159.691559 112.0
159.71167 120.0
159.731796 144.0
159.76265 136.0
159.802597 112.0
159.846313 108.0
159.893127 200.0
159.91658 160.0
159.93309 184.0
159.957825 116.0
160.001602 176.0
160.041229 172.0
160.076904 97136.0
160.159592 140.0
160.189713 92.0
160.218475 48.0
160.234467 148.0
160.261414 192.0
160.303024 308.0
160.367004 312.0
160.383118 60.0
160.400345 128.0
160.410065 152.0
160.415207 208.0
160.451843 56.0
160.490509 444.0
160.510635 176.0
160.561493 56.0
160.60643 156.0
160.637787 180.0
160.678268 172.0
160.713028 216.0
160.745819 124.0
160.763138 80.0
160.797592 316.0
160.825211 68.0
160.888687 136.0
160.929382 96.0
160.983398 212.0
161.039963 36.0
161.080307 11856.0
161.115494 40.0
161.131927 128.0
161.139954 96.0
161.157028 152.0
161.165115 184.0
161.216812 40.0
161.234497 56.0
161.277237 196.0
161.297089 84.0
161.31868 184.0
161.344574 128.0
161.40892 204.0
161.43927 172.0
161.472153 188.0
161.525269 40.0
161.555618 108.0
161.601151 108.0
161.629349 148.0
161.655502 112.0
161.678299 176.0
161.708633 84.0
161.750214 296.0
161.774857 208.0
161.845352 264.0
161.878815 140.0
161.887024 64.0
161.930237 156.0
161.949188 100.0
161.990112 144.0
162.001785 80.0
162.086975 1416.0
162.126968 128.0
162.151428 144.0
162.171875 240.0
162.239761 76.0
162.265396 120.0
162.304733 240.0
162.322311 264.0
162.33989 160.0
162.364456 192.0
162.373596 64.0
162.38237 136.0
162.405487 212.0
162.437164 208.0
162.477844 224.0
162.50058 60.0
162.525955 160.0
162.558945 168.0
162.58432 180.0
162.637619 148.0
162.715134 112.0
162.760742 60.0
162.804794 156.0
162.864548 128.0
162.907562 168.0
162.923889 232.0
162.986099 36.0
163.035965 128.0
163.065506 180.0
163.094254 144.0
163.12532 132.0
163.14566 192.0
163.193161 140.0
163.247849 184.0
163.269196 160.0
163.318573 116.0
163.338913 204.0
163.359268 116.0
163.384705 260.0
163.435593 108.0
163.517014 48.0
163.57077 100.0
163.634109 120.0
163.657028 104.0
163.690918 256.0
163.721497 368.0
163.756348 112.0
163.79454 64.0
163.847809 180.0
163.896454 68.0
163.932663 96.0
163.959549 100.0
163.983093 152.0
164.064667 124.0
164.087601 84.0
164.128403 112.0
164.156448 192.0
164.189606 124.0
164.229553 96.0
164.271225 76.0
164.290237 132.0
164.330139 164.0
164.434525 148.0
164.486633 48.0
164.496826 184.0
164.551941 120.0
164.618332 188.0
164.657196 344.0
164.721939 160.0
164.815018 124.0
164.868744 148.0
164.931091 132.0
164.973465 68.0
164.993912 108.0
165.057831 36.0
165.083405 152.0
165.133804 176.0
165.160141 132.0
165.17804 128.0
165.195938 120.0
165.270142 68.0
165.303406 160.0
165.346909 228.0
165.474594 168.0
165.503052 176.0
165.549713 288.0
165.611847 244.0
165.633667 296.0
165.66185 192.0
165.738708 156.0
165.821152 136.0
165.881592 196.0
165.901947 104.0
165.995026 204.0
166.088074 156.0
166.12326 72.0
166.166061 176.0
166.220764 148.0
166.35936 180.0
166.472321 144.0
166.518555 172.0
166.562881 356.0
166.585938 256.0
166.607956 168.0
166.631577 388.0
166.654694 116.0
166.839737 164.0
166.875732 160.0
166.896301 164.0
166.965927 164.0
167.016403 176.0
167.078049 132.0
167.156097 160.0
167.190842 136.0
167.225586 384.0
167.289932 140.0
167.359436 140.0
167.387756 144.0
167.410934 308.0
167.462448 144.0
167.488205 128.0
167.562912 156.0
167.612137 148.0
167.663406 124.0
167.735565 132.0
167.78093 148.0
167.866989 300.0
167.916046 132.0
167.978226 172.0
168.009293 232.0
168.04245 188.0
168.081146 120.0
168.105743 164.0
168.122437 236.0
168.140503 72.0
168.207611 128.0
168.292801 120.0
168.3367 132.0
168.375443 160.0
168.398682 72.0
168.505905 160.0
168.538177 180.0
168.58783 148.0
168.607025 156.0
168.641541 172.0
168.716507 148.0
168.74942 192.0
168.791489 96.0
168.871658 144.0
168.954437 76.0
168.984009 148.0
169.00618 92.0
169.026871 172.0
169.065689 200.0
169.086395 56.0
169.192108 152.0
169.231354 124.0
169.249481 76.0
169.267609 140.0
169.33493 380.0
169.371201 92.0
169.389328 176.0
169.462036 168.0
169.501862 160.0
169.526642 192.0
169.625137 156.0
169.663483 252.0
169.733398 168.0
169.762543 236.0
169.796249 144.0
169.831253 156.0
169.887955 132.0
169.936264 140.0
170.008987 104.0
170.058716 124.0
170.11264 132.0
170.196747 240.0
170.250412 180.0
170.298676 116.0
170.332108 220.0
170.40303 264.0
170.454056 184.0
170.481613 120.0
170.551788 188.0
170.603775 192.0
170.660965 136.0
170.703506 156.0
170.738983 176.0
170.764984 60.0
170.785797 140.0
170.818054 156.0
170.88205 132.0
170.928879 148.0
171.025177 192.0
171.0914 768.0
171.139984 156.0
171.148636 148.0
171.157501 168.0
171.183975 124.0
171.264832 184.0
171.320267 196.0
171.340256 280.0
171.400177 188.0
171.422256 224.0
171.496216 252.0
171.517456 84.0
171.634781 60.0
171.677368 156.0
171.728653 96.0
171.749466 216.0
171.801071 168.0
171.846039 156.0
171.884186 136.0
171.929535 148.0
171.976517 160.0
171.997406 136.0
172.041519 280.0
172.076477 13696.0
172.137024 184.0
172.178894 216.0
172.205338 212.0
172.21994 176.0
172.27681 60.0
172.348724 152.0
172.381012 172.0
172.415283 144.0
172.457108 236.0
172.475403 124.0
172.496307 160.0
172.520233 52.0
172.562546 244.0
172.598267 132.0
172.634872 96.0
172.674652 108.0
172.778946 152.0
172.820602 132.0
172.857224 164.0
172.896484 40.0
172.923615 120.0
172.953796 148.0
172.998566 88.0
173.035217 104.0
173.079086 1564.0
173.1539 188.0
173.184479 108.0
173.280014 120.0
173.304428 168.0
173.325073 252.0
173.369949 188.0
173.420288 124.0
173.44101 216.0
173.489014 276.0
173.538086 196.0
173.590683 144.0
173.63002 152.0
173.7341 124.0
173.7556 220.0
173.844086 188.0
173.873703 176.0
173.929337 148.0
173.976227 136.0
174.022049 384.0
174.054947 728.0
174.092499 45884.0
174.134598 264.0
174.1987 300.0
174.24437 140.0
174.270157 148.0
174.290756 80.0
174.298843 180.0
174.343704 200.0
174.363098 52.0
174.412155 228.0
174.436081 192.0
174.46814 124.0
174.496552 240.0
174.522995 36.0
174.554398 132.0
174.603806 76.0
174.641174 96.0
174.670105 208.0
174.693787 64.0
174.714828 84.0
174.756775 208.0
174.807251 368.0
174.833954 176.0
174.874466 144.0
174.914825 88.0
174.938522 128.0
174.995285 192.0
175.055756 352.0
175.094818 4596.0
175.147522 128.0
175.189362 188.0
175.254547 44.0
175.275635 136.0
175.312057 180.0
175.362595 128.0
175.388947 52.0
175.448303 124.0
175.481216 68.0
175.507584 96.0
175.568237 132.0
175.586685 68.0
175.613068 104.0
175.644577 216.0
175.701416 228.0
175.77298 236.0
175.826767 136.0
175.853165 264.0
175.934418 244.0
175.979874 52.0
176.012756 96.0
176.037964 48.0
176.097031 208.0
176.159561 100.0
176.177475 68.0
176.184372 120.0
176.216812 180.0
176.232635 148.0
176.2724 128.0
176.32988 140.0
176.346512 288.0
176.387985 140.0
176.44751 92.0
176.487167 208.0
176.505676 272.0
176.526825 60.0
176.55986 132.0
176.606171 64.0
176.636719 80.0
176.69281 196.0
176.734634 184.0
176.762253 140.0
176.852234 396.0
176.886642 176.0
176.929001 172.0
176.96077 40.0
177.011078 188.0
177.114151 52.0
177.140854 156.0
177.177933 140.0
177.228271 64.0
177.252121 48.0
177.28392 176.0
177.466812 236.0
177.612671 40.0
177.702225 200.0
177.721436 136.0
177.838211 140.0
177.874344 104.0
177.899261 220.0
177.917831 104.0
177.976242 320.0
178.042343 148.0
178.082474 156.0
178.117004 144.0
178.14888 60.0
178.188721 168.0
178.228577 164.0
178.268097 320.0
178.343185 156.0
178.351379 152.0
178.360397 188.0
178.454498 148.0
178.501526 132.0
178.606079 140.0
178.656616 284.0
178.761536 180.0
178.8255 188.0
178.886017 60.0
178.92807 80.0
179.042572 124.0
179.071869 188.0
179.101166 136.0
179.125137 132.0
179.18689 152.0
179.284988 184.0
179.319641 128.0
179.340958 128.0
179.386276 352.0
179.471588 80.0
179.49025 120.0
179.541977 152.0
179.705048 96.0
179.733063 136.0
179.821045 176.0
179.839722 120.0
179.861084 128.0
179.882431 176.0
179.917145 156.0
179.986557 88.0
180.045303 72.0
180.085358 156.0
180.128098 164.0
180.154816 180.0
180.174377 112.0
180.197296 124.0
180.231247 176.0
180.270752 212.0
180.400665 240.0
180.422043 92.0
180.467499 148.0
180.490082 232.0
180.515625 112.0
180.563766 64.0
180.660065 128.0
180.702866 104.0
180.774689 52.0
180.796509 136.0
180.938385 168.0
180.97319 236.0
181.021378 168.0
181.057831 164.0
181.085312 196.0
181.149933 176.0
181.224945 136.0
181.249252 172.0
181.302658 324.0
181.326782 48.0
181.372345 264.0
181.420593 92.0
181.498947 176.0
181.527832 176.0
181.568069 104.0
181.592209 112.0
181.667313 72.0
181.694138 132.0
181.729004 124.0
181.78804 144.0
181.812195 176.0
181.847076 200.0
181.87384 136.0
181.927322 172.0
181.986679 136.0
182.045746 188.0
182.110199 180.0
182.220337 120.0
182.261627 164.0
182.386948 108.0
182.47467 184.0
182.494308 188.0
182.569611 204.0
182.589813 204.0
182.656021 180.0
182.692322 356.0
182.729584 320.0
182.768829 152.0
182.804535 164.0
182.828033 96.0
182.849564 44.0
182.997498 104.0
183.108078 152.0
183.140335 44.0
183.166107 148.0
183.225967 248.0
183.258865 132.0
183.318848 164.0
183.343613 44.0
183.383148 164.0
183.458298 264.0
183.496033 96.0
183.528397 220.0
183.555359 116.0
183.582321 124.0
183.6875 144.0
183.745209 112.0
183.773834 172.0
183.857376 108.0
183.881775 208.0
183.913086 120.0
183.997849 68.0
184.054535 48.0
184.119354 132.0
184.159866 172.0
184.251846 160.0
184.359787 164.0
184.510406 168.0
184.573334 176.0
184.597672 200.0
184.632706 200.0
184.730194 332.0
184.773483 204.0
184.881622 128.0
184.906067 128.0
184.946671 152.0
184.998093 180.0
185.030579 176.0
185.095566 164.0
185.155518 200.0
185.210831 100.0
185.255356 136.0
185.320374 80.0
185.342056 88.0
185.36644 180.0
185.415222 96.0
185.49382 220.0
185.550751 108.0
185.595886 156.0
185.65921 516.0
185.678192 220.0
185.770416 140.0
185.919647 112.0
185.963058 152.0
186.025894 136.0
186.054077 248.0
186.087936 140.0
186.310196 152.0
186.367111 152.0
186.422028 128.0
186.484543 72.0
186.533463 188.0
186.560638 84.0
186.601425 88.0
186.627167 180.0
186.685715 216.0
186.789062 152.0
186.821716 120.0
186.851639 192.0
186.881561 76.0
186.96048 200.0
186.98497 152.0
187.01593 116.0
187.063324 168.0
187.090363 660.0
187.17688 64.0
187.347107 176.0
187.377075 164.0
187.475006 136.0
187.554199 148.0
187.603271 144.0
187.641434 32.0
187.663254 212.0
187.690506 100.0
187.729675 188.0
187.783234 156.0
187.818695 112.0
187.855347 372.0
187.911438 92.0
187.930542 148.0
187.958847 224.0
187.994476 184.0
188.026047 140.0
188.070938 5612.0
188.105743 132.0
188.137955 204.0
188.183151 180.0
188.21167 164.0
188.2854 88.0
188.323639 152.0
188.376205 164.0
188.454758 312.0
188.493347 160.0
188.536102 104.0
188.564682 152.0
188.596268 148.0
188.624191 68.0
188.671844 280.0
188.778809 184.0
188.800003 224.0
188.820831 48.0
188.874878 228.0
188.911316 188.0
188.953491 200.0
188.997208 196.0
189.103241 71124.0
189.167953 128.0
189.202164 276.0
189.2332 84.0
189.252625 168.0
189.272385 56.0
189.303162 144.0
189.32373 136.0
189.345505 172.0
189.364456 80.0
189.419174 76.0
189.442383 56.0
189.471924 156.0
189.553467 180.0
189.625443 240.0
189.644302 52.0
189.661133 140.0
189.690903 116.0
189.695663 112.0
189.720352 108.0
189.746841 164.0
189.79538 100.0
189.820435 320.0
189.880936 268.0
189.899323 176.0
189.946304 116.0
189.996521 200.0
190.020828 44.0
190.045959 152.0
190.106949 8564.0
190.169022 128.0
190.194565 284.0
190.214203 164.0
190.251358 176.0
190.273834 128.0
190.344223 204.0
190.385315 148.0
190.389694 168.0
190.401062 264.0
190.42514 112.0
190.468018 120.0
190.504013 220.0
190.551849 136.0
190.580933 96.0
190.622147 120.0
190.660828 52.0
190.685349 132.0
190.726822 184.0
190.751328 160.0
190.828415 232.0
190.863663 116.0
190.925293 172.0
190.957535 176.0
190.989578 256.0
191.02002 244.0
191.066986 96.0
191.119217 41932.0
191.17392 168.0
191.196152 56.0
191.241882 248.0
191.298096 52.0
191.330658 60.0
191.355164 160.0
191.377106 136.0
191.416107 104.0
191.469437 72.0
191.490295 224.0
191.532516 164.0
191.552063 104.0
191.583466 60.0
191.620407 100.0
191.668961 204.0
191.69873 160.0
191.726196 200.0
191.755966 168.0
191.808334 108.0
191.838013 60.0
191.893784 372.0
191.945038 360.0
191.971161 132.0
191.995377 240.0
192.075333 136.0
192.121063 4292.0
192.224045 152.0
192.295776 148.0
192.348221 44.0
192.447189 180.0
192.473206 280.0
192.534592 156.0
192.564331 76.0
192.647202 144.0
192.687256 80.0
192.719025 148.0
192.785339 100.0
192.824173 248.0
192.85997 164.0
192.975266 128.0
193.014786 36.0
193.039673 156.0
193.067322 76.0
193.123077 424.0
193.197327 172.0
193.223602 144.0
193.272018 36.0
193.29213 196.0
193.318893 184.0
193.366882 232.0
193.411636 124.0
193.446381 76.0
193.49585 124.0
193.562653 200.0
193.582031 128.0
193.608856 280.0
193.687286 92.0
193.722824 72.0
193.783112 108.0
193.822311 80.0
193.883987 60.0
193.975464 132.0
194.033676 84.0
194.125168 160.0
194.208374 116.0
194.256882 180.0
194.297134 144.0
194.355286 184.0
194.408127 144.0
194.441422 156.0
194.490356 140.0
194.516876 192.0
194.594101 184.0
194.634521 116.0
194.802383 168.0
194.855164 196.0
194.888504 88.0
195.005219 32.0
195.030228 132.0
195.095535 136.0
195.127075 124.0
195.191467 48.0
195.238754 176.0
195.299927 96.0
195.334641 92.0
195.460571 108.0
195.569824 188.0
195.699219 224.0
195.7285 348.0
195.750778 32.0
195.780716 144.0
195.788498 88.0
195.851044 132.0
195.881683 220.0
195.903961 188.0
196.065567 196.0
196.105225 176.0
196.159531 140.0
196.375031 140.0
196.437469 168.0
196.461502 120.0
196.525665 88.0
196.545197 192.0
196.602341 160.0
196.626129 76.0
196.690323 176.0
196.737778 152.0
196.769165 124.0
196.810364 92.0
196.866211 104.0
196.908096 124.0
197.004532 100.0
197.064529 56.0
197.151321 132.0
197.195389 164.0
197.321167 168.0
197.385971 124.0
197.4487 176.0
197.473892 136.0
197.55011 296.0
197.628754 164.0
197.721649 160.0
197.755234 112.0
197.780426 44.0
197.805618 164.0
197.850418 204.0
197.894287 124.0
197.912003 184.0
197.934402 156.0
197.998535 136.0
198.035217 124.0
198.068832 56.0
198.126602 204.0
198.15007 180.0
198.344559 144.0
198.402298 164.0
198.466782 80.0
198.49762 52.0
198.550903 60.0
198.615417 156.0
198.679932 144.0
198.702377 324.0
198.741653 136.0
198.854996 164.0
198.924072 96.0
198.946533 144.0
198.966187 208.0
198.991455 88.0
199.011108 132.0
199.087097 1560.0
199.12973 196.0
199.227356 92.0
199.319626 176.0
199.367172 152.0
199.391296 104.0
199.412552 176.0
199.436111 96.0
199.471832 204.0
199.530869 112.0
199.55336 148.0
199.573044 164.0
199.592728 176.0
199.62085 188.0
199.640533 100.0
199.712006 56.0
199.786469 176.0
199.828094 140.0
199.85994 164.0
199.975311 40.0
199.99501 136.0
200.066772 412.0
200.087418 260.0
200.203751 124.0
200.227295 168.0
200.232056 208.0
200.265305 56.0
200.381607 140.0
200.501968 168.0
200.536102 248.0
200.614716 108.0
200.662643 84.0
200.771439 48.0
200.806458 208.0
200.875351 188.0
200.930573 48.0
200.961594 76.0
200.984177 72.0
201.067764 168.0
201.147858 192.0
201.173264 68.0
201.204315 120.0
201.279053 136.0
201.310165 156.0
201.36058 188.0
201.461304 64.0
201.481079 100.0
201.543243 156.0
201.571487 132.0
201.613876 372.0
201.63649 76.0
201.6828 160.0
201.89505 96.0
201.919205 80.0
201.97261 136.0
201.998398 120.0
202.043655 56.0
202.065704 192.0
202.070755 152.0
202.082703 280.0
202.129272 704.0
202.177536 204.0
202.323837 108.0
202.342957 208.0
202.371964 68.0
202.406525 192.0
202.428589 108.0
202.473907 32.0
202.510727 148.0
202.582047 196.0
202.609863 228.0
202.630447 136.0
202.701477 120.0
202.765366 204.0
202.845062 188.0
202.867752 168.0
202.949966 212.0
202.969803 188.0
203.079697 160.0
203.110565 152.0
203.174011 204.0
203.208069 172.0
203.392593 160.0
203.415222 136.0
203.506073 92.0
203.574219 128.0
203.599777 104.0
203.619659 140.0
203.665558 176.0
203.721909 132.0
203.862289 148.0
203.957764 192.0
203.994431 196.0
204.073212 144.0
204.097061 160.0
204.132065 132.0
204.193741 192.0
204.293304 60.0
204.3246 132.0
204.466873 100.0
204.489639 120.0
204.547852 184.0
204.578598 140.0
204.651886 80.0
204.942413 104.0
204.962357 76.0
205.016495 40.0
205.039291 148.0
205.073502 116.0
205.131165 160.0
205.247391 168.0
205.28447 148.0
205.330093 164.0
205.451904 232.0
205.483215 164.0
205.569717 128.0
205.622849 160.0
205.752396 136.0
205.812347 224.0
205.832336 100.0
205.885544 164.0
205.957993 196.0
205.995132 180.0
206.02655 88.0
206.09227 148.0
206.124634 156.0
206.246582 104.0
206.298035 196.0
206.403824 160.0
206.432419 284.0
206.497559 180.0
206.539658 104.0
206.579239 192.0
206.604019 76.0
206.695572 236.0
206.75853 68.0
206.804321 96.0
206.832947 44.0
206.859039 240.0
206.91597 116.0
206.990402 96.0
207.021912 232.0
207.070587 168.0
207.090637 148.0
207.130737 128.0
207.195099 180.0
207.304367 160.0
207.392197 144.0
207.448807 36.0
207.486084 60.0
207.523346 112.0
207.592163 204.0
207.678207 52.0
207.7155 172.0
207.794296 172.0
207.833115 152.0
207.861816 92.0
207.901352 144.0
207.956512 92.0
208.002441 100.0
208.158218 168.0
208.206482 172.0
208.240753 84.0
208.295319 40.0
208.321182 136.0
208.361221 128.0
208.413116 176.0
208.499313 156.0
208.536682 216.0
208.643753 112.0
208.718796 208.0
208.841446 112.0
208.947876 160.0
209.00235 116.0
209.062973 172.0
209.267349 120.0
209.289398 188.0
209.314545 204.0
209.379639 100.0
209.460297 192.0
209.574493 200.0
209.610107 116.0
209.647568 196.0
209.670624 220.0
209.699432 308.0
209.7715 152.0
209.845352 212.0
209.892578 136.0
209.921417 184.0
209.950256 64.0
209.981979 284.0
210.05986 132.0
210.163712 176.0
210.24147 144.0
210.253006 136.0
210.27626 236.0
210.333984 208.0
210.378799 220.0
210.510101 352.0
210.579407 72.0
210.634277 116.0
210.700195 260.0
210.761398 128.0
210.822083 100.0
210.85965 64.0
210.94902 164.0
211.03598 100.0
211.099487 108.0
211.224213 136.0
211.290497 80.0
211.310745 148.0
211.545151 160.0
211.588577 80.0
211.626221 208.0
211.744934 144.0
211.890091 144.0
211.979599 84.0
212.005676 232.0
212.092041 160.0
212.118713 204.0
212.165085 160.0
212.220169 228.0
212.289764 164.0
212.321671 180.0
212.373871 224.0
212.399979 164.0
212.423859 84.0
212.45842 164.0
212.501511 168.0
212.571152 156.0
212.600159 128.0
212.754288 196.0
212.855621 184.0
212.895615 124.0
213.044403 112.0
213.143188 148.0
213.189682 212.0
213.247803 116.0
213.297211 140.0
213.369888 156.0
213.408859 148.0
213.451294 92.0
213.496292 124.0
213.553635 168.0
213.592712 120.0
213.675949 236.0
213.698532 184.0
213.722534 156.0
213.747986 112.0
213.777084 164.0
213.802277 148.0
213.825699 188.0
213.897919 176.0
213.925522 96.0
213.951721 228.0
214.015778 48.0
214.056641 128.0
214.085663 188.0
214.104538 152.0
214.127914 448.0
214.222549 212.0
214.245865 176.0
214.26709 124.0
214.29538 112.0
214.335785 148.0
214.411545 204.0
214.489044 88.0
214.519791 164.0
214.567352 188.0
214.613083 148.0
214.633484 144.0
214.66658 184.0
214.694839 100.0
214.750137 164.0
214.79097 100.0
214.836014 172.0
214.87265 184.0
214.924149 184.0
214.935669 120.0
214.943069 120.0
214.978714 188.0
215.018555 176.0
215.07962 140.0
215.117615 548.0
215.137894 176.0
215.190765 148.0
215.226944 216.0
215.272522 32.0
215.307571 100.0
215.422943 132.0
215.504639 140.0
215.563141 124.0
215.596161 148.0
215.601959 52.0
215.643555 180.0
215.684464 204.0
215.719543 84.0
215.740005 196.0
215.798477 160.0
215.84819 92.0
215.903748 108.0
215.940704 272.0
215.982712 92.0
216.016418 228.0
216.049774 104.0
216.056824 96.0
216.090714 132.0
216.118103 100.0
216.163254 232.0
216.231247 192.0
216.291565 124.0
216.343964 216.0
216.39328 280.0
216.420975 232.0
216.452698 128.0
216.497269 160.0
216.543625 88.0
216.589264 224.0
216.618179 172.0
216.670471 116.0
216.6754 172.0
216.687592 284.0
216.720078 220.0
216.736557 164.0
216.782272 428.0
216.824722 204.0
216.844238 140.0
216.854187 56.0
216.875427 332.0
216.89537 388.0
216.92099 132.0
216.931015 216.0
216.956482 356.0
217.014908 404.0
217.037766 984.0
217.047714 928.0
217.099289 318872.0
217.17395 188.0
217.208206 60.0
217.249817 64.0
217.277161 64.0
217.30278 156.0
217.34166 344.0
217.374222 276.0
217.418884 344.0
217.476166 164.0
217.516769 280.0
217.545486 280.0
217.582901 3964.0
217.61615 208.0
217.671188 160.0
217.680161 176.0
217.689346 264.0
217.71344 152.0
217.733612 184.0
217.760742 184.0
217.794128 304.0
217.820572 284.0
217.85556 276.0
217.887924 220.0
217.90921 260.0
217.94548 176.0
217.974945 240.0
218.012436 156.0
218.031921 268.0
218.054626 320.0
218.101196 48456.0
218.163544 336.0
218.197586 228.0
218.224777 132.0
218.266922 200.0
218.336716 292.0
218.362656 188.0
218.412888 132.0
218.433701 116.0
218.470566 248.0
218.495712 64.0
218.517059 92.0
218.542725 96.0
218.582932 104.0
218.642944 112.0
218.668823 148.0
218.701355 152.0
218.765411 68.0
218.807434 80.0
218.843979 116.0
218.891281 176.0
218.940903 352.0
218.970596 248.0
219.002853 80.0
219.024277 160.0
219.047806 100.0
219.063705 176.0
219.103409 3460.0
219.176117 108.0
219.238495 92.0
219.248428 120.0
219.286423 88.0
219.310928 204.0
219.350067 132.0
219.370438 132.0
219.411377 136.0
219.440445 116.0
219.471558 120.0
219.505905 96.0
219.53511 184.0
219.576065 444.0
219.65271 160.0
219.679031 144.0
219.702591 92.0
219.72702 232.0
219.754623 496.0
219.812927 164.0
219.864197 76.0
219.913681 120.0
219.967026 72.0
219.973923 100.0
220.017059 100.0
220.035568 224.0
220.06665 124.0
220.105164 300.0
220.147293 32.0
220.180649 88.0
220.235886 68.0
220.266907 136.0
220.289062 60.0
220.370041 68.0
220.430878 68.0
220.451553 232.0
220.472244 40.0
220.515488 120.0
220.628891 52.0
220.652542 44.0
220.694992 56.0
220.745102 176.0
220.789459 148.0
220.906876 124.0
220.930267 172.0
221.034653 168.0
221.102158 144.0
221.131744 76.0
221.176147 60.0
221.200302 356.0
221.220551 176.0
221.324173 56.0
221.395233 44.0
221.492966 48.0
221.531479 64.0
221.618958 228.0
221.649994 176.0
221.73143 132.0
221.77063 220.0
221.847397 132.0
221.8871 40.0
221.910812 92.0
221.955292 112.0
221.996811 132.0
222.02565 44.0
222.066055 80.0
222.127304 84.0
222.189606 52.0
222.264465 52.0
222.293442 32.0
222.352646 164.0
222.397324 84.0
222.418091 84.0
222.474503 100.0
222.522003 72.0
222.551682 84.0
222.6091 204.0
222.634949 212.0
222.819656 304.0
223.029968 28.0
223.078766 112.0
223.106689 104.0
223.345154 136.0
223.377869 148.0
223.437363 64.0
223.603409 120.0
223.660553 136.0
223.708176 156.0
223.845123 52.0
224.068512 184.0
224.101288 128.0
224.125122 44.0
224.231247 240.0
224.324799 48.0
224.438095 196.0
224.480179 172.0
224.522034 80.0
224.569305 44.0
224.837814 164.0
224.861694 148.0
224.948242 152.0
224.981079 108.0
225.145309 136.0
225.243866 208.0
225.263153 132.0
225.303619 116.0
225.496918 248.0
225.617401 144.0
225.790833 168.0
225.859619 48.0
225.976288 64.0
226.031525 104.0
226.113937 44.0
226.14386 128.0
226.227676 152.0
226.269577 124.0
226.312546 80.0
226.353424 164.0
226.48819 128.0
226.60202 80.0
226.682922 140.0
226.820786 104.0
226.955688 40.0
227.042648 32.0
227.087631 216.0
227.28862 28.0
227.360641 80.0
227.495712 116.0
227.558762 148.0
227.738937 48.0
227.799011 124.0
227.931198 184.0
228.021347 64.0
228.051407 224.0
228.072449 76.0
228.117538 132.0
228.222473 128.0
228.258835 36.0
228.291916 40.0
228.34906 116.0
228.374023 188.0
228.394165 152.0
228.418243 52.0
228.463364 168.0
228.499466 68.0
228.544586 40.0
228.58371 152.0
228.649918 120.0
228.76445 72.0
228.787338 176.0
228.953979 52.0
229.014206 40.0
229.101562 320.0
229.159805 72.0
229.179901 112.0
229.240158 108.0
229.406448 92.0
229.475266 60.0
229.523514 84.0
229.62001 164.0
229.674301 176.0
229.797974 96.0
229.846252 108.0
229.876434 56.0
229.915665 80.0
229.957916 112.0
230.004929 104.0
230.036392 184.0
230.108841 148.0
230.187347 28.0
230.247742 152.0
230.356476 156.0
230.382324 192.0
230.498474 48.0
230.567978 68.0
230.592148 72.0
230.676178 224.0
230.705353 80.0
230.752365 100.0
230.864243 180.0
230.95195 216.0
230.976135 108.0
231.091095 128.0
231.127411 76.0
231.166748 188.0
231.227264 128.0
231.399811 72.0
231.481567 132.0
231.505783 84.0
231.554245 108.0
231.702667 144.0
231.878418 36.0
231.911743 64.0
231.942062 112.0
231.975403 192.0
232.047546 176.0
232.114868 120.0
232.157318 80.0
232.242233 156.0
232.348404 28.0
232.378754 156.0
232.415161 168.0
232.506195 84.0
232.569931 224.0
232.651886 56.0
232.700455 108.0
232.80278 160.0
232.827988 124.0
232.861404 112.0
232.894806 132.0
232.92215 132.0
232.987274 168.0
233.046692 96.0
233.12999 888.0
233.211578 172.0
233.265503 120.0
233.29895 132.0
233.362793 44.0
233.432724 52.0
233.584793 100.0
233.655533 164.0
233.837326 68.0
233.886032 84.0
233.931686 128.0
233.963531 224.0
234.085953 228.0
234.132507 264.0
234.205734 108.0
234.242294 96.0
234.272751 108.0
234.321503 164.0
234.435501 140.0
234.529724 252.0
234.586624 132.0
234.611008 176.0
234.665894 60.0
234.699432 172.0
234.755936 68.0
234.765259 88.0
234.776474 120.0
234.91597 108.0
234.974762 176.0
234.995865 148.0
235.023636 136.0
235.059708 140.0
235.108765 40372.0
235.17923 76.0
235.206909 228.0
235.239838 196.0
235.26561 104.0
235.300476 52.0
235.35141 164.0
235.378952 160.0
235.430115 132.0
235.471481 48.0
235.511734 88.0
235.55394 128.0
235.581192 48.0
235.667328 132.0
235.757431 152.0
235.798386 144.0
235.879776 88.0
235.920639 52.0
236.032074 80.0
236.111847 5056.0
236.165268 48.0
236.186676 140.0
236.208084 96.0
236.287628 44.0
236.340591 168.0
236.388596 184.0
236.413086 64.0
236.455917 68.0
236.549545 136.0
236.590088 48.0
236.719421 108.0
236.759003 32.0
236.791672 144.0
236.828873 108.0
236.892685 124.0
237.077606 144.0
237.115036 680.0
237.200195 104.0
237.224731 268.0
237.249832 168.0
237.279907 64.0
237.32283 60.0
237.365753 132.0
237.46843 108.0
237.509903 72.0
237.549774 84.0
237.583511 52.0
237.626465 44.0
237.650223 344.0
237.697037 76.0
237.736923 172.0
237.905746 52.0
237.960876 156.0
238.019424 132.0
238.040833 160.0
238.129883 132.0
238.348007 240.0
238.369507 56.0
238.42482 160.0
238.461761 144.0
238.566208 36.0
238.606171 240.0
238.824509 112.0
238.846039 56.0
238.889099 56.0
238.932175 96.0
238.984467 116.0
239.042938 76.0
239.118851 108.0
239.169113 68.0
239.202972 160.0
239.412338 116.0
239.44313 96.0
239.563263 40.0
239.738876 132.0
239.760452 120.0
239.84903 200.0
239.877579 72.0
239.954636 32.0
240.068726 128.0
240.387665 164.0
240.400543 64.0
240.409698 136.0
240.45639 176.0
240.745026 128.0
240.86499 56.0
241.000931 120.0
241.201797 156.0
241.476593 140.0
241.526474 80.0
241.903976 128.0
242.046387 96.0
242.160965 124.0
242.269379 176.0
242.328247 148.0
242.52037 80.0
242.564514 200.0
242.749786 144.0
242.805603 188.0
242.954498 144.0
243.044464 200.0
243.121567 184.0
243.151459 344.0
243.199631 128.0
243.314484 144.0
243.410736 140.0
243.553589 40.0
243.593979 124.0
243.630295 156.0
243.668533 116.0
243.783493 116.0
243.846771 100.0
244.044601 164.0
244.144104 148.0
244.417847 140.0
244.452072 140.0
244.673065 208.0
244.763351 220.0
245.12468 88.0
245.167099 720.0
245.205704 176.0
245.280502 152.0
245.486282 32.0
245.611023 204.0
245.696136 180.0
245.901199 112.0
246.06572 176.0
246.110352 128.0
246.162689 268.0
246.269608 236.0
246.325836 152.0
246.383652 100.0
246.425797 140.0
246.472672 208.0
246.67894 116.0
246.713318 108.0
246.782104 112.0
246.810242 36.0
247.119888 172.0
247.160568 176.0
247.232529 52.0
247.54245 104.0
247.608215 136.0
247.664581 136.0
247.695908 140.0
247.91835 128.0
248.31337 152.0
248.394913 116.0
248.420013 180.0
248.467072 60.0
248.526672 124.0
248.837402 80.0
248.87822 184.0
249.00383 116.0
249.054077 176.0
249.079208 164.0
249.132599 60.0
249.343124 52.0
249.383652 188.0
249.431137 40.0
249.516006 140.0
249.843079 132.0
249.909149 112.0
250.079071 160.0
250.142029 200.0
250.179794 160.0
250.233322 204.0
250.264801 112.0
250.330933 176.0
250.393906 156.0
250.420502 100.0
250.579758 32.0
250.715256 56.0
250.920135 152.0
251.156647 144.0
251.505249 148.0
251.617355 124.0
251.71524 76.0
251.895264 184.0
251.939484 136.0
251.993195 84.0
252.306076 228.0
252.359818 164.0
252.413574 148.0
252.52742 124.0
252.547562 108.0
252.570251 88.0
252.679245 204.0
252.921936 180.0
252.989395 48.0
253.109695 180.0
253.179367 108.0
253.20787 172.0
253.258545 168.0
253.401093 84.0
253.518326 112.0
253.606079 180.0
253.762405 184.0
253.854355 100.0
253.939972 48.0
254.003418 172.0
254.117615 160.0
254.222321 76.0
254.273102 168.0
254.412766 44.0
254.555634 204.0
254.676315 100.0
254.749374 44.0
254.911407 88.0
254.955902 184.0
254.994858 124.0
255.086212 76.0
255.114822 164.0
255.207016 176.0
255.340576 176.0
255.553711 192.0
255.836945 128.0
255.875153 136.0
255.935638 168.0
256.023376 216.0
256.133087 148.0
256.231842 204.0
256.410278 60.0
256.796051 164.0
256.824768 196.0
256.87262 124.0
256.936401 120.0
257.04187 160.0
257.150208 148.0
257.178925 120.0
257.242767 108.0
257.772949 84.0
258.102173 172.0
258.125427 272.0
258.287659 120.0
258.396423 196.0
258.425232 164.0
258.748474 52.0
258.895752 80.0
258.982239 56.0
259.004639 100.0
259.081512 168.0
259.180847 120.0
259.203278 160.0
259.232117 40.0
259.347504 168.0
259.38916 204.0
259.421204 164.0
259.456482 40.0
259.533417 176.0
259.67453 180.0
259.741882 180.0
259.825287 60.0
259.88623 40.0
259.924744 128.0
260.115387 140.0
260.147644 44.0
260.390228 156.0
260.502655 152.0
260.705048 188.0
260.798248 128.0
260.913971 224.0
261.016876 144.0
261.586304 84.0
261.673248 188.0
261.792358 180.0
261.988831 116.0
262.130615 92.0
262.204742 56.0
262.249847 192.0
262.27887 36.0
262.512482 116.0
262.956177 100.0
263.011047 168.0
263.085297 120.0
263.230591 164.0
263.327454 180.0
263.527039 276.0
263.744263 156.0
263.792725 108.0
264.025543 136.0
264.148438 192.0
264.206665 144.0
264.433167 92.0
264.48819 172.0
264.721283 168.0
265.122986 128.0
265.349884 80.0
265.447144 176.0
265.524994 148.0
265.60733 72.0
265.732574 120.0
265.901306 96.0
266.044128 164.0
266.216217 228.0
266.242188 176.0
266.281158 56.0
266.568756 160.0
266.680786 124.0
266.801056 100.0
266.957123 140.0
267.191315 208.0
267.292847 116.0
267.321472 84.0
267.467926 92.0
267.493958 152.0
267.529755 180.0
267.562317 176.0
267.749695 140.0
268.002014 156.0
268.050873 148.0
268.177979 164.0
268.295319 156.0
268.331177 112.0
268.784546 220.0
268.817169 264.0
268.902039 156.0
269.143585 64.0
269.172974 204.0
269.306885 152.0
269.368927 136.0
269.607452 204.0
269.649933 68.0
269.883636 180.0
269.893768 88.0
269.906189 144.0
269.973572 188.0
270.012817 48.0
270.16098 1016.0
270.220215 120.0
270.334656 96.0
270.354706 72.0
270.408691 152.0
270.519989 136.0
270.611633 48.0
270.634552 88.0
270.781921 32.0
270.817963 100.0
270.909668 152.0
271.145386 1052.0
271.253754 132.0
271.342255 184.0
271.450439 120.0
271.578339 88.0
271.622192 176.0
271.834229 156.0
272.003479 184.0
272.046234 184.0
272.14325 168.0
272.408813 44.0
272.540222 168.0
272.592773 216.0
272.648651 148.0
272.714386 44.0
272.81958 88.0
272.862305 208.0
272.974091 164.0
273.023407 228.0
273.141815 164.0
273.238739 156.0
273.327179 176.0
273.434662 52.0
273.592651 160.0
273.655212 76.0
273.777039 164.0
273.97467 76.0
274.162476 132.0
274.192139 56.0
274.258057 60.0
274.291016 180.0
274.439362 164.0
274.746063 152.0
274.825256 100.0
274.87146 140.0
274.960541 84.0
275.033173 180.0
275.148682 188.0
275.171814 132.0
275.36734 148.0
275.442596 116.0
275.561523 216.0
275.637512 76.0
275.713531 120.0
275.858948 108.0
275.908539 100.0
275.931671 168.0
276.20285 192.0
276.265686 160.0
276.331848 120.0
276.507233 128.0
276.576752 108.0
276.977386 172.0
277.302094 288.0
277.537445 76.0
277.799469 224.0
278.171112 64.0
278.247467 196.0
278.277344 96.0
278.513123 156.0
278.632721 68.0
278.901886 112.0
278.931793 228.0
278.967316 192.0
279.108002 120.0
279.1745 192.0
279.197784 108.0
279.320831 172.0
279.5737 208.0
279.636932 156.0
279.913239 180.0
280.133057 104.0
280.549591 76.0
280.636261 240.0
280.662933 188.0
280.722961 68.0
281.046509 216.0
281.220062 208.0
281.32019 268.0
281.480438 136.0
281.577301 128.0
281.734283 92.0
281.874603 112.0
281.984894 116.0
282.058411 144.0
282.125275 144.0
282.429565 132.0
282.583435 164.0
282.713928 184.0
282.796722 228.0
282.861969 120.0
283.296509 92.0
283.376923 188.0
283.490845 152.0
283.598083 104.0
283.621552 100.0
283.698669 168.0
283.847443 176.0
283.906525 76.0
284.104431 60.0
284.13797 56.0
284.411102 72.0
284.53064 92.0
284.619537 92.0
284.812714 320.0
284.876526 140.0
284.91684 100.0
285.041138 112.0
285.078125 140.0
285.138611 52.0
285.199097 56.0
285.266327 56.0
285.289856 152.0
285.329041 116.0
285.45462 80.0
285.547546 232.0
285.609314 112.0
285.63623 36.0
285.69339 152.0
285.729584 212.0
285.787598 96.0
285.8172 96.0
285.877106 188.0
285.932312 92.0
285.965942 100.0
285.993652 312.0
286.103973 224.0
286.19043 88.0
286.244873 188.0
286.251373 180.0
286.285797 148.0
286.326202 152.0
286.362244 228.0
286.390198 140.0
286.427246 148.0
286.471039 136.0
286.494263 116.0
286.552429 272.0
286.578827 168.0
286.673187 112.0
286.703522 72.0
286.738251 116.0
286.77887 132.0
286.829224 176.0
286.884827 96.0
286.922607 132.0
286.955688 148.0
286.977264 152.0
287.054108 264.0
287.11142 76.0
287.148529 100.0
287.208069 128.0
287.240509 88.0
287.296936 124.0
287.318604 120.0
287.342529 68.0
287.430511 252.0
287.442108 92.0
287.453125 200.0
287.476868 60.0
287.512878 168.0
287.569946 128.0
287.644073 152.0
287.684845 444.0
287.707123 116.0
287.73941 128.0
287.763611 144.0
287.800568 140.0
287.855164 252.0
287.868561 100.0
287.877472 188.0
287.912933 100.0
287.946198 356.0
287.975067 416.0
288.014252 228.0
288.04834 352.0
288.079712 372.0
288.173218 252820.0
288.284729 384.0
288.356934 124.0
288.404968 328.0
288.437408 408.0
288.487854 276.0
288.53656 180.0
288.611755 124.0
288.650696 88.0
288.678345 120.0
288.729492 2676.0
288.777161 172.0
288.835602 140.0
288.874054 124.0
288.912903 160.0
288.995453 164.0
289.02124 68.0
289.048584 124.0
289.11496 144.0
289.175629 50480.0
289.260254 180.0
289.286072 248.0
289.32074 104.0
289.363098 68.0
289.388184 56.0
289.410309 56.0
289.457275 108.0
289.536072 112.0
289.56839 156.0
289.604248 224.0
289.647766 152.0
289.690308 60.0
289.737305 92.0
289.761047 96.0
289.801758 204.0
289.814178 72.0
289.821045 192.0
289.847443 60.0
289.890503 164.0
289.99411 116.0
290.017059 160.0
290.064697 92.0
290.087738 96.0
290.115906 176.0
290.176697 6196.0
290.266479 36.0
290.292725 76.0
290.313843 120.0
290.351715 152.0
290.391968 60.0
290.43988 84.0
290.478027 112.0
290.515564 100.0
290.566406 56.0
290.591766 40.0
290.597168 80.0
290.648376 108.0
290.698975 172.0
290.74057 224.0
290.802032 188.0
290.825165 108.0
290.851868 252.0
290.885132 176.0
290.94104 328.0
290.968079 208.0
290.995728 248.0
291.037292 244.0
291.083771 224.0
291.113831 148.0
291.125458 252.0
291.184326 824.0
291.264557 136.0
291.291504 304.0
291.310577 112.0
291.319244 184.0
291.35257 136.0
291.404724 360.0
291.478271 36.0
291.522461 112.0
291.576843 108.0
291.604004 56.0
291.642944 44.0
291.661621 80.0
291.669037 100.0
291.731476 48.0
291.754639 104.0
291.809662 112.0
291.873962 92.0
291.934235 92.0
292.004211 68.0
292.05722 164.0
292.108887 140.0
292.16449 168.0
292.229706 196.0
292.261383 64.0
292.304565 112.0
292.376038 120.0
292.415131 76.0
292.466675 96.0
292.522369 84.0
292.549622 60.0
292.696625 68.0
292.723236 32.0
292.843811 84.0
292.90921 100.0
292.943512 108.0
293.082825 92.0
293.121796 56.0
293.205719 108.0
293.234253 40.0
293.264923 56.0
293.33786 124.0
293.418121 68.0
293.448029 84.0
293.766174 84.0
294.001587 52.0
294.07666 44.0
294.134705 48.0
294.196136 56.0
294.336121 120.0
294.360016 96.0
294.424896 108.0
294.479553 92.0
294.530792 104.0
294.763092 84.0
294.896362 96.0
294.995483 68.0
295.026276 84.0
295.091217 48.0
295.221161 60.0
295.576904 68.0
295.604279 68.0
295.631653 76.0
295.713806 44.0
296.004791 32.0
296.028748 124.0
296.121216 32.0
296.213684 28.0
296.487793 64.0
296.666016 88.0
296.731171 40.0
296.80658 80.0
296.923187 168.0
297.021545 76.0
297.190735 40.0
297.252502 108.0
297.37262 76.0
297.6026 84.0
298.410034 88.0
298.532654 96.0
298.946594 48.0
299.332153 32.0
299.545685 64.0
299.891724 64.0
300.421234 44.0
300.469543 112.0
300.573059 32.0
300.68692 76.0
300.793915 88.0
300.821533 132.0
300.952728 56.0
301.007965 112.0
301.1185 68.0
301.146118 92.0
301.273926 44.0
301.605316 40.0
301.631653 76.0
301.795776 40.0
301.899506 44.0
302.086273 88.0
302.207367 60.0
302.705811 136.0
302.787384 136.0
302.834808 96.0
302.867523 132.0
302.951355 76.0
303.426483 84.0
303.565186 100.0
303.918976 92.0
304.238281 152.0
304.262573 64.0
304.717529 72.0
304.807861 100.0
304.859985 84.0
304.955811 148.0
305.099823 44.0
305.38147 48.0
306.070526 100.0
306.16803 128.0
306.219086 120.0
306.307343 60.0
306.453644 92.0
306.565155 44.0
307.119476 80.0
307.960632 84.0
308.075897 156.0
308.128326 44.0
308.309998 56.0
308.481262 124.0
308.607117 72.0
309.130859 148.0
309.516846 96.0
309.597382 52.0
310.54364 48.0
310.880432 92.0
311.361389 52.0
311.505371 64.0
311.617798 60.0
311.898926 84.0
312.190735 104.0
312.34198 52.0
312.623444 84.0
313.158539 124.0
313.246613 132.0
313.465057 40.0
313.930359 56.0
314.152557 80.0
314.177246 92.0
315.024475 108.0
315.577148 168.0
315.678345 100.0
316.164459 1492.0
317.161194 260.0
317.651062 120.0
318.17627 196.0
318.925781 56.0
319.15686 112.0
319.444916 72.0
319.558777 92.0
319.637054 40.0
319.875488 100.0
320.701843 68.0
320.922882 156.0
321.27594 52.0
322.064819 112.0
322.568634 108.0
322.647278 124.0
322.693756 88.0
322.961945 88.0
323.606079 96.0
324.297455 52.0
324.795837 36.0
324.939331 120.0
326.163879 76.0
326.322052 60.0
327.297119 108.0
327.628448 96.0
327.756622 92.0
329.071045 68.0
329.266022 84.0
329.34549 52.0
329.732086 88.0
329.963409 112.0
331.407501 40.0
332.502594 48.0
333.123474 124.0
334.235962 84.0
334.436127 76.0
334.865753 36.0
335.204559 64.0
335.722198 76.0
336.003052 108.0
336.25116 64.0
337.018005 88.0
338.298035 68.0
339.794067 88.0
340.094147 36.0
340.431915 100.0
340.64859 96.0
341.328522 120.0
341.898682 120.0
342.067993 92.0
342.49881 64.0
343.210052 104.0
344.010651 60.0
344.708679 80.0
344.812164 116.0
345.359344 72.0
346.166138 176.0
349.023315 84.0
349.867859 80.0
350.311005 144.0
350.571808 88.0
351.343628 72.0
351.39212 56.0
352.639313 64.0
352.960815 120.0
353.230103 104.0
354.379395 52.0
354.446838 72.0
354.937866 76.0
354.979095 68.0
355.012848 132.0
357.447021 76.0
357.940125 44.0
359.625275 76.0
360.006561 108.0
360.66394 116.0
361.821472 44.0
362.014587 56.0
364.27124 64.0
364.502991 92.0
365.255737 72.0
369.310303 52.0
370.362854 100.0
370.859253 60.0
371.973297 40.0
373.225708 84.0
373.521851 60.0
373.556458 48.0
373.664185 88.0
374.603485 64.0
374.996521 92.0
375.146851 92.0
375.57486 136.0
376.207672 40.0
376.582245 44.0
376.995605 156.0
377.161804 36.0
377.544556 100.0
378.876038 28.0
379.856781 60.0
380.780548 96.0
381.68988 60.0
382.806671 88.0
383.227325 68.0
383.882172 52.0
384.303436 76.0
385.330261 64.0
386.448425 92.0
386.483643 84.0
387.22348 104.0
388.54837 72.0
388.685699 88.0
388.768097 84.0
388.917236 44.0
389.565125 96.0
391.153778 72.0
392.327667 76.0
393.448029 196.0
394.356537 76.0
396.743408 28.0
398.263184 52.0
399.014221 72.0
399.197144 124.0
399.439728 136.0
400.52243 36.0
401.327423 88.0
403.123627 76.0
404.279297 68.0
406.130249 64.0
406.214478 144.0
406.314758 56.0
406.403015 100.0
407.198547 112.0
407.238007 56.0
408.251465 112.0
408.403595 68.0
408.733459 88.0
409.534576 92.0
411.151276 52.0
411.684143 100.0
412.40329 64.0
412.928864 60.0
414.001312 72.0
416.889648 108.0
417.653992 52.0
417.828888 108.0
419.082855 56.0
420.281586 120.0
420.693787 116.0
421.134766 88.0
422.144226 60.0
424.97049 100.0
426.995636 92.0
428.11499 92.0
428.506287 84.0
428.737061 48.0
428.819458 84.0
429.999023 132.0
430.420074 52.0
430.680237 104.0
430.738068 120.0
432.209839 32.0
433.18689 96.0
433.812622 124.0
436.453064 76.0
436.939667 100.0
439.139069 80.0
440.069611 72.0
440.215759 36.0
440.449646 120.0
440.516479 60.0
441.226898 52.0
443.038971 108.0
444.317596 92.0
444.800171 128.0
445.07724 48.0
448.526947 48.0
448.615479 76.0
449.370361 80.0
449.653076 76.0
450.860901 64.0
452.163452 136.0
452.379333 60.0
454.426239 72.0
456.618103 84.0
458.035431 80.0
460.133514 68.0
460.829651 92.0
460.94928 84.0
461.222809 72.0
462.951233 80.0
463.885254 48.0
464.215393 88.0
464.283997 72.0
467.247772 124.0
468.517761 44.0
470.855591 60.0
471.58139 112.0
472.683289 100.0
472.723114 100.0
473.142944 60.0
473.575958 36.0
474.351562 108.0
477.834381 116.0
478.726654 116.0
478.961853 48.0
479.532623 124.0
480.365417 56.0
482.085602 52.0
482.824402 56.0
483.48938 92.0
483.934937 76.0
484.06723 28.0
484.5271 80.0
486.874939 120.0
491.32373 108.0
491.800293 100.0
494.21756 76.0
495.240173 84.0
496.002258 36.0
496.082062 108.0
496.969025 56.0
497.790192 72.0
498.478699 124.0
499.283325 68.0
499.54129 60.0
499.59021 44.0
501.40686 44.0
501.848175 108.0
503.485809 56.0
504.674408 40.0
505.305054 124.0
505.721191 100.0
506.168884 36.0
506.33905 44.0
508.567291 136.0
509.312622 128.0
510.193359 88.0
511.412354 64.0
511.46637 64.0
514.233765 68.0
514.72583 92.0
515.78302 52.0
516.12207 60.0
516.859314 60.0
516.972473 64.0
518.358093 40.0
518.512207 96.0
520.580811 76.0
521.280396 32.0
522.098633 68.0
522.840149 104.0
523.090515 104.0
523.664185 100.0
523.696106 52.0
524.189453 132.0
525.300537 48.0
528.580811 60.0
530.421875 84.0
533.442261 116.0
533.943481 52.0
537.066101 84.0
538.483032 76.0
543.965149 92.0
545.403625 140.0
546.786377 60.0
547.163452 96.0
551.618469 52.0
552.259094 80.0
553.307251 44.0
553.611572 52.0
554.595459 104.0
555.073608 76.0
556.74884 104.0
557.289062 92.0
558.473694 76.0
558.54425 96.0
559.016479 52.0
560.973938 32.0
563.14447 44.0
563.224731 44.0
563.838928 60.0
563.942932 72.0
567.460083 104.0
569.362854 88.0
572.89209 72.0
573.740295 76.0
577.780518 68.0
578.986694 104.0
580.083862 40.0
581.446045 60.0
581.724426 80.0
582.73291 76.0
583.256714 44.0
583.473022 60.0
585.489136 56.0
586.823853 108.0
587.132446 108.0
588.91333 60.0
589.652527 44.0
590.658203 44.0
591.722839 44.0
593.486389 96.0
596.525513 108.0
596.762512 180.0
602.314331 84.0
607.659973 100.0
612.546509 88.0
612.605591 60.0
613.216553 44.0
615.777161 88.0
616.048828 68.0
616.231567 100.0
618.412354 72.0
619.784058 80.0
620.160706 112.0
622.010803 84.0
623.018799 128.0
623.674744 88.0
624.55481 96.0
625.983093 48.0
627.183777 96.0
630.107971 44.0
630.907593 84.0
635.796143 52.0
639.323975 48.0
641.288086 80.0
644.335876 44.0
645.260742 96.0
647.001038 116.0
647.937927 92.0
648.505432 96.0
648.566284 80.0
648.80957 44.0
650.651123 40.0
651.235107 84.0
651.478882 68.0
652.249084 132.0
653.924622 44.0
654.138428 64.0
654.224976 108.0
654.800354 96.0
655.849854 196.0
657.262512 96.0
657.966797 48.0
658.880981 80.0
659.489014 52.0
662.461914 72.0
663.471436 52.0
665.852295 104.0
669.112244 52.0
669.338806 128.0
671.761047 112.0
675.397522 32.0
677.830688 84.0
679.038574 88.0
685.198181 180.0
686.532532 68.0
687.925598 76.0
689.482056 32.0
689.973389 104.0
690.878113 96.0
692.348877 36.0
694.429504 120.0
696.073181 76.0
696.355652 48.0
696.419861 108.0
700.031616 40.0
707.084473 60.0
707.529053 80.0
708.106262 44.0
708.233337 116.0
708.641235 64.0
709.038635 32.0
709.473267 76.0
709.717163 28.0
712.094482 44.0
712.142334 72.0
713.651489 96.0
715.204834 76.0
715.645142 68.0
717.010315 40.0
720.302307 120.0
720.713623 108.0
722.456543 52.0
724.881897 52.0
725.578674 128.0
728.148865 64.0
729.502869 80.0
729.889954 212.0
733.065857 40.0
736.73468 52.0
737.626282 104.0
738.567139 128.0
741.886475 116.0
745.088318 48.0
745.457764 36.0
747.02356 56.0
747.643799 84.0
751.016174 84.0
755.347595 44.0
757.268799 84.0
757.586487 72.0
757.942566 92.0
758.940125 68.0
759.477539 68.0
759.608276 72.0
759.622253 116.0
759.888977 156.0
771.647461 128.0
771.896301 60.0
774.264709 68.0
779.795959 48.0
786.518555 72.0
792.83844 108.0
803.894226 64.0
805.266052 160.0
807.877441 84.0
808.771484 60.0
808.94696 144.0
809.348938 104.0
813.91333 80.0
814.355164 104.0
814.577759 68.0
820.68988 104.0
822.292786 100.0
825.103149 44.0
827.757935 40.0
827.878174 84.0
830.92749 228.0
831.799744 52.0
836.110352 164.0
839.676453 48.0
840.622498 104.0
841.944458 164.0
844.522095 72.0
845.922302 64.0
846.617126 52.0
846.738708 128.0
846.83136 64.0
847.346924 36.0
851.744019 128.0
851.912476 56.0
854.656555 144.0
857.317627 152.0
858.938416 172.0
859.177612 124.0
860.578308 148.0
860.625 64.0
861.343323 96.0
864.032288 80.0
865.706299 140.0
867.211914 220.0
869.217529 56.0
875.342468 184.0
876.29071 88.0
881.181641 68.0
885.422791 64.0
887.710205 140.0
888.766052 96.0
888.843201 88.0
889.222961 60.0
895.191589 100.0
896.180359 92.0
896.627258 200.0
900.785828 276.0
901.287659 152.0
902.710327 72.0
907.386475 152.0
912.9646 192.0
914.709351 104.0
918.402954 68.0
922.200623 56.0
929.916687 84.0
931.045898 160.0
931.756531 164.0
932.58905 40.0
933.707703 212.0
934.036133 80.0
936.464661 208.0
937.616089 156.0
947.208435 84.0
949.243164 120.0
952.809143 64.0
952.987305 92.0
954.493164 76.0
954.935974 156.0
960.676575 216.0
961.398499 36.0
962.645447 128.0
962.775085 156.0
963.899353 132.0
964.276306 128.0
969.016235 112.0
972.172241 208.0
977.273682 60.0
982.407104 112.0
983.074707 160.0
985.078857 220.0
987.435242 180.0
990.545898 208.0
992.419739 56.0
993.228699 200.0
994.188599 144.0
995.236877 192.0
995.802002 32.0
999.21521 160.0
999.347351 112.0
1000.80127 164.0
1006.962097 104.0
1010.261536 260.0
1013.60437 212.0
1013.813477 160.0
1014.092346 200.0
1016.108765 184.0
1017.955811 184.0
1018.660767 112.0
1019.518494 224.0
1020.147705 48.0
1021.037842 168.0
1022.011108 160.0
1022.571045 148.0
1022.647461 192.0
1025.103149 104.0
1026.01709 124.0
1027.490234 184.0
1029.092163 64.0
1031.308838 160.0
1034.385376 80.0
1034.865479 48.0
1038.793945 200.0
1040.057983 144.0
1041.406372 164.0
1041.740356 100.0
1042.042236 176.0
1043.391846 40.0
1044.356445 128.0
1045.147705 172.0
1045.797607 168.0
1048.702393 80.0
1054.019897 224.0
1056.017456 80.0
1057.453735 80.0
1059.538696 164.0
1063.254028 140.0
1063.325439 92.0
1067.301025 100.0
1068.803467 236.0
1068.985718 60.0
1069.55835 172.0
1071.05603 44.0
1073.532471 264.0
1073.878174 112.0
1074.824097 116.0
1076.103271 108.0
1076.233887 124.0
1076.501587 192.0
1078.40271 208.0
1080.069946 244.0
1080.488647 60.0
1080.625977 224.0
1080.97937 164.0
1082.105103 192.0
1084.600952 116.0
1087.952881 200.0
1090.260498 60.0
1093.50708 80.0
1094.7052 108.0
1095.153076 56.0
1096.062134 156.0
1096.668457 76.0
1097.30127 192.0
1097.499023 92.0
1098.171631 204.0
1099.702271 124.0
1102.277832 144.0
1102.965088 168.0
1103.322021 104.0
1104.089111 144.0
1104.472656 148.0
1107.047119 36.0
1107.206055 48.0
1108.053833 136.0
1109.153931 56.0
1109.545044 48.0
1110.446777 144.0
1113.081299 176.0
1113.572754 48.0
1115.001099 184.0
1116.443726 64.0
1117.281738 96.0
1117.687622 96.0
1118.013672 72.0
1118.386353 112.0
1124.12439 156.0
1124.785034 220.0
1127.369751 148.0
1128.399048 116.0
1128.847046 48.0
1129.067749 76.0
1131.931763 144.0
1132.192993 88.0
1132.500977 148.0
1132.594727 184.0
1133.432129 156.0
1133.740479 116.0
1133.794067 32.0
1134.879883 120.0
1135.295654 156.0
1136.690918 144.0
1136.771484 84.0
1138.019897 148.0
1141.10376 172.0
1144.400391 36.0
1145.962891 56.0
1148.403198 224.0
1148.868652 32.0
1148.983276 144.0
1149.266602 164.0
1149.556763 132.0
1149.799683 196.0
1152.230469 212.0
1152.446655 120.0
1152.507568 120.0
1153.185059 76.0
1155.671753 76.0
1155.928833 144.0
1156.720703 148.0
1156.862915 104.0
1156.944092 52.0
1157.228394 152.0
1158.074951 184.0
1160.473755 208.0
1161.51123 96.0
1161.986084 52.0
1162.73938 132.0
1165.571045 144.0
1166.875977 152.0
1168.004761 192.0
1168.882446 44.0
1170.618164 164.0
1171.013184 152.0
1173.241333 52.0
1173.752686 156.0
1174.420898 156.0
1174.591431 180.0
1175.539795 180.0
1175.792236 144.0
1176.720581 164.0
1176.788818 116.0
1177.04834 152.0
1178.710693 280.0
1179.306396 124.0
1180.820435 148.0
1180.957275 148.0
1181.737061 68.0
1182.243408 144.0
1183.304321 152.0
1183.667236 36.0
1184.112305 52.0
1184.680908 116.0
1185.304321 188.0
1188.1427 112.0
1191.80896 220.0
1192.874146 136.0
1195.129883 148.0
1196.217163 208.0
1196.389282 144.0
1197.780273 200.0
1198.035156 112.0
1198.675903 176.0
1199.144531 172.0
1199.978516 168.0
1200.785278 172.0
1200.872559 172.0
1201.895996 192.0
1202.254761 196.0
1204.492554 148.0
1204.643677 136.0
1205.631592 60.0
1206.192383 136.0
1206.751465 160.0
1207.104004 48.0
1208.694946 56.0
1210.757812 108.0
1213.113525 140.0
1213.827637 128.0
1214.54187 192.0
1214.798584 192.0
1215.506226 76.0
1217.054077 148.0
1217.206787 236.0
1217.442871 88.0
1218.658447 164.0
1219.033691 152.0
1219.249146 228.0
1220.222168 160.0
1221.251343 188.0
1221.376587 152.0
1222.844604 152.0
1223.088257 136.0
1224.306641 128.0
1225.146851 124.0
1225.657959 104.0
1226.048218 128.0
1227.344727 164.0
1227.449341 116.0
1227.658447 120.0
1228.425659 168.0
1228.572144 128.0
1229.186157 116.0
1229.681641 128.0
1229.765381 140.0
1233.446289 224.0
1233.67688 132.0
1233.865723 200.0
1234.11731 184.0
1236.334717 232.0
1236.488647 80.0
1237.279663 204.0
1238.098877 124.0
1238.632324 112.0
1238.799194 140.0
1239.002441 112.0
1239.506836 140.0
1239.745117 116.0
1239.96228 168.0
1240.249634 100.0
1240.494995 80.0
1243.384766 196.0
1243.679443 152.0
1244.936157 132.0
1246.818848 36.0
1247.528687 144.0
1247.662354 180.0
1248.224731 172.0
1249.139038 184.0
1250.011353 104.0
1250.109863 140.0
1250.884155 68.0
1251.940186 264.0
1252.186646 224.0
1252.919189 104.0
1254.568237 156.0
1254.899536 116.0
1255.082886 68.0
1255.209839 124.0
1255.907959 116.0
1256.133667 188.0
1257.502441 144.0
1258.074219 160.0
1259.295776 104.0
1260.27771 100.0
1260.553223 176.0
1260.6875 116.0
1261.662842 180.0
1262.072876 172.0
1262.560791 168.0
1263.600586 200.0
1264.109985 152.0
1264.548828 212.0
1265.07959 104.0
1265.461914 96.0
1265.532715 216.0
1265.738037 180.0
1265.993042 104.0
1267.197144 200.0
1267.423828 32.0
1268.734985 76.0
1269.656738 132.0
1270.131958 208.0
1270.550415 220.0
1271.26709 148.0
1271.408936 148.0
1271.671509 108.0
1272.551758 124.0
1274.050293 164.0
1274.15686 192.0
1274.32019 256.0
1275.329224 68.0
1276.566284 172.0
1277.213501 120.0
1277.654541 108.0
1277.732788 160.0
1278.010254 152.0
1278.166748 208.0
1278.309082 68.0
1278.494019 76.0
1278.636353 108.0
1280.266602 148.0
1281.812378 124.0
1281.905029 152.0
1282.731812 176.0
1283.024048 132.0
1283.266479 40.0
1283.337769 164.0
1283.466064 196.0
1283.644287 36.0
1284.842529 120.0
1285.192139 136.0
1285.41333 152.0
1286.241211 180.0
1287.033569 80.0
1287.426392 188.0
1287.954834 236.0
1289.047852 292.0
1290.219971 140.0
1290.455933 128.0
1290.963623 128.0
1291.200684 52.0
1291.292603 140.0
1292.30835 68.0
1292.372681 128.0
1293.761108 64.0
1294.290894 196.0
1294.484253 196.0
1294.992676 144.0
1296.164429 232.0
1296.532959 148.0
1296.973145 224.0
1297.063354 244.0
1298.712524 192.0
1299.759888 176.0
1300.491821 48.0
1300.757446 200.0
1300.987183 92.0
1302.193359 160.0
1302.473511 48.0
1303.472168 160.0
1305.837158 48.0
1306.092651 156.0
1306.980957 224.0
1307.081665 184.0
1307.44873 168.0
1308.722778 164.0
1309.190796 120.0
1309.37085 100.0
1309.644531 144.0
1309.810181 316.0
1310.400879 160.0
1310.905273 216.0
1311.092651 100.0
1311.366455 120.0
1312.720459 164.0
1313.18335 132.0
1313.378052 184.0
1314.380859 132.0
1314.705566 144.0
1314.950928 56.0
1315.376709 232.0
1315.812744 192.0
1316.813599 160.0
1316.871338 160.0
1318.489624 120.0
1318.583618 152.0
1318.86853 124.0
1319.190674 144.0
1320.072754 140.0
1320.195679 192.0
1322.170654 32.0
1322.836548 144.0
1323.227417 100.0
1323.697998 136.0
1323.792114 96.0
1324.103516 244.0
1324.458496 124.0
1324.574341 156.0
1325.479858 68.0
1325.690063 152.0
1325.834961 168.0
1326.393066 188.0
1327.349976 52.0
1327.524048 144.0
1327.799561 136.0
1328.089722 148.0
1328.764282 132.0
1329.896362 52.0
1330.346313 248.0
1330.629517 148.0
1330.796509 184.0
1330.992554 144.0
1331.442749 112.0
1331.500854 136.0
1332.728394 116.0
1334.836304 156.0
1335.810913 108.0
1336.021606 124.0
1336.174561 212.0
1337.520752 172.0
1337.884766 76.0
1338.401611 112.0
1339.581421 148.0
1339.792725 84.0
1340.035645 200.0
1340.652466 172.0
1340.761841 168.0
1343.291748 240.0
1343.795166 72.0
1346.138062 164.0
1346.233032 124.0
1346.627319 160.0
1347.124023 120.0
1347.529663 212.0
1347.744995 140.0
1348.117676 204.0
1348.358887 144.0
1348.541504 156.0
1348.936279 184.0
1349.564941 44.0
1350.39856 176.0
1351.393433 92.0
1354.087158 96.0
1354.226318 128.0
1354.380127 120.0
1354.709717 192.0
1355.537598 192.0
1355.691528 104.0
1356.439087 104.0
1357.010864 132.0
1357.472778 52.0
1357.604858 36.0
1357.692871 80.0
1358.272217 152.0
1358.389526 228.0
1358.697632 132.0
1359.174561 192.0
1359.842407 136.0
1360.003784 56.0
1360.591064 120.0
1360.679199 180.0
1360.884766 60.0
1360.950806 144.0
1361.685059 168.0
1361.736572 128.0
1362.059692 196.0
1362.338867 76.0
1362.80896 116.0
1364.065674 216.0
1364.352295 164.0
1365.359619 116.0
1365.440552 132.0
1365.580322 184.0
1366.19812 168.0
1367.544678 164.0
1367.677124 72.0
1367.772827 148.0
1368.369141 176.0
1368.840332 68.0
1369.179077 100.0
1369.3927 256.0
1369.865967 136.0
1370.136597 88.0
1370.465088 104.0
1370.486328 60.0
1370.516357 132.0
1370.770264 104.0
1371.521973 80.0
1372.694092 196.0
1372.790039 228.0
1372.983398 180.0
1373.055542 148.0
1373.129272 184.0
1373.298828 168.0
1373.800415 80.0
1374.420166 236.0
1374.604614 108.0
1374.914551 152.0
1375.822388 180.0
1377.469116 208.0
1377.897583 96.0
1378.067505 184.0
1378.954224 152.0
1379.700806 124.0
1380.531616 252.0
1380.795166 36.0
1381.253662 164.0
1381.349854 224.0
1381.690063 128.0
1382.304199 236.0
1383.125 132.0
1383.412109 144.0
1383.547607 140.0
1384.421265 164.0
1384.96936 160.0
1385.221191 128.0
1385.450806 164.0
1385.576782 144.0
1385.658203 188.0
1386.088013 168.0
1386.45105 164.0
1386.55481 128.0
1386.747559 148.0
1387.444214 132.0
1387.50354 144.0
1387.814941 196.0
1387.897339 196.0
1388.675171 196.0
1388.823486 140.0
1389.711426 236.0
1390.047607 76.0
1390.314697 216.0
1390.789673 64.0
1391.47998 72.0
1391.799316 68.0
1391.932983 132.0
1392.408203 80.0
1392.54187 200.0
1392.786987 160.0
1392.980103 172.0
1393.11377 140.0
1393.403564 148.0
1394.005371 144.0
1394.882324 144.0
1395.856201 128.0
1396.503296 188.0
1396.897461 124.0
1397.113159 168.0
1397.306641 152.0
1397.433105 212.0
1397.619141 148.0
1398.050659 148.0
1398.437622 28.0
1398.765137 160.0
1398.891724 240.0
1399.11499 236.0
1399.234131 68.0
1399.45752 124.0
1399.57666 224.0
1399.993652 132.0
1400.068115 192.0
1400.38147 148.0
1400.44043 124.0
1401.081055 108.0
1401.456055 144.0
1401.736694 116.0
1401.82605 136.0
1401.93042 108.0
1401.982544 264.0
1402.131592 172.0
1402.623535 120.0
1403.085693 64.0
1405.487183 200.0
1405.696167 140.0
1405.800659 160.0
1406.487183 188.0
1407.256104 140.0
1407.487549 96.0
1407.689209 176.0
1407.823608 160.0
1407.995361 236.0
1408.488281 156.0
1408.817017 128.0
1408.98877 72.0
1409.705078 180.0
1410.378662 56.0
1410.969238 100.0
1411.222656 120.0
1411.612183 68.0
1412.053345 156.0
1412.330078 156.0
1413.048218 84.0
1413.901245 136.0
1413.991089 160.0
1414.20813 88.0
1414.619751 152.0
1414.874268 120.0
1415.258179 128.0
1415.323486 128.0
1415.757812 152.0
1415.907593 184.0
1416.012451 152.0
1416.08728 148.0
1416.439331 132.0
1416.611694 168.0
1417.368286 184.0
1417.435791 208.0
1418.057739 144.0
1418.187134 76.0
1418.86731 144.0
1419.092163 124.0
1419.25708 40.0
1420.103271 188.0
1420.187012 92.0
1420.524536 132.0
1421.199707 140.0
1421.282227 184.0
1421.965088 272.0
1422.046143 292.0
1422.340454 144.0
1422.790771 164.0
1422.940918 148.0
1423.27124 140.0
1423.580322 200.0
1424.216553 152.0
1424.435303 148.0
1426.095825 120.0
1426.216064 104.0
1426.389038 108.0
1426.524292 240.0
1426.757324 164.0
1428.140869 116.0
1428.750244 100.0
1429.050293 228.0
1429.412231 180.0
1429.675659 64.0
1430.134766 140.0
1430.691772 176.0
1430.99292 104.0
1431.437134 204.0
1432.069702 160.0
1432.91333 112.0
1433.041382 132.0
1433.18457 100.0
1433.259888 176.0
1433.674316 152.0
1433.772339 124.0
1433.859375 172.0
1434.005981 152.0
1434.397827 132.0
1434.820068 148.0
1435.121582 220.0
1435.37793 68.0
1435.634277 144.0
1435.837891 184.0
1435.990479 140.0
1437.399414 176.0
1437.474976 48.0
1437.557861 172.0
1438.237183 176.0
1438.456055 148.0
1439.218506 40.0
1439.278931 136.0
1439.648926 176.0
1439.731934 188.0
1440.2229 280.0
1440.683716 112.0
1441.556885 208.0
1442.134399 160.0
1444.826294 204.0
1445.038208 184.0
1445.15918 304.0
1445.547485 192.0
1445.893311 204.0
1446.831787 152.0
1447.399536 72.0
1447.710083 224.0
1447.853882 92.0
1448.217407 172.0
1448.323486 144.0
1449.073486 132.0
1449.164307 120.0
1449.331055 120.0
1449.528076 200.0
1449.619019 156.0
1449.884155 156.0
1450.664917 132.0
1450.861938 128.0
1451.203125 60.0
1451.377563 156.0
1451.544312 144.0
1451.908325 164.0
1452.666748 116.0
1452.970215 132.0
1453.911011 152.0
1454.252563 96.0
1454.313232 152.0
1454.601685 212.0
1454.99646 76.0
1456.720215 188.0
1456.900513 260.0
1457.14563 200.0
1457.586304 144.0
1457.920654 208.0
1458.034668 168.0
1458.270264 148.0
1458.574341 96.0
1458.665283 120.0
1459.212891 32.0
1460.072021 132.0
1460.19519 132.0
1460.710938 164.0
1460.940063 152.0
1461.639038 68.0
1461.768433 324.0
1461.95105 144.0
1462.552368 128.0
1462.712158 148.0
1462.826294 252.0
1463.191772 176.0
1464.059692 68.0
1464.455811 224.0
1464.806152 164.0
1465.164185 172.0
1465.270752 176.0
1465.506958 120.0
1465.58313 112.0
1465.651733 156.0
1466.055664 120.0
1466.215698 156.0
1466.619629 164.0
1467.34375 68.0
1467.462646 208.0
1468.197754 128.0
1468.274048 132.0
1468.617188 220.0
1469.402832 112.0
1469.761475 76.0
1470.280396 96.0
1470.394775 136.0
1470.539795 296.0
1471.249756 164.0
1472.028442 72.0
1472.211792 76.0
1472.662354 180.0
1472.869995 84.0
1473.909668 172.0
1473.983887 144.0
1474.687012 288.0
1474.908569 164.0
1475.030884 104.0
1475.955933 140.0
1476.093628 116.0
1476.326172 256.0
1476.430054 112.0
1476.613647 60.0
1476.720703 60.0
1477.386108 212.0
1477.569702 140.0
1478.717529 124.0
1479.682007 132.0
1479.827393 148.0
1480.424683 180.0
1480.5625 116.0
1481.182861 172.0
1481.351318 184.0
1481.458618 64.0
1481.902954 176.0
1482.102173 128.0
1482.28772 220.0
1483.067749 132.0
1483.688599 140.0
1483.86499 156.0
1484.059326 248.0
1484.12561 124.0
1484.23291 44.0
1484.463013 132.0
1484.823364 188.0
1485.1875 176.0
1486.032349 188.0
1486.64917 180.0
1487.032959 68.0
1487.332275 108.0
1488.053833 260.0
1488.149658 172.0
1488.321167 248.0
1488.537598 196.0
1488.629639 68.0
1489.021362 204.0
1489.098145 156.0
1489.160522 168.0
1489.543579 92.0
1489.858521 168.0
1490.342529 136.0
1490.411743 148.0
1490.964966 144.0
1491.103271 112.0
1491.479858 164.0
1492.86377 196.0
1493.471313 88.0
1493.578979 108.0
1494.255981 176.0
1494.486694 236.0
1494.979248 124.0
1495.140747 120.0
1495.260498 140.0
1495.671875 52.0
1496.113403 196.0
1496.272217 184.0
1496.464722 180.0
1497.696777 112.0
1497.750732 236.0
1497.858643 148.0
1498.436401 144.0
1498.536499 192.0
1498.598145 156.0
1498.700806 236.0
1499.068115 100.0
1499.468872 160.0
1499.915894 188.0
1500.154907 152.0
1501.334473 140.0
1501.403931 148.0
1501.49646 120.0
1501.59668 124.0
1501.866577 136.0
1502.383423 192.0
1502.560913 176.0
1502.614868 212.0
1502.769165 188.0
1503.486816 152.0
1503.857178 176.0
1504.096436 56.0
1504.250854 156.0
