>compound Felodipine
>formula C18H19Cl2NO4 
>ionization [M+H]+
>parentmass 384.078
#inchi InChI=1S/C18H19Cl2NO4/c1-5-25-18(23)14-10(3)21-9(2)13(17(22)24-4)15(14)11-7-6-8-12(19)16(11)20/h6-8,15,21H,5H2,1-4H3
#inchikey RZTAMFZIAATZDJ
#Ion_Source LC-ESI
#Instrument qTof
#Compound_Source Commercial
#PI Dorrestein
#Data_Collector Garg_Neha
#Scan -1
#Precursor_MZ 384.078
#ExactMass 383.069
#Charge 1
#CAS_Number N/A
#Pubmed_ID N/A
#Smiles N/A
#INCHI_AUX N/A
#Library_Class 1
#SpectrumID CCMSLIB00000077135
#IonMode Positive
#UpdateWorkflowName UPDATE-SINGLE-ANNOTATED-GOLD
#LibraryQualityString Gold
#TaskID 48f7f52fc6d249b5abbcc6e7b3df5969
##Scan# 2399
#SpectrumFile NCP003195_A2A7B2B6C2C6D2D6_BB6_01_15710.mzXML
#LibraryName NIH_Clinical_Collection_2.mgf
#MQScore -1
#Organism NIHcollection2_04212014_2_mgf
#TIC_Query 0
#RT_Query -1
#MZErrorPPM -1
#SharedPeaks 0
#MassDiff 0
#LibMZ -1
#SpecMZ 384.078
#SpecCharge 0
#internalFilename spec-00000.mgf

>collision 10
45.253754 180.0
45.842094 196.0
50.667191 140.0
52.714802 144.0
52.758163 168.0
52.902828 140.0
54.076061 160.0
55.726234 160.0
55.888302 184.0
61.654163 168.0
62.781357 204.0
64.859428 172.0
65.202904 144.0
65.484459 160.0
65.869957 244.0
68.382713 148.0
68.63311 160.0
70.677879 164.0
71.009575 172.0
71.190819 152.0
72.630486 176.0
73.595413 152.0
74.098259 160.0
75.688034 272.0
77.067375 172.0
81.628601 184.0
83.584038 156.0
84.419502 176.0
84.873627 152.0
85.465073 148.0
85.706284 220.0
86.973091 224.0
89.885223 212.0
94.39167 176.0
94.877655 140.0
96.29229 148.0
96.82621 220.0
98.231567 188.0
98.70755 160.0
99.035553 108.0
100.660896 192.0
100.930649 180.0
102.445946 156.0
102.540649 148.0
102.603142 140.0
104.051697 224.0
104.437798 164.0
107.606003 156.0
108.505974 172.0
109.563805 196.0
110.06646 168.0
110.549332 156.0
111.453102 144.0
113.015518 144.0
114.282211 140.0
117.515434 200.0
118.334579 152.0
120.498634 164.0
120.90535 200.0
121.393867 152.0
122.640419 152.0
123.234039 176.0
123.647552 144.0
123.840172 188.0
125.689796 168.0
126.208008 160.0
127.299255 168.0
127.789268 180.0
128.948334 180.0
130.053619 148.0
130.230713 152.0
132.040375 336.0
132.056381 248.0
133.007263 160.0
133.49202 236.0
134.060898 136.0
135.67627 176.0
136.226257 204.0
138.081635 196.0
138.491226 144.0
139.055634 184.0
139.154861 164.0
141.857452 156.0
142.046707 132.0
142.121735 140.0
144.277161 180.0
144.322586 168.0
144.966492 144.0
145.211014 208.0
145.470154 176.0
147.539505 140.0
147.77652 260.0
148.013718 224.0
149.015457 148.0
149.329041 196.0
150.055481 396.0
151.063232 172.0
151.217453 164.0
152.067917 160.0
160.035278 316.0
160.53978 184.0
160.703735 168.0
161.522247 148.0
162.089355 144.0
162.718369 160.0
163.468185 164.0
164.074387 168.0
165.031799 172.0
165.075638 196.0
165.298126 168.0
166.08725 652.0
168.060059 152.0
168.132309 248.0
169.091125 152.0
170.974167 292.0
171.019531 160.0
171.621307 152.0
172.177124 192.0
172.955948 756.0
173.01123 296.0
174.002213 172.0
174.440933 204.0
174.952301 860.0
175.449173 196.0
176.034912 156.0
176.135284 192.0
177.087479 152.0
178.050842 800.0
178.736053 152.0
179.070587 264.0
179.649902 140.0
179.777969 192.0
180.044922 180.0
180.063553 152.0
180.101013 236.0
180.467133 232.0
181.062378 260.0
181.084335 328.0
182.093719 140.0
182.973022 180.0
183.102264 148.0
186.943817 140.0
187.036346 148.0
187.060852 272.0
188.971191 248.0
189.502335 140.0
191.477402 168.0
192.03688 156.0
192.063141 184.0
193.792267 156.0
194.219177 152.0
194.422073 156.0
194.479996 168.0
195.07164 144.0
195.80899 192.0
196.556091 140.0
196.988556 164.0
197.075439 312.0
197.145294 164.0
197.26268 188.0
197.601074 144.0
197.990158 176.0
198.326355 172.0
198.972351 152.0
200.022919 176.0
200.042618 152.0
200.971085 376.0
201.011276 156.0
201.978363 152.0
202.019501 684.0
203.517212 228.0
204.019836 148.0
204.517883 164.0
204.939346 148.0
206.080627 196.0
207.06279 360.0
208.076889 652.0
208.956329 148.0
208.991776 628.0
209.080063 124.0
209.994217 232.0
210.075455 3748.0
210.25589 140.0
210.98851 280.0
211.079773 304.0
211.437897 156.0
211.988022 132.0
212.084213 128.0
213.000244 136.0
213.084915 168.0
214.039932 348.0
214.554626 144.0
214.776245 140.0
215.049484 508.0
215.666794 164.0
216.050537 140.0
216.570908 180.0
217.019272 160.0
217.046478 224.0
217.066299 304.0
218.036209 100.0
219.041183 176.0
221.146454 168.0
221.608414 156.0
222.971771 1728.0
223.974258 568.0
224.004547 136.0
224.033386 172.0
224.96814 668.0
225.077988 252.0
225.443985 180.0
225.957748 156.0
226.015121 160.0
226.086151 188.0
227.018616 188.0
227.045471 144.0
228.01915 144.0
228.0634 192.0
230.019547 136.0
230.13298 252.0
230.187332 164.0
231.046829 172.0
232.04512 160.0
233.718658 144.0
235.006134 196.0
235.062424 176.0
235.887039 264.0
236.01239 144.0
236.065414 368.0
236.985168 1048.0
237.053131 176.0
237.074585 152.0
237.516068 172.0
237.999893 232.0
238.105865 3576.0
238.986633 380.0
239.11116 960.0
239.332336 172.0
239.390839 152.0
239.720444 188.0
239.997665 908.0
240.095001 96.0
240.136642 184.0
240.984009 128.0
241.384277 228.0
241.95517 140.0
241.993927 284.0
242.037155 2084.0
242.995697 340.0
243.044205 5084.0
243.833313 156.0
244.001175 168.0
244.048615 1836.0
245.043427 1512.0
245.795197 140.0
246.048309 396.0
247.016769 164.0
247.037079 160.0
247.069946 372.0
247.570755 176.0
247.978027 140.0
248.021988 148.0
248.898209 136.0
248.947159 144.0
249.054214 212.0
249.980316 140.0
250.019028 1340.0
250.110703 176.0
250.24292 180.0
251.022003 412.0
252.015396 1208.0
253.016739 404.0
253.07283 764.0
253.318909 228.0
254.083237 1120.0
254.99324 168.0
255.081604 336.0
256.97171 168.0
256.993561 384.0
257.049957 176.0
257.9841 152.0
258.067444 116.0
259.037537 292.0
259.264404 168.0
259.338104 224.0
259.838348 236.0
260.048859 796.0
260.987885 288.0
261.013641 364.0
261.040894 320.0
262.018616 1180.0
262.772522 140.0
262.983887 248.0
263.015808 336.0
263.728363 172.0
263.999786 840.0
264.164886 148.0
264.287811 248.0
265.008118 532.0
265.629059 140.0
265.846436 204.0
265.993835 360.0
266.049011 156.0
266.599091 188.0
266.697327 180.0
266.99588 236.0
267.087708 268.0
268.00354 308.0
268.042358 124.0
268.096008 1568.0
269.097961 452.0
269.643707 152.0
270.030457 4100.0
270.202881 160.0
270.77243 156.0
271.0354 392.0
271.424561 228.0
272.029266 1404.0
272.678589 152.0
273.029816 336.0
273.059967 160.0
273.132233 180.0
275.039429 184.0
276.074249 148.0
276.269379 200.0
276.878418 152.0
277.002686 272.0
277.027008 292.0
278.014038 10836.0
278.595276 132.0
278.971039 152.0
279.016632 2280.0
279.134338 216.0
279.57077 220.0
280.011597 7904.0
280.073517 152.0
280.140137 164.0
280.758301 128.0
281.014313 856.0
281.102539 168.0
281.805573 136.0
282.02359 944.0
282.112671 408.0
283.030121 136.0
285.256714 152.0
285.577606 112.0
286.080872 140.0
286.258392 144.0
286.99054 144.0
287.030792 476.0
287.091675 244.0
287.6315 176.0
287.948883 156.0
287.992828 312.0
288.042297 10804.0
288.835693 108.0
288.976654 152.0
289.006958 160.0
289.045776 1864.0
289.366821 112.0
289.995789 356.0
290.038513 2952.0
291.048981 632.0
291.144562 96.0
291.699738 148.0
293.038818 280.0
293.572327 204.0
294.002045 432.0
294.040253 120.0
295.032074 288.0
296.01886 144.0
296.560364 204.0
297.006104 164.0
297.036957 152.0
298.03598 256.0
298.775177 144.0
300.325287 196.0
301.051239 104.0
301.343658 144.0
301.378204 140.0
302.057587 7908.0
302.107117 120.0
302.166504 140.0
303.061127 2452.0
303.408569 132.0
303.984802 512.0
304.055695 2116.0
304.843292 216.0
304.989258 180.0
305.062683 452.0
305.587402 140.0
305.872772 176.0
306.007721 7628.0
306.058105 184.0
307.009552 2480.0
308.006073 5604.0
308.363556 152.0
309.004639 900.0
309.159119 120.0
310.004608 516.0
311.000122 280.0
311.034668 128.0
312.012177 148.0
316.073303 1328.0
317.078125 236.0
317.442627 164.0
318.075562 680.0
318.493134 152.0
319.047485 220.0
320.000946 184.0
320.043671 160.0
321.032074 124.0
322.000092 912.0
322.921997 120.0
323.010101 384.0
323.113068 148.0
323.576508 144.0
323.845215 112.0
324.018707 11736.0
324.090393 224.0
324.126862 288.0
324.276947 160.0
324.357574 100.0
324.513428 216.0
325.019836 2584.0
325.521698 168.0
325.634216 184.0
326.015778 8984.0
326.078552 224.0
326.959656 156.0
327.017487 1760.0
328.015442 520.0
329.873993 144.0
331.339294 192.0
331.502686 144.0
332.910187 192.0
333.440582 152.0
333.793213 140.0
334.029602 132.0
336.016815 1396.0
336.131775 188.0
336.476624 140.0
337.020416 324.0
337.627167 236.0
337.759827 160.0
337.838013 192.0
337.94043 144.0
338.03476 65428.0
338.557159 116.0
338.620209 160.0
338.690704 224.0
338.868958 140.0
338.950684 152.0
339.037872 9272.0
339.24057 192.0
339.68454 168.0
339.902069 152.0
339.977783 236.0
340.031982 33996.0
340.269348 212.0
340.302979 124.0
340.445892 140.0
340.543091 160.0
340.785614 152.0
340.879272 164.0
341.034393 5868.0
341.128876 128.0
341.321716 164.0
341.380707 116.0
341.523926 124.0
341.960297 100.0
342.02887 1588.0
343.188049 116.0
343.239197 140.0
343.492249 96.0
344.787415 148.0
346.115448 180.0
348.09967 312.0
349.910004 208.0
350.027588 220.0
350.107941 224.0
350.328461 132.0
350.961578 152.0
351.050354 156.0
351.760101 116.0
351.815491 224.0
351.861084 164.0
351.895905 200.0
352.050293 39336.0
352.134064 124.0
352.405121 204.0
352.55127 112.0
352.784912 116.0
352.876068 140.0
352.994965 168.0
353.052155 6008.0
353.206848 124.0
353.424805 112.0
353.5289 120.0
353.610657 172.0
353.721527 216.0
353.80603 124.0
353.883179 112.0
354.046967 27720.0
354.265839 200.0
355.0495 4812.0
355.179138 172.0
355.221649 96.0
355.409973 116.0
356.037445 772.0
357.030365 112.0
357.138245 104.0
357.254639 108.0
357.378601 132.0
357.468475 164.0
358.036438 120.0
359.871948 180.0
362.2659 196.0
368.184265 160.0
373.115723 168.0
381.314392 144.0
381.940399 196.0
382.065582 796.0
382.274963 152.0
383.04834 176.0
383.093781 176.0
384.070343 960.0
385.08194 516.0
386.068878 668.0
387.075989 264.0
1513.93396 152.0
1554.690796 220.0
1605.129883 176.0
1817.949585 164.0
