>compound MLS001142787-01!
>formula C25H25FN4O3
>ionization [M+H]+
>parentmass 449.199
#inchi InChI=1S/C25H25FN4O3/c1-15(22(31)27-13-11-16-7-3-5-9-19(16)26)30-23(32)25(2)21-18(12-14-29(25)24(30)33)17-8-4-6-10-20(17)28-21/h3-10,15,28H,11-14H2,1-2H3,(H,27,31)/t15-,25-/m0/s1
#inchikey XCMPQTLSSNNAIQ
#Ion_Source LC-ESI
#Instrument qTof
#Compound_Source NIH Natural Product Library
#PI Dorrestein
#Data_Collector VVP/LMS
#Scan -1
#Precursor_MZ 449.199
#ExactMass 448.191
#Charge 1
#CAS_Number N/A
#Pubmed_ID N/A
#Smiles C[C@H](N1C(=O)N2CCc3c([nH]c4ccccc34)[C@@]2(C)C1=O)C(=O)NCCc5ccccc5F
#INCHI_AUX N/A
#Library_Class 1
#SpectrumID CCMSLIB00000079799
#IonMode Positive
#UpdateWorkflowName UPDATE-SINGLE-ANNOTATED-GOLD
#LibraryQualityString Gold
#TaskID b1d8e8f6646f4e71acdff9ca3d919d08
##Scan# 2374
#SpectrumFile p1-C11_GC11_01_17907.mzXML
#LibraryName NIH_Natural_Products_Library.mgf
#MQScore -1
#Organism NIH_Natural_Products_Library
#TIC_Query 0
#RT_Query -1
#MZErrorPPM -1
#SharedPeaks 0
#MassDiff 0
#LibMZ -1
#SpecMZ 449.199
#SpecCharge 0
#internalFilename spec-00000.mgf

>collision 10
95.128586 176.0
95.219879 140.0
95.328705 136.0
95.39286 124.0
95.422035 180.0
95.478439 112.0
95.575737 140.0
95.641922 164.0
95.791908 116.0
95.834778 128.0
96.002472 192.0
96.051247 160.0
96.112183 332.0
96.180069 120.0
96.43602 68.0
96.484909 188.0
96.60228 104.0
96.615974 140.0
96.690353 84.0
96.707977 244.0
96.800018 136.0
96.952866 112.0
96.968552 120.0
96.988159 136.0
97.033257 160.0
97.058754 120.0
97.094933 132.0
97.135269 168.0
97.154892 128.0
97.244003 228.0
97.308022 152.0
97.372841 76.0
97.421959 108.0
97.473061 192.0
97.506477 132.0
97.522209 140.0
97.542938 224.0
97.596931 288.0
97.951294 120.0
98.110962 72.0
98.227348 136.0
98.395142 228.0
98.486008 60.0
98.600639 96.0
98.723244 108.0
98.774689 196.0
98.830093 68.0
98.881561 48.0
98.915222 164.0
98.950867 144.0
99.018211 224.0
99.057838 136.0
99.07766 108.0
99.09153 112.0
99.194122 80.0
99.244194 156.0
99.2799 132.0
99.313622 180.0
99.373154 264.0
99.537956 192.0
99.577682 148.0
99.603516 208.0
99.66909 152.0
99.720779 116.0
99.777359 124.0
99.838112 144.0
99.935616 128.0
99.971443 160.0
99.995331 140.0
100.156761 160.0
100.180573 168.0
100.316124 100.0
100.34005 180.0
100.397896 184.0
100.553558 52.0
100.847252 148.0
100.89695 168.0
101.231491 48.0
101.287582 148.0
101.461983 128.0
101.502098 132.0
101.598396 116.0
101.77256 208.0
101.835335 176.0
101.853416 156.0
101.901649 200.0
101.984062 44.0
102.016235 60.0
102.036026 176.0
102.124435 172.0
102.193275 52.0
102.261719 148.0
102.592171 144.0
102.648636 160.0
102.791908 212.0
102.890129 216.0
102.930031 128.0
103.010025 136.0
103.103889 200.0
103.126793 1240.0
103.282349 176.0
103.310196 136.0
103.37204 144.0
103.404434 172.0
103.446953 104.0
103.494087 188.0
103.527405 188.0
103.688065 92.0
103.779312 128.0
103.832047 256.0
103.907127 204.0
103.955841 84.0
104.004562 132.0
104.020805 68.0
104.045174 124.0
104.100014 180.0
104.126427 188.0
104.142677 132.0
104.175186 128.0
104.258873 116.0
104.319771 224.0
104.459869 108.0
104.545349 168.0
104.679749 128.0
104.757172 188.0
104.851303 172.0
105.063057 120.0
105.136536 212.0
105.451149 180.0
105.469551 148.0
105.559532 32.0
105.7519 232.0
105.872726 144.0
106.00798 232.0
106.028481 76.0
106.103287 184.0
106.118698 176.0
106.299706 184.0
106.321838 104.0
106.393707 76.0
106.424507 132.0
106.59726 268.0
106.677292 132.0
106.769844 160.0
106.800705 224.0
106.922134 124.0
106.988258 208.0
107.208481 136.0
107.251778 228.0
107.27858 116.0
107.375526 128.0
107.392029 188.0
107.414268 72.0
107.458061 40.0
107.478699 64.0
107.530312 196.0
107.661011 208.0
107.803001 164.0
107.922668 128.0
107.944649 248.0
108.003609 100.0
108.102943 48.0
108.237541 104.0
108.497208 124.0
108.596169 176.0
108.672951 152.0
108.714462 148.0
108.747681 188.0
108.830742 28.0
108.897217 164.0
108.917992 252.0
108.934616 100.0
109.121719 172.0
109.154991 168.0
109.294403 108.0
109.327705 224.0
109.433899 252.0
109.550568 128.0
109.646446 140.0
109.690231 148.0
109.728111 144.0
109.909279 132.0
109.923889 172.0
110.124374 176.0
110.157799 76.0
110.504951 96.0
110.569839 48.0
110.647316 224.0
110.691299 140.0
110.770905 196.0
110.789764 132.0
110.821205 172.0
110.921196 172.0
111.173592 196.0
111.192879 172.0
111.249176 120.0
111.424576 152.0
111.610657 172.0
111.648521 184.0
111.694809 132.0
111.768753 148.0
111.893036 216.0
111.962196 196.0
111.993797 188.0
112.052795 148.0
112.14344 196.0
112.165947 184.0
112.257317 184.0
112.444237 160.0
112.468361 144.0
112.512703 124.0
112.62677 148.0
112.745125 188.0
112.778954 192.0
112.988365 168.0
113.049744 96.0
113.089973 100.0
113.176796 176.0
113.244217 140.0
113.299675 176.0
113.371735 76.0
113.407295 192.0
113.462914 140.0
113.585945 160.0
113.645363 120.0
113.703636 240.0
113.766373 168.0
113.844963 200.0
113.872581 204.0
113.962532 176.0
114.180847 168.0
114.261703 100.0
114.304268 96.0
114.329742 124.0
114.391556 116.0
114.447517 216.0
114.508705 144.0
114.604599 192.0
114.628044 156.0
114.64415 116.0
114.674942 60.0
114.721848 60.0
114.79628 192.0
114.865189 184.0
115.036652 176.0
115.071838 192.0
115.112869 520.0
115.131302 400.0
115.159424 192.0
115.272682 116.0
115.304749 124.0
115.326126 176.0
115.345375 160.0
115.383865 192.0
115.527191 180.0
115.597824 144.0
115.642776 100.0
115.698456 136.0
115.929848 132.0
115.962006 132.0
116.012787 176.0
116.109985 152.0
116.128563 176.0
116.135956 116.0
116.140846 188.0
116.157188 188.0
116.245186 172.0
116.277382 216.0
116.303146 108.0
116.508286 88.0
116.672745 164.0
116.825478 112.0
116.859909 108.0
117.069717 228.0
117.148338 752.0
117.198059 132.0
117.299377 164.0
117.320946 152.0
117.338196 148.0
117.379173 200.0
117.476257 100.0
117.519424 88.0
117.597137 72.0
117.642479 136.0
117.804489 120.0
117.823936 136.0
117.84771 76.0
117.89959 80.0
117.914726 132.0
117.965317 120.0
118.005539 56.0
118.145164 148.0
118.25872 128.0
118.390823 112.0
118.408157 192.0
118.551186 188.0
118.603218 132.0
118.624901 148.0
118.659599 76.0
118.804947 80.0
118.887428 140.0
118.989479 172.0
119.013367 168.0
119.063324 128.0
119.117645 188.0
119.150238 172.0
119.269798 136.0
119.308937 136.0
119.376366 192.0
119.57222 128.0
119.735558 188.0
119.776947 124.0
119.90213 176.0
120.034203 224.0
120.11274 116.0
120.239326 84.0
120.422783 216.0
120.50145 252.0
120.559837 140.0
120.818558 132.0
120.847008 172.0
120.877647 160.0
120.897346 48.0
120.969604 88.0
121.015587 128.0
121.037491 48.0
121.096642 140.0
121.232513 136.0
121.296097 172.0
121.351303 160.0
121.466904 216.0
121.508049 232.0
121.74234 256.0
121.882256 188.0
122.042763 128.0
122.080154 148.0
122.146156 108.0
122.198967 128.0
122.238586 180.0
122.32225 168.0
122.342064 84.0
122.414749 276.0
122.641945 348.0
122.7873 172.0
122.827019 152.0
122.866737 152.0
122.915291 184.0
122.979309 120.0
122.994766 152.0
123.098564 168.0
123.12307 172.0
123.145332 2348.0
123.180313 112.0
123.226715 200.0
123.25766 60.0
123.2864 112.0
123.341667 84.0
123.633713 184.0
123.649208 136.0
123.826378 184.0
123.919449 136.0
124.127861 164.0
124.149994 396.0
124.23214 32.0
124.258774 128.0
124.347557 64.0
124.377174 212.0
124.405289 116.0
124.604973 176.0
124.632118 360.0
124.658569 72.0
124.678574 52.0
124.731934 52.0
124.776413 140.0
124.791977 52.0
124.809769 212.0
124.896759 176.0
124.958839 104.0
125.094635 144.0
125.319641 232.0
125.413269 160.0
125.500237 180.0
125.562698 136.0
125.607315 140.0
125.667572 48.0
125.712212 180.0
125.810455 248.0
125.855118 172.0
125.884155 124.0
125.904259 140.0
126.002579 116.0
126.031631 100.0
126.170242 212.0
126.266426 64.0
126.487999 112.0
126.54847 80.0
126.568626 60.0
126.620148 132.0
126.837547 216.0
126.891365 176.0
126.929497 116.0
126.98558 112.0
127.068604 164.0
127.084312 204.0
127.138039 164.0
127.236984 152.0
127.334045 132.0
127.407715 32.0
127.43158 136.0
127.547081 60.0
127.632538 136.0
127.652786 120.0
128.012955 120.0
128.053497 180.0
128.100815 64.0
128.123352 100.0
128.140915 396.0
128.187485 148.0
128.283401 144.0
128.382736 160.0
128.450317 192.0
128.627441 124.0
128.698654 208.0
128.718979 104.0
128.883926 136.0
128.990173 136.0
129.125885 132.0
129.15834 488.0
129.2164 168.0
129.291092 140.0
129.43602 156.0
129.558365 180.0
129.789612 120.0
129.821747 260.0
129.89624 156.0
129.964325 232.0
130.064209 132.0
130.082733 148.0
130.132339 128.0
130.152863 344.0
130.675705 168.0
130.721237 128.0
130.741714 176.0
130.79863 148.0
130.835068 148.0
130.894287 140.0
130.976303 248.0
131.087967 136.0
131.142868 236.0
131.159576 128.0
131.182526 244.0
131.254425 152.0
131.290924 60.0
131.503174 256.0
131.720154 212.0
131.839005 188.0
132.031342 148.0
132.113525 140.0
132.177689 124.0
132.194733 244.0
132.340103 188.0
132.44838 168.0
132.562363 160.0
132.626556 160.0
132.679306 192.0
133.005142 80.0
133.067154 116.0
133.122269 176.0
133.204987 176.0
133.306107 108.0
133.398071 208.0
133.41832 232.0
133.453262 160.0
133.565979 68.0
133.653427 144.0
133.690262 184.0
134.04039 172.0
134.073715 192.0
134.125702 180.0
134.272202 176.0
134.351761 188.0
134.457932 232.0
134.474091 232.0
134.806763 132.0
134.831573 180.0
134.912323 376.0
134.936234 136.0
134.966309 112.0
134.987122 148.0
135.169922 124.0
135.22316 156.0
135.308838 136.0
135.380646 144.0
135.401489 200.0
135.477951 124.0
135.533569 192.0
135.596161 260.0
135.612396 216.0
135.633255 124.0
135.679642 148.0
135.705154 244.0
135.934906 168.0
135.985931 128.0
136.006821 116.0
136.211227 92.0
136.292557 48.0
136.350677 144.0
136.567566 124.0
136.61351 156.0
136.65332 184.0
136.708939 148.0
137.02803 72.0
137.077179 136.0
137.144592 184.0
137.167908 68.0
137.213165 244.0
137.266388 248.0
137.369476 48.0
137.384583 184.0
137.445526 204.0
137.470108 204.0
137.587936 232.0
137.674362 156.0
137.711746 232.0
137.861313 228.0
137.966522 164.0
138.109207 88.0
138.165375 40.0
138.223877 216.0
138.35141 196.0
138.369049 232.0
138.554123 216.0
138.577393 268.0
138.601913 204.0
138.638504 84.0
138.668976 128.0
138.706482 180.0
138.870667 176.0
139.107681 180.0
139.14296 304.0
139.232758 228.0
139.347351 160.0
139.368515 72.0
139.45784 188.0
139.505951 164.0
139.510437 76.0
139.519791 116.0
139.831924 116.0
139.861786 192.0
139.907272 144.0
140.062729 152.0
140.18219 600.0
140.310074 56.0
140.313736 108.0
140.442352 144.0
140.458862 140.0
140.475372 72.0
140.678391 220.0
140.747406 276.0
140.768127 136.0
140.805939 116.0
140.8461 328.0
140.894882 148.0
140.950073 144.0
141.164871 380.0
141.180191 108.0
141.189438 164.0
141.288528 204.0
141.468201 84.0
141.498993 44.0
141.619797 128.0
141.66481 196.0
141.693253 140.0
141.818893 152.0
141.852081 172.0
141.897141 160.0
141.970673 240.0
142.008621 84.0
142.132416 168.0
142.162949 584.0
142.340973 140.0
142.421753 180.0
142.466904 132.0
142.512054 228.0
142.680847 176.0
142.711761 108.0
142.749817 184.0
142.778366 32.0
142.885437 92.0
142.94455 144.0
142.96875 116.0
143.004456 148.0
143.071136 176.0
143.171997 820.0
143.283157 144.0
143.323669 108.0
143.364197 156.0
143.38089 180.0
143.633698 220.0
143.686188 128.0
143.707672 180.0
143.79599 132.0
143.877182 212.0
143.905838 68.0
143.970398 144.0
143.998993 208.0
144.07785 160.0
144.099365 216.0
144.114609 200.0
144.132812 188.0
144.149551 96.0
144.179855 28052.0
144.210007 140.0
144.228439 144.0
144.254745 48.0
144.302582 48.0
144.338455 56.0
144.375549 212.0
144.407822 172.0
144.469315 184.0
144.501144 140.0
144.534653 80.0
144.575348 88.0
144.608871 36.0
144.631424 76.0
144.651962 20.0
144.713593 76.0
144.769318 132.0
144.812439 220.0
144.877136 60.0
144.970612 72.0
144.998978 92.0
145.016159 152.0
145.080902 124.0
145.100082 76.0
145.116882 40.0
145.160141 284.0
145.182587 2356.0
145.467255 64.0
145.683441 208.0
145.717087 84.0
145.842087 92.0
145.952713 160.0
145.985886 212.0
146.029678 72.0
146.09285 48.0
146.112213 176.0
146.187134 188.0
146.238953 164.0
146.26796 212.0
146.292053 156.0
146.554642 72.0
146.598846 164.0
146.624542 92.0
146.689651 172.0
146.716171 92.0
146.817474 84.0
147.00087 104.0
147.066055 172.0
147.094864 192.0
147.154465 144.0
147.191635 108.0
147.259827 140.0
147.322098 132.0
147.341431 216.0
147.41394 56.0
147.46228 104.0
147.49855 152.0
147.544495 192.0
147.779175 88.0
147.846939 200.0
148.060059 196.0
148.123657 160.0
148.258774 160.0
148.280594 124.0
148.4552 164.0
148.53717 172.0
148.651749 164.0
148.858154 128.0
148.88002 120.0
148.909164 144.0
149.03067 168.0
149.115524 224.0
149.203278 276.0
149.254364 144.0
149.298141 220.0
149.417374 68.0
149.495255 168.0
149.714417 228.0
149.792389 164.0
149.94838 164.0
150.038589 52.0
150.102005 120.0
150.175186 196.0
150.285004 148.0
150.499863 212.0
150.53894 116.0
150.593765 72.0
150.643997 152.0
150.739319 124.0
150.805008 156.0
150.839554 140.0
151.003418 100.0
151.118439 288.0
151.189423 36.0
151.238388 220.0
151.498337 64.0
151.522537 84.0
151.635284 104.0
151.690109 244.0
151.730911 112.0
151.861252 148.0
151.909988 28.0
152.005707 148.0
152.175125 188.0
152.199692 148.0
152.302872 204.0
152.326904 188.0
152.369217 304.0
152.440491 208.0
152.637207 144.0
152.853745 216.0
152.898056 232.0
152.939896 176.0
152.99408 136.0
153.07251 180.0
153.097519 112.0
153.136932 64.0
153.165573 340.0
153.321777 192.0
153.339035 108.0
153.595535 184.0
153.660751 172.0
153.718933 120.0
153.758438 176.0
153.780655 92.0
153.901657 112.0
153.923889 88.0
154.059769 176.0
154.087921 132.0
154.17009 696.0
154.225388 124.0
154.36882 228.0
154.433136 32.0
154.533997 200.0
154.601425 160.0
154.62117 148.0
154.702942 136.0
154.767776 156.0
154.891571 132.0
154.91597 152.0
155.042389 204.0
155.101883 136.0
155.177216 424.0
155.270462 124.0
155.326035 136.0
155.344971 228.0
155.399567 76.0
155.466583 172.0
155.505508 212.0
155.533615 184.0
155.672699 200.0
155.729828 180.0
155.759644 144.0
155.941086 48.0
156.052505 188.0
156.08284 156.0
156.112061 112.0
156.189087 932.0
156.254501 204.0
156.393906 128.0
156.613083 132.0
156.700027 180.0
156.792526 44.0
156.867325 100.0
156.912079 152.0
157.018005 116.0
157.059387 180.0
157.101807 196.0
157.188293 548.0
157.231598 112.0
157.328979 192.0
157.436386 124.0
157.558807 144.0
157.693787 124.0
157.72879 264.0
157.781311 96.0
157.87886 124.0
157.996445 160.0
158.070496 184.0
158.123627 168.0
158.172943 188.0
158.20546 424.0
158.533112 152.0
158.680389 176.0
158.725525 176.0
158.760651 168.0
158.778214 100.0
158.806076 180.0
158.825882 172.0
159.029175 200.0
159.202805 152.0
159.225067 168.0
159.330658 200.0
159.393433 200.0
159.495926 120.0
159.549316 172.0
159.570953 140.0
159.634827 140.0
159.740494 124.0
159.785797 92.0
159.833618 156.0
159.876404 180.0
159.967056 136.0
160.052673 120.0
160.309692 164.0
160.536652 92.0
160.599716 232.0
160.955658 140.0
160.98851 108.0
161.013763 204.0
161.039032 168.0
161.170441 208.0
161.299362 224.0
161.448578 44.0
161.47821 152.0
161.688995 208.0
161.73204 152.0
161.840927 140.0
161.940659 336.0
161.989838 216.0
162.09938 176.0
162.129807 100.0
162.205856 168.0
162.269257 152.0
162.479828 116.0
162.512817 120.0
162.588974 192.0
162.624512 160.0
162.808792 164.0
162.94458 204.0
162.968903 160.0
163.008118 152.0
163.165756 128.0
163.310745 68.0
163.381989 64.0
163.514343 200.0
163.780457 116.0
163.802155 180.0
163.852768 228.0
163.935547 228.0
163.972931 256.0
164.064713 152.0
164.164185 184.0
164.229568 172.0
164.286652 148.0
164.414276 140.0
164.631332 188.0
164.766754 168.0
164.948257 140.0
164.966156 160.0
164.99173 188.0
165.012192 164.0
165.042877 144.0
165.232208 192.0
165.347382 52.0
165.444687 120.0
165.544647 132.0
165.616302 112.0
165.711121 92.0
165.744446 68.0
165.782883 80.0
165.926468 164.0
165.997818 240.0
166.147095 96.0
166.183365 200.0
166.214798 292.0
166.252335 108.0
166.280899 96.0
166.491165 140.0
166.575943 204.0
166.703857 132.0
166.830429 56.0
166.903503 376.0
166.938446 144.0
166.992477 136.0
167.081543 208.0
167.113419 212.0
167.188431 1332.0
167.219162 400.0
167.327103 104.0
167.51001 116.0
167.801315 180.0
168.006653 232.0
168.095444 144.0
168.161484 104.0
168.196426 10916.0
168.263275 48.0
168.289093 144.0
168.397598 136.0
168.41568 56.0
168.51387 176.0
168.588837 208.0
168.623657 204.0
168.702591 52.0
168.847687 204.0
168.87001 72.0
168.919891 152.0
169.170929 388.0
169.196411 3088.0
169.229599 144.0
169.264206 184.0
169.297882 104.0
169.432617 68.0
169.554077 168.0
169.636887 176.0
169.658157 148.0
169.75412 32.0
169.785248 168.0
169.886139 140.0
170.112274 160.0
170.180344 904.0
170.210007 1316.0
170.259094 68.0
170.342484 140.0
170.439621 204.0
170.486404 128.0
170.561813 72.0
170.619019 128.0
170.659973 64.0
170.73085 156.0
170.806305 108.0
170.828644 192.0
170.996307 96.0
171.18306 340.0
171.21077 1856.0
171.298447 108.0
171.353714 192.0
171.43396 136.0
171.472229 136.0
171.504364 96.0
171.525223 180.0
171.546082 108.0
171.582581 156.0
171.741699 148.0
171.869583 192.0
171.908737 200.0
171.97139 112.0
172.078445 48.0
172.099075 156.0
172.194031 176.0
172.220337 152.0
172.256302 240.0
172.418137 172.0
172.500641 72.0
172.546249 184.0
172.77124 164.0
172.90564 156.0
172.938766 100.0
172.957092 204.0
173.164001 108.0
173.192825 208.0
173.250473 140.0
173.572952 108.0
173.701492 172.0
173.719864 96.0
173.806473 180.0
173.935104 252.0
173.982376 144.0
174.04541 168.0
174.231949 88.0
174.322845 184.0
174.573746 128.0
174.628998 128.0
174.71582 76.0
174.744781 116.0
174.884659 116.0
174.90799 40.0
175.160858 108.0
175.197739 172.0
175.55896 188.0
175.846619 176.0
175.909988 156.0
176.09845 272.0
176.184708 144.0
176.234924 236.0
176.277222 220.0
176.315445 200.0
176.338013 164.0
176.361816 176.0
176.430573 240.0
176.542374 148.0
176.610443 92.0
176.659348 288.0
176.737534 136.0
176.983704 108.0
177.214203 160.0
177.277817 188.0
177.46077 140.0
177.504959 200.0
177.627899 164.0
177.675674 224.0
177.819 148.0
177.882721 144.0
177.925217 124.0
177.967712 188.0
178.004898 148.0
178.076614 68.0
178.147705 228.0
178.274124 176.0
178.491318 152.0
178.517929 192.0
178.600403 192.0
178.690872 40.0
178.943802 180.0
179.156921 96.0
179.242203 108.0
179.27153 88.0
179.340836 276.0
179.370178 80.0
179.415497 176.0
179.474182 200.0
179.522186 116.0
179.61557 144.0
179.636917 56.0
179.770355 168.0
179.829086 144.0
180.211533 384.0
180.245834 176.0
180.283249 236.0
180.342072 176.0
180.40892 192.0
180.449036 140.0
180.505203 48.0
180.54657 180.0
180.6577 184.0
180.750107 144.0
181.075394 56.0
181.120941 180.0
181.192398 208.0
181.211914 152.0
181.362167 172.0
181.397034 196.0
181.47963 232.0
181.705521 84.0
182.030411 48.0
182.04921 124.0
182.10025 112.0
182.148621 148.0
182.185165 140.0
182.212967 416.0
182.344818 200.0
182.387833 176.0
182.449677 116.0
182.487335 176.0
182.568024 116.0
182.61377 76.0
182.829056 188.0
182.856796 80.0
182.897583 136.0
183.024673 280.0
183.111832 160.0
183.188278 476.0
183.217926 7096.0
183.304062 60.0
183.330124 48.0
183.348999 56.0
183.377701 136.0
183.404755 176.0
183.521561 196.0
183.55394 148.0
183.598145 72.0
183.751099 212.0
183.858856 84.0
183.883163 88.0
183.904755 116.0
183.950653 104.0
184.072189 196.0
184.099197 56.0
184.150528 160.0
184.223679 3364.0
184.282944 40.0
184.328888 176.0
184.353226 200.0
184.407288 56.0
184.469482 36.0
184.544678 104.0
184.593887 140.0
184.638565 108.0
184.712921 248.0
184.756226 184.0
184.775162 160.0
184.828445 152.0
184.899673 72.0
184.94783 396.0
185.032349 244.0
185.059174 112.0
185.09465 56.0
185.132568 112.0
185.161179 180.0
185.20079 400.0
185.234329 42404.0
185.300568 76.0
185.326767 96.0
185.403702 220.0
185.459091 100.0
185.510818 136.0
185.533447 108.0
185.56282 280.0
185.682083 124.0
185.758865 116.0
185.807068 220.0
185.826126 208.0
185.848419 136.0
185.883713 124.0
185.918991 212.0
185.986862 44.0
186.020874 168.0
186.052399 92.0
186.100357 76.0
186.117218 128.0
186.155243 44.0
186.204147 236.0
186.238297 5800.0
186.280914 224.0
186.304672 232.0
186.410675 148.0
186.456894 48.0
186.478638 120.0
186.560425 156.0
186.590057 304.0
186.628845 68.0
186.696198 148.0
186.766937 48.0
186.844696 132.0
187.003723 228.0
187.026352 208.0
187.216461 336.0
187.241409 552.0
187.289703 128.0
187.336029 140.0
187.387817 44.0
187.428696 128.0
187.485931 160.0
187.60318 56.0
187.657715 72.0
187.716614 176.0
187.738571 200.0
187.792679 76.0
187.815948 72.0
187.900528 72.0
188.036469 120.0
188.07251 212.0
188.206375 184.0
188.285538 84.0
188.482285 156.0
188.632645 168.0
188.784531 120.0
188.90892 168.0
188.963654 200.0
189.007446 164.0
189.084091 52.0
189.171707 144.0
189.19635 52.0
189.22374 152.0
189.336044 76.0
189.445648 216.0
189.505936 44.0
189.601868 148.0
189.708801 156.0
189.749939 168.0
189.818512 128.0
189.906296 192.0
190.024292 160.0
190.087418 108.0
190.158798 196.0
190.30159 148.0
190.375748 144.0
190.460907 180.0
190.485641 60.0
190.513123 56.0
190.573578 172.0
190.757767 180.0
190.892532 64.0
190.931046 332.0
191.151199 148.0
191.308121 212.0
191.37146 168.0
191.652496 56.0
191.677307 224.0
191.732437 56.0
191.793091 136.0
191.928223 68.0
192.074432 128.0
192.157227 160.0
192.444748 140.0
192.491302 52.0
193.005432 128.0
193.211456 148.0
193.284882 224.0
193.464844 128.0
193.53685 124.0
193.719696 136.0
193.888763 220.0
193.919266 84.0
194.085648 136.0
194.134415 48.0
194.189987 152.0
194.229279 852.0
194.440842 76.0
194.518585 64.0
194.607452 52.0
194.645538 120.0
194.746338 72.0
194.871384 60.0
194.932541 60.0
195.016861 204.0
195.149414 184.0
195.168884 180.0
195.225388 776.0
195.330231 144.0
195.374756 96.0
195.408157 148.0
195.427643 128.0
195.466599 208.0
195.703278 96.0
195.864853 100.0
195.892715 160.0
195.981888 196.0
196.059937 164.0
196.210678 560.0
196.236511 908.0
196.400192 164.0
196.464371 160.0
196.500656 68.0
196.693268 184.0
196.758728 192.0
197.017303 176.0
197.0578 196.0
197.19339 160.0
197.241318 976.0
197.277283 196.0
197.338806 204.0
197.562607 96.0
197.612991 88.0
197.710953 164.0
197.730545 148.0
197.845352 120.0
197.86496 52.0
197.89856 100.0
198.144028 136.0
198.218048 148.0
198.248856 1260.0
198.360962 172.0
198.405823 188.0
198.44722 404.0
198.50679 140.0
198.559998 112.0
198.691971 80.0
198.80986 132.0
198.937057 144.0
199.02327 68.0
199.087875 164.0
199.186203 40.0
199.228836 140.0
199.255814 204.0
199.571335 100.0
199.605087 104.0
199.939957 180.0
199.962479 148.0
200.013168 140.0
200.083557 136.0
200.224396 120.0
200.275101 208.0
200.352264 220.0
200.466751 160.0
200.633102 72.0
200.816437 188.0
200.871353 112.0
200.951889 108.0
201.028091 164.0
201.205978 92.0
201.270935 220.0
201.299179 144.0
201.471527 40.0
201.496964 228.0
201.52829 240.0
201.903854 204.0
201.974854 196.0
202.00882 108.0
202.062576 80.0
202.090881 132.0
202.130508 108.0
202.226761 152.0
202.257904 144.0
202.657333 192.0
202.912506 56.0
203.203476 184.0
203.258636 200.0
203.377869 132.0
203.542587 196.0
203.61644 144.0
203.732941 128.0
203.835251 160.0
203.929077 164.0
203.960342 100.0
203.980255 108.0
204.11676 156.0
204.136673 84.0
204.167969 176.0
204.208298 156.0
204.358612 156.0
204.446854 184.0
204.580658 136.0
204.611984 152.0
204.687027 128.0
204.801331 176.0
204.891174 120.0
204.979538 148.0
205.036545 84.0
205.090714 128.0
205.21904 172.0
205.281784 128.0
205.364517 40.0
205.413025 156.0
205.458679 164.0
205.484375 184.0
205.515762 208.0
205.809845 36.0
205.969833 124.0
206.026978 120.0
206.098434 160.0
206.155594 176.0
206.461578 156.0
206.58461 236.0
206.707672 96.0
206.753403 188.0
206.799286 208.0
206.859421 176.0
206.895691 228.0
206.99115 196.0
207.29776 88.0
207.466919 48.0
207.673447 120.0
207.916245 160.0
208.141373 64.0
208.23616 176.0
208.270645 192.0
208.411453 144.0
208.489075 128.0
208.643112 180.0
208.724869 164.0
208.7939 112.0
208.819794 112.0
208.839935 124.0
209.20961 500.0
209.251297 188.0
209.343735 144.0
209.545425 156.0
209.816422 124.0
209.930832 180.0
209.983719 92.0
210.015457 172.0
210.222397 268.0
210.344513 52.0
210.388199 188.0
210.448471 72.0
210.52272 176.0
210.563232 156.0
210.705597 196.0
210.871292 248.0
210.992111 76.0
211.088242 260.0
211.118149 212.0
211.129913 144.0
211.134064 176.0
211.166077 192.0
211.231949 44092.0
211.267212 6592.0
211.308792 212.0
211.331985 48.0
211.350555 136.0
211.390442 44.0
211.433838 268.0
211.472015 172.0
211.497971 180.0
211.516693 64.0
211.583496 44.0
211.645889 136.0
211.702393 196.0
211.748535 92.0
211.776245 68.0
211.808121 120.0
211.83522 52.0
211.854492 280.0
211.932739 44.0
211.966873 36.0
212.008102 80.0
212.045792 116.0
212.08638 60.0
212.125839 112.0
212.18811 140.0
212.201004 136.0
212.234665 6348.0
212.271423 904.0
212.31839 136.0
212.344498 132.0
212.364807 60.0
212.422852 72.0
212.460571 52.0
212.518616 156.0
212.561005 152.0
212.582474 148.0
212.657944 56.0
212.692795 80.0
212.823471 152.0
212.968719 56.0
213.084961 108.0
213.131454 52.0
213.178955 152.0
213.248184 6372.0
213.339981 52.0
213.378586 80.0
213.398941 160.0
213.446289 84.0
213.484665 144.0
213.570572 196.0
213.617126 60.0
213.776306 116.0
213.821793 104.0
213.870361 240.0
213.922775 152.0
213.951904 52.0
214.082962 84.0
214.129578 128.0
214.208237 88.0
214.252594 1124.0
214.313156 108.0
214.377289 128.0
214.607635 80.0
214.689301 168.0
214.841034 84.0
214.873123 92.0
215.062866 60.0
215.150467 144.0
215.334488 188.0
215.384155 72.0
215.650131 156.0
215.725677 184.0
215.877899 68.0
215.907486 156.0
215.98941 48.0
216.13501 168.0
216.255753 136.0
216.282104 180.0
216.328964 200.0
216.378738 92.0
216.674637 72.0
216.768433 188.0
216.906219 176.0
217.24649 268.0
217.337463 136.0
217.45195 208.0
217.654572 104.0
217.924881 144.0
218.080673 124.0
218.101257 60.0
218.15419 136.0
218.213013 64.0
218.333237 160.0
218.430695 160.0
218.645554 32.0
218.878174 168.0
219.494217 184.0
219.514877 184.0
219.626968 208.0
219.901459 172.0
220.10817 180.0
220.199753 96.0
220.249985 116.0
220.273621 156.0
220.471634 132.0
220.521896 224.0
220.625381 180.0
220.714111 224.0
220.882736 148.0
220.923737 136.0
221.057358 116.0
221.187622 172.0
221.261169 196.0
221.2883 132.0
221.309036 124.0
221.514328 216.0
221.546036 68.0
221.640884 80.0
221.958145 76.0
222.10527 168.0
222.139114 224.0
222.192535 204.0
222.216278 124.0
222.250198 168.0
222.382507 212.0
222.441895 68.0
222.602264 96.0
222.737686 96.0
222.819153 144.0
222.847733 124.0
223.027237 132.0
223.059952 88.0
223.169983 152.0
223.235413 192.0
223.270554 148.0
223.330612 208.0
223.506195 64.0
223.699707 152.0
223.86351 152.0
223.97374 188.0
224.00354 164.0
224.054199 148.0
224.078049 108.0
224.143616 228.0
224.240387 184.0
224.37915 188.0
224.948135 96.0
224.999893 168.0
225.186127 92.0
225.25322 408.0
225.403244 108.0
225.76207 52.0
225.938599 172.0
225.96553 152.0
226.082275 216.0
226.258163 204.0
226.345779 164.0
226.381729 232.0
226.417679 80.0
226.58847 148.0
226.645416 88.0
227.014236 136.0
227.183365 32.0
227.239258 160.0
227.533478 144.0
227.758774 116.0
227.939087 244.0
228.140518 40.0
228.190643 60.0
228.242783 140.0
228.287903 148.0
228.420273 160.0
228.465408 192.0
229.281662 176.0
229.426392 220.0
229.495758 124.0
229.803497 160.0
229.933304 168.0
229.957458 124.0
230.141647 132.0
230.229248 164.0
230.39241 168.0
230.546555 152.0
230.79332 200.0
230.888275 140.0
230.936325 168.0
231.115234 128.0
231.178787 80.0
231.757339 172.0
232.008972 192.0
232.054459 148.0
232.543015 180.0
232.821136 240.0
233.038147 132.0
233.129333 196.0
233.272522 212.0
233.38475 124.0
233.482086 184.0
233.567276 244.0
233.853378 128.0
234.042191 124.0
234.145752 248.0
234.36821 48.0
234.484039 216.0
234.587708 168.0
234.660889 148.0
234.807312 180.0
234.871384 168.0
235.002609 156.0
235.350662 168.0
235.500351 216.0
236.006332 152.0
236.243378 168.0
236.273972 180.0
236.491302 40.0
236.815964 168.0
237.033539 132.0
237.110168 80.0
237.266434 716.0
237.611969 236.0
237.740067 148.0
237.868011 220.0
237.907928 232.0
238.199753 104.0
238.227402 120.0
238.267151 468.0
238.296021 1928.0
238.359558 192.0
238.47023 176.0
238.639359 108.0
238.734711 124.0
238.802399 140.0
238.834854 152.0
238.863937 36.0
238.885468 120.0
239.020889 72.0
239.177887 164.0
239.246307 3640.0
239.280869 1232.0
239.340637 184.0
239.49205 152.0
239.596832 160.0
239.639969 68.0
239.855759 32.0
240.006866 196.0
240.201233 48.0
240.246964 656.0
240.281799 264.0
240.348083 176.0
240.485184 184.0
240.52533 128.0
240.568558 52.0
240.648849 40.0
240.862015 168.0
240.954712 180.0
240.979431 52.0
241.078354 44.0
241.247665 104.0
241.27005 164.0
241.334991 200.0
241.468002 64.0
241.588669 192.0
241.709381 112.0
241.861069 96.0
241.919907 120.0
241.957062 60.0
242.20488 136.0
242.282349 132.0
242.400116 44.0
242.583038 140.0
242.648163 124.0
242.772888 228.0
242.8591 152.0
242.883926 60.0
242.983215 116.0
243.268829 108.0
243.570129 120.0
243.663345 56.0
243.880951 132.0
243.968018 168.0
244.017776 196.0
244.086197 108.0
244.241745 32.0
244.397339 152.0
244.440918 100.0
244.961029 228.0
245.017288 172.0
245.191666 152.0
245.438019 140.0
245.524063 192.0
245.634552 152.0
245.756256 160.0
246.027878 160.0
246.243393 76.0
246.293991 104.0
246.496521 80.0
246.636871 152.0
246.709122 140.0
246.766296 156.0
247.06575 156.0
247.093918 168.0
247.115814 164.0
247.215988 140.0
247.591766 116.0
248.16539 168.0
248.31282 192.0
248.531479 188.0
248.558838 212.0
248.808762 196.0
248.874725 36.0
249.017883 172.0
249.158478 188.0
249.534729 132.0
249.594498 120.0
249.676285 168.0
249.836746 256.0
249.874512 116.0
249.899689 152.0
249.943756 208.0
250.031891 120.0
250.186172 96.0
250.309006 192.0
250.450775 160.0
250.504333 92.0
250.658768 152.0
250.696594 80.0
250.813248 92.0
250.992996 108.0
251.093948 196.0
251.172821 148.0
251.202148 216.0
251.42215 104.0
251.460037 224.0
251.532654 80.0
251.649506 92.0
251.69722 216.0
251.763214 68.0
251.820084 168.0
252.082367 80.0
252.13295 192.0
252.234131 164.0
252.294205 180.0
252.388733 144.0
252.40863 156.0
252.471329 44.0
252.504471 76.0
252.572571 152.0
252.702316 196.0
252.80043 164.0
252.873245 144.0
252.914413 80.0
252.968231 120.0
253.066406 68.0
253.098083 148.0
253.128464 172.0
253.151932 172.0
253.177277 124.0
253.224792 76.0
253.255325 176.0
253.282349 328.0
253.312103 144.0
253.324875 212.0
253.349365 140.0
253.382782 144.0
253.419571 188.0
253.485748 116.0
253.519516 148.0
253.563904 184.0
253.610306 360.0
253.643173 100.0
253.665359 84.0
253.697067 152.0
253.7341 124.0
253.740677 196.0
253.803528 112.0
253.852173 208.0
253.870132 92.0
253.91275 132.0
253.951096 144.0
253.983154 120.0
254.017166 220.0
254.074585 164.0
254.139297 144.0
254.180786 156.0
254.251831 632.0
254.303741 197640.0
254.387787 112.0
254.413971 228.0
254.46167 160.0
254.474136 56.0
254.4832 176.0
254.538528 228.0
254.600113 348.0
254.646317 140.0
254.689545 96.0
254.722229 128.0
254.7388 48.0
254.796066 248.0
254.82576 1012.0
254.880905 272.0
254.907196 104.0
254.945877 60.0
254.978729 124.0
255.037964 104.0
255.059662 112.0
255.111557 232.0
255.154053 216.0
255.193542 236.0
255.234375 216.0
255.30661 37996.0
255.416916 164.0
255.518448 108.0
255.547867 144.0
255.610748 96.0
255.680466 124.0
255.699936 128.0
255.769058 64.0
255.79628 56.0
255.826233 172.0
255.889359 100.0
255.934784 40.0
255.978729 80.0
256.028687 96.0
256.113708 84.0
256.189331 96.0
256.234741 180.0
256.309082 2736.0
256.395233 80.0
256.444611 140.0
256.495331 52.0
256.519135 60.0
256.55423 128.0
256.592468 140.0
256.615997 72.0
256.621735 76.0
256.628632 80.0
256.65799 180.0
256.68988 80.0
256.719574 248.0
256.745117 76.0
256.769409 164.0
256.812469 128.0
256.842224 248.0
256.866791 188.0
256.925507 148.0
256.970795 108.0
257.005157 64.0
257.043457 148.0
257.098328 108.0
257.118378 132.0
257.147156 136.0
257.206177 248.0
257.242218 112.0
257.307709 620.0
257.37616 96.0
257.404907 124.0
257.436829 52.0
257.475159 52.0
257.523102 144.0
257.545471 44.0
257.613251 92.0
257.645142 100.0
257.733276 88.0
257.855469 72.0
257.924774 196.0
257.95459 108.0
258.038422 148.0
258.156067 56.0
258.178467 92.0
258.236053 136.0
258.320526 160.0
258.402466 72.0
258.434448 64.0
258.501678 48.0
258.5401 52.0
258.616913 56.0
258.661743 96.0
258.719788 96.0
258.745026 76.0
258.906982 84.0
259.107025 52.0
259.241638 208.0
259.28653 104.0
259.759491 240.0
259.783661 60.0
260.105804 212.0
260.416229 56.0
260.535095 132.0
260.557617 92.0
260.740814 28.0
261.348083 92.0
261.432465 76.0
261.532257 228.0
261.580566 112.0
261.622437 64.0
262.157257 208.0
262.231415 76.0
262.318481 156.0
262.389404 212.0
262.592621 184.0
262.676514 56.0
262.734619 104.0
262.957336 36.0
263.223206 160.0
263.887939 52.0
264.104675 28.0
264.290741 220.0
264.680939 48.0
264.712128 184.0
265.144318 96.0
265.235107 108.0
265.277557 324.0
265.971649 100.0
266.062561 112.0
266.091797 44.0
266.244446 160.0
266.302887 252.0
266.315979 192.0
266.326477 256.0
266.445892 72.0
266.468658 76.0
266.533661 36.0
266.715698 96.0
267.137329 116.0
267.284241 480.0
267.317566 120.0
267.58783 128.0
267.806061 104.0
267.949432 60.0
268.203705 104.0
268.536377 116.0
268.572266 44.0
268.686493 36.0
268.833344 104.0
268.937836 116.0
269.055389 84.0
269.123962 36.0
269.195831 88.0
269.257904 128.0
269.401642 104.0
269.545471 52.0
269.780853 48.0
270.248688 108.0
270.366516 84.0
270.487671 48.0
270.897125 168.0
271.051147 80.0
271.268921 76.0
271.49054 84.0
271.772736 148.0
272.147034 136.0
272.301422 240.0
272.73526 172.0
272.916138 160.0
273.287933 84.0
273.916931 212.0
274.124542 40.0
274.328979 152.0
274.36853 68.0
274.64563 156.0
275.325745 132.0
275.857849 204.0
277.271637 188.0
278.426544 112.0
278.745544 240.0
278.875183 164.0
279.227722 96.0
279.87262 148.0
280.293335 84.0
280.373352 160.0
280.406677 140.0
280.683472 116.0
280.910339 68.0
280.950378 180.0
281.060516 144.0
281.153961 144.0
281.226349 200.0
281.280853 60.0
281.340942 104.0
281.371002 216.0
281.454498 164.0
281.527985 96.0
281.568085 108.0
281.771912 152.0
281.855469 56.0
281.983246 160.0
282.086151 112.0
282.112885 116.0
282.167725 172.0
282.178162 108.0
282.238831 160.0
282.272339 124.0
282.317261 53996.0
282.405762 72.0
282.440704 88.0
282.478973 100.0
282.516327 20.0
282.604675 48.0
282.635529 128.0
282.670837 192.0
282.728516 48.0
282.754059 76.0
282.767029 48.0
282.774597 68.0
282.805511 72.0
282.835663 112.0
282.868134 312.0
282.923004 96.0
282.95285 32.0
282.994446 100.0
283.029907 136.0
283.060181 188.0
283.17395 68.0
283.217499 64.0
283.319855 9344.0
283.398438 64.0
283.470703 72.0
283.483276 104.0
283.589539 60.0
283.645569 84.0
283.770599 68.0
283.794067 64.0
283.906677 84.0
283.945038 96.0
284.065826 60.0
284.092651 132.0
284.326019 988.0
284.424988 144.0
284.535797 40.0
284.660065 108.0
284.690308 60.0
284.750763 64.0
284.82132 48.0
284.875092 92.0
284.919617 112.0
284.989349 52.0
285.036102 92.0
285.104156 152.0
285.142212 84.0
285.164581 112.0
285.231384 164.0
285.340118 96.0
285.37442 128.0
285.446625 124.0
285.48175 136.0
285.570618 56.0
285.604736 140.0
285.638397 44.0
285.810028 32.0
286.097565 144.0
286.234283 84.0
286.294922 48.0
286.446106 104.0
286.59671 148.0
286.962311 104.0
287.249054 76.0
287.762177 44.0
287.961487 56.0
288.776276 104.0
289.233185 112.0
289.314453 64.0
291.638824 76.0
291.914276 104.0
292.091187 64.0
292.135437 64.0
292.285187 64.0
292.530304 80.0
292.659698 96.0
294.033905 68.0
294.43689 84.0
294.894867 112.0
294.966644 52.0
295.206055 76.0
295.264221 196.0
296.250305 120.0
296.510803 76.0
297.814606 76.0
297.942108 36.0
298.041779 112.0
300.346161 140.0
301.157043 80.0
301.181244 48.0
302.360596 92.0
302.862793 64.0
303.344574 108.0
303.396606 92.0
305.157349 96.0
306.811615 64.0
306.891815 88.0
307.516449 60.0
307.928558 68.0
310.259735 108.0
310.332306 700.0
311.331787 240.0
312.28299 40.0
312.335754 284.0
314.415161 52.0
314.45755 160.0
314.559937 88.0
315.470917 104.0
317.753021 76.0
327.03653 112.0
328.525208 44.0
329.012543 60.0
329.406281 96.0
330.212585 72.0
333.974976 108.0
334.382599 92.0
335.384521 192.0
335.928009 120.0
336.873779 76.0
339.722748 92.0
341.732971 120.0
341.887573 64.0
342.978088 96.0
344.62085 76.0
345.70459 104.0
349.215332 116.0
349.848114 80.0
350.943787 56.0
351.626678 124.0
352.287781 92.0
354.109985 116.0
356.015747 96.0
357.090942 84.0
361.771362 52.0
363.052429 40.0
365.998352 112.0
366.257385 92.0
369.637207 56.0
370.360992 68.0
370.410828 200.0
371.484497 52.0
371.799225 108.0
375.015472 36.0
376.442139 156.0
377.023041 92.0
377.444519 336.0
377.719208 64.0
378.474091 32.0
379.862 52.0
379.916321 104.0
382.07312 80.0
382.583099 72.0
385.630493 52.0
386.769073 72.0
389.023743 88.0
390.592133 52.0
390.914825 72.0
392.400269 76.0
395.165833 112.0
398.855072 116.0
400.20813 88.0
402.349792 92.0
403.456787 144.0
404.459808 252.0
406.361267 84.0
408.825226 44.0
409.477631 92.0
412.419861 64.0
413.917206 92.0
416.318604 56.0
417.436462 56.0
419.558441 48.0
422.986908 124.0
423.900513 80.0
425.324097 52.0
425.903229 76.0
430.74472 44.0
431.47757 240.0
433.438904 164.0
433.480347 120.0
433.795441 140.0
434.459167 120.0
438.443787 84.0
439.570099 104.0
441.676392 108.0
443.70282 80.0
444.060394 152.0
444.845306 88.0
445.958771 48.0
447.322021 52.0
447.600952 176.0
447.772705 108.0
449.502625 144.0
450.507263 124.0
450.688568 32.0
450.866119 56.0
454.076233 92.0
455.804565 48.0
456.114899 52.0
460.25293 120.0
463.431946 92.0
466.209137 104.0
467.960388 68.0
469.180023 92.0
471.269562 112.0
471.883514 100.0
472.220917 44.0
472.549774 80.0
472.757538 64.0
473.602051 112.0
474.798645 72.0
476.157471 72.0
480.450714 52.0
480.581635 68.0
482.595795 104.0
483.558502 84.0
484.285522 40.0
485.359558 64.0
488.439148 76.0
490.756317 64.0
490.950409 36.0
497.909607 44.0
498.900787 60.0
501.229248 80.0
509.455292 80.0
515.205505 92.0
521.838074 40.0
523.576843 88.0
526.537598 68.0
526.75238 60.0
529.241028 124.0
530.230835 40.0
537.037537 40.0
537.757568 68.0
540.878479 64.0
542.319458 84.0
543.711243 84.0
549.002441 76.0
554.131775 56.0
563.639282 116.0
568.214478 100.0
568.428101 136.0
572.784424 100.0
573.489807 92.0
579.628052 88.0
579.862915 108.0
581.273315 104.0
582.594055 96.0
595.111633 36.0
601.652283 112.0
602.360596 68.0
604.072021 128.0
615.789001 92.0
616.629211 168.0
622.78479 80.0
629.120789 68.0
631.069824 88.0
643.524231 68.0
644.696533 84.0
648.792603 68.0
652.332031 60.0
653.140808 80.0
669.730408 116.0
681.253906 80.0
688.605896 36.0
714.959961 92.0
721.202026 72.0
747.459106 96.0
754.88562 56.0
762.420227 76.0
773.720398 56.0
778.445923 112.0
781.854736 136.0
787.319885 92.0
805.399536 60.0
815.067627 156.0
823.004639 96.0
824.787598 36.0
834.553711 84.0
853.409058 116.0
856.238037 40.0
857.409424 68.0
859.281799 72.0
861.594421 44.0
866.826904 104.0
871.187561 64.0
875.500305 48.0
876.378296 104.0
893.149292 192.0
919.756653 100.0
920.022339 100.0
924.012329 156.0
935.692993 96.0
938.696167 76.0
949.721924 104.0
954.975037 88.0
960.810364 56.0
961.594299 56.0
962.187073 184.0
966.081665 100.0
966.948242 156.0
973.006226 92.0
979.201538 164.0
982.599854 100.0
983.108887 44.0
986.116638 136.0
989.000916 64.0
996.40918 96.0
999.89386 128.0
1006.230896 104.0
1013.64624 152.0
1014.292847 56.0
1015.396484 164.0
1033.327393 88.0
1035.261108 52.0
1039.313599 92.0
1040.488525 92.0
1040.873901 36.0
1050.156738 36.0
1063.151978 44.0
1071.249512 124.0
1095.969971 256.0
1099.208618 80.0
1127.374146 72.0
1142.734375 152.0
1143.327759 124.0
1144.289551 64.0
1150.02124 56.0
1151.871948 204.0
1152.108521 64.0
1155.388306 100.0
1162.912354 144.0
1164.950073 200.0
1167.901123 160.0
1169.262207 148.0
1170.637817 92.0
1171.802979 104.0
1175.547607 180.0
1176.885864 148.0
1181.692261 176.0
1184.328735 48.0
1185.301758 160.0
1193.720215 228.0
1200.332886 204.0
1207.794067 132.0
1213.599243 88.0
1217.32666 204.0
1217.764282 224.0
1218.160278 144.0
1218.681519 224.0
1221.994019 72.0
1224.359619 92.0
1226.938477 172.0
1238.724487 208.0
1248.70166 192.0
1250.601929 172.0
1251.123047 144.0
1257.560791 172.0
1258.528198 28.0
1265.140747 100.0
1266.642456 148.0
1267.967896 160.0
1273.233643 156.0
1274.967651 188.0
1279.649658 208.0
1282.015259 180.0
1288.76062 188.0
1289.361084 144.0
1289.639893 188.0
1291.105957 196.0
1291.220459 128.0
1307.000244 104.0
1308.339355 172.0
1309.852173 144.0
1311.055664 76.0
1312.692627 128.0
1313.652222 64.0
1314.114014 136.0
1319.937622 156.0
1320.335449 184.0
1321.869629 156.0
1323.13147 52.0
1324.512939 164.0
1328.769653 172.0
1331.775879 228.0
1333.005249 132.0
1333.636597 188.0
1339.255493 72.0
1339.612427 140.0
1346.186035 80.0
1348.349121 144.0
1349.051025 196.0
1353.96228 48.0
1354.372559 184.0
1354.995361 92.0
1356.190308 160.0
1357.055542 184.0
1359.39624 124.0
1360.196411 128.0
1360.769165 88.0
1363.627686 84.0
1364.532104 160.0
1366.68042 244.0
1367.549072 144.0
1367.696289 168.0
1369.103027 128.0
1369.950317 168.0
1375.608154 128.0
1375.792725 52.0
1375.859253 140.0
1377.499146 296.0
1379.531982 144.0
1379.591064 196.0
1379.92395 152.0
1381.965942 224.0
1383.039307 152.0
1383.276245 156.0
1383.439087 160.0
1385.083618 140.0
1387.771484 156.0
1388.894775 60.0
1389.087646 136.0
1389.287964 40.0
1389.770386 144.0
1391.455688 48.0
1391.737915 168.0
1392.904297 80.0
1394.413086 128.0
1396.339355 128.0
1396.800537 176.0
1402.066284 216.0
1403.386108 144.0
1404.229004 148.0
1408.223267 52.0
1411.325562 168.0
1412.275635 200.0
1413.719971 128.0
1415.322388 112.0
1415.794312 44.0
1419.242432 132.0
1423.040161 196.0
1424.692871 148.0
1426.234741 96.0
1426.361694 148.0
1427.316772 244.0
1430.312012 240.0
1430.364624 212.0
1433.61145 148.0
1436.077881 40.0
1436.183594 148.0
1436.598511 176.0
1437.745728 160.0
1438.025146 264.0
1438.885986 148.0
1439.920776 192.0
1440.63855 144.0
1441.439697 136.0
1441.621094 216.0
1441.810059 156.0
1441.885742 148.0
1443.57959 84.0
1446.402588 120.0
1447.167358 200.0
1447.341553 112.0
1453.081055 160.0
1453.414917 112.0
1455.244751 144.0
1458.291992 52.0
1459.059937 156.0
1459.348877 88.0
1459.873779 212.0
1460.109619 180.0
1463.040039 216.0
1472.971802 168.0
1474.890381 196.0
1476.312866 184.0
1478.968506 124.0
1479.236572 156.0
1479.824585 148.0
1480.890991 188.0
1481.718506 172.0
1481.841187 148.0
1482.048096 48.0
1482.269287 144.0
1483.167358 144.0
1483.427979 100.0
1484.102905 160.0
1485.107788 144.0
1490.567993 196.0
1491.399536 120.0
1491.890381 144.0
1492.451782 220.0
1493.944214 176.0
1494.190552 64.0
1497.247314 76.0
1497.755859 236.0
1497.956177 132.0
1498.210449 164.0
1498.264404 168.0
1499.729004 180.0
1501.171143 96.0
1504.150146 240.0
