>compound MLS001158371-01!
>formula C25H26N2O5
>ionization [M+H]+
>parentmass 435.191345
#inchi InChI=1S/C25H26N2O5/c1-14-7-20(31-3)24-15(2)18(25(30)32-21(24)8-14)10-23(29)26-11-16-9-17(13-26)19-5-4-6-22(28)27(19)12-16/h4-8,16-17H,9-13H2,1-3H3/t16-,17+/m1/s1
#inchikey MZRREKJHMFNUGF
#Ion_Source LC-ESI
#Instrument qTof
#Compound_Source NIH Natural Product Library
#PI Dorrestein
#Data_Collector VVP/LMS
#Scan -1
#Precursor_MZ 435.192
#ExactMass 434.184
#Charge 1
#CAS_Number N/A
#Pubmed_ID N/A
#Smiles COc1cc(C)cc2oc(=O)c(CC(=O)N3C[C@H]4C[C@@H](C3)c5cccc(=O)n5C4)c(C)c12
#INCHI_AUX N/A
#Library_Class 1
#SpectrumID CCMSLIB00000080489
#IonMode Positive
#UpdateWorkflowName UPDATE-SINGLE-ANNOTATED-GOLD
#LibraryQualityString Gold
#TaskID b1d8e8f6646f4e71acdff9ca3d919d08
##Scan# 1824
#SpectrumFile p2-F09_GF9_01_18045.mzXML
#LibraryName NIH_Natural_Products_Library.mgf
#MQScore -1
#Organism NIH_Natural_Products_Library
#TIC_Query 0
#RT_Query -1
#MZErrorPPM -1
#SharedPeaks 0
#MassDiff 0
#LibMZ -1
#SpecMZ 435.192
#SpecCharge 0
#internalFilename spec-00000.mgf

>collision 10
94.984619 220.0
95.047798 20.0
95.07225 144.0
95.161423 196.0
95.283897 52.0
95.359688 204.0
95.376717 168.0
95.419945 176.0
95.462723 136.0
95.497734 200.0
95.528854 64.0
95.579445 168.0
95.595009 48.0
95.663132 236.0
95.676758 152.0
95.692337 124.0
95.774124 120.0
95.844261 156.0
95.861801 128.0
95.885185 112.0
95.906624 128.0
95.930016 180.0
96.029922 152.0
96.086029 176.0
96.172874 136.0
96.191635 96.0
96.225967 356.0
96.337875 180.0
96.412125 164.0
96.429459 180.0
96.468002 136.0
96.494911 80.0
96.525513 196.0
96.617439 140.0
96.649826 248.0
96.673851 164.0
96.711411 176.0
96.728981 44.0
96.794601 304.0
96.887985 188.0
96.948349 244.0
97.028717 152.0
97.046364 56.0
97.086372 188.0
97.124748 128.0
97.154175 128.0
97.268051 136.0
97.33873 372.0
97.356407 164.0
97.378006 140.0
97.424141 280.0
97.489227 184.0
97.517509 128.0
97.539131 232.0
97.572548 32.0
97.633507 116.0
97.64727 176.0
97.664978 204.0
97.69165 204.0
97.71022 172.0
97.769249 44.0
97.794838 184.0
97.814522 140.0
97.830269 188.0
97.87439 176.0
97.907059 92.0
97.922813 28.0
98.027229 144.0
98.049774 180.0
98.074532 164.0
98.088333 172.0
98.119873 80.0
98.181 204.0
98.245987 124.0
98.271736 60.0
98.338837 172.0
98.422897 204.0
98.487152 304.0
98.563972 156.0
98.577805 136.0
98.611397 108.0
98.672409 116.0
98.691681 216.0
98.72805 148.0
98.759689 144.0
98.799255 128.0
98.8974 124.0
98.944832 244.0
99.014709 236.0
99.033936 124.0
99.058586 100.0
99.080383 216.0
99.1101 172.0
99.13784 232.0
99.169556 228.0
99.235695 176.0
99.262733 204.0
99.276138 164.0
99.316284 360.0
99.366913 176.0
99.381325 168.0
99.399605 156.0
99.425407 164.0
99.439301 152.0
99.538559 84.0
99.602112 340.0
99.621979 192.0
99.665688 152.0
99.729507 140.0
99.747169 144.0
99.776993 216.0
99.805939 204.0
99.836647 132.0
99.932129 168.0
99.949402 164.0
99.964081 196.0
100.023674 124.0
100.053535 104.0
100.13916 132.0
100.209145 152.0
100.270653 188.0
100.29258 48.0
100.330452 164.0
100.346405 184.0
100.453964 120.0
100.475533 164.0
100.493996 164.0
100.555862 124.0
100.603767 124.0
100.645699 164.0
100.725578 180.0
100.773338 128.0
100.796059 204.0
100.817192 216.0
100.824097 184.0
100.924835 212.0
100.957428 92.0
101.007431 204.0
101.031441 380.0
101.081459 176.0
101.119484 212.0
101.151512 124.0
101.175529 44.0
101.29969 76.0
101.343773 172.0
101.367554 152.0
101.387856 220.0
101.407715 216.0
101.44165 148.0
101.446884 124.0
101.452782 204.0
101.676651 96.0
101.779488 140.0
101.835266 132.0
101.889336 148.0
101.935715 180.0
101.977921 108.0
102.000031 144.0
102.046028 136.0
102.122681 136.0
102.152855 168.0
102.187057 80.0
102.219254 96.0
102.235352 128.0
102.362175 80.0
102.376274 200.0
102.458855 180.0
102.488464 144.0
102.517288 156.0
102.55558 224.0
102.644287 168.0
102.680588 68.0
102.741104 136.0
102.781456 116.0
102.821815 144.0
102.844017 224.0
102.951027 100.0
102.973244 200.0
103.015656 152.0
103.053688 528.0
103.155098 168.0
103.180428 172.0
103.237991 148.0
103.32708 180.0
103.343178 128.0
103.371506 476.0
103.393768 128.0
103.507133 132.0
103.529686 204.0
103.610435 108.0
103.640053 264.0
103.68338 124.0
103.704895 208.0
103.747589 372.0
103.764465 220.0
103.815155 124.0
103.863998 164.0
103.932808 152.0
103.959961 156.0
103.989632 140.0
104.047722 136.0
104.141754 156.0
104.164253 160.0
104.210983 160.0
104.253654 200.0
104.271942 76.0
104.290237 196.0
104.308533 244.0
104.334961 204.0
104.367004 168.0
104.410194 108.0
104.438667 144.0
104.461044 72.0
104.487495 156.0
104.53022 220.0
104.560745 156.0
104.585175 164.0
104.6315 148.0
104.664566 152.0
104.688965 184.0
104.719559 148.0
104.746033 132.0
104.772514 212.0
104.860138 104.0
104.890717 160.0
104.907021 124.0
104.931488 140.0
104.95356 116.0
105.037529 176.0
105.06929 2428.0
105.117104 124.0
105.137512 92.0
105.159958 132.0
105.18792 212.0
105.217995 204.0
105.233452 156.0
105.276764 180.0
105.313095 176.0
105.428459 188.0
105.484253 136.0
105.548119 176.0
105.642197 204.0
105.666748 184.0
105.752693 124.0
105.806076 156.0
105.902161 200.0
105.94928 120.0
106.02919 212.0
106.210075 164.0
106.39695 196.0
106.423958 192.0
106.462067 152.0
106.519577 132.0
106.544235 156.0
106.560669 228.0
106.591492 152.0
106.632591 204.0
106.767258 156.0
106.821762 232.0
106.848503 184.0
106.934402 172.0
106.949707 156.0
107.008011 184.0
107.050781 176.0
107.079056 164.0
107.153214 108.0
107.352226 124.0
107.399315 220.0
107.477173 196.0
107.509178 152.0
107.542961 132.0
107.571861 60.0
107.586311 76.0
107.604889 216.0
107.637932 80.0
107.737068 136.0
107.761078 180.0
107.823853 88.0
107.858994 92.0
107.893021 148.0
107.925148 160.0
107.954102 236.0
108.004807 108.0
108.053383 168.0
108.108582 172.0
108.138229 88.0
108.213547 104.0
108.28109 132.0
108.305939 184.0
108.355659 172.0
108.380524 76.0
108.401245 144.0
108.447418 144.0
108.480003 140.0
108.629311 152.0
108.753815 64.0
108.809113 132.0
108.926163 200.0
108.946938 52.0
109.000954 116.0
109.029488 412.0
109.061226 208.0
109.13768 288.0
109.248375 176.0
109.308716 152.0
109.356583 212.0
109.421112 208.0
109.456863 164.0
109.521072 172.0
109.583572 168.0
109.729462 116.0
109.750313 180.0
109.856682 44.0
109.90258 176.0
109.927345 92.0
109.934906 188.0
110.021545 72.0
110.073746 196.0
110.088364 252.0
110.117599 156.0
110.165642 144.0
110.192802 244.0
110.219971 132.0
110.337013 140.0
110.362106 84.0
110.38092 188.0
110.410255 284.0
110.439484 328.0
110.502243 176.0
110.525253 168.0
110.691017 128.0
110.842918 176.0
110.883354 148.0
110.914795 172.0
111.061577 128.0
111.090942 228.0
111.122414 184.0
111.162277 176.0
111.201065 192.0
111.256729 216.0
111.407936 164.0
111.433762 136.0
111.475174 168.0
111.592888 212.0
111.651764 176.0
111.670692 248.0
111.725388 148.0
111.744324 152.0
111.788071 136.0
111.815865 188.0
111.849548 124.0
111.925339 204.0
111.942184 112.0
111.971283 176.0
111.977455 144.0
112.005363 192.0
112.072784 104.0
112.088501 200.0
112.096695 92.0
112.100899 140.0
112.133545 144.0
112.163406 140.0
112.197136 124.0
112.232826 224.0
112.26461 128.0
112.366241 220.0
112.402351 176.0
112.463333 104.0
112.513588 160.0
112.530479 96.0
112.568489 176.0
112.644524 100.0
112.705795 120.0
112.738548 204.0
112.874893 168.0
112.898155 200.0
113.048355 116.0
113.075874 212.0
113.109734 144.0
113.181717 92.0
113.25161 156.0
113.34906 136.0
113.366013 172.0
113.385086 156.0
113.42112 76.0
113.522888 160.0
113.580154 184.0
113.614098 68.0
113.671379 108.0
113.728813 128.0
113.743546 188.0
113.877312 156.0
113.940796 208.0
113.966537 132.0
113.985657 136.0
114.117447 108.0
114.255692 96.0
114.291862 88.0
114.317398 124.0
114.425957 128.0
114.468536 116.0
114.491966 156.0
114.517525 240.0
114.546555 108.0
114.587822 88.0
114.664536 96.0
114.681587 120.0
114.775383 116.0
114.796707 28.0
114.815903 256.0
114.83297 148.0
114.852165 132.0
114.889397 228.0
114.907631 184.0
114.926765 124.0
114.950302 160.0
114.969513 164.0
114.98658 64.0
115.007927 132.0
115.052628 2384.0
115.111572 204.0
115.133896 172.0
115.153114 220.0
115.230225 164.0
115.255661 128.0
115.298401 196.0
115.319771 196.0
115.343086 376.0
115.383904 156.0
115.41597 204.0
115.492149 168.0
115.558624 156.0
115.599937 176.0
115.649162 104.0
115.751923 80.0
115.772934 252.0
115.803322 32.0
115.8283 248.0
115.87616 168.0
115.981163 100.0
115.998314 72.0
116.026184 108.0
116.06089 600.0
116.10862 160.0
116.163429 180.0
116.227798 192.0
116.247108 220.0
116.305054 260.0
116.324379 132.0
116.380196 236.0
116.413635 144.0
116.430969 112.0
116.459656 160.0
116.515503 64.0
116.601456 172.0
116.629402 156.0
116.65612 192.0
116.721848 80.0
116.762939 148.0
116.888901 188.0
116.908997 156.0
116.926216 96.0
116.971413 144.0
117.046768 164.0
117.068047 596.0
117.176788 176.0
117.223282 208.0
117.242805 68.0
117.257889 192.0
117.273987 136.0
117.344116 188.0
117.361366 176.0
117.398972 236.0
117.439362 168.0
117.46273 164.0
117.559822 120.0
117.622154 168.0
117.670349 200.0
117.720078 204.0
117.760605 160.0
117.792999 72.0
117.816765 184.0
117.847015 140.0
117.862137 140.0
117.889137 236.0
117.909683 128.0
117.935616 92.0
118.023804 192.0
118.041389 252.0
118.071831 188.0
118.121574 172.0
118.15374 92.0
118.205956 228.0
118.242851 160.0
118.491768 208.0
118.521294 568.0
118.560867 180.0
118.586395 108.0
118.598648 180.0
118.683685 172.0
118.717201 160.0
118.747559 160.0
118.776688 328.0
118.869049 228.0
118.884239 124.0
118.91304 192.0
118.940674 168.0
119.047844 132.0
119.080917 420.0
119.120903 112.0
119.20002 184.0
119.235222 144.0
119.250099 184.0
119.364326 124.0
119.38607 188.0
119.44915 124.0
119.553589 136.0
119.715866 172.0
119.810524 140.0
119.858452 76.0
119.880249 152.0
119.89637 140.0
119.943451 56.0
119.96743 116.0
119.996109 180.0
120.076454 184.0
120.122261 120.0
120.157265 176.0
120.176804 132.0
120.192078 144.0
120.288109 144.0
120.305206 120.0
120.332932 196.0
120.353485 148.0
120.377625 104.0
120.504311 80.0
120.539886 128.0
120.615768 60.0
120.652931 392.0
120.687912 144.0
120.731651 204.0
120.795074 40.0
120.843208 196.0
120.916573 220.0
121.00975 176.0
121.028488 148.0
121.067139 728.0
121.102875 156.0
121.119392 128.0
121.143143 200.0
121.204491 192.0
121.241745 140.0
121.257088 136.0
121.287201 276.0
121.333809 224.0
121.355736 132.0
121.375465 160.0
121.390816 192.0
121.436874 220.0
121.48732 128.0
121.515846 140.0
121.531204 164.0
121.58606 132.0
121.603622 132.0
121.72377 88.0
121.739738 148.0
121.801239 168.0
121.856575 232.0
121.913292 160.0
121.928673 152.0
121.977028 84.0
122.025391 168.0
122.067169 36.0
122.084763 148.0
122.111885 240.0
122.128754 160.0
122.196945 172.0
122.234352 208.0
122.302582 176.0
122.342247 180.0
122.395042 200.0
122.412659 156.0
122.461113 124.0
122.476532 152.0
122.520073 172.0
122.558044 152.0
122.604317 228.0
122.712334 148.0
122.727768 144.0
122.758636 116.0
122.815979 140.0
122.833832 172.0
122.943947 88.0
122.961601 176.0
123.003151 184.0
123.035469 164.0
123.083015 204.0
123.124977 164.0
123.235428 120.0
123.253105 128.0
123.284042 132.0
123.30172 132.0
123.356979 128.0
123.398987 40.0
123.465324 144.0
123.512741 184.0
123.534966 156.0
123.600731 152.0
123.648949 220.0
123.718651 312.0
123.752991 120.0
123.843788 48.0
123.877014 116.0
123.91468 148.0
123.963425 180.0
123.996666 168.0
124.068619 164.0
124.109138 180.0
124.125938 192.0
124.149643 96.0
124.176254 128.0
124.208649 132.0
124.227272 164.0
124.309364 132.0
124.324898 128.0
124.353752 192.0
124.407028 92.0
124.436981 148.0
124.464752 112.0
124.484818 184.0
124.515831 148.0
124.586906 172.0
124.62468 96.0
124.66301 224.0
124.715797 224.0
124.762474 144.0
124.780266 176.0
124.969315 256.0
125.025673 184.0
125.067238 88.0
125.1157 192.0
125.147377 128.0
125.185234 152.0
125.256508 144.0
125.273056 148.0
125.327797 156.0
125.347855 228.0
125.405792 68.0
125.492737 212.0
125.539566 108.0
125.575485 148.0
125.627106 192.0
125.732735 184.0
125.766251 208.0
125.923431 120.0
125.963631 132.0
125.987312 164.0
126.046295 136.0
126.066414 132.0
126.093231 72.0
126.127762 176.0
126.162521 204.0
126.200531 236.0
126.305641 144.0
126.323265 132.0
126.377228 88.0
126.397369 212.0
126.428146 212.0
126.457794 272.0
126.494476 196.0
126.560768 116.0
126.587639 100.0
126.625717 104.0
126.683952 264.0
126.843056 192.0
126.890137 144.0
126.919281 96.0
126.966377 88.0
127.057182 636.0
127.130142 196.0
127.212624 188.0
127.291779 104.0
127.372627 196.0
127.431038 216.0
127.466988 156.0
127.520927 160.0
127.635094 220.0
127.743538 164.0
127.808784 124.0
127.948448 176.0
128.031647 204.0
128.062973 4100.0
128.148773 196.0
128.191589 140.0
128.241165 184.0
128.290176 184.0
128.405762 152.0
128.436493 204.0
128.493744 160.0
128.51796 132.0
128.556915 124.0
128.622375 116.0
128.652512 204.0
128.678452 200.0
128.741196 196.0
128.834641 160.0
128.921967 216.0
128.942383 176.0
128.986053 132.0
129.068863 2228.0
129.148849 140.0
129.271027 64.0
129.420425 88.0
129.494263 240.0
129.547256 180.0
129.572174 76.0
129.597687 76.0
129.67868 64.0
129.73082 112.0
129.805634 104.0
129.828308 172.0
129.843582 136.0
129.877213 172.0
129.90947 148.0
129.917252 188.0
129.941193 184.0
129.987106 164.0
130.027481 132.0
130.076019 736.0
130.118225 136.0
130.145004 136.0
130.173248 128.0
130.25502 32.0
130.276947 140.0
130.33226 88.0
130.370026 180.0
130.443619 112.0
130.495407 196.0
130.586868 244.0
130.605072 176.0
130.648392 176.0
130.702896 152.0
130.718826 36.0
130.764343 160.0
130.823532 188.0
130.841736 180.0
130.873611 120.0
130.896378 208.0
130.930542 108.0
130.948761 144.0
130.982925 176.0
131.007126 196.0
131.04921 840.0
131.084991 1780.0
131.127258 140.0
131.189301 192.0
131.267822 84.0
131.354492 156.0
131.397156 224.0
131.434341 40.0
131.495956 140.0
131.527908 136.0
131.548462 172.0
131.646637 108.0
131.811111 44.0
131.900421 156.0
131.972122 136.0
131.991699 148.0
132.056137 272.0
132.092331 312.0
132.124359 164.0
132.147232 84.0
132.165543 116.0
132.194519 192.0
132.232269 152.0
132.263397 184.0
132.34407 284.0
132.438965 120.0
132.468506 228.0
132.526138 172.0
132.651077 116.0
132.676285 144.0
132.715973 220.0
132.747375 92.0
132.825348 144.0
132.859756 160.0
132.906021 388.0
132.964859 240.0
132.992859 104.0
133.031876 172.0
133.047653 152.0
133.065552 920.0
133.101929 1396.0
133.132904 56.0
133.194794 144.0
133.22847 172.0
133.305206 216.0
133.332779 40.0
133.399429 144.0
133.436844 160.0
133.505203 72.0
133.525894 200.0
133.5466 200.0
133.562698 220.0
133.595703 80.0
133.640915 128.0
133.666107 144.0
133.698441 176.0
133.719162 172.0
133.822754 128.0
133.956329 224.0
133.985611 168.0
134.059113 164.0
134.067566 100.0
134.106628 160.0
134.159119 116.0
134.182175 168.0
134.202927 136.0
134.329773 76.0
134.472839 144.0
134.491302 176.0
134.53978 156.0
134.585587 176.0
134.591751 148.0
134.600754 252.0
134.67601 92.0
134.732513 192.0
134.807709 120.0
134.879349 160.0
134.957962 104.0
135.043518 212.0
135.081009 176.0
135.115448 132.0
135.143005 304.0
135.200851 204.0
135.256393 188.0
135.358261 240.0
135.383743 160.0
135.453232 172.0
135.481018 112.0
135.499557 84.0
135.569077 144.0
135.717422 84.0
135.83107 184.0
136.010895 208.0
136.037384 128.0
136.06546 192.0
136.090988 200.0
136.182922 228.0
136.213593 148.0
136.23732 180.0
136.267517 216.0
136.300049 84.0
136.353561 152.0
136.41626 152.0
136.513901 176.0
136.558823 128.0
136.606949 180.0
136.694321 348.0
136.755859 140.0
136.79776 220.0
136.825195 148.0
136.970078 176.0
137.121536 208.0
137.182587 124.0
137.259079 148.0
137.336548 128.0
137.454956 140.0
137.532043 108.0
137.674454 128.0
137.852005 208.0
137.895142 224.0
137.929138 156.0
137.945496 136.0
137.978226 136.0
138.08223 180.0
138.106842 176.0
138.139587 164.0
138.181702 132.0
138.221481 100.0
138.329132 212.0
138.378296 116.0
138.398987 172.0
138.435745 136.0
138.462601 180.0
138.521332 104.0
138.577377 112.0
138.618347 132.0
138.668777 244.0
138.767227 256.0
138.797714 88.0
138.854004 212.0
138.884186 184.0
138.968948 120.0
139.006485 124.0
139.054138 156.0
139.131592 132.0
139.156708 152.0
139.238571 112.0
139.272171 172.0
139.31221 172.0
139.433899 132.0
139.49736 116.0
139.542038 132.0
139.638443 176.0
139.709015 212.0
139.726685 120.0
139.765717 120.0
139.80307 144.0
139.84314 264.0
139.899628 148.0
139.944366 168.0
139.98204 192.0
140.063248 316.0
140.125351 200.0
140.153992 184.0
140.229416 152.0
140.283234 144.0
140.307205 48.0
140.352005 244.0
140.373215 176.0
140.39209 196.0
140.50766 104.0
140.583176 208.0
140.606583 200.0
140.727158 176.0
140.769669 164.0
140.788559 228.0
140.846817 248.0
140.972824 116.0
141.00827 96.0
141.070038 2932.0
141.109924 80.0
141.253006 152.0
141.275467 112.0
141.35791 76.0
141.393784 64.0
141.436386 144.0
141.470016 192.0
141.531845 200.0
141.575226 224.0
141.602127 140.0
141.727753 132.0
141.808258 120.0
141.8367 48.0
141.914566 176.0
142.042999 128.0
142.07692 1340.0
142.109436 196.0
142.188782 208.0
142.213852 196.0
142.282684 208.0
142.369736 176.0
142.45842 156.0
142.477432 220.0
142.62001 180.0
142.648468 140.0
142.662445 188.0
142.686569 168.0
142.720703 148.0
142.728638 52.0
142.738205 184.0
142.766266 124.0
142.800079 196.0
142.841156 208.0
142.87236 132.0
142.909058 296.0
142.933945 160.0
142.970108 100.0
142.985931 132.0
143.048203 824.0
143.084213 1596.0
143.124695 172.0
143.231537 212.0
143.295853 144.0
143.326828 132.0
143.391174 84.0
143.417389 88.0
143.434082 180.0
143.500839 228.0
143.55806 52.0
143.606842 124.0
143.632004 172.0
143.651077 184.0
143.753677 164.0
143.816818 144.0
143.896896 168.0
143.963745 116.0
144.009125 172.0
144.057098 1396.0
144.088257 368.0
144.183548 148.0
144.221786 92.0
144.312622 184.0
144.336533 184.0
144.379578 180.0
144.45224 128.0
144.532684 120.0
144.590118 164.0
144.654526 228.0
144.690659 180.0
144.740936 152.0
144.779251 180.0
144.887726 180.0
144.968506 216.0
144.996384 120.0
145.041046 208.0
145.064377 2072.0
145.100342 72.0
145.141098 256.0
145.229828 124.0
145.265808 128.0
145.288422 180.0
145.298264 76.0
145.320099 172.0
145.378586 148.0
145.423096 168.0
145.491394 128.0
145.551422 176.0
145.575439 176.0
145.604248 188.0
145.621063 196.0
145.732971 172.0
145.829163 144.0
145.863754 44.0
145.887177 192.0
145.911331 172.0
145.97435 192.0
146.072189 2348.0
146.123474 292.0
146.207703 112.0
146.251022 212.0
146.270782 192.0
146.301575 164.0
146.359253 184.0
146.396347 256.0
146.443649 164.0
146.494232 96.0
146.563431 144.0
146.595428 240.0
146.638809 156.0
146.732819 284.0
146.788269 144.0
146.849091 148.0
146.868484 340.0
146.964355 136.0
147.042648 492.0
147.078491 860.0
147.111572 128.0
147.142746 196.0
147.189224 152.0
147.248138 220.0
147.279205 144.0
147.347198 256.0
147.389328 176.0
147.529114 168.0
147.616547 204.0
147.690201 80.0
147.715714 80.0
147.771362 52.0
147.875412 36.0
147.895477 168.0
147.95668 112.0
147.991608 156.0
148.023087 300.0
148.075851 11608.0
148.124817 152.0
148.151459 48.0
148.168427 84.0
148.209106 172.0
148.269699 176.0
148.294998 68.0
148.359024 132.0
148.411163 140.0
148.478699 108.0
148.500519 80.0
148.53595 112.0
148.57814 100.0
148.599976 184.0
148.738312 108.0
148.753616 92.0
148.866989 140.0
148.905838 112.0
148.967941 192.0
149.02002 180.0
149.037033 228.0
149.079727 1248.0
149.145477 160.0
149.169373 176.0
149.202301 40.0
149.243637 132.0
149.272812 152.0
149.319016 160.0
149.362793 80.0
149.399292 132.0
149.423615 200.0
149.474716 164.0
149.533127 92.0
149.596405 128.0
149.629623 112.0
149.674316 140.0
149.693802 68.0
149.721283 140.0
149.757126 128.0
149.818024 192.0
149.84726 112.0
149.902496 280.0
149.928711 132.0
149.952042 76.0
149.978851 140.0
150.01297 88.0
150.044662 84.0
150.078796 208.0
150.100754 108.0
150.122696 168.0
150.147079 176.0
150.164154 76.0
150.189377 188.0
150.207718 116.0
150.247086 84.0
150.508255 92.0
150.610825 88.0
150.63295 132.0
150.674332 124.0
150.69632 372.0
150.810226 216.0
150.926086 128.0
150.967911 156.0
151.050812 92.0
151.080231 168.0
151.271057 88.0
151.317566 128.0
151.357925 140.0
151.405716 152.0
151.425308 124.0
151.488998 132.0
151.537994 104.0
151.557602 176.0
151.596802 128.0
151.621307 188.0
151.645813 136.0
151.675568 116.0
151.780502 128.0
151.787689 120.0
151.837051 160.0
151.871399 116.0
151.909973 132.0
151.951859 220.0
152.064865 212.0
152.185516 84.0
152.232178 124.0
152.250717 136.0
152.308304 148.0
152.342697 100.0
152.382004 88.0
152.419983 188.0
152.497513 128.0
152.527008 68.0
152.549133 136.0
152.578629 224.0
152.669601 212.0
152.733551 168.0
152.775787 164.0
152.840363 232.0
152.908249 148.0
152.932861 144.0
153.037033 152.0
153.06778 180.0
153.154465 128.0
153.186493 196.0
153.203735 124.0
153.314453 132.0
153.358978 96.0
153.381149 168.0
153.465302 152.0
153.684494 68.0
153.716583 164.0
153.781754 224.0
153.820236 136.0
153.839981 80.0
153.873245 136.0
153.884109 64.0
153.890594 128.0
153.914047 128.0
154.020248 152.0
154.037537 340.0
154.075485 212.0
154.113464 180.0
154.232758 116.0
154.416794 212.0
154.43631 136.0
154.478745 224.0
154.52951 196.0
154.602005 204.0
154.633438 156.0
154.799835 192.0
154.838943 144.0
154.861237 120.0
154.967758 128.0
154.987579 144.0
155.062622 688.0
155.079544 328.0
155.106537 112.0
155.164337 164.0
155.287537 180.0
155.349548 36.0
155.394211 120.0
155.414658 100.0
155.453766 148.0
155.505875 120.0
155.528214 76.0
155.58252 128.0
155.591339 112.0
155.626251 152.0
155.649872 176.0
155.682648 120.0
155.754486 164.0
155.976151 192.0
155.997513 372.0
156.06601 168.0
156.107407 96.0
156.333481 144.0
156.355881 44.0
156.403168 52.0
156.510223 172.0
156.61731 180.0
156.66713 180.0
156.716949 96.0
156.801682 192.0
156.895966 112.0
156.921341 112.0
156.967651 160.0
157.031067 104.0
157.063568 1060.0
157.094254 120.0
157.199509 148.0
157.225662 200.0
157.245636 112.0
157.323822 148.0
157.405396 180.0
157.432877 156.0
157.488541 208.0
157.540268 160.0
157.617722 152.0
157.672699 148.0
157.707703 168.0
157.72644 168.0
157.770187 140.0
157.795197 176.0
157.833908 144.0
157.851334 144.0
157.890213 152.0
157.925232 228.0
157.977753 140.0
158.042801 136.0
158.072311 7212.0
158.127899 160.0
158.268082 220.0
158.284164 184.0
158.383652 188.0
158.42337 76.0
158.480988 64.0
158.498535 104.0
158.574692 132.0
158.600357 152.0
158.633865 132.0
158.673981 208.0
158.771774 64.0
158.794342 208.0
158.849777 196.0
158.896591 132.0
158.919769 48.0
158.943558 164.0
159.003525 32.0
159.047226 304.0
159.08049 24288.0
159.16008 96.0
159.179703 152.0
159.226028 44.0
159.243607 204.0
159.31395 184.0
159.351639 60.0
159.398285 184.0
159.447113 84.0
159.513733 40.0
159.55632 200.0
159.593887 104.0
159.615555 216.0
159.711121 88.0
159.736267 100.0
159.77652 176.0
159.829361 68.0
159.864594 68.0
159.92247 208.0
160.008072 56.0
160.048355 128.0
160.084198 3588.0
160.137787 164.0
160.155579 200.0
160.19191 140.0
160.239777 224.0
160.27562 196.0
160.297653 128.0
160.375854 68.0
160.489304 120.0
160.506958 112.0
160.52713 148.0
160.572525 60.0
160.61261 156.0
160.620377 140.0
160.668381 152.0
160.704193 348.0
160.764252 108.0
160.78949 128.0
160.838943 216.0
160.881149 192.0
160.918228 128.0
160.954941 188.0
160.995224 164.0
161.021774 224.0
161.058685 728.0
161.096298 5036.0
161.154129 192.0
161.239594 148.0
161.274429 108.0
161.309814 200.0
161.357849 168.0
161.378082 148.0
161.423599 152.0
161.509949 84.0
161.548187 168.0
161.623428 168.0
161.675507 180.0
161.712006 188.0
161.790466 168.0
161.846176 180.0
161.927216 136.0
162.000671 148.0
162.019226 160.0
162.041977 136.0
162.097076 772.0
162.132431 180.0
162.162842 80.0
162.193253 64.0
162.236343 148.0
162.294662 116.0
162.365662 52.0
162.383423 180.0
162.41893 180.0
162.446838 100.0
162.526855 104.0
162.548325 96.0
162.568619 164.0
162.58638 108.0
162.619385 160.0
162.700409 196.0
162.724533 160.0
162.78186 84.0
162.804718 52.0
162.840271 116.0
162.880905 76.0
163.051147 172.0
163.100067 440.0
163.142654 104.0
163.231644 144.0
163.356262 112.0
163.404602 96.0
163.442764 88.0
163.468216 144.0
163.488571 232.0
163.521667 96.0
163.567474 40.0
163.613297 196.0
163.629959 176.0
163.72789 44.0
163.794113 108.0
163.880722 132.0
163.913849 104.0
163.948349 164.0
164.013245 108.0
164.141647 88.0
164.189178 96.0
164.301407 168.0
164.32692 288.0
164.353973 180.0
164.47493 376.0
164.495361 144.0
164.546417 144.0
164.582153 252.0
164.635788 88.0
164.740509 140.0
164.763504 72.0
164.799271 104.0
164.914276 180.0
164.960281 76.0
165.053238 196.0
165.071075 192.0
165.147079 148.0
165.198334 136.0
165.228806 124.0
165.246719 104.0
165.338837 72.0
165.392578 52.0
165.536942 176.0
165.592651 124.0
165.6922 60.0
165.748566 188.0
165.828262 204.0
165.87944 128.0
165.904648 264.0
165.92598 128.0
165.951065 160.0
165.992264 232.0
166.194809 136.0
166.230652 220.0
166.335876 180.0
166.371826 212.0
166.420609 176.0
166.448853 164.0
166.549652 208.0
166.716003 112.0
166.739136 108.0
166.75824 204.0
166.877945 200.0
166.931946 156.0
167.011673 156.0
167.106857 204.0
167.15448 120.0
167.346222 132.0
167.3694 152.0
167.414276 184.0
167.436356 192.0
167.459534 136.0
167.503326 112.0
167.531662 128.0
167.58577 76.0
167.696579 140.0
167.787338 96.0
167.825363 176.0
167.905411 176.0
167.988388 48.0
168.091156 64.0
168.152298 116.0
168.186646 80.0
168.307983 212.0
168.353348 168.0
168.372543 212.0
168.398376 144.0
168.457779 240.0
168.499115 196.0
168.548019 188.0
168.623154 120.0
168.711044 188.0
168.747238 160.0
168.829987 176.0
168.862946 220.0
168.933441 104.0
168.956726 144.0
169.03952 52.0
169.064056 488.0
169.104218 176.0
169.295807 48.0
169.36055 168.0
169.405594 216.0
169.516006 136.0
169.588562 196.0
169.708572 164.0
169.777435 232.0
169.897156 116.0
169.93866 136.0
169.968414 232.0
169.993149 116.0
170.151489 132.0
170.213806 192.0
170.260544 128.0
170.309891 204.0
170.328079 252.0
170.387833 180.0
170.418915 192.0
170.480743 168.0
170.500778 240.0
170.53334 208.0
170.569733 140.0
170.702332 204.0
170.733536 168.0
170.902634 152.0
171.018738 156.0
171.07309 176.0
171.20459 180.0
171.271408 164.0
171.282043 108.0
171.291077 136.0
171.325638 76.0
171.358276 156.0
171.384323 156.0
171.433838 296.0
171.457291 136.0
171.517242 144.0
171.595444 88.0
171.647598 232.0
171.668457 204.0
171.712799 160.0
171.824722 128.0
171.875504 232.0
171.91629 140.0
171.972519 120.0
172.002411 180.0
172.022583 200.0
172.062454 60.0
172.083344 116.0
172.234818 156.0
172.347153 124.0
172.386353 160.0
172.472595 192.0
172.543182 112.0
172.616394 212.0
172.712189 204.0
172.719864 128.0
172.778549 96.0
172.823029 224.0
172.965851 176.0
173.022278 148.0
173.058624 500.0
173.09642 2868.0
173.147644 136.0
173.203491 136.0
173.260269 156.0
173.393906 152.0
173.430603 80.0
173.539551 252.0
173.595779 316.0
173.61676 128.0
173.642975 104.0
173.690201 176.0
173.789886 164.0
173.84761 176.0
173.918472 288.0
173.958908 144.0
173.9841 36.0
174.067398 9032.0
174.097855 824.0
174.146912 164.0
174.21521 212.0
174.26358 232.0
174.336075 248.0
174.388153 196.0
174.410431 164.0
174.451721 160.0
174.538483 164.0
174.562149 180.0
174.582458 176.0
174.65947 40.0
174.733124 104.0
174.769272 76.0
174.801529 124.0
174.933136 196.0
174.976273 156.0
175.023102 164.0
175.041763 184.0
175.068069 436.0
175.120087 136.0
175.139954 80.0
175.233368 120.0
175.272888 148.0
175.30188 240.0
175.412109 116.0
175.496933 120.0
175.552307 208.0
175.593185 152.0
175.652145 136.0
175.799301 172.0
175.868912 192.0
175.958664 236.0
176.053726 32.0
176.073364 312.0
176.103333 56.0
176.13031 48.0
176.161346 144.0
176.185791 136.0
176.233353 60.0
176.323196 148.0
176.380234 144.0
176.489899 192.0
176.579651 144.0
176.621964 60.0
176.661652 108.0
176.727051 164.0
176.751602 68.0
176.778061 320.0
176.928268 168.0
176.952759 176.0
176.973938 88.0
177.013672 172.0
177.056747 192.0
177.093048 212.0
177.127548 136.0
177.152954 216.0
177.198212 148.0
177.314804 292.0
177.336884 108.0
177.406204 256.0
177.522461 264.0
177.566177 116.0
177.62059 120.0
177.669586 180.0
177.819595 228.0
177.904541 216.0
177.992157 124.0
178.045258 316.0
178.099716 112.0
178.134491 52.0
178.207672 116.0
178.264191 204.0
178.310944 164.0
178.364624 160.0
178.441193 116.0
178.473099 140.0
178.648315 232.0
178.708618 136.0
178.744415 164.0
178.890808 88.0
179.000351 136.0
179.023926 36.0
179.106491 156.0
179.138458 76.0
179.223709 268.0
179.397766 156.0
179.42894 184.0
179.463608 136.0
179.524933 152.0
179.556168 192.0
179.580948 168.0
179.599609 208.0
179.619812 160.0
179.692978 100.0
179.727676 164.0
179.771881 176.0
179.837082 404.0
179.922577 172.0
180.053345 312.0
180.089401 208.0
180.168213 184.0
180.251038 172.0
180.360611 164.0
180.414078 108.0
180.470215 228.0
180.509918 292.0
180.572342 212.0
180.618423 144.0
180.743057 108.0
180.764465 56.0
180.870148 304.0
180.93837 172.0
181.056259 156.0
181.085724 180.0
181.168762 100.0
181.251816 152.0
181.316132 160.0
181.349579 136.0
181.423355 92.0
181.466248 92.0
181.504623 204.0
181.544006 120.0
181.637878 48.0
181.806 164.0
181.887436 112.0
182.0336 172.0
182.066879 168.0
182.071548 140.0
182.102234 164.0
182.145508 148.0
182.182831 156.0
182.235153 368.0
182.258057 100.0
182.494583 152.0
182.526855 68.0
182.560135 96.0
182.579575 228.0
182.651031 116.0
182.728577 168.0
182.755493 188.0
182.836212 136.0
183.07312 164.0
183.113525 80.0
183.15123 200.0
183.17009 140.0
183.192657 168.0
183.237442 144.0
183.283661 156.0
183.319321 216.0
183.385651 96.0
183.453033 180.0
183.474609 180.0
183.586014 180.0
183.62561 80.0
183.663376 128.0
183.711929 48.0
183.733505 148.0
183.763184 124.0
183.836044 120.0
183.854935 112.0
183.983948 176.0
183.989304 164.0
184.024994 132.0
184.054688 148.0
184.187027 152.0
184.21405 208.0
184.278885 68.0
184.300491 124.0
184.365982 376.0
184.386978 144.0
184.411301 112.0
184.581619 204.0
184.689789 216.0
184.741043 152.0
184.779068 80.0
184.884598 120.0
184.96579 84.0
185.05986 112.0
185.21225 228.0
185.266388 176.0
185.295883 180.0
185.331406 164.0
185.372635 236.0
185.414551 152.0
185.453354 192.0
185.518417 64.0
185.55629 76.0
185.597046 36.0
185.713654 160.0
185.740784 156.0
185.778763 388.0
185.857437 68.0
185.882706 184.0
185.936127 108.0
185.97142 148.0
186.062042 168.0
186.100342 132.0
186.173828 196.0
186.255219 100.0
186.367905 176.0
186.428299 160.0
186.506516 196.0
186.554932 212.0
186.627548 152.0
186.650604 148.0
186.677795 92.0
186.750885 260.0
186.837234 136.0
186.858536 152.0
186.949829 48.0
187.042374 136.0
187.074371 960.0
187.129486 164.0
187.148544 92.0
187.234863 156.0
187.28743 156.0
187.320114 68.0
187.380737 240.0
187.457047 204.0
187.486328 36.0
187.660782 156.0
187.679871 108.0
187.794403 132.0
187.832596 120.0
187.868057 176.0
187.913254 156.0
187.947174 184.0
188.01268 220.0
188.048157 204.0
188.076843 356.0
188.127319 116.0
188.217407 148.0
188.291138 116.0
188.366119 148.0
188.397675 200.0
188.438278 160.0
188.501495 152.0
188.528824 220.0
188.555664 156.0
188.638153 144.0
188.673691 208.0
188.707611 108.0
188.766663 136.0
188.8405 164.0
188.892471 148.0
188.914352 288.0
188.966339 76.0
189.027679 172.0
189.091827 14876.0
189.159653 156.0
189.226349 192.0
189.253723 192.0
189.289322 140.0
189.322189 136.0
189.393402 96.0
189.42627 128.0
189.526138 88.0
189.561203 256.0
189.578323 128.0
189.598877 56.0
189.654465 144.0
189.741425 48.0
189.76062 96.0
189.812714 172.0
189.919662 216.0
190.022522 156.0
190.094055 1556.0
190.166809 160.0
190.309357 184.0
190.334076 120.0
190.365891 116.0
190.397659 220.0
190.437149 180.0
190.47139 64.0
190.529083 200.0
190.589523 172.0
190.688126 132.0
190.763504 132.0
190.798416 64.0
190.880905 148.0
190.916641 224.0
190.93779 128.0
190.96759 192.0
191.012909 192.0
191.043243 280.0
191.118301 37160.0
191.168152 152.0
191.202759 28.0
191.224777 40.0
191.263031 144.0
191.306046 88.0
191.338043 236.0
191.359665 48.0
191.403732 68.0
191.439087 128.0
191.478073 72.0
191.50563 160.0
191.533173 76.0
191.607742 168.0
191.659607 160.0
191.700317 156.0
191.745331 136.0
191.778397 56.0
191.828018 96.0
191.863861 112.0
191.901688 188.0
191.941055 152.0
191.960358 128.0
192.000977 232.0
192.035995 140.0
192.059296 192.0
192.0849 152.0
192.122009 5524.0
192.186554 80.0
192.251984 160.0
192.316254 136.0
192.363174 36.0
192.451523 88.0
192.508652 140.0
192.592361 196.0
192.623962 156.0
192.708389 64.0
192.727737 28.0
192.791763 176.0
192.8134 56.0
192.882507 168.0
192.935028 172.0
192.983551 152.0
193.01825 156.0
193.061172 148.0
193.081573 140.0
193.124023 632.0
193.25032 124.0
193.315018 136.0
193.3479 152.0
193.394226 136.0
193.417755 48.0
193.494736 116.0
193.527405 148.0
193.560333 104.0
193.599106 116.0
193.618484 52.0
193.707123 88.0
193.731598 148.0
193.829453 128.0
193.853958 124.0
193.878906 112.0
193.917709 192.0
194.010223 224.0
194.059082 140.0
194.116196 160.0
194.17099 108.0
194.228256 220.0
194.26506 60.0
194.444672 188.0
194.464096 192.0
194.491852 180.0
194.571075 112.0
194.861206 84.0
194.928696 220.0
195.033508 176.0
195.05574 68.0
195.106628 136.0
195.133575 108.0
195.1586 116.0
195.186401 40.0
195.265427 164.0
195.356064 180.0
195.489624 32.0
195.557953 180.0
195.729019 68.0
195.751297 108.0
195.871048 148.0
195.954193 176.0
195.993637 196.0
196.022278 144.0
196.093964 168.0
196.138565 152.0
196.208969 200.0
196.279175 184.0
196.300262 200.0
196.321198 128.0
196.381149 128.0
196.477463 108.0
196.526199 208.0
196.601547 160.0
196.813202 176.0
196.964508 228.0
196.989655 212.0
197.073471 152.0
197.188034 132.0
197.24115 172.0
197.270035 144.0
197.332077 192.0
197.362335 104.0
197.41449 40.0
197.52916 152.0
197.559937 144.0
197.593506 112.0
197.67186 116.0
197.784637 212.0
197.855148 132.0
197.898773 120.0
197.93219 144.0
198.317505 164.0
198.394485 100.0
198.436539 140.0
198.456161 56.0
198.596375 168.0
198.739258 172.0
198.818024 236.0
199.006104 176.0
199.07486 156.0
199.217117 228.0
199.285599 244.0
199.345993 120.0
199.402191 148.0
199.447159 88.0
199.513107 124.0
199.534317 152.0
199.62468 172.0
199.748047 120.0
199.798676 192.0
199.824005 100.0
199.86058 160.0
200.040695 100.0
200.074478 196.0
200.113892 180.0
200.156128 164.0
200.178665 304.0
200.218079 68.0
200.26033 136.0
200.300552 72.0
200.392975 192.0
200.499817 128.0
200.519547 120.0
200.539276 184.0
200.561813 220.0
200.604095 172.0
200.661423 48.0
200.714066 164.0
200.795837 136.0
200.824051 228.0
200.849426 136.0
200.891739 136.0
200.931244 156.0
201.026886 192.0
201.053101 368.0
201.085464 232.0
201.120316 180.0
201.171127 156.0
201.272766 176.0
201.332062 92.0
201.408325 144.0
201.430923 132.0
201.459167 124.0
201.510025 148.0
201.648483 76.0
201.69371 140.0
201.775696 212.0
201.847794 72.0
201.948196 56.0
201.999115 48.0
202.063217 4200.0
202.13208 260.0
202.199997 204.0
202.228302 108.0
202.303284 156.0
202.471558 96.0
202.514206 164.0
202.5681 160.0
202.592682 112.0
202.687088 148.0
202.706924 200.0
202.73526 192.0
202.769073 168.0
202.784912 124.0
202.814621 124.0
202.998901 252.0
203.024429 144.0
203.066498 732.0
203.117401 168.0
203.196625 232.0
203.245773 136.0
203.336502 148.0
203.410309 96.0
203.430939 192.0
203.502686 200.0
203.665863 156.0
203.691422 152.0
203.801071 168.0
203.836319 152.0
203.895996 160.0
203.930115 168.0
203.955688 156.0
204.015381 148.0
204.067001 228.0
204.087723 180.0
204.098038 164.0
204.106781 192.0
204.140488 168.0
204.197372 156.0
204.302612 140.0
204.393661 124.0
204.434143 196.0
204.513184 120.0
204.578659 180.0
204.782455 168.0
204.934662 84.0
205.042953 156.0
205.080002 220.0
205.09996 152.0
205.162674 124.0
205.356262 108.0
205.42218 172.0
205.462112 148.0
205.544861 136.0
205.581955 200.0
205.630478 132.0
205.798904 60.0
205.833176 168.0
205.901703 164.0
205.950256 140.0
206.058823 188.0
206.12262 328.0
206.167404 132.0
206.238846 92.0
206.258865 196.0
206.280212 136.0
206.301743 180.0
206.336792 200.0
206.404663 128.0
206.550522 104.0
206.624908 112.0
206.700119 112.0
206.899658 136.0
207.028503 80.0
207.074326 136.0
207.145935 104.0
207.226151 76.0
207.349365 176.0
207.369431 172.0
207.395233 204.0
207.647537 144.0
207.745407 100.0
207.800797 132.0
207.891403 120.0
207.925842 160.0
207.980377 188.0
208.049271 116.0
208.106689 44.0
208.181351 172.0
208.204315 52.0
208.230164 204.0
208.264633 172.0
208.368057 152.0
208.39679 52.0
208.477234 132.0
208.510712 192.0
208.672699 212.0
208.692825 112.0
208.831741 144.0
208.885513 120.0
209.055267 112.0
209.109955 192.0
209.13298 132.0
209.202072 168.0
209.248123 76.0
209.26828 192.0
209.308594 112.0
209.348907 156.0
209.406509 272.0
209.441071 132.0
209.536133 184.0
209.623962 192.0
209.668686 148.0
209.75885 196.0
209.887238 192.0
209.93335 184.0
209.944443 148.0
210.01178 152.0
210.113312 164.0
210.146378 152.0
210.29454 44.0
210.346497 120.0
210.372482 160.0
210.445496 336.0
210.502411 160.0
210.559326 124.0
210.645859 168.0
210.654861 112.0
210.661911 144.0
210.698822 84.0
210.753723 48.0
210.785507 64.0
210.805725 136.0
210.93692 216.0
211.002289 212.0
211.048538 120.0
211.100586 104.0
211.204712 132.0
211.246002 116.0
211.291489 96.0
211.326218 160.0
211.386978 136.0
211.418808 224.0
211.452316 216.0
211.509369 168.0
211.538605 220.0
211.615646 108.0
211.740173 188.0
211.790314 128.0
211.795883 168.0
211.851471 160.0
211.89267 200.0
211.934662 172.0
211.962509 176.0
211.989319 80.0
212.082062 184.0
212.134232 264.0
212.212509 52.0
212.2995 160.0
212.386505 180.0
212.49675 76.0
212.538864 156.0
212.612823 116.0
212.655792 432.0
212.715134 144.0
212.827637 72.0
212.96994 140.0
213.001892 104.0
213.045456 180.0
213.160995 136.0
213.203873 248.0
213.250443 156.0
213.279984 196.0
213.329697 144.0
213.359238 272.0
213.390213 260.0
213.566574 192.0
213.606506 136.0
213.626877 128.0
213.687973 108.0
213.714157 180.0
213.76355 164.0
213.83638 232.0
213.867172 172.0
213.907959 140.0
213.978577 104.0
214.025497 104.0
214.081665 128.0
214.127472 192.0
214.136017 188.0
214.18869 116.0
214.284836 160.0
214.448029 176.0
214.564621 116.0
214.745422 312.0
214.856125 240.0
214.913818 204.0
214.993576 384.0
215.029617 216.0
215.075394 148.0
215.139343 132.0
215.168549 284.0
215.232773 120.0
215.258362 168.0
215.410934 132.0
215.461136 264.0
215.479202 76.0
215.510269 56.0
215.554092 56.0
215.615463 120.0
215.703156 96.0
215.754639 176.0
215.78096 160.0
215.828873 84.0
215.855179 116.0
215.878586 104.0
215.925369 192.0
215.953339 128.0
215.997559 188.0
216.028397 144.0
216.075211 216.0
216.110947 188.0
216.135147 316.0
216.15506 124.0
216.220383 48.0
216.257156 352.0
216.279404 212.0
216.30246 172.0
216.324158 124.0
216.356064 256.0
216.392181 320.0
216.420883 160.0
216.445084 204.0
216.471512 280.0
216.514191 252.0
216.570343 96.0
216.63533 464.0
216.665543 200.0
216.697433 244.0
216.73584 136.0
216.762497 368.0
216.784424 324.0
216.819748 412.0
216.866501 412.0
216.871567 296.0
216.932007 676.0
216.956909 388.0
216.988892 264.0
217.087845 359352.0
217.174637 488.0
217.19516 308.0
217.23587 84.0
217.286545 284.0
217.359924 1016.0
217.376587 544.0
217.415421 264.0
217.450989 396.0
217.484207 212.0
217.501404 108.0
217.505646 284.0
217.534515 456.0
217.572571 5796.0
217.600983 704.0
217.636139 360.0
217.682785 208.0
217.722733 120.0
217.760544 52.0
217.79715 372.0
217.827728 160.0
217.848221 120.0
217.87326 196.0
217.897278 296.0
217.93457 196.0
217.959518 164.0
217.987289 104.0
218.018631 200.0
218.090469 65596.0
218.184662 196.0
218.272919 136.0
218.293106 200.0
218.324051 160.0
218.331161 128.0
218.343704 64.0
218.35408 140.0
218.401505 156.0
218.423676 176.0
218.461441 116.0
218.487213 140.0
218.531311 300.0
218.573792 276.0
218.60527 60.0
218.644226 144.0
218.66713 152.0
218.699554 232.0
218.745865 204.0
218.762466 36.0
218.7854 228.0
218.805191 152.0
218.818481 48.0
218.826843 180.0
218.849289 88.0
218.927948 220.0
218.959152 116.0
219.004257 164.0
219.011551 120.0
219.036728 272.0
219.09259 6372.0
219.142014 80.0
219.154373 96.0
219.180237 104.0
219.202728 128.0
219.228806 256.0
219.270538 92.0
219.320999 112.0
219.342941 268.0
219.368576 148.0
219.392502 200.0
219.424744 120.0
219.4431 368.0
219.463043 228.0
219.487503 356.0
219.529922 308.0
219.578934 136.0
219.613129 96.0
219.648804 112.0
219.669678 88.0
219.714142 180.0
219.75592 148.0
219.792603 364.0
219.824203 140.0
219.850418 96.0
219.885513 80.0
219.93306 36.0
219.957413 160.0
219.985916 48.0
220.008881 128.0
220.091431 524.0
220.139938 56.0
220.187119 112.0
220.219467 96.0
220.249268 132.0
220.283279 132.0
220.331711 40.0
220.393555 56.0
220.443314 148.0
220.477325 100.0
220.523254 148.0
220.564819 136.0
220.579208 64.0
220.609512 268.0
220.628265 144.0
220.653854 68.0
220.683838 64.0
220.746597 176.0
220.837097 116.0
220.913925 140.0
220.958481 100.0
220.984558 64.0
221.00766 152.0
221.065002 68.0
221.171555 56.0
221.213196 60.0
221.304764 84.0
221.372879 96.0
221.420258 44.0
221.500977 120.0
221.5569 92.0
221.580215 116.0
221.651337 52.0
221.719482 172.0
221.75209 92.0
221.842804 68.0
221.885727 112.0
221.907928 56.0
221.928482 64.0
221.968506 60.0
222.001129 80.0
222.054504 68.0
222.15239 88.0
222.179092 40.0
222.212021 80.0
222.253265 52.0
222.303711 164.0
222.366043 32.0
222.434311 76.0
222.460037 72.0
222.525269 56.0
222.600571 48.0
222.6362 92.0
222.698578 60.0
222.893127 140.0
222.930313 60.0
222.965973 36.0
223.037308 28.0
223.072968 72.0
223.102707 96.0
223.208313 56.0
223.46167 40.0
223.4953 176.0
223.658981 84.0
223.724472 64.0
223.792938 28.0
223.876328 108.0
224.03717 112.0
224.317291 92.0
224.400757 148.0
224.74675 108.0
224.937759 52.0
224.976562 136.0
225.069122 84.0
225.131836 124.0
225.355865 148.0
225.457458 80.0
225.663712 48.0
225.819214 36.0
225.986298 108.0
226.019653 28.0
226.055557 120.0
226.076508 112.0
226.100449 88.0
226.190247 40.0
226.402832 68.0
226.468719 104.0
226.495682 56.0
226.570572 116.0
226.810303 68.0
226.916336 68.0
226.957199 40.0
227.071259 624.0
227.248138 28.0
227.398193 88.0
227.490616 96.0
227.518265 56.0
227.545273 64.0
227.647369 140.0
227.701431 64.0
227.8396 76.0
228.04985 112.0
228.091095 64.0
228.170197 128.0
228.206268 76.0
228.311523 108.0
228.368668 216.0
228.510056 68.0
228.72673 96.0
228.877258 76.0
228.907379 100.0
228.940491 88.0
229.188583 72.0
229.302017 112.0
229.395462 44.0
229.544037 100.0
229.603516 100.0
229.639709 132.0
229.660812 64.0
229.780746 100.0
229.947678 108.0
230.022919 92.0
230.083282 100.0
230.195007 48.0
230.219162 104.0
230.364151 100.0
230.572311 76.0
230.729813 108.0
230.753998 40.0
230.778198 108.0
230.826569 132.0
230.881012 76.0
230.917297 60.0
230.986862 112.0
231.056442 148.0
231.092758 64.0
231.213791 68.0
231.271301 64.0
231.324265 208.0
231.38028 96.0
231.60437 84.0
231.628601 36.0
231.774017 100.0
231.843719 116.0
231.871002 128.0
231.949799 84.0
232.065002 76.0
232.216629 100.0
232.428986 84.0
232.504852 72.0
232.559479 48.0
232.608047 28.0
232.650558 36.0
232.677872 72.0
232.756821 112.0
232.972458 124.0
233.033218 100.0
233.14566 68.0
233.702133 32.0
233.726471 128.0
233.963882 60.0
234.161804 192.0
235.116074 76.0
235.522141 88.0
235.918182 96.0
235.998886 172.0
236.032532 76.0
236.430206 76.0
236.497543 64.0
237.073334 64.0
237.165268 136.0
237.729599 92.0
238.033508 72.0
238.392914 72.0
238.88179 64.0
239.7285 40.0
239.894928 68.0
240.900955 76.0
241.494446 108.0
241.550125 44.0
241.644333 144.0
242.135117 40.0
242.404648 120.0
242.472824 36.0
242.767334 104.0
243.043427 72.0
243.097763 140.0
243.406601 68.0
243.44696 72.0
243.77626 112.0
244.00116 56.0
244.18306 244.0
244.418961 88.0
244.454178 112.0
244.858887 56.0
244.880692 92.0
244.955444 152.0
244.980362 168.0
245.082672 23808.0
245.251465 36.0
245.33252 44.0
245.35434 36.0
245.392532 80.0
245.472824 84.0
245.510239 76.0
245.592896 104.0
245.647476 100.0
245.753555 64.0
245.927536 96.0
245.978256 108.0
246.084396 4016.0
246.14061 156.0
246.176361 88.0
246.334869 80.0
246.365479 104.0
246.42485 52.0
246.481094 84.0
246.606094 76.0
246.677994 72.0
246.728012 40.0
247.088882 744.0
247.578781 116.0
247.663666 128.0
247.718872 148.0
247.846268 112.0
247.890961 116.0
248.206558 104.0
248.353241 76.0
248.488129 80.0
248.63562 60.0
248.748611 36.0
249.455414 88.0
249.540604 80.0
250.443466 48.0
252.488678 68.0
252.830353 60.0
254.878128 96.0
256.196136 28.0
256.511597 52.0
256.58493 88.0
256.664642 92.0
256.903839 32.0
257.373016 40.0
258.373413 64.0
258.917572 124.0
259.500763 64.0
261.376587 52.0
261.630859 48.0
261.737122 132.0
261.872375 124.0
262.533051 92.0
263.960388 144.0
265.660797 88.0
266.81369 48.0
266.875458 36.0
267.350403 120.0
267.95929 180.0
269.430695 48.0
269.894806 48.0
270.11203 144.0
271.558441 84.0
271.771667 48.0
276.447571 92.0
280.149719 76.0
280.452942 96.0
281.680878 68.0
285.205994 96.0
287.658264 40.0
291.159302 56.0
297.338837 132.0
298.530945 56.0
299.022919 52.0
299.60141 28.0
300.004608 136.0
301.595947 52.0
302.559631 120.0
302.876221 244.0
303.084076 80.0
303.188049 124.0
306.48584 128.0
306.921539 116.0
307.057526 72.0
308.917145 92.0
309.185211 68.0
310.716461 52.0
311.271027 40.0
311.776917 32.0
312.01944 36.0
313.402649 72.0
314.354736 172.0
315.937653 72.0
317.291626 100.0
318.028351 72.0
318.099335 208.0
319.094086 152.0
321.259399 68.0
321.726898 60.0
323.356873 120.0
323.944092 144.0
325.662292 132.0
326.384644 144.0
327.186981 44.0
327.403015 88.0
328.047974 76.0
328.102051 64.0
328.22464 36.0
330.330231 84.0
333.750275 48.0
334.055756 64.0
334.640289 96.0
336.928467 92.0
338.091248 76.0
338.486603 96.0
343.370636 72.0
345.202362 112.0
346.820282 76.0
347.513763 80.0
349.769562 132.0
351.013916 100.0
351.819824 64.0
352.193268 96.0
352.548187 96.0
352.656586 72.0
352.933228 104.0
353.666473 188.0
354.138245 76.0
355.180267 96.0
355.735626 116.0
355.814453 88.0
356.727356 88.0
356.979279 40.0
358.684814 92.0
359.741028 68.0
360.24707 104.0
360.825287 100.0
360.965179 92.0
361.38504 160.0
362.236877 72.0
362.282318 80.0
362.968323 44.0
363.309692 48.0
363.749146 104.0
363.943512 72.0
365.494324 160.0
366.533875 92.0
368.109283 36.0
369.098999 136.0
370.396393 40.0
371.630859 104.0
372.287231 96.0
374.691284 116.0
377.899689 108.0
378.422211 64.0
380.135468 96.0
384.927429 88.0
385.353973 100.0
385.52121 28.0
385.568115 92.0
387.223022 116.0
387.88913 56.0
388.952179 88.0
389.301605 52.0
389.509766 48.0
391.007812 72.0
391.184937 40.0
393.195129 140.0
394.216095 100.0
395.847809 108.0
397.02478 84.0
397.969208 76.0
400.05246 88.0
400.112183 92.0
400.267456 60.0
400.363037 80.0
400.39093 32.0
403.451385 80.0
406.752289 64.0
407.728302 80.0
410.171448 116.0
414.455353 76.0
415.700226 64.0
415.907227 36.0
416.219818 84.0
417.158325 128.0
417.682892 112.0
418.18338 108.0
418.220001 120.0
419.152618 84.0
421.772766 48.0
422.316559 108.0
422.873016 200.0
422.91803 76.0
423.163666 88.0
424.269836 52.0
424.660645 104.0
428.284637 76.0
429.009888 32.0
429.299072 124.0
431.13559 120.0
431.744598 64.0
434.22406 164.0
434.555908 140.0
435.191345 2708.0
435.963562 104.0
436.134125 120.0
436.193146 1152.0
436.745209 56.0
437.05722 84.0
437.195831 116.0
437.631317 56.0
437.823181 84.0
438.056427 60.0
439.052582 124.0
439.340393 80.0
439.611603 48.0
440.179321 60.0
441.294952 48.0
441.725708 60.0
444.381805 104.0
444.910614 80.0
446.894348 36.0
448.490417 60.0
448.660828 104.0
450.460999 100.0
450.621521 120.0
451.805328 40.0
455.535889 36.0
456.687836 64.0
458.859619 76.0
461.271637 92.0
462.666229 112.0
462.89743 72.0
464.903656 80.0
465.453125 68.0
468.873108 64.0
469.373169 56.0
470.710876 44.0
471.54895 92.0
471.592194 48.0
471.808319 76.0
472.790192 92.0
475.73761 60.0
477.975952 52.0
479.325806 160.0
480.132294 92.0
480.542328 52.0
484.218658 68.0
484.328156 72.0
485.037994 48.0
485.458893 88.0
487.320038 108.0
489.598633 72.0
489.880524 88.0
490.889832 40.0
491.322083 100.0
497.624451 48.0
498.001892 116.0
498.659485 72.0
504.834137 96.0
505.0354 64.0
506.956055 44.0
508.216095 68.0
511.379791 76.0
512.010132 92.0
513.231323 128.0
515.488281 40.0
520.375671 88.0
521.078674 72.0
526.943359 44.0
527.450623 64.0
533.717712 40.0
537.139587 40.0
537.762451 68.0
539.836853 108.0
541.187988 84.0
545.64209 60.0
549.24646 100.0
557.359802 76.0
562.078003 56.0
563.414185 48.0
565.428528 48.0
568.537415 76.0
569.952515 84.0
571.40271 104.0
575.625732 100.0
584.739197 48.0
586.84436 128.0
591.719299 52.0
604.178467 40.0
605.446228 76.0
610.225586 80.0
613.381226 52.0
616.500488 52.0
623.016174 64.0
626.742676 60.0
627.804443 36.0
628.318176 132.0
632.951477 80.0
634.519775 72.0
648.802551 32.0
652.610413 48.0
657.184265 100.0
660.566284 64.0
668.609009 20.0
670.218262 72.0
672.492493 64.0
673.876465 56.0
675.129944 20.0
676.514038 68.0
679.659973 220.0
686.130188 100.0
686.740295 32.0
695.509766 136.0
701.532776 88.0
709.473083 120.0
710.517883 68.0
713.258057 52.0
714.933411 140.0
719.303894 56.0
726.324341 36.0
728.72406 104.0
733.777832 112.0
739.309021 228.0
740.662598 96.0
741.757141 48.0
749.850464 56.0
752.932983 48.0
756.673157 56.0
759.045654 124.0
772.428894 64.0
772.860474 52.0
774.44928 116.0
775.823486 156.0
778.503418 36.0
778.803345 148.0
786.431396 44.0
786.90033 64.0
797.864502 80.0
798.837402 40.0
800.542786 76.0
806.805786 88.0
810.677307 88.0
813.802795 44.0
815.620667 120.0
817.349548 80.0
826.942688 80.0
829.612 84.0
830.305786 92.0
836.597595 32.0
840.055176 48.0
844.74585 96.0
866.947021 56.0
885.570251 40.0
895.900024 168.0
901.783569 88.0
909.906372 124.0
912.808472 60.0
918.723022 60.0
928.097473 148.0
933.136963 104.0
948.870483 176.0
953.400452 64.0
956.660339 48.0
956.851196 92.0
963.981445 136.0
966.94989 84.0
967.853699 116.0
968.634033 48.0
968.801331 92.0
972.521851 40.0
974.092773 60.0
977.070496 80.0
978.022644 216.0
980.713379 224.0
984.350525 152.0
985.487366 188.0
986.39978 172.0
995.647766 132.0
996.432922 136.0
1004.106201 144.0
1007.963318 40.0
1009.183289 120.0
1016.175598 92.0
1018.022705 108.0
1020.481812 104.0
1023.523193 76.0
1030.213623 64.0
1033.845337 124.0
1034.517334 200.0
1034.901489 136.0
1035.202393 56.0
1035.631592 52.0
1035.753296 100.0
1042.085083 224.0
1048.674561 168.0
1054.45752 112.0
1058.377686 64.0
1059.251953 188.0
1066.883423 72.0
1069.557007 108.0
1070.136353 208.0
1070.370728 152.0
1071.934082 112.0
1072.077515 56.0
1074.052979 176.0
1074.711914 176.0
1078.368774 172.0
1081.887939 188.0
1082.169556 208.0
1086.331055 68.0
1092.137817 148.0
1096.377808 180.0
1096.720459 156.0
1103.295166 136.0
1107.934326 124.0
1110.207764 108.0
1117.534546 60.0
1117.920532 116.0
1118.253296 192.0
1119.857788 92.0
1121.036987 144.0
1126.274292 128.0
1129.516113 172.0
1130.125 256.0
1137.758667 196.0
1140.640503 216.0
1141.339722 176.0
1142.012207 152.0
1144.926392 76.0
1145.229492 160.0
1150.752441 208.0
1153.143799 168.0
1153.366821 56.0
1154.320068 168.0
1158.475708 196.0
1159.559814 76.0
1159.986938 100.0
1161.288818 128.0
1161.770386 200.0
1161.973877 200.0
1164.594116 124.0
1164.662109 160.0
1165.069702 180.0
1167.985962 124.0
1172.377319 60.0
1174.661377 120.0
1174.763672 124.0
1180.022339 160.0
1183.388428 108.0
1183.757812 196.0
1190.794434 180.0
1197.155884 116.0
1198.113281 136.0
1198.568115 60.0
1199.932739 176.0
1201.360352 156.0
1203.575806 208.0
1203.845093 176.0
1207.535522 116.0
1209.410522 164.0
1210.711548 148.0
1211.252319 108.0
1212.464844 160.0
1214.614258 252.0
1214.995728 192.0
1217.216797 148.0
1223.042725 136.0
1223.216675 52.0
1223.634399 204.0
1223.703979 140.0
1226.609009 36.0
1227.522339 212.0
1228.345337 160.0
1228.79187 136.0
1232.911621 180.0
1233.093262 164.0
1234.2677 140.0
1234.441528 120.0
1236.618286 192.0
1237.640381 204.0
1237.878418 44.0
1239.55957 148.0
1240.519775 200.0
1243.732422 156.0
1245.691528 112.0
1246.134155 136.0
1248.488892 156.0
1251.810425 112.0
1252.049927 140.0
1252.283447 124.0
1252.726074 104.0
1253.895752 152.0
1254.121216 52.0
1254.586548 140.0
1254.741577 44.0
1257.626709 68.0
1257.711426 176.0
1258.085571 60.0
1258.537354 180.0
1259.088257 136.0
1261.773315 152.0
1262.402588 92.0
1262.664307 56.0
1262.918823 132.0
1263.958862 216.0
1265.169067 180.0
1265.813354 108.0
1268.647461 92.0
1269.533691 184.0
1277.531372 168.0
1279.524048 140.0
1279.702026 48.0
1281.140625 128.0
1286.403442 148.0
1288.117188 208.0
1290.296875 48.0
1292.170654 128.0
1293.151001 76.0
1294.181763 172.0
1294.281982 100.0
1296.087036 236.0
1296.703369 216.0
1298.911743 176.0
1299.743896 164.0
1300.031006 132.0
1300.992798 176.0
1301.753784 240.0
1302.17749 140.0
1303.722168 128.0
1303.794067 68.0
1304.915405 144.0
1305.087891 176.0
1309.859375 156.0
1310.349243 76.0
1311.509399 100.0
1312.598022 172.0
1313.066772 168.0
1315.6427 156.0
1315.945923 176.0
1319.94165 96.0
1320.086304 156.0
1320.375488 168.0
1321.778931 116.0
1322.242065 60.0
1322.321655 40.0
1323.248291 136.0
1324.595215 68.0
1324.725586 156.0
1325.682007 200.0
1326.000488 152.0
1326.174805 172.0
1326.602539 144.0
1329.169922 104.0
1329.844849 60.0
1332.771484 124.0
1334.174194 92.0
1337.891602 192.0
1342.977783 76.0
1343.130981 156.0
1344.072144 160.0
1345.451538 236.0
1345.53186 80.0
1346.02832 52.0
1346.817017 168.0
1347.635254 100.0
1347.890991 120.0
1348.55603 48.0
1350.010864 196.0
1352.308105 48.0
1352.857056 124.0
1355.112793 220.0
1355.310547 116.0
1355.662354 56.0
1356.725098 100.0
1357.084351 100.0
1357.942261 196.0
1359.61499 164.0
1360.158203 172.0
1360.936401 192.0
1362.515381 148.0
1362.581543 28.0
1363.353027 92.0
1364.198364 192.0
1364.307007 168.0
1365.389404 232.0
1367.898438 132.0
1368.085571 160.0
1368.796631 72.0
1369.871948 56.0
1370.417114 108.0
1370.763428 236.0
1370.910767 176.0
1373.299438 136.0
1374.265869 172.0
1375.025879 196.0
1375.099731 140.0
1376.125732 148.0
1376.945435 368.0
1377.73584 156.0
1378.179077 152.0
1378.696411 40.0
1378.932861 132.0
1379.03479 156.0
1379.938232 56.0
1380.596313 44.0
1380.685059 128.0
1380.869873 76.0
1382.778687 148.0
1383.052612 244.0
1383.400513 112.0
1384.355591 164.0
1385.007324 92.0
1386.363159 168.0
1389.447632 132.0
1390.241577 224.0
1391.251099 124.0
1391.659424 164.0
1391.711304 188.0
1392.914429 104.0
1393.11499 112.0
1393.865356 124.0
1395.86499 128.0
1396.281372 100.0
1396.764893 124.0
1396.913696 152.0
1397.092163 164.0
1397.404663 100.0
1398.25293 132.0
1400.501465 144.0
1400.657837 204.0
1401.775391 172.0
1402.222534 40.0
1402.848633 136.0
1403.959595 180.0
1404.019287 192.0
1404.384766 140.0
1404.802368 188.0
1405.347046 176.0
1405.615601 140.0
1405.832031 116.0
1407.989502 152.0
1408.221069 48.0
1408.325684 144.0
1408.556152 148.0
1409.543335 188.0
1410.066528 220.0
1411.464355 164.0
1411.614014 80.0
1412.286987 44.0
1412.743286 96.0
1412.825684 176.0
1413.356812 184.0
1413.99292 156.0
1414.105225 80.0
1415.430176 164.0
1415.744751 108.0
1417.894775 48.0
1418.764282 244.0
1420.016479 160.0
1421.381836 184.0
1421.494385 120.0
1422.6427 176.0
1425.293945 176.0
1427.556519 164.0
1427.804688 204.0
1427.910034 156.0
1430.70166 120.0
1432.418579 144.0
1432.780151 152.0
1432.827148 144.0
1433.797363 108.0
1434.905396 160.0
1435.649048 136.0
1436.375977 180.0
1436.744629 152.0
1437.220947 240.0
1438.164185 164.0
1438.443481 108.0
1438.609619 144.0
1439.382812 144.0
1440.761841 192.0
1443.203003 40.0
1443.376953 252.0
1444.246582 140.0
1444.541626 120.0
1445.328491 80.0
1445.92627 132.0
1446.493896 120.0
1447.28125 88.0
1447.659912 156.0
1448.137085 180.0
1451.638306 144.0
1451.934204 188.0
1452.032593 60.0
1452.662231 152.0
1453.071899 124.0
1453.838257 124.0
1454.005127 168.0
1454.339111 160.0
1455.242554 120.0
1455.417114 260.0
1455.979004 168.0
1456.199341 40.0
1456.358765 200.0
1456.525879 72.0
1457.635132 120.0
1457.825073 116.0
1458.767578 168.0
1459.216064 124.0
1459.558228 160.0
1460.067749 72.0
1460.151367 28.0
1461.855469 56.0
1462.547974 160.0
1463.766113 112.0
1464.443848 148.0
1464.535278 212.0
1466.280029 124.0
1467.514893 176.0
1467.568359 192.0
1467.980103 132.0
1468.544434 196.0
1469.597168 172.0
1469.765015 52.0
1469.92627 156.0
1470.650269 164.0
1471.192261 68.0
1471.879395 164.0
1472.154297 28.0
1472.620117 168.0
1473.224243 224.0
1473.666626 152.0
1473.819458 212.0
1474.560791 60.0
1474.644775 48.0
1474.812988 192.0
1475.130127 148.0
1476.074341 156.0
1477.449463 232.0
1477.665283 124.0
1478.49939 120.0
1479.058105 168.0
1479.134644 184.0
1479.218872 60.0
1480.237061 152.0
1480.362427 172.0
1481.584351 132.0
1485.134277 140.0
1486.146851 92.0
1486.261963 72.0
1486.68396 104.0
1486.921875 160.0
1487.213501 200.0
1487.336304 124.0
1488.257568 68.0
1489.109985 136.0
1489.586182 28.0
1489.678345 176.0
1490.077881 128.0
1490.216187 196.0
1491.03833 220.0
1491.710693 260.0
1491.891602 136.0
1493.244873 208.0
1493.575562 76.0
1494.229492 120.0
1495.029663 144.0
1495.645386 180.0
1495.8302 84.0
1496.207397 128.0
1496.546143 204.0
1496.769409 180.0
1497.708984 128.0
1499.049438 108.0
1499.95166 196.0
1500.205566 156.0
1501.169312 132.0
1501.223389 128.0
1502.357178 140.0
1502.542358 128.0
1502.904907 104.0
1502.989746 96.0
1503.236694 152.0
1503.699707 188.0
