>compound Carbamazepine (Carbatrol)
>formula C15H12N2O
>ionization [M+H]+
>parentmass 237.102219
#inchi InChI=1S/C15H12N2O/c16-15(18)17-13-7-3-1-5-11(13)9-10-12-6-2-4-8-14(12)17/h1-10H,(H2,16,18)
#inchikey FFGPTBGBLSHEPO
#Ion_Source LC-ESI
#Instrument qTof
#Compound_Source Commercial
#PI Dorrestein
#Data_Collector Garg_Neha
#Scan -1
#Precursor_MZ 237.102
#ExactMass 236.095
#Charge 1
#CAS_Number 298-46-4
#Pubmed_ID N/A
#Smiles N1(C(=O)N)C2=C(C=CC3=C1C=CC=C3)C=CC=C2
#INCHI_AUX N/A
#Library_Class 1
#SpectrumID CCMSLIB00000078241
#IonMode Positive
#UpdateWorkflowName UPDATE-SINGLE-ANNOTATED-GOLD
#LibraryQualityString Gold
#TaskID 77f51c88eb8b467eb4a01dd2d0cb90d2
##Scan# 1237
#SpectrumFile Plate4_1_20_GH2_01_16503.mzXML
#LibraryName FDALibrary_2_04302014.mgf
#MQScore -1
#Organism FDALibrary_2_04302014
#TIC_Query 0
#RT_Query -1
#MZErrorPPM -1
#SharedPeaks 0
#MassDiff 0
#LibMZ -1
#SpecMZ 237.102
#SpecCharge 0
#internalFilename spec-00000.mgf

>collision 10
44.972641 144.0
45.088837 220.0
45.475895 204.0
45.643822 168.0
45.743382 260.0
46.053513 172.0
46.422947 168.0
46.565479 164.0
46.591286 252.0
46.713634 148.0
46.807545 204.0
47.06662 160.0
47.193691 140.0
47.353802 232.0
47.592411 196.0
47.641853 188.0
47.652843 192.0
47.727066 140.0
47.950073 204.0
47.998322 164.0
48.48769 140.0
48.500793 168.0
49.287861 156.0
49.380127 208.0
49.58313 140.0
49.973503 216.0
50.174904 192.0
50.464333 184.0
50.724819 176.0
50.794304 164.0
51.021515 232.0
51.092621 164.0
51.297688 160.0
51.466034 200.0
51.48888 144.0
51.500309 164.0
52.176674 152.0
52.225567 148.0
52.337818 176.0
52.40263 208.0
52.413563 164.0
52.466045 160.0
53.327324 168.0
53.498966 184.0
53.977524 232.0
54.142883 148.0
54.644287 144.0
54.939548 140.0
55.227596 208.0
55.334141 236.0
56.148441 188.0
56.248405 160.0
56.312611 220.0
56.629688 180.0
56.824566 148.0
57.046829 164.0
57.341846 172.0
57.581734 160.0
58.432121 168.0
58.760689 224.0
59.540932 156.0
60.160858 188.0
60.313786 164.0
60.485481 144.0
60.525734 156.0
61.283718 188.0
61.548878 180.0
61.65823 188.0
61.946125 176.0
62.153072 160.0
62.366653 168.0
62.637295 160.0
62.881687 244.0
62.892735 204.0
62.929188 132.0
63.28162 240.0
64.385185 200.0
65.197418 140.0
65.281013 140.0
65.688492 272.0
65.725601 168.0
66.570572 156.0
66.6063 172.0
66.923424 156.0
67.008118 160.0
67.335991 168.0
67.355591 184.0
67.402969 252.0
67.447098 184.0
67.559929 252.0
67.677765 276.0
67.697418 148.0
67.843239 172.0
68.850227 168.0
69.376396 276.0
69.897911 188.0
70.544395 192.0
70.755814 148.0
71.064194 220.0
71.176651 144.0
71.253914 192.0
71.578529 168.0
71.606911 216.0
71.656013 152.0
71.735214 148.0
71.773994 184.0
72.201225 152.0
72.492401 228.0
72.874184 152.0
72.960861 256.0
73.103737 152.0
73.165016 156.0
73.692009 156.0
73.977615 232.0
74.226044 148.0
74.358131 164.0
74.584854 260.0
75.032425 176.0
75.149704 224.0
75.237724 144.0
75.43293 176.0
75.910782 172.0
76.261467 160.0
77.028145 152.0
77.595146 144.0
77.839035 164.0
77.945862 176.0
78.1959 168.0
78.289207 156.0
78.509491 180.0
78.523598 168.0
79.354828 120.0
79.381104 152.0
79.610229 156.0
80.024536 176.0
80.35247 220.0
80.468475 180.0
80.566704 192.0
80.86174 148.0
81.216499 156.0
81.243401 220.0
81.299026 148.0
81.697906 140.0
81.737488 172.0
82.086945 168.0
82.646904 164.0
82.911285 160.0
83.564987 152.0
83.577721 204.0
83.65052 176.0
83.721527 140.0
83.975502 168.0
84.199341 184.0
84.382065 156.0
84.451553 212.0
84.589996 188.0
84.727966 252.0
84.749954 148.0
84.785683 160.0
85.105782 144.0
85.199448 196.0
85.397972 196.0
86.027977 164.0
86.054001 144.0
86.174049 148.0
86.190681 152.0
86.473618 188.0
86.686592 208.0
86.736633 208.0
87.104034 164.0
87.363609 224.0
87.41452 228.0
88.055824 216.0
88.654488 148.0
88.669479 144.0
89.063484 180.0
89.191254 160.0
89.330406 240.0
89.565697 204.0
89.816391 140.0
91.052322 152.0
91.126404 156.0
91.392593 176.0
91.520119 148.0
92.141884 168.0
92.170547 180.0
92.308174 172.0
92.407639 172.0
93.495628 184.0
93.944572 164.0
94.357849 164.0
94.975594 180.0
95.053192 236.0
95.092705 144.0
95.225967 180.0
95.677094 224.0
95.799782 216.0
96.086357 184.0
96.141129 172.0
96.87616 196.0
97.580704 172.0
97.621994 188.0
97.930977 192.0
97.970375 140.0
98.495094 140.0
100.185204 208.0
100.639923 152.0
100.851685 168.0
101.177742 160.0
101.434158 140.0
101.773201 176.0
101.889694 176.0
102.602119 176.0
102.765564 196.0
102.928978 220.0
102.965324 140.0
103.198959 188.0
103.497162 176.0
103.604507 152.0
103.880203 168.0
104.316795 160.0
104.414391 176.0
104.53849 208.0
104.685059 196.0
105.099174 212.0
105.180481 176.0
105.313202 208.0
105.35936 168.0
106.542259 140.0
106.626503 196.0
106.811546 168.0
106.961761 164.0
107.223335 148.0
107.78051 204.0
108.153732 188.0
108.475891 212.0
108.712334 288.0
108.868027 180.0
109.152718 212.0
110.395546 200.0
110.803703 152.0
110.906387 204.0
111.101402 144.0
111.172737 148.0
111.988464 148.0
112.129623 228.0
113.35321 216.0
113.406197 144.0
113.6819 204.0
114.109756 240.0
114.204529 180.0
114.549355 152.0
115.180756 156.0
115.503517 168.0
116.048965 416.0
116.702324 236.0
117.017044 160.0
117.053741 288.0
118.54789 156.0
119.094612 140.0
119.153259 144.0
119.24453 172.0
119.983681 296.0
120.028229 180.0
120.32933 204.0
120.475647 144.0
121.355446 168.0
122.637062 156.0
122.68335 180.0
123.029701 176.0
124.123848 220.0
124.864388 180.0
124.982292 156.0
125.026794 156.0
125.494576 216.0
125.552551 156.0
125.67524 176.0
125.827011 144.0
126.182236 180.0
126.961464 216.0
127.590782 176.0
127.617149 168.0
127.67363 168.0
128.060471 140.0
128.615128 152.0
129.356537 192.0
129.56601 180.0
130.002487 164.0
130.170471 160.0
130.229523 160.0
130.804794 188.0
130.955063 224.0
131.002899 252.0
131.374481 184.0
131.546509 120.0
131.979706 148.0
132.034592 160.0
132.050598 240.0
133.040482 200.0
133.256363 180.0
133.913589 180.0
134.281494 180.0
134.594559 168.0
134.728516 184.0
135.160873 184.0
135.264633 144.0
135.361252 156.0
135.693588 180.0
135.80777 184.0
135.828094 148.0
136.315643 232.0
136.364441 152.0
136.40303 200.0
136.815704 188.0
136.983383 228.0
137.060257 152.0
137.132507 176.0
137.162796 164.0
137.456665 180.0
137.529007 188.0
137.57103 144.0
137.734726 196.0
137.940109 168.0
138.478271 232.0
138.497009 168.0
138.539169 140.0
139.036255 144.0
139.296875 140.0
139.795837 180.0
139.962448 204.0
140.044861 160.0
140.660278 176.0
140.979126 148.0
141.388245 156.0
141.404816 188.0
141.421387 144.0
142.065903 192.0
142.220139 140.0
142.476608 156.0
142.578781 140.0
143.215439 168.0
143.478516 232.0
143.652603 160.0
143.780807 240.0
144.38588 192.0
144.601196 140.0
144.972397 188.0
145.807541 164.0
145.872437 172.0
146.074432 180.0
146.421036 220.0
146.466797 160.0
146.904434 188.0
147.028564 200.0
147.645813 112.0
147.855087 232.0
148.545624 180.0
148.720322 140.0
148.87085 240.0
149.070038 200.0
149.680603 228.0
150.438843 160.0
150.565811 140.0
151.057602 248.0
151.169632 164.0
151.63739 152.0
152.05983 872.0
153.069611 180.0
153.431808 204.0
153.999359 184.0
154.243973 196.0
155.065506 196.0
155.797714 188.0
156.056183 184.0
156.880234 164.0
157.102173 164.0
157.878967 168.0
158.12915 176.0
158.296875 164.0
158.687759 204.0
158.843246 168.0
158.90596 168.0
158.961349 156.0
159.229782 180.0
159.445831 160.0
159.69725 148.0
159.767685 184.0
159.906082 160.0
160.528336 172.0
160.601471 284.0
160.674622 168.0
160.856323 148.0
160.911865 148.0
161.500656 144.0
161.844818 152.0
162.148804 208.0
162.174149 372.0
163.050995 196.0
163.272568 144.0
163.619537 184.0
163.953217 160.0
164.396942 164.0
164.447495 164.0
164.935837 200.0
164.984879 176.0
165.069794 2424.0
166.072723 752.0
166.218918 200.0
166.861038 148.0
167.082886 2076.0
167.115662 144.0
167.700226 144.0
168.053619 188.0
168.090851 296.0
168.365356 144.0
168.458832 212.0
168.836197 180.0
168.916382 176.0
169.071625 144.0
169.296844 196.0
169.480759 160.0
169.90596 160.0
170.063873 164.0
170.201843 144.0
170.474594 220.0
170.682541 204.0
171.335815 168.0
171.653809 220.0
172.52063 184.0
173.221939 256.0
174.629547 192.0
174.658051 180.0
175.242188 196.0
175.677185 148.0
175.933167 204.0
176.012375 164.0
176.064606 396.0
176.247452 144.0
176.474762 180.0
176.704865 192.0
176.879532 168.0
176.99379 200.0
177.029953 220.0
177.068542 468.0
178.064377 752.0
178.099243 220.0
178.274597 184.0
179.072647 4512.0
179.113174 248.0
179.747177 216.0
180.038147 148.0
180.077087 444.0
180.299957 208.0
180.605621 184.0
180.952637 176.0
181.048477 176.0
181.097229 176.0
181.525375 164.0
181.593079 164.0
182.888123 160.0
183.580521 164.0
184.171555 160.0
184.996292 192.0
185.129379 184.0
185.272522 156.0
185.397156 188.0
185.497437 180.0
185.5625 176.0
186.039978 220.0
186.610504 208.0
187.067551 180.0
187.211853 204.0
187.326248 192.0
187.440674 212.0
187.717804 108.0
187.743256 200.0
188.17984 144.0
188.873962 204.0
188.964233 252.0
189.00528 180.0
189.355682 204.0
189.583069 164.0
189.698181 180.0
190.066391 832.0
190.504959 180.0
191.070129 1384.0
191.129059 216.0
191.250153 184.0
191.302444 272.0
191.327225 172.0
191.944397 320.0
191.97197 188.0
192.002304 188.0
192.024368 184.0
192.080658 19052.0
192.140213 176.0
192.34166 152.0
192.449326 200.0
192.547455 136.0
192.95668 196.0
193.031799 160.0
193.087875 12248.0
193.477264 160.0
193.595673 156.0
193.825882 292.0
193.854507 156.0
193.902435 364.0
193.923782 164.0
193.96907 248.0
194.009628 136.0
194.031937 260.0
194.096497 71692.0
194.193787 188.0
194.344055 104.0
194.367432 212.0
194.460373 228.0
194.523712 140.0
195.099304 10804.0
195.149445 160.0
195.196381 200.0
195.590897 96.0
195.630997 144.0
195.721161 188.0
195.972366 172.0
195.99971 144.0
196.022003 156.0
196.10022 988.0
196.189224 172.0
196.327438 176.0
196.821716 176.0
197.99704 172.0
198.481842 168.0
199.2565 140.0
199.610641 180.0
200.179062 204.0
200.4478 204.0
202.265457 148.0
203.691757 204.0
204.055511 168.0
204.607437 140.0
204.746964 168.0
205.31694 164.0
205.565125 176.0
205.679291 140.0
205.944839 184.0
207.997833 152.0
208.129898 180.0
208.661423 148.0
209.100098 160.0
210.338028 224.0
211.014023 176.0
211.057236 152.0
212.070618 164.0
212.14888 160.0
212.296753 192.0
212.816147 148.0
214.156769 148.0
214.623032 148.0
215.673996 208.0
215.899124 188.0
216.861938 152.0
218.986588 144.0
219.073532 224.0
219.095444 172.0
219.528854 252.0
219.758926 176.0
220.076401 1288.0
220.118866 148.0
220.408508 220.0
221.077759 252.0
221.322495 220.0
222.081131 176.0
222.76384 212.0
223.527924 184.0
223.938766 184.0
224.367859 236.0
227.389008 152.0
228.085831 192.0
230.756775 156.0
230.901917 168.0
233.99704 192.0
234.322922 164.0
235.051636 164.0
235.137344 240.0
236.166718 160.0
236.29155 124.0
236.723709 312.0
236.859497 156.0
236.928818 120.0
236.991455 308.0
237.018875 156.0
237.042114 352.0
237.102219 65332.0
237.177139 208.0
237.215988 204.0
237.604218 148.0
237.666611 196.0
237.902481 96.0
237.93483 152.0
238.011597 220.0
238.105484 7092.0
239.016724 188.0
239.107666 528.0
239.392258 144.0
239.564316 116.0
239.624512 100.0
240.051712 140.0
246.333649 148.0
313.199707 204.0
335.422302 140.0
357.615662 156.0
389.037048 128.0
471.884552 200.0
1321.805542 192.0
1350.344727 168.0
1393.550415 268.0
1442.103516 164.0
1445.673096 260.0
1500.047485 156.0
1508.353271 208.0
1540.484985 152.0
1569.405396 168.0
1587.885742 184.0
1594.316284 188.0
1599.446167 164.0
1607.71106 168.0
1614.677368 168.0
1654.200195 164.0
1660.52832 144.0
1661.542236 204.0
1697.577637 160.0
1701.786987 152.0
1710.410645 168.0
1726.375122 156.0
1739.357788 188.0
1749.31604 204.0
1751.43103 180.0
1763.922241 140.0
1766.598145 140.0
1772.919556 140.0
1774.428345 152.0
1780.411011 172.0
1838.973389 172.0
1841.842163 176.0
1854.488281 156.0
1858.578857 172.0
1861.428589 156.0
1862.837158 188.0
1863.507202 176.0
1870.249146 156.0
1874.934448 140.0
1877.149902 192.0
1904.202393 164.0
1908.173462 168.0
1910.808716 196.0
1912.018188 172.0
1913.541504 148.0
1928.991333 148.0
1931.597168 188.0
1940.222778 200.0
1942.529053 140.0
1950.730713 228.0
1957.426025 152.0
1970.859741 176.0
1974.6521 176.0
1975.112061 192.0
1975.625122 256.0
1982.318604 188.0
1983.63916 164.0
1985.252808 148.0
1994.130615 140.0
