>compound RAMIPRIL
>formula C23H32N2O5 
>ionization [M+H]+
>parentmass 417.2383985760905
#inchi InChI=1S/C23H32N2O5/c1-3-30-23(29)18(13-12-16-8-5-4-6-9-16)24-15(2)21(26)25-19-11-7-10-17(19)14-20(25)22(27)28/h4-6,8-9,15,17-20,24H,3,7,10-14H2,1-2H3,(H,27,28)/t15-,17-,18-,19-,20-/m0/s1
#inchikey HDACQVRGBOVJII
#Ion_Source LC-ESI
#Instrument qTof
#Compound_Source Commercial
#PI Dorrestein
#Data_Collector Garg_Neha
#Scan -1
#Precursor_MZ 417.239
#ExactMass 416.231
#Charge 1
#CAS_Number N/A
#Pubmed_ID N/A
#Smiles N/A
#INCHI_AUX N/A
#Library_Class 1
#SpectrumID CCMSLIB00000077105
#IonMode Positive
#UpdateWorkflowName UPDATE-SINGLE-ANNOTATED-GOLD
#LibraryQualityString Gold
#TaskID 48f7f52fc6d249b5abbcc6e7b3df5969
##Scan# 1296
#SpectrumFile NCP003106_E2_F11_BB4_01_15707.mzXML
#LibraryName NIH_Clinical_Collection_2.mgf
#MQScore -1
#Organism NIHcollection2_04212014_2_mgf
#TIC_Query 0
#RT_Query -1
#MZErrorPPM -1
#SharedPeaks 0
#MassDiff 0
#LibMZ -1
#SpecMZ 417.239
#SpecCharge 0
#internalFilename spec-00000.mgf

>collision 10
45.703545 164.0
58.487885 160.0
58.568584 216.0
62.177666 180.0
63.49662 164.0
65.052361 144.0
82.453011 160.0
86.538033 164.0
88.500519 188.0
91.051971 148.0
97.908989 172.0
108.243568 248.0
111.138901 196.0
111.487183 140.0
115.05545 148.0
117.069786 492.0
122.039345 164.0
127.055466 164.0
130.086273 336.0
131.047333 180.0
131.162216 168.0
133.065048 144.0
134.066132 184.0
134.092407 160.0
135.044647 192.0
135.105865 148.0
136.04837 144.0
138.073227 188.0
143.0457 292.0
145.008209 144.0
145.066116 1188.0
145.094513 204.0
146.071564 172.0
154.061005 164.0
155.050735 176.0
156.102158 148.0
160.111786 360.0
160.135117 152.0
160.349258 212.0
161.056442 416.0
163.113235 140.0
167.919327 156.0
169.088104 112.0
169.597336 140.0
170.089569 192.0
172.048615 144.0
173.061462 464.0
174.5578 160.0
175.036713 144.0
175.073669 428.0
177.054245 148.0
178.040802 140.0
181.089188 164.0
184.752747 212.0
185.058716 920.0
186.06543 740.0
186.178467 228.0
187.039017 124.0
188.049545 160.0
189.054947 260.0
190.062057 216.0
195.058289 272.0
201.057785 164.0
202.056122 152.0
203.071091 288.0
204.077484 288.0
208.256332 156.0
219.064789 268.0
219.089798 180.0
220.064301 164.0
228.338547 184.0
229.050583 1048.0
230.053543 236.0
231.054642 120.0
234.147064 612.0
235.057922 140.0
237.054932 184.0
237.091507 180.0
238.097763 140.0
239.067444 156.0
246.315125 152.0
247.060242 3608.0
248.061325 1180.0
249.064972 128.0
249.096741 144.0
254.783066 152.0
258.94577 156.0
259.067505 328.0
264.111694 140.0
267.058899 152.0
272.072754 140.0
277.102234 144.0
280.125366 176.0
282.088226 700.0
283.061768 308.0
283.089844 276.0
284.093414 160.0
289.07959 140.0
290.090698 232.0
292.067261 120.0
292.111267 108.0
293.077393 124.0
297.074463 268.0
298.084869 420.0
304.074982 144.0
305.077698 400.0
306.082977 324.0
307.089142 136.0
308.061249 176.0
308.410675 140.0
309.103119 156.0
312.095215 228.0
313.108856 908.0
314.116486 244.0
316.931335 132.0
319.109833 164.0
320.107483 584.0
321.113037 148.0
323.093353 124.0
323.14389 148.0
333.080444 436.0
336.099762 180.0
337.101746 148.0
338.114349 196.0
343.196655 120.0
351.117889 308.0
354.645355 232.0
355.117096 132.0
361.106323 168.0
363.087067 156.0
367.102966 144.0
369.13562 136.0
369.222443 152.0
379.114319 280.0
380.134949 148.0
381.126404 164.0
397.031586 184.0
397.126373 2684.0
398.130676 712.0
399.13446 328.0
399.339447 128.0
415.133514 192.0
416.126862 152.0
417.194489 168.0
417.241058 1552.0
418.242371 460.0
420.38858 140.0
540.261108 168.0
1342.511475 172.0
1426.474487 216.0
1701.737183 172.0
