>compound MLS001335964-01!Enoximone77671-31-9
>formula C12H12N2O2S
>ionization [M+H]+
>parentmass 249.06922507609053
#inchi InChI=1S/C12H12N2O2S/c1-7-10(14-12(16)13-7)11(15)8-3-5-9(17-2)6-4-8/h3-6H,1-2H3,(H2,13,14,16)
#inchikey ZJKNESGOIKRXQY
#Ion_Source LC-ESI
#Instrument qTof
#Compound_Source NIH Pharmacologically Active Library
#PI Dorrestein
#Data_Collector VP/LMS
#Scan -1
#Precursor_MZ 249.064
#ExactMass 248.062
#Charge 1
#CAS_Number N/A
#Pubmed_ID N/A
#Smiles CSc1ccc(cc1)C(=O)c2[nH]c(O)nc2C
#INCHI_AUX N/A
#Library_Class 1
#SpectrumID CCMSLIB00000085371
#IonMode Positive
#UpdateWorkflowName UPDATE-SINGLE-ANNOTATED-GOLD
#LibraryQualityString Gold
#TaskID d252d724072548979f1f6f1ced849daf
##Scan# 1586
#SpectrumFile p3-H10_GH10_01_18315.mzXML
#LibraryName Pharm_Active_Library.mgf
#MQScore -1
#Organism Pharm_Active_Library
#TIC_Query 0
#RT_Query -1
#MZErrorPPM -1
#SharedPeaks 0
#MassDiff 0
#LibMZ -1
#SpecMZ 249.064
#SpecCharge 0
#internalFilename spec-00000.mgf

>collision 10
45.305317 304.0
46.701202 216.0
48.061676 104.0
48.09618 152.0
48.208057 208.0
48.505646 160.0
49.026882 188.0
49.057549 56.0
49.095196 40.0
51.702045 124.0
51.964287 156.0
53.432289 184.0
54.904514 124.0
55.645905 196.0
56.326515 196.0
57.517349 188.0
58.450981 148.0
58.876316 160.0
59.287868 136.0
59.476524 124.0
60.177013 164.0
60.329971 168.0
60.558994 208.0
62.70435 148.0
62.817883 164.0
63.845886 32.0
64.438889 116.0
64.646767 164.0
65.018585 140.0
66.477547 140.0
69.203743 224.0
69.313065 180.0
69.721313 248.0
70.66349 160.0
71.556412 152.0
73.212547 56.0
74.877289 56.0
77.754868 40.0
77.826843 84.0
78.321503 76.0
81.392654 160.0
81.824409 164.0
82.629158 136.0
83.325554 216.0
84.7724 104.0
85.087898 228.0
86.379807 244.0
88.151741 172.0
88.484688 188.0
88.591446 184.0
89.366852 136.0
90.937294 116.0
93.152367 128.0
94.931976 212.0
97.009735 448.0
97.030128 168.0
97.044792 204.0
98.043556 188.0
99.434822 164.0
101.000954 144.0
101.255157 100.0
101.421165 136.0
102.041786 56.0
103.385239 132.0
104.505394 128.0
107.515778 164.0
107.996498 60.0
108.817841 68.0
108.886368 180.0
109.335449 80.0
110.426628 208.0
111.750359 200.0
113.0989 220.0
113.917435 172.0
114.034302 160.0
114.393791 68.0
115.058945 172.0
115.161446 144.0
116.096748 176.0
117.227539 224.0
117.950584 204.0
118.186325 208.0
118.556625 160.0
118.758255 248.0
118.92099 156.0
120.054527 304.0
120.078514 160.0
121.009399 196.0
122.01651 192.0
123.026787 672.0
124.95816 180.0
125.034523 11260.0
125.071655 304.0
125.107269 84.0
125.180748 64.0
125.228531 88.0
125.249794 52.0
125.361198 52.0
126.035454 456.0
126.269844 124.0
126.654831 144.0
126.91256 132.0
126.957405 132.0
126.982079 40.0
127.03476 148.0
127.95285 112.0
128.049683 132.0
129.056168 172.0
129.126282 60.0
129.402359 188.0
130.063599 172.0
132.852982 100.0
132.910339 88.0
134.41066 44.0
136.047043 180.0
136.077225 116.0
139.016098 216.0
141.039261 144.0
143.045959 1396.0
143.401016 52.0
143.675247 68.0
144.040237 224.0
144.047089 200.0
145.105469 172.0
146.061279 248.0
147.015396 136.0
147.070908 224.0
151.021011 1864.0
152.021729 336.0
155.059952 68.0
157.680771 108.0
159.035797 136.0
159.085999 248.0
161.027435 152.0
161.047653 128.0
162.044373 144.0
164.003723 132.0
173.022797 116.0
176.054993 156.0
186.05394 164.0
192.038773 148.0
193.966064 152.0
194.229492 72.0
200.056122 288.0
201.861908 140.0
202.065567 156.0
202.886887 48.0
205.089996 132.0
217.964493 136.0
223.16098 92.0
231.054688 176.0
248.142288 204.0
249.002121 184.0
249.072525 316.0
249.206299 100.0
251.155029 200.0
297.002502 160.0
311.074554 84.0
688.101501 112.0
794.940308 20.0
896.286682 148.0
902.739685 48.0
928.613342 172.0
956.926331 192.0
984.552551 224.0
1074.038818 148.0
1125.446899 204.0
1152.72644 116.0
1185.521606 156.0
1203.054688 184.0
1238.037476 148.0
1262.097412 64.0
1263.151245 156.0
1266.159424 244.0
1292.52124 164.0
1295.141602 116.0
1297.51355 248.0
1301.632202 176.0
1323.886719 204.0
1325.835571 124.0
1327.249146 128.0
1353.071899 144.0
1391.128906 160.0
1409.383789 224.0
1414.327271 160.0
1427.396729 136.0
1429.774048 152.0
1439.823853 152.0
1443.965576 196.0
1450.810913 176.0
1451.174927 216.0
1463.103394 92.0
1465.677734 156.0
1466.767578 220.0
1468.246826 104.0
1468.445068 184.0
1470.894531 204.0
1473.536865 192.0
1474.828369 204.0
1488.718994 220.0
1489.517822 212.0
