>compound MLS002153357-01!p-MPPF dihydrochloride
>formula C25H27FN4O2
>ionization [M+H]+
>parentmass 435.218781
#inchi InChI=1S/C25H27FN4O2/c1-32-23-7-3-2-6-22(23)29-17-14-28(15-18-29)16-19-30(24-8-4-5-13-27-24)25(31)20-9-11-21(26)12-10-20/h2-13H,14-19H2,1H3
#inchikey YJZYDPRMWYWYCG
#origInchi InChI=1S/C25H27FN4O2.ClH/c1-32-23-7-3-2-6-22(23)29-17-14-28(15-18-29)16-19-30(24-8-4-5-13-27-24)25(31)20-9-11-21(26)12-10-20;/h2-13H,14-19H2,1H3;1H
#Ion_Source LC-ESI
#Instrument qTof
#Compound_Source NIH Pharmacologically Active Library
#PI Dorrestein
#Data_Collector VP/LMS
#Scan -1
#Precursor_MZ 435.224
#ExactMass 434.212
#Charge 1
#CAS_Number N/A
#Pubmed_ID N/A
#Smiles COc1ccccc1N2CCN(CCN(C(=O)c3ccc(F)cc3)c4ccccn4)CC2.Cl
#INCHI_AUX N/A
#Library_Class 1
#SpectrumID CCMSLIB00000085440
#IonMode Positive
#UpdateWorkflowName UPDATE-SINGLE-ANNOTATED-GOLD
#LibraryQualityString Gold
#TaskID d252d724072548979f1f6f1ced849daf
##Scan# 1716
#SpectrumFile p4-A10_GA10_01_18334.mzXML
#LibraryName Pharm_Active_Library.mgf
#MQScore -1
#Organism Pharm_Active_Library
#TIC_Query 0
#RT_Query -1
#MZErrorPPM -1
#SharedPeaks 0
#MassDiff 0
#LibMZ -1
#SpecMZ 435.224
#SpecCharge 0
#internalFilename spec-00000.mgf

>collision 10
44.889671 140.0
44.923412 104.0
44.936241 124.0
44.94825 188.0
44.957588 60.0
44.984283 108.0
44.99897 232.0
45.023003 100.0
45.067745 148.0
45.085449 220.0
45.113415 180.0
45.128567 160.0
45.144615 80.0
45.168476 168.0
45.19025 168.0
45.212219 164.0
45.225555 104.0
45.246021 200.0
45.265049 312.0
45.283798 232.0
45.296162 156.0
45.328007 172.0
45.342793 120.0
45.361603 180.0
45.37241 124.0
45.387169 164.0
45.402653 164.0
45.41119 188.0
45.428963 100.0
45.472385 212.0
45.486263 80.0
45.49646 196.0
45.507717 404.0
45.527885 196.0
45.544003 176.0
45.561069 164.0
45.596401 152.0
45.621937 84.0
45.638271 156.0
45.656075 184.0
45.677494 140.0
45.697433 248.0
45.708504 276.0
45.735512 176.0
45.744587 152.0
45.755123 168.0
45.769821 144.0
45.772545 132.0
45.783066 204.0
45.799736 124.0
45.823811 84.0
45.837284 192.0
45.849068 188.0
45.871487 180.0
45.881371 96.0
45.889435 220.0
45.922863 108.0
45.947823 236.0
45.97834 152.0
45.996426 184.0
46.011276 168.0
46.062592 180.0
46.085854 184.0
46.107147 164.0
46.130157 136.0
46.155003 180.0
46.165714 188.0
46.180706 180.0
46.200012 152.0
46.223015 140.0
46.228302 92.0
46.2472 136.0
46.258667 172.0
46.278973 120.0
46.322311 112.0
46.34071 188.0
46.354828 312.0
46.364162 180.0
46.374405 180.0
46.393692 172.0
46.419193 132.0
46.436169 32.0
46.461643 208.0
46.483727 280.0
46.489349 160.0
46.503132 416.0
46.543964 320.0
46.578209 160.0
46.593628 132.0
46.609287 156.0
46.632534 196.0
46.652107 260.0
46.672329 128.0
46.690136 216.0
46.705368 140.0
46.733902 184.0
46.744549 276.0
46.764057 156.0
46.782742 268.0
46.798996 60.0
46.819424 140.0
46.829571 160.0
46.843937 104.0
46.865303 164.0
46.888901 176.0
46.916637 288.0
46.928432 88.0
46.937977 116.0
46.94981 192.0
46.964661 276.0
46.98185 168.0
47.01059 156.0
47.021435 352.0
47.032112 72.0
47.049858 132.0
47.062145 40.0
47.074436 128.0
47.094257 208.0
47.127598 216.0
47.166313 96.0
47.170376 144.0
47.17588 128.0
47.178646 176.0
47.196049 88.0
47.229095 292.0
47.246651 96.0
47.273636 244.0
47.275978 120.0
47.299538 124.0
47.304462 164.0
47.332378 120.0
47.345203 136.0
47.363007 124.0
47.381252 88.0
47.389324 172.0
47.416443 124.0
47.434811 180.0
47.469116 104.0
47.479507 444.0
47.492634 140.0
47.50428 132.0
47.526794 164.0
47.553158 76.0
47.573456 324.0
47.584259 212.0
47.608509 492.0
47.618557 164.0
47.631401 200.0
47.647518 216.0
47.664829 44.0
47.692024 132.0
47.715683 128.0
47.74181 104.0
47.765934 132.0
47.775703 132.0
47.820457 168.0
47.848091 184.0
47.871166 160.0
47.894581 160.0
47.909618 220.0
47.922375 96.0
47.935551 92.0
47.950382 120.0
47.954838 112.0
47.960823 104.0
47.978638 156.0
47.999523 132.0
48.014488 184.0
48.024677 152.0
48.060635 184.0
48.071049 140.0
48.083469 140.0
48.094509 104.0
48.107327 172.0
48.121052 160.0
48.139076 172.0
48.158333 144.0
48.174866 168.0
48.221581 116.0
48.251991 96.0
48.276878 156.0
48.293007 156.0
48.311459 148.0
48.343281 168.0
48.387413 104.0
48.407337 132.0
48.426346 200.0
48.460735 68.0
48.481949 208.0
48.524464 180.0
48.553688 136.0
48.570919 276.0
48.613201 224.0
48.638489 124.0
48.650864 144.0
48.661594 372.0
48.675236 128.0
48.703747 88.0
48.730896 140.0
48.745426 132.0
48.782951 124.0
48.820492 128.0
48.84404 116.0
48.862362 160.0
48.888798 164.0
48.902576 116.0
48.921135 216.0
48.930935 144.0
48.942947 104.0
48.961048 128.0
48.979061 148.0
48.990532 156.0
48.993946 136.0
49.010811 188.0
49.022068 160.0
49.03907 168.0
49.049789 160.0
49.075066 148.0
49.09623 204.0
49.112965 140.0
49.133671 256.0
49.138748 340.0
49.177704 164.0
49.197388 248.0
49.229153 96.0
49.241646 204.0
49.255859 204.0
49.260193 76.0
49.265869 164.0
49.279198 156.0
49.330799 144.0
49.343151 196.0
49.366302 172.0
49.398087 168.0
49.409111 148.0
49.446892 172.0
49.465088 100.0
49.514091 152.0
49.537693 160.0
49.563015 168.0
49.584637 140.0
49.59956 276.0
49.643845 116.0
49.676682 232.0
49.692116 136.0
49.730003 240.0
49.742638 148.0
49.757294 188.0
49.774391 220.0
49.796753 180.0
49.805824 220.0
49.818466 164.0
49.847294 112.0
49.870457 240.0
49.889767 268.0
49.931774 124.0
49.956959 56.0
49.978382 156.0
50.002663 120.0
50.024685 408.0
50.035038 148.0
50.047878 168.0
50.058975 168.0
50.09137 156.0
50.126381 160.0
50.140274 152.0
50.160416 352.0
50.177605 144.0
50.1898 180.0
50.209362 116.0
50.24004 164.0
50.257725 120.0
50.269501 116.0
50.278538 160.0
50.293736 116.0
50.3158 196.0
50.331215 388.0
50.36219 176.0
50.386642 168.0
50.399742 124.0
50.414135 188.0
50.438492 124.0
50.456421 228.0
50.481331 252.0
50.498882 296.0
50.513435 156.0
50.527584 268.0
50.54739 124.0
50.56517 156.0
50.574593 164.0
50.631588 204.0
50.664906 168.0
50.67934 128.0
50.719177 172.0
50.742249 368.0
50.765244 248.0
50.792099 244.0
50.808411 160.0
50.819023 244.0
50.839306 228.0
50.850662 192.0
50.859512 104.0
50.883656 180.0
50.89893 164.0
50.909519 244.0
50.937275 148.0
50.960079 152.0
50.985291 196.0
50.991108 252.0
51.022045 228.0
51.056149 212.0
51.076523 336.0
51.089378 132.0
51.103897 176.0
51.119221 164.0
51.149143 172.0
51.16824 280.0
51.185375 196.0
51.195053 212.0
51.207523 176.0
51.220341 156.0
51.230537 172.0
51.261963 112.0
51.27306 180.0
51.283035 200.0
51.307266 72.0
51.334682 188.0
51.349319 124.0
51.363655 236.0
51.367786 128.0
51.374744 164.0
51.392189 140.0
51.425663 156.0
51.443592 204.0
51.481712 184.0
51.521667 188.0
51.546337 96.0
51.559261 148.0
51.571346 100.0
51.581871 132.0
51.598507 192.0
51.60915 216.0
51.627613 124.0
51.640221 140.0
51.653198 112.0
51.667156 212.0
51.688618 116.0
51.700066 124.0
51.720444 100.0
51.751595 68.0
51.775864 232.0
51.807617 204.0
51.826683 104.0
51.837059 92.0
51.855396 156.0
51.899364 120.0
51.910236 112.0
51.914516 80.0
51.920513 168.0
51.954422 184.0
51.973763 144.0
52.005455 140.0
52.019508 232.0
52.03117 164.0
52.045528 100.0
52.057743 276.0
52.098667 144.0
52.109295 152.0
52.12587 120.0
52.143211 52.0
52.174835 108.0
52.204205 164.0
52.216534 112.0
52.231411 140.0
52.242424 100.0
52.256241 136.0
52.276955 216.0
52.312939 180.0
52.325127 172.0
52.335758 160.0
52.358727 244.0
52.371185 124.0
52.395546 188.0
52.418076 72.0
52.442577 132.0
52.46011 196.0
52.471294 148.0
52.4888 128.0
52.498802 184.0
52.527775 252.0
52.546402 128.0
52.577667 96.0
52.597008 156.0
52.612865 152.0
52.630878 144.0
52.649456 132.0
52.666721 184.0
52.695713 344.0
52.709175 204.0
52.732582 172.0
52.765839 128.0
52.778854 204.0
52.792229 188.0
52.806416 132.0
52.827148 144.0
52.858585 196.0
52.870491 180.0
52.898727 256.0
52.921021 184.0
52.943348 228.0
52.95549 132.0
52.978096 148.0
52.995796 204.0
53.048225 132.0
53.059822 140.0
53.070728 184.0
53.093868 144.0
53.109127 124.0
53.124187 196.0
53.138142 140.0
53.149746 104.0
53.16716 436.0
53.177319 144.0
53.198627 112.0
53.213612 172.0
53.225227 176.0
53.236843 172.0
53.251366 228.0
53.271702 176.0
53.309479 160.0
53.325516 108.0
53.35041 148.0
53.372757 140.0
53.398159 124.0
53.419327 144.0
53.431614 172.0
53.4622 204.0
53.476723 116.0
53.510204 96.0
53.529133 152.0
53.540783 96.0
53.560272 104.0
53.575153 208.0
53.580692 260.0
53.598907 160.0
53.620953 136.0
53.639858 156.0
53.669018 180.0
53.708393 184.0
53.719921 124.0
53.74329 184.0
53.762375 84.0
53.78854 312.0
53.807781 220.0
53.82415 212.0
53.866035 76.0
53.894619 340.0
53.911327 164.0
53.925945 80.0
53.960114 64.0
53.968941 232.0
54.001045 120.0
54.005371 136.0
54.009533 164.0
54.023735 164.0
54.047321 164.0
54.076588 92.0
54.087566 128.0
54.09742 148.0
54.117161 352.0
54.151623 176.0
54.173229 220.0
54.202354 200.0
54.218212 360.0
54.229446 184.0
54.252361 208.0
54.275822 128.0
54.291298 224.0
54.305153 96.0
54.328621 176.0
54.361885 220.0
54.386711 160.0
54.409496 168.0
54.42989 148.0
54.45192 300.0
54.47823 232.0
54.501865 116.0
54.517338 196.0
54.534931 188.0
54.560909 184.0
54.58271 168.0
54.593002 272.0
54.616955 168.0
54.628258 132.0
54.651257 292.0
54.67321 176.0
54.687649 148.0
54.706951 304.0
54.727234 340.0
54.758736 108.0
54.782871 156.0
54.810863 172.0
54.827766 204.0
54.850796 164.0
54.87719 116.0
54.90226 124.0
54.918159 184.0
54.940609 132.0
54.958313 180.0
54.975452 116.0
54.992836 132.0
55.023251 144.0
55.033588 212.0
55.047516 200.0
55.063026 124.0
55.084431 108.0
55.128124 56.0
55.154869 164.0
55.177391 144.0
55.211727 224.0
55.238071 144.0
55.256763 144.0
55.271557 96.0
55.291775 212.0
55.316887 204.0
55.338932 208.0
55.344524 108.0
55.348404 144.0
55.361855 124.0
55.391525 252.0
55.43111 252.0
55.464085 280.0
55.475063 148.0
55.505737 124.0
55.51746 136.0
55.542961 192.0
55.557045 180.0
55.581245 100.0
55.592903 168.0
55.604706 84.0
55.641899 196.0
55.653976 52.0
55.664368 152.0
55.696785 116.0
55.70631 100.0
55.760933 148.0
55.772194 176.0
55.788109 196.0
55.816677 216.0
55.830017 148.0
55.842628 200.0
55.869476 152.0
55.895645 160.0
55.912628 104.0
55.943298 284.0
55.962219 140.0
55.97282 120.0
55.984085 172.0
55.995998 172.0
56.027493 196.0
56.036552 180.0
56.078758 156.0
56.087685 292.0
56.14505 168.0
56.166271 216.0
56.181183 300.0
56.227486 120.0
56.24147 88.0
56.261913 228.0
56.265724 104.0
56.276554 200.0
56.301731 280.0
56.316666 184.0
56.329174 108.0
56.353432 164.0
56.364239 180.0
56.380024 216.0
56.390305 168.0
56.401833 148.0
56.430237 220.0
56.446686 176.0
56.463089 132.0
56.466095 188.0
56.48484 172.0
56.513721 136.0
56.526176 212.0
56.540932 52.0
56.561886 256.0
56.575356 180.0
56.585701 176.0
56.590965 160.0
56.623695 156.0
56.656292 92.0
56.686192 136.0
56.708466 212.0
56.733402 152.0
56.752144 176.0
56.782703 116.0
56.793301 168.0
56.817787 172.0
56.831638 144.0
56.85273 144.0
56.88475 308.0
56.893734 192.0
56.925499 188.0
56.938217 112.0
56.95013 168.0
56.961651 208.0
56.974697 80.0
56.992294 64.0
57.00732 132.0
57.020847 120.0
57.063953 148.0
57.087505 188.0
57.098797 152.0
57.120224 216.0
57.135124 108.0
57.148666 180.0
57.163715 144.0
57.175751 172.0
57.189297 116.0
57.212467 184.0
57.219906 132.0
57.225365 100.0
57.269676 172.0
57.328747 192.0
57.359505 132.0
57.371109 240.0
57.388149 160.0
57.411377 148.0
57.435619 200.0
57.464455 128.0
57.476818 204.0
57.481625 148.0
57.517437 308.0
57.528267 228.0
57.570507 108.0
57.585831 156.0
57.598957 128.0
57.627209 192.0
57.635265 208.0
57.653603 168.0
57.676487 196.0
57.700035 132.0
57.734554 296.0
57.753288 308.0
57.77533 88.0
57.785908 180.0
57.796337 192.0
57.80756 84.0
57.824898 132.0
57.839565 64.0
57.845058 208.0
57.870201 160.0
57.890762 176.0
57.903881 96.0
57.924732 152.0
57.948883 116.0
57.979694 276.0
58.005619 164.0
58.021473 344.0
58.044044 148.0
58.074703 300.0
58.101051 152.0
58.112713 144.0
58.130836 164.0
58.143906 144.0
58.18512 136.0
58.193951 248.0
58.225777 384.0
58.243183 72.0
58.269009 164.0
58.29332 156.0
58.310543 144.0
58.315018 200.0
58.355358 172.0
58.360691 124.0
58.376766 152.0
58.391476 120.0
58.435223 184.0
58.448421 216.0
58.453999 168.0
58.492844 212.0
58.522522 152.0
58.528545 144.0
58.533539 100.0
58.538589 136.0
58.592468 184.0
58.618805 300.0
58.644875 92.0
58.666553 180.0
58.686539 180.0
58.699757 76.0
58.711956 96.0
58.72263 112.0
58.760342 152.0
58.774498 144.0
58.787323 148.0
58.798038 160.0
58.819786 160.0
58.837074 132.0
58.848946 160.0
58.883873 252.0
58.918015 156.0
58.938725 116.0
58.973133 188.0
58.993893 184.0
59.009712 164.0
59.027073 136.0
59.044704 68.0
59.071274 252.0
59.099953 164.0
59.121376 148.0
59.181072 100.0
59.197372 124.0
59.214764 180.0
59.266037 272.0
59.298439 104.0
59.319241 436.0
59.354218 72.0
59.386421 292.0
59.396473 224.0
59.422165 80.0
59.433918 104.0
59.473877 88.0
59.499973 308.0
59.526077 304.0
59.556793 208.0
59.578949 132.0
59.593658 416.0
59.615173 128.0
59.645397 140.0
59.661282 164.0
59.69099 124.0
59.71003 292.0
59.734077 344.0
59.761665 208.0
59.771606 208.0
59.78587 136.0
59.806385 168.0
59.835201 164.0
59.849209 304.0
59.863441 144.0
59.876701 68.0
59.893642 84.0
59.912945 128.0
59.924805 140.0
59.962978 108.0
60.000309 128.0
60.033894 96.0
60.090965 168.0
60.11375 120.0
60.123745 156.0
60.13726 260.0
60.166588 188.0
60.182026 156.0
60.197468 152.0
60.214455 112.0
60.23518 156.0
60.246891 152.0
60.303535 152.0
60.320412 188.0
60.349327 100.0
60.389103 176.0
60.407661 312.0
60.43087 160.0
60.464294 120.0
60.485031 204.0
60.520638 208.0
60.534576 260.0
60.557579 164.0
60.561878 140.0
60.579102 144.0
60.609512 192.0
60.647392 312.0
60.680225 144.0
60.695705 344.0
60.709217 172.0
60.724274 108.0
60.744602 148.0
60.759552 80.0
60.776905 144.0
60.782333 48.0
60.78825 136.0
60.801083 284.0
60.832256 156.0
60.844677 184.0
60.863308 104.0
60.897472 200.0
60.928539 184.0
60.945629 92.0
60.967384 160.0
60.982464 108.0
61.003132 140.0
61.014629 244.0
61.047306 156.0
61.070278 192.0
61.098839 184.0
61.109978 308.0
61.164509 172.0
61.168655 128.0
61.194489 128.0
61.213734 200.0
61.241203 132.0
61.258339 184.0
61.281376 188.0
61.295223 184.0
61.330017 180.0
61.348331 232.0
61.386505 188.0
61.414452 260.0
61.43293 216.0
61.443851 124.0
61.462574 152.0
61.477516 180.0
61.495438 136.0
61.528126 132.0
61.549984 128.0
61.569885 188.0
61.594044 288.0
61.617146 132.0
61.638023 176.0
61.65723 140.0
61.671814 140.0
61.6894 136.0
61.70623 340.0
61.735939 160.0
61.753738 252.0
61.77483 148.0
61.79694 120.0
61.818325 204.0
61.835304 136.0
61.848583 176.0
61.879921 236.0
61.890549 164.0
61.910801 476.0
61.913216 156.0
61.940544 208.0
61.959766 224.0
61.973625 232.0
61.991642 260.0
62.007488 132.0
62.040493 172.0
62.064877 256.0
62.084995 196.0
62.090584 96.0
62.11195 148.0
62.12751 88.0
62.139961 128.0
62.148762 264.0
62.163597 136.0
62.18103 160.0
62.230019 164.0
62.241753 248.0
62.258289 212.0
62.273445 136.0
62.293835 96.0
62.312443 236.0
62.332245 212.0
62.383484 132.0
62.406227 180.0
62.425934 136.0
62.436283 124.0
62.448345 144.0
62.47015 268.0
62.496716 264.0
62.520069 188.0
62.534485 168.0
62.570122 200.0
62.59819 120.0
62.632748 88.0
62.637196 172.0
62.668766 88.0
62.680008 184.0
62.691887 292.0
62.722855 236.0
62.741032 128.0
62.761158 220.0
62.777981 172.0
62.782555 96.0
62.790714 120.0
62.794926 172.0
62.822838 60.0
62.837036 156.0
62.856964 136.0
62.877964 188.0
62.900978 116.0
62.909054 236.0
62.931736 96.0
62.945099 164.0
62.95908 252.0
62.970337 144.0
62.991993 100.0
63.014458 80.0
63.024925 140.0
63.037514 136.0
63.043095 128.0
63.050877 180.0
63.056351 140.0
63.072334 64.0
63.117268 332.0
63.147099 224.0
63.156975 136.0
63.17178 212.0
63.223484 120.0
63.235249 136.0
63.258572 212.0
63.293304 196.0
63.296032 252.0
63.302086 164.0
63.320042 116.0
63.345001 152.0
63.364037 220.0
63.39254 228.0
63.416939 240.0
63.436249 120.0
63.452263 164.0
63.471287 76.0
63.498688 144.0
63.518867 140.0
63.533142 192.0
63.545464 132.0
63.585125 184.0
63.602737 84.0
63.61705 192.0
63.641228 116.0
63.656395 232.0
63.669647 216.0
63.688442 220.0
63.741131 84.0
63.766064 192.0
63.770702 132.0
63.777958 140.0
63.79517 152.0
63.820995 180.0
63.832474 196.0
63.848507 88.0
63.889717 168.0
63.928772 100.0
63.955631 128.0
63.980789 212.0
63.999439 172.0
64.028717 144.0
64.049133 180.0
64.093872 88.0
64.12249 200.0
64.162659 124.0
64.1987 188.0
64.217133 124.0
64.234932 124.0
64.25338 116.0
64.29052 92.0
64.305695 212.0
64.320259 212.0
64.341789 100.0
64.360756 156.0
64.376724 52.0
64.40387 148.0
64.41716 264.0
64.432625 104.0
64.48317 412.0
64.504539 72.0
64.522125 200.0
64.533318 132.0
64.569382 224.0
64.591972 300.0
64.596748 204.0
64.601601 40.0
64.624481 144.0
64.642563 80.0
64.674088 176.0
64.710907 100.0
64.72538 108.0
64.747742 92.0
64.765831 148.0
64.782303 228.0
64.793198 140.0
64.815552 188.0
64.821892 144.0
64.850616 216.0
64.864098 148.0
64.884178 204.0
64.909592 116.0
64.920815 156.0
64.946671 136.0
64.969818 160.0
64.98819 168.0
65.005836 168.0
65.02562 516.0
65.037971 196.0
65.053032 276.0
65.075607 180.0
65.108414 116.0
65.137489 76.0
65.188599 216.0
65.199402 136.0
65.216225 164.0
65.2285 176.0
65.24501 160.0
65.278923 152.0
65.301437 112.0
65.319542 172.0
65.358231 160.0
65.361481 136.0
65.383492 196.0
65.425934 172.0
65.442543 216.0
65.461876 196.0
65.467758 156.0
65.486526 64.0
65.502266 176.0
65.521309 260.0
65.536583 220.0
65.547691 120.0
65.578651 156.0
65.622047 240.0
65.657364 248.0
65.684036 284.0
65.708984 164.0
65.727638 228.0
65.756493 396.0
65.781601 96.0
65.797661 172.0
65.821449 188.0
65.843643 104.0
65.883186 168.0
65.908669 136.0
65.95929 132.0
65.984146 288.0
66.007378 284.0
66.02829 148.0
66.069252 120.0
66.137474 176.0
66.157135 208.0
66.168938 208.0
66.173454 124.0
66.193344 116.0
66.206581 260.0
66.224648 88.0
66.244125 124.0
66.260284 212.0
66.274254 124.0
66.327942 160.0
66.353004 152.0
66.370499 148.0
66.385681 188.0
66.418449 148.0
66.438614 152.0
66.449974 128.0
66.468666 184.0
66.482422 132.0
66.511635 56.0
66.532738 180.0
66.551468 248.0
66.565796 112.0
66.592491 196.0
66.605591 88.0
66.617554 196.0
66.633949 164.0
66.658409 108.0
66.690308 96.0
66.705696 120.0
66.718987 156.0
66.734001 164.0
66.771599 156.0
66.791115 176.0
66.839256 156.0
66.857361 112.0
66.869217 192.0
66.893631 176.0
66.906296 144.0
66.917793 76.0
66.922073 144.0
66.932701 172.0
66.944099 216.0
66.958855 132.0
66.988075 160.0
67.005997 368.0
67.02581 120.0
67.056282 140.0
67.059608 120.0
67.088348 60.0
67.101089 172.0
67.127266 160.0
67.146774 132.0
67.160721 324.0
67.183701 148.0
67.201721 256.0
67.232651 68.0
67.258759 156.0
67.278198 212.0
67.320801 172.0
67.348564 240.0
67.361633 64.0
67.381233 172.0
67.39267 132.0
67.419304 276.0
67.475616 192.0
67.481613 144.0
67.496338 132.0
67.546349 180.0
67.564278 100.0
67.584663 180.0
67.604012 344.0
67.624886 140.0
67.643478 156.0
67.660896 212.0
67.694664 112.0
67.70771 196.0
67.725136 264.0
67.77124 140.0
67.786049 208.0
67.820557 196.0
67.83699 148.0
67.853584 124.0
67.869247 132.0
67.883621 124.0
67.914894 56.0
67.928017 64.0
67.954262 248.0
67.967384 204.0
67.996246 212.0
68.021332 248.0
68.037651 148.0
68.054382 320.0
68.072441 144.0
68.088867 168.0
68.114662 144.0
68.133217 72.0
68.157356 192.0
68.210396 248.0
68.231819 168.0
68.254295 316.0
68.279602 148.0
68.310753 44.0
68.344513 196.0
68.359535 80.0
68.398766 132.0
68.410599 196.0
68.438248 180.0
68.451248 144.0
68.474854 172.0
68.493439 220.0
68.537148 336.0
68.565964 152.0
68.586777 324.0
68.601906 164.0
68.605972 132.0
68.617096 220.0
68.638374 108.0
68.654991 156.0
68.674782 264.0
68.686325 136.0
68.699524 212.0
68.711922 340.0
68.721535 116.0
68.752319 156.0
68.772125 100.0
68.785332 144.0
68.798538 144.0
68.831558 168.0
68.84642 156.0
68.867889 56.0
68.891769 140.0
68.91938 168.0
68.935623 112.0
68.962975 196.0
68.97876 120.0
69.041428 104.0
69.069496 144.0
69.079468 208.0
69.086555 140.0
69.101784 256.0
69.122482 172.0
69.134384 168.0
69.147308 124.0
69.163185 108.0
69.180412 120.0
69.216835 116.0
69.247917 140.0
69.282455 116.0
69.297997 120.0
69.36097 148.0
69.37841 268.0
69.41568 124.0
69.433563 132.0
69.447189 172.0
69.460457 128.0
69.476814 172.0
69.503273 292.0
69.505463 144.0
69.512924 324.0
69.532547 160.0
69.549797 204.0
69.579941 200.0
69.611168 144.0
69.617371 228.0
69.646858 180.0
69.659988 192.0
69.704514 152.0
69.722794 56.0
69.746452 200.0
69.764343 380.0
69.797592 56.0
69.813744 120.0
69.840836 140.0
69.858772 168.0
69.887306 124.0
69.891945 116.0
69.898132 208.0
69.926163 196.0
69.938347 80.0
69.960876 172.0
69.973961 160.0
69.991692 340.0
70.030579 128.0
70.060562 148.0
70.10392 180.0
70.140549 196.0
70.180084 84.0
70.19265 176.0
70.210968 152.0
70.226837 160.0
70.247444 188.0
70.261505 136.0
70.274521 96.0
70.296227 164.0
70.322121 144.0
70.33905 84.0
70.363747 176.0
70.373466 368.0
70.385796 56.0
70.407822 124.0
70.418472 176.0
70.43309 260.0
70.445557 260.0
70.464294 164.0
70.481003 164.0
70.501564 248.0
70.517769 136.0
70.542076 236.0
70.565903 140.0
70.584816 224.0
70.616302 120.0
70.622505 112.0
70.645554 276.0
70.662163 128.0
70.688972 200.0
70.715874 184.0
70.727303 176.0
70.753487 96.0
70.77092 264.0
70.784004 136.0
70.817253 200.0
70.877167 168.0
70.899963 152.0
70.924736 160.0
70.968323 108.0
71.011528 140.0
71.034462 116.0
71.049927 164.0
71.077499 156.0
71.102272 84.0
71.117416 164.0
71.136383 272.0
71.170395 440.0
71.204681 152.0
71.219345 296.0
71.239952 152.0
71.256432 124.0
71.276917 120.0
71.295403 40.0
71.307167 152.0
71.327675 256.0
71.347878 164.0
71.381134 128.0
71.398544 136.0
71.405602 204.0
71.410019 248.0
71.453461 140.0
71.478699 160.0
71.497498 208.0
71.538689 196.0
71.549721 220.0
71.602745 188.0
71.636848 124.0
71.683632 140.0
71.709908 272.0
71.732643 152.0
71.738564 136.0
71.748627 288.0
71.788643 96.0
71.804718 176.0
71.819771 324.0
71.852509 144.0
71.874672 196.0
71.908424 140.0
71.93615 368.0
71.965027 212.0
71.99453 200.0
72.030022 164.0
72.044785 180.0
72.047531 136.0
72.077301 128.0
72.151665 96.0
72.173645 52.0
72.206116 180.0
72.221535 100.0
72.23584 212.0
72.258209 52.0
72.275131 96.0
72.289368 136.0
72.324776 144.0
72.4123 148.0
72.464767 164.0
72.480011 124.0
72.495262 56.0
72.511642 348.0
72.535873 200.0
72.556503 152.0
72.567635 316.0
72.58844 220.0
72.601326 192.0
72.630898 228.0
72.646164 48.0
72.671608 156.0
72.690277 288.0
72.709595 168.0
72.745049 80.0
72.764961 132.0
72.797157 112.0
72.809975 212.0
72.837509 232.0
72.863464 44.0
72.877052 136.0
72.909111 180.0
72.931435 200.0
72.955231 140.0
72.963654 84.0
72.969482 136.0
72.985878 152.0
73.001137 160.0
73.018013 208.0
73.03273 376.0
73.047058 160.0
73.081085 148.0
73.102783 184.0
73.130432 128.0
73.163506 216.0
73.195129 136.0
73.210121 124.0
73.23259 192.0
73.252441 196.0
73.276184 88.0
73.320709 172.0
73.34053 264.0
73.35527 168.0
73.379036 252.0
73.409416 148.0
73.419937 52.0
73.426125 108.0
73.455879 124.0
73.469528 148.0
73.483177 180.0
73.495522 152.0
73.508347 476.0
73.556557 256.0
73.571922 108.0
73.610756 140.0
73.656738 156.0
73.678726 164.0
73.700012 164.0
73.747719 116.0
73.765923 476.0
73.787178 160.0
73.814919 240.0
73.845795 192.0
73.859001 144.0
73.894928 36.0
73.908798 220.0
73.954384 196.0
74.000427 200.0
74.004234 60.0
74.036407 304.0
74.047333 128.0
74.078613 176.0
74.111717 272.0
74.127693 140.0
74.154396 168.0
74.168922 128.0
74.184349 216.0
74.216927 228.0
74.236427 148.0
74.272903 336.0
74.288445 292.0
74.31958 268.0
74.33197 168.0
74.344574 96.0
74.35891 224.0
74.404869 236.0
74.43145 160.0
74.461105 160.0
74.479492 140.0
74.490593 112.0
74.506981 356.0
74.523315 268.0
74.540794 200.0
74.546448 136.0
74.550461 196.0
74.573997 36.0
74.591179 136.0
74.621094 120.0
74.647919 120.0
74.667671 148.0
74.682716 224.0
74.710754 344.0
74.736076 64.0
74.750282 260.0
74.770058 260.0
74.795723 208.0
74.832855 324.0
74.856926 312.0
74.886826 68.0
74.922134 312.0
74.946945 144.0
74.96994 200.0
74.985336 156.0
75.040497 208.0
75.057968 180.0
75.080162 208.0
75.110298 124.0
75.122612 120.0
75.14772 168.0
75.173729 144.0
75.204376 140.0
75.234444 196.0
75.26297 160.0
75.307487 172.0
75.328697 164.0
75.347702 160.0
75.361526 128.0
75.392632 104.0
75.415092 88.0
75.427193 56.0
75.444481 176.0
75.467003 180.0
75.489433 52.0
75.529213 236.0
75.546509 84.0
75.572464 48.0
75.62381 224.0
75.640915 180.0
75.670357 144.0
75.678001 316.0
75.682053 204.0
75.69976 236.0
75.716507 132.0
75.73288 136.0
75.758614 176.0
75.772003 112.0
75.791069 172.0
75.802757 200.0
75.840363 116.0
75.844803 188.0
75.87632 172.0
75.922867 164.0
75.934395 136.0
75.955322 112.0
75.967461 396.0
76.00779 196.0
76.030334 204.0
76.03701 200.0
76.061943 140.0
76.081795 68.0
76.101761 52.0
76.121933 104.0
76.163033 228.0
76.191406 132.0
76.204338 140.0
76.231369 120.0
76.243858 216.0
76.264046 200.0
76.283508 216.0
76.300835 216.0
76.317245 316.0
76.360016 360.0
76.374245 152.0
76.440132 224.0
76.459183 136.0
76.480171 204.0
76.50618 180.0
76.56266 192.0
76.57579 216.0
76.601028 120.0
76.624474 164.0
76.655968 248.0
76.669731 196.0
76.713104 92.0
76.719482 72.0
76.729836 156.0
76.741997 144.0
76.753578 176.0
76.771019 100.0
76.784973 104.0
76.801636 224.0
76.81517 276.0
76.856857 208.0
76.870453 192.0
76.911484 156.0
76.923683 192.0
76.937416 156.0
76.962555 144.0
76.974121 184.0
77.041557 172.0
77.066017 132.0
77.084305 180.0
77.112152 180.0
77.139565 140.0
77.163887 168.0
77.186623 180.0
77.198387 176.0
77.217224 328.0
77.224579 164.0
77.229317 280.0
77.25975 160.0
77.292656 340.0
77.34343 140.0
77.373833 196.0
77.387733 132.0
77.40535 208.0
77.432159 180.0
77.452888 184.0
77.471275 268.0
77.508209 348.0
77.521393 212.0
77.548286 176.0
77.560654 148.0
77.574989 208.0
77.587029 180.0
77.612755 196.0
77.631401 48.0
77.650688 256.0
77.669083 136.0
77.687523 116.0
77.709068 180.0
77.722618 180.0
77.73925 164.0
77.752449 48.0
77.768242 96.0
77.80249 376.0
77.829956 284.0
77.853821 268.0
77.877098 136.0
77.947372 188.0
77.977249 144.0
77.993874 156.0
78.050819 216.0
78.073936 120.0
78.103722 72.0
78.126709 124.0
78.151337 84.0
78.170807 124.0
78.20237 84.0
78.240234 128.0
78.256943 252.0
78.276459 288.0
78.299202 156.0
78.318581 168.0
78.33091 68.0
78.378189 148.0
78.389503 108.0
78.427818 192.0
78.44368 120.0
78.456024 168.0
78.474686 96.0
78.495834 228.0
78.518402 224.0
78.540321 144.0
78.595032 132.0
78.614761 148.0
78.631424 148.0
78.667175 224.0
78.682991 184.0
78.703026 184.0
78.721405 280.0
78.747169 228.0
78.780304 148.0
78.795959 188.0
78.808998 64.0
78.837563 172.0
78.870277 160.0
78.905846 176.0
78.924881 240.0
78.939384 272.0
78.95948 188.0
78.982857 116.0
78.996574 160.0
79.018303 200.0
79.045052 264.0
79.084007 156.0
79.116714 388.0
79.148827 156.0
79.164543 304.0
79.176933 88.0
79.225845 160.0
79.238007 92.0
79.257652 348.0
79.270432 144.0
79.273911 92.0
79.283234 212.0
79.349907 108.0
79.368317 328.0
79.383339 128.0
79.390778 204.0
79.396133 64.0
79.421524 152.0
79.440765 132.0
79.460548 100.0
79.477135 92.0
79.502838 144.0
79.518806 156.0
79.545242 132.0
79.585396 140.0
79.602173 228.0
79.638062 164.0
79.664703 148.0
79.70192 152.0
79.736778 100.0
79.762444 100.0
79.776657 140.0
79.81044 176.0
79.837112 144.0
79.864357 176.0
79.87735 148.0
79.882202 80.0
79.922165 172.0
79.945633 176.0
79.964401 216.0
79.978043 152.0
79.991905 56.0
80.033546 164.0
80.055405 240.0
80.072868 200.0
80.099632 128.0
80.102921 208.0
80.11834 140.0
80.155029 272.0
80.182487 104.0
80.2033 112.0
80.225266 92.0
80.241615 164.0
80.270706 152.0
80.312637 132.0
80.337616 196.0
80.393517 156.0
80.425049 128.0
80.456543 280.0
80.486359 340.0
80.507339 164.0
80.537537 132.0
80.555397 48.0
80.573586 156.0
80.579124 128.0
80.624924 324.0
80.677467 172.0
80.697472 116.0
80.715858 148.0
80.737709 116.0
80.763046 120.0
80.792259 208.0
80.809807 208.0
80.846832 144.0
80.864731 188.0
80.886551 208.0
80.915871 148.0
80.945641 144.0
80.979317 144.0
80.997665 180.0
81.00927 160.0
81.027679 176.0
81.046577 236.0
81.086815 224.0
81.121422 104.0
81.147758 164.0
81.184853 140.0
81.209122 236.0
81.224152 168.0
81.255096 160.0
81.258743 108.0
81.281708 88.0
81.307404 72.0
81.329628 336.0
81.342278 224.0
81.368431 144.0
81.381004 144.0
81.396332 112.0
81.413727 160.0
81.434982 164.0
81.460022 108.0
81.505875 204.0
81.522903 124.0
81.542671 336.0
81.597397 120.0
81.630867 68.0
81.64695 152.0
81.674026 184.0
81.697311 120.0
81.711823 124.0
81.738693 296.0
81.770622 140.0
81.778145 104.0
81.782097 132.0
81.799591 148.0
81.82457 212.0
81.843315 152.0
81.875618 372.0
81.895836 208.0
81.913872 252.0
81.932243 116.0
81.951157 204.0
81.971123 228.0
82.003418 128.0
82.091705 144.0
82.105438 232.0
82.131691 196.0
82.139839 188.0
82.147392 132.0
82.151665 168.0
82.184761 128.0
82.204834 372.0
82.225479 320.0
82.27224 216.0
82.28878 104.0
82.335381 56.0
82.355446 36.0
82.380852 160.0
82.404022 300.0
82.429314 216.0
82.443771 144.0
82.46212 80.0
82.506714 204.0
82.52906 204.0
82.546814 92.0
82.583611 228.0
82.624115 168.0
82.644493 168.0
82.661621 160.0
82.690506 140.0
82.765717 220.0
82.792 196.0
82.810326 164.0
82.827332 120.0
82.843521 444.0
82.861725 424.0
82.879494 96.0
82.908325 184.0
82.960701 240.0
82.977936 112.0
83.006462 172.0
83.037582 228.0
83.053078 148.0
83.092003 212.0
83.113777 108.0
83.140648 168.0
83.171852 148.0
83.188187 156.0
83.215416 296.0
83.254913 96.0
83.26989 140.0
83.295319 236.0
83.307526 128.0
83.349663 272.0
83.379951 164.0
83.41172 68.0
83.43821 236.0
83.474342 112.0
83.496407 112.0
83.52018 132.0
83.560966 280.0
83.580856 140.0
83.606224 212.0
83.620628 184.0
83.641693 164.0
83.667427 160.0
83.731842 88.0
83.748238 140.0
83.801064 136.0
83.854599 164.0
83.917709 84.0
83.952354 228.0
83.967972 168.0
83.984314 160.0
83.997948 32.0
84.011185 292.0
84.055031 136.0
84.071579 112.0
84.150032 168.0
84.167496 160.0
84.173309 144.0
84.178886 172.0
84.216309 332.0
84.252396 192.0
84.26918 128.0
84.288231 200.0
84.30468 184.0
84.319298 128.0
84.350548 204.0
84.369705 248.0
84.401947 132.0
84.422256 228.0
84.448257 164.0
84.479019 68.0
84.493011 212.0
84.535095 112.0
84.558884 188.0
84.57518 292.0
84.584641 168.0
84.608307 140.0
84.628868 208.0
84.651459 188.0
84.685989 104.0
84.705055 164.0
84.757126 212.0
84.789642 176.0
84.807976 52.0
84.846748 132.0
84.874481 152.0
84.894196 128.0
84.928619 136.0
84.954666 300.0
84.974846 136.0
84.999229 248.0
85.018883 164.0
85.040207 152.0
85.07093 80.0
85.100456 132.0
85.115219 156.0
85.136223 148.0
85.169434 96.0
85.195526 248.0
85.230057 152.0
85.262611 84.0
85.298058 248.0
85.321297 312.0
85.337906 124.0
85.356888 92.0
85.398239 140.0
85.413902 104.0
85.426781 120.0
85.446907 136.0
85.463158 176.0
85.466713 136.0
85.487862 200.0
85.511421 168.0
85.527985 172.0
85.555496 148.0
85.583214 80.0
85.605988 184.0
85.660561 236.0
85.689949 164.0
85.705437 116.0
85.712967 108.0
85.718712 248.0
85.732414 160.0
85.749001 80.0
85.768456 168.0
85.788498 188.0
85.815361 136.0
85.840157 200.0
85.857567 108.0
85.876884 144.0
85.904633 148.0
85.971382 168.0
86.005997 180.0
86.020142 240.0
86.033066 120.0
86.057777 196.0
86.076523 108.0
86.094673 124.0
86.100967 144.0
86.105881 360.0
86.123543 124.0
86.148727 208.0
86.185364 172.0
86.208527 72.0
86.22863 144.0
86.244087 116.0
86.275894 340.0
86.32225 148.0
86.347183 128.0
86.374817 140.0
86.381989 132.0
86.435974 104.0
86.455551 176.0
86.480156 128.0
86.522964 184.0
86.547035 124.0
86.564972 180.0
86.598686 112.0
86.603989 148.0
86.637077 176.0
86.676697 68.0
86.689667 56.0
86.710854 148.0
86.734444 148.0
86.756386 148.0
86.769363 168.0
86.790901 192.0
86.810158 168.0
86.834267 176.0
86.874023 152.0
86.887337 120.0
86.932594 140.0
86.95356 188.0
87.00312 96.0
87.016899 208.0
87.032829 128.0
87.053253 116.0
87.081573 160.0
87.105728 164.0
87.138443 148.0
87.145607 128.0
87.1716 228.0
87.196297 192.0
87.216743 36.0
87.232697 200.0
87.245628 160.0
87.267281 260.0
87.289307 204.0
87.317947 136.0
87.366432 184.0
87.380386 328.0
87.402344 60.0
87.414925 176.0
87.451225 184.0
87.473587 152.0
87.491325 92.0
87.508804 200.0
87.525261 244.0
87.531586 204.0
87.5681 168.0
87.587593 340.0
87.606819 108.0
87.63295 184.0
87.647911 380.0
87.670456 328.0
87.688797 340.0
87.719322 156.0
87.73983 300.0
87.770241 116.0
87.803391 176.0
87.838661 144.0
87.86277 264.0
87.8965 204.0
87.914131 160.0
87.937065 168.0
87.9627 136.0
87.987953 180.0
88.001022 84.0
88.022842 128.0
88.038368 36.0
88.060776 120.0
88.074585 192.0
88.114311 176.0
88.135162 176.0
88.154541 168.0
88.180832 128.0
88.197174 180.0
88.221474 84.0
88.246262 184.0
88.272408 364.0
88.303802 284.0
88.33963 304.0
88.357704 104.0
88.360504 140.0
88.369576 168.0
88.403938 160.0
88.439125 196.0
88.458244 84.0
88.488029 200.0
88.507324 280.0
88.523308 124.0
88.537148 140.0
88.588257 128.0
88.606987 152.0
88.628609 104.0
88.640717 188.0
88.655708 140.0
88.678688 168.0
88.71006 300.0
88.753181 116.0
88.766304 208.0
88.781311 128.0
88.849991 156.0
88.890999 152.0
88.930267 104.0
88.949287 136.0
88.972496 168.0
88.998978 308.0
89.027657 164.0
89.052399 160.0
89.195175 176.0
89.22628 200.0
89.255775 180.0
89.295494 76.0
89.333511 80.0
89.347641 156.0
89.367584 216.0
89.387093 192.0
89.411346 228.0
89.41938 276.0
89.474403 236.0
89.507713 200.0
89.52977 200.0
89.550095 124.0
89.567825 176.0
89.587692 172.0
89.601189 148.0
89.637886 168.0
89.661133 188.0
89.687737 336.0
89.725746 276.0
89.742188 160.0
89.783226 348.0
89.803879 212.0
89.83271 228.0
89.858398 220.0
89.899025 108.0
89.926376 200.0
89.939705 176.0
89.961029 120.0
89.976135 112.0
90.004074 100.0
90.028481 212.0
90.083778 212.0
90.106445 112.0
90.125336 72.0
90.14296 184.0
90.172974 136.0
90.197151 96.0
90.216904 160.0
90.23909 160.0
90.263268 132.0
90.277542 160.0
90.304413 400.0
90.339966 128.0
90.37281 240.0
90.395737 148.0
90.414459 76.0
90.41935 100.0
90.432037 152.0
90.460083 220.0
90.479065 148.0
90.49984 156.0
90.524193 228.0
90.564224 92.0
90.593262 196.0
90.666481 148.0
90.67157 164.0
90.677658 92.0
90.705818 160.0
90.73764 140.0
90.804932 148.0
90.82769 164.0
90.880989 252.0
90.911171 140.0
90.940926 92.0
90.960518 360.0
90.989456 196.0
91.015968 184.0
91.043327 184.0
91.059456 144.0
91.088745 108.0
91.122673 144.0
91.18158 176.0
91.258781 148.0
91.281868 224.0
91.314117 120.0
91.336525 136.0
91.354134 148.0
91.399529 124.0
91.434494 128.0
91.460785 212.0
91.479462 140.0
91.500206 212.0
91.520683 240.0
91.54039 116.0
91.568443 192.0
91.594482 184.0
91.60778 396.0
91.657181 320.0
91.685173 116.0
91.732025 344.0
91.75885 104.0
91.774269 124.0
91.798668 256.0
91.837692 216.0
91.854858 148.0
91.887711 236.0
91.894791 116.0
91.902351 184.0
91.923546 108.0
91.947586 292.0
91.953522 212.0
91.960243 368.0
91.992249 120.0
92.048515 224.0
92.068871 180.0
92.0839 88.0
92.137932 264.0
92.166206 140.0
92.186188 160.0
92.211906 112.0
92.225288 144.0
92.241135 152.0
92.280312 184.0
92.301758 132.0
92.330444 60.0
92.349442 120.0
92.353943 112.0
92.361549 152.0
92.376343 152.0
92.418213 136.0
92.437569 144.0
92.460533 304.0
92.477219 212.0
92.491287 288.0
92.508705 308.0
92.535065 128.0
92.56308 180.0
92.569954 152.0
92.57473 232.0
92.594139 112.0
92.615334 136.0
92.676918 192.0
92.697998 124.0
92.721397 152.0
92.757408 148.0
92.778946 136.0
92.792458 352.0
92.820587 172.0
92.841354 220.0
92.864853 216.0
92.905861 156.0
92.946632 168.0
92.972221 192.0
92.987572 140.0
93.004845 136.0
93.047577 292.0
93.06942 176.0
93.116547 204.0
93.141174 132.0
93.164856 212.0
93.229553 164.0
93.252617 176.0
93.271538 156.0
93.321823 196.0
93.364143 252.0
93.410286 152.0
93.433762 388.0
93.448532 136.0
93.487244 108.0
93.541466 164.0
93.556534 220.0
93.589615 236.0
93.624855 148.0
93.656273 156.0
93.672073 180.0
93.695869 320.0
93.720001 128.0
93.727493 120.0
93.778915 168.0
93.81765 208.0
93.844879 240.0
93.899513 108.0
93.947739 144.0
93.979378 200.0
94.024101 144.0
94.061043 128.0
94.066368 168.0
94.129349 416.0
94.154266 132.0
94.174179 168.0
94.204994 144.0
94.212585 124.0
94.219215 148.0
94.248573 156.0
94.277908 272.0
94.293365 152.0
94.320427 100.0
94.340599 140.0
94.355225 176.0
94.39209 120.0
94.428703 372.0
94.465454 244.0
94.506081 124.0
94.529045 144.0
94.543793 228.0
94.580528 204.0
94.586311 96.0
94.59388 152.0
94.623589 176.0
94.650681 192.0
94.68261 184.0
94.705124 164.0
94.715652 204.0
94.739937 172.0
94.757774 296.0
94.782776 164.0
94.817841 152.0
94.84304 180.0
94.863091 140.0
94.909416 84.0
94.924469 148.0
94.944481 168.0
94.959763 224.0
94.976204 284.0
95.030266 18656.0
95.064308 252.0
95.087112 152.0
95.117493 184.0
95.151855 208.0
95.182915 192.0
95.199081 60.0
95.226387 120.0
95.241417 228.0
95.274055 168.0
95.286186 144.0
95.304916 160.0
95.35054 148.0
95.364067 152.0
95.392365 108.0
95.425415 96.0
95.446556 280.0
95.471329 180.0
95.485039 188.0
95.51487 100.0
95.53627 48.0
95.555466 212.0
95.570457 168.0
95.589447 180.0
95.606316 140.0
95.619942 204.0
95.658867 144.0
95.682045 128.0
95.714333 212.0
95.74054 248.0
95.762115 144.0
95.799072 168.0
95.831802 120.0
95.849319 132.0
95.881828 228.0
95.916382 180.0
95.946548 184.0
95.969215 160.0
95.99118 140.0
96.008339 284.0
96.033836 1640.0
96.060287 128.0
96.081161 120.0
96.095573 136.0
96.131752 168.0
96.139038 144.0
96.153488 268.0
96.170166 64.0
96.183723 160.0
96.216408 156.0
96.251633 96.0
96.280342 172.0
96.305176 208.0
96.313393 96.0
96.327972 168.0
96.35421 224.0
96.37336 132.0
96.405869 72.0
96.419548 148.0
96.449738 108.0
96.467323 288.0
96.487877 176.0
96.495644 136.0
96.498596 300.0
96.518372 180.0
96.531693 160.0
96.564537 148.0
96.598579 160.0
96.644707 28.0
96.674232 156.0
96.679871 72.0
96.686615 164.0
96.705368 140.0
96.720749 120.0
96.747429 184.0
96.768311 324.0
96.789268 180.0
96.810486 96.0
96.817146 120.0
96.824837 152.0
96.853897 184.0
96.883324 184.0
96.913673 204.0
96.927597 116.0
96.96833 228.0
96.99498 136.0
97.008698 120.0
97.021843 68.0
97.033844 276.0
97.055809 92.0
97.080933 304.0
97.096489 160.0
97.101799 308.0
97.141701 136.0
97.151154 124.0
97.164116 364.0
97.214638 100.0
97.233215 112.0
97.251045 116.0
97.263702 192.0
97.278625 80.0
97.293152 100.0
97.315598 120.0
97.337189 264.0
97.349014 184.0
97.378349 188.0
97.398933 184.0
97.437759 120.0
97.462051 72.0
97.491035 96.0
97.512863 280.0
97.561569 264.0
97.579506 164.0
97.602592 152.0
97.61734 240.0
97.647858 192.0
97.671196 260.0
97.688148 144.0
97.713722 100.0
97.741264 140.0
97.780624 136.0
97.797546 96.0
97.814911 152.0
97.833313 196.0
97.894806 100.0
97.914497 92.0
97.928284 284.0
97.965706 28.0
97.988083 112.0
98.015762 480.0
98.044693 92.0
98.071167 224.0
98.096519 304.0
98.151154 132.0
98.177803 204.0
98.191093 104.0
98.230827 132.0
98.250298 232.0
98.277206 172.0
98.302856 116.0
98.316673 236.0
98.336411 92.0
98.357201 180.0
98.397598 124.0
98.413651 156.0
98.478561 40.0
98.501221 308.0
98.548561 276.0
98.577339 536.0
98.604042 212.0
98.629837 164.0
98.658379 188.0
98.675476 296.0
98.709785 148.0
98.741425 236.0
98.763176 128.0
98.800873 148.0
98.824509 200.0
98.861031 128.0
98.897728 160.0
98.922844 164.0
98.962593 172.0
99.004639 116.0
99.025398 1780.0
99.068977 240.0
99.087585 164.0
99.109619 128.0
99.13028 132.0
99.1567 148.0
99.181831 180.0
99.20079 184.0
99.227547 216.0
99.2509 144.0
99.315735 268.0
99.338066 164.0
99.375877 168.0
99.406487 232.0
99.424263 204.0
99.474777 272.0
99.49836 228.0
99.523056 200.0
99.53801 160.0
99.58374 112.0
99.625504 160.0
99.645325 144.0
99.725685 280.0
99.745453 332.0
99.799072 260.0
99.827133 196.0
99.867966 168.0
99.894447 204.0
99.911591 120.0
99.919052 336.0
99.955498 100.0
100.001266 108.0
100.031601 252.0
100.051033 76.0
100.066666 164.0
100.074806 140.0
100.07901 156.0
100.103676 100.0
100.127731 168.0
100.162209 216.0
100.199066 84.0
100.221916 140.0
100.252457 496.0
100.281097 160.0
100.311668 172.0
100.315376 144.0
100.32917 212.0
100.355858 120.0
100.377098 340.0
100.419418 160.0
100.465073 152.0
100.473251 176.0
100.477386 128.0
100.491989 252.0
100.537376 188.0
100.571953 160.0
100.586151 164.0
100.607422 300.0
100.621773 128.0
100.651161 140.0
100.669128 88.0
100.712204 120.0
100.742363 156.0
100.77243 212.0
100.790977 152.0
100.814178 216.0
100.84433 92.0
100.864922 120.0
100.892906 48.0
100.912903 176.0
100.94339 252.0
100.990273 116.0
101.010254 112.0
101.022133 200.0
101.04248 172.0
101.078766 104.0
101.106934 112.0
101.128204 204.0
101.148628 48.0
101.164024 84.0
101.195961 88.0
101.243065 136.0
101.265091 108.0
101.292023 108.0
101.305153 152.0
101.332672 464.0
101.349228 160.0
101.370705 240.0
101.405571 104.0
101.447433 224.0
101.465477 148.0
101.491539 116.0
101.513794 124.0
101.533653 32.0
101.561958 176.0
101.582283 148.0
101.605095 168.0
101.645081 200.0
101.66806 136.0
101.681381 176.0
101.711494 156.0
101.730286 124.0
101.749763 228.0
101.802567 196.0
101.822647 156.0
101.836205 112.0
101.859688 160.0
101.882072 96.0
101.917465 200.0
101.952827 360.0
101.973328 152.0
101.987396 224.0
102.016418 320.0
102.03363 116.0
102.051376 160.0
102.078133 152.0
102.093956 68.0
102.124466 168.0
102.177216 212.0
102.20459 284.0
102.226631 180.0
102.281425 112.0
102.305611 124.0
102.348274 124.0
102.375305 168.0
102.414452 224.0
102.454826 128.0
102.501823 156.0
102.520737 52.0
102.538689 124.0
102.566833 160.0
102.570419 92.0
102.596092 152.0
102.621178 404.0
102.639664 132.0
102.665878 196.0
102.699165 192.0
102.714287 140.0
102.732742 132.0
102.748344 104.0
102.815163 172.0
102.845436 132.0
102.868324 224.0
102.872528 76.0
102.88092 180.0
102.89682 88.0
102.938721 188.0
102.974762 152.0
102.994141 192.0
103.013031 188.0
103.033585 164.0
103.061874 184.0
103.097809 196.0
103.144379 148.0
103.167542 140.0
103.21241 200.0
103.256783 148.0
103.282776 224.0
103.307564 200.0
103.326378 96.0
103.352684 252.0
103.39315 124.0
103.440605 160.0
103.49913 204.0
103.520691 116.0
103.534866 196.0
103.557144 160.0
103.589241 132.0
103.614937 248.0
103.639153 256.0
103.663246 96.0
103.670425 96.0
103.67588 244.0
103.692886 68.0
103.713158 192.0
103.73613 104.0
103.749641 132.0
103.798164 60.0
103.805679 88.0
103.810959 116.0
103.829369 176.0
103.855431 188.0
103.879478 176.0
103.908569 120.0
103.924255 124.0
103.94841 312.0
103.964867 108.0
103.986969 168.0
104.026581 124.0
104.05043 224.0
104.093285 132.0
104.129089 64.0
104.145332 68.0
104.161583 196.0
104.204178 352.0
104.210121 148.0
104.217255 336.0
104.244881 124.0
104.271301 32.0
104.28553 28.0
104.312477 216.0
104.346642 124.0
104.37294 124.0
104.408173 160.0
104.435783 284.0
104.460396 52.0
104.48259 348.0
104.507309 132.0
104.543816 48.0
104.572662 136.0
104.649963 160.0
104.673431 148.0
104.698532 120.0
104.735191 120.0
104.7509 152.0
104.77652 180.0
104.807938 192.0
104.845909 100.0
104.892769 132.0
104.917053 232.0
104.937691 140.0
104.965744 124.0
104.999588 260.0
105.021675 328.0
105.0457 392.0
105.070679 320.0
105.118469 240.0
105.165413 124.0
105.183777 252.0
105.215782 136.0
105.230637 164.0
105.247269 164.0
105.270874 212.0
105.345268 160.0
105.362518 204.0
105.395065 96.0
105.414566 132.0
105.430565 140.0
105.48201 180.0
105.508949 156.0
105.536636 172.0
105.554855 228.0
105.566467 116.0
105.645599 144.0
105.660637 160.0
105.705612 168.0
105.718307 112.0
105.77861 156.0
105.81546 136.0
105.833885 124.0
105.854729 68.0
105.898415 172.0
105.91922 164.0
105.946533 100.0
105.979309 128.0
106.007996 164.0
106.022858 476.0
106.06765 1012.0
106.098335 316.0
106.14547 128.0
106.17289 136.0
106.228271 128.0
106.287575 188.0
106.30825 144.0
106.34153 172.0
106.391266 176.0
106.405457 432.0
106.43261 144.0
106.457039 116.0
106.475845 148.0
106.506538 180.0
106.525024 196.0
106.562744 344.0
106.590767 184.0
106.627113 508.0
106.662697 76.0
106.679146 80.0
106.730423 136.0
106.763443 64.0
106.79055 112.0
106.833374 100.0
106.851891 216.0
106.88842 148.0
106.91156 200.0
106.936256 156.0
106.976707 252.0
107.004921 192.0
107.051086 652.0
107.07338 180.0
107.090675 216.0
107.105095 60.0
107.129601 156.0
107.155136 164.0
107.200417 120.0
107.240425 100.0
107.288109 172.0
107.336395 136.0
107.386314 108.0
107.410988 140.0
107.45652 228.0
107.474113 236.0
107.498871 272.0
107.517448 288.0
107.581528 176.0
107.64492 128.0
107.670601 320.0
107.714897 220.0
107.750305 228.0
107.755661 188.0
107.779701 144.0
107.816589 108.0
107.84153 148.0
107.889275 220.0
107.896561 196.0
107.90403 288.0
107.922539 152.0
107.939713 116.0
108.039513 168.0
108.072098 116.0
108.09745 272.0
108.14518 184.0
108.158783 132.0
108.17289 344.0
108.207542 168.0
108.249252 212.0
108.27327 100.0
108.291725 188.0
108.319664 188.0
108.335442 176.0
108.353638 184.0
108.385643 164.0
108.417091 192.0
108.426575 120.0
108.450203 116.0
108.4813 168.0
108.514923 220.0
108.533127 132.0
108.558014 168.0
108.602806 144.0
108.624382 44.0
108.655495 64.0
108.679504 140.0
108.692841 184.0
108.721893 228.0
108.76548 152.0
108.780014 64.0
108.798691 108.0
108.867546 148.0
108.903984 176.0
108.934715 216.0
108.964836 100.0
108.995529 228.0
109.042877 212.0
109.064621 228.0
109.070236 128.0
109.079353 192.0
109.116554 188.0
109.17778 144.0
109.195572 176.0
109.212212 72.0
109.234779 240.0
109.262131 72.0
109.314796 232.0
109.329567 324.0
109.386833 208.0
109.411972 40.0
109.426544 60.0
109.448708 168.0
109.465172 116.0
109.478188 40.0
109.488586 136.0
109.514008 184.0
109.539856 372.0
109.586472 240.0
109.640671 176.0
109.679657 152.0
109.69529 96.0
109.739067 244.0
109.761696 204.0
109.787025 112.0
109.81414 192.0
109.829826 192.0
109.857071 192.0
109.878799 60.0
109.912537 144.0
109.933052 120.0
109.978294 124.0
110.019737 332.0
110.038933 380.0
110.073723 116.0
110.109093 196.0
110.126221 128.0
110.146011 128.0
110.18158 148.0
110.216759 120.0
110.240028 96.0
110.280937 132.0
110.285599 104.0
110.319725 120.0
110.344467 120.0
110.367531 108.0
110.403763 196.0
110.445152 140.0
110.463737 136.0
110.490776 216.0
110.508797 156.0
110.530144 140.0
110.544228 148.0
110.552231 108.0
110.560921 196.0
110.579781 200.0
110.63533 188.0
110.660454 116.0
110.676125 288.0
110.700935 132.0
110.733589 52.0
110.749115 260.0
110.767258 116.0
110.794083 196.0
110.819633 160.0
110.851631 132.0
110.884872 120.0
110.900398 200.0
110.924416 136.0
110.9804 148.0
111.024345 556.0
111.052322 84.0
111.079384 124.0
111.102089 176.0
111.127838 172.0
111.170998 148.0
111.216431 160.0
111.245361 220.0
111.281052 72.0
111.297852 64.0
111.319641 224.0
111.339851 80.0
111.373451 88.0
111.407059 172.0
111.430168 136.0
111.448441 128.0
111.466759 164.0
111.491043 124.0
111.499428 196.0
111.537346 312.0
111.552063 184.0
111.585693 212.0
111.637329 100.0
111.652832 164.0
111.658127 152.0
111.670914 320.0
111.711266 152.0
111.737511 172.0
111.789566 300.0
111.805969 156.0
111.829521 136.0
111.873192 140.0
111.904739 320.0
111.937073 176.0
111.971664 104.0
111.993004 96.0
112.028297 128.0
112.054756 156.0
112.08242 224.0
112.097725 184.0
112.128777 224.0
112.162079 184.0
112.216904 180.0
112.280632 136.0
112.321083 136.0
112.35463 252.0
112.377426 188.0
112.405037 120.0
112.43705 168.0
112.480453 144.0
112.544296 164.0
112.599823 236.0
112.609535 92.0
112.614037 216.0
112.663811 212.0
112.713692 220.0
112.757401 160.0
112.790077 156.0
112.810081 184.0
112.874298 180.0
112.912033 124.0
112.938431 100.0
112.979202 180.0
113.000542 144.0
113.017929 136.0
113.040512 2196.0
113.09864 88.0
113.117271 168.0
113.132088 144.0
113.159615 52.0
113.210495 124.0
113.231606 104.0
113.263214 228.0
113.291084 152.0
113.322693 108.0
113.34388 96.0
113.366753 368.0
113.389351 272.0
113.408653 156.0
113.432892 164.0
113.463783 140.0
113.47953 92.0
113.494743 252.0
113.519821 200.0
113.547501 236.0
113.582932 164.0
113.639313 288.0
113.663124 180.0
113.691055 156.0
113.699532 112.0
113.707977 144.0
113.773766 128.0
113.793541 340.0
113.845779 332.0
113.874229 136.0
113.899719 92.0
113.916283 140.0
113.935829 164.0
113.95443 196.0
114.001411 176.0
114.042854 424.0
114.080589 168.0
114.103722 156.0
114.133026 128.0
114.170952 220.0
114.210045 108.0
114.238426 152.0
114.271736 156.0
114.299515 364.0
114.330338 52.0
114.359802 220.0
114.39724 144.0
114.426781 156.0
114.44371 152.0
114.508018 324.0
114.530685 156.0
114.538864 208.0
114.599854 108.0
114.625885 160.0
114.643196 124.0
114.677124 212.0
114.709015 180.0
114.744461 204.0
114.759293 332.0
114.804062 136.0
114.807648 136.0
114.859703 112.0
114.882294 204.0
114.901337 224.0
114.92894 168.0
114.976517 96.0
115.002129 144.0
115.04007 160.0
115.046265 84.0
115.052979 196.0
115.072266 200.0
115.09684 208.0
115.135773 208.0
115.144455 136.0
115.173477 180.0
115.203377 92.0
115.229103 284.0
115.244987 168.0
115.261063 192.0
115.283585 152.0
115.303802 132.0
115.32653 248.0
115.378616 156.0
115.398674 136.0
115.439499 184.0
115.459839 160.0
115.476982 136.0
115.511414 160.0
115.529762 84.0
115.551849 160.0
115.587563 260.0
115.603203 228.0
115.619606 160.0
115.646004 88.0
115.684616 296.0
115.758194 188.0
115.790062 112.0
115.815147 64.0
115.836823 136.0
115.887985 160.0
115.908607 212.0
115.930626 120.0
115.946236 132.0
115.971466 184.0
116.018723 168.0
116.04847 132.0
116.065887 108.0
116.086456 128.0
116.102921 104.0
116.130226 180.0
116.154381 172.0
116.199097 328.0
116.236107 168.0
116.240509 88.0
116.260925 104.0
116.269226 96.0
116.301872 124.0
116.336212 96.0
116.357437 168.0
116.383926 144.0
116.414909 196.0
116.436722 84.0
116.471825 184.0
116.513603 80.0
116.532455 180.0
116.568573 108.0
116.594818 160.0
116.614548 76.0
116.670036 184.0
116.707085 144.0
116.739136 256.0
116.761154 184.0
116.790329 168.0
116.838097 540.0
116.877815 72.0
116.900635 128.0
116.93866 204.0
116.946938 100.0
116.955208 216.0
116.974182 128.0
116.992958 152.0
117.058929 292.0
117.108154 176.0
117.136971 220.0
117.16201 176.0
117.187866 92.0
117.209915 136.0
117.237587 104.0
117.261383 140.0
117.289146 260.0
117.336571 184.0
117.373024 172.0
117.402229 116.0
117.478279 132.0
117.49601 208.0
117.526466 176.0
117.560898 192.0
117.583435 144.0
117.589523 196.0
117.611252 72.0
117.638596 300.0
117.690407 104.0
117.713921 108.0
117.803917 308.0
117.849503 504.0
117.871788 136.0
117.87886 244.0
117.890327 80.0
117.897812 288.0
117.958435 124.0
117.980927 120.0
117.998108 96.0
118.019279 168.0
118.050667 144.0
118.06546 724.0
118.085869 136.0
118.109314 176.0
118.128723 172.0
118.145248 224.0
118.162407 188.0
118.183762 308.0
118.204582 128.0
118.235146 304.0
118.26545 84.0
118.309006 396.0
118.346542 112.0
118.372414 196.0
118.388855 120.0
118.419563 244.0
118.442261 164.0
118.465042 192.0
118.531876 92.0
118.550323 144.0
118.579498 164.0
118.594917 156.0
118.624222 120.0
118.64669 96.0
118.666206 120.0
118.683548 108.0
118.701447 220.0
118.732323 220.0
118.757019 208.0
118.803131 176.0
118.812279 148.0
118.856453 188.0
118.886368 136.0
118.919746 164.0
118.937172 128.0
118.967514 140.0
119.006897 160.0
119.030182 164.0
119.060966 6680.0
119.088577 128.0
119.113251 168.0
119.134079 68.0
119.17308 104.0
119.200958 228.0
119.243622 60.0
119.269836 128.0
119.325211 184.0
119.35788 164.0
119.377663 176.0
119.405319 224.0
119.414383 140.0
119.434952 136.0
119.478081 160.0
119.495865 96.0
119.531502 200.0
119.604668 48.0
119.630142 112.0
119.648209 132.0
119.673347 132.0
119.69175 132.0
119.727463 300.0
119.781044 156.0
119.80761 348.0
119.870285 100.0
119.874001 96.0
119.88987 312.0
119.906097 152.0
119.933571 40.0
119.95755 128.0
119.988068 120.0
120.007576 152.0
120.044624 816.0
120.06414 796.0
120.105827 164.0
120.137054 184.0
120.183372 128.0
120.217094 208.0
120.231232 92.0
120.271393 132.0
120.28685 104.0
120.292252 184.0
120.307167 404.0
120.343697 160.0
120.378853 156.0
120.400917 136.0
120.448967 136.0
120.477272 148.0
120.505318 152.0
120.568687 140.0
120.619217 168.0
120.632683 172.0
120.660149 128.0
120.668144 164.0
120.685951 260.0
120.736931 192.0
120.754517 148.0
120.77639 188.0
120.795433 96.0
120.815765 196.0
120.864952 108.0
120.906311 260.0
120.9282 160.0
120.969421 204.0
120.999596 60.0
121.015755 220.0
121.049011 308.0
121.07679 10264.0
121.114792 168.0
121.141945 236.0
121.163544 232.0
121.180046 180.0
121.208954 96.0
121.231644 140.0
121.244347 168.0
121.282181 96.0
121.30899 224.0
121.327759 116.0
121.335747 92.0
121.346298 64.0
121.379066 104.0
121.395287 108.0
121.420303 204.0
121.44809 120.0
121.466072 120.0
121.490921 164.0
121.525597 124.0
121.559853 144.0
121.584846 376.0
121.617218 160.0
121.643898 104.0
121.676201 336.0
121.692406 136.0
121.711014 236.0
121.751694 376.0
121.76664 216.0
121.789833 164.0
121.818352 156.0
121.878136 236.0
121.913643 172.0
121.933044 240.0
121.949844 164.0
121.980743 176.0
122.007439 172.0
122.040154 2912.0
122.061035 360.0
122.077873 1276.0
122.109917 128.0
122.126656 164.0
122.166153 152.0
122.180916 144.0
122.194305 132.0
122.205406 108.0
122.259926 240.0
122.279274 96.0
122.306747 324.0
122.338867 80.0
122.373985 148.0
122.393448 196.0
122.408279 104.0
122.413422 228.0
122.429214 48.0
122.463913 148.0
122.48085 216.0
122.506012 128.0
122.53598 264.0
122.567017 208.0
122.586708 132.0
122.623505 152.0
122.650497 424.0
122.662476 152.0
122.679947 228.0
122.697617 156.0
122.734604 512.0
122.765358 360.0
122.792236 144.0
122.816742 164.0
122.819504 412.0
122.841766 328.0
122.851616 372.0
122.863289 224.0
122.88855 332.0
122.926064 756.0
122.950851 536.0
122.969109 552.0
123.026756 234556.0
123.078949 232.0
123.108208 236.0
123.126503 196.0
123.148674 200.0
123.17643 528.0
123.209526 180.0
123.232254 1632.0
123.269112 592.0
123.301636 496.0
123.329269 500.0
123.363335 1628.0
123.390961 10968.0
123.447372 144.0
123.478111 152.0
123.531013 176.0
123.575073 324.0
123.59005 136.0
123.598335 252.0
123.634293 224.0
123.666138 52.0
123.69931 80.0
123.732849 592.0
123.761276 248.0
123.765999 140.0
123.814095 192.0
123.862427 100.0
123.893044 44.0
123.906776 412.0
123.924858 112.0
123.932281 92.0
123.938614 228.0
123.985313 180.0
123.994995 288.0
124.028831 55152.0
124.088318 216.0
124.112778 188.0
124.138878 128.0
124.160797 176.0
124.17482 68.0
124.218529 164.0
124.234337 144.0
124.243011 152.0
124.248001 60.0
124.264725 68.0
124.313728 72.0
124.328316 68.0
124.35022 188.0
124.367973 48.0
124.394333 68.0
124.4095 172.0
124.416161 164.0
124.450829 112.0
124.48597 196.0
124.517105 48.0
124.550919 164.0
124.595345 164.0
124.614922 224.0
124.635612 140.0
124.656517 196.0
124.677444 188.0
124.693359 128.0
124.702782 184.0
124.752518 412.0
124.776878 132.0
124.799103 124.0
124.828438 392.0
124.844185 240.0
124.860847 280.0
124.906998 448.0
124.943352 280.0
124.969917 356.0
124.997269 156.0
125.006554 164.0
125.030937 3060.0
125.055084 360.0
125.093124 100.0
125.117928 176.0
125.159195 184.0
125.187668 100.0
125.207581 176.0
125.229622 176.0
125.242569 116.0
125.269882 112.0
125.286201 240.0
125.300903 120.0
125.320885 144.0
125.356102 104.0
125.400826 128.0
125.419304 96.0
125.445755 60.0
125.475777 92.0
125.504761 28.0
125.525421 136.0
125.547905 60.0
125.568352 124.0
125.586487 72.0
125.605354 148.0
125.634117 180.0
125.680801 116.0
125.699059 180.0
125.716675 36.0
125.779167 108.0
125.802231 60.0
125.817116 156.0
125.843903 176.0
125.870865 100.0
125.903854 184.0
125.922325 68.0
125.943756 256.0
125.961449 104.0
126.007309 124.0
126.04493 172.0
126.059792 148.0
126.094093 168.0
126.136559 56.0
126.153397 256.0
126.182076 188.0
126.207207 216.0
126.234932 180.0
126.275185 116.0
126.314171 120.0
126.343857 40.0
126.366898 140.0
126.503418 104.0
126.53476 172.0
126.5877 192.0
126.617607 228.0
126.673019 92.0
126.711685 168.0
126.790108 144.0
126.820786 128.0
126.854706 176.0
126.869469 168.0
126.889412 80.0
126.926476 140.0
126.932739 112.0
126.971703 172.0
127.01432 60.0
127.067513 28.0
127.126495 164.0
127.160156 196.0
127.193428 144.0
127.222603 184.0
127.260246 160.0
127.276894 44.0
127.342018 84.0
127.367821 172.0
127.420639 76.0
127.449844 68.0
127.485794 148.0
127.51181 200.0
127.520691 144.0
127.565704 168.0
127.613922 192.0
127.631905 252.0
127.667885 36.0
127.683632 172.0
127.762352 104.0
127.829971 180.0
127.915169 128.0
127.932648 132.0
127.953644 76.0
127.983185 168.0
128.014435 100.0
128.065948 152.0
128.073303 128.0
128.15184 212.0
128.19014 140.0
128.313843 136.0
128.375 104.0
128.418427 232.0
128.444916 180.0
128.487946 52.0
128.505814 200.0
128.535156 28.0
128.566742 200.0
128.619827 116.0
128.642426 224.0
128.666061 160.0
128.68187 96.0
128.724762 36.0
128.787506 92.0
128.851242 176.0
128.880142 76.0
128.998138 188.0
129.037537 160.0
129.086319 216.0
129.133804 52.0
129.177673 204.0
129.194885 152.0
129.211792 76.0
129.235596 188.0
129.255966 280.0
129.276337 108.0
129.328384 116.0
129.346497 144.0
129.378189 176.0
129.480911 324.0
129.502945 168.0
129.52449 72.0
129.538971 128.0
129.55629 204.0
129.668121 108.0
129.707367 152.0
129.761063 32.0
129.806396 136.0
129.84201 188.0
129.865372 180.0
129.906189 64.0
129.949295 240.0
130.024475 184.0
130.059113 180.0
130.073593 148.0
130.111954 96.0
130.192612 208.0
130.209961 48.0
130.239868 104.0
130.326202 56.0
130.351196 104.0
130.377014 144.0
130.42305 52.0
130.444138 148.0
130.4729 212.0
130.501205 108.0
130.51712 96.0
130.546692 84.0
130.571701 160.0
130.596069 56.0
130.632309 168.0
130.665054 188.0
130.683945 128.0
130.732651 184.0
130.778748 44.0
130.819489 40.0
130.910049 136.0
130.94722 76.0
130.98822 108.0
131.031418 104.0
131.061142 668.0
131.140884 88.0
131.1651 64.0
131.209274 68.0
131.227509 76.0
131.300476 128.0
131.339142 164.0
131.362061 232.0
131.384872 88.0
131.414536 148.0
131.432785 76.0
131.448761 84.0
131.465759 176.0
131.487549 100.0
131.543991 264.0
131.59256 132.0
131.610825 176.0
131.638229 84.0
131.672485 100.0
131.715881 92.0
131.756989 52.0
131.77298 220.0
131.797302 224.0
131.837982 108.0
131.855255 108.0
131.911148 160.0
132.001556 72.0
132.044693 804.0
132.047989 328.0
132.080414 108.0
132.122009 108.0
132.146744 232.0
132.157913 156.0
132.251419 360.0
132.286545 192.0
132.327377 60.0
132.343628 120.0
132.386322 204.0
132.447006 84.0
132.491348 200.0
132.569122 132.0
132.595016 184.0
132.674622 196.0
132.6996 180.0
132.741592 156.0
132.758163 192.0
132.789337 72.0
132.853561 188.0
132.924698 144.0
132.944595 124.0
132.996246 68.0
133.051575 752.0
133.11058 124.0
133.130814 152.0
133.167923 196.0
133.203232 240.0
133.24173 48.0
133.280594 164.0
133.396286 216.0
133.420807 56.0
133.508179 68.0
133.539429 128.0
133.594635 88.0
133.616119 60.0
133.639282 120.0
133.655396 36.0
133.679718 140.0
133.687027 80.0
133.694122 48.0
133.716629 184.0
133.795792 120.0
133.838943 296.0
133.862564 140.0
133.892975 156.0
133.910187 200.0
133.968613 176.0
133.990082 80.0
134.019196 96.0
134.060318 3104.0
134.09726 612.0
134.132111 176.0
134.155472 148.0
134.175919 120.0
134.205887 104.0
134.222031 84.0
134.240479 72.0
134.267166 196.0
134.288681 128.0
134.325806 100.0
134.362 128.0
134.378967 196.0
134.398422 84.0
134.428452 156.0
134.494415 176.0
134.523743 164.0
134.542236 188.0
134.55957 108.0
134.600449 124.0
134.658188 80.0
134.700089 280.0
134.722855 104.0
134.75386 124.0
134.782928 88.0
134.830261 240.0
134.8927 96.0
134.922653 168.0
134.99791 156.0
135.037216 92.0
135.07338 192.0
135.104294 72.0
135.155197 48.0
135.185272 124.0
135.227463 124.0
135.251495 296.0
135.2686 340.0
135.298691 336.0
135.340363 64.0
135.401062 188.0
135.448624 172.0
135.458405 128.0
135.462906 44.0
135.504517 156.0
135.543045 296.0
135.576065 144.0
135.590988 148.0
135.650803 140.0
135.704132 88.0
135.759186 160.0
135.805038 140.0
135.827042 64.0
135.915192 100.0
135.943039 52.0
136.001068 148.0
136.020691 124.0
136.056244 192.0
136.080215 492.0
136.127808 148.0
136.165909 152.0
136.244888 56.0
136.31691 184.0
136.344803 120.0
136.379654 148.0
136.400574 116.0
136.430801 44.0
136.474976 216.0
136.520309 128.0
136.558685 80.0
136.579208 200.0
136.598114 84.0
136.616837 196.0
136.64476 196.0
136.665695 268.0
136.713638 132.0
136.73259 180.0
136.763321 160.0
136.808487 248.0
136.870468 192.0
136.903122 112.0
136.921753 152.0
136.968338 176.0
137.006744 192.0
137.033569 92.0
137.060089 84.0
137.083984 168.0
137.129105 236.0
137.161743 116.0
137.194366 132.0
137.248001 164.0
137.322311 184.0
137.32933 64.0
137.388321 132.0
137.402344 164.0
137.474258 136.0
137.489532 88.0
137.512207 168.0
137.531723 116.0
137.554123 164.0
137.60965 268.0
137.649338 84.0
137.670349 60.0
137.688034 132.0
137.707672 232.0
137.75444 88.0
137.775253 136.0
137.817993 216.0
137.836212 92.0
137.857239 156.0
137.876801 184.0
137.920334 148.0
137.939041 152.0
138.013855 124.0
138.04425 108.0
138.073364 204.0
138.093353 100.0
138.120255 168.0
138.128998 84.0
138.136749 188.0
138.198624 140.0
138.320786 120.0
138.364792 100.0
138.402252 84.0
138.472946 152.0
138.495926 140.0
138.54483 252.0
138.592133 128.0
138.617386 152.0
138.668182 156.0
138.689484 92.0
138.725571 72.0
138.763077 172.0
138.792236 156.0
138.824036 96.0
138.840454 188.0
138.875641 108.0
138.895355 148.0
138.913162 144.0
138.950699 168.0
138.986984 152.0
139.023438 100.0
139.051605 152.0
139.103241 116.0
139.140793 96.0
139.157227 40.0
139.207535 200.0
139.25351 120.0
139.309891 200.0
139.361572 136.0
139.39447 140.0
139.420746 176.0
139.512054 120.0
139.547028 84.0
139.598984 136.0
139.624847 108.0
139.691818 152.0
139.711365 240.0
139.744812 132.0
139.822464 136.0
139.874237 108.0
139.900131 120.0
139.989532 124.0
140.017059 152.0
140.046127 152.0
140.110458 180.0
140.213409 56.0
140.268539 112.0
140.303452 144.0
140.350128 144.0
140.375259 204.0
140.429276 292.0
140.45993 136.0
140.4673 76.0
140.475784 188.0
140.492157 164.0
140.567139 68.0
140.586014 188.0
140.604904 208.0
140.741257 188.0
140.800842 196.0
140.819748 128.0
140.838638 136.0
140.88588 64.0
140.915924 212.0
140.946365 80.0
140.989838 120.0
141.012375 164.0
141.041519 148.0
141.071259 188.0
141.112762 60.0
141.207352 52.0
141.27594 116.0
141.311432 156.0
141.327988 132.0
141.479462 220.0
141.546936 40.0
141.640091 180.0
141.735245 156.0
141.780273 144.0
141.79686 160.0
141.853745 136.0
141.903534 168.0
142.015045 168.0
142.038696 36.0
142.064804 52.0
142.084686 152.0
142.17157 108.0
142.207169 132.0
142.391205 148.0
142.418472 124.0
142.436188 128.0
142.451736 284.0
142.48024 152.0
142.508743 224.0
142.527756 172.0
142.566742 208.0
142.618073 152.0
142.679871 92.0
142.709167 224.0
142.785553 188.0
142.829681 160.0
142.879639 84.0
142.896286 36.0
142.920853 160.0
143.027176 164.0
143.076233 112.0
143.143829 164.0
143.303421 88.0
143.332016 92.0
143.355026 268.0
143.402435 180.0
143.465485 164.0
143.556076 140.0
143.603775 124.0
143.675339 64.0
143.692032 104.0
143.807465 184.0
143.851929 192.0
143.900528 124.0
143.93071 268.0
143.97847 112.0
144.011917 168.0
144.038193 176.0
144.065842 132.0
144.085464 208.0
144.150467 84.0
144.193497 44.0
144.222488 60.0
144.250854 216.0
144.293884 192.0
144.32019 128.0
144.430191 236.0
144.470856 128.0
144.497177 140.0
144.5905 40.0
144.633301 104.0
144.657516 176.0
144.715958 304.0
144.875427 176.0
144.905716 236.0
144.928055 120.0
144.94133 236.0
145.074341 308.0
145.117477 164.0
145.170227 136.0
145.194214 160.0
145.266174 140.0
145.28833 168.0
145.366943 128.0
145.396133 320.0
145.434143 92.0
145.455734 72.0
145.472549 212.0
145.551773 136.0
145.578186 204.0
145.60701 172.0
145.634048 152.0
145.729507 108.0
145.782379 188.0
145.798782 232.0
145.81842 68.0
145.854477 100.0
145.89534 124.0
145.979492 156.0
146.012726 196.0
146.027328 184.0
146.058304 492.0
146.079575 344.0
146.147873 200.0
146.185852 204.0
146.215256 112.0
146.275421 132.0
146.2995 212.0
146.351364 132.0
146.395798 232.0
146.41507 180.0
146.453201 168.0
146.504181 204.0
146.554779 96.0
146.641388 200.0
146.758087 204.0
146.788589 220.0
146.827179 100.0
146.911591 88.0
146.930313 304.0
146.985321 148.0
147.023804 228.0
147.06514 704.0
147.128784 172.0
147.153412 120.0
147.183182 72.0
147.208466 52.0
147.241577 188.0
147.278503 136.0
147.296524 112.0
147.363052 144.0
147.387207 300.0
147.528244 180.0
147.561768 200.0
147.616852 224.0
147.657333 232.0
147.716003 104.0
147.79686 152.0
147.841019 168.0
147.882965 160.0
147.909592 108.0
147.926529 112.0
147.998108 212.0
148.056488 15568.0
148.119141 148.0
148.229385 164.0
148.260773 88.0
148.289856 104.0
148.349869 216.0
148.403793 116.0
148.493515 136.0
148.522232 136.0
148.578415 220.0
148.624954 192.0
148.648773 200.0
148.687119 100.0
148.724014 152.0
148.755569 44.0
148.821106 196.0
148.84053 84.0
148.862396 100.0
148.922974 144.0
148.967316 180.0
148.993546 60.0
149.03569 344.0
149.059311 2144.0
149.081085 724.0
149.168518 88.0
149.209839 120.0
149.241455 108.0
149.258469 84.0
149.356796 224.0
149.440887 64.0
149.460312 188.0
149.501282 108.0
149.523636 212.0
149.566223 148.0
149.703781 160.0
149.730469 152.0
149.767105 152.0
149.818253 80.0
149.865265 124.0
149.892441 84.0
149.923019 100.0
149.94252 108.0
149.99614 132.0
150.033569 176.0
150.057083 168.0
150.09137 1084.0
150.121399 244.0
150.245987 88.0
150.308304 72.0
150.330276 60.0
150.352234 136.0
150.383957 136.0
150.421326 208.0
150.462082 156.0
150.585281 228.0
150.64035 116.0
150.703583 176.0
150.730743 180.0
150.769409 160.0
150.807968 140.0
150.862717 44.0
150.896942 128.0
150.928726 168.0
151.02655 148.0
151.092499 128.0
151.151169 124.0
151.187256 140.0
151.278656 204.0
151.302902 116.0
151.31662 232.0
151.359924 164.0
151.393661 28.0
151.437744 44.0
151.516129 196.0
151.557785 136.0
151.616592 140.0
151.650909 68.0
151.713364 168.0
151.754929 148.0
151.787567 188.0
151.834778 112.0
152.062943 76.0
152.146408 268.0
152.177185 148.0
152.217468 136.0
152.296188 44.0
152.328125 156.0
152.350235 64.0
152.384628 204.0
152.43132 180.0
152.534531 236.0
152.593399 136.0
152.615662 88.0
152.645172 184.0
152.679596 48.0
152.715851 124.0
152.775528 60.0
152.876404 164.0
152.901688 116.0
152.928085 84.0
152.950241 140.0
152.979782 180.0
153.080719 156.0
153.110275 80.0
153.14476 104.0
153.166916 136.0
153.194824 160.0
153.223434 132.0
153.309814 72.0
153.332001 120.0
153.369278 248.0
153.401016 144.0
153.447845 196.0
153.469894 208.0
153.473709 196.0
153.483551 108.0
153.550522 44.0
153.632538 176.0
153.657486 144.0
153.702652 224.0
153.738907 168.0
153.834183 120.0
153.896896 164.0
153.914719 164.0
153.95369 148.0
154.005554 220.0
154.030243 136.0
154.062363 128.0
154.134018 76.0
154.158722 144.0
154.195786 256.0
154.225937 164.0
154.257584 100.0
154.292191 148.0
154.334229 168.0
154.378952 132.0
154.433136 76.0
154.467361 144.0
154.517242 164.0
154.606323 176.0
154.648392 140.0
154.669052 128.0
154.706299 152.0
154.741501 184.0
154.787033 124.0
154.948029 112.0
154.992615 168.0
155.059525 68.0
155.08432 144.0
155.116531 148.0
155.148758 128.0
155.208267 280.0
155.242981 128.0
155.261383 184.0
155.342194 212.0
155.359558 132.0
155.37941 48.0
155.424057 164.0
155.46376 164.0
155.504135 164.0
155.54567 156.0
155.590347 152.0
155.617661 176.0
155.657394 132.0
155.761703 168.0
155.848648 52.0
155.880951 124.0
155.939789 220.0
156.00737 152.0
156.05246 140.0
156.071365 172.0
156.12706 96.0
156.181686 128.0
156.231522 108.0
156.255463 180.0
156.296204 140.0
156.380814 116.0
156.428116 168.0
156.444702 144.0
156.505295 120.0
156.542633 156.0
156.59494 204.0
156.614868 100.0
156.636795 104.0
156.668182 152.0
156.729462 132.0
156.756866 112.0
156.874008 144.0
156.923874 172.0
156.948807 344.0
156.983704 192.0
157.033585 96.0
157.077133 136.0
157.134079 172.0
157.183273 64.0
157.219452 120.0
157.240662 128.0
157.260635 164.0
157.345901 124.0
157.372131 136.0
157.394135 176.0
157.425507 184.0
157.444519 140.0
157.467865 132.0
157.512817 52.0
157.56778 180.0
157.64563 176.0
157.720215 208.0
157.740204 128.0
157.773499 212.0
157.780975 180.0
157.884232 196.0
157.935242 132.0
157.982361 104.0
158.025299 156.0
158.059967 188.0
158.097092 300.0
158.167938 140.0
158.185471 132.0
158.295624 56.0
158.408752 212.0
158.449341 284.0
158.489517 316.0
158.52684 328.0
158.563675 172.0
158.581223 164.0
158.63385 136.0
158.706589 384.0
158.746872 164.0
158.774261 88.0
158.815857 172.0
158.884109 252.0
158.907288 140.0
158.976639 96.0
159.002563 160.0
159.06102 468.0
159.090775 1096.0
159.156784 204.0
159.215958 180.0
159.239868 176.0
159.268585 52.0
159.295547 140.0
159.349091 176.0
159.399338 48.0
159.478149 188.0
159.527786 228.0
159.599869 144.0
159.6306 132.0
159.648209 276.0
159.681747 188.0
159.71611 172.0
159.733719 128.0
159.785431 148.0
159.801636 224.0
159.851959 128.0
160.010529 148.0
160.088852 1204.0
160.161621 40.0
160.204956 100.0
160.237198 188.0
160.257355 208.0
160.280029 148.0
160.315964 124.0
160.322876 112.0
160.431259 148.0
160.448898 84.0
160.474106 152.0
160.554794 144.0
160.596436 252.0
160.644867 152.0
160.665787 44.0
160.701111 76.0
160.731384 176.0
160.812134 124.0
160.849991 104.0
160.870575 192.0
160.905533 152.0
160.935837 92.0
160.953506 120.0
161.004013 132.0
161.041901 204.0
161.060791 112.0
161.098389 304.0
161.135361 108.0
161.173599 176.0
161.20105 132.0
161.221268 92.0
161.316986 152.0
161.380127 128.0
161.413391 76.0
161.455627 148.0
161.530289 180.0
161.563843 140.0
161.597336 232.0
161.618271 172.0
161.655624 136.0
161.743439 80.0
161.780594 264.0
161.846069 132.0
161.881516 228.0
161.962692 76.0
162.001923 104.0
162.017807 288.0
162.05629 200.0
162.09108 4036.0
162.198212 132.0
162.239273 140.0
162.278549 116.0
162.297089 180.0
162.335114 60.0
162.370621 92.0
162.455704 256.0
162.486664 112.0
162.528641 136.0
162.568497 232.0
162.660034 60.0
162.715714 172.0
162.837906 168.0
162.906937 176.0
162.979858 124.0
163.093674 548.0
163.170486 112.0
163.216248 140.0
163.244217 224.0
163.263351 176.0
163.284851 216.0
163.31543 56.0
163.333237 188.0
163.380463 172.0
163.399994 140.0
163.470612 136.0
163.508057 200.0
163.585449 168.0
163.653885 52.0
163.676804 124.0
163.799042 148.0
163.878021 88.0
163.913696 96.0
163.946213 136.0
164.043671 140.0
164.096878 344.0
164.140549 184.0
164.194107 212.0
164.25795 128.0
164.293579 144.0
164.369293 132.0
164.390396 144.0
164.39624 188.0
164.431366 44.0
164.50029 80.0
164.576874 112.0
164.594742 156.0
164.6418 188.0
164.727081 152.0
164.765869 112.0
164.807678 132.0
164.875748 128.0
164.898743 148.0
164.92305 212.0
164.977982 84.0
165.031677 128.0
165.050812 172.0
165.149307 192.0
165.191376 80.0
165.232361 120.0
165.261871 300.0
165.295929 180.0
165.30481 56.0
165.312408 224.0
165.340988 104.0
165.389816 68.0
165.415421 168.0
165.439682 208.0
165.46405 152.0
165.535507 176.0
165.584763 204.0
165.674957 144.0
165.726883 168.0
165.766296 32.0
165.850861 136.0
165.924881 128.0
166.002121 168.0
166.024551 140.0
166.047821 180.0
166.066147 224.0
166.115402 144.0
166.274048 152.0
166.299713 104.0
166.320251 192.0
166.34848 124.0
166.440918 92.0
166.46402 116.0
166.528732 184.0
166.569321 160.0
166.623276 288.0
166.66951 288.0
166.688675 132.0
166.800583 160.0
166.844284 100.0
166.864853 184.0
166.887985 128.0
166.983459 192.0
167.029434 56.0
167.068298 276.0
167.095551 244.0
167.147781 244.0
167.176086 68.0
167.271317 148.0
167.320999 140.0
167.348541 184.0
167.369141 60.0
167.41449 340.0
167.479874 192.0
167.740128 104.0
167.81041 276.0
167.903793 132.0
167.950775 184.0
168.005096 80.0
168.030243 180.0
168.08313 120.0
168.137329 68.0
168.19223 140.0
168.217346 160.0
168.245056 168.0
168.28447 144.0
168.328354 140.0
168.381302 192.0
168.447159 184.0
168.483322 68.0
168.617691 184.0
168.638367 156.0
168.713333 84.0
168.7547 188.0
168.780548 132.0
168.822723 156.0
168.844086 112.0
169.134979 60.0
169.155685 160.0
169.202286 112.0
169.252747 276.0
169.285141 124.0
169.332672 192.0
169.356979 260.0
169.383545 132.0
169.420624 168.0
169.45192 180.0
169.492126 136.0
169.545258 164.0
169.704895 188.0
169.733429 160.0
169.754654 108.0
169.805695 180.0
169.815536 156.0
169.84494 100.0
169.88385 180.0
169.902008 176.0
170.021362 144.0
170.056747 140.0
170.083847 160.0
170.114807 132.0
170.157593 224.0
170.204712 216.0
170.223846 88.0
170.303268 172.0
170.332626 176.0
170.34166 156.0
170.387848 168.0
170.465729 136.0
170.507004 128.0
170.579788 96.0
170.605774 308.0
170.623978 120.0
170.642181 72.0
170.78392 208.0
170.804047 164.0
170.839828 128.0
170.858032 80.0
170.899902 180.0
170.9543 60.0
170.988068 160.0
171.06546 144.0
171.093063 192.0
171.124252 124.0
171.138428 76.0
171.145828 180.0
171.18338 148.0
171.217239 120.0
171.338196 220.0
171.368317 148.0
171.432709 108.0
171.463989 112.0
171.635025 160.0
171.657639 96.0
171.7724 176.0
171.821518 332.0
171.876755 136.0
171.902847 136.0
171.968094 196.0
172.007248 144.0
172.052872 324.0
172.093399 128.0
172.135178 180.0
172.223969 92.0
172.260544 124.0
172.290985 128.0
172.352127 140.0
172.384674 92.0
172.440826 60.0
172.514008 184.0
172.537537 220.0
172.574478 188.0
172.649979 180.0
172.685349 160.0
172.731873 296.0
172.772903 120.0
172.804306 92.0
172.840927 76.0
172.859253 88.0
172.893265 124.0
172.970398 240.0
173.022842 200.0
173.068542 356.0
173.105621 68.0
173.162186 184.0
173.186493 128.0
173.236267 92.0
173.283417 184.0
173.34787 168.0
173.416534 200.0
173.456375 188.0
173.576981 180.0
173.613693 240.0
173.676636 304.0
173.742386 184.0
173.769577 160.0
173.83667 128.0
173.873413 172.0
173.914536 236.0
173.936401 80.0
173.968384 108.0
174.032379 208.0
174.084396 264.0
174.121841 160.0
174.151718 100.0
174.180603 32.0
174.22789 84.0
174.259415 128.0
174.281113 140.0
174.317215 152.0
174.368195 160.0
174.467041 472.0
174.489502 88.0
174.50647 188.0
174.659897 128.0
174.682663 92.0
174.711761 252.0
174.839706 128.0
174.868469 256.0
174.887909 132.0
174.916855 136.0
174.935287 352.0
174.982681 132.0
175.008514 176.0
175.087097 4828.0
175.127945 120.0
175.183472 164.0
175.192047 192.0
175.218079 220.0
175.256592 124.0
175.284973 124.0
175.325104 144.0
175.348816 116.0
175.380447 56.0
175.419815 124.0
175.454254 48.0
175.477982 204.0
175.501709 284.0
175.530106 136.0
175.534882 104.0
175.607193 108.0
175.641479 112.0
175.675781 120.0
175.733124 184.0
175.871048 40.0
175.889511 128.0
175.910629 108.0
175.995117 28.0
176.029449 208.0
176.089478 532.0
176.161758 168.0
176.193558 204.0
176.249252 148.0
176.29097 136.0
176.317383 164.0
176.383469 96.0
176.401962 152.0
176.477173 180.0
176.520935 88.0
176.539459 160.0
176.592606 124.0
176.639267 172.0
176.666412 144.0
176.806458 172.0
176.841049 204.0
176.917816 52.0
176.965469 256.0
177.014618 92.0
177.031662 140.0
177.102615 220.0
177.174698 164.0
177.201187 136.0
177.386688 140.0
177.407898 204.0
177.468872 100.0
177.499023 184.0
177.508347 180.0
177.598816 152.0
177.620041 128.0
177.643906 204.0
177.691666 48.0
177.72789 128.0
177.767258 120.0
177.837616 100.0
177.872116 140.0
177.953461 196.0
177.991592 156.0
178.089844 92.0
178.116272 156.0
178.15213 116.0
178.180161 136.0
178.209381 100.0
178.230637 184.0
178.259872 156.0
178.279922 300.0
178.33429 128.0
178.355545 184.0
178.384445 188.0
178.440613 188.0
178.466263 228.0
178.487961 164.0
178.520386 140.0
178.560272 156.0
178.581558 144.0
178.602829 164.0
178.648056 136.0
178.743835 200.0
178.773102 52.0
178.801254 104.0
178.828781 208.0
178.863586 48.0
178.954102 128.0
179.040512 240.0
179.081024 140.0
179.124542 92.0
179.156509 60.0
179.223114 44.0
179.303055 200.0
179.391022 92.0
179.441666 140.0
179.526993 192.0
179.545654 164.0
179.596771 196.0
179.647018 44.0
179.681702 140.0
179.737839 156.0
179.804443 120.0
179.852478 152.0
179.876114 164.0
179.945267 180.0
180.001144 128.0
180.067398 136.0
180.10881 220.0
180.148682 108.0
180.175598 192.0
180.229034 160.0
180.298508 120.0
180.405426 100.0
180.442841 120.0
180.495255 188.0
180.528656 244.0
180.563171 124.0
180.603287 168.0
180.636368 204.0
180.712967 100.0
180.773071 168.0
180.811111 136.0
180.860153 72.0
180.892273 40.0
180.929749 216.0
180.999374 64.0
181.020782 152.0
181.109161 188.0
181.254807 132.0
181.304749 144.0
181.352997 120.0
181.37175 148.0
181.406601 156.0
181.43541 188.0
181.457535 72.0
181.521881 140.0
181.578201 184.0
181.645248 184.0
181.706955 128.0
181.73378 112.0
181.752563 96.0
181.902863 216.0
181.990143 140.0
182.106918 108.0
182.179367 128.0
182.251984 48.0
182.292496 160.0
182.401901 128.0
182.458939 116.0
182.493881 132.0
182.620285 148.0
182.660629 112.0
182.70636 152.0
182.735947 96.0
182.854355 148.0
182.890396 200.0
182.91954 180.0
182.956635 128.0
182.994324 220.0
183.032013 136.0
183.053055 168.0
183.099335 96.0
183.172058 184.0
183.23671 184.0
183.266357 176.0
183.304077 176.0
183.371445 320.0
183.519714 168.0
183.56015 40.0
183.608704 76.0
183.629974 180.0
183.64032 160.0
183.657898 240.0
183.68692 64.0
183.708496 244.0
183.748962 108.0
183.786728 144.0
183.848801 80.0
183.891983 156.0
183.975662 204.0
183.993286 196.0
184.035049 160.0
184.053955 124.0
184.078247 108.0
184.12709 92.0
184.167374 168.0
184.226807 204.0
184.275436 132.0
184.297043 124.0
184.405136 152.0
184.432159 164.0
184.570038 104.0
184.593552 172.0
184.647446 204.0
184.689026 40.0
184.727173 200.0
184.759369 140.0
184.789124 96.0
184.821594 204.0
184.851349 184.0
184.928375 104.0
184.965027 152.0
185.035416 160.0
185.088791 224.0
185.12999 160.0
185.197891 184.0
185.22879 176.0
185.26561 120.0
185.289978 116.0
185.327911 112.0
185.352295 152.0
185.403793 148.0
185.451096 140.0
185.487335 280.0
185.509491 108.0
185.61795 128.0
185.737274 76.0
185.766953 72.0
185.799667 152.0
185.891769 76.0
185.929901 180.0
185.962479 180.0
185.984192 144.0
186.008621 44.0
186.041199 184.0
186.07106 160.0
186.102036 196.0
186.139908 200.0
186.190536 80.0
186.282883 120.0
186.342651 116.0
186.435028 44.0
186.472366 212.0
186.501144 160.0
186.547974 152.0
186.598114 32.0
186.671539 160.0
186.692154 144.0
186.703781 84.0
186.710587 132.0
186.774872 156.0
186.826569 172.0
186.916351 128.0
186.962601 96.0
187.014313 124.0
187.033371 120.0
187.06604 116.0
187.09491 348.0
187.123199 108.0
187.147293 156.0
187.229401 128.0
187.259354 52.0
187.353958 192.0
187.428253 104.0
187.471848 160.0
187.529083 112.0
187.597229 132.0
187.624496 140.0
187.687195 260.0
187.719559 152.0
187.845383 100.0
187.872665 60.0
187.908127 168.0
187.953552 184.0
188.058212 52.0
188.093063 136.0
188.132034 596.0
188.243851 172.0
188.309464 160.0
188.350357 92.0
188.410461 160.0
188.475464 136.0
188.566208 136.0
188.588074 92.0
188.615417 104.0
188.702896 76.0
188.776047 180.0
188.831406 40.0
188.857666 140.0
188.898697 180.0
188.9254 116.0
188.968185 132.0
189.016373 228.0
189.101196 1868.0
189.138977 160.0
189.189865 164.0
189.20903 220.0
189.25325 184.0
189.334976 112.0
189.365112 124.0
189.39798 548.0
189.488373 132.0
189.518509 116.0
189.567825 156.0
189.606201 136.0
189.630859 288.0
189.658279 156.0
189.67746 208.0
189.703522 152.0
189.75293 144.0
189.823593 160.0
189.87265 180.0
189.926987 176.0
189.973618 64.0
190.013397 88.0
190.024643 100.0
190.044525 220.0
190.065552 172.0
190.074127 88.0
190.110703 47344.0
190.181702 200.0
190.227783 164.0
190.258698 72.0
190.282104 252.0
190.338638 96.0
190.360092 260.0
190.382568 64.0
190.425461 156.0
190.45079 148.0
190.479233 208.0
190.504974 64.0
190.525024 116.0
190.542664 168.0
190.566223 112.0
190.659698 196.0
190.691345 284.0
190.756241 280.0
190.78923 64.0
190.837189 152.0
190.866211 44.0
190.907455 168.0
190.958725 56.0
190.98996 152.0
191.031219 92.0
191.075089 72.0
191.113953 7460.0
191.159393 264.0
191.188049 84.0
191.206085 72.0
191.251358 152.0
191.372925 172.0
191.393005 76.0
191.507416 336.0
191.562424 128.0
191.606583 68.0
191.751282 120.0
191.799484 156.0
191.926849 168.0
191.960403 108.0
191.984634 252.0
192.057404 128.0
192.115082 400.0
192.171768 96.0
192.19928 148.0
192.226959 168.0
192.257309 112.0
192.301041 160.0
192.377609 116.0
192.439819 84.0
192.486435 160.0
192.521179 144.0
192.590286 152.0
192.652435 140.0
192.691483 276.0
192.729507 92.0
192.798584 164.0
192.828979 136.0
192.873322 168.0
192.97049 104.0
193.016556 108.0
193.047379 124.0
193.066742 160.0
193.134949 404.0
193.182907 132.0
193.268677 36.0
193.30188 36.0
193.382126 96.0
193.418106 148.0
193.437485 104.0
193.479019 152.0
193.512238 108.0
193.534393 140.0
193.560944 156.0
193.588745 140.0
193.623001 116.0
193.658997 152.0
193.700363 140.0
193.737488 180.0
193.764267 96.0
193.812775 188.0
193.851852 56.0
193.877869 156.0
193.897278 188.0
193.936066 188.0
193.977097 120.0
193.997971 144.0
194.02478 184.0
194.091599 116.0
194.13089 164.0
194.163422 124.0
194.266037 120.0
194.32576 80.0
194.432083 176.0
194.464676 48.0
194.540771 132.0
194.561417 184.0
194.57283 80.0
194.578659 228.0
194.607407 52.0
194.671265 44.0
194.743469 60.0
194.762909 140.0
194.81163 140.0
194.839798 160.0
194.896255 128.0
194.962952 84.0
194.990738 148.0
195.049347 236.0
195.104706 196.0
195.140854 48.0
195.196457 160.0
195.302139 56.0
195.435669 56.0
195.474625 96.0
195.505234 148.0
195.527039 160.0
195.559418 164.0
195.58873 228.0
195.63884 232.0
195.672241 132.0
195.706543 204.0
195.783615 216.0
195.803116 148.0
195.858124 176.0
195.883896 172.0
195.903381 164.0
195.953537 184.0
196.020401 156.0
196.092865 168.0
196.140244 124.0
196.210266 100.0
196.28801 204.0
196.343781 172.0
196.417084 168.0
196.427902 200.0
196.449768 204.0
196.471512 188.0
196.493362 160.0
196.572662 168.0
196.639511 136.0
196.717651 128.0
196.776291 104.0
196.795822 64.0
196.927078 52.0
197.002487 148.0
197.044312 184.0
197.061996 240.0
197.099777 112.0
197.172928 148.0
197.195297 128.0
197.227234 108.0
197.248398 80.0
197.295914 96.0
197.329468 160.0
197.363068 268.0
197.412369 136.0
197.452499 172.0
197.480469 52.0
197.543961 172.0
197.578369 56.0
197.606354 264.0
197.6875 68.0
197.816238 172.0
197.900238 116.0
197.938751 148.0
197.971298 236.0
198.014862 120.0
198.08226 168.0
198.192535 236.0
198.216095 52.0
198.267044 84.0
198.353989 128.0
198.483032 172.0
198.62767 288.0
198.708755 184.0
198.794815 136.0
198.832565 120.0
198.92337 180.0
198.959427 20.0
199.015961 176.0
199.063721 592.0
199.106003 104.0
199.146164 148.0
199.337067 160.0
199.445969 200.0
199.621262 204.0
199.652817 168.0
199.732773 76.0
199.843384 136.0
199.926895 164.0
199.945587 180.0
200.008514 152.0
200.05513 344.0
200.067627 108.0
200.1521 48.0
200.219681 92.0
200.350998 148.0
200.394318 184.0
200.51268 144.0
200.562637 204.0
200.588257 248.0
200.628784 208.0
200.664886 64.0
200.687439 140.0
200.738205 128.0
200.780502 44.0
200.845367 160.0
200.951401 136.0
201.003189 204.0
201.034164 264.0
201.082367 136.0
201.143646 192.0
201.169403 156.0
201.254562 312.0
201.294098 156.0
201.339279 132.0
201.39859 136.0
201.426834 88.0
201.508759 96.0
201.768768 60.0
201.811172 212.0
201.867584 152.0
201.87886 128.0
201.916458 140.0
201.949753 40.0
202.051575 160.0
202.082703 156.0
202.159103 172.0
202.190231 128.0
202.321533 164.0
202.343079 40.0
202.365738 68.0
202.467667 104.0
202.555466 140.0
202.603622 48.0
202.643295 136.0
202.709045 176.0
202.750961 184.0
202.835999 180.0
202.906662 56.0
202.986252 140.0
203.042969 112.0
203.117661 516.0
203.204651 108.0
203.241547 68.0
203.357895 112.0
203.379883 96.0
203.434525 124.0
203.488464 148.0
203.508347 156.0
203.536743 184.0
203.610565 220.0
203.647491 216.0
203.713593 192.0
203.744064 160.0
203.852036 120.0
203.949326 120.0
204.048157 248.0
204.085388 128.0
204.127975 1076.0
204.14859 476.0
204.213089 32.0
204.264587 188.0
204.336304 204.0
204.434998 240.0
204.45993 168.0
204.46817 128.0
204.480164 124.0
204.511841 120.0
204.594391 88.0
204.690292 240.0
204.753845 168.0
204.773773 156.0
204.856384 300.0
204.899109 264.0
204.921906 48.0
204.94754 40.0
205.022232 76.0
205.04158 88.0
205.064377 164.0
205.129013 344.0
205.151062 128.0
205.186951 104.0
205.219101 160.0
205.320969 304.0
205.349274 160.0
205.40918 168.0
205.440552 324.0
205.493744 184.0
205.523499 120.0
205.617676 168.0
205.683319 108.0
205.772888 188.0
205.826065 132.0
205.897461 84.0
205.931732 124.0
206.047119 132.0
206.059067 104.0
206.117416 132.0
206.166 176.0
206.206497 208.0
206.301697 200.0
206.336914 136.0
206.347656 108.0
206.446091 188.0
206.471893 144.0
206.534805 160.0
206.626343 100.0
206.732224 144.0
206.849564 148.0
206.87059 128.0
206.926849 112.0
206.952621 100.0
207.038528 112.0
207.070038 132.0
207.138779 180.0
207.187469 120.0
207.247635 116.0
207.370865 116.0
207.407684 184.0
207.62764 184.0
207.743622 156.0
207.796173 88.0
207.821075 164.0
208.079391 112.0
208.126816 400.0
208.243057 104.0
208.27179 168.0
208.300507 208.0
208.340729 60.0
208.432632 200.0
208.461395 196.0
208.504501 168.0
208.565536 152.0
208.578934 152.0
208.720108 140.0
208.835068 372.0
208.869659 144.0
208.924301 100.0
208.964584 124.0
209.009659 144.0
209.050903 64.0
209.09407 152.0
209.120743 120.0
209.197693 172.0
209.284058 168.0
209.353439 84.0
209.393066 164.0
209.439575 192.0
209.479904 60.0
209.514465 120.0
209.562271 164.0
209.621078 136.0
209.664886 196.0
209.730927 268.0
209.80394 152.0
209.85553 148.0
209.889145 176.0
209.926636 176.0
209.961243 68.0
210.002243 204.0
210.036621 88.0
210.142334 196.0
210.170883 160.0
210.246841 168.0
210.312134 320.0
210.336319 172.0
210.359406 108.0
210.419739 156.0
210.58815 72.0
210.697281 136.0
210.804184 304.0
210.843903 124.0
210.899551 132.0
210.94722 256.0
211.096436 164.0
211.139526 168.0
211.182907 160.0
211.287323 188.0
211.411469 164.0
211.535568 100.0
211.579346 164.0
211.605392 288.0
211.669098 168.0
211.813904 156.0
211.854462 88.0
211.888092 196.0
212.022202 148.0
212.121048 180.0
212.222351 140.0
212.245712 176.0
212.307755 104.0
212.39502 364.0
212.428436 156.0
212.463242 220.0
212.52417 84.0
212.544479 176.0
212.682114 188.0
212.733124 184.0
212.782471 152.0
212.857971 116.0
212.878296 140.0
212.910233 100.0
212.997772 88.0
213.043045 160.0
213.077225 100.0
213.186218 152.0
213.215286 160.0
213.254898 152.0
213.299393 132.0
213.348984 88.0
213.396469 144.0
213.503174 144.0
213.569977 152.0
213.593796 128.0
213.624344 128.0
213.668884 148.0
213.782364 72.0
213.868866 116.0
214.059586 52.0
214.108414 176.0
214.134628 136.0
214.222 200.0
214.268616 124.0
214.334503 196.0
214.399734 148.0
214.420135 160.0
214.466766 140.0
214.495926 52.0
214.516327 220.0
214.562973 124.0
214.589203 132.0
214.670853 140.0
214.702927 176.0
214.84877 116.0
214.872101 52.0
214.912949 128.0
215.064697 196.0
215.090515 128.0
215.128922 168.0
215.207748 64.0
215.248901 260.0
215.274902 88.0
215.372391 84.0
215.399033 176.0
215.444305 152.0
215.502731 164.0
215.556824 156.0
215.721924 156.0
215.742386 72.0
215.800858 112.0
215.835938 176.0
215.868103 188.0
215.911972 136.0
215.963379 188.0
215.985092 164.0
216.061157 204.0
216.117691 160.0
216.12529 52.0
216.13649 208.0
216.156403 108.0
216.184036 176.0
216.225006 132.0
216.321594 120.0
216.350876 200.0
216.3862 160.0
216.416153 108.0
216.438705 152.0
216.508987 208.0
216.558777 112.0
216.585129 132.0
216.702316 132.0
216.778503 168.0
216.894989 96.0
216.922104 188.0
216.944687 160.0
216.982864 216.0
217.045242 148.0
217.077499 68.0
217.133102 832.0
217.186005 116.0
217.266388 156.0
217.291611 156.0
217.370834 88.0
217.447144 216.0
217.474976 124.0
217.502899 100.0
217.543991 144.0
217.57608 172.0
217.687866 184.0
217.714294 196.0
217.761276 224.0
217.84642 180.0
217.966919 124.0
217.990433 148.0
218.015869 152.0
218.046265 136.0
218.09166 180.0
218.144089 548.0
218.252625 148.0
218.313782 116.0
218.343201 84.0
218.40094 144.0
218.44635 184.0
218.572647 132.0
218.646225 128.0
218.81694 132.0
218.8405 132.0
218.866989 128.0
218.897537 256.0
218.968079 136.0
219.061371 228.0
219.085678 192.0
219.149475 13820.0
219.2397 176.0
219.295486 88.0
219.406158 48.0
219.444489 88.0
219.544739 144.0
219.623642 80.0
219.656815 76.0
219.683365 132.0
219.72789 224.0
219.824982 52.0
219.845642 208.0
219.88176 336.0
219.931229 168.0
219.951889 128.0
220.006943 96.0
220.041061 136.0
220.093597 76.0
220.115814 220.0
220.152786 1796.0
220.19696 140.0
220.217636 256.0
220.309006 120.0
220.399582 128.0
220.48526 176.0
220.566284 176.0
220.598801 184.0
220.65921 140.0
220.680008 128.0
220.787247 228.0
220.814651 156.0
220.859009 128.0
220.891556 64.0
221.158401 392.0
221.190414 120.0
221.217056 232.0
221.308838 108.0
221.347321 68.0
221.421356 72.0
221.489471 176.0
221.551682 204.0
221.622787 140.0
221.667236 64.0
221.692886 128.0
221.750214 64.0
221.907318 168.0
221.944489 152.0
221.974701 72.0
221.999237 156.0
222.050339 176.0
222.106018 140.0
222.183136 80.0
222.251373 52.0
222.356796 152.0
222.448334 104.0
222.472198 228.0
222.512558 188.0
222.556335 156.0
222.636642 152.0
222.657303 280.0
222.690735 136.0
222.752838 180.0
222.840683 256.0
222.881699 404.0
222.943253 192.0
222.981888 204.0
223.017441 216.0
223.046585 120.0
223.091522 384.0
223.148346 96.0
223.18454 164.0
223.267197 240.0
223.271912 232.0
223.286362 136.0
223.333878 44.0
223.386261 172.0
223.41304 116.0
223.517166 100.0
223.591568 156.0
223.612396 140.0
223.692764 164.0
223.716583 184.0
223.752304 96.0
223.782074 112.0
223.844604 188.0
223.958374 180.0
224.047134 72.0
224.082886 152.0
224.10672 92.0
224.130554 68.0
224.24678 120.0
224.288513 176.0
224.368988 132.0
224.413712 120.0
224.440552 124.0
224.493683 172.0
224.569901 96.0
224.595627 140.0
224.73996 164.0
224.802307 136.0
224.834305 280.0
224.870117 240.0
224.968628 244.0
225.021484 136.0
225.086304 144.0
225.228409 152.0
225.270233 108.0
225.306076 176.0
225.337158 148.0
225.416626 96.0
225.482376 128.0
225.509262 176.0
225.560074 140.0
225.582428 124.0
225.637955 176.0
225.727509 220.0
225.81308 140.0
225.835159 88.0
225.89798 140.0
225.921906 48.0
226.03479 192.0
226.053345 224.0
226.089462 156.0
226.15831 148.0
226.245117 176.0
226.316971 136.0
226.430756 148.0
226.507431 184.0
226.625473 112.0
226.697388 176.0
226.743103 140.0
226.832245 84.0
226.856232 392.0
226.889206 124.0
226.919189 172.0
226.982147 136.0
227.021133 160.0
227.054123 164.0
227.105118 180.0
227.155441 108.0
227.180527 236.0
227.331528 188.0
227.393143 132.0
227.414154 112.0
227.438156 148.0
227.492188 120.0
227.537216 48.0
227.587906 136.0
227.660324 76.0
227.786469 120.0
227.817139 172.0
227.866531 216.0
227.903641 44.0
227.954727 176.0
228.165115 168.0
228.264343 88.0
228.300415 116.0
228.328369 136.0
228.414719 164.0
228.490982 136.0
228.509781 120.0
228.595581 104.0
228.661438 228.0
228.707916 172.0
228.74115 124.0
228.768387 128.0
228.806412 148.0
228.853806 208.0
228.968521 176.0
229.007538 184.0
229.046829 132.0
229.07695 248.0
229.137207 76.0
229.248688 84.0
229.287552 196.0
229.300751 116.0
229.307419 228.0
229.357178 96.0
229.411438 224.0
229.462692 52.0
229.510925 120.0
229.538574 168.0
229.601395 32.0
229.649658 152.0
229.676804 156.0
229.716019 140.0
229.743164 224.0
229.824615 152.0
229.909119 88.0
229.945328 176.0
229.97551 48.0
230.015625 220.0
230.053986 76.0
230.115402 164.0
230.153625 92.0
230.305511 108.0
230.431488 332.0
230.510056 136.0
230.567459 192.0
230.621872 180.0
230.6521 172.0
230.704697 216.0
230.774872 208.0
230.833496 136.0
230.872086 172.0
230.913086 124.0
230.947845 360.0
230.976318 160.0
231.002853 328.0
231.098694 144.0
231.229568 108.0
231.281235 124.0
231.335724 196.0
231.378113 216.0
231.457718 108.0
231.553726 120.0
231.647629 176.0
231.674896 260.0
231.771835 72.0
231.841537 120.0
231.885666 112.0
231.971863 260.0
232.023407 192.0
232.071915 184.0
232.133072 116.0
232.284195 104.0
232.409958 308.0
232.427994 232.0
232.541412 176.0
232.617981 64.0
232.648346 144.0
232.779938 152.0
232.827484 296.0
232.860901 80.0
232.90773 220.0
233.098602 208.0
233.166534 192.0
233.319717 204.0
233.396362 232.0
233.459595 340.0
233.518997 192.0
233.556381 144.0
233.610062 220.0
233.712067 156.0
233.733765 152.0
233.897705 156.0
233.925095 120.0
233.966705 84.0
233.995117 144.0
234.025558 64.0
234.046875 132.0
234.141281 136.0
234.190308 120.0
234.211334 336.0
234.250931 176.0
234.332016 168.0
234.424591 100.0
234.445923 220.0
234.516022 188.0
234.566391 168.0
234.601364 164.0
234.649643 192.0
234.670776 272.0
234.741623 128.0
234.814804 168.0
234.888016 284.0
234.924622 240.0
234.964996 168.0
235.027893 160.0
235.196198 104.0
235.226715 84.0
235.281662 248.0
235.333572 216.0
235.358002 152.0
235.387268 204.0
235.434341 232.0
235.505814 168.0
235.529007 48.0
235.602325 92.0
235.709259 128.0
235.732437 216.0
235.750916 120.0
235.96907 160.0
236.024094 132.0
236.062698 200.0
236.091614 152.0
236.11853 136.0
236.149475 92.0
236.180069 100.0
236.351379 152.0
236.406464 196.0
236.461548 36.0
236.570023 148.0
236.590103 172.0
236.636032 40.0
236.675827 368.0
236.711365 152.0
236.78302 120.0
236.884094 112.0
236.911667 64.0
236.957611 200.0
237.055664 156.0
237.141479 80.0
237.177002 156.0
237.275787 172.0
237.328476 108.0
237.365265 124.0
237.405121 44.0
237.44487 312.0
237.687347 116.0
237.708817 124.0
237.807495 132.0
237.932877 132.0
237.962891 112.0
237.990997 280.0
238.087265 184.0
238.121902 164.0
238.146393 196.0
238.310638 128.0
238.400818 172.0
238.495026 280.0
238.527328 188.0
238.599777 152.0
238.638885 140.0
238.685623 248.0
238.746216 216.0
238.82373 84.0
238.860931 76.0
238.897842 140.0
238.929016 148.0
238.952698 120.0
238.99321 148.0
239.02327 276.0
239.074875 116.0
239.142685 84.0
239.168625 120.0
239.202484 116.0
239.267136 104.0
239.329391 72.0
239.519653 224.0
239.56723 188.0
239.707581 212.0
239.746399 180.0
239.767136 160.0
239.802078 168.0
239.846268 136.0
239.896454 164.0
239.938736 188.0
239.963409 44.0
240.012741 160.0
240.046371 176.0
240.099762 128.0
240.157684 68.0
240.197784 128.0
240.222458 164.0
240.268738 316.0
240.345856 68.0
240.370544 80.0
240.419922 56.0
240.529297 144.0
240.551346 144.0
240.617462 196.0
240.642166 180.0
240.66687 80.0
240.708588 180.0
240.756424 120.0
240.818192 244.0
240.86142 224.0
240.937012 60.0
241.006622 196.0
241.035294 172.0
241.072922 100.0
241.124054 96.0
241.195145 184.0
241.256958 200.0
241.343536 136.0
241.368271 100.0
241.422073 60.0
241.474442 72.0
241.51062 124.0
241.559464 180.0
241.581665 108.0
241.609512 212.0
241.6642 132.0
241.700104 100.0
241.753036 468.0
241.779541 172.0
241.834961 84.0
241.902313 340.0
241.926147 96.0
241.956192 200.0
241.992493 180.0
242.045975 208.0
242.078247 196.0
242.10997 208.0
242.148361 344.0
242.18483 252.0
242.198334 216.0
242.213959 148.0
242.221283 160.0
242.267853 136.0
242.295609 188.0
242.316559 176.0
242.346695 292.0
242.383331 232.0
242.416229 160.0
242.469147 164.0
242.509018 216.0
242.520569 184.0
242.551163 588.0
242.608307 624.0
242.657898 372.0
242.709763 360.0
242.754257 296.0
242.774506 292.0
242.782715 396.0
242.825348 376.0
242.84816 696.0
242.903122 400.0
242.910706 468.0
242.922043 368.0
242.945053 528.0
242.983902 544.0
243.016418 872.0
243.094986 418340.0
243.201385 200.0
243.250992 160.0
243.286011 304.0
243.296219 224.0
243.347778 408.0
243.359604 268.0
243.392181 536.0
243.429596 332.0
243.46521 208.0
243.501831 204.0
243.566406 864.0
243.605988 11832.0
243.675049 156.0
243.686447 128.0
243.694153 40.0
243.740982 344.0
243.750275 240.0
243.809738 168.0
243.860321 164.0
243.913071 588.0
243.970657 420.0
244.033096 668.0
244.097031 147988.0
244.185211 140.0
244.217606 212.0
244.266953 84.0
244.298752 244.0
244.332352 152.0
244.353836 248.0
244.391098 268.0
244.425323 324.0
244.453415 136.0
244.46698 196.0
244.537811 188.0
244.567993 76.0
244.610306 296.0
244.658966 284.0
244.704254 116.0
244.747406 164.0
244.778854 164.0
244.833344 100.0
244.839951 48.0
244.871399 120.0
244.924667 188.0
244.98909 60.0
245.035614 56.0
245.098999 7516.0
245.178162 136.0
245.248871 64.0
245.306885 148.0
245.341934 132.0
245.388 108.0
245.447006 328.0
245.458313 424.0
245.502213 264.0
245.533096 156.0
245.556061 276.0
245.576782 368.0
245.603729 236.0
245.646515 412.0
245.695633 268.0
245.737488 196.0
245.807083 536.0
245.81456 352.0
245.840347 280.0
245.874283 160.0
245.901703 372.0
245.973328 324.0
246.013565 296.0
246.03656 140.0
246.046829 268.0
246.103363 684.0
246.180954 216.0
246.250412 92.0
246.328491 44.0
246.350479 68.0
246.404968 156.0
246.497299 96.0
246.552078 64.0
246.579834 92.0
246.627945 120.0
246.661102 180.0
246.712631 56.0
246.774307 280.0
246.803314 196.0
246.854599 84.0
246.893936 88.0
246.922348 164.0
246.953079 68.0
246.995209 96.0
247.019318 48.0
247.030014 124.0
247.102737 84.0
247.118637 80.0
247.129761 172.0
247.163223 72.0
247.192993 96.0
247.220444 56.0
247.288712 80.0
247.321579 140.0
247.333679 60.0
247.340057 72.0
247.380737 48.0
247.464859 184.0
247.525772 112.0
247.598206 88.0
247.604019 84.0
247.654724 80.0
247.700363 56.0
247.730789 152.0
247.778564 120.0
247.817627 100.0
247.86853 152.0
247.936691 104.0
247.968033 76.0
248.044693 48.0
248.071472 96.0
248.099686 140.0
248.131042 36.0
248.19397 56.0
248.262726 36.0
248.42897 88.0
248.523087 80.0
248.72905 48.0
248.766312 60.0
248.82753 84.0
248.880905 68.0
248.975098 44.0
249.000229 52.0
249.107025 36.0
249.333237 80.0
249.510925 76.0
249.594162 112.0
249.811157 84.0
249.877228 80.0
249.92128 56.0
249.975632 132.0
250.048721 40.0
250.24231 52.0
250.368271 40.0
250.39032 64.0
250.563553 128.0
250.676987 72.0
250.869247 92.0
250.970139 76.0
251.067886 36.0
251.272568 112.0
251.345474 132.0
251.421219 40.0
251.74321 40.0
251.862549 56.0
251.923599 72.0
252.008545 68.0
252.084381 144.0
252.138107 164.0
252.160217 64.0
252.378342 40.0
252.523804 92.0
252.587067 76.0
252.688293 56.0
252.716766 56.0
252.745255 80.0
252.868668 60.0
253.023773 64.0
253.109253 100.0
253.163086 60.0
253.210587 60.0
253.305618 60.0
253.344223 64.0
253.368973 72.0
253.394318 88.0
253.467194 52.0
253.55275 72.0
253.608704 92.0
253.652695 64.0
253.692215 60.0
253.806351 60.0
253.871033 100.0
253.965118 96.0
253.99028 152.0
254.04657 104.0
254.214142 116.0
254.281204 208.0
254.352951 108.0
254.469467 120.0
254.526627 160.0
254.561813 96.0
254.780502 60.0
254.869675 64.0
255.006317 32.0
255.082596 64.0
255.114395 48.0
255.169373 96.0
255.203415 80.0
255.257462 32.0
255.279724 96.0
255.41011 92.0
255.432388 80.0
255.483704 60.0
255.53418 36.0
255.62645 120.0
255.727661 60.0
255.752075 76.0
255.833328 60.0
255.91478 96.0
255.954315 68.0
255.995712 56.0
256.07135 152.0
256.109802 68.0
256.130493 88.0
256.153137 84.0
256.209106 60.0
256.266449 80.0
256.378845 124.0
256.680817 76.0
256.719086 72.0
256.80838 32.0
256.868988 116.0
256.923218 60.0
257.012543 36.0
257.034882 108.0
257.069977 180.0
257.117859 32.0
257.178497 112.0
257.408356 84.0
257.638306 92.0
257.660675 64.0
257.724579 88.0
257.881165 96.0
257.945557 56.0
258.06955 116.0
258.143311 92.0
258.191956 96.0
258.236053 76.0
258.268036 52.0
258.386414 72.0
258.459991 152.0
258.6008 44.0
258.626404 84.0
258.69043 60.0
258.722443 88.0
258.796082 128.0
258.940186 64.0
258.985016 96.0
259.08432 60.0
259.163757 60.0
259.334259 36.0
259.411194 84.0
259.539429 40.0
259.891541 112.0
259.975677 96.0
260.04306 80.0
260.213196 108.0
260.325592 76.0
260.380157 80.0
260.431549 112.0
260.547211 56.0
260.807495 64.0
260.862122 84.0
260.913574 68.0
260.939301 28.0
260.990723 72.0
261.019653 48.0
261.106506 40.0
261.180481 52.0
261.264099 60.0
261.312347 84.0
261.399231 68.0
261.437866 60.0
261.527954 80.0
261.582672 68.0
262.233337 36.0
262.262329 48.0
262.646027 40.0
263.143005 104.0
263.268921 124.0
263.440094 44.0
263.475647 128.0
263.996033 76.0
264.028381 80.0
264.380981 88.0
264.559021 40.0
264.785675 128.0
264.821289 84.0
264.980011 108.0
265.096649 76.0
265.265198 116.0
265.443512 68.0
266.439941 72.0
266.488678 88.0
266.621887 48.0
267.067322 88.0
267.116119 64.0
267.14212 48.0
268.167816 104.0
268.532959 124.0
268.712372 124.0
268.866974 32.0
269.136688 52.0
269.218323 152.0
269.871826 80.0
269.89801 108.0
270.71933 68.0
270.74881 76.0
271.686218 100.0
271.902802 32.0
272.099731 128.0
273.121735 308.0
273.827545 80.0
273.905121 84.0
274.050079 112.0
274.343384 60.0
274.762878 60.0
276.119812 120.0
276.828003 100.0
278.034698 52.0
278.197327 44.0
278.316833 96.0
279.01123 28.0
279.10434 56.0
279.540894 48.0
279.603302 60.0
280.652618 56.0
281.683838 36.0
282.138306 64.0
282.161713 96.0
282.395782 48.0
282.596497 32.0
282.991455 76.0
283.604492 48.0
284.104126 60.0
284.409485 68.0
285.524933 140.0
285.790649 132.0
286.052826 76.0
286.117126 156.0
286.151428 148.0
286.878479 88.0
286.986359 88.0
287.13324 184.0
287.515961 48.0
288.789642 100.0
289.751007 76.0
290.018707 84.0
290.154297 108.0
290.954956 68.0
291.121338 48.0
293.27829 52.0
294.691071 44.0
295.220886 152.0
296.134247 168.0
297.59549 72.0
298.237885 60.0
298.40979 80.0
298.960144 68.0
299.512543 88.0
301.605438 96.0
301.996124 60.0
302.577484 56.0
302.653656 84.0
303.672485 76.0
303.724487 104.0
303.77652 44.0
304.578369 68.0
307.4263 68.0
307.450714 100.0
307.845215 128.0
307.953461 36.0
308.14209 84.0
308.166565 52.0
309.138611 164.0
310.915344 116.0
311.183502 832.0
311.350677 72.0
311.75116 80.0
312.12439 252.0
312.189453 248.0
312.31015 72.0
312.405121 84.0
312.429749 112.0
313.118622 152.0
314.335876 36.0
315.149139 180.0
316.700989 56.0
317.127838 76.0
318.076721 40.0
318.809753 72.0
319.249176 68.0
319.91098 64.0
320.213623 152.0
322.354095 52.0
323.913971 84.0
325.330414 52.0
326.483795 76.0
326.947876 112.0
327.707642 128.0
328.165375 136.0
328.313232 172.0
328.36731 88.0
330.209229 76.0
331.009003 64.0
331.237183 64.0
331.320496 148.0
331.385712 84.0
331.755371 84.0
332.524353 124.0
332.992676 60.0
333.021729 48.0
333.261505 80.0
333.395935 80.0
333.515869 60.0
333.664917 68.0
335.590912 32.0
336.338745 56.0
337.943054 56.0
338.265106 100.0
338.444489 112.0
338.484772 128.0
339.448486 68.0
339.998749 100.0
340.810272 88.0
341.174103 136.0
342.031219 96.0
342.167419 60.0
342.657257 76.0
343.228546 96.0
343.837219 40.0
344.15097 48.0
344.682861 64.0
344.741974 72.0
345.278015 92.0
345.39267 44.0
345.551758 92.0
346.336548 68.0
346.740387 76.0
347.459747 72.0
348.647949 60.0
348.696259 96.0
348.729706 148.0
349.328339 52.0
352.392792 92.0
352.886139 96.0
353.196533 44.0
354.274597 44.0
354.38324 88.0
354.484406 108.0
354.698029 84.0
355.53067 60.0
355.60199 64.0
356.198975 92.0
356.694977 52.0
356.995758 80.0
357.360626 48.0
357.804718 136.0
358.234039 80.0
358.878479 52.0
359.689575 36.0
359.882111 100.0
360.048279 96.0
360.097351 128.0
360.339111 36.0
360.410919 68.0
360.758606 60.0
360.989227 56.0
361.023285 72.0
361.101318 100.0
361.632385 56.0
361.658875 160.0
361.730774 84.0
362.355652 96.0
362.431427 104.0
363.371704 64.0
363.432404 76.0
363.929626 140.0
364.643799 100.0
365.488007 76.0
365.781036 48.0
366.577026 52.0
367.618073 80.0
369.096375 52.0
369.811737 84.0
371.060516 64.0
371.094025 92.0
372.065674 36.0
373.291351 64.0
375.309052 128.0
376.323792 84.0
376.578644 100.0
376.941803 56.0
377.250977 212.0
377.904572 112.0
378.643921 96.0
378.744629 100.0
378.771759 84.0
379.686432 36.0
380.16748 92.0
380.217926 96.0
380.245117 116.0
380.311096 80.0
381.690216 48.0
381.783539 132.0
381.922729 96.0
382.051331 104.0
382.66684 64.0
382.954987 68.0
383.395233 40.0
384.046326 92.0
384.483276 32.0
385.111847 88.0
385.654938 52.0
386.397919 88.0
386.91452 52.0
386.992828 76.0
387.862518 124.0
388.140869 112.0
390.969208 80.0
391.445526 68.0
392.138885 80.0
393.606384 44.0
394.048767 68.0
394.85437 120.0
395.642548 64.0
395.808838 72.0
396.066254 28.0
396.280182 136.0
396.391144 96.0
396.454529 92.0
396.676483 72.0
397.271301 44.0
397.307007 48.0
397.429993 76.0
397.541107 144.0
397.612549 96.0
398.704681 60.0
399.344757 96.0
399.663025 52.0
399.873932 72.0
400.272003 68.0
400.487061 76.0
400.646393 96.0
400.929291 92.0
401.095978 112.0
403.228058 76.0
404.207794 48.0
404.315857 116.0
404.68811 92.0
404.780212 80.0
404.92038 88.0
405.56543 84.0
406.16687 84.0
407.146179 104.0
407.178314 84.0
407.330933 44.0
407.985962 48.0
408.211121 52.0
408.420258 104.0
409.128479 36.0
410.595154 68.0
411.494965 108.0
412.965881 84.0
413.075104 96.0
413.297607 124.0
413.61731 108.0
413.714478 80.0
413.807587 112.0
414.078888 64.0
414.19635 92.0
414.22876 96.0
414.54071 76.0
415.473267 104.0
416.321564 68.0
417.984161 44.0
420.788361 56.0
422.271698 76.0
423.040924 160.0
423.094147 48.0
423.91333 160.0
424.405212 88.0
424.79071 44.0
424.913788 48.0
426.203003 76.0
427.387177 124.0
427.551758 52.0
427.815186 44.0
427.844025 76.0
428.264038 108.0
428.824371 128.0
428.86557 68.0
429.364441 52.0
429.508789 100.0
429.583038 44.0
429.710938 68.0
430.813232 72.0
431.453766 64.0
431.90036 64.0
432.533447 68.0
433.166992 104.0
433.266418 112.0
433.502594 132.0
433.73468 80.0
434.257111 60.0
434.37738 48.0
434.418854 76.0
434.551636 104.0
434.613861 64.0
434.900208 32.0
435.070648 132.0
435.218781 6184.0
435.693329 88.0
435.739014 68.0
435.865295 112.0
436.221283 1696.0
436.275146 156.0
436.416473 44.0
436.919739 32.0
437.226654 488.0
437.352509 88.0
437.406616 80.0
437.593933 92.0
437.702209 48.0
437.77298 48.0
437.814636 60.0
438.185333 92.0
438.6521 60.0
438.964783 128.0
439.890991 76.0
440.099731 40.0
440.350281 44.0
440.813995 128.0
442.089417 84.0
442.830444 148.0
442.863953 48.0
442.901642 56.0
442.964478 44.0
443.358307 28.0
444.440186 100.0
444.834686 76.0
446.204193 56.0
446.692017 44.0
447.554779 68.0
448.249786 32.0
448.654388 100.0
449.291199 88.0
451.19162 96.0
452.477722 88.0
452.909637 72.0
453.837738 68.0
454.113373 52.0
455.046936 88.0
455.318695 32.0
455.883698 84.0
456.878632 64.0
457.563812 64.0
458.160034 64.0
459.114807 100.0
459.22995 76.0
459.511505 64.0
460.010803 64.0
460.25415 164.0
460.676971 40.0
462.395844 92.0
463.603516 40.0
463.830688 60.0
464.040741 88.0
465.701447 72.0
465.757294 36.0
466.651123 40.0
470.558868 64.0
471.89389 44.0
471.9328 40.0
475.31131 64.0
479.207123 52.0
479.363983 96.0
479.660339 56.0
479.86087 40.0
480.406006 56.0
481.252686 56.0
482.003937 168.0
482.983246 64.0
483.241333 92.0
484.826447 60.0
485.558594 44.0
485.716492 36.0
486.111328 88.0
486.142059 52.0
487.833008 48.0
489.214294 48.0
489.469666 112.0
489.676636 80.0
489.782349 84.0
490.170044 32.0
490.738647 96.0
491.519348 52.0
492.623077 48.0
493.940369 52.0
494.484589 44.0
495.06897 68.0
495.658112 40.0
496.189972 160.0
496.686646 116.0
497.574188 36.0
497.658539 48.0
498.639557 52.0
499.778656 68.0
500.673401 152.0
501.551086 32.0
504.112854 100.0
509.076294 72.0
509.314331 60.0
511.022583 52.0
511.868774 84.0
512.283142 68.0
512.625549 68.0
513.238586 44.0
513.333252 60.0
514.181396 88.0
515.604004 40.0
516.295654 76.0
517.196045 72.0
520.105957 60.0
521.473145 48.0
523.784485 68.0
523.916626 60.0
524.90564 68.0
525.831726 80.0
527.828064 88.0
528.088684 56.0
529.379272 56.0
529.896851 68.0
530.634766 56.0
530.763123 88.0
534.138672 68.0
534.276672 136.0
534.548096 44.0
535.381348 88.0
540.255432 100.0
540.861633 80.0
541.093079 64.0
541.185669 108.0
542.473633 84.0
542.608032 64.0
545.821045 148.0
547.542847 40.0
550.644226 36.0
551.709595 112.0
553.927673 76.0
554.026062 76.0
558.16095 84.0
562.5 96.0
563.222473 60.0
563.775269 44.0
566.6474 104.0
566.761108 68.0
567.73761 60.0
567.813477 112.0
570.467712 68.0
572.051758 76.0
572.675537 108.0
572.856567 160.0
575.049927 100.0
576.289307 108.0
577.768799 100.0
579.770264 56.0
581.525574 52.0
584.15387 68.0
585.73407 72.0
587.65625 144.0
587.829956 44.0
591.33844 88.0
591.764465 48.0
592.38916 144.0
593.571716 88.0
594.847717 184.0
595.590637 84.0
598.98584 68.0
600.789429 88.0
601.428711 76.0
602.082947 56.0
602.752197 36.0
604.037964 48.0
604.639771 116.0
605.956848 144.0
608.472961 148.0
609.877869 60.0
610.910461 40.0
611.456665 40.0
613.254333 72.0
613.628967 80.0
614.55127 108.0
615.331055 88.0
616.002686 92.0
616.210144 60.0
617.060242 52.0
619.32666 60.0
620.337524 84.0
621.056519 232.0
622.45105 48.0
623.007324 40.0
623.290527 136.0
624.408997 52.0
625.404053 84.0
626.926758 92.0
627.905151 52.0
632.301636 48.0
633.428223 60.0
635.453491 80.0
636.743591 68.0
639.060913 84.0
647.541565 84.0
647.956909 84.0
647.997498 104.0
648.838745 72.0
649.087219 76.0
650.26416 68.0
651.787598 112.0
653.00769 52.0
655.670715 52.0
655.792664 256.0
656.557434 144.0
657.108276 68.0
659.968506 52.0
661.17572 56.0
661.800232 80.0
661.953796 60.0
662.450623 196.0
663.352539 180.0
664.167786 92.0
664.249878 52.0
665.291565 88.0
666.364929 80.0
667.861694 48.0
671.605408 188.0
673.019409 80.0
673.091736 72.0
674.662354 140.0
675.846741 132.0
675.970886 60.0
676.224487 160.0
676.747314 100.0
678.000854 120.0
678.773254 100.0
679.623962 184.0
681.264526 100.0
681.311279 108.0
681.368408 168.0
681.784119 88.0
683.089111 72.0
683.130737 64.0
683.916443 128.0
686.036499 164.0
689.737549 44.0
690.47998 44.0
691.777588 176.0
695.184387 44.0
695.336548 52.0
695.798462 124.0
696.349854 100.0
696.59668 36.0
696.885681 100.0
697.327087 144.0
698.646851 132.0
700.315491 96.0
701.501099 212.0
702.202393 52.0
702.940918 68.0
706.433228 68.0
710.931519 236.0
713.83197 104.0
715.832764 136.0
716.354736 160.0
718.772766 44.0
721.563293 48.0
721.670227 144.0
722.049866 72.0
722.568726 56.0
725.315918 72.0
726.24353 236.0
726.35614 204.0
727.703125 76.0
729.368469 136.0
731.660095 92.0
731.956177 56.0
732.020813 80.0
734.268066 132.0
736.848206 124.0
738.291443 68.0
738.421204 48.0
738.962158 76.0
741.431335 108.0
743.090637 172.0
743.584412 200.0
743.644104 40.0
746.208069 56.0
747.268616 68.0
750.138611 128.0
751.338379 76.0
751.949463 104.0
753.205261 72.0
753.860901 148.0
754.751892 108.0
754.795654 44.0
756.557373 164.0
757.252747 232.0
759.724854 32.0
762.563721 228.0
764.675659 208.0
765.176575 48.0
765.611572 48.0
766.498474 72.0
767.446533 128.0
770.100891 64.0
771.349609 84.0
772.997742 60.0
773.888916 136.0
774.02179 176.0
774.90802 236.0
775.584045 28.0
776.143982 72.0
779.279968 44.0
779.424438 140.0
779.624512 160.0
780.341553 80.0
782.10498 140.0
783.012512 188.0
783.385681 136.0
785.442627 184.0
787.569214 80.0
789.17865 96.0
789.324036 188.0
790.12384 84.0
790.991211 76.0
791.646301 100.0
791.97113 64.0
793.4505 92.0
793.955139 92.0
797.014465 164.0
797.565247 160.0
800.203552 32.0
800.400635 120.0
802.846252 144.0
802.91394 120.0
803.309998 128.0
805.250427 176.0
807.087036 96.0
808.274841 100.0
810.653137 68.0
811.174561 52.0
811.843567 128.0
812.178162 28.0
814.88031 68.0
816.119385 68.0
816.784729 64.0
817.581299 240.0
818.537598 120.0
819.71106 92.0
824.601746 28.0
825.882507 240.0
826.185669 84.0
827.387451 84.0
828.744812 124.0
829.203247 88.0
830.057434 112.0
830.304016 40.0
831.663757 168.0
832.031128 236.0
833.834778 240.0
840.284058 176.0
841.028503 80.0
842.535645 208.0
842.668518 64.0
843.26947 192.0
843.812866 108.0
845.345642 176.0
845.750732 180.0
846.960876 80.0
847.209961 164.0
847.777771 72.0
848.166138 112.0
849.534607 76.0
849.610046 152.0
849.760864 100.0
849.824524 124.0
850.259888 264.0
850.619751 184.0
853.373413 52.0
853.704834 36.0
854.164307 164.0
856.079163 172.0
857.50061 56.0
857.832886 180.0
858.054382 132.0
858.707458 140.0
860.382141 100.0
860.662415 152.0
861.877319 96.0
862.946899 68.0
863.116516 180.0
864.33313 132.0
864.415039 176.0
865.779053 68.0
866.394043 96.0
867.249573 84.0
867.57196 96.0
867.700928 108.0
868.005798 120.0
870.217896 108.0
870.922546 72.0
871.404297 64.0
871.944885 184.0
872.268127 88.0
872.850159 136.0
873.150085 188.0
873.255981 128.0
874.214905 100.0
874.932983 120.0
875.739685 172.0
876.558594 196.0
876.859131 76.0
877.879028 80.0
878.22699 48.0
878.515991 168.0
878.698914 168.0
878.940796 60.0
879.159119 196.0
879.78479 124.0
881.213989 136.0
882.218689 152.0
882.650269 72.0
883.289001 184.0
885.218384 32.0
885.57373 176.0
888.187622 128.0
889.398071 172.0
890.437073 132.0
891.411377 220.0
892.219666 132.0
893.206848 116.0
893.599487 168.0
893.867188 68.0
894.51593 148.0
895.444763 144.0
895.802185 116.0
896.874756 72.0
897.202576 96.0
898.007568 36.0
899.266479 200.0
899.732056 80.0
900.024597 156.0
900.084351 192.0
900.179871 72.0
900.771118 184.0
903.030518 168.0
904.203125 44.0
905.616089 244.0
908.487305 224.0
909.741516 116.0
910.468079 168.0
911.272949 100.0
911.52533 92.0
911.921997 128.0
912.216492 116.0
912.36676 196.0
912.45697 84.0
914.610535 144.0
914.718872 52.0
914.893433 208.0
915.658142 156.0
915.73645 164.0
915.911133 100.0
916.453308 180.0
917.387451 212.0
917.447754 172.0
918.285889 92.0
918.460815 108.0
918.647827 160.0
919.359741 76.0
920.283325 228.0
920.84491 124.0
921.207336 212.0
921.352295 168.0
921.473145 180.0
921.914246 48.0
922.294983 124.0
923.189758 48.0
923.5224 116.0
923.576843 120.0
923.776428 128.0
923.976074 112.0
924.266479 136.0
925.016968 144.0
926.324951 124.0
926.579346 96.0
926.791382 80.0
927.403503 188.0
928.100647 68.0
929.75061 136.0
929.829468 204.0
929.908386 76.0
930.029785 88.0
930.096558 236.0
931.201599 160.0
931.402039 28.0
932.234375 140.0
932.550415 92.0
932.641541 160.0
932.994141 140.0
933.243408 172.0
933.948853 72.0
934.891846 176.0
935.348328 164.0
936.371216 56.0
936.517395 120.0
936.657471 60.0
937.650635 88.0
937.98584 160.0
938.052856 192.0
939.681824 72.0
940.260864 220.0
941.463501 76.0
941.762756 128.0
942.911377 192.0
943.11615 192.0
943.510437 120.0
943.879883 260.0
944.611145 96.0
946.012512 128.0
946.594116 144.0
947.273987 108.0
947.880493 144.0
948.536255 148.0
948.922485 80.0
949.081909 144.0
949.535706 124.0
950.520081 180.0
950.750427 192.0
951.063416 200.0
951.106384 104.0
951.560669 148.0
952.018677 108.0
952.343384 196.0
952.960999 136.0
953.016235 212.0
953.86438 104.0
954.337708 40.0
954.386902 68.0
954.688232 144.0
954.866577 152.0
955.032654 64.0
957.020325 96.0
958.282959 124.0
958.923828 192.0
960.126038 128.0
960.286377 104.0
960.786011 108.0
960.866211 84.0
961.760986 132.0
962.230164 96.0
962.285706 192.0
963.253845 204.0
963.539429 80.0
964.221375 80.0
964.268616 96.0
964.355103 176.0
966.439148 80.0
966.618591 132.0
966.921814 180.0
967.299377 224.0
967.757507 196.0
968.835083 204.0
969.299805 84.0
969.907166 60.0
970.093079 96.0
970.855713 92.0
972.388062 92.0
972.623962 156.0
972.903259 32.0
972.952942 140.0
973.977539 144.0
975.01001 160.0
975.083496 88.0
976.233582 148.0
976.724915 48.0
977.241272 128.0
977.701721 220.0
978.224548 196.0
978.380188 64.0
979.199219 112.0
979.27063 216.0
980.398254 112.0
980.809631 84.0
981.01532 68.0
981.083923 136.0
981.408081 48.0
981.458008 152.0
981.539062 140.0
981.769775 160.0
981.931946 84.0
982.437134 156.0
982.892578 128.0
983.156372 136.0
983.416809 112.0
983.485474 232.0
983.572876 148.0
983.67865 168.0
983.972412 128.0
984.122253 140.0
984.190918 92.0
984.769348 128.0
985.196411 252.0
985.258911 56.0
985.32135 72.0
985.365112 168.0
985.602539 112.0
985.80249 132.0
985.883728 120.0
985.964966 156.0
986.17749 140.0
986.289978 144.0
986.796326 124.0
987.29657 84.0
987.44043 228.0
987.621765 204.0
987.709351 100.0
987.872009 144.0
988.604004 144.0
988.930237 160.0
989.211121 80.0
989.380188 116.0
989.436523 176.0
989.805908 180.0
990.144043 68.0
990.626343 208.0
991.177673 172.0
991.284241 204.0
991.648376 144.0
992.089661 212.0
993.027039 40.0
993.158752 96.0
993.265381 212.0
993.591553 32.0
993.685669 160.0
993.811157 176.0
994.294373 136.0
995.028748 112.0
995.16687 140.0
995.223389 152.0
995.286194 100.0
995.692078 100.0
996.30365 144.0
996.63031 56.0
996.825134 216.0
997.315308 48.0
997.987976 196.0
998.415588 132.0
998.522461 88.0
999.082275 112.0
999.359131 180.0
999.491272 112.0
999.818481 92.0
1000.107971 80.0
1000.567505 176.0
1001.499512 188.0
1002.022339 192.0
1002.1026 200.0
1002.992798 140.0
1004.253845 124.0
1004.575562 60.0
1005.092896 160.0
1005.361572 172.0
1005.509399 164.0
1006.007996 136.0
1006.677246 180.0
1006.873047 48.0
1007.662598 92.0
1008.057129 248.0
1008.142822 128.0
1008.357727 164.0
1008.477783 132.0
1008.5979 212.0
1008.958191 120.0
1010.020569 176.0
1010.324219 144.0
1010.539307 96.0
1010.640564 164.0
1011.317688 136.0
1011.475952 136.0
1011.725952 208.0
1011.893738 152.0
1012.006592 164.0
1012.805603 144.0
1012.87323 284.0
1013.451782 104.0
1013.651428 168.0
1013.787659 164.0
1014.079163 140.0
1014.675049 64.0
1014.719421 172.0
1014.770142 72.0
1014.871582 116.0
1015.036438 120.0
1015.175964 112.0
1015.404236 132.0
1015.664307 128.0
1015.73407 180.0
1016.009827 128.0
1016.070251 132.0
1016.327148 156.0
1016.520752 132.0
1016.838074 68.0
1016.895203 176.0
1017.072876 184.0
1017.385132 168.0
1017.472839 124.0
1017.574402 148.0
1018.04425 100.0
1018.349121 108.0
1018.427307 140.0
1018.952576 172.0
1019.051086 128.0
1019.295715 84.0
1019.378296 124.0
1019.607056 40.0
1020.007507 148.0
1020.236816 152.0
1020.388916 80.0
1020.579651 180.0
1020.833984 112.0
1020.973877 172.0
1021.336426 96.0
1021.387329 96.0
1021.44751 136.0
1021.686279 152.0
1021.928711 112.0
1022.169861 152.0
1022.335266 236.0
1022.889038 148.0
1023.086365 120.0
1023.25824 128.0
1023.805847 220.0
1023.89502 152.0
1024.334473 144.0
1024.454712 188.0
1024.53833 96.0
1024.633911 148.0
1025.143677 108.0
1025.500488 104.0
1025.847412 116.0
1026.864868 88.0
1027.317749 148.0
1027.770752 148.0
1028.128052 72.0
1028.300415 204.0
1028.989868 88.0
1029.328247 212.0
1029.46875 124.0
1029.615601 116.0
1030.22876 132.0
1030.45874 120.0
1030.963501 68.0
1031.161621 128.0
1031.417358 228.0
1031.937378 148.0
1032.411499 152.0
1032.715332 164.0
1033.054321 180.0
1033.143921 120.0
1033.463745 200.0
1033.860474 152.0
1034.039673 96.0
1034.110107 140.0
1034.340576 96.0
1035.275269 140.0
1035.326538 152.0
1035.909302 116.0
1036.255249 144.0
1036.556396 148.0
1036.812744 68.0
1036.915283 136.0
1037.242188 148.0
1037.344727 220.0
1037.787109 140.0
1037.953857 196.0
1038.120605 100.0
1038.248779 136.0
1038.659302 232.0
1038.77478 116.0
1038.954346 52.0
1039.030762 168.0
1039.152832 164.0
1039.377808 164.0
1039.442017 136.0
1039.815918 180.0
1040.032471 156.0
1040.539551 152.0
1040.71936 80.0
1040.764282 172.0
1040.813965 60.0
1041.078857 120.0
1041.290894 124.0
1041.338867 164.0
1041.412842 128.0
1041.564819 184.0
1041.984619 108.0
1042.209473 76.0
1042.389404 100.0
1042.742798 128.0
1042.903442 60.0
1043.565674 80.0
1043.758545 144.0
1044.491699 172.0
1044.755371 124.0
1044.839111 100.0
1045.199341 48.0
1045.611206 88.0
1045.701294 112.0
1045.894409 100.0
1046.081055 80.0
1046.222656 168.0
1046.293457 56.0
1046.447998 176.0
1046.682495 132.0
1046.782837 60.0
1046.918091 132.0
1047.091919 112.0
1047.149902 108.0
1047.201416 120.0
1047.320557 176.0
1047.368896 156.0
1047.51062 88.0
1047.768311 144.0
1048.011597 116.0
1048.174194 136.0
1048.264404 100.0
1048.48999 84.0
1048.554443 136.0
1049.037842 124.0
1049.373047 132.0
1049.566528 212.0
1049.682617 128.0
1050.037231 120.0
1050.095337 108.0
1050.275879 84.0
1050.366211 96.0
1050.456543 64.0
1050.804932 128.0
1050.984863 148.0
1051.405029 108.0
1052.21167 160.0
1052.579834 92.0
1052.935059 128.0
1052.999634 128.0
1053.102905 96.0
1053.17395 140.0
1053.438843 140.0
1053.633423 184.0
1053.772827 216.0
1054.007324 152.0
1054.472656 200.0
1054.524414 164.0
1055.196655 76.0
1055.394897 212.0
1055.759155 120.0
1055.979126 44.0
1056.329468 156.0
1056.891235 48.0
1056.981812 132.0
1057.06897 120.0
1057.234131 84.0
1057.713135 140.0
1057.842529 148.0
1057.946167 164.0
1058.071045 188.0
1058.140381 124.0
1058.48999 192.0
1058.619507 48.0
1058.776855 196.0
1059.228271 148.0
1059.435547 44.0
1059.604004 84.0
1059.662354 140.0
1060.031616 140.0
1060.115967 112.0
1060.584473 152.0
1060.692749 84.0
1060.738159 52.0
1060.828857 200.0
1061.269653 100.0
1061.412354 136.0
1061.743042 176.0
1061.892212 160.0
1062.080322 204.0
1062.294434 336.0
1062.463013 84.0
1063.2677 132.0
1063.37146 60.0
1063.449341 88.0
1063.916748 60.0
1064.124512 80.0
1064.410156 160.0
1064.781006 72.0
1064.943848 120.0
1065.0271 32.0
1065.118042 168.0
1065.429932 136.0
1065.629883 184.0
1065.988647 116.0
1066.03418 52.0
1066.37854 164.0
1066.677612 120.0
1066.742554 140.0
1066.846558 48.0
1066.922485 148.0
1067.555298 188.0
1067.60083 96.0
1067.750366 132.0
1068.030029 196.0
1068.101562 96.0
1068.192627 100.0
1068.888794 156.0
1068.934326 132.0
1069.240234 136.0
1069.533081 148.0
1069.852051 112.0
1069.936646 132.0
1070.053833 132.0
1070.164551 168.0
1070.522705 88.0
1070.893921 84.0
1071.858032 128.0
1072.001465 76.0
1072.610474 236.0
1073.402954 252.0
1073.526855 92.0
1074.21167 224.0
1074.381226 164.0
1074.529175 144.0
1074.655273 72.0
1075.052734 92.0
1075.098999 180.0
1075.177368 152.0
1075.249146 156.0
1075.386108 144.0
1075.510132 136.0
1075.555908 144.0
1075.967163 184.0
1076.052002 88.0
1076.607056 220.0
1076.737671 104.0
1076.783325 92.0
1076.868286 168.0
1077.534546 108.0
1077.730591 156.0
1077.913452 108.0
1078.037598 160.0
1078.103027 140.0
1078.286011 124.0
1078.387451 160.0
1078.488647 100.0
1078.594116 140.0
1078.644775 180.0
1078.835083 160.0
1079.318848 192.0
1079.717773 140.0
1080.0448 76.0
1080.156006 148.0
1080.26062 128.0
1080.430664 208.0
1081.281372 188.0
1081.615112 108.0
1081.739502 164.0
1081.922852 128.0
1082.151978 164.0
1082.5448 144.0
1082.610352 112.0
1082.692383 192.0
1082.846069 220.0
1083.127686 132.0
1083.232788 168.0
1083.38623 164.0
1083.520752 132.0
1083.579712 100.0
1083.677979 148.0
1083.815552 96.0
1083.894287 92.0
1083.953247 104.0
1084.32019 116.0
1084.602051 164.0
1084.831421 60.0
1084.910156 96.0
1085.001953 104.0
1085.068481 104.0
1085.218262 168.0
1085.37561 112.0
1086.228149 172.0
1086.383545 160.0
1087.186157 92.0
1087.291138 72.0
1087.409302 104.0
1087.599609 248.0
1087.960571 144.0
1088.019653 124.0
1088.072266 132.0
1088.499023 148.0
1089.063843 152.0
1089.129517 336.0
1089.602417 52.0
1090.200317 156.0
1090.515869 124.0
1090.706421 92.0
1090.92334 144.0
1090.975952 132.0
1091.258667 128.0
1091.350708 100.0
1091.409912 172.0
1091.468994 120.0
1091.580811 104.0
1091.686035 148.0
1091.79126 120.0
1091.927002 156.0
1092.001709 160.0
1092.100342 132.0
1092.300293 144.0
1092.514771 132.0
1092.567383 120.0
1092.672729 44.0
1092.744995 136.0
1092.929321 128.0
1093.363647 104.0
1093.429199 128.0
1093.554443 200.0
1093.611328 244.0
1093.712402 148.0
1093.86377 140.0
1094.174438 192.0
1094.232422 76.0
1094.537109 168.0
1094.647217 144.0
1094.809082 224.0
1095.040894 120.0
1095.577881 180.0
1095.641846 176.0
1095.898071 152.0
1095.977783 180.0
1096.083252 112.0
1096.175537 132.0
1096.241455 28.0
1096.324829 132.0
1096.368896 136.0
1096.445679 164.0
1096.511597 172.0
1096.682983 152.0
1096.923096 152.0
1097.007812 156.0
1097.070801 128.0
1097.137817 80.0
1097.538818 152.0
1097.698242 112.0
1097.767578 120.0
1097.942261 116.0
1098.338013 124.0
1098.691162 120.0
1098.766724 140.0
1098.95813 116.0
1099.043823 212.0
1099.284668 192.0
1099.419922 112.0
1099.591553 56.0
1099.809326 156.0
1100.206543 120.0
1100.410034 124.0
1100.568604 156.0
1100.700562 180.0
1100.798462 232.0
1101.268555 32.0
1101.625244 128.0
1101.909302 168.0
1102.13501 128.0
1102.31897 148.0
1102.371826 112.0
1102.457764 96.0
1102.715454 148.0
1103.237671 152.0
1103.336792 92.0
1103.396362 144.0
1103.518311 132.0
1104.130249 80.0
1104.189819 164.0
1104.279663 164.0
1104.361816 60.0
1104.732178 92.0
1104.897583 112.0
1104.957153 136.0
1105.042847 108.0
1105.149048 68.0
1105.201904 108.0
1105.387207 136.0
1105.539429 132.0
1105.678345 80.0
1106.082153 228.0
1106.201294 128.0
1106.53894 120.0
1106.799927 132.0
1107.359985 140.0
1107.717651 108.0
1108.128418 136.0
1108.273438 148.0
1108.989868 108.0
1109.115845 132.0
1109.328003 164.0
1109.898071 152.0
1110.024048 164.0
1110.070557 284.0
1110.123535 104.0
1110.196533 180.0
1110.329102 72.0
1110.4552 156.0
1110.77356 116.0
1110.846558 160.0
1111.111816 88.0
1111.273071 112.0
1111.609497 140.0
1111.781982 92.0
1111.908081 104.0
1111.983521 200.0
1112.100586 168.0
1112.160278 48.0
1112.279785 268.0
1112.608032 112.0
1112.762695 124.0
1112.817505 100.0
1112.968262 200.0
1113.023315 136.0
1113.069824 112.0
1113.23584 68.0
1113.408447 136.0
1113.46167 64.0
1113.528076 104.0
1113.596313 184.0
1113.893311 56.0
1114.36499 92.0
1114.418213 144.0
1114.524536 192.0
1114.664062 252.0
1114.936523 44.0
1115.567505 128.0
1116.199585 108.0
1116.505371 68.0
1117.34082 100.0
1117.439209 128.0
1117.623169 320.0
1117.891602 172.0
1118.025635 108.0
1118.182251 196.0
1118.281738 152.0
1118.464233 208.0
1118.634521 60.0
1118.681152 196.0
1118.814697 136.0
1118.914185 108.0
1119.120605 296.0
1119.227051 92.0
1119.293701 112.0
1119.533447 116.0
1119.580078 128.0
1119.646606 108.0
1119.699951 128.0
1119.81311 140.0
1119.999634 120.0
1120.49231 140.0
1120.679077 148.0
1121.225464 112.0
1121.39209 156.0
1121.45874 104.0
1121.572144 144.0
1121.657471 140.0
1122.038696 124.0
1122.2854 176.0
1122.472168 104.0
1122.538818 184.0
1122.638794 140.0
1122.838867 128.0
1122.925537 176.0
1123.146729 132.0
1123.339111 128.0
1123.496948 204.0
1123.726074 144.0
1123.812866 144.0
1123.919556 132.0
1124.133057 140.0
1124.293213 152.0
1124.453369 80.0
1124.678345 184.0
1124.807129 164.0
1125.027466 220.0
1125.100952 144.0
1125.321167 152.0
1125.494751 148.0
1125.63501 48.0
1125.701782 88.0
1125.848755 132.0
1126.035767 172.0
1126.241089 148.0
1126.289551 196.0
1126.403687 120.0
1126.556763 164.0
1126.729492 180.0
1126.783813 68.0
1127.111206 192.0
1127.171387 132.0
1127.312866 116.0
1127.405273 92.0
1127.692627 168.0
1127.973389 240.0
1128.040161 164.0
1128.087036 112.0
1128.153809 124.0
1128.25415 208.0
1128.468018 92.0
1128.660278 176.0
1128.775635 116.0
1129.036499 188.0
1129.899292 128.0
1130.059937 132.0
1130.220459 76.0
1130.334229 144.0
1130.437256 228.0
1130.540283 116.0
1130.563843 168.0
1130.858643 132.0
1131.130615 92.0
1131.184204 100.0
1131.244385 100.0
1131.363159 180.0
1131.454956 136.0
1131.525635 192.0
1131.739868 148.0
1131.815308 220.0
1132.007324 132.0
1132.175171 100.0
1132.291626 204.0
1132.583618 56.0
1132.657349 100.0
1132.704224 140.0
1132.925293 84.0
1133.642212 92.0
1133.809692 100.0
1133.877075 152.0
1133.937134 128.0
1134.08374 136.0
1134.194824 160.0
1134.366089 136.0
1134.560425 144.0
1134.706299 176.0
1134.841675 328.0
1135.27124 128.0
1135.331543 120.0
1135.411987 208.0
1135.567505 64.0
1135.646729 32.0
1135.751221 132.0
1135.931885 248.0
1136.089478 172.0
1136.323486 128.0
1136.37793 156.0
1136.518799 152.0
1136.807373 144.0
1137.079468 156.0
1137.143188 132.0
1137.196655 144.0
1137.377808 128.0
1137.426392 312.0
1137.478149 124.0
1137.494263 188.0
1137.86792 116.0
1138.008911 120.0
1138.07605 52.0
1138.2052 116.0
1138.398315 152.0
1138.494751 148.0
1138.586426 116.0
1138.666992 104.0
1138.774414 176.0
1139.033325 176.0
1139.432739 160.0
1139.580566 120.0
1139.634277 168.0
1139.795532 220.0
1140.057617 128.0
1140.228271 132.0
1140.323853 192.0
1140.481079 64.0
1140.689453 180.0
1140.843994 168.0
1140.904541 64.0
1140.998657 96.0
1141.173462 140.0
1141.239258 148.0
1141.260132 116.0
1141.457153 100.0
1141.558472 140.0
1141.913086 168.0
1141.980347 120.0
1142.256226 124.0
1142.464722 180.0
1142.693481 84.0
1142.780884 188.0
1142.982788 72.0
1143.123413 164.0
1143.171143 192.0
1143.278809 124.0
1143.346191 188.0
1143.588379 60.0
1143.682617 192.0
1143.837524 192.0
1143.891357 108.0
1144.281738 116.0
1144.391724 148.0
1144.537598 44.0
1144.584717 104.0
1144.863159 176.0
1144.98938 160.0
1145.097656 120.0
1145.318848 212.0
1145.423584 152.0
1145.497925 252.0
1145.547852 136.0
1145.709595 152.0
1145.999268 144.0
1146.147461 84.0
1146.19458 156.0
1146.248535 188.0
1146.383301 64.0
1146.578735 104.0
1146.657959 200.0
1146.767456 72.0
1146.821411 72.0
1146.956177 96.0
1147.057251 40.0
1147.48877 116.0
1147.556152 116.0
1147.610107 48.0
1147.805664 168.0
1147.866333 120.0
1147.990356 164.0
1148.122559 152.0
1148.227051 240.0
1148.426025 184.0
1148.47998 172.0
1148.527222 160.0
1148.61499 100.0
1148.803833 144.0
1148.898315 116.0
1149.114136 104.0
1149.181641 124.0
1149.254639 164.0
1149.491943 128.0
1149.572998 96.0
1149.660645 84.0
1149.734985 84.0
1149.802368 164.0
1150.018433 120.0
1150.214111 60.0
1150.261353 164.0
1150.774414 144.0
1150.828491 176.0
1151.179565 132.0
1151.24707 52.0
1151.415894 252.0
1151.942749 148.0
1152.161011 132.0
1152.510254 148.0
1152.565186 152.0
1152.631958 108.0
1152.758911 212.0
1152.854858 112.0
1153.01709 116.0
1153.351685 152.0
1153.517212 64.0
1153.672729 136.0
1153.889038 152.0
1154.008179 248.0
1154.018799 148.0
1154.233887 116.0
1154.328613 112.0
1154.484131 60.0
1154.582275 216.0
1154.80603 152.0
1154.934204 196.0
1155.28894 144.0
1155.34314 84.0
1155.424316 128.0
1155.654297 152.0
1155.70166 100.0
1156.107666 144.0
1156.243042 100.0
1156.337769 128.0
1156.757446 96.0
1156.892822 84.0
1157.129761 76.0
1157.258423 116.0
1157.416748 200.0
1157.762695 136.0
1158.070312 116.0
1158.323242 168.0
1158.680664 172.0
1158.812134 208.0
1158.924561 96.0
1159.188843 188.0
1159.243042 108.0
1159.35144 144.0
1159.771729 148.0
1159.981812 184.0
1160.294434 140.0
1160.38855 164.0
1160.451538 168.0
1160.571655 92.0
1160.985229 112.0
1161.032715 120.0
1161.148071 92.0
1161.263306 136.0
1161.317627 196.0
1161.442261 124.0
1161.602417 76.0
1161.655029 136.0
1161.704224 152.0
1161.796265 124.0
1161.878662 204.0
1162.111328 160.0
1162.246948 136.0
1162.294434 68.0
1162.38269 220.0
1162.429199 112.0
1162.667725 168.0
1163.102051 116.0
1163.208008 160.0
1163.488892 184.0
1163.550171 180.0
1163.882812 120.0
1164.059326 52.0
1164.126221 156.0
1164.235596 192.0
1164.358154 160.0
1164.500122 136.0
1164.684204 108.0
1164.833618 76.0
1164.894775 124.0
1165.139282 164.0
1165.322754 152.0
1165.560547 112.0
1165.65564 88.0
1165.777954 152.0
1165.852783 56.0
1166.117798 188.0
1166.323486 164.0
1166.457642 136.0
1166.620972 140.0
1166.679199 168.0
1166.746704 296.0
1166.811157 72.0
1166.858765 84.0
1167.110229 236.0
1167.246338 92.0
1167.368652 128.0
1167.511475 152.0
1167.667969 96.0
1167.715576 84.0
1168.055542 108.0
1168.2052 132.0
1168.259644 112.0
1168.451294 184.0
1168.586182 144.0
1168.654297 136.0
1168.745117 192.0
1168.912842 108.0
1168.980835 172.0
1169.110229 436.0
1169.171387 156.0
1169.579834 72.0
1169.640991 80.0
1169.722778 124.0
1169.804443 168.0
1170.07666 104.0
1170.196899 88.0
1170.315063 164.0
1170.389893 168.0
1170.478394 176.0
1170.771729 164.0
1171.322876 208.0
1171.5 160.0
1171.663574 88.0
1171.711182 200.0
1171.915771 156.0
1172.031494 140.0
1172.151611 140.0
1172.351685 96.0
1172.555542 144.0
1172.627686 100.0
1172.690918 164.0
1172.842407 176.0
1173.026489 184.0
1173.094604 96.0
1173.142334 64.0
1173.25293 140.0
1173.605957 148.0
1173.903809 216.0
1173.984253 176.0
1174.096436 108.0
1174.267456 164.0
1174.335571 88.0
1174.690308 120.0
1174.751709 132.0
1174.836304 172.0
1174.878784 184.0
1175.00415 132.0
1175.065552 156.0
1175.113281 124.0
1175.481689 72.0
1175.700073 176.0
1175.788818 128.0
1175.85022 68.0
1176.212036 80.0
1176.280273 224.0
1176.458862 148.0
1176.560181 120.0
1176.621582 68.0
1176.744751 124.0
1176.9552 116.0
1177.044922 72.0
1177.502441 288.0
1177.570679 80.0
1177.808228 152.0
1177.878052 188.0
1177.954956 204.0
1178.09668 60.0
1178.185181 80.0
1178.376831 72.0
1178.465576 136.0
1178.588623 140.0
1178.636475 176.0
1178.697876 204.0
1178.766235 88.0
1178.89209 212.0
1179.203613 160.0
1179.448853 184.0
1179.586426 52.0
1179.675293 44.0
1179.73999 136.0
1179.885864 204.0
1179.911743 164.0
1180.023926 132.0
1180.482666 176.0
1180.728271 104.0
1180.789795 124.0
1180.871826 112.0
1181.063965 188.0
1181.15918 104.0
1181.207031 164.0
1181.302734 156.0
1181.474365 240.0
1181.596924 60.0
1181.658569 60.0
1181.737549 164.0
1181.874634 68.0
1181.966431 152.0
1182.017944 204.0
1182.171631 136.0
1182.472412 156.0
1182.790405 128.0
1182.904053 152.0
1183.018677 128.0
1183.246338 176.0
1183.498657 112.0
1183.622925 104.0
1183.821411 128.0
1183.889893 96.0
1183.951538 152.0
1184.074585 136.0
1184.204956 116.0
1184.280273 128.0
1184.369385 52.0
1184.437866 152.0
1184.513184 196.0
1184.66394 188.0
1184.71875 108.0
1184.794067 152.0
1184.848877 64.0
1184.992798 160.0
1185.237305 204.0
1185.252319 140.0
1185.280151 328.0
1185.390137 60.0
1185.588867 60.0
1185.636841 152.0
1185.773926 128.0
1185.849365 168.0
1185.931519 144.0
1186.000122 160.0
1186.160645 188.0
1186.246826 124.0
1186.301758 152.0
1186.53479 144.0
1186.678711 100.0
1186.905029 164.0
1187.234131 188.0
1187.315796 112.0
1187.40686 184.0
1187.456177 128.0
1187.886475 160.0
1187.995483 52.0
1188.31665 184.0
1188.558105 76.0
1188.736572 136.0
1188.798218 176.0
1188.983521 92.0
1189.649414 120.0
1189.786377 128.0
1190.397705 100.0
1190.598145 192.0
1190.672485 96.0
1191.032715 116.0
1191.730347 120.0
1191.778442 128.0
1191.922729 96.0
1192.011841 140.0
1192.300659 116.0
1192.355591 188.0
1192.575562 128.0
1192.729858 160.0
1193.021362 136.0
1193.290405 72.0
1193.344727 140.0
1193.929199 228.0
1194.005615 164.0
1194.289795 164.0
1194.363281 120.0
1194.443115 224.0
1194.56958 164.0
1194.707153 124.0
1194.967651 172.0
1194.97876 160.0
1195.081543 288.0
1195.271362 88.0
1195.477783 160.0
1195.574097 132.0
1195.904541 96.0
1195.976074 128.0
1196.606689 72.0
1196.696167 176.0
1196.813232 152.0
1196.916504 152.0
1196.985352 184.0
1197.343384 152.0
1197.451904 148.0
1197.63269 160.0
1197.921997 124.0
1198.183838 148.0
1198.328491 92.0
1198.376709 96.0
1198.47998 180.0
1198.617798 120.0
1198.679688 108.0
1198.803711 136.0
1198.900391 124.0
1199.258789 276.0
1199.355225 108.0
1199.416138 160.0
1199.5 128.0
1199.617188 120.0
1199.720581 216.0
1199.796387 112.0
1199.87915 116.0
1199.96875 96.0
1200.292603 116.0
1200.56189 272.0
1200.623901 88.0
1200.768677 208.0
1200.947998 92.0
1201.230835 268.0
1201.279053 76.0
1201.423828 148.0
1201.575684 148.0
1201.644775 228.0
1201.706787 144.0
1202.037964 68.0
1202.122803 156.0
1202.269775 136.0
1202.397583 192.0
1202.824829 84.0
1202.896851 156.0
1203.266602 188.0
1203.501343 124.0
1203.591064 156.0
1203.784424 136.0
1204.025024 192.0
1204.074463 96.0
1204.205688 288.0
1204.479736 112.0
1204.723755 60.0
1204.785889 144.0
1204.875732 152.0
1204.937988 228.0
1205.020874 312.0
1205.083008 96.0
1205.138306 160.0
1205.221191 112.0
1205.309814 176.0
1205.400879 176.0
1205.621948 192.0
1205.891479 96.0
1205.993896 88.0
1206.091919 88.0
1206.195679 68.0
1206.251099 188.0
1206.444458 116.0
1206.520508 96.0
1206.605713 88.0
1206.741821 48.0
1206.893921 116.0
1207.200317 104.0
1207.371094 104.0
1207.60498 152.0
1207.758301 208.0
1207.875977 112.0
1207.924316 52.0
1208.139771 224.0
1208.235596 112.0
1208.422485 132.0
1208.491699 160.0
1208.768433 44.0
1208.844482 236.0
1208.90686 40.0
1209.01062 196.0
1209.101074 164.0
1209.328979 108.0
1209.460815 144.0
1209.605835 228.0
1209.688965 160.0
1209.769043 160.0
1209.940796 236.0
1210.083496 72.0
1210.312012 140.0
1210.39917 144.0
1210.568237 148.0
1210.706665 132.0
1210.762085 116.0
1210.817505 200.0
1210.879883 136.0
1211.185791 140.0
1211.235596 176.0
1211.29541 128.0
1211.343872 112.0
1211.413208 32.0
1211.704102 196.0
1211.794189 176.0
1211.877319 132.0
1211.925903 120.0
1212.189209 116.0
1212.419678 172.0
1212.577271 348.0
1212.684204 136.0
1212.750488 152.0
1213.009155 168.0
1213.284302 44.0
1213.51709 224.0
1213.693359 64.0
1213.741821 120.0
1214.040039 184.0
1214.296631 140.0
1214.407593 176.0
1214.553223 144.0
1214.830688 164.0
1214.890259 104.0
1214.990234 176.0
1215.101318 152.0
1215.170654 112.0
1215.309448 168.0
1215.413574 304.0
1215.54834 164.0
1215.607788 140.0
1215.836792 168.0
1215.907104 356.0
1216.149536 120.0
1216.213867 112.0
1216.39209 164.0
1216.565552 184.0
1216.631592 168.0
1216.929688 152.0
1217.19043 124.0
1217.384888 60.0
1217.523804 132.0
1217.672363 160.0
1217.864136 124.0
1217.968262 216.0
1218.329468 160.0
1218.524048 184.0
1218.772217 156.0
1218.875977 272.0
1219.045654 212.0
1219.211914 164.0
1219.699707 180.0
1219.91687 180.0
1219.98584 204.0
1220.097046 176.0
1220.477051 144.0
1220.525757 136.0
1220.647949 308.0
1220.755249 252.0
1220.852539 40.0
1220.956909 144.0
1221.082031 168.0
1221.193359 92.0
1221.249023 196.0
1221.677612 168.0
1221.770752 132.0
1221.854248 128.0
1221.926025 124.0
1222.104614 172.0
1222.25769 72.0
1222.306396 64.0
1222.424805 136.0
1222.522217 148.0
1222.617065 228.0
1222.737915 56.0
1222.800537 40.0
1222.918823 140.0
1223.11377 148.0
1223.239014 132.0
1223.754272 84.0
1223.830811 196.0
1223.893433 156.0
1223.956177 148.0
1224.108887 192.0
1224.255615 64.0
1224.443848 140.0
1224.882446 144.0
1224.993896 172.0
1225.091431 132.0
1225.557007 148.0
1225.683594 108.0
1225.77417 144.0
1225.878662 76.0
1225.990234 160.0
1226.073853 68.0
1226.164429 136.0
1226.234131 188.0
1226.345581 176.0
1226.499268 176.0
1226.617432 132.0
1226.826538 140.0
1226.924194 160.0
1227.154297 164.0
1227.356934 148.0
1227.412231 76.0
1227.551758 188.0
1227.879517 152.0
1228.07019 152.0
1228.228149 120.0
1228.293335 260.0
1228.356689 180.0
1228.535156 172.0
1228.604858 152.0
1228.782715 164.0
1228.887939 208.0
1229.016479 72.0
1229.065308 416.0
1229.149048 92.0
1229.345581 164.0
1229.407349 156.0
1229.532959 156.0
1229.644531 128.0
1229.86792 128.0
1229.923706 96.0
1230.047852 212.0
1230.154053 164.0
1230.279785 64.0
1230.421143 192.0
1230.796387 76.0
1230.952759 140.0
1231.131592 48.0
1231.343872 164.0
1231.410889 160.0
1231.515747 128.0
1231.590332 140.0
1231.690308 116.0
1231.795044 108.0
1232.033447 96.0
1232.165405 136.0
1232.242188 92.0
1232.50769 60.0
1232.577637 148.0
1232.724365 112.0
1233.115723 120.0
1233.513306 236.0
1233.751709 124.0
1233.807739 152.0
1233.919556 136.0
1234.108276 172.0
1234.171265 260.0
1234.241211 132.0
1234.346069 136.0
1234.821655 192.0
1234.870605 124.0
1234.937378 200.0
1235.267944 104.0
1235.430176 84.0
1235.560547 148.0
1235.703003 140.0
1235.81665 116.0
1235.989868 128.0
1236.080811 116.0
1236.203857 168.0
1236.381714 132.0
1236.468872 260.0
1236.759644 368.0
1237.025635 112.0
1237.207642 96.0
1237.32666 44.0
1237.508667 176.0
1237.578735 152.0
1237.666138 108.0
1237.760742 192.0
1238.047852 212.0
1238.103882 104.0
1238.159912 164.0
1238.440063 96.0
1238.5802 136.0
1238.839355 188.0
1239.119629 164.0
1239.423096 148.0
1239.483643 112.0
1239.592529 160.0
1239.666138 96.0
1239.757202 108.0
1239.897339 108.0
1239.97229 172.0
1240.037476 84.0
1240.098511 308.0
1240.401978 88.0
1240.64856 136.0
1240.743042 172.0
1240.857666 112.0
1240.906738 164.0
1240.953979 156.0
1241.187256 96.0
1241.299438 92.0
1241.404541 156.0
1241.464478 252.0
1241.586304 136.0
1241.874512 80.0
1241.923584 204.0
1242.005737 136.0
1242.211182 180.0
1242.389648 108.0
1242.669067 216.0
1242.775513 180.0
1242.828491 92.0
1242.940796 136.0
1243.000366 188.0
1243.102173 156.0
1243.151367 32.0
1243.516235 124.0
1243.578247 172.0
1243.832153 64.0
1243.895264 152.0
1244.011597 92.0
1244.147949 164.0
1244.29541 192.0
1244.518921 164.0
1244.625366 120.0
1244.779907 176.0
1244.871216 140.0
1244.955933 104.0
1245.018677 116.0
1245.102905 160.0
1245.243408 144.0
1245.344971 232.0
1245.524292 72.0
1245.616211 92.0
1245.756104 52.0
1245.913574 192.0
1246.142578 136.0
1246.283081 192.0
1246.353271 108.0
1246.430664 160.0
1246.512329 116.0
1246.866333 48.0
1246.990479 120.0
1247.112305 224.0
1247.168579 112.0
1247.23877 88.0
1247.295044 144.0
1247.625488 300.0
1247.695801 80.0
1247.794189 48.0
1247.88562 120.0
1247.962891 100.0
1248.15979 156.0
1248.279297 176.0
1248.348999 88.0
1248.434814 140.0
1248.567627 96.0
1248.687256 108.0
1248.764526 64.0
1248.841919 128.0
1248.906616 176.0
1249.102173 136.0
1249.270996 184.0
1249.334351 156.0
1249.494263 104.0
1249.601685 236.0
1249.76355 116.0
1249.85498 120.0
1249.960449 184.0
1250.20813 208.0
1250.305298 80.0
1250.783936 104.0
1251.114746 132.0
1251.262573 196.0
1251.65686 116.0
1251.713257 100.0
1251.868164 152.0
1252.018799 156.0
1252.400879 176.0
1252.494995 112.0
1252.607666 60.0
1252.685181 100.0
1252.745117 172.0
1252.822754 188.0
1253.009399 144.0
1253.185303 136.0
1253.305176 136.0
1253.699707 96.0
1253.779663 168.0
1253.868896 128.0
1253.960449 224.0
1254.178955 132.0
1254.348145 104.0
1254.446899 156.0
1254.545654 168.0
1254.757446 128.0
1255.360596 224.0
1255.424805 184.0
1255.476196 192.0
1255.638428 112.0
1255.871216 108.0
1255.920532 116.0
1256.019287 140.0
1256.184082 136.0
1256.375732 144.0
1256.648071 124.0
1256.776978 160.0
1257.035278 164.0
1257.141113 64.0
1257.479858 160.0
1257.550415 140.0
1257.769287 124.0
1258.044556 168.0
1258.374023 192.0
1258.524658 256.0
1258.602295 140.0
1258.669312 172.0
1258.905884 44.0
1259.026001 132.0
1259.145996 36.0
1259.322632 156.0
1259.499146 80.0
1259.598022 128.0
1259.760498 116.0
1259.805786 96.0
1259.916016 132.0
1260.170288 140.0
1260.300781 156.0
1260.368164 192.0
1260.724487 192.0
1260.933472 76.0
1261.096069 192.0
1261.427002 192.0
1261.451782 160.0
1261.612061 224.0
1261.725098 80.0
1261.829224 108.0
1262.017578 136.0
1262.149414 80.0
1262.227173 128.0
1262.319092 164.0
1262.432251 96.0
1262.541382 164.0
1262.609009 148.0
1262.699951 228.0
1263.270386 112.0
1263.422485 116.0
1263.509644 120.0
1263.578979 228.0
1263.701782 120.0
1263.762085 76.0
1263.896484 192.0
1264.030884 124.0
1264.340698 164.0
1264.519165 96.0
1264.688843 112.0
1264.779541 76.0
1264.894287 120.0
1264.986328 176.0
1265.092529 140.0
1265.304932 156.0
1265.418213 140.0
1265.478394 108.0
1265.612793 164.0
1265.708496 160.0
1265.913818 168.0
1266.260864 140.0
1266.310425 112.0
1266.657471 104.0
1266.777954 148.0
1266.869995 132.0
1267.007324 136.0
1267.195923 140.0
1267.269043 200.0
1267.408447 164.0
1267.550171 296.0
1267.937378 56.0
1268.060425 116.0
1268.166748 196.0
1268.358154 180.0
1268.442749 136.0
1268.506958 176.0
1268.613281 112.0
1268.818848 96.0
1269.004272 168.0
1269.224976 200.0
1269.38562 112.0
1269.613037 184.0
1269.69812 200.0
1269.790283 132.0
1269.875488 100.0
1269.95874 160.0
1270.130737 128.0
1270.1875 112.0
1270.322266 64.0
1270.442871 160.0
1270.492554 76.0
1270.665527 176.0
1270.859375 244.0
1270.922363 152.0
1271.031738 164.0
1271.100952 156.0
1271.173706 184.0
1271.237549 132.0
1271.295654 176.0
1271.407837 152.0
1271.64209 304.0
1271.716919 176.0
1272.091187 44.0
1272.111694 156.0
1272.134766 116.0
1272.219849 144.0
1272.334717 88.0
1272.430054 176.0
1272.493896 120.0
1272.586182 148.0
1272.763672 80.0
1272.891479 160.0
1272.990967 128.0
1273.087769 188.0
1273.216675 168.0
1273.431274 116.0
1273.571167 144.0
1273.630127 196.0
1273.67981 124.0
1273.750854 88.0
1273.807739 144.0
1274.045288 200.0
1274.295776 176.0
1274.56311 312.0
1274.617676 140.0
1274.758423 148.0
1275.001953 220.0
1275.150635 112.0
1275.20752 144.0
1275.264282 140.0
1275.321167 224.0
1275.385132 184.0
1275.577026 124.0
1275.756592 180.0
1275.86145 88.0
1275.953857 200.0
1276.195557 136.0
1276.416016 36.0
1276.504517 144.0
1276.56897 140.0
1276.644653 132.0
1276.785767 56.0
1276.885376 144.0
1277.021118 156.0
1277.117065 152.0
1277.206665 132.0
1277.276489 136.0
1277.49707 124.0
1277.561035 196.0
1277.660645 136.0
1277.980835 160.0
1278.265503 120.0
1278.35791 132.0
1278.429077 188.0
1278.607056 304.0
1278.799561 204.0
1278.984253 124.0
1279.069702 272.0
1279.147949 84.0
1279.37207 44.0
1279.439819 176.0
1279.553711 124.0
1279.70813 224.0
1279.903442 176.0
1280.052124 156.0
1280.151855 164.0
1280.466797 180.0
1280.614258 108.0
1280.671753 160.0
1280.751709 160.0
1280.842651 152.0
1280.921021 120.0
1281.092041 172.0
1281.223511 132.0
1281.341309 200.0
1281.419678 72.0
1281.576416 140.0
1281.747437 84.0
1281.941162 156.0
1282.046753 224.0
1282.09668 184.0
1282.241699 156.0
1282.412476 208.0
1282.716675 152.0
1282.773438 160.0
1282.855835 312.0
1283.662598 136.0
1283.797607 180.0
1284.021484 116.0
1284.272217 132.0
1284.349609 84.0
1284.416626 60.0
1284.713379 152.0
1284.834717 192.0
1284.977417 160.0
1285.054077 116.0
1285.171509 228.0
1285.312744 120.0
1285.362671 180.0
1285.441162 104.0
1285.5625 88.0
1285.697998 200.0
1285.792725 164.0
1286.040649 64.0
1286.240479 116.0
1286.411743 96.0
1286.518921 104.0
1286.597412 196.0
1286.783081 84.0
1286.85437 112.0
1287.017212 176.0
1287.11377 344.0
1287.204346 156.0
1287.36853 132.0
1287.532837 120.0
1287.692993 124.0
1287.791626 144.0
1287.925659 112.0
1288.225586 72.0
1288.334595 172.0
1288.582764 68.0
1288.675659 160.0
1288.818604 144.0
1289.304565 108.0
1289.382935 128.0
1289.490356 88.0
1290.019287 44.0
1290.108398 96.0
1290.183716 132.0
1290.484009 148.0
1290.641235 160.0
1290.761963 160.0
1290.884399 120.0
1290.977295 124.0
1291.041748 144.0
1291.106079 136.0
1291.249146 156.0
1291.316528 28.0
1291.539307 152.0
1291.686279 160.0
1291.81665 176.0
1291.939209 124.0
1292.007324 68.0
1292.182251 224.0
1292.371704 168.0
1292.46521 176.0
1292.529541 96.0
1292.579712 184.0
1292.773193 84.0
1292.848389 148.0
1293.080566 148.0
1293.295288 220.0
1293.394165 100.0
1293.495728 176.0
1293.739136 140.0
1294.046997 108.0
1294.164429 148.0
1294.247437 124.0
1294.32666 268.0
1294.651367 100.0
1294.798706 140.0
1294.837524 228.0
1294.976318 176.0
1295.199951 116.0
1295.429199 128.0
1295.566284 224.0
1295.622559 116.0
1295.830322 164.0
1295.954468 164.0
1296.099976 192.0
1296.217285 112.0
1296.466309 224.0
1296.604248 152.0
1296.783447 204.0
1296.969727 128.0
1297.062988 188.0
1297.131592 232.0
1297.234985 152.0
1297.285156 100.0
1297.421387 108.0
1297.536133 108.0
1297.672363 164.0
1297.82019 300.0
1297.951904 196.0
1298.119873 172.0
1298.25061 144.0
1298.324829 112.0
1298.446777 152.0
1298.762329 136.0
1298.947144 332.0
1298.999023 96.0
1299.085083 108.0
1299.142212 164.0
1299.264404 136.0
1299.369995 176.0
1299.549316 180.0
1299.605225 108.0
1299.756226 140.0
1299.84082 160.0
1299.950439 192.0
1299.999146 192.0
1300.18335 116.0
1300.390991 128.0
1300.54895 136.0
1300.749878 164.0
1300.886353 164.0
1300.940063 156.0
1301.029907 76.0
1301.088867 180.0
1301.154541 152.0
1301.216553 96.0
1301.317017 216.0
1301.499756 172.0
1301.528564 216.0
1301.563843 120.0
1301.676025 128.0
1301.769409 128.0
1301.913086 208.0
1302.193115 100.0
1302.322388 32.0
1302.439087 132.0
1302.599609 76.0
1302.904297 168.0
1303.019165 248.0
1303.112549 104.0
1303.234741 144.0
1303.356934 160.0
1303.479004 156.0
1303.57251 60.0
1303.672852 168.0
1303.816772 140.0
1303.88147 156.0
1304.327148 224.0
1304.400269 176.0
1304.567749 168.0
1304.794312 168.0
1304.89502 160.0
1304.988525 156.0
1305.060547 136.0
1305.34082 92.0
1305.422974 148.0
1305.602905 160.0
1305.664429 96.0
1305.729126 48.0
1305.872925 176.0
1305.988037 104.0
1306.106934 184.0
1306.196655 140.0
1306.354858 100.0
1306.512085 160.0
1306.574829 148.0
1306.676392 216.0
1306.743408 88.0
1306.844116 140.0
1306.93042 152.0
1307.009644 104.0
1307.103149 132.0
1307.340576 156.0
1307.506104 88.0
1307.750854 112.0
1307.80127 64.0
1307.908569 152.0
1307.997437 148.0
1308.172852 164.0
1308.312256 144.0
1308.420288 188.0
1308.508179 152.0
1308.819946 256.0
1308.917725 140.0
1309.042969 320.0
1309.118652 100.0
1309.28894 136.0
1309.356323 180.0
1309.442749 108.0
1309.507568 128.0
1309.585449 244.0
1309.774048 176.0
1309.831787 112.0
1310.344238 264.0
1310.515869 116.0
1310.612061 124.0
1310.664062 168.0
1310.78418 180.0
1310.8479 176.0
1310.991699 108.0
1311.063721 88.0
1311.12146 176.0
1311.193481 68.0
1311.265503 232.0
1311.460205 44.0
1311.517822 220.0
1311.683594 148.0
1311.762939 152.0
1311.813354 136.0
1311.913696 152.0
1312.007935 116.0
1312.173828 184.0
1312.233887 36.0
1312.325195 136.0
1312.671265 184.0
1312.80603 212.0
1312.945312 152.0
1313.226196 136.0
1313.363647 184.0
1313.4646 204.0
1313.637817 120.0
1313.878906 332.0
1313.939087 156.0
1314.012939 148.0
1314.106689 156.0
1314.373657 152.0
1314.973022 168.0
1315.116943 128.0
1315.174683 172.0
1315.237183 92.0
1315.31665 212.0
1315.448975 144.0
1315.571777 172.0
1315.70166 144.0
1315.859863 180.0
1315.960449 172.0
1316.009277 196.0
1316.100342 128.0
1316.167725 160.0
1316.337891 132.0
1316.409302 152.0
1316.495972 128.0
1316.604248 108.0
1316.73999 232.0
1317.002686 196.0
1317.236572 292.0
1317.557739 168.0
1317.658813 216.0
1317.797119 176.0
1318.034546 152.0
1318.244141 148.0
1318.299316 156.0
1318.475342 160.0
1318.634399 212.0
1318.687866 164.0
1318.73877 136.0
1318.829468 272.0
1318.908936 92.0
1318.988525 180.0
1319.043945 208.0
1319.263184 108.0
1319.400513 108.0
1319.53064 96.0
1319.660034 144.0
1320.044067 88.0
1320.067383 144.0
1320.101685 264.0
1320.210327 128.0
1320.282715 180.0
1320.550293 128.0
1320.68042 116.0
1320.748657 240.0
1320.803467 256.0
1320.883057 176.0
1320.970093 120.0
1321.106079 140.0
1321.21582 148.0
1321.288086 116.0
1321.558838 156.0
1321.751221 120.0
1321.953735 152.0
1322.011719 148.0
1322.070312 228.0
1322.217041 104.0
1322.387939 148.0
1322.445923 128.0
1322.596802 164.0
1322.852783 204.0
1323.155273 132.0
1323.302002 236.0
1323.394165 136.0
1323.734497 44.0
1323.857666 108.0
1323.908325 128.0
1324.002441 180.0
1324.27417 224.0
1324.466064 120.0
1324.584961 164.0
1324.637329 152.0
1324.651978 100.0
1324.755737 188.0
1324.804443 128.0
1324.916748 72.0
1325.060059 124.0
1325.386475 148.0
1325.490845 172.0
1325.695801 212.0
1325.784668 104.0
1326.08728 180.0
1326.169067 168.0
1326.226685 216.0
1326.362915 212.0
1326.481323 128.0
1326.603638 156.0
1326.699097 180.0
1326.806641 228.0
1326.918457 56.0
1326.995117 100.0
1327.291138 116.0
1327.408447 144.0
1327.58252 88.0
1327.727539 88.0
1328.166138 268.0
1328.278687 116.0
1328.373047 152.0
1328.574829 304.0
1328.626953 124.0
1328.788086 208.0
1329.089233 44.0
1329.185547 44.0
1329.279907 128.0
1329.338013 44.0
1329.446777 164.0
1329.589111 152.0
1329.80249 84.0
1329.924683 132.0
1330.260132 156.0
1330.396973 196.0
1330.463013 60.0
1330.551025 160.0
1330.622681 88.0
1331.059937 128.0
1331.075073 148.0
1331.160034 144.0
1331.226196 148.0
1331.494019 208.0
1331.762817 216.0
1331.835449 172.0
1331.88623 248.0
1332.067871 148.0
1332.162354 104.0
1332.307251 176.0
1332.359131 208.0
1332.49646 120.0
1332.547363 136.0
1332.612671 164.0
1332.663574 96.0
1332.751221 176.0
1332.963867 172.0
1333.081665 220.0
1333.143188 124.0
1333.276978 72.0
1333.342285 112.0
1333.401367 252.0
1333.506592 148.0
1333.554565 112.0
1333.577026 68.0
1333.631104 196.0
1333.688232 136.0
1333.769409 156.0
1333.833618 128.0
1334.049683 144.0
1334.153442 164.0
1334.226196 164.0
1334.407959 228.0
1334.533447 196.0
1334.715942 168.0
1334.793335 76.0
1334.91687 104.0
1334.986816 156.0
1335.4198 132.0
1335.527832 32.0
1335.578735 176.0
1335.665039 200.0
1335.679932 92.0
1335.773926 120.0
1335.920654 196.0
1336.080688 44.0
1336.204346 120.0
1336.255249 100.0
1336.362915 180.0
1336.526733 172.0
1336.633545 152.0
1336.720947 172.0
1336.779663 112.0
1336.996338 108.0
1337.092041 104.0
1337.208496 100.0
1337.363403 200.0
1337.532593 108.0
1337.707031 164.0
1337.779785 144.0
1337.954712 108.0
1338.033936 92.0
1338.142334 184.0
1338.241943 200.0
1338.322266 36.0
1338.424194 100.0
1338.571533 188.0
1338.697388 192.0
1338.890625 180.0
1338.983765 124.0
1339.07959 148.0
1339.232544 120.0
1339.429199 180.0
1339.516602 240.0
1339.611328 152.0
1339.706055 124.0
1339.778931 220.0
1339.880859 92.0
1339.990112 140.0
1340.067017 164.0
1340.143188 200.0
1340.28894 260.0
1340.460693 152.0
1340.529419 180.0
1340.624146 112.0
1340.791748 208.0
1340.8573 40.0
1341.015747 152.0
1341.163452 116.0
1341.22168 76.0
1341.444946 172.0
1341.663208 172.0
1341.93811 196.0
1341.994507 152.0
1342.052856 168.0
1342.264282 128.0
1342.344482 100.0
1342.446533 180.0
1342.542236 172.0
1342.628906 72.0
1342.701782 188.0
1342.796631 88.0
1342.883545 140.0
1342.89624 128.0
1342.929443 96.0
1343.015381 96.0
1343.066528 148.0
1343.212402 80.0
1343.311279 180.0
1343.468384 160.0
1343.708374 228.0
1343.759521 128.0
1343.93457 160.0
1344.065918 168.0
1344.418945 216.0
1344.55481 108.0
1344.620483 120.0
1344.769165 128.0
1345.036621 176.0
1345.277466 84.0
1345.335815 148.0
1345.386963 172.0
1345.540283 112.0
1345.671631 116.0
1345.810425 120.0
1345.861572 176.0
1346.010986 60.0
1346.088135 188.0
1346.160889 184.0
1346.464355 240.0
1346.670776 136.0
1346.76709 156.0
1346.996216 196.0
1347.132324 112.0
1347.269409 192.0
1347.490234 100.0
1347.585205 360.0
1347.636353 100.0
1347.72168 188.0
1347.797119 160.0
1347.935913 116.0
1348.016357 120.0
1348.12561 96.0
1348.213623 160.0
1348.298828 152.0
1348.37439 160.0
1348.535034 128.0
1348.621216 432.0
1348.674072 124.0
1348.72522 152.0
1348.997437 152.0
1349.119995 148.0
1349.246582 128.0
1349.36853 72.0
1349.599731 52.0
1349.612549 116.0
1349.712158 372.0
1349.873047 108.0
1349.96814 116.0
1350.143677 104.0
1350.215576 188.0
1350.304565 116.0
1350.450806 92.0
1350.525635 208.0
1350.695435 156.0
1350.933594 116.0
1350.994141 284.0
1351.079834 76.0
1351.218872 116.0
1351.338013 208.0
1351.504272 148.0
1351.670166 240.0
1351.801392 192.0
1351.899414 44.0
1351.979858 136.0
1352.136841 172.0
1352.237915 196.0
1352.331177 136.0
1352.411621 116.0
1352.543457 352.0
1352.609253 116.0
1352.680664 128.0
1352.748413 184.0
1352.812256 252.0
1352.953369 124.0
1353.216309 184.0
1353.363403 92.0
1353.61499 152.0
1353.736816 136.0
1353.861328 164.0
1353.956543 128.0
1354.031006 160.0
1354.117676 140.0
1354.183594 172.0
1354.330078 120.0
1354.417969 140.0
1354.476562 48.0
1354.573364 188.0
1354.754883 192.0
1354.8573 160.0
1355.032715 164.0
1355.106567 200.0
1355.209106 96.0
1355.260376 176.0
1355.332031 212.0
1355.619385 200.0
1355.98584 124.0
1356.095825 124.0
1356.169067 104.0
1356.293701 160.0
1356.396362 164.0
1356.601562 108.0
1356.718872 236.0
1356.890747 124.0
1356.953491 120.0
1357.039062 236.0
1357.217407 148.0
1357.351562 124.0
1357.452026 108.0
1357.532715 96.0
1357.653809 156.0
1357.796753 184.0
1357.912964 152.0
1358.093384 184.0
1358.398193 188.0
1358.508301 180.0
1358.57251 84.0
1358.634521 164.0
1358.963013 228.0
1359.029053 48.0
1359.232056 164.0
1359.410645 92.0
1359.466675 120.0
1359.546387 176.0
1359.733521 88.0
1360.394165 188.0
1360.474854 280.0
1360.61438 180.0
1360.68042 136.0
1360.739258 288.0
1360.885986 136.0
1361.143066 76.0
1361.250977 224.0
1361.675415 124.0
1361.855347 88.0
1361.909424 164.0
1362.178589 192.0
1362.281372 92.0
1362.369629 164.0
1362.795654 100.0
1363.001465 56.0
1363.052856 232.0
1363.132446 136.0
1363.273315 124.0
1363.393677 244.0
1363.536499 116.0
1363.743652 148.0
1364.021729 164.0
1364.177368 68.0
1364.24353 148.0
1364.331665 116.0
1364.405273 188.0
1364.500854 120.0
1364.587158 124.0
1364.713989 92.0
1364.923096 176.0
1365.052002 124.0
1365.169922 84.0
1365.29126 124.0
1365.412598 128.0
1365.549072 64.0
1365.706787 64.0
1365.948853 80.0
1366.030396 164.0
1366.09668 116.0
1366.170166 128.0
1366.339478 172.0
1366.420288 144.0
1366.49353 160.0
1366.688721 232.0
1366.795532 232.0
1366.877686 172.0
1367.134033 116.0
1367.202515 164.0
1367.362183 128.0
1367.421143 140.0
1367.577393 232.0
1367.855347 104.0
1367.943726 144.0
1368.031982 112.0
1368.671875 212.0
1368.75354 108.0
1368.871338 140.0
1369.048096 76.0
1369.12915 76.0
1369.187988 328.0
1369.53418 140.0
1369.666748 156.0
1369.738281 164.0
1369.821411 48.0
1369.976196 112.0
1370.079346 124.0
1370.292358 192.0
1370.534058 180.0
1370.646606 152.0
1370.738525 184.0
1371.025757 232.0
1371.147705 220.0
1371.250854 136.0
1371.401367 288.0
1371.553101 176.0
1371.709473 36.0
1371.77417 96.0
1371.892212 128.0
1372.050049 104.0
1372.105957 92.0
1372.179688 68.0
1372.282959 152.0
1372.386108 120.0
1372.474609 76.0
1372.59729 216.0
1372.734497 220.0
1372.791626 136.0
1372.843262 120.0
1373.109253 192.0
1373.226807 120.0
1373.374268 148.0
1373.658081 212.0
1373.762939 112.0
1373.8302 180.0
1373.890625 92.0
1374.023438 96.0
1374.185791 188.0
1374.252197 180.0
1374.49231 208.0
1374.604126 260.0
1374.672729 200.0
1374.835083 148.0
1375.122925 108.0
1375.210327 224.0
1375.284302 176.0
1375.462769 116.0
1375.575317 196.0
1375.632202 136.0
1375.713379 48.0
1375.779907 96.0
1375.897949 156.0
1376.016113 100.0
1376.196533 152.0
1376.331665 148.0
1376.473877 120.0
1376.555176 116.0
1376.749268 96.0
1376.850464 128.0
1376.968628 224.0
1377.02771 188.0
1377.116333 144.0
1377.330566 132.0
1377.500488 88.0
1377.567017 148.0
1377.714722 204.0
1377.958496 272.0
1378.084106 108.0
1378.172729 112.0
1378.243652 136.0
1378.45752 148.0
1378.667847 124.0
1378.763062 132.0
1378.963501 48.0
1379.052124 132.0
1379.199951 72.0
1379.251709 68.0
1379.324585 188.0
1379.429199 76.0
1379.532104 176.0
1379.688354 128.0
1379.81897 160.0
1379.981934 104.0
1380.206787 152.0
1380.30896 120.0
1380.382935 232.0
1380.604736 184.0
1380.675781 152.0
1380.76001 384.0
1380.885742 116.0
1380.944946 52.0
1381.018921 96.0
1381.092896 188.0
1381.203857 172.0
1381.359131 48.0
1381.433105 116.0
1381.699463 44.0
1381.765991 296.0
1381.891846 256.0
1382.135986 112.0
1382.239502 116.0
1382.34314 136.0
1382.431274 132.0
1382.509888 120.0
1382.541138 64.0
1382.569702 168.0
1382.698364 140.0
1383.045776 140.0
1383.142456 196.0
1383.231323 164.0
1383.342285 120.0
1383.401489 124.0
1383.564453 168.0
1383.672363 236.0
1383.721436 192.0
1383.971558 88.0
1384.193726 136.0
1384.364014 416.0
1384.444946 224.0
1384.578857 152.0
1384.645508 96.0
1384.723633 160.0
1384.845459 120.0
1384.934326 152.0
1385.060181 164.0
1385.126953 160.0
1385.302002 216.0
1385.323975 340.0
1385.43042 136.0
1385.505493 120.0
1385.653564 172.0
1385.756592 140.0
1385.838135 152.0
1386.045532 120.0
1386.223389 144.0
1386.957153 156.0
1387.08313 136.0
1387.13501 124.0
1387.212769 148.0
1387.268433 160.0
1387.342529 196.0
1387.461182 200.0
1387.510132 136.0
1387.661377 240.0
1387.772583 80.0
1387.935669 96.0
1388.046875 208.0
1388.202637 336.0
1388.343506 176.0
1388.441528 168.0
1388.509399 156.0
1388.625366 188.0
1388.677246 124.0
1388.840454 92.0
1388.890259 192.0
1389.01062 156.0
1389.107544 104.0
1389.322632 48.0
1389.502075 184.0
1389.552612 164.0
1389.790039 272.0
1389.849365 52.0
1389.917114 156.0
1389.997803 184.0
1390.270874 144.0
1390.386475 220.0
1390.465454 200.0
1390.555176 156.0
1390.676514 168.0
1390.78772 156.0
1390.851318 72.0
1390.92041 160.0
1391.021973 172.0
1391.096191 116.0
1391.304077 152.0
1391.5625 212.0
1391.765137 84.0
1392.024292 188.0
1392.08374 104.0
1392.13562 112.0
1392.193848 124.0
1392.425293 136.0
1392.65686 156.0
1392.885742 112.0
1392.960083 100.0
1393.049194 100.0
1393.108643 148.0
1393.160645 96.0
1393.272095 140.0
1393.398438 148.0
1393.540283 148.0
1393.598999 108.0
1393.732666 108.0
1393.807007 68.0
1393.89624 160.0
1394.052246 192.0
1394.133545 128.0
1394.215698 264.0
1394.525269 196.0
1394.584717 216.0
1394.812378 176.0
1394.958984 148.0
1395.24707 160.0
1395.360474 140.0
1395.471924 56.0
1395.591431 172.0
1395.665283 372.0
1395.717285 176.0
1395.811646 176.0
1395.874878 148.0
1395.984985 36.0
1396.05188 168.0
1396.200684 268.0
1396.47583 188.0
1396.557617 96.0
1396.639526 280.0
1396.743652 144.0
1396.870117 128.0
1396.989136 220.0
1397.137817 192.0
1397.204834 156.0
1397.264404 108.0
1397.427979 132.0
1397.569336 128.0
1397.628906 144.0
1397.747925 128.0
1397.844604 196.0
1398.298706 172.0
1398.395386 172.0
1398.521973 120.0
1398.758423 268.0
1398.856934 72.0
1398.92395 132.0
1399.059937 160.0
1399.177002 80.0
1399.294067 132.0
1399.556763 124.0
1399.6875 64.0
1399.824829 180.0
1399.906982 108.0
1400.014404 60.0
1400.150391 168.0
1400.209839 108.0
1400.22937 160.0
1400.301392 140.0
1400.390747 156.0
1400.469849 196.0
1400.562134 208.0
1400.633057 124.0
1400.719849 152.0
1400.785522 132.0
1400.842285 180.0
1400.897461 184.0
1400.964355 88.0
1401.073242 224.0
1401.607666 116.0
1401.775879 156.0
1402.021484 128.0
1402.149048 84.0
1402.260864 60.0
1402.350342 152.0
1402.506836 152.0
1402.745361 208.0
1402.801514 148.0
1402.857178 200.0
1402.912354 260.0
1402.97644 108.0
1403.165649 124.0
1403.256226 156.0
1403.662354 108.0
1403.789185 168.0
1403.838257 124.0
1404.005371 216.0
1404.11731 228.0
1404.396851 196.0
1404.499146 224.0
1404.706543 96.0
1404.803467 176.0
1404.855713 160.0
1404.922852 60.0
1404.975098 152.0
1405.101929 96.0
1405.178223 140.0
1405.251099 76.0
1405.315186 196.0
1405.482666 136.0
1405.644287 172.0
1405.722412 156.0
1405.785034 180.0
1405.892822 156.0
1406.168945 160.0
1406.295776 152.0
1406.437622 304.0
1406.490356 192.0
1406.564575 160.0
1406.801147 148.0
1406.863159 80.0
1406.937744 88.0
1407.057251 216.0
1407.178955 164.0
1407.303589 100.0
1407.480957 216.0
1407.511353 156.0
1407.533569 220.0
1407.63147 176.0
1407.811401 264.0
1407.885986 116.0
1407.945801 80.0
1408.119385 64.0
1408.207153 112.0
1408.274414 144.0
1408.347046 176.0
1408.461182 168.0
1408.585938 180.0
1408.643311 156.0
1408.827271 196.0
1409.149048 180.0
1409.357544 128.0
1409.464966 156.0
1409.656494 64.0
1409.731201 156.0
1409.791016 200.0
1409.859741 184.0
1409.985352 140.0
1410.060059 64.0
1410.11499 100.0
1410.23938 124.0
1410.520752 164.0
1410.637939 116.0
1410.732788 136.0
1411.03833 296.0
1411.209351 180.0
1411.234985 220.0
1411.438477 356.0
1411.61499 140.0
1411.727173 140.0
1411.874268 188.0
1412.003906 52.0
1412.097534 148.0
1412.160889 140.0
1412.228271 128.0
1412.315308 316.0
1412.67627 240.0
1412.774292 132.0
1412.834106 172.0
1412.964966 132.0
1413.026001 136.0
1413.179932 196.0
1413.497437 196.0
1413.679565 164.0
1414.016357 276.0
1414.128662 88.0
1414.203491 104.0
1414.27832 228.0
1414.413086 140.0
1414.517822 160.0
1414.577759 180.0
1414.932983 104.0
1415.09436 104.0
1415.213867 120.0
1415.326416 80.0
1415.423706 164.0
1415.513672 132.0
1415.708374 128.0
1415.768188 116.0
1415.84314 128.0
1416.022827 168.0
1416.162109 224.0
1416.412354 76.0
1416.550171 200.0
1416.865601 164.0
1417.069458 180.0
1417.161499 216.0
1417.296387 156.0
1417.558594 100.0
1417.858398 136.0
1418.023315 132.0
1418.150635 200.0
1418.293091 88.0
1418.435547 108.0
1418.585449 120.0
1418.637939 148.0
1418.945312 196.0
1419.057739 124.0
1419.182617 256.0
1419.283569 168.0
1419.365112 212.0
1419.417603 136.0
1419.477661 136.0
1419.575073 176.0
1419.654907 188.0
1419.807983 180.0
1419.890015 108.0
1419.972534 224.0
1420.029785 160.0
1420.139038 184.0
1420.247314 184.0
1420.445068 228.0
1420.585327 220.0
1420.752686 76.0
1420.905273 220.0
1421.03772 148.0
1421.122681 176.0
1421.180298 116.0
1421.243164 212.0
1421.379028 148.0
1421.499146 164.0
1421.675537 148.0
1421.960693 68.0
1422.024536 120.0
1422.140869 140.0
1422.208374 164.0
1422.30603 124.0
1422.471191 172.0
1422.632446 236.0
1422.703857 144.0
1422.771362 156.0
1423.086792 156.0
1423.165039 292.0
1423.302368 128.0
1423.379517 240.0
1423.476685 168.0
1423.619873 120.0
1423.679932 104.0
1423.747559 160.0
1423.867676 104.0
1423.969849 184.0
1424.002563 112.0
1424.028198 180.0
1424.138062 40.0
1424.363403 124.0
1424.453491 108.0
1424.566162 176.0
1424.657471 164.0
1424.731445 196.0
1424.821655 52.0
1425.031982 84.0
1425.10437 76.0
1425.132568 92.0
1425.264893 144.0
1425.376709 132.0
1425.452271 108.0
1425.580811 288.0
1425.70459 180.0
1425.764648 184.0
1425.862549 144.0
1426.02771 240.0
1426.15918 64.0
1426.211792 148.0
1426.332153 100.0
1426.559692 160.0
1426.708008 144.0
1426.790649 108.0
1426.880859 188.0
1426.978638 160.0
1427.166626 48.0
1427.369629 84.0
1427.482422 28.0
1427.565063 60.0
1427.715454 112.0
1427.794434 216.0
1428.001343 196.0
1428.294678 140.0
1428.381592 148.0
1428.467651 104.0
1428.550415 160.0
1428.693359 144.0
1428.783569 132.0
1428.986328 144.0
1429.197388 184.0
1429.250122 148.0
1429.313232 108.0
1429.551025 208.0
1429.633789 132.0
1429.829468 268.0
1429.964966 120.0
1430.153076 120.0
1430.205811 164.0
1430.363892 152.0
1430.454224 100.0
1430.506958 244.0
1430.645508 148.0
1430.770386 284.0
1430.868042 172.0
1430.939087 220.0
1431.124268 76.0
1431.25354 332.0
1431.351807 144.0
1431.4104 160.0
1431.595093 120.0
1431.639282 200.0
1431.940796 92.0
1432.151978 188.0
1432.343018 152.0
1432.419556 136.0
1432.494873 184.0
1432.555176 120.0
1432.712646 120.0
1432.916748 80.0
1433.074951 164.0
1433.146851 128.0
1433.263428 172.0
1433.338257 148.0
1433.66272 100.0
1433.745605 132.0
1433.83606 172.0
1433.896362 336.0
1434.069702 212.0
1434.439087 156.0
1434.627563 184.0
1434.710449 72.0
1434.799072 160.0
1434.882202 268.0
1434.901733 140.0
1435.064819 52.0
1435.125122 132.0
1435.208252 128.0
1435.389038 140.0
1435.441772 176.0
1435.494629 152.0
1435.568848 160.0
1435.705688 116.0
1435.841431 148.0
1436.082764 148.0
1436.185181 164.0
1436.331787 104.0
1436.486694 156.0
1436.580688 80.0
1436.671143 108.0
1436.971924 116.0
1437.27478 108.0
1437.410522 72.0
1437.531372 244.0
1437.610107 160.0
1437.689819 92.0
1437.771118 140.0
1437.818115 176.0
1437.882568 216.0
1437.914429 116.0
1437.934204 188.0
1438.014282 168.0
1438.066772 148.0
1438.142578 124.0
1438.304565 116.0
1438.406738 84.0
1438.589478 196.0
1438.671021 152.0
1438.74646 168.0
1438.889893 188.0
1438.973022 360.0
1439.048462 104.0
1439.290161 136.0
1439.501587 136.0
1439.750732 208.0
1439.886719 208.0
1439.947144 188.0
1440.101685 108.0
1440.271484 168.0
1440.415405 100.0
1440.589111 136.0
1440.770386 272.0
1440.932373 244.0
1441.185913 104.0
1441.254028 112.0
1441.382446 112.0
1441.440186 152.0
1441.624268 140.0
1441.956787 168.0
1442.036133 40.0
1442.088013 188.0
1442.244263 124.0
1442.389771 188.0
1442.538818 152.0
1442.630493 176.0
1442.750366 56.0
1442.898071 224.0
1443.040894 264.0
1443.07251 112.0
1443.09436 220.0
1443.497192 216.0
1443.567017 104.0
1443.967773 116.0
1444.15271 180.0
1444.269287 140.0
1444.414062 104.0
1444.627075 176.0
1444.73938 180.0
1444.875488 152.0
1445.049561 172.0
1445.117676 104.0
1445.197632 268.0
1445.273682 148.0
1445.465698 172.0
1445.601929 76.0
1445.715454 64.0
1446.225952 184.0
1446.389038 132.0
1446.542969 272.0
1446.68811 116.0
1446.793091 236.0
1447.067749 116.0
1447.221802 124.0
1447.411133 224.0
1447.63147 112.0
1447.736694 152.0
1447.80481 100.0
1447.875488 120.0
1448.1521 172.0
1448.199707 404.0
1448.277344 344.0
1448.334961 64.0
1448.433472 128.0
1448.592529 72.0
1448.914917 152.0
1449.062256 52.0
1449.153076 160.0
1449.311157 112.0
1449.372803 144.0
1449.486572 124.0
1449.605103 196.0
1449.673584 112.0
1449.797241 164.0
1449.994263 184.0
1450.07251 148.0
1450.192627 136.0
1450.259521 132.0
1450.395996 188.0
1450.797729 156.0
1450.961182 140.0
1451.124634 208.0
1451.282593 216.0
1451.427002 76.0
1451.480103 36.0
1451.563477 216.0
1451.6521 208.0
1451.769531 240.0
1451.935059 84.0
1452.04126 88.0
1452.101929 144.0
1452.298828 180.0
1452.366821 104.0
1452.385376 164.0
1452.453979 152.0
1452.574219 272.0
1452.668823 216.0
1452.761841 68.0
1453.050171 88.0
1453.133545 144.0
1453.280396 184.0
1453.361206 116.0
1453.500244 140.0
1453.725464 104.0
1453.884644 180.0
1453.971313 112.0
1454.035034 144.0
1454.093872 180.0
1454.195923 128.0
1454.317383 208.0
1454.642334 168.0
1454.735596 180.0
1454.781494 188.0
1454.847412 168.0
1455.088989 200.0
1455.273926 128.0
1455.402954 84.0
1455.586548 456.0
1455.858521 128.0
1456.018066 144.0
1456.071167 288.0
1456.272583 192.0
1456.412964 172.0
1456.569946 144.0
1456.709229 136.0
1456.891602 60.0
1457.104248 84.0
1457.273804 112.0
1457.742554 96.0
1457.848877 148.0
1457.936768 180.0
1458.114868 104.0
1458.301147 252.0
1458.434082 156.0
1458.49292 180.0
1458.730591 124.0
1458.897827 344.0
1458.958618 164.0
1459.346313 112.0
1459.63855 144.0
1459.825439 156.0
1459.954712 164.0
1460.03833 100.0
1460.279907 172.0
1460.576782 168.0
1460.711304 168.0
1460.806519 168.0
1460.867432 136.0
1460.944702 116.0
1461.118408 228.0
1461.212891 208.0
1461.235962 88.0
1461.265991 160.0
1461.324219 160.0
1461.415161 148.0
1461.712891 248.0
1461.9021 168.0
1462.039062 160.0
1462.183716 40.0
1462.290283 136.0
1462.343506 168.0
1462.509033 168.0
1462.579468 212.0
1462.723267 140.0
1462.82312 184.0
1462.963989 328.0
1463.089478 216.0
1463.142822 128.0
1463.308472 320.0
1463.363647 64.0
1463.439697 96.0
1463.531128 120.0
1463.683594 148.0
1463.744263 108.0
1463.895874 164.0
1464.079346 124.0
1464.330688 144.0
1464.45459 272.0
1464.673462 60.0
1464.909546 136.0
1464.993896 180.0
1465.214233 108.0
1465.290527 80.0
1465.442871 96.0
1465.606323 132.0
1465.700684 152.0
1465.831421 172.0
1466.021973 152.0
1466.098145 104.0
1466.326782 216.0
1466.471558 108.0
1466.55542 124.0
1466.807007 140.0
1466.860352 148.0
1466.970459 160.0
1467.066162 80.0
1467.317749 148.0
1467.445801 196.0
1467.813354 284.0
1467.904785 44.0
1467.958252 160.0
1468.141602 168.0
1468.286133 196.0
1468.636963 160.0
1468.713257 120.0
1468.796509 180.0
1468.843994 192.0
1469.04126 120.0
1469.346436 104.0
1469.422729 176.0
1469.613403 84.0
1469.749023 192.0
1469.865234 76.0
1470.008179 148.0
1470.029541 76.0
1470.263428 152.0
1470.490967 164.0
1470.599854 136.0
1470.736328 88.0
1470.794678 96.0
1470.947876 140.0
1471.063477 116.0
1471.193237 216.0
1471.452759 100.0
1471.506226 100.0
1471.59021 48.0
1471.674194 84.0
1471.804077 96.0
1471.865112 180.0
1471.926147 172.0
1472.254517 192.0
1472.338623 240.0
1472.430176 172.0
1472.615601 132.0
1472.750977 128.0
1472.828857 168.0
1472.933716 80.0
1472.987793 184.0
1473.102417 124.0
1473.163452 116.0
1473.301025 112.0
1473.3927 208.0
1473.54541 160.0
1473.766968 140.0
1473.874023 160.0
1473.947021 256.0
1474.042114 92.0
1474.216064 236.0
1474.470093 80.0
1474.547729 100.0
1474.622925 188.0
1474.699341 168.0
1474.747925 124.0
1474.812988 148.0
1475.098633 184.0
1475.200439 204.0
1475.349121 120.0
1475.614136 216.0
1475.77002 188.0
1475.899536 116.0
1475.968384 180.0
1476.067749 164.0
1476.205444 136.0
1476.327759 64.0
1476.419556 180.0
1476.53418 76.0
1476.778931 216.0
1476.881958 300.0
1476.937866 176.0
1476.951904 164.0
1477.06958 104.0
1477.306763 104.0
1477.383301 56.0
1477.459717 280.0
1477.520996 104.0
1477.638672 244.0
1477.784058 132.0
1478.112183 224.0
1478.217285 96.0
1478.79126 184.0
1478.857788 120.0
1478.883301 212.0
1479.056152 92.0
1479.143311 184.0
1479.286133 168.0
1479.376709 124.0
1479.616211 128.0
1479.653442 76.0
1479.763428 200.0
1479.898804 228.0
1479.920654 156.0
1480.059448 156.0
1480.084106 104.0
1480.102417 144.0
1480.199829 228.0
1480.253418 88.0
1480.391235 160.0
1480.490845 140.0
1480.766479 176.0
1480.950317 212.0
1481.088257 152.0
1481.140991 140.0
1481.210815 188.0
1481.348633 260.0
1481.57959 136.0
1481.659058 280.0
1481.759644 160.0
1481.877197 136.0
1482.005981 164.0
1482.112183 168.0
1482.191406 132.0
1482.271484 168.0
1482.421265 144.0
1482.723389 104.0
1482.879883 124.0
1482.962158 124.0
1483.034424 216.0
1483.156982 96.0
1483.271973 164.0
1483.371704 48.0
1483.479004 192.0
1483.593994 172.0
1483.724243 168.0
1483.862305 316.0
1484.023315 172.0
1484.203125 156.0
1484.397461 184.0
1484.678711 224.0
1484.951172 160.0
1485.073853 64.0
1485.142944 168.0
1485.319336 192.0
1485.434448 92.0
1485.564819 120.0
1485.873901 200.0
1486.025146 288.0
1486.174805 188.0
1486.260132 164.0
1486.508545 88.0
1486.665283 160.0
1486.696899 124.0
1486.853882 148.0
1487.053345 108.0
1487.114746 112.0
1487.194702 260.0
1487.309692 132.0
1487.521606 124.0
1487.675171 120.0
1487.797974 156.0
1487.894287 108.0
1488.092896 84.0
1488.158813 224.0
1488.246948 180.0
1488.269409 88.0
1488.299438 128.0
1488.465942 120.0
1488.673218 160.0
1488.818848 172.0
1488.895996 172.0
1489.017334 152.0
1489.181519 112.0
1489.315552 232.0
1489.386597 108.0
1489.502441 100.0
1489.736694 96.0
1489.809937 176.0
1489.989868 172.0
1490.13269 76.0
1490.319336 160.0
1490.379883 184.0
1490.447632 128.0
1490.62439 148.0
1490.862671 188.0
1490.943848 140.0
1491.037842 196.0
1491.177734 172.0
1491.331421 104.0
1491.608154 48.0
1491.760986 68.0
1491.839722 152.0
1491.915649 144.0
1491.981567 192.0
1492.005127 112.0
1492.040649 152.0
1492.277466 184.0
1492.464111 220.0
1492.576782 208.0
1492.631958 120.0
1492.692139 88.0
1492.776733 176.0
1492.876709 56.0
1492.930542 76.0
1492.992065 120.0
1493.053589 68.0
1493.115112 184.0
1493.222778 108.0
1493.276611 60.0
1493.345825 176.0
1493.43811 136.0
1493.600342 196.0
1493.720947 220.0
1493.748413 168.0
1493.838135 232.0
1493.891968 108.0
1494.103149 132.0
1494.198364 200.0
1494.307373 116.0
1494.361328 96.0
1494.453613 120.0
1494.533325 292.0
1494.589844 120.0
1494.638306 148.0
1494.730591 200.0
1494.846069 152.0
1494.913452 348.0
1494.942993 244.0
1494.961548 336.0
1495.137451 116.0
1495.346558 156.0
1495.566406 168.0
1495.655884 136.0
1495.874756 156.0
1496.069824 88.0
1496.185303 160.0
1496.246826 244.0
1496.473145 316.0
1496.778076 104.0
1496.901367 40.0
1497.055298 132.0
1497.140015 64.0
1497.20166 116.0
1497.267822 196.0
1497.375122 208.0
1497.499023 260.0
1497.594482 100.0
1497.648315 80.0
1497.731812 104.0
1497.815674 184.0
1498.084351 192.0
1498.164429 132.0
1498.233765 192.0
1498.398193 208.0
1498.495728 160.0
1498.557373 72.0
1498.698853 144.0
1498.842407 52.0
1498.958008 108.0
1499.166138 140.0
1499.244873 236.0
1499.458984 176.0
1499.52832 60.0
1499.626343 172.0
1499.805786 116.0
1499.91272 120.0
1500.021606 100.0
1500.222046 160.0
1500.522705 128.0
1500.606812 368.0
1500.838867 56.0
1500.908203 76.0
1501.114014 284.0
1501.316895 168.0
1501.378662 156.0
1501.463379 76.0
1501.525146 100.0
1501.649658 232.0
1501.75647 136.0
1501.841919 232.0
1501.960938 152.0
1502.049561 84.0
1502.149902 112.0
1502.581299 168.0
1502.906006 80.0
1502.967651 144.0
1503.083374 136.0
1503.220337 212.0
1503.484741 100.0
1503.538696 164.0
1503.619141 176.0
1503.677612 120.0
1503.731689 140.0
1503.808838 172.0
1503.955444 172.0
1504.094482 188.0
1504.156128 88.0
1504.418457 184.0
1504.482788 208.0
1504.74292 172.0
1504.842041 132.0
1504.945923 132.0
