>compound MLS000877030-01!Nobiletin478-01-3
>formula C21H22O8
>ionization [M+H]+
>parentmass 403.1387441160905
#inchi InChI=1S/C21H22O8/c1-23-13-8-7-11(9-15(13)24-2)14-10-12(22)16-17(25-3)19(26-4)21(28-6)20(27-5)18(16)29-14/h7-10H,1-6H3
#inchikey MRIAQLRQZPPODS
#Ion_Source LC-ESI
#Instrument qTof
#Compound_Source NIH Pharmacologically Active Library
#PI Dorrestein
#Data_Collector VP/LMS
#Scan -1
#Precursor_MZ 403.132
#ExactMass 402.131
#Charge 1
#CAS_Number N/A
#Pubmed_ID N/A
#Smiles COc1ccc(cc1OC)c2cc(=O)c3c(OC)c(OC)c(OC)c(OC)c3o2
#INCHI_AUX N/A
#Library_Class 1
#SpectrumID CCMSLIB00000085318
#IonMode Positive
#UpdateWorkflowName UPDATE-SINGLE-ANNOTATED-GOLD
#LibraryQualityString Gold
#TaskID d252d724072548979f1f6f1ced849daf
##Scan# 2092
#SpectrumFile p3-H04_GH4_01_18309.mzXML
#LibraryName Pharm_Active_Library.mgf
#MQScore -1
#Organism Pharm_Active_Library
#TIC_Query 0
#RT_Query -1
#MZErrorPPM -1
#SharedPeaks 0
#MassDiff 0
#LibMZ -1
#SpecMZ 403.132
#SpecCharge 0
#internalFilename spec-00000.mgf

>collision 10
44.95295 120.0
45.118587 100.0
45.204193 224.0
45.603874 148.0
45.723583 176.0
45.865017 40.0
45.952595 188.0
46.008018 144.0
46.103924 120.0
46.120144 48.0
46.262188 68.0
46.323128 156.0
46.351582 76.0
46.601265 184.0
46.627083 212.0
46.952488 148.0
47.184635 108.0
47.233871 156.0
47.392689 168.0
47.547657 148.0
47.595707 116.0
47.779892 168.0
47.931358 172.0
48.290318 176.0
48.611748 124.0
48.714497 136.0
48.854912 160.0
49.111237 136.0
49.178215 176.0
49.208927 160.0
49.386417 124.0
49.506786 148.0
49.548809 124.0
49.757793 148.0
49.840664 112.0
49.913761 80.0
50.123512 48.0
50.383141 48.0
50.441082 160.0
50.698696 180.0
50.732716 220.0
51.238682 72.0
51.762909 136.0
52.055462 152.0
52.387726 196.0
52.608379 152.0
53.107635 140.0
53.11924 176.0
53.141003 132.0
53.339973 172.0
53.533489 164.0
53.58593 108.0
53.599045 136.0
53.753624 168.0
54.044422 116.0
54.227486 88.0
54.657799 48.0
54.697536 160.0
54.724037 156.0
54.822735 44.0
55.145966 188.0
55.373825 228.0
55.633331 164.0
55.878563 68.0
56.027451 176.0
56.212349 112.0
56.245182 244.0
56.357197 100.0
56.620491 200.0
56.770363 108.0
56.813862 96.0
57.021091 148.0
57.076717 52.0
57.475906 180.0
57.596691 156.0
58.108398 156.0
58.185806 152.0
58.486816 172.0
58.503563 216.0
58.643711 88.0
58.91534 164.0
59.379169 180.0
59.79401 224.0
59.823257 160.0
59.843273 140.0
59.963436 212.0
60.409702 148.0
60.609432 176.0
60.776905 72.0
60.986568 176.0
61.067425 92.0
61.103203 132.0
61.249546 212.0
61.263565 184.0
61.588043 168.0
61.822571 204.0
61.896149 128.0
62.183052 132.0
62.216015 96.0
62.2537 180.0
62.303967 148.0
62.543003 216.0
62.650089 184.0
62.820354 52.0
62.844017 140.0
62.8745 152.0
62.938728 84.0
63.567184 184.0
63.692616 188.0
63.710091 72.0
63.824528 212.0
63.945438 148.0
64.391876 112.0
64.532509 136.0
64.604485 88.0
64.94249 188.0
64.961739 68.0
65.165642 212.0
65.197777 136.0
65.302284 216.0
65.382736 196.0
65.577621 64.0
65.622765 128.0
65.831467 180.0
66.71077 216.0
66.845772 180.0
67.202637 96.0
67.586632 128.0
67.711044 136.0
67.833939 136.0
68.111275 168.0
68.252617 156.0
68.34967 196.0
68.42868 60.0
68.440208 216.0
68.689072 196.0
68.829369 80.0
68.900391 216.0
69.231224 156.0
69.290855 92.0
69.309082 148.0
69.740585 64.0
70.271843 220.0
70.423759 68.0
70.78334 80.0
70.88385 104.0
71.031395 204.0
71.321907 168.0
71.528809 184.0
71.59111 96.0
71.692192 72.0
72.006004 92.0
72.146255 216.0
72.643028 216.0
72.994057 176.0
73.148888 72.0
73.349899 124.0
73.539238 52.0
73.62973 132.0
74.15329 152.0
74.175568 212.0
74.374016 140.0
75.207687 160.0
75.318199 208.0
75.705635 124.0
76.553131 188.0
76.61235 168.0
76.708199 68.0
76.894844 200.0
77.031044 152.0
77.657127 216.0
78.235863 216.0
79.132767 64.0
79.661285 100.0
79.940445 76.0
80.195786 152.0
80.387749 124.0
80.43737 180.0
80.578812 120.0
80.625275 176.0
80.705719 192.0
80.999237 160.0
81.295082 136.0
81.429733 164.0
81.562698 104.0
81.769554 164.0
81.803749 112.0
81.88298 208.0
81.953239 112.0
82.909203 236.0
82.947266 136.0
83.201248 132.0
83.68853 200.0
83.994713 176.0
84.080467 104.0
84.14801 248.0
84.246635 192.0
84.376396 220.0
84.425766 132.0
84.530045 120.0
85.048721 68.0
85.219521 160.0
85.302223 80.0
85.326126 164.0
85.344513 180.0
85.593849 180.0
85.880432 184.0
85.906258 228.0
86.039139 60.0
86.161034 128.0
86.382881 172.0
86.613426 200.0
87.05571 100.0
87.610016 204.0
87.783363 132.0
88.175415 220.0
88.255806 168.0
88.321259 168.0
88.339966 72.0
88.353065 56.0
88.843925 164.0
89.187576 176.0
90.267914 132.0
90.353027 132.0
90.858887 164.0
90.913918 148.0
90.974655 120.0
91.043015 148.0
91.535568 120.0
91.895836 72.0
91.974075 196.0
92.05809 156.0
92.281662 164.0
92.365814 148.0
92.886856 128.0
92.930984 160.0
93.005829 160.0
93.073029 208.0
93.440147 144.0
93.563332 104.0
93.60569 104.0
94.176567 108.0
94.354355 124.0
94.371758 116.0
94.394966 128.0
94.431709 184.0
94.474266 108.0
94.578766 156.0
94.623291 232.0
94.756935 68.0
94.795685 228.0
95.053604 200.0
95.121536 92.0
95.372124 128.0
95.869423 140.0
95.928856 148.0
96.057564 180.0
96.174644 148.0
96.334778 196.0
96.362129 132.0
96.921738 92.0
97.259071 180.0
97.378845 136.0
97.502625 164.0
97.628456 68.0
97.706902 168.0
97.837029 132.0
98.004448 140.0
98.750687 36.0
99.043617 536.0
99.200188 60.0
99.652695 112.0
99.773933 228.0
99.901215 220.0
100.271255 120.0
100.560799 184.0
100.602715 116.0
101.040405 168.0
101.196518 148.0
101.234566 32.0
101.292648 172.0
101.542358 192.0
101.561256 196.0
101.609406 160.0
101.691681 176.0
101.886475 148.0
101.972878 176.0
102.115639 204.0
102.371239 208.0
102.855133 192.0
103.054321 204.0
103.518303 184.0
103.75132 148.0
103.76754 248.0
104.008957 124.0
104.033318 68.0
104.053619 168.0
104.193764 176.0
104.42347 112.0
104.521126 152.0
104.547577 216.0
104.667686 136.0
104.702309 116.0
104.793976 220.0
104.920341 36.0
105.026382 136.0
105.050865 184.0
105.201881 168.0
105.502197 232.0
105.545135 172.0
106.432404 176.0
107.012253 160.0
107.049324 160.0
107.220314 112.0
107.242989 148.0
107.573036 204.0
107.742386 140.0
107.802307 144.0
107.942879 116.0
108.075264 160.0
108.551704 192.0
108.605629 140.0
108.67617 68.0
108.721825 152.0
108.804855 124.0
108.916992 148.0
109.02504 192.0
109.066605 184.0
109.128975 108.0
109.65358 172.0
109.684845 136.0
109.897575 256.0
110.564194 188.0
110.668869 152.0
110.832253 88.0
111.050278 144.0
111.155182 148.0
111.258026 136.0
111.279022 152.0
111.67411 252.0
111.747742 96.0
111.893585 136.0
111.951927 148.0
112.050926 160.0
112.331322 56.0
112.793793 156.0
113.060295 180.0
113.11956 220.0
113.2911 96.0
113.333473 84.0
113.39917 116.0
113.547585 132.0
113.795876 184.0
113.94455 64.0
114.093323 172.0
114.110329 164.0
114.21241 136.0
114.29113 156.0
114.319244 188.0
114.433739 120.0
114.501884 184.0
114.570053 236.0
114.631844 196.0
114.742683 88.0
114.911179 44.0
115.028557 132.0
115.319061 136.0
115.372505 56.0
115.539322 84.0
115.789772 196.0
116.031921 76.0
116.162743 72.0
116.203506 144.0
116.521271 156.0
116.551353 124.0
116.60508 180.0
117.052559 140.0
117.304649 196.0
117.367172 164.0
117.749153 120.0
117.770752 176.0
117.792351 124.0
117.976799 80.0
118.272408 188.0
118.736092 112.0
118.979126 176.0
119.00972 176.0
119.047211 156.0
119.278923 172.0
119.546448 156.0
119.975555 232.0
120.058411 208.0
120.333359 228.0
121.0243 156.0
121.157906 132.0
121.228027 140.0
122.028259 260.0
122.06002 140.0
122.121605 160.0
122.295433 156.0
122.667702 140.0
123.014481 396.0
123.042747 188.0
123.11396 128.0
123.234901 184.0
123.674995 180.0
124.010262 200.0
124.115875 164.0
124.708641 160.0
124.999985 136.0
125.02742 208.0
125.155807 84.0
125.358521 112.0
125.498955 124.0
125.536865 108.0
125.556938 144.0
126.285057 180.0
126.413391 184.0
126.502113 48.0
126.878487 52.0
127.036201 1268.0
127.383438 120.0
127.468819 156.0
127.504776 176.0
127.607872 200.0
127.689133 116.0
128.037994 152.0
128.107819 100.0
128.549744 240.0
128.579086 96.0
128.624237 96.0
128.673904 148.0
128.841034 140.0
128.877182 200.0
128.951752 188.0
129.135635 196.0
129.175613 176.0
130.068451 144.0
130.33873 240.0
130.695724 140.0
130.911987 148.0
131.041824 240.0
131.068863 304.0
131.303986 144.0
131.561829 256.0
131.865646 72.0
132.098877 172.0
132.140381 144.0
132.220154 176.0
132.460571 196.0
132.556793 148.0
132.760834 80.0
133.02562 264.0
133.068542 40.0
133.300323 52.0
133.771835 188.0
133.976791 164.0
134.029785 168.0
134.087402 148.0
134.428726 144.0
134.69194 92.0
134.839813 144.0
134.953094 136.0
135.05484 164.0
135.124252 132.0
135.179779 236.0
135.360352 164.0
135.942215 84.0
135.981674 132.0
136.01416 216.0
136.227814 84.0
136.304474 164.0
136.697479 180.0
136.883881 280.0
137.023148 644.0
137.047165 216.0
137.064621 224.0
137.102692 136.0
137.13533 136.0
137.205658 116.0
137.307861 144.0
137.657928 124.0
137.807434 116.0
137.929199 156.0
138.023529 212.0
138.060928 360.0
138.153458 152.0
138.303223 144.0
138.378143 132.0
138.483521 112.0
138.724884 132.0
138.893723 152.0
139.000793 576.0
139.057968 172.0
139.074722 148.0
139.337418 128.0
139.626556 204.0
139.9254 120.0
139.948944 84.0
139.972504 160.0
140.010284 276.0
140.078491 156.0
141.012909 156.0
141.071991 80.0
141.239899 112.0
141.261185 196.0
141.27774 160.0
141.554672 140.0
141.732346 124.0
141.91011 208.0
142.653229 52.0
142.857178 168.0
142.960068 100.0
143.500793 52.0
143.584259 128.0
144.061661 368.0
144.264786 160.0
144.38913 148.0
144.812775 260.0
144.920776 192.0
145.058136 180.0
145.083557 216.0
145.20105 244.0
145.473404 124.0
146.04071 172.0
146.142746 200.0
146.231781 176.0
147.003006 112.0
147.042694 176.0
147.085068 172.0
147.3918 144.0
148.003784 108.0
148.050323 508.0
149.02388 336.0
149.060272 116.0
149.258316 96.0
149.569733 172.0
149.606247 200.0
149.625732 184.0
149.642776 184.0
149.679291 164.0
149.808609 220.0
149.954025 120.0
149.983841 160.0
150.02597 132.0
150.060654 148.0
150.115234 168.0
150.601181 120.0
150.654922 132.0
150.997528 128.0
151.037064 136.0
151.072327 288.0
151.364243 156.0
151.616562 60.0
151.692551 192.0
151.871552 128.0
152.082581 280.0
152.517349 112.0
152.600937 212.0
152.758331 76.0
153.013184 428.0
153.031525 152.0
153.068451 144.0
153.583557 176.0
153.610687 128.0
153.693024 184.0
153.715805 172.0
153.835251 152.0
153.956253 44.0
154.109406 68.0
154.393692 160.0
154.507477 112.0
154.935776 120.0
154.967987 56.0
155.000198 108.0
155.035355 256.0
155.203461 156.0
155.230743 116.0
155.585571 180.0
155.990509 164.0
156.144669 164.0
156.201874 48.0
156.241684 40.0
156.348679 144.0
156.420868 160.0
156.498047 192.0
156.697311 164.0
156.949051 92.0
157.006836 208.0
157.069229 160.0
157.118652 60.0
157.473938 160.0
157.675507 180.0
157.802994 240.0
158.130707 76.0
158.21582 164.0
158.501358 144.0
158.77211 120.0
159.021301 148.0
159.046982 144.0
159.075043 196.0
159.181168 188.0
159.658661 212.0
159.701416 88.0
159.917801 172.0
160.056274 44.0
160.099075 216.0
160.149445 176.0
160.285492 44.0
160.613251 100.0
161.06311 160.0
161.130783 132.0
161.393646 84.0
161.482162 144.0
161.997284 128.0
162.028427 248.0
162.065567 1528.0
162.137909 112.0
162.24437 116.0
162.272263 44.0
162.310287 160.0
162.376236 200.0
162.457397 140.0
162.59906 204.0
162.652435 140.0
162.815308 116.0
163.001251 248.0
163.038879 152.0
163.073425 2140.0
163.153259 28.0
163.181229 96.0
163.336365 32.0
163.4254 132.0
164.008606 132.0
164.080139 488.0
164.416702 164.0
164.605621 188.0
164.771637 132.0
164.792084 160.0
164.855972 136.0
165.018372 892.0
165.053848 3340.0
165.103958 52.0
165.121857 72.0
165.390518 176.0
165.414871 156.0
165.500595 60.0
165.600479 176.0
165.887466 28.0
166.020126 180.0
166.054031 444.0
166.487885 88.0
166.590637 172.0
166.893906 128.0
167.001923 392.0
167.036316 480.0
167.054016 160.0
167.32103 100.0
167.39827 164.0
167.444626 152.0
167.54509 204.0
167.800247 228.0
167.851807 160.0
167.962723 176.0
168.003983 1408.0
168.029785 136.0
168.08139 68.0
168.153656 96.0
168.522949 56.0
168.548782 144.0
168.603058 184.0
168.79953 52.0
168.949554 188.0
169.011642 808.0
169.065262 156.0
169.10289 156.0
169.425919 232.0
169.879593 188.0
169.957428 160.0
170.043076 88.0
170.17807 244.0
170.229996 52.0
170.422226 184.0
170.471588 144.0
170.565155 100.0
170.736771 60.0
170.809601 168.0
171.106277 140.0
171.684753 176.0
171.919556 176.0
171.93782 112.0
171.974365 260.0
172.078781 108.0
172.104889 112.0
172.146683 200.0
173.017395 176.0
173.135223 164.0
173.308121 164.0
173.774841 120.0
173.829956 140.0
174.032074 132.0
174.054626 176.0
174.202789 108.0
174.271103 96.0
174.47084 64.0
174.910172 52.0
175.032867 160.0
175.072586 348.0
175.107651 168.0
175.64537 180.0
176.07605 192.0
176.212967 128.0
176.281677 196.0
176.359879 184.0
176.75238 172.0
177.038284 212.0
177.316467 44.0
177.377426 152.0
177.45961 136.0
177.597519 188.0
177.985474 132.0
178.317078 188.0
178.503174 144.0
178.609558 36.0
178.636154 156.0
178.817108 156.0
179.030029 184.0
179.125977 160.0
179.595123 100.0
179.832611 292.0
179.887009 272.0
179.990112 156.0
180.147705 92.0
180.179764 176.0
180.401581 60.0
180.449707 220.0
180.551315 112.0
180.610168 124.0
181.0112 228.0
181.03244 192.0
181.223236 116.0
181.384033 160.0
181.520767 124.0
181.661194 136.0
181.877609 136.0
182.015228 396.0
182.162247 168.0
182.250916 200.0
182.5466 132.0
182.578873 92.0
182.65419 84.0
182.702133 168.0
182.734894 132.0
182.764496 240.0
182.796783 108.0
182.942123 48.0
182.966354 128.0
183.028488 11432.0
183.110672 128.0
183.179108 52.0
183.222214 180.0
183.270416 180.0
183.346161 32.0
183.378998 120.0
183.45668 264.0
183.60498 52.0
183.645447 32.0
183.669724 76.0
183.777634 92.0
183.823242 80.0
183.896378 96.0
183.953217 68.0
184.030487 1020.0
184.062363 424.0
184.138535 64.0
184.277145 60.0
184.331192 56.0
184.374435 88.0
184.463623 60.0
184.661026 124.0
184.774643 176.0
184.939713 188.0
185.03447 144.0
185.056 260.0
185.085907 176.0
185.15361 208.0
185.24028 160.0
185.271866 116.0
185.370346 88.0
185.451645 116.0
185.476044 92.0
185.64415 64.0
185.717636 80.0
185.844879 204.0
186.020279 324.0
186.069275 148.0
186.132614 92.0
186.242264 248.0
186.404251 224.0
186.472198 104.0
186.833862 84.0
187.032516 248.0
187.074127 344.0
187.22583 160.0
187.266693 164.0
187.397446 112.0
187.634583 180.0
187.78183 148.0
187.940063 188.0
188.037033 152.0
188.07106 52.0
188.477982 92.0
188.508041 52.0
188.759537 64.0
189.056686 340.0
189.090729 136.0
189.249344 112.0
189.498596 148.0
189.723343 120.0
189.846725 96.0
189.871414 112.0
190.049377 156.0
190.082657 172.0
190.104614 136.0
190.156754 176.0
190.425827 244.0
190.61264 172.0
190.725327 208.0
190.832932 140.0
191.004028 248.0
191.040558 152.0
191.069153 168.0
191.135117 52.0
191.187393 144.0
191.258957 120.0
191.937027 240.0
192.248428 108.0
192.325714 192.0
192.806915 128.0
192.842239 184.0
193.012497 1580.0
193.063416 128.0
193.110428 80.0
193.342834 116.0
193.387115 168.0
193.547699 184.0
193.628006 164.0
193.772049 184.0
193.810837 64.0
194.015335 364.0
194.074173 156.0
194.187866 144.0
194.44313 236.0
194.562485 120.0
194.590256 92.0
194.978439 156.0
195.022903 140.0
195.028015 228.0
195.070282 164.0
195.157074 152.0
195.184875 84.0
195.2099 76.0
195.259964 184.0
195.304474 136.0
195.356339 116.0
195.741425 52.0
195.824966 140.0
195.87233 192.0
195.998322 548.0
196.072937 96.0
196.421478 156.0
196.759155 128.0
197.009018 400.0
197.048935 180.0
197.080353 72.0
197.477325 84.0
197.583633 104.0
198.009125 200.0
198.057526 184.0
198.255661 68.0
198.948486 164.0
199.027115 200.0
199.065399 160.0
199.198425 128.0
199.471008 148.0
199.566605 104.0
200.035278 184.0
200.046143 108.0
200.315231 232.0
200.340591 104.0
200.876221 164.0
201.057892 280.0
201.2883 124.0
201.932648 104.0
201.980743 240.0
202.068436 236.0
202.108047 136.0
202.784897 144.0
202.923798 232.0
202.974838 140.0
203.065247 540.0
203.125153 148.0
203.403259 200.0
203.460037 228.0
203.625916 144.0
203.690063 124.0
203.729828 88.0
204.068039 128.0
204.09079 176.0
204.141983 104.0
204.403687 212.0
204.565918 56.0
204.590317 180.0
204.691208 172.0
204.75386 116.0
205.015961 184.0
205.088715 76.0
205.158478 160.0
205.495026 216.0
205.646271 76.0
205.908951 232.0
206.194656 140.0
206.297562 116.0
207.026443 180.0
207.059525 84.0
207.09021 132.0
207.345215 176.0
208.059464 220.0
208.168579 128.0
208.300705 176.0
208.749069 188.0
209.091431 140.0
209.20369 104.0
209.439819 84.0
209.46286 216.0
209.641495 76.0
209.814453 136.0
209.843277 164.0
210.065353 136.0
210.192307 52.0
210.351044 160.0
210.391449 188.0
210.882538 240.0
210.975037 120.0
211.022934 15160.0
211.0784 140.0
211.148529 148.0
211.316315 108.0
211.351044 60.0
211.378738 84.0
211.443649 56.0
211.637604 40.0
211.709991 108.0
211.808472 156.0
211.87735 120.0
212.026459 1100.0
212.301208 112.0
212.504425 72.0
212.53038 128.0
212.695572 104.0
212.713715 116.0
212.814835 96.0
212.907761 164.0
213.023682 196.0
213.053192 340.0
213.093536 184.0
213.180847 44.0
213.288376 156.0
213.366867 48.0
213.423996 116.0
213.587891 88.0
213.643158 68.0
213.695526 88.0
213.715897 140.0
213.925446 204.0
214.025345 284.0
214.065079 360.0
214.452698 188.0
214.595535 120.0
214.680099 60.0
214.919312 104.0
215.029373 252.0
215.074234 224.0
215.138214 188.0
215.243317 92.0
215.474075 112.0
216.064651 152.0
216.084061 192.0
216.114395 60.0
216.143661 76.0
216.588669 44.0
216.726364 172.0
217.084106 176.0
217.342133 112.0
218.014618 64.0
218.088974 504.0
218.229202 68.0
218.508316 152.0
218.585129 200.0
219.062103 172.0
219.106842 172.0
219.150497 168.0
219.265427 152.0
219.701828 80.0
219.784454 220.0
219.932007 108.0
220.165253 208.0
220.357269 200.0
220.434097 100.0
220.608475 44.0
220.963379 116.0
221.13501 104.0
221.469604 60.0
221.561432 116.0
221.589752 208.0
221.869659 196.0
222.104156 108.0
222.252274 164.0
222.712433 144.0
222.795609 176.0
222.893661 128.0
223.024429 136.0
223.069016 160.0
223.509201 244.0
223.577652 204.0
223.83963 128.0
224.080902 180.0
224.113663 132.0
224.28653 104.0
224.704041 216.0
224.888306 208.0
224.939804 76.0
225.054153 156.0
225.093948 188.0
225.659805 136.0
226.045441 156.0
226.064301 176.0
226.095505 172.0
226.359985 176.0
226.47081 48.0
226.605606 128.0
226.737457 232.0
226.791412 124.0
227.034348 152.0
227.065552 464.0
227.181244 60.0
227.424316 232.0
227.484344 76.0
227.93187 148.0
228.041733 324.0
228.074768 124.0
228.142258 256.0
228.199387 104.0
228.533249 216.0
228.707809 140.0
228.930603 104.0
229.03801 328.0
229.084122 368.0
229.18364 52.0
229.309326 164.0
229.38858 88.0
229.424759 56.0
229.457932 60.0
229.500137 196.0
229.711258 104.0
229.816849 44.0
230.016037 128.0
230.054565 228.0
230.088501 132.0
230.139816 120.0
230.173035 120.0
230.287796 128.0
230.399567 104.0
230.463013 212.0
230.747131 60.0
230.771332 96.0
230.91951 232.0
231.010254 136.0
231.064117 1108.0
231.107071 128.0
231.294708 56.0
231.367355 76.0
231.539963 124.0
231.897476 52.0
232.072067 376.0
232.441681 208.0
232.728714 48.0
232.856262 72.0
232.910934 84.0
232.935242 72.0
233.063477 164.0
233.144882 140.0
233.309021 212.0
233.500595 136.0
233.600983 76.0
233.71051 76.0
233.908325 68.0
234.221985 160.0
234.321182 156.0
234.974976 144.0
235.069565 184.0
235.268982 216.0
235.362625 108.0
236.628479 100.0
236.668289 140.0
236.744843 144.0
236.885742 64.0
237.219772 148.0
237.962219 128.0
237.995987 176.0
238.066864 248.0
238.333878 164.0
238.43222 128.0
238.505981 108.0
238.699677 224.0
238.856537 156.0
238.905746 108.0
239.072311 128.0
239.404388 76.0
239.712463 116.0
239.761765 104.0
239.811081 152.0
239.946716 184.0
240.079605 288.0
240.264389 144.0
240.606964 124.0
240.888 120.0
241.05455 304.0
241.075714 248.0
241.110474 200.0
241.453644 56.0
241.540253 132.0
242.060486 236.0
242.08522 112.0
242.208878 80.0
242.385483 164.0
242.534241 160.0
242.61174 144.0
242.946686 168.0
243.023987 540.0
243.058044 676.0
243.114243 168.0
243.716675 148.0
243.840973 108.0
243.903137 204.0
244.002625 152.0
244.069946 284.0
244.123901 96.0
244.394531 188.0
245.07843 384.0
245.99025 124.0
246.088837 540.0
246.549362 180.0
246.740036 272.0
246.858856 136.0
247.065292 152.0
247.09137 144.0
247.162292 184.0
248.091736 144.0
248.424942 80.0
248.581833 180.0
248.842361 144.0
248.971115 216.0
249.03392 148.0
249.169006 152.0
249.46756 168.0
249.58075 168.0
249.769455 144.0
249.819794 148.0
249.923615 204.0
250.203735 200.0
250.458817 140.0
250.600586 172.0
250.676208 148.0
250.865326 168.0
251.065369 132.0
251.186981 192.0
251.571991 208.0
252.112106 168.0
252.187958 132.0
252.792038 116.0
253.03894 316.0
253.080185 152.0
253.564789 64.0
253.605988 168.0
254.049942 112.0
254.287933 68.0
254.338715 104.0
254.624481 164.0
254.919937 140.0
255.065826 348.0
255.780777 140.0
255.867828 92.0
256.042969 108.0
256.0737 168.0
256.560883 200.0
256.648438 184.0
256.903595 180.0
257.079926 656.0
257.280182 100.0
257.490936 84.0
257.570801 152.0
257.602722 60.0
257.832794 88.0
257.874329 108.0
258.053375 2276.0
258.165283 188.0
258.202118 52.0
258.270813 136.0
258.302826 60.0
258.584381 44.0
258.606812 36.0
258.843719 76.0
258.876251 72.0
258.954376 188.0
259.061066 2772.0
259.27298 176.0
259.298615 36.0
259.513397 140.0
259.571136 168.0
259.802063 148.0
260.063568 680.0
260.279205 152.0
260.453735 64.0
260.521179 132.0
260.987213 92.0
261.073029 188.0
261.530914 88.0
261.556671 136.0
261.640381 204.0
261.756287 108.0
261.804596 160.0
261.85614 196.0
261.965332 128.0
262.123535 136.0
262.31369 76.0
262.407166 80.0
262.681305 124.0
262.881348 120.0
263.052399 120.0
263.084686 144.0
263.133118 240.0
263.743683 92.0
263.88916 140.0
263.937683 208.0
264.041168 176.0
264.073517 120.0
264.539459 36.0
264.897095 140.0
265.047974 120.0
265.078949 164.0
265.110657 332.0
265.135468 192.0
265.252136 108.0
265.826233 128.0
265.949554 164.0
266.051208 404.0
266.131348 144.0
266.280731 88.0
266.482147 160.0
266.657623 232.0
266.836426 104.0
266.999023 48.0
267.064148 148.0
267.12262 112.0
267.343872 48.0
267.578247 120.0
267.6922 220.0
268.07486 116.0
268.096161 176.0
268.233063 248.0
268.288483 136.0
268.356934 116.0
268.816895 76.0
268.91806 88.0
269.042236 332.0
269.077362 160.0
269.247803 164.0
269.30661 40.0
269.724792 196.0
269.868713 32.0
269.904663 72.0
270.045532 168.0
270.055054 176.0
270.066437 328.0
270.39212 92.0
270.418304 96.0
271.061554 440.0
271.083588 156.0
271.315857 100.0
271.551971 64.0
271.768494 108.0
272.066986 944.0
272.107025 200.0
272.24118 128.0
273.026642 236.0
273.075775 652.0
273.520172 112.0
273.64859 156.0
274.078918 1748.0
274.205292 56.0
274.699921 56.0
274.821991 172.0
275.087769 268.0
275.264313 160.0
275.802826 152.0
276.245941 168.0
276.527191 48.0
276.628723 120.0
277.069885 752.0
277.136536 184.0
277.381805 236.0
277.905792 140.0
278.038544 144.0
278.076202 240.0
278.430298 112.0
278.872192 188.0
279.066376 204.0
279.144806 64.0
279.517395 164.0
279.786987 204.0
280.025726 272.0
280.06308 168.0
280.196655 196.0
280.409912 112.0
280.466583 192.0
280.509918 124.0
280.553253 64.0
280.719971 84.0
280.893402 152.0
281.000153 148.0
281.035889 180.0
281.076874 180.0
281.404022 228.0
281.452026 188.0
281.627777 104.0
281.918457 40.0
281.941833 60.0
282.024384 160.0
282.033997 112.0
282.051666 112.0
282.060303 136.0
282.105621 96.0
282.366455 172.0
282.450073 212.0
282.670868 84.0
282.851624 88.0
283.058258 728.0
283.096771 316.0
283.216614 136.0
283.474579 128.0
283.655579 76.0
284.065186 808.0
284.188599 172.0
284.259277 40.0
284.514374 140.0
284.593719 272.0
284.685638 256.0
284.772949 72.0
284.843506 80.0
284.89389 72.0
285.04422 136.0
285.073792 1044.0
285.169434 72.0
285.290436 116.0
285.502289 68.0
285.529175 220.0
286.035461 320.0
286.084229 464.0
286.283051 424.0
286.360504 60.0
286.542419 144.0
286.741241 184.0
286.882812 136.0
287.054901 804.0
287.160828 116.0
287.213287 128.0
287.250397 100.0
287.311127 68.0
287.371857 148.0
287.493347 144.0
287.530457 188.0
287.614838 76.0
288.053162 92.0
288.131531 144.0
288.290344 64.0
288.398499 100.0
288.704437 212.0
288.863068 164.0
288.88327 100.0
288.942963 52.0
289.085052 112.0
289.112152 172.0
289.325378 252.0
289.718231 88.0
290.111694 128.0
290.49118 132.0
290.769531 132.0
290.881439 144.0
291.156464 148.0
291.268555 88.0
291.485992 132.0
291.666138 60.0
291.802124 164.0
291.907532 72.0
292.206848 52.0
292.639099 84.0
292.720825 140.0
293.043732 172.0
293.078522 168.0
293.170502 120.0
293.412537 160.0
293.572784 208.0
293.81839 72.0
293.920746 232.0
293.975342 172.0
294.046844 272.0
294.084564 80.0
294.115295 80.0
294.265503 140.0
294.391846 184.0
295.055511 352.0
295.100952 256.0
295.499359 60.0
295.86557 120.0
295.981964 136.0
296.019653 132.0
296.058014 240.0
296.105255 112.0
296.194336 88.0
296.449707 148.0
296.598663 48.0
297.038055 768.0
297.078461 408.0
297.191986 148.0
297.291504 140.0
297.511169 104.0
297.717834 148.0
297.813354 48.0
298.040039 560.0
298.082001 464.0
298.126007 96.0
298.289032 148.0
298.476654 64.0
298.528229 156.0
298.686462 188.0
298.720856 200.0
298.758698 92.0
298.827515 112.0
299.060516 532.0
299.090515 1868.0
299.216431 152.0
299.450592 64.0
299.485046 152.0
299.953674 152.0
300.030457 656.0
300.060211 164.0
300.06839 316.0
300.082001 496.0
300.232941 100.0
300.508911 128.0
300.774658 156.0
300.946259 176.0
300.983917 256.0
301.06955 6060.0
301.133759 104.0
301.223572 148.0
301.254669 44.0
301.334106 52.0
301.437775 52.0
301.472351 36.0
301.509766 76.0
301.562195 72.0
301.620972 180.0
301.67627 40.0
301.790375 60.0
301.98056 156.0
302.03537 196.0
302.073975 1460.0
302.150085 116.0
302.184662 168.0
302.319611 52.0
302.728119 164.0
302.755829 80.0
302.991364 68.0
303.073547 344.0
303.192352 72.0
303.299805 52.0
303.424591 96.0
303.675964 164.0
303.747131 264.0
303.835297 112.0
303.896301 176.0
304.02124 216.0
304.081207 128.0
304.114929 76.0
304.203583 136.0
304.378784 132.0
304.628479 180.0
305.064697 156.0
305.264923 80.0
305.670227 188.0
305.901642 80.0
305.957336 64.0
306.295135 60.0
306.500702 44.0
306.605255 212.0
306.643585 128.0
307.013153 100.0
307.044525 100.0
307.079407 120.0
307.508575 192.0
307.5784 52.0
307.718018 56.0
308.095215 204.0
308.11969 96.0
308.423553 160.0
308.56131 164.0
308.682434 144.0
309.032227 140.0
309.065247 328.0
309.676361 192.0
309.890076 128.0
310.026733 84.0
310.056976 172.0
310.678925 100.0
311.05426 396.0
311.089905 240.0
311.465271 52.0
311.718231 100.0
311.827179 152.0
311.91507 180.0
311.963928 164.0
312.06189 3232.0
312.19281 72.0
312.277222 88.0
312.337036 60.0
312.386261 132.0
312.442566 36.0
312.474213 44.0
312.579773 212.0
312.695923 44.0
312.871918 188.0
312.935303 152.0
312.988129 120.0
313.06955 3500.0
313.188873 64.0
313.36853 48.0
313.481293 60.0
313.548248 132.0
313.749176 76.0
313.773865 120.0
313.904327 144.0
314.073669 1432.0
314.197083 92.0
314.23941 48.0
314.338226 68.0
314.398224 240.0
314.48291 164.0
314.532349 184.0
314.574707 96.0
314.698273 116.0
314.987854 128.0
315.049408 3348.0
315.201477 104.0
315.291718 100.0
315.418976 148.0
315.479065 72.0
315.517975 60.0
315.744263 48.0
315.772552 136.0
316.054352 428.0
316.144043 84.0
316.168823 128.0
316.292694 92.0
316.317474 108.0
316.342255 48.0
316.381195 60.0
316.423676 104.0
316.498047 128.0
316.604279 128.0
317.012207 112.0
317.06131 288.0
317.100006 396.0
317.167633 60.0
317.199554 92.0
317.390991 96.0
317.666718 184.0
317.969238 76.0
318.054443 40.0
318.132538 116.0
319.262451 120.0
319.475891 112.0
320.226013 252.0
320.907623 188.0
321.285675 64.0
321.52832 148.0
321.59613 84.0
321.631836 144.0
321.735352 140.0
321.910309 76.0
322.049438 160.0
322.10318 128.0
322.207123 188.0
322.968231 152.0
323.036194 180.0
323.072815 156.0
323.100586 148.0
323.311707 56.0
324.054901 192.0
324.094757 512.0
324.119324 176.0
324.332489 44.0
324.386261 52.0
324.55835 92.0
324.64801 208.0
324.677582 180.0
324.7341 36.0
325.034119 1040.0
325.062286 400.0
325.102631 236.0
325.229248 104.0
325.365662 128.0
325.584686 68.0
325.759796 64.0
325.979889 52.0
326.031921 316.0
326.07309 196.0
326.10257 136.0
326.39328 140.0
326.453888 112.0
326.529938 188.0
326.583893 52.0
326.648621 112.0
326.820953 116.0
327.001251 60.0
327.084503 5760.0
327.174042 148.0
327.243896 80.0
327.332458 160.0
327.511353 120.0
327.548584 44.0
327.833221 152.0
327.948547 80.0
328.026398 140.0
328.065643 924.0
328.090027 1364.0
328.139618 212.0
328.283844 144.0
328.341553 72.0
328.4245 152.0
328.565186 96.0
328.900391 68.0
328.933289 100.0
328.983826 144.0
329.009094 192.0
329.066284 3676.0
329.20047 48.0
329.384674 72.0
329.471375 168.0
329.669189 140.0
329.73877 152.0
329.843597 84.0
329.897827 144.0
330.071259 6724.0
330.158173 72.0
330.192688 44.0
330.210602 84.0
330.281158 64.0
330.342651 84.0
330.40863 100.0
330.527161 88.0
330.592285 108.0
330.758789 64.0
330.804993 236.0
330.903595 44.0
330.95636 64.0
331.076355 1836.0
331.218658 60.0
331.27301 56.0
331.341858 64.0
331.537506 168.0
331.577393 60.0
331.635376 48.0
331.787201 68.0
331.979797 144.0
332.078949 320.0
332.204681 56.0
332.285004 196.0
332.469574 48.0
332.563934 56.0
332.669922 244.0
332.756348 124.0
332.799896 68.0
332.879791 120.0
332.948792 52.0
332.974213 156.0
333.032318 124.0
333.078186 128.0
333.272095 84.0
333.566498 156.0
333.886475 116.0
333.926483 156.0
334.079254 96.0
334.767181 100.0
334.931061 40.0
334.999237 136.0
335.408417 116.0
335.47403 256.0
336.090424 144.0
336.484619 140.0
336.630676 200.0
337.036163 132.0
337.065399 188.0
337.189636 96.0
337.346832 172.0
338.034363 164.0
338.058624 152.0
338.250397 96.0
338.367554 52.0
338.422455 124.0
338.924286 156.0
339.046387 340.0
339.082275 216.0
339.382477 176.0
339.4888 120.0
339.642853 52.0
339.760254 152.0
339.914337 128.0
339.958374 76.0
340.01004 152.0
340.057159 648.0
340.108856 136.0
340.487061 168.0
340.597229 100.0
340.780945 132.0
341.058929 728.0
341.09967 400.0
341.233032 108.0
341.387451 44.0
341.446289 88.0
341.567688 136.0
341.626526 160.0
342.03772 376.0
342.066711 560.0
342.101044 276.0
342.204376 132.0
342.30011 184.0
342.587402 76.0
342.668457 84.0
342.708984 52.0
342.966949 44.0
343.044128 2728.0
343.199219 108.0
343.311737 132.0
343.485626 124.0
343.741455 112.0
343.790833 168.0
343.972809 172.0
344.044983 512.0
344.085297 784.0
344.142212 68.0
344.232422 136.0
344.31369 44.0
344.402008 48.0
344.451752 96.0
344.490967 104.0
344.601807 104.0
344.658508 128.0
344.953033 136.0
345.096283 3024.0
345.219116 144.0
345.429962 140.0
345.681549 68.0
345.764404 144.0
346.097076 932.0
346.14798 68.0
346.533203 44.0
346.970551 132.0
347.108398 116.0
347.70874 160.0
347.842377 144.0
347.897614 168.0
347.903778 148.0
347.950012 92.0
348.08371 180.0
348.165405 156.0
348.198822 28.0
348.507172 56.0
348.544312 100.0
348.718994 168.0
349.098206 196.0
349.180023 84.0
349.269287 144.0
349.384613 208.0
350.755066 56.0
350.803528 208.0
350.997406 32.0
351.292053 164.0
351.624146 96.0
351.94519 164.0
352.087097 144.0
352.385925 176.0
352.50177 128.0
353.060913 568.0
353.114899 200.0
353.163513 180.0
354.066986 340.0
354.119598 160.0
354.185394 36.0
354.335236 68.0
354.784973 32.0
355.080566 5044.0
355.148743 96.0
355.216248 132.0
355.313782 108.0
355.580231 128.0
355.779175 220.0
356.03067 152.0
356.080505 1268.0
356.147186 84.0
356.271149 176.0
356.432709 108.0
356.575531 88.0
356.650696 52.0
356.805389 136.0
356.940186 48.0
357.058777 2852.0
357.152466 308.0
357.289978 72.0
357.425446 132.0
357.478363 60.0
357.711487 84.0
357.756653 124.0
357.794312 132.0
357.854553 60.0
358.066345 6756.0
358.155823 108.0
358.189728 108.0
358.238708 136.0
358.286133 108.0
358.457245 44.0
358.549713 156.0
358.625275 104.0
358.732391 72.0
358.859741 88.0
359.000092 68.0
359.069702 1124.0
359.107483 796.0
359.211304 56.0
359.275421 68.0
359.449707 128.0
359.479187 52.0
359.573547 72.0
359.788696 48.0
359.851227 128.0
360.079468 424.0
360.097076 156.0
360.121521 420.0
360.285461 104.0
360.377899 96.0
360.812561 52.0
360.83902 180.0
361.070282 156.0
361.145325 132.0
361.497192 152.0
361.667511 68.0
361.773499 112.0
362.792572 44.0
363.046631 68.0
363.183167 124.0
364.034271 192.0
364.07132 128.0
364.409393 88.0
364.675415 76.0
364.937714 132.0
365.021362 60.0
365.588196 140.0
366.753662 192.0
366.875641 192.0
367.073914 116.0
367.600342 44.0
367.878967 156.0
368.32959 152.0
368.619965 40.0
368.784302 100.0
369.021301 160.0
369.098755 224.0
369.228302 156.0
369.308136 248.0
369.962494 36.0
370.100128 536.0
370.146271 52.0
370.276489 156.0
370.613617 156.0
370.659576 132.0
370.697906 88.0
370.736237 44.0
370.943207 212.0
371.082153 300.0
371.110168 408.0
371.34967 40.0
371.421631 84.0
371.451172 120.0
371.491577 124.0
371.721802 100.0
371.779358 48.0
371.857788 156.0
372.005829 72.0
372.078156 260.0
372.118286 208.0
372.151733 100.0
372.240051 32.0
372.282288 96.0
372.397491 120.0
372.439758 152.0
372.491669 120.0
372.551147 92.0
372.588074 68.0
372.654602 204.0
372.707855 92.0
372.796204 212.0
372.895813 304.0
372.954651 88.0
373.011932 168.0
373.091583 64316.0
373.169952 368.0
373.22345 208.0
373.230591 36.0
373.307983 84.0
373.361542 136.0
373.406281 96.0
373.449768 80.0
373.49527 228.0
373.556335 80.0
373.587219 68.0
373.621124 152.0
373.635559 84.0
373.730743 196.0
373.778564 132.0
373.818054 100.0
373.882172 52.0
373.93161 188.0
374.007721 148.0
374.093964 12968.0
374.174133 160.0
374.212646 148.0
374.245239 136.0
374.445801 88.0
374.454926 48.0
374.468445 84.0
374.499695 52.0
374.558838 260.0
374.630341 88.0
374.680298 104.0
374.711334 84.0
374.758331 136.0
374.83728 84.0
374.86618 60.0
374.913727 40.0
374.951477 120.0
375.017792 100.0
375.095856 3000.0
375.151825 192.0
375.203278 100.0
375.22998 108.0
375.268372 48.0
375.306915 52.0
375.336029 68.0
375.374847 52.0
375.447998 48.0
375.49588 68.0
375.534454 76.0
375.754181 104.0
375.795929 92.0
375.827637 64.0
375.939545 120.0
375.983551 60.0
376.015533 152.0
376.098083 264.0
376.140076 88.0
376.166992 108.0
376.261871 176.0
376.300262 36.0
376.416595 56.0
376.427277 128.0
376.485107 112.0
376.523132 72.0
376.618683 152.0
376.628143 116.0
376.683075 140.0
376.711792 108.0
376.781311 48.0
376.835419 104.0
376.947479 36.0
376.975739 192.0
377.028625 68.0
377.055695 44.0
377.112549 112.0
377.176147 48.0
377.255035 76.0
377.322418 76.0
377.361084 80.0
377.388153 56.0
377.436127 192.0
377.509766 124.0
377.624023 112.0
377.66272 120.0
377.740082 92.0
377.910309 148.0
378.080566 60.0
378.15799 48.0
378.258636 96.0
378.587738 48.0
378.871979 116.0
379.09137 60.0
379.149506 100.0
379.444092 36.0
379.793121 64.0
379.897858 36.0
380.107361 92.0
380.367401 128.0
380.445038 44.0
380.600342 80.0
380.763458 64.0
381.424011 40.0
382.287445 100.0
384.727478 164.0
385.127106 120.0
385.584595 188.0
386.650665 40.0
386.850281 68.0
386.912933 64.0
387.106293 1104.0
387.218353 40.0
387.328033 116.0
387.537506 100.0
387.657135 88.0
387.712006 88.0
387.853119 132.0
388.11441 3868.0
388.304016 56.0
388.511932 96.0
388.774658 88.0
389.037811 132.0
389.120209 1288.0
389.226257 36.0
389.312653 104.0
389.371582 52.0
389.454071 48.0
389.534851 84.0
390.067047 40.0
390.105591 424.0
390.318695 80.0
390.625458 128.0
390.656921 64.0
390.719879 44.0
390.845795 108.0
390.936279 100.0
391.125214 136.0
391.554382 72.0
391.625275 92.0
392.650055 60.0
395.336578 76.0
395.744293 112.0
396.857697 212.0
397.813873 32.0
399.339752 84.0
400.227203 36.0
401.16748 52.0
402.420227 148.0
402.500092 180.0
402.751709 76.0
403.136475 3700.0
403.21521 164.0
403.247162 108.0
403.288605 76.0
403.343109 124.0
403.582977 48.0
403.700531 152.0
403.746948 52.0
404.140625 1076.0
404.543182 72.0
404.967651 84.0
405.147125 324.0
405.24408 76.0
406.161041 280.0
406.912598 56.0
407.125427 56.0
407.346344 60.0
407.603485 84.0
408.604675 52.0
410.376862 44.0
417.044525 208.0
417.975861 60.0
419.022278 28.0
420.600525 88.0
425.188873 84.0
427.523224 44.0
438.802979 116.0
440.643585 104.0
446.466064 64.0
452.022034 40.0
454.747131 76.0
457.059021 176.0
464.111389 144.0
468.8573 52.0
469.659271 92.0
473.029785 128.0
477.033813 100.0
480.819031 100.0
480.989258 112.0
482.841858 72.0
484.277466 92.0
486.32074 56.0
486.966187 68.0
489.569855 48.0
502.576294 84.0
505.856781 100.0
506.604645 64.0
508.640564 80.0
513.56781 112.0
514.510925 92.0
514.962524 80.0
522.888 72.0
522.951721 92.0
528.400452 120.0
535.041626 92.0
538.952881 44.0
546.604065 144.0
547.544434 100.0
560.281189 100.0
562.002136 88.0
568.622681 88.0
575.98877 48.0
580.722778 112.0
586.680786 124.0
592.669189 60.0
601.242676 144.0
602.053101 56.0
609.646667 60.0
621.01239 116.0
621.533142 68.0
632.042297 48.0
635.605042 72.0
636.147095 68.0
641.514893 104.0
646.32312 36.0
649.393188 40.0
649.930969 40.0
651.560791 96.0
652.013062 36.0
655.97821 80.0
660.95282 88.0
673.254639 140.0
673.833191 36.0
674.820374 136.0
699.608826 68.0
702.206665 64.0
707.676208 64.0
708.205811 76.0
708.603149 112.0
747.835754 100.0
759.002686 48.0
759.710205 128.0
760.450989 64.0
760.75293 48.0
781.626282 84.0
786.210022 124.0
787.382446 120.0
791.425659 100.0
792.120117 72.0
802.895264 88.0
807.198547 108.0
813.294739 60.0
817.420898 72.0
822.213684 148.0
825.704529 132.0
854.962158 64.0
856.685669 84.0
860.400696 60.0
861.451904 76.0
863.813599 56.0
873.975281 112.0
874.340149 88.0
879.774902 68.0
905.050415 148.0
910.003113 64.0
911.096252 208.0
917.921875 56.0
921.217346 52.0
923.121277 132.0
929.257446 108.0
947.990051 44.0
957.303284 80.0
971.736877 80.0
973.052734 164.0
1002.767761 104.0
1045.49292 184.0
1064.85022 36.0
1070.781982 88.0
1071.817871 164.0
1079.030396 48.0
1084.785034 64.0
1103.370239 100.0
1113.416016 144.0
1116.087524 196.0
1127.660767 112.0
1142.137329 136.0
1180.595703 84.0
1192.951538 116.0
1207.245239 104.0
1226.770386 128.0
1232.325928 256.0
1239.112793 28.0
1247.640137 72.0
1251.869019 180.0
1262.355835 220.0
1266.014526 192.0
1268.423584 88.0
1268.90564 156.0
1273.27063 168.0
1295.167114 96.0
1313.331543 148.0
1316.160645 212.0
1321.900269 216.0
1325.310913 160.0
1343.334473 52.0
1350.288452 64.0
1351.297974 40.0
1365.588379 120.0
1372.341431 176.0
1374.480591 208.0
1379.769165 88.0
1394.588013 220.0
1398.053955 180.0
1408.141357 180.0
1424.095215 152.0
1429.305176 72.0
1440.101196 140.0
1454.639893 232.0
1468.03125 184.0
1481.468628 168.0
1488.61731 40.0
1498.740601 32.0
