>compound MLS002154192-01!Diphemanil methylsulfate62-97-5
>formula C20H24N
>ionization [M+H]+
>parentmass 279.19815122009055
#inchi InChI=1S/C20H24N/c1-21(2)15-13-19(14-16-21)20(17-9-5-3-6-10-17)18-11-7-4-8-12-18/h3-12H,13-16H2,1-2H3/q+1
#inchikey LCTZPQRFOZKZNK
#origInchi InChI=1S/C20H24N.CH4O4S/c1-21(2)15-13-19(14-16-21)20(17-9-5-3-6-10-17)18-11-7-4-8-12-18;1-5-6(2,3)4/h3-12H,13-16H2,1-2H3;1H3,(H,2,3,4)/q+1;/p-1
#Ion_Source LC-ESI
#Instrument qTof
#Compound_Source NIH Pharmacologically Active Library
#PI Dorrestein
#Data_Collector VP/LMS
#Scan -1
#Precursor_MZ 278.191
#ExactMass 278.191
#Charge 1
#CAS_Number N/A
#Pubmed_ID N/A
#Smiles C[N+]1(C)CCC(=C(c2ccccc2)c3ccccc3)CC1.COS(=O)(=O)[O-]
#INCHI_AUX N/A
#Library_Class 1
#SpectrumID CCMSLIB00000086155
#IonMode Positive
#UpdateWorkflowName UPDATE-SINGLE-ANNOTATED-GOLD
#LibraryQualityString Gold
#TaskID d252d724072548979f1f6f1ced849daf
##Scan# 1691
#SpectrumFile p5-G03_GG3_01_18472.mzXML
#LibraryName Pharm_Active_Library.mgf
#MQScore -1
#Organism Pharm_Active_Library
#TIC_Query 0
#RT_Query -1
#MZErrorPPM -1
#SharedPeaks 0
#MassDiff 0
#LibMZ -1
#SpecMZ 278.191
#SpecCharge 0
#internalFilename spec-00000.mgf

>collision 10
44.974724 60.0
45.02412 152.0
45.08691 96.0
45.153759 200.0
45.165794 136.0
45.309032 44.0
45.398838 140.0
45.507526 48.0
45.602905 120.0
45.625759 184.0
45.64727 184.0
45.686275 156.0
45.75491 204.0
45.811474 228.0
45.88155 112.0
45.899078 232.0
45.97245 224.0
46.024567 128.0
46.07859 84.0
46.100212 144.0
46.173214 144.0
46.232738 132.0
46.273346 144.0
46.32394 172.0
46.423752 124.0
46.457661 100.0
46.544525 76.0
46.6138 188.0
46.639301 152.0
46.85463 148.0
46.988239 168.0
47.163033 108.0
47.17807 32.0
47.224426 40.0
47.257393 152.0
47.267632 176.0
47.414871 108.0
47.439541 144.0
47.505367 212.0
47.514969 192.0
47.547901 164.0
47.63303 68.0
47.715485 120.0
47.745735 32.0
47.877853 160.0
48.170258 156.0
48.242115 152.0
48.258705 184.0
48.290512 104.0
48.390144 140.0
48.545338 144.0
48.634129 172.0
48.716057 156.0
48.736374 96.0
48.816128 168.0
48.885681 184.0
48.96225 148.0
48.97757 148.0
49.149803 104.0
49.190914 144.0
49.246769 176.0
49.26561 196.0
49.337597 204.0
49.390568 168.0
49.407803 40.0
49.459297 240.0
49.488697 144.0
49.548923 124.0
49.642834 64.0
49.659664 192.0
49.75087 80.0
49.764912 116.0
49.837948 136.0
49.851921 144.0
49.857292 136.0
49.880108 148.0
49.904446 180.0
49.982777 76.0
50.010452 144.0
50.078506 188.0
50.127815 168.0
50.141907 160.0
50.167278 52.0
50.260365 176.0
50.282944 220.0
50.332352 144.0
50.366245 140.0
50.384609 216.0
50.462341 132.0
50.490623 160.0
50.565605 148.0
50.603291 212.0
50.883129 180.0
50.932835 176.0
51.028046 120.0
51.05933 124.0
51.090622 112.0
51.234409 196.0
51.271458 56.0
51.417149 128.0
51.496876 196.0
51.515446 120.0
51.532589 120.0
51.735676 188.0
51.795296 112.0
51.823036 180.0
51.855995 124.0
51.881798 128.0
51.992245 156.0
52.012337 104.0
52.104244 172.0
52.158852 64.0
52.216366 116.0
52.232185 152.0
52.29406 212.0
52.321407 116.0
52.351646 168.0
52.386211 228.0
52.412148 136.0
52.465473 108.0
52.57365 124.0
52.609737 136.0
52.690609 200.0
52.751308 140.0
52.786007 104.0
52.806252 80.0
52.820717 328.0
52.998787 200.0
53.255562 28.0
53.319489 144.0
53.338387 208.0
53.376186 80.0
53.489666 72.0
53.609539 184.0
53.746166 260.0
53.756378 116.0
53.855827 172.0
54.036926 180.0
54.072044 180.0
54.12328 84.0
54.18626 220.0
54.283001 68.0
54.368084 152.0
54.40625 100.0
54.432678 160.0
54.605675 256.0
54.682594 148.0
54.772411 172.0
54.791561 120.0
54.869671 124.0
54.882942 52.0
55.170841 48.0
55.351345 152.0
55.446156 208.0
55.54253 168.0
55.664227 56.0
55.716213 44.0
55.731071 168.0
55.744446 172.0
55.787548 208.0
55.832153 192.0
55.918442 140.0
55.964962 176.0
56.100166 172.0
56.131477 184.0
56.563248 216.0
56.612656 180.0
56.648602 196.0
56.744514 176.0
56.758011 136.0
56.783504 36.0
56.86002 96.0
56.992168 32.0
57.025227 160.0
57.064312 128.0
57.074837 148.0
57.119957 164.0
57.159073 156.0
57.219276 220.0
57.265961 132.0
57.299099 212.0
57.39164 204.0
57.411713 180.0
57.480034 168.0
57.59024 176.0
57.606853 140.0
57.641605 76.0
57.655205 152.0
57.700554 128.0
57.81551 92.0
57.838215 160.0
57.898777 256.0
58.112511 168.0
58.206619 148.0
58.217247 112.0
58.246105 104.0
58.361607 92.0
58.43 128.0
58.46048 204.0
58.559437 200.0
58.612755 188.0
58.740822 72.0
58.817116 176.0
58.835438 188.0
58.913322 128.0
58.948463 96.0
59.065636 200.0
59.131981 188.0
59.211594 180.0
59.243759 128.0
59.290627 184.0
59.374573 244.0
59.409325 208.0
59.424664 172.0
59.475307 148.0
59.558224 208.0
59.598164 72.0
59.631973 176.0
59.714996 216.0
59.766205 168.0
59.816551 148.0
59.828865 204.0
59.85812 72.0
59.966682 172.0
60.214355 148.0
60.27803 184.0
60.319424 168.0
60.390553 140.0
60.409115 144.0
60.446247 136.0
60.522091 88.0
60.621227 180.0
60.652225 224.0
60.683231 148.0
60.704941 184.0
60.715794 108.0
60.74992 156.0
60.870979 96.0
60.926895 168.0
60.939323 204.0
61.054352 204.0
61.144585 56.0
61.236443 204.0
61.326809 144.0
61.384495 136.0
61.471851 192.0
61.496819 208.0
61.604561 100.0
61.629559 192.0
61.712181 172.0
61.748367 120.0
61.767136 104.0
61.787472 200.0
61.922089 192.0
62.039612 112.0
62.069401 160.0
62.122726 152.0
62.14312 240.0
62.254566 200.0
62.2687 120.0
62.331539 120.0
62.348827 148.0
62.378689 64.0
62.392838 208.0
62.405415 228.0
62.443157 204.0
62.466751 148.0
62.482483 132.0
62.501362 176.0
62.605255 124.0
62.669838 68.0
62.73288 144.0
62.751797 224.0
62.846432 136.0
62.874836 44.0
63.043816 112.0
63.219353 116.0
63.377361 112.0
63.442684 212.0
63.474392 160.0
63.488667 136.0
63.803059 112.0
63.814186 104.0
63.898479 172.0
63.917503 184.0
64.105476 224.0
64.12619 128.0
64.164452 116.0
64.205452 180.0
64.261742 80.0
64.375069 148.0
64.51088 164.0
64.568443 152.0
64.59243 220.0
64.621231 152.0
64.773315 152.0
64.959259 148.0
65.025047 52.0
65.041512 216.0
65.121376 132.0
65.151901 164.0
65.29335 156.0
65.323174 200.0
65.385056 132.0
65.422073 84.0
65.531052 192.0
65.600212 200.0
65.615395 160.0
65.684738 172.0
65.767036 228.0
65.789635 36.0
65.869553 188.0
65.909149 136.0
65.943085 56.0
66.078918 168.0
66.150124 236.0
66.216515 196.0
66.312103 196.0
66.323448 48.0
66.376945 140.0
66.440201 108.0
66.471031 180.0
66.485634 188.0
66.540825 192.0
66.651276 136.0
66.748802 156.0
66.916397 140.0
66.960358 104.0
67.051598 144.0
67.105392 328.0
67.193459 168.0
67.364876 124.0
67.425331 88.0
67.489082 152.0
67.546326 204.0
67.582314 148.0
67.679497 264.0
67.765694 120.0
67.782082 184.0
67.886993 92.0
67.914871 140.0
68.157845 164.0
68.243317 132.0
68.269623 124.0
68.286072 188.0
68.605515 168.0
68.699516 308.0
68.933968 108.0
69.011658 108.0
69.109245 140.0
69.201927 188.0
69.236702 184.0
69.283081 92.0
69.306274 80.0
69.457138 56.0
69.483681 184.0
69.578285 148.0
69.596542 80.0
69.717804 92.0
69.751045 116.0
69.770996 124.0
69.81662 164.0
69.880768 192.0
69.968971 212.0
70.097466 140.0
70.133888 176.0
70.248947 216.0
70.288986 160.0
70.342392 116.0
70.367439 124.0
70.540306 192.0
70.609734 156.0
70.703423 140.0
70.756989 152.0
70.825645 168.0
70.867523 188.0
70.989891 160.0
71.026787 48.0
71.070404 192.0
71.09893 176.0
71.242249 364.0
71.400848 192.0
71.475357 240.0
71.517426 168.0
71.662254 184.0
71.697639 128.0
71.785301 132.0
71.876389 84.0
72.106056 160.0
72.217644 188.0
72.315895 180.0
72.383499 56.0
72.417366 152.0
72.554626 140.0
72.685226 224.0
72.748024 168.0
72.792168 148.0
72.81424 100.0
72.880493 112.0
72.917877 192.0
73.057137 200.0
73.126755 172.0
73.16452 128.0
73.176437 108.0
73.188362 100.0
73.387711 164.0
73.406471 164.0
73.433754 144.0
73.478104 168.0
73.537834 152.0
73.652229 152.0
73.693832 204.0
73.727409 192.0
73.819717 288.0
73.844032 128.0
73.944603 124.0
73.989113 160.0
74.194695 84.0
74.352013 196.0
74.374809 156.0
74.455856 176.0
74.496735 168.0
74.598122 224.0
74.653137 36.0
74.668617 88.0
74.706459 176.0
74.775284 164.0
74.837257 68.0
74.907867 200.0
74.929832 160.0
75.097473 28.0
75.10955 100.0
75.207901 180.0
75.242424 148.0
75.316681 220.0
75.349174 64.0
75.406525 148.0
75.427269 204.0
75.454575 216.0
75.510262 144.0
75.572533 240.0
75.589836 188.0
75.693703 192.0
75.723137 192.0
75.801102 120.0
75.814964 164.0
75.94326 160.0
76.130699 152.0
76.189751 176.0
76.414024 208.0
76.469711 188.0
76.497559 136.0
76.576729 208.0
76.597687 88.0
76.617722 128.0
76.636993 192.0
76.696136 152.0
76.708336 84.0
76.736237 148.0
76.765877 136.0
76.88974 172.0
76.901955 92.0
76.994484 296.0
77.155243 48.0
77.19371 140.0
77.244431 192.0
77.273277 224.0
77.33017 80.0
77.347672 148.0
77.375679 152.0
77.44397 48.0
77.456238 112.0
77.480759 156.0
77.533325 196.0
77.578896 64.0
77.606949 116.0
77.680611 52.0
77.72802 168.0
77.943962 148.0
77.979111 176.0
78.140884 184.0
78.222168 108.0
78.242424 144.0
78.397964 284.0
78.456131 196.0
78.644882 128.0
78.664299 156.0
78.685478 176.0
78.710197 212.0
78.911629 176.0
79.005363 248.0
79.067291 60.0
79.092072 152.0
79.154037 176.0
79.34539 164.0
79.364891 216.0
79.382629 240.0
79.462448 184.0
79.478416 76.0
79.542305 160.0
79.723465 184.0
79.792786 128.0
79.823013 184.0
79.908394 48.0
80.027641 48.0
80.193314 52.0
80.236092 148.0
80.253922 132.0
80.334175 200.0
80.373428 56.0
80.403763 64.0
80.418045 144.0
80.462669 108.0
80.700294 60.0
80.911415 200.0
80.932899 152.0
80.949486 136.0
81.004532 164.0
81.370377 144.0
81.418861 176.0
81.452988 144.0
81.515869 128.0
81.729851 120.0
81.773041 140.0
81.818039 156.0
82.012589 188.0
82.106339 160.0
82.165863 112.0
82.180298 140.0
82.256096 132.0
82.396957 220.0
82.415024 192.0
82.474663 108.0
82.490929 40.0
82.528893 84.0
82.698944 188.0
82.758682 116.0
82.923531 116.0
83.064964 76.0
83.110321 172.0
83.173836 144.0
83.195618 56.0
83.342728 176.0
83.369987 128.0
83.399834 76.0
83.517258 148.0
83.571831 96.0
83.733841 176.0
83.793953 148.0
83.846802 148.0
83.877785 188.0
83.92701 160.0
83.97625 116.0
84.029144 140.0
84.063812 192.0
84.169182 200.0
84.310654 168.0
84.356041 200.0
84.379807 156.0
84.40036 184.0
84.438324 192.0
84.496857 52.0
84.555412 156.0
84.635963 180.0
84.722046 156.0
84.795334 180.0
84.916748 216.0
85.142082 180.0
85.392029 192.0
85.408585 152.0
85.438019 112.0
85.456413 164.0
85.522667 176.0
85.550278 188.0
85.574211 164.0
85.611038 152.0
85.758423 116.0
85.791603 156.0
85.815575 120.0
85.846916 84.0
86.136688 104.0
86.29747 164.0
86.355721 208.0
86.512077 196.0
86.526886 168.0
86.645416 152.0
86.780708 188.0
86.836342 168.0
86.903122 164.0
86.930962 200.0
86.945808 192.0
86.987915 116.0
86.990929 168.0
87.103622 160.0
87.125916 180.0
87.171997 284.0
87.224403 36.0
87.378761 160.0
87.468086 220.0
87.48484 172.0
87.514626 164.0
87.836128 144.0
87.891136 176.0
88.173119 168.0
88.219849 152.0
88.318954 188.0
88.337654 152.0
88.354492 140.0
88.757179 52.0
88.783432 108.0
88.86409 60.0
88.967316 196.0
89.030396 356.0
89.09314 152.0
89.309311 200.0
89.356346 156.0
89.420326 192.0
89.546463 184.0
89.642548 168.0
89.668037 160.0
89.742447 196.0
89.77639 92.0
89.946198 140.0
89.976402 132.0
90.008499 172.0
90.029266 164.0
90.070824 84.0
90.140724 100.0
90.184189 152.0
90.555031 116.0
90.661194 116.0
90.689552 120.0
90.746422 152.0
90.801414 72.0
90.862114 164.0
90.884888 132.0
90.989273 136.0
91.031731 188.0
91.055222 4916.0
91.120316 64.0
91.194427 128.0
91.217239 52.0
91.230545 180.0
91.245171 104.0
91.396011 60.0
91.475945 56.0
91.603531 108.0
91.630203 124.0
91.733109 144.0
92.013542 204.0
92.058495 520.0
92.071457 220.0
92.089928 348.0
92.208382 152.0
92.269554 52.0
92.407257 188.0
92.441696 184.0
92.591019 216.0
92.709801 188.0
92.742378 152.0
92.803726 132.0
92.870842 152.0
93.147247 136.0
93.164536 172.0
93.19912 96.0
93.23925 172.0
93.26371 188.0
93.308678 132.0
93.333672 116.0
93.425987 116.0
93.466393 144.0
93.635796 176.0
93.664688 132.0
93.724411 144.0
93.741753 196.0
93.799576 112.0
94.046471 228.0
94.065041 984.0
94.162315 112.0
94.204811 232.0
94.226059 80.0
94.26857 152.0
94.353615 144.0
94.367149 168.0
94.413559 84.0
94.48513 60.0
94.583824 212.0
94.601242 220.0
94.805199 120.0
94.895721 44.0
94.996567 140.0
95.070465 556.0
95.103287 156.0
95.116875 196.0
95.195198 200.0
95.270287 96.0
95.301369 80.0
95.421875 184.0
95.449097 144.0
95.4841 152.0
95.526894 244.0
95.544395 124.0
95.600822 144.0
95.651428 152.0
95.797478 168.0
95.828651 152.0
96.080635 1124.0
96.134781 176.0
96.185532 164.0
96.398415 132.0
96.552849 228.0
96.795372 168.0
96.873856 144.0
96.928711 148.0
97.0522 212.0
97.065926 148.0
97.142418 164.0
97.193428 256.0
97.250336 40.0
97.330826 144.0
97.395638 152.0
97.47422 124.0
97.623619 148.0
97.690491 180.0
97.840057 224.0
97.86171 120.0
97.983826 208.0
98.062645 124.0
98.095985 188.0
98.192772 264.0
98.315086 144.0
98.334824 124.0
98.34864 132.0
98.382195 204.0
98.413788 124.0
98.480927 168.0
98.516487 124.0
98.672607 48.0
98.739838 144.0
98.793243 132.0
98.88031 272.0
98.961472 244.0
99.19326 228.0
99.286446 80.0
99.336037 152.0
99.355354 256.0
99.371742 232.0
99.419365 232.0
99.474937 176.0
99.629837 180.0
99.76696 212.0
99.864395 48.0
99.88031 120.0
99.995712 132.0
100.019592 128.0
100.141052 132.0
100.262589 160.0
100.338333 224.0
100.369217 196.0
100.427673 164.0
100.435501 132.0
100.729469 164.0
100.795403 56.0
100.917328 164.0
101.023323 208.0
101.065338 256.0
101.081169 176.0
101.283554 148.0
101.512032 144.0
101.552139 40.0
101.588242 212.0
101.782242 260.0
101.863258 172.0
101.879333 84.0
102.04567 212.0
102.098419 200.0
102.112503 52.0
102.265411 136.0
102.378151 132.0
102.524208 136.0
102.557465 148.0
102.749031 184.0
102.763161 100.0
102.795441 188.0
102.823181 140.0
103.029655 152.0
103.055527 2112.0
103.122238 88.0
103.167076 60.0
103.189316 132.0
103.235825 180.0
103.249977 68.0
103.389572 168.0
103.423981 140.0
103.543434 192.0
103.56369 160.0
103.59407 148.0
103.63662 164.0
103.754166 148.0
103.770386 84.0
103.784584 128.0
103.880249 140.0
104.061615 184.0
104.088951 172.0
104.296173 200.0
104.444603 64.0
104.565865 308.0
104.593147 304.0
104.636909 176.0
104.709198 116.0
104.855888 164.0
104.881668 148.0
104.931313 148.0
105.069252 1956.0
105.104683 196.0
105.176109 48.0
105.433456 148.0
105.486595 80.0
105.564285 48.0
105.592918 172.0
105.73613 140.0
105.760696 128.0
105.783211 168.0
105.914261 284.0
106.074791 164.0
106.117142 88.0
106.213524 152.0
106.539642 148.0
106.560463 208.0
106.630333 168.0
106.722839 172.0
106.766022 116.0
106.84127 212.0
106.88945 144.0
106.907967 164.0
106.922371 96.0
106.982063 144.0
107.072662 124.0
107.27047 148.0
107.305511 204.0
107.52623 140.0
107.579895 64.0
107.829613 152.0
107.949738 156.0
107.972488 152.0
108.078972 364.0
108.162834 168.0
108.208382 248.0
108.235298 92.0
108.316071 176.0
108.386505 240.0
108.417587 44.0
108.461113 120.0
108.475624 188.0
108.500504 136.0
108.546112 160.0
108.745277 128.0
108.799248 124.0
108.828087 244.0
108.888535 96.0
108.912384 132.0
109.089485 464.0
109.13166 208.0
109.179489 52.0
109.287659 200.0
109.408371 184.0
109.439598 84.0
109.50872 84.0
109.608315 40.0
109.720871 40.0
109.775749 100.0
109.793846 208.0
110.035896 124.0
110.096519 448.0
110.123604 240.0
110.142403 140.0
110.228676 220.0
110.326294 52.0
110.451767 32.0
110.824409 160.0
110.96064 44.0
111.098145 136.0
111.170395 88.0
111.212372 160.0
111.239655 84.0
111.277443 164.0
111.325737 96.0
111.346741 160.0
111.479202 148.0
111.670403 180.0
111.695648 152.0
111.748238 172.0
111.908195 240.0
111.992432 176.0
112.049309 140.0
112.110413 172.0
112.24955 160.0
112.420418 152.0
112.477402 148.0
112.597748 136.0
112.690697 212.0
112.870354 96.0
112.999382 140.0
113.037468 140.0
113.130592 224.0
113.280945 176.0
113.372055 172.0
113.39325 76.0
113.437759 124.0
113.482277 164.0
113.508293 148.0
113.516418 40.0
113.524132 152.0
113.738976 224.0
113.762321 212.0
113.82814 108.0
113.859993 124.0
114.042709 96.0
114.166023 108.0
114.288811 188.0
114.319191 180.0
114.42775 172.0
114.559784 188.0
114.677597 180.0
114.768646 200.0
114.794235 148.0
114.815559 148.0
114.843285 40.0
114.87397 156.0
114.923218 128.0
114.994774 184.0
115.054741 9228.0
115.09938 144.0
115.206169 32.0
115.221123 52.0
115.283653 136.0
115.334381 64.0
115.369827 172.0
115.447693 148.0
115.496887 164.0
115.51828 112.0
115.582458 152.0
115.617081 204.0
115.640793 232.0
115.70018 156.0
115.722443 80.0
115.738716 60.0
115.755852 156.0
115.77298 108.0
115.905792 52.0
115.931511 304.0
116.059074 1080.0
116.21241 72.0
116.275803 288.0
116.317566 148.0
116.575294 44.0
116.694748 152.0
116.708389 96.0
116.822556 176.0
116.859131 148.0
116.968887 208.0
116.99337 160.0
117.022705 200.0
117.06987 3844.0
117.094727 72.0
117.116798 104.0
117.21225 120.0
117.259659 52.0
117.354507 80.0
117.376076 176.0
117.447243 144.0
117.501938 152.0
117.585327 120.0
117.602592 132.0
117.762367 100.0
117.935066 172.0
117.981934 56.0
118.070335 924.0
118.106033 72.0
118.129829 56.0
118.160118 188.0
118.178314 188.0
118.227196 76.0
118.498367 188.0
118.886002 168.0
118.903358 228.0
119.024925 80.0
119.069923 196.0
119.113976 128.0
119.208481 136.0
119.263901 112.0
119.285637 44.0
119.316071 188.0
119.368256 112.0
119.385651 180.0
119.581451 124.0
119.742569 160.0
119.79702 212.0
119.901611 280.0
119.945198 180.0
119.99752 68.0
120.030228 208.0
120.08242 184.0
120.178551 140.0
120.244019 220.0
120.274574 156.0
120.608772 136.0
120.699364 200.0
120.727509 220.0
121.000343 192.0
121.037567 188.0
121.120789 84.0
121.285126 300.0
121.384514 192.0
121.423256 172.0
121.489059 92.0
121.559273 156.0
121.596581 152.0
121.638283 128.0
121.66243 152.0
121.868874 140.0
122.086494 148.0
122.187675 204.0
122.260292 168.0
122.394569 92.0
122.412186 68.0
122.443016 152.0
122.53994 196.0
122.606049 128.0
122.650124 184.0
122.722878 132.0
122.790474 188.0
122.808662 120.0
122.875061 80.0
122.90374 208.0
122.925987 200.0
123.003052 152.0
123.290024 112.0
123.416183 56.0
123.451561 112.0
123.544456 88.0
123.586494 212.0
123.650673 184.0
123.704483 204.0
123.798996 140.0
123.85215 160.0
123.916397 220.0
124.020546 64.0
124.056015 92.0
124.100357 200.0
124.169098 204.0
124.213463 188.0
124.306641 176.0
124.359901 88.0
124.408737 124.0
124.506439 120.0
124.535309 112.0
124.717506 132.0
125.035561 164.0
125.173576 160.0
125.349556 228.0
125.543495 188.0
125.608177 152.0
125.66172 156.0
125.704117 176.0
126.04866 176.0
126.105431 80.0
126.262604 140.0
126.343132 180.0
126.721489 172.0
126.806259 92.0
126.969093 184.0
127.055107 888.0
127.295708 176.0
127.315918 168.0
127.85997 212.0
127.895981 132.0
128.01445 168.0
128.062363 7428.0
128.209045 72.0
128.231583 200.0
128.278915 36.0
128.328522 76.0
128.357834 212.0
128.389404 336.0
128.409698 36.0
128.456436 160.0
128.563889 128.0
128.591034 140.0
128.624054 140.0
128.716614 172.0
128.744186 168.0
128.870209 128.0
128.947357 84.0
128.992035 224.0
129.021255 192.0
129.029099 160.0
129.070282 14500.0
129.112076 60.0
129.143738 132.0
129.160614 52.0
129.191238 52.0
129.220657 68.0
129.238754 136.0
129.256851 188.0
129.28627 72.0
129.355652 128.0
129.374542 88.0
129.397186 56.0
129.440933 68.0
129.465118 208.0
129.610092 76.0
129.657684 180.0
129.67868 120.0
129.746078 100.0
129.80957 136.0
129.848129 124.0
129.934326 136.0
130.073944 1752.0
130.10907 48.0
130.159027 132.0
130.195358 152.0
130.229416 52.0
130.345291 152.0
130.403412 152.0
130.422562 168.0
130.452103 112.0
130.58551 220.0
130.634033 84.0
130.713654 176.0
130.73642 220.0
130.79332 128.0
130.859329 60.0
130.877548 172.0
130.914688 156.0
130.936691 128.0
130.989136 148.0
131.016479 52.0
131.043365 100.0
131.084625 1340.0
131.166931 172.0
131.213318 140.0
131.25351 104.0
131.454254 200.0
131.828751 124.0
131.852951 184.0
131.859741 108.0
131.865799 136.0
131.959045 140.0
132.048233 188.0
132.09169 324.0
132.162613 64.0
132.222107 28.0
132.384644 108.0
132.435028 176.0
132.609161 188.0
132.783417 308.0
132.820114 240.0
133.08078 116.0
133.141434 236.0
133.175888 196.0
133.350494 48.0
133.456253 172.0
133.534439 116.0
133.552841 188.0
133.594238 80.0
133.860123 140.0
133.916504 64.0
133.964874 160.0
134.033981 236.0
134.061646 164.0
134.097 568.0
134.149231 156.0
134.243484 172.0
134.324478 180.0
134.363693 120.0
134.382156 120.0
134.430603 60.0
134.476761 176.0
134.650406 228.0
134.789093 196.0
134.917969 244.0
135.012772 152.0
135.096039 44.0
135.197845 192.0
135.300613 228.0
135.355255 60.0
135.373779 180.0
135.440948 144.0
135.537491 184.0
135.758469 148.0
135.830368 184.0
135.985825 80.0
136.041138 48.0
136.197113 244.0
136.445633 212.0
136.54808 136.0
136.580643 116.0
136.734192 212.0
136.871552 112.0
136.939087 192.0
137.008957 176.0
137.060226 188.0
137.11615 124.0
137.160431 140.0
137.179077 76.0
137.249023 140.0
137.325974 144.0
137.416962 212.0
137.507965 32.0
137.552383 132.0
137.627014 120.0
137.708755 188.0
137.734451 236.0
137.816208 168.0
137.986832 44.0
138.136505 184.0
138.244125 196.0
138.405655 160.0
138.515717 140.0
138.594208 84.0
138.743027 120.0
138.822708 204.0
138.942368 144.0
138.961136 208.0
138.986084 196.0
139.050308 160.0
139.130127 132.0
139.212296 168.0
139.28511 200.0
139.306244 120.0
139.421387 64.0
139.621429 176.0
139.734116 116.0
139.790588 188.0
139.985977 184.0
140.074432 172.0
140.105576 164.0
140.254562 120.0
140.483292 152.0
140.660278 220.0
140.690964 196.0
140.824432 44.0
140.914261 124.0
140.969666 160.0
141.033478 136.0
141.068802 3148.0
141.19899 168.0
141.239197 204.0
141.281769 204.0
141.371689 104.0
141.39061 152.0
141.513702 164.0
141.584747 116.0
141.760284 160.0
141.854858 104.0
141.914124 32.0
141.958664 112.0
142.002258 168.0
142.04158 172.0
142.078583 1888.0
142.182175 140.0
142.201157 88.0
142.255753 176.0
142.319855 136.0
142.350723 164.0
142.40535 168.0
142.593048 84.0
142.778488 140.0
142.876007 96.0
143.031158 160.0
143.083145 1572.0
143.118195 148.0
143.127243 336.0
143.144958 68.0
143.18306 32.0
143.203308 120.0
143.297409 32.0
143.371277 144.0
143.509537 104.0
143.52861 188.0
143.634079 160.0
143.762375 152.0
143.807724 72.0
143.833984 168.0
143.879333 184.0
144.081894 480.0
144.158493 156.0
144.280685 136.0
144.397858 204.0
144.416992 68.0
144.550964 60.0
144.59404 92.0
144.720459 232.0
144.775986 176.0
144.893661 156.0
145.008377 140.0
145.034744 224.0
145.06842 164.0
145.079498 292.0
145.104263 148.0
145.151352 144.0
145.315323 136.0
145.351318 164.0
145.39711 184.0
145.629791 132.0
145.894119 100.0
146.066498 176.0
146.094604 340.0
146.209213 140.0
146.560791 80.0
146.606583 112.0
146.635757 76.0
146.72879 188.0
146.987595 184.0
147.025299 128.0
147.100937 336.0
147.21933 184.0
147.274872 48.0
147.383591 120.0
147.43721 212.0
147.557617 148.0
147.584213 116.0
147.61322 172.0
147.690613 60.0
147.76561 172.0
147.813995 144.0
147.876923 100.0
147.961639 140.0
148.10936 216.0
148.268127 196.0
148.443817 216.0
148.603897 104.0
148.62088 184.0
148.764084 144.0
148.842346 184.0
148.949524 164.0
149.021515 204.0
149.206223 112.0
149.391052 112.0
149.417801 92.0
149.485046 152.0
149.624969 168.0
149.748871 188.0
149.792709 112.0
149.843872 64.0
149.921844 156.0
149.95108 132.0
150.202225 192.0
150.229065 216.0
150.248581 160.0
150.336411 188.0
150.453568 176.0
150.589767 176.0
150.661163 184.0
150.802887 200.0
150.852051 176.0
150.893326 160.0
151.055923 156.0
151.147705 116.0
151.221115 88.0
151.238251 128.0
151.279861 124.0
151.328827 84.0
151.458282 172.0
151.806641 172.0
151.914566 60.0
151.995529 176.0
152.060852 1844.0
152.205215 168.0
152.251251 184.0
152.296295 136.0
152.317139 100.0
152.358902 84.0
152.417862 172.0
152.540237 152.0
152.544189 120.0
152.554031 200.0
152.685822 240.0
152.737473 160.0
152.83342 100.0
152.956467 124.0
153.009369 116.0
153.025406 212.0
153.069229 4408.0
153.115021 136.0
153.138367 32.0
153.227356 104.0
153.350571 204.0
153.473831 100.0
153.515747 108.0
153.558929 172.0
153.656342 128.0
153.843903 140.0
154.076584 2332.0
154.182297 136.0
154.397369 56.0
154.488892 144.0
154.511154 112.0
154.575485 76.0
154.723999 228.0
154.798279 160.0
154.877533 68.0
154.899826 168.0
155.033615 176.0
155.061432 1236.0
155.085205 6656.0
155.197006 148.0
155.240128 196.0
155.274094 184.0
155.370834 196.0
155.475052 60.0
155.551987 180.0
155.586746 112.0
155.616531 80.0
155.658752 276.0
155.753128 96.0
155.79039 112.0
155.924561 44.0
156.03891 168.0
156.089783 1420.0
156.115982 120.0
156.18811 44.0
156.297577 140.0
156.414551 84.0
156.444412 132.0
156.581375 96.0
156.870407 80.0
156.94519 192.0
157.012527 212.0
157.059906 168.0
157.093948 480.0
157.20961 36.0
157.229828 192.0
157.30629 136.0
157.33699 112.0
157.414307 56.0
157.486725 180.0
157.554184 72.0
157.731598 212.0
157.806595 112.0
157.824097 36.0
157.844101 228.0
157.911636 160.0
157.96666 148.0
158.004181 156.0
158.041718 140.0
158.096054 3360.0
158.206894 72.0
158.232407 168.0
158.27449 120.0
158.332092 56.0
158.439804 104.0
158.545044 164.0
158.590149 92.0
158.612701 76.0
158.848419 128.0
158.941254 32.0
158.9814 168.0
159.101593 876.0
159.237473 232.0
159.257568 172.0
159.320358 128.0
159.626999 384.0
159.979248 188.0
160.079956 188.0
160.104843 332.0
160.127808 196.0
160.226044 188.0
160.347092 100.0
160.478073 200.0
160.538589 184.0
160.859024 124.0
160.909515 120.0
160.957489 160.0
161.053452 196.0
161.10144 132.0
161.232834 208.0
161.424973 72.0
161.493256 148.0
161.569138 128.0
161.60704 220.0
161.652634 180.0
161.834885 136.0
161.888062 132.0
161.905792 208.0
161.943771 136.0
162.095779 40.0
162.263062 156.0
162.416443 208.0
162.478638 192.0
162.562378 108.0
162.63089 136.0
162.82431 176.0
162.856873 172.0
162.930542 152.0
163.179596 148.0
163.34491 192.0
163.370346 104.0
163.40596 32.0
163.497849 180.0
163.517929 148.0
163.60701 48.0
163.874435 180.0
163.892273 116.0
163.999298 116.0
164.046341 188.0
164.175217 144.0
164.289993 60.0
164.384399 156.0
164.506912 184.0
164.545197 192.0
164.603928 152.0
164.642242 160.0
164.982071 152.0
165.069366 3336.0
165.109909 108.0
165.138046 204.0
165.172226 144.0
165.279343 188.0
165.46048 60.0
165.84729 156.0
165.883163 196.0
165.908798 164.0
166.008804 280.0
166.078079 1868.0
166.211456 128.0
166.237106 52.0
166.463013 84.0
166.663361 108.0
166.731461 128.0
166.794434 176.0
166.843155 280.0
167.015564 140.0
167.086304 5008.0
167.190521 160.0
167.217056 204.0
167.270645 156.0
167.303772 208.0
167.37175 160.0
167.390106 100.0
167.432526 48.0
167.561478 188.0
167.589661 144.0
167.666962 76.0
167.883514 60.0
167.940247 60.0
168.020218 68.0
168.053406 144.0
168.087753 556.0
168.133759 172.0
168.252487 184.0
168.360931 152.0
168.402267 284.0
168.534012 160.0
168.668396 88.0
168.815765 100.0
168.916641 136.0
168.991653 64.0
169.085876 352.0
169.139175 92.0
169.175247 128.0
169.245316 156.0
169.28157 92.0
169.307465 96.0
169.459076 128.0
169.509521 104.0
169.622726 200.0
169.665039 120.0
169.939957 172.0
169.97728 124.0
170.096893 1796.0
170.230667 176.0
170.258484 192.0
170.264664 136.0
170.274414 204.0
170.745224 112.0
170.763428 180.0
170.823257 148.0
170.891891 156.0
171.030624 168.0
171.100403 300.0
171.130356 128.0
171.2267 144.0
171.298111 192.0
171.53154 88.0
171.575867 192.0
171.604538 144.0
171.636642 204.0
171.67865 200.0
171.727112 160.0
171.759796 120.0
171.951477 168.0
172.111679 2016.0
172.193359 124.0
172.277878 192.0
172.348419 184.0
172.369324 76.0
172.424026 124.0
172.481705 128.0
172.62027 68.0
172.670746 172.0
172.923737 100.0
173.002258 180.0
173.080811 172.0
173.114288 376.0
173.169846 224.0
173.227478 236.0
173.317383 188.0
173.347992 192.0
173.405655 248.0
173.505249 68.0
173.662598 216.0
173.893478 124.0
174.071991 52.0
174.126251 168.0
174.282135 236.0
174.360977 88.0
174.418793 164.0
174.445084 128.0
174.587067 192.0
174.610733 56.0
174.655441 172.0
174.847519 136.0
174.958069 52.0
175.060745 156.0
175.097626 156.0
175.121323 96.0
175.237228 156.0
175.326828 36.0
175.561447 180.0
175.624756 92.0
175.756653 60.0
175.827911 108.0
175.909729 100.0
175.957245 100.0
176.053772 180.0
176.108536 164.0
176.136826 204.0
176.165878 220.0
176.472443 184.0
176.620544 188.0
176.662872 108.0
176.776642 76.0
176.797806 204.0
176.821625 104.0
176.906326 132.0
176.991043 160.0
177.069183 460.0
177.192337 216.0
177.279785 84.0
177.30629 168.0
177.348694 120.0
177.420258 120.0
177.589966 172.0
177.696075 144.0
177.732285 192.0
177.796921 124.0
177.911057 224.0
178.077042 4080.0
178.123489 172.0
178.144745 104.0
178.168655 168.0
178.281647 160.0
178.567383 148.0
178.655151 216.0
178.703049 196.0
178.729645 128.0
178.799698 136.0
178.911591 188.0
178.955887 36.0
179.029694 168.0
179.083801 2756.0
179.277115 76.0
179.310181 60.0
179.342163 172.0
179.520798 180.0
179.643478 192.0
179.742203 68.0
180.093384 2228.0
180.383179 112.0
180.417923 288.0
180.570343 132.0
181.019943 180.0
181.096695 644.0
181.22084 136.0
181.295868 100.0
181.346786 152.0
181.464737 120.0
181.633682 136.0
181.684647 176.0
181.701752 140.0
181.773193 168.0
181.915436 160.0
181.955719 96.0
182.017471 104.0
182.079239 152.0
182.099899 328.0
182.162491 56.0
182.377457 148.0
182.4366 196.0
182.466171 52.0
182.571045 92.0
182.667862 200.0
182.692078 180.0
182.823914 160.0
182.93158 132.0
182.977341 140.0
183.103897 316.0
183.138916 176.0
183.208954 136.0
183.337311 156.0
183.357147 156.0
183.411057 148.0
183.454193 128.0
183.656433 152.0
183.688797 196.0
183.970093 184.0
184.012634 176.0
184.112289 1476.0
184.190872 44.0
184.28125 44.0
184.334061 48.0
184.409729 200.0
184.661179 132.0
184.688232 124.0
184.980469 40.0
185.073395 232.0
185.116409 584.0
185.2621 184.0
185.373184 124.0
185.417892 264.0
185.465332 92.0
185.524963 36.0
185.606308 168.0
185.68602 152.0
185.777176 108.0
185.812439 180.0
185.834137 40.0
185.937256 136.0
186.125458 1336.0
186.176163 68.0
186.21962 40.0
186.301102 160.0
186.412506 108.0
186.45871 124.0
186.485886 84.0
186.980881 92.0
187.046204 248.0
187.13446 280.0
187.274918 44.0
187.33757 204.0
187.367538 184.0
187.760056 72.0
187.852798 44.0
187.896439 176.0
188.062897 108.0
188.183014 168.0
188.221237 48.0
188.412521 120.0
188.570923 140.0
189.070312 648.0
189.131622 152.0
189.276718 176.0
189.35614 164.0
189.794601 124.0
189.822586 136.0
190.077728 2492.0
190.13089 108.0
190.181412 136.0
190.313187 132.0
190.420288 108.0
190.464233 160.0
190.847763 236.0
190.90947 148.0
190.936966 168.0
190.980972 276.0
191.037872 284.0
191.085464 10604.0
191.165314 40.0
191.207733 176.0
191.236862 136.0
191.291916 140.0
191.33046 76.0
191.352478 40.0
191.388275 68.0
191.545944 156.0
191.630661 112.0
191.762924 64.0
191.829086 72.0
191.906265 152.0
191.925568 88.0
191.997269 132.0
192.041397 236.0
192.092117 4804.0
192.126907 36.0
192.204163 52.0
192.331116 216.0
192.416687 112.0
192.452576 180.0
192.640381 172.0
192.739838 176.0
192.781296 192.0
192.800949 140.0
192.952667 40.0
193.099854 2528.0
193.251373 196.0
193.270737 72.0
193.316635 136.0
193.505997 96.0
193.622299 104.0
193.661072 240.0
193.741409 100.0
193.803955 104.0
194.003387 216.0
194.054581 72.0
194.1026 844.0
194.16272 156.0
194.198776 104.0
194.254257 232.0
194.281998 164.0
194.318069 120.0
194.337479 44.0
194.473953 224.0
194.559509 104.0
194.590057 180.0
194.634476 52.0
194.967819 64.0
195.101242 184.0
195.229141 200.0
195.351532 184.0
195.512909 36.0
195.56749 88.0
195.610321 120.0
195.663223 200.0
195.718903 176.0
195.780167 192.0
195.816376 120.0
195.90271 116.0
196.100555 244.0
196.237152 144.0
196.454681 144.0
196.650009 148.0
196.672333 148.0
196.714203 160.0
196.758865 128.0
196.786789 96.0
197.119186 108.0
197.30925 128.0
197.353973 152.0
197.407104 188.0
197.737228 60.0
197.801605 132.0
197.837997 100.0
197.877182 48.0
197.905182 132.0
198.123001 124.0
198.535675 84.0
198.953751 164.0
198.979019 184.0
199.254242 192.0
199.563416 192.0
199.656204 132.0
199.718079 108.0
199.99382 180.0
200.103607 240.0
200.135895 196.0
200.252853 124.0
200.450058 36.0
200.553284 128.0
200.613525 284.0
200.720673 200.0
200.898361 164.0
200.929382 180.0
200.973297 140.0
200.994278 128.0
201.062012 196.0
201.157974 136.0
201.228546 180.0
201.304794 144.0
201.36409 220.0
201.49968 152.0
201.550537 188.0
201.612717 40.0
201.683365 188.0
201.776657 124.0
201.895416 272.0
202.02269 80.0
202.079666 1776.0
202.114456 188.0
202.172653 60.0
202.243408 104.0
202.305679 92.0
202.350983 112.0
202.48407 104.0
202.537888 284.0
202.671036 232.0
202.690872 148.0
202.719208 44.0
202.758881 168.0
202.994186 48.0
203.016861 156.0
203.085587 9216.0
203.141663 124.0
203.164352 140.0
203.19313 28.0
203.272171 48.0
203.663956 88.0
203.771912 172.0
203.803162 84.0
203.931046 208.0
204.008835 96.0
204.093552 6752.0
204.162338 172.0
204.37468 64.0
204.405975 56.0
204.457199 184.0
204.503693 236.0
204.641846 92.0
204.823685 184.0
204.850128 48.0
204.875763 80.0
205.100082 10796.0
205.155045 48.0
205.282211 60.0
205.547897 140.0
205.592972 176.0
205.69133 76.0
205.734146 64.0
205.754135 88.0
205.779831 180.0
205.814102 144.0
205.939743 60.0
206.002594 212.0
206.048294 144.0
206.108032 2696.0
206.142593 132.0
206.305511 40.0
206.379837 100.0
206.451324 200.0
206.511383 180.0
206.637253 104.0
206.708786 128.0
206.7603 92.0
206.909149 64.0
207.108612 260.0
207.568146 52.0
207.915253 136.0
208.113937 308.0
208.233932 84.0
208.469513 44.0
208.56723 68.0
208.593094 64.0
208.713837 152.0
208.880646 52.0
209.030258 172.0
209.099319 40.0
209.125229 128.0
209.162643 80.0
209.335388 52.0
209.43042 184.0
210.021301 88.0
210.128036 136.0
210.165558 68.0
210.37912 212.0
210.506165 212.0
210.610138 208.0
210.682343 116.0
210.708344 108.0
210.769028 116.0
210.919312 116.0
211.037842 144.0
211.327072 84.0
211.509384 160.0
211.587555 76.0
211.746811 240.0
212.068405 132.0
212.135086 144.0
212.401855 92.0
212.459457 224.0
212.779114 36.0
212.831375 172.0
213.165421 188.0
213.275864 172.0
213.441574 160.0
213.642258 60.0
213.714981 136.0
213.767365 180.0
213.802292 180.0
213.895416 164.0
214.000229 156.0
214.170334 136.0
214.390549 128.0
214.463409 148.0
214.547958 120.0
214.652908 156.0
214.696655 208.0
214.813324 76.0
215.087494 540.0
215.148926 84.0
215.24527 200.0
215.297836 180.0
215.63089 120.0
215.923248 188.0
216.031479 260.0
216.09343 984.0
216.227524 40.0
216.338745 228.0
216.630356 200.0
216.927567 312.0
217.100891 2688.0
217.253067 64.0
217.311752 68.0
217.33815 168.0
217.388046 128.0
217.483612 52.0
217.605255 84.0
217.784851 176.0
217.91951 112.0
218.025299 92.0
218.106552 3044.0
218.145813 188.0
218.219299 36.0
218.292816 200.0
218.3134 88.0
218.492828 96.0
218.695862 56.0
218.742966 172.0
218.949066 272.0
219.115631 2692.0
219.243668 76.0
219.547318 92.0
219.573868 120.0
219.659393 52.0
219.857086 168.0
219.912033 252.0
219.951523 192.0
219.981049 56.0
220.117416 972.0
220.226135 160.0
220.444748 84.0
220.465439 256.0
220.536362 48.0
220.586624 92.0
220.619141 72.0
220.639832 196.0
220.684174 60.0
220.725571 152.0
220.768906 152.0
220.914856 116.0
220.954575 188.0
221.030243 204.0
221.122528 172.0
221.327896 244.0
221.498016 120.0
221.60466 128.0
221.640228 108.0
222.1315 276.0
222.18576 172.0
222.224335 104.0
222.683441 164.0
222.708221 116.0
222.895386 140.0
222.925095 164.0
222.96373 224.0
223.03804 152.0
223.109375 64.0
223.139099 140.0
223.287781 128.0
223.531723 140.0
223.597198 220.0
223.635895 128.0
223.903839 168.0
224.028946 164.0
224.058731 144.0
224.174942 128.0
224.207718 132.0
224.598297 164.0
224.692154 216.0
224.83699 188.0
224.947418 184.0
224.995178 192.0
225.114624 148.0
225.36792 180.0
225.523911 44.0
225.772064 152.0
225.97847 136.0
226.343628 120.0
226.812088 120.0
227.539963 196.0
228.089706 96.0
228.167862 100.0
228.209961 168.0
228.312195 164.0
228.423477 196.0
228.622147 140.0
229.101654 360.0
229.142975 128.0
229.387085 124.0
229.429291 96.0
229.809296 156.0
230.2621 240.0
230.627686 128.0
230.673019 152.0
230.93306 132.0
231.115662 436.0
231.396057 80.0
231.471756 160.0
231.698914 172.0
231.753448 144.0
231.804962 96.0
232.114929 568.0
232.151825 188.0
232.466034 144.0
232.505478 72.0
232.68457 208.0
232.860687 168.0
233.121674 580.0
233.611481 208.0
233.760559 244.0
233.827515 168.0
234.128387 2368.0
234.202011 32.0
234.229431 148.0
234.520416 124.0
234.601196 36.0
234.793289 128.0
234.906143 124.0
235.13176 748.0
235.612564 168.0
235.666321 80.0
235.785507 64.0
235.858856 40.0
236.069809 132.0
236.135056 336.0
236.602203 200.0
236.73999 68.0
237.076965 160.0
237.165771 152.0
237.540894 152.0
237.576752 144.0
238.09549 96.0
238.328949 192.0
238.37999 132.0
238.442657 68.0
238.648605 108.0
238.703964 188.0
238.83313 116.0
238.857727 216.0
239.374786 132.0
239.485657 156.0
239.639679 120.0
239.75061 80.0
239.803009 164.0
239.935562 124.0
240.061981 156.0
240.28714 56.0
240.324173 72.0
240.484634 160.0
240.543289 224.0
240.633331 144.0
240.761444 116.0
240.916931 140.0
241.207413 172.0
241.337265 136.0
241.473328 152.0
241.550659 132.0
241.748657 116.0
241.940567 132.0
242.039642 76.0
242.090683 116.0
242.203781 132.0
242.383469 164.0
242.557022 132.0
242.690338 220.0
242.746155 104.0
242.873306 192.0
242.901215 184.0
243.062546 148.0
243.174271 128.0
243.413315 204.0
243.484741 68.0
243.565491 148.0
243.599655 96.0
243.98201 120.0
244.134262 164.0
244.700577 164.0
244.840698 44.0
244.918564 124.0
245.058746 144.0
245.167801 220.0
245.339233 72.0
245.701004 148.0
246.091125 200.0
246.127502 268.0
246.169189 108.0
246.340973 144.0
246.542587 148.0
246.644073 172.0
247.097519 124.0
247.136475 124.0
247.172607 80.0
247.244583 80.0
247.479355 44.0
247.582458 208.0
247.758102 140.0
247.858368 120.0
248.002518 144.0
248.143158 1692.0
248.322327 48.0
248.523102 192.0
248.745926 132.0
248.968842 176.0
249.019089 120.0
249.053635 108.0
249.078766 204.0
249.150192 2228.0
249.625626 148.0
249.672806 108.0
249.732559 100.0
249.776596 200.0
249.874115 200.0
249.960434 240.0
250.155869 1040.0
251.161148 164.0
251.285583 180.0
251.437042 56.0
251.462296 76.0
251.752747 156.0
251.885391 140.0
251.970688 148.0
252.005447 168.0
252.068634 180.0
252.289886 180.0
252.378403 172.0
252.827591 60.0
252.928879 176.0
253.017517 180.0
253.438751 128.0
253.695465 156.0
254.044296 128.0
254.190247 40.0
254.421951 104.0
254.920609 104.0
254.955566 220.0
255.238495 96.0
255.308441 184.0
255.384781 132.0
255.432495 60.0
255.47702 216.0
255.769775 112.0
256.059509 164.0
256.135956 84.0
256.183746 96.0
256.467346 172.0
256.502411 192.0
256.792572 96.0
256.897827 160.0
257.289856 204.0
257.445984 184.0
257.488342 224.0
257.564972 136.0
257.747101 136.0
257.964417 176.0
258.092285 108.0
258.181824 52.0
258.26178 148.0
258.770599 92.0
258.86026 180.0
259.183777 160.0
259.206207 160.0
259.295959 160.0
259.321594 140.0
259.97583 136.0
260.14563 164.0
260.35788 140.0
260.621277 88.0
260.672821 180.0
260.926605 188.0
260.994141 164.0
261.145874 172.0
261.209595 160.0
261.264282 152.0
261.663361 120.0
261.708435 108.0
261.740631 140.0
261.820251 160.0
261.959656 52.0
261.998291 108.0
262.049835 84.0
262.078857 172.0
262.159119 9056.0
262.219757 176.0
262.335114 56.0
262.650269 236.0
262.888214 76.0
262.962433 48.0
263.026978 120.0
263.081879 140.0
263.162109 1704.0
263.375732 144.0
263.678192 52.0
264.009186 80.0
264.093292 172.0
264.170288 392.0
264.420044 92.0
264.449188 60.0
264.497742 80.0
264.54306 60.0
264.675812 48.0
264.768158 116.0
264.824768 116.0
264.847443 208.0
265.015076 296.0
265.229797 40.0
265.333527 156.0
265.388641 44.0
265.531311 64.0
265.687012 64.0
265.849243 152.0
265.920654 132.0
266.112183 76.0
266.459686 124.0
266.547424 152.0
266.787933 120.0
267.132629 172.0
267.396667 168.0
267.663147 148.0
267.822723 52.0
268.037964 172.0
268.109436 112.0
268.314789 160.0
268.363678 104.0
268.614807 184.0
268.714355 176.0
268.78772 176.0
268.852997 140.0
269.682678 200.0
269.796936 180.0
269.891754 116.0
270.169769 160.0
270.321259 92.0
270.415192 264.0
270.51474 200.0
270.673798 164.0
270.798248 152.0
270.876862 96.0
270.953735 176.0
271.034119 208.0
271.1521 80.0
271.542236 184.0
271.627502 152.0
271.837494 148.0
272.011444 152.0
272.260986 172.0
272.389069 164.0
272.435059 172.0
272.527039 92.0
272.658478 96.0
272.697937 156.0
272.878723 128.0
272.957642 92.0
272.987244 180.0
273.227356 340.0
273.296448 96.0
273.32605 196.0
273.42807 104.0
273.510345 176.0
273.66507 144.0
273.836304 108.0
273.862671 152.0
273.97467 172.0
274.014191 164.0
274.089966 160.0
274.317383 108.0
274.574585 124.0
274.828583 188.0
274.970459 204.0
275.079407 136.0
275.32373 160.0
275.521912 156.0
275.611115 128.0
275.766449 164.0
275.991241 88.0
276.100372 176.0
276.159882 196.0
276.196289 200.0
276.318665 120.0
276.358368 100.0
276.391479 196.0
276.437805 140.0
276.503967 64.0
276.527161 180.0
276.556946 72.0
276.607513 184.0
276.734955 240.0
276.808533 132.0
276.849457 136.0
276.875397 196.0
276.957581 140.0
276.993439 92.0
277.029327 252.0
277.066895 84.0
277.09671 100.0
277.153046 204.0
277.179535 56.0
277.211914 140.0
277.280579 392.0
277.352722 140.0
277.388336 112.0
277.420776 204.0
277.457947 200.0
277.491119 100.0
277.517548 164.0
277.554108 116.0
277.587952 116.0
277.6138 168.0
277.673737 164.0
277.718811 144.0
277.764282 160.0
277.802948 120.0
277.842285 104.0
277.87915 208.0
277.912323 148.0
277.945526 128.0
277.972534 256.0
278.008484 200.0
278.014008 168.0
278.049866 232.0
278.088684 440.0
278.191315 168424.0
278.258942 240.0
278.282745 228.0
278.359772 120.0
278.392975 196.0
278.416199 120.0
278.453949 232.0
278.492126 476.0
278.571991 188.0
278.63324 120.0
278.699097 276.0
278.738068 1092.0
278.773407 204.0
278.801819 136.0
278.857574 212.0
278.88092 64.0
278.889648 152.0
278.927887 160.0
278.952728 172.0
278.999146 124.0
279.071838 332.0
279.122162 124.0
279.193909 27808.0
279.288574 92.0
279.312073 76.0
279.350494 108.0
279.415955 96.0
279.455627 128.0
279.501251 80.0
279.515564 104.0
279.529266 84.0
279.578613 88.0
279.604523 128.0
279.665314 56.0
279.713837 220.0
279.739044 88.0
279.804565 104.0
279.841766 80.0
279.87146 116.0
279.920471 56.0
279.967743 144.0
280.018768 100.0
280.04715 80.0
280.102173 92.0
280.117523 52.0
280.198151 3496.0
280.266418 32.0
280.30603 76.0
280.339752 56.0
280.378174 60.0
280.414581 88.0
280.471313 108.0
280.506195 92.0
280.564087 156.0
280.620819 100.0
280.65509 140.0
280.716431 96.0
280.793549 124.0
280.857849 40.0
280.864685 140.0
280.888885 232.0
280.900116 156.0
280.967194 332.0
281.003296 164.0
281.038727 84.0
281.059387 276.0
281.087646 168.0
281.125397 128.0
281.177521 204.0
281.199463 332.0
281.230988 260.0
281.275452 180.0
281.303772 188.0
281.331177 112.0
281.423889 184.0
281.544037 36.0
281.58078 152.0
281.619385 108.0
281.647583 28.0
281.685364 64.0
281.730194 60.0
281.827972 80.0
281.95163 56.0
281.99173 176.0
282.030029 140.0
282.068604 88.0
282.10202 72.0
282.138794 108.0
282.156921 96.0
282.185608 168.0
282.219055 76.0
282.265259 100.0
282.339417 76.0
282.376221 36.0
282.453156 64.0
282.570221 120.0
282.647186 48.0
282.720795 96.0
283.018738 60.0
283.179474 32.0
283.233063 32.0
283.32016 32.0
283.487671 52.0
283.517853 128.0
283.618378 88.0
283.81955 108.0
284.081146 56.0
284.366364 88.0
284.715515 92.0
285.417847 48.0
285.693634 104.0
285.841675 92.0
286.52179 96.0
286.828461 48.0
287.263458 52.0
288.110779 68.0
288.658325 64.0
289.9888 88.0
290.633118 108.0
291.145721 56.0
291.227234 52.0
291.415344 80.0
291.492218 68.0
292.134796 104.0
292.294708 92.0
292.4104 60.0
292.662323 112.0
292.702179 124.0
292.771301 76.0
293.418701 32.0
293.615295 92.0
294.03952 88.0
294.063416 84.0
294.145325 108.0
294.278473 100.0
294.609741 132.0
295.077942 64.0
295.786102 40.0
295.820312 76.0
296.447113 52.0
297.77478 80.0
297.860626 84.0
298.297058 104.0
299.002167 80.0
299.31543 92.0
299.959686 52.0
302.135254 164.0
304.464569 160.0
305.869232 60.0
306.050262 108.0
306.858582 120.0
308.933044 156.0
309.108002 156.0
311.70639 52.0
313.737213 116.0
318.166473 72.0
318.884033 56.0
320.111389 80.0
322.322998 64.0
322.630371 104.0
322.816315 100.0
323.707336 108.0
323.925812 40.0
327.200958 40.0
330.999329 60.0
331.299957 112.0
335.209442 88.0
335.865662 176.0
337.19104 56.0
337.304352 88.0
337.629761 52.0
339.006226 64.0
339.967041 56.0
345.975067 116.0
346.23056 60.0
351.643738 148.0
357.587982 56.0
360.677094 84.0
369.029297 72.0
371.127502 48.0
376.047729 124.0
378.498688 84.0
380.553711 40.0
381.140198 88.0
384.360413 100.0
385.551453 108.0
387.703857 124.0
390.589661 64.0
395.478485 56.0
400.660583 100.0
405.058868 68.0
407.964203 88.0
415.406769 84.0
415.459503 44.0
416.478394 108.0
418.230865 84.0
423.207275 68.0
424.256104 36.0
425.24057 76.0
425.326782 56.0
425.56488 60.0
425.782501 72.0
432.6521 44.0
432.763885 52.0
435.775055 116.0
435.966187 108.0
437.247101 36.0
437.409424 100.0
437.584259 92.0
444.099121 88.0
451.000183 104.0
453.747528 88.0
454.341248 80.0
454.96936 52.0
457.354095 40.0
459.561584 76.0
459.890167 84.0
463.418182 136.0
464.447052 44.0
470.411072 80.0
470.760803 52.0
480.13031 104.0
482.46637 84.0
483.564301 84.0
484.77301 52.0
485.904266 156.0
493.121613 44.0
498.097473 64.0
498.515106 44.0
498.996857 92.0
501.902618 72.0
509.300262 148.0
513.161377 64.0
518.617798 88.0
519.465698 76.0
522.773376 72.0
525.872375 92.0
527.260803 44.0
542.487305 44.0
543.776794 40.0
544.148132 56.0
551.349548 88.0
553.375 72.0
558.490112 60.0
573.890869 84.0
577.324158 56.0
577.831177 92.0
578.400635 128.0
578.563416 160.0
586.720886 88.0
588.650879 68.0
589.341614 68.0
593.227844 152.0
594.73645 84.0
608.50293 72.0
610.079895 76.0
618.832092 52.0
621.245667 64.0
626.345825 44.0
627.272705 88.0
646.150452 64.0
650.579834 72.0
654.11792 104.0
658.952454 52.0
666.643555 88.0
679.812073 80.0
682.014099 88.0
684.599854 84.0
684.974854 80.0
685.652161 132.0
688.203003 120.0
689.05957 92.0
706.471863 120.0
709.283752 152.0
720.693848 100.0
722.308411 84.0
728.811401 60.0
736.407227 84.0
744.395325 52.0
744.48761 224.0
753.2948 112.0
767.294434 116.0
774.705383 108.0
777.333435 72.0
778.665771 192.0
784.75354 92.0
786.069946 48.0
792.931763 264.0
802.47113 160.0
822.063293 124.0
823.085083 120.0
831.058411 124.0
832.970154 76.0
833.326355 144.0
841.683899 176.0
855.651489 200.0
857.294067 196.0
857.340698 100.0
864.675842 168.0
868.50769 64.0
871.560425 76.0
875.731323 212.0
888.665771 144.0
889.098938 44.0
889.455078 132.0
891.195068 192.0
894.668396 176.0
894.721985 96.0
900.667297 220.0
900.864441 156.0
901.551575 200.0
907.789368 84.0
909.955444 120.0
910.123596 164.0
923.308594 88.0
924.209961 124.0
925.172241 156.0
931.229919 136.0
933.095459 148.0
933.825134 132.0
934.743774 120.0
937.849731 128.0
939.349731 92.0
951.184265 244.0
951.601685 144.0
952.946777 44.0
953.579712 36.0
960.352356 156.0
961.080322 156.0
962.574097 48.0
974.360962 108.0
978.048584 140.0
984.570129 248.0
984.744995 136.0
989.59137 224.0
991.257507 120.0
992.780823 120.0
1007.086243 208.0
1009.095764 92.0
1009.392944 40.0
1010.436584 104.0
1011.170593 156.0
1012.392456 152.0
1016.125916 64.0
1016.716003 136.0
1017.001648 112.0
1022.295654 160.0
1024.269409 192.0
1024.517822 148.0
1024.708984 156.0
1026.997437 152.0
1029.231079 160.0
1030.438232 112.0
1030.578735 48.0
1032.438965 148.0
1033.750366 204.0
1033.865601 40.0
1034.255981 72.0
1037.176758 180.0
1037.837158 140.0
1038.228271 140.0
1039.389404 160.0
1042.548706 152.0
1044.651245 188.0
1046.099121 188.0
1046.800903 140.0
1047.541626 180.0
1052.481812 208.0
1055.467041 144.0
1061.754883 96.0
1067.261597 140.0
1068.211304 196.0
1071.15332 176.0
1074.204102 108.0
1075.143677 100.0
1075.633179 148.0
1077.036987 156.0
1078.232666 76.0
1078.95166 160.0
1080.835327 192.0
1082.976074 68.0
1083.814575 80.0
1084.450317 192.0
1084.902588 108.0
1087.821777 84.0
1088.084351 32.0
1095.384033 152.0
1095.75293 184.0
1096.095581 40.0
1101.221436 48.0
1101.479004 176.0
1102.357788 144.0
1106.968384 164.0
1107.081055 184.0
1109.519409 204.0
1110.89209 180.0
1112.478149 116.0
1117.409302 192.0
1118.307617 240.0
1119.925537 56.0
1121.064819 148.0
1121.204712 32.0
1125.68103 112.0
1125.964722 140.0
1128.781616 172.0
1129.751465 164.0
1131.297241 140.0
1131.524902 44.0
1132.321777 196.0
1132.515991 152.0
1133.768799 156.0
1134.606689 196.0
1139.855347 100.0
1141.616577 168.0
1142.470825 108.0
1143.036011 168.0
1143.755249 164.0
1151.145264 172.0
1154.091309 192.0
1155.389893 136.0
1156.946411 152.0
1160.374512 140.0
1162.036133 48.0
1166.627075 140.0
1167.143799 148.0
1169.096069 188.0
1170.818481 172.0
1171.819824 180.0
1172.126465 80.0
1173.060181 124.0
1175.317505 188.0
1175.979492 196.0
1180.522705 176.0
1182.917358 40.0
1183.471924 128.0
1183.663574 92.0
1184.793701 52.0
1187.967773 40.0
1188.18042 164.0
1188.324463 160.0
1189.244019 116.0
1193.984619 60.0
1194.534912 172.0
1195.209106 164.0
1196.902466 112.0
1199.472168 56.0
1200.223633 140.0
1202.900513 132.0
1203.563232 152.0
1205.407593 192.0
1207.16333 52.0
1208.422241 44.0
1208.692139 48.0
1210.471069 144.0
1213.062256 60.0
1213.755615 184.0
1214.338135 184.0
1214.469849 160.0
1214.664062 100.0
1215.552124 176.0
1215.829712 88.0
1216.523804 188.0
1221.450562 192.0
1222.375977 148.0
1222.723877 72.0
1224.450439 96.0
1225.871582 168.0
1226.338501 196.0
1227.286621 180.0
1227.523682 200.0
1230.014404 176.0
1234.297119 184.0
1235.409058 272.0
1237.32666 72.0
1238.369995 48.0
1238.5802 132.0
1239.35083 68.0
1239.638062 68.0
1240.316162 164.0
1241.089111 184.0
1241.734253 104.0
1242.183105 184.0
1242.835571 124.0
1243.151367 220.0
1244.59729 120.0
1246.360352 64.0
1248.040283 136.0
1248.750488 188.0
1249.390625 164.0
1250.952881 240.0
1251.009277 64.0
1251.494995 76.0
1254.29187 196.0
1254.566772 232.0
1258.680054 236.0
1261.322388 48.0
1262.050537 72.0
1262.404053 124.0
1267.599976 260.0
1268.982178 112.0
1271.876465 208.0
1272.565063 52.0
1274.042358 124.0
1274.64624 200.0
1275.833252 136.0
1278.059326 176.0
1278.358154 216.0
1278.550293 132.0
1281.042358 176.0
1281.355835 56.0
1282.118286 204.0
1283.658081 164.0
1283.893433 176.0
1284.335571 140.0
1285.648315 176.0
1287.682983 152.0
1288.240234 136.0
1289.733643 52.0
1290.69873 228.0
1290.91333 180.0
1290.963379 160.0
1291.885986 196.0
1292.637207 208.0
1293.975708 204.0
1294.356445 168.0
1295.852173 212.0
1299.996704 208.0
1300.183228 120.0
1302.689087 108.0
1304.356201 68.0
1306.556763 188.0
1306.72937 68.0
1307.146729 108.0
1307.348267 176.0
1308.247925 156.0
1308.492676 168.0
1310.639038 76.0
1311.222778 180.0
1312.686157 180.0
1315.579346 152.0
1315.723755 160.0
1315.810425 160.0
1317.384766 132.0
1317.774902 204.0
1319.704712 228.0
1322.605591 56.0
1323.090576 152.0
1324.582397 60.0
1326.132935 160.0
1327.227661 184.0
1328.047119 136.0
1329.38208 160.0
1333.790527 164.0
1336.920044 128.0
1341.448242 140.0
1341.958618 44.0
1342.571167 176.0
1343.11084 108.0
1345.694214 112.0
1348.207031 228.0
1351.504883 152.0
1353.510498 164.0
1354.667603 180.0
1355.04126 164.0
1355.305054 160.0
1355.954224 248.0
1359.015137 148.0
1359.404053 200.0
1359.947144 136.0
1360.020508 180.0
1360.182007 208.0
1361.67981 176.0
1363.178467 188.0
1363.619385 148.0
1367.451294 148.0
1368.121094 88.0
1368.665894 176.0
1371.001831 184.0
1371.155884 120.0
1371.760254 280.0
1374.392456 208.0
1374.489014 172.0
1375.21228 128.0
1378.136597 64.0
1378.602173 176.0
1378.956909 36.0
1380.043579 148.0
1382.136841 148.0
1382.588135 212.0
1385.764893 120.0
1386.928345 228.0
1387.832764 164.0
1389.063843 60.0
1389.939331 148.0
1390.62207 116.0
1392.648926 136.0
1392.998047 56.0
1394.781494 196.0
1396.23877 200.0
1397.421509 156.0
1397.741455 168.0
1398.909912 192.0
1399.192749 128.0
1399.37146 164.0
1401.121704 160.0
1401.181274 80.0
1401.427124 120.0
1403.91687 164.0
1404.058472 152.0
1404.879028 168.0
1405.393799 200.0
1405.923584 144.0
1407.192505 176.0
1409.63501 172.0
1413.411255 264.0
1413.927612 168.0
1414.226929 100.0
1416.21106 160.0
1418.773804 148.0
1419.171265 140.0
1419.418945 236.0
1419.808594 148.0
1421.136353 140.0
1422.074341 144.0
1422.930054 52.0
1423.921265 136.0
1424.484619 160.0
1425.776978 140.0
1426.24292 52.0
1428.498779 160.0
1428.573975 244.0
1428.867432 136.0
1429.454346 160.0
1429.506958 116.0
1429.853149 152.0
1433.204224 112.0
1433.761841 152.0
1435.065918 200.0
1435.940674 172.0
1436.053711 196.0
1437.464478 204.0
1438.038086 156.0
1440.288086 168.0
1440.703613 156.0
1443.356445 120.0
1443.878174 80.0
1445.519775 148.0
1445.618164 88.0
1447.472778 184.0
1449.404297 148.0
1449.874146 196.0
1450.022583 248.0
1450.79895 228.0
1450.912598 68.0
1451.397827 160.0
1452.580933 80.0
1452.740234 40.0
1453.552124 216.0
1453.80249 200.0
1456.991577 156.0
1457.394165 160.0
1457.895752 200.0
1457.994507 140.0
1460.967529 48.0
1461.172974 160.0
1461.300537 208.0
1463.440918 120.0
1466.815918 136.0
1466.998779 76.0
1467.829834 204.0
1468.165405 96.0
1468.635864 164.0
1470.263306 172.0
1471.431152 160.0
1472.41626 224.0
1473.363403 240.0
1473.806519 100.0
1474.891724 224.0
1475.136353 216.0
1475.923828 216.0
1477.216309 136.0
1477.782471 136.0
1480.216431 204.0
1480.538086 200.0
1480.9823 192.0
1483.656616 196.0
1484.569092 220.0
1485.688965 156.0
1487.085449 56.0
1487.622803 136.0
1489.588623 232.0
1490.349121 100.0
1492.670532 156.0
1493.408813 152.0
1495.717163 160.0
1496.817993 208.0
1498.00415 156.0
1498.466309 168.0
1498.874756 104.0
1499.136719 76.0
1500.277466 56.0
1501.272095 224.0
1501.626831 160.0
1502.459961 248.0
