>compound MLS000069767-01!3'-AZIDO-2',3'-DIDEOXYURIDINE
>formula C9H11N5O4
>ionization [M+H]+
>parentmass 254.08838028409053
#inchi InChI=1S/C9H11N5O4/c10-13-12-5-3-8(18-6(5)4-15)14-2-1-7(16)11-9(14)17/h1-2,5-6,8,15H,3-4H2,(H,11,16,17)/t5-,6-,8-/m1/s1
#inchikey ZSNNBSPEFVIUDS
#Ion_Source LC-ESI
#Instrument qTof
#Compound_Source NIH Pharmacologically Active Library
#PI Dorrestein
#Data_Collector VP/LMS
#Scan -1
#Precursor_MZ 254.091
#ExactMass 253.081
#Charge 1
#CAS_Number N/A
#Pubmed_ID N/A
#Smiles OC[C@H]1O[C@H](C[C@H]1N=[N+]=[N-])n2ccc(=O)[nH]c2=O
#INCHI_AUX N/A
#Library_Class 3
#SpectrumID CCMSLIB00000085655
#IonMode Positive
#UpdateWorkflowName UPDATE-SINGLE-ANNOTATED-BRONZE
#LibraryQualityString Bronze
#TaskID d252d724072548979f1f6f1ced849daf
##Scan# 1160
#SpectrumFile p4-D10_GD10_01_18370.mzXML
#LibraryName Pharm_Active_Library.mgf
#MQScore -1
#Organism Pharm_Active_Library
#TIC_Query 0
#RT_Query -1
#MZErrorPPM -1
#SharedPeaks 0
#MassDiff 0
#LibMZ -1
#SpecMZ 254.091
#SpecCharge 0
#internalFilename spec-00000.mgf

>collision 10
48.128159 192.0
57.600182 140.0
60.732239 196.0
61.627384 116.0
71.821831 168.0
71.988914 148.0
72.953003 200.0
75.238411 212.0
87.361504 116.0
96.008362 556.0
97.78447 160.0
98.129204 124.0
100.078865 208.0
101.027031 252.0
102.122108 168.0
110.708786 208.0
113.034683 1924.0
113.109024 44.0
123.115303 148.0
124.000252 152.0
124.774956 144.0
126.1147 120.0
126.575562 72.0
126.660667 28.0
138.082428 120.0
142.060898 172.0
143.073273 156.0
169.092453 184.0
171.098999 128.0
185.107681 196.0
198.917297 148.0
202.101974 32.0
467.697662 20.0
1037.648438 64.0
1049.433716 104.0
1171.56665 180.0
1260.700439 72.0
1286.098389 152.0
1394.344971 156.0
1414.528687 144.0
1498.416016 184.0
