>compound Ambrisentan
>formula C22H22N2O4
>ionization [M+H]+
>parentmass 379.165
#inchi InChI=1S/C22H22N2O4/c1-15-14-16(2)24-21(23-15)28-19(20(25)26)22(27-3,17-10-6-4-7-11-17)18-12-8-5-9-13-18/h4-14,19H,1-3H3,(H,25,26)/t19-/m1/s1
#inchikey OUJTZYPIHDYQMC
#Ion_Source LC-ESI
#Instrument qTof
#Compound_Source Commercial
#PI Dorrestein
#Data_Collector Garg_Neha
#Scan -1
#Precursor_MZ 379.165
#ExactMass 378.158
#Charge 1
#CAS_Number 177036-94-1
#Pubmed_ID N/A
#Smiles [C@@H](OC1=NC(=CC(=N1)C)C)(C(O)=O)C(C2=CC=CC=C2)(C3=CC=CC=C3)OC
#INCHI_AUX N/A
#Library_Class 1
#SpectrumID CCMSLIB00000078432
#IonMode Positive
#UpdateWorkflowName UPDATE-SINGLE-ANNOTATED-GOLD
#LibraryQualityString Gold
#TaskID 77f51c88eb8b467eb4a01dd2d0cb90d2
##Scan# 1677
#SpectrumFile Plate7_81_88_Plate6_81_88_GD6_01_15772.mzXML
#LibraryName FDALibrary_2_04302014.mgf
#MQScore -1
#Organism FDALibrary_2_04302014
#TIC_Query 0
#RT_Query -1
#MZErrorPPM -1
#SharedPeaks 0
#MassDiff 0
#LibMZ -1
#SpecMZ 379.165
#SpecCharge 0
#internalFilename spec-00000.mgf

>collision 10
44.918808 172.0
44.952164 160.0
45.013573 156.0
45.242214 144.0
45.360104 204.0
45.403011 140.0
45.519768 172.0
45.772579 148.0
45.908688 224.0
46.093632 188.0
46.409027 184.0
46.58007 144.0
46.633553 124.0
46.660507 112.0
46.722778 148.0
46.764603 144.0
47.287727 148.0
47.330166 168.0
47.427437 164.0
47.46793 180.0
47.500114 172.0
47.828537 160.0
47.971802 176.0
48.109631 172.0
48.401497 180.0
48.590004 180.0
48.693401 148.0
48.811234 220.0
48.86232 144.0
49.062874 184.0
49.090908 152.0
49.365875 200.0
49.909969 188.0
49.950756 140.0
49.994373 172.0
50.049274 256.0
50.660843 152.0
50.670761 144.0
51.048336 144.0
51.062557 140.0
51.18922 176.0
51.355968 140.0
51.473 152.0
51.644501 184.0
51.664528 180.0
51.706024 172.0
52.117794 208.0
52.199539 140.0
52.344345 172.0
52.379955 148.0
52.434288 132.0
52.680252 224.0
53.206661 148.0
53.235065 164.0
53.333046 168.0
53.44503 144.0
53.495972 188.0
53.590641 172.0
53.732067 144.0
53.754387 244.0
54.044868 192.0
54.530163 172.0
54.638981 204.0
54.677238 156.0
54.800365 144.0
54.997082 148.0
55.193573 144.0
55.257175 148.0
55.310452 164.0
55.377083 140.0
55.448307 112.0
55.69302 140.0
55.780693 148.0
56.125381 132.0
56.242474 224.0
57.159706 140.0
57.503319 304.0
57.649815 156.0
57.917618 144.0
57.968685 164.0
57.999706 184.0
58.050991 140.0
58.20472 224.0
58.248302 164.0
58.260456 156.0
58.357727 160.0
58.613449 216.0
58.747623 172.0
59.628098 148.0
59.846546 148.0
59.90353 176.0
60.403732 160.0
60.7332 128.0
60.767765 140.0
60.806561 156.0
60.839161 160.0
61.006943 152.0
61.022491 172.0
61.209858 164.0
61.282421 204.0
61.332706 156.0
61.483044 192.0
61.564644 148.0
61.841503 184.0
62.042015 164.0
62.167496 140.0
62.216156 216.0
62.340244 144.0
62.416782 136.0
62.613991 180.0
62.672276 144.0
62.760548 156.0
62.973595 140.0
63.051014 156.0
63.096855 176.0
63.14904 172.0
63.373062 220.0
63.635551 152.0
63.710197 192.0
63.931217 176.0
64.320122 184.0
64.406349 168.0
64.431908 300.0
64.465462 148.0
64.682983 164.0
64.702194 172.0
64.749756 216.0
64.900871 204.0
64.977867 160.0
65.283173 116.0
65.48642 136.0
65.557144 128.0
65.890755 144.0
65.960243 196.0
66.002281 156.0
66.40229 152.0
66.494766 176.0
66.524681 216.0
66.662918 320.0
66.712433 176.0
66.735199 140.0
66.761215 140.0
67.01516 140.0
67.372467 164.0
67.418472 152.0
67.737274 232.0
67.929077 160.0
67.948761 224.0
67.970093 192.0
68.394112 152.0
68.43692 152.0
68.511032 188.0
68.572006 188.0
69.126915 168.0
69.206367 196.0
69.891907 332.0
69.90522 144.0
69.983452 176.0
70.018425 144.0
70.080551 164.0
70.141724 192.0
70.195076 200.0
70.22757 124.0
70.407021 156.0
70.513947 184.0
70.682861 156.0
71.163681 160.0
71.41938 148.0
71.459755 180.0
71.565788 140.0
71.611259 232.0
71.808464 164.0
71.989044 188.0
72.057121 172.0
72.078712 168.0
72.100548 156.0
72.415245 176.0
72.679459 216.0
72.956558 144.0
74.003426 348.0
74.319519 156.0
74.475746 140.0
74.78009 144.0
74.821404 176.0
75.055733 140.0
75.071251 144.0
75.271431 144.0
75.888435 164.0
76.1269 156.0
76.224182 140.0
76.529335 168.0
76.571335 116.0
76.638321 224.0
76.709778 156.0
76.781265 224.0
76.900833 144.0
76.950394 144.0
77.002922 144.0
77.069305 172.0
77.097267 196.0
77.19342 148.0
77.228401 208.0
77.566353 148.0
77.857613 160.0
77.906792 220.0
77.948967 200.0
77.994659 144.0
78.085869 124.0
78.228622 160.0
78.552872 140.0
78.690529 144.0
78.863655 236.0
79.075905 228.0
79.157341 176.0
79.344261 196.0
79.403687 200.0
79.803246 160.0
79.872604 204.0
80.073738 196.0
80.117897 152.0
80.777016 144.0
80.828896 144.0
80.92556 156.0
81.06707 140.0
81.119049 152.0
81.178215 172.0
81.196152 160.0
81.303795 160.0
81.370216 144.0
81.400742 192.0
81.519661 140.0
81.63076 148.0
81.708099 160.0
81.75309 180.0
81.852097 188.0
82.082756 140.0
82.264984 144.0
82.376953 156.0
82.615578 192.0
82.776672 200.0
82.816513 196.0
82.892609 208.0
82.994118 208.0
83.10096 172.0
83.191078 100.0
83.257248 160.0
83.671837 144.0
83.690414 176.0
83.748322 140.0
84.140396 240.0
84.228676 176.0
84.337692 160.0
84.491302 164.0
84.591957 144.0
84.619415 228.0
84.762291 152.0
84.801468 192.0
84.888779 144.0
85.414062 172.0
85.598106 152.0
85.90741 148.0
86.016632 160.0
86.049866 148.0
86.440941 140.0
86.598175 164.0
86.623177 144.0
86.89756 164.0
86.925392 188.0
86.942101 160.0
87.240112 136.0
87.265633 120.0
87.29879 140.0
87.848259 188.0
88.665382 144.0
88.699226 144.0
88.973015 168.0
89.106361 140.0
89.195312 216.0
89.266136 144.0
89.347954 152.0
89.388412 168.0
89.55117 168.0
89.744423 200.0
89.80423 140.0
90.091698 152.0
90.20887 156.0
90.528633 144.0
90.574089 176.0
90.871727 156.0
90.949867 184.0
90.986076 192.0
91.006134 180.0
91.052597 340.0
91.264908 148.0
91.281815 148.0
91.394249 284.0
91.457474 144.0
91.493225 164.0
91.611298 200.0
91.879074 176.0
92.036034 208.0
92.185463 152.0
92.381081 204.0
92.55481 208.0
92.596947 144.0
92.865601 188.0
92.880272 176.0
92.966965 140.0
93.068047 300.0
93.097504 148.0
93.149368 156.0
93.707283 196.0
93.903915 156.0
94.069862 140.0
94.375259 108.0
94.406059 164.0
94.584328 116.0
94.603416 188.0
94.785484 168.0
94.894028 160.0
94.979362 200.0
95.06279 140.0
95.326134 112.0
95.359932 176.0
95.585526 176.0
95.621826 160.0
95.770485 184.0
95.842567 164.0
95.980011 160.0
96.035568 172.0
96.10775 140.0
96.148735 156.0
96.30275 104.0
96.345955 156.0
96.387444 220.0
96.470329 236.0
96.744911 200.0
96.774223 144.0
96.897675 172.0
96.946663 204.0
97.186554 180.0
97.266365 148.0
97.300896 168.0
97.331154 168.0
97.417572 180.0
97.578728 240.0
97.828583 144.0
97.981346 176.0
98.516846 176.0
98.672974 196.0
98.787682 216.0
98.846779 184.0
98.884644 208.0
99.127762 184.0
99.290802 156.0
99.425713 196.0
99.513054 168.0
99.57859 148.0
99.705742 160.0
99.821045 156.0
99.924484 152.0
100.006073 144.0
100.209198 160.0
100.414528 204.0
100.454422 184.0
100.560173 144.0
100.675972 144.0
100.88578 144.0
101.089798 172.0
101.36615 148.0
101.564629 152.0
101.749252 148.0
102.084816 172.0
102.43705 256.0
102.521675 200.0
102.660774 144.0
102.884895 112.0
102.997841 220.0
103.050362 188.0
103.330147 148.0
103.357704 156.0
104.010307 144.0
104.050903 160.0
104.129105 116.0
104.272324 196.0
104.455322 168.0
104.644653 132.0
104.7342 164.0
104.848297 168.0
105.032837 1964.0
105.176682 156.0
105.303276 140.0
105.337997 144.0
105.425858 144.0
105.781754 144.0
105.89756 180.0
105.933296 208.0
106.035141 272.0
106.255157 160.0
106.292091 164.0
106.519989 148.0
106.608345 140.0
106.67617 160.0
106.793381 144.0
106.865379 208.0
107.059601 2184.0
107.28141 156.0
107.388641 140.0
107.564034 144.0
107.605324 172.0
107.855293 176.0
108.042641 848.0
108.117966 168.0
108.416191 260.0
108.626755 196.0
108.703453 100.0
108.760941 240.0
108.818619 224.0
108.939072 204.0
109.072067 156.0
109.12326 160.0
109.140678 264.0
109.225945 140.0
109.398666 152.0
109.546661 120.0
109.59919 284.0
109.695824 136.0
109.715332 148.0
109.76561 140.0
110.02401 184.0
110.088829 208.0
110.1306 144.0
110.343758 144.0
110.423218 176.0
110.692886 164.0
110.936241 160.0
110.988655 148.0
111.047371 176.0
111.236877 192.0
111.574455 116.0
111.659653 216.0
111.894249 260.0
112.459274 132.0
112.634468 144.0
112.765793 132.0
112.801407 184.0
112.943085 148.0
113.093315 192.0
113.139885 140.0
113.157356 176.0
113.300842 184.0
113.421638 184.0
113.514923 196.0
114.16362 120.0
114.354103 160.0
114.48185 140.0
114.498886 148.0
114.842033 144.0
114.924248 208.0
115.053299 172.0
115.086273 144.0
115.204926 148.0
115.264748 176.0
115.52346 140.0
115.660416 148.0
116.009583 208.0
116.04982 172.0
116.288445 148.0
116.315475 148.0
116.380753 148.0
116.887573 180.0
117.147491 144.0
117.646736 184.0
118.243332 264.0
118.37323 164.0
118.485863 160.0
118.659248 160.0
118.737312 172.0
119.043312 144.0
119.114929 144.0
119.154091 176.0
119.482391 144.0
119.829712 124.0
120.120697 220.0
120.161232 172.0
120.181786 244.0
120.210152 192.0
120.242889 144.0
120.264717 112.0
120.314926 188.0
120.460609 180.0
120.601089 140.0
120.970772 160.0
121.047409 156.0
121.360756 156.0
121.455055 172.0
121.896355 200.0
121.968018 152.0
122.008453 144.0
122.063423 176.0
122.168999 148.0
122.276817 240.0
122.527847 280.0
122.807816 156.0
122.918121 252.0
122.995369 196.0
123.046143 196.0
123.132263 164.0
123.253769 168.0
123.331123 192.0
123.642982 176.0
123.795738 176.0
124.023941 164.0
124.12149 140.0
124.14521 132.0
124.163628 176.0
124.403267 156.0
124.492088 160.0
124.518562 152.0
124.638977 96.0
124.715355 212.0
124.814781 224.0
124.835243 144.0
124.869453 100.0
124.903267 164.0
124.947914 176.0
124.975449 144.0
125.004524 168.0
125.071136 160404.0
125.155945 172.0
125.179092 112.0
125.258179 136.0
125.317406 108.0
125.336578 172.0
125.354767 152.0
125.400238 144.0
125.436806 664.0
125.54702 144.0
125.631828 160.0
125.804741 120.0
125.902481 140.0
125.96479 220.0
125.9981 120.0
126.072998 13080.0
126.290016 168.0
126.358574 152.0
126.729973 164.0
126.782631 128.0
126.842209 160.0
126.885101 120.0
126.971237 148.0
127.075127 808.0
127.123779 204.0
127.147156 156.0
127.253265 160.0
127.685791 152.0
127.708282 176.0
127.796021 204.0
128.003113 140.0
128.071518 224.0
128.157608 120.0
128.415527 148.0
128.545914 216.0
128.652252 128.0
128.756332 172.0
129.078125 172.0
129.149612 156.0
129.844955 164.0
130.031006 180.0
130.458038 200.0
130.596756 160.0
130.654388 208.0
130.679428 144.0
130.817474 148.0
131.017883 236.0
131.067108 172.0
131.104477 144.0
131.407761 148.0
131.566849 180.0
131.754791 152.0
132.010788 140.0
132.088562 156.0
132.15033 180.0
132.223557 168.0
132.743591 180.0
132.83992 200.0
133.161285 144.0
133.379562 184.0
133.50032 240.0
133.738403 188.0
134.300629 148.0
134.346756 192.0
134.471359 196.0
134.905945 120.0
135.054245 848.0
135.082962 148.0
135.190125 152.0
135.430923 180.0
135.532852 144.0
135.58226 144.0
135.683502 280.0
135.716766 116.0
135.994354 172.0
136.060852 212.0
136.089539 184.0
136.291626 172.0
136.490494 140.0
136.863831 152.0
136.974243 152.0
137.001251 160.0
137.059006 2480.0
137.131744 172.0
137.236649 160.0
137.402252 148.0
137.427902 192.0
138.06459 432.0
138.597031 260.0
139.056564 132.0
139.087158 244.0
139.269684 184.0
139.705231 140.0
139.756989 160.0
139.917038 184.0
140.03949 156.0
140.060684 160.0
140.099503 144.0
140.645111 180.0
140.687973 344.0
140.746201 156.0
140.777695 192.0
140.874527 196.0
141.070679 160.0
141.10141 180.0
141.254135 180.0
141.311905 144.0
141.885818 112.0
141.965683 140.0
142.157852 140.0
142.293152 272.0
142.461761 180.0
142.495026 140.0
143.073868 168.0
143.287308 188.0
143.320663 160.0
143.361176 140.0
143.457535 140.0
143.570969 172.0
143.850128 144.0
144.09938 180.0
144.220383 204.0
144.392532 188.0
144.477188 176.0
144.685913 232.0
145.108536 148.0
145.233246 144.0
145.286011 160.0
145.608597 152.0
145.851486 152.0
145.886398 164.0
145.925522 132.0
146.009033 148.0
146.362976 104.0
146.683228 152.0
146.820663 140.0
147.1754 168.0
147.383118 168.0
147.513641 152.0
147.547485 160.0
148.122787 160.0
148.162216 164.0
148.198547 152.0
148.370636 140.0
148.416702 184.0
148.462784 176.0
148.790359 232.0
148.950638 156.0
149.074554 164.0
149.181488 164.0
149.551468 128.0
149.670532 160.0
149.809357 172.0
150.03804 148.0
150.707199 180.0
151.056274 144.0
151.422287 168.0
152.060043 1260.0
152.181549 108.0
152.225922 144.0
152.380676 152.0
152.493713 172.0
153.067017 348.0
153.178207 204.0
153.340393 188.0
153.396866 180.0
153.436539 160.0
153.458725 172.0
153.735001 220.0
154.07225 144.0
154.127151 124.0
154.874786 152.0
154.924805 184.0
155.050446 116.0
155.100266 144.0
155.294266 216.0
155.491013 260.0
155.658493 180.0
155.814102 184.0
155.857224 160.0
155.930008 136.0
155.964081 164.0
156.068237 112.0
156.167984 148.0
156.247574 108.0
156.404358 264.0
156.481537 148.0
156.516388 192.0
156.957443 176.0
157.196915 156.0
157.259308 160.0
157.55397 152.0
157.655075 148.0
157.868927 152.0
158.066544 168.0
158.189194 164.0
158.296844 172.0
158.687744 196.0
158.910965 200.0
159.091843 164.0
159.40564 176.0
159.94754 180.0
160.049606 152.0
160.355362 236.0
160.44014 156.0
160.929596 172.0
161.187241 148.0
161.394516 164.0
161.647476 180.0
161.705688 156.0
162.166656 168.0
162.346664 164.0
162.44812 404.0
162.772995 168.0
162.816177 140.0
163.113449 224.0
163.372833 160.0
163.405914 148.0
163.575226 136.0
163.706284 148.0
163.952042 104.0
164.160736 144.0
164.254257 144.0
164.312927 168.0
165.068985 776.0
165.232697 148.0
165.440002 156.0
165.488647 148.0
166.076172 580.0
166.229446 168.0
166.452774 160.0
166.532394 176.0
166.655701 144.0
166.843323 204.0
167.085281 1488.0
168.046097 152.0
168.08136 108.0
168.105438 152.0
168.15448 168.0
168.376511 180.0
168.777069 156.0
169.079742 172.0
169.421112 144.0
169.579605 148.0
169.916733 152.0
169.968613 140.0
170.017929 184.0
170.094009 148.0
170.521774 180.0
170.901459 140.0
170.924881 212.0
171.047379 116.0
171.328445 140.0
171.359711 148.0
171.64122 168.0
171.972794 124.0
171.998642 216.0
172.134415 172.0
172.32637 212.0
172.353836 212.0
172.720764 228.0
172.75647 232.0
172.800949 244.0
172.829071 176.0
173.772995 152.0
173.912094 168.0
174.020737 172.0
174.847778 184.0
175.158463 180.0
175.194244 140.0
175.243973 148.0
175.266479 144.0
175.48526 144.0
175.516907 164.0
175.611847 176.0
175.838745 184.0
175.888901 204.0
176.014267 220.0
176.059052 752.0
176.137115 144.0
176.520355 148.0
176.541504 140.0
176.582275 144.0
176.93074 160.0
176.959595 184.0
176.978134 160.0
177.069626 2720.0
177.250961 208.0
177.423248 156.0
177.469681 160.0
177.518707 172.0
177.547867 388.0
177.691284 124.0
177.818481 172.0
177.929977 148.0
177.972763 240.0
178.037567 224.0
178.07753 93412.0
178.17807 156.0
178.228058 176.0
178.279694 328.0
178.338898 116.0
178.567734 356.0
178.591675 144.0
178.662888 212.0
178.760361 196.0
178.863083 228.0
178.91362 180.0
178.947281 448.0
178.991699 208.0
179.044632 176.0
179.085281 112964.0
179.152542 132.0
179.174713 216.0
179.28392 204.0
179.342941 212.0
179.411438 128.0
179.715912 292.0
179.831467 160.0
180.016769 152.0
180.088013 12856.0
180.150604 116.0
180.470169 176.0
180.508118 160.0
180.659027 120.0
181.03009 228.0
181.090515 944.0
181.292755 224.0
181.3237 104.0
181.372192 140.0
181.429977 156.0
181.683609 120.0
181.740616 300.0
181.821945 160.0
181.893387 104.0
182.094711 444.0
182.562195 112.0
182.601089 148.0
182.64241 188.0
183.075058 144.0
183.124451 152.0
183.527481 164.0
184.080658 140.0
184.210297 180.0
184.531906 140.0
184.610321 152.0
184.811966 128.0
185.4198 176.0
185.986954 120.0
186.739319 176.0
186.848465 112.0
187.108246 116.0
187.444443 160.0
187.577988 152.0
188.00621 160.0
188.262833 192.0
188.30867 144.0
188.924301 172.0
188.979019 168.0
189.260956 148.0
190.07399 216.0
191.042206 148.0
191.080795 140.0
191.189377 180.0
191.32016 204.0
191.439148 132.0
191.596893 116.0
191.757156 116.0
192.083511 272.0
192.22879 152.0
192.279419 184.0
192.407593 172.0
192.690857 140.0
192.768234 148.0
193.066208 692.0
193.833618 176.0
193.916763 144.0
194.072327 852.0
194.15625 172.0
195.080948 676.0
195.523483 120.0
195.552704 156.0
195.683548 140.0
195.97171 104.0
196.067368 168.0
196.097321 1388.0
196.13562 116.0
196.377441 156.0
196.687164 208.0
196.890976 176.0
196.927292 260.0
197.013885 228.0
197.098495 696.0
197.50029 312.0
197.788498 148.0
197.904633 116.0
198.094727 136.0
198.118942 320.0
198.13855 180.0
198.214203 152.0
198.349442 192.0
199.064178 160.0
199.496887 140.0
200.101761 216.0
200.25946 164.0
200.416901 140.0
200.487671 172.0
201.099686 156.0
201.125092 268.0
202.072433 412.0
202.112885 108.0
202.306717 140.0
202.374664 176.0
202.47377 240.0
202.714584 140.0
203.009399 176.0
203.075974 120.0
203.401718 132.0
203.721832 208.0
204.095108 188.0
204.273331 144.0
205.03981 196.0
205.071762 220.0
206.06868 320.0
207.093582 156.0
208.028381 140.0
208.061951 324.0
208.315552 144.0
209.071381 276.0
209.327972 156.0
209.664551 192.0
210.080704 252.0
210.368835 152.0
210.41214 156.0
210.442108 148.0
210.640289 180.0
210.73851 152.0
210.773178 216.0
210.941833 160.0
211.084366 560.0
211.111877 632.0
211.213745 136.0
211.365967 164.0
211.634888 168.0
211.950897 200.0
212.095291 184.0
212.168274 168.0
212.763016 160.0
213.21907 140.0
213.981216 276.0
214.502686 212.0
215.081512 144.0
215.489105 144.0
215.76384 196.0
216.131149 220.0
216.302124 168.0
217.087112 1900.0
217.145996 184.0
217.368958 140.0
217.54213 164.0
218.091217 280.0
218.232559 168.0
218.439377 172.0
218.501678 164.0
218.885788 148.0
219.06839 180.0
219.100998 248.0
219.114822 160.0
219.206879 196.0
219.327713 148.0
219.407303 180.0
219.569489 128.0
219.815994 108.0
220.0121 148.0
220.075653 572.0
220.119232 268.0
220.186035 120.0
220.280838 156.0
220.602951 148.0
220.795151 192.0
221.063889 148.0
221.689224 152.0
221.758179 136.0
221.792953 168.0
222.082626 168.0
222.225937 144.0
223.087952 744.0
223.128845 156.0
223.42923 160.0
223.957794 136.0
224.204742 132.0
224.574097 160.0
225.099289 172.0
225.591385 148.0
225.980179 156.0
226.234573 152.0
227.031601 204.0
227.41864 156.0
228.201324 164.0
228.617828 228.0
228.66214 104.0
229.089005 140.0
229.488388 184.0
229.786987 168.0
230.091125 260.0
230.759537 144.0
230.947021 148.0
231.100906 512.0
231.749283 156.0
232.078125 132.0
232.109604 748.0
233.03273 160.0
233.112411 600.0
233.187714 164.0
233.391403 264.0
233.426926 140.0
233.543457 164.0
234.006027 172.0
234.101227 152.0
234.526962 236.0
234.573654 188.0
235.36969 156.0
235.518631 180.0
235.683609 144.0
235.808899 180.0
235.992325 188.0
236.325714 140.0
236.803467 132.0
237.111542 176.0
237.901047 196.0
238.103714 160.0
238.17128 140.0
238.589935 168.0
239.032135 196.0
239.509338 232.0
239.983932 176.0
240.077667 236.0
240.13504 164.0
240.434311 164.0
241.08287 152.0
241.104492 160.0
241.351807 176.0
242.098724 580.0
242.255554 152.0
242.416672 204.0
243.046158 152.0
243.101822 416.0
243.949127 164.0
244.111359 492.0
244.226715 140.0
244.749557 172.0
244.975449 152.0
245.042343 160.0
245.078827 580.0
245.115417 296.0
246.021637 176.0
246.085999 532.0
246.449524 144.0
246.77652 156.0
248.092667 176.0
249.015213 232.0
249.363968 152.0
249.540009 228.0
249.75386 160.0
249.992981 148.0
250.269989 156.0
250.44136 172.0
250.581802 184.0
250.867096 100.0
251.029404 156.0
251.206039 236.0
251.837357 168.0
251.928955 204.0
252.314529 152.0
252.579788 268.0
252.671906 148.0
253.403275 156.0
253.606094 156.0
253.729721 176.0
253.907303 156.0
255.053391 220.0
255.101151 1912.0
255.455292 104.0
255.625992 156.0
256.107483 268.0
256.361633 260.0
256.932373 152.0
257.104309 580.0
257.379242 228.0
257.867004 228.0
257.909576 188.0
257.96936 244.0
258.120026 2584.0
258.41803 168.0
258.509338 172.0
258.690094 184.0
259.12619 848.0
259.267975 148.0
259.60965 140.0
259.640747 152.0
260.11972 280.0
260.440918 156.0
260.598328 200.0
260.783539 196.0
261.103027 156.0
261.146942 164.0
261.283173 148.0
261.450256 116.0
261.724884 100.0
262.124451 408.0
262.213776 160.0
262.329834 172.0
262.68454 176.0
262.836182 140.0
262.923309 196.0
262.950073 308.0
263.115326 184.0
263.220306 140.0
265.171112 152.0
265.466125 148.0
265.868408 200.0
265.920349 144.0
265.98526 196.0
267.115814 140.0
267.737762 160.0
268.932404 224.0
269.042053 196.0
269.107025 152.0
269.277161 140.0
269.39151 160.0
269.587555 184.0
270.301758 140.0
270.839447 100.0
271.027374 144.0
271.096191 156.0
271.263367 144.0
271.773041 104.0
272.131866 1336.0
272.565247 196.0
272.615631 144.0
273.06604 176.0
273.094879 156.0
273.138489 19608.0
273.207764 188.0
273.423584 100.0
273.483887 132.0
273.894409 120.0
274.037292 104.0
274.095886 140.0
274.141113 2764.0
274.47226 144.0
275.046997 232.0
275.095825 160.0
275.141144 996.0
275.644104 140.0
275.904114 120.0
276.04892 152.0
277.307556 144.0
277.348541 256.0
277.526093 156.0
277.855927 140.0
278.516541 152.0
278.654022 168.0
279.133179 120.0
279.590485 140.0
279.938721 144.0
280.031464 256.0
280.186523 164.0
281.230286 168.0
281.762817 180.0
281.854797 172.0
282.005188 144.0
282.111267 148.0
282.506775 140.0
282.992065 168.0
283.123993 380.0
283.437561 140.0
283.598419 156.0
283.635284 184.0
283.910217 156.0
284.099945 280.0
284.685455 148.0
284.85318 200.0
285.098572 632.0
285.136108 228.0
285.179321 180.0
285.736511 180.0
285.77121 176.0
286.112701 532.0
286.282318 124.0
286.710724 180.0
286.939941 148.0
287.054565 192.0
287.116486 536.0
287.174622 128.0
287.41214 172.0
287.771118 132.0
287.810455 180.0
288.12207 108.0
289.006012 136.0
289.037476 180.0
289.414581 152.0
289.669403 172.0
290.243378 200.0
291.363434 192.0
291.523132 176.0
292.012695 156.0
292.366547 152.0
292.506104 204.0
293.432739 208.0
293.85907 148.0
294.039917 184.0
294.661407 180.0
294.699005 192.0
294.904053 188.0
295.109161 144.0
295.543549 176.0
295.916626 176.0
296.615509 180.0
297.032288 172.0
297.369019 108.0
297.703156 172.0
297.897339 136.0
298.057526 124.0
298.433197 128.0
298.732574 104.0
298.899445 324.0
299.11554 224.0
299.312531 196.0
299.61908 180.0
299.732788 228.0
299.88913 172.0
299.939575 160.0
300.087799 280.0
300.122772 364.0
300.308502 252.0
300.353241 112.0
300.727325 220.0
300.913544 148.0
300.990082 236.0
301.031982 256.0
301.078552 548.0
301.133545 95480.0
301.258362 140.0
301.365448 244.0
301.521606 104.0
301.582367 172.0
301.677948 200.0
301.825348 188.0
301.975952 144.0
302.024811 152.0
302.064117 168.0
302.136353 18084.0
302.218781 204.0
302.231903 128.0
302.243042 208.0
302.25473 164.0
302.294556 284.0
302.321198 212.0
302.371399 140.0
302.421783 424.0
302.447754 204.0
302.503723 204.0
302.543182 252.0
302.601166 408.0
302.639557 280.0
302.676025 380.0
302.708771 288.0
302.779907 352.0
302.834106 288.0
302.863373 256.0
302.89209 376.0
303.007843 684.0
303.021454 776.0
303.030396 580.0
303.070221 872.0
303.151215 226340.0
303.244385 296.0
303.278259 316.0
303.410522 152.0
303.469513 1116.0
303.495453 356.0
303.581329 792.0
303.651855 324.0
303.67981 1716.0
303.727203 4796.0
303.762817 1040.0
303.835602 428.0
303.894226 296.0
303.978851 392.0
304.050049 484.0
304.153076 116364.0
304.290314 128.0
304.335449 96.0
304.371277 152.0
304.401306 96.0
304.444305 244.0
304.487244 160.0
304.538727 180.0
304.567719 176.0
304.72345 124.0
304.750702 188.0
304.820831 256.0
304.857025 140.0
304.884796 140.0
304.932953 148.0
304.981415 164.0
305.090881 128.0
305.155762 18000.0
305.268036 144.0
305.329773 132.0
305.375488 184.0
305.537842 312.0
305.632233 220.0
305.659393 164.0
305.694977 244.0
305.734039 176.0
305.772034 100.0
305.824402 208.0
305.877136 212.0
305.910767 264.0
305.986603 344.0
306.036255 204.0
306.078461 188.0
306.095581 392.0
306.108887 268.0
306.157501 900.0
306.229462 304.0
306.269257 260.0
306.320099 112.0
306.378784 240.0
306.426727 176.0
306.495697 140.0
306.623291 100.0
306.737122 108.0
306.791107 244.0
306.821808 116.0
306.917267 136.0
306.960693 156.0
307.116547 116.0
307.283203 156.0
307.452148 164.0
308.096436 104.0
308.264496 116.0
308.450073 104.0
308.981445 120.0
309.286407 96.0
310.156006 148.0
310.62561 100.0
311.112793 188.0
312.107269 172.0
313.959381 136.0
314.228394 140.0
315.335327 120.0
315.712402 96.0
318.009216 140.0
319.516663 132.0
319.996765 160.0
321.256622 144.0
324.875061 140.0
325.672394 132.0
327.054688 140.0
327.517731 120.0
327.882019 132.0
327.919128 140.0
327.97113 140.0
327.998413 176.0
328.250793 160.0
328.314636 172.0
328.505402 236.0
328.752014 256.0
328.801331 112.0
328.950653 144.0
329.006744 204.0
329.129425 113596.0
329.233917 148.0
329.382446 200.0
329.43042 184.0
329.501862 120.0
329.595734 116.0
329.625946 104.0
329.723938 248.0
329.841644 128.0
329.902039 168.0
329.967133 128.0
330.062073 256.0
330.131683 21712.0
330.253235 176.0
330.321808 156.0
330.676636 96.0
330.707062 132.0
330.880402 132.0
331.134247 3156.0
331.569519 152.0
331.893677 96.0
331.994995 168.0
332.030853 128.0
332.103302 108.0
332.138763 336.0
332.174103 108.0
332.20575 212.0
332.25882 304.0
332.289764 244.0
332.322357 136.0
332.610504 180.0
332.986053 140.0
333.861298 128.0
334.214325 160.0
335.761444 144.0
337.784973 172.0
342.740295 248.0
343.321167 104.0
343.43042 108.0
344.816986 160.0
345.204559 120.0
345.645782 104.0
345.950989 148.0
346.002808 188.0
346.065765 164.0
346.265717 144.0
346.440796 108.0
346.633026 192.0
346.721436 192.0
346.8349 164.0
346.872467 128.0
346.935059 108.0
346.997314 216.0
347.024506 132.0
347.065765 212.0
347.140198 100760.0
347.231567 196.0
347.391754 124.0
347.5354 100.0
347.706268 96.0
347.749634 464.0
347.876221 272.0
347.947754 136.0
348.034271 192.0
348.063538 148.0
348.142303 28880.0
348.28067 188.0
348.405579 120.0
348.649902 128.0
348.740967 96.0
349.143921 3072.0
349.223877 176.0
349.406158 172.0
349.611664 104.0
349.903656 112.0
349.951538 100.0
349.980103 116.0
350.144073 612.0
350.237335 248.0
350.417877 156.0
350.48114 116.0
350.6073 108.0
350.63916 100.0
350.703613 136.0
351.422974 116.0
352.86203 100.0
353.873718 148.0
355.03537 156.0
362.03006 152.0
364.655457 152.0
368.537109 108.0
379.160034 180.0
410.190002 140.0
552.391174 140.0
650.307312 148.0
718.028381 148.0
763.5495 144.0
929.346252 196.0
937.342346 144.0
961.616333 144.0
971.895508 144.0
974.63385 184.0
987.200989 168.0
1024.060059 172.0
1029.398193 228.0
1035.934937 224.0
1063.268677 164.0
1161.491821 148.0
1182.991699 192.0
1220.525757 160.0
1222.139526 148.0
1257.551758 188.0
1263.105591 180.0
1301.047119 148.0
1321.588501 152.0
1356.122803 156.0
1374.272583 184.0
1377.368896 192.0
1385.673828 184.0
1385.999878 200.0
1394.014038 184.0
1408.595093 208.0
1408.908813 164.0
1417.393555 168.0
1425.618286 172.0
1428.046631 200.0
1435.525269 228.0
1440.113892 148.0
1445.769287 164.0
1451.102051 144.0
1461.363281 176.0
1461.77417 140.0
1474.033203 124.0
1474.288574 176.0
1475.488647 176.0
1478.005005 144.0
1490.258057 204.0
1495.910889 236.0
1510.07019 200.0
1519.629639 208.0
1522.610596 140.0
1526.542969 212.0
1528.370972 180.0
1530.963257 168.0
1533.456299 168.0
1542.291992 192.0
1551.380371 192.0
1551.435181 164.0
1554.439209 156.0
1557.697632 176.0
1566.665771 160.0
1567.437866 168.0
1571.703857 164.0
1574.285156 140.0
1579.928833 176.0
1580.071289 164.0
1589.595459 204.0
1592.747437 232.0
1593.049316 192.0
1594.511353 148.0
1595.799072 196.0
1595.95813 176.0
1598.392212 176.0
1600.732544 140.0
1601.831665 184.0
1602.16626 160.0
1602.22998 180.0
1605.195068 204.0
1605.482178 144.0
1607.907471 220.0
1612.100342 160.0
1612.44397 148.0
1613.739014 180.0
1615.090576 180.0
1615.930542 176.0
1619.821289 188.0
1622.27356 248.0
1624.952148 196.0
1625.401489 148.0
1625.521851 160.0
1630.597412 152.0
1631.85144 212.0
1635.117432 152.0
1636.019043 156.0
1639.265015 204.0
1640.393433 200.0
1641.28833 152.0
1641.417358 188.0
1642.796509 160.0
1644.017334 216.0
1650.606812 152.0
1653.470581 144.0
1655.640381 224.0
1659.578735 168.0
1671.120605 192.0
1671.185669 164.0
1672.4552 192.0
1673.236816 144.0
1673.489136 140.0
1673.676392 156.0
1674.244019 196.0
1674.694458 180.0
1684.049927 152.0
1686.010864 200.0
1686.440552 152.0
1686.713745 196.0
1691.474609 156.0
1692.629028 152.0
1697.996826 168.0
1698.201782 152.0
1700.942505 164.0
1703.463501 148.0
1704.268677 172.0
1707.589844 188.0
1708.387695 156.0
1715.412231 152.0
1717.779053 180.0
1718.653564 140.0
1721.258301 168.0
1727.187744 160.0
1734.126587 144.0
1734.225952 188.0
1738.298096 200.0
1739.833618 168.0
1741.469604 196.0
1741.868286 160.0
1743.081299 156.0
1743.481201 164.0
1743.613159 144.0
1743.837524 140.0
1748.994629 140.0
1750.068481 152.0
1750.917969 140.0
1751.992432 144.0
1754.109131 144.0
1762.923096 188.0
1764.201904 228.0
1764.946045 148.0
1766.459839 144.0
1768.158447 216.0
1769.137817 156.0
1770.117432 148.0
1770.427246 152.0
1771.801025 188.0
1775.237671 196.0
1776.185425 148.0
1779.407959 236.0
1782.246948 144.0
1782.927612 140.0
1786.863037 148.0
1788.924927 148.0
1789.219482 152.0
1789.783691 176.0
1790.314209 144.0
1792.807861 164.0
1793.010132 148.0
1795.42981 208.0
1797.412231 212.0
1798.897705 176.0
1801.549438 184.0
1803.210693 200.0
1805.750488 200.0
1806.613281 156.0
1808.669678 144.0
1808.74585 200.0
1810.041138 140.0
1814.633667 160.0
1815.074585 196.0
1815.151001 144.0
1815.863281 152.0
1816.143188 160.0
1816.440063 140.0
1816.923706 160.0
1822.544434 160.0
1825.613159 212.0
1827.118774 212.0
1828.66748 212.0
1830.157227 196.0
1835.568237 240.0
1835.994629 184.0
1838.997803 148.0
1840.654053 220.0
1843.989624 132.0
1844.148193 224.0
1844.262817 120.0
1847.337769 172.0
1854.230713 160.0
1856.236816 140.0
1857.274536 180.0
1857.866455 204.0
1859.205078 156.0
1860.110962 140.0
1860.964844 164.0
1861.737671 280.0
1864.186035 156.0
1868.14978 208.0
1868.975708 152.0
1870.025635 144.0
1871.127563 156.0
1872.970459 184.0
1877.857666 188.0
1878.151001 152.0
1878.306274 156.0
1878.815186 180.0
1880.610107 212.0
1881.965454 172.0
1882.414551 156.0
1883.46814 224.0
1887.486938 176.0
1888.741089 172.0
1890.627197 156.0
1894.922241 212.0
1895.017578 272.0
1895.849365 192.0
1895.970703 144.0
1897.106201 172.0
1897.375 168.0
1900.47998 156.0
1902.02478 200.0
1902.259155 168.0
1909.13208 140.0
1910.558594 180.0
1911.463501 140.0
1911.724487 168.0
1912.26416 192.0
1912.873413 184.0
1913.082397 172.0
1916.581299 168.0
1917.821167 164.0
1918.727783 140.0
1919.756592 144.0
1920.532837 148.0
1925.193481 176.0
1926.52124 216.0
1927.19397 144.0
1932.991333 176.0
1938.762451 156.0
1941.050537 192.0
1944.638672 184.0
1950.16333 204.0
1952.220703 176.0
1953.855469 168.0
1955.625488 172.0
1960.716309 144.0
1961.04248 204.0
1963.784546 144.0
1963.969849 176.0
1966.334473 156.0
1973.47229 148.0
1973.640259 168.0
1974.710327 172.0
1975.037598 144.0
1975.152588 164.0
1975.312988 116.0
1977.12561 156.0
1979.692993 160.0
1980.968506 148.0
1981.305176 184.0
1981.473511 140.0
1982.270996 184.0
1987.946411 140.0
1988.647583 164.0
1992.537109 148.0
1994.03894 152.0
1994.429932 160.0
1997.657959 144.0
1998.865479 204.0
2001.164429 208.0
