>compound MLS002222329-01!26305-03-3
>formula C34H63N5O9
>ionization [M+Na]+
>parentmass 708.453186
#inchi InChI=1S/C34H63N5O9/c1-17(2)12-23(37-33(47)31(21(9)10)39-34(48)30(20(7)8)38-27(42)14-19(5)6)25(40)15-28(43)35-22(11)32(46)36-24(13-18(3)4)26(41)16-29(44)45/h17-26,30-31,40-41H,12-16H2,1-11H3,(H,35,43)(H,36,46)(H,37,47)(H,38,42)(H,39,48)(H,44,45)/t22-,23-,24-,25-,26-,30-,31-/m0/s1
#inchikey FAXGPCHRFPCXOO
#Ion_Source LC-ESI
#Instrument qTof
#Compound_Source NIH Pharmacologically Active Library
#PI Dorrestein
#Data_Collector VP/LMS
#Scan -1
#Precursor_MZ 708.464
#ExactMass 685.463
#Charge 1
#CAS_Number N/A
#Pubmed_ID N/A
#Smiles CC(C)C[C@H](NC(=O)[C@H](C)NC(=O)C[C@H](O)[C@H](CC(C)C)NC(=O)[C@@H](NC(=O)[C@@H](NC(=O)CC(C)C)C(C)C)C(C)C)[C@@H](O)CC(=O)O
#INCHI_AUX N/A
#Library_Class 1
#SpectrumID CCMSLIB00000086130
#IonMode Positive
#UpdateWorkflowName UPDATE-SINGLE-ANNOTATED-GOLD
#LibraryQualityString Gold
#TaskID d252d724072548979f1f6f1ced849daf
##Scan# 1901
#SpectrumFile p5-F03_GF3_01_18466.mzXML
#LibraryName Pharm_Active_Library.mgf
#MQScore -1
#Organism Pharm_Active_Library
#TIC_Query 0
#RT_Query -1
#MZErrorPPM -1
#SharedPeaks 0
#MassDiff 0
#LibMZ -1
#SpecMZ 708.464
#SpecCharge 0
#internalFilename spec-00000.mgf

>collision 10
45.087593 196.0
45.348572 76.0
45.720592 132.0
45.930775 164.0
46.389179 240.0
46.632149 92.0
46.732292 56.0
47.299129 116.0
47.986012 104.0
48.00256 136.0
48.034279 140.0
48.376984 80.0
48.443451 204.0
49.524387 124.0
50.525249 56.0
51.081345 176.0
51.411896 136.0
52.176781 172.0
52.848881 56.0
52.889404 120.0
52.948765 132.0
53.198158 60.0
53.214127 148.0
53.483063 116.0
53.614143 128.0
53.856335 52.0
54.194263 84.0
54.34235 200.0
54.533253 76.0
54.709766 228.0
54.804024 164.0
54.961792 120.0
55.023781 52.0
55.323891 132.0
55.694607 172.0
55.942932 152.0
56.450218 80.0
57.159744 152.0
57.420361 76.0
59.422268 216.0
59.868027 76.0
59.937347 100.0
60.136284 184.0
60.607952 120.0
60.929115 104.0
61.638039 144.0
62.624821 136.0
62.910225 168.0
63.52898 144.0
63.845058 148.0
64.346992 156.0
64.594688 144.0
64.985588 152.0
65.167015 52.0
65.625725 44.0
65.927582 164.0
66.061783 80.0
66.343559 128.0
66.463577 100.0
66.630806 176.0
66.684433 172.0
66.702309 160.0
66.804756 132.0
67.380234 80.0
67.403107 204.0
67.718842 136.0
67.772903 216.0
68.105927 96.0
68.186432 232.0
68.350876 164.0
68.611115 64.0
68.774422 104.0
68.93792 156.0
69.23735 180.0
69.593872 68.0
69.890289 112.0
70.11454 76.0
70.403145 120.0
70.694023 104.0
71.275902 140.0
71.487778 56.0
71.806183 112.0
71.834854 84.0
72.106697 120.0
73.052841 212.0
73.241791 152.0
74.402916 112.0
74.798294 136.0
74.944679 156.0
75.132607 184.0
75.232697 52.0
75.580086 168.0
75.687401 56.0
76.086182 136.0
76.486 56.0
76.566093 156.0
76.604408 120.0
76.654938 176.0
76.808357 180.0
77.117409 44.0
77.136642 96.0
77.222313 96.0
77.47963 128.0
77.644402 148.0
78.20134 100.0
78.698463 184.0
79.305237 92.0
79.495003 152.0
81.202316 44.0
81.753853 72.0
82.500572 128.0
82.536736 160.0
83.047432 216.0
83.325165 176.0
83.366959 48.0
83.588814 76.0
83.858337 92.0
83.882034 128.0
84.27623 128.0
84.524902 64.0
85.032524 60.0
85.105957 184.0
85.431259 116.0
86.272179 100.0
87.094925 40.0
87.120934 88.0
87.805916 60.0
88.549751 208.0
88.827156 136.0
89.155731 136.0
89.66951 96.0
89.948662 120.0
90.177208 116.0
90.765961 100.0
91.016434 136.0
91.316689 124.0
91.476517 184.0
92.082863 112.0
92.534142 124.0
93.374619 60.0
93.719193 224.0
93.736534 116.0
94.168671 132.0
94.448936 184.0
96.164612 132.0
96.676651 128.0
96.980217 132.0
97.425652 116.0
98.037567 172.0
98.061218 200.0
98.483444 164.0
98.811592 104.0
98.904602 184.0
98.969933 144.0
99.061035 224.0
99.150192 136.0
99.22155 32.0
99.28302 48.0
99.3088 196.0
99.33062 96.0
99.455627 108.0
99.634346 136.0
99.648254 128.0
99.674088 40.0
100.728004 124.0
101.242027 108.0
101.37825 72.0
101.412315 64.0
101.757347 224.0
102.060738 184.0
102.225685 124.0
102.25386 104.0
102.800003 96.0
103.125153 128.0
104.302788 140.0
104.467491 136.0
105.276657 104.0
105.329765 56.0
105.45031 64.0
105.577065 80.0
105.59343 132.0
105.925011 136.0
105.976227 96.0
106.062302 152.0
106.170959 124.0
106.322777 56.0
106.378189 140.0
106.423355 84.0
106.743904 112.0
106.976395 36.0
107.946098 160.0
108.897331 52.0
109.007439 104.0
109.82354 64.0
109.87986 72.0
109.982109 108.0
110.222275 92.0
110.322601 40.0
110.546394 116.0
110.877274 128.0
111.740303 124.0
112.035042 144.0
112.61512 112.0
112.636246 40.0
112.67849 248.0
114.126083 332.0
114.52404 128.0
115.025116 88.0
115.127602 64.0
115.155365 92.0
115.356216 168.0
115.392563 96.0
115.561523 244.0
115.987686 152.0
116.337341 112.0
116.769234 28.0
116.93705 112.0
117.497307 120.0
117.708824 88.0
118.037277 96.0
118.136765 68.0
118.394333 116.0
118.431152 92.0
118.467979 144.0
118.608826 96.0
119.025368 176.0
119.192627 84.0
119.705986 104.0
119.740829 144.0
120.264091 112.0
120.44751 92.0
120.567673 172.0
120.624504 168.0
120.797249 104.0
121.228569 140.0
121.478516 108.0
121.805595 160.0
121.8843 184.0
121.950607 156.0
122.025352 116.0
122.485291 176.0
123.394485 180.0
123.728561 152.0
123.810486 132.0
124.069313 148.0
124.360313 216.0
124.380295 68.0
124.766815 116.0
124.96476 36.0
125.430191 136.0
125.704514 120.0
125.900963 200.0
126.292084 128.0
126.818245 64.0
127.035751 172.0
127.0896 172.0
128.056229 64.0
128.072006 216.0
128.306351 140.0
129.261765 60.0
129.579285 220.0
129.617279 140.0
129.646729 48.0
129.873444 132.0
129.968735 72.0
130.113983 32.0
130.13443 44.0
130.157135 112.0
130.575272 120.0
130.602554 200.0
130.902969 116.0
131.210571 112.0
132.368988 180.0
132.407913 148.0
132.433105 200.0
132.547653 160.0
132.797531 84.0
132.90535 204.0
132.923706 168.0
132.942062 92.0
133.258942 260.0
133.822433 128.0
133.919159 148.0
134.025131 108.0
134.274094 140.0
134.749603 168.0
135.20195 32.0
135.302353 164.0
135.89566 120.0
135.958313 224.0
136.076691 168.0
136.109207 136.0
136.246231 92.0
136.336853 124.0
136.522827 108.0
137.12114 28.0
138.124557 224.0
138.302963 120.0
138.483261 68.0
138.820724 176.0
138.907516 176.0
139.130447 120.0
139.198532 140.0
139.424057 200.0
140.071671 280.0
140.106033 1048.0
140.134689 56.0
140.273727 128.0
140.939255 108.0
141.029068 120.0
141.071609 140.0
141.119827 192.0
141.154358 116.0
141.246597 144.0
141.367264 196.0
141.530594 172.0
141.568481 116.0
141.757996 104.0
141.873215 140.0
141.912064 116.0
142.011658 168.0
142.03537 152.0
142.054352 76.0
142.260803 104.0
142.491165 156.0
142.552948 28.0
142.93103 92.0
143.078598 172.0
143.121445 184.0
143.205383 180.0
143.495529 132.0
144.010971 224.0
144.481873 156.0
144.900833 152.0
144.929581 208.0
145.195663 92.0
145.226852 164.0
145.334808 124.0
145.406799 32.0
145.531616 232.0
145.755005 108.0
145.807861 68.0
145.894394 176.0
147.499863 164.0
147.604218 148.0
148.041809 180.0
148.757065 172.0
149.347519 112.0
149.693115 148.0
149.727203 164.0
150.522186 108.0
150.93515 236.0
151.089233 172.0
152.106201 212.0
152.238785 152.0
152.50412 164.0
153.286728 140.0
153.363129 96.0
153.957703 172.0
154.050369 140.0
154.380295 164.0
154.523758 140.0
154.684616 172.0
154.701935 104.0
154.7267 132.0
154.840607 172.0
154.999146 224.0
155.048706 172.0
155.205185 168.0
155.239594 184.0
155.351212 116.0
155.969513 32.0
156.138214 332.0
156.566635 120.0
156.671249 128.0
156.890549 220.0
157.032684 136.0
157.132462 176.0
157.197342 160.0
157.726807 148.0
158.047424 152.0
158.119781 676.0
158.187073 180.0
158.209595 160.0
158.620422 120.0
159.054382 180.0
159.124664 188.0
159.172379 72.0
159.501495 76.0
159.713242 184.0
159.984467 80.0
160.105331 168.0
160.153183 156.0
160.170807 88.0
160.692642 148.0
161.665466 156.0
161.711014 212.0
161.761642 140.0
161.781891 144.0
162.08934 144.0
162.202408 88.0
162.398956 104.0
162.64122 160.0
163.067917 152.0
163.210281 148.0
163.250961 172.0
163.309464 92.0
163.574081 184.0
164.175385 180.0
164.21109 180.0
164.246796 44.0
164.346283 148.0
164.70369 252.0
164.836548 148.0
164.872314 96.0
164.984787 64.0
165.00267 140.0
165.122864 236.0
165.140762 156.0
165.575851 196.0
166.123901 244.0
166.743179 184.0
167.257584 112.0
167.571762 144.0
167.646484 120.0
167.963608 52.0
168.043579 136.0
168.221649 92.0
168.508301 80.0
168.547058 124.0
168.756424 60.0
168.844345 60.0
169.00473 64.0
169.025421 196.0
169.354202 72.0
169.382706 168.0
169.659973 244.0
169.696274 176.0
170.768753 116.0
170.867599 60.0
171.143478 44.0
171.414383 56.0
171.44043 120.0
171.583801 76.0
171.833588 180.0
172.066452 172.0
172.348526 128.0
172.400787 80.0
173.175186 44.0
173.678421 204.0
173.7099 136.0
174.040588 152.0
174.224426 136.0
174.471466 172.0
175.297928 116.0
175.374344 52.0
175.434982 188.0
175.711884 88.0
176.128052 908.0
176.160675 184.0
176.332428 44.0
176.37735 132.0
176.999069 112.0
177.107651 220.0
177.131821 128.0
178.057159 116.0
178.123535 1012.0
178.426514 124.0
178.578079 128.0
178.745682 164.0
178.969269 88.0
179.051819 112.0
179.131714 144.0
179.376877 140.0
179.508377 212.0
179.774277 96.0
179.969131 132.0
180.007385 100.0
180.09198 176.0
180.135925 200.0
180.340454 60.0
180.468781 232.0
180.653305 80.0
180.800476 108.0
181.160736 160.0
181.18605 112.0
181.612274 268.0
182.057785 120.0
182.122238 132.0
182.17865 188.0
182.310303 56.0
182.476959 120.0
182.530731 96.0
182.589844 216.0
182.659821 152.0
183.149048 144.0
183.753571 104.0
183.777847 148.0
183.804825 72.0
183.89119 116.0
184.133118 776.0
184.374619 112.0
184.398941 148.0
184.442184 88.0
184.536804 236.0
185.135849 180.0
185.256699 160.0
185.329849 124.0
185.403 160.0
185.812454 64.0
186.075699 144.0
186.113358 440.0
186.225052 188.0
186.263077 104.0
186.389908 228.0
186.643555 144.0
186.935394 140.0
187.043488 88.0
187.111069 184.0
187.215012 108.0
187.450226 128.0
187.539612 56.0
187.610092 176.0
187.800964 124.0
188.17482 140.0
188.355057 160.0
188.420624 144.0
188.562714 148.0
188.592773 108.0
189.022141 56.0
189.293137 104.0
189.923477 176.0
189.983826 92.0
190.123764 140.0
190.324142 144.0
190.499908 44.0
190.846207 128.0
190.969955 172.0
191.330429 140.0
191.743607 144.0
192.137909 180.0
192.574051 100.0
192.800598 136.0
192.84758 148.0
192.97197 148.0
193.115768 184.0
193.505951 176.0
193.625015 140.0
193.929779 108.0
194.087799 284.0
194.121078 180.0
194.153564 184.0
194.32634 104.0
194.465088 132.0
194.664963 92.0
194.870514 160.0
195.020569 196.0
195.115082 164.0
195.265244 128.0
195.329208 120.0
195.462753 128.0
195.763397 52.0
196.334671 32.0
196.722504 40.0
197.303574 152.0
197.376266 80.0
197.56366 116.0
197.71756 32.0
197.829514 136.0
197.865906 116.0
197.949905 136.0
198.05072 152.0
198.126358 156.0
198.443054 64.0
198.510345 72.0
198.908752 176.0
199.25415 120.0
199.336304 152.0
199.383408 196.0
199.723618 100.0
199.85257 176.0
199.949707 144.0
199.990906 108.0
200.127869 160.0
200.354172 40.0
200.698013 160.0
200.988541 124.0
201.165756 204.0
201.450287 116.0
201.589996 32.0
201.988632 196.0
202.086472 196.0
202.15274 68.0
202.846634 104.0
202.900497 148.0
202.968536 112.0
203.002563 56.0
203.169907 140.0
203.521835 156.0
203.713501 296.0
203.785995 72.0
204.097504 136.0
204.156906 148.0
204.18396 224.0
204.21524 180.0
204.750305 144.0
204.904114 80.0
205.128571 472.0
205.243286 32.0
205.325989 112.0
205.365921 164.0
205.599869 72.0
205.659805 264.0
205.759705 88.0
205.871063 120.0
206.116257 504.0
206.622803 180.0
207.063629 160.0
207.108047 220.0
207.145096 416.0
207.226898 84.0
207.292801 120.0
207.321457 92.0
207.464767 112.0
207.665497 40.0
207.757278 152.0
207.983978 148.0
208.052872 116.0
208.098801 196.0
208.144745 176.0
208.184952 168.0
208.420502 108.0
208.480835 152.0
208.679184 48.0
209.004196 96.0
209.03009 164.0
209.194138 164.0
209.398575 156.0
209.450424 164.0
209.528198 136.0
209.562775 184.0
210.101486 136.0
210.214432 64.0
210.523315 140.0
210.583969 136.0
210.667725 84.0
211.00296 48.0
211.104156 108.0
211.144638 1076.0
211.358719 180.0
211.399231 128.0
211.529465 56.0
211.668442 76.0
211.781387 200.0
211.900146 152.0
212.071121 168.0
212.098572 136.0
212.146057 420.0
212.20462 76.0
212.236359 168.0
212.439377 96.0
212.572845 164.0
212.607666 144.0
212.732468 132.0
212.790527 176.0
212.851501 116.0
213.110016 100.0
213.15361 140.0
213.191376 120.0
213.217529 100.0
213.473358 52.0
213.546066 196.0
213.861664 172.0
213.901047 136.0
214.146271 288.0
214.180573 140.0
214.36412 148.0
215.043625 180.0
215.175583 308.0
215.730057 104.0
215.823608 132.0
215.885025 192.0
216.121948 108.0
216.282913 256.0
216.361954 164.0
216.540848 212.0
216.739777 68.0
216.962524 184.0
217.038742 132.0
217.475861 176.0
217.607956 120.0
217.810593 104.0
218.277878 136.0
218.336685 132.0
218.445511 144.0
218.507294 80.0
219.520538 148.0
219.550018 148.0
219.614914 60.0
219.715195 164.0
219.921768 156.0
220.335175 228.0
220.648438 136.0
220.805161 120.0
220.914597 108.0
221.077332 100.0
221.13356 156.0
221.334869 212.0
221.385208 144.0
221.527374 52.0
221.669968 96.0
221.797028 156.0
221.971954 124.0
222.146927 160.0
222.461487 180.0
222.500076 100.0
222.531097 116.0
223.137421 312.0
223.341049 180.0
223.425217 164.0
223.611801 96.0
224.126556 404.0
224.154602 148.0
224.466797 124.0
224.6875 148.0
224.878479 228.0
225.087448 172.0
225.129639 148.0
225.260681 48.0
225.589386 68.0
225.640213 128.0
225.694031 180.0
225.720932 92.0
226.082443 152.0
226.121811 32.0
226.226562 160.0
226.648849 128.0
226.771729 168.0
226.804688 148.0
227.056549 124.0
227.239517 120.0
227.266525 100.0
227.638733 76.0
227.984192 148.0
228.754166 176.0
229.049271 40.0
229.09021 196.0
229.153839 1340.0
229.489258 44.0
229.621948 188.0
229.944763 44.0
230.002106 208.0
230.029282 36.0
230.10173 148.0
230.155243 248.0
230.491364 112.0
230.612244 140.0
230.736176 196.0
230.772461 96.0
230.866196 212.0
230.975067 52.0
231.141464 116.0
231.265549 168.0
231.304901 144.0
231.356354 104.0
231.737961 132.0
232.198715 236.0
232.295776 224.0
232.374649 100.0
232.505127 132.0
232.526382 112.0
232.681183 108.0
232.78746 108.0
233.006149 168.0
233.128616 472.0
233.337418 112.0
233.401276 76.0
233.598953 36.0
233.915619 124.0
233.964127 180.0
234.079834 44.0
234.123764 176.0
234.189468 48.0
234.332642 172.0
234.552063 220.0
234.844772 72.0
234.978989 168.0
235.003403 100.0
235.143768 164.0
235.184097 188.0
235.394104 156.0
236.054138 32.0
236.133652 128.0
236.234589 104.0
236.497742 76.0
236.562393 136.0
236.644684 60.0
236.800858 44.0
236.932571 268.0
237.003036 124.0
237.033691 112.0
237.136612 204.0
237.159348 660.0
237.285019 132.0
237.343277 120.0
237.880173 108.0
237.910873 136.0
238.092026 200.0
238.152145 188.0
238.190308 132.0
238.319336 212.0
238.663589 80.0
238.795822 60.0
239.105179 764.0
239.140671 372.0
239.178894 288.0
239.303558 84.0
239.534531 148.0
239.583817 52.0
240.076981 88.0
240.116486 148.0
240.163513 296.0
240.604614 144.0
240.712677 116.0
240.851654 136.0
241.095734 200.0
241.155411 168.0
241.315201 144.0
241.865845 124.0
241.961807 128.0
242.008255 156.0
242.104248 176.0
242.367554 120.0
243.000061 168.0
243.049698 276.0
243.149002 124.0
243.235916 168.0
243.263855 116.0
244.009445 48.0
244.407547 76.0
244.547592 36.0
244.880737 96.0
244.908768 196.0
245.326309 152.0
245.535233 148.0
245.781662 168.0
246.384247 52.0
246.540482 96.0
246.83432 132.0
247.160629 1112.0
247.973831 188.0
248.067871 40.0
248.159393 292.0
248.28421 80.0
248.350082 100.0
248.522614 232.0
248.867874 108.0
248.918121 124.0
248.971497 132.0
249.091782 824.0
249.158432 436.0
249.603134 132.0
249.652069 164.0
250.092606 208.0
250.155518 260.0
250.204071 148.0
250.512695 128.0
250.607208 288.0
250.708054 80.0
250.793427 132.0
250.884552 168.0
251.016983 152.0
251.064285 72.0
251.137894 332.0
251.281921 120.0
251.872253 96.0
251.919632 96.0
252.10289 128.0
252.140015 188.0
252.403198 204.0
252.460114 80.0
252.596115 200.0
252.618256 112.0
252.659378 164.0
252.681534 124.0
252.719498 96.0
252.760635 168.0
252.937851 188.0
253.118317 132.0
253.184814 52.0
253.283005 200.0
253.605133 120.0
253.6474 64.0
253.76152 136.0
253.805908 168.0
253.916901 152.0
254.069153 168.0
254.103683 104.0
254.380157 128.0
254.66275 216.0
254.735809 100.0
255.098068 196.0
255.132782 100.0
255.206161 112.0
255.257034 220.0
255.301559 68.0
255.361984 88.0
255.613297 80.0
255.643921 164.0
256.129059 196.0
256.323395 176.0
256.495483 112.0
256.578369 164.0
256.629395 164.0
256.664459 176.0
256.90686 168.0
257.117645 532.0
257.186615 608.0
257.257874 128.0
257.503754 60.0
257.532501 88.0
257.609161 84.0
257.903137 208.0
257.989441 60.0
258.015015 192.0
258.141907 180.0
258.182037 276.0
258.219666 200.0
259.186432 168.0
259.510162 128.0
259.535797 84.0
259.590332 148.0
259.721802 172.0
259.972046 152.0
260.006073 224.0
260.097229 72.0
260.174255 128.0
260.196747 156.0
260.228851 224.0
260.439545 132.0
260.556427 152.0
260.636749 80.0
260.697815 164.0
261.132599 116.0
261.193054 208.0
261.295868 48.0
261.3927 128.0
261.466431 152.0
261.688538 68.0
261.765808 136.0
261.798004 124.0
261.955841 184.0
262.455383 156.0
262.787598 184.0
263.12323 96.0
263.149078 136.0
263.178711 196.0
263.737 128.0
263.869537 136.0
264.209137 172.0
264.293243 188.0
264.587769 128.0
264.620148 124.0
264.840363 116.0
264.863007 100.0
264.999084 148.0
265.127289 148.0
265.174072 136.0
265.332916 180.0
265.363434 152.0
266.108307 160.0
266.225189 164.0
266.290161 92.0
266.533783 100.0
266.802826 176.0
266.881592 224.0
267.037689 76.0
267.100952 448.0
267.135254 200.0
267.297943 96.0
267.483459 144.0
267.548553 104.0
267.734161 76.0
267.781647 212.0
267.825348 244.0
267.85141 92.0
267.997986 96.0
268.112976 172.0
268.182373 140.0
268.22937 136.0
268.304352 68.0
268.418488 92.0
268.581543 84.0
268.603394 180.0
268.682678 116.0
268.747925 84.0
269.104248 232.0
269.147095 424.0
269.185303 204.0
269.257141 120.0
270.148682 200.0
270.24762 116.0
270.306519 88.0
270.430878 240.0
270.627289 212.0
270.777924 160.0
270.938446 148.0
271.095703 152.0
271.121918 200.0
271.167816 188.0
271.436615 144.0
271.600616 112.0
271.630127 148.0
271.656372 124.0
272.125671 64.0
272.348969 76.0
272.421234 100.0
272.463959 140.0
272.588806 172.0
272.667664 48.0
272.832031 128.0
272.996429 136.0
273.065491 124.0
273.114807 140.0
273.35498 184.0
273.404358 80.0
273.549164 100.0
273.756592 152.0
273.904785 96.0
274.085999 76.0
274.130035 76.0
274.287018 136.0
274.33316 128.0
274.557373 124.0
274.961945 108.0
275.135925 548.0
275.159576 192.0
275.24707 100.0
275.352753 184.0
275.484863 36.0
275.650055 116.0
275.683105 156.0
275.719452 76.0
276.41391 48.0
276.828522 128.0
276.917114 136.0
276.973419 160.0
277.066162 60.0
277.112549 120.0
277.186615 2900.0
277.278229 132.0
277.354462 96.0
277.530182 116.0
277.695984 56.0
277.785553 112.0
277.928192 120.0
278.037689 148.0
278.192322 1212.0
278.602173 100.0
278.834778 52.0
278.884613 148.0
278.907898 128.0
279.000977 136.0
279.121704 176.0
279.165802 160.0
279.213776 40.0
279.499847 100.0
279.526459 80.0
279.596344 160.0
279.676239 152.0
279.742798 56.0
279.975891 84.0
280.199036 112.0
280.678986 152.0
280.749023 196.0
280.829071 104.0
280.86911 180.0
281.108856 144.0
281.146027 200.0
281.172699 128.0
281.803833 120.0
281.840576 80.0
282.071167 160.0
282.216003 352.0
282.425629 84.0
282.546051 92.0
282.602905 132.0
282.842285 152.0
282.924225 160.0
283.004578 64.0
283.041382 144.0
283.068176 60.0
283.200928 600.0
283.292572 108.0
283.466797 136.0
283.647797 148.0
283.70813 140.0
283.872406 124.0
284.123932 176.0
284.200012 320.0
284.378998 64.0
284.751678 136.0
284.842346 160.0
285.027893 176.0
285.067474 168.0
285.113037 500.0
285.171631 128.0
285.201904 88.0
285.289307 52.0
285.393524 128.0
285.54483 200.0
285.709656 168.0
285.958649 80.0
286.056274 52.0
286.106781 160.0
286.689972 112.0
287.00296 116.0
287.124359 184.0
287.164825 104.0
287.299774 88.0
287.380737 164.0
287.674347 208.0
288.164032 176.0
288.32196 152.0
288.458038 148.0
288.742065 48.0
288.775879 108.0
288.870605 152.0
288.904419 112.0
288.995758 112.0
289.046509 200.0
289.100677 136.0
289.215729 124.0
289.330841 136.0
289.889709 72.0
289.923584 92.0
290.025269 172.0
290.123566 108.0
290.259186 116.0
290.381256 180.0
290.645874 108.0
290.676392 164.0
290.985291 56.0
291.16864 160.0
291.216187 76.0
291.284119 176.0
291.39624 96.0
291.593323 128.0
291.65451 72.0
292.011505 120.0
292.04892 132.0
292.161163 188.0
292.266632 72.0
292.525299 176.0
292.702332 124.0
292.961182 228.0
293.053162 176.0
293.106323 172.0
293.148071 356.0
293.192871 184.0
293.325806 40.0
293.479218 140.0
293.55423 84.0
293.673584 180.0
293.721344 120.0
293.861206 52.0
293.891907 64.0
294.021576 132.0
294.159607 376.0
294.183472 300.0
294.270416 192.0
294.444916 140.0
294.598633 108.0
294.810455 172.0
294.909576 176.0
295.025787 104.0
295.129852 392.0
295.186493 152.0
295.282257 120.0
295.576447 52.0
295.685944 124.0
295.805756 72.0
295.987213 144.0
296.120758 152.0
296.463348 140.0
296.555878 96.0
296.819855 144.0
297.181458 368.0
297.454559 88.0
297.93634 108.0
298.110535 164.0
298.148346 188.0
298.282379 192.0
298.495544 168.0
298.695038 124.0
298.743195 132.0
298.81543 168.0
299.131592 176.0
299.17453 220.0
299.331726 180.0
299.379944 88.0
299.421265 108.0
299.448822 108.0
299.686493 204.0
299.872589 180.0
299.900146 92.0
300.038055 52.0
300.079407 172.0
300.134583 152.0
300.16217 48.0
300.227112 864.0
300.382904 88.0
300.453583 172.0
300.60025 112.0
300.74176 128.0
300.862579 220.0
301.049011 116.0
301.192474 120.0
301.23587 124.0
301.51886 184.0
301.736603 136.0
301.850708 116.0
301.892212 164.0
302.058228 216.0
302.238129 100.0
302.532318 108.0
302.989441 152.0
303.121826 156.0
303.21814 148.0
303.627228 160.0
303.745148 104.0
303.786774 144.0
303.856171 44.0
303.897797 124.0
304.033142 68.0
304.154602 80.0
304.200226 152.0
304.682434 100.0
304.772766 48.0
304.814453 144.0
304.929138 144.0
305.040375 124.0
305.134247 124.0
305.181549 388.0
305.346344 52.0
305.659363 172.0
305.725555 128.0
305.822998 184.0
305.882172 80.0
305.916992 164.0
306.176239 192.0
306.202515 124.0
306.425446 184.0
306.603149 144.0
306.746063 148.0
306.770447 108.0
306.941284 116.0
306.969177 232.0
307.025604 144.0
307.070312 192.0
307.129608 112.0
307.188904 88.0
307.216827 88.0
307.71936 168.0
307.76825 128.0
307.838074 104.0
308.169922 112.0
308.425018 144.0
308.480957 152.0
308.61795 132.0
309.005524 200.0
309.065002 196.0
309.1315 148.0
309.169983 92.0
309.205505 132.0
309.35199 88.0
309.628601 104.0
309.898315 132.0
310.04361 240.0
310.126099 68.0
310.152618 128.0
310.215973 400.0
310.595947 132.0
310.620514 132.0
310.753815 76.0
311.017029 232.0
311.052124 140.0
311.111786 172.0
311.157806 3044.0
311.437103 120.0
311.522675 116.0
311.610504 140.0
311.902161 128.0
312.158234 528.0
312.229156 196.0
312.510559 140.0
312.552795 80.0
312.749847 92.0
312.806183 68.0
312.918823 44.0
313.052643 164.0
313.161255 176.0
313.330902 168.0
313.468292 224.0
313.50354 180.0
313.538788 76.0
313.581085 112.0
313.66214 104.0
313.887787 116.0
313.990051 132.0
314.057068 100.0
314.45575 92.0
314.72757 72.0
314.829987 212.0
314.918274 140.0
315.181183 196.0
315.342255 136.0
315.391724 48.0
315.462433 104.0
315.77005 152.0
315.97522 128.0
316.09198 120.0
316.21228 168.0
316.637146 168.0
317.055176 104.0
317.157318 132.0
317.243042 136.0
317.345856 156.0
317.445129 136.0
317.787659 164.0
318.088928 184.0
318.244446 196.0
318.438812 136.0
318.605774 136.0
318.793121 164.0
319.039337 108.0
319.157867 152.0
319.195312 296.0
319.263336 136.0
319.462524 172.0
319.633301 112.0
319.775635 56.0
319.807678 152.0
319.893097 416.0
320.168762 240.0
320.208496 120.0
320.245605 176.0
320.302612 80.0
320.644653 120.0
320.755157 64.0
321.118835 132.0
321.152527 156.0
321.181152 136.0
321.304321 88.0
321.393524 180.0
321.582642 148.0
321.629059 108.0
321.83255 68.0
321.868256 156.0
322.061096 56.0
322.132538 80.0
322.168243 224.0
322.210175 1100.0
322.275421 208.0
322.307587 152.0
322.643555 108.0
322.686462 188.0
322.722198 220.0
322.922455 200.0
322.965393 36.0
323.076294 208.0
323.192444 1432.0
323.405487 56.0
323.484222 120.0
323.580902 120.0
323.713379 228.0
323.756348 124.0
323.953339 116.0
323.999908 132.0
324.064392 48.0
324.141846 208.0
324.156433 128.0
324.195648 240.0
324.272247 116.0
324.691711 180.0
324.892578 140.0
325.007385 212.0
325.158112 104.0
325.211945 208.0
325.27655 116.0
325.542236 124.0
326.160187 92.0
326.361511 140.0
326.50174 64.0
326.688782 172.0
326.883057 172.0
327.027008 100.0
327.147308 124.0
327.289825 124.0
327.545502 164.0
327.796814 160.0
327.949066 40.0
328.071625 128.0
328.132904 124.0
328.168976 120.0
328.21225 68.0
328.242889 176.0
328.360077 180.0
328.479126 184.0
328.547668 140.0
328.587341 96.0
328.726044 164.0
328.774963 120.0
329.049286 120.0
329.096222 144.0
329.171661 412.0
329.217102 236.0
329.457397 132.0
329.554932 88.0
330.16745 296.0
330.209625 192.0
330.238159 172.0
330.288818 156.0
330.42627 108.0
330.538452 116.0
330.583282 152.0
330.614441 120.0
330.940216 160.0
330.972809 176.0
331.005402 104.0
331.092285 124.0
331.135773 156.0
331.226624 420.0
331.603119 96.0
331.705841 284.0
331.75174 84.0
331.860504 196.0
332.038177 160.0
332.183289 120.0
332.244507 168.0
332.302979 196.0
332.368317 108.0
332.740845 224.0
332.970917 180.0
333.208282 156.0
333.443207 104.0
333.49408 148.0
333.570435 160.0
333.75946 164.0
333.908569 144.0
334.159546 100.0
334.217773 176.0
334.953156 120.0
335.098877 196.0
335.128052 108.0
335.16925 208.0
335.211853 96.0
335.696655 164.0
335.758667 136.0
335.849854 108.0
335.94104 188.0
336.101562 60.0
336.202972 168.0
336.216431 248.0
336.324188 192.0
336.532257 40.0
336.660065 136.0
336.700226 76.0
336.860962 116.0
336.959595 104.0
337.054596 144.0
337.175171 128.0
337.215942 152.0
337.317719 180.0
337.427399 108.0
337.716736 128.0
337.760162 100.0
337.86261 132.0
337.994324 36.0
338.137024 176.0
338.175659 252.0
338.279785 32.0
338.810791 100.0
339.026947 108.0
339.165833 208.0
339.250549 124.0
339.459534 96.0
339.9841 124.0
340.073883 204.0
340.162201 200.0
340.222687 224.0
340.483398 124.0
341.019775 92.0
341.056549 80.0
341.133728 192.0
341.218292 196.0
341.269775 116.0
341.313873 172.0
341.35434 100.0
341.453613 120.0
341.505127 104.0
341.773651 64.0
341.876709 60.0
341.931915 116.0
342.093842 96.0
342.152771 160.0
342.303711 180.0
342.616791 216.0
342.730988 144.0
342.960083 120.0
343.009552 116.0
343.129059 108.0
343.199097 84.0
343.317108 120.0
343.431427 92.0
343.685974 184.0
344.202728 144.0
344.501892 136.0
344.542542 92.0
344.694031 144.0
344.9823 116.0
345.008179 136.0
345.135254 140.0
345.204132 160.0
345.237427 100.0
345.418671 148.0
345.707245 80.0
345.929321 132.0
345.984833 132.0
346.114502 168.0
346.177368 176.0
346.247925 1272.0
346.369965 144.0
346.421814 156.0
346.499634 100.0
346.614471 76.0
346.666351 48.0
346.692291 156.0
346.733063 168.0
346.862793 32.0
347.025909 56.0
347.164093 120.0
347.243256 400.0
347.541473 200.0
347.649078 152.0
347.693604 176.0
347.747284 120.0
348.228302 1076.0
348.306213 36.0
348.49939 172.0
349.023499 152.0
349.06192 84.0
349.168793 112.0
349.223572 100.0
349.294983 36.0
349.43634 132.0
349.60379 144.0
349.652161 84.0
350.208862 124.0
350.250977 144.0
350.374542 124.0
350.575745 76.0
350.627899 52.0
350.668915 44.0
350.855286 140.0
350.926117 100.0
351.226898 388.0
351.304413 212.0
351.458282 184.0
351.870056 184.0
351.993256 176.0
352.090363 48.0
352.120239 188.0
352.200195 260.0
352.231964 288.0
352.259094 196.0
352.29953 64.0
352.781586 112.0
352.80777 116.0
352.957306 164.0
353.170471 96.0
353.196655 128.0
353.230316 136.0
353.263977 132.0
353.581604 180.0
353.636719 204.0
353.701813 176.0
353.802887 168.0
353.869141 120.0
354.181091 228.0
354.25708 124.0
354.375885 160.0
354.447083 220.0
354.502869 108.0
354.626953 212.0
354.795654 188.0
354.836884 132.0
354.94989 168.0
355.189392 132.0
355.493286 220.0
355.53833 176.0
355.638672 108.0
355.695953 144.0
355.838593 96.0
355.879913 44.0
355.955017 48.0
356.199951 276.0
356.26297 68.0
356.356903 132.0
356.432068 148.0
356.510956 124.0
356.668823 56.0
356.93573 168.0
356.999664 64.0
357.082397 92.0
357.151428 172.0
357.240387 40.0
357.616669 196.0
357.838776 148.0
358.015747 192.0
358.207825 108.0
358.494171 92.0
358.626068 144.0
358.769318 220.0
358.905029 124.0
359.21051 176.0
359.55011 48.0
359.648224 72.0
359.923828 56.0
359.980469 104.0
360.029541 124.0
360.173065 100.0
360.222168 156.0
360.290161 168.0
360.3685 192.0
360.450287 160.0
360.490417 92.0
360.743652 188.0
360.913788 200.0
361.038574 144.0
361.140686 116.0
361.178497 44.0
361.220123 92.0
361.378998 64.0
361.492523 180.0
361.643921 124.0
361.685547 120.0
361.836243 148.0
361.973267 112.0
362.029053 120.0
362.136108 64.0
362.191956 124.0
362.225555 156.0
362.355835 104.0
362.382355 100.0
362.454346 120.0
362.699493 208.0
362.85611 100.0
363.01535 140.0
363.121521 148.0
363.208008 244.0
363.236359 104.0
363.387054 112.0
363.428406 116.0
363.681763 164.0
363.872864 64.0
363.971588 104.0
364.036133 176.0
364.138672 88.0
364.189117 216.0
364.254272 1500.0
364.332397 120.0
364.533783 128.0
364.700989 136.0
364.826416 172.0
364.910065 264.0
364.936676 216.0
365.031738 104.0
365.157684 140.0
365.173401 128.0
365.208496 276.0
365.262695 172.0
365.355042 60.0
365.447693 148.0
365.492004 92.0
365.625183 48.0
365.769836 128.0
366.049103 272.0
366.154388 216.0
366.234497 1312.0
366.611542 120.0
366.94696 44.0
367.06134 112.0
367.103302 152.0
367.188751 188.0
367.225342 484.0
367.256012 176.0
367.306274 144.0
367.416046 112.0
367.469482 156.0
367.63736 44.0
367.717499 168.0
367.858734 176.0
367.973267 204.0
368.015259 116.0
368.167999 160.0
368.253052 284.0
368.332245 88.0
369.123352 68.0
369.231506 488.0
369.257843 216.0
369.394897 76.0
369.781342 140.0
370.118225 172.0
370.14502 116.0
370.194794 124.0
370.221619 144.0
370.259918 120.0
370.508881 84.0
371.100342 100.0
371.216797 292.0
371.26593 188.0
371.302338 180.0
371.359863 88.0
371.428894 88.0
371.835602 124.0
371.931549 36.0
372.216095 68.0
372.392303 160.0
372.741913 176.0
372.788025 176.0
372.814911 52.0
373.076294 128.0
373.208923 64.0
373.303131 180.0
373.353119 108.0
373.395416 208.0
373.44696 232.0
373.810913 88.0
373.945587 104.0
373.98407 36.0
374.198761 264.0
374.23584 328.0
374.279877 168.0
374.473053 80.0
374.544525 108.0
374.604034 88.0
374.904541 164.0
375.168884 200.0
375.224182 316.0
375.275757 112.0
375.409546 236.0
375.814575 104.0
375.841583 180.0
375.98822 100.0
376.230377 220.0
376.420593 60.0
376.466919 200.0
376.563477 144.0
376.644592 116.0
376.810699 172.0
376.972961 112.0
377.061859 208.0
377.096649 108.0
377.228058 68.0
377.40976 84.0
377.537384 124.0
377.614716 132.0
377.726898 224.0
377.897125 120.0
377.98056 140.0
378.05722 200.0
378.181274 136.0
378.239471 156.0
378.400269 168.0
378.466064 112.0
379.103149 172.0
379.174988 148.0
379.233124 152.0
379.260254 168.0
379.322266 172.0
379.713867 76.0
379.741028 84.0
379.911682 112.0
379.969879 180.0
380.039734 104.0
380.074646 132.0
380.183289 92.0
380.210449 96.0
380.552063 56.0
380.583099 44.0
381.041809 164.0
381.07251 132.0
381.259003 84.0
381.481812 160.0
381.612732 132.0
381.838287 88.0
382.056091 48.0
382.126129 144.0
382.153381 152.0
382.390747 140.0
382.484161 120.0
382.608734 108.0
383.044861 116.0
383.114044 200.0
383.192902 108.0
383.465668 80.0
383.551422 136.0
383.728546 120.0
383.972504 164.0
384.054413 192.0
384.180298 132.0
384.257263 248.0
384.284576 48.0
384.4758 164.0
384.503113 200.0
384.549927 64.0
384.631897 136.0
384.706085 148.0
385.256683 172.0
385.284058 164.0
385.377655 108.0
385.600555 200.0
385.776428 96.0
385.811615 116.0
385.866364 156.0
386.022766 96.0
386.123932 124.0
386.254883 304.0
386.41391 252.0
386.613464 100.0
387.016632 156.0
387.243774 120.0
387.306427 100.0
387.455292 140.0
387.653107 172.0
387.917877 96.0
388.038788 140.0
388.266693 72.0
388.572632 148.0
388.607941 36.0
388.776672 72.0
389.04129 100.0
389.153503 96.0
389.243805 100.0
389.558014 32.0
389.664093 192.0
390.186798 140.0
390.237183 848.0
390.465973 156.0
390.658722 120.0
390.827881 80.0
391.012848 92.0
391.079742 76.0
391.123047 76.0
391.222595 448.0
391.419067 164.0
391.997345 176.0
392.174713 120.0
392.226227 388.0
392.262146 236.0
392.290527 140.0
392.32843 96.0
392.375732 96.0
392.438812 36.0
392.667542 152.0
392.801636 56.0
392.833191 144.0
392.93576 164.0
393.02652 36.0
393.097534 36.0
393.233459 528.0
393.302765 124.0
393.64624 120.0
393.788422 212.0
393.902954 144.0
394.167664 164.0
394.195312 132.0
394.225769 96.0
394.236237 68.0
394.248413 120.0
394.288879 136.0
394.366699 176.0
394.466827 172.0
394.59848 60.0
394.79837 276.0
395.096802 128.0
395.222076 204.0
395.401489 252.0
395.609314 120.0
395.77359 172.0
395.979492 72.0
396.153778 108.0
396.186829 132.0
396.25119 444.0
396.688751 84.0
397.037659 332.0
397.14566 200.0
397.237701 112.0
397.254974 132.0
397.261993 144.0
397.288361 160.0
397.366913 160.0
397.462128 128.0
397.557373 132.0
397.811371 80.0
398.057526 52.0
398.156586 132.0
398.245941 188.0
398.315704 144.0
398.444885 168.0
398.565979 112.0
398.597778 156.0
398.633545 152.0
399.058838 152.0
399.174133 132.0
399.265625 184.0
399.906158 60.0
399.945953 152.0
400.194977 160.0
400.300293 92.0
400.439667 128.0
400.666718 56.0
400.921722 108.0
401.053253 156.0
401.261719 228.0
401.348267 112.0
401.431976 148.0
401.508911 180.0
401.559601 140.0
401.587524 68.0
401.723145 228.0
401.763031 244.0
401.814911 128.0
401.870758 208.0
401.957184 152.0
402.015961 164.0
402.098206 240.0
402.201996 152.0
402.272247 4552.0
402.346985 148.0
402.397583 112.0
402.441528 60.0
402.513397 124.0
402.573273 140.0
402.609222 140.0
402.669128 52.0
402.729034 56.0
402.756989 72.0
402.820801 132.0
403.040649 76.0
403.105988 80.0
403.168518 228.0
403.271576 1576.0
403.525177 204.0
403.628235 144.0
403.772186 52.0
403.882019 96.0
404.285156 888.0
404.336273 116.0
404.444336 68.0
404.523987 196.0
404.817871 216.0
404.868744 108.0
404.940826 140.0
405.137115 196.0
405.181183 104.0
405.273376 260.0
405.323608 116.0
405.686127 132.0
406.042969 116.0
406.159302 72.0
406.187378 116.0
406.231506 144.0
406.291656 168.0
406.444122 64.0
406.472229 48.0
406.544464 68.0
406.652802 160.0
406.801331 68.0
406.909729 176.0
406.937805 120.0
407.078369 116.0
407.208862 160.0
407.234985 188.0
407.39566 160.0
407.431824 184.0
407.528229 108.0
407.580475 164.0
407.61261 116.0
407.67691 100.0
407.747559 104.0
407.845703 108.0
407.942169 68.0
407.986389 60.0
408.034637 128.0
408.139191 152.0
408.246033 3816.0
408.309326 168.0
408.371033 136.0
408.387451 76.0
408.398315 172.0
408.448853 80.0
408.505157 104.0
408.533325 60.0
408.670105 120.0
408.758636 44.0
408.806915 100.0
408.859222 124.0
409.040344 120.0
409.07254 88.0
409.247955 700.0
409.343536 72.0
409.410126 172.0
409.700775 132.0
409.763733 140.0
410.011017 112.0
410.091644 132.0
410.229248 144.0
410.240143 156.0
410.257904 412.0
410.349609 80.0
410.579468 188.0
410.611725 76.0
410.781128 44.0
411.047424 84.0
411.095825 192.0
411.250122 124.0
411.376221 180.0
411.451019 116.0
411.66098 80.0
411.862915 116.0
411.966827 172.0
412.036621 60.0
412.150665 124.0
412.206329 80.0
412.31543 212.0
412.355835 108.0
412.540314 232.0
412.845032 104.0
412.974457 84.0
413.148376 140.0
413.310211 156.0
413.465607 72.0
413.557068 132.0
413.701782 128.0
413.775665 104.0
413.808044 120.0
413.872833 104.0
413.941681 148.0
413.990265 192.0
414.026703 232.0
414.087036 76.0
414.215515 128.0
414.257233 404.0
414.407471 112.0
414.441986 140.0
414.496613 112.0
414.581726 136.0
414.630341 104.0
414.731689 100.0
414.800598 92.0
414.885712 84.0
414.995178 40.0
415.068176 76.0
415.15332 160.0
415.18576 184.0
415.254303 248.0
415.384491 172.0
415.50882 136.0
415.536621 52.0
415.599518 132.0
415.680664 88.0
415.847076 80.0
415.968201 100.0
416.038055 80.0
416.07843 32.0
416.161285 188.0
416.199341 232.0
416.266144 84.0
416.284912 80.0
416.292664 208.0
416.378906 160.0
416.421906 172.0
416.484528 64.0
416.530884 192.0
416.5802 80.0
416.638885 112.0
416.69577 80.0
416.728271 48.0
416.785156 72.0
416.813599 44.0
416.842041 124.0
416.898926 196.0
416.939575 124.0
417.010681 104.0
417.065552 80.0
417.13031 120.0
417.167175 116.0
417.218506 60.0
417.38266 64.0
417.545319 84.0
417.585999 84.0
417.632751 156.0
417.708008 56.0
417.74054 72.0
417.839447 64.0
417.901825 112.0
417.934235 184.0
417.982513 128.0
418.075653 132.0
418.151855 140.0
418.236725 1340.0
418.303986 3636.0
418.441681 128.0
418.471527 72.0
418.558594 228.0
418.631897 144.0
418.744476 156.0
418.78894 64.0
418.850098 148.0
418.935028 112.0
418.965881 152.0
419.005585 108.0
419.099731 136.0
419.158081 252.0
419.23938 360.0
419.306152 568.0
419.362885 184.0
419.394135 220.0
419.444458 172.0
419.526855 212.0
419.567078 208.0
419.60495 248.0
419.670959 104.0
419.71582 96.0
419.761078 192.0
419.831482 264.0
419.918091 212.0
419.960175 384.0
419.986816 468.0
420.018127 236.0
420.093201 336.0
420.129608 388.0
420.141541 228.0
420.15271 368.0
420.284332 153456.0
420.405914 380.0
420.491791 128.0
420.506439 80.0
420.521057 100.0
420.538391 56.0
420.599304 340.0
420.62912 100.0
420.680267 172.0
420.732025 288.0
420.763092 156.0
420.798157 92.0
420.843658 144.0
420.884216 172.0
420.951599 232.0
420.998322 188.0
421.051788 152.0
421.06955 104.0
421.08432 160.0
421.11261 172.0
421.128082 156.0
421.139618 144.0
421.16626 320.0
421.286804 35604.0
421.357727 344.0
421.396881 136.0
421.409271 76.0
421.428406 48.0
421.461975 40.0
421.485107 136.0
421.543701 40.0
421.599426 152.0
421.657745 96.0
421.669556 188.0
421.715179 268.0
421.756073 100.0
421.80481 140.0
421.893677 56.0
421.94931 124.0
421.988922 72.0
422.066925 60.0
422.079315 100.0
422.12146 116.0
422.228943 248.0
422.289764 3684.0
422.370361 156.0
422.417755 216.0
422.470398 88.0
422.53537 144.0
422.578796 152.0
422.632843 132.0
422.681122 140.0
422.730408 44.0
422.763153 52.0
422.807434 92.0
422.850739 336.0
422.892212 112.0
422.929199 104.0
422.958496 136.0
423.033264 28.0
423.1073 144.0
423.124268 124.0
423.183655 120.0
423.289154 452.0
423.348541 72.0
423.412689 108.0
423.419006 136.0
423.461517 68.0
423.498871 336.0
423.551697 112.0
423.587006 112.0
423.635712 108.0
423.650909 68.0
423.668701 48.0
423.677734 124.0
423.718964 128.0
423.75351 340.0
423.775299 280.0
423.812958 100.0
423.85733 160.0
423.919769 108.0
424.00061 248.0
424.078674 120.0
424.15155 124.0
424.201599 120.0
424.257812 140.0
424.30191 128.0
424.368591 72.0
424.441803 96.0
424.50415 48.0
424.532867 68.0
424.618713 60.0
424.680511 140.0
424.711884 116.0
424.750214 124.0
424.81134 160.0
424.870209 180.0
424.90094 152.0
424.967651 92.0
425.009918 92.0
425.065338 84.0
425.112213 140.0
425.201965 116.0
425.242584 176.0
425.29184 84.0
425.348114 108.0
425.386261 56.0
425.435516 60.0
425.480682 112.0
425.79837 140.0
425.942902 136.0
426.045258 112.0
426.125458 48.0
426.255676 3824.0
426.309448 360.0
426.380249 52.0
426.704956 64.0
426.783081 176.0
426.869446 160.0
426.918793 44.0
427.042175 40.0
427.070953 108.0
427.156738 168.0
427.202576 44.0
427.259644 620.0
427.539978 92.0
427.630524 32.0
427.66153 96.0
427.737518 160.0
427.791046 176.0
427.852783 132.0
428.062775 180.0
428.18927 56.0
428.233398 176.0
428.265045 208.0
428.400513 92.0
428.449951 52.0
428.577667 108.0
428.676544 36.0
428.744385 96.0
428.87439 92.0
428.940338 124.0
429.212433 128.0
429.254517 136.0
429.303162 144.0
429.372223 160.0
429.385223 120.0
429.398773 148.0
429.488739 116.0
430.066406 100.0
430.107666 64.0
430.153076 136.0
430.252136 108.0
430.309937 164.0
430.359497 112.0
430.466858 60.0
430.549438 56.0
430.594879 44.0
430.64444 120.0
430.995575 96.0
431.2146 172.0
431.282745 156.0
431.384064 64.0
431.818237 112.0
431.946442 72.0
432.020905 44.0
432.111908 216.0
432.268402 88.0
432.360199 92.0
432.59198 40.0
432.674774 120.0
432.894226 56.0
433.192413 76.0
433.285156 176.0
433.319824 96.0
433.921814 144.0
434.100098 88.0
434.278412 168.0
434.340637 56.0
434.589539 84.0
434.755524 144.0
434.859283 72.0
434.93399 128.0
434.967194 72.0
435.399017 68.0
435.644073 44.0
435.793823 92.0
435.831024 68.0
435.88089 80.0
435.926605 104.0
435.963989 124.0
436.094482 200.0
436.136292 140.0
436.247101 9684.0
436.353516 280.0
436.400452 184.0
436.446198 52.0
436.516876 116.0
436.625 76.0
436.680664 52.0
436.720673 100.0
436.770172 40.0
436.808014 120.0
436.967468 84.0
437.018188 84.0
437.082581 84.0
437.14502 88.0
437.250366 1548.0
437.319794 92.0
437.353088 104.0
437.386414 92.0
437.43219 96.0
437.565399 44.0
437.742371 168.0
437.844391 48.0
437.960999 144.0
438.019318 132.0
438.169281 124.0
438.258392 556.0
438.435974 92.0
438.485962 44.0
438.552673 88.0
438.598511 32.0
438.756927 108.0
438.802765 48.0
438.94455 64.0
438.986237 76.0
439.11969 60.0
439.167236 160.0
439.258911 84.0
439.334015 116.0
439.407532 136.0
439.4534 92.0
439.549377 72.0
439.611969 88.0
439.678741 76.0
439.741333 60.0
439.77475 36.0
439.849854 48.0
439.925018 72.0
439.980774 36.0
440.062775 84.0
440.09201 148.0
440.229645 260.0
440.238708 240.0
440.316895 408.0
440.359253 64.0
440.676727 104.0
440.793732 100.0
440.935822 52.0
441.128082 64.0
441.224243 128.0
441.303162 128.0
441.331451 316.0
441.378937 32.0
441.66333 56.0
441.730255 68.0
441.914307 40.0
441.951965 40.0
442.039856 156.0
442.128784 112.0
442.257233 144.0
442.347229 160.0
442.412354 140.0
442.680298 124.0
442.822693 84.0
442.914856 120.0
443.289734 416.0
443.694275 48.0
444.168152 44.0
444.201691 144.0
444.243652 204.0
444.309021 280.0
444.411987 32.0
444.470215 160.0
444.696808 52.0
444.8815 52.0
445.305359 624.0
445.356018 204.0
445.385406 80.0
445.452606 72.0
445.662689 116.0
445.704681 132.0
445.906403 116.0
445.956848 116.0
446.284729 112.0
446.317841 160.0
446.423492 108.0
446.452942 224.0
446.608551 176.0
446.650604 80.0
446.776825 76.0
447.108063 88.0
447.269165 124.0
447.313171 220.0
447.378601 156.0
447.492279 136.0
447.782837 72.0
447.841797 152.0
448.292572 156.0
448.423218 120.0
448.452728 112.0
448.510742 120.0
448.587616 100.0
449.01767 116.0
449.055634 52.0
449.20694 156.0
449.279205 204.0
449.308746 64.0
449.523926 156.0
449.667389 92.0
449.756042 52.0
449.891113 108.0
450.228912 148.0
450.26059 128.0
450.423187 128.0
450.473877 140.0
450.621735 156.0
451.145782 124.0
451.230347 136.0
451.577087 128.0
451.742035 96.0
452.072052 148.0
452.135529 172.0
452.2146 244.0
452.46994 76.0
452.732452 44.0
453.228058 120.0
453.596771 84.0
453.634918 144.0
453.85434 164.0
453.986847 176.0
454.024994 96.0
454.257996 6032.0
454.406769 32.0
454.512848 64.0
454.563751 104.0
454.77594 44.0
455.081604 168.0
455.261841 900.0
455.353363 92.0
455.536011 40.0
455.748444 144.0
455.790924 88.0
455.854675 52.0
455.999146 104.0
456.252625 460.0
456.35199 56.0
456.411499 36.0
456.454041 108.0
456.494659 152.0
456.620636 148.0
457.061005 208.0
457.244904 136.0
457.273407 324.0
457.309143 48.0
457.432556 56.0
457.681885 136.0
457.943512 124.0
458.032959 88.0
458.09259 176.0
458.256989 144.0
458.390839 88.0
458.667877 88.0
458.744598 152.0
458.983337 80.0
459.422638 116.0
459.601837 152.0
459.819458 144.0
459.92865 156.0
460.002991 196.0
460.2677 96.0
460.382996 124.0
460.421417 96.0
460.545288 92.0
460.788788 60.0
460.963959 96.0
461.31073 1644.0
461.408478 120.0
461.964417 40.0
462.079926 136.0
462.126984 96.0
462.294586 1824.0
462.413696 72.0
462.486481 52.0
462.516418 112.0
462.589203 60.0
462.820374 112.0
462.850342 140.0
463.245483 124.0
463.309113 1060.0
463.394318 84.0
463.432892 76.0
463.690002 148.0
463.951447 48.0
464.32428 260.0
464.367401 204.0
464.44458 116.0
464.534668 132.0
464.92511 164.0
464.95517 116.0
465.058167 140.0
465.299835 232.0
465.385925 92.0
465.44516 84.0
465.800995 112.0
465.856842 76.0
465.917206 144.0
466.007202 132.0
466.113495 136.0
466.204865 112.0
466.298004 136.0
466.315857 92.0
466.330627 120.0
466.449829 64.0
466.488525 112.0
466.647583 56.0
466.677704 144.0
466.948608 120.0
467.051819 104.0
467.275299 152.0
467.321075 216.0
467.372681 76.0
467.477753 188.0
467.76181 156.0
467.852203 144.0
468.119171 116.0
468.218201 68.0
468.282806 96.0
468.319977 152.0
468.601593 60.0
468.679138 48.0
468.838562 96.0
469.006653 156.0
469.148895 88.0
469.32135 176.0
469.536316 52.0
469.653412 84.0
469.713806 128.0
469.839325 164.0
469.907928 64.0
470.257477 176.0
470.30722 140.0
470.378326 128.0
470.620087 96.0
470.922394 116.0
471.034668 116.0
471.077881 136.0
471.313843 308.0
471.345215 164.0
471.540222 116.0
471.860077 52.0
472.12384 172.0
472.158447 104.0
472.344971 160.0
472.391998 136.0
472.50882 120.0
472.595337 48.0
472.690552 68.0
472.807373 44.0
472.971863 144.0
473.075745 200.0
473.307892 336.0
473.443756 52.0
473.651672 180.0
473.875183 156.0
473.980927 100.0
474.082397 96.0
474.206268 116.0
474.297302 128.0
474.379639 44.0
474.62677 152.0
474.813232 60.0
474.860931 152.0
474.908661 68.0
474.991058 144.0
475.242676 116.0
475.294739 372.0
475.36499 64.0
475.594208 60.0
475.733093 192.0
476.15863 64.0
476.241272 132.0
476.274139 120.0
476.801605 80.0
476.93634 140.0
477.075439 192.0
477.174225 128.0
477.269379 164.0
477.2789 100.0
477.296936 144.0
477.397186 92.0
477.605957 124.0
477.819092 136.0
477.923523 100.0
478.084534 132.0
478.132385 52.0
478.532867 68.0
478.654785 128.0
478.894318 60.0
479.011902 108.0
479.064178 72.0
479.09903 136.0
479.207947 40.0
479.325745 280.0
479.43454 164.0
479.55658 140.0
479.74469 100.0
480.018677 104.0
480.136414 80.0
480.223633 120.0
480.304901 4048.0
480.463562 36.0
480.58136 84.0
480.611908 64.0
480.731018 80.0
480.763367 96.0
480.895569 52.0
480.956665 80.0
481.026489 52.0
481.131989 48.0
481.25351 308.0
481.30954 1824.0
481.471863 120.0
481.550476 156.0
481.681488 28.0
481.738281 140.0
481.869354 56.0
481.969849 128.0
482.312469 300.0
482.463715 72.0
482.9841 164.0
483.307831 132.0
483.352661 164.0
483.487244 84.0
483.596649 104.0
483.631104 160.0
483.701691 88.0
483.846161 72.0
483.99939 92.0
484.056335 152.0
484.135132 56.0
484.367279 112.0
484.446136 140.0
484.481171 32.0
484.682709 220.0
484.761566 100.0
485.050842 104.0
485.330963 1072.0
485.414734 88.0
485.493652 128.0
485.607697 40.0
485.712952 132.0
485.751221 188.0
485.963013 44.0
486.20874 76.0
486.332947 288.0
486.410248 128.0
486.489655 48.0
486.688171 112.0
487.183502 48.0
487.26886 160.0
487.321198 1716.0
487.644897 196.0
487.706421 108.0
487.785522 40.0
487.930603 108.0
488.066895 168.0
488.327545 560.0
488.418732 92.0
488.526245 36.0
488.638672 116.0
488.71347 84.0
489.030334 56.0
489.153564 120.0
489.301636 284.0
489.334808 572.0
489.400116 124.0
490.007904 136.0
490.340485 148.0
490.536743 104.0
490.836548 156.0
491.184937 76.0
491.261536 88.0
491.299622 52.0
491.339355 108.0
491.586426 60.0
491.665863 124.0
491.859009 100.0
492.354553 164.0
492.394318 68.0
492.5224 132.0
492.557739 64.0
492.712341 48.0
492.915588 104.0
492.986298 108.0
493.333069 104.0
493.370819 48.0
493.728973 92.0
493.861664 96.0
493.936859 120.0
494.171326 120.0
494.291199 164.0
494.323059 284.0
494.360748 232.0
494.454529 96.0
494.52533 168.0
494.565155 96.0
494.619202 156.0
495.040894 140.0
495.328766 196.0
495.694489 104.0
495.86731 124.0
496.265015 156.0
496.332794 84.0
496.421478 136.0
496.527893 156.0
497.069122 80.0
497.135681 60.0
497.171173 136.0
497.285004 192.0
497.339844 56.0
497.450806 96.0
497.952545 116.0
498.192413 180.0
498.259033 116.0
498.290131 212.0
498.627838 64.0
498.685638 116.0
499.072388 128.0
499.152405 136.0
499.437042 124.0
499.537476 120.0
499.579376 116.0
499.659454 156.0
499.735107 128.0
499.837433 76.0
500.295868 92.0
500.469482 108.0
500.807953 140.0
501.142303 136.0
501.208893 180.0
501.404968 52.0
501.498566 120.0
501.53421 136.0
501.935455 156.0
501.997864 100.0
502.095978 120.0
502.162872 152.0
502.287781 140.0
502.443909 164.0
502.665497 144.0
502.684113 96.0
502.69043 128.0
502.974945 64.0
503.024048 100.0
503.294708 280.0
503.355072 264.0
504.006561 76.0
504.100403 52.0
504.154022 56.0
504.203186 128.0
504.350677 120.0
504.519745 132.0
504.574188 112.0
504.685974 156.0
505.119781 140.0
505.336182 6284.0
505.464264 108.0
505.523926 108.0
505.567169 156.0
505.705933 72.0
505.813354 60.0
506.072998 160.0
506.198364 120.0
506.340149 1500.0
506.682098 56.0
506.740356 164.0
507.304993 636.0
507.315308 608.0
507.452972 60.0
507.558105 88.0
507.663727 120.0
507.708557 44.0
507.878998 128.0
507.934967 92.0
507.966675 160.0
508.32132 404.0
508.46225 32.0
508.789917 108.0
508.830322 184.0
509.018921 60.0
509.135651 152.0
509.216492 180.0
509.292847 216.0
509.328796 108.0
509.425079 120.0
509.459045 72.0
509.721802 108.0
509.944336 72.0
510.182587 152.0
510.250031 128.0
510.41861 80.0
510.569275 80.0
510.681702 132.0
510.896301 152.0
511.140564 60.0
511.226074 96.0
511.320587 92.0
511.352264 108.0
511.856293 144.0
511.986877 104.0
512.032837 136.0
512.216553 148.0
512.30603 164.0
512.455322 44.0
512.509399 144.0
512.613037 60.0
512.924011 188.0
512.984863 148.0
513.032227 92.0
513.185486 132.0
513.275696 128.0
513.311768 136.0
513.437988 120.0
513.568787 104.0
513.825928 176.0
513.918396 172.0
514.213989 120.0
514.322327 128.0
514.380981 120.0
514.828003 128.0
515.013123 120.0
515.234497 100.0
515.32666 128.0
515.478455 88.0
515.568848 100.0
516.079651 136.0
516.201721 148.0
516.350952 108.0
516.42334 80.0
516.599731 116.0
516.785217 184.0
516.866699 92.0
517.011475 68.0
517.08844 144.0
517.317749 180.0
517.414368 116.0
517.62262 96.0
517.738586 92.0
518.04834 160.0
518.093628 96.0
518.157104 136.0
518.270508 188.0
518.331665 204.0
518.705383 136.0
518.805115 100.0
519.113464 112.0
519.276733 176.0
519.317505 96.0
519.884644 96.0
520.111572 96.0
520.146851 144.0
520.267395 120.0
520.301392 220.0
520.573303 124.0
520.949463 152.0
521.047058 132.0
521.322937 172.0
521.406006 104.0
521.846924 132.0
521.94696 36.0
522.078857 60.0
522.151611 28.0
522.201599 168.0
522.665649 120.0
523.016052 120.0
523.116211 152.0
523.19812 152.0
523.316528 92.0
523.375732 44.0
523.430359 156.0
523.571533 168.0
523.790161 84.0
524.031555 80.0
524.20929 84.0
524.364502 76.0
524.628601 96.0
524.660522 212.0
525.020752 112.0
525.074707 152.0
525.32312 1988.0
525.40387 180.0
525.435791 220.0
525.499695 28.0
525.782593 96.0
525.855591 92.0
525.887573 124.0
526.047302 184.0
526.1745 144.0
526.216248 84.0
526.257324 80.0
526.322083 692.0
526.398865 140.0
526.851074 84.0
526.960693 144.0
527.170898 44.0
527.271423 100.0
527.327881 456.0
527.563965 112.0
528.355103 48.0
529.142273 60.0
529.229248 284.0
529.37207 248.0
529.505249 88.0
529.623108 44.0
529.873962 152.0
530.007935 124.0
530.154541 80.0
530.195801 220.0
530.335815 132.0
530.371521 140.0
530.631287 128.0
530.78717 200.0
530.897217 68.0
530.961426 100.0
531.355896 208.0
531.461426 144.0
531.732178 92.0
531.938721 72.0
531.970825 128.0
532.002991 64.0
532.177429 68.0
532.35907 184.0
532.48053 108.0
532.563171 88.0
532.774475 56.0
532.815857 44.0
532.8526 224.0
532.893921 88.0
532.932068 136.0
532.976624 112.0
533.175354 152.0
533.331238 1668.0
533.721252 92.0
533.816833 128.0
533.905212 116.0
534.181152 68.0
534.333191 812.0
534.530823 68.0
535.032532 188.0
535.128174 88.0
535.252747 164.0
535.31012 952.0
535.364441 184.0
535.417603 192.0
535.585083 228.0
535.626587 176.0
535.776611 240.0
535.820068 100.0
535.967468 84.0
536.302368 180.0
536.373047 88.0
536.525146 136.0
536.74646 60.0
537.018555 104.0
537.263 144.0
537.334595 280.0
537.479858 124.0
537.746399 216.0
537.964478 104.0
538.006042 116.0
538.102966 124.0
538.186096 84.0
538.292297 84.0
538.370972 96.0
538.795715 88.0
539.313293 108.0
539.442688 120.0
539.539795 144.0
540.050415 132.0
540.207214 184.0
540.35376 160.0
540.830383 136.0
541.297974 156.0
541.867676 204.0
542.294006 152.0
542.48407 44.0
542.725159 120.0
542.820251 180.0
543.522949 104.0
543.584778 192.0
543.847778 56.0
544.325989 80.0
544.572083 56.0
544.897278 160.0
545.008789 120.0
545.055237 112.0
545.287598 172.0
545.329407 132.0
545.389832 40.0
545.478149 172.0
545.583374 140.0
545.664124 96.0
545.705933 140.0
546.00354 92.0
546.2547 40.0
546.305908 88.0
546.454773 80.0
546.631592 144.0
546.715332 100.0
546.873596 124.0
546.929443 112.0
546.989929 40.0
547.022522 124.0
547.096985 164.0
547.176147 132.0
547.25531 100.0
547.840759 96.0
548.320984 156.0
548.401245 184.0
548.444397 96.0
548.739624 68.0
548.797485 56.0
549.057251 176.0
549.170593 96.0
549.203247 112.0
549.29248 244.0
549.413147 96.0
549.562439 100.0
549.689453 92.0
549.717468 164.0
549.870422 48.0
549.931091 140.0
549.987122 96.0
550.089783 164.0
550.295959 180.0
550.363403 420.0
550.617432 88.0
550.850952 128.0
550.995789 284.0
551.154602 128.0
551.20874 116.0
551.238708 268.0
551.341919 8256.0
551.538513 80.0
551.584595 32.0
551.671265 96.0
551.736328 96.0
551.790283 52.0
551.995972 84.0
552.028748 124.0
552.15918 80.0
552.267273 48.0
552.34668 1792.0
552.418396 64.0
552.477722 48.0
552.564697 88.0
552.650879 52.0
552.700195 80.0
552.942627 80.0
552.981689 156.0
553.132874 44.0
553.178833 88.0
553.344604 552.0
553.474609 128.0
553.540222 76.0
553.722839 84.0
553.858643 108.0
553.926575 144.0
554.013245 100.0
554.125671 224.0
554.201416 144.0
554.275635 40.0
554.325012 88.0
554.358765 112.0
554.370361 144.0
554.901733 120.0
555.1651 196.0
555.217834 136.0
555.283508 112.0
555.349182 156.0
555.457031 80.0
555.597778 120.0
555.901001 132.0
556.090454 120.0
556.569336 112.0
556.761841 140.0
557.03894 60.0
557.320862 100.0
557.410095 128.0
557.466492 168.0
557.804871 84.0
557.945923 136.0
558.124573 44.0
558.346069 120.0
559.220703 76.0
559.517273 120.0
559.59729 96.0
559.649048 116.0
559.931641 152.0
560.119995 124.0
560.379089 160.0
560.836243 92.0
560.916382 152.0
561.02478 68.0
561.203918 140.0
561.37677 128.0
561.548157 92.0
561.65271 100.0
561.765137 96.0
562.048218 132.0
562.166199 140.0
562.3125 168.0
562.406067 228.0
562.845947 88.0
563.332397 144.0
563.540283 116.0
563.573303 112.0
563.625305 116.0
563.658386 72.0
563.753662 168.0
563.814331 148.0
564.33429 112.0
564.395752 84.0
564.5802 76.0
564.750427 148.0
565.299255 100.0
565.351257 120.0
565.384399 224.0
565.488525 192.0
565.608643 108.0
565.649475 80.0
565.772522 68.0
565.838806 80.0
565.900391 332.0
566.06134 144.0
566.20343 112.0
566.383423 96.0
566.74646 152.0
566.795593 100.0
566.847717 140.0
566.951965 128.0
567.311218 136.0
567.323059 108.0
567.343994 168.0
567.440186 44.0
567.520752 144.0
567.757874 96.0
568.113586 208.0
568.161072 188.0
568.295105 152.0
568.360291 40.0
568.711487 116.0
568.839294 100.0
568.977295 128.0
569.176758 104.0
569.219482 124.0
569.409424 140.0
569.608887 96.0
569.808411 76.0
569.870178 96.0
569.936707 108.0
570.055481 44.0
570.240845 84.0
570.440491 96.0
570.625916 116.0
571.337097 168.0
571.356201 92.0
571.398743 276.0
571.753235 128.0
571.98645 84.0
572.167358 48.0
572.253052 64.0
572.374329 128.0
573.212402 84.0
573.410583 108.0
573.667969 84.0
573.791077 92.0
573.799438 76.0
573.882507 72.0
573.973083 68.0
574.411865 188.0
574.569275 200.0
574.626526 108.0
574.669495 32.0
574.826965 100.0
575.347168 164.0
575.557251 128.0
575.88678 64.0
576.036194 112.0
576.21637 88.0
576.379944 248.0
576.440979 60.0
576.479187 88.0
576.714111 100.0
576.785034 104.0
576.85199 132.0
577.000183 68.0
577.110107 144.0
577.296631 88.0
577.371033 100.0
577.607483 188.0
577.67926 28.0
577.947144 140.0
578.119446 92.0
578.310852 112.0
578.411377 64.0
578.454468 68.0
578.593262 228.0
579.081726 156.0
579.354736 68.0
579.397888 100.0
579.705811 116.0
579.829102 96.0
579.891418 176.0
579.963318 236.0
580.01123 48.0
580.087952 108.0
580.135864 60.0
580.318054 124.0
580.366028 104.0
580.428345 200.0
580.509827 192.0
580.605774 84.0
581.008667 44.0
581.234192 160.0
581.416504 148.0
581.70929 144.0
581.882141 164.0
581.939758 84.0
582.093384 80.0
582.429565 52.0
582.948425 84.0
582.991699 72.0
584.121582 176.0
584.434265 92.0
584.62677 84.0
585.186829 204.0
585.907532 64.0
585.96051 32.0
586.374939 124.0
586.447205 52.0
586.582214 48.0
586.65448 116.0
587.040222 164.0
587.809998 180.0
587.903687 96.0
588.190063 144.0
588.270508 120.0
588.473267 88.0
588.676086 148.0
589.197754 64.0
589.346863 120.0
589.458679 160.0
589.598816 28.0
589.727539 168.0
590.089294 92.0
590.125671 160.0
590.212708 188.0
590.352966 112.0
590.407898 84.0
590.783386 108.0
590.870483 108.0
591.276978 60.0
591.315674 76.0
591.377197 112.0
591.386536 124.0
591.523804 48.0
591.567383 136.0
591.606079 84.0
591.698059 48.0
591.828796 40.0
591.867554 44.0
591.969238 128.0
592.056396 84.0
592.104797 108.0
592.375183 132.0
592.661865 168.0
592.787903 88.0
592.986572 132.0
593.165894 100.0
593.287109 164.0
593.341003 96.0
593.490723 132.0
593.544067 128.0
593.771973 148.0
593.985413 92.0
594.358337 124.0
594.375122 184.0
594.446289 176.0
594.654968 72.0
594.790894 140.0
595.140442 84.0
595.290955 56.0
595.426941 156.0
595.573486 112.0
595.606079 172.0
595.664917 64.0
595.956421 128.0
596.374329 180.0
596.743774 128.0
596.841003 172.0
596.884766 212.0
596.923706 36.0
597.006348 52.0
597.040405 44.0
597.115662 128.0
598.081543 132.0
598.748596 148.0
598.899597 180.0
599.123657 148.0
599.503723 80.0
599.541992 136.0
600.108093 108.0
600.285889 108.0
600.527527 76.0
600.585999 208.0
600.976318 112.0
601.410645 112.0
601.727905 228.0
601.766968 212.0
601.919312 120.0
602.094116 108.0
602.411621 132.0
603.066406 80.0
603.234802 140.0
603.374329 108.0
603.858459 92.0
603.926941 164.0
603.99054 180.0
604.499329 148.0
604.690186 152.0
604.895752 124.0
605.052429 84.0
605.267822 140.0
605.360901 136.0
605.729614 136.0
605.79187 132.0
605.992737 164.0
606.027039 80.0
606.257324 160.0
606.381226 116.0
606.708252 104.0
606.821045 124.0
607.237854 136.0
607.309998 196.0
607.403748 140.0
607.503296 104.0
607.561584 84.0
607.684265 124.0
607.800354 180.0
607.885437 88.0
608.071899 128.0
608.184814 160.0
608.323547 248.0
608.43512 160.0
608.479309 152.0
608.875122 132.0
609.034241 64.0
609.216003 156.0
609.384705 116.0
609.525513 120.0
609.579529 44.0
609.687683 96.0
609.903931 196.0
609.943237 108.0
610.051392 108.0
610.149719 68.0
610.272644 140.0
610.321777 140.0
610.408875 152.0
610.43927 148.0
610.764404 84.0
611.020203 168.0
611.442566 100.0
611.474976 144.0
611.610718 128.0
611.6698 160.0
612.00946 100.0
612.382751 264.0
612.462524 120.0
612.570923 108.0
612.777832 148.0
613.415771 96.0
613.492432 80.0
613.729065 232.0
613.926331 104.0
613.994385 120.0
614.315918 68.0
614.513306 124.0
614.912964 60.0
615.135071 88.0
615.475769 192.0
615.717712 184.0
615.901611 152.0
616.325317 120.0
616.646545 144.0
616.918396 136.0
616.953003 180.0
616.992554 216.0
617.037048 108.0
617.304016 132.0
617.474304 204.0
617.663574 120.0
617.759094 40.0
617.823364 204.0
617.882751 156.0
617.952026 112.0
618.432007 128.0
618.877563 132.0
619.115234 128.0
619.247314 184.0
619.393982 84.0
619.435913 96.0
619.689819 72.0
619.77533 224.0
620.2052 108.0
620.304321 112.0
620.373718 192.0
620.461487 172.0
620.591858 128.0
620.676208 196.0
620.755493 108.0
620.795166 104.0
620.889404 60.0
620.924133 80.0
620.998535 128.0
621.487061 108.0
621.668274 148.0
621.78241 68.0
622.105042 108.0
622.427917 152.0
623.540527 104.0
623.684631 80.0
624.256409 60.0
624.390564 252.0
624.564758 120.0
625.301086 40.0
625.380493 84.0
625.411987 132.0
625.512756 108.0
625.594788 124.0
625.634583 108.0
625.868591 76.0
625.953247 116.0
626.177368 204.0
626.306824 72.0
626.376587 216.0
626.456299 40.0
626.949585 120.0
627.094116 140.0
627.228638 84.0
627.28717 136.0
627.476501 184.0
627.632507 108.0
627.742188 36.0
627.911743 116.0
627.966614 84.0
628.083374 116.0
628.186096 108.0
628.285828 64.0
628.439941 4532.0
628.546021 140.0
628.608093 196.0
628.652161 96.0
628.827942 188.0
628.919556 160.0
629.11676 40.0
629.22406 132.0
629.258057 120.0
629.444824 1960.0
629.568604 48.0
629.718445 68.0
629.803345 52.0
629.843323 116.0
630.118042 64.0
630.17804 136.0
630.297913 60.0
630.41803 2612.0
630.558228 128.0
630.692749 120.0
630.797729 52.0
631.047668 148.0
631.086731 84.0
631.159729 68.0
631.305298 132.0
631.429321 1392.0
631.557739 196.0
631.64801 160.0
631.747803 76.0
631.907898 40.0
632.049805 124.0
632.163086 116.0
632.243164 124.0
632.348267 64.0
632.431396 212.0
632.603516 108.0
632.653625 144.0
632.748718 52.0
632.858887 196.0
632.948975 60.0
632.999084 128.0
633.069153 68.0
633.129272 76.0
633.164307 168.0
633.244446 40.0
633.279541 76.0
633.425415 96.0
633.615112 100.0
633.717529 116.0
633.991943 136.0
634.179626 148.0
634.294067 168.0
634.366821 80.0
634.447083 44.0
634.542297 160.0
634.677673 60.0
634.782959 88.0
634.835083 80.0
634.888306 176.0
635.250549 212.0
635.364807 116.0
635.424988 164.0
635.500244 32.0
635.896667 112.0
635.987061 132.0
636.141541 152.0
636.401794 116.0
636.554321 120.0
636.850647 216.0
637.096313 132.0
637.28772 108.0
637.335815 140.0
637.351013 80.0
637.369385 108.0
637.463379 96.0
637.639465 128.0
637.805298 52.0
637.865662 124.0
637.971191 128.0
638.101929 84.0
638.358337 140.0
638.479004 40.0
638.514221 136.0
638.760681 96.0
638.871338 144.0
639.240112 112.0
639.374512 80.0
639.490295 120.0
639.65741 136.0
639.793152 116.0
639.877014 112.0
640.114563 68.0
640.22583 84.0
640.527527 68.0
640.648438 56.0
641.318604 60.0
641.560547 36.0
641.83783 80.0
642.180786 108.0
642.40271 148.0
642.824585 104.0
642.957703 168.0
643.038452 168.0
643.083923 68.0
643.18988 128.0
643.326172 64.0
643.505554 244.0
643.54834 56.0
643.59375 204.0
643.805847 236.0
643.871521 144.0
643.937134 148.0
643.982605 92.0
644.028076 124.0
644.063416 68.0
644.110535 164.0
644.253113 188.0
644.351379 132.0
644.412292 132.0
644.583801 128.0
644.885254 104.0
645.074036 100.0
645.140015 148.0
645.238831 164.0
645.291443 56.0
645.336914 60.0
645.417786 168.0
645.506165 176.0
645.594666 128.0
645.645386 144.0
645.721497 76.0
645.822388 88.0
645.921692 140.0
645.994385 72.0
646.113892 164.0
646.154724 92.0
646.211609 144.0
646.272644 280.0
646.315125 168.0
646.367859 144.0
646.450745 20932.0
646.641296 172.0
646.706116 248.0
646.753357 88.0
646.919006 216.0
646.994141 112.0
647.153198 180.0
647.222412 112.0
647.295776 164.0
647.455566 5772.0
647.554077 424.0
647.623779 40.0
647.667664 220.0
647.731506 48.0
647.763428 160.0
647.798096 92.0
647.852234 80.0
647.906555 164.0
647.966248 72.0
648.032898 100.0
648.087708 108.0
648.146545 132.0
648.286072 128.0
648.341309 164.0
648.429504 11588.0
648.601562 68.0
648.667236 216.0
648.713684 92.0
648.764587 148.0
648.825195 36.0
648.901245 52.0
648.937683 148.0
649.014282 68.0
649.156738 144.0
649.218384 104.0
649.284424 156.0
649.435303 4032.0
649.560547 100.0
649.596069 36.0
649.64679 112.0
649.681091 52.0
649.718689 172.0
649.88385 88.0
649.951172 68.0
650.044434 96.0
650.215027 116.0
650.269409 56.0
650.4375 1208.0
650.567444 56.0
650.610962 128.0
650.670837 136.0
650.684509 108.0
650.728271 84.0
650.770752 68.0
650.935913 100.0
650.991028 112.0
651.067932 88.0
651.12384 44.0
651.164429 124.0
651.249695 92.0
651.291443 128.0
651.377747 116.0
651.435181 320.0
651.450928 136.0
651.5578 128.0
651.605896 128.0
651.618103 116.0
651.657776 68.0
651.728333 128.0
651.872681 108.0
652.17041 36.0
652.246704 116.0
652.337463 88.0
652.424622 160.0
652.474426 148.0
652.556763 100.0
652.622864 96.0
652.706604 56.0
652.75 288.0
652.811035 128.0
652.856812 72.0
652.907654 120.0
652.983948 80.0
653.03479 84.0
653.15686 152.0
653.342407 68.0
653.387817 100.0
653.428406 104.0
653.569336 52.0
653.716492 104.0
653.853882 212.0
654.104492 108.0
654.159302 84.0
654.271301 128.0
654.388367 112.0
654.474976 92.0
654.581848 124.0
654.617493 96.0
654.709167 264.0
654.755005 76.0
654.836487 112.0
654.943481 128.0
655.126831 120.0
655.315369 36.0
655.452942 40.0
655.607727 144.0
655.655212 80.0
655.753601 120.0
655.865723 52.0
656.079834 148.0
656.263367 144.0
656.40918 232.0
656.451416 68.0
656.594788 68.0
656.844727 80.0
657.109985 204.0
657.278381 192.0
657.462097 56.0
657.66626 152.0
658.049072 168.0
658.100159 64.0
658.59552 104.0
658.832886 92.0
659.183044 264.0
659.505005 96.0
659.540771 152.0
659.668579 132.0
659.724792 84.0
660.057129 52.0
660.190063 80.0
660.373596 140.0
660.732239 92.0
661.264404 80.0
661.305359 84.0
661.545959 124.0
661.950439 132.0
662.042603 120.0
662.196228 148.0
662.364014 132.0
662.451111 260.0
662.580444 84.0
662.641907 96.0
662.805847 128.0
663.091614 188.0
663.349121 100.0
663.446533 140.0
663.50293 112.0
663.543945 96.0
663.641357 76.0
663.718262 100.0
664.123352 44.0
664.164429 192.0
664.308044 64.0
664.393616 760.0
664.595337 128.0
664.987244 88.0
665.022827 188.0
665.06958 96.0
665.403992 444.0
665.479248 148.0
665.61377 96.0
665.853027 76.0
665.924927 28.0
666.15094 196.0
666.215576 164.0
666.279358 80.0
666.365601 132.0
666.396179 132.0
666.582458 88.0
666.692566 132.0
666.901123 252.0
666.993652 116.0
667.096436 112.0
667.130005 88.0
667.27124 40.0
667.410034 96.0
667.514832 60.0
667.852295 52.0
667.991211 72.0
668.063232 76.0
668.279297 108.0
668.460876 1264.0
668.53656 128.0
668.72699 112.0
668.897766 132.0
669.293274 68.0
669.459412 812.0
669.566223 48.0
669.720703 148.0
670.070984 112.0
670.156372 84.0
670.215271 116.0
670.445801 248.0
670.460083 204.0
670.479309 228.0
670.689392 140.0
670.746094 36.0
670.921326 152.0
671.436951 136.0
671.47821 148.0
671.842163 136.0
672.086975 96.0
672.419189 320.0
672.670105 144.0
672.897278 52.0
673.041809 56.0
673.351685 124.0
673.451233 144.0
673.584106 96.0
673.661621 160.0
673.801086 68.0
674.245422 120.0
674.312622 92.0
674.402039 288.0
674.467712 60.0
675.046753 124.0
675.224976 112.0
675.415649 144.0
675.507019 68.0
675.657043 36.0
676.391907 128.0
676.562744 160.0
676.645569 100.0
676.73877 76.0
676.795715 164.0
677.459106 88.0
677.562256 100.0
677.816101 48.0
677.86792 112.0
677.940491 112.0
678.088501 184.0
678.282532 40.0
678.395386 68.0
678.661011 100.0
678.733582 148.0
678.842468 112.0
679.086243 92.0
679.153625 216.0
679.701355 92.0
679.843689 84.0
680.082397 68.0
680.15509 80.0
680.23291 172.0
680.362732 40.0
680.430176 88.0
680.643066 140.0
680.824829 172.0
680.897522 168.0
681.022156 68.0
681.390991 128.0
681.702759 52.0
681.817078 148.0
681.900269 144.0
682.394531 92.0
682.72168 140.0
682.810059 116.0
682.945312 60.0
683.210571 168.0
683.366638 256.0
683.403076 56.0
683.444702 132.0
683.60083 120.0
683.829773 228.0
684.032776 204.0
684.527405 76.0
684.740906 64.0
684.798218 236.0
685.261841 164.0
685.689087 108.0
685.788147 36.0
685.913208 104.0
685.960144 52.0
686.398071 160.0
686.465881 112.0
686.810059 108.0
687.035461 76.0
687.076111 64.0
687.356384 100.0
687.440979 108.0
687.585022 152.0
687.843262 136.0
688.067688 192.0
688.192993 76.0
688.31311 44.0
688.380981 188.0
688.537659 116.0
688.694336 60.0
688.903259 36.0
689.065247 140.0
689.185425 60.0
689.253357 140.0
689.31604 152.0
689.415344 92.0
689.483276 156.0
689.572083 44.0
689.85437 36.0
689.896179 88.0
689.96936 104.0
690.039673 72.0
690.157593 188.0
690.258972 168.0
690.44043 11736.0
690.608215 224.0
690.654419 216.0
690.723328 92.0
690.863647 40.0
690.935669 52.0
690.971985 68.0
691.133667 92.0
691.177551 148.0
691.281494 88.0
691.341187 116.0
691.442139 3856.0
691.585754 76.0
691.639282 140.0
691.719849 184.0
691.768982 72.0
691.878906 228.0
691.9245 128.0
691.962646 120.0
692.022705 68.0
692.092529 152.0
692.144592 164.0
692.225708 184.0
692.318726 156.0
692.435852 1188.0
692.508362 320.0
692.679993 220.0
692.795349 84.0
692.908386 168.0
693.148926 132.0
693.20929 64.0
693.303589 32.0
693.441589 524.0
693.496521 216.0
693.58197 72.0
693.628906 120.0
693.705444 60.0
693.880188 144.0
693.955078 148.0
694.015137 76.0
694.108154 112.0
694.201965 184.0
694.222351 124.0
694.352112 136.0
694.391663 124.0
694.443359 272.0
694.598267 60.0
694.899414 72.0
694.994995 188.0
695.118042 76.0
695.173279 136.0
695.224609 96.0
695.380432 60.0
695.448608 108.0
695.532593 48.0
695.622192 128.0
695.698792 104.0
695.813171 108.0
695.889587 136.0
696.148926 124.0
696.241394 92.0
696.324036 88.0
696.333313 80.0
696.404236 144.0
696.491089 96.0
696.561829 108.0
696.597717 84.0
696.700623 112.0
696.756165 108.0
696.874023 168.0
696.987366 108.0
697.150269 64.0
697.223816 92.0
697.271118 156.0
697.315613 172.0
697.358032 172.0
697.4776 112.0
697.520325 68.0
697.591736 60.0
697.706909 88.0
697.726685 132.0
697.828308 76.0
697.876099 116.0
697.945496 112.0
697.997192 68.0
698.145691 100.0
698.185852 120.0
698.265808 112.0
698.322632 88.0
698.376465 152.0
698.611938 84.0
698.668701 76.0
698.728027 60.0
698.807007 104.0
698.890991 100.0
699.01178 100.0
699.059143 92.0
699.301208 108.0
699.375244 120.0
699.459106 120.0
699.554871 100.0
699.635315 76.0
699.753967 36.0
699.827637 68.0
699.864502 68.0
699.901367 100.0
699.964539 128.0
700.05249 120.0
700.068359 84.0
700.092896 96.0
700.222595 64.0
700.278259 112.0
700.333191 112.0
700.41748 64.0
700.510498 272.0
700.554443 96.0
700.759888 60.0
700.805847 112.0
700.88269 112.0
701.018066 120.0
701.086609 104.0
701.136841 92.0
701.185669 140.0
701.24469 196.0
701.313232 48.0
701.392273 60.0
701.455505 124.0
701.532776 124.0
701.627747 144.0
701.6875 84.0
701.764099 64.0
701.838989 164.0
701.882568 124.0
701.9646 148.0
702.092468 84.0
702.106201 68.0
702.127563 44.0
702.209534 52.0
702.262268 40.0
702.367737 184.0
702.415222 96.0
702.452148 88.0
702.531311 116.0
702.626221 164.0
702.698364 140.0
702.800354 140.0
702.868958 60.0
702.922791 100.0
702.97406 48.0
703.041199 100.0
703.095825 124.0
703.138062 72.0
703.200928 44.0
703.279846 56.0
703.28894 48.0
703.309204 84.0
703.364075 68.0
703.460022 184.0
703.523376 40.0
703.576172 240.0
703.689575 84.0
703.849304 88.0
703.863525 104.0
703.886841 100.0
703.907288 188.0
704.075745 124.0
704.135925 120.0
704.259827 128.0
704.352417 120.0
704.489807 56.0
704.546021 112.0
704.559326 72.0
704.581299 124.0
704.640198 60.0
704.706421 80.0
704.775085 52.0
704.841125 56.0
704.864929 84.0
705.031006 244.0
705.147949 156.0
705.213684 76.0
705.28241 348.0
705.33783 132.0
705.444336 116.0
705.483276 256.0
705.554932 36.0
705.601807 180.0
705.692871 188.0
705.777161 164.0
705.817566 68.0
705.891724 112.0
705.946167 184.0
705.98407 132.0
706.022583 56.0
706.037964 180.0
706.058655 276.0
706.160095 136.0
706.259521 196.0
706.340942 108.0
706.391357 412.0
706.402527 240.0
706.421326 452.0
706.514526 180.0
706.584839 156.0
706.691528 44.0
706.766724 148.0
706.781128 312.0
706.82373 132.0
706.962097 156.0
707.087158 248.0
707.145874 220.0
707.19043 264.0
707.307556 140.0
707.3703 272.0
707.423889 168.0
707.433411 324.0
707.491943 332.0
707.553894 224.0
707.615662 196.0
707.633118 176.0
707.669617 80.0
707.710327 280.0
707.722412 132.0
707.796387 96.0
707.868713 296.0
707.911621 100.0
707.962585 280.0
708.010986 264.0
708.101074 532.0
708.164307 372.0
708.268188 1108.0
708.453186 247460.0
708.594482 576.0
708.615112 216.0
708.628845 280.0
708.696472 164.0
708.763733 160.0
708.821594 556.0
708.9245 360.0
708.963684 308.0
709.036133 592.0
709.091003 276.0
709.157776 256.0
709.219788 200.0
709.277039 268.0
709.331726 828.0
709.455017 86284.0
709.615234 188.0
709.682495 216.0
709.733276 168.0
709.8172 252.0
709.859131 160.0
709.903259 108.0
709.940918 120.0
709.96283 268.0
710.059143 304.0
710.189636 168.0
710.285583 300.0
710.368164 488.0
710.456726 17188.0
710.622009 236.0
710.738525 124.0
710.782471 192.0
710.840027 136.0
710.884705 216.0
710.978638 124.0
711.027405 176.0
711.084106 104.0
711.135742 100.0
711.190613 88.0
711.247925 192.0
711.30188 316.0
711.363403 92.0
711.458801 3004.0
711.556274 320.0
711.631958 168.0
711.677795 92.0
711.718201 264.0
711.758057 168.0
711.855042 236.0
711.933716 192.0
712.022278 84.0
712.093994 132.0
712.143127 244.0
712.194763 244.0
712.231628 200.0
712.332275 132.0
712.346558 152.0
712.458923 692.0
712.543579 128.0
712.596008 192.0
712.633789 208.0
712.689758 200.0
712.754272 80.0
712.812561 296.0
712.888672 240.0
712.940674 144.0
713.00824 108.0
713.051697 308.0
713.108521 124.0
713.121399 204.0
713.179565 308.0
713.219421 244.0
713.261719 128.0
713.278564 160.0
713.305298 248.0
713.347351 208.0
713.430847 276.0
713.519531 108.0
713.532654 284.0
713.633118 104.0
713.655151 128.0
713.678467 104.0
713.75769 88.0
713.789673 104.0
713.845154 144.0
713.937073 188.0
713.983643 160.0
714.023621 76.0
714.061951 100.0
714.11676 196.0
714.167725 136.0
714.241333 148.0
714.314819 128.0
714.375854 184.0
714.475647 196.0
714.516113 128.0
714.561157 132.0
714.643188 112.0
714.718567 52.0
714.832336 132.0
714.887695 48.0
714.985229 76.0
715.055481 84.0
715.152039 216.0
715.20105 284.0
715.278503 84.0
715.323059 72.0
715.354797 108.0
715.424744 64.0
715.499634 64.0
715.60675 44.0
715.72821 60.0
715.770813 104.0
715.857666 156.0
715.903931 80.0
715.928833 48.0
715.967224 100.0
716.015808 40.0
716.058838 48.0
716.188721 68.0
716.228455 56.0
716.303406 48.0
716.372681 140.0
716.479187 108.0
716.653442 120.0
716.743286 56.0
716.803162 60.0
716.926147 68.0
716.969421 32.0
716.982544 60.0
717.065369 64.0
717.289185 48.0
717.344177 140.0
717.678406 52.0
717.897034 56.0
717.978699 112.0
718.036194 104.0
718.10498 52.0
718.165039 108.0
718.216797 92.0
718.356262 36.0
718.446533 108.0
718.583252 92.0
718.700928 56.0
718.787842 56.0
718.889221 72.0
719.002319 64.0
719.166748 120.0
719.285828 52.0
719.39093 120.0
719.481689 56.0
719.533325 96.0
719.572449 48.0
719.844788 28.0
719.894348 84.0
719.940857 40.0
719.983582 100.0
720.020996 68.0
720.069031 60.0
720.111755 80.0
720.161926 92.0
720.304077 68.0
720.42157 88.0
720.576538 64.0
720.982605 52.0
721.35675 64.0
721.399536 40.0
721.543884 48.0
721.682861 72.0
721.720276 68.0
721.763062 36.0
722.083923 64.0
722.142761 68.0
722.404846 164.0
722.453003 48.0
722.569397 100.0
722.661682 128.0
722.827026 88.0
722.881042 76.0
723.261047 80.0
723.528687 152.0
723.630371 40.0
723.88739 88.0
724.112305 136.0
724.419128 2620.0
724.562744 96.0
724.690857 52.0
724.776611 80.0
724.889099 28.0
724.947144 172.0
724.985596 64.0
725.296448 48.0
725.417419 504.0
725.784302 96.0
725.847168 88.0
726.156677 108.0
726.223999 132.0
726.430847 300.0
726.508301 44.0
726.787292 56.0
727.323975 60.0
727.42804 112.0
727.474243 164.0
727.568604 68.0
727.731995 128.0
727.807129 52.0
728.123962 100.0
728.205566 236.0
728.252869 36.0
728.296448 72.0
728.4151 308.0
728.478455 80.0
728.548279 128.0
728.766602 140.0
728.854553 84.0
729.17157 56.0
729.420715 92.0
729.499451 92.0
729.563965 96.0
729.843567 116.0
729.881165 64.0
729.94574 108.0
730.129578 128.0
730.478149 192.0
730.548096 52.0
730.596497 68.0
730.693359 72.0
730.849365 144.0
730.975708 100.0
731.114807 212.0
731.301392 48.0
731.403687 92.0
731.500549 100.0
731.592285 112.0
731.936646 40.0
732.090515 100.0
732.410583 84.0
732.523682 80.0
732.599121 40.0
732.647583 100.0
733.268799 100.0
733.315796 76.0
733.40741 92.0
734.922791 36.0
735.127808 140.0
735.245483 60.0
735.716125 92.0
735.770142 56.0
735.861877 48.0
736.013062 100.0
736.2453 60.0
736.758423 128.0
736.81781 68.0
736.9151 44.0
737.006958 68.0
737.201477 96.0
737.325745 120.0
737.693298 88.0
737.774414 60.0
737.95282 64.0
738.169067 116.0
738.352966 64.0
738.607178 96.0
738.920898 128.0
739.397095 48.0
740.351624 200.0
740.414856 100.0
741.249146 124.0
741.327271 116.0
741.661011 88.0
741.991699 80.0
742.371216 64.0
742.778015 136.0
742.902771 100.0
743.434509 128.0
744.12384 88.0
744.732056 64.0
744.867859 92.0
747.015015 60.0
747.232605 72.0
749.018188 60.0
749.563171 104.0
749.639282 88.0
750.887695 80.0
751.716919 80.0
752.71582 80.0
753.841125 128.0
754.803223 68.0
755.317261 36.0
756.03949 56.0
758.252014 112.0
758.421936 72.0
760.001282 96.0
760.687317 100.0
762.219604 68.0
762.58783 76.0
763.731445 84.0
764.655762 92.0
768.171143 92.0
769.467957 84.0
771.163818 104.0
772.784119 60.0
773.5755 32.0
774.046082 116.0
775.425476 44.0
775.547424 88.0
776.367981 88.0
777.732788 108.0
779.493286 48.0
780.432678 112.0
782.190674 132.0
784.296143 112.0
786.884583 116.0
792.948242 40.0
798.028442 68.0
798.422058 60.0
800.966064 64.0
801.461792 100.0
801.721008 44.0
802.538391 40.0
802.679321 60.0
803.248962 52.0
803.790527 68.0
807.145813 76.0
808.463867 96.0
810.060486 104.0
810.389099 68.0
811.397888 40.0
812.316589 84.0
813.139343 72.0
813.695618 144.0
814.973511 48.0
818.386169 48.0
820.283264 72.0
820.574036 88.0
822.251099 100.0
823.569946 72.0
825.816162 60.0
826.085022 128.0
827.338257 48.0
827.950928 96.0
828.483643 40.0
829.148315 112.0
829.65271 56.0
831.115173 52.0
832.05072 68.0
833.256775 108.0
834.7052 72.0
835.895935 48.0
839.611572 120.0
839.761475 36.0
840.390259 44.0
841.902649 56.0
842.57843 64.0
843.346985 108.0
843.59552 60.0
844.2547 140.0
847.48468 100.0
847.536804 36.0
850.302917 44.0
850.419006 64.0
851.283997 28.0
851.434998 28.0
851.62085 52.0
851.77771 112.0
853.410706 88.0
855.935974 104.0
858.593262 80.0
858.639893 100.0
858.838196 120.0
858.914062 56.0
859.124023 80.0
859.911743 60.0
860.524719 92.0
860.851685 64.0
861.242981 92.0
863.563354 64.0
864.996887 84.0
865.125671 80.0
865.254517 60.0
865.435974 72.0
867.105469 44.0
870.437561 104.0
871.330383 92.0
871.88269 76.0
872.25885 128.0
873.276062 108.0
873.829041 76.0
874.882446 72.0
875.165039 56.0
875.765747 112.0
875.865845 44.0
877.78125 28.0
877.922791 80.0
878.341492 40.0
879.108521 120.0
879.940735 140.0
880.041138 64.0
881.228271 108.0
881.281494 96.0
882.221191 80.0
882.948425 92.0
885.18634 96.0
885.297852 84.0
887.495605 76.0
888.504517 132.0
890.273315 96.0
891.235596 68.0
891.782349 64.0
891.877441 64.0
892.739502 32.0
893.679321 56.0
894.86969 120.0
896.394531 72.0
898.76178 104.0
899.113831 68.0
899.221252 124.0
899.573425 128.0
901.018616 48.0
901.855225 116.0
903.045044 140.0
903.200562 96.0
903.798767 112.0
904.989868 112.0
905.768433 40.0
908.957886 60.0
909.858154 136.0
910.422607 116.0
912.477539 68.0
915.570435 36.0
917.51062 104.0
918.131653 76.0
918.282471 104.0
918.415161 60.0
918.765015 52.0
919.83313 176.0
920.660278 88.0
922.267334 88.0
922.388245 48.0
923.978699 120.0
925.15271 44.0
927.484863 60.0
927.80011 120.0
928.600525 76.0
929.86853 48.0
929.97168 84.0
930.426941 132.0
931.119202 96.0
931.732666 64.0
932.978516 108.0
934.206909 100.0
935.168335 72.0
935.484863 56.0
935.655334 92.0
935.898865 76.0
936.52002 56.0
937.598389 84.0
937.83606 112.0
938.207947 100.0
941.496704 64.0
942.125793 76.0
942.211365 48.0
943.182983 124.0
943.476379 68.0
946.266174 76.0
946.866211 44.0
947.013245 52.0
948.753479 60.0
950.59967 100.0
951.581726 100.0
951.722961 32.0
953.953064 60.0
954.40802 88.0
955.047607 84.0
955.207092 108.0
958.242493 84.0
960.55426 124.0
961.004639 40.0
961.066345 48.0
961.356384 44.0
961.776062 124.0
962.078491 84.0
962.164917 100.0
963.066467 68.0
963.140625 104.0
963.746033 52.0
966.008789 124.0
966.318054 40.0
966.856445 36.0
967.308228 92.0
967.357788 76.0
967.729248 92.0
968.131714 52.0
968.4104 164.0
968.83783 76.0
968.949341 68.0
969.60614 104.0
970.151611 84.0
970.232178 52.0
972.477661 100.0
973.682129 76.0
974.278442 56.0
975.11731 60.0
975.27887 80.0
975.477783 80.0
977.32489 116.0
977.866272 48.0
979.117676 40.0
981.604126 60.0
981.728821 32.0
982.695679 96.0
982.889099 44.0
983.856506 72.0
987.311829 84.0
987.612 68.0
990.315918 64.0
991.261902 100.0
991.312012 120.0
991.355896 128.0
992.264771 88.0
992.396423 140.0
993.782532 56.0
994.140198 92.0
997.487793 36.0
998.129028 44.0
999.483032 92.0
999.997437 108.0
1001.086609 56.0
1001.514832 76.0
1002.245605 80.0
1003.468384 52.0
1004.982056 88.0
1006.143372 60.0
1010.314331 140.0
1010.649658 120.0
1013.670044 96.0
1016.555298 76.0
1021.05304 108.0
1021.778137 92.0
1024.248047 84.0
1025.101807 80.0
1025.815674 68.0
1027.984131 60.0
1028.475586 44.0
1031.682251 84.0
1032.782104 80.0
1033.031494 52.0
1033.108276 56.0
1033.415405 88.0
1034.080933 80.0
1035.790527 56.0
1036.053101 128.0
1038.251587 52.0
1038.860962 92.0
1040.041626 100.0
1041.23584 80.0
1044.378784 100.0
1047.719604 76.0
1048.267212 68.0
1050.981934 76.0
1052.072632 56.0
1052.640747 72.0
1053.480469 64.0
1053.784058 52.0
1054.630615 48.0
1055.380493 80.0
1060.948364 84.0
1062.546753 164.0
1062.881104 76.0
1065.02356 64.0
1065.653687 160.0
1065.718628 164.0
1067.265503 76.0
1069.18457 92.0
1070.981445 88.0
1071.150757 76.0
1072.375732 32.0
1073.184082 60.0
1074.801758 120.0
1075.369507 88.0
1075.87207 56.0
1076.002686 28.0
1076.668701 128.0
1078.667969 96.0
1080.359497 108.0
1080.60376 76.0
1081.372925 84.0
1082.010864 48.0
1082.42981 44.0
1084.21167 120.0
1086.703369 68.0
1091.41272 60.0
1093.649536 80.0
1094.867432 64.0
1100.677124 72.0
1104.265503 52.0
1105.734253 100.0
1109.516479 64.0
1112.355713 124.0
1112.428711 84.0
1114.460938 76.0
1114.553955 80.0
1119.243286 80.0
1119.296631 76.0
1120.768677 40.0
1121.001831 164.0
1122.97522 84.0
1124.316162 80.0
1125.117188 124.0
1125.878418 68.0
1127.809204 148.0
1128.183472 88.0
1128.491089 44.0
1129.23999 60.0
1129.447388 72.0
1130.290283 112.0
1130.919434 60.0
1131.213867 64.0
1131.307617 40.0
1131.990479 56.0
1137.468018 60.0
1137.548584 112.0
1139.227417 140.0
1141.142822 96.0
1143.961548 68.0
1145.072632 64.0
1145.854004 80.0
1148.273926 84.0
1148.671875 44.0
1149.319458 60.0
1149.866089 52.0
1152.445679 76.0
1153.364746 60.0
1153.86499 92.0
1155.772339 112.0
1156.963501 48.0
1161.130615 100.0
1161.964966 100.0
1163.037109 60.0
1163.295044 112.0
1166.956909 112.0
1167.52124 112.0
1174.072632 88.0
1176.03064 60.0
1176.522095 120.0
1180.430298 92.0
1182.174683 192.0
1183.098633 52.0
1186.846313 64.0
1187.298828 84.0
1189.151245 116.0
1189.405151 76.0
1192.812256 104.0
1193.430908 104.0
1193.843506 92.0
1194.792725 88.0
1194.923462 96.0
1195.384399 60.0
1195.552002 36.0
1196.809326 52.0
1197.959473 88.0
1205.327881 48.0
1205.54895 36.0
1208.328613 40.0
1208.397705 112.0
1210.1073 44.0
1213.086182 212.0
1213.391235 80.0
1214.369019 124.0
1221.836304 180.0
1223.58313 60.0
1224.857544 68.0
1225.275513 56.0
1226.899292 64.0
1231.860962 84.0
1232.741333 92.0
1232.825195 72.0
1235.342163 64.0
1235.510132 64.0
1238.548096 100.0
1238.69519 92.0
1248.922241 84.0
1250.892456 52.0
1255.401611 184.0
1256.290405 32.0
1257.073486 100.0
1259.848267 128.0
1260.59021 36.0
1262.046265 76.0
1262.937378 144.0
1266.532959 64.0
1268.396484 128.0
1274.599243 72.0
1276.667847 76.0
1282.242188 60.0
1282.591431 116.0
1283.781982 56.0
1283.91748 32.0
1286.786011 48.0
1288.764404 100.0
1289.700562 180.0
1294.715942 60.0
1295.704346 112.0
1297.897583 36.0
1298.0625 36.0
1300.602173 136.0
1302.670166 68.0
1302.777954 124.0
1305.652954 128.0
1306.473022 92.0
1306.731934 56.0
1313.381104 76.0
1319.511963 96.0
1323.027954 88.0
1323.925781 52.0
1325.207886 40.0
1341.40686 72.0
1342.500488 56.0
1343.44873 104.0
1344.244019 104.0
1344.769409 44.0
1347.778198 76.0
1354.091309 72.0
1354.567383 52.0
1369.743408 72.0
1369.942261 52.0
1371.386475 100.0
1378.256958 224.0
1381.52478 44.0
1383.893066 40.0
1392.67334 180.0
1395.363281 76.0
1397.475586 72.0
1401.600464 32.0
1402.055054 92.0
1404.873535 68.0
1405.970337 116.0
1408.195068 56.0
1411.438354 28.0
1412.418091 96.0
1417.174683 104.0
1428.071777 52.0
1431.262573 60.0
1431.337891 96.0
1432.452515 56.0
1434.185669 36.0
1435.761353 100.0
1438.296387 116.0
1439.028687 72.0
1440.531494 76.0
1445.650146 88.0
1451.308472 116.0
1453.508179 44.0
1454.752808 72.0
1455.041382 64.0
1456.468994 120.0
1457.669312 80.0
1462.079956 84.0
1470.921265 56.0
1476.559937 168.0
1478.870483 160.0
1497.874512 180.0
1498.33667 80.0
1500.036987 124.0
1502.53833 108.0
