>compound MLS001032368-01!(3S)-2-[2-[[(2Z)-2-[(3-methoxyphenyl)methylidene]-3-oxo-1-benzofuran-6-yl]oxy]acetyl]-3,4-dihydro-1H-isoquinoline-3-carboxylic acid
>formula C28H23NO7
>ionization [M+H]+
>parentmass 486.155
#inchi InChI=1S/C28H23NO7/c1-34-20-8-4-5-17(11-20)12-25-27(31)22-10-9-21(14-24(22)36-25)35-16-26(30)29-15-19-7-3-2-6-18(19)13-23(29)28(32)33/h2-12,14,23H,13,15-16H2,1H3,(H,32,33)/b25-12-/t23-/m0/s1
#inchikey UEBRRVYQTOVOPM
#Ion_Source LC-ESI
#Instrument qTof
#Compound_Source NIH Natural Product Library
#PI Dorrestein
#Data_Collector VVP/LMS
#Scan -1
#Precursor_MZ 486.155
#ExactMass 485.147
#Charge 1
#CAS_Number N/A
#Pubmed_ID N/A
#Smiles COc1cccc(/C=C/2\Oc3cc(OCC(=O)N4Cc5ccccc5C[C@H]4C(=O)O)ccc3C2=O)c1
#INCHI_AUX N/A
#Library_Class 1
#SpectrumID CCMSLIB00000079803
#IonMode Positive
#UpdateWorkflowName UPDATE-SINGLE-ANNOTATED-GOLD
#LibraryQualityString Gold
#TaskID b1d8e8f6646f4e71acdff9ca3d919d08
##Scan# 2407
#SpectrumFile p1-C11_GC11_01_17907.mzXML
#LibraryName NIH_Natural_Products_Library.mgf
#MQScore -1
#Organism NIH_Natural_Products_Library
#TIC_Query 0
#RT_Query -1
#MZErrorPPM -1
#SharedPeaks 0
#MassDiff 0
#LibMZ -1
#SpecMZ 486.155
#SpecCharge 0
#internalFilename spec-00000.mgf

>collision 10
95.399612 132.0
95.829704 164.0
96.143639 180.0
96.438538 76.0
96.469818 140.0
96.776962 176.0
96.888824 136.0
97.084602 148.0
97.262939 196.0
97.459518 192.0
97.715111 180.0
97.976952 144.0
98.515503 160.0
98.839874 296.0
98.920883 188.0
99.289406 120.0
99.438202 224.0
99.48584 44.0
99.700348 184.0
99.794525 164.0
99.835526 232.0
99.853424 220.0
99.885246 152.0
99.964828 148.0
100.108154 144.0
100.383148 140.0
100.421036 84.0
100.478882 176.0
100.55471 128.0
100.636551 76.0
101.108299 164.0
101.555069 136.0
102.266319 136.0
103.002266 112.0
103.055008 572.0
103.105301 236.0
103.339867 196.0
103.513931 140.0
103.603134 192.0
103.661804 184.0
103.712471 212.0
103.740852 136.0
103.91526 188.0
104.065445 136.0
104.187302 180.0
104.52887 200.0
104.746712 184.0
104.962738 192.0
105.071297 480.0
105.12796 192.0
105.172859 196.0
105.31987 200.0
105.346428 148.0
105.511955 84.0
106.035965 176.0
106.072853 344.0
106.618805 108.0
106.727745 204.0
106.77916 132.0
106.807953 140.0
106.834694 208.0
107.048561 1368.0
107.074989 156.0
107.227966 88.0
107.725227 92.0
107.789276 88.0
107.971184 204.0
108.020126 296.0
108.045647 148.0
108.157394 108.0
108.389336 108.0
108.501259 48.0
108.650574 156.0
109.373718 164.0
109.444496 156.0
109.615295 188.0
110.072113 128.0
110.224594 176.0
110.286629 164.0
110.387642 128.0
110.460838 76.0
110.542435 116.0
110.776917 148.0
110.915215 116.0
111.055695 84.0
111.106041 244.0
111.177376 188.0
111.236145 160.0
111.347427 188.0
111.496582 132.0
111.654259 136.0
111.778374 116.0
112.165878 184.0
112.197121 92.0
112.277626 144.0
112.640648 172.0
113.131233 216.0
113.273109 112.0
113.321831 128.0
113.338783 112.0
113.769318 124.0
113.881859 128.0
114.415581 116.0
114.796967 180.0
115.012444 176.0
115.054634 864.0
115.106377 124.0
116.058334 636.0
116.498505 200.0
116.565109 44.0
116.866127 172.0
117.056168 1184.0
117.452087 176.0
117.50386 124.0
117.894676 120.0
117.981133 88.0
117.996262 156.0
118.043098 616.0
118.063293 144.0
118.498367 116.0
118.53434 212.0
118.699936 84.0
118.732468 260.0
119.042671 148.0
119.207878 216.0
119.76046 140.0
119.808388 180.0
120.052498 172.0
120.460632 152.0
120.994217 188.0
121.026497 360.0
121.083992 220.0
121.143127 108.0
121.270218 116.0
121.305283 192.0
121.414909 152.0
122.036331 156.0
122.062714 144.0
122.518311 148.0
122.564575 228.0
123.002563 232.0
123.04538 184.0
123.341774 140.0
123.36129 140.0
123.760437 180.0
123.899033 124.0
124.03199 144.0
124.158363 240.0
124.293678 140.0
124.315872 204.0
124.43129 232.0
124.513443 180.0
124.75341 188.0
124.853462 164.0
125.369934 140.0
125.465775 180.0
125.492531 172.0
125.629509 256.0
125.764679 88.0
126.374748 208.0
126.576195 132.0
127.09845 156.0
127.237602 120.0
127.300468 116.0
127.527374 196.0
127.826477 196.0
128.055557 576.0
128.146194 164.0
128.531754 148.0
128.581406 160.0
128.771042 160.0
129.044464 160.0
129.144165 136.0
129.481186 236.0
129.521957 184.0
129.683456 228.0
129.796173 232.0
129.839249 60.0
130.011673 208.0
130.065628 15368.0
130.102264 216.0
130.132324 52.0
130.168304 188.0
130.217606 160.0
130.24324 60.0
130.295486 40.0
130.315933 56.0
130.390915 40.0
130.490936 52.0
130.538681 48.0
130.581894 64.0
130.70929 144.0
130.747971 192.0
130.770737 96.0
130.852676 144.0
131.06958 1460.0
131.105515 144.0
131.176163 68.0
131.354019 64.0
131.435394 60.0
131.46582 80.0
131.497772 80.0
131.597946 160.0
131.637024 140.0
131.657578 236.0
131.674438 104.0
131.770416 84.0
131.827682 112.0
131.860901 128.0
131.936325 104.0
131.993484 164.0
132.081451 15232.0
132.113022 164.0
132.139862 96.0
132.155884 80.0
132.171906 52.0
132.213089 104.0
132.340469 80.0
132.371048 108.0
132.389359 72.0
132.435165 132.0
132.618454 96.0
132.762894 84.0
132.902817 36.0
132.921173 136.0
132.981598 84.0
133.026749 164.0
133.04335 208.0
133.063782 828.0
133.084595 1588.0
133.247208 44.0
133.265579 60.0
133.55983 124.0
133.709381 184.0
133.757996 168.0
133.898163 80.0
133.914291 108.0
133.960358 224.0
133.976471 76.0
133.999512 160.0
134.090088 284.0
134.204636 108.0
134.262283 92.0
134.306107 52.0
134.405304 40.0
134.492996 56.0
134.75856 196.0
134.825577 192.0
134.959641 88.0
135.042892 284.0
135.498901 140.0
136.015121 640.0
136.475998 160.0
136.92511 140.0
137.023987 1816.0
137.09285 52.0
137.456619 48.0
138.019989 144.0
138.272186 236.0
138.382202 224.0
138.585968 168.0
139.113632 200.0
140.058899 140.0
140.223831 72.0
140.487915 96.0
140.525665 236.0
140.8349 140.0
140.976654 168.0
141.009735 120.0
141.073547 188.0
141.222519 112.0
141.887909 72.0
142.101364 120.0
142.398071 136.0
142.887741 152.0
143.070129 500.0
143.325821 180.0
143.471207 124.0
143.528427 112.0
143.685837 40.0
144.024811 132.0
144.080826 4276.0
144.120361 80.0
144.149033 172.0
144.313965 216.0
144.871582 48.0
145.036926 168.0
145.060883 196.0
145.082916 464.0
145.281509 84.0
145.358276 72.0
145.795319 216.0
145.869827 28.0
145.893875 112.0
146.091537 140.0
146.449707 204.0
146.849808 248.0
146.890808 260.0
147.057297 168.0
147.074188 212.0
148.048355 260.0
148.075729 196.0
148.378021 200.0
148.460464 108.0
148.559906 132.0
148.846298 256.0
149.021973 564.0
149.332321 68.0
149.37854 196.0
149.743637 80.0
149.77774 172.0
150.028717 196.0
150.27504 64.0
150.321396 160.0
150.770721 156.0
150.897827 128.0
151.049438 40.0
151.14241 100.0
151.431274 160.0
151.796417 64.0
152.004913 40.0
152.055908 384.0
152.274948 48.0
152.557526 60.0
152.717346 152.0
153.067535 124.0
153.187485 160.0
153.207184 124.0
153.461029 132.0
153.789124 100.0
154.025955 184.0
154.055801 80.0
154.079727 332.0
155.052933 196.0
155.090103 340.0
155.29837 212.0
155.742645 96.0
156.075653 296.0
156.120407 68.0
156.409012 172.0
157.069122 156.0
157.101746 396.0
157.286392 160.0
157.411224 156.0
157.541092 132.0
158.059799 424.0
158.333984 148.0
158.429169 144.0
158.742462 168.0
158.925568 168.0
158.950653 140.0
159.063583 172.0
159.272003 64.0
159.809967 168.0
159.98613 176.0
160.075073 1612.0
160.255615 56.0
160.396729 64.0
160.479919 168.0
160.540436 108.0
160.664032 44.0
161.03508 68.0
161.076492 424.0
161.098221 232.0
161.56337 88.0
161.925323 136.0
161.945587 144.0
162.064651 204.0
162.091614 3168.0
162.163483 28.0
162.307968 72.0
162.37645 76.0
162.924713 88.0
162.980606 112.0
163.037766 1212.0
163.094254 592.0
163.122925 44.0
163.265305 72.0
163.517151 36.0
163.860916 208.0
164.039307 144.0
164.092834 124.0
164.488251 36.0
164.820251 180.0
165.068832 320.0
165.152588 120.0
165.175598 76.0
165.216522 48.0
165.380295 100.0
166.028473 176.0
166.074326 128.0
166.531494 168.0
166.577728 340.0
167.033981 200.0
167.08316 220.0
168.052856 132.0
168.070923 120.0
168.365189 180.0
168.445251 32.0
168.530502 192.0
169.044998 156.0
169.06636 192.0
169.104584 160.0
169.718521 216.0
169.954559 176.0
170.075424 132.0
170.461899 56.0
170.653229 144.0
170.858688 144.0
171.083466 240.0
171.728699 176.0
172.074585 720.0
172.553864 172.0
172.577393 56.0
172.600922 132.0
172.815399 40.0
173.037857 80.0
173.084717 608.0
173.147827 144.0
173.352173 76.0
173.388855 228.0
173.805801 172.0
174.091415 488.0
174.241638 64.0
174.294174 56.0
174.622772 120.0
174.685898 164.0
174.712204 84.0
175.159714 168.0
175.233475 120.0
175.325699 132.0
175.39949 148.0
175.468033 236.0
175.855789 240.0
176.0457 364.0
176.070755 2376.0
176.185867 52.0
176.595566 152.0
177.06929 196.0
177.180557 68.0
177.244156 164.0
178.085449 392.0
178.294983 48.0
178.342819 44.0
179.085739 320.0
179.423553 232.0
180.055252 140.0
180.77504 136.0
181.063171 692.0
182.07338 348.0
182.139664 136.0
182.959824 80.0
183.073837 164.0
183.934311 40.0
184.049042 152.0
184.080933 160.0
184.124649 68.0
184.311035 128.0
184.34346 184.0
185.097427 164.0
185.241699 104.0
185.952087 148.0
185.99823 132.0
186.067444 164.0
186.18013 48.0
186.218155 60.0
186.650238 180.0
187.780365 128.0
187.898163 108.0
188.073639 180.0
188.334412 176.0
188.665039 228.0
188.818161 128.0
190.02066 120.0
190.086441 3532.0
190.126038 208.0
190.177078 52.0
190.196289 80.0
190.278641 52.0
190.374741 64.0
190.39946 128.0
190.506577 116.0
190.58075 76.0
191.087814 608.0
191.783325 164.0
192.093002 168.0
193.072647 112.0
193.188812 188.0
194.016815 132.0
194.530029 184.0
194.86882 124.0
194.96608 156.0
195.027222 152.0
195.052246 72.0
195.082642 320.0
195.157883 80.0
195.346985 92.0
195.380371 44.0
195.488876 28.0
196.073685 136.0
196.790573 184.0
197.058289 340.0
197.095566 612.0
198.029358 180.0
198.06665 408.0
198.100006 304.0
198.270294 72.0
198.609528 192.0
199.073624 144.0
199.631805 180.0
200.053101 168.0
200.064941 144.0
200.076431 160.0
200.439682 156.0
200.690536 184.0
200.752579 176.0
201.082642 148.0
202.034866 156.0
202.567047 220.0
203.088593 228.0
204.549072 136.0
205.478073 148.0
205.729202 128.0
206.003342 44.0
206.106201 208.0
206.291962 136.0
206.434906 44.0
206.60939 176.0
206.789658 144.0
207.082352 204.0
207.577454 132.0
207.600403 212.0
208.019852 160.0
208.051331 172.0
209.055664 212.0
209.330292 108.0
209.759567 60.0
209.909485 244.0
210.068039 176.0
210.099838 224.0
210.140228 140.0
210.320984 176.0
210.553009 132.0
210.590546 204.0
211.041351 96.0
211.074249 180.0
211.416138 224.0
211.807739 116.0
212.049286 468.0
212.086746 100.0
212.158859 160.0
212.318329 76.0
212.341537 124.0
212.855179 180.0
212.913254 124.0
213.049774 176.0
213.090805 4248.0
213.1689 76.0
213.471207 260.0
213.668991 72.0
213.962921 64.0
214.035706 200.0
214.091522 676.0
214.650528 156.0
214.778854 136.0
215.047272 176.0
215.318787 88.0
216.058304 116.0
216.547119 100.0
216.802002 156.0
217.014587 84.0
217.118607 152.0
217.635056 192.0
217.720215 128.0
218.080093 1292.0
218.122726 172.0
218.522675 80.0
218.722778 44.0
218.778702 76.0
218.928864 76.0
219.088058 168.0
219.16452 64.0
219.258804 144.0
220.052322 636.0
220.548569 136.0
220.87381 88.0
221.056274 588.0
221.202255 176.0
221.243698 72.0
221.539841 180.0
221.726501 164.0
221.809494 36.0
222.497696 180.0
222.598648 176.0
223.075455 136.0
223.130493 60.0
223.674866 148.0
223.755249 28.0
223.916046 200.0
224.318268 136.0
224.735794 32.0
224.840225 64.0
225.056763 628.0
225.090637 248.0
225.990662 160.0
226.062592 864.0
226.150925 72.0
226.58046 136.0
227.06839 184.0
227.111023 132.0
227.444077 120.0
227.756348 64.0
228.775711 72.0
231.668686 124.0
232.329544 188.0
232.620865 160.0
232.711945 120.0
233.669296 44.0
233.839706 172.0
234.06192 168.0
234.44603 172.0
235.641846 152.0
235.69989 216.0
235.941345 224.0
236.054474 236.0
236.908386 152.0
236.960464 124.0
236.984879 132.0
236.988708 128.0
237.0009 160.0
237.052444 3312.0
237.11673 188.0
237.610413 56.0
237.680969 208.0
237.708588 52.0
237.769958 180.0
238.02475 176.0
238.05928 416.0
238.119949 176.0
239.067001 140.0
239.898407 48.0
240.067978 168.0
241.085663 424.0
241.432922 80.0
242.088974 144.0
242.138519 168.0
242.736618 148.0
243.406845 160.0
243.444107 36.0
243.798248 72.0
244.566422 76.0
244.641129 132.0
245.744354 68.0
246.562469 160.0
246.596848 60.0
247.075806 116.0
247.150345 172.0
247.920654 228.0
249.050995 376.0
249.090927 184.0
250.059189 440.0
250.553696 84.0
251.071564 1428.0
251.281952 56.0
251.376602 68.0
251.42395 184.0
251.505997 124.0
251.612778 116.0
251.968765 72.0
252.041412 1084.0
252.075577 276.0
252.112381 184.0
252.15979 76.0
252.279892 176.0
252.36525 64.0
252.494904 56.0
252.953674 64.0
253.04628 1108.0
253.084625 496.0
253.69809 152.0
253.815399 112.0
254.055878 2872.0
254.290283 212.0
254.710358 44.0
254.764862 148.0
254.850128 76.0
255.061401 656.0
255.247437 64.0
255.438263 52.0
256.023895 116.0
256.057587 368.0
257.184357 48.0
257.772003 100.0
258.046875 124.0
259.538879 76.0
259.638275 68.0
259.66394 176.0
259.753754 84.0
259.843567 248.0
259.978333 128.0
261.118774 212.0
262.25531 208.0
262.468079 124.0
262.790619 196.0
263.064911 64.0
263.825958 128.0
263.888702 68.0
264.092438 160.0
265.131683 44.0
265.264557 184.0
265.569366 180.0
265.702362 152.0
265.942474 120.0
266.063446 104.0
266.397064 60.0
266.910553 68.0
267.072418 172.0
267.414795 96.0
267.558014 168.0
268.031097 260.0
268.072388 756.0
268.219299 132.0
268.356201 148.0
268.418152 168.0
268.737793 172.0
268.806335 100.0
268.878113 112.0
268.910736 148.0
269.080597 30572.0
269.167236 184.0
269.200439 60.0
269.236237 40.0
269.254517 108.0
269.292725 152.0
269.315613 84.0
269.372131 52.0
269.407074 132.0
269.442993 64.0
269.485474 64.0
269.518219 140.0
269.61618 48.0
269.68808 260.0
269.795929 124.0
269.822083 52.0
269.844971 64.0
269.94635 144.0
270.085327 4568.0
270.15567 72.0
270.198181 112.0
270.251984 64.0
270.345428 88.0
270.397797 28.0
270.428558 88.0
270.535248 88.0
270.561462 68.0
270.617096 96.0
270.814911 108.0
271.036346 32.0
271.088806 584.0
271.259216 56.0
271.299011 56.0
271.432953 52.0
271.498535 84.0
271.52478 40.0
271.783936 104.0
271.865967 48.0
271.9534 112.0
271.963684 72.0
271.976135 168.0
272.098938 204.0
272.167938 48.0
272.210632 68.0
273.032166 92.0
273.101227 112.0
273.752869 124.0
273.795685 72.0
277.04248 96.0
278.236328 120.0
278.608276 84.0
279.0672 176.0
279.196594 116.0
279.226532 44.0
280.068573 140.0
280.618408 88.0
280.821808 52.0
280.961914 44.0
281.080536 6964.0
281.188812 152.0
281.252228 96.0
281.325653 116.0
281.435822 128.0
281.509308 36.0
281.639526 80.0
281.703003 112.0
281.960266 44.0
282.05542 1368.0
282.081299 1532.0
282.160828 64.0
282.221008 164.0
282.411621 88.0
282.465149 56.0
282.66922 52.0
282.826508 128.0
282.849945 88.0
282.889526 164.0
282.979858 148.0
283.059479 1240.0
283.154633 32.0
283.218262 100.0
283.382416 44.0
283.7276 56.0
284.066833 260.0
284.099854 228.0
285.100403 164.0
285.66861 68.0
285.768066 64.0
285.809906 96.0
286.604523 64.0
287.086548 48.0
287.636475 108.0
290.380493 68.0
290.438141 64.0
290.845306 48.0
291.99707 48.0
293.144318 136.0
293.195435 40.0
295.045441 132.0
295.069366 172.0
295.23349 56.0
296.061279 156.0
296.116425 96.0
296.411041 52.0
297.851929 148.0
298.061493 136.0
298.525543 64.0
298.924561 84.0
299.084412 96.0
300.099121 136.0
302.24054 72.0
307.020355 184.0
308.210693 68.0
309.078735 744.0
311.083099 156.0
311.946625 120.0
312.069672 76.0
313.125305 48.0
313.167572 176.0
314.927551 192.0
319.244141 64.0
321.049622 104.0
321.359955 64.0
323.110565 172.0
324.084381 108.0
326.099701 316.0
327.085144 2580.0
327.151245 152.0
327.349426 48.0
327.506042 56.0
327.569122 180.0
327.835754 60.0
328.09137 748.0
328.152954 148.0
328.870789 36.0
328.910492 64.0
329.08313 176.0
330.153351 64.0
330.384827 120.0
336.088837 164.0
337.590118 72.0
337.615723 84.0
338.413391 140.0
339.149719 96.0
341.242126 108.0
344.307861 72.0
346.116119 84.0
349.266846 92.0
351.10672 144.0
355.142151 108.0
356.135437 136.0
359.89505 112.0
377.10553 144.0
380.141693 92.0
382.127197 144.0
383.108246 128.0
383.135498 268.0
383.439423 112.0
383.950134 144.0
384.160767 156.0
384.250488 72.0
385.148315 132.0
385.39444 32.0
393.915649 136.0
395.707092 72.0
396.111023 104.0
396.146667 120.0
397.050354 64.0
398.244965 84.0
402.258545 80.0
410.128448 152.0
412.004791 144.0
412.154388 1436.0
412.214905 36.0
412.954712 60.0
413.151886 472.0
414.140564 176.0
415.153748 56.0
415.190247 72.0
417.96286 44.0
420.711639 92.0
423.148193 128.0
425.512909 232.0
427.885925 84.0
430.367889 116.0
435.212189 104.0
438.990387 64.0
440.147003 1016.0
441.146576 400.0
441.203278 148.0
441.299438 52.0
441.479218 88.0
442.06488 48.0
442.094177 56.0
442.158203 164.0
442.19043 140.0
443.149231 148.0
443.241516 104.0
444.138672 116.0
444.193207 60.0
448.625336 72.0
452.131042 100.0
454.389465 40.0
456.143311 68.0
467.021149 48.0
468.144409 132.0
476.848633 52.0
480.13559 100.0
484.08606 80.0
484.138611 84.0
484.453949 140.0
485.299774 100.0
485.948914 60.0
486.14978 1448.0
487.151367 400.0
487.204498 108.0
487.485687 100.0
488.159637 140.0
488.932495 44.0
489.165771 156.0
491.210358 148.0
492.742188 56.0
497.152252 116.0
501.622101 100.0
510.136169 80.0
510.414917 76.0
533.388367 104.0
539.366699 56.0
552.372498 96.0
561.291016 44.0
561.437195 124.0
573.736694 88.0
581.999207 88.0
605.328003 48.0
613.133911 64.0
615.432556 104.0
633.190308 68.0
682.929688 132.0
699.390442 188.0
701.460449 60.0
714.407776 140.0
717.112671 76.0
727.902954 200.0
730.041626 44.0
731.074463 20.0
743.086121 40.0
760.702332 212.0
765.061523 200.0
769.411133 140.0
774.498474 168.0
779.330322 80.0
807.59021 240.0
808.812317 88.0
815.476746 64.0
822.071472 220.0
825.195862 68.0
834.593018 140.0
844.280457 180.0
869.36554 112.0
877.070007 176.0
879.346619 176.0
946.652771 192.0
948.570435 176.0
948.693054 128.0
950.06665 56.0
951.564087 148.0
952.466797 148.0
957.343933 60.0
965.81134 240.0
968.064087 208.0
972.167786 172.0
1001.294312 68.0
1025.235107 204.0
1025.477295 72.0
1040.098633 116.0
1056.207153 168.0
1073.150146 132.0
1076.732544 96.0
1086.144165 120.0
1100.846924 160.0
1108.182251 96.0
1115.987427 184.0
1116.87854 168.0
1117.217773 208.0
1132.577393 188.0
1138.445679 176.0
1144.066528 188.0
1157.813599 152.0
1161.615967 144.0
1164.222168 164.0
1164.324097 144.0
1170.886719 56.0
1171.417969 104.0
1174.055664 80.0
1178.226074 204.0
1179.93457 160.0
1183.91687 120.0
1186.013306 120.0
1187.295288 188.0
1188.976074 108.0
1194.169922 192.0
1200.36792 180.0
1207.542969 188.0
1221.692993 88.0
1224.567627 72.0
1230.494751 140.0
1231.213989 184.0
1247.50415 196.0
1251.500244 176.0
1254.148926 220.0
1254.832764 128.0
1254.980835 204.0
1256.666504 176.0
1258.833374 56.0
1260.754761 168.0
1263.59021 40.0
1264.488892 180.0
1264.56665 216.0
1265.890503 124.0
1266.719116 80.0
1266.988403 44.0
1283.626831 204.0
1286.65918 172.0
1290.138184 152.0
1292.448242 160.0
1298.150024 244.0
1298.264771 176.0
1299.09668 120.0
1308.453369 192.0
1309.77832 184.0
1310.866211 220.0
1310.974365 108.0
1313.901611 156.0
1314.955078 176.0
1318.580566 196.0
1319.715454 124.0
1324.904663 216.0
1325.60022 92.0
1326.817871 68.0
1329.748291 148.0
1330.263672 220.0
1332.478516 188.0
1340.999512 116.0
1352.415161 112.0
1357.85144 196.0
1360.705811 176.0
1361.227173 140.0
1362.020264 108.0
1366.401489 172.0
1367.196167 192.0
1369.971924 140.0
1371.482544 192.0
1374.196289 184.0
1376.639404 180.0
1379.210449 204.0
1380.518921 156.0
1382.101929 168.0
1386.011353 104.0
1391.685547 84.0
1392.472656 104.0
1401.808838 88.0
1401.883423 164.0
1405.589355 188.0
1408.799683 148.0
1410.234375 152.0
1414.759766 200.0
1415.957764 168.0
1420.619873 168.0
1423.306641 240.0
1423.997559 164.0
1427.108521 184.0
1427.243896 152.0
1427.634888 196.0
1433.190063 108.0
1436.175293 196.0
1439.099854 172.0
1440.560791 120.0
1442.072021 28.0
1442.46106 168.0
1443.251221 88.0
1446.511841 128.0
1447.359741 196.0
1448.283691 172.0
1451.64856 196.0
1454.167236 68.0
1455.860107 184.0
1460.359253 212.0
1462.192749 168.0
1463.882812 104.0
1464.895752 208.0
1465.855713 32.0
1466.366333 44.0
1469.538452 136.0
1473.157104 32.0
1477.590942 152.0
1478.111328 192.0
1478.501587 132.0
1484.998169 228.0
1486.171875 208.0
1487.069702 124.0
1487.361328 176.0
1487.630005 148.0
1487.691406 184.0
1492.062622 188.0
1495.970581 132.0
1496.470947 164.0
1502.505493 144.0
1503.462158 120.0
