>compound MLS002153792-01!Clebopride maleate84370-95-6
>formula C20H24ClN3O2
>ionization [M+H]+
>parentmass 374.163818
#inchi InChI=1S/C20H24ClN3O2/c1-26-19-12-18(22)17(21)11-16(19)20(25)23-15-7-9-24(10-8-15)13-14-5-3-2-4-6-14/h2-6,11-12,15H,7-10,13,22H2,1H3,(H,23,25)/p-1
#inchikey BVPWJMCABCPUQY
#origInchi InChI=1S/C20H24ClN3O2.C4H4O4/c1-26-19-12-18(22)17(21)11-16(19)20(25)23-15-7-9-24(10-8-15)13-14-5-3-2-4-6-14;5-3(6)1-2-4(7)8/h2-6,11-12,15H,7-10,13,22H2,1H3,(H,23,25);1-2H,(H,5,6)(H,7,8)/p-2/b;2-1-
#Ion_Source LC-ESI
#Instrument qTof
#Compound_Source NIH Pharmacologically Active Library
#PI Dorrestein
#Data_Collector VP/LMS
#Scan -1
#Precursor_MZ 374.168
#ExactMass 373.156
#Charge 1
#CAS_Number N/A
#Pubmed_ID N/A
#Smiles COc1cc(N)c(Cl)cc1C(=O)NC2CCN(Cc3ccccc3)CC2.[O-]C(=O)/C=C\C(=O)[O-]
#INCHI_AUX N/A
#Library_Class 1
#SpectrumID CCMSLIB00000085730
#IonMode Positive
#UpdateWorkflowName UPDATE-SINGLE-ANNOTATED-GOLD
#LibraryQualityString Gold
#TaskID d252d724072548979f1f6f1ced849daf
##Scan# 1487
#SpectrumFile p4-E08_GE8_01_18380.mzXML
#LibraryName Pharm_Active_Library.mgf
#MQScore -1
#Organism Pharm_Active_Library
#TIC_Query 0
#RT_Query -1
#MZErrorPPM -1
#SharedPeaks 0
#MassDiff 0
#LibMZ -1
#SpecMZ 374.168
#SpecCharge 0
#internalFilename spec-00000.mgf

>collision 10
44.896614 128.0
44.915325 148.0
44.931335 160.0
44.947346 132.0
44.97324 220.0
44.996735 224.0
45.016762 140.0
45.044811 148.0
45.056835 96.0
45.099598 132.0
45.205254 140.0
45.234699 184.0
45.309696 124.0
45.347218 68.0
45.367325 48.0
45.390118 248.0
45.403526 176.0
45.466583 124.0
45.482689 32.0
45.510193 156.0
45.522968 200.0
45.567295 180.0
45.592827 120.0
45.606266 80.0
45.727318 132.0
45.758282 156.0
45.780117 204.0
45.837753 144.0
45.899761 112.0
45.91729 208.0
45.928082 60.0
45.951015 172.0
45.968555 132.0
45.992851 156.0
46.023903 32.0
46.036057 156.0
46.098198 164.0
46.163086 148.0
46.286228 152.0
46.325508 208.0
46.334991 96.0
46.43259 84.0
46.493641 128.0
46.528934 132.0
46.610432 160.0
46.645767 128.0
46.672226 200.0
46.709679 92.0
46.721924 132.0
46.736889 168.0
46.766953 268.0
46.792694 152.0
46.803589 124.0
46.883961 168.0
46.930309 240.0
46.960312 116.0
46.976681 184.0
46.997143 52.0
47.066757 104.0
47.085567 176.0
47.153214 168.0
47.169228 224.0
47.186558 168.0
47.219818 144.0
47.236233 148.0
47.256752 32.0
47.284122 100.0
47.340252 200.0
47.35532 136.0
47.480042 92.0
47.492386 112.0
47.511818 216.0
47.582958 124.0
47.60144 112.0
47.65163 76.0
47.67799 132.0
47.736855 164.0
47.753357 200.0
47.780869 196.0
47.828247 168.0
47.8428 136.0
47.868961 128.0
47.903393 236.0
47.961269 148.0
47.999203 164.0
48.024696 172.0
48.03849 184.0
48.085407 160.0
48.096451 92.0
48.136486 80.0
48.245644 172.0
48.300957 144.0
48.370148 96.0
48.411682 108.0
48.44878 184.0
48.578011 152.0
48.616859 192.0
48.663521 228.0
48.707718 164.0
48.740452 92.0
48.772289 216.0
48.803001 232.0
48.818298 76.0
48.829903 232.0
48.902054 280.0
48.924046 92.0
48.935184 224.0
49.009007 192.0
49.053539 176.0
49.131191 132.0
49.148441 216.0
49.164841 144.0
49.193104 108.0
49.226616 132.0
49.345387 192.0
49.378792 128.0
49.396572 100.0
49.426514 196.0
49.437706 164.0
49.476902 152.0
49.493702 112.0
49.525913 164.0
49.544125 160.0
49.556732 128.0
49.602982 120.0
49.650654 188.0
49.678707 200.0
49.709576 140.0
49.740452 168.0
49.791 148.0
49.869682 92.0
49.892704 244.0
49.944649 152.0
49.971951 144.0
50.035675 128.0
50.062428 200.0
50.10046 88.0
50.161057 84.0
50.225922 176.0
50.235798 120.0
50.266838 160.0
50.318447 192.0
50.328949 68.0
50.348717 196.0
50.412292 152.0
50.430664 128.0
50.451267 124.0
50.483433 148.0
50.515507 248.0
50.559368 168.0
50.614578 164.0
50.624493 164.0
50.665569 208.0
50.726505 160.0
50.752026 280.0
50.771103 180.0
50.783226 188.0
50.814434 164.0
50.825787 148.0
50.866943 132.0
50.879723 128.0
50.9067 104.0
50.952152 240.0
51.024952 144.0
51.096134 192.0
51.125629 176.0
51.14698 280.0
51.256645 124.0
51.305103 208.0
51.316509 64.0
51.362148 208.0
51.410656 144.0
51.476326 208.0
51.487751 160.0
51.53775 180.0
51.576336 144.0
51.646004 188.0
51.666428 156.0
51.68932 148.0
51.702202 196.0
51.71365 212.0
51.735123 160.0
51.766621 36.0
51.781792 168.0
51.804798 184.0
51.821053 192.0
51.835384 168.0
51.886982 184.0
51.898453 140.0
51.909927 56.0
51.935543 172.0
51.973042 88.0
52.00605 140.0
52.017532 172.0
52.076405 188.0
52.088268 160.0
52.106575 260.0
52.132439 168.0
52.220139 164.0
52.247467 104.0
52.278526 144.0
52.293983 160.0
52.315144 164.0
52.347481 224.0
52.420254 80.0
52.433224 240.0
52.482235 116.0
52.508194 140.0
52.549473 228.0
52.593323 120.0
52.60487 160.0
52.619308 76.0
52.635189 188.0
52.690079 92.0
52.703239 220.0
52.740654 128.0
52.800964 124.0
52.878063 72.0
52.893353 164.0
52.924389 128.0
52.943539 196.0
52.966389 168.0
53.018547 48.0
53.038841 64.0
53.069241 128.0
53.085236 156.0
53.147087 144.0
53.17083 188.0
53.194054 148.0
53.204216 168.0
53.231369 160.0
53.257946 116.0
53.268841 136.0
53.277431 116.0
53.300076 184.0
53.310249 100.0
53.346588 76.0
53.361126 96.0
53.382935 380.0
53.449852 196.0
53.507568 104.0
53.558479 184.0
53.591095 108.0
53.611492 180.0
53.627525 212.0
53.726158 144.0
53.797512 196.0
53.86092 168.0
53.877056 132.0
53.921295 160.0
53.9589 164.0
53.977909 112.0
54.052513 200.0
54.065685 48.0
54.094959 256.0
54.117733 180.0
54.176968 232.0
54.203342 192.0
54.2136 144.0
54.239983 60.0
54.263592 152.0
54.30442 148.0
54.349918 104.0
54.376392 140.0
54.397686 156.0
54.408684 48.0
54.486523 168.0
54.508564 136.0
54.520847 156.0
54.532696 248.0
54.549717 160.0
54.579121 140.0
54.599709 212.0
54.681259 140.0
54.696819 188.0
54.72332 176.0
54.743935 160.0
54.760136 188.0
54.773884 152.0
54.789597 172.0
54.821449 220.0
54.827431 136.0
54.829716 176.0
54.867706 76.0
54.898674 76.0
55.061012 200.0
55.086124 128.0
55.121582 148.0
55.171558 148.0
55.175728 120.0
55.282772 108.0
55.324215 180.0
55.381969 200.0
55.395298 104.0
55.451607 32.0
55.53019 136.0
55.544174 144.0
55.561443 172.0
55.613674 120.0
55.616989 128.0
55.623707 152.0
55.642967 192.0
55.674149 172.0
55.723171 176.0
55.736263 128.0
55.73843 104.0
55.744469 156.0
55.827221 172.0
55.903332 100.0
55.941792 172.0
56.010292 160.0
56.043068 132.0
56.05468 116.0
56.085602 192.0
56.098209 184.0
56.120575 172.0
56.141449 196.0
56.160839 204.0
56.204105 200.0
56.222012 140.0
56.241413 124.0
56.295162 132.0
56.320553 172.0
56.369854 128.0
56.388649 132.0
56.397892 316.0
56.416191 92.0
56.426655 132.0
56.468525 84.0
56.489193 160.0
56.536289 164.0
56.54932 84.0
56.571774 164.0
56.61969 156.0
56.663132 140.0
56.684109 176.0
56.694599 172.0
56.75238 144.0
56.776131 104.0
56.83556 92.0
56.855068 240.0
56.886116 228.0
56.9016 148.0
56.991722 128.0
57.033802 104.0
57.056351 136.0
57.124023 228.0
57.193245 104.0
57.209805 124.0
57.239174 128.0
57.267025 240.0
57.301674 164.0
57.343864 76.0
57.355923 144.0
57.426262 204.0
57.456402 236.0
57.470543 208.0
57.553562 204.0
57.590191 204.0
57.613976 144.0
57.728851 140.0
57.742462 192.0
57.753048 152.0
57.781792 168.0
57.82719 132.0
57.868061 80.0
57.954678 244.0
58.037766 200.0
58.096916 156.0
58.11512 164.0
58.1553 244.0
58.175831 92.0
58.195568 204.0
58.228512 100.0
58.324764 188.0
58.361187 60.0
58.392574 156.0
58.495068 192.0
58.618439 64.0
58.673309 184.0
58.73431 176.0
58.758717 104.0
58.845715 172.0
58.894585 140.0
58.930569 216.0
58.967922 216.0
59.031635 220.0
59.10862 128.0
59.120865 176.0
59.168316 180.0
59.197407 200.0
59.231869 152.0
59.372112 172.0
59.425804 176.0
59.461098 148.0
59.636192 152.0
59.685387 144.0
59.725372 164.0
59.774605 156.0
59.814621 164.0
59.873779 76.0
59.888535 156.0
59.905479 80.0
59.940914 120.0
59.98407 152.0
60.004112 176.0
60.121346 100.0
60.142952 224.0
60.214916 184.0
60.220539 112.0
60.225517 212.0
60.255684 128.0
60.370068 68.0
60.464581 132.0
60.490753 132.0
60.507526 168.0
60.67976 160.0
60.731304 168.0
60.76041 92.0
60.872166 200.0
60.906334 116.0
60.920315 68.0
60.94117 136.0
60.982471 124.0
61.012005 168.0
61.046215 128.0
61.085098 144.0
61.102211 84.0
61.123993 164.0
61.138138 176.0
61.200268 168.0
61.211166 208.0
61.226738 152.0
61.321777 236.0
61.335808 120.0
61.349834 184.0
61.400043 200.0
61.473854 336.0
61.521442 180.0
61.546425 208.0
61.576096 164.0
61.598541 108.0
61.620747 192.0
61.652649 272.0
61.682346 88.0
61.705795 116.0
61.777737 256.0
61.805901 84.0
61.83094 100.0
61.870071 68.0
61.903057 180.0
61.94994 100.0
61.969318 228.0
61.998516 32.0
62.043972 132.0
62.11768 128.0
62.208538 120.0
62.233814 216.0
62.255798 216.0
62.29821 100.0
62.315491 204.0
62.364784 276.0
62.392502 212.0
62.408226 48.0
62.427097 116.0
62.438103 152.0
62.482147 196.0
62.497883 176.0
62.58746 132.0
62.62225 56.0
62.636425 180.0
62.655331 140.0
62.697876 104.0
62.721519 144.0
62.737282 140.0
62.759354 220.0
62.816624 192.0
62.842953 156.0
62.853996 196.0
62.865044 156.0
62.889984 224.0
62.920361 180.0
63.047485 208.0
63.094078 196.0
63.110817 184.0
63.128864 144.0
63.143097 84.0
63.184223 40.0
63.245941 144.0
63.339367 120.0
63.352039 152.0
63.375805 160.0
63.448711 52.0
63.470909 136.0
63.556862 128.0
63.57402 116.0
63.595409 168.0
63.645454 148.0
63.678288 184.0
63.713234 208.0
63.785263 180.0
63.806805 204.0
63.823421 148.0
63.866112 280.0
63.933186 144.0
63.958649 160.0
63.974064 176.0
64.014374 104.0
64.047821 96.0
64.079681 80.0
64.113144 180.0
64.143448 196.0
64.207207 180.0
64.2229 176.0
64.349228 80.0
64.390251 120.0
64.412857 200.0
64.507393 124.0
64.593742 140.0
64.619339 144.0
64.650703 220.0
64.702568 400.0
64.730644 252.0
64.742599 112.0
64.755409 128.0
64.77623 96.0
64.864372 172.0
64.926903 216.0
64.957375 168.0
64.997482 184.0
65.026375 148.0
65.064896 160.0
65.093803 116.0
65.118279 148.0
65.166084 212.0
65.183762 188.0
65.236801 120.0
65.290367 252.0
65.326347 156.0
65.353386 424.0
65.381561 56.0
65.397659 36.0
65.411644 168.0
65.441124 104.0
65.468498 44.0
65.548782 172.0
65.574829 136.0
65.605453 108.0
65.660278 176.0
65.728035 208.0
65.740944 144.0
65.807129 92.0
65.836197 108.0
65.849113 188.0
65.894348 104.0
65.912117 116.0
65.925049 104.0
65.955757 144.0
66.002998 164.0
66.05278 148.0
66.064102 72.0
66.085403 144.0
66.127213 172.0
66.145012 112.0
66.22274 164.0
66.233994 156.0
66.289505 152.0
66.31897 336.0
66.363724 84.0
66.375076 108.0
66.391449 168.0
66.441574 52.0
66.479561 196.0
66.555191 72.0
66.577927 204.0
66.600662 96.0
66.685158 136.0
66.720917 264.0
66.768074 188.0
66.790848 124.0
66.802231 200.0
66.836395 28.0
66.889114 204.0
66.905373 180.0
66.935738 160.0
66.985146 132.0
67.028542 164.0
67.054039 236.0
67.067581 160.0
67.093742 204.0
67.139397 180.0
67.16008 176.0
67.201385 108.0
67.22097 176.0
67.271561 104.0
67.324249 140.0
67.341782 80.0
67.366409 148.0
67.372131 144.0
67.452888 148.0
67.508484 140.0
67.521561 124.0
67.533012 136.0
67.588684 136.0
67.635551 192.0
67.695038 212.0
67.712128 172.0
67.78186 176.0
67.82119 180.0
67.845886 184.0
68.011505 168.0
68.043144 188.0
68.100128 132.0
68.114059 368.0
68.137917 140.0
68.165848 164.0
68.178993 132.0
68.205292 128.0
68.24968 184.0
68.279282 176.0
68.297371 180.0
68.365593 184.0
68.386223 112.0
68.420799 196.0
68.465256 152.0
68.486664 188.0
68.517967 116.0
68.548592 184.0
68.656425 184.0
68.676994 348.0
68.768616 136.0
68.801636 116.0
68.834656 180.0
68.867683 164.0
68.894119 116.0
68.907333 60.0
68.933769 184.0
68.955254 88.0
68.976746 156.0
69.013115 108.0
69.046188 144.0
69.061707 188.0
69.110703 188.0
69.130562 200.0
69.148766 64.0
69.175247 116.0
69.216766 372.0
69.252563 156.0
69.306091 84.0
69.334259 180.0
69.350838 116.0
69.385651 140.0
69.51503 164.0
69.578423 144.0
69.651123 152.0
69.654854 148.0
69.674431 172.0
69.701012 228.0
69.73259 188.0
69.757523 184.0
69.784119 192.0
69.817757 140.0
69.873932 152.0
69.895561 136.0
69.926529 204.0
69.942162 112.0
69.965149 144.0
69.988777 128.0
70.024673 192.0
70.041046 168.0
70.074669 188.0
70.137459 116.0
70.233765 156.0
70.247108 104.0
70.307182 36.0
70.355583 156.0
70.378067 180.0
70.459129 204.0
70.482079 136.0
70.499237 88.0
70.520317 176.0
70.537674 136.0
70.65641 176.0
70.879105 44.0
70.899864 120.0
70.936142 124.0
70.95079 176.0
70.971291 152.0
71.00592 160.0
71.052757 148.0
71.125641 148.0
71.139618 196.0
71.172646 160.0
71.228073 80.0
71.249908 180.0
71.28997 76.0
71.337296 92.0
71.370926 240.0
71.444931 168.0
71.524025 208.0
71.539169 228.0
71.617332 184.0
71.659294 172.0
71.7211 96.0
71.753822 208.0
71.830704 144.0
71.852066 224.0
71.893135 172.0
71.948837 152.0
71.999496 88.0
72.095795 404.0
72.117767 148.0
72.13636 140.0
72.156647 160.0
72.170174 188.0
72.182007 52.0
72.273354 184.0
72.290276 140.0
72.30381 156.0
72.329201 144.0
72.37999 144.0
72.402565 172.0
72.422333 96.0
72.457901 192.0
72.4702 124.0
72.534164 184.0
72.556206 176.0
72.568069 148.0
72.579941 96.0
72.615555 156.0
72.651566 140.0
72.660721 172.0
72.732628 136.0
72.807335 156.0
72.845596 196.0
72.88208 108.0
72.927528 216.0
72.946663 120.0
73.036789 132.0
73.082726 108.0
73.111656 236.0
73.130371 124.0
73.157104 304.0
73.200684 188.0
73.316017 136.0
73.350677 156.0
73.396141 164.0
73.41407 164.0
73.430511 208.0
73.459595 136.0
73.488251 124.0
73.631645 160.0
73.652138 132.0
73.684731 152.0
73.717064 188.0
73.739281 192.0
73.866577 152.0
73.912003 180.0
73.946228 216.0
73.968483 160.0
74.035255 84.0
74.074654 120.0
74.110634 184.0
74.162041 88.0
74.192123 112.0
74.257874 180.0
74.379738 228.0
74.398766 100.0
74.488068 120.0
74.534142 176.0
74.616959 232.0
74.637596 172.0
74.677147 132.0
74.742523 156.0
74.818253 168.0
74.892212 152.0
74.909523 168.0
74.92778 188.0
74.957764 68.0
75.0112 188.0
75.099136 184.0
75.119835 136.0
75.170479 240.0
75.205231 164.0
75.299355 108.0
75.347115 148.0
75.380547 52.0
75.418571 104.0
75.44796 116.0
75.492912 124.0
75.514793 228.0
75.547531 180.0
75.600174 220.0
75.664215 176.0
75.679802 180.0
75.746307 180.0
75.78199 104.0
75.841774 176.0
75.911995 84.0
75.967499 192.0
75.984848 128.0
76.00132 112.0
76.052528 136.0
76.12545 172.0
76.138992 180.0
76.212303 100.0
76.240105 104.0
76.265961 160.0
76.383698 216.0
76.438354 192.0
76.450539 160.0
76.506233 152.0
76.525383 112.0
76.567177 60.0
76.610725 96.0
76.625481 128.0
76.657112 216.0
76.669968 96.0
76.70134 156.0
76.7519 396.0
76.767593 220.0
76.865288 76.0
76.909073 332.0
76.919899 248.0
76.963036 132.0
76.990974 136.0
77.071335 220.0
77.108032 164.0
77.130753 44.0
77.185844 188.0
77.216431 124.0
77.247917 156.0
77.331909 140.0
77.400185 152.0
77.423782 176.0
77.452721 44.0
77.542084 164.0
77.574402 156.0
77.577606 212.0
77.591164 212.0
77.603706 132.0
77.647278 160.0
77.707809 204.0
77.72271 88.0
77.813988 208.0
77.880676 180.0
77.88343 176.0
77.928787 248.0
77.993172 196.0
78.040962 240.0
78.075806 136.0
78.096916 184.0
78.128578 132.0
78.153214 120.0
78.207764 136.0
78.255142 136.0
78.267624 188.0
78.281708 68.0
78.309242 196.0
78.323982 176.0
78.464966 68.0
78.523155 208.0
78.570786 204.0
78.609604 112.0
78.659019 128.0
78.701393 192.0
78.720818 52.0
78.743774 168.0
78.821503 176.0
78.881599 136.0
78.895737 136.0
78.942757 132.0
78.985931 60.0
79.012238 124.0
79.060471 156.0
79.108032 148.0
79.13813 140.0
79.216057 88.0
79.237312 244.0
79.35154 244.0
79.416359 104.0
79.462006 148.0
79.53949 132.0
79.602707 168.0
79.618034 152.0
79.638077 144.0
79.673759 120.0
79.693298 256.0
79.717735 128.0
79.755501 188.0
79.772575 172.0
79.791855 196.0
79.820732 116.0
79.849739 172.0
79.90844 172.0
79.939995 312.0
79.960571 148.0
79.9814 160.0
79.997421 164.0
80.066864 164.0
80.092377 148.0
80.10601 176.0
80.1399 128.0
80.188019 104.0
80.314613 84.0
80.34137 156.0
80.359215 120.0
80.400253 164.0
80.421669 148.0
80.503799 188.0
80.541306 164.0
80.564796 132.0
80.625282 136.0
80.637794 164.0
80.657455 156.0
80.702148 160.0
80.735107 132.0
80.77726 200.0
80.81662 132.0
80.834518 160.0
80.847046 188.0
80.920433 164.0
80.946266 172.0
80.959831 172.0
81.054771 208.0
81.074486 160.0
81.115707 164.0
81.235855 64.0
81.256187 192.0
81.280426 148.0
81.320137 260.0
81.338142 244.0
81.354301 148.0
81.369736 124.0
81.431564 144.0
81.472832 48.0
81.532127 144.0
81.577065 72.0
81.591446 168.0
81.648987 152.0
81.663376 180.0
81.683029 168.0
81.744331 136.0
81.800125 96.0
81.832535 144.0
81.893761 148.0
81.906372 188.0
81.967628 116.0
82.01088 144.0
82.046158 168.0
82.099495 212.0
82.168404 284.0
82.182205 248.0
82.212883 48.0
82.28508 208.0
82.342865 132.0
82.398865 152.0
82.418739 152.0
82.543465 136.0
82.577827 164.0
82.594109 128.0
82.630486 148.0
82.644226 188.0
82.670097 172.0
82.70768 188.0
82.749741 152.0
82.767853 196.0
82.82399 216.0
82.840294 148.0
82.876183 248.0
82.903961 204.0
82.95446 116.0
83.045731 156.0
83.06871 156.0
83.144913 176.0
83.157623 188.0
83.190292 168.0
83.228424 188.0
83.259293 132.0
83.272003 148.0
83.339226 80.0
83.365639 164.0
83.402832 100.0
83.461006 88.0
83.570145 108.0
83.59198 124.0
83.622917 96.0
83.647438 228.0
83.699379 200.0
83.71759 168.0
83.746727 176.0
83.768547 172.0
83.797737 136.0
83.812126 160.0
83.817627 144.0
83.888863 200.0
83.907089 136.0
83.945381 176.0
84.040237 112.0
84.053009 68.0
84.071259 164.0
84.105934 164.0
84.147926 136.0
84.197227 80.0
84.211838 224.0
84.227173 192.0
84.259331 76.0
84.273949 172.0
84.443962 200.0
84.47506 168.0
84.511841 152.0
84.53727 116.0
84.614143 112.0
84.657845 148.0
84.674576 180.0
84.70475 228.0
84.769836 76.0
84.808327 168.0
84.824821 204.0
84.846825 248.0
84.883492 116.0
84.923843 56.0
85.030258 228.0
85.068802 80.0
85.115677 204.0
85.158783 220.0
85.218193 200.0
85.280045 152.0
85.470741 168.0
85.508698 164.0
85.539406 120.0
85.555977 160.0
85.576225 160.0
85.633316 148.0
85.666183 128.0
85.74939 60.0
85.778885 140.0
85.856323 168.0
85.899254 248.0
85.937927 200.0
85.960678 204.0
86.000229 136.0
86.018341 168.0
86.033463 156.0
86.066696 144.0
86.188606 108.0
86.325394 164.0
86.406784 132.0
86.419739 264.0
86.459625 176.0
86.497467 160.0
86.532639 148.0
86.556709 88.0
86.603012 160.0
86.671555 168.0
86.69194 188.0
86.72345 116.0
86.825424 244.0
86.855553 196.0
86.877357 196.0
86.939125 180.0
86.997986 168.0
87.031982 300.0
87.139305 172.0
87.168861 128.0
87.209846 160.0
87.256226 128.0
87.312012 164.0
87.360374 220.0
87.410606 156.0
87.499954 160.0
87.514847 120.0
87.563263 152.0
87.591202 152.0
87.727242 144.0
87.740288 172.0
87.774399 164.0
87.799957 184.0
87.826073 124.0
87.869385 184.0
87.883904 164.0
87.949219 156.0
87.966019 120.0
87.988426 176.0
88.020164 200.0
88.039383 192.0
88.083664 148.0
88.100479 168.0
88.115425 124.0
88.255112 152.0
88.274307 132.0
88.323708 184.0
88.350594 168.0
88.420975 180.0
88.446434 176.0
88.467026 124.0
88.491364 152.0
88.50634 168.0
88.553162 192.0
88.570015 132.0
88.673126 140.0
88.69931 196.0
88.725555 212.0
88.811821 148.0
88.843712 136.0
88.866219 120.0
88.898125 208.0
88.963814 180.0
89.04644 148.0
89.068977 108.0
89.207741 228.0
89.255035 72.0
89.300171 132.0
89.341553 204.0
89.398003 168.0
89.426231 32.0
89.534492 208.0
89.590057 140.0
89.629623 64.0
89.797409 180.0
89.814384 80.0
89.854004 148.0
89.868942 200.0
89.925713 124.0
89.942696 148.0
89.976677 120.0
89.999184 152.0
90.033241 1372.0
90.071098 132.0
90.186096 228.0
90.227951 164.0
90.34742 164.0
90.360344 192.0
90.426575 76.0
90.443611 232.0
90.477684 208.0
90.494728 84.0
90.511765 124.0
90.543961 84.0
90.591995 212.0
90.670898 180.0
90.722076 124.0
90.767578 104.0
90.814995 44.0
90.865982 168.0
90.921242 172.0
90.945992 188.0
90.985779 152.0
91.021851 128.0
91.054054 8080.0
91.097824 64.0
91.126328 92.0
91.145325 92.0
91.16433 128.0
91.204826 104.0
91.223747 168.0
91.263176 136.0
91.351967 204.0
91.375961 120.0
91.389664 48.0
91.445801 164.0
91.556229 44.0
91.579086 244.0
91.619087 248.0
91.647667 152.0
91.676247 100.0
91.697212 64.0
91.712463 188.0
91.742958 196.0
91.800163 140.0
91.826866 148.0
91.883896 120.0
91.905075 120.0
91.939186 188.0
92.020157 96.0
92.053978 596.0
92.073662 192.0
92.099091 100.0
92.172401 120.0
92.240501 140.0
92.246338 88.0
92.292831 168.0
92.308128 88.0
92.32151 76.0
92.352112 172.0
92.449692 164.0
92.507111 164.0
92.553062 108.0
92.729309 136.0
92.758057 32.0
92.930618 180.0
93.036224 148.0
93.056664 1300.0
93.076859 168.0
93.100372 232.0
93.139915 88.0
93.159126 152.0
93.177574 140.0
93.234947 164.0
93.279167 124.0
93.308731 128.0
93.328262 156.0
93.393646 136.0
93.435966 196.0
93.464828 140.0
93.48407 176.0
93.516792 212.0
93.53878 168.0
93.561066 80.0
93.618828 140.0
93.688126 180.0
93.719002 156.0
93.738266 128.0
93.767174 48.0
93.827637 176.0
93.859711 316.0
93.882851 204.0
93.922676 160.0
93.950363 236.0
94.017097 132.0
94.06234 180.0
94.114418 132.0
94.170418 128.0
94.253494 268.0
94.297935 184.0
94.314095 268.0
94.365601 132.0
94.408142 120.0
94.510666 116.0
94.531952 168.0
94.638412 188.0
94.661652 112.0
94.729439 176.0
94.783691 144.0
94.857338 152.0
94.967865 152.0
94.995018 88.0
95.011696 168.0
95.062927 200.0
95.175522 204.0
95.191055 128.0
95.227951 172.0
95.262634 192.0
95.282341 144.0
95.323151 40.0
95.443665 100.0
95.465057 204.0
95.48645 212.0
95.521461 92.0
95.597343 184.0
95.616806 120.0
95.654488 200.0
95.751144 112.0
95.771782 188.0
95.801788 164.0
95.842705 156.0
95.86219 88.0
95.916763 156.0
95.936256 152.0
96.025955 148.0
96.057159 48.0
96.133255 160.0
96.146919 152.0
96.238663 172.0
96.353897 152.0
96.420341 168.0
96.482887 148.0
96.523949 204.0
96.546646 204.0
96.572525 220.0
96.606094 136.0
96.645317 172.0
96.692192 204.0
96.73632 228.0
96.752876 168.0
96.80574 68.0
96.931114 176.0
96.979218 212.0
97.07225 200.0
97.117363 168.0
97.152672 136.0
97.187141 400.0
97.221344 180.0
97.278267 180.0
97.335205 72.0
97.368591 132.0
97.388229 132.0
97.411804 152.0
97.515945 224.0
97.622665 156.0
97.651329 84.0
97.681114 64.0
97.696854 208.0
97.74604 124.0
97.765724 88.0
97.818581 168.0
97.866112 232.0
97.933075 160.0
97.974442 132.0
98.002022 116.0
98.027641 272.0
98.072968 112.0
98.138023 180.0
98.212608 176.0
98.248474 160.0
98.264259 172.0
98.278069 156.0
98.339241 168.0
98.396492 172.0
98.461655 152.0
98.544624 124.0
98.599274 128.0
98.708687 40.0
98.768013 220.0
98.803627 164.0
98.855072 196.0
98.873444 168.0
98.947128 228.0
98.99984 656.0
99.059006 152.0
99.090698 168.0
99.150146 60.0
99.167984 140.0
99.27108 96.0
99.326065 172.0
99.353508 108.0
99.423836 40.0
99.465515 184.0
99.511177 96.0
99.560822 172.0
99.600548 160.0
99.654182 224.0
99.69194 180.0
99.753555 100.0
99.769463 116.0
99.815193 176.0
99.932549 104.0
99.99334 312.0
100.067894 64.0
100.107712 212.0
100.160118 192.0
100.193367 148.0
100.327171 144.0
100.424599 100.0
100.462502 144.0
100.542313 128.0
100.595764 144.0
100.628151 160.0
100.665459 292.0
100.702675 340.0
100.720016 144.0
100.745987 148.0
100.785942 372.0
100.801933 132.0
100.820305 144.0
100.835907 180.0
100.87188 92.0
100.897873 68.0
100.94268 244.0
100.996376 504.0
101.013626 168.0
101.059875 328.0
101.081886 132.0
101.135612 228.0
101.191978 28.0
101.222015 128.0
101.398308 132.0
101.417992 240.0
101.475426 148.0
101.544952 112.0
101.60891 152.0
101.626633 112.0
101.715225 172.0
101.735298 180.0
101.781471 220.0
101.813606 120.0
101.845741 168.0
101.904877 156.0
101.922081 44.0
101.970314 120.0
102.007706 292.0
102.043266 180.0
102.066811 188.0
102.096977 108.0
102.157318 188.0
102.205605 220.0
102.237801 160.0
102.316307 132.0
102.358589 92.0
102.400124 160.0
102.413887 184.0
102.43512 136.0
102.451241 136.0
102.515717 140.0
102.539902 176.0
102.580215 124.0
102.632629 140.0
102.72541 216.0
102.755669 144.0
102.798042 60.0
102.852539 172.0
102.879532 240.0
102.959549 96.0
102.980667 104.0
103.006462 140.0
103.034286 132.0
103.054489 152.0
103.073563 204.0
103.0951 164.0
103.135323 172.0
103.168274 200.0
103.206009 216.0
103.225403 212.0
103.268578 208.0
103.330627 132.0
103.369293 152.0
103.37429 104.0
103.380821 168.0
103.430649 120.0
103.444817 192.0
103.497459 40.0
103.513657 176.0
103.566315 100.0
103.625061 84.0
103.785187 164.0
103.897636 172.0
103.949493 284.0
103.977905 180.0
104.006325 96.0
104.046921 304.0
104.083466 196.0
104.1119 192.0
104.182991 132.0
104.225655 144.0
104.270363 148.0
104.380142 172.0
104.410652 164.0
104.496086 132.0
104.524574 104.0
104.579521 140.0
104.612091 76.0
104.642632 148.0
104.707794 160.0
104.72612 120.0
104.80761 176.0
104.821877 144.0
104.917412 188.0
104.962532 164.0
104.999237 64.0
105.017593 192.0
105.070633 164.0
105.17675 196.0
105.213493 160.0
105.311508 132.0
105.327332 204.0
105.37484 100.0
105.402054 176.0
105.504837 184.0
105.624252 144.0
105.665169 132.0
105.699951 172.0
105.720413 132.0
105.7593 132.0
105.810478 108.0
105.827713 124.0
105.884193 136.0
105.931305 152.0
105.953842 192.0
105.97023 256.0
105.989494 160.0
106.032799 140.0
106.063446 372.0
106.14241 176.0
106.214195 128.0
106.253166 152.0
106.327522 68.0
106.417068 84.0
106.46254 148.0
106.483078 224.0
106.612511 244.0
106.682396 208.0
106.717346 176.0
106.748192 160.0
106.788025 216.0
106.805779 52.0
106.845787 152.0
106.86335 204.0
106.900833 180.0
106.997162 192.0
107.060989 228.0
107.194901 236.0
107.285591 148.0
107.35157 144.0
107.370132 120.0
107.467087 200.0
107.502167 152.0
107.535187 92.0
107.570274 112.0
107.677643 32.0
107.766563 188.0
107.867744 160.0
107.883362 140.0
107.900818 160.0
107.915291 136.0
107.94838 108.0
108.02697 164.0
108.096359 228.0
108.17804 116.0
108.277428 188.0
108.304352 112.0
108.32608 160.0
108.346977 136.0
108.391365 144.0
108.439842 276.0
108.496193 228.0
108.594536 148.0
108.737701 108.0
108.793747 176.0
108.866417 132.0
109.087746 176.0
109.158142 164.0
109.175224 272.0
109.198944 176.0
109.228065 172.0
109.24263 148.0
109.271118 184.0
109.385185 180.0
109.429932 140.0
109.463249 208.0
109.484077 112.0
109.504898 164.0
109.521568 160.0
109.536148 96.0
109.584061 88.0
109.651299 180.0
109.715363 136.0
109.781128 216.0
109.796684 240.0
109.832146 176.0
109.988876 212.0
110.076332 44.0
110.105568 44.0
110.260765 172.0
110.310333 124.0
110.327057 156.0
110.35006 120.0
110.390533 168.0
110.429527 160.0
110.467178 108.0
110.49408 172.0
110.640877 140.0
110.659714 68.0
110.696106 176.0
110.742348 180.0
110.779091 328.0
110.829376 60.0
110.864243 188.0
110.944649 128.0
110.959328 148.0
110.995163 396.0
111.028526 136.0
111.070747 120.0
111.077194 196.0
111.084267 160.0
111.15229 256.0
111.202461 128.0
111.246742 152.0
111.267738 216.0
111.322327 148.0
111.355934 268.0
111.381134 164.0
111.433655 116.0
111.456772 476.0
111.513512 304.0
111.662788 268.0
111.683823 132.0
111.725899 176.0
111.761665 128.0
111.795334 200.0
111.904793 120.0
111.930061 316.0
111.963753 120.0
111.978493 100.0
111.994164 328.0
112.014305 180.0
112.029053 96.0
112.068039 188.0
112.117546 156.0
112.166763 160.0
112.191322 132.0
112.296753 128.0
112.349266 148.0
112.37059 188.0
112.410248 116.0
112.476105 140.0
112.490883 136.0
112.514107 160.0
112.556335 176.0
112.594345 240.0
112.631004 192.0
112.695747 92.0
112.718987 176.0
112.778168 148.0
112.835243 132.0
112.858498 168.0
112.921097 204.0
112.940979 188.0
112.977264 156.0
113.002754 1848.0
113.122963 168.0
113.181114 196.0
113.223007 160.0
113.242401 128.0
113.286018 184.0
113.363838 204.0
113.404686 220.0
113.472519 164.0
113.519173 160.0
113.55098 144.0
113.580093 204.0
113.59977 136.0
113.616737 156.0
113.657051 100.0
113.714355 152.0
113.769539 200.0
113.818375 52.0
113.875717 168.0
113.899078 144.0
113.920326 168.0
113.981941 152.0
114.004448 392.0
114.024437 180.0
114.043571 60.0
114.088211 176.0
114.17614 148.0
114.208359 144.0
114.271111 192.0
114.345596 164.0
114.407326 160.0
114.444275 236.0
114.522316 132.0
114.543617 148.0
114.686378 356.0
114.701302 168.0
114.729012 180.0
114.789017 140.0
114.998672 572.0
115.089584 152.0
115.154839 224.0
115.256195 192.0
115.282005 156.0
115.33741 144.0
115.372787 132.0
115.442093 108.0
115.510612 164.0
115.542702 60.0
115.591919 176.0
115.645424 204.0
115.686089 144.0
115.703217 40.0
115.718208 128.0
115.752464 204.0
115.842422 140.0
115.900269 144.0
115.936417 152.0
115.987625 312.0
116.025238 236.0
116.117859 112.0
116.2146 208.0
116.243362 244.0
116.297012 100.0
116.427986 168.0
116.462555 168.0
116.490273 92.0
116.522499 136.0
116.537537 220.0
116.589111 120.0
116.610603 160.0
116.640694 72.0
116.718094 128.0
116.789062 148.0
116.851448 100.0
116.86866 196.0
116.989189 140.0
117.016441 268.0
117.094696 60.0
117.133469 208.0
117.183022 164.0
117.278915 172.0
117.287201 140.0
117.32589 196.0
117.360817 172.0
117.429184 232.0
117.482697 276.0
117.508591 88.0
117.58387 176.0
117.726601 160.0
117.776276 100.0
117.8022 188.0
117.85405 148.0
117.873497 136.0
117.912399 188.0
117.968597 192.0
118.003189 156.0
118.130791 188.0
118.165405 196.0
118.290924 100.0
118.32486 184.0
118.355728 172.0
118.373199 132.0
118.442505 68.0
118.505333 168.0
118.527 168.0
118.553001 180.0
118.717148 184.0
118.75766 212.0
118.782829 180.0
118.802353 96.0
118.85041 216.0
118.876129 96.0
118.915344 116.0
119.051971 136.0
119.112785 104.0
119.137177 176.0
119.255363 240.0
119.275757 104.0
119.314888 220.0
119.354202 144.0
119.490555 104.0
119.5411 200.0
119.608574 180.0
119.643295 160.0
119.657219 184.0
119.686943 220.0
119.756638 156.0
119.778419 88.0
119.802383 128.0
119.821991 164.0
119.900436 80.0
119.933128 192.0
119.970894 136.0
120.0439 1312.0
120.078331 528.0
120.175201 196.0
120.192657 128.0
120.251579 180.0
120.293053 168.0
120.535484 168.0
120.563889 192.0
120.59449 140.0
120.708176 156.0
120.724174 76.0
120.872238 152.0
120.950409 200.0
120.979485 136.0
121.032028 140.0
121.050072 284.0
121.086777 216.0
121.117439 164.0
121.167824 136.0
121.365089 100.0
121.415527 236.0
121.512039 208.0
121.620842 180.0
121.698608 80.0
121.718369 56.0
121.768875 164.0
121.797432 36.0
121.830383 48.0
121.858948 172.0
121.982018 132.0
122.012794 176.0
122.038078 164.0
122.241547 160.0
122.281158 156.0
122.336189 108.0
122.389717 180.0
122.457298 208.0
122.544922 160.0
122.574059 168.0
122.5961 148.0
122.637978 112.0
122.653404 256.0
122.723953 196.0
122.757027 116.0
122.775543 384.0
122.798927 244.0
122.820984 80.0
122.840843 152.0
122.907028 124.0
122.944542 228.0
122.966614 196.0
123.035042 144.0
123.065956 252.0
123.118835 152.0
123.139954 188.0
123.205093 148.0
123.275803 56.0
123.302322 128.0
123.380714 328.0
123.430542 148.0
123.638489 144.0
123.660622 168.0
123.733673 196.0
123.793457 100.0
123.817101 136.0
123.89756 180.0
123.95517 132.0
123.992134 200.0
124.061554 404.0
124.092598 140.0
124.122856 216.0
124.150253 128.0
124.175789 136.0
124.227882 116.0
124.264618 252.0
124.309975 108.0
124.329948 132.0
124.385437 116.0
124.440941 160.0
124.467583 32.0
124.485352 60.0
124.500893 104.0
124.594185 192.0
124.626076 148.0
124.703072 636.0
124.729744 104.0
124.76976 148.0
124.789772 148.0
124.834244 220.0
124.918762 140.0
125.056725 192.0
125.123505 152.0
125.22184 176.0
125.250443 52.0
125.408646 132.0
125.450996 120.0
125.500046 28.0
125.517883 152.0
125.54464 136.0
125.577141 224.0
125.613785 148.0
125.658646 188.0
125.686752 204.0
125.736504 204.0
125.77668 116.0
125.799004 164.0
125.827194 184.0
125.886086 108.0
125.926285 200.0
126.00988 9136.0
126.034935 208.0
126.083748 176.0
126.147499 124.0
126.171227 124.0
126.192215 68.0
126.210098 152.0
126.224884 72.0
126.286133 196.0
126.310738 52.0
126.364433 108.0
126.442749 56.0
126.467377 164.0
126.572594 124.0
126.601707 224.0
126.711464 128.0
126.771965 152.0
126.825752 152.0
126.864479 232.0
126.905098 184.0
126.979172 168.0
127.012436 1052.0
127.050003 68.0
127.08625 1552.0
127.234032 136.0
127.259834 156.0
127.281181 36.0
127.335083 128.0
127.357544 112.0
127.378799 172.0
127.433922 76.0
127.45388 152.0
127.485603 204.0
127.524872 152.0
127.584503 40.0
127.616081 172.0
127.737427 156.0
127.800423 236.0
127.820671 172.0
127.838676 100.0
127.966164 252.0
127.982254 224.0
128.008347 2720.0
128.025406 3612.0
128.078537 164.0
128.16745 188.0
128.198257 184.0
128.226028 216.0
128.259842 124.0
128.325226 232.0
128.386566 116.0
128.417679 224.0
128.471817 140.0
128.505661 168.0
128.550415 144.0
128.586258 160.0
128.685928 152.0
128.713318 172.0
128.733643 124.0
128.866531 164.0
128.896286 164.0
129.008255 224.0
129.029541 512.0
129.072601 172.0
129.124619 180.0
129.156128 116.0
129.176651 144.0
129.221527 148.0
129.332779 204.0
129.365997 124.0
129.412018 172.0
129.443726 180.0
129.491272 140.0
129.518463 92.0
129.538849 152.0
129.590958 40.0
129.640808 176.0
129.681595 320.0
129.722397 144.0
129.74733 136.0
129.853912 184.0
129.885666 156.0
129.967346 104.0
129.983231 116.0
130.021637 1236.0
130.074005 152.0
130.098984 112.0
130.14212 136.0
130.235229 248.0
130.276123 68.0
130.337463 72.0
130.413055 152.0
130.430649 208.0
130.504608 132.0
130.564789 160.0
130.724045 124.0
130.744308 124.0
130.771835 204.0
130.852402 200.0
130.868332 156.0
130.883377 152.0
130.937241 204.0
130.992706 204.0
131.024353 224.0
131.091034 152.0
131.124863 224.0
131.220612 204.0
131.289017 164.0
131.312668 192.0
131.366562 200.0
131.455551 212.0
131.574005 192.0
131.593079 200.0
131.746887 80.0
131.889481 200.0
132.002579 120.0
132.019806 176.0
132.038101 68.0
132.086594 160.0
132.104446 200.0
132.159027 168.0
132.209686 192.0
132.253174 260.0
132.296112 212.0
132.302338 160.0
132.395126 80.0
132.4272 68.0
132.476791 172.0
132.539444 180.0
132.58757 164.0
132.725113 160.0
132.791626 140.0
132.881149 148.0
132.908615 120.0
132.933868 176.0
132.958435 228.0
133.06868 164.0
133.121094 144.0
133.287506 80.0
133.308182 120.0
133.381149 128.0
133.485184 36.0
133.501282 144.0
133.535782 144.0
133.57132 276.0
133.623886 276.0
133.655411 196.0
133.673813 48.0
134.007706 136.0
134.074524 220.0
134.101151 160.0
134.166733 152.0
134.300476 200.0
134.359222 192.0
134.537079 164.0
134.670944 104.0
134.686447 188.0
134.741196 96.0
134.802124 100.0
134.843063 192.0
134.877747 172.0
134.970215 144.0
134.991028 216.0
135.401703 168.0
135.431213 184.0
135.446579 208.0
135.486359 120.0
135.639313 180.0
135.752197 192.0
135.785385 152.0
135.843369 236.0
135.868896 160.0
135.885132 128.0
136.001114 180.0
136.084732 144.0
136.119568 176.0
136.36676 188.0
136.425598 168.0
136.449509 124.0
136.479736 184.0
136.542526 160.0
136.679779 196.0
136.705383 84.0
136.746323 168.0
136.791489 104.0
136.828735 256.0
136.879974 160.0
136.977783 184.0
137.005737 184.0
137.087296 68.0
137.105942 128.0
137.159546 136.0
137.180527 144.0
137.255798 184.0
137.283112 176.0
137.299438 72.0
137.350754 288.0
137.395081 84.0
137.420746 168.0
137.482361 208.0
137.521088 128.0
137.583817 184.0
137.651825 156.0
137.70787 160.0
137.798981 124.0
137.857407 160.0
137.925186 172.0
137.955566 176.0
137.990631 104.0
138.012192 164.0
138.095871 124.0
138.121597 100.0
138.153961 196.0
138.189438 168.0
138.261978 128.0
138.308792 120.0
138.341568 116.0
138.421173 144.0
138.456299 252.0
138.533539 172.0
138.561707 116.0
138.601303 160.0
138.7117 140.0
138.749207 160.0
138.770416 164.0
138.799744 180.0
138.868805 212.0
138.896942 156.0
138.932129 196.0
138.969681 184.0
138.991135 596.0
139.148056 128.0
139.209106 164.0
139.364136 180.0
139.441681 164.0
139.458145 80.0
139.479294 140.0
139.509857 116.0
139.54747 216.0
139.566284 164.0
139.599197 76.0
139.635178 188.0
139.709747 116.0
139.749741 196.0
139.799164 208.0
139.815643 172.0
139.855652 116.0
139.881546 92.0
140.022873 364.0
140.048721 200.0
140.072281 168.0
140.105255 176.0
140.138245 156.0
140.180664 188.0
140.234467 164.0
140.352875 200.0
140.383392 180.0
140.436615 120.0
140.494263 60.0
140.558624 104.0
140.588638 104.0
140.628754 220.0
140.664169 184.0
140.706284 152.0
140.758606 104.0
140.867249 124.0
140.90033 180.0
140.933899 152.0
140.953842 324.0
140.997116 28608.0
141.047043 232.0
141.063385 272.0
141.082306 76.0
141.108429 116.0
141.133438 128.0
141.174438 152.0
141.216827 36.0
141.260757 176.0
141.29364 56.0
141.354309 44.0
141.403885 152.0
141.437134 96.0
141.475021 156.0
141.498688 132.0
141.548416 76.0
141.567352 280.0
141.702377 212.0
141.745026 180.0
141.79953 240.0
141.826767 228.0
141.844574 116.0
141.884872 60.0
141.929245 232.0
141.999268 2100.0
142.022888 180.0
142.086456 132.0
142.118484 188.0
142.259415 164.0
142.358856 100.0
142.417831 144.0
142.442566 72.0
142.473434 36.0
142.499573 88.0
142.525711 96.0
142.582748 156.0
142.623154 164.0
142.67244 180.0
142.692551 164.0
142.716095 128.0
142.739655 156.0
142.756287 148.0
142.776199 272.0
142.801483 212.0
142.836533 168.0
142.869751 172.0
142.894257 160.0
142.921066 196.0
142.940231 216.0
142.99437 7876.0
143.018997 200.0
143.063782 172.0
143.097351 180.0
143.132278 180.0
143.15535 220.0
143.191818 180.0
143.213211 212.0
143.248978 172.0
143.272797 72.0
143.29425 188.0
143.32045 152.0
143.371613 156.0
143.398682 92.0
143.480652 136.0
143.525894 160.0
143.566574 180.0
143.616074 92.0
143.639923 92.0
143.718658 172.0
143.771149 216.0
143.796173 132.0
143.883347 140.0
143.949371 120.0
143.964523 196.0
143.999222 324.0
144.019821 940.0
144.083954 116.0
144.141296 172.0
144.182114 152.0
144.229736 164.0
144.272766 52.0
144.303848 92.0
144.322968 44.0
144.361237 128.0
144.382751 104.0
144.425308 172.0
144.554993 196.0
144.617218 128.0
144.74411 140.0
144.77652 164.0
144.801834 188.0
144.835114 44.0
144.861465 148.0
144.904495 204.0
144.945328 116.0
145.0009 168.0
145.022308 220.0
145.102829 120.0
145.16951 184.0
145.199432 156.0
145.221024 84.0
145.288193 132.0
145.326584 116.0
145.362564 196.0
145.403366 208.0
145.463379 200.0
145.614655 172.0
145.670319 184.0
145.725143 112.0
145.763596 168.0
145.823669 40.0
145.91983 160.0
145.946274 160.0
146.018814 376.0
146.04248 64.0
146.102615 120.0
146.160355 208.0
146.182022 208.0
146.236694 212.0
146.25502 228.0
146.309586 236.0
146.333664 164.0
146.36496 172.0
146.396271 204.0
146.487793 132.0
146.526825 180.0
146.574539 160.0
146.600769 36.0
146.72879 208.0
146.909805 140.0
146.981033 152.0
147.025436 184.0
147.066513 180.0
147.151016 176.0
147.197708 140.0
147.363556 184.0
147.394974 128.0
147.414291 124.0
147.50856 128.0
147.530319 108.0
147.547241 184.0
147.573837 188.0
147.634293 40.0
147.663315 132.0
147.73587 140.0
147.78125 164.0
147.806046 144.0
147.822983 180.0
147.842346 44.0
148.048126 188.0
148.065079 144.0
148.152695 164.0
148.183777 164.0
148.23465 172.0
148.302521 80.0
148.389069 188.0
148.440704 216.0
148.524384 80.0
148.61293 132.0
148.64447 184.0
148.758545 140.0
148.833206 160.0
148.8918 204.0
148.9431 136.0
149.025696 84.0
149.046432 256.0
149.088882 216.0
149.176376 100.0
149.198257 60.0
149.307678 140.0
149.373352 188.0
149.404984 152.0
149.42688 144.0
149.473099 176.0
149.582626 120.0
149.633759 144.0
149.682449 168.0
149.743332 100.0
149.796921 148.0
149.821289 148.0
149.89682 132.0
149.944458 152.0
150.05748 228.0
150.062897 112.0
150.125961 204.0
150.189377 144.0
150.216202 112.0
150.252808 204.0
150.286957 164.0
150.311356 156.0
150.387024 148.0
150.416306 80.0
150.494431 40.0
150.513962 112.0
150.589676 176.0
150.609207 144.0
150.628754 136.0
150.653183 144.0
150.745346 200.0
150.790344 152.0
150.856018 132.0
150.919586 168.0
150.939148 120.0
150.965134 204.0
151.0784 188.0
151.125046 144.0
151.235168 132.0
151.276779 220.0
151.335541 164.0
151.354095 132.0
151.440842 128.0
151.486206 140.0
151.516785 248.0
151.548645 108.0
151.585388 180.0
151.636673 108.0
151.666275 200.0
151.683426 180.0
151.761688 156.0
151.817139 128.0
151.852615 184.0
151.990005 204.0
152.031067 136.0
152.062332 140.0
152.088165 136.0
152.275681 152.0
152.306702 176.0
152.331268 96.0
152.353378 176.0
152.508194 144.0
152.546265 204.0
152.574554 156.0
152.608978 172.0
152.662476 164.0
152.682755 100.0
152.729492 152.0
152.7948 160.0
152.839279 172.0
152.886383 240.0
152.918945 44.0
152.941101 156.0
152.985413 92.0
153.024368 160.0
153.064194 116.0
153.09375 180.0
153.140533 116.0
153.26619 68.0
153.320404 128.0
153.499344 136.0
153.562012 124.0
153.638489 40.0
153.68782 168.0
153.737183 112.0
153.781601 168.0
153.969254 148.0
154.004776 5408.0
154.031555 196.0
154.065109 176.0
154.110046 80.0
154.164673 232.0
154.182678 192.0
154.203964 132.0
154.241028 148.0
154.265747 172.0
154.303558 252.0
154.338562 188.0
154.384323 168.0
154.448746 36.0
154.519501 188.0
154.557602 128.0
154.592239 240.0
154.645508 168.0
154.683823 112.0
154.777908 132.0
154.857147 104.0
154.881912 108.0
154.899261 152.0
154.931458 132.0
154.9711 52.0
155.009506 424.0
155.036285 248.0
155.082626 160.0
155.11763 96.0
155.164429 252.0
155.199142 180.0
155.218979 188.0
155.277786 168.0
155.287582 120.0
155.29454 128.0
155.304016 180.0
155.338028 68.0
155.37027 140.0
155.447189 76.0
155.546478 180.0
155.660675 44.0
155.67807 176.0
155.722763 148.0
155.886734 148.0
155.909103 264.0
155.931473 124.0
155.967926 168.0
155.972931 112.0
156.019608 4056.0
156.050797 184.0
156.083115 144.0
156.110474 60.0
156.142807 144.0
156.224884 80.0
156.244781 296.0
156.274582 172.0
156.339554 172.0
156.371704 72.0
156.436417 140.0
156.501144 156.0
156.548431 312.0
156.570023 164.0
156.675491 164.0
156.692932 104.0
156.733444 184.0
156.770172 188.0
156.817535 96.0
156.879852 68.0
156.920776 144.0
156.962128 140.0
157.022675 452.0
157.089325 128.0
157.214081 52.0
157.254837 192.0
157.33638 224.0
157.508698 28.0
157.542511 176.0
157.568619 164.0
157.616135 188.0
157.660065 196.0
157.698593 196.0
157.783585 40.0
157.83609 88.0
157.862396 116.0
157.900284 132.0
157.988663 156.0
158.017151 1156.0
158.168839 204.0
158.214447 184.0
158.290726 188.0
158.54454 68.0
158.694946 192.0
158.79274 224.0
158.842911 160.0
158.965851 64.0
159.003494 148.0
159.043488 172.0
159.131516 112.0
159.226944 132.0
159.2621 32.0
159.402802 132.0
159.488251 60.0
159.518417 100.0
159.548584 76.0
159.579712 156.0
159.631561 180.0
159.66954 196.0
159.76738 168.0
159.822739 80.0
159.870544 204.0
159.930954 116.0
160.015091 104.0
160.045593 212.0
160.069412 160.0
160.114746 108.0
160.13237 184.0
160.177719 56.0
160.245743 180.0
160.283539 172.0
160.417114 172.0
160.470047 48.0
160.510391 72.0
160.563354 72.0
160.645691 156.0
160.922394 184.0
160.951981 108.0
161.004456 276.0
161.042908 104.0
161.189438 84.0
161.219757 180.0
161.323395 192.0
161.371429 136.0
161.416931 80.0
161.497864 184.0
161.561111 144.0
161.647141 212.0
161.677505 156.0
161.697754 120.0
161.781281 168.0
161.872437 200.0
161.922958 160.0
161.945877 128.0
161.966141 196.0
162.024414 84.0
162.077621 88.0
162.120697 132.0
162.143509 148.0
162.201797 264.0
162.272781 140.0
162.336182 140.0
162.539627 176.0
162.645706 140.0
162.671097 128.0
162.714249 48.0
162.743271 196.0
162.772644 328.0
162.800583 144.0
162.843765 72.0
163.011429 120.0
163.029221 44.0
163.049561 124.0
163.082596 184.0
163.166489 128.0
163.209702 136.0
163.243195 164.0
163.299835 192.0
163.333328 132.0
163.380112 176.0
163.446274 160.0
163.504791 92.0
163.581558 152.0
163.685547 108.0
163.777237 116.0
163.848557 164.0
163.874039 216.0
163.988708 160.0
164.03714 232.0
164.075378 144.0
164.110016 108.0
164.141678 164.0
164.205429 84.0
164.253586 196.0
164.304916 116.0
164.340637 136.0
164.396774 208.0
164.429092 148.0
164.50061 212.0
164.59079 140.0
164.647888 184.0
164.718079 176.0
164.734726 200.0
164.78746 192.0
164.87178 84.0
164.889679 184.0
164.99704 120.0
165.089081 124.0
165.11084 168.0
165.160706 140.0
165.191391 152.0
165.263031 124.0
165.390991 152.0
165.454987 208.0
165.503632 164.0
165.58046 104.0
165.613754 136.0
165.667557 128.0
165.725311 124.0
165.776779 228.0
165.79567 108.0
165.877686 140.0
165.921265 116.0
165.950577 140.0
165.990494 192.0
166.034088 176.0
166.108551 136.0
166.16748 136.0
166.236145 100.0
166.275253 112.0
166.449829 124.0
166.483612 208.0
166.55809 184.0
166.637329 116.0
166.740128 228.0
166.79924 156.0
166.835236 84.0
166.910736 120.0
166.993256 316.0
167.107849 52.0
167.131012 208.0
167.169601 120.0
167.280441 128.0
167.424469 176.0
167.506973 128.0
167.651184 180.0
167.682098 68.0
167.749115 160.0
167.783798 160.0
167.8703 184.0
167.887115 176.0
168.004425 236.0
168.02507 140.0
168.08699 140.0
168.221207 40.0
168.257339 120.0
168.430374 120.0
168.474289 200.0
168.497528 92.0
168.55954 152.0
168.592575 72.0
168.629318 92.0
168.688782 220.0
168.768234 120.0
168.807709 136.0
168.834091 120.0
168.900818 96.0
168.948746 192.0
168.992111 21036.0
169.042557 148.0
169.078979 128.0
169.115585 40.0
169.134888 96.0
169.158112 176.0
169.182892 80.0
169.226898 56.0
169.249161 240.0
169.277908 240.0
169.320129 44.0
169.355835 184.0
169.410782 32.0
169.431503 172.0
169.457413 76.0
169.483322 128.0
169.522202 40.0
169.561066 40.0
169.601196 108.0
169.716614 184.0
169.796997 176.0
169.898163 52.0
169.994614 1172.0
170.033585 808.0
170.068481 152.0
170.191452 44.0
170.209625 192.0
170.303116 136.0
170.345596 160.0
170.378296 128.0
170.413528 112.0
170.422058 56.0
170.432083 156.0
170.482391 140.0
170.552567 104.0
170.59935 152.0
170.625351 76.0
170.643555 216.0
170.674759 124.0
170.699585 160.0
170.738129 184.0
170.760452 184.0
170.808929 88.0
170.856812 136.0
170.877167 68.0
170.988953 4672.0
171.03067 244.0
171.070221 92.0
171.099228 112.0
171.169159 80.0
171.199539 180.0
171.214249 176.0
171.273788 272.0
171.29837 124.0
171.328033 228.0
171.350342 128.0
171.378174 164.0
171.427048 160.0
171.4505 124.0
171.489594 44.0
171.515106 132.0
171.588654 176.0
171.614731 116.0
171.714081 200.0
171.759109 220.0
171.840134 200.0
171.951248 140.0
171.972061 152.0
171.991821 312.0
172.031143 648.0
172.10968 628.0
172.157501 208.0
172.185272 120.0
172.220184 164.0
172.252823 232.0
172.287506 160.0
172.297623 124.0
172.389328 124.0
172.457947 112.0
172.54422 144.0
172.633118 144.0
172.693268 64.0
172.711578 176.0
172.897354 360.0
172.918289 88.0
172.941849 188.0
173.033463 188.0
173.119751 296.0
173.189987 176.0
173.250839 144.0
173.359207 144.0
173.408066 232.0
173.504593 260.0
173.536514 292.0
173.636169 48.0
173.741989 204.0
173.874908 120.0
173.909027 196.0
173.961533 136.0
173.982529 168.0
174.008789 136.0
174.082306 164.0
174.127106 7024.0
174.229401 216.0
174.258301 44.0
174.276688 80.0
174.379181 144.0
174.412933 176.0
174.452209 180.0
174.512299 188.0
174.535248 84.0
174.594772 180.0
174.61235 140.0
174.699982 152.0
174.726288 112.0
174.755234 160.0
174.799973 160.0
174.844696 156.0
174.863129 152.0
174.923828 128.0
175.018158 144.0
175.069901 208.0
175.128693 1000.0
175.155396 176.0
175.173828 216.0
175.287125 136.0
175.349594 160.0
175.366196 192.0
175.405731 28.0
175.503281 144.0
175.527008 132.0
175.577118 192.0
175.599854 212.0
175.640411 76.0
175.806641 140.0
175.859421 216.0
175.891098 136.0
175.928055 60.0
175.946533 120.0
176.020462 184.0
176.038956 148.0
176.075928 136.0
176.128754 148.0
176.1763 92.0
176.276962 160.0
176.334839 148.0
176.453796 236.0
176.517258 128.0
176.548996 176.0
176.588654 192.0
176.612473 144.0
176.631897 116.0
176.710342 132.0
176.74144 112.0
176.784744 176.0
176.813553 56.0
176.891937 176.0
176.997101 112.0
177.054474 100.0
177.165726 164.0
177.19632 160.0
177.308578 140.0
177.406891 248.0
177.467865 92.0
177.536804 120.0
177.555374 168.0
177.603806 556.0
177.632294 212.0
177.700119 184.0
177.726746 200.0
177.754333 128.0
177.860504 336.0
177.901108 120.0
177.9189 188.0
178.069534 132.0
178.333298 132.0
178.387299 148.0
178.456345 224.0
178.615158 168.0
178.672348 144.0
178.702942 172.0
178.745514 128.0
178.777451 152.0
178.831543 148.0
178.886581 208.0
178.921188 120.0
179.080963 152.0
179.313034 120.0
179.346497 100.0
179.435379 144.0
179.529053 192.0
179.555374 132.0
179.62207 144.0
179.654297 196.0
179.728775 108.0
179.774139 120.0
179.827515 64.0
179.912949 412.0
180.006393 208.0
180.048615 200.0
180.080032 380.0
180.115417 200.0
180.15863 124.0
180.228104 96.0
180.265518 220.0
180.583664 168.0
180.605057 56.0
180.650528 224.0
180.701355 316.0
180.740524 196.0
180.856583 212.0
180.918152 184.0
180.93956 140.0
180.971695 76.0
181.008881 360.0
181.094666 172.0
181.127014 68.0
181.16452 44.0
181.360138 92.0
181.518326 168.0
181.539078 124.0
181.620239 116.0
181.640167 112.0
181.679245 136.0
181.706467 168.0
181.73732 144.0
181.990189 212.0
182.022812 124.0
182.086853 160.0
182.111435 84.0
182.251129 164.0
182.278 68.0
182.333084 184.0
182.457092 152.0
182.498413 132.0
182.544128 140.0
182.608673 68.0
182.63826 136.0
182.667404 168.0
182.764709 84.0
182.813141 84.0
182.861588 212.0
182.901962 68.0
182.945816 192.0
182.971954 112.0
183.01503 244.0
183.03804 336.0
183.078766 156.0
183.14444 148.0
183.172485 248.0
183.241272 236.0
183.279221 152.0
183.304581 160.0
183.340973 144.0
183.362534 192.0
183.411057 144.0
183.450943 228.0
183.490128 156.0
183.530899 280.0
183.551956 260.0
183.584076 372.0
183.615295 304.0
183.649353 128.0
183.658737 128.0
183.680939 292.0
183.717468 208.0
183.747086 520.0
183.773788 112.0
183.814102 356.0
183.873383 284.0
183.915085 760.0
183.928314 460.0
184.016403 329664.0
184.091843 180.0
184.118179 140.0
184.138214 80.0
184.15802 204.0
184.200821 192.0
184.244522 108.0
184.264374 264.0
184.29213 132.0
184.312881 344.0
184.344666 148.0
184.376633 188.0
184.427155 288.0
184.460724 5360.0
184.503174 172.0
184.546692 156.0
184.580002 168.0
184.588577 116.0
184.597504 164.0
184.607986 208.0
184.625565 72.0
184.633377 76.0
184.656647 260.0
184.685089 116.0
184.723511 128.0
184.768265 244.0
184.805496 268.0
184.830872 164.0
184.851028 116.0
184.887924 80.0
184.941971 176.0
185.018539 36508.0
185.073318 144.0
185.098648 120.0
185.110275 92.0
185.127609 128.0
185.169357 160.0
185.223267 300.0
185.249832 212.0
185.279633 96.0
185.308838 132.0
185.327286 132.0
185.371613 108.0
185.395416 140.0
185.439896 60.0
185.448837 40.0
185.482437 364.0
185.490814 172.0
185.556091 84.0
185.581436 256.0
185.603439 156.0
185.628677 256.0
185.640869 60.0
185.654388 240.0
185.695129 168.0
185.704285 168.0
185.737289 264.0
185.774506 68.0
185.801743 156.0
185.82373 140.0
185.850647 196.0
185.883774 220.0
185.91008 148.0
185.933365 228.0
185.958557 688.0
185.978683 480.0
186.013275 124268.0
186.086487 144.0
186.111755 160.0
186.14418 60.0
186.164749 256.0
186.186951 148.0
186.213409 264.0
186.232666 188.0
186.25119 192.0
186.301285 256.0
186.349915 208.0
186.379776 100.0
186.385925 188.0
186.396835 180.0
186.407272 148.0
186.430283 272.0
186.461517 260.0
186.508682 408.0
186.548599 296.0
186.629303 132.0
186.670944 124.0
186.710251 48.0
186.742462 152.0
186.775528 108.0
186.812256 68.0
186.843719 92.0
186.878006 116.0
186.904816 256.0
186.915268 60.0
186.925308 160.0
187.013519 7288.0
187.085983 40.0
187.118378 116.0
187.12886 84.0
187.143921 60.0
187.151093 88.0
187.211975 84.0
187.267593 96.0
187.316956 100.0
187.325455 84.0
187.337296 60.0
187.345825 76.0
187.374893 72.0
187.405762 52.0
187.431229 208.0
187.455383 76.0
187.504547 32.0
187.542191 64.0
187.616165 240.0
187.674622 92.0
187.708328 40.0
187.727417 48.0
187.779236 88.0
187.809235 28.0
187.86824 76.0
187.916687 76.0
187.981995 100.0
188.011749 216.0
188.060272 44.0
188.090286 64.0
188.131882 68.0
188.173828 100.0
188.215881 140.0
188.236633 160.0
188.25885 76.0
188.326996 172.0
188.394333 252.0
188.413528 88.0
188.434387 76.0
188.458984 196.0
188.480087 72.0
188.532761 44.0
188.573685 152.0
188.603821 88.0
188.628418 32.0
188.704971 40.0
188.885468 104.0
188.964813 32.0
188.997543 304.0
189.020554 172.0
189.04689 96.0
189.144455 56.0
189.287796 96.0
189.34256 132.0
189.536621 124.0
189.611053 76.0
189.668625 108.0
189.918137 56.0
189.948318 88.0
189.973007 104.0
190.022385 48.0
190.153915 56.0
190.181549 124.0
190.48085 108.0
190.524811 48.0
190.953629 36.0
191.00589 176.0
191.055405 116.0
191.152374 1012.0
191.256287 76.0
191.347137 72.0
191.628067 124.0
191.727264 52.0
191.779633 72.0
192.071915 60.0
192.149155 84.0
192.185028 52.0
192.273331 76.0
192.328537 60.0
192.466568 72.0
192.549423 80.0
192.637817 84.0
193.069 112.0
193.295837 48.0
193.489594 68.0
193.921738 108.0
194.032623 48.0
194.135208 60.0
194.265717 76.0
194.368225 96.0
194.451492 168.0
194.873581 56.0
194.998642 100.0
195.031479 44.0
195.143524 92.0
195.207138 52.0
195.251648 96.0
195.34343 28.0
195.368103 60.0
195.438019 96.0
195.474197 120.0
195.493683 112.0
195.797134 124.0
195.845505 120.0
195.894623 56.0
196.073364 184.0
196.22348 104.0
196.477264 92.0
196.58609 60.0
196.747986 120.0
196.86525 48.0
197.151611 56.0
197.253616 84.0
197.364899 100.0
197.40181 52.0
197.675949 68.0
197.776703 152.0
197.969894 128.0
198.009094 96.0
198.25676 60.0
198.320099 136.0
198.808105 112.0
198.925995 40.0
199.052338 64.0
199.274246 72.0
199.352921 44.0
199.403503 124.0
199.459732 52.0
199.659348 96.0
199.808441 92.0
199.82814 100.0
199.887222 92.0
200.134933 48.0
200.250397 80.0
200.391251 104.0
200.427872 52.0
200.701294 60.0
200.845123 40.0
200.88179 184.0
201.013748 156.0
201.041672 1716.0
201.180923 88.0
201.243042 52.0
201.762909 56.0
202.042297 192.0
202.620438 32.0
203.038818 476.0
203.329346 76.0
203.550781 120.0
203.658707 160.0
203.769501 160.0
204.056549 120.0
204.890457 168.0
205.146942 40.0
205.894531 76.0
206.254532 180.0
206.300278 252.0
206.823761 100.0
206.998398 48.0
207.147339 92.0
207.216095 132.0
207.562912 100.0
207.760818 152.0
207.875595 92.0
208.102356 100.0
208.524643 156.0
209.081482 172.0
209.21788 100.0
209.886322 96.0
210.086578 176.0
210.3797 172.0
211.061554 212.0
212.066116 104.0
212.104797 564.0
212.353165 140.0
212.895889 68.0
213.055649 108.0
213.102127 84.0
213.13118 96.0
213.232895 52.0
213.459656 128.0
213.634171 184.0
215.406586 44.0
215.792358 88.0
216.342377 84.0
216.40094 112.0
217.139191 192.0
218.06131 136.0
218.684845 28.0
219.748688 88.0
220.596283 60.0
221.72995 60.0
223.057816 120.0
224.038757 220.0
224.393417 92.0
224.506729 72.0
225.037888 220.0
225.160324 124.0
225.27681 48.0
225.808868 112.0
226.030258 116.0
226.590164 96.0
227.940399 120.0
228.072632 64.0
229.071671 152.0
229.529785 96.0
231.0672 172.0
232.04245 128.0
232.609756 120.0
233.050125 120.0
233.922974 52.0
234.072159 132.0
235.633865 52.0
238.406982 196.0
239.040482 156.0
239.062012 108.0
241.073334 192.0
241.097412 100.0
242.459152 128.0
242.787766 172.0
243.066971 184.0
244.294235 84.0
245.378021 60.0
246.089386 108.0
247.709412 160.0
247.765793 48.0
247.994553 160.0
248.016495 128.0
248.079666 1672.0
248.185791 44.0
248.336319 32.0
248.422165 152.0
248.690872 104.0
249.039398 116.0
249.087662 272.0
249.623962 112.0
249.947968 76.0
250.084549 976.0
250.199753 80.0
250.432785 52.0
250.480042 64.0
251.00322 172.0
251.086884 264.0
252.052612 160.0
252.345169 60.0
253.389618 96.0
254.712509 124.0
255.065231 160.0
261.311096 88.0
261.678009 136.0
262.058075 84.0
262.806091 56.0
264.334503 116.0
264.603149 128.0
265.072815 124.0
265.374268 84.0
265.906281 56.0
266.776825 176.0
267.023956 100.0
267.087982 4176.0
267.176819 32.0
267.560852 36.0
268.00708 60.0
268.088806 768.0
268.349304 100.0
268.424316 68.0
268.469971 80.0
268.956116 148.0
269.027924 200.0
269.084229 1316.0
269.4198 52.0
270.01474 48.0
270.079407 208.0
270.108612 240.0
270.738007 44.0
271.013184 136.0
271.662323 108.0
274.057953 128.0
274.108521 96.0
275.097992 128.0
275.342346 100.0
275.424896 100.0
276.565674 112.0
277.41037 28.0
277.891266 56.0
278.060516 132.0
278.578491 60.0
279.779053 80.0
281.709961 32.0
282.415283 80.0
283.26886 100.0
284.455963 60.0
284.66748 92.0
288.59314 96.0
288.69458 112.0
289.026093 240.0
289.68631 140.0
289.781158 116.0
291.083679 204.0
292.07608 184.0
292.348267 64.0
292.610382 92.0
293.089172 168.0
293.595154 60.0
293.748657 60.0
295.27887 88.0
295.306244 72.0
295.501221 56.0
296.103729 136.0
296.213318 120.0
296.867981 72.0
298.561035 60.0
299.448975 176.0
303.09021 116.0
305.263214 76.0
305.38147 96.0
306.39447 40.0
310.743805 80.0
311.098267 100.0
312.817291 96.0
313.065979 108.0
314.040039 204.0
314.890656 84.0
315.09906 88.0
315.162659 56.0
317.048798 84.0
320.050537 144.0
321.811951 76.0
322.040497 176.0
324.850464 100.0
325.162628 180.0
325.985046 92.0
326.243835 88.0
327.877991 60.0
328.083466 92.0
329.606598 96.0
330.004211 140.0
330.839935 64.0
332.30777 64.0
332.540009 48.0
334.149841 56.0
334.655762 132.0
335.227661 80.0
337.381165 108.0
341.517578 116.0
341.867096 52.0
342.540894 52.0
344.126709 44.0
344.281799 108.0
344.562531 48.0
345.449799 32.0
345.749512 88.0
349.196228 124.0
350.383698 84.0
350.428406 76.0
350.675903 48.0
352.065979 56.0
352.140656 108.0
353.134857 64.0
354.096771 116.0
354.197906 68.0
354.239105 64.0
354.493896 108.0
355.720367 160.0
355.787933 68.0
355.817963 92.0
356.984833 96.0
357.134338 108.0
357.238556 120.0
358.032745 132.0
359.103119 48.0
359.141815 168.0
359.386047 60.0
359.487946 156.0
360.41687 96.0
362.691406 36.0
363.495422 60.0
365.357208 60.0
366.015686 84.0
368.651642 44.0
370.185669 72.0
372.125916 52.0
372.363983 56.0
372.921112 136.0
373.08255 120.0
373.859528 172.0
373.921112 116.0
373.986542 172.0
374.163818 2912.0
374.502502 52.0
374.91861 112.0
374.972565 100.0
375.161194 636.0
376.064087 52.0
376.154694 988.0
376.240692 180.0
376.287964 124.0
376.484924 60.0
376.519684 68.0
376.67804 84.0
376.963928 92.0
377.154144 272.0
377.315674 76.0
377.737213 148.0
378.484161 80.0
378.774628 100.0
379.410187 72.0
380.869293 72.0
381.452179 104.0
381.522156 48.0
385.036865 40.0
385.318115 112.0
386.095642 84.0
390.539764 52.0
390.665649 52.0
393.349274 104.0
395.293823 108.0
398.175964 52.0
399.388214 140.0
399.479706 40.0
405.501221 84.0
409.394257 80.0
414.921967 112.0
415.07605 88.0
415.89151 72.0
417.382507 84.0
422.444 72.0
423.283051 96.0
427.75415 80.0
428.870453 88.0
430.438171 108.0
436.908264 88.0
438.715698 72.0
439.228638 80.0
440.44751 56.0
441.663879 76.0
444.659698 92.0
444.999725 108.0
445.499512 116.0
458.84375 60.0
458.946075 56.0
459.901672 132.0
462.757385 136.0
463.665527 60.0
466.37381 72.0
467.057495 40.0
475.917084 96.0
476.247131 52.0
480.919159 116.0
487.225037 68.0
492.568726 44.0
493.846161 132.0
506.093506 112.0
518.141968 88.0
521.790955 84.0
522.24115 48.0
523.105713 68.0
523.715881 40.0
524.454041 80.0
529.95636 36.0
532.970947 72.0
534.40094 32.0
534.944031 108.0
535.72229 84.0
536.885437 68.0
538.582275 52.0
539.266174 32.0
541.246155 52.0
544.510986 48.0
547.254639 48.0
550.551453 48.0
551.168091 100.0
552.079651 100.0
557.38623 72.0
560.100891 112.0
567.165161 48.0
567.478027 60.0
570.630676 40.0
574.42157 80.0
575.595642 76.0
578.335083 100.0
581.781677 80.0
582.079407 104.0
582.67981 56.0
583.520874 68.0
587.78363 100.0
594.675171 80.0
601.318909 48.0
604.020935 40.0
607.808105 48.0
619.775635 84.0
621.664978 56.0
639.361633 60.0
640.625488 56.0
645.551697 76.0
647.880066 44.0
650.786194 84.0
651.868164 64.0
654.182373 28.0
672.817993 48.0
687.153015 124.0
700.105774 132.0
703.31665 88.0
709.235657 100.0
710.306763 64.0
712.695862 136.0
718.355286 32.0
719.753662 68.0
727.742615 48.0
729.402649 304.0
730.548096 92.0
734.356445 168.0
735.619141 120.0
739.191711 100.0
739.630127 72.0
739.770874 36.0
750.582947 192.0
751.28656 136.0
753.339172 32.0
758.526978 48.0
760.463257 80.0
765.240417 112.0
770.811462 164.0
772.69696 36.0
775.948059 52.0
776.070007 140.0
781.880615 136.0
782.014221 84.0
782.698975 76.0
786.590515 212.0
792.77655 84.0
798.283691 208.0
804.114624 64.0
818.127197 216.0
818.992798 56.0
819.539673 52.0
828.148926 176.0
830.412903 88.0
834.191223 40.0
837.753418 148.0
843.963562 188.0
846.567566 36.0
856.126526 104.0
856.353699 172.0
859.180908 100.0
859.822754 96.0
862.848633 96.0
865.7099 192.0
867.098389 40.0
868.118469 64.0
874.051575 40.0
882.273621 236.0
884.586731 184.0
893.429077 172.0
895.161133 168.0
897.717651 240.0
901.598083 224.0
903.104797 68.0
907.590393 116.0
908.825989 96.0
908.903992 160.0
911.504089 184.0
912.219299 84.0
912.303467 92.0
916.305664 76.0
917.896912 104.0
919.248169 104.0
920.636658 80.0
921.711914 108.0
929.572021 68.0
941.479614 80.0
944.621277 92.0
949.920166 92.0
952.830139 236.0
952.885376 204.0
953.069763 68.0
953.377014 184.0
954.760254 76.0
959.489319 192.0
959.865417 52.0
960.309448 128.0
960.439026 144.0
963.080872 160.0
965.546936 184.0
968.214417 224.0
968.877197 116.0
971.747742 176.0
974.40509 244.0
976.555969 172.0
977.090942 136.0
980.609253 48.0
980.671631 148.0
980.833679 232.0
982.70459 172.0
986.795654 124.0
987.089539 88.0
987.958923 180.0
988.046509 140.0
988.471985 176.0
990.870117 148.0
991.039307 220.0
991.30249 216.0
993.415466 192.0
994.501038 196.0
995.122498 156.0
998.792664 208.0
1010.153503 212.0
1017.587463 128.0
1018.660767 80.0
1019.467712 56.0
1020.160522 248.0
1021.934937 52.0
1024.11853 180.0
1027.82251 188.0
1031.462891 192.0
1032.750854 204.0
1033.144775 168.0
1037.685669 112.0
1038.4552 220.0
1038.788696 140.0
1041.889404 64.0
1049.084473 92.0
1050.245117 164.0
1053.220825 164.0
1054.760132 152.0
1055.4375 116.0
1056.51123 164.0
1057.708374 148.0
1057.876709 40.0
1058.945068 152.0
1059.754883 100.0
1060.69458 132.0
1061.997925 164.0
1062.439087 64.0
1065.100586 172.0
1066.166138 92.0
1067.69397 64.0
1067.837036 48.0
1069.340088 136.0
1070.02356 120.0
1070.088623 216.0
1071.163208 76.0
1071.58667 176.0
1071.645386 72.0
1076.171997 172.0
1079.311768 200.0
1080.446411 104.0
1083.163208 68.0
1083.353149 32.0
1085.535767 100.0
1087.615601 188.0
1088.96814 276.0
1090.577881 140.0
1092.629639 116.0
1094.479126 212.0
1096.369751 188.0
1097.477295 128.0
1097.562988 224.0
1098.723755 124.0
1098.928345 116.0
1100.514038 256.0
1101.370972 192.0
1102.507324 108.0
1104.854736 180.0
1106.9198 112.0
1108.695312 152.0
1111.526978 108.0
1112.190552 204.0
1112.402954 156.0
1112.821289 120.0
1113.711182 240.0
1113.990112 200.0
1114.216064 176.0
1117.573608 196.0
1118.172607 172.0
1118.605225 144.0
1119.530762 116.0
1124.110596 212.0
1124.457642 204.0
1125.025024 52.0
1125.332031 188.0
1127.175659 76.0
1129.080933 80.0
1130.038208 192.0
1130.786987 236.0
1132.661865 168.0
1133.385376 168.0
1140.546265 188.0
1141.003418 40.0
1142.476318 192.0
1142.651123 176.0
1147.419556 64.0
1149.362061 64.0
1150.901123 76.0
1151.198242 184.0
1152.71814 156.0
1156.722168 200.0
1156.803345 184.0
1156.86438 156.0
1157.460205 128.0
1159.478882 224.0
1160.984009 200.0
1161.44519 124.0
1162.707153 116.0
1162.958374 276.0
1164.031006 212.0
1164.18042 176.0
1164.723755 140.0
1164.852783 172.0
1164.954712 140.0
1165.342041 212.0
1166.177856 140.0
1166.524536 72.0
1166.816895 168.0
1168.041016 260.0
1168.129395 240.0
1168.796143 52.0
1168.939087 152.0
1169.762573 192.0
1169.919189 84.0
1170.436646 124.0
1171.730713 152.0
1172.92334 136.0
1173.523315 212.0
1173.68689 156.0
1173.768799 180.0
1174.430298 148.0
1176.347778 92.0
1176.470581 84.0
1177.337769 184.0
1177.563232 116.0
1177.617798 132.0
1177.727173 132.0
1179.230347 52.0
1181.62854 120.0
1181.979492 160.0
1182.924072 196.0
1183.143066 156.0
1183.752441 188.0
1184.546997 160.0
1186.184814 168.0
1188.345093 140.0
1189.39502 112.0
1189.903076 112.0
1192.671631 36.0
1192.788452 232.0
1193.503418 252.0
1193.833496 124.0
1194.734619 148.0
1195.154297 144.0
1195.883789 168.0
1196.062744 164.0
1196.351807 188.0
1197.343384 212.0
1197.963379 168.0
1198.617798 244.0
1199.01062 132.0
1199.644775 152.0
1200.410156 112.0
1200.996338 140.0
1202.714478 64.0
1205.283691 60.0
1206.285767 216.0
1206.389526 200.0
1207.151611 212.0
1207.758667 204.0
1209.350098 128.0
1210.354004 72.0
1210.575684 164.0
1210.672485 132.0
1211.92627 180.0
1214.311035 112.0
1215.809692 124.0
1216.503784 144.0
1217.82312 140.0
1218.288574 40.0
1219.122314 144.0
1219.309937 168.0
1220.151123 52.0
1222.432495 184.0
1223.274658 128.0
1223.393066 60.0
1224.764893 144.0
1225.747192 156.0
1225.865723 132.0
1227.817749 180.0
1228.557129 148.0
1229.157104 112.0
1229.415405 68.0
1230.832397 224.0
1231.5448 104.0
1232.900269 224.0
1233.165771 208.0
1233.326538 144.0
1234.382324 188.0
1235.823242 208.0
1235.872192 160.0
1237.636108 172.0
1237.96521 156.0
1239.303223 160.0
1243.53894 176.0
1244.072388 128.0
1244.282959 164.0
1244.662109 100.0
1245.954468 100.0
1246.179321 180.0
1248.808472 72.0
1249.153198 160.0
1249.65271 156.0
1250.004517 212.0
1252.046143 264.0
1254.434692 124.0
1254.568604 116.0
1257.08667 140.0
1257.171387 196.0
1258.717407 120.0
1258.766846 156.0
1258.837402 140.0
1258.922119 200.0
1259.070435 92.0
1259.734375 172.0
1260.546997 176.0
1263.346924 152.0
1265.632935 188.0
1266.100342 212.0
1266.249023 56.0
1266.433228 32.0
1266.525269 140.0
1266.603271 156.0
1268.268433 188.0
1269.338989 132.0
1269.431152 212.0
1269.580078 36.0
1270.506348 200.0
1272.098877 160.0
1272.368652 216.0
1272.915405 92.0
1273.057495 32.0
1273.412598 164.0
1273.519165 84.0
1274.265015 164.0
1274.847656 80.0
1275.238647 156.0
1277.108643 208.0
1277.677734 32.0
1279.456909 128.0
1280.033691 80.0
1280.361206 184.0
1280.496582 84.0
1281.18042 176.0
1281.379883 208.0
1282.983398 192.0
1283.118896 120.0
1283.427246 112.0
1283.817749 228.0
1284.095825 136.0
1286.614746 140.0
1286.936035 180.0
1286.986084 128.0
1287.22168 96.0
1287.721558 200.0
1288.4552 144.0
1290.5802 192.0
1290.980591 136.0
1291.960571 52.0
1292.368286 144.0
1292.726074 108.0
1293.219971 224.0
1293.713867 144.0
1293.799805 124.0
1293.907227 228.0
1295.489868 164.0
1297.532471 108.0
1299.196289 128.0
1299.325439 84.0
1299.533447 204.0
1300.150635 168.0
1300.717651 196.0
1300.811523 196.0
1300.985229 188.0
1302.311768 100.0
1302.555908 168.0
1302.606201 200.0
1302.936646 156.0
1303.79895 160.0
1304.036133 60.0
1304.575195 160.0
1305.229492 220.0
1305.610718 144.0
1306.955933 136.0
1307.164551 56.0
1308.208252 212.0
1308.68335 164.0
1309.172974 120.0
1311.046143 100.0
1311.247925 168.0
1311.723633 148.0
1312.249878 148.0
1312.44458 108.0
1312.978271 92.0
1313.879883 136.0
1314.081909 160.0
1314.392212 184.0
1315.070557 92.0
1315.279907 196.0
1315.619141 136.0
1316.362915 220.0
1316.926147 228.0
1317.128418 204.0
1317.193481 148.0
1317.569092 52.0
1319.578369 100.0
1319.903687 76.0
1320.084473 136.0
1320.626953 72.0
1321.480591 132.0
1321.777222 80.0
1323.08728 132.0
1323.203125 200.0
1323.326294 68.0
1323.760742 204.0
1324.01416 176.0
1324.354614 212.0
1324.781982 160.0
1324.992065 40.0
1325.332642 192.0
1325.731201 160.0
1326.713379 132.0
1327.347778 164.0
1327.398438 236.0
1327.681274 164.0
1327.985962 124.0
1328.174561 152.0
1328.254272 176.0
1329.05957 136.0
1329.153931 128.0
1329.378906 200.0
1329.785278 128.0
1330.547485 56.0
1331.88147 164.0
1331.93457 200.0
1332.312378 156.0
1333.206055 148.0
1333.336914 116.0
1335.605347 76.0
1335.801758 196.0
1335.918213 180.0
1337.322632 140.0
1337.431763 108.0
1338.407349 148.0
1338.924438 136.0
1340.24292 252.0
1340.521484 160.0
1341.008179 152.0
1341.379883 96.0
1341.671021 124.0
1343.166382 84.0
1344.173218 132.0
1344.457886 168.0
1344.924927 108.0
1345.238892 176.0
1345.852173 168.0
1346.15979 180.0
1347.152222 104.0
1348.415527 116.0
1349.008423 164.0
1349.234985 276.0
1350.931641 140.0
1351.019531 164.0
1351.165771 172.0
1352.095093 232.0
1352.244873 76.0
1353.573853 68.0
1353.852173 176.0
1354.474731 152.0
1354.965576 64.0
1355.112061 56.0
1355.383179 160.0
1355.713013 204.0
1355.998779 240.0
1356.959106 156.0
1357.406372 164.0
1358.411011 136.0
1359.438354 128.0
1360.084229 144.0
1360.216431 184.0
1360.737671 140.0
1361.251587 156.0
1361.865234 200.0
1362.265259 116.0
1362.553833 200.0
1363.06604 176.0
1363.471802 412.0
1363.712769 192.0
1364.256714 156.0
1365.690674 40.0
1366.448364 96.0
1366.676514 120.0
1366.728027 80.0
1367.110718 164.0
1367.243164 68.0
1367.858276 196.0
1369.480591 196.0
1369.746582 196.0
1370.159058 48.0
1370.704346 148.0
1370.822266 152.0
1371.146484 140.0
1371.80249 128.0
1371.890991 168.0
1372.067871 148.0
1373.255127 196.0
1373.365845 168.0
1374.413452 64.0
1374.686401 64.0
1374.804565 152.0
1374.856201 160.0
1376.044556 164.0
1376.524536 128.0
1376.819946 136.0
1376.912231 192.0
1377.388672 212.0
1379.088135 80.0
1379.147339 220.0
1379.295166 152.0
1380.034424 148.0
1380.566895 92.0
1382.638306 168.0
1383.141602 120.0
1383.889404 160.0
1384.600342 152.0
1384.815063 136.0
1385.622559 220.0
1385.813232 204.0
1385.970825 156.0
1386.393188 164.0
1386.445068 156.0
1386.659912 132.0
1387.749756 184.0
1388.483887 208.0
1388.844482 244.0
1389.555664 156.0
1390.835938 144.0
1391.58667 176.0
1391.956909 60.0
1392.075806 180.0
1392.558472 184.0
1393.449951 96.0
1393.903198 64.0
1394.05188 128.0
1394.27478 144.0
1394.497681 184.0
1396.453247 180.0
1396.825073 224.0
1396.929199 140.0
1397.323608 184.0
1397.709229 124.0
1398.700317 272.0
1398.767334 140.0
1399.422485 144.0
1400.539551 84.0
1400.614014 256.0
1400.844971 228.0
1401.597412 256.0
1401.664551 108.0
1401.917847 260.0
1402.09668 100.0
1402.320312 192.0
1402.543945 168.0
1402.611084 156.0
1402.812256 180.0
1402.931519 176.0
1403.103027 192.0
1405.019775 104.0
1405.18396 124.0
1405.504761 144.0
1405.74353 172.0
1406.079346 132.0
1406.407715 120.0
1406.489868 160.0
1406.601807 132.0
1407.087158 104.0
1407.474731 156.0
1408.102661 176.0
1409.096191 164.0
1409.193359 132.0
1409.746338 204.0
1410.463745 152.0
1410.957153 108.0
1411.682861 156.0
1411.74231 180.0
1411.936768 172.0
1412.168579 128.0
1412.220947 160.0
1412.394775 184.0
1412.826904 164.0
1412.985352 112.0
1414.608032 140.0
1414.83252 148.0
1415.865967 180.0
1416.113037 256.0
1417.431641 132.0
1418.578369 224.0
1418.908203 116.0
1419.230591 192.0
1419.830566 200.0
1420.333008 76.0
1420.475586 184.0
1421.263306 180.0
1421.338379 144.0
1421.510986 224.0
1422.351562 152.0
1422.44165 152.0
1422.599365 140.0
1422.734497 132.0
1422.832031 144.0
1423.672974 272.0
1423.785645 152.0
1424.446655 120.0
1424.762207 76.0
1424.854004 128.0
1424.972534 124.0
1425.182983 124.0
1425.400879 184.0
1425.528564 216.0
1426.114746 120.0
1426.302734 172.0
1427.167236 188.0
1427.287598 192.0
1427.460571 196.0
1427.673218 168.0
1427.964478 104.0
1428.363037 84.0
1429.581909 48.0
1430.93689 112.0
1431.900757 324.0
1432.051392 140.0
1432.119141 44.0
1432.586182 172.0
1433.106079 84.0
1433.332153 148.0
1433.678711 136.0
1433.784302 116.0
1434.153564 164.0
1434.364624 124.0
1434.515381 108.0
1434.824463 72.0
1435.239258 176.0
1435.736938 132.0
1435.89917 200.0
1436.617554 164.0
1437.026855 112.0
1437.117432 124.0
1437.411621 200.0
1437.970093 208.0
1438.407959 120.0
1438.490967 176.0
1438.921265 148.0
1439.185547 212.0
1439.661255 108.0
1440.363647 76.0
1440.582764 96.0
1440.824463 192.0
1441.262695 204.0
1442.305664 132.0
1442.381226 156.0
1442.713867 100.0
1444.022095 152.0
1444.702881 116.0
1444.876831 196.0
1445.058472 124.0
1446.537842 148.0
1446.708374 204.0
1446.882446 132.0
1447.859253 48.0
1448.586426 100.0
1448.677368 144.0
1448.866699 156.0
1449.571411 176.0
1449.760864 72.0
1451.148071 192.0
1451.352783 100.0
1451.534668 172.0
1451.936646 52.0
1452.277954 228.0
1452.384155 140.0
1452.664795 252.0
1454.098877 144.0
1454.774536 68.0
1457.113647 168.0
1457.425171 128.0
1457.778076 124.0
1459.127686 200.0
1459.423706 108.0
1460.079712 188.0
1460.466064 120.0
1460.65625 184.0
1461.44751 216.0
1461.875244 152.0
1461.942139 188.0
1462.17041 56.0
1462.25415 168.0
1462.520508 152.0
1462.581421 192.0
1462.946899 112.0
1463.335083 112.0
1463.4646 44.0
1463.533081 180.0
1463.936646 196.0
1464.058472 164.0
1464.416504 124.0
1465.338257 72.0
1466.382202 184.0
1468.097656 124.0
1468.727417 204.0
1468.936646 208.0
1468.997681 192.0
1470.058228 152.0
1471.325317 56.0
1471.483032 108.0
1472.432495 144.0
1472.890747 176.0
1473.043579 140.0
1473.303345 108.0
1474.327271 116.0
1475.626709 156.0
1476.031982 200.0
1476.192505 108.0
1476.452515 124.0
1477.309204 124.0
1477.362793 108.0
1478.326904 52.0
1478.532471 176.0
1478.939209 148.0
1479.421387 100.0
1479.719971 192.0
1480.248291 144.0
1480.554688 156.0
1481.19043 148.0
1482.42395 172.0
1483.282349 100.0
1483.82666 144.0
1483.911011 112.0
1484.146484 156.0
1484.409424 104.0
1484.900269 140.0
1485.751709 192.0
1485.989502 120.0
1486.158325 152.0
1486.296387 100.0
1486.664795 160.0
1487.086914 132.0
1487.493774 144.0
1487.954346 144.0
1488.161621 140.0
1488.232178 152.0
1488.322876 144.0
1488.391968 196.0
1488.630005 120.0
1489.467163 140.0
1489.713013 184.0
1490.827148 140.0
1490.973145 148.0
1491.230713 196.0
1491.71106 132.0
1491.910889 180.0
1492.249268 84.0
1492.610596 244.0
1493.425781 36.0
1493.569092 224.0
1493.633545 132.0
1493.825806 128.0
1493.987427 212.0
1494.448975 180.0
1494.83374 188.0
1495.741943 44.0
1496.234619 32.0
1496.78894 236.0
1497.025146 188.0
1497.566895 128.0
1498.368042 72.0
1498.984375 116.0
1499.061523 144.0
1499.616333 84.0
1500.61853 196.0
1501.636475 180.0
1502.654663 128.0
1502.793579 240.0
1502.870728 140.0
1502.97876 144.0
1503.040527 200.0
1503.133057 104.0
1503.457275 144.0
1503.827637 200.0
1504.012939 164.0
1504.931641 164.0
