>compound LACIDIPINE
>formula C26H33NO6
>ionization [M+H]+
>parentmass 456.239105
#inchi InChI=1S/C26H33NO6/c1-8-31-24(29)21-16(3)27-17(4)22(25(30)32-9-2)23(21)19-13-11-10-12-18(19)14-15-20(28)33-26(5,6)7/h10-15,23,29H,8-9H2,1-7H3/b15-14+,24-21+
#inchikey HRWNZPORSDJVBT
#Ion_Source LC-ESI
#Instrument qTof
#Compound_Source Commercial
#PI Dorrestein
#Data_Collector Garg_Neha
#Scan -1
#Precursor_MZ 456.238
#ExactMass 455.231
#Charge 1
#CAS_Number N/A
#Pubmed_ID N/A
#Smiles CCO/C(=C\1/C(C(=C(C)N=C1C)C(=O)OCC)c2ccccc2/C=C/C(=O)OC(C)(C)C)/O
#INCHI_AUX N/A
#Library_Class 1
#SpectrumID CCMSLIB00000079231
#IonMode Positive
#UpdateWorkflowName UPDATE-SINGLE-ANNOTATED-GOLD
#LibraryQualityString Gold
#TaskID 278b19f5865741e282cec7349aa7e7a1
##Scan# 2914
#SpectrumFile NCP003672_A27B27C27D27_BE4_01_15740.mzXML
#LibraryName NIHcollectionI_05062014.mgf
#MQScore -1
#Organism NIHcollectionI_05062014
#TIC_Query 0
#RT_Query -1
#MZErrorPPM -1
#SharedPeaks 0
#MassDiff 0
#LibMZ -1
#SpecMZ 456.238
#SpecCharge 0
#internalFilename spec-00000.mgf

>collision 10
52.782711 148.0
73.595375 156.0
76.932854 244.0
82.531944 216.0
100.974586 184.0
103.587242 172.0
105.67601 156.0
124.299004 220.0
129.072601 224.0
130.069427 172.0
132.539337 236.0
135.379608 140.0
137.6539 160.0
143.041748 156.0
144.050049 172.0
145.984238 164.0
152.741058 144.0
155.081818 140.0
165.072556 360.0
166.097061 272.0
167.084091 156.0
168.723724 180.0
175.059128 204.0
178.046722 360.0
179.047409 152.0
179.086746 176.0
180.865631 236.0
182.096298 140.0
182.397232 212.0
183.07254 152.0
184.076187 176.0
185.062622 192.0
188.082932 160.0
191.076843 144.0
191.722473 148.0
192.079208 148.0
193.056839 176.0
193.083511 180.0
194.092316 420.0
195.076263 356.0
195.104584 284.0
196.055328 412.0
196.112305 128.0
197.114441 308.0
199.038498 156.0
199.078339 108.0
201.051544 144.0
201.093124 152.0
207.04451 176.0
208.048065 180.0
208.113312 336.0
209.114471 164.0
209.140381 176.0
210.088409 148.0
211.330704 184.0
218.093597 148.0
220.110352 324.0
221.090103 172.0
222.052948 140.0
222.087326 440.0
222.12709 144.0
223.096893 152.0
224.074448 144.0
224.139832 152.0
225.079422 148.0
227.084457 172.0
227.106216 240.0
227.207443 180.0
227.36647 140.0
229.068268 188.0
234.089447 468.0
235.046097 180.0
235.096497 456.0
236.106216 1116.0
237.080566 192.0
237.108307 240.0
238.091324 304.0
238.123627 292.0
239.073303 364.0
239.091705 212.0
239.701828 164.0
240.071732 192.0
240.101349 2176.0
241.101562 428.0
241.130646 200.0
242.112137 96.0
242.383957 156.0
245.06691 136.0
246.098862 576.0
247.057297 168.0
247.091705 156.0
252.12149 296.0
253.104874 124.0
253.131897 164.0
254.085098 264.0
254.115631 144.0
262.087677 1208.0
263.084808 252.0
264.102631 1620.0
265.101074 332.0
265.165253 180.0
266.080963 320.0
266.112793 152.0
267.094604 272.0
267.119812 336.0
268.13266 2440.0
269.13678 144.0
270.134094 208.0
278.085052 164.0
279.091614 156.0
280.095459 1320.0
281.102966 284.0
282.112854 1572.0
283.117828 756.0
285.114258 240.0
290.081177 636.0
292.090607 244.0
292.133667 424.0
294.572174 192.0
295.170258 152.0
297.410797 144.0
298.105347 152.0
303.870911 176.0
308.092163 736.0
308.128998 776.0
309.095123 176.0
310.143005 2268.0
310.817841 176.0
311.147186 448.0
312.149963 156.0
313.144043 264.0
317.020599 140.0
325.201996 192.0
326.098846 292.0
326.147034 180.0
327.104309 152.0
328.797455 160.0
333.9664 136.0
334.105804 160.0
336.11676 548.0
337.128052 132.0
352.111389 164.0
353.223663 168.0
354.13269 9564.0
354.227295 264.0
354.582794 144.0
354.935181 140.0
355.135803 3232.0
356.136139 360.0
356.171448 284.0
357.147156 240.0
371.142792 168.0
380.150452 212.0
382.163574 1360.0
383.173004 924.0
384.174774 144.0
391.033264 148.0
398.160522 412.0
399.153595 240.0
399.238525 148.0
399.954651 200.0
400.174103 4756.0
400.24527 156.0
401.179321 980.0
402.184052 560.0
403.099396 192.0
410.19696 2920.0
411.200287 660.0
411.96463 188.0
412.219452 228.0
412.946869 192.0
426.561798 208.0
432.166412 168.0
455.222382 140.0
456.087799 172.0
456.239105 1264.0
457.239838 520.0
459.257812 176.0
