>compound Raclopride
>formula C15H20Cl2N2O3
>ionization [M+H]+
>parentmass 347.0923743120905
#inchi InChI=1S/C15H20Cl2N2O3/c1-3-19-6-4-5-9(19)8-18-15(21)12-13(20)10(16)7-11(17)14(12)22-2/h7,9,20H,3-6,8H2,1-2H3,(H,18,21)/t9-/m0/s1
#inchikey WAOQONBSWFLFPE
#Ion_Source LC-ESI
#Instrument qTof
#Compound_Source Commercial
#PI Dorrestein
#Data_Collector Garg_Neha
#Scan -1
#Precursor_MZ 347.092
#ExactMass 346.085
#Charge 1
#CAS_Number N/A
#Pubmed_ID N/A
#Smiles CCN1CCC[C@H]1CNC(=O)c2c(O)c(Cl)cc(Cl)c2OC
#INCHI_AUX N/A
#Library_Class 1
#SpectrumID CCMSLIB00000079206
#IonMode Positive
#UpdateWorkflowName UPDATE-SINGLE-ANNOTATED-GOLD
#LibraryQualityString Gold
#TaskID 278b19f5865741e282cec7349aa7e7a1
##Scan# 1155
#SpectrumFile NCP003592_G2_H11_BE3_01_15737.mzXML
#LibraryName NIHcollectionI_05062014.mgf
#MQScore -1
#Organism NIHcollectionI_05062014
#TIC_Query 0
#RT_Query -1
#MZErrorPPM -1
#SharedPeaks 0
#MassDiff 0
#LibMZ -1
#SpecMZ 347.092
#SpecCharge 0
#internalFilename spec-00000.mgf

>collision 10
45.443977 168.0
45.742329 144.0
45.959309 272.0
47.709515 172.0
49.110905 236.0
49.261658 176.0
50.665661 148.0
52.024773 184.0
52.116692 248.0
53.339348 172.0
54.427776 204.0
55.04771 164.0
58.174221 212.0
61.390198 164.0
61.627464 180.0
63.867706 148.0
67.706146 228.0
68.127693 148.0
68.768234 160.0
69.936752 144.0
70.056648 144.0
70.43531 168.0
70.945694 156.0
76.13179 140.0
76.199532 144.0
77.767685 224.0
78.242302 196.0
79.10733 168.0
79.575363 196.0
79.628632 144.0
79.687256 176.0
80.301392 204.0
80.846291 388.0
82.540848 180.0
83.385635 156.0
83.476532 196.0
86.959908 168.0
87.151184 156.0
91.833374 180.0
91.94754 172.0
92.71283 252.0
92.778 192.0
93.319405 140.0
93.346321 164.0
93.964607 168.0
96.079338 176.0
98.097168 1492.0
98.124863 148.0
98.843819 212.0
99.100998 180.0
104.394859 204.0
105.189453 196.0
106.218719 172.0
108.05011 148.0
108.091492 172.0
108.431114 140.0
108.850159 144.0
109.505241 164.0
110.100258 224.0
110.513512 168.0
111.10643 256.0
111.88401 260.0
112.059296 176.0
112.075256 204.0
112.112854 18244.0
112.278038 152.0
112.420433 152.0
112.488312 132.0
113.1166 1168.0
113.968758 184.0
114.601334 172.0
116.838676 144.0
117.92115 144.0
122.42424 144.0
128.871216 200.0
129.002304 156.0
129.138809 6288.0
129.44574 144.0
130.07959 116.0
130.140701 1060.0
131.605896 144.0
132.940399 156.0
135.585571 168.0
138.772125 180.0
140.246078 236.0
143.081619 156.0
143.427032 156.0
143.729904 160.0
145.697968 196.0
146.397903 152.0
148.180801 172.0
148.81839 144.0
149.297089 196.0
151.974319 140.0
152.467896 208.0
153.363754 152.0
154.992355 164.0
155.927902 184.0
156.14917 148.0
158.738907 168.0
158.924515 140.0
159.356369 192.0
161.319595 148.0
162.167557 188.0
162.809418 212.0
164.316299 156.0
166.296921 148.0
167.711548 192.0
167.956497 144.0
168.3927 168.0
168.63298 212.0
169.481781 204.0
170.967102 160.0
172.560867 156.0
173.272736 184.0
175.942734 344.0
176.420609 136.0
177.943008 204.0
178.4617 192.0
179.100388 144.0
179.935043 216.0
180.541595 200.0
180.667313 140.0
183.099167 220.0
183.665161 188.0
183.992172 280.0
184.696976 152.0
187.727951 164.0
190.967804 276.0
191.234695 156.0
192.961533 176.0
193.863876 148.0
194.135544 240.0
196.117813 164.0
197.634201 164.0
202.444901 160.0
203.292511 212.0
203.655914 140.0
203.937653 1084.0
203.974335 128.0
204.939774 196.0
204.981644 176.0
205.933548 1044.0
206.938217 212.0
212.558914 160.0
218.79628 200.0
218.961319 9860.0
219.241043 216.0
219.963913 936.0
220.297333 148.0
220.958878 5784.0
221.126205 124.0
221.525467 120.0
221.68306 260.0
221.744247 160.0
221.958069 808.0
222.969955 164.0
223.880295 148.0
223.947586 304.0
224.199051 176.0
224.544891 212.0
224.787567 160.0
225.539124 208.0
227.093094 148.0
230.174744 140.0
230.313232 120.0
230.818359 156.0
234.144318 144.0
235.605377 216.0
238.101761 156.0
238.200058 188.0
238.95015 168.0
239.698349 156.0
244.51387 144.0
247.917938 160.0
247.968079 144.0
249.855255 156.0
251.131012 188.0
254.482239 168.0
254.682297 164.0
255.566055 256.0
257.114746 176.0
258.568878 140.0
260.133026 144.0
260.83139 176.0
262.649353 168.0
262.884857 148.0
264.012299 180.0
264.348724 164.0
266.420532 168.0
268.317871 144.0
273.115265 192.0
274.422638 188.0
275.637299 152.0
279.114441 148.0
279.769867 156.0
285.444366 140.0
286.056793 128.0
289.862976 156.0
290.037445 152.0
296.306122 144.0
298.176239 140.0
305.249329 148.0
306.582611 180.0
307.873352 180.0
309.586914 156.0
312.968475 180.0
313.105804 176.0
315.646606 228.0
316.878357 168.0
324.35498 168.0
325.158417 164.0
326.886963 192.0
329.080933 176.0
330.093811 328.0
331.074493 256.0
332.873138 180.0
335.441742 148.0
336.426666 188.0
339.280121 156.0
340.05777 152.0
341.125275 172.0
342.079376 140.0
343.79895 132.0
343.981476 148.0
344.191925 184.0
344.247162 200.0
344.858246 136.0
344.923401 192.0
345.197296 96.0
345.482422 140.0
345.536346 160.0
345.750397 148.0
345.866364 112.0
345.937042 420.0
346.262787 180.0
346.288727 188.0
346.481689 304.0
346.714783 184.0
346.751831 144.0
346.900757 300.0
346.928284 100.0
346.965485 164.0
347.020691 200.0
347.094666 141676.0
347.18396 128.0
347.270966 196.0
347.337189 204.0
347.392029 212.0
347.440277 132.0
347.456268 172.0
347.569092 176.0
347.629211 96.0
347.703583 988.0
347.851532 124.0
347.983368 252.0
348.040985 104.0
348.096832 19664.0
348.201233 96.0
348.323212 148.0
348.414795 292.0
348.527222 240.0
348.6521 196.0
348.711182 156.0
348.785706 208.0
348.826111 188.0
348.876282 256.0
348.91684 272.0
349.026337 248.0
349.091583 76536.0
349.16272 300.0
349.335236 132.0
349.365112 140.0
349.459961 256.0
349.619965 104.0
349.707397 108.0
349.759094 96.0
349.835144 160.0
349.944946 168.0
349.973114 212.0
350.005768 196.0
350.09375 8272.0
350.249573 180.0
350.402039 308.0
350.444916 144.0
350.514526 168.0
350.639618 136.0
351.031372 100.0
351.084869 744.0
351.191132 152.0
351.300385 96.0
351.35257 100.0
351.950104 128.0
352.040863 168.0
352.080719 100.0
352.268585 160.0
352.600372 96.0
352.724426 124.0
353.072113 132.0
353.327332 108.0
354.232422 112.0
356.669037 172.0
357.042847 140.0
366.101257 192.0
419.993164 156.0
907.271362 148.0
1076.432251 144.0
1483.534424 144.0
1497.357422 180.0
1529.077026 160.0
1568.766235 156.0
1569.672974 140.0
1574.083984 152.0
1579.537231 172.0
1614.493286 200.0
1615.197144 160.0
1671.414185 172.0
1689.649536 148.0
1734.85437 208.0
1771.219971 164.0
1778.170654 208.0
1781.008545 144.0
1790.933716 216.0
1805.593994 212.0
1817.470459 168.0
1836.842041 184.0
1857.363403 240.0
1858.70105 148.0
1875.470947 140.0
1876.833008 196.0
1906.428955 168.0
1907.723999 148.0
1913.726929 148.0
1921.989746 140.0
1930.734009 212.0
1932.282227 156.0
1933.551025 168.0
1936.52771 180.0
1948.325806 156.0
1963.104004 164.0
1964.532837 152.0
1968.531006 184.0
1969.899902 168.0
1971.639771 224.0
1982.250977 208.0
