>compound MLS002206281-01!4-phenylpyridine
>formula C11H9N
>ionization [M+H]+
>parentmass 156.081879
#inchi InChI=1S/C11H9N/c1-2-4-10(5-3-1)11-6-8-12-9-7-11/h1-9H
#inchikey JVZRCNQLWOELDU
#Ion_Source LC-ESI
#Instrument qTof
#Compound_Source NIH Natural Product Library
#PI Dorrestein
#Data_Collector VVP/LMS
#Scan -1
#Precursor_MZ 156.081
#ExactMass 155.074
#Charge 1
#CAS_Number N/A
#Pubmed_ID N/A
#Smiles c1ccc(cc1)c2ccncc2
#INCHI_AUX N/A
#Library_Class 1
#SpectrumID CCMSLIB00000079973
#IonMode Positive
#UpdateWorkflowName UPDATE-SINGLE-ANNOTATED-GOLD
#LibraryQualityString Gold
#TaskID b1d8e8f6646f4e71acdff9ca3d919d08
##Scan# 1295
#SpectrumFile p2-E02_GE2_01_18026.mzXML
#LibraryName NIH_Natural_Products_Library.mgf
#MQScore -1
#Organism NIH_Natural_Products_Library
#TIC_Query 0
#RT_Query -1
#MZErrorPPM -1
#SharedPeaks 0
#MassDiff 0
#LibMZ -1
#SpecMZ 156.081
#SpecCharge 0
#internalFilename spec-00000.mgf

>collision 10
95.043381 156.0
96.551147 188.0
98.390343 160.0
98.682739 172.0
99.562546 212.0
100.506111 128.0
101.038361 152.0
101.14563 204.0
101.223717 172.0
101.61657 168.0
102.045303 360.0
102.501274 160.0
103.056198 976.0
104.047935 380.0
104.312668 36.0
104.862236 104.0
105.052017 160.0
106.505226 188.0
106.760078 112.0
107.617287 108.0
108.490364 48.0
110.468719 220.0
110.814148 148.0
111.965271 192.0
112.019669 116.0
112.467064 48.0
112.659218 68.0
112.792351 120.0
113.033447 144.0
113.681885 184.0
113.917557 144.0
114.032295 164.0
114.88829 112.0
115.055466 204.0
115.178612 200.0
116.047462 228.0
116.928192 116.0
116.99707 128.0
117.057899 288.0
117.460388 36.0
120.355545 164.0
124.038467 156.0
124.448883 52.0
125.860542 200.0
126.046562 168.0
127.053513 1172.0
127.192612 28.0
127.31385 48.0
127.414925 64.0
128.03125 96.0
128.062149 6196.0
128.164154 108.0
128.324173 92.0
128.358002 192.0
128.423401 116.0
128.730331 48.0
129.067642 616.0
129.254761 176.0
129.553619 68.0
129.943558 124.0
130.065994 272.0
130.09108 88.0
131.048645 160.0
132.613907 172.0
132.900558 152.0
134.483841 236.0
135.612549 80.0
137.657516 176.0
139.590775 212.0
139.746017 204.0
140.056747 168.0
140.412643 240.0
140.995789 96.0
141.05777 176.0
141.15181 148.0
141.168365 80.0
143.266541 40.0
143.979736 200.0
145.008484 120.0
145.060135 280.0
146.069763 76.0
146.975616 68.0
147.598816 140.0
147.869751 92.0
147.949631 84.0
150.0121 188.0
151.581192 108.0
153.052551 144.0
154.06424 1636.0
155.066223 544.0
155.32872 52.0
155.681152 200.0
155.817764 196.0
155.852554 84.0
156.00415 120.0
156.053879 312.0
156.081879 9132.0
156.125992 204.0
156.18071 72.0
156.288589 88.0
156.412109 48.0
156.503632 64.0
156.561493 60.0
156.721756 72.0
156.795685 68.0
156.930283 32.0
157.059967 184.0
157.083145 1060.0
157.184708 56.0
157.559219 60.0
157.869156 100.0
158.024246 64.0
158.083679 172.0
158.332138 100.0
158.798294 128.0
159.898727 20.0
160.899445 176.0
167.605118 128.0
171.880997 88.0
173.974823 44.0
180.046448 196.0
183.063416 84.0
259.757019 124.0
342.845032 92.0
352.63559 68.0
355.204163 80.0
396.783539 100.0
742.818665 132.0
759.098816 184.0
881.212158 60.0
919.949036 160.0
932.213806 160.0
1005.64502 152.0
1049.29187 188.0
1054.785522 156.0
1067.817871 176.0
1093.721191 184.0
1097.324463 212.0
1105.17749 112.0
1106.223145 200.0
1110.045898 180.0
1124.962524 252.0
1130.429565 48.0
1143.536133 60.0
1170.009766 156.0
1173.797974 168.0
1177.448853 180.0
1178.80835 204.0
1187.653442 172.0
1222.313843 164.0
1227.370728 88.0
1231.781494 164.0
1265.757812 124.0
1267.160278 200.0
1281.818237 180.0
1290.233154 144.0
1303.111816 64.0
1306.238892 200.0
1311.041138 104.0
1314.545776 188.0
1316.639282 160.0
1319.529541 212.0
1323.356812 124.0
1351.722046 44.0
1354.240479 152.0
1360.084106 88.0
1363.660889 140.0
1370.961426 160.0
1375.202026 204.0
1390.885986 64.0
1401.036255 64.0
1406.12146 188.0
1427.697388 260.0
1432.318481 156.0
1433.380737 136.0
1435.091675 120.0
1440.109985 216.0
1454.754028 236.0
1457.974487 116.0
1460.985352 188.0
1464.456421 188.0
1466.147705 164.0
1475.673828 192.0
1484.663208 96.0
1490.70459 164.0
1497.212646 200.0
1497.952026 124.0
1502.531006 212.0
