>compound MLS002154089-01!Zuclopenthixol hydrochloride633-59-0
>formula C22H25ClN2OS
>ionization [M+H]+
>parentmass 401.144318
#inchi InChI=1S/C22H25ClN2OS/c23-17-7-8-22-20(16-17)18(19-4-1-2-6-21(19)27-22)5-3-9-24-10-12-25(13-11-24)14-15-26/h1-2,4-8,16,26H,3,9-15H2/b18-5-
#inchikey WFPIAZLQTJBIFN
#origInchi InChI=1S/C22H25ClN2OS.ClH/c23-17-7-8-22-20(16-17)18(19-4-1-2-6-21(19)27-22)5-3-9-24-10-12-25(13-11-24)14-15-26;/h1-2,4-8,16,26H,3,9-15H2;1H/b18-5-;
#Ion_Source LC-ESI
#Instrument qTof
#Compound_Source NIH Pharmacologically Active Library
#PI Dorrestein
#Data_Collector VP/LMS
#Scan -1
#Precursor_MZ 401.145
#ExactMass 400.138
#Charge 1
#CAS_Number N/A
#Pubmed_ID N/A
#Smiles OCCN1CCN(CC/C=C\2/c3ccccc3Sc4ccc(Cl)cc24)CC1.Cl
#INCHI_AUX N/A
#Library_Class 1
#SpectrumID CCMSLIB00000085008
#IonMode Positive
#UpdateWorkflowName UPDATE-SINGLE-ANNOTATED-GOLD
#LibraryQualityString Gold
#TaskID d252d724072548979f1f6f1ced849daf
##Scan# 1806
#SpectrumFile p3-D08_GD8_01_18265.mzXML
#LibraryName Pharm_Active_Library.mgf
#MQScore -1
#Organism Pharm_Active_Library
#TIC_Query 0
#RT_Query -1
#MZErrorPPM -1
#SharedPeaks 0
#MassDiff 0
#LibMZ -1
#SpecMZ 401.145
#SpecCharge 0
#internalFilename spec-00000.mgf

>collision 10
44.950005 116.0
44.978031 208.0
45.048809 116.0
45.118305 208.0
45.142372 120.0
45.172691 192.0
45.202572 72.0
45.236034 88.0
45.254181 224.0
45.309692 120.0
45.326057 168.0
45.353546 116.0
45.382072 132.0
45.392799 124.0
45.478664 144.0
45.519272 228.0
45.551178 140.0
45.563271 132.0
45.602242 124.0
45.641228 160.0
45.650642 144.0
45.672161 160.0
45.693687 76.0
45.719254 140.0
45.731365 144.0
45.754253 156.0
45.843155 128.0
45.973972 128.0
46.023918 204.0
46.044174 192.0
46.056332 120.0
46.071194 140.0
46.083351 176.0
46.117138 144.0
46.177982 108.0
46.22657 192.0
46.25782 180.0
46.28896 112.0
46.33366 96.0
46.363472 124.0
46.373638 156.0
46.416344 232.0
46.455677 180.0
46.470066 160.0
46.481457 112.0
46.56427 180.0
46.740017 132.0
46.776394 192.0
46.787788 212.0
46.81588 232.0
46.867645 128.0
46.885365 168.0
46.894905 68.0
46.928986 160.0
46.943054 164.0
46.982178 128.0
46.999916 128.0
47.012196 120.0
47.036766 120.0
47.052814 312.0
47.078442 176.0
47.08659 180.0
47.105045 136.0
47.118481 160.0
47.127216 140.0
47.161072 376.0
47.177475 136.0
47.191147 248.0
47.218498 160.0
47.243744 220.0
47.254066 84.0
47.279755 192.0
47.344414 220.0
47.35537 204.0
47.368088 100.0
47.423073 136.0
47.431778 236.0
47.48558 64.0
47.519878 152.0
47.563793 140.0
47.581642 60.0
47.615055 204.0
47.636578 132.0
47.663376 184.0
47.692135 196.0
47.721542 180.0
47.761669 124.0
47.771301 148.0
47.81258 112.0
47.831852 188.0
47.849747 156.0
47.900078 224.0
47.93766 224.0
47.954445 48.0
47.991852 208.0
48.048218 164.0
48.057877 136.0
48.077194 136.0
48.095139 128.0
48.151749 112.0
48.161419 120.0
48.187668 148.0
48.224979 184.0
48.28167 84.0
48.296883 124.0
48.374546 228.0
48.400684 140.0
48.413147 156.0
48.440849 260.0
48.455559 116.0
48.49905 136.0
48.54417 184.0
48.559364 112.0
48.583641 140.0
48.593353 92.0
48.63221 156.0
48.691914 136.0
48.748875 160.0
48.892807 276.0
48.965912 120.0
48.999344 124.0
49.022556 140.0
49.041153 224.0
49.066246 176.0
49.081486 116.0
49.102501 164.0
49.117943 116.0
49.161098 232.0
49.170868 152.0
49.214146 192.0
49.279793 164.0
49.305573 332.0
49.324516 100.0
49.353878 112.0
49.374855 140.0
49.395836 132.0
49.419621 136.0
49.479805 168.0
49.570854 196.0
49.618511 120.0
49.645874 160.0
49.671803 236.0
49.713898 232.0
49.736355 144.0
49.774261 228.0
49.803753 104.0
49.91338 132.0
49.944321 156.0
50.01186 168.0
50.099171 228.0
50.119114 156.0
50.149902 124.0
50.182327 228.0
50.192196 160.0
50.220402 108.0
50.238743 176.0
50.26894 148.0
50.292366 148.0
50.36438 144.0
50.389809 100.0
50.409592 176.0
50.435032 48.0
50.515636 240.0
50.542519 196.0
50.576485 148.0
50.600071 212.0
50.614712 140.0
50.682705 160.0
50.750744 156.0
50.790455 204.0
50.824505 148.0
50.840115 240.0
50.862656 200.0
50.874874 168.0
50.923313 160.0
50.935246 204.0
50.989239 36.0
51.003452 52.0
51.029293 160.0
51.068863 144.0
51.125774 156.0
51.135738 76.0
51.165169 184.0
51.194111 100.0
51.20615 132.0
51.25679 120.0
51.338051 80.0
51.383694 188.0
51.440781 356.0
51.456978 176.0
51.473621 160.0
51.488617 136.0
51.525181 188.0
51.535046 116.0
51.590786 220.0
51.61298 168.0
51.630825 132.0
51.640835 168.0
51.678032 164.0
51.70665 132.0
51.736713 156.0
51.795425 180.0
51.812618 196.0
51.839844 172.0
51.871376 252.0
51.884277 144.0
51.927299 304.0
51.954552 128.0
52.046413 168.0
52.063644 212.0
52.088062 140.0
52.122547 280.0
52.16135 144.0
52.242191 188.0
52.286011 216.0
52.299446 120.0
52.339142 192.0
52.357037 84.0
52.372883 164.0
52.394489 136.0
52.419971 164.0
52.446369 140.0
52.473763 60.0
52.522793 144.0
52.542992 192.0
52.57185 184.0
52.652699 212.0
52.668587 124.0
52.691704 152.0
52.748066 188.0
52.781902 180.0
52.800117 164.0
52.82037 136.0
52.830494 144.0
52.884037 160.0
52.950642 196.0
52.986141 148.0
53.002796 132.0
53.027431 156.0
53.054974 160.0
53.172474 156.0
53.209766 168.0
53.303177 160.0
53.397675 68.0
53.420296 128.0
53.435497 192.0
53.452896 92.0
53.476246 228.0
53.490803 72.0
53.501762 148.0
53.550503 76.0
53.578182 56.0
53.594208 180.0
53.635017 296.0
53.659798 132.0
53.681568 228.0
53.710114 152.0
53.740437 112.0
53.799778 140.0
53.816551 196.0
53.836365 128.0
53.894798 120.0
53.931335 188.0
53.941566 168.0
54.004444 184.0
54.043945 164.0
54.054188 176.0
54.083256 144.0
54.118973 124.0
54.14349 64.0
54.155537 196.0
54.190636 176.0
54.22847 124.0
54.316448 152.0
54.416393 200.0
54.447525 120.0
54.472054 136.0
54.552879 144.0
54.579346 260.0
54.594139 136.0
54.645535 168.0
54.677422 208.0
54.730907 124.0
54.851719 188.0
54.928402 152.0
54.946712 212.0
54.957909 160.0
55.003662 156.0
55.025806 168.0
55.071587 148.0
55.096008 120.0
55.124771 40.0
55.135117 132.0
55.16468 200.0
55.204601 136.0
55.220871 180.0
55.231224 112.0
55.254894 144.0
55.274132 140.0
55.314621 168.0
55.354069 188.0
55.373322 128.0
55.418282 164.0
55.430832 132.0
55.503738 140.0
55.53043 128.0
55.542297 152.0
55.554165 84.0
55.629852 204.0
55.674049 392.0
55.689251 224.0
55.707073 168.0
55.733818 188.0
55.744221 164.0
55.794758 136.0
55.858707 168.0
55.886002 212.0
55.913761 188.0
55.934601 100.0
55.964375 168.0
55.992378 184.0
56.019482 108.0
56.037361 200.0
56.082069 168.0
56.108902 172.0
56.195408 148.0
56.255108 336.0
56.27153 148.0
56.301975 196.0
56.316334 184.0
56.344364 204.0
56.370117 136.0
56.519657 208.0
56.541458 176.0
56.588978 192.0
56.616962 224.0
56.646698 136.0
56.656345 164.0
56.676884 140.0
56.721848 164.0
56.741936 144.0
56.763828 200.0
56.804291 184.0
56.849335 48.0
56.862843 196.0
56.915699 96.0
56.949928 188.0
56.999508 188.0
57.055416 224.0
57.101738 152.0
57.173958 136.0
57.205566 88.0
57.241703 72.0
57.271824 116.0
57.292912 128.0
57.315514 140.0
57.352089 164.0
57.432392 168.0
57.449142 148.0
57.461773 168.0
57.544788 156.0
57.638439 132.0
57.668663 160.0
57.706207 180.0
57.708366 168.0
57.757877 192.0
57.813858 148.0
57.853214 104.0
57.942692 152.0
57.959236 92.0
57.982384 204.0
58.048676 132.0
58.142735 124.0
58.205521 280.0
58.22472 148.0
58.249023 140.0
58.261177 72.0
58.274849 180.0
58.302349 208.0
58.31892 120.0
58.339851 208.0
58.396469 40.0
58.434303 188.0
58.464901 184.0
58.493851 140.0
58.536484 156.0
58.563362 148.0
58.62989 192.0
58.643131 212.0
58.655327 136.0
58.684292 196.0
58.733093 204.0
58.749874 196.0
58.800232 152.0
58.833813 104.0
58.913227 200.0
58.946842 156.0
58.965824 76.0
59.017159 192.0
59.06916 836.0
59.08271 140.0
59.120403 132.0
59.156425 152.0
59.185478 168.0
59.197727 132.0
59.253284 104.0
59.278919 176.0
59.317238 200.0
59.370903 160.0
59.404648 144.0
59.416924 132.0
59.430729 124.0
59.476772 140.0
59.492123 192.0
59.514572 116.0
59.624226 68.0
59.653679 172.0
59.727242 180.0
59.761089 176.0
59.791866 176.0
59.811874 156.0
59.873009 176.0
59.888866 136.0
59.918137 188.0
59.938168 120.0
59.99828 120.0
60.039322 52.0
60.073849 76.0
60.084648 48.0
60.101906 152.0
60.134029 180.0
60.152554 156.0
60.227024 176.0
60.290291 160.0
60.320934 164.0
60.378975 172.0
60.399799 64.0
60.435383 168.0
60.461689 136.0
60.493866 132.0
60.544106 188.0
60.611954 132.0
60.641953 196.0
60.663055 172.0
60.721977 48.0
60.738182 152.0
60.798 176.0
60.867859 188.0
60.884941 132.0
60.909794 120.0
60.956406 136.0
60.98333 160.0
60.996815 80.0
61.026356 144.0
61.111904 124.0
61.161705 180.0
61.19907 168.0
61.213081 68.0
61.228657 164.0
61.255135 132.0
61.270061 124.0
61.290936 184.0
61.319023 116.0
61.397964 152.0
61.439095 256.0
61.452564 160.0
61.472145 140.0
61.487076 208.0
61.524929 132.0
61.58271 128.0
61.618641 132.0
61.688969 208.0
61.746822 160.0
61.84383 72.0
61.867313 152.0
61.901211 228.0
61.976303 160.0
61.992619 160.0
62.008293 84.0
62.096096 184.0
62.136883 120.0
62.161987 88.0
62.202797 156.0
62.216923 148.0
62.295448 204.0
62.341015 128.0
62.359558 140.0
62.381882 216.0
62.397602 88.0
62.427479 180.0
62.483944 196.0
62.53289 80.0
62.570671 168.0
62.589115 168.0
62.647839 112.0
62.739246 164.0
62.780243 128.0
62.816521 220.0
62.854389 220.0
62.871746 140.0
62.92226 168.0
62.944366 56.0
62.955421 128.0
62.982269 140.0
63.007545 52.0
63.135586 156.0
63.160767 152.0
63.179333 152.0
63.222599 108.0
63.233677 152.0
63.292252 148.0
63.319176 96.0
63.331844 148.0
63.371452 144.0
63.428505 116.0
63.455456 196.0
63.491562 216.0
63.520477 168.0
63.545864 184.0
63.556969 176.0
63.587738 208.0
63.606171 136.0
63.65601 168.0
63.676033 196.0
63.706051 200.0
63.734814 180.0
63.754128 156.0
63.78389 196.0
63.844501 180.0
63.903362 104.0
63.976574 180.0
64.12487 232.0
64.201241 184.0
64.214005 104.0
64.242714 156.0
64.344856 220.0
64.433762 192.0
64.461464 192.0
64.499138 160.0
64.515732 176.0
64.538986 132.0
64.602821 196.0
64.68058 112.0
64.776657 172.0
64.792679 132.0
64.823128 120.0
64.882431 116.0
64.907349 148.0
64.944969 200.0
64.962616 204.0
65.01236 52.0
65.034828 356.0
65.05088 172.0
65.063721 132.0
65.137596 212.0
65.173668 240.0
65.224373 120.0
65.241585 136.0
65.267784 132.0
65.28289 192.0
65.289536 76.0
65.295982 156.0
65.325684 120.0
65.370125 116.0
65.412582 232.0
65.423851 148.0
65.456604 184.0
65.509201 40.0
65.549484 148.0
65.562126 196.0
65.602516 208.0
65.623634 160.0
65.636536 188.0
65.666489 204.0
65.696213 300.0
65.751663 176.0
65.784973 136.0
65.833412 280.0
65.853867 144.0
65.869705 204.0
65.885101 156.0
65.917412 80.0
65.943459 152.0
65.95459 148.0
65.977219 152.0
66.032196 132.0
66.049995 208.0
66.076668 188.0
66.093674 164.0
66.114716 196.0
66.127663 112.0
66.14061 160.0
66.158417 72.0
66.22113 160.0
66.236145 152.0
66.264313 260.0
66.435547 108.0
66.463127 84.0
66.484169 128.0
66.556946 196.0
66.561104 156.0
66.580551 144.0
66.603241 172.0
66.635239 184.0
66.669365 172.0
66.690491 132.0
66.724632 208.0
66.750648 64.0
66.77504 156.0
66.78643 144.0
66.836861 104.0
66.851509 128.0
66.898712 208.0
66.931198 176.0
67.025749 88.0
67.141495 124.0
67.184998 156.0
67.317749 80.0
67.378349 160.0
67.412399 128.0
67.463173 144.0
67.481155 144.0
67.57766 204.0
67.662766 172.0
67.680779 152.0
67.849541 104.0
67.887253 116.0
67.92334 172.0
67.957794 136.0
68.026726 52.0
68.089119 216.0
68.10778 132.0
68.133469 208.0
68.16748 172.0
68.225502 116.0
68.242302 148.0
68.264969 208.0
68.306084 80.0
68.319244 160.0
68.35051 140.0
68.36203 84.0
68.485512 172.0
68.523399 128.0
68.558006 168.0
68.595917 208.0
68.610153 88.0
68.628891 260.0
68.698158 316.0
68.754257 220.0
68.774811 160.0
68.815338 276.0
68.843407 120.0
68.865685 152.0
68.932617 68.0
68.970634 104.0
68.98996 208.0
69.046692 112.0
69.061806 172.0
69.128738 188.0
69.142647 156.0
69.175751 148.0
69.210526 68.0
69.246956 132.0
69.262772 160.0
69.293343 152.0
69.331688 140.0
69.343056 204.0
69.359627 52.0
69.377861 180.0
69.396103 116.0
69.416 136.0
69.434242 140.0
69.459389 176.0
69.492302 172.0
69.566986 80.0
69.609543 216.0
69.663307 156.0
69.708168 184.0
69.719803 136.0
69.733101 32.0
69.774658 172.0
69.787956 44.0
69.811806 188.0
69.842842 184.0
69.866127 76.0
69.945969 168.0
69.964325 112.0
70.010948 140.0
70.154243 124.0
70.185921 64.0
70.197594 104.0
70.227615 88.0
70.260979 52.0
70.280998 140.0
70.303436 288.0
70.319382 60.0
70.359444 172.0
70.508118 196.0
70.526497 168.0
70.564224 240.0
70.602852 132.0
70.617493 152.0
70.667641 436.0
70.717186 28.0
70.740616 160.0
70.777451 112.0
70.911476 96.0
70.92321 48.0
70.956734 48.0
70.9953 104.0
71.040253 188.0
71.079178 136.0
71.191658 120.0
71.231613 152.0
71.268929 284.0
71.294136 112.0
71.343452 272.0
71.369781 164.0
71.422386 188.0
71.504364 244.0
71.51783 72.0
71.570023 88.0
71.602013 136.0
71.625595 100.0
71.656891 160.0
71.681488 160.0
71.69973 204.0
71.802574 264.0
71.851494 232.0
71.878494 248.0
71.905495 148.0
71.932503 156.0
72.014381 184.0
72.053955 140.0
72.12149 168.0
72.126579 148.0
72.148743 196.0
72.18087 176.0
72.218071 208.0
72.248528 208.0
72.277901 144.0
72.298462 164.0
72.32637 208.0
72.351761 192.0
72.378853 140.0
72.396484 348.0
72.40789 192.0
72.422501 136.0
72.46524 156.0
72.507599 140.0
72.533974 200.0
72.560455 180.0
72.597458 152.0
72.627983 216.0
72.648338 200.0
72.711128 128.0
72.77903 156.0
72.797707 116.0
72.811295 140.0
72.875847 164.0
72.911537 116.0
72.938728 140.0
72.996536 152.0
73.020348 72.0
73.122139 140.0
73.124733 216.0
73.161583 184.0
73.187759 224.0
73.216072 128.0
73.248436 168.0
73.263718 152.0
73.2808 236.0
73.32 168.0
73.333633 100.0
73.3592 132.0
73.422592 188.0
73.464935 156.0
73.481995 120.0
73.495644 180.0
73.59977 132.0
73.654419 140.0
73.698837 144.0
73.721054 132.0
73.767204 188.0
73.870743 144.0
73.938293 152.0
73.962212 148.0
74.008438 188.0
74.028984 172.0
74.133492 152.0
74.212341 136.0
74.246635 192.0
74.275795 236.0
74.314301 216.0
74.340996 128.0
74.363304 96.0
74.409653 180.0
74.447433 96.0
74.543633 160.0
74.562538 176.0
74.581444 188.0
74.59948 208.0
74.620987 56.0
74.650215 152.0
74.705261 48.0
74.724182 128.0
74.753433 184.0
74.774086 208.0
74.824005 96.0
74.83606 156.0
74.849838 128.0
74.868782 48.0
74.932518 36.0
74.987656 136.0
75.037651 164.0
75.056618 84.0
75.083076 176.0
75.160118 68.0
75.218796 132.0
75.2929 192.0
75.307243 168.0
75.318954 116.0
75.375961 228.0
75.445099 144.0
75.481438 160.0
75.514275 180.0
75.541946 196.0
75.55925 160.0
75.604019 156.0
75.715927 180.0
75.777405 208.0
75.79126 260.0
75.803391 176.0
75.907402 136.0
75.995872 268.0
76.021896 232.0
76.087494 152.0
76.122589 176.0
76.140541 188.0
76.164268 148.0
76.178169 56.0
76.214653 152.0
76.293541 164.0
76.335823 176.0
76.388 232.0
76.478996 168.0
76.526001 160.0
76.579987 92.0
76.613518 260.0
76.639221 236.0
76.668846 144.0
76.684006 160.0
76.750443 208.0
76.793503 160.0
76.834267 148.0
76.851944 136.0
76.87812 248.0
76.893318 192.0
76.933975 140.0
76.960167 56.0
76.995094 184.0
77.019547 140.0
77.054482 224.0
77.094673 116.0
77.11232 208.0
77.133125 128.0
77.154709 128.0
77.158394 132.0
77.182083 160.0
77.223946 132.0
77.238503 168.0
77.281784 84.0
77.377533 136.0
77.393806 280.0
77.406067 44.0
77.458611 156.0
77.486641 132.0
77.579086 144.0
77.592072 156.0
77.635635 116.0
77.695274 140.0
77.77121 192.0
77.83699 168.0
77.860275 156.0
77.879601 176.0
77.918243 156.0
77.941086 164.0
77.961449 184.0
77.999084 176.0
78.025452 172.0
78.046555 140.0
78.108109 144.0
78.14505 160.0
78.158409 172.0
78.174965 224.0
78.20137 136.0
78.279724 148.0
78.322861 72.0
78.353867 140.0
78.396866 116.0
78.430351 112.0
78.493683 152.0
78.53849 252.0
78.604134 144.0
78.628929 212.0
78.677414 232.0
78.694977 204.0
78.716164 196.0
78.749725 208.0
78.786819 152.0
78.801903 104.0
78.822159 56.0
78.855736 164.0
78.88755 204.0
78.922913 164.0
78.974197 100.0
79.008804 200.0
79.028427 180.0
79.059792 148.0
79.108688 116.0
79.140022 344.0
79.172432 172.0
79.19368 76.0
79.220253 164.0
79.246826 64.0
79.270157 180.0
79.31144 192.0
79.340767 100.0
79.357727 204.0
79.379776 192.0
79.393959 112.0
79.434753 176.0
79.51815 120.0
79.537674 128.0
79.571869 168.0
79.619354 208.0
79.706398 124.0
79.834396 188.0
79.924103 160.0
79.94825 180.0
80.037262 188.0
80.070442 392.0
80.12632 136.0
80.149483 176.0
80.172646 180.0
80.215424 124.0
80.256432 104.0
80.270409 124.0
80.295944 128.0
80.366722 96.0
80.38665 176.0
80.416992 132.0
80.434837 276.0
80.447334 192.0
80.563416 120.0
80.579498 204.0
80.615234 164.0
80.676979 196.0
80.717133 128.0
80.767204 140.0
80.831612 48.0
80.853088 124.0
80.916847 168.0
80.937225 172.0
80.973045 120.0
81.001701 96.0
81.037537 156.0
81.061722 128.0
81.105637 192.0
81.121872 144.0
81.166595 164.0
81.195099 196.0
81.243713 144.0
81.293961 324.0
81.306519 184.0
81.320877 188.0
81.367027 192.0
81.394485 88.0
81.433434 320.0
81.460938 176.0
81.495071 128.0
81.572952 180.0
81.619102 108.0
81.634796 248.0
81.703636 76.0
81.73851 168.0
81.820618 228.0
81.848228 156.0
81.923271 144.0
81.982735 188.0
82.015175 132.0
82.06385 136.0
82.078278 140.0
82.105461 164.0
82.165482 264.0
82.195526 176.0
82.260506 208.0
82.348106 248.0
82.365242 184.0
82.378868 176.0
82.428474 172.0
82.475464 108.0
82.536934 164.0
82.616516 52.0
82.638229 184.0
82.661751 184.0
82.681656 184.0
82.710617 176.0
82.727852 184.0
82.754066 96.0
82.845901 212.0
82.91227 204.0
82.962006 368.0
83.002312 36.0
83.057678 204.0
83.100258 212.0
83.138367 132.0
83.227318 164.0
83.249107 96.0
83.274536 124.0
83.314499 120.0
83.332664 168.0
83.443535 124.0
83.460129 192.0
83.499908 236.0
83.518097 156.0
83.5373 156.0
83.554482 68.0
83.598572 156.0
83.615501 208.0
83.676422 156.0
83.701294 176.0
83.769302 172.0
83.862885 224.0
83.891403 172.0
83.906677 168.0
83.926041 164.0
83.984245 188.0
84.011765 156.0
84.048256 212.0
84.063118 164.0
84.101181 128.0
84.117607 168.0
84.130386 176.0
84.168777 160.0
84.219864 148.0
84.250862 120.0
84.366058 160.0
84.387993 136.0
84.539825 152.0
84.613586 108.0
84.675247 256.0
84.686501 256.0
84.711174 204.0
84.730797 204.0
84.790573 188.0
84.836197 164.0
84.911736 136.0
84.933403 108.0
84.970436 92.0
85.002876 232.0
85.073204 188.0
85.088585 180.0
85.100746 312.0
85.150764 168.0
85.202675 296.0
85.242126 124.0
85.301003 184.0
85.339233 176.0
85.420532 116.0
85.48214 212.0
85.502205 176.0
85.530945 60.0
85.558952 204.0
85.624847 168.0
85.65033 148.0
85.672737 168.0
85.700371 84.0
85.722488 148.0
85.743187 156.0
85.764877 164.0
85.798492 136.0
85.818336 152.0
85.849686 204.0
85.88842 92.0
85.95668 196.0
85.973289 100.0
86.002823 92.0
86.111763 100.0
86.139465 168.0
86.175186 192.0
86.213379 120.0
86.246643 236.0
86.265869 220.0
86.311348 320.0
86.467468 288.0
86.505623 84.0
86.566719 160.0
86.614143 216.0
86.642662 168.0
86.716377 216.0
86.744591 148.0
86.789551 164.0
86.944916 76.0
86.958305 144.0
86.974609 56.0
87.030983 120.0
87.074875 156.0
87.089737 212.0
87.126884 156.0
87.143608 184.0
87.29615 184.0
87.355553 212.0
87.376015 172.0
87.435562 148.0
87.480446 104.0
87.537956 132.0
87.560753 164.0
87.588242 144.0
87.61805 104.0
87.701904 176.0
87.726143 204.0
87.757835 112.0
87.814568 212.0
87.830566 176.0
87.862282 136.0
87.877205 104.0
87.890266 148.0
87.929459 116.0
87.97052 148.0
87.991058 324.0
88.013374 164.0
88.018921 156.0
88.078835 164.0
88.093773 144.0
88.108719 108.0
88.142532 168.0
88.181602 140.0
88.270058 164.0
88.351768 156.0
88.431671 120.0
88.450951 260.0
88.46405 112.0
88.512733 148.0
88.544571 152.0
88.60067 228.0
88.625122 60.0
88.64386 136.0
88.661873 144.0
88.69072 96.0
88.709465 120.0
88.730087 180.0
88.8069 104.0
88.820099 172.0
88.855743 156.0
88.932686 164.0
88.960838 144.0
88.975861 136.0
89.00132 180.0
89.035492 220.0
89.209038 168.0
89.276505 316.0
89.351746 168.0
89.408531 180.0
89.430786 40.0
89.451492 152.0
89.481613 172.0
89.573891 140.0
89.592728 208.0
89.605919 192.0
89.634979 208.0
89.673965 180.0
89.703918 104.0
89.755692 208.0
89.788773 152.0
89.80574 112.0
89.818947 228.0
89.909515 120.0
89.939713 220.0
89.958588 88.0
90.011459 132.0
90.066223 212.0
90.107788 100.0
90.126678 112.0
90.160698 144.0
90.179596 120.0
90.210335 124.0
90.22686 140.0
90.295425 168.0
90.321411 128.0
90.355461 180.0
90.377129 220.0
90.441391 256.0
90.464775 216.0
90.487465 156.0
90.52961 168.0
90.56749 48.0
90.59211 120.0
90.630417 128.0
90.656532 184.0
90.6717 160.0
90.696335 136.0
90.74572 164.0
90.775963 96.0
90.804413 60.0
90.842346 108.0
90.874603 144.0
90.899269 160.0
90.914452 200.0
90.942924 208.0
90.958107 48.0
91.05455 1812.0
91.096733 176.0
91.124069 216.0
91.147667 168.0
91.212646 164.0
91.239265 148.0
91.256378 172.0
91.286797 104.0
91.324837 112.0
91.391426 144.0
91.461998 188.0
91.485992 180.0
91.499916 344.0
91.517052 136.0
91.57579 208.0
91.60524 164.0
91.633232 112.0
91.698029 172.0
91.720901 88.0
91.755211 172.0
91.846848 152.0
91.879181 172.0
91.909706 112.0
91.948997 172.0
92.003235 44.0
92.016594 148.0
92.07579 200.0
92.12928 108.0
92.159843 160.0
92.174324 168.0
92.203163 192.0
92.226738 104.0
92.253494 128.0
92.329979 216.0
92.366325 208.0
92.387367 156.0
92.404587 176.0
92.452423 116.0
92.495399 184.0
92.551964 172.0
92.611336 124.0
92.626656 160.0
92.66114 80.0
92.676468 60.0
92.699165 152.0
92.718628 164.0
92.743546 136.0
92.820236 148.0
92.851395 192.0
92.944702 180.0
92.960815 224.0
92.985222 172.0
92.998657 228.0
93.014008 200.0
93.056244 68.0
93.098495 148.0
93.121536 248.0
93.136902 152.0
93.223366 228.0
93.273338 96.0
93.286789 232.0
93.367546 108.0
93.427177 72.0
93.517624 192.0
93.554199 204.0
93.670853 180.0
93.695488 208.0
93.764153 144.0
93.783432 164.0
93.858994 164.0
93.88369 100.0
93.933838 100.0
93.954346 184.0
93.97435 200.0
94.009087 120.0
94.064522 1104.0
94.103668 140.0
94.138428 184.0
94.194435 192.0
94.209892 196.0
94.318108 172.0
94.358704 164.0
94.381805 228.0
94.416451 172.0
94.434685 176.0
94.447662 160.0
94.465073 116.0
94.573433 152.0
94.602196 196.0
94.643127 172.0
94.691544 132.0
94.712852 128.0
94.770973 144.0
94.79229 188.0
94.809731 136.0
94.858185 116.0
94.885323 164.0
94.926048 112.0
94.988106 148.0
95.021088 136.0
95.055786 168.0
95.10128 136.0
95.123947 128.0
95.176369 92.0
95.189964 160.0
95.252113 140.0
95.374474 132.0
95.381332 128.0
95.395218 168.0
95.442574 188.0
95.491196 172.0
95.543716 132.0
95.598198 152.0
95.636353 128.0
95.706833 188.0
95.739891 148.0
95.782089 240.0
95.829247 220.0
95.894119 204.0
95.925415 144.0
95.964409 140.0
95.980003 120.0
95.99366 68.0
96.035744 200.0
96.079521 4132.0
96.122406 188.0
96.160927 184.0
96.198067 220.0
96.241478 156.0
96.290298 120.0
96.317642 136.0
96.335228 156.0
96.350853 100.0
96.410286 144.0
96.475929 124.0
96.502884 168.0
96.551735 132.0
96.647713 176.0
96.704872 192.0
96.732208 120.0
96.775276 232.0
96.794861 100.0
96.855537 208.0
96.879082 208.0
96.90847 112.0
96.928741 172.0
96.945702 152.0
96.992737 156.0
97.07579 15588.0
97.126076 188.0
97.147659 48.0
97.170738 68.0
97.181992 104.0
97.22345 140.0
97.296326 212.0
97.356621 140.0
97.374474 232.0
97.387489 156.0
97.462776 96.0
97.56089 152.0
97.568909 64.0
97.578285 184.0
97.595451 200.0
97.61071 160.0
97.638718 144.0
97.6716 184.0
97.688469 196.0
97.735107 28.0
97.748886 76.0
97.768562 168.0
97.85321 152.0
97.908348 116.0
97.938637 200.0
97.954445 208.0
97.971375 88.0
97.99305 40.0
98.030884 160.0
98.08139 2448.0
98.114433 224.0
98.147232 196.0
98.170456 104.0
98.192604 312.0
98.21582 200.0
98.253304 72.0
98.314468 208.0
98.361839 192.0
98.423042 156.0
98.442078 332.0
98.488213 136.0
98.521797 60.0
98.541557 72.0
98.563293 60.0
98.641357 176.0
98.665169 236.0
98.739235 172.0
98.761513 136.0
98.781883 144.0
98.824005 136.0
98.85849 172.0
98.934563 208.0
98.95295 212.0
98.99453 116.0
99.026222 196.0
99.057915 236.0
99.091377 416.0
99.193176 124.0
99.262054 160.0
99.277924 148.0
99.325523 176.0
99.351311 108.0
99.375122 172.0
99.502144 136.0
99.533913 108.0
99.585266 196.0
99.605415 204.0
99.640999 140.0
99.643967 128.0
99.653816 192.0
99.682899 204.0
99.764389 112.0
99.809357 156.0
99.85054 196.0
99.865143 168.0
99.893654 160.0
99.921295 280.0
99.954163 200.0
99.974236 212.0
100.07563 15136.0
100.13002 32.0
100.160919 76.0
100.19873 68.0
100.216621 164.0
100.235199 76.0
100.248062 144.0
100.273201 72.0
100.302544 180.0
100.327682 180.0
100.336876 108.0
100.369667 176.0
100.413918 168.0
100.447449 152.0
100.489342 88.0
100.522987 144.0
100.543221 148.0
100.595116 68.0
100.67498 180.0
100.692955 52.0
100.718925 140.0
100.802834 176.0
100.828377 156.0
100.844803 144.0
100.954765 72.0
101.006767 68.0
101.04969 44.0
101.076286 692.0
101.174866 188.0
101.190437 152.0
101.232933 112.0
101.305656 208.0
101.343109 120.0
101.387192 184.0
101.477402 96.0
101.50547 184.0
101.535553 64.0
101.583694 224.0
101.609772 136.0
101.649757 108.0
101.710114 204.0
101.758293 164.0
101.779716 176.0
101.843811 144.0
101.912956 128.0
101.935059 156.0
102.048271 212.0
102.067726 40.0
102.088783 204.0
102.109291 96.0
102.182381 136.0
102.272934 196.0
102.305145 108.0
102.325951 144.0
102.401802 124.0
102.415901 144.0
102.432014 124.0
102.449226 184.0
102.486412 64.0
102.540382 92.0
102.60331 128.0
102.651703 228.0
102.690025 144.0
102.739525 164.0
102.786858 216.0
102.809059 140.0
102.843369 176.0
102.897873 100.0
102.968552 172.0
102.988747 156.0
103.030632 196.0
103.055138 832.0
103.132942 132.0
103.160835 176.0
103.18679 144.0
103.24054 152.0
103.310158 196.0
103.39312 128.0
103.412987 172.0
103.443726 204.0
103.460632 68.0
103.480164 220.0
103.505043 264.0
103.581696 208.0
103.603706 140.0
103.641426 192.0
103.683746 224.0
103.749626 164.0
103.800316 168.0
103.853043 176.0
103.899704 48.0
103.930138 180.0
103.952629 144.0
103.974785 128.0
104.037704 148.0
104.053947 192.0
104.068977 144.0
104.085052 200.0
104.100655 236.0
104.232689 120.0
104.299759 200.0
104.338387 132.0
104.364815 108.0
104.415115 208.0
104.426414 176.0
104.470581 76.0
104.511711 128.0
104.544418 96.0
104.568253 168.0
104.582497 156.0
104.606926 168.0
104.621178 140.0
104.649681 88.0
104.666779 140.0
104.771881 64.0
104.796326 212.0
104.835045 172.0
104.864433 216.0
104.928261 104.0
104.935448 156.0
104.965515 164.0
105.011566 192.0
105.042458 204.0
105.068863 284.0
105.087547 184.0
105.153198 48.0
105.208313 128.0
105.247108 176.0
105.302246 108.0
105.341827 372.0
105.383957 56.0
105.412567 240.0
105.451401 188.0
105.467751 184.0
105.514771 104.0
105.541351 72.0
105.586342 176.0
105.627243 196.0
105.756157 276.0
105.803238 152.0
105.829201 272.0
105.858528 112.0
105.883102 100.0
105.909195 124.0
105.946602 180.0
105.98143 176.0
106.013191 152.0
106.047012 172.0
106.066078 196.0
106.094154 120.0
106.120811 148.0
106.139267 132.0
106.15567 148.0
106.182327 144.0
106.213097 176.0
106.269226 100.0
106.289009 188.0
106.36084 176.0
106.377876 160.0
106.407875 232.0
106.526245 196.0
106.54155 176.0
106.574425 212.0
106.602867 228.0
106.68541 112.0
106.718307 124.0
106.784111 200.0
106.811806 172.0
106.826447 124.0
106.880409 168.0
106.932251 184.0
107.071487 364.0
107.09285 68.0
107.210289 136.0
107.237938 144.0
107.392815 168.0
107.408218 132.0
107.482491 144.0
107.511383 132.0
107.554726 156.0
107.604271 144.0
107.635246 180.0
107.69101 64.0
107.773643 120.0
107.800507 144.0
107.823235 176.0
107.872849 72.0
107.899719 96.0
107.940636 132.0
107.997452 216.0
108.078705 684.0
108.169029 204.0
108.212135 168.0
108.280472 196.0
108.418175 232.0
108.477318 300.0
108.53952 132.0
108.645302 144.0
108.661034 208.0
108.682648 136.0
108.72847 148.0
108.751129 108.0
108.79213 160.0
108.81469 200.0
108.872856 420.0
108.946327 124.0
108.973335 132.0
109.005699 104.0
109.079269 380.0
109.11467 168.0
109.160408 100.0
109.214485 80.0
109.231125 48.0
109.25193 96.0
109.277878 180.0
109.341408 148.0
109.355972 96.0
109.403854 108.0
109.424667 196.0
109.466316 108.0
109.499634 36.0
109.527275 148.0
109.563065 148.0
109.599632 112.0
109.61422 128.0
109.657982 104.0
109.687965 136.0
109.758049 160.0
109.783073 212.0
109.812965 96.0
109.868591 140.0
109.897804 168.0
109.935364 124.0
109.966667 92.0
109.993805 108.0
110.020943 168.0
110.043907 208.0
110.063362 152.0
110.094612 796.0
110.181755 116.0
110.220665 192.0
110.263252 136.0
110.28096 144.0
110.334145 140.0
110.349525 176.0
110.366333 248.0
110.387375 228.0
110.428421 224.0
110.454796 228.0
110.482811 56.0
110.535118 96.0
110.556046 236.0
110.576973 84.0
110.604187 168.0
110.63768 128.0
110.696304 136.0
110.721436 36.0
110.748253 204.0
110.771706 148.0
110.817795 112.0
110.855515 176.0
110.889046 124.0
110.92321 188.0
110.941452 148.0
110.985481 48.0
111.004356 96.0
111.033714 112.0
111.054688 272.0
111.091125 3860.0
111.12468 132.0
111.15329 128.0
111.221245 180.0
111.303551 144.0
111.417847 140.0
111.491394 184.0
111.520821 112.0
111.554451 96.0
111.695572 184.0
111.729004 100.0
111.760559 132.0
111.804756 148.0
111.844742 84.0
111.874214 256.0
111.905792 148.0
111.9795 140.0
111.994247 128.0
112.075043 432.0
112.097923 1496.0
112.122467 196.0
112.136726 148.0
112.169136 228.0
112.192329 180.0
112.223358 184.0
112.260956 212.0
112.287216 144.0
112.327293 92.0
112.354721 192.0
112.408569 148.0
112.424347 96.0
112.458122 124.0
112.502449 112.0
112.557343 104.0
112.624924 124.0
112.641296 144.0
112.711548 148.0
112.774704 140.0
112.798195 76.0
112.87394 184.0
112.901802 336.0
112.933525 108.0
112.971603 140.0
113.007568 152.0
113.049889 32.0
113.069977 336.0
113.106514 464.0
113.138794 144.0
113.166313 192.0
113.200195 180.0
113.219254 140.0
113.261665 180.0
113.306099 104.0
113.338562 212.0
113.400177 224.0
113.419823 172.0
113.455002 176.0
113.598663 104.0
113.683533 148.0
113.710495 216.0
113.747208 176.0
113.770561 164.0
113.789665 140.0
113.825768 76.0
113.86824 176.0
113.889481 228.0
113.94471 120.0
113.965958 144.0
113.988586 148.0
114.035263 144.0
114.059471 180.0
114.073349 176.0
114.092316 432.0
114.127502 148.0
114.218361 144.0
114.250862 132.0
114.320183 176.0
114.34449 180.0
114.457314 228.0
114.479935 212.0
114.540375 156.0
114.589378 160.0
114.61068 64.0
114.672485 192.0
114.725273 68.0
114.759888 168.0
114.825851 180.0
114.858391 192.0
114.900658 140.0
114.930527 88.0
114.969627 136.0
115.013756 148.0
115.055748 1004.0
115.086388 196.0
115.119148 156.0
115.235855 168.0
115.278595 152.0
115.319199 28.0
115.355537 136.0
115.402573 52.0
115.448906 192.0
115.500954 148.0
115.563705 264.0
115.590805 176.0
115.618629 116.0
115.759918 196.0
115.794189 164.0
115.888443 120.0
115.924873 224.0
115.975952 120.0
116.014893 144.0
116.058472 296.0
116.074928 228.0
116.104446 200.0
116.184319 96.0
116.218651 188.0
116.239273 144.0
116.293762 68.0
116.315224 240.0
116.347427 148.0
116.385956 144.0
116.392769 136.0
116.445061 188.0
116.476273 56.0
116.527832 148.0
116.549324 192.0
116.578438 156.0
116.598747 176.0
116.613792 136.0
116.652481 180.0
116.680428 88.0
116.734184 132.0
116.790108 116.0
116.961716 180.0
117.072052 128.0
117.112976 240.0
117.162521 264.0
117.186218 120.0
117.212074 112.0
117.365036 216.0
117.395309 188.0
117.416878 172.0
117.520676 68.0
117.549927 332.0
117.599663 256.0
117.721169 192.0
117.73629 76.0
117.889359 192.0
117.893257 164.0
117.916862 216.0
117.935059 248.0
118.030624 176.0
118.051811 48.0
118.082085 184.0
118.136162 140.0
118.155045 160.0
118.16011 116.0
118.167122 168.0
118.218384 100.0
118.24247 156.0
118.270332 124.0
118.287643 144.0
118.309296 128.0
118.3461 152.0
118.402405 128.0
118.417564 156.0
118.469551 332.0
118.494431 120.0
118.571396 152.0
118.61908 144.0
118.641556 240.0
118.696159 116.0
118.73761 324.0
118.77404 144.0
118.788223 164.0
118.829445 92.0
118.85331 148.0
118.909737 148.0
118.977028 140.0
119.005249 172.0
119.075935 168.0
119.122528 52.0
119.152946 64.0
119.18119 56.0
119.252907 104.0
119.328995 192.0
119.350731 140.0
119.385529 152.0
119.415977 108.0
119.538147 204.0
119.55304 156.0
119.58786 116.0
119.637932 204.0
119.740273 188.0
119.831352 148.0
119.901497 124.0
120.025757 208.0
120.047562 80.0
120.07373 116.0
120.097725 180.0
120.134811 104.0
120.20681 184.0
120.274467 144.0
120.300667 240.0
120.379265 216.0
120.398575 100.0
120.465561 252.0
120.529991 116.0
120.562775 172.0
120.593369 132.0
120.630531 172.0
120.66114 168.0
120.676445 76.0
120.717987 164.0
120.784576 108.0
120.833916 148.0
120.860176 192.0
120.928436 148.0
120.971794 132.0
121.008827 308.0
121.06028 184.0
121.243401 156.0
121.309158 36.0
121.366158 108.0
121.388092 152.0
121.414406 124.0
121.459305 176.0
121.475822 116.0
121.576752 156.0
121.607407 120.0
121.631622 96.0
121.646988 180.0
121.767754 212.0
121.787521 312.0
121.831055 152.0
121.899574 144.0
121.923744 164.0
121.995888 156.0
122.038055 136.0
122.062241 140.0
122.095085 244.0
122.126022 228.0
122.15242 180.0
122.251427 100.0
122.326263 128.0
122.346077 188.0
122.451775 172.0
122.487015 156.0
122.506844 148.0
122.533279 164.0
122.570732 56.0
122.605995 120.0
122.645668 100.0
122.666443 124.0
122.696373 156.0
122.764725 204.0
122.81192 180.0
122.841919 136.0
122.892662 156.0
122.920265 268.0
122.95887 172.0
123.001404 148.0
123.027298 156.0
123.091255 1632.0
123.158058 188.0
123.203972 160.0
123.239761 80.0
123.261421 116.0
123.318878 48.0
123.427208 140.0
123.46701 152.0
123.506821 160.0
123.548851 148.0
123.632935 124.0
123.675354 164.0
123.708466 164.0
123.728119 124.0
123.76133 116.0
123.79454 164.0
123.827766 68.0
123.878708 88.0
123.934097 80.0
123.971771 152.0
124.013878 196.0
124.045242 144.0
124.077141 216.0
124.099174 2808.0
124.118584 352.0
124.140251 164.0
124.195702 216.0
124.21051 124.0
124.268906 104.0
124.291092 76.0
124.324379 172.0
124.373207 156.0
124.402069 152.0
124.433151 136.0
124.457573 156.0
124.493103 72.0
124.521973 64.0
124.55085 160.0
124.623924 188.0
124.668602 140.0
124.699722 208.0
124.753067 104.0
124.770851 172.0
124.788223 172.0
124.828667 124.0
124.895386 148.0
124.917633 176.0
124.944328 120.0
124.982849 140.0
125.017914 500.0
125.063713 296.0
125.106422 1348.0
125.175812 140.0
125.291634 132.0
125.324104 120.0
125.345108 104.0
125.387451 132.0
125.410706 184.0
125.452095 136.0
125.484535 116.0
125.54351 116.0
125.604324 180.0
125.626038 116.0
125.646118 208.0
125.666199 148.0
125.69857 140.0
125.804573 176.0
125.86039 336.0
125.931854 116.0
125.947487 164.0
125.963127 76.0
125.9944 212.0
126.022202 144.0
126.048027 84.0
126.071915 140.0
126.087639 248.0
126.107307 288.0
126.141891 116.0
126.166489 140.0
126.211151 168.0
126.278069 188.0
126.33094 172.0
126.374489 184.0
126.434982 116.0
126.468475 160.0
126.488625 76.0
126.508774 204.0
126.524445 112.0
126.611267 232.0
126.639893 208.0
126.649269 216.0
126.685684 196.0
126.705605 144.0
126.733055 312.0
126.810242 136.0
126.838066 112.0
126.901382 232.0
126.923264 116.0
126.986343 304.0
127.011589 180.0
127.055237 176.0
127.086052 1896.0
127.121849 716.0
127.151588 144.0
127.19249 64.0
127.208199 148.0
127.311485 192.0
127.34742 200.0
127.408073 132.0
127.459747 164.0
127.513687 144.0
127.529419 68.0
127.545151 244.0
127.572441 96.0
127.599106 80.0
127.699959 204.0
127.74929 200.0
127.857788 144.0
127.893799 164.0
127.949242 168.0
127.979347 80.0
128.006378 144.0
128.061737 3752.0
128.094482 20072.0
128.141525 124.0
128.156967 112.0
128.195602 64.0
128.229507 52.0
128.247437 184.0
128.298401 112.0
128.307373 68.0
128.316315 152.0
128.336029 152.0
128.36467 76.0
128.407791 124.0
128.436844 248.0
128.489197 152.0
128.547943 212.0
128.567703 52.0
128.60936 168.0
128.65152 180.0
128.737015 168.0
128.759613 44.0
128.83049 156.0
128.855484 180.0
128.888367 148.0
128.914078 276.0
128.936234 224.0
128.960388 152.0
128.994598 116.0
129.063492 556.0
129.098526 1580.0
129.166458 100.0
129.187332 104.0
129.225861 92.0
129.268936 148.0
129.299957 124.0
129.327911 180.0
129.352005 172.0
129.370117 128.0
129.485611 100.0
129.525543 108.0
129.62941 84.0
129.670532 164.0
129.687256 188.0
129.707657 236.0
129.725784 200.0
129.755264 144.0
129.970734 108.0
130.004776 40.0
130.038818 212.0
130.075012 848.0
130.106384 136.0
130.129623 136.0
130.15358 168.0
130.244385 256.0
130.264008 116.0
130.288605 176.0
130.331772 136.0
130.354492 68.0
130.382996 168.0
130.411316 184.0
130.434052 108.0
130.523804 100.0
130.559097 156.0
130.629608 136.0
130.645538 128.0
130.759598 212.0
130.818481 132.0
130.898178 180.0
130.927658 144.0
130.949356 148.0
131.05307 172.0
131.075317 284.0
131.116119 456.0
131.176147 96.0
131.206543 204.0
131.234299 164.0
131.323471 228.0
131.343842 244.0
131.41333 168.0
131.486343 140.0
131.591354 184.0
131.661362 152.0
131.717804 172.0
131.824341 136.0
131.899765 184.0
131.97197 172.0
132.019623 176.0
132.058777 132.0
132.075836 116.0
132.134415 152.0
132.187943 68.0
132.322998 180.0
132.33902 148.0
132.453522 132.0
132.481018 188.0
132.5383 216.0
132.701035 204.0
132.740021 156.0
132.756073 184.0
132.783585 132.0
132.831757 88.0
132.90712 180.0
133.006149 112.0
133.136002 160.0
133.1577 156.0
133.195343 192.0
133.222015 176.0
133.293243 176.0
133.316223 180.0
133.359894 180.0
133.40126 112.0
133.472534 140.0
133.566574 108.0
133.64505 244.0
133.716385 188.0
133.752701 160.0
133.786591 220.0
133.891373 68.0
134.015381 172.0
134.038803 180.0
134.204773 140.0
134.280869 160.0
134.352371 164.0
134.399429 204.0
134.451599 192.0
134.481598 48.0
134.513916 160.0
134.550735 152.0
134.583176 168.0
134.680176 216.0
134.73793 156.0
134.774887 172.0
134.835938 136.0
134.876587 220.0
134.925125 128.0
134.952866 224.0
134.972046 164.0
134.989868 76.0
135.010681 196.0
135.087006 132.0
135.121719 212.0
135.140228 180.0
135.207336 184.0
135.253616 68.0
135.332336 116.0
135.369385 148.0
135.41571 128.0
135.464798 228.0
135.4991 120.0
135.52562 172.0
135.557022 176.0
135.61615 148.0
135.642776 140.0
135.686829 60.0
135.807419 76.0
135.827728 212.0
135.866669 228.0
135.900208 164.0
135.918777 144.0
135.990936 164.0
136.032501 192.0
136.07196 140.0
136.138229 172.0
136.178513 168.0
136.211304 80.0
136.229889 40.0
136.271713 136.0
136.320511 136.0
136.388 100.0
136.476242 196.0
136.51799 244.0
136.585556 68.0
136.632706 224.0
136.678619 172.0
136.748428 196.0
136.777664 136.0
136.814163 140.0
136.846283 124.0
136.964981 140.0
136.985794 128.0
137.015549 208.0
137.060501 160.0
137.107269 1324.0
137.189941 104.0
137.341614 152.0
137.371185 156.0
137.431244 160.0
137.474594 296.0
137.491913 68.0
137.522247 140.0
137.550262 96.0
137.574448 324.0
137.655334 192.0
137.674011 108.0
137.713715 96.0
137.734741 176.0
137.764114 356.0
137.790802 104.0
137.816513 40.0
137.879608 88.0
137.973923 228.0
138.038147 144.0
138.073654 144.0
138.109055 312.0
138.202011 156.0
138.244431 204.0
138.340393 104.0
138.392914 168.0
138.427719 176.0
138.469177 188.0
138.518372 144.0
138.534775 176.0
138.612091 160.0
138.630829 148.0
138.649582 128.0
138.771484 192.0
138.804306 80.0
138.844177 60.0
138.873642 128.0
138.895767 152.0
138.916885 124.0
138.969803 108.0
138.993149 164.0
139.032898 280.0
139.070236 196.0
139.095001 232.0
139.122879 35400.0
139.168396 232.0
139.188156 128.0
139.215744 172.0
139.23291 44.0
139.239578 84.0
139.261765 152.0
139.286606 96.0
139.315979 96.0
139.348862 72.0
139.388809 104.0
139.407608 124.0
139.429596 204.0
139.437775 72.0
139.444336 192.0
139.579208 220.0
139.598022 132.0
139.621536 140.0
139.673294 132.0
139.710922 196.0
139.741516 36.0
139.769852 96.0
139.837387 120.0
139.933563 220.0
139.967484 84.0
140.014572 140.0
140.031067 116.0
140.093552 200.0
140.127945 3648.0
140.176025 188.0
140.204056 196.0
140.240753 52.0
140.353531 196.0
140.427841 184.0
140.524948 152.0
140.544128 120.0
140.599258 56.0
140.625214 152.0
140.648819 112.0
140.698395 76.0
140.740814 124.0
140.764343 152.0
140.785767 196.0
140.841064 68.0
140.875519 136.0
140.976868 112.0
140.989655 144.0
141.030746 168.0
141.05748 112.0
141.101761 5016.0
141.137878 728.0
141.160522 248.0
141.196213 160.0
141.233765 116.0
141.251389 128.0
141.27977 36.0
141.305801 80.0
141.338928 136.0
141.386261 148.0
141.405182 72.0
141.428864 84.0
141.445419 148.0
141.476196 136.0
141.52356 104.0
141.551971 208.0
141.611176 172.0
141.630127 64.0
141.656174 160.0
141.679871 72.0
141.766037 152.0
141.907394 116.0
141.978943 116.0
141.99649 148.0
142.030716 128.0
142.065689 276.0
142.108887 2152.0
142.234787 124.0
142.258514 76.0
142.279388 172.0
142.319031 148.0
142.347198 172.0
142.389114 68.0
142.405746 128.0
142.432495 272.0
142.477005 120.0
142.560165 192.0
142.660004 128.0
142.681396 136.0
142.757477 176.0
142.786026 176.0
142.833588 128.0
142.892075 112.0
142.967285 172.0
142.988251 136.0
143.036148 232.0
143.117844 3080.0
143.159668 48.0
143.20253 76.0
143.219376 408.0
143.269226 68.0
143.307358 128.0
143.362152 360.0
143.378845 192.0
143.400284 192.0
143.426315 148.0
143.443192 180.0
143.507568 164.0
143.574341 172.0
143.667358 152.0
143.734161 132.0
143.767578 80.0
143.863052 176.0
143.906021 112.0
143.927979 144.0
143.970505 192.0
144.028976 124.0
144.049316 176.0
144.082092 304.0
144.119827 336.0
144.154449 196.0
144.173294 176.0
144.276352 124.0
144.309814 244.0
144.367203 84.0
144.459702 204.0
144.520309 152.0
144.565765 200.0
144.675873 80.0
144.692627 140.0
144.752487 96.0
144.848297 260.0
144.901001 164.0
144.936935 184.0
144.967789 156.0
144.994446 80.0
145.044785 252.0
145.085541 156.0
145.19104 80.0
145.20784 388.0
145.34938 184.0
145.387772 200.0
145.481384 140.0
145.498184 204.0
145.519791 156.0
145.579819 124.0
145.656677 120.0
145.675903 152.0
145.743179 108.0
145.767197 188.0
145.823898 144.0
145.858536 36.0
145.952301 152.0
145.993179 128.0
146.062714 140.0
146.112167 212.0
146.137497 180.0
146.200073 160.0
146.216919 100.0
146.245361 176.0
146.283218 220.0
146.318008 152.0
146.370987 180.0
146.390259 176.0
146.409515 212.0
146.426376 116.0
146.448059 40.0
146.467316 128.0
146.51326 168.0
146.539597 56.0
146.570923 156.0
146.631165 120.0
146.657684 140.0
146.689011 164.0
146.716644 156.0
146.739639 152.0
146.781326 128.0
146.788391 128.0
146.826447 112.0
146.862625 148.0
146.906052 124.0
146.927765 48.0
147.02359 140.0
147.101517 108.0
147.137726 172.0
147.202927 152.0
147.282684 144.0
147.317932 272.0
147.364761 248.0
147.396179 172.0
147.444504 176.0
147.494812 168.0
147.526688 168.0
147.727493 124.0
147.754028 108.0
147.783051 140.0
147.872589 156.0
147.894379 160.0
147.932648 148.0
147.969666 164.0
147.991165 176.0
148.015427 172.0
148.046906 172.0
148.153488 220.0
148.192245 136.0
148.303726 148.0
148.468597 172.0
148.514679 140.0
148.565613 176.0
148.694229 192.0
148.720917 128.0
148.750046 64.0
148.796173 160.0
148.82045 120.0
148.87204 196.0
148.954025 160.0
148.983185 308.0
149.015717 548.0
149.043488 168.0
149.128983 136.0
149.155716 92.0
149.197052 116.0
149.316193 228.0
149.338089 300.0
149.362411 120.0
149.417252 132.0
149.520554 132.0
149.569244 48.0
149.603317 140.0
149.620361 64.0
149.672348 136.0
149.756729 156.0
149.834686 128.0
149.889343 176.0
149.978455 76.0
150.00528 148.0
150.021072 116.0
150.038681 188.0
150.066223 84.0
150.10556 180.0
150.188156 68.0
150.236862 128.0
150.263779 192.0
150.317459 68.0
150.402664 268.0
150.55426 60.0
150.57869 144.0
150.62149 148.0
150.644638 144.0
150.674759 180.0
150.733917 132.0
150.7668 132.0
150.866913 192.0
150.983887 116.0
151.011063 440.0
151.036301 124.0
151.055328 152.0
151.119827 524.0
151.143402 96.0
151.165421 52.0
151.186401 92.0
151.220276 144.0
151.239166 152.0
151.265778 132.0
151.351456 72.0
151.387329 284.0
151.454315 160.0
151.511383 108.0
151.581726 196.0
151.627106 160.0
151.763107 148.0
151.820847 184.0
151.902908 120.0
151.931366 140.0
152.011795 156.0
152.061691 364.0
152.129959 1388.0
152.163437 172.0
152.293198 168.0
152.342316 328.0
152.371796 144.0
152.416031 108.0
152.450439 44.0
152.536453 312.0
152.565964 160.0
152.728256 152.0
152.752853 128.0
152.774994 80.0
152.831589 80.0
152.885727 88.0
152.93248 144.0
152.98172 304.0
153.055573 148.0
153.129257 416.0
153.181183 100.0
153.198425 164.0
153.237854 44.0
153.338882 256.0
153.384384 276.0
153.398529 160.0
153.427628 128.0
153.477844 140.0
153.549301 232.0
153.570648 184.0
153.60025 188.0
153.656982 84.0
153.714722 108.0
153.731018 204.0
153.758163 152.0
153.774719 184.0
153.817398 140.0
153.903809 276.0
153.965546 172.0
154.045044 172.0
154.106232 564.0
154.144501 148.0
154.20108 144.0
154.23732 204.0
154.276886 80.0
154.309021 104.0
154.457397 152.0
154.483536 52.0
154.539047 104.0
154.594803 112.0
154.650406 120.0
154.672684 84.0
154.709122 144.0
154.769241 108.0
154.850952 164.0
154.905457 112.0
154.974777 168.0
155.019424 116.0
155.049164 164.0
155.115829 804.0
155.201569 192.0
155.403763 100.0
155.455872 192.0
155.476639 152.0
155.493103 204.0
155.520401 136.0
155.562607 108.0
155.584946 96.0
155.637085 144.0
155.74884 104.0
155.77858 128.0
155.853195 160.0
155.949509 180.0
156.002304 36.0
156.03215 160.0
156.059494 128.0
156.086853 192.0
156.139832 208.0
156.226135 148.0
156.246033 84.0
156.263443 156.0
156.425217 220.0
156.455078 120.0
156.557175 240.0
156.587067 136.0
156.615417 240.0
156.753983 124.0
156.813782 180.0
156.833725 84.0
156.871124 144.0
156.921844 220.0
156.977432 144.0
157.003265 372.0
157.096832 296.0
157.131348 1296.0
157.203796 212.0
157.252762 164.0
157.337631 148.0
157.355865 172.0
157.39119 116.0
157.497284 180.0
157.52243 112.0
157.593018 220.0
157.671585 156.0
157.697342 36.0
157.739838 180.0
157.758011 224.0
157.809845 108.0
157.829132 156.0
157.947388 56.0
157.969894 140.0
158.017914 148.0
158.050705 176.0
158.095581 320.0
158.133179 192.0
158.240189 160.0
158.450577 156.0
158.558838 228.0
158.608444 104.0
158.633514 52.0
158.65358 40.0
158.676132 196.0
158.713745 168.0
158.786469 132.0
158.901871 232.0
158.924438 216.0
158.977142 176.0
159.024734 1376.0
159.067505 180.0
159.102295 104.0
159.145325 224.0
159.165421 116.0
159.23494 164.0
159.251465 152.0
159.26947 156.0
159.40657 220.0
159.424149 144.0
159.441742 188.0
159.507095 152.0
159.602631 208.0
159.685623 100.0
159.715805 156.0
159.740967 316.0
159.758575 176.0
159.801346 92.0
159.826508 164.0
159.865189 232.0
159.924652 152.0
160.038116 324.0
160.131119 148.0
160.166382 56.0
160.28479 100.0
160.307465 96.0
160.332672 168.0
160.398193 164.0
160.451141 200.0
160.486435 108.0
160.516693 96.0
160.55957 156.0
160.64743 120.0
160.680649 160.0
160.715973 116.0
160.786636 152.0
160.8573 116.0
160.925461 160.0
160.952896 176.0
160.996872 296.0
161.03923 268.0
161.269043 64.0
161.309219 152.0
161.386246 208.0
161.473831 136.0
161.521896 112.0
161.600311 60.0
161.658264 164.0
161.714203 68.0
161.734451 112.0
161.759293 132.0
161.833176 120.0
161.99527 160.0
162.022324 2208.0
162.086639 180.0
162.205597 160.0
162.223343 108.0
162.258835 96.0
162.314621 188.0
162.544327 108.0
162.689941 172.0
162.786606 136.0
162.941544 208.0
162.974579 168.0
163.025726 412.0
163.046249 200.0
163.114273 220.0
163.177917 52.0
163.203339 236.0
163.249115 200.0
163.287262 156.0
163.315247 128.0
163.410553 172.0
163.480606 56.0
163.597702 140.0
163.630798 124.0
163.684265 188.0
163.735199 80.0
163.76918 128.0
163.814163 92.0
163.837082 48.0
163.862564 124.0
163.900787 72.0
163.9543 160.0
164.018158 504.0
164.036331 524.0
164.17865 276.0
164.269989 212.0
164.290878 200.0
164.339355 104.0
164.468613 148.0
164.518005 136.0
164.599716 148.0
164.635468 124.0
164.79895 160.0
164.896057 80.0
164.925125 128.0
164.954651 156.0
164.987061 192.0
165.025192 148.0
165.045258 140.0
165.069992 784.0
165.107269 320.0
165.197784 88.0
165.22081 112.0
165.243835 188.0
165.284775 168.0
165.3078 136.0
165.328278 116.0
165.35643 156.0
165.448578 120.0
165.650894 136.0
165.74736 104.0
165.881516 136.0
165.960999 60.0
165.999466 132.0
166.030243 108.0
166.07901 364.0
166.263702 156.0
166.322739 264.0
166.494751 120.0
166.610352 100.0
166.690002 312.0
166.764008 200.0
166.785095 208.0
166.805649 56.0
166.828796 176.0
166.87764 72.0
166.9198 152.0
166.941925 120.0
166.95993 180.0
167.071747 144.0
167.079254 144.0
167.11937 196.0
167.22493 56.0
167.383453 180.0
167.440109 104.0
167.473602 240.0
167.5159 92.0
167.562271 136.0
167.603485 76.0
167.647049 144.0
167.711731 124.0
167.745239 92.0
167.776184 200.0
167.796799 112.0
167.823761 132.0
167.832901 60.0
167.842041 132.0
167.873276 176.0
167.951538 144.0
168.021179 220.0
168.08049 724.0
168.119431 52.0
168.155365 32.0
168.183762 60.0
168.222748 116.0
168.323166 64.0
168.393936 72.0
168.470398 128.0
168.491058 148.0
168.534012 128.0
168.628021 128.0
168.65387 56.0
168.803818 132.0
168.886581 124.0
168.971939 120.0
169.034042 208.0
169.088425 364.0
169.133682 5048.0
169.189346 92.0
169.232712 216.0
169.299393 124.0
169.306335 196.0
169.342026 200.0
169.350479 192.0
169.373199 144.0
169.427032 244.0
169.461548 116.0
169.509781 212.0
169.567535 148.0
169.601227 136.0
169.633636 136.0
169.671341 92.0
169.704117 180.0
169.75679 240.0
169.811249 68.0
169.944855 192.0
169.987671 244.0
170.016205 304.0
170.068115 96.0
170.096405 152.0
170.09996 152.0
170.138931 1396.0
170.244659 52.0
170.309601 164.0
170.358948 184.0
170.418701 216.0
170.483673 212.0
170.522659 208.0
170.542877 144.0
170.598038 64.0
170.782654 124.0
170.884125 124.0
170.915344 296.0
170.974686 124.0
171.00383 132.0
171.028305 216.0
171.068893 120.0
171.097 156.0
171.104919 124.0
171.137283 372.0
171.182175 148.0
171.243362 136.0
171.269409 116.0
171.305878 60.0
171.410095 112.0
171.454391 72.0
171.490875 112.0
171.544586 120.0
171.597763 124.0
171.631653 148.0
171.662949 92.0
171.689026 208.0
171.743805 116.0
171.871628 136.0
171.895126 284.0
171.929047 160.0
172.108749 148.0
172.119278 124.0
172.179672 112.0
172.297226 136.0
172.386063 160.0
172.438324 176.0
172.459244 208.0
172.480148 156.0
172.506287 84.0
172.537659 232.0
172.56044 168.0
172.593185 276.0
172.640259 184.0
172.678864 128.0
172.715485 140.0
172.771713 156.0
172.819366 192.0
172.851532 132.0
172.935272 128.0
172.974533 48.0
173.000717 92.0
173.037369 60.0
173.119247 148.0
173.124695 172.0
173.157379 140.0
173.231171 136.0
173.270462 192.0
173.321396 124.0
173.385757 136.0
173.476822 124.0
173.535187 92.0
173.637451 172.0
173.676788 148.0
173.705643 88.0
173.739746 168.0
173.77124 148.0
173.847336 176.0
173.864258 128.0
173.886703 140.0
173.912766 172.0
174.067841 156.0
174.136124 160.0
174.158401 300.0
174.34819 196.0
174.383102 252.0
174.457657 112.0
174.488251 176.0
174.536301 72.0
174.624985 164.0
174.643402 236.0
174.730209 144.0
174.756531 32.0
174.782837 156.0
174.872314 96.0
174.988144 128.0
175.033096 160.0
175.082932 124.0
175.111908 52.0
175.151825 156.0
175.188293 76.0
175.214645 132.0
175.235718 120.0
175.290909 144.0
175.34903 104.0
175.407028 164.0
175.456818 196.0
175.499298 252.0
175.538589 160.0
175.575256 160.0
175.658142 208.0
175.681274 216.0
175.728027 100.0
175.773621 160.0
175.807922 36.0
175.987427 40.0
176.061127 356.0
176.119476 132.0
176.172302 188.0
176.193436 136.0
176.262146 64.0
176.296494 132.0
176.341415 156.0
176.362564 68.0
176.457733 144.0
176.502686 176.0
176.528076 120.0
176.60582 120.0
176.661377 132.0
176.714294 108.0
176.804825 188.0
176.891602 132.0
176.960434 192.0
177.063705 124.0
177.089355 176.0
177.116684 108.0
177.172791 260.0
177.214706 124.0
177.302155 216.0
177.362366 100.0
177.402878 124.0
177.455978 136.0
177.477112 140.0
177.551361 140.0
177.581726 132.0
177.636246 40.0
177.686493 140.0
177.715836 128.0
177.738571 168.0
177.957367 196.0
178.013962 140.0
178.078995 320.0
178.12468 132.0
178.156555 124.0
178.180466 200.0
178.214081 172.0
178.317398 136.0
178.369156 200.0
178.459549 156.0
178.559952 164.0
178.628082 96.0
178.694229 272.0
178.73085 128.0
178.821335 172.0
178.876328 200.0
178.906509 104.0
179.017517 156.0
179.080719 116.0
179.111557 180.0
179.15152 164.0
179.172836 108.0
179.194153 52.0
179.216995 236.0
179.3647 204.0
179.388702 96.0
179.41803 184.0
179.450012 96.0
179.524673 140.0
179.572678 136.0
179.764771 160.0
179.850174 140.0
179.922256 180.0
179.994339 92.0
180.034393 148.0
180.085098 228.0
180.192734 92.0
180.215332 180.0
180.252808 148.0
180.273209 204.0
180.338974 352.0
180.373718 172.0
180.453384 188.0
180.566238 160.0
180.590302 124.0
180.651825 76.0
180.780258 148.0
180.843643 188.0
180.986862 196.0
181.02655 136.0
181.089478 1140.0
181.146118 216.0
181.189941 160.0
181.21405 184.0
181.276855 112.0
181.329285 116.0
181.442383 228.0
181.551804 100.0
181.570572 212.0
181.607498 172.0
181.667145 120.0
181.750305 64.0
181.779831 132.0
181.871078 108.0
181.922089 204.0
181.991211 128.0
182.096069 412.0
182.15303 112.0
182.233093 176.0
182.289795 204.0
182.40831 128.0
182.43251 128.0
182.45401 316.0
182.568359 252.0
182.661087 116.0
182.737061 212.0
182.784836 132.0
182.827896 36.0
182.887115 144.0
182.908646 132.0
182.948105 128.0
182.98941 108.0
183.014236 164.0
183.040573 124.0
183.103638 412.0
183.245285 44.0
183.299164 144.0
183.320724 112.0
183.34874 132.0
183.375244 208.0
183.483719 188.0
183.516235 100.0
183.544464 104.0
183.595703 196.0
183.633469 112.0
183.733643 116.0
183.768341 164.0
183.808823 92.0
183.846603 96.0
183.914078 160.0
183.949158 112.0
184.115875 432.0
184.241959 248.0
184.313766 140.0
184.457016 140.0
184.475937 164.0
184.565155 168.0
184.673325 36.0
184.743668 144.0
184.841064 172.0
184.881363 184.0
184.938492 116.0
185.016998 156.0
185.041367 152.0
185.085251 172.0
185.138184 196.0
185.179474 112.0
185.214676 52.0
185.254608 168.0
185.265106 124.0
185.36911 164.0
185.423309 128.0
185.455841 136.0
185.509216 288.0
185.515961 200.0
185.558853 120.0
185.640198 164.0
185.849533 232.0
185.925049 324.0
185.963043 184.0
186.020935 332.0
186.048203 140.0
186.191727 140.0
186.23999 180.0
186.259018 124.0
186.280746 188.0
186.348663 116.0
186.373108 176.0
186.438339 180.0
186.460068 196.0
186.505432 192.0
186.58783 140.0
186.612305 176.0
186.669403 124.0
186.688446 132.0
186.756439 168.0
186.791794 176.0
186.846909 184.0
186.904282 116.0
186.952332 172.0
187.011993 156.0
187.03035 108.0
187.056625 180.0
187.104752 128.0
187.205505 128.0
187.262695 196.0
187.309006 200.0
187.328064 164.0
187.412521 72.0
187.476868 164.0
187.543335 228.0
187.592407 176.0
187.622391 96.0
187.64621 168.0
187.791458 168.0
187.865112 124.0
187.911484 172.0
187.966064 128.0
188.032181 176.0
188.057999 204.0
188.147568 88.0
188.249954 160.0
188.285461 148.0
188.347321 356.0
188.402924 176.0
188.452103 144.0
188.536804 48.0
188.596939 128.0
188.689331 160.0
188.737442 132.0
188.774643 152.0
188.832077 216.0
188.922348 92.0
188.94696 124.0
188.971588 156.0
189.040543 180.0
189.072113 268.0
189.141266 140.0
189.196014 164.0
189.382217 72.0
189.412354 124.0
189.434265 52.0
189.486328 144.0
189.524933 172.0
189.576752 108.0
189.615112 184.0
189.678162 160.0
189.711044 160.0
189.815247 100.0
189.853638 144.0
189.919006 192.0
189.955276 136.0
190.056625 80.0
190.075836 152.0
190.127975 180.0
190.160904 144.0
190.196594 148.0
190.232285 160.0
190.403534 228.0
190.501404 196.0
190.559097 248.0
190.608551 112.0
190.674576 160.0
190.721237 164.0
190.748718 152.0
190.926376 32.0
190.954941 88.0
191.018204 152.0
191.082718 372.0
191.122757 136.0
191.171921 148.0
191.232178 168.0
191.243408 128.0
191.274124 116.0
191.320923 132.0
191.386993 84.0
191.422791 96.0
191.453094 152.0
191.519196 148.0
191.596329 240.0
191.673477 112.0
191.809509 212.0
191.871918 188.0
191.921555 144.0
191.964478 148.0
192.020828 116.0
192.091782 276.0
192.136688 84.0
192.175308 216.0
192.219452 96.0
192.277405 104.0
192.311142 160.0
192.350632 160.0
192.434753 104.0
192.528641 224.0
192.570068 112.0
192.684494 132.0
192.716492 176.0
192.777283 212.0
192.802155 172.0
192.874466 144.0
192.986053 1736.0
193.089355 380.0
193.16713 180.0
193.262863 252.0
193.288864 140.0
193.311005 124.0
193.402328 184.0
193.466003 132.0
193.5755 176.0
193.6026 168.0
193.674927 128.0
193.695847 184.0
193.75679 196.0
193.811249 212.0
193.834366 152.0
193.879837 196.0
193.925827 168.0
193.959839 96.0
193.989685 404.0
194.018204 296.0
194.095596 452.0
194.144028 188.0
194.228058 168.0
194.261169 64.0
194.27832 116.0
194.367523 164.0
194.41951 116.0
194.455582 140.0
194.500381 140.0
194.536072 124.0
194.555511 160.0
194.597153 164.0
194.733887 168.0
194.880463 140.0
194.908249 124.0
194.987335 544.0
195.028305 500.0
195.077789 132.0
195.104355 144.0
195.136169 108.0
195.172318 108.0
195.23349 136.0
195.25296 260.0
195.283554 140.0
195.328064 204.0
195.414307 100.0
195.447693 136.0
195.500565 152.0
195.681488 172.0
195.703766 252.0
195.734406 168.0
195.780579 212.0
195.812378 192.0
195.831879 164.0
195.882004 184.0
195.970718 148.0
195.989578 72.0
196.033157 1176.0
196.110703 252.0
196.155106 152.0
196.25676 60.0
196.312576 108.0
196.337204 256.0
196.364227 128.0
196.386536 160.0
196.406067 236.0
196.500916 196.0
196.553558 124.0
196.615326 132.0
196.712357 120.0
196.796768 140.0
196.878677 108.0
196.921753 164.0
196.993393 160.0
197.040558 580.0
197.104446 292.0
197.159805 196.0
197.216797 204.0
197.28569 288.0
197.310852 164.0
197.389145 128.0
197.408722 100.0
197.428299 104.0
197.458496 160.0
197.474442 256.0
197.521378 144.0
197.660477 116.0
197.825623 132.0
197.946014 104.0
198.007614 84.0
198.04509 148.0
198.129318 304.0
198.20372 124.0
198.226135 128.0
198.279388 100.0
198.315826 432.0
198.380295 100.0
198.523285 160.0
198.551956 108.0
198.613037 224.0
198.653336 120.0
198.670547 272.0
198.739288 196.0
198.7892 180.0
198.859955 144.0
198.926697 144.0
198.936783 228.0
198.983475 76.0
199.032089 436.0
199.081741 104.0
199.121414 160.0
199.150589 148.0
199.17363 156.0
199.199707 204.0
199.250275 168.0
199.273956 244.0
199.306473 56.0
199.379532 124.0
199.458237 140.0
199.480728 120.0
199.508835 192.0
199.666306 40.0
199.714111 168.0
199.830673 184.0
200.006744 232.0
200.043411 172.0
200.096832 132.0
200.137833 348.0
200.206345 108.0
200.62085 168.0
200.651001 104.0
200.676559 284.0
200.753372 200.0
200.801315 196.0
200.832336 68.0
200.883118 104.0
200.919785 56.0
200.962112 144.0
200.981857 148.0
201.036621 208.0
201.08197 212.0
201.111252 132.0
201.24437 180.0
201.272598 112.0
201.340378 212.0
201.39122 184.0
201.413818 92.0
201.457703 168.0
201.481064 188.0
201.645111 144.0
201.683563 172.0
201.812286 160.0
201.832077 148.0
201.942383 136.0
201.994949 184.0
202.04422 112.0
202.076904 3836.0
202.130615 304.0
202.209717 140.0
202.2388 152.0
202.301239 156.0
202.395172 84.0
202.438217 200.0
202.456726 152.0
202.544571 80.0
202.587906 164.0
202.701096 100.0
202.822968 140.0
202.867935 200.0
202.910843 300.0
202.952347 120.0
203.084808 15644.0
203.166855 136.0
203.220001 200.0
203.281754 136.0
203.316483 196.0
203.353378 228.0
203.389191 168.0
203.427185 108.0
203.498932 132.0
203.566299 40.0
203.58902 160.0
203.615799 184.0
203.636688 128.0
203.706451 152.0
203.742401 84.0
203.858902 28.0
203.880447 100.0
203.910065 124.0
203.9328 168.0
203.965683 112.0
204.00386 32.0
204.035141 116.0
204.089172 2164.0
204.137497 108.0
204.231354 32.0
204.322388 40.0
204.410583 168.0
204.541916 140.0
204.62912 160.0
204.663925 48.0
204.695251 52.0
204.73111 176.0
204.772141 164.0
204.820557 104.0
204.865479 188.0
204.925964 156.0
204.960159 128.0
204.984558 180.0
205.092621 284.0
205.142563 60.0
205.173935 56.0
205.253769 72.0
205.294571 156.0
205.35173 192.0
205.388031 52.0
205.423752 224.0
205.488602 144.0
205.530457 160.0
205.55545 120.0
205.639755 120.0
205.724533 32.0
205.80162 48.0
205.850159 120.0
205.899765 140.0
205.967255 132.0
206.00647 204.0
206.05867 92.0
206.093872 328.0
206.130112 48.0
206.192978 116.0
206.244431 172.0
206.321609 188.0
206.355911 136.0
206.398804 72.0
206.444565 108.0
206.472748 164.0
206.513199 44.0
206.553253 260.0
206.575729 140.0
206.613327 112.0
206.68602 156.0
206.818375 196.0
206.919556 112.0
206.956772 56.0
207.014053 128.0
207.045547 208.0
207.100906 176.0
207.112564 160.0
207.135086 168.0
207.157257 120.0
207.177307 40.0
207.277588 124.0
207.340637 52.0
207.461029 92.0
207.56424 196.0
207.60228 112.0
207.627335 152.0
207.695419 112.0
207.743576 236.0
207.822037 160.0
207.85849 180.0
207.955643 140.0
208.000336 168.0
208.036194 460.0
208.084839 128.0
208.112045 736.0
208.192703 260.0
208.258759 172.0
208.336563 92.0
208.370789 148.0
208.3909 160.0
208.43663 136.0
208.468491 120.0
208.52597 264.0
208.548965 172.0
208.612198 160.0
208.649582 168.0
208.695572 148.0
208.741577 140.0
208.778976 104.0
208.807724 136.0
208.832764 176.0
208.863617 260.0
208.928543 164.0
209.039047 448.0
209.119247 584.0
209.147675 240.0
209.304733 228.0
209.324677 152.0
209.368942 124.0
209.44722 100.0
209.540298 144.0
209.631104 108.0
209.65416 124.0
209.713837 116.0
209.815567 40.0
209.899185 172.0
209.942444 128.0
209.966522 236.0
210.049698 9144.0
210.117935 520.0
210.19342 44.0
210.24942 236.0
210.271332 204.0
210.303085 32.0
210.366592 200.0
210.395462 64.0
210.460709 144.0
210.510956 64.0
210.623062 88.0
210.690033 44.0
210.721817 172.0
210.808502 28.0
210.828735 44.0
210.851852 184.0
210.894272 212.0
210.998077 192.0
211.051743 1012.0
211.122101 276.0
211.203964 128.0
211.233521 32.0
211.259003 168.0
211.291382 188.0
211.326096 84.0
211.349243 200.0
211.383972 144.0
211.431625 128.0
211.557632 72.0
211.59816 164.0
211.658966 156.0
211.757431 36.0
211.783493 132.0
211.806671 48.0
211.910965 180.0
211.957321 168.0
212.040222 1232.0
212.110046 172.0
212.155914 152.0
212.197906 184.0
212.258789 148.0
212.357391 128.0
212.3936 108.0
212.450211 64.0
212.505676 140.0
212.564484 84.0
212.601944 152.0
212.633026 144.0
212.662827 148.0
212.840729 200.0
212.911728 52.0
212.961105 164.0
213.03891 612.0
213.129211 116.0
213.190628 172.0
213.238235 200.0
213.309799 108.0
213.451996 132.0
213.492966 108.0
213.524536 136.0
213.602341 192.0
213.705429 108.0
213.80426 200.0
213.891571 156.0
213.926514 124.0
214.031738 524.0
214.070831 184.0
214.124512 140.0
214.194412 160.0
214.293472 56.0
214.386826 100.0
214.436264 164.0
214.50621 124.0
214.533905 164.0
214.611176 180.0
214.686981 136.0
214.715424 192.0
214.739487 132.0
214.878311 172.0
214.920349 148.0
214.967041 84.0
215.057388 180.0
215.076569 136.0
215.129425 236.0
215.19017 172.0
215.218079 128.0
215.244354 192.0
215.281067 116.0
215.339493 216.0
215.369934 164.0
215.393311 44.0
215.443726 156.0
215.556915 172.0
215.591995 124.0
215.667984 148.0
215.717667 192.0
215.790756 88.0
215.892319 132.0
215.936981 100.0
216.030579 128.0
216.068604 168.0
216.130051 120.0
216.21492 96.0
216.270798 132.0
216.340775 244.0
216.45726 204.0
216.501816 28.0
216.595551 184.0
216.616058 76.0
216.64827 136.0
216.709808 96.0
217.010345 176.0
217.041016 184.0
217.090866 160.0
217.126068 272.0
217.285965 180.0
217.316742 152.0
217.33728 116.0
217.381287 116.0
217.620071 228.0
217.701279 168.0
217.742386 72.0
217.785263 120.0
217.877502 208.0
217.953903 208.0
218.030304 136.0
218.056763 156.0
218.091583 184.0
218.203735 196.0
218.246933 156.0
218.333115 92.0
218.391937 164.0
218.464584 52.0
218.509109 140.0
218.536087 148.0
218.612595 72.0
218.667709 116.0
218.695007 196.0
218.80098 112.0
218.838226 164.0
218.915817 156.0
218.953079 144.0
218.973541 216.0
219.009964 344.0
219.103882 116.0
219.159393 128.0
219.186829 128.0
219.259323 220.0
219.301758 64.0
219.328293 36.0
219.356888 188.0
219.505188 80.0
219.573013 152.0
219.638916 176.0
219.679199 316.0
219.76329 128.0
219.835587 240.0
219.8638 200.0
220.006775 44.0
220.037216 320.0
220.112427 480.0
220.207565 168.0
220.242859 156.0
220.349365 68.0
220.392334 164.0
220.453751 176.0
220.475403 176.0
220.528412 196.0
220.562607 100.0
220.633087 208.0
220.656738 56.0
220.767883 408.0
220.816086 216.0
220.821625 160.0
220.876785 156.0
220.904327 344.0
220.943558 128.0
220.992096 376.0
221.001801 192.0
221.042282 96116.0
221.11792 1104.0
221.179153 228.0
221.206192 224.0
221.262421 128.0
221.305939 160.0
221.316544 56.0
221.323395 152.0
221.37355 64.0
221.404266 96.0
221.439621 64.0
221.483124 48.0
221.528854 232.0
221.577179 132.0
221.623978 156.0
221.65126 44.0
221.678223 80.0
221.6996 80.0
221.745407 52.0
221.769806 104.0
221.830734 108.0
221.912415 152.0
221.940369 172.0
222.044922 14524.0
222.126236 644.0
222.20726 108.0
222.293945 132.0
222.324493 152.0
222.389709 132.0
222.425339 224.0
222.463928 104.0
222.538712 188.0
222.560455 172.0
222.630203 52.0
222.664749 168.0
222.707413 144.0
222.73967 168.0
222.817337 68.0
222.850021 168.0
222.88208 152.0
222.927719 132.0
222.984634 120.0
223.038956 3772.0
223.115784 136.0
223.149323 152.0
223.182907 28.0
223.208664 152.0
223.264969 176.0
223.288391 68.0
223.335922 136.0
223.441681 92.0
223.465485 132.0
223.487015 184.0
223.519043 100.0
223.590454 48.0
223.634064 160.0
223.66832 152.0
223.690445 128.0
223.731064 68.0
223.763794 52.0
223.801819 188.0
223.839783 96.0
223.888901 108.0
223.973969 208.0
224.039551 424.0
224.132385 252.0
224.139404 96.0
224.227814 80.0
224.278473 156.0
224.299347 72.0
224.383072 140.0
224.42157 44.0
224.457352 80.0
224.480438 192.0
224.555771 340.0
224.582611 84.0
224.620804 300.0
224.67807 144.0
224.75972 88.0
224.815582 144.0
224.916809 120.0
224.955612 56.0
225.023041 144.0
225.047928 268.0
225.139282 180.0
225.190155 204.0
225.20314 112.0
225.214233 192.0
225.299042 176.0
225.396378 228.0
225.454422 48.0
225.609848 172.0
225.674728 80.0
225.692459 152.0
225.714493 80.0
225.780289 92.0
225.834122 144.0
225.893326 304.0
226.016617 140.0
226.066467 468.0
226.10939 160.0
226.144669 192.0
226.220139 144.0
226.310562 176.0
226.345886 92.0
226.431015 112.0
226.450699 120.0
226.473373 112.0
226.559723 212.0
226.589462 76.0
226.618454 112.0
226.64386 328.0
226.777283 160.0
226.824509 164.0
226.852219 160.0
226.879211 132.0
226.906189 40.0
226.930176 160.0
227.054871 116.0
227.179092 68.0
227.279785 176.0
227.319138 304.0
227.37114 168.0
227.536224 132.0
227.561584 136.0
227.584274 200.0
227.608292 224.0
227.671356 136.0
227.718521 232.0
227.86824 116.0
227.90567 108.0
227.941727 64.0
228.022858 156.0
228.054077 188.0
228.087311 172.0
228.164139 156.0
228.200226 44.0
228.237854 132.0
228.293442 124.0
228.356598 224.0
228.507004 84.0
228.58223 144.0
228.627716 208.0
228.672516 188.0
228.723679 128.0
228.904205 104.0
228.917755 156.0
229.073486 268.0
229.099701 156.0
229.107513 148.0
229.11618 224.0
229.179428 124.0
229.247742 44.0
229.345062 236.0
229.380356 180.0
229.479843 148.0
229.588394 144.0
229.611526 132.0
229.648727 80.0
229.66983 108.0
229.724136 176.0
229.763351 128.0
229.839905 180.0
229.911209 100.0
229.935349 28.0
229.984085 136.0
230.104385 136.0
230.13028 132.0
230.173843 108.0
230.227539 92.0
230.258392 80.0
230.288605 68.0
230.331284 212.0
230.366974 300.0
230.409439 116.0
230.472885 172.0
230.506119 152.0
230.527267 176.0
230.548431 208.0
230.581665 116.0
230.626709 120.0
230.650711 296.0
230.707199 220.0
230.754517 208.0
230.800659 164.0
230.806793 196.0
230.819839 184.0
230.853027 100.0
230.858337 188.0
230.874191 212.0
230.896667 148.0
230.956436 336.0
231.003036 101768.0
231.065872 312.0
231.114578 164.0
231.170425 108.0
231.207047 80.0
231.246857 120.0
231.294479 120.0
231.356247 264.0
231.390472 140.0
231.415527 52.0
231.476257 136.0
231.501236 224.0
231.539001 216.0
231.580109 56.0
231.60434 108.0
231.635757 152.0
231.660065 92.0
231.704498 196.0
231.737595 184.0
231.760757 136.0
231.783096 168.0
231.854172 140.0
231.879471 244.0
231.910995 256.0
231.953613 196.0
232.005814 15160.0
232.06366 200.0
232.116302 160.0
232.143829 212.0
232.185852 56.0
232.232117 176.0
232.253632 116.0
232.299911 52.0
232.321716 120.0
232.332809 92.0
232.354126 84.0
232.38031 212.0
232.440582 208.0
232.469681 152.0
232.504028 180.0
232.587387 80.0
232.618973 192.0
232.674149 200.0
232.711258 96.0
232.756805 56.0
232.798401 140.0
232.822342 48.0
232.865112 120.0
232.912613 232.0
232.943329 176.0
233.00032 33432.0
233.091995 268.0
233.168274 188.0
233.21167 132.0
233.263535 72.0
233.283966 116.0
233.345535 56.0
233.35994 168.0
233.410812 184.0
233.446304 124.0
233.493332 188.0
233.5755 232.0
233.620102 200.0
233.668167 324.0
233.688232 92.0
233.711731 168.0
233.742523 72.0
233.792648 236.0
233.845154 108.0
233.869507 140.0
233.920105 148.0
233.960648 136.0
234.003616 3120.0
234.049957 19944.0
234.122284 248.0
234.185425 180.0
234.215912 136.0
234.228455 68.0
234.232925 160.0
234.264755 124.0
234.330551 148.0
234.404953 108.0
234.422531 96.0
234.501373 88.0
234.526764 92.0
234.581635 204.0
234.682892 80.0
234.728241 160.0
234.771637 80.0
234.807922 48.0
234.846512 148.0
234.882431 80.0
234.909805 120.0
234.929123 180.0
234.99736 324.0
235.010849 412.0
235.057312 74992.0
235.135803 248.0
235.156525 92.0
235.199173 104.0
235.240356 172.0
235.271912 72.0
235.301514 104.0
235.344666 236.0
235.352158 264.0
235.423492 260.0
235.432144 232.0
235.473602 104.0
235.519089 52.0
235.550964 92.0
235.626312 120.0
235.654343 116.0
235.682465 84.0
235.709961 160.0
235.759003 120.0
235.786545 208.0
235.825989 136.0
235.846481 104.0
235.879196 104.0
235.917633 476.0
236.008438 364.0
236.064468 59604.0
236.123856 248.0
236.215607 232.0
236.249863 148.0
236.286835 84.0
236.312119 196.0
236.351715 176.0
236.388596 104.0
236.410782 100.0
236.441833 160.0
236.454559 184.0
236.5 148.0
236.551422 104.0
236.604462 120.0
236.644058 172.0
236.700394 216.0
236.760986 168.0
236.850174 236.0
236.907883 88.0
236.929321 48.0
236.95076 92.0
236.972214 60.0
237.017593 356.0
237.066986 10300.0
237.189804 136.0
237.216217 84.0
237.23941 80.0
237.297104 88.0
237.326691 172.0
237.38736 128.0
237.439606 68.0
237.447998 120.0
237.471893 80.0
237.524033 204.0
237.556763 60.0
237.569183 80.0
237.611679 212.0
237.643692 184.0
237.663025 92.0
237.715958 64.0
237.758759 96.0
237.793488 196.0
237.841675 232.0
237.881104 144.0
237.891251 108.0
237.934708 92.0
237.979843 416.0
238.054825 26656.0
238.14122 192.0
238.190155 112.0
238.255173 72.0
238.284607 48.0
238.316925 60.0
238.336212 132.0
238.361374 128.0
238.390717 172.0
238.485413 80.0
238.557053 188.0
238.620392 36.0
238.647324 84.0
238.68898 52.0
238.715195 144.0
238.776276 144.0
238.824051 148.0
238.874954 124.0
238.90155 448.0
238.984528 144.0
239.018143 152.0
239.05661 4540.0
239.152756 660.0
239.230316 48.0
239.257248 108.0
239.390076 344.0
239.427795 124.0
239.454315 48.0
239.512848 52.0
239.584427 84.0
239.634933 108.0
239.693268 164.0
239.787064 120.0
239.824051 116.0
239.845032 248.0
239.867203 44.0
239.894958 136.0
239.925781 100.0
239.976654 144.0
240.005173 144.0
240.051392 7300.0
240.153397 232.0
240.170334 144.0
240.278152 204.0
240.453613 68.0
240.481033 148.0
240.540649 76.0
240.572845 116.0
240.610687 72.0
240.72049 92.0
240.801346 124.0
240.842285 92.0
240.870087 48.0
240.910248 80.0
241.055618 1320.0
241.127945 48.0
241.191452 60.0
241.256363 52.0
241.278015 80.0
241.48056 56.0
241.514175 168.0
241.540863 44.0
241.749237 92.0
241.940079 80.0
241.986511 160.0
242.073212 136.0
242.258148 128.0
242.402786 92.0
242.428635 60.0
242.475616 112.0
242.534836 60.0
242.652649 160.0
242.712402 88.0
242.738724 100.0
242.776672 148.0
242.830261 184.0
242.875336 84.0
242.950836 180.0
242.982498 236.0
243.006393 868.0
243.083786 48.0
243.273117 152.0
243.316589 100.0
243.379684 112.0
243.571228 124.0
243.664429 96.0
243.779404 144.0
243.872635 48.0
244.006897 324.0
244.052948 92.0
244.11203 128.0
244.283096 56.0
244.327576 120.0
244.419983 124.0
244.447998 48.0
244.600494 64.0
244.625397 48.0
244.725021 120.0
244.753052 128.0
244.784195 88.0
244.818451 164.0
244.893188 60.0
244.943024 60.0
245.018295 5608.0
245.100677 100.0
245.145554 76.0
245.229691 36.0
245.276443 96.0
245.323212 44.0
245.394913 40.0
245.525879 52.0
245.628815 112.0
245.669373 112.0
245.725525 76.0
245.753601 112.0
245.848083 144.0
245.890915 112.0
246.022247 1244.0
246.081329 56.0
246.140656 96.0
246.192383 184.0
246.293686 84.0
246.51239 176.0
246.685989 96.0
246.84375 144.0
246.876343 132.0
246.950073 212.0
247.013565 2220.0
247.057953 64.0
247.115875 152.0
247.156555 80.0
247.206619 72.0
247.305374 84.0
247.359024 144.0
247.434097 100.0
247.607346 52.0
247.679382 160.0
247.870972 156.0
248.015457 224.0
248.058548 172.0
248.137787 204.0
248.251968 80.0
248.514587 132.0
248.541534 104.0
248.638809 248.0
248.663925 32.0
248.689026 60.0
248.7267 152.0
249.060593 216.0
249.163528 196.0
249.2229 76.0
249.260605 60.0
249.332886 144.0
249.358032 220.0
249.382462 204.0
249.436615 200.0
249.483765 84.0
249.618973 128.0
249.703873 192.0
249.864304 132.0
249.962982 188.0
250.087738 136.0
250.141251 316.0
250.26088 144.0
250.497086 116.0
250.723938 232.0
250.752304 56.0
250.815353 212.0
250.85318 108.0
251.154541 924.0
251.323105 96.0
251.414612 64.0
251.436707 72.0
251.553482 140.0
251.597687 224.0
251.629257 140.0
251.670303 164.0
251.698715 168.0
251.746094 144.0
251.83136 116.0
251.970352 128.0
252.020905 84.0
252.068481 144.0
252.093582 128.0
252.160446 204.0
252.226334 76.0
252.248459 264.0
252.280716 276.0
252.434998 48.0
252.542526 68.0
252.58049 96.0
252.605789 48.0
252.729172 36.0
252.887405 124.0
252.952225 84.0
253.007706 152.0
253.14769 208.0
253.171875 184.0
253.210358 56.0
253.302216 100.0
253.403595 220.0
253.47963 32.0
253.815643 88.0
253.948837 96.0
253.99324 112.0
254.040833 124.0
254.097931 156.0
254.120148 88.0
254.193802 200.0
254.358154 156.0
254.38356 88.0
254.486542 124.0
254.621704 124.0
254.770996 100.0
254.796402 76.0
254.853592 76.0
254.936218 116.0
255.001923 3844.0
255.061615 148.0
255.12056 60.0
255.145996 160.0
255.168259 60.0
255.273178 56.0
255.297714 140.0
255.308044 100.0
255.318542 136.0
255.443314 172.0
255.486298 116.0
255.511749 132.0
255.546738 100.0
255.569016 108.0
255.890488 192.0
255.949738 204.0
255.976273 128.0
256.009125 11004.0
256.103851 144.0
256.144562 168.0
256.167542 232.0
256.282257 164.0
256.308899 200.0
256.447968 128.0
256.530029 232.0
256.565918 60.0
256.651978 72.0
256.697662 160.0
256.840149 68.0
256.880737 144.0
257.011078 2564.0
257.085815 80.0
257.119049 136.0
257.152832 160.0
257.194336 132.0
257.234314 168.0
257.2901 64.0
257.361969 180.0
257.465729 196.0
257.587097 80.0
257.651001 44.0
257.750031 92.0
257.781982 132.0
257.802887 140.0
257.964172 240.0
258.00705 3604.0
258.0755 172.0
258.12619 296.0
258.18161 68.0
258.266144 180.0
258.325531 44.0
258.427917 120.0
258.475922 112.0
258.520721 136.0
258.61673 156.0
258.725555 68.0
258.77359 84.0
258.79599 152.0
258.930511 308.0
258.95932 112.0
259.019348 568.0
259.033295 376.0
259.139313 108.0
259.363037 44.0
259.478455 48.0
259.532959 212.0
259.574646 132.0
259.621857 92.0
259.869751 48.0
259.930695 52.0
259.997345 172.0
260.050568 316.0
260.152985 212.0
260.370514 100.0
260.405853 224.0
260.511841 104.0
260.577637 60.0
260.717499 116.0
260.846039 64.0
260.958557 64.0
261.026276 340.0
261.064606 272.0
261.082916 188.0
261.135437 200.0
261.466827 164.0
261.556946 204.0
261.659973 96.0
261.772675 176.0
261.924042 152.0
262.046448 100.0
262.077454 148.0
262.133453 228.0
262.362305 104.0
262.549316 252.0
262.771881 288.0
263.094635 116.0
263.129944 136.0
263.566193 200.0
263.944366 56.0
264.06134 144.0
264.109314 128.0
264.136566 204.0
264.186951 152.0
264.248413 120.0
264.33902 124.0
264.801971 164.0
264.89267 108.0
265.025482 124.0
265.051422 96.0
265.100037 128.0
265.136993 176.0
265.275055 56.0
265.398254 112.0
265.566895 56.0
265.819946 272.0
265.954041 188.0
266.07962 80.0
266.28418 184.0
266.479095 172.0
266.514832 88.0
266.661072 164.0
266.719574 40.0
266.813843 84.0
267.506775 148.0
267.558868 68.0
267.604462 148.0
267.741211 128.0
267.829163 216.0
267.861725 104.0
267.884552 80.0
267.933411 192.0
268.010071 256.0
268.122406 96.0
268.181488 168.0
268.419067 100.0
268.572327 76.0
268.787659 44.0
268.911682 144.0
269.018768 2360.0
269.065094 72.0
269.110809 128.0
269.139008 88.0
269.193604 320.0
269.228363 76.0
269.257751 56.0
269.438477 168.0
269.48642 104.0
269.597534 72.0
269.646545 152.0
269.927704 168.0
269.97348 156.0
270.025024 704.0
270.091217 176.0
270.130585 140.0
270.17627 316.0
270.205872 172.0
270.244965 84.0
270.300598 144.0
270.323517 112.0
270.392242 132.0
270.467529 48.0
270.518158 60.0
270.595642 144.0
270.673767 144.0
270.696686 108.0
270.724213 100.0
270.765472 40.0
270.854553 100.0
270.900604 196.0
270.931976 156.0
270.959351 216.0
271.034363 78060.0
271.108002 136.0
271.141357 128.0
271.200104 116.0
271.230743 84.0
271.275452 160.0
271.308075 168.0
271.338501 100.0
271.411041 160.0
271.451508 176.0
271.512299 64.0
271.523956 112.0
271.563202 120.0
271.589569 120.0
271.653198 72.0
271.672546 224.0
271.713409 152.0
271.767273 124.0
271.822418 68.0
271.847321 56.0
271.910522 232.0
271.942505 144.0
272.037048 11548.0
272.111023 60.0
272.141632 568.0
272.192017 92.0
272.22403 100.0
272.274109 132.0
272.30011 48.0
272.323761 248.0
272.369354 132.0
272.39563 76.0
272.431763 40.0
272.454773 144.0
272.476685 88.0
272.505707 324.0
272.538849 128.0
272.57019 96.0
272.630096 156.0
272.682953 112.0
272.708832 208.0
272.810791 120.0
272.845459 428.0
272.891479 168.0
272.904633 152.0
272.913971 224.0
272.9729 156.0
273.038788 23648.0
273.161224 48.0
273.20105 132.0
273.243103 76.0
273.265106 112.0
273.307831 140.0
273.330902 68.0
273.377289 108.0
273.407806 100.0
273.441254 112.0
273.465942 72.0
273.489014 72.0
273.530121 36.0
273.579498 96.0
273.604401 124.0
273.656403 288.0
273.683197 80.0
273.747406 108.0
273.808167 132.0
273.921539 92.0
273.971924 320.0
274.042572 3028.0
274.1185 88.0
274.159576 108.0
274.234619 100.0
274.274567 84.0
274.310394 148.0
274.366882 144.0
274.392212 160.0
274.416321 124.0
274.439392 56.0
274.516571 60.0
274.605988 120.0
274.648529 96.0
274.792328 124.0
274.877136 68.0
274.903564 56.0
274.942078 124.0
275.046295 6468.0
275.138855 112.0
275.169128 48.0
275.213776 76.0
275.257202 100.0
275.297363 40.0
275.343597 92.0
275.386536 80.0
275.439392 84.0
275.528564 92.0
275.592621 108.0
275.644226 56.0
275.743866 52.0
275.778534 112.0
275.810913 100.0
275.895416 116.0
275.928467 44.0
275.958527 100.0
275.99646 120.0
276.050964 896.0
276.153351 120.0
276.186035 108.0
276.226105 156.0
276.249268 92.0
276.351837 52.0
276.504059 60.0
276.755646 76.0
276.805298 72.0
277.03479 404.0
277.091644 144.0
277.169678 52.0
277.216064 88.0
277.497833 104.0
277.530975 156.0
277.572876 184.0
277.613892 48.0
277.758026 104.0
277.857635 196.0
277.929016 68.0
278.007141 140.0
278.061768 188.0
278.191223 140.0
278.290802 36.0
278.425049 112.0
278.868835 128.0
278.988495 56.0
279.01178 116.0
279.38092 76.0
279.547302 68.0
279.60553 152.0
279.79361 112.0
279.95343 72.0
280.059998 116.0
280.413177 108.0
281.000092 96.0
281.134583 428.0
282.137878 292.0
282.262665 120.0
282.436432 92.0
282.603851 88.0
282.861542 84.0
282.953308 88.0
283.052399 152.0
283.146149 168.0
283.484253 104.0
283.829803 104.0
283.87674 56.0
283.937103 104.0
284.01886 88.0
284.578033 80.0
284.766113 96.0
285.038177 296.0
285.182739 104.0
285.414703 40.0
285.496735 112.0
285.788055 64.0
285.936127 40.0
286.047211 72.0
286.080872 80.0
286.15387 152.0
286.37381 112.0
286.677185 100.0
286.778137 36.0
287.04364 128.0
287.081573 176.0
287.123383 180.0
287.385162 80.0
287.51001 168.0
287.898254 132.0
287.962433 144.0
287.986084 100.0
288.060394 116.0
288.347595 108.0
288.560547 168.0
288.986725 136.0
289.470764 88.0
289.657043 108.0
289.724792 96.0
289.806091 192.0
289.931488 140.0
289.96875 108.0
290.07724 132.0
290.514679 116.0
290.650391 100.0
290.816681 64.0
290.928711 208.0
291.057739 72.0
291.247925 156.0
291.509521 112.0
292.124939 92.0
292.39032 84.0
292.856781 120.0
292.986237 52.0
293.146362 40.0
293.405426 120.0
293.674805 84.0
294.111572 132.0
294.152527 116.0
294.190063 128.0
294.416412 112.0
294.575958 164.0
294.692108 136.0
294.808289 68.0
294.945007 72.0
295.035522 108.0
295.162964 128.0
295.615356 76.0
296.063812 148.0
296.170959 352.0
296.474915 88.0
296.804016 120.0
296.886322 124.0
297.049866 684.0
297.157013 100.0
297.243073 148.0
297.637848 120.0
297.792389 60.0
297.984741 112.0
298.041534 128.0
298.154388 156.0
299.030151 132.0
299.133392 164.0
299.171265 76.0
299.205688 64.0
299.605194 152.0
299.853302 112.0
300.056122 128.0
300.091156 88.0
300.175232 320.0
300.322205 40.0
300.777679 128.0
301.065216 188.0
301.107849 140.0
301.188568 132.0
301.565216 68.0
301.914398 80.0
302.074005 248.0
302.111542 132.0
302.211884 140.0
302.481842 76.0
303.098297 116.0
303.178009 148.0
303.365173 52.0
303.555878 184.0
304.070282 116.0
304.152618 164.0
304.642242 52.0
304.868103 92.0
304.937622 88.0
305.066223 64.0
306.475769 144.0
306.859161 60.0
307.923492 112.0
308.227417 116.0
308.360229 72.0
308.706329 96.0
308.926697 48.0
309.406128 96.0
309.570709 144.0
309.675781 204.0
309.714294 68.0
309.79837 120.0
310.078705 88.0
310.874786 132.0
310.966034 140.0
311.043274 156.0
311.187195 180.0
311.489227 128.0
312.051514 96.0
312.097229 128.0
312.125366 132.0
312.169006 524.0
312.255463 148.0
312.565063 96.0
312.71991 208.0
312.871277 172.0
312.895905 132.0
312.990967 40.0
313.084076 100.0
313.176758 2276.0
313.392517 104.0
313.674469 132.0
313.762604 48.0
314.072174 284.0
314.122314 152.0
314.166626 136.0
314.245789 136.0
314.499878 104.0
314.672852 72.0
315.090424 140.0
315.142609 96.0
315.262756 104.0
315.78598 44.0
315.82843 76.0
316.085327 276.0
316.189331 196.0
316.430054 120.0
317.09433 152.0
317.181061 140.0
317.571106 180.0
317.744934 72.0
318.06076 68.0
318.094543 208.0
318.344818 144.0
318.646729 164.0
318.870605 68.0
319.009216 64.0
319.229675 100.0
319.60672 164.0
320.115753 212.0
320.946045 96.0
321.17688 104.0
321.334808 116.0
321.559631 76.0
321.988068 208.0
322.634827 92.0
322.910156 100.0
323.006714 56.0
323.128357 120.0
323.164154 136.0
323.393158 148.0
323.672424 80.0
324.059265 108.0
324.431976 148.0
324.639954 120.0
324.944855 144.0
325.142212 116.0
325.648438 188.0
325.860382 168.0
326.078064 132.0
326.248535 144.0
326.640503 40.0
326.960724 44.0
327.360352 136.0
327.511597 124.0
327.580048 64.0
327.641296 116.0
327.832275 64.0
328.034088 52.0
328.089722 7588.0
328.199951 72.0
328.35141 136.0
328.41272 72.0
328.463226 84.0
328.600311 52.0
328.86734 32.0
328.961212 196.0
329.03241 144.0
329.092255 1308.0
329.148956 44.0
329.201202 128.0
329.377228 156.0
329.770325 44.0
329.828156 60.0
330.023376 116.0
330.088104 1852.0
330.157166 168.0
330.392303 56.0
330.464661 120.0
330.656433 84.0
330.953278 108.0
331.022095 48.0
331.054688 56.0
331.097412 308.0
331.192291 116.0
331.217651 92.0
331.297363 88.0
331.351685 140.0
331.482147 140.0
331.605347 164.0
331.855499 36.0
332.071564 136.0
332.083038 80.0
332.101715 116.0
332.110687 184.0
332.450378 48.0
332.679047 72.0
332.704468 52.0
333.118469 92.0
333.318298 36.0
333.470917 36.0
333.725403 228.0
334.052704 48.0
334.204987 140.0
334.336517 80.0
334.423859 180.0
334.453888 180.0
334.747894 200.0
335.010132 144.0
335.050201 140.0
335.161102 220.0
335.582306 96.0
336.078369 92.0
336.761047 116.0
336.914459 124.0
336.940033 80.0
336.998505 112.0
337.04599 136.0
337.115417 148.0
337.166595 28.0
337.382233 84.0
338.161377 156.0
338.282196 76.0
338.424957 96.0
338.450592 84.0
338.802216 152.0
338.937775 56.0
340.096222 100.0
340.151733 88.0
340.375671 88.0
340.599731 112.0
340.842194 204.0
340.926727 264.0
341.036957 172.0
341.184021 76.0
341.533356 68.0
341.628998 84.0
342.103546 176.0
342.335693 120.0
342.637726 184.0
342.726166 140.0
342.928833 108.0
343.009949 124.0
343.035736 108.0
343.216248 284.0
343.308594 56.0
343.44873 44.0
343.544647 148.0
343.629486 104.0
343.921051 252.0
344.105621 152.0
344.279175 160.0
344.903564 72.0
345.099518 176.0
345.365784 56.0
345.465637 56.0
345.584045 116.0
345.976349 60.0
346.120758 44.0
346.265167 88.0
346.654175 104.0
347.043396 60.0
347.080475 64.0
347.178406 168.0
347.384583 76.0
347.514435 48.0
347.82074 188.0
348.331177 68.0
348.922089 104.0
349.28653 148.0
350.157501 76.0
350.194733 112.0
350.526306 108.0
350.563568 136.0
350.697754 164.0
351.029541 112.0
351.984833 64.0
353.562408 108.0
353.648499 72.0
353.831909 84.0
354.093079 152.0
354.292572 176.0
354.318787 100.0
354.44278 44.0
354.70105 96.0
354.761017 196.0
354.832245 96.0
354.868652 124.0
355.049744 120.0
355.10083 940.0
355.219391 160.0
355.316071 72.0
355.623779 156.0
355.781433 148.0
355.916595 60.0
355.991821 124.0
356.026611 148.0
356.109161 24700.0
356.208588 76.0
356.247803 176.0
356.453735 44.0
356.49884 92.0
356.601776 228.0
356.660461 136.0
356.689117 88.0
356.73941 92.0
356.844666 64.0
356.897308 76.0
357.002594 64.0
357.043976 128.0
357.113281 5736.0
357.171844 40.0
357.209473 40.0
357.32608 36.0
357.363708 120.0
357.397583 68.0
357.457764 48.0
357.487885 32.0
357.570679 180.0
357.781464 148.0
357.819122 44.0
357.84549 44.0
357.888855 108.0
357.954681 100.0
358.007385 48.0
358.106232 6944.0
358.195709 104.0
358.259766 56.0
358.395386 56.0
358.455688 76.0
358.487823 76.0
358.586273 180.0
358.757202 32.0
358.8703 80.0
358.94574 44.0
359.110291 1584.0
359.153137 148.0
359.207977 112.0
359.339447 104.0
359.394592 72.0
359.454987 76.0
359.49649 48.0
359.536835 116.0
359.602142 148.0
359.648193 112.0
359.738037 132.0
359.90271 140.0
360.104553 292.0
360.179871 68.0
360.247955 456.0
360.565247 76.0
360.621948 72.0
360.686188 36.0
360.769379 48.0
360.901703 184.0
361.15506 148.0
361.223175 156.0
361.276123 96.0
361.571259 128.0
361.639404 88.0
361.70752 32.0
361.836243 116.0
361.908173 404.0
362.033142 112.0
362.309631 56.0
362.779572 32.0
362.855408 72.0
363.048767 80.0
363.754486 80.0
363.834229 116.0
363.936737 128.0
364.168396 128.0
364.282349 68.0
364.384918 60.0
364.905609 40.0
365.165863 164.0
365.757751 88.0
366.173218 108.0
367.178436 248.0
368.091034 156.0
368.377502 64.0
368.595276 40.0
368.660248 164.0
369.023376 64.0
369.121765 652.0
369.708069 76.0
370.002808 196.0
370.121704 484.0
370.385773 52.0
370.768921 72.0
371.060242 128.0
371.13443 320.0
371.37085 120.0
372.133423 532.0
373.123322 328.0
373.181396 260.0
373.387268 132.0
373.679626 168.0
373.864319 132.0
373.940521 80.0
374.107788 160.0
374.380188 64.0
374.414856 124.0
374.441803 124.0
374.901917 148.0
375.008179 92.0
375.046722 168.0
375.393707 112.0
375.821869 92.0
376.095886 172.0
376.300476 64.0
379.011871 80.0
379.391724 80.0
379.567505 176.0
379.632111 140.0
379.957947 36.0
379.992859 80.0
380.326599 148.0
381.107178 100.0
381.270386 176.0
381.596924 100.0
382.079193 120.0
382.452759 160.0
383.120178 132.0
383.348541 100.0
383.535217 80.0
383.703247 52.0
384.137329 192.0
384.647308 116.0
385.123688 188.0
385.401062 88.0
385.59256 104.0
385.627716 144.0
385.924835 48.0
386.110962 264.0
386.210327 148.0
387.024323 88.0
387.204468 124.0
387.557037 132.0
387.917603 172.0
388.137146 108.0
388.552917 124.0
389.129852 56.0
389.208374 140.0
390.009827 152.0
390.108093 132.0
390.21817 132.0
390.591766 88.0
390.800293 152.0
390.99704 88.0
391.229279 64.0
391.481262 80.0
391.571869 160.0
391.993378 52.0
392.608368 176.0
393.018616 88.0
394.392944 72.0
394.69342 76.0
395.140381 96.0
395.183899 152.0
395.417358 156.0
396.007294 44.0
396.134064 164.0
396.244995 136.0
396.513 132.0
396.601624 120.0
396.6492 92.0
397.577301 60.0
397.688446 136.0
397.744019 60.0
398.117218 140.0
398.208496 184.0
398.824432 48.0
398.872131 116.0
398.943695 68.0
399.128113 520.0
399.246368 96.0
399.576019 164.0
400.023926 140.0
400.136047 516.0
400.220825 116.0
400.271881 92.0
400.33017 172.0
400.451782 64.0
400.511536 248.0
400.560944 180.0
400.669312 132.0
400.710724 212.0
400.776276 168.0
400.866119 156.0
400.924225 172.0
400.940735 100.0
400.951019 144.0
401.026947 272.0
401.076233 156.0
401.144318 38804.0
401.238647 188.0
401.307251 36.0
401.381989 80.0
401.409882 256.0
401.471008 152.0
401.540497 192.0
401.571777 56.0
401.606506 136.0
401.678101 84.0
401.71936 32.0
401.765228 64.0
401.804321 96.0
401.870972 84.0
401.900543 248.0
402.026581 68.0
402.082458 168.0
402.145905 9100.0
402.260712 188.0
402.35791 72.0
402.425781 100.0
402.477997 80.0
402.55835 40.0
402.58548 88.0
402.615875 148.0
402.70166 48.0
402.732605 72.0
402.743652 60.0
402.769775 140.0
402.838684 72.0
402.917023 104.0
403.010529 160.0
403.050751 132.0
403.084198 164.0
403.141327 13620.0
403.230133 44.0
403.272675 44.0
403.303375 120.0
403.389404 40.0
403.445404 112.0
403.503204 60.0
403.573822 176.0
403.652466 84.0
403.696472 80.0
403.730713 120.0
403.763794 48.0
403.796448 100.0
403.82843 96.0
403.856445 52.0
403.889893 120.0
403.921661 168.0
403.978455 136.0
404.05307 52.0
404.084473 104.0
404.144989 2660.0
404.233978 2380.0
404.278809 140.0
404.320557 72.0
404.396606 48.0
404.436615 84.0
404.466614 188.0
404.544708 36.0
404.609558 60.0
404.656799 80.0
404.684814 96.0
404.749298 80.0
404.804962 52.0
404.841003 48.0
404.889038 136.0
404.953125 60.0
405.046967 132.0
405.152527 136.0
405.232819 140.0
405.277618 96.0
405.376038 100.0
405.489105 108.0
405.546112 112.0
405.586212 84.0
405.662384 48.0
405.717255 64.0
405.916748 108.0
405.95105 60.0
406.15799 100.0
406.206146 208.0
406.316071 44.0
406.388611 100.0
406.451752 44.0
406.488586 116.0
406.578705 124.0
406.677612 120.0
406.785583 32.0
406.865875 36.0
406.914062 72.0
407.06665 60.0
407.412079 52.0
407.516541 60.0
407.717438 44.0
408.035004 80.0
408.215942 64.0
408.481384 92.0
408.549774 52.0
408.6745 40.0
408.763031 56.0
409.205811 100.0
409.407135 56.0
410.632324 48.0
410.862244 56.0
410.955048 64.0
411.257721 88.0
411.520111 104.0
412.522034 28.0
413.9422 76.0
414.322906 64.0
415.137634 48.0
415.166016 116.0
415.612244 36.0
416.546021 84.0
416.952332 68.0
418.644745 140.0
419.349548 60.0
420.169189 68.0
420.340576 124.0
420.397705 76.0
420.446686 108.0
421.631042 76.0
423.238708 128.0
423.984283 76.0
424.086731 44.0
424.960236 96.0
425.235168 68.0
425.809967 52.0
426.693451 100.0
427.59433 60.0
428.858765 88.0
429.378265 68.0
430.690796 72.0
431.091553 132.0
431.641357 60.0
432.088043 40.0
432.310913 124.0
432.410828 76.0
432.539124 76.0
434.544952 80.0
435.242249 84.0
435.732361 64.0
436.172882 64.0
436.542908 112.0
438.17041 92.0
438.35791 140.0
439.517151 92.0
439.78006 112.0
440.644501 112.0
441.451233 80.0
441.585052 120.0
441.668701 128.0
442.52243 40.0
442.56012 68.0
442.673157 56.0
442.777863 104.0
443.762634 136.0
446.130493 68.0
448.33609 116.0
448.6185 124.0
449.225769 132.0
453.670349 96.0
454.930298 68.0
455.206299 52.0
457.532104 100.0
457.617249 64.0
461.051147 64.0
461.996094 60.0
463.953247 88.0
464.759583 124.0
466.064911 64.0
466.400116 120.0
469.064606 92.0
472.593018 52.0
476.278015 64.0
477.669006 84.0
480.871613 64.0
481.094208 108.0
482.518463 56.0
484.614929 36.0
487.972595 96.0
488.927155 84.0
491.116882 56.0
491.205109 36.0
491.249207 100.0
492.68396 104.0
492.993256 80.0
493.311493 84.0
494.674011 48.0
494.744843 68.0
497.591125 44.0
498.07074 104.0
502.241516 60.0
503.960266 40.0
504.192657 52.0
506.008759 68.0
507.254181 128.0
511.305634 96.0
511.688263 120.0
514.072754 100.0
515.847778 64.0
516.983032 60.0
519.769958 36.0
519.987793 60.0
521.514709 136.0
521.968506 132.0
522.682678 48.0
524.791626 116.0
524.919312 72.0
526.064514 116.0
526.452576 148.0
527.220093 64.0
527.530884 72.0
527.773193 80.0
530.378174 104.0
531.506348 40.0
533.320374 120.0
534.598999 76.0
537.303711 56.0
538.032227 108.0
538.5224 64.0
541.079651 68.0
542.515808 88.0
546.305298 68.0
547.771667 68.0
552.987366 36.0
553.207336 76.0
555.072083 56.0
555.517639 76.0
556.30603 76.0
556.888306 40.0
558.660461 80.0
560.058533 120.0
560.491943 108.0
560.539062 72.0
562.652161 80.0
563.88031 28.0
564.561096 56.0
564.807068 116.0
565.005737 136.0
565.549927 48.0
565.710876 44.0
566.331177 92.0
568.094604 72.0
570.526062 48.0
571.453491 72.0
572.015076 116.0
573.529846 60.0
575.304321 92.0
578.990967 68.0
585.854919 52.0
589.246521 96.0
590.84198 120.0
591.800293 76.0
592.38147 72.0
594.19458 44.0
594.388672 36.0
599.889526 92.0
600.679504 88.0
603.531677 76.0
603.644165 68.0
606.601379 92.0
611.286926 48.0
612.389771 32.0
615.146118 48.0
615.659668 104.0
616.52417 44.0
622.965515 52.0
626.014465 40.0
628.701538 52.0
628.836243 108.0
629.500244 116.0
632.590149 52.0
632.81543 84.0
636.109253 84.0
636.239746 100.0
636.425537 64.0
640.091187 96.0
642.207886 100.0
643.090881 76.0
643.898682 72.0
646.22406 84.0
647.783325 84.0
650.841614 76.0
651.832092 48.0
652.594543 92.0
655.618286 96.0
657.723633 76.0
658.230164 68.0
664.541443 108.0
671.06842 76.0
675.02887 112.0
675.949646 68.0
676.793396 84.0
677.005737 60.0
677.295776 100.0
678.741699 104.0
681.955261 140.0
685.593201 80.0
687.178406 32.0
689.669434 88.0
690.218384 56.0
691.887451 104.0
696.076782 56.0
697.179993 72.0
697.674072 72.0
698.341919 152.0
700.905701 84.0
702.033813 56.0
704.89502 84.0
706.761597 40.0
713.120178 144.0
722.216492 76.0
732.318115 100.0
737.373657 84.0
738.812012 48.0
740.787964 48.0
744.802124 76.0
745.144348 52.0
746.090027 104.0
749.480835 76.0
749.965881 40.0
754.791992 72.0
756.301941 100.0
758.224426 268.0
758.630005 84.0
760.769531 248.0
764.044983 120.0
765.718384 68.0
767.476318 48.0
770.683228 124.0
774.921509 124.0
776.024475 72.0
776.312805 32.0
776.662231 36.0
779.921631 64.0
783.009644 52.0
783.048584 104.0
785.523438 36.0
785.880493 128.0
790.843018 64.0
792.164551 52.0
793.184387 172.0
798.181152 72.0
804.068176 88.0
805.027893 88.0
807.899231 180.0
809.302856 100.0
810.027771 64.0
810.821045 212.0
812.017334 204.0
813.520996 84.0
815.253357 116.0
815.617126 180.0
816.7771 152.0
820.165161 52.0
820.832214 76.0
823.777222 112.0
824.637695 56.0
824.977295 96.0
825.960876 48.0
826.813416 172.0
830.164856 220.0
831.788513 196.0
833.994263 48.0
835.374329 132.0
835.483643 116.0
839.769409 80.0
846.241699 124.0
846.768677 52.0
847.643494 144.0
851.396851 56.0
852.773804 168.0
853.849365 208.0
857.319214 40.0
859.745239 196.0
860.848572 180.0
862.104614 72.0
864.590088 112.0
865.251526 56.0
870.147034 128.0
870.48761 52.0
870.563965 180.0
871.022095 68.0
871.891663 44.0
872.303101 236.0
875.922058 132.0
876.022217 112.0
878.120667 116.0
879.035095 116.0
883.697205 44.0
883.987122 64.0
885.68634 40.0
887.250793 144.0
888.81073 68.0
890.193787 156.0
890.906555 148.0
895.707214 220.0
896.75592 160.0
897.191101 188.0
897.477295 124.0
904.53302 60.0
906.958984 172.0
910.42688 96.0
911.814636 176.0
913.775024 36.0
915.851929 100.0
919.36084 192.0
920.556152 100.0
922.447327 152.0
924.049927 164.0
924.237488 184.0
926.429199 56.0
928.223267 144.0
928.362732 204.0
930.140503 180.0
932.88623 56.0
936.147522 44.0
936.561646 160.0
936.634766 176.0
938.17041 156.0
938.499634 172.0
939.981873 48.0
940.659363 92.0
942.369385 116.0
945.12793 128.0
946.534851 144.0
949.59906 216.0
950.826111 40.0
951.010254 136.0
953.258057 160.0
954.794983 224.0
954.94873 148.0
955.077881 156.0
955.662354 124.0
956.708618 188.0
956.911804 172.0
961.843689 52.0
962.33136 96.0
962.584534 188.0
962.856262 140.0
963.931213 108.0
964.518372 144.0
966.472656 172.0
967.797241 216.0
969.506958 168.0
970.225952 188.0
972.583252 224.0
972.850159 172.0
976.143188 76.0
977.16333 144.0
977.67981 148.0
978.856384 244.0
979.927734 108.0
979.983765 132.0
980.289124 208.0
980.400635 232.0
980.893677 172.0
989.277039 60.0
990.848938 80.0
990.899109 176.0
991.51947 60.0
991.613464 128.0
991.720032 136.0
994.116943 200.0
995.691589 152.0
999.532654 192.0
999.601868 188.0
1000.923767 64.0
1001.767761 40.0
1003.463013 144.0
1003.904419 156.0
1004.491028 144.0
1004.705505 284.0
1005.248108 192.0
1006.194946 140.0
1006.523254 160.0
1006.813721 140.0
1007.03479 152.0
1007.344299 188.0
1007.98877 144.0
1008.273132 144.0
1009.050659 124.0
1010.587585 184.0
1013.411499 80.0
1014.767883 180.0
1015.998291 160.0
1018.029419 132.0
1018.308899 200.0
1018.543884 168.0
1018.867859 192.0
1020.404541 184.0
1021.391663 60.0
1021.436157 224.0
1023.708374 136.0
1024.995117 128.0
1025.932007 136.0
1028.400757 140.0
1030.022583 132.0
1030.604004 132.0
1031.268555 184.0
1031.77356 156.0
1031.818359 168.0
1034.953491 144.0
1036.298584 152.0
1036.727905 40.0
1038.37561 192.0
1038.516602 128.0
1040.101562 112.0
1040.717896 164.0
1040.884766 48.0
1041.077515 224.0
1041.186646 180.0
1041.713379 180.0
1041.925293 144.0
1042.150269 140.0
1042.683594 120.0
1044.226562 188.0
1045.603516 168.0
1046.730103 144.0
1047.245239 144.0
1047.921631 196.0
1049.159058 108.0
1049.713623 144.0
1049.784546 196.0
1052.068726 220.0
1053.231079 188.0
1054.355225 104.0
1055.402466 152.0
1056.133301 172.0
1057.291382 192.0
1057.37561 136.0
1058.851685 172.0
1059.305176 60.0
1059.778076 176.0
1060.996582 180.0
1062.825562 148.0
1063.468018 124.0
1064.065308 140.0
1065.370728 120.0
1066.319458 176.0
1067.775757 140.0
1068.016357 44.0
1068.26355 64.0
1069.011841 192.0
1069.50647 136.0
1072.626587 84.0
1072.985107 196.0
1073.278564 168.0
1073.845947 164.0
1073.995972 236.0
1074.837524 200.0
1074.895508 180.0
1075.568481 200.0
1076.391113 72.0
1076.43689 200.0
1077.573364 52.0
1080.744507 180.0
1080.803345 172.0
1083.723755 148.0
1085.32959 132.0
1086.877686 136.0
1087.6521 108.0
1087.763672 60.0
1087.927734 148.0
1088.807617 60.0
1091.508545 76.0
1091.817627 308.0
1093.896851 60.0
1093.956177 44.0
1094.206299 44.0
1094.790771 168.0
1094.891113 160.0
1095.299438 180.0
1099.053345 240.0
1099.743652 76.0
1100.899048 180.0
1101.242554 184.0
1101.764404 84.0
1103.529053 32.0
1105.381104 116.0
1106.327637 200.0
1106.642944 180.0
1107.446655 52.0
1108.354248 240.0
1108.944092 176.0
1110.031372 180.0
1110.170654 200.0
1110.515503 172.0
1111.888916 204.0
1113.953979 196.0
1114.100098 144.0
1115.861328 220.0
1116.160522 132.0
1116.599365 68.0
1118.455811 76.0
1118.655396 76.0
1119.101562 80.0
1119.980591 104.0
1120.713379 136.0
1121.059937 216.0
1121.219849 92.0
1122.713257 48.0
1123.080078 140.0
1123.386963 68.0
1123.600342 232.0
1124.361084 60.0
1124.454468 184.0
1124.875 192.0
1125.048584 140.0
1125.829834 60.0
1126.771729 120.0
1129.733276 148.0
1133.321899 104.0
1136.057373 168.0
1136.775269 160.0
1137.486816 164.0
1139.703003 116.0
1140.079346 136.0
1140.442261 156.0
1141.686157 136.0
1142.600952 168.0
1143.341064 112.0
1144.626953 160.0
1147.268066 208.0
1147.497314 120.0
1148.401001 224.0
1148.508911 116.0
1149.790771 112.0
1150.13501 176.0
1150.607544 240.0
1151.694824 144.0
1151.829956 80.0
1153.309692 136.0
1153.474731 244.0
1153.647705 72.0
1154.202148 176.0
1154.371216 200.0
1156.028564 88.0
1158.154419 104.0
1158.662598 232.0
1158.974243 104.0
1159.285889 236.0
1159.624756 104.0
1159.868774 140.0
1160.411133 216.0
1161.123169 212.0
1162.005005 108.0
1163.009399 188.0
1163.056885 148.0
1163.138306 84.0
1163.240112 32.0
1163.966675 228.0
1165.311523 288.0
1166.929199 124.0
1167.392212 176.0
1167.786011 232.0
1169.847778 116.0
1170.126953 216.0
1170.317627 160.0
1171.230103 204.0
1171.305054 152.0
1172.742798 224.0
1174.05188 116.0
1174.392822 76.0
1174.979492 124.0
1175.887085 76.0
1176.160156 36.0
1176.289795 40.0
1176.760864 208.0
1176.890625 152.0
1176.97937 132.0
1177.976562 84.0
1178.748535 88.0
1179.479858 40.0
1181.428833 96.0
1182.072021 164.0
1182.592163 136.0
1184.680664 160.0
1185.134521 176.0
1185.317871 172.0
1187.93689 112.0
1188.458374 168.0
1188.71936 188.0
1189.542725 144.0
1189.913452 160.0
1190.023315 136.0
1190.936646 152.0
1191.067139 156.0
1191.575562 76.0
1193.170044 124.0
1193.368164 268.0
1193.692627 144.0
1193.953857 180.0
1194.297852 172.0
1194.345947 156.0
1195.343506 176.0
1196.148804 120.0
1198.125244 72.0
1198.22168 196.0
1198.269897 120.0
1198.607544 176.0
1198.903809 128.0
1199.186401 192.0
1199.820557 216.0
1200.551514 152.0
1201.110229 112.0
1201.179199 80.0
1202.303833 132.0
1202.738647 164.0
1203.18042 228.0
1203.457886 272.0
1203.567139 168.0
1203.75769 160.0
1205.224854 156.0
1207.34021 192.0
1208.564575 144.0
1209.02832 172.0
1209.305054 392.0
1211.777344 256.0
1212.879272 112.0
1213.433838 212.0
1213.489258 128.0
1215.140015 160.0
1215.514648 152.0
1216.805664 36.0
1216.902954 116.0
1217.764038 136.0
1217.94458 184.0
1218.222534 216.0
1218.882568 192.0
1219.181396 144.0
1219.431519 176.0
1219.577515 132.0
1219.90918 140.0
1220.237915 44.0
1220.731567 184.0
1220.974976 136.0
1221.121094 144.0
1221.253174 104.0
1221.496704 176.0
1221.719238 212.0
1221.900146 124.0
1223.396484 128.0
1225.478882 252.0
1225.590332 220.0
1225.764526 44.0
1226.552124 148.0
1226.643311 236.0
1227.186523 184.0
1228.16626 148.0
1228.783813 44.0
1229.027954 64.0
1230.402954 132.0
1231.219971 172.0
1231.275757 220.0
1231.918457 124.0
1232.31665 164.0
1232.393555 44.0
1233.295044 172.0
1233.721436 180.0
1234.057007 64.0
1235.161987 124.0
1236.071533 44.0
1237.527466 212.0
1237.66748 68.0
1237.982666 196.0
1238.06665 132.0
1239.29248 68.0
1241.086914 172.0
1241.135986 124.0
1241.970581 176.0
1242.973755 172.0
1243.065063 44.0
1243.387817 140.0
1243.914307 168.0
1244.307617 160.0
1244.763794 68.0
1245.178223 256.0
1245.276489 124.0
1245.339722 84.0
1245.466187 124.0
1245.585571 40.0
1245.693726 180.0
1245.768188 156.0
1246.869019 212.0
1247.082275 44.0
1249.008789 72.0
1252.338257 124.0
1253.190674 160.0
1254.198364 116.0
1254.938599 180.0
1255.241821 144.0
1255.396973 168.0
1255.742554 112.0
1256.708984 200.0
1257.529541 128.0
1257.584106 112.0
1258.240601 252.0
1258.390137 204.0
1258.480591 140.0
1258.56543 148.0
1259.130371 120.0
1259.412842 184.0
1259.893188 124.0
1260.408936 200.0
1260.811768 160.0
1261.631714 120.0
1262.239746 180.0
1264.539062 176.0
1264.942505 136.0
1265.013306 148.0
1265.353027 140.0
1265.423828 144.0
1266.351562 164.0
1266.606567 180.0
1267.648071 160.0
1268.378052 176.0
1268.491455 164.0
1268.93103 144.0
1269.477051 132.0
1269.562134 132.0
1269.831665 196.0
1271.257568 124.0
1271.463379 200.0
1271.513062 184.0
1271.84668 116.0
1274.005493 240.0
1274.474365 144.0
1274.907837 132.0
1275.263184 92.0
1275.746582 168.0
1276.592773 120.0
1279.082886 156.0
1279.389038 192.0
1279.837524 124.0
1280.264893 128.0
1280.357422 148.0
1280.563965 200.0
1280.61377 72.0
1281.682495 208.0
1281.839233 52.0
1282.159912 156.0
1283.115112 52.0
1283.90332 168.0
1284.134766 108.0
1284.248901 104.0
1284.791016 100.0
1285.554565 92.0
1287.446411 192.0
1287.553467 216.0
1288.367798 208.0
1289.075195 164.0
1289.389648 148.0
1290.054321 216.0
1290.290283 144.0
1290.533325 180.0
1290.612061 64.0
1290.848022 124.0
1291.105469 112.0
1291.191284 156.0
1292.507568 188.0
1292.750854 164.0
1294.153931 120.0
1294.325684 172.0
1294.748291 248.0
1295.271118 80.0
1296.27417 180.0
1296.768677 124.0
1296.998047 168.0
1297.722046 204.0
1298.102173 112.0
1298.18103 184.0
1298.417725 228.0
1298.812134 176.0
1299.292847 180.0
1299.371704 160.0
1299.81665 200.0
1299.917114 148.0
1300.548584 176.0
1301.891235 196.0
1302.02771 164.0
1302.645386 40.0
1302.73877 204.0
1303.989136 96.0
1304.6073 56.0
1304.736694 172.0
1304.966797 88.0
1305.800903 196.0
1306.103027 148.0
1307.268555 184.0
1307.455688 268.0
1307.541992 184.0
1307.70752 216.0
1308.722656 164.0
1309.082642 204.0
1309.983032 120.0
1310.314331 184.0
1310.501709 192.0
1310.753906 232.0
1312.14502 120.0
1312.9021 200.0
1313.926392 168.0
1314.121216 116.0
1314.272705 164.0
1314.503662 188.0
1315.369751 148.0
1316.633301 40.0
1317.471191 104.0
1318.367188 40.0
1318.612915 36.0
1320.5 120.0
1320.608521 56.0
1321.389771 164.0
1321.541626 180.0
1321.635742 196.0
1321.686401 172.0
1322.106079 160.0
1323.134033 216.0
1323.199097 60.0
1324.567871 216.0
1325.111206 120.0
1325.176392 84.0
1326.7854 160.0
1326.886841 152.0
1327.34375 160.0
1328.351807 104.0
1328.7146 176.0
1330.557983 176.0
1332.08313 116.0
1332.918579 116.0
1333.492676 168.0
1334.372314 204.0
1334.466797 48.0
1334.903076 216.0
1335.106812 188.0
1335.383179 60.0
1336.334839 112.0
1337.434937 140.0
1337.733398 124.0
1338.221191 172.0
1338.279541 120.0
1338.337769 204.0
1339.634155 196.0
1339.961914 80.0
1340.238892 216.0
1341.12793 228.0
1341.20813 112.0
1342.039185 104.0
1343.293579 216.0
1343.811646 208.0
1343.964844 220.0
1345.61438 56.0
1345.677246 140.0
1346.161987 144.0
1346.549072 132.0
1346.622192 148.0
1347.155396 92.0
1347.221069 36.0
1347.547363 160.0
1347.674072 140.0
1347.812988 112.0
1347.878662 152.0
1348.441406 52.0
1348.536377 176.0
1348.763062 148.0
1348.828857 156.0
1349.077393 176.0
1349.867065 220.0
1350.035156 136.0
1350.130249 56.0
1350.253174 220.0
1350.393555 148.0
1350.495972 148.0
1350.554443 180.0
1350.65686 128.0
1351.037231 76.0
1352.222656 124.0
1352.391113 196.0
1352.566772 228.0
1352.830322 176.0
1353.23291 148.0
1353.357422 152.0
1353.620972 156.0
1353.730835 152.0
1353.966431 176.0
1354.082397 216.0
1354.595093 160.0
1354.76123 160.0
1355.232544 40.0
1355.335083 156.0
1355.650146 180.0
1355.840698 172.0
1356.199829 48.0
1356.500366 180.0
1357.226196 136.0
1358.406982 176.0
1358.9646 196.0
1359.280151 176.0
1359.419556 48.0
1359.845215 116.0
1360.028687 44.0
1360.447144 180.0
1360.520508 136.0
1361.555908 148.0
1362.555542 148.0
1362.988403 176.0
1363.208862 184.0
1363.473389 76.0
1363.730713 152.0
1365.171631 172.0
1365.64978 152.0
1367.868652 192.0
1368.100098 124.0
1368.181152 240.0
1369.086792 108.0
1369.425537 136.0
1369.506592 160.0
1370.361206 200.0
1370.972778 268.0
1371.311768 124.0
1372.218506 132.0
1372.506104 172.0
1373.553345 196.0
1374.962646 156.0
1375.846313 100.0
1376.424316 160.0
1377.155518 140.0
1378.500122 128.0
1378.995239 136.0
1379.083984 220.0
1379.217041 76.0
1379.42395 164.0
1380.584839 88.0
1381.206055 152.0
1381.871948 48.0
1382.419434 144.0
1382.542725 148.0
1382.841309 128.0
1383.159546 136.0
1383.588989 168.0
1383.833252 132.0
1384.196167 180.0
1384.536743 160.0
1385.596069 176.0
1385.707153 172.0
1386.27771 168.0
1386.803955 212.0
1387.530396 240.0
1387.97522 116.0
1388.622681 172.0
1388.865234 44.0
1389.24353 180.0
1389.970703 104.0
1390.251587 136.0
1391.143311 84.0
1391.462646 184.0
1391.952637 216.0
1392.197754 240.0
1393.170776 212.0
1394.188721 128.0
1394.359619 164.0
1395.006348 132.0
1395.288818 168.0
1396.218262 184.0
1396.33728 152.0
1397.415894 148.0
1397.624268 168.0
1398.457764 88.0
1399.105469 152.0
1399.462769 152.0
1399.790405 136.0
1400.170288 140.0
1400.356445 172.0
1400.438354 120.0
1401.201904 140.0
1401.287598 56.0
1402.144531 148.0
1402.47998 156.0
1403.135986 224.0
1403.23291 68.0
1403.538574 48.0
1403.986084 124.0
1404.232178 152.0
1404.59021 212.0
1404.78418 144.0
1405.560059 108.0
1405.694336 124.0
1406.58252 128.0
1406.746826 144.0
1406.978149 40.0
1407.747314 140.0
1408.53894 228.0
1408.609741 120.0
1409.634521 108.0
1410.040894 120.0
1410.60144 184.0
1410.952759 116.0
1411.281738 152.0
1413.810181 184.0
1414.506226 220.0
1415.022827 188.0
1415.681763 176.0
1416.168579 180.0
1416.947021 132.0
1417.000732 132.0
1417.127441 140.0
1417.442627 144.0
1418.776367 152.0
1418.911255 100.0
1419.233643 196.0
1419.781128 244.0
1420.073608 220.0
1420.508667 112.0
1420.756226 184.0
1420.951294 160.0
1421.56665 168.0
1421.709229 100.0
1422.617432 172.0
1423.203003 168.0
1424.059082 136.0
1424.810303 144.0
1425.11084 200.0
1425.43396 48.0
1427.268066 120.0
1428.125488 108.0
1428.298462 88.0
1428.591797 192.0
1428.651978 244.0
1428.794922 48.0
1428.8927 124.0
1429.457031 116.0
1430.149536 160.0
1430.879761 128.0
1431.83606 136.0
1433.003662 128.0
1433.681763 168.0
1434.435547 120.0
1434.526001 96.0
1434.646606 156.0
1434.978394 216.0
1435.310181 180.0
1435.798096 160.0
1436.124634 144.0
1436.901611 52.0
1437.369385 184.0
1437.565674 92.0
1437.731689 204.0
1438.063721 120.0
1439.030029 208.0
1439.135742 212.0
1439.838013 152.0
1439.936157 152.0
1440.132568 108.0
1441.364014 136.0
1441.915649 196.0
1442.066895 224.0
1442.240723 144.0
1442.679077 248.0
1442.92749 160.0
1443.783081 124.0
1444.637817 244.0
1445.003296 196.0
1445.432251 132.0
1445.515503 124.0
1445.984741 164.0
1446.189087 124.0
1446.272339 104.0
1447.733521 44.0
1447.790405 148.0
1448.278931 108.0
1448.47583 148.0
1448.839478 96.0
1449.68811 176.0
1451.568115 156.0
1451.833496 112.0
1452.076172 188.0
1452.265869 184.0
1454.588379 148.0
1454.997681 152.0
1455.544312 168.0
1457.025513 108.0
1458.33606 236.0
1458.423706 192.0
1458.659424 64.0
1458.841797 80.0
1458.940674 92.0
1459.70105 116.0
1461.61792 180.0
1461.716797 192.0
1461.983154 164.0
1462.264771 168.0
1462.85083 80.0
1463.193481 96.0
1463.536133 64.0
1463.609863 164.0
1463.870972 140.0
1463.970093 136.0
1465.044067 240.0
1466.461426 196.0
1466.514771 224.0
1467.132324 188.0
1467.848999 204.0
1468.199829 144.0
1468.466675 100.0
1468.550659 212.0
1469.00061 156.0
1469.305786 148.0
1469.435547 36.0
1469.565186 128.0
1469.809448 108.0
1469.992554 168.0
1470.311768 184.0
1470.457275 220.0
1470.587891 92.0
1470.87793 192.0
1471.297729 144.0
1471.549683 188.0
1473.336914 212.0
1473.428589 144.0
1474.001587 164.0
1474.498291 80.0
1475.125122 108.0
1475.912598 160.0
1476.799683 148.0
1477.251099 152.0
1477.350464 120.0
1477.977905 156.0
1478.314575 84.0
1478.635986 136.0
1479.493286 176.0
1479.768921 80.0
1480.304932 196.0
1481.12439 104.0
1481.246948 88.0
1481.522827 176.0
1482.013184 192.0
1482.419312 120.0
1482.64917 68.0
1482.710449 80.0
1483.02478 200.0
1483.12439 132.0
1483.3927 44.0
1483.57666 200.0
1483.64563 144.0
1483.944702 140.0
1484.174683 116.0
1484.765137 136.0
1485.148682 76.0
1485.654907 180.0
1486.36853 92.0
1486.928711 224.0
1487.043823 144.0
1488.156982 156.0
1489.961914 244.0
1490.906982 140.0
1491.91394 208.0
1494.490479 172.0
1494.713623 196.0
1494.952148 264.0
1495.067627 80.0
1495.598633 92.0
1495.814453 188.0
1495.875732 32.0
1496.376221 108.0
1496.738037 136.0
1496.822754 152.0
1496.953735 168.0
1497.52356 148.0
1497.931885 164.0
1498.209229 132.0
1498.463379 88.0
1498.979614 156.0
1499.089478 204.0
1499.634766 124.0
1499.919922 132.0
1500.482666 156.0
1500.575195 160.0
1501.539185 168.0
1502.125366 76.0
1502.271973 136.0
1502.345337 168.0
1502.485596 224.0
1503.298096 224.0
1504.756958 180.0
1505.359253 104.0
