>compound MLS001074098-01!
>formula C7H5N3O2
>ionization [M+H]+
>parentmass 164.04545285209053
#inchi InChI=1S/C7H5N3O2/c11-10(12)6-3-1-2-5-4-8-9-7(5)6/h1-4H,(H,8,9)
#inchikey PQCAUHUKTBHUSA
#Ion_Source LC-ESI
#Instrument qTof
#Compound_Source NIH Pharmacologically Active Library
#PI Dorrestein
#Data_Collector VP/LMS
#Scan -1
#Precursor_MZ 164.042
#ExactMass 163.038
#Charge 1
#CAS_Number N/A
#Pubmed_ID N/A
#Smiles [O-][N+](=O)c1cccc2c[nH]nc12
#INCHI_AUX N/A
#Library_Class 1
#SpectrumID CCMSLIB00000085359
#IonMode Positive
#UpdateWorkflowName UPDATE-SINGLE-ANNOTATED-GOLD
#LibraryQualityString Gold
#TaskID d252d724072548979f1f6f1ced849daf
##Scan# 1541
#SpectrumFile p3-H09_GH9_01_18314.mzXML
#LibraryName Pharm_Active_Library.mgf
#MQScore -1
#Organism Pharm_Active_Library
#TIC_Query 0
#RT_Query -1
#MZErrorPPM -1
#SharedPeaks 0
#MassDiff 0
#LibMZ -1
#SpecMZ 164.042
#SpecCharge 0
#internalFilename spec-00000.mgf

>collision 10
45.140778 156.0
46.258926 144.0
46.30632 40.0
49.518799 228.0
52.352528 188.0
67.587456 216.0
67.8069 176.0
68.375183 228.0
71.908905 184.0
74.375381 152.0
80.099731 32.0
85.601105 108.0
85.938438 40.0
90.035507 260.0
91.043053 304.0
92.037888 128.0
96.163734 80.0
97.200989 212.0
104.330711 128.0
105.053932 164.0
106.043396 144.0
106.065941 216.0
107.497444 76.0
112.576927 168.0
116.2901 164.0
117.04557 668.0
117.117928 56.0
118.050987 636.0
118.095726 36.0
119.061691 388.0
126.30368 76.0
129.518143 84.0
133.039459 724.0
135.116272 80.0
145.045853 204.0
147.042633 336.0
148.050446 168.0
205.190231 36.0
208.114395 160.0
567.771362 20.0
969.17688 124.0
1001.609009 240.0
1080.960083 176.0
1090.193604 72.0
1118.682129 88.0
1165.971313 160.0
1175.751343 160.0
1211.840942 160.0
1243.305298 176.0
1351.252441 160.0
1370.452881 116.0
1378.119263 224.0
1383.562744 216.0
1384.192139 196.0
1404.012085 136.0
1409.94751 124.0
1462.40625 140.0
1497.84436 108.0
1499.539551 20.0
