>compound Marbofloxacin
>formula C17H19FN4O4
>ionization [M+H]+
>parentmass 363.14630976009056
#inchi InChI=1S/C17H19FN4O4/c1-19-3-5-21(6-4-19)14-12(18)7-10-13-16(14)26-9-20(2)22(13)8-11(15(10)23)17(24)25/h7-8H,3-6,9H2,1-2H3,(H,24,25)
#inchikey BPFYOAJNDMUVBL
#Ion_Source LC-ESI
#Instrument qTof
#Compound_Source Commercial
#PI Dorrestein
#Data_Collector Garg_Neha
#Scan -1
#Precursor_MZ 363.146
#ExactMass 362.139
#Charge 1
#CAS_Number 115550-35-1, 115551-26-3 (HCl)
#Pubmed_ID N/A
#Smiles C1(=C(C2=C3C(=C1)C(C(=CN3N(CO2)C)C(O)=O)=O)N4CCN(CC4)C)F
#INCHI_AUX N/A
#Library_Class 1
#SpectrumID CCMSLIB00000078157
#IonMode Positive
#UpdateWorkflowName UPDATE-SINGLE-ANNOTATED-GOLD
#LibraryQualityString Gold
#TaskID 77f51c88eb8b467eb4a01dd2d0cb90d2
##Scan# 1023
#SpectrumFile Plate3_1_20_GG9_01_16498.mzXML
#LibraryName FDALibrary_2_04302014.mgf
#MQScore -1
#Organism FDALibrary_2_04302014
#TIC_Query 0
#RT_Query -1
#MZErrorPPM -1
#SharedPeaks 0
#MassDiff 0
#LibMZ -1
#SpecMZ 363.146
#SpecCharge 0
#internalFilename spec-00000.mgf

>collision 10
45.62323 208.0
45.632641 148.0
46.161949 168.0
47.063461 156.0
47.190166 120.0
47.341049 148.0
47.608463 260.0
47.642803 220.0
49.270668 180.0
49.438457 200.0
50.917362 148.0
51.684299 152.0
51.708626 196.0
52.113014 200.0
52.578129 172.0
54.191319 136.0
54.308079 156.0
55.299675 156.0
55.361855 176.0
55.854607 184.0
56.641254 208.0
56.83165 176.0
57.456032 200.0
57.931648 196.0
58.252319 204.0
59.529137 148.0
60.403061 160.0
61.214771 172.0
61.54847 160.0
61.740677 164.0
62.209164 148.0
62.273544 168.0
63.604614 168.0
64.255486 152.0
64.654961 144.0
65.028381 176.0
65.418976 168.0
65.972305 180.0
66.012726 164.0
66.187485 184.0
67.089203 180.0
68.22699 148.0
68.246719 184.0
68.901039 140.0
70.020706 184.0
70.087341 200.0
70.239052 228.0
70.663376 160.0
70.772644 196.0
71.10408 184.0
71.13765 184.0
71.149399 164.0
71.17794 188.0
71.376221 236.0
71.642143 152.0
71.660675 216.0
71.783722 188.0
71.878189 156.0
72.117996 152.0
72.344666 156.0
72.472984 156.0
73.850609 220.0
74.472786 152.0
74.694519 148.0
75.297783 144.0
76.316727 140.0
77.253273 200.0
77.461586 160.0
77.728073 164.0
77.879051 168.0
78.506462 236.0
79.673805 144.0
80.02417 164.0
80.975967 176.0
80.997459 248.0
81.622009 240.0
82.274239 156.0
82.335625 148.0
82.559723 232.0
82.651978 224.0
82.771446 156.0
83.38279 148.0
83.708427 140.0
83.761246 236.0
84.023758 172.0
84.138733 184.0
84.253784 184.0
84.328705 208.0
84.808243 160.0
86.083199 148.0
86.158928 144.0
86.377068 148.0
86.465874 168.0
86.851257 144.0
87.59478 152.0
87.915466 212.0
88.423798 164.0
88.661652 188.0
88.749748 204.0
88.807884 188.0
89.802864 164.0
90.031227 216.0
90.09922 172.0
90.273117 192.0
90.43203 148.0
90.646034 188.0
90.869774 140.0
91.135582 208.0
91.327591 148.0
91.4132 248.0
91.76368 204.0
91.862846 164.0
91.981155 152.0
92.406151 216.0
92.78907 148.0
93.495316 168.0
93.630081 192.0
94.127617 220.0
94.874451 148.0
95.081993 148.0
95.495819 172.0
95.758575 184.0
95.918343 196.0
96.854317 160.0
97.167389 204.0
97.207214 144.0
97.269142 120.0
97.875542 156.0
98.088318 152.0
98.116455 160.0
98.259888 228.0
98.739883 188.0
98.963493 176.0
99.018944 184.0
99.155647 192.0
100.719521 188.0
100.915367 212.0
101.037331 212.0
101.198097 156.0
101.217506 180.0
101.614365 148.0
101.670547 172.0
101.867317 212.0
102.160812 152.0
102.484947 196.0
103.027672 176.0
103.070099 164.0
103.312714 168.0
103.689339 164.0
103.928627 188.0
104.001686 216.0
104.471077 168.0
104.845726 152.0
104.890572 148.0
105.312943 204.0
105.828278 152.0
106.588615 160.0
107.212776 168.0
107.598503 172.0
107.920807 152.0
108.034561 156.0
109.268951 176.0
109.5625 164.0
109.781357 208.0
109.877304 156.0
109.998337 240.0
110.038002 236.0
111.840843 188.0
112.013512 152.0
112.101997 164.0
112.177872 192.0
112.342361 152.0
112.392998 172.0
112.978233 180.0
113.222343 204.0
113.30426 152.0
113.705025 152.0
114.166031 220.0
114.510803 180.0
114.55127 200.0
114.947487 124.0
114.975571 156.0
115.003319 184.0
115.7332 180.0
115.777267 172.0
115.839378 200.0
116.042969 232.0
116.820404 156.0
117.17347 204.0
117.796928 188.0
117.844452 208.0
117.900635 176.0
118.489189 164.0
119.083557 224.0
119.135689 148.0
119.353951 132.0
119.381294 148.0
120.383728 144.0
120.899643 236.0
121.020035 152.0
121.098877 220.0
121.285118 152.0
121.655373 192.0
121.78978 148.0
122.044083 196.0
122.251472 252.0
122.473839 172.0
122.877251 208.0
124.328812 188.0
124.536209 136.0
124.550835 244.0
125.541245 272.0
125.835785 184.0
126.721466 188.0
127.091415 144.0
127.871201 188.0
127.947731 140.0
128.046341 196.0
128.159439 164.0
128.590164 228.0
129.045013 180.0
129.144455 132.0
129.428848 168.0
129.510376 192.0
130.063095 184.0
130.281586 220.0
131.529205 256.0
131.90535 248.0
132.567871 176.0
133.109238 164.0
133.534393 152.0
133.568893 168.0
133.681625 200.0
133.865784 168.0
134.043167 156.0
135.301956 160.0
135.357529 204.0
135.82103 156.0
135.985779 148.0
136.022903 220.0
136.059479 376.0
136.192413 144.0
136.548019 228.0
136.615479 148.0
136.734146 152.0
137.183685 176.0
137.447235 196.0
137.610626 216.0
138.035873 140.0
138.820343 144.0
138.88913 196.0
138.897583 176.0
139.1418 144.0
139.299149 184.0
139.404877 144.0
140.289856 164.0
141.269608 144.0
141.468658 240.0
141.729187 176.0
142.376785 148.0
142.488419 148.0
142.505051 208.0
142.588226 212.0
142.678543 160.0
143.5961 228.0
143.795715 176.0
144.050247 380.0
144.519791 148.0
144.582352 216.0
144.819031 156.0
145.115875 188.0
145.624908 184.0
145.954147 216.0
146.175446 216.0
146.763184 144.0
147.100937 160.0
147.289291 212.0
147.588959 184.0
147.891357 200.0
148.057129 236.0
148.247375 192.0
149.0242 200.0
149.176971 152.0
149.359344 168.0
149.468811 140.0
149.595383 164.0
149.69313 132.0
150.038818 372.0
150.419662 140.0
150.829681 184.0
151.088898 208.0
151.218582 168.0
151.301804 140.0
151.36911 164.0
151.811462 144.0
152.088684 244.0
152.110779 200.0
152.560318 148.0
153.044998 148.0
153.158279 140.0
153.279007 188.0
153.315964 192.0
153.34581 184.0
153.624176 164.0
154.024063 168.0
154.048767 152.0
154.271179 192.0
154.345352 228.0
154.748657 140.0
156.067444 208.0
156.743195 252.0
157.040604 548.0
157.073303 304.0
157.13176 204.0
157.629028 156.0
157.659012 180.0
158.028122 1288.0
158.05809 368.0
158.37706 152.0
158.673935 212.0
159.028976 152.0
159.807999 168.0
159.960129 212.0
160.060608 432.0
160.146072 120.0
160.508224 176.0
160.6091 152.0
160.730194 156.0
160.800858 192.0
161.232727 144.0
161.541183 184.0
161.827164 216.0
162.055115 240.0
162.242661 140.0
162.651077 184.0
162.757706 180.0
162.808487 184.0
162.888245 232.0
163.665451 152.0
163.729111 236.0
163.960953 204.0
164.049561 2088.0
164.307724 192.0
164.394485 164.0
164.545074 156.0
164.69574 160.0
165.018753 308.0
165.051392 548.0
165.235123 152.0
165.660095 204.0
165.85228 196.0
165.885971 164.0
166.024063 152.0
166.378571 172.0
167.037384 264.0
167.924637 160.0
168.105225 148.0
168.190399 208.0
168.247192 160.0
168.358215 164.0
168.52095 196.0
168.80011 176.0
169.001877 224.0
169.022568 152.0
169.64415 164.0
169.843826 156.0
170.698273 192.0
170.945389 144.0
170.976624 172.0
171.053955 252.0
171.216141 196.0
172.068298 188.0
172.135788 128.0
172.355713 156.0
172.719498 144.0
172.915741 152.0
172.986404 172.0
173.050385 164.0
173.127792 148.0
173.22995 180.0
173.271851 188.0
173.549683 164.0
173.743759 184.0
173.935089 176.0
174.034714 484.0
174.218933 208.0
174.347672 144.0
174.437042 168.0
174.515915 152.0
174.639511 156.0
174.810516 244.0
175.055084 176.0
175.065598 160.0
175.321396 168.0
175.458466 168.0
175.946533 160.0
176.035889 180.0
176.05484 396.0
176.341873 204.0
176.47493 180.0
176.834702 156.0
177.034637 100.0
177.057846 196.0
177.329987 140.0
177.634903 140.0
177.963104 228.0
178.028641 908.0
178.064743 216.0
178.208344 160.0
178.250854 144.0
178.913132 152.0
179.02919 464.0
179.125092 152.0
179.822098 140.0
179.856796 144.0
179.960907 152.0
180.049088 168.0
181.579865 176.0
181.644241 188.0
182.468689 180.0
182.713837 268.0
182.837204 140.0
182.872192 160.0
183.057953 200.0
184.039459 220.0
184.352798 156.0
184.417664 192.0
184.523087 160.0
184.677231 160.0
184.744858 140.0
185.035339 832.0
185.068619 1052.0
185.701035 192.0
185.747147 164.0
185.915359 240.0
186.05336 348.0
186.337189 160.0
186.841919 144.0
186.877289 200.0
186.980698 204.0
187.021515 140.0
187.067795 200.0
187.514496 140.0
188.049835 328.0
188.079086 208.0
188.4505 168.0
188.494217 156.0
188.604523 188.0
188.74295 224.0
189.047241 336.0
189.344986 164.0
189.665558 332.0
189.76973 148.0
189.923309 148.0
190.041016 176.0
190.060043 284.0
190.334961 144.0
190.86528 152.0
190.942093 124.0
191.035385 392.0
191.062195 596.0
191.311066 140.0
191.465179 164.0
191.682816 148.0
191.882538 152.0
191.933655 164.0
192.046646 2348.0
192.198441 148.0
192.648468 148.0
192.790802 180.0
193.019516 900.0
193.046661 372.0
193.375687 160.0
194.019424 288.0
194.045395 168.0
194.487137 192.0
195.058441 160.0
195.317947 216.0
195.532181 208.0
196.387527 168.0
196.524216 148.0
196.557709 160.0
196.621887 144.0
196.674911 184.0
196.973694 272.0
197.084503 228.0
197.118759 164.0
197.716675 164.0
197.868576 152.0
197.924576 200.0
197.944168 180.0
198.098221 160.0
198.768295 168.0
199.052673 256.0
199.124817 200.0
199.518204 164.0
200.060349 284.0
200.238556 188.0
200.672516 152.0
200.728363 164.0
201.138412 160.0
201.708588 248.0
201.841461 156.0
201.97438 152.0
202.019638 156.0
202.149796 196.0
202.415878 188.0
202.631149 196.0
202.996796 200.0
203.05867 224.0
203.578522 160.0
204.046143 3828.0
204.118439 140.0
204.661926 188.0
204.844193 212.0
204.93251 172.0
205.041687 8620.0
205.075455 772.0
205.925232 216.0
205.969543 244.0
206.057755 1932.0
206.193802 216.0
206.396759 140.0
206.448227 188.0
206.473969 172.0
206.59697 140.0
206.831619 168.0
207.062469 384.0
207.473282 188.0
207.622391 196.0
207.764023 196.0
207.843277 144.0
208.042389 180.0
208.07576 156.0
208.80275 172.0
209.05304 152.0
210.705215 208.0
211.060715 188.0
211.176392 164.0
211.399155 196.0
211.497559 196.0
211.575714 156.0
212.064651 248.0
212.192902 252.0
213.067352 2576.0
213.23201 176.0
213.403519 148.0
214.067703 384.0
214.521454 192.0
214.64682 196.0
214.737228 264.0
215.063583 836.0
215.341385 148.0
215.455307 180.0
215.874008 144.0
216.042252 852.0
216.578598 160.0
216.631332 192.0
216.769028 232.0
216.97908 124.0
217.038513 156.0
217.563889 160.0
217.813492 168.0
218.046829 816.0
218.313141 192.0
218.530807 180.0
218.551407 160.0
218.692123 276.0
218.913467 264.0
219.02243 140.0
219.056763 1648.0
219.845001 188.0
219.931137 172.0
220.034866 440.0
220.059814 408.0
220.509491 204.0
221.072968 992.0
221.456268 140.0
221.688354 216.0
222.03125 148.0
222.074234 316.0
222.098068 272.0
222.586182 148.0
222.81488 168.0
222.942642 176.0
223.06041 208.0
224.210419 148.0
224.308777 148.0
224.556259 164.0
224.803879 148.0
224.845657 200.0
225.281601 148.0
225.673111 200.0
225.882446 172.0
226.093231 168.0
226.199631 164.0
226.256516 172.0
226.541016 176.0
227.158539 200.0
227.326553 152.0
227.809952 152.0
227.957169 172.0
228.071381 212.0
228.185013 220.0
228.491928 212.0
228.672928 164.0
229.32048 220.0
229.341568 156.0
229.884735 120.0
230.027695 212.0
230.062683 152.0
230.539734 188.0
230.669708 172.0
230.926712 140.0
231.022797 152.0
231.060349 548.0
231.096191 176.0
231.356735 216.0
231.550186 160.0
231.982391 144.0
232.038422 400.0
232.061584 420.0
232.715714 180.0
233.072617 4444.0
233.754166 192.0
233.863739 148.0
233.939835 192.0
234.077164 856.0
234.119476 152.0
234.171249 184.0
234.860077 188.0
235.030914 164.0
235.128571 176.0
235.220139 224.0
235.776016 164.0
236.032806 168.0
236.406006 144.0
236.474899 148.0
237.462952 164.0
237.782028 152.0
238.046036 156.0
238.211884 168.0
238.393158 184.0
238.629852 164.0
238.738449 224.0
238.798981 192.0
238.955856 180.0
239.04509 156.0
239.215393 168.0
239.90506 172.0
239.969147 164.0
240.04007 196.0
240.618698 172.0
241.098679 236.0
241.296738 152.0
241.484192 136.0
241.510117 140.0
241.742157 164.0
242.020737 164.0
242.100662 184.0
242.362488 120.0
243.201874 160.0
243.636612 164.0
243.785751 152.0
244.028198 252.0
244.075104 192.0
244.120743 164.0
244.597504 176.0
245.017059 160.0
245.07785 168.0
245.134262 176.0
245.728745 180.0
245.900375 152.0
246.056442 148.0
246.165726 152.0
247.084229 320.0
247.964569 156.0
248.035446 176.0
248.168335 184.0
248.776962 164.0
248.996765 188.0
249.027985 2136.0
249.53096 144.0
249.96817 244.0
250.040451 288.0
250.311279 192.0
250.424652 160.0
251.001358 160.0
251.042511 164.0
251.092957 184.0
251.136963 164.0
251.193741 208.0
251.581894 160.0
252.134659 184.0
252.276886 168.0
252.68486 148.0
253.311676 180.0
254.028091 192.0
254.060867 212.0
254.383499 188.0
254.440643 168.0
254.866241 140.0
255.562561 144.0
256.071899 140.0
256.680573 156.0
256.750732 192.0
256.913422 164.0
257.050598 184.0
257.602966 168.0
257.631714 168.0
257.91568 152.0
258.04718 256.0
258.082336 180.0
258.106903 140.0
258.146301 160.0
258.357391 184.0
258.542969 204.0
259.02002 160.0
259.050385 720.0
259.084106 308.0
259.353271 188.0
259.917725 204.0
260.060303 356.0
260.412109 196.0
260.646606 140.0
260.681946 144.0
260.823364 160.0
261.053528 212.0
261.101898 5736.0
261.151337 196.0
262.055908 164.0
262.106354 988.0
262.400787 176.0
262.736176 140.0
262.807159 160.0
262.832977 184.0
262.991119 164.0
263.038849 328.0
263.110413 164.0
263.294586 172.0
263.326904 160.0
264.055298 128.0
264.868408 200.0
265.173584 128.0
265.709351 188.0
265.777466 216.0
266.068726 168.0
266.28064 192.0
266.569794 192.0
266.920837 140.0
267.302429 168.0
267.333984 148.0
267.454407 160.0
267.477173 172.0
267.57019 216.0
267.747437 212.0
268.144135 188.0
268.4086 108.0
268.875427 140.0
269.002747 196.0
269.225616 396.0
269.463196 200.0
269.776947 180.0
269.799835 168.0
269.878296 224.0
269.960052 180.0
270.050415 156.0
270.12674 128.0
270.539185 152.0
271.023895 212.0
271.125488 196.0
271.945404 164.0
272.045319 288.0
272.084839 180.0
272.250732 168.0
272.503662 140.0
272.687683 144.0
273.062469 144.0
273.10556 204.0
273.185822 152.0
273.674561 148.0
273.747009 240.0
273.779938 176.0
274.066101 416.0
274.095184 244.0
275.069672 204.0
275.102112 168.0
275.31012 180.0
275.511597 160.0
275.624481 164.0
275.716736 200.0
275.898254 260.0
275.921387 204.0
276.026367 96.0
276.114655 12800.0
276.199585 160.0
276.500275 180.0
276.563141 152.0
276.62207 96.0
277.062439 5492.0
277.116547 2632.0
277.257416 160.0
278.063385 940.0
278.1203 312.0
278.174286 148.0
278.522766 160.0
278.962158 120.0
279.046082 136.0
279.069763 176.0
279.127625 348.0
279.402039 228.0
279.456909 152.0
279.565002 200.0
279.695862 100.0
279.776428 152.0
280.897919 188.0
281.196411 144.0
281.289368 132.0
282.412567 140.0
282.53299 144.0
282.913849 184.0
283.014954 172.0
283.115417 180.0
283.66272 196.0
283.943542 188.0
284.09079 220.0
284.933411 184.0
285.282928 188.0
285.410889 132.0
286.355438 184.0
286.467468 156.0
286.59549 164.0
286.968781 208.0
287.067474 488.0
287.119598 156.0
287.347351 148.0
287.509338 208.0
287.985382 160.0
288.079956 140.0
288.252258 160.0
288.465179 156.0
288.786407 148.0
289.128113 180.0
289.96463 160.0
290.071625 148.0
291.083374 144.0
292.542725 172.0
293.411438 176.0
293.476196 204.0
293.629669 160.0
293.919617 152.0
294.202911 196.0
294.377045 148.0
294.407776 168.0
294.961273 140.0
295.75824 164.0
295.903625 152.0
296.518616 160.0
296.631714 156.0
296.837433 196.0
296.924896 132.0
297.11734 184.0
298.148651 172.0
298.336029 108.0
299.036102 160.0
299.065521 160.0
299.821228 132.0
300.24884 180.0
301.014954 152.0
301.080444 136.0
301.123962 284.0
301.242889 200.0
301.398376 160.0
301.785675 156.0
302.005371 172.0
302.090088 708.0
302.498169 160.0
302.560486 184.0
303.096344 112.0
303.249817 188.0
303.520203 200.0
303.690125 152.0
303.835815 144.0
303.936432 184.0
304.18631 156.0
304.21228 172.0
304.832336 160.0
304.992188 196.0
305.106903 216.0
305.612793 184.0
305.736481 164.0
305.983612 324.0
306.161194 192.0
306.547882 216.0
306.892975 192.0
306.91861 124.0
307.008057 156.0
307.41272 156.0
307.552307 236.0
307.639587 152.0
307.765259 184.0
308.917328 156.0
309.436523 184.0
310.214264 156.0
310.358002 240.0
310.459686 144.0
310.715759 168.0
310.771881 172.0
310.947357 284.0
310.988098 204.0
311.291382 220.0
311.761719 144.0
312.229675 232.0
312.277161 232.0
312.616669 152.0
312.957428 144.0
313.043793 384.0
313.403107 164.0
313.754333 180.0
313.82486 156.0
313.874237 196.0
314.071716 236.0
314.098724 176.0
314.166962 168.0
314.339844 160.0
314.533966 156.0
314.565735 152.0
315.176697 144.0
315.346344 164.0
315.505402 188.0
315.830719 156.0
316.108704 172.0
316.147461 456.0
316.630524 140.0
316.917542 144.0
317.146729 148.0
317.259125 172.0
317.4599 224.0
317.757843 224.0
317.788208 96.0
318.161713 6344.0
318.468872 176.0
318.597748 132.0
318.735992 148.0
319.030426 128.0
319.090942 216.0
319.161591 2448.0
319.393433 136.0
319.450409 112.0
319.584076 212.0
319.808899 204.0
319.838501 164.0
319.898132 164.0
319.926025 188.0
319.979065 168.0
320.001312 208.0
320.042694 260.0
320.105835 88072.0
320.209167 180.0
320.281403 136.0
320.331329 140.0
320.415649 140.0
320.453674 132.0
320.511505 104.0
320.696411 208.0
320.962646 192.0
321.107513 12036.0
321.22644 196.0
321.483917 120.0
321.541901 144.0
321.606689 96.0
321.69281 208.0
321.928284 168.0
322.010193 96.0
322.107544 1320.0
322.155334 112.0
322.276031 140.0
322.448944 104.0
322.597687 148.0
322.740906 128.0
322.806854 100.0
322.895935 116.0
323.0979 188.0
323.109985 252.0
323.236542 116.0
323.294464 144.0
323.322327 172.0
323.438721 140.0
323.638153 180.0
323.80307 156.0
324.083832 96.0
324.129517 140.0
324.280029 112.0
324.317383 100.0
324.398315 296.0
324.517944 140.0
324.609833 252.0
325.015167 252.0
326.258728 116.0
326.602173 160.0
326.940338 152.0
327.363708 220.0
327.595734 184.0
327.628998 164.0
327.978546 212.0
328.494202 168.0
328.858612 160.0
328.995789 156.0
329.181152 192.0
329.613403 224.0
330.011017 148.0
330.419708 184.0
330.633179 148.0
331.187134 172.0
332.180328 160.0
333.214966 196.0
333.320312 244.0
334.018372 248.0
334.476837 164.0
335.646301 184.0
335.827301 196.0
335.934448 144.0
336.116852 144.0
336.598694 140.0
337.424438 204.0
337.89624 216.0
338.03894 160.0
338.093811 240.0
338.877441 152.0
338.987366 212.0
339.262268 152.0
340.12796 184.0
340.844116 192.0
342.79071 180.0
343.104004 152.0
343.280975 148.0
343.395294 248.0
344.136047 512.0
344.997864 160.0
345.024933 144.0
345.133728 2816.0
345.745026 232.0
346.067047 160.0
346.141296 432.0
347.076691 188.0
347.133423 172.0
347.972778 144.0
348.179352 304.0
348.466736 144.0
348.526184 164.0
350.006592 192.0
350.073639 164.0
350.271027 156.0
351.635681 244.0
351.687927 172.0
352.2854 204.0
352.588043 156.0
352.812317 168.0
353.384521 216.0
353.680176 240.0
353.753296 188.0
353.818665 236.0
355.276489 140.0
357.394226 152.0
357.685272 168.0
357.914917 160.0
358.274017 232.0
358.370667 164.0
358.523254 192.0
358.589233 148.0
359.362274 160.0
359.947632 104.0
359.990173 160.0
360.143707 184.0
360.256531 152.0
360.857941 188.0
361.003082 124.0
361.12146 140.0
361.228577 248.0
361.271027 140.0
361.539032 180.0
361.605225 120.0
361.880157 160.0
361.945801 196.0
361.972534 136.0
361.997711 220.0
362.023315 228.0
362.055206 168.0
362.150787 12492.0
362.226929 380.0
362.292816 384.0
362.341553 196.0
362.38327 300.0
362.457825 180.0
362.520966 136.0
362.609772 164.0
362.6763 212.0
362.717316 300.0
362.78949 228.0
362.826233 356.0
362.892456 236.0
362.943939 148.0
362.986969 292.0
363.052155 364.0
363.148621 177040.0
363.257416 184.0
363.291046 204.0
363.35495 252.0
363.476288 332.0
363.508881 276.0
363.574432 188.0
363.600037 372.0
363.727936 448.0
363.77298 2164.0
363.867645 292.0
363.961182 200.0
364.015167 360.0
364.15033 40340.0
364.246918 188.0
364.395508 188.0
364.506409 132.0
364.882843 108.0
365.091888 244.0
365.151031 4560.0
365.308167 128.0
365.36795 204.0
365.766602 224.0
365.896301 148.0
366.154602 564.0
366.23941 116.0
366.28241 116.0
366.430603 100.0
366.48999 100.0
366.524567 120.0
366.594971 188.0
366.631592 144.0
366.708282 136.0
366.754608 132.0
367.197327 100.0
367.34549 112.0
367.46637 232.0
367.54837 228.0
367.67453 152.0
368.06778 140.0
368.398102 132.0
374.878052 96.0
376.195099 152.0
376.325043 148.0
379.086853 144.0
379.670776 100.0
389.424988 124.0
392.554291 140.0
433.753265 164.0
448.580719 152.0
450.302277 140.0
460.662262 168.0
614.299255 148.0
723.735413 108.0
794.371643 140.0
836.240723 148.0
1026.307617 160.0
1123.140869 140.0
1315.029907 176.0
1404.169678 172.0
1460.677856 148.0
1516.463257 172.0
1542.226196 204.0
1550.930054 164.0
1651.481689 152.0
1654.127686 240.0
1683.527832 180.0
1714.422852 196.0
1722.458984 140.0
1772.150757 140.0
1792.939941 160.0
1797.831299 180.0
1803.194092 220.0
1809.707764 212.0
1836.178101 156.0
1848.967651 180.0
1858.556641 164.0
1902.03064 140.0
1920.360474 184.0
1953.022095 156.0
1990.156738 152.0
1997.159424 176.0
