>compound Cytoxan
>formula C7H15Cl2N2O2P 
>ionization [M+H]+
>parentmass 261.03299
#inchi InChI=1S/C7H15Cl2N2O2P/c8-2-5-11(6-3-9)14(12)10-4-1-7-13-14/h1-7H2,(H,10,12)
#inchikey CMSMOCZEIVJLDB
#Ion_Source LC-ESI
#Instrument qTof
#Compound_Source Commercial
#PI Dorrestein
#Data_Collector Garg_Neha
#Scan -1
#Precursor_MZ 261.034
#ExactMass 260.025
#Charge 1
#CAS_Number N/A
#Pubmed_ID N/A
#Smiles N/A
#INCHI_AUX N/A
#Library_Class 1
#SpectrumID CCMSLIB00000077121
#IonMode Positive
#UpdateWorkflowName UPDATE-SINGLE-ANNOTATED-GOLD
#LibraryQualityString Gold
#TaskID 48f7f52fc6d249b5abbcc6e7b3df5969
##Scan# 1137
#SpectrumFile NCP003106_G2_H11_BB5_01_15708.mzXML
#LibraryName NIH_Clinical_Collection_2.mgf
#MQScore -1
#Organism NIHcollection2_04212014_2_mgf
#TIC_Query 0
#RT_Query -1
#MZErrorPPM -1
#SharedPeaks 0
#MassDiff 0
#LibMZ -1
#SpecMZ 261.034
#SpecCharge 0
#internalFilename spec-00000.mgf

>collision 10
45.003937 180.0
45.160294 184.0
47.020844 144.0
51.461048 196.0
51.840107 184.0
54.516289 144.0
56.464382 156.0
64.539551 228.0
65.362419 148.0
68.439003 148.0
74.500053 152.0
77.456116 164.0
78.877533 204.0
80.893387 144.0
81.483398 224.0
81.81971 172.0
82.451035 140.0
83.924744 120.0
91.988571 156.0
96.103386 140.0
101.59005 196.0
101.652245 212.0
102.010902 188.0
102.285332 156.0
104.026047 164.0
105.57225 168.0
106.005348 332.0
106.018402 252.0
106.041748 1316.0
108.03949 980.0
110.000244 112.0
111.373795 184.0
111.541893 140.0
112.014496 316.0
112.726357 184.0
113.151505 180.0
113.490501 180.0
113.617752 168.0
113.970192 200.0
117.87442 196.0
118.590752 188.0
120.020447 2696.0
122.033409 180.0
123.027016 144.0
125.572159 184.0
127.987938 172.0
128.044235 188.0
128.612411 184.0
130.451736 168.0
132.018127 144.0
134.527161 168.0
135.030869 144.0
138.03067 696.0
140.003204 9140.0
141.004776 220.0
141.286057 144.0
141.399643 176.0
141.65773 188.0
141.866257 184.0
142.000137 4552.0
142.01619 2508.0
142.978455 196.0
143.018051 148.0
143.943344 192.0
144.015167 2572.0
146.815826 164.0
147.976852 168.0
148.579147 184.0
149.480576 172.0
149.979828 148.0
151.338104 160.0
154.023956 148.0
154.989929 168.0
156.004013 380.0
156.531006 148.0
158.213837 172.0
158.998383 172.0
163.076828 148.0
163.14595 180.0
164.008881 152.0
166.429001 188.0
167.900925 176.0
169.423355 160.0
171.013214 284.0
171.197372 176.0
174.357635 164.0
176.693893 216.0
179.389404 140.0
182.040863 144.0
184.971558 144.0
185.022629 196.0
185.665161 236.0
186.007019 164.0
186.884827 196.0
188.040253 184.0
189.084259 192.0
195.832184 184.0
199.040695 148.0
201.030029 184.0
203.977036 212.0
205.761719 204.0
212.894211 164.0
217.783295 196.0
218.847839 180.0
222.991089 196.0
225.146301 156.0
227.049667 184.0
227.082657 148.0
227.670883 204.0
232.046219 148.0
233.001099 4940.0
233.360855 176.0
233.998184 304.0
234.998474 2752.0
235.12915 112.0
235.996414 180.0
236.943939 168.0
239.117966 228.0
240.927979 208.0
244.400421 180.0
245.225662 256.0
246.117859 148.0
248.816727 152.0
248.904648 140.0
249.498459 236.0
251.962952 148.0
256.810242 172.0
258.078033 152.0
260.170135 144.0
260.256805 156.0
260.420593 188.0
260.764374 200.0
261.03299 58544.0
261.121887 120.0
261.525146 172.0
261.656067 136.0
261.82077 124.0
262.035767 4236.0
262.309357 176.0
262.447998 160.0
262.776337 100.0
262.98941 336.0
263.030365 30372.0
263.121826 212.0
263.153564 196.0
263.249237 128.0
263.309601 212.0
263.363464 328.0
263.467621 140.0
263.677094 132.0
263.732422 96.0
264.034424 1996.0
264.132385 148.0
265.018951 168.0
265.37088 152.0
265.633545 144.0
362.9953 164.0
1140.430054 172.0
1246.50415 160.0
1416.513794 164.0
1418.641968 144.0
1429.051025 140.0
1484.18103 208.0
1596.934692 140.0
1615.192383 160.0
1653.47522 160.0
1718.185791 184.0
1728.563477 200.0
1738.009644 208.0
1785.105347 148.0
1799.960571 204.0
1955.901855 164.0
1962.244629 208.0
