>compound MLS000028756-01!(-)-BICUCULLINE METHOBROMIDE
>formula C21H20NO6
>ionization [M+H]+
>parentmass 383.13633881209057
#inchi InChI=1S/C21H20NO6/c1-22(2)6-5-11-7-15-16(26-9-25-15)8-13(11)18(22)19-12-3-4-14-20(27-10-24-14)17(12)21(23)28-19/h3-4,7-8,18-19H,5-6,9-10H2,1-2H3/q+1/t18-,19+/m0/s1
#inchikey WDIQXKYUSINZME
#origInchi InChI=1S/C21H20NO6.BrH/c1-22(2)6-5-11-7-15-16(26-9-25-15)8-13(11)18(22)19-12-3-4-14-20(27-10-24-14)17(12)21(23)28-19;/h3-4,7-8,18-19H,5-6,9-10H2,1-2H3;1H/q+1;/p-1/t18-,19+;/m0./s1
#Ion_Source LC-ESI
#Instrument qTof
#Compound_Source NIH Pharmacologically Active Library
#PI Dorrestein
#Data_Collector VP/LMS
#Scan -1
#Precursor_MZ 382.128
#ExactMass 382.129
#Charge 1
#CAS_Number N/A
#Pubmed_ID N/A
#Smiles C[N+]1(C)CCc2cc3OCOc3cc2[C@H]1[C@@H]4OC(=O)c5c6OCOc6ccc45.[Br-]
#INCHI_AUX N/A
#Library_Class 1
#SpectrumID CCMSLIB00000085791
#IonMode Positive
#UpdateWorkflowName UPDATE-SINGLE-ANNOTATED-GOLD
#LibraryQualityString Gold
#TaskID d252d724072548979f1f6f1ced849daf
##Scan# 1333
#SpectrumFile p4-F06_GF6_01_18390.mzXML
#LibraryName Pharm_Active_Library.mgf
#MQScore -1
#Organism Pharm_Active_Library
#TIC_Query 0
#RT_Query -1
#MZErrorPPM -1
#SharedPeaks 0
#MassDiff 0
#LibMZ -1
#SpecMZ 382.128
#SpecCharge 0
#internalFilename spec-00000.mgf

>collision 10
45.187363 128.0
45.513073 164.0
45.939728 112.0
46.532516 156.0
47.030773 36.0
47.309643 40.0
48.028351 168.0
48.038006 160.0
48.17136 200.0
48.264515 148.0
48.973694 156.0
51.06398 72.0
51.870747 176.0
52.370804 212.0
53.180527 176.0
55.051697 168.0
56.408272 148.0
56.674671 140.0
57.099514 124.0
57.179256 184.0
57.767738 108.0
58.826962 68.0
61.198292 244.0
61.583488 128.0
61.783581 176.0
62.26638 76.0
62.333935 152.0
62.937248 240.0
63.008324 52.0
63.082603 148.0
64.369583 236.0
64.713379 176.0
65.350594 172.0
65.482597 176.0
65.561546 160.0
66.211014 140.0
66.489769 192.0
66.579163 144.0
66.865311 204.0
67.212425 172.0
67.760178 84.0
67.774925 228.0
68.022583 240.0
69.002823 80.0
70.950821 160.0
71.789879 176.0
71.810112 136.0
72.376259 168.0
72.85965 116.0
72.94632 180.0
73.457199 132.0
73.610809 152.0
74.190849 176.0
74.54615 220.0
74.563339 36.0
74.879913 156.0
76.052208 44.0
76.868462 120.0
77.268593 144.0
77.755745 120.0
78.822975 136.0
79.506546 52.0
80.257256 140.0
80.871811 184.0
82.2108 120.0
84.493095 128.0
85.063042 164.0
85.358849 100.0
86.636108 156.0
86.801071 148.0
86.890106 128.0
87.315491 200.0
87.945259 176.0
88.117065 180.0
88.18808 132.0
88.781586 196.0
89.465546 168.0
89.748161 148.0
89.899071 112.0
90.68206 220.0
90.979874 60.0
91.06913 80.0
91.093819 156.0
91.316216 172.0
91.672234 164.0
92.025131 224.0
92.309845 148.0
92.516487 124.0
92.861412 152.0
92.918961 108.0
93.19352 136.0
93.695694 96.0
94.485336 156.0
95.02977 96.0
95.655563 76.0
96.512054 112.0
98.189148 188.0
98.595856 124.0
100.923744 192.0
101.115791 160.0
102.046593 164.0
102.104904 184.0
103.048325 176.0
103.706024 168.0
104.251984 144.0
104.754547 100.0
105.029747 116.0
105.278748 184.0
105.601669 40.0
105.951714 52.0
106.064423 112.0
106.251045 104.0
106.639153 160.0
107.925568 84.0
108.50946 172.0
108.602783 148.0
109.240501 68.0
109.602768 92.0
109.996948 132.0
110.513168 100.0
110.59478 176.0
112.421211 96.0
112.691505 76.0
113.383476 204.0
114.560654 212.0
115.055893 148.0
115.179291 168.0
115.499931 168.0
116.700912 164.0
116.89666 156.0
117.060265 160.0
117.553932 128.0
117.953499 132.0
118.581215 120.0
118.724312 136.0
119.22364 112.0
119.737083 140.0
120.151253 40.0
120.629524 40.0
120.734474 156.0
121.027267 556.0
121.520882 140.0
121.974327 224.0
123.021873 172.0
123.123451 76.0
123.689484 100.0
123.804619 100.0
123.92202 68.0
124.745399 124.0
124.836563 156.0
126.702621 156.0
127.773544 212.0
128.174332 172.0
128.235184 152.0
128.722488 92.0
129.013962 184.0
130.042847 288.0
130.076431 220.0
130.50354 88.0
130.665039 136.0
131.046356 184.0
132.081726 364.0
132.276245 156.0
133.333649 136.0
134.067795 160.0
134.206116 148.0
134.997238 140.0
135.04454 316.0
137.045563 140.0
137.064209 128.0
137.213379 208.0
137.542313 208.0
137.757156 128.0
138.52446 108.0
138.75882 52.0
139.052048 160.0
140.423737 156.0
140.506302 144.0
140.839157 144.0
141.873291 144.0
142.105713 56.0
142.217255 156.0
143.044464 96.0
143.747574 148.0
144.084244 152.0
144.780334 180.0
145.086273 300.0
145.927353 128.0
146.035568 148.0
146.069244 132.0
146.090897 116.0
147.043961 336.0
147.066833 180.0
147.090973 212.0
147.127182 168.0
147.784592 120.0
148.14534 116.0
148.550186 40.0
148.576874 72.0
149.020676 708.0
149.058517 484.0
149.198608 116.0
149.967834 176.0
150.023911 92.0
150.065353 164.0
150.829483 88.0
151.050751 216.0
152.039459 152.0
153.059662 144.0
153.628998 92.0
153.794342 32.0
154.35022 56.0
155.474899 204.0
155.586609 152.0
155.775345 80.0
156.225296 104.0
156.31488 124.0
156.596207 160.0
156.69841 136.0
156.900208 140.0
157.271912 32.0
158.058548 196.0
158.971313 40.0
159.053787 168.0
159.247482 152.0
159.428375 112.0
159.531433 216.0
159.833252 104.0
159.928894 204.0
159.999374 152.0
160.047287 432.0
160.072784 156.0
160.301636 180.0
160.760605 184.0
161.058105 508.0
162.062897 56.0
163.039871 140.0
163.067841 196.0
163.393326 124.0
164.040192 128.0
164.205933 164.0
164.757309 120.0
165.035904 144.0
165.064178 176.0
165.248199 124.0
165.624527 160.0
166.073837 184.0
167.257645 116.0
167.499695 40.0
168.567856 164.0
168.640213 120.0
168.95311 124.0
169.082489 132.0
169.25853 112.0
169.517578 188.0
170.605118 80.0
171.04216 180.0
171.091629 212.0
171.27652 184.0
171.586639 136.0
172.03537 180.0
172.121521 156.0
172.461166 144.0
173.010498 120.0
173.052399 408.0
173.082764 488.0
173.285507 152.0
173.891266 124.0
174.038284 96.0
174.05928 168.0
174.088104 632.0
174.2379 120.0
174.340378 120.0
174.416595 192.0
174.937454 160.0
175.042175 188.0
175.097107 712.0
175.395813 260.0
175.646317 144.0
175.762405 132.0
176.058075 188.0
176.092407 136.0
176.912125 224.0
177.017822 1204.0
177.054825 456.0
177.067703 332.0
177.102798 124.0
177.145172 44.0
177.420792 32.0
177.447296 44.0
177.699265 128.0
178.021561 296.0
178.075516 436.0
178.110764 120.0
178.421677 108.0
178.581238 132.0
179.033356 804.0
179.083832 128.0
179.198853 112.0
180.007065 176.0
180.036453 208.0
181.055389 120.0
181.634338 144.0
181.677261 44.0
181.891953 132.0
182.8004 164.0
183.058823 220.0
183.948578 80.0
186.084641 140.0
186.478546 148.0
186.535629 192.0
187.030701 156.0
187.08786 164.0
187.627289 144.0
188.02829 164.0
188.067612 1384.0
188.842484 132.0
189.071503 320.0
189.121567 52.0
190.020432 132.0
190.042389 204.0
190.083511 2192.0
190.171371 80.0
190.924179 148.0
191.088501 816.0
191.369965 112.0
191.863144 44.0
192.089279 160.0
192.395599 128.0
192.774017 116.0
193.061081 224.0
193.565186 128.0
193.789551 196.0
194.072266 204.0
194.288605 60.0
194.988373 120.0
195.043961 184.0
195.069626 172.0
195.469482 140.0
195.514008 40.0
195.628128 160.0
197.047684 124.0
197.15947 176.0
197.892365 140.0
198.200485 32.0
200.054184 136.0
201.081253 300.0
201.823196 124.0
202.001389 64.0
202.084122 148.0
203.050491 368.0
203.092194 2088.0
204.055923 372.0
204.099487 284.0
204.216751 48.0
204.646469 60.0
204.808807 44.0
205.061157 1516.0
205.103683 132.0
205.52153 48.0
205.564331 48.0
205.712753 224.0
206.067596 336.0
206.281235 32.0
207.038956 216.0
207.074936 596.0
207.099625 168.0
207.65921 208.0
208.084915 236.0
208.281418 192.0
208.629135 68.0
209.054825 148.0
209.359985 196.0
209.601974 72.0
210.066162 40.0
210.216202 48.0
210.825546 160.0
211.072968 132.0
211.655777 188.0
212.070068 140.0
212.484756 120.0
214.753815 192.0
214.826736 176.0
215.06311 208.0
216.097504 136.0
216.730087 196.0
217.065613 320.0
217.466187 56.0
217.824417 208.0
217.880234 120.0
217.983078 160.0
218.065369 172.0
219.045212 164.0
219.08403 176.0
219.27504 144.0
220.046661 160.0
220.095093 172.0
220.355087 108.0
221.05835 556.0
221.43779 104.0
222.061584 320.0
222.419235 56.0
222.517212 164.0
222.888489 36.0
223.077194 312.0
223.340393 208.0
223.971436 172.0
225.089844 172.0
226.184097 188.0
226.915085 60.0
227.014038 136.0
227.065018 64.0
229.075928 116.0
229.241638 100.0
231.039612 260.0
231.531616 128.0
231.907303 176.0
231.955811 152.0
232.048126 184.0
232.656586 152.0
232.802322 168.0
233.057404 2180.0
233.093964 156.0
233.118271 216.0
233.306717 108.0
233.422256 56.0
233.452667 56.0
233.586502 160.0
233.683853 44.0
234.060303 688.0
235.072617 888.0
235.198486 56.0
236.053955 120.0
236.099823 128.0
237.047791 256.0
237.087936 148.0
237.278732 60.0
237.386063 80.0
237.476822 148.0
237.62532 32.0
238.088837 152.0
241.423431 64.0
243.381897 144.0
243.863434 124.0
244.040634 144.0
244.21167 156.0
244.871521 164.0
245.056396 332.0
246.053375 152.0
246.796997 88.0
246.990906 212.0
247.07338 832.0
248.083801 116.0
248.105743 116.0
248.171585 240.0
248.278198 116.0
248.522888 32.0
249.05098 516.0
250.056076 284.0
250.084793 48.0
250.869156 220.0
250.922745 136.0
251.070328 428.0
251.115112 220.0
252.066864 168.0
253.049561 212.0
253.080765 100.0
253.616165 88.0
253.761993 180.0
254.082336 96.0
257.098877 112.0
258.066803 148.0
258.364258 140.0
259.04245 108.0
259.334534 208.0
260.04184 180.0
260.386932 152.0
260.605377 80.0
260.936432 108.0
261.01358 104.0
261.052887 5288.0
261.135803 56.0
261.367432 56.0
261.866425 36.0
262.011383 40.0
262.060059 980.0
262.617432 52.0
262.762604 92.0
263.06955 1888.0
263.295227 48.0
263.977112 60.0
264.070618 564.0
264.97406 52.0
265.046295 192.0
265.09201 236.0
266.060547 108.0
266.180695 36.0
266.427551 40.0
266.869568 88.0
266.937836 152.0
267.061707 160.0
267.308685 48.0
268.530396 76.0
268.556488 52.0
268.732666 48.0
269.281097 212.0
269.62088 132.0
271.664093 244.0
272.015228 128.0
272.793793 116.0
273.046448 288.0
274.008179 180.0
274.054626 132.0
275.06839 340.0
275.684448 84.0
276.011719 228.0
276.041473 212.0
276.070282 140.0
276.100983 112.0
276.289551 148.0
277.047577 268.0
277.670868 56.0
278.058289 176.0
278.122101 196.0
278.663422 140.0
279.063568 968.0
279.321686 144.0
280.068146 356.0
280.143921 176.0
280.903992 128.0
281.042969 452.0
281.087494 128.0
282.077698 120.0
283.059753 112.0
286.078217 148.0
288.091553 132.0
288.453125 116.0
289.04718 4616.0
289.112701 140.0
289.177002 96.0
289.217621 72.0
289.305634 60.0
289.505402 68.0
290.052063 872.0
290.118683 192.0
290.53244 72.0
290.620667 76.0
290.708893 72.0
291.063568 1348.0
291.275421 124.0
291.337036 52.0
291.493347 40.0
291.564697 32.0
291.738068 92.0
291.885864 100.0
291.993103 100.0
292.070648 1236.0
292.301147 80.0
292.466034 40.0
292.612427 64.0
292.711151 52.0
292.932556 60.0
293.078278 468.0
293.805267 40.0
294.087189 184.0
294.501678 100.0
295.05426 352.0
295.718903 48.0
296.092102 156.0
299.048279 92.0
299.864563 152.0
300.181732 104.0
301.041016 152.0
302.83255 116.0
302.908752 188.0
303.02066 120.0
303.064117 2524.0
303.22406 72.0
303.68866 28.0
304.066284 652.0
304.792664 96.0
304.848267 104.0
305.064453 156.0
305.100739 272.0
306.04837 180.0
306.114532 116.0
306.438477 164.0
306.511658 52.0
306.663544 76.0
306.745178 80.0
306.842773 112.0
307.060181 1132.0
307.725494 64.0
308.066315 496.0
308.357788 88.0
308.462646 60.0
309.07074 636.0
310.461945 96.0
311.07901 148.0
311.29718 64.0
311.483307 108.0
311.975311 180.0
316.084351 128.0
317.041962 304.0
317.962616 48.0
318.125885 160.0
318.552032 136.0
319.058319 2820.0
319.351837 176.0
319.672028 88.0
319.949677 76.0
320.060699 872.0
320.409088 36.0
320.580139 112.0
320.697754 100.0
321.074799 792.0
321.114929 164.0
321.468109 32.0
322.046478 132.0
322.071503 168.0
322.107208 144.0
322.189392 80.0
322.318024 60.0
322.761261 208.0
323.053406 356.0
323.090302 128.0
323.594971 124.0
324.057983 160.0
324.107147 136.0
324.444061 52.0
327.880493 36.0
328.21936 60.0
328.244598 36.0
332.205109 168.0
333.069061 144.0
333.094513 192.0
334.070801 328.0
334.942413 144.0
335.05899 176.0
335.613007 96.0
335.71875 112.0
336.090851 192.0
336.123138 188.0
337.072266 856.0
338.088379 160.0
338.34964 108.0
338.525391 92.0
338.990631 76.0
339.080078 868.0
339.11731 168.0
339.716614 44.0
340.08078 324.0
340.142303 108.0
340.186371 108.0
346.111328 200.0
348.085693 168.0
349.091156 80.0
350.095947 136.0
357.613953 68.0
357.915131 164.0
364.109741 120.0
366.091034 156.0
367.105865 332.0
368.099609 200.0
369.098114 84.0
379.328064 48.0
379.611115 116.0
380.876373 116.0
381.474823 88.0
381.820862 100.0
381.902557 136.0
382.125946 2480.0
383.129852 676.0
383.191101 132.0
383.444397 76.0
384.12207 176.0
384.36087 124.0
385.149506 164.0
385.508942 64.0
385.669189 64.0
385.739563 112.0
386.635254 36.0
386.760498 120.0
387.077637 32.0
387.7005 88.0
417.125977 52.0
443.317535 76.0
460.025482 48.0
468.443665 100.0
479.820068 52.0
485.85553 88.0
490.71991 112.0
494.921906 68.0
498.092957 64.0
513.937622 32.0
515.518066 100.0
557.147583 72.0
559.899353 52.0
581.691711 44.0
598.848328 132.0
604.00769 92.0
608.948547 92.0
646.38324 72.0
706.45282 92.0
762.690979 44.0
781.411072 36.0
809.341919 84.0
892.446472 104.0
906.702026 60.0
1013.591248 224.0
1100.651733 64.0
1133.259033 80.0
1179.676025 164.0
1200.135986 152.0
1236.665039 76.0
1279.979126 168.0
1296.660522 44.0
1361.915894 60.0
1392.636353 120.0
1432.929321 208.0
1436.978149 296.0
1439.25 124.0
1439.831543 156.0
1449.924194 192.0
1451.15979 48.0
1502.813843 224.0
