>compound Cilnidipine
>formula C27H28N2O7
>ionization [M+Na]+
>parentmass 515.178711
#inchi InChI=1S/C27H28N2O7/c1-18-23(26(30)35-14-8-11-20-9-5-4-6-10-20)25(21-12-7-13-22(17-21)29(32)33)24(19(2)28-18)27(31)36-16-15-34-3/h4-13,17,25,28H,14-16H2,1-3H3/b11-8+
#inchikey KJEBULYHNRNJTE
#Ion_Source LC-ESI
#Instrument qTof
#Compound_Source Commercial
#PI Dorrestein
#Data_Collector Garg_Neha
#Scan -1
#Precursor_MZ 515.179
#ExactMass 492.19
#Charge 1
#CAS_Number 132203-70-4
#Pubmed_ID N/A
#Smiles C1=CC=C(C=C1C2C(=C(NC(=C2C(OCCOC)=O)C)C)C(OC/C=C/C3=CC=CC=C3)=O)[N+](=O)[O-]
#INCHI_AUX N/A
#Library_Class 1
#SpectrumID CCMSLIB00000078090
#IonMode Positive
#UpdateWorkflowName UPDATE-SINGLE-ANNOTATED-GOLD
#LibraryQualityString Gold
#TaskID 77f51c88eb8b467eb4a01dd2d0cb90d2
##Scan# 2708
#SpectrumFile Plate2_1_20_GG5_01_16493.mzXML
#LibraryName FDALibrary_2_04302014.mgf
#MQScore -1
#Organism FDALibrary_2_04302014
#TIC_Query 0
#RT_Query -1
#MZErrorPPM -1
#SharedPeaks 0
#MassDiff 0
#LibMZ -1
#SpecMZ 515.179
#SpecCharge 0
#internalFilename spec-00000.mgf

>collision 10
47.468708 148.0
47.843807 188.0
50.396336 168.0
52.31179 176.0
56.481483 184.0
59.746357 224.0
63.467129 168.0
75.916412 164.0
83.456482 152.0
85.437271 204.0
86.518745 156.0
89.555183 172.0
94.838852 204.0
104.947083 164.0
115.054924 336.0
116.058502 184.0
117.070541 3256.0
118.073326 232.0
119.018547 132.0
130.977539 200.0
132.329498 148.0
135.047302 176.0
150.177887 168.0
152.42778 172.0
154.320831 196.0
177.967285 168.0
181.084656 124.0
189.21167 264.0
196.983078 176.0
199.134277 148.0
209.081772 180.0
210.08493 164.0
225.100967 152.0
226.089813 128.0
227.08815 200.0
231.866959 140.0
232.096069 628.0
233.092987 200.0
234.048126 140.0
235.075394 192.0
236.159973 236.0
239.727493 200.0
240.101974 192.0
240.483093 192.0
242.936935 252.0
246.680115 180.0
248.060211 152.0
250.091522 296.0
253.006622 148.0
253.161774 168.0
260.996063 144.0
261.062988 324.0
261.237274 160.0
265.630646 148.0
265.883728 164.0
269.034576 144.0
272.999268 144.0
273.34137 180.0
276.081787 348.0
276.678314 160.0
277.06015 1868.0
277.848236 188.0
278.059845 340.0
279.070831 280.0
281.566406 144.0
283.074646 132.0
284.121368 108.0
286.30191 148.0
288.092957 176.0
289.259644 148.0
294.748993 172.0
294.936951 160.0
299.724548 168.0
300.51416 168.0
301.0112 140.0
302.231415 140.0
303.915375 148.0
309.019867 152.0
314.008911 128.0
314.675079 252.0
316.064178 208.0
319.121704 164.0
320.121582 152.0
320.84845 164.0
323.578003 140.0
326.170349 180.0
332.427277 140.0
332.833832 148.0
333.960419 148.0
334.080475 160.0
335.927429 160.0
337.11911 612.0
338.118835 260.0
339.442261 156.0
345.016785 144.0
348.407806 172.0
351.73703 164.0
353.029755 180.0
353.111237 1820.0
354.032715 172.0
354.113892 472.0
354.81958 164.0
355.10849 100.0
356.114227 168.0
357.037109 160.0
359.019714 200.0
360.318207 160.0
361.759094 160.0
362.186981 148.0
367.249969 160.0
370.683136 180.0
374.609833 144.0
375.207153 164.0
376.059662 168.0
376.828156 152.0
378.320984 180.0
380.903687 140.0
380.973602 176.0
381.105255 460.0
382.108917 164.0
389.055511 160.0
391.046692 148.0
393.875122 156.0
394.083191 184.0
395.147583 168.0
395.281281 172.0
396.770569 156.0
397.100159 4380.0
397.381348 176.0
398.109619 1044.0
399.098877 480.0
399.158478 108.0
399.697815 156.0
400.075928 160.0
400.117401 128.0
400.478119 236.0
401.522369 216.0
403.219147 140.0
411.018036 168.0
412.172882 156.0
413.968933 168.0
414.118805 156.0
416.747559 184.0
419.258301 144.0
425.479858 144.0
425.997284 188.0
429.360138 156.0
431.048065 96.0
432.19812 160.0
433.036682 172.0
433.075775 140.0
433.403076 228.0
435.028748 136.0
435.044464 132.0
439.377808 168.0
439.50296 188.0
442.361664 144.0
446.68811 144.0
447.462463 164.0
449.052185 416.0
450.477844 140.0
451.067657 160.0
452.054077 184.0
454.852203 192.0
455.058319 116.0
456.432648 160.0
457.756042 180.0
458.045654 140.0
458.135101 144.0
464.534729 200.0
465.775299 160.0
467.066895 120.0
469.347412 172.0
470.193634 120.0
470.469177 180.0
471.039215 172.0
471.108337 152.0
471.188782 16048.0
471.34787 200.0
472.191406 5856.0
472.526764 160.0
473.117432 116.0
473.197205 940.0
474.196259 200.0
474.982697 164.0
475.355804 160.0
478.894684 208.0
480.799988 164.0
482.02713 168.0
491.132416 420.0
491.728363 164.0
495.154816 184.0
496.258209 176.0
496.324738 160.0
502.93573 176.0
503.462585 164.0
508.658661 132.0
510.291626 160.0
512.202881 168.0
512.771973 168.0
513.290405 168.0
513.533936 256.0
513.66925 156.0
513.930969 180.0
514.175171 136.0
514.477051 212.0
514.749146 116.0
514.911987 160.0
514.970093 232.0
515.061401 192.0
515.178711 40912.0
515.341064 356.0
515.464417 104.0
515.63562 164.0
515.810181 292.0
515.846741 160.0
516.018188 112.0
516.183167 12916.0
516.326294 144.0
516.588379 124.0
517.182617 2500.0
517.255615 236.0
517.303345 116.0
517.46875 268.0
518.187744 420.0
518.963684 104.0
519.234985 96.0
519.297852 124.0
519.462219 108.0
520.315063 124.0
657.237427 152.0
741.256531 160.0
767.434753 156.0
864.270569 144.0
1199.614746 144.0
1591.231445 180.0
1698.595093 172.0
1714.743896 152.0
1754.358032 208.0
1802.434692 212.0
