>compound MLS002153222-01!N-(3,3-Diphenylpropyl)glycinamide
>formula C17H20N2O
>ionization [M+H]+
>parentmass 269.1648397120905
#inchi InChI=1S/C17H20N2O/c18-17(20)13-19-12-11-16(14-7-3-1-4-8-14)15-9-5-2-6-10-15/h1-10,16,19H,11-13H2,(H2,18,20)
#inchikey BYGXICRJQZKUPA
#Ion_Source LC-ESI
#Instrument qTof
#Compound_Source NIH Pharmacologically Active Library
#PI Dorrestein
#Data_Collector VP/LMS
#Scan -1
#Precursor_MZ 269.165
#ExactMass 268.158
#Charge 1
#CAS_Number N/A
#Pubmed_ID N/A
#Smiles NC(=O)CNCCC(c1ccccc1)c2ccccc2
#INCHI_AUX N/A
#Library_Class 1
#SpectrumID CCMSLIB00000085083
#IonMode Positive
#UpdateWorkflowName UPDATE-SINGLE-ANNOTATED-GOLD
#LibraryQualityString Gold
#TaskID d252d724072548979f1f6f1ced849daf
##Scan# 1573
#SpectrumFile p3-E07_GE7_01_18276.mzXML
#LibraryName Pharm_Active_Library.mgf
#MQScore -1
#Organism Pharm_Active_Library
#TIC_Query 0
#RT_Query -1
#MZErrorPPM -1
#SharedPeaks 0
#MassDiff 0
#LibMZ -1
#SpecMZ 269.165
#SpecCharge 0
#internalFilename spec-00000.mgf

>collision 10
45.17561 232.0
46.009647 140.0
46.149685 204.0
46.53828 140.0
46.672806 172.0
46.852474 240.0
46.97654 164.0
47.354622 236.0
47.683121 132.0
49.024269 152.0
49.166523 100.0
49.261475 164.0
50.372711 204.0
50.450439 204.0
50.48296 68.0
50.935108 100.0
51.03175 172.0
51.168343 48.0
51.223885 140.0
51.266632 96.0
51.492054 156.0
51.547771 208.0
52.070702 128.0
52.270607 160.0
53.340855 88.0
53.352486 184.0
53.404839 164.0
53.428112 228.0
53.553307 176.0
53.820194 212.0
55.120247 176.0
56.077518 128.0
56.745762 160.0
57.035511 208.0
57.219048 200.0
57.648956 48.0
57.706398 128.0
57.944027 188.0
58.442055 124.0
58.911655 156.0
59.639557 180.0
59.773365 188.0
59.802605 56.0
59.981289 104.0
60.167961 60.0
60.192665 120.0
60.92997 124.0
60.993687 144.0
61.116554 100.0
61.144566 200.0
61.337711 184.0
61.490574 152.0
61.698338 128.0
62.205929 204.0
62.216919 76.0
62.979115 152.0
63.203617 200.0
63.699875 132.0
63.944752 148.0
64.076927 176.0
64.983505 196.0
65.229225 64.0
65.258163 180.0
66.001518 232.0
66.519981 112.0
66.620667 128.0
67.02092 172.0
67.259033 136.0
67.355377 116.0
67.386421 188.0
67.435448 100.0
67.657921 112.0
67.681564 228.0
67.749634 68.0
68.012016 204.0
68.615776 220.0
69.00708 156.0
69.197357 112.0
69.306679 128.0
69.525581 184.0
70.001045 172.0
70.124336 112.0
70.386261 160.0
70.556694 180.0
70.918289 116.0
70.976967 80.0
71.38839 116.0
71.684685 184.0
71.747047 132.0
71.807755 228.0
71.88459 192.0
72.160698 180.0
72.507729 160.0
73.129379 204.0
73.141289 56.0
73.214508 124.0
74.13707 196.0
74.335999 200.0
74.351448 228.0
74.753593 184.0
76.390434 212.0
76.770149 244.0
76.855629 44.0
76.953369 140.0
77.278481 76.0
77.448296 172.0
77.492096 116.0
78.001045 248.0
78.152298 188.0
78.656349 156.0
78.70755 108.0
79.110672 192.0
79.456268 232.0
79.482887 88.0
79.523705 156.0
79.854187 116.0
79.896881 152.0
79.996544 104.0
80.881973 116.0
81.331902 236.0
82.201202 140.0
82.513695 148.0
82.687355 136.0
82.939125 188.0
83.038857 48.0
83.084206 136.0
83.113235 120.0
83.429268 112.0
83.720406 28.0
84.355385 124.0
84.507179 196.0
85.711746 80.0
86.680046 176.0
87.584854 224.0
87.789879 160.0
87.802933 208.0
87.91114 64.0
88.445686 124.0
88.709816 176.0
88.723557 208.0
89.617592 108.0
90.647446 148.0
90.933823 236.0
90.983177 236.0
91.05423 2216.0
91.087624 172.0
91.226349 120.0
91.515541 48.0
92.020477 112.0
92.058151 548.0
92.838837 116.0
93.064346 172.0
93.256462 140.0
93.521896 152.0
94.413292 220.0
95.087517 176.0
96.120918 220.0
96.351326 184.0
96.554619 204.0
96.632866 180.0
96.938339 84.0
97.399414 140.0
97.56842 124.0
99.042572 172.0
99.220932 112.0
99.411354 68.0
99.437897 204.0
100.216713 136.0
100.256561 96.0
100.398109 36.0
100.873329 160.0
100.939308 216.0
101.115356 168.0
101.263519 148.0
101.606308 216.0
101.829132 148.0
102.106537 188.0
102.323822 88.0
102.876976 220.0
103.05246 268.0
103.809494 84.0
104.178421 188.0
105.117073 136.0
105.308983 76.0
105.515381 124.0
106.36557 164.0
106.404572 188.0
107.586334 160.0
107.64621 172.0
108.07618 60.0
108.256271 132.0
109.115334 156.0
109.62323 168.0
109.967346 88.0
110.000748 224.0
110.107239 156.0
110.383102 36.0
110.548363 108.0
111.225349 164.0
111.274437 188.0
111.967575 176.0
112.612976 128.0
112.710152 124.0
112.811607 104.0
113.323784 216.0
113.361923 148.0
113.402191 168.0
113.871101 252.0
114.54113 104.0
114.88221 116.0
114.939819 180.0
115.05304 4524.0
115.119133 40.0
115.146896 48.0
115.324242 96.0
115.514549 140.0
115.95565 104.0
116.032822 48.0
116.059517 488.0
116.27951 68.0
116.29454 48.0
116.442688 208.0
116.590935 220.0
116.629623 156.0
117.069466 2160.0
117.161156 44.0
117.2883 64.0
117.411201 56.0
117.954712 212.0
118.069397 476.0
118.930092 132.0
118.962654 208.0
119.084251 44.0
119.142906 228.0
119.277641 208.0
119.630051 144.0
120.024414 196.0
120.078369 200.0
120.500252 200.0
120.705719 132.0
120.96389 128.0
121.909233 152.0
121.937805 112.0
122.472473 244.0
123.028183 204.0
123.090004 164.0
123.377243 148.0
123.910629 116.0
124.51178 160.0
124.69397 160.0
125.27919 104.0
125.84346 96.0
127.924034 188.0
128.06218 520.0
129.298676 52.0
130.935638 308.0
131.090546 116.0
131.168045 136.0
131.510193 184.0
131.601517 268.0
131.717987 188.0
131.877945 88.0
133.071487 176.0
133.124298 104.0
133.289703 180.0
133.372437 184.0
133.682938 220.0
134.434204 112.0
135.106598 208.0
135.908264 172.0
135.938431 52.0
136.212402 156.0
137.841003 172.0
138.702286 216.0
138.784348 140.0
139.023621 204.0
139.825043 92.0
140.029877 164.0
140.161804 72.0
140.670151 112.0
140.949951 136.0
141.066498 416.0
141.486862 128.0
141.512909 72.0
141.96788 88.0
142.069672 144.0
143.508789 216.0
145.125153 120.0
146.249481 136.0
147.465134 156.0
148.227478 172.0
148.39473 176.0
148.846054 224.0
149.050095 136.0
149.390488 152.0
149.441589 152.0
149.702042 152.0
150.045609 204.0
150.279755 216.0
150.404221 64.0
150.448166 168.0
150.482346 196.0
150.501877 172.0
150.895264 116.0
151.052643 484.0
151.551224 168.0
151.747314 196.0
151.842941 80.0
151.882187 112.0
151.993973 148.0
152.017487 56.0
152.061111 8484.0
152.125137 136.0
152.206161 76.0
152.419861 76.0
152.439529 40.0
152.51326 84.0
152.737015 224.0
152.932632 144.0
152.990494 140.0
153.029877 168.0
153.066223 1828.0
153.3526 64.0
153.453674 112.0
153.85582 176.0
153.885452 176.0
153.922485 132.0
154.018814 100.0
154.060806 180.0
154.107758 108.0
154.273346 160.0
154.555298 164.0
154.797882 96.0
154.934128 72.0
156.080826 124.0
157.264206 128.0
157.946365 180.0
158.199097 172.0
159.568939 52.0
160.1427 236.0
160.68721 164.0
162.425217 212.0
162.676437 212.0
162.775467 40.0
162.955811 140.0
163.042206 236.0
164.056641 212.0
164.335831 120.0
164.414932 144.0
164.652374 120.0
164.744324 108.0
164.762207 220.0
164.948776 108.0
165.001617 184.0
165.027328 168.0
165.068939 11324.0
165.555161 136.0
165.583344 148.0
165.642242 232.0
165.7883 76.0
165.998505 228.0
166.076004 3684.0
166.113922 60.0
166.167801 48.0
166.260178 252.0
166.714752 52.0
166.802139 184.0
166.87413 132.0
166.89212 188.0
166.96669 56.0
167.084122 13072.0
167.183807 92.0
167.268616 152.0
167.317078 48.0
167.462204 176.0
167.507233 84.0
167.558746 72.0
167.610291 40.0
168.053787 80.0
168.087006 2536.0
168.273178 164.0
168.335159 40.0
168.363556 100.0
168.399719 64.0
168.914108 80.0
169.063995 352.0
169.092651 144.0
169.291992 112.0
169.514786 40.0
169.592529 120.0
170.217789 72.0
170.287903 96.0
170.589325 72.0
171.10704 164.0
171.16954 80.0
172.016891 216.0
172.309387 52.0
174.68988 180.0
177.068161 204.0
178.080322 224.0
179.084991 392.0
180.006882 104.0
180.09137 340.0
181.099518 496.0
181.315079 96.0
182.100784 184.0
182.593048 56.0
184.580612 128.0
185.116425 160.0
185.563522 124.0
187.26741 112.0
193.072403 144.0
193.101242 160.0
195.041 188.0
195.113861 268.0
197.12854 108.0
198.152664 244.0
202.105881 248.0
202.128525 164.0
202.998184 156.0
209.331009 32.0
210.129456 232.0
212.139053 144.0
213.140778 80.0
217.44545 216.0
224.138092 172.0
226.118057 116.0
228.12178 80.0
229.102844 120.0
244.370132 120.0
244.690704 68.0
250.909927 52.0
254.526474 48.0
268.680206 48.0
269.162323 416.0
270.163452 164.0
270.713318 52.0
272.198853 96.0
282.319946 68.0
283.629059 96.0
306.804138 140.0
317.142975 68.0
323.676971 52.0
337.913727 64.0
350.296661 52.0
444.151215 52.0
444.881409 52.0
467.792694 76.0
515.042847 76.0
543.489502 132.0
644.359436 32.0
751.037109 88.0
853.143982 184.0
867.745789 148.0
881.153381 176.0
895.688049 168.0
896.957336 168.0
906.358521 176.0
909.207031 120.0
912.528931 80.0
914.056702 180.0
951.156921 36.0
962.028381 212.0
974.532959 188.0
1029.56311 168.0
1037.253906 200.0
1046.692017 144.0
1053.205811 180.0
1055.674805 160.0
1058.755249 196.0
1061.185303 92.0
1076.901489 28.0
1077.411011 160.0
1079.561523 160.0
1080.483765 132.0
1087.626953 108.0
1089.314575 120.0
1094.661865 204.0
1095.043823 36.0
1106.514282 112.0
1115.73645 212.0
1118.590454 216.0
1133.129395 88.0
1147.209351 184.0
1157.580811 148.0
1164.933228 152.0
1168.352783 128.0
1184.580322 200.0
1185.991821 212.0
1198.679077 144.0
1206.706787 108.0
1208.927124 176.0
1210.353271 188.0
1214.643311 196.0
1228.416992 120.0
1229.400879 176.0
1231.830688 160.0
1231.984375 32.0
1245.448242 228.0
1253.877563 104.0
1260.490112 164.0
1263.863159 180.0
1272.496338 216.0
1275.949341 188.0
1285.808105 164.0
1299.332642 288.0
1304.187256 180.0
1315.57605 264.0
1317.432129 168.0
1320.540405 104.0
1321.835449 224.0
1326.246094 160.0
1334.391357 192.0
1339.128784 144.0
1345.173706 60.0
1352.432373 120.0
1354.775757 160.0
1355.53772 152.0
1359.402344 232.0
1363.573853 200.0
1364.448608 208.0
1367.162964 96.0
1377.020264 128.0
1379.783936 112.0
1383.23877 188.0
1387.372559 212.0
1389.87207 188.0
1398.507812 108.0
1403.141479 132.0
1407.050903 116.0
1411.160278 260.0
1419.449341 188.0
1422.375366 140.0
1425.116699 80.0
1426.785156 152.0
1426.897949 228.0
1431.141602 56.0
1434.773193 208.0
1439.353149 168.0
1440.0177 204.0
1443.161499 180.0
1443.335449 104.0
1454.389038 152.0
1459.597168 156.0
1461.28186 232.0
1462.187378 216.0
1463.260742 204.0
1466.490723 128.0
1472.304565 160.0
1474.994019 40.0
1478.321167 184.0
1481.008545 176.0
1482.387573 180.0
1485.111084 152.0
1485.753662 188.0
1497.08374 152.0
1500.505005 160.0
1501.453491 188.0
1504.277588 200.0
