>compound Ezetimibe
>formula C24H21F2NO3 
>ionization [M+H]+
>parentmass 410.156
#inchi InChI=1S/C24H21F2NO3/c25-17-5-1-15(2-6-17)22(29)14-13-21-23(16-3-11-20(28)12-4-16)27(24(21)30)19-9-7-18(26)8-10-19/h1-12,21-23,28-29H,13-14H2/t21-,22+,23-/m1/s1
#inchikey OLNTVTPDXPETLC
#Ion_Source LC-ESI
#Instrument qTof
#Compound_Source Isolated
#PI Sirenas
#Data_Collector Ed Esquenazi 
#Scan -1
#Precursor_MZ 410.156
#ExactMass 0.0
#Charge 1
#CAS_Number N/A
#Pubmed_ID N/A
#Smiles N/A
#INCHI_AUX N/A
#Library_Class 3
#SpectrumID CCMSLIB00000006304
#IonMode Positive
#UpdateWorkflowName UPDATE-SINGLE-ANNOTATED-BRONZE
#LibraryQualityString Bronze
#TaskID d19310cd93df49b68e9fcbec27720eb5
##Scan# 6
#SpectrumFile Ezetimibe.mgf
#LibraryName fda_library.mgf
#MQScore -1
#Organism fda_library
#TIC_Query 0
#RT_Query -1
#MZErrorPPM -1
#SharedPeaks 0
#MassDiff 0
#LibMZ -1
#SpecMZ 410.156
#SpecCharge 0
#internalFilename spec-00000.mgf

>collision 10
105.035629 22.408331
105.069252 323.413513
107.049934 209.583893
109.041969 148.809494
115.053444 633.987122
115.424347 16.66667
115.483871 11.66667
115.66066 11.20119
115.761024 15.97989
116.480438 20.36937
117.318924 10.135
119.047409 30.373039
121.028984 85.42762
123.024864 64.134117
123.06015 86.358131
123.456657 14.06618
133.041794 140.909805
133.064041 1171.985962
133.108185 18.03709
133.160904 16.850571
133.713959 11.81818
134.04715 65.724586
134.351746 18.00577
134.359802 11.66667
135.060135 3401.522949
135.11084 30.93906
135.321259 15.59214
135.427307 18.849211
135.778824 21.3375
135.831909 19.375
136.189972 19.339279
147.042694 108.887703
159.042419 45.35041
160.233719 25.34964
161.060425 196.980499
183.057175 47.41777
201.070648 166.046204
214.060547 37.400391
216.079514 82.383781
235.830048 10.0121
250.074829 64.12458
255.08168 19.111111
267.076355 21.218019
410.184845 29.03723
585.435608 71.00074
917.463623 21.25379
