>compound pyochelin
>formula C14H16N2O3S2 
>ionization [M+H]+
>parentmass 325.0675108240905
#inchi InChI=1S/C14H16N2O3S2/c1-16-10(14(18)19)7-21-13(16)9-6-20-12(15-9)8-4-2-3-5-11(8)17/h2-5,9-10,13,15H,6-7H2,1H3,(H,18,19)/b12-8+/t9-,10+,13?/m1/s1
#inchikey VRTHPBIMOLQLGL
#Ion_Source DI-ESI
#Instrument Ion Trap
#Compound_Source Crude
#PI Dorrestein
#Data_Collector WMoree
#Scan -1
#Precursor_MZ 325.0
#ExactMass 324.06
#Charge 1
#CAS_Number N/A
#Pubmed_ID 22869730
#Smiles N/A
#INCHI_AUX N/A
#Library_Class 1
#SpectrumID CCMSLIB00000006841
#IonMode Positive
#UpdateWorkflowName UPDATE-SINGLE-ANNOTATED-GOLD
#LibraryQualityString Gold
#TaskID 92339c9ea14140fe82815c02988e5abb
##Scan# 1
#SpectrumFile Pyochelin_325_MS2.mzXML
#LibraryName gnps_library.mgf
#MQScore -1
#Organism gnps_library
#TIC_Query 0
#RT_Query -1
#MZErrorPPM -1
#SharedPeaks 0
#MassDiff 0
#LibMZ -1
#SpecMZ 325
#SpecCharge 0
#internalFilename spec-00000.mgf

>collision 10
99.966232 6.070045
127.995125 73.534607
146.007706 14.592746
160.057327 15.001298
161.086044 9.720405
171.945587 112.041122
178.0439 5.45427
190.015244 22.578148
195.133255 2.217195
206.042236 12.738147
211.138077 2.282558
212.083801 3.814666
213.135986 2.279499
224.024063 29.338171
279.107452 8.193491
281.107544 30.100077
295.181824 1.029471
297.143616 6.560312
307.156799 13.294466
325.063812 24.927414
