>compound Loratadine
>formula C22H23ClN2O2
>ionization [M+H]+
>parentmass 383.15208210809055
#inchi InChI=1S/C22H23ClN2O2/c1-2-27-22(26)25-12-9-15(10-13-25)20-19-8-7-18(23)14-17(19)6-5-16-4-3-11-24-21(16)20/h3-4,7-8,11,14H,2,5-6,9-10,12-13H2,1H3
#inchikey JCCNYMKQOSZNPW
#Ion_Source LC-ESI
#Instrument qTof
#Compound_Source Commercial
#PI Dorrestein
#Data_Collector Garg_Neha
#Scan -1
#Precursor_MZ 383.152
#ExactMass 382.145
#Charge 1
#CAS_Number 79794-75-5, 444995-23-7 (HCl)
#Pubmed_ID N/A
#Smiles C1CN(CCC1=C2C3=C(CCC4=C2C=CC(=C4)Cl)C=CC=N3)C(=O)OCC
#INCHI_AUX N/A
#Library_Class 1
#SpectrumID CCMSLIB00000078115
#IonMode Positive
#UpdateWorkflowName UPDATE-SINGLE-ANNOTATED-GOLD
#LibraryQualityString Gold
#TaskID 77f51c88eb8b467eb4a01dd2d0cb90d2
##Scan# 1256
#SpectrumFile Plate2_21_40_GG6_01_16494.mzXML
#LibraryName FDALibrary_2_04302014.mgf
#MQScore -1
#Organism FDALibrary_2_04302014
#TIC_Query 0
#RT_Query -1
#MZErrorPPM -1
#SharedPeaks 0
#MassDiff 0
#LibMZ -1
#SpecMZ 383.152
#SpecCharge 0
#internalFilename spec-00000.mgf

>collision 10
44.928032 152.0
44.995876 96.0
45.037495 148.0
45.069557 180.0
45.13773 140.0
45.150642 128.0
45.227364 176.0
45.2528 168.0
45.270206 160.0
45.28896 140.0
45.324184 136.0
45.404224 152.0
45.584114 220.0
45.600239 156.0
45.632504 196.0
45.673168 100.0
45.837471 144.0
46.019192 140.0
46.061623 188.0
46.101589 176.0
46.202999 208.0
46.217754 208.0
46.240891 152.0
46.29504 164.0
46.311295 208.0
46.392597 188.0
46.456337 152.0
46.624031 356.0
46.676361 184.0
46.719887 152.0
46.757984 156.0
46.773457 164.0
46.809719 152.0
46.875103 160.0
46.915993 148.0
46.941898 152.0
47.014202 144.0
47.061977 144.0
47.194515 196.0
47.32513 156.0
47.492645 224.0
47.532848 140.0
47.580887 208.0
47.688034 144.0
47.765034 164.0
48.017094 160.0
48.171688 252.0
48.297264 180.0
48.49548 148.0
48.592552 172.0
48.656395 264.0
48.730003 172.0
48.753227 168.0
48.785595 184.0
48.805058 204.0
49.040936 156.0
49.068672 144.0
49.083546 188.0
49.26778 176.0
49.285946 168.0
49.337658 116.0
49.427174 168.0
49.465881 164.0
49.506966 188.0
49.678528 296.0
49.909702 168.0
49.936031 144.0
50.157642 140.0
50.187325 192.0
50.267635 156.0
50.343014 108.0
50.37907 148.0
50.403637 260.0
50.45607 164.0
50.49696 252.0
50.567097 252.0
50.669384 204.0
50.695621 96.0
51.160561 184.0
51.231644 160.0
51.338543 168.0
51.404163 172.0
51.449638 172.0
51.612717 208.0
51.667782 184.0
51.724308 144.0
51.785004 124.0
51.853218 168.0
51.911449 188.0
51.974491 140.0
51.985161 220.0
52.049755 268.0
52.075607 172.0
52.114395 164.0
52.242916 216.0
52.408222 132.0
52.450871 164.0
52.531265 160.0
52.566532 148.0
52.637268 184.0
52.673374 204.0
52.714493 104.0
52.731171 192.0
52.745625 172.0
52.943844 172.0
53.258739 140.0
53.274551 164.0
53.346638 160.0
53.382107 272.0
53.540733 168.0
53.574234 152.0
53.612759 264.0
53.847004 184.0
53.890827 308.0
53.905998 168.0
53.947826 180.0
54.016979 152.0
54.040565 204.0
54.107288 140.0
54.187286 236.0
54.394623 140.0
54.59444 176.0
54.624928 176.0
54.695961 164.0
54.74337 192.0
54.865372 172.0
54.918457 156.0
55.007572 224.0
55.018772 212.0
55.043812 132.0
55.067532 244.0
55.208405 176.0
55.380146 144.0
55.462036 204.0
55.622181 156.0
55.66436 180.0
55.692577 172.0
55.719318 160.0
55.746063 144.0
55.798309 160.0
55.920067 168.0
55.942673 148.0
55.979614 168.0
56.133556 172.0
56.176994 176.0
56.200226 208.0
56.242821 296.0
56.353985 200.0
56.425804 128.0
56.510513 176.0
56.558899 148.0
56.591835 156.0
56.605911 140.0
56.617748 180.0
56.681705 160.0
56.996822 160.0
57.048996 168.0
57.175003 172.0
57.273834 156.0
57.498814 232.0
57.646294 368.0
57.76292 144.0
57.973164 116.0
58.062611 144.0
58.169411 152.0
58.210598 140.0
58.227482 272.0
58.244358 156.0
58.408913 164.0
58.552856 192.0
58.632343 252.0
58.707432 164.0
58.797443 152.0
58.858505 156.0
58.967182 172.0
58.986839 312.0
59.006714 280.0
59.112255 148.0
59.176544 160.0
59.38694 136.0
59.417706 240.0
59.444786 140.0
59.463203 140.0
59.478554 164.0
59.716866 160.0
59.982582 120.0
60.087959 196.0
60.137341 152.0
60.25515 124.0
60.308788 208.0
60.336613 144.0
60.401566 216.0
60.458813 140.0
60.492863 176.0
60.512989 144.0
60.696575 184.0
60.75721 176.0
61.032021 132.0
61.049042 192.0
61.100361 144.0
61.164391 144.0
61.216393 144.0
61.238937 176.0
61.261562 172.0
61.350388 188.0
61.410412 260.0
61.47049 156.0
61.518871 172.0
61.574608 136.0
61.589142 148.0
61.603199 196.0
61.682194 240.0
61.973991 172.0
62.104107 316.0
62.141758 148.0
62.182556 164.0
62.250065 184.0
62.298992 184.0
62.400909 164.0
62.424496 160.0
62.437786 212.0
62.462242 140.0
62.524494 184.0
62.634499 168.0
62.698418 172.0
62.87505 196.0
62.913746 140.0
62.928135 172.0
63.024372 172.0
63.064579 152.0
63.102173 164.0
63.14996 180.0
63.301891 144.0
63.362026 156.0
63.409176 144.0
63.4762 140.0
63.504745 156.0
63.66663 156.0
63.693634 152.0
63.728584 160.0
63.755596 140.0
63.829041 120.0
63.868481 152.0
63.956207 120.0
64.075684 100.0
64.094551 196.0
64.143959 276.0
64.174248 152.0
64.218307 184.0
64.244423 140.0
64.372108 144.0
64.392563 168.0
64.495056 188.0
64.559082 140.0
64.621162 148.0
64.79985 144.0
64.871262 148.0
64.891968 184.0
65.028496 160.0
65.097534 164.0
65.142982 188.0
65.195938 124.0
65.224457 156.0
65.264648 192.0
65.320534 144.0
65.530434 152.0
65.544724 164.0
65.7463 156.0
65.794388 368.0
65.812485 144.0
66.056526 144.0
66.085182 168.0
66.133507 136.0
66.236206 192.0
66.330185 188.0
66.685661 168.0
66.743027 152.0
66.795113 132.0
66.811745 176.0
66.903435 132.0
66.921539 156.0
66.950851 144.0
66.988312 176.0
67.1959 180.0
67.236969 104.0
67.314514 156.0
67.367821 200.0
67.579231 156.0
67.598106 144.0
67.667458 164.0
67.722672 112.0
67.772522 184.0
67.844635 192.0
68.105553 156.0
68.131836 144.0
68.209068 216.0
68.307732 208.0
68.7295 188.0
68.766029 236.0
68.790565 148.0
68.823578 156.0
68.937561 188.0
69.137665 188.0
69.19725 160.0
69.301598 144.0
69.324799 140.0
69.520485 140.0
69.636696 168.0
69.871651 208.0
69.957619 164.0
70.060875 156.0
70.128113 148.0
70.224228 148.0
70.484512 188.0
70.576599 156.0
70.640152 140.0
70.681976 164.0
70.78466 164.0
70.815903 208.0
71.012833 244.0
71.037666 216.0
71.051582 176.0
71.116035 148.0
71.157997 276.0
71.263809 164.0
71.319267 180.0
71.337761 156.0
71.349525 160.0
71.401657 188.0
71.490822 148.0
71.549728 244.0
71.633934 160.0
71.67926 144.0
71.739372 268.0
71.817665 184.0
71.929306 212.0
72.054001 148.0
72.087799 256.0
72.119011 128.0
72.156227 272.0
72.185844 156.0
72.224739 144.0
72.263649 144.0
72.419395 144.0
72.470215 164.0
72.538002 160.0
72.550919 104.0
72.571915 180.0
72.626442 180.0
72.752098 256.0
72.776367 176.0
72.877296 148.0
73.156349 140.0
73.267044 272.0
73.313789 176.0
73.37101 180.0
73.440926 148.0
73.567192 148.0
73.741425 184.0
73.825195 160.0
73.866982 140.0
73.915863 140.0
74.078514 184.0
74.115204 164.0
74.151001 132.0
74.243896 164.0
74.288155 176.0
74.307167 216.0
74.364868 144.0
74.567535 164.0
74.782532 192.0
74.912781 256.0
74.937813 188.0
74.978149 248.0
75.006454 148.0
75.135788 140.0
75.226288 232.0
75.351601 140.0
75.431091 276.0
75.507172 164.0
75.519279 148.0
75.655983 180.0
75.702728 216.0
75.800629 156.0
76.038139 128.0
76.177879 152.0
76.289192 152.0
76.357002 160.0
76.390053 168.0
76.51709 192.0
76.532761 196.0
76.583267 192.0
76.685226 208.0
76.776726 152.0
76.837776 248.0
76.900597 168.0
76.932014 160.0
76.960724 208.0
76.986145 148.0
77.02282 164.0
77.037888 192.0
77.056015 160.0
77.118851 136.0
77.194099 148.0
77.23494 172.0
77.26931 260.0
77.317711 176.0
77.359383 120.0
77.397842 176.0
77.419846 228.0
77.531967 164.0
77.689392 144.0
77.771393 196.0
77.854271 352.0
77.917152 132.0
77.956665 256.0
77.983025 188.0
78.025215 144.0
78.18528 196.0
78.21344 172.0
78.229286 192.0
78.329659 156.0
78.456543 176.0
78.590584 176.0
78.756889 168.0
78.809158 248.0
78.849319 108.0
78.945427 100.0
78.98455 160.0
79.093208 196.0
79.111755 176.0
79.144363 172.0
79.163307 388.0
79.328079 144.0
79.429817 108.0
79.468796 128.0
79.513466 240.0
79.532074 192.0
79.548386 192.0
79.562256 168.0
79.6091 168.0
79.93335 168.0
79.946663 180.0
80.011131 172.0
80.027443 204.0
80.056458 204.0
80.099304 180.0
80.146858 188.0
80.263268 144.0
80.325691 216.0
80.341751 172.0
80.405983 152.0
80.431602 148.0
80.451813 212.0
80.475601 148.0
80.505653 100.0
80.53244 208.0
80.589912 160.0
80.668549 160.0
80.682854 160.0
80.786575 164.0
80.893448 184.0
80.953033 232.0
80.990646 232.0
81.046181 232.0
81.060516 196.0
81.198555 160.0
81.248787 228.0
81.322357 160.0
81.356461 160.0
81.415718 176.0
81.435715 148.0
81.560219 168.0
81.642151 172.0
81.663734 160.0
81.778786 136.0
81.798691 196.0
81.848564 148.0
81.899078 176.0
81.915741 148.0
81.929306 160.0
82.034676 184.0
82.08876 212.0
82.211433 148.0
82.247902 116.0
82.313622 164.0
82.328773 320.0
82.475121 192.0
82.502235 144.0
82.529358 180.0
82.607468 148.0
82.641502 228.0
82.66864 224.0
82.701668 112.0
82.84317 204.0
82.871613 176.0
82.916748 248.0
83.032784 220.0
83.048531 188.0
83.099861 192.0
83.232399 148.0
83.248993 148.0
83.285072 144.0
83.305054 180.0
83.34684 200.0
83.361717 168.0
83.395561 320.0
83.434082 148.0
83.474083 168.0
83.577766 164.0
83.616089 136.0
83.761642 140.0
83.77726 188.0
83.932961 220.0
83.97113 116.0
84.025764 136.0
84.066597 200.0
84.212173 184.0
84.35836 140.0
84.378464 140.0
84.435104 148.0
84.495514 156.0
84.537605 152.0
84.576591 172.0
84.614479 172.0
84.759178 212.0
85.225853 184.0
85.31781 176.0
85.341042 152.0
85.379654 208.0
85.404289 160.0
85.464279 172.0
85.493004 160.0
85.61068 160.0
85.701797 168.0
85.834518 148.0
85.856949 144.0
85.902756 144.0
85.984703 188.0
86.011627 140.0
86.090294 180.0
86.213654 232.0
86.303528 148.0
86.442261 188.0
86.493179 140.0
86.514046 192.0
86.54837 136.0
86.611511 284.0
86.640373 152.0
86.688148 184.0
86.710464 232.0
86.746002 220.0
86.883286 156.0
86.90921 240.0
86.986053 188.0
87.000153 148.0
87.017181 140.0
87.072922 328.0
87.27327 208.0
87.289284 176.0
87.354301 144.0
87.433243 164.0
87.524216 152.0
87.552399 180.0
87.591507 176.0
87.768562 308.0
87.83709 204.0
87.865547 168.0
87.889801 152.0
87.910622 128.0
87.953758 180.0
87.978653 128.0
88.054085 144.0
88.080231 144.0
88.185814 268.0
88.285828 188.0
88.313881 148.0
88.347549 200.0
88.362518 164.0
88.402779 116.0
88.447975 204.0
88.476685 140.0
88.680862 164.0
88.697731 216.0
88.759598 164.0
88.829437 256.0
88.845879 260.0
88.914001 236.0
88.971619 148.0
89.059875 180.0
89.088646 140.0
89.20417 172.0
89.27037 204.0
89.298584 156.0
89.319275 140.0
89.333366 132.0
89.370338 192.0
89.418991 196.0
89.450989 164.0
89.501823 172.0
89.530075 172.0
89.548447 148.0
89.569626 148.0
89.646492 140.0
89.734497 132.0
89.85849 176.0
89.929764 144.0
90.116722 208.0
90.141953 96.0
90.172424 252.0
90.232018 152.0
90.332245 144.0
90.414482 104.0
90.466545 200.0
90.536659 152.0
90.557602 144.0
90.589699 184.0
90.602959 200.0
90.62664 112.0
90.671173 140.0
90.80806 100.0
90.880562 200.0
91.067703 152.0
91.113297 164.0
91.151642 132.0
91.170303 200.0
91.255836 164.0
91.305283 164.0
91.508835 140.0
91.571732 152.0
91.628876 140.0
91.771828 144.0
91.788986 180.0
91.802338 176.0
92.044685 168.0
92.165565 284.0
92.229248 244.0
92.272057 216.0
92.3675 176.0
92.478653 164.0
92.515419 176.0
92.855171 144.0
92.982628 148.0
93.024956 208.0
93.047997 156.0
93.067863 184.0
93.140091 188.0
93.322739 144.0
93.357025 164.0
93.438194 152.0
93.459305 200.0
93.510338 160.0
93.553955 156.0
93.573547 176.0
93.678787 160.0
93.709488 184.0
93.832962 192.0
93.861885 220.0
93.996841 108.0
94.021049 124.0
94.159073 204.0
94.266533 128.0
94.311707 204.0
94.412247 148.0
94.431587 180.0
94.462532 168.0
94.505814 216.0
94.760864 164.0
94.855637 164.0
94.889359 152.0
94.934753 144.0
94.947495 148.0
95.080627 140.0
95.094215 228.0
95.111687 192.0
95.204941 128.0
95.302002 192.0
95.32338 160.0
95.411926 144.0
95.426285 140.0
95.453621 208.0
95.601463 148.0
95.638618 176.0
95.734619 160.0
95.919586 168.0
95.965721 324.0
96.067139 140.0
96.174461 156.0
96.211555 172.0
96.237175 164.0
96.285751 192.0
96.313095 140.0
96.349518 336.0
96.380653 200.0
96.474121 132.0
96.494843 188.0
96.546005 168.0
96.56234 124.0
96.638176 168.0
96.674797 164.0
96.691856 156.0
96.75309 212.0
96.769279 148.0
96.819107 112.0
96.908958 164.0
96.99012 184.0
97.012192 160.0
97.076385 144.0
97.099472 240.0
97.115616 176.0
97.160728 152.0
97.367676 168.0
97.459167 144.0
97.482742 240.0
97.562347 160.0
97.632721 156.0
97.657715 284.0
97.674454 120.0
97.750183 180.0
97.787575 264.0
97.869637 164.0
97.907524 160.0
97.973228 156.0
98.118515 276.0
98.191475 140.0
98.2714 108.0
98.28476 152.0
98.377831 168.0
98.426308 144.0
98.534943 148.0
98.584343 188.0
98.66143 168.0
98.70295 168.0
98.732613 288.0
98.831284 168.0
99.012466 128.0
99.057533 124.0
99.199898 176.0
99.317436 160.0
99.355164 188.0
99.426697 196.0
99.4935 180.0
99.527252 212.0
99.6353 220.0
99.805435 176.0
99.845207 184.0
99.908859 140.0
100.004868 128.0
100.090973 200.0
100.145096 324.0
100.231407 160.0
100.269264 396.0
100.333054 184.0
100.374924 180.0
100.543434 144.0
100.658279 196.0
100.766068 116.0
100.83551 168.0
100.944038 352.0
100.975395 120.0
101.026039 140.0
101.059097 224.0
101.102074 152.0
101.176872 196.0
101.276772 156.0
101.346153 144.0
101.363472 188.0
101.474655 160.0
101.542191 212.0
101.596107 100.0
101.713379 176.0
101.757545 148.0
101.78154 156.0
101.842064 408.0
101.875824 152.0
101.928574 108.0
101.970482 164.0
102.056717 700.0
102.085075 160.0
102.211006 172.0
102.400345 208.0
102.457443 140.0
102.505798 208.0
102.652954 188.0
102.66909 200.0
102.735725 112.0
102.769951 164.0
102.813103 204.0
102.985092 140.0
103.030396 216.0
103.064743 272.0
103.08091 172.0
103.192451 132.0
103.306122 144.0
103.341751 164.0
103.479385 152.0
103.586555 152.0
103.626801 184.0
103.703369 204.0
103.838783 224.0
103.878777 160.0
103.90094 200.0
103.917175 200.0
104.004433 160.0
104.15506 156.0
104.272537 196.0
104.353851 180.0
104.439262 192.0
104.47995 140.0
104.541107 140.0
104.574417 264.0
104.693138 184.0
104.860733 156.0
105.026581 188.0
105.111572 144.0
105.148529 108.0
105.178925 196.0
105.313683 164.0
105.422134 160.0
105.47715 184.0
105.565849 304.0
105.626427 184.0
105.677567 188.0
105.765564 196.0
105.790131 148.0
105.812653 164.0
105.843361 196.0
105.912994 144.0
105.95472 120.0
105.999107 132.0
106.066673 160.0
106.101524 172.0
106.360001 272.0
106.376427 172.0
106.415428 168.0
106.430176 156.0
106.503738 176.0
106.523224 148.0
106.621246 164.0
106.68457 144.0
106.760712 132.0
106.865555 260.0
107.065224 208.0
107.110535 192.0
107.258904 152.0
107.523636 96.0
107.817276 128.0
107.862717 116.0
107.890137 164.0
107.908188 176.0
107.927071 204.0
108.009315 164.0
108.044487 144.0
108.065536 156.0
108.101562 164.0
108.176071 156.0
108.287262 172.0
108.310669 164.0
108.366608 148.0
108.399757 200.0
108.438332 120.0
108.50132 152.0
108.656403 108.0
108.70459 168.0
108.737076 184.0
108.780235 152.0
108.883125 292.0
108.951225 168.0
108.970375 216.0
108.989037 240.0
109.009178 172.0
109.068047 216.0
109.101952 168.0
109.25312 244.0
109.303375 208.0
109.408607 112.0
109.425858 152.0
109.517906 124.0
109.559151 140.0
109.600822 152.0
109.702232 200.0
109.746727 144.0
109.796776 192.0
109.836403 160.0
109.974113 160.0
110.005424 184.0
110.049271 224.0
110.109825 300.0
110.156441 240.0
110.364502 184.0
110.469345 164.0
110.521652 208.0
110.55304 168.0
110.646042 204.0
110.68605 244.0
110.708504 152.0
110.823837 196.0
110.906723 124.0
110.951012 144.0
110.969879 148.0
111.005005 192.0
111.045998 148.0
111.076836 160.0
111.135582 204.0
111.181747 172.0
111.221626 148.0
111.263611 176.0
111.30957 144.0
111.328522 192.0
111.419022 176.0
111.440033 188.0
111.51358 176.0
111.571159 156.0
111.914665 212.0
111.980087 188.0
112.126038 216.0
112.190186 204.0
112.211853 264.0
112.233551 144.0
112.535278 188.0
112.582718 128.0
112.626083 184.0
112.649323 156.0
112.704002 184.0
112.765541 188.0
112.820496 188.0
112.882729 360.0
113.040466 160.0
113.072212 168.0
113.101204 172.0
113.203468 316.0
113.305565 160.0
113.33268 176.0
113.36235 160.0
113.403107 156.0
113.458565 132.0
113.475983 156.0
113.531944 140.0
113.578606 196.0
113.606178 144.0
113.621033 148.0
113.665588 140.0
113.700516 160.0
113.727135 184.0
113.782326 156.0
113.829041 140.0
113.876213 132.0
114.085518 196.0
114.122787 284.0
114.152039 184.0
114.176056 164.0
114.266899 228.0
114.610931 116.0
114.689598 480.0
114.707733 156.0
114.769562 188.0
114.886864 236.0
114.920189 168.0
114.937668 256.0
114.973083 176.0
115.061867 192.0
115.104568 148.0
115.13446 144.0
115.202812 144.0
115.232727 192.0
115.282364 156.0
115.341606 160.0
115.491394 152.0
115.58567 180.0
115.824615 136.0
115.885452 160.0
115.907791 184.0
115.979431 112.0
116.440887 172.0
116.474693 168.0
116.625374 148.0
116.718803 136.0
116.758347 152.0
116.877281 176.0
116.944275 188.0
117.051643 184.0
117.081787 232.0
117.149216 100.0
117.214882 256.0
117.245522 168.0
117.279701 140.0
117.308029 264.0
117.384109 532.0
117.424469 164.0
117.51339 268.0
117.560379 144.0
117.682358 136.0
117.745445 144.0
117.905228 180.0
117.938339 168.0
118.048599 172.0
118.098343 140.0
118.128624 204.0
118.319069 204.0
118.407845 204.0
118.436005 192.0
118.467827 160.0
118.503159 148.0
118.518326 160.0
118.571747 148.0
118.788315 136.0
118.882629 232.0
118.949562 172.0
118.980309 180.0
119.149704 208.0
119.301834 140.0
119.328049 140.0
119.430801 196.0
119.504776 128.0
119.552673 148.0
119.568817 216.0
119.631233 220.0
120.001999 140.0
120.04866 144.0
120.087013 184.0
120.109734 160.0
120.150223 128.0
120.245926 196.0
120.325836 140.0
120.372093 208.0
120.432777 144.0
120.506271 108.0
120.590096 148.0
120.849121 152.0
120.874947 160.0
121.021049 144.0
121.153244 112.0
121.200661 148.0
121.237915 152.0
121.417686 192.0
121.457169 188.0
121.6418 140.0
121.675774 136.0
121.726021 152.0
121.83474 216.0
121.856712 144.0
121.873268 172.0
121.940704 144.0
122.000572 132.0
122.076515 332.0
122.140297 180.0
122.232925 160.0
122.254707 160.0
122.347153 200.0
122.366554 232.0
122.410667 128.0
122.43261 232.0
122.45285 144.0
122.562767 112.0
122.665817 196.0
122.762466 148.0
122.783447 156.0
122.82756 300.0
122.852676 172.0
122.93692 176.0
122.957733 168.0
122.999527 248.0
123.035477 128.0
123.055672 120.0
123.083565 156.0
123.149818 212.0
123.194 140.0
123.313286 132.0
123.361015 208.0
123.428276 156.0
123.49398 220.0
123.711479 188.0
123.738045 152.0
123.866486 156.0
123.88591 156.0
123.921394 164.0
123.969284 164.0
124.196762 188.0
124.247971 140.0
124.402763 216.0
124.538582 160.0
124.617096 164.0
124.750694 132.0
124.810745 172.0
124.923141 156.0
124.95163 184.0
124.999229 160.0
125.081978 116.0
125.184311 188.0
125.210274 268.0
125.262825 148.0
125.412811 164.0
125.462563 108.0
125.543785 208.0
125.571968 204.0
125.629326 188.0
125.694221 140.0
125.713043 156.0
125.901634 204.0
125.930672 256.0
125.94854 196.0
126.013626 180.0
126.055153 524.0
126.08461 164.0
126.113632 140.0
126.140297 152.0
126.308197 120.0
126.428192 128.0
126.673523 156.0
126.787567 156.0
126.825882 168.0
126.892921 228.0
127.005043 152.0
127.062569 112.0
127.088051 148.0
127.117218 332.0
127.137421 192.0
127.202621 120.0
127.230804 116.0
127.258636 148.0
127.332741 168.0
127.358284 172.0
127.442612 132.0
127.448128 120.0
127.456551 176.0
127.519218 152.0
127.555183 144.0
127.580948 104.0
127.599556 152.0
127.617661 152.0
127.753075 152.0
127.820572 216.0
127.885002 144.0
127.966805 124.0
128.016418 292.0
128.065475 292.0
128.135803 172.0
128.176483 144.0
128.201096 188.0
128.22818 212.0
128.300797 140.0
128.335297 164.0
128.381485 152.0
128.404465 172.0
128.473663 148.0
128.559708 156.0
128.576355 188.0
128.618393 140.0
128.659027 160.0
128.781174 196.0
128.898438 184.0
128.952805 148.0
128.988846 188.0
129.061188 156.0
129.13356 140.0
129.239883 164.0
129.317749 160.0
129.391739 168.0
129.465073 116.0
129.502487 212.0
129.533249 172.0
129.560974 132.0
129.588882 176.0
129.637589 184.0
129.85527 184.0
129.908951 216.0
130.063858 164.0
130.126099 144.0
130.16243 160.0
130.203308 160.0
130.221481 152.0
130.304764 192.0
130.339615 212.0
130.442932 192.0
130.666504 124.0
130.731873 160.0
130.764877 156.0
130.813568 164.0
130.91301 172.0
130.97435 208.0
131.021194 240.0
131.073273 208.0
131.104218 220.0
131.164902 180.0
131.461884 124.0
131.526001 156.0
131.541092 296.0
131.567017 120.0
131.624329 204.0
131.721649 144.0
131.778503 216.0
131.809616 144.0
131.834976 168.0
131.887054 176.0
131.919067 216.0
132.025391 120.0
132.076569 164.0
132.143188 148.0
132.214127 168.0
132.24617 200.0
132.415588 192.0
132.443085 208.0
132.461441 132.0
132.50264 152.0
132.553436 164.0
132.690109 200.0
132.71579 168.0
132.745605 180.0
132.76825 160.0
132.796539 288.0
132.818466 260.0
132.837341 144.0
132.885529 148.0
132.947479 220.0
133.078644 116.0
133.221375 304.0
133.285049 208.0
133.340195 156.0
133.466705 128.0
133.611542 240.0
133.641449 204.0
133.698212 156.0
133.760101 160.0
133.817047 136.0
133.880844 192.0
133.949677 140.0
133.989105 248.0
134.023132 384.0
134.081268 184.0
134.149994 176.0
134.206772 152.0
134.279556 212.0
134.383362 140.0
134.432632 124.0
134.493881 184.0
134.572617 156.0
134.669815 140.0
134.713501 140.0
134.729675 152.0
134.748154 144.0
134.768951 140.0
134.789749 156.0
134.830994 244.0
134.867645 152.0
134.958908 176.0
135.039413 236.0
135.062546 224.0
135.102295 156.0
135.134262 196.0
135.153595 284.0
135.225403 156.0
135.259232 160.0
135.309341 124.0
135.333313 200.0
135.387222 188.0
135.440231 144.0
135.472992 248.0
135.525558 148.0
135.664948 168.0
135.695587 212.0
135.741913 168.0
135.780167 168.0
135.85817 104.0
136.011185 260.0
136.091064 332.0
136.17247 172.0
136.227203 132.0
136.326859 152.0
136.509125 184.0
136.560272 160.0
136.644302 288.0
136.70285 276.0
136.735443 140.0
136.774582 132.0
136.802933 292.0
136.914703 144.0
136.940323 252.0
136.993317 96.0
137.091751 168.0
137.131378 152.0
137.197388 100.0
137.419434 192.0
137.500443 164.0
137.637619 176.0
137.81279 192.0
137.866547 148.0
137.887573 140.0
137.995102 220.0
138.013916 184.0
138.08577 104.0
138.126068 152.0
138.179871 144.0
138.207947 176.0
138.277603 136.0
138.315613 192.0
138.387054 108.0
138.488068 128.0
138.572784 172.0
138.597717 132.0
138.618271 172.0
138.654724 132.0
138.681015 164.0
138.862167 152.0
138.999832 144.0
139.00769 136.0
139.131393 156.0
139.15567 172.0
139.258209 228.0
139.343384 160.0
139.360809 300.0
139.498718 172.0
139.547241 160.0
139.570007 224.0
139.593842 140.0
139.614059 204.0
139.656921 224.0
139.764526 128.0
139.893082 148.0
139.916626 152.0
140.006104 152.0
140.067337 156.0
140.13475 148.0
140.244064 292.0
140.272797 208.0
140.324219 256.0
140.356964 248.0
140.390244 168.0
140.453461 164.0
140.505814 208.0
140.535751 212.0
140.609222 136.0
140.672409 108.0
140.683609 168.0
140.745895 128.0
140.781982 244.0
140.806107 132.0
140.85289 188.0
140.911896 148.0
140.973923 160.0
141.188004 208.0
141.314697 176.0
141.420334 188.0
141.482986 204.0
141.544449 140.0
141.564743 168.0
141.5979 168.0
141.654099 132.0
141.746429 224.0
141.783981 148.0
141.828079 344.0
141.938034 128.0
142.01741 192.0
142.083969 140.0
142.111008 276.0
142.166885 176.0
142.237274 140.0
142.264557 136.0
142.512329 180.0
142.675461 216.0
142.7061 168.0
142.739395 140.0
142.78064 116.0
142.817871 164.0
143.078339 228.0
143.141541 144.0
143.163956 156.0
143.1987 280.0
143.361328 124.0
143.406403 180.0
143.494186 160.0
143.512299 240.0
143.573151 172.0
143.612427 96.0
143.639664 188.0
143.665894 152.0
143.737869 272.0
143.759155 136.0
143.778046 140.0
143.975357 340.0
144.057404 184.0
144.077957 164.0
144.186035 120.0
144.286835 192.0
144.309265 168.0
144.332001 148.0
144.401611 140.0
144.445709 156.0
144.491364 100.0
144.636093 204.0
144.721359 124.0
144.842026 180.0
144.947433 148.0
145.052887 152.0
145.123276 136.0
145.160553 164.0
145.194351 160.0
145.235123 220.0
145.302292 144.0
145.332611 132.0
145.349457 244.0
145.446289 152.0
145.556549 108.0
145.566116 176.0
145.655167 368.0
145.67569 324.0
145.732071 144.0
145.77507 152.0
145.827072 124.0
145.958008 152.0
146.016312 120.0
146.071335 164.0
146.131195 348.0
146.169693 148.0
146.217148 172.0
146.272873 216.0
146.305679 152.0
146.333374 144.0
146.470642 196.0
146.786362 204.0
146.822525 212.0
146.909363 148.0
146.99649 184.0
147.157074 132.0
147.285675 144.0
147.342056 208.0
147.364319 244.0
147.404327 244.0
147.448669 160.0
147.467163 184.0
147.494476 132.0
147.580704 120.0
147.660583 164.0
147.686203 208.0
147.780899 152.0
147.866959 172.0
147.899033 184.0
147.994537 124.0
148.02359 168.0
148.056442 120.0
148.114258 188.0
148.134995 184.0
148.251328 192.0
148.338562 140.0
148.382187 164.0
148.583496 152.0
148.632019 228.0
148.651428 172.0
148.854523 192.0
148.937973 160.0
148.957352 196.0
148.99379 260.0
149.073975 228.0
149.097198 196.0
149.154175 156.0
149.18335 188.0
149.20694 148.0
149.458176 140.0
149.522552 168.0
149.569427 168.0
149.606644 152.0
149.670654 164.0
149.704834 220.0
149.7771 188.0
149.803894 168.0
149.847168 168.0
149.957962 140.0
150.02565 188.0
150.108551 188.0
150.152451 144.0
150.292648 164.0
150.351013 176.0
150.379349 256.0
150.420288 172.0
150.463928 216.0
150.52861 404.0
150.552689 200.0
150.57135 144.0
150.593246 132.0
150.734344 224.0
150.801895 220.0
150.876831 116.0
151.003159 188.0
151.026459 164.0
151.05574 152.0
151.095337 152.0
151.16629 152.0
151.185867 144.0
151.234818 180.0
151.328171 148.0
151.389069 188.0
151.50174 160.0
151.538483 152.0
151.6185 116.0
151.637329 156.0
151.692215 296.0
151.764511 164.0
151.962646 164.0
152.066986 116.0
152.151627 192.0
152.183548 168.0
152.353653 248.0
152.411758 100.0
152.48468 184.0
152.542236 236.0
152.562271 108.0
152.631561 240.0
152.685699 212.0
152.704529 140.0
152.844818 140.0
152.957932 320.0
153.007202 172.0
153.042938 132.0
153.08815 132.0
153.143387 316.0
153.179581 224.0
153.207962 336.0
153.234024 160.0
153.376526 108.0
153.486588 176.0
153.529572 228.0
153.54808 128.0
153.641327 144.0
153.685791 160.0
153.818253 148.0
153.879974 180.0
153.907135 184.0
153.944168 160.0
154.007156 200.0
154.054276 228.0
154.087418 856.0
154.181335 232.0
154.267136 208.0
154.327179 144.0
154.349426 192.0
154.522766 104.0
154.580795 128.0
154.61853 160.0
154.691956 180.0
154.828934 204.0
154.884171 120.0
154.944382 196.0
155.026123 132.0
155.067307 184.0
155.087982 264.0
155.112106 148.0
155.136414 144.0
155.183868 216.0
155.218582 144.0
155.239059 152.0
155.341537 180.0
155.502731 208.0
155.655228 132.0
155.805817 108.0
156.009903 184.0
156.037964 168.0
156.080719 120.0
156.108902 228.0
156.184677 152.0
156.214523 156.0
156.269073 152.0
156.33667 176.0
156.460907 164.0
156.635788 148.0
156.735886 200.0
156.778351 188.0
156.986053 100.0
157.017471 144.0
157.098892 216.0
157.133957 188.0
157.191208 144.0
157.282043 212.0
157.398254 144.0
157.496994 132.0
157.551651 216.0
157.62764 232.0
157.653198 320.0
157.710678 276.0
157.823166 164.0
157.868179 140.0
157.934769 148.0
157.975739 160.0
158.033356 184.0
158.058304 172.0
158.089783 192.0
158.119492 204.0
158.149979 176.0
158.261505 152.0
158.392593 212.0
158.437622 128.0
158.49408 112.0
158.521561 176.0
158.679474 200.0
158.700592 216.0
158.775757 164.0
158.821442 164.0
159.080872 244.0
159.111908 176.0
159.183807 156.0
159.249115 156.0
159.290726 120.0
159.301865 184.0
159.383789 180.0
159.440506 132.0
159.482788 160.0
159.533051 184.0
159.57515 176.0
159.609146 112.0
159.683929 220.0
159.709763 368.0
159.76442 184.0
159.80719 180.0
159.861694 236.0
159.897781 188.0
160.018311 212.0
160.052368 180.0
160.071487 260.0
160.096573 108.0
160.152084 204.0
160.187256 108.0
160.26796 192.0
160.300949 184.0
160.324524 180.0
160.416077 224.0
160.63353 192.0
160.784134 324.0
160.820251 188.0
160.909271 152.0
160.981827 148.0
161.017181 260.0
161.06012 164.0
161.226883 152.0
161.249619 156.0
161.271164 184.0
161.29512 216.0
161.407928 184.0
161.527039 168.0
161.591003 188.0
161.642059 176.0
161.687393 112.0
161.742188 168.0
161.860321 180.0
161.913025 148.0
161.971008 184.0
161.98819 176.0
162.026794 124.0
162.065262 180.0
162.122757 148.0
162.234283 188.0
162.435516 192.0
162.470139 184.0
162.518341 256.0
162.565475 156.0
162.611084 184.0
162.724121 164.0
162.765961 344.0
162.80011 176.0
162.838196 268.0
162.866135 212.0
162.955048 184.0
162.975372 180.0
163.031616 284.0
163.123413 196.0
163.223969 192.0
163.266617 140.0
163.491074 100.0
163.578125 172.0
163.625168 176.0
163.677399 212.0
163.706497 200.0
163.767365 108.0
163.860809 144.0
164.023911 180.0
164.055939 256.0
164.166748 164.0
164.230453 140.0
164.25293 152.0
164.30188 140.0
164.348831 128.0
164.443405 128.0
164.498093 156.0
164.553131 176.0
164.766525 156.0
164.830399 224.0
164.847778 172.0
165.003906 312.0
165.026871 120.0
165.080917 156.0
165.172989 120.0
165.197342 176.0
165.236938 176.0
165.272079 196.0
165.332672 116.0
165.385117 172.0
165.440826 156.0
165.482651 124.0
165.554352 184.0
165.597885 164.0
165.807007 140.0
165.837494 100.0
165.869492 176.0
165.959213 204.0
166.088669 300.0
166.128494 140.0
166.275635 172.0
166.300201 148.0
166.325928 136.0
166.417892 168.0
166.434814 284.0
166.476639 200.0
166.500671 140.0
166.641022 340.0
166.685608 304.0
166.734467 292.0
166.797516 264.0
166.897781 160.0
166.968414 180.0
167.054169 212.0
167.116684 144.0
167.205475 196.0
167.228149 176.0
167.241577 192.0
167.361008 164.0
167.386948 176.0
167.498871 132.0
167.575928 152.0
167.617615 176.0
167.813049 168.0
167.84996 112.0
167.918777 232.0
168.004181 324.0
168.086456 180.0
168.107483 164.0
168.23616 180.0
168.268784 196.0
168.302841 164.0
168.362671 152.0
168.393661 148.0
168.544495 212.0
168.587952 160.0
168.688232 168.0
168.762558 128.0
168.890839 148.0
168.931213 104.0
168.952011 208.0
169.02327 124.0
169.052917 168.0
169.079147 124.0
169.203049 144.0
169.263245 160.0
169.335251 168.0
169.358643 168.0
169.389862 172.0
169.424484 104.0
169.491165 136.0
169.526825 176.0
169.584793 248.0
169.627914 204.0
169.652618 160.0
169.77829 212.0
169.837372 148.0
169.866882 180.0
169.954681 140.0
169.983231 164.0
170.019562 224.0
170.087051 156.0
170.198685 180.0
170.446045 156.0
170.585785 348.0
170.618256 172.0
170.676788 188.0
170.718399 148.0
170.869598 184.0
170.897568 136.0
170.93541 236.0
171.095688 168.0
171.184204 176.0
171.236298 212.0
171.297226 132.0
171.353516 148.0
171.410065 108.0
171.544876 204.0
171.569519 192.0
171.638672 212.0
171.695435 212.0
171.768356 128.0
171.819778 148.0
171.911896 220.0
172.034637 144.0
172.104965 240.0
172.172577 208.0
172.32991 160.0
172.392029 148.0
172.792084 160.0
172.884277 156.0
172.954346 148.0
172.985962 112.0
173.093094 144.0
173.161179 184.0
173.219711 212.0
173.240295 180.0
173.347122 140.0
173.486923 128.0
173.568634 176.0
173.62616 96.0
173.653107 128.0
173.727371 192.0
173.767868 120.0
173.786407 136.0
173.816574 168.0
173.998291 216.0
174.042618 176.0
174.12326 160.0
174.14473 164.0
174.187973 216.0
174.487015 172.0
174.561691 104.0
174.589615 220.0
174.630981 192.0
174.666595 208.0
174.899368 140.0
174.92569 144.0
174.966507 236.0
175.028366 200.0
175.050354 112.0
175.086304 204.0
175.120544 192.0
175.190063 280.0
175.268951 264.0
175.298019 120.0
175.414322 120.0
175.435577 192.0
175.458557 236.0
175.49913 224.0
175.565948 164.0
175.621338 152.0
175.652985 316.0
175.70311 140.0
175.787994 140.0
175.86351 148.0
175.906937 152.0
176.011917 196.0
176.037003 164.0
176.193466 224.0
176.241043 156.0
176.273941 124.0
176.333954 160.0
176.432022 144.0
176.463745 168.0
176.48674 132.0
176.637024 192.0
176.6875 132.0
176.817856 176.0
176.884384 172.0
177.052002 156.0
177.096207 332.0
177.141235 196.0
177.261246 164.0
177.376358 204.0
177.443359 144.0
177.466858 172.0
177.48233 172.0
177.528214 160.0
177.634216 132.0
177.687363 228.0
177.756348 188.0
177.814728 184.0
177.85434 316.0
177.862396 200.0
177.968704 196.0
178.046143 124.0
178.119751 132.0
178.191803 248.0
178.319702 164.0
178.351257 296.0
178.451157 220.0
178.498215 300.0
178.583969 128.0
178.643753 160.0
178.715591 164.0
178.768814 160.0
178.853973 144.0
178.915207 124.0
178.95784 192.0
179.020782 216.0
179.190765 120.0
179.25148 176.0
179.332611 132.0
179.387512 164.0
179.439606 180.0
179.483582 408.0
179.595947 160.0
179.875244 124.0
179.921921 156.0
179.976349 208.0
180.027084 192.0
180.091003 208.0
180.113953 296.0
180.172836 148.0
180.200714 204.0
180.249771 176.0
180.272858 156.0
180.322083 276.0
180.457291 152.0
180.496063 224.0
180.586578 192.0
180.652527 152.0
180.728928 136.0
180.756866 164.0
180.807724 152.0
180.933533 152.0
180.997787 148.0
181.037415 140.0
181.088837 276.0
181.179916 244.0
181.205414 160.0
181.271011 144.0
181.357941 212.0
181.439362 144.0
181.529053 108.0
181.578171 160.0
181.770447 164.0
181.823593 264.0
181.864044 164.0
181.897797 276.0
181.968185 140.0
181.994614 184.0
182.004089 140.0
182.042221 140.0
182.094009 156.0
182.169113 312.0
182.242645 156.0
182.294434 96.0
182.441254 164.0
182.479416 124.0
182.573013 164.0
182.600861 108.0
182.651886 148.0
182.70137 144.0
182.730835 148.0
182.76506 304.0
182.839355 280.0
182.866501 132.0
182.887802 208.0
182.937546 256.0
183.013184 152.0
183.097809 160.0
183.16011 152.0
183.19339 132.0
183.251343 148.0
183.352356 124.0
183.477219 164.0
183.539749 156.0
183.598663 132.0
183.653976 236.0
183.727783 112.0
183.839935 184.0
183.880966 108.0
183.935333 128.0
183.968964 96.0
184.108841 108.0
184.214981 148.0
184.260406 196.0
184.400742 184.0
184.452286 200.0
184.671295 180.0
184.796814 172.0
184.845535 164.0
184.874207 148.0
185.001419 200.0
185.025436 164.0
185.123154 192.0
185.147339 188.0
185.208099 360.0
185.291138 152.0
185.342148 160.0
185.362411 172.0
185.399582 220.0
185.551392 188.0
185.587448 172.0
185.75206 228.0
185.828583 276.0
185.959488 156.0
186.03157 140.0
186.06958 164.0
186.164154 188.0
186.25177 132.0
186.316727 188.0
186.421875 196.0
186.457443 152.0
186.509659 176.0
186.555878 164.0
186.606277 356.0
186.652237 180.0
186.736786 120.0
186.768463 288.0
186.810867 208.0
186.899078 192.0
186.961151 188.0
186.996536 168.0
187.031601 152.0
187.097244 160.0
187.151703 216.0
187.216492 192.0
187.236115 196.0
187.334183 228.0
187.512253 136.0
187.535812 156.0
187.631226 212.0
187.773865 116.0
187.805756 160.0
187.894882 208.0
187.911865 156.0
187.944885 172.0
188.1259 204.0
188.193268 144.0
188.23262 184.0
188.299774 252.0
188.42807 124.0
188.775299 176.0
188.909744 128.0
189.036636 172.0
189.207611 184.0
189.295792 156.0
189.341782 168.0
189.402039 200.0
189.450623 120.0
189.476425 364.0
189.502243 104.0
189.584564 300.0
189.83783 160.0
189.876221 184.0
189.899948 268.0
189.992798 144.0
190.076797 140.0
190.123398 252.0
190.144531 140.0
190.186325 148.0
190.266953 324.0
190.367462 144.0
190.452591 156.0
190.53389 168.0
190.578964 200.0
190.694382 184.0
190.73027 152.0
190.762161 128.0
190.837341 236.0
190.894226 108.0
191.048218 144.0
191.069794 232.0
191.115143 172.0
191.342026 120.0
191.35672 172.0
191.395889 188.0
191.426193 144.0
191.458755 180.0
191.561676 124.0
191.617065 160.0
191.689896 184.0
191.711639 180.0
191.749268 308.0
191.772263 212.0
191.800919 136.0
191.835663 240.0
191.9375 140.0
192.020813 172.0
192.076508 336.0
192.13179 212.0
192.167664 156.0
192.206299 176.0
192.228363 180.0
192.295105 156.0
192.33049 176.0
192.363998 140.0
192.429871 184.0
192.503799 180.0
192.559647 148.0
192.695007 156.0
192.772385 364.0
192.835938 168.0
192.893982 184.0
192.929245 244.0
192.965866 184.0
192.985214 152.0
193.041718 148.0
193.087738 924.0
193.202301 228.0
193.253983 400.0
193.308853 140.0
193.447006 184.0
193.455688 168.0
193.502884 120.0
193.522415 132.0
193.557983 208.0
193.624557 188.0
193.6595 184.0
193.762955 252.0
193.842941 208.0
193.927765 176.0
193.976349 192.0
194.095261 220.0
194.228683 160.0
194.335876 232.0
194.382736 184.0
194.498886 200.0
194.568665 156.0
194.580704 188.0
194.656082 240.0
194.703293 180.0
194.910583 104.0
194.952209 188.0
194.972778 148.0
195.003357 172.0
195.022812 152.0
195.106201 304.0
195.314224 164.0
195.43541 176.0
195.471863 292.0
195.538696 180.0
195.597031 228.0
195.645645 164.0
195.677383 132.0
195.720169 148.0
195.855423 120.0
195.899918 152.0
195.979492 160.0
196.033081 140.0
196.080124 100.0
196.197525 148.0
196.2323 144.0
196.280777 112.0
196.387085 172.0
196.44014 176.0
196.551224 152.0
196.568146 164.0
196.598633 180.0
196.629883 188.0
196.657791 228.0
196.731689 144.0
196.791794 224.0
196.892319 212.0
196.929214 172.0
196.981705 140.0
197.069473 164.0
197.218826 116.0
197.327515 172.0
197.481583 172.0
197.544037 148.0
197.604172 176.0
197.673538 204.0
197.728256 244.0
197.83429 204.0
197.881622 124.0
197.93103 360.0
198.027969 264.0
198.13707 160.0
198.204636 248.0
198.313614 184.0
198.389297 188.0
198.440964 172.0
198.516876 104.0
198.643585 136.0
198.754883 264.0
198.80162 96.0
198.871002 144.0
198.920395 236.0
198.995026 168.0
199.102051 200.0
199.156586 176.0
199.234024 140.0
199.264923 168.0
199.370361 120.0
199.461639 148.0
199.489746 160.0
199.540359 160.0
199.583481 380.0
199.625793 104.0
199.679871 152.0
199.709305 156.0
199.799103 196.0
199.858185 176.0
199.935455 156.0
200.0186 148.0
200.119827 196.0
200.165009 204.0
200.307602 144.0
200.37442 276.0
200.432602 252.0
200.528778 124.0
200.555374 192.0
200.58197 360.0
200.604523 256.0
200.769073 144.0
200.806702 124.0
200.897812 144.0
200.949753 176.0
201.04895 148.0
201.130646 180.0
201.155731 152.0
201.191299 184.0
201.217758 144.0
201.250656 208.0
201.312714 164.0
201.383331 192.0
201.552826 140.0
201.612686 132.0
201.643265 164.0
201.730881 188.0
201.759232 144.0
201.867065 120.0
201.957108 160.0
202.112137 100.0
202.259857 156.0
202.283768 120.0
202.318726 216.0
202.359207 132.0
202.390625 172.0
202.541931 176.0
202.571823 260.0
202.707352 284.0
202.77858 120.0
202.809372 196.0
202.833572 116.0
202.866074 268.0
202.903366 232.0
202.964752 144.0
202.998962 156.0
203.065506 152.0
203.115616 160.0
203.197876 152.0
203.226257 148.0
203.246109 180.0
203.273865 128.0
203.382065 124.0
203.428726 128.0
203.521103 168.0
203.625778 124.0
203.684494 116.0
203.742432 168.0
203.825287 124.0
203.852158 200.0
203.878143 120.0
203.919159 196.0
203.968933 236.0
204.030853 172.0
204.078171 268.0
204.121735 188.0
204.166504 148.0
204.300186 156.0
204.32579 184.0
204.37822 160.0
204.418274 176.0
204.479462 192.0
204.570068 340.0
204.610077 176.0
204.702301 220.0
204.723221 288.0
204.861008 140.0
204.952637 148.0
205.090378 352.0
205.243851 300.0
205.268677 120.0
205.322769 152.0
205.35527 236.0
205.382416 140.0
205.510727 108.0
205.542435 208.0
205.729095 160.0
205.750778 144.0
205.950882 164.0
206.035553 220.0
206.090668 168.0
206.110672 148.0
206.17009 156.0
206.290329 148.0
206.358505 168.0
206.458771 196.0
206.533783 228.0
206.579544 188.0
206.708847 228.0
206.768982 352.0
206.824356 268.0
206.865723 160.0
206.954529 172.0
207.008881 176.0
207.04718 240.0
207.121902 164.0
207.190353 188.0
207.249802 300.0
207.293839 160.0
207.338318 368.0
207.387939 128.0
207.510315 144.0
207.557739 160.0
207.582001 152.0
207.610672 152.0
207.642227 172.0
207.724289 164.0
207.804062 200.0
207.84877 168.0
207.93602 140.0
208.020981 180.0
208.049683 156.0
208.168121 208.0
208.193588 292.0
208.258621 152.0
208.334 184.0
208.378494 172.0
208.428802 252.0
208.483582 128.0
208.506393 152.0
208.538422 140.0
208.563873 172.0
208.604126 216.0
208.641754 176.0
208.71254 124.0
208.74501 180.0
208.782196 228.0
208.811157 152.0
208.831284 164.0
208.963608 220.0
209.07872 232.0
209.116135 148.0
209.17836 212.0
209.259491 120.0
209.307022 220.0
209.395401 164.0
209.486221 204.0
209.515808 140.0
209.579773 308.0
209.608582 176.0
209.68367 152.0
209.704742 264.0
209.788849 176.0
209.819 208.0
209.855133 376.0
209.893967 192.0
209.961426 192.0
210.150284 180.0
210.185303 180.0
210.244476 112.0
210.338257 164.0
210.358459 188.0
210.416199 188.0
210.577606 184.0
210.634171 132.0
210.670349 292.0
210.737534 340.0
210.833817 208.0
210.912186 180.0
210.992676 96.0
211.051437 140.0
211.092331 140.0
211.230515 108.0
211.265869 216.0
211.340347 140.0
211.473358 236.0
211.517441 116.0
211.650803 148.0
211.685287 172.0
211.746368 156.0
211.794876 140.0
211.819946 136.0
211.852356 224.0
211.919556 168.0
212.012909 168.0
212.065079 152.0
212.163208 188.0
212.319931 120.0
212.381119 212.0
212.507111 168.0
212.560242 216.0
212.633545 152.0
212.65387 144.0
212.678391 152.0
212.750626 120.0
212.822128 136.0
212.860977 152.0
213.038849 172.0
213.060318 144.0
213.117416 128.0
213.295792 140.0
213.326752 220.0
213.433136 224.0
213.478088 148.0
213.510941 208.0
213.53421 144.0
213.568359 108.0
213.886276 288.0
213.969025 140.0
214.04155 3116.0
214.133774 148.0
214.293991 168.0
214.330582 164.0
214.413544 140.0
214.45845 228.0
214.508499 136.0
214.539169 160.0
214.565033 212.0
214.620438 172.0
214.667084 156.0
214.722504 184.0
214.845016 144.0
214.876099 152.0
215.047516 536.0
215.191284 148.0
215.259476 268.0
215.418259 200.0
215.443329 396.0
215.475616 144.0
215.893616 244.0
215.926956 160.0
215.956696 120.0
216.042084 884.0
216.083206 284.0
216.136414 192.0
216.172226 152.0
216.294449 144.0
216.338089 128.0
216.386749 136.0
216.413651 324.0
216.470322 168.0
216.543335 188.0
216.771835 140.0
216.812866 164.0
216.878677 132.0
216.910339 112.0
216.96759 168.0
217.000473 224.0
217.041443 144.0
217.090179 988.0
217.15094 128.0
217.172241 112.0
217.247742 116.0
217.411133 160.0
217.500198 152.0
217.565384 124.0
217.628357 204.0
217.71254 320.0
217.831268 160.0
217.880951 144.0
218.027588 128.0
218.095398 384.0
218.168076 148.0
218.309357 196.0
218.443192 172.0
218.504227 156.0
218.532593 160.0
218.602005 104.0
219.061157 252.0
219.107559 420.0
219.263596 136.0
219.347214 192.0
219.390686 172.0
219.462753 120.0
219.487991 160.0
219.546967 160.0
219.585846 172.0
219.746078 192.0
219.873825 192.0
220.065445 176.0
220.103989 348.0
220.134232 148.0
220.162231 140.0
220.343948 164.0
220.417557 176.0
220.547852 192.0
220.596786 192.0
220.622681 164.0
220.743713 176.0
220.910889 140.0
220.948334 148.0
220.982559 144.0
221.006149 180.0
221.087524 272.0
221.109802 256.0
221.155533 160.0
221.191254 224.0
221.234039 144.0
221.277695 128.0
221.30835 172.0
221.354538 192.0
221.386475 176.0
221.441406 168.0
221.61618 160.0
221.694641 312.0
221.716934 288.0
221.776215 148.0
221.807144 192.0
221.844391 148.0
221.86937 160.0
221.892914 160.0
221.937057 140.0
221.965958 172.0
222.044083 232.0
222.1884 164.0
222.224014 188.0
222.262573 160.0
222.2939 168.0
222.35025 208.0
222.434723 252.0
222.690689 160.0
222.794037 204.0
222.813202 184.0
222.917374 152.0
223.077698 116.0
223.19487 172.0
223.24881 148.0
223.296387 236.0
223.341187 260.0
223.384003 184.0
223.409424 164.0
223.454056 140.0
223.56575 204.0
223.666061 164.0
223.76358 216.0
223.849228 244.0
223.944656 124.0
223.993744 112.0
224.113205 192.0
224.142288 192.0
224.201462 156.0
224.246704 152.0
224.284912 256.0
224.30748 168.0
224.336945 236.0
224.389252 156.0
224.474182 304.0
224.550278 156.0
224.624954 104.0
224.661301 128.0
224.727081 164.0
224.75795 204.0
224.768051 168.0
224.860565 152.0
224.932205 152.0
224.978195 128.0
225.050507 188.0
225.093414 184.0
225.140152 212.0
225.16188 160.0
225.266647 204.0
225.333969 164.0
225.365982 248.0
225.479919 148.0
225.518723 200.0
225.593048 304.0
225.674194 208.0
225.702042 124.0
225.780853 172.0
225.819946 188.0
225.906372 152.0
225.970581 148.0
226.012283 180.0
226.041107 1088.0
226.093048 144.0
226.140808 128.0
226.191833 152.0
226.283035 164.0
226.337357 160.0
226.424194 148.0
226.573853 104.0
226.64888 148.0
226.683136 160.0
226.72937 116.0
226.816711 152.0
226.866898 140.0
226.928543 380.0
227.05014 716.0
227.16684 152.0
227.262314 164.0
227.308121 160.0
227.404602 208.0
227.450974 160.0
227.482178 188.0
227.528763 176.0
227.60611 196.0
227.687698 248.0
227.771378 184.0
227.828003 184.0
227.951187 152.0
228.057281 7144.0
228.134537 152.0
228.162796 100.0
228.201889 288.0
228.24794 436.0
228.313156 148.0
228.366501 140.0
228.396149 272.0
228.419479 148.0
228.498428 300.0
228.552582 140.0
228.695465 160.0
228.733429 180.0
228.787338 212.0
228.876404 180.0
228.938065 152.0
229.017776 284.0
229.065109 7528.0
229.137024 220.0
229.235825 140.0
229.271225 156.0
229.312363 108.0
229.439255 144.0
229.567734 172.0
229.64917 152.0
229.677155 156.0
229.739655 160.0
229.79718 172.0
229.827042 172.0
229.926743 112.0
230.057739 2408.0
230.096573 1080.0
230.166901 180.0
230.211075 164.0
230.302429 184.0
230.365738 200.0
230.419144 116.0
230.51358 160.0
230.621399 172.0
230.694595 132.0
230.731064 144.0
230.806519 136.0
230.84639 144.0
230.964371 152.0
231.019547 208.0
231.062485 1432.0
231.103683 2720.0
231.151703 176.0
231.214966 304.0
231.279816 148.0
231.407944 140.0
231.490921 168.0
231.515076 160.0
231.609085 124.0
231.673096 276.0
231.822922 204.0
231.924408 164.0
231.952332 200.0
232.068329 224.0
232.110504 3496.0
232.201263 180.0
232.253433 140.0
232.322876 164.0
232.388443 96.0
232.428329 176.0
232.530685 156.0
232.577072 164.0
232.61908 144.0
232.658249 140.0
232.727066 120.0
232.775452 160.0
232.863449 348.0
232.939453 144.0
232.995056 320.0
233.036362 328.0
233.11911 1464.0
233.189926 152.0
233.270065 156.0
233.398376 180.0
233.490372 140.0
233.547394 164.0
233.680267 212.0
233.715546 148.0
233.779861 180.0
233.878387 160.0
234.028229 152.0
234.071503 224.0
234.122833 460.0
234.196686 180.0
234.321548 184.0
234.377243 168.0
234.439835 160.0
234.581116 160.0
234.628433 168.0
234.687454 156.0
234.782593 144.0
235.02916 212.0
235.078384 148.0
235.112244 144.0
235.198898 156.0
235.232147 152.0
235.256897 172.0
235.312637 260.0
235.366043 112.0
235.410614 104.0
235.504227 144.0
235.548325 156.0
235.574493 116.0
235.638062 204.0
235.683533 236.0
235.755936 104.0
235.820053 120.0
235.945938 132.0
236.072693 192.0
236.237854 140.0
236.384827 116.0
236.467346 148.0
236.522446 164.0
236.556107 152.0
236.580597 376.0
236.632645 148.0
236.693893 180.0
236.805801 196.0
236.969376 260.0
236.997345 516.0
237.04039 136.0
237.085999 176.0
237.134613 144.0
237.166397 208.0
237.217789 208.0
237.240479 200.0
237.34671 160.0
237.400024 184.0
237.444702 144.0
237.48764 208.0
237.641525 148.0
237.696259 168.0
237.744736 140.0
237.82814 144.0
237.934128 136.0
238.029572 232.0
238.054047 184.0
238.112625 144.0
238.14946 160.0
238.174133 292.0
238.274658 344.0
238.32901 176.0
238.37265 296.0
238.480347 244.0
238.538757 308.0
238.593719 204.0
238.641144 200.0
238.678513 124.0
238.742981 168.0
238.83606 148.0
238.869888 156.0
238.891418 152.0
238.920471 172.0
238.975235 164.0
239.004105 200.0
239.043335 164.0
239.05603 272.0
239.107758 196.0
239.129044 236.0
239.188843 160.0
239.241409 160.0
239.342865 176.0
239.404114 148.0
239.427002 192.0
239.485519 176.0
239.513245 148.0
239.604935 172.0
239.647034 140.0
239.68045 276.0
239.713501 180.0
239.744446 188.0
239.808853 140.0
239.961227 204.0
240.00325 320.0
240.05452 536.0
240.117355 176.0
240.175461 224.0
240.212967 156.0
240.3302 144.0
240.4758 156.0
240.510635 164.0
240.552414 228.0
240.62262 140.0
240.660645 140.0
240.692368 196.0
240.746872 184.0
240.811783 188.0
240.898285 192.0
240.970001 168.0
241.004318 260.0
241.060776 300.0
241.085251 236.0
241.157364 156.0
241.194077 116.0
241.293854 184.0
241.52269 260.0
241.552307 200.0
241.584808 184.0
241.624039 184.0
241.649963 172.0
241.681427 248.0
241.751205 140.0
241.79451 132.0
241.93985 164.0
242.000473 104.0
242.073395 364.0
242.13176 328.0
242.181992 188.0
242.217957 144.0
242.243942 168.0
242.268463 144.0
242.315201 164.0
242.357803 224.0
242.47464 392.0
242.57634 228.0
242.610245 176.0
242.643723 176.0
242.713089 172.0
242.837341 176.0
242.937149 156.0
243.012314 456.0
243.074509 620.0
243.104553 3500.0
243.226761 144.0
243.370987 188.0
243.450409 120.0
243.490768 136.0
243.525223 180.0
243.573242 152.0
243.6008 176.0
243.626328 196.0
243.852951 144.0
243.91806 236.0
243.95166 120.0
244.049438 152.0
244.073502 432.0
244.110855 3596.0
244.165268 232.0
244.195755 164.0
244.216202 164.0
244.248047 132.0
244.323914 208.0
244.368835 148.0
244.392349 140.0
244.418518 156.0
244.487335 160.0
244.551071 200.0
244.616699 140.0
244.641342 260.0
244.675583 180.0
244.798462 120.0
245.027359 160.0
245.059372 376.0
245.119751 3040.0
245.250214 164.0
245.295517 180.0
245.370346 204.0
245.420364 272.0
245.447418 388.0
245.511978 152.0
245.549332 140.0
245.616699 148.0
245.700089 260.0
245.74678 208.0
245.809082 140.0
245.844467 112.0
245.892227 160.0
245.958054 112.0
246.011414 344.0
246.055939 192.0
246.127487 6512.0
246.262909 244.0
246.368469 156.0
246.433945 124.0
246.54303 116.0
246.58374 168.0
246.648682 292.0
246.78157 168.0
246.8246 152.0
246.915222 168.0
247.087006 836.0
247.134125 4888.0
247.247665 180.0
247.350098 272.0
247.401031 192.0
247.422287 208.0
247.44487 276.0
247.467651 124.0
247.507156 152.0
247.650711 120.0
247.806961 144.0
247.855103 156.0
247.911011 160.0
248.044815 140.0
248.094955 4056.0
248.137817 708.0
248.206253 164.0
248.236862 180.0
248.259567 364.0
248.29892 184.0
248.344742 156.0
248.391296 204.0
248.573257 288.0
248.607452 128.0
248.773102 132.0
248.856567 172.0
248.915421 160.0
249.100143 892.0
249.182404 144.0
249.20755 156.0
249.268738 136.0
249.32373 160.0
249.361526 168.0
249.436966 160.0
249.502625 216.0
249.527588 208.0
249.630264 156.0
249.741562 124.0
249.773422 300.0
249.884171 196.0
249.9534 124.0
250.043945 184.0
250.087112 332.0
250.141937 144.0
250.204544 280.0
250.25177 276.0
250.367416 152.0
250.396454 164.0
250.496201 196.0
250.661255 152.0
250.798523 116.0
250.827545 216.0
250.861069 172.0
250.903961 264.0
250.948593 200.0
250.996826 152.0
251.047302 596.0
251.238159 144.0
251.404175 184.0
251.437042 224.0
251.512787 216.0
251.630692 276.0
251.756714 188.0
251.805542 156.0
251.872147 164.0
251.971069 100.0
252.005447 184.0
252.057571 3248.0
252.158615 128.0
252.200089 156.0
252.293045 180.0
252.368484 160.0
252.470123 176.0
252.50174 152.0
252.527054 280.0
252.561844 144.0
252.634048 132.0
252.682053 144.0
252.727875 136.0
252.821274 176.0
252.87999 116.0
253.065643 7356.0
253.251785 216.0
253.327667 156.0
253.37468 364.0
253.582535 152.0
253.716537 144.0
253.77594 200.0
253.81012 128.0
253.858032 212.0
253.900482 172.0
253.943115 176.0
253.99675 184.0
254.066559 2376.0
254.132309 152.0
254.210724 144.0
254.266312 136.0
254.39151 148.0
254.483109 140.0
254.569855 160.0
254.607269 132.0
254.665421 132.0
254.733566 148.0
254.801056 204.0
254.911911 200.0
254.985199 140.0
255.062408 2880.0
255.13591 132.0
255.208176 212.0
255.250366 188.0
255.29631 164.0
255.387192 460.0
255.43428 124.0
255.504303 284.0
255.562561 124.0
255.610275 184.0
255.838165 268.0
256.023651 164.0
256.064362 552.0
256.111481 944.0
256.15802 164.0
256.230225 244.0
256.320496 128.0
256.429138 184.0
256.470123 192.0
256.504547 244.0
256.719269 144.0
256.763916 284.0
256.789429 144.0
256.884155 188.0
256.953888 236.0
256.994293 108.0
257.018677 140.0
257.072632 232.0
257.121582 2416.0
257.225159 100.0
257.25531 260.0
257.286194 124.0
257.3302 188.0
257.523529 208.0
257.632599 216.0
257.660553 148.0
257.679199 224.0
257.748871 120.0
257.792114 336.0
257.855713 124.0
257.938904 140.0
258.043579 168.0
258.082977 252.0
258.128204 25644.0
258.211578 180.0
258.281982 156.0
258.323456 176.0
258.365295 120.0
258.399078 152.0
258.457336 224.0
258.511169 236.0
258.565338 232.0
258.62558 140.0
258.669067 300.0
258.691162 120.0
258.727264 128.0
258.822266 232.0
258.853607 260.0
258.890747 176.0
258.972046 164.0
259.004669 320.0
259.039673 288.0
259.074493 284.0
259.136383 100784.0
259.2211 296.0
259.243866 164.0
259.27597 152.0
259.387787 276.0
259.423157 148.0
259.516205 304.0
259.605621 156.0
259.632538 268.0
259.662048 144.0
259.722107 156.0
259.90033 192.0
259.923462 280.0
259.956299 224.0
260.139771 16864.0
260.211853 152.0
260.300018 100.0
260.369781 176.0
260.419159 212.0
260.48941 100.0
260.562317 188.0
260.649872 164.0
260.719513 200.0
260.731628 160.0
260.770691 120.0
260.803467 252.0
260.864624 152.0
260.923492 144.0
260.947083 136.0
261.013153 232.0
261.043243 116.0
261.081635 136.0
261.140839 1208.0
261.258575 300.0
261.29187 120.0
261.389313 160.0
261.437256 156.0
261.540833 252.0
261.581696 248.0
261.650146 140.0
261.755096 140.0
261.798218 116.0
261.825378 140.0
261.854645 260.0
261.923645 96.0
261.961212 220.0
262.000977 188.0
262.024994 196.0
262.086212 284.0
262.194885 160.0
262.243317 200.0
262.300751 176.0
262.463715 196.0
262.555878 260.0
262.807861 200.0
262.893585 296.0
262.920685 184.0
262.989014 112.0
263.023895 204.0
263.060333 224.0
263.124329 112.0
263.187469 144.0
263.265808 152.0
263.344208 136.0
263.40332 104.0
263.501831 176.0
263.562042 316.0
263.761444 132.0
263.843597 200.0
263.918915 96.0
263.952728 112.0
263.981964 244.0
264.054962 380.0
264.090179 172.0
264.120667 220.0
264.213593 212.0
264.326355 176.0
264.381989 136.0
264.461731 116.0
264.6008 152.0
264.701843 156.0
264.770233 136.0
264.805481 360.0
264.830109 132.0
264.944763 144.0
265.064331 1040.0
265.116516 156.0
265.23642 160.0
265.263641 220.0
265.324799 156.0
265.387878 156.0
265.427704 172.0
265.527893 228.0
265.565063 224.0
265.5914 144.0
265.700165 192.0
265.745575 180.0
265.848083 168.0
265.886719 292.0
265.985718 180.0
266.023865 296.0
266.073578 29584.0
266.168182 100.0
266.210114 188.0
266.272522 136.0
266.330353 204.0
266.403809 140.0
266.47287 168.0
266.523621 200.0
266.561615 324.0
266.592407 152.0
266.617645 136.0
266.681152 296.0
266.731049 144.0
266.768066 188.0
266.797363 132.0
266.823792 164.0
266.870636 144.0
266.908478 168.0
266.997925 144.0
267.081757 115956.0
267.186707 104.0
267.232178 104.0
267.283844 192.0
267.347198 316.0
267.376007 396.0
267.419159 184.0
267.579865 180.0
267.616852 472.0
267.680786 144.0
267.728241 128.0
267.772797 252.0
267.829987 164.0
267.866364 212.0
267.954071 148.0
267.978394 312.0
268.026367 400.0
268.083008 20504.0
268.164368 172.0
268.23349 172.0
268.338165 140.0
268.390869 160.0
268.419037 200.0
268.487549 348.0
268.54657 192.0
268.599335 144.0
268.662201 232.0
268.695099 200.0
268.720886 368.0
268.78717 212.0
268.854492 140.0
268.914551 200.0
268.939423 152.0
269.018524 384.0
269.078583 30696.0
269.179779 164.0
269.267517 208.0
269.335358 172.0
269.37561 120.0
269.405945 160.0
269.577942 112.0
269.637421 184.0
269.757477 168.0
269.788666 220.0
269.850525 224.0
269.890778 152.0
269.945923 148.0
270.057526 2936.0
270.081787 4992.0
270.143219 200.0
270.187714 160.0
270.221252 96.0
270.277405 120.0
270.319489 212.0
270.492889 328.0
270.561646 120.0
270.639343 172.0
270.683014 124.0
270.823578 108.0
270.904114 176.0
270.929718 180.0
271.058228 712.0
271.099518 112.0
271.169464 152.0
271.235901 120.0
271.271301 144.0
271.334351 132.0
271.409424 120.0
271.448212 116.0
271.49054 112.0
271.563873 144.0
271.733582 152.0
271.771667 264.0
271.871429 148.0
271.965912 276.0
272.05069 1396.0
272.111084 188.0
272.202362 156.0
272.305603 172.0
272.350861 348.0
272.450348 164.0
272.515106 164.0
272.53714 280.0
272.635803 152.0
272.73761 184.0
272.76062 152.0
272.898804 136.0
272.948975 168.0
272.996613 176.0
273.04895 108.0
273.113403 160.0
273.142273 308.0
273.176727 96.0
273.32959 148.0
273.431 152.0
273.477264 128.0
273.588318 172.0
273.645416 172.0
273.721313 132.0
273.808594 148.0
273.887482 128.0
274.063873 292.0
274.108643 268.0
274.143921 804.0
274.253784 200.0
274.301178 164.0
274.358521 128.0
274.398224 100.0
274.429749 140.0
274.538574 188.0
274.673798 148.0
274.721802 108.0
274.818298 160.0
274.856873 132.0
274.908051 220.0
274.95932 260.0
275.050262 168.0
275.09787 116.0
275.143188 156.0
275.169128 240.0
275.234833 168.0
275.398376 356.0
275.449982 144.0
275.5354 292.0
275.578369 180.0
275.686462 196.0
275.835083 152.0
275.872498 148.0
275.934509 196.0
275.991821 152.0
276.062866 172.0
276.157227 140.0
276.21933 132.0
276.779022 160.0
276.932983 140.0
276.986206 144.0
277.068115 736.0
277.173218 152.0
277.324371 100.0
277.378693 280.0
277.434784 152.0
277.445221 208.0
277.75174 104.0
277.865173 256.0
277.908905 188.0
277.953186 144.0
277.988159 136.0
278.071594 2216.0
278.159546 196.0
278.192902 168.0
278.322296 140.0
278.374023 132.0
278.428162 108.0
278.631378 208.0
278.680176 368.0
278.746094 160.0
278.786743 104.0
278.885406 148.0
278.941833 240.0
278.986267 200.0
279.035431 168.0
279.081299 19424.0
279.18573 308.0
279.313293 160.0
279.369812 324.0
279.457764 188.0
279.514221 168.0
279.561401 248.0
279.634613 140.0
279.662231 224.0
279.744843 152.0
279.768066 152.0
279.898773 216.0
279.949158 184.0
279.989136 292.0
280.088684 27396.0
280.151794 408.0
280.216034 144.0
280.280884 116.0
280.312592 228.0
280.351257 156.0
280.435059 312.0
280.465424 104.0
280.53479 112.0
280.597168 180.0
280.710999 120.0
280.752075 144.0
280.813446 192.0
280.856659 232.0
280.920227 216.0
280.957489 184.0
281.096344 65236.0
281.2099 220.0
281.263458 164.0
281.363708 184.0
281.41095 180.0
281.446472 172.0
281.504303 228.0
281.655212 276.0
281.686829 272.0
281.754425 96.0
281.793518 296.0
281.844696 144.0
281.947266 108.0
281.984863 100.0
282.103394 39552.0
282.225769 272.0
282.375153 104.0
282.529572 172.0
282.693634 136.0
282.718292 120.0
282.793396 148.0
282.835693 236.0
282.886963 164.0
282.939484 164.0
282.965302 444.0
283.096985 16712.0
283.234131 164.0
283.286224 180.0
283.313843 200.0
283.443481 152.0
283.527039 120.0
283.612274 156.0
283.659088 156.0
283.825714 188.0
283.881134 156.0
283.958435 272.0
284.062744 1188.0
284.101562 7932.0
284.22644 188.0
284.348358 104.0
284.37851 132.0
284.473175 192.0
284.532288 104.0
284.569305 256.0
284.61853 164.0
284.681427 140.0
284.702484 180.0
284.763977 164.0
284.974548 216.0
284.998077 196.0
285.061554 1764.0
285.104767 1904.0
285.176453 160.0
285.248199 160.0
285.392792 136.0
285.527924 124.0
285.58252 220.0
285.620026 212.0
285.655609 368.0
285.712189 132.0
285.743683 216.0
285.968018 196.0
286.065582 252.0
286.11145 380.0
286.317627 152.0
286.44809 156.0
286.539978 176.0
286.619934 188.0
286.666565 128.0
286.764282 168.0
286.856506 104.0
286.892914 172.0
286.941498 128.0
286.973846 172.0
287.011414 116.0
287.081757 244.0
287.119141 656.0
287.201324 96.0
287.253754 172.0
287.287506 260.0
287.518127 148.0
287.554962 152.0
287.801727 208.0
287.951599 124.0
287.996277 156.0
288.042725 144.0
288.134613 104.0
288.234802 104.0
288.315186 120.0
288.418976 180.0
288.499329 152.0
288.545837 100.0
288.656738 216.0
288.689209 276.0
288.823792 220.0
288.871857 172.0
288.90332 188.0
288.966583 148.0
289.023804 136.0
289.123993 116.0
289.170746 144.0
289.227844 216.0
289.430573 244.0
289.490936 220.0
289.599609 164.0
289.657043 264.0
289.762207 228.0
289.823212 256.0
289.887604 212.0
289.987152 224.0
290.075775 412.0
290.158752 200.0
290.352051 148.0
290.428345 96.0
290.462494 156.0
290.484131 276.0
290.652649 208.0
290.77298 128.0
290.916565 128.0
291.03537 156.0
291.085541 460.0
291.442841 216.0
291.480835 164.0
291.531799 212.0
291.584625 140.0
291.623871 268.0
291.65921 148.0
291.795349 140.0
291.864044 172.0
291.893799 168.0
291.972015 176.0
292.089447 10280.0
292.184784 116.0
292.252472 200.0
292.316681 256.0
292.345398 192.0
292.47226 132.0
292.567688 132.0
292.642395 180.0
292.688995 116.0
292.748779 144.0
292.860535 136.0
292.908508 136.0
293.092773 2384.0
293.225891 204.0
293.481262 232.0
293.506409 192.0
293.534485 168.0
293.716248 168.0
293.747894 156.0
293.810089 144.0
293.89328 320.0
293.938171 120.0
293.966187 132.0
294.019714 424.0
294.105072 58212.0
294.20813 120.0
294.291412 124.0
294.337769 224.0
294.365509 104.0
294.416443 172.0
294.463379 192.0
294.50705 96.0
294.590607 96.0
294.639008 184.0
294.780762 124.0
294.838806 208.0
294.868469 232.0
294.914429 152.0
294.96817 164.0
295.010254 336.0
295.107025 10368.0
295.233551 136.0
295.277283 116.0
295.349213 96.0
295.529938 212.0
295.63739 196.0
295.707458 284.0
295.779266 344.0
295.834137 104.0
295.971497 132.0
296.00528 268.0
296.052551 192.0
296.101929 13836.0
296.359772 140.0
296.390839 160.0
296.413147 220.0
296.463379 108.0
296.499054 212.0
296.53421 196.0
296.593689 188.0
296.630402 140.0
296.709167 120.0
296.794952 120.0
296.871979 116.0
296.903381 108.0
296.93396 120.0
296.976593 128.0
297.00116 148.0
297.106049 1964.0
297.167511 148.0
297.231049 200.0
297.26004 160.0
297.29361 216.0
297.338409 108.0
297.417267 364.0
297.601959 140.0
297.640564 188.0
297.751007 192.0
297.787567 156.0
297.918427 212.0
298.010803 124.0
298.077362 124.0
298.114471 144.0
298.154572 156.0
298.193451 224.0
298.227539 196.0
298.317566 144.0
298.365814 128.0
298.512085 204.0
299.023376 164.0
299.132233 196.0
299.221252 420.0
299.313232 220.0
299.38916 212.0
299.436523 168.0
299.46524 132.0
299.577759 184.0
299.691437 168.0
299.74884 140.0
299.805542 108.0
299.869598 272.0
300.028625 216.0
300.124695 132.0
300.183167 160.0
300.234894 112.0
300.374268 196.0
300.432709 208.0
300.49826 168.0
300.554474 132.0
300.74881 212.0
300.855469 136.0
300.914886 152.0
300.967651 196.0
301.015991 184.0
301.056122 176.0
301.133057 952.0
301.216339 152.0
301.263824 144.0
301.297546 136.0
301.35965 164.0
301.53421 360.0
301.589935 212.0
301.708954 176.0
301.778625 196.0
301.89386 128.0
301.969849 156.0
302.073608 148.0
302.141144 10412.0
302.221619 140.0
302.268982 196.0
302.432861 196.0
302.488861 140.0
302.66629 96.0
302.722443 144.0
302.838043 160.0
302.907166 128.0
303.014435 356.0
303.03952 144.0
303.143311 2000.0
303.210846 288.0
303.306366 140.0
303.360168 240.0
303.388672 284.0
303.651093 104.0
303.691223 152.0
303.725647 160.0
303.847351 140.0
303.935852 132.0
304.017365 140.0
304.14798 316.0
304.224091 280.0
304.253387 144.0
304.298523 184.0
304.362854 136.0
304.413116 164.0
304.447845 168.0
304.515381 160.0
304.624359 180.0
304.665863 144.0
304.818665 144.0
305.030731 204.0
305.063629 160.0
305.108887 96.0
305.135834 140.0
305.163666 172.0
305.249237 128.0
305.31189 96.0
305.343658 140.0
305.411682 112.0
305.576233 136.0
305.701324 112.0
305.7612 160.0
305.914734 132.0
306.082947 216.0
306.120544 232.0
306.149841 108.0
306.207611 264.0
306.252899 180.0
306.297424 240.0
306.416626 224.0
306.456085 140.0
306.505585 148.0
306.56485 196.0
306.608276 180.0
306.662262 204.0
306.806946 156.0
307.036163 136.0
307.079376 328.0
307.113831 160.0
307.261749 140.0
307.288239 148.0
307.351044 144.0
307.389435 228.0
307.493591 104.0
307.553528 156.0
307.592804 156.0
307.635834 164.0
307.672424 104.0
307.754608 168.0
307.844208 144.0
307.892151 236.0
308.012207 204.0
308.078125 332.0
308.168091 152.0
308.207672 112.0
308.278442 148.0
308.505768 184.0
308.549072 168.0
308.695923 188.0
308.751801 168.0
308.885864 140.0
308.982727 148.0
309.026947 132.0
309.116089 2156.0
309.316925 192.0
309.392365 112.0
309.456451 176.0
309.593201 120.0
309.773926 156.0
309.922852 120.0
310.08139 304.0
310.122681 576.0
310.246216 124.0
310.437775 148.0
310.488953 216.0
310.555603 196.0
310.601196 148.0
310.715302 160.0
310.82782 208.0
310.941528 156.0
311.130402 2952.0
311.168488 140.0
311.227051 248.0
311.406494 180.0
311.510376 152.0
311.563049 232.0
311.617004 136.0
311.766205 244.0
311.822052 296.0
312.013519 184.0
312.063721 168.0
312.136169 716.0
312.298615 192.0
312.619781 260.0
312.684113 128.0
312.765717 136.0
312.830078 100.0
312.924133 168.0
313.00882 148.0
313.130005 1164.0
313.232727 108.0
313.431824 304.0
313.466583 156.0
313.526489 164.0
313.725281 268.0
313.860229 112.0
314.019257 324.0
314.135834 272.0
314.256744 180.0
314.299438 188.0
314.496399 148.0
314.598755 256.0
314.648193 144.0
314.675995 128.0
314.758423 292.0
314.788666 148.0
314.955414 180.0
315.13559 148.0
315.235504 116.0
315.382965 160.0
315.419434 152.0
315.539642 160.0
315.602142 140.0
315.827209 136.0
316.306183 144.0
316.36969 228.0
316.629395 140.0
316.693298 244.0
316.77713 140.0
316.824005 224.0
316.950745 144.0
316.993256 244.0
317.054657 224.0
317.327911 236.0
317.429047 152.0
317.502045 140.0
317.601471 320.0
317.687012 136.0
317.794647 160.0
317.858582 184.0
317.897552 156.0
317.954315 212.0
318.000458 184.0
318.099609 168.0
318.289246 128.0
318.349579 132.0
318.407135 96.0
318.433899 148.0
318.771118 232.0
318.886078 140.0
318.997986 164.0
319.097961 428.0
319.152344 148.0
319.249084 196.0
319.492523 152.0
319.588959 292.0
319.660126 148.0
319.770447 152.0
319.886719 248.0
320.082733 1100.0
320.149658 620.0
320.187012 172.0
320.210388 160.0
320.462463 208.0
320.493195 152.0
320.533936 204.0
320.568207 212.0
320.698273 200.0
320.745758 156.0
320.813293 240.0
320.978149 156.0
321.08371 352.0
321.206329 132.0
321.334839 144.0
321.38446 132.0
321.424042 160.0
321.809509 152.0
321.841644 160.0
321.952972 168.0
322.012848 192.0
322.087372 10548.0
322.244049 152.0
322.307587 248.0
322.348877 156.0
322.429565 132.0
322.45871 176.0
322.524017 148.0
322.562256 132.0
322.734924 224.0
322.885132 344.0
322.927155 224.0
323.088623 1592.0
323.19043 140.0
323.232147 104.0
323.332336 228.0
323.64093 112.0
323.668854 212.0
323.723816 292.0
324.08374 2644.0
324.330963 204.0
324.39389 96.0
324.530304 236.0
324.751129 160.0
324.896393 176.0
324.987915 228.0
325.092651 104.0
325.169769 128.0
325.274048 144.0
325.361176 304.0
325.477356 212.0
325.751007 220.0
325.842407 168.0
325.878174 156.0
325.932709 152.0
326.121246 168.0
326.182465 180.0
326.217407 184.0
326.244934 148.0
326.607819 180.0
326.698059 144.0
326.779907 156.0
326.827576 176.0
326.883972 196.0
326.931702 128.0
327.092346 148.0
327.126312 172.0
327.457581 140.0
327.507996 148.0
327.559875 192.0
327.76651 180.0
327.89682 304.0
327.947479 132.0
328.082092 200.0
328.181915 144.0
328.219879 112.0
328.298279 176.0
328.384644 164.0
328.571442 160.0
328.935913 204.0
328.964783 160.0
329.017365 292.0
329.101257 156.0
329.144928 112.0
329.308258 196.0
329.437408 216.0
329.641174 264.0
329.683563 148.0
329.744293 160.0
329.801117 136.0
329.841553 112.0
329.900421 184.0
329.986084 184.0
330.092072 168.0
330.234314 144.0
330.301819 184.0
330.381409 180.0
330.540619 160.0
330.58194 152.0
330.824158 176.0
330.880707 160.0
330.978607 184.0
331.159668 232.0
331.222473 324.0
331.291138 176.0
331.329926 168.0
331.384277 236.0
331.462494 148.0
331.597046 112.0
331.687347 196.0
331.730194 152.0
331.895355 172.0
331.975128 180.0
332.096222 148.0
332.12381 144.0
332.167358 156.0
332.222198 176.0
332.273773 120.0
332.448425 152.0
332.481659 108.0
332.689484 172.0
332.750854 152.0
332.811371 180.0
332.850769 104.0
332.951355 156.0
333.10025 148.0
333.152832 104.0
333.198334 260.0
333.255585 160.0
333.375427 180.0
333.435425 112.0
333.519867 200.0
333.565399 180.0
333.601746 144.0
333.754456 192.0
333.7883 168.0
333.924835 112.0
334.006744 152.0
334.086548 284.0
334.167603 360.0
334.296448 144.0
334.35199 152.0
334.452301 136.0
334.524628 100.0
334.553192 176.0
334.649048 416.0
334.791534 208.0
334.827972 164.0
334.901917 352.0
335.094543 1344.0
335.159454 144.0
335.193787 152.0
335.263733 124.0
335.3526 188.0
335.554138 212.0
335.642578 164.0
335.666687 132.0
335.732056 104.0
335.8013 132.0
335.836365 200.0
335.889984 116.0
336.040314 124.0
336.095673 484.0
336.19046 296.0
336.253479 196.0
336.390106 140.0
336.482391 248.0
336.520874 200.0
336.596252 172.0
336.680267 156.0
336.710175 276.0
336.753448 248.0
336.830994 180.0
336.882599 164.0
336.95108 340.0
337.111237 171768.0
337.18045 208.0
337.232269 252.0
337.362732 116.0
337.404297 220.0
337.44046 292.0
337.526489 328.0
337.644409 148.0
337.713959 304.0
337.780792 184.0
337.820618 188.0
337.849182 248.0
337.921722 152.0
337.989777 352.0
338.02063 144.0
338.050262 348.0
338.113342 33932.0
338.244507 144.0
338.285156 100.0
338.371094 288.0
338.426361 136.0
338.457764 228.0
338.556305 236.0
338.585541 200.0
338.672821 208.0
338.778229 204.0
338.84436 284.0
338.921753 112.0
338.979706 328.0
339.035828 308.0
339.107941 45868.0
339.162079 7100.0
339.222992 224.0
339.331543 120.0
339.523071 132.0
339.605225 204.0
339.680115 120.0
339.747284 184.0
339.775665 152.0
339.80603 176.0
339.834045 172.0
339.90918 124.0
339.943481 172.0
340.015533 120.0
340.05542 384.0
340.110413 7648.0
340.164948 1600.0
340.318542 176.0
340.333954 264.0
340.406403 112.0
340.450897 124.0
340.507599 112.0
340.580261 244.0
340.60733 136.0
340.655975 144.0
340.679321 180.0
340.737518 140.0
340.785858 124.0
340.86969 168.0
341.112671 332.0
341.158905 3268.0
341.258728 164.0
341.283112 152.0
341.314545 140.0
341.349304 140.0
341.438599 148.0
341.467194 268.0
341.569824 120.0
341.659424 96.0
341.735168 100.0
342.024445 220.0
342.105499 200.0
342.162262 412.0
342.255768 252.0
342.377838 124.0
342.446014 204.0
342.474213 248.0
342.52713 364.0
342.55777 104.0
342.623932 172.0
342.684204 324.0
342.766602 172.0
342.815155 260.0
342.931732 148.0
343.125732 240.0
343.167969 216.0
343.21051 168.0
343.260162 108.0
343.354034 184.0
343.459137 128.0
343.524567 208.0
343.625732 204.0
343.692139 244.0
343.735779 280.0
343.824066 216.0
343.881287 124.0
343.912933 188.0
343.960114 112.0
344.125397 148.0
344.274811 156.0
344.344269 184.0
344.476318 228.0
344.559814 176.0
344.618927 144.0
344.652161 192.0
344.769714 140.0
344.811066 192.0
344.870209 168.0
344.910095 172.0
344.959961 144.0
345.042419 136.0
345.114197 204.0
345.17337 204.0
345.292847 184.0
345.61084 132.0
345.643158 144.0
345.809692 148.0
346.065399 152.0
346.13916 164.0
346.320648 200.0
346.403137 204.0
346.606018 120.0
346.673004 152.0
346.720764 140.0
346.77887 148.0
346.952484 180.0
347.121155 164.0
347.172974 176.0
347.205353 216.0
347.289825 116.0
347.457031 116.0
347.51062 144.0
347.616516 120.0
347.731293 164.0
347.822357 152.0
347.911438 288.0
348.081299 124.0
348.184204 1064.0
348.235229 184.0
348.34967 172.0
348.452942 160.0
348.572571 140.0
348.838531 296.0
348.929413 152.0
348.998657 192.0
349.06955 156.0
349.191467 272.0
349.399384 292.0
349.453217 148.0
349.675354 188.0
349.838043 168.0
349.977051 132.0
350.038208 248.0
350.164154 132.0
350.358521 148.0
350.406952 152.0
350.759613 128.0
350.85791 204.0
351.040619 148.0
351.100281 164.0
351.220001 164.0
351.290985 136.0
351.359436 144.0
351.486603 108.0
351.556183 140.0
351.599426 216.0
351.709442 244.0
351.8573 128.0
352.107941 144.0
352.255676 116.0
352.426331 160.0
352.461304 156.0
352.593628 196.0
352.765564 156.0
352.821655 184.0
352.871185 176.0
353.022827 124.0
353.110687 360.0
353.17511 108.0
353.220642 144.0
353.335632 112.0
353.457001 120.0
353.573914 108.0
353.708252 164.0
353.753174 168.0
353.817474 284.0
353.932861 188.0
353.97937 124.0
354.022736 140.0
354.058319 96.0
354.106171 832.0
354.294952 196.0
355.000336 236.0
355.120819 2532.0
355.263397 172.0
355.399475 120.0
355.435974 196.0
355.640045 192.0
355.702454 280.0
355.856384 144.0
355.8927 116.0
356.007263 176.0
356.120728 792.0
356.22818 148.0
356.380707 140.0
356.416016 248.0
356.543793 152.0
356.6716 140.0
356.699493 160.0
356.964203 140.0
357.12146 1076.0
357.243164 140.0
357.369751 180.0
357.39743 168.0
357.491486 156.0
357.529114 160.0
357.649567 160.0
357.781311 164.0
357.950623 140.0
358.030945 108.0
358.129333 448.0
358.194031 244.0
358.274658 204.0
358.539154 104.0
358.632355 148.0
358.728577 224.0
358.783081 172.0
358.894806 156.0
358.977112 168.0
359.214905 132.0
359.486145 184.0
359.664856 184.0
359.743927 160.0
359.771851 180.0
360.009735 164.0
360.119263 164.0
360.179688 356.0
360.238647 188.0
360.38269 136.0
360.411407 208.0
360.500854 140.0
360.557526 164.0
360.667145 164.0
360.727631 156.0
360.759583 96.0
360.801666 184.0
360.980927 168.0
361.062439 144.0
361.173828 144.0
361.340271 248.0
361.476227 172.0
361.521149 144.0
361.661926 216.0
361.706177 140.0
361.813354 168.0
361.875641 188.0
361.916321 164.0
361.96167 184.0
362.05191 164.0
362.125702 180.0
362.245056 180.0
362.307739 132.0
362.6922 172.0
362.993317 160.0
363.238678 216.0
363.283752 164.0
363.47348 144.0
363.503815 244.0
363.553162 140.0
363.815063 192.0
363.859436 196.0
363.962311 188.0
363.99942 224.0
364.171997 200.0
364.239197 168.0
364.334106 172.0
364.391327 168.0
364.456909 192.0
364.493683 192.0
364.529114 160.0
364.612732 108.0
364.667114 204.0
365.039886 132.0
365.093414 200.0
365.137512 124.0
365.269562 144.0
365.311157 208.0
365.425293 256.0
365.487366 180.0
365.533142 144.0
365.601532 228.0
365.768982 148.0
365.890808 248.0
365.91745 148.0
366.003418 140.0
366.056 188.0
366.249481 132.0
366.354523 220.0
366.683136 172.0
366.809845 264.0
366.883698 176.0
366.953796 160.0
367.140167 132.0
367.256531 124.0
367.622009 128.0
367.863953 204.0
368.130127 168.0
368.303894 144.0
368.413086 108.0
368.484253 252.0
368.652374 168.0
368.755585 204.0
368.914795 140.0
369.00589 200.0
369.055664 176.0
369.129395 164.0
369.234161 204.0
369.332672 172.0
369.483551 300.0
369.557098 188.0
369.667847 160.0
369.96936 200.0
370.090668 152.0
370.12616 232.0
370.228516 148.0
370.3013 212.0
370.442169 160.0
370.730377 160.0
370.768707 156.0
370.941193 148.0
370.997498 200.0
371.060608 176.0
371.362976 160.0
371.459106 128.0
371.506256 148.0
371.552612 200.0
371.609985 176.0
371.776337 140.0
371.823364 140.0
371.865601 148.0
371.92038 152.0
372.189697 136.0
372.322479 188.0
372.508484 188.0
372.631531 96.0
372.706604 168.0
372.931976 100.0
372.966156 196.0
373.095642 128.0
373.157196 160.0
373.32489 200.0
373.416107 144.0
373.508087 204.0
373.537689 244.0
373.76181 176.0
373.930664 204.0
374.023407 104.0
374.133362 100.0
374.265808 192.0
374.445282 108.0
374.604126 176.0
374.722778 292.0
375.015656 156.0
375.077332 164.0
375.109894 200.0
375.72049 144.0
375.766693 148.0
375.838867 172.0
376.168793 148.0
376.27887 160.0
376.313873 264.0
376.435394 208.0
376.484344 148.0
376.633118 188.0
376.806152 276.0
376.861237 232.0
376.937531 164.0
377.066528 120.0
377.119202 148.0
377.301147 128.0
377.518982 140.0
377.59198 316.0
377.644287 148.0
377.685516 216.0
377.726288 184.0
377.805176 132.0
377.836823 108.0
377.986511 184.0
378.117065 160.0
378.173248 212.0
378.209808 296.0
378.358612 120.0
378.416595 196.0
378.52121 212.0
378.683746 104.0
378.733978 152.0
378.772736 104.0
378.957245 152.0
379.011627 140.0
379.077698 152.0
379.236206 168.0
379.394592 200.0
379.470673 252.0
379.536865 108.0
379.585907 188.0
379.624329 140.0
379.889069 148.0
380.015869 268.0
380.12204 176.0
380.177521 116.0
380.232452 108.0
380.284698 140.0
380.378754 196.0
380.433044 164.0
380.47168 200.0
380.501038 172.0
380.535156 156.0
380.622253 212.0
380.773621 216.0
380.801544 296.0
380.849884 264.0
380.883728 116.0
380.91568 180.0
380.97522 372.0
381.027985 164.0
381.094452 132.0
381.137085 448.0
381.20282 336.0
381.26181 140.0
381.349548 176.0
381.391205 312.0
381.441528 120.0
381.474579 340.0
381.62146 136.0
381.667816 236.0
381.713928 176.0
381.783142 116.0
381.824829 276.0
381.895691 176.0
381.922119 292.0
381.987091 256.0
382.0159 304.0
382.082397 344.0
382.134216 204.0
382.177246 388.0
382.209442 760.0
382.263947 224.0
382.313141 352.0
382.407043 224.0
382.45578 552.0
382.510254 364.0
382.558411 284.0
382.602112 544.0
382.629578 228.0
382.681915 620.0
382.733398 284.0
382.789459 652.0
382.813354 776.0
382.843048 692.0
382.868134 656.0
382.913574 456.0
382.955353 1240.0
383.009155 988.0
383.093628 1208.0
383.15509 240752.0
383.260956 196.0
383.291626 112.0
383.415588 260.0
383.516998 876.0
383.58609 420.0
383.679321 216.0
383.74295 360.0
383.798828 12584.0
383.878998 680.0
383.928314 256.0
383.960266 364.0
384.010468 324.0
384.157043 167028.0
384.287567 96.0
384.43396 308.0
384.496307 360.0
384.541534 168.0
384.567932 356.0
384.613586 456.0
384.675598 228.0
384.730316 192.0
384.798401 1404.0
384.896759 336.0
384.93869 220.0
384.98288 528.0
384.996704 384.0
385.048584 712.0
385.151703 198196.0
385.346405 100.0
385.394104 456.0
385.460083 196.0
385.506775 332.0
385.578583 128.0
385.604767 260.0
385.650208 128.0
385.691925 184.0
385.74054 308.0
385.795288 1120.0
385.885132 540.0
385.94516 212.0
386.001129 156.0
386.048462 148.0
386.095337 396.0
386.152985 38620.0
386.304443 212.0
386.364044 316.0
386.445435 304.0
386.5065 512.0
386.53241 236.0
386.577606 200.0
386.603821 388.0
386.618286 492.0
386.631378 412.0
386.714294 436.0
386.750916 476.0
386.799652 416.0
386.862335 236.0
386.889404 324.0
387.016968 124.0
387.090851 124.0
387.15506 720.0
387.247375 164.0
387.348999 416.0
387.422394 120.0
387.484161 96.0
387.574066 144.0
387.639648 204.0
387.68399 100.0
387.739197 156.0
387.803558 192.0
387.927979 220.0
388.05307 152.0
388.137024 136.0
388.248535 160.0
388.329407 212.0
388.389069 116.0
388.450104 104.0
388.508484 160.0
388.555359 136.0
388.593292 196.0
388.641479 136.0
388.671692 244.0
388.70752 236.0
388.785797 168.0
389.060669 192.0
389.256531 224.0
389.328308 124.0
389.393677 152.0
389.433838 132.0
389.503326 112.0
389.5914 128.0
389.684875 124.0
389.850586 100.0
389.935181 136.0
390.013458 132.0
390.397614 96.0
390.732788 104.0
391.81015 104.0
392.000946 148.0
392.897339 148.0
395.114716 100.0
395.584747 96.0
395.638702 144.0
395.783936 164.0
395.816864 196.0
395.894592 156.0
397.452362 120.0
397.714355 156.0
398.147919 132.0
398.262512 96.0
398.782349 152.0
400.12915 112.0
400.324219 140.0
400.662079 100.0
401.55957 120.0
402.054169 112.0
402.303253 108.0
402.658173 136.0
405.407959 96.0
406.882904 108.0
413.312836 156.0
416.354675 172.0
417.434357 100.0
417.65155 96.0
421.702484 108.0
424.598755 168.0
445.900391 104.0
456.846283 148.0
467.206543 132.0
518.644226 156.0
519.484619 120.0
523.541992 140.0
535.744385 184.0
540.415649 108.0
561.270813 128.0
562.070374 152.0
566.67572 144.0
569.365356 144.0
606.335144 148.0
609.385254 112.0
610.026245 144.0
616.759827 180.0
634.662598 156.0
644.558655 164.0
649.34613 108.0
659.507202 124.0
659.822388 140.0
661.571045 160.0
669.031372 140.0
680.283264 100.0
685.768311 144.0
688.716309 140.0
727.462891 144.0
778.557556 228.0
787.284241 140.0
838.923889 112.0
892.03772 156.0
920.577942 128.0
1012.855164 148.0
1042.584106 96.0
1047.967896 116.0
1061.477661 104.0
1070.672607 156.0
1072.76416 152.0
1134.333984 224.0
1177.709839 192.0
1183.242065 144.0
1188.807861 232.0
1479.803345 156.0
1536.059326 156.0
1568.594482 156.0
1581.28772 164.0
1588.244385 160.0
1602.392212 200.0
1652.83606 172.0
1654.665283 176.0
1654.940552 164.0
1703.607056 192.0
1706.401367 224.0
1715.869507 148.0
1742.062744 176.0
1754.104614 108.0
1757.615234 176.0
1766.404297 204.0
1774.540771 116.0
1778.311157 156.0
1790.232666 152.0
1793.805054 144.0
1820.49939 164.0
1821.15332 148.0
1825.853394 144.0
1828.056763 180.0
1839.750854 160.0
1866.226685 168.0
1870.491821 224.0
1878.24707 152.0
1883.46936 176.0
1884.860229 152.0
1892.281494 172.0
1897.141846 176.0
1899.46582 144.0
1901.131714 192.0
1901.39209 148.0
1903.354004 148.0
1906.611572 208.0
1909.454468 140.0
1923.07251 144.0
1934.322021 188.0
1935.48645 200.0
1936.751343 128.0
1937.91272 168.0
1939.989746 156.0
1942.603027 248.0
1942.796021 140.0
1943.304932 176.0
1947.922729 140.0
1950.339233 172.0
1951.587524 180.0
1955.352661 144.0
1958.883423 168.0
1959.156494 204.0
1961.024658 244.0
1966.466553 220.0
1971.005737 200.0
1972.163452 140.0
1973.887451 140.0
1978.213867 188.0
1984.557373 192.0
1991.834595 152.0
1994.722534 160.0
1996.305176 152.0
1997.381348 156.0
1998.774292 148.0
1999.65271 120.0
2002.802246 268.0
