>compound MLS001158080-01!N-[3-(2-oxopyrrolidin-1-yl)propyl]-3-(2,3,5,9-tetramethyl-7-oxofuro[3,2-g]chromen-6-yl)propanamide
>formula C25H30N2O5
>ionization [M+H]+
>parentmass 439.224609
#inchi InChI=1S/C25H30N2O5/c1-14-17(4)31-23-16(3)24-20(13-19(14)23)15(2)18(25(30)32-24)8-9-21(28)26-10-6-12-27-11-5-7-22(27)29/h13H,5-12H2,1-4H3,(H,26,28)
#inchikey QUMQGUKQKPMFHH
#Ion_Source LC-ESI
#Instrument qTof
#Compound_Source NIH Natural Product Library
#PI Dorrestein
#Data_Collector VVP/LMS
#Scan -1
#Precursor_MZ 439.223
#ExactMass 438.215
#Charge 1
#CAS_Number N/A
#Pubmed_ID N/A
#Smiles Cc1oc2c(C)c3oc(=O)c(CCC(=O)NCCCN4CCCC4=O)c(C)c3cc2c1C
#INCHI_AUX N/A
#Library_Class 1
#SpectrumID CCMSLIB00000079621
#IonMode Positive
#UpdateWorkflowName UPDATE-SINGLE-ANNOTATED-GOLD
#LibraryQualityString Gold
#TaskID b1d8e8f6646f4e71acdff9ca3d919d08
##Scan# 2028
#SpectrumFile p1-H08_GH8_01_17964.mzXML
#LibraryName NIH_Natural_Products_Library.mgf
#MQScore -1
#Organism NIH_Natural_Products_Library
#TIC_Query 0
#RT_Query -1
#MZErrorPPM -1
#SharedPeaks 0
#MassDiff 0
#LibMZ -1
#SpecMZ 439.223
#SpecCharge 0
#internalFilename spec-00000.mgf

>collision 10
95.003143 160.0
95.021622 160.0
95.048233 140.0
95.075958 116.0
95.154945 144.0
95.184387 140.0
95.206024 208.0
95.245804 208.0
95.268867 192.0
95.297325 352.0
95.328529 132.0
95.343964 196.0
95.39061 220.0
95.454773 132.0
95.511169 236.0
95.567589 52.0
95.600212 120.0
95.649323 96.0
95.680473 212.0
95.696045 332.0
95.710693 136.0
95.735054 228.0
95.787201 288.0
95.824593 92.0
95.853058 92.0
95.861473 56.0
95.866707 144.0
95.883942 144.0
95.906128 148.0
95.95079 136.0
95.964119 252.0
96.009773 116.0
96.024361 284.0
96.056587 132.0
96.093651 96.0
96.107307 112.0
96.241989 184.0
96.291611 160.0
96.326294 192.0
96.383904 312.0
96.423134 132.0
96.470116 120.0
96.570297 60.0
96.593773 64.0
96.625076 104.0
96.640495 172.0
96.672035 132.0
96.699432 176.0
96.713135 124.0
96.861374 136.0
96.961044 340.0
97.016762 208.0
97.038322 136.0
97.093231 168.0
97.131714 84.0
97.155998 156.0
97.197197 132.0
97.24234 104.0
97.297302 112.0
97.320862 220.0
97.348351 220.0
97.371918 100.0
97.385666 176.0
97.443703 176.0
97.503548 120.0
97.52655 180.0
97.554932 168.0
97.582176 144.0
97.609703 148.0
97.660248 280.0
97.723793 276.0
97.758606 104.0
97.810379 36.0
97.832031 124.0
97.926552 200.0
97.98101 180.0
98.037636 136.0
98.060013 3360.0
98.097977 188.0
98.123611 88.0
98.153183 176.0
98.175278 292.0
98.232544 152.0
98.251869 120.0
98.298416 292.0
98.38205 60.0
98.439308 156.0
98.46315 112.0
98.48893 164.0
98.510414 56.0
98.534119 176.0
98.55751 196.0
98.631271 124.0
98.674446 124.0
98.708061 92.0
98.82476 172.0
98.844597 164.0
98.863152 100.0
98.911835 220.0
98.933609 228.0
98.953346 192.0
98.958702 172.0
98.991035 136.0
99.005844 196.0
99.038567 128.0
99.060921 464.0
99.092049 28.0
99.121773 204.0
99.166153 132.0
99.203033 180.0
99.236732 152.0
99.304161 160.0
99.325981 196.0
99.3974 88.0
99.447014 116.0
99.506569 92.0
99.522034 172.0
99.537903 240.0
99.572098 52.0
99.668282 192.0
99.744179 252.0
99.785019 160.0
99.814545 164.0
99.848778 148.0
99.866249 88.0
99.891129 128.0
99.904045 200.0
99.917969 148.0
99.973686 124.0
99.989609 232.0
100.05246 180.0
100.057426 56.0
100.064377 176.0
100.196693 128.0
100.238541 116.0
100.262451 100.0
100.284439 128.0
100.312279 184.0
100.346176 116.0
100.362122 128.0
100.415909 136.0
100.443893 80.0
100.479797 152.0
100.551636 84.0
100.597542 184.0
100.65345 40.0
100.685593 164.0
100.743324 124.0
100.760307 248.0
100.80732 140.0
100.879211 192.0
100.919197 140.0
100.939194 132.0
100.969193 48.0
101.016525 168.0
101.051208 244.0
101.086319 208.0
101.115242 192.0
101.133583 120.0
101.151268 104.0
101.167282 144.0
101.221344 136.0
101.24337 116.0
101.261292 156.0
101.321487 152.0
101.339523 140.0
101.471802 124.0
101.487228 128.0
101.507889 44.0
101.574371 136.0
101.664368 164.0
101.68042 128.0
101.726013 168.0
101.760712 160.0
101.788353 136.0
101.814034 148.0
101.94149 228.0
101.956924 236.0
101.994873 184.0
102.133995 160.0
102.168846 164.0
102.20089 180.0
102.233086 156.0
102.272789 176.0
102.319641 64.0
102.335747 108.0
102.374527 184.0
102.446518 28.0
102.474258 192.0
102.477715 148.0
102.533157 104.0
102.555328 224.0
102.573471 132.0
102.601692 156.0
102.656136 156.0
102.684364 116.0
102.702515 148.0
102.894226 152.0
102.946724 148.0
103.009338 140.0
103.031616 144.0
103.048599 352.0
103.065903 164.0
103.084091 172.0
103.231659 84.0
103.276154 144.0
103.328751 56.0
103.369217 112.0
103.405647 188.0
103.486618 60.0
103.527626 208.0
103.553444 172.0
103.622322 176.0
103.662842 116.0
103.703377 148.0
103.732513 172.0
103.764191 176.0
103.786499 40.0
103.836243 196.0
103.924423 140.0
104.00808 144.0
104.076653 84.0
104.101021 60.0
104.151794 92.0
104.204613 156.0
104.218834 136.0
104.255409 140.0
104.32592 180.0
104.359085 108.0
104.426064 132.0
104.440804 152.0
104.543396 144.0
104.568611 136.0
104.60321 84.0
104.639854 204.0
104.698906 116.0
104.731499 132.0
104.78569 272.0
104.845589 168.0
104.861893 148.0
104.908775 64.0
104.927124 160.0
104.984222 128.0
105.096413 136.0
105.124977 148.0
105.190292 124.0
105.237244 88.0
105.261749 148.0
105.28952 160.0
105.329147 204.0
105.367584 172.0
105.457878 148.0
105.537437 152.0
105.557419 112.0
105.648041 176.0
105.680779 152.0
105.717613 324.0
105.731911 160.0
105.77697 220.0
105.846786 192.0
105.894447 96.0
105.911514 124.0
105.93055 76.0
105.963326 236.0
105.990852 152.0
106.020699 204.0
106.108841 116.0
106.155998 116.0
106.189255 240.0
106.240097 104.0
106.302422 180.0
106.322174 152.0
106.33654 96.0
106.369911 124.0
106.385803 128.0
106.414543 180.0
106.430969 112.0
106.545982 104.0
106.560364 172.0
106.626122 120.0
106.644623 68.0
106.683678 116.0
106.709465 52.0
106.7248 140.0
106.747581 152.0
106.772095 168.0
106.796776 36.0
106.811172 144.0
106.957733 160.0
106.975792 136.0
107.027817 180.0
107.043739 96.0
107.066391 156.0
107.086784 160.0
107.140541 156.0
107.177628 204.0
107.244583 156.0
107.276329 144.0
107.280678 128.0
107.317024 140.0
107.334801 156.0
107.34697 160.0
107.363159 156.0
107.418846 152.0
107.43795 148.0
107.468361 44.0
107.493118 148.0
107.536018 168.0
107.639679 124.0
107.659615 192.0
107.717232 124.0
107.765678 160.0
107.796677 208.0
107.826103 184.0
107.85041 104.0
107.942009 196.0
107.957764 104.0
107.960678 156.0
108.013763 228.0
108.065483 164.0
108.120514 100.0
108.164818 176.0
108.201042 152.0
108.246803 120.0
108.279839 160.0
108.283592 88.0
108.294792 104.0
108.32634 152.0
108.35006 168.0
108.362869 208.0
108.414009 204.0
108.582199 236.0
108.599953 84.0
108.637291 88.0
108.720284 192.0
108.770096 128.0
108.806641 192.0
108.826149 208.0
108.882217 292.0
108.923759 120.0
108.95208 164.0
109.015175 132.0
109.042191 176.0
109.06427 180.0
109.092079 88.0
109.119102 156.0
109.141975 152.0
109.221275 152.0
109.268852 136.0
109.285942 244.0
109.412453 184.0
109.433479 156.0
109.459366 104.0
109.546051 132.0
109.559982 124.0
109.587402 204.0
109.63533 224.0
109.691605 76.0
109.707542 176.0
109.719551 152.0
109.763321 160.0
109.802116 128.0
109.829659 192.0
109.851044 104.0
109.883469 172.0
109.958588 180.0
110.004509 92.0
110.055489 160.0
110.083847 128.0
110.115173 128.0
110.131882 152.0
110.159607 220.0
110.200821 148.0
110.244705 188.0
110.342941 200.0
110.393127 356.0
110.42659 84.0
110.460052 120.0
110.487251 144.0
110.518639 156.0
110.533745 144.0
110.552116 132.0
110.566765 140.0
110.604439 104.0
110.619492 168.0
110.650497 168.0
110.677711 200.0
110.74263 124.0
110.797096 148.0
110.875244 176.0
110.932091 164.0
110.956375 152.0
110.985725 164.0
111.046455 184.0
111.096886 32.0
111.140945 140.0
111.195572 128.0
111.2808 152.0
111.373978 160.0
111.394981 68.0
111.466415 148.0
111.484009 172.0
111.533669 316.0
111.590431 52.0
111.615662 104.0
111.63369 160.0
111.683586 120.0
111.734795 256.0
111.75869 172.0
111.78035 156.0
111.836273 236.0
111.851288 112.0
111.866028 248.0
111.914879 176.0
111.952354 160.0
111.977623 108.0
112.036606 132.0
112.068207 120.0
112.09771 236.0
112.177795 164.0
112.19677 176.0
112.219963 40.0
112.257919 116.0
112.294754 180.0
112.316971 168.0
112.340904 160.0
112.359161 128.0
112.407692 100.0
112.506889 76.0
112.542786 200.0
112.593468 196.0
112.616699 192.0
112.65049 128.0
112.696251 176.0
112.715988 280.0
112.823784 152.0
112.844925 164.0
112.923164 180.0
112.937973 144.0
112.961243 136.0
112.986626 140.0
113.008369 188.0
113.054337 144.0
113.079735 196.0
113.100899 212.0
113.139236 144.0
113.167656 172.0
113.210991 156.0
113.244881 148.0
113.261116 156.0
113.282494 148.0
113.316902 100.0
113.34816 108.0
113.471619 176.0
113.488586 144.0
113.505547 120.0
113.526749 144.0
113.542427 56.0
113.564926 132.0
113.592499 136.0
113.619949 132.0
113.662514 96.0
113.677368 120.0
113.713448 64.0
113.753777 64.0
113.780739 160.0
113.789642 112.0
113.792503 148.0
113.815346 184.0
113.894295 184.0
113.983154 44.0
113.998032 132.0
114.059662 224.0
114.079033 180.0
114.100052 172.0
114.161415 196.0
114.228775 340.0
114.270203 52.0
114.291473 48.0
114.3918 288.0
114.446861 188.0
114.472412 156.0
114.517303 228.0
114.593971 156.0
114.633194 360.0
114.690842 80.0
114.779915 164.0
114.897636 80.0
114.917908 140.0
114.947777 156.0
114.973389 112.0
115.025764 208.0
115.052017 396.0
115.068451 164.0
115.118553 192.0
115.188797 144.0
115.231758 152.0
115.265945 196.0
115.289452 136.0
115.32151 152.0
115.377625 208.0
115.398468 164.0
115.440605 136.0
115.466499 128.0
115.541763 76.0
115.597633 180.0
115.646942 160.0
115.686668 276.0
115.708664 220.0
115.751526 124.0
115.79007 180.0
115.831696 172.0
115.850876 124.0
115.890755 148.0
115.914322 132.0
115.937576 160.0
115.973351 288.0
116.034042 192.0
116.120125 136.0
116.176788 164.0
116.214516 180.0
116.23597 140.0
116.336845 132.0
116.373344 296.0
116.394073 184.0
116.448509 188.0
116.507706 148.0
116.526787 116.0
116.549477 144.0
116.581703 124.0
116.620392 100.0
116.676735 152.0
116.730034 116.0
116.750633 152.0
116.823906 112.0
116.859093 156.0
117.018364 140.0
117.035591 88.0
117.070618 60.0
117.145424 48.0
117.177742 160.0
117.201447 116.0
117.235924 172.0
117.257469 148.0
117.322136 132.0
117.371452 188.0
117.395447 48.0
117.448349 332.0
117.505455 88.0
117.552925 112.0
117.574509 156.0
117.60688 192.0
117.625267 316.0
117.652214 120.0
117.682564 140.0
117.706314 140.0
117.80822 184.0
117.837944 176.0
117.866035 84.0
117.970024 140.0
117.991394 152.0
118.044373 128.0
118.069237 140.0
118.116821 36.0
118.20443 136.0
118.305893 204.0
118.33107 136.0
118.402527 192.0
118.458839 48.0
118.488205 144.0
118.554176 136.0
118.673393 100.0
118.746117 240.0
118.867325 168.0
118.922195 180.0
118.92971 212.0
118.974968 148.0
118.996681 136.0
119.011879 88.0
119.051834 400.0
119.079201 200.0
119.094719 192.0
119.111778 184.0
119.132614 88.0
119.154533 256.0
119.218239 316.0
119.262459 228.0
119.304428 184.0
119.337791 136.0
119.379112 196.0
119.433479 156.0
119.490044 176.0
119.511749 220.0
119.581436 160.0
119.601028 144.0
119.616264 128.0
119.66745 156.0
119.683754 192.0
119.698997 188.0
119.715004 228.0
119.746902 88.0
119.788406 156.0
119.825325 100.0
119.890556 128.0
119.916847 132.0
119.960312 136.0
119.989647 184.0
120.025154 176.0
120.052269 104.0
120.071648 228.0
120.110909 120.0
120.178535 192.0
120.270195 168.0
120.316032 148.0
120.348785 108.0
120.414299 88.0
120.443741 332.0
120.477585 152.0
120.50386 184.0
120.523521 124.0
120.571602 104.0
120.599266 232.0
120.637177 136.0
120.656853 164.0
120.684067 132.0
120.700577 152.0
120.726822 116.0
120.744316 64.0
120.806 160.0
120.834 88.0
120.876976 212.0
120.893776 200.0
120.917152 160.0
120.95031 204.0
120.967499 168.0
120.994858 124.0
121.009933 104.0
121.070404 152.0
121.090561 156.0
121.116394 112.0
121.131729 144.0
121.178993 188.0
121.210602 48.0
121.247856 124.0
121.276352 112.0
121.291695 132.0
121.346497 92.0
121.370621 104.0
121.414474 140.0
121.445183 140.0
121.474518 192.0
121.51757 188.0
121.539513 164.0
121.570236 184.0
121.587791 168.0
121.616325 108.0
121.664619 92.0
121.686577 176.0
121.7239 140.0
121.763428 136.0
121.807457 180.0
121.844704 168.0
121.868874 76.0
121.893044 120.0
121.910622 108.0
121.999596 104.0
122.023438 340.0
122.067802 200.0
122.090889 100.0
122.167404 176.0
122.207222 140.0
122.286278 132.0
122.312965 148.0
122.365944 160.0
122.405327 384.0
122.427597 200.0
122.462837 116.0
122.49588 148.0
122.516365 200.0
122.546547 164.0
122.588417 200.0
122.672173 320.0
122.698624 152.0
122.760361 160.0
122.795403 180.0
122.836601 120.0
122.897125 84.0
122.913223 68.0
122.935936 184.0
122.965538 140.0
123.036301 200.0
123.111244 56.0
123.139572 208.0
123.19297 112.0
123.208435 120.0
123.243027 232.0
123.263672 228.0
123.321129 172.0
123.383835 120.0
123.413979 48.0
123.436089 116.0
123.493591 96.0
123.586502 184.0
123.628548 140.0
123.652893 88.0
123.756935 92.0
123.783501 144.0
123.805779 204.0
123.892036 156.0
123.934128 108.0
123.991219 168.0
124.029427 172.0
124.07518 100.0
124.098145 48.0
124.118103 44.0
124.153587 152.0
124.189072 180.0
124.224564 148.0
124.282242 212.0
124.308319 160.0
124.362137 100.0
124.415413 40.0
124.490906 152.0
124.524635 148.0
124.57753 56.0
124.649223 104.0
124.681915 200.0
124.717522 124.0
124.891548 240.0
124.919868 68.0
124.968811 220.0
125.024445 116.0
125.106529 216.0
125.139992 220.0
125.258224 60.0
125.349167 132.0
125.423119 108.0
125.449867 196.0
125.478851 176.0
125.521217 116.0
125.5569 160.0
125.599274 140.0
125.616196 232.0
125.695206 88.0
125.736488 176.0
125.806801 140.0
125.829124 156.0
125.852844 144.0
125.873268 156.0
125.881004 120.0
125.889755 132.0
125.925148 176.0
125.945251 112.0
126.051407 188.0
126.090599 12472.0
126.157539 136.0
126.200012 168.0
126.231323 52.0
126.289467 232.0
126.341949 156.0
126.388809 148.0
126.404205 56.0
126.432655 152.0
126.47966 116.0
126.507835 116.0
126.537865 176.0
126.571449 76.0
126.596077 236.0
126.696877 64.0
126.751289 140.0
126.815132 232.0
126.878403 140.0
126.914276 144.0
127.052925 176.0
127.092743 1488.0
127.118401 128.0
127.154305 40.0
127.244095 96.0
127.262062 52.0
127.296082 132.0
127.32943 200.0
127.348053 196.0
127.376595 164.0
127.408043 108.0
127.430511 124.0
127.452538 184.0
127.502419 48.0
127.524895 148.0
127.581093 144.0
127.614067 216.0
127.644249 44.0
127.718262 220.0
127.761002 196.0
127.783501 36.0
127.818108 168.0
127.83773 120.0
127.858109 76.0
127.875763 148.0
127.907623 148.0
127.959236 144.0
127.979317 160.0
127.99958 188.0
128.033356 172.0
128.06102 652.0
128.088974 352.0
128.114441 124.0
128.141052 128.0
128.16687 148.0
128.208725 152.0
128.243393 180.0
128.303665 108.0
128.382675 72.0
128.411026 224.0
128.452591 188.0
128.468384 144.0
128.486435 152.0
128.565399 140.0
128.666977 92.0
128.694077 108.0
128.77536 232.0
128.791183 156.0
128.806992 192.0
128.847656 176.0
128.865723 160.0
128.881546 228.0
128.913177 104.0
128.957153 88.0
129.003586 140.0
129.047882 188.0
129.071503 544.0
129.109863 132.0
129.143402 156.0
129.175446 216.0
129.198715 228.0
129.236526 124.0
129.254639 160.0
129.272736 172.0
129.302155 168.0
129.367798 112.0
129.447052 152.0
129.476135 152.0
129.497375 164.0
129.514984 112.0
129.53537 60.0
129.558029 104.0
129.573883 72.0
129.601074 188.0
129.675858 172.0
129.70079 160.0
129.722504 172.0
129.755203 44.0
129.830032 236.0
129.853333 172.0
129.904877 184.0
129.963867 292.0
129.991089 68.0
130.020599 104.0
130.043472 168.0
130.070526 124.0
130.109116 144.0
130.160767 80.0
130.204483 528.0
130.251694 168.0
130.270126 116.0
130.289871 216.0
130.323746 168.0
130.368057 32.0
130.41124 96.0
130.487167 176.0
130.535034 160.0
130.573013 232.0
130.59935 136.0
130.653671 176.0
130.731918 32.0
130.752396 152.0
130.77594 128.0
130.801056 140.0
130.885681 132.0
130.900894 176.0
130.960663 152.0
130.978851 96.0
131.027924 204.0
131.057495 164.0
131.081787 276.0
131.109955 60.0
131.132751 184.0
131.164658 268.0
131.182892 156.0
131.214813 120.0
131.258133 120.0
131.284927 192.0
131.317429 316.0
131.353912 144.0
131.384827 200.0
131.408905 152.0
131.478363 236.0
131.552444 144.0
131.618668 156.0
131.664337 168.0
131.679428 164.0
131.780838 180.0
131.842178 208.0
131.851151 176.0
131.872238 204.0
131.897217 108.0
131.945389 116.0
131.975967 172.0
132.00116 92.0
132.086151 160.0
132.091858 88.0
132.09967 164.0
132.146652 216.0
132.240479 116.0
132.272522 180.0
132.327789 144.0
132.393875 76.0
132.503815 108.0
132.604645 72.0
132.694046 216.0
132.739899 112.0
132.870651 52.0
132.909653 204.0
132.960129 208.0
133.00145 176.0
133.028992 188.0
133.047363 144.0
133.085831 116.0
133.185715 132.0
133.226929 212.0
133.325287 128.0
133.350571 180.0
133.37355 36.0
133.474716 260.0
133.497055 112.0
133.513809 172.0
133.552902 108.0
133.602142 152.0
133.665634 140.0
133.705811 200.0
133.765991 216.0
133.817551 220.0
133.879715 172.0
133.914261 112.0
134.022537 232.0
134.048828 216.0
134.070648 160.0
134.107803 108.0
134.1931 72.0
134.244949 156.0
134.294571 140.0
134.347626 148.0
134.403 172.0
134.426071 120.0
134.453156 136.0
134.473099 160.0
134.514771 200.0
134.569183 204.0
134.610748 116.0
134.654617 124.0
134.719177 172.0
134.76828 188.0
134.793228 112.0
134.878754 212.0
134.937744 180.0
134.999832 192.0
135.057236 124.0
135.075302 100.0
135.135452 148.0
135.161819 180.0
135.188324 160.0
135.206024 272.0
135.245697 112.0
135.306854 64.0
135.33342 184.0
135.478088 144.0
135.52211 116.0
135.566132 128.0
135.648132 128.0
135.702896 212.0
135.726089 136.0
135.753906 188.0
135.772461 132.0
135.788696 48.0
135.823486 48.0
135.883102 184.0
135.902878 164.0
135.923248 204.0
135.939499 92.0
135.999832 100.0
136.093781 104.0
136.155396 152.0
136.212112 196.0
136.239883 160.0
136.329636 32.0
136.373276 200.0
136.376526 156.0
136.457474 224.0
136.499329 232.0
136.523682 252.0
136.549942 184.0
136.603851 132.0
136.621185 92.0
136.644226 284.0
136.755692 164.0
136.790146 152.0
136.853928 232.0
136.929855 76.0
136.948486 184.0
136.987427 128.0
137.007248 144.0
137.061615 144.0
137.109253 112.0
137.137222 192.0
137.237457 176.0
137.256119 100.0
137.279434 200.0
137.298096 180.0
137.349609 144.0
137.383179 184.0
137.466049 136.0
137.490448 176.0
137.523605 176.0
137.580292 212.0
137.627121 268.0
137.673828 172.0
137.767578 340.0
137.803055 184.0
137.824387 236.0
137.863052 132.0
137.877975 104.0
137.916473 144.0
137.947495 156.0
137.989746 140.0
138.052399 68.0
138.079407 176.0
138.155319 128.0
138.206787 128.0
138.223175 136.0
138.245682 200.0
138.26062 228.0
138.303711 204.0
138.356583 176.0
138.37532 140.0
138.401062 136.0
138.452591 128.0
138.488815 156.0
138.566162 148.0
138.583771 508.0
138.63147 156.0
138.654068 200.0
138.773621 112.0
138.806442 120.0
138.890869 196.0
138.916672 180.0
138.936722 192.0
138.963593 140.0
138.986557 184.0
139.02887 176.0
139.049576 232.0
139.102066 92.0
139.163101 92.0
139.191269 60.0
139.238251 136.0
139.273468 132.0
139.299316 160.0
139.322006 148.0
139.350998 160.0
139.372147 156.0
139.407394 144.0
139.448715 220.0
139.477905 160.0
139.531906 156.0
139.560181 140.0
139.597351 168.0
139.639908 120.0
139.680405 164.0
139.748352 332.0
139.771774 184.0
139.807175 140.0
139.889328 252.0
139.983734 148.0
140.061447 132.0
140.112946 144.0
140.176468 152.0
140.224396 112.0
140.249954 164.0
140.271179 104.0
140.292389 128.0
140.314957 168.0
140.455093 144.0
140.502502 164.0
140.520874 200.0
140.565979 112.0
140.582504 120.0
140.61554 44.0
140.672195 168.0
140.740662 148.0
140.785522 144.0
140.820953 164.0
140.859512 304.0
140.89418 120.0
141.000519 168.0
141.069717 1000.0
141.105804 340.0
141.149445 144.0
141.186905 192.0
141.228348 188.0
141.277161 104.0
141.305557 188.0
141.383636 148.0
141.402573 112.0
141.426239 152.0
141.44754 168.0
141.546982 120.0
141.602112 112.0
141.651825 60.0
141.691467 108.0
141.748322 156.0
141.790985 80.0
141.817062 196.0
141.838394 88.0
141.883423 160.0
141.949814 132.0
141.978271 132.0
142.0186 208.0
142.040054 168.0
142.075989 1064.0
142.103439 152.0
142.200302 268.0
142.254868 112.0
142.296249 112.0
142.312866 240.0
142.334229 84.0
142.380814 172.0
142.471985 212.0
142.587128 124.0
142.607437 128.0
142.633575 176.0
142.671616 176.0
142.745331 48.0
142.788132 160.0
142.828568 104.0
142.854065 172.0
142.888031 92.0
142.930862 240.0
142.952286 116.0
142.976074 200.0
143.030823 168.0
143.054626 336.0
143.084625 2248.0
143.113815 752.0
143.140335 52.0
143.183426 128.0
143.276108 96.0
143.328522 332.0
143.367706 108.0
143.397629 152.0
143.428619 244.0
143.504898 184.0
143.529999 244.0
143.568573 176.0
143.593567 176.0
143.652771 148.0
143.668442 156.0
143.714798 156.0
143.748199 80.0
143.796051 168.0
143.826965 176.0
143.85083 72.0
143.905731 104.0
143.932007 208.0
143.963043 140.0
144.059662 248.0
144.08992 664.0
144.115784 132.0
144.130615 168.0
144.166107 180.0
144.209122 52.0
144.242584 56.0
144.30687 184.0
144.366913 168.0
144.393219 172.0
144.462585 148.0
144.496964 196.0
144.515228 144.0
144.544113 160.0
144.587006 112.0
144.607666 256.0
144.649246 144.0
144.711487 132.0
144.730637 112.0
144.751328 204.0
144.870392 52.0
144.91095 244.0
144.947647 128.0
144.97258 92.0
145.013321 148.0
145.046875 28.0
145.066055 280.0
145.096771 128.0
145.144928 200.0
145.207413 168.0
145.212021 160.0
145.253098 172.0
145.295258 184.0
145.331146 60.0
145.41626 224.0
145.500275 168.0
145.570465 204.0
145.61554 156.0
145.740448 184.0
145.771698 148.0
145.817352 152.0
145.882248 100.0
145.910461 164.0
145.939468 120.0
145.943481 112.0
145.983231 132.0
146.000076 176.0
146.065353 140.0
146.121002 160.0
146.151611 164.0
146.170868 108.0
146.239532 136.0
146.29361 76.0
146.421234 192.0
146.455704 220.0
146.558731 204.0
146.638062 124.0
146.664581 160.0
146.703156 128.0
146.734497 196.0
146.753784 140.0
146.81485 148.0
147.00705 224.0
147.050491 92.0
147.09877 76.0
147.159119 100.0
147.199249 156.0
147.259384 200.0
147.34993 140.0
147.368881 256.0
147.400665 132.0
147.465927 108.0
147.50618 208.0
147.543335 172.0
147.56987 72.0
147.680466 136.0
147.707718 196.0
147.72464 352.0
147.823853 68.0
147.843201 52.0
147.862503 160.0
147.934494 140.0
147.980133 232.0
148.022339 148.0
148.040649 132.0
148.079559 192.0
148.107101 164.0
148.141022 240.0
148.187057 260.0
148.213699 176.0
148.293671 200.0
148.410034 68.0
148.46225 120.0
148.496979 164.0
148.512589 196.0
148.601654 168.0
148.623489 120.0
148.657455 168.0
148.778824 164.0
148.820099 116.0
148.912003 104.0
148.999817 76.0
149.068314 216.0
149.106277 84.0
149.184525 136.0
149.227386 216.0
149.282471 160.0
149.470184 88.0
149.492142 160.0
149.540726 156.0
149.55719 204.0
149.591309 108.0
149.641907 184.0
149.68573 264.0
149.70723 208.0
149.73114 68.0
149.738892 120.0
149.770966 148.0
149.834732 168.0
149.8806 228.0
149.915894 132.0
149.946198 148.0
149.975647 152.0
150.019516 200.0
150.114609 196.0
150.156067 176.0
150.192657 124.0
150.212173 124.0
150.258514 80.0
150.309753 56.0
150.348801 216.0
150.409821 56.0
150.541656 104.0
150.658905 104.0
150.705322 144.0
150.72731 104.0
150.778625 152.0
150.847076 116.0
150.895966 96.0
150.979095 140.0
151.028015 160.0
151.052475 116.0
151.11853 152.0
151.138107 60.0
151.158356 144.0
151.230255 172.0
151.237045 280.0
151.267822 116.0
151.375549 92.0
151.42453 108.0
151.441666 212.0
151.467377 236.0
151.49556 72.0
151.522949 176.0
151.567581 132.0
151.598465 108.0
151.632782 92.0
151.733002 128.0
151.752899 196.0
151.787216 136.0
151.804382 148.0
151.880417 124.0
151.90004 164.0
151.949112 196.0
152.007996 176.0
152.061401 128.0
152.084076 136.0
152.137177 164.0
152.174911 164.0
152.19455 52.0
152.229568 200.0
152.253479 116.0
152.305298 84.0
152.36647 60.0
152.39595 92.0
152.595047 100.0
152.630142 160.0
152.67865 140.0
152.714172 160.0
152.740128 216.0
152.791794 168.0
152.816391 132.0
152.877914 144.0
152.929596 104.0
152.979752 192.0
153.007278 188.0
153.038589 188.0
153.070663 484.0
153.111786 132.0
153.146744 268.0
153.170898 164.0
153.190125 164.0
153.29277 144.0
153.316269 160.0
153.360901 160.0
153.38913 128.0
153.439911 200.0
153.505997 112.0
153.577209 196.0
153.599808 136.0
153.640884 196.0
153.662079 344.0
153.740829 204.0
153.774994 32.0
153.792282 132.0
153.812027 96.0
153.858932 160.0
153.893494 104.0
153.955276 176.0
154.036728 164.0
154.074265 584.0
154.120728 180.0
154.213257 220.0
154.239349 172.0
154.303635 360.0
154.32341 208.0
154.348129 176.0
154.370392 132.0
154.459427 156.0
154.538589 348.0
154.597977 136.0
154.62767 176.0
154.701935 112.0
154.734116 128.0
154.758881 172.0
154.780106 136.0
154.818314 148.0
154.855453 52.0
154.979324 180.0
154.996658 128.0
155.04599 128.0
155.0578 84.0
155.084793 1720.0
155.140411 152.0
155.207352 148.0
155.24704 148.0
155.264389 144.0
155.331711 168.0
155.378494 172.0
155.400833 160.0
155.477921 172.0
155.500092 148.0
155.549728 52.0
155.580765 184.0
155.638641 172.0
155.678833 104.0
155.706161 112.0
155.765762 52.0
155.80687 152.0
155.830353 152.0
155.847748 300.0
155.887512 104.0
156.051331 128.0
156.092255 956.0
156.185852 140.0
156.255508 120.0
156.300293 136.0
156.340103 212.0
156.444656 120.0
156.471878 124.0
156.562729 200.0
156.601517 132.0
156.62796 144.0
156.667358 112.0
156.68309 188.0
156.723282 164.0
156.778412 80.0
156.820786 164.0
156.840729 120.0
156.891708 196.0
156.947922 236.0
156.992813 176.0
157.056335 148.0
157.096512 536.0
157.149963 104.0
157.173492 180.0
157.192383 100.0
157.269424 92.0
157.297195 124.0
157.344635 92.0
157.395325 172.0
157.422043 172.0
157.51944 108.0
157.576721 112.0
157.596893 108.0
157.644363 248.0
157.689346 192.0
157.709351 188.0
157.726837 104.0
157.765533 160.0
157.784348 40.0
157.908157 76.0
157.971558 200.0
158.015656 204.0
158.0728 452.0
158.103485 136.0
158.129807 188.0
158.157074 68.0
158.185425 112.0
158.232178 232.0
158.387436 136.0
158.404968 188.0
158.440048 100.0
158.515213 192.0
158.581039 208.0
158.651031 296.0
158.698196 168.0
158.768402 184.0
158.821075 172.0
158.867371 140.0
158.969208 148.0
159.013672 216.0
159.079727 504.0
159.106995 132.0
159.130035 212.0
159.174042 168.0
159.20256 36.0
159.388458 52.0
159.411072 120.0
159.466812 512.0
159.501541 168.0
159.521652 188.0
159.56636 144.0
159.593369 176.0
159.614685 156.0
159.710251 76.0
159.788239 128.0
159.843536 172.0
159.878815 184.0
159.929153 176.0
159.95813 220.0
159.969269 64.0
159.97876 216.0
159.995819 116.0
160.019775 232.0
160.046173 264.0
160.092926 168.0
160.117981 152.0
160.140656 188.0
160.163116 200.0
160.27417 84.0
160.281052 104.0
160.291138 264.0
160.31514 172.0
160.430435 200.0
160.453995 188.0
160.474548 160.0
160.527283 196.0
160.571106 128.0
160.614517 144.0
160.70134 108.0
160.798706 144.0
160.851715 164.0
160.914825 172.0
161.020889 120.0
161.053711 204.0
161.086548 228.0
161.233109 76.0
161.265671 176.0
161.311462 112.0
161.334213 76.0
161.364548 172.0
161.404999 192.0
161.425232 132.0
161.45137 168.0
161.497772 176.0
161.55423 120.0
161.614944 160.0
161.647568 160.0
161.695923 144.0
161.762009 184.0
161.824493 132.0
161.846497 144.0
161.868073 168.0
161.906891 460.0
161.933487 188.0
161.96431 96.0
162.007767 204.0
162.061966 176.0
162.098007 200.0
162.139526 184.0
162.164474 64.0
162.303009 180.0
162.341034 188.0
162.415497 160.0
162.540955 248.0
162.570251 128.0
162.679703 168.0
162.750488 136.0
162.803818 120.0
162.837799 228.0
162.882553 168.0
162.938019 192.0
162.971466 64.0
162.989258 180.0
163.042618 232.0
163.065247 124.0
163.148605 152.0
163.169708 156.0
163.190048 188.0
163.284134 124.0
163.362991 144.0
163.385895 64.0
163.403702 196.0
163.44632 144.0
163.53093 180.0
163.592026 84.0
163.62027 168.0
163.711685 152.0
163.742249 176.0
163.790649 176.0
163.866104 136.0
163.935867 108.0
163.953705 112.0
164.022522 188.0
164.058212 112.0
164.104111 88.0
164.121948 164.0
164.150009 184.0
164.185699 168.0
164.25528 172.0
164.274979 184.0
164.320892 188.0
164.341309 216.0
164.376038 208.0
164.412766 120.0
164.455185 224.0
164.463593 140.0
164.471848 212.0
164.517487 132.0
164.624649 136.0
164.78302 172.0
164.806015 84.0
164.823898 164.0
164.85968 88.0
164.924179 152.0
164.992584 44.0
165.071136 740.0
165.104721 188.0
165.144699 132.0
165.169037 156.0
165.197174 200.0
165.289276 172.0
165.350693 136.0
165.37796 160.0
165.420914 224.0
165.447357 184.0
165.469894 128.0
165.550385 48.0
165.576004 88.0
165.602814 188.0
165.663254 120.0
165.801453 240.0
165.864502 200.0
165.915741 136.0
165.955063 156.0
165.983459 128.0
166.005295 128.0
166.037308 116.0
166.07254 728.0
166.141891 148.0
166.175827 140.0
166.22052 140.0
166.274673 224.0
166.334946 140.0
166.360611 60.0
166.555054 212.0
166.596878 160.0
166.614853 136.0
166.643112 88.0
166.689377 128.0
166.725281 152.0
166.763901 148.0
166.797318 92.0
166.818985 224.0
166.846161 140.0
166.91301 152.0
166.931 152.0
166.950745 172.0
166.971786 156.0
167.016586 116.0
167.053848 152.0
167.086212 648.0
167.278336 108.0
167.352997 116.0
167.418396 152.0
167.487823 160.0
167.506287 116.0
167.553894 128.0
167.651245 164.0
167.675003 40.0
167.695618 172.0
167.73085 144.0
167.788422 160.0
167.841568 144.0
167.89006 140.0
167.919647 204.0
167.961197 152.0
167.985443 248.0
168.025696 112.0
168.091125 1380.0
168.143753 216.0
168.24765 188.0
168.379333 64.0
168.476212 252.0
168.513657 192.0
168.547256 112.0
168.645447 192.0
168.71524 196.0
168.839355 168.0
168.857468 132.0
168.875565 164.0
168.927307 88.0
168.953629 196.0
168.991974 152.0
169.02562 136.0
169.065125 648.0
169.097046 824.0
169.123962 96.0
169.142075 160.0
169.199036 72.0
169.263763 200.0
169.296082 232.0
169.393417 128.0
169.432114 192.0
169.530579 136.0
169.649734 152.0
169.683517 168.0
169.740555 172.0
169.907883 188.0
169.944809 204.0
170.005157 172.0
170.046677 164.0
170.07103 324.0
170.106506 204.0
170.125076 156.0
170.143372 144.0
170.173874 172.0
170.21022 200.0
170.23378 220.0
170.27507 128.0
170.37645 56.0
170.431015 272.0
170.490784 272.0
170.534958 176.0
170.553162 196.0
170.597107 128.0
170.641541 48.0
170.659744 128.0
170.677948 92.0
170.767349 192.0
170.839203 108.0
170.857407 136.0
170.880829 128.0
170.930267 292.0
170.96312 96.0
170.997925 116.0
171.079681 416.0
171.114731 2328.0
171.185471 140.0
171.259628 132.0
171.301224 124.0
171.336441 72.0
171.363586 172.0
171.440659 252.0
171.479752 104.0
171.548035 188.0
171.636169 132.0
171.747528 240.0
171.823669 144.0
171.881683 164.0
171.953384 316.0
172.048416 112.0
172.087067 436.0
172.119034 360.0
172.158081 172.0
172.189407 48.0
172.220749 132.0
172.324203 400.0
172.343536 148.0
172.380661 176.0
172.403641 116.0
172.474213 108.0
172.519821 268.0
172.558365 224.0
172.594467 160.0
172.620621 180.0
172.746155 168.0
172.768509 236.0
172.790634 228.0
172.82988 192.0
172.84819 168.0
172.89006 180.0
172.9375 172.0
173.005234 88.0
173.026184 188.0
173.096405 340.0
173.130585 220.0
173.188538 172.0
173.220108 200.0
173.256638 144.0
173.322586 312.0
173.359924 124.0
173.390274 188.0
173.494217 172.0
173.516098 260.0
173.555435 176.0
173.632507 120.0
173.660324 76.0
173.72406 148.0
173.752136 144.0
173.773132 108.0
173.847672 196.0
173.93515 212.0
173.996216 192.0
174.014587 136.0
174.138016 152.0
174.235214 220.0
174.337601 132.0
174.44281 160.0
174.500656 108.0
174.5401 132.0
174.57428 124.0
174.634705 176.0
174.716309 228.0
174.761047 168.0
174.787354 172.0
174.833878 224.0
174.87149 140.0
174.908417 92.0
174.934738 128.0
174.982132 184.0
175.031036 208.0
175.055847 140.0
175.080521 152.0
175.105896 236.0
175.163834 244.0
175.218628 196.0
175.248138 144.0
175.269226 156.0
175.297119 252.0
175.334824 192.0
175.361465 108.0
175.422089 240.0
175.441071 196.0
175.472641 224.0
175.519638 116.0
175.556549 164.0
175.590836 132.0
175.651505 84.0
175.735916 92.0
175.795547 148.0
175.840393 156.0
175.91011 164.0
176.047394 140.0
176.084534 136.0
176.105499 356.0
176.131577 152.0
176.175919 140.0
176.197952 92.0
176.240952 148.0
176.311584 156.0
176.340652 240.0
176.409378 168.0
176.438461 68.0
176.480759 72.0
176.525711 156.0
176.564972 156.0
176.592926 308.0
176.67836 176.0
176.782318 176.0
176.798981 168.0
176.848038 196.0
176.880234 168.0
176.914658 120.0
176.959656 168.0
177.057632 164.0
177.086777 92.0
177.131805 108.0
177.258972 120.0
177.306671 164.0
177.333176 176.0
177.406433 220.0
177.43837 88.0
177.459518 176.0
177.485611 164.0
177.54425 120.0
177.635452 120.0
177.675247 144.0
177.715042 212.0
177.741577 148.0
177.762802 112.0
177.810577 124.0
177.845078 132.0
177.866318 48.0
177.904022 216.0
177.945953 120.0
177.985779 196.0
178.013565 108.0
178.074738 216.0
178.150452 184.0
178.171707 176.0
178.232819 152.0
178.262039 212.0
178.28331 112.0
178.317734 184.0
178.326996 328.0
178.402908 148.0
178.543839 136.0
178.561417 132.0
178.583725 56.0
178.618317 80.0
178.652893 56.0
178.708755 124.0
178.753998 120.0
178.804565 40.0
178.860458 40.0
178.900391 104.0
178.921677 148.0
178.999237 324.0
179.020203 148.0
179.038849 116.0
179.065994 244.0
179.087204 240.0
179.199753 92.0
179.222641 164.0
179.291931 336.0
179.322556 104.0
179.400391 180.0
179.430542 48.0
179.467865 140.0
179.521194 120.0
179.566528 172.0
179.64389 104.0
179.718597 224.0
179.75061 228.0
179.778427 140.0
179.825333 144.0
179.858566 248.0
179.900482 156.0
179.932114 160.0
179.969498 96.0
180.004196 152.0
180.024109 148.0
180.056137 80.0
180.092331 128.0
180.12706 88.0
180.148422 88.0
180.188507 88.0
180.215225 128.0
180.238541 148.0
180.279358 136.0
180.32988 128.0
180.417892 120.0
180.483597 148.0
180.54718 44.0
180.626923 184.0
180.651001 136.0
180.680435 272.0
180.814224 160.0
180.905228 152.0
180.927536 60.0
180.960464 164.0
181.008713 184.0
181.062897 300.0
181.098373 640.0
181.197144 208.0
181.230499 156.0
181.307724 236.0
181.32428 116.0
181.365967 144.0
181.430298 188.0
181.47052 192.0
181.522034 208.0
181.726624 136.0
181.776306 124.0
181.899765 168.0
181.953445 156.0
181.977615 116.0
182.041916 144.0
182.070496 604.0
182.101654 348.0
182.152176 248.0
182.274231 84.0
182.319153 372.0
182.360413 136.0
182.385956 184.0
182.412827 152.0
182.434341 140.0
182.480042 408.0
182.544083 152.0
182.59108 68.0
182.673676 180.0
182.71402 148.0
182.775909 172.0
182.891632 136.0
182.923935 160.0
182.993607 168.0
183.080292 1280.0
183.113037 492.0
183.161789 72.0
183.185135 188.0
183.212082 40.0
183.245285 184.0
183.271347 60.0
183.311768 96.0
183.338715 140.0
183.364532 152.0
183.400711 88.0
183.437439 200.0
183.511246 52.0
183.559769 128.0
183.584045 48.0
183.611008 240.0
183.640686 92.0
183.689423 224.0
183.748581 48.0
183.795975 148.0
183.834518 240.0
183.883499 44.0
183.944275 148.0
184.031982 36.0
184.085831 2232.0
184.114883 260.0
184.179306 144.0
184.198288 160.0
184.226425 100.0
184.256149 44.0
184.306824 212.0
184.337204 68.0
184.448013 92.0
184.470947 52.0
184.506348 92.0
184.582855 64.0
184.661621 136.0
184.691376 76.0
184.799591 260.0
184.84288 92.0
184.878067 156.0
184.915955 172.0
184.951141 180.0
185.00798 160.0
185.030518 148.0
185.06868 188.0
185.093399 1072.0
185.131012 660.0
185.186707 192.0
185.215256 148.0
185.246292 84.0
185.276093 72.0
185.376343 268.0
185.450623 128.0
185.476624 156.0
185.506134 176.0
185.537415 160.0
185.614883 172.0
185.639297 56.0
185.710846 168.0
185.730545 136.0
185.796616 148.0
185.827957 148.0
185.856308 280.0
185.918716 92.0
185.9608 136.0
185.987839 196.0
186.046295 160.0
186.065292 140.0
186.098572 188.0
186.171188 80.0
186.358795 180.0
186.446442 176.0
186.485474 252.0
186.537979 108.0
186.614105 100.0
186.635864 180.0
186.673935 128.0
186.701294 128.0
186.720413 220.0
186.771683 200.0
186.883377 184.0
186.939102 260.0
186.965012 136.0
187.011612 164.0
187.087189 104.0
187.120514 192.0
187.171906 80.0
187.253601 184.0
187.313446 140.0
187.370728 104.0
187.395248 120.0
187.512436 160.0
187.539688 232.0
187.635101 220.0
187.662354 148.0
187.694611 364.0
187.720688 132.0
187.739365 168.0
187.822342 192.0
187.869629 92.0
187.905411 176.0
187.929428 236.0
187.970581 156.0
188.030624 84.0
188.072266 280.0
188.109772 108.0
188.167114 92.0
188.270874 152.0
188.317703 160.0
188.377335 400.0
188.426636 152.0
188.507782 172.0
188.512589 124.0
188.523819 108.0
188.576859 212.0
188.625397 164.0
188.667068 220.0
188.72995 184.0
188.896774 120.0
188.973373 84.0
188.995209 192.0
189.050003 80.0
189.143051 76.0
189.200867 336.0
189.227921 208.0
189.258041 92.0
189.288162 156.0
189.342926 324.0
189.397705 132.0
189.425095 148.0
189.447006 160.0
189.485367 40.0
189.531952 72.0
189.554611 208.0
189.592239 116.0
189.666229 168.0
189.690903 120.0
189.729279 200.0
189.748474 72.0
189.806046 172.0
189.833481 100.0
189.934952 180.0
189.970612 120.0
190.035736 56.0
190.055664 228.0
190.081482 192.0
190.111664 156.0
190.192886 320.0
190.225815 196.0
190.245041 212.0
190.299942 132.0
190.365845 136.0
190.417328 172.0
190.503174 160.0
190.549194 80.0
190.596588 112.0
190.648804 156.0
190.682266 184.0
190.830215 132.0
190.86322 164.0
190.929214 112.0
191.086014 144.0
191.134781 276.0
191.163055 92.0
191.205673 132.0
191.240112 128.0
191.293991 108.0
191.322449 212.0
191.334854 124.0
191.36972 152.0
191.443848 152.0
191.482407 208.0
191.542999 152.0
191.644928 76.0
191.672485 64.0
191.702988 112.0
191.733109 128.0
191.785477 184.0
191.818512 124.0
191.856659 156.0
191.97847 88.0
191.998917 176.0
192.028107 88.0
192.06311 348.0
192.093979 212.0
192.144501 208.0
192.18811 84.0
192.259857 96.0
192.299423 96.0
192.333572 152.0
192.375778 92.0
192.486221 136.0
192.518417 336.0
192.537796 184.0
192.588409 224.0
192.624802 184.0
192.649185 184.0
192.685089 112.0
192.704437 88.0
192.73288 152.0
192.77066 228.0
192.876694 192.0
192.961121 124.0
193.000183 96.0
193.038345 120.0
193.095459 188.0
193.135696 96.0
193.1828 140.0
193.207611 180.0
193.226974 80.0
193.302612 168.0
193.351501 112.0
193.415237 140.0
193.549591 168.0
193.572021 184.0
193.614502 124.0
193.636658 160.0
193.691177 188.0
193.833359 188.0
193.877686 196.0
193.911163 176.0
193.932205 216.0
193.957474 224.0
193.995514 204.0
194.006577 104.0
194.01239 256.0
194.044006 164.0
194.069748 360.0
194.153137 144.0
194.218475 188.0
194.227676 172.0
194.304718 108.0
194.36853 136.0
194.412598 172.0
194.443451 188.0
194.476761 188.0
194.50174 168.0
194.587799 144.0
194.607239 104.0
194.728836 180.0
194.836121 168.0
194.873871 68.0
194.923889 84.0
194.953293 124.0
195.078354 492.0
195.111481 284.0
195.140701 168.0
195.242783 196.0
195.29921 156.0
195.368301 176.0
195.40213 168.0
195.538742 88.0
195.588593 112.0
195.641312 204.0
195.814117 76.0
195.838898 152.0
195.92041 100.0
195.952942 264.0
195.995193 116.0
196.023056 144.0
196.08699 2004.0
196.144836 208.0
196.183792 132.0
196.21817 152.0
196.27951 336.0
196.336441 192.0
196.38269 108.0
196.402222 200.0
196.607849 148.0
196.767792 132.0
196.795517 116.0
196.803665 108.0
196.812912 100.0
196.855698 264.0
196.879486 112.0
196.935333 192.0
196.968857 40.0
197.060379 368.0
197.092636 964.0
197.127853 172.0
197.200775 40.0
197.256668 164.0
197.278595 176.0
197.3685 156.0
197.396667 112.0
197.433884 116.0
197.499954 200.0
197.530716 184.0
197.58107 152.0
197.602402 268.0
197.667801 52.0
197.732178 144.0
197.785355 152.0
197.82016 120.0
197.86853 180.0
197.901016 216.0
197.925339 228.0
197.958939 176.0
197.986221 204.0
198.067657 464.0
198.100952 2196.0
198.164291 140.0
198.169586 196.0
198.219452 112.0
198.241867 176.0
198.276733 208.0
198.302536 180.0
198.339966 156.0
198.365845 156.0
198.435287 108.0
198.47348 64.0
198.606064 120.0
198.629303 196.0
198.662445 60.0
198.682083 112.0
198.77655 132.0
198.793839 232.0
198.8302 140.0
198.899063 100.0
198.940262 140.0
198.959915 184.0
199.075851 324.0
199.109818 4232.0
199.151718 144.0
199.178238 188.0
199.445892 156.0
199.516541 220.0
199.55835 152.0
199.600525 200.0
199.631454 180.0
199.665207 92.0
199.698959 148.0
199.790253 220.0
199.833984 88.0
199.857315 192.0
199.888321 180.0
199.912766 128.0
200.000015 128.0
200.01973 116.0
200.042236 124.0
200.113663 744.0
200.165497 136.0
200.181076 64.0
200.210831 140.0
200.256241 104.0
200.316895 160.0
200.354828 96.0
200.391464 176.0
200.414963 152.0
200.492905 176.0
200.547577 120.0
200.576874 192.0
200.615143 196.0
200.626633 72.0
200.635361 156.0
200.726883 144.0
200.749329 96.0
200.819946 128.0
200.85379 164.0
200.882004 80.0
200.95433 252.0
200.983566 56.0
201.0513 108.0
201.090805 364.0
201.11615 180.0
201.131577 180.0
201.182648 104.0
201.250107 184.0
201.325912 148.0
201.378799 84.0
201.494614 224.0
201.553345 176.0
201.570908 204.0
201.607635 120.0
201.661331 204.0
201.700912 92.0
201.734833 160.0
201.844223 168.0
201.919876 444.0
201.958221 148.0
202.097275 180.0
202.116272 332.0
202.142105 52.0
202.168152 176.0
202.224182 168.0
202.263809 172.0
202.326096 176.0
202.394043 64.0
202.413864 128.0
202.440643 236.0
202.487488 160.0
202.527557 108.0
202.556976 196.0
202.594055 180.0
202.709366 176.0
202.753799 140.0
202.776474 200.0
202.823761 176.0
202.844498 88.0
202.878525 160.0
202.915375 152.0
202.989105 84.0
203.014618 108.0
203.113892 168.0
203.196289 164.0
203.298309 160.0
203.420349 76.0
203.508362 136.0
203.587875 108.0
203.653198 96.0
203.687286 176.0
203.741257 224.0
203.76683 144.0
203.801132 164.0
203.823654 200.0
203.848083 180.0
203.925354 228.0
203.951538 80.0
204.051041 200.0
204.16478 144.0
204.286331 224.0
204.358841 180.0
204.416504 164.0
204.449265 168.0
204.484711 132.0
204.509033 148.0
204.60582 116.0
204.642822 68.0
204.677002 180.0
204.726929 240.0
204.776672 168.0
204.799454 176.0
204.825089 156.0
204.882065 96.0
204.907333 156.0
204.930496 172.0
205.028091 200.0
205.072357 144.0
205.109726 148.0
205.114792 220.0
205.125748 220.0
205.281097 136.0
205.306763 132.0
205.328613 116.0
205.423706 124.0
205.449387 192.0
205.577789 140.0
205.597763 140.0
205.801468 188.0
205.866104 116.0
205.937515 132.0
205.96344 148.0
206.013535 136.0
206.033279 144.0
206.08606 128.0
206.106064 48.0
206.137497 136.0
206.160706 140.0
206.2332 140.0
206.265091 168.0
206.306122 224.0
206.366165 180.0
206.407059 164.0
206.46254 216.0
206.521072 164.0
206.554916 60.0
206.594955 112.0
206.701096 144.0
206.726578 144.0
206.758118 204.0
206.796509 184.0
206.861099 160.0
206.921219 184.0
206.967026 224.0
207.001389 92.0
207.050079 80.0
207.075058 208.0
207.114944 136.0
207.150085 172.0
207.207626 64.0
207.289169 52.0
207.413956 144.0
207.442612 92.0
207.494858 180.0
207.522888 44.0
207.58197 132.0
207.63739 168.0
207.703568 132.0
207.74295 224.0
207.795334 372.0
207.819168 176.0
207.841278 112.0
207.872833 68.0
207.918747 140.0
207.981827 156.0
208.033569 188.0
208.074768 136.0
208.10025 176.0
208.123642 160.0
208.202972 164.0
208.246048 132.0
208.317047 156.0
208.349457 208.0
208.434387 180.0
208.490265 140.0
208.530502 132.0
208.619598 224.0
208.654099 152.0
208.701157 220.0
208.754303 156.0
208.81514 76.0
208.838135 176.0
208.910049 164.0
208.960464 292.0
208.98024 132.0
208.991348 204.0
209.025146 200.0
209.09375 800.0
209.217773 168.0
209.234711 232.0
209.273819 132.0
209.3134 224.0
209.384995 184.0
209.416367 116.0
209.509247 144.0
209.549179 156.0
209.580872 272.0
209.613693 216.0
209.644272 188.0
209.680832 204.0
209.797028 124.0
209.828751 156.0
209.873474 132.0
209.885727 68.0
209.891617 184.0
209.94986 108.0
210.022308 168.0
210.100479 1496.0
210.134186 184.0
210.200668 212.0
210.241943 64.0
210.27298 200.0
210.304153 80.0
210.379776 40.0
210.414413 144.0
210.469284 156.0
210.491348 112.0
210.522156 336.0
210.704025 144.0
210.763657 140.0
210.837784 148.0
210.892334 164.0
210.919968 76.0
210.998016 136.0
211.028534 124.0
211.072144 1028.0
211.108414 2272.0
211.160278 172.0
211.197556 156.0
211.296906 232.0
211.381943 104.0
211.393845 52.0
211.402161 188.0
211.434799 80.0
211.463806 172.0
211.517151 132.0
211.603165 180.0
211.660599 80.0
211.687775 124.0
211.764847 132.0
211.79982 168.0
211.834366 152.0
211.854645 144.0
212.011246 168.0
212.080811 4584.0
212.162857 160.0
212.205322 108.0
212.231415 88.0
212.274918 72.0
212.295212 136.0
212.417038 108.0
212.446045 84.0
212.475052 76.0
212.49826 176.0
212.53598 52.0
212.572174 152.0
212.631744 36.0
212.662109 204.0
212.720139 404.0
212.76236 88.0
212.826767 244.0
212.895935 168.0
212.97435 128.0
213.013809 184.0
213.042862 152.0
213.086395 1244.0
213.124588 572.0
213.204849 132.0
213.288162 84.0
213.31723 112.0
213.42189 176.0
213.448059 104.0
213.500549 176.0
213.541122 184.0
213.586838 156.0
213.669434 144.0
213.744766 160.0
213.788422 36.0
213.849533 168.0
213.872818 72.0
213.896103 148.0
213.953552 140.0
213.992371 116.0
214.02359 192.0
214.090775 568.0
214.128632 292.0
214.185928 332.0
214.239731 220.0
214.26886 60.0
214.321304 104.0
214.352921 160.0
214.362564 128.0
214.409988 120.0
214.474396 196.0
214.528229 120.0
214.554474 68.0
214.587921 164.0
214.674942 164.0
214.754547 236.0
214.857773 164.0
214.966385 160.0
215.067886 164.0
215.091812 180.0
215.131165 124.0
215.158371 156.0
215.218231 160.0
215.263489 204.0
215.301453 112.0
215.356949 132.0
215.382767 100.0
215.44458 132.0
215.514694 152.0
215.599442 180.0
215.660812 116.0
215.695892 144.0
215.842072 164.0
215.871307 152.0
215.911652 252.0
216.00293 176.0
216.073135 72.0
216.125793 220.0
216.199707 156.0
216.280899 196.0
216.318954 196.0
216.361603 240.0
216.477066 132.0
216.508545 64.0
216.534531 212.0
216.556137 168.0
216.617355 160.0
216.680481 208.0
216.756256 180.0
216.818649 296.0
216.864731 260.0
216.992371 208.0
217.025925 204.0
217.057281 152.0
217.141556 168.0
217.175858 156.0
217.231155 208.0
217.309097 136.0
217.43277 132.0
217.459183 252.0
217.484528 208.0
217.527924 144.0
217.590347 164.0
217.623581 148.0
217.705795 128.0
217.787354 296.0
217.852661 72.0
217.934921 92.0
218.028961 180.0
218.087875 172.0
218.170044 216.0
218.214142 124.0
218.257919 220.0
218.363129 108.0
218.396469 144.0
218.497574 152.0
218.522964 148.0
218.684814 152.0
218.768814 156.0
218.826111 104.0
218.87323 136.0
218.893845 152.0
218.928894 204.0
218.98053 128.0
219.020477 156.0
219.064667 212.0
219.124832 152.0
219.136078 200.0
219.214935 84.0
219.25618 204.0
219.28566 156.0
219.359344 96.0
219.37999 144.0
219.4758 64.0
219.56575 216.0
219.609985 132.0
219.645737 132.0
219.666031 176.0
219.755676 196.0
219.798798 160.0
219.831253 84.0
219.90799 208.0
219.95079 120.0
220.023102 120.0
220.085327 224.0
220.155975 172.0
220.268219 84.0
220.330246 176.0
220.362747 176.0
220.424805 168.0
220.448441 96.0
220.562363 176.0
220.606567 176.0
220.681961 52.0
220.720398 148.0
220.757431 260.0
220.784225 172.0
220.820953 144.0
220.847565 176.0
220.944534 128.0
220.989563 176.0
221.057617 216.0
221.09288 224.0
221.131607 208.0
221.17305 120.0
221.196732 132.0
221.238174 124.0
221.270737 120.0
221.335876 132.0
221.382126 188.0
221.409912 164.0
221.525421 260.0
221.552078 96.0
221.599487 164.0
221.676529 140.0
221.697266 132.0
221.74173 56.0
221.765442 160.0
221.812866 116.0
221.85733 104.0
221.903336 200.0
222.017441 152.0
222.067856 248.0
222.174652 208.0
222.249008 128.0
222.25679 76.0
222.352692 116.0
222.376434 204.0
222.420959 196.0
222.453598 152.0
222.483292 140.0
222.526581 124.0
222.549927 72.0
222.586746 128.0
222.648529 228.0
222.6763 124.0
222.71492 140.0
222.762436 204.0
222.786209 152.0
222.863449 156.0
222.954575 72.0
223.026016 240.0
223.034592 116.0
223.046951 140.0
223.113724 372.0
223.196365 44.0
223.229065 156.0
223.27092 160.0
223.321259 180.0
223.39122 180.0
223.425385 132.0
223.445648 128.0
223.464386 156.0
223.490372 128.0
223.547363 88.0
223.624741 200.0
223.666412 144.0
223.746796 172.0
223.776566 132.0
223.80336 148.0
223.83017 168.0
223.849396 128.0
224.122253 132.0
224.224854 236.0
224.277039 160.0
224.318771 120.0
224.508057 224.0
224.530472 40.0
224.580368 164.0
224.584946 120.0
224.639984 308.0
224.703217 136.0
224.773117 224.0
224.813889 168.0
224.897446 192.0
224.975067 168.0
225.003983 280.0
225.089127 508.0
225.126282 308.0
225.202011 84.0
225.232346 232.0
225.261749 132.0
225.288635 148.0
225.312531 192.0
225.35022 312.0
225.421402 164.0
225.461929 100.0
225.529709 108.0
225.567505 188.0
225.617371 172.0
225.65773 56.0
225.722015 152.0
225.80574 136.0
225.835663 168.0
225.913437 112.0
225.952316 84.0
225.991211 204.0
226.046707 140.0
226.095459 3468.0
226.179199 192.0
226.215683 140.0
226.296509 156.0
226.387619 272.0
226.41629 120.0
226.455215 160.0
226.476196 180.0
226.497162 228.0
226.557068 180.0
226.598114 156.0
226.638931 296.0
226.705734 168.0
226.734985 152.0
226.768478 196.0
226.811783 68.0
226.841751 160.0
226.879044 188.0
226.913315 152.0
226.924698 132.0
226.950897 268.0
226.979523 148.0
227.003662 352.0
227.030045 140.0
227.062073 212.0
227.105545 80088.0
227.179642 188.0
227.250641 176.0
227.273331 40.0
227.294098 108.0
227.319672 104.0
227.39299 132.0
227.423996 76.0
227.458893 168.0
227.527542 140.0
227.534744 72.0
227.556152 128.0
227.597153 264.0
227.659058 240.0
227.725082 84.0
227.791107 156.0
227.837357 116.0
227.86116 76.0
227.892151 140.0
227.926208 108.0
227.960617 172.0
227.988922 160.0
228.021378 240.0
228.067963 48.0
228.108093 10588.0
228.156647 112.0
228.209763 128.0
228.266388 56.0
228.327286 96.0
228.364487 132.0
228.393661 88.0
228.401367 104.0
228.496979 52.0
228.529587 40.0
228.565689 40.0
228.589478 188.0
228.613571 180.0
228.620361 100.0
228.700806 156.0
228.745483 176.0
228.808685 60.0
228.839706 208.0
228.869705 164.0
228.908844 108.0
228.935944 36.0
228.966064 196.0
229.020767 100.0
229.043579 244.0
229.109406 2404.0
229.149811 36.0
229.172165 84.0
229.217773 180.0
229.263092 264.0
229.325958 180.0
229.440689 148.0
229.453476 212.0
229.502457 96.0
229.550705 100.0
229.591385 172.0
229.620071 200.0
229.647842 96.0
229.694077 208.0
229.760605 156.0
229.796219 176.0
229.838425 156.0
229.896164 256.0
229.940872 216.0
229.985764 196.0
230.052444 136.0
230.061127 164.0
230.088531 160.0
230.117935 304.0
230.163086 140.0
230.208557 124.0
230.2444 120.0
230.263626 136.0
230.317352 192.0
230.340347 176.0
230.369736 144.0
230.467285 184.0
230.484314 168.0
230.531799 104.0
230.582474 104.0
230.631531 192.0
230.665329 200.0
230.676865 216.0
230.722214 216.0
230.749573 164.0
230.794189 224.0
230.878616 176.0
230.922729 144.0
230.947952 160.0
230.990875 248.0
231.021866 96.0
231.130539 56.0
231.157761 172.0
231.200134 208.0
231.239471 44.0
231.319092 168.0
231.381744 184.0
231.421112 32.0
231.466522 128.0
231.516724 200.0
231.56041 144.0
231.587662 116.0
231.629044 328.0
231.683197 216.0
231.717926 160.0
231.74913 148.0
231.884583 60.0
231.911865 84.0
231.960495 268.0
231.994644 156.0
232.020569 336.0
232.06041 200.0
232.118027 152.0
232.177429 88.0
232.218094 120.0
232.271942 80.0
232.342468 116.0
232.40921 164.0
232.463837 144.0
232.494186 136.0
232.530609 156.0
232.552856 144.0
232.597382 116.0
232.626755 124.0
232.652023 180.0
232.67897 128.0
232.79776 100.0
232.852432 160.0
232.879761 168.0
232.961777 144.0
233.030716 208.0
233.098495 184.0
233.118729 224.0
233.143875 180.0
233.239563 112.0
233.265656 76.0
233.351318 152.0
233.378143 156.0
233.514999 52.0
233.59407 120.0
233.758377 36.0
233.807068 44.0
233.962753 80.0
233.99884 100.0
234.025757 176.0
234.160217 164.0
234.188644 172.0
234.227234 60.0
234.369781 228.0
234.406982 44.0
234.443558 120.0
234.480133 88.0
234.538589 156.0
234.604889 228.0
234.646408 116.0
234.67218 196.0
234.724014 128.0
234.75145 44.0
234.931412 152.0
234.973572 180.0
234.997757 112.0
235.123642 120.0
235.175522 40.0
235.196884 128.0
235.245728 172.0
235.303741 132.0
235.329514 208.0
235.377014 180.0
235.531372 152.0
235.557205 36.0
235.702042 108.0
235.759872 244.0
235.871948 120.0
235.906342 112.0
235.942261 164.0
235.972839 112.0
236.000351 172.0
236.0401 56.0
236.076797 120.0
236.257263 160.0
236.290909 188.0
236.316635 156.0
236.369507 180.0
236.413315 112.0
236.514313 108.0
236.593307 168.0
236.679626 180.0
236.7715 92.0
236.838882 156.0
236.952225 144.0
237.085236 136.0
237.139145 104.0
237.159271 88.0
237.197388 140.0
237.316376 152.0
237.339111 160.0
237.385803 232.0
237.509659 172.0
237.559235 156.0
237.594391 96.0
237.660477 132.0
237.731049 184.0
237.862488 160.0
237.895126 168.0
237.976624 220.0
238.104462 184.0
238.14859 160.0
238.185455 228.0
238.231522 180.0
238.308334 156.0
238.368622 200.0
238.486572 220.0
238.538834 192.0
238.552811 124.0
238.649506 156.0
238.751816 132.0
238.790955 60.0
238.837097 212.0
238.914001 152.0
238.971268 208.0
239.006302 100.0
239.080475 156.0
239.10878 216.0
239.172485 96.0
239.2202 176.0
239.249451 156.0
239.301788 136.0
239.354126 164.0
239.415649 168.0
239.529678 120.0
239.602325 344.0
239.66832 200.0
239.706543 188.0
239.948792 172.0
240.112625 268.0
240.194672 140.0
240.250214 120.0
240.284973 120.0
240.325073 188.0
240.382156 120.0
240.439255 156.0
240.476288 128.0
240.525681 76.0
240.589752 244.0
240.659241 136.0
240.730377 184.0
240.781937 160.0
240.852982 184.0
240.95192 160.0
240.982727 208.0
241.004364 68.0
241.059357 60.0
241.086319 340.0
241.121445 5432.0
241.229965 180.0
241.273254 124.0
241.366013 144.0
241.400024 136.0
241.448746 276.0
241.524475 168.0
241.562759 168.0
241.60672 184.0
241.657242 152.0
241.684601 136.0
241.796005 152.0
241.82077 212.0
241.854202 304.0
241.986679 196.0
242.012527 148.0
242.019608 192.0
242.065338 128.0
242.087021 224.0
242.123077 600.0
242.373596 148.0
242.41803 164.0
242.504364 208.0
242.543259 108.0
242.613754 192.0
242.672653 44.0
242.806 120.0
242.899048 68.0
242.950623 208.0
242.982361 164.0
243.035553 112.0
243.100433 400.0
243.12709 168.0
243.19072 104.0
243.234848 56.0
243.268326 28.0
243.293152 64.0
243.336624 156.0
243.366013 180.0
243.519836 44.0
243.585068 112.0
243.631775 168.0
243.835693 156.0
243.919342 252.0
243.941208 212.0
243.970398 96.0
244.004608 60.0
244.09166 180.0
244.119644 100.0
244.172516 120.0
244.206726 160.0
244.24205 192.0
244.275162 148.0
244.306274 224.0
244.471176 132.0
244.500626 284.0
244.525696 208.0
244.575424 180.0
244.608124 140.0
244.636139 184.0
244.67038 124.0
244.834152 148.0
244.995575 76.0
245.028107 144.0
245.040192 124.0
245.071045 156.0
245.212387 156.0
245.256027 116.0
245.380722 80.0
245.418137 116.0
245.439957 176.0
245.477386 356.0
245.595566 188.0
245.623962 100.0
245.658279 364.0
245.704132 356.0
245.764359 88.0
245.801804 100.0
245.842361 80.0
245.882935 148.0
245.907913 172.0
245.962006 144.0
246.076477 196.0
246.100769 184.0
246.130951 116.0
246.189926 192.0
246.24823 144.0
246.278412 84.0
246.326309 76.0
246.365082 136.0
246.384781 196.0
246.407532 156.0
246.493256 148.0
246.560852 120.0
246.59816 128.0
246.654419 232.0
246.750488 180.0
246.819946 144.0
246.870148 76.0
246.949356 148.0
246.961105 48.0
246.972366 152.0
247.020569 132.0
247.057587 160.0
247.090057 156.0
247.151672 128.0
247.186096 156.0
247.289368 324.0
247.34964 196.0
247.398926 156.0
247.423981 88.0
247.461548 244.0
247.508514 160.0
247.539825 144.0
247.593063 80.0
247.623428 172.0
247.6651 192.0
247.701187 144.0
247.74968 240.0
247.799805 124.0
248.009766 176.0
248.069321 136.0
248.12262 132.0
248.153519 196.0
248.179199 184.0
248.210403 176.0
248.251175 136.0
248.309586 168.0
248.356735 116.0
248.390549 284.0
248.414856 152.0
248.467606 156.0
248.542908 140.0
248.571152 184.0
248.639084 132.0
248.72493 132.0
248.765732 168.0
248.974976 144.0
249.08226 216.0
249.302826 164.0
249.324829 48.0
249.371979 84.0
249.428543 60.0
249.463135 168.0
249.510284 132.0
249.598312 404.0
249.658066 208.0
249.686371 152.0
249.743652 208.0
249.764145 160.0
249.871964 132.0
249.988388 132.0
250.117416 192.0
250.152054 212.0
250.216354 140.0
250.24649 160.0
250.268539 124.0
250.331421 148.0
250.417221 164.0
250.448044 96.0
250.492142 108.0
250.542984 228.0
250.577194 132.0
250.657242 232.0
250.683289 192.0
250.74736 212.0
250.791489 112.0
251.009842 200.0
251.08638 136.0
251.102707 124.0
251.109818 104.0
251.198257 112.0
251.232956 164.0
251.283432 248.0
251.369339 196.0
251.500427 156.0
251.545364 120.0
251.618378 156.0
251.658569 200.0
251.725739 136.0
251.773026 116.0
251.813766 244.0
251.835861 156.0
251.857971 128.0
251.895889 192.0
251.958389 204.0
252.038055 140.0
252.091766 172.0
252.132858 120.0
252.19606 156.0
252.224518 208.0
252.287735 68.0
252.3358 236.0
252.363617 76.0
252.443909 132.0
252.470337 160.0
252.509079 52.0
252.567871 136.0
252.611847 112.0
252.657745 160.0
252.689392 220.0
252.757858 156.0
252.775589 132.0
252.803299 196.0
252.866592 80.0
252.904572 160.0
252.929901 128.0
252.971985 144.0
252.99321 116.0
253.093201 144.0
253.116684 104.0
253.141632 64.0
253.192688 260.0
253.228424 184.0
253.268707 172.0
253.316223 196.0
253.346954 296.0
253.380142 68.0
253.419418 216.0
253.467148 172.0
253.508026 104.0
253.567856 144.0
253.621506 192.0
253.661057 180.0
253.715897 132.0
253.745911 328.0
253.7668 140.0
253.807465 104.0
253.84819 200.0
253.878159 380.0
253.903549 160.0
253.975983 400.0
254.000916 236.0
254.02269 220.0
254.055573 476.0
254.085953 720.0
254.174438 248.0
254.18486 368.0
254.196213 608.0
254.22171 312.0
254.23494 176.0
254.28685 196.0
254.323563 360.0
254.337677 248.0
254.362045 296.0
254.398376 232.0
254.420486 204.0
254.45697 208.0
254.478104 320.0
254.530243 308.0
254.551102 224.0
254.563507 316.0
254.602692 240.0
254.639938 208.0
254.693039 280.0
254.729904 260.0
254.740326 160.0
254.765839 284.0
254.770462 312.0
254.797928 400.0
254.848434 316.0
254.868912 452.0
254.921646 856.0
254.933884 296.0
254.947998 352.0
255.008301 624.0
255.05719 1164.0
255.101532 441672.0
255.196136 284.0
255.221359 360.0
255.264969 40.0
255.317932 400.0
255.342606 260.0
255.396881 1036.0
255.452362 416.0
255.49614 620.0
255.583099 612.0
255.627121 6616.0
255.667709 404.0
255.726273 124.0
255.743134 180.0
255.779144 276.0
255.839188 404.0
255.882095 356.0
255.903809 260.0
255.94487 660.0
255.978378 184.0
256.019745 404.0
256.103821 113876.0
256.179138 276.0
256.265442 312.0
256.327454 176.0
256.349335 300.0
256.378296 316.0
256.388885 200.0
256.399139 156.0
256.418762 212.0
256.440186 324.0
256.470612 144.0
256.492035 228.0
256.522797 224.0
256.553772 116.0
256.576599 384.0
256.625793 288.0
256.662201 132.0
256.674927 100.0
256.708984 140.0
256.771942 80.0
256.80484 124.0
256.85025 48.0
256.884369 80.0
256.918518 84.0
256.926849 84.0
256.968384 196.0
256.996124 172.0
257.049652 196.0
257.105682 12348.0
257.153564 108.0
257.185547 120.0
257.195953 264.0
257.219788 264.0
257.250977 60.0
257.286774 176.0
257.319397 120.0
257.366058 256.0
257.399384 196.0
257.427887 180.0
257.465759 228.0
257.494629 160.0
257.521027 164.0
257.565308 200.0
257.576416 188.0
257.619141 332.0
257.669922 152.0
257.678833 476.0
257.707336 216.0
257.731323 204.0
257.769409 200.0
257.808228 356.0
257.842407 380.0
257.884155 480.0
257.923218 428.0
257.931244 316.0
257.979553 152.0
258.022369 340.0
258.035156 264.0
258.109558 1056.0
258.169617 168.0
258.21286 44.0
258.265503 112.0
258.319336 48.0
258.366455 140.0
258.394745 140.0
258.430206 52.0
258.459412 136.0
258.535034 112.0
258.570007 192.0
258.615143 164.0
258.649048 172.0
258.682037 56.0
258.70636 140.0
258.734619 232.0
258.75943 92.0
258.798523 84.0
258.843384 192.0
258.862488 100.0
258.930267 120.0
258.960724 208.0
258.998749 72.0
259.100525 112.0
259.107025 148.0
259.118683 252.0
259.160797 116.0
259.18219 168.0
259.205688 104.0
259.246277 208.0
259.259583 204.0
259.327393 176.0
259.388306 76.0
259.444489 44.0
259.481873 48.0
259.581146 96.0
259.656982 192.0
259.696777 76.0
259.80365 48.0
259.85498 92.0
259.944824 92.0
260.043579 68.0
260.087585 100.0
260.109619 92.0
260.175934 72.0
260.222809 40.0
260.256378 76.0
260.294739 60.0
260.355743 84.0
260.401733 88.0
260.538818 28.0
260.570953 28.0
260.632324 40.0
260.68454 104.0
260.715546 108.0
260.789978 52.0
260.870667 132.0
260.969513 44.0
261.117432 68.0
261.194611 64.0
261.220337 68.0
261.278259 84.0
261.310425 48.0
261.332947 104.0
261.37265 56.0
261.397308 40.0
261.429474 160.0
261.471313 68.0
261.521637 84.0
261.555023 164.0
261.587189 44.0
261.651367 56.0
261.673187 180.0
261.732086 128.0
261.756042 96.0
261.822968 108.0
261.866577 68.0
261.971313 100.0
262.044495 144.0
262.090576 112.0
262.170166 44.0
262.284973 136.0
262.444183 52.0
262.502228 48.0
262.58606 80.0
262.676392 208.0
262.708649 52.0
262.773163 184.0
262.802063 100.0
262.953857 88.0
262.999054 36.0
263.075317 128.0
263.144318 100.0
263.205658 52.0
263.347778 76.0
263.391449 48.0
263.441437 64.0
263.557739 40.0
263.670868 176.0
263.764587 152.0
263.90683 36.0
264.036194 72.0
264.330566 180.0
264.375885 124.0
264.51828 52.0
264.560364 92.0
264.618652 52.0
264.7435 108.0
264.95871 60.0
265.020264 176.0
265.078583 80.0
265.286011 36.0
265.311951 216.0
265.360596 92.0
265.386536 88.0
265.582184 312.0
265.629761 140.0
265.668701 60.0
265.720612 44.0
265.744537 84.0
266.041901 72.0
266.084106 120.0
266.209961 64.0
266.254974 192.0
266.264435 120.0
266.311401 44.0
266.360138 160.0
266.532318 220.0
266.657227 212.0
266.73056 64.0
266.759827 80.0
266.802094 120.0
266.838715 180.0
266.952423 172.0
267.029114 108.0
267.095245 104.0
267.133789 72.0
267.203766 172.0
267.228241 180.0
267.270447 176.0
267.436401 144.0
267.494995 56.0
267.524292 88.0
267.586151 148.0
267.667542 32.0
267.700104 304.0
267.739197 48.0
267.765259 76.0
267.840332 224.0
267.882507 76.0
268.030365 84.0
268.084534 152.0
268.116211 72.0
268.153412 224.0
268.183136 124.0
268.233429 64.0
268.300934 124.0
268.314636 100.0
268.326538 116.0
268.333649 176.0
268.420593 44.0
268.48764 128.0
268.537354 156.0
268.57135 176.0
268.600098 188.0
268.655121 52.0
268.683563 228.0
268.730865 72.0
268.757843 260.0
268.794495 100.0
268.84021 160.0
268.883514 172.0
268.92749 156.0
268.967163 484.0
269.025177 140.0
269.055176 164.0
269.116211 72800.0
269.182587 204.0
269.23526 136.0
269.277008 204.0
269.32132 200.0
269.349396 176.0
269.388916 72.0
269.418182 140.0
269.486328 120.0
269.519073 100.0
269.554169 180.0
269.588348 240.0
269.650513 96.0
269.695679 104.0
269.744568 68.0
269.793091 140.0
269.838593 96.0
269.873779 28.0
269.898865 148.0
269.993256 148.0
270.118805 11028.0
270.216736 60.0
270.239655 140.0
270.29715 132.0
270.329712 100.0
270.383209 64.0
270.436249 52.0
270.458099 48.0
270.475616 88.0
270.505493 140.0
270.553833 60.0
270.589844 112.0
270.625275 44.0
270.758667 72.0
270.80246 52.0
270.832489 48.0
270.858398 60.0
270.907532 56.0
270.970276 76.0
271.009094 100.0
271.046783 76.0
271.07135 52.0
271.121063 652.0
271.169556 268.0
271.268341 76.0
271.302948 164.0
271.343384 40.0
271.428101 148.0
271.517181 52.0
271.582794 88.0
271.656647 100.0
271.730408 84.0
271.7565 112.0
271.782898 36.0
271.828827 68.0
271.873566 172.0
271.946991 132.0
271.978821 40.0
272.033142 48.0
272.065155 140.0
272.089752 104.0
272.120087 372.0
272.171387 68.0
272.238281 168.0
272.269409 120.0
272.357422 76.0
272.421478 80.0
272.475677 72.0
272.504456 168.0
272.607117 96.0
272.871613 144.0
272.968719 48.0
273.05423 48.0
273.083801 60.0
273.143921 104.0
273.172638 48.0
273.195648 96.0
273.231842 48.0
273.277893 52.0
273.353577 148.0
273.393066 40.0
273.439148 88.0
273.554352 148.0
273.788116 20.0
273.854004 108.0
274.177429 48.0
274.215881 264.0
274.239502 132.0
274.338379 56.0
274.499939 104.0
274.592285 40.0
274.618652 116.0
274.64505 56.0
274.737427 60.0
274.816589 56.0
274.895782 44.0
274.945282 72.0
275.057526 36.0
275.245697 48.0
275.47644 120.0
275.506622 132.0
275.605652 180.0
275.726593 100.0
275.939575 184.0
276.00238 84.0
276.048676 64.0
276.108215 52.0
276.151215 60.0
276.253754 132.0
276.68396 144.0
276.766724 104.0
276.932312 84.0
277.03833 124.0
277.290161 40.0
277.329926 108.0
277.625 84.0
277.694641 52.0
277.724487 52.0
278.272034 92.0
278.491211 76.0
278.630737 180.0
278.815247 152.0
279.059479 28.0
279.152588 56.0
279.180603 132.0
279.322205 68.0
279.402039 76.0
279.445282 164.0
279.603363 112.0
279.701538 64.0
279.818054 48.0
279.918304 148.0
280.111115 152.0
280.474335 60.0
280.517181 136.0
280.831085 108.0
281.258179 88.0
281.555328 56.0
281.605438 48.0
281.685608 112.0
281.839294 164.0
281.869354 160.0
281.902771 44.0
281.969604 140.0
282.046478 80.0
282.150116 48.0
282.197144 128.0
282.444397 112.0
282.668549 48.0
282.732147 112.0
282.755554 132.0
283.190826 100.0
283.341553 228.0
283.371704 68.0
283.395172 52.0
283.472229 156.0
283.535919 52.0
283.623047 116.0
284.311768 220.0
284.611267 260.0
284.716827 92.0
284.740326 240.0
284.867981 76.0
284.908295 88.0
285.049408 32.0
285.634399 28.0
285.694946 68.0
285.910309 72.0
285.980988 72.0
286.398499 52.0
287.123138 124.0
287.737274 160.0
287.781158 88.0
287.868958 68.0
288.034454 156.0
288.453461 52.0
288.527832 132.0
288.676605 168.0
289.373627 92.0
289.405884 76.0
289.914429 172.0
289.973236 156.0
290.030853 72.0
290.268158 148.0
290.417389 124.0
290.444519 92.0
290.559845 76.0
290.934631 176.0
291.248962 116.0
291.442627 140.0
291.588745 164.0
291.748505 144.0
291.809692 96.0
292.309692 48.0
292.360748 136.0
292.391388 144.0
292.554749 40.0
292.728394 124.0
292.942993 108.0
293.363281 156.0
293.699738 56.0
293.798645 84.0
293.892334 140.0
294.228668 92.0
294.436951 172.0
294.467682 176.0
295.05542 176.0
295.219543 84.0
295.568481 76.0
295.677979 44.0
295.797241 224.0
295.849121 100.0
295.996338 92.0
296.023743 92.0
296.052643 208.0
296.125793 220.0
296.15213 156.0
296.172516 136.0
296.261627 176.0
296.327637 204.0
296.383423 48.0
296.410828 180.0
296.467651 200.0
296.513641 96.0
296.571381 140.0
296.616058 176.0
296.651428 164.0
296.680298 84.0
296.743317 72.0
296.798157 88.0
296.82428 104.0
296.853943 76.0
296.926697 132.0
296.955444 140.0
296.966064 184.0
296.992615 276.0
297.026123 324.0
297.111786 107168.0
297.176727 184.0
297.212555 148.0
297.235931 168.0
297.284882 244.0
297.320953 232.0
297.349274 80.0
297.375183 120.0
297.41568 68.0
297.444946 96.0
297.472626 68.0
297.484955 44.0
297.512878 72.0
297.557739 92.0
297.602264 60.0
297.637115 48.0
297.675018 252.0
297.717834 76.0
297.765015 108.0
297.816162 120.0
297.860291 200.0
297.917053 424.0
297.948822 132.0
297.98233 64.0
298.009796 36.0
298.069519 220.0
298.114075 19468.0
298.203491 92.0
298.250519 224.0
298.335724 160.0
298.439453 48.0
298.508209 68.0
298.542358 56.0
298.552124 52.0
298.563812 96.0
298.588257 68.0
298.619843 132.0
298.71582 44.0
298.787262 96.0
298.862518 120.0
298.951263 124.0
298.998566 120.0
299.049744 92.0
299.080383 156.0
299.116058 2432.0
299.182587 40.0
299.361115 52.0
299.416748 84.0
299.447723 84.0
299.478729 124.0
299.508209 72.0
299.545807 72.0
299.595612 112.0
299.644073 124.0
299.692322 108.0
299.749695 72.0
299.760834 100.0
299.817535 92.0
299.85083 172.0
299.901489 144.0
299.938812 92.0
299.963593 168.0
299.992157 104.0
300.031677 60.0
300.06778 72.0
300.11734 272.0
300.182098 272.0
300.240021 104.0
300.268982 112.0
300.308624 224.0
300.332458 228.0
300.359558 104.0
300.406891 136.0
300.478607 140.0
300.534973 120.0
300.570099 68.0
300.664764 48.0
300.713074 68.0
300.848602 64.0
300.88913 104.0
300.953217 64.0
301.056091 148.0
301.12088 68.0
301.334656 72.0
301.367065 64.0
301.490143 96.0
301.566193 120.0
301.69754 116.0
301.752869 60.0
301.928162 144.0
301.961975 84.0
302.084869 60.0
302.165741 84.0
302.323608 104.0
302.513947 124.0
302.548584 28.0
302.728638 160.0
302.756317 76.0
303.075012 76.0
304.521637 88.0
304.601532 48.0
304.632782 72.0
304.684906 40.0
305.181915 40.0
305.526215 60.0
305.71759 84.0
305.773285 76.0
305.839417 108.0
306.302521 36.0
307.062347 80.0
307.12973 64.0
308.095581 136.0
308.626831 100.0
308.714264 80.0
308.931091 112.0
309.111084 100.0
309.459564 56.0
310.20578 48.0
311.282898 60.0
311.73584 80.0
311.968964 108.0
312.126251 156.0
312.228241 80.0
312.330231 92.0
313.446259 40.0
314.045593 44.0
314.33136 48.0
314.521942 104.0
314.677246 68.0
315.549927 108.0
315.648926 112.0
315.673706 72.0
315.723206 48.0
316.742554 44.0
317.064972 136.0
317.940948 48.0
319.212738 48.0
320.123718 60.0
321.303528 56.0
322.975342 48.0
323.676788 68.0
323.97049 88.0
324.106628 112.0
324.346741 116.0
325.972565 68.0
328.222351 56.0
328.402679 60.0
328.878937 112.0
329.030548 96.0
330.801971 76.0
334.067993 84.0
335.291412 76.0
335.768005 72.0
336.455017 96.0
336.710602 120.0
337.774231 88.0
337.872986 112.0
338.176727 152.0
338.454956 128.0
338.528198 48.0
338.810211 72.0
338.839539 76.0
339.224335 72.0
341.688538 72.0
341.736359 64.0
342.008667 64.0
343.382996 116.0
343.578491 100.0
344.073029 32.0
345.133423 132.0
345.425598 92.0
348.12381 128.0
348.484131 72.0
348.982178 40.0
349.268524 80.0
350.105957 112.0
350.910828 40.0
351.119629 68.0
351.771149 72.0
351.936859 68.0
352.669098 84.0
353.128967 72.0
353.626587 100.0
354.165222 340.0
354.551086 132.0
354.814056 84.0
354.896545 40.0
355.166565 196.0
355.83078 80.0
356.171387 256.0
356.672272 52.0
357.183655 140.0
357.78952 132.0
359.025421 68.0
359.327209 164.0
359.746094 64.0
360.989166 108.0
361.280396 84.0
362.1586 96.0
362.18512 84.0
364.081512 116.0
365.008728 48.0
365.80011 32.0
367.728821 40.0
368.236603 48.0
368.309174 96.0
368.358826 136.0
368.75238 128.0
368.882355 68.0
369.084991 72.0
369.360352 84.0
369.574585 44.0
370.915466 128.0
371.118164 92.0
371.26004 40.0
375.077942 72.0
376.536407 52.0
377.64566 76.0
379.644073 68.0
379.803101 80.0
380.113464 84.0
381.850006 112.0
382.760651 76.0
382.900848 116.0
383.69574 104.0
384.749115 76.0
385.604584 48.0
386.35144 108.0
386.961975 64.0
388.682648 44.0
389.962921 104.0
390.572357 56.0
391.406677 132.0
391.926636 76.0
394.069122 56.0
394.72525 68.0
395.512573 56.0
396.268951 48.0
397.299744 92.0
397.430664 84.0
398.780884 64.0
399.086975 36.0
399.345459 100.0
401.217041 120.0
402.242279 116.0
402.789337 96.0
403.464691 120.0
403.820557 84.0
403.932556 112.0
403.996582 96.0
404.120605 96.0
405.221649 68.0
406.003296 28.0
406.637177 60.0
406.769653 92.0
407.251495 56.0
407.789886 76.0
410.531555 56.0
411.13266 76.0
411.334473 64.0
412.538269 56.0
412.695923 60.0
413.496918 96.0
414.011047 112.0
414.44046 124.0
415.145782 76.0
416.261719 116.0
416.785736 132.0
416.84668 152.0
417.249084 140.0
417.724884 124.0
419.220306 224.0
419.904022 48.0
420.462982 68.0
420.585419 56.0
421.208466 184.0
423.250946 100.0
423.459808 68.0
423.939148 44.0
424.135864 40.0
424.787842 48.0
425.329498 68.0
426.356323 48.0
427.273254 52.0
427.647736 56.0
428.508392 52.0
428.636139 88.0
428.714417 52.0
429.481262 124.0
429.95163 68.0
431.628815 52.0
432.129303 68.0
432.621796 40.0
434.677551 96.0
434.760559 80.0
434.926575 84.0
435.175659 148.0
435.233795 96.0
435.487122 60.0
437.262451 80.0
438.661133 100.0
439.224609 168.0
439.274963 132.0
439.504425 84.0
439.629608 60.0
439.896729 72.0
440.220398 92.0
440.280853 220.0
441.216858 96.0
443.640808 104.0
444.399902 112.0
444.517395 84.0
445.920074 44.0
447.783905 92.0
448.318939 40.0
450.162445 84.0
450.546814 92.0
450.808777 36.0
451.688202 52.0
452.344086 88.0
453.208038 60.0
453.330322 136.0
455.278137 72.0
457.280579 60.0
457.72757 48.0
457.923462 40.0
459.816467 88.0
461.44397 68.0
461.760406 76.0
462.188202 80.0
462.667572 120.0
462.984436 152.0
463.781342 120.0
465.385773 60.0
467.053223 64.0
467.147858 68.0
467.72879 100.0
468.14209 56.0
468.926178 104.0
470.794281 108.0
471.265106 84.0
471.53302 48.0
473.575195 68.0
476.559814 84.0
476.594574 72.0
476.7771 32.0
477.785858 68.0
477.912048 96.0
479.187775 40.0
480.308136 88.0
480.761871 100.0
480.971375 80.0
481.543365 64.0
481.674408 92.0
481.753021 76.0
482.139526 72.0
482.465363 56.0
482.623383 56.0
483.160736 64.0
483.265717 124.0
485.355042 52.0
486.649414 80.0
487.536743 32.0
489.679291 92.0
492.056122 84.0
492.948334 68.0
493.063232 112.0
493.86792 84.0
494.814911 108.0
496.268158 76.0
496.410065 112.0
496.698334 108.0
497.261841 88.0
498.696442 68.0
499.772644 44.0
500.471436 84.0
501.224213 76.0
501.705566 48.0
503.315125 80.0
504.500214 140.0
506.052673 76.0
506.101929 92.0
506.590088 28.0
507.468506 56.0
507.759979 88.0
508.244446 160.0
509.097351 80.0
510.634369 52.0
510.760284 60.0
511.424988 52.0
513.232727 80.0
514.374146 60.0
514.487 56.0
514.839233 72.0
516.538635 40.0
516.805542 96.0
517.077087 112.0
518.476501 104.0
520.37262 132.0
520.50885 96.0
520.835815 80.0
523.104919 80.0
523.291565 116.0
523.8927 44.0
524.603638 60.0
527.031616 56.0
527.333252 68.0
527.584656 40.0
528.549683 68.0
528.604614 80.0
528.828857 120.0
529.634705 72.0
530.936401 92.0
531.518982 64.0
533.907715 64.0
535.739685 80.0
536.975037 76.0
537.028992 68.0
538.456543 84.0
538.632019 40.0
539.644104 76.0
540.199097 88.0
542.53772 52.0
544.514465 44.0
545.922607 36.0
546.262146 48.0
546.704163 52.0
547.397766 108.0
548.534546 96.0
550.634277 76.0
551.839905 108.0
552.452515 36.0
552.522705 88.0
554.498779 76.0
555.746155 32.0
556.755371 40.0
556.9198 92.0
557.309692 40.0
558.682556 84.0
560.292603 68.0
560.325562 76.0
561.532349 76.0
562.15033 92.0
565.633606 48.0
565.742493 112.0
566.111816 76.0
566.689697 76.0
568.344482 156.0
569.868591 68.0
572.065796 80.0
574.176636 120.0
574.596375 68.0
575.417297 108.0
576.716675 72.0
577.65863 112.0
577.9505 68.0
578.271118 60.0
578.409912 80.0
581.770325 124.0
587.482605 48.0
587.579102 96.0
588.409241 68.0
589.481506 68.0
591.30957 100.0
593.804688 64.0
594.838196 92.0
595.561707 92.0
597.005188 76.0
597.146179 96.0
599.122498 60.0
602.029541 68.0
602.910522 60.0
607.55072 80.0
610.237183 72.0
612.451721 64.0
613.698547 108.0
615.237854 100.0
616.606079 56.0
617.525696 120.0
618.594482 40.0
622.163818 44.0
625.4646 104.0
630.487122 56.0
632.252502 88.0
632.778076 40.0
634.406311 68.0
637.352417 120.0
638.47345 116.0
640.768799 132.0
643.123779 48.0
643.971985 88.0
647.370605 52.0
648.25708 80.0
648.657532 88.0
652.602173 48.0
653.146301 104.0
653.522766 60.0
654.713928 116.0
656.39563 68.0
657.609802 72.0
658.038574 48.0
658.702515 68.0
660.532471 40.0
662.534119 48.0
664.610535 32.0
664.718323 72.0
664.795288 68.0
665.180237 40.0
665.329102 76.0
667.307068 100.0
670.627441 32.0
672.520386 100.0
672.990173 72.0
673.263855 88.0
673.615051 48.0
681.967896 28.0
682.316162 96.0
683.450012 72.0
685.131714 84.0
688.062683 56.0
688.872131 68.0
691.11499 36.0
695.496155 44.0
699.106873 48.0
700.028137 96.0
704.981628 44.0
706.091797 76.0
706.647217 124.0
707.72168 72.0
708.256592 124.0
708.770447 76.0
709.305725 72.0
709.979126 44.0
711.008301 48.0
711.693115 88.0
713.366638 76.0
713.749451 108.0
714.100403 48.0
716.218811 108.0
721.079529 84.0
725.066711 40.0
729.129456 168.0
729.645447 92.0
732.960999 60.0
733.1604 96.0
734.319519 96.0
736.478455 72.0
737.348328 100.0
738.667664 68.0
739.684937 72.0
741.86261 92.0
744.586487 88.0
744.847229 140.0
745.412231 64.0
746.015564 92.0
747.489502 88.0
756.226868 72.0
762.638672 84.0
763.919861 76.0
764.43158 52.0
764.811279 40.0
767.358948 76.0
769.022339 32.0
778.483948 192.0
780.934875 60.0
781.596863 96.0
782.209045 64.0
785.491211 136.0
790.139099 88.0
792.714783 44.0
803.465393 48.0
806.463928 20.0
806.83136 44.0
808.726379 120.0
808.794312 76.0
809.938049 40.0
812.415283 36.0
812.557129 88.0
819.721436 124.0
820.399658 44.0
825.526978 80.0
836.232361 92.0
837.378113 100.0
839.781494 96.0
840.756531 72.0
841.703308 84.0
848.038086 80.0
850.149109 80.0
853.076477 100.0
854.565308 72.0
855.525574 68.0
857.359131 92.0
861.035828 92.0
861.988037 48.0
863.274109 164.0
868.639038 72.0
871.098633 100.0
874.185364 60.0
875.98114 76.0
876.057739 84.0
878.026428 188.0
879.684448 204.0
880.139038 76.0
880.434326 96.0
880.697388 44.0
881.527222 84.0
882.336975 80.0
882.668091 52.0
883.910278 104.0
884.306763 44.0
887.375305 104.0
895.141357 180.0
897.435425 92.0
902.438904 92.0
902.546509 44.0
911.435791 144.0
915.990112 64.0
916.586548 212.0
921.292603 88.0
921.921021 136.0
924.345947 40.0
924.817993 88.0
927.446777 92.0
927.846863 76.0
931.4151 52.0
940.567078 168.0
947.59375 44.0
949.119934 96.0
955.827576 152.0
957.05249 52.0
959.288879 200.0
961.762451 100.0
967.864319 88.0
968.006714 116.0
973.637634 28.0
975.874695 76.0
978.176514 104.0
979.359619 148.0
980.88623 56.0
982.975525 44.0
988.055359 36.0
990.991699 200.0
991.035522 56.0
991.586975 84.0
994.428162 28.0
1009.991272 104.0
1010.149414 144.0
1013.625244 160.0
1019.279114 80.0
1019.6604 160.0
1020.410461 52.0
1021.599731 168.0
1023.209839 68.0
1027.262939 208.0
1029.401123 120.0
1038.809692 80.0
1044.539673 48.0
1046.708496 176.0
1055.387207 88.0
1055.451904 140.0
1058.150024 88.0
1060.579224 140.0
1068.976807 172.0
1082.692505 40.0
1083.151001 44.0
1085.987305 216.0
1086.297485 164.0
1088.089111 96.0
1088.61438 164.0
1091.413696 208.0
1096.278198 172.0
1098.790405 56.0
1102.878052 96.0
1104.921509 56.0
1105.450806 184.0
1105.775024 112.0
1111.268555 176.0
1112.018433 188.0
1114.68811 204.0
1115.485718 36.0
1123.230103 60.0
1125.873169 108.0
1129.408813 40.0
1137.371582 176.0
1139.585205 48.0
1140.37146 92.0
1143.337402 60.0
1143.761475 48.0
1143.869141 136.0
1144.569336 104.0
1145.249512 72.0
1145.943359 60.0
1146.226318 192.0
1149.024536 144.0
1151.29248 52.0
1152.805786 200.0
1157.53418 144.0
1157.893188 156.0
1160.529175 124.0
1164.89978 60.0
1166.442383 68.0
1169.64624 180.0
1171.151001 136.0
1171.24646 40.0
1174.647827 216.0
1175.650757 48.0
1180.535278 92.0
1181.014038 56.0
1181.465576 56.0
1184.628296 96.0
1193.206665 172.0
1193.976807 80.0
1195.669312 52.0
1196.116699 224.0
1196.956543 60.0
1199.940063 196.0
1200.857178 96.0
1202.727051 48.0
1209.279541 124.0
1210.622681 84.0
1212.64563 132.0
1212.805054 104.0
1215.593018 140.0
1216.384277 48.0
1218.606567 136.0
1220.059082 76.0
1225.111572 44.0
1226.923462 188.0
1227.341797 124.0
1228.59021 104.0
1229.713623 144.0
1229.91687 192.0
1230.216309 112.0
1236.710083 140.0
1238.061279 148.0
1239.490356 180.0
1240.96936 212.0
1243.431519 96.0
1244.252808 100.0
1244.849609 112.0
1246.21936 76.0
1248.089111 104.0
1250.340088 180.0
1250.769531 144.0
1260.735352 204.0
1260.989746 44.0
1262.637085 72.0
1262.771484 188.0
1268.039062 144.0
1272.046631 128.0
1273.125854 152.0
1274.411621 120.0
1274.482666 32.0
1275.370972 184.0
1276.984985 204.0
1278.123169 176.0
1278.222778 152.0
1282.039795 188.0
1282.339111 96.0
1282.538696 164.0
1283.75061 80.0
1284.492432 56.0
1285.113037 256.0
1288.075806 40.0
1290.80603 64.0
1291.699951 124.0
1292.967529 132.0
1295.049805 132.0
1298.963501 124.0
1303.58728 80.0
1304.881104 108.0
1305.765625 200.0
1307.715332 184.0
1309.997925 124.0
1310.055542 52.0
1310.812134 156.0
1314.807251 156.0
1315.095947 212.0
1315.427979 212.0
1316.222168 244.0
1325.520874 20.0
1325.988403 136.0
1327.119263 180.0
1332.23584 128.0
1332.744385 164.0
1333.391113 176.0
1334.590576 148.0
1334.757812 176.0
1335.666992 100.0
1337.609863 100.0
1338.039307 160.0
1339.087891 108.0
1339.168091 160.0
1339.983887 108.0
1341.164429 116.0
1341.820557 180.0
1342.279907 184.0
1342.907104 88.0
1345.366211 132.0
1345.884521 60.0
1346.928833 36.0
1349.940063 136.0
1351.424927 88.0
1353.349976 136.0
1356.844727 152.0
1357.394653 160.0
1359.837646 108.0
1363.46582 212.0
1369.108521 212.0
1370.85022 160.0
1372.453979 136.0
1377.199219 204.0
1378.447754 156.0
1378.617798 84.0
1379.157227 124.0
1380.61377 188.0
1381.064941 252.0
1381.13147 128.0
1382.196899 120.0
1382.685303 120.0
1383.277344 84.0
1385.55835 140.0
1385.721313 32.0
1387.996826 164.0
1390.415161 72.0
1392.063232 152.0
1393.042725 160.0
1394.685791 120.0
1395.77124 156.0
1398.568481 160.0
1398.628052 140.0
1399.14917 132.0
1401.584717 224.0
1404.034058 184.0
1404.328125 156.0
1405.417236 116.0
1406.611328 64.0
1407.268311 128.0
1410.25647 196.0
1410.749878 132.0
1411.228271 108.0
1412.537109 92.0
1415.897705 188.0
1416.3396 104.0
1419.179932 208.0
1420.71582 180.0
1421.531494 224.0
1421.640381 108.0
1421.895508 132.0
1422.458374 180.0
1422.826294 140.0
1423.194214 68.0
1425.297363 80.0
1425.425049 148.0
1426.477295 128.0
1427.356934 200.0
1430.381348 164.0
1430.923462 148.0
1433.393921 48.0
1433.989258 84.0
1435.006958 140.0
1437.481079 180.0
1437.843262 100.0
1443.115967 140.0
1444.288086 144.0
1444.530151 112.0
1446.035889 200.0
1446.384155 44.0
1448.019531 104.0
1451.164429 148.0
1452.574951 220.0
1452.832886 184.0
1456.393066 152.0
1457.137573 112.0
1457.190674 184.0
1459.432861 196.0
1460.136475 196.0
1460.520386 32.0
1461.75293 224.0
1462.234619 148.0
1462.92041 184.0
1463.732056 92.0
1464.516479 144.0
1465.533325 184.0
1465.887817 68.0
1469.77771 164.0
1473.495117 112.0
1474.152222 164.0
1474.396729 92.0
1475.742065 108.0
1476.193237 52.0
1476.950439 104.0
1477.577759 132.0
1478.220459 172.0
1478.970459 208.0
1479.046997 116.0
1481.788574 132.0
1483.765869 72.0
1484.233643 128.0
1484.908447 32.0
1485.483765 128.0
1487.263916 168.0
1488.031616 284.0
1488.446289 124.0
1489.014526 124.0
1489.709473 180.0
1490.151367 172.0
1490.743042 128.0
1490.9198 164.0
1492.549438 108.0
1492.849365 188.0
1493.380005 164.0
1494.595581 48.0
1494.918701 112.0
1495.418945 56.0
1496.327393 80.0
1497.805908 144.0
1498.19104 84.0
1499.065063 128.0
1499.192749 96.0
