>compound Mesoridazine
>formula C21H26N2OS2
>ionization [M+H]+
>parentmass 387.1559319040905
#inchi InChI=1S/C21H26N2OS2/c1-22-13-6-5-7-16(22)12-14-23-18-8-3-4-9-20(18)25-21-11-10-17(26(2)24)15-19(21)23/h3-4,8-11,15-16H,5-7,12-14H2,1-2H3
#inchikey SLVMESMUVMCQIY
#Ion_Source LC-ESI
#Instrument qTof
#Compound_Source Commercial
#PI Dorrestein
#Data_Collector Garg_Neha
#Scan -1
#Precursor_MZ 387.156
#ExactMass 386.149
#Charge 1
#CAS_Number N/A
#Pubmed_ID N/A
#Smiles CN1CCCCC1CCN2c3ccccc3Sc4ccc(cc24)S(=O)C
#INCHI_AUX N/A
#Library_Class 1
#SpectrumID CCMSLIB00000079183
#IonMode Positive
#UpdateWorkflowName UPDATE-SINGLE-ANNOTATED-GOLD
#LibraryQualityString Gold
#TaskID 278b19f5865741e282cec7349aa7e7a1
##Scan# 1101
#SpectrumFile NCP003592_E2_F11_BE2_01_15736.mzXML
#LibraryName NIHcollectionI_05062014.mgf
#MQScore -1
#Organism NIHcollectionI_05062014
#TIC_Query 0
#RT_Query -1
#MZErrorPPM -1
#SharedPeaks 0
#MassDiff 0
#LibMZ -1
#SpecMZ 387.156
#SpecCharge 0
#internalFilename spec-00000.mgf

>collision 10
45.083599 152.0
46.352615 156.0
46.908493 192.0
47.171951 188.0
47.859295 148.0
47.892345 236.0
49.011734 224.0
49.153961 160.0
49.387272 140.0
49.616928 192.0
50.159557 180.0
51.892582 180.0
54.005505 208.0
54.150402 160.0
54.593616 224.0
54.728996 200.0
56.983929 208.0
57.132767 180.0
57.146305 156.0
57.550243 220.0
60.430012 148.0
60.958759 188.0
61.424274 164.0
61.802345 172.0
64.502083 252.0
65.122177 164.0
66.445869 172.0
68.106071 196.0
69.828339 168.0
70.987343 224.0
71.190392 188.0
71.223984 148.0
71.287827 144.0
71.887321 144.0
72.408012 184.0
72.523224 176.0
73.432854 160.0
73.468674 204.0
74.533615 164.0
74.636749 140.0
74.844948 144.0
74.925896 184.0
76.178307 160.0
76.206192 204.0
76.503586 140.0
76.766678 156.0
76.988304 148.0
77.60424 148.0
78.064293 220.0
78.166321 176.0
78.382904 184.0
78.65274 176.0
79.598137 164.0
79.862938 236.0
81.130768 212.0
81.188148 152.0
81.311935 184.0
81.353218 156.0
81.818832 176.0
82.11615 168.0
83.247246 192.0
83.592636 176.0
83.878571 152.0
84.01899 172.0
86.178108 176.0
86.383316 228.0
87.171402 124.0
87.819153 156.0
88.634239 224.0
88.718582 140.0
89.281868 152.0
89.962059 184.0
91.020416 176.0
91.174286 180.0
92.161369 164.0
92.605186 160.0
94.00985 164.0
94.064362 100.0
95.007011 164.0
95.086502 124.0
95.988403 124.0
96.081108 180.0
96.14138 152.0
96.320999 180.0
96.725769 184.0
97.088234 164.0
97.111763 196.0
97.914413 168.0
98.073227 160.0
98.097115 27596.0
98.328712 124.0
98.382927 156.0
98.452034 160.0
98.470543 172.0
98.665428 160.0
98.995857 156.0
99.099838 2120.0
99.135925 192.0
99.658371 156.0
99.724258 156.0
99.81237 140.0
99.976532 168.0
100.099953 144.0
100.118591 244.0
100.366959 260.0
100.664276 164.0
102.028755 144.0
102.782021 148.0
104.136353 160.0
107.725128 140.0
107.785042 176.0
109.650658 208.0
110.09523 276.0
111.106003 196.0
112.115601 296.0
113.307007 252.0
114.984726 212.0
116.012688 184.0
117.070686 204.0
117.158997 156.0
117.683075 184.0
117.994186 216.0
118.292725 196.0
121.586182 148.0
123.370316 164.0
124.110115 280.0
124.364899 164.0
124.835884 192.0
125.082848 172.0
125.118805 620.0
125.236481 148.0
125.312225 156.0
126.128242 33896.0
126.259315 152.0
126.644676 148.0
126.912537 220.0
127.131432 1892.0
127.897514 152.0
127.988739 132.0
128.13266 224.0
128.157059 144.0
128.281693 148.0
128.886536 148.0
132.295837 184.0
132.495071 180.0
133.015625 144.0
133.762695 156.0
134.052887 172.0
135.017853 204.0
135.098816 188.0
135.126892 144.0
135.774033 132.0
136.139496 148.0
137.076981 200.0
138.038712 164.0
138.059753 252.0
139.18689 188.0
140.679565 156.0
142.007004 168.0
142.988235 144.0
143.08107 152.0
144.886536 144.0
147.014481 192.0
147.425018 196.0
147.490265 192.0
149.637177 200.0
150.358688 144.0
153.190689 200.0
154.377869 200.0
155.088409 164.0
156.235626 160.0
156.27887 148.0
156.514374 176.0
156.551727 168.0
156.962891 172.0
157.454498 156.0
157.556915 152.0
158.232162 196.0
158.342331 196.0
161.09407 156.0
163.487564 212.0
164.767548 156.0
164.925995 252.0
165.711609 168.0
167.066513 180.0
167.597504 140.0
167.783081 164.0
168.5858 164.0
169.183289 140.0
169.403397 152.0
170.16066 140.0
170.36322 144.0
170.464554 256.0
170.875381 140.0
171.27887 140.0
171.703705 200.0
175.395386 176.0
179.071884 304.0
179.192932 144.0
179.616791 144.0
180.077454 148.0
180.265564 176.0
180.708725 184.0
181.025269 156.0
181.303864 160.0
184.03418 156.0
184.547531 144.0
184.680038 216.0
185.115753 144.0
186.086472 164.0
187.187668 264.0
189.022018 144.0
190.10849 108.0
190.277344 192.0
190.337753 160.0
191.338562 148.0
192.111664 120.0
192.703751 148.0
193.635956 184.0
193.729309 148.0
194.011322 180.0
194.223557 228.0
194.653717 152.0
195.411453 124.0
195.534958 160.0
196.10878 152.0
196.566055 180.0
197.028473 136.0
197.815048 180.0
197.837753 164.0
198.036301 184.0
198.939453 200.0
199.625015 196.0
199.824707 140.0
200.04422 192.0
200.48642 204.0
200.909363 140.0
201.551468 196.0
202.486603 184.0
203.153809 216.0
204.106979 164.0
204.166702 156.0
205.04924 140.0
205.130676 152.0
205.805191 152.0
206.388077 180.0
206.908783 152.0
207.232422 180.0
207.360672 148.0
207.590714 184.0
209.009735 144.0
209.608658 140.0
209.677811 164.0
210.032516 176.0
210.970932 140.0
211.046158 700.0
212.046341 404.0
213.056641 372.0
213.101059 156.0
213.302292 208.0
214.661209 152.0
216.112915 144.0
216.373398 192.0
216.613525 168.0
217.059006 264.0
217.528427 468.0
219.478973 172.0
220.098602 144.0
220.639297 152.0
221.112564 148.0
222.891846 152.0
223.043503 132.0
223.093933 176.0
223.367523 188.0
223.924103 144.0
224.0522 112.0
224.431946 128.0
225.061447 292.0
225.093109 228.0
225.556198 184.0
225.63092 144.0
226.066238 396.0
226.166382 192.0
227.042038 384.0
227.068222 140.0
227.524307 200.0
227.596375 200.0
228.050125 524.0
228.59433 176.0
229.073135 204.0
229.944427 140.0
230.022903 156.0
232.092224 144.0
232.122559 164.0
232.158936 212.0
232.598862 232.0
232.683868 152.0
232.726379 160.0
233.017944 164.0
234.173264 140.0
235.115936 140.0
235.393723 172.0
236.057266 164.0
236.330505 144.0
237.03447 180.0
237.361282 192.0
237.6987 180.0
238.069046 168.0
238.125427 172.0
239.070145 116.0
239.592667 212.0
239.91626 164.0
240.378891 156.0
241.719986 284.0
241.79776 132.0
242.013702 200.0
243.015533 444.0
243.035889 240.0
243.316208 168.0
243.494781 244.0
244.025085 1664.0
244.721497 228.0
245.032379 956.0
245.113953 160.0
246.004745 716.0
246.031937 432.0
246.649429 168.0
246.747009 112.0
247.01123 440.0
247.07016 132.0
247.121643 164.0
248.012314 368.0
248.120132 212.0
248.625717 160.0
249.835419 140.0
250.064529 172.0
250.12384 176.0
250.49852 136.0
250.928116 116.0
250.953445 200.0
251.631775 152.0
252.040588 176.0
252.089783 244.0
252.738007 216.0
252.798126 160.0
253.097168 164.0
253.358551 156.0
253.995712 200.0
254.195587 184.0
255.018936 168.0
255.115204 168.0
255.431458 184.0
256.026886 244.0
257.212677 172.0
258.040833 1480.0
258.117859 148.0
258.455872 188.0
259.011414 9476.0
259.126068 160.0
259.163483 168.0
259.456299 136.0
259.817535 140.0
260.017365 2120.0
260.193024 188.0
260.508636 200.0
261.016449 700.0
261.47876 160.0
261.63736 132.0
261.775452 148.0
261.839355 168.0
261.901917 160.0
262.029877 216.0
262.074493 168.0
262.312988 156.0
263.025543 128.0
264.084656 100.0
264.503052 180.0
264.54837 164.0
265.079529 176.0
265.925964 144.0
266.00061 156.0
266.960541 132.0
268.02655 264.0
269.038727 232.0
269.063934 140.0
269.246765 180.0
270.024689 272.0
270.702026 148.0
270.96405 164.0
271.021179 156.0
271.86203 180.0
272.062683 192.0
272.338531 188.0
272.56192 188.0
273.015533 164.0
273.315643 156.0
274.035797 6808.0
274.125885 204.0
274.555359 136.0
274.614075 128.0
274.757965 176.0
274.932861 164.0
275.040466 1468.0
275.150696 140.0
276.033051 1156.0
277.10199 144.0
277.21463 252.0
278.029541 208.0
279.040222 160.0
279.095856 104.0
280.131775 156.0
280.235046 224.0
280.985199 140.0
281.031921 164.0
281.27887 180.0
281.829987 136.0
282.044037 112.0
283.054962 224.0
284.058807 300.0
284.10318 148.0
284.232422 164.0
284.324615 160.0
284.734192 148.0
285.023102 196.0
285.070709 144.0
285.8974 264.0
286.025299 140.0
286.173431 156.0
288.004547 160.0
288.061981 148.0
288.241058 208.0
289.037689 188.0
289.699921 144.0
290.071991 140.0
290.099335 128.0
290.441589 140.0
290.945465 148.0
291.104065 104.0
291.548401 176.0
291.933716 140.0
292.128235 120.0
293.229614 160.0
294.036652 236.0
295.029968 172.0
295.541473 176.0
295.623596 268.0
296.613403 156.0
297.071411 176.0
298.945404 140.0
299.057556 196.0
299.131256 156.0
299.792542 156.0
300.213501 172.0
300.309692 192.0
300.582214 264.0
300.857208 148.0
301.50769 188.0
302.174011 148.0
302.396515 208.0
302.628967 132.0
303.90741 176.0
304.219757 188.0
305.359436 152.0
305.916168 148.0
306.083282 216.0
306.198212 180.0
306.27832 148.0
307.135773 148.0
308.68988 184.0
309.119202 320.0
309.207642 144.0
309.630951 140.0
310.475861 192.0
311.188171 208.0
311.51828 192.0
311.574493 244.0
313.101074 160.0
313.167999 180.0
313.668335 196.0
313.724731 184.0
315.362579 192.0
315.694885 148.0
316.122925 172.0
316.61853 300.0
316.994049 180.0
317.149994 152.0
317.706696 180.0
318.15741 140.0
319.522095 152.0
320.1521 164.0
320.647247 140.0
320.772064 148.0
320.985962 168.0
321.14032 488.0
322.149536 232.0
323.07724 128.0
323.157104 276.0
323.612183 144.0
324.016876 140.0
324.164856 452.0
324.734283 152.0
324.931091 176.0
325.021759 148.0
325.169952 144.0
325.695709 336.0
325.789093 168.0
325.817841 160.0
326.111938 128.0
326.418091 224.0
326.742279 148.0
327.108032 140.0
327.656219 144.0
328.124725 156.0
328.305023 184.0
328.911163 160.0
329.098877 152.0
329.575653 156.0
329.723816 160.0
330.088928 300.0
330.971802 144.0
331.623901 164.0
332.715729 148.0
332.96991 164.0
333.728638 100.0
334.198578 152.0
335.108795 176.0
335.905304 132.0
336.144196 208.0
336.476471 180.0
337.054901 196.0
337.101044 152.0
337.34021 180.0
338.100494 188.0
338.813416 196.0
338.934296 264.0
339.110443 192.0
339.194946 136.0
340.118866 144.0
340.203979 228.0
340.467651 156.0
341.090027 160.0
341.125916 200.0
341.430511 172.0
341.728455 176.0
341.857239 148.0
342.438904 160.0
344.121643 160.0
345.180878 180.0
347.636841 164.0
347.8172 100.0
348.163971 200.0
348.70639 172.0
349.20459 156.0
350.598602 108.0
351.409851 152.0
353.341431 216.0
353.659485 144.0
354.120697 264.0
354.51712 148.0
354.828247 216.0
355.126007 284.0
355.279541 176.0
356.130066 672.0
356.186707 184.0
356.896973 176.0
357.102814 152.0
357.142487 332.0
357.416046 192.0
358.114166 104.0
358.866028 116.0
359.126373 140.0
359.507416 236.0
360.171875 148.0
364.046326 140.0
365.922333 124.0
368.292786 140.0
368.732178 164.0
368.969177 188.0
369.076233 204.0
369.14798 404.0
369.319611 176.0
369.745667 160.0
370.15274 1280.0
370.243347 152.0
370.568939 204.0
371.060181 136.0
371.155396 316.0
371.362427 168.0
371.522705 204.0
371.712036 140.0
372.00885 156.0
372.053375 132.0
372.132874 15404.0
372.314087 112.0
372.54303 212.0
373.031708 120.0
373.134552 3244.0
373.551849 176.0
373.633423 236.0
374.017456 164.0
374.130066 1912.0
374.39859 144.0
374.523987 136.0
374.722168 148.0
375.139648 116.0
375.492004 140.0
375.844147 156.0
376.604645 144.0
378.766846 224.0
379.697052 172.0
380.97406 152.0
381.005127 248.0
381.12558 196.0
381.238251 144.0
381.941956 172.0
382.350494 144.0
382.502289 212.0
382.758057 272.0
383.137909 180.0
383.193085 176.0
383.631958 152.0
383.687164 144.0
383.783722 168.0
384.164032 776.0
384.47522 124.0
384.545502 116.0
384.702484 288.0
384.932922 116.0
384.959137 148.0
385.171936 512.0
385.306671 112.0
385.353149 216.0
385.384277 180.0
385.730255 336.0
385.754547 188.0
385.832153 100.0
385.91333 256.0
385.957458 228.0
386.009064 288.0
386.077148 204.0
386.156158 412.0
386.191528 248.0
386.292847 208.0
386.379761 140.0
386.445557 540.0
386.523041 236.0
386.590485 212.0
386.644165 208.0
386.685974 256.0
386.732971 108.0
386.770233 156.0
386.811127 112.0
386.885803 164.0
386.93811 324.0
386.975494 268.0
387.001007 336.0
387.074707 1068.0
387.104065 684.0
387.158386 222392.0
387.295715 224.0
387.421875 136.0
387.464264 344.0
387.519989 584.0
387.576691 144.0
387.620697 328.0
387.649017 344.0
387.743042 220.0
387.749939 280.0
387.804016 8092.0
387.847321 688.0
387.9552 104.0
387.966187 112.0
388.059326 136.0
388.160858 110540.0
388.256989 372.0
388.299591 240.0
388.358063 156.0
388.433319 288.0
388.476135 240.0
388.514099 416.0
388.552948 172.0
388.606964 120.0
388.654266 224.0
388.701508 168.0
388.748291 300.0
388.805115 808.0
388.850128 196.0
388.907318 140.0
388.93396 304.0
389.003448 256.0
389.073639 228.0
389.104492 380.0
389.155121 48852.0
389.222931 180.0
389.262878 116.0
389.294373 180.0
389.360565 120.0
389.429047 172.0
389.486938 168.0
389.590607 152.0
389.622375 136.0
389.651215 168.0
389.688019 132.0
389.730499 212.0
389.886993 384.0
389.984802 240.0
390.013885 208.0
390.058899 232.0
390.155457 7160.0
390.272125 244.0
390.338104 112.0
390.370056 452.0
390.439911 320.0
390.552856 308.0
390.595886 284.0
390.661407 344.0
390.693939 548.0
390.790924 192.0
390.985992 224.0
391.069397 128.0
391.154755 420.0
391.285095 132.0
391.60675 192.0
391.67923 164.0
391.722656 124.0
391.768738 116.0
391.915009 96.0
392.000519 100.0
392.186646 156.0
392.214172 136.0
392.326935 100.0
392.648254 96.0
393.649231 168.0
394.07373 96.0
394.64502 128.0
396.307739 108.0
396.485168 156.0
404.24884 108.0
406.695465 156.0
434.828552 152.0
438.742676 160.0
442.075745 140.0
502.428345 144.0
553.092957 144.0
554.502747 148.0
658.814026 104.0
682.453979 100.0
739.474609 160.0
812.292419 112.0
1026.990112 140.0
1038.644043 188.0
1140.148926 220.0
1144.555054 152.0
1164.273804 180.0
1164.853394 124.0
1193.885742 152.0
1254.965454 212.0
1259.489014 168.0
1287.57959 148.0
1294.938843 156.0
1300.337524 164.0
1316.998779 96.0
1328.195557 240.0
1343.617432 196.0
1399.63501 164.0
1403.494751 156.0
1408.143799 192.0
1417.922119 200.0
1419.818848 164.0
1430.623657 172.0
1439.173096 200.0
1452.158813 152.0
1458.924316 148.0
1459.076416 180.0
1475.375732 168.0
1502.593384 144.0
1509.483032 148.0
1514.939453 216.0
1515.458496 160.0
1525.469849 168.0
1526.488403 148.0
1536.723267 200.0
1557.963379 140.0
1558.411133 176.0
1560.265991 148.0
1567.357422 156.0
1587.030884 164.0
1598.484741 220.0
1602.155273 204.0
1625.622192 156.0
1633.753296 176.0
1638.833374 200.0
1641.38855 264.0
1647.85376 148.0
1653.708374 168.0
1665.018311 140.0
1666.423584 160.0
1669.479858 164.0
1672.79126 172.0
1679.146729 156.0
1682.002441 188.0
1683.006592 172.0
1695.661499 144.0
1699.515747 168.0
1725.104248 240.0
1739.526245 152.0
1740.547485 168.0
1744.70166 236.0
1752.766602 168.0
1761.96106 164.0
1770.509521 156.0
1771.062378 144.0
1791.819702 180.0
1792.872925 184.0
1794.196289 176.0
1802.129639 168.0
1812.29126 180.0
1813.545532 156.0
1814.384644 184.0
1818.744873 208.0
1822.005737 172.0
1824.529785 144.0
1825.218384 236.0
1827.030029 196.0
1833.194458 180.0
1839.522949 280.0
1841.813843 112.0
1848.394165 152.0
1853.591919 144.0
1854.321289 180.0
1854.406006 164.0
1856.575073 148.0
1865.1521 216.0
1865.238037 160.0
1865.779663 164.0
1891.339355 156.0
1891.945312 244.0
1896.397705 196.0
1903.164185 156.0
1919.226074 172.0
1924.714478 164.0
1945.411499 148.0
1959.38562 152.0
1961.262573 204.0
1964.392944 140.0
1977.018677 148.0
1986.960327 208.0
1988.042847 168.0
1991.585205 172.0
1993.308716 212.0
1993.647339 172.0
1995.379639 180.0
1995.673096 160.0
1997.095947 196.0
1998.999756 216.0
2001.750366 228.0
2002.409424 192.0
