>compound NCGC00160293-01!6-Methyl-5,7a,13,13b-tetraaza-pentaphene-8,14-dione
>formula C19H12N4O2
>ionization [M+H]+
>parentmass 329.102722
#inchi InChI=1S/C19H12N4O2/c1-11-10-22-17(24)12-6-2-5-9-15(12)21-19(22)23-16(11)20-14-8-4-3-7-13(14)18(23)25/h2-10H,1H3
#inchikey FNNLUWYUFVEPNA
#Ion_Source LC-ESI
#Instrument qTOF
#Compound_Source Prestwick Phytochem Lib
#PI Dorrestein
#Data_Collector VVP/LMS
#Scan -1
#Precursor_MZ 329.104
#ExactMass 328.096
#Charge 1
#CAS_Number N/A
#Pubmed_ID N/A
#Smiles CC1=CN2C(=O)C3=C(C=CC=C3)N=C2N4C(=O)C5=C(C=CC=C5)N=C14
#INCHI_AUX N/A
#Library_Class 1
#SpectrumID CCMSLIB00000078713
#IonMode Positive
#UpdateWorkflowName UPDATE-SINGLE-ANNOTATED-GOLD
#LibraryQualityString Gold
#TaskID 67c915c6594c435cadc1fe2b5358144d
##Scan# 2279
#SpectrumFile p1-F02_GF2_01_17934.mzXML
#LibraryName phytochem_lib.mgf
#MQScore -1
#Organism phytochem_lib
#TIC_Query 0
#RT_Query -1
#MZErrorPPM -1
#SharedPeaks 0
#MassDiff 0
#LibMZ -1
#SpecMZ 329.104
#SpecCharge 0
#internalFilename spec-00000.mgf

>collision 10
95.714149 176.0
96.080566 84.0
96.164474 128.0
96.611946 212.0
96.629547 140.0
97.284111 148.0
97.52179 184.0
97.637787 180.0
98.110352 184.0
98.351006 180.0
98.520828 132.0
98.53466 180.0
98.995522 140.0
99.272957 120.0
99.306671 128.0
99.683868 180.0
99.826996 64.0
99.938385 128.0
100.225105 176.0
100.264954 220.0
100.62999 48.0
101.087723 96.0
101.698975 68.0
101.747147 116.0
101.765221 220.0
102.033249 284.0
102.334213 180.0
103.03405 184.0
103.124977 128.0
104.047447 236.0
104.150215 120.0
104.426636 184.0
104.634193 148.0
104.772682 168.0
105.000977 172.0
105.056046 100.0
105.3255 204.0
106.027275 188.0
106.047768 172.0
106.248726 152.0
106.414963 164.0
106.906227 160.0
107.002968 196.0
107.044151 156.0
107.079155 128.0
107.165672 204.0
107.656601 240.0
107.702042 108.0
107.921097 108.0
108.030708 132.0
108.127953 128.0
108.434471 140.0
108.467636 96.0
108.519463 36.0
108.807846 180.0
109.036339 176.0
109.425316 168.0
110.219986 52.0
110.309853 196.0
110.724136 228.0
110.841446 60.0
110.86869 60.0
111.729576 112.0
112.386917 164.0
112.477905 156.0
112.507217 144.0
112.604347 160.0
113.213425 144.0
113.67131 136.0
114.127991 200.0
114.151382 164.0
114.308792 100.0
114.500389 188.0
114.698532 192.0
115.037704 180.0
115.561295 56.0
115.668297 180.0
115.777489 180.0
116.047485 148.0
116.242676 104.0
116.354286 216.0
116.427292 68.0
116.880867 156.0
116.930359 152.0
117.047958 444.0
117.35688 176.0
117.857628 224.0
118.026222 176.0
118.053314 144.0
118.565239 224.0
118.970848 260.0
119.035805 676.0
119.062439 332.0
119.10331 180.0
119.240189 308.0
119.59906 108.0
119.93013 172.0
120.044807 732.0
120.324966 84.0
121.028038 344.0
121.145058 44.0
121.265572 160.0
121.392723 152.0
121.636253 168.0
121.653816 196.0
122.42556 188.0
122.526878 112.0
123.23951 188.0
123.316856 208.0
123.792503 236.0
123.887741 112.0
124.237999 120.0
124.464386 152.0
124.655418 112.0
124.86216 68.0
125.076866 140.0
125.180389 140.0
125.494568 160.0
125.543625 180.0
125.782356 112.0
125.943123 168.0
127.414864 224.0
127.731827 128.0
127.783569 152.0
127.853325 164.0
127.979385 132.0
128.047913 236.0
128.375961 212.0
128.838669 152.0
128.97966 184.0
129.04422 2536.0
129.322571 140.0
129.496918 76.0
129.52182 164.0
129.587524 112.0
129.639633 152.0
129.768845 172.0
130.029877 852.0
130.064346 352.0
130.138672 40.0
130.456726 128.0
131.029755 328.0
131.033722 156.0
131.044998 124.0
131.05275 148.0
131.242188 120.0
131.299194 64.0
131.326553 92.0
131.954529 76.0
132.043076 476.0
132.062759 176.0
132.098602 92.0
132.2565 156.0
132.625259 64.0
133.061111 136.0
133.322968 168.0
133.396515 60.0
133.453995 100.0
133.578186 176.0
133.718536 152.0
134.006378 160.0
134.040939 136.0
134.202286 188.0
134.227646 128.0
134.356812 156.0
134.465256 112.0
134.751602 56.0
134.862518 232.0
134.991974 40.0
135.045166 160.0
135.144638 192.0
135.359909 48.0
135.702835 104.0
135.73761 188.0
136.301666 80.0
136.459717 144.0
136.960052 80.0
137.048569 184.0
137.45787 124.0
137.897995 100.0
138.326035 216.0
138.452469 148.0
138.489822 156.0
138.665665 68.0
138.76178 132.0
138.996323 176.0
139.059692 148.0
139.303879 156.0
139.595322 120.0
139.917664 168.0
139.950623 176.0
140.051468 308.0
140.162613 116.0
140.252167 184.0
140.353546 108.0
140.379486 176.0
140.413406 52.0
140.490326 116.0
140.683838 184.0
140.705093 156.0
141.042892 168.0
141.10199 140.0
141.492355 176.0
141.575226 92.0
141.641541 84.0
142.027908 200.0
142.055466 296.0
142.059509 236.0
142.184494 60.0
142.322174 248.0
142.37204 176.0
142.41954 264.0
142.528824 52.0
142.664291 132.0
142.76178 152.0
143.016342 216.0
143.055847 324.0
143.064514 588.0
143.263992 168.0
143.447479 160.0
143.993881 64.0
144.040054 372.0
144.063156 264.0
144.098984 80.0
144.213684 124.0
144.251938 236.0
144.383438 188.0
144.421707 112.0
144.742386 120.0
144.759155 144.0
144.878906 188.0
145.038376 3508.0
145.071579 352.0
145.588882 44.0
145.86998 168.0
145.997421 108.0
146.022522 2620.0
146.069565 164.0
146.108704 140.0
146.124893 92.0
146.365585 168.0
147.024536 396.0
147.05275 416.0
147.352066 128.0
147.52124 200.0
147.70018 168.0
147.869537 36.0
148.071228 184.0
148.737259 180.0
149.507706 64.0
149.646454 184.0
150.583191 140.0
150.604538 168.0
151.213623 120.0
151.884964 132.0
151.988007 120.0
152.410324 56.0
152.437363 196.0
152.606964 32.0
152.656143 108.0
153.039993 120.0
153.175446 108.0
153.345459 116.0
154.011627 132.0
154.04213 184.0
154.463974 116.0
154.518387 124.0
154.723801 84.0
154.758469 108.0
154.840179 160.0
155.016068 156.0
155.060425 2828.0
155.302277 144.0
155.437622 108.0
155.459961 44.0
155.584061 228.0
155.944962 192.0
156.043747 1032.0
156.066681 788.0
156.479065 144.0
156.623489 216.0
156.756256 124.0
157.076752 1720.0
157.171951 36.0
157.219376 72.0
157.736374 148.0
157.923904 180.0
158.060104 468.0
158.161606 40.0
158.269257 76.0
158.391968 40.0
158.888321 92.0
159.051422 172.0
159.161896 120.0
159.342728 160.0
159.599091 172.0
159.762573 80.0
159.780182 176.0
159.850632 36.0
159.976471 140.0
160.062073 148.0
160.170364 96.0
160.384537 48.0
160.508072 180.0
160.598862 72.0
161.060547 308.0
162.060745 196.0
162.196884 160.0
162.245041 84.0
162.389572 40.0
162.633148 164.0
162.813416 100.0
163.00647 176.0
163.044586 136.0
163.204742 36.0
163.953125 124.0
164.167267 212.0
164.744095 128.0
164.98175 144.0
165.03801 132.0
165.403839 160.0
165.800827 144.0
165.831589 112.0
166.063782 348.0
166.275284 56.0
166.298386 40.0
166.359985 148.0
166.755554 136.0
166.806961 184.0
166.902084 168.0
167.059753 500.0
167.862534 188.0
168.053787 736.0
168.105026 100.0
169.040466 180.0
169.57135 140.0
169.707352 216.0
170.033051 216.0
170.071106 484.0
170.309555 172.0
170.552444 160.0
170.674637 44.0
170.947754 44.0
171.03978 312.0
171.072723 284.0
171.281006 200.0
171.671951 184.0
171.836273 140.0
172.045059 184.0
172.074509 200.0
172.16777 156.0
172.314056 124.0
172.334961 164.0
172.578033 164.0
172.751144 184.0
172.802963 140.0
172.868378 192.0
173.030655 224.0
173.067307 176.0
173.583496 132.0
173.714645 160.0
174.055817 120.0
174.386826 64.0
174.570862 208.0
175.637497 164.0
175.80899 148.0
176.099396 224.0
176.268478 156.0
176.326614 120.0
176.628021 184.0
176.874115 184.0
176.958817 204.0
177.820343 92.0
178.157562 76.0
178.394073 180.0
179.032639 116.0
179.05394 136.0
179.333694 172.0
179.925873 156.0
180.054825 276.0
180.142181 168.0
181.016769 144.0
181.060715 136.0
181.223007 128.0
181.496399 116.0
181.523224 136.0
181.788788 196.0
182.068741 1308.0
182.221085 84.0
182.280197 84.0
182.325882 152.0
182.355438 48.0
182.468338 68.0
182.731903 132.0
182.879913 72.0
182.96875 160.0
183.05484 1500.0
183.073059 996.0
183.189575 136.0
183.22998 68.0
183.413223 164.0
183.464447 132.0
183.612747 116.0
183.650497 116.0
184.017502 56.0
184.061951 996.0
184.201141 304.0
184.306503 48.0
184.649811 124.0
184.9366 104.0
185.040878 224.0
185.071014 988.0
185.277802 180.0
185.397018 36.0
185.486465 136.0
185.528061 116.0
185.56778 140.0
185.697952 60.0
185.931274 52.0
186.060089 296.0
186.368469 132.0
186.993912 192.0
187.047562 160.0
187.072845 168.0
187.091904 64.0
187.1763 156.0
187.437805 132.0
188.032288 216.0
188.441895 124.0
188.791763 52.0
188.871078 220.0
189.689819 180.0
189.958542 108.0
190.521301 132.0
190.74939 172.0
190.823608 208.0
191.060806 196.0
191.789856 172.0
191.858765 140.0
192.05455 164.0
192.076614 180.0
192.367706 148.0
192.44339 192.0
192.81105 60.0
193.18985 180.0
193.422302 112.0
193.494278 124.0
193.560715 96.0
193.63826 152.0
193.78508 188.0
194.059662 140.0
194.514435 112.0
195.067505 340.0
195.175644 196.0
195.278534 220.0
195.701508 88.0
195.782272 92.0
195.993973 192.0
196.066422 180.0
196.760971 92.0
197.026276 204.0
197.057175 136.0
197.076569 184.0
197.25264 144.0
197.442764 132.0
197.565826 160.0
198.067963 284.0
198.240601 192.0
198.35405 96.0
199.048859 412.0
199.287766 172.0
199.711716 196.0
200.046753 284.0
200.094421 112.0
200.114136 116.0
200.2155 160.0
200.480865 164.0
200.562042 180.0
201.055618 120.0
201.354874 132.0
201.46785 188.0
201.911621 152.0
202.002136 160.0
202.064377 152.0
202.169067 164.0
202.242645 192.0
202.262466 64.0
202.387024 164.0
202.576782 116.0
202.936691 176.0
202.995407 204.0
203.074234 128.0
203.299774 160.0
204.083771 204.0
204.439331 128.0
204.507629 156.0
205.071335 264.0
205.430862 152.0
205.670547 180.0
206.068298 156.0
206.533447 100.0
206.59581 200.0
206.65361 172.0
206.736893 188.0
206.818558 172.0
206.848206 112.0
206.957001 144.0
207.079514 204.0
207.10878 216.0
207.194717 204.0
207.828339 52.0
208.037842 180.0
208.060089 340.0
208.370972 128.0
208.554886 112.0
209.056976 188.0
209.08519 220.0
209.34317 144.0
209.599548 72.0
209.622604 88.0
209.853195 172.0
209.893555 144.0
209.936813 112.0
210.029099 144.0
210.067276 7284.0
210.13974 160.0
210.231064 60.0
210.467758 104.0
210.490067 88.0
210.511078 108.0
210.560165 32.0
211.072067 2856.0
211.115036 180.0
211.146851 36.0
211.167099 68.0
211.23941 48.0
211.294373 188.0
211.499832 88.0
211.546143 112.0
211.592453 60.0
212.024048 32.0
212.076279 480.0
212.163177 52.0
212.572144 180.0
212.598251 116.0
212.665009 32.0
213.443573 168.0
213.687897 32.0
213.760635 220.0
214.010956 192.0
214.060471 136.0
214.212341 136.0
214.360504 92.0
214.634506 84.0
214.844498 60.0
215.387451 160.0
215.527679 188.0
215.755646 132.0
216.05394 180.0
216.156342 68.0
216.457855 136.0
216.522278 76.0
216.589645 104.0
216.753693 164.0
216.923691 176.0
217.061844 264.0
217.087875 192.0
217.15239 140.0
217.803986 136.0
218.069778 616.0
218.281143 56.0
219.081467 128.0
219.446091 176.0
219.516846 152.0
220.062103 384.0
220.084106 300.0
220.366928 64.0
221.070618 1524.0
221.371826 120.0
221.603653 64.0
222.054352 304.0
222.137283 112.0
222.336075 108.0
222.879501 136.0
223.074432 116.0
223.105377 120.0
223.352188 132.0
223.891174 172.0
223.977264 120.0
224.030884 192.0
224.070343 180.0
224.355713 212.0
224.388504 112.0
224.618134 164.0
224.979202 172.0
225.06694 152.0
225.492966 172.0
225.97142 124.0
226.056976 624.0
226.462357 160.0
226.600143 100.0
226.869873 164.0
227.373779 192.0
227.436813 176.0
228.07962 196.0
228.190826 56.0
229.072937 276.0
229.181046 100.0
229.534393 264.0
229.907761 72.0
229.968124 160.0
230.074432 148.0
230.167358 176.0
230.227753 144.0
230.309311 124.0
230.493591 156.0
230.547989 40.0
231.078613 436.0
231.358597 200.0
231.570557 68.0
232.061462 204.0
232.088882 444.0
232.650024 104.0
233.071274 40.0
233.100998 184.0
233.512985 100.0
234.070511 208.0
234.505524 148.0
234.557343 200.0
234.801254 116.0
235.075699 1772.0
235.436035 100.0
235.597916 44.0
235.934082 64.0
236.001343 132.0
236.041092 120.0
236.071808 176.0
236.662231 52.0
236.879684 56.0
236.901123 172.0
236.922562 48.0
237.008347 160.0
237.081894 132.0
237.827164 132.0
238.057419 84.0
238.369797 208.0
239.071869 152.0
239.726212 188.0
240.100815 128.0
240.326004 60.0
241.011459 88.0
241.076706 176.0
241.691696 136.0
241.988831 148.0
242.010513 192.0
242.072433 120.0
242.094116 240.0
243.05928 344.0
243.077744 180.0
243.514511 136.0
243.641861 84.0
243.725754 120.0
243.781677 44.0
243.952621 128.0
244.075699 368.0
244.178986 200.0
244.445129 160.0
244.585358 244.0
244.689926 88.0
245.004471 96.0
245.099152 288.0
245.740234 136.0
245.818253 92.0
246.067551 452.0
246.101913 488.0
246.217834 128.0
246.308228 72.0
246.339645 128.0
246.545853 68.0
246.855347 160.0
247.073715 348.0
247.452972 152.0
247.496811 184.0
247.528122 168.0
247.550034 204.0
247.819412 184.0
248.013702 160.0
248.07988 696.0
248.164185 88.0
248.565674 36.0
248.967484 216.0
248.998886 184.0
249.086365 164.0
249.372757 240.0
250.068466 196.0
250.341736 64.0
250.767044 148.0
251.063385 176.0
251.104385 96.0
251.142242 172.0
252.766052 120.0
252.788208 136.0
252.933792 152.0
253.070465 380.0
253.259933 156.0
253.703552 136.0
254.069351 148.0
254.112671 176.0
255.001801 140.0
255.067184 344.0
255.771515 68.0
256.010284 128.0
256.080353 144.0
256.287415 148.0
256.807037 100.0
257.09314 584.0
257.391052 84.0
257.815918 100.0
258.090118 1396.0
258.413849 132.0
258.669891 104.0
258.970856 124.0
259.09259 504.0
259.393829 144.0
259.627869 60.0
260.084076 476.0
260.150879 160.0
261.049988 128.0
261.071075 128.0
261.195221 164.0
261.61676 124.0
261.957153 152.0
262.059784 272.0
262.212646 60.0
262.483459 80.0
262.647919 28.0
263.018982 104.0
263.068665 3468.0
263.157806 80.0
263.251434 152.0
263.319275 48.0
263.387085 148.0
263.487244 148.0
263.710205 56.0
264.076965 2012.0
264.211395 172.0
264.560913 68.0
264.836151 136.0
264.89447 72.0
265.082733 496.0
266.086121 268.0
266.373627 148.0
267.87973 132.0
267.905792 88.0
268.088257 80.0
268.417511 140.0
268.900299 124.0
269.080444 176.0
269.256165 72.0
269.638428 168.0
270.580475 112.0
270.662323 156.0
270.813843 148.0
271.096832 2336.0
271.661926 140.0
271.803009 92.0
271.858795 156.0
272.10437 2520.0
272.21991 104.0
272.295441 68.0
272.357819 40.0
272.995422 64.0
273.03653 40.0
273.111847 2372.0
273.436249 84.0
273.531708 72.0
273.673553 92.0
273.959808 68.0
274.032288 220.0
274.098419 1236.0
274.167358 44.0
274.277008 168.0
274.470642 64.0
274.770782 80.0
274.952271 184.0
275.075623 436.0
275.105377 228.0
275.170135 104.0
275.523499 40.0
276.074005 168.0
276.101959 140.0
276.614777 136.0
276.671051 172.0
277.082397 208.0
277.568939 160.0
277.681702 168.0
278.093109 160.0
278.269043 112.0
278.677551 120.0
279.066437 124.0
279.478851 180.0
279.841644 120.0
280.074768 176.0
280.155212 132.0
280.808014 132.0
281.545593 140.0
281.922333 200.0
282.14035 152.0
283.092529 148.0
283.154205 168.0
283.244629 288.0
284.077026 584.0
284.730469 124.0
285.076904 816.0
285.11145 480.0
285.674957 44.0
285.991272 120.0
286.084473 5336.0
286.183136 52.0
286.321198 48.0
286.348145 136.0
286.385193 44.0
286.626068 40.0
286.661469 100.0
286.856934 96.0
287.083374 1364.0
287.177277 32.0
287.275085 152.0
287.538269 228.0
287.624908 72.0
287.75769 44.0
288.079315 412.0
288.730835 84.0
288.839081 88.0
289.079285 304.0
289.119904 52.0
289.221436 104.0
289.245117 136.0
289.576935 52.0
290.081818 128.0
290.190277 204.0
291.200195 72.0
292.445923 76.0
292.537811 192.0
293.969299 168.0
294.355042 96.0
294.553131 96.0
294.816193 200.0
295.007599 88.0
296.075134 144.0
296.171021 44.0
296.22583 124.0
296.273804 32.0
297.240662 96.0
298.030396 228.0
298.391296 48.0
299.089966 288.0
299.227295 140.0
300.033478 96.0
300.098145 1424.0
300.34726 136.0
300.430054 140.0
300.685394 236.0
301.106659 6628.0
301.228333 136.0
301.258575 140.0
301.351837 132.0
301.382935 48.0
301.46933 92.0
301.555725 184.0
301.649048 196.0
301.704376 232.0
301.808075 132.0
301.947388 168.0
302.031982 296.0
302.09552 3128.0
302.195465 60.0
302.333893 96.0
302.358093 52.0
302.441162 128.0
302.832428 184.0
303.005615 52.0
303.09903 652.0
303.369507 28.0
303.841156 72.0
304.092102 160.0
304.39447 208.0
304.716034 100.0
304.830688 76.0
305.435638 56.0
305.668732 124.0
306.089905 172.0
307.254028 184.0
307.400574 108.0
307.795013 176.0
308.693054 120.0
308.923889 156.0
309.02536 136.0
309.088348 216.0
309.63443 116.0
311.092682 224.0
311.753387 56.0
311.862335 156.0
312.024017 32.0
312.072052 400.0
312.101959 148.0
312.238525 84.0
312.576233 68.0
313.072083 488.0
313.192322 116.0
313.50235 64.0
313.865448 148.0
313.978271 160.0
314.079956 1828.0
314.133484 76.0
314.179321 64.0
314.500427 64.0
314.535736 172.0
314.654877 64.0
314.941803 76.0
315.04071 200.0
315.083862 672.0
315.121948 64.0
315.397614 60.0
315.503662 136.0
315.75824 64.0
316.090363 196.0
316.306671 76.0
316.558014 128.0
317.082336 72.0
317.117767 72.0
318.22522 104.0
318.522858 72.0
320.974945 160.0
321.306671 168.0
321.467224 108.0
322.613739 124.0
322.735291 124.0
323.00708 148.0
323.970001 180.0
324.435883 124.0
325.350677 140.0
325.390167 188.0
325.720551 204.0
326.255981 176.0
326.299133 108.0
326.759491 152.0
326.860229 272.0
327.085327 212.0
327.126556 40.0
327.346161 148.0
327.374969 64.0
327.818085 164.0
327.890137 128.0
327.987457 164.0
328.05954 188.0
328.100891 200.0
328.128052 148.0
328.160492 72.0
328.221802 116.0
328.265076 136.0
328.334595 124.0
328.358826 176.0
328.398499 96.0
328.593292 164.0
328.641388 184.0
328.713257 260.0
328.809784 132.0
328.880676 148.0
328.944885 216.0
328.979431 128.0
329.024963 204.0
329.102722 46056.0
329.170319 88.0
329.215637 152.0
329.241211 128.0
329.298676 68.0
329.373505 84.0
329.40918 60.0
329.435944 160.0
329.494415 168.0
329.52536 336.0
329.566284 256.0
329.627014 108.0
329.692505 28.0
329.756989 152.0
329.787476 120.0
329.875488 84.0
329.980164 160.0
330.10556 8376.0
330.212952 64.0
330.247742 92.0
330.317474 72.0
330.343964 88.0
330.370148 100.0
330.525146 136.0
330.549561 104.0
330.595062 36.0
330.689148 72.0
330.714508 68.0
330.741638 112.0
330.812225 172.0
330.859283 48.0
330.900848 184.0
330.960663 48.0
331.033081 36.0
331.105042 800.0
331.210541 208.0
331.261261 92.0
331.344574 92.0
331.40213 212.0
331.468689 112.0
331.55838 56.0
331.598236 140.0
331.667297 76.0
331.729614 80.0
331.873749 32.0
331.91275 84.0
331.944427 128.0
332.085785 108.0
332.14209 108.0
332.16748 128.0
332.211029 92.0
332.269348 148.0
332.299896 104.0
332.345245 116.0
332.402588 20.0
332.434601 116.0
332.471436 104.0
332.515808 56.0
332.559357 76.0
332.719086 116.0
333.042267 124.0
333.078583 36.0
333.104004 68.0
333.422455 116.0
333.45282 112.0
333.612762 40.0
335.053864 124.0
335.236053 68.0
336.31192 44.0
340.695099 128.0
343.46698 92.0
343.795349 60.0
343.983582 84.0
344.194031 76.0
345.335938 112.0
347.217377 72.0
347.82959 84.0
349.673126 100.0
349.829468 48.0
350.43277 68.0
368.651703 116.0
398.846558 128.0
409.103119 72.0
411.788574 140.0
420.574921 84.0
430.494019 80.0
437.642761 92.0
439.948273 100.0
441.565338 76.0
444.833557 88.0
447.086365 96.0
449.201447 80.0
490.261475 96.0
497.217987 56.0
504.286072 52.0
506.735138 68.0
516.810303 76.0
519.202026 92.0
522.258606 44.0
527.378967 104.0
527.48407 60.0
536.430786 56.0
548.303467 20.0
554.427979 72.0
574.547852 52.0
597.310364 72.0
614.126038 104.0
620.247314 60.0
629.720886 116.0
636.029602 96.0
636.30072 132.0
642.329468 132.0
648.76178 64.0
650.872375 68.0
651.547852 64.0
660.192505 92.0
669.146423 56.0
669.548035 96.0
688.978882 88.0
691.902283 96.0
698.790344 44.0
715.283508 64.0
729.89978 96.0
735.34613 64.0
790.273987 112.0
790.464233 124.0
799.065735 80.0
835.018188 112.0
845.009094 184.0
872.343628 72.0
883.631165 108.0
888.744324 68.0
895.819092 44.0
905.782837 44.0
931.601501 88.0
935.913513 104.0
936.991516 176.0
943.796753 76.0
970.178894 128.0
973.249939 64.0
983.890198 116.0
1003.962708 104.0
1013.628174 64.0
1021.112732 68.0
1023.295349 108.0
1033.02124 204.0
1048.585571 168.0
1050.094238 124.0
1053.282715 72.0
1070.964478 60.0
1072.234863 108.0
1074.438843 132.0
1078.088745 108.0
1079.167358 240.0
1083.231323 92.0
1094.988525 140.0
1099.260376 84.0
1149.598755 176.0
1159.580688 172.0
1161.112793 148.0
1244.602905 144.0
1245.944336 204.0
1278.014893 120.0
1279.004028 200.0
1291.669556 180.0
1295.929077 112.0
1300.418091 136.0
1304.879028 160.0
1320.830688 172.0
1341.795898 164.0
1356.878418 208.0
1366.050781 204.0
1368.258423 76.0
1384.754761 204.0
1397.746094 196.0
1398.20752 88.0
1427.578125 68.0
1433.306641 60.0
1438.518066 184.0
1439.310791 284.0
1439.484375 208.0
1441.032837 84.0
1442.990356 32.0
1447.893677 160.0
1448.423828 120.0
1458.158447 204.0
1468.177246 212.0
1472.328857 48.0
1479.715332 180.0
1484.941406 180.0
1486.260864 52.0
1487.634521 52.0
1488.056763 140.0
1492.912964 148.0
1497.353516 176.0
1501.407227 176.0
1504.030518 188.0
