>compound MLS001142433-01!
>formula C26H28N4O3
>ionization [M+H]+
>parentmass 445.223663
#inchi InChI=1S/C26H28N4O3/c1-32-19-7-4-6-18(16-19)24-25-21(20-8-2-3-9-22(20)28-25)17-23(29-24)26(31)27-10-5-11-30-12-14-33-15-13-30/h2-4,6-9,16-17,29H,5,10-15H2,1H3,(H,27,31)
#inchikey KSIIEFJRZNSMGQ
#Ion_Source LC-ESI
#Instrument qTof
#Compound_Source NIH Natural Product Library
#PI Dorrestein
#Data_Collector VVP/LMS
#Scan -1
#Precursor_MZ 445.224
#ExactMass 444.216
#Charge 1
#CAS_Number N/A
#Pubmed_ID N/A
#Smiles COc1cccc(c1)c2[nH]c(cc3c4ccccc4nc23)C(=O)NCCCN5CCOCC5
#INCHI_AUX N/A
#Library_Class 1
#SpectrumID CCMSLIB00000080118
#IonMode Positive
#UpdateWorkflowName UPDATE-SINGLE-ANNOTATED-GOLD
#LibraryQualityString Gold
#TaskID b1d8e8f6646f4e71acdff9ca3d919d08
##Scan# 1832
#SpectrumFile p2-D04_GD4_01_18016.mzXML
#LibraryName NIH_Natural_Products_Library.mgf
#MQScore -1
#Organism NIH_Natural_Products_Library
#TIC_Query 0
#RT_Query -1
#MZErrorPPM -1
#SharedPeaks 0
#MassDiff 0
#LibMZ -1
#SpecMZ 445.224
#SpecCharge 0
#internalFilename spec-00000.mgf

>collision 10
95.044762 152.0
95.075813 144.0
95.095215 172.0
95.262207 212.0
95.386566 92.0
95.536301 172.0
95.7183 204.0
95.787415 116.0
95.945259 184.0
96.20472 48.0
96.241814 168.0
96.280869 172.0
96.59359 124.0
97.01461 144.0
97.036171 116.0
97.265694 68.0
97.296196 208.0
97.375648 44.0
97.658669 52.0
97.672432 120.0
97.731453 96.0
97.798363 128.0
97.938156 40.0
98.061462 180.0
98.09185 156.0
98.176628 48.0
98.478584 148.0
98.535873 136.0
98.71376 188.0
98.881912 96.0
98.927437 144.0
99.258301 148.0
99.673157 188.0
99.86599 240.0
100.003273 188.0
100.025169 248.0
100.057022 156.0
100.076851 1120.0
100.161476 44.0
100.250229 80.0
100.369827 204.0
100.396652 80.0
100.457581 100.0
100.627625 176.0
100.862938 208.0
101.050293 244.0
101.080421 172.0
101.170998 40.0
101.329208 204.0
101.419388 100.0
101.505592 88.0
101.553719 180.0
101.71022 140.0
101.738327 176.0
101.939178 188.0
102.027611 156.0
102.411949 100.0
102.550972 140.0
102.78894 128.0
102.936295 172.0
103.031227 168.0
103.093857 196.0
103.420975 124.0
103.624001 156.0
103.741539 140.0
103.77726 176.0
104.055992 192.0
104.10675 128.0
104.291634 136.0
104.360748 148.0
104.427856 28.0
104.645592 168.0
104.68428 172.0
104.851326 104.0
104.987915 192.0
105.089905 128.0
105.240944 124.0
105.304245 112.0
105.741768 168.0
105.780663 152.0
105.864601 60.0
105.889175 68.0
105.917854 176.0
106.305336 176.0
106.514755 80.0
106.545563 208.0
106.761383 100.0
106.876579 156.0
106.952721 208.0
107.041245 184.0
107.086555 72.0
107.560783 96.0
107.686729 156.0
107.732178 168.0
108.185059 244.0
108.301018 100.0
108.388023 108.0
108.854744 136.0
108.962746 136.0
109.106148 192.0
109.384903 148.0
109.49942 136.0
109.561905 160.0
109.607742 184.0
109.639 148.0
109.703613 132.0
109.837067 176.0
110.070808 112.0
110.336899 180.0
110.41143 128.0
110.610199 132.0
110.675095 164.0
110.781906 144.0
110.798668 148.0
111.033424 136.0
111.207565 60.0
111.40284 156.0
111.64035 40.0
111.680305 136.0
111.886528 212.0
111.97496 200.0
112.109795 76.0
112.320625 52.0
112.407127 96.0
112.57811 180.0
112.856033 148.0
113.170174 72.0
113.250641 180.0
113.445587 176.0
113.570694 144.0
113.636452 212.0
114.27343 208.0
114.414307 60.0
114.750916 220.0
114.829811 140.0
114.955681 188.0
115.004768 144.0
115.085884 140.0
115.149948 204.0
115.284538 112.0
115.673798 136.0
115.697342 56.0
115.716614 100.0
115.744446 228.0
115.834801 232.0
115.891891 172.0
115.913666 212.0
116.001534 120.0
116.018684 168.0
116.41777 84.0
116.488647 120.0
116.724098 144.0
117.004761 56.0
117.196442 168.0
117.271866 132.0
117.485336 160.0
117.506912 176.0
117.530647 148.0
117.582268 104.0
117.921516 120.0
118.053391 136.0
118.334679 200.0
118.382317 188.0
118.416962 124.0
118.629311 152.0
118.744225 148.0
118.824486 48.0
118.952522 136.0
118.993767 204.0
119.108864 168.0
119.174034 64.0
119.606804 236.0
119.641632 156.0
119.672112 156.0
119.704773 112.0
119.889938 128.0
120.164879 172.0
120.293694 168.0
120.308426 152.0
120.422256 112.0
120.452835 92.0
120.468132 148.0
120.542412 136.0
120.667 120.0
120.774147 92.0
120.918556 108.0
121.003922 172.0
121.035698 164.0
121.218575 88.0
121.236107 56.0
121.47728 120.0
121.731873 100.0
121.925194 28.0
121.944969 188.0
122.123062 156.0
122.263863 64.0
122.334297 164.0
122.354111 116.0
122.454262 116.0
122.620636 192.0
122.891869 160.0
122.924965 108.0
123.037537 192.0
123.080055 184.0
123.104652 120.0
123.172241 216.0
123.247353 176.0
123.355644 160.0
123.375969 144.0
123.450714 168.0
123.545822 92.0
123.601128 168.0
123.694084 164.0
124.219246 188.0
124.594414 140.0
124.807777 116.0
124.861145 160.0
124.950119 160.0
124.985718 136.0
125.07251 88.0
125.406609 200.0
125.451187 248.0
125.491318 112.0
125.542603 100.0
125.558212 64.0
125.656357 180.0
125.809044 164.0
125.866165 180.0
126.094543 572.0
126.205795 180.0
126.225914 56.0
126.261696 140.0
126.337746 96.0
126.639931 180.0
126.829597 156.0
126.875214 96.0
126.987328 52.0
127.034431 180.0
127.092766 144.0
127.124176 144.0
127.200485 96.0
127.240891 176.0
127.364403 204.0
127.487968 172.0
127.519432 112.0
127.703796 164.0
128.075165 128.0
128.106842 1892.0
128.163025 52.0
128.257675 120.0
128.293747 212.0
128.332077 136.0
128.408737 124.0
128.42453 160.0
128.451599 164.0
128.467392 144.0
128.548615 144.0
128.582458 60.0
128.842133 156.0
128.900879 164.0
128.949524 204.0
129.02037 216.0
129.036484 192.0
129.054581 148.0
129.110001 224.0
129.332825 180.0
129.388474 192.0
129.4664 160.0
129.570602 136.0
129.809647 136.0
129.840332 184.0
129.876617 128.0
129.97644 172.0
130.001404 244.0
130.042252 168.0
130.105621 188.0
130.29657 92.0
130.703552 108.0
130.751343 76.0
130.835556 196.0
130.976532 132.0
131.114777 48.0
131.209183 176.0
131.251785 140.0
131.288986 132.0
131.567352 180.0
131.640411 92.0
131.768326 184.0
131.884872 136.0
132.022049 212.0
132.106674 148.0
132.182175 220.0
132.23938 56.0
132.301178 68.0
132.344681 192.0
132.37674 76.0
132.516464 220.0
132.653961 104.0
132.7686 60.0
132.825943 60.0
132.883301 168.0
133.030167 100.0
133.119705 56.0
133.234558 132.0
133.59317 96.0
133.632278 172.0
133.659897 132.0
133.682907 36.0
133.705917 44.0
133.927383 148.0
134.069778 164.0
134.201172 144.0
134.221924 120.0
134.242676 140.0
134.261124 168.0
134.288803 220.0
134.466461 152.0
134.632675 204.0
134.711044 176.0
134.773575 152.0
135.046371 116.0
135.076431 200.0
135.384262 252.0
135.657654 140.0
135.710983 176.0
135.903488 148.0
135.940613 120.0
136.082199 48.0
136.163483 44.0
136.22522 132.0
136.246323 60.0
136.316803 144.0
136.670242 180.0
136.83548 160.0
137.084717 184.0
137.254883 152.0
137.775345 200.0
137.864136 52.0
137.96698 64.0
138.027756 204.0
138.118973 216.0
138.228928 52.0
138.345947 108.0
138.376389 196.0
138.446625 296.0
138.847366 140.0
138.867477 112.0
138.959961 120.0
139.065567 140.0
139.206421 160.0
139.262787 164.0
139.352051 120.0
139.396698 152.0
139.53302 52.0
139.558884 192.0
139.584747 164.0
139.648239 208.0
139.676468 104.0
139.869415 72.0
139.944748 160.0
139.996552 132.0
140.036591 116.0
140.086044 84.0
140.234497 188.0
140.265213 132.0
140.324066 180.0
140.699188 96.0
140.748764 180.0
140.876297 104.0
140.980255 128.0
141.118546 80.0
141.188293 152.0
141.247421 48.0
141.360992 108.0
141.448547 100.0
141.481689 108.0
141.569305 204.0
141.742218 72.0
141.806213 136.0
141.848877 160.0
142.19754 168.0
142.328094 204.0
142.366089 136.0
142.406464 124.0
142.582275 204.0
142.625061 132.0
142.919952 160.0
143.157974 196.0
143.284225 184.0
143.334259 176.0
143.374771 92.0
143.575012 168.0
143.658493 108.0
143.726318 168.0
143.751541 148.0
143.792114 96.0
143.842239 64.0
143.8685 116.0
144.083435 32.0
144.136719 216.0
144.442001 180.0
144.568817 184.0
144.64061 220.0
144.674118 152.0
144.841751 172.0
145.249237 132.0
145.266022 188.0
145.395584 140.0
145.469986 204.0
145.525208 112.0
145.677185 200.0
145.775009 144.0
145.984146 196.0
146.142899 208.0
146.171783 148.0
146.215103 148.0
146.275269 172.0
146.328232 184.0
146.701645 116.0
146.740204 104.0
146.889725 136.0
147.350815 56.0
147.372559 116.0
147.539322 152.0
147.556244 140.0
147.650543 68.0
147.691666 128.0
147.732788 88.0
147.861023 200.0
148.551559 128.0
148.682587 56.0
148.791809 80.0
149.020111 32.0
149.071701 136.0
149.15863 124.0
149.433426 148.0
149.46019 168.0
149.556595 196.0
149.628128 164.0
149.720657 144.0
149.776672 132.0
149.971603 80.0
149.998413 92.0
150.064224 128.0
150.130066 208.0
150.156891 172.0
150.212997 128.0
150.449356 140.0
150.640167 96.0
150.657272 116.0
150.701248 136.0
150.828323 156.0
150.999481 160.0
151.102219 112.0
151.582108 100.0
151.903275 184.0
151.959702 152.0
151.98143 164.0
152.205154 156.0
152.325485 92.0
152.364792 156.0
152.399185 152.0
152.549103 192.0
152.605652 144.0
152.696625 124.0
152.795029 156.0
152.866379 120.0
152.895905 204.0
152.986984 400.0
153.021439 184.0
153.090393 228.0
153.312103 36.0
153.654831 212.0
153.926331 156.0
154.148651 100.0
154.165939 128.0
154.42305 180.0
154.482422 104.0
154.507156 56.0
154.608612 124.0
154.742279 108.0
154.767029 148.0
154.856186 140.0
155.012253 164.0
155.3172 124.0
155.369278 240.0
155.535538 96.0
155.980423 196.0
156.124374 168.0
156.141785 48.0
156.174118 128.0
156.512558 108.0
156.624619 156.0
156.679428 104.0
156.760254 176.0
156.831177 116.0
156.886276 196.0
156.966644 188.0
157.24295 148.0
157.277893 128.0
157.495132 60.0
157.59256 88.0
157.650024 56.0
157.752502 148.0
157.772491 212.0
157.922531 100.0
158.045822 112.0
158.082642 136.0
158.222809 128.0
158.320465 188.0
158.498306 160.0
158.814178 136.0
158.871872 140.0
159.041 168.0
159.060074 80.0
159.115311 136.0
159.152969 156.0
159.265976 92.0
159.323746 148.0
159.391586 116.0
159.494629 168.0
159.627869 176.0
159.778778 160.0
159.881943 152.0
160.040527 152.0
160.179047 136.0
160.21431 196.0
160.257141 228.0
160.322647 128.0
160.368011 68.0
160.541977 148.0
160.605026 120.0
160.632767 200.0
160.673126 200.0
160.733688 48.0
160.890167 132.0
161.011368 152.0
161.051773 168.0
161.071976 80.0
161.130081 160.0
161.185669 152.0
161.526978 172.0
161.57756 148.0
161.648407 116.0
161.896484 168.0
162.03833 204.0
162.114349 156.0
162.291779 60.0
162.415573 256.0
162.547974 288.0
162.654556 220.0
162.735794 52.0
162.850067 116.0
162.872925 120.0
162.892609 204.0
163.043152 44.0
163.23381 112.0
163.25415 88.0
163.373703 164.0
163.419495 156.0
163.548264 192.0
163.671478 116.0
163.778427 176.0
163.908356 180.0
164.000107 152.0
164.058731 116.0
164.262726 88.0
164.288239 148.0
164.329178 180.0
164.438782 112.0
164.463623 176.0
164.824402 164.0
164.880615 144.0
165.015961 120.0
165.133713 228.0
165.179764 164.0
165.205338 140.0
165.236038 48.0
165.276978 316.0
165.438217 136.0
165.57135 256.0
165.727615 128.0
165.773727 92.0
165.907013 48.0
165.968536 108.0
166.03009 104.0
166.343109 248.0
166.599899 112.0
166.674408 160.0
166.967453 116.0
167.106354 112.0
167.161728 188.0
167.206711 180.0
167.428116 180.0
167.559799 132.0
167.698624 128.0
167.757919 208.0
167.781113 132.0
167.860321 144.0
167.881668 40.0
168.379745 180.0
168.415909 160.0
168.464981 168.0
168.542496 148.0
168.803558 120.0
168.852066 148.0
168.90184 52.0
168.92511 116.0
168.950684 176.0
168.979446 168.0
169.000137 112.0
169.047836 172.0
169.274506 132.0
169.406601 112.0
169.463593 108.0
169.549103 84.0
169.603531 184.0
169.720184 176.0
169.953629 204.0
170.131439 156.0
170.26059 240.0
170.293701 180.0
170.317078 136.0
170.553513 80.0
170.798157 236.0
170.815842 176.0
170.86557 176.0
171.063354 52.0
171.086777 56.0
171.157074 108.0
171.383682 136.0
171.423492 260.0
171.456635 192.0
171.605225 148.0
172.215851 152.0
172.234131 232.0
172.325562 188.0
172.435318 124.0
172.649689 136.0
172.916534 168.0
172.99231 160.0
173.047974 208.0
173.222885 132.0
173.319824 148.0
173.725906 152.0
173.88887 164.0
173.915115 192.0
174.316925 204.0
174.490402 236.0
174.521957 128.0
174.587692 236.0
174.719208 172.0
174.811295 208.0
174.834976 108.0
174.906036 192.0
174.953674 168.0
175.008713 108.0
175.037674 144.0
175.095352 84.0
175.118179 176.0
175.164093 100.0
175.280014 160.0
175.414413 192.0
175.53833 128.0
175.598984 228.0
175.74057 260.0
175.878662 96.0
175.963135 152.0
176.695206 100.0
176.785172 216.0
176.851334 132.0
176.87294 148.0
176.94133 208.0
177.036652 156.0
177.068436 136.0
177.108154 36.0
177.481827 112.0
177.513641 168.0
177.61972 104.0
177.75769 108.0
177.784225 92.0
177.919586 124.0
178.078903 152.0
178.145309 152.0
178.325653 428.0
178.421692 44.0
178.477524 48.0
178.575912 32.0
178.807373 180.0
178.84996 104.0
178.936508 188.0
178.983078 96.0
179.073624 168.0
179.518677 176.0
179.686707 120.0
179.761414 200.0
179.937576 216.0
180.023026 136.0
180.161911 244.0
180.506683 140.0
180.70195 140.0
180.731369 180.0
180.792313 196.0
180.977615 40.0
181.020462 128.0
181.044556 92.0
181.62883 104.0
181.746872 224.0
181.846161 124.0
181.94548 152.0
181.977692 188.0
182.001862 116.0
182.55809 144.0
182.746368 156.0
182.810944 124.0
183.031677 104.0
183.088226 48.0
183.268707 80.0
183.352234 92.0
183.416931 100.0
183.473541 188.0
183.580368 160.0
183.710846 136.0
183.737823 148.0
183.83226 144.0
183.937515 88.0
184.091415 112.0
184.348038 68.0
184.756882 132.0
184.975494 108.0
185.040466 216.0
185.091919 40.0
185.155762 180.0
185.219193 216.0
185.265244 168.0
185.31131 200.0
185.366516 160.0
185.518265 88.0
185.826431 200.0
185.943115 100.0
186.241776 132.0
186.317841 188.0
186.494461 192.0
186.660294 180.0
186.826202 180.0
186.929596 136.0
187.05751 164.0
187.160965 88.0
187.290604 92.0
187.45787 140.0
187.485107 132.0
187.506149 248.0
187.577774 160.0
187.675919 132.0
187.697739 172.0
187.778305 228.0
187.970505 248.0
188.30629 152.0
188.360916 108.0
188.549438 172.0
188.650574 176.0
189.00885 160.0
189.030746 140.0
189.074524 308.0
189.151154 192.0
189.805939 136.0
189.827866 128.0
189.918365 160.0
190.003403 132.0
190.236664 176.0
190.266861 164.0
190.338257 192.0
190.522263 236.0
190.623932 120.0
190.673386 228.0
190.703629 48.0
190.978577 148.0
190.997818 232.0
191.066589 112.0
191.102356 188.0
191.162888 148.0
191.628235 136.0
191.766006 132.0
191.828064 156.0
191.854218 204.0
191.87352 160.0
192.076675 196.0
192.198959 92.0
192.226562 116.0
192.574402 144.0
192.698715 112.0
192.839645 168.0
192.903214 112.0
193.058044 44.0
193.08847 140.0
193.12442 232.0
193.179733 196.0
193.265503 160.0
193.295944 216.0
193.315308 172.0
193.398331 144.0
193.437088 172.0
193.475845 40.0
193.514603 168.0
193.849747 208.0
194.004959 152.0
194.126953 84.0
194.150253 200.0
194.260086 192.0
194.445984 48.0
194.487625 140.0
194.565338 132.0
194.662521 136.0
194.695847 124.0
194.743057 120.0
194.818054 136.0
194.901398 208.0
195.125061 140.0
195.382385 112.0
195.42691 192.0
195.475204 156.0
195.574402 160.0
195.66069 176.0
195.682968 112.0
195.908539 172.0
196.053177 136.0
196.108185 160.0
196.137039 196.0
196.192795 168.0
196.334991 128.0
196.374039 136.0
196.432602 168.0
196.463287 140.0
196.569321 136.0
196.725616 128.0
196.873581 208.0
196.909897 220.0
196.960175 88.0
197.06073 132.0
197.113831 124.0
197.206039 108.0
197.298294 120.0
197.326248 124.0
197.603119 168.0
197.726242 180.0
198.00621 224.0
198.059418 148.0
198.087433 252.0
198.196701 108.0
198.468582 144.0
198.519043 136.0
198.61441 136.0
198.692947 164.0
198.751328 104.0
198.833252 248.0
199.327484 152.0
199.737946 200.0
199.811096 132.0
199.968674 160.0
200.024963 176.0
200.396698 208.0
200.517868 144.0
200.90416 120.0
200.971863 232.0
201.064987 140.0
201.169418 116.0
201.272125 212.0
201.458511 256.0
201.497009 120.0
201.581772 184.0
201.825974 172.0
202.0681 180.0
202.145599 184.0
202.237885 112.0
202.3228 112.0
202.415405 68.0
202.594666 140.0
202.702332 156.0
202.920578 100.0
202.943253 132.0
202.963104 120.0
203.11908 136.0
203.164474 100.0
203.229721 132.0
203.300659 112.0
203.351746 88.0
203.692474 220.0
203.778732 188.0
203.806107 68.0
203.928299 72.0
204.081207 244.0
204.104553 120.0
204.25528 168.0
204.356857 136.0
204.511368 68.0
204.66127 128.0
204.793243 184.0
204.835968 120.0
204.912872 136.0
205.004059 176.0
205.0354 140.0
205.077835 144.0
205.197876 80.0
205.329056 152.0
205.357574 88.0
205.377533 96.0
205.682831 260.0
205.837112 100.0
206.011215 60.0
206.082642 124.0
206.139786 60.0
206.225525 156.0
206.334152 156.0
206.474258 56.0
206.514297 172.0
206.857666 124.0
207.057419 208.0
207.571045 124.0
207.80336 48.0
208.084625 188.0
208.114105 180.0
208.153534 124.0
208.205231 120.0
208.500458 220.0
208.693726 216.0
208.791489 108.0
208.852402 244.0
208.955444 144.0
208.989975 192.0
209.041763 52.0
209.128098 144.0
209.332504 132.0
209.358429 196.0
209.424667 252.0
209.528366 176.0
209.773315 116.0
209.911697 100.0
210.220352 104.0
210.667877 140.0
210.690994 156.0
210.800781 160.0
210.922165 120.0
211.01178 108.0
211.214203 216.0
211.260483 192.0
211.416733 188.0
211.573029 164.0
211.607773 124.0
211.659882 164.0
211.851028 164.0
211.908981 220.0
212.010391 144.0
212.050964 204.0
212.198807 180.0
212.314789 168.0
212.395996 156.0
212.468521 116.0
212.752914 88.0
212.944565 228.0
213.014267 184.0
213.089798 80.0
213.124664 192.0
213.208939 120.0
213.290314 48.0
213.793457 180.0
213.912796 208.0
213.959366 108.0
213.98558 52.0
214.035065 68.0
214.068893 212.0
214.104965 200.0
214.189362 180.0
214.329254 160.0
214.909485 204.0
214.944504 92.0
215.250992 164.0
215.404984 124.0
215.496338 184.0
215.657074 136.0
215.923126 156.0
216.067856 224.0
216.288849 192.0
216.408447 120.0
216.57872 112.0
216.684174 196.0
216.751572 56.0
216.81311 112.0
217.068146 188.0
217.093109 140.0
217.203049 92.0
217.285187 124.0
217.437775 164.0
217.64032 148.0
217.845901 132.0
218.09758 176.0
218.125061 200.0
218.14563 152.0
218.201492 48.0
218.304398 120.0
218.816376 168.0
219.066681 196.0
219.099091 124.0
219.122665 84.0
219.293579 208.0
219.314209 132.0
219.455704 192.0
219.482239 144.0
219.509399 172.0
219.638535 56.0
219.67099 124.0
219.727036 176.0
219.907043 164.0
219.980835 188.0
220.022156 100.0
220.113693 168.0
220.137314 180.0
220.19046 152.0
220.270218 100.0
220.3293 76.0
220.485901 100.0
220.534607 184.0
220.636642 284.0
220.751953 112.0
220.88504 92.0
221.059601 96.0
221.086227 192.0
221.180939 132.0
221.251984 188.0
221.364502 132.0
221.45166 204.0
221.577759 120.0
221.690353 108.0
221.758514 144.0
221.791107 188.0
221.881302 104.0
221.918579 108.0
221.939346 160.0
221.962189 164.0
222.08168 172.0
222.114304 144.0
222.292313 136.0
222.342773 136.0
222.532745 80.0
222.57431 200.0
222.906998 168.0
223.082336 96.0
223.394577 80.0
223.516556 196.0
223.564178 124.0
223.629654 288.0
223.823151 88.0
223.861862 188.0
223.903549 84.0
223.93631 132.0
224.031631 88.0
224.377319 44.0
224.562195 80.0
224.627823 172.0
224.66362 164.0
224.848602 208.0
224.953079 140.0
225.099365 64.0
225.150131 168.0
225.230774 180.0
225.532562 136.0
225.592346 116.0
225.699966 100.0
225.843506 268.0
225.93924 108.0
226.229523 124.0
226.280869 128.0
226.343277 132.0
226.433121 164.0
226.678772 168.0
226.807632 136.0
226.894577 208.0
226.954529 112.0
226.978516 100.0
227.110474 112.0
227.176468 108.0
227.220428 388.0
227.266464 104.0
227.401505 176.0
227.425522 108.0
227.563599 256.0
227.689728 176.0
227.719757 80.0
227.782837 240.0
228.014175 52.0
228.245651 172.0
228.399033 84.0
228.74205 212.0
228.964859 68.0
229.0737 856.0
229.13353 212.0
229.300232 124.0
229.341461 124.0
229.426804 232.0
229.55249 92.0
229.691223 192.0
229.814911 160.0
229.842072 160.0
230.084747 6176.0
230.165039 52.0
230.199951 100.0
230.273178 188.0
230.322083 104.0
230.397598 152.0
230.445938 116.0
230.48381 112.0
230.820724 164.0
230.932617 36.0
230.959839 128.0
230.981018 184.0
231.041519 164.0
231.086609 1144.0
231.195831 48.0
231.238205 72.0
231.301758 132.0
231.32901 132.0
231.368362 188.0
231.513687 180.0
231.548599 168.0
231.691696 224.0
231.813599 168.0
232.094223 152.0
232.325989 52.0
232.505005 204.0
232.580887 104.0
232.656769 148.0
232.778214 144.0
233.118439 200.0
233.288635 88.0
233.45105 236.0
233.534943 116.0
233.595779 108.0
233.650528 132.0
234.021835 140.0
234.259369 208.0
234.338577 156.0
234.362961 128.0
234.408661 140.0
234.484848 120.0
234.554947 224.0
234.628113 184.0
234.700409 168.0
234.804962 124.0
234.907028 148.0
235.000183 136.0
235.195496 116.0
235.241287 100.0
235.37561 136.0
235.427521 136.0
235.641342 124.0
235.702698 152.0
235.737213 164.0
235.815521 52.0
235.846085 204.0
236.179367 124.0
236.263794 140.0
236.433304 296.0
236.488388 96.0
236.606079 188.0
236.669006 60.0
236.871124 152.0
236.932388 172.0
236.953842 192.0
236.975281 96.0
237.002853 48.0
237.092209 176.0
237.30629 148.0
237.373749 160.0
237.416672 132.0
237.665146 176.0
237.76947 148.0
237.864624 96.0
237.956726 160.0
237.981277 132.0
238.25943 148.0
238.316071 64.0
238.432831 128.0
238.454346 172.0
238.555771 96.0
238.5896 156.0
238.672607 108.0
238.724884 128.0
238.96788 80.0
239.06633 148.0
239.198685 148.0
239.226379 52.0
239.309509 184.0
239.361847 84.0
239.50351 140.0
239.52507 152.0
239.577515 160.0
239.759232 56.0
239.857864 136.0
239.904877 164.0
239.931839 252.0
239.956512 128.0
240.012009 116.0
240.067505 132.0
240.172363 196.0
240.246399 184.0
240.326614 40.0
240.36055 92.0
240.604385 116.0
240.842148 136.0
241.08226 376.0
241.135666 100.0
241.1604 176.0
241.361328 100.0
241.429367 148.0
241.664444 116.0
241.726334 176.0
241.862503 84.0
241.887268 136.0
241.908936 176.0
242.083771 1720.0
242.199997 60.0
242.260941 180.0
242.379684 28.0
242.441666 112.0
242.478851 180.0
242.605942 60.0
242.761292 228.0
242.971878 204.0
243.092804 1040.0
243.254272 108.0
243.534515 124.0
243.710785 80.0
243.742203 112.0
243.875488 68.0
243.971848 40.0
244.09285 292.0
244.136642 52.0
244.158417 164.0
244.462875 132.0
244.839951 144.0
245.104111 232.0
245.31044 108.0
245.335373 172.0
245.3759 128.0
245.553635 140.0
245.665924 124.0
245.784485 36.0
245.862488 168.0
245.999832 128.0
246.08255 48.0
246.115402 200.0
246.184036 132.0
246.302719 164.0
246.437042 136.0
246.696609 212.0
246.909058 220.0
247.318909 52.0
247.375244 172.0
247.431595 140.0
247.475433 92.0
247.603821 96.0
247.710312 160.0
247.757294 76.0
247.935898 168.0
247.967239 32.0
248.17099 108.0
248.409332 96.0
248.537964 120.0
248.638382 176.0
248.820435 112.0
248.87381 244.0
249.214569 204.0
249.240372 176.0
249.316711 116.0
249.354431 160.0
249.599625 96.0
249.863831 152.0
249.961365 196.0
250.002441 152.0
250.288727 152.0
250.380035 164.0
250.427277 148.0
250.748642 164.0
250.821136 160.0
250.931473 112.0
250.981918 176.0
251.067062 80.0
251.215302 180.0
251.237717 152.0
251.376205 104.0
251.404602 160.0
251.5056 156.0
251.691849 104.0
251.720276 136.0
251.811859 192.0
252.058258 140.0
252.16571 196.0
252.292145 104.0
252.393311 52.0
252.5616 132.0
252.611526 36.0
252.639999 132.0
252.700119 132.0
253.102081 172.0
253.21347 136.0
253.279419 248.0
253.320602 204.0
253.396637 68.0
253.425156 136.0
253.669174 160.0
253.745255 136.0
253.941864 64.0
254.290848 120.0
254.322586 152.0
254.401947 104.0
254.434158 136.0
254.457825 212.0
254.481323 256.0
254.563873 92.0
254.779846 148.0
254.894226 168.0
254.938721 192.0
254.967316 120.0
255.092667 320.0
255.125366 204.0
255.164398 120.0
255.224808 260.0
255.374268 232.0
255.65741 216.0
255.775162 156.0
255.807007 72.0
255.847321 132.0
256.001221 212.0
256.052155 168.0
256.104706 216.0
256.150909 140.0
256.377106 136.0
256.593872 172.0
256.804321 236.0
256.963806 212.0
256.986145 140.0
257.089294 304.0
257.193573 116.0
257.448975 128.0
257.589508 112.0
257.618256 144.0
257.698975 184.0
257.912231 192.0
258.079865 9468.0
258.170044 120.0
258.225586 180.0
258.274719 152.0
258.338867 140.0
258.385498 88.0
258.501617 208.0
258.558289 144.0
258.599915 96.0
258.721527 88.0
258.772766 96.0
258.806122 144.0
258.843201 148.0
258.875214 152.0
258.904053 128.0
258.955292 52.0
259.082367 2572.0
259.129456 116.0
259.208374 216.0
259.294891 52.0
259.380035 192.0
259.461578 192.0
259.564178 40.0
259.66452 124.0
259.68924 80.0
259.827484 40.0
259.87851 172.0
259.907379 224.0
259.942688 64.0
260.04538 176.0
260.085205 236.0
260.115997 232.0
260.237976 72.0
260.286133 192.0
260.311829 160.0
260.388885 116.0
260.475616 152.0
260.535461 140.0
260.621399 148.0
260.716583 100.0
260.782715 104.0
260.823853 200.0
260.912659 100.0
260.981873 164.0
261.095917 136.0
261.185974 52.0
261.21814 180.0
261.272827 84.0
261.607513 180.0
261.935974 144.0
262.090607 92.0
262.345215 128.0
262.438721 132.0
262.499969 72.0
262.612854 172.0
262.635437 172.0
263.022614 128.0
263.435944 116.0
263.697662 80.0
263.755829 148.0
263.839874 104.0
263.872223 160.0
263.978912 124.0
264.111511 148.0
264.325043 76.0
264.415649 120.0
264.486847 128.0
264.749084 124.0
264.907806 400.0
264.979065 64.0
265.076263 136.0
265.141083 244.0
265.235077 164.0
265.296661 168.0
265.342041 148.0
265.423096 224.0
265.455536 216.0
265.52002 172.0
265.731232 172.0
265.770172 116.0
266.039551 88.0
266.25058 164.0
266.306488 224.0
266.341522 76.0
266.500702 44.0
266.604675 184.0
266.653442 208.0
266.747681 88.0
266.871216 160.0
266.94278 228.0
266.968781 228.0
267.014313 120.0
267.069611 160.0
267.15744 152.0
267.287567 128.0
267.336365 208.0
267.391693 108.0
267.607727 196.0
267.694458 104.0
267.72702 96.0
267.961548 132.0
268.091888 88.0
268.147278 184.0
268.233368 176.0
268.300476 148.0
268.39502 188.0
268.440674 184.0
268.502625 144.0
268.538513 144.0
268.577637 140.0
268.629852 144.0
268.721191 172.0
268.84845 200.0
268.900665 132.0
268.949615 136.0
269.276123 96.0
269.589722 104.0
269.668549 168.0
269.723724 124.0
269.802185 180.0
269.959137 180.0
270.011444 112.0
270.099762 188.0
270.201324 140.0
270.243713 164.0
270.3255 128.0
270.358215 160.0
270.390961 256.0
270.584076 112.0
270.695404 152.0
270.780548 116.0
270.986908 128.0
271.104797 156.0
271.216309 180.0
271.273987 148.0
271.36554 112.0
271.465454 88.0
271.531067 140.0
271.604919 196.0
271.90506 140.0
271.92804 152.0
271.96637 304.0
272.006805 52.0
272.041199 168.0
272.091888 1140.0
272.157806 192.0
272.187378 116.0
272.213654 96.0
272.249756 76.0
272.306976 192.0
272.341705 48.0
272.423828 164.0
272.454834 100.0
272.503571 304.0
272.542114 164.0
272.584839 164.0
272.735291 256.0
272.791443 184.0
272.81662 152.0
272.872345 316.0
272.89978 156.0
272.96756 152.0
273.014771 552.0
273.104248 110548.0
273.200958 244.0
273.24469 192.0
273.306244 280.0
273.347565 100.0
273.405396 88.0
273.436951 180.0
273.451202 132.0
273.465576 108.0
273.535767 56.0
273.563629 124.0
273.624573 120.0
273.647766 96.0
273.682587 108.0
273.706177 44.0
273.714722 120.0
273.785522 76.0
273.803345 96.0
273.829865 208.0
273.893311 208.0
273.952209 124.0
274.012787 56.0
274.045074 184.0
274.106659 19404.0
274.176514 140.0
274.203125 88.0
274.237915 164.0
274.298096 120.0
274.324158 164.0
274.378601 88.0
274.413879 92.0
274.494202 240.0
274.550873 72.0
274.634399 144.0
274.665497 52.0
274.688599 156.0
274.715118 136.0
274.763123 72.0
274.827148 156.0
274.912933 104.0
274.953735 120.0
275.02771 88.0
275.109711 1652.0
275.20105 84.0
275.241943 72.0
275.279358 40.0
275.305786 112.0
275.330933 168.0
275.441193 84.0
275.467621 48.0
275.512482 48.0
275.546906 100.0
275.639404 80.0
275.693024 104.0
275.718719 60.0
275.756195 72.0
275.784821 84.0
275.815826 128.0
275.885925 124.0
275.925568 132.0
275.966553 136.0
275.998047 96.0
276.022858 108.0
276.088562 128.0
276.093964 220.0
276.120911 348.0
276.188202 160.0
276.214661 88.0
276.241119 68.0
276.293854 132.0
276.426392 84.0
276.492584 32.0
276.558777 36.0
276.583618 84.0
276.618378 160.0
276.641541 48.0
276.704437 144.0
276.746399 136.0
276.939545 72.0
277.03891 40.0
277.078674 140.0
277.128357 168.0
277.174744 44.0
277.246857 100.0
277.253052 76.0
277.432159 84.0
277.43924 40.0
277.559265 216.0
277.595734 72.0
277.728394 36.0
277.778137 68.0
277.940704 140.0
277.977203 136.0
278.120544 64.0
278.156433 40.0
278.254089 124.0
278.289215 128.0
278.418701 76.0
278.481812 216.0
278.531647 36.0
278.598083 88.0
278.698212 84.0
279.000183 116.0
279.133179 60.0
279.246246 52.0
279.276184 92.0
279.539001 84.0
279.98175 100.0
280.04834 52.0
280.148651 184.0
280.284882 44.0
280.418182 64.0
280.508148 52.0
280.821594 148.0
280.978363 68.0
281.181915 136.0
281.575867 212.0
281.649323 56.0
281.780762 144.0
281.806335 156.0
282.050293 124.0
282.153931 148.0
282.364594 192.0
282.401367 168.0
282.549835 124.0
282.582001 128.0
282.615448 76.0
282.983643 88.0
283.201294 112.0
283.362091 28.0
283.40564 68.0
283.539673 188.0
283.623474 112.0
283.817902 104.0
284.203644 156.0
284.502319 108.0
284.535889 96.0
284.559387 192.0
285.086304 292.0
285.207733 112.0
285.375824 140.0
285.412811 132.0
285.523773 160.0
285.728943 248.0
285.752502 112.0
285.903931 44.0
286.078857 184.0
286.09201 132.0
286.184937 148.0
286.432526 216.0
286.513367 188.0
286.575806 172.0
286.645996 208.0
286.698669 116.0
286.81665 84.0
287.029022 144.0
287.052643 128.0
287.112579 340.0
287.545166 84.0
287.649811 180.0
287.673431 44.0
288.084259 148.0
288.121338 296.0
288.305023 264.0
288.348969 140.0
288.414185 176.0
288.504456 100.0
288.602478 224.0
288.624634 108.0
288.707306 140.0
288.744507 116.0
288.822296 140.0
289.128387 172.0
289.302795 164.0
289.326508 64.0
289.451782 140.0
289.522888 180.0
289.820984 132.0
289.963287 168.0
290.01413 60.0
290.119202 136.0
290.263214 152.0
290.278381 72.0
290.287079 148.0
290.325958 160.0
290.36618 120.0
290.390472 116.0
290.448914 208.0
290.488831 140.0
290.515991 168.0
290.634735 212.0
290.672058 152.0
290.716156 168.0
290.767517 348.0
290.800537 148.0
290.824188 144.0
290.933075 132.0
290.937958 200.0
290.994507 120.0
291.020935 192.0
291.114319 65384.0
291.197174 164.0
291.211548 80.0
291.237518 296.0
291.308411 100.0
291.340912 44.0
291.373444 76.0
291.400665 148.0
291.44751 168.0
291.48349 128.0
291.518555 120.0
291.565674 132.0
291.590424 68.0
291.648163 128.0
291.672272 72.0
291.730347 120.0
291.808777 176.0
291.858124 140.0
291.919373 100.0
292.033752 212.0
292.058136 40.0
292.117554 12496.0
292.2146 88.0
292.267914 108.0
292.311188 116.0
292.349365 100.0
292.401764 72.0
292.483765 64.0
292.670807 120.0
292.764404 76.0
292.844543 72.0
292.973785 76.0
293.015747 152.0
293.051575 72.0
293.118561 1848.0
293.178223 72.0
293.215729 76.0
293.316437 108.0
293.384094 104.0
293.452972 172.0
293.488434 168.0
293.544617 56.0
293.566864 184.0
293.69986 116.0
293.761261 60.0
293.791962 60.0
293.836304 128.0
293.920746 148.0
293.950623 104.0
293.981995 92.0
294.10321 128.0
294.131714 304.0
294.184845 120.0
294.23291 136.0
294.353058 100.0
294.402924 188.0
294.455353 68.0
294.481476 68.0
294.635162 124.0
294.730835 44.0
294.792358 88.0
294.86496 48.0
294.908539 88.0
294.935883 112.0
294.982025 64.0
295.021332 64.0
295.086975 124.0
295.158112 100.0
295.200012 88.0
295.264099 48.0
295.322235 52.0
295.553528 164.0
295.67807 60.0
295.746521 204.0
295.777313 80.0
296.078613 92.0
296.208771 96.0
296.414307 164.0
296.513702 68.0
296.59845 104.0
296.931946 136.0
296.973114 48.0
297.031433 284.0
297.100037 56.0
297.268158 152.0
297.316193 88.0
297.374542 84.0
297.611511 140.0
297.814026 100.0
298.119781 96.0
298.209137 104.0
298.3638 220.0
298.653229 256.0
298.834991 120.0
299.102692 140.0
299.179138 120.0
299.206665 48.0
299.312836 148.0
299.321503 124.0
299.545319 164.0
299.668182 116.0
299.737091 96.0
299.919739 108.0
300.032349 160.0
300.114075 6872.0
300.274841 96.0
300.326599 40.0
300.371429 196.0
300.405273 84.0
300.474915 164.0
300.557709 60.0
300.581879 180.0
300.606018 256.0
300.65976 68.0
300.690704 120.0
300.729095 128.0
300.847626 84.0
300.893341 156.0
300.920135 88.0
300.944305 124.0
301.035004 60.0
301.053772 156.0
301.097717 19708.0
301.201385 36.0
301.234375 80.0
301.264496 88.0
301.308777 180.0
301.350708 48.0
301.376862 176.0
301.436829 176.0
301.524628 60.0
301.572998 92.0
301.676697 240.0
301.706146 156.0
301.759674 88.0
301.819427 56.0
301.910126 140.0
301.953308 88.0
301.984436 76.0
302.038025 172.0
302.101135 4356.0
302.219666 40.0
302.245972 80.0
302.441162 36.0
302.482697 92.0
302.538086 116.0
302.587982 144.0
302.6763 108.0
302.783905 56.0
302.872772 128.0
302.919006 48.0
302.99173 168.0
303.043701 32.0
303.110626 2244.0
303.199646 180.0
303.248169 88.0
303.305542 100.0
303.338287 84.0
303.431885 84.0
303.476959 108.0
303.533569 132.0
303.653809 68.0
303.73703 88.0
303.809875 68.0
303.843323 144.0
303.908936 44.0
303.929749 80.0
303.974243 32.0
304.023682 136.0
304.052765 72.0
304.088684 76.0
304.11969 216.0
304.211212 124.0
304.254089 152.0
304.294373 68.0
304.37561 40.0
304.78894 68.0
304.961395 148.0
304.98703 92.0
305.05307 76.0
305.119141 84.0
305.28949 132.0
305.376434 140.0
305.466888 40.0
305.496674 100.0
305.606049 124.0
305.748718 52.0
305.807861 68.0
306.082672 64.0
306.260498 36.0
306.399841 124.0
306.626312 40.0
306.692535 192.0
306.751801 36.0
306.801025 32.0
307.041199 96.0
307.124298 120.0
307.306305 56.0
307.782684 132.0
307.843842 120.0
307.994019 164.0
308.021942 128.0
308.175659 144.0
308.259521 76.0
308.374847 176.0
308.444763 100.0
308.567108 104.0
308.773407 44.0
308.846863 232.0
309.904053 60.0
310.387756 108.0
311.046234 264.0
311.105957 272.0
311.549469 148.0
311.61972 64.0
311.746216 44.0
312.052032 64.0
312.185638 60.0
312.234863 112.0
312.882294 56.0
313.128021 184.0
313.45639 120.0
313.57373 148.0
313.978119 76.0
314.126221 504.0
314.163666 264.0
314.64502 144.0
314.726227 132.0
314.816467 192.0
314.846283 100.0
315.126648 256.0
315.386841 36.0
315.51535 180.0
315.567108 124.0
315.853546 216.0
316.140137 100.0
316.164917 140.0
316.610962 148.0
316.660553 100.0
316.904968 160.0
316.97522 68.0
317.28418 80.0
317.855225 108.0
317.911987 156.0
317.940369 76.0
318.024933 112.0
318.171082 104.0
318.416107 100.0
318.622101 100.0
318.661194 176.0
318.806885 96.0
318.894196 160.0
319.00946 184.0
319.037903 144.0
319.109131 19848.0
319.210938 72.0
319.245636 84.0
319.276123 28.0
319.345337 96.0
319.419739 128.0
319.446869 76.0
319.483429 156.0
319.56604 80.0
319.592712 96.0
319.672119 180.0
319.742157 40.0
319.772034 72.0
319.87796 52.0
319.95575 56.0
319.998474 212.0
320.026947 204.0
320.05899 64.0
320.112976 5244.0
320.157654 152.0
320.343903 144.0
320.472168 92.0
320.585114 68.0
320.661011 52.0
320.685974 40.0
320.975464 116.0
321.006805 148.0
321.031769 184.0
321.120819 568.0
321.18512 148.0
321.445557 84.0
321.516937 180.0
321.590363 56.0
321.616882 172.0
321.691833 84.0
321.748932 80.0
321.779419 188.0
321.945312 84.0
322.013184 92.0
322.05603 96.0
322.123901 72.0
322.148926 200.0
322.313263 32.0
322.345428 52.0
322.391876 92.0
322.438324 148.0
322.960327 64.0
323.149902 72.0
323.196411 132.0
323.511353 44.0
323.582977 216.0
323.679626 56.0
323.812134 124.0
324.059296 28.0
324.116638 64.0
324.672241 104.0
324.808533 32.0
325.522736 100.0
325.881927 88.0
326.011292 232.0
326.270081 52.0
326.403107 52.0
326.615265 136.0
326.751984 196.0
326.838318 112.0
326.870697 116.0
327.165833 144.0
327.241425 188.0
327.356659 112.0
327.936676 80.0
328.041199 44.0
328.982727 104.0
329.152405 156.0
329.249908 68.0
329.408813 196.0
329.448547 104.0
329.856903 140.0
329.990662 60.0
330.030426 176.0
330.057983 212.0
330.125336 18816.0
330.235657 132.0
330.348694 108.0
330.393158 188.0
330.464447 48.0
330.535919 132.0
330.572998 56.0
330.659851 204.0
330.797394 136.0
330.841125 48.0
330.878235 120.0
330.927704 88.0
331.043579 368.0
331.127411 3708.0
331.253265 76.0
331.311615 76.0
331.583374 52.0
331.622131 200.0
331.782715 52.0
331.862488 52.0
332.072815 44.0
332.125793 728.0
332.187958 204.0
332.471893 136.0
332.573486 136.0
332.609802 148.0
332.947449 108.0
332.980133 100.0
333.06366 112.0
333.129059 132.0
333.190796 132.0
333.224884 116.0
333.311157 140.0
333.374939 124.0
333.4534 188.0
333.527618 152.0
333.688721 80.0
334.045105 88.0
334.132416 48.0
334.208801 60.0
334.259735 56.0
334.389313 140.0
334.456268 32.0
334.625671 104.0
334.885895 36.0
335.119049 112.0
335.173706 64.0
335.239288 48.0
335.946625 80.0
336.063354 88.0
336.278656 172.0
337.009003 188.0
337.403717 108.0
337.473175 132.0
337.736481 116.0
337.824249 172.0
337.864502 88.0
338.066803 68.0
338.113312 56.0
338.702789 40.0
339.692474 68.0
340.142334 592.0
340.246582 48.0
340.290649 156.0
340.316345 172.0
340.386108 148.0
340.632172 80.0
340.760742 196.0
341.209137 92.0
341.779205 96.0
341.941101 144.0
342.139313 128.0
342.144928 108.0
342.159607 168.0
342.589172 136.0
342.850769 188.0
343.127747 136.0
343.422211 108.0
343.957214 140.0
343.990448 84.0
344.2341 176.0
344.636719 112.0
347.39856 144.0
347.454193 104.0
347.506134 60.0
347.654572 100.0
348.062897 148.0
348.404572 232.0
348.441742 40.0
348.579193 144.0
349.572052 48.0
350.018738 152.0
350.25708 100.0
351.733643 136.0
352.166779 108.0
353.022583 136.0
353.059998 52.0
353.119843 96.0
353.17218 200.0
353.273193 128.0
353.366699 116.0
353.520111 216.0
353.579987 180.0
353.688538 64.0
354.76358 72.0
354.831085 64.0
355.810242 100.0
355.896606 72.0
355.94165 152.0
356.1745 84.0
356.279694 80.0
356.37735 152.0
356.463776 180.0
356.704315 68.0
356.74942 164.0
356.783264 88.0
356.817078 212.0
356.862213 132.0
356.989777 112.0
357.003082 104.0
357.172363 228.0
357.245819 144.0
357.307892 148.0
357.385468 160.0
357.475311 128.0
357.519531 276.0
357.63916 172.0
357.697357 116.0
357.72937 152.0
357.762695 124.0
357.819397 220.0
357.86676 160.0
357.946228 476.0
358.000946 120.0
358.06366 168.0
358.087036 436.0
358.157043 92364.0
358.285156 136.0
358.349884 144.0
358.390289 80.0
358.436615 156.0
358.467407 68.0
358.47876 92.0
358.513489 52.0
358.564972 68.0
358.595856 96.0
358.622742 112.0
358.662994 100.0
358.729828 68.0
358.77829 296.0
358.823975 64.0
358.884644 204.0
358.980255 140.0
359.011017 132.0
359.059082 248.0
359.10318 116.0
359.158447 20872.0
359.286041 132.0
359.332886 60.0
359.415436 104.0
359.450134 100.0
359.506927 96.0
359.551727 36.0
359.597382 80.0
359.646759 44.0
359.684906 76.0
359.744232 56.0
359.792145 52.0
359.844788 80.0
359.902771 64.0
359.956726 112.0
360.031158 64.0
360.1633 2484.0
360.252502 80.0
360.291779 68.0
360.329559 32.0
360.359802 36.0
360.453766 60.0
360.502197 140.0
360.556274 56.0
360.621216 92.0
360.658325 60.0
360.692352 52.0
360.752991 88.0
360.821594 240.0
360.946075 108.0
361.023224 120.0
361.078003 60.0
361.104156 84.0
361.168518 264.0
361.228729 80.0
361.29361 132.0
361.336945 212.0
361.382141 136.0
361.430969 108.0
361.494141 60.0
361.53653 132.0
361.59726 148.0
361.612213 160.0
361.653076 124.0
361.698486 136.0
361.76181 72.0
361.819061 80.0
361.868835 100.0
362.036407 204.0
362.23999 52.0
362.270294 96.0
362.358185 100.0
362.478668 32.0
362.59613 80.0
362.766693 60.0
362.831146 32.0
363.02832 36.0
363.620117 64.0
363.836487 80.0
363.890717 88.0
363.96936 68.0
363.999725 68.0
364.265594 52.0
364.999084 32.0
365.120758 76.0
365.624786 124.0
365.824646 68.0
366.498749 52.0
366.818878 28.0
367.097198 100.0
367.162018 96.0
367.200165 56.0
367.490082 68.0
367.951874 28.0
368.123688 64.0
369.17395 128.0
371.07373 128.0
371.242432 180.0
371.833221 84.0
372.393768 72.0
372.654968 48.0
373.366089 80.0
373.489166 44.0
373.531494 32.0
373.673828 64.0
374.004761 56.0
374.120239 64.0
375.040863 112.0
375.588379 36.0
376.908691 100.0
377.418884 68.0
378.440338 92.0
379.319733 92.0
380.006165 88.0
381.248688 72.0
382.209167 124.0
382.555542 124.0
384.575378 172.0
384.617584 216.0
385.500214 48.0
385.758148 92.0
386.407318 64.0
386.520813 80.0
386.587311 60.0
387.158875 64.0
387.762177 64.0
390.585175 88.0
390.994354 60.0
392.526733 88.0
392.597717 100.0
393.757965 56.0
395.367004 80.0
397.804535 128.0
402.171082 156.0
402.909821 92.0
405.238251 60.0
405.723175 100.0
405.863495 80.0
408.485992 80.0
410.782043 124.0
412.170837 40.0
414.092377 104.0
416.607178 188.0
417.216766 32.0
418.950348 140.0
420.924347 120.0
421.332794 88.0
422.579712 196.0
424.213745 172.0
424.332611 52.0
424.496643 168.0
426.24118 72.0
426.274048 72.0
426.857758 60.0
427.212372 276.0
427.248474 112.0
427.277283 96.0
427.96048 76.0
429.006897 112.0
429.976196 132.0
431.359833 140.0
431.856018 124.0
432.4104 56.0
434.863953 112.0
435.457672 52.0
438.536438 124.0
440.121674 100.0
440.163422 80.0
441.508972 96.0
441.831055 136.0
442.366699 92.0
444.004944 88.0
444.160126 128.0
444.638428 116.0
444.722351 88.0
444.787231 72.0
444.92688 200.0
444.995209 128.0
445.223663 6396.0
445.317902 52.0
445.341187 72.0
445.53009 56.0
445.655182 112.0
445.936157 52.0
446.058044 120.0
446.091675 172.0
446.227386 2304.0
446.423828 48.0
446.533173 40.0
446.970673 60.0
447.227386 224.0
447.292847 808.0
447.412598 80.0
447.686279 60.0
447.864319 72.0
448.027435 88.0
448.250732 172.0
448.292114 292.0
448.457245 52.0
448.503601 48.0
448.592102 64.0
448.963135 68.0
449.076996 108.0
449.245728 40.0
449.988495 52.0
450.757202 104.0
451.116455 136.0
451.47583 80.0
452.063843 100.0
452.550385 76.0
452.588715 120.0
453.681763 136.0
454.003998 72.0
456.534973 108.0
456.845459 108.0
459.516602 88.0
459.776886 108.0
462.234039 72.0
464.69342 52.0
464.813568 84.0
465.865417 60.0
471.682739 40.0
472.74234 64.0
476.910065 172.0
476.997009 92.0
478.541351 72.0
482.703888 96.0
483.434418 56.0
484.274963 52.0
485.098724 120.0
486.476105 52.0
489.443726 44.0
489.809235 44.0
492.557251 120.0
492.645599 92.0
493.74173 88.0
494.75058 64.0
496.385437 68.0
496.669281 64.0
497.432465 60.0
500.04599 80.0
500.713776 80.0
500.847412 84.0
501.533569 128.0
502.180054 80.0
502.362946 92.0
503.059082 72.0
504.83728 104.0
507.66745 76.0
507.743683 84.0
512.909668 96.0
516.237 100.0
519.497986 104.0
525.325195 100.0
525.475769 92.0
528.36499 116.0
529.773071 68.0
533.439575 44.0
533.67865 84.0
536.334839 48.0
537.358582 76.0
538.143188 52.0
541.467896 60.0
542.723694 44.0
543.020447 52.0
548.926514 136.0
551.55957 116.0
552.597717 48.0
553.02356 56.0
554.606689 60.0
554.826965 112.0
555.441284 76.0
557.535278 72.0
557.977112 88.0
559.449585 64.0
565.533936 100.0
565.721741 72.0
572.898682 80.0
582.470581 172.0
583.426819 116.0
584.085571 68.0
584.335754 124.0
585.1828 88.0
585.428345 84.0
586.748596 92.0
588.036499 84.0
588.992432 60.0
589.673706 88.0
590.471436 48.0
598.76062 40.0
602.164734 60.0
603.039246 88.0
607.524475 84.0
607.598022 92.0
607.759949 128.0
612.449768 36.0
613.504272 68.0
614.43634 80.0
616.974731 32.0
621.43689 92.0
624.352661 44.0
626.253845 84.0
627.624268 144.0
632.274841 88.0
636.149231 32.0
640.745605 108.0
641.531799 104.0
643.226685 132.0
643.373047 84.0
644.878296 48.0
648.279175 64.0
649.277832 52.0
651.821045 68.0
659.230164 92.0
660.513428 64.0
661.004517 96.0
661.787659 112.0
664.86322 72.0
666.717102 76.0
668.172241 132.0
672.459412 72.0
673.161499 48.0
676.692932 60.0
679.725037 48.0
683.289307 44.0
684.98114 72.0
686.63855 100.0
691.329834 48.0
695.554993 112.0
695.632751 80.0
704.669617 96.0
712.468018 116.0
712.754944 52.0
712.972778 80.0
717.790283 36.0
726.293518 44.0
726.824646 52.0
728.306335 80.0
733.428589 60.0
733.487854 84.0
737.85498 76.0
738.590454 124.0
749.769348 84.0
751.552429 80.0
758.590881 108.0
759.912537 92.0
764.412598 52.0
768.42926 48.0
768.992065 96.0
778.664185 88.0
778.941895 44.0
780.559143 52.0
783.58136 112.0
784.316956 52.0
788.374329 68.0
792.302124 48.0
796.722778 52.0
803.179321 164.0
809.390137 100.0
814.346436 104.0
814.437317 92.0
820.041565 104.0
820.258118 220.0
821.718018 96.0
833.070251 68.0
843.263184 160.0
854.000671 36.0
860.136108 60.0
871.743896 76.0
873.690063 172.0
881.484436 52.0
888.245361 116.0
913.116272 136.0
923.290222 60.0
923.332581 88.0
928.722778 56.0
933.636047 76.0
933.897583 36.0
942.028748 80.0
944.675598 20.0
959.530823 168.0
964.543396 104.0
965.241943 52.0
979.727844 204.0
997.549988 124.0
997.857971 124.0
998.392456 104.0
999.411499 132.0
1009.737732 48.0
1025.132324 48.0
1026.891846 160.0
1027.044922 44.0
1042.692383 100.0
1043.180908 104.0
1049.064453 152.0
1052.335205 136.0
1056.820679 216.0
1058.367554 108.0
1060.758057 96.0
1099.94751 52.0
1107.66272 100.0
1121.444458 164.0
1139.901489 112.0
1149.341797 88.0
1170.353516 112.0
1177.226685 104.0
1180.828125 60.0
1211.471924 52.0
1221.426025 188.0
1225.44812 72.0
1231.434692 36.0
1234.111084 88.0
1258.985718 160.0
1265.958252 148.0
1266.942749 176.0
1272.893188 116.0
1288.705566 108.0
1289.305786 208.0
1290.671021 148.0
1302.797363 136.0
1310.480713 140.0
1315.204102 220.0
1316.438599 104.0
1320.941162 100.0
1328.619751 164.0
1333.121338 84.0
1342.57019 76.0
1343.883179 40.0
1347.650513 68.0
1349.945557 216.0
1361.318359 48.0
1363.617676 156.0
1365.293945 60.0
1366.890137 92.0
1372.237427 196.0
1373.660645 148.0
1374.236084 112.0
1375.608765 172.0
1392.044678 80.0
1404.15979 240.0
1407.241455 88.0
1419.227417 124.0
1419.339844 48.0
1424.946411 124.0
1425.276978 172.0
1433.930786 56.0
1438.554443 28.0
1444.168457 108.0
1453.873291 176.0
1456.834351 196.0
1457.145874 124.0
1459.31189 96.0
1464.539673 132.0
1471.616333 88.0
1492.071899 20.0
1499.684692 148.0
