>compound MLS002153960-01!Acacetin480-44-4
>formula C16H12O5
>ionization [M+H]+
>parentmass 285.075928
#inchi InChI=1S/C16H12O5/c1-20-11-4-2-9(3-5-11)14-8-13(19)16-12(18)6-10(17)7-15(16)21-14/h2-8,17-18H,1H3
#inchikey DANYIYRPLHHOCZ
#Ion_Source LC-ESI
#Instrument qTof
#Compound_Source NIH Pharmacologically Active Library
#PI Dorrestein
#Data_Collector VP/LMS
#Scan -1
#Precursor_MZ 285.076
#ExactMass 284.068
#Charge 1
#CAS_Number N/A
#Pubmed_ID N/A
#Smiles COc1ccc(cc1)c2cc(=O)c3c(O)cc(O)cc3o2
#INCHI_AUX N/A
#Library_Class 1
#SpectrumID CCMSLIB00000084976
#IonMode Positive
#UpdateWorkflowName UPDATE-SINGLE-ANNOTATED-GOLD
#LibraryQualityString Gold
#TaskID d252d724072548979f1f6f1ced849daf
##Scan# 2136
#SpectrumFile p3-D04_GD4_01_18261.mzXML
#LibraryName Pharm_Active_Library.mgf
#MQScore -1
#Organism Pharm_Active_Library
#TIC_Query 0
#RT_Query -1
#MZErrorPPM -1
#SharedPeaks 0
#MassDiff 0
#LibMZ -1
#SpecMZ 285.076
#SpecCharge 0
#internalFilename spec-00000.mgf

>collision 10
45.175385 208.0
45.604496 216.0
45.993778 108.0
46.014366 160.0
46.143738 176.0
46.334576 140.0
46.490517 192.0
46.506802 164.0
46.520378 120.0
46.552963 160.0
46.842678 116.0
47.141491 224.0
47.45496 172.0
47.699337 140.0
47.710335 156.0
47.99535 104.0
48.264614 176.0
48.286743 132.0
48.319942 152.0
48.551277 128.0
49.136909 124.0
49.538155 152.0
49.5858 256.0
49.762554 132.0
49.858078 96.0
50.073341 156.0
50.577419 180.0
50.768696 148.0
50.787136 172.0
50.923397 92.0
50.947548 180.0
50.994442 140.0
51.673248 76.0
51.817856 168.0
51.890953 132.0
52.192486 44.0
52.268726 140.0
52.422813 236.0
52.458847 180.0
52.476147 220.0
52.528065 180.0
52.60022 216.0
52.78371 104.0
52.896564 124.0
53.129887 204.0
53.234394 168.0
53.270706 164.0
53.30703 72.0
53.373901 160.0
53.535431 124.0
53.641796 140.0
53.886982 156.0
54.862991 144.0
55.102085 200.0
55.352062 216.0
55.390572 144.0
55.470592 148.0
55.663471 140.0
55.690205 172.0
55.926628 212.0
55.956402 148.0
55.995117 144.0
56.148632 56.0
56.427879 136.0
56.61343 188.0
57.069614 188.0
57.473301 112.0
57.633358 168.0
58.069355 188.0
58.256065 180.0
58.365498 212.0
58.461334 104.0
58.50243 196.0
58.551159 148.0
58.66544 148.0
58.686787 116.0
58.979908 152.0
59.054832 136.0
59.116032 128.0
59.134396 152.0
59.146641 160.0
59.212482 104.0
59.238522 184.0
59.96534 124.0
60.320362 192.0
60.378452 176.0
60.408508 152.0
60.609783 116.0
60.715199 176.0
60.766388 152.0
61.158012 148.0
61.179806 148.0
61.228077 184.0
61.284157 144.0
61.295277 176.0
61.685257 156.0
61.866726 200.0
62.274437 104.0
62.58897 192.0
62.983253 104.0
63.035389 176.0
63.065418 224.0
63.119171 132.0
63.364513 52.0
63.383526 204.0
63.507187 124.0
63.55954 116.0
63.716732 212.0
63.783478 124.0
63.9123 52.0
63.995071 80.0
64.377777 120.0
64.532784 204.0
64.732803 176.0
64.970024 136.0
65.003716 216.0
65.061501 164.0
65.093613 136.0
66.012169 144.0
66.03804 172.0
66.173981 100.0
66.292229 220.0
66.423561 136.0
66.826462 264.0
66.907845 144.0
67.080528 160.0
67.289352 32.0
67.371017 136.0
67.516495 88.0
67.572105 288.0
67.634293 200.0
68.191978 152.0
68.265968 156.0
68.32518 176.0
68.366318 244.0
68.463448 168.0
68.615044 52.0
69.059265 144.0
69.105583 160.0
69.181717 184.0
69.319191 144.0
69.800598 200.0
69.87545 76.0
70.011948 188.0
70.368797 56.0
71.051659 128.0
71.095291 152.0
71.172508 48.0
71.249771 96.0
71.2985 136.0
71.322029 132.0
71.837318 96.0
72.109177 188.0
72.183563 172.0
72.200478 188.0
72.345993 196.0
72.596405 168.0
72.610336 192.0
72.921043 132.0
72.970337 156.0
73.462532 116.0
73.626396 120.0
73.816086 204.0
73.905037 164.0
73.952957 112.0
74.457031 224.0
75.155952 156.0
75.202545 164.0
75.686615 108.0
75.742035 172.0
75.83387 256.0
76.309525 208.0
76.474792 48.0
76.673347 104.0
76.706467 84.0
76.809349 252.0
77.158615 156.0
77.53672 192.0
77.802704 104.0
78.313309 28.0
78.355591 156.0
78.422554 112.0
78.568916 88.0
78.646568 168.0
78.68364 124.0
78.780769 192.0
78.961067 132.0
79.008827 172.0
79.441101 68.0
79.833633 204.0
80.098839 224.0
80.155846 224.0
80.750343 152.0
81.180168 176.0
81.785645 136.0
82.023415 140.0
82.133408 188.0
82.227234 100.0
82.290413 116.0
82.308472 156.0
82.452995 144.0
82.543388 104.0
82.686302 120.0
82.713455 140.0
82.847458 128.0
83.411835 108.0
83.684731 176.0
84.753273 72.0
84.887085 128.0
85.246895 48.0
85.314896 148.0
85.392128 48.0
85.974319 144.0
86.177444 104.0
86.306831 180.0
86.473328 156.0
86.48999 188.0
86.595528 72.0
86.801247 180.0
86.927383 188.0
87.096336 180.0
87.246857 128.0
87.313805 172.0
87.371468 52.0
87.466377 72.0
87.548294 160.0
87.923027 104.0
88.072395 160.0
88.802376 200.0
89.035103 160.0
89.256851 152.0
89.429939 240.0
89.475113 192.0
89.569275 56.0
89.842621 220.0
89.867149 236.0
89.880356 88.0
89.933197 204.0
90.046486 348.0
90.218437 176.0
90.513596 172.0
90.542007 176.0
90.612091 92.0
90.651886 168.0
90.676521 224.0
90.957245 152.0
91.065475 216.0
91.202278 208.0
91.664757 144.0
91.712402 128.0
91.792473 188.0
91.863045 184.0
91.987083 176.0
92.531944 144.0
92.621269 180.0
92.668884 168.0
92.689003 140.0
93.310898 184.0
93.736282 212.0
93.909798 196.0
94.087326 212.0
94.361679 152.0
94.477722 168.0
94.605446 48.0
94.760384 216.0
94.837898 188.0
95.371681 92.0
95.682938 128.0
95.797836 108.0
95.864082 264.0
96.023949 132.0
96.504341 208.0
96.629524 136.0
96.676483 172.0
96.721497 196.0
97.074165 232.0
97.382286 240.0
97.637794 188.0
97.694832 216.0
97.897568 192.0
97.976357 168.0
98.130089 120.0
98.210938 100.0
98.341164 148.0
98.416183 176.0
98.821381 164.0
98.904495 184.0
99.035187 200.0
99.054993 128.0
99.22261 152.0
99.356323 200.0
99.451576 124.0
99.507156 188.0
99.564743 140.0
99.610428 152.0
99.662079 128.0
99.92852 64.0
99.946426 68.0
99.994186 132.0
100.181358 188.0
100.199287 176.0
100.294945 180.0
100.676025 136.0
100.933815 164.0
101.031815 148.0
101.393471 144.0
102.048668 164.0
102.203545 216.0
102.348541 216.0
102.43306 88.0
102.685013 144.0
102.763687 184.0
103.053703 472.0
103.216141 160.0
103.238388 48.0
103.412384 124.0
103.574364 252.0
103.647301 216.0
103.850029 52.0
104.057022 224.0
104.095604 172.0
104.49807 204.0
104.825897 104.0
104.897232 136.0
105.003265 188.0
105.413612 208.0
105.503548 196.0
105.546478 52.0
106.021408 208.0
106.041901 208.0
106.47686 148.0
106.593964 120.0
106.670006 180.0
107.069176 84.0
107.252548 120.0
107.588799 204.0
107.615639 180.0
107.836685 200.0
107.973137 196.0
108.020714 192.0
108.055885 168.0
108.426544 144.0
108.704437 132.0
108.858055 144.0
109.06942 224.0
109.379913 132.0
109.513176 212.0
109.673615 104.0
109.840431 168.0
109.896759 176.0
110.276833 180.0
110.322823 152.0
110.467117 156.0
110.615692 188.0
111.006241 208.0
111.087196 152.0
111.580719 136.0
111.713219 124.0
111.824738 264.0
111.868942 188.0
112.020561 176.0
112.30513 228.0
112.856323 136.0
113.10173 124.0
113.654869 140.0
113.775848 104.0
113.833176 164.0
113.913887 152.0
113.986122 112.0
114.213615 184.0
114.622383 76.0
114.637299 160.0
114.99559 264.0
115.17495 164.0
115.617531 140.0
116.007362 96.0
116.028801 204.0
116.269051 148.0
116.316269 148.0
116.550362 208.0
117.073097 160.0
117.139862 112.0
117.463211 88.0
117.638008 144.0
117.726532 232.0
117.821571 60.0
117.964203 144.0
117.983658 228.0
118.007446 140.0
118.044014 140.0
118.18264 108.0
118.269211 168.0
118.367325 188.0
118.667816 108.0
118.774078 52.0
119.117058 176.0
119.547554 168.0
119.704292 108.0
119.852417 60.0
120.175125 144.0
120.395592 164.0
120.531036 116.0
120.848091 112.0
121.033104 196.0
121.066986 212.0
121.286087 136.0
121.316772 152.0
121.428604 168.0
121.645836 152.0
121.999519 248.0
122.034698 124.0
122.21286 88.0
122.441803 224.0
122.74498 248.0
123.273506 168.0
123.293396 180.0
123.450356 184.0
123.560959 120.0
123.676025 104.0
123.782295 140.0
124.014763 284.0
124.136856 108.0
124.929794 212.0
125.022446 184.0
125.123413 92.0
125.901619 144.0
126.026718 164.0
126.120583 216.0
126.18988 104.0
126.350914 92.0
126.673286 184.0
126.879456 92.0
126.944481 180.0
127.058876 260.0
127.22271 132.0
127.308861 260.0
127.705833 140.0
127.969078 168.0
128.514587 176.0
128.546173 100.0
129.034073 184.0
129.06572 188.0
129.254471 188.0
129.4207 136.0
129.692825 164.0
129.987656 108.0
130.148819 192.0
130.182892 124.0
130.212402 192.0
130.400986 184.0
130.482819 124.0
130.687515 124.0
130.712555 52.0
130.865051 120.0
131.047165 172.0
131.227325 84.0
131.416641 56.0
131.615219 152.0
131.681442 164.0
131.836807 140.0
132.049423 184.0
132.06543 156.0
132.319443 132.0
132.509186 208.0
132.621536 156.0
132.853439 120.0
133.065109 1780.0
133.179398 132.0
133.37471 144.0
133.556366 52.0
133.611572 132.0
133.890091 100.0
133.96611 188.0
134.037537 136.0
134.065613 232.0
134.838318 176.0
135.049408 292.0
135.074158 200.0
135.518661 176.0
135.600983 252.0
135.687866 148.0
135.966217 44.0
136.042816 108.0
136.072998 144.0
136.15892 144.0
136.300613 168.0
136.626129 144.0
136.961349 192.0
137.033569 140.0
137.796509 120.0
138.046616 152.0
138.573288 180.0
138.810028 112.0
139.058701 128.0
139.140869 144.0
139.161987 104.0
139.211304 40.0
139.374847 124.0
139.999115 236.0
140.015594 160.0
140.059219 348.0
140.107468 176.0
140.161652 144.0
141.039597 160.0
141.13179 164.0
141.408585 124.0
141.849152 160.0
142.062576 104.0
142.292786 120.0
142.451904 156.0
142.556442 184.0
142.632492 180.0
142.784668 196.0
143.051163 136.0
143.255966 96.0
143.811554 124.0
143.930923 216.0
143.995407 164.0
144.024063 200.0
144.058746 316.0
144.105286 72.0
144.129181 172.0
144.157852 132.0
144.492615 172.0
144.516541 120.0
145.033829 180.0
145.067871 176.0
145.151291 160.0
145.268814 136.0
145.654495 184.0
145.883591 236.0
146.058151 224.0
146.186646 144.0
146.453888 212.0
146.574341 224.0
146.880539 108.0
147.047272 152.0
147.138748 168.0
147.177383 148.0
147.559143 184.0
147.658279 172.0
147.888138 144.0
148.091522 160.0
148.188416 216.0
148.375046 160.0
148.69281 216.0
148.887039 132.0
148.991486 120.0
149.049805 140.0
149.309906 204.0
149.455872 152.0
149.660339 156.0
149.879547 84.0
150.028061 516.0
150.499115 220.0
150.613892 112.0
151.271683 168.0
151.443085 192.0
151.545975 72.0
151.913727 208.0
152.007339 776.0
152.065857 160.0
152.417038 92.0
152.434235 144.0
152.505508 120.0
152.539932 164.0
152.591553 88.0
152.72435 108.0
152.793228 172.0
152.815369 152.0
152.839981 236.0
152.950729 168.0
153.01828 14816.0
153.054352 200.0
153.077576 168.0
153.103378 44.0
153.132935 80.0
153.261032 56.0
153.312775 100.0
153.349747 44.0
153.38179 76.0
153.495209 132.0
153.524796 52.0
153.579056 56.0
153.62973 52.0
153.926437 116.0
154.019714 1292.0
154.129593 108.0
154.221039 172.0
154.250687 92.0
154.68718 156.0
155.021759 256.0
155.045212 200.0
155.117096 172.0
155.201385 28.0
155.434555 88.0
155.615753 132.0
155.737427 120.0
155.931229 168.0
156.055527 272.0
156.087845 164.0
156.28685 168.0
156.603012 132.0
156.717606 120.0
156.859665 188.0
157.226303 132.0
157.610886 192.0
157.790848 56.0
158.043747 208.0
158.075989 120.0
158.526749 124.0
158.922943 196.0
159.043076 456.0
159.078537 180.0
159.477936 68.0
159.903 152.0
160.056564 132.0
160.255554 256.0
160.341232 104.0
160.484909 60.0
160.72377 172.0
161.330704 120.0
161.525421 148.0
161.543121 164.0
161.808853 172.0
162.013992 288.0
162.176178 40.0
162.358719 108.0
162.846008 144.0
163.420532 172.0
163.634338 200.0
163.669983 212.0
163.705627 164.0
163.817703 108.0
163.861008 116.0
164.166885 160.0
164.271454 84.0
164.429657 132.0
165.142502 212.0
165.418854 204.0
165.541748 148.0
166.049179 180.0
166.223633 152.0
166.246719 196.0
166.277527 124.0
166.29805 192.0
167.07666 68.0
167.516876 236.0
167.672607 200.0
168.055145 344.0
168.107315 136.0
168.313828 200.0
168.455872 72.0
168.512711 204.0
168.866867 148.0
168.99881 104.0
169.061905 188.0
169.257645 200.0
169.371597 180.0
169.506317 196.0
169.628128 176.0
169.687759 52.0
169.845947 172.0
170.071701 172.0
170.146973 60.0
170.324692 220.0
170.470642 164.0
170.531433 148.0
170.765442 96.0
171.020416 160.0
171.041245 168.0
171.155792 172.0
171.776077 220.0
172.052704 392.0
172.115372 72.0
172.180649 140.0
172.21199 64.0
172.251175 144.0
173.057907 248.0
173.077621 72.0
173.234772 120.0
174.024185 128.0
174.053055 60.0
174.071442 188.0
174.205399 120.0
174.941727 112.0
175.063599 168.0
175.115509 140.0
175.421173 100.0
175.513458 132.0
175.600479 144.0
175.724457 136.0
175.888077 208.0
176.038574 132.0
176.09668 160.0
176.950821 156.0
177.054642 536.0
177.165344 264.0
177.443619 204.0
177.483383 144.0
177.552338 200.0
178.316956 144.0
178.396698 60.0
178.526993 152.0
178.787704 148.0
178.872879 124.0
179.040619 156.0
179.136505 104.0
179.371002 128.0
179.616318 104.0
179.94725 148.0
180.339935 192.0
180.671524 56.0
180.818695 212.0
180.936478 164.0
181.024826 120.0
181.086426 116.0
181.110535 124.0
181.145355 200.0
181.565033 188.0
181.928406 128.0
182.092209 156.0
182.277573 60.0
182.420013 76.0
182.442368 140.0
183.049606 208.0
183.267792 84.0
183.294739 136.0
183.534637 128.0
183.642502 88.0
183.670822 216.0
183.712646 176.0
184.117599 148.0
184.601257 148.0
184.674286 92.0
185.060822 676.0
185.112717 152.0
185.161469 116.0
186.065857 352.0
186.580627 64.0
186.65947 56.0
187.051254 168.0
187.081207 116.0
187.239136 180.0
187.38623 116.0
187.473419 84.0
188.054337 156.0
188.155334 116.0
188.371078 212.0
188.556885 172.0
188.696289 168.0
188.761917 184.0
189.027252 220.0
189.322906 112.0
190.307343 48.0
190.510574 112.0
191.232193 160.0
191.297089 72.0
191.431992 96.0
191.922485 216.0
192.038315 352.0
192.477112 120.0
192.579285 56.0
192.743118 160.0
192.803085 176.0
193.056824 168.0
193.3396 64.0
193.36174 40.0
193.392197 64.0
193.422638 240.0
194.134689 144.0
194.204025 152.0
194.525909 64.0
194.556442 176.0
194.684174 144.0
195.04863 156.0
195.242767 76.0
195.320648 212.0
196.050598 508.0
196.11142 152.0
196.245239 156.0
196.295425 212.0
196.317734 144.0
196.351212 72.0
196.415359 164.0
196.599503 180.0
196.68602 136.0
196.747437 200.0
197.054718 200.0
197.102158 140.0
197.253067 176.0
197.437607 180.0
197.795746 124.0
197.93573 108.0
198.06456 148.0
198.12619 156.0
198.557861 188.0
199.037735 236.0
199.223099 168.0
199.248398 100.0
199.476028 184.0
199.751602 160.0
199.900726 104.0
200.044662 228.0
200.134354 144.0
200.249817 208.0
200.289246 144.0
200.985596 168.0
201.050964 344.0
201.691635 132.0
201.748184 176.0
202.554321 156.0
203.033157 248.0
203.484863 144.0
203.6297 124.0
204.032944 224.0
204.065414 156.0
204.098587 132.0
204.134613 60.0
204.348892 192.0
204.636353 64.0
204.864197 140.0
205.003815 136.0
205.385864 124.0
205.554184 136.0
205.702271 152.0
206.019577 104.0
206.176727 184.0
206.29393 40.0
206.589676 180.0
206.803085 100.0
206.923325 192.0
207.012085 216.0
207.26416 156.0
207.384521 36.0
207.59668 112.0
207.94957 116.0
208.452148 132.0
208.492371 92.0
208.575729 76.0
209.156769 128.0
209.546341 176.0
209.617584 244.0
209.698273 60.0
209.819351 76.0
210.907654 48.0
211.068588 240.0
211.101364 60.0
211.509308 128.0
211.63089 180.0
211.795975 60.0
212.146606 180.0
212.720978 128.0
213.05513 1176.0
213.10434 184.0
213.30777 48.0
213.392075 56.0
213.438599 148.0
213.720749 240.0
213.793503 160.0
213.825516 108.0
213.944855 184.0
214.01474 128.0
214.061554 808.0
214.358459 84.0
214.431305 64.0
214.58873 60.0
215.029205 176.0
215.062729 124.0
215.411713 80.0
215.511047 144.0
215.674698 40.0
216.040558 1020.0
216.128006 128.0
216.255264 148.0
216.306534 72.0
216.350433 60.0
216.55542 44.0
216.640366 176.0
216.672592 164.0
216.707748 40.0
216.728256 120.0
216.874786 136.0
217.05069 108.0
217.088806 188.0
217.229599 220.0
217.622864 104.0
218.084076 140.0
218.592865 152.0
219.659424 152.0
220.110977 212.0
220.633942 168.0
220.846863 132.0
221.071716 144.0
221.095383 192.0
221.231537 132.0
221.255234 160.0
221.939636 132.0
222.497437 216.0
222.598389 200.0
223.624054 212.0
223.686569 136.0
224.052856 176.0
224.136276 36.0
224.687881 52.0
225.013184 124.0
225.055161 132.0
225.228195 104.0
225.434357 160.0
225.607712 120.0
225.942657 160.0
225.981552 168.0
226.052643 196.0
226.373672 188.0
226.727173 236.0
226.79129 144.0
227.005981 120.0
227.031036 136.0
227.444016 40.0
227.699234 132.0
227.801346 140.0
228.348419 80.0
228.45369 112.0
228.760651 124.0
228.84494 148.0
228.866013 152.0
229.0439 64.0
229.158188 188.0
229.583206 228.0
229.6194 180.0
229.6586 148.0
230.129379 136.0
230.378387 188.0
230.67923 80.0
231.305405 204.0
231.387146 56.0
232.126465 112.0
232.372147 168.0
232.463181 136.0
233.170776 124.0
233.441345 188.0
233.654266 196.0
233.737045 184.0
233.788147 104.0
234.456528 144.0
234.671524 164.0
234.759949 148.0
234.824005 136.0
235.150467 152.0
235.474091 164.0
235.581009 212.0
236.167908 112.0
237.224335 116.0
237.270325 48.0
237.318085 200.0
237.647568 36.0
237.932999 124.0
238.012833 228.0
238.264694 56.0
238.369156 180.0
238.525894 156.0
238.796478 60.0
238.821091 136.0
238.934906 136.0
238.999512 156.0
239.07724 256.0
239.162628 116.0
239.227264 236.0
239.516724 148.0
240.028336 76.0
240.072449 144.0
240.515793 148.0
240.605316 152.0
240.636185 152.0
240.839188 76.0
241.047348 1876.0
241.096436 108.0
241.207718 260.0
241.249588 220.0
241.27623 148.0
241.404343 140.0
241.452118 84.0
241.482895 196.0
241.529297 292.0
241.550385 152.0
241.560623 124.0
241.570328 168.0
241.613968 212.0
241.659348 100.0
241.722076 116.0
241.727905 144.0
241.778366 228.0
241.832932 124.0
241.885727 128.0
241.912521 76.0
241.953262 76.0
241.977463 312.0
242.057663 85864.0
242.117462 148.0
242.145233 40.0
242.184296 76.0
242.2061 68.0
242.240616 48.0
242.291275 164.0
242.33551 116.0
242.377975 92.0
242.404114 200.0
242.460693 240.0
242.484497 96.0
242.526657 40.0
242.567505 296.0
242.601791 100.0
242.62413 132.0
242.652039 80.0
242.674301 116.0
242.714844 184.0
242.749832 92.0
242.840973 168.0
242.903183 68.0
242.953629 172.0
243.017105 144.0
243.060532 10904.0
243.130905 108.0
243.15596 72.0
243.189484 60.0
243.228653 48.0
243.278427 80.0
243.323364 108.0
243.334457 96.0
243.372284 152.0
243.38414 104.0
243.45401 88.0
243.513016 48.0
243.562271 56.0
243.682678 84.0
243.805481 148.0
243.828735 116.0
243.867218 48.0
243.920059 52.0
243.968842 52.0
244.063324 856.0
244.131485 44.0
244.212341 48.0
244.241379 108.0
244.286484 120.0
244.310013 40.0
244.335022 100.0
244.411652 92.0
244.446518 176.0
244.492355 40.0
244.538239 140.0
244.56366 148.0
244.592072 188.0
244.614334 84.0
244.636688 140.0
244.664047 100.0
244.713364 72.0
244.749832 156.0
244.778137 80.0
244.822739 96.0
244.90863 108.0
244.936478 112.0
244.998703 120.0
245.046158 160.0
245.069199 180.0
245.38324 148.0
245.442474 88.0
245.481873 252.0
245.54538 208.0
245.695114 132.0
245.913544 76.0
245.949722 108.0
246.054016 92.0
246.175797 84.0
246.34758 84.0
246.972763 56.0
247.229309 68.0
247.43277 124.0
247.476608 88.0
247.673904 196.0
247.877548 32.0
248.040512 208.0
248.419952 188.0
248.479553 40.0
248.504654 100.0
248.56427 36.0
249.04776 64.0
249.176559 56.0
249.352524 132.0
249.531708 60.0
249.556854 68.0
249.613449 208.0
249.648041 72.0
250.601822 188.0
251.267075 208.0
251.551102 32.0
251.601608 204.0
252.037476 144.0
252.065918 140.0
252.321198 144.0
252.480042 268.0
252.593903 60.0
253.280807 128.0
253.363159 56.0
254.051178 184.0
254.209747 192.0
254.485916 152.0
254.625626 52.0
254.749512 136.0
254.914734 80.0
255.068924 188.0
255.102249 116.0
255.146759 180.0
255.493408 108.0
255.665237 100.0
256.063202 100.0
256.13327 124.0
256.324432 76.0
256.632538 96.0
257.049683 276.0
257.078308 160.0
257.278076 72.0
257.437744 208.0
258.976074 120.0
259.011322 204.0
259.136261 80.0
260.268494 56.0
260.5672 96.0
261.091156 144.0
261.213379 164.0
261.24234 76.0
261.477234 132.0
261.631714 120.0
261.973083 48.0
263.086853 144.0
263.469971 124.0
263.935394 52.0
264.071228 224.0
264.210327 132.0
264.815643 136.0
264.925781 100.0
267.061707 464.0
267.208099 128.0
268.78186 128.0
268.811218 52.0
269.029175 128.0
269.09845 160.0
269.137634 80.0
269.408722 36.0
269.506744 60.0
269.565552 32.0
269.58844 220.0
269.761658 140.0
269.869537 68.0
269.970917 188.0
269.998962 172.0
270.051178 17872.0
270.140686 44.0
270.176971 92.0
270.212982 84.0
270.284943 48.0
270.428955 64.0
270.451843 180.0
270.478058 52.0
270.507507 68.0
270.573364 140.0
270.625366 160.0
270.658112 52.0
270.818573 76.0
270.855835 96.0
270.880829 212.0
270.912445 92.0
271.054199 2972.0
271.110168 64.0
271.198669 48.0
271.280609 72.0
271.470764 80.0
271.738342 56.0
271.861145 48.0
271.887421 84.0
271.98587 156.0
272.051147 244.0
272.10498 288.0
272.146729 128.0
272.202576 144.0
272.793945 116.0
272.863007 80.0
272.964935 76.0
273.053711 168.0
273.076599 84.0
273.126068 116.0
273.15567 48.0
273.372833 28.0
273.468262 72.0
273.669098 156.0
273.837036 180.0
273.932556 76.0
274.076813 112.0
274.351074 80.0
274.479675 156.0
274.542328 128.0
275.185791 204.0
275.496216 56.0
276.187103 104.0
276.359131 208.0
276.517975 176.0
276.918579 28.0
277.372528 32.0
277.700806 116.0
278.756531 76.0
281.568237 124.0
282.393768 164.0
283.063904 152.0
283.22049 172.0
283.924347 52.0
284.00592 212.0
284.669373 148.0
284.772278 148.0
284.901123 148.0
284.936493 144.0
284.961578 72.0
284.993896 152.0
285.075928 27756.0
285.192688 120.0
285.226318 164.0
285.267426 68.0
285.296875 84.0
285.323456 60.0
285.382782 76.0
285.411987 56.0
285.435516 76.0
285.484192 76.0
285.515503 56.0
285.553223 48.0
285.629547 40.0
285.714386 88.0
285.805542 52.0
285.885468 96.0
285.955414 60.0
286.009369 204.0
286.078827 4244.0
286.138763 92.0
286.181763 108.0
286.258606 84.0
286.289032 104.0
286.334045 36.0
286.414886 72.0
286.451935 40.0
286.526062 56.0
286.605652 72.0
286.637238 96.0
286.850586 132.0
286.976379 112.0
287.024902 36.0
287.079346 720.0
287.115509 144.0
287.230621 48.0
287.429688 56.0
287.564667 124.0
287.658844 80.0
287.686188 128.0
287.713196 32.0
287.797607 52.0
287.861755 40.0
287.895538 104.0
288.050903 32.0
288.082611 132.0
288.123138 104.0
288.182648 200.0
288.233337 60.0
288.256989 120.0
288.284027 96.0
288.439484 48.0
289.457855 36.0
289.638702 60.0
289.959229 28.0
290.187042 80.0
290.610321 84.0
292.758636 68.0
294.013214 56.0
294.463867 92.0
295.314911 108.0
295.561218 52.0
296.976105 112.0
299.464569 76.0
299.774628 100.0
305.598907 156.0
307.567932 76.0
312.238434 32.0
316.06601 188.0
316.919342 72.0
319.40448 80.0
323.014404 156.0
328.286987 48.0
334.344269 92.0
345.05188 116.0
345.743591 44.0
350.549072 72.0
359.364777 28.0
359.949829 64.0
379.725464 124.0
379.834076 52.0
382.752808 104.0
393.934784 68.0
404.016602 104.0
413.509125 68.0
414.691803 64.0
416.046631 96.0
417.529755 104.0
418.026062 136.0
436.339172 96.0
436.438965 52.0
436.596985 56.0
445.584137 80.0
446.689758 44.0
454.030701 104.0
456.965973 76.0
459.32608 88.0
461.380157 144.0
471.745209 76.0
477.564423 40.0
484.697968 112.0
495.43988 176.0
506.693665 80.0
525.749146 76.0
541.755249 100.0
544.649902 80.0
573.328979 88.0
589.675842 64.0
590.846069 72.0
594.480103 60.0
619.601013 112.0
628.241516 88.0
632.534119 68.0
657.412231 76.0
674.164368 88.0
677.605347 80.0
735.379089 120.0
742.705261 80.0
768.688049 60.0
775.601318 68.0
779.897583 100.0
797.853088 56.0
834.480774 36.0
837.957092 60.0
847.299377 80.0
861.944458 100.0
892.342285 48.0
914.163452 60.0
932.403259 56.0
940.870178 116.0
942.89209 76.0
967.020447 104.0
1038.186157 192.0
1051.858521 200.0
1051.923096 40.0
1091.984863 180.0
1095.578979 136.0
1103.988037 156.0
1134.303101 116.0
1155.834961 100.0
1160.420532 228.0
1160.915527 96.0
1162.726807 72.0
1165.966431 192.0
1175.248169 172.0
1186.362061 140.0
1195.022583 48.0
1197.108276 136.0
1202.506348 56.0
1205.600464 192.0
1215.27417 160.0
1230.300537 52.0
1234.059326 172.0
1276.943359 44.0
1288.948608 152.0
1293.196655 132.0
1302.065552 80.0
1327.193359 200.0
1338.907593 108.0
1350.022339 36.0
1352.978516 156.0
1353.05896 160.0
1362.123291 184.0
1373.856689 176.0
1379.019165 84.0
1384.449585 208.0
1392.298462 176.0
1392.414673 100.0
1415.278931 128.0
1419.010254 64.0
1424.361084 120.0
1428.172119 156.0
1428.345093 168.0
1433.178467 164.0
1434.93457 68.0
1443.119019 188.0
1443.202271 120.0
1444.707275 92.0
1445.047729 172.0
1448.719604 76.0
1455.409058 132.0
1467.667358 160.0
1474.912354 188.0
1476.877563 172.0
1479.946289 112.0
1480.536011 172.0
1483.646851 172.0
1491.830566 184.0
1492.637817 80.0
1496.261841 152.0
1502.81311 108.0
