>compound MLS001055442-01!
>formula C27H38N2O4
>ionization [M+H]+
>parentmass 455.290588
#inchi InChI=1S/C27H38N2O4/c1-20(2)27(19-28,22-10-12-24(31-5)26(18-22)33-7)14-8-15-29(3)16-13-21-9-11-23(30-4)25(17-21)32-6/h9-12,17-18,20H,8,13-16H2,1-7H3
#inchikey SGTNSNPWRIOYBX
#origInchi InChI=1S/C27H38N2O4.ClH/c1-20(2)27(19-28,22-10-12-24(31-5)26(18-22)33-7)14-8-15-29(3)16-13-21-9-11-23(30-4)25(17-21)32-6;/h9-12,17-18,20H,8,13-16H2,1-7H3;1H
#Ion_Source LC-ESI
#Instrument qTof
#Compound_Source NIH Pharmacologically Active Library
#PI Dorrestein
#Data_Collector VP/LMS
#Scan -1
#Precursor_MZ 455.293
#ExactMass 454.283
#Charge 1
#CAS_Number N/A
#Pubmed_ID N/A
#Smiles COc1ccc(CCN(C)CCCC(C#N)(C(C)C)c2ccc(OC)c(OC)c2)cc1OC.Cl
#INCHI_AUX N/A
#Library_Class 1
#SpectrumID CCMSLIB00000085882
#IonMode Positive
#UpdateWorkflowName UPDATE-SINGLE-ANNOTATED-GOLD
#LibraryQualityString Gold
#TaskID d252d724072548979f1f6f1ced849daf
##Scan# 1773
#SpectrumFile p4-G07_GG7_01_18403.mzXML
#LibraryName Pharm_Active_Library.mgf
#MQScore -1
#Organism Pharm_Active_Library
#TIC_Query 0
#RT_Query -1
#MZErrorPPM -1
#SharedPeaks 0
#MassDiff 0
#LibMZ -1
#SpecMZ 455.293
#SpecCharge 0
#internalFilename spec-00000.mgf

>collision 10
44.903393 232.0
44.924969 212.0
44.95092 124.0
44.993031 192.0
45.067829 188.0
45.083862 136.0
45.107922 132.0
45.121292 156.0
45.133327 156.0
45.18549 180.0
45.194859 140.0
45.241703 164.0
45.260448 168.0
45.309772 236.0
45.354229 224.0
45.395794 120.0
45.410362 176.0
45.460312 212.0
45.534027 120.0
45.637505 184.0
45.671127 240.0
45.687271 312.0
45.696686 184.0
45.711491 144.0
45.745136 120.0
45.782841 128.0
45.81382 188.0
45.82864 140.0
45.857906 212.0
45.928158 108.0
45.954514 136.0
46.024849 192.0
46.039082 168.0
46.062046 92.0
46.204632 280.0
46.298748 180.0
46.315002 208.0
46.333969 256.0
46.355648 128.0
46.386822 224.0
46.399025 252.0
46.418007 152.0
46.458698 148.0
46.498051 192.0
46.583595 96.0
46.699139 128.0
46.744034 60.0
46.828445 164.0
46.850239 152.0
46.86795 168.0
46.900661 80.0
46.968842 100.0
47.000687 176.0
47.041164 372.0
47.073936 192.0
47.119011 36.0
47.184616 172.0
47.201492 164.0
47.245861 164.0
47.263454 144.0
47.291321 152.0
47.355675 152.0
47.370743 100.0
47.414589 164.0
47.4804 176.0
47.49823 156.0
47.660236 136.0
47.700092 180.0
47.744091 104.0
47.822517 80.0
47.845921 128.0
47.855869 124.0
47.90514 48.0
47.935452 232.0
47.964394 84.0
47.998863 208.0
48.022308 164.0
48.048519 232.0
48.076118 208.0
48.113388 160.0
48.125813 136.0
48.284737 112.0
48.29995 264.0
48.319317 108.0
48.333157 28.0
48.385986 212.0
48.399597 176.0
48.429283 152.0
48.456387 84.0
48.502121 172.0
48.547878 40.0
48.672771 208.0
48.703358 168.0
48.714439 232.0
48.781425 140.0
48.795048 176.0
48.823643 156.0
48.860416 128.0
48.884071 104.0
48.934181 240.0
48.979836 164.0
48.99268 228.0
49.024727 124.0
49.041451 92.0
49.056786 216.0
49.076305 164.0
49.095829 124.0
49.161396 156.0
49.229805 160.0
49.256989 216.0
49.278694 188.0
49.387741 232.0
49.405926 148.0
49.454014 208.0
49.495506 156.0
49.606094 176.0
49.632828 72.0
49.658073 120.0
49.698757 144.0
49.756306 164.0
49.780174 124.0
49.797028 136.0
49.815289 128.0
49.844795 140.0
49.898975 176.0
49.909531 148.0
49.922112 176.0
49.96994 164.0
49.985416 232.0
50.002304 172.0
50.020603 136.0
50.046268 140.0
50.081154 172.0
50.095242 152.0
50.119194 60.0
50.137512 124.0
50.165703 200.0
50.205185 32.0
50.222111 92.0
50.260201 172.0
50.33643 156.0
50.364872 116.0
50.420555 204.0
50.44381 200.0
50.474915 108.0
50.504616 156.0
50.644749 132.0
50.664581 220.0
50.700005 116.0
50.741116 68.0
50.782204 164.0
50.806355 120.0
50.958271 196.0
50.98243 160.0
51.005169 188.0
51.069157 76.0
51.184437 208.0
51.217194 120.0
51.352207 272.0
51.376858 168.0
51.395405 148.0
51.412529 168.0
51.42252 88.0
51.436794 164.0
51.448215 104.0
51.475346 180.0
51.515335 200.0
51.548199 188.0
51.572098 144.0
51.658295 124.0
51.674034 176.0
51.684048 152.0
51.71983 160.0
51.831539 148.0
51.845871 160.0
51.863068 128.0
51.874538 208.0
51.897476 192.0
52.015121 200.0
52.035221 216.0
52.052452 160.0
52.069225 200.0
52.084049 168.0
52.122841 332.0
52.207657 196.0
52.243618 128.0
52.292542 348.0
52.305031 136.0
52.324211 48.0
52.35445 156.0
52.365974 228.0
52.422161 184.0
52.515877 164.0
52.551941 108.0
52.565605 128.0
52.589466 312.0
52.599567 108.0
52.631332 228.0
52.691315 148.0
52.761372 176.0
52.814877 176.0
52.827896 168.0
52.861176 188.0
52.944237 120.0
52.979424 156.0
53.004539 220.0
53.063969 180.0
53.079918 228.0
53.097321 160.0
53.124882 168.0
53.137939 144.0
53.181477 184.0
53.232288 152.0
53.261337 112.0
53.275864 120.0
53.296825 204.0
53.338352 120.0
53.374702 188.0
53.387791 108.0
53.399426 80.0
53.470299 224.0
53.496918 200.0
53.543865 392.0
53.553711 200.0
53.575562 168.0
53.594501 120.0
53.622513 200.0
53.63208 408.0
53.668842 116.0
53.703842 192.0
53.791149 188.0
53.909351 148.0
53.956482 132.0
54.007664 76.0
54.019367 132.0
54.034973 144.0
54.106544 168.0
54.139393 128.0
54.159245 144.0
54.307209 144.0
54.329948 84.0
54.350735 440.0
54.374702 108.0
54.416538 52.0
54.495773 184.0
54.550236 256.0
54.599949 200.0
54.610523 176.0
54.626705 196.0
54.641418 184.0
54.67112 216.0
54.715008 212.0
54.744659 204.0
54.785698 132.0
54.816898 208.0
54.849068 172.0
54.916897 192.0
54.959846 176.0
54.978863 116.0
55.032005 116.0
55.052284 60.0
55.07188 112.0
55.120636 64.0
55.216904 168.0
55.326233 172.0
55.379543 188.0
55.392693 132.0
55.406208 152.0
55.41954 120.0
55.44379 88.0
55.489655 92.0
55.545559 144.0
55.575588 184.0
55.591866 212.0
55.60149 144.0
55.619755 236.0
55.655388 128.0
55.682117 200.0
55.754589 180.0
55.777905 172.0
55.805305 304.0
55.851566 176.0
55.881321 184.0
55.931919 100.0
55.943829 44.0
55.972118 80.0
55.984032 72.0
56.0928 216.0
56.172474 196.0
56.205605 164.0
56.219582 188.0
56.234707 208.0
56.324097 52.0
56.349335 112.0
56.373348 220.0
56.400036 368.0
56.466095 108.0
56.500504 232.0
56.533421 220.0
56.55587 48.0
56.630737 124.0
56.651711 160.0
56.773247 144.0
56.879654 152.0
56.916409 164.0
56.93605 128.0
56.981777 196.0
57.015659 180.0
57.057861 264.0
57.069176 244.0
57.09193 244.0
57.165226 168.0
57.177914 132.0
57.227318 112.0
57.252541 176.0
57.282665 188.0
57.323349 196.0
57.362537 164.0
57.38036 224.0
57.439445 144.0
57.454529 360.0
57.471127 32.0
57.501308 144.0
57.548107 212.0
57.574013 180.0
57.668964 196.0
57.684078 124.0
57.703735 208.0
57.727928 48.0
57.744564 164.0
57.774818 160.0
57.803566 364.0
57.844433 156.0
57.85503 216.0
57.870171 116.0
57.942871 220.0
57.956509 216.0
58.023201 164.0
58.077793 180.0
58.095009 184.0
58.173393 108.0
58.240211 140.0
58.305145 168.0
58.369396 200.0
58.387646 60.0
58.407417 160.0
58.42263 140.0
58.435513 196.0
58.520039 192.0
58.555061 208.0
58.568771 180.0
58.634289 156.0
58.654102 84.0
58.673923 148.0
58.686119 144.0
58.733398 188.0
58.75219 176.0
58.780693 48.0
58.826485 200.0
58.861599 208.0
58.890617 160.0
58.941036 184.0
58.992809 160.0
59.043461 296.0
59.054169 52.0
59.077114 108.0
59.110775 152.0
59.127609 108.0
59.157124 212.0
59.1707 188.0
59.188324 212.0
59.216412 184.0
59.254707 172.0
59.35434 160.0
59.381947 92.0
59.401886 244.0
59.449451 128.0
59.464798 148.0
59.500107 56.0
59.531868 152.0
59.54771 92.0
59.563068 160.0
59.59687 148.0
59.613773 240.0
59.629143 128.0
59.701527 196.0
59.713707 188.0
59.809105 148.0
59.987797 56.0
60.00938 188.0
60.040222 232.0
60.09285 212.0
60.211536 168.0
60.225437 184.0
60.294968 136.0
60.352165 164.0
60.454262 188.0
60.475929 232.0
60.526569 192.0
60.629265 212.0
60.641663 188.0
60.677319 60.0
60.691273 236.0
60.832462 180.0
60.849182 140.0
60.860764 140.0
60.893021 80.0
60.908554 168.0
60.934963 180.0
60.953609 132.0
61.025623 268.0
61.124664 144.0
61.141781 180.0
61.152676 172.0
61.253891 228.0
61.274143 188.0
61.299076 232.0
61.334068 212.0
61.389492 180.0
61.406651 44.0
61.443878 120.0
61.497147 168.0
61.615215 124.0
61.645519 156.0
61.687298 208.0
61.704918 168.0
61.733063 148.0
61.744011 144.0
61.756523 200.0
61.820671 164.0
62.016445 140.0
62.044662 80.0
62.087002 152.0
62.107391 156.0
62.18668 196.0
62.209393 176.0
62.221951 152.0
62.257401 264.0
62.278484 156.0
62.355476 168.0
62.380627 188.0
62.419933 160.0
62.476559 196.0
62.504879 228.0
62.547058 220.0
62.597755 124.0
62.60878 128.0
62.671795 196.0
62.682823 132.0
62.735119 180.0
62.775753 208.0
62.790028 48.0
62.804222 132.0
62.838928 196.0
62.861019 76.0
62.881538 176.0
62.933632 172.0
62.957321 220.0
62.975117 164.0
62.999969 260.0
63.077404 148.0
63.118511 312.0
63.180199 100.0
63.200768 184.0
63.24033 128.0
63.292576 204.0
63.317913 136.0
63.333752 192.0
63.384449 220.0
63.401882 144.0
63.447483 224.0
63.453125 172.0
63.493839 140.0
63.506527 48.0
63.601734 72.0
63.619194 360.0
63.676361 212.0
63.709816 192.0
63.776463 200.0
63.797428 168.0
63.814617 116.0
63.828926 204.0
63.85437 188.0
63.874165 180.0
63.886185 200.0
63.932331 156.0
63.946655 124.0
63.970531 40.0
64.061302 188.0
64.083755 128.0
64.12529 208.0
64.190659 176.0
64.273361 100.0
64.401077 164.0
64.425041 88.0
64.447411 60.0
64.48896 168.0
64.581474 168.0
64.607292 100.0
64.639297 212.0
64.650497 216.0
64.687752 232.0
64.708122 184.0
64.731033 184.0
64.837883 116.0
64.914833 140.0
64.936485 176.0
64.958084 176.0
65.009483 164.0
65.052818 148.0
65.078812 168.0
65.096291 160.0
65.115852 256.0
65.176491 308.0
65.245605 156.0
65.261681 156.0
65.32119 224.0
65.348541 168.0
65.385551 200.0
65.477325 80.0
65.491821 68.0
65.519791 388.0
65.630417 112.0
65.696548 128.0
65.717522 112.0
65.740112 128.0
65.76432 112.0
65.790154 116.0
65.849899 248.0
65.932297 104.0
66.048714 160.0
66.082413 164.0
66.119667 188.0
66.150177 228.0
66.17495 200.0
66.197617 148.0
66.234871 148.0
66.254311 180.0
66.372627 188.0
66.419662 176.0
66.43264 156.0
66.455826 180.0
66.473206 260.0
66.515404 208.0
66.541382 68.0
66.573853 56.0
66.607964 140.0
66.672958 168.0
66.726501 256.0
66.746346 168.0
66.757942 160.0
66.764351 204.0
66.798157 172.0
66.825813 164.0
66.85511 184.0
66.96273 152.0
67.003288 120.0
67.058693 88.0
67.102707 140.0
67.122276 156.0
67.166313 72.0
67.208725 124.0
67.242996 64.0
67.25769 120.0
67.295654 192.0
67.3377 112.0
67.376938 188.0
67.511429 228.0
67.525658 100.0
67.54834 180.0
67.713135 200.0
67.760269 152.0
67.784523 308.0
67.808914 164.0
67.871208 212.0
67.897446 136.0
67.940094 164.0
68.059914 164.0
68.084549 140.0
68.097458 172.0
68.150749 200.0
68.18148 152.0
68.206131 92.0
68.234077 176.0
68.260391 208.0
68.281166 120.0
68.29657 164.0
68.361641 176.0
68.399155 140.0
68.449631 156.0
68.472687 76.0
68.507278 124.0
68.53035 72.0
68.541878 64.0
68.5774 252.0
68.621368 180.0
68.653984 160.0
68.682022 192.0
68.871803 144.0
68.873962 200.0
68.898277 36.0
69.01963 76.0
69.043739 184.0
69.06855 192.0
69.121498 184.0
69.144669 200.0
69.192673 204.0
69.222473 144.0
69.240692 28.0
69.293701 220.0
69.313583 132.0
69.418022 140.0
69.434608 128.0
69.45285 124.0
69.474419 168.0
69.633774 172.0
69.659821 144.0
69.683609 172.0
69.705338 160.0
69.735352 208.0
69.75341 176.0
69.886459 148.0
69.904427 216.0
69.939438 212.0
70.029633 164.0
70.08461 88.0
70.101273 96.0
70.176285 88.0
70.202965 184.0
70.253731 184.0
70.341454 164.0
70.391541 108.0
70.4049 164.0
70.456688 148.0
70.488434 120.0
70.516846 76.0
70.692451 184.0
70.72641 236.0
70.774475 140.0
70.859901 180.0
70.885033 164.0
70.905144 160.0
70.942024 168.0
70.960464 184.0
71.022514 168.0
71.123192 148.0
71.141663 160.0
71.165169 252.0
71.177185 204.0
71.205467 236.0
71.255867 72.0
71.296616 168.0
71.351669 296.0
71.419479 136.0
71.440804 128.0
71.572083 124.0
71.593979 44.0
71.609131 152.0
71.695061 192.0
71.742256 112.0
71.760803 140.0
71.779007 212.0
71.82489 136.0
71.910622 208.0
71.9599 148.0
72.005493 192.0
72.027451 192.0
72.038773 148.0
72.084137 196.0
72.115318 108.0
72.166039 172.0
72.179565 160.0
72.198166 140.0
72.230301 120.0
72.269218 68.0
72.284706 156.0
72.308136 48.0
72.347069 204.0
72.386917 128.0
72.468742 176.0
72.482109 160.0
72.538506 132.0
72.560951 164.0
72.580887 156.0
72.598366 196.0
72.826973 200.0
72.886436 80.0
72.935722 172.0
72.978226 132.0
73.042854 136.0
73.126228 160.0
73.156868 176.0
73.168785 192.0
73.181946 176.0
73.223282 196.0
73.253937 144.0
73.270973 268.0
73.284607 128.0
73.340195 208.0
73.364716 164.0
73.410751 192.0
73.528763 164.0
73.58992 180.0
73.608994 236.0
73.697533 152.0
73.730003 268.0
73.824028 148.0
73.883896 132.0
73.942078 120.0
73.986244 140.0
74.104759 200.0
74.178459 156.0
74.19178 156.0
74.241898 208.0
74.259941 184.0
74.29274 232.0
74.322525 192.0
74.348267 120.0
74.422951 132.0
74.449562 124.0
74.470169 208.0
74.494217 124.0
74.542328 172.0
74.583572 188.0
74.69191 116.0
74.717712 120.0
74.746964 176.0
74.862305 208.0
74.874359 216.0
74.898521 144.0
74.943687 180.0
75.001862 284.0
75.015656 180.0
75.055305 144.0
75.105324 164.0
75.132065 156.0
75.262032 180.0
75.31794 160.0
75.390205 212.0
75.409218 188.0
75.46627 88.0
75.500854 232.0
75.51815 116.0
75.585625 192.0
75.621964 160.0
75.648956 284.0
75.679092 156.0
75.691216 108.0
75.720657 124.0
75.755302 156.0
75.812119 192.0
75.845413 180.0
76.022324 92.0
76.079605 180.0
76.175117 104.0
76.19075 196.0
76.237671 136.0
76.300247 176.0
76.359367 188.0
76.380241 144.0
76.41584 156.0
76.462021 208.0
76.507278 136.0
76.524689 104.0
76.601318 60.0
76.620483 208.0
76.653595 188.0
76.667534 48.0
76.72506 180.0
76.752678 176.0
76.833191 196.0
76.847145 96.0
76.876808 152.0
76.978065 196.0
77.051254 164.0
77.074142 220.0
77.091568 140.0
77.107346 28.0
77.186935 144.0
77.399498 192.0
77.42485 236.0
77.453789 168.0
77.491051 208.0
77.504601 128.0
77.57312 220.0
77.601006 192.0
77.720284 124.0
77.742043 204.0
77.780739 232.0
77.818573 128.0
77.843155 180.0
77.869499 176.0
77.894096 152.0
77.943291 148.0
77.962616 212.0
77.974922 68.0
77.997772 160.0
78.031067 136.0
78.057549 140.0
78.182457 148.0
78.194771 192.0
78.230598 148.0
78.263428 128.0
78.291611 180.0
78.340927 172.0
78.360306 212.0
78.474792 172.0
78.545418 168.0
78.600113 40.0
78.660828 180.0
78.736046 92.0
78.766075 144.0
78.785507 72.0
78.843536 352.0
78.960503 48.0
78.974655 96.0
78.988808 180.0
79.008263 56.0
79.068428 160.0
79.099762 160.0
79.167572 176.0
79.299568 188.0
79.378456 128.0
79.421028 212.0
79.50264 224.0
79.529182 176.0
79.555893 116.0
79.571869 140.0
79.5914 132.0
79.637314 160.0
79.639931 136.0
79.647049 204.0
79.763741 80.0
79.776184 148.0
79.802849 168.0
79.834862 132.0
79.859756 76.0
79.947174 184.0
79.983498 156.0
79.990128 212.0
80.053757 160.0
80.07869 124.0
80.10363 204.0
80.144608 124.0
80.165985 224.0
80.206985 240.0
80.265816 148.0
80.29586 184.0
80.360359 188.0
80.41925 188.0
80.451378 32.0
80.476372 152.0
80.510307 132.0
80.54245 208.0
80.567467 156.0
80.616524 140.0
80.692574 200.0
80.733948 200.0
80.755165 180.0
80.815987 132.0
80.83567 208.0
80.860725 132.0
80.883301 232.0
80.967888 164.0
81.048767 44.0
81.086403 148.0
81.106117 92.0
81.118668 152.0
81.19397 156.0
81.348351 112.0
81.368034 168.0
81.407539 212.0
81.427292 156.0
81.443459 188.0
81.493767 100.0
81.516479 156.0
81.671745 168.0
81.711319 52.0
81.729317 128.0
81.752708 420.0
81.781502 160.0
81.900345 180.0
81.912956 184.0
81.954391 200.0
81.990433 216.0
82.004852 200.0
82.086731 212.0
82.122055 172.0
82.221291 244.0
82.261002 128.0
82.281219 128.0
82.315163 128.0
82.340446 156.0
82.356705 88.0
82.371155 124.0
82.385605 164.0
82.436661 156.0
82.49601 228.0
82.535622 136.0
82.551903 128.0
82.56456 120.0
82.640533 104.0
82.709305 176.0
82.725601 172.0
82.747322 104.0
82.76815 168.0
82.785355 208.0
82.848747 116.0
82.874115 156.0
82.888611 140.0
82.901299 160.0
82.950233 108.0
83.088066 140.0
83.123215 204.0
83.142502 132.0
83.253242 136.0
83.267776 200.0
83.331352 164.0
83.393669 220.0
83.444046 232.0
83.466278 140.0
83.489502 148.0
83.544075 156.0
83.656906 144.0
83.713348 156.0
83.784393 44.0
83.809898 140.0
83.833588 200.0
83.921089 124.0
84.014107 172.0
84.044273 172.0
84.098045 208.0
84.160713 160.0
84.191162 104.0
84.238655 216.0
84.277016 192.0
84.302605 152.0
84.348297 116.0
84.368408 128.0
84.389778 296.0
84.441879 112.0
84.492767 64.0
84.510925 144.0
84.578781 152.0
84.685501 204.0
84.729118 340.0
84.809578 160.0
84.86245 172.0
84.881081 88.0
84.979065 144.0
85.005821 180.0
85.081429 168.0
85.259262 124.0
85.284988 144.0
85.374184 80.0
85.400337 192.0
85.533318 120.0
85.629066 184.0
85.666069 180.0
85.756203 80.0
85.811501 136.0
85.84285 136.0
85.938774 124.0
85.975677 168.0
86.007057 168.0
86.040283 164.0
86.11129 168.0
86.298958 104.0
86.378479 176.0
86.414177 244.0
86.4673 160.0
86.511719 204.0
86.580231 116.0
86.641365 212.0
86.667297 92.0
86.76963 152.0
86.84713 228.0
86.925056 168.0
86.984375 264.0
87.084717 200.0
87.108864 148.0
87.22123 192.0
87.261063 220.0
87.279854 100.0
87.408211 140.0
87.42868 200.0
87.447289 164.0
87.480797 132.0
87.521759 204.0
87.536201 196.0
87.625755 120.0
87.678238 200.0
87.724838 156.0
87.762611 280.0
87.795692 108.0
87.846054 204.0
87.872177 60.0
87.928612 216.0
87.963623 120.0
87.982292 48.0
88.21582 184.0
88.273781 136.0
88.298096 220.0
88.32428 104.0
88.411659 240.0
88.455269 288.0
88.498413 356.0
88.543274 96.0
88.597595 196.0
88.622879 132.0
88.700668 60.0
88.774353 188.0
88.887886 156.0
88.90699 168.0
88.926018 176.0
88.949135 228.0
88.980202 164.0
89.004608 192.0
89.040291 424.0
89.138519 208.0
89.16053 144.0
89.192482 148.0
89.216927 84.0
89.243248 52.0
89.312828 220.0
89.374588 184.0
89.405022 212.0
89.429489 232.0
89.444801 148.0
89.50856 120.0
89.521744 160.0
89.553032 144.0
89.587105 268.0
89.614044 208.0
89.656723 136.0
89.67247 180.0
89.778046 224.0
89.795021 116.0
89.81694 232.0
89.876144 164.0
89.891235 160.0
89.945976 188.0
89.964851 120.0
89.996948 60.0
90.044746 180.0
90.069923 144.0
90.093269 88.0
90.115944 136.0
90.155624 164.0
90.178307 196.0
90.260429 192.0
90.29364 136.0
90.323906 116.0
90.354172 180.0
90.369308 88.0
90.39959 116.0
90.416618 192.0
90.512283 272.0
90.521538 76.0
90.527687 228.0
90.556656 220.0
90.644424 180.0
90.676094 136.0
90.72464 144.0
90.776573 120.0
90.829681 220.0
90.861572 148.0
90.933296 204.0
91.054932 648.0
91.074547 168.0
91.133049 212.0
91.183258 168.0
91.260796 140.0
91.295021 200.0
91.310486 184.0
91.369209 44.0
91.38633 156.0
91.418678 136.0
91.498627 48.0
91.532097 180.0
91.601471 232.0
91.618614 176.0
91.708176 144.0
91.771088 156.0
91.851189 164.0
91.921783 124.0
91.950409 164.0
92.05674 168.0
92.10125 140.0
92.147102 76.0
92.162384 160.0
92.208252 100.0
92.275162 192.0
92.368866 184.0
92.389908 204.0
92.416695 208.0
92.456886 68.0
92.571754 200.0
92.613884 192.0
92.650284 220.0
92.663696 128.0
92.822792 232.0
92.857307 44.0
92.874573 68.0
92.970741 132.0
93.043449 76.0
93.071815 204.0
93.120262 160.0
93.152916 176.0
93.214401 264.0
93.26104 256.0
93.29879 172.0
93.312431 216.0
93.327812 108.0
93.363289 196.0
93.397049 192.0
93.410515 160.0
93.550995 172.0
93.606834 196.0
93.638046 192.0
93.693367 212.0
93.786011 156.0
93.799507 112.0
94.041206 472.0
94.06237 300.0
94.154366 184.0
94.193169 136.0
94.220215 120.0
94.247261 96.0
94.261589 164.0
94.31517 144.0
94.367104 148.0
94.44059 192.0
94.454132 116.0
94.514107 176.0
94.527649 180.0
94.624435 168.0
94.657356 176.0
94.680595 124.0
94.713463 136.0
94.750328 176.0
94.798767 216.0
94.841408 180.0
94.88018 176.0
94.920898 164.0
94.981941 200.0
95.012062 68.0
95.043106 148.0
95.067513 216.0
95.084229 376.0
95.191498 208.0
95.225594 188.0
95.263962 208.0
95.29747 304.0
95.32856 336.0
95.359657 172.0
95.373268 104.0
95.404366 136.0
95.419922 124.0
95.471893 160.0
95.533356 136.0
95.606667 156.0
95.647537 120.0
95.680634 136.0
95.715683 168.0
95.748787 52.0
95.772163 116.0
95.822815 200.0
95.838402 68.0
95.939751 164.0
95.957298 140.0
96.012573 220.0
96.047005 212.0
96.081749 648.0
96.099678 384.0
96.120346 128.0
96.158226 72.0
96.242172 160.0
96.259743 188.0
96.285133 132.0
96.447304 380.0
96.500092 216.0
96.556801 64.0
96.774574 156.0
96.822975 224.0
96.869987 192.0
96.897278 172.0
96.926804 64.0
96.950317 248.0
96.995399 128.0
97.032112 220.0
97.07579 192.0
97.119225 192.0
97.140015 204.0
97.199379 176.0
97.220963 148.0
97.260979 144.0
97.291481 216.0
97.328934 176.0
97.395706 72.0
97.461792 232.0
97.535225 108.0
97.637466 64.0
97.68074 144.0
97.753227 176.0
97.769279 132.0
97.796837 212.0
97.886711 148.0
97.996521 248.0
98.084427 124.0
98.117935 164.0
98.157372 144.0
98.230354 184.0
98.269806 176.0
98.340851 144.0
98.356644 28.0
98.372437 80.0
98.393356 196.0
98.44944 184.0
98.573898 196.0
98.598068 156.0
98.617378 156.0
98.643074 148.0
98.670753 176.0
98.694481 308.0
98.718208 128.0
98.755791 172.0
98.797333 212.0
98.87252 160.0
98.90419 88.0
98.953682 204.0
99.017052 172.0
99.032433 204.0
99.104515 212.0
99.141869 40.0
99.17556 132.0
99.217194 196.0
99.257973 212.0
99.282631 164.0
99.306427 132.0
99.338165 180.0
99.459213 168.0
99.486038 188.0
99.514801 160.0
99.538635 72.0
99.566437 132.0
99.604012 148.0
99.651855 244.0
99.679626 184.0
99.69014 164.0
99.765572 148.0
99.783035 152.0
99.800926 136.0
99.902367 128.0
99.970016 84.0
99.983948 36.0
100.053413 156.0
100.061295 140.0
100.066032 136.0
100.076843 172.0
100.110451 152.0
100.141235 208.0
100.167313 172.0
100.27948 344.0
100.328552 156.0
100.434242 148.0
100.450203 120.0
100.517418 64.0
100.549973 124.0
100.569611 212.0
100.627823 208.0
100.665764 208.0
100.715691 128.0
100.737671 128.0
100.763168 188.0
100.807602 120.0
100.857567 120.0
100.939644 152.0
100.98954 144.0
101.103584 52.0
101.121399 204.0
101.143616 180.0
101.219696 204.0
101.330315 140.0
101.35894 176.0
101.37394 204.0
101.395988 176.0
101.48024 136.0
101.512268 120.0
101.657707 128.0
101.712906 148.0
101.800537 124.0
101.829361 140.0
101.884216 184.0
102.030312 152.0
102.048409 612.0
102.086723 156.0
102.124832 184.0
102.138908 188.0
102.22744 196.0
102.272247 168.0
102.328087 124.0
102.366341 124.0
102.42878 124.0
102.485191 172.0
102.501312 196.0
102.515419 192.0
102.537369 164.0
102.619507 168.0
102.635139 164.0
102.662582 136.0
102.704941 180.0
102.727821 200.0
102.755318 144.0
102.76796 168.0
102.801788 176.0
102.840134 304.0
102.912811 160.0
102.926949 176.0
102.957237 72.0
102.971375 156.0
103.013794 268.0
103.053734 3976.0
103.088356 124.0
103.113731 148.0
103.136787 148.0
103.181534 248.0
103.21389 184.0
103.306923 172.0
103.329178 64.0
103.367813 172.0
103.428719 256.0
103.521477 168.0
103.559959 160.0
103.604523 156.0
103.623367 160.0
103.643021 84.0
103.681526 144.0
103.738281 164.0
103.780853 204.0
103.855896 168.0
103.937042 168.0
103.973572 140.0
104.007858 200.0
104.060242 1968.0
104.092979 108.0
104.113663 88.0
104.18882 140.0
104.217262 204.0
104.239616 136.0
104.26123 232.0
104.288391 112.0
104.501923 188.0
104.631149 188.0
104.664764 200.0
104.701424 176.0
104.719749 100.0
104.78698 212.0
104.803108 144.0
104.835953 112.0
104.858299 160.0
104.921494 188.0
104.941879 112.0
104.946213 164.0
105.003815 324.0
105.033005 424.0
105.06955 12024.0
105.203033 180.0
105.217323 120.0
105.235703 168.0
105.26429 164.0
105.294441 188.0
105.392982 308.0
105.449615 112.0
105.468597 120.0
105.552422 28.0
105.566734 136.0
105.595367 72.0
105.632187 152.0
105.664276 140.0
105.709938 188.0
105.744797 128.0
105.814713 64.0
105.859383 116.0
105.916725 100.0
105.945091 284.0
105.969994 112.0
106.04377 464.0
106.072487 828.0
106.091858 200.0
106.12719 156.0
106.149185 124.0
106.166466 216.0
106.179688 164.0
106.194511 100.0
106.25499 76.0
106.282364 188.0
106.339127 92.0
106.35965 144.0
106.40892 196.0
106.427399 56.0
106.460899 192.0
106.519821 196.0
106.536255 156.0
106.616394 140.0
106.647224 108.0
106.66983 168.0
106.869331 124.0
106.906372 160.0
106.94136 152.0
106.958 168.0
106.986649 160.0
107.002472 140.0
107.048759 3356.0
107.070602 656.0
107.157593 136.0
107.196739 112.0
107.211166 132.0
107.237961 132.0
107.510208 104.0
107.528778 180.0
107.548378 168.0
107.673843 200.0
107.700157 84.0
107.726135 160.0
107.740807 148.0
107.74437 140.0
107.793129 164.0
107.84893 152.0
107.912888 128.0
107.935768 88.0
107.98333 128.0
108.051018 328.0
108.076492 120.0
108.101257 136.0
108.126091 152.0
108.179909 64.0
108.196472 156.0
108.227531 152.0
108.248238 56.0
108.277229 144.0
108.347336 152.0
108.408463 268.0
108.476151 44.0
108.544571 168.0
108.589943 164.0
108.623383 184.0
108.656578 152.0
108.761162 176.0
108.814316 156.0
108.89946 100.0
108.934769 172.0
108.949318 188.0
109.025627 348.0
109.061478 328.0
109.082596 172.0
109.354813 184.0
109.456825 128.0
109.485977 216.0
109.51722 156.0
109.590134 132.0
109.652657 92.0
109.669327 52.0
109.696426 132.0
109.896645 172.0
110.023964 204.0
110.063637 156.0
110.094246 700.0
110.126289 124.0
110.222389 136.0
110.237015 40.0
110.266281 164.0
110.310173 200.0
110.330063 148.0
110.370804 204.0
110.424156 196.0
110.498398 136.0
110.533966 144.0
110.561493 132.0
110.696236 232.0
110.772652 128.0
110.898598 156.0
110.929825 236.0
111.011597 216.0
111.082909 216.0
111.101791 140.0
111.137672 156.0
111.257095 164.0
111.288589 76.0
111.304527 176.0
111.343185 76.0
111.406204 144.0
111.431412 140.0
111.47554 116.0
111.515472 136.0
111.538597 176.0
111.559616 72.0
111.591156 176.0
111.616386 172.0
111.666855 168.0
111.702614 80.0
111.72155 156.0
111.809586 196.0
111.830978 180.0
111.868866 172.0
111.995216 260.0
112.025864 108.0
112.079285 172.0
112.10688 240.0
112.140602 188.0
112.178543 180.0
112.305061 108.0
112.326157 104.0
112.387344 176.0
112.414772 192.0
112.52243 148.0
112.583664 148.0
112.676605 208.0
112.695625 120.0
112.716751 108.0
112.784386 104.0
112.852036 208.0
112.879524 172.0
112.914368 168.0
113.018196 120.0
113.042412 108.0
113.068146 256.0
113.166557 124.0
113.203308 108.0
113.313454 48.0
113.355835 224.0
113.450027 100.0
113.471283 172.0
113.497856 168.0
113.537231 156.0
113.572533 172.0
113.690903 148.0
113.733353 144.0
113.769096 172.0
113.805534 104.0
113.907478 176.0
113.945717 40.0
114.022217 240.0
114.037094 220.0
114.12426 156.0
114.162537 164.0
114.234856 88.0
114.311447 132.0
114.405106 176.0
114.494537 160.0
114.517967 176.0
114.541397 216.0
114.592522 176.0
114.633011 312.0
114.704796 212.0
114.754517 56.0
114.777969 80.0
114.812393 140.0
114.987038 144.0
115.008385 200.0
115.054985 520.0
115.14061 172.0
115.189888 196.0
115.224068 168.0
115.239029 148.0
115.268944 188.0
115.324509 52.0
115.442368 192.0
115.564026 152.0
115.598267 96.0
115.613251 152.0
115.735268 296.0
115.818794 176.0
115.863777 168.0
115.885208 268.0
115.978058 244.0
115.998795 164.0
116.03524 188.0
116.076935 224.0
116.192879 144.0
116.342041 164.0
116.412895 124.0
116.477333 156.0
116.500961 88.0
116.524597 188.0
116.578316 196.0
116.601952 192.0
116.634193 140.0
116.665108 124.0
116.681488 108.0
116.735245 144.0
116.911308 200.0
116.950394 224.0
116.969772 220.0
117.027901 112.0
117.069916 436.0
117.10112 152.0
117.185135 184.0
117.20668 144.0
117.258347 148.0
117.318756 108.0
117.342476 120.0
117.368851 52.0
117.430893 180.0
117.447426 180.0
117.47403 224.0
117.493446 132.0
117.522369 168.0
117.545235 168.0
117.620773 80.0
117.665741 164.0
117.68338 144.0
117.715775 40.0
117.78273 192.0
117.876701 168.0
117.921356 152.0
117.944794 204.0
118.040337 3744.0
118.061775 380.0
118.099731 116.0
118.141579 156.0
118.254105 48.0
118.295235 176.0
118.531319 188.0
118.63102 64.0
118.713409 220.0
118.752449 184.0
118.852249 204.0
118.866936 156.0
118.910843 44.0
118.93689 152.0
118.968559 136.0
119.006363 72.0
119.0476 3052.0
119.07151 124.0
119.115707 80.0
119.210548 56.0
119.234459 76.0
119.312714 188.0
119.34729 168.0
119.417145 160.0
119.454071 148.0
119.478004 184.0
119.499756 228.0
119.525871 128.0
119.636871 160.0
119.678238 132.0
119.743576 216.0
119.87429 168.0
119.911339 68.0
119.976662 144.0
120.002899 88.0
120.055916 2580.0
120.135941 168.0
120.207939 116.0
120.266022 124.0
120.288696 184.0
120.302956 136.0
120.338089 112.0
120.393509 192.0
120.436539 132.0
120.529892 176.0
120.596695 76.0
120.625114 352.0
120.668839 196.0
120.695076 224.0
120.77256 196.0
120.791306 96.0
120.854759 136.0
120.872261 120.0
120.935043 216.0
120.994835 104.0
121.029694 152.0
121.063675 5752.0
121.140343 100.0
121.177818 184.0
121.203415 352.0
121.244553 32.0
121.264282 188.0
121.308121 96.0
121.395821 52.0
121.459427 148.0
121.558159 132.0
121.579033 212.0
121.608635 116.0
121.656929 192.0
121.839218 228.0
121.855598 176.0
121.887154 220.0
121.924911 64.0
122.03347 156.0
122.071457 2116.0
122.094727 2424.0
122.162392 144.0
122.187187 176.0
122.222946 168.0
122.296951 212.0
122.341148 192.0
122.38028 76.0
122.492134 152.0
122.547676 88.0
122.57412 180.0
122.606644 116.0
122.624809 212.0
122.666687 144.0
122.710266 144.0
122.737671 180.0
122.759773 128.0
122.823792 148.0
122.87841 104.0
122.993164 172.0
123.04335 656.0
123.082207 644.0
123.099503 364.0
123.20929 60.0
123.238304 152.0
123.260406 196.0
123.304604 132.0
123.352341 188.0
123.483696 172.0
123.554482 44.0
123.589882 152.0
123.636353 168.0
123.775818 132.0
123.888779 176.0
123.9198 60.0
123.959686 144.0
123.981842 92.0
124.008438 156.0
124.053444 1048.0
124.086029 164.0
124.110252 52.0
124.129585 256.0
124.15921 48.0
124.192474 128.0
124.247932 172.0
124.267906 176.0
124.28344 136.0
124.33448 168.0
124.410782 224.0
124.502464 156.0
124.538742 64.0
124.789124 216.0
124.878822 348.0
124.927757 60.0
124.945557 196.0
125.001183 156.0
125.053307 200.0
125.079086 228.0
125.116928 100.0
125.179276 144.0
125.370865 228.0
125.413208 132.0
125.517998 72.0
125.546806 196.0
125.580444 188.0
125.605721 108.0
125.680275 160.0
125.707611 160.0
125.727699 148.0
125.74778 236.0
125.776802 220.0
125.801353 156.0
125.883972 144.0
125.899605 192.0
125.919983 160.0
126.029167 160.0
126.062683 60.0
126.098442 148.0
126.129738 148.0
126.174446 208.0
126.243172 208.0
126.279915 196.0
126.298264 300.0
126.315338 48.0
126.333237 136.0
126.365585 280.0
126.478104 152.0
126.512276 232.0
126.552574 160.0
126.568245 148.0
126.642151 168.0
126.674088 220.0
126.749695 96.0
126.93351 168.0
126.955933 236.0
127.020981 76.0
127.074821 140.0
127.198257 192.0
127.245026 192.0
127.310524 96.0
127.381203 188.0
127.425079 48.0
127.472267 192.0
127.576019 200.0
127.688423 136.0
127.706085 144.0
127.895096 64.0
127.915352 264.0
127.96875 156.0
128.072983 32.0
128.109955 184.0
128.154755 228.0
128.199158 116.0
128.298325 180.0
128.338913 104.0
128.521423 184.0
128.524734 168.0
128.540802 192.0
128.686401 80.0
128.774475 188.0
128.925842 212.0
128.978912 220.0
129.000443 144.0
129.034348 180.0
129.090881 172.0
129.181351 136.0
129.251495 192.0
129.382767 108.0
129.413391 164.0
129.437103 148.0
129.529968 152.0
129.593399 352.0
129.668182 224.0
129.849579 72.0
129.947113 228.0
130.037888 148.0
130.132675 160.0
130.191238 88.0
130.235428 156.0
130.289948 196.0
130.430847 204.0
130.460403 140.0
130.511749 116.0
130.518311 68.0
130.527573 148.0
130.578186 180.0
130.587296 144.0
130.618881 204.0
130.646881 192.0
130.772537 164.0
130.803909 192.0
130.828949 112.0
130.888153 92.0
130.996826 140.0
131.024811 212.0
131.049347 2452.0
131.081711 140.0
131.114578 132.0
131.147873 52.0
131.236786 176.0
131.305191 164.0
131.332565 132.0
131.398727 172.0
131.442078 104.0
131.483154 84.0
131.542511 132.0
131.590454 216.0
131.665802 156.0
131.725189 140.0
131.791443 164.0
131.887436 196.0
131.93544 76.0
132.055145 1188.0
132.08638 160.0
132.148148 124.0
132.196503 176.0
132.283173 176.0
132.351868 152.0
132.431671 220.0
132.464081 120.0
132.507614 176.0
132.635956 200.0
132.686722 136.0
132.705063 192.0
132.727661 60.0
132.768936 204.0
132.810226 144.0
132.886688 176.0
132.9104 180.0
132.931824 112.0
132.984604 160.0
133.028091 760.0
133.064728 11492.0
133.096634 120.0
133.185287 80.0
133.230316 96.0
133.259064 164.0
133.276276 76.0
133.317627 76.0
133.359009 196.0
133.416473 68.0
133.43486 176.0
133.478546 80.0
133.563644 220.0
133.602539 240.0
133.660278 60.0
133.884048 172.0
133.946579 212.0
133.953232 116.0
133.987244 120.0
134.034256 128.0
134.07164 15604.0
134.123199 124.0
134.144424 108.0
134.215424 68.0
134.237534 224.0
134.266159 48.0
134.304077 64.0
134.353806 144.0
134.370712 148.0
134.433899 180.0
134.459961 176.0
134.503571 164.0
134.516708 48.0
134.523758 132.0
134.570129 176.0
134.596161 100.0
134.621567 100.0
134.672379 52.0
134.760162 228.0
134.782547 152.0
134.806381 40.0
134.840927 76.0
134.88266 56.0
134.935822 92.0
135.014236 176.0
135.017578 136.0
135.04332 11556.0
135.079056 8436.0
135.164825 132.0
135.181015 92.0
135.24205 136.0
135.273605 108.0
135.294434 60.0
135.317581 196.0
135.336105 200.0
135.363892 152.0
135.383453 172.0
135.491287 164.0
135.518967 216.0
135.704529 224.0
135.787277 164.0
135.809601 180.0
135.864563 100.0
135.887756 68.0
135.94577 200.0
135.96434 160.0
136.00441 120.0
136.049606 2356.0
136.082245 1136.0
136.124527 156.0
136.187225 76.0
136.217422 100.0
136.23494 148.0
136.277832 100.0
136.298752 148.0
136.412628 184.0
136.445175 172.0
136.46611 120.0
136.492569 148.0
136.57309 76.0
136.65683 124.0
136.691742 144.0
136.726654 64.0
136.761566 48.0
136.819763 204.0
136.85701 52.0
136.882629 136.0
136.920609 116.0
136.968796 168.0
136.985107 32.0
137.013062 140.0
137.057938 2708.0
137.095139 824.0
137.164948 116.0
137.186432 200.0
137.250809 252.0
137.26767 160.0
137.309799 244.0
137.328476 156.0
137.406799 68.0
137.453125 180.0
137.484085 148.0
137.505096 84.0
137.544205 168.0
137.563446 176.0
137.610138 128.0
137.656845 88.0
137.694214 128.0
137.78064 160.0
137.825882 164.0
137.881653 336.0
137.918518 200.0
137.93721 64.0
137.96994 152.0
137.993332 152.0
138.03775 168.0
138.065765 2276.0
138.103241 196.0
138.124298 160.0
138.156265 132.0
138.213196 92.0
138.229568 212.0
138.297455 152.0
138.316177 40.0
138.33725 156.0
138.370026 104.0
138.400452 48.0
138.454315 64.0
138.491791 224.0
138.524582 80.0
138.597214 180.0
138.620651 200.0
138.77301 120.0
138.808762 148.0
138.855087 172.0
139.016968 136.0
139.073257 1852.0
139.129074 184.0
139.157822 28.0
139.193039 32.0
139.21283 348.0
139.291687 128.0
139.310471 120.0
139.355118 112.0
139.383316 184.0
139.402115 96.0
139.435013 44.0
139.705429 168.0
139.795242 272.0
139.818375 148.0
139.881927 108.0
139.908829 112.0
139.95491 184.0
140.080292 608.0
140.098587 160.0
140.21405 208.0
140.245148 188.0
140.30127 188.0
140.427551 232.0
140.447479 136.0
140.478134 148.0
140.494659 140.0
140.530045 52.0
140.740112 68.0
140.759018 144.0
140.876007 180.0
140.931442 156.0
140.973984 160.0
141.059067 84.0
141.077988 84.0
141.096893 184.0
141.147888 172.0
141.326324 368.0
141.352356 96.0
141.463593 132.0
141.57489 72.0
141.688583 140.0
141.726486 188.0
141.762039 180.0
141.792847 176.0
141.818924 152.0
141.911377 180.0
141.930344 112.0
142.008606 128.0
142.091812 168.0
142.215042 44.0
142.29509 156.0
142.41449 124.0
142.459625 108.0
142.483383 60.0
142.530899 132.0
142.647369 128.0
142.682007 196.0
142.713928 116.0
142.756729 96.0
142.787659 180.0
142.824829 204.0
142.916122 284.0
143.061661 156.0
143.089874 172.0
143.111298 144.0
143.15416 120.0
143.21846 52.0
143.256577 152.0
143.435303 240.0
143.478226 140.0
143.497299 60.0
143.55452 324.0
143.590302 168.0
143.611755 112.0
143.709259 208.0
143.76207 96.0
143.809799 212.0
143.840836 188.0
143.874252 128.0
143.899643 196.0
144.055374 348.0
144.07373 184.0
144.242157 168.0
144.264954 180.0
144.311493 180.0
144.335129 216.0
144.390396 40.0
144.411926 204.0
144.438858 296.0
144.454208 232.0
144.475281 100.0
144.519577 164.0
144.555481 72.0
144.667969 164.0
144.687729 188.0
144.792496 196.0
144.864777 164.0
144.938629 80.0
144.962585 168.0
144.979355 128.0
145.010513 92.0
145.067001 412.0
145.134247 72.0
145.153946 160.0
145.215897 152.0
145.346329 168.0
145.38707 124.0
145.42067 108.0
145.497482 168.0
145.523544 220.0
145.612015 172.0
145.645432 192.0
145.664703 140.0
145.737671 172.0
145.759293 192.0
145.788132 324.0
145.81813 208.0
145.860229 140.0
145.896301 188.0
145.953995 132.0
146.021286 320.0
146.069763 836.0
146.101013 248.0
146.155518 88.0
146.194565 80.0
146.259552 128.0
146.303375 136.0
146.348618 128.0
146.428101 140.0
146.48349 192.0
146.526855 148.0
146.602234 172.0
146.6353 200.0
146.66423 172.0
146.852295 264.0
146.912613 200.0
146.936737 160.0
146.968094 172.0
146.989822 120.0
147.013947 160.0
147.057358 352.0
147.076675 224.0
147.172653 220.0
147.223984 160.0
147.395508 160.0
147.470078 196.0
147.499435 140.0
147.649338 192.0
147.733994 212.0
147.763031 148.0
147.801743 128.0
147.903397 148.0
147.976028 120.0
147.997299 180.0
148.048676 184.0
148.084991 188.0
148.164932 120.0
148.194016 72.0
148.329727 64.0
148.37822 160.0
148.395187 208.0
148.560104 148.0
148.608368 148.0
148.662018 256.0
148.693573 148.0
148.749405 192.0
148.78096 32.0
148.865936 156.0
148.950958 140.0
149.028702 80.0
149.058441 3500.0
149.093262 456.0
149.196396 200.0
149.257187 172.0
149.322845 264.0
149.439621 164.0
149.471252 132.0
149.52774 228.0
149.533447 172.0
149.563736 144.0
149.595383 176.0
149.61972 312.0
149.665985 100.0
149.714249 596.0
149.732071 160.0
149.772141 432.0
149.81781 204.0
149.868164 256.0
149.890396 160.0
149.909729 260.0
149.951462 216.0
149.981628 168.0
149.991928 148.0
150.024582 196.0
150.03035 184.0
150.039154 152.0
150.067551 78724.0
150.154938 172.0
150.181961 156.0
150.208771 308.0
150.229416 188.0
150.282669 88.0
150.306473 128.0
150.343338 136.0
150.36998 56.0
150.407135 96.0
150.424225 136.0
150.44339 112.0
150.469025 388.0
150.508591 144.0
150.534103 76.0
150.552612 84.0
150.581741 196.0
150.619583 72.0
150.662292 56.0
150.680664 252.0
150.698929 148.0
150.730209 116.0
150.763748 96.0
150.8004 48.0
150.839508 112.0
150.859726 164.0
150.905518 52.0
150.932251 172.0
150.987473 212.0
151.009338 68.0
151.033737 424.0
151.073242 17100.0
151.109192 148.0
151.127258 128.0
151.149002 104.0
151.181946 64.0
151.207458 84.0
151.253754 108.0
151.2742 168.0
151.300369 52.0
151.329315 144.0
151.348404 148.0
151.401703 136.0
151.447678 164.0
151.493271 160.0
151.544357 52.0
151.563858 196.0
151.603165 48.0
151.636612 112.0
151.664444 52.0
151.700272 344.0
151.740997 88.0
151.762436 156.0
151.810226 132.0
151.82872 60.0
151.845886 192.0
151.865509 96.0
151.979919 188.0
152.012711 80.0
152.079193 3380.0
152.125626 68.0
152.148148 68.0
152.171448 228.0
152.210632 32.0
152.233368 92.0
152.251892 84.0
152.307983 92.0
152.350098 128.0
152.371216 148.0
152.432632 56.0
152.449844 32.0
152.476883 88.0
152.515778 116.0
152.626831 28.0
152.747345 212.0
152.781784 60.0
152.81131 192.0
152.828537 40.0
152.870377 48.0
152.946671 80.0
153.020523 164.0
153.062378 116.0
153.087311 300.0
153.168289 68.0
153.212631 180.0
153.234802 240.0
153.261902 64.0
153.289017 52.0
153.314926 208.0
153.415192 168.0
153.585495 188.0
153.675079 184.0
153.742783 180.0
153.787201 112.0
153.816833 80.0
153.957565 192.0
153.982269 240.0
154.024261 156.0
154.076233 196.0
154.100845 160.0
154.246658 132.0
154.446365 192.0
154.497833 148.0
154.555801 104.0
154.57753 236.0
154.62262 96.0
154.642426 164.0
154.773636 80.0
154.8237 184.0
154.847275 60.0
154.855133 44.0
154.922974 148.0
155.061005 80.0
155.150238 168.0
155.18338 132.0
155.204788 140.0
155.264313 68.0
155.418549 136.0
155.492569 148.0
155.552139 136.0
155.579453 128.0
155.609238 232.0
155.629105 64.0
155.673798 100.0
155.75824 148.0
155.802963 180.0
155.820358 192.0
155.863861 168.0
156.068909 224.0
156.213165 84.0
156.305222 188.0
156.439621 136.0
156.571594 224.0
156.708603 160.0
156.835709 116.0
156.857925 144.0
156.875793 144.0
157.011581 156.0
157.039673 220.0
157.075424 176.0
157.159912 148.0
157.239777 180.0
157.319641 160.0
157.378265 184.0
157.42952 64.0
157.451996 64.0
157.834351 60.0
158.082001 40.0
158.109528 64.0
158.277252 132.0
158.389954 184.0
158.472626 80.0
158.594208 200.0
158.690689 236.0
158.710754 216.0
158.753387 88.0
158.811066 180.0
158.884888 124.0
158.901382 216.0
159.078812 440.0
159.118423 236.0
159.2453 176.0
159.381821 176.0
159.421173 80.0
159.454361 176.0
159.511658 156.0
159.690186 96.0
159.707794 104.0
159.77681 148.0
159.823517 80.0
159.898331 148.0
159.982086 68.0
160.040741 108.0
160.081909 384.0
160.193619 140.0
160.211258 144.0
160.291885 68.0
160.352371 232.0
160.422958 172.0
160.520615 208.0
160.569199 120.0
160.591904 176.0
160.725616 92.0
160.852859 96.0
160.872009 200.0
160.892197 160.0
161.020981 188.0
161.049103 180.0
161.099686 536.0
161.16246 112.0
161.190247 124.0
161.235733 112.0
161.288818 216.0
161.498688 204.0
161.637833 192.0
161.683395 116.0
162.021545 104.0
162.059601 284.0
162.086502 204.0
162.177078 188.0
162.185364 172.0
162.191406 84.0
162.291367 104.0
162.372528 100.0
162.458771 144.0
162.520905 228.0
162.543365 116.0
162.56279 184.0
162.650635 264.0
162.755722 212.0
162.79071 216.0
162.825302 108.0
162.867462 120.0
162.92807 140.0
162.952225 88.0
163.040848 244.0
163.075012 744.0
163.126663 164.0
163.157166 124.0
163.174973 156.0
163.22583 212.0
163.492935 144.0
163.592209 156.0
163.612579 116.0
163.631393 244.0
163.739868 180.0
163.767914 124.0
163.795929 96.0
163.827423 100.0
163.88765 120.0
163.940903 160.0
163.974289 80.0
163.99469 236.0
164.081924 548.0
164.162964 116.0
164.192017 120.0
164.269409 136.0
164.293045 84.0
164.376953 180.0
164.427444 268.0
164.438431 180.0
164.444717 192.0
164.518265 240.0
164.531113 128.0
164.562988 240.0
164.594223 180.0
164.613846 188.0
164.679199 388.0
164.697571 164.0
164.712738 80.0
164.724701 144.0
164.756195 192.0
164.777359 232.0
164.811768 160.0
164.832947 364.0
164.878601 152.0
164.910919 364.0
164.921463 320.0
164.927475 164.0
164.960159 156.0
164.969086 184.0
164.979813 232.0
164.986572 324.0
165.01918 672.0
165.053696 316.0
165.091064 217836.0
165.170731 112.0
165.188126 76.0
165.193451 116.0
165.216125 76.0
165.238098 112.0
165.266861 236.0
165.303329 132.0
165.3293 304.0
165.358582 224.0
165.367249 128.0
165.422028 184.0
165.453461 80.0
165.484344 252.0
165.512054 1772.0
165.578629 152.0
165.600739 124.0
165.61171 144.0
165.638123 76.0
165.661514 84.0
165.699203 160.0
165.77507 168.0
165.817078 52.0
165.844223 100.0
165.879715 120.0
165.901672 136.0
165.933685 184.0
165.967651 224.0
165.995758 52.0
166.029938 220.0
166.062408 140.0
166.093231 33008.0
166.166199 120.0
166.194778 228.0
166.223541 76.0
166.29512 200.0
166.316193 192.0
166.344757 108.0
166.369797 136.0
166.406372 112.0
166.436325 84.0
166.455688 52.0
166.484146 192.0
166.536789 84.0
166.56308 76.0
166.601166 128.0
166.633133 40.0
166.653839 68.0
166.672867 60.0
166.697372 52.0
166.729004 116.0
166.759048 84.0
166.786514 308.0
166.831024 44.0
166.849014 60.0
166.869583 60.0
166.903015 104.0
166.930542 68.0
166.949554 40.0
166.982956 84.0
167.018753 208.0
167.094864 1972.0
167.151184 184.0
167.171326 120.0
167.229202 112.0
167.259949 308.0
167.28508 192.0
167.309662 132.0
167.343658 192.0
167.372696 136.0
167.403 200.0
167.43045 88.0
167.438583 212.0
167.490768 200.0
167.576538 96.0
167.586746 64.0
167.607529 108.0
167.657425 72.0
167.689758 116.0
167.863525 84.0
167.925415 60.0
168.003967 92.0
168.062149 56.0
168.085434 112.0
168.222168 76.0
168.258316 128.0
168.289291 56.0
168.332687 120.0
168.364182 116.0
168.433655 152.0
168.501083 116.0
168.555344 68.0
168.614792 40.0
168.656143 96.0
168.705261 52.0
168.728531 40.0
168.834549 92.0
169.020813 108.0
169.059631 32.0
169.103043 144.0
169.194229 112.0
169.240829 120.0
169.282257 112.0
169.494675 176.0
169.523193 40.0
169.699463 40.0
169.727982 188.0
169.842087 52.0
170.039291 108.0
170.103134 360.0
170.13533 48.0
170.457413 60.0
170.717377 152.0
170.766785 76.0
170.891663 52.0
171.061356 256.0
171.081238 328.0
171.110291 100.0
171.128525 56.0
171.521912 172.0
171.600128 68.0
171.709641 196.0
171.813995 172.0
172.073685 480.0
172.179443 104.0
172.242126 112.0
172.315277 152.0
172.372757 124.0
172.47731 88.0
172.602798 56.0
172.652481 100.0
172.673401 112.0
172.723099 164.0
172.919342 196.0
173.008087 120.0
173.055481 180.0
173.081436 284.0
173.104477 168.0
173.265015 128.0
173.561188 92.0
173.632004 140.0
173.692322 136.0
174.063934 132.0
174.093277 292.0
174.264648 80.0
174.451248 140.0
174.798431 128.0
174.903717 72.0
175.02536 124.0
175.07608 588.0
175.110626 124.0
175.15387 292.0
175.256622 192.0
175.327774 200.0
175.351486 140.0
175.427933 108.0
175.499115 120.0
175.617798 156.0
175.697403 188.0
175.844711 96.0
175.913345 96.0
175.960861 116.0
176.0672 528.0
176.140442 40.0
176.198563 144.0
176.298981 64.0
176.394135 112.0
176.528976 128.0
176.626831 96.0
176.687683 80.0
176.706207 80.0
176.806763 84.0
176.851974 92.0
176.915283 44.0
176.966675 196.0
177.00531 164.0
177.089554 8664.0
177.248184 80.0
177.267563 64.0
177.333084 72.0
177.44516 92.0
177.476593 248.0
177.585709 60.0
177.744888 136.0
177.876785 108.0
178.010345 72.0
178.050186 56.0
178.093933 1116.0
178.299927 44.0
178.331818 36.0
178.39296 80.0
178.467407 148.0
178.501968 96.0
178.616333 72.0
178.826553 164.0
179.10463 1288.0
179.167404 84.0
179.196716 92.0
179.337952 64.0
179.365585 152.0
179.431259 44.0
179.880676 128.0
180.10318 128.0
180.434433 128.0
180.734695 108.0
180.96489 160.0
181.058624 124.0
181.251511 56.0
181.460571 192.0
181.508835 112.0
181.715378 136.0
181.918793 96.0
182.067032 92.0
182.108948 192.0
182.830566 112.0
182.914001 76.0
183.396179 128.0
184.068481 144.0
184.854599 124.0
185.046799 112.0
185.088211 116.0
185.407074 140.0
185.585983 208.0
185.892517 56.0
186.030945 132.0
186.092072 1180.0
186.604202 144.0
186.72113 68.0
186.753769 60.0
186.919724 128.0
187.097519 2200.0
187.134766 132.0
187.183777 68.0
187.216461 200.0
187.587021 172.0
187.622467 160.0
187.917023 152.0
188.071854 496.0
188.096283 412.0
188.184509 148.0
188.233658 72.0
188.304657 84.0
188.381149 84.0
188.422134 128.0
188.670837 148.0
188.780212 220.0
188.936127 40.0
189.088135 376.0
189.247162 180.0
189.272781 148.0
189.341248 84.0
189.719391 92.0
190.082901 408.0
190.268097 52.0
190.850586 228.0
190.919327 212.0
190.986145 220.0
191.105988 2212.0
191.208832 228.0
191.334839 40.0
191.524841 120.0
191.723221 188.0
191.76181 144.0
191.797653 80.0
192.00444 52.0
192.10936 724.0
192.169952 132.0
192.904602 180.0
193.123306 240.0
193.283508 148.0
193.344391 176.0
193.394211 84.0
193.712662 188.0
193.740356 64.0
193.942657 72.0
194.11586 1672.0
194.34201 120.0
194.362457 196.0
194.450241 196.0
194.664017 60.0
194.694565 196.0
194.883469 60.0
195.078018 200.0
195.11644 576.0
195.250412 140.0
195.283783 244.0
195.339417 56.0
195.692871 156.0
195.726288 136.0
195.773621 136.0
195.943542 92.0
196.141403 140.0
196.269653 192.0
196.389572 128.0
197.097076 292.0
197.121063 216.0
197.403397 120.0
198.240448 92.0
198.509277 176.0
198.571259 108.0
199.072159 132.0
199.110138 368.0
199.188797 236.0
199.284317 168.0
199.341751 136.0
199.660995 44.0
200.089828 192.0
200.110733 248.0
200.139404 220.0
200.252045 128.0
200.460541 184.0
201.007614 116.0
201.080902 132.0
201.13179 216.0
201.168488 168.0
201.236252 96.0
201.275787 204.0
201.309677 100.0
201.390808 204.0
201.572388 224.0
201.614777 52.0
201.886185 100.0
202.007812 148.0
202.086761 1500.0
202.135132 244.0
202.313446 116.0
202.613647 92.0
203.094193 1108.0
203.128082 360.0
203.149475 160.0
204.105911 144.0
204.110687 444.0
204.499237 188.0
204.957748 52.0
205.121765 248.0
205.299835 64.0
205.488098 176.0
205.607956 112.0
205.702148 52.0
206.050568 44.0
206.121994 144.0
206.338257 128.0
206.439316 164.0
206.568024 52.0
206.87709 148.0
207.553268 60.0
207.817169 148.0
208.144394 120.0
208.612717 144.0
209.274445 156.0
209.605713 104.0
209.865143 144.0
210.098755 264.0
210.130035 204.0
210.338287 160.0
210.372925 216.0
210.823517 92.0
211.046112 180.0
211.106842 160.0
211.665344 168.0
212.059357 180.0
212.116867 1004.0
212.729431 156.0
212.749741 156.0
212.932678 144.0
213.095596 200.0
213.105301 200.0
213.116318 244.0
213.156387 116.0
213.194168 92.0
213.240662 124.0
213.397217 136.0
213.726334 44.0
213.801987 40.0
213.988297 184.0
214.119659 996.0
214.215454 196.0
214.259155 140.0
214.559341 68.0
214.658478 32.0
215.034836 188.0
215.101257 164.0
215.120209 220.0
215.408585 64.0
215.525452 236.0
215.65036 136.0
215.782669 72.0
216.101135 728.0
216.12915 400.0
216.253662 56.0
216.704651 120.0
217.108887 1808.0
217.291046 124.0
217.989014 132.0
218.116577 8396.0
218.160385 240.0
218.233887 60.0
218.304459 48.0
218.325043 68.0
218.36171 64.0
218.492706 88.0
218.595688 188.0
218.686935 36.0
218.91069 128.0
218.971115 116.0
219.001984 200.0
219.12114 968.0
219.296631 92.0
220.127686 152.0
220.152054 184.0
220.356064 128.0
220.619095 84.0
220.752151 168.0
220.793564 116.0
220.98288 132.0
221.036148 144.0
221.660965 76.0
221.853622 220.0
222.148163 312.0
222.678558 76.0
222.791443 232.0
223.082687 88.0
223.112411 76.0
223.151062 148.0
223.302734 68.0
223.626892 76.0
223.996277 120.0
224.279358 120.0
224.720734 92.0
225.15657 88.0
225.344772 152.0
225.679535 112.0
225.811111 252.0
227.009079 116.0
227.108368 152.0
227.231049 64.0
228.107452 600.0
228.213226 44.0
228.775848 176.0
228.995667 60.0
229.058929 128.0
229.13028 328.0
229.206558 72.0
229.257782 112.0
229.345184 172.0
229.707047 204.0
230.11174 776.0
230.158081 212.0
230.280563 52.0
230.473907 108.0
230.869919 80.0
230.939484 180.0
231.006027 148.0
231.112808 152.0
231.145676 184.0
231.175476 84.0
231.650848 76.0
231.687195 68.0
231.72052 236.0
232.125977 256.0
232.164474 132.0
232.48468 156.0
232.578766 152.0
233.006958 136.0
233.152252 1172.0
233.19841 56.0
233.262238 156.0
233.396011 128.0
233.484207 40.0
233.72757 124.0
233.891922 132.0
234.035019 116.0
234.099762 228.0
234.14946 364.0
234.245163 192.0
234.552933 140.0
234.604767 96.0
234.714523 76.0
234.748062 84.0
234.833466 104.0
234.86702 156.0
234.940231 40.0
235.001251 64.0
235.151672 180.0
235.266785 68.0
235.331406 72.0
235.4897 100.0
235.596619 192.0
235.783005 132.0
235.993942 92.0
236.167328 196.0
236.679352 64.0
237.197128 112.0
237.365753 252.0
238.550903 160.0
238.658524 64.0
238.759995 36.0
238.827667 108.0
239.132278 28.0
239.597275 52.0
239.812988 60.0
240.324921 204.0
240.374283 76.0
240.479218 184.0
240.602692 92.0
241.430817 160.0
241.461746 48.0
241.966156 120.0
242.802826 92.0
243.007553 112.0
243.137909 1068.0
243.439835 156.0
243.482513 104.0
243.557053 60.0
243.759003 76.0
243.830475 192.0
243.951706 32.0
244.138321 1452.0
244.306244 140.0
244.334244 84.0
244.514725 92.0
244.782455 104.0
244.907043 156.0
245.139984 2240.0
245.227966 48.0
245.296555 52.0
245.343307 44.0
245.588501 204.0
245.873596 64.0
246.136978 368.0
246.285736 92.0
246.385696 36.0
246.491943 172.0
246.70192 156.0
246.879578 92.0
247.123581 108.0
247.145477 116.0
247.179901 208.0
247.58374 112.0
247.665176 124.0
248.154068 284.0
248.332809 184.0
248.718765 72.0
248.92598 124.0
249.051605 144.0
249.16066 84.0
249.224396 160.0
249.972794 88.0
250.256104 176.0
250.463959 80.0
250.772751 120.0
251.561356 148.0
251.962433 36.0
252.130783 116.0
252.414444 112.0
252.800385 160.0
253.151779 148.0
253.180283 92.0
253.325989 164.0
253.519257 76.0
254.213776 64.0
254.299469 92.0
254.474075 208.0
254.794861 88.0
254.864761 96.0
254.972427 228.0
255.83165 64.0
255.952637 204.0
255.987671 144.0
256.382721 164.0
257.304565 72.0
257.481415 224.0
257.761353 196.0
257.802887 72.0
258.151337 64.0
258.189728 176.0
258.423248 108.0
258.765717 172.0
258.836151 180.0
259.140472 144.0
259.278259 168.0
259.390442 64.0
259.833008 92.0
260.099365 148.0
260.16391 14660.0
260.291992 160.0
260.331635 128.0
260.362671 64.0
260.446167 100.0
260.67749 144.0
260.722473 120.0
260.863922 76.0
260.973236 56.0
261.015015 72.0
261.085785 80.0
261.115936 144.0
261.15976 9740.0
261.326202 172.0
261.368866 48.0
261.394623 56.0
261.422668 72.0
261.642456 112.0
261.674652 92.0
261.700409 124.0
261.758362 60.0
261.800232 208.0
261.900085 40.0
262.061157 136.0
262.099823 196.0
262.163269 1212.0
262.269989 120.0
262.391663 80.0
262.476044 136.0
262.512451 184.0
262.538239 92.0
262.57373 68.0
262.79953 36.0
262.888 156.0
262.92157 64.0
263.062531 124.0
263.093262 160.0
263.159821 340.0
263.209473 64.0
263.277313 84.0
263.487274 124.0
263.603577 52.0
263.690857 64.0
263.795197 204.0
264.095001 148.0
264.140289 124.0
264.199402 836.0
264.282654 76.0
264.408875 132.0
265.085724 116.0
265.199158 92.0
265.228333 28.0
266.091278 176.0
266.344574 156.0
266.760529 116.0
266.838562 92.0
267.040161 144.0
267.329742 176.0
267.87674 52.0
269.073639 144.0
269.728638 200.0
269.818542 168.0
269.841431 72.0
269.867584 112.0
271.095123 168.0
271.895355 164.0
272.893982 40.0
273.1604 96.0
273.19986 164.0
273.631409 100.0
274.169342 236.0
274.712311 84.0
275.121216 64.0
275.643097 116.0
275.785217 196.0
276.155518 120.0
276.301086 184.0
277.188477 152.0
277.249878 120.0
277.393951 76.0
277.463593 96.0
277.51001 164.0
277.659241 104.0
277.821777 80.0
278.123749 120.0
278.718231 40.0
279.190277 64.0
279.71933 224.0
281.256042 264.0
281.883942 100.0
282.241608 100.0
282.539307 128.0
282.900757 172.0
283.255707 164.0
283.496948 164.0
283.570709 116.0
284.422668 148.0
284.627472 56.0
285.037292 180.0
285.491119 156.0
285.750122 156.0
286.241577 120.0
286.426819 120.0
286.504303 132.0
287.087433 112.0
287.121155 160.0
287.19873 144.0
287.67453 52.0
288.181152 128.0
288.30954 56.0
288.383911 216.0
288.596893 180.0
288.718628 76.0
288.789642 68.0
288.860687 140.0
289.210083 136.0
289.927277 92.0
290.195068 112.0
291.203644 220.0
291.34903 92.0
291.688873 84.0
292.059509 48.0
292.331696 48.0
292.529114 152.0
292.566559 92.0
292.617645 56.0
293.213776 40.0
293.436157 180.0
293.547882 132.0
293.967468 48.0
294.971649 160.0
295.686523 208.0
296.391998 160.0
296.587341 36.0
296.851349 96.0
296.930237 176.0
297.084595 152.0
297.407166 48.0
297.657776 108.0
297.82608 140.0
298.066559 148.0
298.341522 112.0
298.403412 116.0
298.472198 68.0
298.534088 160.0
298.915924 188.0
299.270477 140.0
300.397491 48.0
300.697693 80.0
300.763275 128.0
300.904816 92.0
301.091278 180.0
301.16037 80.0
301.18454 116.0
301.599182 132.0
301.713287 204.0
301.848114 124.0
302.009613 224.0
302.1698 168.0
302.239014 52.0
302.266693 180.0
302.339355 96.0
302.391296 112.0
302.543579 148.0
302.644012 256.0
302.671112 144.0
302.702881 72.0
302.791534 120.0
302.858734 152.0
302.884399 96.0
302.910675 140.0
302.953156 124.0
302.983429 184.0
303.00769 132.0
303.058472 92.0
303.083923 160.0
303.129303 120.0
303.206024 52872.0
303.295837 276.0
303.332642 68.0
303.380035 64.0
303.42749 64.0
303.493225 48.0
303.541473 92.0
303.597473 116.0
303.674835 88.0
303.699371 92.0
303.74054 64.0
303.782318 84.0
303.842957 48.0
303.875549 108.0
303.942352 52.0
304.006348 120.0
304.069122 44.0
304.106171 104.0
304.143768 148.0
304.207886 10432.0
304.258514 128.0
304.268646 120.0
304.311798 116.0
304.362457 68.0
304.410309 76.0
304.467682 36.0
304.521667 56.0
304.603546 88.0
304.636139 84.0
304.798096 40.0
304.839264 52.0
304.884979 52.0
304.919739 80.0
304.951019 140.0
304.9823 40.0
305.010101 52.0
305.135254 112.0
305.166565 148.0
305.2117 1504.0
305.4552 52.0
305.538696 60.0
305.769104 168.0
305.832611 132.0
305.862335 120.0
305.907593 44.0
305.942413 40.0
305.966797 48.0
306.057312 124.0
306.081696 40.0
306.133087 216.0
306.163605 52.0
306.217499 100.0
306.355103 104.0
306.388214 112.0
306.426514 128.0
306.740173 60.0
306.768066 84.0
306.841278 104.0
306.869171 44.0
306.987732 40.0
307.047028 100.0
307.186554 128.0
307.238892 108.0
307.340057 148.0
307.511078 184.0
307.668152 56.0
307.800842 48.0
307.828766 52.0
308.094238 92.0
308.188568 60.0
308.261932 180.0
308.471649 44.0
308.552063 36.0
309.854034 44.0
310.176453 56.0
310.649872 100.0
311.33783 112.0
311.776978 92.0
312.163696 60.0
312.973053 64.0
314.192566 60.0
314.866791 120.0
315.990906 88.0
316.058136 32.0
317.218781 200.0
317.315552 104.0
317.425476 32.0
318.232117 188.0
318.980591 56.0
319.193939 108.0
319.336182 144.0
320.632172 56.0
321.245483 80.0
322.002228 52.0
322.405945 68.0
322.66333 112.0
323.013794 124.0
323.668762 88.0
324.751068 160.0
325.156525 76.0
326.011292 36.0
326.640503 176.0
328.647247 56.0
330.627563 180.0
331.014923 196.0
333.925568 224.0
336.666321 100.0
337.133942 108.0
338.817139 44.0
340.655151 84.0
341.169647 96.0
342.870239 88.0
343.563477 120.0
344.371918 108.0
345.162811 52.0
346.57312 144.0
347.284912 52.0
349.089935 140.0
350.128265 44.0
351.291199 84.0
351.354645 56.0
351.455383 120.0
351.712891 104.0
351.884613 76.0
353.155212 36.0
353.843781 76.0
354.559265 144.0
355.354248 52.0
355.744568 112.0
356.006409 212.0
357.198883 188.0
358.671265 164.0
359.150146 96.0
359.417999 72.0
360.225983 108.0
360.819336 108.0
362.151398 148.0
362.59848 172.0
366.691895 104.0
367.836212 60.0
368.1875 68.0
368.37085 108.0
370.344696 136.0
370.827942 164.0
371.107971 96.0
372.296906 192.0
373.246094 120.0
373.415314 100.0
373.803894 80.0
374.473785 92.0
374.523834 84.0
374.724182 96.0
377.082031 192.0
377.797394 172.0
377.963776 148.0
378.831055 48.0
379.497681 80.0
379.804047 132.0
385.093872 132.0
385.328247 76.0
386.239136 104.0
387.217682 100.0
387.746613 104.0
388.09552 84.0
388.672119 72.0
389.276672 60.0
389.73233 60.0
391.250549 140.0
392.077728 84.0
394.809753 68.0
397.075195 128.0
397.207245 260.0
398.218262 92.0
398.810303 76.0
400.214661 128.0
400.780273 84.0
402.247986 116.0
407.872192 136.0
408.057098 164.0
411.175049 148.0
411.344574 100.0
411.530273 92.0
412.851685 160.0
413.215759 96.0
413.737854 100.0
414.872223 68.0
420.95932 64.0
421.273834 76.0
423.962128 164.0
424.273651 72.0
424.54837 68.0
427.934418 88.0
428.279877 196.0
429.288177 136.0
429.884155 168.0
430.007965 128.0
434.543488 108.0
438.669159 124.0
439.257141 136.0
439.674408 132.0
444.201752 120.0
445.805664 64.0
446.40683 92.0
447.467194 40.0
448.621582 108.0
448.864197 104.0
449.178253 48.0
449.739471 128.0
451.091217 88.0
451.573242 100.0
451.839752 80.0
452.060455 76.0
452.203674 60.0
452.516937 32.0
452.94046 92.0
453.05484 48.0
453.23703 116.0
454.326691 88.0
454.768005 104.0
454.895355 108.0
455.082642 108.0
455.11615 104.0
455.17038 124.0
455.221985 160.0
455.290588 16488.0
455.402893 92.0
455.441895 164.0
455.481384 48.0
455.511108 92.0
455.609467 160.0
455.714264 76.0
455.744629 100.0
455.834015 60.0
455.92218 124.0
455.999268 204.0
456.063538 136.0
456.140167 124.0
456.292511 7356.0
456.437988 52.0
456.521606 60.0
456.538666 32.0
456.5466 132.0
456.680084 100.0
456.709839 96.0
456.75238 76.0
456.884277 68.0
456.926819 116.0
457.056671 96.0
457.131042 92.0
457.216156 256.0
457.29599 1588.0
457.428986 64.0
457.520386 120.0
457.671661 56.0
457.752563 96.0
457.876068 108.0
457.957001 96.0
458.292511 312.0
458.329895 68.0
458.343414 192.0
458.563751 100.0
458.647278 104.0
458.839142 92.0
458.87323 124.0
459.003571 92.0
459.031006 144.0
459.166168 92.0
459.297211 136.0
459.326538 152.0
459.397827 76.0
460.046509 108.0
460.159882 116.0
460.635834 76.0
460.678558 68.0
462.204926 96.0
462.423187 48.0
462.491669 44.0
462.834167 72.0
463.802429 68.0
463.892456 72.0
466.107147 52.0
467.147614 68.0
467.995483 92.0
468.335724 64.0
472.220398 132.0
475.781342 80.0
476.069031 44.0
476.472992 128.0
480.879944 112.0
483.462952 148.0
489.116211 144.0
491.297577 36.0
493.762421 64.0
494.067657 52.0
495.347046 100.0
497.58667 44.0
497.626617 52.0
504.393951 76.0
506.622528 152.0
511.535522 72.0
514.398071 60.0
519.244263 72.0
519.389404 40.0
520.056396 76.0
520.487732 92.0
530.044373 72.0
537.969299 120.0
538.96228 92.0
554.909363 44.0
558.831299 152.0
560.597168 92.0
566.754517 112.0
571.431519 80.0
593.033142 28.0
593.760437 80.0
594.40564 176.0
595.017212 36.0
596.800415 100.0
603.216492 80.0
605.065796 56.0
611.294678 52.0
616.962158 48.0
618.480835 144.0
627.831726 28.0
628.634949 68.0
631.927917 48.0
645.924255 32.0
647.473083 144.0
651.912231 40.0
656.75415 84.0
660.462524 68.0
670.155334 84.0
674.811035 52.0
680.77533 52.0
680.874023 112.0
689.737061 56.0
690.035034 40.0
692.127991 128.0
712.466736 328.0
717.149658 148.0
718.328125 120.0
720.981812 104.0
722.393433 56.0
725.022522 48.0
725.692566 48.0
725.762329 164.0
727.575806 36.0
731.460754 148.0
734.663696 44.0
734.793213 120.0
735.133118 56.0
735.964478 52.0
738.060425 176.0
738.201599 80.0
738.67218 180.0
740.306763 80.0
741.038025 252.0
741.227722 112.0
741.693787 40.0
742.47998 124.0
742.789185 116.0
750.490295 120.0
757.573608 180.0
763.446838 64.0
764.360046 108.0
764.822327 112.0
767.858337 100.0
772.476135 172.0
774.468933 220.0
775.133789 100.0
775.798889 36.0
777.435181 88.0
778.051331 240.0
779.489929 108.0
785.40271 96.0
785.648132 204.0
787.490295 116.0
787.875732 72.0
789.66449 220.0
796.362549 68.0
803.111389 64.0
803.427307 36.0
803.73761 56.0
808.065796 120.0
809.667786 204.0
810.069946 96.0
813.160339 236.0
816.410156 100.0
834.721802 40.0
841.527039 60.0
844.30658 60.0
850.738464 172.0
854.958435 168.0
856.163574 228.0
859.994141 108.0
862.551453 200.0
865.559937 176.0
865.665344 68.0
866.725586 156.0
868.584167 152.0
868.947876 208.0
869.898621 204.0
870.286133 44.0
877.346497 184.0
884.636719 200.0
885.483459 172.0
885.815186 164.0
886.010681 36.0
886.378052 144.0
888.399902 72.0
890.519104 100.0
891.19635 64.0
893.003601 64.0
897.464111 160.0
897.857727 88.0
899.247864 36.0
900.836853 204.0
902.384155 216.0
906.094971 244.0
907.875305 136.0
912.282593 92.0
913.56958 172.0
915.170532 164.0
918.243958 76.0
919.348083 60.0
921.437378 168.0
923.305237 200.0
933.591125 212.0
934.838257 188.0
935.026917 160.0
937.597107 172.0
938.28125 68.0
938.499329 204.0
939.05426 116.0
939.554504 256.0
940.024292 204.0
940.158569 188.0
940.323364 72.0
941.434509 144.0
942.7052 68.0
943.995117 160.0
944.796387 108.0
945.347107 108.0
945.500122 44.0
948.29303 148.0
954.050964 204.0
954.487549 128.0
955.084106 200.0
956.314758 68.0
957.441467 120.0
959.302307 204.0
961.874756 116.0
962.251343 64.0
962.763855 192.0
963.70282 52.0
964.246643 108.0
966.466797 128.0
969.990784 200.0
970.443359 148.0
979.243103 212.0
979.654175 108.0
983.464294 176.0
983.570435 48.0
985.725159 224.0
986.725281 64.0
987.819763 224.0
990.041748 192.0
990.993958 180.0
991.300964 164.0
992.523376 176.0
993.163086 52.0
994.160645 116.0
995.353455 56.0
995.887268 148.0
996.44635 80.0
997.011902 140.0
998.998901 176.0
999.357483 272.0
1000.005676 140.0
1000.987854 208.0
1002.335938 124.0
1004.019104 136.0
1004.170471 292.0
1005.299805 120.0
1005.937317 208.0
1008.723206 144.0
1009.829773 72.0
1010.025879 112.0
1010.171326 248.0
1011.449646 212.0
1012.944092 140.0
1013.641052 76.0
1013.907166 244.0
1015.257568 192.0
1015.473206 140.0
1015.568359 204.0
1018.958374 140.0
1019.619202 108.0
1023.784546 136.0
1025.474731 184.0
1026.871094 84.0
1028.542847 56.0
1028.600342 160.0
1029.008911 192.0
1029.227173 128.0
1029.883789 216.0
1030.631348 72.0
1030.727173 204.0
1030.982788 124.0
1032.114258 56.0
1033.099243 68.0
1035.281982 224.0
1037.582397 160.0
1039.095947 184.0
1040.353882 240.0
1041.111572 160.0
1041.162964 40.0
1041.503418 172.0
1043.097046 200.0
1043.817139 144.0
1046.738647 152.0
1050.805908 80.0
1051.85791 184.0
1054.402832 160.0
1055.204468 160.0
1055.844604 240.0
1056.782593 100.0
1058.083618 92.0
1058.271362 44.0
1058.387939 72.0
1060.564697 164.0
1061.063843 144.0
1062.419312 80.0
1065.152466 100.0
1065.197876 108.0
1065.399292 120.0
1066.868042 60.0
1067.420776 68.0
1067.559692 264.0
1068.929932 176.0
1069.07312 136.0
1069.196777 64.0
1070.05603 156.0
1072.69458 180.0
1075.186279 108.0
1076.46582 136.0
1077.9552 28.0
1078.079468 112.0
1078.589233 148.0
1080.453003 200.0
1080.70166 168.0
1082.602661 216.0
1083.10437 208.0
1083.34668 220.0
1083.785767 192.0
1085.680176 212.0
1086.677368 160.0
1086.788818 148.0
1087.025146 176.0
1088.029419 160.0
1090.86084 108.0
1092.583862 40.0
1093.070801 148.0
1094.591431 128.0
1094.716553 176.0
1094.775879 196.0
1095.065674 152.0
1095.118286 128.0
1096.363525 88.0
1096.614014 336.0
1099.786743 248.0
1101.675293 156.0
1102.038696 236.0
1102.441772 244.0
1102.494629 128.0
1102.891235 188.0
1103.863159 192.0
1104.643555 124.0
1105.435669 184.0
1106.781372 168.0
1106.86084 188.0
1106.913818 88.0
1107.622437 76.0
1107.880859 184.0
1108.907959 40.0
1109.212891 180.0
1110.890625 148.0
1111.156006 164.0
1111.574097 164.0
1111.666992 236.0
1111.806274 124.0
1112.038574 164.0
1112.184692 44.0
1115.08728 184.0
1115.379761 184.0
1116.091064 132.0
1117.008911 152.0
1117.102051 84.0
1117.654297 140.0
1117.714233 144.0
1118.452881 188.0
1118.648804 124.0
1118.832397 152.0
1119.571533 84.0
1120.697266 184.0
1121.337036 232.0
1121.717041 204.0
1121.776978 108.0
1124.865723 128.0
1125.873901 96.0
1127.758057 152.0
1128.058838 128.0
1128.306274 164.0
1128.600464 56.0
1130.286133 240.0
1130.513672 128.0
1131.584595 192.0
1132.167236 192.0
1132.2677 176.0
1132.850464 120.0
1133.634399 160.0
1134.003052 104.0
1134.525879 184.0
1135.163574 200.0
1135.25 196.0
1135.565308 140.0
1136.242798 148.0
1136.658813 72.0
1137.108398 244.0
1137.605225 140.0
1138.511597 128.0
1139.485718 148.0
1139.801514 160.0
1139.875366 148.0
1140.903809 144.0
1142.342896 152.0
1144.207153 224.0
1144.537109 268.0
1145.284668 224.0
1145.358765 48.0
1145.587769 152.0
1146.814209 164.0
1146.895142 96.0
1147.515259 220.0
1147.832275 148.0
1149.471436 188.0
1150.17334 212.0
1150.754028 56.0
1151.73999 164.0
1152.618286 160.0
1154.578735 200.0
1154.639648 236.0
1155.512329 244.0
1157.441406 180.0
1158.83667 148.0
1159.297485 180.0
1159.419556 148.0
1159.690552 228.0
1161.080566 220.0
1162.104858 128.0
1162.301636 112.0
1162.579834 144.0
1162.885254 172.0
1163.46228 104.0
1165.887329 136.0
1165.968872 188.0
1166.274658 152.0
1166.716553 216.0
1166.920532 64.0
1168.069946 76.0
1168.158325 164.0
1168.607422 196.0
1169.301514 204.0
1169.349121 172.0
1171.180786 188.0
1171.460083 160.0
1171.589478 176.0
1172.283691 144.0
1174.17981 192.0
1174.404907 80.0
1174.657227 348.0
1175.005127 188.0
1175.6875 180.0
1177.121216 112.0
1177.339722 164.0
1177.995483 88.0
1178.275513 188.0
1178.378052 180.0
1178.658203 172.0
1179.095093 184.0
1179.43042 148.0
1179.82019 184.0
1181.742065 208.0
1182.008911 168.0
1182.576904 248.0
1183.761353 112.0
1185.186157 172.0
1185.275269 68.0
1186.961548 136.0
1187.311401 128.0
1187.455322 156.0
1187.619995 124.0
1187.914917 148.0
1188.053955 224.0
1188.436401 168.0
1190.028809 36.0
1191.80542 236.0
1193.03125 152.0
1193.203125 192.0
1193.402466 48.0
1193.938843 140.0
1195.10144 184.0
1195.971924 152.0
1196.34729 156.0
1197.386963 244.0
1197.690063 168.0
1198.04834 152.0
1199.454102 252.0
1200.067749 64.0
1201.79895 252.0
1203.745605 152.0
1204.360352 136.0
1204.567505 216.0
1204.754028 124.0
1205.099487 124.0
1205.375854 204.0
1206.779175 72.0
1206.875977 104.0
1207.325439 124.0
1207.416016 152.0
1207.470703 88.0
1208.7229 64.0
1209.14502 168.0
1209.484131 172.0
1209.795654 116.0
1209.851074 200.0
1211.707153 220.0
1212.088257 164.0
1212.213013 104.0
1212.621948 192.0
1214.008545 140.0
1214.979614 252.0
1215.389038 192.0
1216.277344 76.0
1219.35437 48.0
1220.703125 148.0
1221.9552 196.0
1222.449219 104.0
1222.497925 124.0
1223.535034 124.0
1225.68042 104.0
1225.86853 176.0
1226.342529 132.0
1226.6073 220.0
1227.060547 248.0
1228.134521 176.0
1228.239136 152.0
1228.720459 172.0
1229.229858 112.0
1229.453125 208.0
1230.423462 132.0
1231.750366 184.0
1231.924927 128.0
1234.084595 188.0
1234.776978 40.0
1235.028687 56.0
1235.259521 60.0
1235.315552 212.0
1236.085205 144.0
1236.176147 168.0
1236.354858 216.0
1236.561035 192.0
1236.981079 204.0
1237.345093 120.0
1237.401123 88.0
1237.730225 168.0
1238.598633 148.0
1238.675659 44.0
1238.843872 32.0
1239.901978 224.0
1240.021118 172.0
1240.336548 160.0
1241.353149 84.0
1241.430298 224.0
1241.766968 204.0
1242.43335 184.0
1242.819214 132.0
1243.106934 148.0
1244.433594 100.0
1245.135864 64.0
1246.027954 152.0
1247.363281 140.0
1247.841309 216.0
1248.453979 164.0
1248.776611 164.0
1249.62085 56.0
1249.92334 208.0
1250.521606 172.0
1251.084717 188.0
1251.802368 232.0
1252.162109 244.0
1252.464966 140.0
1252.781982 196.0
1252.831299 124.0
1253.168457 184.0
1254.029297 132.0
1254.299316 256.0
1255.015503 176.0
1255.390015 84.0
1257.951294 136.0
1258.071289 48.0
1259.073975 136.0
1259.391846 212.0
1259.554321 124.0
1259.801514 208.0
1262.353149 116.0
1262.671387 164.0
1262.883545 152.0
1263.343384 152.0
1263.591064 204.0
1264.164185 120.0
1265.516235 196.0
1265.629517 48.0
1266.019043 160.0
1266.231445 104.0
1266.557251 88.0
1267.719238 144.0
1268.059448 152.0
1268.456421 156.0
1268.665649 252.0
1268.888794 116.0
1270.250488 188.0
1271.783203 136.0
1272.755859 156.0
1272.901489 160.0
1274.119629 168.0
1274.730713 168.0
1275.029175 224.0
1275.327881 180.0
1275.683105 32.0
1276.550537 164.0
1276.664307 184.0
1276.721191 128.0
1276.870605 224.0
1277.105347 268.0
1277.297363 160.0
1277.80957 212.0
1277.973267 344.0
1278.094238 116.0
1278.22229 28.0
1278.606567 152.0
1279.097778 148.0
1280.179932 116.0
1280.236938 116.0
1280.33667 172.0
1280.543213 140.0
1280.671387 168.0
1283.436646 212.0
1283.557861 64.0
1284.549194 104.0
1285.262695 188.0
1285.505249 232.0
1285.676636 324.0
1286.342285 228.0
1286.71875 180.0
1287.311401 40.0
1287.439941 156.0
1288.261353 144.0
1289.168823 152.0
1289.519043 180.0
1289.640503 228.0
1290.148071 208.0
1290.384033 32.0
1291.249268 36.0
1291.36377 156.0
1292.186401 204.0
1292.823364 168.0
1292.923462 164.0
1293.610596 160.0
1293.689453 52.0
1294.011597 156.0
1294.87085 144.0
1296.095947 164.0
1296.189087 52.0
1296.454224 160.0
1297.493652 164.0
1297.787598 212.0
1297.837769 180.0
1297.952515 164.0
1298.390015 156.0
1298.942261 184.0
1299.961182 136.0
1300.097534 148.0
1300.162109 28.0
1300.305664 180.0
1301.188599 168.0
1302.11499 52.0
1302.179565 204.0
1302.409424 164.0
1302.689575 36.0
1302.854858 164.0
1303.652344 156.0
1303.817749 140.0
1304.062012 132.0
1304.198608 108.0
1304.651489 60.0
1304.920044 196.0
1305.485596 192.0
1306.082642 128.0
1306.636475 108.0
1307.053833 176.0
1307.368042 196.0
1308.471802 168.0
1310.506226 228.0
1310.762329 128.0
1311.021851 132.0
1311.367798 136.0
1311.547974 184.0
1314.663818 116.0
1314.952515 140.0
1315.262817 104.0
1315.320557 124.0
1315.416626 144.0
1315.667114 148.0
1315.847656 232.0
1318.068848 172.0
1318.28186 124.0
1318.744385 88.0
1319.481812 136.0
1319.720459 152.0
1320.067505 172.0
1320.335083 164.0
1321.043945 140.0
1321.470825 172.0
1321.543213 180.0
1321.738525 124.0
1321.926636 132.0
1322.061523 144.0
1322.216187 164.0
1322.346436 156.0
1322.455078 144.0
1322.54187 100.0
1323.1427 188.0
1323.265869 192.0
1323.615845 220.0
1324.011719 148.0
1324.160889 200.0
1324.547729 152.0
1324.612915 60.0
1326.605713 212.0
1326.699951 192.0
1326.837769 108.0
1326.953735 216.0
1327.120483 208.0
1327.922729 160.0
1328.433228 132.0
1328.832275 60.0
1329.311157 140.0
1329.412842 148.0
1329.957153 72.0
1330.363647 340.0
1330.712158 144.0
1330.973511 124.0
1331.670776 36.0
1331.721558 184.0
1332.055786 248.0
1332.753174 160.0
1333.072998 132.0
1333.312744 168.0
1333.480103 184.0
1333.770752 160.0
1333.821533 140.0
1333.908813 160.0
1333.974243 196.0
1334.265015 148.0
1334.395874 176.0
1335.144897 120.0
1335.210327 184.0
1335.872314 136.0
1336.032349 132.0
1336.236084 220.0
1336.517334 188.0
1337.029175 164.0
1337.713501 260.0
1337.880859 144.0
1338.04834 132.0
1338.113892 328.0
1338.470703 192.0
1338.893066 228.0
1339.402954 228.0
1339.520752 204.0
1340.918457 164.0
1341.027832 128.0
1341.100708 136.0
1341.763062 164.0
1342.573486 208.0
1343.127808 44.0
1344.017944 184.0
1344.30249 212.0
1344.463013 160.0
1345.054321 116.0
1345.273315 168.0
1345.857422 168.0
1346.960205 96.0
1347.870239 136.0
1347.968506 160.0
1348.121948 168.0
1348.984375 212.0
1349.170898 124.0
1349.788696 204.0
1349.934937 152.0
1350.132446 56.0
1350.212891 180.0
1350.541992 164.0
1350.871216 144.0
1351.090576 208.0
1351.244263 152.0
1351.866211 184.0
1352.049194 148.0
1352.107788 132.0
1352.377563 180.0
1352.561523 120.0
1353.059448 152.0
1353.322998 132.0
1353.85022 200.0
1354.12854 184.0
1354.538696 140.0
1355.307983 168.0
1355.498535 116.0
1355.637817 200.0
1356.092163 200.0
1356.150757 172.0
1356.202148 148.0
1356.869263 200.0
1357.976562 208.0
1358.255249 168.0
1359.847534 68.0
1360.420776 200.0
1360.581665 128.0
1360.669678 136.0
1360.875366 184.0
1361.352661 200.0
1362.322144 208.0
1362.704224 148.0
1363.233276 36.0
1363.769775 176.0
1363.975708 132.0
1366.012573 164.0
1366.218628 144.0
1367.175171 156.0
1367.550537 188.0
1367.896484 64.0
1367.955444 200.0
1368.19104 112.0
1368.706421 148.0
1369.023071 200.0
1369.074585 172.0
1369.722778 124.0
1369.987915 196.0
1370.164795 140.0
1370.739502 96.0
1371.388062 124.0
1371.85376 160.0
1372.434937 112.0
1372.707764 92.0
1372.884766 184.0
1373.091309 80.0
1374.020752 184.0
1374.44873 112.0
1374.802246 168.0
1375.068604 356.0
1375.65918 132.0
1376.375366 216.0
1377.232056 160.0
1377.453613 96.0
1378.236816 164.0
1378.672729 152.0
1379.123657 72.0
1380.299194 176.0
1381.157104 156.0
1381.208862 184.0
1381.694092 168.0
1382.176392 140.0
1383.349487 148.0
1383.836182 120.0
1384.406372 116.0
1385.006226 108.0
1385.999023 192.0
1386.132446 140.0
1386.540039 160.0
1386.628906 164.0
1386.880981 52.0
1387.259033 160.0
1387.459229 120.0
1388.061279 216.0
1388.334106 180.0
1388.719849 192.0
1389.283569 104.0
1390.188843 196.0
1390.738037 164.0
1391.480469 132.0
1391.621582 204.0
1392.59436 152.0
1393.054932 104.0
1393.887085 128.0
1394.526245 144.0
1394.645142 132.0
1395.172974 136.0
1395.224976 68.0
1395.611694 204.0
1395.723145 160.0
1395.836792 144.0
1395.894165 132.0
1397.664673 80.0
1398.044189 160.0
1398.446045 116.0
1398.580078 124.0
1399.024658 180.0
1399.480835 224.0
1399.964844 112.0
1400.640259 228.0
1401.164185 172.0
1401.238647 184.0
1401.492065 132.0
1401.618652 80.0
1402.281982 188.0
1403.116821 200.0
1403.855103 224.0
1404.332397 196.0
1404.757568 168.0
1406.063354 60.0
1406.2052 152.0
1406.981812 124.0
1407.093506 208.0
1407.464233 200.0
1407.556519 108.0
1408.004639 148.0
1408.273438 224.0
1408.740112 160.0
1408.856079 108.0
1408.938354 192.0
1409.37915 44.0
1410.328247 244.0
1411.315186 196.0
1411.479614 136.0
1411.603516 220.0
1411.741333 160.0
1412.878296 248.0
1413.110229 124.0
1413.491943 132.0
1413.670166 160.0
1414.493896 144.0
1415.033813 136.0
1415.580444 192.0
1415.715332 152.0
1416.014893 140.0
1416.09729 140.0
1416.599121 136.0
1416.75647 140.0
1417.161011 56.0
1417.333374 148.0
1417.408325 172.0
1417.663086 136.0
1418.689941 204.0
1418.974854 132.0
1419.619751 136.0
1421.810425 40.0
1421.937988 216.0
1422.883911 164.0
1422.93811 176.0
1423.036499 192.0
1423.31189 136.0
1423.837524 220.0
1423.987793 196.0
1424.062866 112.0
1424.501953 156.0
1424.776489 160.0
1425.527954 124.0
1426.204346 212.0
1426.279297 172.0
1426.437378 112.0
1426.625244 168.0
1427.452393 220.0
1427.835938 224.0
1428.039062 132.0
1428.219482 152.0
1428.821411 152.0
1428.956787 108.0
1429.641602 120.0
1429.73938 200.0
1429.799561 160.0
1429.889893 220.0
1430.221069 148.0
1430.499634 96.0
1431.019165 144.0
1431.162231 160.0
1431.327881 160.0
1431.433228 160.0
1431.779663 196.0
1432.141235 200.0
1432.502808 132.0
1433.113037 104.0
1433.504883 172.0
1433.896851 208.0
1434.213379 144.0
1434.333984 48.0
1434.537476 128.0
1434.748657 132.0
1434.997437 148.0
1435.170776 172.0
1435.668579 52.0
1435.781616 184.0
1436.000366 76.0
1436.053223 112.0
1436.558594 96.0
1436.63147 208.0
1436.807495 184.0
1436.950928 172.0
1437.184814 136.0
1437.290405 136.0
1437.705444 136.0
1438.007446 200.0
1438.143311 136.0
1438.369751 164.0
1438.618896 144.0
1438.966187 148.0
1439.472046 48.0
1439.963135 168.0
1440.08374 212.0
1440.189575 100.0
1440.281006 180.0
1440.363281 40.0
1440.85437 120.0
1440.960083 72.0
1441.217041 72.0
1442.070923 168.0
1442.42627 196.0
1442.530518 208.0
1442.917603 236.0
1443.439331 216.0
1443.605713 204.0
1443.66626 192.0
1444.452881 180.0
1444.672241 156.0
1444.800903 40.0
1444.997559 200.0
1445.179199 176.0
1446.541504 124.0
1446.624756 40.0
1446.776123 104.0
1446.829102 240.0
1446.957886 180.0
1447.078979 108.0
1447.215332 184.0
1447.828735 72.0
1447.987793 168.0
1448.139282 224.0
1448.586182 140.0
1448.835083 180.0
1448.846802 156.0
1448.876709 244.0
1449.033081 136.0
1449.199829 164.0
1449.60144 232.0
1450.117798 124.0
1450.416138 208.0
1450.480591 60.0
1450.988525 124.0
1451.845459 188.0
1452.2854 36.0
1452.361206 236.0
1452.428345 164.0
1452.573608 180.0
1452.641846 252.0
1452.73291 112.0
1452.983276 172.0
1453.271606 96.0
1453.324707 156.0
1454.508667 188.0
1454.632568 196.0
1454.789551 168.0
1455.123535 196.0
1455.670288 148.0
1455.936157 64.0
1456.012085 108.0
1456.217163 160.0
1456.55896 212.0
1456.780396 164.0
1456.893188 160.0
1458.200195 200.0
1458.337036 224.0
1458.5802 172.0
1459.158081 112.0
1459.218872 204.0
1459.287354 184.0
1459.522949 244.0
1459.606689 152.0
1459.826904 124.0
1460.230225 84.0
1460.50415 60.0
1461.07959 244.0
1461.295288 112.0
1461.470337 80.0
1461.789917 204.0
1461.923584 216.0
1462.056274 228.0
1462.726074 128.0
1463.00769 124.0
1463.494995 104.0
1463.82251 136.0
1463.951904 200.0
1464.332764 124.0
1465.140137 132.0
1465.201172 164.0
1465.353516 104.0
1465.444946 160.0
1465.511475 88.0
1465.681152 168.0
1465.829956 216.0
1466.61853 148.0
1466.687134 224.0
1467.136963 196.0
1467.411377 160.0
1467.525757 172.0
1467.678345 44.0
1467.800293 188.0
1467.998535 52.0
1468.444214 212.0
1469.638672 160.0
1469.755859 192.0
1469.882812 168.0
1469.974365 128.0
1470.119385 144.0
1470.195679 224.0
1470.668945 188.0
1470.819824 160.0
1470.958984 136.0
1471.058228 192.0
1471.798828 140.0
1471.867554 112.0
1472.188232 156.0
1472.646606 64.0
1472.921509 116.0
1473.166016 152.0
1473.662598 128.0
1473.800171 136.0
1474.434448 356.0
1475.0 96.0
1475.076538 84.0
1475.290527 40.0
1475.420532 60.0
1476.093384 132.0
1476.231079 116.0
1476.345703 208.0
1476.460449 84.0
1476.766357 216.0
1477.27124 140.0
1477.753296 156.0
1477.814453 76.0
1478.28125 92.0
1478.334839 192.0
1478.618042 164.0
1478.928955 124.0
1479.291626 144.0
1480.240601 160.0
1480.414551 248.0
1480.731201 144.0
1480.853638 144.0
1481.022217 116.0
1481.466553 180.0
1481.6427 212.0
1481.703979 168.0
1482.493286 32.0
1482.807495 200.0
1483.512695 156.0
1483.693359 160.0
1484.145508 176.0
1484.36377 180.0
1484.693481 180.0
1485.588989 200.0
1485.744385 156.0
1485.844116 152.0
1486.195435 160.0
1486.350586 212.0
1486.450317 168.0
1486.703613 108.0
1486.811035 160.0
1486.949219 180.0
1487.156372 152.0
1488.378906 200.0
1488.526733 192.0
1488.906982 192.0
1490.235962 140.0
1490.381958 48.0
1490.789185 208.0
1490.88147 168.0
1491.450195 100.0
1491.819214 128.0
1492.057495 32.0
1492.119019 136.0
1492.626587 224.0
1492.711182 140.0
1492.89502 176.0
1493.195679 204.0
1493.357178 116.0
1493.841797 188.0
1494.044189 240.0
1494.311035 160.0
1494.741943 180.0
1494.949707 216.0
1495.419189 232.0
1495.927246 144.0
1496.165894 260.0
1496.481567 72.0
1497.259399 112.0
1497.544312 52.0
1497.852417 180.0
1498.014282 104.0
1498.276123 256.0
1498.599731 140.0
1499.162354 160.0
1499.242188 140.0
1499.44751 156.0
1500.372437 164.0
1500.711792 188.0
1500.865967 76.0
1500.966187 176.0
1501.0896 160.0
1502.061401 128.0
1502.292847 180.0
1502.60144 148.0
1502.763428 124.0
1503.342163 152.0
1503.643188 216.0
1504.143188 140.0
1504.476929 140.0
1504.569458 288.0
1505.086792 192.0
