>compound MLS002153165-01!LY-310,762 hydrochloride
>formula C24H27FN2O2
>ionization [M+H]+
>parentmass 395.213135
#inchi InChI=1S/C24H27FN2O2/c1-24(2)20-5-3-4-6-21(20)27(23(24)29)16-15-26-13-11-18(12-14-26)22(28)17-7-9-19(25)10-8-17/h3-10,18H,11-16H2,1-2H3
#inchikey KDXISMANFPJVJY
#origInchi InChI=1S/C24H27FN2O2.ClH/c1-24(2)20-5-3-4-6-21(20)27(23(24)29)16-15-26-13-11-18(12-14-26)22(28)17-7-9-19(25)10-8-17;/h3-10,18H,11-16H2,1-2H3;1H
#Ion_Source LC-ESI
#Instrument qTof
#Compound_Source NIH Pharmacologically Active Library
#PI Dorrestein
#Data_Collector VP/LMS
#Scan -1
#Precursor_MZ 395.221
#ExactMass 394.206
#Charge 1
#CAS_Number N/A
#Pubmed_ID N/A
#Smiles CC1(C)C(=O)N(CCN2CCC(CC2)C(=O)c3ccc(F)cc3)c4ccccc41.Cl
#INCHI_AUX N/A
#Library_Class 1
#SpectrumID CCMSLIB00000085602
#IonMode Positive
#UpdateWorkflowName UPDATE-SINGLE-ANNOTATED-GOLD
#LibraryQualityString Gold
#TaskID d252d724072548979f1f6f1ced849daf
##Scan# 1728
#SpectrumFile p4-D03_GD3_01_18363.mzXML
#LibraryName Pharm_Active_Library.mgf
#MQScore -1
#Organism Pharm_Active_Library
#TIC_Query 0
#RT_Query -1
#MZErrorPPM -1
#SharedPeaks 0
#MassDiff 0
#LibMZ -1
#SpecMZ 395.221
#SpecCharge 0
#internalFilename spec-00000.mgf

>collision 10
44.888908 368.0
44.906841 152.0
44.916016 252.0
44.9436 76.0
44.960018 156.0
44.977325 220.0
44.995701 424.0
45.024494 100.0
45.046955 184.0
45.055748 164.0
45.089725 360.0
45.098934 88.0
45.122822 108.0
45.145306 52.0
45.155304 144.0
45.177052 152.0
45.201408 124.0
45.215626 240.0
45.232426 136.0
45.254246 164.0
45.274967 264.0
45.285324 180.0
45.304581 136.0
45.326019 156.0
45.356842 156.0
45.37561 80.0
45.38726 152.0
45.396397 184.0
45.407795 164.0
45.436684 168.0
45.445122 148.0
45.459282 148.0
45.472797 160.0
45.514393 184.0
45.527401 212.0
45.552238 96.0
45.568878 124.0
45.598015 196.0
45.611668 224.0
45.627392 156.0
45.645248 168.0
45.653378 236.0
45.676003 216.0
45.688053 244.0
45.700855 100.0
45.712013 204.0
45.722172 132.0
45.735523 336.0
45.745728 72.0
45.757168 124.0
45.774429 132.0
45.790863 140.0
45.829632 708.0
45.844505 148.0
45.861694 388.0
45.871677 156.0
45.885159 140.0
45.894596 140.0
45.904808 196.0
45.914825 284.0
45.932358 144.0
45.949898 100.0
45.976765 136.0
45.985828 332.0
45.999908 136.0
46.014263 152.0
46.039658 348.0
46.066986 292.0
46.09626 172.0
46.118961 136.0
46.174431 376.0
46.186714 132.0
46.198185 200.0
46.21471 192.0
46.224697 460.0
46.245621 160.0
46.259087 264.0
46.270542 132.0
46.281948 148.0
46.298855 176.0
46.313297 136.0
46.340439 200.0
46.359192 308.0
46.370312 124.0
46.38942 332.0
46.420448 244.0
46.434822 140.0
46.458225 184.0
46.488358 148.0
46.492813 140.0
46.495518 180.0
46.513973 156.0
46.538654 176.0
46.573963 88.0
46.592087 164.0
46.626385 156.0
46.639084 108.0
46.651417 172.0
46.66581 260.0
46.677681 164.0
46.686272 480.0
46.703419 284.0
46.724545 264.0
46.748669 80.0
46.762516 124.0
46.77813 136.0
46.804417 228.0
46.830315 336.0
46.861534 236.0
46.877354 48.0
46.897556 136.0
46.924419 272.0
46.940956 280.0
46.954453 288.0
46.965256 128.0
46.977909 376.0
46.988392 156.0
47.004368 224.0
47.041023 212.0
47.058769 128.0
47.071819 152.0
47.092655 172.0
47.107647 136.0
47.13435 112.0
47.15263 124.0
47.167187 100.0
47.185833 224.0
47.198135 176.0
47.213139 188.0
47.233784 180.0
47.252728 232.0
47.26651 172.0
47.280113 320.0
47.312485 168.0
47.347988 184.0
47.361629 156.0
47.383198 192.0
47.400333 212.0
47.42128 168.0
47.431309 164.0
47.443211 108.0
47.467014 332.0
47.479851 144.0
47.492577 84.0
47.509819 176.0
47.532902 344.0
47.555691 320.0
47.571835 204.0
47.604324 208.0
47.617149 168.0
47.654846 140.0
47.666931 160.0
47.678638 116.0
47.696873 204.0
47.71191 160.0
47.735664 96.0
47.751556 108.0
47.7808 152.0
47.80785 176.0
47.822857 160.0
47.834724 100.0
47.851704 108.0
47.873005 184.0
47.885704 164.0
47.906826 88.0
47.922153 140.0
47.938168 172.0
47.950989 156.0
47.984623 168.0
47.999462 140.0
48.012074 156.0
48.01416 156.0
48.030651 172.0
48.042435 156.0
48.057419 160.0
48.069023 120.0
48.084206 208.0
48.111885 148.0
48.12838 396.0
48.15876 224.0
48.183582 132.0
48.200207 84.0
48.21574 208.0
48.23061 172.0
48.256561 140.0
48.274956 324.0
48.301128 172.0
48.318577 260.0
48.328636 68.0
48.356407 332.0
48.3717 184.0
48.387547 224.0
48.410374 148.0
48.420162 176.0
48.432629 476.0
48.445976 204.0
48.455296 132.0
48.47015 188.0
48.484997 236.0
48.535221 140.0
48.554775 344.0
48.570251 220.0
48.589272 104.0
48.603935 272.0
48.620304 176.0
48.62886 136.0
48.648949 108.0
48.669949 132.0
48.692287 132.0
48.718765 232.0
48.735996 236.0
48.75465 160.0
48.788624 184.0
48.819183 172.0
48.847416 132.0
48.859367 68.0
48.877617 136.0
48.880669 72.0
48.889484 128.0
48.917244 180.0
48.927979 108.0
48.939037 208.0
48.953941 128.0
48.970375 156.0
48.990524 160.0
49.00721 136.0
49.019821 272.0
49.024178 108.0
49.038559 136.0
49.052914 172.0
49.079597 344.0
49.100784 176.0
49.139648 224.0
49.156532 156.0
49.166039 120.0
49.171185 148.0
49.184879 200.0
49.204094 68.0
49.218384 124.0
49.23801 228.0
49.249958 332.0
49.272285 176.0
49.280762 304.0
49.296608 72.0
49.311981 104.0
49.330711 200.0
49.355801 152.0
49.370552 336.0
49.380489 80.0
49.410069 176.0
49.430515 116.0
49.441349 136.0
49.45615 176.0
49.47514 156.0
49.513138 232.0
49.533058 132.0
49.555588 48.0
49.572144 156.0
49.583138 124.0
49.595833 120.0
49.599201 236.0
49.630169 136.0
49.649063 172.0
49.664387 312.0
49.683052 80.0
49.702515 92.0
49.718227 184.0
49.728119 200.0
49.740589 176.0
49.754627 140.0
49.773125 236.0
49.800686 160.0
49.814075 168.0
49.825226 208.0
49.846561 224.0
49.865311 240.0
49.89592 316.0
49.905319 140.0
49.921745 128.0
49.937214 128.0
49.96843 156.0
50.013618 100.0
50.026966 324.0
50.041538 196.0
50.078754 184.0
50.085091 56.0
50.108685 348.0
50.118416 116.0
50.123024 108.0
50.144543 136.0
50.167133 144.0
50.177517 292.0
50.192513 112.0
50.214291 176.0
50.233162 92.0
50.261082 144.0
50.278248 192.0
50.293224 156.0
50.30138 184.0
50.334179 208.0
50.353416 280.0
50.387321 180.0
50.413822 136.0
50.430782 152.0
50.448383 188.0
50.490162 80.0
50.504055 180.0
50.520981 320.0
50.539307 124.0
50.563728 76.0
50.576641 164.0
50.594872 100.0
50.607613 160.0
50.618362 88.0
50.631393 116.0
50.656311 156.0
50.676392 188.0
50.688107 116.0
50.702442 232.0
50.717621 368.0
50.74614 104.0
50.748913 380.0
50.795219 72.0
50.816628 148.0
50.850552 64.0
50.882835 164.0
50.894028 72.0
50.912746 196.0
50.930126 216.0
50.949417 248.0
50.964016 188.0
50.977715 144.0
50.988918 120.0
50.992626 108.0
51.009487 388.0
51.03125 200.0
51.049389 300.0
51.071667 224.0
51.086838 264.0
51.100029 300.0
51.109463 112.0
51.128578 260.0
51.139587 228.0
51.152775 52.0
51.174129 144.0
51.195293 148.0
51.221466 380.0
51.231583 176.0
51.242439 208.0
51.257053 200.0
51.269382 124.0
51.280518 164.0
51.311119 132.0
51.338558 208.0
51.357483 360.0
51.370213 136.0
51.389229 96.0
51.414474 164.0
51.446388 384.0
51.503582 140.0
51.527233 232.0
51.544495 164.0
51.570099 160.0
51.590679 156.0
51.599354 160.0
51.62545 200.0
51.643318 148.0
51.656422 184.0
51.662987 112.0
51.675098 192.0
51.685932 168.0
51.709637 292.0
51.723213 180.0
51.750835 336.0
51.755596 224.0
51.783211 160.0
51.811497 132.0
51.830833 120.0
51.841805 160.0
51.860165 68.0
51.887264 324.0
51.900429 212.0
51.911438 180.0
51.923176 160.0
51.945862 80.0
51.959629 208.0
51.981731 28.0
51.996296 344.0
52.018246 172.0
52.038677 332.0
52.050632 116.0
52.070599 168.0
52.075542 104.0
52.085892 148.0
52.121193 196.0
52.139256 156.0
52.149296 236.0
52.165794 180.0
52.181381 108.0
52.196972 152.0
52.212631 164.0
52.226101 124.0
52.258656 88.0
52.271358 288.0
52.294945 140.0
52.311855 280.0
52.323071 124.0
52.336166 180.0
52.340927 104.0
52.352028 232.0
52.399273 152.0
52.430408 96.0
52.446182 148.0
52.452507 316.0
52.473793 360.0
52.48328 112.0
52.501495 168.0
52.516338 292.0
52.53278 136.0
52.542877 64.0
52.557648 220.0
52.573341 248.0
52.597633 72.0
52.623428 192.0
52.645401 288.0
52.668278 172.0
52.691704 376.0
52.704346 168.0
52.709835 120.0
52.725163 100.0
52.754059 104.0
52.77 108.0
52.78677 324.0
52.79929 132.0
52.822048 180.0
52.834557 192.0
52.848171 184.0
52.859306 128.0
52.880486 176.0
52.888927 128.0
52.91095 188.0
52.92577 176.0
52.936344 128.0
52.957546 144.0
52.976898 236.0
52.993034 168.0
53.004108 116.0
53.016495 212.0
53.03125 280.0
53.043907 252.0
53.072163 164.0
53.091499 112.0
53.111233 184.0
53.144756 204.0
53.157597 132.0
53.161182 112.0
53.166729 56.0
53.178207 280.0
53.189228 56.0
53.2019 96.0
53.222221 140.0
53.234711 144.0
53.247192 120.0
53.257008 188.0
53.278778 116.0
53.293823 216.0
53.31002 88.0
53.31538 316.0
53.33746 248.0
53.351353 192.0
53.364075 176.0
53.377651 188.0
53.415035 148.0
53.438808 344.0
53.454449 180.0
53.496082 152.0
53.517929 208.0
53.547291 300.0
53.561306 144.0
53.578018 104.0
53.591965 280.0
53.612026 164.0
53.623188 148.0
53.651524 164.0
53.662548 192.0
53.699486 296.0
53.713467 144.0
53.727249 176.0
53.739784 340.0
53.75349 160.0
53.776329 156.0
53.798225 188.0
53.812466 108.0
53.8237 116.0
53.851776 232.0
53.865623 392.0
53.886051 220.0
53.90115 264.0
53.916538 264.0
53.933727 184.0
53.946484 164.0
53.948956 200.0
53.973484 168.0
53.979076 164.0
54.000694 228.0
54.006775 128.0
54.011635 192.0
54.016953 136.0
54.023117 148.0
54.05077 348.0
54.066494 268.0
54.090427 152.0
54.107357 96.0
54.121334 60.0
54.15448 164.0
54.156864 152.0
54.177399 216.0
54.20607 268.0
54.218014 148.0
54.241634 140.0
54.270908 192.0
54.297718 164.0
54.307449 320.0
54.323093 312.0
54.325584 112.0
54.33128 276.0
54.360851 40.0
54.37418 116.0
54.393658 488.0
54.419113 176.0
54.439533 148.0
54.459213 204.0
54.473392 156.0
54.496445 220.0
54.5135 128.0
54.532089 188.0
54.55331 160.0
54.564091 140.0
54.574581 340.0
54.62178 72.0
54.633873 136.0
54.671627 164.0
54.679165 200.0
54.699078 204.0
54.708759 224.0
54.721893 304.0
54.742924 176.0
54.75425 92.0
54.777199 392.0
54.803379 68.0
54.824963 132.0
54.837517 116.0
54.861607 144.0
54.864189 124.0
54.870552 220.0
54.883926 152.0
54.899471 148.0
54.911945 104.0
54.930744 328.0
54.955673 212.0
54.968006 112.0
54.981617 428.0
55.033333 108.0
55.046734 176.0
55.06702 172.0
55.090549 132.0
55.110195 108.0
55.118671 116.0
55.130444 132.0
55.15527 316.0
55.175377 200.0
55.18536 132.0
55.22274 300.0
55.263527 172.0
55.278931 156.0
55.314259 284.0
55.328648 120.0
55.349049 140.0
55.351147 204.0
55.364258 144.0
55.385483 76.0
55.397491 164.0
55.416027 172.0
55.441071 160.0
55.455437 108.0
55.467896 152.0
55.47855 312.0
55.501377 144.0
55.517319 144.0
55.534622 112.0
55.553905 44.0
55.564686 208.0
55.587791 176.0
55.610874 112.0
55.626354 112.0
55.650925 156.0
55.664001 176.0
55.693165 196.0
55.719379 216.0
55.734818 200.0
55.743786 176.0
55.74654 172.0
55.756874 132.0
55.759605 224.0
55.778759 76.0
55.811569 220.0
55.828686 136.0
55.846531 244.0
55.858429 124.0
55.880974 52.0
55.890217 240.0
55.907852 168.0
55.934731 160.0
55.940273 160.0
55.950432 408.0
55.965961 124.0
55.979534 304.0
55.991405 124.0
56.018677 240.0
56.021641 100.0
56.048454 252.0
56.062408 168.0
56.081535 96.0
56.105366 156.0
56.108883 312.0
56.122032 108.0
56.133961 84.0
56.148254 208.0
56.167542 188.0
56.171978 204.0
56.190212 308.0
56.21571 124.0
56.229897 196.0
56.244366 152.0
56.271236 76.0
56.286503 116.0
56.300735 148.0
56.334671 168.0
56.350391 188.0
56.36319 104.0
56.387367 172.0
56.405022 300.0
56.431599 168.0
56.450699 148.0
56.475124 136.0
56.490921 172.0
56.502888 124.0
56.537533 184.0
56.551716 136.0
56.568661 160.0
56.588028 140.0
56.618744 212.0
56.630127 164.0
56.635311 148.0
56.655594 208.0
56.684334 176.0
56.703854 320.0
56.724525 160.0
56.743336 360.0
56.75901 96.0
56.771004 104.0
56.784271 272.0
56.817333 176.0
56.833458 152.0
56.856518 160.0
56.871841 132.0
56.898132 348.0
56.912727 184.0
56.929817 256.0
56.960117 128.0
56.975136 212.0
56.991993 128.0
57.021049 216.0
57.046661 176.0
57.066608 292.0
57.092407 200.0
57.104412 144.0
57.120956 144.0
57.136257 164.0
57.15556 132.0
57.169102 168.0
57.185658 216.0
57.198814 216.0
57.222565 116.0
57.24437 160.0
57.255947 204.0
57.292568 180.0
57.311699 132.0
57.317944 128.0
57.336086 168.0
57.339939 180.0
57.36964 180.0
57.376404 108.0
57.38002 140.0
57.422939 180.0
57.439384 80.0
57.457584 204.0
57.481789 144.0
57.497406 144.0
57.520275 192.0
57.539902 104.0
57.572212 220.0
57.592648 336.0
57.618435 176.0
57.630985 248.0
57.652225 216.0
57.675777 152.0
57.703552 188.0
57.717026 212.0
57.73719 120.0
57.75272 324.0
57.772282 136.0
57.787766 88.0
57.801384 128.0
57.815678 168.0
57.837868 188.0
57.857109 88.0
57.867645 252.0
57.891678 228.0
57.931156 120.0
57.943233 140.0
57.95179 144.0
57.963406 72.0
57.976746 292.0
57.990757 84.0
58.016632 168.0
58.030056 160.0
58.041142 356.0
58.062698 336.0
58.081196 300.0
58.10593 136.0
58.12262 52.0
58.143307 172.0
58.155113 156.0
58.168152 144.0
58.186016 260.0
58.203735 128.0
58.222809 312.0
58.24675 316.0
58.274044 160.0
58.301338 184.0
58.329597 184.0
58.342392 200.0
58.348667 140.0
58.350922 116.0
58.37426 140.0
58.406544 284.0
58.420998 160.0
58.44223 348.0
58.461086 364.0
58.474785 160.0
58.487827 144.0
58.512154 112.0
58.524303 212.0
58.535 220.0
58.548309 192.0
58.573669 164.0
58.590954 288.0
58.621384 140.0
58.632053 172.0
58.647293 192.0
58.67054 96.0
58.719631 72.0
58.72411 156.0
58.734909 104.0
58.752945 324.0
58.775024 148.0
58.785172 200.0
58.827999 60.0
58.845608 164.0
58.863983 216.0
58.914654 228.0
58.934875 128.0
58.980782 272.0
58.997261 212.0
59.014427 184.0
59.028275 320.0
59.05402 156.0
59.078724 96.0
59.103916 116.0
59.12075 188.0
59.150085 48.0
59.188057 128.0
59.207737 180.0
59.219669 300.0
59.243053 132.0
59.248184 132.0
59.26622 172.0
59.286686 124.0
59.300095 172.0
59.327442 356.0
59.36422 116.0
59.382126 276.0
59.393887 204.0
59.40519 168.0
59.422215 288.0
59.443138 180.0
59.487999 368.0
59.503128 52.0
59.513657 372.0
59.536274 84.0
59.555344 172.0
59.560158 80.0
59.57201 152.0
59.587132 76.0
59.590576 140.0
59.611343 472.0
59.630295 244.0
59.647129 160.0
59.6562 160.0
59.705151 128.0
59.729698 196.0
59.760384 204.0
59.775127 220.0
59.797028 220.0
59.807533 168.0
59.822186 176.0
59.832962 84.0
59.869106 184.0
59.893864 160.0
59.925369 224.0
59.954868 140.0
59.975361 164.0
59.98774 136.0
60.001392 320.0
60.031261 212.0
60.052528 172.0
60.074913 136.0
60.113998 168.0
60.144379 204.0
60.178314 120.0
60.206108 140.0
60.220009 156.0
60.240707 20.0
60.27018 256.0
60.279488 164.0
60.295715 160.0
60.313938 248.0
60.32938 220.0
60.359222 152.0
60.39579 396.0
60.422462 128.0
60.448814 116.0
60.478218 88.0
60.492149 60.0
60.511887 164.0
60.529163 172.0
60.549438 108.0
60.563606 172.0
60.576294 332.0
60.589268 168.0
60.601807 332.0
60.633213 164.0
60.643948 308.0
60.66132 232.0
60.685272 152.0
60.716583 160.0
60.735428 88.0
60.762276 316.0
60.786961 92.0
60.808289 96.0
60.830082 252.0
60.854046 92.0
60.87746 280.0
60.896267 160.0
60.919228 164.0
60.965046 116.0
60.970905 120.0
60.97588 60.0
61.002598 144.0
61.020115 148.0
61.050709 148.0
61.072433 140.0
61.084629 176.0
61.116089 132.0
61.129063 196.0
61.159954 204.0
61.176739 192.0
61.200527 72.0
61.216389 308.0
61.237141 152.0
61.266216 140.0
61.27692 356.0
61.291992 312.0
61.322578 184.0
61.343197 192.0
61.364861 460.0
61.386734 200.0
61.40464 200.0
61.423279 152.0
61.45887 200.0
61.476952 144.0
61.487907 328.0
61.511967 168.0
61.525909 312.0
61.552204 220.0
61.558384 180.0
61.561619 212.0
61.60141 264.0
61.617596 140.0
61.63092 184.0
61.657784 148.0
61.680595 128.0
61.692936 188.0
61.705051 180.0
61.711109 116.0
61.734386 220.0
61.778385 152.0
61.796246 156.0
61.808598 272.0
61.831234 116.0
61.862053 84.0
61.886635 216.0
61.905891 204.0
61.926048 124.0
61.941631 132.0
61.950844 360.0
61.974735 316.0
61.998817 288.0
62.029667 212.0
62.043579 128.0
62.058338 152.0
62.0816 256.0
62.096355 120.0
62.113449 200.0
62.13533 148.0
62.155132 212.0
62.169666 92.0
62.182446 212.0
62.206741 236.0
62.235184 152.0
62.255642 224.0
62.279808 192.0
62.294865 208.0
62.306633 120.0
62.32 132.0
62.346096 216.0
62.365574 152.0
62.383537 128.0
62.417809 124.0
62.442616 124.0
62.456768 136.0
62.470928 220.0
62.497299 152.0
62.512451 236.0
62.543312 164.0
62.561554 244.0
62.567173 176.0
62.570995 164.0
62.588966 160.0
62.606014 116.0
62.623611 168.0
62.648487 392.0
62.699543 184.0
62.735058 380.0
62.756287 208.0
62.777821 132.0
62.80014 308.0
62.827415 120.0
62.831924 260.0
62.860031 312.0
62.90012 220.0
62.919502 212.0
62.95211 136.0
62.970596 116.0
63.000973 256.0
63.045639 96.0
63.083481 136.0
63.110516 152.0
63.12764 172.0
63.155704 176.0
63.18502 148.0
63.199818 108.0
63.233547 304.0
63.249905 400.0
63.274715 124.0
63.281769 144.0
63.307457 144.0
63.321747 192.0
63.342674 272.0
63.373558 300.0
63.390026 96.0
63.404091 172.0
63.44537 196.0
63.463989 376.0
63.468147 228.0
63.490475 156.0
63.511665 236.0
63.541767 136.0
63.559498 108.0
63.574432 156.0
63.589649 164.0
63.615772 124.0
63.637276 132.0
63.659504 156.0
63.703976 172.0
63.729725 76.0
63.740517 176.0
63.767429 416.0
63.792965 152.0
63.815601 212.0
63.842079 364.0
63.873096 244.0
63.895039 152.0
63.916225 384.0
63.930668 104.0
63.942642 224.0
63.964622 176.0
63.988644 60.0
64.020493 88.0
64.048698 248.0
64.068581 144.0
64.088066 76.0
64.10424 348.0
64.146309 132.0
64.164192 152.0
64.179886 228.0
64.198059 124.0
64.223854 100.0
64.267822 120.0
64.282158 136.0
64.298195 164.0
64.31266 188.0
64.331741 204.0
64.385567 156.0
64.407539 200.0
64.442551 188.0
64.455978 84.0
64.485405 488.0
64.500732 220.0
64.524261 200.0
64.555397 188.0
64.566284 224.0
64.597687 152.0
64.618057 152.0
64.629425 152.0
64.64032 100.0
64.679016 296.0
64.685341 136.0
64.699181 144.0
64.72142 232.0
64.734314 172.0
64.748146 208.0
64.766457 236.0
64.778008 204.0
64.797691 184.0
64.811203 332.0
64.836845 156.0
64.85936 172.0
64.889557 176.0
64.893806 256.0
64.90963 308.0
64.933998 100.0
64.944344 248.0
64.964256 164.0
65.000732 132.0
65.016464 132.0
65.04631 524.0
65.067268 200.0
65.093468 136.0
65.105453 148.0
65.112679 180.0
65.119637 136.0
65.152229 356.0
65.163002 200.0
65.184303 100.0
65.211182 180.0
65.234947 144.0
65.255402 192.0
65.273491 180.0
65.29567 136.0
65.319115 108.0
65.338257 336.0
65.360085 272.0
65.395546 364.0
65.419563 196.0
65.468254 152.0
65.48616 184.0
65.508492 164.0
65.522964 168.0
65.554871 160.0
65.589653 188.0
65.601097 240.0
65.615677 244.0
65.635422 244.0
65.656624 148.0
65.678604 196.0
65.692238 188.0
65.716698 176.0
65.748886 180.0
65.764854 172.0
65.781883 160.0
65.79261 284.0
65.809708 260.0
65.81916 224.0
65.831696 216.0
65.858498 156.0
65.869804 200.0
65.891449 172.0
65.908577 120.0
65.934288 120.0
65.953049 200.0
65.979698 96.0
65.997551 172.0
66.031441 60.0
66.047829 60.0
66.074814 132.0
66.090714 256.0
66.110641 196.0
66.11277 140.0
66.133369 156.0
66.152695 132.0
66.171585 164.0
66.187874 144.0
66.203423 192.0
66.246277 224.0
66.273354 228.0
66.296944 352.0
66.321259 340.0
66.356789 344.0
66.369888 184.0
66.391785 120.0
66.419693 188.0
66.451889 164.0
66.475174 288.0
66.478989 380.0
66.506119 140.0
66.536179 180.0
66.54837 172.0
66.575836 92.0
66.588966 204.0
66.604477 196.0
66.619072 176.0
66.654991 196.0
66.661575 104.0
66.667107 128.0
66.69133 148.0
66.716713 156.0
66.731682 148.0
66.751442 180.0
66.822693 148.0
66.840057 140.0
66.891098 196.0
66.91256 68.0
66.927879 384.0
66.948936 212.0
66.964668 272.0
66.991592 196.0
67.014374 164.0
67.043686 112.0
67.068573 128.0
67.091019 148.0
67.109306 148.0
67.12989 116.0
67.147209 80.0
67.169319 208.0
67.175453 304.0
67.204193 348.0
67.217278 216.0
67.227722 136.0
67.239113 168.0
67.24971 92.0
67.264412 120.0
67.281776 108.0
67.304504 460.0
67.319862 116.0
67.333557 248.0
67.367561 148.0
67.392067 144.0
67.419228 432.0
67.459251 300.0
67.486816 252.0
67.519371 304.0
67.541786 352.0
67.555046 128.0
67.581734 60.0
67.611687 144.0
67.633492 156.0
67.639793 192.0
67.645561 248.0
67.667915 244.0
67.67791 116.0
67.692436 184.0
67.715408 160.0
67.734467 164.0
67.750366 120.0
67.768387 72.0
67.795303 288.0
67.809357 172.0
67.833397 108.0
67.857513 168.0
67.873291 48.0
67.893555 168.0
67.913017 196.0
67.933655 164.0
67.963013 200.0
67.991287 148.0
68.009598 168.0
68.044319 196.0
68.065811 132.0
68.087944 208.0
68.093277 160.0
68.111313 124.0
68.13047 172.0
68.154266 148.0
68.192513 252.0
68.217667 164.0
68.238663 120.0
68.284126 108.0
68.296997 92.0
68.309227 244.0
68.328819 80.0
68.35511 324.0
68.391991 180.0
68.412186 172.0
68.435867 176.0
68.449379 116.0
68.465805 120.0
68.480927 192.0
68.511063 260.0
68.533989 304.0
68.57251 148.0
68.615913 204.0
68.618546 152.0
68.625641 156.0
68.631943 112.0
68.672836 172.0
68.689789 52.0
68.711334 176.0
68.726967 132.0
68.738091 260.0
68.754646 212.0
68.766975 164.0
68.779564 212.0
68.795845 160.0
68.807121 164.0
68.824272 172.0
68.829094 156.0
68.858727 64.0
68.873291 220.0
68.895218 536.0
68.914375 144.0
68.930557 136.0
68.970268 244.0
68.99099 172.0
69.017876 232.0
69.037521 156.0
69.063789 128.0
69.069099 148.0
69.097069 104.0
69.121368 360.0
69.134766 128.0
69.145805 132.0
69.167908 124.0
69.199677 56.0
69.212616 128.0
69.254677 296.0
69.283966 152.0
69.299774 172.0
69.322037 156.0
69.344536 108.0
69.363266 392.0
69.381355 188.0
69.418282 232.0
69.445618 264.0
69.478111 60.0
69.51152 204.0
69.515854 160.0
69.519089 224.0
69.55336 184.0
69.559769 232.0
69.579346 52.0
69.59761 60.0
69.620522 180.0
69.659058 136.0
69.672348 80.0
69.698456 168.0
69.709251 188.0
69.726776 148.0
69.739799 148.0
69.75544 120.0
69.789482 100.0
69.805344 204.0
69.831024 196.0
69.861176 204.0
69.877228 228.0
69.912521 260.0
69.94558 288.0
69.965775 164.0
69.998848 316.0
70.020645 200.0
70.043312 232.0
70.060341 180.0
70.071754 136.0
70.086624 140.0
70.113564 228.0
70.152397 172.0
70.1577 112.0
70.175446 152.0
70.200684 296.0
70.239075 108.0
70.26255 140.0
70.284996 336.0
70.319206 368.0
70.336655 236.0
70.348969 188.0
70.385811 132.0
70.40023 136.0
70.418091 276.0
70.445122 132.0
70.460655 244.0
70.475487 228.0
70.49543 212.0
70.518463 140.0
70.551826 208.0
70.567169 132.0
70.590233 144.0
70.600883 224.0
70.616844 124.0
70.649269 136.0
70.662659 112.0
70.677895 264.0
70.692772 80.0
70.711212 104.0
70.751968 196.0
70.773125 44.0
70.80558 136.0
70.822891 200.0
70.853561 136.0
70.860489 148.0
70.897995 124.0
70.925568 164.0
70.944199 216.0
70.960136 116.0
70.97229 180.0
71.001526 232.0
71.028252 136.0
71.04966 156.0
71.076508 168.0
71.088921 300.0
71.102631 148.0
71.117104 212.0
71.147972 160.0
71.162354 468.0
71.181061 56.0
71.20163 172.0
71.222969 184.0
71.252846 152.0
71.269608 32.0
71.287712 204.0
71.309113 184.0
71.331932 136.0
71.355118 300.0
71.376472 180.0
71.382591 156.0
71.416611 404.0
71.432678 180.0
71.455223 472.0
71.474327 336.0
71.481049 144.0
71.511765 164.0
71.539474 164.0
71.553848 340.0
71.574051 88.0
71.590424 216.0
71.604057 176.0
71.619095 172.0
71.64563 176.0
71.673065 148.0
71.689758 180.0
71.707138 192.0
71.726631 148.0
71.740532 256.0
71.768578 216.0
71.784683 164.0
71.79892 156.0
71.815041 292.0
71.829422 160.0
71.84581 116.0
71.871643 116.0
71.906151 44.0
71.928032 116.0
71.964447 120.0
71.991432 124.0
72.017433 184.0
72.041756 224.0
72.059479 80.0
72.084305 208.0
72.109604 216.0
72.127602 144.0
72.151077 112.0
72.16291 44.0
72.192528 252.0
72.216667 244.0
72.25721 192.0
72.286308 500.0
72.305977 132.0
72.324631 128.0
72.336578 232.0
72.369072 132.0
72.389801 44.0
72.421944 120.0
72.450386 164.0
72.454559 224.0
72.479683 216.0
72.496033 100.0
72.512718 148.0
72.553902 168.0
72.578743 88.0
72.606857 208.0
72.661812 176.0
72.681427 284.0
72.702072 148.0
72.713722 536.0
72.735985 164.0
72.752556 168.0
72.766426 172.0
72.818871 356.0
72.841972 144.0
72.860657 104.0
72.872047 344.0
72.886665 212.0
72.89856 112.0
72.920074 176.0
72.946037 60.0
72.975525 228.0
72.99659 200.0
73.022659 148.0
73.037239 176.0
73.062637 240.0
73.079834 260.0
73.092918 152.0
73.12178 140.0
73.142677 112.0
73.153679 212.0
73.165596 184.0
73.178398 108.0
73.201355 136.0
73.230637 172.0
73.250359 216.0
73.261581 144.0
73.272491 220.0
73.284821 152.0
73.299057 168.0
73.311226 120.0
73.324776 108.0
73.344704 172.0
73.363159 312.0
73.395607 104.0
73.422943 472.0
73.445404 120.0
73.460121 128.0
73.498505 244.0
73.523888 196.0
73.548271 124.0
73.562416 248.0
73.588409 256.0
73.620216 252.0
73.640793 160.0
73.671158 204.0
73.697723 104.0
73.725189 108.0
73.750221 172.0
73.774254 108.0
73.787498 196.0
73.838913 148.0
73.850197 168.0
73.869339 136.0
73.901192 124.0
73.924591 124.0
73.938354 300.0
73.962799 276.0
73.976494 192.0
74.010757 208.0
74.029961 244.0
74.054031 252.0
74.080704 168.0
74.093559 180.0
74.120552 140.0
74.139206 192.0
74.158791 368.0
74.174004 240.0
74.190247 108.0
74.207771 116.0
74.221756 224.0
74.236412 160.0
74.277626 208.0
74.311951 324.0
74.332443 192.0
74.35701 324.0
74.376938 164.0
74.394218 148.0
74.40641 108.0
74.410812 164.0
74.436737 136.0
74.448578 248.0
74.460091 132.0
74.474648 128.0
74.499527 132.0
74.518425 212.0
74.544197 144.0
74.559669 116.0
74.576622 120.0
74.606071 128.0
74.622444 92.0
74.643898 108.0
74.667976 156.0
74.706337 352.0
74.731346 200.0
74.776367 200.0
74.805389 176.0
74.826958 200.0
74.840057 104.0
74.855263 164.0
74.88903 340.0
74.911125 196.0
74.929985 188.0
74.953743 140.0
74.972694 200.0
74.993927 180.0
75.010612 164.0
75.022682 204.0
75.049408 128.0
75.054062 160.0
75.066414 176.0
75.083 212.0
75.102005 116.0
75.121178 208.0
75.139839 108.0
75.151947 192.0
75.162323 112.0
75.167313 148.0
75.17157 296.0
75.188728 136.0
75.244209 372.0
75.260292 160.0
75.271446 152.0
75.30101 172.0
75.334595 440.0
75.349411 112.0
75.354424 144.0
75.373047 120.0
75.389427 116.0
75.402817 216.0
75.416252 136.0
75.436722 284.0
75.45713 244.0
75.476295 120.0
75.506081 92.0
75.520912 128.0
75.539017 136.0
75.55722 268.0
75.581024 172.0
75.616234 344.0
75.655586 100.0
75.67054 88.0
75.685486 184.0
75.717293 184.0
75.754341 120.0
75.778305 188.0
75.796249 236.0
75.81778 188.0
75.83416 44.0
75.869865 240.0
75.897202 392.0
75.909653 116.0
75.923531 204.0
75.93914 264.0
75.958321 136.0
75.979927 136.0
75.994652 136.0
76.00853 100.0
76.020676 128.0
76.032822 92.0
76.051613 184.0
76.071075 328.0
76.086632 136.0
76.140465 88.0
76.172829 148.0
76.178993 88.0
76.185143 176.0
76.202225 256.0
76.228691 192.0
76.248451 212.0
76.26239 156.0
76.28363 212.0
76.302895 256.0
76.330276 140.0
76.346252 228.0
76.375664 136.0
76.402267 220.0
76.455704 164.0
76.462624 208.0
76.486458 88.0
76.498642 44.0
76.560913 192.0
76.608894 272.0
76.627563 160.0
76.643677 204.0
76.657509 176.0
76.669121 64.0
76.696312 368.0
76.723412 160.0
76.758286 204.0
76.771149 320.0
76.793716 164.0
76.806007 72.0
76.823654 232.0
76.852211 164.0
76.882095 120.0
76.901398 68.0
76.914978 184.0
76.925362 324.0
76.953453 296.0
76.984375 272.0
77.016502 216.0
77.030502 92.0
77.054825 164.0
77.080009 152.0
77.097298 176.0
77.115417 168.0
77.1371 140.0
77.160133 272.0
77.196594 132.0
77.21595 168.0
77.235023 132.0
77.249443 160.0
77.270134 224.0
77.2873 136.0
77.312645 172.0
77.329506 128.0
77.356842 136.0
77.387268 100.0
77.399529 108.0
77.420044 184.0
77.426033 208.0
77.443871 164.0
77.462578 88.0
77.488853 152.0
77.506081 188.0
77.529854 120.0
77.562637 152.0
77.569565 144.0
77.575386 160.0
77.582115 204.0
77.601021 168.0
77.61319 132.0
77.627815 172.0
77.667458 204.0
77.687614 128.0
77.710716 148.0
77.74765 196.0
77.792641 348.0
77.817551 184.0
77.84668 108.0
77.873024 104.0
77.893867 152.0
77.906891 184.0
77.920868 152.0
77.936264 236.0
77.959106 196.0
77.972565 340.0
78.000389 188.0
78.023659 84.0
78.037567 88.0
78.05542 264.0
78.085686 144.0
78.099754 92.0
78.12487 192.0
78.1633 136.0
78.193008 292.0
78.210503 340.0
78.221558 216.0
78.24308 184.0
78.270889 268.0
78.285118 112.0
78.3004 144.0
78.339149 136.0
78.369102 152.0
78.385353 160.0
78.415337 296.0
78.425423 212.0
78.429359 288.0
78.437042 268.0
78.442451 168.0
78.448723 204.0
78.475441 160.0
78.501266 188.0
78.534355 124.0
78.547455 108.0
78.563499 136.0
78.575241 444.0
78.58992 128.0
78.612007 160.0
78.644203 200.0
78.661049 124.0
78.678413 104.0
78.697533 348.0
78.716591 200.0
78.730713 136.0
78.74308 72.0
78.762215 144.0
78.795456 140.0
78.812859 152.0
78.864243 252.0
78.878677 204.0
78.895782 256.0
78.946991 132.0
78.961792 420.0
78.980659 124.0
79.014801 168.0
79.048912 96.0
79.075462 160.0
79.097878 156.0
79.120316 188.0
79.146194 96.0
79.166664 124.0
79.180244 336.0
79.192337 244.0
79.208733 196.0
79.222832 176.0
79.257751 132.0
79.28373 148.0
79.289787 160.0
79.316566 444.0
79.330734 172.0
79.364983 208.0
79.388794 260.0
79.408546 72.0
79.427956 144.0
79.468216 212.0
79.480347 228.0
79.514572 164.0
79.564613 208.0
79.586006 124.0
79.602257 104.0
79.633865 404.0
79.645966 292.0
79.673103 188.0
79.702454 128.0
79.723045 180.0
79.735596 164.0
79.749443 224.0
79.763657 96.0
79.783211 60.0
79.796249 132.0
79.813362 96.0
79.837105 52.0
79.847229 136.0
79.865013 200.0
79.886383 160.0
79.900841 112.0
79.932617 84.0
79.953453 164.0
79.968208 128.0
79.987572 168.0
80.003807 260.0
80.025169 140.0
80.051758 116.0
80.064957 152.0
80.094978 80.0
80.12104 332.0
80.177414 112.0
80.207741 100.0
80.225723 204.0
80.267517 176.0
80.299599 56.0
80.316475 208.0
80.336021 172.0
80.361053 160.0
80.3909 204.0
80.426277 176.0
80.440559 172.0
80.456627 56.0
80.472694 152.0
80.489845 184.0
80.503044 188.0
80.529282 116.0
80.563278 216.0
80.593117 168.0
80.610229 100.0
80.634827 120.0
80.664177 304.0
80.681725 100.0
80.703491 184.0
80.724594 176.0
80.740364 184.0
80.759445 96.0
80.776237 164.0
80.789818 160.0
80.819679 188.0
80.851646 156.0
80.883575 200.0
80.917603 180.0
80.933075 188.0
80.964806 128.0
80.983398 200.0
81.009743 176.0
81.022614 160.0
81.039665 140.0
81.055809 248.0
81.09407 164.0
81.122108 256.0
81.152885 72.0
81.181274 208.0
81.193832 408.0
81.213554 168.0
81.227905 284.0
81.241539 180.0
81.269371 324.0
81.292877 188.0
81.318703 192.0
81.322571 116.0
81.330009 164.0
81.350128 180.0
81.390411 292.0
81.457672 96.0
81.486656 184.0
81.520653 168.0
81.533905 112.0
81.539154 172.0
81.556503 156.0
81.570885 140.0
81.59726 120.0
81.619057 356.0
81.636292 208.0
81.642937 128.0
81.659485 144.0
81.69162 140.0
81.732353 172.0
81.739548 92.0
81.744164 260.0
81.756958 308.0
81.760498 208.0
81.787712 176.0
81.808334 168.0
81.822456 172.0
81.843628 320.0
81.859329 160.0
81.878288 160.0
81.893929 196.0
81.914581 160.0
81.929298 260.0
81.94899 204.0
81.963226 120.0
81.985435 176.0
82.024429 168.0
82.035789 264.0
82.062355 292.0
82.076271 228.0
82.121292 136.0
82.148926 356.0
82.163353 196.0
82.185455 176.0
82.240288 152.0
82.265656 228.0
82.300072 160.0
82.324203 340.0
82.346771 196.0
82.360077 164.0
82.378563 272.0
82.418205 156.0
82.453148 196.0
82.479187 116.0
82.490387 88.0
82.512535 140.0
82.521858 188.0
82.548325 196.0
82.6008 496.0
82.6222 328.0
82.651184 144.0
82.673401 144.0
82.699417 296.0
82.72464 176.0
82.75956 160.0
82.777824 112.0
82.784058 108.0
82.797035 112.0
82.812302 312.0
82.832565 196.0
82.848282 180.0
82.852966 328.0
82.867699 172.0
82.908318 200.0
82.932777 148.0
82.951866 188.0
82.970749 136.0
82.981781 228.0
83.003944 128.0
83.011421 96.0
83.017532 116.0
83.043404 188.0
83.089645 124.0
83.119514 216.0
83.158646 148.0
83.196159 160.0
83.20179 156.0
83.207809 192.0
83.233032 124.0
83.251877 148.0
83.265114 168.0
83.285698 116.0
83.297432 112.0
83.309311 124.0
83.329292 48.0
83.355202 340.0
83.370796 100.0
83.387009 168.0
83.405418 196.0
83.420433 240.0
83.457878 236.0
83.481262 176.0
83.494713 132.0
83.523048 152.0
83.54319 204.0
83.572884 340.0
83.602303 128.0
83.618347 100.0
83.646881 196.0
83.69268 240.0
83.719086 220.0
83.744217 132.0
83.763031 152.0
83.784126 112.0
83.808617 144.0
83.840431 160.0
83.846992 144.0
83.881096 132.0
83.902519 108.0
83.924461 56.0
83.949989 172.0
83.972 360.0
83.990059 132.0
84.005676 128.0
84.017822 136.0
84.045219 212.0
84.066742 80.0
84.095131 144.0
84.144592 80.0
84.171463 196.0
84.184967 168.0
84.199783 160.0
84.227409 164.0
84.251152 216.0
84.266747 180.0
84.279282 168.0
84.292778 220.0
84.317352 132.0
84.348976 128.0
84.372398 200.0
84.385223 148.0
84.41748 148.0
84.451569 280.0
84.474182 152.0
84.496132 168.0
84.532295 188.0
84.546516 180.0
84.567223 160.0
84.586861 180.0
84.609596 88.0
84.62529 140.0
84.645149 192.0
84.670189 224.0
84.698189 192.0
84.719391 160.0
84.731155 160.0
84.756096 176.0
84.781868 196.0
84.811218 188.0
84.843544 304.0
84.851631 148.0
84.855804 124.0
84.879883 248.0
84.902771 180.0
84.93161 276.0
84.95031 196.0
84.98999 212.0
85.0317 320.0
85.072685 152.0
85.095055 192.0
85.119316 152.0
85.135307 180.0
85.155144 172.0
85.1642 100.0
85.176666 196.0
85.205246 212.0
85.247902 132.0
85.26886 164.0
85.290169 144.0
85.321976 224.0
85.337967 256.0
85.352089 388.0
85.374451 176.0
85.381813 128.0
85.389565 280.0
85.40448 176.0
85.429924 124.0
85.450432 272.0
85.485527 164.0
85.491325 108.0
85.49958 104.0
85.532425 148.0
85.559479 140.0
85.58268 124.0
85.614334 376.0
85.641609 156.0
85.653854 68.0
85.671577 172.0
85.688705 148.0
85.694824 72.0
85.699524 276.0
85.727402 120.0
85.754715 176.0
85.80497 228.0
85.822205 88.0
85.84037 188.0
85.874123 104.0
85.908638 356.0
85.941132 176.0
86.011559 352.0
86.028839 188.0
86.052719 180.0
86.061913 140.0
86.064926 308.0
86.07869 316.0
86.09346 164.0
86.111191 268.0
86.152153 212.0
86.171043 196.0
86.221382 132.0
86.270317 128.0
86.299438 228.0
86.318909 260.0
86.338516 100.0
86.366425 196.0
86.399292 200.0
86.410965 396.0
86.429893 124.0
86.444176 184.0
86.457649 152.0
86.48082 120.0
86.505775 192.0
86.5214 136.0
86.547188 348.0
86.584442 148.0
86.60247 328.0
86.621117 180.0
86.641891 320.0
86.662361 196.0
86.696114 148.0
86.72364 312.0
86.750298 252.0
86.76532 120.0
86.777817 152.0
86.797363 108.0
86.813339 128.0
86.831352 148.0
86.846085 116.0
86.858887 208.0
86.922379 184.0
86.927238 140.0
86.940933 212.0
86.96035 100.0
86.994057 172.0
87.028915 136.0
87.047157 224.0
87.066963 192.0
87.087738 164.0
87.116188 296.0
87.131897 32.0
87.163925 164.0
87.181137 192.0
87.204308 152.0
87.22551 128.0
87.238525 140.0
87.260284 140.0
87.31015 184.0
87.315804 236.0
87.342659 116.0
87.360458 144.0
87.382149 264.0
87.398468 84.0
87.417213 332.0
87.444214 144.0
87.46714 256.0
87.481888 192.0
87.53994 228.0
87.555115 160.0
87.578384 124.0
87.608849 112.0
87.636307 136.0
87.643379 308.0
87.650436 268.0
87.690781 224.0
87.728539 160.0
87.750275 172.0
87.767212 128.0
87.792442 128.0
87.824326 128.0
87.835632 140.0
87.879997 192.0
87.895653 140.0
87.934731 52.0
87.970627 128.0
87.996765 124.0
88.035439 124.0
88.044739 52.0
88.049316 276.0
88.067627 104.0
88.082222 140.0
88.095749 136.0
88.133583 176.0
88.166748 224.0
88.179832 200.0
88.211578 164.0
88.263527 88.0
88.308838 160.0
88.325546 120.0
88.344482 140.0
88.384369 140.0
88.40284 196.0
88.431534 152.0
88.500664 148.0
88.518242 76.0
88.552002 360.0
88.554832 144.0
88.590996 200.0
88.595482 148.0
88.627663 308.0
88.641769 172.0
88.662682 172.0
88.692673 124.0
88.719406 384.0
88.748917 144.0
88.772316 200.0
88.808075 180.0
88.828125 288.0
88.843407 104.0
88.861244 144.0
88.88813 164.0
88.912117 188.0
88.938393 132.0
88.964668 72.0
88.980713 160.0
89.005974 148.0
89.037209 152.0
89.055283 248.0
89.088783 168.0
89.109367 204.0
89.125023 116.0
89.139816 380.0
89.165649 196.0
89.178055 180.0
89.197121 184.0
89.210037 156.0
89.232834 212.0
89.265358 204.0
89.283264 176.0
89.331352 128.0
89.35643 244.0
89.382317 176.0
89.412407 216.0
89.449219 68.0
89.464325 132.0
89.492966 136.0
89.523262 176.0
89.550697 140.0
89.578796 132.0
89.59169 128.0
89.638313 164.0
89.661308 120.0
89.692154 196.0
89.720047 156.0
89.752357 184.0
89.78038 252.0
89.796318 248.0
89.816444 216.0
89.869926 84.0
89.885025 68.0
89.90873 172.0
89.923859 76.0
89.961411 288.0
90.013115 140.0
90.021072 108.0
90.025223 148.0
90.052887 148.0
90.057121 148.0
90.071526 328.0
90.104355 368.0
90.12281 176.0
90.173141 176.0
90.20771 168.0
90.228996 172.0
90.249847 248.0
90.265396 152.0
90.290062 144.0
90.301819 220.0
90.3069 128.0
90.349815 116.0
90.366699 160.0
90.385765 52.0
90.400223 216.0
90.426086 220.0
90.44883 316.0
90.460381 132.0
90.465759 208.0
90.480019 140.0
90.503571 200.0
90.526733 144.0
90.546669 120.0
90.559929 164.0
90.592133 452.0
90.605919 208.0
90.648972 172.0
90.668488 176.0
90.683853 108.0
90.68924 128.0
90.710808 188.0
90.735214 208.0
90.762787 172.0
90.779007 328.0
90.806221 156.0
90.810623 148.0
90.836151 212.0
90.858177 260.0
90.873726 172.0
90.908768 168.0
90.946938 144.0
90.966209 192.0
91.010231 220.0
91.024239 140.0
91.053658 2264.0
91.071152 476.0
91.086189 116.0
91.10804 128.0
91.129349 96.0
91.169197 288.0
91.180916 236.0
91.20314 40.0
91.238487 244.0
91.271774 156.0
91.329811 220.0
91.343987 112.0
91.366684 100.0
91.389511 140.0
91.412384 208.0
91.438988 228.0
91.452309 136.0
91.478958 368.0
91.491135 164.0
91.504219 432.0
91.523079 476.0
91.540268 140.0
91.578094 124.0
91.614769 152.0
91.627815 196.0
91.648079 208.0
91.682907 204.0
91.712685 100.0
91.721474 112.0
91.726021 168.0
91.749382 176.0
91.783966 128.0
91.798271 248.0
91.839203 140.0
91.850365 88.0
91.855499 220.0
91.876205 88.0
91.901413 192.0
91.907532 128.0
91.914604 304.0
91.942192 112.0
91.958809 124.0
91.973053 176.0
91.994957 376.0
92.035484 208.0
92.058846 168.0
92.082321 208.0
92.112053 152.0
92.128197 192.0
92.146523 92.0
92.173225 184.0
92.195114 176.0
92.230522 288.0
92.261108 88.0
92.300537 216.0
92.34333 60.0
92.360542 132.0
92.376648 204.0
92.393944 104.0
92.407997 328.0
92.447685 340.0
92.49234 184.0
92.50856 340.0
92.532768 240.0
92.550613 200.0
92.572983 176.0
92.616364 160.0
92.638359 124.0
92.67115 208.0
92.690117 108.0
92.704865 180.0
92.7258 176.0
92.767387 180.0
92.799156 212.0
92.811684 140.0
92.839027 308.0
92.851143 156.0
92.876198 132.0
92.891884 180.0
92.917999 184.0
92.933342 152.0
92.95224 348.0
92.96833 188.0
92.993378 292.0
93.017784 156.0
93.051689 172.0
93.068214 388.0
93.090179 420.0
93.10276 108.0
93.119453 312.0
93.142044 264.0
93.148651 188.0
93.155792 120.0
93.171303 128.0
93.195244 396.0
93.230423 212.0
93.244759 156.0
93.268234 156.0
93.288223 204.0
93.305946 108.0
93.329018 176.0
93.360329 184.0
93.374962 232.0
93.394402 76.0
93.415421 112.0
93.422661 104.0
93.429863 184.0
93.455734 184.0
93.472549 176.0
93.496193 104.0
93.511826 140.0
93.521797 152.0
93.536232 152.0
93.556717 148.0
93.613914 276.0
93.641243 256.0
93.67231 388.0
93.68541 224.0
93.710114 100.0
93.740944 212.0
93.794273 172.0
93.821365 292.0
93.828262 180.0
93.854202 200.0
93.858093 36.0
93.899277 336.0
93.914398 136.0
93.95002 128.0
93.966537 124.0
93.986 228.0
94.020012 112.0
94.064484 340.0
94.09153 208.0
94.124809 152.0
94.144852 84.0
94.159569 148.0
94.183067 144.0
94.198036 336.0
94.239319 84.0
94.262344 300.0
94.285522 288.0
94.312202 300.0
94.339745 80.0
94.379234 164.0
94.401329 196.0
94.424339 128.0
94.464958 152.0
94.480354 192.0
94.486954 184.0
94.508888 164.0
94.5168 116.0
94.52256 140.0
94.550095 204.0
94.57795 204.0
94.600708 108.0
94.62249 140.0
94.629318 56.0
94.636803 136.0
94.655464 296.0
94.680908 204.0
94.703049 160.0
94.718544 92.0
94.732857 412.0
94.763016 296.0
94.778648 152.0
94.808968 196.0
94.839073 232.0
94.864632 204.0
94.880493 224.0
94.896416 272.0
94.927589 236.0
94.934967 72.0
94.94989 268.0
94.987129 300.0
95.00634 188.0
95.029167 612.0
95.066254 260.0
95.108688 116.0
95.125435 172.0
95.140854 108.0
95.162239 252.0
95.208328 184.0
95.22123 344.0
95.234261 136.0
95.259743 144.0
95.292488 240.0
95.334808 164.0
95.347885 164.0
95.36264 188.0
95.403549 140.0
95.45282 152.0
95.461678 156.0
95.481323 36.0
95.510384 212.0
95.532852 324.0
95.552277 184.0
95.603348 116.0
95.606438 332.0
95.63308 196.0
95.670555 488.0
95.708786 180.0
95.732368 148.0
95.779114 204.0
95.800537 124.0
95.831848 240.0
95.851433 196.0
95.876083 244.0
95.911163 472.0
95.95723 160.0
95.963707 148.0
96.00383 348.0
96.026443 352.0
96.079491 1228.0
96.098495 504.0
96.13987 116.0
96.187927 156.0
96.203522 204.0
96.232521 312.0
96.258881 180.0
96.286453 244.0
96.30114 216.0
96.342995 160.0
96.362404 140.0
96.392052 276.0
96.409294 396.0
96.426155 208.0
96.458649 272.0
96.497894 148.0
96.534523 136.0
96.553619 336.0
96.581345 152.0
96.595039 168.0
96.628548 156.0
96.651772 120.0
96.674492 208.0
96.679337 212.0
96.698906 188.0
96.733971 128.0
96.753548 76.0
96.768295 196.0
96.798866 220.0
96.835129 236.0
96.866386 148.0
96.879654 228.0
96.912193 132.0
96.929398 332.0
96.952629 88.0
96.970116 172.0
97.008904 332.0
97.038116 160.0
97.085762 204.0
97.100143 200.0
97.128746 164.0
97.147499 164.0
97.179733 284.0
97.199036 356.0
97.225044 204.0
97.249191 160.0
97.305199 84.0
97.309364 168.0
97.318199 116.0
97.33165 120.0
97.336479 116.0
97.354248 196.0
97.364426 96.0
97.392822 144.0
97.411583 116.0
97.451607 208.0
97.458878 192.0
97.478516 304.0
97.493019 172.0
97.508743 116.0
97.521515 64.0
97.545029 372.0
97.563782 128.0
97.612045 432.0
97.631508 180.0
97.663506 84.0
97.677025 136.0
97.680954 164.0
97.707245 80.0
97.728683 132.0
97.735443 100.0
97.743279 136.0
97.756531 248.0
97.776833 140.0
97.841339 284.0
97.865646 120.0
97.873436 124.0
97.884254 136.0
97.928658 112.0
97.955391 220.0
97.976715 116.0
97.980339 132.0
98.005424 200.0
98.034142 520.0
98.055336 116.0
98.095665 224.0
98.121094 140.0
98.142609 56.0
98.167175 140.0
98.184349 144.0
98.213013 132.0
98.245171 144.0
98.267998 140.0
98.305344 288.0
98.325081 172.0
98.343704 192.0
98.364853 172.0
98.393768 148.0
98.408974 120.0
98.432419 248.0
98.439278 216.0
98.456894 180.0
98.481583 152.0
98.495377 148.0
98.515625 196.0
98.531311 224.0
98.558067 120.0
98.580826 52.0
98.605354 252.0
98.619148 92.0
98.64209 52.0
98.671135 440.0
98.688225 240.0
98.709312 104.0
98.734032 160.0
98.764496 220.0
98.792381 80.0
98.806229 104.0
98.825302 156.0
98.849335 204.0
98.897255 216.0
98.912743 112.0
98.92408 204.0
98.942123 168.0
98.976448 104.0
99.008438 280.0
99.051857 412.0
99.079437 148.0
99.112625 160.0
99.138329 164.0
99.17141 164.0
99.193893 288.0
99.208252 152.0
99.227493 176.0
99.243935 116.0
99.271698 116.0
99.288383 232.0
99.321014 188.0
99.345085 268.0
99.37162 128.0
99.441414 124.0
99.458191 320.0
99.475639 132.0
99.497078 168.0
99.528641 288.0
99.559814 152.0
99.589241 92.0
99.603767 304.0
99.623444 128.0
99.649452 132.0
99.67556 176.0
99.7061 220.0
99.728394 108.0
99.768074 160.0
99.790672 272.0
99.813179 244.0
99.862953 116.0
99.881424 84.0
99.899643 192.0
99.932304 164.0
99.948761 104.0
99.961472 208.0
99.982895 136.0
100.000809 228.0
100.03495 180.0
100.06955 128.0
100.091759 220.0
100.129128 124.0
100.160866 144.0
100.177063 116.0
100.191971 140.0
100.215157 348.0
100.23732 288.0
100.263466 272.0
100.283844 300.0
100.307404 168.0
100.343018 216.0
100.383476 308.0
100.408936 268.0
100.413536 144.0
100.457253 160.0
100.49501 100.0
100.514961 152.0
100.540909 152.0
100.555878 176.0
100.590881 208.0
100.620163 260.0
100.66172 284.0
100.692139 80.0
100.723373 180.0
100.741821 192.0
100.764977 248.0
100.801445 128.0
100.822952 148.0
100.842896 164.0
100.860466 136.0
100.882454 180.0
100.917564 492.0
100.964111 192.0
100.977531 200.0
101.015129 160.0
101.029488 184.0
101.041656 244.0
101.079727 156.0
101.094994 92.0
101.102386 184.0
101.138222 204.0
101.144867 176.0
101.150993 148.0
101.157028 124.0
101.16552 144.0
101.198067 264.0
101.220657 108.0
101.260712 104.0
101.276657 372.0
101.309654 324.0
101.32338 124.0
101.345222 176.0
101.366043 236.0
101.38324 240.0
101.401833 332.0
101.430336 192.0
101.44725 120.0
101.463127 144.0
101.48391 248.0
101.50312 156.0
101.532516 228.0
101.538841 108.0
101.544357 64.0
101.566963 340.0
101.581673 144.0
101.614799 316.0
101.641701 188.0
101.681656 48.0
101.705742 276.0
101.721802 140.0
101.746468 264.0
101.771996 144.0
101.788055 212.0
101.801971 156.0
101.82486 184.0
101.85054 180.0
101.871277 124.0
101.886406 128.0
101.889091 184.0
101.924202 164.0
101.942734 148.0
101.971619 224.0
101.988045 88.0
102.01107 168.0
102.027153 88.0
102.046753 160.0
102.096092 140.0
102.130394 128.0
102.156357 128.0
102.174599 76.0
102.19297 392.0
102.215889 128.0
102.248413 292.0
102.261284 232.0
102.295456 148.0
102.318863 128.0
102.343513 344.0
102.365173 92.0
102.387993 312.0
102.409004 136.0
102.438736 168.0
102.447525 204.0
102.45594 60.0
102.460846 176.0
102.486031 132.0
102.513397 172.0
102.545555 104.0
102.568657 156.0
102.592155 168.0
102.615021 92.0
102.662376 140.0
102.680031 148.0
102.699593 196.0
102.723923 64.0
102.74527 196.0
102.769234 160.0
102.790504 312.0
102.816734 64.0
102.830864 88.0
102.848633 164.0
102.877289 100.0
102.908493 140.0
102.940582 172.0
102.965363 172.0
102.993217 176.0
103.019524 200.0
103.053856 1036.0
103.093491 320.0
103.148552 140.0
103.181061 324.0
103.189774 136.0
103.194656 176.0
103.227303 392.0
103.251335 132.0
103.269783 236.0
103.311287 132.0
103.317436 80.0
103.323151 196.0
103.360329 164.0
103.401741 268.0
103.422157 156.0
103.438629 280.0
103.455574 148.0
103.475426 280.0
103.502647 116.0
103.528351 144.0
103.552788 96.0
103.595413 176.0
103.619667 188.0
103.637131 148.0
103.656158 200.0
103.674561 160.0
103.695351 148.0
103.720551 212.0
103.74881 188.0
103.777153 188.0
103.810028 144.0
103.832336 176.0
103.847595 412.0
103.878479 128.0
103.905678 348.0
103.933884 160.0
103.951889 176.0
104.019501 136.0
104.050087 1500.0
104.098183 140.0
104.119385 164.0
104.139626 188.0
104.165207 92.0
104.193649 176.0
104.210686 260.0
104.227448 296.0
104.249565 92.0
104.277077 140.0
104.323708 120.0
104.344963 208.0
104.369514 196.0
104.404282 140.0
104.419395 136.0
104.444801 172.0
104.47216 52.0
104.494545 216.0
104.528198 200.0
104.535843 108.0
104.564705 332.0
104.577972 64.0
104.61702 192.0
104.646027 140.0
104.65197 128.0
104.660957 148.0
104.691223 32.0
104.741272 192.0
104.756508 136.0
104.775497 140.0
104.841095 144.0
104.862617 196.0
104.897766 148.0
104.91436 272.0
104.93718 160.0
104.990669 124.0
105.00753 192.0
105.019432 72.0
105.030884 256.0
105.052406 152.0
105.067276 408.0
105.107765 152.0
105.146606 108.0
105.160301 136.0
105.179176 92.0
105.191093 248.0
105.216011 180.0
105.230301 216.0
105.247559 160.0
105.278572 172.0
105.30381 144.0
105.32074 180.0
105.341919 140.0
105.36618 180.0
105.386375 164.0
105.410248 120.0
105.427048 96.0
105.47049 284.0
105.509377 180.0
105.525719 256.0
105.562721 116.0
105.581078 204.0
105.59729 108.0
105.627594 208.0
105.655396 140.0
105.689598 204.0
105.723785 152.0
105.733154 156.0
105.794205 276.0
105.821373 176.0
105.836929 132.0
105.848984 48.0
105.868271 92.0
105.886703 144.0
105.905975 184.0
105.926086 156.0
105.947617 216.0
105.974236 232.0
106.002815 652.0
106.036598 216.0
106.065804 6468.0
106.099808 124.0
106.114159 116.0
106.144913 96.0
106.174873 344.0
106.236183 236.0
106.243858 132.0
106.274132 100.0
106.300995 88.0
106.317635 132.0
106.325012 176.0
106.333275 332.0
106.367393 144.0
106.382904 228.0
106.396362 124.0
106.413704 184.0
106.436974 372.0
106.465034 160.0
106.478966 148.0
106.499954 108.0
106.515457 160.0
106.54657 256.0
106.565804 140.0
106.614136 236.0
106.654053 148.0
106.669777 216.0
106.705696 164.0
106.732368 296.0
106.754204 180.0
106.781326 280.0
106.830116 148.0
106.852188 196.0
106.867676 196.0
106.888504 124.0
106.910683 108.0
106.931572 168.0
106.953384 236.0
106.958145 124.0
106.97155 132.0
106.999649 164.0
107.013542 160.0
107.067719 536.0
107.114311 152.0
107.13636 208.0
107.170593 336.0
107.184013 84.0
107.219055 268.0
107.251251 176.0
107.271187 228.0
107.298912 216.0
107.339142 156.0
107.378799 196.0
107.420807 208.0
107.444809 184.0
107.459068 140.0
107.510834 60.0
107.529411 120.0
107.547981 76.0
107.562431 160.0
107.57972 236.0
107.611061 332.0
107.648872 196.0
107.672852 272.0
107.70417 112.0
107.731903 180.0
107.750435 104.0
107.785828 172.0
107.806625 140.0
107.824974 144.0
107.843765 172.0
107.876213 160.0
107.926033 36.0
107.96946 100.0
107.988075 132.0
108.004379 172.0
108.02639 144.0
108.049522 176.0
108.08255 388.0
108.137039 76.0
108.16291 124.0
108.193329 124.0
108.208786 152.0
108.263206 172.0
108.3041 152.0
108.340118 108.0
108.357811 196.0
108.417923 240.0
108.448799 192.0
108.471054 200.0
108.499031 244.0
108.524254 152.0
108.557655 148.0
108.576218 188.0
108.6129 108.0
108.644859 164.0
108.679764 132.0
108.695732 196.0
108.729782 132.0
108.754692 140.0
108.775635 152.0
108.807831 244.0
108.828697 184.0
108.86763 200.0
108.903069 112.0
108.918633 152.0
108.933723 144.0
108.959618 248.0
109.019585 176.0
109.04464 2056.0
109.068443 144.0
109.089424 152.0
109.112556 188.0
109.169472 136.0
109.17794 216.0
109.183197 164.0
109.212128 152.0
109.265884 268.0
109.280945 184.0
109.294411 152.0
109.328308 156.0
109.355255 220.0
109.377403 176.0
109.409485 140.0
109.431305 116.0
109.448433 428.0
109.498901 176.0
109.541023 192.0
109.576515 216.0
109.610428 352.0
109.642151 400.0
109.670715 188.0
109.686615 320.0
109.726028 136.0
109.771576 168.0
109.793472 184.0
109.80513 128.0
109.842804 272.0
109.856903 184.0
109.885674 336.0
109.903435 68.0
109.924744 56.0
109.944176 160.0
109.958984 148.0
109.976471 196.0
110.046494 296.0
110.075607 132.0
110.096664 404.0
110.128632 160.0
110.159508 244.0
110.187935 156.0
110.215225 160.0
110.224655 200.0
110.240906 52.0
110.247299 160.0
110.264702 164.0
110.301971 96.0
110.310219 144.0
110.347733 144.0
110.361252 164.0
110.386063 148.0
110.405815 136.0
110.437782 204.0
110.460236 108.0
110.48188 120.0
110.503708 228.0
110.540123 160.0
110.563766 104.0
110.593987 200.0
110.633026 180.0
110.650772 92.0
110.683441 140.0
110.699638 288.0
110.723412 172.0
110.761513 172.0
110.777328 160.0
110.798492 160.0
110.823425 172.0
110.856064 276.0
110.888954 168.0
110.91069 156.0
110.928207 120.0
110.944778 168.0
110.960007 100.0
110.969765 156.0
110.978195 228.0
111.011177 272.0
111.039955 108.0
111.057846 152.0
111.103302 672.0
111.13472 168.0
111.176453 304.0
111.212914 148.0
111.261131 188.0
111.267769 176.0
111.291153 176.0
111.309898 168.0
111.34893 140.0
111.40036 92.0
111.417015 276.0
111.46637 192.0
111.484406 260.0
111.501846 148.0
111.546738 128.0
111.562172 132.0
111.578545 168.0
111.598518 320.0
111.634712 144.0
111.643784 172.0
111.699211 144.0
111.764999 192.0
111.789528 208.0
111.817589 180.0
111.851448 140.0
111.88942 208.0
111.897499 184.0
111.925911 240.0
111.933434 96.0
111.941902 144.0
111.958847 224.0
111.985115 48.0
112.018822 240.0
112.048004 264.0
112.068619 164.0
112.110245 216.0
112.125938 180.0
112.15345 148.0
112.185913 204.0
112.215752 144.0
112.250656 68.0
112.275543 120.0
112.295578 120.0
112.32869 60.0
112.345337 220.0
112.371796 152.0
112.421715 168.0
112.430733 132.0
112.437752 180.0
112.457024 132.0
112.460854 152.0
112.502647 192.0
112.5224 228.0
112.552162 176.0
112.59655 252.0
112.609871 236.0
112.629456 156.0
112.656677 140.0
112.724258 200.0
112.76403 284.0
112.783501 164.0
112.812737 200.0
112.835678 216.0
112.861465 192.0
112.905304 416.0
112.925171 120.0
112.978676 140.0
112.992706 128.0
112.999649 192.0
113.042961 296.0
113.075577 124.0
113.097092 172.0
113.11731 140.0
113.14257 184.0
113.161339 84.0
113.177643 172.0
113.20414 188.0
113.246048 132.0
113.266678 184.0
113.298195 304.0
113.374451 172.0
113.406357 140.0
113.44397 216.0
113.47554 252.0
113.500351 208.0
113.519402 272.0
113.543159 64.0
113.580719 156.0
113.586617 248.0
113.619705 132.0
113.637672 172.0
113.680084 208.0
113.716736 156.0
113.759941 224.0
113.805099 172.0
113.824623 140.0
113.854622 224.0
113.906685 224.0
113.943947 148.0
113.966927 176.0
113.990517 192.0
114.012642 168.0
114.043823 132.0
114.060822 80.0
114.089409 292.0
114.110855 112.0
114.138718 292.0
114.173508 148.0
114.192436 120.0
114.226746 132.0
114.251175 168.0
114.284935 168.0
114.308151 124.0
114.342819 384.0
114.359589 112.0
114.389046 176.0
114.422562 196.0
114.443672 204.0
114.448753 196.0
114.459335 76.0
114.466446 220.0
114.487885 176.0
114.504051 140.0
114.536499 208.0
114.55854 76.0
114.609894 124.0
114.629868 172.0
114.648392 124.0
114.684982 244.0
114.744492 224.0
114.765846 96.0
114.814537 124.0
114.838783 228.0
114.86483 152.0
114.906258 92.0
114.923325 152.0
114.940399 164.0
114.962097 164.0
114.98703 188.0
115.002289 136.0
115.021454 216.0
115.053268 1152.0
115.078781 116.0
115.10318 164.0
115.134651 92.0
115.192322 220.0
115.226768 32.0
115.231895 160.0
115.275154 160.0
115.292389 364.0
115.306686 160.0
115.327293 264.0
115.346588 148.0
115.362778 68.0
115.431732 232.0
115.466667 172.0
115.482941 108.0
115.504959 124.0
115.523666 220.0
115.547905 160.0
115.563431 208.0
115.592247 144.0
115.607346 180.0
115.647026 208.0
115.664322 164.0
115.68737 148.0
115.709846 108.0
115.72625 200.0
115.766533 144.0
115.789078 116.0
115.811661 184.0
115.828453 116.0
115.85968 212.0
115.883095 144.0
115.909912 324.0
115.935425 116.0
115.962616 244.0
115.984985 248.0
115.991524 176.0
116.017609 128.0
116.037643 116.0
116.059898 392.0
116.084045 208.0
116.11364 136.0
116.159233 176.0
116.168892 212.0
116.204575 120.0
116.213257 100.0
116.218918 208.0
116.232826 388.0
116.26033 316.0
116.284332 180.0
116.305794 256.0
116.353897 236.0
116.402405 100.0
116.434692 232.0
116.440948 160.0
116.453392 448.0
116.47197 204.0
116.497536 480.0
116.520538 184.0
116.569321 304.0
116.611961 212.0
116.639778 92.0
116.678329 148.0
116.703659 168.0
116.73613 172.0
116.756981 92.0
116.774185 160.0
116.822639 152.0
116.849792 180.0
116.863861 208.0
116.921356 184.0
116.942009 144.0
116.980553 288.0
117.01239 196.0
117.031067 280.0
117.057938 3848.0
117.098557 180.0
117.140106 420.0
117.159492 100.0
117.206894 144.0
117.228317 136.0
117.248802 152.0
117.268372 152.0
117.293495 180.0
117.317841 476.0
117.358681 152.0
117.383156 216.0
117.418152 144.0
117.438972 208.0
117.467842 324.0
117.498123 340.0
117.526695 224.0
117.549805 136.0
117.56723 116.0
117.619888 156.0
117.66375 156.0
117.723106 388.0
117.742935 248.0
117.778473 196.0
117.807037 192.0
117.825661 264.0
117.845474 100.0
117.859627 208.0
117.89859 208.0
117.922409 128.0
117.942955 176.0
117.970573 204.0
117.994102 220.0
118.028625 260.0
118.037758 180.0
118.041771 272.0
118.06546 55932.0
118.123291 200.0
118.172035 192.0
118.197243 436.0
118.234612 220.0
118.284447 68.0
118.323006 184.0
118.353294 348.0
118.370842 92.0
118.39119 484.0
118.422569 152.0
118.45845 148.0
118.4851 260.0
118.533424 124.0
118.538277 252.0
118.576622 136.0
118.598984 288.0
118.633331 72.0
118.641846 112.0
118.649796 176.0
118.665298 172.0
118.672737 196.0
118.679642 256.0
118.705933 140.0
118.728737 48.0
118.756241 176.0
118.76506 160.0
118.768768 296.0
118.792427 176.0
118.820602 148.0
118.843872 104.0
118.863235 112.0
118.895393 180.0
118.915314 76.0
118.943893 68.0
118.986168 192.0
119.009796 92.0
119.016441 96.0
119.024384 100.0
119.042557 236.0
119.069138 3728.0
119.12738 180.0
119.152008 140.0
119.190926 92.0
119.217476 244.0
119.237541 264.0
119.278046 132.0
119.316277 164.0
119.349785 76.0
119.37822 288.0
119.394966 192.0
119.422722 380.0
119.449127 124.0
119.466721 220.0
119.474312 136.0
119.483582 148.0
119.489967 188.0
119.543381 252.0
119.560791 100.0
119.582558 176.0
119.633408 212.0
119.670647 312.0
119.728424 156.0
119.748566 176.0
119.765953 156.0
119.801338 232.0
119.84938 192.0
119.885628 124.0
119.909607 220.0
119.934677 120.0
119.971611 156.0
119.994263 72.0
120.023544 220.0
120.03833 132.0
120.079994 2020.0
120.114929 156.0
120.130447 220.0
120.175285 104.0
120.190559 188.0
120.206322 108.0
120.240028 168.0
120.258774 272.0
120.291199 260.0
120.308678 168.0
120.317024 140.0
120.354301 240.0
120.388702 364.0
120.427269 304.0
120.460876 108.0
120.48481 212.0
120.495262 72.0
120.505264 180.0
120.528938 128.0
120.550858 124.0
120.574684 200.0
120.591782 160.0
120.636101 120.0
120.66452 152.0
120.699203 228.0
120.713257 152.0
120.736771 184.0
120.774506 140.0
120.795296 220.0
120.820946 244.0
120.856667 244.0
120.883003 144.0
120.906456 132.0
120.910507 88.0
120.94796 204.0
120.972984 80.0
121.009544 200.0
121.022316 120.0
121.043045 144.0
121.085213 408.0
121.127609 160.0
121.138176 172.0
121.144806 164.0
121.151405 164.0
121.176659 72.0
121.210136 228.0
121.228859 164.0
121.250946 196.0
121.278267 196.0
121.325447 148.0
121.360413 184.0
121.392014 332.0
121.46151 260.0
121.466942 232.0
121.522232 348.0
121.547203 108.0
121.578476 192.0
121.586159 48.0
121.596359 120.0
121.634048 204.0
121.674507 208.0
121.691818 216.0
121.710823 140.0
121.734871 160.0
121.766548 96.0
121.796822 228.0
121.845436 280.0
121.875145 156.0
121.933189 252.0
121.961884 192.0
121.966438 76.0
122.003342 188.0
122.044853 128.0
122.050835 212.0
122.060646 188.0
122.086395 312.0
122.120781 44.0
122.155258 136.0
122.186272 172.0
122.261391 160.0
122.286285 180.0
122.320816 100.0
122.356682 164.0
122.407455 188.0
122.449112 208.0
122.470139 344.0
122.499428 180.0
122.530022 132.0
122.558662 80.0
122.580856 420.0
122.623505 332.0
122.651054 156.0
122.679878 160.0
122.699646 120.0
122.74382 156.0
122.761459 192.0
122.793251 168.0
122.827621 128.0
122.854095 144.0
122.874985 128.0
122.897034 164.0
122.912964 180.0
122.958679 164.0
123.001747 408.0
123.024612 17148.0
123.092522 304.0
123.118324 152.0
123.145462 256.0
123.162529 248.0
123.191116 144.0
123.230156 260.0
123.256485 136.0
123.285828 112.0
123.330513 208.0
123.367668 136.0
123.402939 72.0
123.43718 104.0
123.45266 84.0
123.480141 232.0
123.538208 100.0
123.576988 192.0
123.608879 148.0
123.630981 184.0
123.682755 148.0
123.72963 252.0
123.757759 204.0
123.782501 140.0
123.797882 200.0
123.838631 204.0
123.864914 180.0
123.880516 148.0
123.91806 636.0
123.934814 132.0
123.950264 288.0
123.970985 196.0
124.027863 1624.0
124.055435 192.0
124.082451 140.0
124.111137 108.0
124.128059 144.0
124.145798 212.0
124.179276 212.0
124.221436 244.0
124.272514 96.0
124.28894 144.0
124.312172 236.0
124.33773 136.0
124.376534 56.0
124.406219 204.0
124.413353 92.0
124.424026 148.0
124.478302 196.0
124.49192 128.0
124.529739 292.0
124.592468 300.0
124.615685 244.0
124.636375 88.0
124.671532 112.0
124.702522 188.0
124.727882 180.0
124.749771 188.0
124.778069 128.0
124.814529 160.0
124.830757 144.0
124.863731 212.0
124.892685 112.0
124.908096 308.0
124.928123 248.0
124.967667 84.0
124.989922 92.0
125.038673 132.0
125.069717 140.0
125.10231 192.0
125.11705 200.0
125.137604 148.0
125.170021 136.0
125.208519 60.0
125.2313 168.0
125.292984 168.0
125.314774 160.0
125.318428 148.0
125.364685 160.0
125.421967 104.0
125.439743 164.0
125.467293 96.0
125.496819 132.0
125.513374 156.0
125.555519 168.0
125.583138 168.0
125.612396 416.0
125.633301 124.0
125.682892 116.0
125.698509 128.0
125.713333 180.0
125.746696 128.0
125.770218 248.0
125.79174 396.0
125.821274 200.0
125.871651 220.0
125.898697 124.0
125.904411 152.0
125.936554 128.0
125.957489 148.0
125.975533 156.0
126.038666 92.0
126.074417 144.0
126.092857 116.0
126.120605 216.0
126.147835 164.0
126.179367 336.0
126.211494 220.0
126.235153 152.0
126.259766 148.0
126.294052 112.0
126.303116 208.0
126.307961 152.0
126.353172 148.0
126.388145 152.0
126.40284 192.0
126.442261 144.0
126.461449 220.0
126.469994 156.0
126.493629 188.0
126.535454 304.0
126.568428 184.0
126.601669 100.0
126.639702 124.0
126.658852 196.0
126.70018 148.0
126.723595 160.0
126.743713 100.0
126.799492 212.0
126.825668 200.0
126.852837 160.0
126.878258 452.0
126.904297 132.0
126.961533 180.0
126.977234 200.0
127.000351 128.0
127.05336 596.0
127.081314 164.0
127.112862 68.0
127.141907 76.0
127.164345 184.0
127.186852 152.0
127.205223 180.0
127.237885 200.0
127.258629 160.0
127.275871 188.0
127.296799 120.0
127.31926 180.0
127.33947 324.0
127.376686 176.0
127.429321 80.0
127.447296 336.0
127.463272 132.0
127.494911 148.0
127.531982 232.0
127.591141 144.0
127.60688 116.0
127.624344 52.0
127.683876 300.0
127.717072 140.0
127.739044 208.0
127.759056 144.0
127.81443 224.0
127.86702 316.0
127.883987 128.0
127.924088 172.0
127.946213 104.0
127.955063 84.0
127.960526 128.0
127.993881 164.0
128.011887 80.0
128.061783 5372.0
128.091385 136.0
128.130753 140.0
128.134949 108.0
128.144073 100.0
128.172989 252.0
128.217957 324.0
128.255203 172.0
128.273132 156.0
128.291275 88.0
128.309616 388.0
128.329224 264.0
128.359467 196.0
128.387802 352.0
128.404938 204.0
128.423859 304.0
128.464111 212.0
128.480713 148.0
128.502945 140.0
128.553894 272.0
128.585175 148.0
128.646545 248.0
128.672012 172.0
128.675262 156.0
128.71843 172.0
128.752045 140.0
128.806717 136.0
128.828995 116.0
128.862259 152.0
128.884109 244.0
128.896698 360.0
128.914749 156.0
128.949249 152.0
128.983429 116.0
129.028488 152.0
129.065353 468.0
129.127502 224.0
129.19191 108.0
129.20816 280.0
129.237808 196.0
129.263794 212.0
129.287018 196.0
129.299957 92.0
129.306625 188.0
129.324738 140.0
129.342056 144.0
129.358459 152.0
129.389618 192.0
129.423904 200.0
129.456833 312.0
129.480301 88.0
129.506195 140.0
129.522247 204.0
129.541702 176.0
129.559067 132.0
129.585388 196.0
129.656509 168.0
129.682556 452.0
129.705399 140.0
129.739609 204.0
129.756882 212.0
129.789642 100.0
129.813187 192.0
129.832535 304.0
129.864944 160.0
129.900467 128.0
129.937668 132.0
129.948883 132.0
129.953552 124.0
129.981293 264.0
130.009735 252.0
130.065552 46336.0
130.121841 108.0
130.13858 204.0
130.159607 144.0
130.183609 264.0
130.200409 64.0
130.214081 116.0
130.263351 236.0
130.293747 108.0
130.308884 156.0
130.345215 228.0
130.40625 184.0
130.432541 164.0
130.483444 144.0
130.497971 144.0
130.523529 276.0
130.571899 220.0
130.612885 176.0
130.641357 252.0
130.659164 376.0
130.68335 160.0
130.701508 88.0
130.726776 208.0
130.736435 60.0
130.747467 180.0
130.765717 212.0
130.79393 156.0
130.823349 144.0
130.861572 188.0
130.924332 424.0
130.956573 176.0
130.974518 116.0
131.016891 136.0
131.031418 312.0
131.072952 38828.0
131.103561 340.0
131.141785 200.0
131.158249 148.0
131.161896 176.0
131.204056 364.0
131.220398 144.0
131.259598 124.0
131.297256 408.0
131.319016 288.0
131.376221 172.0
131.417984 184.0
131.44278 124.0
131.476974 140.0
131.494919 184.0
131.529663 128.0
131.55188 40.0
131.558716 308.0
131.568359 232.0
131.574585 196.0
131.587067 84.0
131.602448 168.0
131.636749 136.0
131.646179 240.0
131.65477 248.0
131.696808 328.0
131.72702 88.0
131.766113 216.0
131.800522 164.0
131.8284 312.0
131.871902 152.0
131.900482 160.0
131.940094 356.0
131.971008 148.0
132.003113 304.0
132.006516 152.0
132.080826 28376.0
132.147629 396.0
132.17392 112.0
132.183517 212.0
132.213181 172.0
132.247101 128.0
132.273438 88.0
132.29248 560.0
132.31189 212.0
132.328491 168.0
132.355957 128.0
132.376495 368.0
132.400223 156.0
132.442596 128.0
132.472412 128.0
132.478485 64.0
132.485229 72.0
132.510803 132.0
132.556229 268.0
132.573624 104.0
132.602936 296.0
132.630768 128.0
132.65274 148.0
132.680267 176.0
132.712204 160.0
132.735443 104.0
132.780777 164.0
132.809692 200.0
132.841278 164.0
132.887894 252.0
132.909515 104.0
132.924637 120.0
132.948914 128.0
132.972031 196.0
132.985062 124.0
133.018738 208.0
133.043427 528.0
133.083969 3100.0
133.13858 296.0
133.156738 124.0
133.184906 308.0
133.209625 164.0
133.230423 172.0
133.245667 176.0
133.27478 144.0
133.2789 108.0
133.304123 152.0
133.326599 172.0
133.355637 184.0
133.392578 292.0
133.426086 68.0
133.460968 160.0
133.49411 172.0
133.524719 132.0
133.54274 400.0
133.559738 364.0
133.591293 96.0
133.660095 144.0
133.687347 108.0
133.692795 76.0
133.704605 136.0
133.731705 620.0
133.763306 68.0
133.791656 152.0
133.812363 204.0
133.843964 348.0
133.870697 284.0
133.886826 160.0
133.921844 216.0
133.956558 152.0
133.973389 156.0
134.002808 28.0
134.042511 400.0
134.064148 144.0
134.07341 200.0
134.090759 436.0
134.156342 208.0
134.177658 144.0
134.200439 200.0
134.227158 264.0
134.246643 492.0
134.267899 80.0
134.292816 144.0
134.308258 216.0
134.350937 136.0
134.364594 52.0
134.371262 280.0
134.408615 36.0
134.433426 244.0
134.473221 180.0
134.502808 144.0
134.524002 60.0
134.560944 92.0
134.633621 144.0
134.638412 132.0
134.653168 192.0
134.694885 176.0
134.716171 176.0
134.736465 156.0
134.765778 156.0
134.798859 164.0
134.835464 124.0
134.875427 176.0
134.889481 148.0
134.925537 140.0
134.940735 292.0
134.960663 260.0
135.000015 176.0
135.03891 344.0
135.059875 2308.0
135.124222 208.0
135.177933 244.0
135.200912 200.0
135.222107 180.0
135.245209 104.0
135.275299 136.0
135.324478 196.0
135.346436 160.0
135.356094 116.0
135.359146 148.0
135.377625 292.0
135.411575 240.0
135.435074 148.0
135.468918 176.0
135.51445 152.0
135.543503 224.0
135.587585 152.0
135.623383 192.0
135.641296 92.0
135.679092 144.0
135.69693 104.0
135.715485 100.0
135.763229 88.0
135.793335 196.0
135.812576 120.0
135.840698 252.0
135.896957 108.0
135.920853 208.0
135.938156 280.0
135.962585 144.0
135.992752 276.0
136.05838 156.0
136.074524 380.0
136.099091 168.0
136.106125 256.0
136.152817 128.0
136.194656 200.0
136.216217 120.0
136.23999 96.0
136.263763 276.0
136.302399 200.0
136.307755 172.0
136.354034 148.0
136.369247 212.0
136.418549 96.0
136.47377 100.0
136.493332 144.0
136.521881 196.0
136.542847 96.0
136.569366 236.0
136.588165 196.0
136.6259 128.0
136.644287 156.0
136.651291 140.0
136.659653 284.0
136.681458 156.0
136.711227 144.0
136.735275 156.0
136.761139 316.0
136.813538 268.0
136.831985 256.0
136.845734 132.0
136.893204 180.0
136.933456 256.0
136.94516 240.0
136.955948 160.0
136.959671 116.0
136.981491 268.0
136.996826 164.0
137.041824 124.0
137.089386 208.0
137.124207 128.0
137.15976 128.0
137.187805 212.0
137.219788 104.0
137.238007 152.0
137.281784 176.0
137.301193 144.0
137.342667 100.0
137.356201 152.0
137.387299 236.0
137.404022 132.0
137.428757 188.0
137.437943 112.0
137.455292 144.0
137.490356 68.0
137.53038 280.0
137.552536 88.0
137.579056 100.0
137.609406 208.0
137.637955 144.0
137.663345 120.0
137.690033 136.0
137.736664 136.0
137.743271 164.0
137.75354 140.0
137.819626 160.0
137.838318 124.0
137.894394 156.0
137.931854 156.0
137.952835 144.0
137.976212 160.0
138.013306 180.0
138.038727 204.0
138.070419 96.0
138.089188 216.0
138.104095 116.0
138.131042 136.0
138.182022 144.0
138.205414 104.0
138.230499 212.0
138.262497 144.0
138.292419 152.0
138.319595 204.0
138.337814 168.0
138.377502 392.0
138.442032 196.0
138.447083 220.0
138.489151 160.0
138.539001 140.0
138.563919 140.0
138.580048 332.0
138.624832 276.0
138.663315 148.0
138.682388 248.0
138.711273 136.0
138.727692 136.0
138.748154 292.0
138.790634 132.0
138.832489 216.0
138.873062 128.0
138.903397 116.0
138.93013 284.0
139.00444 104.0
139.036301 284.0
139.069366 168.0
139.105362 180.0
139.145065 144.0
139.153778 124.0
139.207886 216.0
139.239944 240.0
139.26268 156.0
139.298798 248.0
139.312897 148.0
139.33551 160.0
139.386612 176.0
139.40834 120.0
139.424789 112.0
139.441254 96.0
139.474152 160.0
139.497055 156.0
139.530579 36.0
139.554993 144.0
139.584656 148.0
139.612976 252.0
139.652054 140.0
139.678574 196.0
139.742249 48.0
139.811996 168.0
139.842819 88.0
139.866806 312.0
139.911499 164.0
139.947006 80.0
139.976471 276.0
140.017654 148.0
140.048264 100.0
140.068039 224.0
140.100098 176.0
140.124161 180.0
140.181625 132.0
140.222321 256.0
140.26976 248.0
140.293396 152.0
140.315704 192.0
140.341034 256.0
140.408203 196.0
140.458405 84.0
140.494904 136.0
140.551056 116.0
140.591522 200.0
140.666168 388.0
140.696533 180.0
140.739243 196.0
140.77597 184.0
140.829819 124.0
140.845459 312.0
140.87944 320.0
140.917831 72.0
140.933197 208.0
140.966614 452.0
141.021851 332.0
141.028397 288.0
141.038269 160.0
141.068939 1204.0
141.088257 216.0
141.124512 140.0
141.188217 112.0
141.227844 164.0
141.251022 180.0
141.281006 180.0
141.305771 132.0
141.365021 152.0
141.379959 340.0
141.406845 220.0
141.439621 172.0
141.482376 144.0
141.50766 352.0
141.523514 132.0
141.542404 196.0
141.58226 88.0
141.636612 300.0
141.657944 184.0
141.695282 184.0
141.730194 176.0
141.763474 108.0
141.799026 228.0
141.823257 200.0
141.848862 476.0
141.893692 120.0
141.931778 104.0
141.956116 292.0
141.97084 172.0
141.993439 112.0
142.024841 176.0
142.080002 324.0
142.103531 264.0
142.133102 224.0
142.152771 268.0
142.177704 268.0
142.192459 208.0
142.230957 272.0
142.285294 204.0
142.31337 112.0
142.352219 196.0
142.357864 200.0
142.369522 180.0
142.373886 336.0
142.404312 192.0
142.438293 108.0
142.468002 448.0
142.510651 136.0
142.527557 148.0
142.544189 120.0
142.582214 140.0
142.613449 156.0
142.621002 164.0
142.636246 328.0
142.674911 40.0
142.691559 48.0
142.710495 212.0
142.741394 184.0
142.765991 92.0
142.772552 176.0
142.798569 92.0
142.832642 136.0
142.850403 152.0
142.867203 324.0
142.900497 236.0
142.919891 360.0
142.949951 272.0
142.983002 180.0
142.998413 368.0
143.031097 148.0
143.084808 10084.0
143.182938 152.0
143.192627 128.0
143.199524 164.0
143.246002 140.0
143.271881 320.0
143.305603 164.0
143.345413 136.0
143.383698 140.0
143.410461 108.0
143.45015 288.0
143.486252 172.0
143.494507 268.0
143.536636 108.0
143.572113 160.0
143.605072 160.0
143.639008 216.0
143.678146 156.0
143.711563 428.0
143.761398 104.0
143.784119 132.0
143.78923 128.0
143.834625 168.0
143.854782 148.0
143.874802 156.0
143.896851 152.0
143.916199 164.0
143.935867 376.0
143.957947 292.0
143.987122 132.0
144.009338 100.0
144.037201 260.0
144.081329 59132.0
144.155533 268.0
144.176575 132.0
144.217148 84.0
144.225159 184.0
144.245224 140.0
144.263367 168.0
144.287033 308.0
144.315811 256.0
144.360352 112.0
144.380783 208.0
144.397491 316.0
144.427704 220.0
144.476318 212.0
144.498367 132.0
144.524689 76.0
144.563782 192.0
144.601929 56.0
144.610458 48.0
144.617523 76.0
144.644836 160.0
144.665604 140.0
144.687836 368.0
144.736572 284.0
144.743896 184.0
144.774323 180.0
144.80452 392.0
144.843445 156.0
144.862579 84.0
144.886429 192.0
144.921631 144.0
144.943283 364.0
144.977875 96.0
144.981995 176.0
145.018311 420.0
145.035461 272.0
145.061951 688.0
145.089035 129876.0
145.142197 260.0
145.159851 260.0
145.186844 40.0
145.230545 208.0
145.236008 116.0
145.261932 120.0
145.269989 168.0
145.285233 464.0
145.317932 340.0
145.385635 204.0
145.409103 368.0
145.43718 288.0
145.482941 808.0
145.507858 244.0
145.530121 136.0
145.554398 168.0
145.595673 152.0
145.654861 188.0
145.689697 188.0
145.721497 272.0
145.743088 244.0
145.775406 196.0
145.799026 84.0
145.826279 148.0
145.843491 112.0
145.89949 172.0
145.929596 244.0
145.959412 168.0
145.982452 252.0
146.003189 132.0
146.018356 276.0
146.053802 540.0
146.091843 16944.0
146.144455 284.0
146.179474 200.0
146.220718 104.0
146.237869 244.0
146.257645 204.0
146.279327 208.0
146.292465 492.0
146.315765 160.0
146.349884 184.0
146.395813 160.0
146.416229 196.0
146.445404 116.0
146.476944 140.0
146.494476 96.0
146.520874 64.0
146.55426 164.0
146.605545 148.0
146.649796 56.0
146.670288 92.0
146.695862 164.0
146.716599 180.0
146.74176 212.0
146.753647 76.0
146.76474 132.0
146.789871 152.0
146.8255 96.0
146.873154 124.0
146.896957 104.0
146.925613 136.0
146.955154 228.0
147.005127 164.0
147.059174 768.0
147.093399 1064.0
147.150345 184.0
147.187912 168.0
147.216888 352.0
147.233444 148.0
147.252487 172.0
147.28598 96.0
147.314575 76.0
147.348862 224.0
147.37236 152.0
147.38295 80.0
147.402039 256.0
147.439575 184.0
147.465012 76.0
147.501114 40.0
147.508911 160.0
147.552521 104.0
147.590088 196.0
147.60701 148.0
147.636032 152.0
147.657242 88.0
147.718262 36.0
147.744797 268.0
147.779022 128.0
147.810196 180.0
147.828186 388.0
147.880386 140.0
147.900116 180.0
147.917969 144.0
147.954056 156.0
148.002182 128.0
148.04451 60.0
148.070587 484.0
148.107254 220.0
148.172913 228.0
148.176651 184.0
148.203308 344.0
148.224274 132.0
148.24173 156.0
148.269592 152.0
148.312866 244.0
148.322769 260.0
148.332275 152.0
148.339523 296.0
148.40007 168.0
148.427887 348.0
148.486084 132.0
148.504089 180.0
148.526871 160.0
148.533508 144.0
148.540131 176.0
148.568558 176.0
148.59491 148.0
148.612076 132.0
148.621933 84.0
148.62767 132.0
148.646042 124.0
148.68338 228.0
148.711716 236.0
148.723312 160.0
148.727219 200.0
148.750931 52.0
148.756622 104.0
148.789917 448.0
148.807739 184.0
148.822113 152.0
148.84079 236.0
148.875366 116.0
148.895416 236.0
148.929657 132.0
148.945526 176.0
148.968781 176.0
149.0121 172.0
149.037903 260.0
149.074524 712.0
149.156433 172.0
149.179932 140.0
149.202408 112.0
149.221893 200.0
149.255142 184.0
149.298157 104.0
149.323975 68.0
149.344696 216.0
149.400742 136.0
149.418854 156.0
149.463959 288.0
149.486115 112.0
149.506561 176.0
149.554855 72.0
149.568817 172.0
149.592484 160.0
149.603699 188.0
149.630585 44.0
149.677963 148.0
149.687485 120.0
149.742538 176.0
149.760803 84.0
149.795151 332.0
149.840347 192.0
149.857849 128.0
149.868057 40.0
149.895325 248.0
149.939941 272.0
149.960648 276.0
150.016281 136.0
150.047195 96.0
150.07486 280.0
150.118301 240.0
150.142288 92.0
150.161804 36.0
150.191071 200.0
150.220703 136.0
150.242584 156.0
150.271622 164.0
150.299316 140.0
150.320038 180.0
150.352097 140.0
150.381149 320.0
150.388504 148.0
150.395203 156.0
150.424316 292.0
150.44986 72.0
150.474533 300.0
150.519287 172.0
150.549545 188.0
150.570877 196.0
150.589355 152.0
150.607559 124.0
150.629181 172.0
150.666946 236.0
150.706055 180.0
150.731964 168.0
150.773087 172.0
150.803589 260.0
150.836716 168.0
150.878693 156.0
150.895966 116.0
150.932663 220.0
150.965271 108.0
150.990082 168.0
151.011734 208.0
151.046097 240.0
151.080399 180.0
151.11882 212.0
151.174561 144.0
151.202576 184.0
151.23439 108.0
151.268738 128.0
151.288147 196.0
151.305099 156.0
151.344559 196.0
151.37883 176.0
151.39946 200.0
151.414139 144.0
151.430267 172.0
151.47644 212.0
151.500626 188.0
151.524094 172.0
151.584473 72.0
151.622284 196.0
151.646057 164.0
151.701675 188.0
151.739014 160.0
151.775253 160.0
151.797012 304.0
151.81749 184.0
151.846817 196.0
151.885117 180.0
151.892426 172.0
151.963837 248.0
151.98996 168.0
152.067261 200.0
152.117996 128.0
152.157608 52.0
152.164688 92.0
152.196701 244.0
152.223312 288.0
152.240707 280.0
152.265411 192.0
152.30072 188.0
152.310135 168.0
152.324829 124.0
152.355026 128.0
152.388275 180.0
152.405121 292.0
152.422531 100.0
152.438049 232.0
152.45755 208.0
152.487122 180.0
152.512665 104.0
152.571136 128.0
152.578079 60.0
152.586655 160.0
152.610626 176.0
152.638779 264.0
152.71637 88.0
152.737762 120.0
152.755722 92.0
152.782974 200.0
152.817398 280.0
152.836914 184.0
152.858292 68.0
152.874023 96.0
152.894302 220.0
152.927277 228.0
152.965179 136.0
152.984818 160.0
153.006729 188.0
153.023972 104.0
153.041199 84.0
153.06813 320.0
153.089386 408.0
153.119492 304.0
153.167801 168.0
153.199799 188.0
153.240707 92.0
153.259079 76.0
153.287521 104.0
153.324478 432.0
153.346664 172.0
153.376633 124.0
153.408997 112.0
153.44162 168.0
153.448593 132.0
153.472168 168.0
153.521942 172.0
153.558014 192.0
153.609085 112.0
153.627686 128.0
153.650925 68.0
153.703049 176.0
153.721527 168.0
153.754913 188.0
153.769577 112.0
153.804047 156.0
153.849869 152.0
153.880386 132.0
153.905426 176.0
153.941223 204.0
153.96344 72.0
153.9832 88.0
154.025192 136.0
154.07486 152.0
154.09491 144.0
154.124008 116.0
154.178207 160.0
154.253845 128.0
154.26387 176.0
154.293121 152.0
154.344131 148.0
154.376144 156.0
154.395325 176.0
154.439285 188.0
154.457764 132.0
154.477554 68.0
154.506027 164.0
154.52951 148.0
154.557098 104.0
154.582016 144.0
154.603729 196.0
154.656219 184.0
154.687347 296.0
154.720078 216.0
154.744827 220.0
154.771408 136.0
154.811691 84.0
154.829025 108.0
154.850525 152.0
154.872009 156.0
154.919189 196.0
154.93927 236.0
154.975754 288.0
155.021423 36.0
155.057388 292.0
155.108551 112.0
155.201385 164.0
155.212311 172.0
155.221207 108.0
155.247833 204.0
155.278305 140.0
155.294235 136.0
155.319199 176.0
155.364319 272.0
155.409073 56.0
155.447159 208.0
155.480011 296.0
155.523224 104.0
155.575348 200.0
155.623154 204.0
155.64328 112.0
155.67218 188.0
155.702652 208.0
155.721848 148.0
155.746414 108.0
155.771362 176.0
155.802673 172.0
155.8237 156.0
155.851379 84.0
155.888306 88.0
155.911606 260.0
155.957321 192.0
155.990204 144.0
156.022034 164.0
156.072632 184.0
156.134964 236.0
156.171158 244.0
156.201569 164.0
156.218094 72.0
156.248184 148.0
156.26944 156.0
156.318817 284.0
156.347336 180.0
156.408264 348.0
156.452179 308.0
156.482269 176.0
156.510178 120.0
156.546509 184.0
156.559875 96.0
156.588547 172.0
156.617249 64.0
156.635498 160.0
156.651718 320.0
156.683228 208.0
156.691498 100.0
156.700623 188.0
156.719391 144.0
156.742615 204.0
156.782166 84.0
156.799789 136.0
156.819824 176.0
156.876999 68.0
156.911621 232.0
156.936234 124.0
156.961166 112.0
156.978622 252.0
157.001968 208.0
157.037491 212.0
157.045029 128.0
157.052444 60.0
157.087921 772.0
157.14949 116.0
157.17691 140.0
157.184509 188.0
157.213959 144.0
157.254623 276.0
157.283676 240.0
157.316299 188.0
157.360397 156.0
157.377869 196.0
157.410324 144.0
157.440292 92.0
157.46814 188.0
157.479446 136.0
157.519989 180.0
157.532288 116.0
157.538132 164.0
157.593948 180.0
157.615707 164.0
157.624634 116.0
157.652634 72.0
157.708969 180.0
157.748306 188.0
157.77034 176.0
157.778748 132.0
157.791336 220.0
157.822617 300.0
157.854141 228.0
157.897034 264.0
157.906494 200.0
157.934372 112.0
157.951065 196.0
157.970261 116.0
158.003754 160.0
158.030212 160.0
158.057571 360.0
158.096344 9284.0
158.128021 200.0
158.159012 180.0
158.19928 200.0
158.227432 20.0
158.234467 164.0
158.273239 352.0
158.305725 60.0
158.312653 72.0
158.323944 116.0
158.354279 352.0
158.396957 192.0
158.415512 124.0
158.427704 120.0
158.460754 208.0
158.490967 132.0
158.540466 200.0
158.573624 176.0
158.614685 124.0
158.643799 560.0
158.670853 232.0
158.741501 156.0
158.766663 92.0
158.799271 168.0
158.832748 160.0
158.858353 136.0
158.886948 288.0
158.912155 280.0
158.934738 44.0
158.968811 264.0
158.999969 156.0
159.036148 160.0
159.059921 276.0
159.102737 1892.0
159.155304 156.0
159.164886 120.0
159.175064 204.0
159.216049 144.0
159.244095 348.0
159.277344 88.0
159.283142 72.0
159.310242 356.0
159.35524 392.0
159.397903 344.0
159.433899 160.0
159.467529 276.0
159.4991 336.0
159.531616 248.0
159.560577 200.0
159.592377 168.0
159.642685 316.0
159.648575 344.0
159.668747 160.0
159.677078 364.0
159.685165 132.0
159.707291 184.0
159.713104 128.0
159.724457 440.0
159.744003 292.0
159.774979 376.0
159.802673 388.0
159.822495 248.0
159.855026 532.0
159.866104 424.0
159.879776 492.0
159.929642 272.0
159.943893 608.0
160.004501 948.0
160.043777 708.0
160.113159 356100.0
160.185898 448.0
160.206314 436.0
160.236893 224.0
160.261353 72.0
160.304962 252.0
160.326935 348.0
160.349884 452.0
160.376404 612.0
160.39151 340.0
160.420776 400.0
160.455017 96.0
160.478195 244.0
160.498474 580.0
160.528305 6760.0
160.556183 432.0
160.571274 332.0
160.589279 352.0
160.619949 188.0
160.646133 228.0
160.686325 224.0
160.719772 100.0
160.737778 272.0
160.768875 472.0
160.808426 312.0
160.83139 368.0
160.869049 236.0
160.876434 156.0
160.884964 148.0
160.911087 192.0
160.919144 208.0
160.923645 156.0
160.952942 260.0
161.014206 268.0
161.033615 136.0
161.07782 956.0
161.115738 66064.0
161.179901 256.0
161.207611 140.0
161.213699 208.0
161.224335 152.0
161.256622 272.0
161.282257 304.0
161.298523 92.0
161.319458 248.0
161.334213 292.0
161.360367 280.0
161.379501 92.0
161.395874 252.0
161.414093 180.0
161.46167 136.0
161.503815 164.0
161.53334 160.0
161.561707 156.0
161.589539 152.0
161.595856 172.0
161.610291 60.0
161.619125 216.0
161.651138 152.0
161.677185 132.0
161.69902 216.0
161.770996 40.0
161.778778 68.0
161.799347 152.0
161.825043 212.0
161.874542 172.0
161.906311 132.0
161.958023 156.0
161.997818 136.0
162.008209 252.0
162.043243 192.0
162.048538 424.0
162.08168 296.0
162.11911 3588.0
162.160416 116.0
162.18811 264.0
162.225723 224.0
162.248367 444.0
162.267685 360.0
162.277817 324.0
162.301987 236.0
162.368805 404.0
162.396683 364.0
162.41713 356.0
162.427521 244.0
162.436386 236.0
162.477692 240.0
162.518402 356.0
162.556519 200.0
162.574509 188.0
162.613419 128.0
162.648315 120.0
162.705338 216.0
162.749969 264.0
162.77211 236.0
162.81723 52.0
162.836746 76.0
162.896545 180.0
162.921265 200.0
162.953598 76.0
162.957886 76.0
162.994919 72.0
163.015945 36.0
163.055313 660.0
163.091995 1052.0
163.117416 292.0
163.165054 208.0
163.216782 236.0
163.257965 128.0
163.303558 148.0
163.367523 124.0
163.388306 316.0
163.39447 144.0
163.403458 192.0
163.413422 140.0
163.455963 304.0
163.482117 148.0
163.505371 112.0
163.530258 124.0
163.551132 152.0
163.573868 184.0
163.597015 212.0
163.634323 120.0
163.716476 208.0
163.768433 104.0
163.7966 212.0
163.857132 172.0
163.887253 120.0
163.908554 216.0
163.946777 152.0
163.964996 236.0
163.998108 56.0
164.029327 184.0
164.052216 76.0
164.091919 68.0
164.17366 28.0
164.209625 200.0
164.23642 168.0
164.278442 144.0
164.309662 152.0
164.329941 132.0
164.386932 152.0
164.434143 80.0
164.471268 160.0
164.522675 112.0
164.563004 144.0
164.602081 140.0
164.643234 40.0
164.682098 128.0
164.700821 168.0
164.730591 328.0
164.78212 144.0
164.80397 176.0
164.831345 156.0
164.864365 128.0
164.88768 124.0
164.926147 160.0
164.967575 108.0
165.045517 84.0
165.068542 408.0
165.117004 104.0
165.15242 120.0
165.22937 64.0
165.266953 140.0
165.358078 144.0
165.4077 420.0
165.431839 56.0
165.499863 116.0
165.541748 192.0
165.607895 200.0
165.672012 112.0
165.698181 84.0
165.737854 272.0
165.763702 96.0
165.787094 124.0
165.807098 60.0
165.830338 156.0
165.865387 160.0
165.9021 84.0
165.958511 80.0
165.984146 176.0
166.007233 164.0
166.034775 400.0
166.082748 156.0
166.102783 184.0
166.125214 136.0
166.161041 128.0
166.189346 164.0
166.227829 120.0
166.248367 172.0
166.29306 220.0
166.331131 192.0
166.362701 112.0
166.397247 104.0
166.429504 184.0
166.464005 104.0
166.497375 136.0
166.545563 232.0
166.583481 184.0
166.640335 136.0
166.704666 128.0
166.763245 124.0
166.797989 64.0
166.835068 180.0
166.912155 296.0
166.952316 144.0
166.983582 132.0
167.021698 96.0
167.054184 184.0
167.088577 112.0
167.118164 164.0
167.146133 132.0
167.181213 128.0
167.317627 76.0
167.391632 124.0
167.425781 132.0
167.460953 128.0
167.506882 180.0
167.541687 128.0
167.573334 168.0
167.600937 244.0
167.690033 112.0
167.783936 116.0
167.820038 68.0
167.879333 156.0
167.982788 112.0
168.003143 172.0
168.04628 128.0
168.069016 204.0
168.103638 132.0
168.159592 184.0
168.192108 244.0
168.214005 84.0
168.236069 124.0
168.266373 28.0
168.284454 92.0
168.323181 192.0
168.35675 132.0
168.387665 132.0
168.418732 52.0
168.455124 144.0
168.516907 172.0
168.54274 112.0
168.597015 168.0
168.666794 176.0
168.706772 164.0
168.731415 216.0
168.783127 112.0
168.806396 160.0
168.840027 188.0
168.860703 48.0
168.894333 104.0
168.912445 100.0
168.966766 60.0
168.99263 156.0
169.023682 76.0
169.041794 140.0
169.080521 100.0
169.122711 152.0
169.151474 160.0
169.186737 228.0
169.215225 44.0
169.236969 132.0
169.311035 52.0
169.344696 100.0
169.375778 176.0
169.40181 256.0
169.452637 408.0
169.487183 132.0
169.544846 188.0
169.603699 200.0
169.653427 164.0
169.689346 120.0
169.731903 160.0
169.768051 148.0
169.819916 68.0
169.842346 120.0
169.865768 140.0
169.893906 160.0
169.925354 128.0
169.966873 244.0
169.992828 168.0
170.010986 236.0
170.035233 256.0
170.064148 116.0
170.096405 524.0
170.145355 156.0
170.181198 160.0
170.221436 60.0
170.245316 180.0
170.278625 132.0
170.337601 212.0
170.364105 152.0
170.386795 316.0
170.404587 76.0
170.448181 224.0
170.469894 196.0
170.491547 144.0
170.525208 128.0
170.55899 104.0
170.592789 152.0
170.61879 112.0
170.644699 336.0
170.673386 172.0
170.697205 252.0
170.724487 248.0
170.759201 52.0
170.79747 172.0
170.811874 144.0
170.837234 104.0
170.868454 176.0
170.898331 148.0
170.92955 100.0
170.962128 144.0
171.004639 80.0
171.024582 68.0
171.066238 184.0
171.090302 132.0
171.116928 140.0
171.148972 128.0
171.180786 140.0
171.258499 200.0
171.296417 136.0
171.331406 116.0
171.390854 120.0
171.431732 108.0
171.456924 52.0
171.508759 164.0
171.539017 140.0
171.574234 120.0
171.624695 316.0
171.665482 128.0
171.690048 304.0
171.722855 124.0
171.75676 88.0
171.810272 152.0
171.858505 164.0
171.890091 76.0
171.938156 184.0
172.00412 156.0
172.050507 148.0
172.074158 3192.0
172.108704 952.0
172.158417 300.0
172.178452 88.0
172.213547 220.0
172.275909 132.0
172.297394 128.0
172.342102 244.0
172.399033 160.0
172.433014 116.0
172.455429 124.0
172.493637 160.0
172.531433 156.0
172.541397 120.0
172.552246 164.0
172.591919 208.0
172.630112 304.0
172.669205 244.0
172.693817 196.0
172.718918 68.0
172.761887 196.0
172.816849 296.0
172.850906 156.0
172.86377 64.0
172.869141 192.0
172.90535 112.0
172.949936 156.0
172.958298 72.0
172.967896 144.0
173.001297 244.0
173.021423 268.0
173.03157 264.0
173.052338 308.0
173.083527 66312.0
173.139725 88.0
173.17128 76.0
173.198502 136.0
173.236633 176.0
173.258957 140.0
173.296219 148.0
173.332382 296.0
173.366272 64.0
173.391052 64.0
173.412994 104.0
173.432968 132.0
173.459457 176.0
173.47995 164.0
173.496216 240.0
173.548599 192.0
173.557083 80.0
173.579636 200.0
173.602341 140.0
173.630112 80.0
173.65683 36.0
173.681915 144.0
173.705521 84.0
173.735168 212.0
173.763245 68.0
173.807236 156.0
173.829422 444.0
173.854263 180.0
173.881317 68.0
173.900085 320.0
173.924408 124.0
173.981689 216.0
174.015198 200.0
174.05452 172.0
174.087189 7212.0
174.123123 320.0
174.141556 320.0
174.170883 168.0
174.209427 92.0
174.239716 164.0
174.261826 104.0
174.309219 196.0
174.340851 204.0
174.38559 64.0
174.403976 184.0
174.443405 132.0
174.494888 200.0
174.521896 80.0
174.544464 120.0
174.605453 156.0
174.626572 160.0
174.64566 168.0
174.653778 100.0
174.663788 104.0
174.672531 136.0
174.695862 212.0
174.747528 324.0
174.754547 184.0
174.824539 392.0
174.874924 164.0
174.883713 92.0
174.89537 256.0
174.936539 200.0
174.980133 100.0
175.022797 72.0
175.047333 148.0
175.089813 568.0
175.121323 120.0
175.139938 68.0
175.174316 244.0
175.214478 76.0
175.232925 204.0
175.249908 152.0
175.279144 88.0
175.389084 124.0
175.423141 276.0
175.446396 48.0
175.501648 96.0
175.536041 140.0
175.578232 120.0
175.609634 128.0
175.660004 144.0
175.678467 68.0
175.707489 108.0
175.741776 120.0
175.772705 72.0
175.807755 116.0
175.846741 124.0
175.86586 192.0
175.917267 188.0
175.941101 168.0
175.991516 168.0
176.02652 188.0
176.068146 300.0
176.086533 124.0
176.099915 176.0
176.105515 132.0
176.204285 68.0
176.240814 156.0
176.296295 140.0
176.32402 232.0
176.362366 148.0
176.399384 160.0
176.417877 124.0
176.4496 184.0
176.511047 152.0
176.555847 340.0
176.603592 116.0
176.635529 144.0
176.684982 176.0
176.7379 220.0
176.778076 248.0
176.82579 76.0
176.888748 272.0
176.915558 188.0
176.957016 152.0
176.985336 132.0
177.009628 172.0
177.01738 116.0
177.026337 180.0
177.070526 5380.0
177.12468 168.0
177.153564 96.0
177.18605 216.0
177.226456 176.0
177.255386 120.0
177.279892 164.0
177.314301 120.0
177.35759 92.0
177.386749 132.0
177.417725 88.0
177.455673 40.0
177.501755 192.0
177.534348 156.0
177.590927 124.0
177.649277 132.0
177.673157 136.0
177.737961 208.0
177.829712 108.0
177.858536 84.0
177.885452 80.0
177.914658 116.0
178.073196 776.0
178.097931 296.0
178.127563 116.0
178.156326 188.0
178.201477 48.0
178.222733 140.0
178.23938 136.0
178.275879 296.0
178.344986 124.0
178.364975 168.0
178.386246 184.0
178.438019 196.0
178.457993 196.0
178.50647 200.0
178.565521 148.0
178.616196 416.0
178.664078 84.0
178.747253 92.0
178.802917 180.0
178.837051 168.0
178.863556 140.0
178.914246 152.0
178.954178 56.0
178.975098 172.0
179.034561 168.0
179.057373 148.0
179.078613 536.0
179.124619 188.0
179.163712 392.0
179.200439 152.0
179.231186 196.0
179.252502 32.0
179.274857 204.0
179.325348 184.0
179.356201 88.0
179.363327 96.0
179.42308 180.0
179.448166 168.0
179.468399 156.0
179.500916 84.0
179.519501 136.0
179.545731 300.0
179.582764 172.0
179.648193 96.0
179.719131 296.0
179.792953 144.0
179.833878 40.0
179.863235 180.0
179.886292 148.0
179.905945 64.0
179.943329 160.0
179.971542 112.0
180.019226 84.0
180.038879 168.0
180.148956 140.0
180.214676 120.0
180.266525 144.0
180.290573 224.0
180.341354 176.0
180.378769 92.0
180.399307 188.0
180.440262 160.0
180.475021 56.0
180.525818 140.0
180.549515 148.0
180.586945 288.0
180.608734 132.0
180.664902 128.0
180.715729 140.0
180.765656 244.0
180.797409 184.0
180.83107 160.0
180.854889 156.0
180.881653 48.0
180.99678 212.0
181.028915 108.0
181.08226 148.0
181.108505 156.0
181.167145 124.0
181.186935 80.0
181.232483 140.0
181.277924 92.0
181.309357 76.0
181.33075 156.0
181.371841 172.0
181.424957 176.0
181.458755 180.0
181.468063 76.0
181.480255 172.0
181.550278 116.0
181.599747 128.0
181.658768 172.0
181.707047 92.0
181.747147 148.0
181.823456 136.0
181.873428 140.0
181.934311 292.0
181.960815 204.0
182.000381 216.0
182.050934 104.0
182.071335 196.0
182.123138 304.0
182.144623 172.0
182.190292 136.0
182.217163 156.0
182.273575 52.0
182.295074 92.0
182.319 160.0
182.352783 76.0
182.37294 128.0
182.389389 136.0
182.469788 32.0
182.488617 168.0
182.523483 128.0
182.558517 140.0
182.593491 172.0
182.617691 144.0
182.647049 92.0
182.703766 144.0
182.727982 120.0
182.881363 136.0
182.911011 176.0
182.948654 160.0
182.971878 96.0
182.990173 292.0
183.021347 92.0
183.046661 140.0
183.067123 176.0
183.107529 140.0
183.185181 116.0
183.219849 160.0
183.263763 140.0
183.296417 100.0
183.383408 152.0
183.409286 332.0
183.456848 100.0
183.530609 288.0
183.575439 416.0
183.60881 184.0
183.627686 96.0
183.708603 48.0
183.76796 132.0
183.808502 164.0
183.848907 80.0
183.881302 140.0
183.91098 36.0
183.94368 104.0
184.069077 212.0
184.110428 156.0
184.132385 200.0
184.149811 116.0
184.189102 56.0
184.214478 112.0
184.240128 148.0
184.289047 180.0
184.31102 124.0
184.343094 152.0
184.389252 224.0
184.42485 96.0
184.451202 232.0
184.527542 296.0
184.550858 144.0
184.585556 144.0
184.618835 104.0
184.653992 68.0
184.678329 152.0
184.70784 44.0
184.724426 264.0
184.748657 96.0
184.77301 164.0
184.812881 244.0
184.862305 164.0
184.888321 520.0
184.921005 144.0
184.970566 200.0
184.989502 132.0
185.046356 260.0
185.069458 148.0
185.089676 192.0
185.113007 196.0
185.181763 156.0
185.300949 144.0
185.369156 136.0
185.393066 196.0
185.444565 68.0
185.480728 188.0
185.547134 224.0
185.57872 76.0
185.601166 204.0
185.630432 136.0
185.678482 116.0
185.696716 320.0
185.715698 104.0
185.750961 44.0
185.807938 84.0
185.829636 348.0
185.871017 144.0
185.913757 64.0
185.988663 40.0
186.017731 208.0
186.056732 464.0
186.081146 140.0
186.125488 104.0
186.177002 148.0
186.224472 204.0
186.281357 184.0
186.299301 240.0
186.34024 60.0
186.359818 88.0
186.429733 100.0
186.456512 164.0
186.477966 172.0
186.531555 120.0
186.562912 136.0
186.609131 132.0
186.631927 528.0
186.692062 184.0
186.713715 200.0
186.752747 260.0
186.760574 116.0
186.819061 132.0
186.844681 124.0
186.892792 136.0
186.930084 92.0
186.98996 188.0
187.036987 176.0
187.075165 376.0
187.101562 156.0
187.133316 236.0
187.167969 184.0
187.209259 36.0
187.258804 156.0
187.28891 100.0
187.296982 68.0
187.305069 340.0
187.326752 196.0
187.345978 188.0
187.38591 316.0
187.425262 340.0
187.462021 152.0
187.482635 124.0
187.493668 244.0
187.502548 224.0
187.533371 312.0
187.552429 268.0
187.591629 260.0
187.636627 284.0
187.683777 156.0
187.70311 220.0
187.712646 80.0
187.752609 668.0
187.780396 192.0
187.812637 228.0
187.841858 480.0
187.876526 368.0
187.900986 424.0
187.942642 852.0
187.98291 704.0
188.019073 984.0
188.108536 461448.0
188.192474 248.0
188.215942 160.0
188.239853 256.0
188.290359 288.0
188.326691 332.0
188.337067 240.0
188.362671 664.0
188.401749 360.0
188.447342 220.0
188.459427 252.0
188.470108 212.0
188.503815 156.0
188.525253 740.0
188.557663 13144.0
188.609375 216.0
188.649246 340.0
188.722122 256.0
188.759186 208.0
188.783997 488.0
188.810898 356.0
188.864639 288.0
188.906006 84.0
188.93396 172.0
188.954605 116.0
188.983948 208.0
189.008438 336.0
189.047028 560.0
189.070786 232.0
189.11084 120364.0
189.188538 216.0
189.220901 176.0
189.247681 116.0
189.283005 124.0
189.323975 312.0
189.369598 116.0
189.409393 360.0
189.432617 160.0
189.441956 132.0
189.479935 164.0
189.502975 312.0
189.527328 208.0
189.585754 108.0
189.610352 136.0
189.636505 56.0
189.687408 56.0
189.699326 100.0
189.708359 96.0
189.74295 148.0
189.780807 124.0
189.785675 108.0
189.798401 232.0
189.80751 96.0
189.818512 72.0
189.870193 160.0
189.921417 152.0
189.948303 124.0
189.95816 104.0
189.98909 48.0
189.993896 152.0
190.004654 108.0
190.033295 88.0
190.069611 248.0
190.111847 6736.0
190.151077 520.0
190.157791 160.0
190.167603 328.0
190.203629 204.0
190.240829 128.0
190.27739 244.0
190.310593 272.0
190.346786 352.0
190.39296 244.0
190.442093 380.0
190.451889 332.0
190.462219 208.0
190.466583 76.0
190.483536 620.0
190.518509 316.0
190.569962 396.0
190.603073 396.0
190.643555 424.0
190.66246 268.0
190.715057 300.0
190.75824 88.0
190.776077 276.0
190.800385 88.0
190.821121 52.0
190.849075 152.0
190.878922 64.0
190.908325 156.0
190.943375 88.0
190.965378 48.0
190.992874 160.0
191.011887 80.0
191.040604 84.0
191.086685 5868.0
191.166199 56.0
191.215866 148.0
191.250305 128.0
191.286774 172.0
191.31897 64.0
191.347412 284.0
191.382294 40.0
191.417969 272.0
191.44278 192.0
191.48851 144.0
191.567062 88.0
191.596695 332.0
191.617447 72.0
191.626938 184.0
191.658112 56.0
191.67514 88.0
191.703888 236.0
191.744385 92.0
191.788635 28.0
191.824905 100.0
191.865097 92.0
191.912689 40.0
191.954041 116.0
192.011948 56.0
192.088196 1124.0
192.12706 44.0
192.137466 88.0
192.17569 92.0
192.264313 68.0
192.300568 72.0
192.331894 192.0
192.356842 68.0
192.403534 44.0
192.471329 60.0
192.49144 112.0
192.516983 112.0
192.621933 120.0
192.690109 272.0
192.715866 88.0
192.766464 64.0
192.796005 108.0
192.855545 184.0
192.899536 104.0
192.953552 76.0
192.989502 92.0
193.011627 184.0
193.043488 76.0
193.092545 152.0
193.174789 56.0
193.252258 56.0
193.310364 76.0
193.396164 108.0
193.437683 52.0
193.48027 176.0
193.512421 44.0
193.545654 84.0
193.565033 144.0
193.587189 112.0
193.617645 80.0
193.655426 64.0
193.681351 92.0
193.706284 92.0
193.738068 220.0
193.95105 228.0
194.005569 80.0
194.030518 136.0
194.158066 172.0
194.263458 64.0
194.295227 92.0
194.416061 96.0
194.456543 116.0
194.50766 36.0
194.532639 116.0
194.565948 32.0
194.632584 112.0
194.74231 132.0
194.940918 88.0
195.045319 92.0
195.096573 116.0
195.124374 56.0
195.207779 104.0
195.371887 112.0
195.399704 52.0
195.463699 232.0
195.601593 88.0
195.689148 60.0
195.769897 156.0
195.803329 52.0
195.836746 88.0
195.859024 60.0
195.920319 60.0
195.98439 96.0
196.112579 136.0
196.132095 76.0
196.183701 68.0
196.252792 204.0
196.343536 100.0
196.413712 52.0
196.481842 116.0
196.547623 112.0
196.569946 152.0
196.610657 136.0
196.664841 36.0
196.684372 80.0
196.773712 72.0
196.818375 48.0
196.884262 108.0
196.91333 52.0
196.932877 28.0
196.996307 68.0
197.167557 48.0
197.209488 72.0
197.298935 72.0
197.366043 44.0
197.441544 80.0
197.471512 56.0
197.564728 136.0
197.698105 92.0
197.749283 68.0
197.777283 56.0
197.802475 52.0
197.838867 28.0
197.858459 108.0
197.886459 76.0
197.992859 112.0
198.082489 64.0
198.141327 44.0
198.18895 104.0
198.22258 80.0
198.328857 52.0
198.449615 68.0
198.494476 48.0
198.528824 64.0
198.609467 168.0
198.638412 112.0
198.780594 92.0
198.861984 72.0
198.898468 164.0
199.061707 84.0
199.109055 104.0
199.131516 152.0
199.151184 72.0
199.207352 56.0
199.232635 76.0
199.28804 96.0
199.3181 96.0
199.409668 104.0
199.461197 48.0
199.548111 232.0
199.565369 72.0
199.571884 68.0
199.58374 52.0
199.609268 208.0
199.70163 80.0
199.712128 104.0
199.986237 48.0
200.017197 64.0
200.090393 108.0
200.145279 116.0
200.18895 104.0
200.267807 100.0
200.360764 132.0
200.383301 84.0
200.496002 180.0
200.574219 112.0
200.63707 88.0
200.670776 68.0
200.693329 76.0
200.76947 40.0
200.789215 92.0
200.833771 60.0
200.94487 132.0
200.983856 104.0
201.020538 72.0
201.082626 176.0
201.211639 124.0
201.241394 124.0
201.271759 84.0
201.300003 56.0
201.344604 176.0
201.367783 132.0
201.420258 76.0
201.581451 120.0
201.636169 100.0
201.76152 168.0
201.8284 76.0
201.916733 84.0
201.982971 104.0
202.01506 164.0
202.098648 104.0
202.149017 104.0
202.170685 64.0
202.24144 184.0
202.340042 96.0
202.380142 128.0
202.411301 72.0
202.496887 160.0
202.55574 72.0
202.680389 76.0
202.705887 72.0
202.773911 44.0
202.816422 136.0
202.922607 200.0
203.057892 72.0
203.104568 152.0
203.247482 104.0
203.34874 180.0
203.437637 44.0
203.463196 64.0
203.485901 56.0
203.568253 160.0
203.58812 76.0
203.650604 76.0
203.789795 164.0
203.872208 132.0
203.892105 56.0
203.911987 72.0
203.943253 84.0
203.974518 120.0
204.114899 64.0
204.156494 156.0
204.196304 100.0
204.224747 88.0
204.321457 104.0
204.364136 96.0
204.429581 96.0
204.504059 136.0
204.526352 92.0
204.586426 76.0
204.751282 56.0
204.785446 88.0
204.808243 48.0
204.862366 164.0
204.899399 96.0
204.950684 120.0
205.019073 128.0
205.085999 112.0
205.109818 148.0
205.138016 120.0
205.232864 40.0
205.264221 96.0
205.389709 72.0
205.510864 144.0
205.561554 172.0
205.774963 56.0
205.809219 108.0
205.969147 40.0
205.997711 52.0
206.09288 256.0
206.131607 116.0
206.211929 132.0
206.240601 48.0
206.357803 32.0
206.394974 108.0
206.479095 116.0
206.643814 148.0
206.792618 84.0
206.826965 176.0
206.847 48.0
206.884216 120.0
207.095444 120.0
207.156265 176.0
207.182037 120.0
207.222153 76.0
207.253677 100.0
207.273727 52.0
207.325439 84.0
207.468628 44.0
207.535736 108.0
207.555542 140.0
207.586182 116.0
207.626328 32.0
207.700897 120.0
207.73819 192.0
207.781219 168.0
207.804169 92.0
207.835739 84.0
207.881638 68.0
208.018555 160.0
208.073959 164.0
208.112396 1068.0
208.151474 224.0
208.171585 60.0
208.203171 100.0
208.299515 168.0
208.392746 132.0
208.611176 64.0
208.654297 112.0
208.872849 112.0
208.921753 44.0
208.94458 124.0
208.990799 56.0
209.016693 72.0
209.092178 148.0
209.116028 348.0
209.16922 80.0
209.367889 176.0
209.411087 80.0
209.460419 128.0
209.485977 84.0
209.762619 44.0
210.05098 48.0
210.12886 144.0
210.443451 164.0
210.464706 92.0
210.536896 112.0
210.816086 112.0
210.949036 76.0
210.989502 184.0
211.138092 144.0
211.340286 192.0
211.463898 120.0
211.518188 100.0
211.541229 200.0
211.64917 156.0
211.866379 104.0
212.022858 68.0
212.315659 96.0
212.373657 136.0
212.405563 96.0
212.687027 172.0
212.866028 140.0
213.000626 36.0
213.145889 92.0
213.233063 244.0
213.262131 132.0
213.398758 44.0
213.436554 48.0
213.529617 68.0
213.607986 72.0
213.660507 104.0
213.69252 96.0
213.787781 92.0
213.840927 116.0
213.953598 212.0
213.98938 76.0
214.10379 152.0
214.175766 108.0
214.239853 164.0
214.507935 152.0
214.545837 36.0
214.644974 72.0
214.913315 108.0
214.968765 84.0
215.012527 100.0
215.113815 80.0
215.292801 120.0
215.362885 52.0
215.424225 156.0
215.567398 72.0
215.675522 156.0
215.742767 152.0
215.807083 52.0
215.848022 188.0
215.871414 156.0
216.018951 164.0
216.118134 984.0
216.152222 104.0
216.172714 48.0
216.395172 104.0
216.521088 56.0
216.629456 88.0
216.855072 136.0
217.066147 124.0
217.121017 360.0
217.180527 128.0
217.429916 108.0
217.500351 68.0
217.682388 128.0
217.720551 36.0
217.979065 132.0
218.014328 152.0
218.098999 144.0
218.190689 52.0
218.258316 116.0
218.293594 84.0
218.314178 104.0
218.593643 80.0
218.743744 60.0
218.849731 168.0
219.086044 88.0
219.120697 144.0
219.173737 108.0
219.321075 136.0
219.43605 92.0
219.527451 44.0
219.857864 76.0
219.896225 192.0
219.967072 64.0
220.112854 8372.0
220.185562 40.0
220.443008 160.0
220.501678 44.0
220.522369 168.0
220.602173 68.0
220.625824 52.0
220.699738 136.0
220.735214 156.0
220.889008 144.0
220.939301 56.0
220.974808 56.0
221.004395 116.0
221.039902 124.0
221.115402 1484.0
221.158768 144.0
221.324051 36.0
221.380173 80.0
221.563965 164.0
221.694336 196.0
222.015564 92.0
222.038223 72.0
222.10051 148.0
222.382385 60.0
222.646606 112.0
222.698654 188.0
222.732742 100.0
222.767151 144.0
222.809982 180.0
222.835938 76.0
222.929504 140.0
223.000153 64.0
223.059601 64.0
223.154739 80.0
223.315323 48.0
223.336136 92.0
223.452148 144.0
223.490829 120.0
223.511658 100.0
223.59201 104.0
223.642609 112.0
223.758698 196.0
223.800385 140.0
223.850998 100.0
224.029709 128.0
224.107162 64.0
224.151855 104.0
224.274048 84.0
224.330688 108.0
224.390305 72.0
224.578171 144.0
224.658722 228.0
224.778061 156.0
224.912354 184.0
224.94519 140.0
224.96907 52.0
225.043716 140.0
225.142258 108.0
225.402145 44.0
225.527664 148.0
225.841614 64.0
225.886475 136.0
226.491119 88.0
226.613953 88.0
226.649902 52.0
226.844711 112.0
226.919662 84.0
226.985626 44.0
227.108582 92.0
227.453644 128.0
227.575638 164.0
227.958206 76.0
228.017319 212.0
228.148117 152.0
228.285873 128.0
228.343002 132.0
228.550583 76.0
228.827484 80.0
228.914795 128.0
229.065384 88.0
229.607925 60.0
229.690048 120.0
229.906586 52.0
230.074829 148.0
230.139023 72.0
230.299072 152.0
230.350418 84.0
230.441055 52.0
230.489395 132.0
230.574005 80.0
230.722122 64.0
230.918671 88.0
231.041229 136.0
231.112274 124.0
231.144531 204.0
231.302933 64.0
231.446548 128.0
231.523254 52.0
231.687515 176.0
231.78447 84.0
231.832962 112.0
231.87236 128.0
231.89357 116.0
231.914795 48.0
232.110245 564.0
232.20282 68.0
232.3909 156.0
232.636719 164.0
232.75209 104.0
232.885712 140.0
232.906982 168.0
232.965729 212.0
233.016342 36.0
233.052795 140.0
233.117889 324.0
233.222977 128.0
233.256409 48.0
233.325653 108.0
233.356735 64.0
233.456436 132.0
233.514862 116.0
233.544159 120.0
233.590897 28.0
233.639252 160.0
233.736938 124.0
233.789307 96.0
233.840408 64.0
233.866257 268.0
233.899445 172.0
234.001099 156.0
234.025787 80.0
234.128693 43112.0
234.186188 320.0
234.225311 116.0
234.259079 40.0
234.298965 196.0
234.385513 64.0
234.435287 60.0
234.453568 120.0
234.521851 92.0
234.550079 44.0
234.633911 68.0
234.687271 36.0
234.758362 128.0
234.79686 64.0
234.88855 76.0
234.942139 156.0
235.077713 56.0
235.131439 4812.0
235.202835 64.0
235.248627 96.0
235.270004 216.0
235.302628 64.0
235.321899 112.0
235.379913 48.0
235.529556 144.0
235.572327 52.0
235.621994 124.0
235.777878 100.0
236.00325 64.0
236.033829 40.0
236.067459 88.0
236.101929 192.0
236.134689 524.0
236.180618 164.0
236.229553 148.0
236.41008 96.0
236.44986 144.0
236.477737 148.0
236.544739 72.0
236.578873 80.0
236.676392 52.0
236.699356 100.0
236.743759 120.0
236.791092 140.0
236.826736 128.0
236.90303 48.0
236.973495 92.0
237.076355 196.0
237.131882 116.0
237.195129 168.0
237.292236 28.0
237.343964 92.0
237.384705 176.0
237.482361 44.0
237.64418 212.0
237.70224 124.0
237.75235 36.0
237.780579 112.0
237.80452 100.0
237.838287 108.0
237.905823 104.0
237.936508 176.0
238.067352 184.0
238.133041 68.0
238.191406 132.0
238.427979 60.0
238.566299 104.0
238.643158 96.0
238.747711 144.0
238.796906 44.0
238.867661 44.0
238.941483 200.0
239.150742 52.0
239.258484 92.0
239.305984 232.0
239.381638 72.0
239.50174 76.0
239.597244 36.0
239.618805 104.0
239.643448 100.0
239.692749 56.0
239.714325 48.0
239.763626 64.0
240.002823 152.0
240.09967 80.0
240.599533 132.0
240.62114 108.0
240.67981 72.0
240.866302 208.0
241.001038 88.0
241.167923 104.0
241.382507 116.0
241.43689 160.0
241.57608 128.0
241.60083 112.0
241.774109 92.0
241.990784 180.0
242.099152 192.0
242.238541 64.0
242.368652 72.0
242.554596 80.0
242.613495 108.0
242.749924 160.0
242.908096 176.0
243.032196 28.0
243.243225 112.0
243.432617 64.0
243.513367 140.0
243.566162 220.0
243.945267 108.0
243.982574 64.0
244.041641 144.0
244.236069 136.0
244.296661 84.0
244.713684 64.0
244.760391 80.0
245.165359 36.0
245.240845 80.0
245.277557 68.0
245.398087 148.0
245.4272 172.0
245.586243 140.0
245.647186 156.0
245.698547 92.0
246.318207 144.0
246.569855 92.0
246.742889 120.0
246.826065 52.0
247.038727 136.0
247.073151 64.0
247.116943 152.0
247.420532 160.0
247.458099 168.0
247.511322 92.0
247.705505 144.0
247.793213 180.0
248.102753 208.0
248.169312 52.0
248.391983 124.0
248.486099 136.0
248.608475 120.0
248.649261 92.0
248.781097 56.0
248.855804 176.0
248.900406 112.0
248.94751 144.0
249.338623 128.0
249.404846 180.0
249.678101 100.0
249.761505 156.0
249.918808 184.0
250.098175 120.0
250.120209 92.0
250.19577 120.0
250.328003 100.0
250.441376 44.0
250.479187 44.0
250.712326 64.0
250.737549 152.0
250.835251 180.0
250.887268 136.0
251.529205 148.0
251.747055 48.0
251.824631 64.0
251.863922 108.0
252.202011 116.0
252.271545 104.0
252.303162 56.0
252.377411 124.0
252.435959 148.0
252.603577 176.0
252.758606 136.0
252.914978 88.0
253.125793 132.0
253.17012 136.0
253.689758 52.0
253.810226 84.0
253.876816 56.0
253.96048 220.0
254.070297 132.0
254.213089 84.0
254.27655 32.0
254.486069 116.0
254.52417 32.0
254.673431 80.0
254.830582 144.0
255.061066 100.0
255.223206 112.0
255.391754 104.0
255.417206 148.0
255.627182 56.0
255.929581 100.0
256.026154 184.0
256.189148 56.0
256.292694 60.0
256.385101 144.0
256.624176 44.0
256.754913 52.0
256.777222 96.0
257.073914 176.0
257.096252 116.0
257.203094 144.0
257.51767 60.0
257.846771 84.0
258.083313 140.0
258.144073 144.0
258.278381 68.0
258.473541 148.0
258.627167 120.0
258.739197 216.0
258.784027 56.0
258.854462 104.0
259.136322 116.0
259.304291 144.0
259.363861 84.0
259.504913 144.0
259.553009 104.0
259.727417 72.0
259.771088 76.0
259.854492 192.0
260.188293 128.0
260.390564 156.0
260.808258 188.0
260.946503 60.0
261.255219 72.0
261.55127 144.0
261.644623 52.0
261.886139 104.0
262.121307 112.0
262.195435 48.0
262.33725 96.0
262.421844 316.0
262.527496 176.0
262.853302 132.0
262.953339 160.0
263.037262 48.0
263.385986 136.0
263.450592 92.0
263.550751 80.0
263.669067 176.0
263.793152 148.0
263.815765 60.0
264.207062 140.0
264.25882 108.0
264.508026 60.0
264.627808 72.0
264.700012 160.0
264.987305 104.0
265.14505 100.0
265.210907 60.0
265.392456 68.0
265.418396 72.0
265.658386 48.0
265.904999 108.0
265.947174 260.0
266.158203 56.0
266.320587 64.0
266.343323 120.0
266.434265 84.0
266.785248 184.0
266.808014 48.0
267.081146 104.0
267.191772 208.0
267.224304 56.0
267.429291 40.0
268.083923 56.0
268.109985 72.0
268.132812 132.0
268.175171 176.0
268.253387 140.0
268.341431 92.0
268.59906 80.0
268.657776 188.0
268.726288 96.0
268.814362 192.0
268.840485 136.0
269.157135 100.0
269.36615 96.0
269.389008 104.0
269.575226 60.0
269.627533 80.0
269.896301 128.0
269.983887 132.0
270.014221 252.0
270.167053 44.0
270.533569 84.0
270.713654 124.0
270.815155 60.0
270.926544 32.0
271.067413 72.0
271.214905 76.0
271.782257 120.0
271.857727 124.0
272.051361 152.0
272.159698 80.0
272.304199 72.0
272.488159 180.0
272.665588 40.0
272.734619 104.0
272.760925 84.0
272.806946 68.0
272.99762 84.0
273.313416 124.0
273.375946 172.0
273.458221 92.0
273.533936 80.0
273.583313 120.0
273.606354 92.0
273.668884 60.0
273.701813 232.0
274.097107 80.0
274.222321 76.0
274.601471 144.0
274.730133 180.0
275.003998 112.0
275.155853 52.0
275.281311 108.0
275.320953 60.0
275.386993 104.0
275.64798 84.0
276.064484 104.0
276.213318 148.0
276.269562 160.0
276.312561 124.0
276.448242 60.0
276.593872 148.0
276.636902 108.0
276.968018 272.0
277.103851 116.0
277.146912 116.0
277.667358 172.0
277.693909 40.0
277.73703 104.0
277.853119 108.0
278.487152 100.0
278.536957 160.0
278.623352 128.0
278.826019 76.0
279.058716 136.0
279.158478 44.0
279.30304 136.0
279.767242 124.0
279.923828 156.0
280.023743 56.0
280.110352 44.0
280.216949 164.0
280.348267 184.0
280.451477 128.0
280.50354 128.0
281.01712 136.0
281.073853 120.0
281.21402 168.0
281.698181 156.0
281.758301 48.0
281.871918 128.0
281.915344 88.0
282.433472 148.0
282.570709 192.0
282.7146 92.0
282.912079 144.0
282.9422 76.0
283.665802 144.0
284.360107 144.0
284.454102 188.0
284.527954 180.0
284.68576 108.0
284.836914 60.0
285.001526 104.0
285.572998 180.0
286.276398 200.0
286.505432 68.0
286.532379 88.0
286.657043 172.0
287.338135 84.0
287.557465 132.0
287.591217 120.0
287.716125 76.0
287.871429 104.0
287.898468 160.0
287.962616 76.0
288.239624 68.0
288.292511 112.0
288.361298 52.0
288.723053 108.0
288.905701 76.0
288.959839 80.0
289.037659 64.0
289.234406 140.0
289.579285 104.0
289.630096 96.0
289.674133 68.0
289.826599 228.0
289.897736 68.0
290.02655 96.0
290.413055 100.0
290.90509 108.0
290.976379 100.0
291.163147 180.0
291.190308 76.0
291.282013 96.0
291.523224 132.0
291.781555 300.0
291.920959 100.0
292.227081 132.0
292.284943 104.0
292.427856 128.0
292.584442 68.0
292.795563 124.0
292.972687 92.0
293.13623 100.0
293.306641 40.0
293.565735 144.0
293.90686 172.0
294.016052 128.0
294.19696 60.0
294.340363 140.0
294.401825 64.0
294.435974 84.0
294.719513 76.0
294.962158 180.0
295.146759 136.0
295.221985 92.0
295.371948 132.0
295.659882 72.0
295.807037 136.0
295.878937 60.0
296.735443 76.0
296.762878 48.0
296.944611 68.0
297.028687 180.0
297.043182 92.0
297.055786 156.0
297.109253 132.0
297.15387 176.0
297.414673 140.0
297.562286 52.0
297.706482 84.0
297.764893 128.0
297.799225 224.0
298.080933 128.0
298.280273 80.0
298.610352 100.0
298.940613 72.0
299.164337 36.0
299.236633 112.0
299.512115 160.0
299.882172 120.0
299.96698 124.0
299.994537 212.0
300.17038 88.0
300.480804 92.0
300.573975 124.0
300.639526 68.0
301.095245 100.0
301.266418 192.0
301.277405 108.0
301.286377 164.0
301.554718 136.0
301.699921 88.0
301.724121 84.0
301.876251 56.0
301.966156 100.0
302.097595 64.0
302.360565 240.0
302.464417 164.0
302.627106 72.0
302.727539 128.0
302.94574 44.0
303.11203 144.0
303.205597 140.0
303.489838 148.0
303.55777 144.0
303.590424 44.0
303.628571 184.0
303.652832 100.0
303.743011 160.0
303.888733 128.0
303.971985 72.0
304.076111 112.0
304.178589 168.0
304.53244 128.0
304.649017 88.0
304.711548 144.0
304.755066 84.0
304.871399 112.0
305.16687 80.0
305.410278 160.0
305.482452 156.0
305.605103 72.0
305.890472 56.0
306.151611 132.0
306.820587 148.0
307.155365 116.0
307.232117 88.0
307.497314 184.0
307.588043 136.0
307.664856 76.0
307.73468 168.0
307.849915 100.0
307.968658 112.0
308.489288 144.0
308.688599 68.0
308.734039 76.0
308.762024 80.0
309.542419 132.0
309.861145 72.0
310.215088 108.0
310.383392 80.0
310.444611 112.0
310.495605 40.0
310.555237 56.0
310.593811 72.0
310.621857 88.0
310.649933 184.0
310.76712 120.0
311.000824 144.0
311.060486 72.0
311.085083 76.0
311.316803 112.0
311.534576 44.0
311.594299 152.0
312.374725 148.0
312.459137 148.0
312.483765 120.0
312.75827 48.0
312.888519 52.0
313.0047 196.0
313.046967 44.0
313.092743 76.0
313.152618 148.0
313.328735 128.0
313.407745 160.0
313.705811 72.0
314.037262 72.0
314.213654 52.0
314.492432 176.0
314.697174 112.0
314.727264 144.0
314.951447 88.0
315.117462 184.0
315.184601 100.0
315.297363 44.0
315.368378 240.0
315.414307 100.0
315.467346 152.0
315.594604 108.0
315.810333 100.0
315.895233 136.0
316.04187 88.0
316.082733 92.0
316.199524 44.0
316.383575 152.0
316.514587 124.0
316.578308 56.0
317.37207 208.0
317.535187 112.0
317.59903 164.0
317.82608 160.0
317.861542 208.0
318.291046 144.0
318.472168 160.0
318.592407 132.0
319.097595 44.0
319.140259 44.0
319.179382 208.0
319.229156 80.0
319.257629 40.0
319.318085 96.0
319.558868 100.0
319.894501 48.0
320.040466 104.0
320.1651 72.0
320.415314 48.0
320.439362 84.0
320.475006 180.0
320.524872 40.0
320.728027 120.0
320.785065 80.0
321.006104 128.0
321.277191 124.0
321.883942 188.0
322.158936 60.0
322.459076 120.0
322.913147 48.0
323.09201 80.0
323.575134 52.0
324.033569 168.0
324.234222 220.0
324.388367 48.0
324.599884 176.0
324.825836 112.0
324.861694 84.0
325.041077 128.0
325.324615 96.0
325.349762 76.0
326.136444 124.0
326.240692 128.0
326.265839 128.0
326.607452 100.0
326.77655 100.0
326.895294 132.0
326.988861 44.0
327.132812 140.0
327.392059 68.0
327.471283 32.0
327.536133 140.0
327.649323 160.0
327.766693 64.0
327.82074 108.0
327.936066 68.0
328.051422 108.0
328.155975 120.0
328.350708 176.0
329.249329 80.0
329.321564 140.0
329.516632 64.0
329.606964 128.0
330.254089 124.0
330.369812 52.0
330.557953 108.0
330.829407 152.0
330.905457 48.0
330.977844 64.0
331.079254 136.0
331.166168 36.0
331.307434 164.0
331.365417 112.0
331.417755 44.0
331.535706 48.0
331.680695 40.0
331.764069 76.0
331.814819 108.0
332.170197 60.0
332.268158 92.0
332.311707 132.0
332.406036 108.0
332.518524 148.0
332.583862 144.0
332.765381 100.0
332.805298 36.0
332.833832 84.0
333.124908 124.0
333.24115 156.0
333.568237 144.0
333.70813 100.0
333.899109 124.0
333.982758 116.0
334.157379 144.0
334.350922 104.0
334.645081 116.0
334.772522 132.0
334.87085 76.0
334.929138 60.0
335.103973 96.0
335.169586 84.0
335.227875 100.0
335.294403 140.0
335.490295 32.0
335.51947 48.0
335.636139 84.0
336.387695 152.0
337.144226 152.0
337.651917 116.0
337.721405 136.0
338.266602 44.0
338.434998 108.0
338.76828 172.0
338.977112 44.0
339.035767 112.0
339.107117 152.0
339.142029 68.0
339.303345 56.0
339.512878 136.0
339.923187 164.0
339.952545 52.0
340.293915 72.0
340.951447 68.0
341.03598 176.0
341.267578 80.0
341.311676 72.0
341.440399 160.0
341.653748 140.0
341.815613 160.0
341.845062 156.0
341.955475 328.0
342.032776 64.0
342.106384 132.0
342.275757 28.0
342.323608 100.0
342.434082 76.0
342.610901 116.0
342.684998 72.0
342.780396 124.0
343.042053 68.0
343.252228 60.0
343.370239 56.0
343.399719 52.0
343.709351 120.0
343.875671 148.0
343.90152 128.0
344.326111 124.0
344.558807 116.0
344.695526 132.0
344.813782 108.0
344.842346 176.0
345.168671 172.0
345.305481 108.0
345.390564 72.0
345.639923 160.0
345.730957 52.0
345.791779 184.0
345.853088 188.0
345.971527 124.0
346.004852 60.0
346.382568 84.0
346.6521 112.0
346.860596 36.0
347.190582 128.0
347.316681 56.0
347.357483 88.0
347.449036 112.0
347.581543 120.0
347.9104 132.0
348.378326 44.0
348.444611 152.0
348.450653 128.0
348.616089 144.0
348.682983 104.0
349.017548 92.0
349.091919 164.0
349.240692 116.0
349.329956 228.0
349.508545 124.0
349.858398 124.0
349.958923 152.0
350.003601 108.0
350.100403 68.0
350.148834 104.0
350.498993 80.0
350.728546 156.0
350.89035 80.0
350.987305 80.0
351.054413 80.0
351.183716 156.0
351.266998 112.0
351.397583 92.0
351.464752 64.0
351.815582 84.0
352.028381 116.0
352.106812 168.0
352.248749 112.0
352.375763 112.0
352.641083 104.0
352.798065 128.0
352.855499 112.0
353.097198 48.0
353.302917 96.0
353.347839 160.0
353.388977 44.0
353.781952 68.0
353.96167 60.0
353.995361 48.0
354.265045 40.0
354.512329 40.0
354.583527 72.0
354.669739 68.0
354.733459 168.0
354.883423 92.0
355.065918 72.0
355.220947 220.0
355.310974 84.0
355.344727 132.0
355.858917 136.0
356.234467 120.0
356.29834 100.0
356.422333 196.0
356.546326 72.0
357.37738 108.0
357.407471 96.0
357.704773 144.0
357.840302 72.0
358.137817 68.0
358.220673 36.0
358.819885 76.0
359.117767 84.0
359.189453 164.0
359.402679 84.0
359.44223 116.0
359.653564 84.0
359.876282 112.0
359.955597 40.0
360.000885 200.0
360.172577 156.0
360.208618 92.0
360.510895 180.0
360.794373 76.0
360.930481 168.0
361.017456 156.0
361.161163 76.0
361.324951 240.0
361.65683 72.0
361.899109 116.0
361.952118 140.0
362.205872 196.0
362.482422 144.0
362.580963 76.0
362.952454 76.0
363.145874 88.0
363.255859 48.0
363.468323 148.0
364.060486 144.0
364.109863 168.0
364.174438 80.0
364.326477 136.0
364.858429 84.0
364.945862 56.0
365.075165 176.0
365.105591 48.0
365.209534 144.0
365.554474 116.0
365.664825 64.0
365.763794 32.0
365.853333 200.0
366.171204 160.0
366.361664 36.0
366.517853 156.0
366.902802 88.0
367.101074 68.0
367.139221 200.0
367.230743 104.0
367.348999 116.0
367.764893 80.0
367.890869 76.0
368.280365 164.0
368.482819 68.0
368.616547 104.0
368.933777 96.0
369.132599 128.0
369.159363 44.0
369.209076 40.0
369.499786 124.0
369.53421 172.0
369.576294 88.0
370.064941 144.0
370.215546 72.0
370.261505 76.0
370.560303 88.0
370.587128 56.0
370.636932 120.0
370.928192 144.0
371.054688 120.0
371.146149 132.0
372.052185 176.0
372.297913 100.0
372.513 40.0
372.759766 52.0
372.870331 56.0
372.901093 68.0
373.097107 116.0
373.166321 172.0
373.420105 104.0
373.458588 196.0
373.520111 116.0
373.908722 52.0
374.085785 156.0
374.497803 128.0
374.671143 100.0
375.168274 228.0
375.299347 128.0
375.696594 52.0
375.736816 160.0
375.87793 56.0
376.020721 144.0
376.126831 172.0
376.189972 180.0
376.302521 92.0
376.329529 92.0
376.445374 76.0
376.49173 152.0
376.658783 140.0
376.785278 84.0
377.094421 48.0
377.201691 1700.0
377.585419 144.0
377.624084 84.0
377.941315 84.0
377.976135 104.0
378.038055 72.0
378.127045 72.0
378.20697 556.0
378.267548 136.0
378.502563 96.0
378.986725 168.0
379.052612 68.0
379.188232 464.0
379.220398 272.0
379.347168 36.0
379.763855 60.0
380.18689 1000.0
380.236176 276.0
380.301361 164.0
380.491577 100.0
380.569244 32.0
380.63913 160.0
380.907104 88.0
381.093567 184.0
381.191254 416.0
381.493866 108.0
381.598846 80.0
381.944946 176.0
382.073334 56.0
382.186157 116.0
382.520844 180.0
382.668793 184.0
383.315369 44.0
383.475128 144.0
383.709015 116.0
383.837708 52.0
384.258942 128.0
384.750671 80.0
384.813141 64.0
385.043549 80.0
385.719482 120.0
386.100739 180.0
386.212158 176.0
386.503418 132.0
386.552521 156.0
387.233704 56.0
387.343384 76.0
387.433472 80.0
387.562775 104.0
387.986847 176.0
388.248749 204.0
388.342896 136.0
388.425262 100.0
388.472321 168.0
388.507629 64.0
388.578247 48.0
388.652802 168.0
388.739105 48.0
388.794067 112.0
388.931427 156.0
389.009949 112.0
389.06488 128.0
389.135559 176.0
389.257294 112.0
389.288696 284.0
389.410431 108.0
389.447235 116.0
389.673645 48.0
389.724701 140.0
389.87796 168.0
390.61319 112.0
391.018463 116.0
391.124725 148.0
391.175903 100.0
391.364868 100.0
391.553894 92.0
391.628723 64.0
391.821747 80.0
391.975403 140.0
392.090942 192.0
392.128967 140.0
392.153076 100.0
392.247345 80.0
392.305908 112.0
392.550934 156.0
392.602203 180.0
392.811249 96.0
392.883789 68.0
392.941589 172.0
392.990662 92.0
393.043182 156.0
393.079529 152.0
393.152588 52.0
393.197144 1432.0
393.304047 148.0
393.359741 132.0
393.391327 96.0
393.430786 104.0
393.486053 80.0
393.537384 148.0
393.605682 176.0
393.65979 112.0
393.695221 148.0
393.733368 108.0
393.757568 272.0
393.804474 196.0
393.888855 104.0
393.93277 176.0
394.028931 176.0
394.060455 268.0
394.101837 152.0
394.154449 252.0
394.197968 160.0
394.240387 124.0
394.255768 116.0
394.31955 32.0
394.378387 216.0
394.445404 152.0
394.476379 124.0
394.500397 164.0
394.514923 140.0
394.552765 152.0
394.640533 308.0
394.685211 64.0
394.747498 104.0
394.790009 228.0
394.824066 148.0
394.899323 284.0
394.962189 192.0
395.023041 372.0
395.062561 252.0
395.105835 164.0
395.213135 157532.0
395.313293 56.0
395.34671 200.0
395.399109 164.0
395.467834 144.0
395.512207 168.0
395.559387 52.0
395.631989 268.0
395.642181 96.0
395.658142 244.0
395.693542 80.0
395.732727 172.0
395.78241 320.0
395.864197 472.0
395.906403 444.0
395.934631 136.0
395.959839 336.0
395.993622 92.0
396.047211 84.0
396.074707 292.0
396.147522 296.0
396.215424 31724.0
396.305298 124.0
396.349304 124.0
396.409515 200.0
396.485016 196.0
396.538269 80.0
396.557709 64.0
396.589874 72.0
396.646423 36.0
396.698395 40.0
396.738007 172.0
396.807251 68.0
396.828979 40.0
396.870575 92.0
396.910522 72.0
396.987183 376.0
397.04303 80.0
397.07312 56.0
397.084351 116.0
397.114105 168.0
397.125854 40.0
397.216095 5132.0
397.309113 144.0
397.341461 52.0
397.398132 176.0
397.479736 40.0
397.545959 64.0
397.667938 56.0
397.730896 152.0
397.771179 92.0
397.857819 92.0
397.900146 52.0
397.956024 52.0
397.998108 148.0
398.058105 108.0
398.087646 172.0
398.150604 136.0
398.220947 216.0
398.23114 512.0
398.318054 128.0
398.331146 124.0
398.350189 80.0
398.385254 108.0
398.432617 72.0
398.504242 148.0
398.560944 120.0
398.626648 120.0
398.659119 148.0
398.736481 100.0
398.776947 208.0
398.817474 240.0
398.850372 88.0
398.91571 92.0
398.939514 116.0
398.975098 140.0
399.005707 116.0
399.046021 100.0
399.098602 64.0
399.11026 92.0
399.221985 128.0
399.291962 128.0
399.325684 80.0
399.350861 108.0
399.42514 88.0
399.491455 116.0
399.53006 80.0
399.627594 228.0
399.69043 168.0
399.758392 116.0
399.811005 116.0
399.85553 76.0
399.959625 36.0
400.011383 40.0
400.04837 96.0
400.087006 32.0
400.154572 120.0
400.197052 100.0
400.230347 84.0
400.293488 56.0
400.373718 40.0
400.445404 48.0
400.481232 36.0
400.568878 44.0
400.632599 64.0
400.684387 68.0
400.744171 84.0
400.835815 56.0
400.94339 52.0
401.007172 48.0
401.104156 96.0
401.154633 68.0
401.238373 84.0
401.320709 92.0
401.359863 76.0
401.453674 60.0
401.509521 36.0
401.586456 124.0
401.633148 64.0
402.315521 36.0
402.571045 100.0
402.70282 112.0
402.766754 104.0
402.958496 40.0
403.146301 96.0
403.245056 152.0
403.286163 68.0
403.320068 92.0
403.34436 100.0
403.394928 76.0
403.47406 72.0
403.506042 36.0
403.542023 68.0
403.585999 100.0
403.945923 52.0
404.410095 72.0
404.630249 48.0
404.962616 52.0
405.122833 44.0
405.275085 112.0
405.347198 92.0
405.539581 100.0
405.623749 32.0
405.679871 100.0
406.2453 36.0
406.502075 52.0
406.714783 52.0
406.897522 84.0
407.060059 124.0
407.31308 40.0
407.429565 76.0
407.867584 76.0
407.975311 100.0
408.221375 44.0
408.25354 108.0
408.36615 32.0
408.422455 108.0
408.466705 52.0
409.416565 44.0
409.513245 168.0
409.960419 104.0
410.359467 164.0
410.407867 72.0
410.464294 72.0
410.665955 72.0
410.7789 56.0
410.895874 68.0
411.089569 120.0
411.174316 120.0
411.327667 80.0
411.37207 76.0
411.474792 60.0
411.515961 132.0
411.715271 68.0
411.816254 60.0
411.993988 88.0
412.090942 100.0
412.329346 40.0
412.414246 64.0
412.623627 100.0
412.669434 60.0
412.897278 92.0
413.907043 96.0
414.012329 56.0
414.317993 128.0
414.401184 104.0
414.453857 32.0
414.587585 60.0
414.644318 92.0
414.887512 88.0
414.984833 40.0
415.09024 44.0
415.175415 36.0
415.654083 68.0
415.690613 64.0
416.340118 44.0
416.470093 52.0
416.70163 108.0
416.827606 100.0
417.000793 136.0
417.079559 56.0
417.70575 56.0
418.116241 104.0
418.446411 60.0
418.686676 104.0
418.80069 96.0
420.378448 88.0
420.460083 104.0
421.219513 96.0
421.448303 76.0
421.623566 76.0
422.057312 72.0
422.752716 120.0
422.904144 76.0
423.104706 84.0
423.436401 68.0
423.59613 56.0
423.805084 44.0
425.277283 36.0
425.683716 40.0
427.52951 40.0
427.583008 76.0
427.73941 72.0
427.805267 40.0
428.435333 60.0
428.600128 80.0
428.884918 80.0
430.039398 60.0
430.266418 68.0
430.956146 44.0
431.303284 52.0
432.035217 64.0
432.09314 72.0
432.527649 104.0
432.56076 100.0
432.850555 72.0
433.583801 124.0
433.691559 112.0
433.886383 88.0
435.284637 52.0
435.770599 84.0
435.845398 80.0
436.190338 84.0
436.219452 104.0
436.664337 112.0
436.980499 80.0
440.586761 64.0
440.653595 96.0
441.368317 180.0
443.226807 52.0
443.319 92.0
444.027496 72.0
444.509918 32.0
445.740265 32.0
447.237457 88.0
447.439514 96.0
447.494232 116.0
448.884705 56.0
449.416199 108.0
449.888885 64.0
451.765198 116.0
453.093384 76.0
453.29364 52.0
454.069427 68.0
454.837372 36.0
454.985962 56.0
455.160034 76.0
455.261963 72.0
456.677185 76.0
457.289856 44.0
457.732605 52.0
457.787964 64.0
458.993896 72.0
459.352142 88.0
459.620941 44.0
461.085663 68.0
462.762482 60.0
464.476685 68.0
464.699768 84.0
465.051636 128.0
465.768707 36.0
466.301483 48.0
466.529297 40.0
467.075409 64.0
468.151367 48.0
469.172546 88.0
473.419891 72.0
473.710083 92.0
475.088623 140.0
475.340271 76.0
477.355835 80.0
478.034424 40.0
478.661255 60.0
479.214447 60.0
479.471527 72.0
479.872559 100.0
479.977203 64.0
480.6315 56.0
481.989471 64.0
484.194244 44.0
484.597229 72.0
485.767761 40.0
485.921326 80.0
487.102234 56.0
489.234985 68.0
490.64032 68.0
490.724091 64.0
490.904877 60.0
493.152008 64.0
493.850616 56.0
493.903687 104.0
494.054077 44.0
494.253174 72.0
494.69577 72.0
494.753296 96.0
495.320129 100.0
496.547882 104.0
496.853943 40.0
496.89386 60.0
497.941467 48.0
498.150208 100.0
498.403473 72.0
498.510101 28.0
498.865662 48.0
499.061279 64.0
499.181335 80.0
499.265839 88.0
501.086395 100.0
501.817322 112.0
503.155762 112.0
503.83905 100.0
504.00885 100.0
504.160767 56.0
505.041534 76.0
505.336792 60.0
505.42627 248.0
506.572388 48.0
506.827759 52.0
507.477692 100.0
508.53186 84.0
509.18512 120.0
509.402954 44.0
511.075378 48.0
512.971436 64.0
513.598206 40.0
515.033569 120.0
515.751953 60.0
517.24469 80.0
518.707764 48.0
518.812012 60.0
519.129395 60.0
520.340881 104.0
522.131226 96.0
523.865417 124.0
524.020325 60.0
524.343811 52.0
524.603638 92.0
525.23291 80.0
526.05426 92.0
526.985962 40.0
527.904724 112.0
528.169983 100.0
528.581726 80.0
529.382812 116.0
529.937012 48.0
531.261963 56.0
532.161499 112.0
532.551819 68.0
533.388123 128.0
534.464233 64.0
534.99353 92.0
536.122009 56.0
536.186523 112.0
537.071777 88.0
538.220886 52.0
538.678101 64.0
539.616211 80.0
540.342346 108.0
540.744934 48.0
541.295837 28.0
541.499573 96.0
541.629272 92.0
541.684875 112.0
542.509705 92.0
543.697144 80.0
543.906006 72.0
544.077759 64.0
544.885803 68.0
545.257568 72.0
545.632507 92.0
546.838867 68.0
547.420776 48.0
548.613586 88.0
548.764771 84.0
549.275757 104.0
551.054382 120.0
551.110474 76.0
552.690857 68.0
553.430359 44.0
554.357849 84.0
554.995361 68.0
556.219788 56.0
557.972046 92.0
559.764709 48.0
560.60791 44.0
562.659668 72.0
562.71637 88.0
563.363342 136.0
563.854736 92.0
564.852417 48.0
567.651428 80.0
567.826904 88.0
568.282288 128.0
568.334473 52.0
568.45752 56.0
569.269592 60.0
570.975708 28.0
572.617615 32.0
573.179749 40.0
573.828003 28.0
574.114075 100.0
574.691284 36.0
576.094849 76.0
576.692139 64.0
578.203491 108.0
578.260925 64.0
578.782715 60.0
578.830627 84.0
580.910645 56.0
581.150513 60.0
581.544067 52.0
583.157837 56.0
583.431824 100.0
583.787659 44.0
584.355225 52.0
585.452698 48.0
585.71759 40.0
586.753662 96.0
587.800354 36.0
588.162292 48.0
588.239502 92.0
589.930237 60.0
589.997925 96.0
590.791016 72.0
591.967163 56.0
593.047546 112.0
593.609924 80.0
594.502502 72.0
594.949036 60.0
595.949524 132.0
595.998108 108.0
596.547302 96.0
596.581299 76.0
597.125916 52.0
597.29126 92.0
598.191528 92.0
598.269409 68.0
598.45929 80.0
598.878052 52.0
599.759949 84.0
600.223145 124.0
600.749878 104.0
600.871826 180.0
601.53064 140.0
604.218445 104.0
604.472839 44.0
604.937805 40.0
606.681763 56.0
607.878479 44.0
608.246582 40.0
610.280457 104.0
611.973022 84.0
612.898987 40.0
615.024536 76.0
617.114197 132.0
617.232849 88.0
617.687866 28.0
620.302368 48.0
620.639526 56.0
621.621643 80.0
622.331482 100.0
623.543518 48.0
623.687683 84.0
626.404541 40.0
627.421143 60.0
629.901306 64.0
631.670837 56.0
632.236206 76.0
633.09729 144.0
633.738464 52.0
634.796082 80.0
635.322754 44.0
635.678955 48.0
636.652832 76.0
636.984375 80.0
637.783264 68.0
637.954224 64.0
640.39856 92.0
640.812744 88.0
642.552124 52.0
643.08197 68.0
643.506042 152.0
645.062012 72.0
645.335022 60.0
645.830627 60.0
647.901001 40.0
648.72699 108.0
649.005859 32.0
649.726074 56.0
650.355286 44.0
650.502502 112.0
651.3302 84.0
656.960205 92.0
658.951233 76.0
660.638306 104.0
660.832703 60.0
664.290833 92.0
664.870605 32.0
665.994995 92.0
666.056641 84.0
666.411072 140.0
667.439087 64.0
667.793945 32.0
668.869324 104.0
669.54895 52.0
670.940125 92.0
671.471252 88.0
671.894226 72.0
676.12616 92.0
678.26001 80.0
679.245239 104.0
680.236328 40.0
680.833435 48.0
681.747742 100.0
682.335083 36.0
682.730286 80.0
682.787476 104.0
683.401306 56.0
683.442932 36.0
684.244446 52.0
685.609192 76.0
688.327026 128.0
689.680115 56.0
690.901855 72.0
691.629761 76.0
693.024109 72.0
693.511475 44.0
693.930847 64.0
694.450012 36.0
695.320923 56.0
700.500061 80.0
701.743774 76.0
703.695923 56.0
705.518616 44.0
705.782959 36.0
706.724426 40.0
706.946716 40.0
708.0849 72.0
710.671814 80.0
710.740784 176.0
711.186523 56.0
713.68335 100.0
714.467468 56.0
715.380554 92.0
716.280457 44.0
716.722656 48.0
720.008667 72.0
721.034424 44.0
721.098572 48.0
722.41394 140.0
722.836609 168.0
722.948975 84.0
723.002502 76.0
723.19519 52.0
723.92865 228.0
724.555298 200.0
724.748169 88.0
729.019531 156.0
730.72406 80.0
731.412842 136.0
731.725098 144.0
732.532898 112.0
735.185608 48.0
735.504028 84.0
736.983765 184.0
737.707947 68.0
738.248657 60.0
739.768982 52.0
739.812317 148.0
740.359192 44.0
742.469604 172.0
743.622925 44.0
743.747742 140.0
744.301514 52.0
744.697937 76.0
745.458496 48.0
746.002014 64.0
746.502258 116.0
747.459595 96.0
747.699036 124.0
750.079224 124.0
750.319092 80.0
753.03656 116.0
753.178589 44.0
755.441589 116.0
755.556519 56.0
755.901184 164.0
758.990601 40.0
759.122192 100.0
759.297668 120.0
760.230286 52.0
760.471802 148.0
760.773682 128.0
760.971313 104.0
761.059204 84.0
761.580872 56.0
762.036804 168.0
762.185181 72.0
763.02063 164.0
764.203064 60.0
764.632324 124.0
765.716919 100.0
767.463745 76.0
768.83728 200.0
769.284363 40.0
770.344666 148.0
770.399902 56.0
770.714783 124.0
771.770508 44.0
773.568542 96.0
774.133301 184.0
774.249573 228.0
775.590393 52.0
775.662476 48.0
776.094849 236.0
776.921265 156.0
777.292969 52.0
777.370667 208.0
777.420593 108.0
777.531616 112.0
781.282227 200.0
782.567871 156.0
782.823975 68.0
782.91864 120.0
783.509094 168.0
784.389587 172.0
785.069763 44.0
785.292847 176.0
785.493652 176.0
786.029236 44.0
786.352905 108.0
786.453369 136.0
787.357849 116.0
787.637146 52.0
788.10083 76.0
789.889771 108.0
791.059326 28.0
791.400818 56.0
792.532227 128.0
794.20282 200.0
794.516968 72.0
794.842407 148.0
797.653076 76.0
799.433411 72.0
799.75415 48.0
800.187622 32.0
802.700623 120.0
803.371765 216.0
806.839294 80.0
807.048462 96.0
807.563049 112.0
807.913757 96.0
808.258911 168.0
810.903503 236.0
811.487427 84.0
811.668823 76.0
812.298401 232.0
812.650085 176.0
813.285706 108.0
813.331116 92.0
813.626282 56.0
816.757385 96.0
816.820007 120.0
818.066162 116.0
818.692505 244.0
818.857666 120.0
819.398804 200.0
819.769165 88.0
821.762512 140.0
823.922974 76.0
824.83728 72.0
825.746399 180.0
826.307007 72.0
826.535889 164.0
827.131042 104.0
827.566162 68.0
828.545532 128.0
830.265076 44.0
830.419922 36.0
831.607605 112.0
831.745361 100.0
831.883118 40.0
832.026672 184.0
832.350708 200.0
833.485474 184.0
834.180908 192.0
834.281738 236.0
834.853638 180.0
835.24469 52.0
835.503601 64.0
835.67041 212.0
836.418518 176.0
838.023987 204.0
840.089233 88.0
840.533447 108.0
841.832275 60.0
842.276978 188.0
842.513855 68.0
842.664062 116.0
843.062744 128.0
843.796814 44.0
844.537048 76.0
844.675842 72.0
844.941956 52.0
845.387512 188.0
845.647888 112.0
846.38623 124.0
847.020203 112.0
847.315613 168.0
848.057373 132.0
851.341064 56.0
852.607544 184.0
852.677307 128.0
852.874878 180.0
854.619507 72.0
855.003601 76.0
856.068909 216.0
856.488281 136.0
857.059204 188.0
857.164062 108.0
857.816833 168.0
858.977234 188.0
860.681396 176.0
861.814514 56.0
862.083313 48.0
862.170959 236.0
865.41748 152.0
867.74353 72.0
868.887146 140.0
870.354492 120.0
873.345764 156.0
874.110535 80.0
874.181152 116.0
875.493958 236.0
876.943237 124.0
877.432495 104.0
878.576599 184.0
879.491272 196.0
881.753357 64.0
882.427246 64.0
883.923706 156.0
884.385315 112.0
884.734558 112.0
884.870728 132.0
884.983215 184.0
885.640564 92.0
885.954529 88.0
886.321838 84.0
886.944092 244.0
887.287964 160.0
887.586304 148.0
887.809753 68.0
888.005432 176.0
888.254578 52.0
888.462219 92.0
888.847839 212.0
889.601624 128.0
890.510071 152.0
891.234863 152.0
891.757812 168.0
892.893372 116.0
894.547485 60.0
895.06543 136.0
896.876526 52.0
897.037476 196.0
897.401123 156.0
897.54425 88.0
899.047485 260.0
899.930908 104.0
900.581848 144.0
901.105408 148.0
901.938171 44.0
902.344666 92.0
902.846985 56.0
903.331421 196.0
905.186768 192.0
905.282593 96.0
905.324524 140.0
905.600037 164.0
905.701843 68.0
906.043274 108.0
906.163086 128.0
906.98407 120.0
907.349792 160.0
908.08136 204.0
909.323303 56.0
909.761475 136.0
910.061646 160.0
910.650146 148.0
910.901123 256.0
910.956482 56.0
911.052612 184.0
911.755615 36.0
913.270691 172.0
914.118958 160.0
914.686096 172.0
914.805115 140.0
915.642029 180.0
918.209473 236.0
920.309448 96.0
920.98584 148.0
921.686584 128.0
922.816895 128.0
922.90155 84.0
923.058777 144.0
923.125244 144.0
923.518372 204.0
923.639343 120.0
923.736145 52.0
924.35321 180.0
925.273254 48.0
925.642578 180.0
926.090759 176.0
926.375427 140.0
926.817688 160.0
927.266113 148.0
927.320679 128.0
928.120911 56.0
928.472595 172.0
928.830444 84.0
928.891113 144.0
929.206543 136.0
930.189697 104.0
930.342773 92.0
931.896179 52.0
932.023804 172.0
932.601135 128.0
932.975891 172.0
933.384216 128.0
933.725891 32.0
934.054321 132.0
934.315918 56.0
936.221069 200.0
936.81189 216.0
936.939819 132.0
937.025146 64.0
937.616211 120.0
938.219604 168.0
938.463501 184.0
938.622009 116.0
939.274597 64.0
939.585693 84.0
939.963989 196.0
940.220276 140.0
940.464417 56.0
940.641418 124.0
941.874878 148.0
942.308655 148.0
942.724121 44.0
943.567627 128.0
944.955994 120.0
945.157898 128.0
945.537292 200.0
946.118774 168.0
946.314697 96.0
946.626953 216.0
947.153687 36.0
947.594788 232.0
947.815308 36.0
948.121704 152.0
948.716309 240.0
949.826233 92.0
950.108398 68.0
951.458557 140.0
952.183105 88.0
952.250671 28.0
952.349976 144.0
952.619202 32.0
952.766663 120.0
953.467102 164.0
953.608459 92.0
954.499878 196.0
954.604431 92.0
954.665894 92.0
954.961121 100.0
955.194824 136.0
955.705505 32.0
956.75177 172.0
957.195068 124.0
957.361328 76.0
957.533752 128.0
957.810913 224.0
958.544067 88.0
959.141907 140.0
960.190063 120.0
960.350403 192.0
960.418274 212.0
960.603333 116.0
961.534973 68.0
961.948547 112.0
963.609802 176.0
963.819885 64.0
963.961975 156.0
964.394592 108.0
965.427063 88.0
965.60022 156.0
966.194031 188.0
966.713806 48.0
966.948975 32.0
967.091309 212.0
967.766113 128.0
968.001404 188.0
968.244019 204.0
968.527832 160.0
968.911865 80.0
969.395142 188.0
969.971558 136.0
970.715515 180.0
971.230286 144.0
971.515625 80.0
971.633484 72.0
971.813416 172.0
971.962341 112.0
972.376709 216.0
972.980225 132.0
973.601135 216.0
974.713135 136.0
974.769043 108.0
975.04248 128.0
975.788391 164.0
976.061951 112.0
976.173889 192.0
976.335571 52.0
976.403992 36.0
977.965637 124.0
978.052795 120.0
978.661682 84.0
979.136108 96.0
979.29187 172.0
979.341675 52.0
979.470459 208.0
979.629211 172.0
980.893188 208.0
981.310852 48.0
981.547791 164.0
981.815979 40.0
982.18396 208.0
982.283752 188.0
983.475525 212.0
984.402771 124.0
984.886658 136.0
985.130249 128.0
985.280212 184.0
985.348938 184.0
985.580078 156.0
985.648865 176.0
985.973816 168.0
986.255066 232.0
986.423828 44.0
986.473816 208.0
986.536316 272.0
986.917725 136.0
987.117798 124.0
987.455505 152.0
987.743225 176.0
987.993469 112.0
989.245056 60.0
989.752136 140.0
990.347107 56.0
992.22699 120.0
992.590698 160.0
993.280579 84.0
994.259338 172.0
994.491577 84.0
994.698669 128.0
995.163269 164.0
995.244873 124.0
995.326477 156.0
995.577698 112.0
995.835205 152.0
995.923096 120.0
996.092712 104.0
996.256042 76.0
996.682739 144.0
997.468872 188.0
997.525452 236.0
997.669983 152.0
997.820923 200.0
997.871216 40.0
999.928162 160.0
1000.007568 240.0
1000.274353 140.0
1000.368774 140.0
1001.067627 132.0
1001.332153 132.0
1001.682068 116.0
1002.21405 212.0
1002.421997 128.0
1002.472412 192.0
1002.554321 32.0
1002.869446 48.0
1002.951416 60.0
1003.014404 80.0
1003.329651 60.0
1003.491028 232.0
1003.579285 60.0
1003.871887 192.0
1003.970703 272.0
1004.294434 172.0
1004.357483 80.0
1005.373291 120.0
1005.58783 120.0
1005.720398 112.0
1006.042358 64.0
1006.12439 144.0
1006.174927 60.0
1006.256958 112.0
1006.351685 112.0
1006.578979 176.0
1006.90741 196.0
1007.096863 172.0
1007.197937 176.0
1007.254761 124.0
1007.301819 116.0
1007.50116 180.0
1007.652771 264.0
1007.956055 196.0
1008.019226 76.0
1008.069763 180.0
1008.158264 208.0
1009.441528 140.0
1009.8526 160.0
1010.010742 132.0
1010.080322 88.0
1010.162537 204.0
1010.232117 68.0
1010.421936 120.0
1010.485168 68.0
1010.776245 88.0
1011.067322 196.0
1012.143494 132.0
1012.257446 180.0
1012.39679 124.0
1012.852783 124.0
1013.049133 68.0
1013.137817 92.0
1013.194885 128.0
1013.53125 176.0
1014.139038 68.0
1014.246765 48.0
1015.46051 76.0
1015.533936 80.0
1015.673462 172.0
1016.104858 44.0
1016.403015 204.0
1016.606079 224.0
1016.87262 224.0
1017.010803 156.0
1017.266174 160.0
1017.335999 108.0
1017.818542 60.0
1017.932861 196.0
1018.085266 176.0
1018.301147 140.0
1018.886169 220.0
1018.974487 176.0
1019.151062 228.0
1019.889587 148.0
1020.665222 88.0
1020.850525 196.0
1021.447449 176.0
1021.638306 184.0
1021.759155 112.0
1022.026367 260.0
1022.249084 156.0
1022.433655 120.0
1022.732788 140.0
1022.911011 132.0
1023.694153 100.0
1023.745056 148.0
1024.40625 160.0
1024.503052 96.0
1024.929932 76.0
1025.720215 28.0
1025.802979 72.0
1026.574463 64.0
1026.657349 104.0
1026.86145 128.0
1027.129395 148.0
1027.318726 188.0
1027.677979 112.0
1027.952393 64.0
1027.99707 44.0
1028.054443 76.0
1028.660156 152.0
1028.916138 76.0
1029.222656 188.0
1029.331177 180.0
1030.576782 92.0
1030.877075 132.0
1031.644043 84.0
1032.1875 184.0
1032.321777 128.0
1033.063721 204.0
1033.402832 180.0
1033.712646 176.0
1034.106689 100.0
1034.541992 48.0
1034.673706 188.0
1034.823608 120.0
1035.004761 232.0
1035.233521 152.0
1035.444824 88.0
1035.982788 168.0
1036.02771 124.0
1036.283936 120.0
1037.161865 184.0
1037.245239 168.0
1037.482422 184.0
1037.867065 136.0
1037.918457 124.0
1037.969727 88.0
1038.232666 196.0
1038.30957 156.0
1038.373657 48.0
1038.450684 156.0
1038.556641 224.0
1038.623901 164.0
1039.027954 124.0
1039.11145 172.0
1039.637573 68.0
1040.186768 108.0
1041.004883 92.0
1041.075562 72.0
1041.21875 144.0
1041.313232 40.0
1041.49939 108.0
1041.62146 44.0
1041.692139 160.0
1041.961914 156.0
1042.05188 80.0
1042.682739 196.0
1042.861572 56.0
1042.958374 144.0
1043.047974 196.0
1043.626587 80.0
1043.95459 88.0
1044.85498 64.0
1045.318237 172.0
1045.749512 176.0
1046.2323 140.0
1046.338379 84.0
1046.406128 212.0
1046.638672 164.0
1046.718018 236.0
1046.992065 228.0
1047.10791 172.0
1047.365601 148.0
1047.417114 200.0
1047.533081 92.0
1047.584595 116.0
1047.636108 220.0
1047.945435 160.0
1048.157959 172.0
1048.264282 136.0
1048.344849 116.0
1048.718628 208.0
1048.789551 148.0
1049.232422 236.0
1049.408447 112.0
1049.57605 100.0
1050.098511 108.0
1050.285522 176.0
1050.595093 56.0
1050.807983 108.0
1050.930664 76.0
1051.19519 152.0
1051.240356 156.0
1051.653442 112.0
1051.743774 96.0
1051.834106 108.0
1051.911621 180.0
1052.367432 164.0
1052.518433 204.0
1052.689209 168.0
1052.738037 128.0
1053.190063 80.0
1053.241821 68.0
1053.467896 128.0
1054.016968 136.0
1055.074341 96.0
1055.56189 172.0
1055.859375 192.0
1056.072876 32.0
1056.143921 52.0
1056.195679 80.0
1056.499756 156.0
1056.824707 108.0
1057.243896 40.0
1057.718628 220.0
1057.845825 120.0
1057.897583 168.0
1058.583862 48.0
1058.881714 168.0
1058.940063 40.0
1059.043701 52.0
1059.322266 188.0
1059.652588 208.0
1059.970093 72.0
1060.106201 160.0
1060.209839 164.0
1060.540405 144.0
1060.637695 48.0
1060.734863 152.0
1061.337769 176.0
1061.532349 180.0
1061.671509 184.0
1061.932739 164.0
1062.278198 68.0
1062.472778 96.0
1062.842651 32.0
1063.160645 100.0
1063.400757 88.0
1063.67981 120.0
1063.842163 108.0
1063.887573 136.0
1064.231689 44.0
1064.530396 132.0
1064.640747 72.0
1065.21228 132.0
1065.985962 188.0
1066.121948 104.0
1066.602905 152.0
1066.719849 152.0
1066.836914 76.0
1066.888916 124.0
1067.096924 104.0
1067.474121 148.0
1067.571655 160.0
1067.883789 96.0
1068.306641 88.0
1068.818726 152.0
1069.100342 120.0
1069.686157 268.0
1069.744751 156.0
1069.91394 100.0
1070.057251 52.0
1070.441406 136.0
1070.838623 164.0
1070.92981 164.0
1071.216431 116.0
1071.894043 208.0
1072.324097 28.0
1072.460938 124.0
1072.682617 100.0
1072.793457 224.0
1072.94751 220.0
1073.39978 96.0
1074.04541 148.0
1074.528198 200.0
1074.776123 168.0
1075.010986 208.0
1075.069702 180.0
1075.252441 140.0
1075.56958 136.0
1075.683228 164.0
1075.760254 132.0
1076.035767 128.0
1076.440674 88.0
1076.492798 180.0
1076.754028 168.0
1076.819336 140.0
1076.871582 60.0
1076.937012 120.0
1077.047974 152.0
1077.642822 140.0
1077.923462 92.0
1078.433228 68.0
1078.518188 116.0
1078.590088 152.0
1078.668457 84.0
1078.929932 112.0
1079.054199 136.0
1079.211182 88.0
1079.341919 144.0
1079.891235 216.0
1080.172485 292.0
1080.434204 184.0
1080.718994 112.0
1080.804565 264.0
1081.155884 160.0
1081.297852 160.0
1081.520386 128.0
1081.769165 228.0
1081.978638 204.0
1082.295898 168.0
1082.417358 28.0
1082.469727 124.0
1083.046021 168.0
1083.740479 204.0
1083.943604 156.0
1084.336792 112.0
1084.467896 56.0
1084.55957 168.0
1084.723511 204.0
1084.854614 212.0
1084.959473 192.0
1085.11792 220.0
1085.223267 232.0
1085.431519 88.0
1085.818481 172.0
1086.28418 92.0
1086.330078 188.0
1086.513794 160.0
1087.05835 192.0
1087.411743 188.0
1087.602661 184.0
1088.239868 172.0
1088.410522 136.0
1088.661133 156.0
1088.818481 204.0
1088.929321 192.0
1089.297241 44.0
1089.586304 124.0
1089.691406 128.0
1090.052734 68.0
1090.148315 140.0
1090.328735 180.0
1091.012329 128.0
1091.147827 172.0
1091.251709 132.0
1091.413452 196.0
1091.684082 164.0
1091.906616 128.0
1092.044678 92.0
1092.110474 100.0
1092.314453 108.0
1092.564331 148.0
1092.752075 144.0
1092.84729 160.0
1093.057861 132.0
1093.426392 148.0
1093.676514 188.0
1093.985229 180.0
1094.512573 188.0
1094.743042 160.0
1094.85498 212.0
1094.927368 180.0
1095.252686 176.0
1095.322632 56.0
1095.408203 160.0
1095.480713 164.0
1095.69812 80.0
1096.073608 132.0
1096.258179 224.0
1096.595581 136.0
1097.391968 68.0
1097.467529 204.0
1097.543579 164.0
1098.11731 156.0
1098.189819 108.0
1098.334961 120.0
1098.473511 156.0
1098.612061 220.0
1098.688232 96.0
1098.757202 132.0
1099.113403 108.0
1099.517822 160.0
1100.088501 120.0
1100.15625 124.0
1100.215698 108.0
1100.440063 144.0
1100.488525 200.0
1100.895386 132.0
1101.009766 184.0
1101.08728 212.0
1101.165161 120.0
1101.331665 180.0
1101.787476 236.0
1102.038452 180.0
1102.388672 132.0
1102.805054 116.0
1102.904175 136.0
1103.4198 44.0
1103.750366 124.0
1104.140625 56.0
1104.305908 136.0
1104.378662 116.0
1104.537476 128.0
1104.603516 40.0
1104.649902 132.0
1104.903442 120.0
1104.967407 160.0
1105.15271 136.0
1105.373291 152.0
1105.784912 96.0
1105.880615 88.0
1106.165283 144.0
1106.310913 128.0
1106.436157 160.0
1106.516113 168.0
1106.668335 292.0
1106.74231 148.0
1106.847168 52.0
1106.946533 60.0
1107.65332 96.0
1107.93335 60.0
1108.038452 176.0
1108.218262 120.0
1108.317627 52.0
1108.364014 164.0
1108.430298 120.0
1108.536255 144.0
1108.668823 116.0
1108.814697 148.0
1109.015015 88.0
1109.218994 56.0
1109.391357 92.0
1109.603394 112.0
1109.802368 124.0
1110.273193 128.0
1110.518555 156.0
1111.135498 164.0
1111.327881 144.0
1111.394287 196.0
1111.453979 136.0
1111.526978 100.0
1111.599976 140.0
1111.842896 104.0
1111.911377 116.0
1111.978149 76.0
1112.549072 152.0
1112.614624 184.0
1112.780273 120.0
1113.153198 76.0
1113.379028 188.0
1113.737671 112.0
1113.883789 44.0
1114.480957 144.0
1114.833862 140.0
1114.906982 164.0
1115.106445 92.0
1115.199463 300.0
1115.299194 148.0
1115.359009 208.0
1115.491943 92.0
1115.658081 48.0
1115.77002 164.0
1116.023804 96.0
1116.103516 96.0
1116.595703 176.0
1116.675415 152.0
1116.855103 36.0
1117.294067 152.0
1117.759888 124.0
1117.866333 172.0
1118.132446 144.0
1118.598389 192.0
1118.738159 176.0
1118.936035 244.0
1119.383057 180.0
1119.836914 176.0
1119.956787 152.0
1120.050049 144.0
1120.136597 164.0
1120.223267 148.0
1121.065063 224.0
1121.202637 120.0
1121.382568 192.0
1121.815918 96.0
1122.335938 108.0
1122.389282 36.0
1122.497314 136.0
1123.609863 140.0
1124.303711 80.0
1124.676025 184.0
1124.744263 132.0
1124.94458 184.0
1125.79248 56.0
1125.859253 64.0
1126.086304 180.0
1126.233276 128.0
1126.353516 128.0
1126.540527 104.0
1127.495972 56.0
1127.602905 180.0
1127.863647 128.0
1128.030762 268.0
1128.117676 180.0
1128.184448 268.0
1128.471924 112.0
1128.531982 132.0
1128.752808 272.0
1128.833008 148.0
1128.952148 104.0
1129.127319 116.0
1129.1875 288.0
1129.414917 244.0
1129.535278 132.0
1129.849731 132.0
1129.976807 200.0
1130.451904 176.0
1130.532227 84.0
1130.672729 176.0
1130.769287 156.0
1130.999268 136.0
1131.015625 176.0
1131.147949 96.0
1131.261719 148.0
1131.39563 188.0
1131.763794 132.0
1132.339722 140.0
1132.509521 136.0
1132.728271 124.0
1132.775146 64.0
1133.089966 140.0
1133.233154 180.0
1133.552368 136.0
1133.699707 108.0
1133.874023 180.0
1134.095215 124.0
1134.249268 152.0
1134.34314 48.0
1134.403442 64.0
1134.450439 204.0
1134.544312 156.0
1134.604614 156.0
1134.944092 64.0
1135.048218 212.0
1135.154419 104.0
1135.566895 88.0
1135.762329 344.0
1135.851929 208.0
1136.026367 92.0
1136.214233 220.0
1136.395264 100.0
1136.455688 256.0
1136.811401 72.0
1136.891846 128.0
1137.166992 104.0
1137.623413 152.0
1137.891968 156.0
1138.032959 68.0
1138.156494 172.0
1138.27478 132.0
1138.523193 148.0
1139.060547 92.0
1139.443481 176.0
1139.537476 32.0
1139.631592 160.0
1139.678589 236.0
1139.739014 152.0
1139.844116 208.0
1139.954102 88.0
1140.15564 64.0
1140.290161 124.0
1140.364014 172.0
1140.525391 76.0
1140.727051 88.0
1140.780762 188.0
1141.140503 180.0
1141.615601 152.0
1141.735596 128.0
1141.870117 100.0
1141.937378 148.0
1142.071777 184.0
1142.166016 164.0
1142.374512 148.0
1142.428345 144.0
1142.56958 140.0
1142.81189 204.0
1143.087769 72.0
1143.141602 144.0
1143.255981 176.0
1143.370361 148.0
1143.747314 100.0
1143.85498 184.0
1143.976074 124.0
1144.039062 132.0
1144.265625 112.0
1144.373291 164.0
1144.514771 136.0
1144.654541 156.0
1144.97937 116.0
1145.760742 184.0
1145.929199 96.0
1146.160522 100.0
1146.441284 120.0
1146.522095 120.0
1146.710815 180.0
1146.798462 140.0
1147.088257 240.0
1147.424927 136.0
1147.614136 44.0
1148.020874 104.0
1148.440186 168.0
1148.706665 164.0
1148.888794 144.0
1149.147583 120.0
1149.24646 188.0
1149.455566 124.0
1149.546875 176.0
1149.786255 124.0
1150.150757 184.0
1150.312744 180.0
1150.569214 188.0
1150.670532 76.0
1151.109375 304.0
1151.278198 148.0
1151.573975 100.0
1151.711914 228.0
1151.772827 172.0
1151.946289 88.0
1152.006226 168.0
1152.496826 200.0
1152.581909 244.0
1152.845459 240.0
1152.9198 124.0
1153.194702 120.0
1153.244263 228.0
1153.302124 176.0
1153.446533 116.0
1153.643066 180.0
1153.859375 160.0
1154.075684 120.0
1154.298828 164.0
1154.413818 176.0
1154.576172 44.0
1154.623535 32.0
1154.731689 152.0
1155.249634 84.0
1155.276733 172.0
1155.381104 156.0
1155.532349 88.0
1155.60437 108.0
1155.678711 164.0
1155.853149 36.0
1155.942627 80.0
1156.142822 232.0
1156.585571 132.0
1156.646484 52.0
1156.851196 132.0
1157.191406 116.0
1157.235474 188.0
1157.330322 148.0
1157.469727 172.0
1157.523071 208.0
1157.74231 132.0
1157.799316 168.0
1157.899048 212.0
1157.991577 128.0
1158.015747 164.0
1158.217407 316.0
1158.305542 88.0
1158.352905 76.0
1158.529053 180.0
1158.723511 120.0
1158.833862 156.0
1158.881348 156.0
1158.98291 108.0
1159.470825 320.0
1159.796143 240.0
1159.860352 148.0
1159.938599 156.0
1160.013062 212.0
1160.190308 408.0
1160.291016 76.0
1160.474121 60.0
1160.657227 168.0
1160.738525 52.0
1160.914917 128.0
1161.196167 184.0
1161.274292 136.0
1161.492432 152.0
1161.900146 76.0
1162.006958 112.0
1162.137573 180.0
1162.244385 160.0
1162.38562 192.0
1162.58374 168.0
1162.719238 148.0
1162.838379 176.0
1162.963745 92.0
1163.350708 80.0
1163.431396 112.0
1163.846313 144.0
1163.985718 104.0
1164.104248 48.0
1164.53894 152.0
1164.634033 140.0
1164.939697 88.0
1165.014404 200.0
1165.089111 172.0
1165.174194 124.0
1165.265747 180.0
1165.505493 276.0
1165.573486 128.0
1165.741333 164.0
1165.802612 160.0
1166.389893 212.0
1166.577393 168.0
1166.625 80.0
1166.801758 160.0
1166.937744 140.0
1167.080566 56.0
1167.223267 172.0
1167.393311 124.0
1167.474976 72.0
1167.658569 136.0
1167.826904 164.0
1167.944214 152.0
1168.245239 196.0
1168.386353 116.0
1168.558472 176.0
1168.665283 132.0
1168.917114 124.0
1168.985107 220.0
1169.059937 112.0
1169.19397 176.0
1169.243774 44.0
1169.386353 152.0
1169.740601 96.0
1170.121826 96.0
1170.183105 68.0
1170.298828 144.0
1170.557617 156.0
1170.721069 44.0
1170.768677 120.0
1170.973022 156.0
1171.251709 132.0
1171.413574 188.0
1171.497559 80.0
1171.595093 156.0
1171.695068 112.0
1171.915649 148.0
1172.059814 164.0
1172.144775 176.0
1172.26062 88.0
1172.540039 168.0
1172.628784 176.0
1172.824951 184.0
1173.139771 152.0
1173.201172 120.0
1173.685303 140.0
1173.753418 136.0
1173.855713 28.0
1174.14209 108.0
1174.264893 120.0
1174.421753 152.0
1174.605957 124.0
1174.824219 112.0
1174.871948 112.0
1174.977783 140.0
1175.530884 132.0
1175.720337 192.0
1175.857544 168.0
1175.986938 188.0
1176.079834 156.0
1176.127563 156.0
1176.270874 164.0
1176.496216 68.0
1176.619141 188.0
1176.837524 204.0
1176.935791 168.0
1177.281372 188.0
1177.472656 172.0
1177.885254 116.0
1178.606567 212.0
1178.73645 164.0
1179.019775 184.0
1179.228516 176.0
1179.276367 52.0
1179.399414 76.0
1179.481323 60.0
1179.782104 144.0
1179.850464 172.0
1179.996094 160.0
1180.085938 92.0
1180.185547 108.0
1180.240234 80.0
1180.288086 80.0
1180.399658 228.0
1180.463623 168.0
1180.595825 88.0
1180.875 140.0
1180.931152 80.0
1181.14978 260.0
1181.293457 140.0
1181.594482 236.0
1181.671997 180.0
1181.786011 160.0
1181.929688 140.0
1182.223999 76.0
1182.839966 160.0
1182.997437 36.0
1183.045288 204.0
1183.198975 200.0
1183.293213 156.0
1183.417969 104.0
1183.631104 196.0
1183.825806 216.0
1184.035034 156.0
1184.195679 160.0
1184.284668 140.0
1184.407959 196.0
1184.593018 108.0
1184.702515 176.0
1184.832764 148.0
1184.902588 148.0
1185.052002 172.0
1185.120483 120.0
1185.188965 188.0
1185.312378 116.0
1185.415161 100.0
1185.620728 76.0
1185.846924 156.0
1185.963379 48.0
1186.081543 176.0
1186.227905 148.0
1186.325684 160.0
1186.587158 192.0
1186.738037 316.0
1187.005493 108.0
1187.170044 216.0
1187.238647 300.0
1187.444336 116.0
1187.663818 108.0
1187.753784 180.0
1187.929932 208.0
1188.032837 140.0
1188.178345 180.0
1188.28125 180.0
1189.111572 160.0
1189.214478 128.0
1189.530273 96.0
1189.633667 192.0
1190.010864 116.0
1190.09314 164.0
1190.161865 76.0
1190.209961 172.0
1190.278564 84.0
1190.360962 84.0
1190.436523 80.0
1190.565796 200.0
1190.636108 196.0
1190.882935 200.0
1190.95166 144.0
1191.26416 208.0
1191.356934 104.0
1191.583618 168.0
1191.657471 188.0
1191.721069 136.0
1191.865356 144.0
1191.947754 108.0
1192.106201 140.0
1192.545654 144.0
1192.772461 56.0
1192.861816 204.0
1192.954956 176.0
1193.377441 92.0
1193.501221 172.0
1193.66626 100.0
1193.741943 212.0
1193.790039 128.0
1194.099487 72.0
1194.147583 132.0
1194.283813 136.0
1194.307007 164.0
1194.519043 152.0
1194.931885 168.0
1195.200195 124.0
1195.310303 160.0
1195.413452 224.0
1195.4823 180.0
1195.571777 112.0
1195.771362 200.0
1195.9021 108.0
1195.964111 164.0
1196.22998 108.0
1196.280762 180.0
1196.521606 100.0
1196.838379 112.0
1196.900391 152.0
1197.131226 136.0
1197.816284 132.0
1197.885254 200.0
1197.999634 172.0
1198.277832 92.0
1198.381226 80.0
1198.429443 148.0
1198.594849 112.0
1198.711914 136.0
1199.249512 108.0
1199.339111 180.0
1199.559692 152.0
1199.621704 148.0
1199.952637 100.0
1200.255981 128.0
1200.435303 96.0
1200.559448 68.0
1200.924927 176.0
1201.265015 196.0
1201.614746 64.0
1201.843872 80.0
1201.973633 84.0
1202.270264 100.0
1202.429077 116.0
1202.519409 172.0
1202.707642 240.0
1202.84314 96.0
1202.946777 184.0
1203.043213 172.0
1203.250488 68.0
1203.374756 56.0
1203.423096 136.0
1203.606689 188.0
1203.789062 188.0
1203.960693 132.0
1204.014648 136.0
1204.099854 140.0
1204.148193 72.0
1204.233032 204.0
1204.291748 104.0
1204.438232 160.0
1204.54187 128.0
1204.707642 208.0
1204.873413 156.0
1204.935059 152.0
1205.10083 136.0
1205.204224 176.0
1205.336426 144.0
1205.433105 124.0
1205.586914 112.0
1205.951782 148.0
1206.10144 160.0
1206.191895 168.0
1206.296997 180.0
1206.61499 60.0
1206.743774 188.0
1206.946899 164.0
1207.036865 176.0
1207.195801 60.0
1207.244263 72.0
1207.348022 116.0
1207.437866 168.0
1207.576172 116.0
1207.624634 156.0
1207.734375 124.0
1207.868652 188.0
1207.998169 56.0
1208.094971 140.0
1208.157227 288.0
1208.218506 128.0
1208.316406 136.0
1208.662354 80.0
1208.939087 148.0
1209.015259 92.0
1209.29895 84.0
1209.375122 128.0
1209.492798 172.0
1209.704468 192.0
1209.935791 180.0
1210.257812 56.0
1210.458984 128.0
1210.638062 176.0
1210.706909 192.0
1211.175415 92.0
1211.304443 152.0
1211.556396 116.0
1211.660767 204.0
1211.791992 224.0
1211.895874 152.0
1211.944336 136.0
1211.99292 132.0
1212.290894 124.0
1212.339355 80.0
1212.533447 136.0
1212.706665 196.0
1213.115601 96.0
1213.531616 64.0
1213.658813 172.0
1213.78125 164.0
1213.899048 108.0
1214.093262 60.0
1214.434448 232.0
1214.641235 140.0
1214.798462 212.0
1214.877075 144.0
1214.925659 176.0
1215.001953 144.0
1215.112915 108.0
1215.251709 152.0
1215.341919 88.0
1215.418213 144.0
1215.522339 84.0
1216.015015 76.0
1216.237183 136.0
1216.521729 48.0
1216.868896 128.0
1216.973022 144.0
1217.07019 120.0
1217.13269 80.0
1217.213135 272.0
1217.286621 168.0
1217.38269 112.0
1217.466064 36.0
1217.528564 180.0
1217.704102 128.0
1217.850464 148.0
1218.051636 200.0
1218.320312 144.0
1218.389771 64.0
1218.494019 128.0
1218.542725 68.0
1218.591309 72.0
1218.692505 176.0
1218.879761 116.0
1219.0802 208.0
1219.209717 120.0
1219.313965 48.0
1219.40918 92.0
1219.675415 148.0
1219.856079 144.0
1219.981201 84.0
1220.148315 116.0
1220.572266 360.0
1220.697388 84.0
1220.775879 236.0
1220.846069 168.0
1220.947754 84.0
1221.107666 104.0
1221.281616 104.0
1221.37207 128.0
1221.692017 108.0
1221.879883 120.0
1222.183838 116.0
1222.366943 176.0
1222.72876 284.0
1222.965454 72.0
1223.459595 168.0
1223.640625 148.0
1223.696289 112.0
1223.752075 156.0
1224.009644 108.0
1224.329956 32.0
1224.417969 120.0
1224.546387 236.0
1224.782715 176.0
1224.831421 140.0
1224.915039 112.0
1225.026489 100.0
1225.165771 140.0
1225.307617 160.0
1225.560425 232.0
1225.699097 124.0
1225.966309 140.0
1226.092529 32.0
1226.378296 172.0
1226.468872 120.0
1226.514771 84.0
1226.726807 332.0
1226.966553 412.0
1227.015869 180.0
1227.110229 196.0
1227.333374 88.0
1227.46582 120.0
1227.563477 112.0
1227.793579 88.0
1227.934082 136.0
1228.03772 156.0
1228.086548 36.0
1228.135376 316.0
1228.184204 64.0
1228.267944 88.0
1228.333984 144.0
1228.407471 108.0
1228.812012 308.0
1228.909668 80.0
1228.98584 148.0
1228.997559 136.0
1229.237671 36.0
1229.314453 172.0
1229.391235 160.0
1229.619995 116.0
1229.684326 64.0
1229.837891 160.0
1230.005371 148.0
1230.06311 196.0
1230.277588 172.0
1230.478882 144.0
1230.549927 152.0
1230.668579 100.0
1230.906006 144.0
1231.052612 112.0
1231.199341 188.0
1231.366943 144.0
1231.541504 156.0
1231.761475 160.0
1232.1073 124.0
1232.275024 100.0
1232.365845 112.0
1232.435669 168.0
1232.568481 68.0
1232.731567 176.0
1232.861938 108.0
1233.518921 64.0
1233.630859 196.0
1233.735718 136.0
1233.798584 92.0
1233.952393 116.0
1234.050293 188.0
1234.127197 156.0
1234.221558 208.0
1234.434814 132.0
1234.532715 136.0
1234.651611 116.0
1234.805542 120.0
1234.854492 92.0
1234.9104 184.0
1235.008301 52.0
1235.057251 156.0
1235.181885 224.0
1235.253174 172.0
1235.344116 40.0
1235.539917 112.0
1235.588989 88.0
1235.651855 64.0
1235.798828 128.0
1235.877808 128.0
1236.026123 176.0
1236.158081 80.0
1236.253662 84.0
1236.337036 156.0
1236.440063 212.0
1236.572144 148.0
1236.585938 76.0
1236.616577 184.0
1236.764526 144.0
1236.850952 164.0
1236.943604 124.0
1237.156616 76.0
1237.247559 148.0
1237.338623 172.0
1237.514282 156.0
1237.947754 160.0
1237.992432 152.0
1238.157837 284.0
1238.31897 128.0
1238.420166 84.0
1238.543091 68.0
1238.669189 88.0
1238.732178 100.0
1238.843994 128.0
1238.868042 124.0
1238.895386 176.0
1239.120361 92.0
1239.390747 320.0
1239.445068 148.0
1239.578369 156.0
1239.804199 152.0
1239.860229 76.0
1239.965332 160.0
1240.23877 52.0
1240.322876 192.0
1240.389648 252.0
1240.477051 60.0
1240.582275 180.0
1240.757446 164.0
1240.848633 156.0
1240.985352 96.0
1241.108032 84.0
1241.248291 120.0
1241.41748 144.0
1241.472656 100.0
1241.65271 100.0
1241.732178 76.0
1241.825439 160.0
1241.905151 188.0
1242.11792 180.0
1242.174072 160.0
1242.337524 404.0
1242.439819 144.0
1242.476929 156.0
1242.723511 200.0
1242.849365 216.0
1243.012207 112.0
1243.177368 60.0
1243.359741 132.0
1243.44397 32.0
1243.541138 124.0
1243.63147 136.0
1243.752808 180.0
1243.822998 136.0
1244.355591 56.0
1244.39563 108.0
1244.560181 136.0
1244.623413 108.0
1244.735718 116.0
1244.819946 92.0
1244.886597 124.0
1245.065308 408.0
1245.199219 152.0
1245.339233 176.0
1245.42395 104.0
1245.522339 200.0
1245.709839 160.0
1246.056152 100.0
1246.302124 104.0
1246.470703 160.0
1246.558838 184.0
1246.744873 148.0
1246.836182 180.0
1246.917725 180.0
1247.025879 164.0
1247.160278 116.0
1247.366455 116.0
1247.609375 72.0
1247.665649 152.0
1247.72229 140.0
1247.802246 224.0
1247.939819 108.0
1248.066406 184.0
1248.164795 180.0
1248.396851 144.0
1248.748535 88.0
1248.949097 124.0
1249.314941 140.0
1249.374512 128.0
1249.560181 212.0
1249.627808 180.0
1249.726318 160.0
1249.849121 152.0
1249.944458 160.0
1250.009399 120.0
1250.099243 140.0
1250.261108 132.0
1250.341797 96.0
1250.543213 168.0
1250.609131 132.0
1250.781982 84.0
1250.852295 152.0
1250.963989 156.0
1251.179565 224.0
1251.302856 148.0
1251.415527 132.0
1251.564453 204.0
1251.633789 108.0
1251.936646 212.0
1252.168945 64.0
1252.577515 120.0
1252.690186 124.0
1252.817017 144.0
1252.880371 96.0
1253.253784 164.0
1253.307007 148.0
1253.40686 204.0
1253.606201 188.0
1253.789429 184.0
1253.944458 184.0
1253.993774 88.0
1254.085449 204.0
1254.440186 220.0
1254.85376 140.0
1254.931274 212.0
1255.016357 132.0
1255.121704 88.0
1255.305786 152.0
1255.396729 136.0
1255.481323 156.0
1255.595093 176.0
1256.137329 76.0
1256.27832 148.0
1256.355957 164.0
1256.405396 176.0
1256.474731 132.0
1256.567627 128.0
1256.680542 136.0
1256.743164 160.0
1256.800415 220.0
1257.033325 108.0
1257.14624 212.0
1257.820679 164.0
1257.901367 108.0
1258.063721 60.0
1258.131226 136.0
1258.226196 168.0
1258.282593 104.0
1258.37439 100.0
1258.550903 128.0
1258.861572 104.0
1259.24292 160.0
1259.355957 216.0
1259.511353 108.0
1259.560791 192.0
1259.680908 144.0
1259.79187 124.0
1260.041138 124.0
1260.224854 116.0
1260.286255 116.0
1260.341309 128.0
1260.543457 160.0
1260.603271 152.0
1260.769165 152.0
1260.924438 56.0
1261.037598 136.0
1261.122314 140.0
1261.221313 208.0
1261.284912 140.0
1261.383911 180.0
1261.649048 148.0
1261.732788 244.0
1261.801025 104.0
1262.133301 100.0
1262.21814 180.0
1262.293335 120.0
1262.387817 136.0
1262.472778 176.0
1262.529297 160.0
1262.684937 232.0
1262.839844 144.0
1262.965942 152.0
1262.994873 112.0
1263.102173 136.0
1263.174683 208.0
1263.305542 164.0
1263.367554 204.0
1263.460693 160.0
1263.585449 152.0
1263.695923 148.0
1263.802612 168.0
1263.852051 148.0
1263.977295 172.0
1264.022339 136.0
1264.149292 204.0
1264.213623 288.0
1264.269653 136.0
1264.322388 208.0
1264.393188 152.0
1264.530518 228.0
1264.588135 104.0
1264.701294 52.0
1264.765015 112.0
1264.824829 164.0
1264.956177 148.0
1265.041138 208.0
1265.111938 60.0
1265.18042 124.0
1265.373413 464.0
1265.42334 72.0
1265.791626 124.0
1265.854614 156.0
1265.935669 212.0
1266.177979 140.0
1266.315674 144.0
1266.400635 120.0
1266.464355 148.0
1266.613159 60.0
1266.748779 156.0
1266.807251 136.0
1266.861084 132.0
1266.910645 156.0
1266.974365 84.0
1267.109009 40.0
1267.229492 180.0
1267.300293 56.0
1267.349854 156.0
1267.456177 156.0
1267.600464 220.0
1267.753784 156.0
1268.093994 100.0
1268.262695 200.0
1268.31897 176.0
1268.473999 408.0
1268.539185 132.0
1268.639771 180.0
1268.731934 264.0
1268.835693 248.0
1268.994263 128.0
1269.320435 100.0
1269.398438 144.0
1269.511841 124.0
1269.788452 76.0
1269.900391 160.0
1270.285034 56.0
1270.334595 164.0
1270.4198 60.0
1270.582886 188.0
1270.783447 200.0
1270.895142 60.0
1271.015747 76.0
1271.335083 68.0
1271.407227 136.0
1271.492065 128.0
1271.607788 132.0
1271.682861 116.0
1271.843018 120.0
1271.98938 188.0
1272.05188 120.0
1272.151245 128.0
1272.233276 108.0
1272.293213 128.0
1272.577271 132.0
1272.780273 164.0
1272.911011 108.0
1273.028687 200.0
1273.315796 48.0
1273.379639 116.0
1273.486206 172.0
1273.628296 180.0
1273.713501 304.0
1273.763184 196.0
1273.876953 48.0
1274.179199 156.0
1274.260498 116.0
1274.338623 40.0
1274.43103 160.0
1274.521484 132.0
1274.667603 160.0
1274.736572 88.0
1274.963989 92.0
1275.020874 108.0
1275.404663 80.0
1275.50415 100.0
1275.582397 52.0
1275.646362 48.0
1275.781372 144.0
1275.980469 120.0
1276.206665 152.0
1276.343018 124.0
1276.456787 120.0
1276.512085 120.0
1276.641724 116.0
1276.727051 96.0
1276.798218 44.0
1276.876465 64.0
1277.082642 108.0
1277.317383 112.0
1277.419922 96.0
1277.479126 176.0
1277.504395 128.0
1277.694458 96.0
1277.747559 196.0
1277.922119 188.0
1278.363281 184.0
1278.565308 160.0
1278.667603 148.0
1278.733276 148.0
1278.911255 144.0
1279.007812 280.0
1279.102295 100.0
1279.197754 188.0
1279.295654 84.0
1279.54187 48.0
1279.601807 44.0
1279.694336 176.0
1279.947388 112.0
1280.093018 132.0
1280.221313 84.0
1280.334717 112.0
1280.404297 136.0
1280.491455 124.0
1280.741211 164.0
1280.817993 144.0
1280.8396 112.0
1280.870483 124.0
1281.102905 136.0
1281.275391 164.0
1281.489136 80.0
1281.628052 208.0
1281.695801 188.0
1281.76709 120.0
1281.922241 176.0
1282.052124 128.0
1282.173218 140.0
1282.45752 72.0
1282.59375 96.0
1282.648071 180.0
1282.783813 152.0
1282.98584 168.0
1283.057373 92.0
1283.121338 36.0
1283.256714 144.0
1283.399292 152.0
1283.495117 156.0
1283.715454 160.0
1283.985107 108.0
1284.091064 200.0
1284.297852 192.0
1284.390625 76.0
1284.457031 208.0
1284.501587 144.0
1284.6073 152.0
1284.722778 172.0
1284.847168 124.0
1284.911377 88.0
1285.018921 348.0
1285.082642 128.0
1285.161133 84.0
1285.225342 124.0
1285.382324 124.0
1285.603882 144.0
1285.682007 136.0
1285.803345 204.0
1285.91748 132.0
1285.967529 76.0
1286.038818 156.0
1286.130371 156.0
1286.160034 128.0
1286.360107 120.0
1286.459961 168.0
1286.697632 124.0
1286.831299 172.0
1286.881226 80.0
1287.083374 208.0
1287.152588 76.0
1287.29541 80.0
1287.409668 116.0
1287.602417 200.0
1287.716675 212.0
1287.99231 160.0
1288.102417 348.0
1288.195312 112.0
1288.245361 124.0
1288.358643 140.0
1288.695435 164.0
1288.845459 208.0
1289.025391 220.0
1289.102661 112.0
1289.174194 132.0
1289.274902 256.0
1289.350708 168.0
1289.455444 340.0
1289.500366 80.0
1289.667236 108.0
1289.803101 92.0
1290.074707 132.0
1290.317749 144.0
1290.439331 200.0
1290.575195 200.0
1290.689575 176.0
1290.88269 164.0
1290.961304 132.0
1291.011353 88.0
1291.225952 128.0
1291.28125 172.0
1291.476196 164.0
1291.602051 204.0
1291.93335 188.0
1292.012695 300.0
1292.134399 136.0
1292.183105 128.0
1292.277466 224.0
1292.438965 144.0
1292.563721 144.0
1292.649536 148.0
1292.950073 40.0
1293.000244 60.0
1293.112305 224.0
1293.250732 80.0
1293.393677 140.0
1293.422485 132.0
1293.494019 452.0
1293.587158 140.0
1293.730347 84.0
1293.809082 188.0
1293.952271 56.0
1294.109741 180.0
1294.202759 120.0
1294.267212 92.0
1294.444458 160.0
1294.696899 116.0
1294.75415 160.0
1294.811523 88.0
1295.062134 56.0
1295.234131 172.0
1295.484741 160.0
1295.567993 216.0
1295.70105 148.0
1295.751099 92.0
1295.814331 188.0
1295.885986 120.0
1296.015015 140.0
1296.09375 232.0
1296.244263 136.0
1296.351685 160.0
1296.41626 256.0
1296.466431 80.0
1296.55957 112.0
1296.663208 224.0
1296.687134 104.0
1296.713623 204.0
1296.960938 172.0
1297.220093 204.0
1297.33606 148.0
1297.421631 200.0
1297.477051 72.0
1297.713623 248.0
1297.7854 140.0
1297.87854 68.0
1297.933594 120.0
1297.990723 168.0
1298.02063 188.0
1298.093628 136.0
1298.151001 132.0
1298.258667 120.0
1298.404663 156.0
1298.516846 156.0
1298.724121 120.0
1298.84668 96.0
1298.904175 144.0
1299.10498 136.0
1299.162354 132.0
1299.61438 48.0
1299.686157 216.0
1299.81665 172.0
1299.9823 128.0
1300.109497 232.0
1300.231445 148.0
1300.396606 232.0
1300.579468 132.0
1300.608276 164.0
1300.625854 136.0
1300.769775 132.0
1300.827271 104.0
1300.95105 140.0
1301.028198 84.0
1301.243652 168.0
1301.329712 140.0
1301.646851 128.0
1301.846802 124.0
1301.954224 132.0
1302.009033 80.0
1302.112427 172.0
1302.198364 184.0
1302.251343 164.0
1302.370117 184.0
1302.526855 320.0
1302.578857 128.0
1302.651245 108.0
1302.704346 180.0
1302.852295 200.0
1302.902588 184.0
1302.995972 100.0
1303.154053 140.0
1303.21875 80.0
1303.297729 72.0
1303.441528 56.0
1303.539795 240.0
1303.678589 192.0
1303.822388 152.0
1303.930176 280.0
1304.077515 136.0
1304.227661 152.0
1304.303955 220.0
1304.408691 164.0
1304.480713 152.0
1304.529785 160.0
1304.748779 140.0
1304.922119 108.0
1305.016235 92.0
1305.109131 72.0
1305.202515 136.0
1305.279419 308.0
1305.343994 132.0
1305.490234 104.0
1305.624634 204.0
1305.773926 132.0
1305.895996 148.0
1306.009399 60.0
1306.130249 200.0
1306.195068 76.0
1306.278687 208.0
1306.468384 124.0
1306.641113 136.0
1306.705811 76.0
1306.792114 132.0
1306.871338 48.0
1307.191162 132.0
1307.302979 88.0
1307.376953 116.0
1307.511719 124.0
1307.574341 124.0
1307.713257 92.0
1307.821167 112.0
1307.972412 164.0
1308.22937 192.0
1308.296265 196.0
1308.435669 136.0
1308.677856 172.0
1308.771484 132.0
1308.865112 144.0
1308.935303 404.0
1309.003906 160.0
1309.207764 188.0
1309.289917 180.0
1309.369141 88.0
1309.455566 308.0
1309.725952 156.0
1309.877808 116.0
1310.029053 132.0
1310.118286 176.0
1310.27124 148.0
1310.384888 156.0
1310.456909 92.0
1310.716309 68.0
1310.821533 144.0
1310.835205 88.0
1310.946899 68.0
1311.047729 304.0
1311.098267 64.0
1311.194214 176.0
1311.249512 116.0
1311.443237 152.0
1311.561157 152.0
1311.594604 96.0
1311.611084 132.0
1311.683838 236.0
1311.75415 64.0
1311.804565 88.0
1311.941528 84.0
1312.114502 260.0
1312.179443 56.0
1312.280396 128.0
1312.38855 156.0
1312.475098 60.0
1312.633667 100.0
1312.694702 168.0
1312.76355 180.0
1312.855103 96.0
1312.931396 288.0
1313.125977 204.0
1313.203369 72.0
1313.275513 104.0
1313.426514 240.0
1313.437012 84.0
1313.569824 160.0
1313.675537 160.0
1313.72998 152.0
1313.828125 224.0
1313.946411 96.0
1314.025757 156.0
1314.1427 128.0
1314.213867 172.0
1314.236572 144.0
1314.261597 88.0
1314.492676 312.0
1314.604248 212.0
1314.786987 132.0
1314.879517 148.0
1315.0 40.0
1315.072144 80.0
1315.155029 148.0
1315.206055 164.0
1315.36084 220.0
1315.41333 188.0
1315.488403 84.0
1315.560181 116.0
1315.719849 192.0
1315.793945 112.0
1315.859619 160.0
1315.931152 148.0
1316.176636 100.0
1316.321045 128.0
1316.523315 156.0
1316.581055 128.0
1316.718262 64.0
1316.783203 84.0
1316.848267 144.0
1316.927734 144.0
1317.092896 60.0
1317.21106 168.0
1317.368286 104.0
1317.498413 192.0
1317.619995 164.0
1317.921143 160.0
1318.170288 136.0
1318.256958 164.0
1318.335449 160.0
1318.487793 120.0
1318.589478 204.0
1318.771118 88.0
1318.914673 132.0
1319.045532 188.0
1319.138794 116.0
1319.20813 120.0
1319.429443 172.0
1319.594238 236.0
1319.717163 60.0
1319.7677 152.0
1319.881714 136.0
1319.970215 76.0
1320.082153 148.0
1320.218384 168.0
1320.302856 144.0
1320.353516 160.0
1320.586182 112.0
1320.652466 92.0
1320.707886 180.0
1320.80188 104.0
1320.859741 156.0
1320.953857 100.0
1321.011719 40.0
1321.10144 120.0
1321.234863 136.0
1321.25293 116.0
1321.28186 176.0
1321.344482 148.0
1321.438232 96.0
1321.619385 80.0
1321.698975 120.0
1321.829224 180.0
1321.913818 248.0
1322.04834 336.0
1322.408203 144.0
1322.480591 132.0
1322.576172 96.0
1322.712158 196.0
1322.806274 156.0
1322.878662 176.0
1323.022949 160.0
1323.110352 72.0
1323.226196 144.0
1323.324585 236.0
1323.490967 168.0
1323.566528 132.0
1323.689575 120.0
1323.783691 168.0
1323.955811 164.0
1324.379639 88.0
1324.438721 324.0
1324.602173 164.0
1324.750977 160.0
1324.866333 276.0
1324.957153 100.0
1325.015015 156.0
1325.093018 148.0
1325.295288 148.0
1325.354614 172.0
1325.515015 224.0
1325.681641 112.0
1325.750488 204.0
1326.05127 112.0
1326.15271 56.0
1326.265625 180.0
1326.377441 148.0
1326.472656 200.0
1326.551392 96.0
1326.631226 96.0
1326.687256 124.0
1326.906616 56.0
1326.991943 196.0
1327.073364 156.0
1327.193848 300.0
1327.348999 112.0
1327.434204 244.0
1327.496826 152.0
1327.836182 152.0
1327.972656 324.0
1328.03064 204.0
1328.153931 132.0
1328.212036 48.0
1328.291748 52.0
1328.422363 164.0
1328.574707 156.0
1328.712524 168.0
1328.77063 88.0
1328.882812 172.0
1329.08252 164.0
1329.227661 36.0
1329.300293 136.0
1329.351074 208.0
1329.464722 192.0
1329.652344 76.0
1329.731812 144.0
1329.860962 148.0
1329.97522 112.0
1330.040527 80.0
1330.120361 124.0
1330.258301 160.0
1330.500366 92.0
1330.623779 148.0
1330.709351 128.0
1330.802734 216.0
1330.88269 216.0
1331.064209 168.0
1331.194824 220.0
1331.340088 112.0
1331.420044 56.0
1331.478149 136.0
1331.528931 72.0
1331.628906 140.0
1331.7323 164.0
1331.91394 132.0
1332.015625 168.0
1332.208984 124.0
1332.284424 104.0
1332.357056 60.0
1332.52417 40.0
1332.596802 96.0
1332.857544 280.0
1332.999878 84.0
1333.182007 184.0
1333.329102 180.0
1333.461548 140.0
1333.541504 156.0
1333.781372 88.0
1333.941284 176.0
1334.131592 88.0
1334.290161 192.0
1334.362915 120.0
1334.442871 100.0
1334.511597 108.0
1334.748291 328.0
1334.820801 136.0
1334.987061 100.0
1334.998779 184.0
1335.082764 140.0
1335.148193 104.0
1335.338013 136.0
1335.453613 124.0
1335.625977 140.0
1335.708252 92.0
1335.795532 116.0
1335.875488 156.0
1335.933716 112.0
1336.025269 160.0
1336.167847 376.0
1336.260864 180.0
1336.412109 96.0
1336.646729 128.0
1336.755859 188.0
1336.835938 200.0
1336.886841 56.0
1337.294067 176.0
1337.473145 132.0
1337.571045 124.0
1337.621948 184.0
1337.997192 240.0
1338.026733 128.0
1338.039307 188.0
1338.233521 92.0
1338.332275 160.0
1338.443115 192.0
1338.524292 236.0
1338.721436 144.0
1338.888916 136.0
1338.970581 164.0
1339.085571 112.0
1339.165649 152.0
1339.293457 132.0
1339.347778 132.0
1339.435181 144.0
1339.529785 72.0
1339.595337 144.0
1339.697388 160.0
1339.977417 108.0
1340.054565 160.0
1340.223999 132.0
1340.249512 164.0
1340.379883 176.0
1340.506104 140.0
1340.757446 156.0
1340.80896 192.0
1340.998535 196.0
1341.074585 72.0
1341.154785 52.0
1341.300537 96.0
1341.364136 148.0
1341.497803 140.0
1341.679565 92.0
1341.869141 68.0
1341.98584 196.0
1342.134033 196.0
1342.187988 196.0
1342.36499 44.0
1342.510864 184.0
1342.579468 264.0
1342.671265 168.0
1342.78064 88.0
1342.933838 72.0
1343.04834 120.0
1343.130737 120.0
1343.280762 220.0
1343.356934 132.0
1343.413574 192.0
1343.514282 224.0
1343.626831 128.0
1343.777344 172.0
1343.841187 176.0
1344.130249 172.0
1344.181396 124.0
1344.312744 72.0
1344.38562 172.0
1344.480591 132.0
1344.584473 216.0
1344.702759 164.0
1344.922974 208.0
1345.057129 108.0
1345.115479 124.0
1345.223022 88.0
1345.400269 172.0
1345.465942 292.0
1345.787964 104.0
1345.872192 144.0
1345.940552 152.0
1346.013428 160.0
1346.155273 116.0
1346.218018 152.0
1346.385986 224.0
1346.54834 160.0
1346.634277 160.0
1346.777954 160.0
1346.875244 136.0
1346.926392 112.0
1347.087158 324.0
1347.218628 116.0
1347.306274 140.0
1347.505005 160.0
1347.766602 76.0
1347.919312 120.0
1347.981201 140.0
1348.183105 36.0
1348.321899 228.0
1348.453491 160.0
1348.511963 184.0
1348.665527 192.0
1348.870117 116.0
1348.946045 92.0
1349.129395 296.0
1349.378174 276.0
1349.506104 80.0
1349.593872 120.0
1349.674316 140.0
1349.784424 140.0
1349.849854 140.0
1349.937622 64.0
1350.116821 272.0
1350.310547 164.0
1350.443115 152.0
1350.625 208.0
1350.771362 124.0
1350.858276 220.0
1350.886475 92.0
1350.914185 196.0
1350.976196 52.0
1351.119751 160.0
1351.203003 120.0
1351.302856 192.0
1351.433472 188.0
1351.511841 192.0
1351.616577 120.0
1351.78064 92.0
1351.894897 168.0
1351.963013 172.0
1352.06665 140.0
1352.183716 136.0
1352.279053 196.0
1352.359131 96.0
1352.593384 188.0
1352.666626 88.0
1352.725098 144.0
1352.805664 88.0
1352.860474 204.0
1352.921631 128.0
1353.01062 124.0
1353.180542 156.0
1353.236084 160.0
1353.340088 184.0
1353.435303 52.0
1353.642944 168.0
1353.746094 100.0
1353.829712 176.0
1353.9552 144.0
1354.065186 196.0
1354.277466 108.0
1354.401978 116.0
1354.517578 176.0
1354.599731 456.0
1354.651001 204.0
1354.782959 260.0
1354.87085 84.0
1354.94165 148.0
1355.118408 216.0
1355.169434 156.0
1355.347046 140.0
1355.500977 116.0
1355.588867 156.0
1355.845337 184.0
1355.896606 120.0
1355.977295 128.0
1356.043213 184.0
1356.17981 140.0
1356.314453 200.0
1356.61499 196.0
1356.716064 176.0
1356.763428 148.0
1356.834961 104.0
1356.952148 92.0
1357.018188 300.0
1357.122437 160.0
1357.228149 248.0
1357.330933 172.0
1357.45813 136.0
1357.5802 108.0
1357.647705 216.0
1357.70752 104.0
1358.000854 160.0
1358.05957 184.0
1358.17688 132.0
1358.275269 144.0
1358.536255 168.0
1358.651489 144.0
1358.681519 100.0
1358.713745 124.0
1358.807739 180.0
1358.906128 156.0
1358.998535 120.0
1359.203979 168.0
1359.431396 144.0
1359.63562 228.0
1359.88855 112.0
1359.954956 208.0
1360.069458 164.0
1360.356201 156.0
1360.471924 132.0
1360.729126 288.0
1360.804077 128.0
1360.878418 128.0
1361.185913 136.0
1361.332764 84.0
1361.387695 144.0
1361.455444 164.0
1361.579712 244.0
1361.648193 96.0
1361.747925 180.0
1362.11438 132.0
1362.485962 160.0
1362.537354 84.0
1362.649292 164.0
1362.713623 180.0
1362.877075 288.0
1362.941406 220.0
1363.022217 172.0
1363.089233 188.0
1363.235352 160.0
1363.301514 224.0
1363.433838 188.0
1363.562256 176.0
1363.896851 116.0
1364.019653 152.0
1364.151123 176.0
1364.221436 192.0
1364.279053 116.0
1364.346436 140.0
1364.448975 168.0
1364.700806 96.0
1364.920532 240.0
1365.029053 148.0
1365.190796 104.0
1365.470215 84.0
1365.536499 76.0
1365.626465 272.0
1365.705566 100.0
1365.882202 136.0
1365.944702 156.0
1365.999878 120.0
1366.161621 172.0
1366.382324 140.0
1366.452026 156.0
1366.577881 148.0
1366.808838 112.0
1366.868042 332.0
1366.982178 244.0
1367.059326 304.0
1367.206543 244.0
1367.317871 200.0
1367.425415 160.0
1367.532837 168.0
1367.589233 192.0
1367.684937 132.0
1367.743774 144.0
1367.859253 184.0
1368.030151 176.0
1368.105225 196.0
1368.20752 48.0
1368.266479 120.0
1368.376831 148.0
1368.431396 240.0
1368.485229 84.0
1368.600464 96.0
1368.671387 108.0
1368.918091 152.0
1368.983521 136.0
1369.054321 436.0
1369.242798 180.0
1369.3302 160.0
1369.49353 144.0
1369.700317 296.0
1369.776123 124.0
1369.861328 188.0
1369.916016 60.0
1369.99707 120.0
1370.078125 148.0
1370.210693 312.0
1370.446533 160.0
1370.527588 108.0
1370.608643 96.0
1370.726562 132.0
1370.84436 100.0
1370.938721 120.0
1370.991943 144.0
1371.0802 188.0
1371.147461 96.0
1371.338135 144.0
1371.402832 276.0
1371.564575 180.0
1371.71167 184.0
1371.799561 148.0
1371.920532 120.0
1372.038452 160.0
1372.161743 172.0
1372.266968 168.0
1372.3302 180.0
1372.57666 80.0
1372.690918 344.0
1372.844482 288.0
1372.945435 128.0
1373.171265 128.0
1373.251709 208.0
1373.317993 320.0
1373.391357 120.0
1373.423462 108.0
1373.473633 260.0
1373.53894 188.0
1373.651123 124.0
1373.758301 152.0
1373.837891 80.0
1373.919067 136.0
1374.022339 200.0
1374.082642 116.0
1374.157349 156.0
1374.213379 124.0
1374.265747 156.0
1374.346313 96.0
1374.519043 148.0
1374.730713 168.0
1374.808594 100.0
1374.929932 220.0
1374.989014 76.0
1375.07019 148.0
1375.177002 100.0
1375.307983 108.0
1375.44812 236.0
1375.716919 160.0
1375.778809 288.0
1375.837036 76.0
1376.027832 120.0
1376.23645 104.0
1376.307983 164.0
1376.369385 200.0
1376.428467 116.0
1376.585083 168.0
1376.660278 180.0
1376.738647 168.0
1376.937988 124.0
1376.99707 136.0
1377.070435 104.0
1377.240845 36.0
1377.366455 184.0
1377.477173 100.0
1377.579468 196.0
1377.635132 116.0
1377.713623 208.0
1377.861328 228.0
1377.942627 80.0
1378.016479 180.0
1378.068237 112.0
1378.199341 76.0
1378.25293 108.0
1378.304688 236.0
1378.441162 132.0
1378.607666 60.0
1378.696289 168.0
1378.873657 204.0
1379.025269 148.0
1379.150391 176.0
1379.24585 160.0
1379.30835 292.0
1379.375977 84.0
1379.464966 132.0
1379.679443 96.0
1379.782837 220.0
1379.928833 76.0
1379.940552 340.0
1380.048462 100.0
1380.293091 128.0
1380.344849 84.0
1380.426147 136.0
1380.539673 436.0
1380.647217 196.0
1380.741089 124.0
1380.886108 124.0
1381.003052 60.0
1381.128662 148.0
1381.2323 228.0
1381.358032 128.0
1381.412964 220.0
1381.564453 152.0
1381.706055 192.0
1381.883301 144.0
1381.986938 128.0
1382.194946 176.0
1382.278076 184.0
1382.379028 128.0
1382.487427 68.0
1382.571533 116.0
1382.630737 72.0
1382.704712 164.0
1382.75647 168.0
1382.848633 220.0
1382.971191 72.0
1383.199341 208.0
1383.42981 192.0
1383.50415 64.0
1383.579468 132.0
1383.648438 112.0
1383.931152 140.0
1383.985352 172.0
1384.270142 208.0
1384.325928 96.0
1384.422241 112.0
1384.592773 140.0
1384.687378 240.0
1384.943848 168.0
1385.029541 156.0
1385.111084 164.0
1385.236938 68.0
1385.372925 308.0
1385.488892 160.0
1385.585205 80.0
1385.713745 144.0
1385.890015 160.0
1385.946777 184.0
1386.040649 140.0
1386.13562 164.0
1386.264404 120.0
1386.51416 184.0
1386.622559 188.0
1386.813354 208.0
1386.881958 152.0
1387.059814 148.0
1387.241333 312.0
1387.308716 128.0
1387.393433 64.0
1387.589233 136.0
1387.76416 196.0
1387.874878 168.0
1388.164551 284.0
1388.283203 36.0
1388.490845 288.0
1388.616943 148.0
1388.761719 240.0
1389.032349 120.0
1389.229736 200.0
1389.390015 176.0
1389.477417 104.0
1389.663818 120.0
1389.783569 188.0
1389.863159 76.0
1389.949219 284.0
1390.011597 48.0
1390.078369 64.0
1390.182251 88.0
1390.281616 168.0
1390.345581 72.0
1390.397461 128.0
1390.494019 116.0
1390.600586 208.0
1390.679565 128.0
1390.788086 160.0
1390.853027 180.0
1390.946777 132.0
1391.102661 164.0
1391.200439 160.0
1391.369873 144.0
1391.444092 136.0
1391.521362 232.0
1391.614868 180.0
1391.702393 164.0
1391.807983 104.0
1391.897095 160.0
1391.99353 116.0
1392.111206 272.0
1392.231201 128.0
1392.453979 108.0
1392.593018 160.0
1392.699097 92.0
1392.813599 216.0
1392.893433 152.0
1393.055664 204.0
1393.140137 204.0
1393.315674 120.0
1393.501343 148.0
1393.568237 116.0
1393.709473 204.0
1393.774658 160.0
1393.859863 32.0
1394.006836 148.0
1394.100098 328.0
1394.17334 184.0
1394.266479 104.0
1394.297119 96.0
1394.416382 92.0
1394.501221 84.0
1394.578979 100.0
1394.69397 220.0
1394.809326 48.0
1394.894531 140.0
1395.199707 208.0
1395.27771 220.0
1395.44873 188.0
1395.567627 184.0
1395.677124 160.0
1395.731201 204.0
1395.783325 104.0
1395.849976 164.0
1395.944702 156.0
1396.021606 120.0
1396.196899 276.0
1396.29541 144.0
1396.407959 100.0
1396.465454 156.0
1396.571533 68.0
1396.718628 208.0
1396.779785 152.0
1396.831909 144.0
1396.903809 180.0
1397.040161 56.0
1397.188965 56.0
1397.345215 192.0
1397.430664 148.0
1397.550659 224.0
1397.625122 168.0
1397.754395 120.0
1397.84375 72.0
1397.900513 160.0
1398.028442 108.0
1398.096802 128.0
1398.219604 184.0
1398.293579 300.0
1398.478394 192.0
1398.565674 160.0
1398.715576 56.0
1398.796387 160.0
1398.863403 160.0
1398.92688 148.0
1398.982544 184.0
1399.127441 352.0
1399.198364 160.0
1399.374023 164.0
1399.432495 172.0
1399.53772 144.0
1399.621582 204.0
1399.734497 32.0
1399.867554 164.0
1399.965698 68.0
1400.084473 156.0
1400.144043 140.0
1400.248291 168.0
1400.36853 144.0
1400.43457 100.0
1400.500366 168.0
1400.561157 180.0
1400.710083 44.0
1400.836792 188.0
1400.915894 172.0
1401.004395 176.0
1401.112427 148.0
1401.18689 336.0
1401.266968 144.0
1401.327637 148.0
1401.49231 116.0
1401.655151 164.0
1401.80249 204.0
1401.968262 240.0
1402.038452 112.0
1402.150146 324.0
1402.252075 76.0
1402.513306 164.0
1402.565552 172.0
1402.658203 144.0
1402.736938 92.0
1402.833862 168.0
1402.967041 60.0
1403.252319 120.0
1403.449951 208.0
1403.609253 116.0
1403.72876 144.0
1403.809937 188.0
1403.887695 180.0
1403.974609 128.0
1404.101685 192.0
1404.351074 68.0
1404.418457 176.0
1404.511597 104.0
1404.562256 72.0
1404.585205 56.0
1404.637207 168.0
1404.737671 160.0
1404.802612 128.0
1404.904175 116.0
1405.00708 176.0
1405.162109 120.0
1405.287476 132.0
1405.343018 60.0
1405.459106 152.0
1405.596436 168.0
1405.735229 208.0
1405.90686 176.0
1405.988892 76.0
1406.130737 136.0
1406.223755 120.0
1406.253906 56.0
1406.296509 172.0
1406.429321 100.0
1406.518799 180.0
1406.675537 212.0
1406.795776 216.0
1406.901733 108.0
1406.980835 192.0
1407.130981 172.0
1407.193726 156.0
1407.362427 172.0
1407.439819 224.0
1407.554688 160.0
1407.705933 144.0
1407.847778 96.0
1407.926392 180.0
1408.034546 168.0
1408.116699 108.0
1408.194458 136.0
1408.273804 112.0
1408.385498 232.0
1408.460205 252.0
1408.744141 92.0
1408.848633 184.0
1408.908447 124.0
1409.020508 204.0
1409.214722 136.0
1409.274536 136.0
1409.339355 112.0
1409.474854 148.0
1409.658325 176.0
1409.726318 164.0
1409.851807 192.0
1409.920166 172.0
1410.013062 272.0
1410.081543 112.0
1410.185791 148.0
1410.33667 88.0
1410.410034 152.0
1410.491943 176.0
1410.674194 184.0
1410.768799 216.0
1410.911255 172.0
1410.978638 104.0
1411.128174 132.0
1411.210938 156.0
1411.270142 176.0
1411.404785 100.0
1411.539307 68.0
1411.644043 176.0
1411.789429 120.0
1411.885498 100.0
1412.220703 156.0
1412.294678 152.0
1412.343262 96.0
1412.496704 180.0
1412.605103 132.0
1412.780029 188.0
1412.809814 164.0
1412.832886 148.0
1412.945557 188.0
1413.035278 64.0
1413.087646 148.0
1413.228027 220.0
1413.277954 128.0
1413.372559 188.0
1413.529907 120.0
1413.596436 128.0
1413.740234 304.0
1413.798462 176.0
1413.870361 168.0
1414.037964 144.0
1414.120361 84.0
1414.21875 184.0
1414.384521 184.0
1414.562012 164.0
1414.689209 124.0
1414.756592 172.0
1415.037598 76.0
1415.134644 72.0
1415.229614 152.0
1415.303589 184.0
1415.4198 236.0
1415.572754 220.0
1415.753052 96.0
1415.811157 260.0
1415.939941 100.0
1416.036987 144.0
1416.093506 164.0
1416.171875 104.0
1416.546387 172.0
1416.598755 68.0
1416.890991 60.0
1417.003296 120.0
1417.070801 132.0
1417.248535 152.0
1417.316772 152.0
1417.422974 100.0
1417.512695 216.0
1417.584229 184.0
1417.650757 180.0
1417.730469 176.0
1417.977417 164.0
1418.112427 176.0
1418.182861 160.0
1418.247314 196.0
1418.307251 132.0
1418.462036 180.0
1418.619141 200.0
1418.849365 204.0
1419.162598 388.0
1419.254028 160.0
1419.431763 140.0
1419.57959 260.0
1419.694336 196.0
1419.829224 108.0
1419.889282 136.0
1419.98584 196.0
1420.069214 148.0
1420.196777 172.0
1420.294312 144.0
1420.346802 152.0
1420.463379 212.0
1420.608521 108.0
1420.865723 184.0
1420.949219 236.0
1421.040405 152.0
1421.19458 84.0
1421.290894 156.0
1421.457153 148.0
1421.548096 168.0
1421.664917 196.0
1421.794434 136.0
1421.869873 200.0
1421.929688 100.0
1422.050049 108.0
1422.140137 184.0
1422.230103 168.0
1422.398071 44.0
1422.648926 116.0
1422.675781 140.0
1422.714844 168.0
1422.763672 168.0
1422.830688 120.0
1422.973389 140.0
1423.025879 244.0
1423.088623 256.0
1423.345337 152.0
1423.438843 128.0
1423.521484 84.0
1423.784302 188.0
1423.851929 116.0
1423.950195 188.0
1424.206543 188.0
1424.302002 184.0
1424.449463 184.0
1424.544434 220.0
1424.660645 180.0
1424.782471 132.0
1424.903564 168.0
1425.046021 108.0
1425.094238 84.0
1425.235962 140.0
1425.324341 108.0
1425.38855 232.0
1425.489624 200.0
1425.626343 148.0
1425.829102 108.0
1426.023193 312.0
1426.09082 128.0
1426.14978 176.0
1426.244019 344.0
1426.372314 180.0
1426.530396 100.0
1426.606812 100.0
1426.744751 64.0
1426.973511 192.0
1427.053101 132.0
1427.165039 196.0
1427.244751 128.0
1427.32373 152.0
1427.417603 228.0
1427.534302 144.0
1427.639526 152.0
1427.769897 220.0
1427.947876 124.0
1428.03064 164.0
1428.173584 104.0
1428.300781 216.0
1428.414307 200.0
1428.496948 132.0
1428.609863 108.0
1428.662476 212.0
1428.766846 184.0
1428.940796 120.0
1429.172241 132.0
1429.219238 168.0
1429.277344 128.0
1429.466919 96.0
1429.595459 200.0
1429.671021 112.0
1429.706177 164.0
1429.729736 76.0
1429.890991 120.0
1429.969727 336.0
1430.099731 124.0
1430.159912 112.0
1430.235229 52.0
1430.29541 52.0
1430.49939 164.0
1430.596558 88.0
1430.769653 80.0
1430.846802 224.0
1430.939453 304.0
1431.024048 164.0
1431.197754 164.0
1431.231689 208.0
1431.522583 132.0
1431.590332 164.0
1431.650635 112.0
1431.740967 176.0
1431.841919 180.0
1431.974487 216.0
1432.100952 176.0
1432.170288 148.0
1432.223022 116.0
1432.312866 100.0
1432.468384 84.0
1432.562012 124.0
1432.64856 340.0
1432.708496 160.0
1432.804688 168.0
1432.879883 180.0
1433.044189 148.0
1433.144531 148.0
1433.270264 156.0
1433.41333 144.0
1433.586914 120.0
1433.699707 144.0
1433.752441 132.0
1433.812744 88.0
1433.963501 128.0
1434.033691 196.0
1434.148682 204.0
1434.314941 148.0
1434.445923 64.0
1434.498657 180.0
1434.551392 76.0
1434.707886 148.0
1434.969238 164.0
1435.002441 68.0
1435.031616 220.0
1435.109375 136.0
1435.192261 124.0
1435.301392 372.0
1435.411987 120.0
1435.486328 260.0
1435.630859 120.0
1435.727661 96.0
1435.787842 152.0
1435.885986 108.0
1435.97998 104.0
1436.072754 184.0
1436.161377 272.0
1436.25769 148.0
1436.548218 152.0
1437.008667 112.0
1437.227661 152.0
1437.386719 228.0
1437.568359 128.0
1437.628784 100.0
1437.696655 112.0
1437.777466 188.0
1437.915527 40.0
1437.968384 128.0
1438.09668 176.0
1438.202393 64.0
1438.310059 176.0
1438.406128 152.0
1438.458984 156.0
1438.564697 136.0
1438.827881 172.0
1438.896851 196.0
1439.158203 212.0
1439.263184 200.0
1439.400269 424.0
1439.513916 284.0
1439.636841 144.0
1439.71228 52.0
1439.784668 132.0
1439.840698 232.0
1439.953979 92.0
1440.08667 136.0
1440.280151 152.0
1440.342407 160.0
1440.641357 144.0
1440.800049 104.0
1440.878418 124.0
1441.068115 136.0
1441.132446 68.0
1441.230713 76.0
1441.283569 304.0
1441.653809 212.0
1441.736938 196.0
1442.020142 180.0
1442.092163 128.0
1442.198364 148.0
1442.381958 164.0
1442.452515 120.0
1442.530518 128.0
1442.757324 152.0
1442.822266 136.0
1442.908569 88.0
1443.067383 172.0
1443.130981 160.0
1443.188354 192.0
1443.248779 232.0
1443.365356 384.0
1443.538818 148.0
1443.758667 168.0
1443.881592 164.0
1444.016968 124.0
1444.189575 100.0
1444.290771 244.0
1444.392944 224.0
1444.500244 184.0
1444.632812 204.0
1444.931396 164.0
1445.079224 92.0
1445.218994 108.0
1445.412109 148.0
1445.677002 172.0
1445.798096 112.0
1445.851074 200.0
1445.95166 92.0
1446.062988 160.0
1446.305176 224.0
1446.411133 212.0
1446.493164 80.0
1446.610107 148.0
1446.90918 228.0
1447.140991 212.0
1447.266602 36.0
1447.368042 172.0
1447.434814 160.0
1447.571899 164.0
1447.819336 144.0
1447.925415 144.0
1448.016235 68.0
1448.107178 168.0
1448.212769 152.0
1448.417725 100.0
1448.616455 336.0
1448.750977 156.0
1448.872192 208.0
1449.053101 184.0
1449.072754 160.0
1449.160156 140.0
1449.326782 148.0
1449.395996 196.0
1449.504395 100.0
1449.536865 116.0
1449.549316 184.0
1449.614746 124.0
1449.703247 292.0
1450.062134 144.0
1450.128052 160.0
1450.223022 256.0
1450.405884 212.0
1450.47876 212.0
1450.615234 200.0
1450.765869 164.0
1450.856079 208.0
1451.155029 248.0
1451.275879 280.0
1451.401245 276.0
1451.547729 96.0
1451.638794 84.0
1451.69751 96.0
1451.718018 72.0
1451.748291 128.0
1451.870483 152.0
1451.964844 100.0
1452.045044 336.0
1452.184814 156.0
1452.268188 216.0
1452.435059 132.0
1452.567505 164.0
1452.70813 136.0
1452.882324 244.0
1453.110229 88.0
1453.255493 268.0
1453.39856 80.0
1453.489624 140.0
1453.585571 136.0
1453.664185 104.0
1453.849854 224.0
1454.040894 220.0
1454.071167 188.0
1454.21814 168.0
1454.286499 168.0
1454.401245 184.0
1454.720337 208.0
1454.783936 96.0
1454.863403 92.0
1454.969604 156.0
1455.029907 284.0
1455.109863 140.0
1455.200073 164.0
1455.256714 144.0
1455.37207 208.0
1455.474976 128.0
1455.556763 176.0
1455.651001 196.0
1455.789673 176.0
1455.895996 108.0
1456.021118 168.0
1456.13147 192.0
1456.224976 180.0
1456.430786 220.0
1456.454346 108.0
1456.481812 144.0
1456.553223 112.0
1456.758301 312.0
1456.841187 248.0
1456.911621 148.0
1456.963867 248.0
1457.10376 100.0
1457.156982 100.0
1457.263306 172.0
1457.384888 88.0
1457.510986 128.0
1457.619873 152.0
1457.673584 200.0
1457.868286 148.0
1457.88269 92.0
1457.912354 104.0
1458.011719 152.0
1458.197998 124.0
1458.273926 76.0
1458.540039 148.0
1458.609985 192.0
1458.707275 136.0
1458.920044 148.0
1458.973267 132.0
1459.026489 44.0
1459.144775 124.0
1459.254639 36.0
1459.444702 188.0
1459.551147 108.0
1459.68042 144.0
1459.778564 192.0
1459.796509 136.0
1459.878174 136.0
1460.030396 160.0
1460.136719 76.0
1460.198853 116.0
1460.345825 144.0
1460.43335 116.0
1460.516968 136.0
1460.638062 160.0
1460.767944 88.0
1460.87793 364.0
1460.935181 132.0
1460.988647 236.0
1461.057129 112.0
1461.181274 172.0
1461.266357 220.0
1461.296143 112.0
1461.331787 156.0
1461.574463 108.0
1461.69812 156.0
1461.970093 48.0
1462.084351 152.0
1462.152832 112.0
1462.208496 248.0
1462.282227 84.0
1462.385986 88.0
1462.477051 128.0
1462.696045 116.0
1462.959595 160.0
1463.059326 84.0
1463.183228 192.0
1463.244751 132.0
1463.360107 140.0
1463.416382 172.0
1463.514038 164.0
1463.648926 148.0
1463.753784 292.0
1463.887085 64.0
1464.109375 44.0
1464.172485 112.0
1464.243774 180.0
1464.345459 84.0
1464.444458 132.0
1464.586792 128.0
1464.69751 124.0
1464.752441 176.0
1464.922119 176.0
1465.043701 148.0
1465.150757 56.0
1465.203979 192.0
1465.404785 188.0
1465.507812 172.0
1465.566528 272.0
1465.625244 128.0
1465.724365 128.0
1465.78894 188.0
1465.885742 168.0
1466.008545 176.0
1466.164307 140.0
1466.347168 160.0
1466.417847 244.0
1466.569946 124.0
1466.737915 104.0
1466.90564 192.0
1466.958984 168.0
1467.039551 156.0
1467.119019 40.0
1467.26355 80.0
1467.306396 180.0
1467.400635 160.0
1467.507935 108.0
1467.5802 252.0
1467.673584 164.0
1467.856079 236.0
1467.943359 152.0
1468.110352 188.0
1468.161255 148.0
1468.265625 264.0
1468.421753 156.0
1468.477051 212.0
1468.619873 148.0
1468.738159 172.0
1468.837402 156.0
1468.903564 164.0
1468.97937 84.0
1469.05603 148.0
1469.109497 132.0
1469.195923 144.0
1469.529053 112.0
1469.651123 160.0
1469.719849 196.0
1469.788208 212.0
1469.854248 156.0
1469.932739 156.0
1470.047974 112.0
1470.141724 136.0
1470.213745 312.0
1470.292114 40.0
1470.499023 136.0
1470.646851 160.0
1470.727173 132.0
1470.788208 128.0
1470.9104 136.0
1471.027588 156.0
1471.130737 156.0
1471.21167 188.0
1471.418091 120.0
1471.505859 116.0
1471.582153 148.0
1471.63269 180.0
1471.689087 88.0
1471.780762 156.0
1471.903687 80.0
1471.985962 368.0
1472.109375 84.0
1472.231201 128.0
1472.367676 152.0
1472.475586 204.0
1472.549927 216.0
1472.657227 108.0
1472.825928 128.0
1472.876953 156.0
1473.060303 168.0
1473.239502 112.0
1473.308228 96.0
1473.390747 144.0
1473.507935 164.0
1473.595337 116.0
1473.664062 112.0
1473.789551 76.0
1473.954224 136.0
1474.032227 208.0
1474.062988 92.0
1474.082031 100.0
1474.178223 260.0
1474.286255 140.0
1474.453857 132.0
1474.549927 128.0
1474.570557 160.0
1474.655762 136.0
1474.727539 140.0
1474.940186 220.0
1475.073486 120.0
1475.134644 192.0
1475.215454 244.0
1475.328979 140.0
1475.40979 196.0
1475.493896 128.0
1475.562744 168.0
1475.654541 136.0
1475.785034 176.0
1475.89917 88.0
1475.970337 140.0
1476.026001 108.0
1476.055298 188.0
1476.168579 116.0
1476.258545 268.0
1476.411377 192.0
1476.433838 52.0
1476.567139 204.0
1476.732666 112.0
1476.809204 148.0
1476.896973 144.0
1476.992798 132.0
1477.138062 112.0
1477.206909 108.0
1477.321655 240.0
1477.438354 140.0
1477.574219 176.0
1477.673584 104.0
1477.765381 196.0
1477.891357 256.0
1477.979614 68.0
1478.094482 392.0
1478.278076 212.0
1478.401001 200.0
1478.43335 156.0
1478.528198 136.0
1478.782349 180.0
1478.928589 72.0
1479.032715 180.0
1479.173096 148.0
1479.250122 132.0
1479.369385 340.0
1479.446533 352.0
1479.572998 172.0
1479.770386 176.0
1479.969238 224.0
1480.112183 216.0
1480.214478 188.0
1480.239014 176.0
1480.352661 176.0
1480.471558 136.0
1480.629395 164.0
1480.732544 176.0
1480.835083 268.0
1480.991211 136.0
1481.066284 200.0
1481.17981 152.0
1481.279419 60.0
1481.489624 136.0
1481.580688 156.0
1481.843506 164.0
1482.07312 172.0
1482.181763 288.0
1482.321289 88.0
1482.462646 192.0
1482.528198 88.0
1482.673828 92.0
1482.862183 152.0
1483.018677 96.0
1483.114502 156.0
1483.16748 188.0
1483.325317 180.0
1483.410645 156.0
1483.532349 172.0
1483.616577 216.0
1483.734619 192.0
1483.804077 88.0
1483.97168 92.0
1484.122681 124.0
1484.186157 136.0
1484.303711 196.0
1484.361938 160.0
1484.444702 64.0
1484.521362 144.0
1484.605713 192.0
1484.682739 192.0
1484.789795 184.0
1484.871948 164.0
1484.958496 96.0
1485.012207 124.0
1485.180908 140.0
1485.277466 144.0
1485.426392 88.0
1485.662598 148.0
1485.794678 160.0
1485.855957 164.0
1486.047852 176.0
1486.109985 192.0
1486.175415 176.0
1486.282471 156.0
1486.385376 120.0
1486.446777 116.0
1486.500488 56.0
1486.63208 112.0
1486.799194 240.0
1486.962402 272.0
1487.019531 236.0
1487.106812 96.0
1487.160522 88.0
1487.324219 140.0
1487.398438 148.0
1487.476562 144.0
1487.575073 68.0
1487.689331 292.0
1487.839478 312.0
1487.966553 56.0
1488.081665 36.0
1488.265991 164.0
1488.38855 172.0
1488.494263 160.0
1488.596191 104.0
1488.826538 80.0
1488.909302 72.0
1489.146484 160.0
1489.202881 172.0
1489.26709 380.0
1489.379517 196.0
1489.607178 96.0
1489.731445 124.0
1489.781372 156.0
1490.005981 296.0
1490.093994 128.0
1490.302124 136.0
1490.43396 212.0
1490.524292 68.0
1490.596313 220.0
1490.727783 100.0
1490.983765 200.0
1491.088257 172.0
1491.261963 116.0
1491.338867 144.0
1491.515625 184.0
1491.592529 84.0
1491.646362 144.0
1491.745728 212.0
1491.830811 164.0
1491.90332 140.0
1491.973511 172.0
1492.007324 96.0
1492.033936 168.0
1492.134766 236.0
1492.199829 152.0
1492.267334 148.0
1492.373657 164.0
1492.438232 124.0
1492.530396 48.0
1492.620605 284.0
1492.710693 164.0
1492.868774 144.0
1493.191772 96.0
1493.249634 160.0
1493.278198 84.0
1493.295898 180.0
1493.388062 152.0
1493.484009 104.0
1493.638672 152.0
1493.717896 40.0
1493.860962 152.0
1493.960938 40.0
1494.021118 232.0
1494.104004 156.0
1494.232056 260.0
1494.290894 164.0
1494.412598 196.0
1494.54895 304.0
1494.641357 192.0
1494.714966 40.0
1494.799683 196.0
1494.945801 92.0
1495.053589 116.0
1495.117798 164.0
1495.205688 172.0
1495.283447 60.0
1495.36145 88.0
1495.5625 184.0
1495.744141 128.0
1495.893188 196.0
1496.06189 216.0
1496.220459 140.0
1496.378906 352.0
1496.508423 72.0
1496.598633 136.0
1496.662354 52.0
1496.745117 140.0
1496.840332 192.0
1496.939575 176.0
1497.166992 144.0
1497.363159 160.0
1497.438843 304.0
1497.456299 144.0
1497.680542 156.0
1497.803101 108.0
1497.909668 96.0
1498.040649 172.0
1498.129883 248.0
1498.241333 132.0
1498.295166 88.0
1498.380005 180.0
1498.433838 264.0
1498.510986 160.0
1498.641968 216.0
1498.757446 132.0
1498.936768 168.0
1499.081177 152.0
1499.266113 40.0
1499.374023 180.0
1499.435669 128.0
1499.501343 132.0
1499.608521 288.0
1499.720825 228.0
1499.782471 192.0
1499.942993 176.0
1500.119385 248.0
1500.244995 140.0
1500.325195 200.0
1500.40686 72.0
1500.6073 204.0
1500.692139 72.0
1500.784668 168.0
1500.910156 200.0
1501.094238 112.0
1501.182495 148.0
1501.305542 164.0
1501.42981 164.0
1501.540405 224.0
1501.760376 224.0
1501.926025 136.0
1501.9823 148.0
1502.103394 116.0
1502.273193 120.0
1502.290527 160.0
1502.465942 84.0
1502.539917 204.0
1502.663208 336.0
1502.72644 164.0
1503.053955 180.0
1503.168091 148.0
1503.259399 136.0
1503.391968 192.0
1503.53894 220.0
1503.608032 144.0
1503.76062 72.0
1503.834351 160.0
1503.924438 132.0
1503.983032 172.0
1504.052612 156.0
1504.109741 120.0
1504.285034 172.0
1504.410767 156.0
1504.483643 156.0
1504.548462 104.0
1504.634644 52.0
1504.79895 116.0
1504.893921 240.0
1504.922119 140.0
1505.033203 204.0
1505.229736 212.0
