>compound S(-)-Timolol maleate
>formula C13H24N4O3S 
>ionization [M+H]+
>parentmass 317.1641880800905
#inchi InChI=1S/C13H24N4O3S/c1-13(2,3)14-8-10(18)9-20-12-11(15-21-16-12)17-4-6-19-7-5-17/h10,14,18H,4-9H2,1-3H3/t10-/m0/s1
#inchikey BLJRIMJGRPQVNF
#Ion_Source LC-ESI
#Instrument qTof
#Compound_Source Commercial
#PI Dorrestein
#Data_Collector Garg_Neha
#Scan -1
#Precursor_MZ 317.166
#ExactMass 316.157
#Charge 1
#CAS_Number N/A
#Pubmed_ID N/A
#Smiles N/A
#INCHI_AUX N/A
#Library_Class 1
#SpectrumID CCMSLIB00000077038
#IonMode Positive
#UpdateWorkflowName UPDATE-SINGLE-ANNOTATED-GOLD
#LibraryQualityString Gold
#TaskID 48f7f52fc6d249b5abbcc6e7b3df5969
##Scan# 1047
#SpectrumFile NCP003017_A2_B11_BA6_01_15701.mzXML
#LibraryName NIH_Clinical_Collection_2.mgf
#MQScore -1
#Organism NIHcollection2_04212014_2_mgf
#TIC_Query 0
#RT_Query -1
#MZErrorPPM -1
#SharedPeaks 0
#MassDiff 0
#LibMZ -1
#SpecMZ 317.166
#SpecCharge 0
#internalFilename spec-00000.mgf

>collision 10
45.140945 188.0
45.498699 144.0
46.275284 160.0
46.716366 156.0
48.347862 164.0
48.370007 168.0
49.08709 140.0
49.938416 188.0
50.10593 140.0
50.218704 188.0
50.614407 140.0
50.624321 144.0
50.82703 164.0
51.584728 224.0
51.73064 188.0
52.189743 144.0
52.286125 188.0
52.489246 148.0
52.934319 164.0
53.225784 172.0
53.3144 152.0
53.776081 164.0
54.12109 140.0
54.473076 184.0
55.016476 148.0
55.80764 172.0
56.066021 188.0
56.581993 168.0
56.676353 184.0
57.042549 180.0
57.968651 148.0
58.27578 320.0
58.888176 168.0
59.011192 192.0
59.511448 188.0
59.700455 144.0
60.056225 160.0
60.124111 144.0
60.360466 164.0
60.411507 176.0
60.974365 168.0
61.38068 148.0
61.522659 156.0
62.92466 228.0
62.979931 152.0
63.373844 164.0
63.635551 152.0
64.125511 160.0
64.510193 144.0
64.534172 200.0
65.511574 140.0
65.882622 148.0
66.037796 168.0
66.212593 152.0
66.566833 120.0
66.72699 180.0
66.826202 176.0
67.725708 220.0
67.819099 180.0
67.999519 160.0
68.68895 212.0
69.336037 156.0
69.688889 164.0
69.733757 160.0
70.029922 172.0
70.313354 232.0
71.627899 152.0
71.911171 172.0
72.058083 164.0
72.095261 172.0
72.179779 168.0
73.247307 172.0
73.346138 148.0
73.385353 244.0
73.839584 156.0
74.319244 212.0
74.369011 160.0
74.73333 140.0
75.153748 156.0
75.942612 204.0
76.021469 188.0
78.004829 140.0
79.091431 204.0
79.891739 156.0
80.97345 208.0
82.502953 144.0
82.888466 144.0
83.283966 180.0
83.307579 180.0
84.117943 140.0
84.547462 148.0
85.020287 176.0
85.479706 184.0
85.80204 160.0
86.259811 128.0
86.467026 176.0
87.03614 200.0
87.499107 148.0
87.890518 164.0
87.972633 184.0
88.221092 180.0
88.64222 176.0
88.764061 192.0
89.045563 148.0
89.107552 236.0
89.248512 200.0
89.81134 144.0
90.019211 140.0
90.476776 192.0
90.630188 188.0
90.896652 160.0
91.561012 140.0
92.007202 184.0
92.217331 140.0
92.665115 156.0
92.848328 164.0
93.614006 152.0
93.897301 268.0
94.167503 232.0
94.596764 172.0
94.908684 188.0
94.933891 148.0
94.953285 200.0
94.982376 164.0
95.188103 156.0
95.351288 172.0
95.493217 168.0
95.915733 168.0
96.048332 176.0
96.245445 272.0
96.276688 144.0
97.186935 176.0
97.558128 160.0
98.308563 188.0
98.703644 156.0
98.788689 148.0
99.005577 360.0
99.109421 148.0
99.410347 232.0
99.569649 148.0
99.593475 164.0
99.637184 200.0
99.688843 184.0
99.704742 200.0
99.736542 196.0
100.074738 148.0
100.519234 184.0
100.886742 160.0
101.016151 404.0
101.999306 144.0
102.609276 168.0
103.808319 152.0
104.014511 180.0
104.124847 152.0
104.161461 164.0
104.311836 188.0
104.52742 160.0
105.340912 152.0
106.67907 160.0
108.000847 176.0
108.071182 192.0
109.303711 168.0
111.290474 140.0
111.775002 140.0
112.048721 152.0
112.392395 148.0
112.926872 144.0
113.07074 2396.0
113.187172 164.0
114.078262 216.0
114.137024 100.0
114.78299 196.0
114.853363 304.0
114.9944 168.0
115.096657 176.0
115.571175 192.0
116.362671 156.0
116.531738 160.0
116.619843 164.0
117.093185 148.0
117.468704 144.0
117.787704 208.0
117.934639 196.0
118.031097 408.0
118.047058 224.0
118.098961 164.0
118.575287 160.0
119.84655 144.0
121.039177 156.0
121.600388 160.0
122.050728 164.0
122.376373 172.0
124.10643 144.0
125.516159 152.0
125.720848 148.0
126.203888 148.0
126.680588 180.0
126.763748 136.0
126.99398 244.0
127.498306 200.0
127.986694 136.0
128.010223 148.0
128.172409 156.0
128.231003 252.0
128.364014 152.0
128.72261 228.0
129.012451 132.0
129.070801 252.0
129.138641 180.0
129.803741 188.0
130.001816 276.0
130.122238 1408.0
130.274277 252.0
130.492447 156.0
130.970337 216.0
131.026871 488.0
131.129532 168.0
131.741364 156.0
132.012085 160.0
132.180344 180.0
132.276459 160.0
132.54213 144.0
132.677353 160.0
134.432343 148.0
134.718643 152.0
135.602966 184.0
135.686005 156.0
135.992218 156.0
136.822083 192.0
136.896591 164.0
137.610107 148.0
138.386337 228.0
139.583008 156.0
139.954788 148.0
139.980698 176.0
140.402527 152.0
140.586975 128.0
141.304855 160.0
142.051102 188.0
142.202957 240.0
142.668533 148.0
142.808823 140.0
142.977753 160.0
143.028503 184.0
143.752258 152.0
143.921738 180.0
144.022369 12112.0
144.091324 220.0
145.043411 2888.0
145.23558 164.0
145.809418 148.0
146.015869 796.0
146.04335 120.0
146.434952 172.0
146.456635 184.0
146.610825 140.0
147.018387 172.0
147.038071 176.0
147.209091 140.0
147.312958 172.0
148.613037 144.0
149.054962 148.0
149.541336 160.0
150.13092 144.0
152.083298 156.0
152.257629 148.0
152.599182 172.0
153.305634 144.0
154.057373 160.0
154.772949 152.0
155.088852 208.0
155.631927 168.0
155.886719 164.0
156.017517 156.0
156.832443 176.0
156.987015 188.0
157.69104 148.0
158.040283 568.0
158.093323 696.0
158.128723 196.0
158.241379 232.0
158.272522 136.0
158.712418 168.0
158.875443 140.0
159.022797 1040.0
159.309738 176.0
159.7547 240.0
160.022369 320.0
160.097015 152.0
160.450928 160.0
161.016907 292.0
161.874832 144.0
162.03804 128.0
162.313202 204.0
162.414642 152.0
162.757263 208.0
163.227341 164.0
163.519897 188.0
163.580994 228.0
163.906982 144.0
164.276672 220.0
165.152832 172.0
165.221893 176.0
165.35495 156.0
165.995407 164.0
166.072342 152.0
166.652512 236.0
167.067215 204.0
168.022232 168.0
168.073761 272.0
168.623886 152.0
169.040253 180.0
169.060959 192.0
169.407898 152.0
169.454544 180.0
170.012039 248.0
170.038864 536.0
170.370346 140.0
170.671844 156.0
171.021271 212.0
171.158417 152.0
172.054596 1848.0
172.094482 184.0
172.373978 196.0
172.494202 196.0
172.967667 224.0
173.035721 144.0
173.056671 144.0
174.43663 192.0
175.050079 268.0
175.766632 148.0
176.070221 152.0
176.366135 152.0
177.156647 160.0
177.689529 188.0
178.11496 284.0
179.48822 144.0
180.078308 176.0
180.107376 168.0
180.278366 160.0
180.716904 156.0
181.102386 160.0
181.131851 140.0
181.295288 192.0
181.391785 208.0
182.089676 160.0
183.318848 152.0
183.855499 236.0
185.028625 156.0
185.548798 184.0
185.847137 148.0
186.03154 380.0
186.240768 164.0
186.474442 240.0
186.694656 172.0
187.038422 140.0
187.8004 160.0
187.971878 112.0
188.014862 316.0
188.04921 45232.0
188.095963 296.0
189.052475 2824.0
189.29805 144.0
189.317215 192.0
189.519928 220.0
189.772095 200.0
190.045456 1856.0
190.120453 180.0
190.483368 112.0
191.044785 224.0
191.45929 224.0
192.167725 148.0
192.418869 140.0
192.579041 148.0
192.777954 180.0
194.092819 148.0
195.904922 176.0
196.062912 240.0
196.509903 180.0
196.956558 168.0
197.053345 172.0
197.097031 164.0
198.120636 208.0
198.265961 148.0
198.894226 140.0
198.967209 216.0
199.560013 152.0
200.048325 1884.0
200.221298 152.0
200.847 256.0
201.053406 464.0
202.387207 168.0
202.528809 180.0
202.576965 168.0
202.71579 164.0
203.090027 144.0
203.109879 144.0
203.135406 268.0
203.708832 172.0
203.80542 168.0
203.906693 160.0
206.762573 192.0
207.286636 152.0
207.687393 148.0
207.883102 172.0
208.940475 196.0
209.193726 168.0
209.329041 140.0
209.383759 164.0
210.530441 216.0
211.091721 128.0
211.16449 176.0
211.366989 156.0
212.093918 152.0
212.635941 164.0
213.066055 156.0
214.032379 680.0
214.06221 696.0
214.352081 148.0
214.381226 260.0
215.040863 164.0
215.957764 252.0
216.581207 160.0
216.663239 144.0
217.070648 140.0
217.454956 276.0
218.630539 156.0
219.275497 200.0
219.555588 172.0
219.5961 184.0
220.275757 184.0
221.06813 144.0
221.159882 140.0
221.461884 156.0
222.010178 148.0
222.832397 220.0
223.064194 180.0
223.096893 144.0
223.840714 212.0
224.028366 148.0
224.925934 188.0
225.212585 180.0
225.385864 196.0
226.064453 312.0
226.088593 164.0
226.190353 140.0
226.930313 180.0
227.053619 136.0
227.473328 152.0
227.699905 164.0
228.044785 304.0
228.452972 152.0
229.052017 148.0
229.407593 236.0
229.51915 272.0
230.30983 160.0
230.332703 224.0
230.388367 176.0
231.695297 176.0
232.080109 144.0
232.419922 172.0
232.674881 188.0
233.078827 144.0
233.197357 176.0
233.221664 180.0
234.207504 196.0
234.731705 172.0
234.853699 168.0
235.606583 144.0
237.376801 180.0
237.422791 160.0
237.496399 156.0
239.666824 184.0
240.678528 152.0
240.993576 176.0
241.058472 200.0
241.951324 144.0
242.011185 148.0
242.054535 480.0
243.091675 2408.0
243.216187 144.0
243.356827 148.0
243.387878 144.0
243.508987 140.0
244.075928 34284.0
244.181198 220.0
244.244217 124.0
245.077957 3772.0
245.375015 96.0
245.412766 136.0
245.907944 96.0
246.074158 1300.0
246.148773 184.0
246.20607 156.0
246.332169 192.0
247.073349 240.0
247.798233 148.0
248.462891 164.0
248.651154 144.0
249.04541 148.0
249.593582 160.0
250.47673 152.0
250.75206 148.0
250.812988 140.0
251.001114 172.0
251.029495 152.0
251.411194 160.0
252.671951 168.0
254.058197 176.0
254.405472 140.0
254.443573 160.0
254.56105 192.0
255.073776 128.0
255.415985 144.0
255.845581 196.0
256.070099 284.0
256.329712 180.0
257.784821 184.0
258.24118 136.0
258.928223 156.0
259.024109 128.0
259.079407 192.0
259.231262 140.0
259.313721 160.0
259.609528 176.0
259.642487 116.0
259.689697 160.0
259.893707 156.0
259.999908 116.0
260.178223 132.0
260.242249 176.0
260.353699 180.0
260.524689 132.0
260.726471 100.0
260.854919 156.0
260.903503 168.0
260.998993 160.0
261.047699 232.0
261.102997 135820.0
261.190216 464.0
261.224121 284.0
261.368042 160.0
261.417297 96.0
261.487701 172.0
261.538818 144.0
261.631622 868.0
261.684692 120.0
261.791565 156.0
261.823517 112.0
261.859192 100.0
261.921234 180.0
261.950623 104.0
262.025208 96.0
262.048096 256.0
262.10498 13440.0
262.177429 152.0
262.322235 196.0
262.585785 188.0
262.706482 148.0
262.832031 176.0
262.926727 100.0
262.996704 120.0
263.099426 4680.0
263.194 132.0
263.592041 136.0
263.785278 120.0
263.844543 108.0
263.900848 96.0
264.042816 96.0
264.098969 536.0
264.152802 196.0
264.192413 136.0
266.638916 128.0
267.379333 152.0
267.91333 148.0
267.987366 192.0
271.589844 184.0
271.79953 104.0
272.084503 192.0
272.766357 180.0
273.013733 100.0
274.036652 140.0
274.059723 200.0
274.14209 148.0
274.943451 260.0
275.944336 164.0
276.090759 172.0
276.986786 164.0
280.043945 120.0
281.206421 132.0
281.847412 156.0
283.158752 144.0
283.185547 228.0
283.570862 168.0
284.570526 144.0
284.711548 152.0
285.228973 156.0
285.625732 156.0
285.884796 148.0
286.086761 148.0
286.264862 120.0
286.95932 140.0
287.23587 168.0
287.488892 184.0
289.144867 144.0
289.307343 160.0
291.036224 140.0
292.767273 148.0
292.910309 152.0
296.926453 180.0
299.125458 172.0
299.158783 288.0
299.769501 164.0
300.010773 160.0
300.126465 280.0
301.007874 140.0
302.643433 188.0
305.037231 156.0
305.398865 140.0
305.520599 168.0
306.418823 152.0
306.669739 144.0
307.143921 200.0
308.149323 164.0
308.24884 184.0
308.355499 180.0
308.897919 148.0
309.776093 160.0
310.021362 184.0
310.459564 152.0
310.613892 144.0
311.622681 212.0
312.236603 192.0
312.296387 144.0
313.612976 232.0
314.162415 160.0
314.304443 148.0
314.380066 100.0
314.438538 144.0
314.665497 216.0
314.81897 100.0
315.013519 144.0
315.073273 116.0
315.165344 112.0
315.214508 236.0
315.24057 100.0
315.295502 124.0
315.334717 176.0
315.378784 112.0
315.431061 228.0
315.479706 132.0
315.540649 192.0
315.593811 108.0
315.652618 120.0
315.728058 120.0
315.841797 100.0
315.91452 356.0
315.998016 212.0
316.040924 256.0
316.118439 168.0
316.17215 228.0
316.213745 188.0
316.275604 136.0
316.362244 276.0
316.424255 284.0
316.463135 224.0
316.52359 188.0
316.590515 140.0
316.663391 192.0
316.748718 152.0
316.836487 144.0
316.879944 336.0
316.912048 232.0
316.953552 248.0
317.025421 256.0
317.052063 568.0
317.166748 191376.0
317.269409 116.0
317.293488 160.0
317.396973 264.0
317.428131 244.0
317.466858 148.0
317.505402 196.0
317.586945 204.0
317.646637 252.0
317.694824 180.0
317.749054 5536.0
317.807007 164.0
317.886444 212.0
317.933228 136.0
317.992157 132.0
318.055115 116.0
318.167755 50476.0
318.280426 120.0
318.343109 124.0
318.380798 148.0
318.445374 100.0
318.518494 308.0
318.674622 260.0
318.742554 120.0
318.817108 132.0
318.985077 132.0
319.084747 176.0
319.162994 11976.0
319.217346 420.0
319.295532 96.0
319.385529 152.0
319.438934 136.0
319.544647 176.0
319.60083 108.0
319.69574 100.0
319.829498 220.0
319.878815 192.0
319.939453 160.0
320.021088 192.0
320.097351 184.0
320.124664 196.0
320.164673 812.0
320.224731 252.0
320.27475 144.0
320.317291 364.0
320.367004 252.0
320.404175 208.0
320.458405 120.0
320.51828 140.0
320.578888 120.0
320.630432 100.0
320.654663 132.0
321.17514 144.0
321.252075 124.0
321.744629 148.0
321.795654 112.0
323.638428 108.0
323.950256 160.0
327.953217 156.0
332.177856 104.0
349.18042 168.0
394.200439 160.0
539.159912 156.0
543.896912 164.0
606.657837 188.0
613.338928 240.0
1301.963257 96.0
1420.644165 224.0
1451.203979 208.0
1529.174072 160.0
1582.303345 160.0
1630.692871 148.0
1672.469482 168.0
1685.019653 164.0
1691.201904 164.0
1693.044067 156.0
1719.822144 204.0
1720.366943 184.0
1731.935425 176.0
1736.626831 180.0
1771.126221 140.0
1823.813232 140.0
1849.795654 192.0
1857.550659 200.0
1864.814819 148.0
1871.068604 200.0
1904.439209 248.0
1909.306396 164.0
1911.507202 148.0
1913.68335 192.0
1926.110596 168.0
1936.685669 148.0
1944.409912 188.0
1950.725342 176.0
1959.622681 148.0
1976.513794 164.0
1986.312378 276.0
1996.206299 156.0
1999.489014 160.0
2001.598755 196.0
