>compound Clarithromycin
>formula C38H69NO13 
>ionization [M+H]+
>parentmass 748.486
#inchi InChI=1S/C38H69NO13/c1-15-26-38(10,45)31(42)21(4)28(40)19(2)17-37(9,47-14)33(52-35-29(41)25(39(11)12)16-20(3)48-35)22(5)30(23(6)34(44)50-26)51-27-18-36(8,46-13)32(43)24(7)49-27/h19-27,29-33,35,41-43,45H,15-18H2,1-14H3/t19-,20-,21+,22+,23-,24+,25+,26-,27+,29-,30+,31-,32+,33-,35+,36-,37-,38-/m1/s1
#inchikey AGOYDEPGAOXOCK
#Ion_Source LC-ESI
#Instrument qTof
#Compound_Source Isolated
#PI Sirenas
#Data_Collector Ed Esquenazi 
#Scan -1
#Precursor_MZ 748.486
#ExactMass 0.0
#Charge 1
#CAS_Number N/A
#Pubmed_ID N/A
#Smiles N/A
#INCHI_AUX N/A
#Library_Class 3
#SpectrumID CCMSLIB00000004873
#IonMode Positive
#UpdateWorkflowName UPDATE-SINGLE-ANNOTATED-BRONZE
#LibraryQualityString Bronze
#TaskID d19310cd93df49b68e9fcbec27720eb5
##Scan# 3
#SpectrumFile Clarithromycin.mgf
#LibraryName fda_library.mgf
#MQScore -1
#Organism fda_library
#TIC_Query 0
#RT_Query -1
#MZErrorPPM -1
#SharedPeaks 0
#MassDiff 0
#LibMZ -1
#SpecMZ 748.486
#SpecCharge 0
#internalFilename spec-00000.mgf

>collision 10
100.075699 221.168198
100.216759 17.94936
109.062363 87.22831
112.568527 8.03728
113.059372 403.668304
113.08358 4.066667
114.086288 65.324242
114.69445 4.083333
115.073166 677.585571
115.127068 3.440476
115.399452 3.047619
115.418381 2.669444
115.425896 12.12927
115.532616 20.05357
115.927238 5.444445
116.070053 763.222473
116.107292 1396.072998
116.148438 2.722222
116.167679 5.947115
116.197083 7.102273
116.234589 4.002193
116.256081 6.579166
116.302109 7.00463
116.377159 5.033333
116.741432 2.733333
117.935844 5.814815
121.100502 18.051161
122.291252 7.280303
123.076347 22.68145
127.074646 418.139496
127.110886 2.00463
127.12265 3.335784
127.201111 7.340909
127.220726 7.757883
127.485733 4.291667
149.134109 34.29414
150.813614 6.083333
151.990509 8.186728
157.028305 9.049797
157.148407 19.40151
157.302429 17.34259
157.316147 3.010417
157.352325 8.157051
157.363556 2.35
157.381287 44.124378
157.421555 35.629761
157.507416 10.83333
157.600052 3.760417
157.685501 6.520833
157.713486 13.35099
157.846481 21.025
158.116623 6495.199219
158.170364 6.5
158.190048 15.80708
158.224625 15.01136
158.246933 6.347222
158.264435 5.017857
158.282166 8.853395
158.303833 16.734261
158.326813 4.416667
158.376373 17.71656
158.416321 31.752081
158.430786 12.01587
158.448288 1.720238
158.465012 26.41049
158.488281 28.89286
158.505249 9.022223
158.526474 4.708333
158.607529 8.2
158.618698 7.130208
158.632278 8.122549
158.645447 9.960366
158.707428 10.29643
158.729752 13.62976
158.762573 11.46944
158.781296 12.06373
158.819824 14.52006
159.166931 8.047619
159.399994 3.342592
159.857391 2.041667
160.480118 2.25
160.817429 12.05128
161.033676 4.336538
166.170029 7.94697
169.594208 14.00079
176.124161 25.18841
196.77951 7.013889
204.16983 4.007576
205.158798 12.82372
211.13504 15.88982
216.299881 3.002778
221.122726 44.753422
227.177963 12.69565
256.184113 18.388439
261.180237 28.5
284.180023 31.233351
289.179596 19.67738
308.189331 17.343901
318.959991 21.42222
347.236389 14.67816
348.664032 5.371913
409.281067 45.935108
464.429565 5.005952
558.348267 71.151993
558.81897 19.161011
558.901489 23.26556
587.660706 6.75
590.379333 42.54134
944.074707 6.395833
