>compound MLS001048982-01!
>formula C16H12O4
>ionization [M+H]+
>parentmass 269.080109
#inchi InChI=1S/C16H12O4/c1-19-16-8-10(6-7-12(16)17)15-9-13(18)11-4-2-3-5-14(11)20-15/h2-9,17H,1H3
#inchikey KTFLFGFPJQSPNR
#Ion_Source LC-ESI
#Instrument qTof
#Compound_Source NIH Natural Product Library
#PI Dorrestein
#Data_Collector VVP/LMS
#Scan -1
#Precursor_MZ 269.081
#ExactMass 268.074
#Charge 1
#CAS_Number N/A
#Pubmed_ID N/A
#Smiles COc1cc(ccc1O)c2cc(=O)c3ccccc3o2
#INCHI_AUX N/A
#Library_Class 1
#SpectrumID CCMSLIB00000079844
#IonMode Positive
#UpdateWorkflowName UPDATE-SINGLE-ANNOTATED-GOLD
#LibraryQualityString Gold
#TaskID b1d8e8f6646f4e71acdff9ca3d919d08
##Scan# 1922
#SpectrumFile p1-H11_GH11_01_17967.mzXML
#LibraryName NIH_Natural_Products_Library.mgf
#MQScore -1
#Organism NIH_Natural_Products_Library
#TIC_Query 0
#RT_Query -1
#MZErrorPPM -1
#SharedPeaks 0
#MassDiff 0
#LibMZ -1
#SpecMZ 269.081
#SpecCharge 0
#internalFilename spec-00000.mgf

>collision 10
94.962166 236.0
94.994202 280.0
95.026184 140.0
95.044937 144.0
95.074699 144.0
95.140694 48.0
95.239723 132.0
95.37574 120.0
95.445732 192.0
95.531303 140.0
95.61692 216.0
95.7201 100.0
95.879845 128.0
95.905182 52.0
96.195824 164.0
96.273926 172.0
96.314934 96.0
96.434128 156.0
96.461494 132.0
96.494728 60.0
96.527969 144.0
96.608154 104.0
96.668808 172.0
96.700127 156.0
96.731445 156.0
96.82151 204.0
96.84893 180.0
96.946892 196.0
97.07235 156.0
97.095886 200.0
97.258736 196.0
97.369225 176.0
97.419754 60.0
97.4394 52.0
97.5298 140.0
97.545525 136.0
97.58091 72.0
97.604507 92.0
97.632332 160.0
97.649734 240.0
97.85833 56.0
97.996201 136.0
98.153885 144.0
98.215027 184.0
98.424217 84.0
98.475563 60.0
98.661308 184.0
98.859108 116.0
98.892754 196.0
98.95536 176.0
98.983017 168.0
99.154625 156.0
99.173195 224.0
99.191849 64.0
99.341545 164.0
99.728813 216.0
99.853043 68.0
99.874565 112.0
99.920677 144.0
99.994301 156.0
100.061981 172.0
100.149605 136.0
100.166443 256.0
100.181473 48.0
100.221321 196.0
100.363953 208.0
100.404716 144.0
100.586288 192.0
100.633812 332.0
100.654167 196.0
100.750038 164.0
100.772018 144.0
100.825966 72.0
100.857948 156.0
100.885933 160.0
101.009918 120.0
101.05793 116.0
101.083946 168.0
101.328224 156.0
101.382324 216.0
101.426422 96.0
101.526665 372.0
101.614929 124.0
101.663086 156.0
101.898018 120.0
101.980408 128.0
102.050835 128.0
102.083588 224.0
102.109085 168.0
102.14328 168.0
102.276085 48.0
102.334419 180.0
102.388832 176.0
102.644768 240.0
102.755707 144.0
102.826332 120.0
102.957558 176.0
103.018158 156.0
103.052498 176.0
103.121208 136.0
103.151527 176.0
103.197914 144.0
103.238464 152.0
103.297119 100.0
103.499512 296.0
103.535957 196.0
103.693985 144.0
103.80954 96.0
103.906906 40.0
103.998222 224.0
104.024612 72.0
104.05912 128.0
104.120041 200.0
104.335434 128.0
104.351692 172.0
104.396431 120.0
104.46965 200.0
104.628387 76.0
104.71595 188.0
104.741821 188.0
104.772987 156.0
104.825966 92.0
104.909531 168.0
104.942146 180.0
104.985512 196.0
105.033501 2864.0
105.105324 96.0
105.149559 172.0
105.346245 108.0
105.3871 240.0
105.427971 68.0
105.46476 184.0
105.626297 204.0
105.780067 192.0
105.904533 228.0
106.011215 196.0
106.040367 808.0
106.070648 216.0
106.091103 176.0
106.128052 220.0
106.186905 120.0
106.485123 204.0
106.630997 208.0
106.655663 156.0
106.715279 76.0
106.803711 136.0
106.908302 124.0
106.939507 136.0
107.013618 164.0
107.045769 320.0
107.05098 196.0
107.155731 152.0
107.475319 172.0
107.493889 148.0
107.599159 68.0
107.836716 136.0
107.896072 168.0
107.946281 144.0
107.98558 52.0
108.020531 340.0
108.037292 204.0
108.117264 160.0
108.213203 212.0
108.327347 176.0
108.372688 216.0
108.418282 172.0
108.463875 160.0
108.534363 120.0
108.775024 184.0
108.878845 200.0
108.928688 176.0
108.955696 112.0
109.080383 204.0
109.213463 152.0
109.250908 168.0
109.319572 176.0
109.503792 152.0
109.563187 192.0
109.576965 184.0
109.639534 212.0
109.696556 164.0
109.865479 152.0
109.890511 140.0
109.94268 216.0
109.96772 148.0
110.004082 212.0
110.057487 100.0
110.101341 124.0
110.264297 196.0
110.301926 100.0
110.387642 168.0
110.477585 160.0
110.55291 148.0
110.645004 124.0
110.793701 108.0
110.864944 132.0
111.030563 148.0
111.183708 148.0
111.255074 192.0
111.286568 196.0
111.357971 172.0
111.389473 124.0
111.433594 220.0
111.47982 220.0
111.535332 136.0
111.595428 212.0
111.610153 168.0
111.662727 120.0
111.687965 132.0
111.727936 188.0
111.858406 132.0
111.978424 192.0
112.075333 168.0
112.119583 176.0
112.177269 152.0
112.243958 92.0
112.265045 204.0
112.290352 132.0
112.410606 200.0
112.537254 92.0
112.568596 128.0
112.611168 164.0
112.657639 136.0
112.678764 208.0
112.965836 172.0
113.017052 184.0
113.063606 256.0
113.091125 184.0
113.2584 188.0
113.423676 192.0
113.438515 160.0
113.561501 152.0
113.612167 176.0
113.673935 192.0
113.741852 164.0
113.763084 140.0
113.879868 128.0
113.924477 124.0
114.034393 132.0
114.077484 152.0
114.256126 160.0
114.368904 144.0
114.407227 96.0
114.462585 176.0
114.496658 60.0
114.517311 172.0
114.523987 120.0
114.529053 152.0
114.588249 232.0
114.652176 136.0
114.711861 200.0
114.769417 72.0
114.861008 144.0
115.053917 704.0
115.102295 100.0
115.131638 124.0
115.183449 44.0
115.324478 168.0
115.598221 184.0
115.649437 112.0
115.681694 168.0
115.733078 140.0
115.760918 168.0
115.786613 72.0
115.829453 172.0
115.855156 108.0
115.928009 164.0
116.065201 184.0
116.15313 100.0
116.19175 140.0
116.210991 140.0
116.247536 116.0
116.286163 152.0
116.301186 224.0
116.357002 136.0
116.423569 112.0
116.462494 128.0
116.586838 92.0
116.838417 180.0
116.85778 44.0
116.896507 56.0
116.960159 160.0
117.030548 284.0
117.05365 144.0
117.116112 164.0
117.189354 132.0
117.228142 200.0
117.337654 188.0
117.345505 152.0
117.368256 176.0
117.394135 52.0
117.445892 156.0
117.614197 148.0
117.728622 144.0
117.773361 168.0
117.797745 140.0
117.817184 120.0
117.890648 204.0
117.936035 136.0
118.038765 316.0
118.102524 132.0
118.295113 76.0
118.312431 148.0
118.340576 144.0
118.355728 176.0
118.370888 208.0
118.410553 140.0
118.455353 72.0
118.583839 148.0
118.626549 300.0
118.682922 160.0
118.698097 136.0
118.718559 128.0
118.774002 216.0
118.869469 40.0
118.906357 192.0
118.938919 192.0
118.967133 168.0
119.062675 176.0
119.140869 152.0
119.227783 148.0
119.499596 140.0
119.588821 144.0
119.752121 52.0
119.865402 148.0
120.02018 396.0
120.046333 28.0
120.194672 124.0
120.391136 184.0
120.474136 100.0
120.515648 188.0
120.544052 380.0
120.624924 148.0
120.677391 116.0
120.71019 124.0
120.747414 176.0
120.769234 128.0
120.791115 36.0
120.845802 152.0
120.863693 136.0
120.966171 60.0
121.028435 16704.0
121.070457 216.0
121.105217 52.0
121.165459 96.0
121.255302 224.0
121.280846 104.0
121.310097 180.0
121.336403 160.0
121.372948 204.0
121.435081 48.0
121.485535 200.0
121.54258 68.0
121.658173 96.0
121.702812 100.0
121.766495 184.0
121.836792 104.0
121.863152 88.0
121.997215 236.0
122.031876 1272.0
122.126953 68.0
122.168747 72.0
122.19075 160.0
122.228157 84.0
122.329391 140.0
122.358017 204.0
122.379028 132.0
122.459312 132.0
122.479134 76.0
122.545227 96.0
122.578278 84.0
122.67305 284.0
122.719345 136.0
122.734779 132.0
122.752419 148.0
122.778885 124.0
122.879578 140.0
122.904625 84.0
122.963173 256.0
123.017181 136.0
123.033707 516.0
123.104294 120.0
123.244667 56.0
123.277809 212.0
123.394958 52.0
123.492264 168.0
123.519531 300.0
123.545708 124.0
123.579697 160.0
123.68383 124.0
123.793251 92.0
123.985985 124.0
124.187737 68.0
124.336395 236.0
124.385223 148.0
124.593971 148.0
124.751755 120.0
124.831795 168.0
125.009758 164.0
125.103241 192.0
125.281403 220.0
125.332642 136.0
125.368301 136.0
125.548874 64.0
125.68718 108.0
125.897018 96.0
126.008705 132.0
126.069687 204.0
126.09362 100.0
126.25235 164.0
126.27961 148.0
126.323921 140.0
126.605942 156.0
126.661942 168.0
126.758278 328.0
126.88604 172.0
126.944336 160.0
126.977974 160.0
127.051994 184.0
127.121552 140.0
127.141754 196.0
127.260727 188.0
127.307877 304.0
127.387985 168.0
127.396843 112.0
127.723671 112.0
127.802414 164.0
127.856422 184.0
127.908188 156.0
127.958344 216.0
128.06076 1140.0
128.097336 96.0
128.34613 196.0
128.435455 128.0
128.473816 208.0
128.500885 184.0
128.561813 144.0
128.588898 160.0
128.699509 128.0
128.76268 148.0
128.803391 140.0
128.920883 176.0
128.941223 136.0
128.957047 160.0
128.999985 168.0
129.069962 2380.0
129.153748 28.0
129.21936 220.0
129.386841 176.0
129.640518 140.0
129.676788 180.0
129.71759 144.0
129.827271 200.0
129.8423 160.0
129.953445 144.0
129.976135 200.0
130.015701 176.0
130.032867 156.0
130.075775 732.0
130.175903 212.0
130.434906 100.0
130.66687 172.0
130.690903 184.0
130.731384 132.0
130.757889 44.0
130.805679 124.0
130.924088 104.0
130.965073 120.0
131.051422 164.0
131.064407 368.0
131.085831 160.0
131.199783 104.0
131.265915 192.0
131.36171 176.0
131.503174 140.0
131.51915 188.0
131.647003 228.0
131.893753 184.0
131.969254 160.0
132.019257 452.0
132.051529 156.0
132.08812 140.0
132.127014 124.0
132.170486 160.0
132.284912 88.0
132.360474 228.0
132.381073 152.0
132.417725 84.0
132.523102 128.0
132.575806 180.0
132.63768 148.0
132.708755 120.0
132.763794 44.0
132.779846 108.0
132.807358 52.0
132.87619 64.0
132.981735 172.0
133.003906 164.0
133.027344 1128.0
133.064377 132.0
133.099197 120.0
133.16095 224.0
133.222839 108.0
133.303268 128.0
133.346924 164.0
133.369919 112.0
133.581268 144.0
133.664291 224.0
133.712616 116.0
134.036438 228.0
134.092636 228.0
134.122818 204.0
134.168701 64.0
134.187149 188.0
134.205597 108.0
134.316284 124.0
134.343979 148.0
134.581696 104.0
134.65097 152.0
134.905136 176.0
134.9375 136.0
135.006882 156.0
135.036011 188.0
135.212784 104.0
135.268326 188.0
135.28685 148.0
135.374832 96.0
135.453583 164.0
135.506866 104.0
135.552231 144.0
135.620407 140.0
135.677582 204.0
135.694595 168.0
135.780396 232.0
135.875504 132.0
135.938141 128.0
136.123856 208.0
136.237671 48.0
136.27948 188.0
136.414276 168.0
136.43985 80.0
136.474731 80.0
136.504959 220.0
136.525879 132.0
136.558441 192.0
136.618927 252.0
136.642197 212.0
136.812759 204.0
136.877274 160.0
136.900558 88.0
136.93782 144.0
137.017029 68.0
137.049637 148.0
137.161514 120.0
137.210464 188.0
137.244492 188.0
137.29628 140.0
137.370438 160.0
137.394714 160.0
137.472321 168.0
137.565063 188.0
137.581406 68.0
137.635101 76.0
137.677139 56.0
137.749298 188.0
138.041702 200.0
138.079651 156.0
138.135254 160.0
138.165665 188.0
138.249908 136.0
138.642166 136.0
138.680832 228.0
138.730057 128.0
138.856201 212.0
138.915329 144.0
139.002136 148.0
139.051422 196.0
139.081924 208.0
139.107758 116.0
139.288559 188.0
139.328506 44.0
139.377838 160.0
139.457748 168.0
139.488297 236.0
139.534805 92.0
139.554123 56.0
139.584702 164.0
139.61351 236.0
139.685822 152.0
139.85289 136.0
139.907684 212.0
139.975311 136.0
140.060104 160.0
140.217957 96.0
140.250961 144.0
140.324036 132.0
140.349976 228.0
140.44902 100.0
140.535934 196.0
140.637787 104.0
140.692078 140.0
140.732834 140.0
140.829041 216.0
141.069748 2052.0
141.097458 180.0
141.197754 200.0
141.294739 36.0
141.431992 56.0
141.450928 180.0
141.48407 204.0
141.525467 280.0
141.619034 220.0
141.659546 176.0
141.704315 132.0
141.742233 168.0
141.773041 136.0
141.844147 172.0
141.901047 112.0
142.005386 108.0
142.076462 1736.0
142.123993 40.0
142.178574 124.0
142.207062 80.0
142.304382 148.0
142.339996 180.0
142.392242 68.0
142.434998 120.0
142.560928 180.0
142.591812 188.0
142.665512 120.0
142.732071 132.0
142.771606 192.0
142.83197 120.0
142.879547 256.0
142.986618 100.0
143.082932 368.0
143.146118 204.0
143.167557 36.0
143.219955 96.0
143.250916 124.0
143.370056 88.0
143.432022 232.0
143.486847 156.0
143.618011 56.0
143.708664 140.0
143.76593 136.0
143.796951 108.0
143.941437 140.0
143.990341 124.0
144.052673 308.0
144.219711 208.0
144.257965 132.0
144.305771 112.0
144.387085 116.0
144.499512 168.0
144.822678 184.0
145.032394 372.0
145.06514 132.0
145.170197 116.0
145.20137 124.0
145.258942 124.0
145.383698 240.0
145.426895 112.0
145.513321 176.0
145.54213 120.0
145.765533 164.0
145.797821 220.0
145.904938 296.0
145.965042 192.0
145.996307 80.0
146.036362 620.0
146.094925 160.0
146.236893 148.0
146.289856 172.0
146.306702 244.0
146.336395 216.0
146.40657 176.0
146.436737 168.0
146.641525 184.0
146.69696 128.0
146.737946 244.0
146.793411 136.0
146.885056 112.0
146.926071 476.0
146.947922 136.0
147.041901 168.0
147.073273 152.0
147.203644 208.0
147.421051 148.0
147.508072 160.0
147.556412 60.0
147.643463 184.0
147.674835 128.0
147.745056 240.0
147.774094 136.0
147.829742 128.0
147.856369 148.0
147.936234 196.0
148.006454 148.0
148.050034 240.0
148.066406 180.0
148.151779 248.0
148.214767 92.0
148.252243 60.0
148.280197 132.0
148.339722 256.0
148.466873 44.0
148.576019 152.0
148.622131 212.0
148.784744 152.0
148.804169 100.0
148.882782 160.0
148.942581 192.0
149.020874 276.0
149.059799 808.0
149.105377 140.0
149.212326 68.0
149.26825 192.0
149.285278 220.0
149.460419 160.0
149.523697 120.0
149.555328 136.0
149.574799 132.0
149.711151 108.0
149.789093 168.0
149.813446 168.0
149.895294 196.0
149.957214 176.0
149.996216 148.0
150.047409 144.0
150.162018 152.0
150.263062 152.0
150.295258 168.0
150.34256 200.0
150.410172 256.0
150.459717 148.0
150.518661 204.0
150.608688 40.0
150.625778 148.0
150.75032 148.0
150.758804 268.0
151.035583 208.0
151.161209 88.0
151.371735 192.0
151.408463 132.0
151.541107 212.0
151.59465 172.0
151.619156 116.0
151.675537 148.0
151.761337 44.0
152.062408 1500.0
152.188263 52.0
152.502197 56.0
152.54451 160.0
152.615799 52.0
152.775665 176.0
152.879013 212.0
152.928238 196.0
153.02916 152.0
153.068146 876.0
153.130127 156.0
153.192429 164.0
153.207397 76.0
153.248367 56.0
153.30011 172.0
153.425827 136.0
153.48111 160.0
153.591049 104.0
153.657654 92.0
153.674927 68.0
153.6922 216.0
153.857559 40.0
154.083939 216.0
154.156433 120.0
154.203384 144.0
154.265182 224.0
154.28743 128.0
154.312149 44.0
154.364075 184.0
154.396225 176.0
154.582581 192.0
154.628784 76.0
154.700562 100.0
154.73027 196.0
154.757507 104.0
154.868942 184.0
154.901154 156.0
154.938309 124.0
155.010162 176.0
155.047195 408.0
155.089478 148.0
155.124176 156.0
155.145584 188.0
155.218384 160.0
155.270462 216.0
155.560776 236.0
155.676712 92.0
155.749496 84.0
155.876205 180.0
155.958206 168.0
156.056595 640.0
156.164581 44.0
156.21434 220.0
156.241699 196.0
156.394592 200.0
156.415894 116.0
156.54039 136.0
156.557816 164.0
156.627548 192.0
156.672974 120.0
156.697311 124.0
156.791992 172.0
156.846832 176.0
156.884216 128.0
156.926605 92.0
156.946548 172.0
156.983963 112.0
157.029449 176.0
157.06517 2572.0
157.151077 184.0
157.168549 36.0
157.285843 136.0
157.338272 52.0
157.368225 64.0
157.42067 136.0
157.64299 160.0
157.720474 88.0
157.860489 148.0
157.948013 280.0
158.040192 128.0
158.070862 2864.0
158.163208 148.0
158.252396 224.0
158.288391 136.0
158.333771 236.0
158.378555 128.0
158.466232 80.0
158.521362 52.0
158.563965 152.0
158.591537 188.0
158.651688 204.0
158.689041 80.0
158.758209 380.0
158.787094 156.0
158.922562 124.0
159.072403 204.0
159.120834 196.0
159.15097 132.0
159.374512 84.0
159.402161 224.0
159.429794 64.0
159.600739 180.0
159.692108 232.0
159.801666 172.0
159.913757 112.0
159.947922 96.0
159.975616 332.0
160.016922 164.0
160.053665 120.0
160.189667 144.0
160.328232 104.0
160.50975 192.0
160.552612 140.0
160.610626 128.0
160.682098 204.0
160.711533 160.0
160.739288 160.0
160.928604 232.0
161.020584 292.0
161.459259 136.0
161.484558 156.0
161.57309 76.0
161.684433 148.0
161.707199 128.0
161.72998 136.0
161.860657 84.0
161.96463 36.0
162.059204 160.0
162.221405 96.0
162.251831 168.0
162.343109 108.0
162.475006 152.0
162.50798 132.0
162.52829 224.0
162.547897 152.0
162.568878 68.0
162.61203 228.0
162.652634 120.0
162.721176 68.0
162.962463 96.0
163.046326 208.0
163.125122 120.0
163.191223 128.0
163.267502 156.0
163.486298 176.0
163.583008 168.0
163.601471 144.0
163.626282 144.0
163.664474 200.0
163.689941 144.0
163.715408 176.0
163.791824 136.0
163.914108 100.0
164.026245 104.0
164.056839 92.0
164.086624 312.0
164.174026 168.0
164.237885 164.0
164.367996 80.0
164.411377 164.0
164.490509 96.0
164.531357 164.0
164.551773 128.0
164.646255 224.0
164.702454 124.0
164.850632 124.0
164.911972 132.0
164.965652 64.0
164.983536 128.0
165.070053 312.0
165.117661 300.0
165.18045 128.0
165.271072 152.0
165.367233 128.0
165.482437 120.0
165.63353 188.0
165.679642 116.0
165.818008 60.0
165.838516 180.0
165.856461 220.0
165.99234 140.0
166.025681 144.0
166.053894 152.0
166.22998 212.0
166.298264 212.0
166.721405 228.0
166.836823 124.0
167.136597 96.0
167.192032 220.0
167.383713 164.0
167.441757 100.0
167.553146 264.0
167.624664 172.0
167.6427 144.0
167.709717 212.0
167.830872 176.0
167.85408 128.0
167.913391 40.0
168.056976 244.0
168.093979 184.0
168.135269 316.0
168.200333 76.0
168.284988 188.0
168.315979 128.0
168.439941 244.0
168.499359 104.0
168.667343 96.0
168.687546 196.0
168.739716 212.0
168.768158 68.0
168.858673 96.0
168.933685 148.0
168.962143 188.0
169.06456 4492.0
169.180328 100.0
169.226135 52.0
169.35907 84.0
169.599182 52.0
169.648438 124.0
169.669174 68.0
169.737091 184.0
169.765106 200.0
169.950668 164.0
170.000778 260.0
170.070038 1760.0
170.120575 100.0
170.193268 80.0
170.211441 148.0
170.242599 136.0
170.271179 132.0
170.315323 148.0
170.43042 212.0
170.487045 176.0
170.515396 76.0
170.546585 212.0
170.590775 232.0
170.614166 132.0
170.647583 248.0
170.699966 116.0
170.744186 184.0
170.85083 188.0
170.908646 188.0
170.996048 84.0
171.013885 200.0
171.04248 1004.0
171.072372 308.0
171.12149 64.0
171.2491 256.0
171.324646 192.0
171.384567 88.0
171.436676 52.0
171.465347 156.0
171.48996 144.0
171.608719 124.0
171.799103 36.0
172.046356 1388.0
172.081375 128.0
172.167145 128.0
172.376129 140.0
172.397034 172.0
172.441467 96.0
172.538177 120.0
172.577393 180.0
172.742157 56.0
172.914856 176.0
172.972443 128.0
173.026199 180.0
173.059448 328.0
173.126923 248.0
173.168823 196.0
173.29718 176.0
173.37056 136.0
173.415115 128.0
173.496368 152.0
173.525208 168.0
173.71666 144.0
173.829468 100.0
174.047348 120.0
174.068359 260.0
174.129562 104.0
174.312653 96.0
174.467728 152.0
174.522934 96.0
174.601822 124.0
174.770187 112.0
174.935989 60.0
175.00444 176.0
175.038147 312.0
175.083435 64.0
175.121246 124.0
175.138916 184.0
175.151733 56.0
175.161636 180.0
175.246765 136.0
175.336349 200.0
175.404892 168.0
175.439163 156.0
175.584183 116.0
175.684418 188.0
175.848007 96.0
175.908722 64.0
175.958878 180.0
175.99585 224.0
176.076385 80.0
176.220352 180.0
176.368561 240.0
176.434433 152.0
176.479385 192.0
176.513748 176.0
176.540771 168.0
176.611603 84.0
176.690964 100.0
176.738586 344.0
176.757111 164.0
176.823273 204.0
176.849747 148.0
176.910629 140.0
177.297333 160.0
177.384811 144.0
177.634079 236.0
177.672775 172.0
177.742844 52.0
177.772034 156.0
177.8423 312.0
177.93396 240.0
178.021576 228.0
178.048141 240.0
178.174957 140.0
178.252686 144.0
178.486603 40.0
178.699402 176.0
178.986694 132.0
178.993225 124.0
179.03746 48.0
179.058105 176.0
179.090729 140.0
179.434494 216.0
179.471817 156.0
179.490479 176.0
179.554489 48.0
179.594498 216.0
179.677185 72.0
179.888016 192.0
179.906708 28.0
180.054367 344.0
180.07901 136.0
180.227203 92.0
180.251251 176.0
180.272629 128.0
180.302017 128.0
180.483795 128.0
180.788696 188.0
180.866364 164.0
180.927933 160.0
180.994873 188.0
181.063126 3660.0
181.154327 112.0
181.204422 120.0
181.281494 48.0
181.402115 160.0
181.43428 40.0
181.453049 36.0
181.493271 192.0
181.52951 132.0
181.681015 172.0
181.705154 32.0
181.729294 216.0
181.756134 160.0
181.981598 72.0
182.067551 340.0
182.16423 160.0
182.293182 124.0
182.381882 124.0
182.452301 144.0
182.537811 92.0
182.556641 156.0
182.683044 160.0
182.826965 196.0
182.868713 136.0
182.927933 160.0
182.952164 136.0
183.043961 168.0
183.071136 152.0
183.202621 40.0
183.224167 120.0
183.340027 136.0
183.369675 132.0
183.504471 156.0
183.534119 136.0
183.56958 132.0
183.698639 144.0
183.841644 136.0
183.973892 104.0
184.05336 644.0
184.278793 164.0
184.392578 20.0
184.468262 52.0
184.55748 224.0
184.579117 148.0
184.738678 148.0
184.787384 160.0
184.814438 208.0
184.844208 116.0
184.871262 140.0
185.055252 368.0
185.09053 124.0
185.109482 60.0
185.164734 140.0
185.33432 220.0
185.361404 68.0
185.437286 76.0
185.483368 228.0
185.57283 104.0
185.869141 116.0
185.947189 136.0
186.02861 140.0
186.065521 180.0
186.350937 164.0
186.577377 112.0
187.064331 200.0
187.148727 112.0
187.170517 168.0
187.227707 48.0
187.323029 140.0
187.407486 144.0
187.440811 260.0
187.515808 160.0
187.57373 140.0
187.614624 60.0
187.698242 176.0
187.917358 184.0
188.100204 244.0
188.277679 76.0
188.397308 100.0
188.419724 176.0
188.523544 184.0
188.61647 148.0
188.791458 136.0
188.936432 96.0
188.975647 144.0
189.240219 212.0
189.371674 36.0
189.438889 208.0
189.470291 96.0
189.585373 176.0
189.763535 156.0
189.82872 192.0
190.007629 160.0
190.043304 144.0
190.139893 100.0
190.306793 124.0
190.331512 116.0
190.358978 184.0
190.400162 156.0
190.540329 176.0
190.603455 52.0
190.674896 144.0
190.787598 180.0
190.960831 168.0
191.007599 180.0
191.056274 164.0
191.233215 56.0
191.414917 152.0
191.491867 128.0
191.569153 144.0
191.613235 160.0
191.649063 160.0
191.877823 148.0
191.935715 104.0
191.993637 36.0
192.073608 72.0
192.34404 160.0
192.603592 152.0
192.772125 80.0
192.827393 156.0
192.849518 108.0
193.012619 140.0
193.031982 68.0
193.070694 132.0
193.095581 216.0
193.264328 92.0
193.302658 160.0
193.416534 140.0
193.450363 184.0
193.488098 132.0
193.625656 160.0
193.710068 216.0
193.763123 200.0
193.820892 160.0
193.876312 156.0
194.064804 160.0
194.150772 168.0
194.342163 164.0
194.375473 124.0
194.621582 164.0
194.792618 160.0
194.963821 208.0
195.005875 116.0
195.042007 128.0
195.080933 256.0
195.186584 160.0
195.282242 192.0
195.473099 96.0
195.514832 168.0
195.628952 280.0
195.709702 116.0
195.88237 172.0
196.004196 184.0
196.041428 176.0
196.066254 124.0
196.102493 124.0
196.152664 160.0
196.247452 112.0
196.425934 204.0
196.464996 208.0
196.573807 48.0
196.649155 168.0
196.748062 204.0
196.780365 72.0
196.808289 72.0
196.858551 104.0
196.886475 140.0
196.911606 100.0
196.936752 132.0
196.968506 200.0
196.989822 204.0
197.059753 30208.0
197.128647 168.0
197.151321 164.0
197.187149 164.0
197.21492 60.0
197.256851 108.0
197.291626 72.0
197.311203 148.0
197.333572 152.0
197.389069 160.0
197.42305 68.0
197.510864 60.0
197.52887 144.0
197.551712 132.0
197.574097 204.0
197.641235 208.0
197.708405 40.0
197.755981 196.0
197.814758 168.0
197.837479 196.0
197.863861 232.0
197.88475 148.0
197.921143 172.0
197.98555 128.0
198.062683 6044.0
198.110275 160.0
198.15593 204.0
198.275223 204.0
198.318954 48.0
198.48436 72.0
198.532043 80.0
198.57373 68.0
198.636047 244.0
198.784393 180.0
198.826614 68.0
198.910812 60.0
199.006271 152.0
199.066116 708.0
199.152298 36.0
199.193329 260.0
199.225327 120.0
199.270981 96.0
199.329285 68.0
199.374252 128.0
199.408707 124.0
199.456406 52.0
199.47406 228.0
199.509171 68.0
199.533386 76.0
199.559769 48.0
199.580582 176.0
199.65538 88.0
199.69194 48.0
199.734131 172.0
199.824158 220.0
199.911392 188.0
200.051254 248.0
200.081619 148.0
200.111237 156.0
200.345505 156.0
200.474823 108.0
200.516174 128.0
200.564804 72.0
200.694473 176.0
200.717041 144.0
200.762161 108.0
200.945511 84.0
201.436722 128.0
201.579437 212.0
201.8013 132.0
201.838058 132.0
201.900269 156.0
201.928253 168.0
202.261398 188.0
202.296402 180.0
202.41127 112.0
202.505936 128.0
202.531418 152.0
202.848785 76.0
202.879974 224.0
203.064285 256.0
203.09549 120.0
203.211792 120.0
203.231659 236.0
203.37355 128.0
203.55809 136.0
203.666016 136.0
203.77681 132.0
203.814484 168.0
203.961517 20.0
204.086609 116.0
204.117889 192.0
204.14917 132.0
204.299927 128.0
204.419418 92.0
204.533264 248.0
204.582138 164.0
204.72403 176.0
204.818008 120.0
204.840805 68.0
204.863586 136.0
204.886383 108.0
204.988953 140.0
205.2341 196.0
205.254059 128.0
205.276871 44.0
205.482239 148.0
205.517899 144.0
205.547867 192.0
205.711166 148.0
205.910416 84.0
206.379074 128.0
206.61647 200.0
206.732208 216.0
207.039551 168.0
207.15181 148.0
207.38678 160.0
207.422073 64.0
207.495712 304.0
207.613266 132.0
207.718307 116.0
207.86055 236.0
208.058487 172.0
208.313614 108.0
208.402664 124.0
208.56073 152.0
208.610107 180.0
208.692978 128.0
208.805115 172.0
208.992111 108.0
209.055908 604.0
209.097916 104.0
209.196442 160.0
209.238953 204.0
209.397293 96.0
209.478653 100.0
209.501709 168.0
209.602539 132.0
209.731598 180.0
209.885025 104.0
209.969604 180.0
210.064346 244.0
210.681625 136.0
210.701843 144.0
210.733627 184.0
210.805862 108.0
210.84343 92.0
210.910583 376.0
210.948914 176.0
211.046188 144.0
211.080246 144.0
211.149887 216.0
211.300308 116.0
211.387115 132.0
211.508667 144.0
211.577042 200.0
211.633148 124.0
211.679489 208.0
211.792435 132.0
211.911209 184.0
212.047455 244.0
212.241638 120.0
212.299637 128.0
212.618759 212.0
212.82196 144.0
213.001602 284.0
213.063766 204.0
213.091995 312.0
213.327621 156.0
213.404526 160.0
213.679367 104.0
213.80098 152.0
213.897629 52.0
213.918015 100.0
213.961685 152.0
214.049026 148.0
214.092712 60.0
214.113098 128.0
214.351974 164.0
214.465637 188.0
214.556 76.0
214.682068 220.0
214.719711 192.0
214.833054 180.0
214.857773 152.0
214.926834 140.0
214.951553 52.0
215.062912 156.0
215.130066 144.0
215.20079 132.0
215.276703 56.0
215.466568 132.0
215.580521 56.0
215.659439 144.0
215.726669 116.0
215.750046 156.0
215.779282 152.0
215.801926 156.0
215.907944 140.0
215.966446 172.0
216.039581 156.0
216.074677 204.0
216.341003 116.0
216.449326 100.0
216.950348 168.0
217.020706 188.0
217.190796 152.0
217.355087 116.0
217.539993 180.0
217.591904 200.0
217.642761 180.0
217.663315 136.0
217.695602 160.0
217.889465 184.0
218.151031 148.0
218.29509 212.0
218.343231 196.0
218.55101 60.0
218.624573 136.0
218.768799 144.0
218.836517 156.0
218.94252 176.0
219.148727 176.0
219.217712 120.0
219.334381 144.0
219.382385 200.0
219.623352 176.0
219.703003 112.0
219.767914 148.0
219.803314 68.0
219.875198 156.0
219.968674 140.0
220.104401 36.0
220.237305 128.0
220.320007 68.0
220.349548 140.0
220.562332 52.0
220.600754 36.0
220.624405 156.0
220.828445 208.0
220.911758 192.0
220.955643 156.0
221.301926 164.0
221.521088 152.0
221.549789 168.0
221.636627 160.0
221.764053 164.0
221.817352 176.0
222.010132 244.0
222.030899 64.0
222.051651 144.0
222.262283 188.0
222.297897 40.0
222.50531 136.0
222.70166 160.0
222.899078 136.0
223.049652 120.0
223.159302 76.0
223.200928 156.0
223.438873 148.0
223.498383 120.0
223.653137 148.0
223.706711 156.0
223.727554 196.0
223.752625 164.0
223.825806 184.0
223.91217 48.0
223.947906 112.0
224.013443 80.0
224.046219 176.0
224.083145 132.0
224.095322 116.0
224.18924 212.0
224.233505 112.0
224.293549 60.0
224.38298 216.0
224.514191 132.0
224.564774 204.0
224.633484 256.0
224.672272 140.0
224.722992 48.0
224.748932 144.0
224.813004 120.0
224.872375 136.0
224.958755 56.0
224.982254 124.0
225.002487 304.0
225.054367 11812.0
225.116135 204.0
225.154373 140.0
225.181107 192.0
225.224518 28.0
225.249359 140.0
225.341034 176.0
225.370422 196.0
225.403778 132.0
225.440338 120.0
225.505386 124.0
225.526306 176.0
225.580109 592.0
225.601944 40.0
225.665436 132.0
225.710526 272.0
225.714966 304.0
225.749496 172.0
225.777573 216.0
225.810715 132.0
225.859207 584.0
225.904175 292.0
225.951263 456.0
225.973831 756.0
225.995102 380.0
226.062683 148940.0
226.170578 168.0
226.245117 164.0
226.281876 112.0
226.334061 104.0
226.388535 228.0
226.440689 180.0
226.44751 68.0
226.472855 60.0
226.511566 168.0
226.554962 1184.0
226.61647 100.0
226.671875 108.0
226.708511 160.0
226.752823 152.0
226.818176 88.0
226.830231 52.0
226.878784 116.0
226.923203 192.0
226.945618 40.0
226.959152 52.0
226.981293 140.0
227.0168 304.0
227.065857 22912.0
227.11557 128.0
227.155151 128.0
227.175278 160.0
227.216827 76.0
227.238297 152.0
227.248749 80.0
227.259506 112.0
227.270203 172.0
227.31691 232.0
227.345688 144.0
227.375351 80.0
227.455322 72.0
227.476334 160.0
227.515091 124.0
227.565903 24.0
227.626236 56.0
227.668503 60.0
227.71106 212.0
227.737579 48.0
227.768875 76.0
227.788513 96.0
227.821686 208.0
227.881302 112.0
227.947876 52.0
227.995956 216.0
228.066956 2488.0
228.10437 116.0
228.135895 36.0
228.197357 48.0
228.259079 152.0
228.306549 128.0
228.341705 104.0
228.381317 92.0
228.419373 220.0
228.431503 112.0
228.456543 156.0
228.489349 96.0
228.499298 56.0
228.509109 188.0
228.533661 128.0
228.564316 84.0
228.61525 92.0
228.689713 264.0
228.747009 116.0
228.756561 64.0
228.791443 324.0
228.824921 48.0
228.863037 260.0
228.911484 128.0
228.952652 48.0
228.994812 60.0
229.0159 124.0
229.064987 140.0
229.074341 208.0
229.086105 108.0
229.202682 60.0
229.284042 76.0
229.37944 104.0
229.421082 60.0
229.461884 52.0
229.523529 188.0
229.613556 188.0
229.642822 156.0
229.685043 164.0
229.739349 188.0
229.764938 100.0
229.799683 156.0
229.829712 84.0
229.890213 136.0
229.953583 120.0
230.059235 76.0
230.086411 60.0
230.131699 36.0
230.346115 104.0
230.491135 44.0
230.6362 84.0
230.738983 76.0
230.799454 84.0
230.944611 204.0
230.99469 72.0
231.077728 40.0
231.183624 48.0
231.21994 40.0
231.283508 108.0
231.389465 68.0
231.789276 60.0
231.828033 76.0
231.852478 56.0
232.031754 76.0
232.052979 72.0
232.137512 200.0
232.213699 136.0
232.602081 120.0
232.866241 100.0
233.276443 188.0
233.469604 160.0
233.620087 192.0
233.644424 56.0
233.957886 136.0
233.979202 40.0
234.015732 132.0
234.241089 60.0
234.326538 84.0
234.588486 112.0
234.68605 192.0
234.92366 44.0
235.045975 132.0
235.113113 52.0
235.256577 92.0
235.280991 80.0
235.965347 140.0
236.047913 148.0
236.102951 44.0
236.176361 60.0
236.531311 84.0
236.684387 144.0
236.779312 124.0
236.975357 184.0
237.018265 188.0
237.052094 1252.0
237.272659 80.0
237.34317 84.0
237.551727 116.0
237.574554 132.0
237.665237 28.0
237.827438 160.0
237.929199 96.0
237.978317 168.0
238.058289 308.0
238.1073 148.0
238.136353 104.0
238.211731 156.0
238.263947 132.0
238.334625 84.0
238.402222 168.0
238.466766 192.0
238.506729 112.0
238.672729 136.0
238.946472 104.0
239.01416 44.0
239.06424 204.0
239.107544 116.0
239.340454 28.0
239.38356 136.0
239.793304 92.0
239.870361 176.0
239.999847 80.0
240.228073 192.0
240.360733 136.0
240.490356 108.0
240.592224 212.0
240.635437 92.0
240.666321 36.0
240.854706 44.0
240.876328 192.0
241.086426 224.0
241.138962 64.0
241.231689 48.0
241.380096 52.0
241.417206 156.0
241.506897 96.0
241.67572 80.0
241.865829 136.0
242.082245 156.0
242.144501 116.0
242.436249 160.0
242.578293 60.0
242.711609 28.0
243.024887 144.0
243.319733 152.0
243.661362 148.0
243.704865 128.0
243.826065 272.0
243.892227 152.0
244.025009 104.0
244.332901 140.0
244.392731 88.0
244.992905 92.0
245.139343 116.0
245.211029 140.0
245.285828 148.0
245.373123 156.0
245.497849 48.0
245.92215 104.0
245.95961 152.0
246.087601 140.0
246.293716 124.0
246.345352 204.0
246.374939 104.0
246.571793 116.0
246.674942 76.0
246.719635 132.0
246.743713 168.0
246.790619 72.0
247.10025 136.0
247.397568 60.0
247.920654 152.0
248.155746 104.0
248.394089 120.0
248.89624 96.0
249.024994 116.0
249.707031 188.0
249.773087 220.0
249.892624 128.0
249.942978 136.0
250.219955 188.0
250.582138 132.0
250.7444 180.0
250.818497 48.0
250.875244 256.0
251.095963 172.0
251.18428 200.0
251.307312 180.0
251.401001 64.0
251.603989 72.0
251.768188 184.0
251.856628 140.0
252.05249 160.0
252.220001 80.0
252.697525 148.0
252.841507 192.0
252.917465 80.0
252.944366 196.0
252.972855 128.0
253.004517 72.0
253.046082 340.0
253.088928 180.0
253.131165 116.0
253.226181 60.0
253.261017 80.0
253.286362 96.0
253.337036 124.0
253.387726 84.0
253.537979 268.0
253.568344 256.0
253.59053 104.0
253.634918 148.0
253.701477 324.0
253.744812 188.0
253.770477 568.0
253.820892 224.0
253.832138 284.0
253.885742 300.0
253.937424 152.0
254.01059 444.0
254.057205 111340.0
254.138138 524.0
254.17247 192.0
254.179016 228.0
254.218719 204.0
254.264862 72.0
254.292114 40.0
254.302139 112.0
254.331085 84.0
254.359756 108.0
254.417007 168.0
254.456207 112.0
254.483795 48.0
254.510818 88.0
254.5495 44.0
254.583435 160.0
254.662247 140.0
254.727188 144.0
254.753845 124.0
254.789032 64.0
254.816803 168.0
254.852509 72.0
254.891113 88.0
254.907227 72.0
254.914291 72.0
254.957001 116.0
254.985718 56.0
255.060745 13704.0
255.126236 84.0
255.151199 112.0
255.177231 48.0
255.209564 36.0
255.231812 76.0
255.288925 100.0
255.328537 96.0
255.366882 80.0
255.411102 108.0
255.444901 32.0
255.495163 60.0
255.505615 48.0
255.594437 84.0
255.658966 100.0
255.687897 76.0
255.723099 112.0
255.783096 72.0
255.820404 100.0
255.860123 76.0
255.931839 64.0
255.962952 176.0
255.984375 60.0
256.062927 1888.0
256.101898 108.0
256.170715 80.0
256.199371 48.0
256.231995 84.0
256.268066 72.0
256.306366 200.0
256.333191 124.0
256.38736 56.0
256.4151 124.0
256.459808 116.0
256.511688 108.0
256.541351 52.0
256.579773 144.0
256.6073 144.0
256.674652 124.0
256.711792 104.0
256.80661 64.0
256.839203 268.0
256.902771 148.0
256.926239 48.0
256.95105 136.0
256.975555 68.0
257.062439 308.0
257.108124 108.0
257.278351 60.0
257.328369 44.0
257.436951 120.0
257.491241 76.0
257.53595 40.0
257.593445 124.0
257.634979 40.0
257.660522 48.0
257.721252 64.0
257.807526 92.0
257.858643 104.0
258.071533 88.0
258.178345 104.0
258.264709 100.0
258.626282 32.0
259.074585 104.0
259.65155 56.0
259.847229 140.0
260.2677 68.0
260.563171 48.0
260.694916 204.0
260.936005 48.0
261.721069 76.0
262.442841 88.0
263.424377 60.0
263.692139 152.0
263.727692 108.0
264.177155 48.0
264.840759 144.0
264.899597 120.0
267.181244 68.0
267.88443 76.0
268.024536 312.0
268.083069 104.0
268.233093 84.0
268.41568 140.0
268.594147 128.0
268.640717 32.0
268.77124 88.0
268.878906 220.0
268.993164 148.0
269.080109 25852.0
269.144806 72.0
269.172363 72.0
269.208649 60.0
269.270691 44.0
269.34256 40.0
269.382904 124.0
269.434021 88.0
269.461975 72.0
269.525513 80.0
269.611755 72.0
269.682373 64.0
269.796783 40.0
269.833862 164.0
269.904694 64.0
269.930847 192.0
270.024017 196.0
270.08313 4028.0
270.135406 184.0
270.166321 192.0
270.18924 88.0
270.230713 112.0
270.242249 140.0
270.284119 100.0
270.316833 28.0
270.401917 156.0
270.431396 60.0
270.506683 36.0
270.541046 88.0
270.595062 64.0
270.847229 72.0
270.889801 108.0
270.925842 60.0
271.007751 72.0
271.030701 40.0
271.089417 960.0
271.14212 84.0
271.166595 68.0
271.233887 44.0
271.338776 40.0
271.388733 84.0
271.584717 56.0
271.65033 36.0
271.732361 52.0
271.804535 144.0
271.838409 192.0
271.894592 168.0
271.968628 76.0
272.07962 340.0
272.129486 36.0
272.237854 100.0
272.349518 64.0
272.471069 48.0
272.592621 36.0
272.98053 68.0
273.046295 108.0
273.167999 40.0
273.464142 84.0
273.622162 76.0
273.826324 80.0
274.435944 80.0
274.778961 64.0
275.033081 96.0
276.001068 108.0
276.503876 124.0
276.957489 80.0
277.537445 56.0
278.214264 64.0
278.985016 104.0
279.224426 52.0
279.316101 120.0
280.02652 88.0
280.853119 88.0
281.660889 72.0
286.282654 76.0
286.511719 36.0
286.771179 120.0
287.452423 84.0
288.114197 136.0
288.37439 76.0
288.425079 112.0
291.872986 72.0
293.186981 88.0
296.765991 132.0
306.350006 88.0
310.73056 104.0
314.428894 112.0
316.100433 76.0
320.745941 108.0
324.037292 76.0
325.784454 76.0
328.437469 100.0
330.56546 104.0
330.663177 40.0
331.003479 96.0
331.028809 72.0
331.456268 104.0
332.823761 108.0
337.33783 64.0
337.963226 52.0
339.036163 116.0
339.245087 44.0
340.338409 68.0
340.62854 64.0
344.393066 56.0
345.38736 84.0
346.453491 32.0
350.141968 136.0
355.206604 52.0
362.437744 44.0
365.517273 60.0
366.274902 92.0
367.685638 84.0
370.971313 88.0
372.59848 92.0
373.636505 104.0
375.01123 84.0
376.485046 84.0
378.530731 80.0
379.755402 108.0
381.561096 60.0
387.634521 48.0
389.946045 76.0
401.491058 76.0
402.624451 108.0
403.643494 104.0
403.807465 116.0
404.619781 104.0
406.708313 88.0
407.965637 80.0
408.65741 80.0
414.086914 80.0
414.751404 164.0
415.497559 84.0
416.451538 52.0
420.955872 92.0
422.296356 52.0
423.38092 56.0
429.513214 32.0
430.751587 136.0
432.943695 80.0
433.072113 112.0
435.199524 88.0
438.002533 96.0
439.545135 148.0
442.898071 120.0
446.662354 92.0
447.323944 92.0
449.055725 60.0
452.770721 20.0
459.960602 136.0
460.59259 56.0
463.754639 64.0
465.075714 84.0
465.968933 52.0
466.149414 72.0
468.550354 104.0
470.482422 104.0
474.423584 108.0
476.902191 60.0
480.856964 84.0
480.913727 84.0
485.077911 48.0
490.828613 92.0
491.62265 72.0
495.234711 40.0
497.358612 56.0
498.931152 112.0
501.90979 84.0
511.623474 104.0
513.917542 96.0
514.016785 48.0
525.88916 32.0
529.963806 36.0
531.389709 56.0
532.54657 48.0
533.45636 52.0
536.941956 56.0
538.040161 60.0
542.829102 76.0
544.513672 40.0
546.973328 40.0
549.153992 36.0
550.843689 76.0
554.990234 52.0
557.453491 80.0
563.00885 88.0
569.231445 36.0
570.49054 72.0
574.080566 60.0
584.735413 120.0
586.681458 68.0
595.73114 20.0
607.977051 60.0
616.328796 56.0
619.307007 68.0
625.140564 52.0
626.863586 40.0
641.55957 88.0
641.826782 92.0
644.668762 96.0
647.815857 116.0
649.113403 52.0
653.354492 60.0
656.558411 52.0
656.752197 92.0
660.583252 44.0
664.599915 144.0
668.29425 48.0
670.467285 56.0
676.376038 56.0
680.476685 52.0
691.460083 52.0
692.371033 68.0
695.858154 60.0
701.376587 104.0
701.43988 48.0
705.689697 136.0
706.514771 100.0
716.586182 132.0
721.907959 124.0
727.002563 120.0
728.430786 44.0
735.673767 48.0
736.878113 144.0
741.922119 48.0
742.898315 152.0
742.957947 76.0
743.033936 60.0
743.071899 76.0
762.638611 100.0
766.413879 108.0
767.152405 84.0
778.311829 116.0
778.917175 100.0
786.931091 176.0
789.082153 64.0
807.255554 152.0
807.934265 68.0
809.541748 44.0
809.824951 96.0
810.261108 96.0
813.959229 60.0
816.755371 100.0
849.012329 104.0
862.631287 168.0
862.689758 68.0
871.598389 32.0
874.238708 60.0
876.034546 80.0
886.261414 200.0
886.33844 60.0
897.751892 72.0
898.50946 56.0
906.018433 40.0
911.634583 152.0
913.24585 68.0
943.720093 184.0
955.274536 172.0
960.467407 76.0
961.664429 60.0
977.859863 44.0
987.737122 84.0
992.239746 156.0
1003.922668 128.0
1007.728943 120.0
1011.960327 84.0
1017.888916 156.0
1026.683594 168.0
1027.991333 144.0
1044.013306 160.0
1044.759399 80.0
1047.611328 72.0
1048.732544 152.0
1053.068359 116.0
1053.688477 124.0
1056.623657 76.0
1063.090332 56.0
1063.499146 56.0
1073.003296 136.0
1073.727051 20.0
1075.567017 52.0
1077.56543 100.0
1086.757935 188.0
1092.796143 172.0
1093.658203 40.0
1095.370239 176.0
1095.844604 164.0
1103.745483 168.0
1106.193359 164.0
1109.750977 168.0
1110.586548 60.0
1115.686523 160.0
1119.825439 196.0
1121.597778 132.0
1132.857544 160.0
1138.088745 112.0
1139.082764 112.0
1139.250732 88.0
1139.768066 92.0
1141.630127 48.0
1144.005249 132.0
1144.119629 156.0
1148.250244 100.0
1149.849243 52.0
1150.436523 108.0
1151.645142 152.0
1158.409424 136.0
1161.520874 108.0
1167.205444 64.0
1180.46167 72.0
1180.933594 56.0
1182.815186 180.0
1193.600342 68.0
1197.956909 176.0
1201.045166 232.0
1201.555664 148.0
1202.349121 108.0
1215.060547 188.0
1218.545776 80.0
1220.825684 64.0
1224.381958 160.0
1228.089844 140.0
1234.144531 44.0
1238.917725 180.0
1241.069336 160.0
1245.048218 188.0
1245.451416 28.0
1247.324585 188.0
1255.56958 132.0
1256.662964 64.0
1259.084229 196.0
1259.861206 164.0
1260.659546 180.0
1261.04126 188.0
1263.084717 132.0
1264.464355 60.0
1268.990967 144.0
1273.61792 156.0
1275.586182 132.0
1279.078857 100.0
1282.847168 188.0
1284.116455 68.0
1284.701294 224.0
1285.464844 192.0
1286.963745 176.0
1295.037598 136.0
1297.87561 116.0
1298.456421 168.0
1299.840942 88.0
1301.850952 208.0
1304.653198 84.0
1304.717896 44.0
1306.300049 192.0
1306.472656 204.0
1307.976685 44.0
1308.401367 164.0
1309.949707 176.0
1310.994385 116.0
1311.116943 64.0
1313.171753 192.0
1314.838379 128.0
1322.050781 180.0
1322.970093 192.0
1325.939819 180.0
1327.041748 212.0
1327.179443 48.0
1327.324463 68.0
1329.812866 136.0
1332.652222 144.0
1333.415283 172.0
1333.727783 120.0
1335.007446 88.0
1338.019775 172.0
1338.216309 108.0
1339.272339 132.0
1339.498169 40.0
1340.080933 232.0
1342.486328 136.0
1344.010986 80.0
1344.711548 56.0
1348.947998 148.0
1349.035767 132.0
1351.178589 148.0
1358.247803 92.0
1360.471313 112.0
1360.581421 144.0
1361.69751 140.0
1364.129639 124.0
1368.433472 132.0
1370.361572 228.0
1379.68457 184.0
1379.83252 164.0
1383.946167 128.0
1387.042969 184.0
1389.163696 152.0
1389.364014 148.0
1391.479126 48.0
1391.798462 84.0
1391.954346 92.0
1392.206909 200.0
1397.023315 132.0
1397.320923 200.0
1398.131958 188.0
1401.974731 156.0
1403.115234 124.0
1404.696167 184.0
1407.031982 160.0
1407.427734 156.0
1409.332397 180.0
1409.399658 156.0
1414.036133 160.0
1416.057617 184.0
1416.851685 196.0
1417.623413 36.0
1420.037476 200.0
1423.362061 80.0
1424.931885 128.0
1428.969238 128.0
1430.444336 132.0
1431.641479 164.0
1433.110352 176.0
1434.384033 140.0
1435.590332 272.0
1435.982544 132.0
1440.035522 148.0
1440.390503 164.0
1442.377808 152.0
1445.963013 108.0
1446.288452 76.0
1446.348999 176.0
1448.866455 144.0
1451.73584 76.0
1451.78894 140.0
1451.948242 192.0
1452.671631 184.0
1452.790161 136.0
1453.379272 160.0
1454.087769 136.0
1454.740479 252.0
1456.958008 168.0
1459.922363 208.0
1461.306763 176.0
1464.009033 164.0
1465.898315 88.0
1466.050659 176.0
1466.957642 152.0
1467.026245 144.0
1467.08728 68.0
1467.178833 188.0
1469.94751 164.0
1470.031372 188.0
1470.321411 160.0
1470.61145 32.0
1471.061768 128.0
1471.832886 120.0
1472.543091 124.0
1472.650024 204.0
1472.810425 124.0
1474.36145 48.0
1475.637939 172.0
1477.244019 156.0
1477.680054 156.0
1477.825439 192.0
1477.993774 180.0
1478.644287 120.0
1482.34314 128.0
1483.71521 160.0
1485.532715 216.0
1485.901001 172.0
1487.658447 176.0
1490.054443 92.0
1490.123657 180.0
1490.223511 116.0
1495.360474 140.0
1496.538208 92.0
1497.662598 176.0
1498.767212 188.0
1499.758423 188.0
1499.935669 188.0
1500.089844 160.0
1500.706543 156.0
1500.899414 188.0
1501.578003 64.0
1502.79126 244.0
1504.023926 156.0
