>compound Eplerenone
>formula C24H30O6
>ionization [M+H]+
>parentmass 415.212433
#inchi InChI=1S/C24H30O6/c1-21-7-4-14(25)10-13(21)11-15(20(27)28-3)19-16-5-8-23(9-6-18(26)30-23)22(16,2)12-17-24(19,21)29-17/h10,15-17,19H,4-9,11-12H2,1-3H3/t15-,16+,17+,19+,21+,22+,23+,24+/m1/s1
#inchikey JUKPWJGBANNWMW
#Ion_Source LC-ESI
#Instrument qTof
#Compound_Source Commercial
#PI Dorrestein
#Data_Collector Garg_Neha
#Scan -1
#Precursor_MZ 415.212
#ExactMass 414.204
#Charge 1
#CAS_Number 107724-20-9
#Pubmed_ID N/A
#Smiles C1C(C=C2[C@](C1)([C@@]34[C@@]([C@@H](C2)C(OC)=O)([C@]5([C@](C[C@@H]3O4)([C@]6(CC5)CCC(O6)=O)C)[H])[H])C)=O
#INCHI_AUX N/A
#Library_Class 1
#SpectrumID CCMSLIB00000078245
#IonMode Positive
#UpdateWorkflowName UPDATE-SINGLE-ANNOTATED-GOLD
#LibraryQualityString Gold
#TaskID 77f51c88eb8b467eb4a01dd2d0cb90d2
##Scan# 1220
#SpectrumFile Plate4_21_40_GH3_01_16504.mzXML
#LibraryName FDALibrary_2_04302014.mgf
#MQScore -1
#Organism FDALibrary_2_04302014
#TIC_Query 0
#RT_Query -1
#MZErrorPPM -1
#SharedPeaks 0
#MassDiff 0
#LibMZ -1
#SpecMZ 415.212
#SpecCharge 0
#internalFilename spec-00000.mgf

>collision 10
44.93922 192.0
45.230202 152.0
45.261345 172.0
45.324299 236.0
45.360485 208.0
45.53894 144.0
45.594025 172.0
45.636627 208.0
45.80257 160.0
46.029144 148.0
46.110199 156.0
46.20079 152.0
46.284706 204.0
46.325336 212.0
46.720379 192.0
46.861965 140.0
47.054272 212.0
47.074753 144.0
47.119827 192.0
47.76276 172.0
47.96793 148.0
48.278584 164.0
48.364365 264.0
48.763817 196.0
48.836723 128.0
48.875069 140.0
48.996197 180.0
49.031033 176.0
49.06588 244.0
49.107712 148.0
49.268238 172.0
49.810364 172.0
49.959949 224.0
50.20586 180.0
50.269344 176.0
50.396423 160.0
50.68082 204.0
50.816936 152.0
51.082596 192.0
51.242043 144.0
51.5774 148.0
51.700397 140.0
51.7505 236.0
52.182358 148.0
52.333431 140.0
52.375195 172.0
52.565498 212.0
52.707008 160.0
52.819775 180.0
52.994942 156.0
53.007984 192.0
53.170757 196.0
53.241539 148.0
53.373775 208.0
53.513458 180.0
53.577538 188.0
53.641659 200.0
54.377388 148.0
54.516903 160.0
54.547771 160.0
54.946857 192.0
55.063469 148.0
55.254154 204.0
55.301506 152.0
55.323708 172.0
55.443684 180.0
55.4674 264.0
55.491119 160.0
55.535606 184.0
55.545353 144.0
55.697392 200.0
55.859417 164.0
55.923397 140.0
55.961777 172.0
56.036903 180.0
56.294617 168.0
56.378273 148.0
56.952091 152.0
56.97913 204.0
57.075321 276.0
57.639256 220.0
57.782211 148.0
57.980812 192.0
58.231396 224.0
58.243546 152.0
58.499008 224.0
58.549465 144.0
59.254955 232.0
59.491131 156.0
59.695477 140.0
59.842789 168.0
59.866291 180.0
60.279709 176.0
60.372459 272.0
60.499336 184.0
60.547337 176.0
60.558178 172.0
60.955326 148.0
60.986408 220.0
61.19175 160.0
61.445091 188.0
61.494164 160.0
61.536308 160.0
61.891232 140.0
61.908455 160.0
61.949181 152.0
62.072994 196.0
62.154564 188.0
62.383865 172.0
62.467209 168.0
62.571033 160.0
62.686054 144.0
62.818489 220.0
62.927383 228.0
63.368649 164.0
63.48436 148.0
63.592239 168.0
63.619225 196.0
63.671623 164.0
63.696796 184.0
63.935528 188.0
64.181725 196.0
65.015862 144.0
65.041542 176.0
65.232697 156.0
65.248772 152.0
65.36618 256.0
65.498199 176.0
65.596497 168.0
65.640022 176.0
65.696472 180.0
65.804604 172.0
65.923195 180.0
66.077736 152.0
66.737335 212.0
67.037361 164.0
67.118866 184.0
67.291298 176.0
67.406151 188.0
67.533669 172.0
67.946831 164.0
67.966156 236.0
68.16156 220.0
68.243744 180.0
68.380272 140.0
68.518593 148.0
68.724686 220.0
68.753937 160.0
68.793999 152.0
68.836929 336.0
68.866653 168.0
68.919518 148.0
68.998848 188.0
69.187447 144.0
69.270164 160.0
69.78804 184.0
69.836266 236.0
69.994362 148.0
70.190987 140.0
70.421288 152.0
70.473076 192.0
71.316002 152.0
71.396698 156.0
71.591911 220.0
71.649178 168.0
71.708504 176.0
71.824493 156.0
72.062523 180.0
72.099701 160.0
72.514343 200.0
72.738235 152.0
72.964172 184.0
73.500679 164.0
73.579193 172.0
73.773949 220.0
73.909523 128.0
74.102539 148.0
74.179657 148.0
74.236237 156.0
74.445595 144.0
74.59507 164.0
74.755638 144.0
74.861748 180.0
75.123734 156.0
75.165489 196.0
75.342613 192.0
75.365433 200.0
75.688889 184.0
75.86734 156.0
75.938431 224.0
75.99221 184.0
76.122391 156.0
76.313522 212.0
76.414398 208.0
76.761017 188.0
76.788918 220.0
76.837761 156.0
76.980888 140.0
77.255295 188.0
77.33754 196.0
77.444344 180.0
77.721329 140.0
78.495903 148.0
78.632889 172.0
78.733521 172.0
78.888855 144.0
78.941841 136.0
78.979187 156.0
79.0765 196.0
79.294342 184.0
79.427757 212.0
79.551537 220.0
79.56929 256.0
79.899849 196.0
79.946114 160.0
80.156235 140.0
80.293503 180.0
80.756851 132.0
80.788277 172.0
80.976219 160.0
81.109512 244.0
81.128525 176.0
81.467697 148.0
81.500038 164.0
81.924629 192.0
81.942642 140.0
81.958862 176.0
82.029144 156.0
82.196877 184.0
82.334587 168.0
82.465958 228.0
82.583481 152.0
83.468475 168.0
83.588531 164.0
83.786995 160.0
83.807549 156.0
83.881752 164.0
84.018524 208.0
84.383789 200.0
84.411217 164.0
84.968399 116.0
85.300407 140.0
85.480652 140.0
85.559792 160.0
85.644775 160.0
85.712662 156.0
85.992973 312.0
86.044662 152.0
86.063118 152.0
86.251556 156.0
86.543854 128.0
86.840355 152.0
86.879311 204.0
87.295654 148.0
87.45163 168.0
87.494446 176.0
87.848518 156.0
88.251923 200.0
88.306152 144.0
88.64875 240.0
88.930061 180.0
89.061493 224.0
89.085915 176.0
89.869102 144.0
90.03521 196.0
90.106789 224.0
90.440834 136.0
90.590965 184.0
90.813072 236.0
90.957275 192.0
91.002838 160.0
91.054108 364.0
91.404594 184.0
91.462379 164.0
91.790573 196.0
92.029083 164.0
92.05835 196.0
92.118752 168.0
92.187622 184.0
92.581703 164.0
92.882614 160.0
93.069008 372.0
93.372383 248.0
93.618721 204.0
93.692566 200.0
93.813316 180.0
94.048653 148.0
94.444748 212.0
94.479568 172.0
94.510521 184.0
94.841682 156.0
94.859123 156.0
95.006165 160.0
95.027847 176.0
95.083435 340.0
95.109352 148.0
95.181183 188.0
95.295784 216.0
95.472664 180.0
95.659454 164.0
95.897087 156.0
96.053688 356.0
96.082336 220.0
96.291199 152.0
96.62545 152.0
96.731133 172.0
96.90934 176.0
97.061409 168.0
97.077919 204.0
97.450859 176.0
97.970253 140.0
98.068771 200.0
98.171295 256.0
98.303459 164.0
98.8172 164.0
98.85479 232.0
98.868645 220.0
99.069099 232.0
99.644478 180.0
99.661827 156.0
99.713493 192.0
99.755234 208.0
100.054672 208.0
100.386383 364.0
100.414299 220.0
100.838974 232.0
100.873543 160.0
100.893532 180.0
100.964729 184.0
100.999512 172.0
101.037521 196.0
101.347855 152.0
101.363884 192.0
101.616516 192.0
101.94783 156.0
101.990036 224.0
102.08252 248.0
102.158943 228.0
102.287735 220.0
102.380348 148.0
102.618118 160.0
102.858185 180.0
102.934906 176.0
103.053047 224.0
103.108635 188.0
103.177361 168.0
103.1996 164.0
103.318924 140.0
103.547653 176.0
103.673264 156.0
103.768532 156.0
103.861816 184.0
104.152069 196.0
104.179527 132.0
104.353737 152.0
104.526146 160.0
104.686958 180.0
104.974289 152.0
105.068268 1204.0
105.153816 176.0
105.174225 164.0
105.319199 148.0
105.732193 196.0
105.75061 160.0
105.809975 140.0
105.836594 360.0
105.88369 180.0
105.986115 148.0
106.077583 184.0
106.188194 196.0
106.490768 180.0
106.52774 144.0
106.692963 120.0
106.811409 160.0
106.916344 216.0
106.984268 148.0
107.015144 180.0
107.047226 692.0
107.083557 624.0
107.208771 180.0
107.245872 196.0
107.55114 152.0
107.736984 212.0
107.858063 128.0
107.916786 180.0
108.052505 148.0
108.088463 144.0
108.117432 184.0
108.554543 180.0
108.768234 260.0
108.791069 160.0
109.025772 172.0
109.064064 320.0
109.100601 144.0
109.179611 172.0
109.338242 224.0
109.583435 224.0
109.673248 164.0
109.887833 188.0
110.241371 144.0
110.760506 216.0
110.964943 224.0
111.042862 2176.0
111.082382 168.0
111.342644 184.0
111.77359 196.0
111.857773 144.0
111.988319 144.0
112.832825 136.0
112.902588 176.0
112.929665 172.0
112.965622 224.0
113.061264 156.0
113.111633 224.0
113.544136 248.0
113.626587 140.0
113.683876 212.0
113.968414 180.0
114.159721 152.0
114.32991 208.0
114.418678 176.0
115.028793 168.0
115.053246 632.0
115.184875 220.0
115.23188 176.0
115.348343 172.0
115.492676 184.0
115.985153 180.0
116.510895 224.0
116.667778 160.0
116.835518 236.0
116.876213 140.0
117.031906 176.0
117.070503 388.0
117.185974 200.0
117.542213 144.0
118.070251 312.0
118.72657 152.0
118.888206 196.0
119.018448 168.0
119.085442 952.0
119.218292 184.0
119.396561 140.0
119.537964 144.0
119.664207 204.0
120.087257 288.0
120.139305 160.0
120.156761 208.0
120.182938 144.0
120.654694 148.0
120.744347 144.0
121.017876 160.0
121.064453 9096.0
121.098549 176.0
121.236923 184.0
121.555489 104.0
121.736641 156.0
122.000755 176.0
122.066467 868.0
122.61927 148.0
122.652336 212.0
122.718468 208.0
122.996429 164.0
123.080658 564.0
123.706001 180.0
123.725922 140.0
123.949623 164.0
123.985077 192.0
124.184608 220.0
124.430923 176.0
124.597488 172.0
124.760834 256.0
124.790848 192.0
124.988808 156.0
125.0243 164.0
125.062515 164.0
125.157974 148.0
125.258186 164.0
125.391876 204.0
125.654999 172.0
125.873734 172.0
126.188782 140.0
126.222321 192.0
126.284935 164.0
126.457214 148.0
126.544518 140.0
126.66993 212.0
126.814034 192.0
126.890526 160.0
126.999428 180.0
127.050606 152.0
127.073311 248.0
127.19278 164.0
127.226067 152.0
127.432686 216.0
127.531563 148.0
127.72493 144.0
127.774422 140.0
127.841927 164.0
128.031021 160.0
128.062958 396.0
128.466034 200.0
128.78656 180.0
128.874664 140.0
129.069 568.0
129.295273 188.0
129.514404 152.0
129.571518 148.0
129.64856 164.0
130.053162 180.0
130.483856 204.0
130.784134 176.0
131.049072 676.0
131.084534 1368.0
131.356064 176.0
131.461014 168.0
131.613953 228.0
132.053009 348.0
132.071014 176.0
132.090134 216.0
132.593033 212.0
132.643448 176.0
132.670959 176.0
132.68988 128.0
132.97374 160.0
133.064209 684.0
133.101746 1372.0
133.375687 172.0
133.865723 160.0
133.985504 248.0
134.102341 220.0
134.213669 180.0
134.255173 192.0
134.478958 204.0
134.578232 184.0
135.051712 316.0
135.079727 1232.0
135.163864 324.0
135.225494 140.0
135.496414 176.0
135.517273 188.0
135.605331 228.0
135.623703 172.0
135.790802 164.0
136.084991 336.0
136.631683 140.0
136.803894 140.0
137.058365 196.0
137.095795 436.0
137.458817 180.0
137.561508 184.0
137.671249 184.0
138.128113 120.0
138.773361 140.0
138.993835 224.0
139.237976 192.0
139.266571 160.0
139.689255 176.0
139.846909 180.0
140.011719 152.0
141.066513 336.0
141.746323 168.0
142.034882 160.0
142.075729 780.0
142.234207 140.0
142.345779 208.0
142.483551 176.0
142.94957 144.0
142.978134 168.0
143.061432 216.0
143.084045 1928.0
143.630875 112.0
143.697754 148.0
143.797974 248.0
143.896713 188.0
143.979416 196.0
144.027191 216.0
144.055847 160.0
144.089676 404.0
144.16098 164.0
144.347427 164.0
144.37912 208.0
144.460953 204.0
144.545975 184.0
144.660858 180.0
144.715912 176.0
144.835098 172.0
145.063004 1484.0
145.100189 668.0
145.135223 228.0
145.67041 304.0
145.713654 164.0
146.072281 288.0
146.109116 388.0
146.575012 248.0
147.042862 356.0
147.080536 1684.0
147.116089 160.0
147.248077 180.0
147.338715 220.0
147.415283 148.0
147.472763 216.0
147.663773 148.0
147.770203 188.0
147.852478 160.0
148.055832 196.0
148.082474 296.0
148.123215 204.0
148.14061 160.0
148.220551 144.0
148.266602 180.0
148.462967 176.0
148.511475 212.0
148.567261 264.0
148.619492 196.0
149.058319 592.0
149.097015 300.0
149.152481 140.0
149.427277 188.0
149.674225 152.0
149.98494 160.0
150.009323 200.0
150.058075 332.0
150.138535 172.0
150.773285 160.0
151.07338 440.0
151.120514 180.0
151.561234 172.0
151.928986 196.0
152.116104 204.0
152.16214 196.0
152.181778 152.0
152.510956 188.0
152.537994 164.0
152.567505 184.0
152.712585 212.0
152.788834 176.0
153.090714 632.0
153.126068 200.0
153.305908 172.0
153.36998 196.0
153.399567 180.0
153.429138 184.0
153.483383 152.0
153.747559 176.0
153.772018 176.0
153.981873 224.0
154.039154 164.0
154.074066 172.0
154.142441 144.0
154.283325 188.0
154.317932 192.0
154.654373 180.0
155.084732 1024.0
155.184601 192.0
155.670837 164.0
155.899384 156.0
156.026138 216.0
156.086121 496.0
156.172852 220.0
156.237534 164.0
156.309692 184.0
156.353333 320.0
156.521271 228.0
157.064301 508.0
157.100784 2612.0
157.191803 180.0
157.281647 192.0
157.336563 140.0
157.384842 212.0
157.761246 216.0
157.799606 140.0
157.833755 168.0
157.968811 164.0
158.021347 220.0
158.073883 156.0
158.103149 724.0
158.251602 228.0
158.296677 164.0
158.391846 168.0
158.736664 240.0
158.790375 156.0
158.933365 140.0
159.012543 224.0
159.041428 128.0
159.080643 3536.0
159.115891 1528.0
159.893295 140.0
159.918457 148.0
159.95874 216.0
160.061951 160.0
160.084106 444.0
160.12114 312.0
160.170242 156.0
160.381897 164.0
160.550827 172.0
160.639099 156.0
160.765259 188.0
160.791367 128.0
160.843491 160.0
160.888931 192.0
160.939423 184.0
161.030334 148.0
161.059158 680.0
161.095642 3968.0
162.096848 248.0
162.219574 248.0
162.298172 296.0
162.542664 224.0
162.597504 156.0
162.699036 168.0
162.784027 184.0
162.891113 184.0
162.940292 160.0
162.987869 188.0
163.007156 152.0
163.04422 156.0
163.075272 83068.0
163.220551 120.0
163.394943 104.0
163.491745 96.0
163.517517 152.0
163.640427 112.0
163.672256 244.0
163.784225 176.0
163.857193 152.0
163.952042 100.0
164.043365 124.0
164.077179 7572.0
164.116119 356.0
164.291046 132.0
164.682678 148.0
164.802734 216.0
165.024612 124.0
165.08815 2080.0
165.22435 112.0
165.296234 156.0
165.321823 140.0
165.375427 148.0
165.393967 256.0
165.423401 128.0
165.464706 148.0
165.501694 104.0
165.780212 140.0
165.808411 220.0
165.867355 152.0
166.07077 476.0
166.08989 184.0
166.799469 152.0
167.082092 176.0
167.10466 900.0
167.797958 160.0
167.972229 188.0
168.093277 288.0
168.133301 200.0
168.882538 136.0
168.967331 164.0
168.998947 144.0
169.069351 212.0
169.100861 940.0
169.242249 192.0
169.290085 220.0
169.808838 224.0
169.926819 196.0
170.066879 328.0
170.104202 304.0
170.567932 188.0
170.83577 184.0
170.911224 160.0
170.938995 160.0
171.079056 3976.0
171.1147 532.0
171.661728 288.0
171.838028 112.0
171.974472 160.0
172.083832 596.0
172.118942 296.0
172.546539 152.0
172.740067 172.0
173.06012 144.0
173.096756 1424.0
173.132629 272.0
173.620102 184.0
173.913956 156.0
174.09642 348.0
174.251114 152.0
174.554977 164.0
174.657547 180.0
175.080261 524.0
175.110672 2836.0
175.348007 196.0
176.070129 180.0
176.116196 316.0
176.382019 184.0
176.932251 248.0
177.061142 264.0
177.090012 756.0
177.121231 120.0
177.427658 160.0
177.539017 172.0
177.647766 148.0
177.995438 224.0
178.101669 152.0
179.073837 436.0
179.105057 928.0
179.358627 136.0
179.949799 156.0
180.097504 312.0
180.13942 176.0
180.494873 140.0
181.06134 148.0
181.098831 1420.0
181.359573 236.0
181.442673 144.0
181.662582 140.0
181.769897 176.0
182.067444 148.0
182.113968 316.0
182.140396 140.0
182.409103 320.0
183.077713 696.0
183.115723 1292.0
183.343048 160.0
183.471573 252.0
183.52095 148.0
183.604553 192.0
184.078323 292.0
184.117645 788.0
184.449631 164.0
184.503708 224.0
184.966278 164.0
185.060287 236.0
185.095871 2348.0
185.137726 144.0
185.762955 180.0
186.100784 676.0
186.278717 176.0
186.515121 168.0
186.629288 160.0
186.70816 200.0
186.729904 140.0
187.073105 532.0
187.108856 564.0
187.150574 196.0
187.17894 184.0
187.255188 204.0
187.563065 152.0
188.089508 384.0
188.122345 156.0
188.531967 160.0
188.996826 220.0
189.089249 1964.0
189.13092 204.0
189.325317 200.0
189.915009 148.0
190.027039 148.0
190.090515 516.0
191.067337 1592.0
191.109894 464.0
191.15123 220.0
191.313217 180.0
191.676773 180.0
192.076294 328.0
192.279922 156.0
192.634125 244.0
193.101685 784.0
193.158279 224.0
193.203598 168.0
194.067352 516.0
194.110703 944.0
194.345047 176.0
194.428299 192.0
194.967056 196.0
195.036545 160.0
195.103241 3300.0
195.338959 200.0
195.495438 192.0
195.719467 100.0
195.95488 156.0
196.102463 612.0
196.122589 700.0
196.788803 196.0
196.813934 240.0
197.09668 1496.0
197.130508 1480.0
197.300064 204.0
197.350388 140.0
197.74762 192.0
197.923981 160.0
197.954788 180.0
198.072418 144.0
198.099045 144.0
198.136063 340.0
198.459152 180.0
198.7677 148.0
198.907166 224.0
198.989441 160.0
199.074112 304.0
199.111496 764.0
199.351776 176.0
200.073715 144.0
200.110184 172.0
200.46051 184.0
200.488678 196.0
201.058609 176.0
201.086746 444.0
201.126816 1580.0
201.391495 160.0
201.645782 216.0
202.09169 168.0
202.133591 432.0
202.347305 224.0
203.105057 4956.0
203.274155 148.0
203.299683 168.0
203.532455 216.0
203.78241 144.0
204.108383 652.0
204.789429 188.0
204.977448 168.0
205.087631 324.0
205.183792 176.0
206.108139 512.0
206.296036 168.0
206.459015 176.0
206.627777 148.0
206.659241 144.0
207.054276 160.0
207.115494 1444.0
207.174576 184.0
207.441086 196.0
208.03775 164.0
208.092484 124.0
208.122482 164.0
208.267471 148.0
208.609421 148.0
208.989044 204.0
209.052353 180.0
209.095108 688.0
209.131363 940.0
209.657089 160.0
210.102448 576.0
210.137222 384.0
211.073975 140.0
211.112244 964.0
211.14444 776.0
211.598175 244.0
212.115784 424.0
212.146805 296.0
213.010452 176.0
213.091003 392.0
213.126343 428.0
213.466751 172.0
214.069122 204.0
214.102692 196.0
214.13147 140.0
214.442017 168.0
214.485733 168.0
215.004898 176.0
215.064316 168.0
215.106796 604.0
215.156677 156.0
215.191711 216.0
215.41951 188.0
215.831589 140.0
216.110931 320.0
216.630569 156.0
217.083191 240.0
217.121628 608.0
217.489731 172.0
218.071289 216.0
218.110229 128.0
218.206497 208.0
218.227081 176.0
218.624191 144.0
218.706589 208.0
219.137482 2104.0
219.496124 148.0
219.746841 156.0
220.12471 320.0
220.140961 416.0
220.426086 168.0
220.904907 176.0
221.03804 204.0
221.117401 7984.0
221.297287 220.0
221.606552 144.0
221.86142 196.0
222.01857 144.0
222.069412 168.0
222.119049 744.0
222.330063 296.0
222.43692 172.0
222.87645 156.0
222.947769 168.0
223.075577 144.0
223.110245 2592.0
223.259918 152.0
223.581207 176.0
223.655609 204.0
223.971237 156.0
224.081451 172.0
224.118744 712.0
224.584106 208.0
224.958237 144.0
225.093231 136.0
225.125488 760.0
225.21431 196.0
225.256622 152.0
225.301666 160.0
225.439102 144.0
225.492905 156.0
225.583191 192.0
225.684219 160.0
226.135025 540.0
226.175949 308.0
226.525177 148.0
226.639023 180.0
226.779877 180.0
227.067688 144.0
227.1073 420.0
227.142822 396.0
227.59285 184.0
227.857147 176.0
227.944275 176.0
228.102066 248.0
228.124619 192.0
228.148666 376.0
228.536636 148.0
228.59079 252.0
228.864716 144.0
229.085251 552.0
229.120743 972.0
229.155258 456.0
230.0103 164.0
230.120193 148.0
230.584183 212.0
231.10228 2412.0
231.189026 176.0
231.979538 168.0
232.1194 248.0
232.404129 188.0
232.823029 252.0
233.095291 456.0
233.127625 704.0
234.100677 152.0
234.133804 596.0
234.214645 152.0
234.386612 144.0
234.478027 164.0
234.691406 168.0
234.843887 176.0
235.111206 368.0
235.146347 792.0
235.341949 196.0
235.432922 192.0
235.70578 124.0
235.903442 172.0
236.041031 168.0
236.082336 112.0
236.120804 316.0
236.150162 512.0
236.545837 152.0
236.73259 160.0
236.790787 232.0
236.974579 156.0
237.041992 216.0
237.087814 172.0
237.123642 1568.0
237.15715 244.0
237.632019 120.0
237.876205 228.0
237.91127 152.0
238.090958 148.0
238.13118 392.0
238.201706 168.0
238.564301 196.0
238.730331 176.0
238.987915 184.0
239.105377 468.0
239.140808 3660.0
239.718491 156.0
240.145035 776.0
241.083542 152.0
241.121765 1352.0
241.150925 260.0
242.100235 328.0
242.124741 348.0
242.636276 156.0
243.101273 728.0
243.137543 164.0
243.302292 220.0
244.113403 320.0
244.188873 192.0
244.219971 208.0
245.121826 732.0
245.158676 264.0
246.132889 208.0
246.305222 212.0
246.583298 272.0
246.652054 180.0
247.119125 400.0
247.148071 528.0
247.518661 148.0
247.935287 164.0
248.121063 420.0
248.245651 168.0
248.277008 172.0
248.534225 144.0
248.920319 152.0
249.127121 1696.0
249.162323 408.0
250.12999 228.0
250.177261 204.0
250.373154 160.0
250.5905 200.0
251.107712 400.0
251.141281 1264.0
251.184525 112.0
252.114059 156.0
252.161987 140.0
252.192886 164.0
252.288422 192.0
252.36113 180.0
252.421204 140.0
253.118805 584.0
253.160172 372.0
253.225021 176.0
253.893738 176.0
254.126251 160.0
254.366486 244.0
255.102585 296.0
255.138245 1288.0
255.173477 140.0
256.05249 112.0
256.141571 440.0
257.087738 192.0
257.14917 640.0
258.10556 168.0
258.131531 408.0
258.733856 180.0
259.107025 428.0
259.147034 1612.0
259.217468 164.0
259.30722 200.0
260.123901 392.0
260.147217 136.0
260.841461 148.0
261.126984 772.0
261.163513 232.0
262.138428 364.0
262.860779 152.0
263.110168 168.0
263.141052 1052.0
263.179199 112.0
263.887939 216.0
264.103546 180.0
264.148834 232.0
264.32135 172.0
264.418427 184.0
264.667694 148.0
264.819885 176.0
264.894409 188.0
265.12149 464.0
265.154694 244.0
265.370789 184.0
265.516724 148.0
265.850861 152.0
266.161407 260.0
267.136292 1112.0
267.1763 252.0
267.713562 220.0
268.134583 556.0
268.176361 156.0
269.120758 420.0
269.151672 640.0
269.187531 164.0
270.155884 180.0
271.127563 400.0
271.170502 636.0
271.363434 156.0
271.445404 148.0
272.113037 140.0
272.144714 164.0
272.18042 160.0
273.115173 548.0
273.158112 656.0
273.610657 228.0
274.119812 288.0
275.100281 172.0
275.140533 1584.0
276.104828 184.0
276.145386 536.0
276.270691 128.0
277.157379 3996.0
277.336823 148.0
277.522949 164.0
277.990173 208.0
278.036621 152.0
278.15863 1584.0
278.94101 136.0
279.137604 1048.0
279.465485 168.0
280.137085 352.0
280.196075 164.0
280.404541 156.0
280.711243 172.0
280.998108 140.0
281.150482 1276.0
281.682465 196.0
282.129791 136.0
282.155151 152.0
282.20047 160.0
282.969971 152.0
283.093872 308.0
283.13623 1016.0
283.271393 220.0
284.144806 148.0
284.173248 136.0
284.733765 144.0
284.807648 204.0
285.149048 496.0
285.536987 216.0
285.708557 180.0
286.081299 252.0
286.137756 340.0
286.184906 164.0
286.413422 220.0
287.136353 316.0
287.157837 752.0
288.14505 512.0
288.399445 288.0
288.500854 140.0
289.126068 164.0
289.187531 144.0
289.316162 172.0
289.478668 204.0
289.837738 144.0
289.949554 184.0
290.020721 148.0
290.12738 288.0
290.770294 176.0
291.085999 172.0
291.136963 748.0
291.174438 1176.0
291.551392 176.0
292.141998 420.0
292.171509 276.0
293.152191 1272.0
293.19342 428.0
293.351929 164.0
293.420105 152.0
293.532623 164.0
294.122833 180.0
294.153198 320.0
294.53598 172.0
294.956268 236.0
294.981293 120.0
295.042297 192.0
295.168915 2660.0
296.1698 908.0
296.261169 96.0
297.062195 224.0
297.149078 1608.0
297.309235 164.0
298.145294 616.0
298.191864 176.0
299.164307 3156.0
300.168976 744.0
300.546448 176.0
300.747467 148.0
301.158844 2280.0
301.24469 140.0
302.065186 168.0
302.159637 820.0
302.250763 148.0
302.828888 172.0
303.137604 420.0
303.159454 456.0
304.148254 160.0
305.154938 1416.0
305.91925 192.0
306.09964 108.0
306.167053 444.0
306.940063 156.0
307.132599 208.0
307.158844 192.0
307.316376 244.0
307.655304 216.0
308.14093 184.0
309.084778 156.0
309.147583 492.0
309.185028 2448.0
310.019745 200.0
310.15097 236.0
310.183807 864.0
310.899963 144.0
311.163422 1168.0
311.200134 1544.0
311.605743 192.0
311.751648 160.0
312.061249 136.0
312.13974 160.0
312.171753 264.0
312.234344 192.0
313.023224 176.0
313.1427 208.0
313.178772 804.0
313.523438 140.0
314.122437 288.0
314.17749 376.0
314.330994 144.0
315.158997 248.0
316.140259 188.0
317.007843 172.0
317.178864 356.0
317.411957 140.0
317.784393 148.0
318.245789 184.0
318.327454 156.0
318.807037 164.0
319.169342 7956.0
319.796722 224.0
319.851593 144.0
320.172272 1228.0
321.150085 568.0
321.181732 444.0
321.757172 128.0
322.152435 400.0
322.638702 140.0
322.821045 168.0
322.863953 176.0
323.16217 1272.0
324.164825 752.0
324.270935 148.0
325.144531 200.0
325.178436 360.0
327.068909 160.0
327.191223 660.0
327.547791 140.0
327.990997 180.0
328.073914 140.0
328.201324 164.0
329.155243 408.0
330.05603 220.0
330.160126 292.0
331.181519 168.0
332.139954 188.0
332.19281 160.0
333.175568 448.0
334.18634 148.0
334.40567 184.0
334.456604 152.0
334.529419 168.0
335.161591 368.0
335.221954 220.0
335.914764 96.0
335.968872 212.0
336.160187 320.0
336.546967 152.0
336.779236 144.0
336.808441 200.0
337.048645 224.0
337.079651 204.0
337.179321 20724.0
337.812561 264.0
338.025879 176.0
338.182831 5112.0
339.191711 840.0
339.799255 140.0
339.883636 172.0
340.176849 180.0
340.193939 140.0
340.47467 152.0
340.559143 152.0
341.125519 344.0
341.174713 492.0
342.180511 192.0
343.174164 144.0
343.514862 196.0
343.644012 160.0
343.839569 152.0
344.984589 152.0
345.174805 148.0
345.202728 160.0
345.450531 148.0
345.639221 148.0
346.081024 144.0
346.164856 140.0
346.954041 176.0
347.162659 3624.0
347.409302 232.0
348.164368 872.0
348.422821 176.0
349.174286 308.0
350.171967 160.0
350.361938 144.0
350.455078 144.0
350.671204 172.0
351.054749 196.0
351.148438 268.0
351.190094 1216.0
351.447388 112.0
351.611053 180.0
352.191803 424.0
352.268188 172.0
353.174286 316.0
354.625519 144.0
354.651733 172.0
354.831665 140.0
355.041199 128.0
355.082123 136.0
355.191101 9708.0
355.273682 148.0
355.822144 208.0
356.192474 2524.0
356.777496 132.0
357.167847 1572.0
357.308502 112.0
357.351776 140.0
358.12442 124.0
358.178711 260.0
358.334961 120.0
358.375885 148.0
359.150116 316.0
360.039398 216.0
360.13797 236.0
360.198029 140.0
360.904175 108.0
361.059784 204.0
361.179199 804.0
361.298065 200.0
362.183594 184.0
362.608215 164.0
363.791962 184.0
364.177429 280.0
365.089783 156.0
365.174133 6340.0
365.456238 164.0
366.095734 156.0
366.180115 2256.0
366.312836 188.0
367.179016 396.0
367.555695 144.0
368.170685 160.0
369.204803 2972.0
369.268646 164.0
369.328339 256.0
370.101379 204.0
370.162628 152.0
370.207672 828.0
370.821564 200.0
370.943848 136.0
371.181702 1008.0
371.546295 212.0
372.183136 356.0
373.082428 176.0
373.201477 1532.0
374.20816 444.0
375.201141 148.0
376.89798 164.0
377.060303 148.0
378.658112 168.0
378.720093 180.0
378.987396 140.0
379.189117 5964.0
379.269348 196.0
379.577728 120.0
380.120758 148.0
380.193085 2104.0
381.194183 328.0
381.307007 128.0
382.180359 196.0
382.363861 200.0
383.186188 8324.0
383.291626 196.0
383.59967 156.0
383.72525 156.0
383.885132 148.0
384.185333 2060.0
384.328491 104.0
384.448486 144.0
385.191345 520.0
386.184387 140.0
386.715271 116.0
386.801422 136.0
387.210602 276.0
387.253906 212.0
388.873169 160.0
390.932495 164.0
391.481689 140.0
391.562378 148.0
391.664764 192.0
391.90509 144.0
392.965668 172.0
393.498505 148.0
393.605103 144.0
394.494049 144.0
395.396301 104.0
396.156067 184.0
396.924957 140.0
397.201721 16604.0
397.285889 304.0
397.31366 152.0
398.206543 3848.0
399.208405 1244.0
399.709473 140.0
400.007965 140.0
400.213348 108.0
400.698822 124.0
401.193848 220.0
401.246887 140.0
405.945007 176.0
409.098999 144.0
410.735016 152.0
411.23938 172.0
412.160126 176.0
412.269226 160.0
412.847321 188.0
413.089996 152.0
413.274658 124.0
413.328674 256.0
413.808411 108.0
413.974091 100.0
414.115662 172.0
414.16037 128.0
414.507721 136.0
414.563751 396.0
414.655212 176.0
414.732513 144.0
414.96228 148.0
415.125519 204.0
415.212433 69864.0
415.319 172.0
415.394897 180.0
415.573669 220.0
415.825714 156.0
415.92334 240.0
416.072723 192.0
416.128021 192.0
416.214111 19896.0
416.325195 236.0
416.379761 132.0
416.60321 104.0
416.742737 164.0
416.878174 96.0
417.216003 2936.0
417.378052 156.0
418.041229 140.0
418.173615 124.0
418.223358 424.0
418.391205 148.0
418.491516 108.0
418.746765 132.0
418.813599 172.0
419.028046 132.0
419.471863 120.0
420.823822 140.0
425.774475 156.0
428.983826 140.0
433.207123 148.0
520.427002 160.0
838.655884 164.0
892.80011 144.0
992.918274 184.0
1264.337646 200.0
1328.099487 180.0
1390.422485 212.0
1399.61792 144.0
1401.859985 168.0
1409.149902 200.0
1431.411743 160.0
1459.180176 156.0
1471.682861 192.0
1479.021851 140.0
1483.855591 144.0
1497.880249 228.0
1499.236328 164.0
1501.757324 220.0
1506.496704 152.0
1511.135254 152.0
1519.138062 192.0
1523.772705 148.0
1525.10144 156.0
1536.408081 144.0
1541.50647 180.0
1559.209351 168.0
1573.971802 300.0
1585.426147 188.0
1587.296875 156.0
1588.53418 160.0
1596.72876 156.0
1597.303711 220.0
1607.533447 148.0
1608.379395 220.0
1609.973755 172.0
1611.709595 192.0
1620.206299 188.0
1620.566895 224.0
1622.546509 140.0
1626.750122 168.0
1632.004272 172.0
1634.634399 212.0
1640.094727 168.0
1660.258545 204.0
1661.321045 164.0
1666.606323 148.0
1673.527954 196.0
1677.650269 144.0
1677.829712 140.0
1682.716553 204.0
1687.782227 212.0
1691.373535 152.0
1694.157715 192.0
1694.641113 192.0
1695.173706 184.0
1695.69812 156.0
1697.608276 180.0
1699.880615 172.0
1703.435547 180.0
1720.745972 184.0
1721.819336 144.0
1726.124756 236.0
1730.608032 216.0
1733.964355 236.0
1736.783325 140.0
1737.405396 148.0
1748.647949 204.0
1752.028564 144.0
1755.295776 236.0
1764.873047 148.0
1765.199097 172.0
1766.955566 152.0
1767.139648 144.0
1767.28186 148.0
1767.806274 184.0
1769.323975 152.0
1772.69104 152.0
1772.833496 176.0
1775.490967 200.0
1777.13501 272.0
1777.202148 188.0
1777.420288 164.0
1779.266724 172.0
1790.458374 144.0
1793.845459 176.0
1799.877686 168.0
1802.648315 252.0
1805.294189 160.0
1805.852295 164.0
1808.729126 184.0
1818.09436 156.0
1820.743164 172.0
1824.065186 184.0
1824.643311 144.0
1827.917847 140.0
1830.250122 152.0
1837.298584 160.0
1845.317871 144.0
1849.817749 184.0
1850.838623 152.0
1853.380493 144.0
1855.360229 164.0
1855.746094 212.0
1856.123291 172.0
1865.447021 196.0
1865.524414 160.0
1867.786011 172.0
1870.005859 168.0
1875.216431 140.0
1882.290405 204.0
1883.098633 148.0
1887.881226 152.0
1893.679688 268.0
1894.589233 192.0
1894.935669 152.0
1896.235474 148.0
1901.595337 188.0
1906.484863 148.0
1907.049683 168.0
1907.979858 228.0
1911.35437 176.0
1920.423218 176.0
1920.516724 192.0
1920.876709 180.0
1925.493896 212.0
1926.856567 192.0
1927.494385 192.0
1939.519043 152.0
1940.281616 140.0
1941.698364 212.0
1942.623169 180.0
1944.132202 244.0
1948.540039 228.0
1950.25354 180.0
1958.499146 180.0
1959.235962 168.0
1959.810547 256.0
1961.352783 184.0
1962.119629 192.0
1965.144775 144.0
1965.427124 144.0
1974.923828 180.0
1976.887817 180.0
1978.250854 148.0
1980.668213 180.0
1982.050293 188.0
1982.759155 180.0
1985.480835 148.0
1987.813843 148.0
1988.080078 140.0
1992.413086 160.0
1997.408936 168.0
1997.66687 224.0
1998.770142 144.0
2000.915161 152.0
2001.511597 252.0
2002.5625 156.0
2003.310669 208.0
