>compound MLS001074205-01!17321-77-6
>formula C19H23ClN2
>ionization [M+H]+
>parentmass 315.162506
#inchi InChI=1S/C19H23ClN2/c1-21(2)12-5-13-22-18-7-4-3-6-15(18)8-9-16-10-11-17(20)14-19(16)22/h3-4,6-7,10-11,14H,5,8-9,12-13H2,1-2H3
#inchikey GDLIGKIOYRNHDA
#origInchi InChI=1S/C19H23ClN2.ClH/c1-21(2)12-5-13-22-18-7-4-3-6-15(18)8-9-16-10-11-17(20)14-19(16)22;/h3-4,6-7,10-11,14H,5,8-9,12-13H2,1-2H3;1H
#Ion_Source LC-ESI
#Instrument qTof
#Compound_Source NIH Pharmacologically Active Library
#PI Dorrestein
#Data_Collector VP/LMS
#Scan -1
#Precursor_MZ 315.166
#ExactMass 314.155
#Charge 1
#CAS_Number N/A
#Pubmed_ID N/A
#Smiles CN(C)CCCN1c2ccccc2CCc3ccc(Cl)cc13.Cl
#INCHI_AUX N/A
#Library_Class 1
#SpectrumID CCMSLIB00000085403
#IonMode Positive
#UpdateWorkflowName UPDATE-SINGLE-ANNOTATED-GOLD
#LibraryQualityString Gold
#TaskID d252d724072548979f1f6f1ced849daf
##Scan# 1872
#SpectrumFile p4-A06_GA6_01_18331.mzXML
#LibraryName Pharm_Active_Library.mgf
#MQScore -1
#Organism Pharm_Active_Library
#TIC_Query 0
#RT_Query -1
#MZErrorPPM -1
#SharedPeaks 0
#MassDiff 0
#LibMZ -1
#SpecMZ 315.166
#SpecCharge 0
#internalFilename spec-00000.mgf

>collision 10
44.904652 108.0
44.983376 108.0
44.995392 104.0
45.008743 112.0
45.124985 48.0
45.40485 192.0
45.44241 88.0
45.463879 124.0
45.484013 180.0
45.553837 140.0
45.957726 116.0
46.076538 344.0
46.102024 124.0
46.141411 156.0
46.157635 60.0
46.222565 192.0
46.353912 148.0
46.389153 248.0
46.437965 116.0
46.58456 156.0
46.746357 144.0
46.774937 104.0
46.796719 116.0
46.806252 140.0
46.943878 220.0
46.965702 60.0
46.976612 120.0
47.009357 108.0
47.152752 172.0
47.244366 140.0
47.316898 176.0
47.39497 80.0
47.408672 72.0
47.42786 136.0
47.455276 156.0
47.863361 152.0
47.889526 184.0
47.940502 60.0
48.001156 136.0
48.012188 212.0
48.131065 192.0
48.151577 148.0
48.285637 140.0
48.299469 200.0
48.651443 168.0
48.697266 88.0
48.804272 216.0
48.840427 244.0
48.94202 132.0
49.156681 48.0
49.226479 144.0
49.251617 156.0
49.265587 140.0
49.33149 200.0
49.348045 140.0
49.364822 128.0
49.430569 148.0
49.447361 140.0
49.647701 140.0
49.692589 40.0
49.842823 116.0
49.884987 84.0
50.080578 188.0
50.094662 148.0
50.340073 168.0
50.795807 48.0
50.903671 160.0
50.977539 44.0
51.082752 176.0
51.223679 244.0
51.383343 132.0
51.510395 180.0
51.527538 108.0
51.64333 116.0
51.719162 160.0
51.838032 144.0
51.955605 160.0
52.01157 176.0
52.140835 152.0
52.152332 48.0
52.209839 160.0
52.430103 164.0
52.523823 116.0
52.544018 96.0
52.69561 68.0
52.851765 152.0
52.961788 148.0
53.054531 220.0
53.141548 124.0
53.1996 172.0
53.42485 72.0
53.53838 68.0
53.84026 180.0
53.860706 188.0
54.04052 144.0
54.069786 88.0
54.126877 176.0
54.145916 124.0
54.172279 172.0
54.189861 208.0
54.295403 300.0
54.308601 100.0
54.553822 164.0
54.571465 128.0
54.718594 72.0
54.808437 100.0
54.930805 396.0
55.127171 168.0
55.226223 64.0
55.331287 88.0
55.451946 132.0
55.553585 80.0
55.626297 120.0
55.651535 216.0
55.719585 132.0
55.797138 92.0
55.829849 96.0
55.917625 56.0
55.980152 160.0
55.998024 204.0
56.07848 160.0
56.224636 148.0
56.267925 212.0
56.382942 120.0
56.400875 116.0
56.475639 160.0
56.751186 200.0
56.796173 160.0
56.895214 124.0
56.970303 144.0
57.089767 216.0
57.108593 84.0
57.186832 116.0
57.417343 192.0
57.563625 180.0
57.591213 180.0
57.858562 148.0
57.926712 120.0
57.957012 112.0
57.982773 144.0
58.009449 240.0
58.14505 220.0
58.173889 204.0
58.354675 64.0
58.374443 168.0
58.509857 164.0
58.576862 216.0
58.685066 244.0
58.969002 160.0
59.079098 224.0
59.121937 164.0
59.201542 128.0
59.305725 112.0
59.370117 200.0
59.448353 148.0
59.512825 144.0
59.626499 168.0
59.720284 148.0
59.837234 128.0
59.871109 172.0
59.888054 132.0
59.934269 144.0
60.012878 132.0
60.088451 128.0
60.14246 156.0
60.170246 56.0
60.30534 188.0
60.343285 156.0
60.364933 144.0
60.487156 156.0
60.504185 160.0
60.53825 156.0
60.611053 64.0
60.80024 128.0
60.822071 124.0
60.877861 148.0
60.936886 116.0
60.983505 180.0
61.050358 104.0
61.075241 228.0
61.131252 156.0
61.165489 188.0
61.344627 200.0
61.372692 244.0
61.388283 136.0
61.403652 188.0
61.531834 160.0
61.572433 52.0
61.598984 104.0
61.759987 144.0
61.788143 108.0
61.819435 128.0
61.908665 112.0
62.002663 168.0
62.275654 128.0
62.406086 176.0
62.443829 184.0
62.475285 192.0
62.486298 168.0
62.629551 200.0
62.667358 164.0
62.681541 128.0
62.700451 40.0
62.711483 192.0
62.776119 80.0
62.866039 216.0
63.074516 244.0
63.134239 212.0
63.17572 252.0
63.188377 252.0
63.35144 160.0
63.471893 152.0
63.665489 180.0
63.698288 252.0
63.711552 212.0
63.72744 256.0
63.846657 188.0
63.919834 236.0
64.079056 124.0
64.206581 132.0
64.284744 104.0
64.398094 64.0
64.47319 176.0
64.484375 180.0
64.513145 48.0
64.532333 140.0
64.671509 52.0
64.794807 224.0
65.070663 164.0
65.123657 268.0
65.221664 72.0
65.260246 116.0
65.340668 92.0
65.419525 200.0
65.55159 156.0
65.630127 172.0
65.643898 168.0
65.766083 60.0
65.833893 128.0
65.847298 160.0
65.904099 140.0
66.079582 204.0
66.15403 184.0
66.270638 164.0
66.343567 172.0
66.523636 124.0
66.557732 56.0
66.573967 148.0
66.591835 176.0
66.621071 60.0
66.673759 140.0
66.751091 112.0
66.82917 144.0
66.882874 164.0
66.988716 164.0
67.046082 172.0
67.329605 192.0
67.373711 128.0
67.429268 148.0
67.447243 200.0
67.55545 184.0
67.730316 212.0
67.75489 168.0
67.887657 192.0
67.917175 184.0
68.230827 48.0
68.248909 172.0
68.342995 220.0
68.406853 180.0
68.67543 140.0
68.744019 164.0
68.802269 208.0
68.816116 240.0
68.956116 168.0
69.103287 120.0
69.121483 220.0
69.14962 192.0
69.200935 224.0
69.265518 124.0
69.369919 104.0
69.486 120.0
69.544083 160.0
69.74556 172.0
69.811562 124.0
69.834846 128.0
69.858131 180.0
69.889748 176.0
69.904907 176.0
69.944664 112.0
69.962975 168.0
69.984619 184.0
70.087891 152.0
70.24794 188.0
70.349731 136.0
70.430733 124.0
70.51844 128.0
70.633812 156.0
70.871536 128.0
70.893318 168.0
71.026825 164.0
71.101273 140.0
71.166733 164.0
71.254074 156.0
71.312889 148.0
71.375084 60.0
71.444046 64.0
71.506104 204.0
71.524361 44.0
71.569229 272.0
71.651115 168.0
71.688187 40.0
71.747177 188.0
71.954689 172.0
71.978325 140.0
71.991837 124.0
72.105026 204.0
72.128685 128.0
72.192932 160.0
72.257896 152.0
72.294434 172.0
72.306282 104.0
72.562057 248.0
72.645157 156.0
72.711334 192.0
72.792816 120.0
72.874352 136.0
72.957626 212.0
73.054558 132.0
73.143044 128.0
73.239006 180.0
73.321884 160.0
73.373016 184.0
73.391777 80.0
73.543602 88.0
73.625557 180.0
73.685341 180.0
73.716095 244.0
73.847733 204.0
73.871681 108.0
73.946968 180.0
74.065109 228.0
74.142204 152.0
74.197632 228.0
74.214203 164.0
74.523148 220.0
74.57814 200.0
74.595329 156.0
74.674225 140.0
74.880959 100.0
75.087769 164.0
75.141243 176.0
75.236168 112.0
75.426582 140.0
75.453842 132.0
75.555878 124.0
75.573181 84.0
75.713768 148.0
75.748032 184.0
75.760162 176.0
75.820595 196.0
75.855469 148.0
75.978271 128.0
76.054947 128.0
76.100082 120.0
76.39901 112.0
76.740364 136.0
76.839775 148.0
76.857224 152.0
76.932274 136.0
77.045784 144.0
77.203094 272.0
77.357803 168.0
77.427338 204.0
77.562012 132.0
77.630386 96.0
77.927025 136.0
77.939331 132.0
77.977989 116.0
78.033653 240.0
78.129318 132.0
78.243599 136.0
78.490273 208.0
78.506142 148.0
78.522011 152.0
78.675522 64.0
78.698479 240.0
78.871605 92.0
78.940552 152.0
79.138733 188.0
79.209572 124.0
79.225517 140.0
79.434692 144.0
79.539383 156.0
79.57489 160.0
79.599747 228.0
79.811203 136.0
79.868111 124.0
79.893013 196.0
79.917923 156.0
79.941055 196.0
79.964188 212.0
80.002769 160.0
80.067451 112.0
80.083473 172.0
80.292 176.0
80.316971 192.0
80.761726 132.0
80.80957 172.0
80.904877 64.0
81.11985 224.0
81.214882 92.0
81.304588 56.0
81.354851 84.0
81.563225 108.0
81.576767 112.0
81.600975 128.0
81.824066 180.0
81.874481 104.0
81.933922 124.0
82.027634 168.0
82.104919 208.0
82.135826 188.0
82.213402 168.0
82.269356 156.0
82.294632 116.0
82.374092 40.0
82.426491 140.0
82.748444 192.0
82.866165 164.0
83.130898 216.0
83.539703 152.0
83.619759 160.0
83.91851 172.0
83.942215 128.0
83.989632 112.0
84.155701 172.0
84.268936 128.0
84.325584 160.0
84.424309 232.0
84.495644 104.0
84.614601 176.0
85.179428 124.0
85.1978 156.0
85.462547 156.0
85.620857 268.0
85.674271 136.0
85.718491 164.0
85.948921 120.0
86.011726 48.0
86.095673 320.0
86.196411 148.0
86.250008 244.0
86.312866 196.0
86.3517 104.0
86.584366 168.0
86.658989 208.0
86.862534 156.0
86.942696 164.0
87.057793 172.0
87.291939 152.0
87.409126 248.0
87.509644 188.0
87.559921 240.0
87.695923 132.0
87.744392 76.0
87.854424 92.0
88.093369 116.0
88.137711 164.0
88.156898 68.0
88.227921 216.0
88.269058 136.0
88.333786 324.0
88.812164 200.0
89.048653 88.0
89.24221 84.0
89.481155 152.0
89.648788 188.0
89.705338 160.0
89.844887 180.0
89.96566 160.0
90.324699 144.0
90.413628 144.0
90.476089 116.0
90.519638 108.0
90.541145 172.0
90.676872 136.0
90.893059 164.0
90.961388 80.0
91.052521 468.0
91.145607 152.0
91.333817 260.0
91.377388 208.0
91.51651 116.0
91.646027 132.0
91.68985 176.0
91.710815 108.0
91.779449 208.0
91.922508 144.0
92.060463 240.0
92.086685 188.0
92.178391 156.0
92.407837 156.0
92.700798 164.0
92.731461 176.0
92.806221 168.0
92.848404 72.0
92.91362 100.0
93.157722 208.0
93.21891 128.0
93.340012 164.0
93.524704 144.0
93.586304 172.0
93.883049 72.0
94.033531 252.0
94.137779 144.0
94.184135 180.0
94.224701 324.0
94.257545 148.0
94.356117 172.0
94.379318 124.0
94.408325 140.0
94.650215 112.0
94.791618 184.0
94.828438 136.0
94.855576 124.0
95.006828 132.0
95.197632 172.0
95.426323 148.0
95.48661 192.0
95.572197 152.0
95.792191 188.0
95.838951 52.0
95.874023 128.0
96.174377 160.0
96.26223 40.0
96.301285 112.0
96.488884 56.0
96.506477 156.0
96.635567 176.0
96.948677 208.0
97.009621 96.0
97.023346 132.0
97.165482 160.0
97.197906 184.0
97.223412 132.0
97.384811 248.0
97.411903 104.0
97.755966 80.0
97.838638 180.0
97.874077 108.0
97.942863 172.0
98.006042 88.0
98.311684 204.0
98.388664 176.0
98.467651 128.0
98.600014 120.0
98.718636 188.0
98.82962 144.0
98.921371 144.0
99.001617 200.0
99.063019 188.0
99.209663 220.0
99.229485 112.0
99.495331 156.0
99.541 40.0
99.56086 144.0
99.60257 120.0
99.618462 120.0
99.743645 228.0
99.799309 108.0
99.911705 152.0
99.948486 116.0
100.065918 160.0
100.145226 152.0
100.173462 236.0
100.207329 160.0
100.300751 200.0
100.326904 168.0
100.410652 92.0
100.460518 172.0
100.570267 136.0
100.797935 184.0
100.879875 120.0
100.925583 176.0
101.189964 160.0
101.225647 180.0
101.298103 196.0
101.332161 64.0
101.362221 36.0
101.377571 224.0
101.444084 212.0
101.803535 36.0
101.851738 120.0
101.988365 92.0
102.094925 200.0
102.382706 120.0
102.507607 156.0
102.624512 152.0
102.650726 176.0
102.749557 168.0
102.822197 160.0
102.894867 176.0
102.921112 144.0
102.955017 132.0
103.055496 188.0
103.104279 184.0
103.17366 220.0
103.204422 168.0
103.230278 156.0
103.250496 200.0
103.301064 112.0
103.317245 156.0
103.481178 104.0
103.560158 204.0
103.64119 60.0
103.770905 148.0
103.880417 52.0
103.95549 92.0
104.121956 184.0
104.199142 32.0
104.538704 136.0
104.734154 104.0
105.06945 632.0
105.117432 128.0
105.131714 204.0
105.188866 176.0
105.323631 152.0
105.419655 244.0
105.45031 68.0
105.476883 100.0
105.654793 108.0
105.879944 100.0
106.031548 124.0
106.069633 188.0
106.197617 128.0
106.248901 220.0
106.271469 172.0
106.357658 164.0
106.380241 224.0
106.45826 168.0
106.542473 132.0
106.612335 200.0
106.727448 104.0
106.811096 208.0
106.877602 228.0
106.951683 200.0
107.124657 176.0
107.157616 180.0
107.182343 148.0
107.2957 188.0
107.345184 136.0
107.506088 180.0
107.776596 72.0
107.83239 152.0
107.863396 164.0
107.892334 192.0
107.948158 208.0
108.010208 68.0
108.04744 172.0
108.11779 92.0
108.140556 176.0
108.198517 152.0
108.23262 220.0
108.270988 188.0
108.469894 128.0
108.496841 256.0
108.565269 180.0
108.617119 44.0
108.66803 212.0
108.76165 256.0
108.816338 160.0
108.909782 148.0
109.437996 180.0
109.581711 76.0
109.615051 92.0
109.694244 272.0
109.817268 192.0
109.915321 164.0
109.940361 148.0
110.172127 212.0
110.318405 116.0
110.43132 128.0
110.464897 156.0
110.738991 220.0
110.877266 152.0
111.137291 184.0
111.212837 128.0
111.355614 120.0
111.374512 92.0
111.450142 128.0
111.496223 144.0
111.843407 148.0
111.976051 140.0
112.058205 72.0
112.201225 144.0
112.316978 196.0
112.486305 56.0
112.625053 180.0
112.782028 112.0
112.970222 200.0
113.056969 200.0
113.245392 104.0
113.336487 160.0
113.41066 116.0
113.525139 208.0
113.565437 116.0
113.590889 212.0
113.663025 164.0
113.726692 180.0
113.791016 184.0
113.912552 212.0
113.94754 164.0
114.182938 216.0
114.238785 108.0
114.30687 44.0
114.394135 224.0
114.434578 92.0
114.532539 152.0
114.627831 176.0
114.685585 116.0
114.728584 176.0
114.884262 160.0
115.05204 188.0
115.07309 192.0
115.095551 156.0
115.236519 120.0
115.409645 40.0
115.529411 120.0
115.559364 128.0
115.634262 80.0
115.681351 120.0
115.996246 104.0
116.049187 184.0
116.114166 88.0
116.150635 108.0
116.234299 76.0
116.528458 76.0
116.560692 192.0
116.580032 136.0
116.60582 204.0
116.657402 212.0
116.844048 76.0
116.861053 196.0
116.928421 144.0
116.988091 144.0
117.060234 196.0
117.08989 160.0
117.113579 128.0
117.219147 88.0
117.346313 200.0
117.43013 180.0
117.587914 72.0
117.605179 100.0
117.71096 184.0
117.837418 168.0
117.937805 180.0
118.006981 32.0
118.07618 184.0
118.136742 176.0
118.238434 112.0
118.439796 188.0
118.595802 144.0
118.623978 176.0
118.890755 148.0
118.929825 204.0
119.084183 152.0
119.218674 196.0
119.318665 112.0
119.378082 132.0
119.531815 112.0
119.795258 144.0
119.943428 204.0
119.967789 116.0
120.102608 248.0
120.194237 188.0
120.250969 84.0
120.360123 164.0
120.473869 180.0
120.510834 116.0
120.590958 144.0
120.700996 140.0
120.777534 196.0
120.926323 144.0
121.035782 136.0
121.066437 184.0
121.112427 100.0
121.145287 132.0
121.173767 132.0
121.259224 76.0
121.336617 156.0
121.388565 116.0
121.601364 280.0
121.733086 224.0
121.75724 148.0
121.831924 176.0
122.349731 176.0
122.498474 212.0
123.034348 204.0
123.107208 156.0
123.158073 140.0
123.297195 144.0
123.40551 156.0
123.493965 36.0
123.604584 168.0
123.737381 192.0
123.79052 196.0
124.007629 148.0
124.129562 44.0
124.220276 204.0
124.282616 204.0
124.340309 152.0
124.369164 120.0
124.393578 180.0
124.511253 124.0
124.635658 172.0
125.015106 1004.0
125.096024 132.0
125.12719 120.0
125.178406 160.0
125.193993 196.0
125.276405 160.0
125.38781 172.0
125.407867 188.0
125.592934 184.0
125.688858 188.0
125.775902 180.0
125.961235 156.0
126.010376 140.0
126.097084 140.0
126.207062 40.0
126.267441 128.0
126.341255 168.0
126.419571 160.0
126.479996 148.0
126.596413 92.0
126.686005 56.0
126.731415 180.0
126.932549 132.0
126.959457 92.0
126.979637 104.0
127.017456 200.0
127.163612 80.0
127.25116 220.0
127.28933 176.0
127.608391 224.0
127.64212 168.0
127.705086 208.0
127.788315 92.0
127.891838 48.0
128.015656 184.0
128.052399 240.0
128.222916 144.0
128.269623 172.0
128.315338 176.0
128.331116 180.0
128.407791 152.0
128.516068 176.0
128.671799 148.0
128.852478 48.0
128.958679 104.0
129.05687 160.0
129.076935 300.0
129.218735 148.0
129.236832 84.0
129.254929 116.0
129.338669 84.0
129.383942 108.0
129.480225 176.0
129.542465 136.0
129.61441 216.0
129.76152 140.0
129.85527 236.0
129.880219 108.0
130.065262 692.0
130.14119 180.0
130.229752 200.0
130.309265 180.0
130.334259 60.0
130.402435 208.0
130.438797 172.0
130.582047 160.0
130.920044 108.0
130.973526 168.0
131.023636 148.0
131.076416 268.0
131.190002 48.0
131.210526 248.0
131.349625 124.0
131.381561 88.0
131.536743 168.0
131.632629 116.0
131.683121 180.0
131.739975 188.0
131.936508 44.0
131.977661 144.0
132.080078 172.0
132.405579 292.0
132.53157 160.0
132.710342 360.0
132.903015 112.0
132.948898 204.0
133.088928 384.0
133.286469 192.0
133.302551 140.0
133.561356 244.0
133.606049 212.0
133.640564 148.0
133.866135 156.0
133.886856 172.0
134.002029 152.0
134.078079 172.0
134.200241 204.0
134.255585 124.0
134.287872 124.0
134.368607 216.0
134.417068 156.0
134.772659 128.0
134.86972 76.0
134.897461 324.0
135.068573 164.0
135.097733 192.0
135.353226 132.0
135.376389 140.0
135.464401 108.0
135.559387 148.0
135.608063 192.0
135.654419 164.0
135.785446 140.0
135.846893 144.0
135.932739 192.0
136.130295 188.0
136.353027 200.0
136.383286 140.0
136.573944 96.0
136.6763 156.0
136.879623 148.0
136.964981 76.0
137.004303 132.0
137.069824 228.0
137.198013 164.0
137.257462 112.0
137.279617 148.0
137.36824 56.0
137.494232 100.0
137.568924 200.0
137.664658 196.0
138.314621 172.0
138.361435 144.0
138.614395 152.0
138.663605 48.0
138.80191 228.0
138.839432 156.0
139.0298 720.0
139.15152 140.0
139.313553 108.0
139.470993 172.0
139.487457 136.0
139.633224 124.0
139.781433 184.0
139.819092 196.0
139.840271 180.0
140.007431 160.0
140.025208 344.0
140.110031 168.0
140.165253 176.0
140.245377 160.0
140.441422 140.0
140.63324 164.0
140.669968 88.0
140.849426 180.0
140.986465 156.0
141.030624 180.0
141.049393 160.0
141.073914 184.0
141.175583 120.0
141.203964 240.0
141.755554 216.0
141.80899 212.0
141.847992 52.0
141.876434 208.0
142.002106 124.0
142.032837 180.0
142.068527 132.0
142.45784 120.0
142.49823 120.0
142.571884 156.0
142.662216 112.0
142.759689 180.0
142.897659 176.0
142.976181 128.0
143.069809 440.0
143.390564 200.0
143.702957 156.0
143.745895 160.0
143.762604 156.0
143.877167 180.0
143.910599 164.0
143.998947 140.0
144.081131 1256.0
144.190079 88.0
144.237885 136.0
144.316772 96.0
144.522476 196.0
144.632553 124.0
144.781219 132.0
144.939102 156.0
145.087067 472.0
145.229172 176.0
145.277145 168.0
145.301132 96.0
145.337128 140.0
145.452316 140.0
145.620392 140.0
145.694855 104.0
145.944809 156.0
146.226273 152.0
146.250336 72.0
146.375519 124.0
146.720062 124.0
146.736938 156.0
146.869568 156.0
146.912994 136.0
147.041 156.0
147.103638 252.0
147.185715 112.0
147.272659 216.0
147.301636 64.0
147.354797 196.0
147.393448 180.0
147.424866 160.0
147.461121 84.0
147.490112 160.0
147.55545 168.0
147.598907 80.0
147.804504 156.0
147.821457 120.0
147.879532 184.0
148.109543 256.0
148.19191 240.0
148.315506 168.0
148.528885 132.0
148.557999 96.0
148.766693 140.0
148.868668 64.0
148.96582 112.0
149.02301 148.0
149.055862 196.0
149.077576 152.0
149.274475 112.0
149.700333 140.0
149.902512 148.0
150.053635 160.0
150.107285 120.0
150.165802 100.0
150.185318 180.0
150.309738 152.0
150.334137 224.0
150.353668 52.0
150.385391 160.0
150.429337 196.0
150.50563 268.0
150.536758 204.0
150.655716 204.0
150.737061 148.0
151.005981 184.0
151.032883 168.0
151.079361 152.0
151.170151 152.0
151.226181 188.0
151.419601 112.0
151.441635 272.0
151.463684 160.0
151.549423 148.0
151.828766 184.0
151.976059 160.0
152.024902 108.0
152.068069 40.0
152.275726 152.0
152.336945 80.0
152.435226 80.0
152.479462 224.0
152.516327 184.0
152.558105 132.0
152.580231 96.0
152.661377 164.0
152.941376 168.0
152.969528 164.0
153.014847 288.0
153.07251 160.0
153.166138 136.0
153.348251 148.0
153.377823 120.0
153.429596 188.0
153.740372 180.0
153.932922 148.0
154.021835 196.0
154.041595 156.0
154.103363 160.0
154.133011 144.0
154.184906 120.0
154.246689 96.0
154.268936 172.0
154.382675 140.0
154.43956 112.0
154.642441 160.0
154.664719 116.0
154.709274 164.0
154.763748 88.0
154.91481 160.0
154.969315 152.0
155.008972 132.0
155.070923 168.0
155.212494 112.0
155.246948 144.0
155.323822 160.0
155.341187 256.0
155.358551 192.0
155.735855 132.0
156.018768 188.0
156.079788 256.0
156.124603 164.0
156.456985 120.0
156.496811 164.0
156.725967 156.0
156.870514 144.0
156.967743 208.0
157.022614 68.0
157.086716 480.0
157.546783 180.0
157.709213 132.0
157.749207 172.0
157.796844 152.0
157.836716 60.0
157.974274 148.0
158.031815 152.0
158.097168 624.0
158.181961 148.0
158.234543 60.0
158.2771 100.0
158.353638 128.0
158.407333 184.0
158.505035 128.0
158.622833 56.0
158.750702 100.0
158.873596 168.0
159.106995 192.0
159.338043 164.0
159.606979 168.0
159.737747 44.0
159.82077 100.0
159.843414 68.0
159.871094 44.0
159.908844 144.0
159.954163 92.0
160.009537 40.0
160.034714 180.0
160.347076 236.0
160.468079 160.0
160.541199 84.0
160.6875 144.0
160.705154 60.0
160.785904 116.0
160.912109 180.0
161.033325 84.0
161.056061 124.0
161.081314 232.0
161.212692 216.0
161.336548 84.0
161.457916 180.0
161.609695 40.0
161.731155 184.0
161.751404 92.0
161.888123 92.0
161.921051 132.0
161.946381 152.0
162.111053 140.0
162.258057 196.0
162.313843 128.0
162.429398 176.0
162.506607 200.0
162.557358 156.0
162.633499 160.0
162.691879 196.0
162.740112 140.0
162.765503 164.0
162.902557 104.0
163.113571 160.0
163.192368 240.0
163.523071 212.0
163.540878 124.0
163.674408 156.0
164.023132 488.0
164.170166 112.0
164.483978 232.0
164.586929 208.0
164.67038 120.0
164.734222 216.0
164.948883 184.0
165.070908 1672.0
165.122742 160.0
165.225067 40.0
165.337646 104.0
165.419556 164.0
165.450272 108.0
165.50148 64.0
165.54245 160.0
165.565491 108.0
165.637207 212.0
165.670502 156.0
165.714066 68.0
165.931915 68.0
165.962677 136.0
166.029831 168.0
166.047073 312.0
166.072189 424.0
166.208908 160.0
166.303864 172.0
166.375748 128.0
166.409119 152.0
166.61972 44.0
166.650543 156.0
166.707077 84.0
166.899872 144.0
166.917862 128.0
167.020737 144.0
167.068802 128.0
167.226578 80.0
167.288345 176.0
167.339844 56.0
167.445419 152.0
167.52269 156.0
167.551437 152.0
167.762344 120.0
167.808746 184.0
167.857742 80.0
168.072403 168.0
168.126022 204.0
168.208618 144.0
168.366119 184.0
168.399689 52.0
168.484924 164.0
168.567612 228.0
168.663239 172.0
168.743378 112.0
168.854218 148.0
168.942505 168.0
169.08223 160.0
169.113297 132.0
169.426605 148.0
169.628738 124.0
169.680588 40.0
169.773941 120.0
169.968491 156.0
170.093964 228.0
170.132004 160.0
170.152771 172.0
170.412491 156.0
170.532028 148.0
170.577271 216.0
170.740005 172.0
170.831039 164.0
170.888275 160.0
170.976761 108.0
171.119919 132.0
171.270966 96.0
171.312637 224.0
171.364746 128.0
171.487213 220.0
171.504517 144.0
171.541962 132.0
171.653061 200.0
171.676102 116.0
172.089813 128.0
172.249115 176.0
172.490433 232.0
172.562714 208.0
172.643768 156.0
172.714386 108.0
172.847809 120.0
172.921082 148.0
173.065063 136.0
173.430984 176.0
173.843582 132.0
173.915955 176.0
173.950531 192.0
173.97226 148.0
174.008942 200.0
174.032562 144.0
174.050949 104.0
174.100845 144.0
174.279465 136.0
174.771149 144.0
174.85997 196.0
175.050171 92.0
175.218735 140.0
175.390686 160.0
175.411118 108.0
175.535034 172.0
175.632614 56.0
175.690643 100.0
175.710831 172.0
175.809372 156.0
175.922867 208.0
176.076492 132.0
176.144684 188.0
176.187759 132.0
176.308502 232.0
176.652222 156.0
176.68396 128.0
176.713867 184.0
176.789795 156.0
176.866119 144.0
176.983032 76.0
177.064606 128.0
177.131348 120.0
177.359222 156.0
177.58725 248.0
178.04158 440.0
178.078201 352.0
178.115448 92.0
178.149979 164.0
178.317383 188.0
178.343948 160.0
178.367874 180.0
178.39978 108.0
178.564636 72.0
178.660385 132.0
178.793427 128.0
178.905228 132.0
178.995743 156.0
179.049973 488.0
179.086685 1084.0
179.163544 148.0
179.571365 152.0
179.656723 104.0
179.768784 152.0
180.044418 144.0
180.083603 324.0
180.086807 452.0
180.147919 188.0
180.169296 156.0
180.230743 88.0
180.273499 164.0
180.337631 56.0
180.457932 148.0
180.481995 168.0
180.516754 180.0
180.587906 216.0
180.781586 180.0
180.885971 124.0
180.904709 240.0
180.982407 168.0
181.087952 524.0
181.207336 60.0
181.363327 152.0
181.617477 144.0
181.754303 160.0
181.799072 140.0
182.092545 60.0
182.420349 224.0
182.675812 116.0
182.740372 248.0
182.861465 132.0
182.985291 88.0
183.012222 96.0
183.392059 212.0
183.421707 228.0
183.443283 144.0
183.583481 192.0
183.765335 172.0
184.00441 180.0
184.088104 180.0
184.479874 108.0
184.854416 180.0
184.915359 148.0
185.007385 220.0
185.058823 68.0
185.134644 196.0
185.158615 188.0
185.298431 120.0
185.527527 184.0
185.584457 140.0
185.622421 88.0
185.709198 132.0
185.774307 136.0
185.796005 152.0
185.901825 184.0
186.083679 180.0
186.140701 184.0
186.211319 156.0
186.292801 196.0
186.352112 168.0
186.480286 152.0
186.559113 152.0
186.659714 140.0
186.749451 128.0
186.828339 212.0
186.890915 144.0
187.119537 184.0
187.201233 180.0
187.258423 140.0
187.579941 160.0
187.664444 72.0
187.691711 128.0
187.7108 128.0
187.773529 128.0
187.860809 128.0
187.929016 116.0
188.035431 164.0
188.070923 108.0
188.207413 200.0
188.314636 168.0
188.33577 100.0
188.37674 128.0
188.401321 228.0
188.493912 216.0
188.54068 96.0
188.644547 140.0
188.898849 152.0
188.969986 112.0
189.066605 132.0
189.292969 168.0
189.342255 188.0
189.462784 152.0
189.484695 128.0
189.564163 116.0
190.06662 416.0
190.249847 76.0
190.271805 224.0
190.389877 280.0
190.510727 104.0
190.546448 92.0
190.642609 184.0
190.703079 168.0
190.766296 192.0
191.002777 96.0
191.030289 184.0
191.07254 1244.0
191.158768 220.0
191.294464 68.0
191.508469 220.0
191.711044 176.0
191.79129 196.0
191.813751 148.0
191.881241 104.0
191.919846 56.0
191.947418 96.0
191.988785 144.0
192.034012 344.0
192.081146 8548.0
192.28949 40.0
192.314331 48.0
192.454788 100.0
192.670547 32.0
192.744263 124.0
192.79213 92.0
192.819763 124.0
192.849426 144.0
192.963501 80.0
193.085159 2136.0
193.197357 100.0
193.253906 40.0
193.455948 200.0
193.588837 196.0
193.696854 164.0
193.926834 152.0
194.021072 152.0
194.055817 324.0
194.098404 880.0
194.542618 156.0
194.562057 144.0
194.703659 172.0
194.764771 208.0
194.945358 148.0
195.101044 600.0
195.156601 232.0
195.178848 232.0
195.295654 80.0
195.671326 108.0
195.752075 52.0
195.771561 40.0
195.835617 120.0
195.933105 232.0
196.069641 168.0
196.107132 160.0
196.284302 104.0
196.328918 92.0
196.370743 156.0
196.540909 100.0
196.619049 168.0
196.95256 176.0
197.085388 104.0
197.328552 172.0
197.566269 260.0
197.704819 408.0
197.756546 136.0
197.899307 180.0
197.938522 172.0
198.028137 148.0
198.246658 116.0
198.308304 104.0
198.353149 104.0
198.53212 212.0
198.569046 76.0
198.867615 188.0
198.894516 84.0
199.088989 180.0
199.518143 220.0
199.66716 196.0
199.734665 152.0
199.768417 56.0
199.928802 116.0
200.040955 184.0
200.182159 208.0
200.201874 260.0
200.261017 96.0
200.545578 176.0
200.731644 112.0
201.035645 504.0
201.126617 196.0
201.360962 108.0
201.505035 116.0
201.739594 88.0
202.039352 152.0
202.090561 164.0
202.234604 184.0
202.367661 176.0
202.554565 52.0
202.580063 68.0
202.871948 224.0
202.914474 184.0
203.027893 340.0
203.08461 128.0
203.153641 168.0
203.195236 208.0
203.23497 252.0
203.449524 196.0
203.541519 80.0
203.573456 108.0
203.708191 132.0
203.885239 68.0
203.916504 104.0
203.996094 168.0
204.033051 172.0
204.08136 824.0
204.232101 188.0
204.277618 216.0
204.457977 112.0
204.547943 148.0
204.772873 184.0
204.818451 228.0
204.926697 136.0
205.084915 388.0
205.131897 92.0
205.191757 80.0
205.30867 156.0
205.445572 40.0
205.471252 168.0
205.596802 128.0
205.651031 120.0
205.782333 92.0
205.853729 132.0
205.925125 108.0
206.025299 172.0
206.053314 132.0
206.096741 8108.0
206.132355 140.0
206.167953 68.0
206.245132 48.0
206.299438 164.0
206.403687 164.0
206.430328 92.0
206.470993 148.0
206.608292 168.0
206.694122 132.0
206.931686 120.0
206.969666 152.0
207.023315 40.0
207.046234 204.0
207.104553 16416.0
207.163666 48.0
207.204208 176.0
207.348099 76.0
207.430161 64.0
207.470291 140.0
207.606995 148.0
207.645447 140.0
207.666031 124.0
207.691101 68.0
207.723709 68.0
207.757065 48.0
207.909149 72.0
208.107468 2068.0
208.16394 148.0
208.207703 168.0
208.260269 228.0
208.299622 56.0
208.464203 156.0
208.509369 148.0
208.532364 172.0
208.561096 56.0
208.598465 124.0
208.76207 124.0
208.786591 100.0
208.813034 32.0
208.837128 88.0
208.880264 36.0
208.914795 152.0
209.003174 188.0
209.115616 584.0
209.179535 40.0
209.30423 128.0
209.340759 84.0
209.369568 100.0
209.430038 52.0
209.499176 36.0
209.623062 64.0
209.651886 108.0
209.683578 192.0
209.708771 184.0
209.738342 196.0
209.75853 168.0
209.891144 136.0
209.977661 64.0
210.012268 56.0
210.159393 48.0
210.231522 48.0
210.881332 72.0
210.953598 60.0
211.051895 80.0
211.072128 116.0
211.106827 172.0
211.234085 248.0
211.265915 152.0
211.453995 124.0
211.506088 52.0
211.588379 168.0
211.808258 192.0
211.937592 132.0
212.037857 1228.0
212.285431 192.0
212.378235 132.0
212.453659 108.0
212.505875 48.0
212.668396 56.0
212.72644 192.0
212.929688 148.0
213.047638 408.0
213.321945 152.0
213.371368 140.0
213.825027 108.0
213.96907 224.0
214.041153 1244.0
214.150085 144.0
214.229874 124.0
214.331848 208.0
214.468811 216.0
214.512543 88.0
214.786636 48.0
214.868317 156.0
214.968857 96.0
215.05368 184.0
215.425903 240.0
215.585754 116.0
216.039307 280.0
216.083694 104.0
216.145126 172.0
216.191574 224.0
216.23877 100.0
216.31781 328.0
216.342621 160.0
216.511047 204.0
216.591324 108.0
216.612961 216.0
216.719025 196.0
216.912537 128.0
217.040192 112.0
217.106537 180.0
217.375839 176.0
217.416916 60.0
217.64296 176.0
217.701675 196.0
218.091599 1016.0
218.121826 120.0
218.201187 108.0
218.242355 136.0
218.454102 56.0
218.866135 196.0
218.886749 84.0
218.960373 124.0
219.004547 156.0
219.072296 180.0
219.105331 392.0
219.169525 76.0
219.676605 156.0
220.024841 128.0
220.050034 112.0
220.112717 20224.0
220.175217 112.0
220.210861 188.0
220.237457 68.0
220.258133 128.0
220.316086 116.0
220.396973 80.0
220.485397 52.0
220.562469 56.0
220.627502 60.0
220.673904 144.0
220.719162 60.0
220.763519 112.0
220.822662 108.0
220.867035 136.0
221.029739 132.0
221.116226 2164.0
221.171799 160.0
221.239883 176.0
221.272446 136.0
221.390884 52.0
221.660461 56.0
221.725647 48.0
221.761795 228.0
221.869003 128.0
221.915359 108.0
222.007294 144.0
222.121857 348.0
222.193344 96.0
222.229752 72.0
222.281311 64.0
222.372192 100.0
222.429413 144.0
222.455307 40.0
222.501938 96.0
222.609695 104.0
222.677994 164.0
222.716614 92.0
222.820587 128.0
222.874374 128.0
222.897827 56.0
222.972122 208.0
223.02562 140.0
223.058319 132.0
223.120743 84.0
223.218857 52.0
223.418137 116.0
223.537155 172.0
223.578812 124.0
223.876511 112.0
224.074142 148.0
224.105881 80.0
224.245926 64.0
224.287659 152.0
224.359207 192.0
224.386032 32.0
224.615662 56.0
224.648468 120.0
224.686874 224.0
224.851364 96.0
224.88121 72.0
224.95285 64.0
225.045059 448.0
225.176788 200.0
225.212631 116.0
225.335114 80.0
225.430725 100.0
225.574188 268.0
225.735626 332.0
225.815567 104.0
225.95697 232.0
226.044495 1448.0
226.174484 176.0
226.220322 140.0
226.25325 140.0
226.414001 76.0
226.435913 180.0
226.480835 200.0
226.525772 84.0
226.570694 152.0
226.618637 96.0
226.796188 208.0
226.86969 192.0
226.89357 240.0
226.904343 244.0
226.954025 156.0
226.998123 204.0
227.008011 236.0
227.05043 84008.0
227.150101 228.0
227.16925 188.0
227.236938 108.0
227.277878 184.0
227.334442 160.0
227.356491 120.0
227.379898 60.0
227.397186 124.0
227.430618 220.0
227.480194 132.0
227.503357 40.0
227.544098 536.0
227.61145 88.0
227.653152 36.0
227.701538 32.0
227.738113 148.0
227.778091 132.0
227.81868 164.0
227.839188 68.0
227.858597 236.0
227.89679 68.0
227.925293 124.0
227.944046 44.0
227.973358 92.0
228.052185 15324.0
228.155258 48.0
228.177765 60.0
228.212387 120.0
228.254486 36.0
228.293579 56.0
228.319443 116.0
228.371704 180.0
228.465012 48.0
228.48909 96.0
228.510147 44.0
228.57634 56.0
228.609436 48.0
228.698013 84.0
228.732513 220.0
228.760773 100.0
228.783051 88.0
228.816513 148.0
228.862289 104.0
228.901733 164.0
228.948853 220.0
228.987991 188.0
229.047195 22588.0
229.140747 88.0
229.175674 144.0
229.216858 84.0
229.271957 92.0
229.310257 152.0
229.340378 148.0
229.385101 64.0
229.486404 224.0
229.553818 48.0
229.559937 76.0
229.627716 132.0
229.650085 124.0
229.661591 52.0
229.668777 136.0
229.694061 40.0
229.736298 88.0
229.757416 100.0
229.802811 172.0
229.843597 120.0
229.875092 80.0
229.941483 40.0
229.965622 152.0
229.998825 40.0
230.053802 1912.0
230.152786 56.0
230.181152 92.0
230.246399 40.0
230.27359 92.0
230.297745 80.0
230.482025 176.0
230.539444 80.0
230.593842 84.0
230.620026 24.0
230.662491 56.0
230.729858 172.0
230.754044 92.0
230.796371 72.0
230.829636 60.0
230.88237 156.0
230.99408 172.0
231.061081 412.0
231.109436 152.0
231.150284 100.0
231.313705 72.0
231.356094 196.0
231.452972 40.0
231.543823 112.0
231.574112 56.0
231.640747 116.0
231.698303 192.0
231.725571 108.0
231.755875 44.0
231.806396 160.0
231.840714 80.0
231.91951 52.0
231.971039 64.0
232.068054 144.0
232.110123 156.0
232.139481 144.0
232.368317 44.0
232.577698 40.0
232.631882 104.0
232.732529 160.0
232.82666 128.0
232.917786 56.0
233.128372 216.0
233.306747 136.0
233.454163 128.0
233.518906 124.0
233.896881 112.0
234.039978 136.0
234.08371 188.0
234.127228 8288.0
234.289719 32.0
234.457291 68.0
234.58226 96.0
234.685913 112.0
234.728607 60.0
234.94516 120.0
234.983032 116.0
235.006516 140.0
235.03363 168.0
235.06044 112.0
235.134354 10568.0
235.186462 188.0
235.272598 136.0
235.38649 72.0
235.439636 172.0
235.503769 64.0
235.723724 52.0
235.88266 72.0
235.928513 64.0
236.07222 84.0
236.138214 1552.0
236.185379 44.0
236.319977 84.0
236.463806 140.0
236.589294 72.0
236.659714 88.0
236.724014 68.0
236.754639 92.0
236.797516 88.0
236.981308 80.0
237.124069 96.0
237.148804 260.0
237.385925 72.0
237.69574 120.0
237.833847 128.0
237.907516 100.0
238.061035 96.0
238.371292 56.0
238.65715 44.0
238.935181 100.0
239.189377 96.0
239.238632 88.0
239.377014 148.0
239.404892 148.0
239.429535 64.0
239.534256 72.0
239.563263 72.0
239.629745 92.0
239.666718 68.0
239.891708 128.0
239.937943 112.0
240.005768 88.0
240.058563 1092.0
240.16864 156.0
240.323471 180.0
240.607407 124.0
240.644455 108.0
240.749451 160.0
240.875198 252.0
240.934769 148.0
241.015091 184.0
241.061798 584.0
241.094894 320.0
241.125214 208.0
241.243805 72.0
241.330368 240.0
241.414978 144.0
241.466263 232.0
241.492142 332.0
241.587067 116.0
241.642746 120.0
241.72319 140.0
241.747955 148.0
241.769608 140.0
241.820526 80.0
241.843887 160.0
241.889114 216.0
241.926331 192.0
241.951675 400.0
242.018967 200.0
242.07373 75092.0
242.157425 152.0
242.248779 132.0
242.275192 128.0
242.355576 56.0
242.441116 72.0
242.491837 100.0
242.514679 112.0
242.556885 64.0
242.586502 72.0
242.66037 64.0
242.683411 160.0
242.705597 264.0
242.729919 108.0
242.764023 88.0
242.83255 168.0
242.888931 44.0
242.925308 64.0
242.957611 144.0
243.005966 60.0
243.038742 224.0
243.076263 9896.0
243.120789 28.0
243.182251 124.0
243.225876 88.0
243.317642 132.0
243.36911 60.0
243.443634 60.0
243.476517 68.0
243.521271 48.0
243.589615 96.0
243.628082 104.0
243.723206 76.0
243.803589 76.0
243.831955 76.0
243.879562 76.0
243.939331 52.0
243.972916 104.0
244.022369 188.0
244.070023 16800.0
244.147919 76.0
244.216705 132.0
244.279694 48.0
244.320145 44.0
244.353027 84.0
244.401031 88.0
244.440369 212.0
244.501251 104.0
244.525513 124.0
244.564148 48.0
244.588043 88.0
244.640533 92.0
244.693222 248.0
244.755875 100.0
244.786652 140.0
244.822037 80.0
244.853241 148.0
244.918182 68.0
244.952072 104.0
244.983231 348.0
245.015198 204.0
245.073898 1760.0
245.117203 100.0
245.240631 152.0
245.297958 40.0
245.350067 56.0
245.432022 52.0
245.461594 68.0
245.567001 56.0
245.734558 52.0
245.759521 76.0
245.784485 92.0
245.881226 92.0
245.943649 116.0
245.999832 80.0
246.081924 392.0
246.230881 148.0
246.283981 228.0
246.424561 84.0
246.493301 72.0
246.587051 96.0
246.683945 84.0
246.708954 36.0
246.7621 92.0
246.822235 104.0
246.861069 100.0
246.984131 52.0
247.062332 84.0
247.103012 52.0
247.184357 172.0
247.218781 28.0
247.240692 44.0
247.340836 28.0
247.450409 56.0
247.522415 64.0
247.741653 112.0
248.033081 28.0
248.158478 160.0
248.277634 56.0
248.638412 48.0
248.660385 40.0
248.726303 96.0
248.983749 128.0
249.206787 100.0
249.882751 32.0
250.824356 96.0
251.076584 176.0
251.947754 96.0
252.056335 196.0
252.089935 116.0
252.172104 96.0
253.064178 148.0
253.605881 44.0
253.862671 60.0
253.980011 72.0
254.07222 1484.0
254.351257 92.0
254.449677 100.0
254.595734 52.0
255.075806 800.0
255.371201 56.0
255.584335 52.0
256.07312 1000.0
256.18924 68.0
256.243408 48.0
256.727905 48.0
257.078674 176.0
257.083313 296.0
257.177765 68.0
257.429962 112.0
257.685486 120.0
257.778168 48.0
258.046661 176.0
258.225739 60.0
258.76651 132.0
258.859375 108.0
259.907562 76.0
260.045532 148.0
260.745697 64.0
260.996429 132.0
261.061859 104.0
261.414612 60.0
261.49826 36.0
261.684967 80.0
262.100464 72.0
262.397003 72.0
264.140839 164.0
265.108459 140.0
265.283936 96.0
265.806091 92.0
265.916595 88.0
266.007324 68.0
266.335266 64.0
267.300842 144.0
267.971588 60.0
268.09317 296.0
268.447479 128.0
268.897675 152.0
269.073944 216.0
269.103333 168.0
269.439728 60.0
269.822083 156.0
270.011749 144.0
270.104645 6912.0
270.165466 40.0
270.194916 60.0
270.230927 60.0
270.45343 72.0
270.505798 52.0
270.528717 84.0
270.600739 56.0
270.656403 48.0
271.039642 100.0
271.107605 928.0
271.580566 44.0
271.633057 88.0
271.764282 164.0
272.102509 2096.0
272.825073 56.0
272.857971 72.0
273.015778 60.0
273.065125 76.0
273.094727 84.0
273.121033 236.0
273.196686 76.0
273.229584 100.0
273.351318 44.0
273.49942 40.0
273.756226 116.0
273.795746 120.0
274.834106 136.0
274.877014 84.0
275.048615 44.0
275.679443 64.0
275.930634 28.0
276.066223 108.0
276.896881 144.0
277.052551 72.0
278.070526 92.0
278.53537 120.0
278.997253 56.0
279.200104 92.0
283.53009 148.0
288.76535 56.0
288.880341 44.0
290.319824 48.0
299.183258 48.0
299.420837 108.0
303.449951 52.0
305.446777 108.0
308.585419 80.0
311.848999 164.0
313.221252 112.0
314.232727 196.0
314.317688 168.0
315.162506 844.0
315.575104 56.0
316.165985 272.0
317.152649 472.0
318.154297 176.0
322.900543 60.0
323.90274 52.0
324.494019 76.0
325.62796 100.0
326.497681 68.0
326.594788 56.0
329.25827 144.0
332.705353 80.0
337.902344 52.0
338.879913 44.0
347.348053 88.0
348.911438 52.0
353.450562 160.0
355.117615 132.0
358.034058 76.0
358.538879 48.0
360.425659 108.0
362.832825 88.0
365.426788 140.0
371.37851 140.0
374.176025 48.0
376.381439 112.0
376.582245 52.0
378.136475 116.0
379.054291 104.0
387.462585 76.0
387.642822 60.0
394.724457 108.0
395.131836 52.0
406.038391 88.0
409.543091 76.0
409.849274 72.0
416.756104 76.0
418.077667 48.0
418.847168 84.0
423.634644 60.0
423.753448 80.0
435.290436 132.0
439.223358 112.0
441.491241 68.0
444.448608 92.0
445.082428 156.0
447.664307 36.0
448.818878 44.0
450.900024 104.0
453.227448 72.0
454.100739 68.0
466.870575 76.0
470.015198 44.0
485.90097 48.0
486.607574 164.0
487.595917 120.0
489.368652 80.0
490.350983 52.0
500.985474 104.0
510.50119 76.0
513.072144 68.0
515.446228 128.0
526.594604 160.0
529.549194 64.0
530.88739 44.0
538.033081 116.0
538.444031 76.0
549.211914 80.0
555.390747 104.0
557.277893 72.0
559.59668 104.0
565.2229 60.0
569.009949 76.0
570.173706 120.0
577.520752 32.0
580.461304 96.0
582.919006 52.0
592.138123 108.0
595.965515 56.0
597.45813 92.0
598.426575 32.0
609.205566 80.0
616.186401 128.0
616.586609 44.0
622.764893 120.0
624.454712 64.0
634.762329 52.0
635.514771 52.0
644.168945 128.0
647.922546 60.0
652.058044 148.0
652.266479 92.0
668.942627 112.0
672.442505 40.0
681.72821 92.0
686.037842 44.0
720.378418 80.0
728.338379 128.0
742.213562 60.0
753.447327 240.0
754.660645 48.0
759.523682 64.0
759.951538 80.0
761.345825 48.0
773.763367 60.0
784.624756 64.0
788.733337 84.0
793.026428 136.0
796.713074 68.0
808.661682 128.0
814.070129 144.0
817.503723 132.0
820.955872 36.0
864.037109 80.0
868.242798 84.0
874.75293 52.0
884.806396 48.0
886.41748 136.0
888.55304 116.0
891.996338 60.0
896.370728 80.0
905.684631 56.0
911.077393 40.0
911.714294 52.0
925.988464 64.0
932.613953 136.0
939.50708 68.0
947.086975 100.0
949.299438 60.0
955.90918 188.0
983.064209 80.0
997.52594 76.0
1008.854004 116.0
1033.69751 116.0
1035.400391 44.0
1049.621582 196.0
1050.47937 36.0
1060.236206 140.0
1066.687744 56.0
1076.212402 92.0
1077.858398 168.0
1082.33252 92.0
1095.408569 40.0
1105.053711 208.0
1112.356812 128.0
1113.837524 292.0
1116.595825 52.0
1117.34082 228.0
1119.870361 152.0
1136.878662 96.0
1140.249878 80.0
1142.354492 84.0
1151.285034 180.0
1170.053833 80.0
1178.34021 88.0
1191.569824 92.0
1208.392456 72.0
1212.983887 76.0
1222.846924 128.0
1225.604614 72.0
1232.114258 140.0
1236.470459 64.0
1238.458862 100.0
1245.557251 204.0
1256.976685 192.0
1268.972778 64.0
1270.107422 72.0
1270.220947 84.0
1276.776611 52.0
1283.128174 28.0
1304.210083 100.0
1313.498779 188.0
1320.902832 196.0
1324.312012 192.0
1335.220459 172.0
1338.167603 180.0
1341.956177 176.0
1366.300903 152.0
1370.748047 112.0
1377.033447 92.0
1379.420044 100.0
1381.083862 164.0
1382.644897 160.0
1382.911377 208.0
1383.044556 48.0
1387.674561 148.0
1396.377563 72.0
1408.213135 124.0
1411.359253 168.0
1413.087036 232.0
1418.269165 208.0
1434.890015 200.0
1441.766479 144.0
1445.373535 164.0
1445.89563 152.0
1447.296143 168.0
1451.046509 200.0
1457.156128 124.0
1460.713989 56.0
1464.199951 188.0
1466.729492 76.0
1479.700928 144.0
1485.118652 152.0
1492.944824 188.0
1499.457764 148.0
1501.662842 184.0
