>compound Oxybutynin (Ditropan)
>formula C22H31NO3
>ionization [M+H]+
>parentmass 358.23767030409056
#inchi InChI=1S/C22H31NO3/c1-3-23(4-2)17-11-12-18-26-21(24)22(25,19-13-7-5-8-14-19)20-15-9-6-10-16-20/h5,7-8,13-14,20,25H,3-4,6,9-10,15-18H2,1-2H3
#inchikey XIQVNETUBQGFHX
#Ion_Source LC-ESI
#Instrument qTof
#Compound_Source Commercial
#PI Dorrestein
#Data_Collector Garg_Neha
#Scan -1
#Precursor_MZ 358.238
#ExactMass 357.23
#Charge 1
#CAS_Number 5633-20-5
#Pubmed_ID N/A
#Smiles C1(=CC=CC=C1)C(C2CCCCC2)(C(=O)OCC#CCN(CC)CC)O
#INCHI_AUX N/A
#Library_Class 1
#SpectrumID CCMSLIB00000078276
#IonMode Positive
#UpdateWorkflowName UPDATE-SINGLE-ANNOTATED-GOLD
#LibraryQualityString Gold
#TaskID 77f51c88eb8b467eb4a01dd2d0cb90d2
##Scan# 1231
#SpectrumFile Plate4_41_60_GH4_01_16505.mzXML
#LibraryName FDALibrary_2_04302014.mgf
#MQScore -1
#Organism FDALibrary_2_04302014
#TIC_Query 0
#RT_Query -1
#MZErrorPPM -1
#SharedPeaks 0
#MassDiff 0
#LibMZ -1
#SpecMZ 358.238
#SpecCharge 0
#internalFilename spec-00000.mgf

>collision 10
44.896755 148.0
44.992748 204.0
45.265106 168.0
45.335838 200.0
45.390202 176.0
45.414169 124.0
45.709618 208.0
45.737442 172.0
45.778088 116.0
45.835129 164.0
45.880955 220.0
45.93182 128.0
45.960529 172.0
46.011818 180.0
46.021267 172.0
46.141514 208.0
46.178024 152.0
46.19561 196.0
46.211411 176.0
46.268101 120.0
46.522198 168.0
46.600967 156.0
46.675724 140.0
46.845848 220.0
47.021744 156.0
47.159687 180.0
47.507492 240.0
47.527458 152.0
47.634472 176.0
47.677753 196.0
47.731365 168.0
47.756119 192.0
47.779503 228.0
47.820786 196.0
47.857952 188.0
47.903019 188.0
47.968166 224.0
48.037113 236.0
48.521137 244.0
48.730621 196.0
48.812191 172.0
48.972755 152.0
49.043816 172.0
49.170116 180.0
49.246132 152.0
49.412479 172.0
49.563694 204.0
49.584713 148.0
49.612747 192.0
49.664631 180.0
49.901955 160.0
49.927269 188.0
50.068817 220.0
50.138439 148.0
50.258301 164.0
50.480068 184.0
50.495625 152.0
50.517681 196.0
50.537331 208.0
50.581642 192.0
50.664352 160.0
51.008904 192.0
51.098495 196.0
51.20668 188.0
51.220924 148.0
51.239445 208.0
51.344925 212.0
51.426983 140.0
51.461521 164.0
51.616253 144.0
51.686344 140.0
51.799446 140.0
51.836143 160.0
51.980091 168.0
52.296261 188.0
52.313534 184.0
52.46912 188.0
52.688484 184.0
52.779537 148.0
52.804123 176.0
52.826664 144.0
52.952076 176.0
52.986511 144.0
53.037231 212.0
53.167763 160.0
53.18663 228.0
53.291191 196.0
53.449028 188.0
53.534893 148.0
53.662083 116.0
53.723587 152.0
53.759827 124.0
53.799469 156.0
53.835972 144.0
53.885635 192.0
53.916321 248.0
53.960175 176.0
53.974796 208.0
54.132832 180.0
54.194351 144.0
54.2691 156.0
54.298431 192.0
54.360043 228.0
54.383526 164.0
54.414352 148.0
54.426098 216.0
54.68483 156.0
54.882229 164.0
54.993652 108.0
55.015011 140.0
55.260342 160.0
55.352112 176.0
55.455814 168.0
55.510666 164.0
55.556644 152.0
55.567032 152.0
55.679844 144.0
55.693211 164.0
55.791286 188.0
55.815075 160.0
55.968334 144.0
55.989182 200.0
56.0145 148.0
56.057709 192.0
56.212791 148.0
56.826271 144.0
56.865288 160.0
56.898312 144.0
57.066582 140.0
57.117714 200.0
57.251663 200.0
57.292332 228.0
57.326382 156.0
57.415932 156.0
57.450623 212.0
57.594025 224.0
57.714924 160.0
57.730045 192.0
57.77845 140.0
57.854118 164.0
58.102791 180.0
58.30175 164.0
58.384007 176.0
58.461491 148.0
58.491684 148.0
58.628761 164.0
58.653145 184.0
58.698021 172.0
58.777439 128.0
58.872143 140.0
59.135242 196.0
59.217842 200.0
59.296623 148.0
59.364075 204.0
59.496029 152.0
59.517677 200.0
59.554379 192.0
59.604401 100.0
59.717697 140.0
59.938984 156.0
60.000637 140.0
60.034874 156.0
60.068489 144.0
60.113232 168.0
60.312462 152.0
60.527328 212.0
60.652992 164.0
60.723152 176.0
60.839138 140.0
60.877956 164.0
60.971169 156.0
61.1329 196.0
61.230175 356.0
61.304199 236.0
61.40955 184.0
61.510075 152.0
61.558472 204.0
61.597519 160.0
61.675644 168.0
61.735802 176.0
61.827354 140.0
61.947918 144.0
62.079575 140.0
62.153297 200.0
62.203522 140.0
62.342617 192.0
62.406181 188.0
62.417187 148.0
62.441456 148.0
62.477631 204.0
62.506847 188.0
62.608429 204.0
62.66959 180.0
62.803024 188.0
62.918221 168.0
63.063545 152.0
63.107811 176.0
63.153671 172.0
63.167168 96.0
63.222588 164.0
63.272652 212.0
63.372131 172.0
63.4165 148.0
63.516392 144.0
63.627079 208.0
63.708469 192.0
63.802231 148.0
63.843571 232.0
63.878304 172.0
64.090309 172.0
64.191696 224.0
64.318359 152.0
64.345497 164.0
64.434937 176.0
64.589996 172.0
64.696823 180.0
64.871552 140.0
64.947243 128.0
65.003387 152.0
65.160187 176.0
65.335938 144.0
65.403519 160.0
65.461479 168.0
65.519463 160.0
65.575859 152.0
65.632286 208.0
65.87114 244.0
65.919609 168.0
65.956779 144.0
66.040855 144.0
66.095924 108.0
66.110428 232.0
66.143456 192.0
66.168457 136.0
66.239952 148.0
66.343231 328.0
66.379333 172.0
66.392303 172.0
66.426369 188.0
66.452324 164.0
66.463684 156.0
66.549042 176.0
66.604919 164.0
66.68335 244.0
66.697914 108.0
66.713799 228.0
66.770706 196.0
66.827637 168.0
66.842285 164.0
66.859314 224.0
66.905762 216.0
67.083504 184.0
67.155075 140.0
67.244812 236.0
67.277832 156.0
67.411797 160.0
67.447342 152.0
67.626228 184.0
67.950081 144.0
67.976334 212.0
67.999313 356.0
68.019012 156.0
68.249008 188.0
68.260521 216.0
68.280251 176.0
68.454697 208.0
68.57959 208.0
68.662338 156.0
68.755989 172.0
68.847176 140.0
68.871597 112.0
69.149719 240.0
69.235809 152.0
69.252098 172.0
69.310387 180.0
69.373329 328.0
69.394882 188.0
69.459557 164.0
69.49353 132.0
69.638824 184.0
69.755135 288.0
69.79171 224.0
69.831619 152.0
69.944763 256.0
69.974731 148.0
69.988647 188.0
70.085991 160.0
70.31144 196.0
70.346558 208.0
70.396584 148.0
70.491798 164.0
70.660675 208.0
71.025871 188.0
71.275246 128.0
71.304581 252.0
71.31987 168.0
71.33358 192.0
71.353333 156.0
71.588898 192.0
71.66301 192.0
71.750648 188.0
71.807983 196.0
71.878838 168.0
72.145691 148.0
72.259621 280.0
72.527679 176.0
72.571869 160.0
72.677498 192.0
72.748779 188.0
72.814995 212.0
72.854935 188.0
72.932228 168.0
72.996834 184.0
73.045441 148.0
73.145813 156.0
73.263245 156.0
73.339027 208.0
73.352669 160.0
73.416603 248.0
73.481377 212.0
73.562485 216.0
73.729874 144.0
73.805084 192.0
73.825607 160.0
73.967613 144.0
74.013832 224.0
74.098602 188.0
74.113182 196.0
74.130318 220.0
74.144989 148.0
74.34124 244.0
74.360733 180.0
74.452827 452.0
74.607231 172.0
74.769157 164.0
74.999947 160.0
75.170685 160.0
75.212105 164.0
75.240005 204.0
75.256592 108.0
75.317436 168.0
75.529579 224.0
75.723892 144.0
75.98217 180.0
76.002991 140.0
76.015137 164.0
76.096718 172.0
76.151443 148.0
76.193977 168.0
76.328926 156.0
76.600998 124.0
76.728264 144.0
76.817207 156.0
76.836395 200.0
76.874779 164.0
76.89257 144.0
77.038902 156.0
77.154243 160.0
77.194458 188.0
77.248169 152.0
77.266174 224.0
77.369041 224.0
77.431831 144.0
77.448227 232.0
77.464432 128.0
77.479759 152.0
77.497375 144.0
77.584908 176.0
78.011497 200.0
78.10997 144.0
78.245476 240.0
78.372284 244.0
78.456879 184.0
78.57151 176.0
78.58979 188.0
78.790428 140.0
78.808098 140.0
78.855927 116.0
78.908836 232.0
79.079308 196.0
79.135307 144.0
79.161865 152.0
79.192451 208.0
79.206139 140.0
79.27169 196.0
79.300049 148.0
79.31955 176.0
79.408974 160.0
79.423317 128.0
79.514648 240.0
79.599861 160.0
79.832649 200.0
79.860596 168.0
79.878891 160.0
79.911194 152.0
80.040848 444.0
80.226143 180.0
80.374176 168.0
80.459846 140.0
80.606865 140.0
80.65992 196.0
80.804771 152.0
80.83519 140.0
80.896042 164.0
81.138115 160.0
81.403442 160.0
81.416008 204.0
81.503723 140.0
81.538177 192.0
81.571594 148.0
81.784576 140.0
81.816978 212.0
81.941246 156.0
82.00251 140.0
82.052986 156.0
82.080498 216.0
82.116188 156.0
82.164803 168.0
82.214302 172.0
82.317741 196.0
82.535255 148.0
82.64901 180.0
82.74675 152.0
82.780846 140.0
82.818794 168.0
82.839111 252.0
82.884407 180.0
83.019432 180.0
83.112869 140.0
83.131554 176.0
83.426102 168.0
83.579849 152.0
83.634445 148.0
83.684914 188.0
83.849358 180.0
83.942329 180.0
84.08828 188.0
84.120613 132.0
84.244347 144.0
84.349464 168.0
84.398827 148.0
84.435402 216.0
84.461006 296.0
84.518524 164.0
84.560165 144.0
84.603745 188.0
84.763084 280.0
84.778969 144.0
84.8144 176.0
84.880402 184.0
84.909744 192.0
85.063866 144.0
85.172203 228.0
85.273262 180.0
85.29715 164.0
85.394608 156.0
85.442719 232.0
85.573105 172.0
85.585991 212.0
85.622818 164.0
85.670357 128.0
85.770218 164.0
85.794182 176.0
85.938034 160.0
86.060333 216.0
86.190994 152.0
86.556778 128.0
86.588722 160.0
86.760391 204.0
86.79998 228.0
86.9347 264.0
87.087639 148.0
87.355301 148.0
87.483704 152.0
87.727737 180.0
87.755707 160.0
87.875069 156.0
88.005722 176.0
88.018791 156.0
88.206848 200.0
88.22805 164.0
88.426804 172.0
88.56675 140.0
88.754158 204.0
88.892967 224.0
88.926743 144.0
88.962051 148.0
89.170906 148.0
89.221085 236.0
89.28183 160.0
89.336372 156.0
89.59993 160.0
89.647919 248.0
89.741714 176.0
89.802734 116.0
89.84124 160.0
89.899734 152.0
89.952583 164.0
89.965797 156.0
89.982788 188.0
90.042137 148.0
90.111214 160.0
90.245407 168.0
90.351318 184.0
90.451614 220.0
90.519463 184.0
90.587952 168.0
90.635315 176.0
90.768791 268.0
90.917618 152.0
91.054771 876.0
91.086739 140.0
91.122986 164.0
91.337265 156.0
91.416557 160.0
91.598534 156.0
91.666168 112.0
91.695709 156.0
91.892113 212.0
91.977585 184.0
92.033356 228.0
92.054359 164.0
92.146042 372.0
92.386925 200.0
92.402229 176.0
92.444687 156.0
92.513229 304.0
92.542686 156.0
92.578613 184.0
92.608971 156.0
92.65686 240.0
92.670937 152.0
92.735428 204.0
92.783348 208.0
92.878532 176.0
92.910843 156.0
92.988594 144.0
93.060333 148.0
93.080742 140.0
93.16851 132.0
93.317078 148.0
93.404465 200.0
93.538857 156.0
93.569321 224.0
93.601997 172.0
93.63073 216.0
93.653847 220.0
93.764908 192.0
93.802216 160.0
93.823418 216.0
93.929482 192.0
93.981567 136.0
94.007217 288.0
94.022095 144.0
94.065147 3568.0
94.084679 372.0
94.205627 144.0
94.325333 172.0
94.39106 172.0
94.523903 148.0
94.54969 144.0
94.675529 156.0
94.697556 128.0
94.763969 140.0
94.816948 344.0
94.909203 204.0
95.012215 188.0
95.071739 852.0
95.127289 200.0
95.269051 156.0
95.359322 324.0
95.496475 268.0
95.525124 176.0
95.694962 148.0
95.817665 212.0
95.860527 140.0
95.885742 136.0
95.99881 124.0
96.015717 152.0
96.047691 148.0
96.079758 2260.0
96.139389 144.0
96.164764 152.0
96.301826 180.0
96.541824 156.0
96.7332 172.0
96.757057 176.0
96.799316 260.0
96.866722 216.0
96.899155 144.0
96.986244 176.0
97.02803 5892.0
97.088043 152.0
97.203674 308.0
97.256927 148.0
97.352409 164.0
97.474922 204.0
97.620155 172.0
97.67939 144.0
98.031738 468.0
98.079697 176.0
98.195442 188.0
98.296051 192.0
98.355255 192.0
98.499405 152.0
98.59819 164.0
98.957634 164.0
99.032768 312.0
99.234726 152.0
99.285156 180.0
99.316895 152.0
99.370453 164.0
99.410141 140.0
99.461739 164.0
99.634506 160.0
99.650398 184.0
99.671722 164.0
99.701614 176.0
99.928749 172.0
100.056122 212.0
100.109879 160.0
100.292282 208.0
100.450699 148.0
100.55162 268.0
100.674889 196.0
100.732155 148.0
100.792091 192.0
100.914017 196.0
100.96801 100.0
101.13607 188.0
101.179138 148.0
101.285881 220.0
101.30027 192.0
101.429512 144.0
101.651131 260.0
101.894081 200.0
102.170441 148.0
102.210594 116.0
102.233894 156.0
102.249146 176.0
102.411064 168.0
102.568222 204.0
102.636772 192.0
102.660965 148.0
102.815842 208.0
102.879623 108.0
103.050461 440.0
103.119682 204.0
103.206177 188.0
103.266838 172.0
103.368568 168.0
103.390251 144.0
103.487419 196.0
103.623116 272.0
103.734573 220.0
103.842041 156.0
103.879295 196.0
103.902451 164.0
104.014511 172.0
104.081505 176.0
104.101807 196.0
104.142334 168.0
104.362564 160.0
104.413017 176.0
104.479866 140.0
104.515602 156.0
104.650826 252.0
104.871086 160.0
104.90239 240.0
104.92791 152.0
104.978836 180.0
105.033371 15552.0
105.067551 1040.0
105.084953 212.0
105.254364 156.0
105.334015 188.0
105.418823 172.0
105.524551 128.0
105.81459 140.0
105.865227 148.0
105.921967 120.0
106.035889 1340.0
106.06926 172.0
106.251122 164.0
106.46254 156.0
106.491295 140.0
106.559082 196.0
106.616615 200.0
106.685753 212.0
106.740952 124.0
106.816048 184.0
106.841866 204.0
106.886688 204.0
107.019264 124.0
107.048485 6140.0
107.081718 348.0
107.192818 160.0
107.297935 160.0
107.361855 188.0
107.450829 176.0
107.483963 144.0
107.594124 260.0
107.659027 176.0
107.680023 192.0
107.91452 204.0
107.940536 104.0
108.005791 184.0
108.052078 936.0
108.080139 3172.0
108.186218 148.0
108.296021 160.0
108.314659 228.0
108.403748 156.0
108.426544 184.0
108.454918 156.0
108.521896 204.0
108.555077 152.0
108.89473 144.0
109.001373 168.0
109.040619 204.0
109.087723 2092.0
109.173088 152.0
109.192627 168.0
109.341713 152.0
109.475815 108.0
109.581894 188.0
109.640236 140.0
109.852905 152.0
109.961411 168.0
110.065788 172.0
110.095116 400.0
110.168129 156.0
110.25946 152.0
110.540863 208.0
110.580887 120.0
110.651222 144.0
110.86821 228.0
110.92775 148.0
111.063263 204.0
111.078018 200.0
111.118591 216.0
111.196228 168.0
111.289665 256.0
111.315895 192.0
111.450325 148.0
111.473442 196.0
111.542793 248.0
111.605865 148.0
111.624786 212.0
111.831688 136.0
111.965401 196.0
111.99057 144.0
112.081566 148.0
112.100388 184.0
112.428574 172.0
112.661766 148.0
112.695564 216.0
112.773758 144.0
112.875229 176.0
112.923874 220.0
112.976753 180.0
113.021957 416.0
113.05262 168.0
113.130234 192.0
113.205345 172.0
113.237106 216.0
113.296417 160.0
113.380386 312.0
113.432983 144.0
113.654724 196.0
113.682312 200.0
113.764168 120.0
113.82975 344.0
114.092323 364.0
114.168518 156.0
114.296425 224.0
114.453293 172.0
114.509308 152.0
114.587265 160.0
114.749878 192.0
114.779945 144.0
114.934906 496.0
114.949516 176.0
115.055649 280.0
115.121735 164.0
115.158966 192.0
115.226036 164.0
115.315781 156.0
115.414688 180.0
115.506081 184.0
115.53389 236.0
115.709381 252.0
115.745773 152.0
115.998993 220.0
116.060753 144.0
116.090775 248.0
116.107933 164.0
116.125092 348.0
116.447029 176.0
116.474953 152.0
116.638252 196.0
116.670502 148.0
116.735001 144.0
116.754356 200.0
116.780907 236.0
116.819527 188.0
116.84832 392.0
116.87645 132.0
116.943687 160.0
116.963058 172.0
117.068787 724.0
117.143875 144.0
117.428459 164.0
117.510475 192.0
117.553581 312.0
117.618332 156.0
117.72628 228.0
117.769478 176.0
117.829956 168.0
117.864532 156.0
117.881813 164.0
117.940048 148.0
118.061241 184.0
118.120659 144.0
118.420502 152.0
118.509323 160.0
118.684883 200.0
118.96508 136.0
119.084183 164.0
119.123283 184.0
119.171074 152.0
119.203896 268.0
119.258003 144.0
119.320648 176.0
119.458046 152.0
119.511131 168.0
119.529846 148.0
119.547256 144.0
119.575546 168.0
119.623428 156.0
119.651733 172.0
119.669151 152.0
119.811417 148.0
119.871719 340.0
119.900047 140.0
119.91748 192.0
119.952354 216.0
119.9916 184.0
120.032448 152.0
120.137718 180.0
120.161713 148.0
120.198807 180.0
120.251183 160.0
120.489197 152.0
120.518791 188.0
120.703392 248.0
120.731819 144.0
120.915588 164.0
120.937477 144.0
121.016281 156.0
121.063026 612.0
121.191063 200.0
121.217796 152.0
121.234665 156.0
121.259438 304.0
121.325195 196.0
121.355888 232.0
121.449738 156.0
121.641991 120.0
121.674019 144.0
121.764046 160.0
121.840927 176.0
121.857307 152.0
121.878273 144.0
121.927872 140.0
122.021141 184.0
122.067528 180.0
122.095482 2776.0
122.160995 208.0
122.232292 196.0
122.247696 220.0
122.30452 200.0
122.465645 172.0
122.550827 144.0
122.652939 160.0
122.701431 160.0
122.771164 96.0
122.955101 164.0
122.988205 208.0
123.052979 200.0
123.079544 176.0
123.098747 364.0
123.277863 212.0
123.365936 192.0
123.545059 168.0
123.697754 184.0
123.739815 204.0
123.838814 136.0
123.926804 140.0
123.974106 188.0
124.01442 116.0
124.111336 19732.0
124.158661 188.0
124.245148 224.0
124.316826 100.0
124.354111 172.0
124.433754 148.0
124.496574 96.0
124.518135 152.0
124.67028 124.0
124.713654 152.0
124.75589 200.0
124.78257 144.0
124.975845 160.0
125.019287 312.0
125.115189 3044.0
125.160812 144.0
125.218712 348.0
125.245438 164.0
125.34687 144.0
125.40226 136.0
125.54409 220.0
125.570854 148.0
125.655617 156.0
125.719719 204.0
125.805946 156.0
125.912315 196.0
126.021072 104.0
126.055466 104.0
126.123108 708.0
126.292267 188.0
126.363853 152.0
126.406364 180.0
126.43676 172.0
126.457245 136.0
126.527229 204.0
126.789307 140.0
126.860077 208.0
126.88839 192.0
127.010887 164.0
127.056305 644.0
127.235619 164.0
127.287598 156.0
127.341209 156.0
127.372055 180.0
127.405296 196.0
127.469261 164.0
127.533371 160.0
127.721062 300.0
127.739052 292.0
127.761101 160.0
127.780457 196.0
127.802765 252.0
127.822296 316.0
127.889816 164.0
127.928421 160.0
127.970856 148.0
128.061707 1240.0
128.11438 160.0
128.199738 216.0
128.219772 136.0
128.271576 116.0
128.405762 200.0
128.561432 172.0
128.633652 220.0
128.728485 188.0
128.830124 232.0
129.024475 188.0
129.069046 7488.0
129.09819 240.0
129.191559 104.0
129.35022 176.0
129.488602 104.0
129.603867 220.0
129.856735 188.0
129.891785 148.0
129.950775 240.0
129.990448 124.0
130.007507 192.0
130.039856 156.0
130.072388 1964.0
130.093582 364.0
130.161865 200.0
130.27005 196.0
130.716507 200.0
130.845016 208.0
130.955536 176.0
130.998825 220.0
131.031647 156.0
131.054138 448.0
131.080627 384.0
131.18515 152.0
131.203918 204.0
131.23584 212.0
131.286926 216.0
131.384079 164.0
131.427429 140.0
131.865326 164.0
131.90184 148.0
131.993912 168.0
132.133652 120.0
132.199783 140.0
132.305069 176.0
132.362305 204.0
132.442459 160.0
132.520355 148.0
132.608246 328.0
132.634933 184.0
132.884903 140.0
132.978989 160.0
133.030838 524.0
133.065643 336.0
133.114426 160.0
133.259277 132.0
133.305099 148.0
133.333221 184.0
133.418182 140.0
133.482864 176.0
133.629303 260.0
133.709839 144.0
133.820328 236.0
134.080627 260.0
134.103577 100.0
134.185028 136.0
134.288132 156.0
134.344147 196.0
134.490601 132.0
134.532242 192.0
134.620209 148.0
134.828369 196.0
134.85408 164.0
134.872284 164.0
134.956055 204.0
135.039993 164.0
135.065048 164.0
135.122879 240.0
135.341522 144.0
135.348679 212.0
135.427597 144.0
135.483185 140.0
135.510986 188.0
135.967178 104.0
136.159714 156.0
136.32901 156.0
136.420731 152.0
136.532639 112.0
136.634674 164.0
136.654755 140.0
136.731308 148.0
136.748703 304.0
136.839493 144.0
136.930374 120.0
136.981873 140.0
137.035126 160.0
137.130661 180.0
137.468262 148.0
137.659195 152.0
137.721329 152.0
137.86348 184.0
137.91835 184.0
137.945282 196.0
137.999054 144.0
138.052841 192.0
138.087753 240.0
138.230621 148.0
138.271759 204.0
138.357986 168.0
138.441681 204.0
138.480911 176.0
138.578873 192.0
138.626373 232.0
138.711792 124.0
138.785583 160.0
138.830322 144.0
138.968063 160.0
138.999741 332.0
139.047302 152.0
139.309128 160.0
139.370209 168.0
139.494766 180.0
139.717255 184.0
139.830551 132.0
139.875839 208.0
139.953537 156.0
140.07692 132.0
140.109985 160.0
140.250778 136.0
140.278656 196.0
140.398895 168.0
140.42955 168.0
140.50032 160.0
140.556946 180.0
140.634918 192.0
140.735703 192.0
140.760712 160.0
140.780563 192.0
140.844971 144.0
140.910889 168.0
141.068466 1016.0
141.10965 188.0
141.203125 180.0
141.310684 156.0
141.328049 164.0
141.37262 156.0
141.507126 168.0
141.56395 188.0
141.585266 196.0
141.628296 140.0
141.728775 232.0
141.780411 192.0
141.815079 164.0
141.852997 220.0
141.945862 120.0
141.992813 112.0
142.072662 172.0
142.091827 560.0
142.122253 63164.0
142.174805 112.0
142.259018 312.0
142.312531 124.0
142.356186 144.0
142.42363 168.0
142.491638 148.0
142.550491 200.0
142.805161 164.0
142.829788 116.0
142.989685 200.0
143.050995 200.0
143.084595 1976.0
143.125549 5224.0
143.180511 100.0
143.255035 164.0
143.392593 120.0
143.429245 184.0
143.462357 200.0
143.502243 240.0
143.531387 176.0
143.731857 216.0
143.756805 140.0
143.778183 124.0
143.863647 220.0
143.913559 168.0
144.009628 184.0
144.031662 104.0
144.084183 296.0
144.128281 400.0
144.225311 124.0
144.28598 144.0
144.39119 200.0
144.484467 140.0
144.578079 136.0
144.609741 132.0
144.680023 152.0
144.972061 176.0
145.060898 580.0
145.099243 268.0
145.416595 208.0
145.522232 244.0
145.544586 140.0
145.574097 180.0
145.703583 140.0
145.825348 152.0
146.015152 216.0
146.048218 164.0
146.067749 156.0
146.097244 184.0
146.157288 128.0
146.409515 332.0
146.46106 160.0
146.525146 228.0
146.548172 196.0
146.831268 152.0
147.048401 304.0
147.087021 340.0
147.12236 100.0
147.300552 140.0
147.318848 268.0
147.371719 140.0
147.488403 140.0
147.562668 184.0
147.58522 144.0
147.75032 120.0
147.887085 176.0
148.095444 136.0
148.136597 184.0
148.226135 152.0
148.342468 172.0
148.393036 176.0
148.437668 148.0
148.509491 140.0
148.825256 148.0
148.885956 176.0
148.969635 116.0
149.066864 96.0
149.16188 156.0
149.226151 148.0
149.29335 140.0
149.318558 176.0
149.372055 208.0
149.545303 120.0
149.603241 184.0
149.724976 180.0
149.75177 156.0
149.834595 176.0
149.885757 212.0
149.922318 160.0
149.980804 184.0
150.051422 168.0
150.165298 156.0
150.208893 156.0
150.246597 152.0
150.336884 284.0
150.58345 480.0
150.709091 272.0
150.727585 240.0
150.792511 148.0
150.908463 248.0
150.937805 236.0
151.179901 116.0
151.231369 172.0
151.29747 256.0
151.589432 156.0
151.660004 188.0
151.685501 148.0
151.814453 160.0
152.081879 192.0
152.194809 184.0
152.301895 124.0
152.40007 176.0
152.541214 144.0
152.558411 176.0
152.610855 180.0
152.723175 184.0
152.853561 148.0
152.928055 104.0
153.018463 276.0
153.064835 168.0
153.121887 184.0
153.150177 180.0
153.436264 124.0
153.474274 152.0
153.809784 196.0
154.07576 184.0
154.183792 208.0
154.301392 164.0
154.330124 128.0
154.389954 196.0
154.809448 144.0
154.871994 136.0
155.000931 436.0
155.053925 612.0
155.084732 360.0
155.117584 160.0
155.259659 196.0
155.320114 160.0
155.731201 148.0
155.795792 164.0
155.877777 144.0
155.951553 112.0
156.049057 288.0
156.089752 248.0
156.222549 228.0
156.331039 276.0
156.454819 140.0
156.557861 176.0
156.990509 280.0
157.017944 148.0
157.064041 1880.0
157.139297 148.0
157.229996 148.0
157.449844 164.0
157.593262 104.0
157.633118 176.0
157.785339 160.0
157.933212 156.0
158.013641 256.0
158.066147 336.0
158.089676 196.0
158.184784 156.0
158.20575 140.0
158.227341 156.0
158.276062 236.0
158.430771 124.0
158.453629 192.0
158.504089 112.0
158.618149 180.0
158.778397 140.0
158.796692 132.0
158.886475 180.0
159.080994 332.0
159.116486 352.0
159.237793 108.0
159.285614 140.0
159.39772 128.0
159.540726 108.0
159.703323 156.0
159.93428 140.0
159.977142 152.0
160.055191 160.0
160.082321 288.0
160.291199 144.0
160.425552 188.0
160.449295 160.0
160.491089 144.0
160.511261 144.0
160.629028 144.0
160.781189 156.0
160.851852 228.0
161.065796 320.0
161.126953 188.0
161.271149 160.0
161.805695 216.0
161.890991 164.0
162.094101 220.0
162.128815 196.0
162.23558 148.0
162.394012 348.0
162.467361 180.0
162.50441 148.0
162.54985 128.0
162.65921 152.0
162.691238 136.0
162.776001 232.0
162.801392 208.0
162.856842 204.0
162.93602 148.0
163.003006 164.0
163.289337 140.0
163.383453 188.0
163.524551 188.0
163.620132 152.0
163.86972 184.0
163.907944 140.0
163.946381 148.0
164.108749 144.0
164.160309 184.0
164.186279 172.0
164.512405 156.0
164.71669 140.0
164.753662 152.0
164.78566 140.0
164.935211 100.0
165.070602 284.0
165.171692 156.0
165.337997 148.0
165.361023 144.0
165.3815 180.0
165.404343 216.0
165.823868 112.0
165.916595 168.0
166.076675 444.0
166.152817 144.0
166.183609 160.0
166.252884 140.0
166.344955 156.0
166.480255 168.0
166.51239 152.0
166.599518 168.0
166.817947 172.0
166.979935 144.0
167.000504 144.0
167.043335 160.0
167.081497 656.0
167.141998 164.0
167.179123 132.0
167.29921 100.0
167.381393 184.0
167.408859 156.0
167.526337 184.0
167.713715 176.0
168.010925 124.0
168.051544 172.0
168.089371 508.0
168.284302 156.0
168.330307 156.0
168.703888 208.0
168.761826 140.0
168.87561 180.0
168.988586 148.0
169.028244 140.0
169.061172 244.0
169.095245 312.0
169.242004 172.0
169.266388 332.0
169.28743 156.0
169.333069 248.0
169.476196 148.0
169.557632 144.0
169.581573 108.0
169.776886 208.0
170.067505 220.0
170.089691 456.0
170.179092 148.0
170.272568 184.0
170.29335 140.0
170.342697 140.0
170.366089 184.0
170.632324 188.0
170.651962 184.0
170.684052 160.0
170.833481 136.0
170.873032 184.0
170.899048 160.0
170.9198 148.0
170.948486 156.0
170.985825 104.0
171.079132 172.0
171.115448 7444.0
171.181213 180.0
171.401581 144.0
171.482376 148.0
171.503159 192.0
171.532349 204.0
171.721481 140.0
171.773743 176.0
171.816147 172.0
171.938782 176.0
171.959656 148.0
171.996201 156.0
172.118668 1924.0
172.163284 180.0
172.269775 208.0
172.422867 192.0
172.612762 144.0
172.716843 200.0
172.831619 196.0
172.856033 224.0
172.922897 152.0
172.976425 196.0
173.00174 184.0
173.057053 1484.0
173.095337 268.0
173.124023 160.0
173.227814 196.0
173.550781 152.0
173.573761 156.0
173.748489 324.0
173.770477 180.0
173.823013 176.0
173.856659 104.0
173.973541 220.0
174.034286 148.0
174.066345 232.0
174.164246 152.0
174.189026 156.0
174.356049 172.0
174.563721 192.0
174.605804 168.0
174.635803 144.0
174.676376 144.0
174.818893 208.0
174.847351 172.0
175.013672 140.0
175.069519 268.0
175.217896 172.0
175.248093 184.0
175.306061 164.0
175.339005 104.0
175.398315 160.0
175.458939 100.0
175.4832 140.0
175.536209 144.0
175.593216 104.0
175.600342 96.0
175.822952 144.0
175.848938 184.0
176.135208 460.0
176.245453 172.0
176.541519 164.0
176.853165 100.0
176.917236 196.0
176.949905 128.0
177.036377 172.0
177.076096 160.0
177.205902 168.0
177.359177 172.0
177.464142 156.0
177.529282 184.0
177.576797 148.0
177.9543 160.0
178.043259 184.0
178.079102 424.0
178.113174 168.0
178.195526 160.0
178.290146 224.0
178.354965 196.0
178.392181 168.0
178.540634 192.0
178.722122 136.0
178.791153 176.0
178.838318 228.0
178.894409 172.0
178.940216 216.0
179.081848 680.0
179.10762 212.0
179.164078 436.0
179.295822 160.0
179.347794 188.0
179.402466 144.0
179.465088 156.0
179.571411 120.0
179.779236 276.0
179.851913 156.0
179.952957 132.0
180.085632 360.0
180.144531 212.0
180.233429 172.0
180.513199 168.0
180.584 176.0
180.907898 372.0
180.989471 164.0
181.059723 216.0
181.09874 524.0
181.175568 144.0
181.20134 96.0
181.368057 116.0
181.479813 108.0
181.505234 192.0
181.617874 144.0
181.702148 136.0
181.872772 196.0
182.0327 176.0
182.058029 160.0
182.100021 252.0
182.233109 180.0
182.41333 176.0
182.474991 136.0
182.536362 176.0
182.556595 120.0
182.81694 196.0
182.962448 296.0
182.997345 116.0
183.043396 288.0
183.075684 360.0
183.109268 272.0
183.367172 156.0
183.422104 184.0
183.493454 180.0
183.558929 96.0
183.627029 144.0
183.837311 216.0
183.867142 160.0
183.938324 172.0
184.023712 216.0
184.070572 276.0
184.11235 400.0
184.253265 228.0
184.453247 176.0
184.531647 188.0
184.553268 144.0
184.749039 168.0
184.780472 168.0
184.802109 280.0
185.005905 120.0
185.059708 1112.0
185.10759 180.0
185.135056 160.0
185.15744 120.0
185.258514 180.0
185.30571 156.0
185.422226 168.0
185.606552 152.0
185.872391 196.0
186.061829 292.0
186.121338 148.0
186.301361 172.0
186.332077 144.0
186.407318 188.0
186.559525 172.0
186.654678 140.0
186.736267 192.0
186.806519 192.0
186.888428 160.0
187.073593 780.0
187.108643 132.0
187.143158 192.0
187.208511 176.0
187.313309 164.0
187.333176 164.0
187.488083 160.0
187.534012 148.0
187.73848 228.0
187.822159 176.0
188.083939 348.0
188.194534 152.0
188.34877 192.0
188.490082 156.0
188.524704 184.0
188.740646 168.0
188.800812 144.0
188.842133 216.0
188.891068 140.0
188.932617 104.0
188.957962 184.0
188.984085 148.0
189.022385 160.0
189.061722 384.0
189.126724 12388.0
189.237228 196.0
189.330627 100.0
189.502777 152.0
189.596832 196.0
189.765579 180.0
189.91275 140.0
189.972565 144.0
190.014771 124.0
190.025742 128.0
190.055405 216.0
190.081421 188.0
190.128815 1912.0
190.281616 324.0
190.532761 208.0
191.098633 268.0
191.126678 336.0
191.226074 168.0
191.369308 124.0
191.608826 232.0
191.633682 176.0
191.698441 128.0
191.843475 140.0
191.97818 168.0
192.094025 192.0
192.211334 200.0
192.294357 172.0
192.405853 172.0
192.452789 208.0
192.549438 176.0
192.643356 160.0
192.719727 156.0
192.880997 144.0
193.010941 180.0
193.040771 204.0
193.102127 308.0
193.199463 96.0
193.257111 156.0
193.334579 188.0
193.370697 240.0
193.407959 180.0
193.484055 156.0
193.539429 192.0
193.588501 200.0
193.639374 128.0
193.715561 208.0
193.769318 180.0
193.799789 172.0
193.827499 152.0
193.99379 148.0
194.098923 140.0
194.501419 152.0
194.701324 144.0
194.740204 180.0
194.76712 196.0
195.05542 260.0
195.116028 528.0
195.218216 144.0
195.275726 260.0
195.471176 128.0
195.513092 156.0
195.602158 152.0
195.634689 132.0
195.748459 132.0
195.849976 248.0
196.014343 212.0
196.087326 156.0
196.1091 156.0
196.204437 140.0
196.365616 284.0
196.465149 140.0
196.591583 148.0
196.817688 228.0
196.837234 228.0
197.088242 152.0
197.131561 224.0
197.245132 144.0
197.267487 380.0
197.348175 116.0
197.505173 172.0
197.558319 180.0
197.682037 168.0
197.71283 128.0
197.916565 180.0
198.091263 168.0
198.127869 544.0
198.16864 192.0
198.230286 144.0
198.275116 176.0
198.648041 144.0
198.736588 192.0
198.779892 164.0
198.84491 268.0
198.892166 160.0
198.945496 152.0
199.023514 152.0
199.073257 384.0
199.111237 5380.0
199.579178 108.0
199.668732 152.0
199.695526 156.0
199.774506 152.0
199.808258 148.0
199.903183 136.0
199.913498 100.0
200.006454 128.0
200.113129 856.0
200.138779 380.0
200.167511 224.0
200.42485 140.0
200.546036 308.0
200.576553 164.0
200.681351 168.0
200.751953 148.0
200.782867 160.0
200.815659 216.0
201.059341 204.0
201.129227 152.0
201.245636 140.0
201.295227 172.0
201.367065 196.0
201.526184 148.0
201.850311 144.0
201.909698 140.0
202.029251 164.0
202.056656 448.0
202.155746 148.0
202.206757 180.0
202.260544 140.0
202.292053 148.0
202.506866 244.0
202.529526 144.0
202.861069 156.0
202.934769 148.0
202.957458 232.0
203.034027 164.0
203.069611 1564.0
203.107056 128.0
203.133865 108.0
203.206299 168.0
203.266632 156.0
203.320557 180.0
203.383408 152.0
203.429794 156.0
203.51358 164.0
203.588531 204.0
203.681137 144.0
204.07106 252.0
204.172546 312.0
204.406097 164.0
204.445938 164.0
204.537735 136.0
204.875885 160.0
205.090622 124.0
205.175125 140.0
205.229294 152.0
205.289169 228.0
205.420364 156.0
205.646851 132.0
205.673035 132.0
205.729568 172.0
205.762817 192.0
205.794449 160.0
205.992477 128.0
206.06842 148.0
206.100769 136.0
206.129776 172.0
206.160675 192.0
206.258255 248.0
206.287888 116.0
206.477188 148.0
206.555801 140.0
206.614487 172.0
206.754684 312.0
206.778885 152.0
206.803345 160.0
207.083252 148.0
207.123077 136.0
207.198517 156.0
207.450699 220.0
207.533157 128.0
207.576096 144.0
207.63707 148.0
207.892395 168.0
208.080688 168.0
208.125336 272.0
208.195496 124.0
208.251266 168.0
208.369888 356.0
208.676559 140.0
208.972809 192.0
209.101089 184.0
209.159866 144.0
209.488129 152.0
209.531342 188.0
209.56015 200.0
209.608185 216.0
209.632187 144.0
209.715088 204.0
209.773422 184.0
209.977386 212.0
210.02681 196.0
210.101151 160.0
210.134781 184.0
210.338791 156.0
210.416107 144.0
210.483154 172.0
210.513977 184.0
210.540909 140.0
210.653549 140.0
210.705551 148.0
210.819504 136.0
210.861588 172.0
211.086731 136.0
211.105423 252.0
211.151108 232.0
211.347412 160.0
211.385025 152.0
211.551727 280.0
211.577713 160.0
211.617035 128.0
211.715027 208.0
211.755585 144.0
211.953064 240.0
212.051102 212.0
212.07251 144.0
212.100845 316.0
212.141006 148.0
212.256439 120.0
212.285919 152.0
212.516418 172.0
212.850327 192.0
213.011505 208.0
213.095749 144.0
213.129211 132.0
213.141922 184.0
213.252533 160.0
213.342285 164.0
213.676193 248.0
213.735046 340.0
213.867874 180.0
213.926254 148.0
213.977005 168.0
214.07309 140.0
214.11676 156.0
214.226746 200.0
214.29155 204.0
214.387695 188.0
214.571335 160.0
214.979691 152.0
215.388428 180.0
215.426407 220.0
215.565292 232.0
215.66893 164.0
215.981796 156.0
216.098022 148.0
216.632324 100.0
216.769333 260.0
217.027283 168.0
217.120743 708.0
217.153915 312.0
217.269699 220.0
217.327179 164.0
217.368958 132.0
217.391006 184.0
217.652267 212.0
217.743301 176.0
217.804977 152.0
217.93718 164.0
217.965652 144.0
218.124466 148.0
218.204636 140.0
218.272263 156.0
218.317993 224.0
218.628204 160.0
218.703583 144.0
218.731216 156.0
218.77243 164.0
218.899033 160.0
218.960876 220.0
219.074463 220.0
219.118423 160.0
219.245636 140.0
219.424484 204.0
219.501526 156.0
219.533447 124.0
219.697769 220.0
219.788681 152.0
219.837601 152.0
219.995819 148.0
220.0224 152.0
220.090683 152.0
220.341354 168.0
220.451813 96.0
220.60141 184.0
220.663574 156.0
220.941055 160.0
220.971085 260.0
221.048462 308.0
221.133163 180.0
221.290726 152.0
221.525238 148.0
221.705322 124.0
221.874374 140.0
221.909943 172.0
222.057465 156.0
222.084915 176.0
222.140594 320.0
222.185684 260.0
222.295547 264.0
222.325226 144.0
222.369736 148.0
222.420197 192.0
222.544891 192.0
222.608002 172.0
222.648819 140.0
222.758347 164.0
222.929703 104.0
223.107925 156.0
223.271866 172.0
223.521011 140.0
223.626953 148.0
224.047028 164.0
224.078293 276.0
224.269333 200.0
224.364655 196.0
224.735519 180.0
224.951172 152.0
225.086823 160.0
225.127075 576.0
225.206696 148.0
225.277512 172.0
225.379654 212.0
225.440018 140.0
225.518341 204.0
225.547806 144.0
225.571716 208.0
225.724197 164.0
225.813721 188.0
225.888687 152.0
225.915619 156.0
226.000916 208.0
226.174057 208.0
226.203751 152.0
226.276306 352.0
226.385529 184.0
226.451416 164.0
226.616165 156.0
226.680206 140.0
226.785583 180.0
226.820892 168.0
226.873917 172.0
227.09581 144.0
227.362823 152.0
227.494888 396.0
227.611984 168.0
227.643723 204.0
227.715744 164.0
227.823685 144.0
228.097504 244.0
228.216827 120.0
228.250458 248.0
228.384338 164.0
228.438477 152.0
228.634048 164.0
228.661713 188.0
228.790573 172.0
228.918396 204.0
229.010071 192.0
229.110733 308.0
229.20018 148.0
229.264435 260.0
229.48735 116.0
229.752945 180.0
229.881653 144.0
230.088409 176.0
230.1147 288.0
230.165833 144.0
230.18956 272.0
230.370102 124.0
230.561127 204.0
230.706223 152.0
230.736633 128.0
230.851868 140.0
231.095505 184.0
231.123016 148.0
231.255981 144.0
231.448929 148.0
231.663071 176.0
231.87291 208.0
231.968552 244.0
232.044342 140.0
232.137527 180.0
232.173798 300.0
232.336166 168.0
232.544052 136.0
232.587585 160.0
232.645035 144.0
232.779297 108.0
232.821136 180.0
232.957977 148.0
233.185699 148.0
233.248856 124.0
233.326691 220.0
233.377213 196.0
233.431686 136.0
233.465408 160.0
233.513687 128.0
233.571854 180.0
233.631531 188.0
233.793961 176.0
233.853714 104.0
233.973541 156.0
234.000793 140.0
234.225876 176.0
234.308548 140.0
234.732208 180.0
234.869446 140.0
235.046387 224.0
235.393158 220.0
235.479889 144.0
235.638733 184.0
235.702896 224.0
235.81076 176.0
236.026901 144.0
236.05748 156.0
236.107315 232.0
236.326645 152.0
236.563828 212.0
236.616745 168.0
236.66333 180.0
236.8759 176.0
237.005753 136.0
237.046982 176.0
237.076859 168.0
237.127304 140.0
237.198853 140.0
237.225815 160.0
237.477219 204.0
237.510651 196.0
237.606201 132.0
237.733459 192.0
237.90538 160.0
237.944916 200.0
238.02475 140.0
238.132233 192.0
238.162857 156.0
238.262985 132.0
238.332092 136.0
238.524414 100.0
238.568558 144.0
238.823776 236.0
238.949905 152.0
239.029892 192.0
239.094528 144.0
239.141479 392.0
239.189941 260.0
239.369461 116.0
239.470123 196.0
239.544052 160.0
239.707336 152.0
239.952332 140.0
239.987839 164.0
240.13913 260.0
240.24382 180.0
240.472153 200.0
240.576706 156.0
240.628311 136.0
240.692215 184.0
240.814865 168.0
240.854095 148.0
240.930817 172.0
240.953873 160.0
241.049652 140.0
241.141891 132.0
241.693848 156.0
241.763992 196.0
241.872314 168.0
242.00798 156.0
242.119446 132.0
242.177475 124.0
242.23674 128.0
242.276154 208.0
242.312057 164.0
242.343353 140.0
242.510513 96.0
242.742279 224.0
242.780106 236.0
242.831436 128.0
243.022064 180.0
243.079102 136.0
243.208038 116.0
243.364853 172.0
243.403839 164.0
243.450424 140.0
243.524948 180.0
243.578308 136.0
243.626129 192.0
243.72522 164.0
243.798355 148.0
243.845657 180.0
243.919571 156.0
244.025269 144.0
244.060669 204.0
244.087448 176.0
244.137207 164.0
244.165192 176.0
244.314499 204.0
244.35379 216.0
244.447449 120.0
244.603897 216.0
244.687943 164.0
244.743988 196.0
244.793808 224.0
244.85939 140.0
244.946426 280.0
245.037704 160.0
245.128143 160.0
245.296417 200.0
245.674164 176.0
245.901657 220.0
245.976898 180.0
246.075333 140.0
246.279663 148.0
246.322052 232.0
246.370285 100.0
246.39241 168.0
246.501724 172.0
246.627655 248.0
246.675156 152.0
246.774689 112.0
246.822098 232.0
246.865036 164.0
247.049362 120.0
247.094208 148.0
247.116104 144.0
247.166397 168.0
247.544922 164.0
247.808029 240.0
248.094727 136.0
248.1604 104.0
248.437347 120.0
248.527008 160.0
248.613663 164.0
248.693481 164.0
248.874924 180.0
249.025665 112.0
249.12265 120.0
249.311066 152.0
249.421066 156.0
249.514847 212.0
249.678879 184.0
249.772385 264.0
249.807846 140.0
249.996628 144.0
250.034805 160.0
250.095474 196.0
250.153992 380.0
250.191772 200.0
250.245285 200.0
250.305115 160.0
250.404465 140.0
250.506683 148.0
250.54332 152.0
250.613037 168.0
250.916367 160.0
250.947891 140.0
251.284119 232.0
251.431808 144.0
251.490479 144.0
251.559921 144.0
251.708496 136.0
251.750778 152.0
251.812531 172.0
251.842728 156.0
251.888077 152.0
251.938965 132.0
251.995743 140.0
252.081055 152.0
252.141098 140.0
252.173889 152.0
252.390823 196.0
252.555283 164.0
252.662827 160.0
252.697632 196.0
252.80838 172.0
252.920013 192.0
253.32753 124.0
253.645874 132.0
253.77684 156.0
253.94101 140.0
253.986969 200.0
254.201691 288.0
254.277252 144.0
254.381882 216.0
254.415359 180.0
254.583633 220.0
254.623032 128.0
254.804092 108.0
254.844101 164.0
254.982071 100.0
255.019867 208.0
255.052338 152.0
255.106613 220.0
255.148361 120.0
255.206436 152.0
255.317688 128.0
255.480728 248.0
255.536362 208.0
255.582092 116.0
255.79509 124.0
255.89325 208.0
255.916687 232.0
255.989212 156.0
256.015472 112.0
256.133026 148.0
256.204559 104.0
256.288635 192.0
256.438629 176.0
256.55954 172.0
256.583435 240.0
256.655182 148.0
256.73172 144.0
256.84964 144.0
256.954987 148.0
257.031555 140.0
257.102325 140.0
257.149689 308.0
257.194336 156.0
257.229431 200.0
257.258179 160.0
257.401825 284.0
257.429596 132.0
257.545563 188.0
257.794739 204.0
257.865051 152.0
257.916199 152.0
257.999695 232.0
258.062134 172.0
258.08139 340.0
258.148193 3756.0
258.212341 116.0
258.253265 104.0
258.402283 168.0
258.470215 160.0
258.507874 160.0
258.690948 136.0
258.775726 176.0
258.808746 200.0
258.868744 212.0
258.895203 212.0
259.013977 188.0
259.151154 820.0
259.191589 200.0
259.266815 284.0
259.317474 140.0
259.577911 180.0
259.646362 144.0
259.746643 228.0
259.917786 156.0
260.091095 152.0
260.152863 380.0
260.222717 156.0
260.374939 208.0
260.415375 272.0
260.610687 136.0
260.659546 168.0
260.738586 264.0
260.800415 172.0
261.061371 152.0
261.156342 104.0
261.18222 248.0
261.221619 188.0
261.284393 188.0
261.352112 196.0
261.439209 144.0
261.540741 172.0
261.595459 176.0
261.649078 128.0
261.724121 116.0
261.840149 160.0
261.903137 172.0
261.940002 140.0
262.056 156.0
262.112457 144.0
262.176544 140.0
262.217102 348.0
262.259338 120.0
262.305847 204.0
262.450592 148.0
262.51178 216.0
262.566742 104.0
262.770294 204.0
262.819458 168.0
262.862091 232.0
262.897369 192.0
263.010986 188.0
263.066254 140.0
263.19162 128.0
263.259125 220.0
263.469086 180.0
263.667297 288.0
263.79248 188.0
263.846863 148.0
264.151184 180.0
264.177063 280.0
264.316193 156.0
264.527527 264.0
264.756439 168.0
264.948425 104.0
264.98642 260.0
265.055176 144.0
265.151672 176.0
265.264893 188.0
265.316986 160.0
265.54071 172.0
265.792664 176.0
265.898987 160.0
266.003265 208.0
266.056641 160.0
266.124817 160.0
266.176788 380.0
266.238464 160.0
266.268585 132.0
266.326172 156.0
266.724213 184.0
266.842865 140.0
267.09201 136.0
267.135223 1116.0
267.176849 144.0
267.216888 156.0
267.644257 116.0
267.672485 168.0
267.892914 196.0
267.985168 148.0
268.021576 184.0
268.098541 220.0
268.136353 368.0
268.204712 152.0
268.283722 200.0
268.340515 148.0
268.373566 176.0
268.467682 220.0
268.668182 160.0
268.911255 116.0
269.001862 188.0
269.224792 184.0
269.3479 120.0
269.466492 176.0
269.63089 180.0
269.839081 312.0
269.94043 216.0
270.024902 180.0
270.162628 120.0
270.208649 160.0
270.254456 188.0
270.398438 176.0
270.464966 172.0
270.640686 156.0
270.696228 116.0
270.838196 156.0
271.142761 164.0
271.200775 132.0
271.209686 128.0
271.443481 140.0
271.486115 156.0
271.681793 144.0
271.776794 296.0
272.148926 168.0
272.244171 160.0
272.293793 256.0
272.342773 204.0
272.386993 180.0
272.480652 172.0
272.533234 136.0
272.641663 160.0
272.921082 140.0
273.085907 124.0
273.157867 196.0
273.262054 196.0
273.422119 176.0
273.546173 168.0
273.654785 172.0
273.772644 172.0
274.02597 120.0
274.12735 172.0
274.222107 148.0
274.28952 156.0
274.401978 144.0
274.481079 212.0
274.702789 152.0
274.737457 324.0
274.795898 184.0
274.928864 136.0
274.991425 152.0
275.049286 140.0
275.075684 204.0
275.151611 392.0
275.194519 224.0
275.259308 176.0
275.380676 108.0
276.01532 160.0
276.07077 156.0
276.137543 400.0
276.32373 140.0
276.363129 100.0
276.512054 176.0
276.539703 164.0
276.582977 148.0
276.845032 164.0
277.084747 152.0
277.225494 176.0
277.248688 168.0
277.358063 352.0
277.387909 196.0
277.464142 140.0
277.519409 180.0
277.857056 100.0
277.978546 140.0
278.150848 204.0
278.346619 136.0
278.54599 200.0
278.72995 228.0
278.776489 168.0
278.88681 160.0
278.984344 172.0
279.1409 172.0
279.184113 224.0
279.250641 224.0
279.345123 172.0
279.368439 204.0
279.62735 124.0
279.773071 212.0
279.892914 172.0
280.157928 288.0
280.202667 148.0
280.37262 160.0
280.471039 180.0
280.522583 160.0
280.675964 208.0
280.750336 144.0
280.812469 180.0
280.893646 220.0
280.93277 168.0
281.141693 176.0
281.208618 108.0
281.239319 180.0
281.312378 216.0
281.534058 136.0
281.683838 140.0
281.7211 236.0
281.757355 176.0
281.840881 144.0
281.961182 144.0
282.084656 148.0
282.19873 160.0
282.315552 168.0
282.556366 144.0
282.619934 228.0
282.737305 104.0
282.790619 148.0
282.971375 152.0
282.994812 140.0
283.022186 200.0
283.080017 116.0
283.162231 156.0
283.356537 144.0
283.508331 144.0
283.587738 168.0
283.677338 160.0
283.868469 180.0
283.9104 164.0
283.932831 176.0
283.976654 176.0
284.190155 140.0
284.506683 176.0
284.694885 140.0
284.762024 216.0
284.997284 260.0
285.050232 220.0
285.094635 176.0
285.147644 1076.0
285.654022 148.0
285.706573 180.0
285.750885 156.0
285.976013 176.0
286.019531 144.0
286.093597 188.0
286.151337 236.0
286.19989 220.0
286.313904 140.0
286.349701 196.0
286.392487 156.0
286.753784 140.0
286.821198 172.0
287.070526 148.0
287.287964 164.0
287.401276 148.0
287.837921 128.0
288.269073 144.0
288.400879 200.0
288.436035 152.0
288.571014 364.0
288.764679 140.0
288.926575 120.0
289.019806 196.0
289.111115 136.0
289.202484 156.0
289.327881 188.0
289.487946 112.0
289.591858 184.0
289.78833 148.0
289.900146 224.0
290.005219 228.0
290.19574 160.0
290.25946 160.0
290.436279 152.0
290.532745 160.0
290.71402 176.0
290.743042 124.0
290.767365 152.0
290.921082 208.0
291.083862 140.0
291.226685 184.0
291.276642 96.0
291.472015 184.0
291.503937 204.0
291.580017 148.0
291.685394 212.0
291.933563 164.0
291.962097 196.0
292.023315 364.0
292.263519 168.0
292.356781 124.0
292.704285 148.0
292.877838 160.0
292.981598 184.0
293.070496 140.0
293.327789 208.0
293.530548 136.0
293.736267 288.0
293.946808 168.0
293.99115 252.0
294.10379 228.0
294.353912 144.0
294.416595 136.0
294.446472 140.0
294.626251 260.0
294.74411 128.0
294.834686 272.0
295.051453 124.0
295.152985 204.0
295.26886 200.0
295.380096 132.0
295.409088 212.0
295.449158 136.0
295.603363 260.0
295.730865 104.0
295.800323 132.0
295.845093 168.0
295.89505 152.0
295.919006 144.0
295.966949 184.0
296.038391 120.0
296.109375 128.0
296.158722 168.0
296.235138 276.0
296.501343 148.0
296.601959 168.0
296.880768 148.0
297.145996 156.0
297.18631 196.0
297.283234 144.0
297.330719 164.0
297.458282 156.0
297.605896 148.0
297.654266 136.0
297.757446 120.0
297.849731 160.0
297.950317 160.0
298.004333 240.0
298.036499 188.0
298.076477 140.0
298.112305 208.0
298.143066 136.0
298.334259 216.0
298.363098 144.0
298.458008 140.0
298.583435 156.0
298.774445 148.0
298.897064 144.0
298.932709 152.0
299.181915 140.0
299.302582 232.0
299.334595 320.0
299.772308 200.0
299.810852 372.0
299.945251 168.0
300.098236 344.0
300.151337 160.0
300.207275 144.0
300.302399 132.0
300.452179 188.0
300.617798 152.0
300.664551 132.0
300.721344 144.0
300.860321 196.0
300.966217 180.0
301.190918 196.0
301.261566 100.0
301.292633 152.0
301.328552 256.0
301.491028 144.0
301.578552 228.0
301.617645 160.0
301.698883 188.0
301.968597 372.0
302.01059 172.0
302.141266 148.0
302.316864 144.0
302.38031 188.0
302.594482 160.0
302.655823 296.0
303.09021 156.0
303.220428 160.0
303.321472 188.0
303.395203 164.0
303.627533 196.0
304.182678 168.0
304.23822 144.0
304.270874 156.0
304.314575 148.0
304.366669 296.0
304.411804 156.0
304.495148 148.0
304.575043 180.0
304.77655 180.0
304.818237 172.0
304.886688 188.0
304.995483 172.0
305.186676 156.0
305.237885 332.0
305.366211 160.0
305.379761 100.0
305.392578 212.0
305.68512 176.0
305.765381 168.0
305.915405 164.0
305.950714 104.0
306.025208 196.0
306.094849 160.0
306.185211 176.0
306.294525 156.0
306.408325 192.0
306.467896 120.0
306.536377 316.0
306.607727 104.0
307.046204 140.0
307.157806 140.0
307.26944 164.0
307.339233 192.0
307.471832 168.0
307.541626 164.0
307.644104 168.0
307.827911 164.0
307.988342 132.0
308.17337 160.0
308.341431 188.0
308.637482 220.0
308.757477 160.0
308.905304 152.0
309.205292 296.0
309.244507 172.0
309.41391 132.0
309.525909 224.0
309.863586 164.0
309.951172 144.0
310.135864 124.0
310.202057 124.0
310.4776 168.0
310.517975 164.0
310.561188 292.0
310.638336 192.0
310.732971 180.0
310.753113 128.0
310.822876 136.0
310.992737 148.0
311.144165 120.0
311.182312 180.0
311.245514 184.0
311.294647 156.0
311.491333 224.0
311.854034 144.0
312.018463 156.0
312.229279 148.0
312.317383 188.0
312.356049 172.0
312.553558 144.0
312.833038 132.0
312.912506 132.0
313.288116 140.0
313.341766 264.0
313.394592 160.0
313.52652 120.0
313.644806 276.0
313.723389 152.0
313.796387 200.0
313.835175 176.0
313.877502 168.0
313.955078 168.0
314.021179 196.0
314.165375 116.0
314.56308 116.0
314.607819 204.0
314.749054 148.0
314.821442 192.0
314.900909 160.0
315.075104 224.0
315.158783 152.0
315.247131 172.0
315.283569 140.0
315.466156 124.0
315.559387 104.0
315.607666 172.0
315.837555 216.0
315.936981 216.0
315.982574 156.0
316.074585 224.0
316.218689 176.0
316.270569 172.0
316.303223 164.0
316.371887 152.0
316.5914 180.0
316.61618 216.0
316.644531 144.0
316.918579 172.0
317.083435 244.0
317.136993 144.0
317.436035 112.0
317.80368 144.0
317.92926 160.0
317.97403 212.0
318.005951 248.0
318.120422 148.0
318.266388 188.0
318.343231 208.0
318.619141 224.0
318.655792 152.0
318.723297 160.0
318.75885 148.0
318.789398 152.0
318.944214 128.0
319.288513 152.0
319.484009 180.0
319.681335 152.0
319.756683 132.0
319.804413 144.0
319.839996 204.0
320.151978 160.0
320.222412 252.0
320.481018 192.0
320.589874 176.0
320.687714 168.0
321.028229 156.0
321.251099 164.0
321.393799 168.0
321.507996 156.0
321.584656 132.0
321.657898 156.0
321.733826 192.0
321.764282 160.0
321.911011 192.0
321.970032 132.0
322.111389 256.0
322.384277 148.0
322.497772 180.0
322.536621 140.0
322.691986 156.0
322.718933 176.0
322.919189 176.0
322.954956 164.0
323.08374 164.0
323.115936 200.0
323.18811 156.0
323.24115 144.0
323.306946 144.0
323.506012 180.0
323.989471 144.0
324.025269 140.0
324.053955 148.0
324.112213 296.0
324.327728 160.0
324.408752 152.0
324.518005 100.0
324.664032 180.0
324.96463 140.0
325.291199 152.0
325.463531 168.0
325.520966 152.0
325.625122 156.0
325.718506 148.0
326.013336 192.0
326.221863 388.0
326.253296 132.0
326.295563 188.0
326.380493 140.0
326.41214 144.0
326.847382 176.0
326.998505 148.0
327.023712 240.0
327.167694 212.0
327.260559 172.0
327.358521 152.0
327.578857 180.0
327.61499 176.0
327.873688 152.0
328.014252 144.0
328.167206 112.0
328.317108 148.0
328.504669 144.0
328.553436 104.0
328.660706 176.0
328.737091 236.0
328.799805 200.0
329.064026 144.0
329.246216 148.0
329.285553 152.0
329.338745 224.0
329.42749 156.0
329.448822 220.0
329.569672 144.0
329.710602 260.0
329.867798 140.0
330.101654 192.0
330.231232 356.0
330.325287 172.0
330.429688 148.0
330.475922 116.0
330.514893 272.0
330.676239 172.0
330.760956 160.0
330.810181 176.0
330.86087 220.0
330.939636 148.0
330.99884 112.0
331.030426 172.0
331.208496 208.0
331.242584 136.0
331.414978 176.0
331.482941 148.0
331.633484 204.0
331.668671 168.0
332.191406 156.0
332.250824 164.0
332.361328 176.0
332.435944 164.0
332.502258 144.0
332.662567 144.0
332.714844 120.0
332.83493 184.0
332.923981 180.0
333.056305 264.0
333.374451 144.0
333.669586 120.0
333.817932 192.0
333.852936 188.0
334.022614 144.0
334.179047 216.0
334.24353 152.0
334.322662 204.0
334.389496 128.0
334.523773 156.0
334.752167 192.0
335.197052 180.0
335.217072 248.0
335.481842 168.0
335.556366 144.0
335.725128 200.0
335.906647 216.0
335.979034 144.0
336.08725 200.0
336.689453 264.0
336.75766 156.0
336.812927 140.0
336.857574 164.0
336.914459 148.0
337.019623 192.0
337.117004 140.0
337.387695 128.0
337.522736 180.0
337.56424 124.0
337.678436 168.0
337.713348 132.0
337.845917 156.0
337.889832 168.0
338.288849 236.0
338.38623 152.0
338.415527 144.0
338.534485 136.0
338.708496 180.0
338.751709 100.0
338.905212 172.0
338.93692 148.0
339.12085 156.0
339.181183 192.0
339.261841 172.0
339.294922 148.0
339.346649 168.0
339.423157 144.0
339.478149 192.0
339.52594 232.0
339.685181 188.0
339.808258 160.0
339.85965 148.0
339.954834 220.0
340.097076 148.0
340.138245 140.0
340.178833 268.0
340.226776 25416.0
340.338898 160.0
340.406708 216.0
340.44696 184.0
340.570526 168.0
340.637299 112.0
340.685699 168.0
340.732941 276.0
340.799103 196.0
340.843933 184.0
340.884583 148.0
340.925354 160.0
340.961273 300.0
341.051483 140.0
341.229889 6716.0
341.346863 112.0
341.403351 252.0
341.433411 340.0
341.461273 192.0
341.64502 184.0
341.70578 132.0
341.791718 188.0
341.978363 280.0
342.021301 152.0
342.064697 216.0
342.232971 1068.0
342.292969 140.0
342.33606 120.0
342.422882 116.0
342.558136 224.0
342.83078 148.0
343.011017 116.0
343.090302 136.0
343.156464 136.0
343.189606 116.0
343.231659 304.0
343.281799 176.0
343.345215 96.0
343.55188 140.0
343.621185 156.0
343.664124 156.0
343.727997 180.0
343.858276 172.0
343.905212 148.0
344.028168 132.0
344.188263 180.0
344.226105 112.0
344.280853 160.0
344.312927 148.0
344.502197 144.0
344.573151 232.0
344.693146 208.0
344.812561 160.0
344.947479 144.0
345.082428 148.0
345.136139 204.0
345.315369 148.0
345.45282 104.0
345.525635 172.0
345.696259 128.0
345.792664 216.0
345.940704 184.0
345.97937 120.0
346.103607 208.0
346.2258 144.0
346.314697 176.0
346.507324 168.0
346.622864 152.0
346.774139 176.0
346.849548 236.0
347.066986 164.0
347.146484 200.0
347.252411 192.0
347.336761 140.0
347.373566 104.0
347.454224 204.0
347.50769 176.0
347.623383 148.0
347.664673 128.0
347.7034 164.0
347.739929 188.0
347.886902 168.0
348.42334 284.0
348.496826 228.0
348.577728 212.0
348.82019 184.0
349.070557 284.0
349.327454 116.0
349.548248 144.0
349.659882 248.0
349.690857 212.0
349.754669 232.0
349.78772 208.0
350.128998 292.0
350.205139 144.0
350.246643 204.0
350.298828 160.0
350.489746 104.0
350.567444 132.0
350.632782 192.0
350.661743 140.0
350.907349 104.0
351.121643 136.0
351.265778 152.0
351.32547 260.0
351.439484 156.0
351.529816 124.0
351.605316 164.0
351.670837 164.0
351.896484 176.0
351.945618 144.0
352.002197 176.0
352.127991 156.0
352.176544 168.0
352.222626 156.0
352.302887 136.0
352.432343 212.0
352.501648 160.0
352.580536 180.0
352.622925 152.0
352.871033 132.0
352.927704 220.0
353.347504 164.0
353.419128 244.0
353.485138 148.0
353.610779 172.0
353.634827 392.0
353.72702 152.0
353.842987 200.0
353.904755 116.0
353.988983 204.0
354.016235 220.0
354.126648 216.0
354.26004 340.0
354.296692 168.0
354.574005 248.0
354.640442 132.0
354.675964 184.0
354.721039 172.0
354.78299 196.0
354.885376 168.0
354.938171 128.0
354.98114 120.0
355.046082 284.0
355.114197 144.0
355.157196 200.0
355.234467 112.0
355.269836 228.0
355.297424 204.0
355.446564 128.0
355.51889 236.0
355.555969 144.0
355.617889 248.0
355.695251 180.0
355.725647 156.0
355.750732 116.0
355.78891 396.0
355.830353 288.0
355.859131 332.0
355.897614 288.0
355.981781 436.0
356.010681 112.0
356.093781 264.0
356.214447 260.0
356.232483 140.0
356.239777 220.0
356.324982 208.0
356.358185 252.0
356.405975 436.0
356.452942 376.0
356.502014 168.0
356.551971 288.0
356.586304 164.0
356.61026 448.0
356.648346 220.0
356.688416 140.0
356.738342 240.0
356.776672 196.0
356.847412 360.0
356.91507 276.0
356.952667 448.0
356.990814 608.0
357.036316 280.0
357.068878 308.0
357.107574 544.0
357.161499 384.0
357.207001 360.0
357.247833 228.0
357.291565 316.0
357.354645 360.0
357.415009 676.0
357.455048 228.0
357.520966 240.0
357.572662 632.0
357.600861 232.0
357.647675 380.0
357.684967 532.0
357.737183 440.0
357.768799 560.0
357.805847 464.0
357.840088 468.0
357.852936 672.0
357.880219 364.0
357.918213 808.0
357.953552 560.0
357.996552 860.0
358.003418 492.0
358.035187 632.0
358.082336 1204.0
358.093781 760.0
358.147552 1248.0
358.182159 1184.0
358.239838 239224.0
358.376068 180.0
358.504974 344.0
358.590027 2328.0
358.652161 892.0
358.703522 1244.0
358.811829 1452.0
358.865326 21024.0
358.906708 1272.0
358.938873 640.0
359.011597 460.0
359.049988 424.0
359.164368 1080.0
359.177246 888.0
359.186951 512.0
359.242218 194320.0
359.483917 452.0
359.512939 224.0
359.522705 280.0
359.556183 356.0
359.638519 252.0
359.687958 212.0
359.759796 260.0
359.810669 452.0
359.861633 1792.0
359.953308 140.0
359.991577 164.0
360.030731 260.0
360.064301 360.0
360.107361 324.0
360.121765 288.0
360.177124 180.0
360.243835 27992.0
360.318634 184.0
360.38797 220.0
360.460266 200.0
360.525177 196.0
360.596741 112.0
360.658966 200.0
360.685669 164.0
360.710388 300.0
360.739655 228.0
360.829224 180.0
360.880219 136.0
360.928101 152.0
360.970154 136.0
360.995941 368.0
361.028137 312.0
361.068634 192.0
361.127167 220.0
361.162079 400.0
361.247284 2484.0
361.324585 292.0
361.350616 420.0
361.366699 336.0
361.377655 356.0
361.405212 460.0
361.445587 452.0
361.541046 412.0
361.569611 448.0
361.623535 296.0
361.674286 696.0
361.721283 296.0
361.786774 300.0
361.817993 576.0
361.86264 160.0
361.934906 312.0
361.979004 264.0
362.044403 148.0
362.136536 124.0
362.204163 208.0
362.253479 180.0
362.332825 160.0
362.400177 288.0
362.509064 272.0
362.52594 124.0
362.540039 228.0
362.626984 172.0
362.658813 196.0
362.720215 168.0
362.774414 112.0
362.838196 124.0
362.893219 112.0
363.033691 100.0
363.284485 140.0
363.329498 108.0
363.45874 144.0
363.508606 120.0
363.557068 136.0
364.026154 108.0
364.343018 96.0
364.664093 132.0
364.691071 232.0
365.159882 136.0
365.338959 160.0
365.457764 108.0
365.511719 156.0
365.591919 112.0
366.385803 100.0
366.463623 108.0
370.314453 96.0
371.903381 96.0
372.018494 112.0
372.248291 120.0
372.39798 100.0
373.066315 132.0
374.802734 104.0
375.165558 136.0
375.484924 120.0
375.939728 120.0
377.136749 100.0
383.25943 156.0
384.036774 96.0
388.133636 140.0
393.492523 140.0
395.688995 156.0
408.694519 156.0
416.090881 184.0
436.492889 120.0
439.434631 100.0
451.403961 144.0
476.788818 172.0
486.810394 144.0
501.016418 112.0
541.761292 144.0
598.323242 96.0
629.99823 160.0
647.588867 144.0
937.223999 100.0
939.849304 96.0
946.859619 156.0
1029.34314 172.0
1047.577148 168.0
1081.538696 176.0
1089.420532 172.0
1109.104492 152.0
1121.494019 164.0
1134.850708 200.0
1144.081665 148.0
1147.079468 148.0
1181.906616 152.0
1184.295776 152.0
1186.241821 172.0
1188.925049 144.0
1189.795288 220.0
1191.354248 164.0
1192.756104 196.0
1199.674072 192.0
1206.729736 216.0
1228.944702 96.0
1234.599487 220.0
1263.99707 208.0
1268.770874 196.0
1275.910278 164.0
1277.356323 188.0
1301.009766 140.0
1309.451416 148.0
1311.317383 176.0
1315.493652 140.0
1321.607788 144.0
1330.856323 184.0
1335.034546 156.0
1335.354492 200.0
1336.773193 172.0
1337.661133 228.0
1343.410522 196.0
1347.623047 152.0
1348.682617 208.0
1350.473999 164.0
1353.8479 192.0
1359.209106 96.0
1361.768433 140.0
1374.666504 160.0
1381.582153 148.0
1386.40979 204.0
1389.108521 160.0
1395.62915 152.0
1396.246338 188.0
1396.506592 160.0
1404.058594 140.0
1405.214722 172.0
1411.406616 208.0
1414.331665 160.0
1422.922485 184.0
1425.123047 168.0
1430.161499 172.0
1433.791748 192.0
1435.789551 168.0
1437.637817 160.0
1438.339722 160.0
1441.035645 200.0
1442.373291 160.0
1450.040527 156.0
1450.366455 204.0
1453.64624 152.0
1454.40918 216.0
1454.644531 156.0
1455.75061 168.0
1457.241699 152.0
1461.005005 164.0
1467.028687 168.0
1468.157104 160.0
1469.575928 156.0
1470.34668 148.0
1470.552734 156.0
1471.193848 168.0
1476.175415 180.0
1478.126099 160.0
1483.211304 196.0
1489.157593 140.0
1489.280518 156.0
1493.300293 264.0
1498.257446 148.0
1500.507812 148.0
1501.402222 148.0
1502.088623 168.0
1504.697021 148.0
1505.654541 176.0
1507.037231 152.0
1507.485352 152.0
1509.10083 192.0
1510.469727 180.0
1514.572144 164.0
1517.174194 184.0
1521.015625 196.0
1521.504639 200.0
1523.00354 172.0
1525.132324 140.0
1528.608643 148.0
1529.098877 148.0
1529.394653 148.0
1529.744995 152.0
1533.335693 168.0
1539.018066 184.0
1539.44397 152.0
1540.07666 148.0
1541.193726 188.0
1544.985596 192.0
1546.863647 172.0
1548.821289 152.0
1550.497925 164.0
1551.610962 192.0
1552.050049 216.0
1554.261963 184.0
1557.164185 112.0
1559.279907 192.0
1560.286011 228.0
1560.569092 188.0
1562.213501 164.0
1563.322144 184.0
1564.612915 180.0
1564.723145 164.0
1565.668091 152.0
1569.497803 168.0
1570.057617 192.0
1572.328979 212.0
1573.22168 168.0
1573.837402 140.0
1575.424927 192.0
1581.379028 184.0
1583.350342 188.0
1586.18689 208.0
1586.939941 172.0
1591.208374 192.0
1592.439209 164.0
1593.344727 160.0
1602.988159 236.0
1607.788696 144.0
1611.150269 188.0
1614.035522 160.0
1616.363159 184.0
1616.907349 144.0
1617.851807 220.0
1618.067993 216.0
1618.764648 160.0
1620.386597 136.0
1623.380249 140.0
1627.633179 168.0
1629.882202 160.0
1630.557251 200.0
1635.213867 144.0
1637.427856 192.0
1637.70166 144.0
1638.225342 168.0
1638.974609 252.0
1640.965332 164.0
1641.588135 204.0
1642.763794 240.0
1643.271973 196.0
1644.216064 184.0
1650.9375 156.0
1652.409668 224.0
1656.07666 156.0
1662.919556 208.0
1664.348389 192.0
1667.744141 224.0
1668.857788 140.0
1670.512085 212.0
1671.102539 220.0
1671.317139 120.0
1671.664062 156.0
1671.91626 168.0
1672.274414 212.0
1682.626831 172.0
1685.706055 188.0
1686.27002 232.0
1687.602417 148.0
1688.109375 168.0
1688.7146 176.0
1690.987061 152.0
1692.102295 188.0
1696.173706 152.0
1696.231079 148.0
1696.73938 148.0
1698.256348 144.0
1699.158691 172.0
1700.643921 180.0
1706.714844 148.0
1709.717285 152.0
1709.955933 176.0
1710.318115 160.0
1711.509277 212.0
1712.170532 152.0
1712.854126 168.0
1718.088745 160.0
1719.121338 176.0
1722.571167 244.0
1723.802246 184.0
1724.645142 156.0
1729.458984 156.0
1729.78186 168.0
1730.195679 172.0
1732.732422 184.0
1734.320923 144.0
1734.403809 188.0
1735.022949 240.0
1737.828857 156.0
1738.517456 148.0
1738.915894 144.0
1740.526367 180.0
1741.996338 168.0
1744.605713 160.0
1747.350098 144.0
1748.997803 148.0
1749.771973 176.0
1751.487549 176.0
1752.661987 188.0
1753.878784 152.0
1755.546143 140.0
1757.698364 208.0
1757.822144 200.0
1760.319336 168.0
1761.606934 176.0
1762.240479 172.0
1764.30481 212.0
1769.15686 184.0
1770.999023 164.0
1772.858887 224.0
1774.174805 176.0
1776.67395 156.0
1776.967529 200.0
1777.227661 180.0
1779.888428 160.0
1780.92981 168.0
1781.425415 184.0
1781.685791 164.0
1782.139526 176.0
1783.786621 144.0
1783.963135 156.0
1784.148071 212.0
1784.879639 148.0
1785.535522 172.0
1787.966797 156.0
1789.204224 180.0
1789.322021 188.0
1789.566162 164.0
1790.578125 204.0
1791.491821 112.0
1792.518066 124.0
1796.873413 224.0
1797.961914 168.0
1802.015015 156.0
1802.910645 156.0
1804.220825 172.0
1804.499756 204.0
1806.013428 164.0
1806.368652 140.0
1806.986206 192.0
1807.087036 140.0
1807.942383 200.0
1808.974976 204.0
1810.761597 244.0
1811.473022 228.0
1812.879517 144.0
1813.489746 260.0
1814.756226 136.0
1814.905396 204.0
1819.467163 160.0
1824.567261 196.0
1824.754272 228.0
1826.02124 164.0
1827.43335 148.0
1828.046021 140.0
1828.709839 148.0
1829.024658 192.0
1830.335815 180.0
1833.973389 180.0
1834.160889 184.0
1837.512329 176.0
1837.634155 168.0
1840.456909 228.0
1841.661011 176.0
1843.070557 192.0
1843.882324 144.0
1846.55835 152.0
1847.849976 180.0
1848.123779 172.0
1848.217896 164.0
1851.068237 152.0
1851.18811 184.0
1851.599243 216.0
1851.770508 196.0
1852.046631 328.0
1854.72644 184.0
1857.195923 168.0
1858.502686 224.0
1859.718384 148.0
1860.070312 180.0
1860.551025 208.0
1860.903076 148.0
1861.942017 236.0
1862.027954 220.0
1862.422974 148.0
1863.213257 160.0
1864.433472 148.0
1865.009277 160.0
1865.447632 168.0
1870.643311 248.0
1875.096436 172.0
1879.718628 172.0
1881.617554 212.0
1883.36145 172.0
1884.424438 212.0
1886.662842 172.0
1893.132568 196.0
1895.880859 152.0
1902.359863 152.0
1903.332275 156.0
1904.548096 176.0
1904.964966 208.0
1905.625244 140.0
1906.954834 172.0
1907.519775 140.0
1909.28479 148.0
1910.484741 204.0
1913.966431 144.0
1917.189453 256.0
1917.337524 208.0
1917.912842 144.0
1920.685547 212.0
1921.732422 168.0
1922.500244 168.0
1923.023926 176.0
1925.992554 224.0
1926.208252 248.0
1927.66748 204.0
1928.438965 176.0
1929.82019 172.0
1930.956909 248.0
1931.487671 152.0
1931.726685 164.0
1934.798218 212.0
1935.060913 160.0
1935.148438 184.0
1935.454834 188.0
1937.58313 144.0
1937.951172 196.0
1938.555786 220.0
1939.265625 148.0
1939.440918 180.0
1941.553833 176.0
1943.650391 164.0
1944.282227 172.0
1945.774414 144.0
1946.020264 172.0
1947.881958 148.0
1949.718262 200.0
1952.056641 144.0
1952.637085 160.0
1956.094971 168.0
1958.19043 348.0
1960.260742 144.0
1960.569214 172.0
1961.759033 200.0
1963.293213 208.0
1964.307495 196.0
1968.782227 168.0
1969.639038 252.0
1970.186646 164.0
1972.015747 180.0
1972.714111 184.0
1973.094238 148.0
1973.191406 156.0
1973.438843 188.0
1974.093262 164.0
1976.69397 220.0
1977.118774 236.0
1979.827759 144.0
1980.297119 152.0
1980.376831 212.0
1982.467651 168.0
1983.176636 172.0
1986.634766 152.0
1986.696899 192.0
1986.918701 168.0
1987.27356 176.0
1990.335693 144.0
1991.330322 256.0
1991.72998 172.0
1992.53833 148.0
1993.453491 220.0
1994.306763 180.0
1997.632202 160.0
1997.792358 172.0
1999.643188 156.0
2001.183105 160.0
2001.984497 184.0
2002.705933 180.0
