>compound 2-O-rhamnosyl-swertisin
>formula C28H32O14
>ionization [M+H]+
>parentmass 593.1864821560905
#inchi InChI=1S/C28H32O14/c1-10-20(32)23(35)25(37)28(39-10)42-27-24(36)21(33)17(9-29)41-26(27)19-15(38-2)8-16-18(22(19)34)13(31)7-14(40-16)11-3-5-12(30)6-4-11/h3-8,10,17,20-21,23-30,32-37H,9H2,1-2H3/t10-,17-,20-,21-,23+,24+,25+,26+,27-,28+/m1/s1
#inchikey UINZSMIFSIQGBZ
#Ion_Source DI-ESI
#Instrument qTof
#Compound_Source Isolated
#PI Norberto Lopes
#Data_Collector Denise Silva
#Scan -1
#Precursor_MZ 593.17
#ExactMass 592.179
#Charge 1
#CAS_Number 83889-78-5
#Pubmed_ID  
#Smiles OC1=CC=C(C2=CC(C3=C(O)C([C@@H]4O[C@H](CO)[C@@H](O)[C@H](O)[C@H]4O[C@@H]5O[C@H](C)[C@@H](O)[C@H](O)[C@@H]5O)=C(OC)C=C3O2)=O)C=C1
#INCHI_AUX  
#Library_Class 3
#SpectrumID CCMSLIB00000078867
#IonMode Positive
#UpdateWorkflowName UPDATE-SINGLE-ANNOTATED-BRONZE
#LibraryQualityString Bronze
#TaskID 1d57a0825b7d4f0ca8a1e99f163f02fb
##Scan# 1
#SpectrumFile gnps_2-O-rhamnosyl-swertisin_pos_MSMS_593..mgf
#LibraryName gnps_library.mgf
#MQScore -1
#Organism gnps_library
#TIC_Query 0
#RT_Query -1
#MZErrorPPM -1
#SharedPeaks 0
#MassDiff 0
#LibMZ -1
#SpecMZ 593.17
#SpecCharge 0
#internalFilename spec-00000.mgf

>collision 10
129.050613 1118.0
147.061615 445.0
267.058044 336.0
285.069397 1247.0
290.563385 433.0
297.068115 11870.0
308.061798 264.0
309.067352 394.0
323.08429 1628.0
327.076477 50940.0
337.097443 981.0
351.075867 24527.0
363.077026 1119.0
365.092194 540.0
369.087708 180.0
375.075226 1166.0
381.0896 17126.0
393.088287 9323.0
411.096313 17270.0
429.1073 49725.0
435.574585 177.0
435.847504 177.0
447.11615 20865.0
453.66925 266.0
455.121033 368.0
473.132812 1017.0
557.158997 349.0
575.158447 842.0
593.17041 2006.0
