>compound Meloxicam
>formula C14H13N3O4S2 
>ionization [M+H]+
>parentmass 352.042542
#inchi InChI=1S/C14H13N3O4S2/c1-8-7-15-14(22-8)16-13(19)11-12(18)9-5-3-4-6-10(9)23(20,21)17(11)2/h3-7,18H,1-2H3,(H,15,16,19)
#inchikey ZRVUJXDFFKFLMG
#Ion_Source LC-ESI
#Instrument qTof
#Compound_Source Commercial
#PI Dorrestein
#Data_Collector Garg_Neha
#Scan -1
#Precursor_MZ 352.044
#ExactMass 351.035
#Charge 1
#CAS_Number N/A
#Pubmed_ID N/A
#Smiles N/A
#INCHI_AUX N/A
#Library_Class 1
#SpectrumID CCMSLIB00000077137
#IonMode Positive
#UpdateWorkflowName UPDATE-SINGLE-ANNOTATED-GOLD
#LibraryQualityString Gold
#TaskID 48f7f52fc6d249b5abbcc6e7b3df5969
##Scan# 1472
#SpectrumFile NCP003195_A2A7B2B6C2C6D2D6_BB6_01_15710.mzXML
#LibraryName NIH_Clinical_Collection_2.mgf
#MQScore -1
#Organism NIHcollection2_04212014_2_mgf
#TIC_Query 0
#RT_Query -1
#MZErrorPPM -1
#SharedPeaks 0
#MassDiff 0
#LibMZ -1
#SpecMZ 352.044
#SpecCharge 0
#internalFilename spec-00000.mgf

>collision 10
46.156677 172.0
46.693703 160.0
48.345547 192.0
51.693863 144.0
53.349709 188.0
53.887489 220.0
54.256306 212.0
55.386585 244.0
55.478458 164.0
55.77832 184.0
56.322201 148.0
56.873219 168.0
57.033939 140.0
57.243061 188.0
57.543118 180.0
58.498219 140.0
59.547157 208.0
61.780895 148.0
65.061638 152.0
67.08712 320.0
68.044174 152.0
68.201874 176.0
69.094009 176.0
69.433578 184.0
72.937912 232.0
73.600632 160.0
73.935684 192.0
74.144615 148.0
75.185089 164.0
81.231789 196.0
81.905869 148.0
83.536842 228.0
83.837265 160.0
84.211273 140.0
87.106682 172.0
88.352173 156.0
88.938705 152.0
88.991272 168.0
91.043869 188.0
96.985031 268.0
102.663765 160.0
103.443657 144.0
103.472 192.0
103.632004 160.0
103.702927 168.0
105.034897 256.0
105.169411 168.0
105.206154 156.0
105.852234 184.0
107.00618 152.0
107.957405 240.0
109.007736 132.0
112.434547 208.0
112.647804 196.0
113.016678 340.0
113.993179 144.0
114.025055 140.0
114.399414 140.0
114.879509 192.0
115.033073 39016.0
115.276009 188.0
116.035126 2040.0
117.030014 516.0
118.027489 144.0
118.726936 144.0
118.813698 152.0
119.833351 148.0
124.325859 152.0
127.028015 160.0
128.569092 160.0
131.549286 216.0
132.93399 156.0
134.688339 240.0
136.300781 228.0
137.004272 168.0
138.257278 176.0
138.793716 192.0
140.274857 140.0
141.01236 19436.0
141.129959 120.0
142.014557 1444.0
142.944061 152.0
143.008194 512.0
143.051254 116.0
143.124054 116.0
144.04216 192.0
146.056656 396.0
148.076874 216.0
148.408859 148.0
153.000031 976.0
154.005814 164.0
154.992889 192.0
156.063904 188.0
158.058121 228.0
164.019928 208.0
165.016678 148.0
168.59996 192.0
168.994675 596.0
176.015274 152.0
176.484344 184.0
180.007767 164.0
182.031509 260.0
184.05426 1744.0
184.186752 176.0
185.049423 172.0
185.084625 196.0
186.052536 220.0
188.148788 180.0
191.389526 160.0
194.028259 504.0
195.031052 156.0
196.025665 168.0
197.137604 156.0
200.0457 300.0
210.019348 544.0
211.029465 148.0
220.01207 168.0
245.580261 180.0
248.015961 156.0
257.422089 220.0
262.959991 148.0
265.008484 108.0
266.012299 164.0
268.961426 180.0
287.061707 180.0
288.60144 204.0
289.908051 148.0
298.947601 184.0
306.045288 164.0
311.745453 152.0
314.425415 164.0
331.19516 160.0
334.031189 780.0
335.039185 368.0
336.025757 164.0
337.007874 156.0
350.327545 156.0
350.972321 164.0
351.091644 176.0
351.121033 100.0
351.335632 236.0
351.590637 132.0
351.605438 100.0
351.944672 200.0
352.042542 36648.0
352.188507 148.0
352.548767 140.0
352.624115 100.0
352.655975 164.0
352.754242 96.0
353.04422 6856.0
354.039795 2280.0
354.234985 148.0
354.264587 96.0
355.040131 572.0
355.270599 140.0
355.372955 104.0
413.947205 164.0
1335.01062 144.0
1336.974731 164.0
1417.722778 176.0
1427.406494 192.0
1443.800659 172.0
1483.393921 160.0
1498.171509 160.0
1596.937256 164.0
1600.980225 184.0
1611.157837 160.0
1672.502441 168.0
1696.083862 168.0
1750.688599 148.0
1760.094727 148.0
1770.363525 188.0
1775.861328 152.0
1776.129639 188.0
1778.520996 216.0
1781.401245 156.0
1816.687744 140.0
1819.513794 224.0
1862.759766 172.0
1864.134521 140.0
1884.296875 156.0
1898.587769 236.0
1913.045776 156.0
1959.065308 180.0
1964.469116 188.0
1969.385742 148.0
