>compound MLS000069716-01!SULFABENZAMIDE
>formula C13H12N2O3S
>ionization [M+H]+
>parentmass 277.0641396960905
#inchi InChI=1S/C13H12N2O3S/c14-11-6-8-12(9-7-11)19(17,18)15-13(16)10-4-2-1-3-5-10/h1-9H,14H2,(H,15,16)
#inchikey PBCZLFBEBARBBI
#Ion_Source LC-ESI
#Instrument qTof
#Compound_Source NIH Pharmacologically Active Library
#PI Dorrestein
#Data_Collector VP/LMS
#Scan -1
#Precursor_MZ 277.067
#ExactMass 276.057
#Charge 1
#CAS_Number N/A
#Pubmed_ID N/A
#Smiles Nc1ccc(cc1)S(=O)(=O)NC(=O)c2ccccc2
#INCHI_AUX N/A
#Library_Class 1
#SpectrumID CCMSLIB00000085845
#IonMode Positive
#UpdateWorkflowName UPDATE-SINGLE-ANNOTATED-GOLD
#LibraryQualityString Gold
#TaskID d252d724072548979f1f6f1ced849daf
##Scan# 1607
#SpectrumFile p4-G03_GG3_01_18399.mzXML
#LibraryName Pharm_Active_Library.mgf
#MQScore -1
#Organism Pharm_Active_Library
#TIC_Query 0
#RT_Query -1
#MZErrorPPM -1
#SharedPeaks 0
#MassDiff 0
#LibMZ -1
#SpecMZ 277.067
#SpecCharge 0
#internalFilename spec-00000.mgf

>collision 10
45.978371 192.0
46.538818 112.0
46.90752 168.0
46.986618 176.0
47.32148 176.0
47.387226 172.0
47.619064 216.0
47.934116 212.0
48.323513 192.0
48.955112 132.0
49.344433 92.0
49.495548 40.0
49.731079 152.0
49.839218 132.0
50.041767 144.0
50.455166 204.0
50.719894 204.0
51.023697 60.0
51.207268 176.0
51.910431 180.0
52.176136 252.0
52.189011 84.0
53.104622 124.0
54.541462 196.0
54.973011 132.0
55.012863 168.0
55.032055 228.0
55.275955 184.0
55.349972 136.0
55.48777 132.0
56.066021 188.0
56.460163 164.0
56.771675 132.0
57.004368 204.0
57.037434 156.0
57.222477 104.0
57.288746 112.0
58.37553 176.0
58.395302 156.0
58.681599 156.0
59.92466 136.0
60.316662 136.0
60.888416 192.0
61.056267 132.0
61.420742 120.0
61.639324 116.0
61.701847 124.0
63.07272 192.0
63.386093 200.0
63.926022 200.0
64.385162 288.0
64.741814 188.0
65.011147 128.0
65.325302 180.0
65.701447 184.0
65.725647 120.0
66.119965 256.0
67.053864 144.0
67.231636 120.0
67.32959 152.0
68.158531 220.0
68.239075 228.0
68.262093 132.0
68.502403 112.0
68.545242 112.0
69.593979 48.0
69.658752 196.0
69.800026 148.0
70.475128 192.0
70.602173 88.0
70.67411 84.0
71.321472 176.0
71.649628 120.0
71.884003 228.0
72.218529 224.0
72.543655 148.0
73.346024 188.0
73.79332 176.0
74.865814 160.0
75.141617 100.0
75.954727 168.0
76.149132 176.0
76.33683 156.0
76.390747 188.0
77.041016 148.0
77.072464 172.0
77.471382 124.0
78.05938 160.0
78.268784 148.0
78.858025 196.0
78.872169 48.0
79.842049 236.0
80.182098 184.0
80.670227 56.0
80.866165 104.0
80.882278 64.0
80.918083 132.0
81.226334 224.0
81.55674 168.0
81.781578 204.0
82.504959 152.0
82.789047 248.0
82.823463 204.0
83.875587 188.0
84.191238 128.0
85.204208 220.0
85.937004 152.0
86.125313 188.0
86.417412 196.0
86.513649 256.0
86.984528 168.0
87.443649 116.0
87.665276 164.0
88.890182 192.0
89.213242 156.0
89.363708 112.0
91.837921 196.0
92.049477 3880.0
92.412956 104.0
92.439743 32.0
92.48185 52.0
92.642708 68.0
93.404823 228.0
93.81501 92.0
93.863213 44.0
94.042633 48.0
95.039314 120.0
96.334053 60.0
96.406349 120.0
96.791733 184.0
97.060188 156.0
98.647118 152.0
99.439453 180.0
99.930305 228.0
100.045746 212.0
100.189133 156.0
100.931633 136.0
100.977631 176.0
101.20977 188.0
101.458221 168.0
101.636734 176.0
102.068611 120.0
102.434914 224.0
102.515511 136.0
103.060356 208.0
104.046745 208.0
104.294586 152.0
104.524406 128.0
104.552895 128.0
104.57325 220.0
104.717812 140.0
104.819672 200.0
105.031937 108.0
105.896339 176.0
105.910675 88.0
106.033615 172.0
106.450081 216.0
106.711044 96.0
106.789192 164.0
106.9394 172.0
107.058807 116.0
107.359703 184.0
107.495857 124.0
107.535072 196.0
107.627968 188.0
107.712646 192.0
107.803558 148.0
107.931725 172.0
107.956337 204.0
108.044601 23408.0
108.095146 36.0
108.117912 32.0
108.138603 44.0
108.170349 48.0
108.218796 76.0
108.256615 36.0
108.277328 92.0
108.343613 72.0
108.546745 80.0
108.621407 76.0
108.685722 48.0
109.046844 1584.0
109.082413 148.0
109.211342 52.0
109.265427 88.0
109.406952 92.0
109.502739 76.0
109.669426 52.0
109.769501 72.0
109.959351 88.0
110.205772 40.0
110.655472 60.0
111.292885 64.0
111.68589 52.0
112.431763 120.0
113.553101 84.0
115.499954 112.0
116.737503 80.0
118.657867 156.0
121.056252 200.0
122.056519 196.0
123.178764 72.0
125.208336 48.0
126.917923 192.0
127.395988 132.0
128.634583 244.0
135.925003 200.0
137.568237 148.0
139.613815 176.0
140.718994 232.0
143.456894 116.0
144.082169 72.0
145.075363 144.0
145.320007 200.0
146.071976 128.0
147.255508 204.0
149.320557 120.0
149.602814 204.0
150.131561 160.0
153.395142 144.0
154.071335 104.0
154.838165 120.0
155.641663 180.0
155.723618 192.0
155.954697 216.0
156.010544 5432.0
156.059097 40.0
156.691299 64.0
156.731171 44.0
156.962997 156.0
157.014023 540.0
157.609512 56.0
157.749481 44.0
158.005051 372.0
158.092148 128.0
158.630661 64.0
161.046387 128.0
161.079224 204.0
162.98703 112.0
166.135208 40.0
170.08876 176.0
174.016998 172.0
198.933426 140.0
198.961502 148.0
203.944763 156.0
212.950302 76.0
216.948105 40.0
226.541702 140.0
230.873154 88.0
230.988098 176.0
231.112137 212.0
234.001724 168.0
234.950424 192.0
242.986053 60.0
245.11911 148.0
247.862778 36.0
248.099777 156.0
259.137482 132.0
262.11618 156.0
278.137268 180.0
317.762756 60.0
355.362091 52.0
358.343719 100.0
359.17688 148.0
362.439636 48.0
426.920441 20.0
497.866882 80.0
812.712769 104.0
813.314331 172.0
840.967834 152.0
846.622314 160.0
874.166626 132.0
878.815918 172.0
879.819275 176.0
883.885803 76.0
903.383728 200.0
910.036438 164.0
935.581726 212.0
937.006836 136.0
937.805176 184.0
941.276611 244.0
942.669434 256.0
948.539062 84.0
957.214478 216.0
975.771545 160.0
983.808533 156.0
990.042664 160.0
990.111572 152.0
995.2099 180.0
998.546875 120.0
1003.395752 116.0
1003.906494 160.0
1006.165466 184.0
1011.393555 72.0
1035.635132 216.0
1042.564453 148.0
1053.983765 128.0
1056.854736 164.0
1057.773804 192.0
1060.258057 184.0
1062.932861 136.0
1063.023804 92.0
1063.380737 136.0
1074.821777 240.0
1079.211304 200.0
1081.147583 172.0
1083.36084 152.0
1085.163208 240.0
1088.214233 180.0
1099.51709 168.0
1099.985718 172.0
1102.515503 148.0
1103.10376 148.0
1112.637085 156.0
1114.576538 200.0
1116.837036 128.0
1121.151489 160.0
1128.862183 148.0
1135.029785 188.0
1135.090088 112.0
1140.562012 164.0
1143.696533 108.0
1146.356934 212.0
1149.769409 196.0
1155.865112 112.0
1158.410889 176.0
1158.661621 172.0
1160.430542 224.0
1160.857788 200.0
1167.948486 256.0
1174.740112 136.0
1185.756104 172.0
1187.970947 60.0
1205.936768 220.0
1206.047363 172.0
1217.160156 88.0
1217.951904 264.0
1218.09082 184.0
1220.099243 244.0
1228.121582 184.0
1237.948364 96.0
1238.830933 156.0
1242.925537 104.0
1244.224121 132.0
1246.82312 216.0
1248.510498 248.0
1251.916748 40.0
1253.988159 184.0
1258.460693 156.0
1261.131104 208.0
1263.436523 124.0
1269.925293 232.0
1273.062378 176.0
1275.030273 236.0
1275.805176 184.0
1276.985596 212.0
1277.362549 172.0
1280.672607 180.0
1282.22583 96.0
1283.095459 196.0
1289.177124 188.0
1298.871704 160.0
1303.502686 136.0
1305.551514 104.0
1308.422607 176.0
1309.077881 156.0
1309.473999 212.0
1310.893311 156.0
1314.614502 192.0
1314.787598 152.0
1315.177368 224.0
1316.202637 156.0
1317.481079 196.0
1317.647217 160.0
1321.558838 108.0
1321.826538 152.0
1323.78833 212.0
1331.671997 136.0
1331.947998 64.0
1333.350342 144.0
1333.786377 160.0
1334.433472 164.0
1338.544678 176.0
1340.861328 144.0
1347.246338 224.0
1348.612793 184.0
1350.433472 164.0
1351.743042 200.0
1353.280273 120.0
1354.261597 176.0
1354.90625 168.0
1359.063477 224.0
1362.433594 176.0
1363.366821 240.0
1365.248901 108.0
1371.897949 28.0
1377.743042 204.0
1382.164551 156.0
1387.87561 152.0
1394.869385 196.0
1397.487305 156.0
1397.993286 196.0
1398.216553 88.0
1399.17688 132.0
1401.605103 160.0
1402.745361 140.0
1404.415771 244.0
1406.03479 212.0
1418.826172 156.0
1420.821167 204.0
1421.316406 252.0
1423.523438 188.0
1435.647217 240.0
1436.906982 156.0
1439.58667 176.0
1439.745239 184.0
1439.873657 220.0
1442.903809 168.0
1452.63562 212.0
1454.244263 132.0
1454.578247 152.0
1455.884277 144.0
1459.889282 140.0
1462.27832 160.0
1472.502808 80.0
1475.452393 184.0
1475.5354 136.0
1475.781128 104.0
1482.28772 152.0
1490.106689 76.0
1493.550781 120.0
1494.843384 160.0
1495.836304 124.0
1497.152954 184.0
1498.462402 120.0
1504.848877 228.0
1505.435669 64.0
