>compound MLS001141067-01!1-[(2S)-2-amino-4-methylsulfanylbutanoyl]-N-[(2R)-1-[(4-methoxyphenyl)methylamino]-1-oxopropan-2-yl]piperidine-4-carboxamide
>formula C22H34N4O4S
>ionization [M+H]+
>parentmass 451.236847
#inchi InChI=1S/C22H34N4O4S/c1-15(20(27)24-14-16-4-6-18(30-2)7-5-16)25-21(28)17-8-11-26(12-9-17)22(29)19(23)10-13-31-3/h4-7,15,17,19H,8-14,23H2,1-3H3,(H,24,27)(H,25,28)/t15-,19+/m1/s1
#inchikey PDZYFGNOSMRVJC
#Ion_Source LC-ESI
#Instrument qTof
#Compound_Source NIH Natural Product Library
#PI Dorrestein
#Data_Collector VVP/LMS
#Scan -1
#Precursor_MZ 451.238
#ExactMass 450.23
#Charge 1
#CAS_Number N/A
#Pubmed_ID N/A
#Smiles COc1ccc(CNC(=O)[C@@H](C)NC(=O)C2CCN(CC2)C(=O)[C@@H](N)CCSC)cc1
#INCHI_AUX N/A
#Library_Class 1
#SpectrumID CCMSLIB00000080563
#IonMode Positive
#UpdateWorkflowName UPDATE-SINGLE-ANNOTATED-GOLD
#LibraryQualityString Gold
#TaskID b1d8e8f6646f4e71acdff9ca3d919d08
##Scan# 1443
#SpectrumFile p2-F10_GF10_01_18046.mzXML
#LibraryName NIH_Natural_Products_Library.mgf
#MQScore -1
#Organism NIH_Natural_Products_Library
#TIC_Query 0
#RT_Query -1
#MZErrorPPM -1
#SharedPeaks 0
#MassDiff 0
#LibMZ -1
#SpecMZ 451.238
#SpecCharge 0
#internalFilename spec-00000.mgf

>collision 10
94.953766 156.0
94.984802 176.0
95.044945 116.0
95.069412 296.0
95.196358 204.0
95.215775 200.0
95.435364 176.0
95.577354 164.0
95.629898 84.0
95.643524 220.0
95.66494 148.0
95.873352 152.0
96.011772 140.0
96.079376 164.0
96.165901 200.0
96.397621 252.0
96.474533 84.0
96.537102 124.0
96.570351 188.0
97.042297 160.0
97.077774 176.0
97.297356 152.0
97.336624 180.0
97.483955 216.0
97.682816 140.0
97.723846 244.0
97.806503 248.0
97.851784 156.0
97.954193 120.0
98.011322 168.0
98.025116 76.0
98.056648 172.0
98.088188 132.0
98.119728 184.0
98.17691 76.0
98.378174 140.0
98.437401 196.0
98.506531 124.0
98.579636 188.0
98.805046 176.0
98.866386 88.0
98.886177 148.0
98.92775 196.0
98.967346 160.0
99.030716 120.0
99.221062 144.0
99.363747 144.0
99.445107 188.0
99.53643 180.0
99.842468 212.0
99.945908 136.0
99.988983 124.0
100.057587 180.0
100.087234 124.0
100.119095 132.0
100.439987 184.0
100.561699 244.0
100.667511 176.0
100.747406 68.0
100.82534 148.0
100.919289 144.0
101.069305 136.0
101.109329 224.0
101.199409 180.0
101.247467 124.0
101.26149 72.0
101.411758 184.0
101.528046 148.0
101.560135 136.0
101.628342 148.0
101.680405 144.0
101.734711 136.0
101.774872 200.0
101.829224 148.0
101.885338 116.0
102.038078 112.0
102.207031 92.0
102.229164 224.0
102.470795 136.0
102.496986 172.0
102.517143 144.0
102.591721 164.0
102.664307 228.0
102.785339 40.0
102.815613 48.0
102.866074 128.0
102.882645 76.0
103.04985 232.0
103.161011 156.0
103.346214 168.0
103.454826 84.0
103.559639 248.0
103.600151 184.0
103.75386 212.0
103.879906 76.0
104.05217 3812.0
104.082336 168.0
104.137695 48.0
104.220993 128.0
104.283989 36.0
104.408012 72.0
104.471062 116.0
104.617592 140.0
104.806999 220.0
104.866104 136.0
104.886482 140.0
104.959877 144.0
105.053841 352.0
105.155724 244.0
105.207672 204.0
105.292519 104.0
105.586815 200.0
105.664551 140.0
105.703423 104.0
105.734482 240.0
105.764824 236.0
105.813957 164.0
105.83033 224.0
106.000351 148.0
106.042328 372.0
106.281273 148.0
106.307945 128.0
106.340782 60.0
106.388168 144.0
106.712608 96.0
107.048004 36.0
107.103615 176.0
107.241669 48.0
107.268463 160.0
107.406624 200.0
107.433746 136.0
107.532486 168.0
107.551064 188.0
107.597488 180.0
107.852631 148.0
107.953941 152.0
108.047997 144.0
108.063576 220.0
108.341003 144.0
108.421814 144.0
108.548355 204.0
108.571083 140.0
108.793098 164.0
108.861618 200.0
108.88446 28.0
109.015343 124.0
109.083931 156.0
109.167099 204.0
109.34185 136.0
109.379318 48.0
109.468842 124.0
109.589661 128.0
109.816887 76.0
109.860695 272.0
109.897247 152.0
110.060402 344.0
110.084183 160.0
110.146683 48.0
110.249062 176.0
110.315948 244.0
110.464424 204.0
110.756172 160.0
111.063515 208.0
111.118057 220.0
111.151627 168.0
111.264969 184.0
111.327957 40.0
111.365768 224.0
111.405586 192.0
111.432991 152.0
111.595695 232.0
111.620293 108.0
111.638985 52.0
111.758888 48.0
111.826012 156.0
111.88546 372.0
111.931488 160.0
111.95887 136.0
111.994675 152.0
112.035385 244.0
112.075684 45584.0
112.135399 96.0
112.185265 64.0
112.260223 76.0
112.277657 60.0
112.302078 208.0
112.329826 56.0
112.380463 80.0
112.407539 48.0
112.424316 152.0
112.539818 48.0
112.568176 56.0
112.57515 52.0
112.683174 140.0
112.723694 224.0
112.736931 64.0
112.742699 140.0
112.762688 100.0
112.837883 84.0
113.078285 3704.0
113.107452 220.0
113.134056 184.0
113.185791 132.0
113.223907 108.0
113.287453 72.0
113.376442 52.0
113.40612 108.0
113.442154 152.0
113.465469 56.0
113.500687 92.0
113.52272 96.0
113.558777 44.0
113.617653 148.0
113.65287 68.0
113.676064 56.0
113.698807 108.0
113.748222 128.0
113.791496 152.0
113.836647 56.0
113.867325 96.0
113.903946 96.0
113.926964 124.0
113.952583 172.0
114.000366 176.0
114.035751 148.0
114.075775 276.0
114.106071 148.0
114.185326 144.0
114.229996 32.0
114.245949 136.0
114.330002 36.0
114.498184 204.0
114.57061 148.0
114.74324 100.0
114.788017 124.0
114.860527 172.0
115.019676 260.0
115.110237 44.0
115.261902 188.0
115.328156 96.0
115.424355 188.0
115.473549 228.0
115.699295 96.0
116.004578 272.0
116.079613 32.0
116.161118 176.0
116.528229 48.0
116.776337 144.0
116.880852 128.0
117.043129 248.0
117.362724 152.0
117.443146 60.0
117.652458 204.0
117.676208 116.0
117.764748 132.0
117.807953 148.0
117.838196 60.0
117.898705 140.0
117.987328 64.0
118.071655 156.0
118.112755 140.0
118.188469 200.0
118.233917 172.0
118.415779 84.0
118.76474 188.0
118.966545 180.0
119.042542 164.0
119.117027 48.0
119.140282 124.0
119.16201 148.0
119.185913 164.0
119.216331 56.0
119.272842 176.0
119.296753 280.0
119.485962 48.0
119.507713 120.0
119.538177 40.0
119.555588 120.0
119.670959 44.0
119.712334 120.0
119.85392 132.0
120.063194 208.0
120.287933 92.0
120.322861 168.0
120.488846 168.0
120.539101 172.0
120.569695 192.0
120.683365 128.0
120.709602 204.0
120.810219 132.0
120.835091 212.0
120.865913 236.0
120.886269 184.0
120.925331 348.0
120.965591 248.0
120.988846 128.0
121.012848 324.0
121.032249 432.0
121.065369 91764.0
121.121353 36.0
121.145348 164.0
121.166443 56.0
121.19471 140.0
121.224228 92.0
121.249802 132.0
121.279068 116.0
121.293694 104.0
121.310516 132.0
121.348976 160.0
121.378517 68.0
121.401749 88.0
121.425362 1336.0
121.477608 92.0
121.496773 72.0
121.516228 172.0
121.532242 72.0
121.541267 48.0
121.577385 32.0
121.605301 52.0
121.636436 80.0
121.680275 88.0
121.719795 36.0
121.745697 116.0
121.801849 100.0
121.83181 56.0
121.857468 148.0
121.90094 136.0
121.937286 164.0
121.965858 164.0
122.00045 76.0
122.068054 10860.0
122.10878 104.0
122.133308 52.0
122.185318 108.0
122.209969 68.0
122.225372 88.0
122.278191 84.0
122.309006 136.0
122.346024 44.0
122.399269 84.0
122.438026 100.0
122.456528 40.0
122.480629 68.0
122.555008 108.0
122.631187 96.0
122.648224 88.0
122.66642 140.0
122.698502 88.0
122.742142 100.0
122.773895 68.0
122.804291 92.0
122.87632 92.0
122.918533 84.0
122.932732 132.0
122.957664 148.0
122.988701 176.0
123.021019 92.0
123.036476 72.0
123.070663 1112.0
123.096085 36.0
123.113754 108.0
123.143532 116.0
123.175598 80.0
123.250717 32.0
123.341324 148.0
123.436394 52.0
123.498322 68.0
123.639915 184.0
123.766098 60.0
123.832535 80.0
123.904144 220.0
123.938873 108.0
124.008377 168.0
124.071854 136.0
124.115318 192.0
124.36689 40.0
124.568954 60.0
124.608948 148.0
124.624496 96.0
124.760071 56.0
124.813431 152.0
124.962456 68.0
125.162781 100.0
125.200638 48.0
125.369957 164.0
125.590675 100.0
126.055054 156.0
126.084106 180.0
126.314407 172.0
126.341248 208.0
126.614334 52.0
127.031235 104.0
127.085274 184.0
127.208519 224.0
127.491524 36.0
127.579185 196.0
127.741104 84.0
127.93013 108.0
128.044968 172.0
128.159851 212.0
128.41008 88.0
128.592834 84.0
128.639694 100.0
128.750885 144.0
129.09845 180.0
129.286682 204.0
129.547058 88.0
129.816788 100.0
130.066132 336.0
130.087524 260.0
130.157166 88.0
130.402527 56.0
130.538925 176.0
131.098938 72.0
131.165039 76.0
131.657867 188.0
131.778931 144.0
132.055389 124.0
132.078415 108.0
132.414871 144.0
132.471512 132.0
132.646301 52.0
133.001846 96.0
133.075302 304.0
133.13501 128.0
134.06546 160.0
134.643494 160.0
134.99939 76.0
135.045639 224.0
135.07872 524.0
136.08255 212.0
136.50441 168.0
136.902344 116.0
136.951248 148.0
137.058411 200.0
137.077057 136.0
137.107346 208.0
138.029465 244.0
138.090088 296.0
138.115997 128.0
138.371078 80.0
138.389801 44.0
138.408539 132.0
138.670914 40.0
138.870209 56.0
139.085907 92.0
140.036011 44.0
140.074432 396.0
141.048248 176.0
141.074249 232.0
141.173569 32.0
142.08075 172.0
142.111588 120.0
142.976562 80.0
143.49585 164.0
143.519699 104.0
144.719177 156.0
144.757492 164.0
144.874847 144.0
145.563217 36.0
147.019638 68.0
147.099289 140.0
147.159653 132.0
147.212769 164.0
147.814697 220.0
147.918762 220.0
148.078583 164.0
148.306335 156.0
148.405731 140.0
148.53183 148.0
149.00766 92.0
149.104858 152.0
149.243332 120.0
149.832413 120.0
149.993256 228.0
150.085907 104.0
150.229797 112.0
150.537338 124.0
150.764526 144.0
151.084839 132.0
151.319794 164.0
151.44223 100.0
152.099365 216.0
152.5784 144.0
153.100983 632.0
153.637405 92.0
153.773117 148.0
153.985443 128.0
154.390762 124.0
154.913025 72.0
155.036911 168.0
155.116974 6632.0
155.156616 176.0
155.198044 72.0
155.304672 36.0
155.368134 72.0
155.470901 32.0
155.518066 120.0
155.706757 44.0
156.11998 1100.0
156.956024 68.0
157.188004 148.0
157.232925 176.0
157.360229 44.0
157.637497 44.0
157.742462 184.0
158.061829 224.0
159.957489 156.0
160.867508 220.0
161.02153 156.0
162.669907 80.0
162.710526 104.0
164.074188 120.0
165.101257 380.0
165.763702 216.0
165.850845 116.0
166.055954 172.0
166.087738 500.0
166.430634 136.0
166.784775 132.0
166.949707 176.0
167.080719 1008.0
167.118134 944.0
167.190155 60.0
167.317657 76.0
167.351135 132.0
167.575211 116.0
167.667984 72.0
168.085754 136.0
168.123001 136.0
168.289673 164.0
168.785782 28.0
168.88147 160.0
169.085861 152.0
169.3629 48.0
169.386215 208.0
169.868362 84.0
169.951385 164.0
170.564285 180.0
171.785583 144.0
174.293777 104.0
174.677628 96.0
175.088226 144.0
175.127731 164.0
175.472946 180.0
175.501953 88.0
175.736694 160.0
176.167038 180.0
176.484192 220.0
176.513275 68.0
176.791046 200.0
177.10614 320.0
178.090149 228.0
178.472839 120.0
178.560593 160.0
179.29007 120.0
180.879288 196.0
181.066574 168.0
181.097397 588.0
181.685898 68.0
182.083176 116.0
182.126663 160.0
182.341095 176.0
182.38678 136.0
182.440552 156.0
182.497009 156.0
182.652985 288.0
182.720245 184.0
182.744461 132.0
182.951691 172.0
182.997467 148.0
183.051971 388.0
183.112625 7964.0
183.173248 160.0
183.40155 84.0
183.4366 72.0
183.474335 48.0
183.671188 44.0
183.706268 68.0
183.81958 124.0
183.968033 56.0
184.05983 52.0
184.081436 148.0
184.114502 812.0
184.144974 140.0
184.224579 60.0
184.262405 108.0
184.462387 76.0
185.07634 228.0
185.117477 144.0
185.360947 108.0
185.404297 160.0
186.851608 48.0
187.518753 132.0
187.603256 156.0
187.671417 68.0
189.078247 148.0
190.243195 36.0
190.509567 188.0
191.260284 52.0
191.392441 148.0
192.608658 68.0
193.14325 120.0
193.590515 172.0
193.6819 48.0
193.825974 204.0
193.900787 92.0
194.128479 360.0
194.955399 92.0
195.111588 684.0
195.400299 48.0
195.519943 184.0
196.116226 176.0
196.141068 100.0
196.562195 188.0
198.027115 80.0
198.121048 588.0
199.129089 388.0
200.14357 192.0
202.131104 132.0
203.106384 236.0
203.333374 204.0
205.664429 208.0
205.818588 32.0
206.284286 124.0
206.498734 176.0
206.647491 40.0
206.910797 164.0
206.956619 140.0
207.082611 184.0
207.117325 240.0
207.208664 184.0
207.627167 92.0
207.73616 152.0
208.396484 124.0
208.53154 52.0
208.557419 72.0
209.047379 188.0
209.127045 1600.0
209.19313 40.0
210.12294 812.0
210.349091 48.0
210.401047 44.0
210.490555 40.0
211.111847 164.0
211.621124 120.0
211.780411 88.0
211.893387 144.0
212.139114 732.0
213.125168 140.0
213.923386 148.0
214.080627 136.0
214.56723 156.0
214.704269 204.0
215.524567 68.0
216.311279 88.0
218.577057 152.0
220.145844 176.0
221.113602 204.0
221.147552 112.0
222.158005 132.0
222.398361 180.0
224.454102 276.0
224.716583 40.0
225.370468 88.0
226.08873 104.0
227.860306 148.0
229.120895 164.0
230.152405 96.0
230.874619 96.0
230.989548 68.0
231.137802 116.0
231.894913 112.0
234.079239 132.0
237.069916 112.0
237.117935 204.0
237.281418 108.0
237.407135 68.0
237.61879 64.0
238.119522 260.0
238.154831 5088.0
238.29425 116.0
238.392578 44.0
238.506287 64.0
238.699982 112.0
238.909119 36.0
239.122803 188.0
239.155701 1228.0
240.971664 56.0
241.487915 216.0
242.088318 76.0
242.133698 196.0
242.463165 148.0
242.878647 172.0
243.119415 180.0
243.862915 60.0
244.114746 168.0
244.369812 284.0
244.99559 96.0
247.162399 180.0
248.139633 112.0
250.625824 60.0
251.098679 168.0
254.99614 216.0
255.403107 76.0
255.947327 112.0
256.112915 56.0
256.80777 184.0
259.686401 96.0
261.129852 428.0
264.335266 180.0
264.850006 148.0
265.741516 148.0
266.147369 496.0
266.42981 104.0
267.151215 164.0
268.865417 60.0
269.150665 212.0
271.850037 76.0
273.078735 156.0
273.407745 120.0
280.205933 96.0
280.929382 76.0
282.385742 228.0
283.173401 800.0
284.176697 584.0
284.533722 64.0
285.091309 124.0
285.182037 156.0
285.319885 156.0
285.484619 172.0
286.156738 580.0
286.278839 144.0
287.003326 36.0
287.161835 112.0
287.934723 164.0
288.164764 184.0
289.168762 172.0
289.34137 36.0
291.661743 76.0
291.903137 204.0
294.797302 64.0
297.039886 88.0
297.128052 344.0
298.128296 128.0
299.111969 168.0
299.56308 148.0
299.762909 96.0
301.14978 132.0
301.488373 116.0
302.183411 168.0
303.177185 112.0
303.298492 68.0
304.176086 124.0
305.952515 64.0
306.074371 180.0
308.331421 96.0
308.495697 156.0
308.712463 124.0
309.412262 40.0
312.124481 152.0
314.151733 1276.0
314.516602 84.0
314.799072 48.0
315.144745 216.0
315.703735 32.0
316.039795 172.0
316.14328 160.0
318.042084 44.0
318.165558 164.0
318.734619 152.0
319.385223 212.0
319.708984 124.0
319.876251 124.0
320.025787 36.0
320.146851 104.0
320.197601 9912.0
320.449646 56.0
320.558746 84.0
320.595734 64.0
320.657928 48.0
320.770386 36.0
320.973602 96.0
321.009247 52.0
321.198761 2144.0
321.333832 52.0
321.505127 52.0
321.801392 124.0
321.926361 52.0
322.065674 52.0
322.196472 200.0
322.272858 184.0
322.40509 40.0
322.787598 44.0
322.819763 160.0
322.873413 60.0
322.980713 68.0
323.164581 68.0
323.22757 112.0
323.453033 44.0
323.929291 48.0
324.181763 64.0
325.090973 64.0
328.390045 48.0
330.015106 108.0
332.201752 188.0
342.106262 140.0
343.174683 196.0
343.51767 248.0
347.876953 72.0
350.197235 88.0
351.886536 100.0
358.212799 200.0
358.333801 180.0
358.997223 128.0
359.209473 212.0
359.574432 56.0
360.212921 124.0
367.204285 124.0
368.17749 184.0
385.223053 420.0
385.254944 216.0
386.203033 160.0
387.226379 116.0
387.289062 160.0
387.810181 104.0
391.90506 36.0
391.972046 136.0
392.196686 60.0
392.650116 192.0
393.202454 148.0
393.344543 96.0
393.636719 44.0
395.688843 80.0
398.230713 72.0
399.817047 92.0
403.179016 108.0
403.23349 3508.0
403.462799 76.0
403.514771 32.0
403.918671 180.0
404.181396 156.0
404.235565 1476.0
404.322784 40.0
404.386841 88.0
404.458862 60.0
404.498901 48.0
404.55896 44.0
404.727112 40.0
404.931335 48.0
405.063507 68.0
405.24411 316.0
406.234039 92.0
406.410583 116.0
406.940369 108.0
407.675476 52.0
408.725006 88.0
410.09021 56.0
413.219849 100.0
414.91275 76.0
418.944214 28.0
431.800568 56.0
433.199615 136.0
433.261749 208.0
434.20813 268.0
435.219391 120.0
446.838989 32.0
449.016785 60.0
449.257233 156.0
450.8237 84.0
451.236847 792.0
452.234894 316.0
452.301697 132.0
452.392883 96.0
453.237244 244.0
453.367096 80.0
453.468811 56.0
455.836884 100.0
458.113129 100.0
458.436951 44.0
474.712952 152.0
488.924347 84.0
489.258881 48.0
496.261597 64.0
503.055145 64.0
505.244904 100.0
513.370361 88.0
549.824219 112.0
568.375244 44.0
584.09845 120.0
620.642883 76.0
636.028809 132.0
638.324768 80.0
653.443542 68.0
669.588806 88.0
681.949219 36.0
686.885376 140.0
687.741089 68.0
701.726807 180.0
741.29541 52.0
755.703308 72.0
758.55658 72.0
762.904297 152.0
788.658875 172.0
803.455688 100.0
804.076355 48.0
816.364258 92.0
825.945923 136.0
826.031738 76.0
831.067505 52.0
839.713684 152.0
840.734802 80.0
840.856018 148.0
841.59491 68.0
858.206848 40.0
862.573669 32.0
872.704224 240.0
873.780518 64.0
875.711304 48.0
879.974792 144.0
886.398315 88.0
889.547668 68.0
893.196167 60.0
928.441772 172.0
930.092041 204.0
936.561646 152.0
940.573792 180.0
942.961975 176.0
944.869812 36.0
946.828613 40.0
952.790771 144.0
954.597778 140.0
956.20343 208.0
957.089905 212.0
961.287659 200.0
962.973083 204.0
967.53656 212.0
968.112366 168.0
969.853333 108.0
978.232849 224.0
984.761292 192.0
990.465637 132.0
997.663269 124.0
1001.841858 212.0
1006.14917 160.0
1007.203735 188.0
1008.107239 128.0
1013.327393 140.0
1013.929382 228.0
1019.692078 180.0
1022.872314 180.0
1023.712708 168.0
1024.6427 168.0
1026.822754 148.0
1028.922119 124.0
1029.752197 72.0
1029.937378 192.0
1030.97876 192.0
1033.690186 152.0
1034.298218 128.0
1037.982056 76.0
1038.084595 164.0
1038.443726 164.0
1042.475464 120.0
1046.141602 156.0
1048.795532 164.0
1048.911499 116.0
1049.524048 232.0
1051.117188 200.0
1052.195068 40.0
1052.414673 176.0
1059.179199 108.0
1059.438232 156.0
1060.617676 192.0
1061.635498 164.0
1062.997803 144.0
1063.263916 100.0
1064.010376 140.0
1064.289551 44.0
1064.71814 164.0
1069.626953 68.0
1073.963257 164.0
1076.988647 192.0
1079.812134 120.0
1080.27002 212.0
1080.649536 136.0
1080.734497 196.0
1082.141724 96.0
1085.142456 168.0
1087.438354 200.0
1088.318115 200.0
1088.449341 176.0
1095.229736 148.0
1095.671143 132.0
1098.466309 236.0
1103.346436 44.0
1104.278809 136.0
1105.145386 208.0
1105.867432 160.0
1107.356445 132.0
1109.715576 136.0
1109.80835 124.0
1112.581543 108.0
1115.311768 88.0
1118.597778 172.0
1119.483276 152.0
1121.075439 76.0
1121.208618 152.0
1121.448608 176.0
1122.095215 164.0
1123.669189 164.0
1130.397583 152.0
1130.631836 132.0
1130.75415 128.0
1133.0625 236.0
1133.531494 112.0
1133.611938 148.0
1133.779419 128.0
1135.106812 132.0
1138.99939 144.0
1142.494873 144.0
1145.221069 192.0
1145.638672 212.0
1145.827393 124.0
1145.874512 132.0
1146.319214 144.0
1148.355225 148.0
1150.136475 152.0
1150.635986 152.0
1151.588135 144.0
1153.966797 220.0
1156.740479 104.0
1157.166992 124.0
1157.424316 100.0
1158.074463 148.0
1158.304688 200.0
1163.078369 132.0
1164.938843 188.0
1165.366943 204.0
1165.577515 60.0
1167.474121 164.0
1167.542114 196.0
1167.766602 56.0
1168.195068 128.0
1168.555664 140.0
1168.671265 156.0
1169.372192 108.0
1169.753418 220.0
1170.052979 176.0
1171.230957 140.0
1172.02124 156.0
1172.103027 232.0
1174.066284 156.0
1174.4823 100.0
1174.652832 156.0
1175.771851 116.0
1177.820068 128.0
1178.448608 168.0
1178.954224 60.0
1179.760742 120.0
1180.307739 220.0
1180.444458 140.0
1180.724854 124.0
1181.833008 92.0
1183.195068 48.0
1183.955078 200.0
1184.009888 172.0
1185.359375 196.0
1188.843018 200.0
1189.357788 160.0
1189.65979 160.0
1189.872559 64.0
1191.184204 36.0
1191.328491 104.0
1194.476929 164.0
1195.42627 180.0
1199.138306 236.0
1199.827637 120.0
1200.475708 44.0
1200.965454 140.0
1201.400024 172.0
1204.609985 152.0
1205.141968 108.0
1206.130127 156.0
1206.489624 68.0
1207.630615 108.0
1207.727417 204.0
1208.273926 132.0
1208.827393 196.0
1209.076538 152.0
1210.073364 256.0
1210.627319 140.0
1210.918091 144.0
1214.932739 188.0
1215.417236 232.0
1216.270874 96.0
1216.74292 200.0
1217.499756 184.0
1219.382446 188.0
1219.660522 192.0
1220.383423 164.0
1220.605957 188.0
1222.052734 104.0
1222.143188 44.0
1223.152344 244.0
1223.228882 148.0
1225.018433 124.0
1226.098511 108.0
1226.230835 92.0
1227.269531 88.0
1227.778564 96.0
1228.490112 192.0
1228.80603 208.0
1229.236572 164.0
1229.864746 144.0
1230.737305 176.0
1231.002686 132.0
1231.666138 156.0
1232.986694 152.0
1233.629761 364.0
1234.035156 316.0
1234.133057 176.0
1234.433716 68.0
1235.168091 200.0
1235.370972 140.0
1235.762695 148.0
1236.770508 136.0
1237.365479 160.0
1237.484497 168.0
1237.729614 44.0
1238.016724 48.0
1239.123413 144.0
1239.26355 168.0
1239.382568 180.0
1239.964233 196.0
1240.4198 208.0
1240.791382 192.0
1241.050781 144.0
1241.366333 212.0
1241.597778 36.0
1241.667847 160.0
1242.560181 208.0
1243.070923 180.0
1243.484985 132.0
1243.695557 252.0
1244.172852 108.0
1244.467773 116.0
1246.722534 232.0
1247.383301 76.0
1247.826172 116.0
1248.149536 192.0
1249.302979 184.0
1249.478882 152.0
1249.591431 144.0
1249.689941 120.0
1250.463989 204.0
1250.724487 188.0
1251.38623 200.0
1252.534058 208.0
1252.738403 176.0
1253.175171 128.0
1253.999634 72.0
1254.119385 136.0
1254.21106 160.0
1254.323853 88.0
1254.775024 148.0
1255.557739 176.0
1256.143188 52.0
1257.667236 232.0
1257.886108 136.0
1258.64856 212.0
1258.733276 188.0
1258.810913 112.0
1259.220581 224.0
1260.287231 140.0
1261.38269 192.0
1263.299072 144.0
1263.50415 48.0
1263.766846 180.0
1265.630859 140.0
1267.277832 204.0
1267.787964 156.0
1267.950928 164.0
1268.220337 40.0
1268.284058 144.0
1268.546387 160.0
1269.475098 132.0
1269.907715 168.0
1271.880249 120.0
1271.972534 264.0
1273.932373 164.0
1274.387085 176.0
1276.206665 100.0
1276.427124 60.0
1276.683105 140.0
1276.803955 248.0
1277.614868 128.0
1278.290771 156.0
1279.540161 156.0
1279.742798 152.0
1280.540405 172.0
1282.563843 96.0
1282.656616 184.0
1283.034424 156.0
1283.248291 164.0
1283.576294 120.0
1284.496216 148.0
1285.65918 148.0
1286.080322 156.0
1287.458252 148.0
1288.106567 172.0
1288.179688 300.0
1288.665405 120.0
1289.544434 180.0
1289.643799 164.0
1290.888428 144.0
1290.952759 140.0
1291.939819 72.0
1293.195068 216.0
1294.838745 124.0
1295.053589 144.0
1296.823364 160.0
1297.48999 180.0
1297.733765 176.0
1297.946655 168.0
1299.828125 132.0
1300.72522 224.0
1303.432861 124.0
1303.533447 176.0
1303.727417 172.0
1303.928711 120.0
1304.482178 176.0
1304.762451 172.0
1304.848755 156.0
1305.107544 124.0
1305.179565 144.0
1305.30896 84.0
1305.539062 152.0
1305.690063 340.0
1306.078491 184.0
1307.754883 208.0
1308.028442 212.0
1308.237183 168.0
1308.381226 224.0
1308.496338 80.0
1309.821411 176.0
1310.412109 204.0
1311.658936 52.0
1311.781372 212.0
1312.379761 208.0
1312.545654 156.0
1313.555298 108.0
1315.438721 64.0
1316.976685 156.0
1317.605225 136.0
1319.541992 100.0
1319.596924 220.0
1319.983154 128.0
1321.596069 192.0
1321.661255 192.0
1322.819214 180.0
1322.956787 148.0
1324.086304 160.0
1324.245605 188.0
1327.782471 112.0
1328.319214 144.0
1328.377197 192.0
1328.558594 228.0
1329.240601 104.0
1329.71228 156.0
1329.835693 152.0
1330.060669 64.0
1330.96814 160.0
1331.498291 48.0
1332.246338 112.0
1333.031128 140.0
1333.227295 100.0
1333.336304 148.0
1336.339478 184.0
1336.586914 152.0
1336.659668 104.0
1336.827026 256.0
1337.154419 144.0
1337.700317 212.0
1337.780396 128.0
1337.889648 156.0
1337.977051 160.0
1339.054688 152.0
1339.127563 172.0
1340.016235 116.0
1340.110962 64.0
1340.205688 96.0
1340.854248 188.0
1341.969482 164.0
1342.086182 144.0
1342.932129 132.0
1343.493774 144.0
1344.064453 160.0
1344.165039 64.0
1344.296997 180.0
1344.84375 160.0
1344.982422 132.0
1346.734741 160.0
1346.851685 156.0
1347.173096 212.0
1347.370239 136.0
1347.531006 180.0
1347.706421 140.0
1347.786743 172.0
1348.451172 148.0
1349.577515 216.0
1349.884644 180.0
1350.703735 120.0
1351.830444 148.0
1352.028076 140.0
1352.218262 128.0
1353.125977 148.0
1353.785034 180.0
1354.239014 80.0
1354.627319 152.0
1355.140137 212.0
1355.682373 200.0
1355.733643 92.0
1356.166016 72.0
1356.217285 116.0
1356.679077 72.0
1357.317017 208.0
1357.654297 128.0
1357.837646 188.0
1358.087036 164.0
1358.365723 192.0
1358.468506 60.0
1359.701172 156.0
1359.774536 96.0
1361.081177 136.0
1361.140015 140.0
1361.793579 180.0
1362.102051 196.0
1363.057129 100.0
1363.174683 140.0
1363.262939 116.0
1363.65979 160.0
1364.078735 144.0
1364.41687 164.0
1365.030151 136.0
1366.858765 56.0
1367.621826 212.0
1368.264526 132.0
1368.338135 240.0
1368.522217 148.0
1368.70813 192.0
1368.97876 212.0
1369.648926 192.0
1369.840454 168.0
1371.491089 172.0
1371.807983 176.0
1372.014404 120.0
1372.427246 156.0
1372.714844 164.0
1374.389282 96.0
1375.62915 140.0
1376.411743 184.0
1376.588989 172.0
1376.758789 68.0
1377.19873 228.0
1377.526978 176.0
1378.672119 84.0
1378.812622 128.0
1379.344727 164.0
1379.581299 236.0
1380.298462 204.0
1381.400513 124.0
1381.666748 200.0
1381.755493 240.0
1382.00708 140.0
1382.266113 112.0
1382.939575 168.0
1383.109741 144.0
1383.502075 148.0
1383.672363 192.0
1384.072144 172.0
1384.657227 60.0
1384.797974 28.0
1385.4646 116.0
1386.153687 196.0
1386.808838 208.0
1386.991089 144.0
1389.386353 84.0
1389.86853 152.0
1389.935303 220.0
1390.002075 124.0
1390.254395 160.0
1390.543823 160.0
1391.130249 128.0
1391.249023 152.0
1392.875244 100.0
1392.971802 160.0
1393.365601 36.0
1394.532227 156.0
1394.666016 164.0
1395.119507 188.0
1395.714233 204.0
1396.100952 112.0
1396.967651 176.0
1397.521606 216.0
1398.24353 188.0
1398.846313 204.0
1398.995239 136.0
1399.062256 88.0
1402.220459 104.0
1402.309937 148.0
1402.772095 232.0
1402.958374 160.0
1403.32373 176.0
1403.920288 132.0
1404.628784 108.0
1404.97937 196.0
1405.285278 36.0
1405.62854 140.0
1405.904663 164.0
1406.546509 100.0
1406.733154 224.0
1406.859985 108.0
1407.121338 44.0
1408.345947 140.0
1412.57666 156.0
1413.047974 188.0
1414.432495 144.0
1414.904053 64.0
1415.18103 140.0
1415.862549 132.0
1416.349365 172.0
1416.693848 168.0
1416.903687 156.0
1418.215088 32.0
1418.874634 60.0
1420.269531 156.0
1420.456665 168.0
1420.719604 224.0
1420.922119 168.0
1421.169678 148.0
1421.582397 176.0
1421.897583 60.0
1421.980103 248.0
1422.205322 156.0
1423.053589 184.0
1423.308838 160.0
1424.961304 196.0
1425.134033 124.0
1426.193726 100.0
1427.727417 160.0
1427.945557 140.0
1428.389282 120.0
1429.758667 84.0
1429.976929 120.0
1430.533936 156.0
1430.707031 124.0
1430.850098 212.0
1431.286743 136.0
1431.941895 176.0
1432.213135 60.0
1432.951294 216.0
1433.03418 32.0
1433.335571 240.0
1433.727417 176.0
1433.855591 144.0
1434.028931 104.0
1434.865601 188.0
1435.717651 100.0
1435.786255 192.0
1438.479126 268.0
1438.6604 252.0
1438.932129 136.0
1440.178101 160.0
1440.737061 212.0
1442.437378 148.0
1442.815308 212.0
1443.88147 184.0
1443.97229 136.0
1444.433594 132.0
1445.144775 68.0
1445.258301 232.0
1446.075562 116.0
1447.286743 124.0
1447.415527 180.0
1448.119751 80.0
1448.324219 120.0
1448.559082 136.0
1448.862061 232.0
1449.293945 148.0
1449.619751 148.0
1450.771851 148.0
1451.856079 200.0
1453.046997 156.0
1453.714722 112.0
1454.967041 156.0
1455.232788 220.0
1455.46814 256.0
1456.235107 160.0
1456.402222 208.0
1457.161865 188.0
1457.33667 116.0
1457.435425 192.0
1457.549438 204.0
1457.90625 216.0
1458.70459 148.0
1459.137939 164.0
1459.213989 64.0
1459.601685 188.0
1460.073242 128.0
1460.263306 240.0
1460.369873 60.0
1460.826172 248.0
1462.500244 176.0
1463.223389 184.0
1463.383301 216.0
1463.885864 180.0
1464.799805 168.0
1464.898804 108.0
1465.645386 196.0
1465.858765 136.0
1466.346558 40.0
1466.613281 192.0
1466.727661 208.0
1467.169678 132.0
1467.76123 200.0
1467.894043 132.0
1468.023682 112.0
1468.534668 440.0
1468.954224 80.0
1469.282715 120.0
1470.370117 196.0
1471.930664 148.0
1472.3125 308.0
1472.618042 180.0
1472.923462 144.0
1475.001953 156.0
1475.666992 152.0
1476.179321 196.0
1476.378174 172.0
1476.645752 180.0
1476.930542 176.0
1477.181152 208.0
1477.364746 192.0
1477.502563 180.0
1477.793213 180.0
1478.497192 60.0
1478.769653 128.0
1478.856934 104.0
1479.063599 204.0
1479.3927 160.0
1480.035889 204.0
1481.29187 60.0
1481.414429 156.0
1481.636597 128.0
1481.866455 160.0
1482.088623 120.0
1482.44873 140.0
1482.58667 196.0
1483.230469 148.0
1483.36084 124.0
1483.820801 84.0
1484.043091 128.0
1485.500977 168.0
1485.699707 124.0
1486.512939 172.0
1486.919678 160.0
1487.733398 40.0
1487.886841 160.0
1488.101807 236.0
1488.385986 180.0
1488.455078 184.0
1489.253784 128.0
1489.72229 184.0
1489.852905 184.0
1490.275391 128.0
1490.667358 240.0
1491.243652 136.0
1491.766357 176.0
1492.688965 260.0
1492.765869 120.0
1493.011963 32.0
1493.942627 148.0
1494.019531 32.0
1494.342651 128.0
1494.642822 148.0
1494.904419 88.0
1495.243042 148.0
1495.389282 124.0
1495.835693 164.0
1496.72876 184.0
1497.051514 244.0
1497.348389 104.0
1497.514282 228.0
1497.830078 68.0
1499.039551 152.0
1499.201416 176.0
1499.548218 180.0
1500.881836 160.0
1501.105469 140.0
1501.336182 212.0
1501.935913 188.0
1502.424438 104.0
1502.640381 96.0
