>compound MLS001141062-01!(2S)-5-oxo-1-(3-oxo-1H-2-benzofuran-1-yl)-N-(4-propan-2-ylphenyl)pyrrolidine-2-carboxamide
>formula C22H22N2O4
>ionization [M+H]+
>parentmass 379.166
#inchi InChI=1S/C22H22N2O4/c1-13(2)14-7-9-15(10-8-14)23-20(26)18-11-12-19(25)24(18)21-16-5-3-4-6-17(16)22(27)28-21/h3-10,13,18,21H,11-12H2,1-2H3,(H,23,26)/t18-,21?/m0/s1
#inchikey IDMLIENVTZYKNK
#Ion_Source LC-ESI
#Instrument qTof
#Compound_Source NIH Natural Product Library
#PI Dorrestein
#Data_Collector VVP/LMS
#Scan -1
#Precursor_MZ 379.166
#ExactMass 378.158
#Charge 1
#CAS_Number N/A
#Pubmed_ID N/A
#Smiles CC(C)c1ccc(NC(=O)[C@@H]2CCC(=O)N2C3OC(=O)c4ccccc34)cc1
#INCHI_AUX N/A
#Library_Class 1
#SpectrumID CCMSLIB00000080260
#IonMode Positive
#UpdateWorkflowName UPDATE-SINGLE-ANNOTATED-GOLD
#LibraryQualityString Gold
#TaskID b1d8e8f6646f4e71acdff9ca3d919d08
##Scan# 2085
#SpectrumFile p2-C06_GC6_01_18006.mzXML
#LibraryName NIH_Natural_Products_Library.mgf
#MQScore -1
#Organism NIH_Natural_Products_Library
#TIC_Query 0
#RT_Query -1
#MZErrorPPM -1
#SharedPeaks 0
#MassDiff 0
#LibMZ -1
#SpecMZ 379.166
#SpecCharge 0
#internalFilename spec-00000.mgf

>collision 10
96.020035 208.0
97.30368 164.0
98.36673 164.0
98.554352 184.0
98.708527 48.0
99.009315 224.0
99.235214 192.0
99.324455 52.0
99.958214 196.0
99.994034 204.0
100.102379 188.0
100.39048 240.0
100.681839 220.0
101.135681 164.0
101.995949 180.0
102.388504 208.0
102.674683 196.0
104.048683 216.0
104.144043 144.0
104.219208 180.0
105.033997 3880.0
105.057755 160.0
105.300911 192.0
105.376488 32.0
106.016945 48.0
106.035713 544.0
106.14814 52.0
107.182076 256.0
107.803185 128.0
108.936516 208.0
109.015465 176.0
109.610603 180.0
109.752342 184.0
110.278412 72.0
111.527603 108.0
112.00103 164.0
112.481789 148.0
112.610588 168.0
113.459106 188.0
113.838905 204.0
114.862617 156.0
115.053482 212.0
115.227661 144.0
115.445686 188.0
116.399269 136.0
116.538879 132.0
116.794701 176.0
117.024963 148.0
117.406364 124.0
118.149391 128.0
118.623642 180.0
119.609825 172.0
119.65554 132.0
120.379433 108.0
121.184372 176.0
121.706383 164.0
122.174515 176.0
122.319756 200.0
122.650162 316.0
123.098015 152.0
123.20845 208.0
123.243805 192.0
123.321152 140.0
123.805313 128.0
123.852173 176.0
124.335503 176.0
124.790871 160.0
125.086754 220.0
125.51004 176.0
125.670639 164.0
125.900551 180.0
125.954155 156.0
126.305084 136.0
126.535576 32.0
127.140785 160.0
127.329369 100.0
129.304321 228.0
129.358643 160.0
129.449203 168.0
130.065872 180.0
130.349762 132.0
130.513412 208.0
131.134888 200.0
131.995529 204.0
132.045853 164.0
132.686996 148.0
132.70993 128.0
132.787888 228.0
132.831467 196.0
132.884232 184.0
132.916351 116.0
132.964111 152.0
132.98291 168.0
132.998306 164.0
133.00531 116.0
133.029678 34636.0
133.103287 36.0
133.143616 48.0
133.175247 52.0
133.227173 72.0
133.341202 116.0
133.368774 72.0
133.383484 48.0
133.467621 40.0
133.513611 164.0
133.607925 52.0
133.651642 80.0
133.817917 148.0
133.895645 60.0
134.03418 2668.0
134.059631 200.0
134.096649 204.0
134.165237 64.0
134.192902 44.0
134.259018 136.0
134.439713 56.0
134.532028 56.0
134.913208 76.0
134.940948 52.0
134.980255 76.0
135.030884 148.0
135.114395 80.0
135.174561 72.0
135.336594 96.0
136.034409 128.0
136.66423 104.0
138.18779 96.0
139.019608 88.0
140.228302 88.0
141.236603 92.0
142.066299 340.0
142.305359 112.0
142.336227 56.0
143.042328 160.0
143.232819 56.0
144.060562 120.0
145.315033 104.0
151.073929 192.0
152.054031 148.0
152.776428 120.0
155.348053 68.0
155.578842 132.0
159.061203 52.0
166.490631 204.0
166.567688 108.0
170.062408 592.0
171.059006 184.0
172.081375 208.0
173.040787 40.0
175.861435 104.0
178.295364 96.0
179.22673 68.0
180.083054 172.0
181.059235 140.0
181.59256 56.0
182.075653 136.0
188.075546 132.0
189.100494 156.0
189.651016 196.0
190.498886 72.0
192.073425 140.0
192.871414 152.0
194.591705 124.0
196.085464 40.0
198.056091 368.0
199.051529 220.0
200.161514 216.0
200.733536 96.0
202.12085 288.0
206.024109 112.0
206.08696 144.0
208.078384 724.0
209.083725 388.0
212.426498 72.0
216.070908 196.0
217.072601 152.0
218.023727 44.0
219.082962 176.0
220.026672 120.0
222.124786 120.0
224.06897 132.0
227.202072 100.0
228.451782 196.0
229.08696 132.0
231.076431 168.0
232.066818 140.0
233.092743 244.0
233.582214 96.0
235.096008 192.0
235.139175 176.0
235.63385 176.0
236.099777 184.0
243.101334 196.0
243.150452 152.0
244.057526 180.0
245.084656 180.0
246.942078 44.0
247.089096 160.0
249.878174 144.0
250.123978 1948.0
250.510956 88.0
250.901718 76.0
251.127289 504.0
253.401596 188.0
253.598068 32.0
255.096252 136.0
255.531937 68.0
257.064545 280.0
257.096466 160.0
258.105896 224.0
259.086456 340.0
259.838623 80.0
259.902802 120.0
260.063263 144.0
260.089386 176.0
261.0849 56.0
261.924927 92.0
262.018372 48.0
265.091095 68.0
268.015564 112.0
268.136505 208.0
271.090393 500.0
272.096741 256.0
272.971344 124.0
273.104614 764.0
274.11142 352.0
274.558624 48.0
275.056824 100.0
275.083466 168.0
276.084045 144.0
279.151764 116.0
280.213562 188.0
287.083099 512.0
288.093384 380.0
288.134735 124.0
288.411835 80.0
289.092773 180.0
291.118805 168.0
295.734924 76.0
298.118439 180.0
300.092163 152.0
300.773804 84.0
301.097931 448.0
301.862091 228.0
302.103699 1352.0
303.075439 192.0
303.110229 320.0
304.107269 152.0
305.159546 112.0
308.16037 124.0
310.120026 276.0
314.036774 84.0
317.080841 196.0
318.101929 284.0
319.089203 348.0
322.862457 72.0
323.023407 156.0
323.089905 116.0
324.864655 72.0
325.109924 600.0
326.113251 364.0
327.744385 88.0
333.119202 144.0
334.098389 56.0
334.12384 140.0
339.108215 48.0
340.127411 160.0
341.211548 40.0
343.793579 108.0
351.135651 300.0
352.151886 104.0
371.386963 64.0
378.222351 160.0
381.153839 152.0
381.189209 236.0
381.710083 112.0
382.1185 212.0
399.150208 144.0
439.240021 48.0
562.980286 112.0
573.412598 120.0
639.818481 56.0
706.429749 148.0
742.213257 176.0
756.832214 196.0
775.717896 92.0
816.062622 104.0
833.145081 184.0
837.177002 196.0
849.696594 168.0
887.053894 176.0
907.825989 72.0
917.735352 80.0
928.298767 172.0
933.217041 116.0
939.984009 160.0
947.675964 156.0
947.798462 40.0
948.687134 124.0
951.15918 208.0
962.418884 144.0
985.374451 168.0
989.045105 196.0
1004.149353 92.0
1015.057922 128.0
1037.244263 164.0
1037.737915 188.0
1042.314209 212.0
1048.163208 140.0
1053.291992 168.0
1068.760132 128.0
1070.706421 148.0
1081.92395 232.0
1083.508789 120.0
1087.233032 48.0
1100.120361 96.0
1106.91687 204.0
1112.200562 176.0
1128.07373 192.0
1131.559082 144.0
1131.753296 100.0
1132.322388 244.0
1133.910278 48.0
1136.746826 72.0
1140.487549 252.0
1142.390503 32.0
1146.888428 88.0
1151.077881 148.0
1161.405029 36.0
1189.400879 208.0
1192.230469 208.0
1201.325684 144.0
1201.643066 228.0
1205.074341 244.0
1208.835815 196.0
1210.968018 232.0
1216.973145 160.0
1225.43042 156.0
1229.446777 196.0
1239.32019 188.0
1245.535645 172.0
1246.31543 88.0
1246.427856 192.0
1248.726562 128.0
1250.344604 220.0
1252.766724 200.0
1263.63147 196.0
1268.17749 128.0
1270.999878 204.0
1275.808105 172.0
1277.472046 172.0
1281.437378 192.0
1281.978882 192.0
1285.258911 216.0
1290.622925 84.0
1293.577637 200.0
1294.737427 200.0
1295.296143 44.0
1296.664551 200.0
1311.779907 172.0
1316.404541 216.0
1320.031982 120.0
1323.179321 148.0
1325.989868 188.0
1327.577393 212.0
1338.003906 164.0
1348.697754 48.0
1350.635254 140.0
1356.80835 192.0
1357.988892 160.0
1360.123901 204.0
1361.717163 212.0
1363.744995 152.0
1366.105225 60.0
1383.158081 204.0
1383.683594 44.0
1393.376587 252.0
1393.72583 136.0
1394.543213 168.0
1395.405518 108.0
1395.576538 256.0
1396.208496 324.0
1400.234741 148.0
1402.961792 172.0
1406.213867 132.0
1412.692017 124.0
1418.255371 224.0
1418.330322 176.0
1423.349243 160.0
1442.039062 196.0
1446.509155 176.0
1446.955811 40.0
1448.311279 248.0
1451.410767 204.0
1461.246338 180.0
1469.108276 112.0
1471.832886 168.0
1474.949829 168.0
1477.580322 60.0
1479.171997 136.0
1489.055054 92.0
1492.574585 44.0
1492.966675 184.0
1496.621704 176.0
