>compound Homoeriodictyol
>formula C16H14O6
>ionization [M+H]+
>parentmass 303.08631462009055
#inchi InChI=1S/C16H14O6/c1-21-14-4-8(2-3-10(14)18)13-7-12(20)16-11(19)5-9(17)6-15(16)22-13/h2-6,13,17-19H,7H2,1H3
#inchikey FTODBIPDTXRIGS
#Ion_Source DI-ESI
#Instrument Ion Trap
#Compound_Source Commercial
#PI Norberto Lopes
#Data_Collector Denise Silva
#Scan -1
#Precursor_MZ 303.0
#ExactMass 302.079
#Charge 1
#CAS_Number 446-71-9
#Pubmed_ID  
#Smiles O=C1C2=C(C=C(C=C2OC(C1)C3=CC=C(C(OC)=C3)O)O)O
#INCHI_AUX  
#Library_Class 3
#SpectrumID CCMSLIB00000077213
#IonMode Positive
#UpdateWorkflowName UPDATE-SINGLE-ANNOTATED-BRONZE
#LibraryQualityString Bronze
#TaskID 4c80801f0a4f44d9864351eac9aafa4a
##Scan# 1
#SpectrumFile gnps_homoeriodictyol_pos_amp0.5V_MSMS_303.mgf
#LibraryName gnps_library.mgf
#MQScore -1
#Organism gnps_library
#TIC_Query 0
#RT_Query -1
#MZErrorPPM -1
#SharedPeaks 0
#MassDiff 0
#LibMZ -1
#SpecMZ 303
#SpecCharge 0
#internalFilename spec-00000.mgf

>collision 10
89.128998 160172.0
93.013 41743.0
99.138 60720.0
104.106003 80304.0
107.137001 23525.0
108.137001 65936.0
109.168999 30089.0
117.055 397722.0
117.055 397722.0
122.918999 79807.0
125.015999 326923.0
135.016998 234429.0
135.016998 234429.0
137.063004 397695.0
137.063004 397695.0
140.951004 48615.0
141.136993 80684.0
145.003998 1498768.0
145.003998 1498768.0
159.981003 55508.0
162.994995 18049540.0
162.994995 18049540.0
163.638 43264.0
166.996994 7236132.0
166.996994 7236132.0
176.951004 60663.0
180.951004 150613.0
184.992004 883436.0
184.992004 883436.0
187.035995 868610.0
187.035995 868610.0
188.028 409963.0
188.028 409963.0
193.003998 4547328.0
193.003998 4547328.0
202.949997 48509.0
203.794006 52572.0
204.988007 715130.0
204.988007 715130.0
212.231003 62906.0
228.981003 43302.0
230.977997 92663.0
231.949997 23843.0
239.169006 26565.0
243.052002 237084.0
253.072006 399390.0
253.072006 399390.0
256.145996 441204.0
256.145996 441204.0
261.046997 464610.0
261.046997 464610.0
267.016998 532744.0
267.016998 532744.0
284.199005 165912.0
285.04599 5567409.0
285.04599 5567409.0
301.997986 2005145.0
301.997986 2005145.0
303.071991 3377147.0
303.071991 3377147.0
304.325012 67243.0
305.794006 94186.0
365.169006 48344.0
423.200012 78920.0
