>compound MLS001140789-01!(3R)-N-cyclohexyl-6,7-dimethoxy-5-oxo-3,9b-dihydro-2H-[1,3]thiazolo[2,3-a]isoindole-3-carboxamide
>formula C19H24N2O4S
>ionization [M+H]+
>parentmass 377.154
#inchi InChI=1S/C19H24N2O4S/c1-24-14-9-8-12-15(16(14)25-2)18(23)21-13(10-26-19(12)21)17(22)20-11-6-4-3-5-7-11/h8-9,11,13,19H,3-7,10H2,1-2H3,(H,20,22)/t13-,19?/m0/s1
#inchikey XEFFYGAARLTFDL
#Ion_Source LC-ESI
#Instrument qTof
#Compound_Source NIH Natural Product Library
#PI Dorrestein
#Data_Collector VVP/LMS
#Scan -1
#Precursor_MZ 377.154
#ExactMass 376.146
#Charge 1
#CAS_Number N/A
#Pubmed_ID N/A
#Smiles COc1ccc2C3SC[C@H](N3C(=O)c2c1OC)C(=O)NC4CCCCC4
#INCHI_AUX N/A
#Library_Class 1
#SpectrumID CCMSLIB00000080129
#IonMode Positive
#UpdateWorkflowName UPDATE-SINGLE-ANNOTATED-GOLD
#LibraryQualityString Gold
#TaskID b1d8e8f6646f4e71acdff9ca3d919d08
##Scan# 2095
#SpectrumFile p2-E04_GE4_01_18028.mzXML
#LibraryName NIH_Natural_Products_Library.mgf
#MQScore -1
#Organism NIH_Natural_Products_Library
#TIC_Query 0
#RT_Query -1
#MZErrorPPM -1
#SharedPeaks 0
#MassDiff 0
#LibMZ -1
#SpecMZ 377.154
#SpecCharge 0
#internalFilename spec-00000.mgf

>collision 10
95.0439 140.0
95.106003 112.0
95.342949 196.0
95.543953 156.0
95.921021 36.0
96.217537 28.0
96.412872 224.0
96.536026 196.0
96.555588 188.0
96.612312 216.0
96.858963 176.0
96.905975 172.0
97.494652 160.0
97.555588 148.0
97.569344 32.0
97.590973 136.0
97.785721 152.0
98.027954 192.0
98.122566 188.0
98.211304 152.0
98.250755 240.0
98.34153 120.0
98.491592 156.0
98.622002 160.0
98.942459 172.0
99.007805 136.0
99.320953 100.0
99.424126 164.0
100.104004 120.0
100.137001 148.0
100.382988 204.0
100.4907 168.0
100.526619 68.0
100.540588 140.0
100.658363 212.0
100.698303 112.0
100.720276 160.0
100.756233 160.0
100.85215 104.0
100.90995 212.0
101.076141 192.0
101.090149 156.0
101.128761 216.0
101.232277 132.0
101.384529 104.0
101.44265 152.0
101.595062 160.0
101.723495 144.0
101.922318 176.0
101.946434 124.0
102.207848 192.0
102.346733 148.0
102.483696 216.0
102.651001 120.0
102.763962 140.0
102.862846 208.0
103.010254 112.0
103.321579 228.0
103.447044 188.0
103.653633 36.0
103.712402 176.0
103.742813 160.0
103.967949 156.0
104.016373 732.0
104.049141 160.0
104.51458 116.0
104.650955 60.0
104.960663 140.0
105.152428 100.0
105.44857 168.0
105.503761 56.0
105.671928 176.0
105.724663 144.0
105.896637 120.0
105.960144 104.0
106.279991 220.0
106.709259 184.0
106.795624 140.0
106.857338 176.0
106.933479 40.0
106.960236 80.0
107.007584 180.0
107.050827 88.0
107.071419 192.0
107.139397 96.0
107.238304 132.0
107.409439 208.0
107.619942 80.0
107.805847 48.0
108.066391 176.0
108.252678 116.0
108.368675 140.0
108.461937 152.0
108.646492 144.0
108.667236 204.0
108.750244 152.0
108.85405 184.0
109.055565 220.0
109.221909 60.0
109.375885 152.0
109.557053 248.0
109.711266 192.0
109.800926 92.0
109.986626 100.0
110.009583 92.0
110.045074 52.0
110.435852 196.0
110.546738 128.0
110.615807 180.0
110.663956 32.0
110.793808 68.0
111.055832 132.0
111.278275 160.0
111.39798 200.0
111.418983 176.0
111.519852 52.0
111.67334 136.0
111.751175 140.0
111.879555 132.0
111.930084 176.0
112.102814 92.0
112.144966 252.0
112.220856 68.0
112.427574 184.0
112.484566 148.0
112.630264 120.0
113.076393 208.0
113.12719 112.0
113.226707 48.0
113.32415 212.0
113.48735 160.0
113.724037 252.0
114.196632 140.0
114.241302 160.0
114.260452 160.0
114.686348 120.0
114.795074 48.0
114.816399 112.0
114.989212 196.0
115.583305 120.0
115.698875 176.0
115.786667 108.0
115.855217 72.0
115.923775 72.0
116.052391 212.0
116.086693 208.0
116.107918 192.0
116.36869 152.0
116.470863 44.0
116.549004 184.0
116.687912 192.0
116.733063 136.0
116.946053 128.0
117.03862 160.0
117.058128 204.0
117.226021 104.0
117.540855 128.0
117.560272 144.0
117.845306 136.0
117.929581 44.0
118.066948 260.0
118.271332 184.0
118.364418 112.0
118.42939 176.0
118.678604 64.0
118.767517 48.0
118.782707 188.0
118.930252 156.0
118.973671 44.0
119.050827 216.0
119.08876 140.0
119.127853 32.0
119.149582 32.0
119.175652 116.0
119.379982 152.0
119.4561 204.0
119.540955 132.0
119.715111 196.0
119.816124 296.0
120.046341 120.0
120.168495 168.0
120.198837 212.0
120.295074 176.0
120.378036 280.0
120.478508 176.0
120.533134 88.0
120.563728 36.0
120.858932 204.0
120.933342 112.0
121.023094 188.0
121.046959 160.0
121.386833 136.0
121.450928 160.0
121.535988 152.0
121.777466 224.0
121.838974 140.0
121.955437 80.0
121.979622 196.0
122.037483 212.0
122.118141 208.0
122.151138 180.0
122.173134 184.0
122.277077 84.0
122.397629 188.0
122.598091 256.0
122.631149 96.0
122.778862 204.0
122.796509 148.0
122.869301 56.0
122.966393 92.0
123.149643 164.0
123.215912 104.0
123.404167 160.0
123.538681 216.0
123.689156 164.0
123.94606 196.0
124.12339 160.0
124.269478 204.0
124.32206 172.0
124.665031 156.0
124.729485 128.0
124.932396 160.0
124.991913 172.0
125.127686 164.0
125.203392 172.0
125.359337 156.0
125.406136 136.0
125.658119 104.0
125.745148 112.0
125.896957 124.0
126.404404 140.0
126.563332 168.0
126.594681 180.0
126.720116 52.0
126.883728 48.0
126.99408 132.0
127.16861 140.0
127.271477 156.0
127.411133 88.0
127.456062 180.0
127.633636 60.0
127.671867 100.0
127.696609 208.0
127.851845 152.0
127.968895 172.0
128.00943 80.0
128.054459 84.0
128.149078 88.0
128.591064 52.0
128.752487 128.0
129.058167 160.0
129.131042 132.0
129.185333 60.0
129.223785 140.0
129.330154 128.0
129.359573 196.0
129.563385 140.0
129.867142 196.0
129.991913 192.0
130.04184 196.0
130.062271 156.0
130.100861 168.0
130.2621 132.0
130.753265 192.0
130.95813 180.0
130.976349 100.0
131.010513 220.0
131.090271 136.0
131.154083 128.0
131.170044 280.0
131.314606 108.0
131.359299 204.0
131.825058 140.0
132.051392 192.0
132.149765 204.0
132.312256 128.0
132.632965 172.0
132.704025 136.0
132.740723 164.0
133.006851 176.0
133.04776 204.0
133.053772 220.0
133.080307 152.0
133.250275 176.0
133.528412 160.0
133.645737 140.0
133.896652 116.0
134.01413 136.0
134.062149 172.0
134.544586 124.0
134.567673 148.0
134.613861 184.0
134.740891 196.0
135.009018 140.0
135.027527 100.0
135.04834 176.0
135.323715 160.0
135.360764 192.0
135.400131 188.0
135.481201 48.0
135.527542 184.0
135.729431 208.0
135.757034 176.0
135.782547 116.0
135.847488 164.0
135.889252 140.0
135.98671 192.0
136.020737 424.0
136.177094 148.0
136.325775 176.0
136.383881 220.0
136.421082 216.0
136.507095 120.0
136.630371 136.0
136.674576 176.0
136.716461 52.0
137.005188 172.0
137.5672 148.0
137.669937 60.0
137.71431 60.0
137.744675 188.0
138.048523 136.0
138.241486 196.0
138.49765 188.0
138.97377 184.0
139.020691 180.0
139.476334 56.0
139.624451 168.0
139.775009 132.0
139.998642 208.0
140.194168 248.0
140.328522 212.0
140.632843 132.0
140.663528 156.0
140.687134 128.0
140.746155 140.0
140.772125 120.0
140.824081 184.0
140.840622 200.0
141.046188 152.0
141.185684 148.0
141.266098 88.0
141.554855 92.0
141.661438 192.0
141.746719 188.0
141.8423 244.0
142.021729 220.0
142.097641 168.0
142.161713 212.0
142.246399 200.0
142.408615 180.0
142.71756 200.0
142.786514 152.0
142.850739 148.0
143.020767 44.0
143.067291 224.0
143.238739 204.0
143.281631 384.0
143.431763 184.0
143.865906 56.0
143.916046 40.0
143.997238 116.0
144.58046 244.0
144.604523 280.0
144.63324 88.0
144.729004 52.0
144.781677 40.0
144.824783 152.0
144.930191 104.0
145.014069 136.0
145.051239 236.0
145.397812 132.0
145.719574 204.0
145.825302 172.0
145.882996 168.0
145.984756 148.0
146.006927 196.0
146.060791 1064.0
146.1259 168.0
146.48941 56.0
146.588333 76.0
146.653275 156.0
146.706299 112.0
146.723175 164.0
147.025757 180.0
147.064774 536.0
147.256454 36.0
147.464233 120.0
147.490829 100.0
147.522614 184.0
147.674591 64.0
147.710861 180.0
147.829422 216.0
147.955276 56.0
147.992126 128.0
148.03981 764.0
148.077408 208.0
148.26532 200.0
148.592682 200.0
148.856964 172.0
148.956818 176.0
148.985977 192.0
149.044357 260.0
149.062378 320.0
149.08316 188.0
149.126907 208.0
149.370056 116.0
149.494141 124.0
149.562286 96.0
149.725418 124.0
149.825287 68.0
149.912994 100.0
149.954422 248.0
150.044617 284.0
150.696259 128.0
150.737808 148.0
151.022919 144.0
151.043411 160.0
151.109467 140.0
151.46933 180.0
151.689865 204.0
151.841888 112.0
151.886032 196.0
152.128967 52.0
152.625244 160.0
152.657211 240.0
152.747726 100.0
153.041077 108.0
153.208557 144.0
153.297256 148.0
153.3983 240.0
153.437744 128.0
153.563507 236.0
153.711533 180.0
153.74115 64.0
153.765823 104.0
153.802841 180.0
153.948517 128.0
153.983078 108.0
154.030014 208.0
154.111542 52.0
154.499695 72.0
154.591797 236.0
154.749664 156.0
154.874023 148.0
155.002304 160.0
155.037003 152.0
155.235321 148.0
155.307251 152.0
155.605026 240.0
155.883224 140.0
156.001694 84.0
156.191513 148.0
156.251221 128.0
157.038376 172.0
157.208542 192.0
157.267914 148.0
157.58757 96.0
157.875031 48.0
157.907532 136.0
157.949493 176.0
158.007599 200.0
158.062637 152.0
158.080154 168.0
158.135208 176.0
158.220322 196.0
158.535919 112.0
158.751511 168.0
158.796661 212.0
159.070297 496.0
159.286102 164.0
159.389114 84.0
159.514771 40.0
159.537399 168.0
159.582657 116.0
159.605286 36.0
160.035461 312.0
160.073318 148.0
160.239548 84.0
160.267273 148.0
160.305069 140.0
160.428574 52.0
160.466385 112.0
160.577332 156.0
160.953354 120.0
160.973557 184.0
161.006226 200.0
161.030426 1256.0
161.07962 36.0
161.145309 48.0
161.226166 152.0
161.630768 72.0
161.696564 204.0
161.89151 184.0
162.057175 2120.0
162.127106 36.0
162.160049 28.0
162.454178 216.0
162.949234 108.0
163.041489 184.0
163.062485 348.0
163.152557 84.0
163.551926 128.0
163.579926 128.0
163.602844 148.0
163.635941 148.0
164.017883 464.0
164.073624 504.0
164.31488 192.0
164.395523 84.0
164.561432 156.0
164.666138 184.0
164.824524 160.0
164.857742 124.0
164.939102 220.0
165.054688 448.0
165.28479 172.0
165.679077 128.0
165.738007 184.0
165.98407 128.0
166.032791 128.0
166.073837 200.0
166.117432 444.0
166.322723 180.0
166.660065 212.0
166.957336 236.0
167.304688 104.0
167.528732 196.0
167.696228 184.0
168.00824 176.0
168.088226 148.0
168.106277 44.0
168.503922 192.0
168.534927 156.0
168.643463 172.0
168.674484 124.0
168.811508 156.0
168.860641 144.0
168.885895 136.0
168.938248 168.0
169.046906 116.0
169.435303 52.0
169.590775 144.0
169.725586 132.0
169.997955 128.0
170.293915 68.0
170.527756 128.0
170.548538 84.0
170.954254 112.0
171.034943 36.0
171.253662 104.0
171.459488 168.0
171.584595 148.0
171.819321 96.0
172.041046 156.0
172.333649 156.0
172.681335 96.0
172.712723 100.0
173.050781 328.0
173.204819 108.0
173.262451 32.0
173.957397 132.0
174.052902 1024.0
174.22525 152.0
174.945816 148.0
175.008545 312.0
175.062378 2108.0
175.219711 136.0
175.431976 132.0
175.723267 248.0
176.026306 400.0
176.069946 1352.0
176.140381 40.0
176.198502 36.0
176.520966 72.0
176.788132 112.0
176.952255 60.0
176.970779 204.0
177.032074 532.0
177.067795 204.0
177.156174 192.0
177.211807 84.0
177.32576 64.0
177.495422 168.0
178.033112 1324.0
178.082367 208.0
178.185516 88.0
178.666718 220.0
178.765152 216.0
178.801239 144.0
178.834351 68.0
178.913025 152.0
179.020096 316.0
179.266495 76.0
179.329758 40.0
179.447052 180.0
179.507248 176.0
179.571411 144.0
179.921936 76.0
180.021057 512.0
180.049301 200.0
180.090164 252.0
180.319946 64.0
180.50975 200.0
180.603363 228.0
180.86557 164.0
181.031296 380.0
181.141373 208.0
181.334305 196.0
181.696304 120.0
181.765076 228.0
181.822418 156.0
181.88414 164.0
182.026443 128.0
182.230576 44.0
182.278946 160.0
182.364929 116.0
182.485901 124.0
183.034805 188.0
183.110199 136.0
183.51442 88.0
183.764221 180.0
184.072952 140.0
184.16478 172.0
184.2323 116.0
184.659393 164.0
184.92453 124.0
185.314484 76.0
185.336166 196.0
185.658218 104.0
185.802505 224.0
186.094147 140.0
186.427002 144.0
186.639038 48.0
186.777725 136.0
187.104279 120.0
187.161453 112.0
187.229538 104.0
187.248596 112.0
187.452927 60.0
187.581009 196.0
187.611008 200.0
187.883713 176.0
188.015656 488.0
188.083878 184.0
188.440659 104.0
188.662033 160.0
188.75499 192.0
188.889008 180.0
188.924988 184.0
189.025146 2268.0
189.310699 160.0
189.422791 188.0
189.502228 140.0
189.595398 112.0
189.680359 40.0
189.73793 232.0
189.809219 160.0
189.836639 140.0
190.033936 616.0
190.042282 656.0
190.087509 656.0
190.207031 276.0
190.239975 212.0
190.347046 188.0
190.489868 160.0
190.555801 80.0
190.690445 76.0
190.761902 72.0
190.814148 80.0
190.996933 100.0
191.057663 2360.0
191.093933 192.0
191.347885 140.0
191.372665 76.0
191.570953 52.0
191.77211 72.0
191.810699 168.0
191.854797 172.0
191.915451 164.0
191.940262 128.0
191.978882 100.0
192.012451 4800.0
192.066391 5764.0
192.147125 88.0
192.16774 136.0
192.345825 72.0
192.366592 80.0
192.472824 56.0
192.51976 160.0
192.602615 64.0
192.638535 60.0
192.685486 212.0
192.80983 224.0
192.842697 72.0
192.914871 56.0
192.939743 48.0
192.992096 144.0
193.01886 888.0
193.069809 776.0
193.155441 76.0
193.277176 44.0
193.461838 72.0
193.520752 136.0
193.653671 144.0
193.983414 96.0
194.015564 140.0
194.044678 192.0
194.072006 192.0
194.171951 72.0
194.438293 140.0
194.590958 104.0
194.752029 108.0
195.011261 120.0
195.051071 340.0
195.08725 120.0
195.13829 212.0
195.193909 132.0
195.332962 40.0
195.383041 172.0
195.452591 116.0
195.751175 152.0
195.953766 252.0
196.047775 152.0
196.154419 156.0
196.486267 68.0
196.623001 76.0
196.974808 160.0
197.028137 196.0
197.062302 188.0
197.601013 196.0
197.656967 136.0
197.757721 92.0
197.89769 216.0
197.92569 148.0
198.477692 216.0
198.922791 160.0
199.047302 196.0
199.066956 132.0
199.406891 92.0
199.792114 68.0
199.839951 128.0
199.890594 148.0
200.07222 136.0
200.423203 188.0
200.515854 148.0
200.782501 192.0
200.845657 192.0
200.998001 164.0
201.033279 112.0
201.047989 84.0
201.05307 172.0
201.214737 152.0
201.788544 180.0
202.050751 1164.0
202.133942 80.0
202.247147 220.0
202.383026 116.0
202.439651 164.0
202.802292 124.0
202.844818 140.0
203.005234 324.0
203.063141 200.0
203.2901 152.0
203.389435 68.0
203.642136 116.0
203.71315 124.0
203.747818 204.0
203.823944 128.0
203.920563 140.0
203.977417 104.0
204.01004 1300.0
204.068298 132.0
204.111038 132.0
204.301743 76.0
204.571945 156.0
204.614655 152.0
204.651657 84.0
204.936478 172.0
205.018661 1172.0
205.070419 256.0
205.122375 140.0
205.143539 92.0
205.464233 172.0
205.536636 100.0
205.743607 164.0
205.921921 144.0
205.949219 76.0
205.989197 188.0
206.027695 11596.0
206.081421 4288.0
206.186356 56.0
206.232086 48.0
206.260666 156.0
206.329269 36.0
206.352142 48.0
206.552322 52.0
206.591904 220.0
206.612396 68.0
206.632431 156.0
206.732574 60.0
206.778366 164.0
206.804123 76.0
206.855438 188.0
206.874649 156.0
206.915756 124.0
206.955841 112.0
206.978745 132.0
207.036102 17048.0
207.083237 1020.0
207.153458 96.0
207.199295 96.0
207.262329 132.0
207.336548 80.0
207.391281 124.0
207.46582 136.0
207.488754 148.0
207.513718 68.0
207.537491 144.0
207.620651 68.0
207.709564 128.0
207.741119 72.0
207.778412 28.0
207.814117 384.0
207.87883 80.0
207.898926 144.0
207.943588 92.0
208.034866 2848.0
208.088989 180.0
208.2061 72.0
208.231949 52.0
208.277908 68.0
208.394333 124.0
208.694611 72.0
208.880157 92.0
209.02858 1448.0
209.080063 136.0
209.126114 40.0
209.169296 92.0
209.319 112.0
209.385239 100.0
209.428436 280.0
209.454361 104.0
209.480286 64.0
209.500443 96.0
209.520615 164.0
209.584 84.0
209.653152 76.0
209.699265 68.0
209.78862 152.0
209.840515 44.0
209.912598 144.0
210.016998 120.0
210.038635 176.0
210.299194 76.0
210.810364 60.0
210.917297 120.0
210.946213 208.0
211.02951 192.0
211.154388 92.0
211.368469 128.0
211.825897 44.0
211.930191 200.0
212.106979 156.0
212.518784 108.0
213.073334 216.0
213.122711 180.0
213.25058 108.0
213.361038 116.0
213.41629 380.0
213.555878 60.0
213.707138 140.0
213.803162 140.0
214.126328 212.0
214.40892 256.0
214.432236 196.0
214.534256 76.0
214.94841 36.0
214.997711 152.0
215.085587 168.0
215.114777 144.0
215.158554 164.0
216.064667 156.0
216.136169 140.0
216.705704 68.0
216.884476 176.0
217.018341 724.0
217.075043 160.0
217.494568 108.0
217.559158 76.0
217.886414 276.0
218.027359 1388.0
218.088318 192.0
218.205475 68.0
218.229004 132.0
218.249588 44.0
218.290741 76.0
218.414276 152.0
218.652588 156.0
218.798584 140.0
218.899872 144.0
219.029633 584.0
219.091324 156.0
219.306442 68.0
219.639618 120.0
219.716324 64.0
219.772369 120.0
219.873123 216.0
220.00882 740.0
220.044388 1056.0
220.179749 172.0
220.269669 108.0
220.327438 48.0
220.561325 268.0
220.655487 204.0
220.757996 172.0
220.785583 188.0
220.856567 60.0
221.029495 344.0
221.051208 96.0
221.460373 108.0
221.492096 220.0
221.673691 160.0
221.697388 32.0
221.860413 164.0
221.898956 132.0
221.958252 120.0
222.023163 264.0
222.059586 17288.0
222.142136 168.0
222.269714 44.0
222.296417 64.0
222.337967 232.0
222.46817 60.0
222.519028 44.0
222.566528 68.0
222.587326 132.0
222.643738 72.0
222.784744 68.0
222.890305 64.0
222.9319 52.0
222.984497 204.0
223.045715 2808.0
223.06218 2320.0
223.181854 92.0
223.217285 36.0
223.374908 56.0
223.44928 84.0
223.559372 88.0
223.6427 36.0
223.747238 104.0
223.782623 40.0
223.815369 104.0
223.890228 116.0
223.928528 80.0
224.054886 1604.0
224.184738 84.0
224.259247 156.0
224.569336 52.0
224.610565 136.0
224.640915 80.0
224.694626 68.0
224.821136 156.0
224.849792 92.0
224.894547 132.0
225.049591 364.0
225.184174 188.0
225.23793 84.0
225.39328 64.0
225.611465 120.0
225.731064 220.0
225.871628 60.0
226.0242 120.0
226.209763 152.0
226.323532 68.0
226.518188 132.0
226.551147 100.0
226.673874 104.0
226.877792 220.0
227.705963 152.0
228.376205 60.0
228.945023 136.0
229.047424 228.0
229.804108 128.0
229.873505 144.0
230.362625 200.0
230.692017 56.0
230.970215 164.0
231.97554 156.0
232.033127 136.0
232.078613 180.0
232.366745 80.0
232.819016 128.0
232.843323 52.0
232.864578 76.0
233.057159 260.0
233.232224 148.0
233.457199 184.0
233.521072 100.0
233.561966 36.0
233.657959 220.0
234.019485 1080.0
234.065811 164.0
234.178482 108.0
234.557831 144.0
234.675201 84.0
234.750504 132.0
235.030045 788.0
235.096146 176.0
235.679382 124.0
236.022751 428.0
236.453049 32.0
236.560181 64.0
236.679581 80.0
236.777573 56.0
236.875595 60.0
237.390488 100.0
238.480362 52.0
239.107788 132.0
239.49881 80.0
239.853149 200.0
240.038132 128.0
240.241684 152.0
240.923935 148.0
241.004272 72.0
241.05397 96.0
241.093887 248.0
241.387558 56.0
241.458679 164.0
241.542191 152.0
241.644745 132.0
242.229385 268.0
242.50206 124.0
242.607437 212.0
242.728363 160.0
243.081985 160.0
243.414124 216.0
243.992035 156.0
244.446152 56.0
244.517731 44.0
244.570633 44.0
245.305756 60.0
245.340042 176.0
245.433578 56.0
246.010757 96.0
246.073196 116.0
246.201233 184.0
246.248077 44.0
246.588623 164.0
246.741791 164.0
247.088943 204.0
247.138992 148.0
247.198456 136.0
247.636734 84.0
247.674332 76.0
248.035843 504.0
248.119308 80.0
248.18515 164.0
248.254135 52.0
248.514481 136.0
248.624313 156.0
248.683945 144.0
248.737305 96.0
248.991623 132.0
249.042282 184.0
249.072769 120.0
249.07869 100.0
249.0905 192.0
249.17067 52.0
249.230362 152.0
249.28302 236.0
249.303741 184.0
249.330917 100.0
249.44722 76.0
249.623291 88.0
249.650757 128.0
249.721008 164.0
249.802551 120.0
249.826889 112.0
249.865479 268.0
249.902618 188.0
249.91539 88.0
249.934692 176.0
249.988312 480.0
250.054779 75372.0
250.139862 88.0
250.175858 52.0
250.257751 68.0
250.267288 60.0
250.283859 112.0
250.323669 116.0
250.37619 96.0
250.408722 152.0
250.453583 220.0
250.509811 192.0
250.535461 88.0
250.570831 132.0
250.604095 80.0
250.625397 100.0
250.657898 176.0
250.696671 184.0
250.779892 216.0
250.818314 132.0
250.84021 64.0
250.912903 124.0
250.943542 84.0
251.01944 256.0
251.057144 10232.0
251.163345 84.0
251.18631 132.0
251.223282 80.0
251.243912 52.0
251.267441 64.0
251.298996 60.0
251.373306 124.0
251.445724 88.0
251.516739 80.0
251.546204 100.0
251.565918 76.0
251.614609 76.0
251.650513 64.0
251.690384 72.0
251.715637 88.0
251.75354 84.0
251.800415 52.0
251.829239 136.0
251.860916 60.0
251.927246 88.0
252.051666 3784.0
252.099976 36.0
252.132629 56.0
252.156036 108.0
252.287506 112.0
252.342529 48.0
252.439117 80.0
252.450256 76.0
252.458572 40.0
252.56958 80.0
252.594254 76.0
252.648026 132.0
252.691666 136.0
252.730286 132.0
252.799911 72.0
252.822052 124.0
252.888382 96.0
252.921967 284.0
252.970703 108.0
253.011978 84.0
253.05481 376.0
253.128387 104.0
253.198792 52.0
253.255798 76.0
253.369843 84.0
253.423691 44.0
253.496582 36.0
253.596329 92.0
253.851608 72.0
253.946762 60.0
253.968964 80.0
254.000671 44.0
254.079987 112.0
254.11171 56.0
254.422729 60.0
254.521149 56.0
254.784775 104.0
254.851486 32.0
254.92775 104.0
255.037155 188.0
255.465088 72.0
256.218506 96.0
256.420319 36.0
256.640259 84.0
256.786957 44.0
257.565765 36.0
257.920441 92.0
259.527527 40.0
259.591644 44.0
261.207153 64.0
262.089264 212.0
263.460449 48.0
264.042297 92.0
264.87085 128.0
265.687775 56.0
265.999298 64.0
270.844818 116.0
271.08728 168.0
271.1987 84.0
271.382294 100.0
272.005585 164.0
272.79068 88.0
274.047852 48.0
274.14151 160.0
275.146118 80.0
276.988098 124.0
277.064819 1152.0
277.157043 40.0
277.402313 124.0
278.064575 292.0
278.268158 48.0
279.794189 60.0
280.030609 152.0
280.070557 124.0
281.023987 32.0
283.139954 52.0
285.906281 116.0
286.556152 52.0
287.092102 84.0
287.162933 200.0
291.136169 108.0
293.044434 164.0
293.654633 56.0
295.023895 196.0
295.069397 148.0
295.776459 176.0
296.081177 100.0
296.105133 120.0
296.386047 68.0
297.34967 72.0
314.990509 160.0
316.539581 156.0
316.706024 40.0
316.798126 92.0
317.000092 84.0
319.517487 172.0
320.001495 80.0
325.152557 72.0
327.082642 80.0
329.249542 56.0
331.622894 64.0
332.166779 128.0
332.990723 108.0
333.03067 124.0
333.252258 164.0
335.935394 184.0
339.714264 52.0
340.918549 84.0
352.499237 108.0
362.562164 48.0
368.15448 92.0
369.044037 328.0
370.043396 172.0
372.966583 224.0
375.966827 176.0
377.158569 172.0
384.387817 100.0
386.71701 72.0
389.159241 84.0
390.71167 92.0
391.424042 64.0
393.284851 48.0
398.881775 96.0
410.069305 68.0
413.223053 68.0
422.110504 72.0
429.437012 100.0
430.072388 96.0
432.788452 104.0
434.288605 68.0
446.400177 56.0
461.829468 100.0
473.008392 104.0
478.674103 56.0
484.242157 148.0
485.758728 52.0
493.554016 116.0
494.885834 64.0
503.878906 60.0
520.304138 96.0
546.6474 60.0
561.653809 52.0
565.783875 72.0
573.522034 120.0
674.309082 108.0
682.380066 56.0
688.340759 84.0
699.47644 48.0
699.660706 112.0
723.412292 52.0
733.780701 132.0
751.73999 48.0
757.831299 44.0
778.100342 68.0
785.40686 76.0
806.185852 72.0
809.008179 104.0
828.748047 100.0
867.252625 72.0
869.340454 152.0
875.673157 84.0
896.263855 140.0
930.718506 68.0
945.048218 96.0
1005.25293 116.0
1015.926575 108.0
1019.590149 140.0
1024.667847 80.0
1048.214844 40.0
1104.164795 128.0
1143.791382 152.0
1156.82605 176.0
1164.22998 64.0
1200.017456 136.0
1204.358032 68.0
1205.525635 152.0
1213.575684 144.0
1228.744507 164.0
1230.04248 224.0
1236.430664 176.0
1241.951538 120.0
1250.987915 252.0
1258.361938 184.0
1258.531372 40.0
1261.739014 192.0
1273.210571 56.0
1277.389771 168.0
1277.525024 184.0
1299.184692 136.0
1305.199219 168.0
1305.706665 172.0
1309.917236 56.0
1319.94165 76.0
1326.48645 204.0
1330.861084 140.0
1332.560547 204.0
1333.047363 52.0
1335.584595 72.0
1339.966919 184.0
1345.976807 168.0
1347.48877 136.0
1350.449219 260.0
1351.071045 108.0
1351.18811 188.0
1351.927002 236.0
1359.408936 104.0
1360.076782 176.0
1361.222046 160.0
1363.77124 140.0
1364.447632 232.0
1367.411865 144.0
1376.501465 96.0
1379.057617 136.0
1380.528809 176.0
1382.28418 104.0
1385.161865 176.0
1386.732666 76.0
1387.510986 64.0
1396.094238 176.0
1400.85022 124.0
1405.95752 168.0
1407.450439 200.0
1408.525879 176.0
1411.58252 184.0
1413.317871 212.0
1415.35376 228.0
1415.705688 212.0
1417.113892 196.0
1430.459717 144.0
1432.883789 64.0
1436.276001 148.0
1439.309814 160.0
1442.739868 180.0
1443.851318 144.0
1445.644165 180.0
1450.044189 120.0
1454.018188 176.0
1457.997559 72.0
1458.27124 192.0
1460.308838 224.0
1468.732666 212.0
1474.069092 236.0
1476.920654 200.0
1488.047485 148.0
1491.957886 124.0
1493.557373 104.0
1496.643311 72.0
1498.160522 156.0
1499.585938 212.0
1502.415771 96.0
1503.650391 260.0
