>compound MLS002638967-01!
>formula C15H16O5
>ionization [M+H]+
>parentmass 277.108
#inchi InChI=1S/C15H16O5/c1-17-12-7-11(20-15(16)8-12)4-2-10-3-5-13-14(6-10)19-9-18-13/h3,5-6,8,11H,2,4,7,9H2,1H3
#inchikey RSIWXFIBHXYNFM
#Ion_Source LC-ESI
#Instrument qTof
#Compound_Source NIH Natural Product Library
#PI Dorrestein
#Data_Collector VVP/LMS
#Scan -1
#Precursor_MZ 277.108
#ExactMass 276.1
#Charge 1
#CAS_Number N/A
#Pubmed_ID N/A
#Smiles COC1=CC(=O)OC(CCc2ccc3OCOc3c2)C1
#INCHI_AUX N/A
#Library_Class 1
#SpectrumID CCMSLIB00000080461
#IonMode Positive
#UpdateWorkflowName UPDATE-SINGLE-ANNOTATED-GOLD
#LibraryQualityString Gold
#TaskID b1d8e8f6646f4e71acdff9ca3d919d08
##Scan# 2021
#SpectrumFile p2-C09_GC9_01_18009.mzXML
#LibraryName NIH_Natural_Products_Library.mgf
#MQScore -1
#Organism NIH_Natural_Products_Library
#TIC_Query 0
#RT_Query -1
#MZErrorPPM -1
#SharedPeaks 0
#MassDiff 0
#LibMZ -1
#SpecMZ 277.108
#SpecCharge 0
#internalFilename spec-00000.mgf

>collision 10
95.051048 160.0
95.284035 168.0
95.305405 172.0
96.023727 192.0
96.045181 192.0
96.357521 248.0
96.459137 152.0
97.537231 244.0
97.688644 272.0
97.708321 164.0
97.85199 220.0
97.942574 92.0
97.970146 124.0
98.206688 212.0
98.350723 176.0
98.722145 240.0
99.044746 136.0
99.108139 192.0
99.930138 208.0
100.378296 216.0
100.609734 84.0
101.101433 196.0
101.151474 212.0
101.353745 184.0
101.618408 152.0
101.807091 176.0
101.951729 152.0
102.024086 264.0
102.047699 492.0
102.712776 168.0
102.975166 84.0
103.019608 168.0
103.055214 10548.0
103.260139 56.0
103.413902 108.0
103.476654 60.0
103.774483 136.0
103.85154 68.0
103.940804 176.0
104.060081 1032.0
104.469048 152.0
104.566711 84.0
104.650169 72.0
104.784592 92.0
104.851837 148.0
104.880371 48.0
105.014938 72.0
105.033897 1616.0
105.064812 148.0
105.159798 116.0
105.368477 216.0
105.394646 28.0
105.492744 132.0
105.564301 96.0
106.002365 140.0
106.033104 192.0
106.437225 88.0
106.507057 204.0
106.527596 80.0
106.679665 120.0
107.012939 260.0
107.052902 468.0
107.367363 140.0
107.406548 156.0
108.303612 180.0
108.869804 172.0
108.969513 40.0
109.06459 920.0
109.142021 176.0
109.320915 104.0
109.535355 76.0
109.622864 148.0
109.754181 208.0
109.962791 204.0
110.727989 144.0
111.044189 172.0
111.525261 148.0
111.590424 112.0
111.790245 144.0
112.082939 152.0
112.392899 280.0
112.747658 172.0
113.06488 156.0
113.314919 144.0
114.095749 172.0
114.549019 108.0
114.629982 172.0
115.054985 632.0
115.100868 164.0
115.605873 152.0
115.798546 140.0
116.05645 184.0
116.186523 180.0
116.51284 92.0
116.777237 44.0
116.994568 160.0
117.072243 156.0
118.008553 60.0
118.051796 160.0
118.473854 180.0
119.050804 180.0
119.085548 64.0
119.650917 160.0
120.294014 188.0
120.575775 196.0
120.593262 148.0
121.585381 180.0
122.251259 56.0
122.768944 104.0
122.874817 48.0
123.126457 136.0
123.258995 44.0
123.298775 124.0
123.56633 184.0
123.925003 196.0
123.989258 180.0
124.035805 272.0
124.364082 156.0
124.877319 160.0
125.714981 192.0
126.103577 176.0
126.280205 156.0
126.412193 116.0
126.515152 100.0
126.947578 132.0
127.09787 180.0
128.026245 132.0
128.062973 596.0
128.156891 156.0
128.294373 216.0
128.736603 192.0
129.069168 160.0
129.170547 196.0
129.457977 64.0
129.516861 164.0
129.791077 164.0
130.038345 108.0
130.076935 128.0
130.097366 140.0
130.909058 140.0
130.926498 216.0
130.963715 168.0
130.993774 144.0
131.050476 12312.0
131.092133 108.0
131.262253 132.0
131.334442 240.0
131.483536 60.0
131.593109 68.0
131.622787 40.0
131.734695 156.0
131.810089 84.0
131.965515 104.0
132.053391 868.0
132.267487 176.0
132.668365 164.0
132.691284 200.0
133.0354 80.0
133.097397 172.0
133.118057 140.0
133.1548 128.0
133.658249 236.0
133.741089 192.0
133.992096 124.0
134.047394 196.0
134.079651 212.0
134.280228 200.0
134.360733 200.0
134.386337 176.0
134.423264 36.0
134.852814 112.0
134.878235 156.0
134.926254 140.0
134.931137 108.0
134.986893 220.0
135.007706 172.0
135.045334 32912.0
135.095108 172.0
135.142441 112.0
135.194672 56.0
135.246002 84.0
135.265488 96.0
135.301559 76.0
135.317764 108.0
135.361755 56.0
135.398804 100.0
135.433548 96.0
135.496094 48.0
135.537796 56.0
135.554016 68.0
135.570236 64.0
135.595734 92.0
135.669907 160.0
135.76265 96.0
136.04805 2808.0
136.071823 116.0
136.189682 168.0
136.243118 76.0
136.305847 56.0
136.363937 68.0
136.57785 64.0
136.629028 112.0
136.782608 68.0
136.826553 96.0
136.857101 60.0
136.990219 104.0
137.017807 152.0
137.056274 372.0
137.101685 96.0
137.157623 32.0
137.178604 76.0
137.199448 68.0
137.246216 100.0
138.00972 68.0
138.323212 128.0
139.052155 60.0
140.065674 184.0
140.369553 100.0
140.619614 68.0
141.035309 196.0
141.070023 1344.0
141.099136 152.0
142.072922 296.0
142.518814 76.0
142.915878 168.0
143.052216 468.0
143.084396 380.0
143.325424 52.0
143.561401 196.0
144.045624 168.0
144.062637 124.0
144.088913 152.0
145.062592 216.0
145.201965 72.0
146.068817 128.0
146.454163 72.0
146.574615 80.0
147.04245 192.0
148.229828 40.0
148.249222 68.0
149.027542 184.0
149.317398 160.0
149.334412 112.0
149.477951 84.0
149.891907 44.0
150.025955 172.0
151.818176 112.0
152.055435 152.0
152.137146 112.0
152.995102 236.0
153.096054 196.0
153.635849 176.0
155.050171 168.0
155.07518 136.0
155.270828 176.0
156.050537 224.0
157.016693 136.0
157.069336 188.0
157.41597 80.0
157.923294 96.0
158.075897 232.0
159.04451 320.0
159.080246 320.0
159.985916 48.0
160.053955 156.0
160.840454 56.0
160.885895 236.0
160.991577 136.0
161.012146 188.0
161.060867 3496.0
161.90741 180.0
162.062408 316.0
162.508163 216.0
163.094772 52.0
165.0672 228.0
165.795044 140.0
167.990814 104.0
168.053497 108.0
168.127563 76.0
169.065552 952.0
169.272751 60.0
169.593994 48.0
169.775467 196.0
170.06604 296.0
170.258163 52.0
170.343872 92.0
171.048965 204.0
171.089783 412.0
171.475723 116.0
172.049164 204.0
173.060013 616.0
173.095398 172.0
174.036713 132.0
175.038528 120.0
176.037918 160.0
178.997253 160.0
179.063828 160.0
179.890396 224.0
180.039917 200.0
181.093643 36.0
183.094498 168.0
185.059952 656.0
186.066803 456.0
186.479065 92.0
187.046783 252.0
187.080185 164.0
188.04567 156.0
188.088776 168.0
189.053543 144.0
189.32457 176.0
195.041306 180.0
196.05159 160.0
197.060059 288.0
198.060379 192.0
199.049728 192.0
199.079041 492.0
199.182373 48.0
199.640488 52.0
200.053574 216.0
200.082901 236.0
200.130096 44.0
200.152618 128.0
200.8741 152.0
201.05603 136.0
201.088135 140.0
201.579117 160.0
201.772125 112.0
202.437042 108.0
203.070923 276.0
203.210846 96.0
209.005371 104.0
209.065811 124.0
210.062698 212.0
212.052002 128.0
213.651932 136.0
215.044769 180.0
215.067444 532.0
215.348419 68.0
216.044098 180.0
216.085678 168.0
216.940186 128.0
217.081329 172.0
219.058914 140.0
221.045883 72.0
225.064636 140.0
226.061569 148.0
227.070694 252.0
229.091141 220.0
231.110886 172.0
233.575607 52.0
236.948868 144.0
237.172562 100.0
241.087265 100.0
241.09494 172.0
242.092789 160.0
245.074768 148.0
246.075943 84.0
247.094803 236.0
261.566956 56.0
261.882477 48.0
275.161835 144.0
276.775299 92.0
277.142975 172.0
283.852814 128.0
288.874451 60.0
296.278717 76.0
309.884552 56.0
391.421387 100.0
408.419586 124.0
411.55484 96.0
431.845703 84.0
466.14267 68.0
526.834229 120.0
548.994446 108.0
605.939026 200.0
670.451355 44.0
682.018616 152.0
725.884094 196.0
753.046387 164.0
761.293945 176.0
768.068909 188.0
792.586121 128.0
824.634216 124.0
841.67865 248.0
843.284607 212.0
856.193115 176.0
865.114746 252.0
871.683533 120.0
874.41803 192.0
879.150269 48.0
884.605469 32.0
898.905029 96.0
937.548889 184.0
941.330933 212.0
944.875916 44.0
945.561279 220.0
956.664734 188.0
960.133606 124.0
964.300842 192.0
975.408569 164.0
975.867859 176.0
980.592468 180.0
984.360413 188.0
991.667236 72.0
998.699219 244.0
1002.029175 124.0
1010.172729 220.0
1011.533203 204.0
1013.160645 128.0
1013.205017 52.0
1036.831787 136.0
1039.043945 164.0
1047.220337 160.0
1049.16626 132.0
1049.379028 188.0
1055.105469 264.0
1057.18811 168.0
1058.489258 136.0
1060.30957 120.0
1060.964233 232.0
1064.337891 140.0
1065.675903 128.0
1076.788696 44.0
1076.867065 256.0
1078.271729 184.0
1078.552734 176.0
1087.060059 64.0
1088.044556 212.0
1092.723755 136.0
1098.46167 60.0
1103.229248 220.0
1104.326904 208.0
1104.849487 204.0
1105.193481 200.0
1106.179565 128.0
1106.239136 156.0
1107.29187 164.0
1108.7229 212.0
1110.27417 104.0
1110.400146 132.0
1112.682739 196.0
1116.98877 88.0
1120.417114 172.0
1120.74353 120.0
1125.352295 116.0
1126.013306 68.0
1128.479004 52.0
1131.067871 192.0
1131.95166 148.0
1132.25293 160.0
1132.433838 200.0
1132.601196 204.0
1149.178711 216.0
1153.385742 196.0
1153.6427 156.0
1154.230835 120.0
1154.629761 220.0
1158.887573 176.0
1159.178833 232.0
1159.673584 60.0
1161.544922 188.0
1174.502563 124.0
1185.228638 196.0
1187.25769 188.0
1191.410156 176.0
1197.745605 68.0
1199.137329 168.0
1201.509277 176.0
1202.088867 156.0
1205.783447 124.0
1207.325073 140.0
1208.341797 128.0
1208.770752 160.0
1210.653687 108.0
1211.27002 272.0
1212.77356 108.0
1214.049194 60.0
1214.368286 264.0
1215.651611 180.0
1215.714111 212.0
1217.894043 164.0
1220.055054 68.0
1222.55896 132.0
1223.902466 72.0
1225.281494 212.0
1227.428101 212.0
1229.234741 268.0
1231.000732 224.0
1237.111328 248.0
1241.315063 72.0
1242.247803 140.0
1242.388062 248.0
1245.364258 220.0
1251.369507 156.0
1252.975342 112.0
1253.172607 140.0
1253.517822 200.0
1253.968872 228.0
1257.791626 128.0
1258.165649 144.0
1261.231445 188.0
1264.760864 176.0
1267.827393 188.0
1268.798462 196.0
1270.833984 52.0
1274.206299 168.0
1276.302612 232.0
1277.15625 148.0
1279.383423 184.0
1279.796387 144.0
1280.593994 228.0
1282.909668 168.0
1283.886475 168.0
1284.278687 164.0
1286.348022 44.0
1286.46936 216.0
1286.904785 168.0
1289.347778 176.0
1291.843018 136.0
1292.401001 180.0
1293.288452 284.0
1293.696411 172.0
1294.555542 196.0
1295.386353 72.0
1295.579834 220.0
1297.593506 92.0
1304.039551 132.0
1304.894897 208.0
1311.841919 168.0
1312.231201 140.0
1312.526855 208.0
1312.800781 84.0
1316.647217 164.0
1320.014648 264.0
1324.653687 220.0
1324.755127 132.0
1325.189819 128.0
1326.030396 168.0
1328.33606 176.0
1328.618896 176.0
1329.438843 224.0
1330.992188 28.0
1331.18103 92.0
1333.040527 176.0
1340.914551 168.0
1342.934082 152.0
1348.146606 152.0
1349.294922 188.0
1351.488281 188.0
1354.006348 144.0
1355.127075 228.0
1355.56665 212.0
1358.279297 132.0
1359.357666 172.0
1360.13562 80.0
1360.414551 212.0
1360.899048 168.0
1362.074097 164.0
1367.088135 104.0
1368.604492 160.0
1368.906372 120.0
1371.735352 216.0
1372.449585 148.0
1377.468872 144.0
1378.155884 172.0
1378.377563 164.0
1380.979736 212.0
1382.592529 208.0
1384.35437 136.0
1384.650513 68.0
1385.917236 60.0
1386.739746 160.0
1387.703491 240.0
1391.873291 176.0
1393.054077 184.0
1395.558472 180.0
1395.878296 164.0
1397.455078 176.0
1397.782471 184.0
1398.645752 60.0
1400.142212 56.0
1400.834839 76.0
1403.495483 176.0
1404.382812 176.0
1409.645996 228.0
1410.744629 164.0
1411.110962 176.0
1411.686646 116.0
1416.0271 212.0
1418.776978 156.0
1419.609253 168.0
1420.329224 104.0
1420.479248 96.0
1424.510132 176.0
1427.75708 208.0
1432.204956 136.0
1434.133789 192.0
1434.420166 208.0
1435.234375 200.0
1439.459839 136.0
1441.89978 180.0
1442.338135 172.0
1443.910767 236.0
1444.409912 172.0
1445.643188 144.0
1451.384766 168.0
1455.542725 104.0
1456.955444 96.0
1460.992065 184.0
1464.440186 168.0
1464.68396 220.0
1466.299194 68.0
1467.434937 184.0
1469.806885 248.0
1469.974731 140.0
1470.104492 188.0
1470.539551 128.0
1472.846069 208.0
1473.509888 200.0
1474.969482 60.0
1475.405151 132.0
1476.880981 360.0
1477.990234 192.0
1478.44165 144.0
1480.807251 112.0
1486.380249 176.0
1486.541504 160.0
1489.650879 172.0
1491.325806 176.0
1491.886963 180.0
1493.386353 216.0
1493.563232 180.0
1493.701782 144.0
1494.401733 112.0
1495.733032 180.0
1497.003418 160.0
1497.242065 156.0
1498.266479 140.0
1498.405151 164.0
1499.206543 144.0
1499.6073 148.0
1501.233887 124.0
1502.282837 60.0
