>compound NCGC00090504-04!2',4,4'-Trihydroxychalcone
>formula C15H12O4
>ionization [M+H]+
>parentmass 257.081
#inchi InChI=1S/C15H12O4/c16-11-4-1-10(2-5-11)3-8-14(18)13-7-6-12(17)9-15(13)19/h1-9,16-17,19H/b8-3+
#inchikey DXDRHHKMWQZJHT
#Ion_Source LC-ESI
#Instrument qTOF
#Compound_Source Prestwick Phytochem Lib
#PI Dorrestein
#Data_Collector VVP/LMS
#Scan -1
#Precursor_MZ 257.081
#ExactMass 256.074
#Charge 1
#CAS_Number N/A
#Pubmed_ID N/A
#Smiles OC1=CC=C(C=C1)/C=C/C(=O)C2=C(O)C=C(O)C=C2
#INCHI_AUX N/A
#Library_Class 1
#SpectrumID CCMSLIB00000078807
#IonMode Positive
#UpdateWorkflowName UPDATE-SINGLE-ANNOTATED-GOLD
#LibraryQualityString Gold
#TaskID 67c915c6594c435cadc1fe2b5358144d
##Scan# 1980
#SpectrumFile p1-E04_GE4_01_17924.mzXML
#LibraryName phytochem_lib.mgf
#MQScore -1
#Organism phytochem_lib
#TIC_Query 0
#RT_Query -1
#MZErrorPPM -1
#SharedPeaks 0
#MassDiff 0
#LibMZ -1
#SpecMZ 257.081
#SpecCharge 0
#internalFilename spec-00000.mgf

>collision 10
95.059418 120.0
95.593796 184.0
96.01458 172.0
96.231178 196.0
97.027443 132.0
99.429985 120.0
99.459755 136.0
99.805428 172.0
100.273232 144.0
101.038002 168.0
101.334305 72.0
101.594925 160.0
102.34256 68.0
103.813599 180.0
104.059113 168.0
104.225662 148.0
104.390305 112.0
104.467598 220.0
105.18692 200.0
107.051048 248.0
107.927544 168.0
108.051643 156.0
108.963852 188.0
109.028824 404.0
109.788116 132.0
109.850685 60.0
110.280823 20.0
111.835007 64.0
112.237373 260.0
114.366455 160.0
114.792542 224.0
114.997345 152.0
115.050476 184.0
116.058395 120.0
116.934845 128.0
117.036659 380.0
117.089859 56.0
118.041534 84.0
119.049789 1884.0
119.945549 208.0
120.052544 136.0
120.167984 128.0
120.523872 148.0
120.556648 36.0
120.58725 76.0
120.659378 36.0
120.740288 116.0
120.867165 156.0
122.271599 76.0
123.042717 396.0
123.879005 144.0
125.004654 156.0
125.849442 136.0
126.838249 48.0
126.990715 144.0
128.238327 212.0
128.335464 200.0
131.05101 216.0
131.084976 156.0
133.125458 68.0
134.285355 112.0
135.89537 208.0
136.97319 284.0
137.02356 8040.0
137.068619 168.0
137.200089 44.0
137.298019 68.0
137.360992 68.0
137.645721 128.0
138.027863 724.0
138.255829 52.0
139.029449 140.0
139.054993 196.0
140.056595 48.0
140.238022 88.0
140.320526 44.0
141.073608 300.0
142.013657 52.0
143.080582 156.0
145.031006 176.0
145.893967 96.0
146.558228 124.0
147.016373 180.0
147.04393 2448.0
148.06073 172.0
149.048035 172.0
150.211746 176.0
150.700012 72.0
153.072418 152.0
155.040726 172.0
155.087814 192.0
155.526825 132.0
156.008728 88.0
163.037476 156.0
164.062515 112.0
165.071991 1160.0
165.273102 80.0
166.062103 184.0
166.078384 112.0
166.423935 28.0
166.806717 80.0
168.058319 308.0
168.081543 228.0
169.063095 156.0
169.633301 48.0
170.388458 56.0
171.035965 124.0
171.075012 124.0
173.062973 176.0
177.074997 224.0
181.063354 364.0
182.067276 160.0
183.08049 588.0
184.054901 208.0
185.358673 136.0
189.401642 92.0
193.067673 88.0
194.078384 432.0
195.044464 164.0
197.056152 168.0
201.052231 140.0
209.043152 160.0
210.07579 204.0
210.972702 248.0
211.059235 340.0
211.079178 380.0
211.172211 200.0
211.698929 48.0
212.069748 108.0
213.054932 128.0
213.629028 100.0
221.061859 128.0
231.936295 228.0
234.955521 156.0
236.940018 192.0
239.072708 228.0
242.086945 148.0
257.077087 176.0
257.102631 136.0
258.096405 176.0
263.114624 56.0
313.472412 20.0
382.935638 100.0
504.746948 76.0
589.992493 116.0
735.587402 88.0
845.428833 56.0
887.169556 224.0
951.537476 140.0
967.771118 160.0
1025.195435 144.0
1123.605835 184.0
1126.790405 96.0
1178.26001 216.0
1205.261719 152.0
1214.607666 28.0
1215.301514 192.0
1215.752441 112.0
1218.849487 136.0
1226.365356 180.0
1231.591309 56.0
1233.582764 192.0
1246.014771 232.0
1277.80835 160.0
1286.90979 180.0
1292.871216 120.0
1297.326294 200.0
1321.893677 160.0
1336.929565 104.0
1348.98584 168.0
1356.796875 168.0
1385.088135 24.0
1387.651001 80.0
1392.177246 232.0
1395.424316 180.0
1395.625 220.0
1404.203613 204.0
1406.613647 172.0
1408.5625 224.0
1421.522705 228.0
1424.194702 172.0
1437.399536 88.0
1458.171875 96.0
1468.869507 132.0
1474.634155 108.0
1474.695312 160.0
1475.14624 172.0
1483.896484 188.0
1484.410156 76.0
1492.94165 188.0
1500.19458 136.0
1503.997437 268.0
