>compound MLS001401439-01!MOSAPRIDE CITRATE
>formula C21H25ClFN3O3
>ionization [M+H]+
>parentmass 422.165405
#inchi InChI=1S/C21H25ClFN3O3/c1-2-28-20-10-19(24)18(22)9-17(20)21(27)25-11-16-13-26(7-8-29-16)12-14-3-5-15(23)6-4-14/h3-6,9-10,16H,2,7-8,11-13,24H2,1H3,(H,25,27)
#inchikey YPELFRMCRYSPKZ
#origInchi InChI=1S/C21H25ClFN3O3.C6H8O7/c1-2-28-20-10-19(24)18(22)9-17(20)21(27)25-11-16-13-26(7-8-29-16)12-14-3-5-15(23)6-4-14;7-3(8)1-6(13,5(11)12)2-4(9)10/h3-6,9-10,16H,2,7-8,11-13,24H2,1H3,(H,25,27);13H,1-2H2,(H,7,8)(H,9,10)(H,11,12)
#Ion_Source LC-ESI
#Instrument qTof
#Compound_Source NIH Pharmacologically Active Library
#PI Dorrestein
#Data_Collector VP/LMS
#Scan -1
#Precursor_MZ 422.17
#ExactMass 421.157
#Charge 1
#CAS_Number N/A
#Pubmed_ID N/A
#Smiles CCOc1cc(N)c(Cl)cc1C(=O)NCC2CN(Cc3ccc(F)cc3)CCO2.OC(=O)CC(O)(CC(=O)O)C(=O)O
#INCHI_AUX N/A
#Library_Class 1
#SpectrumID CCMSLIB00000085810
#IonMode Positive
#UpdateWorkflowName UPDATE-SINGLE-ANNOTATED-GOLD
#LibraryQualityString Gold
#TaskID d252d724072548979f1f6f1ced849daf
##Scan# 1572
#SpectrumFile p4-F08_GF8_01_18392.mzXML
#LibraryName Pharm_Active_Library.mgf
#MQScore -1
#Organism Pharm_Active_Library
#TIC_Query 0
#RT_Query -1
#MZErrorPPM -1
#SharedPeaks 0
#MassDiff 0
#LibMZ -1
#SpecMZ 422.17
#SpecCharge 0
#internalFilename spec-00000.mgf

>collision 10
44.896278 160.0
44.905025 156.0
44.917622 192.0
44.928291 128.0
44.941189 192.0
44.954979 216.0
44.989685 104.0
45.002735 196.0
45.007744 152.0
45.01152 124.0
45.039093 144.0
45.06282 184.0
45.066299 264.0
45.079975 100.0
45.089867 112.0
45.100204 196.0
45.121948 60.0
45.163406 280.0
45.202206 60.0
45.228748 168.0
45.241741 156.0
45.245739 84.0
45.250301 116.0
45.265244 112.0
45.290569 72.0
45.312313 208.0
45.325233 152.0
45.338802 228.0
45.354885 156.0
45.365612 172.0
45.381271 188.0
45.412544 188.0
45.438034 124.0
45.455475 192.0
45.490372 52.0
45.503799 124.0
45.531998 36.0
45.546848 140.0
45.562099 400.0
45.576214 140.0
45.585121 164.0
45.590103 160.0
45.594551 364.0
45.607555 120.0
45.631439 156.0
45.665791 132.0
45.706764 264.0
45.733074 160.0
45.747143 120.0
45.759666 152.0
45.782673 240.0
45.792923 44.0
45.806393 176.0
45.818581 88.0
45.829296 116.0
45.845776 176.0
45.858948 224.0
45.869728 176.0
45.878635 132.0
45.908833 32.0
45.920971 208.0
45.951996 56.0
45.964142 140.0
45.984066 152.0
46.005981 84.0
46.015434 112.0
46.051895 124.0
46.069096 180.0
46.082966 180.0
46.092426 380.0
46.109993 132.0
46.143017 196.0
46.169479 216.0
46.186268 136.0
46.20871 152.0
46.239834 112.0
46.256077 212.0
46.275032 152.0
46.296421 140.0
46.311325 160.0
46.327522 148.0
46.350883 124.0
46.36628 144.0
46.396969 116.0
46.410854 132.0
46.428757 156.0
46.437649 180.0
46.448502 216.0
46.479706 200.0
46.493694 156.0
46.519066 132.0
46.533508 132.0
46.554371 196.0
46.569309 256.0
46.594913 212.0
46.607201 148.0
46.634529 148.0
46.650841 172.0
46.660358 144.0
46.688915 104.0
46.703876 148.0
46.716118 148.0
46.750134 224.0
46.769421 376.0
46.801449 136.0
46.819447 136.0
46.836433 212.0
46.850895 300.0
46.868282 184.0
46.893345 144.0
46.920403 68.0
46.932674 96.0
46.952717 252.0
46.973591 68.0
46.988598 148.0
47.000877 44.0
47.018833 176.0
47.030903 152.0
47.043186 176.0
47.052746 164.0
47.06723 92.0
47.082558 164.0
47.10297 180.0
47.105572 344.0
47.121033 64.0
47.133331 48.0
47.166134 104.0
47.187141 96.0
47.214844 192.0
47.234505 468.0
47.251904 356.0
47.274639 132.0
47.298134 180.0
47.307945 120.0
47.322094 100.0
47.339958 168.0
47.360439 120.0
47.377243 180.0
47.390579 160.0
47.424973 124.0
47.4454 72.0
47.457741 168.0
47.471233 224.0
47.48756 140.0
47.543079 172.0
47.561672 164.0
47.597702 72.0
47.625721 140.0
47.656769 104.0
47.68013 96.0
47.701614 140.0
47.717247 136.0
47.737473 204.0
47.75351 140.0
47.778137 176.0
47.792896 68.0
47.806656 144.0
47.818676 164.0
47.843166 176.0
47.860344 224.0
47.901318 156.0
47.906879 132.0
47.917091 180.0
47.943127 128.0
47.968391 340.0
47.996136 88.0
48.011131 124.0
48.021584 132.0
48.038574 164.0
48.051933 124.0
48.061592 172.0
48.074013 136.0
48.083672 128.0
48.120945 108.0
48.14304 192.0
48.160385 212.0
48.182129 80.0
48.208729 276.0
48.22707 156.0
48.245026 208.0
48.257774 272.0
48.270493 176.0
48.295719 120.0
48.310986 228.0
48.339344 124.0
48.361488 148.0
48.402851 276.0
48.429665 152.0
48.435448 136.0
48.439514 208.0
48.452038 124.0
48.481987 212.0
48.504162 144.0
48.520889 124.0
48.545544 156.0
48.550201 196.0
48.567947 160.0
48.619286 188.0
48.645554 104.0
48.668285 148.0
48.683147 160.0
48.7108 128.0
48.761253 232.0
48.769676 144.0
48.785969 132.0
48.805435 68.0
48.830467 136.0
48.851482 112.0
48.873966 148.0
48.888508 184.0
48.909424 204.0
48.927876 96.0
48.986366 176.0
49.024178 176.0
49.036736 136.0
49.051865 108.0
49.061623 76.0
49.090904 104.0
49.11322 80.0
49.146748 120.0
49.188572 80.0
49.200935 280.0
49.204201 160.0
49.240189 232.0
49.279839 172.0
49.303104 48.0
49.318481 136.0
49.339451 116.0
49.352032 84.0
49.36322 148.0
49.400986 88.0
49.415539 208.0
49.437916 340.0
49.452553 148.0
49.466076 152.0
49.486191 156.0
49.50864 136.0
49.540977 156.0
49.553432 144.0
49.562263 272.0
49.581615 108.0
49.598785 172.0
49.628422 216.0
49.646103 60.0
49.66375 172.0
49.690502 200.0
49.718273 200.0
49.741516 108.0
49.752747 140.0
49.76749 248.0
49.775414 224.0
49.797684 84.0
49.808323 188.0
49.821995 208.0
49.847221 184.0
49.86372 156.0
49.873558 340.0
49.890427 184.0
49.924171 96.0
49.943863 96.0
49.960743 144.0
49.979412 164.0
50.001644 124.0
50.028015 160.0
50.045193 128.0
50.056458 164.0
50.066315 88.0
50.095894 292.0
50.1283 236.0
50.140923 180.0
50.15649 168.0
50.180031 412.0
50.193146 144.0
50.217121 148.0
50.252388 160.0
50.276352 200.0
50.296871 208.0
50.331219 176.0
50.340149 164.0
50.357288 52.0
50.3801 140.0
50.386486 168.0
50.433887 160.0
50.444462 112.0
50.458599 168.0
50.488171 180.0
50.519413 96.0
50.530731 212.0
50.545849 152.0
50.560448 180.0
50.576378 204.0
50.579945 176.0
50.585987 288.0
50.61129 152.0
50.63113 156.0
50.65823 140.0
50.682236 124.0
50.722462 324.0
50.73468 152.0
50.774384 172.0
50.794662 148.0
50.813759 132.0
50.833965 76.0
50.884876 220.0
50.921989 132.0
50.937149 164.0
50.95182 124.0
50.977444 124.0
51.010349 216.0
51.0406 252.0
51.062645 104.0
51.099686 88.0
51.112389 164.0
51.119926 196.0
51.150368 124.0
51.166412 68.0
51.184044 136.0
51.217457 88.0
51.219959 124.0
51.242477 124.0
51.28553 72.0
51.308632 204.0
51.310894 220.0
51.343273 80.0
51.357883 180.0
51.374657 100.0
51.398911 116.0
51.417465 204.0
51.44173 140.0
51.464573 184.0
51.502281 96.0
51.528847 192.0
51.554569 172.0
51.568398 148.0
51.577927 152.0
51.601742 124.0
51.623581 160.0
51.646858 124.0
51.660965 332.0
51.681839 192.0
51.697578 536.0
51.708565 368.0
51.727722 132.0
51.739861 192.0
51.761433 212.0
51.773457 180.0
51.786346 140.0
51.798145 152.0
51.814415 144.0
51.835251 88.0
51.855961 116.0
51.878376 108.0
51.894928 120.0
51.904484 120.0
51.907368 216.0
51.928802 268.0
51.940025 132.0
51.952362 164.0
52.021881 328.0
52.047813 164.0
52.057293 192.0
52.084915 160.0
52.136425 108.0
52.150799 112.0
52.166611 120.0
52.182426 96.0
52.201279 284.0
52.219814 276.0
52.232254 148.0
52.243252 136.0
52.299755 288.0
52.312607 140.0
52.33165 112.0
52.352222 148.0
52.373211 300.0
52.414165 128.0
52.431732 64.0
52.442989 104.0
52.458923 224.0
52.478107 156.0
52.502106 372.0
52.521622 264.0
52.542492 80.0
52.562695 76.0
52.575684 196.0
52.6115 172.0
52.647869 180.0
52.672421 52.0
52.686592 188.0
52.7201 144.0
52.737446 144.0
52.750633 164.0
52.76223 192.0
52.786602 192.0
52.799068 236.0
52.809742 152.0
52.838673 100.0
52.868179 164.0
52.886055 200.0
52.902351 56.0
52.931309 168.0
52.941448 172.0
52.963173 212.0
52.981873 304.0
52.997944 224.0
53.016293 292.0
53.031277 176.0
53.041283 92.0
53.063419 116.0
53.103535 316.0
53.116829 132.0
53.171116 164.0
53.190834 120.0
53.214062 188.0
53.227592 164.0
53.230316 144.0
53.276516 144.0
53.289589 56.0
53.326435 352.0
53.339661 248.0
53.357903 184.0
53.381168 68.0
53.40279 120.0
53.420704 136.0
53.435589 184.0
53.462521 348.0
53.488255 164.0
53.501705 176.0
53.514172 100.0
53.532513 144.0
53.542488 132.0
53.579624 128.0
53.638794 144.0
53.663658 84.0
53.686951 144.0
53.703262 204.0
53.722153 128.0
53.747654 164.0
53.749924 312.0
53.816086 356.0
53.827511 96.0
53.84816 324.0
53.86097 80.0
53.88113 128.0
53.916199 160.0
53.930817 172.0
53.958557 164.0
53.980526 180.0
53.993038 180.0
54.011238 164.0
54.025421 196.0
54.038532 140.0
54.048717 240.0
54.068668 144.0
54.084404 188.0
54.104286 220.0
54.12429 180.0
54.14677 148.0
54.163788 188.0
54.212891 232.0
54.225014 120.0
54.24847 92.0
54.261665 80.0
54.278511 376.0
54.289909 260.0
54.352604 180.0
54.37315 104.0
54.402508 188.0
54.412746 156.0
54.474464 48.0
54.505081 396.0
54.543335 120.0
54.576569 136.0
54.591496 180.0
54.629265 328.0
54.647949 76.0
54.687805 148.0
54.705967 304.0
54.721542 176.0
54.732769 128.0
54.764252 188.0
54.789291 212.0
54.804428 132.0
54.835327 184.0
54.873024 128.0
54.905743 148.0
54.919018 192.0
54.933067 160.0
54.945572 204.0
54.977768 312.0
55.001831 196.0
55.018684 104.0
55.032654 204.0
55.081573 160.0
55.099117 224.0
55.110939 108.0
55.12867 172.0
55.138405 68.0
55.15823 116.0
55.169556 212.0
55.198341 156.0
55.239372 124.0
55.244404 132.0
55.250179 160.0
55.272038 140.0
55.287914 136.0
55.328358 104.0
55.348625 128.0
55.36982 168.0
55.392178 168.0
55.412781 80.0
55.447166 312.0
55.495781 92.0
55.519291 192.0
55.535889 180.0
55.558189 204.0
55.57291 92.0
55.58696 160.0
55.604076 128.0
55.625423 212.0
55.636032 136.0
55.64201 72.0
55.654713 216.0
55.702286 196.0
55.715446 164.0
55.727329 168.0
55.737305 228.0
55.751869 156.0
55.770428 76.0
55.780834 132.0
55.792728 100.0
55.81057 128.0
55.84626 144.0
55.926609 132.0
55.944473 416.0
55.96249 160.0
55.975792 240.0
56.011154 144.0
56.04636 172.0
56.101982 200.0
56.111702 180.0
56.156521 148.0
56.16436 108.0
56.168663 100.0
56.177128 172.0
56.189835 152.0
56.213081 228.0
56.242615 192.0
56.275459 204.0
56.293858 224.0
56.310898 148.0
56.343369 368.0
56.390488 100.0
56.401413 224.0
56.41291 136.0
56.432346 164.0
56.453281 180.0
56.478706 148.0
56.498745 176.0
56.51162 68.0
56.529575 388.0
56.544331 228.0
56.583099 164.0
56.592888 176.0
56.61235 96.0
56.664341 140.0
56.67448 172.0
56.698887 204.0
56.712856 96.0
56.736282 60.0
56.749775 168.0
56.768166 316.0
56.793266 104.0
56.817616 172.0
56.841274 140.0
56.86829 144.0
56.895351 148.0
56.926071 164.0
56.93177 228.0
56.943363 180.0
56.964188 176.0
56.983562 168.0
57.022148 256.0
57.034164 184.0
57.047043 148.0
57.075611 160.0
57.106918 132.0
57.122749 164.0
57.138783 40.0
57.153362 180.0
57.16301 256.0
57.192959 80.0
57.221359 176.0
57.245655 208.0
57.261387 164.0
57.272198 180.0
57.301388 160.0
57.314648 120.0
57.339062 160.0
57.350658 136.0
57.360165 232.0
57.381443 104.0
57.391384 164.0
57.41996 128.0
57.449966 204.0
57.466343 236.0
57.495914 96.0
57.512875 152.0
57.518219 36.0
57.524216 144.0
57.556301 196.0
57.57291 44.0
57.596474 220.0
57.602467 192.0
57.652622 152.0
57.658195 80.0
57.661671 144.0
57.683388 136.0
57.704376 152.0
57.723656 208.0
57.766159 408.0
57.798721 184.0
57.808315 136.0
57.842045 104.0
57.872326 204.0
57.884441 120.0
57.901688 400.0
57.917191 160.0
57.942474 236.0
57.958477 128.0
57.962887 112.0
57.970089 104.0
57.974396 168.0
57.991062 180.0
58.011711 176.0
58.023575 160.0
58.05814 216.0
58.085594 172.0
58.108349 228.0
58.123928 184.0
58.140202 152.0
58.166447 72.0
58.181416 116.0
58.202885 144.0
58.219669 148.0
58.243202 212.0
58.250332 100.0
58.25388 236.0
58.274601 140.0
58.304428 156.0
58.319866 136.0
58.344189 116.0
58.360153 112.0
58.393639 156.0
58.404171 72.0
58.430096 180.0
58.436455 164.0
58.442566 188.0
58.469074 148.0
58.498745 336.0
58.516109 188.0
58.561794 176.0
58.578094 160.0
58.583172 240.0
58.58791 92.0
58.603081 216.0
58.625786 176.0
58.635548 148.0
58.655491 188.0
58.672684 120.0
58.692574 128.0
58.705753 420.0
58.746201 152.0
58.767944 320.0
58.785912 92.0
58.814911 248.0
58.831703 180.0
58.850025 140.0
58.882095 96.0
58.903576 156.0
58.918755 172.0
58.9394 192.0
58.96154 348.0
58.991398 124.0
59.018105 184.0
59.042572 140.0
59.091522 148.0
59.112946 140.0
59.12743 216.0
59.185173 172.0
59.207859 180.0
59.221645 188.0
59.260723 212.0
59.286968 164.0
59.290295 248.0
59.313858 160.0
59.354134 216.0
59.377983 220.0
59.404888 96.0
59.428104 184.0
59.441635 196.0
59.457764 124.0
59.482731 144.0
59.494602 168.0
59.511143 176.0
59.538605 256.0
59.55603 216.0
59.629944 184.0
59.655323 136.0
59.669014 176.0
59.686661 212.0
59.727932 72.0
59.767677 216.0
59.803627 156.0
59.827862 152.0
59.835529 48.0
59.838463 140.0
59.854115 156.0
59.872871 144.0
59.885918 204.0
59.920937 196.0
59.940655 148.0
59.970322 176.0
59.98381 124.0
60.000767 112.0
60.022354 112.0
60.0592 184.0
60.077438 140.0
60.104012 204.0
60.152611 272.0
60.177101 168.0
60.215263 104.0
60.248154 204.0
60.260498 152.0
60.276356 144.0
60.295605 112.0
60.307255 196.0
60.326519 148.0
60.352837 180.0
60.372318 200.0
60.396927 152.0
60.435123 160.0
60.453903 168.0
60.494511 216.0
60.513721 168.0
60.536091 152.0
60.571022 168.0
60.59581 224.0
60.609756 128.0
60.630676 120.0
60.635326 152.0
60.643639 88.0
60.647526 140.0
60.685169 184.0
60.700867 72.0
60.735332 172.0
60.773602 108.0
60.808262 76.0
60.82999 368.0
60.862595 196.0
60.900284 180.0
60.932976 192.0
60.955799 156.0
60.981533 136.0
61.003983 212.0
61.016968 204.0
61.035358 132.0
61.05698 332.0
61.075901 128.0
61.105072 232.0
61.117519 160.0
61.137749 128.0
61.155552 164.0
61.17897 356.0
61.199703 220.0
61.234032 76.0
61.25127 132.0
61.275349 164.0
61.307503 208.0
61.318226 168.0
61.343349 176.0
61.3605 80.0
61.389336 244.0
61.413704 264.0
61.43536 196.0
61.456928 204.0
61.498615 112.0
61.511509 176.0
61.538368 184.0
61.551407 172.0
61.564735 140.0
61.601456 112.0
61.609245 84.0
61.615551 144.0
61.628963 144.0
61.6492 192.0
61.680538 200.0
61.693115 176.0
61.705551 112.0
61.724312 136.0
61.738388 188.0
61.767567 256.0
61.773468 168.0
61.815044 48.0
61.829128 96.0
61.85104 284.0
61.884117 380.0
61.890915 188.0
61.894646 108.0
61.918369 120.0
61.941944 160.0
61.960777 224.0
61.988869 288.0
62.006107 260.0
62.02335 128.0
62.057838 116.0
62.075089 172.0
62.089798 164.0
62.113232 296.0
62.136261 76.0
62.159317 296.0
62.171787 160.0
62.187042 100.0
62.208454 128.0
62.237476 140.0
62.260269 176.0
62.282219 156.0
62.314743 124.0
62.34668 156.0
62.373955 192.0
62.387547 108.0
62.425282 172.0
62.47002 176.0
62.498302 220.0
62.527668 152.0
62.60154 132.0
62.620575 160.0
62.658245 120.0
62.681141 188.0
62.69849 148.0
62.727779 164.0
62.739956 208.0
62.766487 196.0
62.781197 152.0
62.793812 172.0
62.816502 104.0
62.838924 352.0
62.860378 144.0
62.878975 176.0
62.893837 112.0
62.91449 160.0
62.934547 112.0
62.948475 188.0
63.005337 168.0
63.035206 164.0
63.039547 148.0
63.055904 184.0
63.092262 112.0
63.115978 92.0
63.139698 152.0
63.159668 160.0
63.186886 136.0
63.201134 224.0
63.211109 200.0
63.234535 204.0
63.240398 192.0
63.24366 136.0
63.270332 144.0
63.29842 136.0
63.333771 140.0
63.424568 268.0
63.429306 188.0
63.433956 124.0
63.456409 108.0
63.470032 116.0
63.499226 248.0
63.524605 96.0
63.557922 132.0
63.570618 48.0
63.61665 224.0
63.630936 180.0
63.6754 176.0
63.68652 36.0
63.729412 124.0
63.764374 120.0
63.797127 172.0
63.818424 136.0
63.832733 168.0
63.848095 152.0
63.874088 128.0
63.901134 120.0
63.9165 152.0
63.923027 100.0
63.927208 188.0
63.946495 196.0
63.967216 168.0
64.004593 216.0
64.02211 148.0
64.041824 160.0
64.048973 132.0
64.122284 172.0
64.136826 132.0
64.14888 180.0
64.189949 376.0
64.224525 184.0
64.248459 176.0
64.293137 84.0
64.305901 108.0
64.317078 148.0
64.344482 212.0
64.359619 248.0
64.386986 112.0
64.411697 192.0
64.428062 112.0
64.441643 180.0
64.468811 160.0
64.485588 144.0
64.503204 112.0
64.522736 196.0
64.545769 140.0
64.571129 76.0
64.594269 112.0
64.663925 132.0
64.680847 124.0
64.724632 148.0
64.742218 120.0
64.764801 52.0
64.78524 176.0
64.802658 532.0
64.820023 324.0
64.833694 68.0
64.861389 356.0
64.897018 48.0
64.925766 84.0
64.957161 360.0
65.001335 180.0
65.028694 128.0
65.038994 172.0
65.050789 144.0
65.080742 176.0
65.093674 140.0
65.10804 176.0
65.151009 224.0
65.168114 180.0
65.189972 216.0
65.254265 124.0
65.289726 224.0
65.320206 208.0
65.339348 160.0
65.357208 112.0
65.375313 96.0
65.401886 168.0
65.448769 136.0
65.466675 128.0
65.500084 124.0
65.509682 160.0
65.520157 176.0
65.533234 188.0
65.551933 156.0
65.580482 220.0
65.621025 112.0
65.632652 160.0
65.692612 164.0
65.713303 228.0
65.748802 304.0
65.801865 336.0
65.840599 296.0
65.86409 120.0
65.88929 168.0
65.905006 468.0
65.925735 108.0
65.960915 196.0
65.974945 164.0
65.987885 164.0
66.020226 164.0
66.067131 128.0
66.083313 136.0
66.096252 220.0
66.133476 180.0
66.144806 300.0
66.15593 124.0
66.161537 108.0
66.176476 260.0
66.233238 72.0
66.256554 48.0
66.288956 124.0
66.305161 52.0
66.323128 196.0
66.345787 128.0
66.38179 164.0
66.40448 248.0
66.417038 128.0
66.454605 260.0
66.490051 68.0
66.511154 284.0
66.524139 128.0
66.550117 152.0
66.567978 140.0
66.595322 172.0
66.627037 112.0
66.658951 80.0
66.688202 148.0
66.709335 108.0
66.749336 232.0
66.772362 88.0
66.78968 148.0
66.813782 140.0
66.84108 92.0
66.854095 156.0
66.919212 72.0
66.938705 152.0
66.977402 192.0
66.990875 188.0
67.021828 160.0
67.037338 224.0
67.064796 88.0
67.070335 152.0
67.121735 124.0
67.145538 172.0
67.167671 132.0
67.193245 120.0
67.212608 168.0
67.255043 168.0
67.279533 108.0
67.297493 84.0
67.325249 116.0
67.392227 216.0
67.4151 176.0
67.42981 152.0
67.46653 140.0
67.495819 128.0
67.506905 160.0
67.557358 172.0
67.615089 184.0
67.653 328.0
67.667877 228.0
67.691574 116.0
67.711761 208.0
67.737434 196.0
67.753815 192.0
67.768105 100.0
67.780029 220.0
67.795868 180.0
67.820999 212.0
67.843956 180.0
67.878387 260.0
67.904114 168.0
67.940712 128.0
67.953835 120.0
67.989937 80.0
68.012367 228.0
68.052376 164.0
68.05838 116.0
68.065933 192.0
68.103676 236.0
68.125954 144.0
68.156288 148.0
68.205444 328.0
68.231354 128.0
68.255447 392.0
68.290611 112.0
68.31115 172.0
68.333382 232.0
68.373581 180.0
68.405861 96.0
68.432137 76.0
68.448601 104.0
68.469238 120.0
68.497101 136.0
68.535904 248.0
68.549088 212.0
68.580399 100.0
68.606773 124.0
68.642754 112.0
68.685684 132.0
68.700783 292.0
68.725525 104.0
68.77829 128.0
68.796127 220.0
68.813049 152.0
68.835526 372.0
68.841782 136.0
68.845367 168.0
68.87207 336.0
68.901833 144.0
68.931122 204.0
68.964279 160.0
68.982193 148.0
69.017654 124.0
69.057587 364.0
69.10556 144.0
69.141968 200.0
69.194939 68.0
69.210655 220.0
69.255943 300.0
69.278107 196.0
69.29808 220.0
69.324142 192.0
69.363655 176.0
69.376968 276.0
69.389587 196.0
69.411736 248.0
69.423607 212.0
69.463417 172.0
69.520744 284.0
69.564644 192.0
69.57959 132.0
69.592873 176.0
69.639366 112.0
69.660965 96.0
69.690865 136.0
69.725769 164.0
69.747375 272.0
69.7743 184.0
69.790596 140.0
69.817406 488.0
69.854012 168.0
69.873451 244.0
69.900612 148.0
69.940331 144.0
69.963158 144.0
69.971962 116.0
70.036903 152.0
70.053566 96.0
70.065224 212.0
70.10022 192.0
70.120216 184.0
70.135216 304.0
70.152336 148.0
70.174889 136.0
70.243607 108.0
70.26696 108.0
70.291992 296.0
70.328712 208.0
70.365433 128.0
70.382133 128.0
70.404221 376.0
70.450615 244.0
70.472328 140.0
70.495117 164.0
70.501595 188.0
70.525658 232.0
70.543251 148.0
70.558174 144.0
70.583862 204.0
70.586945 148.0
70.623917 232.0
70.63829 224.0
70.669411 140.0
70.688461 112.0
70.709793 120.0
70.729881 120.0
70.759377 180.0
70.781189 124.0
70.797485 160.0
70.818626 256.0
70.845642 224.0
70.872238 160.0
70.885643 88.0
70.939278 48.0
70.963242 152.0
70.980812 176.0
71.03109 376.0
71.046608 160.0
71.066742 380.0
71.09359 236.0
71.106827 144.0
71.128838 148.0
71.141998 152.0
71.155701 128.0
71.189278 40.0
71.201035 136.0
71.217834 164.0
71.238297 176.0
71.271591 208.0
71.283844 152.0
71.315781 164.0
71.392632 104.0
71.406082 248.0
71.438408 184.0
71.459915 196.0
71.495193 116.0
71.517136 128.0
71.558281 216.0
71.575104 176.0
71.616478 80.0
71.638107 176.0
71.662193 152.0
71.695663 348.0
71.725044 180.0
71.737022 224.0
71.794777 188.0
71.829338 144.0
71.846504 212.0
71.85923 140.0
71.879478 152.0
71.895828 152.0
71.913239 128.0
71.926743 152.0
71.963882 68.0
71.980766 44.0
71.993912 168.0
72.063698 248.0
72.075363 188.0
72.087532 160.0
72.106995 212.0
72.127525 88.0
72.146347 148.0
72.177727 176.0
72.200829 208.0
72.291565 164.0
72.344727 364.0
72.367989 176.0
72.393387 156.0
72.418793 172.0
72.447594 32.0
72.462837 200.0
72.474701 96.0
72.495415 160.0
72.517349 176.0
72.531052 84.0
72.551025 140.0
72.5774 156.0
72.617104 140.0
72.647636 168.0
72.668144 184.0
72.681572 84.0
72.695145 136.0
72.707726 120.0
72.727394 104.0
72.754555 288.0
72.77317 116.0
72.795303 132.0
72.813919 196.0
72.873154 140.0
72.924133 116.0
72.942314 112.0
72.966759 208.0
72.997444 156.0
73.019638 164.0
73.033249 192.0
73.061523 192.0
73.080856 192.0
73.109001 84.0
73.125801 212.0
73.131371 84.0
73.136269 184.0
73.163445 268.0
73.169937 136.0
73.174728 176.0
73.203445 216.0
73.228989 156.0
73.266464 136.0
73.320129 132.0
73.340294 148.0
73.362595 252.0
73.382362 248.0
73.396004 180.0
73.413055 72.0
73.426979 312.0
73.447166 156.0
73.469345 208.0
73.484695 128.0
73.50016 200.0
73.517685 168.0
73.578568 88.0
73.605095 160.0
73.631035 176.0
73.648399 72.0
73.653915 164.0
73.688591 160.0
73.726814 196.0
73.75663 156.0
73.790428 252.0
73.814499 156.0
73.828705 160.0
73.881073 140.0
73.902504 152.0
73.947533 220.0
73.95462 184.0
73.960609 260.0
73.986191 200.0
74.006012 180.0
74.035004 164.0
74.038376 156.0
74.06424 148.0
74.07795 156.0
74.089943 112.0
74.10125 100.0
74.119064 128.0
74.171082 160.0
74.235153 184.0
74.269714 184.0
74.27652 148.0
74.324837 152.0
74.357445 192.0
74.407227 176.0
74.448433 100.0
74.469254 168.0
74.485214 280.0
74.519272 136.0
74.541527 108.0
74.574936 140.0
74.59964 88.0
74.614319 156.0
74.630569 200.0
74.66214 184.0
74.680458 84.0
74.695946 140.0
74.792168 200.0
74.810555 220.0
74.842743 148.0
74.878395 56.0
74.895622 164.0
74.922661 172.0
74.952477 180.0
74.999008 148.0
75.011078 216.0
75.028313 168.0
75.046539 196.0
75.099014 196.0
75.113853 248.0
75.145592 96.0
75.168419 124.0
75.228439 164.0
75.267067 128.0
75.291641 268.0
75.342415 148.0
75.3787 144.0
75.401115 128.0
75.423637 160.0
75.456665 76.0
75.490105 144.0
75.506134 180.0
75.521667 180.0
75.540314 148.0
75.556732 108.0
75.60006 124.0
75.611465 164.0
75.634407 180.0
75.657181 128.0
75.671028 160.0
75.695572 276.0
75.72644 184.0
75.738693 380.0
75.761086 92.0
75.780807 252.0
75.807159 220.0
75.82885 388.0
75.850029 136.0
75.88205 192.0
75.904625 108.0
75.926987 204.0
75.942825 212.0
75.963921 176.0
75.986877 204.0
76.001335 184.0
76.015289 168.0
76.032768 236.0
76.052696 492.0
76.06562 132.0
76.07177 180.0
76.096146 128.0
76.114571 60.0
76.118507 120.0
76.147911 160.0
76.180916 128.0
76.205238 124.0
76.217407 176.0
76.243469 160.0
76.266068 132.0
76.33667 144.0
76.351265 124.0
76.371872 152.0
76.392723 120.0
76.408669 152.0
76.423599 248.0
76.443466 144.0
76.463165 200.0
76.509613 180.0
76.541878 188.0
76.554756 112.0
76.574036 172.0
76.592178 180.0
76.611916 124.0
76.636757 216.0
76.666374 156.0
76.722855 260.0
76.744781 172.0
76.776215 216.0
76.790161 180.0
76.812798 156.0
76.842499 68.0
76.884377 168.0
76.91819 300.0
76.936127 204.0
76.942406 132.0
76.951584 104.0
76.954964 184.0
76.971123 116.0
76.997856 144.0
77.045624 232.0
77.065987 88.0
77.079971 100.0
77.117645 308.0
77.146385 88.0
77.162117 268.0
77.182533 148.0
77.19709 132.0
77.211082 140.0
77.228577 44.0
77.267059 388.0
77.316933 240.0
77.344063 116.0
77.363319 128.0
77.395081 132.0
77.431694 164.0
77.44912 112.0
77.463135 144.0
77.505287 260.0
77.529716 112.0
77.549194 108.0
77.602058 252.0
77.620079 184.0
77.638008 208.0
77.649696 120.0
77.682266 168.0
77.704018 40.0
77.734901 204.0
77.751427 96.0
77.775269 144.0
77.831505 128.0
77.848824 192.0
77.868889 120.0
77.88549 104.0
77.888153 208.0
77.942947 152.0
77.973969 64.0
77.988243 200.0
78.007141 96.0
78.033516 176.0
78.052856 140.0
78.061485 144.0
78.100945 176.0
78.128677 132.0
78.143486 160.0
78.156456 192.0
78.17823 312.0
78.19445 248.0
78.223518 164.0
78.23732 124.0
78.239906 104.0
78.257744 348.0
78.27256 192.0
78.315002 168.0
78.363739 84.0
78.434906 80.0
78.507195 100.0
78.526596 168.0
78.553055 40.0
78.612297 196.0
78.637749 188.0
78.666664 212.0
78.695015 376.0
78.710793 172.0
78.736008 160.0
78.773285 164.0
78.793152 96.0
78.814354 136.0
78.840858 176.0
78.867249 188.0
78.882042 108.0
78.898949 172.0
78.914421 144.0
78.936325 152.0
78.980499 160.0
79.024338 344.0
79.042465 132.0
79.062538 116.0
79.082726 204.0
79.089828 84.0
79.092628 176.0
79.107948 88.0
79.129196 136.0
79.143356 52.0
79.159294 168.0
79.17701 136.0
79.217422 240.0
79.256477 172.0
79.295105 176.0
79.299507 116.0
79.306961 184.0
79.31208 120.0
79.330864 164.0
79.362244 212.0
79.376465 124.0
79.396774 128.0
79.440689 200.0
79.474304 236.0
79.546867 232.0
79.579124 152.0
79.627495 272.0
79.644119 108.0
79.672791 80.0
79.690094 252.0
79.712021 320.0
79.746819 176.0
79.764313 92.0
79.778534 332.0
79.79631 160.0
79.824768 112.0
79.837212 120.0
79.860161 124.0
79.875229 192.0
79.895912 196.0
79.916672 84.0
79.956284 168.0
80.016937 116.0
80.036522 172.0
80.050896 168.0
80.065018 216.0
80.102417 72.0
80.130348 124.0
80.147446 192.0
80.169731 180.0
80.198647 128.0
80.216469 176.0
80.233948 164.0
80.268173 188.0
80.284225 216.0
80.300278 88.0
80.318398 248.0
80.334167 160.0
80.350113 136.0
80.36747 324.0
80.38591 252.0
80.400909 140.0
80.439453 216.0
80.475769 172.0
80.492149 152.0
80.555099 164.0
80.591797 180.0
80.617241 216.0
80.664307 124.0
80.687119 152.0
80.732483 120.0
80.773941 360.0
80.830872 60.0
80.845192 120.0
80.880013 176.0
80.924004 144.0
80.938278 112.0
80.989708 136.0
81.024788 160.0
81.045357 156.0
81.060089 140.0
81.082504 160.0
81.099068 144.0
81.139862 252.0
81.150261 184.0
81.175949 228.0
81.18895 200.0
81.192139 176.0
81.226463 136.0
81.238106 176.0
81.268089 128.0
81.282448 180.0
81.32193 148.0
81.378555 324.0
81.405182 232.0
81.46199 56.0
81.479225 244.0
81.517693 208.0
81.545563 140.0
81.55867 360.0
81.564873 172.0
81.594597 132.0
81.612961 160.0
81.632912 172.0
81.647133 48.0
81.688499 116.0
81.705437 148.0
81.742477 156.0
81.795601 124.0
81.831375 156.0
81.847786 264.0
81.892807 176.0
81.910652 168.0
81.931541 192.0
81.978386 200.0
82.004967 268.0
82.009567 200.0
82.043274 232.0
82.067436 176.0
82.095566 216.0
82.135689 172.0
82.153748 172.0
82.168602 212.0
82.18576 152.0
82.201073 116.0
82.218498 192.0
82.243515 128.0
82.261284 180.0
82.281296 116.0
82.289299 160.0
82.305481 356.0
82.332764 204.0
82.340195 88.0
82.347618 164.0
82.353951 196.0
82.379196 176.0
82.397011 80.0
82.419678 172.0
82.437454 168.0
82.450027 192.0
82.510292 200.0
82.530815 284.0
82.54689 160.0
82.575974 64.0
82.599487 156.0
82.619041 124.0
82.661003 156.0
82.706253 184.0
82.723289 148.0
82.744637 236.0
82.77607 96.0
82.786797 148.0
82.811867 244.0
82.85862 144.0
82.883842 144.0
82.917801 196.0
82.939606 216.0
82.977356 276.0
82.994308 152.0
83.012444 112.0
83.03286 140.0
83.080803 328.0
83.133522 124.0
83.152138 160.0
83.172104 36.0
83.203064 140.0
83.21093 72.0
83.216583 64.0
83.267632 176.0
83.282211 188.0
83.304665 372.0
83.339752 140.0
83.362251 208.0
83.397339 128.0
83.467331 396.0
83.483681 212.0
83.506821 112.0
83.525284 188.0
83.547951 180.0
83.572952 192.0
83.59021 168.0
83.606499 172.0
83.635773 144.0
83.66111 124.0
83.688416 164.0
83.736328 156.0
83.744095 140.0
83.764908 184.0
83.790802 156.0
83.811882 164.0
83.838783 240.0
83.863304 132.0
83.881577 168.0
83.943527 176.0
83.964546 176.0
83.97818 116.0
83.992645 116.0
84.007782 140.0
84.039894 232.0
84.08815 176.0
84.124512 124.0
84.138763 120.0
84.195374 120.0
84.233437 152.0
84.268326 304.0
84.321434 180.0
84.345932 132.0
84.358452 128.0
84.379929 148.0
84.40432 176.0
84.435875 376.0
84.452271 216.0
84.473022 288.0
84.523605 160.0
84.540504 128.0
84.555542 180.0
84.593979 156.0
84.625107 124.0
84.651749 160.0
84.68737 292.0
84.703453 144.0
84.724007 96.0
84.7547 160.0
84.788139 108.0
84.810692 172.0
84.862297 168.0
84.908852 228.0
84.921638 148.0
84.939682 192.0
84.96051 168.0
84.97345 148.0
85.007111 356.0
85.035385 124.0
85.088982 132.0
85.103668 288.0
85.145111 120.0
85.17691 132.0
85.196167 176.0
85.215912 180.0
85.24173 172.0
85.279373 168.0
85.31662 168.0
85.345985 196.0
85.36644 284.0
85.401085 372.0
85.417831 248.0
85.4468 256.0
85.4673 140.0
85.488831 144.0
85.508102 188.0
85.531136 124.0
85.544914 108.0
85.574089 156.0
85.597641 164.0
85.617828 80.0
85.631462 164.0
85.665588 148.0
85.679352 108.0
85.693665 156.0
85.715317 108.0
85.732788 120.0
85.755676 140.0
85.77887 76.0
85.796356 124.0
85.858345 156.0
85.87561 216.0
85.904266 128.0
85.92157 176.0
85.964157 156.0
85.979919 96.0
86.014648 108.0
86.033447 140.0
86.059296 152.0
86.092537 88.0
86.119011 176.0
86.132744 120.0
86.157188 136.0
86.171967 116.0
86.20153 180.0
86.229202 140.0
86.251434 120.0
86.281013 56.0
86.308746 188.0
86.393829 128.0
86.417603 212.0
86.434532 168.0
86.454582 220.0
86.487091 140.0
86.493065 160.0
86.501884 344.0
86.5158 216.0
86.534485 92.0
86.555641 272.0
86.56958 164.0
86.601013 156.0
86.627457 200.0
86.665993 292.0
86.693764 312.0
86.717949 220.0
86.751251 104.0
86.769791 44.0
86.806877 52.0
86.823563 152.0
86.836548 256.0
86.866226 168.0
86.891121 160.0
86.928963 148.0
86.95517 180.0
86.986847 164.0
87.002701 132.0
87.020012 88.0
87.0382 316.0
87.053688 120.0
87.100121 172.0
87.112259 120.0
87.150284 200.0
87.183693 192.0
87.197128 252.0
87.217186 100.0
87.248795 176.0
87.265526 72.0
87.280815 180.0
87.298996 132.0
87.313873 168.0
87.330612 92.0
87.354675 200.0
87.36937 172.0
87.390167 176.0
87.429222 160.0
87.445976 192.0
87.462723 176.0
87.475754 176.0
87.50518 124.0
87.532677 168.0
87.559547 168.0
87.572586 172.0
87.619453 168.0
87.660851 212.0
87.695557 136.0
87.722427 180.0
87.738144 128.0
87.75708 156.0
87.792053 180.0
87.808357 120.0
87.833542 40.0
87.857796 324.0
87.883003 196.0
87.9105 340.0
87.931694 172.0
87.965317 156.0
87.998535 264.0
88.012711 124.0
88.032928 164.0
88.050056 224.0
88.09729 168.0
88.13546 128.0
88.201401 160.0
88.233185 136.0
88.258575 124.0
88.281136 192.0
88.33989 244.0
88.35849 184.0
88.377205 208.0
88.390305 40.0
88.404419 236.0
88.418999 60.0
88.425102 148.0
88.449852 200.0
88.496994 136.0
88.521645 256.0
88.548454 92.0
88.560486 452.0
88.59626 208.0
88.614998 168.0
88.641228 176.0
88.656219 160.0
88.714783 148.0
88.751823 144.0
88.771591 288.0
88.795898 228.0
88.822998 152.0
88.831535 184.0
88.836983 168.0
88.868797 256.0
88.913681 264.0
88.936035 240.0
88.960365 264.0
88.966049 156.0
88.988243 224.0
89.007019 220.0
89.040031 136.0
89.065247 52.0
89.078392 196.0
89.111107 116.0
89.130997 96.0
89.147911 128.0
89.176315 180.0
89.217461 40.0
89.244858 140.0
89.296829 212.0
89.314522 104.0
89.369804 100.0
89.384758 164.0
89.409431 204.0
89.426117 196.0
89.461311 248.0
89.508369 124.0
89.565422 132.0
89.590088 144.0
89.610497 144.0
89.64827 208.0
89.668022 156.0
89.696007 156.0
89.712585 260.0
89.735207 160.0
89.755951 152.0
89.782913 148.0
89.85466 156.0
89.885063 144.0
89.903091 164.0
89.91787 140.0
89.92392 116.0
89.927994 144.0
89.942726 188.0
89.956985 208.0
89.9701 304.0
90.017151 368.0
90.036972 180.0
90.057915 112.0
90.077507 172.0
90.09758 148.0
90.140549 200.0
90.182617 164.0
90.218536 136.0
90.248062 160.0
90.272423 116.0
90.301735 164.0
90.341606 156.0
90.379303 168.0
90.392548 164.0
90.422539 156.0
90.439552 164.0
90.458794 180.0
90.496658 40.0
90.509911 104.0
90.532639 188.0
90.559151 104.0
90.575638 176.0
90.605652 124.0
90.628036 272.0
90.660576 128.0
90.680412 176.0
90.701637 204.0
90.725906 84.0
90.750557 280.0
90.775208 100.0
90.799858 172.0
90.823441 156.0
90.864357 276.0
90.904068 132.0
90.945961 120.0
90.975296 176.0
91.012993 356.0
91.035194 236.0
91.095215 144.0
91.109108 236.0
91.173286 400.0
91.194336 156.0
91.21759 144.0
91.243042 156.0
91.279655 156.0
91.317177 176.0
91.336769 452.0
91.350197 148.0
91.389221 116.0
91.44014 104.0
91.460182 144.0
91.504868 84.0
91.527077 108.0
91.559258 196.0
91.581039 288.0
91.594376 172.0
91.606812 176.0
91.632477 124.0
91.64962 132.0
91.688705 244.0
91.743011 172.0
91.756363 272.0
91.769867 192.0
91.788773 248.0
91.813568 176.0
91.832642 48.0
91.866974 332.0
91.880325 160.0
91.902016 240.0
91.921349 152.0
91.943298 204.0
91.956657 240.0
92.017746 36.0
92.036842 188.0
92.063171 344.0
92.100922 252.0
92.107819 196.0
92.149536 200.0
92.166786 140.0
92.175758 116.0
92.182198 128.0
92.195999 152.0
92.20919 168.0
92.236626 112.0
92.266861 196.0
92.2948 340.0
92.322845 132.0
92.348839 156.0
92.377045 424.0
92.422318 180.0
92.442093 68.0
92.466972 148.0
92.48037 124.0
92.495682 128.0
92.513023 140.0
92.528725 156.0
92.555038 168.0
92.58091 204.0
92.595253 60.0
92.626038 216.0
92.660385 112.0
92.686913 152.0
92.707718 148.0
92.723793 176.0
92.745628 224.0
92.76503 192.0
92.807358 176.0
92.877632 320.0
92.905457 116.0
92.912102 96.0
92.919853 144.0
92.946075 124.0
92.970596 108.0
92.991707 160.0
93.035728 124.0
93.054359 188.0
93.06971 128.0
93.09005 92.0
93.159058 164.0
93.214493 108.0
93.241821 164.0
93.262962 120.0
93.284111 184.0
93.299492 132.0
93.324448 156.0
93.354813 148.0
93.373322 192.0
93.463974 204.0
93.50724 164.0
93.528412 40.0
93.553436 100.0
93.589531 156.0
93.617744 220.0
93.665131 260.0
93.696983 112.0
93.713852 156.0
93.728706 240.0
93.759544 128.0
93.782669 204.0
93.811584 208.0
93.830864 124.0
93.86364 136.0
93.927025 176.0
93.946579 164.0
93.985168 132.0
94.010254 212.0
94.027344 288.0
94.044991 128.0
94.099045 212.0
94.122215 184.0
94.139595 120.0
94.156975 68.0
94.203339 148.0
94.233215 164.0
94.268524 152.0
94.305748 188.0
94.324318 172.0
94.349045 172.0
94.369545 156.0
94.384888 180.0
94.446907 228.0
94.464317 148.0
94.519997 236.0
94.543488 268.0
94.567245 124.0
94.593971 256.0
94.614586 172.0
94.628296 220.0
94.641922 104.0
94.685837 120.0
94.717903 116.0
94.742416 220.0
94.774086 180.0
94.795738 160.0
94.816719 180.0
94.830284 172.0
94.855484 172.0
94.870995 176.0
94.903954 156.0
94.942474 116.0
94.961807 120.0
94.969734 100.0
95.010002 124.0
95.063019 180.0
95.111008 116.0
95.12513 152.0
95.148155 116.0
95.167839 240.0
95.182846 132.0
95.196968 208.0
95.262131 132.0
95.299919 148.0
95.321297 220.0
95.336845 100.0
95.364052 52.0
95.40876 140.0
95.43396 160.0
95.438728 156.0
95.463211 152.0
95.504051 200.0
95.529335 132.0
95.546844 200.0
95.564766 152.0
95.581871 140.0
95.603279 148.0
95.624886 156.0
95.698524 116.0
95.73439 212.0
95.759857 104.0
95.775024 364.0
95.798531 172.0
95.833061 172.0
95.864082 100.0
95.884224 188.0
95.928467 260.0
95.956184 140.0
95.975349 144.0
95.988998 104.0
96.022392 196.0
96.040497 148.0
96.053673 176.0
96.093353 216.0
96.127716 180.0
96.14415 284.0
96.176292 120.0
96.197769 136.0
96.221886 192.0
96.23877 100.0
96.280724 148.0
96.311028 284.0
96.344757 132.0
96.383316 148.0
96.418037 104.0
96.443542 132.0
96.4757 104.0
96.512527 152.0
96.541656 124.0
96.586639 120.0
96.617485 256.0
96.637505 356.0
96.67115 164.0
96.696213 144.0
96.711876 176.0
96.739868 172.0
96.764122 180.0
96.780907 168.0
96.795197 228.0
96.823479 76.0
96.860687 128.0
96.897911 124.0
96.91555 152.0
96.948357 204.0
96.970421 116.0
96.990662 208.0
97.045288 228.0
97.063049 112.0
97.121399 164.0
97.166977 196.0
97.190063 208.0
97.203796 212.0
97.229309 180.0
97.255829 328.0
97.274452 236.0
97.303902 164.0
97.337029 156.0
97.341354 176.0
97.356918 120.0
97.374596 128.0
97.410408 104.0
97.431564 200.0
97.469604 200.0
97.482651 304.0
97.527466 200.0
97.547516 100.0
97.582321 124.0
97.607697 156.0
97.667465 468.0
97.694969 208.0
97.721832 184.0
97.743324 208.0
97.76387 176.0
97.784996 144.0
97.801636 136.0
97.842606 136.0
97.875732 180.0
97.927055 348.0
97.95092 292.0
97.968651 124.0
98.003029 292.0
98.05928 2188.0
98.087189 132.0
98.115547 144.0
98.136177 204.0
98.153923 112.0
98.181068 204.0
98.237152 220.0
98.256493 128.0
98.283745 156.0
98.298248 144.0
98.320587 240.0
98.365028 200.0
98.406212 172.0
98.437073 344.0
98.451668 296.0
98.471657 96.0
98.518349 220.0
98.556602 116.0
98.572418 116.0
98.609962 248.0
98.623802 148.0
98.64357 148.0
98.675201 236.0
98.691017 168.0
98.706833 100.0
98.73941 204.0
98.776825 304.0
98.805733 60.0
98.833435 168.0
98.857841 144.0
98.864075 116.0
98.869888 200.0
98.902702 204.0
98.933693 484.0
98.985855 276.0
99.005661 180.0
99.061913 300.0
99.077927 124.0
99.112633 152.0
99.178032 260.0
99.222069 132.0
99.273407 192.0
99.295013 128.0
99.320007 216.0
99.352539 216.0
99.372627 96.0
99.426704 192.0
99.453339 336.0
99.487495 124.0
99.50338 236.0
99.525215 56.0
99.545074 192.0
99.584442 180.0
99.610619 124.0
99.635361 220.0
99.661491 468.0
99.68811 136.0
99.704002 112.0
99.724922 164.0
99.753296 180.0
99.766716 168.0
99.790794 164.0
99.841148 236.0
99.900856 168.0
99.958557 92.0
99.99221 180.0
100.016273 164.0
100.036179 160.0
100.053223 136.0
100.069679 168.0
100.081535 364.0
100.095139 164.0
100.111847 160.0
100.161636 120.0
100.177574 148.0
100.191521 148.0
100.204117 84.0
100.221405 100.0
100.269234 148.0
100.293152 124.0
100.311089 128.0
100.338821 180.0
100.36248 300.0
100.394257 124.0
100.470634 200.0
100.489204 208.0
100.516525 172.0
100.538132 164.0
100.579903 112.0
100.604347 112.0
100.620316 152.0
100.634293 68.0
100.65184 152.0
100.721741 288.0
100.774521 168.0
100.790092 100.0
100.812485 188.0
100.846863 128.0
100.864044 152.0
100.893013 212.0
100.910759 132.0
100.924957 136.0
100.931145 64.0
100.93927 172.0
100.958015 124.0
101.000076 128.0
101.041145 208.0
101.064644 236.0
101.118073 172.0
101.136086 268.0
101.1521 108.0
101.176163 188.0
101.233627 128.0
101.263512 208.0
101.300049 168.0
101.354378 132.0
101.402473 132.0
101.464622 60.0
101.480659 72.0
101.50071 112.0
101.55603 316.0
101.661316 184.0
101.690048 132.0
101.705353 164.0
101.798828 188.0
101.827827 128.0
101.841888 116.0
101.857956 228.0
101.882248 180.0
101.910194 48.0
101.93029 120.0
101.974503 220.0
101.996613 88.0
102.022705 392.0
102.054916 92.0
102.081055 316.0
102.113235 168.0
102.165535 152.0
102.193703 172.0
102.215836 216.0
102.231934 176.0
102.246025 104.0
102.264351 76.0
102.271645 164.0
102.296135 116.0
102.324532 92.0
102.345001 192.0
102.376884 36.0
102.423485 116.0
102.457222 240.0
102.493721 72.0
102.522087 212.0
102.555939 188.0
102.580391 212.0
102.613205 188.0
102.634827 220.0
102.648941 112.0
102.684235 152.0
102.72155 188.0
102.743126 128.0
102.759941 132.0
102.782204 188.0
102.811623 180.0
102.828354 180.0
102.848679 192.0
102.882996 120.0
102.904373 176.0
102.941147 140.0
102.975883 204.0
102.999252 168.0
103.048431 172.0
103.080276 184.0
103.112747 248.0
103.149765 72.0
103.169868 160.0
103.206268 128.0
103.224464 172.0
103.240639 208.0
103.258331 412.0
103.293228 40.0
103.327164 160.0
103.379463 200.0
103.414642 112.0
103.443481 128.0
103.479942 160.0
103.517693 280.0
103.521172 136.0
103.568527 96.0
103.602966 80.0
103.625252 140.0
103.648964 216.0
103.686218 140.0
103.741707 204.0
103.766808 228.0
103.793365 204.0
103.799149 192.0
103.807755 112.0
103.812424 248.0
103.827171 92.0
103.858383 256.0
103.886742 196.0
103.89386 140.0
103.902229 124.0
103.907936 216.0
103.939537 220.0
103.982864 208.0
104.022751 152.0
104.039581 224.0
104.056755 128.0
104.083885 180.0
104.118187 128.0
104.132401 156.0
104.158806 180.0
104.178154 132.0
104.192055 196.0
104.225853 148.0
104.269295 192.0
104.283836 180.0
104.303802 196.0
104.330414 188.0
104.388176 240.0
104.406776 152.0
104.427116 80.0
104.44339 104.0
104.503891 180.0
104.559364 192.0
104.590935 384.0
104.615921 148.0
104.65097 192.0
104.67852 136.0
104.707993 188.0
104.734467 116.0
104.748726 140.0
104.767059 36.0
104.786301 180.0
104.830231 144.0
104.865166 112.0
104.879677 92.0
104.906021 248.0
104.927124 156.0
104.934479 84.0
104.941856 168.0
104.963455 136.0
104.997398 348.0
105.033707 40.0
105.055107 152.0
105.155495 164.0
105.207108 140.0
105.225769 224.0
105.233597 204.0
105.274956 52.0
105.308357 404.0
105.338272 184.0
105.363152 68.0
105.401489 192.0
105.430222 200.0
105.472488 200.0
105.50116 136.0
105.516075 192.0
105.582138 232.0
105.604416 536.0
105.626389 284.0
105.633636 148.0
105.642357 208.0
105.671875 192.0
105.691978 248.0
105.724716 48.0
105.767204 184.0
105.794312 120.0
105.835258 72.0
105.872681 116.0
105.892601 188.0
105.906937 204.0
105.92128 192.0
105.934669 220.0
105.952003 220.0
105.969231 176.0
106.002159 176.0
106.026947 1336.0
106.064476 3156.0
106.115219 196.0
106.129692 52.0
106.13324 132.0
106.155739 212.0
106.17646 128.0
106.197868 184.0
106.216461 244.0
106.248344 140.0
106.278008 136.0
106.298767 136.0
106.3162 160.0
106.359596 244.0
106.372986 216.0
106.387245 260.0
106.427849 36.0
106.448387 252.0
106.480888 184.0
106.540817 224.0
106.555199 68.0
106.583221 156.0
106.625816 76.0
106.643562 140.0
106.690842 88.0
106.731071 212.0
106.785629 188.0
106.822182 60.0
106.859489 208.0
106.90361 136.0
106.951202 156.0
106.975555 220.0
107.027901 188.0
107.045212 476.0
107.071625 3480.0
107.119888 236.0
107.146408 152.0
107.163132 320.0
107.185783 300.0
107.217903 148.0
107.259209 128.0
107.281693 188.0
107.322021 136.0
107.350906 176.0
107.378609 196.0
107.397171 136.0
107.421631 112.0
107.485336 464.0
107.571274 140.0
107.637047 192.0
107.644409 96.0
107.653526 360.0
107.667458 168.0
107.682602 224.0
107.717125 120.0
107.745689 252.0
107.774971 164.0
107.789436 200.0
107.803902 208.0
107.831848 176.0
107.837784 92.0
107.846825 120.0
107.867981 80.0
107.902435 336.0
107.950684 96.0
107.998917 236.0
108.025536 268.0
108.074249 300.0
108.128433 100.0
108.148254 168.0
108.177734 256.0
108.209106 184.0
108.212837 156.0
108.240395 128.0
108.259033 160.0
108.283356 216.0
108.288414 128.0
108.357681 96.0
108.395874 132.0
108.427879 144.0
108.458488 344.0
108.494171 240.0
108.528877 180.0
108.553307 116.0
108.569893 148.0
108.604309 180.0
108.671539 104.0
108.686066 172.0
108.703552 84.0
108.719032 108.0
108.745758 272.0
108.770294 140.0
108.798141 40.0
108.812675 192.0
108.839951 148.0
108.864586 156.0
108.887077 280.0
108.922806 332.0
108.942924 164.0
108.958366 216.0
108.984428 208.0
109.012123 380.0
109.044594 71468.0
109.08609 184.0
109.102173 196.0
109.121063 140.0
109.128716 156.0
109.153389 148.0
109.175819 232.0
109.195732 168.0
109.215057 64.0
109.220459 272.0
109.263977 216.0
109.279564 152.0
109.307152 148.0
109.347672 256.0
109.386559 260.0
109.407288 48.0
109.437889 80.0
109.453094 152.0
109.474609 240.0
109.497696 172.0
109.520905 136.0
109.538483 52.0
109.562912 292.0
109.588905 192.0
109.622314 136.0
109.646835 76.0
109.676018 84.0
109.708755 136.0
109.744812 140.0
109.763107 140.0
109.787544 204.0
109.812309 120.0
109.836578 144.0
109.853264 132.0
109.879082 128.0
109.896706 136.0
109.919724 164.0
109.945076 128.0
109.972206 128.0
109.992691 128.0
110.047417 6612.0
110.079903 144.0
110.099564 56.0
110.122925 432.0
110.149696 36.0
110.170586 48.0
110.206314 172.0
110.224953 192.0
110.250679 192.0
110.269684 104.0
110.291786 96.0
110.322304 288.0
110.345062 240.0
110.377502 76.0
110.415565 140.0
110.471992 280.0
110.509285 212.0
110.542244 144.0
110.571404 152.0
110.595566 204.0
110.622009 156.0
110.638054 148.0
110.664169 72.0
110.683022 92.0
110.708961 200.0
110.727257 144.0
110.746994 300.0
110.766136 128.0
110.776611 64.0
110.791069 184.0
110.813255 136.0
110.829437 160.0
110.850601 136.0
110.877846 40.0
110.900063 220.0
110.952911 148.0
110.986855 88.0
111.026443 236.0
111.051834 276.0
111.103729 116.0
111.131584 164.0
111.160057 120.0
111.202385 136.0
111.207748 192.0
111.242233 172.0
111.259613 188.0
111.27375 132.0
111.293777 248.0
111.370827 100.0
111.435349 208.0
111.486382 92.0
111.491821 88.0
111.49968 140.0
111.526199 124.0
111.546127 236.0
111.578957 220.0
111.60144 208.0
111.630226 168.0
111.657494 196.0
111.680496 184.0
111.699303 164.0
111.769547 124.0
111.808243 260.0
111.856651 164.0
111.875603 168.0
111.900864 188.0
111.944817 156.0
111.96347 244.0
111.993523 88.0
112.031441 192.0
112.056824 164.0
112.073578 100.0
112.119942 128.0
112.138908 164.0
112.174065 168.0
112.222466 220.0
112.257843 232.0
112.266022 96.0
112.27729 164.0
112.282661 200.0
112.342087 136.0
112.364548 172.0
112.392883 28.0
112.412392 172.0
112.427856 260.0
112.47007 164.0
112.486954 288.0
112.505287 180.0
112.552406 132.0
112.58197 212.0
112.605202 272.0
112.622101 132.0
112.661972 144.0
112.700211 160.0
112.719284 136.0
112.74218 244.0
112.769318 96.0
112.828072 128.0
112.848221 184.0
112.890511 184.0
112.908478 164.0
112.951851 180.0
112.96666 92.0
113.00119 248.0
113.023674 156.0
113.05764 196.0
113.094109 140.0
113.1511 132.0
113.17083 108.0
113.221313 260.0
113.249832 196.0
113.315979 76.0
113.337173 92.0
113.354126 140.0
113.400749 160.0
113.428307 124.0
113.468033 200.0
113.505554 168.0
113.538559 172.0
113.568665 184.0
113.597954 116.0
113.616219 144.0
113.648682 136.0
113.655647 164.0
113.663727 168.0
113.671562 104.0
113.697533 172.0
113.743484 148.0
113.757545 156.0
113.772827 228.0
113.787643 84.0
113.834129 232.0
113.854172 188.0
113.873901 120.0
113.893784 148.0
113.9496 176.0
113.966934 116.0
114.009895 32160.0
114.058456 168.0
114.084999 84.0
114.118744 56.0
114.127792 104.0
114.171448 64.0
114.190216 68.0
114.241463 144.0
114.281601 164.0
114.320366 244.0
114.35688 236.0
114.381439 248.0
114.389618 232.0
114.418282 92.0
114.437447 164.0
114.466064 136.0
114.500076 136.0
114.518829 248.0
114.603584 28.0
114.633415 124.0
114.671776 144.0
114.687706 192.0
114.816757 136.0
114.844337 172.0
114.907379 108.0
114.935623 172.0
114.956116 124.0
114.987442 180.0
115.012817 660.0
115.066422 360.0
115.08506 148.0
115.117775 168.0
115.179611 100.0
115.196701 140.0
115.213791 160.0
115.245758 104.0
115.285446 292.0
115.310425 216.0
115.331322 72.0
115.352699 156.0
115.385422 52.0
115.436813 140.0
115.44606 48.0
115.460854 296.0
115.482246 116.0
115.537041 140.0
115.553642 196.0
115.593246 264.0
115.632248 104.0
115.654175 104.0
115.694504 196.0
115.739433 164.0
115.770775 324.0
115.791 176.0
115.798523 148.0
115.805374 80.0
115.820221 216.0
115.841766 132.0
115.854774 176.0
115.881317 160.0
115.911316 36.0
115.929428 124.0
115.952034 184.0
115.9813 104.0
116.007095 7316.0
116.050491 612.0
116.090736 132.0
116.109482 72.0
116.134277 136.0
116.218719 144.0
116.260864 108.0
116.28849 236.0
116.299042 112.0
116.306953 212.0
116.324112 112.0
116.347885 264.0
116.37249 196.0
116.398254 124.0
116.443359 220.0
116.466766 172.0
116.482529 180.0
116.504822 384.0
116.537117 168.0
116.55407 224.0
116.573349 356.0
116.619545 60.0
116.667175 184.0
116.720116 356.0
116.775383 184.0
116.817375 184.0
116.840607 100.0
116.862549 280.0
116.894783 104.0
116.913353 204.0
116.960602 300.0
116.986 112.0
117.007568 632.0
117.036903 176.0
117.055771 2584.0
117.095047 136.0
117.116585 180.0
117.17572 80.0
117.211906 180.0
117.276031 176.0
117.300758 100.0
117.351486 212.0
117.366318 164.0
117.383835 172.0
117.41008 140.0
117.431282 64.0
117.478912 192.0
117.513252 128.0
117.529228 356.0
117.545845 312.0
117.562477 116.0
117.599579 124.0
117.63044 196.0
117.645294 248.0
117.683769 148.0
117.710571 148.0
117.726959 108.0
117.748245 168.0
117.766853 220.0
117.793915 80.0
117.832581 116.0
117.858826 140.0
117.888756 152.0
117.975441 100.0
118.003548 84.0
118.046394 168.0
118.065926 164.0
118.09948 184.0
118.129211 228.0
118.146294 104.0
118.186829 152.0
118.265312 244.0
118.315102 152.0
118.352463 444.0
118.371399 100.0
118.390343 108.0
118.430161 180.0
118.493813 136.0
118.552849 164.0
118.598885 164.0
118.651711 108.0
118.676926 108.0
118.694275 56.0
118.725433 196.0
118.746323 180.0
118.768372 120.0
118.846115 164.0
118.863472 328.0
118.883003 252.0
118.901047 128.0
118.932922 92.0
118.959679 136.0
118.992249 184.0
119.018562 144.0
119.038017 140.0
119.068726 188.0
119.111053 224.0
119.132706 72.0
119.16169 364.0
119.193619 396.0
119.240059 148.0
119.256569 144.0
119.284828 188.0
119.310913 116.0
119.330482 112.0
119.368172 156.0
119.413116 120.0
119.437675 192.0
119.474022 108.0
119.491432 312.0
119.526245 140.0
119.54583 388.0
119.559311 288.0
119.579468 140.0
119.583221 156.0
119.601692 48.0
119.608337 172.0
119.636444 212.0
119.687126 132.0
119.726524 148.0
119.766586 112.0
119.813789 128.0
119.835274 260.0
119.876839 180.0
119.894096 192.0
119.930786 64.0
119.955254 164.0
119.977715 172.0
120.005447 196.0
120.041885 344.0
120.068459 148.0
120.103592 204.0
120.12104 384.0
120.170509 172.0
120.199379 168.0
120.240341 124.0
120.262024 132.0
120.282524 140.0
120.327393 284.0
120.354088 200.0
120.3731 192.0
120.404793 152.0
120.42276 160.0
120.475899 232.0
120.518387 136.0
120.54734 192.0
120.585388 216.0
120.612366 132.0
120.647903 188.0
120.664833 204.0
120.687439 200.0
120.712936 136.0
120.761673 156.0
120.831055 32.0
120.940559 216.0
121.025047 344.0
121.048302 160.0
121.067459 160.0
121.088226 308.0
121.13974 116.0
121.176735 140.0
121.213463 136.0
121.240959 288.0
121.294975 124.0
121.361099 136.0
121.401955 152.0
121.436722 116.0
121.490669 108.0
121.535599 188.0
121.580467 108.0
121.600891 184.0
121.630951 52.0
121.673233 108.0
121.705597 64.0
121.734856 224.0
121.78685 112.0
121.80381 200.0
121.812416 144.0
121.829872 96.0
121.84404 128.0
121.861549 128.0
121.890808 240.0
121.910194 144.0
121.970558 140.0
121.995567 216.0
122.002205 72.0
122.024193 104.0
122.058296 180.0
122.081367 200.0
122.109955 140.0
122.156151 220.0
122.183929 172.0
122.215553 100.0
122.235352 164.0
122.266167 108.0
122.312386 120.0
122.347343 132.0
122.384621 168.0
122.4142 380.0
122.464317 148.0
122.48629 160.0
122.514984 104.0
122.542717 320.0
122.564331 152.0
122.589592 228.0
122.629501 120.0
122.691071 160.0
122.718254 88.0
122.763954 420.0
122.832436 216.0
122.863319 72.0
122.878761 116.0
122.894203 240.0
122.921394 180.0
122.969444 212.0
122.985245 132.0
123.035461 88.0
123.062149 136.0
123.171967 148.0
123.203308 100.0
123.240868 224.0
123.313873 368.0
123.342529 52.0
123.364639 156.0
123.410095 192.0
123.433174 152.0
123.461929 116.0
123.483498 212.0
123.523857 112.0
123.585808 156.0
123.612358 256.0
123.692039 148.0
123.729675 40.0
123.754028 124.0
123.798317 132.0
123.90242 132.0
123.929008 132.0
123.986626 200.0
124.004356 92.0
124.02652 144.0
124.043831 168.0
124.065277 116.0
124.117416 200.0
124.135849 132.0
124.151695 140.0
124.183006 152.0
124.206589 136.0
124.248283 144.0
124.360344 144.0
124.388535 120.0
124.425835 144.0
124.460976 116.0
124.464088 208.0
124.488785 172.0
124.5047 132.0
124.520462 196.0
124.537643 184.0
124.607956 156.0
124.628693 168.0
124.675423 452.0
124.745743 200.0
124.772423 148.0
124.817352 156.0
124.839935 192.0
124.855949 124.0
124.903328 148.0
124.909004 336.0
124.977104 160.0
125.013443 1044.0
125.06839 172.0
125.109016 136.0
125.133354 124.0
125.161804 176.0
125.204109 136.0
125.23307 168.0
125.298866 112.0
125.315491 36.0
125.331985 120.0
125.378716 204.0
125.416924 288.0
125.444756 48.0
125.462593 84.0
125.480431 108.0
125.500496 156.0
125.537369 152.0
125.554016 164.0
125.587563 100.0
125.605316 88.0
125.637665 224.0
125.654778 288.0
125.682602 168.0
125.72905 184.0
125.752586 156.0
125.792763 100.0
125.815086 164.0
125.852356 144.0
125.912338 196.0
125.93071 144.0
125.937988 160.0
125.942787 196.0
125.964714 56.0
126.010704 396.0
126.049614 80.0
126.084457 108.0
126.103249 152.0
126.138657 152.0
126.170143 156.0
126.177513 144.0
126.182014 188.0
126.199379 332.0
126.263695 100.0
126.313438 120.0
126.361107 312.0
126.401848 240.0
126.454758 128.0
126.493805 160.0
126.519325 84.0
126.536995 236.0
126.579773 128.0
126.621597 172.0
126.640244 304.0
126.660408 148.0
126.676086 48.0
126.693153 168.0
126.763794 172.0
126.784988 192.0
126.80381 148.0
126.821739 180.0
126.841911 140.0
126.857605 168.0
126.873299 192.0
126.893936 116.0
126.931595 196.0
126.951164 132.0
126.974205 180.0
126.993385 116.0
127.014771 484.0
127.052711 44.0
127.102074 132.0
127.122269 144.0
127.157166 212.0
127.164207 116.0
127.183365 224.0
127.214294 176.0
127.243484 88.0
127.293381 172.0
127.313095 136.0
127.328812 72.0
127.355766 104.0
127.406044 184.0
127.440674 156.0
127.463608 296.0
127.492821 152.0
127.508553 136.0
127.524284 160.0
127.569244 40.0
127.599236 212.0
127.631027 212.0
127.662506 192.0
127.681107 368.0
127.724403 172.0
127.74015 120.0
127.76265 120.0
127.807495 296.0
127.863907 164.0
127.890785 136.0
127.897034 128.0
127.959206 120.0
127.969345 124.0
127.979439 224.0
128.027237 168.0
128.077805 116.0
128.10553 120.0
128.132126 148.0
128.149902 180.0
128.170181 116.0
128.19722 140.0
128.233246 132.0
128.255829 368.0
128.287384 180.0
128.31218 148.0
128.337738 144.0
128.412109 200.0
128.428406 164.0
128.470047 100.0
128.488098 172.0
128.511368 152.0
128.554535 132.0
128.582993 180.0
128.643814 116.0
128.676453 192.0
128.695755 176.0
128.751282 148.0
128.803406 156.0
128.82222 40.0
128.844345 388.0
128.874191 200.0
128.916779 112.0
128.937469 208.0
128.95787 152.0
128.993988 988.0
129.041443 156.0
129.076385 132.0
129.105835 240.0
129.147736 48.0
129.168091 120.0
129.215607 124.0
129.256332 168.0
129.299332 60.0
129.330139 104.0
129.346863 104.0
129.376099 244.0
129.40448 124.0
129.444214 136.0
129.466339 192.0
129.499954 184.0
129.512924 168.0
129.532547 52.0
129.589539 204.0
129.597733 212.0
129.603302 156.0
129.635727 164.0
129.677567 128.0
129.707718 172.0
129.725174 120.0
129.764481 176.0
129.772171 164.0
129.809067 176.0
129.831741 284.0
129.849884 264.0
129.879364 116.0
129.89978 168.0
129.929276 152.0
129.964066 164.0
130.008133 256.0
130.062027 176.0
130.096848 120.0
130.10994 252.0
130.145447 168.0
130.167603 128.0
130.200119 100.0
130.223785 184.0
130.260727 164.0
130.276627 136.0
130.324402 140.0
130.369781 168.0
130.404541 248.0
130.44252 188.0
130.458435 128.0
130.490265 96.0
130.532059 216.0
130.551666 208.0
130.575058 152.0
130.601974 128.0
130.640366 136.0
130.6745 256.0
130.713181 316.0
130.746536 188.0
130.783539 308.0
130.794724 164.0
130.810333 192.0
130.854309 108.0
130.880402 52.0
130.913513 80.0
130.940262 176.0
130.963821 132.0
130.993484 320.0
131.017197 260.0
131.036636 72.0
131.118546 376.0
131.166412 168.0
131.208527 84.0
131.232529 72.0
131.249161 136.0
131.31691 160.0
131.334061 160.0
131.355621 312.0
131.387772 172.0
131.402618 336.0
131.43367 172.0
131.441071 132.0
131.451324 96.0
131.501724 256.0
131.538239 152.0
131.57933 96.0
131.654739 164.0
131.689514 168.0
131.723206 112.0
131.753632 372.0
131.77803 180.0
131.813202 124.0
131.855728 196.0
131.880875 200.0
131.912491 96.0
131.958755 168.0
131.987671 184.0
132.00264 140.0
132.029587 204.0
132.077682 144.0
132.106628 260.0
132.123764 112.0
132.142822 244.0
132.149277 132.0
132.156555 292.0
132.177551 244.0
132.21022 140.0
132.23082 168.0
132.272018 112.0
132.310944 180.0
132.331177 172.0
132.358215 228.0
132.37735 144.0
132.393372 164.0
132.418564 196.0
132.452927 156.0
132.483597 152.0
132.501038 144.0
132.525909 136.0
132.546799 136.0
132.572067 156.0
132.606445 176.0
132.627075 164.0
132.677505 100.0
132.701096 492.0
132.730103 128.0
132.760056 100.0
132.786163 128.0
132.803635 144.0
132.825623 192.0
132.855988 184.0
132.888992 152.0
132.89418 144.0
132.90358 332.0
132.940033 324.0
132.968826 132.0
133.001221 176.0
133.050018 912.0
133.121872 200.0
133.178619 288.0
133.217712 208.0
133.241302 104.0
133.269669 260.0
133.295242 276.0
133.304733 184.0
133.31543 140.0
133.322952 172.0
133.368484 164.0
133.395187 104.0
133.432587 136.0
133.470306 364.0
133.511276 188.0
133.581802 120.0
133.587219 232.0
133.640747 176.0
133.667465 216.0
133.682602 268.0
133.715805 136.0
133.731644 104.0
133.757492 140.0
133.784851 144.0
133.808182 152.0
133.839417 168.0
133.861526 108.0
133.900223 156.0
133.938446 120.0
133.969086 184.0
133.992126 140.0
134.022079 208.0
134.05838 4512.0
134.109238 180.0
134.126953 184.0
134.174408 180.0
134.21109 384.0
134.231461 152.0
134.258179 96.0
134.284897 132.0
134.321793 132.0
134.391495 208.0
134.4729 140.0
134.508026 352.0
134.545654 152.0
134.586395 268.0
134.614914 200.0
134.629227 148.0
134.663361 164.0
134.69223 176.0
134.743927 172.0
134.772003 208.0
134.792709 172.0
134.824402 228.0
134.862122 84.0
134.889862 168.0
134.9189 76.0
134.940094 96.0
134.955704 228.0
134.994736 172.0
135.029922 264.0
135.067047 58796.0
135.124268 236.0
135.142929 164.0
135.164795 140.0
135.19574 200.0
135.241302 116.0
135.261642 256.0
135.281723 356.0
135.315109 128.0
135.337234 88.0
135.35997 44.0
135.381393 128.0
135.398178 164.0
135.422073 112.0
135.442276 140.0
135.47113 136.0
135.486603 292.0
135.521683 156.0
135.57518 140.0
135.604263 108.0
135.648438 168.0
135.693787 208.0
135.733902 160.0
135.76973 60.0
135.812637 100.0
135.826141 132.0
135.868942 436.0
135.896271 124.0
135.920471 352.0
135.928757 220.0
135.933884 132.0
135.95813 212.0
135.98317 64.0
136.029022 96.0
136.032822 128.0
136.069122 4124.0
136.129898 200.0
136.151505 56.0
136.19928 56.0
136.245575 152.0
136.273453 196.0
136.349945 376.0
136.369217 184.0
136.394302 148.0
136.412903 196.0
136.451111 120.0
136.500107 212.0
136.53569 168.0
136.56517 152.0
136.590652 64.0
136.631516 200.0
136.659424 128.0
136.68158 188.0
136.712952 348.0
136.730652 184.0
136.769104 316.0
136.805557 156.0
136.838654 192.0
136.873581 40.0
136.896866 84.0
136.93248 204.0
136.96582 320.0
136.992355 244.0
137.013855 176.0
137.030975 160.0
137.071823 152.0
137.090729 240.0
137.107819 196.0
137.146347 100.0
137.16481 120.0
137.192123 216.0
137.208633 172.0
137.230087 120.0
137.251801 204.0
137.274384 172.0
137.301849 216.0
137.328674 192.0
137.378494 264.0
137.410522 220.0
137.436737 168.0
137.443375 144.0
137.45256 232.0
137.53949 96.0
137.56604 168.0
137.598724 196.0
137.615067 116.0
137.733002 160.0
137.769211 136.0
137.790237 108.0
137.833298 112.0
137.860336 180.0
137.895401 80.0
137.966476 140.0
138.006287 152.0
138.026321 156.0
138.047363 100.0
138.069275 176.0
138.110519 88.0
138.126892 140.0
138.159637 160.0
138.197449 76.0
138.234924 156.0
138.259399 120.0
138.307632 132.0
138.349594 212.0
138.379639 60.0
138.417969 108.0
138.440521 160.0
138.456909 112.0
138.473312 48.0
138.545715 284.0
138.571701 208.0
138.67012 208.0
138.731064 212.0
138.777954 240.0
138.798538 160.0
138.820175 112.0
138.852997 180.0
138.869934 128.0
138.910248 188.0
138.920532 196.0
138.926819 368.0
138.957199 208.0
138.984375 128.0
139.021332 144.0
139.087936 188.0
139.122849 176.0
139.141632 112.0
139.16629 144.0
139.194458 152.0
139.270798 168.0
139.291534 188.0
139.316406 132.0
139.334213 124.0
139.355362 136.0
139.37886 136.0
139.409409 252.0
139.428207 100.0
139.455399 152.0
139.510483 136.0
139.530579 196.0
139.56926 52.0
139.598923 208.0
139.672745 136.0
139.703323 180.0
139.759796 144.0
139.786957 168.0
139.795166 128.0
139.802719 208.0
139.846863 164.0
139.870682 104.0
139.904709 384.0
139.956665 144.0
139.969833 120.0
139.992035 188.0
140.027313 1248.0
140.063751 144.0
140.077957 204.0
140.098831 152.0
140.131348 380.0
140.17894 200.0
140.211929 248.0
140.263336 140.0
140.305237 144.0
140.329803 200.0
140.376816 128.0
140.427521 272.0
140.457153 212.0
140.479477 224.0
140.494904 320.0
140.511414 176.0
140.532639 308.0
140.55751 156.0
140.613083 144.0
140.647537 152.0
140.678436 192.0
140.704941 164.0
140.749802 228.0
140.768692 152.0
140.799393 104.0
140.820648 180.0
140.837189 112.0
140.872314 124.0
140.892654 232.0
140.992966 124.0
140.998993 108.0
141.010056 172.0
141.019745 136.0
141.037354 112.0
141.081406 312.0
141.118408 160.0
141.183334 204.0
141.265045 104.0
141.286499 484.0
141.39444 164.0
141.454361 136.0
141.496536 148.0
141.558548 208.0
141.584946 132.0
141.607285 200.0
141.626038 132.0
141.66275 80.0
141.691193 148.0
141.712509 144.0
141.737762 140.0
141.746811 92.0
141.808609 320.0
141.833374 188.0
141.879105 304.0
141.946854 144.0
141.970886 160.0
142.004318 29184.0
142.040207 2712.0
142.065765 60.0
142.081909 176.0
142.10434 156.0
142.129837 104.0
142.15184 176.0
142.176834 144.0
142.18515 104.0
142.192032 132.0
142.235779 212.0
142.25621 180.0
142.287704 124.0
142.342178 192.0
142.379089 52.0
142.410583 140.0
142.449661 180.0
142.511017 240.0
142.545395 140.0
142.571533 140.0
142.597244 44.0
142.642838 200.0
142.66185 152.0
142.688385 84.0
142.726807 152.0
142.763977 196.0
142.792633 44.0
142.820877 64.0
142.854141 140.0
142.861221 120.0
142.87767 92.0
142.914658 152.0
142.971832 164.0
143.005798 1804.0
143.030121 168.0
143.051483 188.0
143.07933 3328.0
143.124405 156.0
143.144257 252.0
143.175812 60.0
143.209763 132.0
143.235367 104.0
143.256668 152.0
143.27179 328.0
143.325897 100.0
143.354492 96.0
143.373566 88.0
143.390244 28.0
143.414932 100.0
143.449829 140.0
143.499893 64.0
143.521973 140.0
143.538055 120.0
143.566666 96.0
143.591461 252.0
143.637802 180.0
143.684784 216.0
143.724106 188.0
143.757339 212.0
143.77301 160.0
143.798035 164.0
143.838669 64.0
143.865662 300.0
143.904465 132.0
144.001297 7024.0
144.040588 984.0
144.084717 612.0
144.118805 272.0
144.153946 188.0
144.171921 92.0
144.191071 112.0
144.239456 92.0
144.273453 204.0
144.301315 152.0
144.321274 124.0
144.359528 156.0
144.381058 128.0
144.409134 124.0
144.488693 276.0
144.505447 228.0
144.560486 164.0
144.577225 168.0
144.602325 232.0
144.687347 96.0
144.706497 104.0
144.723251 164.0
144.753235 208.0
144.790237 136.0
144.825378 156.0
144.863449 232.0
144.893311 104.0
144.929901 252.0
144.955612 84.0
144.977203 164.0
145.005554 604.0
145.044556 108.0
145.088211 172.0
145.110001 204.0
145.168961 84.0
145.1978 148.0
145.21933 168.0
145.244492 212.0
145.344543 252.0
145.494537 304.0
145.540527 156.0
145.567322 144.0
145.586533 352.0
145.609421 152.0
145.670044 172.0
145.694626 48.0
145.712601 116.0
145.760468 188.0
145.886887 160.0
145.922943 104.0
145.942017 172.0
145.980652 220.0
146.013092 152.0
146.054169 816.0
146.089737 136.0
146.107513 324.0
146.163406 128.0
146.235687 172.0
146.292358 188.0
146.319168 152.0
146.337418 184.0
146.421066 176.0
146.449966 388.0
146.534286 144.0
146.55838 176.0
146.575058 96.0
146.623444 220.0
146.680084 308.0
146.700577 144.0
146.719864 120.0
146.747711 160.0
146.810989 156.0
146.836472 136.0
146.881439 72.0
146.910385 152.0
146.940399 128.0
147.003525 164.0
147.045456 136.0
147.059479 112.0
147.111603 156.0
147.139145 188.0
147.1548 244.0
147.183121 160.0
147.217239 128.0
147.239563 228.0
147.296524 80.0
147.325623 52.0
147.353104 312.0
147.373947 156.0
147.39328 32.0
147.446442 96.0
147.480286 152.0
147.543686 124.0
147.610306 256.0
147.667297 208.0
147.746292 168.0
147.77774 116.0
147.843582 156.0
147.864639 172.0
147.871811 156.0
147.901413 196.0
147.920532 104.0
147.937485 164.0
147.978638 100.0
148.0009 188.0
148.031906 168.0
148.068756 468.0
148.152222 232.0
148.184982 192.0
148.203888 116.0
148.232971 44.0
148.280273 100.0
148.298981 188.0
148.362183 144.0
148.455414 148.0
148.479401 228.0
148.553024 104.0
148.647644 128.0
148.665802 116.0
148.713181 140.0
148.7556 100.0
148.781143 68.0
148.810272 184.0
148.861664 200.0
148.911194 200.0
148.950439 152.0
148.980286 40.0
149.020401 160.0
149.033127 240.0
149.036972 192.0
149.083069 144.0
149.12973 136.0
149.203873 100.0
149.236755 176.0
149.256699 176.0
149.306351 228.0
149.325455 204.0
149.366806 200.0
149.387085 204.0
149.414169 172.0
149.461823 232.0
149.482574 124.0
149.590683 152.0
149.612732 136.0
149.636948 220.0
149.677078 100.0
149.69368 160.0
149.731537 232.0
149.752472 136.0
149.787933 128.0
149.814743 160.0
149.831177 336.0
149.867249 196.0
149.897583 84.0
149.962051 244.0
149.989929 152.0
150.023193 188.0
150.07309 116.0
150.09259 172.0
150.141357 68.0
150.21698 164.0
150.235504 228.0
150.289093 184.0
150.321289 120.0
150.351181 172.0
150.370697 92.0
150.39267 164.0
150.426849 180.0
150.459152 188.0
150.479843 152.0
150.513489 148.0
150.578232 268.0
150.600784 172.0
150.658676 228.0
150.716202 152.0
150.732147 224.0
150.751144 196.0
150.783722 300.0
150.820923 136.0
150.842133 100.0
150.870743 116.0
150.890533 120.0
150.909622 92.0
150.957047 152.0
151.016327 132.0
151.044281 132.0
151.079346 112.0
151.116928 132.0
151.186707 132.0
151.20903 140.0
151.231064 116.0
151.256165 128.0
151.290771 184.0
151.328979 120.0
151.353958 120.0
151.395096 124.0
151.429382 116.0
151.483307 244.0
151.567108 56.0
151.611542 240.0
151.631454 244.0
151.640854 116.0
151.645721 164.0
151.677048 236.0
151.7099 180.0
151.743057 60.0
151.762665 120.0
151.804352 28.0
151.826736 356.0
151.85849 196.0
151.924118 120.0
151.988358 280.0
152.025192 4240.0
152.080261 296.0
152.11351 120.0
152.149536 196.0
152.177338 144.0
152.196976 120.0
152.221085 152.0
152.270462 260.0
152.297668 228.0
152.351715 136.0
152.387619 232.0
152.419708 228.0
152.46933 176.0
152.500458 272.0
152.526016 168.0
152.555695 68.0
152.575363 144.0
152.612244 160.0
152.641754 148.0
152.661423 120.0
152.695648 140.0
152.703003 128.0
152.738678 156.0
152.75824 100.0
152.818848 236.0
152.842712 132.0
152.903793 132.0
152.983887 172.0
153.007034 728.0
153.026978 428.0
153.079437 188.0
153.085846 192.0
153.114578 168.0
153.137283 136.0
153.172821 160.0
153.202927 140.0
153.237823 148.0
153.279205 288.0
153.31282 172.0
153.342712 412.0
153.405014 160.0
153.433655 200.0
153.469116 200.0
153.493027 160.0
153.509216 160.0
153.536407 152.0
153.572693 28.0
153.593384 100.0
153.621277 184.0
153.639297 212.0
153.6689 40.0
153.708389 140.0
153.739807 196.0
153.77272 180.0
153.788269 220.0
153.80957 64.0
153.843262 204.0
153.86142 164.0
153.900925 168.0
153.923141 448.0
153.944077 208.0
153.975006 168.0
154.021011 1196.0
154.098511 140.0
154.160294 72.0
154.180069 156.0
154.224548 104.0
154.261627 164.0
154.283264 128.0
154.307404 260.0
154.330856 240.0
154.377548 168.0
154.477936 292.0
154.50647 208.0
154.554825 144.0
154.575745 232.0
154.594955 100.0
154.63266 80.0
154.692078 52.0
154.749023 108.0
154.766342 228.0
154.793228 144.0
154.830734 84.0
154.870361 88.0
154.893387 348.0
154.937943 128.0
154.964508 104.0
155.004089 232.0
155.027359 136.0
155.066101 144.0
155.110413 164.0
155.131302 160.0
155.227249 160.0
155.244614 172.0
155.271896 68.0
155.319931 348.0
155.341339 216.0
155.363663 100.0
155.403366 160.0
155.431747 156.0
155.46788 128.0
155.487747 124.0
155.552277 116.0
155.596954 88.0
155.616821 208.0
155.661255 132.0
155.675919 56.0
155.698196 156.0
155.715515 124.0
155.812256 192.0
155.837296 152.0
155.845123 328.0
155.869843 144.0
155.941086 128.0
156.019638 1756.0
156.081482 40.0
156.106079 260.0
156.14682 160.0
156.198364 160.0
156.235443 164.0
156.282089 104.0
156.320282 136.0
156.393173 224.0
156.439682 144.0
156.479584 112.0
156.499512 128.0
156.531876 188.0
156.571732 184.0
156.661392 148.0
156.685349 176.0
156.719223 192.0
156.771027 100.0
156.788483 120.0
156.818222 120.0
156.850784 104.0
156.870728 108.0
156.92186 212.0
156.93251 108.0
156.943771 188.0
156.983978 228.0
157.020096 220.0
157.061325 176.0
157.087692 164.0
157.12262 144.0
157.164093 244.0
157.207169 308.0
157.22821 224.0
157.282333 140.0
157.325485 140.0
157.342239 224.0
157.392532 224.0
157.40567 80.0
157.435852 180.0
157.467834 192.0
157.49707 84.0
157.524551 180.0
157.54454 152.0
157.63147 384.0
157.671967 100.0
157.714462 112.0
157.750397 152.0
157.799454 164.0
157.861237 136.0
157.934509 128.0
157.964523 136.0
158.016907 916.0
158.065613 216.0
158.08963 120.0
158.144684 180.0
158.169724 176.0
158.236313 140.0
158.244461 196.0
158.312943 236.0
158.33754 152.0
158.386841 208.0
158.390778 212.0
158.415131 120.0
158.457382 264.0
158.466034 188.0
158.539368 240.0
158.601273 200.0
158.646194 188.0
158.674637 196.0
158.71434 332.0
158.754288 160.0
158.801971 120.0
158.831009 168.0
158.834488 152.0
158.856445 88.0
158.884766 96.0
158.922623 204.0
158.964233 116.0
158.984192 140.0
159.012878 208.0
159.061996 208.0
159.09726 208.0
159.139542 100.0
159.189407 148.0
159.210251 60.0
159.239777 132.0
159.271606 84.0
159.295654 324.0
159.328308 232.0
159.376053 48.0
159.42128 148.0
159.46904 100.0
159.498001 176.0
159.579102 184.0
159.585724 144.0
159.623291 180.0
159.701279 152.0
159.724319 144.0
159.758347 228.0
159.831177 208.0
159.855057 172.0
159.87236 88.0
159.882111 116.0
159.905365 96.0
159.987747 444.0
160.036636 160.0
160.055466 156.0
160.108505 144.0
160.143356 148.0
160.16098 148.0
160.18306 240.0
160.213303 168.0
160.276871 136.0
160.305847 136.0
160.349426 208.0
160.371506 196.0
160.378204 192.0
160.388229 236.0
160.427826 228.0
160.464447 208.0
160.517517 376.0
160.535553 168.0
160.579391 140.0
160.597046 180.0
160.662643 56.0
160.707092 220.0
160.763748 220.0
160.808716 140.0
160.829193 172.0
160.883286 180.0
160.889404 192.0
160.957947 220.0
160.975632 116.0
160.998352 168.0
161.031189 148.0
161.056854 200.0
161.081284 72.0
161.114548 140.0
161.134766 128.0
161.152451 204.0
161.181671 88.0
161.206299 180.0
161.263641 148.0
161.283508 176.0
161.319244 220.0
161.393555 164.0
161.399765 204.0
161.408371 272.0
161.427979 156.0
161.454941 180.0
161.49469 188.0
161.544327 220.0
161.560684 136.0
161.570724 64.0
161.578751 164.0
161.626587 140.0
161.655151 164.0
161.678177 124.0
161.74263 316.0
161.794861 156.0
161.821396 332.0
161.860565 160.0
161.927307 120.0
161.965469 152.0
162.053528 15780.0
162.093857 92.0
162.166168 236.0
162.204117 144.0
162.224152 80.0
162.243515 176.0
162.266785 120.0
162.306671 216.0
162.359207 124.0
162.390366 204.0
162.412003 68.0
162.44014 132.0
162.458862 48.0
162.543106 192.0
162.580643 196.0
162.649185 136.0
162.719681 336.0
162.748825 144.0
162.787125 156.0
162.824371 212.0
162.873123 228.0
162.904068 128.0
162.94519 152.0
162.986176 208.0
163.057922 2628.0
163.096237 140.0
163.116577 160.0
163.144547 248.0
163.169098 188.0
163.179214 88.0
163.188873 192.0
163.236023 200.0
163.256424 304.0
163.276764 144.0
163.306015 52.0
163.354095 272.0
163.38298 196.0
163.403961 52.0
163.42926 140.0
163.493027 184.0
163.520447 72.0
163.572937 164.0
163.6362 112.0
163.668671 68.0
163.699234 100.0
163.719604 112.0
163.752716 144.0
163.781845 156.0
163.802292 172.0
163.848923 156.0
163.89537 32.0
163.923401 196.0
163.94249 112.0
163.977798 176.0
164.004532 168.0
164.065506 420.0
164.106491 340.0
164.129883 56.0
164.160721 212.0
164.216599 100.0
164.27951 180.0
164.328842 152.0
164.364563 64.0
164.396301 284.0
164.456436 128.0
164.492172 120.0
164.512589 176.0
164.560806 104.0
164.614731 196.0
164.685211 140.0
164.709229 88.0
164.744995 128.0
164.770538 120.0
164.788422 112.0
164.816254 188.0
164.847641 188.0
164.888092 76.0
164.913651 228.0
164.939209 152.0
164.996414 92.0
165.034744 176.0
165.156082 132.0
165.166122 108.0
165.198257 128.0
165.270828 120.0
165.313416 168.0
165.358307 184.0
165.388885 160.0
165.427795 472.0
165.47171 160.0
165.569672 128.0
165.590744 88.0
165.600449 152.0
165.630096 172.0
165.66597 128.0
165.712494 384.0
165.778702 28.0
165.819717 148.0
165.845337 52.0
165.882996 228.0
165.914551 152.0
165.937637 164.0
165.995224 216.0
166.054718 108.0
166.129471 200.0
166.195374 168.0
166.2453 72.0
166.268539 180.0
166.309616 32.0
166.360947 216.0
166.404602 116.0
166.458572 196.0
166.49852 140.0
166.52272 220.0
166.558685 152.0
166.579926 196.0
166.607162 264.0
166.641296 128.0
166.647095 96.0
166.657211 148.0
166.733475 168.0
166.7771 152.0
166.796677 52.0
166.891724 208.0
166.936386 92.0
166.959152 336.0
166.987244 164.0
167.013504 256.0
167.046631 156.0
167.062332 104.0
167.074387 184.0
167.106277 80.0
167.170609 336.0
167.210144 132.0
167.215164 164.0
167.258102 124.0
167.266037 360.0
167.348221 112.0
167.387115 192.0
167.448349 184.0
167.493454 152.0
167.528503 192.0
167.567139 136.0
167.592911 232.0
167.610947 108.0
167.646835 164.0
167.67395 164.0
167.736923 164.0
167.810913 160.0
167.847916 172.0
167.872925 148.0
167.918533 192.0
167.943527 48.0
167.966736 120.0
167.982834 116.0
168.021286 780.0
168.095749 120.0
168.121902 176.0
168.144592 180.0
168.175629 88.0
168.200119 172.0
168.227859 192.0
168.253189 176.0
168.278717 144.0
168.309998 36.0
168.351807 124.0
168.399216 168.0
168.431381 152.0
168.464966 148.0
168.486771 272.0
168.514053 360.0
168.558624 224.0
168.587692 164.0
168.614838 336.0
168.634384 220.0
168.66507 212.0
168.672516 188.0
168.680252 272.0
168.699722 124.0
168.732635 140.0
168.762177 120.0
168.81131 92.0
168.861145 164.0
168.892914 168.0
168.909744 296.0
168.947968 164.0
168.966888 164.0
169.028748 3584.0
169.061371 140.0
169.093475 64.0
169.176208 164.0
169.196854 100.0
169.219238 332.0
169.276428 204.0
169.307129 424.0
169.32428 172.0
169.360611 300.0
169.407043 172.0
169.42894 268.0
169.438644 112.0
169.448334 236.0
169.465942 200.0
169.499191 292.0
169.542892 316.0
169.560165 236.0
169.567352 208.0
169.599899 184.0
169.620346 272.0
169.644501 296.0
169.683197 184.0
169.73439 456.0
169.785019 712.0
169.820175 416.0
169.867599 368.0
169.88504 196.0
169.894577 276.0
169.950775 628.0
170.000214 282128.0
170.035843 106892.0
170.080994 256.0
170.123123 196.0
170.159195 120.0
170.199905 200.0
170.210144 152.0
170.239029 144.0
170.262634 372.0
170.28717 204.0
170.309601 316.0
170.33931 296.0
170.349548 152.0
170.391907 108.0
170.427948 3880.0
170.462158 1316.0
170.495117 160.0
170.545364 88.0
170.563828 196.0
170.587982 112.0
170.60788 176.0
170.633987 228.0
170.638107 244.0
170.678101 88.0
170.697159 312.0
170.737747 112.0
170.764969 136.0
170.789215 408.0
170.809479 140.0
170.832886 180.0
170.870102 296.0
170.954163 312.0
171.002716 30184.0
171.038864 9328.0
171.094498 192.0
171.137054 60.0
171.160141 248.0
171.185104 172.0
171.235138 344.0
171.265289 244.0
171.335297 168.0
171.361938 328.0
171.371368 116.0
171.383804 260.0
171.438461 104.0
171.448761 108.0
171.461563 96.0
171.497543 436.0
171.529312 164.0
171.567673 132.0
171.602829 304.0
171.613266 108.0
171.620483 344.0
171.639465 152.0
171.677811 184.0
171.699783 200.0
171.719803 188.0
171.741043 136.0
171.777252 92.0
171.815872 272.0
171.855026 252.0
171.894333 368.0
171.996689 102256.0
172.032883 30584.0
172.136459 208.0
172.175919 252.0
172.18663 312.0
172.194214 312.0
172.205307 252.0
172.209412 388.0
172.228394 232.0
172.242142 300.0
172.27063 220.0
172.293839 296.0
172.321823 472.0
172.371872 440.0
172.396362 136.0
172.428604 148.0
172.463867 492.0
172.484283 128.0
172.50119 152.0
172.544388 96.0
172.576767 132.0
172.614136 176.0
172.649353 80.0
172.66449 48.0
172.674728 80.0
172.722 56.0
172.753159 180.0
172.783859 324.0
172.80661 48.0
172.84169 136.0
172.877914 96.0
172.933395 64.0
172.963287 164.0
172.999634 6244.0
173.035187 2052.0
173.093948 196.0
173.128708 204.0
173.149368 136.0
173.158691 204.0
173.165619 168.0
173.198059 128.0
173.233826 112.0
173.280167 200.0
173.337067 72.0
173.342651 108.0
173.361969 140.0
173.397507 64.0
173.420944 104.0
173.44191 104.0
173.488159 176.0
173.517899 132.0
173.550705 160.0
173.583374 48.0
173.60788 200.0
173.647736 80.0
173.675552 92.0
173.704819 84.0
173.801071 80.0
173.842346 68.0
173.89769 144.0
173.93187 56.0
173.947525 72.0
173.956116 100.0
174.007965 292.0
174.041061 96.0
174.06955 164.0
174.091446 128.0
174.129272 92.0
174.15889 140.0
174.164215 104.0
174.186859 144.0
174.192139 100.0
174.245041 108.0
174.271545 304.0
174.300873 116.0
174.332199 96.0
174.345642 68.0
174.374054 164.0
174.414047 352.0
174.465027 232.0
174.514786 48.0
174.574097 196.0
174.591141 140.0
174.644653 124.0
174.690567 44.0
174.714233 220.0
174.735291 104.0
174.756714 112.0
174.778061 124.0
174.804169 272.0
174.859299 96.0
174.88266 76.0
174.940567 192.0
174.980057 172.0
174.998489 40.0
175.035858 164.0
175.057999 144.0
175.087769 124.0
175.177582 116.0
175.206558 72.0
175.234055 192.0
175.257477 164.0
175.277695 32.0
175.301407 92.0
175.32399 224.0
175.367294 124.0
175.417023 144.0
175.496475 56.0
175.541306 100.0
175.570312 56.0
175.593613 156.0
175.732635 164.0
175.793823 144.0
175.905411 88.0
175.963486 52.0
176.091827 120.0
176.15892 56.0
176.182693 108.0
176.201187 56.0
176.229553 136.0
176.346542 188.0
176.380905 176.0
176.505157 156.0
176.529724 180.0
176.579208 104.0
176.691284 140.0
176.742691 156.0
176.785568 152.0
176.812027 140.0
176.878204 132.0
176.933792 180.0
176.957626 88.0
176.997833 64.0
177.097977 152.0
177.121826 100.0
177.14566 100.0
177.165771 156.0
177.207642 244.0
177.323196 128.0
177.39212 52.0
177.410675 60.0
177.452316 144.0
177.524689 128.0
177.620712 136.0
177.657303 52.0
177.700424 128.0
177.741287 148.0
177.864304 56.0
177.896149 48.0
177.949249 196.0
177.97049 144.0
178.095306 56.0
178.145782 56.0
178.171463 156.0
178.198914 128.0
178.25206 36.0
178.27066 92.0
178.305206 140.0
178.342422 148.0
178.371658 52.0
178.416855 156.0
178.496628 172.0
178.545563 100.0
178.579071 152.0
178.610992 172.0
178.640579 196.0
178.682816 132.0
178.744019 140.0
178.765305 136.0
178.786591 132.0
178.834259 88.0
178.8647 128.0
178.988907 44.0
179.026199 140.0
179.120789 124.0
179.162033 132.0
179.187439 120.0
179.211243 120.0
179.279388 104.0
179.392502 100.0
179.431213 108.0
179.449875 136.0
179.489883 108.0
179.515945 88.0
179.652573 252.0
179.687256 200.0
179.737961 112.0
179.796661 88.0
179.821899 140.0
179.844711 176.0
179.924622 64.0
179.943436 240.0
179.964844 156.0
180.02002 20580.0
180.063232 180.0
180.107895 80.0
180.172226 96.0
180.20256 48.0
180.245316 120.0
180.263351 156.0
180.332977 160.0
180.388519 108.0
180.437759 136.0
180.579483 100.0
180.632156 196.0
180.706497 44.0
180.726624 104.0
180.756058 68.0
180.803146 148.0
180.860443 132.0
180.883362 192.0
180.914886 164.0
180.9478 104.0
181.023117 2692.0
181.082672 92.0
181.104095 168.0
181.146957 80.0
181.173752 104.0
181.19519 204.0
181.212708 156.0
181.270218 148.0
181.329163 40.0
181.366699 92.0
181.386353 48.0
181.453903 228.0
181.481979 96.0
181.510696 128.0
181.543655 44.0
181.562424 84.0
181.645309 40.0
181.669708 204.0
181.699234 100.0
181.760941 88.0
181.798508 60.0
181.837738 136.0
181.855957 128.0
181.866425 184.0
181.906372 128.0
181.941895 144.0
181.970306 144.0
182.016785 6288.0
182.071915 128.0
182.093826 128.0
182.219528 116.0
182.284576 36.0
182.306076 48.0
182.330261 84.0
182.359085 144.0
182.405518 64.0
182.459137 84.0
182.509567 120.0
182.549255 96.0
182.57222 96.0
182.660919 160.0
182.800201 156.0
182.857407 108.0
182.908554 128.0
182.932785 184.0
182.98851 140.0
183.018066 700.0
183.058212 96.0
183.118576 48.0
183.142822 160.0
183.185913 84.0
183.218246 64.0
183.264053 48.0
183.298691 228.0
183.347595 116.0
183.383209 92.0
183.407806 132.0
183.500061 184.0
183.525513 152.0
183.60025 84.0
183.607483 60.0
183.615692 108.0
183.644165 116.0
183.676239 72.0
183.719696 112.0
183.745682 184.0
183.806046 76.0
183.843826 36.0
183.952881 176.0
183.977905 136.0
183.994156 300.0
184.049957 408.0
184.092178 184.0
184.120148 68.0
184.146194 140.0
184.182373 168.0
184.211029 60.0
184.283981 140.0
184.338013 168.0
184.362335 80.0
184.381256 128.0
184.421143 216.0
184.567795 160.0
184.662445 104.0
184.684082 56.0
184.765228 124.0
184.857239 128.0
184.875443 172.0
184.906998 176.0
184.935715 160.0
185.015045 184.0
185.043854 152.0
185.107849 124.0
185.152328 64.0
185.187531 128.0
185.228165 156.0
185.263382 180.0
185.317566 192.0
185.341949 76.0
185.38942 208.0
185.428665 104.0
185.458481 108.0
185.50351 144.0
185.56279 160.0
185.593338 140.0
185.63472 160.0
185.660355 176.0
185.735062 72.0
185.941895 192.0
186.011856 228.0
186.043579 284.0
186.096008 44.0
186.136749 112.0
186.179489 108.0
186.210068 144.0
186.256241 180.0
186.299713 40.0
186.36763 144.0
186.435562 96.0
186.582352 144.0
186.617249 172.0
186.658478 56.0
186.764557 84.0
186.799911 104.0
186.916901 132.0
186.957733 156.0
186.993103 168.0
187.028488 192.0
187.047546 52.0
187.077499 136.0
187.123779 52.0
187.186401 68.0
187.300934 152.0
187.428848 180.0
187.461548 156.0
187.516052 244.0
187.557312 172.0
187.584198 80.0
187.63327 100.0
187.789581 160.0
187.874008 204.0
187.897812 108.0
187.94693 140.0
188.009247 148.0
188.032562 148.0
188.063568 212.0
188.083969 484.0
188.104233 172.0
188.217163 176.0
188.277252 88.0
188.487595 28.0
188.559448 136.0
188.605118 128.0
188.624252 56.0
188.739075 48.0
188.815659 136.0
188.900452 52.0
188.941101 228.0
188.996201 76.0
189.023453 196.0
189.045456 216.0
189.081039 124.0
189.248032 160.0
189.420563 160.0
189.559586 380.0
189.60141 168.0
189.656219 140.0
189.695114 64.0
189.738464 96.0
189.790558 196.0
189.861862 196.0
189.949631 84.0
189.979797 228.0
190.009979 132.0
190.031937 124.0
190.059372 124.0
190.089554 216.0
190.108765 172.0
190.221298 128.0
190.363937 84.0
190.413513 160.0
190.482178 72.0
190.545364 44.0
190.567337 172.0
190.647034 176.0
190.671768 88.0
190.75148 120.0
190.800964 64.0
190.872452 116.0
190.986679 100.0
191.131805 112.0
191.180557 124.0
191.241104 204.0
191.29892 60.0
191.369141 132.0
191.469635 128.0
191.538483 116.0
191.665222 84.0
191.690018 196.0
191.775467 132.0
191.827835 148.0
192.100845 192.0
192.128433 136.0
192.216721 208.0
192.324356 120.0
192.347672 160.0
192.39061 68.0
192.589432 120.0
192.614304 156.0
192.669556 148.0
192.77179 52.0
192.804947 96.0
192.945435 132.0
192.981873 124.0
193.07312 108.0
193.301666 152.0
193.341476 112.0
193.402374 232.0
193.461472 148.0
193.490952 136.0
193.559357 148.0
193.601715 108.0
193.673737 112.0
193.695892 64.0
193.736282 212.0
193.781769 260.0
193.826111 68.0
193.895386 192.0
193.920334 120.0
193.973465 120.0
194.003494 108.0
194.061722 292.0
194.103546 144.0
194.247528 52.0
194.305786 156.0
194.345917 164.0
194.391815 232.0
194.414001 80.0
194.484375 180.0
194.5121 156.0
194.572235 96.0
194.762177 240.0
194.830521 200.0
194.961105 88.0
194.991684 192.0
195.047272 96.0
195.091263 136.0
195.12233 108.0
195.150406 212.0
195.214096 180.0
195.278061 80.0
195.312042 188.0
195.364288 76.0
195.438614 248.0
195.559082 172.0
195.598053 164.0
195.653732 132.0
195.684357 208.0
195.72612 136.0
195.753967 152.0
195.781815 164.0
195.815643 136.0
195.908859 372.0
195.946777 256.0
195.976807 52.0
196.023926 176.0
196.074905 372.0
196.11058 216.0
196.180267 100.0
196.199295 92.0
196.231628 76.0
196.418228 132.0
196.45015 124.0
196.512161 176.0
196.537964 144.0
196.580826 164.0
196.60704 160.0
196.637451 40.0
196.67157 128.0
196.701935 120.0
196.754913 168.0
196.760757 104.0
196.788651 344.0
196.813751 196.0
196.843979 128.0
196.880127 88.0
196.927399 140.0
196.952759 228.0
196.994354 132.0
197.028671 84.0
197.076935 264.0
197.100967 96.0
197.129715 176.0
197.163406 168.0
197.172379 160.0
197.204727 60.0
197.237869 136.0
197.285965 188.0
197.309143 280.0
197.341705 284.0
197.389771 128.0
197.401871 132.0
197.433014 80.0
197.463348 112.0
197.491623 524.0
197.525848 340.0
197.570618 132.0
197.579193 228.0
197.604462 504.0
197.60817 264.0
197.640625 220.0
197.676971 416.0
197.697327 188.0
197.710022 124.0
197.739929 148.0
197.760529 460.0
197.797745 624.0
197.830231 144.0
197.873199 240.0
197.908218 204.0
197.956116 392.0
197.960587 448.0
197.995834 704.0
198.031326 291608.0
198.096939 204.0
198.129715 144.0
198.163986 92.0
198.223785 104.0
198.289505 328.0
198.340515 204.0
198.360397 132.0
198.364517 272.0
198.403458 304.0
198.434631 168.0
198.492493 3572.0
198.526672 424.0
198.548431 168.0
198.553085 248.0
198.593597 152.0
198.621857 228.0
198.640045 116.0
198.648621 68.0
198.677979 56.0
198.70639 84.0
198.744965 260.0
198.751526 168.0
198.761627 408.0
198.796738 120.0
198.841827 236.0
198.874878 104.0
198.91713 144.0
198.948669 260.0
198.977142 232.0
199.033844 30076.0
199.086609 128.0
199.124908 100.0
199.150391 52.0
199.185791 100.0
199.210358 128.0
199.240097 144.0
199.258911 220.0
199.313858 116.0
199.326828 60.0
199.345703 48.0
199.391846 216.0
199.413895 104.0
199.451538 268.0
199.470444 204.0
199.514587 112.0
199.534225 232.0
199.545059 172.0
199.555588 168.0
199.584167 100.0
199.612411 132.0
199.650467 276.0
199.670975 52.0
199.689926 164.0
199.711426 116.0
199.757629 144.0
199.78656 244.0
199.833969 96.0
199.845657 84.0
199.87207 260.0
199.922897 188.0
199.957138 268.0
199.969635 220.0
199.980011 148.0
200.028122 107536.0
200.09761 320.0
200.141602 216.0
200.208252 260.0
200.22522 92.0
200.245758 240.0
200.292404 352.0
200.319061 352.0
200.358185 176.0
200.412598 196.0
200.448746 284.0
200.49678 124.0
200.545898 348.0
200.552551 188.0
200.564133 384.0
200.585403 288.0
200.616959 120.0
200.66124 248.0
200.700989 88.0
200.725159 116.0
200.764175 160.0
200.804016 120.0
200.837662 152.0
200.928482 132.0
200.992142 304.0
201.030273 9840.0
201.083176 52.0
201.105057 40.0
201.145203 68.0
201.173691 140.0
201.194794 124.0
201.214508 96.0
201.260712 168.0
201.300995 56.0
201.328094 220.0
201.347076 140.0
201.392792 208.0
201.415146 96.0
201.442963 120.0
201.466949 132.0
201.49408 112.0
201.519577 132.0
201.531403 56.0
201.541275 132.0
201.564697 88.0
201.595184 56.0
201.613068 176.0
201.652054 136.0
201.671188 84.0
201.690887 160.0
201.727631 104.0
201.755905 80.0
201.795486 36.0
201.815277 96.0
201.841431 48.0
201.930771 76.0
201.965836 68.0
201.990616 44.0
202.026886 160.0
202.059784 72.0
202.094879 60.0
202.147873 104.0
202.180191 64.0
202.279831 80.0
202.317108 108.0
202.35759 108.0
202.389679 92.0
202.431091 120.0
202.446182 88.0
202.456665 116.0
202.49498 108.0
202.540436 308.0
202.549698 72.0
202.559845 244.0
202.589066 160.0
202.628632 120.0
202.661606 140.0
202.698441 68.0
202.755112 56.0
203.007431 60.0
203.111542 164.0
203.3564 48.0
203.404648 44.0
203.438721 80.0
203.458588 88.0
203.481308 56.0
203.527603 52.0
203.572174 64.0
203.605072 40.0
203.674408 76.0
203.73407 104.0
203.802261 88.0
203.830673 116.0
203.913086 44.0
203.981308 72.0
204.020325 72.0
204.072281 96.0
204.125366 64.0
204.306931 72.0
204.40509 112.0
204.43924 72.0
204.462006 120.0
204.544052 116.0
204.840698 48.0
204.977463 60.0
205.005249 80.0
205.054413 72.0
205.122818 228.0
205.182693 128.0
205.397461 80.0
205.473602 104.0
205.576324 64.0
205.724747 96.0
205.824677 96.0
205.921768 108.0
205.95665 132.0
206.113174 180.0
206.204636 64.0
206.238922 60.0
206.275375 32.0
206.484818 48.0
206.902603 104.0
207.037186 36.0
207.084381 100.0
207.160355 68.0
207.223389 92.0
207.466995 100.0
207.596024 76.0
207.627579 108.0
207.710754 80.0
207.736572 48.0
207.782471 48.0
207.80896 208.0
207.977615 100.0
208.063736 112.0
208.109589 1948.0
208.236023 140.0
208.287735 60.0
208.437134 124.0
208.635452 72.0
208.790405 72.0
208.879898 80.0
208.992096 84.0
209.038132 76.0
209.111618 280.0
209.184921 108.0
209.207962 56.0
209.311615 68.0
209.395126 64.0
209.521866 68.0
209.59967 84.0
209.654419 40.0
209.720718 84.0
209.743774 68.0
209.789902 160.0
209.85997 92.0
209.960022 88.0
210.118668 160.0
210.205231 184.0
210.343765 56.0
210.38707 44.0
210.658539 140.0
210.756775 72.0
210.886826 80.0
210.934998 132.0
210.987991 68.0
211.062012 332.0
211.566605 96.0
211.905472 104.0
211.969208 52.0
212.015579 140.0
212.169205 76.0
212.310272 124.0
212.372208 84.0
212.763962 40.0
212.801697 56.0
213.039856 64.0
213.066833 224.0
213.222916 80.0
213.3759 96.0
213.41188 100.0
213.551468 136.0
213.571823 76.0
213.839508 68.0
213.912277 40.0
214.054947 140.0
214.078247 152.0
214.25592 52.0
214.354996 40.0
214.398712 40.0
214.66983 88.0
215.056015 788.0
215.116241 84.0
215.195068 80.0
215.247635 88.0
215.507599 44.0
215.685867 76.0
215.978287 32.0
216.078461 1196.0
216.124557 112.0
216.244553 52.0
216.467041 72.0
216.912399 68.0
217.020874 152.0
217.047028 148.0
217.083099 180.0
217.411026 60.0
218.089478 168.0
218.415863 52.0
218.498245 80.0
218.689514 68.0
218.904434 124.0
219.013412 44.0
219.122406 112.0
219.3228 96.0
219.42598 40.0
219.803543 116.0
219.924545 28.0
219.986526 28.0
220.103729 144.0
220.512314 92.0
220.837555 92.0
221.248886 112.0
221.405823 48.0
221.468018 32.0
223.123917 188.0
223.885681 152.0
224.636795 116.0
224.890442 168.0
225.138336 128.0
225.329422 80.0
225.58046 68.0
226.085953 92.0
226.142517 156.0
226.520111 80.0
226.648941 76.0
226.807785 92.0
227.054016 140.0
227.08432 68.0
228.044449 112.0
228.516586 68.0
229.754868 40.0
231.777634 68.0
232.262711 72.0
232.608643 36.0
233.052063 120.0
233.973633 44.0
234.022003 128.0
235.025177 60.0
235.699997 44.0
235.877274 92.0
236.620667 160.0
236.706406 124.0
236.740097 80.0
237.110794 76.0
237.190491 160.0
238.255356 72.0
238.913269 68.0
239.123505 196.0
239.30722 60.0
239.661438 52.0
239.713821 92.0
240.914078 172.0
242.036819 112.0
243.049561 212.0
243.093887 92.0
243.82991 60.0
244.044418 84.0
244.110535 348.0
245.654587 112.0
246.007233 128.0
247.51738 76.0
247.586273 52.0
248.354172 44.0
248.429443 100.0
248.758957 68.0
248.997604 96.0
249.352631 124.0
249.902954 36.0
250.043365 136.0
250.791031 120.0
251.042862 96.0
251.115707 136.0
251.904938 180.0
252.058289 904.0
252.477051 56.0
252.616211 64.0
252.66684 52.0
253.027634 80.0
253.064301 124.0
253.496429 80.0
254.061325 216.0
254.343246 100.0
254.587738 56.0
254.867279 44.0
255.045715 136.0
255.089752 148.0
255.528641 52.0
255.735489 64.0
255.776871 36.0
256.05069 64.0
256.656189 100.0
256.729523 56.0
257.080444 136.0
257.268768 56.0
258.153839 80.0
259.014832 56.0
259.144867 88.0
261.21051 136.0
261.458252 64.0
261.609528 56.0
262.040466 100.0
262.921448 124.0
262.95694 180.0
263.069916 76.0
263.851746 60.0
264.508453 56.0
264.935913 96.0
265.490204 64.0
265.795135 100.0
266.014832 192.0
266.483521 112.0
266.528992 32.0
267.000366 148.0
268.003021 164.0
268.328949 108.0
268.420258 96.0
268.531128 96.0
268.893311 52.0
269.079376 132.0
269.330841 84.0
270.239655 68.0
271.081726 148.0
271.868286 92.0
272.141937 88.0
272.34436 48.0
272.423187 108.0
274.055359 88.0
274.500061 88.0
275.936432 68.0
276.568268 84.0
276.61792 40.0
277.333435 132.0
278.039886 156.0
278.694092 72.0
280.03476 180.0
280.086029 2772.0
280.174683 80.0
280.331299 56.0
280.384613 40.0
281.09201 608.0
281.255157 148.0
281.492188 120.0
281.8797 100.0
281.986633 116.0
282.084839 996.0
282.133728 76.0
282.180542 136.0
282.581879 156.0
282.618683 60.0
282.886444 48.0
283.094025 252.0
283.213654 100.0
283.918457 56.0
284.089508 108.0
284.123077 72.0
284.374756 32.0
284.639984 100.0
285.059875 36.0
285.160706 52.0
285.36911 80.0
285.840027 56.0
286.557251 76.0
286.904388 76.0
287.0224 72.0
287.089844 124.0
287.194397 48.0
287.356323 120.0
288.065308 104.0
289.242096 92.0
290.126282 72.0
290.614685 84.0
291.912262 104.0
292.123138 92.0
292.558746 56.0
293.884552 64.0
294.471741 88.0
294.502472 124.0
295.172333 64.0
295.233887 116.0
295.740265 56.0
295.911407 96.0
296.113464 176.0
297.159027 48.0
297.334991 56.0
297.701355 80.0
298.801331 72.0
299.107605 148.0
299.50705 100.0
299.730988 52.0
300.013611 116.0
300.054993 84.0
300.103271 60.0
302.84375 92.0
303.138245 84.0
303.7901 60.0
304.050354 80.0
304.651062 64.0
305.655884 140.0
306.063141 104.0
307.600677 64.0
307.733337 100.0
308.058136 364.0
308.096558 76.0
309.712738 68.0
309.898407 64.0
310.031586 84.0
310.582031 72.0
310.669739 120.0
311.013641 100.0
311.291016 80.0
311.434998 88.0
311.522827 76.0
311.888275 120.0
312.2258 52.0
315.006866 40.0
315.211792 52.0
315.876495 128.0
316.088776 88.0
317.314331 132.0
318.837189 108.0
320.039551 76.0
320.139282 56.0
320.395721 80.0
320.506195 76.0
320.70575 96.0
320.766357 64.0
320.794891 60.0
321.451141 64.0
321.647461 80.0
322.083099 48.0
322.390381 76.0
322.619141 80.0
323.177063 96.0
323.36673 84.0
324.477234 52.0
324.620667 44.0
324.685211 100.0
326.060272 56.0
326.549255 60.0
326.700897 104.0
328.393372 176.0
329.119995 124.0
330.083557 96.0
330.173981 56.0
330.33313 76.0
331.252625 60.0
331.620636 108.0
332.460022 60.0
332.656006 96.0
333.476959 68.0
333.782349 108.0
333.855072 80.0
334.073303 80.0
334.408081 104.0
335.172882 148.0
335.245758 32.0
335.515472 56.0
335.920288 144.0
336.197601 36.0
337.348175 104.0
337.779663 88.0
337.893097 100.0
338.043091 72.0
338.837677 32.0
339.890015 104.0
340.396576 148.0
342.301422 72.0
342.632935 80.0
343.167358 120.0
343.787079 84.0
344.340881 184.0
344.658569 56.0
344.765747 112.0
345.671783 116.0
346.586426 36.0
347.220337 88.0
347.409515 68.0
347.958801 116.0
348.56424 76.0
350.50296 52.0
350.998718 112.0
351.162811 52.0
351.804657 80.0
352.734833 76.0
352.921753 48.0
353.17981 88.0
354.25415 52.0
354.628876 40.0
355.157562 40.0
355.236359 80.0
355.401428 72.0
355.859344 104.0
356.287506 108.0
356.546783 96.0
357.046814 68.0
357.385376 96.0
357.855865 68.0
358.010284 40.0
358.594238 56.0
358.745026 32.0
360.466156 124.0
360.628662 76.0
361.116394 96.0
361.415283 76.0
361.718048 92.0
362.226288 76.0
362.475525 28.0
362.627136 68.0
362.801514 68.0
363.408325 80.0
364.946655 120.0
365.030304 96.0
366.419617 128.0
366.884583 76.0
368.407318 64.0
368.434052 56.0
368.686249 48.0
369.064697 48.0
369.221497 80.0
369.619354 68.0
370.637939 92.0
371.270447 40.0
371.304962 64.0
372.13385 88.0
372.5448 40.0
374.117706 72.0
374.302521 92.0
374.961304 88.0
375.387299 64.0
377.911652 112.0
378.070282 76.0
378.403198 28.0
379.170197 92.0
380.077667 204.0
380.135864 88.0
381.137726 64.0
381.779144 64.0
381.876373 80.0
382.790955 32.0
382.833801 52.0
383.164886 28.0
383.86261 148.0
385.850067 48.0
390.61499 48.0
390.862854 32.0
391.161957 88.0
391.449402 108.0
391.839355 92.0
392.525177 112.0
392.931458 60.0
393.503754 84.0
394.29776 40.0
395.345795 36.0
395.959473 72.0
398.179077 100.0
398.414856 96.0
399.229706 124.0
399.352997 96.0
400.01355 72.0
402.034363 108.0
402.146973 256.0
402.409576 128.0
402.828918 96.0
403.208527 64.0
403.368408 44.0
403.792267 68.0
407.415955 60.0
410.503174 52.0
410.866211 64.0
411.568512 76.0
411.758301 56.0
411.835052 92.0
413.537292 48.0
417.635437 84.0
417.708649 100.0
417.964966 124.0
418.160309 72.0
418.57962 48.0
419.121399 52.0
419.810333 124.0
422.121704 92.0
422.165405 124.0
423.140564 156.0
423.177429 104.0
424.149872 140.0
425.013733 132.0
427.290009 60.0
427.586273 156.0
432.854065 92.0
433.355286 60.0
435.595581 68.0
435.67038 108.0
435.840729 132.0
436.605621 36.0
437.050751 56.0
437.217194 92.0
438.341614 88.0
438.758423 68.0
439.964142 48.0
440.227203 64.0
442.832764 48.0
443.100861 76.0
444.144714 72.0
444.958862 56.0
447.839478 76.0
448.53894 104.0
448.694916 52.0
449.838226 64.0
450.361816 76.0
453.331909 60.0
453.764252 36.0
455.257904 64.0
456.524323 120.0
458.346313 68.0
458.512512 36.0
459.915771 112.0
460.829681 60.0
461.8172 76.0
462.908569 48.0
466.396667 68.0
467.222321 80.0
468.074554 36.0
470.143799 56.0
471.093719 108.0
471.620911 56.0
471.923553 52.0
474.638489 168.0
474.890015 60.0
475.21106 88.0
476.617889 112.0
477.369904 64.0
480.165894 48.0
482.92627 112.0
483.538818 124.0
483.582581 120.0
485.413879 44.0
485.962189 68.0
486.818146 68.0
488.079346 72.0
488.413574 64.0
489.676849 88.0
491.402313 116.0
492.349548 52.0
493.30838 100.0
495.915619 64.0
496.115112 60.0
500.251068 52.0
500.52713 88.0
500.808258 64.0
502.127014 68.0
503.345337 40.0
504.650116 44.0
505.016815 84.0
505.535797 48.0
505.898376 84.0
508.796753 56.0
514.850891 64.0
517.301575 96.0
520.743286 72.0
522.547974 76.0
523.207947 112.0
523.517578 88.0
524.200867 164.0
524.323914 52.0
526.52301 120.0
529.092834 36.0
529.793579 80.0
530.05011 56.0
534.085693 116.0
541.873779 52.0
543.139404 136.0
544.564392 64.0
549.456909 80.0
550.731323 32.0
554.272949 72.0
555.121399 100.0
555.782837 72.0
560.169373 84.0
564.634644 88.0
564.885315 88.0
567.110901 48.0
569.649597 132.0
570.528748 76.0
570.894897 52.0
571.779785 92.0
573.318115 112.0
573.508728 88.0
573.675598 36.0
574.519714 68.0
574.763 44.0
574.867981 108.0
580.033508 88.0
584.889954 60.0
588.684448 68.0
591.353149 112.0
593.960022 104.0
595.134521 124.0
596.810852 32.0
599.332275 96.0
602.200806 64.0
603.525208 84.0
604.537781 52.0
604.97345 72.0
605.321045 88.0
609.387451 56.0
611.925415 44.0
612.068176 60.0
613.723816 44.0
626.416687 92.0
631.358154 84.0
632.133545 60.0
632.87439 56.0
634.959106 104.0
637.067322 116.0
637.419067 88.0
637.856323 100.0
638.318848 44.0
646.425537 60.0
648.740234 40.0
651.414612 92.0
653.295593 64.0
655.174133 48.0
661.450439 56.0
664.725525 60.0
665.469788 108.0
670.047363 152.0
675.825012 60.0
678.124329 44.0
678.839783 84.0
683.71283 44.0
684.353088 96.0
685.655457 52.0
685.749268 196.0
686.322693 164.0
688.258606 52.0
688.321228 48.0
690.830078 140.0
691.002686 52.0
691.719666 80.0
705.592712 92.0
713.7901 40.0
716.275635 68.0
719.913208 92.0
721.409302 88.0
721.681946 64.0
722.420044 132.0
723.463562 36.0
723.71521 64.0
724.122253 164.0
727.457458 72.0
730.509888 44.0
730.773499 44.0
740.934753 144.0
741.964539 168.0
742.897339 72.0
751.280762 124.0
762.44574 124.0
764.788757 64.0
767.267761 44.0
769.237244 112.0
771.90033 176.0
773.925598 44.0
779.622681 176.0
780.039551 72.0
780.779053 164.0
780.823547 176.0
784.203186 32.0
785.641846 68.0
794.868408 52.0
798.43573 56.0
799.549683 48.0
799.622864 40.0
803.499817 84.0
803.685974 204.0
806.526733 108.0
807.018555 56.0
807.73114 116.0
808.613831 32.0
810.675354 204.0
810.845398 176.0
811.633362 180.0
811.928284 52.0
819.061523 216.0
823.402161 212.0
826.260315 92.0
826.334717 148.0
826.895508 40.0
828.739502 136.0
829.157837 148.0
834.111328 64.0
834.255005 72.0
834.548218 120.0
835.744629 32.0
837.022522 100.0
837.062866 60.0
839.385132 116.0
839.725403 48.0
839.984985 100.0
841.294983 180.0
842.594421 204.0
843.050903 80.0
844.056763 60.0
844.253418 164.0
844.432678 228.0
844.606201 200.0
844.681396 224.0
844.779724 160.0
845.138489 52.0
851.521179 56.0
855.975952 148.0
856.092407 172.0
857.181763 172.0
857.245911 112.0
858.505127 64.0
863.820312 96.0
865.904114 136.0
866.982117 128.0
870.760437 196.0
871.300842 192.0
875.689209 72.0
877.014954 68.0
878.630798 128.0
879.722595 124.0
881.878662 100.0
881.920044 188.0
884.978577 56.0
885.097046 116.0
886.99884 176.0
890.666016 164.0
892.573792 136.0
893.025818 124.0
895.055237 84.0
896.985596 156.0
898.552795 152.0
899.431274 144.0
899.831299 36.0
900.219421 120.0
901.730896 116.0
902.753235 120.0
904.183105 56.0
904.572144 136.0
907.118103 96.0
908.467407 124.0
909.12146 92.0
909.229492 132.0
910.868652 44.0
912.803955 192.0
913.44751 172.0
914.909912 220.0
915.174805 80.0
915.825256 120.0
916.295105 160.0
916.475891 164.0
917.313599 52.0
919.352295 84.0
920.626099 120.0
921.514099 104.0
922.408569 100.0
922.704773 196.0
923.327637 52.0
923.944641 56.0
924.247131 168.0
924.51947 184.0
925.905884 164.0
928.29364 140.0
931.89325 152.0
931.941833 92.0
931.996521 84.0
932.853516 132.0
933.619629 148.0
935.000671 172.0
935.438904 28.0
935.536316 168.0
935.737244 140.0
937.582947 136.0
938.533936 100.0
938.77179 112.0
939.296326 56.0
940.168823 140.0
940.480103 132.0
941.939514 140.0
942.159424 160.0
943.4245 88.0
943.516174 128.0
943.593201 76.0
943.883057 156.0
944.335632 200.0
945.406311 128.0
946.012268 164.0
946.220398 220.0
947.200256 192.0
947.371826 216.0
947.69043 148.0
948.395142 156.0
949.081787 132.0
949.989502 88.0
951.164612 188.0
951.229126 80.0
951.548401 188.0
953.305176 192.0
954.190308 148.0
955.389587 40.0
955.531128 44.0
956.146484 92.0
957.106812 156.0
957.759644 92.0
957.97522 184.0
958.135437 108.0
958.270935 144.0
959.386475 76.0
959.515991 168.0
959.583069 156.0
960.416321 164.0
960.607544 88.0
962.545593 200.0
963.313477 164.0
963.496765 164.0
963.638855 68.0
964.232117 120.0
964.442261 228.0
965.314026 196.0
966.167603 212.0
968.216492 128.0
968.978394 216.0
969.08374 116.0
969.39978 148.0
969.777832 212.0
970.050537 56.0
970.465942 104.0
970.813232 120.0
971.328003 92.0
971.390076 28.0
972.171814 116.0
972.854614 108.0
974.320251 176.0
974.369995 224.0
974.53772 104.0
975.650269 140.0
976.029541 228.0
976.079285 188.0
977.292236 148.0
977.51001 84.0
977.895874 176.0
979.9198 112.0
980.137878 232.0
980.343506 180.0
980.437012 168.0
980.748657 152.0
981.029175 128.0
981.49054 96.0
982.369934 108.0
983.667969 220.0
984.154968 140.0
984.47345 44.0
984.567078 168.0
985.804077 84.0
986.504089 48.0
986.966797 208.0
987.254456 124.0
987.304443 176.0
988.536926 88.0
988.881104 184.0
989.000061 116.0
989.432007 160.0
990.390137 144.0
991.411377 160.0
991.962952 48.0
992.027771 228.0
992.596191 140.0
993.888428 128.0
994.064087 52.0
995.75293 176.0
998.355652 152.0
999.285828 132.0
999.424255 124.0
999.638184 160.0
1000.028381 48.0
1000.55719 216.0
1000.664185 60.0
1000.834229 76.0
1000.900696 188.0
1001.237244 64.0
1001.558472 124.0
1001.791565 120.0
1002.516174 120.0
1004.33197 84.0
1004.609497 116.0
1004.868225 100.0
1005.044861 156.0
1006.370422 48.0
1006.465088 140.0
1006.957703 156.0
1007.102966 56.0
1007.762329 216.0
1008.284485 180.0
1008.658691 156.0
1008.897644 92.0
1009.115601 176.0
1009.972656 160.0
1010.364868 84.0
1010.630615 192.0
1010.712891 152.0
1012.257446 208.0
1013.549683 124.0
1014.278564 128.0
1016.346069 48.0
1016.447632 200.0
1016.542786 152.0
1016.77124 132.0
1017.234619 168.0
1017.922974 180.0
1018.041016 184.0
1018.091797 36.0
1018.409363 104.0
1019.495789 160.0
1021.359009 100.0
1021.638611 140.0
1024.140381 124.0
1024.363281 68.0
1024.764648 208.0
1025.057861 120.0
1025.249023 124.0
1025.338257 108.0
1025.400513 172.0
1025.491211 152.0
1025.612305 168.0
1025.860962 228.0
1026.249756 80.0
1026.868408 156.0
1027.008667 100.0
1027.933838 172.0
1028.380615 232.0
1028.514648 160.0
1030.31543 136.0
1030.494385 152.0
1030.71167 136.0
1031.2229 216.0
1031.74707 44.0
1031.926392 196.0
1032.520752 196.0
1033.889893 40.0
1034.069092 92.0
1034.152344 112.0
1034.376343 164.0
1034.901367 204.0
1035.548096 184.0
1035.761353 180.0
1036.598877 144.0
1037.303833 116.0
1037.752686 148.0
1038.419556 184.0
1038.887817 164.0
1039.670654 96.0
1039.884033 236.0
1040.017212 132.0
1040.177734 76.0
1040.395996 124.0
1040.49231 144.0
1041.038086 172.0
1041.416992 192.0
1041.513428 132.0
1041.712524 76.0
1041.783203 156.0
1042.425659 184.0
1043.049194 140.0
1045.808716 124.0
1046.265747 96.0
1046.452393 136.0
1047.044922 168.0
1047.205933 124.0
1047.30896 48.0
1047.724854 172.0
1047.946777 44.0
1048.043335 144.0
1048.28186 140.0
1048.359131 128.0
1048.73291 88.0
1049.042358 128.0
1050.061157 68.0
1050.383667 108.0
1050.499756 212.0
1051.609741 104.0
1051.848511 140.0
1052.23584 176.0
1052.423096 132.0
1052.610352 200.0
1052.988037 148.0
1053.689087 196.0
1053.986328 176.0
1054.167236 156.0
1054.981689 136.0
1055.104492 116.0
1055.473022 132.0
1056.067993 192.0
1056.158569 112.0
1057.724487 144.0
1057.789185 28.0
1058.397827 140.0
1058.598633 248.0
1058.702148 156.0
1059.15564 204.0
1059.414673 160.0
1060.548706 56.0
1060.762695 176.0
1061.138672 168.0
1061.57959 140.0
1062.370972 140.0
1062.617432 156.0
1062.935425 132.0
1063.45459 136.0
1064.175171 232.0
1064.266113 116.0
1065.565186 152.0
1066.026489 144.0
1067.690796 128.0
1067.78186 104.0
1068.216064 176.0
1068.386719 212.0
1068.555908 124.0
1068.809692 152.0
1069.252197 284.0
1069.60376 84.0
1069.720825 172.0
1069.838013 220.0
1069.916138 192.0
1069.986938 116.0
1070.059448 180.0
1070.163574 132.0
1070.22876 132.0
1071.511841 152.0
1071.707275 148.0
1072.482788 52.0
1072.756592 152.0
1072.984741 152.0
1073.030396 100.0
1073.206421 152.0
1073.39563 144.0
1074.210815 160.0
1074.364624 96.0
1075.267944 168.0
1075.515991 96.0
1075.737915 84.0
1075.809692 52.0
1076.221069 140.0
1076.351685 140.0
1077.390137 72.0
1077.501221 132.0
1077.965088 220.0
1078.043579 116.0
1078.130005 164.0
1078.821411 92.0
1078.945557 200.0
1079.050171 132.0
1079.527588 148.0
1079.893799 136.0
1080.148926 40.0
1080.286255 60.0
1080.395996 176.0
1081.221924 76.0
1081.333252 132.0
1081.459961 136.0
1081.523071 180.0
1081.653931 88.0
1082.02063 164.0
1082.393799 124.0
1082.492065 44.0
1083.114258 136.0
1083.310791 84.0
1083.651489 52.0
1083.758789 144.0
1084.110107 96.0
1085.067139 152.0
1085.152344 48.0
1085.591675 136.0
1085.873779 128.0
1086.168945 184.0
1087.008667 108.0
1087.16626 160.0
1087.231812 128.0
1087.277832 136.0
1087.566528 184.0
1087.724121 156.0
1087.86853 132.0
1088.045776 168.0
1088.741821 64.0
1089.188477 108.0
1089.25415 152.0
1089.812622 160.0
1090.200317 92.0
1090.300903 180.0
1090.982544 84.0
1091.317749 92.0
1091.600586 80.0
1091.857056 116.0
1091.982056 60.0
1092.666138 120.0
1092.758301 148.0
1093.679565 100.0
1093.77832 120.0
1093.863892 128.0
1094.194824 208.0
1094.561768 168.0
1094.713257 132.0
1094.897705 96.0
1094.989868 168.0
1095.064331 168.0
1095.692017 120.0
1095.958252 128.0
1096.13623 124.0
1096.459106 128.0
1097.454468 136.0
1097.691895 184.0
1098.549316 180.0
1099.176147 120.0
1099.228882 116.0
1099.519287 184.0
1099.591919 104.0
1100.232178 112.0
1100.397217 92.0
1100.681152 188.0
1100.859497 136.0
1101.355347 164.0
1101.830444 144.0
1102.755615 132.0
1103.013428 48.0
1103.066284 176.0
1103.350586 132.0
1103.562134 164.0
1104.005249 64.0
1104.058105 168.0
1104.19043 256.0
1104.302856 188.0
1104.600464 40.0
1107.652222 164.0
1107.93042 216.0
1108.082764 44.0
1108.215332 104.0
1108.261719 144.0
1108.460449 128.0
1108.606201 36.0
1108.71582 168.0
1108.884644 212.0
1109.222656 212.0
1109.945312 192.0
1110.515747 176.0
1110.562134 172.0
1110.621826 152.0
1110.727905 172.0
1110.924683 140.0
1111.4104 148.0
1111.544067 120.0
1112.078369 128.0
1112.466553 56.0
1112.825073 172.0
1112.924683 104.0
1113.143799 148.0
1113.402832 44.0
1113.551758 192.0
1113.635254 96.0
1113.807983 96.0
1114.292969 44.0
1114.884399 80.0
1115.249878 112.0
1115.555664 64.0
1115.615479 116.0
1115.834961 204.0
1115.967896 116.0
1116.559692 168.0
1117.292358 280.0
1117.531006 56.0
1117.943604 132.0
1118.050049 128.0
1118.269653 120.0
1118.336182 132.0
1118.462646 284.0
1118.62915 140.0
1119.068481 184.0
1119.135132 124.0
1119.388184 184.0
1119.900024 164.0
1120.200684 92.0
1120.820312 132.0
1121.25354 80.0
1121.751099 156.0
1122.360107 76.0
1123.170654 188.0
1123.310547 364.0
1123.594116 104.0
1124.581665 156.0
1124.728516 212.0
1125.015625 204.0
1125.689941 136.0
1125.776855 120.0
1126.023926 44.0
1126.070679 144.0
1126.324463 36.0
1126.498169 96.0
1127.05249 96.0
1127.135376 300.0
1127.340088 160.0
1127.781128 228.0
1127.901489 128.0
1127.954956 44.0
1128.483154 120.0
1128.804077 116.0
1129.499634 140.0
1129.750366 128.0
1129.947876 148.0
1130.429688 132.0
1130.563477 96.0
1130.637085 104.0
1130.831177 192.0
1131.058838 184.0
1131.112305 92.0
1131.380127 84.0
1132.351074 128.0
1132.726196 100.0
1132.823608 256.0
1133.664185 188.0
1133.985962 124.0
1134.039551 204.0
1134.341187 152.0
1134.535645 212.0
1134.732788 176.0
1135.353638 204.0
1135.528076 192.0
1135.7948 172.0
1135.950562 196.0
1136.192139 96.0
1136.574585 76.0
1136.943604 124.0
1137.171875 132.0
1138.098267 120.0
1138.22583 160.0
1138.528076 96.0
1138.682495 96.0
1139.092285 60.0
1139.273682 148.0
1139.394531 272.0
1139.979126 216.0
1140.422729 180.0
1141.370728 196.0
1141.444702 156.0
1141.646362 184.0
1141.821289 116.0
1141.875122 84.0
1142.372803 172.0
1142.662109 116.0
1142.783203 116.0
1143.180298 128.0
1143.422485 396.0
1144.358276 108.0
1144.614136 84.0
1145.186523 136.0
1145.900635 124.0
1145.974731 156.0
1146.776733 88.0
1147.059814 40.0
1147.201416 120.0
1147.963257 160.0
1148.145386 108.0
1148.266724 116.0
1148.462402 140.0
1149.602661 172.0
1149.771362 180.0
1149.848633 272.0
1150.311279 324.0
1150.358521 136.0
1150.831177 124.0
1151.060791 140.0
1151.324097 56.0
1152.790161 152.0
1153.013184 140.0
1153.25647 40.0
1153.770264 104.0
1153.851318 116.0
1154.121826 156.0
1154.297607 128.0
1154.466675 116.0
1154.810669 120.0
1154.946899 160.0
1155.03479 104.0
1155.088989 156.0
1155.170166 92.0
1155.894043 228.0
1156.056519 140.0
1156.130981 208.0
1156.191895 176.0
1156.753662 96.0
1157.105713 152.0
1157.295288 152.0
1157.349487 152.0
1157.593262 156.0
1157.762451 124.0
1157.87085 204.0
1157.958862 132.0
1158.141846 68.0
1158.419556 132.0
1158.751465 200.0
1159.171631 136.0
1159.551147 156.0
1159.862915 188.0
1160.120483 36.0
1160.188354 212.0
1160.337524 208.0
1160.473022 100.0
1160.757812 196.0
1160.83252 152.0
1161.280029 168.0
1162.331665 136.0
1162.420654 192.0
1162.662354 196.0
1162.956055 104.0
1163.241089 312.0
1163.383667 80.0
1163.587402 160.0
1164.096558 124.0
1165.217407 136.0
1165.475586 128.0
1165.767822 160.0
1165.924072 148.0
1166.107544 80.0
1166.299683 152.0
1166.542603 36.0
1166.807739 152.0
1167.059326 136.0
1167.283691 272.0
1167.56189 164.0
1167.671387 184.0
1168.065918 176.0
1168.264282 164.0
1168.657837 168.0
1168.705444 68.0
1169.518799 84.0
1169.569336 136.0
1169.617432 200.0
1169.699097 152.0
1170.005371 72.0
1170.577393 204.0
1170.727173 140.0
1170.843018 140.0
1171.026855 32.0
1171.683228 64.0
1172.375854 100.0
1172.875488 156.0
1172.975708 152.0
1173.725586 136.0
1173.937012 280.0
1174.168945 100.0
1174.550903 212.0
1175.087891 204.0
1175.25354 208.0
1175.362793 108.0
1175.437866 112.0
1175.735962 224.0
1176.0 244.0
1176.065674 224.0
1176.133911 208.0
1176.22522 176.0
1176.400146 192.0
1176.673218 48.0
1176.837158 64.0
1177.205933 172.0
1177.464233 160.0
1178.435425 144.0
1178.537964 72.0
1178.92749 136.0
1179.176147 176.0
1179.364868 156.0
1179.478027 108.0
1179.645142 108.0
1179.692993 40.0
1179.761353 168.0
1179.925415 172.0
1180.103149 200.0
1180.27417 116.0
1180.322021 136.0
1180.431396 100.0
1180.636597 120.0
1180.834961 160.0
1181.02832 192.0
1181.252197 156.0
1181.334229 220.0
1181.43689 156.0
1182.435913 120.0
1182.518066 164.0
1182.764404 152.0
1182.921875 148.0
1183.041748 148.0
1183.28479 184.0
1183.346313 176.0
1183.538086 100.0
1183.935303 148.0
1184.421631 112.0
1184.716187 124.0
1184.859985 260.0
1184.928467 132.0
1185.483521 168.0
1185.545288 172.0
1185.696045 96.0
1186.011353 172.0
1186.127808 168.0
1186.32666 116.0
1186.518555 132.0
1186.635132 116.0
1186.820312 164.0
1187.211182 256.0
1187.375732 116.0
1187.69812 228.0
1187.766724 144.0
1188.240112 120.0
1188.409302 144.0
1188.686035 192.0
1188.870361 136.0
1189.0979 132.0
1189.718872 140.0
1189.907837 52.0
1190.093262 188.0
1190.944336 112.0
1191.102783 172.0
1191.295166 164.0
1192.944458 48.0
1193.168213 232.0
1193.219482 180.0
1193.480835 80.0
1193.563354 152.0
1193.947266 168.0
1194.030884 124.0
1194.361084 164.0
1194.429932 144.0
1194.498657 184.0
1194.794434 160.0
1194.842651 164.0
1195.290894 132.0
1195.480713 148.0
1195.654663 148.0
1196.102051 76.0
1196.16394 88.0
1196.331055 44.0
1196.439331 108.0
1196.666504 132.0
1197.369019 128.0
1198.140503 180.0
1198.333374 84.0
1198.478027 128.0
1198.526367 176.0
1198.752686 128.0
1198.946655 180.0
1199.332642 132.0
1199.505005 96.0
1199.677368 164.0
1199.822144 148.0
1200.139282 144.0
1200.484009 176.0
1201.077148 44.0
1201.373779 64.0
1201.525635 172.0
1201.719727 196.0
1202.269897 152.0
1202.436523 124.0
1202.560669 40.0
1202.885132 108.0
1203.030151 108.0
1203.237183 124.0
1203.333862 156.0
1203.402954 120.0
1203.527222 120.0
1203.720581 260.0
1203.777466 152.0
1203.920288 92.0
1203.983032 104.0
1204.148804 164.0
1204.611572 76.0
1205.71521 100.0
1206.048828 184.0
1206.180176 40.0
1206.74707 128.0
1207.065186 132.0
1207.576904 216.0
1207.680664 164.0
1207.781128 156.0
1208.427856 156.0
1208.822266 236.0
1208.891479 76.0
1208.967651 104.0
1209.092163 140.0
1209.175171 56.0
1209.44519 180.0
1209.54895 212.0
1209.76355 100.0
1209.915894 124.0
1209.999023 148.0
1210.220581 156.0
1210.275879 40.0
1210.331299 76.0
1210.490601 108.0
1210.65686 144.0
1210.767578 152.0
1210.973267 128.0
1212.201538 152.0
1212.575928 128.0
1212.631348 168.0
1212.769409 100.0
1212.984863 140.0
1213.262207 80.0
1213.380005 116.0
1213.768311 172.0
1213.879272 140.0
1214.00415 140.0
1214.144531 196.0
1214.341919 184.0
1214.401855 208.0
1214.838501 196.0
1214.91272 104.0
1215.079224 164.0
1215.204102 148.0
1215.571899 52.0
1215.835571 244.0
1215.946655 152.0
1216.168823 108.0
1216.498779 172.0
1216.80188 136.0
1216.925537 160.0
1217.02063 192.0
1217.075562 148.0
1218.029663 136.0
1218.314575 124.0
1218.52832 192.0
1219.384644 136.0
1219.453369 224.0
1219.950317 240.0
1220.086792 108.0
1220.330078 144.0
1220.388916 132.0
1220.622192 224.0
1221.268921 152.0
1221.324585 184.0
1221.463745 168.0
1221.985474 80.0
1222.187256 216.0
1222.686401 180.0
1223.060791 164.0
1223.537598 180.0
1223.628052 128.0
1223.683716 116.0
1223.753418 40.0
1224.477661 184.0
1224.651733 216.0
1224.804932 168.0
1224.902466 64.0
1225.027954 128.0
1225.125488 36.0
1225.185791 156.0
1225.774536 152.0
1226.121826 124.0
1226.315186 124.0
1226.540039 132.0
1226.784058 132.0
1226.881714 84.0
1227.509155 148.0
1228.122925 280.0
1228.374023 160.0
1228.485718 124.0
1228.590332 164.0
1228.7229 172.0
1229.176392 152.0
1229.260132 216.0
1229.895264 160.0
1230.055786 136.0
1230.118652 108.0
1230.474731 144.0
1230.572388 204.0
1230.893677 152.0
1230.956543 216.0
1231.054321 100.0
1231.298706 64.0
1231.508179 144.0
1231.710815 168.0
1231.96228 116.0
1232.388428 248.0
1232.451416 128.0
1232.730835 140.0
1232.950562 308.0
1233.052368 136.0
1233.143188 140.0
1233.730347 128.0
1233.870239 152.0
1233.940186 60.0
1234.43457 220.0
1234.702393 204.0
1234.75708 152.0
1235.11084 132.0
1235.171021 44.0
1235.331909 164.0
1235.415894 160.0
1235.506836 168.0
1236.479492 128.0
1236.893799 148.0
1237.046387 148.0
1237.109375 192.0
1237.928589 80.0
1238.094727 184.0
1238.15271 76.0
1238.239258 156.0
1238.650024 156.0
1238.930298 108.0
1239.02832 140.0
1239.322632 164.0
1239.455811 96.0
1239.623901 88.0
1239.684814 212.0
1239.925293 104.0
1240.130493 148.0
1240.226685 152.0
1240.53418 152.0
1240.633301 168.0
1241.025879 116.0
1241.516724 196.0
1241.832397 124.0
1242.169067 160.0
1242.260254 120.0
1242.63916 72.0
1242.828613 128.0
1243.316528 176.0
1243.474243 72.0
1244.30542 224.0
1244.457031 112.0
1244.772949 144.0
1245.053833 288.0
1245.313721 200.0
1245.760864 156.0
1245.924927 140.0
1246.283203 128.0
1246.367554 180.0
1246.458862 116.0
1246.666504 204.0
1246.754028 120.0
1247.547241 100.0
1247.63269 160.0
1247.766235 152.0
1247.850708 100.0
1248.11084 116.0
1248.448364 348.0
1248.497559 196.0
1248.621948 160.0
1248.792969 112.0
1249.208008 136.0
1249.334595 188.0
1249.475342 144.0
1249.580933 164.0
1249.729248 92.0
1249.869385 224.0
1250.24939 172.0
1250.397217 144.0
1251.150391 176.0
1251.199707 128.0
1251.291138 100.0
1251.664429 116.0
1251.762939 120.0
1251.87561 160.0
1251.924927 100.0
1252.044678 144.0
1252.192505 116.0
1252.410889 172.0
1252.833618 164.0
1252.946289 136.0
1253.474731 48.0
1253.594604 124.0
1253.643921 116.0
1253.763672 104.0
1254.137207 144.0
1254.285278 200.0
1254.849243 180.0
1254.962036 104.0
1255.194824 152.0
1255.328735 136.0
1255.441528 148.0
1255.667236 48.0
1255.878906 196.0
1256.069336 148.0
1256.255615 136.0
1256.393799 164.0
1256.541992 144.0
1256.612549 104.0
1256.725464 156.0
1257.203247 196.0
1257.459351 92.0
1257.536987 100.0
1257.635864 100.0
1257.927124 148.0
1258.221802 120.0
1258.324341 216.0
1258.447632 56.0
1258.789917 76.0
1259.005493 64.0
1259.175049 108.0
1259.365723 140.0
1259.711914 172.0
1260.072144 156.0
1260.121704 48.0
1260.368896 140.0
1260.460815 264.0
1261.040283 116.0
1261.118042 68.0
1261.542236 136.0
1261.727661 200.0
1261.853271 172.0
1261.980591 108.0
1262.171509 164.0
1262.390747 88.0
1262.659424 132.0
1262.935303 96.0
1263.013062 128.0
1263.090942 168.0
1263.17688 200.0
1264.265381 128.0
1264.91333 236.0
1265.052612 96.0
1265.099731 156.0
1265.25647 136.0
1265.483032 140.0
1265.638794 80.0
1265.879517 180.0
1266.014038 164.0
1266.261353 156.0
1266.722412 164.0
1266.771973 100.0
1266.920776 48.0
1267.341797 204.0
1267.418091 184.0
1267.522949 168.0
1267.735596 100.0
1267.877319 84.0
1268.082886 156.0
1268.167847 116.0
1268.479858 68.0
1268.791748 156.0
1268.887817 212.0
1269.054077 156.0
1269.295166 196.0
1269.734863 168.0
1270.004395 140.0
1270.125 152.0
1270.238403 156.0
1270.649902 56.0
1270.962158 136.0
1271.323975 184.0
1271.4021 132.0
1271.781616 220.0
1271.913086 116.0
1272.019653 132.0
1272.204224 104.0
1272.353271 76.0
1273.652832 392.0
1273.873047 180.0
1274.128784 180.0
1274.395996 184.0
1274.711426 136.0
1275.092407 92.0
1275.154785 216.0
1275.336914 128.0
1275.386597 152.0
1276.044922 156.0
1276.168701 160.0
1276.332153 60.0
1276.42688 128.0
1276.645142 88.0
1276.760254 200.0
1277.05896 212.0
1277.278076 196.0
1277.370605 188.0
1277.416992 116.0
1277.655151 144.0
1277.889893 232.0
1278.072144 84.0
1278.26709 192.0
1278.452148 168.0
1278.608643 96.0
1279.149658 100.0
1279.320435 212.0
1279.83313 256.0
1279.904297 128.0
1280.11084 288.0
1280.296021 148.0
1280.363281 116.0
1280.673462 136.0
1280.915649 176.0
1281.117065 148.0
1281.300415 132.0
1281.414307 192.0
1281.464233 112.0
1281.685181 120.0
1281.917236 164.0
1281.998657 128.0
1282.112671 168.0
1282.297974 56.0
1282.38562 188.0
1282.525146 192.0
1282.647217 148.0
1282.932373 160.0
1283.089233 136.0
1283.381592 200.0
1283.502808 104.0
1283.802368 180.0
1284.166016 156.0
1284.530029 156.0
1284.800903 164.0
1284.872314 136.0
1285.47876 176.0
1285.542969 124.0
1285.6073 64.0
1285.792847 80.0
1286.228149 76.0
1286.335327 124.0
1286.485229 188.0
1286.692261 100.0
1286.87793 188.0
1287.01355 176.0
1287.173828 144.0
1287.263428 60.0
1287.356323 152.0
1287.40625 148.0
1287.630859 220.0
1287.684814 104.0
1287.756226 188.0
1288.260254 216.0
1288.367432 172.0
1288.592041 76.0
1288.657837 152.0
1288.977661 100.0
1289.199463 144.0
1289.278076 140.0
1289.413818 112.0
1289.528198 156.0
1289.664062 80.0
1289.782837 212.0
1289.949951 84.0
1290.0 172.0
1290.088501 284.0
1290.693481 180.0
1290.757812 108.0
1290.815063 200.0
1290.900879 128.0
1291.015259 80.0
1291.079712 200.0
1291.215576 212.0
1291.425415 240.0
1291.56604 176.0
1291.931763 220.0
1291.994019 156.0
1292.26709 88.0
1292.381592 144.0
1292.675049 204.0
1292.760864 136.0
1293.233276 108.0
1293.376465 180.0
1293.455688 184.0
1293.626953 108.0
1293.770142 152.0
1293.963379 152.0
1294.171021 108.0
1294.328613 96.0
1294.729614 200.0
1295.424072 220.0
1295.543701 356.0
1295.646484 156.0
1295.703857 84.0
1296.162354 40.0
1296.377441 124.0
1296.456177 176.0
1296.793091 140.0
1296.922119 184.0
1297.05835 156.0
1297.237549 152.0
1297.316406 140.0
1297.409546 176.0
1297.610352 112.0
1297.73938 212.0
1298.056641 196.0
1298.305908 160.0
1298.676514 164.0
1299.05896 76.0
1299.238403 164.0
1299.733398 120.0
1300.002075 200.0
1300.106567 168.0
1300.185547 156.0
1300.386475 148.0
1300.537231 168.0
1300.630493 148.0
1300.860229 120.0
1301.118774 132.0
1301.212036 124.0
1301.283813 152.0
1301.515869 120.0
1301.872681 120.0
1302.310791 332.0
1302.425659 204.0
1302.475952 124.0
1302.569336 48.0
1302.806396 76.0
1302.878296 124.0
1302.928589 160.0
1303.050659 148.0
1303.180054 152.0
1303.482422 284.0
1303.747681 112.0
1303.855591 184.0
1304.12146 100.0
1304.200562 64.0
1304.345947 188.0
1304.409058 88.0
1304.495239 148.0
1304.588745 172.0
1304.725342 164.0
1304.847534 160.0
1304.897827 144.0
1305.123169 260.0
1305.343628 212.0
1305.42981 184.0
1305.581055 164.0
1305.710449 176.0
1306.055664 128.0
1306.264282 180.0
1306.868652 188.0
1306.92627 140.0
1306.998169 184.0
1307.149292 132.0
1307.559448 168.0
1307.732178 164.0
1307.782593 300.0
1307.94812 116.0
1308.099365 72.0
1308.509766 68.0
1308.596069 104.0
1308.884155 88.0
1309.042603 108.0
1309.143311 132.0
1309.25354 224.0
1309.40979 108.0
1309.525024 104.0
1309.611572 404.0
1309.755615 136.0
1310.065308 104.0
1310.144531 176.0
1310.372559 156.0
1310.713745 84.0
1310.901123 160.0
1311.261475 184.0
1311.34082 168.0
1311.53894 128.0
1311.643555 168.0
1311.737183 40.0
1311.978394 184.0
1312.054443 144.0
1312.1698 160.0
1312.285156 76.0
1312.335571 172.0
1312.414917 116.0
1312.588013 68.0
1313.071167 176.0
1313.222656 156.0
1313.359741 136.0
1313.778076 200.0
1313.893555 200.0
1314.333618 64.0
1314.593506 228.0
1314.990356 204.0
1315.336914 92.0
1315.561157 164.0
1316.080444 140.0
1316.282715 132.0
1316.614868 168.0
1316.713623 204.0
1316.930176 152.0
1317.026611 72.0
1317.150513 168.0
1317.25769 220.0
1317.445557 156.0
1317.662231 156.0
1317.93689 260.0
1318.001831 120.0
1318.095825 52.0
1318.182495 168.0
1318.254761 80.0
1318.382935 132.0
1318.550781 108.0
1318.681152 112.0
1318.854736 232.0
1318.999268 116.0
1319.20166 184.0
1319.375122 92.0
1319.577637 148.0
1319.671631 92.0
1320.203491 136.0
1320.325562 208.0
1320.442871 244.0
1320.5177 216.0
1320.620605 160.0
1320.850464 180.0
1321.115601 104.0
1321.183228 136.0
1321.274292 212.0
1321.472656 204.0
1321.624512 144.0
1321.997437 180.0
1322.188965 108.0
1322.283081 92.0
1322.536377 132.0
1322.623291 144.0
1322.724609 136.0
1322.992432 132.0
1323.151733 136.0
1323.354492 180.0
1323.550049 136.0
1323.890381 108.0
1324.397339 152.0
1324.484253 108.0
1324.563965 180.0
1324.730103 68.0
1324.951904 116.0
1325.092773 200.0
1325.17981 132.0
1325.498535 116.0
1325.549316 152.0
1325.811646 124.0
1326.252319 132.0
1326.411743 164.0
1326.962769 120.0
1327.550171 140.0
1327.629883 128.0
1327.825317 144.0
1327.968506 152.0
1328.144897 152.0
1328.224609 116.0
1328.391479 136.0
1328.551025 120.0
1328.65271 156.0
1328.81958 80.0
1328.950073 132.0
1329.05896 172.0
1329.392822 156.0
1329.610474 80.0
1329.748413 140.0
1329.922607 156.0
1330.005371 128.0
1330.133057 192.0
1330.218506 144.0
1330.270996 124.0
1330.394409 132.0
1330.496094 176.0
1330.77478 116.0
1331.244019 120.0
1331.381958 116.0
1331.532837 128.0
1331.919434 156.0
1332.028442 196.0
1332.253662 60.0
1332.413452 184.0
1332.56189 180.0
1333.140015 140.0
1333.201782 148.0
1333.646973 168.0
1333.939087 112.0
1334.121338 124.0
1334.404907 128.0
1334.455811 164.0
1334.646606 168.0
1334.82666 144.0
1334.877563 124.0
1334.935669 192.0
1335.28479 156.0
1335.563599 124.0
1335.780151 144.0
1335.844849 40.0
1335.895752 164.0
1335.972168 120.0
1336.354126 216.0
1336.754395 176.0
1336.814575 164.0
1336.87085 228.0
1337.251831 368.0
1337.431274 136.0
1337.736938 144.0
1337.882568 168.0
1338.202881 172.0
1338.379395 120.0
1338.47229 120.0
1338.523315 96.0
1338.655762 192.0
1338.974854 132.0
1339.346313 172.0
1339.681396 164.0
1339.739624 136.0
1339.919922 168.0
1340.03833 168.0
1340.09668 204.0
1340.388184 168.0
1340.908569 172.0
1341.03064 148.0
1341.116943 52.0
1341.210327 348.0
1341.415771 108.0
1341.658813 172.0
1341.758423 200.0
1341.845947 200.0
1341.911499 200.0
1342.044678 152.0
1342.338623 172.0
1342.68457 88.0
1342.808472 192.0
1342.937744 208.0
1342.998169 188.0
1343.085693 180.0
1343.268066 144.0
1343.443115 100.0
1343.654663 144.0
1343.771484 76.0
1343.871216 188.0
1343.946533 204.0
1344.048706 108.0
1344.428223 180.0
1345.106934 300.0
1345.318726 244.0
1345.458496 140.0
1345.530396 124.0
1345.815186 216.0
1345.873535 172.0
1345.996582 132.0
1346.297119 168.0
1346.406738 160.0
1346.68396 100.0
1346.793823 140.0
1346.925293 36.0
1347.283203 100.0
1347.376221 172.0
1347.582764 52.0
1347.853149 160.0
1347.988159 140.0
1348.079712 140.0
1348.240479 220.0
1348.527832 148.0
1348.598633 112.0
1348.657104 160.0
1348.841919 192.0
1348.942139 100.0
1349.005127 136.0
1349.241943 88.0
1349.358887 152.0
1349.424683 120.0
1349.481812 152.0
1349.797119 180.0
1349.846436 128.0
1349.923828 172.0
1350.126709 116.0
1350.38269 180.0
1350.594727 168.0
1350.699341 152.0
1350.755737 152.0
1350.916626 192.0
1350.976685 172.0
1351.150757 120.0
1351.238525 176.0
1351.662964 100.0
1351.955688 176.0
1352.102051 144.0
1352.197144 96.0
1352.361572 168.0
1352.511963 116.0
1352.596069 48.0
1353.119507 128.0
1353.383179 92.0
1353.463623 176.0
1353.522217 168.0
1353.68335 168.0
1353.829834 188.0
1353.96167 192.0
1354.027588 224.0
1354.353027 148.0
1354.415771 220.0
1354.481689 220.0
1354.591553 172.0
1354.921265 180.0
1355.045776 124.0
1355.179688 144.0
1355.294922 140.0
1355.441406 140.0
1356.152344 128.0
1356.291626 156.0
1356.62146 160.0
1356.694824 128.0
1357.149414 116.0
1357.47937 112.0
1357.578125 144.0
1357.672729 188.0
1357.88269 124.0
1358.38147 184.0
1358.608887 172.0
1358.924438 56.0
1359.034546 128.0
1359.085815 176.0
1359.328003 188.0
1359.584839 96.0
1359.672974 48.0
1359.762695 172.0
1360.032593 208.0
1360.083984 164.0
1360.171997 196.0
1360.223389 180.0
1360.428955 180.0
1360.706055 184.0
1360.898804 144.0
1360.986938 180.0
1361.207275 112.0
1361.288086 352.0
1361.354126 204.0
1361.442261 148.0
1361.53772 124.0
1361.927002 132.0
1362.404541 184.0
1362.470581 100.0
1362.874756 128.0
1363.024048 172.0
1363.095215 152.0
1363.271606 152.0
1363.322998 76.0
1363.565552 172.0
1363.903687 132.0
1364.168335 116.0
1364.354492 204.0
1364.427612 132.0
1364.50647 100.0
1364.625732 140.0
1364.795166 220.0
1364.859375 80.0
1365.026123 268.0
1365.124146 208.0
1365.359497 156.0
1365.415405 140.0
1365.543335 156.0
1365.749268 44.0
1365.896362 96.0
1366.043579 156.0
1366.162964 188.0
1366.416016 120.0
1366.904419 136.0
1366.995117 120.0
1367.125122 180.0
1367.24292 84.0
1367.353271 152.0
1367.581421 124.0
1367.895996 384.0
1367.979004 156.0
1368.162964 176.0
1368.236572 148.0
1368.295532 124.0
1368.393921 144.0
1368.45752 156.0
1368.965576 144.0
1369.024536 100.0
1369.196777 216.0
1369.405273 136.0
1369.461548 144.0
1369.694702 144.0
1369.828003 172.0
1369.938477 144.0
1369.994751 72.0
1370.055786 120.0
1370.141235 196.0
1370.208008 168.0
1370.298828 92.0
1370.357788 120.0
1370.507935 196.0
1370.733643 140.0
1370.925171 188.0
1371.168457 128.0
1371.293701 160.0
1371.588501 208.0
1371.896118 160.0
1372.089844 208.0
1372.340576 72.0
1372.39209 144.0
1372.488037 160.0
1372.561768 76.0
1372.617432 132.0
1372.679688 100.0
1373.21814 348.0
1373.2771 180.0
1373.383057 144.0
1373.461548 124.0
1373.545044 188.0
1373.623779 156.0
1373.822998 164.0
1373.874634 172.0
1373.977905 132.0
1374.110718 168.0
1374.199219 100.0
1374.377075 112.0
1374.909302 204.0
1375.010986 80.0
1375.092163 76.0
1375.17334 156.0
1375.247192 168.0
1375.350464 72.0
1375.77124 164.0
1375.837769 168.0
1375.911621 188.0
1376.102417 136.0
1376.258545 116.0
1376.413696 244.0
1376.596191 184.0
1377.130005 172.0
1377.240845 176.0
1377.395996 68.0
1377.484619 160.0
1377.676636 68.0
1377.750488 56.0
1377.864868 164.0
1377.994385 132.0
1378.060791 108.0
1378.201294 76.0
1378.474609 128.0
1378.666748 160.0
1378.836792 144.0
1378.969849 160.0
1379.228516 76.0
1379.457642 112.0
1379.53894 164.0
1379.635132 200.0
1379.70166 168.0
1379.831055 140.0
1379.953003 200.0
1380.063965 156.0
1380.492798 108.0
1380.692505 148.0
1380.815308 116.0
1380.884766 88.0
1381.202881 48.0
1381.269409 176.0
1381.365601 164.0
1381.501709 180.0
1381.522339 224.0
1381.639282 216.0
1381.794678 172.0
1381.987061 72.0
1382.111084 224.0
1382.171997 128.0
1382.334839 32.0
1382.460815 176.0
1382.573486 180.0
1382.889893 44.0
1382.949097 220.0
1383.126831 168.0
1383.223022 204.0
1383.341431 100.0
1383.64502 152.0
1383.741211 44.0
1383.859741 224.0
1384.015137 176.0
1384.289185 216.0
1384.459473 352.0
1384.559814 208.0
1384.740967 180.0
1384.822388 84.0
1384.944458 176.0
1385.197632 152.0
1385.340942 112.0
1385.607666 196.0
1385.755859 168.0
1385.955933 128.0
1386.133789 112.0
1386.230103 200.0
1386.503174 188.0
1386.667358 176.0
1386.741455 48.0
1386.874878 156.0
1386.947876 108.0
1387.023071 140.0
1387.111206 172.0
1387.177856 160.0
1387.423462 152.0
1387.505005 72.0
1387.660645 160.0
1387.771973 36.0
1387.853516 132.0
1387.920166 196.0
1388.113037 100.0
1388.224243 96.0
1388.282837 148.0
1388.387451 80.0
1388.493286 148.0
1388.559814 160.0
1388.839844 136.0
1388.906616 140.0
1389.048218 128.0
1389.284912 180.0
1389.444824 224.0
1389.581665 120.0
1389.759766 128.0
1389.893311 120.0
1390.068848 164.0
1390.300537 148.0
1390.44397 176.0
1390.553833 80.0
1390.680054 100.0
1391.321289 132.0
1391.437256 188.0
1391.563477 296.0
1391.711914 116.0
1392.03125 184.0
1392.350586 204.0
1392.662476 92.0
1392.772827 136.0
1392.896606 196.0
1393.09375 176.0
1393.227539 192.0
1393.301392 132.0
1393.383057 68.0
1393.747192 164.0
1393.94043 116.0
1394.01709 188.0
1394.074097 124.0
1394.369385 144.0
1394.606323 176.0
1395.032959 180.0
1395.115723 156.0
1395.330322 136.0
1395.835938 132.0
1396.051636 132.0
1396.128906 112.0
1396.17395 80.0
1396.354248 212.0
1396.520264 88.0
1396.62439 136.0
1396.71814 144.0
1396.863647 120.0
1396.95166 68.0
1397.055786 188.0
1397.152466 216.0
1397.464966 116.0
1397.532349 140.0
1397.73291 128.0
1398.023071 88.0
1398.232544 216.0
1398.482544 180.0
1398.588745 272.0
1398.877441 132.0
1398.931519 112.0
1399.072632 100.0
1399.147095 136.0
1399.234741 188.0
1399.422607 152.0
1399.526855 184.0
1399.665771 152.0
1399.852051 112.0
1399.95874 208.0
1400.130005 128.0
1400.323608 212.0
1400.886475 168.0
1401.099976 172.0
1401.22583 108.0
1401.321899 136.0
1401.44104 204.0
1401.552856 136.0
1401.64978 164.0
1401.81897 360.0
1402.062378 140.0
1402.357788 160.0
1402.887451 144.0
1403.200073 112.0
1403.348389 176.0
1403.699707 136.0
1403.774292 212.0
1403.98584 172.0
1404.206177 140.0
1404.318726 56.0
1404.460449 172.0
1404.639404 104.0
1404.722778 120.0
1404.796143 112.0
1404.893066 136.0
1404.952759 132.0
1405.087036 140.0
1405.206421 196.0
1405.392944 128.0
1405.452637 120.0
1405.594482 160.0
1405.693848 160.0
1406.527344 124.0
1406.57959 176.0
1406.728882 160.0
1406.818481 180.0
1407.094727 132.0
1407.21228 156.0
1407.370972 208.0
1407.494629 204.0
1407.542725 340.0
1407.774292 72.0
1407.871338 104.0
1408.065552 152.0
1408.207397 156.0
1408.277588 188.0
1408.633179 176.0
1408.980225 148.0
1409.036621 136.0
1409.088867 108.0
1409.240845 156.0
1409.387573 156.0
1409.401611 152.0
1409.507324 64.0
1409.736572 156.0
1409.806274 168.0
1409.873535 192.0
1410.075317 120.0
1410.150024 108.0
1410.351929 152.0
1410.770508 180.0
1410.987305 152.0
1411.039673 128.0
1411.151855 156.0
1411.234009 132.0
1411.31311 200.0
1411.46582 124.0
1411.540649 168.0
1411.652832 96.0
1411.727539 84.0
1411.843628 188.0
1412.03418 172.0
1412.19873 132.0
1412.310913 144.0
1412.363037 180.0
1412.483032 36.0
1412.5354 208.0
1412.625122 300.0
1412.77478 136.0
1412.925293 64.0
1412.976807 148.0
1413.156372 92.0
1413.223633 116.0
1413.408447 188.0
1413.530518 100.0
1413.638306 176.0
1413.717529 100.0
1413.85083 164.0
1413.872681 132.0
1413.957031 264.0
1414.039307 172.0
1414.099243 140.0
1414.271362 364.0
1414.322754 112.0
1414.416138 180.0
1414.630737 96.0
1414.862793 200.0
1414.997559 160.0
1415.094849 132.0
1415.229614 120.0
1415.321777 168.0
1415.510132 168.0
1415.828735 172.0
1415.963501 100.0
1416.0802 352.0
1416.206787 164.0
1416.405518 200.0
1416.731567 128.0
1416.85498 60.0
1417.971436 44.0
1418.135254 220.0
1418.293823 164.0
1418.398682 104.0
1418.691162 188.0
1418.818604 168.0
1419.110962 180.0
1419.410889 116.0
1419.463379 204.0
1419.53833 248.0
1419.703369 172.0
1420.018311 152.0
1420.178467 160.0
1420.314209 216.0
1420.528442 204.0
1420.603394 176.0
1420.849976 136.0
1420.94104 228.0
1421.064331 260.0
1421.338745 112.0
1421.428833 108.0
1421.660767 188.0
1421.935181 324.0
1421.978882 224.0
1422.089233 196.0
1422.164307 136.0
1422.321899 140.0
1422.526489 176.0
1422.727295 144.0
1423.168823 168.0
1423.290405 104.0
1423.485596 136.0
1423.891724 168.0
1423.966309 156.0
1424.037598 208.0
1424.289307 184.0
1424.439453 140.0
1424.604736 256.0
1424.747559 172.0
1424.853271 168.0
1425.115723 160.0
1425.286743 136.0
1425.356079 176.0
1425.505371 136.0
1425.754395 120.0
1425.814575 168.0
1426.078735 160.0
1426.24292 156.0
1426.33313 208.0
1426.536987 100.0
1426.66394 140.0
1426.807251 144.0
1426.919556 120.0
1427.015015 128.0
1427.175171 152.0
1427.42334 100.0
1427.506104 280.0
1427.566284 132.0
1427.618896 148.0
1427.731689 164.0
1427.841309 244.0
1427.972412 144.0
1428.092651 92.0
1428.287354 156.0
1428.676514 132.0
1428.950317 168.0
1429.28894 148.0
1429.574829 120.0
1429.830688 168.0
1430.379028 180.0
1430.884644 192.0
1430.942993 112.0
1431.208374 184.0
1431.404175 132.0
1431.479492 212.0
1431.532227 168.0
1431.673462 164.0
1431.840942 104.0
1431.893677 376.0
1432.066895 184.0
1432.669556 228.0
1432.820801 152.0
1433.234619 172.0
1433.407959 208.0
1433.469604 152.0
1433.57373 120.0
1433.656128 112.0
1433.769653 364.0
1433.95813 180.0
1434.139038 132.0
1434.255127 224.0
1434.442383 116.0
1434.531006 156.0
1434.870239 192.0
1434.975342 208.0
1435.104004 280.0
1435.224609 224.0
1435.307495 136.0
1435.36792 140.0
1435.533813 180.0
1435.616699 32.0
1435.767578 112.0
1435.94104 188.0
1436.053589 200.0
1436.098511 164.0
1436.227661 172.0
1436.280518 160.0
1436.4198 68.0
1436.801025 80.0
1436.876465 180.0
1437.217651 176.0
1437.381958 180.0
1437.480957 140.0
1437.588745 112.0
1437.925293 180.0
1438.001343 124.0
1438.325439 60.0
1438.461304 160.0
1438.51416 132.0
1438.574463 60.0
1438.627319 108.0
1438.748169 52.0
1438.891602 128.0
1439.035034 108.0
1439.187622 160.0
1439.32959 156.0
1439.473022 248.0
1439.862915 156.0
1439.963867 332.0
1440.069092 176.0
1440.175415 64.0
1440.281128 88.0
1440.473999 140.0
1441.081909 128.0
1441.376587 192.0
1441.536255 136.0
1441.748535 160.0
1441.996338 168.0
1442.112915 172.0
1442.264771 172.0
1442.343994 72.0
1442.449829 156.0
1442.509399 168.0
1442.555786 152.0
1442.669067 136.0
1442.874268 120.0
1443.001709 160.0
1443.107666 84.0
1443.190796 156.0
1443.269653 128.0
1443.387329 56.0
1443.576416 160.0
1443.644531 156.0
1443.720093 56.0
1443.794189 192.0
1443.840576 152.0
1443.931885 128.0
1443.984863 176.0
1444.03772 140.0
1444.17395 164.0
1444.236084 232.0
1444.397949 124.0
1444.521851 216.0
1444.756348 68.0
1444.892578 116.0
1444.992188 244.0
1445.081787 216.0
1445.19519 132.0
1445.264893 196.0
1445.93689 44.0
1446.029663 180.0
1446.156372 92.0
1446.322876 152.0
1446.463501 192.0
1446.572632 204.0
1447.352539 176.0
1447.413086 124.0
1447.503906 108.0
1447.769043 132.0
1447.890137 104.0
1447.943237 96.0
1448.51123 160.0
1448.587036 188.0
1448.776489 228.0
1448.973389 152.0
1449.208252 188.0
1449.261353 136.0
1449.662964 88.0
1449.723633 164.0
1449.994141 92.0
1450.170776 144.0
1450.358398 164.0
1450.528564 240.0
1450.602783 68.0
1450.708984 128.0
1450.868164 136.0
1450.936401 196.0
1451.025513 212.0
1451.232056 160.0
1451.434204 200.0
1451.465332 132.0
1451.494141 168.0
1451.815918 80.0
1451.889893 140.0
1452.051147 184.0
1452.210327 72.0
1452.295654 196.0
1452.377197 116.0
1452.817017 156.0
1453.022095 208.0
1453.105469 160.0
1453.21936 160.0
1453.523804 132.0
1453.62146 168.0
1453.803589 120.0
1453.902344 208.0
1453.9729 184.0
1454.327271 196.0
1454.486694 168.0
1454.593018 56.0
1454.995361 220.0
1455.063721 140.0
1455.116821 88.0
1455.199097 92.0
1455.367432 180.0
1455.511719 104.0
1455.678711 196.0
1455.772461 228.0
1455.914185 200.0
1456.111572 172.0
1456.19812 172.0
1456.272095 364.0
1456.339478 160.0
1456.407837 136.0
1456.780029 148.0
1456.959229 128.0
1457.053589 172.0
1457.120239 240.0
1457.245972 220.0
1457.403076 224.0
1457.527344 168.0
1457.71875 224.0
1457.843872 132.0
1457.965454 72.0
1458.209473 76.0
1458.267334 132.0
1458.353027 136.0
1458.527832 140.0
1458.62439 264.0
1458.755981 124.0
1458.854736 160.0
1458.915527 180.0
1458.999146 68.0
1459.075195 128.0
1459.344238 284.0
1459.569458 224.0
1459.693604 36.0
1460.056152 176.0
1460.247192 236.0
1460.40918 60.0
1460.574463 220.0
1460.665649 116.0
1460.697144 88.0
1460.720703 140.0
1460.816772 160.0
1460.984131 116.0
1461.061035 112.0
1461.296143 116.0
1461.425415 136.0
1461.501587 152.0
1461.630859 128.0
1461.917969 184.0
1461.980957 84.0
1462.095459 104.0
1462.239136 220.0
1462.465332 200.0
1462.682251 144.0
1462.87146 120.0
1462.980957 192.0
1463.30542 76.0
1463.450073 160.0
1463.601807 148.0
1463.823242 136.0
1463.890015 172.0
1464.036499 168.0
1464.242065 212.0
1464.341064 208.0
1464.645752 168.0
1464.729614 156.0
1464.782959 144.0
1464.881958 100.0
1464.95813 184.0
1465.247681 148.0
1465.495972 196.0
1465.691284 52.0
1465.758179 124.0
1466.154419 184.0
1466.203003 172.0
1466.505005 112.0
1466.748901 164.0
1466.998291 124.0
1467.192139 144.0
1467.274902 208.0
1467.328369 108.0
1467.425049 164.0
1467.618042 136.0
1467.770508 208.0
1467.884888 168.0
1467.938354 120.0
1468.022217 184.0
1468.157471 168.0
1468.510376 108.0
1468.598267 136.0
1468.655273 160.0
1468.853638 128.0
1468.945068 80.0
1469.154541 120.0
1469.418091 104.0
1469.571777 152.0
1469.692749 168.0
1469.845459 216.0
1469.898804 136.0
1470.196411 72.0
1470.350586 144.0
1470.439819 184.0
1470.648804 204.0
1470.748169 264.0
1470.890991 212.0
1470.959717 124.0
1471.501831 112.0
1471.593384 188.0
1471.697144 148.0
1471.904419 132.0
1472.082153 220.0
1472.234863 148.0
1472.303589 32.0
1472.471558 124.0
1472.570923 120.0
1472.639404 148.0
1472.666748 144.0
1472.807617 104.0
1473.013916 184.0
1473.143799 112.0
1473.364258 172.0
1473.48645 228.0
1473.563965 192.0
1473.716797 148.0
1473.884888 172.0
1473.938354 128.0
1474.160034 96.0
1474.244019 56.0
1474.725586 80.0
1474.779053 132.0
1475.159912 204.0
1475.298828 36.0
1475.366943 148.0
1475.543091 148.0
1475.619995 96.0
1475.713867 264.0
1475.796631 124.0
1476.063477 136.0
1476.392334 64.0
1476.49353 204.0
1476.575928 164.0
1476.897095 120.0
1477.023682 100.0
1477.126587 132.0
1477.513306 144.0
1477.646851 92.0
1477.738647 144.0
1477.807495 128.0
1477.96814 76.0
1478.052368 128.0
1478.47168 156.0
1478.900757 176.0
1479.012939 128.0
1479.086182 156.0
1479.185059 224.0
1479.422363 96.0
1479.606934 144.0
1479.675049 140.0
1479.820557 228.0
1479.873291 108.0
1480.057861 160.0
1480.167114 120.0
1480.233398 164.0
1480.305054 148.0
1480.693481 60.0
1480.77771 180.0
1480.863281 148.0
1480.930908 164.0
1481.183716 64.0
1481.287109 160.0
1481.41272 108.0
1481.467651 204.0
1481.616577 124.0
1481.818115 184.0
1481.837036 148.0
1481.865601 76.0
1481.892334 148.0
1481.942139 336.0
1482.049438 92.0
1482.333008 140.0
1482.449463 164.0
1482.516846 100.0
1482.665894 180.0
1482.795044 356.0
1482.900146 224.0
1483.269287 192.0
1483.426636 140.0
1483.477783 372.0
1483.628296 112.0
1483.697388 168.0
1483.919678 176.0
1484.36438 100.0
1484.44104 120.0
1484.615234 176.0
1484.68103 156.0
1484.809204 180.0
1485.008667 96.0
1485.123657 92.0
1485.254028 164.0
1485.314697 160.0
1485.434082 212.0
1485.614624 144.0
1485.698975 152.0
1485.98291 80.0
1486.038208 356.0
1486.182373 88.0
1486.242798 132.0
1486.335815 132.0
1486.470093 212.0
1486.635132 72.0
1486.796265 196.0
1486.950073 200.0
1487.01123 188.0
1487.295166 76.0
1487.640625 216.0
1487.694336 156.0
1487.754395 264.0
1488.174072 372.0
1488.254883 92.0
1488.401123 160.0
1488.485229 88.0
1488.77417 248.0
1488.869141 200.0
1489.084229 116.0
1489.222534 144.0
1489.360718 44.0
1489.499023 128.0
1489.829346 176.0
1489.921509 128.0
1489.998413 100.0
1490.19043 96.0
1490.285278 444.0
1490.398193 232.0
1491.028076 172.0
1491.081909 68.0
1491.151001 136.0
1491.399658 136.0
1491.466187 200.0
1491.735229 144.0
1491.841675 164.0
1491.973511 200.0
1492.350342 164.0
1492.411865 108.0
1492.715942 240.0
1492.940186 200.0
1493.019287 36.0
1493.126953 72.0
1493.349976 284.0
1493.67395 180.0
1493.764526 172.0
1493.873047 192.0
1493.980835 120.0
1494.050049 160.0
1494.21167 188.0
1494.30249 184.0
1494.457886 172.0
1494.565552 132.0
1494.67334 184.0
1494.76001 276.0
1494.85791 124.0
1494.981079 168.0
1495.042725 88.0
1495.327393 132.0
1495.519897 264.0
1495.662964 88.0
1495.747314 144.0
1495.776611 80.0
1495.801025 172.0
1496.015015 128.0
1496.074097 84.0
1496.193848 164.0
1496.375366 156.0
1496.641235 152.0
1496.720825 100.0
1496.781006 128.0
1496.882568 120.0
1496.974609 184.0
1497.072632 172.0
1497.1521 124.0
1497.259888 164.0
1497.360596 176.0
1497.614258 168.0
1497.691284 172.0
1498.163208 140.0
1498.269043 164.0
1498.384521 92.0
1498.46936 164.0
1498.721313 176.0
1498.80835 132.0
1498.898315 148.0
1498.985596 104.0
1499.140259 220.0
1499.208008 144.0
1499.42688 240.0
1499.517334 192.0
1499.629028 100.0
1499.702393 160.0
1499.89502 124.0
1500.031128 116.0
1500.357544 44.0
1500.545776 196.0
1500.653564 164.0
1500.935913 104.0
1500.997559 164.0
1501.167236 180.0
1501.244385 180.0
1501.387939 176.0
1501.568237 176.0
1501.640747 152.0
1501.899902 112.0
1501.995728 160.0
1502.092773 192.0
1502.24707 48.0
1502.648193 136.0
1502.786621 176.0
1502.871948 108.0
1502.973999 200.0
1503.099854 136.0
1503.218018 112.0
1503.348877 212.0
1503.412842 216.0
1503.49707 212.0
1503.814331 180.0
1504.105713 144.0
1504.13269 124.0
1504.155762 188.0
1504.228271 216.0
1504.446533 144.0
1504.724365 156.0
1504.83606 168.0
1504.998901 212.0
1505.13501 196.0
