>compound MLS001074901-01!erythromycin ethylsuccinate
>formula C43H75NO16
>ionization [M+H]+
>parentmass 862.5158617720906
#inchi InChI=1S/C43H75NO16/c1-15-29-43(11,52)36(48)24(5)33(47)22(3)20-41(9,51)38(25(6)34(26(7)39(50)57-29)59-32-21-42(10,53-14)37(49)27(8)56-32)60-40-35(28(44(12)13)19-23(4)55-40)58-31(46)18-17-30(45)54-16-2/h22-29,32,34-38,40,48-49,51-52H,15-21H2,1-14H3/t22-,23-,24+,25+,26-,27+,28+,29-,32+,34+,35-,36-,37+,38-,40+,41-,42-,43-/m1/s1
#inchikey NSYZCCDSJNWWJL
#Ion_Source LC-ESI
#Instrument qTof
#Compound_Source NIH Pharmacologically Active Library
#PI Dorrestein
#Data_Collector VP/LMS
#Scan -1
#Precursor_MZ 862.532
#ExactMass 861.509
#Charge 1
#CAS_Number N/A
#Pubmed_ID N/A
#Smiles CCOC(=O)CCC(=O)O[C@@H]1[C@H](C[C@@H](C)O[C@H]1O[C@@H]2[C@@H](C)[C@H](O[C@H]3C[C@@](C)(OC)[C@@H](O)[C@H](C)O3)[C@@H](C)C(=O)O[C@H](CC)[C@@](C)(O)[C@H](O)[C@@H](C)C(=O)[C@H](C)C[C@@]2(C)O)N(C)C
#INCHI_AUX N/A
#Library_Class 1
#SpectrumID CCMSLIB00000086045
#IonMode Positive
#UpdateWorkflowName UPDATE-SINGLE-ANNOTATED-GOLD
#LibraryQualityString Gold
#TaskID d252d724072548979f1f6f1ced849daf
##Scan# 1866
#SpectrumFile p5-C03_GC3_01_18448.mzXML
#LibraryName Pharm_Active_Library.mgf
#MQScore -1
#Organism Pharm_Active_Library
#TIC_Query 0
#RT_Query -1
#MZErrorPPM -1
#SharedPeaks 0
#MassDiff 0
#LibMZ -1
#SpecMZ 862.532
#SpecCharge 0
#internalFilename spec-00000.mgf

>collision 10
44.90435 116.0
44.916355 124.0
44.930084 192.0
44.969727 156.0
44.979069 116.0
45.003098 376.0
45.036484 128.0
45.053848 116.0
45.08057 80.0
45.093933 184.0
45.102539 128.0
45.115429 200.0
45.148746 96.0
45.18486 172.0
45.26115 136.0
45.31324 148.0
45.333084 320.0
45.376377 140.0
45.433025 132.0
45.444775 120.0
45.456852 84.0
45.48772 220.0
45.50383 188.0
45.513721 196.0
45.528 212.0
45.562286 76.0
45.578678 176.0
45.603081 192.0
45.607384 176.0
45.65163 40.0
45.66777 192.0
45.700638 184.0
45.704563 80.0
45.710003 132.0
45.735043 308.0
45.759274 164.0
45.770046 128.0
45.796978 208.0
45.821159 164.0
45.884567 132.0
45.900745 116.0
45.926369 68.0
45.93581 200.0
45.950649 192.0
45.964703 164.0
46.058647 164.0
46.223579 180.0
46.234406 144.0
46.266891 172.0
46.283138 156.0
46.325413 204.0
46.33419 144.0
46.361668 160.0
46.375256 232.0
46.386101 108.0
46.428131 196.0
46.464752 124.0
46.485104 52.0
46.520393 104.0
46.592278 248.0
46.617344 172.0
46.739388 176.0
46.789558 104.0
46.852207 96.0
46.865032 164.0
46.910801 120.0
46.923073 112.0
46.935345 128.0
46.95789 160.0
46.969921 124.0
46.988701 248.0
47.016491 188.0
47.038929 112.0
47.092278 164.0
47.113415 164.0
47.139736 148.0
47.157791 160.0
47.183388 136.0
47.197502 104.0
47.207073 128.0
47.220749 68.0
47.231693 200.0
47.260792 148.0
47.279579 168.0
47.296749 252.0
47.316536 148.0
47.330227 164.0
47.341179 160.0
47.379532 120.0
47.406933 156.0
47.464504 200.0
47.508392 104.0
47.528149 204.0
47.55093 116.0
47.579754 140.0
47.608589 136.0
47.619576 56.0
47.638805 96.0
47.731506 196.0
47.75201 144.0
47.768021 76.0
47.779026 96.0
47.802414 240.0
47.823933 164.0
47.834068 152.0
47.867729 168.0
47.893276 216.0
47.919453 160.0
47.96106 216.0
47.9925 136.0
48.017319 192.0
48.033871 160.0
48.07526 104.0
48.098991 128.0
48.142902 176.0
48.161846 196.0
48.195393 156.0
48.227135 124.0
48.240574 208.0
48.309292 160.0
48.415333 88.0
48.466881 340.0
48.495689 144.0
48.512321 88.0
48.594143 224.0
48.642715 200.0
48.671753 192.0
48.696865 192.0
48.828896 88.0
48.840023 160.0
48.880367 164.0
48.901276 176.0
48.9263 168.0
48.972248 216.0
48.991749 156.0
49.002895 140.0
49.026585 164.0
49.076763 180.0
49.092102 140.0
49.111626 100.0
49.123981 112.0
49.12883 96.0
49.133015 144.0
49.143711 84.0
49.160458 144.0
49.171837 180.0
49.203133 368.0
49.220478 140.0
49.237236 128.0
49.306854 192.0
49.311386 160.0
49.315777 204.0
49.332249 136.0
49.381187 176.0
49.410561 136.0
49.441345 192.0
49.479137 168.0
49.494537 160.0
49.529549 164.0
49.543556 184.0
49.574379 208.0
49.586994 180.0
49.596806 88.0
49.61734 160.0
49.621605 104.0
49.650082 52.0
49.673923 152.0
49.704788 112.0
49.749699 204.0
49.803059 100.0
49.826939 128.0
49.895802 104.0
49.9063 180.0
49.919704 72.0
49.956314 136.0
49.992855 140.0
50.00552 152.0
50.015373 200.0
50.046341 140.0
50.154816 76.0
50.167503 152.0
50.188648 104.0
50.216854 72.0
50.239422 144.0
50.271873 132.0
50.309677 168.0
50.332569 128.0
50.375305 200.0
50.403194 176.0
50.414501 124.0
50.544594 64.0
50.57431 252.0
50.636608 172.0
50.650513 132.0
50.686188 132.0
50.711697 80.0
50.723038 200.0
50.734375 52.0
50.747135 152.0
50.772659 184.0
50.782589 128.0
50.845013 160.0
50.938721 124.0
50.962872 184.0
50.977081 192.0
51.055264 168.0
51.080627 168.0
51.097939 176.0
51.139202 80.0
51.150589 400.0
51.221786 136.0
51.265953 136.0
51.287617 160.0
51.304436 192.0
51.325821 212.0
51.370033 184.0
51.439953 104.0
51.455658 132.0
51.489925 140.0
51.535637 240.0
51.54707 132.0
51.558498 304.0
51.581844 192.0
51.618538 132.0
51.636814 72.0
51.664307 168.0
51.695786 192.0
51.722198 204.0
51.735859 60.0
51.789684 200.0
51.801453 144.0
51.830383 188.0
51.864643 168.0
51.870361 152.0
51.989555 124.0
52.006332 208.0
52.061333 76.0
52.076172 120.0
52.105114 108.0
52.125885 336.0
52.171967 112.0
52.194969 148.0
52.212223 120.0
52.252693 148.0
52.263744 172.0
52.268288 144.0
52.300217 200.0
52.334538 224.0
52.348934 100.0
52.370537 168.0
52.395027 180.0
52.410873 344.0
52.441135 152.0
52.465641 112.0
52.488708 308.0
52.523319 80.0
52.555058 212.0
52.624256 140.0
52.664772 88.0
52.709557 88.0
52.732677 148.0
52.748577 180.0
52.761585 132.0
52.80352 116.0
52.829556 204.0
52.851257 192.0
52.872963 176.0
52.899014 240.0
52.955482 200.0
52.965622 108.0
52.9888 136.0
53.006187 184.0
53.048218 200.0
53.083012 220.0
53.12072 276.0
53.142483 152.0
53.167149 132.0
53.178341 196.0
53.2136 48.0
53.226665 80.0
53.262974 160.0
53.29348 68.0
53.31673 148.0
53.385056 404.0
53.395233 148.0
53.410118 188.0
53.428688 144.0
53.449059 144.0
53.546593 128.0
53.575722 132.0
53.639839 176.0
53.698162 168.0
53.73317 204.0
53.759434 100.0
53.771111 160.0
53.790085 324.0
53.803223 60.0
53.814507 148.0
53.852867 148.0
53.879387 264.0
53.91423 216.0
53.934689 152.0
53.944923 176.0
54.012642 128.0
54.036015 304.0
54.088272 128.0
54.155624 120.0
54.183456 136.0
54.234283 152.0
54.247936 156.0
54.287521 52.0
54.306587 132.0
54.316856 124.0
54.332993 176.0
54.375393 192.0
54.427574 180.0
54.444546 204.0
54.485672 144.0
54.522404 76.0
54.64592 112.0
54.669651 124.0
54.709202 116.0
54.722454 60.0
54.732758 276.0
54.747284 176.0
54.786106 180.0
54.80051 140.0
54.819668 156.0
54.853489 240.0
54.878063 188.0
54.888947 68.0
54.946209 136.0
54.973888 288.0
55.006496 124.0
55.060123 244.0
55.082279 120.0
55.102962 196.0
55.11478 196.0
55.145813 152.0
55.165031 104.0
55.179813 172.0
55.221218 168.0
55.251549 140.0
55.301109 160.0
55.31739 168.0
55.38847 156.0
55.41069 120.0
55.446915 168.0
55.502499 144.0
55.514523 140.0
55.526306 160.0
55.570808 220.0
55.58416 148.0
55.655407 124.0
55.670258 56.0
55.683624 120.0
55.7267 140.0
55.743046 148.0
55.774254 132.0
55.84116 204.0
55.856033 120.0
55.870911 136.0
55.882812 124.0
55.89769 108.0
55.911083 156.0
55.956253 116.0
56.0019 224.0
56.021263 132.0
56.054012 204.0
56.098923 140.0
56.133045 144.0
56.169262 196.0
56.190247 216.0
56.211189 216.0
56.241951 160.0
56.255386 124.0
56.268822 192.0
56.309135 132.0
56.347973 188.0
56.385441 164.0
56.418213 172.0
56.471668 176.0
56.489994 144.0
56.528893 188.0
56.541248 124.0
56.558823 152.0
56.624702 168.0
56.689121 132.0
56.699608 104.0
56.716381 148.0
56.730377 152.0
56.849575 116.0
56.873096 160.0
56.959713 144.0
56.978699 120.0
57.032799 80.0
57.055626 192.0
57.09444 140.0
57.121513 372.0
57.163639 60.0
57.223423 200.0
57.241913 140.0
57.267513 156.0
57.294628 40.0
57.369976 308.0
57.388069 56.0
57.400131 136.0
57.421242 224.0
57.431801 100.0
57.484604 204.0
57.510258 196.0
57.543308 188.0
57.566116 96.0
57.61898 132.0
57.640133 76.0
57.681576 164.0
57.724781 104.0
57.741676 140.0
57.762592 192.0
57.776207 140.0
57.857925 328.0
57.886692 104.0
57.916981 248.0
57.9291 112.0
57.957886 128.0
57.967846 156.0
57.983646 164.0
58.009449 176.0
58.035809 268.0
58.048832 160.0
58.069416 188.0
58.158619 240.0
58.173241 48.0
58.253723 156.0
58.335781 128.0
58.358585 216.0
58.3853 184.0
58.405727 380.0
58.427578 132.0
58.449749 128.0
58.495502 160.0
58.524277 120.0
58.541176 160.0
58.559452 148.0
58.588455 200.0
58.602726 216.0
58.668209 180.0
58.721798 100.0
58.746933 188.0
58.775921 160.0
58.796055 144.0
58.879723 128.0
58.954578 116.0
58.965279 204.0
58.979034 184.0
59.00655 68.0
59.019505 76.0
59.083015 168.0
59.13818 156.0
59.158512 168.0
59.206997 140.0
59.225376 76.0
59.239006 160.0
59.263672 172.0
59.282059 200.0
59.30843 136.0
59.331108 104.0
59.400112 128.0
59.441536 208.0
59.458416 112.0
59.472229 116.0
59.501396 160.0
59.595081 204.0
59.611984 220.0
59.638107 296.0
59.658489 124.0
59.704216 164.0
59.753437 44.0
59.773441 148.0
59.835007 164.0
59.848862 120.0
59.892433 192.0
59.905846 112.0
59.93824 148.0
59.955738 168.0
59.96748 152.0
60.019527 136.0
60.059986 140.0
60.120159 156.0
60.134048 72.0
60.155655 216.0
60.177269 332.0
60.208153 224.0
60.26376 212.0
60.31012 176.0
60.362682 60.0
60.396755 124.0
60.421455 48.0
60.512768 212.0
60.528252 108.0
60.540638 120.0
60.601048 148.0
60.650249 176.0
60.735916 164.0
60.749878 180.0
60.76384 208.0
60.7747 204.0
60.807285 164.0
60.870934 88.0
60.90976 148.0
60.942844 176.0
60.976795 192.0
60.989002 132.0
61.069855 192.0
61.100964 72.0
61.124302 300.0
61.139717 128.0
61.199017 124.0
61.213028 180.0
61.225487 216.0
61.236389 132.0
61.261311 196.0
61.321064 240.0
61.336105 188.0
61.392189 148.0
61.397678 292.0
61.417187 156.0
61.433804 196.0
61.448383 148.0
61.473351 132.0
61.523296 196.0
61.540466 204.0
61.558022 148.0
61.586983 188.0
61.601376 140.0
61.620121 192.0
61.655048 136.0
61.676376 68.0
61.742043 192.0
61.799919 140.0
61.862518 204.0
61.886002 104.0
61.913464 260.0
61.930759 220.0
61.940895 140.0
61.975533 124.0
61.9911 164.0
62.005051 136.0
62.02668 80.0
62.044239 140.0
62.100689 156.0
62.121078 120.0
62.138336 128.0
62.154026 156.0
62.180702 32.0
62.197968 196.0
62.218372 156.0
62.275486 196.0
62.28904 172.0
62.301605 144.0
62.316261 244.0
62.393562 148.0
62.413193 60.0
62.449833 156.0
62.477673 200.0
62.512287 160.0
62.526451 120.0
62.590992 92.0
62.611465 136.0
62.630363 100.0
62.64769 124.0
62.67226 188.0
62.695793 176.0
62.718811 180.0
62.731209 144.0
62.742245 92.0
62.758011 124.0
62.805321 172.0
62.847084 172.0
62.989998 188.0
63.007374 164.0
63.057938 116.0
63.07058 100.0
63.155964 156.0
63.182854 112.0
63.206047 176.0
63.254066 176.0
63.278503 196.0
63.295227 116.0
63.309479 140.0
63.382187 200.0
63.39502 132.0
63.464767 148.0
63.491196 144.0
63.510754 344.0
63.52935 232.0
63.564693 132.0
63.638271 124.0
63.660748 180.0
63.712349 100.0
63.728237 200.0
63.782269 116.0
63.845863 232.0
63.856998 60.0
63.881413 216.0
63.914078 136.0
63.93177 292.0
63.9636 240.0
63.973995 136.0
64.006584 212.0
64.02092 220.0
64.127083 144.0
64.133965 92.0
64.139778 232.0
64.167503 172.0
64.187759 268.0
64.213753 84.0
64.277557 140.0
64.298302 148.0
64.322243 140.0
64.336617 220.0
64.358963 196.0
64.392502 140.0
64.427231 124.0
64.505943 144.0
64.539513 168.0
64.558701 188.0
64.581093 180.0
64.593887 292.0
64.653084 84.0
64.683495 144.0
64.696304 160.0
64.721382 132.0
64.755875 236.0
64.771561 108.0
64.789185 232.0
64.810013 44.0
64.836678 156.0
64.853279 104.0
64.896561 160.0
64.907784 88.0
64.931839 192.0
64.944672 204.0
64.955902 212.0
65.002426 60.0
65.028099 180.0
65.105164 72.0
65.127647 168.0
65.140495 172.0
65.180656 160.0
65.206421 136.0
65.224342 204.0
65.249771 136.0
65.277107 168.0
65.304565 104.0
65.338226 148.0
65.354652 132.0
65.375229 128.0
65.389717 176.0
65.400978 52.0
65.420296 136.0
65.452499 160.0
65.465378 212.0
65.504036 116.0
65.537865 156.0
65.562035 356.0
65.602325 48.0
65.62812 156.0
65.650742 160.0
65.673279 148.0
65.699081 160.0
65.718445 172.0
65.745872 64.0
65.760399 200.0
65.780975 152.0
65.800758 144.0
65.825966 52.0
65.883118 124.0
65.900299 132.0
65.927818 192.0
65.947754 188.0
65.960686 152.0
66.08197 136.0
66.096535 200.0
66.154793 44.0
66.189758 168.0
66.224419 96.0
66.247101 204.0
66.287605 168.0
66.31353 164.0
66.336227 168.0
66.355675 176.0
66.368652 160.0
66.379997 172.0
66.402702 56.0
66.42379 160.0
66.45623 120.0
66.469215 104.0
66.526016 112.0
66.581223 172.0
66.634827 144.0
66.667717 196.0
66.693329 208.0
66.704704 204.0
66.735023 112.0
66.784378 220.0
66.81366 200.0
66.873863 64.0
66.891769 104.0
66.979698 152.0
67.028572 180.0
67.078712 172.0
67.109703 160.0
67.124741 244.0
67.14431 264.0
67.178566 120.0
67.323822 204.0
67.358124 128.0
67.36956 64.0
67.405502 136.0
67.47905 128.0
67.501945 176.0
67.51339 128.0
67.533012 76.0
67.559189 192.0
67.575508 180.0
67.648048 236.0
67.667198 148.0
67.688332 172.0
67.70977 152.0
67.79528 164.0
67.887352 176.0
67.90152 100.0
67.95237 140.0
68.024574 124.0
68.052483 200.0
68.07547 156.0
68.131317 120.0
68.147858 56.0
68.188828 164.0
68.221695 152.0
68.267738 124.0
68.279243 144.0
68.302269 152.0
68.321793 152.0
68.358208 176.0
68.389481 208.0
68.43676 232.0
68.488266 128.0
68.550507 164.0
68.58548 40.0
68.600319 176.0
68.616798 140.0
68.639885 56.0
68.661324 164.0
68.681885 120.0
68.704208 32.0
68.736008 160.0
68.77681 124.0
68.799919 200.0
68.832939 124.0
68.851013 140.0
68.875786 136.0
68.901199 172.0
68.920334 132.0
68.925728 160.0
68.950676 164.0
69.009674 104.0
69.029449 180.0
69.049423 180.0
69.08416 68.0
69.1007 144.0
69.173515 124.0
69.262932 256.0
69.276466 172.0
69.301033 72.0
69.334175 100.0
69.405457 160.0
69.514931 136.0
69.529152 176.0
69.551025 160.0
69.554207 120.0
69.582985 240.0
69.603104 200.0
69.620316 148.0
69.639442 112.0
69.684036 180.0
69.710876 120.0
69.805626 192.0
69.828911 184.0
69.853859 180.0
69.897858 208.0
69.967018 224.0
69.99865 140.0
70.021965 132.0
70.105232 204.0
70.146927 120.0
70.1763 304.0
70.206947 152.0
70.223625 116.0
70.245308 112.0
70.283684 148.0
70.369789 136.0
70.395515 192.0
70.427246 172.0
70.438942 156.0
70.462326 144.0
70.5158 132.0
70.545891 136.0
70.570183 160.0
70.59848 236.0
70.626152 204.0
70.672989 104.0
70.688049 236.0
70.72113 296.0
70.771744 144.0
70.795898 168.0
70.852127 156.0
70.904076 56.0
70.931793 108.0
70.951004 120.0
71.009697 216.0
71.038208 176.0
71.075119 256.0
71.107002 164.0
71.180862 144.0
71.231247 172.0
71.247078 104.0
71.257507 120.0
71.313896 148.0
71.342659 164.0
71.363968 172.0
71.384186 140.0
71.40773 76.0
71.421188 188.0
71.438011 160.0
71.458199 132.0
71.469971 132.0
71.500259 116.0
71.519691 140.0
71.552444 152.0
71.570961 72.0
71.597076 172.0
71.614746 96.0
71.657829 184.0
71.678764 116.0
71.712471 96.0
71.725952 228.0
71.752174 208.0
71.764725 172.0
71.795074 132.0
71.862549 176.0
71.887856 56.0
71.903046 148.0
71.990829 168.0
72.027985 384.0
72.03981 180.0
72.072212 200.0
72.095566 188.0
72.127647 208.0
72.137817 324.0
72.168251 124.0
72.186852 108.0
72.261276 160.0
72.305267 52.0
72.325577 148.0
72.366203 68.0
72.389214 184.0
72.392479 108.0
72.432251 204.0
72.469521 188.0
72.495796 184.0
72.532227 176.0
72.559349 40.0
72.583176 144.0
72.621643 184.0
72.664497 224.0
72.684853 164.0
72.713707 120.0
72.72728 152.0
72.742561 116.0
72.777107 192.0
72.9991 172.0
73.022873 188.0
73.050125 136.0
73.062035 140.0
73.07325 88.0
73.09436 156.0
73.187973 184.0
73.220329 112.0
73.244179 172.0
73.287613 156.0
73.324257 232.0
73.361748 192.0
73.433189 152.0
73.487953 196.0
73.523788 136.0
73.561333 96.0
73.584923 132.0
73.590935 200.0
73.609138 152.0
73.633049 160.0
73.680878 164.0
73.7351 152.0
73.737778 160.0
73.774864 68.0
73.793671 144.0
73.848389 176.0
73.896286 192.0
73.959602 144.0
74.017815 32.0
74.060623 236.0
74.165138 388.0
74.185707 164.0
74.237762 200.0
74.275009 160.0
74.298897 192.0
74.324631 144.0
74.355515 128.0
74.431046 144.0
74.449936 124.0
74.51693 184.0
74.553009 112.0
74.658104 224.0
74.716354 236.0
74.745605 96.0
74.795509 124.0
74.818672 212.0
74.854042 208.0
74.895935 160.0
74.96096 120.0
75.009102 180.0
75.038406 200.0
75.050476 48.0
75.100487 48.0
75.145332 48.0
75.160866 80.0
75.222183 136.0
75.236801 100.0
75.254066 176.0
75.274788 220.0
75.307602 140.0
75.336967 52.0
75.35424 128.0
75.400894 152.0
75.442375 44.0
75.502525 132.0
75.542801 168.0
75.563431 228.0
75.641312 132.0
75.677666 204.0
75.7257 200.0
75.760796 156.0
75.795441 40.0
75.812767 104.0
75.849167 56.0
75.902908 156.0
75.925453 60.0
75.954941 180.0
75.9879 80.0
76.017395 156.0
76.039955 184.0
76.057312 160.0
76.07814 220.0
76.113609 252.0
76.159752 84.0
76.173645 124.0
76.214943 156.0
76.288338 140.0
76.312065 172.0
76.337021 192.0
76.49276 192.0
76.54409 68.0
76.562592 192.0
76.580658 156.0
76.607384 128.0
76.695656 164.0
76.720055 128.0
76.749695 160.0
76.774734 212.0
76.789803 96.0
76.80497 144.0
76.839027 164.0
76.854347 32.0
76.871796 148.0
76.885757 152.0
76.914803 368.0
76.943359 152.0
77.070457 140.0
77.137268 124.0
77.175003 184.0
77.210701 148.0
77.222939 40.0
77.242882 100.0
77.277298 276.0
77.294662 64.0
77.306915 132.0
77.340164 76.0
77.36763 168.0
77.410194 152.0
77.452225 120.0
77.49427 72.0
77.51783 208.0
77.555603 40.0
77.573608 132.0
77.606438 204.0
77.664307 164.0
77.702904 84.0
77.738869 112.0
77.821442 140.0
77.871414 204.0
77.918037 192.0
77.957832 84.0
77.971558 56.0
77.985619 188.0
78.003143 144.0
78.027802 128.0
78.04187 40.0
78.072121 156.0
78.09111 96.0
78.122772 156.0
78.135086 60.0
78.233635 160.0
78.26004 96.0
78.288216 140.0
78.333191 152.0
78.406242 208.0
78.437325 164.0
78.472847 220.0
78.486221 272.0
78.515549 84.0
78.547295 140.0
78.613457 148.0
78.637283 164.0
78.704361 60.0
78.727318 60.0
78.780304 108.0
78.803268 164.0
78.818474 232.0
78.831543 160.0
78.856285 52.0
78.868652 188.0
78.881027 296.0
78.904007 132.0
78.923454 140.0
78.959091 156.0
78.987373 112.0
79.022499 116.0
79.050812 208.0
79.072044 184.0
79.096344 204.0
79.136223 152.0
79.167648 108.0
79.183586 88.0
79.211922 172.0
79.223732 156.0
79.304062 220.0
79.355469 196.0
79.369614 184.0
79.402428 128.0
79.425575 180.0
79.453011 104.0
79.504417 172.0
79.584343 68.0
79.760216 204.0
79.797546 72.0
79.829552 116.0
79.880539 204.0
79.895363 184.0
79.908714 152.0
79.923828 176.0
79.965637 300.0
80.01638 116.0
80.051987 328.0
80.078697 180.0
80.107445 176.0
80.128853 180.0
80.244423 216.0
80.296135 228.0
80.335373 64.0
80.431732 176.0
80.451363 260.0
80.486084 160.0
80.499573 108.0
80.603172 212.0
80.643349 216.0
80.662155 160.0
80.688057 204.0
80.723297 100.0
80.765862 164.0
80.790741 180.0
80.798012 164.0
80.828583 192.0
80.855316 244.0
80.875008 60.0
80.923882 148.0
80.943031 112.0
80.978851 160.0
81.027214 160.0
81.063049 132.0
81.082764 132.0
81.100685 164.0
81.131157 108.0
81.179565 132.0
81.214638 244.0
81.233368 136.0
81.252235 240.0
81.305138 104.0
81.319496 120.0
81.384117 136.0
81.407463 132.0
81.464935 256.0
81.491882 132.0
81.513443 100.0
81.55658 100.0
81.572838 180.0
81.637611 160.0
81.681175 136.0
81.706444 164.0
81.729218 164.0
81.752609 164.0
81.777802 180.0
81.819206 168.0
81.878624 176.0
81.930862 132.0
81.945786 112.0
81.997528 80.0
82.019157 132.0
82.048851 196.0
82.147179 76.0
82.181458 264.0
82.219353 156.0
82.261703 164.0
82.282196 196.0
82.306 196.0
82.320442 212.0
82.432442 164.0
82.463165 204.0
82.513779 236.0
82.606003 132.0
82.638565 96.0
82.662086 132.0
82.683807 100.0
82.703552 180.0
82.75621 100.0
82.803291 196.0
82.848572 136.0
82.922867 220.0
82.96637 216.0
82.979057 168.0
82.991753 100.0
83.018951 192.0
83.060822 224.0
83.123779 152.0
83.128639 120.0
83.135818 208.0
83.15683 164.0
83.189499 168.0
83.245781 164.0
83.294815 148.0
83.330406 176.0
83.396568 136.0
83.425652 268.0
83.454742 164.0
83.53112 208.0
83.582062 152.0
83.671242 224.0
83.691269 72.0
83.720406 104.0
83.74044 160.0
83.762291 136.0
83.790459 80.0
83.81308 196.0
83.874466 192.0
83.896393 120.0
83.959137 204.0
83.984665 128.0
84.041222 92.0
84.072235 140.0
84.096008 176.0
84.128822 132.0
84.16716 244.0
84.19809 188.0
84.255981 164.0
84.353508 100.0
84.455902 124.0
84.470535 188.0
84.571945 208.0
84.611237 108.0
84.635246 176.0
84.693848 168.0
84.77079 160.0
84.822105 112.0
84.856934 172.0
84.871605 96.0
84.919281 212.0
84.935791 176.0
84.976151 92.0
85.001839 164.0
85.026459 168.0
85.062332 212.0
85.075439 156.0
85.111969 168.0
85.132164 156.0
85.14502 172.0
85.2332 232.0
85.264435 68.0
85.28833 132.0
85.358192 180.0
85.382095 228.0
85.413361 176.0
85.432137 116.0
85.450424 164.0
85.495796 124.0
85.564255 252.0
85.577148 192.0
85.591873 168.0
85.617653 272.0
85.645279 116.0
85.674751 132.0
85.743889 184.0
85.807442 124.0
85.851692 160.0
85.890427 148.0
85.936546 192.0
85.960533 164.0
85.994926 144.0
85.999184 144.0
86.026978 180.0
86.052498 228.0
86.147957 132.0
86.18026 88.0
86.213516 144.0
86.237541 176.0
86.265488 172.0
86.339226 176.0
86.373016 192.0
86.448372 132.0
86.477982 132.0
86.513153 208.0
86.527962 84.0
86.553886 356.0
86.589867 176.0
86.614998 36.0
86.674515 224.0
86.718758 172.0
86.740997 144.0
86.778076 184.0
86.819496 224.0
86.842979 36.0
86.90863 224.0
86.938507 260.0
86.969971 184.0
87.015549 176.0
87.073112 108.0
87.121407 104.0
87.17157 172.0
87.18644 244.0
87.214317 172.0
87.229187 184.0
87.268227 212.0
87.310997 64.0
87.345512 172.0
87.372375 48.0
87.407722 112.0
87.68515 164.0
87.778404 208.0
87.791458 104.0
87.804512 92.0
87.825027 100.0
87.941788 228.0
87.990791 216.0
88.030556 124.0
88.054596 280.0
88.071404 92.0
88.103157 96.0
88.117744 104.0
88.172295 164.0
88.185371 64.0
88.220673 176.0
88.255463 176.0
88.321861 160.0
88.355537 160.0
88.392952 172.0
88.406052 124.0
88.518707 196.0
88.538963 92.0
88.58017 164.0
88.630753 80.0
88.65699 100.0
88.671982 112.0
88.694473 156.0
88.716965 124.0
88.736359 168.0
88.809326 220.0
88.823082 136.0
88.842613 264.0
88.860703 168.0
88.885765 180.0
88.920418 128.0
88.957077 112.0
88.973976 176.0
89.041573 152.0
89.07914 124.0
89.12986 172.0
89.173294 216.0
89.236992 160.0
89.25956 180.0
89.271729 156.0
89.293404 164.0
89.314095 148.0
89.327263 104.0
89.396873 180.0
89.424263 164.0
89.447693 132.0
89.571968 96.0
89.597427 144.0
89.630371 112.0
89.70536 172.0
89.722725 188.0
89.754562 108.0
89.833702 108.0
89.902893 172.0
89.939651 120.0
89.96608 192.0
89.998177 248.0
90.026497 188.0
90.069939 164.0
90.09449 136.0
90.111496 188.0
90.143616 196.0
90.163094 144.0
90.232452 208.0
90.334679 340.0
90.361053 132.0
90.406677 180.0
90.425392 212.0
90.446671 216.0
90.47403 224.0
90.520042 160.0
90.538795 148.0
90.578758 208.0
90.606255 128.0
90.655975 148.0
90.73983 144.0
90.754997 120.0
90.794823 112.0
90.838448 196.0
90.92762 176.0
90.946602 132.0
91.016838 128.0
91.033928 180.0
91.080833 172.0
91.110321 164.0
91.135445 108.0
91.160904 176.0
91.173203 196.0
91.231415 196.0
91.264503 212.0
91.330406 128.0
91.396988 160.0
91.42173 172.0
91.482895 116.0
91.506226 104.0
91.541656 204.0
91.592606 180.0
91.634987 128.0
91.686897 196.0
91.704262 180.0
91.745522 172.0
91.772209 172.0
91.831322 184.0
91.844673 116.0
91.894272 196.0
91.913353 112.0
91.934341 152.0
91.968697 132.0
92.003059 80.0
92.070908 216.0
92.087074 132.0
92.16922 208.0
92.186417 236.0
92.243752 144.0
92.351494 268.0
92.392906 108.0
92.416489 184.0
92.43309 180.0
92.500069 172.0
92.520363 100.0
92.559418 132.0
92.666679 72.0
92.733749 228.0
92.760582 84.0
92.787422 204.0
92.809853 80.0
92.848022 148.0
92.879463 140.0
92.917831 144.0
92.931259 100.0
92.986908 128.0
93.000343 256.0
93.020546 336.0
93.050255 48.0
93.065613 172.0
93.156136 180.0
93.184692 112.0
93.215736 176.0
93.299011 140.0
93.306671 68.0
93.319534 176.0
93.374992 152.0
93.394226 204.0
93.407516 180.0
93.427437 208.0
93.450012 44.0
93.482719 160.0
93.565483 144.0
93.588593 128.0
93.657913 100.0
93.677177 196.0
93.68972 172.0
93.727272 144.0
93.783157 240.0
93.80629 48.0
93.827492 116.0
93.885338 220.0
93.903145 224.0
93.923912 220.0
93.945129 152.0
93.958633 144.0
94.014359 136.0
94.026939 200.0
94.062836 108.0
94.096619 160.0
94.1744 144.0
94.208672 252.0
94.222565 160.0
94.273354 156.0
94.298477 192.0
94.331337 88.0
94.358398 164.0
94.401993 272.0
94.416405 172.0
94.508904 196.0
94.55957 116.0
94.664108 112.0
94.704781 220.0
94.742821 444.0
94.762894 160.0
94.844887 180.0
94.864021 196.0
94.906319 236.0
94.956734 228.0
94.983887 208.0
95.050735 1004.0
95.08213 120.0
95.107208 156.0
95.133308 180.0
95.155167 180.0
95.195435 272.0
95.238159 36.0
95.264015 196.0
95.31781 92.0
95.354736 72.0
95.381943 216.0
95.411179 100.0
95.471382 192.0
95.512222 168.0
95.53167 172.0
95.551125 160.0
95.601067 156.0
95.613396 204.0
95.662048 120.0
95.706734 164.0
95.726303 132.0
95.743828 160.0
95.854866 256.0
95.870453 68.0
95.90358 124.0
95.923073 168.0
95.936722 132.0
95.974457 232.0
96.026413 88.0
96.046371 120.0
96.082932 304.0
96.102921 164.0
96.129807 376.0
96.147369 68.0
96.168839 188.0
96.194214 76.0
96.230141 168.0
96.274261 164.0
96.332855 176.0
96.36264 164.0
96.387558 28.0
96.405067 164.0
96.436417 172.0
96.479424 28.0
96.524391 204.0
96.565453 88.0
96.5811 256.0
96.622269 180.0
96.639214 176.0
96.65744 176.0
96.671364 188.0
96.7015 164.0
96.721985 136.0
96.761131 176.0
96.782669 104.0
96.872757 172.0
96.902145 208.0
97.00383 144.0
97.028725 3180.0
97.065659 1000.0
97.086311 280.0
97.127579 256.0
97.153572 176.0
97.213158 156.0
97.247269 140.0
97.270821 212.0
97.335609 120.0
97.350449 216.0
97.370956 112.0
97.402382 244.0
97.417053 188.0
97.447563 144.0
97.469177 188.0
97.518303 176.0
97.532059 104.0
97.661835 176.0
97.682533 196.0
97.69075 40.0
97.693863 120.0
97.728714 192.0
97.762238 176.0
97.79966 228.0
97.817276 292.0
97.85862 252.0
97.925682 156.0
97.947235 140.0
97.964958 184.0
97.987793 156.0
98.030609 364.0
98.062256 320.0
98.079002 436.0
98.097694 36328.0
98.132866 160.0
98.173882 112.0
98.195137 100.0
98.208153 144.0
98.233009 176.0
98.254753 176.0
98.268562 140.0
98.282372 80.0
98.310776 244.0
98.338692 180.0
98.369003 116.0
98.408691 92.0
98.421547 88.0
98.438881 220.0
98.489655 368.0
98.513115 128.0
98.550896 80.0
98.566704 76.0
98.602272 40.0
98.636353 132.0
98.651009 140.0
98.672661 144.0
98.685692 220.0
98.698723 212.0
98.738686 156.0
98.762421 188.0
98.871758 244.0
98.893005 168.0
98.924675 140.0
98.940323 168.0
98.943687 152.0
98.960159 52.0
98.965591 156.0
99.061523 112.0
99.100395 2900.0
99.148483 76.0
99.178215 44.0
99.211334 88.0
99.227776 212.0
99.244637 148.0
99.285278 48.0
99.319382 244.0
99.335442 136.0
99.386444 108.0
99.412666 148.0
99.439537 132.0
99.483688 336.0
99.509499 120.0
99.567078 216.0
99.614746 84.0
99.6464 180.0
99.70269 196.0
99.737846 160.0
99.744431 136.0
99.769753 176.0
99.814163 220.0
99.861214 32.0
99.92498 144.0
99.939148 140.0
99.956589 132.0
99.962868 124.0
99.98819 200.0
100.031654 188.0
100.077324 544.0
100.100616 280.0
100.11795 212.0
100.163376 168.0
100.194077 164.0
100.211105 156.0
100.227509 148.0
100.25341 120.0
100.27932 140.0
100.299248 196.0
100.320114 188.0
100.441063 164.0
100.466751 100.0
100.522614 152.0
100.552551 200.0
100.570511 168.0
100.60199 104.0
100.652359 172.0
100.672333 152.0
100.688309 196.0
100.708183 172.0
100.732246 172.0
100.762383 188.0
100.783646 200.0
100.808167 168.0
100.828156 164.0
100.847328 276.0
100.869911 188.0
100.886871 180.0
100.906151 196.0
100.928886 112.0
100.948097 92.0
100.973503 228.0
100.980453 224.0
101.025215 73704.0
101.076981 120.0
101.093437 132.0
101.118042 100.0
101.142845 80.0
101.18026 116.0
101.212654 220.0
101.24057 100.0
101.265434 48.0
101.279129 352.0
101.292732 180.0
101.311218 84.0
101.335258 56.0
101.353416 944.0
101.382767 292.0
101.400955 56.0
101.429337 160.0
101.445312 168.0
101.470963 180.0
101.521767 124.0
101.542831 344.0
101.60305 60.0
101.627899 196.0
101.651199 204.0
101.69696 244.0
101.709877 116.0
101.756142 212.0
101.782585 132.0
101.796425 92.0
101.827286 84.0
101.898163 52.0
101.932579 156.0
101.958961 204.0
101.978546 144.0
102.027954 4720.0
102.095146 208.0
102.117271 136.0
102.134109 128.0
102.209808 120.0
102.22953 120.0
102.250053 28.0
102.268166 200.0
102.287651 100.0
102.324532 76.0
102.36068 188.0
102.423203 160.0
102.482262 208.0
102.510574 120.0
102.534019 48.0
102.589302 112.0
102.615303 148.0
102.646904 108.0
102.665756 196.0
102.730652 92.0
102.755821 168.0
102.770096 108.0
102.794159 76.0
102.810081 196.0
102.848846 160.0
102.878929 80.0
102.924438 236.0
102.937546 116.0
102.967766 84.0
103.00412 152.0
103.029724 564.0
103.085632 128.0
103.119293 48.0
103.152588 168.0
103.173866 140.0
103.260231 180.0
103.297989 168.0
103.333633 76.0
103.353867 72.0
103.390289 212.0
103.406479 56.0
103.420647 156.0
103.434814 48.0
103.479355 124.0
103.511749 60.0
103.531998 168.0
103.574532 172.0
103.636696 140.0
103.736633 144.0
103.777184 180.0
103.798386 140.0
103.835991 164.0
103.850182 68.0
103.870468 144.0
103.932404 212.0
103.956116 56.0
104.033791 164.0
104.058029 232.0
104.075439 236.0
104.128235 144.0
104.174042 128.0
104.187141 196.0
104.25013 204.0
104.280609 48.0
104.307037 120.0
104.333458 208.0
104.372032 148.0
104.420891 168.0
104.439201 52.0
104.490768 136.0
104.511307 296.0
104.530746 232.0
104.555168 204.0
104.610123 56.0
104.667488 156.0
104.699181 160.0
104.713966 124.0
104.741119 156.0
104.78933 100.0
105.187866 176.0
105.303375 208.0
105.390533 144.0
105.450478 132.0
105.51384 208.0
105.562912 164.0
105.595634 160.0
105.624268 60.0
105.69178 160.0
105.709862 172.0
105.730659 152.0
105.831627 108.0
105.908783 136.0
106.066551 172.0
106.11985 344.0
106.134201 80.0
106.164963 164.0
106.217918 132.0
106.23085 128.0
106.322922 60.0
106.368294 192.0
106.419395 180.0
106.475662 140.0
106.624809 180.0
106.661812 180.0
106.707031 216.0
106.721428 116.0
106.756378 92.0
106.80368 80.0
106.839645 316.0
106.853111 156.0
106.903465 248.0
106.927132 132.0
106.947708 132.0
107.018867 188.0
107.052505 132.0
107.098015 124.0
107.219574 228.0
107.288063 156.0
107.342476 156.0
107.368004 64.0
107.423691 168.0
107.437653 224.0
107.483521 236.0
107.543365 132.0
107.557816 160.0
107.590843 156.0
107.630074 160.0
107.704414 172.0
107.753998 120.0
107.768456 76.0
107.871849 132.0
107.890396 156.0
107.919334 88.0
107.93795 128.0
107.979904 180.0
107.996956 152.0
108.020676 64.0
108.101357 168.0
108.336189 148.0
108.360176 48.0
108.465866 192.0
108.48452 200.0
108.505249 84.0
108.530128 208.0
108.55294 136.0
108.641457 316.0
108.725121 84.0
108.812294 100.0
108.826828 160.0
108.868362 140.0
108.896187 100.0
108.909897 184.0
109.002708 172.0
109.022087 172.0
109.038712 44.0
109.070908 204.0
109.09745 200.0
109.124924 176.0
109.140572 92.0
109.232071 88.0
109.279922 56.0
109.33371 160.0
109.356918 68.0
109.373566 88.0
109.413116 388.0
109.438103 148.0
109.475578 108.0
109.546394 124.0
109.571396 128.0
109.597748 148.0
109.658913 84.0
109.690178 164.0
109.727699 120.0
109.783997 144.0
109.81945 140.0
109.877853 100.0
109.906418 232.0
110.023941 168.0
110.07196 128.0
110.098618 304.0
110.128349 164.0
110.19519 48.0
110.278778 80.0
110.359291 136.0
110.458595 128.0
110.538101 248.0
110.569489 160.0
110.613441 120.0
110.679924 148.0
110.705559 80.0
110.764206 128.0
110.783157 164.0
110.799812 148.0
110.816574 112.0
110.868958 48.0
110.904587 164.0
110.930511 196.0
111.017799 144.0
111.038704 128.0
111.069946 208.0
111.093857 196.0
111.102745 72.0
111.126869 84.0
111.200317 172.0
111.232727 172.0
111.305283 228.0
111.416595 240.0
111.478851 216.0
111.557388 148.0
111.582619 172.0
111.602112 148.0
111.63308 136.0
111.780327 128.0
111.799271 172.0
111.853989 120.0
111.90451 136.0
111.94873 92.0
111.979599 176.0
112.026657 140.0
112.047722 128.0
112.112556 2320.0
112.175529 148.0
112.193138 228.0
112.228973 140.0
112.252174 40.0
112.276146 348.0
112.353409 144.0
112.389534 196.0
112.427261 108.0
112.486351 52.0
112.583473 144.0
112.606705 128.0
112.640503 64.0
112.659515 120.0
112.77784 152.0
112.810501 132.0
112.860291 112.0
112.889893 32.0
112.919174 104.0
112.950111 164.0
113.060959 1124.0
113.112305 128.0
113.150139 76.0
113.173431 76.0
113.194603 176.0
113.213661 132.0
113.232719 116.0
113.247551 164.0
113.262375 148.0
113.300507 132.0
113.359825 156.0
113.417053 132.0
113.444603 188.0
113.550621 48.0
113.59304 172.0
113.643959 152.0
113.674911 224.0
113.693329 180.0
113.718231 152.0
113.760567 152.0
113.836189 180.0
113.883835 176.0
113.92762 144.0
113.966682 196.0
114.009178 228.0
114.034683 104.0
114.060188 172.0
114.089211 140.0
114.11628 260.0
114.186722 184.0
114.202644 172.0
114.241295 284.0
114.301292 248.0
114.323914 164.0
114.442635 160.0
114.466537 156.0
114.529778 144.0
114.596466 104.0
114.730728 172.0
114.773369 108.0
114.830093 20.0
114.874023 244.0
114.909874 224.0
114.989586 236.0
115.03875 276.0
115.077469 892.0
115.110504 104.0
115.12545 48.0
115.144676 232.0
115.17244 156.0
115.204483 168.0
115.24279 116.0
115.383987 220.0
115.409645 76.0
115.467384 188.0
115.512299 100.0
115.546524 96.0
115.594398 160.0
115.629974 84.0
115.644958 136.0
115.676064 168.0
115.706078 152.0
115.726303 172.0
115.809822 140.0
115.829094 172.0
115.85363 256.0
115.907578 144.0
115.94265 148.0
115.961403 144.0
115.990021 232.0
116.010437 192.0
116.014755 156.0
116.041252 180.0
116.071976 6940.0
116.108315 44116.0
116.146965 176.0
116.190132 76.0
116.222389 132.0
116.267586 172.0
116.294846 184.0
116.308029 200.0
116.333015 88.0
116.362656 288.0
116.390976 124.0
116.419731 100.0
116.45433 120.0
116.537567 32.0
116.607948 92.0
116.622993 188.0
116.649361 104.0
116.68103 132.0
116.711128 40.0
116.75 52.0
116.78759 180.0
116.88414 92.0
116.921631 56.0
116.973595 48.0
116.990814 196.0
117.018303 52.0
117.070953 272.0
117.111015 2836.0
117.163094 160.0
117.184639 64.0
117.199722 80.0
117.238014 140.0
117.262215 152.0
117.291275 240.0
117.354904 184.0
117.443359 216.0
117.473518 76.0
117.508034 180.0
117.549294 156.0
117.620247 152.0
117.639977 144.0
117.685013 140.0
117.7174 92.0
117.749428 188.0
117.771393 124.0
117.796616 124.0
117.818916 64.0
117.857056 104.0
117.886368 128.0
117.933441 116.0
117.970581 152.0
118.01342 28.0
118.07711 168.0
118.09449 168.0
118.112717 204.0
118.119141 176.0
118.143181 72.0
118.17131 88.0
118.228203 164.0
118.255699 112.0
118.348785 108.0
118.394257 180.0
118.444069 56.0
118.554565 72.0
118.658607 176.0
118.697632 152.0
118.775711 144.0
118.816925 172.0
118.866829 152.0
118.896393 160.0
119.033363 224.0
119.057854 160.0
119.133873 204.0
119.165192 152.0
119.257729 120.0
119.368599 112.0
119.431671 164.0
119.512161 40.0
119.57962 164.0
119.692818 160.0
119.745926 164.0
119.777756 184.0
119.806068 92.0
119.836571 168.0
119.856178 168.0
119.930893 156.0
119.951447 184.0
119.976967 148.0
120.100288 156.0
120.183243 84.0
120.213791 80.0
120.246521 136.0
120.296333 180.0
120.342628 152.0
120.477974 164.0
120.517845 80.0
120.563187 168.0
120.595474 196.0
120.738152 188.0
120.827759 164.0
120.889023 168.0
120.965622 76.0
120.99408 72.0
121.040062 76.0
121.064148 204.0
121.099358 380.0
121.140808 104.0
121.215294 164.0
121.393562 124.0
121.421356 40.0
121.504707 148.0
121.545624 148.0
121.564644 140.0
121.585899 276.0
121.713211 124.0
121.858177 116.0
121.873558 152.0
121.974648 128.0
121.998314 172.0
122.025208 140.0
122.102165 164.0
122.157158 176.0
122.190155 108.0
122.286972 148.0
122.31559 144.0
122.432976 164.0
122.497658 148.0
122.543526 156.0
122.606316 124.0
122.639374 208.0
122.674637 80.0
122.70919 268.0
122.772079 144.0
122.934891 100.0
122.972069 128.0
123.04084 96.0
123.081619 864.0
123.120331 232.0
123.136482 164.0
123.29258 140.0
123.330215 176.0
123.385475 68.0
123.423065 76.0
123.476135 116.0
123.535278 200.0
123.586739 140.0
123.735023 140.0
123.774879 152.0
123.79702 128.0
123.894478 148.0
124.08728 108.0
124.133842 108.0
124.156021 172.0
124.246445 172.0
124.377884 92.0
124.44751 168.0
124.508873 140.0
124.531082 152.0
124.56662 196.0
124.595505 148.0
124.617722 120.0
124.722168 48.0
124.75106 44.0
124.797745 96.0
124.871132 80.0
124.888924 180.0
124.960106 184.0
125.055534 104.0
125.084724 324.0
125.134102 112.0
125.15374 132.0
125.216095 140.0
125.29628 180.0
125.38987 124.0
125.416611 172.0
125.476799 140.0
125.505783 180.0
125.626495 224.0
125.649292 208.0
125.728851 96.0
125.764557 128.0
125.849388 100.0
125.887344 164.0
125.97892 160.0
126.007957 124.0
126.057114 192.0
126.083931 192.0
126.26725 100.0
126.383575 228.0
126.417137 152.0
126.520096 84.0
126.605461 176.0
126.676849 96.0
126.701729 188.0
126.804565 104.0
126.833702 208.0
126.889748 172.0
126.957008 120.0
126.988411 128.0
127.028786 120.0
127.077164 1924.0
127.102753 136.0
127.124321 180.0
127.167892 184.0
127.194832 64.0
127.243439 92.0
127.281441 180.0
127.372215 84.0
127.498032 184.0
127.556702 172.0
127.66214 40.0
127.69812 224.0
127.722862 188.0
127.764236 156.0
127.801598 104.0
127.864609 216.0
128.004181 248.0
128.038483 224.0
128.060486 88.0
128.10556 252.0
128.175369 96.0
128.245224 112.0
128.283554 60.0
128.328049 212.0
128.397034 180.0
128.429276 140.0
128.466843 188.0
128.518097 152.0
128.538406 208.0
128.594818 52.0
128.615128 36.0
128.634537 184.0
128.652176 116.0
128.678345 108.0
128.71492 140.0
128.74649 328.0
128.78447 136.0
128.81015 260.0
128.854492 244.0
128.88382 160.0
128.906464 220.0
128.943054 272.0
128.978897 504.0
129.0056 372.0
129.026611 392.0
129.056488 118588.0
129.092606 396.0
129.120041 120.0
129.140823 236.0
129.161697 192.0
129.201294 192.0
129.223602 112.0
129.262207 272.0
129.285461 140.0
129.312332 240.0
129.351761 136.0
129.35965 116.0
129.364136 224.0
129.388229 48.0
129.404327 196.0
129.427811 1628.0
129.451843 200.0
129.496735 96.0
129.515198 68.0
129.532669 56.0
129.557022 60.0
129.576202 124.0
129.627533 228.0
129.667816 200.0
129.699783 200.0
129.744751 96.0
129.799652 116.0
129.825531 44.0
129.850479 56.0
129.877686 80.0
129.905396 192.0
129.938934 72.0
129.984863 132.0
130.013824 84.0
130.033646 196.0
130.059555 12420.0
130.163635 72.0
130.197693 40.0
130.220917 72.0
130.281738 48.0
130.330032 140.0
130.357697 84.0
130.375534 244.0
130.40831 188.0
130.432404 196.0
130.456726 56.0
130.481003 168.0
130.511887 120.0
130.556763 116.0
130.601501 160.0
130.674835 92.0
130.704056 52.0
130.736481 76.0
130.752411 84.0
130.804749 100.0
130.867676 160.0
130.896179 372.0
130.926559 336.0
130.978165 96.0
130.998337 256.0
131.02182 148.0
131.038651 164.0
131.062149 1128.0
131.088501 68.0
131.118744 100.0
131.136322 84.0
131.175461 292.0
131.215103 184.0
131.242157 84.0
131.26268 120.0
131.323547 140.0
131.376724 36.0
131.394974 48.0
131.536453 132.0
131.568771 256.0
131.607224 108.0
131.751114 152.0
131.787659 156.0
131.833359 56.0
131.922501 80.0
131.945358 136.0
132.016235 156.0
132.032242 136.0
132.06427 80.0
132.098572 164.0
132.164383 224.0
132.247299 176.0
132.26561 140.0
132.393829 132.0
132.422714 192.0
132.478027 136.0
132.566071 64.0
132.600098 100.0
132.758194 212.0
133.06337 244.0
133.08403 96.0
133.111572 128.0
133.210342 104.0
133.276962 196.0
133.311432 92.0
133.352798 140.0
133.402725 160.0
133.655975 200.0
133.770035 140.0
133.805954 164.0
133.948715 132.0
133.978668 132.0
134.040878 140.0
134.084656 152.0
134.189865 248.0
134.248337 152.0
134.269089 144.0
134.379807 152.0
134.4375 200.0
134.601395 72.0
134.624481 132.0
134.847672 164.0
134.94104 140.0
135.119598 108.0
135.192062 132.0
135.403824 148.0
135.572937 120.0
135.601791 188.0
135.649429 136.0
135.709702 200.0
135.783554 80.0
135.816376 104.0
135.853485 148.0
136.027527 240.0
136.048416 216.0
136.086975 112.0
136.095123 192.0
136.102936 108.0
136.157547 340.0
136.187744 160.0
136.294601 156.0
136.527054 108.0
136.69455 104.0
136.764359 96.0
136.792297 164.0
136.838852 216.0
136.880768 120.0
136.961456 184.0
136.981918 212.0
137.051514 196.0
137.093994 464.0
137.139343 148.0
137.206955 60.0
137.223267 40.0
137.339859 60.0
137.603561 156.0
137.682938 156.0
137.708633 108.0
137.982025 188.0
138.000732 96.0
138.05452 176.0
138.101288 40.0
138.119995 84.0
138.241653 60.0
138.323563 68.0
138.379761 144.0
138.471527 84.0
138.571808 236.0
138.60762 148.0
138.651474 152.0
138.756943 60.0
138.904694 104.0
138.956299 40.0
139.00972 160.0
139.045471 188.0
139.079315 152.0
139.139359 88.0
139.200394 56.0
139.25676 128.0
139.273209 196.0
139.291992 108.0
139.322525 180.0
139.393692 112.0
139.440018 180.0
139.48468 160.0
139.531693 120.0
139.606934 192.0
139.668076 232.0
139.689255 176.0
139.755127 168.0
139.785568 68.0
139.861023 180.0
139.957535 288.0
139.990509 156.0
140.021118 88.0
140.069794 156.0
140.108292 30364.0
140.178955 132.0
140.247299 180.0
140.289719 44.0
140.332153 36.0
140.348663 144.0
140.383118 72.0
140.390259 44.0
140.399506 100.0
140.433563 48.0
140.520844 180.0
140.58255 200.0
140.601074 56.0
140.626633 48.0
140.660065 232.0
140.697845 72.0
140.721451 172.0
140.754501 192.0
140.804092 180.0
140.822983 44.0
140.856064 216.0
140.884399 76.0
140.903305 36.0
140.926926 120.0
140.971817 56.0
141.110153 2180.0
141.238983 80.0
141.264999 28.0
141.345428 80.0
141.466141 128.0
141.539536 136.0
141.643738 68.0
141.672165 148.0
141.693481 132.0
141.785889 44.0
141.809586 108.0
141.8535 128.0
141.92337 44.0
141.946762 160.0
141.971481 56.0
142.084259 144.0
142.105835 280.0
142.12735 160.0
142.202271 160.0
142.218567 176.0
142.251892 84.0
142.272125 124.0
142.310928 140.0
142.34935 192.0
142.426483 180.0
142.462112 116.0
142.576157 48.0
142.628448 164.0
142.656967 152.0
142.687866 140.0
142.752075 128.0
142.89003 128.0
142.919205 168.0
142.954269 136.0
143.009003 196.0
143.038498 308.0
143.137558 180.0
143.259018 44.0
143.282837 108.0
143.43132 128.0
143.502106 132.0
143.521179 168.0
143.645187 132.0
143.67012 80.0
143.800278 128.0
143.824142 136.0
144.10347 368.0
144.215851 56.0
144.285172 60.0
144.313873 152.0
144.423874 124.0
144.443008 132.0
144.584167 104.0
144.744553 168.0
144.92659 100.0
145.096756 100.0
145.118332 128.0
145.161484 188.0
145.274216 128.0
145.415787 184.0
145.567017 156.0
145.624664 204.0
145.641464 148.0
145.694061 112.0
145.891602 164.0
146.141495 108.0
146.257004 252.0
146.281067 140.0
146.355698 72.0
146.408676 168.0
146.44722 76.0
146.483337 92.0
146.512253 96.0
146.57489 88.0
146.603806 136.0
146.692978 132.0
146.815948 104.0
146.881073 164.0
146.951019 316.0
147.013763 92.0
147.059616 92.0
147.115128 136.0
147.148926 136.0
147.250351 104.0
147.38562 64.0
147.441208 148.0
147.549973 152.0
147.603165 116.0
147.692642 76.0
147.736191 160.0
147.842651 148.0
147.956406 180.0
147.978134 152.0
148.015717 132.0
148.087158 108.0
148.171936 156.0
148.210709 168.0
148.360977 108.0
148.475845 152.0
148.525864 172.0
148.562256 140.0
148.596207 104.0
148.649597 52.0
148.739395 240.0
148.81221 52.0
148.841354 160.0
149.042953 204.0
149.10614 120.0
149.1353 36.0
149.298187 100.0
149.315216 152.0
149.347305 164.0
149.376022 144.0
149.407639 164.0
149.447815 208.0
149.570679 108.0
149.672379 140.0
149.797134 40.0
149.831238 108.0
149.906769 104.0
149.989639 152.0
150.065201 136.0
150.092026 128.0
150.116409 40.0
150.16275 148.0
150.226166 92.0
150.27739 172.0
150.377441 32.0
150.431137 104.0
150.465317 132.0
150.650909 164.0
150.721771 148.0
150.804855 116.0
151.039581 160.0
151.07872 188.0
151.132538 152.0
151.340591 120.0
151.362625 196.0
151.43364 160.0
151.453232 164.0
151.605133 60.0
151.757095 164.0
151.78653 68.0
151.813492 112.0
151.923874 132.0
151.965576 84.0
151.987656 128.0
152.071091 220.0
152.098099 196.0
152.213486 104.0
152.663162 160.0
152.741867 80.0
152.815659 128.0
152.864868 80.0
152.97316 84.0
153.057922 280.0
153.091675 152.0
153.525055 188.0
153.576859 108.0
153.633591 84.0
153.739685 128.0
153.761887 160.0
153.793976 208.0
154.090302 456.0
154.119247 112.0
154.292953 180.0
154.431427 224.0
154.569962 28.0
154.673904 140.0
154.817505 196.0
155.107376 152.0
155.12941 108.0
155.179352 112.0
155.241257 132.0
155.266052 144.0
155.333023 72.0
155.449631 180.0
155.521606 132.0
155.552841 116.0
155.57869 196.0
155.790939 204.0
155.844421 244.0
155.9272 168.0
156.102936 200.0
156.184998 120.0
156.252167 148.0
156.279541 84.0
156.545868 124.0
156.615601 108.0
156.67041 112.0
156.755112 144.0
156.835938 164.0
156.88472 64.0
156.98082 176.0
157.049286 132.0
157.156555 104.0
157.3013 44.0
157.318771 120.0
157.501068 116.0
157.56102 80.0
157.592422 196.0
157.630966 108.0
157.648468 228.0
157.678452 168.0
157.741669 136.0
157.892319 164.0
157.915955 356.0
157.946457 188.0
157.9785 152.0
158.040741 68.0
158.043991 292.0
158.07106 320.0
158.119125 55188.0
158.186325 48.0
158.20224 92.0
158.218735 132.0
158.239212 136.0
158.263794 56.0
158.29274 164.0
158.33847 140.0
158.348663 36.0
158.35202 96.0
158.378235 184.0
158.414505 148.0
158.464172 72.0
158.48671 88.0
158.531677 216.0
158.574768 116.0
158.610107 68.0
158.633987 204.0
158.659653 148.0
158.692413 60.0
158.720596 116.0
158.752411 132.0
158.803909 120.0
158.83017 80.0
158.866394 76.0
158.902908 56.0
158.951065 240.0
158.970657 64.0
159.045944 128.0
159.121552 6068.0
159.248047 144.0
159.29454 108.0
159.316422 120.0
159.334732 40.0
159.354828 128.0
159.382462 296.0
159.400055 48.0
159.420151 96.0
159.474686 120.0
159.540802 48.0
159.606171 76.0
159.646408 168.0
159.676575 28.0
159.701736 56.0
159.724365 76.0
159.756577 124.0
159.819962 48.0
159.87439 140.0
159.900482 64.0
159.981033 220.0
160.026352 44.0
160.099365 200.0
160.12178 456.0
160.202637 76.0
160.261765 136.0
160.290817 68.0
160.32106 200.0
160.338699 128.0
160.356339 72.0
160.401703 68.0
160.459686 148.0
160.600906 140.0
160.641266 52.0
160.687286 228.0
160.873413 68.0
161.139084 204.0
161.330643 232.0
161.424194 112.0
161.537598 172.0
161.562454 168.0
161.67717 116.0
161.818909 80.0
161.854355 88.0
162.0504 168.0
162.072189 88.0
162.290161 52.0
162.343414 220.0
162.518433 36.0
162.637711 168.0
162.848434 152.0
162.891617 224.0
162.924652 112.0
163.059311 148.0
163.102371 140.0
163.183868 96.0
163.249985 88.0
163.39241 100.0
163.421173 172.0
163.532364 152.0
163.700394 172.0
163.873596 236.0
163.952591 120.0
164.48819 148.0
164.548706 204.0
164.572052 328.0
164.679688 156.0
164.815079 128.0
164.966156 152.0
165.091141 148.0
165.129501 136.0
165.208801 108.0
165.554611 184.0
165.587616 48.0
165.620911 160.0
165.649094 128.0
165.872025 120.0
165.951492 72.0
165.969437 52.0
165.994553 96.0
166.390213 40.0
166.947769 104.0
167.001785 88.0
167.07431 196.0
167.138123 164.0
167.158707 68.0
167.18959 56.0
167.297684 124.0
167.315704 156.0
167.390381 48.0
167.408844 188.0
167.459915 156.0
167.540146 136.0
167.596436 92.0
167.642822 124.0
167.730453 76.0
167.748489 96.0
167.825836 128.0
167.931564 180.0
167.977982 160.0
168.039795 100.0
168.091507 132.0
168.163757 112.0
168.243774 64.0
168.321854 116.0
168.400772 128.0
168.507202 120.0
168.799271 168.0
168.816727 48.0
169.006195 88.0
169.050186 456.0
169.087784 204.0
169.328949 112.0
169.371216 136.0
169.448929 80.0
169.57869 108.0
169.695145 56.0
169.876678 96.0
169.930618 136.0
169.993423 76.0
170.08255 308.0
170.136185 124.0
170.227051 196.0
170.2686 88.0
170.33873 124.0
170.498215 140.0
170.531006 72.0
170.692184 136.0
170.712982 48.0
170.738983 132.0
170.785797 204.0
170.949707 132.0
171.066162 6740.0
171.104996 188.0
171.225647 204.0
171.306396 156.0
171.353287 208.0
171.45491 80.0
171.538315 92.0
171.674789 156.0
171.731262 96.0
171.792801 168.0
171.819946 160.0
171.924316 228.0
171.986954 56.0
172.023499 68.0
172.068405 784.0
172.167099 176.0
172.206268 112.0
172.268951 40.0
172.355179 52.0
172.603485 100.0
172.783951 84.0
172.836273 108.0
173.006393 160.0
173.063995 116.0
173.103271 180.0
173.124222 88.0
173.208023 120.0
173.299713 164.0
173.359985 180.0
173.422882 72.0
173.504135 196.0
173.52774 40.0
173.734924 196.0
173.883804 108.0
174.050217 120.0
174.118134 160.0
174.367569 152.0
174.641144 92.0
174.956909 148.0
175.114899 432.0
175.151764 76.0
175.436356 124.0
175.48909 148.0
175.541824 136.0
175.729095 168.0
175.802979 188.0
175.834641 172.0
175.904968 260.0
176.130341 92.0
176.27829 148.0
176.315292 128.0
176.547928 220.0
176.60347 44.0
176.690765 140.0
176.780716 92.0
176.899826 52.0
177.021606 144.0
177.06398 192.0
177.126633 304.0
177.533051 164.0
177.59935 136.0
177.824875 132.0
177.978836 144.0
178.077087 116.0
178.236481 108.0
178.255081 112.0
178.440155 120.0
178.725723 44.0
178.86145 132.0
178.906693 364.0
179.001831 140.0
179.021179 160.0
179.147369 116.0
179.215637 128.0
179.239609 28.0
179.612854 100.0
179.799606 164.0
180.010498 152.0
180.210831 188.0
180.325729 140.0
180.438004 180.0
180.619843 204.0
180.783035 248.0
180.938507 48.0
180.967728 96.0
181.085556 128.0
181.147156 60.0
181.340073 116.0
181.458023 196.0
181.723541 96.0
181.755737 132.0
181.865768 236.0
181.95166 108.0
182.005356 144.0
182.037582 96.0
182.690689 112.0
182.734039 140.0
182.752563 196.0
182.895203 228.0
182.984024 108.0
183.051346 168.0
183.080963 164.0
183.099884 156.0
183.150986 368.0
183.336884 152.0
183.377304 176.0
183.450089 260.0
183.495911 148.0
183.719757 124.0
183.930237 112.0
184.073318 172.0
184.138123 216.0
184.511017 92.0
184.581314 120.0
184.865341 100.0
185.084595 124.0
185.146881 128.0
185.195633 104.0
185.247086 304.0
185.303986 148.0
185.382553 96.0
185.578629 176.0
185.675339 164.0
185.843521 84.0
185.90593 148.0
185.979202 244.0
186.082352 204.0
186.149628 232.0
186.601273 124.0
186.646637 164.0
186.832443 116.0
186.97937 60.0
187.055969 184.0
187.111221 228.0
187.148788 152.0
187.284302 120.0
187.518616 168.0
187.635818 152.0
187.720337 108.0
187.853989 132.0
188.270554 172.0
188.509232 120.0
188.673935 172.0
188.998688 200.0
189.286087 160.0
189.60112 100.0
189.669632 168.0
189.721725 76.0
190.028885 148.0
190.215485 152.0
190.446136 152.0
190.949097 44.0
191.133408 132.0
191.63176 128.0
191.696365 176.0
191.788834 80.0
191.950439 204.0
192.105927 72.0
192.137054 184.0
192.390167 168.0
192.426056 132.0
192.508896 88.0
192.542023 60.0
192.605545 116.0
192.94545 80.0
193.086456 52.0
193.12149 428.0
193.263504 188.0
193.462769 208.0
193.565201 140.0
193.772934 108.0
193.97406 160.0
194.1194 148.0
194.352402 164.0
194.591095 160.0
194.663284 88.0
194.735489 96.0
194.874374 120.0
194.957733 124.0
195.027222 104.0
195.064178 284.0
195.145538 120.0
195.235733 200.0
195.313599 124.0
195.683716 96.0
195.774292 324.0
195.809021 180.0
195.841263 284.0
195.917648 204.0
195.970581 44.0
196.070892 108.0
196.123856 140.0
196.204681 76.0
196.567276 144.0
196.737518 144.0
196.849197 92.0
196.927399 140.0
196.980469 72.0
197.079559 192.0
197.139725 148.0
197.19281 96.0
197.595474 92.0
197.824951 52.0
197.875336 116.0
198.077118 808.0
198.236664 156.0
198.488937 152.0
198.570267 172.0
198.78067 172.0
198.819946 208.0
199.005219 176.0
199.066986 140.0
199.095627 284.0
199.127045 156.0
199.373184 148.0
199.567139 128.0
199.609314 156.0
199.634628 52.0
199.780884 208.0
199.803085 192.0
199.991913 132.0
200.062286 92.0
200.086273 108.0
200.132507 392.0
200.546768 184.0
200.712341 164.0
200.947205 156.0
201.0121 176.0
201.170151 52.0
201.336731 232.0
201.548584 84.0
201.921722 28.0
202.01506 176.0
202.180115 144.0
202.213135 144.0
202.496246 68.0
202.892944 220.0
202.980835 208.0
203.142044 124.0
203.29541 152.0
203.534149 76.0
203.593781 220.0
203.775284 164.0
203.948914 164.0
204.182053 124.0
204.237228 244.0
204.361252 116.0
204.40538 140.0
204.551926 120.0
204.811478 104.0
204.990524 248.0
205.164383 88.0
205.358276 176.0
205.423874 140.0
205.515167 80.0
205.784271 168.0
205.871979 160.0
205.922058 172.0
206.203369 136.0
206.423157 136.0
206.597946 120.0
206.643723 196.0
206.70047 188.0
206.991577 120.0
207.113663 148.0
207.167618 116.0
207.29068 84.0
207.436981 148.0
207.552307 196.0
207.609009 124.0
207.767944 156.0
207.887268 172.0
207.973373 44.0
207.996338 144.0
208.42424 128.0
208.45871 172.0
208.527695 152.0
208.565048 164.0
208.65416 132.0
208.976273 168.0
209.059723 200.0
209.16333 72.0
209.229538 48.0
209.252579 124.0
209.80571 176.0
210.013321 152.0
210.045044 40.0
210.345139 180.0
210.382675 120.0
210.509705 100.0
210.654114 248.0
210.989334 176.0
211.131012 128.0
211.403641 148.0
211.504227 72.0
211.559235 184.0
211.819839 208.0
211.843018 216.0
211.874878 60.0
211.915451 84.0
211.990784 36.0
212.155991 48.0
212.367661 108.0
212.397614 160.0
212.445984 172.0
212.480789 64.0
212.81456 168.0
212.919083 112.0
213.04689 108.0
213.517761 192.0
213.676727 148.0
213.794128 132.0
214.082321 36.0
214.268738 152.0
214.370712 60.0
214.50769 72.0
214.775955 160.0
214.866379 128.0
214.904312 40.0
214.988937 160.0
215.092361 332.0
215.348022 252.0
215.470703 52.0
215.491165 64.0
215.560455 156.0
215.672333 148.0
215.760513 24.0
215.915009 144.0
216.031998 188.0
216.120499 144.0
216.362686 188.0
216.517868 132.0
216.717056 176.0
216.775665 60.0
216.980835 120.0
217.121567 40.0
217.303436 136.0
217.500046 172.0
217.544083 264.0
217.708496 68.0
217.743744 184.0
217.799545 124.0
217.887665 32.0
217.908234 224.0
217.958191 132.0
218.008133 64.0
218.39621 160.0
218.443268 112.0
218.546234 152.0
218.923004 164.0
219.037872 192.0
219.126251 148.0
219.176331 108.0
219.297165 148.0
219.32074 84.0
219.75647 148.0
219.783737 176.0
220.005081 144.0
220.368332 92.0
220.394928 108.0
220.415619 96.0
220.728928 192.0
220.864975 160.0
221.004013 184.0
221.120132 176.0
221.442123 172.0
221.525055 128.0
221.59024 132.0
221.705795 148.0
221.96962 176.0
221.999268 176.0
222.144608 152.0
222.424896 216.0
222.509613 144.0
222.687775 80.0
222.77095 160.0
222.92247 104.0
222.998001 192.0
223.029465 140.0
223.109726 112.0
223.20784 180.0
223.261353 156.0
223.594559 176.0
223.770172 76.0
223.832703 120.0
223.940109 176.0
224.157379 44.0
224.276581 88.0
224.398804 124.0
224.449493 196.0
224.541931 96.0
224.726883 36.0
224.98056 160.0
225.153732 160.0
225.186584 140.0
225.291122 192.0
225.900955 140.0
225.942841 152.0
225.997681 192.0
226.083466 188.0
226.194199 168.0
226.251083 204.0
226.331909 68.0
226.439713 108.0
226.493637 164.0
226.520584 164.0
226.58197 196.0
226.966232 228.0
227.071869 108.0
227.153076 104.0
227.258072 124.0
227.68132 100.0
227.756393 176.0
227.849808 164.0
228.04483 204.0
228.124527 1488.0
228.285339 116.0
228.339478 56.0
228.402634 40.0
228.459793 108.0
228.682449 152.0
228.802856 160.0
229.028702 48.0
229.055801 208.0
229.119537 128.0
229.155212 164.0
229.357117 144.0
229.559113 116.0
229.745102 152.0
230.011658 76.0
230.117325 292.0
230.262268 136.0
230.295486 160.0
230.455582 220.0
230.794098 100.0
230.909012 216.0
230.963455 156.0
231.011856 132.0
231.132874 112.0
231.211548 84.0
231.34169 148.0
231.375 56.0
231.571823 192.0
231.624634 72.0
231.777817 52.0
231.977844 144.0
232.320496 200.0
232.368683 172.0
232.563248 132.0
232.675568 112.0
233.061279 168.0
233.151627 416.0
233.346985 108.0
233.392578 128.0
233.489899 128.0
233.690659 136.0
233.7659 120.0
233.967606 44.0
234.004135 148.0
234.409241 60.0
234.753693 140.0
235.241852 176.0
235.302902 84.0
235.379242 80.0
235.480011 240.0
235.53804 184.0
235.660233 116.0
235.770233 112.0
235.916946 220.0
235.950577 232.0
236.065521 104.0
236.146271 180.0
236.186035 140.0
236.25946 160.0
236.326767 100.0
236.540985 168.0
236.568527 132.0
236.669556 136.0
236.796921 108.0
236.997284 224.0
237.058578 128.0
237.340576 140.0
237.511826 128.0
237.622742 164.0
237.65036 76.0
237.720932 132.0
237.825272 172.0
237.960342 108.0
238.092377 124.0
238.301254 160.0
238.350418 176.0
238.399582 120.0
238.774628 116.0
238.808456 52.0
238.865265 240.0
238.934586 112.0
239.023804 176.0
239.106888 132.0
239.149979 136.0
239.268295 256.0
239.362396 96.0
239.383957 100.0
239.423981 76.0
239.849152 192.0
239.889221 56.0
239.957047 160.0
239.990616 124.0
240.138168 144.0
240.404297 124.0
240.463776 204.0
240.490707 156.0
240.69342 156.0
240.806137 192.0
240.916824 164.0
241.024445 240.0
241.062042 92.0
241.107925 8188.0
241.160934 132.0
241.284576 68.0
241.332504 72.0
241.392731 124.0
241.442276 72.0
241.680786 192.0
241.711395 240.0
241.76091 172.0
241.861008 220.0
241.996948 188.0
242.110504 1700.0
242.225311 32.0
242.28038 180.0
242.30896 32.0
242.352814 52.0
242.408112 64.0
242.528976 124.0
242.645004 104.0
242.798706 156.0
242.863831 120.0
242.910355 60.0
242.993362 164.0
243.122208 536.0
243.158585 176.0
243.208237 96.0
243.416245 80.0
243.540466 48.0
243.788727 92.0
243.809647 216.0
243.879135 96.0
243.91954 140.0
243.952545 156.0
244.074982 208.0
244.117935 4732.0
244.426468 40.0
244.522934 136.0
244.5914 88.0
244.80574 156.0
244.843597 60.0
244.874741 104.0
245.014374 116.0
245.061646 144.0
245.087982 176.0
245.120712 444.0
245.181778 144.0
245.348358 40.0
245.410721 48.0
245.432541 184.0
245.488663 64.0
245.753799 164.0
246.028442 72.0
246.11792 188.0
246.200165 156.0
246.30011 148.0
246.543808 40.0
246.643814 124.0
246.690704 60.0
246.781357 72.0
246.978378 124.0
247.14418 128.0
247.166077 128.0
247.213013 160.0
247.322556 160.0
247.620789 248.0
247.864334 120.0
247.917603 112.0
247.964615 124.0
248.24675 144.0
248.331436 148.0
248.827225 172.0
248.877457 40.0
249.03447 88.0
249.565765 176.0
249.735352 56.0
249.886353 184.0
249.911514 200.0
250.002777 128.0
250.024796 56.0
250.078308 120.0
250.185318 152.0
250.235703 136.0
250.286072 52.0
250.377396 136.0
250.58844 200.0
250.6483 96.0
250.695572 120.0
250.827942 136.0
251.11171 164.0
251.168015 172.0
251.275726 224.0
251.411407 60.0
251.600784 168.0
252.036636 96.0
252.144073 176.0
252.166199 144.0
252.327408 396.0
252.409607 268.0
252.441238 160.0
252.479187 184.0
252.523453 144.0
252.569275 140.0
252.596207 148.0
252.754395 96.0
252.903122 132.0
253.270416 148.0
253.331696 172.0
253.37178 132.0
253.780609 176.0
253.840866 44.0
253.891602 120.0
253.97406 136.0
254.091431 144.0
254.135849 188.0
254.272293 84.0
254.383377 128.0
254.443695 192.0
254.507202 112.0
254.662796 76.0
254.754913 120.0
254.777145 204.0
254.967789 88.0
255.018646 112.0
255.311127 156.0
255.524246 144.0
255.568787 76.0
255.65947 48.0
255.985764 40.0
256.025452 284.0
256.071747 112.0
256.148193 140.0
256.438141 144.0
256.501892 56.0
256.734619 108.0
256.900482 188.0
256.948334 36.0
257.028107 200.0
257.151611 176.0
257.379211 148.0
257.522919 188.0
257.807251 60.0
257.992615 64.0
258.024597 104.0
258.136505 104.0
258.17865 156.0
258.267609 200.0
258.392365 92.0
258.677185 104.0
258.872498 148.0
259.035828 92.0
259.154358 164.0
259.21524 96.0
259.349823 84.0
259.462036 80.0
259.785919 136.0
260.138916 56.0
260.392578 124.0
260.50177 156.0
260.700958 116.0
260.726685 116.0
260.901947 128.0
260.955109 176.0
261.253998 52.0
261.277435 212.0
261.393341 156.0
261.736755 148.0
261.855896 188.0
262.007294 100.0
262.297302 172.0
262.352112 140.0
262.429474 148.0
262.526215 100.0
262.771362 192.0
262.994019 68.0
263.048889 180.0
263.148956 140.0
263.205353 144.0
263.22644 168.0
263.281342 176.0
263.316864 172.0
263.352386 28.0
263.439606 164.0
263.614075 128.0
264.082855 76.0
264.212219 120.0
264.264008 64.0
264.535828 140.0
264.590881 132.0
264.652374 108.0
264.885559 136.0
265.057251 64.0
265.196625 216.0
265.326263 128.0
265.348969 188.0
265.485138 120.0
265.84848 64.0
265.906891 100.0
265.958832 84.0
266.088165 212.0
266.273743 204.0
266.437927 132.0
266.751373 204.0
266.878174 116.0
267.086273 168.0
267.161102 72.0
267.327026 172.0
267.579559 168.0
267.688354 200.0
267.90799 168.0
267.939148 60.0
268.170502 112.0
268.211029 148.0
268.336761 60.0
268.447632 104.0
268.578064 88.0
268.623749 108.0
268.767273 112.0
269.123047 124.0
269.162231 116.0
269.354919 128.0
269.426788 244.0
269.563995 124.0
269.59668 124.0
269.659637 184.0
269.740479 176.0
269.818939 160.0
269.851654 156.0
270.098175 96.0
270.198303 108.0
270.276825 164.0
270.384827 120.0
270.584503 152.0
270.813721 192.0
271.269165 212.0
271.620026 140.0
271.766571 196.0
272.292847 216.0
272.565521 188.0
272.820404 216.0
273.371124 144.0
273.762878 136.0
273.835327 180.0
274.148285 136.0
274.172333 240.0
274.192566 92.0
274.375702 184.0
274.454834 128.0
274.510895 108.0
274.682404 208.0
274.751678 132.0
274.844055 60.0
275.151001 152.0
275.286346 176.0
275.703369 212.0
275.738953 152.0
275.768677 52.0
276.003387 168.0
276.390381 152.0
276.574677 244.0
276.744537 168.0
276.883636 124.0
276.929993 160.0
276.953186 68.0
277.01944 92.0
277.228149 60.0
277.354095 80.0
277.625946 116.0
277.688965 136.0
278.243958 124.0
278.346039 104.0
278.397949 132.0
278.435699 124.0
278.565216 56.0
278.724701 184.0
278.77121 180.0
278.847656 224.0
278.960663 84.0
279.213348 224.0
279.289856 76.0
279.36969 96.0
279.75238 164.0
279.818939 164.0
279.882202 192.0
280.022064 136.0
280.078705 140.0
280.15863 156.0
280.311981 172.0
280.341888 100.0
280.46521 140.0
280.62854 168.0
280.875122 68.0
280.93869 140.0
281.152252 140.0
281.182281 124.0
281.249023 104.0
281.319122 152.0
281.359192 132.0
281.686432 112.0
282.068329 188.0
282.110321 160.0
282.243195 196.0
282.277618 176.0
282.38501 52.0
282.549438 128.0
282.655975 204.0
282.786499 60.0
282.833344 208.0
282.866821 128.0
282.890259 64.0
283.246765 160.0
283.290558 164.0
283.389252 60.0
283.426086 116.0
283.466309 164.0
283.493103 204.0
283.585114 152.0
283.684174 148.0
283.802521 172.0
283.835022 64.0
283.913116 112.0
283.962463 136.0
284.046295 60.0
284.126831 160.0
284.152466 152.0
284.24762 168.0
284.294586 100.0
284.392303 136.0
284.428833 96.0
284.464722 156.0
284.539612 144.0
284.569824 172.0
284.600037 104.0
284.633575 168.0
284.670563 56.0
284.694061 68.0
284.727631 116.0
284.767944 164.0
284.811615 80.0
284.850647 232.0
284.901306 40.0
284.951111 168.0
284.976227 116.0
285.020599 260.0
285.05014 132.0
285.083008 148.0
285.127411 180.0
285.164673 132.0
285.19812 112.0
285.277313 108.0
285.314789 276.0
285.36795 296.0
285.419708 176.0
285.48111 184.0
285.545685 108.0
285.578918 452.0
285.62146 136.0
285.660675 276.0
285.694946 208.0
285.760834 240.0
285.829834 268.0
285.882385 392.0
285.892822 128.0
285.90274 168.0
285.942474 172.0
285.966278 432.0
286.032135 268.0
286.058044 420.0
286.066467 300.0
286.166443 255276.0
286.237518 452.0
286.250488 80.0
286.261902 280.0
286.268951 164.0
286.282135 304.0
286.334045 216.0
286.394928 248.0
286.425079 212.0
286.433594 116.0
286.489624 208.0
286.526276 292.0
286.571625 228.0
286.601166 144.0
286.610992 64.0
286.622925 156.0
286.678314 280.0
286.722687 2576.0
286.780731 328.0
286.812531 112.0
286.844849 172.0
286.882782 144.0
286.891815 96.0
286.926331 208.0
286.939117 128.0
286.946411 168.0
286.964203 92.0
286.974091 164.0
287.008575 532.0
287.037659 156.0
287.098816 236.0
287.169098 46048.0
287.25766 220.0
287.280731 152.0
287.316406 268.0
287.366852 72.0
287.408508 148.0
287.428558 252.0
287.462921 136.0
287.493225 180.0
287.537933 216.0
287.593872 120.0
287.622345 152.0
287.653229 80.0
287.701508 184.0
287.734039 188.0
287.781372 232.0
287.818542 68.0
287.860657 148.0
287.907471 112.0
287.954865 128.0
288.008698 152.0
288.029999 184.0
288.060669 348.0
288.108276 160.0
288.169586 5148.0
288.229584 56.0
288.26236 140.0
288.282776 68.0
288.336151 72.0
288.380463 136.0
288.411438 88.0
288.440887 88.0
288.469208 52.0
288.568237 208.0
288.608032 52.0
288.649811 100.0
288.686218 264.0
288.705444 116.0
288.773956 296.0
288.799561 144.0
288.815796 152.0
288.843933 144.0
288.899017 120.0
288.937073 88.0
288.950043 60.0
288.958344 156.0
288.996948 304.0
289.06842 248.0
289.170074 1140.0
289.218903 200.0
289.248779 84.0
289.257294 184.0
289.318787 84.0
289.349884 232.0
289.400085 240.0
289.511688 236.0
289.561829 20.0
289.597504 64.0
289.642029 48.0
289.686249 132.0
289.743378 108.0
289.784027 56.0
289.820892 68.0
289.83078 60.0
289.917999 128.0
289.94104 216.0
289.989319 132.0
290.061493 96.0
290.079285 96.0
290.117859 120.0
290.164398 116.0
290.203949 280.0
290.21579 176.0
290.363678 108.0
290.438293 60.0
290.494354 84.0
290.533264 72.0
291.201965 124.0
291.381989 72.0
291.40918 104.0
291.432953 112.0
291.463898 96.0
291.497498 64.0
291.558685 36.0
291.636841 100.0
291.779602 72.0
292.092468 48.0
292.225128 72.0
292.374146 56.0
292.779968 36.0
292.926422 64.0
293.093353 68.0
293.505798 84.0
293.983337 104.0
294.184723 72.0
294.379333 84.0
294.495453 68.0
294.529602 36.0
294.666229 76.0
294.895172 60.0
295.214264 84.0
295.524384 64.0
295.712585 104.0
295.794739 64.0
295.921417 52.0
296.072083 48.0
296.281006 68.0
296.332397 68.0
296.400909 68.0
296.585968 60.0
296.647675 56.0
296.685394 68.0
297.21698 52.0
297.48468 68.0
297.783386 84.0
297.869263 104.0
297.898621 88.0
297.931091 76.0
298.030731 96.0
298.116638 60.0
298.298798 124.0
298.422546 120.0
298.615112 72.0
298.661469 116.0
298.86969 132.0
299.069275 120.0
299.144989 60.0
299.253906 120.0
299.454895 68.0
299.485901 108.0
299.599548 64.0
299.81662 64.0
299.864075 120.0
300.262268 76.0
300.409668 80.0
300.462646 100.0
300.571808 68.0
300.613068 84.0
300.999817 96.0
301.169037 148.0
301.324493 56.0
301.466156 108.0
302.01239 108.0
302.158386 140.0
302.330688 44.0
302.53064 52.0
302.777283 132.0
302.860382 108.0
302.967773 68.0
303.050934 32.0
303.213776 112.0
303.265778 72.0
303.466827 92.0
303.678345 144.0
304.059998 48.0
304.108582 96.0
304.175751 652.0
304.209229 172.0
305.001221 48.0
305.180511 272.0
305.258484 128.0
305.929962 60.0
306.08316 104.0
306.668427 100.0
307.17749 240.0
307.190643 140.0
307.199219 220.0
307.491516 48.0
307.697449 88.0
307.906952 60.0
308.214355 144.0
308.845032 64.0
309.764191 40.0
310.815948 92.0
311.01947 60.0
311.184479 40.0
312.358215 100.0
312.456726 92.0
313.389709 56.0
316.667847 44.0
317.220612 128.0
317.582275 52.0
318.910156 60.0
319.034576 168.0
321.742004 28.0
322.456421 56.0
323.507996 128.0
324.012939 112.0
324.10968 88.0
324.927124 80.0
325.207001 160.0
326.101318 68.0
326.199432 136.0
327.277649 72.0
328.452454 52.0
330.920654 120.0
334.97348 140.0
336.140137 92.0
339.861389 80.0
340.022827 36.0
340.327515 60.0
342.11795 100.0
342.957794 96.0
343.392853 52.0
344.016418 68.0
344.544495 76.0
345.050812 72.0
345.124756 52.0
346.090454 68.0
347.219574 336.0
347.550781 40.0
348.653656 72.0
349.166687 96.0
350.327972 124.0
350.585052 68.0
351.905487 36.0
352.469482 60.0
355.49881 32.0
356.591644 48.0
357.392639 64.0
358.929382 84.0
361.762939 40.0
362.099915 68.0
362.516632 84.0
362.626526 76.0
363.274902 92.0
365.231659 340.0
365.291992 76.0
366.20929 160.0
366.251495 156.0
366.289276 56.0
367.013367 64.0
367.173523 36.0
367.558807 48.0
368.64328 60.0
371.326874 72.0
371.810272 132.0
377.67804 64.0
377.794067 76.0
378.711456 52.0
380.720398 40.0
381.248718 80.0
382.516632 32.0
383.252686 156.0
384.098633 64.0
385.008026 68.0
388.140564 100.0
389.441406 48.0
392.357208 84.0
393.868561 132.0
399.282562 36.0
400.313263 60.0
400.635864 80.0
404.285217 80.0
405.671021 108.0
405.77124 76.0
406.685852 68.0
407.147552 80.0
407.187683 72.0
407.641632 76.0
410.096527 84.0
411.12088 68.0
412.2276 68.0
413.234528 176.0
413.950562 64.0
414.250275 148.0
414.371796 108.0
415.210876 48.0
416.148224 148.0
416.241608 132.0
416.477142 92.0
419.048065 184.0
419.577881 164.0
420.161072 204.0
421.075378 44.0
423.205841 84.0
423.574432 56.0
426.721985 100.0
429.28717 72.0
429.703766 76.0
429.784546 132.0
430.804688 112.0
431.248932 104.0
434.760101 120.0
436.375916 124.0
436.463226 80.0
436.733521 92.0
438.294647 72.0
438.96991 56.0
441.166016 116.0
443.065918 68.0
444.258881 188.0
444.332001 36.0
445.158844 48.0
445.21344 72.0
448.828094 72.0
451.484161 40.0
451.805603 140.0
451.907135 132.0
452.122955 52.0
452.671844 96.0
453.94873 136.0
454.05899 36.0
454.805725 124.0
455.907196 80.0
458.552765 116.0
458.885254 72.0
462.037079 48.0
463.578461 124.0
464.796265 48.0
465.242615 40.0
465.345642 108.0
467.67984 48.0
468.760803 144.0
468.915955 88.0
469.830048 112.0
470.296082 164.0
471.928986 68.0
472.824402 112.0
473.621033 100.0
474.249298 104.0
474.600433 216.0
475.112213 116.0
476.840363 80.0
477.344635 52.0
477.762177 112.0
477.910095 48.0
478.279999 100.0
479.085571 92.0
479.499512 92.0
486.765869 104.0
488.097107 72.0
488.968109 40.0
490.835907 84.0
491.171082 100.0
492.870728 100.0
494.728241 92.0
494.856628 84.0
494.993896 28.0
495.733643 88.0
495.902039 88.0
498.19165 80.0
500.344025 108.0
503.018707 92.0
503.16156 48.0
503.509857 76.0
506.470642 100.0
507.931854 116.0
514.22644 48.0
516.209656 76.0
516.277527 164.0
517.638733 168.0
519.77002 112.0
523.160461 68.0
523.574829 128.0
523.852661 60.0
524.385742 128.0
525.179077 48.0
525.521179 60.0
528.184509 76.0
528.349182 76.0
529.232483 108.0
529.704163 136.0
529.841614 144.0
532.769592 180.0
533.375 236.0
534.948181 96.0
536.288574 140.0
536.334656 108.0
537.044678 52.0
537.547546 80.0
538.632507 88.0
540.318359 80.0
541.53717 72.0
541.805847 104.0
543.405273 100.0
543.925049 128.0
547.952148 112.0
553.280823 88.0
554.315918 124.0
556.651917 76.0
558.31543 148.0
558.384216 212.0
559.367371 116.0
560.848328 116.0
562.135864 120.0
562.588928 44.0
564.469299 76.0
565.13623 112.0
565.704163 112.0
566.878723 68.0
567.219971 96.0
567.286316 132.0
569.055847 100.0
571.765259 88.0
572.107971 128.0
573.794434 100.0
575.320984 48.0
578.121826 44.0
579.060181 132.0
582.119751 40.0
582.619263 132.0
584.244141 52.0
586.473572 92.0
588.861877 88.0
590.185913 52.0
591.768066 60.0
593.745056 116.0
601.031982 92.0
601.759216 64.0
601.949646 120.0
601.983826 48.0
602.653015 64.0
602.900696 64.0
603.425232 112.0
606.175964 44.0
606.989685 112.0
609.070496 64.0
610.36145 152.0
610.864624 120.0
611.336975 160.0
611.602722 60.0
611.686401 156.0
612.351074 100.0
613.321716 80.0
614.825928 60.0
616.045471 128.0
618.196228 48.0
620.821655 96.0
622.702576 48.0
623.368225 120.0
623.850342 92.0
624.745422 108.0
625.257935 40.0
628.357239 76.0
630.929199 84.0
631.884399 76.0
632.174622 136.0
632.635071 80.0
636.66626 60.0
640.730347 80.0
642.600769 100.0
643.085205 152.0
646.364929 100.0
646.516785 64.0
647.134277 116.0
649.957458 104.0
650.368469 100.0
650.860901 36.0
651.418152 144.0
652.476562 184.0
652.649414 36.0
656.509155 88.0
658.989868 68.0
662.560913 168.0
662.893921 64.0
663.14502 32.0
664.934937 124.0
668.379395 112.0
668.412964 172.0
668.820496 60.0
669.404785 112.0
669.752441 76.0
669.798828 80.0
670.040894 84.0
670.411865 132.0
670.535583 88.0
680.622925 108.0
682.618225 72.0
683.153931 100.0
684.26239 36.0
684.434265 52.0
686.407349 624.0
687.024475 96.0
687.404358 224.0
688.425049 196.0
688.67395 80.0
689.427795 120.0
690.335815 136.0
691.198914 40.0
691.826965 96.0
694.378723 100.0
695.407043 148.0
698.433411 52.0
699.348877 92.0
699.606812 44.0
699.75946 92.0
701.300049 144.0
702.104309 92.0
702.420715 140.0
704.104431 40.0
704.421936 2496.0
704.986633 88.0
705.171631 72.0
705.263123 64.0
705.422058 696.0
705.513977 52.0
705.657898 64.0
705.763672 60.0
706.012207 32.0
706.276611 32.0
706.423706 320.0
706.562256 72.0
706.631042 56.0
706.869141 84.0
707.423767 140.0
707.55719 68.0
707.594299 56.0
707.917236 28.0
708.035217 44.0
711.867859 108.0
711.96875 48.0
712.324585 48.0
714.291321 88.0
716.425903 136.0
716.471802 124.0
716.734924 128.0
717.451477 128.0
718.216919 84.0
718.355652 68.0
718.414307 28.0
718.483643 132.0
723.357239 52.0
724.926453 52.0
729.407837 84.0
729.46698 100.0
731.801758 80.0
732.426392 116.0
732.905884 76.0
734.749756 176.0
735.321716 148.0
736.817444 72.0
743.824707 140.0
744.606567 120.0
748.957642 156.0
750.799744 200.0
754.337769 88.0
755.951172 96.0
759.468323 52.0
761.416687 60.0
763.631531 56.0
764.902527 40.0
765.513611 96.0
766.681458 168.0
768.523193 100.0
770.273193 32.0
773.502441 120.0
774.515686 44.0
776.056274 100.0
778.142395 84.0
778.37561 88.0
779.936646 64.0
780.537048 84.0
780.915222 116.0
782.935425 56.0
786.447815 108.0
786.492432 64.0
787.482178 192.0
788.704285 148.0
789.45343 176.0
790.409973 72.0
790.689758 120.0
791.087158 104.0
792.425598 64.0
792.498474 44.0
796.537598 88.0
797.498413 60.0
797.981873 96.0
798.336121 168.0
798.926697 228.0
802.908875 72.0
803.061157 112.0
804.471741 180.0
804.516907 140.0
805.454285 48.0
808.314941 64.0
808.439453 108.0
809.645203 208.0
810.421265 76.0
811.339355 204.0
812.127563 80.0
817.16626 104.0
818.331299 220.0
818.925171 140.0
819.842407 64.0
821.803955 112.0
824.024841 84.0
824.539124 232.0
825.75116 72.0
826.117188 100.0
826.511963 188.0
826.780884 124.0
830.889221 60.0
831.738464 124.0
832.019775 120.0
832.708801 224.0
832.812195 44.0
835.962646 116.0
838.121948 84.0
839.551453 64.0
840.820618 128.0
840.907227 96.0
841.028442 108.0
842.419983 72.0
842.97467 192.0
843.489014 84.0
844.511047 560.0
844.992554 96.0
846.502319 128.0
846.595886 52.0
848.142761 132.0
848.365662 208.0
849.348755 76.0
852.390869 60.0
852.942993 56.0
853.128967 76.0
853.553406 80.0
853.605713 48.0
853.716187 104.0
854.152405 68.0
855.158997 32.0
855.380188 124.0
855.543152 120.0
857.156433 56.0
857.342896 180.0
857.418701 116.0
857.815002 96.0
859.622986 76.0
860.399292 108.0
860.445984 56.0
860.65033 156.0
860.848877 80.0
860.907227 72.0
861.07074 96.0
861.596436 108.0
861.775085 144.0
861.865234 76.0
862.204163 144.0
862.513123 5276.0
862.643921 116.0
862.750854 56.0
862.864624 76.0
863.060242 48.0
863.121887 128.0
863.361633 40.0
863.517395 2172.0
863.706726 164.0
863.887695 140.0
864.12207 108.0
864.203979 128.0
864.259521 56.0
864.34613 172.0
864.522339 1640.0
864.641235 148.0
864.833557 76.0
864.940796 48.0
865.034973 56.0
865.521851 340.0
865.585266 40.0
866.001099 164.0
866.141663 92.0
866.229492 44.0
866.375977 96.0
866.557068 44.0
866.909119 48.0
866.961853 84.0
867.254944 68.0
867.506958 108.0
867.600769 40.0
868.140198 76.0
868.955444 168.0
869.606812 108.0
869.700745 44.0
869.976624 100.0
870.352356 148.0
870.892639 68.0
871.720947 36.0
872.2323 124.0
872.526184 48.0
872.579102 32.0
872.714355 84.0
873.631775 176.0
874.549683 44.0
875.839172 148.0
876.239746 176.0
876.333984 72.0
876.69342 168.0
877.571716 92.0
878.208557 128.0
878.869263 92.0
879.37085 140.0
879.801758 184.0
880.858765 56.0
881.31958 96.0
881.662292 164.0
881.792297 196.0
882.070129 192.0
882.489868 208.0
883.643127 132.0
886.526672 76.0
887.249817 60.0
887.943542 220.0
888.168945 220.0
888.364685 216.0
888.685059 152.0
889.711731 48.0
890.37677 116.0
890.602478 144.0
891.297485 172.0
892.599243 168.0
894.288757 124.0
894.872131 84.0
895.294861 40.0
895.961975 180.0
896.5578 60.0
896.969055 184.0
897.517517 156.0
898.185425 204.0
898.847656 176.0
899.614868 144.0
900.77002 152.0
901.337585 168.0
905.375366 216.0
906.62738 56.0
906.777222 168.0
907.208801 124.0
908.246155 168.0
908.624084 152.0
908.906067 144.0
911.896606 140.0
912.347412 112.0
913.291504 52.0
913.36969 144.0
913.869019 108.0
915.37085 140.0
915.566467 144.0
915.825439 220.0
916.301331 104.0
916.488098 196.0
917.024414 96.0
917.084656 100.0
919.044556 120.0
919.684204 120.0
921.000488 52.0
921.35083 92.0
921.973145 180.0
922.674316 140.0
923.811218 196.0
923.986633 168.0
924.664368 128.0
924.845947 128.0
925.741943 168.0
925.863037 168.0
925.972046 216.0
927.36554 112.0
928.123291 160.0
928.347656 68.0
928.572021 136.0
928.838867 160.0
929.530518 152.0
930.015991 136.0
930.283081 176.0
930.416626 204.0
930.56842 152.0
931.327454 152.0
931.394287 124.0
931.643311 148.0
931.928894 120.0
932.652039 132.0
932.822205 116.0
933.367004 124.0
933.413757 108.0
934.014038 180.0
934.677124 164.0
935.023987 160.0
935.395264 164.0
936.022339 152.0
936.119751 116.0
936.807983 72.0
937.545227 72.0
938.008423 172.0
938.86261 192.0
940.155273 132.0
940.558105 132.0
941.144165 168.0
942.13855 160.0
943.94873 168.0
944.205566 176.0
944.480835 132.0
946.371765 112.0
946.414612 100.0
946.537048 100.0
947.283936 164.0
948.503662 108.0
948.632385 140.0
948.81012 112.0
949.411011 180.0
949.472351 104.0
950.214539 116.0
951.012268 172.0
951.171875 192.0
951.300781 76.0
951.589294 104.0
952.006836 52.0
954.741455 148.0
954.87677 124.0
956.402588 76.0
956.901184 208.0
957.02887 180.0
957.110535 76.0
957.363037 124.0
957.566223 184.0
958.804565 184.0
959.254456 56.0
961.036743 160.0
961.228027 116.0
961.511902 84.0
962.876282 308.0
963.215942 128.0
963.463074 104.0
963.938782 220.0
964.031494 168.0
964.216858 164.0
964.711365 152.0
967.804688 92.0
968.002808 164.0
968.646912 148.0
968.696472 152.0
969.706421 148.0
970.413086 192.0
970.915344 100.0
971.231628 176.0
971.988464 140.0
972.497375 300.0
974.434753 184.0
975.012634 152.0
975.124512 188.0
975.18042 128.0
976.218628 180.0
976.398987 176.0
977.500061 152.0
977.552979 120.0
979.205811 100.0
979.604431 140.0
979.909668 40.0
980.20874 136.0
980.507874 92.0
981.293274 128.0
982.347168 208.0
983.439148 192.0
983.882324 200.0
984.375549 172.0
985.412415 164.0
986.724854 224.0
987.281311 260.0
987.351379 156.0
987.656555 188.0
987.931824 216.0
988.357239 104.0
989.170837 176.0
989.440002 176.0
989.727966 156.0
990.046082 236.0
990.160034 136.0
990.297852 112.0
990.629822 160.0
991.676208 172.0
991.776489 124.0
992.384583 184.0
992.654175 180.0
992.785889 140.0
993.23114 152.0
993.877319 140.0
994.486023 204.0
994.586426 84.0
995.032166 164.0
995.396301 88.0
996.350952 172.0
997.783813 176.0
998.330872 120.0
1000.394531 112.0
1000.470093 220.0
1001.143799 76.0
1001.408264 212.0
1001.471252 180.0
1001.546875 136.0
1001.633118 172.0
1002.693542 176.0
1002.880249 128.0
1003.10321 40.0
1003.607544 180.0
1003.723755 184.0
1005.910217 48.0
1006.604675 196.0
1007.811096 144.0
1008.56311 132.0
1008.93689 156.0
1009.0625 140.0
1009.796021 188.0
1010.099609 144.0
1011.099304 156.0
1011.295471 144.0
1011.39679 156.0
1011.573975 212.0
1011.713257 48.0
1012.245117 200.0
1012.35907 144.0
1012.637695 140.0
1013.290161 96.0
1013.557922 168.0
1013.733704 196.0
1014.113953 132.0
1014.50061 164.0
1014.646362 48.0
1015.616577 100.0
1016.13678 152.0
1016.504761 172.0
1016.676086 152.0
1016.764954 132.0
1016.815735 116.0
1017.99646 120.0
1018.072693 152.0
1018.453735 124.0
1019.635498 140.0
1020.360107 204.0
1020.88147 148.0
1021.422058 128.0
1021.555664 144.0
1021.676514 140.0
1021.918274 124.0
1022.007324 152.0
1022.172791 188.0
1022.293701 212.0
1022.338257 96.0
1022.54187 200.0
1023.025635 152.0
1023.210205 148.0
1023.439453 208.0
1024.318237 48.0
1024.579468 132.0
1025.280396 136.0
1025.331299 156.0
1026.128052 52.0
1026.370361 120.0
1026.544922 192.0
1026.950684 160.0
1027.276001 132.0
1027.875732 164.0
1028.162842 136.0
1028.437256 168.0
1028.520264 184.0
1028.660645 164.0
1028.935181 124.0
1030.116577 64.0
1030.231567 136.0
1030.506348 148.0
1031.362549 128.0
1032.686035 144.0
1033.204224 140.0
1034.311279 240.0
1035.553345 136.0
1035.668701 144.0
1036.507935 180.0
1036.661621 148.0
1036.994873 60.0
1037.071777 156.0
1037.219238 160.0
1037.563599 160.0
1037.853882 160.0
1038.815918 112.0
1039.290649 116.0
1040.195557 168.0
1040.587158 44.0
1040.657715 40.0
1040.773315 188.0
1041.132935 140.0
1041.383423 208.0
1041.724487 196.0
1041.800903 148.0
1042.070679 68.0
1042.212036 56.0
1042.584717 160.0
1042.777588 156.0
1044.384888 200.0
1044.545654 52.0
1045.700439 164.0
1046.862671 200.0
1047.075195 148.0
1047.629028 108.0
1047.983398 132.0
1048.157349 152.0
1048.930786 172.0
1049.021606 120.0
1049.897827 212.0
1050.013916 160.0
1050.123535 156.0
1050.41394 168.0
1050.478271 44.0
1051.626831 224.0
1052.298218 120.0
1052.65979 176.0
1052.918091 92.0
1053.550781 176.0
1054.390991 84.0
1054.623657 148.0
1054.804688 124.0
1056.2854 160.0
1056.466553 164.0
1056.641235 144.0
1057.327148 120.0
1057.592407 120.0
1057.987305 160.0
1058.200928 200.0
1058.81604 120.0
1060.053345 196.0
1060.643188 224.0
1061.025635 112.0
1061.473022 180.0
1062.004761 44.0
1062.471802 92.0
1062.549683 140.0
1063.166016 104.0
1063.328247 148.0
1063.892944 48.0
1064.156372 360.0
1064.269531 136.0
1064.483765 160.0
1065.217651 120.0
1065.282715 100.0
1065.740723 144.0
1066.036377 188.0
1066.289795 152.0
1067.199829 180.0
1067.277832 88.0
1068.487549 224.0
1069.108765 160.0
1070.101562 136.0
1070.153687 184.0
1070.440186 124.0
1070.895996 44.0
1071.065308 76.0
1071.176147 176.0
1071.299805 164.0
1071.41687 168.0
1071.801514 204.0
1072.016602 176.0
1072.088257 160.0
1073.398438 124.0
1075.120605 200.0
1075.381592 104.0
1075.590454 156.0
1075.783936 88.0
1076.948608 112.0
1077.595337 116.0
1078.085327 148.0
1078.189941 148.0
1078.372925 172.0
1078.729614 180.0
1078.94165 172.0
1079.046265 148.0
1079.229248 128.0
1079.327393 120.0
1080.890503 196.0
1081.394531 200.0
1081.558105 164.0
1081.767578 148.0
1082.173462 164.0
1082.337158 108.0
1083.630005 104.0
1083.869873 104.0
1083.928833 228.0
1084.380981 144.0
1084.938232 124.0
1085.397095 68.0
1085.53479 216.0
1085.633057 192.0
1085.849609 160.0
1086.472778 184.0
1086.831177 216.0
1087.082642 204.0
1087.936157 156.0
1088.428589 132.0
1088.592773 96.0
1088.776611 128.0
1089.067017 196.0
1089.499146 120.0
1089.61731 176.0
1089.669922 164.0
1090.195557 160.0
1090.269409 200.0
1091.201172 88.0
1091.477417 308.0
1091.911377 196.0
1092.871826 228.0
1093.025879 232.0
1093.088867 92.0
1093.457397 124.0
1093.858887 196.0
1094.036621 208.0
1094.122192 112.0
1094.438232 164.0
1094.521851 176.0
1094.544434 124.0
1094.559082 192.0
1094.688477 40.0
1094.958496 140.0
1095.13623 188.0
1095.491943 136.0
1095.959717 232.0
1096.16394 160.0
1096.467163 104.0
1096.658203 188.0
1097.442749 108.0
1097.548218 212.0
1097.772339 200.0
1097.950439 124.0
1098.247192 140.0
1098.636353 200.0
1098.774902 228.0
1099.11145 148.0
1099.296143 196.0
1099.355591 208.0
1099.422729 232.0
1099.850586 44.0
1100.0354 184.0
1100.121216 80.0
1100.979492 180.0
1101.217285 92.0
1101.679688 160.0
1101.924072 220.0
1102.756714 148.0
1103.120239 128.0
1103.622681 180.0
1103.761475 172.0
1104.343506 68.0
1104.614624 120.0
1105.812256 236.0
1106.275513 260.0
1106.778687 192.0
1106.864746 164.0
1106.962036 188.0
1107.507202 156.0
1107.652832 140.0
1108.23584 120.0
1108.832275 36.0
1109.329346 152.0
1111.113281 148.0
1111.942627 148.0
1112.267822 156.0
1112.334229 148.0
1112.473633 40.0
1112.805542 220.0
1113.296997 156.0
1113.396606 180.0
1113.555908 40.0
1114.273315 144.0
1114.931152 124.0
1115.622437 180.0
1116.107666 144.0
1116.480103 160.0
1116.533325 136.0
1116.706177 148.0
1116.899048 68.0
1117.185181 156.0
1117.437988 116.0
1117.484497 100.0
1118.243042 128.0
1118.522583 48.0
1118.842163 44.0
1119.101807 172.0
1119.308228 144.0
1119.441406 172.0
1119.707764 120.0
1120.047485 88.0
1120.312866 164.0
1120.367188 168.0
1121.34375 196.0
1121.393311 212.0
1121.839966 164.0
1121.926514 176.0
1122.019897 224.0
1122.886719 88.0
1123.18689 88.0
1124.194336 112.0
1124.301025 200.0
1124.468872 140.0
1124.581421 112.0
1125.001831 32.0
1125.389038 124.0
1125.549316 204.0
1125.763062 64.0
1125.836426 100.0
1125.906006 168.0
1126.289307 228.0
1126.444214 132.0
1126.557861 80.0
1126.611206 152.0
1126.69812 236.0
1127.296509 256.0
1127.486572 124.0
1127.700439 196.0
1128.108154 236.0
1128.302002 108.0
1128.429077 144.0
1129.049316 172.0
1129.112183 120.0
1130.870605 108.0
1131.024536 224.0
1131.14502 136.0
1131.272217 168.0
1131.727417 96.0
1131.807861 148.0
1132.336792 144.0
1132.665039 224.0
1132.959717 196.0
1133.508789 164.0
1133.703491 180.0
1134.145752 148.0
1134.23291 120.0
1134.521118 168.0
1134.678711 136.0
1134.90332 156.0
1135.124634 192.0
1135.203003 172.0
1135.593994 168.0
1135.647705 44.0
1135.942749 120.0
1137.412354 200.0
1137.647217 108.0
1138.083618 128.0
1138.755127 148.0
1138.889526 52.0
1138.983521 40.0
1139.070801 100.0
1139.742676 208.0
1140.011475 136.0
1140.078613 156.0
1140.130127 196.0
1140.213013 132.0
1140.737305 188.0
1140.924438 160.0
1140.999512 228.0
1141.073364 88.0
1142.472168 52.0
1142.667358 132.0
1143.077759 172.0
1143.34021 156.0
1143.414185 40.0
1143.690186 128.0
1143.898804 56.0
1144.693237 96.0
1144.915527 160.0
1145.019409 168.0
1145.077148 124.0
1145.157959 320.0
1145.306152 132.0
1145.898926 188.0
1146.013428 200.0
1146.390747 180.0
1146.88269 80.0
1147.024292 188.0
1147.417236 192.0
1147.577026 112.0
1148.228638 208.0
1148.406494 168.0
1148.496582 148.0
1148.844971 128.0
1149.931274 128.0
1150.106812 148.0
1150.646851 192.0
1150.788574 52.0
1151.011353 168.0
1151.227539 152.0
1151.416626 132.0
1152.75415 172.0
1152.821777 176.0
1153.00415 176.0
1153.071777 52.0
1153.680054 220.0
1153.795044 136.0
1154.085693 128.0
1154.288574 176.0
1155.074951 92.0
1155.330078 192.0
1155.600708 152.0
1155.702271 48.0
1155.849976 152.0
1156.11499 124.0
1156.717285 292.0
1156.785034 156.0
1156.852783 192.0
1157.441772 180.0
1157.489136 120.0
1157.77356 236.0
1158.030884 172.0
1158.173096 80.0
1158.362793 172.0
1158.471191 164.0
1158.57959 156.0
1158.687988 200.0
1158.87085 92.0
1159.175781 204.0
1159.772095 96.0
1159.826416 152.0
1159.928101 204.0
1160.219482 248.0
1160.782227 156.0
1161.399414 124.0
1161.921753 204.0
1162.111694 192.0
1162.438843 164.0
1162.512085 132.0
1162.627441 144.0
1162.708862 148.0
1162.987061 204.0
1163.068604 288.0
1164.331421 164.0
1164.399292 188.0
1164.507935 124.0
1164.630249 76.0
1164.691284 128.0
1164.759277 200.0
1165.228027 168.0
1165.445435 144.0
1165.662842 132.0
1165.825928 216.0
1165.99585 36.0
1166.192871 176.0
1166.349243 248.0
1166.955322 72.0
1167.627441 264.0
1167.722656 180.0
1168.028687 140.0
1168.178345 188.0
1168.430054 164.0
1168.55249 140.0
1168.61377 192.0
1170.192749 268.0
1170.751099 164.0
1171.030273 128.0
1171.139282 192.0
1171.398071 156.0
1171.806885 148.0
1171.895386 124.0
1172.406494 92.0
1172.929199 196.0
1173.135742 172.0
1173.360718 204.0
1174.274414 220.0
1174.472168 120.0
1174.581299 136.0
1174.738281 60.0
1174.806519 204.0
1175.127075 68.0
1175.584229 208.0
1175.78894 120.0
1176.253052 108.0
1176.41687 172.0
1176.836426 188.0
1176.969971 132.0
1177.038208 160.0
1177.113281 168.0
1177.167969 172.0
1177.372803 188.0
1177.687012 180.0
1177.755249 160.0
1177.979736 84.0
1178.086426 224.0
1178.288086 232.0
1178.527222 132.0
1178.67749 216.0
1178.875732 156.0
1178.971313 164.0
1179.108032 176.0
1179.176392 120.0
1179.668457 180.0
1180.010376 52.0
1180.147095 76.0
1180.352173 48.0
1180.700928 144.0
1181.234375 164.0
1181.371216 216.0
1181.603882 124.0
1181.740601 212.0
1181.993774 180.0
1182.082764 144.0
1182.274414 72.0
1182.609741 60.0
1182.76709 168.0
1182.993042 48.0
1183.040894 188.0
1183.602295 180.0
1183.691406 156.0
1183.759888 88.0
1184.75293 148.0
1184.924194 212.0
1185.164062 208.0
1185.321655 156.0
1185.369629 148.0
1185.642578 120.0
1185.712158 196.0
1185.780762 200.0
1185.863037 140.0
1186.116577 160.0
1186.182617 172.0
1186.575928 124.0
1186.891235 252.0
1186.946167 136.0
1187.467285 48.0
1187.522217 240.0
1188.118896 244.0
1188.372803 224.0
1188.612915 56.0
1188.942261 60.0
1189.360962 112.0
1189.580566 116.0
1189.656128 100.0
1189.704224 176.0
1190.054688 140.0
1190.473145 164.0
1190.816528 212.0
1190.938599 196.0
1191.091309 148.0
1191.159912 124.0
1191.214844 144.0
1191.544678 132.0
1192.760986 192.0
1193.062866 148.0
1193.936646 256.0
1194.13916 176.0
1194.397461 116.0
1194.828003 280.0
1194.927124 132.0
1195.278076 132.0
1195.381226 196.0
1195.507935 176.0
1195.615234 196.0
1195.993774 148.0
1196.103882 188.0
1196.229126 164.0
1196.392944 140.0
1196.688965 192.0
1196.82666 160.0
1197.122803 140.0
1197.418945 236.0
1197.494629 76.0
1197.901001 140.0
1197.956177 188.0
1198.183472 156.0
1198.394897 160.0
1198.465942 124.0
1198.551636 180.0
1198.803589 164.0
1198.872559 184.0
1199.02417 156.0
1199.53418 132.0
1199.644409 132.0
1200.209839 144.0
1200.375244 44.0
1200.616577 172.0
1200.785645 200.0
1200.982178 64.0
1201.195923 252.0
1201.782349 148.0
1201.934204 76.0
1202.178101 128.0
1202.375854 180.0
1202.45166 144.0
1202.513794 92.0
1202.976318 128.0
1203.383179 248.0
1203.576904 184.0
1204.025757 224.0
1204.191528 128.0
1204.578247 180.0
1204.744141 196.0
1204.992798 164.0
1205.480347 156.0
1205.62854 84.0
1206.015503 72.0
1206.070801 120.0
1206.142212 252.0
1206.229736 76.0
1206.623779 140.0
1206.769043 176.0
1207.114746 120.0
1207.564209 144.0
1207.619507 136.0
1207.695679 72.0
1207.908569 172.0
1208.228271 124.0
1208.302612 200.0
1208.594971 124.0
1208.69873 128.0
1208.871704 144.0
1209.010132 148.0
1209.203857 188.0
1209.454468 240.0
1209.626099 180.0
1210.145264 72.0
1210.574585 144.0
1210.692383 184.0
1211.620483 76.0
1211.710571 144.0
1212.077759 136.0
1212.167847 216.0
1212.309326 156.0
1212.389526 32.0
1212.46582 168.0
1212.531494 156.0
1212.677856 168.0
1212.909424 192.0
1213.110352 212.0
1213.186646 192.0
1213.394653 104.0
1213.581787 156.0
1213.713501 172.0
1213.970093 216.0
1214.081055 156.0
1214.406982 192.0
1214.774658 168.0
1214.878662 216.0
1215.107666 128.0
1215.794556 52.0
1216.072144 148.0
1216.315063 140.0
1216.393677 200.0
1216.585815 128.0
1216.738525 148.0
1216.898193 216.0
1217.127319 180.0
1217.530029 96.0
1217.766235 180.0
1218.016235 200.0
1218.439941 76.0
1218.620605 196.0
1218.919434 140.0
1219.25293 160.0
1219.537842 220.0
1219.615967 184.0
1219.77417 116.0
1219.989746 172.0
1220.344238 220.0
1220.963135 116.0
1221.500732 164.0
1221.672607 124.0
1221.725342 216.0
1221.922974 244.0
1222.236084 80.0
1222.410034 164.0
1222.535278 168.0
1222.873657 168.0
1222.966797 184.0
1223.085083 128.0
1223.46106 128.0
1223.64209 140.0
1224.463501 148.0
1224.568115 68.0
1225.383179 140.0
1226.093872 148.0
1226.362549 180.0
1226.686279 172.0
1226.839722 132.0
1227.223145 176.0
1227.306763 132.0
1228.066895 204.0
1228.164551 232.0
1228.311035 36.0
1228.54126 160.0
1228.666748 208.0
1228.792358 176.0
1229.043579 212.0
1229.445679 168.0
1229.741333 120.0
1229.978638 380.0
1230.160889 232.0
1230.397583 68.0
1230.530151 156.0
1230.851318 184.0
1230.949097 156.0
1231.273071 208.0
1231.619507 164.0
1231.703369 108.0
1231.97583 132.0
1232.129517 132.0
1232.359985 160.0
1232.471802 148.0
1232.562622 108.0
1232.800171 212.0
1233.023804 152.0
1233.226562 124.0
1233.422241 172.0
1233.562012 300.0
1233.862671 68.0
1234.442993 240.0
1234.798584 224.0
1235.002441 156.0
1235.29541 132.0
1235.492065 140.0
1235.660034 112.0
1235.792969 132.0
1235.869873 36.0
1236.023804 196.0
1236.177734 96.0
1236.261719 116.0
1236.408691 100.0
1236.513672 120.0
1236.835571 184.0
1236.996582 148.0
1237.332642 260.0
1237.534058 164.0
1237.730225 148.0
1237.806396 168.0
1238.127319 152.0
1238.319946 164.0
1238.459961 160.0
1238.64209 148.0
1238.712158 176.0
1238.884033 180.0
1239.013428 176.0
1239.139526 168.0
1239.700073 80.0
1239.78418 176.0
1240.001343 140.0
1240.194092 336.0
1240.414917 132.0
1240.604126 80.0
1240.842529 76.0
1241.347412 144.0
1241.550659 156.0
1241.669922 136.0
1241.880371 148.0
1242.29248 224.0
1242.392334 168.0
1242.918579 96.0
1243.171143 144.0
1243.262451 132.0
1243.802856 148.0
1244.421631 104.0
1244.645264 100.0
1244.74353 208.0
1244.813843 140.0
1244.9823 136.0
1245.087646 216.0
1245.256226 212.0
1245.333496 100.0
1245.677612 48.0
1246.140503 164.0
1247.603027 40.0
1247.750732 128.0
1248.003784 156.0
1248.172607 132.0
1248.489014 200.0
1248.854736 208.0
1249.002441 144.0
1249.150146 40.0
1249.220459 172.0
1249.304932 176.0
1249.37561 88.0
1249.551147 168.0
1249.755127 48.0
1250.008423 184.0
1250.536255 124.0
1250.803711 112.0
1250.92334 120.0
1251.036011 176.0
1251.120483 208.0
1251.275391 56.0
1251.578125 192.0
1252.00769 120.0
1252.169678 76.0
1252.26123 116.0
1252.479492 120.0
1253.289673 96.0
1254.001343 136.0
1254.085938 164.0
1254.276245 152.0
1254.383789 160.0
1254.720337 168.0
1254.875488 120.0
1255.164551 164.0
1255.249146 140.0
1255.311279 180.0
1255.488892 116.0
1255.778076 144.0
1256.342407 168.0
1256.497559 192.0
1256.561035 208.0
1256.963257 160.0
1257.174927 132.0
1257.266724 164.0
1257.393677 204.0
1257.457275 136.0
1258.141846 116.0
1258.226562 132.0
1258.318359 128.0
1258.664307 132.0
1258.862061 108.0
1258.922485 144.0
1258.996216 192.0
1259.097656 248.0
1259.540039 184.0
1259.653076 156.0
1259.893311 180.0
1260.225342 176.0
1260.430176 156.0
1260.536255 140.0
1260.642212 140.0
1260.910767 144.0
1260.960205 168.0
1261.142334 208.0
1261.27124 176.0
1261.327759 120.0
1261.525635 52.0
1261.596313 136.0
1261.82251 192.0
1261.971069 172.0
1262.211426 32.0
1262.522583 112.0
1262.922241 148.0
1263.052979 180.0
1263.130859 172.0
1263.187378 56.0
1263.272339 132.0
1263.760376 196.0
1264.015137 144.0
1264.128418 124.0
1264.319458 216.0
1264.39917 92.0
1264.591675 144.0
1264.6521 92.0
1264.984741 196.0
1265.034302 164.0
1265.275024 196.0
1265.487427 168.0
1265.551147 132.0
1265.671509 144.0
1266.094238 152.0
1266.5354 136.0
1266.641724 60.0
1266.698364 184.0
1267.066772 204.0
1267.172974 208.0
1267.265137 168.0
1267.321777 140.0
1267.490234 180.0
1267.665649 196.0
1268.313843 140.0
1268.640015 124.0
1268.817139 220.0
1269.221313 120.0
1269.363159 144.0
1269.668091 184.0
1269.79187 228.0
1270.466431 188.0
1270.646851 164.0
1271.001709 144.0
1271.100952 136.0
1271.183594 348.0
1271.23584 176.0
1271.370605 116.0
1271.746826 224.0
1271.821167 172.0
1271.966797 172.0
1272.54187 144.0
1272.825806 220.0
1273.308716 140.0
1273.706421 164.0
1273.905396 224.0
1274.672607 112.0
1274.892944 128.0
1275.390381 224.0
1275.51123 164.0
1275.596558 148.0
1275.724487 152.0
1275.930664 164.0
1276.287231 52.0
1276.372925 184.0
1276.635376 136.0
1277.011475 144.0
1277.111084 228.0
1277.680176 112.0
1277.866211 128.0
1278.092773 228.0
1278.213745 200.0
1278.308105 244.0
1278.448608 136.0
1278.519775 152.0
1278.733276 208.0
1278.832886 152.0
1279.601685 116.0
1280.085815 212.0
1280.619873 212.0
1280.719604 132.0
1280.869263 120.0
1281.353638 172.0
1281.403442 132.0
1281.490112 148.0
1281.546021 128.0
1281.645752 128.0
1281.80957 140.0
1281.972046 132.0
1282.643433 160.0
1282.707642 148.0
1282.957153 92.0
1283.006958 148.0
1283.064087 136.0
1283.434814 92.0
1283.834106 116.0
1284.047974 128.0
1284.433228 96.0
1284.511597 204.0
1284.939697 208.0
1285.053833 172.0
1285.432007 176.0
1285.768188 180.0
1286.165405 224.0
1286.28125 108.0
1286.381226 164.0
1286.511475 176.0
1286.695312 148.0
1286.859497 96.0
1286.966797 140.0
1287.088013 60.0
1287.409302 132.0
1288.020874 188.0
1288.205322 168.0
1288.373535 176.0
1288.509277 48.0
1288.716431 152.0
1289.230957 188.0
1289.30957 216.0
1289.423828 136.0
1289.766968 140.0
1289.931396 132.0
1289.981323 136.0
1290.446289 148.0
1291.118164 172.0
1291.304199 132.0
1291.876343 188.0
1292.005127 264.0
1292.191162 148.0
1292.455811 64.0
1292.527466 124.0
1292.706299 184.0
1292.892334 176.0
1293.400513 144.0
1293.536499 52.0
1293.901611 252.0
1294.009033 208.0
1294.195068 52.0
1294.352661 140.0
1294.925537 340.0
1295.104614 148.0
1295.312256 144.0
1295.383911 88.0
1295.52002 172.0
1295.744629 168.0
1295.985718 64.0
1296.305298 100.0
1296.394165 232.0
1296.580444 156.0
1296.716675 144.0
1296.790405 196.0
1297.11084 180.0
1297.763184 164.0
1298.111938 156.0
1298.45874 68.0
1298.573486 192.0
1298.666748 88.0
1298.831787 180.0
1299.183228 132.0
1299.297974 152.0
1299.357788 152.0
1299.602173 248.0
1300.051392 112.0
1300.180542 168.0
1300.761963 144.0
1301.522949 108.0
1301.680908 156.0
1301.975342 164.0
1302.111694 152.0
1302.356323 140.0
1302.427734 144.0
1302.506714 156.0
1302.592896 148.0
1302.779663 180.0
1302.932617 172.0
1303.458984 176.0
1303.512573 168.0
1303.807129 100.0
1304.088501 184.0
1304.164185 244.0
1304.409546 168.0
1304.806274 160.0
1304.878174 148.0
1305.175293 164.0
1305.446167 184.0
1305.644897 172.0
1305.719482 216.0
1306.215698 188.0
1306.431519 108.0
1306.644653 108.0
1307.122192 132.0
1307.208618 184.0
1307.448242 188.0
1308.266602 132.0
1308.452271 192.0
1308.856934 116.0
1309.12085 196.0
1309.217041 124.0
1310.131714 84.0
1310.28894 160.0
1310.535156 164.0
1310.650391 132.0
1310.931519 144.0
1311.265381 132.0
1311.508057 196.0
1311.594482 124.0
1311.695435 192.0
1312.026978 136.0
1312.113525 136.0
1312.942749 148.0
1313.094116 144.0
1313.173462 64.0
1313.397095 156.0
1314.010254 180.0
1314.320557 240.0
1314.544189 40.0
1314.66687 104.0
1314.753418 120.0
1314.919434 204.0
1315.410278 160.0
1315.583496 76.0
1315.879517 72.0
1316.012817 136.0
1316.204224 180.0
1316.341553 120.0
1316.688232 96.0
1317.20105 136.0
1317.309326 148.0
1317.395996 92.0
1317.663086 228.0
1317.908936 232.0
1318.065552 180.0
1318.154663 116.0
1318.320801 192.0
1318.552124 144.0
1318.790649 232.0
1319.043579 156.0
1319.296631 72.0
1320.005127 160.0
1320.091919 128.0
1320.301636 136.0
1320.467896 132.0
1320.619873 188.0
1320.804443 176.0
1320.901855 116.0
1321.089966 112.0
1321.140625 96.0
1321.480591 156.0
1321.654297 116.0
1321.726685 160.0
1321.784546 192.0
1321.907593 236.0
1322.37793 140.0
1322.45752 176.0
1322.529907 204.0
1322.657715 160.0
1322.906372 116.0
1323.405884 144.0
1323.514404 52.0
1323.890991 264.0
1324.086548 172.0
1324.818115 176.0
1324.955078 144.0
1325.046387 352.0
1325.346924 152.0
1325.491333 164.0
1325.644043 44.0
1325.774536 168.0
1325.971191 140.0
1326.463013 168.0
1326.658691 184.0
1327.050171 212.0
1327.231445 140.0
1327.490356 164.0
1327.702759 244.0
1327.789795 180.0
1327.971191 92.0
1328.058228 176.0
1328.442627 164.0
1328.518799 124.0
1329.153564 160.0
1329.480103 164.0
1329.770386 188.0
1329.973633 144.0
1330.278564 96.0
1330.561646 168.0
1330.924683 160.0
1331.026245 132.0
1331.084351 140.0
1331.164307 148.0
1331.367554 116.0
1331.788818 172.0
1332.057617 36.0
1332.478882 64.0
1332.616943 164.0
1332.755005 180.0
1332.885742 176.0
1332.987549 44.0
1333.794189 68.0
1333.866943 192.0
1334.026855 196.0
1334.390259 188.0
1334.586548 76.0
1335.153809 200.0
1335.32019 104.0
1336.012085 128.0
1336.099365 212.0
1336.426758 80.0
1336.584229 196.0
1336.725586 160.0
1337.05249 208.0
1337.26355 156.0
1337.394653 56.0
1337.678467 224.0
1337.744019 240.0
1337.853149 176.0
1338.022705 112.0
1338.18811 188.0
1338.362793 196.0
1338.785156 144.0
1339.173462 208.0
1339.331299 96.0
1340.249268 156.0
1340.744751 164.0
1340.817627 204.0
1340.890503 180.0
1341.10791 144.0
1341.604858 156.0
1342.041016 272.0
1342.259277 136.0
1342.352661 160.0
1342.691284 184.0
1342.917358 176.0
1343.150757 144.0
1343.281982 136.0
1343.851074 148.0
1344.48584 188.0
1344.595337 172.0
1344.982178 196.0
1345.412842 84.0
1345.498901 188.0
1345.566162 216.0
1345.836304 176.0
1346.055298 132.0
1346.128418 148.0
1346.376587 136.0
1346.610352 124.0
1346.98645 204.0
1347.128906 132.0
1347.187378 172.0
1347.362671 140.0
1347.662231 196.0
1347.88147 164.0
1347.939941 116.0
1348.083984 116.0
1348.173706 180.0
1348.251587 184.0
1348.400269 160.0
1348.692627 148.0
1348.765747 140.0
1348.897339 156.0
1349.123901 128.0
1349.78186 140.0
1349.88916 132.0
1350.374268 164.0
1350.447388 136.0
1350.630249 164.0
1350.930176 76.0
1351.003296 164.0
1351.151245 180.0
1351.230103 168.0
1351.303223 168.0
1351.508057 204.0
1351.589111 252.0
1351.932495 112.0
1352.499146 144.0
1352.857422 164.0
1352.993774 160.0
1353.096313 108.0
1353.616089 176.0
1353.682007 92.0
1354.238892 184.0
1354.663452 160.0
1354.765991 80.0
1355.161621 172.0
1355.286133 172.0
1355.411011 184.0
1355.503296 108.0
1355.645264 108.0
1355.703857 144.0
1355.762451 48.0
1355.872437 124.0
1355.923706 136.0
1356.084961 116.0
1356.312134 128.0
1356.451416 264.0
1356.546753 120.0
1356.656616 140.0
1356.810547 96.0
1356.993896 48.0
1357.045166 184.0
1357.103882 184.0
1357.353149 160.0
1357.888428 176.0
1358.057129 152.0
1358.365234 180.0
1358.681274 104.0
1359.010864 84.0
1359.597778 160.0
1359.700562 224.0
1360.128906 244.0
1360.182617 208.0
1360.309814 176.0
1360.361206 132.0
1360.478638 188.0
1360.706177 184.0
1360.823608 136.0
1361.210938 140.0
1361.234009 104.0
1361.682739 168.0
1361.910522 128.0
1362.072021 180.0
1362.46875 100.0
1362.726685 172.0
1363.005127 180.0
1363.093262 92.0
1363.262207 160.0
1363.321045 160.0
1363.42395 204.0
1363.504761 108.0
1363.776733 172.0
1364.754395 124.0
1364.864746 96.0
1364.923462 136.0
1365.099976 164.0
1365.203003 156.0
1365.283813 92.0
1365.39978 84.0
1365.578003 128.0
1365.717773 240.0
1365.97522 124.0
1366.145508 172.0
1366.297485 152.0
1366.725586 180.0
1366.828613 144.0
1366.997803 60.0
1367.049316 160.0
1367.464111 120.0
1367.54248 208.0
1367.704346 132.0
1367.917847 200.0
1368.053345 196.0
1368.21228 164.0
1368.285889 188.0
1368.374268 116.0
1368.786499 156.0
1368.99231 132.0
1369.309448 128.0
1369.471436 148.0
1369.53772 80.0
1369.721802 248.0
1370.178589 100.0
1370.251099 160.0
1370.303833 212.0
1370.443848 192.0
1370.620605 120.0
1370.809326 196.0
1371.335449 112.0
1371.446045 152.0
1371.829346 192.0
1372.61084 160.0
1372.898315 144.0
1372.964722 156.0
1373.123291 144.0
1373.20813 156.0
1373.93103 128.0
1373.994751 200.0
1374.344116 152.0
1374.473389 176.0
1374.588501 204.0
1375.089478 84.0
1375.191406 204.0
1376.056396 224.0
1376.167114 184.0
1376.492065 148.0
1376.543701 136.0
1376.645142 148.0
1377.282227 168.0
1377.404663 156.0
1377.51123 120.0
1377.821533 140.0
1378.198242 68.0
1379.1073 140.0
1379.179932 248.0
1379.311401 180.0
1379.972168 52.0
1380.341797 164.0
1380.466553 172.0
1380.556274 212.0
1380.64502 212.0
1380.741211 52.0
1381.265747 216.0
1381.414185 200.0
1381.650879 140.0
1381.828491 192.0
1381.89502 144.0
1382.020874 168.0
1382.279785 184.0
1382.605469 176.0
1382.708984 196.0
1382.760864 84.0
1382.842285 156.0
1382.940186 152.0
1383.130859 192.0
1383.619507 304.0
1383.915649 200.0
1384.404297 152.0
1384.841309 64.0
1384.9375 64.0
1385.007812 208.0
1385.270874 132.0
1385.752441 156.0
1385.967285 96.0
1386.145142 212.0
1386.241455 140.0
1386.411865 140.0
1386.515625 180.0
1386.567505 104.0
1386.872314 164.0
1387.227173 144.0
1387.360596 68.0
1387.427246 136.0
1387.553345 80.0
1387.719727 136.0
1387.983398 168.0
1388.153931 120.0
1388.439331 196.0
1388.650757 40.0
1388.784302 40.0
1388.940063 136.0
1389.132935 172.0
1389.184814 128.0
1389.555786 108.0
1389.971191 112.0
1390.253174 200.0
1390.661377 80.0
1391.39624 120.0
1391.448242 64.0
1391.500244 132.0
1391.667725 116.0
1392.071899 184.0
1392.391235 208.0
1392.480347 176.0
1392.570557 172.0
1392.844238 148.0
1393.104248 40.0
1393.252808 68.0
1393.41626 68.0
1393.661499 140.0
1393.713501 180.0
1393.899292 136.0
1393.980957 272.0
1394.167114 180.0
1394.322876 136.0
1394.783569 232.0
1394.95459 172.0
1395.147827 156.0
1395.237061 164.0
1395.341187 220.0
1395.780029 116.0
1396.00293 144.0
1396.21106 88.0
1396.657349 88.0
1396.731689 168.0
1397.163208 200.0
1397.304565 112.0
1397.512817 212.0
1397.612305 172.0
1397.817871 168.0
1398.160156 128.0
1398.219727 156.0
1398.476562 176.0
1398.606812 208.0
1398.748169 248.0
1399.172485 212.0
1399.723511 140.0
1399.946899 220.0
1400.609741 248.0
1400.840576 60.0
1400.8927 184.0
1400.967285 132.0
1401.064087 124.0
1401.682495 104.0
1401.764404 156.0
1401.920898 196.0
1402.181763 156.0
1402.286133 204.0
1402.338257 136.0
1402.487305 56.0
1402.628906 112.0
1403.016602 204.0
1403.083618 196.0
1403.153442 196.0
1403.635376 108.0
1403.744019 180.0
1403.948608 136.0
1404.097778 64.0
1404.261841 44.0
1404.395996 272.0
1404.851074 88.0
1405.00769 156.0
1405.231567 204.0
1405.462769 128.0
1405.813477 112.0
1405.917969 116.0
1406.238892 176.0
1406.500122 164.0
1406.568359 220.0
1406.752686 144.0
1406.895752 28.0
1406.962891 92.0
1407.022705 88.0
1408.008301 128.0
1408.284668 140.0
1408.447754 200.0
1408.680542 172.0
1408.882202 152.0
1409.11377 116.0
1409.18103 140.0
1409.360352 88.0
1409.778809 108.0
1410.339355 180.0
1410.458862 116.0
1410.638306 132.0
1410.718384 144.0
1410.847656 52.0
1410.907349 136.0
1411.170898 144.0
1411.827026 136.0
1411.901855 152.0
1411.969116 136.0
1412.038696 256.0
1412.871338 148.0
1413.345581 124.0
1413.427856 84.0
1413.682251 108.0
1413.820679 152.0
1413.954102 208.0
1414.393311 64.0
1414.460571 52.0
1414.677734 148.0
1414.992188 120.0
1415.60498 208.0
1415.77832 48.0
1415.950562 196.0
1416.10791 152.0
1416.432495 160.0
1416.557251 204.0
1416.729492 180.0
1416.894409 128.0
1416.9729 116.0
1417.036743 136.0
1417.089111 140.0
1417.606201 172.0
1417.726562 160.0
1417.825439 212.0
1417.95166 140.0
1418.430542 304.0
1418.505493 88.0
1418.640503 168.0
1418.752197 120.0
1418.965576 188.0
1419.600098 96.0
1420.035034 164.0
1420.162598 172.0
1420.237549 188.0
1420.305054 72.0
1420.597656 184.0
1420.665161 144.0
1420.72522 32.0
1420.785156 156.0
1420.905273 132.0
1421.535522 156.0
1421.985718 180.0
1422.098267 148.0
1422.324829 164.0
1422.473022 224.0
1422.586182 148.0
1423.155029 160.0
1423.524658 212.0
1423.659912 188.0
1423.742432 76.0
1424.35083 208.0
1424.410889 236.0
1424.56604 180.0
1424.75647 176.0
1424.816528 140.0
1425.034424 184.0
1425.229736 140.0
1425.327515 172.0
1425.432617 212.0
1425.582886 164.0
1425.652954 152.0
1425.89856 224.0
1426.078979 108.0
1426.522461 196.0
1426.815552 164.0
1426.890747 128.0
1426.980957 56.0
1427.314819 232.0
1427.364502 208.0
1427.883301 40.0
1427.935913 148.0
1428.223633 176.0
1428.387207 124.0
1428.522705 124.0
1428.68811 160.0
1428.793457 156.0
1428.891235 136.0
1429.139526 132.0
1429.522217 252.0
1429.809204 160.0
1429.952515 136.0
1430.479126 160.0
1430.53186 80.0
1430.605103 152.0
1430.772705 244.0
1430.998535 172.0
1431.27356 204.0
1431.340454 136.0
1431.600952 180.0
1431.781616 248.0
1432.158203 196.0
1432.21875 148.0
1433.130005 128.0
1433.348511 164.0
1433.680054 124.0
1433.747925 192.0
1433.943848 172.0
1434.162354 160.0
1434.218262 168.0
1434.833252 208.0
1435.014282 196.0
1435.0896 144.0
1435.165039 100.0
1435.451538 56.0
1435.609863 104.0
1435.783325 112.0
1435.866333 164.0
1436.190674 164.0
1436.5979 88.0
1436.801636 156.0
1437.043091 180.0
1437.163818 108.0
1437.488159 184.0
1437.578735 32.0
1438.206665 188.0
1438.431641 132.0
1438.655518 276.0
1438.710938 144.0
1438.786377 132.0
1439.328003 156.0
1439.580566 204.0
1439.935669 132.0
1440.204346 168.0
1440.485474 132.0
1440.787598 128.0
1440.984131 140.0
1441.082275 72.0
1441.233398 112.0
1441.354248 176.0
1441.588501 204.0
1441.845459 128.0
1441.917114 144.0
1442.155396 144.0
1442.291382 172.0
1443.001953 148.0
1443.071411 192.0
1443.281738 204.0
1443.425415 152.0
1443.478271 92.0
1443.606812 160.0
1444.234619 68.0
1444.468994 224.0
1444.643066 156.0
1444.771606 120.0
1444.991089 112.0
1445.286133 132.0
1445.341797 144.0
1445.61145 180.0
1445.899048 40.0
1446.018677 292.0
1446.177124 224.0
1446.572632 136.0
1446.792236 120.0
1447.307007 132.0
1447.397827 136.0
1447.496948 184.0
1447.55957 324.0
1448.064209 96.0
1448.291504 164.0
1448.594482 128.0
1448.844482 120.0
1449.02124 36.0
1449.692993 172.0
1450.125 96.0
1450.314453 208.0
1450.439331 136.0
1450.519165 144.0
1450.776855 168.0
1450.875488 92.0
1451.019531 172.0
1451.208984 184.0
1451.360596 156.0
1451.588135 112.0
1451.785278 212.0
1452.081055 52.0
1452.141724 140.0
1452.27063 164.0
1452.414795 224.0
1452.475464 48.0
1452.748535 104.0
1452.862305 180.0
1453.188477 156.0
1453.370239 176.0
1453.46167 172.0
1453.87146 152.0
1453.954956 132.0
1454.144653 156.0
1454.494019 136.0
1455.30481 200.0
1455.327271 168.0
1455.412354 208.0
1455.541504 160.0
1455.655396 176.0
1455.814819 180.0
1455.86792 288.0
1456.11853 68.0
1456.384399 156.0
1456.6427 128.0
1456.824951 180.0
1456.963379 188.0
1457.098389 212.0
1457.265625 180.0
1457.665283 180.0
1457.843018 212.0
1458.215454 144.0
1458.428223 144.0
1458.613525 196.0
1458.686646 196.0
1458.891968 88.0
1458.998413 128.0
1459.157959 48.0
1459.249512 224.0
1459.363281 188.0
1459.581177 208.0
1459.979248 124.0
1460.199707 144.0
1460.275757 144.0
1460.33667 160.0
1460.496338 164.0
1460.549561 192.0
1460.747314 152.0
1460.808228 144.0
1460.975586 212.0
1461.508179 132.0
1461.56897 136.0
1461.645142 48.0
1461.979858 128.0
1462.033203 200.0
1462.147339 260.0
1462.208252 164.0
1462.322388 148.0
1462.413696 172.0
1462.748657 128.0
1462.870361 144.0
1462.923706 160.0
1463.037842 120.0
1463.174927 180.0
1463.745972 216.0
1463.94397 172.0
1464.003052 152.0
1464.187622 176.0
1464.437988 216.0
1464.515137 52.0
1465.246338 148.0
1465.307373 152.0
1466.046387 148.0
1466.122559 100.0
1466.557007 156.0
1466.668457 316.0
1466.793335 132.0
1466.886597 180.0
1467.044922 160.0
1467.174438 136.0
1467.250732 152.0
1467.403198 136.0
1467.532837 100.0
1467.610352 132.0
1467.753906 120.0
1467.883545 184.0
1468.020752 160.0
1468.257202 152.0
1468.325806 180.0
1468.409668 220.0
1468.516479 56.0
1468.724609 196.0
1468.958862 116.0
1469.035156 140.0
1469.72937 144.0
1469.813354 156.0
1470.065186 192.0
1470.126221 176.0
1470.400879 108.0
1470.523071 208.0
1470.751953 120.0
1470.980957 68.0
1471.187134 152.0
1471.301636 200.0
1471.370361 128.0
1471.632324 184.0
1471.690918 92.0
1471.774902 132.0
1471.996704 116.0
1472.066772 128.0
1472.355347 156.0
1472.645508 168.0
1472.752441 200.0
1472.813599 128.0
1472.958618 212.0
1473.180176 60.0
1473.264282 120.0
1473.378784 176.0
1474.739014 336.0
1475.082886 148.0
1475.144043 168.0
1475.388672 156.0
1475.541626 236.0
1475.644897 216.0
1475.771484 172.0
1475.832153 196.0
1475.923828 176.0
1475.977417 160.0
1476.389526 124.0
1476.526245 196.0
1476.633667 132.0
1476.858154 216.0
1477.139893 188.0
1477.514648 168.0
1478.847046 124.0
1479.205811 148.0
1479.481445 112.0
1479.657471 140.0
1479.764648 168.0
1480.499756 192.0
1480.767822 96.0
1480.897949 148.0
1480.973389 256.0
1481.081787 88.0
1481.242676 128.0
1481.334595 92.0
1481.549072 164.0
1481.748291 116.0
1481.817261 52.0
1482.598755 108.0
1482.843994 156.0
1482.936035 180.0
1483.070923 220.0
1483.434204 128.0
1484.269897 160.0
1485.128784 156.0
1485.266846 172.0
1485.60437 112.0
1485.995605 88.0
1486.086426 124.0
1486.12915 176.0
1486.233398 196.0
1486.634644 168.0
1486.785889 156.0
1486.931763 144.0
1487.023804 172.0
1487.5354 172.0
1488.40564 172.0
1488.467041 140.0
1488.551514 160.0
1488.697388 68.0
1489.403931 244.0
1489.857178 208.0
1489.949341 220.0
1490.087646 136.0
1490.157349 164.0
1490.241333 128.0
1490.302734 200.0
1490.687012 140.0
1490.848389 120.0
1491.163452 92.0
1491.270996 176.0
1491.416992 156.0
1491.624634 44.0
1492.15979 272.0
1492.285767 48.0
1492.462524 188.0
1492.608643 132.0
1492.785522 48.0
1493.223877 144.0
1493.2854 104.0
1493.593018 188.0
1493.651733 200.0
1494.079468 224.0
1494.27002 160.0
1494.731567 160.0
1494.870117 192.0
1494.962036 148.0
1495.239868 156.0
1495.424194 116.0
1495.747437 232.0
1495.855225 180.0
1496.274292 240.0
1496.386475 124.0
1496.455688 92.0
1496.563477 196.0
1496.70752 220.0
1497.071655 216.0
1497.712402 180.0
1497.783569 184.0
1497.982666 172.0
1498.196167 176.0
1498.257812 80.0
1498.625977 164.0
1498.897339 52.0
1499.290283 156.0
1499.402466 220.0
1499.89856 188.0
1500.319824 184.0
1500.56189 164.0
1500.75061 252.0
1500.893677 180.0
1501.22522 160.0
1501.335938 124.0
1501.641724 124.0
1501.819092 240.0
1501.98877 64.0
1502.443848 180.0
1502.709106 236.0
1503.076538 100.0
1503.392944 124.0
1503.539551 136.0
1503.7771 196.0
1503.979492 160.0
1504.033447 132.0
1504.156982 140.0
1504.21875 132.0
1504.535278 152.0
1504.674194 152.0
1504.742676 184.0
1504.871094 164.0
1505.067993 104.0
