>compound MLS001158285-01!(2R)-2-[[(2S)-2-(1,2-dihydroimidazo[1,2-a]benzimidazole-3-carbonylamino)-4-methylpentanoyl]amino]-2-phenylacetic acid
>formula C24H27N5O4
>ionization [M+H]+
>parentmass 450.214
#inchi InChI=1S/C24H27N5O4/c1-15(2)14-18(21(30)27-20(22(31)32)16-8-4-3-5-9-16)26-24(33)29-13-12-28-19-11-7-6-10-17(19)25-23(28)29/h3-11,15,18,20H,12-14H2,1-2H3,(H,26,33)(H,27,30)(H,31,32)/t18-,20+/m0/s1
#inchikey XBPWLKPUHTUZBZ
#Ion_Source LC-ESI
#Instrument qTof
#Compound_Source NIH Natural Product Library
#PI Dorrestein
#Data_Collector VVP/LMS
#Scan -1
#Precursor_MZ 450.214
#ExactMass 449.206
#Charge 1
#CAS_Number N/A
#Pubmed_ID N/A
#Smiles CC(C)C[C@H](NC(=O)N1CCn2c1nc3ccccc23)C(=O)N[C@@H](C(=O)O)c4ccccc4
#INCHI_AUX N/A
#Library_Class 1
#SpectrumID CCMSLIB00000079892
#IonMode Positive
#UpdateWorkflowName UPDATE-SINGLE-ANNOTATED-GOLD
#LibraryQualityString Gold
#TaskID b1d8e8f6646f4e71acdff9ca3d919d08
##Scan# 2023
#SpectrumFile p1-E12_GE12_01_17932.mzXML
#LibraryName NIH_Natural_Products_Library.mgf
#MQScore -1
#Organism NIH_Natural_Products_Library
#TIC_Query 0
#RT_Query -1
#MZErrorPPM -1
#SharedPeaks 0
#MassDiff 0
#LibMZ -1
#SpecMZ 450.214
#SpecCharge 0
#internalFilename spec-00000.mgf

>collision 10
94.990379 180.0
94.993805 124.0
95.003181 112.0
95.010933 156.0
95.068138 200.0
95.094498 200.0
95.124748 156.0
95.142372 52.0
95.159851 68.0
95.180176 188.0
95.207672 112.0
95.212357 112.0
95.243988 100.0
95.256966 128.0
95.285484 136.0
95.306999 176.0
95.335884 164.0
95.36364 216.0
95.40062 156.0
95.433784 388.0
95.470772 192.0
95.494019 128.0
95.503647 164.0
95.506477 316.0
95.531105 84.0
95.557732 140.0
95.593658 124.0
95.630981 100.0
95.678764 60.0
95.72464 104.0
95.76078 216.0
95.772514 260.0
95.815598 244.0
95.837517 244.0
95.852402 116.0
95.869942 72.0
95.8937 168.0
95.928421 116.0
95.951553 212.0
95.990822 120.0
96.01786 408.0
96.033569 188.0
96.037956 172.0
96.053505 60.0
96.086174 200.0
96.127419 180.0
96.154716 76.0
96.191322 160.0
96.210182 204.0
96.22168 120.0
96.252243 164.0
96.279213 368.0
96.306007 160.0
96.338287 144.0
96.360931 156.0
96.369301 92.0
96.374168 144.0
96.404732 172.0
96.437958 48.0
96.474152 288.0
96.491577 132.0
96.513939 144.0
96.54319 216.0
96.562439 116.0
96.579857 180.0
96.596367 124.0
96.642334 188.0
96.676598 208.0
96.696175 148.0
96.709877 112.0
96.727448 172.0
96.750984 136.0
96.774216 124.0
96.825539 120.0
96.855118 260.0
96.89711 180.0
96.910057 200.0
96.938599 176.0
96.96257 180.0
96.980209 132.0
97.048836 92.0
97.10305 124.0
97.111404 208.0
97.116447 160.0
97.156021 340.0
97.180061 156.0
97.206978 132.0
97.219749 236.0
97.253387 140.0
97.288445 240.0
97.315712 192.0
97.360886 188.0
97.391251 272.0
97.411957 180.0
97.448151 220.0
97.481232 96.0
97.53965 260.0
97.553406 236.0
97.557762 124.0
97.58886 92.0
97.608528 116.0
97.625206 100.0
97.654907 296.0
97.685242 216.0
97.715675 128.0
97.720909 96.0
97.72718 140.0
97.760887 136.0
97.799004 204.0
97.817108 212.0
97.847755 332.0
97.862053 304.0
97.894989 132.0
97.925499 100.0
97.9534 184.0
97.969467 164.0
98.008171 132.0
98.023933 84.0
98.048141 184.0
98.060074 132.0
98.06884 144.0
98.075645 120.0
98.104729 140.0
98.117828 76.0
98.130386 172.0
98.165581 100.0
98.189384 228.0
98.212242 116.0
98.23188 220.0
98.265434 312.0
98.322037 364.0
98.337547 180.0
98.352303 76.0
98.375954 124.0
98.389999 300.0
98.405884 152.0
98.426659 92.0
98.451202 220.0
98.467239 124.0
98.496239 360.0
98.51783 324.0
98.540596 124.0
98.570618 108.0
98.584457 112.0
98.610153 132.0
98.635849 124.0
98.649689 156.0
98.67144 140.0
98.689232 108.0
98.723915 112.0
98.760437 180.0
98.777283 148.0
98.807922 136.0
98.826706 276.0
98.855415 92.0
98.900223 132.0
98.931458 188.0
98.948463 144.0
98.977806 384.0
98.993149 248.0
99.02977 200.0
99.064621 216.0
99.070869 140.0
99.077713 188.0
99.131393 148.0
99.137558 296.0
99.19146 248.0
99.233803 104.0
99.25399 160.0
99.262009 160.0
99.28553 164.0
99.315834 156.0
99.32962 156.0
99.349815 156.0
99.364212 184.0
99.397621 76.0
99.432068 120.0
99.472763 92.0
99.496758 116.0
99.515587 192.0
99.577156 80.0
99.612099 196.0
99.625511 292.0
99.653641 104.0
99.66951 168.0
99.69873 172.0
99.724083 132.0
99.761642 120.0
99.78981 144.0
99.826752 180.0
99.844109 144.0
99.883064 184.0
99.929054 160.0
99.948006 176.0
99.997498 144.0
100.01265 184.0
100.030197 216.0
100.052055 176.0
100.065079 156.0
100.105858 140.0
100.128403 156.0
100.155121 244.0
100.189255 208.0
100.217384 172.0
100.23175 120.0
100.275887 84.0
100.309486 124.0
100.343307 216.0
100.367249 168.0
100.380226 160.0
100.418488 140.0
100.441116 148.0
100.491035 208.0
100.524254 72.0
100.544701 176.0
100.58963 164.0
100.59317 128.0
100.612755 156.0
100.629112 280.0
100.650955 124.0
100.667145 340.0
100.695137 176.0
100.709091 380.0
100.74588 272.0
100.764565 144.0
100.803535 144.0
100.823753 188.0
100.844284 176.0
100.877625 220.0
100.881981 124.0
100.889175 188.0
100.910484 56.0
100.935616 156.0
100.953537 200.0
100.967384 204.0
100.995651 488.0
101.038605 164.0
101.072525 192.0
101.094124 188.0
101.117943 52.0
101.133568 80.0
101.152061 168.0
101.198967 164.0
101.218666 148.0
101.256462 152.0
101.280663 236.0
101.304802 148.0
101.333961 188.0
101.35891 140.0
101.387215 276.0
101.405006 176.0
101.451118 168.0
101.475624 196.0
101.500656 176.0
101.514587 184.0
101.547379 144.0
101.570404 196.0
101.583488 208.0
101.602669 164.0
101.606888 224.0
101.614861 220.0
101.62796 172.0
101.64315 232.0
101.674828 132.0
101.709091 504.0
101.734016 332.0
101.747894 188.0
101.773384 212.0
101.780594 264.0
101.796265 196.0
101.816353 236.0
101.834244 172.0
101.888206 376.0
101.925529 176.0
101.963036 124.0
101.977867 204.0
102.00927 116.0
102.030846 164.0
102.048965 352.0
102.070259 316.0
102.11097 112.0
102.141014 156.0
102.155289 240.0
102.196335 140.0
102.215927 136.0
102.231384 176.0
102.250946 180.0
102.273232 372.0
102.297981 48.0
102.327179 156.0
102.343796 128.0
102.369835 396.0
102.414116 220.0
102.433929 112.0
102.45005 152.0
102.501625 128.0
102.531792 156.0
102.560272 156.0
102.580162 176.0
102.586754 160.0
102.594894 148.0
102.62661 156.0
102.650879 192.0
102.664322 96.0
102.68782 140.0
102.708885 136.0
102.715096 184.0
102.735489 208.0
102.752495 152.0
102.773659 148.0
102.812263 104.0
102.842873 180.0
102.876259 76.0
102.915276 428.0
102.936005 204.0
102.957207 144.0
103.01902 148.0
103.050911 292.0
103.079025 144.0
103.087486 100.0
103.092415 100.0
103.111984 140.0
103.146347 156.0
103.185623 132.0
103.217926 252.0
103.252914 92.0
103.270836 72.0
103.294678 316.0
103.326355 84.0
103.340523 188.0
103.382874 216.0
103.40815 192.0
103.422195 148.0
103.440918 288.0
103.495285 92.0
103.52903 108.0
103.553108 164.0
103.568375 172.0
103.575836 92.0
103.580498 192.0
103.593628 260.0
103.634148 324.0
103.662521 60.0
103.688873 88.0
103.713196 152.0
103.761856 152.0
103.788216 112.0
103.824966 192.0
103.862473 208.0
103.903511 508.0
103.92672 176.0
103.964729 148.0
104.009384 188.0
104.036858 264.0
104.080696 576.0
104.13472 228.0
104.177399 132.0
104.182945 96.0
104.189034 176.0
104.214531 168.0
104.265533 164.0
104.2966 168.0
104.340561 120.0
104.360893 88.0
104.391396 84.0
104.418518 144.0
104.434113 60.0
104.462593 108.0
104.487755 328.0
104.518929 328.0
104.542679 156.0
104.56842 48.0
104.586739 168.0
104.621117 140.0
104.638474 200.0
104.659317 124.0
104.663223 184.0
104.707626 132.0
104.727257 56.0
104.756783 284.0
104.787933 92.0
104.812347 204.0
104.817413 128.0
104.854965 116.0
104.887146 140.0
104.902519 88.0
104.923088 180.0
104.949989 276.0
104.992661 176.0
105.017853 152.0
105.039162 56.0
105.076607 1956.0
105.105644 312.0
105.1399 188.0
105.184555 156.0
105.213593 156.0
105.249405 140.0
105.27636 196.0
105.312584 200.0
105.319504 188.0
105.328949 72.0
105.336983 132.0
105.373558 220.0
105.398537 128.0
105.443855 164.0
105.467995 216.0
105.481651 448.0
105.50602 220.0
105.525497 224.0
105.5495 152.0
105.586746 144.0
105.605621 112.0
105.623459 168.0
105.652878 148.0
105.676331 176.0
105.704666 140.0
105.729866 132.0
105.755814 120.0
105.780907 244.0
105.793945 160.0
105.82 152.0
105.850662 160.0
105.897133 244.0
105.932602 92.0
105.949821 392.0
105.974236 212.0
105.991585 204.0
106.025177 152.0
106.034836 188.0
106.049057 204.0
106.099846 14544.0
106.132965 240.0
106.14846 156.0
106.17543 132.0
106.201828 148.0
106.220833 116.0
106.233994 160.0
106.248352 132.0
106.276848 176.0
106.312759 176.0
106.337585 200.0
106.398193 168.0
106.424889 88.0
106.444679 168.0
106.486504 164.0
106.507042 176.0
106.528839 204.0
106.544563 284.0
106.575745 184.0
106.626923 256.0
106.650894 204.0
106.665291 60.0
106.698555 180.0
106.716103 84.0
106.761147 176.0
106.781807 164.0
106.817474 184.0
106.845528 164.0
106.907288 168.0
106.944138 220.0
106.967812 140.0
107.034828 272.0
107.056503 172.0
107.084816 10912.0
107.140121 136.0
107.162186 144.0
107.18692 192.0
107.214661 196.0
107.225471 196.0
107.253418 100.0
107.287178 152.0
107.343063 52.0
107.359749 252.0
107.404625 76.0
107.434288 180.0
107.447952 44.0
107.482872 100.0
107.488586 84.0
107.524315 184.0
107.542892 204.0
107.569733 44.0
107.615196 284.0
107.652451 200.0
107.675049 108.0
107.693642 104.0
107.728661 204.0
107.744904 148.0
107.774498 88.0
107.818253 144.0
107.846558 44.0
107.873093 168.0
107.895264 176.0
107.913948 180.0
107.929268 140.0
107.952499 136.0
107.968361 204.0
107.990829 188.0
108.041649 172.0
108.066887 160.0
108.088005 760.0
108.109344 332.0
108.124359 136.0
108.145729 124.0
108.162186 252.0
108.18293 68.0
108.214844 324.0
108.254234 180.0
108.305977 192.0
108.314651 192.0
108.334618 152.0
108.352722 144.0
108.383972 316.0
108.401291 144.0
108.42202 140.0
108.440895 188.0
108.457253 180.0
108.471771 60.0
108.492081 236.0
108.52417 292.0
108.547249 180.0
108.555267 164.0
108.561714 132.0
108.577652 68.0
108.625832 112.0
108.646141 140.0
108.688904 164.0
108.713539 160.0
108.740868 156.0
108.797508 160.0
108.826683 232.0
108.853119 356.0
108.897194 136.0
108.930511 208.0
108.953285 56.0
109.025696 176.0
109.048889 124.0
109.084229 64.0
109.113335 100.0
109.142868 100.0
109.173645 140.0
109.207764 160.0
109.248535 176.0
109.275078 164.0
109.313255 40.0
109.33783 128.0
109.35788 208.0
109.386032 248.0
109.403488 116.0
109.410797 96.0
109.417931 156.0
109.463989 80.0
109.496269 228.0
109.51387 232.0
109.540016 136.0
109.562874 132.0
109.609985 152.0
109.656723 80.0
109.688499 180.0
109.717178 132.0
109.731773 56.0
109.752022 220.0
109.774467 136.0
109.809319 160.0
109.827759 184.0
109.847046 132.0
109.863716 156.0
109.890312 88.0
109.905853 268.0
109.922714 260.0
109.962952 164.0
109.995621 228.0
110.014824 172.0
110.063576 96.0
110.082375 140.0
110.10968 160.0
110.132507 136.0
110.162682 120.0
110.182785 120.0
110.215179 244.0
110.229942 164.0
110.253105 192.0
110.304024 164.0
110.324776 220.0
110.338745 112.0
110.36451 72.0
110.416794 132.0
110.451492 204.0
110.474777 296.0
110.515457 236.0
110.540237 204.0
110.559074 128.0
110.589813 216.0
110.627319 216.0
110.664604 128.0
110.710098 148.0
110.731041 320.0
110.774818 160.0
110.809578 280.0
110.829742 136.0
110.878014 240.0
110.908409 156.0
110.92234 116.0
110.955025 52.0
110.983681 192.0
111.004608 124.0
111.023476 168.0
111.055695 80.0
111.099518 168.0
111.133034 116.0
111.16188 204.0
111.179497 220.0
111.229004 184.0
111.235397 108.0
111.243462 144.0
111.250107 92.0
111.271057 260.0
111.299164 180.0
111.31591 360.0
111.398079 132.0
111.422371 172.0
111.434891 164.0
111.463028 148.0
111.480461 136.0
111.510147 144.0
111.516953 196.0
111.54921 148.0
111.58075 200.0
111.605988 196.0
111.659828 160.0
111.7145 152.0
111.721436 176.0
111.736855 200.0
111.763763 52.0
111.795021 164.0
111.816383 128.0
111.844017 216.0
111.885857 164.0
111.931915 128.0
111.960701 148.0
111.980629 276.0
111.99884 136.0
112.029083 84.0
112.045502 280.0
112.06279 148.0
112.079651 116.0
112.109619 892.0
112.140015 100.0
112.153015 328.0
112.168182 92.0
112.220894 32.0
112.24865 116.0
112.264107 236.0
112.279945 128.0
112.315529 92.0
112.322594 80.0
112.359962 164.0
112.37838 144.0
112.410759 84.0
112.470947 164.0
112.476753 196.0
112.498108 200.0
112.527092 92.0
112.549507 200.0
112.575249 248.0
112.617683 100.0
112.636368 76.0
112.666946 152.0
112.697464 148.0
112.763115 200.0
112.770348 164.0
112.779518 76.0
112.785843 84.0
112.800186 180.0
112.82692 164.0
112.851364 172.0
112.881897 284.0
112.903816 188.0
112.918991 112.0
112.945984 140.0
112.964401 176.0
112.983063 180.0
112.989098 148.0
113.016533 64.0
113.04995 140.0
113.07338 192.0
113.088112 140.0
113.141693 136.0
113.170227 356.0
113.201485 208.0
113.21801 360.0
113.232414 212.0
113.254433 112.0
113.272041 116.0
113.31266 224.0
113.341309 160.0
113.3731 180.0
113.403061 256.0
113.430336 80.0
113.45578 116.0
113.491364 280.0
113.508789 180.0
113.534081 156.0
113.576523 156.0
113.598831 232.0
113.629494 80.0
113.655174 84.0
113.673927 148.0
113.700386 212.0
113.72097 160.0
113.760193 160.0
113.792694 164.0
113.827133 80.0
113.84993 60.0
113.887405 120.0
113.903603 140.0
113.931221 148.0
113.958534 136.0
113.967125 116.0
113.995041 136.0
114.025543 180.0
114.045158 144.0
114.089241 116.0
114.131851 136.0
114.184212 224.0
114.206955 144.0
114.235733 236.0
114.263474 216.0
114.282722 184.0
114.300339 236.0
114.325523 116.0
114.35405 108.0
114.373276 220.0
114.406952 156.0
114.426826 160.0
114.477737 176.0
114.508308 140.0
114.52906 100.0
114.56794 96.0
114.584099 148.0
114.595795 100.0
114.602608 208.0
114.633354 152.0
114.653267 296.0
114.684128 136.0
114.737213 156.0
114.79174 236.0
114.826294 184.0
114.883934 192.0
114.918915 156.0
114.96907 184.0
115.015358 364.0
115.057388 280.0
115.11351 160.0
115.127396 120.0
115.151283 164.0
115.167595 268.0
115.198959 100.0
115.234688 172.0
115.24321 124.0
115.28968 144.0
115.312508 120.0
115.319801 88.0
115.331581 140.0
115.365105 180.0
115.416397 188.0
115.444786 336.0
115.459419 328.0
115.49955 160.0
115.536644 128.0
115.57177 192.0
115.614212 256.0
115.657906 168.0
115.683022 220.0
115.714828 152.0
115.749069 300.0
115.779488 192.0
115.78804 152.0
115.823669 152.0
115.865791 152.0
115.898666 92.0
115.922241 84.0
115.941528 116.0
115.956535 44.0
115.990555 124.0
116.03334 148.0
116.055672 116.0
116.0839 384.0
116.120148 388.0
116.142723 188.0
116.168755 192.0
116.184898 116.0
116.211319 176.0
116.217949 140.0
116.226616 160.0
116.246094 184.0
116.263947 316.0
116.287445 60.0
116.32238 152.0
116.371063 112.0
116.387756 320.0
116.439331 100.0
116.461006 88.0
116.495186 168.0
116.515709 108.0
116.540314 108.0
116.581146 28.0
116.611237 56.0
116.633232 188.0
116.686485 192.0
116.711632 196.0
116.750999 172.0
116.776817 108.0
116.798264 160.0
116.829407 108.0
116.846291 144.0
116.869911 148.0
116.905914 140.0
116.934906 360.0
116.970497 100.0
117.011559 324.0
117.026207 160.0
117.033348 148.0
117.063087 160.0
117.094818 400.0
117.150475 224.0
117.169548 144.0
117.190193 172.0
117.244423 228.0
117.279068 368.0
117.293724 228.0
117.325043 172.0
117.353325 148.0
117.385788 132.0
117.403526 92.0
117.428017 192.0
117.451805 260.0
117.468079 196.0
117.487358 236.0
117.532356 156.0
117.567612 248.0
117.584877 112.0
117.609001 184.0
117.630211 316.0
117.650932 248.0
117.678734 296.0
117.70192 192.0
117.737534 188.0
117.770409 124.0
117.811493 200.0
117.835403 128.0
117.85701 156.0
117.906158 184.0
117.914474 136.0
117.945633 136.0
117.962929 156.0
117.985435 232.0
118.018089 368.0
118.039719 164.0
118.046127 84.0
118.091324 5280.0
118.142944 104.0
118.1838 176.0
118.189217 208.0
118.199135 140.0
118.222511 164.0
118.24839 176.0
118.290283 104.0
118.324257 140.0
118.34375 100.0
118.367569 44.0
118.407234 128.0
118.421776 152.0
118.475624 100.0
118.499718 220.0
118.525223 104.0
118.533958 80.0
118.560402 72.0
118.588577 120.0
118.616417 200.0
118.660461 168.0
118.686279 132.0
118.709999 160.0
118.739349 408.0
118.77034 368.0
118.854668 336.0
118.890999 152.0
118.902 180.0
118.906982 160.0
118.945778 236.0
118.986588 168.0
119.020897 256.0
119.067795 260.0
119.09996 40188.0
119.14933 96.0
119.184822 80.0
119.203888 176.0
119.233635 196.0
119.25016 140.0
119.277679 120.0
119.283028 72.0
119.293831 112.0
119.298409 108.0
119.308815 48.0
119.313377 52.0
119.331894 176.0
119.355301 192.0
119.390816 140.0
119.407227 172.0
119.424896 384.0
119.454926 248.0
119.471306 132.0
119.479805 176.0
119.502022 224.0
119.527229 180.0
119.555183 168.0
119.58152 400.0
119.618317 200.0
119.634697 152.0
119.669426 220.0
119.686081 164.0
119.731697 148.0
119.775116 88.0
119.796364 192.0
119.824776 280.0
119.841629 76.0
119.857918 40.0
119.896744 156.0
119.927666 152.0
119.943817 196.0
119.964729 164.0
119.992424 228.0
120.014877 176.0
120.033051 264.0
120.050964 192.0
120.078545 224.0
120.102867 4916.0
120.137001 144.0
120.18808 172.0
120.224319 120.0
120.259247 200.0
120.301521 220.0
120.357841 128.0
120.379341 116.0
120.39463 52.0
120.418655 128.0
120.436264 148.0
120.468903 180.0
120.508507 160.0
120.540367 204.0
120.557198 168.0
120.576027 212.0
120.601669 128.0
120.626854 164.0
120.670334 208.0
120.714828 264.0
120.737167 220.0
120.744789 80.0
120.749702 108.0
120.770599 340.0
120.822906 128.0
120.851448 160.0
120.887428 268.0
120.919403 168.0
120.946083 180.0
120.973251 168.0
121.000114 188.0
121.063553 340.0
121.101471 348.0
121.137085 120.0
121.180183 148.0
121.204239 144.0
121.222336 224.0
121.258347 180.0
121.289619 168.0
121.307159 128.0
121.330772 156.0
121.356667 124.0
121.425819 108.0
121.440933 148.0
121.455078 144.0
121.485802 156.0
121.494026 160.0
121.505653 112.0
121.514999 216.0
121.538002 184.0
121.553467 176.0
121.592346 188.0
121.612099 196.0
121.631584 64.0
121.649559 176.0
121.688705 224.0
121.708786 108.0
121.733093 312.0
121.765816 176.0
121.817436 108.0
121.83625 216.0
121.934555 136.0
121.972115 168.0
121.988022 180.0
122.005508 120.0
122.038734 180.0
122.075729 120.0
122.115318 236.0
122.130722 96.0
122.152466 176.0
122.195137 172.0
122.212128 92.0
122.249542 188.0
122.275795 160.0
122.319984 128.0
122.342949 152.0
122.359001 172.0
122.375542 172.0
122.396019 240.0
122.425308 308.0
122.464439 288.0
122.504982 140.0
122.531425 120.0
122.549057 104.0
122.572655 96.0
122.578873 68.0
122.587585 132.0
122.637474 240.0
122.691978 124.0
122.695938 88.0
122.727615 156.0
122.745255 124.0
122.820297 200.0
122.846725 156.0
122.879379 120.0
122.9114 52.0
122.939651 324.0
122.978203 176.0
123.014465 204.0
123.028885 64.0
123.056892 168.0
123.095589 196.0
123.138618 236.0
123.173927 156.0
123.189568 156.0
123.224297 116.0
123.249313 196.0
123.293877 144.0
123.336845 204.0
123.357918 140.0
123.394928 208.0
123.405296 176.0
123.458633 172.0
123.482399 140.0
123.497696 224.0
123.518364 132.0
123.568993 140.0
123.6343 204.0
123.641396 80.0
123.650108 172.0
123.694862 148.0
123.71196 220.0
123.7827 128.0
123.801704 108.0
123.841576 188.0
123.868965 132.0
123.908752 248.0
123.947929 148.0
123.96566 188.0
123.990517 76.0
124.039169 188.0
124.059578 120.0
124.093979 136.0
124.101036 152.0
124.119881 128.0
124.142715 112.0
124.158447 140.0
124.161942 228.0
124.171417 384.0
124.196266 64.0
124.218452 108.0
124.243187 136.0
124.282211 196.0
124.307457 180.0
124.331085 124.0
124.350853 352.0
124.381783 276.0
124.397202 148.0
124.415733 280.0
124.440414 88.0
124.455956 72.0
124.50634 192.0
124.528053 116.0
124.553688 92.0
124.589233 136.0
124.606766 108.0
124.623573 176.0
124.678123 64.0
124.711372 180.0
124.740372 144.0
124.769936 132.0
124.789284 224.0
124.815971 200.0
124.85424 252.0
124.879471 132.0
124.900452 200.0
124.921524 204.0
124.959686 588.0
124.980598 212.0
124.996178 100.0
125.015228 184.0
125.065178 148.0
125.089157 176.0
125.107536 252.0
125.132393 144.0
125.172935 192.0
125.196556 224.0
125.231171 144.0
125.276596 116.0
125.321312 128.0
125.336914 72.0
125.360214 204.0
125.382607 192.0
125.40155 160.0
125.42038 192.0
125.440338 296.0
125.458656 156.0
125.477158 92.0
125.522537 200.0
125.539795 204.0
125.558578 204.0
125.576996 224.0
125.596573 120.0
125.622337 212.0
125.660263 148.0
125.693283 240.0
125.724983 84.0
125.769058 156.0
125.790443 136.0
125.817551 112.0
125.837921 240.0
125.856712 172.0
125.920464 44.0
125.950523 112.0
125.971146 104.0
126.036713 124.0
126.07428 176.0
126.09716 300.0
126.14846 152.0
126.176979 136.0
126.218742 228.0
126.245583 176.0
126.270721 168.0
126.317162 236.0
126.333672 180.0
126.355904 64.0
126.362938 192.0
126.37439 132.0
126.383186 268.0
126.407906 152.0
126.456848 156.0
126.519218 144.0
126.538597 116.0
126.544312 108.0
126.552238 168.0
126.567947 320.0
126.592445 176.0
126.630226 280.0
126.656181 160.0
126.718147 140.0
126.735336 180.0
126.809464 164.0
126.827255 208.0
126.848991 164.0
126.8946 184.0
126.925285 164.0
126.945381 188.0
126.982506 200.0
127.009422 220.0
127.039536 124.0
127.060844 148.0
127.106804 252.0
127.143723 104.0
127.159378 312.0
127.186714 200.0
127.225403 136.0
127.25856 160.0
127.276527 112.0
127.294495 124.0
127.325943 128.0
127.33934 116.0
127.348984 124.0
127.384346 136.0
127.401726 136.0
127.41967 360.0
127.456253 176.0
127.479774 180.0
127.499817 184.0
127.504196 96.0
127.55835 312.0
127.590927 176.0
127.632317 180.0
127.665337 244.0
127.692329 60.0
127.712578 172.0
127.735077 116.0
127.759819 148.0
127.780075 124.0
127.798637 144.0
127.823578 72.0
127.850082 336.0
127.901611 208.0
127.918739 316.0
127.934631 160.0
127.942314 208.0
127.991028 276.0
128.029434 192.0
128.057938 192.0
128.081772 116.0
128.113861 260.0
128.1492 152.0
128.16954 84.0
128.214722 160.0
128.232025 280.0
128.271088 76.0
128.29567 180.0
128.318436 92.0
128.341766 220.0
128.365784 188.0
128.387955 260.0
128.416275 84.0
128.466599 188.0
128.483032 148.0
128.489487 144.0
128.515381 220.0
128.531555 144.0
128.558701 104.0
128.587723 132.0
128.604965 48.0
128.638824 140.0
128.656891 132.0
128.674088 188.0
128.703506 248.0
128.724579 136.0
128.744965 208.0
128.768906 300.0
128.794662 136.0
128.844727 344.0
128.864868 160.0
128.906113 272.0
128.93251 144.0
128.966522 168.0
129.002518 268.0
129.035416 100.0
129.086258 160.0
129.102829 120.0
129.122437 212.0
129.143127 652.0
129.177887 196.0
129.184875 100.0
129.201294 136.0
129.246872 180.0
129.27887 320.0
129.309204 156.0
129.36911 104.0
129.384964 168.0
129.403076 52.0
129.41893 172.0
129.466492 164.0
129.499374 304.0
129.53714 168.0
129.565506 116.0
129.600754 60.0
129.638687 108.0
129.672684 196.0
129.708954 212.0
129.742294 164.0
129.749451 116.0
129.757065 148.0
129.774704 260.0
129.790375 156.0
129.815247 168.0
129.823868 224.0
129.856522 112.0
129.876297 96.0
129.88295 160.0
129.919876 312.0
129.964691 188.0
130.003479 272.0
130.03804 240.0
130.08551 260.0
130.088303 176.0
130.118118 156.0
130.130585 140.0
130.13562 152.0
130.165039 152.0
130.180939 172.0
130.230988 112.0
130.299286 164.0
130.326233 172.0
130.340134 176.0
130.362701 284.0
130.390594 196.0
130.480911 116.0
130.505936 160.0
130.524857 148.0
130.549133 148.0
130.612259 64.0
130.655334 192.0
130.684143 128.0
130.711121 184.0
130.737991 124.0
130.763336 216.0
130.780914 84.0
130.810883 156.0
130.856476 160.0
130.887222 300.0
130.915359 184.0
130.933731 144.0
130.968826 128.0
131.005905 92.0
131.033707 164.0
131.040222 140.0
131.06366 196.0
131.102814 1940.0
131.136597 160.0
131.155136 124.0
131.182541 396.0
131.242996 180.0
131.295319 296.0
131.325867 204.0
131.346405 48.0
131.368423 112.0
131.391663 248.0
131.407578 64.0
131.431915 168.0
131.450272 168.0
131.498352 320.0
131.543732 252.0
131.57692 108.0
131.601227 56.0
131.625381 92.0
131.648132 156.0
131.687531 184.0
131.704239 140.0
131.708237 328.0
131.717422 480.0
131.747742 408.0
131.778564 176.0
131.797394 124.0
131.864212 224.0
131.906662 304.0
131.950119 172.0
131.965973 184.0
131.976135 120.0
131.984116 148.0
132.01799 92.0
132.039246 228.0
132.088486 35788.0
132.157578 288.0
132.186539 160.0
132.215744 184.0
132.253052 132.0
132.276215 168.0
132.31636 220.0
132.353302 272.0
132.376907 172.0
132.408371 164.0
132.424042 328.0
132.453354 248.0
132.475693 228.0
132.516006 156.0
132.556671 244.0
132.574356 60.0
132.593185 100.0
132.61409 72.0
132.651764 136.0
132.696014 184.0
132.713165 200.0
132.751572 124.0
132.791168 216.0
132.831696 160.0
132.839386 168.0
132.84549 220.0
132.883957 248.0
132.911407 112.0
132.939041 80.0
132.965195 212.0
132.99559 256.0
133.002029 100.0
133.012039 364.0
133.02681 128.0
133.05722 60.0
133.093948 4308.0
133.11792 6260.0
133.158157 180.0
133.185059 192.0
133.219193 128.0
133.235275 148.0
133.275375 168.0
133.317001 220.0
133.373688 160.0
133.399033 160.0
133.439117 192.0
133.482452 212.0
133.510788 228.0
133.550247 92.0
133.588394 220.0
133.627701 172.0
133.681412 124.0
133.711334 220.0
133.729965 160.0
133.748154 120.0
133.770645 208.0
133.807297 204.0
133.813156 140.0
133.843643 204.0
133.862793 144.0
133.871857 72.0
133.875656 144.0
133.908173 132.0
133.919632 184.0
133.962051 124.0
133.992676 120.0
134.025177 176.0
134.049652 148.0
134.068283 164.0
134.115738 3240.0
134.165894 192.0
134.186066 292.0
134.203476 256.0
134.227432 180.0
134.282013 84.0
134.320328 120.0
134.340179 168.0
134.360382 404.0
134.416336 100.0
134.443939 152.0
134.468765 188.0
134.500854 248.0
134.525101 248.0
134.549423 152.0
134.574677 144.0
134.605209 292.0
134.644424 120.0
134.677521 172.0
134.719879 108.0
134.742218 120.0
134.758392 36.0
134.776749 140.0
134.79068 148.0
134.833008 184.0
134.869965 132.0
134.883667 180.0
134.924927 264.0
134.961273 148.0
134.979309 156.0
134.987869 212.0
135.023499 272.0
135.060226 244.0
135.08812 18836.0
135.123047 532.0
135.163467 108.0
135.201157 180.0
135.233826 100.0
135.256256 224.0
135.28801 328.0
135.340775 216.0
135.380844 304.0
135.42392 172.0
135.475922 212.0
135.494934 144.0
135.520081 192.0
135.546112 156.0
135.588837 80.0
135.594635 136.0
135.605103 284.0
135.656479 220.0
135.690308 380.0
135.731674 188.0
135.753876 124.0
135.781174 176.0
135.817062 164.0
135.853622 148.0
135.969208 84.0
136.013657 144.0
136.059052 140.0
136.092133 1548.0
136.120438 132.0
136.125626 160.0
136.153091 280.0
136.183289 116.0
136.220459 220.0
136.253204 176.0
136.29863 168.0
136.320374 152.0
136.342911 92.0
136.360931 116.0
136.378494 108.0
136.408707 116.0
136.424988 164.0
136.471588 200.0
136.492416 168.0
136.547974 172.0
136.592438 188.0
136.630936 132.0
136.658752 144.0
136.688141 128.0
136.707886 176.0
136.715103 160.0
136.721954 164.0
136.762054 136.0
136.826599 164.0
136.904373 112.0
136.922256 112.0
136.948624 156.0
136.990555 80.0
137.006866 156.0
137.028351 312.0
137.065659 140.0
137.09375 128.0
137.118729 68.0
137.137375 96.0
137.158951 208.0
137.189346 164.0
137.210846 312.0
137.246964 40.0
137.278 224.0
137.307602 192.0
137.330933 72.0
137.356598 48.0
137.382904 244.0
137.399216 144.0
137.459259 140.0
137.504959 132.0
137.559631 72.0
137.588303 100.0
137.643753 544.0
137.667587 140.0
137.687103 192.0
137.737686 136.0
137.77298 168.0
137.807602 148.0
137.828262 160.0
137.845413 140.0
137.867996 100.0
137.925232 132.0
137.957794 116.0
137.995056 204.0
138.019958 200.0
138.053497 156.0
138.085449 196.0
138.104156 136.0
138.132233 172.0
138.146973 152.0
138.168243 144.0
138.200943 176.0
138.22583 132.0
138.254456 132.0
138.2827 136.0
138.309769 116.0
138.354736 136.0
138.382675 224.0
138.422485 108.0
138.441849 240.0
138.470398 180.0
138.495102 80.0
138.542877 120.0
138.558884 164.0
138.57988 156.0
138.59964 340.0
138.625519 148.0
138.660522 116.0
138.680237 348.0
138.709869 288.0
138.751114 136.0
138.768417 196.0
138.805099 172.0
138.829422 132.0
138.865494 104.0
138.907715 116.0
138.934235 124.0
138.964569 140.0
138.996582 160.0
139.018005 116.0
139.060257 96.0
139.091766 132.0
139.112503 188.0
139.129929 148.0
139.154861 212.0
139.208267 116.0
139.229858 160.0
139.2939 188.0
139.310822 136.0
139.354233 216.0
139.378616 412.0
139.419632 112.0
139.466644 96.0
139.494858 216.0
139.514618 140.0
139.546234 260.0
139.579773 112.0
139.630402 252.0
139.659302 208.0
139.704498 120.0
139.724579 120.0
139.751251 136.0
139.77948 160.0
139.800674 104.0
139.835983 132.0
139.890121 44.0
139.906601 172.0
139.927795 104.0
139.944275 104.0
139.987366 188.0
139.991821 232.0
140.017288 152.0
140.042328 184.0
140.069107 172.0
140.106812 92.0
140.12706 264.0
140.184158 160.0
140.23465 176.0
140.267075 336.0
140.309097 112.0
140.327087 124.0
140.371658 292.0
140.390396 244.0
140.426346 232.0
140.448669 136.0
140.492081 232.0
140.519547 96.0
140.547775 72.0
140.57515 220.0
140.621613 176.0
140.719208 180.0
140.755478 232.0
140.860168 160.0
140.901978 144.0
140.918518 136.0
140.933884 112.0
140.953964 172.0
140.97052 44.0
141.043793 116.0
141.065063 180.0
141.081619 96.0
141.105743 160.0
141.128906 116.0
141.155365 108.0
141.177032 160.0
141.202927 148.0
141.219421 164.0
141.255676 168.0
141.313431 128.0
141.346161 120.0
141.373688 184.0
141.398621 164.0
141.452637 108.0
141.506958 232.0
141.549118 172.0
141.581696 164.0
141.640167 144.0
141.667755 112.0
141.72171 136.0
141.732025 152.0
141.779556 88.0
141.785263 148.0
141.826538 244.0
141.855835 140.0
141.886215 236.0
141.935776 232.0
141.943039 140.0
141.951248 196.0
141.977936 148.0
142.000504 104.0
142.03038 128.0
142.046143 172.0
142.06456 56.0
142.099533 328.0
142.12204 388.0
142.15947 164.0
142.178467 156.0
142.21463 188.0
142.254639 668.0
142.273193 168.0
142.295944 172.0
142.318954 180.0
142.349411 192.0
142.393707 148.0
142.454376 172.0
142.509567 192.0
142.529968 132.0
142.572922 160.0
142.603653 172.0
142.624374 200.0
142.655075 152.0
142.686859 96.0
142.723816 192.0
142.751068 196.0
142.777237 128.0
142.819061 164.0
142.87001 128.0
142.930206 76.0
142.958084 184.0
142.976212 64.0
142.99205 216.0
143.029465 196.0
143.052155 116.0
143.107651 2420.0
143.162506 276.0
143.179016 228.0
143.201279 196.0
143.223297 392.0
143.237457 84.0
143.27623 132.0
143.304489 484.0
143.324326 156.0
143.351929 140.0
143.395035 220.0
143.435944 172.0
143.465469 108.0
143.491989 256.0
143.524246 196.0
143.563232 172.0
143.588425 136.0
143.614914 196.0
143.633911 280.0
143.686203 132.0
143.71283 108.0
143.737411 260.0
143.761276 208.0
143.78241 192.0
143.806625 44.0
143.870743 468.0
143.906464 156.0
143.930176 80.0
143.977097 152.0
144.018082 152.0
144.042068 164.0
144.074112 220.0
144.110229 1000.0
144.150864 196.0
144.191208 176.0
144.241699 224.0
144.288391 148.0
144.328033 124.0
144.362564 60.0
144.367661 40.0
144.39241 184.0
144.415985 208.0
144.450607 136.0
144.493835 156.0
144.511108 148.0
144.578842 136.0
144.612213 124.0
144.628967 160.0
144.648026 96.0
144.668274 192.0
144.70401 316.0
144.746201 292.0
144.795532 200.0
144.875916 304.0
144.909592 344.0
144.937958 104.0
144.957123 52.0
144.973907 120.0
144.996353 208.0
145.017212 120.0
145.036255 184.0
145.0578 504.0
145.086578 112.0
145.113235 68.0
145.120026 176.0
145.148987 896.0
145.169022 200.0
145.225906 184.0
145.26886 136.0
145.295242 88.0
145.328842 140.0
145.347015 168.0
145.397095 100.0
145.41951 196.0
145.463257 200.0
145.486465 192.0
145.503693 376.0
145.550201 172.0
145.576675 120.0
145.615372 180.0
145.649261 196.0
145.669052 280.0
145.702469 164.0
145.730377 308.0
145.764053 236.0
145.836349 160.0
145.872421 156.0
145.916397 168.0
145.953674 212.0
145.9823 172.0
146.001541 96.0
146.047241 200.0
146.067398 192.0
146.106476 168.0
146.130142 240.0
146.151352 284.0
146.210403 252.0
146.259216 108.0
146.288849 240.0
146.311157 196.0
146.319138 128.0
146.327133 132.0
146.355331 52.0
146.374603 132.0
146.391464 148.0
146.415604 152.0
146.505051 208.0
146.559097 192.0
146.587631 124.0
146.605484 176.0
146.634644 136.0
146.659485 308.0
146.681168 124.0
146.718445 204.0
146.769165 304.0
146.815735 160.0
146.861496 88.0
146.907104 80.0
146.923203 220.0
146.958908 128.0
147.009293 316.0
147.054245 224.0
147.107117 108.0
147.139038 188.0
147.155807 144.0
147.176483 188.0
147.219208 128.0
147.25592 332.0
147.285172 160.0
147.305527 172.0
147.337479 184.0
147.366104 60.0
147.396881 76.0
147.448074 184.0
147.488647 128.0
147.523224 108.0
147.576416 136.0
147.619949 200.0
147.657364 148.0
147.667648 160.0
147.709442 164.0
147.745743 88.0
147.76268 112.0
147.819046 152.0
147.835281 204.0
147.888855 148.0
147.932098 180.0
147.980637 176.0
148.0233 164.0
148.049179 204.0
148.112518 540.0
148.234482 208.0
148.252792 104.0
148.328735 152.0
148.389816 164.0
148.448257 80.0
148.479889 176.0
148.513962 220.0
148.542862 284.0
148.572174 96.0
148.598663 148.0
148.638824 196.0
148.659332 312.0
148.709702 80.0
148.74556 284.0
148.765884 148.0
148.79895 204.0
148.835342 248.0
148.86319 208.0
148.888168 144.0
148.909958 148.0
148.960449 88.0
148.98671 188.0
149.037491 180.0
149.056763 144.0
149.091675 152.0
149.113541 304.0
149.143402 148.0
149.178345 244.0
149.205933 236.0
149.222946 152.0
149.244827 148.0
149.271118 84.0
149.277695 148.0
149.30986 212.0
149.354294 232.0
149.393707 200.0
149.421036 312.0
149.439438 68.0
149.459869 132.0
149.490555 148.0
149.523865 216.0
149.590363 168.0
149.617142 84.0
149.65123 296.0
149.676895 96.0
149.728134 152.0
149.780319 52.0
149.809235 152.0
149.829041 308.0
149.861053 152.0
149.888382 172.0
149.92897 184.0
149.964493 208.0
150.000305 212.0
150.033798 144.0
150.05574 144.0
150.085007 128.0
150.127502 188.0
150.167831 132.0
150.171783 96.0
150.18158 156.0
150.233093 84.0
150.261719 172.0
150.31189 72.0
150.340561 280.0
150.360443 116.0
150.412949 204.0
150.438416 196.0
150.462112 168.0
150.487656 384.0
150.523102 232.0
150.560913 144.0
150.634445 240.0
150.65863 152.0
150.679657 180.0
150.71463 136.0
150.76152 40.0
150.783279 184.0
150.812607 56.0
150.841949 80.0
150.883514 188.0
150.911484 192.0
150.932419 160.0
150.972488 188.0
151.006027 164.0
151.035706 140.0
151.066956 240.0
151.084076 268.0
151.116348 236.0
151.170685 92.0
151.206436 104.0
151.265121 252.0
151.309265 80.0
151.358246 120.0
151.385162 184.0
151.434174 124.0
151.497864 192.0
151.53157 212.0
151.566803 148.0
151.585052 124.0
151.597565 200.0
151.619247 236.0
151.639587 332.0
151.658615 176.0
151.709625 252.0
151.752029 168.0
151.789566 208.0
151.833786 196.0
151.887558 156.0
151.908722 292.0
151.953934 104.0
151.999313 352.0
152.034927 68.0
152.086411 136.0
152.092178 208.0
152.120712 336.0
152.177017 132.0
152.226089 132.0
152.263275 140.0
152.280472 52.0
152.342392 172.0
152.368912 180.0
152.396133 124.0
152.41806 128.0
152.450012 188.0
152.474594 128.0
152.509003 300.0
152.526215 140.0
152.55571 156.0
152.605209 156.0
152.636429 116.0
152.658997 184.0
152.676208 164.0
152.714493 340.0
152.733963 92.0
152.750015 160.0
152.776718 136.0
152.808472 84.0
152.844772 180.0
152.910477 280.0
152.946045 184.0
152.979111 284.0
153.009628 172.0
153.039154 144.0
153.060165 200.0
153.094635 256.0
153.110962 156.0
153.134048 32.0
153.160004 120.0
153.193176 120.0
153.22496 316.0
153.241638 132.0
153.279419 76.0
153.33252 176.0
153.350464 156.0
153.394775 180.0
153.415085 108.0
153.46431 136.0
153.492661 144.0
153.5457 132.0
153.574966 180.0
153.632568 192.0
153.654251 148.0
153.671524 120.0
153.689636 348.0
153.708542 144.0
153.77272 288.0
153.788361 188.0
153.822006 112.0
153.857941 284.0
153.882492 172.0
153.921112 160.0
153.957962 172.0
153.987549 164.0
154.007309 160.0
154.036957 172.0
154.061935 268.0
154.115875 128.0
154.119278 188.0
154.162979 188.0
154.230667 156.0
154.263855 168.0
154.29895 200.0
154.324234 176.0
154.342636 120.0
154.364655 168.0
154.387283 128.0
154.430084 240.0
154.457245 128.0
154.47612 316.0
154.509995 112.0
154.531464 232.0
154.569397 144.0
154.600769 232.0
154.623032 112.0
154.661163 220.0
154.712158 164.0
154.734451 128.0
154.754257 144.0
154.776276 184.0
154.782104 164.0
154.824997 348.0
154.860748 188.0
154.89296 164.0
154.925812 124.0
154.964813 140.0
154.985672 356.0
155.016159 128.0
155.065063 152.0
155.069458 196.0
155.088745 208.0
155.115005 164.0
155.164566 128.0
155.182953 192.0
155.205276 164.0
155.2267 144.0
155.275162 160.0
155.342194 464.0
155.419464 212.0
155.443436 136.0
155.466064 104.0
155.494919 156.0
155.524414 160.0
155.588577 120.0
155.597534 56.0
155.603683 124.0
155.625687 136.0
155.664948 180.0
155.70166 192.0
155.726181 284.0
155.769333 124.0
155.792618 176.0
155.799377 108.0
155.848862 96.0
155.879761 100.0
155.906677 152.0
155.925293 212.0
155.958633 56.0
155.994888 140.0
156.021393 212.0
156.05954 296.0
156.119232 144.0
156.13913 92.0
156.171036 120.0
156.182831 112.0
156.194855 168.0
156.236145 168.0
156.261444 120.0
156.311935 124.0
156.337341 220.0
156.356049 536.0
156.402908 188.0
156.463898 200.0
156.508987 184.0
156.536194 196.0
156.554794 204.0
156.604614 188.0
156.624542 140.0
156.672211 152.0
156.725296 248.0
156.759094 152.0
156.790695 208.0
156.80983 148.0
156.842575 204.0
156.853226 100.0
156.857422 180.0
156.918655 156.0
156.939667 284.0
156.954498 96.0
157.003448 112.0
157.033371 136.0
157.083267 100.0
157.11441 228.0
157.149231 804.0
157.174347 188.0
157.196243 188.0
157.218018 168.0
157.249588 408.0
157.294006 148.0
157.328339 144.0
157.411255 316.0
157.483475 184.0
157.505188 100.0
157.531952 180.0
157.549667 184.0
157.59256 120.0
157.596344 116.0
157.613937 244.0
157.643372 208.0
157.667618 152.0
157.695114 124.0
157.730118 92.0
157.774384 140.0
157.802673 172.0
157.820679 128.0
157.848129 184.0
157.899017 152.0
157.936493 176.0
157.987717 84.0
158.017746 204.0
158.035217 432.0
158.076447 352.0
158.096451 144.0
158.122009 5380.0
158.185608 80.0
158.207825 340.0
158.213974 284.0
158.234634 228.0
158.257462 100.0
158.262161 232.0
158.271683 172.0
158.289871 460.0
158.315567 116.0
158.337677 132.0
158.371658 128.0
158.407013 128.0
158.452469 220.0
158.487091 168.0
158.513153 348.0
158.542572 260.0
158.549255 120.0
158.571991 172.0
158.591293 156.0
158.609741 188.0
158.653473 144.0
158.694397 64.0
158.720306 96.0
158.752838 160.0
158.765305 200.0
158.781784 356.0
158.802597 184.0
158.84201 156.0
158.870621 268.0
158.905914 304.0
158.95282 236.0
158.979126 156.0
159.001572 136.0
159.033844 328.0
159.050858 192.0
159.088623 188.0
159.129807 3996.0
159.180008 160.0
159.208984 252.0
159.283752 76.0
159.319244 144.0
159.342377 420.0
159.375198 420.0
159.406311 124.0
159.412201 260.0
159.455338 164.0
159.477676 496.0
159.510635 388.0
159.533768 176.0
159.565659 256.0
159.59343 520.0
159.616577 428.0
159.670731 436.0
159.690643 384.0
159.72522 264.0
159.74614 360.0
159.769867 380.0
159.795776 320.0
159.81636 316.0
159.8452 524.0
159.888046 532.0
159.932999 596.0
159.957047 680.0
159.979401 620.0
160.015778 752.0
160.050583 880.0
160.075836 904.0
160.141144 482516.0
160.2117 100.0
160.235458 416.0
160.275436 164.0
160.311768 800.0
160.373154 2192.0
160.418091 952.0
160.459183 668.0
160.484772 1588.0
160.525497 1636.0
160.557373 17444.0
160.63002 376.0
160.65593 348.0
160.750595 420.0
160.772339 500.0
160.799774 688.0
160.833115 208.0
160.892456 136.0
160.915741 160.0
160.948013 1236.0
160.972534 280.0
160.992691 604.0
161.048187 232.0
161.078278 276.0
161.143036 131816.0
161.205078 108.0
161.228485 108.0
161.287735 120.0
161.305725 128.0
161.317398 76.0
161.327469 116.0
161.36235 108.0
161.381439 72.0
161.405701 372.0
161.449097 140.0
161.47699 76.0
161.530106 168.0
161.559464 432.0
161.582291 480.0
161.605484 140.0
161.614532 244.0
161.632111 140.0
161.663651 120.0
161.698746 124.0
161.759827 52.0
161.780563 128.0
161.814835 104.0
161.836838 144.0
161.853378 180.0
161.881866 124.0
161.918274 84.0
161.943634 312.0
161.971329 340.0
162.003418 216.0
162.033371 144.0
162.039902 192.0
162.063217 324.0
162.085648 184.0
162.144943 5296.0
162.215866 360.0
162.265488 588.0
162.335861 468.0
162.37706 284.0
162.397217 1028.0
162.422409 336.0
162.450943 200.0
162.478333 376.0
162.507141 340.0
162.550919 136.0
162.567093 140.0
162.595016 224.0
162.626175 124.0
162.653992 72.0
162.673279 220.0
162.706573 140.0
162.734467 124.0
162.777161 84.0
162.822876 44.0
162.828735 56.0
162.867691 156.0
162.920319 60.0
162.965302 120.0
162.992294 68.0
163.010605 104.0
163.057693 260.0
163.077484 64.0
163.11528 100.0
163.137817 36.0
163.178665 248.0
163.197098 80.0
163.222031 104.0
163.264069 100.0
163.281342 100.0
163.32988 272.0
163.368332 324.0
163.414108 148.0
163.437454 108.0
163.474579 72.0
163.487534 128.0
163.51474 48.0
163.535477 148.0
163.558273 96.0
163.580933 96.0
163.605331 96.0
163.630859 72.0
163.661606 100.0
163.713348 112.0
163.731186 44.0
163.770142 164.0
163.799957 52.0
163.861115 168.0
163.990448 80.0
164.019135 104.0
164.03952 64.0
164.093704 120.0
164.136749 232.0
164.26651 120.0
164.292801 120.0
164.329361 76.0
164.366028 52.0
164.383896 48.0
164.418533 84.0
164.485992 148.0
164.514084 160.0
164.540955 84.0
164.569534 112.0
164.606689 120.0
164.631546 92.0
164.654541 88.0
164.691895 64.0
164.720444 40.0
164.72702 32.0
164.757446 128.0
164.815506 76.0
164.8591 68.0
165.002106 104.0
165.025116 36.0
165.073715 148.0
165.104401 80.0
165.122314 132.0
165.155563 56.0
165.173477 48.0
165.21994 224.0
165.256714 132.0
165.283493 160.0
165.322372 136.0
165.342361 60.0
165.365402 200.0
165.503662 68.0
165.618927 40.0
165.64711 52.0
165.688095 28.0
165.708603 168.0
165.73378 92.0
165.78035 36.0
165.824783 156.0
165.880325 156.0
165.936737 44.0
166.059845 100.0
166.088058 80.0
166.136444 172.0
166.262558 60.0
166.301056 64.0
166.429428 128.0
166.450241 40.0
166.467957 92.0
166.533997 208.0
166.593338 128.0
166.599655 104.0
166.607529 156.0
166.850861 88.0
166.933151 60.0
166.958862 32.0
167.025757 28.0
167.050217 172.0
167.072067 80.0
167.105087 72.0
167.182724 48.0
167.206253 56.0
167.347488 152.0
167.457626 120.0
167.496872 96.0
167.578201 108.0
167.633438 28.0
167.661789 48.0
167.682419 56.0
167.757172 60.0
167.829575 160.0
167.961365 116.0
168.015762 108.0
168.098709 80.0
168.167374 88.0
168.226746 32.0
168.332626 96.0
168.441116 48.0
168.482452 72.0
168.517395 44.0
168.549637 124.0
168.572891 56.0
168.624588 124.0
168.645279 92.0
168.784729 60.0
168.818512 60.0
168.855453 256.0
168.91423 160.0
168.936447 136.0
168.955627 60.0
168.999619 92.0
169.092789 76.0
169.128662 112.0
169.166214 120.0
169.213348 104.0
169.248138 116.0
169.318314 84.0
169.41391 40.0
169.477951 56.0
169.504608 96.0
169.535599 72.0
169.564224 144.0
169.628952 300.0
169.650269 168.0
169.666702 68.0
169.748245 152.0
169.757629 148.0
169.810562 60.0
169.932693 108.0
169.987 132.0
170.012955 88.0
170.04216 112.0
170.062271 84.0
170.088379 140.0
170.123383 112.0
170.142761 48.0
170.217987 72.0
170.270004 104.0
170.288193 48.0
170.376236 72.0
170.410309 40.0
170.451889 124.0
170.506119 156.0
170.555847 204.0
170.607849 56.0
170.649796 92.0
170.683258 124.0
170.701462 68.0
170.733566 80.0
170.776642 40.0
170.826324 160.0
170.850494 112.0
170.975113 68.0
171.104828 92.0
171.130859 92.0
171.151703 72.0
171.190765 68.0
171.23732 96.0
171.247208 84.0
171.271515 212.0
171.347076 80.0
171.370361 132.0
171.409607 80.0
171.437149 92.0
171.468979 124.0
171.49971 92.0
171.581665 52.0
171.607742 92.0
171.710983 96.0
171.748581 84.0
171.774673 140.0
171.800766 164.0
171.882645 64.0
171.931244 108.0
172.004333 136.0
172.068008 112.0
172.143021 4896.0
172.219879 60.0
172.262421 112.0
172.313553 76.0
172.380859 84.0
172.409225 40.0
172.525848 112.0
172.544464 44.0
172.592239 72.0
172.622864 152.0
172.673325 60.0
172.691635 32.0
172.7285 176.0
172.814362 44.0
172.953323 124.0
173.000443 36.0
173.048325 212.0
173.068527 100.0
173.146622 564.0
173.204727 84.0
173.225693 56.0
173.299057 248.0
173.32901 112.0
173.354095 92.0
173.38118 72.0
173.409958 76.0
173.443222 68.0
173.464188 40.0
173.55246 204.0
173.629395 112.0
173.663498 60.0
173.696106 64.0
173.949554 120.0
174.062469 60.0
174.11499 48.0
174.137604 72.0
174.15654 240.0
174.183929 2624.0
174.228943 160.0
174.289597 88.0
174.380386 72.0
174.425079 56.0
174.493439 88.0
174.538147 120.0
174.619675 76.0
174.642868 44.0
174.714554 248.0
174.882828 228.0
174.927582 32.0
174.98024 72.0
175.092163 164.0
175.186935 412.0
175.270004 200.0
175.293732 68.0
175.351135 128.0
175.428162 48.0
175.49144 108.0
175.569061 84.0
175.607498 52.0
175.681366 144.0
175.705109 160.0
175.796066 60.0
175.847626 52.0
175.90834 76.0
175.95462 144.0
175.999176 120.0
176.074707 124.0
176.155945 80.0
176.188309 92.0
176.214737 156.0
176.240555 140.0
176.264938 56.0
176.294022 128.0
176.357452 80.0
176.45636 132.0
176.491776 60.0
176.498581 96.0
176.529327 152.0
176.549377 88.0
176.600739 124.0
176.643066 164.0
176.67218 104.0
176.784439 212.0
176.894501 68.0
177.138702 200.0
177.214996 128.0
177.2733 88.0
177.357712 208.0
177.506607 120.0
177.551697 88.0
177.575577 48.0
177.607407 68.0
177.663116 68.0
177.795807 28.0
177.981659 156.0
178.059891 168.0
178.210114 212.0
178.394974 176.0
178.42305 116.0
178.467972 156.0
178.566391 36.0
178.624908 60.0
178.646194 128.0
178.678131 96.0
178.702072 132.0
178.75264 200.0
178.784576 160.0
178.85112 52.0
178.976257 156.0
179.080139 128.0
179.159729 64.0
179.298645 80.0
179.324982 132.0
179.370621 116.0
179.450607 56.0
179.738708 112.0
179.768066 184.0
179.824127 160.0
179.845474 96.0
179.981659 76.0
180.013702 140.0
180.040649 92.0
180.104523 116.0
180.55896 228.0
180.62851 44.0
180.660614 184.0
180.815826 208.0
180.882751 160.0
180.914886 104.0
180.979141 116.0
181.075562 36.0
181.113068 144.0
181.198807 140.0
181.322083 136.0
181.386429 72.0
181.418594 176.0
181.43602 108.0
181.496353 184.0
181.525864 92.0
181.611694 132.0
181.681442 120.0
181.764633 80.0
181.914948 68.0
181.944489 96.0
181.992599 96.0
182.170105 156.0
182.323273 172.0
182.385101 52.0
182.441559 132.0
182.608307 144.0
182.640579 208.0
182.782455 188.0
182.898941 116.0
182.923172 116.0
183.001251 188.0
183.047485 96.0
183.068573 92.0
183.130524 92.0
183.17363 76.0
183.470108 80.0
183.553696 56.0
183.580673 136.0
183.669693 88.0
183.722534 156.0
183.762558 124.0
183.845093 132.0
184.063782 172.0
184.095245 160.0
184.134003 48.0
184.152908 244.0
184.304214 96.0
184.323135 136.0
184.433456 152.0
184.4664 88.0
184.488022 120.0
184.531845 228.0
184.723328 104.0
184.758499 132.0
184.782852 56.0
185.096878 176.0
185.153824 1328.0
185.221466 100.0
185.286499 148.0
185.335281 44.0
185.54129 124.0
185.573822 152.0
185.675583 124.0
185.828812 52.0
185.855957 108.0
185.880386 80.0
185.902084 92.0
185.986237 120.0
186.005249 176.0
186.07988 164.0
186.095688 116.0
186.128738 132.0
186.164124 7192.0
186.244232 116.0
186.390961 208.0
186.516235 124.0
186.554047 72.0
186.618668 104.0
186.65564 100.0
186.741699 72.0
186.796112 172.0
186.850525 48.0
186.885895 112.0
186.919724 144.0
186.949387 160.0
186.99205 40.0
187.079163 84.0
187.12001 188.0
187.165573 1656.0
187.370605 116.0
187.392395 44.0
187.468704 188.0
187.771362 48.0
187.812637 220.0
187.839569 148.0
187.866852 176.0
187.891403 208.0
187.932343 108.0
187.954163 88.0
187.975998 132.0
188.060623 68.0
188.08519 144.0
188.135086 100.0
188.167908 132.0
188.266464 172.0
188.382874 144.0
188.508575 136.0
188.549576 112.0
188.576904 80.0
188.638992 124.0
188.691742 92.0
188.810623 144.0
188.820953 192.0
189.022736 136.0
189.148651 120.0
189.337601 72.0
189.362259 40.0
189.535446 188.0
189.553482 192.0
189.603394 160.0
189.701614 120.0
189.814499 88.0
190.022995 68.0
190.044952 160.0
190.220612 88.0
190.278275 84.0
190.35791 120.0
190.396362 56.0
190.448563 52.0
190.62442 112.0
190.759109 140.0
190.811356 120.0
190.847092 48.0
190.995621 120.0
191.133194 192.0
191.163467 84.0
191.196503 136.0
191.22879 164.0
191.273575 128.0
191.380966 120.0
191.565521 52.0
191.808044 52.0
192.045212 148.0
192.11142 168.0
192.213516 144.0
192.434372 208.0
192.616669 240.0
192.727188 88.0
192.873688 160.0
192.96492 64.0
193.092148 100.0
193.111511 184.0
193.352249 84.0
193.648529 152.0
193.690079 72.0
193.731644 128.0
193.771866 220.0
193.8508 96.0
193.870193 52.0
194.06427 112.0
194.168457 208.0
194.200165 116.0
194.233459 164.0
194.294495 220.0
194.635941 44.0
194.683151 56.0
194.797043 132.0
195.098236 104.0
195.163422 128.0
195.311371 136.0
195.597855 208.0
195.634201 112.0
195.759521 120.0
195.812439 244.0
195.845871 172.0
195.894135 160.0
195.946167 144.0
196.0242 88.0
196.180298 136.0
196.448059 212.0
196.545715 120.0
196.647812 88.0
196.780212 84.0
196.922638 40.0
196.947784 68.0
197.042786 204.0
197.094757 180.0
197.174133 88.0
197.218857 100.0
197.316711 152.0
197.532074 164.0
197.599228 132.0
197.669189 84.0
197.795151 244.0
197.915558 84.0
198.122833 156.0
198.165344 96.0
198.321823 92.0
198.411545 160.0
198.708878 124.0
198.767807 164.0
198.908142 316.0
199.020462 100.0
199.059784 176.0
199.090683 88.0
199.140686 144.0
199.304199 96.0
199.357971 88.0
199.413818 116.0
199.475662 100.0
199.511673 148.0
199.551575 180.0
199.59938 44.0
199.652817 176.0
199.689392 88.0
199.709076 36.0
199.763016 160.0
199.787857 80.0
199.956711 180.0
199.993301 72.0
200.052902 116.0
200.114365 104.0
200.183594 220.0
200.286179 52.0
200.336899 60.0
200.421432 60.0
200.77948 160.0
200.924957 156.0
200.976974 96.0
201.03624 68.0
201.133682 224.0
201.202286 572.0
201.253632 96.0
201.646347 144.0
201.671799 172.0
201.824478 44.0
202.110199 132.0
202.209396 484.0
202.274368 192.0
202.529251 48.0
202.710602 128.0
202.911865 140.0
203.030991 212.0
203.107574 124.0
203.160233 464.0
203.362976 100.0
203.570251 60.0
203.592987 344.0
203.62706 108.0
203.699768 148.0
203.754913 92.0
203.868591 176.0
203.985138 56.0
204.142502 232.0
204.206406 148.0
204.653793 144.0
204.679428 128.0
204.756485 140.0
205.015625 144.0
205.149597 132.0
205.22374 108.0
205.369202 84.0
205.560379 148.0
205.583206 104.0
205.694534 52.0
205.882996 40.0
206.051559 40.0
206.20874 108.0
206.314529 76.0
206.455658 192.0
206.502243 176.0
206.612595 188.0
206.694977 36.0
206.80661 88.0
206.843826 76.0
206.913696 148.0
207.264877 184.0
207.350861 148.0
207.418381 84.0
207.597458 148.0
207.83844 56.0
207.872879 188.0
208.022156 68.0
208.088196 108.0
208.251892 200.0
208.582382 56.0
208.821075 136.0
209.094437 148.0
209.123215 112.0
209.14624 148.0
209.17984 104.0
209.465759 152.0
209.510574 116.0
209.702225 40.0
209.820435 96.0
209.860794 100.0
210.051163 44.0
210.148071 116.0
210.17131 188.0
210.279144 172.0
210.340347 160.0
210.507248 164.0
210.605453 148.0
210.741257 132.0
210.898087 76.0
210.916718 68.0
211.056351 104.0
211.159515 264.0
211.200394 140.0
211.304367 152.0
211.334061 100.0
211.464081 100.0
211.482193 168.0
211.512192 180.0
211.716217 140.0
211.762573 136.0
211.803131 100.0
212.032059 76.0
212.153809 136.0
212.188599 144.0
212.246597 156.0
212.333618 168.0
212.362625 124.0
212.578552 116.0
212.922852 124.0
212.946091 84.0
212.989197 148.0
213.185196 192.0
213.222137 56.0
213.25412 160.0
213.425659 172.0
213.736938 84.0
214.107086 180.0
214.130005 88.0
214.203629 188.0
214.354355 36.0
214.418472 236.0
214.444702 48.0
214.473862 64.0
214.494263 212.0
214.581741 132.0
214.642975 100.0
214.680893 128.0
214.708267 52.0
214.762558 172.0
214.791733 88.0
214.853012 112.0
214.890945 184.0
215.163208 5352.0
215.199036 100.0
215.245438 92.0
215.273376 120.0
215.366852 72.0
215.408249 140.0
215.451569 132.0
215.548004 124.0
215.623993 76.0
215.673691 96.0
215.758484 180.0
215.799423 100.0
215.836319 168.0
215.881302 144.0
215.907623 180.0
216.01001 88.0
216.053894 168.0
216.103638 124.0
216.165894 1176.0
216.273407 92.0
216.361237 48.0
216.494919 136.0
216.516449 116.0
216.536957 44.0
216.569168 136.0
216.759628 120.0
216.825424 160.0
216.873947 72.0
217.093857 112.0
217.126129 92.0
217.204865 6840.0
217.305084 40.0
217.349106 100.0
217.495865 20.0
217.616241 36.0
217.654419 72.0
217.699814 64.0
217.724426 120.0
217.79541 72.0
217.962891 140.0
217.983459 120.0
218.098099 44.0
218.145142 148.0
218.165726 168.0
218.207535 552.0
218.237289 188.0
218.259827 136.0
218.286285 124.0
218.315445 180.0
218.380417 144.0
218.477493 124.0
218.62767 136.0
218.907288 140.0
219.016266 148.0
219.08403 160.0
219.13707 200.0
219.214066 168.0
219.375824 84.0
219.49968 212.0
219.653061 44.0
219.809448 32.0
219.874374 32.0
219.91571 80.0
219.970184 68.0
219.989517 88.0
220.024948 232.0
220.158783 100.0
220.201248 424.0
220.2435 140.0
220.376465 96.0
220.672058 40.0
220.71347 136.0
220.766571 88.0
220.961945 112.0
221.059433 68.0
221.109924 200.0
221.154327 184.0
221.212051 144.0
221.364563 148.0
221.592667 136.0
221.838684 120.0
221.887558 132.0
221.912811 116.0
221.978058 28.0
222.096695 100.0
222.23616 204.0
222.298477 76.0
222.648834 128.0
223.154068 160.0
223.201645 124.0
223.378082 164.0
223.389679 132.0
223.39592 192.0
223.487228 140.0
223.880219 104.0
223.914047 180.0
224.029175 112.0
224.179779 104.0
224.246719 140.0
224.285477 120.0
224.3302 100.0
224.628448 96.0
224.738846 56.0
224.765701 180.0
224.900024 160.0
225.007507 196.0
225.243454 236.0
225.315155 136.0
225.398834 144.0
225.428726 152.0
225.55127 88.0
225.584167 72.0
225.629013 152.0
225.853317 220.0
226.00592 124.0
226.074753 64.0
226.206467 196.0
226.314255 72.0
226.374344 132.0
226.419083 56.0
226.443054 160.0
226.46402 48.0
226.550903 156.0
226.637787 200.0
226.676758 80.0
226.766678 124.0
226.886597 128.0
227.054535 72.0
227.084534 64.0
227.123535 152.0
227.159531 132.0
227.183533 80.0
227.270554 88.0
227.303558 48.0
227.372696 128.0
227.586899 124.0
227.61879 156.0
227.675858 76.0
227.787003 100.0
227.842331 116.0
228.030426 240.0
228.060486 168.0
228.09584 116.0
228.138657 76.0
228.224167 24460.0
228.304138 252.0
228.325958 28.0
228.37471 180.0
228.42131 192.0
228.506821 60.0
228.571823 100.0
228.604919 44.0
228.716293 88.0
228.758453 40.0
228.793365 60.0
228.814301 80.0
228.908142 56.0
228.968384 136.0
228.991577 68.0
229.000961 144.0
229.041046 48.0
229.077698 128.0
229.123932 84.0
229.184692 656.0
229.225906 3568.0
229.288498 168.0
229.311401 80.0
229.353546 68.0
229.403198 64.0
229.466522 200.0
229.641449 76.0
229.759109 44.0
229.816696 48.0
229.891891 52.0
230.003571 120.0
230.106232 164.0
230.154541 80.0
230.188065 100.0
230.225708 156.0
230.290466 144.0
230.334503 88.0
230.666794 76.0
230.711472 248.0
230.740479 80.0
230.78009 68.0
230.817719 228.0
230.909042 84.0
230.973114 64.0
231.009979 32.0
231.038116 292.0
231.070496 56.0
231.13707 76.0
231.230896 72.0
231.261169 140.0
231.342911 56.0
231.548843 60.0
231.608688 196.0
231.638397 128.0
231.815475 92.0
231.839722 52.0
231.872772 184.0
232.03981 168.0
232.079224 172.0
232.182968 156.0
232.361343 144.0
232.494873 84.0
232.531296 160.0
232.687668 140.0
232.713455 128.0
232.740784 60.0
232.78331 68.0
232.804565 208.0
232.910889 168.0
233.035461 44.0
233.135742 52.0
233.208694 76.0
233.22998 76.0
233.427628 80.0
233.485413 48.0
233.512787 112.0
233.594925 68.0
233.734894 152.0
233.771423 196.0
233.850555 116.0
234.060638 136.0
234.088058 56.0
234.23732 152.0
234.548172 64.0
234.752472 120.0
234.854446 120.0
235.136917 136.0
235.246826 68.0
235.307892 188.0
235.494186 128.0
235.515579 136.0
235.570572 168.0
235.717239 64.0
236.071899 28.0
236.191193 140.0
236.264618 72.0
236.338058 72.0
236.454361 136.0
236.576813 116.0
236.606277 148.0
236.656433 76.0
236.719421 144.0
236.780243 140.0
236.80957 108.0
237.07309 96.0
237.257019 168.0
237.299942 168.0
237.625107 188.0
237.806183 176.0
237.895203 220.0
238.094818 40.0
238.150116 80.0
238.174683 152.0
238.217697 120.0
238.244843 96.0
238.322174 160.0
238.41745 84.0
238.457397 136.0
238.583511 196.0
238.626495 172.0
238.727982 180.0
238.828308 188.0
238.915634 176.0
239.180313 52.0
239.248047 164.0
239.500595 144.0
239.611511 60.0
239.715256 96.0
239.747116 144.0
240.040802 192.0
240.138718 92.0
240.252853 144.0
240.348526 96.0
240.478149 80.0
240.613998 88.0
240.75296 52.0
240.888885 152.0
240.935226 144.0
241.00322 52.0
241.052658 156.0
241.185577 128.0
241.269058 120.0
241.297394 120.0
241.531937 88.0
241.83522 52.0
241.983826 128.0
242.067307 96.0
242.160553 136.0
242.18515 76.0
242.375748 116.0
242.445435 60.0
242.618103 80.0
243.054871 152.0
243.258194 40.0
243.366867 160.0
243.528366 104.0
243.674393 172.0
243.820465 140.0
243.851547 148.0
244.100296 48.0
244.209152 228.0
244.326401 204.0
244.392731 104.0
244.728928 108.0
245.012207 208.0
245.074707 116.0
245.115219 64.0
245.166351 188.0
245.208618 13376.0
245.388947 184.0
245.411392 36.0
245.466415 68.0
245.504944 44.0
245.526779 64.0
245.591705 152.0
245.639328 76.0
245.682755 84.0
245.722351 64.0
245.785736 64.0
245.854401 68.0
246.211807 2740.0
246.297806 72.0
246.338425 56.0
246.363419 60.0
246.388412 52.0
246.410294 156.0
246.573776 132.0
246.604065 64.0
246.663467 152.0
246.738495 132.0
246.779144 68.0
246.888611 80.0
247.078522 108.0
247.167068 64.0
247.211349 688.0
247.445663 68.0
247.533356 84.0
247.683701 100.0
247.711899 92.0
247.877747 220.0
247.981415 52.0
248.028442 164.0
248.053513 48.0
248.119354 64.0
248.164047 64.0
248.211578 148.0
248.287048 136.0
248.360855 96.0
248.475571 92.0
248.574219 28.0
248.721756 208.0
248.907013 84.0
249.088257 120.0
249.528244 220.0
249.554382 192.0
249.739944 160.0
249.828049 52.0
250.057785 132.0
250.22464 40.0
250.272003 92.0
250.334854 184.0
250.464005 28.0
250.637314 136.0
250.804367 132.0
250.962006 44.0
251.037704 112.0
251.138641 72.0
251.719421 132.0
251.931061 124.0
251.968979 92.0
252.029022 128.0
252.054306 104.0
252.158234 172.0
252.421036 164.0
252.525406 116.0
252.620316 112.0
252.879822 92.0
253.019119 32.0
253.088791 216.0
253.229385 236.0
253.358047 52.0
253.526001 60.0
253.60524 120.0
253.640121 168.0
253.985794 116.0
254.023865 76.0
254.058762 48.0
254.550797 88.0
254.995621 60.0
255.157761 104.0
255.199097 52.0
255.730438 88.0
255.922836 140.0
255.992859 116.0
256.048859 44.0
256.083893 132.0
256.1716 136.0
256.307343 64.0
256.558777 40.0
256.896851 56.0
257.062775 44.0
257.152161 104.0
257.321381 64.0
257.596069 212.0
257.628021 128.0
257.761383 124.0
257.896454 88.0
257.931641 224.0
258.35379 200.0
258.459412 96.0
258.497803 92.0
258.801941 196.0
258.878815 84.0
258.965271 108.0
259.252899 180.0
259.468445 92.0
259.615967 100.0
260.148682 152.0
260.209686 120.0
260.55658 84.0
260.942322 136.0
260.984131 128.0
261.138519 88.0
261.218933 104.0
261.309448 88.0
261.410095 276.0
261.592651 68.0
261.869232 180.0
261.975555 44.0
262.046417 124.0
262.294617 136.0
262.397797 172.0
262.63324 84.0
262.704193 160.0
263.000336 100.0
263.050262 196.0
263.165771 88.0
263.19809 136.0
263.220673 100.0
263.540497 148.0
263.702759 60.0
263.727966 140.0
263.841125 80.0
263.95755 52.0
264.156281 108.0
264.672424 76.0
264.88269 188.0
264.938385 36.0
265.025879 136.0
265.210632 164.0
265.243042 180.0
265.470215 68.0
265.606262 148.0
265.671143 72.0
265.810699 84.0
265.859558 132.0
265.943756 216.0
266.057404 56.0
266.141815 72.0
266.174286 228.0
266.245758 152.0
266.3237 68.0
266.577148 64.0
266.625916 164.0
266.902283 164.0
267.064911 68.0
267.113708 60.0
267.575867 48.0
267.986328 176.0
268.009125 108.0
268.07431 64.0
268.159058 172.0
268.286194 72.0
268.364441 112.0
268.432953 100.0
268.469635 80.0
268.494904 100.0
268.654755 40.0
268.915833 92.0
268.945221 128.0
269.075836 84.0
269.111755 124.0
269.147675 40.0
269.219513 168.0
269.359985 144.0
269.387848 120.0
269.401215 64.0
269.406799 96.0
269.436005 120.0
269.474335 68.0
269.51355 136.0
269.539703 80.0
269.582184 48.0
269.62793 80.0
269.667175 88.0
269.707611 76.0
269.748901 72.0
269.784851 72.0
269.847839 92.0
269.896027 108.0
269.9534 148.0
269.990875 184.0
270.05304 56.0
270.115204 96.0
270.184296 340.0
270.216614 164.0
270.247589 300.0
270.299255 48.0
270.347992 176.0
270.410919 108.0
270.451721 120.0
270.512848 208.0
270.557037 120.0
270.604645 112.0
270.625793 232.0
270.687531 296.0
270.720459 80.0
270.763275 200.0
270.769592 124.0
270.786072 116.0
270.858521 172.0
270.902893 148.0
270.971008 312.0
271.022156 328.0
271.052399 164.0
271.080597 272.0
271.126495 428.0
271.13504 532.0
271.159973 296.0
271.191833 476.0
271.244995 211848.0
271.335938 124.0
271.375824 92.0
271.402466 60.0
271.435974 120.0
271.466492 224.0
271.503937 156.0
271.528717 208.0
271.550812 156.0
271.599091 208.0
271.624359 92.0
271.698242 224.0
271.747711 124.0
271.784607 1012.0
271.840424 80.0
271.849731 120.0
271.894653 176.0
271.942383 88.0
271.953339 148.0
271.997894 136.0
272.033478 168.0
272.076233 80.0
272.119263 196.0
272.157532 180.0
272.202393 340.0
272.247406 45868.0
272.333435 68.0
272.373657 132.0
272.412567 148.0
272.437653 76.0
272.480865 136.0
272.512756 100.0
272.540192 136.0
272.575867 104.0
272.626221 96.0
272.679657 152.0
272.727661 156.0
272.802826 76.0
272.834167 80.0
272.880188 56.0
272.920715 100.0
272.958893 60.0
272.982788 92.0
273.017212 96.0
273.064362 48.0
273.093079 88.0
273.141663 128.0
273.201996 208.0
273.249084 3772.0
273.330872 184.0
273.384521 108.0
273.417419 56.0
273.46814 80.0
273.496338 88.0
273.57547 144.0
273.642242 96.0
273.686432 68.0
273.745697 172.0
273.800049 80.0
273.850037 80.0
273.876312 124.0
273.910217 108.0
273.919434 156.0
273.930328 160.0
273.963104 36.0
273.988617 284.0
274.052094 208.0
274.072479 164.0
274.108734 232.0
274.158051 80.0
274.184631 112.0
274.251038 384.0
274.277191 316.0
274.315765 204.0
274.343475 72.0
274.373016 192.0
274.404999 72.0
274.470764 60.0
274.543304 72.0
274.704956 32.0
274.739685 68.0
274.787445 96.0
274.848389 120.0
274.883148 56.0
274.919464 76.0
274.959045 52.0
275.04538 244.0
275.087799 140.0
275.150665 52.0
275.233093 136.0
275.319519 72.0
275.444489 72.0
275.494263 60.0
275.77063 72.0
275.804718 64.0
275.867523 92.0
275.909363 128.0
275.97995 52.0
276.003113 48.0
276.178406 52.0
276.214783 60.0
276.26825 76.0
276.312469 92.0
276.39679 48.0
276.457336 108.0
276.519257 96.0
276.595398 60.0
276.641724 32.0
276.75293 48.0
276.787445 104.0
277.045807 64.0
277.098816 72.0
277.131958 48.0
277.21814 156.0
277.300995 100.0
277.344086 60.0
277.471069 80.0
277.642517 172.0
277.718811 56.0
277.841583 64.0
277.954407 60.0
277.990906 92.0
278.150238 40.0
278.289703 92.0
278.372711 128.0
278.399292 48.0
278.804657 44.0
278.864471 68.0
279.246887 72.0
279.652863 80.0
280.105774 44.0
280.159088 48.0
280.245087 84.0
280.463654 124.0
280.50238 60.0
280.759125 116.0
280.785828 40.0
280.859222 76.0
280.904236 36.0
281.026031 88.0
281.212952 112.0
281.263 92.0
281.32312 112.0
281.425323 104.0
281.800751 72.0
282.201904 100.0
282.335663 44.0
282.382507 120.0
282.676941 68.0
282.713776 96.0
282.767303 52.0
282.838074 128.0
282.968201 52.0
283.05191 48.0
283.128937 60.0
283.18924 68.0
283.289734 104.0
283.608124 52.0
283.648346 88.0
283.943451 112.0
284.003204 104.0
284.369598 56.0
284.560974 40.0
284.804413 100.0
284.98761 112.0
285.038025 84.0
285.118683 200.0
285.148926 28.0
285.239685 32.0
285.286774 112.0
285.390991 92.0
285.508698 96.0
285.58609 40.0
285.614532 104.0
285.680267 96.0
285.730743 112.0
285.983154 84.0
286.296326 100.0
286.508545 96.0
286.643341 52.0
287.058044 68.0
287.128204 104.0
287.207947 116.0
287.415649 172.0
287.538116 84.0
287.78006 80.0
287.936249 104.0
287.979492 72.0
288.013275 80.0
288.067352 32.0
288.097748 72.0
288.23291 52.0
288.439117 48.0
288.593201 104.0
288.990417 72.0
289.098724 52.0
289.200287 48.0
289.467773 160.0
289.577362 56.0
289.759094 124.0
289.809937 120.0
290.064148 40.0
290.121796 64.0
290.647552 68.0
290.830841 60.0
290.912323 64.0
291.230103 972.0
291.282532 100.0
291.353882 76.0
291.462616 64.0
291.570801 96.0
291.580566 80.0
291.826355 52.0
292.230896 360.0
292.735016 64.0
292.861053 100.0
293.147278 36.0
293.36203 88.0
293.740601 76.0
293.849792 164.0
294.224213 168.0
294.906464 132.0
294.939331 36.0
295.137634 56.0
296.030884 80.0
296.133636 64.0
296.400879 76.0
296.550476 36.0
296.925446 84.0
297.302887 44.0
297.718353 72.0
297.828278 44.0
298.254395 160.0
298.326599 56.0
298.780609 64.0
299.13858 60.0
299.24823 1992.0
299.317627 48.0
299.658661 92.0
299.734467 44.0
299.782745 44.0
300.24881 392.0
300.68988 104.0
300.938446 48.0
301.052429 104.0
301.273499 156.0
301.961487 68.0
301.992615 68.0
302.165588 68.0
302.414795 80.0
302.612122 48.0
302.913483 56.0
303.655334 56.0
303.742065 108.0
304.089081 60.0
304.151581 108.0
304.457153 120.0
304.672546 80.0
305.413086 112.0
305.879425 72.0
306.022156 68.0
306.161469 56.0
306.339142 56.0
306.42276 56.0
307.210785 92.0
307.735504 120.0
308.510071 56.0
308.635956 76.0
308.772339 72.0
309.997833 48.0
310.422058 64.0
310.75885 40.0
311.036133 96.0
311.092285 96.0
311.317047 112.0
311.68634 148.0
311.978271 48.0
312.39975 68.0
312.441986 108.0
312.470123 64.0
313.190338 128.0
313.378632 76.0
314.3414 84.0
315.238464 52.0
315.65564 60.0
315.83252 76.0
316.10849 88.0
316.279388 428.0
316.547516 104.0
317.267059 1540.0
318.029663 96.0
318.082916 140.0
318.265778 652.0
318.317261 40.0
318.577698 64.0
319.285797 160.0
319.52948 52.0
320.273621 100.0
320.469574 76.0
320.672729 96.0
320.858124 64.0
320.890198 72.0
321.12915 88.0
321.161255 128.0
321.225494 92.0
321.628754 120.0
321.857269 92.0
322.16449 52.0
323.072632 76.0
324.308228 96.0
324.537689 56.0
324.702667 56.0
324.853333 44.0
325.007629 136.0
326.656921 96.0
327.041992 48.0
327.175201 144.0
327.243622 104.0
327.773193 120.0
327.82724 88.0
328.003876 108.0
328.476318 108.0
328.606201 80.0
328.804718 72.0
329.238007 156.0
329.634949 88.0
329.765564 68.0
330.463593 112.0
330.977631 48.0
331.281921 68.0
333.615692 64.0
333.95755 92.0
334.765594 88.0
335.199158 52.0
335.348602 96.0
335.48349 96.0
336.161987 136.0
336.220398 104.0
336.271515 48.0
337.265137 132.0
337.75882 52.0
338.058868 68.0
338.570892 76.0
339.124786 60.0
339.788605 28.0
340.379639 48.0
341.257935 48.0
341.596344 84.0
341.975403 64.0
342.185242 132.0
343.68927 104.0
344.147034 48.0
344.250427 88.0
344.431427 36.0
345.777496 68.0
345.877441 52.0
347.118744 116.0
347.716827 104.0
347.931427 48.0
348.027985 36.0
348.113403 72.0
349.187592 144.0
349.9729 88.0
350.401276 120.0
350.725525 60.0
351.057404 48.0
351.281219 76.0
351.314789 144.0
351.430481 64.0
351.590942 100.0
353.976349 92.0
354.193604 132.0
354.954254 60.0
355.652435 60.0
356.527649 60.0
356.606598 32.0
356.933716 76.0
357.197021 112.0
357.592133 88.0
358.108032 52.0
358.42453 60.0
359.412598 36.0
360.171539 60.0
360.326447 68.0
362.434204 96.0
363.177368 80.0
363.2836 72.0
365.384766 52.0
365.63974 104.0
365.73111 72.0
365.978607 68.0
367.202026 32.0
367.541595 36.0
367.717163 80.0
367.911865 88.0
369.44455 76.0
370.535828 92.0
370.834747 48.0
370.880768 88.0
371.225861 40.0
371.551941 64.0
372.173798 72.0
372.554077 88.0
372.720154 72.0
372.83847 76.0
373.665314 68.0
374.011688 56.0
374.46994 44.0
374.566254 104.0
374.678009 104.0
375.607178 56.0
376.201538 80.0
376.301941 88.0
377.283386 108.0
377.476746 100.0
378.324188 76.0
379.440094 36.0
380.099579 36.0
380.29364 76.0
381.762421 52.0
382.112549 100.0
382.322693 72.0
382.443359 136.0
383.230133 68.0
385.266998 84.0
385.634369 64.0
387.093842 32.0
388.328491 76.0
388.84256 92.0
389.345154 120.0
389.439423 124.0
390.599121 60.0
390.752594 48.0
390.961151 64.0
391.894531 52.0
392.186218 120.0
392.742249 40.0
393.839722 88.0
397.089691 100.0
397.176971 56.0
399.843384 60.0
401.070312 100.0
401.142059 44.0
401.297577 60.0
401.453094 40.0
401.979736 60.0
402.255188 32.0
403.233917 104.0
403.433807 100.0
403.757721 40.0
404.353943 80.0
404.946564 52.0
405.259064 48.0
405.319183 128.0
405.716034 80.0
406.353821 48.0
407.345551 76.0
408.358612 88.0
408.905884 52.0
408.93808 60.0
409.203796 84.0
410.207092 68.0
410.852417 68.0
411.18335 108.0
412.686279 108.0
413.442841 128.0
415.298706 112.0
417.317291 36.0
417.829834 44.0
418.049591 136.0
418.607361 60.0
420.291107 84.0
420.923889 144.0
420.9729 64.0
421.279266 108.0
422.84967 100.0
423.390167 32.0
423.615448 48.0
423.719666 84.0
423.869507 104.0
425.892395 64.0
426.920013 88.0
428.143219 108.0
428.521484 68.0
428.838837 80.0
429.325378 96.0
430.406708 68.0
431.402557 52.0
431.609314 52.0
432.337463 112.0
432.432678 120.0
433.397705 44.0
433.795624 48.0
434.160553 96.0
434.413605 136.0
434.542236 84.0
434.604492 48.0
435.700745 152.0
436.295105 56.0
437.447601 40.0
437.57254 100.0
438.193176 80.0
442.667358 92.0
442.818146 132.0
443.446686 124.0
443.673096 92.0
444.60022 92.0
447.391602 64.0
447.538971 120.0
448.246735 60.0
448.340057 164.0
449.330505 140.0
449.393799 104.0
449.659698 40.0
450.271973 108.0
450.359039 1852.0
450.4198 120.0
450.474731 76.0
451.363739 492.0
451.531586 80.0
451.709259 44.0
451.984314 52.0
452.349487 116.0
452.399139 56.0
453.030212 68.0
453.470978 64.0
453.534546 84.0
453.776215 48.0
454.853912 88.0
455.291321 104.0
456.311279 108.0
456.61322 44.0
457.766693 76.0
458.043579 60.0
458.150085 48.0
458.802216 56.0
459.268646 88.0
459.642578 56.0
461.693359 92.0
461.843079 76.0
462.048431 144.0
462.270966 124.0
468.777771 68.0
469.860168 80.0
470.753784 72.0
471.02594 88.0
471.254913 104.0
473.227509 64.0
474.171997 56.0
475.186829 100.0
476.38089 92.0
476.415649 100.0
480.792267 64.0
480.835907 64.0
481.027985 76.0
481.124054 84.0
482.085114 120.0
482.399872 52.0
483.134644 36.0
484.509521 100.0
488.263062 88.0
488.650208 44.0
489.874268 104.0
490.500092 60.0
491.492554 72.0
493.188629 60.0
493.701569 56.0
494.506897 76.0
495.202118 60.0
495.893402 60.0
496.048553 60.0
497.042145 72.0
500.598877 64.0
500.888397 128.0
501.833313 148.0
503.614166 84.0
504.686859 28.0
504.941803 80.0
505.380249 80.0
506.660919 104.0
507.53952 44.0
509.321442 56.0
511.457581 96.0
515.752319 28.0
516.426147 76.0
517.933594 76.0
517.987976 76.0
519.579407 60.0
521.786926 64.0
523.616455 124.0
525.038635 96.0
525.569885 80.0
525.896484 88.0
527.769775 60.0
529.3349 112.0
529.431091 36.0
529.861755 48.0
530.916138 60.0
531.507996 92.0
531.576843 56.0
532.738647 80.0
535.485107 68.0
537.347717 120.0
538.303284 40.0
539.060974 64.0
540.337341 88.0
541.267822 48.0
542.560669 44.0
542.69519 36.0
542.773987 52.0
543.502319 84.0
543.548767 48.0
544.802551 128.0
545.188232 48.0
546.333679 104.0
546.769653 96.0
549.220764 48.0
550.065491 64.0
551.79895 108.0
551.915833 76.0
552.659668 72.0
554.223755 84.0
554.26593 60.0
554.458069 132.0
556.057617 84.0
557.941528 32.0
558.09198 92.0
560.521179 76.0
561.204712 92.0
561.511292 44.0
561.577332 96.0
562.56842 76.0
564.581543 48.0
565.954041 80.0
567.091125 48.0
568.476196 56.0
568.585327 48.0
569.264343 60.0
569.649109 116.0
570.195251 60.0
571.023621 88.0
572.074707 48.0
573.499146 84.0
573.85199 76.0
575.78009 76.0
576.406006 80.0
577.032227 88.0
579.253113 60.0
581.54541 36.0
582.885498 92.0
582.976807 224.0
583.443115 40.0
585.112793 48.0
586.418396 104.0
588.9422 68.0
592.566101 88.0
594.811768 80.0
595.062012 44.0
597.407043 68.0
598.765259 92.0
600.788452 84.0
601.183716 52.0
602.189575 112.0
607.476807 52.0
608.311157 100.0
613.11731 72.0
613.797668 56.0
615.115173 96.0
616.310486 88.0
618.704651 80.0
620.309937 76.0
620.528137 64.0
621.594727 56.0
624.357178 36.0
625.068665 72.0
629.17627 84.0
629.271118 120.0
629.361023 80.0
633.322327 36.0
634.796021 108.0
634.921387 68.0
637.854065 32.0
639.010864 96.0
641.862183 44.0
646.66217 100.0
648.075256 96.0
650.108948 76.0
653.447815 64.0
654.075439 64.0
654.852966 88.0
657.88739 56.0
658.132507 88.0
658.668823 76.0
660.463257 168.0
662.009094 112.0
663.695251 52.0
666.595886 68.0
669.070251 108.0
669.708862 108.0
670.672546 124.0
672.03418 52.0
672.488342 52.0
673.919067 48.0
674.968445 48.0
675.046021 40.0
677.914368 44.0
678.406799 128.0
679.963135 96.0
680.18634 72.0
680.383667 116.0
680.638123 48.0
681.006897 68.0
681.38092 68.0
681.905884 188.0
685.34613 68.0
685.690125 88.0
688.66449 60.0
690.865479 80.0
693.379211 60.0
693.421143 104.0
696.175842 76.0
697.331848 40.0
697.773499 104.0
701.960083 60.0
703.263367 72.0
703.970886 52.0
708.218384 220.0
709.076843 52.0
711.060669 100.0
714.515137 116.0
714.919617 88.0
715.004761 176.0
715.116516 48.0
718.362061 80.0
721.219238 44.0
722.625916 72.0
726.237061 212.0
726.843384 88.0
726.913147 32.0
728.771301 188.0
732.817993 84.0
735.099182 76.0
739.639709 68.0
744.161682 196.0
745.074219 188.0
745.590515 92.0
747.722717 160.0
751.26709 104.0
752.285645 96.0
754.974243 208.0
757.11438 144.0
757.163696 44.0
761.85968 64.0
761.914612 52.0
762.238831 72.0
763.992981 80.0
764.510254 84.0
766.134827 40.0
766.244995 84.0
768.191345 36.0
769.201355 32.0
772.628052 60.0
773.890137 60.0
774.372009 56.0
776.683655 72.0
776.955505 124.0
778.232178 76.0
779.154297 184.0
780.427246 92.0
781.089172 124.0
781.873779 108.0
782.664368 132.0
783.527771 68.0
784.24115 80.0
784.921143 80.0
786.807556 180.0
789.227173 56.0
790.043823 192.0
793.466187 44.0
794.621704 132.0
795.957764 168.0
797.789612 52.0
801.262512 92.0
801.91626 168.0
805.279419 40.0
806.0495 164.0
806.584839 164.0
807.37085 60.0
807.534912 188.0
808.757202 28.0
809.091248 64.0
809.940796 232.0
811.119629 108.0
811.499512 96.0
813.218567 84.0
813.389709 120.0
813.769287 112.0
814.098694 152.0
814.178223 108.0
817.589783 64.0
818.085022 48.0
819.46344 76.0
820.71759 52.0
822.714722 68.0
822.943176 60.0
824.159912 104.0
829.981995 108.0
832.289001 76.0
832.369385 188.0
833.311523 292.0
834.282959 96.0
835.231934 44.0
836.233215 140.0
836.71106 92.0
838.543152 36.0
839.713684 188.0
841.69342 68.0
841.837769 52.0
842.964417 80.0
843.06842 116.0
843.767944 192.0
846.117188 216.0
846.458862 28.0
847.432068 68.0
847.565369 56.0
848.185608 248.0
849.983704 212.0
850.744141 80.0
851.069336 124.0
851.470093 116.0
851.958069 128.0
852.219543 44.0
852.544983 104.0
853.51593 92.0
857.580017 156.0
858.268005 192.0
858.711304 88.0
859.008789 44.0
859.890015 136.0
861.665466 144.0
862.489563 68.0
864.349609 240.0
864.589539 168.0
865.371094 40.0
865.573181 96.0
866.908936 192.0
868.762024 176.0
868.838318 68.0
869.524963 196.0
871.839172 88.0
873.085693 112.0
873.4151 56.0
873.662231 128.0
874.33313 72.0
874.527344 68.0
876.088013 120.0
878.641113 132.0
879.0896 176.0
879.910156 268.0
881.316101 208.0
881.540649 116.0
882.096313 56.0
882.208618 176.0
882.522034 116.0
885.19104 176.0
885.273987 104.0
885.362854 64.0
885.7005 152.0
885.872253 64.0
886.109314 112.0
886.245605 152.0
886.370056 120.0
886.660461 184.0
886.796814 48.0
886.962769 52.0
887.039856 76.0
887.093201 100.0
889.691956 56.0
889.848328 224.0
890.279846 120.0
890.380859 120.0
890.802612 52.0
891.705933 104.0
891.90802 108.0
892.020996 208.0
892.062622 56.0
893.049805 176.0
893.287781 44.0
893.876892 144.0
894.400696 92.0
895.127136 216.0
895.430908 172.0
895.818115 180.0
896.050476 52.0
897.278381 60.0
898.417664 192.0
899.032288 52.0
899.939758 100.0
900.411621 64.0
903.292969 148.0
903.580139 40.0
903.687866 208.0
905.651733 140.0
906.154968 232.0
907.653687 184.0
908.175476 136.0
909.399658 136.0
909.934021 200.0
910.486511 184.0
910.630676 100.0
912.475769 176.0
913.456177 96.0
914.419006 56.0
915.195679 88.0
915.906433 120.0
916.219727 168.0
916.61145 136.0
916.768127 180.0
920.070557 160.0
920.375916 192.0
920.545044 68.0
921.813782 92.0
922.140198 52.0
922.245422 208.0
923.222534 116.0
924.269165 48.0
924.559692 92.0
925.044006 100.0
925.788818 116.0
925.849365 180.0
928.467834 52.0
928.746887 208.0
929.080566 108.0
929.863464 188.0
930.519165 168.0
930.579834 176.0
930.89563 168.0
930.956421 148.0
931.545654 220.0
931.782593 128.0
932.347778 148.0
932.736816 144.0
933.776733 120.0
935.170227 168.0
935.352844 216.0
935.584167 168.0
936.132263 160.0
936.717041 72.0
937.637207 160.0
938.155396 140.0
938.25293 140.0
938.527344 184.0
939.07019 160.0
939.314209 40.0
939.533875 132.0
939.747437 144.0
939.869446 68.0
940.986572 72.0
941.067566 212.0
941.481262 144.0
943.644714 80.0
944.072815 160.0
945.780029 120.0
947.868713 180.0
948.26709 156.0
950.585632 144.0
951.113525 40.0
951.371338 252.0
951.856445 84.0
952.102112 96.0
952.691895 104.0
953.115906 136.0
953.281799 128.0
953.656738 112.0
953.982605 76.0
954.369995 96.0
954.578674 116.0
955.581848 52.0
956.658997 192.0
957.344666 80.0
957.79834 116.0
958.094116 232.0
958.858276 132.0
959.992798 164.0
960.251831 100.0
962.375 44.0
962.634338 216.0
963.320007 144.0
963.548645 140.0
963.727844 108.0
964.333557 88.0
964.475708 80.0
964.574646 52.0
964.729187 132.0
964.995117 56.0
965.285767 212.0
965.768188 76.0
965.997131 224.0
966.046631 132.0
966.733521 156.0
967.179199 76.0
967.272034 140.0
968.101807 84.0
968.832764 76.0
969.880188 120.0
970.301819 84.0
971.225891 84.0
971.498901 204.0
971.902222 228.0
972.162903 88.0
973.009338 204.0
973.112732 160.0
973.218323 160.0
973.441895 160.0
974.348877 236.0
974.839783 192.0
975.159424 152.0
976.450195 40.0
977.084778 184.0
977.483032 164.0
977.881348 116.0
978.086792 88.0
979.668701 76.0
980.036377 68.0
981.239441 48.0
981.463928 196.0
983.079773 68.0
983.192139 36.0
984.49707 168.0
984.753174 148.0
985.402954 224.0
985.584167 140.0
985.646667 144.0
985.809143 160.0
985.952942 184.0
986.121704 176.0
986.271729 104.0
986.571838 92.0
987.184631 124.0
987.434814 84.0
987.553711 140.0
987.891541 144.0
988.110535 92.0
988.817749 104.0
989.48761 408.0
990.082581 116.0
990.445862 124.0
990.583679 188.0
990.746582 68.0
991.235413 160.0
991.830872 144.0
992.558228 124.0
993.401367 200.0
993.913269 100.0
994.095276 192.0
994.20166 156.0
994.69165 100.0
995.043213 172.0
995.363525 196.0
995.420044 148.0
996.456543 168.0
996.814758 68.0
997.059875 168.0
998.49353 132.0
998.745117 184.0
998.826904 164.0
999.021973 156.0
999.569397 116.0
999.638672 116.0
1000.192566 100.0
1000.255554 116.0
1000.916687 92.0
1001.867859 164.0
1001.911987 148.0
1002.094727 188.0
1002.209839 208.0
1002.781677 100.0
1002.832092 120.0
1003.229309 116.0
1003.334839 184.0
1003.866211 88.0
1004.761963 212.0
1005.576111 192.0
1005.696045 200.0
1005.860229 132.0
1005.992798 136.0
1006.068542 156.0
1006.163269 136.0
1006.31366 108.0
1007.003235 136.0
1007.862488 216.0
1007.976257 112.0
1009.038269 160.0
1009.171082 132.0
1009.461975 268.0
1009.626404 212.0
1009.740295 80.0
1010.214722 184.0
1011.053406 152.0
1011.556519 196.0
1011.664124 180.0
1011.784424 184.0
1011.955383 132.0
1012.329041 60.0
1012.696411 184.0
1013.029663 160.0
1013.279297 60.0
1013.51062 120.0
1013.944763 124.0
1014.299744 44.0
1014.366028 132.0
1014.623108 96.0
1014.686523 112.0
1015.599792 180.0
1015.726685 156.0
1015.847229 168.0
1016.259644 88.0
1016.310425 64.0
1017.097473 84.0
1017.218079 168.0
1017.935669 56.0
1018.138916 56.0
1018.202393 148.0
1018.297668 192.0
1018.342163 80.0
1018.412048 120.0
1018.952087 60.0
1019.02832 116.0
1020.286865 76.0
1020.350464 180.0
1020.560303 176.0
1021.124756 196.0
1021.368103 188.0
1021.877136 124.0
1022.093445 148.0
1022.192322 212.0
1022.558105 216.0
1023.309387 64.0
1023.723328 172.0
1024.666138 88.0
1025.105835 116.0
1025.838989 140.0
1025.932007 168.0
1026.87207 208.0
1027.771729 64.0
1027.929077 128.0
1027.990601 124.0
1028.250366 136.0
1028.326904 164.0
1028.927124 60.0
1029.291016 116.0
1029.406006 212.0
1029.764282 216.0
1030.00647 80.0
1030.097778 132.0
1030.217285 144.0
1030.460083 156.0
1030.575195 200.0
1031.035278 140.0
1031.329346 112.0
1031.553101 156.0
1032.582642 64.0
1032.761841 156.0
1033.70874 136.0
1034.387329 152.0
1034.726685 48.0
1035.02124 196.0
1035.3927 120.0
1035.514404 152.0
1035.72583 140.0
1035.860352 132.0
1035.956421 160.0
1036.352783 232.0
1036.439697 188.0
1036.744629 100.0
1036.879272 84.0
1037.170898 172.0
1037.488281 148.0
1037.956421 48.0
1038.43103 144.0
1038.514404 212.0
1038.681274 88.0
1038.745361 84.0
1038.848022 88.0
1039.515381 212.0
1039.630981 152.0
1039.73999 56.0
1039.932617 192.0
1040.182983 184.0
1040.234375 156.0
1040.446167 116.0
1040.570068 244.0
1040.703125 56.0
1041.428833 96.0
1041.505981 140.0
1041.865723 96.0
1042.12915 180.0
1042.354126 132.0
1042.444092 108.0
1042.746216 184.0
1043.266846 116.0
1043.38269 200.0
1043.427612 48.0
1043.485474 128.0
1043.691284 136.0
1044.070801 44.0
1044.984253 112.0
1045.250732 172.0
1045.466919 224.0
1045.647217 144.0
1045.891846 124.0
1046.149292 120.0
1046.200806 156.0
1046.374756 120.0
1046.632324 132.0
1046.838379 76.0
1047.044434 28.0
1047.168945 108.0
1047.25061 72.0
1047.366577 156.0
1047.5625 176.0
1047.669434 84.0
1048.281616 64.0
1048.549927 132.0
1048.687622 48.0
1048.919678 120.0
1049.074463 144.0
1049.158325 300.0
1049.558105 40.0
1049.674194 184.0
1049.854736 200.0
1049.945068 188.0
1050.148071 124.0
1050.667603 116.0
1051.216064 116.0
1051.622803 64.0
1051.990723 52.0
1052.487915 200.0
1052.856079 60.0
1053.418091 152.0
1053.631348 220.0
1053.754028 160.0
1054.542603 72.0
1054.663574 212.0
1054.839966 104.0
1055.066284 80.0
1055.221436 112.0
1055.273193 48.0
1055.383057 172.0
1055.525391 108.0
1057.116943 136.0
1057.291626 120.0
1057.505249 72.0
1058.230347 152.0
1058.366333 120.0
1058.54126 100.0
1058.619019 136.0
1059.022339 208.0
1059.422241 132.0
1059.680908 280.0
1059.904297 244.0
1061.003784 160.0
1061.106445 192.0
1061.211304 168.0
1062.229614 172.0
1062.508545 188.0
1062.677246 176.0
1062.891479 172.0
1062.98877 180.0
1063.317871 148.0
1063.514526 120.0
1063.650879 172.0
1063.72229 132.0
1063.806641 144.0
1063.968994 168.0
1064.22229 80.0
1064.501465 152.0
1064.709351 136.0
1064.969238 132.0
1065.060181 92.0
1065.306396 180.0
1066.333862 248.0
1066.437866 52.0
1066.522339 144.0
1066.591431 108.0
1066.79541 132.0
1066.866943 136.0
1066.938477 208.0
1067.250488 88.0
1067.621216 188.0
1067.71228 92.0
1067.796875 136.0
1068.47998 116.0
1068.720703 72.0
1068.968018 116.0
1069.658081 76.0
1069.805542 204.0
1069.905396 160.0
1070.26355 236.0
1070.387329 100.0
1070.491577 168.0
1070.967041 128.0
1071.038696 32.0
1071.514282 180.0
1071.716309 60.0
1071.781494 140.0
1072.048706 148.0
1072.674438 132.0
1072.967896 36.0
1073.052612 104.0
1073.714722 184.0
1073.900513 44.0
1074.154907 140.0
1074.533325 80.0
1074.807495 168.0
1074.964111 196.0
1075.277344 68.0
1075.551514 104.0
1075.620972 252.0
1075.713257 172.0
1076.870728 92.0
1077.13855 180.0
1077.360596 48.0
1077.419434 168.0
1077.595825 40.0
1077.773315 112.0
1078.125244 132.0
1079.105835 124.0
1079.404297 144.0
1079.903809 172.0
1080.473022 60.0
1081.435059 160.0
1081.552856 140.0
1081.657593 204.0
1081.919556 148.0
1082.489258 116.0
1082.548218 180.0
1082.836426 32.0
1082.973999 108.0
1083.190186 164.0
1083.418579 156.0
1083.498047 160.0
1083.574585 124.0
1083.631348 132.0
1083.786377 120.0
1083.878174 120.0
1083.953735 304.0
1084.225464 164.0
1084.284546 104.0
1084.350098 164.0
1084.513916 60.0
1084.612305 252.0
1085.058105 108.0
1085.169556 180.0
1085.327026 100.0
1085.727051 180.0
1086.015625 56.0
1086.127197 132.0
1086.258423 148.0
1086.35022 160.0
1086.960449 184.0
1087.387085 168.0
1087.676025 28.0
1087.787598 48.0
1088.13562 100.0
1088.234131 140.0
1088.523071 88.0
1088.66748 120.0
1089.396729 140.0
1089.613525 156.0
1089.777832 144.0
1090.553345 188.0
1091.000366 128.0
1091.263428 196.0
1091.381836 164.0
1092.026367 144.0
1092.125 220.0
1092.231323 144.0
1093.223877 168.0
1093.276611 68.0
1093.329224 196.0
1093.947998 276.0
1094.375977 128.0
1094.744873 196.0
1094.810669 104.0
1095.172974 60.0
1095.2323 176.0
1095.772461 56.0
1096.240356 128.0
1096.794067 48.0
1096.873169 88.0
1097.427124 88.0
1097.796387 108.0
1098.046997 184.0
1098.330688 168.0
1098.719971 120.0
1099.881592 144.0
1100.177734 196.0
1100.264526 124.0
1100.422974 124.0
1100.469238 324.0
1101.050415 124.0
1101.380615 236.0
1101.737427 152.0
1101.975342 176.0
1102.140503 236.0
1102.285889 128.0
1102.768433 112.0
1103.065918 56.0
1103.449341 224.0
1103.581665 80.0
1103.877197 140.0
1103.938721 100.0
1103.985107 76.0
1104.315796 168.0
1104.778931 176.0
1104.95752 152.0
1105.083252 112.0
1105.341309 204.0
1105.632568 212.0
1105.705444 140.0
1105.794312 192.0
1106.023193 108.0
1106.274658 128.0
1106.367432 56.0
1106.559448 100.0
1106.718384 64.0
1106.792847 340.0
1107.254883 80.0
1107.314453 116.0
1107.440308 180.0
1107.778198 92.0
1107.831177 144.0
1108.439453 224.0
1108.540283 180.0
1108.904785 56.0
1109.24292 128.0
1109.295898 160.0
1109.481567 152.0
1109.62085 92.0
1109.965942 88.0
1110.542725 160.0
1110.600586 172.0
1110.71521 128.0
1110.788086 140.0
1110.894287 144.0
1111.159668 108.0
1111.352173 112.0
1111.425171 168.0
1111.494873 172.0
1111.564453 136.0
1111.703857 140.0
1111.869873 132.0
1111.962769 104.0
1112.35437 36.0
1112.419312 88.0
1112.739502 176.0
1112.839111 76.0
1113.080811 180.0
1113.884033 176.0
1114.200806 336.0
1114.380249 156.0
1114.486572 96.0
1114.818848 172.0
1115.058105 44.0
1115.496948 132.0
1115.568115 188.0
1115.975708 76.0
1116.188477 136.0
1116.268311 84.0
1116.316528 136.0
1116.773804 128.0
1116.920166 92.0
1117.053223 180.0
1117.192871 100.0
1117.252808 260.0
1117.736328 200.0
1117.891602 116.0
1117.938232 176.0
1118.018066 172.0
1118.477417 160.0
1118.663818 76.0
1118.956787 136.0
1119.469604 208.0
1119.882568 216.0
1120.082397 204.0
1120.22229 132.0
1120.348877 132.0
1120.828613 164.0
1121.191162 204.0
1121.408569 196.0
1121.755249 176.0
1121.80188 168.0
1121.848511 132.0
1121.915161 136.0
1122.008545 132.0
1122.268677 52.0
1122.735474 32.0
1122.842163 132.0
1122.955566 104.0
1123.149048 76.0
1123.354736 72.0
1123.923096 292.0
1124.076538 164.0
1124.203369 36.0
1124.370239 244.0
1124.683838 152.0
1125.104614 152.0
1125.151367 60.0
1125.238159 48.0
1125.391724 136.0
1125.572021 152.0
1125.665527 188.0
1125.830811 80.0
1125.921997 88.0
1126.26001 168.0
1126.346802 112.0
1126.475464 188.0
1126.8479 56.0
1127.031128 192.0
1127.161987 84.0
1127.392822 140.0
1127.469482 132.0
1127.56311 232.0
1127.656616 76.0
1127.857178 196.0
1127.95752 184.0
1128.134033 196.0
1128.505737 132.0
1128.565918 176.0
1128.686279 112.0
1128.833374 116.0
1129.234741 140.0
1129.803467 152.0
1129.85022 164.0
1129.94397 144.0
1129.997437 40.0
1130.082764 200.0
1130.191528 244.0
1130.497437 136.0
1130.696289 276.0
1130.981323 148.0
1131.041626 108.0
1131.329468 140.0
1131.436646 124.0
1131.704468 64.0
1131.925415 120.0
1131.979004 108.0
1132.046021 108.0
1132.341675 168.0
1132.427734 48.0
1132.494751 164.0
1133.553467 136.0
1133.841675 252.0
1134.237183 144.0
1134.753418 136.0
1134.800415 176.0
1135.048462 192.0
1135.296631 92.0
1135.356079 112.0
1135.484497 148.0
1135.591797 264.0
1135.6521 152.0
1135.759521 172.0
1135.93396 172.0
1136.054688 124.0
1136.14856 164.0
1136.215698 184.0
1136.544556 116.0
1136.866699 164.0
1137.014282 48.0
1137.596436 140.0
1137.877808 160.0
1137.938599 180.0
1138.558716 156.0
1138.880981 148.0
1139.512695 104.0
1139.640381 180.0
1139.77478 156.0
1139.821777 84.0
1140.688843 212.0
1141.213379 136.0
1141.314209 76.0
1141.361328 84.0
1141.435303 112.0
1141.731201 112.0
1141.845581 108.0
1141.92627 80.0
1142.491455 196.0
1142.585571 184.0
1142.652832 160.0
1143.019897 148.0
1143.352783 128.0
1143.433594 136.0
1143.635498 212.0
1143.682617 92.0
1143.823975 120.0
1144.097656 320.0
1144.202881 180.0
1144.275146 204.0
1144.328979 164.0
1144.9823 156.0
1145.312378 56.0
1145.561646 168.0
1145.655884 152.0
1146.013062 140.0
1146.565674 136.0
1146.633179 92.0
1146.744141 192.0
1147.052979 200.0
1147.10498 108.0
1147.377563 172.0
1147.873779 164.0
1148.143555 140.0
1148.318848 76.0
1148.372803 156.0
1148.743896 28.0
1148.824829 68.0
1149.011475 176.0
1149.074463 148.0
1149.155518 80.0
1149.405151 204.0
1149.87085 68.0
1150.073364 180.0
1150.282715 140.0
1150.924194 152.0
1151.005127 128.0
1151.234863 72.0
1151.511719 96.0
1151.559082 104.0
1151.795532 128.0
1152.140015 60.0
1152.477905 140.0
1152.577026 108.0
1152.598022 72.0
1152.616821 164.0
1152.721191 140.0
1152.781982 160.0
1152.984741 140.0
1153.126709 136.0
1153.41748 100.0
1154.24231 164.0
1154.817261 60.0
1154.925537 132.0
1155.304321 108.0
1155.65625 104.0
1155.960815 96.0
1156.075806 100.0
1156.312744 152.0
1156.624146 116.0
1156.676392 156.0
1157.28772 160.0
1157.350586 68.0
1157.782104 80.0
1157.91748 148.0
1157.985229 152.0
1158.059814 112.0
1158.222412 124.0
1158.317261 72.0
1158.534058 92.0
1158.67627 124.0
1158.805054 148.0
1159.035522 96.0
1159.279419 112.0
1159.57605 224.0
1160.242065 228.0
1160.560791 140.0
1161.064331 116.0
1161.205078 164.0
1161.415405 124.0
1161.510376 168.0
1161.775024 116.0
1162.059937 144.0
1162.134644 164.0
1162.276489 172.0
1162.467163 72.0
1162.541748 152.0
1162.66394 96.0
1162.772583 124.0
1162.891846 160.0
1163.064453 60.0
1163.240967 104.0
1163.288452 76.0
1163.987915 96.0
1164.128418 204.0
1164.232422 60.0
1164.307129 112.0
1164.748657 124.0
1164.84375 96.0
1164.891357 204.0
1164.990234 220.0
1165.047607 136.0
1165.115601 112.0
1165.863159 32.0
1166.033081 228.0
1166.107788 164.0
1166.236938 124.0
1166.298096 160.0
1166.46814 104.0
1166.522461 156.0
1166.644897 108.0
1166.709961 148.0
1167.080078 144.0
1167.392944 136.0
1167.726196 184.0
1168.114014 56.0
1168.1698 196.0
1168.508545 84.0
1168.626709 80.0
1168.957764 176.0
1169.059814 176.0
1169.287598 236.0
1169.366089 144.0
1169.413818 116.0
1169.931152 168.0
1170.094604 120.0
1170.169556 200.0
1170.258057 128.0
1170.761963 144.0
1170.816528 124.0
1171.020874 136.0
1171.170654 116.0
1171.218384 116.0
1171.351196 176.0
1171.490845 112.0
1171.661255 84.0
1171.722534 184.0
1171.824829 144.0
1172.301758 88.0
1172.726562 204.0
1172.82666 128.0
1172.894897 92.0
1172.949341 136.0
1172.997681 240.0
1173.058472 232.0
1173.174438 100.0
1173.228882 104.0
1173.37207 148.0
1173.57666 160.0
1173.706299 116.0
1173.801758 148.0
1173.944946 132.0
1174.286011 132.0
1174.517944 144.0
1174.804443 100.0
1174.95459 56.0
1175.067383 128.0
1175.200195 164.0
1175.272339 128.0
1175.452759 128.0
1175.527832 124.0
1175.671143 104.0
1175.800781 84.0
1175.915649 304.0
1176.299194 132.0
1176.596191 160.0
1176.778442 184.0
1177.091309 124.0
1177.357666 96.0
1177.630859 48.0
1177.856323 44.0
1177.945068 208.0
1178.068115 156.0
1178.257568 164.0
1178.283813 120.0
1178.45752 168.0
1178.778809 116.0
1178.888062 80.0
1179.134155 100.0
1179.257202 52.0
1179.653687 168.0
1179.756348 148.0
1179.98877 64.0
1180.089233 204.0
1180.13916 100.0
1180.262329 160.0
1180.387329 208.0
1180.563232 96.0
1180.908325 180.0
1181.000977 180.0
1181.384155 160.0
1181.449219 140.0
1181.54834 100.0
1181.625 176.0
1181.802856 160.0
1181.856323 32.0
1181.965088 152.0
1182.253174 56.0
1182.321655 96.0
1182.437988 140.0
1182.714722 96.0
1182.821411 196.0
1182.917236 176.0
1182.965088 228.0
1183.041992 124.0
1183.142456 144.0
1183.307495 252.0
1183.422974 196.0
1183.441406 168.0
1183.718384 104.0
1183.773193 172.0
1183.831299 228.0
1183.882812 196.0
1183.944458 132.0
1184.24585 92.0
1184.437622 152.0
1184.547241 108.0
1184.636353 72.0
1184.786987 192.0
1184.937744 96.0
1185.067993 196.0
1185.157104 164.0
1185.342041 68.0
1185.390015 84.0
1185.479126 168.0
1185.623047 76.0
1185.786133 132.0
1186.006958 56.0
1186.089233 44.0
1186.244263 164.0
1186.349731 64.0
1186.452637 100.0
1186.719971 144.0
1186.781738 140.0
1187.035522 120.0
1187.302368 184.0
1187.447021 144.0
1187.563599 108.0
1187.659668 148.0
1187.755737 104.0
1187.851807 44.0
1187.934082 172.0
1187.989014 60.0
1188.153687 100.0
1188.235962 96.0
1188.284058 56.0
1188.592896 128.0
1188.702637 184.0
1189.052734 120.0
1189.121338 132.0
1189.265503 64.0
1189.313599 176.0
1189.388428 168.0
1189.498901 76.0
1189.609985 128.0
1189.670532 124.0
1190.096313 160.0
1190.171753 108.0
1190.33667 128.0
1190.508301 92.0
1190.611328 164.0
1190.796875 116.0
1190.908447 164.0
1190.968506 84.0
1191.064697 80.0
1191.367065 156.0
1191.422729 76.0
1191.460938 172.0
1191.607544 252.0
1191.683105 144.0
1191.882446 200.0
1191.937378 144.0
1192.109253 68.0
1192.473511 112.0
1192.528442 160.0
1192.590332 140.0
1192.707275 136.0
1192.967285 136.0
1193.036133 160.0
1193.380493 192.0
1193.484131 108.0
1193.683594 208.0
1193.862427 156.0
1194.02063 188.0
1194.213257 124.0
1194.3302 176.0
1194.399048 200.0
1194.495361 200.0
1194.69043 124.0
1194.763672 136.0
1195.073242 196.0
1195.128296 56.0
1195.355469 68.0
1195.480469 92.0
1195.623901 76.0
1196.033203 180.0
1196.160767 164.0
1196.429321 52.0
1196.560181 196.0
1196.618042 108.0
1196.990356 180.0
1197.11792 160.0
1197.489868 196.0
1197.710327 80.0
1197.80835 128.0
1198.082397 368.0
1198.151245 212.0
1198.244995 152.0
1198.448364 104.0
1198.613037 92.0
1198.906494 144.0
1199.010376 152.0
1199.07019 164.0
1199.564209 116.0
1199.846924 140.0
1200.060669 132.0
1200.281372 140.0
1200.523682 204.0
1200.840088 188.0
1200.929688 72.0
1201.205688 92.0
1201.486084 132.0
1201.695557 160.0
1201.916382 116.0
1202.035889 76.0
1202.240723 224.0
1202.309814 192.0
1202.358154 112.0
1202.468506 116.0
1202.675659 76.0
1202.855103 40.0
1203.138184 52.0
1203.295044 136.0
1203.366089 52.0
1203.462769 88.0
1203.573242 180.0
1203.856445 44.0
1203.91394 188.0
1204.174072 76.0
1204.298462 188.0
1204.466309 244.0
1204.657715 128.0
1204.86499 152.0
1205.079224 104.0
1205.134521 112.0
1205.362549 124.0
1205.473145 376.0
1205.542236 148.0
1205.674438 156.0
1206.35791 108.0
1206.460571 188.0
1206.669067 156.0
1206.724365 84.0
1207.14624 116.0
1207.311646 200.0
1207.395264 168.0
1207.471313 124.0
1207.616577 128.0
1207.741089 124.0
1207.844849 120.0
1208.121582 96.0
1208.362305 144.0
1208.474487 112.0
1208.91748 188.0
1209.111206 100.0
1209.20813 164.0
1209.29126 100.0
1209.353516 196.0
1209.497559 180.0
1209.691284 96.0
1209.983521 108.0
1210.322876 136.0
1210.468262 208.0
1210.55542 216.0
1210.696899 160.0
1210.856201 160.0
1210.939331 124.0
1211.189697 112.0
1211.334106 96.0
1211.445068 176.0
1211.701416 168.0
1211.763794 180.0
1211.992432 124.0
1212.408203 92.0
1212.512207 56.0
1212.602295 160.0
1212.671631 120.0
1213.240112 164.0
1213.288696 156.0
1213.462036 192.0
1213.600708 160.0
1213.743408 152.0
1214.030762 84.0
1214.21106 172.0
1214.287354 196.0
1214.523193 132.0
1214.606445 200.0
1214.807617 104.0
1214.877686 156.0
1214.981079 108.0
1215.085205 104.0
1215.203125 108.0
1215.279541 108.0
1215.383545 212.0
1215.619507 148.0
1215.673462 172.0
1215.793091 116.0
1215.862427 168.0
1215.924927 220.0
1216.177002 124.0
1216.43457 208.0
1216.528931 68.0
1216.626099 128.0
1216.692749 112.0
1216.806641 144.0
1217.049683 152.0
1217.244141 144.0
1217.626099 104.0
1217.702515 128.0
1217.771973 112.0
1217.836304 124.0
1217.952637 168.0
1218.042969 156.0
1218.126343 128.0
1218.300049 148.0
1218.355591 84.0
1218.650024 200.0
1218.709961 136.0
1219.022705 132.0
1219.126953 112.0
1219.432861 140.0
1219.578735 200.0
1219.71106 132.0
1219.975098 304.0
1220.181885 224.0
1220.510498 176.0
1220.677368 148.0
1221.004272 100.0
1221.185181 120.0
1221.310425 48.0
1221.509888 184.0
1221.887817 64.0
1222.256714 240.0
1222.30542 80.0
1222.354126 180.0
1222.44458 184.0
1222.569824 112.0
1222.827393 124.0
1223.057129 160.0
1223.112793 260.0
1223.203369 152.0
1223.439453 216.0
1223.607178 120.0
1223.676758 156.0
1223.74231 68.0
1223.857788 152.0
1224.004028 92.0
1224.098511 172.0
1224.226929 156.0
1224.366211 164.0
1224.630981 120.0
1224.735474 128.0
1224.944458 52.0
1225.04126 288.0
1225.139526 168.0
1225.467041 124.0
1225.634644 292.0
1225.956665 140.0
1226.080322 124.0
1226.418213 128.0
1226.700806 132.0
1226.761597 252.0
1226.940552 196.0
1227.021484 164.0
1227.143066 112.0
1227.391113 80.0
1227.670044 124.0
1227.765503 140.0
1227.830444 176.0
1228.109497 96.0
1228.179199 84.0
1228.235107 200.0
1228.409058 156.0
1228.455444 356.0
1228.55603 136.0
1228.63501 176.0
1228.80249 148.0
1229.016479 200.0
1229.197998 120.0
1229.267822 172.0
1229.31665 128.0
1229.379395 104.0
1229.428345 96.0
1229.574829 72.0
1229.644653 92.0
1229.714478 176.0
1229.784302 100.0
1229.930908 92.0
1230.042603 120.0
1230.105469 168.0
1230.408569 292.0
1230.468506 160.0
1230.691895 96.0
1231.090088 180.0
1231.264648 108.0
1231.461426 160.0
1231.544067 136.0
1231.697754 116.0
1231.844482 160.0
1231.900391 112.0
1231.970215 140.0
1232.170776 212.0
1232.268799 196.0
1232.551147 156.0
1232.648071 92.0
1232.8302 116.0
1232.874146 124.0
1233.123291 140.0
1233.207275 164.0
1233.399536 176.0
1233.542725 140.0
1233.598755 176.0
1233.890991 124.0
1233.972778 72.0
1234.052368 68.0
1234.097046 148.0
1234.432983 80.0
1234.77356 236.0
1234.827637 152.0
1234.885498 116.0
1235.004395 36.0
1235.058594 60.0
1235.323242 160.0
1235.543091 156.0
1235.634033 264.0
1235.788086 152.0
1236.249878 116.0
1236.345093 136.0
1236.438965 132.0
1236.578857 72.0
1236.939331 196.0
1237.208984 140.0
1237.438477 160.0
1237.860229 144.0
1238.005859 172.0
1238.210449 180.0
1238.483643 132.0
1238.749878 124.0
1238.981079 228.0
1239.359497 176.0
1239.494629 200.0
1239.597778 212.0
1239.843018 268.0
1239.96582 116.0
1240.012939 160.0
1240.126465 148.0
1240.319702 116.0
1240.389771 100.0
1240.471436 204.0
1240.866577 124.0
1240.953613 216.0
1241.198853 192.0
1241.392578 128.0
1241.455688 188.0
1241.559326 192.0
1241.795532 184.0
1241.890625 140.0
1242.206299 220.0
1242.269409 60.0
1242.325562 144.0
1242.557129 132.0
1242.844849 224.0
1243.230835 164.0
1243.311401 152.0
1243.743286 132.0
1243.841797 204.0
1244.033569 212.0
1244.094238 172.0
1244.290894 72.0
1244.339966 140.0
1244.673828 148.0
1244.761353 168.0
1244.866699 48.0
1245.245972 84.0
1245.319336 84.0
1245.548096 112.0
1245.772949 164.0
1245.8479 184.0
1245.962646 88.0
1246.011841 100.0
1246.145264 124.0
1246.306885 112.0
1246.658325 84.0
1246.721558 112.0
1246.890259 60.0
1246.953491 156.0
1247.185547 68.0
1247.403809 160.0
1247.589722 152.0
1247.776123 180.0
1247.867554 144.0
1247.994141 108.0
1248.192505 180.0
1248.380859 104.0
1248.634155 72.0
1248.745361 192.0
1248.873291 116.0
1248.936646 144.0
1249.147705 256.0
1249.330566 260.0
1249.379883 44.0
1249.571533 128.0
1249.701172 152.0
1249.883667 224.0
1249.984985 92.0
1250.222168 168.0
1250.449585 96.0
1250.514648 128.0
1250.632568 68.0
1250.681885 116.0
1250.807373 160.0
1250.97998 288.0
1251.132446 204.0
1251.400024 184.0
1251.759155 148.0
1251.843628 196.0
1251.907104 60.0
1252.187256 140.0
1252.266357 56.0
1252.35083 244.0
1252.473999 260.0
1252.928589 40.0
1252.991943 184.0
1253.139038 60.0
1253.506348 176.0
1253.590942 160.0
1253.636841 136.0
1253.858765 160.0
1254.008057 92.0
1254.154175 188.0
1254.211304 248.0
1254.513184 156.0
1254.627197 76.0
1254.902222 148.0
1255.029175 304.0
1255.403809 136.0
1255.496948 156.0
1255.593384 92.0
1255.87561 88.0
1255.924927 148.0
1256.312988 216.0
1256.362305 116.0
1256.522827 204.0
1256.602295 100.0
1256.94104 120.0
1257.032715 204.0
1257.124512 44.0
1257.512695 128.0
1257.643433 116.0
1257.773926 140.0
1257.830322 124.0
1257.915039 72.0
1257.996094 104.0
1258.22876 176.0
1258.388184 116.0
1258.508179 64.0
1258.663574 188.0
1258.879639 220.0
1258.964233 188.0
1259.136841 188.0
1259.207397 92.0
1259.46875 76.0
1259.645386 84.0
1259.758423 32.0
1260.076416 176.0
1260.288452 160.0
1260.380249 216.0
1260.634766 252.0
1260.790161 144.0
1260.85376 160.0
1260.945679 48.0
1261.079956 116.0
1261.303223 220.0
1261.461792 92.0
1261.560791 292.0
1261.63147 172.0
1261.687988 140.0
1261.955322 156.0
1262.091064 68.0
1262.161743 92.0
1262.260864 92.0
1262.665283 168.0
1262.788696 120.0
1262.9646 216.0
1263.15918 116.0
1263.315308 184.0
1263.400513 100.0
1263.444946 220.0
1263.540039 252.0
1263.782104 184.0
1263.988037 144.0
1264.043701 100.0
1264.15686 128.0
1264.234741 196.0
1264.3396 192.0
1264.394287 128.0
1264.652344 152.0
1264.723145 160.0
1265.034668 160.0
1265.098389 120.0
1265.24707 208.0
1265.317871 116.0
1265.735718 168.0
1265.91272 176.0
1266.014771 204.0
1266.132324 92.0
1266.266846 164.0
1266.366699 180.0
1266.46521 104.0
1266.557983 204.0
1266.642334 136.0
1266.762817 144.0
1266.955444 196.0
1267.136353 144.0
1267.208496 156.0
1267.341553 128.0
1267.584839 104.0
1267.674438 176.0
1267.747803 128.0
1267.839966 72.0
1268.166016 148.0
1268.357422 152.0
1268.534668 96.0
1268.605591 124.0
1268.711914 88.0
1268.88916 96.0
1268.953003 148.0
1269.179932 96.0
1269.421021 92.0
1269.527466 180.0
1269.584106 116.0
1269.995605 120.0
1270.045288 128.0
1270.109131 196.0
1270.245972 160.0
1270.313721 124.0
1270.624146 156.0
1270.754761 56.0
1270.930908 88.0
1271.081177 148.0
1271.166382 104.0
1271.230225 132.0
1271.31543 104.0
1271.478638 104.0
1271.755493 132.0
1271.812744 124.0
1271.947144 80.0
1272.117554 116.0
1272.225708 156.0
1272.294312 116.0
1272.319336 172.0
1272.439697 88.0
1272.560913 144.0
1272.650146 52.0
1272.699829 80.0
1272.912842 168.0
1272.983887 200.0
1273.125977 156.0
1273.246704 336.0
1273.445557 172.0
1273.559204 104.0
1273.722656 84.0
1273.851196 156.0
1274.172852 88.0
1274.291504 124.0
1274.383423 116.0
1274.539795 76.0
1274.653442 184.0
1274.728394 160.0
1274.923584 152.0
1275.249268 160.0
1275.3927 184.0
1275.605957 76.0
1275.675537 204.0
1275.69397 92.0
1275.717407 172.0
1275.897461 108.0
1276.053955 260.0
1276.295654 120.0
1276.411011 320.0
1276.562012 168.0
1276.795654 212.0
1277.085205 172.0
1277.217041 212.0
1277.312866 144.0
1277.401855 112.0
1277.526245 112.0
1277.597412 144.0
1277.675659 144.0
1277.860718 184.0
1277.931885 88.0
1277.981689 60.0
1278.159546 132.0
1278.324829 196.0
1278.383911 176.0
1278.60083 148.0
1278.785889 240.0
1279.113403 176.0
1279.369751 116.0
1279.590454 100.0
1279.74707 100.0
1279.932251 132.0
1280.144409 176.0
1280.296631 100.0
1280.395142 80.0
1280.665161 176.0
1280.972168 108.0
1281.065552 84.0
1281.185913 208.0
1281.728638 216.0
1281.89856 116.0
1282.012573 84.0
1282.083862 176.0
1282.133789 172.0
1282.19458 216.0
1282.290649 124.0
1282.486694 148.0
1282.661255 188.0
1282.707642 152.0
1282.802246 192.0
1282.889404 216.0
1283.046265 184.0
1283.096191 56.0
1283.146118 236.0
1283.218872 164.0
1283.417114 144.0
1283.511841 124.0
1283.57666 184.0
1283.773682 460.0
1283.843628 172.0
1283.966309 160.0
1284.081177 324.0
1284.134277 80.0
1284.314331 228.0
1284.585205 184.0
1284.672485 144.0
1285.093506 116.0
1285.350464 164.0
1285.47168 84.0
1285.532471 172.0
1285.614502 160.0
1285.757202 188.0
1285.835693 84.0
1285.911499 168.0
1286.092773 172.0
1286.161377 184.0
1286.307983 240.0
1286.421143 116.0
1286.47644 96.0
1286.494873 72.0
1286.516846 120.0
1286.657593 140.0
1286.756714 80.0
1286.878052 76.0
1286.942383 52.0
1287.067383 100.0
1287.192383 140.0
1287.406616 188.0
1287.528076 148.0
1287.579956 148.0
1287.728027 148.0
1287.785156 104.0
1287.878052 112.0
1288.056641 72.0
1288.135254 288.0
1288.213867 160.0
1288.263794 100.0
1288.356323 156.0
1288.571045 100.0
1288.65686 120.0
1288.7854 128.0
1288.839233 144.0
1288.985596 68.0
1289.132568 196.0
1289.385742 52.0
1289.527832 164.0
1289.828979 172.0
1289.972046 176.0
1290.029175 160.0
1290.215088 220.0
1290.350952 160.0
1290.516479 156.0
1290.672729 128.0
1290.836548 196.0
1290.964111 120.0
1291.309326 136.0
1291.65979 28.0
1291.860107 128.0
1292.051392 220.0
1292.321777 144.0
1292.450684 160.0
1292.511353 104.0
1292.654419 140.0
1292.847656 128.0
1292.931274 164.0
1292.950195 112.0
1292.972534 200.0
1293.062378 100.0
1293.265259 212.0
1293.398926 92.0
1293.563477 160.0
1293.730225 180.0
1293.935913 228.0
1294.12207 84.0
1294.203613 180.0
1294.334961 196.0
1294.444336 128.0
1294.522217 160.0
1294.655762 68.0
1294.766602 144.0
1294.838257 124.0
1295.055786 140.0
1295.232178 172.0
1295.411377 112.0
1295.740967 72.0
1295.807861 228.0
1295.955933 132.0
1296.036987 180.0
1296.120728 152.0
1296.199585 104.0
1296.381836 124.0
1296.447388 152.0
1296.557495 92.0
1296.597046 144.0
1296.815918 128.0
1296.931641 172.0
1297.038208 288.0
1297.217407 64.0
1297.317749 196.0
1297.425415 204.0
1297.613892 224.0
1297.927368 76.0
1297.991821 208.0
1298.181274 144.0
1298.293091 120.0
1298.572876 128.0
1298.765381 96.0
1299.009155 136.0
1299.230347 112.0
1299.283081 176.0
1299.699341 108.0
1299.857178 196.0
1300.029419 192.0
1300.122681 104.0
1300.208862 100.0
1300.339478 220.0
1300.416992 168.0
1300.761597 80.0
1300.81189 76.0
1300.898071 112.0
1300.962646 148.0
1301.185547 100.0
1301.350342 116.0
1301.572998 208.0
1301.90332 168.0
1301.982422 148.0
1302.043823 132.0
1302.111694 40.0
1302.161987 316.0
1302.339966 236.0
1302.494263 64.0
1302.675171 144.0
1302.906616 172.0
1302.980957 172.0
1303.075562 256.0
1303.15979 112.0
1303.33313 140.0
1303.530273 164.0
1303.620117 188.0
1303.800293 136.0
1303.908081 164.0
1304.044678 164.0
1304.138062 212.0
1304.217163 240.0
1304.28186 172.0
1304.598145 100.0
1304.720459 148.0
1304.770752 144.0
1305.044067 124.0
1305.180664 184.0
1305.337158 188.0
1305.512085 144.0
1305.957397 96.0
1306.446655 188.0
1306.648193 72.0
1306.770508 132.0
1306.92627 124.0
1306.986328 152.0
1307.051147 100.0
1307.18457 252.0
1307.241699 84.0
1307.821289 108.0
1307.986816 240.0
1308.128906 160.0
1308.224487 144.0
1308.317993 156.0
1308.401733 168.0
1308.483643 180.0
1308.64209 204.0
1308.793335 176.0
1308.869507 180.0
1309.034912 212.0
1309.079224 68.0
1309.112915 96.0
1309.245239 148.0
1309.306885 164.0
1309.543823 172.0
1309.910156 152.0
1310.082642 132.0
1310.176392 132.0
1310.234009 316.0
1310.442993 64.0
1310.50061 96.0
1310.737793 140.0
1310.976196 104.0
1311.055298 100.0
1311.682739 160.0
1311.862915 84.0
1312.128662 184.0
1312.418091 184.0
1312.54541 112.0
1312.778687 96.0
1312.951904 216.0
1313.029175 140.0
1313.189941 236.0
1313.331543 168.0
1313.572266 100.0
1313.666016 140.0
1313.795898 148.0
1313.86084 124.0
1314.158447 320.0
1314.243286 72.0
1314.409302 52.0
1314.52478 104.0
1314.575195 200.0
1314.640259 72.0
1314.690674 60.0
1314.820679 128.0
1314.896851 128.0
1315.040771 156.0
1315.297119 228.0
1315.542603 112.0
1315.665283 168.0
1315.723022 100.0
1315.838623 208.0
1316.055176 184.0
1316.105835 48.0
1316.419678 152.0
1316.488525 92.0
1316.801758 156.0
1316.894653 144.0
1317.015869 192.0
1317.066406 128.0
1317.182007 144.0
1317.520386 176.0
1317.637207 168.0
1317.787354 384.0
1317.998535 188.0
1318.192139 336.0
1318.374268 224.0
1318.470337 228.0
1318.57666 76.0
1318.692383 212.0
1318.807983 112.0
1319.032104 108.0
1319.122559 164.0
1319.249023 84.0
1319.306885 160.0
1319.357544 148.0
1319.408081 40.0
1319.528198 212.0
1319.733521 88.0
1319.798584 148.0
1319.885376 92.0
1319.943237 112.0
1320.051758 108.0
1320.283203 184.0
1320.420532 160.0
1320.529907 180.0
1320.68103 96.0
1320.909424 132.0
1321.028198 88.0
1321.086182 156.0
1321.136841 136.0
1321.252563 80.0
1321.516357 144.0
1321.621582 44.0
1321.780762 220.0
1321.914673 180.0
1322.110596 200.0
1322.270142 144.0
1322.439453 128.0
1322.526367 84.0
1322.647461 116.0
1322.830444 96.0
1322.902832 280.0
1323.259399 152.0
1323.315552 100.0
1323.395142 152.0
1323.456055 324.0
1323.543213 232.0
1323.612427 140.0
1323.696411 156.0
1323.938354 180.0
1324.003296 100.0
1324.162842 128.0
1324.467651 104.0
1324.525146 104.0
1324.645142 160.0
1324.756958 156.0
1324.814941 148.0
1324.870605 64.0
1325.053955 100.0
1325.104736 92.0
1325.272705 296.0
1325.387329 76.0
1325.44751 160.0
1325.510498 136.0
1325.771484 104.0
1325.908936 152.0
1326.01062 204.0
1326.119385 132.0
1326.351318 224.0
1326.547119 132.0
1326.634155 148.0
1327.098145 196.0
1327.192505 212.0
1327.380981 128.0
1327.504272 104.0
1327.582886 168.0
1327.701294 168.0
1327.789307 236.0
1327.910522 100.0
1327.968506 252.0
1328.041016 164.0
1328.160278 176.0
1328.236938 140.0
1328.406738 132.0
1328.810181 228.0
1328.955322 108.0
1329.180176 120.0
1329.339844 152.0
1329.445312 172.0
1329.666504 88.0
1329.978638 48.0
1330.092896 236.0
1330.261841 172.0
1330.370728 128.0
1330.566772 108.0
1330.624878 252.0
1330.857178 108.0
1331.082275 204.0
1331.322021 60.0
1331.387329 224.0
1331.445435 56.0
1331.510742 256.0
1331.786865 160.0
1331.91687 152.0
1332.055664 156.0
1332.121094 212.0
1332.206177 100.0
1332.235352 72.0
1332.275146 192.0
1332.346313 96.0
1332.440796 108.0
1332.564331 92.0
1332.644287 116.0
1332.728882 128.0
1332.825928 136.0
1332.963989 184.0
1333.225586 72.0
1333.281372 156.0
1333.501831 92.0
1333.683594 176.0
1333.749023 84.0
1333.894409 108.0
1334.012329 76.0
1334.119751 184.0
1334.20874 136.0
1334.293579 128.0
1334.465088 152.0
1334.543457 184.0
1334.628784 84.0
1334.81543 152.0
1335.061646 148.0
1335.152466 192.0
1335.327026 308.0
1335.428833 180.0
1335.479736 148.0
1335.647095 108.0
1335.788574 168.0
1335.93811 148.0
1336.040039 200.0
1336.090942 148.0
1336.14917 260.0
1336.220093 168.0
1336.287354 132.0
1336.391724 104.0
1336.53479 108.0
1336.699463 140.0
1336.833252 72.0
1337.102539 124.0
1337.191284 248.0
1337.415527 28.0
1337.815918 180.0
1337.930908 188.0
1338.031738 236.0
1338.092651 64.0
1338.300537 180.0
1338.36377 152.0
1338.423584 348.0
1338.558716 116.0
1338.620972 112.0
1338.693604 84.0
1338.800537 176.0
1338.864624 104.0
1339.010254 116.0
1339.068481 152.0
1339.119507 84.0
1339.192383 252.0
1339.301636 212.0
1339.418213 172.0
1339.597168 144.0
1339.673218 96.0
1339.804321 164.0
1339.906372 136.0
1340.008423 148.0
1340.070557 208.0
1340.35083 128.0
1340.423584 172.0
1340.446167 168.0
1340.693481 124.0
1340.766357 80.0
1340.899414 204.0
1341.079712 296.0
1341.141357 352.0
1341.225586 112.0
1341.320312 160.0
1341.462158 212.0
1341.575562 224.0
1341.622314 180.0
1341.859741 168.0
1341.990234 360.0
1342.075684 148.0
1342.246338 136.0
1342.310181 188.0
1342.457886 116.0
1342.587891 164.0
1342.837158 132.0
1343.150879 168.0
1343.296753 152.0
1343.347778 32.0
1343.488525 116.0
1343.792969 196.0
1343.980225 168.0
1344.03064 260.0
1344.238037 108.0
1344.406006 140.0
1344.508179 168.0
1344.588379 40.0
1344.654175 160.0
1344.741699 64.0
1344.929688 164.0
1344.978638 188.0
1345.289307 116.0
1345.414185 104.0
1345.49707 328.0
1345.849365 240.0
1346.004883 96.0
1346.070557 148.0
1346.209351 164.0
1346.334106 164.0
1346.486938 188.0
1346.611084 140.0
1346.706055 48.0
1346.834473 124.0
1346.860962 156.0
1347.075806 188.0
1347.16626 144.0
1347.224731 224.0
1347.341675 164.0
1347.400146 144.0
1347.458618 180.0
1347.509766 144.0
1347.682983 152.0
1347.809326 124.0
1348.050537 108.0
1348.16748 80.0
1348.335571 172.0
1348.406128 228.0
1348.525635 104.0
1348.796143 176.0
1348.931396 160.0
1349.059326 160.0
1349.139771 136.0
1349.226562 132.0
1349.329834 116.0
1349.437012 176.0
1349.622314 152.0
1349.843628 140.0
1349.936768 156.0
1350.013672 132.0
1350.258667 192.0
1350.495483 184.0
1350.565918 112.0
1350.639038 88.0
1350.712158 84.0
1350.778076 272.0
1350.862061 204.0
1350.973022 200.0
1351.063354 216.0
1351.173096 48.0
1351.297485 88.0
1351.544678 212.0
1351.72168 208.0
1351.743164 200.0
1352.016724 120.0
1352.09436 132.0
1352.270508 148.0
1352.505127 140.0
1352.710205 148.0
1352.797974 164.0
1352.871216 84.0
1353.012939 148.0
1353.118774 124.0
1353.145142 100.0
1353.207397 360.0
1353.266113 120.0
1353.405762 148.0
1353.522949 192.0
1353.602295 140.0
1353.911133 108.0
1354.037231 152.0
1354.146606 56.0
1354.221558 140.0
1354.28772 156.0
1354.582642 160.0
1354.69043 144.0
1354.834229 192.0
1355.046631 104.0
1355.141968 148.0
1355.271729 240.0
1355.479004 180.0
1355.581665 124.0
1355.728271 192.0
1355.79187 192.0
1355.852783 128.0
1355.99939 36.0
1356.093872 172.0
1356.2146 240.0
1356.27063 192.0
1356.323608 144.0
1356.483276 152.0
1356.545898 96.0
1356.651855 332.0
1356.76123 196.0
1356.826294 128.0
1356.856567 100.0
1356.888184 220.0
1357.106567 224.0
1357.168579 324.0
1357.279053 128.0
1357.37915 152.0
1357.46582 96.0
1357.78125 168.0
1357.839966 156.0
1358.166992 116.0
1358.243408 100.0
1358.467041 192.0
1358.580933 104.0
1358.698242 116.0
1358.933105 156.0
1359.035767 164.0
1359.211914 104.0
1359.340332 148.0
1359.410156 116.0
1359.534912 132.0
1359.593628 304.0
1359.710205 152.0
1359.935669 120.0
1360.041382 132.0
1360.096558 192.0
1360.246948 224.0
1360.500488 116.0
1360.562622 176.0
1360.643433 208.0
1360.769897 192.0
1360.956543 168.0
1361.083984 116.0
1361.157471 124.0
1361.214722 216.0
1361.495239 160.0
1361.700928 188.0
1361.816528 120.0
1361.892822 72.0
1361.95813 144.0
1362.060913 164.0
1362.147461 252.0
1362.229858 164.0
1362.338745 108.0
1362.520874 100.0
1362.575439 180.0
1362.648682 160.0
1362.865723 120.0
1362.94458 156.0
1363.027344 108.0
1363.209229 164.0
1363.42041 104.0
1363.648193 148.0
1363.729126 124.0
1363.834717 140.0
1364.052612 288.0
1364.192261 40.0
1364.251099 120.0
1364.317261 192.0
1364.398071 164.0
1364.464355 188.0
1364.937256 236.0
1365.133545 192.0
1365.243896 132.0
1365.665039 140.0
1365.861694 100.0
1365.939697 172.0
1366.17749 52.0
1366.519775 184.0
1366.586426 156.0
1366.840332 144.0
1366.965942 148.0
1367.039062 136.0
1367.274658 232.0
1367.407104 216.0
1367.569092 172.0
1367.786255 172.0
1367.900391 188.0
1367.988647 200.0
1368.062256 184.0
1368.121216 312.0
1368.309937 124.0
1368.43042 140.0
1368.739746 68.0
1368.798706 152.0
1368.857544 108.0
1368.956665 108.0
1369.034424 116.0
1369.322632 272.0
1369.410034 148.0
1369.575806 128.0
1369.800415 88.0
1369.918335 36.0
1369.992065 124.0
1370.095215 52.0
1370.235229 136.0
1370.566772 124.0
1370.655273 196.0
1370.718872 132.0
1370.979492 104.0
1371.104858 124.0
1371.178467 84.0
1371.239868 180.0
1371.355469 112.0
1371.731445 92.0
1371.8125 276.0
1371.911621 232.0
1371.954834 148.0
1372.144287 112.0
1372.195923 80.0
1372.449707 104.0
1372.572021 120.0
1372.687012 132.0
1372.81543 72.0
1372.991699 120.0
1373.257935 224.0
1373.449219 200.0
1373.459229 184.0
1373.512573 140.0
1373.610962 160.0
1373.722778 176.0
1373.862915 204.0
1374.089844 164.0
1374.169434 156.0
1374.312988 104.0
1374.423706 92.0
1374.534424 120.0
1374.60083 104.0
1374.682007 144.0
1374.741089 132.0
1374.792725 128.0
1374.888672 108.0
1375.000122 124.0
1375.055298 152.0
1375.309326 208.0
1375.508789 60.0
1375.620239 152.0
1375.951172 104.0
1376.402222 296.0
1376.483521 64.0
1376.535156 264.0
1376.726318 148.0
1376.860107 164.0
1376.975952 124.0
1377.05957 148.0
1377.273804 156.0
1377.340332 168.0
1377.505005 164.0
1377.800781 248.0
1377.894409 196.0
1378.012695 120.0
1378.13562 168.0
1378.232544 176.0
1378.255371 132.0
1378.470825 172.0
1378.552124 176.0
1378.651367 176.0
1378.736938 148.0
1378.833008 280.0
1378.929077 112.0
1379.025146 168.0
1379.213379 232.0
1379.35791 156.0
1379.505737 164.0
1379.668457 164.0
1379.746704 212.0
1379.868042 96.0
1379.949341 100.0
1380.050415 180.0
1380.117676 100.0
1380.304321 164.0
1380.415283 200.0
1380.473999 132.0
1380.616333 128.0
1380.668579 124.0
1380.807251 92.0
1380.885254 88.0
1380.947876 36.0
1381.12854 124.0
1381.175415 224.0
1381.229004 180.0
1381.354492 108.0
1381.421265 76.0
1381.658081 104.0
1382.158081 148.0
1382.235229 200.0
1382.36853 180.0
1382.441528 128.0
1382.548096 76.0
1382.812988 136.0
1382.871826 76.0
1382.975464 144.0
1383.154907 112.0
1383.221436 120.0
1383.39209 268.0
1383.465332 172.0
1383.51709 160.0
1383.782471 208.0
1383.863037 136.0
1383.88269 120.0
1384.008301 156.0
1384.075073 116.0
1384.263794 168.0
1384.330444 220.0
1384.396484 148.0
1384.62561 240.0
1384.719238 148.0
1384.774902 148.0
1384.885986 192.0
1385.004517 188.0
1385.063843 36.0
1385.16394 172.0
1385.30835 212.0
1385.428955 168.0
1385.575073 144.0
1385.797363 40.0
1386.089844 240.0
1386.1604 148.0
1386.234619 172.0
1386.31604 148.0
1386.456909 168.0
1386.516724 124.0
1386.634766 144.0
1386.797852 116.0
1386.916504 108.0
1387.094971 100.0
1387.297729 68.0
1387.383545 68.0
1387.50061 76.0
1387.793579 112.0
1387.953125 164.0
1388.014893 312.0
1388.150024 192.0
1388.228638 188.0
1388.440063 184.0
1388.528931 180.0
1388.703735 56.0
1388.921265 96.0
1389.030151 192.0
1389.408447 180.0
1389.458374 156.0
1389.507446 168.0
1389.586304 248.0
1389.795654 168.0
1389.935303 160.0
1390.016968 216.0
1390.138062 232.0
1390.28894 156.0
1390.320435 144.0
1390.352051 140.0
1390.497559 224.0
1390.51123 164.0
1390.62561 88.0
1390.722168 168.0
1390.915161 172.0
1390.97937 212.0
1391.04834 68.0
1391.283325 208.0
1391.390503 136.0
1391.494263 100.0
1391.553711 152.0
1391.687378 148.0
1391.746704 112.0
1391.917603 236.0
1392.024292 224.0
1392.241211 204.0
1392.305542 116.0
1392.452393 172.0
1392.711426 96.0
1392.956055 168.0
1392.992065 148.0
1393.061523 76.0
1393.232422 144.0
1393.33252 160.0
1393.537109 204.0
1393.589111 108.0
1393.804565 148.0
1393.883423 188.0
1394.112061 216.0
1394.205933 48.0
1394.265381 148.0
1394.376831 132.0
1394.443726 164.0
1394.547974 164.0
1394.655884 188.0
1394.678101 100.0
1394.698608 140.0
1394.785767 136.0
1394.867554 156.0
1394.977417 112.0
1395.424194 236.0
1395.44165 120.0
1395.625977 144.0
1395.707764 164.0
1395.870605 168.0
1395.960571 164.0
1396.025513 220.0
1396.153931 100.0
1396.291138 128.0
1396.347412 64.0
1396.410767 256.0
1396.488647 104.0
1396.689575 192.0
1396.91272 80.0
1397.093628 164.0
1397.277344 152.0
1397.398682 140.0
1397.593262 124.0
1397.686646 68.0
1397.745605 120.0
1397.820557 76.0
1397.880127 108.0
1397.96936 140.0
1398.104248 72.0
1398.274536 124.0
1398.356445 120.0
1398.445801 144.0
1398.52771 52.0
1398.696045 136.0
1398.803101 84.0
1398.882935 168.0
1399.007812 184.0
1399.264771 180.0
1399.316895 56.0
1399.418335 128.0
1399.640625 192.0
1399.768433 188.0
1399.964844 224.0
1400.061646 180.0
1400.13501 140.0
1400.195679 108.0
1400.255859 136.0
1400.314819 148.0
1400.411743 180.0
1400.523438 80.0
1400.647705 232.0
1400.668213 156.0
1400.775635 216.0
1401.022583 84.0
1401.119507 120.0
1401.223755 84.0
1401.313232 100.0
1401.427002 188.0
1401.514404 168.0
1401.599121 208.0
1401.685791 128.0
1401.834839 100.0
1402.069946 96.0
1402.20752 104.0
1402.291138 128.0
1402.556396 136.0
1402.597168 148.0
1402.714478 72.0
1402.806641 136.0
1402.876221 180.0
1403.020142 124.0
1403.117065 128.0
1403.215698 152.0
1403.385498 148.0
1403.460083 96.0
1403.542114 136.0
1403.63916 120.0
1403.721191 124.0
1403.974731 52.0
1404.026978 108.0
1404.109009 40.0
1404.161255 104.0
1404.228394 52.0
1404.474487 180.0
1404.578979 96.0
1404.631226 136.0
1404.743042 148.0
1404.884888 132.0
1405.010864 156.0
1405.035767 204.0
1405.213135 212.0
1405.302734 132.0
1405.362427 128.0
1405.47168 180.0
1405.524292 232.0
1405.650757 120.0
1405.769897 208.0
1406.108765 104.0
1406.347656 196.0
1406.422607 148.0
1406.489502 176.0
1406.571533 80.0
1406.623779 164.0
1406.728394 108.0
1406.863037 92.0
1406.959839 100.0
1407.206177 152.0
1407.28479 144.0
1407.379883 208.0
1407.430298 104.0
1407.539795 132.0
1407.614868 204.0
1407.698242 132.0
1407.740234 188.0
1407.848511 268.0
1407.953003 88.0
1408.341431 128.0
1408.416138 148.0
1408.547485 148.0
1408.77478 148.0
1408.852417 136.0
1408.924194 92.0
1409.00647 320.0
1409.09314 100.0
1409.165527 152.0
1409.212524 104.0
1409.320312 72.0
1409.50708 208.0
1409.608398 172.0
1409.80603 132.0
1409.903198 208.0
1410.052734 236.0
1410.112549 160.0
1410.29187 152.0
1410.351685 124.0
1410.404053 84.0
1410.501221 148.0
1410.551758 144.0
1410.613403 148.0
1410.68811 144.0
1410.755493 136.0
1410.822754 80.0
1410.963623 200.0
1411.077759 120.0
1411.139282 108.0
1411.241455 160.0
1411.376099 132.0
1411.46521 144.0
1411.562988 120.0
1411.696777 128.0
1411.817383 168.0
1411.908691 128.0
1411.984497 160.0
1412.095825 124.0
1412.182129 176.0
1412.264282 80.0
1412.387451 144.0
1412.507324 136.0
1412.827271 180.0
1412.947021 212.0
1413.134033 116.0
1413.334717 276.0
1413.791382 124.0
1413.838135 200.0
1414.084595 184.0
1414.174561 184.0
1414.262207 196.0
1414.369019 176.0
1414.458862 132.0
1414.586304 148.0
1414.705933 28.0
1414.848145 108.0
1414.960449 184.0
1415.061157 116.0
1415.155151 148.0
1415.28186 304.0
1415.342285 232.0
1415.454712 140.0
1415.507202 44.0
1415.667603 296.0
1415.738037 92.0
1415.88562 160.0
1415.956543 120.0
1416.060303 132.0
1416.158813 180.0
1416.211182 196.0
1416.285522 148.0
1416.347656 172.0
1416.608887 264.0
1416.720703 96.0
1416.911743 88.0
1416.975464 144.0
1417.066528 336.0
1417.16272 116.0
1417.290161 196.0
1417.455078 96.0
1417.612427 196.0
1417.722778 188.0
1417.775269 276.0
1417.882202 148.0
1417.942261 76.0
1418.077148 92.0
1418.143433 148.0
1418.240845 152.0
1418.285889 76.0
1418.428955 124.0
1418.511963 160.0
1418.608887 100.0
1418.719482 148.0
1418.865601 140.0
1418.927979 108.0
1418.984375 232.0
1419.161499 180.0
1419.291748 76.0
1419.369629 84.0
1419.466797 156.0
1419.606812 84.0
1419.689209 112.0
1419.801758 80.0
1419.865479 164.0
1420.040405 164.0
1420.433838 216.0
1420.521973 248.0
1420.619995 168.0
1420.696899 240.0
1420.754517 112.0
1420.859619 48.0
1420.919556 148.0
1420.972168 164.0
1421.069702 88.0
1421.362305 160.0
1421.564941 156.0
1421.700806 84.0
1421.752563 112.0
1421.827637 132.0
1422.007812 200.0
1422.075439 104.0
1422.233032 104.0
1422.353149 108.0
1422.40564 132.0
1422.581543 156.0
1422.655029 152.0
1422.728516 116.0
1422.796143 56.0
1422.856201 92.0
1422.987793 184.0
1423.018555 96.0
1423.046509 148.0
1423.321777 116.0
1423.396851 160.0
1423.458984 204.0
1423.574829 144.0
1423.692993 104.0
1423.745728 180.0
1423.899536 116.0
1424.147949 196.0
1424.358276 76.0
1424.436035 160.0
1424.643799 96.0
1424.798706 200.0
1424.887939 168.0
1425.162354 88.0
1425.252441 176.0
1425.387695 152.0
1425.49292 84.0
1425.553101 192.0
1425.665894 180.0
1425.718506 132.0
1425.831177 112.0
1425.893677 204.0
1425.984253 376.0
1426.161987 128.0
1426.334839 160.0
1426.507812 180.0
1426.585449 168.0
1426.680664 76.0
1426.850586 88.0
1427.03479 228.0
1427.220093 132.0
1427.312378 184.0
1427.572876 356.0
1427.635742 96.0
1427.778687 204.0
1427.936646 112.0
1427.989258 92.0
1428.068359 132.0
1428.117188 308.0
1428.214966 148.0
1428.275146 168.0
1428.44043 188.0
1428.450928 184.0
1428.706787 148.0
1428.886963 132.0
1428.989868 140.0
1429.110352 172.0
1429.313477 116.0
1429.408569 88.0
1429.51062 140.0
1429.584473 112.0
1429.637085 312.0
1429.766602 120.0
1429.893799 76.0
1429.945679 312.0
1430.012329 228.0
1430.081177 176.0
1430.250977 92.0
1430.337158 52.0
1430.394531 200.0
1430.497803 140.0
1430.864258 84.0
1430.938354 104.0
1431.308472 120.0
1431.361206 108.0
1431.552368 172.0
1431.700195 216.0
1431.820679 176.0
1431.895996 80.0
1431.94873 112.0
1432.1521 164.0
1432.445679 108.0
1432.635376 112.0
1432.739746 152.0
1432.819824 140.0
1432.935669 28.0
1433.063721 140.0
1433.13916 164.0
1433.238525 128.0
1433.573608 240.0
1433.647583 108.0
1433.708862 116.0
1433.990845 108.0
1434.07373 184.0
1434.15271 200.0
1434.480103 156.0
1434.586426 120.0
1434.63916 92.0
1434.699463 112.0
1434.870361 188.0
1435.034668 240.0
1435.091553 96.0
1435.250977 176.0
1435.505127 204.0
1435.66394 152.0
1435.747681 136.0
1436.00415 56.0
1436.11731 88.0
1436.170166 120.0
1436.336304 132.0
1436.43103 172.0
1436.486938 96.0
1436.547363 112.0
1436.81897 268.0
1436.951904 144.0
1437.079834 216.0
1437.217407 120.0
1437.369873 128.0
1437.498169 136.0
1437.581665 248.0
1437.638062 132.0
1437.651489 192.0
1437.932617 100.0
1437.94519 208.0
1438.17334 132.0
1438.222778 160.0
1438.570068 124.0
1438.651367 160.0
1438.713501 168.0
1438.787598 168.0
1438.814941 136.0
1438.893311 172.0
1438.977783 108.0
1439.185059 184.0
1439.362915 152.0
1439.42334 116.0
1439.504761 336.0
1439.591797 104.0
1439.763184 72.0
1439.831177 120.0
1439.884033 136.0
1440.105835 212.0
1440.196899 108.0
1440.252441 136.0
1440.356079 404.0
1440.491821 228.0
1440.567383 144.0
1440.715088 160.0
1440.98645 104.0
1441.133057 112.0
1441.306519 88.0
1441.388672 140.0
1441.538818 136.0
1441.599243 128.0
1441.682373 140.0
1441.742798 144.0
1441.808228 160.0
1441.931396 164.0
1442.052734 220.0
1442.158569 76.0
1442.256836 124.0
1442.322998 128.0
1442.468506 120.0
1442.548828 100.0
1442.634888 92.0
1442.695312 152.0
1442.816284 104.0
1443.155029 160.0
1443.241577 196.0
1443.311279 96.0
1443.451538 148.0
1443.57251 240.0
1443.625488 172.0
1443.693604 152.0
1443.762085 64.0
1443.988525 84.0
1444.117188 164.0
1444.180298 268.0
1444.382812 140.0
1444.495361 48.0
1444.711426 164.0
1444.826416 236.0
1444.853027 176.0
1444.937744 116.0
1445.085571 140.0
1445.163086 204.0
1445.188599 92.0
1445.216187 220.0
1445.305054 196.0
1445.463989 192.0
1445.582275 360.0
1445.653198 100.0
1445.718628 148.0
1445.891113 204.0
1446.032837 196.0
1446.13562 164.0
1446.237427 104.0
1446.311768 136.0
1446.500977 132.0
1446.637207 132.0
1446.705444 264.0
1446.811401 148.0
1446.871948 112.0
1446.968994 144.0
1447.068848 96.0
1447.132446 168.0
1447.25061 180.0
1447.42749 136.0
1447.496094 284.0
1447.547974 164.0
1447.614136 76.0
1447.811035 128.0
1448.089478 164.0
1448.17334 136.0
1448.22937 144.0
1448.366577 196.0
1448.602295 116.0
1448.818359 140.0
1448.900391 116.0
1449.168701 172.0
1449.338379 108.0
1449.439941 124.0
1449.591553 60.0
1449.67041 120.0
1449.856812 132.0
1450.015991 124.0
1450.106934 148.0
1450.23584 132.0
1450.349487 88.0
1450.429443 140.0
1450.584595 40.0
1450.751343 132.0
1451.051758 200.0
1451.16272 176.0
1451.411011 104.0
1451.487305 80.0
1451.540039 224.0
1451.615845 96.0
1451.706787 156.0
1451.856689 100.0
1452.032959 36.0
1452.12085 160.0
1452.192261 116.0
1452.266357 172.0
1452.59436 144.0
1452.784058 148.0
1452.984741 152.0
1453.277222 176.0
1453.500854 104.0
1453.639404 132.0
1453.705933 352.0
1453.891968 152.0
1453.967896 176.0
1454.109741 164.0
1454.275269 116.0
1454.430908 92.0
1454.607544 180.0
1454.704224 248.0
1454.76709 128.0
1454.91687 100.0
1455.000366 88.0
1455.114258 140.0
1455.182617 92.0
1455.387573 288.0
1455.638306 92.0
1455.820557 92.0
1456.012451 244.0
1456.071167 212.0
1456.25354 240.0
1456.468262 188.0
1456.57251 68.0
1456.686523 196.0
1456.785278 48.0
1456.92627 100.0
1457.10437 52.0
1457.18042 116.0
1457.400757 128.0
1457.469116 176.0
1457.661377 192.0
1457.767944 124.0
1457.963135 160.0
1458.056152 356.0
1458.14563 84.0
1458.213989 80.0
1458.328003 144.0
1458.385498 152.0
1458.525635 176.0
1458.662476 64.0
1458.746094 80.0
1458.945679 128.0
1459.057861 108.0
1459.164307 124.0
1459.298706 332.0
1459.377197 180.0
1459.476074 116.0
1459.620605 140.0
1459.69165 148.0
1459.848755 100.0
1459.909668 168.0
1460.054321 156.0
1460.243286 172.0
1460.35083 100.0
1460.404053 136.0
1460.484009 112.0
1460.670288 120.0
1460.749268 352.0
1460.944214 184.0
1461.01123 128.0
1461.034058 104.0
1461.060303 212.0
1461.14563 84.0
1461.263794 108.0
1461.402466 312.0
1461.517456 108.0
1461.625977 112.0
1461.695557 136.0
1461.756348 256.0
1462.001953 100.0
1462.127319 172.0
1462.188599 292.0
1462.283569 180.0
1462.428223 148.0
1462.495728 116.0
1462.595703 124.0
1462.664185 144.0
1462.898926 96.0
1463.075317 104.0
1463.13623 48.0
1463.311401 124.0
1463.376465 184.0
1463.435547 328.0
1463.692993 116.0
1463.905396 132.0
1463.975952 156.0
1464.05188 220.0
1464.220215 216.0
1464.289185 184.0
1464.481689 192.0
1464.560547 212.0
1464.674805 92.0
1464.743286 56.0
1464.796631 132.0
1464.880493 64.0
1464.987183 228.0
1465.109009 172.0
1465.222656 244.0
1465.322754 168.0
1465.672974 104.0
1465.80249 136.0
1465.878662 92.0
1465.977783 332.0
1466.109131 104.0
1466.175903 116.0
1466.236938 56.0
1466.355591 212.0
1466.63501 200.0
1466.682983 92.0
1466.758911 220.0
1466.884888 176.0
1466.957397 248.0
1467.089111 96.0
1467.157593 120.0
1467.187622 96.0
1467.240234 112.0
1467.459473 200.0
1467.517822 132.0
1467.582642 148.0
1467.716064 84.0
1468.032227 224.0
1468.166016 120.0
1468.234497 244.0
1468.348145 188.0
1468.486328 128.0
1468.776855 240.0
1468.943359 188.0
1469.073853 84.0
1469.216064 112.0
1469.352783 316.0
1469.468384 128.0
1469.531616 128.0
1469.74585 116.0
1469.840576 160.0
1469.962158 324.0
1470.065796 132.0
1470.178101 224.0
1470.394043 128.0
1470.455078 140.0
1470.536865 184.0
1470.668823 92.0
1470.737549 36.0
1470.798584 76.0
1470.981812 120.0
1471.210938 124.0
1471.37085 84.0
1471.462891 244.0
1471.559814 140.0
1471.814209 44.0
1471.936401 156.0
1472.089111 108.0
1472.327271 236.0
1472.393066 176.0
1472.500854 260.0
1472.577881 76.0
1472.654297 140.0
1472.707764 124.0
1472.915405 176.0
1473.082153 148.0
1473.166138 188.0
1473.380127 52.0
1473.450684 180.0
1473.544678 140.0
1473.940796 180.0
1474.029663 152.0
1474.234741 176.0
1474.39624 124.0
1474.515137 116.0
1474.609253 96.0
1474.754883 160.0
1474.881226 180.0
1475.026367 144.0
1475.168823 172.0
1475.254028 140.0
1475.329224 120.0
1475.404419 168.0
1475.558716 144.0
1475.852783 84.0
1475.925659 168.0
1475.986816 120.0
1476.063232 108.0
1476.13208 116.0
1476.193359 168.0
1476.271606 232.0
1476.434937 232.0
1476.497681 136.0
1476.517822 236.0
1476.575684 204.0
1476.721069 152.0
1476.880005 264.0
1477.062744 168.0
1477.14563 104.0
1477.260376 220.0
1477.399658 136.0
1477.447876 176.0
1477.551025 152.0
1477.678101 136.0
1477.881348 168.0
1478.023804 60.0
1478.156982 108.0
1478.210938 256.0
1478.39917 120.0
1478.532349 244.0
1478.606201 144.0
1478.666016 164.0
1478.817383 68.0
1478.876831 156.0
1478.984497 160.0
1479.162231 168.0
1479.260132 180.0
1479.292236 120.0
1479.314453 184.0
1479.433838 248.0
1479.556396 220.0
1479.81311 48.0
1479.866699 172.0
1480.036621 216.0
1480.188354 172.0
1480.456421 152.0
1480.670898 184.0
1480.760498 244.0
1480.847046 80.0
1481.008789 112.0
1481.122803 136.0
1481.307983 160.0
1481.37561 144.0
1481.43689 96.0
1481.536499 192.0
1481.659302 188.0
1481.804688 164.0
1481.873657 132.0
1482.088257 64.0
1482.222168 176.0
1482.302856 88.0
1482.448486 144.0
1482.923706 44.0
1483.000366 56.0
1483.168091 104.0
1483.34375 120.0
1483.400879 128.0
1483.494751 160.0
1483.644287 120.0
1483.697998 120.0
1483.817139 136.0
1483.98938 84.0
1484.050781 72.0
1484.139893 216.0
1484.311523 148.0
1484.488281 168.0
1484.694336 148.0
1484.714355 136.0
1484.894409 120.0
1484.955811 104.0
1485.132935 80.0
1485.226562 40.0
1485.333496 120.0
1485.561768 120.0
1485.736694 136.0
1485.755127 168.0
1485.83667 188.0
1485.999146 108.0
1486.063477 96.0
1486.117188 168.0
1486.398193 60.0
1486.467285 188.0
1486.653931 176.0
1486.720581 156.0
1486.843384 212.0
1486.993042 272.0
1487.250244 152.0
1487.373901 316.0
1487.449829 96.0
1487.50354 124.0
1487.611084 136.0
1487.718506 120.0
1487.838989 168.0
1487.910522 80.0
1488.140869 172.0
1488.212524 276.0
1488.302124 76.0
1488.355835 80.0
1488.414917 228.0
1488.501831 116.0
1488.55957 220.0
1488.714722 248.0
1488.782471 144.0
1488.847412 128.0
1488.993774 156.0
1489.109497 168.0
1489.173706 236.0
1489.233154 144.0
1489.300659 80.0
1489.385132 100.0
1489.523438 108.0
1489.587402 236.0
1489.812622 132.0
1489.892212 56.0
1489.946045 176.0
1489.994873 144.0
1490.082153 172.0
1490.226685 132.0
1490.412476 124.0
1490.470825 160.0
1490.53772 124.0
1490.622192 88.0
1490.714233 112.0
1490.94397 136.0
1491.175659 160.0
1491.275513 232.0
1491.385498 144.0
1491.531372 164.0
1491.598511 180.0
1491.701538 116.0
1491.813721 216.0
1491.878906 116.0
1492.040527 204.0
1492.091187 88.0
1492.196411 260.0
1492.628784 116.0
1492.792725 184.0
1492.869019 240.0
1493.021118 192.0
1493.125488 196.0
1493.267578 224.0
1493.536499 96.0
1493.789551 120.0
1493.944214 176.0
1494.013428 188.0
1494.082642 76.0
1494.375122 208.0
1494.513672 188.0
1494.567505 136.0
1494.656128 172.0
1494.795166 140.0
1494.929199 268.0
1495.152466 136.0
1495.206299 144.0
1495.291016 188.0
1495.397339 192.0
1495.575806 140.0
1495.637085 132.0
1495.698975 184.0
1495.953003 124.0
1496.015869 140.0
1496.07019 132.0
1496.276367 92.0
1496.453491 156.0
1496.800049 80.0
1496.88147 120.0
1496.954102 128.0
1497.007935 200.0
1497.108154 100.0
1497.195435 132.0
1497.30835 96.0
1497.369995 168.0
1497.64978 204.0
1497.708984 168.0
1497.766968 172.0
1497.932007 372.0
1498.02002 220.0
1498.16748 132.0
1498.221802 148.0
1498.348389 88.0
1498.440918 92.0
1498.513184 284.0
1498.710571 96.0
1498.797485 188.0
1498.865112 180.0
1499.032104 200.0
1499.110718 288.0
1499.243774 128.0
1499.336426 148.0
1499.458252 172.0
1499.666992 180.0
1499.728027 112.0
1499.832275 128.0
1499.964722 192.0
1500.074951 80.0
1500.144287 140.0
1500.213745 176.0
1500.434082 92.0
1500.628052 324.0
1500.707153 148.0
1500.884521 220.0
1500.946289 152.0
1501.046509 120.0
1501.146729 128.0
1501.254761 108.0
1501.3927 140.0
1501.509277 140.0
1501.648071 96.0
1501.775513 116.0
1501.89502 68.0
1502.165039 340.0
1502.281006 128.0
1502.350708 116.0
1502.40918 192.0
1502.59436 248.0
1502.71936 152.0
1502.842285 160.0
1503.083252 132.0
1503.168091 96.0
1503.32251 144.0
1503.600342 168.0
1503.786865 180.0
1503.856323 96.0
1504.024902 120.0
1504.073975 104.0
1504.129272 220.0
1504.255615 132.0
1504.359009 116.0
1504.531738 156.0
1504.604248 248.0
1504.773804 160.0
