>compound MLS001158171-01!
>formula C23H22N2O5
>ionization [M+H]+
>parentmass 407.160004
#inchi InChI=1S/C23H22N2O5/c1-14-7-23(28)30-20-9-17(5-6-18(14)20)29-13-22(27)24-10-15-8-16(12-24)19-3-2-4-21(26)25(19)11-15/h2-7,9,15-16H,8,10-13H2,1H3/t15-,16+/m1/s1
#inchikey GWOJMIRTAFCVOI
#Ion_Source LC-ESI
#Instrument qTof
#Compound_Source NIH Natural Product Library
#PI Dorrestein
#Data_Collector VVP/LMS
#Scan -1
#Precursor_MZ 407.161
#ExactMass 406.153
#Charge 1
#CAS_Number N/A
#Pubmed_ID N/A
#Smiles Cc1cc(=O)oc2cc(OCC(=O)N3C[C@H]4C[C@@H](C3)c5cccc(=O)n5C4)ccc12
#INCHI_AUX N/A
#Library_Class 1
#SpectrumID CCMSLIB00000079579
#IonMode Positive
#UpdateWorkflowName UPDATE-SINGLE-ANNOTATED-GOLD
#LibraryQualityString Gold
#TaskID b1d8e8f6646f4e71acdff9ca3d919d08
##Scan# 1345
#SpectrumFile p1-D08_GD8_01_17916.mzXML
#LibraryName NIH_Natural_Products_Library.mgf
#MQScore -1
#Organism NIH_Natural_Products_Library
#TIC_Query 0
#RT_Query -1
#MZErrorPPM -1
#SharedPeaks 0
#MassDiff 0
#LibMZ -1
#SpecMZ 407.161
#SpecCharge 0
#internalFilename spec-00000.mgf

>collision 10
95.069801 136.0
95.872948 152.0
96.08548 168.0
96.429146 184.0
96.483879 132.0
96.847839 192.0
97.043808 92.0
97.432396 172.0
97.593201 112.0
97.861137 200.0
97.977333 168.0
98.184296 172.0
98.247414 144.0
98.298714 196.0
98.353966 164.0
98.486259 128.0
98.887619 60.0
99.03611 184.0
99.226349 140.0
99.283012 188.0
99.386993 156.0
99.40287 192.0
99.691391 148.0
99.746452 80.0
100.009003 152.0
100.176262 116.0
100.295822 144.0
100.49324 80.0
100.569077 268.0
100.640938 72.0
100.928658 188.0
101.228806 156.0
101.304909 172.0
101.639725 192.0
101.770187 64.0
102.059517 144.0
102.181816 104.0
102.198296 52.0
102.468086 52.0
102.494278 164.0
102.605125 140.0
102.940056 164.0
103.05407 712.0
103.303856 188.0
103.457649 156.0
103.646004 248.0
103.696663 92.0
104.051643 184.0
104.114189 224.0
104.151146 168.0
104.28524 216.0
104.329964 68.0
104.492653 176.0
104.555733 64.0
104.629013 80.0
104.738976 236.0
104.791939 200.0
104.915047 128.0
105.003929 156.0
105.064133 148.0
105.320282 120.0
105.45105 56.0
105.63916 280.0
105.784447 216.0
105.915497 156.0
106.052773 132.0
106.069176 92.0
106.200394 140.0
106.270142 156.0
106.368652 76.0
106.430237 72.0
106.518547 212.0
106.557579 200.0
106.58429 124.0
106.600723 320.0
106.755096 208.0
107.203796 180.0
107.222206 172.0
107.740112 140.0
107.779366 144.0
107.837227 196.0
108.002632 152.0
108.042984 156.0
108.079178 132.0
108.257187 112.0
108.527718 188.0
108.949043 232.0
109.05397 988.0
109.145309 168.0
109.301308 84.0
109.328949 184.0
109.424103 180.0
110.061279 196.0
110.078812 160.0
110.187416 132.0
110.40271 224.0
110.657982 128.0
110.802963 160.0
110.827637 84.0
111.02887 120.0
111.047745 156.0
111.069191 212.0
111.121162 128.0
111.417175 104.0
111.740936 72.0
111.759872 72.0
111.797745 192.0
112.065598 252.0
112.223236 32.0
112.324463 112.0
112.400414 44.0
112.423622 144.0
112.732452 164.0
112.985657 180.0
113.029327 100.0
113.044899 120.0
113.283768 136.0
113.379486 140.0
113.481232 60.0
113.651024 156.0
114.082039 32.0
114.439445 168.0
114.524178 132.0
114.865662 44.0
114.9254 156.0
115.053848 260.0
115.117508 72.0
115.164902 228.0
115.711914 128.0
115.812553 32.0
116.011833 84.0
116.206993 184.0
116.505402 144.0
116.561264 120.0
116.612839 140.0
116.685928 140.0
116.731079 80.0
116.853676 168.0
117.008904 140.0
117.059784 752.0
117.088303 236.0
117.135689 72.0
117.44281 160.0
118.062141 268.0
118.102684 180.0
118.362381 104.0
118.555168 72.0
118.879646 184.0
119.243118 156.0
119.588928 196.0
119.767464 76.0
120.336395 152.0
120.531013 148.0
120.64904 132.0
121.041733 336.0
121.066322 380.0
121.101982 196.0
121.246582 184.0
121.389069 176.0
121.426353 120.0
121.48777 184.0
121.573334 208.0
121.64357 196.0
121.702843 44.0
121.790688 172.0
121.937889 164.0
122.000427 168.0
122.036812 236.0
122.060951 1440.0
122.082985 192.0
122.118172 88.0
122.181961 112.0
122.212761 104.0
122.239166 60.0
122.280983 96.0
122.41967 68.0
122.479134 64.0
122.545227 184.0
122.635574 312.0
122.937714 92.0
123.057365 384.0
123.19162 160.0
124.01918 144.0
124.056862 168.0
124.076813 200.0
124.258667 196.0
124.342987 148.0
124.422897 56.0
124.49839 200.0
124.762794 208.0
124.853951 196.0
124.936249 164.0
124.956276 140.0
125.259026 68.0
125.653603 112.0
125.988472 172.0
126.265633 148.0
126.567734 216.0
126.614754 168.0
126.861221 88.0
127.002487 168.0
127.95752 188.0
128.099396 148.0
128.277405 204.0
128.683487 168.0
128.730896 180.0
128.769287 176.0
128.870941 40.0
128.927032 180.0
128.950027 172.0
129.271164 204.0
129.330002 196.0
129.350372 152.0
129.368484 192.0
129.486221 188.0
129.656128 140.0
129.973602 140.0
130.012177 112.0
130.039413 84.0
130.06781 832.0
130.193787 96.0
130.259659 76.0
130.286911 76.0
130.364166 140.0
130.550568 108.0
130.72345 156.0
130.871399 160.0
130.939713 144.0
131.049866 1180.0
131.101471 156.0
131.18808 152.0
131.329971 88.0
131.505127 160.0
131.606491 160.0
131.939133 196.0
132.044739 1608.0
132.07991 644.0
132.10379 232.0
132.174713 164.0
132.403625 160.0
132.45401 180.0
132.751953 160.0
132.910217 140.0
132.962997 108.0
133.053299 1096.0
133.085983 184.0
133.517487 232.0
133.65007 136.0
133.7099 152.0
133.737518 172.0
133.8181 164.0
134.034607 60.0
134.059723 2692.0
134.094513 184.0
134.168274 136.0
134.195938 108.0
134.24437 164.0
134.551239 60.0
134.622818 148.0
134.69902 152.0
134.733673 136.0
134.807617 152.0
135.039169 480.0
135.063034 232.0
135.295639 48.0
135.318787 152.0
135.402145 76.0
135.66629 76.0
135.819336 172.0
135.875015 148.0
136.034882 152.0
136.066666 116.0
136.137283 52.0
136.223221 148.0
136.420746 112.0
136.527695 136.0
136.625381 92.0
136.816437 128.0
137.016495 156.0
137.084061 148.0
137.580856 32.0
137.737305 124.0
137.758331 108.0
137.905533 204.0
138.073868 248.0
138.115967 88.0
138.132339 64.0
138.221237 172.0
138.286774 176.0
138.342941 128.0
138.520905 192.0
138.602905 188.0
138.778702 140.0
138.84201 196.0
138.971024 160.0
139.252716 196.0
139.565247 100.0
139.93103 124.0
140.00293 124.0
140.064163 184.0
140.172531 192.0
140.203171 172.0
140.231445 116.0
140.556992 180.0
140.788223 184.0
141.005554 172.0
141.052826 180.0
141.175781 176.0
141.504669 200.0
141.705826 124.0
142.068039 420.0
142.139877 148.0
142.194458 128.0
142.408127 188.0
142.560074 184.0
142.728943 168.0
142.833588 192.0
143.048157 204.0
143.071548 148.0
143.126312 80.0
143.178696 144.0
143.288269 188.0
143.502762 184.0
143.684021 184.0
143.710266 164.0
143.876694 136.0
143.982376 76.0
144.078308 236.0
144.180664 120.0
144.371918 160.0
144.582428 172.0
144.836212 124.0
144.934433 136.0
145.013519 140.0
145.052811 244.0
145.089767 216.0
145.402039 192.0
145.423645 132.0
145.481247 180.0
145.608505 160.0
145.714203 176.0
146.060211 10320.0
146.139755 36.0
146.177216 84.0
146.303406 44.0
146.334702 92.0
146.399719 88.0
146.45752 200.0
146.47438 156.0
146.604477 116.0
146.827988 112.0
146.966171 124.0
147.006058 212.0
147.066605 6000.0
147.10614 120.0
147.135117 124.0
147.156845 32.0
147.20755 72.0
147.236526 124.0
147.263092 64.0
147.388702 256.0
147.44429 72.0
147.463623 148.0
147.504715 176.0
147.654617 68.0
147.83606 132.0
147.923187 152.0
147.948563 216.0
147.973831 156.0
148.075317 4268.0
148.112045 208.0
148.158081 40.0
148.21138 92.0
148.252563 192.0
148.313995 128.0
148.366486 188.0
148.42952 96.0
148.491791 196.0
148.579285 204.0
148.647842 64.0
148.691513 200.0
148.834732 236.0
148.93187 40.0
149.019333 112.0
149.043625 184.0
149.077087 840.0
149.184586 116.0
149.306152 160.0
149.357224 40.0
149.556747 212.0
149.615173 40.0
150.07373 180.0
150.136597 148.0
150.166672 144.0
150.296585 208.0
150.380554 128.0
150.566101 60.0
150.839752 144.0
150.898422 212.0
151.035355 132.0
151.096512 68.0
151.483307 64.0
151.782303 212.0
151.995224 144.0
152.037415 216.0
152.221527 192.0
152.910721 216.0
153.301407 48.0
153.760101 220.0
153.779846 224.0
153.920563 176.0
153.97406 128.0
154.06134 156.0
154.548386 200.0
154.657272 108.0
154.823135 132.0
155.063446 144.0
155.343628 72.0
155.373398 44.0
155.591782 200.0
155.626541 124.0
155.8004 168.0
156.082184 196.0
156.126007 140.0
156.168274 64.0
156.44696 88.0
156.554031 144.0
156.588898 184.0
156.915329 208.0
157.049973 120.0
157.072433 116.0
157.351913 116.0
157.49675 56.0
158.062927 364.0
158.139328 176.0
158.234451 168.0
158.337112 132.0
158.500534 220.0
158.572601 64.0
159.016525 152.0
159.043259 2424.0
159.06662 900.0
159.302765 168.0
159.397034 176.0
159.448486 52.0
159.606857 76.0
159.65213 144.0
159.704941 108.0
159.760345 152.0
159.81311 128.0
159.949005 64.0
159.991791 228.0
160.024521 196.0
160.050095 508.0
160.075119 9848.0
160.169464 72.0
160.250168 136.0
160.402405 96.0
160.483078 48.0
160.520889 260.0
160.631866 44.0
160.684341 204.0
160.717636 80.0
160.851395 60.0
160.94986 72.0
160.967529 112.0
161.0616 3088.0
161.149384 28.0
161.204971 60.0
161.267334 124.0
161.700638 84.0
162.061844 648.0
162.088425 1056.0
162.128632 120.0
162.159042 96.0
162.213577 124.0
162.501373 92.0
162.574951 128.0
162.694244 148.0
163.042221 156.0
163.070175 156.0
163.097183 316.0
163.307098 84.0
163.322128 88.0
163.438919 92.0
163.746933 60.0
163.874298 92.0
163.948196 160.0
164.070541 168.0
164.103683 148.0
164.124069 124.0
164.346756 224.0
164.734024 44.0
164.841339 96.0
165.035599 100.0
165.058609 76.0
165.460297 148.0
165.503815 164.0
165.562714 160.0
165.603699 40.0
165.718964 196.0
165.816345 136.0
165.846863 200.0
165.939377 64.0
166.006042 40.0
166.07016 100.0
166.09581 220.0
166.455109 84.0
166.999924 88.0
167.074509 128.0
168.050934 116.0
168.51825 48.0
168.634537 112.0
168.854294 176.0
168.983627 124.0
169.304596 140.0
169.895554 160.0
170.355026 172.0
170.425171 140.0
170.724106 128.0
171.023285 180.0
171.095779 200.0
171.531204 120.0
171.601593 176.0
171.638092 140.0
171.776321 124.0
171.930252 212.0
172.076004 1520.0
172.436905 144.0
172.562378 48.0
172.795135 184.0
172.952148 140.0
173.055649 184.0
173.08374 7028.0
173.142105 152.0
173.193039 92.0
173.219223 60.0
173.384293 88.0
173.434097 104.0
173.470779 104.0
173.502243 164.0
173.548965 200.0
173.649078 68.0
173.816971 84.0
174.045334 208.0
174.089569 1664.0
174.30275 176.0
174.444672 80.0
174.794449 36.0
175.046982 588.0
175.088333 500.0
175.479263 72.0
175.603195 136.0
175.930389 100.0
176.05072 404.0
176.074173 168.0
176.205048 220.0
177.052704 572.0
177.300491 188.0
177.541733 164.0
177.610687 120.0
177.934433 112.0
178.004822 164.0
178.149536 104.0
178.60408 140.0
178.753067 60.0
179.123123 152.0
179.160431 68.0
179.211044 160.0
179.48558 124.0
180.395966 152.0
180.433395 168.0
180.452103 84.0
180.551041 104.0
180.947052 196.0
181.080948 164.0
181.123795 120.0
181.42659 124.0
181.574066 144.0
181.73233 216.0
181.828934 44.0
182.183365 84.0
182.363388 76.0
183.014389 168.0
183.159821 260.0
183.194824 92.0
183.593018 136.0
183.728592 152.0
184.030869 168.0
184.076767 80.0
184.122665 104.0
184.217209 168.0
184.290146 176.0
184.333374 88.0
184.482025 152.0
185.031189 224.0
185.074509 376.0
185.112427 212.0
185.153046 140.0
185.573044 152.0
185.809006 128.0
185.830704 180.0
185.963669 104.0
186.088898 184.0
186.121124 116.0
186.189011 168.0
186.493286 120.0
187.050995 176.0
187.083939 144.0
187.192459 228.0
187.246918 72.0
187.62294 176.0
187.680206 148.0
187.792007 152.0
187.811096 100.0
187.959351 220.0
188.069992 1248.0
188.124893 144.0
188.422562 144.0
188.579636 196.0
188.712265 96.0
188.797546 168.0
188.873611 140.0
188.917374 176.0
188.942291 188.0
188.991241 144.0
189.053772 6880.0
189.102371 45908.0
189.17868 204.0
189.199234 44.0
189.263519 92.0
189.341614 56.0
189.375565 92.0
189.408173 84.0
189.448746 156.0
189.493515 44.0
189.562347 112.0
189.613937 40.0
189.749893 52.0
189.785538 128.0
189.804733 76.0
189.894684 100.0
190.010193 140.0
190.05896 1380.0
190.105911 7424.0
190.205612 64.0
190.235458 100.0
190.306839 32.0
190.372742 52.0
190.504578 64.0
190.537537 112.0
190.559525 64.0
190.652939 60.0
190.673157 68.0
190.749146 60.0
190.848114 84.0
190.886612 52.0
191.075378 628.0
191.116287 3832.0
191.180939 128.0
191.208466 220.0
191.248474 116.0
191.277267 104.0
191.347473 80.0
191.381882 108.0
191.415024 116.0
191.436951 52.0
191.459808 108.0
191.518127 76.0
191.549881 76.0
191.575958 96.0
191.624252 116.0
191.689117 104.0
191.806137 108.0
191.836456 108.0
191.952255 92.0
192.051529 64.0
192.085495 180.0
192.120163 584.0
192.170151 176.0
192.308121 72.0
192.332962 40.0
192.360565 32.0
192.388168 52.0
192.488953 80.0
192.603561 116.0
192.660568 88.0
192.860519 192.0
192.882629 124.0
192.907516 116.0
192.957275 52.0
193.114883 200.0
193.255966 104.0
193.314072 72.0
193.435852 60.0
193.482742 128.0
193.571503 52.0
193.765396 68.0
194.725143 96.0
195.02243 48.0
195.122498 56.0
195.219818 180.0
195.578705 112.0
195.968567 68.0
196.540146 92.0
197.174026 92.0
197.473175 156.0
197.503937 92.0
197.573868 192.0
199.056534 240.0
199.320572 136.0
200.071777 128.0
200.327774 36.0
200.550369 92.0
200.618027 120.0
200.888748 164.0
201.007233 152.0
201.056625 304.0
201.111649 124.0
202.721786 132.0
202.893738 64.0
203.035507 44.0
203.079712 320.0
203.114838 1556.0
203.225555 160.0
203.670685 60.0
204.089767 176.0
204.120346 332.0
204.185684 60.0
204.703613 108.0
205.36763 52.0
205.390442 148.0
205.645096 80.0
205.683121 132.0
206.364243 144.0
206.467178 112.0
206.862015 72.0
207.039536 96.0
207.062439 132.0
207.374725 88.0
208.120575 244.0
208.189499 100.0
208.603226 132.0
208.948303 136.0
209.267776 128.0
209.613403 52.0
209.965103 200.0
210.089127 128.0
210.657806 232.0
211.282227 92.0
211.643997 144.0
212.505035 256.0
212.851654 20.0
213.021561 100.0
213.099991 136.0
214.107071 148.0
214.187988 96.0
214.292862 176.0
215.252472 60.0
215.603012 136.0
216.852676 148.0
217.050537 1168.0
217.094788 972.0
217.18399 144.0
217.295456 40.0
217.324799 52.0
217.700516 48.0
218.050415 216.0
218.101807 128.0
218.529404 92.0
219.11824 100.0
219.471909 140.0
219.560379 116.0
219.799316 48.0
219.988205 220.0
220.528732 72.0
222.270035 160.0
224.033081 204.0
225.955643 196.0
226.018478 172.0
226.090286 152.0
227.051941 96.0
228.069595 184.0
228.430557 36.0
229.240433 136.0
229.973267 76.0
230.619614 144.0
230.698212 80.0
230.873581 168.0
231.07428 180.0
231.111267 1900.0
231.151871 68.0
232.120819 1600.0
232.400238 176.0
232.961884 88.0
233.001373 84.0
233.083405 148.0
233.118011 424.0
233.658051 120.0
233.926834 136.0
234.114609 100.0
234.187698 56.0
234.498474 104.0
234.928406 156.0
234.977203 108.0
235.804718 72.0
236.018707 148.0
236.786789 88.0
237.47023 148.0
237.543854 92.0
237.620544 76.0
239.474136 148.0
239.63739 192.0
239.662048 136.0
240.741653 92.0
240.942413 96.0
241.152527 192.0
242.079361 724.0
242.156509 20.0
242.836792 52.0
242.994995 184.0
243.035339 148.0
243.100494 128.0
243.836502 148.0
244.449127 76.0
244.589172 88.0
245.396011 124.0
245.461487 128.0
246.076157 108.0
246.973007 44.0
247.602081 60.0
247.630264 152.0
249.082474 168.0
250.567276 88.0
250.879272 144.0
251.077911 124.0
251.971191 172.0
252.992661 152.0
253.090805 136.0
254.276367 84.0
254.749466 124.0
255.25798 112.0
256.384857 188.0
256.467743 100.0
256.917328 80.0
258.441284 124.0
259.318695 116.0
260.820801 108.0
261.251678 96.0
261.943787 136.0
262.072632 68.0
263.821869 88.0
264.111389 292.0
264.546478 84.0
264.824951 192.0
265.009583 112.0
265.113281 160.0
265.207275 76.0
265.512024 136.0
265.75531 204.0
266.297424 168.0
267.103485 116.0
267.126251 80.0
271.030853 84.0
271.237335 152.0
271.568481 180.0
271.775146 96.0
271.857178 188.0
274.017426 96.0
274.264587 144.0
275.01001 132.0
277.398132 140.0
278.094696 52.0
278.283905 80.0
280.606171 148.0
280.912964 136.0
280.963013 152.0
281.740845 148.0
282.670319 100.0
283.966797 168.0
284.261993 168.0
285.319977 96.0
286.642731 104.0
289.073975 120.0
289.53775 100.0
290.624542 124.0
292.158081 96.0
292.631134 180.0
292.702637 140.0
293.595459 184.0
293.639771 140.0
293.960449 116.0
294.25058 100.0
294.971375 164.0
295.669098 156.0
295.696472 196.0
297.012146 168.0
297.094482 124.0
297.139069 92.0
297.530304 148.0
298.038605 136.0
298.121063 68.0
299.325043 148.0
299.621246 128.0
302.297089 136.0
302.767883 224.0
303.426239 156.0
303.998535 128.0
305.287323 56.0
305.405579 32.0
305.46817 88.0
305.71521 52.0
306.428986 148.0
307.241302 76.0
307.583282 108.0
307.974335 148.0
308.260803 156.0
308.781677 88.0
308.897125 176.0
309.7547 164.0
310.368011 100.0
310.504761 136.0
310.722229 48.0
311.248718 156.0
312.179901 48.0
312.218567 104.0
312.658325 136.0
312.725189 140.0
312.996246 108.0
314.046417 88.0
314.642761 108.0
315.091278 72.0
315.861908 60.0
316.853088 180.0
317.533661 60.0
318.076508 152.0
318.761963 76.0
318.886353 208.0
319.021729 212.0
319.213409 92.0
319.718109 204.0
320.601715 76.0
320.908264 72.0
321.197113 104.0
322.892365 168.0
323.806244 104.0
324.07132 120.0
326.462616 100.0
326.493683 124.0
326.62735 184.0
327.664093 76.0
328.364532 160.0
328.565369 192.0
328.745758 172.0
329.124786 120.0
332.037811 180.0
332.230042 44.0
333.166626 144.0
333.79541 148.0
334.650452 168.0
336.122986 88.0
336.629425 124.0
337.083344 176.0
337.118164 176.0
337.492706 120.0
338.312225 120.0
340.167084 52.0
343.456665 84.0
343.884644 128.0
344.095062 132.0
344.695251 20.0
345.003845 140.0
345.048218 252.0
346.684235 108.0
348.658478 112.0
349.11203 164.0
349.301697 108.0
349.811493 108.0
349.945496 152.0
350.06839 60.0
350.294983 124.0
351.052155 36.0
351.303619 124.0
351.574402 156.0
351.719971 148.0
351.940216 176.0
352.519196 152.0
352.874268 172.0
354.101624 128.0
354.438782 108.0
354.633636 132.0
354.753601 152.0
355.860291 132.0
358.836273 172.0
359.549194 148.0
361.151703 164.0
361.222961 176.0
361.442383 200.0
361.9534 104.0
362.131378 100.0
362.616333 172.0
363.310211 136.0
363.57962 112.0
365.11438 120.0
365.144806 136.0
365.258911 208.0
365.312164 112.0
366.023865 108.0
366.244751 180.0
366.587616 116.0
366.91922 160.0
367.720276 40.0
368.652344 56.0
369.834259 156.0
370.147736 108.0
370.304749 128.0
371.118652 192.0
371.178497 108.0
371.780731 144.0
372.356598 92.0
374.163818 140.0
375.038239 100.0
377.342804 228.0
378.499664 152.0
378.867584 156.0
379.127899 108.0
379.906525 176.0
380.884705 52.0
382.724182 180.0
384.212982 96.0
384.677368 152.0
385.267029 108.0
387.261932 152.0
389.13504 428.0
390.071289 112.0
390.130249 76.0
390.598206 120.0
390.68866 72.0
390.877533 44.0
391.08609 100.0
391.192383 176.0
391.75943 164.0
392.263824 56.0
392.847443 188.0
392.930267 148.0
393.857941 64.0
395.194122 96.0
396.267059 92.0
396.584076 176.0
396.806061 144.0
397.087585 156.0
397.40097 108.0
397.456512 124.0
397.730347 180.0
398.472931 112.0
398.890198 44.0
399.208252 192.0
399.701508 64.0
399.896515 76.0
399.996002 148.0
400.457886 76.0
401.031616 68.0
403.250702 152.0
403.870422 120.0
404.182434 108.0
404.258484 108.0
404.486603 112.0
404.56665 108.0
405.04718 92.0
405.171356 164.0
405.211426 68.0
405.267517 80.0
405.323608 124.0
405.49823 56.0
405.572083 144.0
405.600128 348.0
405.798828 164.0
405.85672 124.0
405.932892 60.0
405.989044 100.0
406.033142 76.0
406.214203 156.0
406.338013 160.0
406.390167 92.0
406.510529 32.0
406.548767 76.0
406.634949 164.0
406.675079 96.0
406.723236 112.0
406.755341 180.0
406.824432 168.0
406.883789 132.0
406.915466 104.0
406.977997 376.0
407.048279 260.0
407.160004 47856.0
407.267456 112.0
407.309174 56.0
407.320679 212.0
407.386871 100.0
407.438812 60.0
407.497131 56.0
407.569244 96.0
407.597321 80.0
407.642334 56.0
407.761261 108.0
407.781952 128.0
407.817505 116.0
407.85965 160.0
407.916229 92.0
408.003998 76.0
408.029968 160.0
408.079498 84.0
408.161804 14700.0
408.273163 144.0
408.353394 60.0
408.386383 120.0
408.415253 36.0
408.46759 84.0
408.531464 36.0
408.587646 112.0
408.595245 108.0
408.655365 140.0
408.732635 36.0
408.792969 76.0
408.829193 44.0
408.865417 56.0
408.904572 88.0
408.943268 104.0
409.012451 148.0
409.062622 84.0
409.102875 40.0
409.164673 1804.0
409.312256 32.0
409.39682 168.0
409.578033 56.0
409.638458 68.0
409.786163 72.0
409.82782 56.0
409.90033 104.0
409.932587 52.0
410.046112 164.0
410.163422 296.0
410.196991 144.0
410.244324 128.0
410.315491 52.0
410.384003 116.0
410.438171 120.0
410.492096 124.0
410.569489 60.0
410.625549 80.0
410.665222 152.0
410.714691 184.0
410.74292 92.0
410.857086 124.0
410.88266 44.0
410.932526 164.0
410.971436 92.0
411.04953 108.0
411.081818 36.0
411.190796 56.0
411.275543 56.0
411.423737 84.0
411.447784 84.0
411.497223 48.0
411.541962 48.0
411.669739 92.0
411.848877 116.0
411.913513 56.0
412.038727 124.0
412.151855 52.0
412.47113 88.0
412.523682 104.0
412.742004 32.0
413.150482 52.0
413.391205 56.0
413.494415 48.0
413.59964 76.0
413.919464 128.0
414.450073 68.0
414.883728 64.0
415.402802 48.0
416.104858 40.0
416.393158 104.0
417.100098 36.0
417.299316 52.0
420.207245 92.0
420.256195 36.0
420.329651 88.0
422.221008 116.0
422.568695 52.0
423.817444 100.0
424.075623 60.0
426.057526 84.0
426.320496 92.0
426.620514 104.0
429.148315 148.0
429.313263 104.0
429.837128 108.0
432.035126 72.0
448.197205 96.0
453.555878 104.0
458.68631 52.0
461.837433 116.0
463.134338 120.0
466.451111 60.0
467.999847 148.0
469.559753 148.0
483.387573 132.0
488.833191 36.0
500.465759 80.0
507.982758 108.0
517.179382 68.0
527.481934 48.0
530.031067 152.0
530.173096 28.0
557.687134 124.0
559.653503 156.0
560.821777 148.0
562.028992 132.0
564.102295 108.0
566.037292 84.0
568.018311 48.0
572.333496 44.0
585.295105 104.0
600.253418 72.0
605.315735 168.0
608.144348 64.0
626.768677 68.0
630.87616 92.0
633.092651 96.0
649.766602 116.0
684.113525 40.0
691.604004 48.0
694.774231 72.0
695.46167 124.0
722.572815 44.0
736.398376 100.0
740.313843 20.0
742.313354 100.0
750.818481 112.0
751.020264 48.0
757.338562 56.0
761.375122 92.0
768.575256 68.0
784.737671 88.0
787.019653 56.0
804.712891 76.0
813.412476 84.0
821.45282 140.0
825.387756 100.0
831.264771 92.0
838.366577 160.0
843.399231 56.0
850.610596 156.0
853.306091 76.0
858.756531 208.0
868.664917 84.0
875.523926 188.0
878.358826 20.0
880.40094 80.0
881.493774 112.0
891.698547 148.0
895.273926 220.0
906.81012 92.0
908.44104 164.0
920.145935 172.0
946.04425 92.0
949.733032 60.0
950.377136 168.0
955.556519 124.0
967.337341 32.0
973.773315 28.0
974.388245 36.0
989.524658 108.0
1013.445557 20.0
1018.666748 136.0
1020.401611 116.0
1024.117798 68.0
1030.848389 140.0
1032.484863 208.0
1046.640747 172.0
1046.911255 164.0
1053.567505 124.0
1057.395386 100.0
1064.416016 176.0
1072.574097 220.0
1074.432617 56.0
1074.811035 148.0
1079.638306 92.0
1080.0896 160.0
1083.95874 168.0
1084.655273 52.0
1089.016724 140.0
1093.763916 224.0
1096.82019 116.0
1097.453003 72.0
1098.448853 208.0
1098.607178 168.0
1099.596924 44.0
1104.393555 144.0
1107.365234 136.0
1114.516357 40.0
1115.134277 156.0
1116.171387 108.0
1119.371948 144.0
1131.945557 148.0
1137.52356 72.0
1142.933594 80.0
1146.098267 116.0
1150.063477 160.0
1150.306519 68.0
1153.168701 84.0
1158.028076 276.0
1168.012329 184.0
1173.139771 104.0
1173.97168 44.0
1178.36731 224.0
1182.292236 192.0
1186.456665 164.0
1187.361694 64.0
1193.012573 124.0
1196.789551 64.0
1198.139526 140.0
1198.463257 104.0
1199.235107 64.0
1202.635376 140.0
1209.526489 184.0
1210.800415 152.0
1213.142334 72.0
1215.861328 76.0
1218.631836 116.0
1219.938354 76.0
1232.601929 144.0
1236.734985 128.0
1242.502075 152.0
1244.649658 144.0
1247.241943 44.0
1248.141846 184.0
1250.11145 108.0
1253.780396 104.0
1255.726074 128.0
1259.346802 120.0
1261.240356 160.0
1261.480713 252.0
1266.511597 176.0
1272.212769 144.0
1275.921021 72.0
1277.634888 176.0
1277.962158 132.0
1278.81604 200.0
1280.076172 184.0
1281.386719 88.0
1282.220459 124.0
1283.311035 116.0
1284.03125 152.0
1289.006836 188.0
1294.300049 72.0
1295.460205 172.0
1296.742798 136.0
1299.273926 176.0
1300.278564 240.0
1301.419922 164.0
1302.346313 40.0
1303.215454 172.0
1304.178467 216.0
1306.903931 64.0
1313.019653 176.0
1320.711426 120.0
1326.380859 80.0
1327.2146 52.0
1327.598877 128.0
1331.423218 180.0
1337.690674 256.0
1342.265869 168.0
1342.834717 156.0
1346.293945 196.0
1348.310181 180.0
1348.397949 144.0
1350.064697 160.0
1353.51123 116.0
1353.782227 180.0
1356.214478 108.0
1356.940186 168.0
1358.216187 80.0
1364.965332 56.0
1366.156738 76.0
1367.768311 160.0
1370.190918 228.0
1371.68689 108.0
1375.522583 172.0
1376.150146 36.0
1379.119751 140.0
1379.504028 132.0
1382.973145 148.0
1384.142822 228.0
1385.772339 168.0
1385.979736 144.0
1387.276733 188.0
1391.200928 204.0
1391.832031 156.0
1394.231323 136.0
1394.610352 160.0
1398.388672 168.0
1399.415894 64.0
1400.078613 140.0
1400.6521 120.0
1400.778809 204.0
1401.903809 196.0
1402.626709 188.0
1405.274048 96.0
1407.0802 176.0
1407.438599 192.0
1409.881226 120.0
1413.777344 44.0
1414.870117 180.0
1420.467896 124.0
1422.021118 100.0
1423.229614 172.0
1424.942139 220.0
1425.069824 120.0
1431.598755 156.0
1431.764404 164.0
1431.907471 104.0
1432.351929 136.0
1433.685425 148.0
1437.599243 172.0
1438.384155 180.0
1440.339844 164.0
1444.852661 132.0
1445.821167 112.0
1446.146606 132.0
1447.229126 192.0
1450.532227 144.0
1450.903687 184.0
1452.700928 232.0
1454.218384 68.0
1455.919067 144.0
1457.711792 144.0
1458.152588 224.0
1458.884644 180.0
1461.240112 148.0
1461.954956 84.0
1464.429199 60.0
1464.977661 40.0
1470.902588 212.0
1473.812256 148.0
1474.46936 212.0
1477.489746 240.0
1479.441162 164.0
1480.612549 136.0
1480.811768 140.0
1486.753174 168.0
1491.384277 88.0
1492.645142 180.0
1493.329468 80.0
1495.853271 196.0
1495.932129 60.0
1497.678101 140.0
1499.018555 156.0
1499.596558 188.0
1499.958862 160.0
1500.213257 128.0
1503.221191 56.0
