>compound MLS001146900-01!9-Amino-1,2,3,4-tetrahydroacridine hydrochloride hydrate
>formula C13H14N2
>ionization [M+H]+
>parentmass 199.124084
#inchi InChI=1S/C13H14N2/c14-13-9-5-1-3-7-11(9)15-12-8-4-2-6-10(12)13/h1,3,5,7H,2,4,6,8H2,(H2,14,15)
#inchikey YLJREFDVOIBQDA
#origInchi InChI=1S/C13H14N2.ClH.H2O/c14-13-9-5-1-3-7-11(9)15-12-8-4-2-6-10(12)13;;/h1,3,5,7H,2,4,6,8H2,(H2,14,15);1H;1H2
#Ion_Source LC-ESI
#Instrument qTof
#Compound_Source NIH Pharmacologically Active Library
#PI Dorrestein
#Data_Collector VP/LMS
#Scan -1
#Precursor_MZ 199.127
#ExactMass 198.116
#Charge 1
#CAS_Number N/A
#Pubmed_ID N/A
#Smiles Nc1c2CCCCc2nc3ccccc13.O.Cl
#INCHI_AUX N/A
#Library_Class 1
#SpectrumID CCMSLIB00000086093
#IonMode Positive
#UpdateWorkflowName UPDATE-SINGLE-ANNOTATED-GOLD
#LibraryQualityString Gold
#TaskID d252d724072548979f1f6f1ced849daf
##Scan# 1284
#SpectrumFile p5-E02_GE2_01_18459.mzXML
#LibraryName Pharm_Active_Library.mgf
#MQScore -1
#Organism Pharm_Active_Library
#TIC_Query 0
#RT_Query -1
#MZErrorPPM -1
#SharedPeaks 0
#MassDiff 0
#LibMZ -1
#SpecMZ 199.127
#SpecCharge 0
#internalFilename spec-00000.mgf

>collision 10
44.902622 148.0
44.917187 128.0
44.943867 116.0
45.153225 188.0
45.179008 108.0
45.288773 220.0
45.306469 208.0
45.342365 56.0
45.351746 164.0
45.413422 148.0
45.491249 200.0
45.56242 220.0
45.575855 128.0
45.651131 180.0
45.660545 196.0
45.714165 196.0
45.750698 136.0
45.76416 172.0
45.805908 164.0
45.819378 160.0
45.866543 196.0
45.889462 144.0
45.920475 212.0
46.013359 240.0
46.035187 300.0
46.090637 160.0
46.275871 224.0
46.309723 192.0
46.369339 120.0
46.400517 176.0
46.416786 68.0
46.426277 296.0
46.466969 168.0
46.487297 216.0
46.489651 212.0
46.593227 72.0
46.610893 188.0
46.627197 224.0
46.704212 112.0
46.784981 88.0
46.81221 84.0
46.876236 204.0
46.952576 188.0
47.035805 160.0
47.049454 152.0
47.073544 180.0
47.186069 152.0
47.205692 148.0
47.218887 156.0
47.255821 28.0
47.298244 140.0
47.326481 224.0
47.376877 236.0
47.413292 168.0
47.481842 124.0
47.505157 208.0
47.59663 296.0
47.711147 132.0
47.767529 168.0
47.782661 256.0
47.800549 36.0
47.814308 96.0
47.83633 68.0
47.872128 180.0
47.883144 168.0
48.07201 188.0
48.171417 120.0
48.200432 208.0
48.237747 152.0
48.284756 100.0
48.311039 132.0
48.345627 176.0
48.359467 192.0
48.455013 176.0
48.466099 144.0
48.519604 192.0
48.550144 184.0
48.60696 68.0
48.671074 196.0
48.790867 160.0
48.808537 164.0
48.82563 144.0
48.877098 68.0
48.946697 212.0
48.970287 132.0
48.973251 116.0
49.038639 152.0
49.068535 224.0
49.079685 180.0
49.129276 92.0
49.206032 140.0
49.481453 68.0
49.505257 144.0
49.52066 176.0
49.589314 208.0
49.705708 224.0
49.728161 208.0
49.745007 152.0
49.86018 108.0
49.893913 196.0
49.915005 124.0
49.95533 244.0
50.031544 164.0
50.150105 200.0
50.159973 144.0
50.183937 80.0
50.265747 148.0
50.292561 120.0
50.327057 212.0
50.346798 252.0
50.362782 164.0
50.374458 132.0
50.388546 144.0
50.456936 220.0
50.529964 88.0
50.675251 188.0
50.722557 164.0
50.74334 200.0
50.760838 176.0
50.783527 172.0
50.861565 160.0
50.975182 144.0
51.040569 172.0
51.067589 148.0
51.10051 252.0
51.185707 164.0
51.202793 172.0
51.25835 156.0
51.274029 144.0
51.336754 96.0
51.361 32.0
51.37241 176.0
51.512306 108.0
51.633797 164.0
51.655251 208.0
51.710827 280.0
51.749702 156.0
51.761158 144.0
51.825615 160.0
51.897278 44.0
51.920254 172.0
51.938866 164.0
52.033577 92.0
52.102512 116.0
52.170055 96.0
52.299515 132.0
52.431438 208.0
52.442108 140.0
52.492565 244.0
52.611237 112.0
52.659374 204.0
52.717758 108.0
52.762562 188.0
52.792927 148.0
52.808575 264.0
52.834873 204.0
52.856575 144.0
52.878834 200.0
52.920261 88.0
52.950672 80.0
52.972397 128.0
53.030357 112.0
53.057896 152.0
53.236366 192.0
53.303185 168.0
53.322079 184.0
53.336613 72.0
53.354057 84.0
53.38459 188.0
53.400585 44.0
53.514091 68.0
53.524284 108.0
53.623344 152.0
53.656868 132.0
53.748756 104.0
53.780861 172.0
53.913765 84.0
54.026096 184.0
54.117088 204.0
54.193253 192.0
54.240147 224.0
54.256271 148.0
54.285595 60.0
54.303604 216.0
54.329597 232.0
54.339867 88.0
54.363342 112.0
54.385357 160.0
54.521946 96.0
54.56163 116.0
54.620453 148.0
54.639576 204.0
54.689606 140.0
54.713161 212.0
54.730827 60.0
54.85458 380.0
54.988804 172.0
55.084301 236.0
55.142403 148.0
55.204491 44.0
55.253452 200.0
55.291775 172.0
55.321377 164.0
55.385048 272.0
55.401344 100.0
55.490265 184.0
55.543652 80.0
55.562935 184.0
55.573318 176.0
55.618469 264.0
55.64753 164.0
55.70842 44.0
55.727451 148.0
55.750782 180.0
55.927002 184.0
56.043159 172.0
56.074451 196.0
56.134083 192.0
56.238514 152.0
56.265347 168.0
56.307194 104.0
56.423744 156.0
56.538918 168.0
56.576336 220.0
56.699162 192.0
56.711678 228.0
56.74263 84.0
56.799614 240.0
56.985764 72.0
57.038364 176.0
57.191784 156.0
57.2505 132.0
57.27309 84.0
57.290585 124.0
57.31678 64.0
57.348427 156.0
57.445076 164.0
57.555103 200.0
57.582283 168.0
57.606449 172.0
57.666889 112.0
57.706192 120.0
57.924114 188.0
57.934719 168.0
58.001392 200.0
58.027512 244.0
58.172802 160.0
58.213795 160.0
58.238094 196.0
58.262398 120.0
58.347504 220.0
58.467667 112.0
58.482887 136.0
58.58186 232.0
58.662624 168.0
58.700741 52.0
58.746494 188.0
58.761753 132.0
58.790745 80.0
58.830425 180.0
58.923584 148.0
58.937336 148.0
58.984711 104.0
59.070343 56.0
59.096348 88.0
59.156033 204.0
59.206562 164.0
59.241791 172.0
59.304615 172.0
59.338337 188.0
59.443798 164.0
59.570068 160.0
59.585602 216.0
59.602329 36.0
59.66227 172.0
59.688759 192.0
59.805328 72.0
59.845352 232.0
59.874607 120.0
59.920818 196.0
59.944576 228.0
59.959343 184.0
59.99017 176.0
60.022545 212.0
60.076527 196.0
60.119728 168.0
60.16449 84.0
60.176838 164.0
60.233978 184.0
60.246338 88.0
60.2896 160.0
60.402466 144.0
60.526276 192.0
60.556606 232.0
60.586678 176.0
60.70137 120.0
60.824856 176.0
60.931084 168.0
60.965267 132.0
61.010342 216.0
61.048378 204.0
61.089649 144.0
61.251541 244.0
61.28186 164.0
61.362309 152.0
61.413643 132.0
61.457325 92.0
61.60564 164.0
61.616573 176.0
61.675957 88.0
61.71973 176.0
61.766647 140.0
61.812016 172.0
61.833923 48.0
61.917213 180.0
61.948227 160.0
62.07988 136.0
62.100269 220.0
62.14576 96.0
62.169296 184.0
62.249355 216.0
62.294903 236.0
62.320042 192.0
62.334183 176.0
62.382904 148.0
62.53233 352.0
62.562237 152.0
62.604748 184.0
62.642551 128.0
62.66618 156.0
62.71188 80.0
62.833298 116.0
62.87117 128.0
63.043301 172.0
63.134991 124.0
63.264732 164.0
63.355 100.0
63.442158 176.0
63.514919 172.0
63.527794 160.0
63.559525 116.0
63.62936 164.0
63.678585 124.0
63.74213 100.0
63.844288 196.0
63.883629 228.0
63.955235 200.0
63.972744 124.0
64.002991 208.0
64.092194 228.0
64.200584 252.0
64.265984 36.0
64.297897 120.0
64.329819 228.0
64.392097 112.0
64.443298 148.0
64.486359 172.0
64.534317 52.0
64.775566 128.0
64.896164 72.0
64.966728 32.0
64.992393 152.0
65.01165 128.0
65.077377 152.0
65.109581 72.0
65.125641 172.0
65.215614 124.0
65.242943 156.0
65.31852 124.0
65.429558 164.0
65.493973 112.0
65.539078 156.0
65.568085 204.0
65.677719 80.0
65.753548 80.0
65.79229 152.0
65.879494 164.0
65.905342 32.0
66.159256 108.0
66.217552 132.0
66.313141 132.0
66.348801 68.0
66.384804 236.0
66.395393 180.0
66.498032 152.0
66.52076 116.0
66.535446 168.0
66.569466 40.0
66.655556 112.0
66.678307 148.0
66.744957 148.0
66.775856 192.0
66.818146 116.0
66.837128 180.0
66.841309 120.0
66.868591 124.0
66.938591 152.0
66.956505 108.0
66.974419 180.0
66.995598 176.0
67.007004 92.0
67.028183 172.0
67.079208 116.0
67.083916 144.0
67.219444 136.0
67.232628 160.0
67.271194 124.0
67.318542 188.0
67.388939 160.0
67.423088 160.0
67.462318 168.0
67.524857 244.0
67.729042 160.0
67.942139 140.0
67.993011 244.0
68.068993 176.0
68.170364 184.0
68.385239 192.0
68.49942 152.0
68.515892 144.0
68.593346 144.0
68.609825 168.0
68.647751 132.0
68.728577 180.0
68.79789 104.0
68.844124 108.0
68.855682 148.0
68.873322 136.0
68.898041 124.0
68.916801 176.0
69.135071 120.0
69.186386 112.0
69.453171 144.0
69.504807 224.0
69.544434 128.0
69.556046 48.0
69.572647 132.0
69.624123 160.0
69.670631 148.0
69.690567 184.0
69.720474 152.0
69.737099 260.0
69.752052 108.0
69.959991 172.0
69.99662 88.0
70.059906 100.0
70.089897 208.0
70.213257 232.0
70.325035 120.0
70.348404 84.0
70.393486 168.0
70.523788 72.0
70.588989 248.0
70.629128 200.0
70.640839 88.0
70.726173 176.0
70.811569 212.0
70.848419 196.0
70.92215 184.0
71.018906 164.0
71.100159 200.0
71.123421 152.0
71.167068 176.0
71.180504 108.0
71.210732 128.0
71.256088 208.0
71.294731 152.0
71.380463 160.0
71.402328 124.0
71.43428 72.0
71.452789 60.0
71.464569 192.0
71.498222 224.0
71.528519 200.0
71.600914 136.0
71.62281 200.0
71.661552 36.0
71.688515 176.0
71.760994 112.0
71.809898 168.0
71.835197 240.0
71.917877 188.0
71.961769 168.0
71.974281 220.0
72.076622 112.0
72.091087 136.0
72.11042 136.0
72.164513 76.0
72.186493 224.0
72.357391 184.0
72.459885 100.0
72.492889 144.0
72.540344 152.0
72.567474 152.0
72.655663 224.0
72.742767 144.0
72.840897 204.0
72.883163 172.0
72.92395 164.0
72.98175 208.0
73.116135 172.0
73.13826 156.0
73.15358 200.0
73.307465 284.0
73.392647 172.0
73.485901 132.0
73.50296 64.0
73.516617 184.0
73.661736 216.0
73.691071 164.0
73.716408 164.0
73.754639 228.0
73.841209 96.0
73.890816 88.0
73.981514 108.0
73.995209 116.0
74.050003 120.0
74.137383 56.0
74.202515 164.0
74.286545 100.0
74.310562 188.0
74.372337 136.0
74.398087 168.0
74.439293 112.0
74.458183 180.0
74.47953 188.0
74.566422 224.0
74.585327 164.0
74.605957 100.0
74.71946 304.0
74.820061 176.0
74.826698 256.0
74.924324 156.0
75.015663 128.0
75.050095 144.0
75.122574 228.0
75.179512 168.0
75.220932 184.0
75.293449 128.0
75.357361 164.0
75.381226 168.0
75.514671 80.0
75.543854 160.0
75.566566 292.0
75.637512 176.0
75.680794 168.0
75.713699 132.0
75.743141 96.0
75.802048 76.0
75.886978 160.0
75.921654 168.0
76.013596 140.0
76.062187 208.0
76.077812 180.0
76.202858 296.0
76.383652 176.0
76.401047 148.0
76.512428 120.0
76.536797 216.0
76.571396 148.0
76.6259 264.0
76.670929 156.0
76.684875 204.0
76.709274 156.0
76.803436 172.0
76.848724 308.0
76.928429 196.0
76.948273 160.0
77.00415 104.0
77.025116 92.0
77.051315 88.0
77.085411 164.0
77.19326 264.0
77.241859 60.0
77.325844 156.0
77.359062 168.0
77.411629 196.0
77.433853 156.0
77.436699 228.0
77.521988 208.0
77.599113 160.0
77.669258 32.0
77.692062 164.0
77.739433 128.0
77.807884 164.0
77.855293 296.0
77.90799 60.0
77.96257 184.0
77.987061 168.0
78.002876 140.0
78.022217 64.0
78.122459 188.0
78.171722 132.0
78.236794 144.0
78.242676 140.0
78.323128 180.0
78.341705 144.0
78.568153 228.0
78.684631 148.0
78.765862 188.0
78.923149 240.0
78.976204 56.0
79.054047 300.0
79.245277 148.0
79.271858 140.0
79.294891 120.0
79.316162 88.0
79.497063 148.0
79.891502 132.0
79.921745 112.0
79.980049 180.0
80.021423 124.0
80.0784 128.0
80.094429 164.0
80.270866 156.0
80.331505 224.0
80.372543 172.0
80.391693 240.0
80.585014 128.0
80.635742 164.0
80.717278 220.0
80.777794 244.0
80.867554 204.0
80.880081 72.0
80.96244 216.0
81.014381 208.0
81.112938 136.0
81.199005 68.0
81.277931 132.0
81.364082 208.0
81.382034 124.0
81.394608 184.0
81.475426 192.0
81.565277 228.0
81.596779 168.0
81.617409 288.0
81.679672 316.0
81.839249 124.0
81.869339 204.0
81.948204 168.0
82.056732 184.0
82.119843 224.0
82.231705 68.0
82.253365 104.0
82.318359 192.0
82.331001 68.0
82.359894 104.0
82.381569 224.0
82.435776 172.0
82.482765 136.0
82.593063 116.0
82.611153 320.0
82.679153 180.0
82.712486 156.0
82.7668 116.0
82.790337 212.0
82.819313 192.0
82.850113 100.0
82.899033 128.0
83.261848 256.0
83.290909 228.0
83.507202 184.0
83.569054 48.0
83.594528 184.0
83.663689 88.0
83.716492 144.0
83.734703 84.0
83.814857 212.0
83.829437 92.0
83.878639 188.0
83.958595 164.0
84.044601 164.0
84.100166 176.0
84.115776 224.0
84.144981 156.0
84.179672 124.0
84.289276 208.0
84.329475 224.0
84.395287 52.0
84.516006 152.0
84.711899 192.0
84.801682 220.0
84.823006 196.0
84.851173 188.0
84.944702 128.0
84.988731 132.0
85.102531 180.0
85.127319 120.0
85.269691 212.0
85.309883 240.0
85.357933 40.0
85.379997 104.0
85.422302 172.0
85.495895 156.0
85.546326 200.0
85.694763 176.0
85.746361 168.0
85.803497 144.0
85.877258 120.0
85.930756 204.0
85.96212 64.0
86.002724 172.0
86.13752 60.0
86.47773 196.0
86.490692 164.0
86.512901 120.0
86.589828 164.0
86.682808 212.0
86.77597 380.0
86.818619 140.0
86.876122 172.0
86.948479 88.0
86.963333 136.0
86.987457 212.0
87.026443 92.0
87.082153 132.0
87.109238 316.0
87.271698 424.0
87.403763 164.0
87.42981 96.0
87.509857 152.0
87.552681 140.0
87.616013 232.0
87.653275 120.0
87.690544 44.0
87.865829 132.0
87.878883 180.0
87.946068 128.0
87.994598 80.0
88.087975 36.0
88.206665 128.0
88.226257 176.0
88.239349 168.0
88.286095 32.0
88.374008 156.0
88.400208 148.0
88.428276 172.0
88.51252 120.0
88.643639 124.0
88.724236 152.0
88.780479 140.0
88.844254 180.0
88.859261 184.0
88.967773 380.0
89.038818 128.0
89.165337 156.0
89.197289 140.0
89.247467 52.0
89.326286 300.0
89.362778 116.0
89.4757 192.0
89.564209 128.0
89.590576 228.0
89.620728 140.0
89.682915 112.0
90.005501 140.0
90.062157 132.0
90.084824 44.0
90.164185 156.0
90.21711 176.0
90.245468 204.0
90.402466 204.0
90.425171 40.0
90.573875 172.0
90.631584 128.0
90.678955 192.0
90.787933 108.0
90.817368 200.0
91.007133 148.0
91.053757 332.0
91.088799 116.0
91.103989 204.0
91.155289 220.0
91.225609 180.0
91.254128 248.0
91.391068 64.0
91.42099 144.0
91.485558 216.0
91.531212 216.0
91.5662 224.0
91.598091 188.0
91.736259 208.0
91.777725 208.0
91.874992 184.0
91.890251 156.0
91.909592 148.0
92.067772 160.0
92.111435 180.0
92.130798 176.0
92.159462 176.0
92.274132 120.0
92.354446 140.0
92.437935 200.0
92.49221 172.0
92.520927 64.0
92.563049 80.0
92.653069 184.0
92.687553 128.0
92.718216 208.0
92.754631 152.0
92.846664 216.0
92.866798 168.0
92.921471 152.0
92.934898 232.0
93.056633 328.0
93.267128 204.0
93.30365 168.0
93.380569 76.0
93.39595 120.0
93.426735 160.0
93.497925 124.0
93.559517 192.0
93.593361 104.0
93.665428 40.0
93.690468 204.0
93.73864 168.0
93.76947 104.0
93.833084 180.0
93.925644 104.0
93.970016 188.0
94.170776 192.0
94.338882 168.0
94.377548 96.0
94.605843 180.0
94.678757 188.0
94.751083 144.0
94.782089 216.0
94.797585 156.0
94.828598 184.0
94.844101 136.0
94.860115 224.0
94.894501 144.0
95.024445 208.0
95.069077 112.0
95.088486 104.0
95.123421 196.0
95.185547 172.0
95.393433 48.0
95.560677 140.0
95.576241 120.0
95.64389 200.0
95.649994 152.0
95.654427 184.0
95.691078 160.0
95.77092 208.0
95.860535 164.0
95.895615 188.0
95.979439 132.0
95.996986 192.0
96.055496 156.0
96.069153 248.0
96.123779 176.0
96.147392 160.0
96.164764 124.0
96.203804 60.0
96.295578 160.0
96.338547 128.0
96.358086 192.0
96.38739 96.0
96.434296 144.0
96.455795 96.0
96.672791 164.0
96.708115 212.0
96.747261 196.0
96.845169 152.0
96.872589 152.0
96.919609 240.0
96.93821 228.0
96.998001 176.0
97.037209 156.0
97.062698 168.0
97.113686 188.0
97.16861 160.0
97.254951 132.0
97.305992 80.0
97.31974 112.0
97.345261 200.0
97.500458 80.0
97.604645 124.0
97.659706 152.0
97.675438 136.0
97.693146 152.0
97.724625 124.0
97.748734 220.0
97.817116 156.0
97.917534 56.0
98.092896 92.0
98.146126 52.0
98.215149 108.0
98.234871 276.0
98.297867 116.0
98.329582 144.0
98.345276 176.0
98.35289 168.0
98.406563 168.0
98.42514 204.0
98.51123 208.0
98.542839 244.0
98.586311 68.0
98.602074 168.0
98.685143 156.0
98.722717 164.0
98.805786 180.0
98.861191 176.0
98.928482 172.0
98.964119 128.0
99.005707 252.0
99.057198 164.0
99.088898 60.0
99.187981 160.0
99.386299 212.0
99.457741 136.0
99.557007 96.0
99.588783 176.0
99.60865 184.0
99.680168 124.0
99.747742 164.0
99.763405 168.0
99.841187 148.0
99.861076 152.0
99.898872 196.0
100.054092 256.0
100.146286 188.0
100.189514 256.0
100.329018 52.0
100.350945 128.0
100.37886 168.0
100.422729 100.0
100.44268 196.0
100.568382 144.0
100.684959 236.0
100.750092 188.0
100.770073 52.0
100.822021 28.0
100.844009 124.0
100.905975 144.0
100.995964 188.0
101.047974 136.0
101.083992 164.0
101.164047 188.0
101.366333 120.0
101.438484 196.0
101.458527 216.0
101.500633 160.0
101.649071 32.0
101.749428 152.0
101.767494 76.0
101.832581 244.0
101.92617 168.0
101.942245 48.0
101.997635 344.0
102.026665 136.0
102.047722 340.0
102.125198 200.0
102.158813 168.0
102.213715 112.0
102.270058 216.0
102.338692 128.0
102.616547 160.0
102.65284 116.0
102.802116 156.0
102.882851 120.0
103.054985 2548.0
103.119179 32.0
103.152641 72.0
103.369949 108.0
103.522728 160.0
103.556198 232.0
103.667809 128.0
103.764908 184.0
103.807487 96.0
103.823715 168.0
103.846024 128.0
103.87442 160.0
103.912964 160.0
103.973839 104.0
104.00631 260.0
104.050911 684.0
104.168755 36.0
104.272377 68.0
104.412659 140.0
104.550995 176.0
104.582565 212.0
104.622238 132.0
104.675171 152.0
104.746452 184.0
104.850365 112.0
104.913551 208.0
104.946175 132.0
105.062424 196.0
105.105263 184.0
105.12542 128.0
105.174652 148.0
105.235893 228.0
105.446297 240.0
105.777084 176.0
105.828827 168.0
105.933464 128.0
106.066635 144.0
106.091064 60.0
106.328995 184.0
106.372101 212.0
106.390572 196.0
106.47065 136.0
106.534325 188.0
106.586182 216.0
106.608292 200.0
106.625298 116.0
106.696671 136.0
106.836517 168.0
107.108238 52.0
107.322563 220.0
107.367928 44.0
107.471069 128.0
107.485512 92.0
107.809715 204.0
107.861382 104.0
107.9478 200.0
107.991646 260.0
108.074394 164.0
108.103363 108.0
108.213066 128.0
108.258621 200.0
108.281395 152.0
108.310394 140.0
108.397408 232.0
108.426422 128.0
108.449219 100.0
108.633766 212.0
108.666954 104.0
108.719521 180.0
108.783173 124.0
108.826767 100.0
108.843376 132.0
108.916069 44.0
109.105164 132.0
109.292351 192.0
109.317314 172.0
109.34021 144.0
109.363106 92.0
109.446373 224.0
109.531761 80.0
109.579674 152.0
109.60051 104.0
109.700546 216.0
109.738068 136.0
109.871544 156.0
109.90284 108.0
109.936226 96.0
109.961273 160.0
110.019035 172.0
110.18261 164.0
110.197235 220.0
110.310081 172.0
110.364441 172.0
110.395805 136.0
110.445999 216.0
110.569443 172.0
110.690857 188.0
110.812859 244.0
111.158302 140.0
111.175095 68.0
111.244354 200.0
111.328339 52.0
111.370346 168.0
111.425453 204.0
111.477486 208.0
111.557358 40.0
111.587852 268.0
111.658279 100.0
111.706657 200.0
111.763458 132.0
111.801338 104.0
111.845535 164.0
111.916374 208.0
111.957123 116.0
112.047691 168.0
112.087723 168.0
112.203644 68.0
112.271996 192.0
112.306976 140.0
112.334396 192.0
112.351273 120.0
112.516083 124.0
112.569748 184.0
112.623062 180.0
112.746117 196.0
112.771271 168.0
112.849693 184.0
112.927368 60.0
112.98774 160.0
113.018898 156.0
113.035828 188.0
113.158981 172.0
113.183998 160.0
113.503952 176.0
113.590904 152.0
113.624847 76.0
113.743385 144.0
113.913559 176.0
113.936928 140.0
113.981544 152.0
114.021919 168.0
114.036293 136.0
114.06868 188.0
114.109505 176.0
114.29837 136.0
114.460136 140.0
114.524025 100.0
114.564499 176.0
114.596458 184.0
114.613503 116.0
114.705139 200.0
114.764183 196.0
114.792549 224.0
114.809616 168.0
114.852264 168.0
114.918396 72.0
115.053604 1356.0
115.106232 92.0
115.12545 200.0
115.142532 128.0
115.330551 184.0
115.390404 132.0
115.411781 168.0
115.426041 132.0
115.463104 156.0
115.5924 136.0
115.623558 148.0
115.655663 68.0
115.681351 124.0
115.704895 160.0
115.752762 180.0
115.79483 172.0
115.829102 152.0
115.912651 128.0
115.93837 180.0
116.01339 172.0
116.049614 3684.0
116.077705 344.0
116.135612 168.0
116.159203 152.0
116.204254 136.0
116.245026 116.0
116.286911 200.0
116.356636 184.0
116.437401 176.0
116.470444 124.0
116.485481 216.0
116.641815 228.0
116.711143 140.0
116.732643 144.0
116.760597 208.0
116.853096 216.0
116.945625 72.0
116.971451 80.0
117.005737 212.0
117.010513 56.0
117.017426 304.0
117.067459 1480.0
117.096336 184.0
117.122177 60.0
117.156647 172.0
117.173882 144.0
117.188965 180.0
117.240677 84.0
117.320427 100.0
117.344139 192.0
117.38295 116.0
117.443336 188.0
117.503738 196.0
117.524849 224.0
117.581421 48.0
117.65049 120.0
117.725487 136.0
117.778893 156.0
117.79258 356.0
117.866554 196.0
117.905365 156.0
118.064331 1688.0
118.227592 132.0
118.249237 52.0
118.361801 164.0
118.398613 68.0
118.446266 52.0
118.686821 64.0
118.738174 176.0
118.758385 92.0
118.860344 304.0
118.901581 164.0
118.922455 116.0
118.986237 256.0
119.06601 428.0
119.099152 100.0
119.122635 256.0
119.161423 132.0
119.196915 184.0
119.285858 264.0
119.527428 164.0
119.555206 188.0
119.749474 132.0
119.777794 104.0
119.808289 244.0
119.834435 140.0
119.85186 192.0
119.89003 148.0
119.908524 104.0
119.978271 264.0
119.99353 212.0
120.061127 88.0
120.139648 204.0
120.292404 192.0
120.371002 180.0
120.425598 60.0
120.443069 248.0
120.567368 148.0
120.585091 196.0
120.617874 164.0
120.690018 172.0
120.785393 176.0
120.829994 124.0
120.862816 196.0
120.908554 208.0
120.952538 364.0
120.989754 204.0
121.01384 88.0
121.033539 184.0
121.243835 184.0
121.29644 224.0
121.335358 196.0
121.381943 164.0
121.420166 176.0
121.544258 224.0
121.570587 188.0
121.616676 196.0
121.807709 156.0
121.880203 220.0
121.935143 204.0
121.963715 164.0
122.007683 176.0
122.133797 192.0
122.196815 136.0
122.289238 176.0
122.33326 64.0
122.375092 152.0
122.427933 164.0
122.463173 176.0
122.502823 136.0
122.573326 160.0
122.753593 184.0
122.868767 116.0
122.937172 172.0
122.954826 180.0
123.08065 168.0
123.149109 160.0
123.173409 108.0
123.195496 172.0
123.230843 148.0
123.2481 148.0
123.297134 208.0
123.376709 172.0
123.531502 140.0
123.558052 200.0
123.584602 168.0
123.66288 80.0
123.715172 144.0
123.808167 128.0
123.874619 120.0
123.932213 156.0
123.980965 144.0
124.062973 140.0
124.184929 160.0
124.218201 180.0
124.235947 112.0
124.273666 148.0
124.342537 108.0
124.386848 156.0
124.660019 172.0
124.746704 60.0
124.853424 148.0
125.053162 216.0
125.113754 124.0
125.129341 80.0
125.211731 40.0
125.247368 64.0
125.305283 92.0
125.376587 148.0
125.467972 156.0
125.503647 200.0
125.610695 208.0
125.856186 116.0
125.920944 152.0
126.046616 180.0
126.069366 228.0
126.132797 200.0
126.294189 144.0
126.352356 376.0
126.372681 140.0
126.557549 228.0
126.645599 136.0
126.692635 144.0
126.757614 176.0
126.831566 148.0
126.856224 208.0
126.918999 172.0
126.934692 164.0
127.054115 972.0
127.108719 124.0
127.152298 120.0
127.311691 132.0
127.345375 80.0
127.477921 148.0
127.543098 152.0
127.727478 144.0
127.844467 208.0
127.881538 144.0
127.902985 192.0
127.970215 88.0
127.997543 176.0
128.04982 1680.0
128.108063 168.0
128.270142 196.0
128.369614 68.0
128.396408 56.0
128.4776 192.0
128.504684 132.0
128.543701 216.0
128.637833 120.0
128.703293 136.0
128.757492 148.0
128.7733 72.0
128.832031 176.0
128.945007 156.0
129.012817 152.0
129.04982 480.0
129.182541 212.0
129.395157 168.0
129.410995 64.0
129.456284 212.0
129.544617 56.0
129.58313 176.0
129.626175 124.0
129.832474 104.0
129.895981 148.0
129.916382 72.0
129.948151 180.0
129.973114 160.0
130.065826 4920.0
130.095673 48.0
130.281876 152.0
130.347763 120.0
130.373596 352.0
130.452759 184.0
130.483154 380.0
130.594299 240.0
130.622864 140.0
130.691116 84.0
130.779861 160.0
130.802628 60.0
130.832214 68.0
130.85498 92.0
130.877747 188.0
130.95462 196.0
130.987061 36.0
131.018951 152.0
131.057251 528.0
131.072617 972.0
131.132889 168.0
131.37915 132.0
131.3974 188.0
131.552582 52.0
131.584549 208.0
131.678162 160.0
131.822098 72.0
131.84494 68.0
131.866241 160.0
131.883789 104.0
132.046127 140.0
132.068176 256.0
132.146774 132.0
132.2612 140.0
132.30011 60.0
132.352768 164.0
132.503937 176.0
132.597885 184.0
132.63913 240.0
132.788177 168.0
132.824875 200.0
132.882217 152.0
132.976303 148.0
133.112152 180.0
133.15538 188.0
133.238068 220.0
133.297806 160.0
133.5392 228.0
133.614609 188.0
133.649612 220.0
133.697937 152.0
133.803818 52.0
133.833755 156.0
133.87059 128.0
133.89592 240.0
133.912048 96.0
133.930466 116.0
133.965027 84.0
133.983459 112.0
134.008789 56.0
134.06604 176.0
134.103271 184.0
134.240417 136.0
134.313095 136.0
134.476913 152.0
134.54155 20.0
134.571564 144.0
134.631592 220.0
134.894989 180.0
134.945847 152.0
134.968964 132.0
135.026779 128.0
135.112366 128.0
135.147064 180.0
135.163269 108.0
135.255829 168.0
135.276672 296.0
135.369278 168.0
135.413284 184.0
135.448029 212.0
135.498291 148.0
135.529114 196.0
135.577774 164.0
135.64035 44.0
135.682068 168.0
135.83049 192.0
135.869919 136.0
135.974335 116.0
136.055588 60.0
136.320358 144.0
136.411011 176.0
136.443542 164.0
136.520279 224.0
136.54071 224.0
136.601685 164.0
136.627274 188.0
136.648209 136.0
136.668381 204.0
136.782898 224.0
136.789551 196.0
136.927536 128.0
136.950836 144.0
137.067307 172.0
137.127899 152.0
137.24176 152.0
137.267776 156.0
137.342407 104.0
137.487061 144.0
137.531403 176.0
137.622452 84.0
137.652802 160.0
137.7836 128.0
137.858368 192.0
138.014984 128.0
138.036026 128.0
138.059402 148.0
138.162323 136.0
138.185715 140.0
138.22081 172.0
138.281235 200.0
138.356567 244.0
138.403473 116.0
138.560303 184.0
138.625916 140.0
138.703262 216.0
138.733734 144.0
138.853317 64.0
138.96225 172.0
139.054321 152.0
139.097321 128.0
139.151321 132.0
139.240555 152.0
139.482559 140.0
139.549789 240.0
139.613449 172.0
139.863602 184.0
139.967194 132.0
140.016647 220.0
140.048752 1428.0
140.080673 152.0
140.120285 204.0
140.13678 76.0
140.198044 188.0
140.384277 100.0
140.412582 120.0
140.469177 132.0
140.613831 132.0
140.648514 152.0
140.903549 164.0
140.92482 60.0
141.058731 196.0
141.163361 204.0
141.324387 120.0
141.412521 132.0
141.473495 128.0
141.572937 92.0
141.61319 132.0
141.707245 136.0
141.857254 100.0
141.93074 172.0
141.959198 124.0
142.008041 236.0
142.057571 876.0
142.090546 320.0
142.170334 160.0
142.215424 92.0
142.257278 260.0
142.350739 216.0
142.367371 80.0
142.48613 192.0
142.550278 140.0
142.60257 204.0
142.68338 204.0
142.744919 164.0
142.785629 200.0
142.886673 232.0
142.913742 140.0
142.963562 96.0
143.035446 216.0
143.072723 6164.0
143.108765 316.0
143.132874 160.0
143.18045 180.0
143.209198 136.0
143.254532 80.0
143.27359 72.0
143.380814 132.0
143.435623 88.0
143.503571 128.0
143.523834 132.0
143.58345 136.0
143.638306 168.0
143.700333 384.0
143.719009 188.0
143.799713 124.0
143.891266 156.0
143.933258 168.0
143.952393 200.0
143.982315 180.0
144.017624 192.0
144.081543 52744.0
144.14328 124.0
144.168518 264.0
144.201797 152.0
144.218521 84.0
144.26889 60.0
144.287857 36.0
144.304581 156.0
144.326111 40.0
144.347626 124.0
144.383499 92.0
144.420517 192.0
144.441498 252.0
144.476135 160.0
144.517456 96.0
144.538986 96.0
144.568726 96.0
144.646683 176.0
144.782532 168.0
144.819077 228.0
144.838242 48.0
144.884171 208.0
144.930374 140.0
144.937866 136.0
144.977203 296.0
145.003555 144.0
145.083908 6280.0
145.156982 48.0
145.197754 80.0
145.262512 40.0
145.286575 120.0
145.327286 132.0
145.408875 148.0
145.5457 216.0
145.608139 60.0
145.697021 200.0
145.830505 180.0
145.848404 228.0
145.883362 152.0
145.958984 36.0
145.978226 124.0
146.02861 164.0
146.05925 584.0
146.088303 340.0
146.194733 180.0
146.213196 184.0
146.235641 112.0
146.287109 104.0
146.319885 144.0
146.358414 120.0
146.401764 80.0
146.442703 52.0
146.461975 120.0
146.594467 100.0
146.617599 128.0
146.657135 48.0
146.71257 204.0
146.73909 116.0
146.83313 140.0
146.944031 148.0
147.035721 140.0
147.067108 324.0
147.154938 144.0
147.20961 48.0
147.233749 84.0
147.291718 96.0
147.395599 64.0
147.514023 184.0
147.572052 172.0
147.610733 200.0
147.654266 188.0
147.753433 60.0
147.869583 92.0
147.88652 220.0
147.983353 32.0
148.028351 224.0
148.077789 168.0
148.12381 68.0
148.15773 168.0
148.220718 152.0
148.511627 192.0
148.557724 76.0
148.579559 156.0
148.603821 184.0
148.645065 124.0
148.686325 108.0
148.727585 168.0
148.912109 236.0
148.957184 192.0
148.997116 164.0
149.016556 208.0
149.076172 148.0
149.186676 124.0
149.254745 152.0
149.277512 188.0
149.387955 172.0
149.948532 176.0
150.138702 168.0
150.287491 120.0
150.360184 184.0
150.433929 148.0
150.472992 336.0
150.52182 236.0
150.6073 252.0
150.636612 168.0
150.673248 84.0
150.814621 220.0
151.088852 192.0
151.206299 200.0
151.274841 228.0
151.301758 48.0
151.328079 160.0
151.438889 100.0
151.769714 144.0
151.867813 132.0
151.924225 116.0
152.061935 488.0
152.21875 168.0
152.331726 200.0
152.540604 64.0
152.646317 192.0
152.729935 116.0
152.81604 164.0
152.902161 120.0
152.939072 176.0
153.015381 68.0
153.056076 412.0
153.113876 164.0
153.237045 176.0
153.259216 172.0
153.286316 124.0
153.308502 120.0
153.449005 156.0
153.557495 84.0
153.616699 96.0
153.707977 172.0
153.858536 136.0
153.895569 344.0
153.915329 196.0
154.009171 148.0
154.066437 1124.0
154.100571 208.0
154.145035 172.0
154.192001 188.0
154.258728 180.0
154.384827 100.0
154.434677 320.0
154.49118 84.0
154.513443 68.0
154.543137 72.0
154.712723 252.0
154.780746 120.0
154.805511 96.0
154.837708 68.0
154.9021 104.0
154.949173 140.0
155.060806 2016.0
155.149918 40.0
155.20694 64.0
155.246613 196.0
155.360703 44.0
155.807556 196.0
155.994095 196.0
156.024506 164.0
156.069382 1996.0
156.114304 136.0
156.200333 48.0
156.226669 164.0
156.459137 152.0
156.750549 212.0
156.830292 220.0
156.867676 180.0
156.976639 188.0
157.004807 120.0
157.076477 6508.0
157.171936 368.0
157.19191 148.0
157.22435 92.0
157.256134 324.0
157.274261 108.0
157.354141 40.0
157.382767 112.0
157.421555 76.0
157.449036 184.0
157.511475 160.0
157.631393 100.0
157.715347 128.0
157.778854 132.0
157.853867 208.0
157.89888 204.0
157.928894 156.0
157.961411 140.0
157.998932 180.0
158.031448 164.0
158.083832 7592.0
158.129044 244.0
158.274246 80.0
158.316803 192.0
158.427017 120.0
158.497162 48.0
158.522232 36.0
158.55481 140.0
158.62999 116.0
158.66008 232.0
158.735291 32.0
158.885788 104.0
158.948502 136.0
158.991165 108.0
159.086929 804.0
159.152542 180.0
159.174423 76.0
159.252274 152.0
159.493484 72.0
159.521133 156.0
159.560608 148.0
159.601578 120.0
159.624207 80.0
159.671997 92.0
159.724808 52.0
159.825439 36.0
159.843048 68.0
159.986511 188.0
160.029312 144.0
160.069595 136.0
160.091476 316.0
160.160263 260.0
160.208115 104.0
160.331589 168.0
160.437454 96.0
160.475266 148.0
160.530731 48.0
160.93985 176.0
160.990005 96.0
161.030426 116.0
161.070511 396.0
161.107025 244.0
161.133987 160.0
161.285614 76.0
161.384201 72.0
161.406952 120.0
161.657379 84.0
161.695343 156.0
161.913071 48.0
162.075195 144.0
162.110657 132.0
162.1436 204.0
162.239929 136.0
162.326126 60.0
162.445328 220.0
162.638184 160.0
162.752411 212.0
162.808289 100.0
162.942902 152.0
162.960693 64.0
163.082672 220.0
163.145401 188.0
163.22757 240.0
163.301315 172.0
163.431061 268.0
163.464142 152.0
163.614304 112.0
163.740021 204.0
163.774734 164.0
164.055023 148.0
164.195267 128.0
164.259018 92.0
164.302399 200.0
164.338104 196.0
164.386597 200.0
164.419769 160.0
164.445282 188.0
164.542282 80.0
164.595901 248.0
164.634201 144.0
164.675064 112.0
164.828354 168.0
164.940796 320.0
165.065659 476.0
165.16069 60.0
165.567642 128.0
165.636795 148.0
165.762222 216.0
165.879745 172.0
166.065887 944.0
166.231583 60.0
166.342514 196.0
166.383026 220.0
166.403564 148.0
166.441193 164.0
166.698944 164.0
166.891724 156.0
167.073425 3112.0
167.200409 244.0
167.259598 100.0
167.347122 44.0
167.491348 144.0
167.604691 140.0
167.651077 172.0
167.772217 180.0
167.8573 132.0
167.986252 164.0
168.017212 176.0
168.07753 740.0
168.184952 176.0
168.365677 80.0
168.474152 104.0
168.532623 144.0
168.636948 172.0
168.815323 36.0
168.879974 180.0
168.97052 100.0
169.07724 1368.0
169.120605 180.0
169.171692 184.0
169.221558 148.0
169.255844 200.0
169.285004 112.0
169.304428 40.0
169.340683 56.0
169.367432 248.0
169.498703 72.0
169.729401 116.0
169.789047 92.0
169.832336 196.0
169.999176 40.0
170.043289 84.0
170.085144 2176.0
170.130051 196.0
170.230148 176.0
170.295135 112.0
170.321106 116.0
170.367203 160.0
170.531677 116.0
170.56015 136.0
170.674545 228.0
170.726547 124.0
170.760361 44.0
170.812607 44.0
170.873734 160.0
170.895615 104.0
170.921844 200.0
170.965881 248.0
170.989243 168.0
171.01857 164.0
171.049744 240.0
171.092514 71392.0
171.175995 156.0
171.183517 160.0
171.218399 36.0
171.240219 72.0
171.270874 264.0
171.306686 96.0
171.330124 112.0
171.372086 108.0
171.397369 108.0
171.440659 140.0
171.497467 36.0
171.523392 244.0
171.573349 60.0
171.627518 68.0
171.778778 56.0
171.835434 140.0
171.865326 68.0
171.905823 208.0
172.000839 148.0
172.047562 176.0
172.095276 9256.0
172.138947 132.0
172.243866 100.0
172.327011 56.0
172.363586 176.0
172.380661 136.0
172.423309 80.0
172.538712 36.0
172.620758 156.0
172.694595 156.0
172.713913 140.0
172.794998 80.0
172.842972 60.0
172.880112 220.0
172.939514 36.0
172.985138 140.0
173.033157 56.0
173.056625 100.0
173.063278 96.0
173.102295 692.0
173.140518 200.0
173.177277 112.0
173.261002 112.0
173.294022 60.0
173.310791 116.0
173.337448 68.0
173.373672 176.0
173.398499 212.0
173.449677 128.0
173.479492 136.0
173.509979 72.0
173.557175 60.0
173.667847 156.0
173.698792 160.0
173.788803 140.0
173.824722 184.0
173.927063 192.0
173.950699 68.0
174.014526 164.0
174.042572 192.0
174.101715 144.0
174.150253 40.0
174.171265 60.0
174.28685 120.0
174.344666 32.0
174.428772 100.0
174.483978 88.0
174.586517 164.0
174.607559 80.0
174.704529 208.0
174.889069 60.0
174.973312 300.0
175.023331 92.0
175.049667 148.0
175.081833 204.0
175.165543 148.0
175.188141 284.0
175.270935 156.0
175.40007 92.0
175.629456 48.0
175.750809 88.0
175.930283 120.0
175.977798 56.0
176.057846 164.0
176.088715 140.0
176.136246 32.0
176.2155 60.0
176.266937 120.0
176.598801 172.0
176.768112 112.0
177.003708 188.0
177.062469 168.0
177.099045 180.0
177.189102 152.0
177.292435 180.0
177.358704 164.0
177.570816 172.0
177.621201 160.0
177.659836 160.0
178.065781 132.0
178.182846 224.0
178.203308 224.0
178.441788 160.0
178.492432 152.0
178.582718 96.0
178.880722 224.0
178.961014 176.0
179.003204 176.0
179.067108 168.0
179.147018 176.0
179.5495 176.0
179.87233 184.0
179.984467 108.0
180.01651 76.0
180.079895 1528.0
180.109009 200.0
180.130157 188.0
180.158066 40.0
180.350449 108.0
180.441345 216.0
180.55899 136.0
180.588409 64.0
180.795242 156.0
180.859482 204.0
180.981796 68.0
181.011246 180.0
181.075668 1784.0
181.126404 152.0
181.356842 84.0
181.437256 168.0
181.563278 68.0
181.729584 60.0
181.753738 152.0
181.772522 152.0
181.791306 168.0
181.826645 236.0
181.893295 120.0
181.918304 144.0
182.046097 140.0
182.084595 8016.0
182.194717 208.0
182.320328 100.0
182.403656 76.0
182.453644 168.0
182.559753 204.0
182.770355 148.0
182.817841 72.0
182.894547 128.0
182.923355 156.0
183.003571 196.0
183.022415 348.0
183.046646 128.0
183.092514 17888.0
183.16246 72.0
183.240585 44.0
183.259445 52.0
183.283691 64.0
183.324112 72.0
183.483139 100.0
183.506546 76.0
183.513214 52.0
183.521912 84.0
183.601776 76.0
183.626053 76.0
183.760925 148.0
183.834671 108.0
183.860764 144.0
183.95253 92.0
184.030823 172.0
184.095352 3224.0
184.144241 96.0
184.195557 64.0
184.290115 36.0
184.336044 108.0
184.360367 56.0
184.452255 60.0
184.544174 108.0
184.627991 196.0
184.652344 192.0
184.798416 64.0
184.898529 52.0
184.941833 64.0
185.05011 52.0
185.074478 132.0
185.103409 604.0
185.125931 248.0
185.148895 100.0
185.226135 104.0
185.253235 52.0
185.287506 172.0
185.315536 104.0
185.342636 104.0
185.364319 192.0
185.463623 192.0
185.525726 208.0
185.743866 120.0
185.992279 168.0
186.115662 128.0
186.235153 132.0
186.330231 220.0
186.436203 176.0
186.789642 136.0
186.990997 128.0
187.2995 116.0
187.407623 160.0
187.661102 220.0
187.71019 180.0
187.770187 184.0
187.832916 192.0
188.176758 224.0
188.343338 76.0
188.671249 188.0
188.887283 84.0
189.032288 216.0
189.117126 184.0
189.552567 248.0
189.664932 204.0
189.87056 128.0
189.939117 160.0
189.966553 132.0
190.114716 188.0
190.164108 140.0
190.312347 236.0
190.37825 76.0
190.691437 112.0
190.779404 172.0
191.007629 172.0
191.172714 48.0
191.346115 48.0
191.478287 156.0
191.527863 160.0
191.585709 160.0
191.797897 104.0
191.833725 168.0
191.999161 200.0
192.139832 196.0
192.398758 112.0
192.493118 124.0
192.606354 148.0
192.879913 176.0
192.903595 140.0
193.170242 120.0
193.507874 132.0
193.532791 36.0
193.585403 92.0
193.782059 152.0
193.856873 188.0
194.085403 144.0
194.245026 156.0
194.533615 64.0
195.091125 3940.0
195.15593 28.0
195.525894 132.0
195.787582 120.0
195.996506 176.0
196.03273 184.0
196.061188 112.0
196.098007 1224.0
196.360672 188.0
196.439789 108.0
196.5737 244.0
196.612778 64.0
196.637894 116.0
196.785828 188.0
196.813751 48.0
196.852844 184.0
196.928253 212.0
196.976425 196.0
197.020432 132.0
197.045578 64.0
197.107529 12576.0
197.157333 100.0
197.18631 76.0
197.235596 68.0
197.282272 220.0
197.325745 60.0
197.386566 140.0
197.453674 132.0
197.603592 196.0
197.795029 36.0
197.884613 72.0
198.002213 52.0
198.066116 152.0
198.111099 1664.0
198.16188 56.0
198.217911 76.0
198.247147 176.0
198.268356 316.0
198.374863 216.0
198.430939 132.0
198.492615 96.0
198.51828 204.0
198.548706 40.0
198.590775 184.0
198.613647 280.0
198.654892 168.0
198.728226 168.0
198.747864 144.0
198.809601 100.0
198.840195 164.0
198.850784 148.0
198.87114 212.0
198.874985 176.0
198.94046 324.0
198.972397 212.0
198.995987 140.0
199.024078 168.0
199.058517 540.0
199.124084 128800.0
199.200851 356.0
199.233673 160.0
199.277878 52.0
199.309219 180.0
199.341827 168.0
199.386398 196.0
199.416031 64.0
199.420059 88.0
199.43251 188.0
199.45192 132.0
199.483749 164.0
199.537979 116.0
199.586609 372.0
199.615814 184.0
199.650681 96.0
199.672668 96.0
199.715576 68.0
199.734558 92.0
199.767807 200.0
199.823959 156.0
199.905563 60.0
199.934235 132.0
199.975922 44.0
200.02095 68.0
200.053345 96.0
200.092926 520.0
200.126266 17708.0
200.167419 176.0
200.223663 136.0
200.265762 76.0
200.283066 88.0
200.310684 156.0
200.330399 112.0
200.340149 80.0
200.375778 64.0
200.398315 44.0
200.445526 164.0
200.449936 176.0
200.499161 116.0
200.533569 92.0
200.570221 76.0
200.620956 92.0
200.640686 48.0
200.685806 68.0
200.705536 96.0
200.7715 132.0
200.80423 92.0
200.893982 92.0
200.908371 48.0
200.91835 88.0
200.970673 36.0
200.998886 32.0
201.020355 72.0
201.058151 44.0
201.129807 2140.0
201.187988 64.0
201.21904 120.0
201.241623 52.0
201.305649 196.0
201.327881 220.0
201.333862 120.0
201.386124 164.0
201.412949 120.0
201.442139 88.0
201.512177 196.0
201.544708 108.0
201.572098 88.0
201.606003 100.0
201.639923 132.0
201.662537 88.0
201.687973 128.0
201.743271 64.0
201.78389 116.0
201.819901 60.0
201.868912 120.0
201.978531 100.0
202.117828 184.0
202.15448 40.0
202.187485 52.0
202.216873 88.0
202.361237 48.0
202.400879 80.0
202.440521 120.0
202.460342 104.0
202.525482 76.0
202.573639 92.0
202.618973 84.0
202.798767 116.0
202.922211 60.0
202.967575 88.0
203.066833 100.0
203.202988 80.0
203.285278 52.0
203.353394 80.0
203.401779 84.0
203.483963 40.0
203.722519 64.0
204.12326 40.0
204.829071 96.0
204.908829 88.0
205.037064 56.0
206.015747 112.0
206.618942 148.0
206.936615 60.0
207.544037 104.0
208.083435 52.0
208.499939 48.0
208.525803 52.0
208.976135 152.0
209.063599 84.0
209.193115 108.0
209.84996 92.0
210.170105 108.0
210.848709 64.0
211.129135 108.0
211.294006 124.0
211.528412 80.0
211.95993 96.0
212.330688 76.0
212.789459 80.0
212.989838 132.0
213.931976 120.0
214.287277 68.0
215.054199 132.0
215.875137 120.0
215.92485 116.0
217.043488 72.0
218.594421 76.0
220.422653 108.0
226.494827 44.0
226.803452 52.0
229.578445 148.0
230.931442 32.0
243.389694 60.0
248.414444 48.0
248.988831 88.0
250.517471 52.0
252.366852 76.0
252.461716 96.0
254.654816 76.0
255.567154 44.0
256.293121 48.0
263.286224 56.0
265.00708 68.0
270.510925 120.0
272.163269 52.0
273.366333 80.0
279.338257 104.0
281.164124 48.0
281.788544 56.0
282.671234 108.0
284.528076 72.0
284.659027 88.0
287.702728 100.0
291.560669 80.0
292.652588 136.0
293.361206 72.0
299.212494 84.0
301.22644 108.0
302.734406 84.0
304.808777 112.0
305.083344 152.0
307.521637 72.0
308.915802 100.0
309.122223 80.0
311.973663 128.0
320.040222 60.0
325.640289 36.0
330.007782 80.0
330.601013 96.0
338.595673 120.0
342.201569 136.0
342.901459 44.0
345.071991 44.0
348.816193 120.0
352.573151 52.0
353.773804 68.0
358.483704 48.0
359.06424 48.0
366.219879 68.0
371.118988 40.0
373.846252 116.0
376.444427 32.0
379.377197 128.0
381.065369 40.0
384.152557 84.0
388.137848 112.0
388.789032 92.0
393.098083 108.0
404.524841 44.0
406.095551 64.0
408.043091 64.0
420.589142 84.0
424.061646 56.0
425.23465 64.0
434.373993 72.0
440.960999 64.0
443.493164 80.0
444.671722 28.0
446.395874 48.0
461.344269 132.0
466.5271 52.0
470.714935 48.0
481.113556 100.0
484.327545 32.0
489.60672 36.0
501.845795 80.0
514.922241 76.0
526.352478 116.0
535.192871 48.0
536.478271 108.0
544.82666 32.0
563.217957 60.0
563.496643 68.0
564.413574 48.0
579.794312 92.0
580.431885 56.0
585.227112 96.0
600.462646 136.0
604.713135 52.0
618.009705 108.0
628.074585 36.0
632.571716 108.0
638.205627 84.0
644.4505 68.0
668.935791 52.0
669.018188 84.0
674.207031 88.0
684.988525 136.0
688.67627 32.0
722.888916 96.0
753.613953 76.0
760.168152 92.0
769.740723 116.0
779.239807 68.0
787.372375 72.0
792.955811 184.0
806.158447 120.0
816.504456 116.0
834.695312 156.0
849.033936 120.0
853.226135 200.0
860.099976 92.0
867.452698 216.0
869.67572 84.0
889.039734 200.0
902.334473 208.0
917.873291 52.0
923.241638 244.0
928.116211 88.0
930.027161 128.0
945.979126 156.0
946.383179 96.0
947.004578 176.0
954.716064 152.0
955.854126 180.0
956.007935 48.0
963.845398 48.0
968.912598 156.0
969.079895 168.0
972.192627 120.0
977.648865 108.0
979.846802 168.0
981.510925 124.0
982.446472 216.0
982.646118 180.0
989.396912 212.0
989.740051 212.0
1006.579163 184.0
1006.983276 136.0
1009.150757 232.0
1013.112549 196.0
1015.762268 136.0
1020.963989 64.0
1024.177979 68.0
1027.677734 128.0
1037.148682 200.0
1040.677002 200.0
1049.749634 64.0
1050.665527 120.0
1051.549438 116.0
1052.040039 204.0
1052.931152 172.0
1055.212036 116.0
1059.081787 128.0
1060.060059 160.0
1069.14502 140.0
1072.108032 168.0
1076.328613 108.0
1082.265625 124.0
1086.158325 64.0
1088.146729 140.0
1091.103027 136.0
1096.606079 176.0
1097.423462 152.0
1097.60144 132.0
1098.036743 180.0
1100.53772 56.0
1103.266235 184.0
1103.332397 48.0
1104.846802 152.0
1106.461548 224.0
1106.534424 152.0
1107.031006 104.0
1110.868408 76.0
1111.279785 248.0
1113.576538 184.0
1114.666016 136.0
1118.536743 172.0
1118.583252 72.0
1120.654419 140.0
1124.542114 152.0
1128.383057 172.0
1133.436279 44.0
1135.84314 140.0
1137.258789 116.0
1138.803101 228.0
1142.675049 64.0
1147.26123 132.0
1150.6073 160.0
1154.45105 256.0
1154.932129 172.0
1160.139282 176.0
1163.246216 108.0
1163.836792 164.0
1164.977783 28.0
1167.213867 172.0
1167.710205 192.0
1168.540161 124.0
1170.030518 236.0
1171.099609 132.0
1171.188232 168.0
1174.494019 108.0
1180.018433 184.0
1180.900635 244.0
1181.7146 136.0
1187.091553 88.0
1187.180664 96.0
1190.412842 164.0
1190.893555 132.0
1191.635376 232.0
1196.366943 140.0
1197.599487 184.0
1198.343506 144.0
1200.638794 160.0
1201.335449 168.0
1201.783936 128.0
1202.080566 204.0
1203.39209 80.0
1203.86853 128.0
1206.715332 184.0
1210.243164 224.0
1211.795288 140.0
1216.052979 140.0
1216.525024 120.0
1216.830444 188.0
1217.510986 128.0
1219.268555 156.0
1220.109619 180.0
1220.165283 148.0
1221.792603 236.0
1223.734253 196.0
1223.894409 156.0
1224.813721 160.0
1225.189819 192.0
1225.782104 48.0
1227.28772 164.0
1229.952637 144.0
1230.650757 80.0
1230.755371 144.0
1234.170532 152.0
1235.284058 184.0
1236.088623 116.0
1236.48645 200.0
1237.719604 236.0
1243.439819 140.0
1247.18335 140.0
1249.313965 188.0
1250.545288 212.0
1252.009644 72.0
1253.822388 252.0
1254.919922 168.0
1255.004517 200.0
1255.258301 204.0
1255.44873 180.0
1256.676025 156.0
1256.845337 60.0
1256.972412 128.0
1257.035889 56.0
1257.289917 156.0
1258.313477 168.0
1259.160767 156.0
1260.022583 148.0
1260.248657 196.0
1260.665527 180.0
1264.300415 112.0
1267.08313 88.0
1268.521729 108.0
1269.301514 176.0
1269.97522 164.0
1270.159668 208.0
1270.535645 100.0
1272.557495 104.0
1274.44043 144.0
1278.749756 176.0
1279.746338 204.0
1280.330322 128.0
1281.192139 144.0
1282.125488 140.0
1283.208984 60.0
1286.67627 128.0
1288.125977 144.0
1288.34021 156.0
1289.733643 236.0
1290.269775 176.0
1292.257935 184.0
1293.324219 148.0
1293.481689 152.0
1294.341064 148.0
1295.057007 136.0
1295.257446 184.0
1296.095703 164.0
1298.224609 204.0
1298.274902 76.0
1298.92749 144.0
1299.128418 148.0
1299.264648 148.0
1300.305054 164.0
1301.554199 200.0
1302.918823 148.0
1303.752319 200.0
1304.276978 188.0
1304.384766 216.0
1304.909546 212.0
1305.693359 136.0
1306.074463 168.0
1307.556641 92.0
1307.794189 244.0
1307.966919 184.0
1308.816406 180.0
1309.716553 140.0
1310.393677 120.0
1310.487427 76.0
1313.082397 168.0
1313.226685 180.0
1313.673828 96.0
1315.218018 172.0
1316.409302 116.0
1317.413208 80.0
1317.59375 176.0
1318.619873 260.0
1319.769287 40.0
1321.584717 104.0
1321.939209 128.0
1324.581787 140.0
1325.364258 112.0
1325.726562 144.0
1327.662109 256.0
1328.278564 44.0
1328.50354 168.0
1329.388672 164.0
1330.36853 40.0
1330.818604 164.0
1333.084839 220.0
1334.211426 44.0
1334.829468 212.0
1335.280273 72.0
1335.367554 160.0
1336.793457 100.0
1337.040894 168.0
1337.099121 212.0
1337.404785 188.0
1338.110962 116.0
1338.88269 168.0
1341.141235 232.0
1341.746338 120.0
1342.212891 60.0
1342.803589 96.0
1345.021606 176.0
1346.357788 120.0
1348.447144 64.0
1348.615234 56.0
1349.119629 120.0
1351.445312 184.0
1351.745361 136.0
1352.125854 136.0
1352.528442 204.0
1352.601562 52.0
1353.45813 168.0
1353.913452 160.0
1354.300293 220.0
1355.05481 200.0
1355.303955 212.0
1356.909058 192.0
1357.334229 164.0
1358.126343 76.0
1358.280396 112.0
1358.925903 120.0
1361.215942 244.0
1361.546387 164.0
1361.921021 144.0
1362.883301 148.0
1363.50061 120.0
1363.632935 176.0
1365.960938 200.0
1366.059326 144.0
1366.956909 136.0
1367.369019 204.0
1367.530884 180.0
1368.303833 76.0
1369.231689 152.0
1369.349487 160.0
1370.174438 176.0
1370.793335 164.0
1371.508301 176.0
1371.795776 136.0
1372.709961 160.0
1376.000732 200.0
1377.100952 164.0
1377.241333 216.0
1378.844482 156.0
1379.021973 148.0
1379.487549 356.0
1381.358398 204.0
1381.974731 172.0
1383.156494 232.0
1383.489624 200.0
1383.541504 132.0
1385.852173 208.0
1386.563477 52.0
1388.943481 40.0
1389.307007 128.0
1389.60376 220.0
1392.431885 192.0
1393.078125 112.0
1393.694702 148.0
1394.876343 256.0
1395.441284 228.0
1395.54541 128.0
1396.995605 192.0
1398.446533 168.0
1398.945312 156.0
1401.429199 188.0
1402.490967 164.0
1405.350464 168.0
1406.384399 212.0
1407.175659 152.0
1407.362305 52.0
1407.907349 192.0
1409.804932 52.0
1409.894531 144.0
1410.021606 172.0
1412.885376 148.0
1413.296875 88.0
1414.524292 152.0
1416.553467 132.0
1416.770752 144.0
1417.932129 152.0
1418.167725 240.0
1418.306885 36.0
1418.666748 164.0
1421.606812 176.0
1422.214722 104.0
1423.498535 192.0
1423.843872 192.0
1424.287109 136.0
1424.579956 164.0
1425.406494 132.0
1425.511597 168.0
1426.240601 168.0
1427.452881 232.0
1427.804443 112.0
1427.887207 188.0
1428.849976 160.0
1431.303589 148.0
1431.476807 180.0
1431.853394 176.0
1432.425781 160.0
1433.54834 160.0
1434.121094 132.0
1434.44519 236.0
1435.266968 100.0
1435.802368 112.0
1436.368042 172.0
1437.167725 152.0
1437.537476 212.0
1437.839355 188.0
1438.556396 188.0
1439.099976 40.0
1439.658691 176.0
1440.504639 112.0
1441.592529 112.0
1441.985596 144.0
1442.34082 152.0
1442.484375 208.0
1442.741455 280.0
1443.01355 212.0
1445.996338 152.0
1447.470093 44.0
1448.371338 132.0
1448.424316 256.0
1450.015503 164.0
1451.531616 156.0
1452.070068 228.0
1452.214111 120.0
1452.790649 228.0
1453.98938 136.0
1455.515259 156.0
1456.350586 216.0
1456.889893 96.0
1457.467285 188.0
1457.84729 176.0
1458.174072 200.0
1460.12793 176.0
1460.188721 152.0
1460.470215 56.0
1462.121094 104.0
1462.303833 156.0
1462.836548 192.0
1463.559814 176.0
1463.879639 100.0
1465.151611 192.0
1465.296387 64.0
1465.966919 208.0
1467.331177 224.0
1467.445557 112.0
1469.726074 248.0
1469.893921 28.0
1470.603638 156.0
1470.664795 152.0
1471.130371 32.0
1471.267822 164.0
1471.428101 140.0
1472.443604 64.0
1472.649902 216.0
1472.848511 132.0
1472.917236 132.0
1473.097168 176.0
1473.52832 76.0
1473.650635 196.0
1473.826294 176.0
1474.552246 176.0
1474.69751 148.0
1475.041382 228.0
1475.668335 120.0
1476.004761 144.0
1476.547607 32.0
1478.865845 128.0
1479.448364 212.0
1480.305054 156.0
1480.473511 128.0
1480.710938 168.0
1480.779907 188.0
1482.84082 136.0
1482.9021 116.0
1484.166992 76.0
1485.754639 136.0
1486.115234 156.0
1486.230225 252.0
1486.590942 140.0
1487.005371 172.0
1487.726807 88.0
1488.310303 40.0
1491.498413 160.0
1491.659912 172.0
1492.474854 156.0
1493.097656 160.0
1493.597534 156.0
1493.651489 200.0
1494.466919 124.0
1495.000488 160.0
1495.821411 128.0
1496.129272 184.0
1497.569214 144.0
1498.994385 168.0
1499.980957 228.0
1500.073364 184.0
1501.121948 40.0
1502.47937 104.0
1504.339233 44.0
1504.478149 220.0
1504.570801 84.0
1504.956787 44.0
