>compound clopidogrel
>formula C16H16ClNO2S 
>ionization [M+H]+
>parentmass 322.067047
#inchi InChI=1S/C16H16ClNO2S/c1-20-16(19)15(12-4-2-3-5-13(12)17)18-8-6-14-11(10-18)7-9-21-14/h2-5,7,9,15H,6,8,10H2,1H3/t15-/m0/s1
#inchikey GKTWGGQPFAXNFI
#Ion_Source LC-ESI
#Instrument qTof
#Compound_Source Commercial
#PI Dorrestein
#Data_Collector Garg_Neha
#Scan -1
#Precursor_MZ 322.068
#ExactMass 321.059
#Charge 1
#CAS_Number N/A
#Pubmed_ID N/A
#Smiles N/A
#INCHI_AUX N/A
#Library_Class 1
#SpectrumID CCMSLIB00000077124
#IonMode Positive
#UpdateWorkflowName UPDATE-SINGLE-ANNOTATED-GOLD
#LibraryQualityString Gold
#TaskID 48f7f52fc6d249b5abbcc6e7b3df5969
##Scan# 1560
#SpectrumFile NCP003195_A2A7B2B6C2C6D2D6_BB6_01_15710.mzXML
#LibraryName NIH_Clinical_Collection_2.mgf
#MQScore -1
#Organism NIHcollection2_04212014_2_mgf
#TIC_Query 0
#RT_Query -1
#MZErrorPPM -1
#SharedPeaks 0
#MassDiff 0
#LibMZ -1
#SpecMZ 322.068
#SpecCharge 0
#internalFilename spec-00000.mgf

>collision 10
47.511921 144.0
48.306805 148.0
48.540871 248.0
50.363117 168.0
50.691341 148.0
52.1758 148.0
53.447155 144.0
55.26223 160.0
55.971729 176.0
56.538994 156.0
58.786282 140.0
61.040039 156.0
61.863834 204.0
63.596226 140.0
65.973465 200.0
67.505096 148.0
67.668724 140.0
68.200233 144.0
68.681023 164.0
69.833839 228.0
70.306992 180.0
71.859161 148.0
71.908096 228.0
72.208832 228.0
73.223755 220.0
75.835381 192.0
75.934212 196.0
75.998398 160.0
76.791656 184.0
77.079704 144.0
77.179337 148.0
78.286598 204.0
78.566849 156.0
78.669205 152.0
79.376907 188.0
80.364105 184.0
80.485481 156.0
81.515457 144.0
82.302628 156.0
82.796295 164.0
82.825279 148.0
83.513199 180.0
85.248207 152.0
86.733925 168.0
86.997337 152.0
87.646423 140.0
87.696739 164.0
87.96534 208.0
90.369049 144.0
90.920471 140.0
90.954636 184.0
91.051468 140.0
92.625015 204.0
93.723923 164.0
93.889702 208.0
95.246475 148.0
95.411652 220.0
96.390091 180.0
96.554298 192.0
96.78521 192.0
97.169365 196.0
98.342194 140.0
99.097603 188.0
99.792274 140.0
99.86187 140.0
100.667015 216.0
101.170868 228.0
104.468445 164.0
104.788071 160.0
105.034172 348.0
105.049019 144.0
105.623016 356.0
106.036613 200.0
107.542145 144.0
111.026276 464.0
112.647797 196.0
113.989441 132.0
114.516525 180.0
115.162781 152.0
115.314476 204.0
115.590347 156.0
118.91568 152.0
121.630966 156.0
121.993416 196.0
122.706703 192.0
124.521225 208.0
125.016045 2860.0
125.781464 160.0
125.837273 176.0
125.931061 236.0
126.018784 504.0
126.76329 204.0
127.011421 1220.0
127.672462 212.0
127.696266 124.0
128.019028 144.0
130.653687 188.0
132.425034 184.0
132.477722 184.0
133.024734 184.0
133.227875 184.0
135.227066 140.0
136.024414 164.0
136.121918 192.0
136.284515 204.0
138.03772 164.0
138.086487 160.0
138.341537 204.0
138.446899 148.0
138.996201 124.0
139.047775 304.0
139.331192 192.0
140.843536 156.0
140.985291 172.0
141.742538 168.0
142.889343 184.0
144.279739 172.0
144.51651 168.0
145.648041 168.0
146.692368 156.0
146.894913 172.0
147.259399 180.0
148.051437 448.0
150.020752 144.0
150.167053 160.0
151.926895 160.0
152.026688 8292.0
152.414368 148.0
153.029816 1108.0
154.024475 3676.0
154.841782 160.0
154.871368 156.0
155.026505 24012.0
155.072189 176.0
155.37323 188.0
156.030106 1360.0
156.415939 200.0
156.789551 216.0
157.023163 5900.0
157.249786 140.0
157.30484 156.0
157.624496 184.0
158.02858 392.0
160.242844 168.0
160.792252 236.0
161.176102 216.0
161.724869 244.0
164.263306 196.0
164.296463 140.0
164.44957 172.0
165.313385 208.0
166.420715 168.0
166.574814 144.0
167.856506 176.0
167.995773 204.0
168.439774 156.0
171.285339 164.0
171.814529 168.0
176.198898 184.0
177.132736 184.0
180.724121 160.0
181.101578 188.0
181.601379 152.0
181.828156 292.0
182.096634 172.0
183.021133 10640.0
183.633438 148.0
184.023682 1004.0
184.052948 16852.0
184.313736 160.0
184.343369 124.0
184.883102 152.0
185.01767 2528.0
185.055527 2024.0
185.482025 108.0
185.924957 204.0
186.024445 492.0
186.050293 3688.0
186.373016 152.0
187.056946 720.0
187.352463 148.0
188.282578 200.0
189.091827 148.0
192.288193 188.0
195.909515 144.0
196.924835 152.0
201.031952 268.0
201.495224 164.0
205.944824 152.0
208.582748 148.0
210.039764 152.0
211.194595 172.0
211.646591 140.0
211.880524 244.0
211.962311 180.0
211.991287 172.0
212.048172 52196.0
212.092728 284.0
212.471512 116.0
212.876053 160.0
213.050552 5920.0
214.044998 14228.0
214.376358 204.0
214.571106 208.0
214.612686 140.0
214.79007 112.0
214.821426 152.0
215.049591 1156.0
216.421829 192.0
217.5858 140.0
218.229218 252.0
224.557602 140.0
226.039352 148.0
229.324814 236.0
234.020279 176.0
235.02916 172.0
241.010574 172.0
245.069016 152.0
247.793457 144.0
253.585388 212.0
262.046356 312.0
264.040253 328.0
268.416595 192.0
275.027283 176.0
278.7099 260.0
281.678284 152.0
283.00885 124.0
284.001251 144.0
284.17807 176.0
285.714447 144.0
286.896484 160.0
292.887634 144.0
293.041351 172.0
293.38858 156.0
300.950287 176.0
301.402771 192.0
303.857574 148.0
317.634552 160.0
320.049805 152.0
320.133087 156.0
320.289795 144.0
321.166626 160.0
321.199677 108.0
321.651917 164.0
321.836578 164.0
321.907593 220.0
321.948242 192.0
322.067047 58700.0
322.181488 216.0
322.283752 160.0
322.347961 224.0
322.428101 112.0
322.502014 164.0
322.532013 152.0
322.636322 104.0
322.755066 108.0
323.069244 9452.0
323.285248 196.0
323.383514 104.0
323.920319 168.0
324.064423 17916.0
324.315704 128.0
325.064453 2288.0
325.16153 108.0
325.182648 244.0
325.279968 204.0
326.073303 112.0
356.933441 164.0
520.544373 168.0
567.683533 152.0
1047.812134 176.0
1460.321899 136.0
1485.610107 216.0
1523.483887 160.0
1529.782837 188.0
1596.698608 156.0
1601.784546 188.0
1604.8927 160.0
1633.37915 216.0
1643.417114 160.0
1654.254761 176.0
1660.193726 232.0
1764.949463 140.0
1773.211914 172.0
1788.68335 228.0
1816.925293 188.0
1820.609009 152.0
1833.702148 200.0
1838.401245 176.0
1841.867554 176.0
1856.777344 172.0
1857.832397 140.0
1875.0177 148.0
1882.353394 156.0
1904.185425 228.0
1955.208618 200.0
1955.877563 168.0
1964.521973 168.0
1970.251343 172.0
1976.61731 204.0
