>compound TIAGABINE HCl
>formula C20H25NO2S2
>ionization [M+H]+
>parentmass 376.1399474920906
#inchi InChI=1S/C20H25NO2S2/c1-14-7-11-24-18(14)17(19-15(2)8-12-25-19)6-4-10-21-9-3-5-16(13-21)20(22)23/h6-8,11-12,16H,3-5,9-10,13H2,1-2H3,(H,22,23)/t16-/m1/s1
#inchikey PBJUNZJWGZTSKL
#Ion_Source LC-ESI
#Instrument qTof
#Compound_Source Commercial
#PI Dorrestein
#Data_Collector Garg_Neha
#Scan -1
#Precursor_MZ 376.14
#ExactMass 375.133
#Charge 1
#CAS_Number N/A
#Pubmed_ID N/A
#Smiles Cc1ccsc1C(=CCCN2CCC[C@H](C2)C(=O)O)c3sccc3C
#INCHI_AUX N/A
#Library_Class 1
#SpectrumID CCMSLIB00000079027
#IonMode Positive
#UpdateWorkflowName UPDATE-SINGLE-ANNOTATED-GOLD
#LibraryQualityString Gold
#TaskID 278b19f5865741e282cec7349aa7e7a1
##Scan# 1220
#SpectrumFile NCP003352_G2_H11_BC7_01_15721.mzXML
#LibraryName NIHcollectionI_05062014.mgf
#MQScore -1
#Organism NIHcollectionI_05062014
#TIC_Query 0
#RT_Query -1
#MZErrorPPM -1
#SharedPeaks 0
#MassDiff 0
#LibMZ -1
#SpecMZ 376.14
#SpecCharge 0
#internalFilename spec-00000.mgf

>collision 10
44.924683 192.0
44.99675 152.0
45.645256 200.0
45.71117 144.0
45.778477 196.0
45.967201 144.0
46.021191 156.0
46.102242 204.0
46.257984 108.0
46.306526 184.0
46.379692 144.0
46.519409 216.0
46.745716 148.0
46.793369 136.0
46.833519 196.0
47.048859 144.0
47.16782 176.0
47.548958 164.0
47.749176 188.0
47.760181 340.0
47.819344 164.0
48.528008 148.0
48.611645 148.0
49.558033 140.0
50.083439 144.0
50.420647 160.0
50.475399 164.0
50.753311 152.0
50.829906 152.0
51.220879 148.0
51.5676 140.0
51.86245 144.0
51.96043 220.0
52.011623 168.0
52.097782 172.0
52.182575 148.0
52.24873 220.0
52.264557 152.0
52.424397 216.0
52.721001 136.0
52.789619 140.0
52.928535 156.0
53.025597 172.0
53.204014 164.0
53.502037 156.0
53.582138 176.0
53.818413 140.0
53.910442 188.0
53.944057 148.0
54.05814 144.0
54.257339 140.0
54.389362 148.0
54.580349 244.0
54.603878 148.0
54.650951 172.0
54.756943 176.0
55.04451 156.0
55.18784 236.0
55.486916 204.0
55.627361 196.0
55.721409 224.0
55.784462 112.0
56.220425 180.0
56.415894 236.0
56.898838 288.0
56.956852 184.0
56.986897 140.0
57.090618 236.0
57.140961 216.0
57.376705 176.0
57.754223 144.0
58.282974 180.0
58.322826 172.0
58.563229 160.0
58.761402 156.0
58.849926 188.0
59.027172 164.0
59.107273 120.0
59.137318 156.0
59.235317 144.0
59.341061 188.0
59.637333 160.0
59.671154 144.0
59.848091 144.0
59.972874 144.0
60.002163 148.0
60.190399 188.0
60.527489 156.0
60.795666 240.0
60.82671 148.0
60.856205 180.0
60.978924 140.0
61.164017 152.0
61.42424 140.0
61.666256 188.0
61.827343 152.0
61.838299 208.0
62.244331 184.0
62.340153 188.0
62.550907 148.0
62.651428 120.0
63.088829 260.0
63.206303 132.0
63.234352 208.0
63.522732 168.0
63.659225 180.0
63.787918 148.0
63.938805 148.0
64.010658 188.0
64.326332 144.0
64.34549 148.0
64.473274 176.0
64.503647 184.0
64.586792 144.0
65.01136 148.0
65.078781 168.0
65.147575 172.0
65.472748 188.0
65.4953 184.0
65.569412 152.0
65.661308 192.0
65.760857 200.0
66.223358 212.0
66.264252 196.0
66.762573 224.0
66.874832 172.0
67.162888 172.0
67.235016 180.0
67.602715 184.0
67.707489 156.0
68.030502 172.0
68.186539 156.0
68.217125 152.0
68.408592 200.0
68.431641 140.0
68.771683 232.0
68.816544 160.0
68.833961 140.0
68.979355 152.0
69.019936 176.0
69.058723 160.0
69.083534 180.0
69.212624 220.0
69.23912 204.0
69.610588 216.0
69.643806 216.0
69.805489 224.0
69.848251 140.0
69.934776 176.0
70.162262 176.0
70.197449 192.0
70.24971 168.0
70.294022 136.0
70.363747 96.0
70.470078 164.0
71.062775 164.0
71.133263 160.0
71.14669 192.0
71.445831 148.0
71.511459 228.0
71.57206 244.0
71.666382 172.0
71.807983 140.0
72.238213 164.0
72.355103 164.0
72.438454 140.0
72.518089 152.0
72.548607 180.0
72.760666 164.0
72.894844 164.0
72.964531 156.0
72.991737 144.0
73.015549 172.0
73.166985 140.0
73.19593 172.0
73.299835 172.0
73.350967 148.0
73.403816 144.0
73.499344 212.0
73.613708 176.0
73.958061 172.0
74.140602 140.0
74.437378 216.0
74.538727 164.0
75.072357 212.0
75.269081 160.0
75.85038 148.0
75.937592 216.0
76.089775 160.0
76.581894 144.0
76.623703 144.0
76.740471 168.0
76.88002 240.0
76.895729 296.0
77.009933 132.0
77.096382 188.0
77.37468 184.0
77.459801 180.0
77.503471 128.0
77.55336 148.0
77.646278 220.0
78.112534 176.0
78.150337 144.0
78.189148 176.0
78.414581 148.0
78.465698 172.0
78.492149 184.0
78.546822 148.0
78.575043 144.0
78.709183 212.0
78.723312 168.0
78.755104 144.0
78.875252 224.0
79.016724 172.0
79.082199 212.0
79.105209 176.0
79.154785 168.0
79.323097 160.0
79.357544 116.0
79.422394 148.0
79.522331 220.0
79.630058 192.0
79.649712 176.0
79.717102 164.0
79.914474 180.0
80.301033 168.0
80.377747 152.0
80.508057 240.0
80.638474 164.0
80.95871 156.0
81.205223 184.0
81.608284 164.0
81.910622 156.0
82.146767 184.0
82.199081 140.0
82.421188 152.0
82.625267 200.0
82.980469 192.0
83.054817 236.0
83.092911 180.0
83.193474 148.0
83.523445 212.0
83.548912 172.0
83.849358 160.0
84.079147 200.0
84.475639 152.0
84.62571 164.0
84.966599 188.0
85.287956 204.0
85.372536 228.0
85.555534 156.0
85.595192 152.0
85.942413 248.0
86.560944 152.0
86.675789 176.0
86.755478 164.0
86.825943 140.0
86.874168 168.0
87.157043 132.0
87.282257 192.0
87.312515 236.0
87.536072 152.0
87.674049 204.0
87.71096 176.0
87.880661 144.0
87.916115 152.0
87.949707 148.0
88.576111 148.0
88.746651 152.0
88.90609 164.0
89.550949 204.0
89.596153 192.0
89.845993 176.0
89.899727 148.0
89.971451 212.0
90.02243 184.0
90.052643 148.0
90.077202 144.0
90.245392 176.0
90.321037 168.0
90.642883 156.0
90.659012 172.0
90.908936 160.0
91.051392 344.0
91.187538 184.0
91.720474 204.0
92.071533 156.0
92.270256 148.0
92.448143 180.0
92.476845 164.0
92.653015 224.0
92.695168 160.0
93.034653 204.0
93.071472 252.0
93.144104 168.0
93.319763 296.0
93.684647 152.0
93.790634 140.0
93.987343 232.0
94.14949 264.0
94.248009 236.0
94.425858 212.0
94.545799 156.0
94.836311 180.0
94.942947 180.0
94.983673 160.0
95.387566 156.0
95.440056 172.0
95.46566 120.0
95.560646 156.0
95.627586 176.0
95.671577 160.0
96.041817 140.0
96.079285 460.0
96.129608 140.0
97.010376 2244.0
97.058296 204.0
97.177788 148.0
97.331505 208.0
97.449348 148.0
97.541718 172.0
97.651825 144.0
97.666214 172.0
97.702019 128.0
97.8312 124.0
98.021935 176.0
98.094856 168.0
98.195412 140.0
98.826149 204.0
98.878998 144.0
99.007683 156.0
99.02626 380.0
99.042358 404.0
99.154282 164.0
99.209785 140.0
99.253403 140.0
99.489502 140.0
99.86705 204.0
100.06604 160.0
100.079979 168.0
100.247299 140.0
100.56041 196.0
100.714149 188.0
100.874001 156.0
101.117615 156.0
101.658913 116.0
101.983765 160.0
102.06488 144.0
102.22879 184.0
102.338432 172.0
102.445267 148.0
102.597633 156.0
102.690193 176.0
102.753716 228.0
102.878838 180.0
103.055428 288.0
103.16523 156.0
103.204109 184.0
103.497498 172.0
103.892708 204.0
104.059891 276.0
104.193169 148.0
104.351692 164.0
104.644669 200.0
104.691505 160.0
104.832062 176.0
104.86467 144.0
105.069496 1128.0
105.528801 212.0
105.669228 152.0
106.056267 144.0
106.07457 116.0
106.207687 132.0
106.256332 128.0
106.462486 196.0
107.065453 140.0
107.088615 184.0
107.223671 196.0
107.306129 164.0
107.520653 140.0
107.590836 140.0
107.75605 192.0
107.950348 208.0
108.004181 132.0
108.082039 444.0
108.648354 168.0
108.965988 176.0
109.010895 140.0
109.059502 180.0
109.363174 156.0
109.541252 276.0
109.615166 156.0
110.015678 132.0
110.065643 208.0
110.095879 164.0
110.335251 172.0
110.707695 220.0
110.736053 156.0
110.860619 148.0
111.006241 180.0
111.027191 44232.0
111.27491 164.0
111.357826 196.0
111.460762 144.0
111.589516 152.0
111.696228 140.0
112.029739 2016.0
112.075562 124.0
112.137535 108.0
112.423103 148.0
112.638771 108.0
112.749763 100.0
112.799049 172.0
112.9879 132.0
113.021996 1796.0
113.162918 164.0
113.253983 208.0
113.46801 208.0
113.629189 308.0
113.832954 180.0
113.923286 132.0
114.090042 148.0
114.121933 152.0
114.143196 236.0
114.562477 236.0
114.601685 112.0
114.783264 196.0
114.895042 156.0
115.006004 156.0
115.033752 180.0
115.054947 10988.0
115.336838 160.0
115.482468 152.0
115.548782 140.0
115.726425 144.0
116.030052 156.0
116.060745 2940.0
116.08358 164.0
116.336601 144.0
116.423317 204.0
116.462418 156.0
116.67041 140.0
116.747528 144.0
116.932838 200.0
116.996338 152.0
117.068954 1800.0
117.142532 144.0
117.243507 188.0
117.426208 160.0
117.644142 216.0
117.853638 148.0
117.898659 148.0
118.076698 224.0
118.095757 144.0
118.132523 160.0
118.260193 148.0
118.452896 164.0
118.58857 164.0
118.619751 144.0
118.717316 160.0
120.07827 164.0
120.207436 180.0
120.425743 148.0
120.611465 152.0
120.89798 148.0
121.014435 240.0
121.04464 180.0
121.084747 220.0
121.476402 188.0
122.060577 176.0
122.097481 1336.0
122.342224 160.0
122.725578 152.0
122.853493 200.0
122.917473 312.0
122.94175 160.0
123.026955 14696.0
123.100716 396.0
123.723091 144.0
123.797264 140.0
124.030334 1124.0
124.06942 116.0
124.110504 444.0
124.264961 192.0
124.289368 204.0
124.564667 144.0
124.831947 168.0
124.903763 128.0
124.97757 220.0
125.042465 13568.0
125.092163 164.0
125.116165 300.0
125.228615 112.0
125.278061 144.0
125.92392 144.0
126.046822 1076.0
126.532379 124.0
126.549095 136.0
126.578506 96.0
126.746597 176.0
126.816689 252.0
126.92556 100.0
127.038727 640.0
127.473625 156.0
127.537971 144.0
128.066269 268.0
128.658356 140.0
128.793839 172.0
128.967819 232.0
128.983643 192.0
129.071793 364.0
129.105728 172.0
129.411041 108.0
129.748779 144.0
130.005096 192.0
130.03006 212.0
130.08667 2424.0
130.123123 228.0
130.236664 160.0
130.307083 192.0
131.021454 224.0
131.087219 208.0
131.119431 164.0
131.169571 180.0
131.249924 164.0
131.356567 176.0
131.637283 152.0
131.76976 140.0
131.95488 156.0
132.078629 104.0
132.20192 168.0
132.233963 148.0
132.394211 188.0
133.011627 152.0
133.258987 152.0
133.302643 164.0
133.657944 164.0
133.827072 144.0
133.867188 296.0
133.897354 116.0
134.018738 8696.0
134.096756 496.0
134.23262 172.0
134.343323 160.0
134.714981 192.0
134.978058 136.0
135.026138 4160.0
135.323212 196.0
135.55484 188.0
135.598877 192.0
135.62059 108.0
136.029282 1328.0
136.084244 136.0
136.632187 140.0
136.681046 164.0
136.747528 216.0
136.853287 148.0
136.960403 144.0
137.04245 4408.0
137.17012 164.0
137.510651 188.0
137.630615 164.0
137.667068 140.0
137.765167 168.0
137.928741 172.0
138.045029 468.0
138.070282 144.0
138.225754 232.0
138.330322 148.0
138.589264 164.0
138.695206 212.0
138.88118 136.0
139.006699 208.0
139.042252 368.0
139.131851 128.0
139.254913 228.0
140.073761 1064.0
140.10878 160.0
140.177109 140.0
140.306122 152.0
140.50824 164.0
140.743225 144.0
140.984344 588.0
141.070541 424.0
141.128357 200.0
141.191757 232.0
141.390182 164.0
141.480881 200.0
141.821976 148.0
141.986938 124.0
142.045059 196.0
142.086609 16428.0
142.146881 148.0
142.748688 176.0
142.892792 168.0
142.950073 144.0
143.09111 1300.0
143.179047 148.0
143.293243 156.0
143.397781 152.0
144.013351 148.0
144.087402 276.0
144.244766 136.0
144.632629 160.0
145.097351 172.0
145.365982 168.0
145.406784 148.0
145.502792 164.0
145.70694 184.0
145.774216 172.0
146.097763 176.0
146.186264 132.0
146.513748 176.0
146.534088 104.0
146.626114 196.0
147.026718 1488.0
147.103699 172.0
147.250977 192.0
147.27272 156.0
147.865906 104.0
148.035324 908.0
148.081421 276.0
148.153214 188.0
148.199249 148.0
148.284058 228.0
148.390717 148.0
148.655701 128.0
148.694794 112.0
148.805527 140.0
148.847763 108.0
148.937683 276.0
148.97049 164.0
149.042587 90664.0
149.098221 284.0
149.196228 108.0
149.219299 156.0
149.260696 144.0
149.290268 96.0
149.346146 140.0
149.416428 144.0
149.470413 140.0
149.906311 120.0
150.045776 8956.0
150.0896 768.0
150.17482 172.0
150.251236 100.0
150.572708 112.0
150.617401 156.0
150.71048 204.0
150.795776 148.0
150.948242 152.0
151.05806 11096.0
151.095764 308.0
151.21022 132.0
151.239777 120.0
151.318207 140.0
151.426712 104.0
151.459854 96.0
151.630035 112.0
151.651855 164.0
151.768829 292.0
152.060165 1280.0
152.175995 100.0
152.226852 180.0
152.305939 200.0
152.592575 144.0
152.831146 176.0
152.853302 156.0
153.055862 456.0
153.111771 184.0
153.311813 100.0
153.631851 208.0
153.681198 188.0
153.745239 160.0
153.819397 224.0
153.890991 148.0
154.050186 136.0
154.085342 944.0
154.143219 136.0
154.167648 152.0
154.313477 152.0
154.673553 152.0
154.852936 160.0
154.994141 152.0
155.067703 164.0
155.085922 524.0
155.125488 144.0
155.30899 156.0
155.820358 188.0
155.974609 164.0
156.101074 688.0
156.128586 140.0
156.198227 156.0
156.236069 216.0
156.442886 148.0
156.472198 128.0
156.637848 148.0
157.097473 180.0
157.231064 164.0
157.344543 184.0
157.48938 192.0
157.554321 156.0
157.716949 196.0
157.791031 136.0
157.983566 108.0
158.10199 132.0
158.4655 188.0
158.570236 152.0
158.928833 140.0
159.037521 184.0
159.117065 168.0
159.237595 152.0
159.531586 148.0
159.596954 168.0
160.530151 112.0
160.601761 176.0
160.836472 148.0
161.042786 592.0
161.131866 168.0
161.457947 192.0
161.50853 236.0
162.046234 240.0
162.084534 280.0
162.199783 152.0
162.311325 140.0
162.669464 176.0
162.809113 172.0
162.89505 176.0
163.058212 1148.0
163.085114 276.0
163.144089 144.0
163.283936 224.0
163.325638 152.0
163.411118 156.0
163.581635 152.0
163.724213 176.0
163.838837 180.0
163.884689 216.0
164.024017 244.0
164.054626 660.0
164.729141 164.0
165.069092 2156.0
165.152267 104.0
165.213913 120.0
165.247711 156.0
165.609039 212.0
165.849899 180.0
165.976852 192.0
166.044754 196.0
166.086197 13932.0
166.203629 140.0
166.691666 144.0
167.00116 304.0
167.047348 140.0
167.092346 1568.0
167.522476 96.0
167.57164 368.0
167.754623 256.0
167.891266 164.0
167.996536 128.0
168.018967 160.0
168.102325 16880.0
169.009048 212.0
169.104828 1696.0
169.320419 140.0
169.735046 204.0
170.024673 172.0
170.105026 468.0
170.298187 140.0
170.349808 160.0
170.560608 204.0
170.672394 160.0
170.784225 164.0
170.820648 148.0
170.958542 148.0
171.026932 1124.0
171.108551 176.0
171.135544 144.0
171.333481 164.0
171.414246 188.0
171.724472 140.0
171.924805 132.0
172.03331 1052.0
172.181198 144.0
172.641159 148.0
173.040359 1140.0
173.287201 192.0
174.046799 792.0
174.19902 136.0
174.518631 160.0
174.850082 160.0
175.041306 328.0
175.058197 544.0
175.361023 164.0
175.455917 144.0
175.634109 188.0
176.053162 564.0
176.448578 152.0
176.515762 184.0
176.943512 148.0
177.069656 228.0
177.337997 152.0
178.074081 496.0
178.689636 172.0
178.728882 128.0
178.7668 140.0
178.886566 156.0
178.997208 136.0
179.085587 2372.0
179.224792 160.0
179.640701 192.0
180.000366 152.0
180.023621 152.0
180.09639 2968.0
180.760147 144.0
180.920746 188.0
180.985001 204.0
181.100632 3800.0
181.242126 420.0
181.298401 204.0
181.402939 184.0
181.538116 148.0
182.048004 112.0
182.106766 636.0
182.211868 144.0
182.269806 160.0
182.309738 144.0
182.541306 172.0
183.110657 264.0
183.855911 216.0
183.88829 168.0
184.001663 152.0
184.033936 1876.0
184.103195 120.0
184.130447 184.0
184.199799 108.0
184.552826 160.0
184.593384 168.0
184.671814 140.0
185.04277 5952.0
185.764984 172.0
186.047592 1604.0
186.106232 124.0
186.360672 156.0
187.056915 3560.0
187.451782 140.0
188.06572 1328.0
188.246292 172.0
188.391388 136.0
188.619888 208.0
188.837463 104.0
189.074814 884.0
189.108871 180.0
189.169708 176.0
189.850266 124.0
189.873871 188.0
189.993546 156.0
190.062332 372.0
190.384323 148.0
190.711258 148.0
190.845963 156.0
190.878952 160.0
191.000824 316.0
191.049042 200.0
191.068146 252.0
191.254776 232.0
191.304077 108.0
191.584885 164.0
191.699265 188.0
192.00209 144.0
192.086411 380.0
192.118347 140.0
192.450974 156.0
192.559998 144.0
192.855621 200.0
193.016479 420.0
193.06485 176.0
193.184677 184.0
193.215103 156.0
193.824219 140.0
193.9953 160.0
194.019531 188.0
194.115585 144.0
194.234528 184.0
194.523117 152.0
194.689697 180.0
195.050888 152.0
195.103699 160.0
195.443008 148.0
195.507019 196.0
195.610001 212.0
195.960892 140.0
196.068817 148.0
196.335312 160.0
196.487823 140.0
196.817169 144.0
196.836716 232.0
197.043335 1124.0
197.068863 176.0
197.099274 304.0
197.28508 116.0
197.476669 152.0
197.568985 156.0
197.596954 168.0
198.015625 156.0
198.050385 10416.0
198.103668 152.0
198.127151 132.0
198.160431 188.0
198.198929 204.0
198.297012 148.0
199.057388 10724.0
199.144958 124.0
199.492477 164.0
200.060913 1772.0
200.116638 156.0
200.141953 148.0
200.29483 188.0
200.449661 180.0
200.931808 240.0
201.073547 3052.0
201.386658 124.0
201.439957 220.0
201.459732 156.0
201.875214 160.0
202.0336 172.0
202.075394 1164.0
202.549866 120.0
202.599792 160.0
202.70462 156.0
202.752792 196.0
202.893234 204.0
202.965393 180.0
202.998459 176.0
203.089584 160.0
203.237701 192.0
204.007965 1608.0
204.081268 452.0
204.102371 152.0
204.146667 168.0
204.473831 224.0
204.916885 192.0
205.012741 1300.0
205.066757 300.0
205.334213 152.0
206.023285 436.0
206.096252 120.0
206.153046 204.0
206.931564 248.0
207.030197 1252.0
207.710831 104.0
207.851624 188.0
208.027206 156.0
208.187485 156.0
208.415451 176.0
208.731079 140.0
209.020935 272.0
209.16214 144.0
209.303207 244.0
209.503555 184.0
209.565308 280.0
210.026047 152.0
210.049637 148.0
210.124634 160.0
210.256775 176.0
210.771378 192.0
211.065109 220.0
211.458298 120.0
211.541275 204.0
211.728882 160.0
211.762299 128.0
212.038879 208.0
212.063766 424.0
212.138153 144.0
212.256302 148.0
212.491226 172.0
212.517349 164.0
212.595688 180.0
212.652145 160.0
212.683212 128.0
212.895325 244.0
213.011505 128.0
213.073608 19792.0
213.478271 248.0
213.829407 116.0
214.011292 192.0
214.080948 20668.0
214.231506 152.0
214.385605 128.0
214.634827 216.0
214.667709 116.0
214.77597 152.0
214.855545 164.0
215.083206 2712.0
215.258514 168.0
215.370255 160.0
215.607605 152.0
215.747864 124.0
215.783966 196.0
216.076385 688.0
216.245163 168.0
216.507965 200.0
216.598007 124.0
216.718704 216.0
216.810593 160.0
217.014297 2640.0
217.090714 300.0
217.59288 164.0
217.662323 128.0
218.021088 1448.0
218.097656 132.0
218.498062 152.0
218.595169 192.0
218.762924 168.0
219.030243 4572.0
219.140717 144.0
219.390396 172.0
220.032196 716.0
220.097565 168.0
220.414536 228.0
220.631516 112.0
220.874969 116.0
221.044983 1748.0
221.606949 140.0
221.814392 152.0
222.026459 160.0
222.048309 408.0
222.139145 108.0
222.484802 168.0
223.044525 236.0
223.578629 148.0
223.987808 192.0
224.046097 172.0
224.743744 164.0
224.776566 168.0
226.196182 216.0
226.294968 188.0
227.102951 128.0
227.389099 148.0
228.488876 192.0
228.749115 152.0
229.603378 212.0
230.022659 416.0
230.096436 148.0
230.118149 160.0
230.152573 184.0
230.203918 204.0
230.545273 140.0
230.747787 156.0
230.805237 196.0
230.838501 148.0
231.030197 1368.0
231.111267 200.0
231.458817 184.0
231.69989 124.0
231.876862 200.0
232.037735 8380.0
232.11557 1072.0
232.206299 124.0
232.503647 172.0
232.579285 100.0
233.041763 1428.0
233.117905 392.0
233.23053 192.0
233.35231 120.0
234.034241 1000.0
234.130432 424.0
235.032791 160.0
235.673279 156.0
235.754044 176.0
235.871826 112.0
236.070938 204.0
236.147446 192.0
236.199646 140.0
237.081711 128.0
237.428604 156.0
237.471542 172.0
237.588974 128.0
237.756866 172.0
238.092712 508.0
238.78299 164.0
239.438522 216.0
239.514801 156.0
240.087982 156.0
240.239914 168.0
240.468246 160.0
240.690521 156.0
241.024109 236.0
241.52803 148.0
241.630112 160.0
241.657959 164.0
242.305023 184.0
242.394882 152.0
243.010483 156.0
243.036728 180.0
243.548965 164.0
243.664688 188.0
243.82547 184.0
244.139694 376.0
244.665802 124.0
244.72757 212.0
244.969055 108.0
245.044052 1812.0
245.140167 104.0
245.213409 148.0
245.600143 188.0
245.920563 156.0
246.049927 364.0
246.156219 264.0
246.319733 96.0
246.366226 124.0
246.374283 144.0
246.439423 132.0
246.565735 212.0
246.672836 104.0
246.725952 152.0
246.792831 152.0
246.839584 160.0
246.874146 324.0
246.916275 244.0
246.94072 208.0
246.974655 200.0
247.000793 296.0
247.06221 169816.0
247.174255 192.0
247.300339 180.0
247.329971 224.0
247.370285 148.0
247.392502 168.0
247.471329 140.0
247.509476 128.0
247.576904 628.0
247.852448 160.0
247.88884 144.0
247.927307 140.0
247.959137 132.0
247.982513 184.0
248.022934 200.0
248.06427 23056.0
248.185837 148.0
248.274323 164.0
248.303314 100.0
248.436096 124.0
248.549728 120.0
248.658112 184.0
248.719864 96.0
248.755127 116.0
248.835876 184.0
248.91658 208.0
248.994675 112.0
249.058014 14048.0
249.284912 120.0
249.304611 156.0
249.350021 124.0
249.46225 136.0
249.509338 172.0
249.710754 116.0
249.7892 248.0
249.854034 124.0
250.011551 140.0
250.061981 1720.0
250.294769 164.0
250.545319 124.0
251.063965 124.0
251.10466 148.0
251.704254 148.0
251.936981 96.0
251.994843 152.0
252.10022 184.0
252.233704 116.0
252.984711 140.0
253.041702 436.0
253.340332 120.0
253.47879 156.0
253.539856 224.0
253.5802 152.0
253.887726 156.0
254.7034 140.0
254.872971 96.0
255.195969 212.0
255.488358 124.0
255.759048 184.0
256.214417 168.0
256.281311 148.0
257.451996 204.0
258.023926 184.0
258.174225 208.0
258.23819 184.0
259.43576 156.0
259.522308 140.0
260.116638 592.0
260.21933 128.0
260.282745 176.0
260.417633 140.0
260.906067 180.0
261.044312 156.0
261.102203 160.0
261.731232 200.0
261.829529 152.0
262.022797 140.0
262.111664 180.0
262.2258 204.0
263.025696 156.0
263.096069 1668.0
263.332428 144.0
263.775085 160.0
263.991699 204.0
264.103485 664.0
264.250488 152.0
264.443268 160.0
264.868774 160.0
265.028351 96.0
265.094391 220.0
265.183075 144.0
265.936218 152.0
265.971252 192.0
266.075134 176.0
266.101105 148.0
266.165894 96.0
268.041473 112.0
268.466644 152.0
268.685181 164.0
270.750977 144.0
271.098236 144.0
271.157227 164.0
271.337494 156.0
271.465393 168.0
271.524414 164.0
271.91153 152.0
272.956207 184.0
273.149811 124.0
273.390411 188.0
274.223633 172.0
275.556763 208.0
275.807922 172.0
276.0625 156.0
276.112091 144.0
276.327087 288.0
277.111755 260.0
277.217804 152.0
277.915802 132.0
278.010345 144.0
278.046295 144.0
278.121765 47080.0
278.349792 116.0
278.65921 108.0
278.83844 104.0
279.045898 192.0
279.123291 7636.0
279.175476 184.0
279.62326 184.0
279.649506 228.0
279.673218 152.0
280.117889 1532.0
280.297089 96.0
280.667297 168.0
280.889832 120.0
280.951996 176.0
280.98996 236.0
281.121033 496.0
281.178558 164.0
281.28537 244.0
281.501465 160.0
281.732849 208.0
281.786285 192.0
281.935028 156.0
282.352173 96.0
283.335297 140.0
283.382202 180.0
284.271881 144.0
285.019562 160.0
286.405609 144.0
286.718933 196.0
287.086395 168.0
287.659973 160.0
288.028046 164.0
288.105713 148.0
288.327057 136.0
289.655029 152.0
289.878632 152.0
290.10498 108.0
290.550629 156.0
290.691315 184.0
291.538055 164.0
291.755585 172.0
292.030243 108.0
292.206329 148.0
292.373383 188.0
293.594238 140.0
295.893005 200.0
295.986267 148.0
296.119843 144.0
296.3078 140.0
296.448212 140.0
297.23053 148.0
297.566895 184.0
297.900024 140.0
298.63559 156.0
298.907379 160.0
299.316986 160.0
300.078461 144.0
300.209473 164.0
300.440582 160.0
301.158569 152.0
301.394257 196.0
301.497131 140.0
301.704529 224.0
302.292511 152.0
302.97113 196.0
303.210236 176.0
303.482819 100.0
304.490387 188.0
305.773285 160.0
306.201508 168.0
306.275116 128.0
306.593994 176.0
306.856598 140.0
306.940277 188.0
307.153015 184.0
308.161926 148.0
308.396057 160.0
308.532379 180.0
308.745667 156.0
310.142151 124.0
310.682617 188.0
310.710693 204.0
311.49704 172.0
311.59314 156.0
311.671509 280.0
311.908142 200.0
311.93277 144.0
312.432098 148.0
312.86496 192.0
313.195465 140.0
313.242188 104.0
313.632904 140.0
314.218262 144.0
314.846558 152.0
314.871277 168.0
315.896301 168.0
317.231323 156.0
317.596558 152.0
318.034363 124.0
318.098969 352.0
318.847473 132.0
319.116791 184.0
319.742523 172.0
319.824371 148.0
320.422607 160.0
320.636414 212.0
320.975067 160.0
321.107025 140.0
321.524445 184.0
321.581543 196.0
321.681488 176.0
322.300323 112.0
322.824799 180.0
323.146698 208.0
323.432983 192.0
324.751556 172.0
325.243103 152.0
325.815033 164.0
326.159027 220.0
326.78476 176.0
327.069061 168.0
327.605988 188.0
327.677643 168.0
328.896515 168.0
329.022858 204.0
330.070648 140.0
330.135834 300.0
330.486603 156.0
331.141815 160.0
331.167175 140.0
332.14917 432.0
332.475983 144.0
332.944275 148.0
333.147339 132.0
333.482513 192.0
334.016479 148.0
334.041931 156.0
334.172913 240.0
334.875458 204.0
336.395966 152.0
337.362549 172.0
337.53949 144.0
337.839417 180.0
338.340759 144.0
338.450623 168.0
338.662201 128.0
338.810211 128.0
338.846161 140.0
339.055023 144.0
339.080688 240.0
339.359283 148.0
340.250793 196.0
341.125641 120.0
341.820251 144.0
342.151489 184.0
342.825531 188.0
344.027924 164.0
344.182983 324.0
344.361908 116.0
344.50061 164.0
345.758728 184.0
346.132721 136.0
346.31311 156.0
346.36438 104.0
346.772522 180.0
347.417725 208.0
347.60907 140.0
348.048676 164.0
348.312347 164.0
348.847443 168.0
349.139587 172.0
349.286224 192.0
350.011932 164.0
350.466339 188.0
350.995636 176.0
351.047852 152.0
351.506653 140.0
351.685791 140.0
351.947113 160.0
352.148773 156.0
352.29715 132.0
353.752869 140.0
353.977509 156.0
354.242004 136.0
354.474457 168.0
357.408295 160.0
357.788452 148.0
357.905151 152.0
358.078369 160.0
358.127136 1716.0
358.628448 196.0
358.843323 168.0
359.127167 300.0
359.601532 196.0
359.629456 120.0
360.122192 196.0
360.167908 192.0
360.243439 156.0
361.006927 160.0
361.116577 160.0
361.983215 224.0
362.146057 184.0
362.957062 200.0
363.799316 140.0
364.482941 192.0
365.642792 168.0
366.383209 96.0
367.532867 176.0
368.968933 268.0
369.278687 144.0
369.381958 156.0
369.573242 164.0
369.628113 212.0
369.768402 160.0
370.215973 132.0
370.465271 228.0
370.51123 172.0
370.928925 156.0
371.431244 148.0
371.505707 168.0
371.668579 128.0
372.507385 116.0
372.709656 156.0
372.811829 128.0
372.865021 160.0
373.263184 192.0
373.296051 212.0
373.358795 124.0
373.420685 204.0
373.479279 184.0
373.548676 188.0
373.588043 128.0
373.695831 164.0
373.773071 160.0
373.826355 112.0
374.03299 256.0
374.116974 192.0
374.157715 472.0
374.220154 188.0
374.530365 104.0
374.595245 168.0
374.638214 152.0
374.698883 240.0
374.750824 120.0
374.796326 120.0
374.827759 180.0
374.888 200.0
375.005768 196.0
375.077118 216.0
375.104919 368.0
375.160461 468.0
375.221558 168.0
375.291321 536.0
375.323578 192.0
375.367157 268.0
375.418457 176.0
375.48291 188.0
375.515717 348.0
375.601868 304.0
375.667542 200.0
375.727081 564.0
375.763062 440.0
375.826599 248.0
375.878662 184.0
375.918457 320.0
375.954437 196.0
375.980438 796.0
376.012177 332.0
376.087128 980.0
376.143402 234112.0
376.284698 240.0
376.414398 296.0
376.505402 1444.0
376.564178 860.0
376.617462 800.0
376.730469 1176.0
376.781128 13264.0
376.823151 656.0
376.881714 288.0
376.949249 256.0
376.996613 392.0
377.036407 236.0
377.065887 456.0
377.14505 143820.0
377.381409 220.0
377.426025 320.0
377.477722 304.0
377.562134 240.0
377.68634 284.0
377.721832 336.0
377.779114 1360.0
377.815033 192.0
377.906891 136.0
377.999512 148.0
378.046082 284.0
378.083801 284.0
378.139343 82396.0
378.242584 176.0
378.328461 108.0
378.389648 188.0
378.46347 128.0
378.555145 152.0
378.595703 236.0
378.647736 316.0
378.702454 236.0
378.780579 328.0
378.82782 296.0
378.91156 248.0
378.979156 116.0
379.04892 304.0
379.139984 9048.0
379.198608 288.0
379.255524 148.0
379.317535 240.0
379.386688 364.0
379.447937 400.0
379.536224 180.0
379.567657 292.0
379.621674 368.0
379.685638 272.0
379.797363 144.0
379.832397 104.0
379.862976 116.0
379.933258 152.0
380.014771 272.0
380.144135 204.0
380.219208 132.0
380.257416 208.0
380.308685 152.0
380.387939 228.0
380.450195 100.0
380.517426 292.0
380.583679 160.0
380.62674 132.0
380.695099 208.0
380.725861 196.0
380.827454 180.0
381.107025 112.0
381.163635 124.0
381.49527 196.0
381.521881 140.0
381.903961 112.0
382.551758 104.0
382.916504 116.0
382.987488 108.0
383.821411 116.0
390.367767 116.0
390.503693 176.0
391.470184 104.0
392.29248 108.0
392.869629 116.0
394.565216 144.0
395.603088 124.0
400.959869 140.0
401.07312 96.0
410.239014 144.0
425.072449 144.0
458.383057 116.0
464.875732 148.0
502.298706 148.0
510.139618 152.0
514.957886 136.0
524.127258 108.0
527.844788 160.0
560.550537 152.0
816.924622 160.0
919.719238 144.0
932.954956 232.0
1004.831238 160.0
1085.39209 140.0
1085.674072 156.0
1103.888916 168.0
1189.041748 148.0
1201.999878 184.0
1241.169434 168.0
1265.612549 144.0
1282.520264 176.0
1339.526978 160.0
1348.282471 148.0
1355.102295 152.0
1358.584595 176.0
1358.782715 176.0
1381.014526 172.0
1391.158569 144.0
1402.949585 144.0
1409.345581 164.0
1419.608032 184.0
1447.928955 252.0
1459.493652 164.0
1464.196533 180.0
1465.194336 188.0
1473.410767 204.0
1473.89978 216.0
1487.086914 172.0
1493.002563 172.0
1493.694824 172.0
1494.510254 168.0
1497.266113 152.0
1497.967041 160.0
1501.728516 188.0
1503.989136 156.0
1509.760498 164.0
1520.265137 148.0
1520.591064 176.0
1522.912598 212.0
1529.007935 176.0
1537.487061 184.0
1538.907715 208.0
1549.63855 156.0
1552.915161 164.0
1555.849854 188.0
1561.916382 168.0
1568.885376 152.0
1578.976562 200.0
1582.109863 216.0
1583.725342 200.0
1586.118164 156.0
1590.115723 144.0
1590.377563 180.0
1593.109131 160.0
1593.450806 148.0
1595.676147 156.0
1597.083618 212.0
1597.552979 156.0
1599.940308 200.0
1602.4729 144.0
1620.553589 168.0
1622.180542 196.0
1624.30542 208.0
1627.242676 200.0
1629.740479 144.0
1633.438599 224.0
1638.357056 168.0
1641.564941 192.0
1644.017334 172.0
1646.770264 160.0
1648.992188 140.0
1650.487671 148.0
1654.50061 140.0
1656.776245 152.0
1659.548096 236.0
1659.710205 160.0
1660.399536 140.0
1661.883911 216.0
1662.898315 192.0
1674.834106 200.0
1676.10498 228.0
1687.147705 160.0
1687.630127 140.0
1693.604004 216.0
1698.448242 152.0
1702.749023 140.0
1710.379028 188.0
1720.815552 140.0
1721.963379 148.0
1722.359741 156.0
1731.341797 208.0
1732.352295 192.0
1732.493042 168.0
1732.915649 144.0
1735.269409 148.0
1748.693237 236.0
1749.575562 156.0
1751.282593 168.0
1756.158569 152.0
1759.371094 220.0
1761.550659 148.0
1761.617554 140.0
1762.484985 120.0
1765.353516 156.0
1772.183838 200.0
1774.010864 156.0
1775.151123 172.0
1775.679443 244.0
1775.897461 168.0
1776.400757 160.0
1777.94458 176.0
1778.204712 148.0
1781.748291 176.0
1782.042358 208.0
1783.815552 164.0
1785.068237 188.0
1787.129028 172.0
1791.330078 152.0
1792.753906 140.0
1793.554565 220.0
1794.869751 180.0
1803.032715 144.0
1804.479248 160.0
1805.078491 256.0
1806.837769 184.0
1809.283569 152.0
1809.622192 220.0
1811.121094 232.0
1811.282104 152.0
1812.417358 148.0
1813.502075 156.0
1816.25769 192.0
1816.342529 176.0
1816.85144 208.0
1821.392944 148.0
1823.916626 156.0
1824.06958 220.0
1836.535278 192.0
1841.024536 176.0
1842.613281 252.0
1843.783813 156.0
1845.578979 196.0
1847.734253 172.0
1848.726807 208.0
1850.567139 180.0
1851.449219 180.0
1852.645142 124.0
1853.556519 160.0
1854.164917 156.0
1854.344849 152.0
1854.593506 140.0
1856.771118 140.0
1857.019897 156.0
1857.628906 144.0
1863.019897 200.0
1863.672852 196.0
1865.168213 176.0
1865.408813 192.0
1866.363159 156.0
1868.367065 172.0
1868.96936 184.0
1870.578735 160.0
1870.682007 180.0
1876.100464 212.0
1876.229858 148.0
1877.1073 172.0
1882.208984 140.0
1883.262573 140.0
1883.677124 180.0
1883.815308 144.0
1885.059448 176.0
1891.095947 144.0
1895.174683 220.0
1896.552612 168.0
1896.907959 184.0
1898.529297 292.0
1900.619873 176.0
1901.036377 140.0
1904.370117 188.0
1909.593628 144.0
1911.542358 176.0
1916.174438 144.0
1916.579834 156.0
1916.854126 168.0
1917.769165 160.0
1919.059326 164.0
1919.120361 208.0
1922.845215 160.0
1923.39502 148.0
1924.695801 160.0
1925.21106 144.0
1928.618408 160.0
1930.419312 156.0
1931.16272 172.0
1931.79248 192.0
1934.04126 156.0
1935.83606 164.0
1936.17395 260.0
1938.415405 188.0
1943.339233 176.0
1944.348267 284.0
1945.48938 140.0
1946.507812 144.0
1949.037598 164.0
1949.222168 140.0
1949.380249 148.0
1954.22522 160.0
1954.981934 140.0
1956.865601 140.0
1957.95752 188.0
1960.203857 164.0
1962.707275 240.0
1965.379883 216.0
1966.412354 180.0
1966.906616 156.0
1967.189087 200.0
1967.524536 160.0
1969.537842 188.0
1975.893799 144.0
1976.415771 184.0
1980.798096 160.0
1981.258667 144.0
1981.574585 236.0
1982.153564 248.0
1988.139282 188.0
1988.432129 176.0
1989.90564 176.0
1989.976685 156.0
1993.280884 200.0
1994.046997 232.0
1996.730103 216.0
1999.043091 152.0
1999.114258 140.0
2002.675415 196.0
