>compound MLS000028626-01!
>formula C18H15Cl3N2O
>ionization [M+H]+
>parentmass 381.03125
#inchi InChI=1S/C18H15Cl3N2O/c19-14-3-1-13(2-4-14)11-24-18(10-23-8-7-22-12-23)16-6-5-15(20)9-17(16)21/h1-9,12,18H,10-11H2
#inchikey LEZWWPYKPKIXLL
#origInchi InChI=1S/C18H15Cl3N2O.HNO3/c19-14-3-1-13(2-4-14)11-24-18(10-23-8-7-22-12-23)16-6-5-15(20)9-17(16)21;2-1(3)4/h1-9,12,18H,10-11H2;(H,2,3,4)
#Ion_Source LC-ESI
#Instrument qTof
#Compound_Source NIH Pharmacologically Active Library
#PI Dorrestein
#Data_Collector VP/LMS
#Scan -1
#Precursor_MZ 381.034
#ExactMass 380.025
#Charge 1
#CAS_Number N/A
#Pubmed_ID N/A
#Smiles Clc1ccc(COC(Cn2ccnc2)c3ccc(Cl)cc3Cl)cc1.O[N+](=O)[O-]
#INCHI_AUX N/A
#Library_Class 1
#SpectrumID CCMSLIB00000084986
#IonMode Positive
#UpdateWorkflowName UPDATE-SINGLE-ANNOTATED-GOLD
#LibraryQualityString Gold
#TaskID d252d724072548979f1f6f1ced849daf
##Scan# 2036
#SpectrumFile p3-D06_GD6_01_18263.mzXML
#LibraryName Pharm_Active_Library.mgf
#MQScore -1
#Organism Pharm_Active_Library
#TIC_Query 0
#RT_Query -1
#MZErrorPPM -1
#SharedPeaks 0
#MassDiff 0
#LibMZ -1
#SpecMZ 381.034
#SpecCharge 0
#internalFilename spec-00000.mgf

>collision 10
44.911091 120.0
44.940212 164.0
44.955624 148.0
44.968464 48.0
44.990559 156.0
45.008518 128.0
45.02599 188.0
45.032299 160.0
45.03442 220.0
45.061813 152.0
45.072529 148.0
45.098755 140.0
45.111397 184.0
45.12038 172.0
45.148838 232.0
45.159534 88.0
45.174252 128.0
45.18763 84.0
45.205891 272.0
45.222687 224.0
45.237148 136.0
45.256302 184.0
45.277351 160.0
45.288979 172.0
45.306431 180.0
45.325573 200.0
45.356373 108.0
45.379166 184.0
45.405682 372.0
45.416912 164.0
45.432812 204.0
45.467701 136.0
45.486828 176.0
45.509319 104.0
45.533211 116.0
45.581692 168.0
45.632935 64.0
45.644417 160.0
45.657303 132.0
45.679558 168.0
45.700954 196.0
45.720371 152.0
45.729794 148.0
45.756718 200.0
45.770702 188.0
45.793579 204.0
45.803852 120.0
45.827709 164.0
45.861229 200.0
45.884197 188.0
45.894047 156.0
45.930565 184.0
45.960796 108.0
45.97644 132.0
45.987289 112.0
46.008839 96.0
46.036423 196.0
46.050327 144.0
46.09853 140.0
46.111504 64.0
46.135834 80.0
46.157757 216.0
46.172001 236.0
46.190186 84.0
46.199398 208.0
46.216988 128.0
46.227386 216.0
46.247231 116.0
46.266487 308.0
46.290085 172.0
46.299564 208.0
46.316402 164.0
46.332077 112.0
46.351597 364.0
46.398487 144.0
46.409851 188.0
46.426964 200.0
46.436943 256.0
46.44957 168.0
46.462673 172.0
46.476105 196.0
46.486656 108.0
46.50338 148.0
46.525154 88.0
46.559967 128.0
46.576267 128.0
46.59449 364.0
46.622463 132.0
46.638771 156.0
46.651009 220.0
46.666695 168.0
46.692383 280.0
46.720367 164.0
46.754383 112.0
46.773758 132.0
46.802982 172.0
46.819511 316.0
46.83889 172.0
46.860603 352.0
46.889927 216.0
46.912392 260.0
46.950573 132.0
46.965176 136.0
46.981159 132.0
47.004547 172.0
47.028 128.0
47.036987 144.0
47.051125 244.0
47.067936 288.0
47.081097 188.0
47.120773 164.0
47.167671 172.0
47.179977 124.0
47.19865 292.0
47.23468 140.0
47.266178 172.0
47.312683 132.0
47.330631 148.0
47.342808 236.0
47.356049 300.0
47.369675 208.0
47.38044 136.0
47.401718 132.0
47.423645 148.0
47.437355 256.0
47.448322 116.0
47.462856 160.0
47.467766 132.0
47.472019 184.0
47.490429 156.0
47.51609 152.0
47.551739 160.0
47.56493 128.0
47.574543 136.0
47.6031 20.0
47.606186 160.0
47.643208 136.0
47.654202 96.0
47.672176 148.0
47.690422 112.0
47.709179 172.0
47.720177 140.0
47.74218 180.0
47.78421 108.0
47.787971 124.0
47.820049 184.0
47.835033 124.0
47.846756 188.0
47.872921 332.0
47.888988 96.0
47.915504 228.0
47.934914 112.0
47.955585 164.0
47.989109 228.0
48.012688 152.0
48.031822 292.0
48.043873 384.0
48.088062 200.0
48.103184 96.0
48.116421 200.0
48.126114 124.0
48.141636 132.0
48.150467 148.0
48.165627 128.0
48.21339 132.0
48.233353 208.0
48.249905 224.0
48.266327 152.0
48.292496 240.0
48.302177 248.0
48.312634 136.0
48.324104 80.0
48.32782 172.0
48.35614 132.0
48.368515 324.0
48.379238 76.0
48.397675 168.0
48.415367 180.0
48.452366 156.0
48.474533 256.0
48.490368 132.0
48.513607 184.0
48.52515 44.0
48.547752 192.0
48.567196 188.0
48.582664 180.0
48.606987 144.0
48.616703 180.0
48.644932 192.0
48.68364 392.0
48.697231 140.0
48.723427 56.0
48.744465 60.0
48.769482 116.0
48.80201 232.0
48.833138 164.0
48.85078 164.0
48.860203 136.0
48.916935 172.0
48.94574 188.0
48.98378 148.0
49.032192 212.0
49.047348 200.0
49.060452 144.0
49.070187 272.0
49.08036 148.0
49.089706 192.0
49.125175 140.0
49.134373 200.0
49.176914 180.0
49.192959 28.0
49.236832 188.0
49.295586 336.0
49.319115 384.0
49.344963 176.0
49.357826 124.0
49.374611 140.0
49.386986 160.0
49.399788 88.0
49.417976 376.0
49.445965 144.0
49.462269 176.0
49.479561 268.0
49.490761 140.0
49.505291 256.0
49.517368 272.0
49.527294 220.0
49.557865 156.0
49.605804 252.0
49.630093 88.0
49.658932 44.0
49.67857 104.0
49.689121 316.0
49.706635 252.0
49.716457 156.0
49.728973 192.0
49.751549 92.0
49.762779 164.0
49.778229 216.0
49.837227 148.0
49.862522 164.0
49.887821 140.0
49.911724 172.0
49.927193 72.0
49.937588 144.0
49.949314 204.0
49.965176 176.0
50.000355 172.0
50.019047 320.0
50.038563 140.0
50.052441 180.0
50.074974 152.0
50.087654 128.0
50.106396 132.0
50.121468 180.0
50.144703 304.0
50.165791 120.0
50.188725 196.0
50.191544 140.0
50.266712 168.0
50.289295 176.0
50.322586 364.0
50.35191 184.0
50.377617 336.0
50.422924 288.0
50.44875 200.0
50.481441 132.0
50.496998 124.0
50.507492 392.0
50.552174 108.0
50.566326 96.0
50.5839 212.0
50.596054 184.0
50.634289 156.0
50.669617 204.0
50.685997 112.0
50.69865 316.0
50.724842 176.0
50.739334 216.0
50.756165 220.0
50.767258 180.0
50.784618 128.0
50.801552 296.0
50.813915 224.0
50.824253 196.0
50.839344 180.0
50.877281 144.0
50.887306 192.0
50.902328 224.0
50.916939 180.0
50.93491 268.0
50.948769 132.0
50.966885 368.0
50.971298 116.0
50.99041 160.0
51.014378 144.0
51.026573 168.0
51.043011 52.0
51.058655 148.0
51.083118 120.0
51.108444 412.0
51.125523 148.0
51.15638 112.0
51.190788 172.0
51.218071 132.0
51.23204 144.0
51.246624 192.0
51.266663 188.0
51.285042 152.0
51.295021 152.0
51.312126 48.0
51.330631 164.0
51.354656 180.0
51.376308 148.0
51.392002 168.0
51.408237 148.0
51.426254 176.0
51.458374 176.0
51.493362 268.0
51.523357 100.0
51.56234 200.0
51.577488 220.0
51.59911 72.0
51.611977 132.0
51.627167 148.0
51.666424 184.0
51.691807 380.0
51.72604 232.0
51.744267 228.0
51.758801 68.0
51.772255 144.0
51.813793 324.0
51.823822 176.0
51.843716 300.0
51.85762 84.0
51.87389 168.0
51.900501 164.0
51.929573 256.0
51.947124 180.0
51.970078 140.0
52.013157 268.0
52.047592 88.0
52.073441 172.0
52.102104 168.0
52.134956 216.0
52.1745 160.0
52.198475 120.0
52.220306 112.0
52.232769 128.0
52.257832 212.0
52.280476 192.0
52.294868 168.0
52.313583 168.0
52.332298 180.0
52.37849 264.0
52.405758 204.0
52.420521 164.0
52.439152 156.0
52.451878 168.0
52.492249 264.0
52.50811 52.0
52.523975 132.0
52.545616 132.0
52.555717 152.0
52.570946 224.0
52.618893 156.0
52.648453 200.0
52.663288 344.0
52.67844 112.0
52.689999 112.0
52.701557 180.0
52.723232 204.0
52.791969 164.0
52.802082 116.0
52.817215 140.0
52.839092 164.0
52.873646 96.0
52.889019 184.0
52.912727 156.0
52.925232 176.0
52.948933 148.0
52.992348 132.0
53.018303 168.0
53.023735 108.0
53.036667 116.0
53.076225 124.0
53.127224 84.0
53.142643 120.0
53.164951 144.0
53.180019 220.0
53.210213 156.0
53.230282 184.0
53.265137 72.0
53.293945 144.0
53.320354 128.0
53.364429 188.0
53.391594 192.0
53.408009 84.0
53.436649 152.0
53.455605 100.0
53.479332 172.0
53.50655 32.0
53.518837 212.0
53.530846 152.0
53.553967 136.0
53.590683 164.0
53.600571 204.0
53.611431 240.0
53.631836 104.0
53.653194 156.0
53.679947 116.0
53.701824 176.0
53.742672 104.0
53.755497 132.0
53.780617 132.0
53.800083 168.0
53.833385 120.0
53.850704 248.0
53.878696 168.0
53.897453 156.0
53.932529 156.0
53.94276 132.0
53.96323 124.0
53.982239 160.0
54.001984 168.0
54.037827 240.0
54.059772 116.0
54.07935 192.0
54.105671 124.0
54.115051 184.0
54.138828 184.0
54.161972 200.0
54.177776 136.0
54.233345 212.0
54.256054 148.0
54.288311 352.0
54.310314 100.0
54.323517 132.0
54.347282 60.0
54.376339 124.0
54.389378 168.0
54.4058 232.0
54.434559 316.0
54.463425 224.0
54.480598 188.0
54.495293 200.0
54.505577 128.0
54.529091 148.0
54.559959 44.0
54.579502 152.0
54.590839 124.0
54.602604 144.0
54.646736 100.0
54.660927 180.0
54.688625 224.0
54.69622 180.0
54.711494 144.0
54.724102 196.0
54.743889 176.0
54.765606 204.0
54.77924 100.0
54.798393 184.0
54.81739 148.0
54.851448 96.0
54.862942 248.0
54.877739 216.0
54.914062 148.0
54.946926 108.0
54.95911 300.0
54.973869 220.0
54.987869 156.0
55.009041 116.0
55.031437 144.0
55.041134 136.0
55.055065 64.0
55.086082 216.0
55.114155 168.0
55.145191 124.0
55.165051 156.0
55.175449 128.0
55.201992 124.0
55.211723 160.0
55.229473 148.0
55.24715 160.0
55.252869 152.0
55.262074 180.0
55.273499 172.0
55.296055 228.0
55.3153 304.0
55.331585 308.0
55.347469 312.0
55.380898 204.0
55.405636 108.0
55.417488 108.0
55.428181 168.0
55.451572 40.0
55.471806 148.0
55.487045 168.0
55.50346 96.0
55.521965 176.0
55.531639 236.0
55.542023 164.0
55.57021 140.0
55.592468 160.0
55.623638 176.0
55.633671 132.0
55.658401 164.0
55.673344 192.0
55.697456 152.0
55.740971 236.0
55.766239 92.0
55.788952 220.0
55.798813 72.0
55.802368 132.0
55.813812 64.0
55.831657 88.0
55.857544 124.0
55.868843 168.0
55.896942 140.0
55.924664 400.0
55.933578 136.0
56.009521 120.0
56.034103 248.0
56.072353 180.0
56.089245 164.0
56.109547 168.0
56.123062 228.0
56.125332 156.0
56.133343 104.0
56.139221 216.0
56.16082 152.0
56.18021 72.0
56.195099 176.0
56.227139 188.0
56.268265 304.0
56.308586 132.0
56.323521 112.0
56.335472 188.0
56.360874 172.0
56.385281 144.0
56.416351 200.0
56.459465 168.0
56.477486 140.0
56.506466 236.0
56.522369 128.0
56.544895 156.0
56.575001 316.0
56.589138 132.0
56.612026 112.0
56.632195 112.0
56.677948 116.0
56.700581 224.0
56.710793 128.0
56.735058 148.0
56.761497 164.0
56.784542 172.0
56.805767 188.0
56.822044 324.0
56.834877 196.0
56.86375 192.0
56.89859 132.0
56.912102 168.0
56.930122 208.0
56.971584 212.0
56.988304 208.0
57.002869 132.0
57.005642 164.0
57.037045 172.0
57.071499 152.0
57.089424 136.0
57.123642 48.0
57.146587 192.0
57.158943 244.0
57.179691 152.0
57.197754 200.0
57.220337 156.0
57.272121 124.0
57.297565 360.0
57.315575 140.0
57.33482 140.0
57.348011 144.0
57.372505 128.0
57.403637 176.0
57.423775 120.0
57.438858 120.0
57.467525 172.0
57.496197 116.0
57.511246 132.0
57.529442 156.0
57.554077 152.0
57.579235 168.0
57.606422 172.0
57.636044 172.0
57.672913 164.0
57.683495 152.0
57.697102 52.0
57.729889 152.0
57.747002 348.0
57.77272 40.0
57.794273 244.0
57.821796 204.0
57.842331 276.0
57.855957 140.0
57.912735 160.0
57.932941 196.0
57.963955 172.0
57.97562 132.0
58.008965 176.0
58.032215 156.0
58.058861 228.0
58.087063 56.0
58.091785 216.0
58.104511 168.0
58.11665 108.0
58.12727 128.0
58.156109 144.0
58.167706 156.0
58.181202 196.0
58.198616 156.0
58.228165 140.0
58.262405 164.0
58.315594 140.0
58.329311 164.0
58.350109 244.0
58.373962 184.0
58.387093 148.0
58.414867 348.0
58.42923 176.0
58.447903 112.0
58.46542 296.0
58.519444 136.0
58.531082 72.0
58.584934 104.0
58.598648 100.0
58.610836 372.0
58.621502 124.0
58.639603 368.0
58.666737 160.0
58.672256 108.0
58.678173 136.0
58.697723 164.0
58.72261 164.0
58.740433 136.0
58.764843 160.0
58.781292 128.0
58.811665 264.0
58.826797 168.0
58.855915 168.0
58.883915 144.0
58.918877 144.0
58.931999 168.0
58.938225 80.0
58.94104 132.0
58.960304 100.0
59.005787 420.0
59.019924 232.0
59.049446 132.0
59.075649 120.0
59.087479 144.0
59.099186 44.0
59.10218 196.0
59.116299 208.0
59.125694 200.0
59.154564 140.0
59.187099 176.0
59.225002 184.0
59.245613 176.0
59.265465 136.0
59.282806 132.0
59.297016 116.0
59.314674 164.0
59.330742 40.0
59.357887 216.0
59.376743 52.0
59.39822 160.0
59.418163 148.0
59.4333 180.0
59.456524 148.0
59.471874 156.0
59.498466 148.0
59.513325 132.0
59.532372 160.0
59.542503 248.0
59.55479 96.0
59.579369 52.0
59.607315 148.0
59.631615 32.0
59.655125 176.0
59.65881 52.0
59.665627 160.0
59.701733 152.0
59.722797 172.0
59.734638 200.0
59.771564 76.0
59.787647 160.0
59.819279 140.0
59.842369 180.0
59.865585 160.0
59.894733 140.0
59.942905 180.0
60.013283 104.0
60.017582 152.0
60.023556 212.0
60.076195 348.0
60.143414 220.0
60.159538 156.0
60.195946 268.0
60.202282 80.0
60.205734 220.0
60.223602 136.0
60.228348 304.0
60.248001 164.0
60.260361 132.0
60.275654 156.0
60.297951 288.0
60.317543 152.0
60.33424 140.0
60.34631 112.0
60.353771 260.0
60.373207 172.0
60.393314 148.0
60.411877 96.0
60.447464 180.0
60.463757 148.0
60.478416 164.0
60.508934 240.0
60.521767 156.0
60.541897 196.0
60.552738 220.0
60.575974 132.0
60.598724 140.0
60.618076 160.0
60.632702 288.0
60.643448 168.0
60.666843 176.0
60.690304 52.0
60.717026 184.0
60.746498 44.0
60.777313 88.0
60.795345 216.0
60.821274 148.0
60.827145 132.0
60.857262 152.0
60.874359 116.0
60.902737 252.0
60.929688 196.0
60.949886 168.0
60.978622 112.0
61.028698 228.0
61.034939 160.0
61.039028 128.0
61.075512 244.0
61.082817 112.0
61.08588 128.0
61.10849 136.0
61.122494 120.0
61.148949 172.0
61.164516 116.0
61.20113 208.0
61.234585 232.0
61.24567 372.0
61.260952 164.0
61.27861 184.0
61.295341 320.0
61.328072 48.0
61.346775 112.0
61.360809 148.0
61.391994 104.0
61.416527 324.0
61.460987 212.0
61.487698 140.0
61.515259 132.0
61.531452 204.0
61.557259 276.0
61.582405 180.0
61.593338 156.0
61.608959 108.0
61.627449 192.0
61.631733 160.0
61.649586 124.0
61.670708 148.0
61.681889 152.0
61.699608 140.0
61.732441 216.0
61.749367 220.0
61.760395 284.0
61.783291 196.0
61.805965 136.0
61.823177 128.0
61.839203 216.0
61.868908 180.0
61.88736 144.0
61.901596 356.0
61.927608 112.0
61.939804 152.0
61.959408 208.0
61.97657 176.0
61.979515 168.0
61.985283 148.0
61.989899 96.0
62.037769 136.0
62.059719 240.0
62.082718 132.0
62.107502 128.0
62.132957 176.0
62.16325 212.0
62.190891 196.0
62.22839 112.0
62.241737 168.0
62.274326 168.0
62.293568 236.0
62.306137 220.0
62.328789 144.0
62.350136 180.0
62.361137 160.0
62.378429 256.0
62.402012 128.0
62.428741 296.0
62.46674 176.0
62.484638 172.0
62.496098 176.0
62.533325 296.0
62.537601 168.0
62.565636 220.0
62.579807 148.0
62.590828 152.0
62.601852 124.0
62.626621 220.0
62.663284 32.0
62.677467 144.0
62.706535 216.0
62.734207 124.0
62.751549 448.0
62.772049 180.0
62.839874 132.0
62.852112 156.0
62.888798 124.0
62.903793 312.0
62.929844 148.0
62.966164 144.0
62.996174 140.0
63.008244 232.0
63.027775 160.0
63.044323 184.0
63.072029 196.0
63.082241 136.0
63.106808 104.0
63.141598 156.0
63.154251 144.0
63.16486 116.0
63.203297 96.0
63.217793 148.0
63.249874 180.0
63.273045 120.0
63.312527 152.0
63.356876 400.0
63.372723 164.0
63.386982 176.0
63.428852 220.0
63.441387 136.0
63.46624 156.0
63.486855 132.0
63.501923 128.0
63.529999 20.0
63.550964 164.0
63.566177 132.0
63.582047 132.0
63.624828 168.0
63.645546 264.0
63.666191 156.0
63.687366 168.0
63.707489 320.0
63.724491 188.0
63.743637 168.0
63.771049 116.0
63.791718 160.0
63.820068 168.0
63.860092 168.0
63.888725 52.0
63.910999 116.0
63.925323 116.0
63.938053 152.0
63.982624 124.0
63.996864 144.0
64.020042 136.0
64.033585 252.0
64.047913 116.0
64.060661 64.0
64.082527 132.0
64.095711 288.0
64.115799 192.0
64.14193 156.0
64.201935 304.0
64.224854 100.0
64.239204 148.0
64.27108 372.0
64.325378 296.0
64.336555 136.0
64.368111 136.0
64.380966 128.0
64.411613 120.0
64.424393 196.0
64.460251 216.0
64.475525 160.0
64.488861 116.0
64.516365 80.0
64.543419 196.0
64.565628 236.0
64.577408 116.0
64.58905 100.0
64.608246 56.0
64.632248 172.0
64.654884 108.0
64.670654 156.0
64.686569 136.0
64.704269 112.0
64.732773 40.0
64.745514 164.0
64.785217 192.0
64.810913 200.0
64.816071 60.0
64.823318 188.0
64.837067 200.0
64.859665 116.0
64.87249 60.0
64.883713 164.0
64.907761 116.0
64.940216 204.0
64.963898 216.0
64.991013 156.0
65.020065 228.0
65.06292 200.0
65.083389 412.0
65.119301 144.0
65.155022 168.0
65.195122 224.0
65.234467 184.0
65.267456 132.0
65.291122 168.0
65.335014 172.0
65.352707 100.0
65.364799 84.0
65.384972 160.0
65.412399 172.0
65.433189 156.0
65.447678 52.0
65.467003 128.0
65.483109 140.0
65.512131 212.0
65.557098 164.0
65.599281 128.0
65.627678 216.0
65.645393 172.0
65.678139 192.0
65.694275 124.0
65.711494 208.0
65.731697 204.0
65.75264 208.0
65.783836 112.0
65.802505 184.0
65.817108 200.0
65.842773 128.0
65.861809 316.0
65.878822 228.0
65.91143 328.0
65.938416 180.0
65.952644 132.0
65.993347 136.0
66.050179 232.0
66.067162 152.0
66.077904 228.0
66.093346 168.0
66.122475 88.0
66.140282 124.0
66.199356 172.0
66.211929 112.0
66.22934 168.0
66.272133 96.0
66.289162 272.0
66.312431 172.0
66.332764 180.0
66.347641 164.0
66.390106 148.0
66.407639 112.0
66.427101 100.0
66.443481 152.0
66.454681 168.0
66.473442 136.0
66.479164 188.0
66.522598 384.0
66.543953 68.0
66.563614 148.0
66.592911 192.0
66.62841 168.0
66.657822 160.0
66.675171 124.0
66.693413 184.0
66.708046 176.0
66.727432 120.0
66.758446 160.0
66.777458 168.0
66.802094 120.0
66.836533 204.0
66.853447 244.0
66.871574 224.0
66.890236 168.0
66.909775 84.0
66.94223 124.0
66.970032 204.0
66.997719 84.0
67.010658 136.0
67.035492 328.0
67.056747 196.0
67.079445 164.0
67.092247 176.0
67.167259 136.0
67.17868 156.0
67.196625 132.0
67.229004 76.0
67.261482 200.0
67.267601 148.0
67.284294 376.0
67.308792 128.0
67.333748 224.0
67.358627 180.0
67.373985 120.0
67.387657 112.0
67.42524 76.0
67.491119 148.0
67.502899 248.0
67.529709 188.0
67.556053 76.0
67.571869 132.0
67.610054 144.0
67.631332 144.0
67.647697 120.0
67.680305 144.0
67.695885 204.0
67.709923 120.0
67.729576 188.0
67.764771 164.0
67.785278 172.0
67.796753 136.0
67.811501 156.0
67.82795 356.0
67.847656 228.0
67.908241 148.0
67.924469 228.0
67.985062 200.0
68.000557 196.0
68.05468 164.0
68.080658 200.0
68.099731 120.0
68.133667 172.0
68.165993 132.0
68.185715 188.0
68.19722 64.0
68.214127 196.0
68.255341 200.0
68.269272 112.0
68.287758 188.0
68.327133 144.0
68.352196 52.0
68.373207 96.0
68.40284 356.0
68.416008 180.0
68.442352 224.0
68.465408 260.0
68.497971 140.0
68.510826 132.0
68.550636 152.0
68.572495 120.0
68.610413 184.0
68.642464 136.0
68.66153 144.0
68.680496 144.0
68.697815 124.0
68.711014 144.0
68.733994 164.0
68.741165 132.0
68.76712 156.0
68.805817 128.0
68.837135 176.0
68.851326 180.0
68.873993 284.0
68.895363 176.0
68.92453 180.0
68.963676 148.0
68.980209 100.0
69.005005 140.0
69.016579 116.0
69.038078 160.0
69.049652 72.0
69.089355 100.0
69.100937 160.0
69.121666 348.0
69.142159 184.0
69.198586 172.0
69.220116 172.0
69.246613 132.0
69.295692 160.0
69.317848 108.0
69.36821 188.0
69.382042 204.0
69.405708 52.0
69.418686 140.0
69.430496 340.0
69.46077 160.0
69.478683 64.0
69.520172 152.0
69.535103 220.0
69.553261 128.0
69.56768 180.0
69.621155 164.0
69.644691 124.0
69.669014 156.0
69.684502 108.0
69.713409 144.0
69.728577 84.0
69.753868 188.0
69.768898 140.0
69.788261 216.0
69.807571 168.0
69.827522 36.0
69.844215 232.0
69.873947 128.0
69.877846 160.0
69.961838 140.0
69.997276 244.0
70.010597 176.0
70.026413 148.0
70.053314 204.0
70.066261 220.0
70.084015 112.0
70.11039 200.0
70.148384 164.0
70.192978 264.0
70.219849 188.0
70.244324 300.0
70.270638 132.0
70.283989 140.0
70.30735 160.0
70.32682 332.0
70.392075 240.0
70.414207 176.0
70.445419 140.0
70.465988 128.0
70.477684 152.0
70.493492 160.0
70.510025 136.0
70.537849 156.0
70.567513 216.0
70.602295 304.0
70.618111 148.0
70.679657 168.0
70.722198 176.0
70.763702 52.0
70.784546 144.0
70.812721 180.0
70.82518 192.0
70.838943 332.0
70.860847 88.0
70.872581 160.0
70.897713 188.0
70.92791 148.0
70.949516 124.0
70.989922 208.0
71.027283 116.0
71.072784 172.0
71.115601 220.0
71.138145 288.0
71.167793 128.0
71.200394 204.0
71.221535 320.0
71.248413 160.0
71.263535 112.0
71.280334 136.0
71.297516 144.0
71.316727 172.0
71.351334 168.0
71.392975 184.0
71.465302 192.0
71.480446 148.0
71.498962 152.0
71.525894 140.0
71.554359 296.0
71.575539 304.0
71.618507 140.0
71.637894 328.0
71.670731 128.0
71.68927 176.0
71.704437 128.0
71.741516 128.0
71.781708 172.0
71.802223 140.0
71.820778 224.0
71.844223 132.0
71.853104 148.0
71.875809 148.0
71.900558 84.0
71.935524 160.0
71.964996 180.0
72.021645 240.0
72.079704 208.0
72.104439 164.0
72.140022 148.0
72.166946 220.0
72.201233 164.0
72.213966 184.0
72.255333 168.0
72.270821 216.0
72.283867 164.0
72.307388 92.0
72.321404 400.0
72.336166 148.0
72.359871 152.0
72.419136 124.0
72.458656 184.0
72.480103 176.0
72.51844 132.0
72.542839 180.0
72.556931 140.0
72.58342 308.0
72.597443 196.0
72.619148 180.0
72.668343 152.0
72.693794 132.0
72.713379 148.0
72.741318 156.0
72.753204 152.0
72.773575 196.0
72.800957 128.0
72.822632 280.0
72.854568 200.0
72.871819 124.0
72.887802 164.0
72.900978 172.0
72.919037 172.0
72.959038 176.0
72.972214 160.0
72.992813 160.0
73.006378 124.0
73.048904 176.0
73.066681 112.0
73.07782 168.0
73.091438 136.0
73.144196 168.0
73.164307 212.0
73.188461 192.0
73.206161 132.0
73.225327 148.0
73.246002 148.0
73.26368 124.0
73.277031 420.0
73.298531 84.0
73.340439 192.0
73.434898 152.0
73.45092 200.0
73.47525 124.0
73.503815 144.0
73.518509 164.0
73.542633 140.0
73.616478 128.0
73.669434 128.0
73.687012 204.0
73.707016 184.0
73.73436 188.0
73.773674 132.0
73.80616 52.0
73.857391 184.0
73.889969 96.0
73.903664 196.0
73.923279 152.0
73.963562 132.0
73.989326 156.0
74.006363 180.0
74.020058 180.0
74.033485 176.0
74.048256 180.0
74.05999 200.0
74.11467 188.0
74.148544 128.0
74.165596 152.0
74.191589 216.0
74.211975 168.0
74.223595 160.0
74.259995 152.0
74.281601 248.0
74.314888 80.0
74.329193 148.0
74.349205 276.0
74.375206 164.0
74.404137 140.0
74.428223 204.0
74.462524 116.0
74.476265 124.0
74.516045 128.0
74.571526 208.0
74.587303 148.0
74.60984 200.0
74.627495 128.0
74.645782 132.0
74.667938 208.0
74.693092 140.0
74.713623 160.0
74.746613 272.0
74.787041 108.0
74.830902 220.0
74.85463 132.0
74.868408 128.0
74.883911 104.0
74.912483 252.0
74.915291 148.0
74.923325 136.0
74.933968 148.0
74.951096 160.0
74.970871 144.0
74.98278 160.0
75.001991 212.0
75.023338 188.0
75.051071 300.0
75.078667 144.0
75.116608 104.0
75.131241 168.0
75.183907 136.0
75.211517 192.0
75.225327 164.0
75.245209 148.0
75.274704 228.0
75.305046 192.0
75.327133 168.0
75.368683 92.0
75.407608 152.0
75.41301 80.0
75.419411 124.0
75.432625 172.0
75.452538 188.0
75.481575 180.0
75.495934 196.0
75.513901 152.0
75.527733 112.0
75.57618 152.0
75.615211 140.0
75.638481 132.0
75.65406 180.0
75.702545 200.0
75.717735 300.0
75.735451 112.0
75.761917 144.0
75.787109 156.0
75.823524 120.0
75.859322 132.0
75.879288 152.0
75.891426 56.0
75.903557 304.0
75.914772 192.0
75.956459 188.0
75.981422 180.0
76.024994 192.0
76.056236 128.0
76.09697 116.0
76.109497 124.0
76.132629 372.0
76.179527 188.0
76.198639 68.0
76.229912 160.0
76.264748 192.0
76.296188 564.0
76.310974 120.0
76.313683 148.0
76.340576 348.0
76.363785 136.0
76.382881 188.0
76.400223 168.0
76.410538 272.0
76.443581 152.0
76.462959 92.0
76.482101 156.0
76.502541 180.0
76.535812 108.0
76.573586 332.0
76.595787 196.0
76.615265 240.0
76.631874 116.0
76.651817 376.0
76.694092 188.0
76.7145 264.0
76.770302 96.0
76.810211 272.0
76.855057 184.0
76.88092 244.0
76.906265 200.0
76.930733 168.0
76.951057 64.0
76.992966 148.0
77.022202 168.0
77.094009 148.0
77.130997 200.0
77.155472 100.0
77.175476 136.0
77.220177 244.0
77.234169 268.0
77.253532 172.0
77.28315 76.0
77.305901 184.0
77.319901 180.0
77.342003 248.0
77.390305 108.0
77.406677 120.0
77.425102 136.0
77.442459 132.0
77.45414 192.0
77.488007 140.0
77.535324 80.0
77.584404 260.0
77.646652 132.0
77.668137 128.0
77.689011 164.0
77.72998 116.0
77.750046 148.0
77.767303 212.0
77.780876 88.0
77.794922 168.0
77.83004 144.0
77.842331 112.0
77.891685 280.0
77.91259 204.0
77.924889 172.0
77.935928 120.0
77.954758 96.0
77.974091 160.0
77.988754 128.0
78.00531 184.0
78.02507 192.0
78.062775 244.0
78.075127 216.0
78.098801 132.0
78.122955 164.0
78.144669 96.0
78.169304 180.0
78.196556 172.0
78.241791 152.0
78.255554 160.0
78.284653 156.0
78.336258 120.0
78.363396 176.0
78.410576 128.0
78.437012 164.0
78.449356 112.0
78.470512 140.0
78.484573 168.0
78.516357 180.0
78.528702 192.0
78.549454 84.0
78.587959 172.0
78.648666 172.0
78.702225 160.0
78.715416 256.0
78.752861 180.0
78.779358 128.0
78.806618 168.0
78.830574 148.0
78.858879 240.0
78.882637 136.0
78.922523 108.0
78.940208 172.0
78.953728 140.0
78.974861 168.0
79.007156 160.0
79.026878 168.0
79.047363 136.0
79.076057 216.0
79.107956 212.0
79.124146 88.0
79.147247 116.0
79.170265 436.0
79.18457 152.0
79.211647 168.0
79.234467 164.0
79.253906 184.0
79.281876 100.0
79.300362 140.0
79.314621 144.0
79.322365 128.0
79.352737 164.0
79.359741 160.0
79.370872 160.0
79.386147 280.0
79.42717 176.0
79.43557 100.0
79.442001 144.0
79.459839 188.0
79.473686 164.0
79.486977 76.0
79.514206 188.0
79.54808 192.0
79.562134 148.0
79.587906 148.0
79.643822 132.0
79.663422 124.0
79.676689 184.0
79.695343 132.0
79.71489 76.0
79.745102 164.0
79.773544 60.0
79.787766 116.0
79.800217 116.0
79.825569 184.0
79.864235 164.0
79.919029 160.0
79.94838 144.0
79.966431 192.0
80.017082 180.0
80.031525 164.0
80.057625 200.0
80.10276 112.0
80.121628 176.0
80.13839 244.0
80.169266 148.0
80.212921 132.0
80.266731 160.0
80.280998 96.0
80.339859 124.0
80.364372 184.0
80.396957 132.0
80.426743 204.0
80.487457 192.0
80.513893 168.0
80.546944 232.0
80.577309 124.0
80.629135 188.0
80.65773 76.0
80.691696 208.0
80.745468 144.0
80.761444 144.0
80.796638 148.0
80.822502 152.0
80.843742 108.0
80.87146 144.0
80.888206 128.0
80.905678 192.0
80.947495 116.0
80.968414 220.0
81.033508 176.0
81.090897 160.0
81.102379 128.0
81.121368 148.0
81.141548 188.0
81.14727 160.0
81.159721 204.0
81.192543 224.0
81.211029 108.0
81.263054 144.0
81.294853 144.0
81.319023 232.0
81.330566 116.0
81.365356 172.0
81.377922 132.0
81.394081 152.0
81.424049 256.0
81.45874 180.0
81.489281 128.0
81.525673 160.0
81.544632 220.0
81.571953 180.0
81.589447 120.0
81.610573 108.0
81.624718 104.0
81.640274 104.0
81.667252 156.0
81.70842 104.0
81.723724 196.0
81.748215 172.0
81.764412 92.0
81.780037 212.0
81.80941 124.0
81.847221 156.0
81.874237 200.0
81.889809 136.0
81.912064 180.0
81.947128 212.0
81.997131 368.0
82.014771 116.0
82.035294 160.0
82.059837 104.0
82.077873 184.0
82.106773 160.0
82.128326 172.0
82.14579 256.0
82.165489 256.0
82.201881 268.0
82.236992 120.0
82.27552 152.0
82.315361 112.0
82.334938 176.0
82.35038 204.0
82.389854 220.0
82.433487 128.0
82.449753 96.0
82.470222 208.0
82.49575 196.0
82.509407 152.0
82.533447 188.0
82.548706 212.0
82.561844 56.0
82.594398 68.0
82.612488 164.0
82.631935 128.0
82.670387 108.0
82.687996 152.0
82.711182 164.0
82.744606 296.0
82.766388 132.0
82.793495 380.0
82.821404 236.0
82.85508 40.0
82.879684 180.0
82.949478 140.0
82.980141 152.0
83.035294 216.0
83.052681 124.0
83.126289 244.0
83.176071 120.0
83.210594 140.0
83.22509 156.0
83.276978 172.0
83.313118 288.0
83.335884 92.0
83.373894 288.0
83.409538 220.0
83.436935 196.0
83.457664 108.0
83.493797 184.0
83.506142 104.0
83.540527 168.0
83.577721 108.0
83.608711 136.0
83.631981 208.0
83.65052 128.0
83.686928 156.0
83.699677 100.0
83.721527 176.0
83.750671 192.0
83.79895 152.0
83.820831 196.0
83.845467 144.0
83.858177 192.0
83.870934 36.0
83.88369 128.0
83.907394 188.0
83.930489 120.0
83.970901 160.0
83.98571 160.0
84.001678 160.0
84.041451 88.0
84.063278 160.0
84.099785 164.0
84.136452 124.0
84.156792 168.0
84.17849 328.0
84.205116 180.0
84.22493 104.0
84.241371 108.0
84.262825 220.0
84.286446 404.0
84.308975 152.0
84.327255 132.0
84.354668 156.0
84.371124 112.0
84.430733 140.0
84.452354 172.0
84.499023 172.0
84.512093 324.0
84.546722 332.0
84.585785 152.0
84.627892 280.0
84.645576 212.0
84.684448 216.0
84.701164 240.0
84.820709 368.0
84.836128 128.0
84.865463 192.0
84.883804 156.0
84.915024 156.0
84.934654 132.0
84.971848 128.0
85.010384 112.0
85.030052 228.0
85.074623 160.0
85.111343 156.0
85.142563 288.0
85.162056 172.0
85.17379 476.0
85.201103 152.0
85.219933 136.0
85.258598 156.0
85.296906 232.0
85.320801 176.0
85.337349 144.0
85.380157 144.0
85.426559 236.0
85.484505 204.0
85.50843 32.0
85.52404 160.0
85.566246 176.0
85.591003 108.0
85.604691 212.0
85.617058 324.0
85.644684 172.0
85.648872 160.0
85.67968 128.0
85.711876 176.0
85.742516 124.0
85.759979 164.0
85.772209 192.0
85.786018 120.0
85.801323 148.0
85.824265 36.0
85.884201 168.0
85.899765 84.0
85.947479 116.0
85.983261 376.0
86.020859 116.0
86.034515 120.0
86.093063 148.0
86.111504 132.0
86.137192 172.0
86.167618 100.0
86.189102 168.0
86.219124 208.0
86.253609 168.0
86.267708 204.0
86.282898 152.0
86.301682 336.0
86.322021 68.0
86.340332 164.0
86.360809 148.0
86.399704 160.0
86.425339 192.0
86.444115 188.0
86.489578 188.0
86.495148 204.0
86.502182 256.0
86.527405 132.0
86.553329 224.0
86.568146 124.0
86.582962 180.0
86.60743 300.0
86.656631 140.0
86.684616 156.0
86.7145 152.0
86.737228 216.0
86.773827 132.0
86.804001 252.0
86.829636 124.0
86.889305 152.0
86.911079 160.0
86.951904 116.0
86.964897 136.0
87.013832 200.0
87.033585 128.0
87.063232 108.0
87.082047 172.0
87.100449 196.0
87.126457 180.0
87.139458 128.0
87.158043 192.0
87.19738 72.0
87.215004 184.0
87.247253 160.0
87.277008 120.0
87.291374 132.0
87.329079 148.0
87.355118 220.0
87.382561 160.0
87.419388 168.0
87.446297 172.0
87.517082 176.0
87.544968 64.0
87.58503 136.0
87.612022 148.0
87.63945 244.0
87.660469 144.0
87.697746 112.0
87.760925 156.0
87.791328 148.0
87.817078 120.0
87.858116 60.0
87.906487 160.0
87.975563 120.0
87.994354 260.0
88.032997 432.0
88.074135 248.0
88.098946 48.0
88.115761 84.0
88.15126 120.0
88.169273 132.0
88.190506 132.0
88.207329 160.0
88.239113 108.0
88.280472 100.0
88.308617 144.0
88.336365 88.0
88.373337 256.0
88.380875 116.0
88.384697 140.0
88.403717 164.0
88.460114 400.0
88.506409 140.0
88.534767 144.0
88.553024 144.0
88.570351 124.0
88.600327 228.0
88.626602 160.0
88.641548 176.0
88.679199 180.0
88.6959 96.0
88.712257 312.0
88.736855 240.0
88.76152 208.0
88.79715 140.0
88.814713 144.0
88.839218 132.0
88.864685 152.0
88.899193 216.0
88.929359 268.0
88.986565 184.0
89.013443 344.0
89.018158 168.0
89.038048 4224.0
89.067696 148.0
89.086227 196.0
89.110817 180.0
89.14608 280.0
89.170509 168.0
89.187469 164.0
89.215897 120.0
89.230934 136.0
89.257545 156.0
89.279823 224.0
89.315559 128.0
89.333313 128.0
89.355064 112.0
89.37278 116.0
89.41481 112.0
89.419167 140.0
89.479286 144.0
89.538605 88.0
89.564034 140.0
89.577217 168.0
89.614052 200.0
89.653267 132.0
89.668488 200.0
89.707245 132.0
89.722328 132.0
89.735527 88.0
89.770462 140.0
89.792099 124.0
89.814789 268.0
89.829819 140.0
89.87133 32.0
89.90152 160.0
89.931717 128.0
89.969841 204.0
89.989494 264.0
90.014824 196.0
90.045273 1356.0
90.075317 240.0
90.127975 304.0
90.152695 168.0
90.173409 108.0
90.190628 112.0
90.209724 228.0
90.218216 108.0
90.22702 236.0
90.247765 224.0
90.259628 228.0
90.285416 156.0
90.305832 164.0
90.320961 112.0
90.334206 84.0
90.34745 124.0
90.362587 128.0
90.433708 212.0
90.441948 124.0
90.446594 204.0
90.460999 132.0
90.489395 108.0
90.524582 184.0
90.535355 160.0
90.55378 120.0
90.578407 144.0
90.597382 300.0
90.624252 140.0
90.647644 256.0
90.694374 120.0
90.718636 208.0
90.748299 136.0
90.758453 144.0
90.784996 160.0
90.80117 164.0
90.834312 96.0
90.847 64.0
90.877945 160.0
90.896919 152.0
90.91674 172.0
90.946732 276.0
90.995377 216.0
91.020309 136.0
91.048401 292.0
91.084885 180.0
91.134354 104.0
91.153694 164.0
91.162224 164.0
91.185585 168.0
91.203804 292.0
91.217773 180.0
91.240715 112.0
91.311073 156.0
91.324387 152.0
91.3377 160.0
91.366676 156.0
91.402901 208.0
91.429459 88.0
91.4412 212.0
91.495033 148.0
91.51593 240.0
91.54805 164.0
91.586807 184.0
91.601028 240.0
91.668137 144.0
91.686134 136.0
91.703285 84.0
91.722198 148.0
91.757462 200.0
91.779083 232.0
91.785873 176.0
91.789818 288.0
91.816185 224.0
91.837769 256.0
91.853928 132.0
91.871094 140.0
91.92643 168.0
91.951241 64.0
91.975327 212.0
91.982246 180.0
92.004158 160.0
92.029503 156.0
92.048599 128.0
92.071518 116.0
92.088707 184.0
92.105896 128.0
92.124046 192.0
92.138374 200.0
92.165123 140.0
92.184235 168.0
92.251411 184.0
92.27314 136.0
92.311462 280.0
92.361305 136.0
92.405693 176.0
92.42514 220.0
92.429428 196.0
92.445435 268.0
92.459824 192.0
92.476334 384.0
92.502243 208.0
92.544235 172.0
92.584061 156.0
92.622368 92.0
92.640907 112.0
92.667351 104.0
92.692757 112.0
92.707947 192.0
92.722565 164.0
92.762253 136.0
92.785263 144.0
92.825531 124.0
92.852379 180.0
92.873474 40.0
92.89254 196.0
92.932091 152.0
92.93943 84.0
92.948601 100.0
92.961617 332.0
92.994171 208.0
92.999092 188.0
93.015862 136.0
93.037285 160.0
93.056557 200.0
93.085701 152.0
93.133659 116.0
93.167183 76.0
93.211372 284.0
93.244041 156.0
93.264664 104.0
93.288254 136.0
93.317093 132.0
93.364494 380.0
93.405357 192.0
93.410324 368.0
93.436333 188.0
93.465454 120.0
93.50827 220.0
93.536407 96.0
93.555656 132.0
93.58165 176.0
93.611496 212.0
93.636162 208.0
93.655792 132.0
93.67923 144.0
93.705879 104.0
93.729004 176.0
93.746498 152.0
93.786819 164.0
93.818367 88.0
93.830246 208.0
93.846581 132.0
93.862572 308.0
93.89267 396.0
93.906219 108.0
93.927032 140.0
93.968094 128.0
94.01548 224.0
94.075401 164.0
94.106987 136.0
94.167305 144.0
94.216003 148.0
94.238403 232.0
94.302177 112.0
94.338646 148.0
94.365974 156.0
94.42205 216.0
94.435593 160.0
94.45031 176.0
94.48008 164.0
94.506226 140.0
94.522575 108.0
94.549744 196.0
94.583229 316.0
94.607811 160.0
94.645508 176.0
94.671707 160.0
94.706573 164.0
94.721191 204.0
94.747368 136.0
94.771812 136.0
94.785019 116.0
94.805382 100.0
94.860695 156.0
94.919006 144.0
94.956139 184.0
95.0439 56.0
95.057487 188.0
95.086449 156.0
95.10144 260.0
95.122742 212.0
95.152977 184.0
95.180328 140.0
95.20607 104.0
95.246338 252.0
95.271065 92.0
95.302292 172.0
95.317696 108.0
95.333244 136.0
95.353668 348.0
95.358437 108.0
95.365677 208.0
95.401276 212.0
95.444901 300.0
95.48275 164.0
95.495041 228.0
95.519897 156.0
95.566528 216.0
95.58345 168.0
95.601418 212.0
95.614319 144.0
95.663162 204.0
95.695892 148.0
95.736 144.0
95.753471 132.0
95.774895 220.0
95.800224 184.0
95.82299 196.0
95.85379 160.0
95.899605 348.0
95.916183 144.0
95.93824 208.0
95.942886 132.0
95.974884 156.0
96.000984 80.0
96.018532 72.0
96.034142 160.0
96.067421 196.0
96.123703 132.0
96.141319 184.0
96.154022 108.0
96.166885 220.0
96.175407 120.0
96.180832 168.0
96.212364 144.0
96.239006 168.0
96.316216 264.0
96.330841 292.0
96.3862 144.0
96.46788 128.0
96.512383 108.0
96.546204 284.0
96.579094 168.0
96.600616 128.0
96.618538 188.0
96.659554 176.0
96.690079 188.0
96.723892 72.0
96.739555 196.0
96.756599 176.0
96.802208 188.0
96.821793 156.0
96.844658 148.0
96.868805 348.0
96.884476 152.0
96.904068 84.0
96.931396 152.0
96.954041 200.0
96.980118 340.0
97.004021 76.0
97.017738 260.0
97.052643 156.0
97.062027 288.0
97.078522 180.0
97.115623 144.0
97.131485 160.0
97.166794 152.0
97.192299 204.0
97.2257 200.0
97.257065 80.0
97.286446 120.0
97.310081 296.0
97.35984 184.0
97.392548 156.0
97.410233 156.0
97.437683 164.0
97.457382 196.0
97.483582 132.0
97.510437 148.0
97.538544 120.0
97.574753 436.0
97.609116 104.0
97.633781 136.0
97.653969 104.0
97.68232 232.0
97.719368 332.0
97.746437 144.0
97.767426 140.0
97.816368 232.0
97.836433 284.0
97.854721 144.0
97.883339 124.0
97.926712 196.0
97.948654 208.0
97.968849 212.0
97.992043 136.0
98.041824 180.0
98.083221 124.0
98.098801 128.0
98.11673 364.0
98.145027 136.0
98.169212 136.0
98.182785 160.0
98.201637 144.0
98.234131 196.0
98.254364 112.0
98.269028 220.0
98.323189 132.0
98.341614 180.0
98.3592 88.0
98.372284 164.0
98.414658 200.0
98.430405 160.0
98.447441 200.0
98.463348 140.0
98.476807 184.0
98.506126 320.0
98.541069 148.0
98.561432 176.0
98.621292 168.0
98.634689 160.0
98.656532 148.0
98.697708 240.0
98.7285 396.0
98.768288 124.0
98.772919 116.0
98.780792 156.0
98.807976 80.0
98.839386 160.0
98.889114 184.0
98.907585 48.0
98.958435 216.0
98.977417 220.0
98.999962 19740.0
99.02285 276.0
99.070221 200.0
99.090218 224.0
99.122803 324.0
99.154854 140.0
99.177643 352.0
99.206047 116.0
99.228905 348.0
99.266525 196.0
99.285919 128.0
99.292595 124.0
99.297813 172.0
99.321068 104.0
99.366943 212.0
99.39447 272.0
99.428207 124.0
99.444084 140.0
99.482025 176.0
99.529449 76.0
99.556976 144.0
99.588776 124.0
99.624786 60.0
99.652603 84.0
99.712341 124.0
99.742027 184.0
99.782578 176.0
99.855171 200.0
99.875793 192.0
99.90139 188.0
99.927612 228.0
99.973228 232.0
100.00193 1012.0
100.030464 136.0
100.047363 152.0
100.074738 152.0
100.092186 148.0
100.143967 172.0
100.169861 396.0
100.199165 276.0
100.23658 140.0
100.282799 160.0
100.324509 200.0
100.3862 148.0
100.390533 84.0
100.426506 120.0
100.442055 168.0
100.493614 184.0
100.518776 200.0
100.536095 200.0
100.562683 156.0
100.582642 96.0
100.604004 224.0
100.629784 140.0
100.664497 140.0
100.684593 128.0
100.718422 140.0
100.780357 116.0
100.796341 200.0
100.812294 220.0
100.846306 184.0
100.878288 76.0
100.912651 128.0
100.951355 132.0
100.971237 312.0
100.996292 3296.0
101.021049 200.0
101.040405 192.0
101.085831 136.0
101.115089 144.0
101.132607 144.0
101.156456 156.0
101.194298 132.0
101.226425 152.0
101.240448 124.0
101.264221 216.0
101.306046 360.0
101.347923 196.0
101.363388 204.0
101.382164 248.0
101.428703 156.0
101.477814 156.0
101.499992 208.0
101.529678 236.0
101.563545 332.0
101.586617 164.0
101.602501 128.0
101.627327 88.0
101.653 156.0
101.692909 188.0
101.728317 100.0
101.792175 160.0
101.824059 176.0
101.842133 104.0
101.873726 160.0
101.881065 116.0
101.887199 204.0
101.938301 180.0
101.958672 240.0
101.999413 272.0
102.016693 132.0
102.044342 852.0
102.064163 132.0
102.089409 124.0
102.121521 172.0
102.154526 296.0
102.186218 328.0
102.217987 156.0
102.254883 156.0
102.290222 124.0
102.320747 140.0
102.338043 232.0
102.385887 80.0
102.40065 224.0
102.417404 160.0
102.435539 140.0
102.459335 128.0
102.476448 156.0
102.493965 116.0
102.511108 148.0
102.533371 144.0
102.568535 120.0
102.636276 156.0
102.672432 168.0
102.693588 188.0
102.732597 368.0
102.764153 64.0
102.785538 188.0
102.81057 180.0
102.836807 120.0
102.857208 112.0
102.885254 136.0
102.903419 140.0
102.919571 108.0
102.933708 88.0
102.958649 172.0
103.005615 152.0
103.021568 176.0
103.046822 196.0
103.06427 164.0
103.083588 228.0
103.100296 104.0
103.108238 164.0
103.131699 188.0
103.154999 124.0
103.221581 244.0
103.247658 176.0
103.343552 148.0
103.350868 236.0
103.398308 220.0
103.439163 156.0
103.469025 176.0
103.473213 132.0
103.503952 176.0
103.528252 160.0
103.560654 100.0
103.623459 216.0
103.645744 120.0
103.666313 132.0
103.681503 136.0
103.745918 104.0
103.779526 128.0
103.801826 88.0
103.836258 176.0
103.842247 172.0
103.850304 164.0
103.906738 172.0
103.925972 100.0
103.951881 128.0
103.975067 184.0
104.000175 192.0
104.037193 168.0
104.0793 168.0
104.103645 148.0
104.140755 144.0
104.157951 156.0
104.181381 108.0
104.221397 184.0
104.248619 268.0
104.291008 152.0
104.316978 292.0
104.341934 316.0
104.362297 244.0
104.377022 140.0
104.404968 148.0
104.435478 132.0
104.449715 200.0
104.476868 208.0
104.510109 328.0
104.534882 168.0
104.610481 156.0
104.650848 164.0
104.682274 92.0
104.722473 152.0
104.746918 84.0
104.771362 160.0
104.791733 164.0
104.809296 136.0
104.865097 172.0
104.881401 164.0
104.894745 132.0
104.908363 188.0
104.948677 180.0
104.967033 232.0
104.987053 220.0
105.087212 148.0
105.11998 176.0
105.158806 188.0
105.19146 76.0
105.208153 136.0
105.246674 184.0
105.27211 168.0
105.312767 188.0
105.354836 152.0
105.391609 44.0
105.428009 148.0
105.436241 100.0
105.441154 132.0
105.483582 152.0
105.511177 312.0
105.551048 156.0
105.570816 132.0
105.618538 144.0
105.649956 224.0
105.668785 172.0
105.704071 184.0
105.72084 116.0
105.739258 228.0
105.769966 140.0
105.798943 128.0
105.89016 148.0
105.919441 44.0
105.974762 196.0
106.003136 184.0
106.044434 132.0
106.064934 112.0
106.090996 140.0
106.11541 180.0
106.123802 168.0
106.146942 152.0
106.16378 132.0
106.210518 44.0
106.228981 184.0
106.2621 280.0
106.296692 104.0
106.323807 148.0
106.341835 152.0
106.382217 188.0
106.428505 184.0
106.45681 156.0
106.520477 136.0
106.547188 196.0
106.57325 152.0
106.603851 340.0
106.627327 116.0
106.645828 212.0
106.660217 240.0
106.673279 124.0
106.690063 136.0
106.706497 148.0
106.720604 160.0
106.744507 100.0
106.766373 304.0
106.792076 312.0
106.816498 48.0
106.843239 156.0
106.918221 168.0
106.948189 172.0
106.965057 204.0
106.98983 104.0
107.005829 188.0
107.022728 244.0
107.047012 168.0
107.089485 160.0
107.137642 180.0
107.179489 116.0
107.209755 164.0
107.232864 192.0
107.247726 132.0
107.347878 124.0
107.381859 184.0
107.385429 232.0
107.437927 128.0
107.455139 164.0
107.481964 108.0
107.51194 188.0
107.535622 68.0
107.554146 160.0
107.588257 104.0
107.604797 336.0
107.629593 184.0
107.660858 212.0
107.692535 52.0
107.71624 160.0
107.754509 148.0
107.771042 152.0
107.807831 200.0
107.827759 72.0
107.835442 248.0
107.872314 108.0
107.890915 172.0
107.934753 160.0
107.963745 144.0
107.978661 120.0
108.027405 188.0
108.068787 188.0
108.100883 156.0
108.106758 80.0
108.115479 184.0
108.137077 176.0
108.157776 80.0
108.188637 88.0
108.207458 140.0
108.253014 164.0
108.273544 320.0
108.308418 128.0
108.350365 60.0
108.381447 96.0
108.435326 84.0
108.455124 240.0
108.52861 276.0
108.544998 160.0
108.599983 164.0
108.628166 152.0
108.648911 164.0
108.67173 140.0
108.710136 300.0
108.731911 188.0
108.754745 184.0
108.775497 168.0
108.794609 116.0
108.836433 376.0
108.868202 216.0
108.902161 172.0
108.924522 136.0
108.954094 136.0
108.977798 372.0
109.009033 164.0
109.032303 188.0
109.049683 184.0
109.074509 144.0
109.118286 128.0
109.134918 340.0
109.149475 164.0
109.167152 128.0
109.186905 236.0
109.237244 180.0
109.257721 160.0
109.274857 128.0
109.288658 316.0
109.313812 168.0
109.380409 136.0
109.409554 144.0
109.520638 164.0
109.539352 172.0
109.597008 116.0
109.649544 152.0
109.685883 124.0
109.709557 176.0
109.724144 96.0
109.751251 176.0
109.765846 96.0
109.782532 200.0
109.816368 160.0
109.829964 140.0
109.8451 132.0
109.899345 104.0
109.937416 132.0
109.980736 96.0
110.00161 132.0
110.037102 208.0
110.092438 140.0
110.112221 156.0
110.123543 172.0
110.17086 172.0
110.231361 56.0
110.251762 152.0
110.273155 120.0
110.305664 148.0
110.338394 172.0
110.375595 172.0
110.413239 128.0
110.42997 192.0
110.48204 340.0
110.510994 104.0
110.542442 200.0
110.577545 180.0
110.606178 204.0
110.659576 144.0
110.687981 112.0
110.713806 204.0
110.756493 176.0
110.770714 132.0
110.792107 132.0
110.819344 328.0
110.84449 180.0
110.866722 236.0
110.882538 180.0
110.953484 204.0
110.970917 312.0
110.993317 132.0
111.035416 216.0
111.057053 200.0
111.075882 188.0
111.110825 188.0
111.140152 104.0
111.186317 276.0
111.214531 136.0
111.22097 180.0
111.238464 168.0
111.246101 224.0
111.283218 160.0
111.30278 136.0
111.319862 124.0
111.345398 160.0
111.366859 244.0
111.444611 144.0
111.50135 108.0
111.532707 148.0
111.540977 136.0
111.548248 128.0
111.556572 176.0
111.589432 120.0
111.607452 184.0
111.623055 160.0
111.649956 152.0
111.656769 104.0
111.66172 144.0
111.68972 172.0
111.711617 116.0
111.756592 192.0
111.781807 184.0
111.795784 144.0
111.815857 200.0
111.86763 340.0
111.91758 172.0
111.949463 280.0
111.981819 164.0
112.007812 392.0
112.088875 156.0
112.112061 248.0
112.127365 36.0
112.149223 216.0
112.184532 156.0
112.193703 144.0
112.218895 148.0
112.277725 236.0
112.30201 188.0
112.322517 364.0
112.347832 168.0
112.364708 164.0
112.397018 220.0
112.440674 316.0
112.461784 136.0
112.482895 108.0
112.512444 132.0
112.535667 176.0
112.566994 192.0
112.591537 196.0
112.629852 296.0
112.670967 132.0
112.698311 220.0
112.712311 96.0
112.73922 188.0
112.77668 144.0
112.800674 156.0
112.823639 188.0
112.863182 76.0
112.916046 160.0
112.982826 300.0
113.010498 136.0
113.03875 168.0
113.072136 160.0
113.117157 92.0
113.136116 144.0
113.163635 220.0
113.200859 336.0
113.225998 276.0
113.327248 136.0
113.354279 100.0
113.377586 140.0
113.415733 132.0
113.449654 164.0
113.481522 128.0
113.495239 192.0
113.530228 116.0
113.562042 140.0
113.611496 256.0
113.644508 32.0
113.692566 308.0
113.76696 140.0
113.801842 152.0
113.836678 128.0
113.869797 136.0
113.884666 84.0
113.918655 172.0
113.947693 236.0
113.973892 128.0
114.003647 100.0
114.043419 160.0
114.081436 300.0
114.105675 148.0
114.139694 132.0
114.177132 152.0
114.200043 180.0
114.22477 44.0
114.240524 168.0
114.258804 128.0
114.279633 152.0
114.322021 192.0
114.342178 180.0
114.352257 144.0
114.359802 168.0
114.376129 152.0
114.405846 308.0
114.456505 140.0
114.490822 156.0
114.526146 120.0
114.578156 152.0
114.607986 128.0
114.630424 268.0
114.647888 160.0
114.66552 128.0
114.684502 124.0
114.708153 316.0
114.748657 96.0
114.806946 156.0
114.865952 140.0
114.885155 272.0
114.900085 108.0
114.919067 156.0
114.951294 96.0
115.001556 80.0
115.058609 320.0
115.082855 196.0
115.115669 180.0
115.132751 164.0
115.168205 208.0
115.190422 136.0
115.211784 172.0
115.254517 200.0
115.271614 124.0
115.288712 388.0
115.307945 156.0
115.333595 88.0
115.367462 216.0
115.382568 148.0
115.397461 256.0
115.428078 108.0
115.457436 156.0
115.503586 184.0
115.551613 160.0
115.594513 232.0
115.614433 248.0
115.649048 376.0
115.68441 280.0
115.719933 152.0
115.748642 256.0
115.76577 176.0
115.785049 112.0
115.801933 172.0
115.836456 268.0
115.866524 136.0
115.890015 156.0
115.952156 164.0
115.967163 288.0
115.986153 200.0
116.093658 168.0
116.127098 148.0
116.15078 72.0
116.198761 72.0
116.222366 176.0
116.264977 140.0
116.286743 140.0
116.305885 196.0
116.323044 136.0
116.33886 172.0
116.366173 68.0
116.400528 144.0
116.46711 108.0
116.499329 332.0
116.51799 204.0
116.576057 180.0
116.58548 308.0
116.592033 192.0
116.634766 148.0
116.697052 168.0
116.726707 172.0
116.759415 252.0
116.780922 40.0
116.795982 136.0
116.818031 144.0
116.835648 168.0
116.888489 188.0
116.934494 160.0
116.959885 184.0
116.993896 136.0
117.019791 184.0
117.069321 164.0
117.088379 108.0
117.114548 152.0
117.145363 192.0
117.178932 176.0
117.241661 248.0
117.273277 144.0
117.297264 176.0
117.315285 52.0
117.35376 120.0
117.424019 188.0
117.504814 216.0
117.54142 92.0
117.558678 168.0
117.578102 116.0
117.619049 132.0
117.685127 284.0
117.736664 244.0
117.785896 184.0
117.806046 140.0
117.824265 192.0
117.844765 140.0
117.867485 140.0
117.891251 176.0
117.908714 148.0
117.95948 268.0
117.983902 176.0
118.033455 184.0
118.103165 164.0
118.130257 148.0
118.145584 172.0
118.230125 144.0
118.276237 164.0
118.29731 196.0
118.328896 172.0
118.355637 196.0
118.372627 276.0
118.408318 112.0
118.453804 48.0
118.487152 200.0
118.51947 180.0
118.5448 128.0
118.58754 168.0
118.621017 368.0
118.666023 160.0
118.706192 160.0
118.724579 168.0
118.750763 148.0
118.803154 288.0
118.893951 124.0
118.946045 196.0
118.963409 132.0
118.991638 204.0
119.006836 120.0
119.071983 140.0
119.109169 164.0
119.127502 184.0
119.163216 324.0
119.204895 132.0
119.245796 104.0
119.271881 156.0
119.289268 188.0
119.311005 260.0
119.352135 192.0
119.398567 164.0
119.424759 116.0
119.451088 164.0
119.479553 132.0
119.514923 164.0
119.548096 236.0
119.57476 136.0
119.595978 140.0
119.646049 116.0
119.676529 100.0
119.703239 132.0
119.750572 128.0
119.814812 112.0
119.855141 156.0
119.879112 156.0
119.93409 128.0
119.967216 132.0
120.009972 356.0
120.039078 240.0
120.067108 204.0
120.110222 92.0
120.153847 180.0
120.184395 168.0
120.202988 196.0
120.236771 180.0
120.283211 244.0
120.310982 128.0
120.328453 208.0
120.367752 108.0
120.385223 116.0
120.41143 200.0
120.434685 148.0
120.497932 120.0
120.506058 176.0
120.524933 184.0
120.573921 128.0
120.581299 48.0
120.587502 116.0
120.61026 128.0
120.63649 196.0
120.697708 160.0
120.733589 304.0
120.766312 220.0
120.792511 264.0
120.81144 136.0
120.844261 160.0
120.866142 220.0
120.914284 152.0
120.929604 120.0
120.955116 372.0
120.974129 124.0
120.994934 132.0
121.009445 144.0
121.037712 168.0
121.069725 168.0
121.109383 112.0
121.127144 168.0
121.147301 132.0
121.200066 168.0
121.232475 152.0
121.249374 152.0
121.264717 128.0
121.284134 140.0
121.32 216.0
121.364639 228.0
121.402954 156.0
121.470322 120.0
121.503159 212.0
121.547623 100.0
121.571701 144.0
121.604988 172.0
121.65065 348.0
121.710052 152.0
121.788712 216.0
121.80542 284.0
121.852013 152.0
121.875793 256.0
121.901169 212.0
121.931229 164.0
121.982285 132.0
121.996239 196.0
122.013329 144.0
122.039787 140.0
122.099609 120.0
122.116615 156.0
122.134216 184.0
122.210197 164.0
122.215935 192.0
122.257423 164.0
122.292641 228.0
122.344673 236.0
122.364761 168.0
122.376732 368.0
122.393906 140.0
122.413727 160.0
122.434761 116.0
122.447914 292.0
122.481308 152.0
122.50296 140.0
122.544357 144.0
122.561317 48.0
122.575691 160.0
122.592163 212.0
122.608971 320.0
122.659096 384.0
122.685768 188.0
122.730621 192.0
122.774055 136.0
122.85041 160.0
122.884773 160.0
122.920303 152.0
122.968956 156.0
123.002869 496.0
123.03331 44.0
123.090714 160.0
123.12384 152.0
123.150528 148.0
123.172432 32.0
123.19046 176.0
123.209824 164.0
123.216324 152.0
123.266731 200.0
123.326759 176.0
123.353058 160.0
123.406693 156.0
123.434647 168.0
123.459763 172.0
123.488518 80.0
123.525307 316.0
123.542374 104.0
123.59288 136.0
123.619331 124.0
123.652245 84.0
123.681801 180.0
123.698143 232.0
123.759605 136.0
123.826912 112.0
123.864807 132.0
123.901405 292.0
123.953766 132.0
123.964378 136.0
123.968689 140.0
123.99424 212.0
123.999718 36.0
124.016029 368.0
124.069794 120.0
124.085823 160.0
124.135201 148.0
124.150726 84.0
124.173737 160.0
124.201126 204.0
124.215637 184.0
124.235863 144.0
124.280029 136.0
124.314888 36.0
124.330421 152.0
124.356483 200.0
124.374817 352.0
124.409843 164.0
124.427765 136.0
124.431946 184.0
124.44841 160.0
124.510582 324.0
124.527863 164.0
124.5308 112.0
124.542 204.0
124.561966 116.0
124.612694 464.0
124.651108 356.0
124.666092 380.0
124.695244 444.0
124.717567 176.0
124.744331 612.0
124.759819 380.0
124.764366 336.0
124.77562 180.0
124.7836 432.0
124.791885 212.0
124.80072 348.0
124.814445 320.0
124.833496 292.0
124.85157 288.0
124.865036 228.0
124.884399 508.0
124.908401 796.0
124.914932 412.0
124.942421 616.0
124.947166 668.0
124.977356 844.0
125.016548 283128.0
125.068848 172.0
125.097267 140.0
125.11647 64.0
125.132439 104.0
125.165642 308.0
125.223358 1280.0
125.249985 432.0
125.292213 660.0
125.321274 416.0
125.356361 2108.0
125.383377 12460.0
125.431953 176.0
125.458199 152.0
125.483002 68.0
125.531563 212.0
125.557411 368.0
125.586403 216.0
125.593628 200.0
125.625015 288.0
125.633118 124.0
125.640961 248.0
125.669899 340.0
125.710335 68.0
125.729843 932.0
125.752495 244.0
125.757751 100.0
125.767426 180.0
125.80938 148.0
125.868309 92.0
125.871811 308.0
125.891098 252.0
125.913498 192.0
125.935608 272.0
125.958359 276.0
125.963486 144.0
125.994377 280.0
126.018806 58144.0
126.064987 156.0
126.089859 56.0
126.113914 140.0
126.134888 148.0
126.171608 172.0
126.212814 144.0
126.234077 320.0
126.272545 96.0
126.279625 112.0
126.287498 152.0
126.295395 176.0
126.317619 204.0
126.335045 204.0
126.37162 164.0
126.401085 148.0
126.431808 132.0
126.458542 288.0
126.464432 152.0
126.508797 152.0
126.528885 76.0
126.573502 480.0
126.591873 204.0
126.621971 212.0
126.637497 168.0
126.663658 176.0
126.689903 224.0
126.706673 256.0
126.724983 204.0
126.742264 256.0
126.768684 276.0
126.791878 144.0
126.808128 356.0
126.842552 552.0
126.858292 292.0
126.88662 392.0
126.90522 276.0
126.932457 544.0
126.966431 240.0
127.012558 171376.0
127.082405 204.0
127.097107 216.0
127.13018 100.0
127.134735 156.0
127.150711 236.0
127.156883 144.0
127.181541 216.0
127.204803 180.0
127.229958 132.0
127.255356 56.0
127.285515 184.0
127.318283 156.0
127.339256 68.0
127.348755 32.0
127.381157 928.0
127.401711 144.0
127.418434 188.0
127.44339 60.0
127.468452 104.0
127.497215 176.0
127.534782 84.0
127.564377 48.0
127.597214 64.0
127.638382 80.0
127.670425 60.0
127.709496 152.0
127.7342 100.0
127.753654 168.0
127.771652 48.0
127.788963 128.0
127.816132 52.0
127.847511 68.0
127.854721 48.0
127.882591 96.0
127.901833 92.0
127.938194 104.0
127.955208 152.0
127.971962 56.0
128.01503 7668.0
128.075562 48.0
128.098083 104.0
128.129623 32.0
128.222015 164.0
128.251312 72.0
128.279388 88.0
128.304504 40.0
128.324326 180.0
128.352768 104.0
128.391098 56.0
128.408142 72.0
128.430771 100.0
128.50058 112.0
128.533936 88.0
128.560303 160.0
128.632523 32.0
128.686005 52.0
128.743164 104.0
128.766586 128.0
128.790588 96.0
128.815277 112.0
128.823349 104.0
128.838364 160.0
128.877792 100.0
128.902893 128.0
128.908844 116.0
128.917313 140.0
128.948837 212.0
128.967194 116.0
128.996216 144.0
129.019318 148.0
129.049271 112.0
129.069794 96.0
129.108932 116.0
129.141373 84.0
129.168732 120.0
129.213318 132.0
129.229156 104.0
129.260834 48.0
129.278946 32.0
129.310623 64.0
129.37854 76.0
129.430618 64.0
129.473633 60.0
129.523468 96.0
129.652618 216.0
129.691147 64.0
129.734222 64.0
129.75235 68.0
129.772766 44.0
129.87027 64.0
129.941605 72.0
129.969162 156.0
129.988251 92.0
130.060867 164.0
130.083572 124.0
130.115356 92.0
130.156219 88.0
130.191238 48.0
130.242523 48.0
130.269791 40.0
130.387939 56.0
131.09285 92.0
131.123062 100.0
131.174118 36.0
131.264404 52.0
131.492538 92.0
131.756638 104.0
131.896835 68.0
131.921967 72.0
132.054596 152.0
132.078873 100.0
132.117661 92.0
132.283005 180.0
132.347519 92.0
132.489532 232.0
132.562851 100.0
132.578888 136.0
132.675156 76.0
132.695801 60.0
132.743057 52.0
132.840759 96.0
132.870102 116.0
132.90451 84.0
132.925171 68.0
132.978958 64.0
133.018478 92.0
133.113403 64.0
133.157043 88.0
133.175415 88.0
133.202972 92.0
133.315567 132.0
133.340836 124.0
133.383087 104.0
133.409805 64.0
133.439117 112.0
133.448776 84.0
133.459351 108.0
133.466125 72.0
133.513275 48.0
133.553864 92.0
133.671997 76.0
133.799271 108.0
133.817017 172.0
133.879196 56.0
133.950592 52.0
133.969025 76.0
134.022812 112.0
134.051971 60.0
134.124039 44.0
134.236389 72.0
134.287125 92.0
134.381699 96.0
134.409393 80.0
134.483246 48.0
134.516251 40.0
134.628693 56.0
134.6772 188.0
134.741882 48.0
134.81813 180.0
134.845871 96.0
134.89209 28.0
134.915207 128.0
134.947098 164.0
135.023895 112.0
135.079407 112.0
135.185837 124.0
135.232117 184.0
135.255264 64.0
135.336304 76.0
135.46991 104.0
135.625885 56.0
135.667603 80.0
135.789474 156.0
135.906494 68.0
135.972336 140.0
136.007263 872.0
136.08754 64.0
136.109665 76.0
136.150879 104.0
136.177628 96.0
136.273361 112.0
136.29892 104.0
136.324478 56.0
136.405624 92.0
136.446106 148.0
136.487198 132.0
136.543747 76.0
136.573242 64.0
136.724472 92.0
136.764053 72.0
136.906067 120.0
137.015076 1592.0
137.164688 68.0
137.222977 148.0
137.250961 48.0
137.274277 60.0
137.344391 64.0
137.474899 60.0
137.626633 100.0
137.67099 64.0
137.804138 48.0
137.862015 104.0
137.977097 28.0
138.020615 504.0
138.082321 112.0
138.098694 40.0
138.236725 84.0
138.281189 156.0
138.324326 28.0
138.648895 40.0
138.744995 76.0
138.822372 108.0
138.859909 84.0
138.969437 52.0
139.011429 808.0
139.172012 56.0
139.198975 92.0
139.249512 104.0
139.295319 40.0
139.343475 172.0
139.390182 32.0
139.437469 92.0
139.479782 48.0
139.551956 176.0
139.6138 144.0
139.823181 28.0
139.922043 56.0
139.950302 76.0
140.016235 116.0
140.03508 76.0
140.242416 68.0
140.332504 136.0
140.400391 72.0
140.431046 80.0
140.690613 148.0
141.009506 124.0
141.055893 208.0
141.236496 88.0
141.487335 52.0
141.655472 76.0
141.688644 44.0
141.894836 68.0
142.207962 164.0
142.457291 164.0
143.035141 36.0
143.070862 112.0
143.18515 180.0
143.278046 64.0
143.385284 184.0
143.547394 144.0
143.922028 128.0
144.471741 60.0
144.519592 108.0
144.629669 68.0
145.051254 148.0
145.147156 48.0
145.629547 156.0
146.095886 60.0
146.430466 152.0
146.483459 136.0
146.61116 108.0
146.968048 204.0
147.180466 152.0
148.40239 48.0
148.535767 60.0
149.400589 116.0
149.563629 56.0
149.651276 112.0
149.682922 176.0
149.709717 112.0
149.755981 80.0
149.887543 156.0
149.916794 64.0
150.33136 108.0
151.750092 108.0
151.968384 172.0
152.000565 140.0
152.022369 180.0
152.060059 300.0
152.46196 176.0
152.629135 80.0
152.656174 44.0
152.712738 120.0
153.010132 324.0
153.182892 152.0
153.523026 64.0
154.001831 148.0
154.31073 144.0
154.803131 84.0
155.008743 120.0
155.502258 108.0
155.656189 156.0
155.795273 132.0
156.546432 124.0
156.578812 112.0
156.887787 140.0
156.915222 88.0
157.074829 144.0
157.234512 48.0
157.356827 132.0
157.471695 144.0
157.636581 128.0
157.954117 160.0
158.086716 172.0
158.339569 232.0
158.565247 152.0
158.78569 116.0
158.974594 2524.0
159.154587 60.0
159.405777 120.0
159.717529 172.0
159.991821 164.0
160.132843 52.0
160.160538 96.0
160.475555 80.0
160.871353 164.0
160.92215 32.0
160.972549 1124.0
161.058517 116.0
161.157043 128.0
161.240433 60.0
161.450272 48.0
161.467972 72.0
161.786804 116.0
161.9785 360.0
162.004211 160.0
162.313812 100.0
162.435547 116.0
162.468521 60.0
162.501511 124.0
162.752792 84.0
162.971237 112.0
163.005142 128.0
163.050003 72.0
163.126266 56.0
163.179657 208.0
163.278824 96.0
163.464539 72.0
163.52562 132.0
163.652893 140.0
163.800613 100.0
163.960236 192.0
164.012115 104.0
164.514633 184.0
164.971924 72.0
165.020493 100.0
165.542496 192.0
165.634705 120.0
166.026855 136.0
166.106369 60.0
166.21669 128.0
166.676331 80.0
166.779129 232.0
166.856247 44.0
167.213806 76.0
167.819183 88.0
168.065445 404.0
168.826248 172.0
169.015091 76.0
169.058151 200.0
169.065399 128.0
169.108261 152.0
169.758545 152.0
169.994614 56.0
170.085449 100.0
170.591995 160.0
170.807831 92.0
170.97525 1632.0
171.03421 136.0
171.174805 48.0
171.255539 108.0
171.445724 136.0
171.615158 116.0
171.703827 52.0
171.732513 64.0
171.909927 128.0
171.943848 40.0
171.983887 1164.0
172.17099 112.0
172.278076 64.0
172.667557 132.0
172.9897 812.0
173.083649 132.0
173.211975 148.0
173.505478 48.0
173.639221 52.0
173.762512 40.0
173.978439 792.0
174.292892 52.0
174.39801 140.0
174.839859 220.0
174.931992 36.0
174.985855 1236.0
175.045197 120.0
175.092606 56.0
175.253296 72.0
175.43515 96.0
175.619736 196.0
175.923203 108.0
175.973358 172.0
175.991837 132.0
176.024643 220.0
176.069427 252.0
176.27977 144.0
177.032791 256.0
177.073975 196.0
177.486847 56.0
178.077225 1772.0
178.12645 80.0
178.267273 40.0
178.301819 56.0
178.331985 92.0
178.424103 128.0
178.455994 84.0
178.668777 80.0
178.700699 52.0
179.028107 112.0
179.08136 596.0
179.118668 164.0
179.891998 204.0
180.09494 172.0
180.364807 152.0
181.58577 72.0
181.867493 52.0
182.840454 60.0
182.899658 124.0
183.352158 232.0
183.427628 140.0
183.977951 152.0
185.243561 148.0
185.505844 152.0
185.875275 56.0
186.024551 224.0
186.249939 52.0
186.603226 48.0
186.973282 164.0
187.626923 100.0
187.907837 88.0
188.969131 324.0
189.041794 148.0
189.219711 160.0
189.789627 176.0
190.345367 192.0
190.725784 156.0
191.047516 168.0
191.603638 60.0
191.768982 104.0
191.996124 124.0
192.022629 200.0
192.116425 128.0
192.248856 72.0
192.317856 172.0
192.66304 148.0
192.707245 48.0
192.803955 72.0
192.939407 148.0
193.014053 160.0
193.051697 6012.0
193.16893 80.0
193.204895 36.0
193.229797 68.0
193.334946 80.0
193.357086 228.0
193.448425 76.0
193.700424 76.0
193.897156 44.0
194.056549 712.0
194.243744 88.0
194.496246 72.0
194.565659 44.0
195.004547 104.0
195.049118 1672.0
195.196381 72.0
195.455078 80.0
195.535782 104.0
195.708374 136.0
195.892181 52.0
196.050415 188.0
196.40509 120.0
196.734375 108.0
196.890732 68.0
197.477661 124.0
197.639923 60.0
198.598022 68.0
199.68219 80.0
199.870667 188.0
199.999924 264.0
200.157791 48.0
201.082458 80.0
201.522995 96.0
201.890472 104.0
201.941376 68.0
201.969666 112.0
202.023407 48.0
202.541443 188.0
202.819138 148.0
202.958054 84.0
203.036407 1756.0
203.116867 80.0
203.341019 84.0
203.636292 28.0
204.021988 148.0
204.047119 144.0
204.848038 96.0
204.941177 228.0
205.048248 668.0
205.079895 284.0
205.495193 92.0
205.683548 120.0
206.59227 60.0
206.612305 80.0
207.035538 172.0
207.322418 196.0
207.37114 160.0
207.425598 108.0
207.511597 84.0
207.583282 180.0
207.660721 72.0
207.804153 52.0
208.016525 100.0
208.102646 88.0
208.547928 160.0
208.634171 84.0
208.887238 68.0
209.367905 56.0
209.661758 136.0
209.753998 96.0
209.984665 88.0
210.793015 100.0
211.030029 136.0
211.322159 36.0
211.492905 68.0
211.704254 128.0
212.039352 1832.0
212.13887 128.0
212.620361 52.0
212.687119 72.0
212.992004 128.0
213.046661 1520.0
213.753723 56.0
213.989502 108.0
214.041428 476.0
214.46434 52.0
214.718002 72.0
214.758835 176.0
214.986404 40.0
215.044266 256.0
215.120667 216.0
215.494492 60.0
216.155319 40.0
216.213852 48.0
216.568115 96.0
217.333267 120.0
217.55632 124.0
217.797119 120.0
218.03511 108.0
219.035873 132.0
219.16806 168.0
219.392059 48.0
219.639771 52.0
219.849243 116.0
219.95845 64.0
220.014542 60.0
220.040268 308.0
221.596054 108.0
221.860596 148.0
221.881348 52.0
222.78949 112.0
222.86377 76.0
223.372147 128.0
223.467346 60.0
224.044937 184.0
224.232666 148.0
225.048431 208.0
225.088852 64.0
225.247147 68.0
226.278885 120.0
226.344757 100.0
227.249985 48.0
227.343002 80.0
227.412033 212.0
228.617203 156.0
229.011612 120.0
230.003632 96.0
230.094193 112.0
231.061325 44.0
231.663788 84.0
231.939545 128.0
232.50975 116.0
232.989517 112.0
233.469772 92.0
233.728348 144.0
233.932266 108.0
233.994644 188.0
234.514069 52.0
235.027466 104.0
235.991608 120.0
236.159805 124.0
236.202621 100.0
236.548416 144.0
237.30513 112.0
237.400177 132.0
238.265762 116.0
239.011612 1228.0
239.946167 36.0
240.009781 280.0
240.847275 48.0
241.007492 488.0
241.360291 32.0
241.969833 32.0
242.011993 160.0
242.191132 104.0
242.381775 216.0
242.697952 80.0
242.955383 68.0
243.262604 48.0
243.383682 84.0
243.737793 36.0
243.939819 40.0
244.110825 48.0
244.751846 48.0
245.399933 132.0
246.523666 52.0
246.633057 44.0
246.773727 204.0
246.898819 88.0
247.007339 1508.0
247.117783 88.0
247.863007 40.0
247.935699 60.0
248.013687 2668.0
248.088669 36.0
248.446182 140.0
249.015442 1640.0
249.271942 44.0
249.356796 72.0
249.705795 76.0
249.749817 56.0
249.951279 116.0
250.010864 1100.0
250.407654 96.0
250.473801 104.0
250.590363 128.0
250.741608 84.0
250.814102 180.0
250.974884 128.0
251.017044 228.0
251.063187 96.0
251.230362 112.0
251.88382 120.0
252.000702 248.0
252.212433 40.0
252.424255 144.0
252.496994 88.0
252.629852 116.0
252.772232 96.0
252.803879 84.0
253.319962 60.0
253.706589 140.0
254.245819 40.0
254.385468 68.0
255.005219 876.0
255.628204 68.0
256.011566 132.0
256.398895 52.0
256.44989 228.0
256.56781 172.0
256.953735 168.0
257.004761 436.0
257.32077 44.0
257.349487 48.0
257.56665 88.0
257.60498 60.0
257.796692 52.0
257.870209 88.0
257.927734 40.0
258.093994 92.0
258.868378 116.0
259.019348 444.0
259.044525 232.0
259.929413 84.0
260.007355 240.0
260.92514 108.0
261.111633 164.0
261.140594 40.0
262.844788 124.0
263.526093 120.0
264.205048 80.0
264.26004 104.0
264.444519 84.0
265.345062 40.0
265.692078 108.0
266.825531 100.0
266.962097 116.0
268.440552 64.0
269.81192 40.0
270.475983 88.0
271.111389 68.0
272.006805 128.0
272.203796 108.0
272.515839 104.0
273.008911 120.0
273.101013 84.0
273.703247 76.0
274.012878 196.0
274.190796 224.0
274.329254 76.0
274.391876 108.0
274.748077 32.0
275.190338 96.0
275.613098 160.0
276.585419 52.0
277.49646 104.0
277.844696 104.0
278.020569 64.0
278.272827 140.0
278.535187 84.0
278.88739 44.0
279.429443 152.0
279.758942 64.0
280.648499 68.0
280.691833 80.0
280.965332 96.0
281.155548 172.0
281.602905 88.0
281.977112 108.0
282.368286 172.0
282.669373 128.0
282.786621 112.0
282.860138 92.0
282.985199 1480.0
283.10791 80.0
283.198334 44.0
283.365845 52.0
283.426147 80.0
283.620514 56.0
283.980408 232.0
284.980957 1236.0
285.349396 88.0
285.74292 144.0
285.837921 132.0
285.980377 340.0
286.079437 236.0
286.992493 116.0
287.549103 116.0
287.782013 92.0
288.457703 56.0
288.592926 72.0
288.904083 36.0
289.719971 104.0
289.81485 124.0
290.289398 48.0
291.188721 96.0
291.378967 72.0
292.082672 92.0
292.317413 72.0
292.45697 76.0
292.572693 52.0
292.909821 88.0
293.465332 68.0
294.263733 104.0
295.234161 172.0
295.60022 128.0
296.007568 52.0
296.069214 32.0
296.257599 72.0
296.73053 116.0
297.196991 80.0
297.423492 56.0
297.656952 60.0
299.183563 208.0
299.875946 132.0
300.27243 96.0
300.68988 96.0
300.938446 76.0
302.116974 48.0
304.300385 48.0
305.127289 88.0
305.18988 136.0
306.976196 56.0
307.112213 184.0
307.285065 124.0
307.325043 88.0
307.349457 128.0
308.260834 92.0
309.096588 144.0
309.597198 136.0
309.814362 76.0
309.922974 44.0
310.308502 96.0
311.473633 132.0
311.758209 64.0
312.158966 144.0
312.366486 48.0
312.507202 148.0
313.433258 36.0
313.535461 192.0
314.879639 116.0
315.084503 68.0
315.292999 76.0
315.582855 160.0
316.810974 196.0
318.115997 76.0
318.293518 92.0
318.968536 80.0
319.751068 44.0
320.178284 84.0
322.022186 144.0
323.058777 128.0
324.082733 92.0
325.054474 48.0
325.24826 144.0
326.757599 268.0
326.941132 136.0
327.319122 104.0
327.373138 48.0
328.501282 52.0
328.584259 52.0
328.623932 56.0
328.656403 192.0
329.663879 60.0
330.209778 32.0
331.136322 80.0
331.295715 128.0
331.567474 84.0
331.654449 120.0
333.283936 144.0
333.934662 36.0
335.234375 124.0
336.146027 48.0
336.251862 60.0
337.0224 196.0
337.153961 232.0
337.68042 124.0
337.782837 188.0
338.917786 64.0
340.399719 164.0
340.535583 104.0
340.763336 76.0
341.233795 60.0
342.006317 164.0
342.245636 148.0
345.830261 204.0
347.805908 176.0
348.745636 68.0
349.78714 48.0
350.986786 72.0
352.554657 172.0
352.894806 132.0
353.504517 100.0
353.695404 88.0
354.189667 148.0
355.167999 112.0
356.70755 180.0
357.636658 164.0
357.725128 104.0
359.740051 52.0
360.412292 152.0
362.641327 108.0
363.210083 52.0
364.04425 96.0
364.360321 60.0
365.866364 84.0
365.942505 128.0
366.022461 100.0
368.463531 48.0
369.591461 132.0
369.955048 148.0
370.039276 28.0
370.196259 160.0
370.88974 104.0
371.591522 92.0
372.159576 60.0
372.689636 156.0
372.724213 232.0
372.816437 104.0
375.102692 132.0
375.391846 124.0
376.082458 140.0
376.14035 72.0
378.13092 60.0
378.382538 56.0
378.719452 160.0
378.82016 52.0
379.575958 164.0
379.614716 68.0
380.0802 136.0
380.111267 60.0
380.159882 136.0
380.285889 148.0
380.324707 136.0
380.355774 64.0
380.619751 72.0
380.763458 148.0
380.848907 56.0
380.938232 176.0
381.03125 17836.0
381.144958 196.0
381.2724 128.0
381.297668 104.0
381.371979 96.0
381.442719 44.0
381.496826 76.0
381.591156 52.0
381.661133 132.0
381.703888 44.0
381.73111 204.0
381.796021 116.0
381.847778 44.0
381.878906 72.0
381.910034 36.0
381.976166 64.0
382.033142 3988.0
382.088959 208.0
382.15387 100.0
382.200836 64.0
382.373016 60.0
382.563751 60.0
382.651398 164.0
382.686401 96.0
382.783142 116.0
382.824646 144.0
382.867462 48.0
382.90448 104.0
382.956818 72.0
382.967316 200.0
383.028961 18792.0
383.144226 80.0
383.214142 128.0
383.264496 52.0
383.35379 72.0
383.389496 48.0
383.420685 36.0
383.47879 44.0
383.51236 48.0
383.57547 56.0
383.61557 168.0
383.64093 36.0
383.701355 140.0
383.787994 108.0
383.861206 60.0
383.943115 68.0
384.030609 2436.0
384.099121 52.0
384.188843 48.0
384.241791 132.0
384.300018 96.0
384.341003 48.0
384.427551 112.0
384.55072 76.0
384.648285 120.0
384.745209 64.0
385.024139 1200.0
385.137421 72.0
385.245483 80.0
385.305023 88.0
385.319275 80.0
385.649261 48.0
385.684448 164.0
385.845703 96.0
385.895569 32.0
386.036316 156.0
386.067596 92.0
386.098907 72.0
386.216217 56.0
386.31012 88.0
386.388367 84.0
386.431396 92.0
386.462708 72.0
386.552704 76.0
386.619232 44.0
386.701416 60.0
386.732727 112.0
386.801819 68.0
387.249542 100.0
387.91568 44.0
389.025848 56.0
389.253571 40.0
389.383179 56.0
390.491516 64.0
390.53479 44.0
390.999695 96.0
392.137268 48.0
394.138062 52.0
394.27243 84.0
395.007874 52.0
395.938019 36.0
397.412659 92.0
399.761078 60.0
399.924255 76.0
404.995178 60.0
406.08139 144.0
406.663177 144.0
408.097321 108.0
408.183258 64.0
408.736877 48.0
408.789185 84.0
409.558167 64.0
413.223694 68.0
414.154785 80.0
415.354584 84.0
416.93808 32.0
420.085541 60.0
420.403778 64.0
426.444702 60.0
427.526367 52.0
430.647369 88.0
432.95105 96.0
433.966278 132.0
435.817474 64.0
438.322388 40.0
438.605804 96.0
439.177063 152.0
440.554565 96.0
441.461578 56.0
444.733673 132.0
449.911407 56.0
455.892242 96.0
458.888916 68.0
459.460419 76.0
461.253998 104.0
464.727234 68.0
471.021362 88.0
473.945953 68.0
474.535431 80.0
475.194702 52.0
480.070831 104.0
485.388367 236.0
485.809418 132.0
490.395752 68.0
492.297241 80.0
493.485901 92.0
497.104828 104.0
498.93927 56.0
499.241608 116.0
502.163208 28.0
503.216339 80.0
504.807068 56.0
507.49826 52.0
509.073273 52.0
509.796539 68.0
514.34552 68.0
521.265869 44.0
521.684021 104.0
523.112427 100.0
523.991394 44.0
527.747742 52.0
530.045532 192.0
536.019287 80.0
540.563171 104.0
542.786682 48.0
546.618958 104.0
548.365356 128.0
549.353943 32.0
552.68512 44.0
555.716675 164.0
556.289185 56.0
559.208252 80.0
565.206421 100.0
567.645935 64.0
570.951172 132.0
571.208008 104.0
573.917908 100.0
574.437744 48.0
577.308289 44.0
578.064148 40.0
580.478455 184.0
581.533936 92.0
587.047363 128.0
591.197144 116.0
591.729614 156.0
593.45929 136.0
593.493225 52.0
593.939392 28.0
595.079834 56.0
596.376892 56.0
596.440125 44.0
598.361694 240.0
600.164429 180.0
600.247314 52.0
600.788696 44.0
601.403564 64.0
602.907837 52.0
604.105774 176.0
605.329407 112.0
605.432251 164.0
608.875061 220.0
615.212219 152.0
617.969971 52.0
618.093689 152.0
618.930237 56.0
619.460144 64.0
620.223267 196.0
620.634766 100.0
622.873047 92.0
624.048035 108.0
624.647644 84.0
627.51123 176.0
629.966614 56.0
630.706177 64.0
631.541199 104.0
632.166626 176.0
632.657104 48.0
633.39325 168.0
634.876831 196.0
639.629883 168.0
640.934265 48.0
643.274475 60.0
644.739197 208.0
645.527832 80.0
647.283813 152.0
648.661865 176.0
649.021851 72.0
649.128296 56.0
650.447449 116.0
652.677795 84.0
653.740906 180.0
653.969971 64.0
654.641968 60.0
654.886475 76.0
655.910645 168.0
661.273804 132.0
662.062256 84.0
662.897278 188.0
662.979309 72.0
664.96405 76.0
666.694824 188.0
666.735962 180.0
669.694336 256.0
670.946533 204.0
671.874817 68.0
672.039917 168.0
672.163757 140.0
673.180725 176.0
673.356262 124.0
673.872864 232.0
674.03302 116.0
674.131226 120.0
674.234558 172.0
674.27594 128.0
675.672058 128.0
676.329285 204.0
676.608826 180.0
678.168091 140.0
678.546509 124.0
680.024902 172.0
680.460205 160.0
683.449585 36.0
685.66803 172.0
686.536987 236.0
687.9422 160.0
689.033691 124.0
690.209717 136.0
690.345703 40.0
690.805969 72.0
692.659058 68.0
694.892334 152.0
695.49585 200.0
695.690063 112.0
696.60907 144.0
696.719421 56.0
697.302673 92.0
698.417358 196.0
699.201294 140.0
699.59082 184.0
701.186829 180.0
701.339661 204.0
701.561096 196.0
702.040894 36.0
702.088379 60.0
702.172729 108.0
702.2677 100.0
702.420654 40.0
702.957092 200.0
703.98822 196.0
704.62207 96.0
704.965515 112.0
705.32489 76.0
707.483215 156.0
708.007446 168.0
708.500061 100.0
709.761475 204.0
710.286499 152.0
710.514648 100.0
710.668518 148.0
710.705627 168.0
711.623901 164.0
711.846924 204.0
712.34613 204.0
712.755249 144.0
714.132141 212.0
715.276184 96.0
715.425232 80.0
717.774902 176.0
717.849548 136.0
719.48761 56.0
722.164795 92.0
723.866638 164.0
724.209412 172.0
724.466553 64.0
724.595093 188.0
724.782654 128.0
725.055969 120.0
725.173828 232.0
725.313232 164.0
726.353516 228.0
726.841736 160.0
727.217346 184.0
727.641479 100.0
728.269775 176.0
729.962646 100.0
730.118652 132.0
730.699585 160.0
730.801819 72.0
732.126038 212.0
732.400696 132.0
733.144226 204.0
733.61853 152.0
733.677856 152.0
737.737549 116.0
739.306152 104.0
739.90155 112.0
740.210205 136.0
740.291382 48.0
740.833069 160.0
745.624268 72.0
746.668152 288.0
747.059753 184.0
749.520691 160.0
749.962158 108.0
751.560059 152.0
751.974792 84.0
752.613464 240.0
752.85376 96.0
753.667664 140.0
754.799194 160.0
758.006958 136.0
758.385071 256.0
758.988159 84.0
759.136169 152.0
760.019348 136.0
761.111694 152.0
761.259949 212.0
761.791077 188.0
762.567444 208.0
762.682922 164.0
763.947632 232.0
764.624451 140.0
765.312561 152.0
765.389648 184.0
767.02594 92.0
768.211548 128.0
768.487366 128.0
769.398071 164.0
770.712585 152.0
771.022034 204.0
772.4375 240.0
773.522095 168.0
774.114502 196.0
774.313843 152.0
775.327759 160.0
776.625122 188.0
776.686096 44.0
777.773682 108.0
778.289978 68.0
779.028687 148.0
781.146667 88.0
781.975769 56.0
782.148315 264.0
782.705017 48.0
783.306519 136.0
784.55481 148.0
784.828003 184.0
785.313171 168.0
785.720398 124.0
785.826416 56.0
786.976196 124.0
787.143677 132.0
787.679871 196.0
787.90332 108.0
788.400635 128.0
788.579468 188.0
788.931641 148.0
789.278259 96.0
789.42926 172.0
789.904663 160.0
790.990234 220.0
791.533325 152.0
791.807739 116.0
793.713074 128.0
793.926208 172.0
795.733032 112.0
796.092407 144.0
796.390076 244.0
796.69342 132.0
796.749573 240.0
799.471069 192.0
800.140869 156.0
800.298523 196.0
801.577209 228.0
802.056213 160.0
803.121948 168.0
803.635315 148.0
805.617004 156.0
806.690674 40.0
808.036682 204.0
809.44043 172.0
809.655579 248.0
809.840149 164.0
810.295715 176.0
810.720642 200.0
812.467102 116.0
813.533997 168.0
813.772461 212.0
814.238098 184.0
815.596008 124.0
816.312378 132.0
816.431824 48.0
818.281128 184.0
818.748108 116.0
819.51709 148.0
820.354919 172.0
821.489746 196.0
822.08313 148.0
822.128784 204.0
822.282837 64.0
822.705261 140.0
824.996094 116.0
825.087585 168.0
826.855103 108.0
827.570679 56.0
828.28656 140.0
828.607361 132.0
829.123047 200.0
829.810913 172.0
830.780151 92.0
830.940796 176.0
831.267883 140.0
831.973877 152.0
834.059143 176.0
834.283325 148.0
834.478821 92.0
834.96759 172.0
835.81897 140.0
836.123962 128.0
836.198792 96.0
836.636292 176.0
836.734131 184.0
838.127991 88.0
838.364258 104.0
838.58905 136.0
840.786438 172.0
840.913391 48.0
841.242432 176.0
841.652344 192.0
842.068115 152.0
842.19519 176.0
842.876953 168.0
844.027222 180.0
845.444519 200.0
845.751282 44.0
845.861206 136.0
845.953857 204.0
846.121765 232.0
846.544434 36.0
847.309021 108.0
848.102905 140.0
848.456543 96.0
848.636292 224.0
848.914612 144.0
849.082764 88.0
849.338013 176.0
849.465576 68.0
850.127014 216.0
850.951294 180.0
851.183533 172.0
851.311279 140.0
851.590088 152.0
852.322083 92.0
853.002075 204.0
853.26947 228.0
854.258118 224.0
854.357056 200.0
855.328857 152.0
855.846985 176.0
856.854614 164.0
856.994446 248.0
857.483948 92.0
857.711304 104.0
858.346741 160.0
859.991943 160.0
860.357178 136.0
860.760559 232.0
861.077942 160.0
861.697144 136.0
862.269836 144.0
863.111633 184.0
863.41571 164.0
863.830994 220.0
865.036499 160.0
865.194519 148.0
865.340881 44.0
865.908936 96.0
866.31311 192.0
866.541565 144.0
866.606018 84.0
867.039673 136.0
867.391357 136.0
868.376404 204.0
869.344421 132.0
869.426575 52.0
869.678955 196.0
869.898499 152.0
872.492798 256.0
872.616211 168.0
873.410156 156.0
873.751343 184.0
874.551636 152.0
874.628174 168.0
875.505432 196.0
875.699829 124.0
875.958984 176.0
876.029663 196.0
876.153381 108.0
876.996033 136.0
877.308472 248.0
877.532532 144.0
878.169373 100.0
878.434814 204.0
879.467468 120.0
880.890564 116.0
881.09729 132.0
881.629089 164.0
882.196533 160.0
882.488831 184.0
882.687256 56.0
883.367432 132.0
883.468018 132.0
883.722412 112.0
883.988708 156.0
884.456238 96.0
885.587158 108.0
885.646423 180.0
885.827454 188.0
886.47583 180.0
887.25824 76.0
887.691101 220.0
887.762268 48.0
888.337585 136.0
888.930908 148.0
889.055542 240.0
889.275146 160.0
890.046875 136.0
890.617004 132.0
890.760376 184.0
891.888611 160.0
892.197693 104.0
892.673401 188.0
893.190796 208.0
894.107117 152.0
894.238037 196.0
894.547546 156.0
894.99408 76.0
895.345459 140.0
896.858765 148.0
897.389343 172.0
898.122864 124.0
898.170593 136.0
898.343567 144.0
898.838806 128.0
899.417725 208.0
900.653748 152.0
901.095825 124.0
901.47821 108.0
901.866699 140.0
902.34491 144.0
902.697693 200.0
903.05658 140.0
903.14032 132.0
903.271912 44.0
903.313782 140.0
903.361633 96.0
903.576965 132.0
903.786377 228.0
903.959961 144.0
904.301086 36.0
905.276917 284.0
905.360779 136.0
906.439087 216.0
907.098328 224.0
907.212219 140.0
907.368103 172.0
907.416077 136.0
908.315613 152.0
908.909607 244.0
909.713867 212.0
910.110107 164.0
910.464417 144.0
910.704651 112.0
910.782715 232.0
910.980957 236.0
911.107117 172.0
911.461609 200.0
911.611816 176.0
911.701965 172.0
912.30304 112.0
913.241089 124.0
913.734375 120.0
914.179626 160.0
914.919983 112.0
915.328735 208.0
915.383606 164.0
916.317261 148.0
916.582336 152.0
917.269409 160.0
917.383972 52.0
917.679382 180.0
917.78186 172.0
918.427185 208.0
918.698608 196.0
918.75293 140.0
919.802979 200.0
920.147034 116.0
921.699341 184.0
922.509216 140.0
922.840942 148.0
923.730774 116.0
923.95459 128.0
924.075623 76.0
924.154236 100.0
924.2995 180.0
924.37207 124.0
924.753357 92.0
924.807861 192.0
925.703857 48.0
926.285278 140.0
927.333557 180.0
928.139832 208.0
928.7099 184.0
928.813049 204.0
929.142456 228.0
929.21344 208.0
929.717102 136.0
930.214783 152.0
932.000366 216.0
932.522949 52.0
932.76001 180.0
932.893799 108.0
933.051819 152.0
934.430359 224.0
934.742737 180.0
934.88269 48.0
935.381775 76.0
935.570496 160.0
935.789673 160.0
935.941895 88.0
936.252502 152.0
937.301819 160.0
937.580566 144.0
938.318176 128.0
938.555969 120.0
939.049927 76.0
939.586731 164.0
940.178589 144.0
940.526489 144.0
941.014893 148.0
941.113281 136.0
941.344604 116.0
941.857666 128.0
942.328064 164.0
942.603027 100.0
943.06134 168.0
943.947815 220.0
944.302551 48.0
944.504395 184.0
944.620605 124.0
944.755188 208.0
944.816406 52.0
945.012146 156.0
945.856689 96.0
946.040344 100.0
946.364868 28.0
947.112 136.0
947.173218 252.0
947.30188 120.0
947.83606 152.0
948.026489 212.0
948.165833 160.0
948.411011 208.0
949.028076 196.0
949.306091 164.0
949.416504 84.0
950.06665 60.0
950.203552 140.0
950.612732 240.0
951.337036 220.0
951.509766 144.0
951.668579 180.0
952.245789 140.0
952.288818 160.0
952.912415 204.0
953.781921 216.0
954.833313 44.0
955.9776 144.0
956.236084 108.0
956.297607 96.0
956.537659 132.0
957.110229 192.0
957.184143 256.0
957.830811 56.0
958.403748 132.0
958.822815 100.0
959.149475 164.0
959.772156 116.0
960.012634 144.0
960.327209 144.0
960.728149 204.0
962.271057 148.0
962.345154 120.0
963.747253 120.0
964.210693 120.0
965.11322 116.0
965.42865 188.0
966.325562 176.0
966.826782 188.0
966.894836 168.0
967.276245 156.0
967.33429 184.0
967.699585 232.0
967.84198 176.0
968.944458 212.0
969.235718 48.0
969.613708 228.0
969.849243 136.0
970.109558 156.0
970.152954 196.0
971.169922 108.0
972.394836 220.0
972.708801 100.0
972.887207 216.0
973.098877 196.0
973.174438 156.0
973.361755 192.0
973.96936 176.0
974.041626 132.0
974.30481 160.0
974.39801 84.0
974.460083 188.0
974.677612 220.0
974.857788 132.0
975.839905 176.0
975.939392 176.0
976.169495 164.0
976.623474 128.0
976.810059 168.0
976.990479 148.0
977.357605 124.0
977.625183 184.0
977.992371 136.0
978.1604 100.0
978.291138 156.0
978.353394 276.0
978.396973 148.0
978.764893 188.0
979.125549 28.0
979.243835 120.0
979.405823 132.0
979.511719 192.0
979.586426 184.0
980.091125 104.0
980.477478 160.0
981.269104 108.0
981.618286 176.0
981.792908 32.0
981.901733 144.0
982.391724 104.0
982.772278 160.0
982.964844 172.0
983.190369 164.0
983.402588 132.0
984.020569 144.0
984.570068 124.0
985.138489 136.0
985.269714 152.0
985.869507 164.0
986.050781 112.0
986.107056 104.0
986.586304 160.0
986.668884 164.0
986.763428 168.0
987.526306 112.0
987.964172 108.0
988.007996 192.0
988.051758 100.0
988.552368 180.0
988.783875 164.0
988.884033 156.0
988.927856 72.0
989.234558 112.0
989.622742 260.0
989.729187 56.0
989.923279 188.0
990.81897 192.0
990.869141 72.0
991.038269 212.0
991.283386 204.0
991.395447 136.0
991.577209 180.0
991.815369 160.0
991.953308 148.0
992.160156 184.0
993.125854 176.0
993.345398 136.0
993.508545 68.0
993.815979 68.0
994.085754 128.0
994.32428 128.0
994.399597 224.0
994.600403 156.0
994.846069 180.0
995.146606 240.0
995.491943 176.0
995.762024 152.0
995.893921 144.0
996.371338 172.0
996.44043 88.0
996.559814 124.0
997.401917 180.0
997.735107 128.0
998.272949 224.0
998.590332 208.0
998.728699 136.0
999.150146 152.0
999.401855 172.0
1000.100403 140.0
1000.389954 124.0
1000.465515 128.0
1000.92511 108.0
1001.114014 108.0
1001.567505 272.0
1001.787964 176.0
1001.989563 144.0
1002.219788 232.0
1002.607117 60.0
1002.689026 216.0
1002.997864 124.0
1003.325684 184.0
1003.426575 160.0
1003.7229 104.0
1003.877136 96.0
1004.580688 112.0
1005.344116 124.0
1005.495605 48.0
1005.987915 204.0
1006.171021 192.0
1006.354126 152.0
1006.633118 168.0
1006.954041 104.0
1007.149841 108.0
1007.238281 112.0
1007.667847 132.0
1007.953369 208.0
1008.160706 180.0
1008.298401 244.0
1008.697937 180.0
1008.868652 128.0
1009.026672 212.0
1009.266968 104.0
1009.861389 156.0
1010.203003 132.0
1010.747131 152.0
1010.943298 116.0
1011.03186 176.0
1011.196411 156.0
1011.652161 172.0
1011.715454 40.0
1011.82074 148.0
1011.937073 64.0
1011.987732 104.0
1012.538635 124.0
1012.791992 168.0
1012.899658 156.0
1013.108704 148.0
1013.216064 184.0
1013.629883 140.0
1013.697998 172.0
1013.938782 88.0
1014.293762 128.0
1014.388428 196.0
1014.515625 124.0
1014.827087 152.0
1015.136963 40.0
1015.294617 188.0
1016.018616 136.0
1016.119446 184.0
1016.137207 164.0
1016.259766 156.0
1016.304138 72.0
1016.703918 136.0
1017.434326 184.0
1018.126038 136.0
1018.297485 116.0
1018.348328 140.0
1018.399109 108.0
1018.812012 160.0
1018.869202 136.0
1019.218628 120.0
1019.313965 156.0
1019.428345 164.0
1019.491882 144.0
1019.657166 192.0
1019.752502 84.0
1019.801392 184.0
1019.949524 112.0
1020.566162 128.0
1020.680664 252.0
1020.769653 76.0
1020.8396 144.0
1020.973145 196.0
1021.024048 60.0
1021.205139 168.0
1021.539246 52.0
1021.698303 204.0
1022.029175 180.0
1022.251892 184.0
1022.430054 240.0
1022.550964 180.0
1022.59552 72.0
1022.761047 92.0
1023.028381 176.0
1023.308472 164.0
1023.582275 148.0
1024.225586 96.0
1024.352905 128.0
1024.522217 140.0
1024.734863 136.0
1024.79248 240.0
1025.302368 176.0
1025.42981 104.0
1025.767578 180.0
1025.812256 84.0
1026.175659 124.0
1026.258545 340.0
1026.328613 156.0
1026.526367 180.0
1026.634766 136.0
1026.683228 208.0
1026.702393 124.0
1026.719116 160.0
1026.883423 160.0
1027.023804 164.0
1027.105347 268.0
1027.35376 184.0
1027.451782 196.0
1027.738281 100.0
1027.802124 156.0
1027.846802 156.0
1027.891479 152.0
1028.044556 168.0
1028.325439 60.0
1028.491333 160.0
1028.631836 216.0
1028.810547 124.0
1028.899902 48.0
1029.187256 132.0
1029.717285 120.0
1030.017456 176.0
1030.126099 72.0
1030.618042 160.0
1030.70105 140.0
1030.790527 140.0
1031.161255 204.0
1031.237915 44.0
1031.845215 128.0
1031.915527 156.0
1032.363159 236.0
1032.977173 124.0
1033.316162 196.0
1033.655396 96.0
1033.83313 224.0
1034.404175 168.0
1034.46814 128.0
1034.929199 156.0
1035.272461 152.0
1035.56311 136.0
1035.876953 100.0
1036.261353 140.0
1036.498535 136.0
1036.86377 48.0
1037.331665 192.0
1037.395752 104.0
1037.577026 160.0
1037.940796 84.0
1038.0177 168.0
1038.152344 128.0
1038.335938 136.0
1038.48584 128.0
1038.594849 116.0
1038.973389 148.0
1039.07605 164.0
1039.172241 88.0
1039.223633 68.0
1039.358398 156.0
1039.409668 160.0
1039.942383 264.0
1040.057861 56.0
1040.244019 132.0
1040.314697 208.0
1040.520142 184.0
1041.162231 124.0
1041.291748 172.0
1041.521851 144.0
1041.682495 180.0
1041.868774 124.0
1042.029419 148.0
1042.177124 188.0
1042.312134 136.0
1042.691284 112.0
1042.819824 104.0
1042.877686 60.0
1043.03064 156.0
1043.154053 132.0
1043.237671 168.0
1043.565552 100.0
1043.713379 120.0
1043.77124 184.0
1044.054199 172.0
1044.49353 216.0
1044.68457 128.0
1045.456665 180.0
1045.533936 80.0
1045.862183 48.0
1046.087524 40.0
1046.304932 192.0
1046.428711 96.0
1046.75708 80.0
1047.41394 284.0
1047.78125 132.0
1048.006714 148.0
1048.265625 180.0
1049.424683 176.0
1049.482788 96.0
1049.714844 164.0
1050.056641 180.0
1050.217896 220.0
1050.740479 176.0
1050.856567 228.0
1051.437378 144.0
1051.53418 100.0
1051.947266 172.0
1052.237793 108.0
1052.440918 288.0
1052.628052 100.0
1052.65625 44.0
1052.668335 136.0
1052.741821 132.0
1053.09668 196.0
1053.322754 112.0
1053.568237 136.0
1053.762085 120.0
1054.256592 168.0
1054.388794 192.0
1054.705566 188.0
1054.854248 108.0
1055.048096 196.0
1055.429565 136.0
1055.839233 160.0
1055.885254 152.0
1055.947021 188.0
1055.998657 176.0
1056.199219 144.0
1056.66748 168.0
1056.88501 124.0
1056.936768 188.0
1057.169678 160.0
1057.460938 160.0
1057.571045 112.0
1057.881714 100.0
1057.927002 124.0
1058.01123 164.0
1058.224854 152.0
1058.296021 116.0
1058.444946 148.0
1059.053711 160.0
1059.176758 108.0
1059.228638 188.0
1059.390625 68.0
1059.61084 204.0
1059.759888 108.0
1060.310669 180.0
1060.524536 204.0
1060.788696 156.0
1060.991333 196.0
1061.075562 156.0
1061.263672 148.0
1061.587891 116.0
1061.639771 112.0
1061.937256 156.0
1062.033813 132.0
1062.14563 88.0
1062.39856 180.0
1062.534058 136.0
1062.976074 132.0
1063.248657 124.0
1063.343384 156.0
1063.443359 216.0
1063.495239 136.0
1064.189941 176.0
1064.334717 224.0
1064.553467 212.0
1064.62439 168.0
1064.728882 120.0
1064.800293 100.0
1064.845825 188.0
1064.919434 160.0
1064.995117 168.0
1065.138062 124.0
1065.257812 132.0
1065.794189 104.0
1065.924194 180.0
1066.004517 252.0
1066.314087 140.0
1066.769165 88.0
1066.853638 180.0
1067.380249 156.0
1067.464844 176.0
1067.568848 68.0
1067.62085 144.0
1067.82251 132.0
1067.916016 140.0
1068.03064 116.0
1068.108643 120.0
1068.291992 184.0
1068.479492 108.0
1068.538086 148.0
1068.739746 116.0
1068.856934 144.0
1068.908936 216.0
1069.088501 108.0
1069.227783 160.0
1069.292969 112.0
1069.813599 200.0
1069.949097 172.0
1070.047974 164.0
1070.157227 232.0
1070.321533 112.0
1070.777344 168.0
1070.894531 208.0
1071.233276 128.0
1071.682495 252.0
1071.982544 176.0
1072.028198 132.0
1072.132446 180.0
1072.231567 188.0
1072.800537 136.0
1072.88208 156.0
1072.953735 156.0
1073.351562 272.0
1073.42981 168.0
1073.534058 200.0
1073.827515 152.0
1073.879761 116.0
1074.446533 144.0
1074.682129 144.0
1074.786499 120.0
1074.972778 232.0
1075.093262 188.0
1075.242554 156.0
1075.504395 60.0
1075.902588 104.0
1076.239868 140.0
1076.44458 144.0
1076.607788 144.0
1076.696045 208.0
1076.829834 216.0
1076.999756 180.0
1077.37854 180.0
1077.764038 164.0
1077.842529 208.0
1078.09729 196.0
1078.280273 148.0
1078.345703 156.0
1078.422485 164.0
1078.737915 128.0
1079.051636 96.0
1079.110474 144.0
1079.280518 168.0
1079.607544 348.0
1079.692505 152.0
1080.137329 144.0
1080.229614 144.0
1080.519409 176.0
1080.55835 112.0
1080.608276 116.0
1080.654053 92.0
1080.713013 148.0
1080.869995 192.0
1081.367432 84.0
1081.432861 172.0
1081.714355 156.0
1081.760132 208.0
1081.955811 152.0
1082.067871 160.0
1082.37561 144.0
1083.187744 200.0
1083.233521 224.0
1083.384277 120.0
1083.46936 144.0
1083.515259 44.0
1083.842896 132.0
1084.013184 112.0
1084.255737 68.0
1084.688354 104.0
1085.311157 88.0
1085.394775 148.0
1085.566895 160.0
1085.639038 240.0
1086.032471 152.0
1086.360474 160.0
1086.577026 156.0
1086.770264 84.0
1087.30542 120.0
1087.462891 260.0
1087.820557 124.0
1087.97229 212.0
1088.276855 84.0
1088.546143 200.0
1088.933594 128.0
1089.045288 48.0
1089.183228 112.0
1089.354004 228.0
1089.47876 152.0
1089.583984 132.0
1089.669312 200.0
1089.774414 128.0
1089.856079 172.0
1090.135864 68.0
1090.293579 200.0
1090.352783 100.0
1090.451294 196.0
1090.87207 200.0
1091.220459 108.0
1091.305908 136.0
1091.437378 124.0
1091.674194 152.0
1091.973145 164.0
1092.187134 92.0
1092.404297 168.0
1092.449463 160.0
1092.858154 168.0
1093.062134 172.0
1093.384644 244.0
1093.704712 164.0
1093.837769 148.0
1093.924316 236.0
1094.141602 40.0
1094.255127 180.0
1094.484009 160.0
1094.602539 124.0
1095.043823 108.0
1095.228149 112.0
1095.412598 96.0
1095.544434 156.0
1095.656372 144.0
1096.038574 140.0
1096.137329 236.0
1096.190063 108.0
1096.513062 260.0
1096.664551 276.0
1096.750244 228.0
1096.835938 64.0
1097.01001 224.0
1097.215332 208.0
1097.47876 144.0
1097.53479 76.0
1097.633667 108.0
1097.950317 208.0
1098.134888 228.0
1098.510864 80.0
1098.735229 188.0
1099.025513 100.0
1099.276245 40.0
1099.467651 136.0
1099.619507 140.0
1099.843872 200.0
1099.890015 120.0
1099.942871 124.0
1100.206909 208.0
1100.38501 208.0
1100.457764 164.0
1100.735107 140.0
1101.098389 100.0
1101.283325 140.0
1101.514526 184.0
1101.706055 112.0
1101.798584 176.0
1101.963257 180.0
1102.094482 336.0
1102.227783 128.0
1102.42627 84.0
1102.522583 180.0
1102.763306 204.0
1102.83606 356.0
1103.192993 116.0
1103.347412 240.0
1103.602905 136.0
1103.797363 192.0
1104.085693 176.0
1104.204712 124.0
1104.32373 192.0
1104.396484 72.0
1104.482422 124.0
1104.667725 160.0
1104.819824 172.0
1104.932373 164.0
1105.018311 116.0
1105.071289 260.0
1105.197021 144.0
1105.249878 124.0
1105.296265 188.0
1105.37561 188.0
1105.6073 108.0
1105.771362 180.0
1106.110229 92.0
1106.156616 156.0
1106.302246 132.0
1106.454468 268.0
1106.646484 244.0
1106.727417 148.0
1106.904785 136.0
1107.00415 112.0
1107.076904 160.0
1107.202759 96.0
1107.275635 132.0
1107.335205 128.0
1107.606812 176.0
1107.676025 136.0
1107.726074 164.0
1107.825439 176.0
1108.010864 136.0
1108.283691 160.0
1108.434937 172.0
1108.713257 160.0
1108.832642 268.0
1109.011597 132.0
1109.084473 148.0
1109.331177 168.0
1109.508667 108.0
1109.581787 164.0
1109.714233 176.0
1109.853516 164.0
1110.019287 116.0
1110.19165 32.0
1110.476807 128.0
1111.312744 144.0
1111.518433 140.0
1111.651123 164.0
1111.77124 160.0
1111.82373 68.0
1111.879883 120.0
1111.963013 204.0
1112.05603 132.0
1112.321533 216.0
1112.514038 156.0
1112.603271 100.0
1113.304077 92.0
1113.350586 156.0
1113.459229 160.0
1113.576416 76.0
1113.66272 264.0
1113.855347 144.0
1114.299072 212.0
1114.322388 168.0
1114.57959 228.0
1114.672607 172.0
1115.018188 192.0
1115.264038 116.0
1115.406372 128.0
1115.609741 128.0
1115.682861 120.0
1115.919067 144.0
1116.075195 132.0
1116.203247 208.0
1116.364136 208.0
1116.480835 100.0
1116.6604 212.0
1116.726929 100.0
1116.82666 208.0
1116.973022 164.0
1117.026245 200.0
1117.089478 128.0
1117.345947 156.0
1117.545166 156.0
1117.60498 108.0
1117.704834 188.0
1117.813232 128.0
1117.944336 296.0
1118.001831 248.0
1118.050903 132.0
1118.34375 68.0
1118.476807 96.0
1118.723145 176.0
1119.78186 164.0
1119.975098 104.0
1120.214844 108.0
1120.341431 116.0
1120.69458 180.0
1120.927734 160.0
1121.340942 204.0
1121.507568 160.0
1121.660889 192.0
1122.10083 160.0
1122.154175 144.0
1122.200928 204.0
1122.440918 112.0
1122.692627 136.0
1122.96106 152.0
1123.307983 164.0
1123.381958 180.0
1123.514771 124.0
1123.758179 160.0
1123.851685 112.0
1123.935059 68.0
1124.338379 200.0
1124.435669 152.0
1124.609131 120.0
1124.690918 140.0
1124.742676 156.0
1124.869507 172.0
1124.949585 36.0
1125.023071 180.0
1125.176514 92.0
1125.249023 112.0
1125.483643 140.0
1126.097168 124.0
1126.328613 124.0
1126.432007 208.0
1126.540283 204.0
1126.652466 64.0
1126.699341 120.0
1126.852905 176.0
1127.189819 204.0
1127.300659 148.0
1127.44104 196.0
1127.494507 156.0
1127.547974 128.0
1127.895508 128.0
1127.955688 144.0
1128.009155 148.0
1128.420898 144.0
1128.523926 88.0
1128.597412 104.0
1128.650391 188.0
1128.811401 164.0
1128.906128 176.0
1129.005371 232.0
1129.266235 48.0
1129.721069 120.0
1129.850586 200.0
1129.941772 228.0
1130.409058 168.0
1130.496094 116.0
1130.617676 180.0
1130.691284 200.0
1130.738159 120.0
1130.790649 172.0
1131.164917 200.0
1131.434326 180.0
1131.715454 104.0
1131.793701 196.0
1131.862793 160.0
1132.052979 240.0
1132.197632 132.0
1132.343506 160.0
1132.387329 152.0
1132.525879 144.0
1132.780396 60.0
1132.847412 176.0
1133.025024 160.0
1133.126099 228.0
1133.208618 152.0
1133.651367 140.0
1134.180908 160.0
1134.2948 164.0
1134.36853 172.0
1134.96521 248.0
1135.059082 160.0
1135.173096 152.0
1135.313965 140.0
1135.548706 92.0
1135.850464 152.0
1135.960693 184.0
1136.045044 40.0
1136.112183 104.0
1136.23291 148.0
1136.320068 136.0
1136.541504 156.0
1136.903931 120.0
1137.051514 152.0
1137.165649 84.0
1137.286499 212.0
1137.42749 132.0
1137.669067 172.0
1137.870483 116.0
1138.309448 124.0
1138.535278 60.0
1138.799316 208.0
1138.944946 336.0
1138.990601 148.0
1139.139771 188.0
1139.305298 188.0
1139.485107 136.0
1139.704102 92.0
1140.161133 104.0
1140.322388 156.0
1140.373657 128.0
1140.577759 84.0
1140.690063 256.0
1140.806396 112.0
1141.055176 176.0
1141.411499 396.0
1141.539307 148.0
1141.660278 144.0
1141.776855 144.0
1142.211792 184.0
1142.468018 196.0
1142.541504 140.0
1142.918213 136.0
1143.012451 144.0
1143.146973 116.0
1143.227783 148.0
1143.436401 132.0
1143.523926 208.0
1143.698853 132.0
1143.880615 108.0
1143.954712 156.0
1144.03064 212.0
1144.279663 236.0
1144.38562 28.0
1144.614502 164.0
1144.675171 108.0
1144.803101 76.0
1144.904053 124.0
1145.025269 72.0
1145.07251 188.0
1145.200439 168.0
1145.247559 100.0
1145.363525 136.0
1145.444458 136.0
1145.577637 144.0
1145.654541 152.0
1145.968384 148.0
1146.057251 220.0
1146.251343 216.0
1146.312012 184.0
1146.541138 120.0
1146.687378 144.0
1147.060181 76.0
1147.248901 180.0
1147.30957 264.0
1147.354858 244.0
1147.451172 136.0
1147.626465 132.0
1147.676147 192.0
1147.754639 152.0
1147.875977 180.0
1148.145752 120.0
1148.422241 216.0
1148.469482 60.0
1148.692017 180.0
1148.752808 148.0
1148.827026 76.0
1148.880981 112.0
1149.211548 184.0
1149.350464 144.0
1149.501709 188.0
1149.653931 128.0
1149.717651 184.0
1149.785156 68.0
1149.92688 116.0
1150.028076 216.0
1150.115845 92.0
1150.264404 116.0
1150.338623 88.0
1150.399414 228.0
1150.607788 92.0
1150.778687 228.0
1150.851685 80.0
1150.932739 188.0
1151.142822 212.0
1151.263672 168.0
1151.405396 104.0
1151.601318 164.0
1151.851196 72.0
1151.972778 120.0
1152.182251 112.0
1152.337646 80.0
1152.493042 148.0
1152.705322 188.0
1152.813843 100.0
1152.925537 76.0
1153.053955 164.0
1153.121582 148.0
1153.297241 124.0
1153.371582 392.0
1153.608154 276.0
1153.796997 204.0
1153.893066 180.0
1153.946289 164.0
1154.155884 168.0
1154.412842 116.0
1154.469482 52.0
1154.602173 76.0
1154.859131 216.0
1154.980957 160.0
1155.055298 252.0
1155.15686 132.0
1155.244629 184.0
1155.359741 128.0
1155.41394 160.0
1155.508545 220.0
1155.691284 100.0
1155.742554 112.0
1155.792725 164.0
1155.969849 176.0
1156.045654 188.0
1156.449219 104.0
1156.645508 120.0
1156.713257 124.0
1156.848633 168.0
1156.943359 88.0
1157.134644 48.0
1157.387695 184.0
1157.464722 120.0
1157.654297 148.0
1157.764893 204.0
1157.830444 208.0
1158.096558 172.0
1158.304565 140.0
1158.704224 144.0
1158.7677 160.0
1158.825195 160.0
1158.914307 84.0
1158.98877 48.0
1159.141602 212.0
1159.320801 148.0
1159.415771 128.0
1159.52417 140.0
1159.869873 140.0
1159.9729 164.0
1160.079956 164.0
1160.256226 132.0
1160.519409 128.0
1160.751221 48.0
1160.893677 132.0
1161.02356 176.0
1161.169922 176.0
1161.307373 184.0
1161.381958 192.0
1161.470093 156.0
1161.619385 140.0
1161.676514 256.0
1161.824951 160.0
1162.27063 140.0
1162.402222 136.0
1162.54895 120.0
1162.98999 128.0
1163.051147 148.0
1163.160156 140.0
1163.234375 172.0
1163.328003 164.0
1163.372803 208.0
1163.546753 60.0
1163.628174 92.0
1163.723267 172.0
1163.784302 196.0
1163.906494 140.0
1163.989258 160.0
1164.077393 124.0
1164.170776 216.0
1164.232544 132.0
1164.349854 148.0
1164.415894 92.0
1164.5979 164.0
1164.849487 152.0
1164.911743 168.0
1165.163086 172.0
1165.262451 120.0
1165.332886 140.0
1165.523193 168.0
1165.620483 124.0
1166.11438 176.0
1166.161987 76.0
1166.393066 100.0
1166.508667 148.0
1166.666748 140.0
1166.814575 180.0
1166.88147 168.0
1167.150757 36.0
1167.433228 164.0
1167.562622 192.0
1167.644165 116.0
1167.696655 168.0
1167.780273 164.0
1167.855103 132.0
1167.957031 152.0
1168.045532 140.0
1168.113525 236.0
1168.167969 148.0
1168.235962 144.0
1168.283569 140.0
1168.426514 104.0
1168.699341 188.0
1168.748901 144.0
1168.855103 60.0
1169.018433 192.0
1169.06604 196.0
1169.283813 164.0
1169.367065 184.0
1169.433594 164.0
1169.665039 136.0
1169.787598 160.0
1169.945557 176.0
1169.986328 164.0
1170.11438 140.0
1170.352661 188.0
1170.42749 108.0
1170.522827 72.0
1170.577393 116.0
1170.808838 148.0
1170.861328 204.0
1170.955444 260.0
1171.122192 168.0
1171.258423 144.0
1171.401489 168.0
1171.496826 192.0
1171.564941 112.0
1171.694458 176.0
1171.851074 120.0
1172.007812 156.0
1172.069092 108.0
1172.512085 144.0
1172.5802 160.0
1172.734619 164.0
1172.852905 164.0
1172.996094 144.0
1173.052734 164.0
1173.183105 208.0
1173.268677 144.0
1173.33606 132.0
1173.352661 116.0
1173.595947 152.0
1173.691406 176.0
1173.87561 144.0
1174.025635 112.0
1174.12793 136.0
1174.264282 132.0
1174.421143 108.0
1174.795166 92.0
1175.007812 148.0
1175.198853 204.0
1175.4104 132.0
1175.765259 208.0
1175.819824 80.0
1175.908569 152.0
1176.02832 132.0
1176.187866 204.0
1176.256714 140.0
1176.304443 160.0
1176.441406 128.0
1176.550293 176.0
1176.871094 152.0
1177.011475 124.0
1177.130615 148.0
1177.414429 172.0
1177.560913 192.0
1177.786255 76.0
1177.847778 212.0
1177.90918 328.0
1178.291382 132.0
1178.414917 144.0
1178.626587 192.0
1178.701782 108.0
1178.824707 212.0
1178.887207 144.0
1179.224609 132.0
1179.296265 196.0
1179.357788 148.0
1179.781616 148.0
1179.863647 136.0
1180.245117 152.0
1180.407349 136.0
1180.520142 312.0
1180.588623 172.0
1180.677368 92.0
1180.738892 176.0
1180.871338 168.0
1181.286133 84.0
1181.375122 132.0
1181.535889 164.0
1181.677979 160.0
1181.778687 244.0
1181.897705 184.0
1182.018188 200.0
1182.13147 168.0
1182.175659 272.0
1182.360352 108.0
1182.57251 64.0
1182.695801 136.0
1182.753906 180.0
1182.839478 120.0
1183.017456 60.0
1183.236572 208.0
1183.459839 180.0
1183.557617 152.0
1183.859741 112.0
1184.003052 136.0
1184.295044 196.0
1184.316895 112.0
1184.334595 168.0
1184.798096 168.0
1184.852905 88.0
1184.981812 112.0
1185.044678 144.0
1185.216064 120.0
1185.312012 148.0
1185.469604 148.0
1185.762817 128.0
1185.873901 140.0
1185.929565 160.0
1186.038452 192.0
1186.280396 176.0
1186.330688 168.0
1186.538818 172.0
1186.622803 116.0
1186.744507 172.0
1187.059937 108.0
1187.21167 136.0
1187.306885 204.0
1187.390503 184.0
1187.845581 152.0
1187.95166 96.0
1188.047607 104.0
1188.102539 152.0
1188.459351 112.0
1188.521118 164.0
1188.610229 88.0
1188.721191 100.0
1188.87793 128.0
1189.172974 68.0
1189.296509 92.0
1189.475586 144.0
1189.749634 160.0
1189.96936 128.0
1190.149902 104.0
1190.223389 184.0
1190.271484 148.0
1190.626099 252.0
1190.71875 148.0
1191.047485 124.0
1191.109375 260.0
1191.198608 176.0
1191.334473 140.0
1191.439087 68.0
1191.583374 180.0
1191.933716 196.0
1192.023071 128.0
1192.245605 156.0
1192.30481 116.0
1192.427246 120.0
1192.559204 76.0
1192.806641 128.0
1192.964722 96.0
1193.040405 32.0
1193.219116 32.0
1193.350342 180.0
1193.423584 124.0
1193.624756 64.0
1193.768799 156.0
1194.074341 176.0
1194.346924 172.0
1194.532837 176.0
1194.68396 160.0
1194.738037 136.0
1194.876587 128.0
1195.101318 140.0
1195.227539 120.0
1195.418945 160.0
1195.544067 64.0
1195.599121 144.0
1195.805542 116.0
1195.860596 140.0
1195.908813 160.0
1195.984497 192.0
1196.317627 180.0
1196.394775 176.0
1196.414795 104.0
1196.610962 156.0
1196.769409 216.0
1197.041748 248.0
1197.210083 128.0
1197.39502 208.0
1197.422119 176.0
1197.595825 48.0
1197.947021 200.0
1198.140015 232.0
1198.207397 168.0
1198.308472 116.0
1198.529419 172.0
1198.600708 156.0
1198.64978 196.0
1198.766968 204.0
1198.835938 208.0
1198.959961 124.0
1199.194336 148.0
1199.573364 144.0
1200.035278 180.0
1200.083618 128.0
1200.285522 184.0
1200.352539 140.0
1200.44751 204.0
1200.531738 152.0
1200.661255 200.0
1201.165283 176.0
1201.318115 88.0
1201.456055 188.0
1201.571411 308.0
1201.817383 140.0
1201.869141 192.0
1202.063232 160.0
1202.387939 168.0
1202.446655 192.0
1202.601562 240.0
1202.822388 52.0
1202.949951 160.0
1203.026733 176.0
1203.181396 148.0
1203.285034 64.0
1203.425049 172.0
1203.706177 180.0
1203.81665 152.0
1203.927124 152.0
1204.134399 164.0
1204.348511 116.0
1204.403687 100.0
1204.700806 88.0
1204.783691 148.0
1204.859619 128.0
1204.984009 148.0
1205.246582 192.0
1205.30188 128.0
1205.35022 96.0
1205.430176 92.0
1205.48584 140.0
1205.619751 152.0
1205.764893 72.0
1205.972168 140.0
1206.227905 136.0
1206.469971 124.0
1206.59436 140.0
1206.661011 188.0
1206.787964 124.0
1206.877808 112.0
1207.112915 184.0
1207.456177 148.0
1207.575684 180.0
1207.594727 164.0
1207.763062 128.0
1207.949829 192.0
1208.122803 164.0
1208.233398 72.0
1208.351074 104.0
1208.49939 220.0
1208.835449 128.0
1208.883911 124.0
1209.030762 200.0
1209.131836 140.0
1209.216064 108.0
1209.316528 160.0
1209.479126 116.0
1209.562134 164.0
1209.767944 276.0
1209.983276 148.0
1210.081421 72.0
1210.150635 208.0
1210.236328 64.0
1210.392944 180.0
1210.515259 216.0
1210.64917 128.0
1210.746094 164.0
1210.801514 112.0
1211.023193 188.0
1211.098511 124.0
1211.237915 60.0
1211.452637 132.0
1211.585327 200.0
1211.743652 200.0
1211.809692 352.0
1211.97229 104.0
1212.020752 164.0
1212.069214 160.0
1212.297974 68.0
1212.39502 104.0
1212.533569 144.0
1212.637573 116.0
1212.732788 220.0
1212.831177 180.0
1212.997925 180.0
1213.157104 168.0
1213.490234 128.0
1213.55957 160.0
1213.63501 148.0
1213.7052 144.0
1213.767578 124.0
1213.892334 108.0
1214.044922 140.0
1214.37085 208.0
1214.730835 224.0
1214.794067 104.0
1215.015991 92.0
1215.106201 164.0
1215.487793 84.0
1215.703003 192.0
1215.800171 180.0
1215.904175 136.0
1215.952759 120.0
1216.140259 96.0
1216.290039 164.0
1216.354004 132.0
1216.758057 320.0
1216.955688 160.0
1217.119141 140.0
1217.216309 148.0
1217.327393 160.0
1217.598267 112.0
1217.655518 144.0
1217.849121 128.0
1217.959473 120.0
1218.119141 160.0
1218.308838 196.0
1218.584717 148.0
1218.737549 116.0
1218.904297 88.0
1218.975952 180.0
1219.039429 164.0
1219.116577 172.0
1219.349243 152.0
1219.599487 180.0
1219.814697 184.0
1219.870361 120.0
1220.010986 104.0
1220.157471 200.0
1220.259644 168.0
1220.34314 156.0
1220.44043 168.0
1220.489136 140.0
1220.537842 184.0
1220.621216 144.0
1220.683838 204.0
1220.818848 128.0
1220.899414 184.0
1220.968994 120.0
1221.0802 100.0
1221.148926 160.0
1221.172363 212.0
1221.248901 188.0
1221.657593 124.0
1221.977661 172.0
1222.070557 208.0
1222.137695 220.0
1222.231445 248.0
1222.348022 124.0
1222.411377 160.0
1222.733398 148.0
1222.833496 64.0
1222.944946 132.0
1223.042358 148.0
1223.118896 120.0
1223.174561 128.0
1223.333862 220.0
1223.446167 280.0
1223.522705 188.0
1223.627075 156.0
1223.717651 168.0
1223.884766 136.0
1224.056152 52.0
1224.276367 168.0
1224.410156 204.0
1224.511475 228.0
1224.595093 116.0
1224.67334 188.0
1224.831909 208.0
1224.957153 156.0
1225.082642 140.0
1225.305664 188.0
1225.35437 116.0
1225.458862 148.0
1225.702759 136.0
1225.765503 108.0
1225.869995 140.0
1225.939697 52.0
1226.12085 128.0
1226.23645 144.0
1226.384521 180.0
1226.51123 164.0
1226.589233 168.0
1226.699463 88.0
1226.893433 176.0
1226.999146 140.0
1227.180298 148.0
1227.403564 148.0
1227.501221 164.0
1227.766235 188.0
1227.901123 116.0
1227.996338 152.0
1228.087036 116.0
1228.175659 80.0
1228.296265 152.0
1228.390259 156.0
1228.449829 152.0
1228.533447 168.0
1228.680054 156.0
1228.77771 152.0
1229.112549 136.0
1229.375 208.0
1229.61792 240.0
1229.698853 88.0
1229.769165 136.0
1230.071655 124.0
1230.124634 152.0
1230.200928 176.0
1230.258667 140.0
1230.489014 168.0
1230.625732 188.0
1230.822754 212.0
1230.892578 196.0
1231.22168 152.0
1231.30603 200.0
1231.388428 192.0
1231.563721 124.0
1231.863403 96.0
1231.949585 332.0
1232.114868 60.0
1232.429321 124.0
1232.604004 160.0
1232.71582 192.0
1233.107178 196.0
1233.248901 180.0
1233.306274 192.0
1233.347046 136.0
1233.476562 128.0
1233.561523 192.0
1233.635864 164.0
1233.764282 96.0
1233.869141 44.0
1233.960083 156.0
1234.071899 108.0
1234.148804 116.0
1234.336426 140.0
1234.395874 176.0
1234.509644 232.0
1234.701294 132.0
1234.828369 156.0
1234.974243 136.0
1235.043945 36.0
1235.12085 36.0
1235.204834 88.0
1235.330811 72.0
1235.563599 156.0
1235.636597 268.0
1235.771484 60.0
1235.932495 132.0
1236.191406 244.0
1236.247192 408.0
1236.405762 120.0
1236.520264 236.0
1236.751221 180.0
1236.800293 148.0
1237.38623 232.0
1237.47229 124.0
1237.640381 152.0
1237.92749 256.0
1237.983521 160.0
1238.032471 216.0
1238.242676 184.0
1238.305664 152.0
1238.536743 160.0
1238.774902 180.0
1238.922119 132.0
1238.992188 116.0
1239.202271 112.0
1239.327881 188.0
1239.391479 132.0
1239.503662 72.0
1239.709229 232.0
1240.081055 288.0
1240.093994 112.0
1240.130371 204.0
1240.260498 208.0
1240.459106 288.0
1240.730225 172.0
1240.824097 168.0
1241.049561 240.0
1241.185913 188.0
1241.316406 164.0
1241.592651 152.0
1241.772705 120.0
1242.251953 132.0
1242.310425 376.0
1242.451538 100.0
1242.715088 152.0
1242.939575 164.0
1243.149048 180.0
1243.234497 128.0
1243.360596 152.0
1243.465942 136.0
1243.551758 172.0
1243.823853 160.0
1243.945312 144.0
1244.020386 156.0
1244.083618 72.0
1244.146851 144.0
1244.238037 160.0
1244.315308 148.0
1244.444214 132.0
1244.609863 228.0
1244.669312 76.0
1244.771729 168.0
1244.978638 152.0
1245.052612 124.0
1245.099121 148.0
1245.291382 176.0
1245.416626 172.0
1245.548096 132.0
1245.566528 204.0
1245.677734 120.0
1245.769043 188.0
1245.916626 168.0
1245.997681 152.0
1246.134399 128.0
1246.352173 104.0
1246.401367 140.0
1246.605225 192.0
1246.802002 156.0
1247.237061 164.0
1247.322021 132.0
1247.382446 176.0
1247.518921 80.0
1247.856323 208.0
1248.095459 228.0
1248.16626 168.0
1248.348511 160.0
1248.425903 248.0
1248.510376 140.0
1248.594727 216.0
1248.759033 140.0
1248.869019 136.0
1249.015991 184.0
1249.153564 240.0
1249.248901 316.0
1249.326294 108.0
1249.462036 188.0
1249.56543 112.0
1249.628784 212.0
1249.776489 152.0
1249.843994 128.0
1249.896118 220.0
1249.966553 120.0
1250.048584 116.0
1250.163574 144.0
1250.409912 160.0
1250.505127 112.0
1250.585205 128.0
1251.053467 364.0
1251.156006 116.0
1251.282715 216.0
1251.360352 160.0
1251.571411 204.0
1251.810913 108.0
1251.937622 76.0
1252.050293 128.0
1252.106689 120.0
1252.289795 148.0
1252.424072 156.0
1252.571533 112.0
1252.930786 124.0
1252.994141 148.0
1253.077148 176.0
1253.261963 112.0
1253.353516 120.0
1253.480347 120.0
1253.727051 148.0
1253.815674 228.0
1253.91333 136.0
1253.973633 128.0
1254.037109 148.0
1254.086426 144.0
1254.165894 180.0
1254.302979 204.0
1254.579956 88.0
1254.678589 208.0
1254.81958 128.0
1254.932373 140.0
1254.992798 196.0
1255.087524 204.0
1255.393555 160.0
1255.489502 256.0
1255.552979 108.0
1255.798218 160.0
1255.877441 124.0
1255.954956 304.0
1256.258301 128.0
1256.482788 172.0
1256.511841 140.0
1256.752197 156.0
1256.836914 236.0
1257.203857 44.0
1257.484985 184.0
1257.765503 180.0
1257.824951 156.0
1257.923706 212.0
1258.015503 144.0
1258.206177 292.0
1258.262573 172.0
1258.345947 120.0
1258.516724 144.0
1258.580322 140.0
1258.700317 136.0
1258.820435 220.0
1258.869873 164.0
1258.96875 80.0
1259.147095 152.0
1259.318237 180.0
1259.428345 152.0
1259.576172 220.0
1259.675049 228.0
1259.738647 96.0
1259.837769 124.0
1259.936401 152.0
1260.098877 224.0
1260.522827 236.0
1260.600586 108.0
1260.664185 128.0
1260.819702 180.0
1260.883301 168.0
1261.123535 88.0
1261.201294 188.0
1261.55481 164.0
1261.680054 184.0
1261.733276 148.0
1261.858765 116.0
1261.959106 220.0
1262.045898 104.0
1262.148682 124.0
1262.318359 148.0
1262.556396 152.0
1262.643677 204.0
1262.769165 204.0
1262.891235 44.0
1263.150391 56.0
1263.280273 144.0
1263.385742 124.0
1263.401978 156.0
1263.478394 168.0
1263.581543 96.0
1263.753784 152.0
1263.853394 128.0
1263.998657 60.0
1264.420898 104.0
1264.504395 148.0
1264.589355 148.0
1264.830078 152.0
1264.950317 144.0
1265.00769 180.0
1265.091919 180.0
1265.197632 188.0
1265.252686 352.0
1265.403442 144.0
1265.474243 176.0
1265.670532 196.0
1265.821167 160.0
1265.977417 316.0
1266.044556 228.0
1266.144531 152.0
1266.217773 228.0
1266.338257 160.0
1266.594604 156.0
1266.692383 128.0
1266.741943 144.0
1266.864868 168.0
1266.933228 184.0
1267.082031 156.0
1267.144165 104.0
1267.237915 376.0
1267.364502 64.0
1267.50769 160.0
1267.599609 156.0
1267.748047 132.0
1267.918213 152.0
1268.067017 180.0
1268.14502 132.0
1268.353516 136.0
1268.447144 152.0
1268.709839 156.0
1268.875122 76.0
1269.002686 148.0
1269.073608 120.0
1269.236694 144.0
1269.321777 196.0
1269.598389 140.0
1269.658936 140.0
1269.718994 84.0
1269.942749 144.0
1270.009766 152.0
1270.066528 132.0
1270.171875 160.0
1270.275269 156.0
1270.371582 92.0
1270.470947 220.0
1270.818481 128.0
1271.173218 56.0
1271.329346 96.0
1271.691406 76.0
1271.840454 156.0
1271.911377 160.0
1271.997437 168.0
1272.27063 140.0
1272.382935 96.0
1272.47937 172.0
1272.53064 192.0
1272.706543 104.0
1272.834351 160.0
1273.011841 140.0
1273.123779 136.0
1273.182373 144.0
1273.253296 124.0
1273.622681 112.0
1273.693726 112.0
1273.805786 220.0
1273.894409 108.0
1273.968018 196.0
1274.037231 188.0
1274.150635 160.0
1274.289795 124.0
1274.432617 112.0
1274.539185 200.0
1274.828491 176.0
1274.922852 132.0
1274.986816 80.0
1275.036621 100.0
1275.093384 104.0
1275.317627 204.0
1275.478027 184.0
1275.54126 48.0
1275.605225 124.0
1275.854004 64.0
1275.950073 144.0
1276.095703 88.0
1276.206299 148.0
1276.323242 128.0
1276.373047 148.0
1276.422852 276.0
1276.600586 200.0
1276.857788 124.0
1276.949097 160.0
1277.141113 68.0
1277.197998 148.0
1277.418579 300.0
1277.468384 136.0
1277.748535 248.0
1277.866821 120.0
1277.916626 108.0
1278.07312 176.0
1278.147217 104.0
1278.208252 232.0
1278.322144 132.0
1278.38623 128.0
1278.450195 172.0
1278.529053 176.0
1278.708252 368.0
1278.841675 180.0
1278.955566 148.0
1279.033936 120.0
1279.09082 56.0
1279.172729 156.0
1279.233154 284.0
1279.308716 72.0
1279.480103 164.0
1279.693359 164.0
1279.751465 148.0
1279.824097 180.0
1279.888184 76.0
1279.973511 108.0
1280.116089 164.0
1280.279907 268.0
1280.365356 112.0
1280.443726 192.0
1280.50061 72.0
1280.600342 132.0
1280.807739 180.0
1280.977905 132.0
1281.034912 48.0
1281.19873 152.0
1281.291382 124.0
1281.412476 116.0
1281.469482 140.0
1281.611938 164.0
1281.70459 68.0
1281.804321 88.0
1281.911255 212.0
1282.018188 136.0
1282.103882 160.0
1282.180908 124.0
1282.353149 156.0
1282.402954 140.0
1282.481445 100.0
1282.559814 92.0
1282.641724 220.0
1282.730835 48.0
1283.001831 116.0
1283.126953 200.0
1283.289673 164.0
1283.450928 136.0
1283.500854 144.0
1283.550781 100.0
1283.620728 184.0
1283.764771 140.0
1283.864624 156.0
1284.038208 180.0
1284.1427 104.0
1284.29248 104.0
1284.401367 212.0
1284.535034 200.0
1284.613525 288.0
1284.727661 132.0
1284.79895 100.0
1284.863159 196.0
1285.269897 136.0
1285.393677 136.0
1285.588379 176.0
1285.683716 120.0
1285.762329 188.0
1285.808105 160.0
1285.980713 120.0
1286.104858 132.0
1286.254761 116.0
1286.383301 172.0
1286.483154 80.0
1286.533203 144.0
1286.668823 136.0
1287.030151 164.0
1287.447144 104.0
1287.654297 108.0
1287.723145 160.0
1287.800171 248.0
1288.02771 152.0
1288.098145 116.0
1288.188721 156.0
1288.225342 96.0
1288.244385 148.0
1288.390015 140.0
1288.564087 132.0
1288.753662 164.0
1288.78125 148.0
1288.807739 276.0
1288.954468 220.0
1289.073853 56.0
1289.124634 220.0
1289.196167 156.0
1289.259399 172.0
1289.411865 68.0
1289.497559 120.0
1289.571533 116.0
1289.645386 212.0
1289.754883 104.0
1289.872314 164.0
1289.990845 152.0
1290.047974 48.0
1290.160278 168.0
1290.330688 192.0
1290.384033 260.0
1290.441162 144.0
1290.548462 180.0
1290.641357 188.0
1290.77771 144.0
1290.891724 44.0
1291.220703 108.0
1291.399048 156.0
1291.528198 64.0
1291.714233 328.0
1291.926392 152.0
1291.947998 76.0
1292.097412 188.0
1292.222168 176.0
1292.429565 176.0
1292.565552 128.0
1292.660156 160.0
1292.723022 336.0
1292.787354 436.0
1292.937744 144.0
1293.013672 140.0
1293.216797 112.0
1293.309937 244.0
1293.359985 140.0
1293.417236 132.0
1293.524658 40.0
1293.578491 128.0
1293.711426 168.0
1293.850952 356.0
1294.011475 172.0
1294.118896 140.0
1294.209717 156.0
1294.262085 76.0
1294.462524 52.0
1294.677368 152.0
1294.777588 160.0
1294.827759 160.0
1294.913696 180.0
1294.987427 152.0
1295.049194 200.0
1295.355469 204.0
1295.471191 220.0
1295.587036 128.0
1295.653198 268.0
1295.803101 180.0
1295.945312 164.0
1296.058838 180.0
1296.16748 180.0
1296.472534 28.0
1296.597412 144.0
1296.812378 84.0
1296.941406 128.0
1297.014526 408.0
1297.235352 144.0
1297.744385 136.0
1297.893921 144.0
1298.074219 140.0
1298.16748 280.0
1298.504517 224.0
1298.812866 160.0
1299.04248 144.0
1299.156738 152.0
1299.271973 184.0
1299.322266 160.0
1299.424561 172.0
1299.530273 84.0
1299.587769 128.0
1299.738403 112.0
1299.834717 124.0
1299.951416 188.0
1300.011108 168.0
1300.168945 196.0
1300.276611 140.0
1300.377319 148.0
1300.456055 120.0
1300.592407 200.0
1300.649902 124.0
1301.130859 164.0
1301.408936 108.0
1301.546143 180.0
1301.883789 228.0
1301.942261 140.0
1302.049927 136.0
1302.107422 100.0
1302.168579 136.0
1302.291016 192.0
1302.422607 160.0
1302.515991 168.0
1302.667725 136.0
1302.794556 132.0
1302.861694 128.0
1303.078125 144.0
1303.141846 120.0
1303.192139 164.0
1303.466309 148.0
1303.578979 172.0
1303.637695 144.0
1303.724121 180.0
1303.740112 136.0
1303.770386 152.0
1303.903564 208.0
1303.96106 120.0
1304.018555 212.0
1304.097656 184.0
1304.18335 204.0
1304.2854 172.0
1304.399536 132.0
1304.521729 128.0
1304.651123 108.0
1304.710938 120.0
1304.847046 156.0
1305.046509 156.0
1305.104126 300.0
1305.180664 356.0
1305.392456 168.0
1305.470825 140.0
1305.573364 140.0
1305.72644 320.0
1305.938354 180.0
1306.161255 140.0
1306.37439 172.0
1306.782593 248.0
1306.844727 180.0
1307.096802 128.0
1307.161377 72.0
1307.227295 96.0
1307.326904 188.0
1307.470825 136.0
1307.624023 124.0
1307.71106 156.0
1307.780273 160.0
1307.888184 144.0
1307.960205 160.0
1308.109375 116.0
1308.259644 116.0
1308.442505 72.0
1308.517334 196.0
1308.569702 216.0
1308.766602 140.0
1308.868652 180.0
1309.047363 48.0
1309.145264 148.0
1309.234619 160.0
1309.292236 132.0
1309.5271 268.0
1309.760376 212.0
1309.817993 164.0
1309.890015 104.0
1310.07019 76.0
1310.257446 160.0
1310.361206 260.0
1310.387817 208.0
1310.545654 144.0
1310.63208 152.0
1310.740234 136.0
1310.805054 120.0
1310.906006 124.0
1311.17981 136.0
1311.381592 80.0
1311.684326 204.0
1311.816284 212.0
1311.877319 136.0
1312.030396 172.0
1312.116943 180.0
1312.167358 132.0
1312.255249 152.0
1312.347656 116.0
1312.465698 140.0
1312.52063 96.0
1312.624878 188.0
1312.676025 272.0
1312.82312 124.0
1312.881226 148.0
1313.054321 152.0
1313.112061 40.0
1313.162476 316.0
1313.596558 176.0
1313.652954 104.0
1313.717896 128.0
1313.920898 156.0
1314.089355 204.0
1314.240234 160.0
1314.547729 160.0
1314.628418 144.0
1314.908569 128.0
1314.995117 188.0
1315.067261 216.0
1315.218384 268.0
1315.251587 156.0
1315.270874 196.0
1315.39209 388.0
1315.447754 124.0
1315.579834 116.0
1315.673706 100.0
1315.799805 232.0
1315.9021 120.0
1316.153687 156.0
1316.352417 112.0
1316.538818 216.0
1316.645264 244.0
1316.715942 188.0
1316.879639 176.0
1316.951782 36.0
1317.024048 148.0
1317.096313 184.0
1317.299194 192.0
1317.392456 124.0
1317.515259 132.0
1317.565796 100.0
1317.708618 208.0
1317.883179 144.0
1317.934692 144.0
1318.057129 168.0
1318.11499 56.0
1318.202026 188.0
1318.425659 80.0
1318.953369 108.0
1319.061768 100.0
1319.117554 212.0
1319.189453 144.0
1319.401489 124.0
1319.473877 116.0
1319.545288 132.0
1319.697998 136.0
1319.748535 404.0
1319.849854 128.0
1319.987183 144.0
1320.196899 112.0
1320.290894 124.0
1320.426025 160.0
1320.601929 168.0
1320.652588 196.0
1320.768311 136.0
1320.934692 180.0
1321.005127 168.0
1321.063843 196.0
1321.11377 136.0
1321.195068 160.0
1321.25293 164.0
1321.369507 148.0
1321.513428 216.0
1321.578613 148.0
1321.62915 120.0
1321.701538 148.0
1321.95752 132.0
1322.447021 108.0
1322.541016 268.0
1322.642456 48.0
1322.852295 100.0
1323.000854 156.0
1323.059692 192.0
1323.221558 168.0
1323.389648 160.0
1323.550415 288.0
1323.634277 100.0
1323.793579 88.0
1323.906738 212.0
1324.017822 184.0
1324.083252 88.0
1324.170166 152.0
1324.242554 68.0
1324.365723 84.0
1324.480225 140.0
1324.572632 176.0
1324.754395 132.0
1324.893799 164.0
1324.981445 140.0
1325.053955 156.0
1325.495972 148.0
1325.602173 152.0
1325.735107 152.0
1325.793091 184.0
1325.901733 204.0
1326.0177 176.0
1326.097412 140.0
1326.206177 204.0
1326.293091 140.0
1326.445312 108.0
1326.517822 104.0
1326.65564 72.0
1326.706299 160.0
1326.822388 80.0
1327.417725 172.0
1327.598999 176.0
1327.63269 152.0
1327.699707 136.0
1327.830322 64.0
1328.004395 252.0
1328.1604 172.0
1328.555664 52.0
1328.620972 256.0
1328.80957 176.0
1328.860352 120.0
1329.005493 112.0
1329.104248 224.0
1329.195557 168.0
1329.295776 172.0
1329.527954 88.0
1329.636841 152.0
1329.687622 280.0
1329.745728 248.0
1330.009888 220.0
1330.07959 132.0
1330.232056 164.0
1330.471558 184.0
1330.573242 100.0
1330.682129 132.0
1330.776489 96.0
1330.863647 136.0
1330.943481 220.0
1331.023315 48.0
1331.101685 128.0
1331.123779 168.0
1331.182129 144.0
1331.195679 144.0
1331.69873 148.0
1331.814941 136.0
1331.964355 160.0
1332.00293 132.0
1332.185425 152.0
1332.352539 188.0
1332.432495 52.0
1332.548706 92.0
1332.657715 128.0
1332.85376 168.0
1332.921509 216.0
1332.999268 124.0
1333.13916 184.0
1333.22229 248.0
1333.391602 192.0
1333.456421 172.0
1333.502441 208.0
1333.65332 136.0
1333.740479 212.0
1333.907715 176.0
1333.958618 172.0
1334.009521 128.0
1334.100952 132.0
1334.18396 112.0
1334.292969 52.0
1334.39624 156.0
1334.576538 188.0
1334.688843 160.0
1334.80481 160.0
1334.86499 160.0
1334.983765 160.0
1335.197632 128.0
1335.318359 52.0
1335.42749 196.0
1335.718384 76.0
1336.022461 144.0
1336.156738 164.0
1336.227661 104.0
1336.332153 196.0
1336.613281 120.0
1336.664185 92.0
1336.729736 144.0
1337.018311 168.0
1337.059082 152.0
1337.201416 152.0
1337.272217 168.0
1337.455811 168.0
1337.705322 152.0
1337.772583 128.0
1337.901489 184.0
1337.952515 72.0
1338.018066 184.0
1338.105347 92.0
1338.221924 156.0
1338.302002 156.0
1338.352905 124.0
1338.437134 136.0
1338.532104 224.0
1338.753418 160.0
1338.877319 160.0
1339.059326 124.0
1339.202759 96.0
1339.510986 136.0
1339.598389 80.0
1339.773193 100.0
1339.853394 124.0
1339.935059 156.0
1340.039062 248.0
1340.189819 156.0
1340.283203 148.0
1340.400513 308.0
1340.546997 136.0
1340.76416 152.0
1340.968262 172.0
1341.143188 36.0
1341.299561 200.0
1341.425293 184.0
1341.580566 180.0
1341.694458 148.0
1341.775879 176.0
1341.910767 200.0
1341.966919 152.0
1342.017944 140.0
1342.105469 108.0
1342.159302 220.0
1342.222168 168.0
1342.408569 128.0
1342.601318 176.0
1342.666992 132.0
1342.776367 88.0
1342.902954 172.0
1342.973389 148.0
1343.031738 128.0
1343.085571 180.0
1343.146606 176.0
1343.301636 140.0
1343.381836 128.0
1343.462036 152.0
1343.575073 132.0
1343.666748 72.0
1343.817017 148.0
1343.912231 192.0
1344.060303 168.0
1344.159302 160.0
1344.213623 200.0
1344.520142 76.0
1344.589111 108.0
1344.717163 192.0
1344.775513 188.0
1344.833984 180.0
1345.045654 64.0
1345.137085 260.0
1345.206787 192.0
1345.37085 172.0
1345.490967 248.0
1345.654175 248.0
1345.841431 92.0
1345.89978 172.0
1346.034302 288.0
1346.177246 108.0
1346.352539 152.0
1346.436646 148.0
1346.54248 128.0
1346.703125 52.0
1346.775391 188.0
1346.802734 168.0
1346.964355 132.0
1347.022217 156.0
1347.199829 124.0
1347.375244 180.0
1347.455566 140.0
1347.568237 152.0
1347.806274 172.0
1347.970825 188.0
1348.07666 104.0
1348.173706 128.0
1348.237427 136.0
1348.412842 108.0
1348.639404 260.0
1348.704834 160.0
1348.956299 184.0
1349.098999 156.0
1349.160156 156.0
1349.23877 164.0
1349.341187 100.0
1349.417603 204.0
1349.509399 188.0
1349.581543 192.0
1349.80188 144.0
1349.94812 104.0
1350.138184 168.0
1350.196777 44.0
1350.247925 184.0
1350.311279 132.0
1350.437866 144.0
1350.491089 180.0
1350.577026 100.0
1350.884277 180.0
1351.010254 72.0
1351.111084 92.0
1351.286621 148.0
1351.397583 204.0
1351.484253 144.0
1351.626953 172.0
1351.80896 256.0
1351.897339 124.0
1352.077026 156.0
1352.185303 200.0
1352.28186 136.0
1352.340454 168.0
1352.399048 164.0
1352.589355 84.0
1352.665894 112.0
1352.748901 164.0
1352.917114 212.0
1353.013916 176.0
1353.20874 88.0
1353.305176 204.0
1353.393433 96.0
1353.482544 92.0
1353.621582 128.0
1353.709473 104.0
1353.892578 180.0
1353.943848 124.0
1354.01709 104.0
1354.20752 144.0
1354.34314 168.0
1354.449219 132.0
1354.519043 188.0
1354.569214 160.0
1354.660278 252.0
1354.713013 172.0
1354.8302 112.0
1355.105591 88.0
1355.174561 116.0
1355.255615 168.0
1355.437256 160.0
1355.584839 240.0
1355.6875 132.0
1355.891846 184.0
1355.968262 100.0
1356.171143 124.0
1356.376465 144.0
1356.484985 144.0
1356.574341 168.0
1356.627319 136.0
1356.735596 156.0
1356.815063 196.0
1357.131592 160.0
1357.287109 168.0
1357.380859 148.0
1357.461548 108.0
1357.593506 64.0
1357.754883 140.0
1357.806152 112.0
1357.875977 168.0
1357.938721 376.0
1358.023071 164.0
1358.109741 112.0
1358.197144 144.0
1358.275635 44.0
1358.363647 192.0
1358.45166 128.0
1358.642456 92.0
1358.723999 140.0
1358.838745 224.0
1358.890991 108.0
1359.177979 112.0
1359.415405 116.0
1359.443604 144.0
1359.514771 148.0
1359.743042 160.0
1359.838501 160.0
1359.926636 112.0
1360.168823 140.0
1360.366943 228.0
1360.528564 156.0
1360.630371 260.0
1360.939697 112.0
1361.111572 172.0
1361.203979 152.0
1361.321533 100.0
1361.38623 152.0
1361.523926 136.0
1361.574829 148.0
1361.640015 188.0
1361.806274 188.0
1361.879639 132.0
1361.953125 152.0
1362.024048 148.0
1362.114746 100.0
1362.210205 144.0
1362.364502 128.0
1362.423096 160.0
1362.526123 144.0
1362.600586 144.0
1362.748657 128.0
1362.890869 212.0
1363.009277 200.0
1363.177612 176.0
1363.246216 92.0
1363.422607 212.0
1363.481323 124.0
1363.610474 212.0
1363.790039 160.0
1363.951782 172.0
1364.099854 148.0
1364.192871 120.0
1364.429565 332.0
1364.539917 188.0
1364.628174 156.0
1364.687012 160.0
1364.767822 156.0
1364.838135 248.0
1364.861572 140.0
1364.887939 212.0
1364.95166 72.0
1365.057129 216.0
1365.208984 104.0
1365.341431 148.0
1365.444336 60.0
1365.556763 116.0
1365.642944 64.0
1365.704956 192.0
1365.848145 72.0
1366.150513 140.0
1366.234985 124.0
1366.279541 360.0
1366.650879 164.0
1366.709717 220.0
1366.823242 240.0
1366.900024 148.0
1367.029907 84.0
1367.277588 184.0
1367.423462 112.0
1367.576172 168.0
1367.598511 52.0
1367.688477 88.0
1367.755737 220.0
1367.887207 224.0
1367.938721 92.0
1368.141846 108.0
1368.302734 204.0
1368.417358 68.0
1368.513062 108.0
1368.660278 172.0
1368.822266 140.0
1368.925415 300.0
1369.002686 236.0
1369.427368 172.0
1369.663818 188.0
1369.882935 60.0
1370.022827 204.0
1370.245483 220.0
1370.383911 144.0
1370.494385 180.0
1370.554688 108.0
1370.682495 176.0
1370.818604 248.0
1370.925049 136.0
1371.052612 148.0
1371.161621 132.0
1371.445068 152.0
1371.747314 148.0
1371.887329 72.0
1372.004517 156.0
1372.15271 108.0
1372.261841 132.0
1372.489502 192.0
1372.658325 164.0
1372.929565 136.0
1373.364624 168.0
1373.437866 104.0
1373.64978 116.0
1373.769409 172.0
1373.856445 256.0
1373.959717 132.0
1374.099854 104.0
1374.210571 200.0
1374.446655 128.0
1374.520386 108.0
1374.675415 52.0
1374.763916 212.0
1374.845093 92.0
1375.043213 172.0
1375.12439 108.0
1375.197998 64.0
1375.345215 144.0
1375.680298 224.0
1375.881104 124.0
1375.952393 76.0
1376.036621 152.0
1376.328857 176.0
1376.545044 140.0
1376.661255 192.0
1376.743286 320.0
1376.838501 140.0
1377.015747 132.0
1377.247803 144.0
1377.333252 108.0
1377.489258 140.0
1377.658325 172.0
1377.810791 152.0
1377.924316 208.0
1377.970581 196.0
1378.04248 164.0
1378.108154 196.0
1378.190308 180.0
1378.338135 152.0
1378.530151 128.0
1378.655884 100.0
1378.774048 248.0
1378.847412 140.0
1378.90332 128.0
1378.951416 184.0
1379.123047 344.0
1379.262939 176.0
1379.39502 100.0
1379.446655 104.0
1379.527344 140.0
1379.625122 188.0
1379.714844 192.0
1379.82373 148.0
1379.949463 128.0
1380.09729 212.0
1380.213379 144.0
1380.289551 124.0
1380.341309 124.0
1380.515869 172.0
1380.644531 152.0
1380.90332 188.0
1381.242065 176.0
1381.347168 124.0
1381.435913 124.0
1381.665283 104.0
1381.752197 144.0
1381.879883 116.0
1382.01416 164.0
1382.071899 172.0
1382.247437 236.0
1382.883057 152.0
1382.952881 148.0
1383.056519 204.0
1383.322998 124.0
1383.374878 104.0
1383.441406 120.0
1383.49707 132.0
1383.588623 168.0
1383.722778 124.0
1383.813477 172.0
1383.878296 136.0
1384.063354 160.0
1384.144775 164.0
1384.300293 96.0
1384.42627 136.0
1384.485474 108.0
1384.769653 216.0
1384.842041 236.0
1384.944336 164.0
1385.027222 216.0
1385.107666 68.0
1385.19873 200.0
1385.466797 172.0
1385.618774 152.0
1385.763062 212.0
1385.838867 176.0
1385.922607 128.0
1386.063354 44.0
1386.169434 152.0
1386.337524 60.0
1386.484985 200.0
1386.574707 160.0
1386.752563 124.0
1386.822021 188.0
1386.93042 332.0
1387.197388 208.0
1387.330811 192.0
1387.444824 168.0
1387.553223 124.0
1387.701416 164.0
1387.797852 160.0
1387.904419 208.0
1388.035156 260.0
1388.106201 260.0
1388.207764 240.0
1388.46521 76.0
1388.554199 144.0
1388.620972 148.0
1388.72229 280.0
1388.813843 168.0
1389.140259 172.0
1389.236938 116.0
1389.460693 172.0
1389.60022 228.0
1389.6521 148.0
1389.733765 56.0
1389.914917 164.0
1390.028076 196.0
1390.171509 88.0
1390.223511 160.0
1390.282104 180.0
1390.483276 88.0
1390.535278 184.0
1390.661377 116.0
1390.720825 168.0
1390.772705 204.0
1390.839233 188.0
1390.886719 168.0
1391.02832 248.0
1391.246216 200.0
1391.346802 160.0
1391.492798 80.0
1391.574463 396.0
1391.737793 128.0
1392.010254 180.0
1392.124023 80.0
1392.202393 128.0
1392.353638 168.0
1392.487915 112.0
1392.547363 144.0
1392.612793 340.0
1392.823853 140.0
1393.007812 196.0
1393.064209 148.0
1393.334717 132.0
1393.438721 200.0
1393.669067 172.0
1393.773071 260.0
1393.825073 124.0
1393.891968 216.0
1394.036255 188.0
1394.092651 116.0
1394.170044 208.0
1394.274536 120.0
1394.493164 212.0
1394.568237 180.0
1394.675293 160.0
1394.768921 160.0
1394.888184 132.0
1394.984863 164.0
1395.125732 108.0
1395.238647 176.0
1395.333984 176.0
1395.430664 100.0
1395.503662 144.0
1395.586792 112.0
1395.718506 284.0
1395.810791 188.0
1395.943726 116.0
1396.030518 104.0
1396.21228 180.0
1396.303833 112.0
1396.479126 164.0
1396.635864 188.0
1396.724609 184.0
1396.832275 136.0
1397.134155 172.0
1397.235474 148.0
1397.36438 204.0
1397.414185 172.0
1397.491333 184.0
1397.61731 160.0
1397.705566 172.0
1397.848022 168.0
1398.138306 236.0
1398.220093 140.0
1398.289673 116.0
1398.359741 180.0
1398.465698 144.0
1398.5271 176.0
1398.580811 276.0
1398.636963 168.0
1398.696533 128.0
1398.770996 132.0
1398.897461 156.0
1399.143188 128.0
1399.254883 160.0
1399.366455 92.0
1399.520996 180.0
1399.600464 276.0
1399.649414 236.0
1399.723877 188.0
1399.783447 96.0
1400.030884 364.0
1400.094604 160.0
1400.249878 256.0
1400.409058 60.0
1400.535645 204.0
1400.684692 144.0
1401.026733 192.0
1401.265747 124.0
1401.393799 200.0
1401.606201 76.0
1401.658569 180.0
1401.776733 140.0
1402.150146 172.0
1402.164307 116.0
1402.224243 280.0
1402.300781 40.0
1402.368652 216.0
1402.46167 264.0
1402.674316 128.0
1402.775146 168.0
1402.905396 144.0
1403.188721 204.0
1403.376709 200.0
1403.539062 140.0
1403.658447 108.0
1403.740723 128.0
1403.956665 172.0
1404.206787 180.0
1404.339478 184.0
1404.426636 120.0
1404.513794 184.0
1404.534546 100.0
1404.633545 160.0
1404.717529 172.0
1404.851807 332.0
1405.000977 180.0
1405.060669 144.0
1405.150146 84.0
1405.273193 100.0
1405.374023 136.0
1405.471069 148.0
1405.612793 100.0
1405.672485 48.0
1405.868042 180.0
1405.922119 152.0
1406.225098 164.0
1406.393677 200.0
1406.500977 136.0
1406.575562 124.0
1406.627808 92.0
1406.709961 196.0
1406.776245 164.0
1407.001099 188.0
1407.073608 112.0
1407.176514 148.0
1407.497559 172.0
1407.555908 128.0
1407.650757 136.0
1408.026489 236.0
1408.166016 176.0
1408.27063 116.0
1408.382568 156.0
1408.51709 140.0
1408.576782 236.0
1408.76355 372.0
1408.862427 188.0
1408.974121 216.0
1409.190063 100.0
1409.24585 164.0
1409.534668 328.0
1409.660156 144.0
1409.727783 88.0
1409.800171 252.0
1409.937256 152.0
1410.081421 164.0
1410.224487 252.0
1410.287964 132.0
1410.542725 140.0
1410.646729 108.0
1410.998169 320.0
1411.115234 128.0
1411.185059 192.0
1411.326904 132.0
1411.486328 108.0
1411.596313 324.0
1411.648682 104.0
1411.768311 152.0
1411.906006 464.0
1412.00415 128.0
1412.124512 284.0
1412.256348 108.0
1412.396606 144.0
1412.473511 180.0
1412.650879 192.0
1412.883789 148.0
1412.965088 156.0
1413.032471 228.0
1413.172852 152.0
1413.50708 120.0
1413.653564 168.0
1413.713379 136.0
1413.810669 168.0
1413.902954 148.0
1413.960327 176.0
1414.067017 192.0
1414.184448 144.0
1414.282227 216.0
1414.405029 184.0
1414.544189 180.0
1414.7146 88.0
1415.249756 184.0
1415.3125 116.0
1415.405151 132.0
1415.475952 140.0
1415.622314 64.0
1415.741699 132.0
1415.921875 132.0
1416.01123 148.0
1416.110718 188.0
1416.23291 136.0
1416.28186 172.0
1416.491211 168.0
1416.61853 180.0
1416.685913 164.0
1416.795898 200.0
1416.87439 160.0
1416.978149 136.0
1417.041382 152.0
1417.18042 152.0
1417.292847 88.0
1417.367676 136.0
1417.473999 188.0
1417.592529 136.0
1417.839844 148.0
1417.892334 100.0
1418.090332 164.0
1418.162109 100.0
1418.255981 152.0
1418.304565 196.0
1418.514404 44.0
1418.716797 192.0
1418.814331 36.0
1419.031738 144.0
1419.1698 144.0
1419.256714 176.0
1419.352783 156.0
1419.514526 176.0
1419.601562 140.0
1419.72583 160.0
1419.811646 176.0
1419.986206 128.0
1420.086548 192.0
1420.202026 184.0
1420.329102 320.0
1420.396606 108.0
1420.651733 132.0
1420.708374 140.0
1420.864868 172.0
1420.944214 60.0
1421.169312 100.0
1421.259399 128.0
1421.371948 116.0
1421.459473 164.0
1421.521973 40.0
1421.634644 108.0
1421.775146 172.0
1421.897217 136.0
1421.979858 140.0
1422.071411 172.0
1422.204956 196.0
1422.362671 156.0
1422.415161 104.0
1422.467773 132.0
1422.565308 124.0
1422.675903 212.0
1422.948242 104.0
1423.223999 160.0
1423.345703 120.0
1423.409058 204.0
1423.671997 204.0
1423.813232 144.0
1423.911255 180.0
1423.974487 160.0
1424.134644 208.0
1424.397583 88.0
1424.728149 120.0
1424.903931 80.0
1425.00354 80.0
1425.059326 156.0
1425.263916 356.0
1425.360596 132.0
1425.633911 156.0
1425.853882 148.0
1425.927856 176.0
1426.049194 156.0
1426.099976 228.0
1426.222656 168.0
1426.277954 148.0
1426.461304 184.0
1426.523926 160.0
1426.713623 244.0
1426.862549 180.0
1426.960327 220.0
1427.108032 320.0
1427.16333 96.0
1427.247681 140.0
1427.34375 92.0
1427.482178 188.0
1427.591919 180.0
1427.649536 144.0
1427.862671 124.0
1427.973877 128.0
1428.043213 188.0
1428.133423 192.0
1428.436646 152.0
1428.51709 280.0
1428.629883 116.0
1428.727661 128.0
1428.784058 132.0
1428.866577 104.0
1428.953369 264.0
1429.021118 68.0
1429.277954 152.0
1429.562866 156.0
1429.615601 232.0
1429.881714 156.0
1429.980103 196.0
1430.050903 152.0
1430.353149 124.0
1430.473633 72.0
1430.581299 132.0
1430.639282 104.0
1430.691895 208.0
1430.77478 180.0
1430.880127 64.0
1430.985352 128.0
1431.097778 296.0
1431.203857 44.0
1431.271729 160.0
1431.721313 148.0
1431.847168 144.0
1432.089111 80.0
1432.220581 104.0
1432.311035 48.0
1432.409668 152.0
1432.484253 128.0
1432.589722 172.0
1432.740356 44.0
1432.815674 164.0
1432.928711 104.0
1433.03418 160.0
1433.154785 172.0
1433.376831 236.0
1433.539062 100.0
1433.599365 96.0
1433.674683 116.0
1433.802856 216.0
1433.854614 188.0
1433.885254 164.0
1433.900513 176.0
1434.004028 148.0
1434.126953 108.0
1434.255249 404.0
1434.349365 152.0
1434.541504 216.0
1434.608643 124.0
1434.677246 268.0
1434.72998 184.0
1434.840576 236.0
1434.993896 44.0
1435.15979 132.0
1435.340698 80.0
1435.426025 156.0
1435.611328 144.0
1435.69519 132.0
1435.86438 112.0
1435.928955 108.0
1435.989258 116.0
1436.042114 168.0
1436.126587 312.0
1436.185425 144.0
1436.301636 160.0
1436.494629 148.0
1436.5625 128.0
1436.622925 160.0
1436.674805 212.0
1436.743652 152.0
1437.234375 92.0
1437.347168 104.0
1437.498291 148.0
1437.595581 132.0
1437.676025 168.0
1437.747192 248.0
1437.950928 112.0
1438.056641 160.0
1438.179077 192.0
1438.305664 188.0
1438.469482 116.0
1438.713379 252.0
1438.849243 272.0
1438.939819 40.0
1439.166382 64.0
1439.362671 136.0
1439.445801 200.0
1439.702515 140.0
1439.886353 128.0
1439.938477 164.0
1440.019653 168.0
1440.284058 76.0
1440.423706 132.0
1440.582642 152.0
1440.654175 108.0
1440.875732 172.0
1440.963989 140.0
1441.047119 80.0
1441.115112 108.0
1441.276001 216.0
1441.512695 208.0
1441.597046 84.0
1441.817871 112.0
1442.067261 132.0
1442.241089 72.0
1442.294067 328.0
1442.384766 188.0
1442.73999 332.0
1442.862915 220.0
1442.953491 120.0
1443.087769 104.0
1443.174438 208.0
1443.231445 144.0
1443.32312 132.0
1443.409546 124.0
1443.465942 124.0
1443.586914 140.0
1443.685181 112.0
1443.914795 124.0
1443.963623 152.0
1444.029053 108.0
1444.164062 140.0
1444.297852 168.0
1444.358276 192.0
1444.46936 388.0
1444.555054 184.0
1444.668457 140.0
1444.783569 128.0
1444.848267 116.0
1444.877441 124.0
1444.986206 112.0
1445.103149 88.0
1445.155884 196.0
1445.223633 192.0
1445.334229 120.0
1445.437012 200.0
1445.538574 160.0
1445.621826 80.0
1445.765625 108.0
1445.935059 264.0
1446.030518 124.0
1446.115112 212.0
1446.174316 168.0
1446.242432 108.0
1446.338379 100.0
1446.424072 80.0
1446.477051 216.0
1446.545288 132.0
1446.764771 84.0
1446.892456 144.0
1447.078979 164.0
1447.234131 208.0
1447.370483 172.0
1447.426392 164.0
1447.544434 124.0
1447.620361 144.0
1447.67334 200.0
1447.73938 140.0
1447.92334 208.0
1447.983887 140.0
1448.165649 136.0
1448.241455 48.0
1448.334351 164.0
1448.438354 184.0
1448.61731 196.0
1448.747192 172.0
1448.822998 340.0
1449.10498 124.0
1449.30957 156.0
1449.453857 232.0
1449.563599 176.0
1449.669678 180.0
1449.700073 92.0
1449.728638 136.0
1449.845215 156.0
1449.968872 124.0
1450.188721 148.0
1450.279907 196.0
1450.628296 132.0
1450.704102 136.0
1450.772217 160.0
1450.827637 228.0
1450.894043 168.0
1450.977051 160.0
1451.143921 192.0
1451.284668 164.0
1451.309326 112.0
1451.386475 232.0
1451.497559 164.0
1451.560913 132.0
1451.629761 140.0
1451.712524 144.0
1451.849121 140.0
1451.962891 176.0
1452.027588 148.0
1452.205933 160.0
1452.338745 252.0
1452.395142 176.0
1452.559082 164.0
1452.5802 236.0
1452.747437 204.0
1452.90271 172.0
1453.055176 260.0
1453.108276 164.0
1453.262939 192.0
1453.389038 108.0
1453.470947 196.0
1453.571167 52.0
1453.677368 136.0
1453.795654 172.0
1453.94458 152.0
1454.008545 124.0
1454.114746 176.0
1454.141724 176.0
1454.299683 108.0
1454.389893 212.0
1454.474243 200.0
1454.596069 184.0
1454.677612 220.0
1455.001587 156.0
1455.134033 224.0
1455.225708 160.0
1455.521973 132.0
1455.613159 48.0
1455.71936 252.0
1455.871338 200.0
1455.965576 284.0
1456.064209 232.0
1456.129517 116.0
1456.205444 168.0
1456.289062 264.0
1456.36499 144.0
1456.520996 168.0
1456.762695 168.0
1456.869995 176.0
1456.965088 132.0
1457.056274 152.0
1457.268433 120.0
1457.381104 160.0
1457.408081 232.0
1457.54248 156.0
1457.640015 140.0
1458.050537 184.0
1458.188477 84.0
1458.241699 184.0
1458.359009 140.0
1458.481323 128.0
1458.712524 156.0
1458.843506 176.0
1458.903076 160.0
1459.130005 200.0
1459.15918 160.0
1459.182739 152.0
1459.210571 280.0
1459.381958 140.0
1459.450439 132.0
1459.578369 176.0
1459.630737 112.0
1459.659912 72.0
1459.721558 188.0
1459.868652 196.0
1459.921875 208.0
1459.991577 160.0
1460.210938 152.0
1460.317383 192.0
1460.401001 332.0
1460.622192 120.0
1460.750977 112.0
1460.849854 128.0
1461.032471 44.0
1461.177002 240.0
1461.245483 128.0
1461.313965 132.0
1461.412842 200.0
1461.483398 152.0
1461.692017 128.0
1461.738159 348.0
1461.904541 224.0
1462.006348 128.0
1462.104126 160.0
1462.202271 168.0
1462.291748 116.0
1462.40979 100.0
1462.529419 192.0
1462.744873 124.0
1462.887939 260.0
1463.06958 152.0
1463.123413 144.0
1463.156494 204.0
1463.414673 180.0
1463.570312 192.0
1463.689331 156.0
1463.87146 172.0
1463.974487 216.0
1464.069946 164.0
1464.152954 156.0
1464.175903 148.0
1464.391846 240.0
1464.494995 172.0
1464.762573 176.0
1464.876953 156.0
1464.934692 152.0
1464.997559 192.0
1465.070679 120.0
1465.143555 184.0
1465.212158 176.0
1465.273071 148.0
1465.402588 96.0
1465.484985 180.0
1465.593018 132.0
1465.67688 64.0
1465.852173 200.0
1466.087891 184.0
1466.210327 124.0
1466.286499 160.0
1466.523926 228.0
1466.682861 164.0
1466.771729 124.0
1466.887695 192.0
1466.944824 188.0
1467.186035 140.0
1467.254639 372.0
1467.368408 120.0
1467.631592 176.0
1467.734985 180.0
1467.834106 124.0
1467.887451 188.0
1468.006104 64.0
1468.181152 228.0
1468.299316 176.0
1468.36792 128.0
1468.627197 224.0
1468.764526 108.0
1468.847168 168.0
1468.904297 124.0
1469.03418 104.0
1469.265015 320.0
1469.363892 140.0
1469.425537 160.0
1469.550293 188.0
1469.60376 160.0
1469.672363 152.0
1469.855591 64.0
1470.053955 192.0
1470.183716 216.0
1470.26001 116.0
1470.313477 180.0
1470.395874 196.0
1470.511841 160.0
1470.586548 192.0
1470.616089 152.0
1470.80188 180.0
1470.996948 172.0
1471.153076 112.0
1471.252319 308.0
1471.511841 108.0
1471.572998 104.0
1471.664551 80.0
1471.88208 164.0
1471.905884 80.0
1471.959473 136.0
1472.069336 172.0
1472.15332 128.0
1472.219849 156.0
1472.367188 212.0
1472.451172 136.0
1472.519897 128.0
1472.596313 228.0
1473.001099 172.0
1473.176758 124.0
1473.306641 180.0
1473.528198 152.0
1473.589355 160.0
1473.688721 164.0
1473.76416 172.0
1473.865967 124.0
1473.885864 128.0
1473.971436 108.0
1474.070679 152.0
1474.147095 88.0
1474.208252 160.0
1474.265625 204.0
1474.44873 292.0
1474.613037 112.0
1474.662231 180.0
1474.724243 68.0
1474.796753 172.0
1475.05188 116.0
1475.216309 148.0
1475.566284 200.0
1475.618408 156.0
1476.203491 152.0
1476.286499 156.0
1476.38501 136.0
1476.532349 160.0
1476.677734 144.0
1476.731201 132.0
1476.807739 168.0
1476.953003 172.0
1477.037231 152.0
1477.175659 124.0
1477.335571 196.0
1477.442627 96.0
1477.610962 136.0
1477.740967 140.0
1477.986084 144.0
1478.062378 128.0
1478.137939 96.0
1478.17395 144.0
1478.19397 180.0
1478.284302 144.0
1478.337891 140.0
1478.460327 200.0
1478.559814 152.0
1478.666992 204.0
1478.728149 140.0
1478.855957 128.0
1478.966675 144.0
1479.072632 144.0
1479.133911 136.0
1479.28418 168.0
1479.432007 140.0
1479.59314 112.0
1479.807617 208.0
1479.861206 176.0
1479.922363 332.0
1480.041138 172.0
1480.113892 112.0
1480.179199 148.0
1480.266968 112.0
1480.388306 228.0
1480.532715 192.0
1480.623535 268.0
1480.680542 96.0
1480.78418 180.0
1480.86084 160.0
1480.940918 212.0
1481.178345 148.0
1481.232056 152.0
1481.369873 128.0
1481.661011 192.0
1481.832642 180.0
1481.900757 180.0
1482.078369 136.0
1482.233398 180.0
1482.289307 216.0
1482.39563 484.0
1482.480835 124.0
1482.586792 176.0
1482.609497 144.0
1482.718506 308.0
1482.894775 124.0
1483.208618 220.0
1483.369995 124.0
1483.431274 196.0
1483.648926 116.0
1483.682983 116.0
1483.837646 212.0
1483.914307 188.0
1484.006348 68.0
1484.184448 244.0
1484.274658 108.0
1484.375122 116.0
1484.591553 236.0
1484.727905 164.0
1484.849854 188.0
1484.918823 136.0
1485.103516 116.0
1485.229248 136.0
1485.248169 124.0
1485.372681 164.0
1485.499756 108.0
1485.563232 164.0
1485.71521 152.0
1485.904175 128.0
1486.10022 176.0
1486.265503 184.0
1486.476196 124.0
1486.65271 188.0
1486.740845 184.0
1486.924683 280.0
1487.166992 108.0
1487.248413 144.0
1487.435669 324.0
1487.504639 164.0
1487.57373 164.0
1487.688965 120.0
1487.781494 168.0
1487.898926 124.0
1487.95752 156.0
1488.015625 128.0
1488.157227 92.0
1488.272461 156.0
1488.518188 152.0
1488.748535 136.0
1488.856079 196.0
1489.002563 156.0
1489.133301 188.0
1489.19397 84.0
1489.278442 200.0
1489.555054 124.0
1489.74707 144.0
1489.941772 332.0
1490.003906 212.0
1490.160645 188.0
1490.280396 248.0
1490.407349 148.0
1490.474487 300.0
1490.640381 180.0
1490.842896 176.0
1490.899658 140.0
1491.037964 116.0
1491.181641 316.0
1491.314575 140.0
1491.376099 196.0
1491.513916 160.0
1491.585815 364.0
1491.814331 180.0
1491.868042 188.0
1491.983398 60.0
1492.244873 156.0
1492.321655 96.0
1492.38269 172.0
1492.404541 160.0
1492.43042 136.0
1492.454346 180.0
1492.529297 128.0
1492.687622 172.0
1492.844604 80.0
1492.964722 296.0
1493.136841 132.0
1493.198364 108.0
1493.344482 116.0
1493.456177 296.0
1493.584961 172.0
1493.706055 120.0
1493.932983 144.0
1493.953857 184.0
1494.190674 152.0
1494.247314 180.0
1494.368042 224.0
1494.475342 100.0
1494.529175 148.0
1494.593872 156.0
1494.895142 200.0
1494.91687 136.0
1495.037109 120.0
1495.214111 116.0
1495.365601 224.0
1495.768311 132.0
1495.829834 160.0
1495.885986 184.0
1495.945312 164.0
1496.014648 160.0
1496.160889 92.0
1496.249634 108.0
1496.304321 64.0
1496.506226 200.0
1496.71521 156.0
1496.784546 160.0
1496.852539 240.0
1496.938599 80.0
1496.992432 52.0
1497.161865 68.0
1497.276855 208.0
1497.385254 336.0
1497.469971 176.0
1497.603882 164.0
1497.642944 112.0
1497.839722 88.0
1497.919678 116.0
1498.009155 148.0
1498.068604 144.0
1498.158936 268.0
1498.240234 124.0
1498.322876 28.0
1498.342529 180.0
1498.432251 184.0
1498.517578 160.0
1498.657227 72.0
1498.736084 68.0
1498.94043 156.0
1499.026245 144.0
1499.11377 164.0
1499.18689 376.0
1499.272827 392.0
1499.342163 216.0
1499.557983 204.0
1499.647095 212.0
1499.735229 228.0
1499.837646 164.0
1499.920288 140.0
1499.97583 128.0
1500.035889 380.0
1500.105225 160.0
1500.202026 144.0
1500.349121 140.0
1500.536865 168.0
1500.734131 164.0
1500.791382 184.0
1500.991943 136.0
1501.208984 184.0
1501.432495 88.0
1501.450562 116.0
1501.654663 76.0
1501.940552 160.0
1502.039673 196.0
1502.093628 140.0
1502.144775 152.0
1502.400391 124.0
1502.506348 168.0
1502.869873 192.0
1502.99353 128.0
1503.066895 136.0
1503.236694 96.0
1503.306152 244.0
1503.54541 128.0
1503.648438 268.0
1503.741577 140.0
1503.821045 128.0
1504.016235 212.0
1504.178223 120.0
1504.253418 228.0
1504.383301 168.0
1504.432983 220.0
1504.492432 152.0
1504.817993 184.0
1504.971191 332.0
1505.069214 112.0
1505.13562 136.0
1505.274292 228.0
