>compound MLS001401418-01!BENIDIPINE HCl
>formula C28H31N3O6
>ionization [M+H]+
>parentmass 506.227448
#inchi InChI=1S/C28H31N3O6/c1-18-24(27(32)36-3)26(21-11-7-12-22(15-21)31(34)35)25(19(2)29-18)28(33)37-23-13-8-14-30(17-23)16-20-9-5-4-6-10-20/h4-7,9-12,15,23,26,32H,8,13-14,16-17H2,1-3H3/b27-24+/t23-,26-/m1/s1
#inchikey IEQUDZMRAGKBCG
#origInchi InChI=1S/C28H31N3O6.ClH/c1-18-24(27(32)36-3)26(21-11-7-12-22(15-21)31(34)35)25(19(2)29-18)28(33)37-23-13-8-14-30(17-23)16-20-9-5-4-6-10-20;/h4-7,9-12,15,23,26,32H,8,13-14,16-17H2,1-3H3;1H/b27-24+;/t23-,26-;/m1./s1
#Ion_Source LC-ESI
#Instrument qTof
#Compound_Source NIH Pharmacologically Active Library
#PI Dorrestein
#Data_Collector VP/LMS
#Scan -1
#Precursor_MZ 506.221
#ExactMass 505.221
#Charge 1
#CAS_Number N/A
#Pubmed_ID N/A
#Smiles CO/C(=C\1/[C@H](C(=C(C)N=C1C)C(=O)O[C@@H]2CCCN(Cc3ccccc3)C2)c4cccc(c4)[N+](=O)[O-])/O.Cl
#INCHI_AUX N/A
#Library_Class 1
#SpectrumID CCMSLIB00000085341
#IonMode Positive
#UpdateWorkflowName UPDATE-SINGLE-ANNOTATED-GOLD
#LibraryQualityString Gold
#TaskID d252d724072548979f1f6f1ced849daf
##Scan# 1872
#SpectrumFile p3-H07_GH7_01_18312.mzXML
#LibraryName Pharm_Active_Library.mgf
#MQScore -1
#Organism Pharm_Active_Library
#TIC_Query 0
#RT_Query -1
#MZErrorPPM -1
#SharedPeaks 0
#MassDiff 0
#LibMZ -1
#SpecMZ 506.221
#SpecCharge 0
#internalFilename spec-00000.mgf

>collision 10
44.911251 136.0
44.960579 144.0
44.978397 172.0
45.028671 136.0
45.072758 140.0
45.219872 232.0
45.29084 116.0
45.381973 220.0
45.402847 156.0
45.49065 68.0
45.596981 128.0
45.611557 116.0
45.634411 116.0
45.70974 76.0
45.774357 128.0
45.816113 160.0
45.830936 148.0
45.903728 184.0
45.956337 72.0
45.992779 192.0
46.002228 148.0
46.027882 144.0
46.053543 104.0
46.088669 184.0
46.13192 60.0
46.141384 132.0
46.169781 120.0
46.22525 180.0
46.261795 176.0
46.275333 132.0
46.359322 132.0
46.404057 208.0
46.461021 152.0
46.519379 136.0
46.562958 172.0
46.625332 204.0
46.648438 160.0
46.730042 116.0
46.764065 200.0
46.78857 108.0
46.808994 144.0
46.844406 292.0
46.912548 132.0
46.971188 200.0
46.982101 172.0
47.019764 280.0
47.074921 112.0
47.088581 144.0
47.130932 200.0
47.247189 148.0
47.288208 192.0
47.301895 172.0
47.344341 164.0
47.362148 144.0
47.395031 172.0
47.493744 112.0
47.515694 168.0
47.633762 220.0
47.662613 128.0
47.728596 184.0
47.773987 140.0
47.786369 120.0
47.798752 244.0
47.835915 140.0
47.911663 52.0
48.033154 160.0
48.060574 240.0
48.074375 140.0
48.199673 208.0
48.249805 148.0
48.303741 172.0
48.317257 192.0
48.334179 192.0
48.389549 152.0
48.41032 144.0
48.435249 184.0
48.548908 124.0
48.576649 120.0
48.623829 144.0
48.647427 176.0
48.69186 140.0
48.73354 204.0
48.762722 160.0
48.778011 188.0
48.800259 180.0
48.915733 88.0
48.933834 56.0
48.950542 140.0
49.021591 132.0
49.074562 148.0
49.095482 108.0
49.108032 148.0
49.222477 140.0
49.25103 144.0
49.285339 184.0
49.302109 160.0
49.504967 152.0
49.576416 28.0
49.628284 128.0
49.702454 160.0
49.7672 200.0
49.786587 204.0
49.809334 180.0
49.829002 232.0
49.948502 184.0
49.971012 148.0
50.002148 160.0
50.031399 124.0
50.042797 152.0
50.062511 148.0
50.117451 192.0
50.163963 208.0
50.203445 200.0
50.216137 148.0
50.289509 160.0
50.375648 132.0
50.408146 160.0
50.608177 148.0
50.624596 164.0
50.637344 180.0
50.655758 244.0
50.711021 92.0
50.762062 92.0
50.851444 232.0
50.862278 196.0
50.960796 204.0
50.989216 136.0
51.148529 64.0
51.165611 116.0
51.181274 136.0
51.312363 140.0
51.370838 188.0
51.396519 172.0
51.507885 84.0
51.517883 148.0
51.530743 204.0
51.556465 204.0
51.626518 208.0
51.646542 176.0
51.679226 208.0
51.739563 160.0
51.802578 164.0
51.8298 76.0
51.872799 168.0
51.91151 84.0
52.019753 180.0
52.033482 164.0
52.111042 116.0
52.135471 88.0
52.198727 144.0
52.306637 216.0
52.405876 212.0
52.525677 192.0
52.571415 120.0
52.678699 188.0
52.731277 176.0
52.754341 176.0
52.78566 252.0
52.800121 44.0
52.843521 232.0
52.859436 92.0
52.891277 80.0
52.930332 148.0
52.944851 80.0
53.06078 156.0
53.1362 152.0
53.166676 128.0
53.287201 220.0
53.349697 256.0
53.368599 176.0
53.410778 348.0
53.511196 132.0
53.572365 160.0
53.744411 172.0
53.808636 180.0
53.834347 172.0
53.910889 128.0
53.957668 152.0
54.005928 100.0
54.103973 204.0
54.134724 152.0
54.169876 176.0
54.188408 148.0
54.263676 192.0
54.284595 180.0
54.37957 192.0
54.491177 100.0
54.539677 164.0
54.592606 88.0
54.609737 216.0
54.65292 128.0
54.798695 188.0
54.851749 112.0
54.887135 120.0
54.943184 120.0
54.969746 160.0
55.050941 232.0
55.101166 120.0
55.201679 156.0
55.243095 180.0
55.276165 240.0
55.331894 140.0
55.408913 176.0
55.432621 188.0
55.561623 124.0
55.57943 180.0
55.681866 180.0
55.726433 112.0
55.768044 124.0
55.809669 60.0
55.863213 160.0
55.903389 192.0
55.974846 132.0
55.994205 144.0
56.049328 172.0
56.123859 144.0
56.146229 128.0
56.255383 132.0
56.34626 192.0
56.391094 180.0
56.412022 176.0
56.425842 228.0
56.456879 52.0
56.477818 208.0
56.652966 208.0
56.673943 264.0
56.742893 164.0
56.799881 148.0
56.853897 152.0
56.919952 204.0
56.936531 200.0
56.955997 176.0
56.974026 92.0
57.017605 160.0
57.098793 72.0
57.110825 160.0
57.121357 224.0
57.157463 216.0
57.184555 224.0
57.235741 176.0
57.247787 208.0
57.289967 124.0
57.380394 148.0
57.455807 192.0
57.6441 160.0
57.662689 184.0
57.744335 204.0
57.75795 180.0
57.77005 168.0
57.872971 148.0
57.8866 164.0
57.898716 144.0
57.941925 172.0
57.983559 124.0
58.044201 136.0
58.116306 188.0
58.188797 204.0
58.235428 172.0
58.382858 68.0
58.458927 108.0
58.524208 104.0
58.532688 168.0
58.615784 156.0
58.663033 152.0
58.678276 212.0
58.720978 192.0
58.82016 132.0
58.953045 144.0
59.003487 252.0
59.016933 156.0
59.06007 188.0
59.127396 164.0
59.205479 164.0
59.277481 168.0
59.292809 384.0
59.35873 112.0
59.390938 40.0
59.469193 140.0
59.515869 228.0
59.55518 112.0
59.585907 56.0
59.610493 196.0
59.648918 108.0
59.667366 124.0
59.751957 128.0
59.839687 132.0
60.069324 136.0
60.095554 96.0
60.129196 160.0
60.260769 192.0
60.305584 168.0
60.333412 164.0
60.390629 212.0
60.418087 128.0
60.466442 248.0
60.522175 348.0
60.66782 200.0
60.701931 92.0
60.757771 184.0
60.768631 136.0
60.802773 180.0
60.8214 208.0
60.835369 152.0
60.860435 140.0
60.889717 120.0
60.916126 124.0
60.940983 140.0
60.972065 148.0
61.04549 192.0
61.101131 128.0
61.155598 120.0
61.179161 148.0
61.263046 76.0
61.302002 192.0
61.375267 156.0
61.459503 184.0
61.480103 260.0
61.496956 156.0
61.529739 120.0
61.570339 164.0
61.798576 128.0
61.898758 144.0
61.937916 160.0
61.958282 100.0
62.002155 40.0
62.089069 212.0
62.100933 148.0
62.144863 168.0
62.243752 76.0
62.275166 116.0
62.295586 128.0
62.317581 140.0
62.345867 152.0
62.363155 112.0
62.446491 108.0
62.479527 116.0
62.57711 144.0
62.619629 124.0
62.651134 244.0
62.714169 140.0
62.758312 160.0
62.769348 136.0
62.804047 188.0
62.838753 228.0
62.862782 124.0
62.890835 56.0
62.912933 144.0
62.928722 216.0
62.949249 120.0
62.963463 192.0
63.067745 116.0
63.115177 144.0
63.267071 108.0
63.30349 220.0
63.320911 112.0
63.351009 152.0
63.461952 188.0
63.597141 168.0
63.647739 192.0
63.715908 212.0
63.822399 148.0
63.908295 72.0
63.92421 124.0
63.93998 88.0
64.064804 200.0
64.088226 156.0
64.181168 104.0
64.487206 144.0
64.530365 36.0
64.546356 124.0
64.587936 164.0
64.608734 84.0
64.884209 192.0
64.94194 108.0
64.999702 132.0
65.020561 156.0
65.038216 140.0
65.128143 28.0
65.152237 188.0
65.192406 132.0
65.203659 204.0
65.322647 168.0
65.375748 56.0
65.420815 192.0
65.615761 140.0
65.656075 40.0
65.693169 176.0
65.723831 132.0
65.806152 148.0
65.857826 160.0
65.869919 148.0
65.945084 204.0
65.959633 120.0
65.980644 112.0
65.994118 156.0
66.016655 148.0
66.07769 196.0
66.09063 104.0
66.104813 184.0
66.195694 208.0
66.292183 208.0
66.315742 260.0
66.354652 120.0
66.389412 192.0
66.411407 124.0
66.443855 56.0
66.473061 108.0
66.531494 76.0
66.562119 144.0
66.580208 184.0
66.601326 132.0
66.624069 136.0
66.672813 88.0
66.698822 148.0
66.760612 32.0
66.802345 280.0
66.859116 256.0
66.882637 128.0
67.045517 184.0
67.084633 176.0
67.185753 180.0
67.311432 160.0
67.496086 100.0
67.561813 220.0
67.620422 44.0
67.676086 160.0
67.774368 132.0
67.903877 148.0
68.007248 176.0
68.110695 176.0
68.196144 256.0
68.230667 80.0
68.242172 180.0
68.350739 112.0
68.368843 60.0
68.390175 204.0
68.470917 108.0
68.5467 176.0
68.612633 140.0
68.625824 72.0
68.671997 172.0
68.701691 184.0
68.830437 76.0
68.921288 144.0
69.00724 172.0
69.063469 128.0
69.086632 192.0
69.118065 156.0
69.167717 208.0
69.200829 120.0
69.227325 156.0
69.382889 136.0
69.419563 140.0
69.505821 88.0
69.52906 180.0
69.577194 180.0
69.627014 44.0
69.64447 196.0
69.673523 144.0
69.741661 88.0
69.853073 92.0
70.014534 148.0
70.032852 52.0
70.046783 204.0
70.064507 80.0
70.144821 208.0
70.174507 152.0
70.256195 184.0
70.26329 156.0
70.266731 220.0
70.349693 176.0
70.401451 152.0
70.489189 168.0
70.720795 144.0
70.742554 160.0
70.831314 140.0
70.859795 28.0
70.978806 84.0
71.052605 164.0
71.076096 156.0
71.096237 76.0
71.134842 160.0
71.351562 180.0
71.524841 204.0
71.597244 28.0
71.614082 160.0
71.662941 176.0
71.683159 200.0
71.711815 108.0
71.743843 52.0
71.819725 60.0
71.843079 180.0
71.868652 120.0
71.923248 80.0
72.111145 136.0
72.152412 208.0
72.198067 140.0
72.224358 228.0
72.316505 124.0
72.377449 208.0
72.496033 180.0
72.65712 148.0
72.714813 160.0
72.738579 128.0
72.773636 176.0
72.801407 192.0
72.850662 124.0
72.89743 236.0
72.939034 140.0
72.956032 152.0
73.032555 156.0
73.088699 96.0
73.115929 60.0
73.168694 144.0
73.192535 112.0
73.22319 192.0
73.304962 156.0
73.352692 148.0
73.494247 280.0
73.513016 160.0
73.545448 40.0
73.610329 128.0
73.634476 172.0
73.65815 148.0
73.673523 156.0
73.697441 132.0
73.777771 116.0
73.839333 88.0
73.89579 148.0
73.91803 140.0
73.953972 172.0
74.007042 220.0
74.077263 164.0
74.120102 152.0
74.27269 136.0
74.344749 140.0
74.365349 212.0
74.413414 340.0
74.552551 152.0
74.628265 180.0
74.659142 128.0
74.671684 164.0
74.698708 164.0
74.779579 132.0
74.860497 200.0
75.081093 60.0
75.124222 200.0
75.14492 136.0
75.210503 108.0
75.236397 152.0
75.291656 128.0
75.352112 192.0
75.442802 192.0
75.550941 160.0
75.602852 228.0
75.799583 180.0
75.866135 168.0
75.892143 196.0
75.91642 164.0
75.933769 172.0
75.996216 92.0
76.106194 168.0
76.185471 176.0
76.220215 148.0
76.249763 236.0
76.348862 216.0
76.516373 212.0
76.592537 148.0
76.604736 120.0
76.62738 144.0
76.677917 156.0
76.695351 144.0
76.751137 124.0
76.787766 104.0
76.81044 112.0
76.845779 172.0
76.907562 212.0
76.934341 60.0
76.969261 192.0
76.981483 216.0
77.011177 164.0
77.10553 148.0
77.185944 140.0
77.206932 144.0
77.245415 164.0
77.402931 300.0
77.460732 224.0
77.480003 200.0
77.541336 224.0
77.559738 216.0
77.600937 180.0
77.679863 212.0
77.706177 112.0
77.751801 80.0
77.765846 136.0
77.81324 136.0
77.864166 144.0
77.941467 172.0
77.9608 168.0
77.994194 176.0
78.222878 224.0
78.432503 60.0
78.473053 212.0
78.504791 180.0
78.533012 140.0
78.573586 220.0
78.717484 168.0
78.778381 152.0
78.826088 152.0
78.89325 200.0
78.910934 144.0
78.985207 216.0
79.011749 80.0
79.04332 156.0
79.049812 132.0
79.195854 72.0
79.360672 168.0
79.449448 176.0
79.494019 160.0
79.519402 160.0
79.56649 56.0
79.658836 144.0
79.69838 188.0
79.717201 184.0
79.747688 176.0
79.782372 148.0
79.797462 140.0
79.861481 172.0
79.875717 172.0
79.90596 132.0
80.123169 136.0
80.15168 200.0
80.167717 96.0
80.203362 164.0
80.255066 260.0
80.38707 120.0
80.454895 40.0
80.479897 200.0
80.583496 184.0
80.642464 152.0
80.792679 164.0
80.805199 132.0
80.892899 116.0
80.929039 172.0
80.943031 92.0
80.966309 164.0
80.984222 92.0
81.011093 128.0
81.091728 160.0
81.132957 240.0
81.149094 268.0
81.23159 228.0
81.353622 136.0
81.402107 200.0
81.487251 100.0
81.509888 132.0
81.530342 136.0
81.590775 60.0
81.781464 124.0
81.840874 80.0
81.875084 156.0
81.9021 112.0
81.924545 152.0
81.945343 140.0
81.968056 204.0
82.019226 160.0
82.035454 124.0
82.060692 152.0
82.152679 204.0
82.198364 268.0
82.232071 184.0
82.268173 144.0
82.329567 116.0
82.40905 240.0
82.44519 108.0
82.486763 92.0
82.506653 96.0
82.554527 136.0
82.569939 140.0
82.678497 96.0
82.859581 152.0
82.895821 144.0
82.928444 160.0
82.959068 196.0
83.02272 156.0
83.144272 176.0
83.264099 144.0
83.309517 172.0
83.334953 100.0
83.355247 164.0
83.393143 192.0
83.465828 40.0
83.513107 192.0
83.664154 168.0
83.682358 152.0
83.718781 244.0
83.787994 60.0
83.851776 192.0
83.890053 300.0
83.928345 92.0
84.008591 136.0
84.033966 168.0
84.085236 256.0
84.114441 156.0
84.165558 144.0
84.191124 160.0
84.223312 180.0
84.308052 204.0
84.324501 56.0
84.37751 144.0
84.395798 116.0
84.487244 188.0
84.694107 52.0
84.714256 192.0
84.730751 84.0
84.789383 112.0
84.860878 196.0
84.900505 212.0
84.914314 204.0
84.972763 120.0
84.99295 172.0
85.123283 148.0
85.16185 184.0
85.204102 148.0
85.22982 56.0
85.413673 156.0
85.442696 88.0
85.478073 128.0
85.680748 168.0
85.706413 36.0
85.781097 168.0
85.809631 72.0
85.82254 240.0
85.835442 140.0
85.866798 152.0
85.894463 132.0
85.935051 76.0
86.003487 148.0
86.088264 172.0
86.101196 168.0
86.125206 144.0
86.252708 160.0
86.278587 132.0
86.32666 140.0
86.340576 284.0
86.385849 84.0
86.406769 172.0
86.43396 184.0
86.458015 112.0
86.478371 120.0
86.513542 220.0
86.552429 248.0
86.702126 164.0
86.743263 184.0
86.782196 120.0
86.811867 208.0
86.839684 172.0
86.874931 136.0
86.951012 212.0
87.004845 132.0
87.023407 148.0
87.09584 172.0
87.145996 144.0
87.237068 148.0
87.268677 184.0
87.413765 248.0
87.432373 160.0
87.458435 136.0
87.590645 84.0
87.602982 120.0
87.663307 188.0
87.771935 148.0
88.047623 152.0
88.165329 148.0
88.253838 256.0
88.28685 212.0
88.410324 184.0
88.526398 60.0
88.543251 136.0
88.591957 112.0
88.616348 208.0
88.636925 80.0
88.670654 168.0
88.687523 180.0
88.798149 212.0
88.903214 140.0
88.982056 164.0
89.224426 144.0
89.243225 120.0
89.284943 152.0
89.324097 116.0
89.337265 120.0
89.490753 152.0
89.533028 220.0
89.561279 168.0
89.591042 180.0
89.632874 176.0
89.672447 116.0
89.691917 180.0
89.715805 152.0
89.729004 200.0
89.781799 184.0
89.959549 100.0
90.053589 216.0
90.11026 172.0
90.136711 172.0
90.161278 204.0
90.202866 104.0
90.216095 144.0
90.405251 36.0
90.435532 248.0
90.484749 72.0
90.653336 160.0
90.713989 108.0
90.772766 36.0
90.820183 176.0
90.83725 132.0
90.912109 112.0
90.983513 148.0
90.998573 196.0
91.021767 184.0
91.054459 30008.0
91.114426 40.0
91.152428 152.0
91.165062 68.0
91.193527 64.0
91.218956 56.0
91.239571 220.0
91.300713 36.0
91.34256 288.0
91.367424 68.0
91.517654 184.0
91.570061 224.0
91.656708 188.0
91.706261 164.0
91.77803 136.0
91.875977 192.0
91.889717 216.0
91.910324 136.0
91.943542 156.0
91.990479 212.0
92.005753 96.0
92.056801 3272.0
92.09169 164.0
92.135628 120.0
92.193947 100.0
92.219704 216.0
92.243019 116.0
92.267502 148.0
92.309563 92.0
92.332512 44.0
92.506638 128.0
92.565994 112.0
92.602379 140.0
92.644524 116.0
92.698174 76.0
92.732674 144.0
92.786346 256.0
92.909096 128.0
93.006966 92.0
93.022324 140.0
93.065201 260.0
93.097443 64.0
93.14138 72.0
93.252831 40.0
93.268204 116.0
93.310501 156.0
93.427818 180.0
93.48362 124.0
93.500938 160.0
93.533661 144.0
93.556763 48.0
93.581795 108.0
93.606827 128.0
93.643417 112.0
93.660751 164.0
93.73011 152.0
93.791786 184.0
93.841957 172.0
93.888191 104.0
93.903618 48.0
93.917122 184.0
94.002014 72.0
94.03289 56.0
94.057983 160.0
94.081146 192.0
94.094666 80.0
94.141006 156.0
94.367249 148.0
94.469246 132.0
94.490883 112.0
94.554741 92.0
94.60894 144.0
94.699951 168.0
94.717384 176.0
94.777443 92.0
94.822021 144.0
94.856911 108.0
94.897621 208.0
95.012054 148.0
95.046982 132.0
95.093559 76.0
95.107147 160.0
95.198395 152.0
95.241127 144.0
95.301353 164.0
95.330498 32.0
95.371315 56.0
95.439362 196.0
95.458809 100.0
95.569687 36.0
95.709831 132.0
95.744888 180.0
95.758522 112.0
95.784409 124.0
95.875015 212.0
95.994339 188.0
96.081772 204.0
96.211807 180.0
96.2285 152.0
96.34568 156.0
96.362564 244.0
96.417984 228.0
96.447304 200.0
96.525505 44.0
96.568535 140.0
96.650696 140.0
96.82885 120.0
96.873901 116.0
96.932678 176.0
97.074539 264.0
97.171898 140.0
97.407486 204.0
97.430748 200.0
97.482155 152.0
97.517525 120.0
97.706306 196.0
97.820457 136.0
97.887398 168.0
97.913002 172.0
97.928757 212.0
97.972038 148.0
98.001648 156.0
98.100189 124.0
98.234291 76.0
98.262238 172.0
98.291512 144.0
98.366943 92.0
98.382111 204.0
98.419815 88.0
98.463264 104.0
98.48439 132.0
98.579826 192.0
98.625282 164.0
98.65889 180.0
98.676682 124.0
98.793373 56.0
98.85273 160.0
98.890335 148.0
98.941803 168.0
99.090347 208.0
99.143852 176.0
99.321106 60.0
99.481049 140.0
99.525887 192.0
99.649864 160.0
99.665764 32.0
99.739616 160.0
99.755196 116.0
99.769112 84.0
99.866554 136.0
99.906342 48.0
99.958076 192.0
100.02375 172.0
100.076294 912.0
100.115341 164.0
100.193031 176.0
100.254799 124.0
100.428261 148.0
100.561943 148.0
100.617836 160.0
100.679741 172.0
100.695717 200.0
100.709702 108.0
100.747795 168.0
100.763641 172.0
100.779625 216.0
100.965538 216.0
101.011543 100.0
101.061554 148.0
101.079567 128.0
101.169632 52.0
101.218544 84.0
101.279778 192.0
101.598061 164.0
101.67878 208.0
101.797234 140.0
101.835388 120.0
101.879585 336.0
101.921776 220.0
101.983345 120.0
102.024284 168.0
102.080582 156.0
102.398567 196.0
102.422737 124.0
102.603409 252.0
102.632339 100.0
102.717659 228.0
102.739235 140.0
102.926949 100.0
102.961273 56.0
103.03933 200.0
103.043274 128.0
103.058929 164.0
103.141312 196.0
103.159294 168.0
103.217934 144.0
103.232086 64.0
103.246246 132.0
103.343346 220.0
103.475746 164.0
103.51387 148.0
103.657204 140.0
103.843727 112.0
103.884293 108.0
103.920815 224.0
104.014168 248.0
104.044624 60.0
104.160378 236.0
104.211166 92.0
104.391922 152.0
104.412422 36.0
104.542625 236.0
104.631264 168.0
104.715675 132.0
104.772713 220.0
104.854225 40.0
104.877464 168.0
104.913338 96.0
104.960236 116.0
104.977417 188.0
105.007141 136.0
105.031616 148.0
105.068077 480.0
105.292877 144.0
105.308754 88.0
105.352119 152.0
105.554466 184.0
105.619911 204.0
105.644463 180.0
105.666969 132.0
105.703796 64.0
105.7304 140.0
105.93721 132.0
105.98024 164.0
106.065315 184.0
106.211906 36.0
106.293976 100.0
106.468468 84.0
106.50544 124.0
106.538307 204.0
106.655441 196.0
106.72123 184.0
106.774696 88.0
106.817894 160.0
106.862 220.0
106.916618 184.0
107.073128 136.0
107.200859 200.0
107.353416 240.0
107.481316 248.0
107.532906 196.0
107.619614 168.0
107.660912 100.0
107.863403 76.0
108.028839 92.0
108.107468 172.0
108.173698 176.0
108.188187 176.0
108.221313 136.0
108.289658 176.0
108.368378 164.0
108.396591 208.0
108.453346 172.0
108.505753 244.0
108.608864 140.0
108.669029 156.0
108.787323 204.0
108.803932 156.0
108.822617 156.0
108.882843 172.0
108.905128 192.0
108.946335 156.0
108.991089 188.0
109.069847 48.0
109.092308 144.0
109.194603 120.0
109.211243 128.0
109.238281 100.0
109.27951 152.0
109.319427 152.0
109.373207 148.0
109.395813 172.0
109.515137 236.0
109.742294 148.0
109.77774 260.0
109.940468 144.0
110.138817 164.0
110.180603 56.0
110.29554 56.0
110.356163 52.0
110.43354 184.0
110.552803 148.0
110.757988 192.0
110.812454 172.0
111.049339 188.0
111.068222 132.0
111.089195 232.0
111.16893 192.0
111.261292 160.0
111.294884 248.0
111.347153 216.0
111.399895 164.0
111.427208 176.0
111.47554 148.0
111.511269 180.0
111.553307 172.0
111.719444 52.0
111.879387 204.0
111.923828 188.0
111.940102 120.0
112.081589 92.0
112.113197 196.0
112.229202 128.0
112.281136 116.0
112.357796 216.0
112.385231 128.0
112.421104 100.0
112.522423 116.0
112.558319 196.0
112.619568 180.0
112.649139 108.0
112.788605 104.0
112.837234 164.0
112.917587 216.0
113.004318 88.0
113.097435 68.0
113.142548 232.0
113.164391 120.0
113.391853 40.0
113.533386 164.0
113.541908 124.0
113.56572 324.0
113.586929 320.0
113.663307 108.0
113.695145 100.0
113.724854 120.0
113.794914 136.0
113.924469 48.0
113.971207 208.0
114.01796 72.0
114.111496 188.0
114.14183 120.0
114.205063 160.0
114.256119 188.0
114.356133 120.0
114.426384 136.0
114.4711 56.0
114.576111 200.0
114.624481 216.0
114.767776 196.0
114.837677 116.0
114.893135 168.0
114.916611 132.0
115.049431 172.0
115.13221 112.0
115.151436 208.0
115.192017 132.0
115.226196 116.0
115.2668 136.0
115.311676 224.0
115.412155 196.0
115.431221 192.0
115.537346 120.0
115.634644 68.0
115.827354 184.0
115.857346 164.0
115.962341 76.0
116.05365 168.0
116.094025 220.0
116.138168 156.0
116.251877 120.0
116.275482 168.0
116.299095 132.0
116.423622 140.0
116.490211 172.0
116.53318 148.0
116.567558 140.0
116.614838 172.0
116.636337 108.0
116.696091 156.0
116.842789 100.0
116.877213 212.0
116.931015 168.0
116.993439 192.0
117.032196 112.0
117.069 276.0
117.085464 228.0
117.217445 84.0
117.258392 464.0
117.504227 144.0
117.572823 76.0
117.599174 100.0
117.64019 176.0
117.681213 160.0
117.717918 160.0
117.741676 136.0
117.774078 120.0
117.7892 124.0
117.862656 108.0
117.882103 160.0
117.899391 188.0
117.916679 108.0
118.013962 196.0
118.039223 320.0
118.072289 144.0
118.093979 48.0
118.113144 132.0
118.14373 124.0
118.18853 68.0
118.211037 188.0
118.228973 208.0
118.263412 248.0
118.314705 100.0
118.392654 120.0
118.418648 84.0
118.461967 52.0
118.513969 108.0
118.542137 172.0
118.663521 208.0
118.698219 148.0
118.715569 132.0
118.780632 76.0
118.841385 188.0
118.873932 128.0
119.034576 224.0
119.143173 176.0
119.160561 40.0
119.32357 144.0
119.375755 152.0
119.404022 48.0
119.421425 152.0
119.471458 132.0
119.504097 140.0
119.547615 224.0
119.57373 132.0
119.591141 228.0
119.606377 200.0
119.629189 180.0
119.808907 72.0
119.869919 188.0
119.922859 164.0
119.959274 272.0
119.976715 160.0
120.08139 708.0
120.133743 204.0
120.17083 88.0
120.212288 180.0
120.263634 252.0
120.290253 128.0
120.345444 208.0
120.364677 208.0
120.417511 160.0
120.441536 140.0
120.468063 140.0
120.50708 204.0
120.54641 412.0
120.642586 52.0
120.673195 116.0
120.760666 176.0
120.806602 280.0
120.83326 108.0
120.876617 84.0
120.909447 224.0
120.946655 148.0
121.031082 128.0
121.079094 360.0
121.09774 56.0
121.19194 68.0
121.351944 180.0
121.60862 168.0
121.720581 68.0
121.742546 108.0
121.861168 168.0
121.990837 148.0
122.033669 216.0
122.074387 180.0
122.100777 240.0
122.153564 184.0
122.215172 192.0
122.2966 160.0
122.428703 112.0
122.541046 120.0
122.60936 196.0
122.693123 320.0
122.781326 136.0
122.997437 148.0
123.032875 276.0
123.072617 136.0
123.149918 128.0
123.17421 140.0
123.284691 116.0
123.382797 156.0
123.452705 176.0
123.481453 152.0
123.607559 128.0
123.649605 48.0
123.671738 124.0
123.687233 180.0
123.846481 196.0
123.964088 172.0
124.143974 140.0
124.403259 152.0
124.474312 176.0
124.728661 100.0
124.815422 168.0
124.88102 120.0
124.949982 84.0
125.014977 180.0
125.076828 152.0
125.107994 120.0
125.134712 172.0
125.230469 184.0
125.290619 140.0
125.317352 196.0
125.431015 188.0
125.495667 136.0
125.524651 64.0
125.57634 228.0
125.625923 168.0
125.647331 112.0
125.669647 156.0
125.745522 156.0
125.897339 184.0
125.952721 156.0
125.995621 164.0
126.015732 244.0
126.053719 176.0
126.141823 152.0
126.230316 80.0
126.314529 196.0
126.380608 128.0
126.4048 180.0
126.464668 160.0
126.597328 148.0
126.67572 160.0
126.709328 180.0
126.850517 132.0
126.955894 192.0
127.027672 144.0
127.054596 188.0
127.090431 148.0
127.128227 108.0
127.34903 124.0
127.382362 84.0
127.436172 168.0
127.519432 56.0
127.658821 136.0
127.717293 36.0
127.744293 92.0
127.827538 132.0
127.861298 352.0
127.883804 112.0
127.924324 148.0
127.992966 224.0
128.066833 240.0
128.235168 136.0
128.268982 208.0
128.363678 168.0
128.471954 140.0
128.519333 64.0
128.594025 220.0
128.636688 88.0
128.654755 80.0
128.727005 188.0
128.74733 128.0
128.952927 176.0
129.067825 628.0
129.117981 168.0
129.142853 156.0
129.163208 252.0
129.441589 144.0
129.577499 196.0
129.595627 160.0
129.659073 164.0
129.810974 148.0
129.915726 176.0
129.980804 148.0
130.035583 196.0
130.072372 152.0
130.14682 172.0
130.210403 184.0
130.239929 132.0
130.260376 180.0
130.278549 216.0
130.467178 232.0
130.51947 96.0
130.562012 164.0
130.68779 128.0
130.708267 172.0
130.72876 164.0
130.756058 92.0
130.778824 168.0
130.80159 208.0
130.81752 152.0
130.890381 120.0
130.929092 148.0
130.988312 180.0
131.027039 160.0
131.048141 192.0
131.085251 1404.0
131.118195 104.0
131.152863 188.0
131.309708 124.0
131.519623 80.0
131.556152 228.0
131.731995 172.0
131.811966 160.0
131.834808 116.0
131.858658 196.0
131.921677 128.0
131.994339 148.0
132.085388 356.0
132.138947 176.0
132.186996 96.0
132.285416 136.0
132.415924 136.0
132.43425 156.0
132.481918 244.0
132.590057 136.0
132.626724 108.0
132.681747 148.0
132.720718 148.0
132.750534 88.0
132.781021 200.0
132.805588 164.0
132.874405 164.0
132.897339 188.0
133.035049 168.0
133.089676 208.0
133.175125 448.0
133.230255 188.0
133.379639 120.0
133.538284 264.0
133.577393 196.0
133.598099 160.0
133.687836 48.0
133.725464 228.0
133.74144 248.0
133.867401 160.0
133.918076 52.0
134.060089 196.0
134.08165 144.0
134.135254 204.0
134.152344 156.0
134.196411 184.0
134.293777 248.0
134.323761 196.0
134.441437 80.0
134.551407 212.0
134.607651 228.0
134.646912 92.0
134.733231 184.0
134.875656 180.0
134.90976 192.0
134.96582 92.0
135.042145 200.0
135.178635 220.0
135.26564 224.0
135.349945 100.0
135.407837 96.0
135.495865 156.0
135.544525 100.0
135.611725 164.0
135.720688 136.0
135.741562 152.0
135.832016 164.0
135.850571 220.0
135.888855 168.0
136.013016 184.0
136.103561 160.0
136.182526 200.0
136.268478 164.0
136.317276 104.0
136.394287 176.0
136.447433 192.0
136.493942 104.0
136.510223 136.0
136.552078 120.0
136.842972 132.0
136.950089 116.0
136.983124 112.0
137.029297 196.0
137.082901 212.0
137.101532 132.0
137.141159 172.0
137.229752 196.0
137.299713 164.0
137.355682 84.0
137.430344 180.0
137.477829 180.0
137.584381 220.0
137.654327 168.0
137.696472 136.0
137.733841 144.0
137.824966 64.0
137.895065 64.0
137.927795 188.0
137.948471 184.0
138.03067 268.0
138.075104 172.0
138.126556 220.0
138.182709 216.0
138.199081 200.0
138.227158 116.0
138.252182 180.0
138.265335 180.0
138.43956 168.0
138.505768 108.0
138.685577 256.0
138.737778 116.0
138.798737 128.0
138.833908 152.0
138.869736 232.0
139.052444 352.0
139.089661 212.0
139.136612 320.0
139.161377 168.0
139.183563 108.0
139.343292 176.0
139.387939 192.0
139.585388 144.0
139.601852 116.0
139.639481 104.0
139.810577 216.0
139.832413 72.0
139.848892 108.0
139.944305 136.0
140.060715 236.0
140.093796 184.0
140.137375 184.0
140.163376 128.0
140.305893 104.0
140.327118 36.0
140.520523 128.0
140.551193 208.0
140.593674 160.0
140.636154 72.0
140.652679 52.0
140.791992 220.0
140.832138 160.0
141.023529 268.0
141.068741 324.0
141.129913 52.0
141.174835 152.0
141.441833 156.0
141.522705 172.0
141.548752 144.0
141.567368 152.0
141.687363 140.0
141.810379 192.0
141.913651 56.0
141.951599 168.0
142.018005 196.0
142.041733 132.0
142.070312 192.0
142.1129 224.0
142.154449 176.0
142.369278 136.0
142.440521 188.0
142.621124 160.0
142.778046 140.0
142.938126 196.0
143.013596 152.0
143.06572 160.0
143.081711 72.0
143.103653 188.0
143.176285 156.0
143.250381 160.0
143.444458 164.0
143.518661 104.0
143.583038 84.0
143.673691 100.0
143.761978 88.0
143.798843 196.0
143.877365 152.0
143.895645 200.0
144.057922 144.0
144.061844 136.0
144.096268 60.0
144.14888 160.0
144.170349 136.0
144.218155 152.0
144.246841 128.0
144.352036 184.0
144.423782 132.0
144.53862 84.0
144.572128 160.0
144.629562 168.0
144.655899 156.0
144.677444 112.0
144.744492 44.0
144.766037 220.0
144.787598 184.0
144.840286 228.0
144.948105 88.0
145.067947 184.0
145.101273 812.0
145.134247 152.0
145.143234 100.0
145.187836 176.0
145.221405 124.0
145.252594 136.0
145.269379 112.0
145.329361 200.0
145.420563 124.0
145.439758 76.0
145.506973 92.0
145.526184 136.0
145.586212 140.0
145.699112 172.0
145.869736 120.0
145.893784 200.0
145.999588 176.0
146.018829 124.0
146.045288 164.0
146.098557 332.0
146.201675 140.0
146.271469 92.0
146.427979 180.0
146.546021 144.0
146.659286 120.0
146.762955 188.0
146.888031 144.0
146.923523 196.0
146.984879 180.0
147.02774 168.0
147.087875 212.0
147.11763 208.0
147.148087 104.0
147.228699 84.0
147.255264 164.0
147.28183 64.0
147.344345 160.0
147.381989 132.0
147.424377 76.0
147.603271 192.0
147.770294 160.0
147.842773 164.0
147.870499 304.0
147.944427 156.0
147.977142 172.0
148.077606 52.0
148.111588 160.0
148.147858 124.0
148.169662 200.0
148.288406 56.0
148.401749 228.0
148.550278 156.0
148.596375 164.0
148.670731 100.0
148.700729 156.0
148.805069 116.0
149.152512 76.0
149.174393 160.0
149.235168 148.0
149.261841 124.0
149.293533 36.0
149.332443 180.0
149.378662 160.0
149.422455 92.0
149.545303 308.0
149.602554 144.0
149.664505 244.0
149.695084 192.0
149.729172 124.0
149.763275 44.0
149.802246 72.0
149.830673 204.0
149.865585 148.0
149.936264 164.0
149.985016 192.0
150.009384 324.0
150.063904 160.0
150.160568 144.0
150.226624 148.0
150.353317 152.0
150.42807 116.0
150.448502 84.0
150.668121 212.0
150.702515 152.0
150.725632 192.0
150.778275 192.0
150.810043 84.0
150.89566 172.0
150.944504 148.0
150.988525 104.0
151.018478 228.0
151.04631 132.0
151.065857 144.0
151.137756 112.0
151.159775 152.0
151.214737 180.0
151.299301 88.0
151.590775 104.0
151.674179 136.0
151.784439 192.0
151.983124 188.0
152.061661 144.0
152.287552 148.0
152.38826 100.0
152.523987 144.0
152.59227 176.0
152.673416 132.0
152.897293 92.0
152.926834 160.0
153.064072 280.0
153.136124 224.0
153.195236 96.0
153.214951 172.0
153.352951 128.0
153.387451 200.0
153.426895 136.0
153.488541 104.0
153.53392 192.0
153.58226 120.0
153.634064 160.0
153.698212 60.0
153.730286 156.0
153.804337 144.0
153.90802 92.0
154.026581 104.0
154.043869 124.0
154.06514 228.0
154.132812 196.0
154.159988 148.0
154.372589 196.0
154.491531 192.0
154.535797 160.0
154.60762 144.0
154.67569 184.0
154.699203 172.0
154.761093 240.0
154.875015 180.0
154.939423 148.0
154.998611 172.0
155.050934 168.0
155.075043 200.0
155.160004 208.0
155.214554 156.0
155.246796 152.0
155.47438 168.0
155.494888 156.0
155.524673 200.0
155.7556 100.0
155.785416 124.0
155.827652 108.0
155.874863 176.0
155.964325 156.0
156.052994 132.0
156.089157 152.0
156.118484 252.0
156.190613 124.0
156.257782 196.0
156.58638 112.0
156.676056 172.0
156.705475 104.0
156.723389 56.0
156.775726 124.0
156.855484 172.0
156.93277 224.0
156.987625 196.0
157.027527 192.0
157.055374 168.0
157.072418 204.0
157.101334 144.0
157.142273 168.0
157.16449 160.0
157.247086 160.0
157.309494 92.0
157.391891 128.0
157.411865 120.0
157.471802 136.0
157.816666 200.0
157.886688 120.0
157.981735 48.0
158.059296 124.0
158.096786 176.0
158.104843 180.0
158.239517 204.0
158.289597 164.0
158.387283 204.0
158.421402 192.0
158.625336 152.0
158.733139 116.0
158.784378 216.0
158.908737 160.0
158.943863 120.0
158.978989 220.0
159.067474 192.0
159.110703 372.0
159.181595 164.0
159.222519 88.0
159.287247 208.0
159.306961 116.0
159.350632 136.0
159.373245 40.0
159.405792 180.0
159.499832 184.0
159.561752 52.0
159.581863 120.0
159.637192 120.0
159.700958 168.0
159.754654 200.0
159.845978 176.0
159.871155 304.0
159.959778 208.0
160.024704 112.0
160.092682 160.0
160.127945 136.0
160.183365 112.0
160.211075 128.0
160.258942 112.0
160.296738 120.0
160.407639 124.0
160.490845 120.0
160.538757 264.0
160.621979 132.0
160.750656 92.0
160.793564 44.0
161.043518 176.0
161.061203 184.0
161.119308 120.0
161.157211 104.0
161.200165 216.0
161.21785 176.0
161.245651 152.0
161.358734 180.0
161.46814 156.0
161.536438 216.0
161.573349 212.0
161.603561 204.0
161.683197 140.0
161.810135 220.0
161.871399 140.0
161.907593 336.0
161.977219 168.0
161.994644 196.0
162.033035 180.0
162.09346 144.0
162.165237 136.0
162.232864 188.0
162.326675 160.0
162.349503 124.0
162.549911 88.0
162.661591 104.0
162.770752 208.0
162.793381 136.0
162.809204 144.0
162.862183 84.0
162.920609 196.0
162.986679 112.0
163.040039 148.0
163.139175 76.0
163.245956 200.0
163.279022 176.0
163.304459 172.0
163.334976 124.0
163.398575 156.0
163.449463 152.0
163.482666 172.0
163.593384 176.0
163.652802 168.0
163.744781 140.0
163.895081 164.0
163.98938 144.0
164.070068 256.0
164.142349 208.0
164.160202 200.0
164.183151 68.0
164.229065 136.0
164.3311 212.0
164.415314 144.0
164.512802 148.0
164.655304 84.0
164.887802 136.0
164.956818 228.0
165.020721 224.0
165.076477 292.0
165.153717 212.0
165.217667 124.0
165.238129 76.0
165.258606 160.0
165.35585 148.0
165.40448 240.0
165.430069 144.0
165.475143 132.0
165.519684 136.0
165.552979 176.0
165.601639 112.0
165.724609 188.0
165.796356 152.0
165.825211 220.0
165.93222 168.0
166.00914 184.0
166.066544 232.0
166.124573 224.0
166.188705 248.0
166.229767 176.0
166.340134 148.0
166.38121 164.0
166.425766 156.0
166.447968 160.0
166.519867 112.0
166.553268 196.0
166.614914 180.0
166.643173 156.0
166.745972 196.0
166.913071 56.0
166.961929 56.0
167.031174 200.0
167.054794 192.0
167.092361 148.0
167.134293 32.0
167.27327 124.0
167.350952 140.0
167.390137 216.0
167.440643 92.0
167.571335 136.0
167.5952 128.0
167.65448 120.0
167.672516 216.0
167.755005 124.0
167.835876 196.0
167.912048 176.0
167.961304 152.0
167.994827 200.0
168.078018 1532.0
168.134171 104.0
168.265823 172.0
168.407852 188.0
168.431091 128.0
168.511185 132.0
168.557693 148.0
168.588699 144.0
168.676437 136.0
168.800629 180.0
168.823959 176.0
168.862762 60.0
168.976578 108.0
168.99469 104.0
169.062515 120.0
169.096649 176.0
169.168091 64.0
169.338989 212.0
169.364197 192.0
169.432251 160.0
169.465927 140.0
169.567001 84.0
169.652542 224.0
169.694016 104.0
169.722549 164.0
169.779602 164.0
169.865189 152.0
169.914474 52.0
169.948212 136.0
170.036438 200.0
170.054031 180.0
170.09198 376.0
170.110596 132.0
170.241547 104.0
170.25972 192.0
170.363617 140.0
170.402588 140.0
170.605316 164.0
170.666153 180.0
170.719727 116.0
170.756134 196.0
170.82637 92.0
170.875793 68.0
170.920029 172.0
170.96167 148.0
171.047073 212.0
171.068268 216.0
171.104187 484.0
171.16893 116.0
171.203781 100.0
171.232422 152.0
171.399155 220.0
171.435638 124.0
171.508621 152.0
171.534683 36.0
171.672882 372.0
171.789078 212.0
171.912888 128.0
171.94606 276.0
172.051636 156.0
172.081573 324.0
172.105453 372.0
172.132172 200.0
172.150452 104.0
172.215912 124.0
172.335907 136.0
172.435211 32.0
172.471802 100.0
172.53978 192.0
172.639145 160.0
172.670532 160.0
172.746384 232.0
172.800705 120.0
172.810425 92.0
172.820786 164.0
172.862747 160.0
172.970261 144.0
172.997604 148.0
173.086563 420.0
173.118515 220.0
173.159958 204.0
173.229248 204.0
173.270569 232.0
173.306656 140.0
173.348587 128.0
173.413162 156.0
173.461716 124.0
173.484528 204.0
173.545181 112.0
173.575562 116.0
173.602875 168.0
173.641632 144.0
173.702545 228.0
173.730927 156.0
173.762878 56.0
173.79245 164.0
173.825851 148.0
173.863052 164.0
173.896759 232.0
173.928833 120.0
173.954468 352.0
173.983841 272.0
174.020233 180.0
174.066513 160.0
174.128357 122788.0
174.210556 168.0
174.239151 60.0
174.257935 196.0
174.294891 92.0
174.312561 176.0
174.366241 164.0
174.423889 132.0
174.459335 144.0
174.512192 88.0
174.559769 616.0
174.596191 232.0
174.648193 32.0
174.678436 208.0
174.695938 144.0
174.718399 96.0
174.740265 88.0
174.794128 204.0
174.821838 132.0
174.84816 168.0
174.869217 48.0
174.911331 68.0
174.96785 88.0
175.010788 180.0
175.069351 132.0
175.089752 196.0
175.131378 20108.0
175.181976 36.0
175.216583 136.0
175.249557 252.0
175.282806 84.0
175.312363 108.0
175.349258 136.0
175.385666 116.0
175.428574 68.0
175.454147 76.0
175.480377 156.0
175.508209 72.0
175.527847 80.0
175.573807 96.0
175.603348 152.0
175.694016 60.0
175.733582 48.0
175.784531 260.0
175.868179 28.0
175.888153 92.0
175.97641 88.0
176.005463 88.0
176.034134 732.0
176.084686 104.0
176.10582 84.0
176.132401 968.0
176.207275 112.0
176.244385 204.0
176.274841 200.0
176.284332 84.0
176.320175 104.0
176.332077 88.0
176.337372 44.0
176.356659 172.0
176.396347 80.0
176.431793 120.0
176.476044 128.0
176.523926 140.0
176.548553 64.0
176.570999 156.0
176.603775 104.0
176.641083 80.0
176.645691 132.0
176.682098 68.0
176.725616 152.0
176.763199 104.0
176.770966 68.0
176.781387 144.0
176.827637 64.0
176.85675 100.0
176.891159 120.0
176.912338 264.0
176.99971 168.0
177.032562 268.0
177.073868 228.0
177.100357 180.0
177.129837 180.0
177.17717 68.0
177.216919 140.0
177.246063 100.0
177.267258 168.0
177.333527 128.0
177.352081 84.0
177.394485 112.0
177.415695 212.0
177.45282 136.0
177.545624 48.0
177.600555 160.0
177.659683 92.0
177.769043 184.0
177.808273 188.0
177.882599 192.0
178.01004 176.0
178.047226 176.0
178.233185 72.0
178.307587 44.0
178.355438 84.0
178.420319 176.0
178.5522 120.0
178.610703 36.0
178.698502 76.0
178.77034 276.0
178.852859 88.0
178.879471 136.0
178.916748 180.0
179.025909 176.0
179.064926 236.0
179.162811 192.0
179.190033 152.0
179.215042 48.0
179.273666 268.0
179.292328 72.0
179.313644 168.0
179.604279 160.0
179.713669 156.0
179.743011 96.0
179.839096 132.0
179.913834 152.0
180.025986 52.0
180.078598 488.0
180.112457 172.0
180.247711 224.0
180.293137 88.0
180.357285 84.0
180.413422 156.0
180.477585 56.0
180.516693 212.0
180.758453 152.0
180.870865 140.0
181.087128 620.0
181.237778 148.0
181.271881 160.0
181.40126 112.0
181.430756 112.0
181.492416 168.0
181.578232 148.0
181.67749 148.0
181.784821 136.0
182.007431 56.0
182.017944 52.0
182.05864 180.0
182.094986 784.0
182.139221 144.0
182.256088 96.0
182.410629 124.0
182.536987 120.0
182.612289 216.0
182.647263 168.0
182.72673 236.0
182.78717 128.0
182.89212 60.0
182.924423 96.0
183.026733 180.0
183.063354 240.0
183.102768 860.0
183.139099 136.0
183.188339 96.0
183.231445 92.0
183.252991 148.0
183.289703 296.0
183.51445 104.0
183.5495 172.0
183.637939 192.0
183.687057 264.0
183.742905 184.0
183.830048 76.0
183.901733 164.0
183.948807 132.0
184.072876 268.0
184.111481 236.0
184.175629 208.0
184.256683 136.0
184.445221 136.0
184.50972 148.0
184.575623 92.0
184.602661 60.0
184.870483 152.0
184.897552 88.0
184.957291 116.0
185.049149 188.0
185.085236 340.0
185.11557 192.0
185.395874 184.0
185.604294 148.0
185.694107 104.0
185.744522 164.0
185.791763 60.0
185.837875 28.0
185.867737 48.0
186.02243 128.0
186.050842 148.0
186.091141 196.0
186.241318 184.0
186.394531 148.0
186.435287 176.0
186.524994 132.0
186.658997 180.0
186.696289 60.0
186.725861 228.0
186.766998 204.0
186.900299 164.0
186.9384 228.0
187.005676 172.0
187.036377 128.0
187.058167 160.0
187.097885 216.0
187.428558 144.0
187.453094 180.0
187.49942 148.0
187.526672 220.0
187.89209 104.0
187.916641 128.0
188.006699 192.0
188.070618 180.0
188.10495 160.0
188.274246 156.0
188.296082 156.0
188.67865 48.0
188.968567 176.0
189.060593 272.0
189.140976 76.0
189.294296 252.0
189.360031 96.0
189.417557 156.0
189.516174 144.0
189.587433 220.0
189.644989 64.0
189.803986 220.0
189.921921 188.0
190.070572 160.0
190.123291 348.0
190.157898 180.0
190.226517 44.0
190.278671 140.0
190.520355 232.0
190.693481 116.0
190.836426 160.0
191.067856 136.0
191.108734 180.0
191.130753 68.0
191.183029 180.0
191.216599 184.0
191.298645 100.0
191.395004 88.0
191.433548 100.0
191.458344 188.0
191.546478 212.0
191.604324 192.0
191.673218 112.0
191.693192 176.0
191.738007 156.0
191.775375 120.0
191.813782 140.0
191.917435 200.0
191.986557 180.0
192.066162 500.0
192.096603 244.0
192.138077 18268.0
192.195145 192.0
192.256683 104.0
192.29097 56.0
192.343414 40.0
192.376862 68.0
192.45108 208.0
192.509064 152.0
192.542206 56.0
192.562149 236.0
192.597443 64.0
192.669281 152.0
192.694138 180.0
192.738342 40.0
192.800858 136.0
192.937347 204.0
193.055328 156.0
193.082901 188.0
193.108795 60.0
193.140915 4268.0
193.223282 104.0
193.256119 80.0
193.296921 104.0
193.329147 56.0
193.4021 76.0
193.480682 72.0
193.518372 128.0
193.543289 176.0
193.573746 80.0
193.792587 180.0
193.823059 52.0
193.856308 80.0
193.917282 140.0
193.997665 36.0
194.019852 168.0
194.055679 168.0
194.078674 272.0
194.101532 320.0
194.142899 620.0
194.189407 196.0
194.424835 32.0
194.463684 228.0
194.494217 144.0
194.521988 112.0
194.610504 176.0
194.646927 52.0
194.716354 128.0
194.738571 140.0
194.816345 64.0
194.883026 180.0
194.945267 248.0
194.980286 128.0
195.059769 128.0
195.094543 80.0
195.141525 300.0
195.197128 48.0
195.258316 76.0
195.31395 144.0
195.35289 88.0
195.483658 172.0
195.717484 68.0
195.736984 100.0
196.007187 192.0
196.073654 768.0
196.114578 120.0
196.152115 196.0
196.235748 200.0
196.280365 140.0
196.344513 36.0
196.483978 236.0
196.643036 44.0
196.726776 192.0
196.944595 92.0
196.969727 84.0
197.079636 924.0
197.121719 512.0
197.184891 168.0
197.207245 168.0
197.3638 204.0
197.405746 104.0
197.517624 136.0
197.562378 192.0
197.60434 48.0
198.049469 152.0
198.091995 936.0
198.164322 80.0
198.220367 48.0
198.25679 132.0
198.380127 168.0
198.455826 164.0
198.492279 44.0
198.590439 128.0
198.784012 136.0
198.806473 60.0
198.836624 220.0
198.873825 184.0
198.910324 196.0
198.93277 172.0
199.033844 96.0
199.060455 148.0
199.089645 276.0
199.134949 172.0
199.180435 144.0
199.348465 164.0
199.370956 100.0
199.460892 120.0
199.511505 104.0
199.570541 100.0
199.607101 60.0
199.626785 104.0
199.663345 120.0
199.719589 232.0
199.753677 172.0
199.874329 152.0
200.03421 916.0
200.070877 172.0
200.115555 188.0
200.245941 136.0
200.263733 112.0
200.28537 112.0
200.330444 192.0
200.437515 80.0
200.57843 160.0
200.59816 160.0
200.674286 156.0
200.699371 120.0
200.730682 104.0
200.846313 128.0
200.945053 180.0
200.990204 152.0
201.032715 120.0
201.080475 284.0
201.120026 104.0
201.221649 152.0
201.40239 56.0
201.430634 116.0
201.484314 176.0
201.612671 136.0
201.690613 92.0
201.854584 60.0
201.913971 164.0
201.950745 232.0
202.01297 184.0
202.085083 404.0
202.14595 116.0
202.213882 72.0
202.242188 144.0
202.344101 240.0
202.505508 172.0
202.681152 36.0
202.709488 156.0
202.811523 216.0
202.916412 180.0
203.009445 208.0
203.04686 88.0
203.095535 188.0
203.137619 156.0
203.322067 180.0
203.370316 148.0
203.515091 76.0
203.654251 200.0
203.705383 76.0
203.739471 104.0
204.068192 292.0
204.100433 140.0
204.174377 156.0
204.273926 220.0
204.643921 232.0
204.71225 68.0
204.777451 188.0
204.803391 196.0
204.92305 288.0
205.00853 160.0
205.031326 116.0
205.065536 144.0
205.199509 144.0
205.319275 160.0
205.558914 64.0
205.641678 196.0
205.851486 176.0
205.978622 92.0
206.043304 212.0
206.267227 100.0
206.373016 236.0
206.627579 120.0
206.739166 152.0
206.770645 172.0
206.996811 200.0
207.022583 136.0
207.067123 448.0
207.099915 164.0
207.131424 160.0
207.171906 124.0
207.317657 108.0
207.369247 132.0
207.406509 188.0
207.440918 160.0
207.721939 124.0
207.767853 120.0
207.93428 156.0
208.037613 164.0
208.073975 1828.0
208.124725 140.0
208.212769 152.0
208.258728 184.0
208.388718 192.0
208.474213 136.0
208.684052 172.0
208.715683 48.0
208.914139 160.0
208.990524 80.0
209.023468 180.0
209.08223 2980.0
209.166412 120.0
209.233582 40.0
209.305573 44.0
209.368927 136.0
209.391968 68.0
209.459015 144.0
209.492783 164.0
209.605148 140.0
209.741882 144.0
209.976074 120.0
210.044205 368.0
210.090622 9936.0
210.137924 140.0
210.171707 184.0
210.197708 164.0
210.259781 120.0
210.297302 92.0
210.338898 88.0
210.432983 84.0
210.479187 272.0
210.522507 164.0
210.594711 52.0
210.649582 128.0
210.678482 48.0
210.788269 168.0
210.88916 216.0
210.932785 56.0
210.961685 268.0
211.054688 120.0
211.097717 4244.0
211.152542 156.0
211.178574 144.0
211.216171 76.0
211.273148 92.0
211.302963 188.0
211.33847 88.0
211.55722 252.0
211.601074 132.0
211.687439 92.0
211.735718 80.0
211.769028 192.0
211.841446 52.0
211.8936 60.0
211.99472 160.0
212.067032 1056.0
212.099716 672.0
212.166031 220.0
212.307663 268.0
212.327423 188.0
212.360321 152.0
212.455048 188.0
212.487961 120.0
212.615631 184.0
212.661697 152.0
212.80722 116.0
212.837921 196.0
212.955338 52.0
212.990189 48.0
213.068588 348.0
213.113998 156.0
213.379608 64.0
213.41449 156.0
213.487198 220.0
213.568634 164.0
213.626816 124.0
213.973129 184.0
213.996429 256.0
214.042068 692.0
214.083817 672.0
214.121506 144.0
214.252731 88.0
214.302261 112.0
214.322662 124.0
214.719116 72.0
214.888321 172.0
214.908737 108.0
215.047928 304.0
215.095856 440.0
215.162674 96.0
215.251007 164.0
215.334961 92.0
215.37001 184.0
215.463486 148.0
215.559906 44.0
215.640015 204.0
215.673889 72.0
215.890259 196.0
216.057053 164.0
216.10759 216.0
216.498978 80.0
216.583405 208.0
216.935562 76.0
217.023514 144.0
217.05983 1644.0
217.369644 164.0
217.465515 48.0
217.579453 112.0
217.818848 208.0
217.848236 124.0
217.90181 64.0
218.067871 284.0
218.095062 140.0
218.13623 36.0
218.315582 152.0
218.413452 216.0
218.50972 80.0
218.550919 140.0
218.706894 140.0
218.818756 60.0
218.910034 184.0
218.954208 152.0
219.0448 180.0
219.069763 176.0
219.175156 48.0
219.195786 140.0
219.229126 216.0
219.293045 196.0
219.377991 156.0
219.502365 196.0
219.54364 128.0
219.773743 152.0
219.841614 148.0
219.864044 172.0
219.89473 148.0
219.959671 188.0
220.051193 180.0
220.11319 48.0
220.26973 132.0
220.305176 44.0
220.41745 244.0
220.482468 184.0
220.574097 200.0
220.60968 220.0
220.843185 180.0
220.863892 140.0
220.92305 160.0
220.976303 44.0
221.073517 408.0
221.124268 128.0
221.550674 52.0
221.589188 152.0
221.651199 168.0
221.829239 104.0
221.974518 52.0
222.001221 180.0
222.074966 208.0
222.173248 48.0
222.260117 172.0
222.291931 100.0
222.380966 56.0
222.645218 184.0
222.689758 168.0
222.873947 268.0
222.974991 152.0
223.056992 392.0
223.102814 196.0
223.141464 84.0
223.310959 164.0
223.388306 60.0
223.498383 240.0
223.924103 128.0
223.980698 44.0
224.013458 156.0
224.063293 604.0
224.105331 348.0
224.183289 36.0
224.207855 288.0
224.365112 104.0
224.409836 180.0
224.451584 132.0
224.621582 208.0
224.818512 168.0
224.884171 180.0
224.925964 44.0
225.018509 104.0
225.076218 1344.0
225.113602 292.0
225.176773 44.0
225.209625 96.0
225.272354 204.0
225.352219 132.0
225.529343 136.0
225.754944 152.0
225.780502 212.0
225.978348 144.0
226.028793 160.0
226.087189 22388.0
226.151505 44.0
226.192612 60.0
226.204834 44.0
226.217102 96.0
226.224976 132.0
226.292206 44.0
226.352097 100.0
226.373047 88.0
226.444092 172.0
226.485291 84.0
226.561752 148.0
226.618683 164.0
226.675613 188.0
226.786499 88.0
226.911575 72.0
226.984375 180.0
227.030426 112.0
227.086334 4636.0
227.170898 172.0
227.19397 68.0
227.213287 88.0
227.281342 104.0
227.316193 96.0
227.371368 68.0
227.39238 64.0
227.49144 144.0
227.563492 100.0
227.71965 48.0
227.7677 44.0
227.791733 76.0
227.842804 56.0
227.914917 68.0
227.978027 172.0
228.094025 1492.0
228.245575 92.0
228.320755 100.0
228.356842 164.0
228.552383 136.0
228.611862 136.0
228.622528 104.0
228.696838 204.0
228.763062 96.0
228.794205 164.0
228.830536 108.0
228.862427 180.0
228.979874 108.0
229.077423 172.0
229.109833 1768.0
229.178696 192.0
229.281158 60.0
229.347458 140.0
229.395691 40.0
229.588669 76.0
229.655014 96.0
229.676132 128.0
229.796799 68.0
230.014099 108.0
230.049088 180.0
230.075699 208.0
230.107925 292.0
230.231491 108.0
230.274445 216.0
230.47316 184.0
230.578934 60.0
230.669601 40.0
230.751236 100.0
230.863113 252.0
230.911499 112.0
231.082901 380.0
231.159576 132.0
231.198929 124.0
231.286697 204.0
231.313934 148.0
231.362381 200.0
231.465317 160.0
231.86824 72.0
232.141098 212.0
232.320053 184.0
232.483902 92.0
232.772293 76.0
232.799622 116.0
232.863403 132.0
232.994019 176.0
233.051758 136.0
233.231064 184.0
233.440842 84.0
234.043365 176.0
234.082947 164.0
234.27179 128.0
234.536896 168.0
234.860123 180.0
234.997406 240.0
235.027908 144.0
235.062637 236.0
235.317886 152.0
235.385056 76.0
235.418655 124.0
235.464462 144.0
235.641632 56.0
235.681351 92.0
235.919754 44.0
236.070541 2864.0
236.124634 88.0
236.396912 76.0
236.44281 132.0
236.476486 52.0
236.531586 220.0
236.574432 40.0
236.767349 160.0
236.886795 160.0
236.943481 176.0
236.997101 92.0
237.076523 1716.0
237.291336 60.0
237.352661 252.0
237.380981 132.0
237.705429 180.0
237.794434 92.0
237.822067 76.0
237.852753 140.0
237.890991 220.0
237.920288 212.0
237.984772 148.0
238.073135 1524.0
238.135254 192.0
238.16597 80.0
238.304214 120.0
238.371811 140.0
238.414825 48.0
238.528549 36.0
238.577621 100.0
238.60318 132.0
238.651535 112.0
238.703812 216.0
238.789917 176.0
238.856445 204.0
238.876038 232.0
238.903732 52.0
238.934494 260.0
239.011414 136.0
239.047638 228.0
239.079514 1888.0
239.180695 68.0
239.20224 136.0
239.328461 172.0
239.362335 92.0
239.399292 104.0
239.463974 188.0
239.491684 132.0
239.565613 60.0
239.603424 160.0
239.790558 64.0
239.879944 128.0
240.01561 132.0
240.070602 736.0
240.099213 2492.0
240.181747 92.0
240.240768 76.0
240.278732 136.0
240.311722 108.0
240.490707 168.0
240.513657 120.0
240.663589 132.0
240.709915 152.0
240.799469 68.0
240.89653 88.0
241.03006 144.0
241.072006 1708.0
241.108887 1312.0
241.186768 212.0
241.300079 92.0
241.394531 132.0
241.467072 128.0
241.488724 60.0
241.541306 48.0
241.634109 128.0
241.751694 108.0
241.785751 84.0
241.921936 160.0
242.080292 1232.0
242.166565 44.0
242.19754 32.0
242.262589 84.0
242.402023 100.0
242.433014 88.0
242.47641 140.0
242.556992 128.0
242.656204 120.0
242.730621 216.0
242.886215 140.0
243.022186 132.0
243.08963 2440.0
243.360519 168.0
243.55307 144.0
243.577911 84.0
243.748795 116.0
243.776764 128.0
243.82959 88.0
243.949829 188.0
244.093414 376.0
244.175995 48.0
244.212021 204.0
244.289352 144.0
244.417358 164.0
244.488922 176.0
244.600983 100.0
245.060089 148.0
245.093658 192.0
245.127335 224.0
245.155228 76.0
245.19902 80.0
245.280746 220.0
245.303864 132.0
245.398529 128.0
245.672989 88.0
245.719788 196.0
245.872681 92.0
246.025635 156.0
246.067627 460.0
246.14975 144.0
246.378189 144.0
246.728577 64.0
246.86615 216.0
246.89743 116.0
246.919312 156.0
247.08287 184.0
247.313553 84.0
247.501389 44.0
247.679916 132.0
247.849091 200.0
247.90863 136.0
247.941635 128.0
247.993256 148.0
248.060333 160.0
248.083633 120.0
248.171936 156.0
248.328751 112.0
248.41658 112.0
248.520111 204.0
248.548355 176.0
248.607971 84.0
248.658188 136.0
248.692719 172.0
248.833984 120.0
248.918762 44.0
249.02449 144.0
249.083481 724.0
249.148041 92.0
249.198318 48.0
249.327164 104.0
249.402588 48.0
249.509476 32.0
249.566071 136.0
249.783768 164.0
250.009613 204.0
250.083527 116.0
250.333878 144.0
250.507111 124.0
250.573257 168.0
250.629974 100.0
251.049423 140.0
251.079163 164.0
251.169098 180.0
251.247955 176.0
251.595108 144.0
251.639313 148.0
251.831955 200.0
252.059067 364.0
252.104599 272.0
252.151062 100.0
252.221817 172.0
252.25853 120.0
252.340729 208.0
252.377136 96.0
252.422943 236.0
252.473541 44.0
252.713959 140.0
253.03363 160.0
253.070892 1248.0
253.229965 116.0
253.312332 108.0
253.541611 176.0
253.667252 168.0
253.764267 104.0
253.924088 136.0
253.965317 76.0
254.006561 144.0
254.080597 12424.0
254.141769 148.0
254.165192 168.0
254.213806 100.0
254.240448 84.0
254.304825 84.0
254.349258 44.0
254.460373 68.0
254.542938 56.0
254.590561 56.0
254.714447 64.0
254.821823 244.0
254.857407 140.0
254.895538 124.0
254.987701 164.0
255.077271 4272.0
255.19191 152.0
255.284882 84.0
255.327896 152.0
255.474213 100.0
255.50412 60.0
255.56012 108.0
255.607849 56.0
255.805008 152.0
255.849747 128.0
255.970734 96.0
256.094788 2160.0
256.19931 84.0
256.266968 60.0
256.29245 72.0
256.34494 72.0
256.416748 56.0
256.524963 148.0
256.636719 80.0
256.659027 100.0
256.713226 104.0
256.828064 44.0
256.94928 148.0
256.981415 120.0
257.064392 296.0
257.096649 2220.0
257.293976 128.0
257.364227 148.0
257.563721 60.0
257.712952 132.0
257.744324 148.0
257.888153 72.0
257.984039 144.0
258.047974 128.0
258.082703 280.0
258.094604 328.0
258.101074 252.0
258.172699 84.0
258.198273 100.0
258.310242 112.0
258.478912 72.0
258.602905 128.0
258.723053 48.0
258.751862 248.0
258.8255 48.0
259.01767 152.0
259.072021 468.0
259.123383 84.0
259.148926 120.0
259.296448 140.0
259.338104 128.0
259.366943 128.0
259.450287 56.0
259.536865 88.0
259.666595 84.0
259.690796 124.0
259.729309 148.0
260.072632 160.0
260.101532 148.0
260.339111 56.0
260.445099 160.0
260.641083 136.0
260.692505 216.0
260.920715 156.0
261.097565 140.0
261.161896 68.0
261.243744 236.0
261.285706 252.0
261.322754 132.0
261.422516 44.0
261.457916 156.0
261.763733 176.0
262.198639 152.0
262.721008 168.0
262.863007 92.0
262.921082 64.0
263.069305 156.0
263.234222 172.0
263.256836 120.0
263.308502 120.0
263.437714 148.0
263.492645 128.0
263.566956 92.0
263.631592 128.0
263.664612 128.0
264.087433 200.0
264.236267 132.0
264.352753 176.0
264.57251 76.0
264.585602 68.0
264.593933 140.0
264.705597 172.0
264.744446 156.0
264.92569 76.0
264.934845 72.0
264.946747 132.0
264.970123 184.0
265.005859 196.0
265.06076 508.0
265.091095 144.0
265.402283 180.0
265.496338 200.0
265.522278 84.0
265.869415 148.0
265.905121 112.0
265.953796 48.0
266.067413 768.0
266.132355 128.0
266.181061 76.0
266.314209 100.0
266.369446 72.0
266.473389 124.0
266.587128 108.0
266.707397 108.0
266.743134 104.0
266.895966 136.0
266.928467 76.0
266.960999 160.0
266.982361 140.0
267.00415 172.0
267.0896 4056.0
267.152893 100.0
267.191925 60.0
267.214722 176.0
267.250488 92.0
267.29071 112.0
267.336945 176.0
267.409973 192.0
267.643494 76.0
267.70401 136.0
267.742035 128.0
267.772308 136.0
267.80719 120.0
267.86908 140.0
267.890533 92.0
267.940765 136.0
267.986359 40.0
268.039001 156.0
268.095551 19528.0
268.142365 180.0
268.201447 88.0
268.282959 32.0
268.305786 76.0
268.331848 80.0
268.357941 100.0
268.40033 84.0
268.478607 124.0
268.525879 128.0
268.550354 140.0
268.576447 52.0
268.614136 136.0
268.635162 204.0
268.667786 40.0
268.711761 132.0
268.825775 248.0
268.876617 200.0
268.956573 272.0
269.021759 120.0
269.068604 816.0
269.104004 32476.0
269.183807 228.0
269.210297 132.0
269.261566 160.0
269.334961 156.0
269.41983 72.0
269.462646 52.0
269.513428 48.0
269.582031 156.0
269.609619 156.0
269.642761 24.0
269.664276 60.0
269.722565 60.0
269.790497 236.0
269.867462 64.0
269.897369 248.0
269.91095 116.0
269.921234 204.0
269.958618 212.0
270.003784 136.0
270.105377 7052.0
270.162537 112.0
270.203308 96.0
270.240448 80.0
270.300385 96.0
270.309204 44.0
270.353821 52.0
270.527313 80.0
270.573151 108.0
270.614624 128.0
270.694916 140.0
270.812195 176.0
270.854767 64.0
270.905914 68.0
270.939941 72.0
271.00412 48.0
271.077393 440.0
271.107666 644.0
271.151978 200.0
271.228333 36.0
271.259796 148.0
271.292877 128.0
271.433502 228.0
271.51358 124.0
271.57019 236.0
271.605438 124.0
271.66449 64.0
271.713684 72.0
271.736664 132.0
271.815399 80.0
271.871185 76.0
271.957397 92.0
272.022949 84.0
272.083801 340.0
272.089905 248.0
272.180817 112.0
272.37027 68.0
272.442535 52.0
272.62326 192.0
272.656128 176.0
272.757996 180.0
272.846771 92.0
272.990784 120.0
273.023376 272.0
273.05304 144.0
273.078613 132.0
273.100525 420.0
273.162476 88.0
273.249542 112.0
273.28421 52.0
273.359161 200.0
273.399384 104.0
273.5047 40.0
273.540924 48.0
273.754913 60.0
273.939362 160.0
274.09259 304.0
274.22934 52.0
274.35791 48.0
274.773468 132.0
274.859253 192.0
274.960999 168.0
275.271881 124.0
275.509705 100.0
275.547729 132.0
275.569153 196.0
275.896362 104.0
275.932739 128.0
276.028625 216.0
276.111298 160.0
276.172424 124.0
276.552429 124.0
276.822845 116.0
276.96524 104.0
277.01825 84.0
277.251556 164.0
277.409302 88.0
277.468964 108.0
277.565979 172.0
277.634338 160.0
277.860321 172.0
277.936646 164.0
277.964294 80.0
277.98642 148.0
278.082672 136.0
278.122498 116.0
278.165649 216.0
278.1922 128.0
278.47113 72.0
278.540985 152.0
278.623932 116.0
278.859863 164.0
278.956268 56.0
279.046021 108.0
279.395233 168.0
279.601562 172.0
279.74469 176.0
279.811279 92.0
279.834564 36.0
280.011078 140.0
280.083496 260.0
280.117645 188.0
280.344238 236.0
280.707581 236.0
280.74762 180.0
280.917725 160.0
280.941071 128.0
281.059998 380.0
281.092438 888.0
281.157959 88.0
281.234741 124.0
281.271454 132.0
281.68689 156.0
281.80246 36.0
281.878174 156.0
282.049744 100.0
282.090607 240.0
282.143372 176.0
282.297943 104.0
282.444336 144.0
282.544678 76.0
282.608246 88.0
282.665771 108.0
282.698608 72.0
282.815735 104.0
283.020752 208.0
283.070801 10632.0
283.162811 152.0
283.194122 64.0
283.264465 108.0
283.29126 184.0
283.325867 208.0
283.368317 204.0
283.434082 240.0
283.50235 216.0
283.542572 44.0
283.591522 144.0
283.663239 200.0
283.775574 164.0
283.924774 100.0
284.07373 2096.0
284.183075 116.0
284.216614 60.0
284.327362 52.0
284.374359 52.0
284.408905 136.0
284.511993 204.0
284.619415 64.0
284.723541 52.0
284.804138 196.0
284.871307 48.0
284.975464 88.0
285.062195 1892.0
285.097412 940.0
285.172272 236.0
285.318298 44.0
285.341827 116.0
285.372375 140.0
285.469604 48.0
285.496521 72.0
285.5513 96.0
285.595398 96.0
285.883392 140.0
285.906952 44.0
285.940918 88.0
286.004883 128.0
286.068115 280.0
286.079163 224.0
286.102692 420.0
286.199829 124.0
286.499573 128.0
286.647827 148.0
286.708496 156.0
286.789368 48.0
287.098602 1096.0
287.163635 64.0
287.362671 132.0
287.523315 80.0
287.615784 148.0
287.791351 132.0
287.831848 180.0
287.902771 156.0
288.089935 116.0
288.111664 300.0
288.142609 136.0
288.220306 108.0
288.29129 68.0
288.345367 216.0
288.406189 140.0
288.499939 192.0
288.592133 68.0
288.862701 60.0
288.977722 200.0
289.082611 84.0
289.113068 124.0
289.390656 36.0
289.46405 148.0
289.539673 116.0
289.604004 104.0
290.125854 220.0
290.149597 252.0
290.509094 136.0
290.719452 172.0
290.890594 200.0
291.109863 64.0
291.187988 156.0
291.225342 68.0
291.639862 176.0
291.810211 180.0
291.906342 224.0
292.248627 224.0
292.37384 180.0
292.541321 128.0
292.837555 32.0
293.16803 152.0
293.62146 144.0
293.757904 136.0
293.846619 80.0
293.884155 116.0
294.256165 80.0
294.464478 40.0
294.830048 216.0
294.956512 152.0
295.37027 128.0
295.71051 380.0
296.147278 140.0
296.280884 212.0
296.393951 100.0
296.438507 172.0
296.462494 164.0
296.822449 172.0
296.887604 152.0
297.087341 1048.0
297.131134 72.0
297.186035 100.0
297.223785 140.0
297.275269 80.0
297.337036 152.0
297.400116 136.0
297.731842 96.0
297.800537 176.0
297.931091 160.0
297.968872 92.0
297.99292 60.0
298.094543 12472.0
298.224945 192.0
298.267853 92.0
298.312531 44.0
298.336609 84.0
298.469086 128.0
298.519836 188.0
298.582794 188.0
298.665802 44.0
298.708008 40.0
298.767761 140.0
298.800903 80.0
298.824982 60.0
298.876587 88.0
298.907562 180.0
298.95575 88.0
298.983276 108.0
299.015259 192.0
299.082062 7076.0
299.230499 180.0
299.276825 96.0
299.33313 152.0
299.379181 80.0
299.41275 48.0
299.433289 124.0
299.520386 60.0
299.591309 68.0
299.634094 116.0
299.751221 36.0
299.77536 48.0
299.830505 56.0
299.935242 156.0
299.961487 104.0
300.009735 60.0
300.083954 2056.0
300.137756 368.0
300.254547 36.0
300.314667 144.0
300.399414 72.0
300.427032 44.0
300.537445 40.0
300.565033 52.0
300.606445 80.0
300.630615 116.0
300.676605 72.0
300.758301 76.0
300.800629 196.0
300.830811 104.0
300.854736 60.0
300.906738 52.0
300.962006 60.0
301.020599 424.0
301.093933 19804.0
301.222168 112.0
301.251678 164.0
301.305481 68.0
301.35788 64.0
301.387848 56.0
301.526398 220.0
301.645111 76.0
301.675842 52.0
301.794556 216.0
301.853516 76.0
301.891541 140.0
301.922668 120.0
301.958984 60.0
302.008057 64.0
302.097107 3368.0
302.182129 96.0
302.38974 80.0
302.587067 148.0
302.763672 104.0
302.891815 136.0
302.926453 88.0
303.045898 36.0
303.099182 732.0
303.32843 36.0
303.373505 52.0
303.4151 188.0
303.480988 84.0
303.515656 36.0
303.557281 48.0
303.754974 44.0
303.782715 88.0
303.862518 108.0
303.973541 80.0
304.023804 156.0
304.060303 120.0
304.095612 256.0
304.124969 120.0
304.188751 184.0
304.270355 140.0
304.386627 148.0
304.508179 64.0
304.553345 116.0
304.640198 140.0
304.879944 164.0
304.918182 176.0
304.95639 136.0
305.025909 208.0
305.220612 180.0
305.342346 120.0
305.711121 100.0
306.229858 204.0
306.254242 100.0
306.700256 52.0
306.756012 176.0
307.55484 76.0
307.680511 40.0
307.86908 140.0
308.14502 56.0
308.48053 152.0
308.567932 116.0
308.672821 172.0
308.770752 56.0
308.795227 88.0
309.323608 104.0
309.376099 116.0
309.680756 160.0
309.747314 180.0
309.904968 52.0
309.947021 120.0
310.064819 136.0
310.097046 172.0
310.216888 136.0
310.448303 196.0
310.602631 132.0
310.672791 76.0
310.76535 156.0
310.844727 120.0
310.96405 64.0
311.006165 152.0
311.097412 288.0
311.480194 76.0
311.537994 168.0
311.575043 120.0
311.606659 100.0
311.662903 184.0
311.782379 60.0
311.817505 92.0
312.067108 228.0
312.313293 32.0
312.376587 168.0
312.538452 96.0
312.735504 44.0
312.777771 128.0
313.078064 1968.0
313.202728 152.0
313.281342 132.0
313.408173 132.0
313.566742 192.0
313.623138 116.0
313.6586 144.0
313.693939 96.0
313.748932 112.0
313.791626 156.0
313.825226 160.0
313.90329 112.0
313.965149 108.0
314.021576 116.0
314.085052 600.0
314.210022 152.0
314.250885 124.0
314.287323 120.0
314.427887 228.0
314.455322 172.0
314.461639 248.0
314.502075 152.0
314.534729 84.0
314.575562 48.0
314.617157 148.0
314.62616 220.0
314.66156 156.0
314.70459 88.0
314.759705 156.0
314.783875 340.0
314.827759 184.0
314.853333 72.0
314.859741 304.0
314.923859 136.0
314.955322 308.0
314.969391 184.0
314.982544 304.0
315.037231 756.0
315.050629 364.0
315.09845 149308.0
315.180725 428.0
315.255554 136.0
315.318665 64.0
315.357666 180.0
315.382477 140.0
315.477356 336.0
315.536865 100.0
315.58136 104.0
315.625397 140.0
315.679718 692.0
315.708008 132.0
315.753052 72.0
315.781555 96.0
315.829315 96.0
315.898956 136.0
315.941528 68.0
315.980286 108.0
316.004669 276.0
316.100159 27928.0
316.186798 80.0
316.209534 200.0
316.287476 72.0
316.336761 128.0
316.366272 180.0
316.39679 52.0
316.434296 192.0
316.470581 64.0
316.505859 132.0
316.576691 112.0
316.6315 144.0
316.656555 68.0
316.688171 236.0
316.719421 72.0
316.779694 100.0
316.802948 76.0
316.842102 192.0
316.870819 152.0
316.894928 92.0
316.952301 88.0
316.99173 100.0
317.023468 96.0
317.10025 3796.0
317.16983 108.0
317.192871 192.0
317.233978 156.0
317.281952 68.0
317.311127 92.0
317.336243 88.0
317.398956 96.0
317.429077 56.0
317.475555 76.0
317.503357 72.0
317.570435 112.0
317.631256 112.0
317.68927 56.0
317.718597 64.0
317.760742 72.0
317.789276 136.0
317.828827 120.0
317.861572 124.0
317.949493 64.0
317.976562 108.0
318.037354 104.0
318.101105 968.0
318.159576 332.0
318.190186 92.0
318.249878 84.0
318.329987 108.0
318.34256 88.0
318.358643 176.0
318.394928 232.0
318.452972 68.0
318.488495 124.0
318.518494 116.0
318.567841 156.0
318.611938 48.0
318.66864 96.0
318.683685 68.0
318.725739 72.0
318.815369 32.0
318.859192 120.0
318.888947 108.0
318.993103 76.0
319.03949 148.0
319.117523 60.0
319.149536 72.0
319.185089 76.0
319.234863 104.0
319.269653 144.0
319.295319 52.0
319.341553 96.0
319.373566 124.0
319.426941 84.0
319.460724 96.0
319.572784 148.0
319.621368 68.0
319.636108 76.0
319.668884 84.0
319.850403 72.0
319.952271 84.0
320.078247 72.0
320.35022 112.0
320.395233 220.0
320.443695 72.0
320.620117 108.0
320.762299 60.0
320.933441 76.0
321.108185 52.0
321.200928 96.0
321.525604 88.0
321.875458 100.0
321.964752 52.0
322.086182 80.0
322.189789 40.0
322.418457 56.0
322.929749 60.0
323.249512 84.0
323.416351 60.0
323.7565 88.0
325.086517 44.0
325.348541 60.0
325.625061 52.0
325.772308 100.0
326.933716 48.0
327.038086 40.0
327.243286 32.0
327.47348 104.0
327.754761 76.0
328.281891 88.0
328.385651 72.0
328.410919 96.0
329.279205 48.0
329.425232 80.0
329.764923 164.0
330.817535 36.0
330.998566 112.0
331.089203 1724.0
331.209869 128.0
331.335419 84.0
331.915344 60.0
332.09552 584.0
332.223663 52.0
332.702698 120.0
332.86972 88.0
333.088531 112.0
333.396484 52.0
333.505524 72.0
333.669098 92.0
333.945465 76.0
333.97821 136.0
334.090973 140.0
334.294739 80.0
334.481842 92.0
334.593201 32.0
337.161224 92.0
337.237976 48.0
337.381561 28.0
338.262177 128.0
338.503815 48.0
338.969055 104.0
339.805084 56.0
340.509888 108.0
340.645782 64.0
340.678864 48.0
341.130859 88.0
341.259552 76.0
341.726654 60.0
342.518188 88.0
343.104126 116.0
343.793915 136.0
344.621063 52.0
345.105286 32.0
345.227295 64.0
345.671234 180.0
345.700836 72.0
345.919189 68.0
347.67981 44.0
347.750336 68.0
347.776337 52.0
350.696167 96.0
351.098846 100.0
352.566071 104.0
352.779114 96.0
353.029633 68.0
355.9151 36.0
359.812103 88.0
362.505249 104.0
366.998352 56.0
368.421967 60.0
372.244568 108.0
374.810364 96.0
375.789734 168.0
377.060242 124.0
377.172333 40.0
377.733032 72.0
378.270905 140.0
378.402527 100.0
380.263275 84.0
382.139252 132.0
384.915558 72.0
388.802948 116.0
389.772919 96.0
390.248535 100.0
391.110107 128.0
391.220337 52.0
392.090851 80.0
394.731934 84.0
396.798828 132.0
397.064514 36.0
397.36203 124.0
397.746979 60.0
401.23587 80.0
401.654602 128.0
402.237183 132.0
403.691528 64.0
404.591827 80.0
404.992279 112.0
406.283081 56.0
406.708435 96.0
407.487518 124.0
408.086395 40.0
410.550812 120.0
411.204407 132.0
414.160095 160.0
415.814362 88.0
417.598022 32.0
422.05957 40.0
422.370392 128.0
423.860657 108.0
424.569885 68.0
424.926758 48.0
425.160645 156.0
425.977753 76.0
426.080444 152.0
427.57724 88.0
428.396637 236.0
428.990082 152.0
429.278687 112.0
429.724182 80.0
431.181885 64.0
432.195068 160.0
432.45166 48.0
435.034149 60.0
436.833557 52.0
437.041565 80.0
437.357849 84.0
437.457764 52.0
439.392975 80.0
442.664368 92.0
443.284363 96.0
445.352722 104.0
445.457733 108.0
446.17218 28.0
447.164917 76.0
447.223846 120.0
448.087128 92.0
451.506348 84.0
451.662842 64.0
452.204437 48.0
452.538879 76.0
452.691315 80.0
455.601044 100.0
456.281036 44.0
456.706299 48.0
456.917633 136.0
457.753265 80.0
458.64798 212.0
461.743561 144.0
462.96759 84.0
464.58783 52.0
465.983154 136.0
466.073395 168.0
467.802368 248.0
469.577667 76.0
470.58313 48.0
472.476196 68.0
472.593018 108.0
472.882965 52.0
473.510773 100.0
474.195312 92.0
474.225647 64.0
474.941101 60.0
475.190826 152.0
476.19986 136.0
479.759369 96.0
480.042786 76.0
484.869232 108.0
485.763733 92.0
487.146545 76.0
487.295929 100.0
488.931763 120.0
491.209747 176.0
493.280823 168.0
496.730469 84.0
497.880066 112.0
498.359833 72.0
498.946503 40.0
500.940277 160.0
502.005524 84.0
503.540771 148.0
503.786438 76.0
503.848999 80.0
504.076874 104.0
504.483612 52.0
504.765289 100.0
504.988892 168.0
505.03363 40.0
505.194672 156.0
505.234924 128.0
505.266266 156.0
505.333649 5312.0
505.409424 148.0
505.445221 40.0
505.628693 128.0
505.792603 136.0
505.830139 104.0
505.951813 112.0
506.031586 52.0
506.227448 1836.0
506.337372 1976.0
506.407745 72.0
506.564545 56.0
506.604858 44.0
506.739258 28.0
506.824402 60.0
507.070862 44.0
507.133606 64.0
507.229004 872.0
507.35083 120.0
507.653687 168.0
507.788239 56.0
508.216309 296.0
508.250305 140.0
508.344543 124.0
508.420837 56.0
508.51059 56.0
508.708099 64.0
508.923615 80.0
509.085266 128.0
509.215515 176.0
509.332306 116.0
509.736633 60.0
509.997314 36.0
510.58429 116.0
510.705658 96.0
511.229645 36.0
511.351166 128.0
511.391663 104.0
511.693298 96.0
512.736206 92.0
515.229187 112.0
515.604248 96.0
517.191833 52.0
519.085632 96.0
519.78418 84.0
522.02832 64.0
522.292114 40.0
523.115723 124.0
523.36615 108.0
525.878052 52.0
527.371643 84.0
529.114563 88.0
529.19696 156.0
531.176819 92.0
532.292114 52.0
535.414673 96.0
539.692505 88.0
540.645447 104.0
540.747314 128.0
542.785706 100.0
550.421875 52.0
551.23468 48.0
551.272095 136.0
554.327881 56.0
554.862244 84.0
555.687744 136.0
556.532593 148.0
559.071045 88.0
562.049255 32.0
562.870605 48.0
564.912415 48.0
565.248352 40.0
565.816345 48.0
568.186035 96.0
573.092773 76.0
577.283936 44.0
579.356506 92.0
580.406128 128.0
581.154419 120.0
582.465088 128.0
583.455017 52.0
584.306335 104.0
584.460266 52.0
590.253601 112.0
593.609436 84.0
596.444824 120.0
598.113281 112.0
600.135132 144.0
604.614685 88.0
609.459717 92.0
614.294495 44.0
621.155762 128.0
623.331421 100.0
625.25 80.0
626.913391 60.0
627.960388 56.0
628.329529 36.0
631.521667 112.0
634.96759 32.0
635.348816 44.0
642.452515 56.0
645.422363 104.0
648.059509 132.0
649.007324 52.0
652.063416 160.0
654.627563 60.0
656.566711 104.0
658.059265 116.0
661.863464 120.0
662.221985 56.0
672.944275 44.0
673.899841 120.0
684.065063 60.0
686.727783 160.0
689.123962 36.0
690.791687 132.0
690.938171 60.0
691.435303 60.0
692.089661 36.0
693.100647 48.0
696.321716 44.0
696.600098 52.0
697.051941 60.0
698.355774 72.0
699.42395 128.0
699.987305 88.0
707.162048 44.0
708.035645 116.0
712.395752 136.0
722.407471 96.0
727.412659 56.0
728.454468 36.0
736.421326 164.0
737.723572 68.0
741.718689 216.0
744.366333 84.0
748.629822 68.0
750.602478 120.0
750.853333 220.0
753.943481 240.0
754.763489 160.0
755.594849 292.0
760.620239 72.0
764.638184 76.0
765.287781 176.0
767.745483 60.0
769.373291 68.0
773.22052 204.0
774.122925 84.0
775.702026 136.0
776.949829 72.0
784.998413 124.0
785.796021 80.0
786.672241 132.0
790.976685 44.0
795.506165 92.0
797.016968 100.0
799.373108 124.0
804.321655 84.0
807.186096 76.0
807.717712 144.0
810.678894 220.0
811.858093 64.0
812.039551 176.0
813.282166 132.0
817.954651 72.0
819.344238 140.0
820.227539 48.0
825.73761 96.0
828.359192 76.0
830.279358 132.0
838.166626 112.0
838.328003 88.0
838.61615 164.0
840.170166 192.0
842.210938 56.0
843.198975 76.0
849.040649 48.0
851.576965 172.0
851.809326 64.0
854.594116 192.0
856.072693 176.0
856.393005 160.0
857.074646 68.0
858.135498 56.0
858.263733 180.0
859.955566 192.0
860.107361 164.0
861.742554 164.0
862.654297 180.0
863.057678 32.0
863.736145 168.0
864.046204 40.0
864.502563 160.0
866.472046 208.0
869.290405 60.0
871.157593 180.0
871.845032 124.0
872.662109 116.0
873.644348 124.0
874.774231 220.0
875.904846 56.0
878.221436 192.0
878.823181 112.0
879.041504 164.0
879.732056 80.0
880.080383 176.0
880.936768 172.0
881.385803 208.0
882.183716 240.0
882.361084 96.0
885.337463 228.0
887.340332 144.0
892.500122 116.0
893.136475 176.0
894.808716 96.0
895.19574 168.0
895.71991 44.0
897.376648 212.0
898.199646 156.0
898.408447 224.0
898.54834 116.0
899.876648 136.0
902.123047 88.0
903.31311 60.0
905.414062 212.0
905.545776 48.0
906.007019 268.0
906.983826 156.0
907.121704 48.0
909.797302 212.0
910.031494 172.0
910.073486 92.0
913.246582 144.0
913.607544 268.0
915.377136 184.0
916.124023 104.0
916.726562 108.0
918.61377 52.0
920.080261 140.0
920.508972 164.0
921.185425 56.0
921.300171 132.0
921.989014 56.0
922.182434 124.0
922.345642 160.0
925.873108 172.0
925.963989 112.0
926.799988 188.0
926.969666 160.0
927.078735 144.0
927.375732 224.0
930.785278 60.0
930.876343 92.0
931.386536 116.0
932.990845 164.0
933.842163 76.0
934.261902 152.0
934.553955 140.0
936.733521 160.0
938.171753 144.0
938.872986 152.0
939.769653 96.0
940.068665 104.0
941.466675 224.0
944.84082 152.0
944.914246 108.0
945.165161 168.0
945.642456 72.0
946.664917 172.0
946.720032 48.0
949.342957 220.0
950.238525 224.0
950.563782 120.0
952.135376 112.0
952.841797 120.0
953.689819 92.0
953.855774 196.0
954.144714 176.0
955.983887 176.0
956.827209 164.0
957.541504 64.0
958.095886 204.0
960.308899 48.0
960.783936 188.0
961.024536 64.0
962.431885 136.0
962.499817 164.0
962.63562 76.0
965.552673 104.0
966.270203 108.0
966.437256 136.0
967.328491 132.0
967.724731 200.0
968.591736 164.0
970.122375 212.0
971.523926 184.0
972.411316 28.0
973.622009 164.0
974.552368 212.0
976.26947 80.0
977.426575 192.0
977.76886 112.0
978.136047 220.0
980.359619 68.0
981.618896 260.0
981.993103 184.0
983.066162 28.0
983.465637 152.0
987.076721 220.0
987.226807 200.0
989.661011 140.0
991.121155 120.0
991.321045 156.0
992.223633 64.0
993.195679 152.0
995.122314 112.0
995.203918 160.0
995.907288 60.0
998.578613 124.0
999.535645 160.0
1000.132751 204.0
1000.25238 220.0
1000.863037 208.0
1001.877136 188.0
1002.759277 100.0
1003.465332 240.0
1003.686035 128.0
1003.969788 144.0
1006.052063 184.0
1006.154541 380.0
1006.235168 76.0
1006.683472 216.0
1006.771912 160.0
1008.149109 180.0
1008.269165 232.0
1008.351379 128.0
1012.552429 188.0
1014.833801 136.0
1014.884521 128.0
1015.322083 192.0
1016.013489 184.0
1016.387817 208.0
1016.99707 192.0
1017.924011 76.0
1019.372375 164.0
1022.859009 104.0
1023.812866 60.0
1024.28418 68.0
1024.567627 136.0
1026.087769 204.0
1026.795532 200.0
1028.460815 72.0
1029.284424 132.0
1030.191406 108.0
1030.472534 116.0
1033.464844 160.0
1034.232788 188.0
1034.552856 220.0
1035.257202 140.0
1035.641479 156.0
1036.467896 192.0
1036.967773 124.0
1037.237061 128.0
1038.660645 120.0
1038.865845 152.0
1039.629395 184.0
1040.091553 164.0
1041.465698 192.0
1042.146606 32.0
1043.682861 204.0
1043.933716 60.0
1043.97876 128.0
1044.049438 136.0
1045.895996 48.0
1046.198608 180.0
1047.467285 176.0
1048.749512 104.0
1049.723022 228.0
1050.161621 124.0
1050.451904 160.0
1051.361694 56.0
1051.878052 184.0
1052.157959 212.0
1052.459106 164.0
1052.924072 176.0
1053.479614 124.0
1054.33252 88.0
1055.049927 180.0
1057.268677 64.0
1057.443359 40.0
1058.155518 132.0
1060.753418 200.0
1061.628662 152.0
1062.160522 196.0
1062.588745 148.0
1065.523315 152.0
1065.932739 176.0
1066.387695 224.0
1066.52417 104.0
1066.634644 60.0
1066.751709 88.0
1067.583862 144.0
1068.650757 240.0
1069.171265 140.0
1069.828735 160.0
1071.717163 148.0
1071.880493 172.0
1074.25061 192.0
1075.147583 136.0
1075.579956 200.0
1077.531128 60.0
1077.955811 156.0
1078.524414 144.0
1081.029419 148.0
1082.770752 128.0
1085.149536 200.0
1086.684326 164.0
1087.845947 68.0
1091.282104 136.0
1091.670044 160.0
1093.92688 236.0
1095.37561 112.0
1095.784058 128.0
1096.120117 168.0
1098.915894 36.0
1099.938843 136.0
1100.018066 148.0
1101.503906 204.0
1103.050171 164.0
1103.413818 236.0
1103.810547 244.0
1104.286743 164.0
1105.669556 284.0
1106.046753 144.0
1106.192383 324.0
1108.841919 156.0
1108.961304 116.0
1111.02356 136.0
1111.222656 172.0
1111.438232 220.0
1112.018921 128.0
1112.642944 176.0
1112.908569 164.0
1113.034668 188.0
1114.044312 156.0
1114.462769 204.0
1114.522583 228.0
1115.207153 204.0
1116.104614 92.0
1116.703125 204.0
1118.679443 196.0
1119.371948 140.0
1119.831421 156.0
1120.457642 60.0
1121.050659 80.0
1121.124023 176.0
1121.637207 140.0
1124.325195 172.0
1124.411987 164.0
1131.484375 156.0
1131.859253 60.0
1135.424438 132.0
1136.242798 132.0
1136.42395 56.0
1136.598511 68.0
1136.6521 44.0
1137.605225 188.0
1137.679077 56.0
1138.75354 188.0
1139.324463 140.0
1140.265259 200.0
1141.27356 152.0
1142.835205 176.0
1146.335693 156.0
1148.04126 108.0
1150.362305 180.0
1151.672607 144.0
1153.537354 52.0
1153.922729 56.0
1155.924927 188.0
1157.224609 32.0
1159.514282 120.0
1163.706543 168.0
1164.114014 76.0
1164.202271 52.0
1165.32312 176.0
1165.47937 92.0
1166.063843 144.0
1166.13855 180.0
1167.110718 184.0
1167.396362 176.0
1167.518799 56.0
1167.635376 160.0
1168.001709 132.0
1168.369019 180.0
1168.641235 156.0
1169.607544 152.0
1171.698242 84.0
1172.999878 216.0
1173.122681 188.0
1173.415771 140.0
1173.918091 188.0
1174.820679 36.0
1174.923096 152.0
1175.564453 188.0
1176.964844 200.0
1177.885864 292.0
1179.122559 152.0
1179.60791 160.0
1180.613037 48.0
1181.488525 172.0
1181.926514 168.0
1185.507935 208.0
1186.083618 116.0
1186.920166 128.0
1188.497803 172.0
1191.154785 160.0
1191.200562 136.0
1192.116699 56.0
1193.855957 120.0
1194.136963 160.0
1195.231812 200.0
1195.293701 152.0
1196.057739 48.0
1196.80127 196.0
1197.476074 112.0
1198.020264 140.0
1198.137451 112.0
1198.185669 176.0
1200.556885 180.0
1202.24707 216.0
1205.029907 160.0
1205.423828 144.0
1205.499756 236.0
1206.426025 32.0
1206.827026 208.0
1206.979126 76.0
1208.244263 184.0
1209.78125 184.0
1210.355957 168.0
1211.200928 132.0
1212.98877 168.0
1213.099609 196.0
1213.238281 132.0
1214.479614 244.0
1214.69458 132.0
1215.783936 192.0
1216.026855 64.0
1219.437134 144.0
1219.499756 200.0
1219.597046 152.0
1222.184204 152.0
1222.866211 188.0
1223.214233 172.0
1223.87561 104.0
1224.558105 216.0
1224.627808 152.0
1225.254761 144.0
1225.435913 188.0
1225.686768 212.0
1226.062988 168.0
1229.989868 216.0
1230.841675 140.0
1231.114014 140.0
1231.372437 172.0
1231.463257 120.0
1231.882324 52.0
1232.084961 172.0
1233.168091 252.0
1233.244995 160.0
1233.307861 92.0
1233.405762 204.0
1234.349609 180.0
1234.407227 220.0
1234.860107 172.0
1235.202881 132.0
1236.322388 68.0
1236.721313 148.0
1237.540405 176.0
1237.967529 148.0
1239.319458 196.0
1240.552979 180.0
1240.714233 212.0
1242.27124 48.0
1243.604492 56.0
1246.807129 208.0
1247.081299 128.0
1247.629639 80.0
1248.642212 200.0
1248.846191 160.0
1250.914917 84.0
1253.084106 192.0
1253.943848 212.0
1254.20459 200.0
1254.824951 140.0
1255.476196 136.0
1255.541626 128.0
1257.476318 128.0
1257.526855 108.0
1257.667969 176.0
1257.738525 188.0
1258.500977 168.0
1258.755249 164.0
1260.139648 136.0
1261.892578 184.0
1262.550171 176.0
1263.130249 168.0
1263.498047 176.0
1265.295776 252.0
1267.987549 208.0
1268.583008 148.0
1269.809692 176.0
1270.242432 136.0
1271.633179 204.0
1272.506348 152.0
1272.903931 160.0
1273.081543 160.0
1273.614136 128.0
1274.274902 32.0
1277.908081 268.0
1278.10022 128.0
1278.438477 180.0
1278.512939 168.0
1279.260376 192.0
1279.822876 184.0
1280.072021 128.0
1280.307129 176.0
1281.183228 192.0
1282.073853 172.0
1284.234253 168.0
1285.711182 240.0
1286.739014 180.0
1287.667358 64.0
1287.753052 140.0
1287.845947 116.0
1288.510254 192.0
1290.535645 196.0
1293.215698 124.0
1294.067627 192.0
1296.840088 236.0
1297.334717 172.0
1297.449341 232.0
1297.743408 188.0
1299.106079 104.0
1301.171021 220.0
1302.767334 136.0
1303.708618 124.0
1304.283569 168.0
1305.664062 204.0
1306.383423 136.0
1306.469727 188.0
1307.448364 168.0
1307.636597 160.0
1308.169067 144.0
1308.80896 196.0
1309.903687 140.0
1310.44397 144.0
1312.166626 160.0
1313.504272 84.0
1313.681152 236.0
1314.229492 172.0
1317.203979 60.0
1317.991455 124.0
1318.974365 148.0
1319.531006 112.0
1321.715454 128.0
1321.932495 164.0
1325.046143 200.0
1325.263428 176.0
1326.299805 224.0
1326.481079 160.0
1326.546265 84.0
1327.061035 188.0
1327.119019 64.0
1327.1698 52.0
1328.177856 168.0
1328.322998 180.0
1328.511597 212.0
1329.875854 124.0
1330.093628 120.0
1330.652588 152.0
1330.805054 84.0
1330.877686 236.0
1331.741943 104.0
1331.836304 140.0
1333.107788 204.0
1333.303955 96.0
1334.183594 56.0
1335.114258 48.0
1336.161743 196.0
1337.748291 96.0
1339.095459 176.0
1339.481445 56.0
1339.692749 200.0
1339.933105 44.0
1340.479614 184.0
1340.814819 244.0
1341.164673 192.0
1341.959351 140.0
1342.280151 196.0
1343.24292 140.0
1343.53479 168.0
1344.226074 248.0
1344.330078 120.0
1344.512573 72.0
1344.957764 212.0
1345.300903 128.0
1346.878174 132.0
1349.033936 196.0
1349.158203 60.0
1351.074341 60.0
1351.549927 120.0
1352.698975 132.0
1353.973022 192.0
1354.455688 212.0
1355.035156 136.0
1355.196411 216.0
1356.911499 192.0
1358.282959 172.0
1358.723022 208.0
1360.293579 196.0
1362.019287 72.0
1362.665771 108.0
1362.76123 148.0
1363.194824 228.0
1363.260986 92.0
1363.61377 32.0
1364.24585 56.0
1364.334106 160.0
1366.194702 244.0
1366.864258 172.0
1367.813721 196.0
1370.546143 188.0
1370.619751 116.0
1370.708252 92.0
1371.165161 44.0
1371.349365 168.0
1372.912476 92.0
1373.207397 68.0
1373.421387 124.0
1374.100098 84.0
1374.69043 164.0
1375.133179 56.0
1375.974731 148.0
1376.713135 188.0
1377.097168 216.0
1378.249634 232.0
1378.508301 208.0
1379.772339 176.0
1380.644897 124.0
1382.731201 180.0
1385.033936 160.0
1385.100586 140.0
1385.234009 112.0
1386.646118 220.0
1386.975342 152.0
1387.998535 80.0
1388.161621 176.0
1388.228394 156.0
1388.747559 180.0
1389.682251 220.0
1389.88269 60.0
1390.409546 148.0
1390.899414 188.0
1391.255737 188.0
1391.545288 192.0
1391.59729 104.0
1391.968506 64.0
1392.265625 92.0
1393.053223 104.0
1393.506104 60.0
1393.825684 192.0
1394.026245 116.0
1394.174927 76.0
1394.264038 172.0
1394.62085 172.0
1394.799316 148.0
1395.869873 160.0
1396.397949 128.0
1396.621094 216.0
1397.67749 128.0
1397.945435 188.0
1399.009766 144.0
1400.24585 212.0
1400.454468 112.0
1400.856689 184.0
1401.44519 60.0
1401.862549 100.0
1402.332031 148.0
1402.77832 188.0
1403.651611 72.0
1404.457153 164.0
1404.725708 176.0
1405.270264 56.0
1405.718018 140.0
1406.225464 144.0
1406.479248 92.0
1407.30127 176.0
1407.591675 100.0
1408.219116 152.0
1408.981079 72.0
1409.272461 196.0
1409.653564 108.0
1411.372803 180.0
1411.522339 72.0
1411.75415 148.0
1412.659302 248.0
1413.250244 136.0
1413.347534 192.0
1413.878906 108.0
1415.585815 188.0
1416.65686 120.0
1417.098877 140.0
1417.458618 112.0
1417.571045 156.0
1418.717773 76.0
1419.340088 144.0
1419.857544 76.0
1420.120117 52.0
1420.262573 140.0
1420.765137 108.0
1421.2229 144.0
1421.365479 192.0
1421.680664 184.0
1422.69397 148.0
1423.782715 184.0
1423.887939 104.0
1424.69165 116.0
1424.751709 104.0
1425.863892 68.0
1426.321411 164.0
1427.269653 136.0
1427.600586 208.0
1428.307495 152.0
1428.796509 156.0
1429.910278 112.0
1430.768311 128.0
1431.039429 60.0
1431.317993 148.0
1431.446045 180.0
1432.153931 200.0
1432.380005 108.0
1433.734863 184.0
1434.716187 36.0
1435.025269 112.0
1436.616577 188.0
1436.956055 140.0
1437.408813 176.0
1437.876709 176.0
1438.035278 112.0
1438.737305 148.0
1439.658447 224.0
1441.305298 60.0
1441.962769 188.0
1442.136597 200.0
1442.219727 180.0
1443.111816 232.0
1443.39917 156.0
1443.633667 156.0
1443.890747 172.0
1443.966431 152.0
1444.064697 96.0
1444.639648 112.0
1444.753052 56.0
1444.843872 132.0
1445.600586 180.0
1446.819214 132.0
1446.887329 64.0
1447.265869 92.0
1448.098877 92.0
1448.507935 188.0
1448.799194 156.0
1448.977661 120.0
1450.296265 136.0
1450.664795 176.0
1450.758667 188.0
1451.008911 76.0
1452.449829 172.0
1452.639404 76.0
1452.995972 116.0
1453.747192 164.0
1454.30127 212.0
1455.227417 232.0
1455.462769 224.0
1457.118652 128.0
1457.361816 40.0
1457.490967 200.0
1457.901245 216.0
1457.954468 60.0
1458.980713 136.0
1459.87793 172.0
1460.334229 168.0
1460.562378 216.0
1461.072144 168.0
1461.163452 152.0
1461.612305 92.0
1462.426636 140.0
1462.685425 144.0
1464.467285 40.0
1464.589111 196.0
1465.175781 132.0
1465.427124 104.0
1465.518555 244.0
1465.621216 168.0
1465.922485 140.0
1466.806641 164.0
1467.507935 172.0
1467.68335 28.0
1468.690063 140.0
1469.140137 140.0
1469.292725 160.0
1470.643433 208.0
1470.963989 196.0
1471.628296 188.0
1472.0177 192.0
1472.66687 160.0
1474.156616 156.0
1474.210205 76.0
1475.494263 100.0
1476.863159 204.0
1477.658813 124.0
1477.77356 240.0
1478.378052 176.0
1478.615356 152.0
1479.112061 148.0
1479.365479 144.0
1479.618164 180.0
1480.223022 200.0
1480.835693 180.0
1481.187988 120.0
1481.356567 164.0
1481.571045 84.0
1481.640015 192.0
1481.908203 168.0
1482.613159 248.0
1482.751099 168.0
1483.80896 128.0
1484.062012 148.0
1484.299683 144.0
1484.775146 176.0
1484.836548 232.0
1485.74939 96.0
1486.140625 160.0
1486.555054 180.0
1487.545166 196.0
1487.606567 192.0
1488.911987 124.0
1489.134644 140.0
1489.779907 124.0
1491.793335 296.0
1493.056274 180.0
1493.438965 180.0
1493.53894 212.0
1494.49292 176.0
1494.77771 244.0
1495.901367 136.0
1496.625122 140.0
1498.088501 156.0
1498.142456 148.0
1499.197998 180.0
1501.395264 88.0
1503.262207 164.0
1503.786987 172.0
1504.057129 184.0
1505.400635 96.0
