>compound 2-amino-5-phenyl-1,3-oxazol-4-one
>formula C9H8N2O2
>ionization [M+H]+
>parentmass 177.066177
#inchi InChI=1S/C9H8N2O2/c10-9-11-8(12)7(13-9)6-4-2-1-3-5-6/h1-5,7H,(H2,10,11,12)
#inchikey NRNCYVBFPDDJNE
#Ion_Source LC-ESI
#Instrument qTof
#Compound_Source Commercial
#PI Dorrestein
#Data_Collector Garg_Neha
#Scan -1
#Precursor_MZ 177.066
#ExactMass 176.059
#Charge 1
#CAS_Number N/A
#Pubmed_ID N/A
#Smiles NC1=NC(=O)C(O1)c2ccccc2
#INCHI_AUX N/A
#Library_Class 1
#SpectrumID CCMSLIB00000078978
#IonMode Positive
#UpdateWorkflowName UPDATE-SINGLE-ANNOTATED-GOLD
#LibraryQualityString Gold
#TaskID 278b19f5865741e282cec7349aa7e7a1
##Scan# 1028
#SpectrumFile NCP003352_A2_B11_BC4_01_15718.mzXML
#LibraryName NIHcollectionI_05062014.mgf
#MQScore -1
#Organism NIHcollectionI_05062014
#TIC_Query 0
#RT_Query -1
#MZErrorPPM -1
#SharedPeaks 0
#MassDiff 0
#LibMZ -1
#SpecMZ 177.066
#SpecCharge 0
#internalFilename spec-00000.mgf

>collision 10
57.307533 164.0
63.403988 148.0
67.606171 264.0
67.902702 252.0
68.334724 140.0
69.552673 236.0
82.105507 172.0
85.960411 200.0
86.060081 224.0
87.256973 152.0
91.640686 224.0
92.657104 152.0
98.252884 172.0
99.015877 156.0
105.03495 164.0
105.087234 176.0
106.065842 10956.0
107.048485 132.0
107.069756 1000.0
107.740105 144.0
108.072685 280.0
116.045982 176.0
117.935059 148.0
124.491714 156.0
132.044495 124.0
133.052719 128.0
134.057587 196.0
148.069489 144.0
149.060715 180.0
157.997253 176.0
159.97728 140.0
160.04126 184.0
176.134583 208.0
177.066177 1276.0
178.066772 176.0
226.014236 176.0
238.030731 160.0
1405.496704 204.0
1440.331665 172.0
1479.831543 180.0
1516.934204 156.0
1527.036011 144.0
1553.719604 248.0
1671.590332 188.0
1673.853271 228.0
1701.349609 176.0
1734.909424 192.0
1832.525269 180.0
1835.082153 140.0
1837.248413 192.0
1869.232544 168.0
1883.76001 172.0
1896.271729 144.0
1903.17688 280.0
1964.96167 144.0
1980.466919 140.0
1987.133179 196.0
2000.401367 196.0
