>compound MLS002222251-01!83846-83-7
>formula C22H22FN3O3
>ionization [M+H]+
>parentmass 396.171448
#inchi InChI=1S/C22H22FN3O3/c23-17-7-5-15(6-8-17)20(27)16-9-11-25(12-10-16)13-14-26-21(28)18-3-1-2-4-19(18)24-22(26)29/h1-8,16H,9-14H2,(H,24,29)
#inchikey FPCCSQOGAWCVBH
#origInchi InChI=1S/C22H22FN3O3.C4H6O4.H2O/c23-17-7-5-15(6-8-17)20(27)16-9-11-25(12-10-16)13-14-26-21(28)18-3-1-2-4-19(18)24-22(26)29;5-3(6)1-2-4(7)8;/h1-8,16H,9-14H2,(H,24,29);1-2H2,(H,5,6)(H,7,8);1H2
#Ion_Source LC-ESI
#Instrument qTof
#Compound_Source NIH Pharmacologically Active Library
#PI Dorrestein
#Data_Collector VP/LMS
#Scan -1
#Precursor_MZ 396.181
#ExactMass 395.165
#Charge 1
#CAS_Number N/A
#Pubmed_ID N/A
#Smiles Fc1ccc(cc1)C(=O)C2CCN(CCn3c(=O)[nH]c4ccccc4c3=O)CC2.OC(=O)CCC(=O)O.O
#INCHI_AUX N/A
#Library_Class 1
#SpectrumID CCMSLIB00000086102
#IonMode Positive
#UpdateWorkflowName UPDATE-SINGLE-ANNOTATED-GOLD
#LibraryQualityString Gold
#TaskID d252d724072548979f1f6f1ced849daf
##Scan# 1529
#SpectrumFile p5-E03_GE3_01_18460.mzXML
#LibraryName Pharm_Active_Library.mgf
#MQScore -1
#Organism Pharm_Active_Library
#TIC_Query 0
#RT_Query -1
#MZErrorPPM -1
#SharedPeaks 0
#MassDiff 0
#LibMZ -1
#SpecMZ 396.181
#SpecCharge 0
#internalFilename spec-00000.mgf

>collision 10
44.917255 64.0
44.963955 100.0
45.004715 220.0
45.085484 200.0
45.104195 136.0
45.133606 152.0
45.17239 192.0
45.188763 152.0
45.214188 168.0
45.244743 156.0
45.294201 116.0
45.308937 204.0
45.331715 188.0
45.341095 116.0
45.364311 236.0
45.378628 156.0
45.393375 188.0
45.449715 196.0
45.480579 136.0
45.510113 144.0
45.541 120.0
45.557117 204.0
45.594742 108.0
45.617592 192.0
45.653893 84.0
45.665344 136.0
45.676758 112.0
45.718464 208.0
45.760735 160.0
45.803284 156.0
45.849094 88.0
45.935566 240.0
45.991814 156.0
46.017708 188.0
46.046062 196.0
46.11972 176.0
46.139297 52.0
46.202862 80.0
46.220448 60.0
46.259697 108.0
46.285419 164.0
46.307087 188.0
46.329609 224.0
46.414146 228.0
46.448051 200.0
46.48468 96.0
46.500965 128.0
46.514538 196.0
46.534695 412.0
46.598003 156.0
46.613682 88.0
46.654457 96.0
46.67757 348.0
46.69453 196.0
46.71973 92.0
46.733337 360.0
46.763275 148.0
46.80003 176.0
46.809563 228.0
46.827267 216.0
46.86132 188.0
46.898113 52.0
46.91856 172.0
46.933559 148.0
46.954014 104.0
47.007217 220.0
47.019497 208.0
47.049526 220.0
47.143772 192.0
47.165638 140.0
47.204472 196.0
47.214859 136.0
47.227169 176.0
47.244949 156.0
47.275051 204.0
47.323635 244.0
47.362675 180.0
47.383221 188.0
47.473961 180.0
47.507977 172.0
47.518951 40.0
47.546394 148.0
47.576591 144.0
47.60268 76.0
47.63839 52.0
47.691978 220.0
47.70435 120.0
47.723595 156.0
47.768978 136.0
47.837784 80.0
47.863941 64.0
47.89975 200.0
47.948151 124.0
48.004494 144.0
48.033455 176.0
48.05698 152.0
48.073467 216.0
48.1936 56.0
48.226765 200.0
48.237823 92.0
48.329098 188.0
48.356773 140.0
48.370617 148.0
48.385845 104.0
48.414757 136.0
48.449551 48.0
48.545185 172.0
48.586796 132.0
48.596508 128.0
48.640915 80.0
48.786774 176.0
48.846569 128.0
48.871609 168.0
48.911968 148.0
48.947086 160.0
49.010845 108.0
49.035931 144.0
49.077751 208.0
49.105076 200.0
49.164234 168.0
49.204712 148.0
49.298294 132.0
49.334637 128.0
49.394764 104.0
49.408756 116.0
49.503197 336.0
49.535847 132.0
49.58799 80.0
49.632847 132.0
49.655285 128.0
49.695965 140.0
49.714207 204.0
49.724609 176.0
49.736076 240.0
49.753506 96.0
49.837772 236.0
49.858852 236.0
49.891735 152.0
49.967464 164.0
50.003708 124.0
50.044533 196.0
50.091862 184.0
50.131863 144.0
50.148773 136.0
50.161461 132.0
50.188248 168.0
50.203758 116.0
50.217861 116.0
50.231968 40.0
50.271469 188.0
50.303932 132.0
50.369072 152.0
50.48341 272.0
50.497921 124.0
50.519016 196.0
50.535702 264.0
50.580673 144.0
50.603638 188.0
50.624878 136.0
50.637623 48.0
50.653206 64.0
50.684151 180.0
50.697124 216.0
50.750992 44.0
50.766586 180.0
50.782188 124.0
50.824745 196.0
50.838936 108.0
50.860226 72.0
50.905655 168.0
50.934059 152.0
50.961357 204.0
51.030121 168.0
51.043491 192.0
51.114613 56.0
51.266983 112.0
51.329575 176.0
51.358227 148.0
51.381569 176.0
51.411015 64.0
51.488106 272.0
51.521996 132.0
51.536884 216.0
51.548103 164.0
51.661053 216.0
51.725445 140.0
51.745956 368.0
51.762669 172.0
51.789879 152.0
51.928905 136.0
51.964767 88.0
52.000645 72.0
52.032223 176.0
52.048016 128.0
52.129833 188.0
52.19458 140.0
52.217625 156.0
52.272255 120.0
52.335587 120.0
52.348545 64.0
52.378792 140.0
52.407604 52.0
52.42831 108.0
52.48111 60.0
52.511395 184.0
52.609512 128.0
52.636944 188.0
52.709473 172.0
52.740963 124.0
52.807472 244.0
52.826183 124.0
52.847977 100.0
52.891392 108.0
52.916 116.0
52.936272 180.0
53.008701 244.0
53.034576 192.0
53.123238 172.0
53.188538 48.0
53.293098 92.0
53.322159 124.0
53.333786 200.0
53.450699 164.0
53.478764 172.0
53.514187 224.0
53.579712 124.0
53.633629 120.0
53.700699 156.0
53.729954 144.0
53.743004 192.0
53.783867 188.0
53.80138 132.0
53.881702 156.0
53.916771 164.0
54.09375 180.0
54.110794 224.0
54.137959 204.0
54.153782 176.0
54.213848 160.0
54.234146 160.0
54.279816 40.0
54.298878 116.0
54.309147 192.0
54.354622 180.0
54.405247 228.0
54.499168 172.0
54.51321 156.0
54.530846 132.0
54.551426 220.0
54.564655 188.0
54.636719 144.0
54.651432 136.0
54.672787 168.0
54.776226 172.0
54.79137 164.0
54.828175 148.0
54.893879 184.0
54.937107 200.0
55.095203 128.0
55.117367 140.0
55.158745 188.0
55.197186 192.0
55.208828 220.0
55.271145 108.0
55.299793 156.0
55.355728 168.0
55.377731 116.0
55.419209 52.0
55.457737 112.0
55.502213 220.0
55.540932 148.0
55.598633 132.0
55.646133 196.0
55.721878 152.0
55.747135 136.0
55.766457 148.0
55.794701 132.0
55.866081 152.0
55.880959 72.0
55.92709 112.0
55.946442 88.0
55.998558 208.0
56.054184 212.0
56.087955 136.0
56.119259 224.0
56.212227 208.0
56.226662 176.0
56.316242 208.0
56.437286 140.0
56.485901 356.0
56.51207 132.0
56.579418 192.0
56.60577 220.0
56.622845 180.0
56.705242 76.0
56.742718 52.0
56.771206 156.0
56.795204 148.0
56.814705 132.0
56.870224 132.0
57.053482 132.0
57.068386 180.0
57.107616 176.0
57.186653 128.0
57.241554 140.0
57.283726 200.0
57.310844 184.0
57.443512 180.0
57.456383 180.0
57.497829 144.0
57.534054 148.0
57.556702 204.0
57.576332 160.0
57.733501 136.0
57.766777 112.0
57.789757 232.0
57.801178 168.0
57.835762 196.0
57.989357 76.0
57.999966 112.0
58.027252 176.0
58.077297 116.0
58.125843 176.0
58.156193 168.0
58.196564 304.0
58.225548 200.0
58.235828 196.0
58.37648 52.0
58.393211 164.0
58.467758 136.0
58.528648 380.0
58.581951 180.0
58.627663 208.0
58.725231 92.0
58.744438 88.0
58.792362 200.0
58.90229 144.0
58.912983 168.0
58.932842 204.0
58.954235 192.0
58.969349 216.0
59.036785 160.0
59.049019 184.0
59.076096 140.0
59.08688 148.0
59.105621 104.0
59.136227 112.0
59.148472 148.0
59.234222 188.0
59.257202 308.0
59.355297 112.0
59.451935 76.0
59.478027 208.0
59.580914 164.0
59.632225 124.0
59.667992 164.0
59.697727 228.0
59.791569 392.0
59.834667 132.0
59.846985 172.0
59.879322 156.0
59.894726 140.0
59.947105 48.0
60.050396 152.0
60.24025 208.0
60.26091 264.0
60.33297 208.0
60.348431 180.0
60.364777 112.0
60.39637 120.0
60.502644 148.0
60.518627 124.0
60.630157 72.0
60.687229 176.0
60.723175 56.0
60.862839 152.0
60.932732 148.0
61.041531 124.0
61.057083 156.0
61.137978 192.0
61.159737 192.0
61.184673 100.0
61.311752 164.0
61.324867 320.0
61.356045 268.0
61.366959 56.0
61.387959 128.0
61.412178 116.0
61.427776 176.0
61.468044 168.0
61.516724 160.0
61.635418 224.0
61.685432 52.0
61.701065 132.0
61.725628 208.0
61.758923 212.0
61.821129 152.0
61.943859 240.0
61.974957 124.0
62.013348 184.0
62.060394 188.0
62.123894 68.0
62.134876 124.0
62.167824 128.0
62.180382 80.0
62.228432 196.0
62.277817 136.0
62.296574 176.0
62.313854 108.0
62.374901 156.0
62.430168 216.0
62.533379 192.0
62.551315 112.0
62.587524 104.0
62.62701 164.0
62.656826 132.0
62.702522 196.0
62.776615 100.0
62.80027 156.0
62.833271 148.0
62.90757 184.0
62.932827 176.0
62.951775 168.0
62.978626 216.0
63.026016 224.0
63.041821 112.0
63.057621 192.0
63.07975 200.0
63.177025 228.0
63.226845 140.0
63.282246 176.0
63.334507 160.0
63.353516 140.0
63.412144 196.0
63.546764 116.0
63.579399 236.0
63.614475 192.0
63.688713 152.0
63.734386 188.0
63.758747 132.0
63.780369 232.0
63.848228 188.0
63.933052 152.0
63.964886 100.0
64.025383 112.0
64.055649 156.0
64.149666 148.0
64.22142 48.0
64.270874 164.0
64.301193 112.0
64.347481 172.0
64.363449 80.0
64.374626 136.0
64.414558 176.0
64.510437 128.0
64.5504 176.0
64.602097 200.0
64.659187 172.0
64.689598 88.0
64.726418 48.0
64.771263 116.0
64.787277 260.0
64.878723 176.0
64.926903 184.0
64.966827 176.0
65.090408 168.0
65.130562 80.0
65.18679 204.0
65.23661 272.0
65.262337 104.0
65.315407 188.0
65.34758 164.0
65.38942 216.0
65.4039 156.0
65.479576 96.0
65.524681 164.0
65.552071 176.0
65.566574 120.0
65.593254 184.0
65.722992 140.0
65.753654 136.0
65.773621 176.0
65.892517 220.0
65.915138 128.0
65.995956 112.0
66.078445 176.0
66.096245 184.0
66.246811 224.0
66.316483 48.0
66.343536 124.0
66.35701 160.0
66.410522 196.0
66.425117 128.0
66.466866 164.0
66.488228 228.0
66.527351 204.0
66.579308 240.0
66.6063 128.0
66.626411 104.0
66.647537 128.0
66.795479 204.0
66.821503 152.0
66.862183 168.0
66.897995 192.0
66.950966 172.0
67.024643 168.0
67.098022 168.0
67.134247 240.0
67.176651 124.0
67.194595 136.0
67.239426 168.0
67.299049 156.0
67.346283 208.0
67.490219 148.0
67.545822 144.0
67.574615 128.0
67.65873 172.0
67.680016 176.0
67.738976 56.0
67.830925 172.0
67.870163 160.0
67.911079 148.0
67.973419 216.0
68.066986 180.0
68.167183 168.0
68.191833 136.0
68.278969 216.0
68.32518 176.0
68.376038 128.0
68.400726 124.0
68.433876 176.0
68.440788 24.0
68.444962 184.0
68.466583 208.0
68.507111 152.0
68.527534 132.0
68.563782 172.0
68.600044 128.0
68.614662 184.0
68.659401 236.0
68.711617 156.0
68.746834 188.0
68.788094 144.0
68.809555 200.0
68.860748 148.0
68.885521 180.0
68.91526 140.0
68.955925 200.0
69.004509 196.0
69.017738 136.0
69.050812 188.0
69.065697 232.0
69.082237 168.0
69.163277 152.0
69.193115 92.0
69.348824 180.0
69.360428 128.0
69.377007 180.0
69.443329 128.0
69.478073 148.0
69.517982 212.0
69.564461 164.0
69.57608 68.0
69.635857 228.0
69.67572 96.0
69.790398 160.0
69.803703 128.0
69.820335 108.0
69.885208 136.0
69.915161 104.0
69.930138 248.0
70.036697 64.0
70.107986 152.0
70.113388 120.0
70.118721 156.0
70.171677 148.0
70.250061 188.0
70.265068 156.0
70.276749 164.0
70.325142 84.0
70.381905 168.0
70.393593 152.0
70.440353 112.0
70.505516 224.0
70.523697 228.0
70.574051 196.0
70.601929 156.0
70.655182 220.0
70.691711 212.0
70.721581 168.0
70.756416 164.0
70.768135 140.0
70.818375 212.0
70.843498 212.0
70.979256 120.0
71.027893 120.0
71.136963 164.0
71.204269 160.0
71.271317 124.0
71.312492 208.0
71.36544 140.0
71.424301 168.0
71.47477 156.0
71.574081 172.0
71.61618 168.0
71.724022 152.0
71.742561 164.0
71.774597 104.0
71.818344 212.0
71.884239 184.0
71.924744 140.0
72.005783 116.0
72.064911 324.0
72.122368 56.0
72.219383 116.0
72.239037 84.0
72.254265 184.0
72.369354 176.0
72.38752 164.0
72.432014 184.0
72.452339 152.0
72.465889 160.0
72.496391 224.0
72.508255 204.0
72.526489 152.0
72.550629 156.0
72.707222 200.0
72.721436 172.0
72.744019 156.0
72.774574 76.0
72.796654 140.0
72.823822 128.0
72.867989 260.0
72.882278 196.0
72.895172 208.0
72.913132 248.0
72.985268 200.0
72.997917 224.0
73.050316 160.0
73.07711 104.0
73.209877 132.0
73.330841 176.0
73.354301 204.0
73.378571 156.0
73.446777 64.0
73.475777 144.0
73.501373 172.0
73.554276 252.0
73.579521 132.0
73.66185 180.0
73.718231 188.0
73.768227 192.0
73.812248 192.0
73.885796 52.0
73.908035 120.0
73.966225 140.0
74.027092 192.0
74.065536 168.0
74.103226 136.0
74.128929 188.0
74.194054 136.0
74.219772 264.0
74.23864 176.0
74.2575 156.0
74.307243 212.0
74.343277 120.0
74.508118 112.0
74.556229 196.0
74.568253 160.0
74.587158 152.0
74.67485 108.0
74.760872 160.0
74.778076 288.0
74.807343 156.0
74.853119 176.0
74.886543 112.0
74.919479 304.0
74.936501 176.0
75.100266 188.0
75.114799 204.0
75.137871 200.0
75.181358 136.0
75.246948 168.0
75.266197 188.0
75.283203 180.0
75.333298 68.0
75.380028 160.0
75.414505 120.0
75.53727 208.0
75.571869 168.0
75.597656 164.0
75.679184 228.0
75.717278 184.0
75.774437 164.0
75.824692 180.0
75.861092 244.0
75.897499 192.0
75.916573 104.0
75.970337 32.0
75.9981 164.0
76.039742 196.0
76.053627 116.0
76.06752 152.0
76.095985 180.0
76.116127 156.0
76.150864 100.0
76.232513 40.0
76.255104 124.0
76.321159 80.0
76.365646 172.0
76.427261 188.0
76.451622 192.0
76.467865 180.0
76.481209 172.0
76.554329 84.0
76.607216 144.0
76.639687 220.0
76.687187 184.0
76.713806 140.0
76.796577 164.0
76.812233 148.0
76.876045 116.0
76.920464 160.0
76.948395 176.0
76.96302 148.0
76.995537 148.0
77.018242 208.0
77.032219 136.0
77.059639 196.0
77.093369 208.0
77.10836 152.0
77.12133 128.0
77.189514 128.0
77.266472 124.0
77.282219 148.0
77.359444 32.0
77.383736 128.0
77.464287 136.0
77.498428 144.0
77.536125 236.0
77.548393 128.0
77.562416 64.0
77.599174 124.0
77.718498 180.0
77.755348 212.0
77.792206 36.0
77.820297 108.0
77.834343 136.0
77.887032 168.0
77.946762 112.0
77.969604 156.0
77.981911 216.0
78.034645 332.0
78.046951 176.0
78.070076 160.0
78.082123 352.0
78.094437 120.0
78.11554 56.0
78.229919 128.0
78.255066 184.0
78.273941 156.0
78.374336 208.0
78.439545 176.0
78.4748 136.0
78.490669 208.0
78.510071 104.0
78.529472 152.0
78.543579 132.0
78.566513 124.0
78.667099 188.0
78.700317 172.0
78.73243 184.0
78.801315 208.0
78.859634 212.0
78.962173 144.0
78.975014 208.0
78.988708 128.0
79.075401 196.0
79.12851 120.0
79.176315 196.0
79.212685 192.0
79.277298 148.0
79.298561 96.0
79.31443 176.0
79.327232 184.0
79.355286 152.0
79.372307 200.0
79.422676 116.0
79.463478 176.0
79.507835 176.0
79.532684 220.0
79.600143 176.0
79.635666 168.0
79.678299 156.0
79.755859 272.0
79.776039 144.0
79.793816 228.0
79.834709 192.0
79.921967 148.0
79.990814 200.0
80.007301 64.0
80.055374 120.0
80.069626 104.0
80.093689 180.0
80.137314 180.0
80.156151 84.0
80.18364 76.0
80.240685 96.0
80.256729 204.0
80.350716 144.0
80.364388 156.0
80.404785 200.0
80.436913 144.0
80.515472 152.0
80.547974 184.0
80.592926 136.0
80.604797 116.0
80.799065 136.0
80.840836 112.0
80.856941 180.0
80.885574 152.0
80.899895 132.0
81.058136 272.0
81.124283 124.0
81.184784 200.0
81.206299 196.0
81.228218 128.0
81.267296 140.0
81.290619 44.0
81.30677 172.0
81.34626 380.0
81.450409 236.0
81.475555 184.0
81.525864 156.0
81.554619 164.0
81.630127 176.0
81.655304 200.0
81.685883 140.0
81.745255 164.0
81.784843 104.0
81.808243 220.0
81.869461 152.0
81.905487 176.0
81.9235 204.0
81.939713 40.0
81.954124 136.0
82.020805 160.0
82.044235 112.0
82.087509 160.0
82.110954 188.0
82.148468 200.0
82.174088 208.0
82.257103 212.0
82.313072 188.0
82.327515 96.0
82.352798 160.0
82.44313 212.0
82.467888 160.0
82.517632 112.0
82.636612 144.0
82.763306 172.0
82.775978 168.0
82.850235 148.0
82.873787 176.0
82.942657 240.0
82.969849 168.0
83.048378 388.0
83.084099 144.0
83.125832 104.0
83.162125 164.0
83.212196 124.0
83.29467 116.0
83.363564 100.0
83.374924 164.0
83.414604 208.0
83.438232 168.0
83.458237 208.0
83.4916 184.0
83.52552 160.0
83.554626 128.0
83.576462 64.0
83.749405 164.0
83.891533 124.0
83.93631 208.0
83.968117 212.0
84.033783 92.0
84.130508 168.0
84.243729 164.0
84.331436 224.0
84.382622 140.0
84.428337 128.0
84.499672 172.0
84.514305 68.0
84.578362 76.0
84.602158 60.0
84.657082 168.0
84.814644 168.0
84.861633 184.0
84.926491 192.0
84.957672 196.0
85.005028 208.0
85.031067 64.0
85.115517 84.0
85.161423 280.0
85.207344 280.0
85.225723 160.0
85.315773 152.0
85.339676 108.0
85.363579 176.0
85.422432 152.0
85.434563 128.0
85.457779 168.0
85.512596 144.0
85.562294 120.0
85.615692 76.0
85.726219 64.0
85.794273 152.0
85.813606 156.0
85.8442 160.0
85.86264 132.0
85.932732 84.0
85.964928 252.0
86.03978 192.0
86.061935 124.0
86.170906 236.0
86.326164 148.0
86.459358 148.0
86.507484 196.0
86.555618 100.0
86.609329 156.0
86.6297 88.0
86.692696 80.0
86.718643 156.0
86.777962 80.0
86.822464 176.0
86.839157 124.0
86.85585 236.0
86.907791 260.0
86.935623 168.0
87.03772 136.0
87.067436 136.0
87.178894 88.0
87.205002 176.0
87.312363 176.0
87.334518 204.0
87.366684 140.0
87.425766 208.0
87.477768 252.0
87.508125 204.0
87.547234 140.0
87.574074 80.0
87.63105 164.0
87.711182 124.0
87.782028 172.0
87.824921 144.0
87.869698 120.0
88.032082 116.0
88.165558 124.0
88.227272 120.0
88.278748 156.0
88.351692 156.0
88.377892 128.0
88.42054 136.0
88.435555 168.0
88.465927 200.0
88.504044 220.0
88.544792 200.0
88.56884 168.0
88.628784 144.0
88.874413 144.0
88.911942 132.0
88.925079 108.0
88.972008 80.0
88.994537 236.0
89.033966 160.0
89.048996 132.0
89.110985 108.0
89.157959 188.0
89.17675 180.0
89.229927 196.0
89.296738 152.0
89.356247 192.0
89.389259 120.0
89.532333 164.0
89.586952 188.0
89.628403 184.0
89.745262 108.0
89.826355 140.0
89.861107 76.0
89.894272 128.0
89.914314 248.0
89.937683 60.0
89.956558 288.0
89.978127 168.0
90.034798 2204.0
90.074577 128.0
90.109299 132.0
90.116302 116.0
90.125183 200.0
90.144302 212.0
90.188896 112.0
90.217247 132.0
90.230484 84.0
90.255058 160.0
90.287209 168.0
90.30423 152.0
90.357193 60.0
90.466537 180.0
90.519913 144.0
90.525002 140.0
90.555954 100.0
90.569847 320.0
90.584366 152.0
90.61657 144.0
90.635513 76.0
90.666809 156.0
90.701843 260.0
90.726486 240.0
90.825424 116.0
90.899086 204.0
90.916161 232.0
90.994232 184.0
91.020569 76.0
91.035759 300.0
91.075638 192.0
91.13073 152.0
91.15844 192.0
91.214348 152.0
91.256172 204.0
91.343651 80.0
91.372185 348.0
91.436882 228.0
91.459724 48.0
91.491356 188.0
91.558777 148.0
91.617775 96.0
91.633011 164.0
91.653969 168.0
91.701614 196.0
91.739738 132.0
91.825539 36.0
92.023994 156.0
92.067909 124.0
92.157692 128.0
92.190178 120.0
92.293396 204.0
92.341202 228.0
92.380135 148.0
92.444511 192.0
92.528732 172.0
92.668541 136.0
92.716591 160.0
92.752861 148.0
92.832848 72.0
92.908188 160.0
92.950394 180.0
92.979179 172.0
92.991951 116.0
93.01181 184.0
93.025246 156.0
93.046364 224.0
93.140457 136.0
93.188484 128.0
93.271118 160.0
93.305717 132.0
93.321098 136.0
93.423027 172.0
93.511543 140.0
93.529884 180.0
93.563515 136.0
93.592392 152.0
93.63179 160.0
93.752274 172.0
93.828621 204.0
93.846725 192.0
93.875648 52.0
93.893005 152.0
93.958588 132.0
93.995247 180.0
94.047356 148.0
94.145988 220.0
94.168991 124.0
94.25399 160.0
94.314171 228.0
94.352562 184.0
94.395096 168.0
94.540184 124.0
94.573433 176.0
94.646645 168.0
94.681503 176.0
94.704742 68.0
94.735733 136.0
94.776421 144.0
94.910164 212.0
94.927612 144.0
95.009071 176.0
95.042061 160.0
95.057579 108.0
95.142982 100.0
95.157799 196.0
95.230362 168.0
95.271149 116.0
95.311913 180.0
95.370255 84.0
95.387093 180.0
95.411072 132.0
95.425087 136.0
95.644508 304.0
95.669815 152.0
95.693176 152.0
95.732117 148.0
95.749641 152.0
95.783386 184.0
95.82267 192.0
95.840881 172.0
95.846611 144.0
95.876274 64.0
95.897713 172.0
95.944801 152.0
95.99324 196.0
96.01664 212.0
96.034195 168.0
96.065399 156.0
96.130524 232.0
96.159782 108.0
96.238853 192.0
96.311348 184.0
96.379723 204.0
96.481354 112.0
96.555153 200.0
96.584999 88.0
96.625572 108.0
96.699226 252.0
96.718048 176.0
96.786568 132.0
96.818077 176.0
96.831985 188.0
96.857071 36.0
96.876068 184.0
96.906044 212.0
97.047165 80.0
97.068733 184.0
97.104034 136.0
97.139557 176.0
97.262955 128.0
97.278664 212.0
97.315964 144.0
97.333633 144.0
97.46917 224.0
97.496681 192.0
97.537949 164.0
97.561539 160.0
97.587097 144.0
97.602829 168.0
97.630356 140.0
97.671661 156.0
97.712967 104.0
97.772003 156.0
97.844833 168.0
98.049683 208.0
98.227356 180.0
98.298157 120.0
98.353416 216.0
98.386978 132.0
98.525215 152.0
98.562752 164.0
98.600304 164.0
98.63588 144.0
98.714958 172.0
98.748581 140.0
98.82177 160.0
98.848251 136.0
98.8666 184.0
98.951134 132.0
99.0019 172.0
99.036835 100.0
99.061317 56.0
99.079147 216.0
99.104774 184.0
99.122734 428.0
99.241661 188.0
99.297188 132.0
99.354706 172.0
99.400345 160.0
99.440033 176.0
99.555176 188.0
99.62867 108.0
99.730011 176.0
99.751877 100.0
99.853279 156.0
99.921242 216.0
99.998512 128.0
100.038322 112.0
100.108009 240.0
100.153816 168.0
100.201622 144.0
100.223541 160.0
100.275352 144.0
100.299271 252.0
100.361069 108.0
100.375031 128.0
100.518646 160.0
100.546585 176.0
100.622437 200.0
100.684334 136.0
100.706306 84.0
100.752251 96.0
100.808197 172.0
100.84417 92.0
100.936722 268.0
101.06414 128.0
101.172211 204.0
101.186226 176.0
101.2463 184.0
101.288361 124.0
101.400558 132.0
101.42205 136.0
101.52285 240.0
101.61512 196.0
101.649231 252.0
101.767654 156.0
101.823883 104.0
101.92231 56.0
101.936378 152.0
101.972549 44.0
102.007271 204.0
102.02494 196.0
102.042908 76.0
102.067032 68.0
102.157539 172.0
102.181679 144.0
102.233994 144.0
102.248085 172.0
102.300415 52.0
102.3918 72.0
102.431671 152.0
102.450798 196.0
102.526001 132.0
102.5522 240.0
102.570335 84.0
102.622757 164.0
102.727623 220.0
102.808327 168.0
102.943581 188.0
102.967812 168.0
102.99205 128.0
103.030434 172.0
103.066795 168.0
103.109238 164.0
103.155724 84.0
103.251495 164.0
103.264435 256.0
103.381073 144.0
103.412605 196.0
103.430069 172.0
103.487091 156.0
103.550278 180.0
103.617126 92.0
103.643463 192.0
103.674774 160.0
103.716423 200.0
103.740746 148.0
103.758987 136.0
103.803596 176.0
103.831985 88.0
103.87661 128.0
103.931389 120.0
103.968033 208.0
104.007019 164.0
104.073463 240.0
104.124229 136.0
104.17704 104.0
104.203453 240.0
104.25425 216.0
104.329453 180.0
104.361984 104.0
104.396553 96.0
104.447395 148.0
104.524704 92.0
104.600006 176.0
104.693665 128.0
104.766991 144.0
104.789398 92.0
104.850525 148.0
104.89537 212.0
104.93206 240.0
105.007515 168.0
105.076103 128.0
105.166649 192.0
105.225311 152.0
105.316483 84.0
105.338173 172.0
105.370857 224.0
105.385941 200.0
105.405594 128.0
105.513916 60.0
105.542625 188.0
105.652985 140.0
105.7276 120.0
105.761436 184.0
105.785995 128.0
105.828995 124.0
105.8638 168.0
105.878136 144.0
106.007912 164.0
106.035889 136.0
106.062531 228.0
106.11821 176.0
106.133171 160.0
106.206062 124.0
106.245033 156.0
106.310692 108.0
106.366104 64.0
106.394844 144.0
106.466713 168.0
106.481087 160.0
106.524216 188.0
106.59613 140.0
106.628662 236.0
106.818169 120.0
106.869286 236.0
106.886063 160.0
107.011612 184.0
107.041344 180.0
107.058975 228.0
107.073387 172.0
107.20565 80.0
107.260887 156.0
107.302116 160.0
107.318604 184.0
107.355721 160.0
107.37841 52.0
107.508377 184.0
107.541397 208.0
107.562042 120.0
107.696251 128.0
107.710709 164.0
107.810539 88.0
107.837585 128.0
107.845543 172.0
107.871887 104.0
107.940109 164.0
108.043701 192.0
108.136284 92.0
108.264999 140.0
108.36235 204.0
108.401718 180.0
108.434875 140.0
108.484627 132.0
108.538528 204.0
108.602821 56.0
108.656754 152.0
108.716927 124.0
108.802025 164.0
108.8293 176.0
108.849777 192.0
108.939369 148.0
108.982712 152.0
109.015961 176.0
109.0457 528.0
109.075417 204.0
109.17395 176.0
109.213463 180.0
109.304176 332.0
109.33622 204.0
109.365356 92.0
109.390335 152.0
109.436134 104.0
109.494438 148.0
109.515266 132.0
109.54512 132.0
109.585075 196.0
109.617767 160.0
109.692169 120.0
109.715309 52.0
109.761177 124.0
109.811226 164.0
109.929214 144.0
109.982315 140.0
109.996925 108.0
110.028236 272.0
110.049118 152.0
110.090881 172.0
110.117584 228.0
110.134735 160.0
110.216095 212.0
110.2789 124.0
110.297714 132.0
110.341614 136.0
110.384499 172.0
110.460815 156.0
110.594727 212.0
110.711975 48.0
110.947609 136.0
110.976494 152.0
111.045197 116.0
111.059875 108.0
111.104279 220.0
111.193771 172.0
111.221436 160.0
111.266769 148.0
111.286514 112.0
111.423035 56.0
111.572243 56.0
111.595367 160.0
111.6185 184.0
111.646393 136.0
111.734406 160.0
111.788887 132.0
111.927811 148.0
111.946037 196.0
111.988884 144.0
112.077362 148.0
112.118439 176.0
112.146904 172.0
112.312073 168.0
112.391533 208.0
112.44429 164.0
112.497055 144.0
112.554062 80.0
112.587845 156.0
112.657547 196.0
112.67421 140.0
112.697685 76.0
112.729385 196.0
112.785034 120.0
112.811813 68.0
112.881584 112.0
112.923935 156.0
112.982803 168.0
113.019073 148.0
113.041077 100.0
113.082558 196.0
113.099487 184.0
113.147247 220.0
113.168785 164.0
113.177605 120.0
113.184616 152.0
113.340912 124.0
113.377754 176.0
113.404488 92.0
113.4384 192.0
113.514732 164.0
113.588959 112.0
113.681793 320.0
113.6978 200.0
113.741737 120.0
113.771454 176.0
113.800491 248.0
113.818161 176.0
113.841522 212.0
113.856384 76.0
113.922234 252.0
113.994469 124.0
114.028564 184.0
114.049728 124.0
114.12838 176.0
114.156029 204.0
114.204941 216.0
114.224083 72.0
114.324081 128.0
114.348282 140.0
114.415604 40.0
114.441452 144.0
114.456055 184.0
114.479485 144.0
114.515686 172.0
114.543373 180.0
114.594505 112.0
114.610886 128.0
114.698921 140.0
114.724503 180.0
114.796997 136.0
114.945869 152.0
114.973724 204.0
115.001801 56.0
115.035957 172.0
115.053696 180.0
115.096786 184.0
115.19825 28.0
115.324318 44.0
115.538147 212.0
115.5681 200.0
115.630157 196.0
115.666542 92.0
115.747894 60.0
115.780022 160.0
115.811958 228.0
115.838608 180.0
115.985703 176.0
116.028572 180.0
116.048477 812.0
116.101479 124.0
116.116486 112.0
116.150803 140.0
116.165825 148.0
116.207367 196.0
116.245201 124.0
116.266663 176.0
116.354668 96.0
116.401901 60.0
116.444962 164.0
116.477074 156.0
116.530777 96.0
116.582352 56.0
116.629303 104.0
116.648979 208.0
116.730675 124.0
116.793045 164.0
116.829704 188.0
116.848976 140.0
116.932892 124.0
116.965179 180.0
117.044334 984.0
117.169754 160.0
117.282585 156.0
117.286522 192.0
117.318451 100.0
117.356575 164.0
117.378822 240.0
117.396072 128.0
117.445679 200.0
117.525497 164.0
117.564339 188.0
117.583221 192.0
117.624771 156.0
117.666351 260.0
117.686295 128.0
117.732719 128.0
117.814796 120.0
117.912033 108.0
117.989845 172.0
118.028336 1540.0
118.094818 176.0
118.123924 172.0
118.193153 124.0
118.240761 108.0
118.353325 220.0
118.381477 148.0
118.413963 152.0
118.437477 84.0
118.489777 132.0
118.513611 88.0
118.559021 192.0
118.650146 180.0
118.667496 200.0
118.704353 96.0
118.76812 148.0
118.810631 124.0
118.888092 80.0
118.980049 120.0
119.012474 152.0
119.034889 324.0
119.077621 168.0
119.099335 132.0
119.168854 64.0
119.247086 160.0
119.340553 180.0
119.468872 128.0
119.492317 268.0
119.542847 124.0
119.621201 220.0
119.693047 164.0
119.712639 160.0
119.784515 196.0
119.823723 124.0
119.93486 44.0
119.985001 132.0
120.011162 144.0
120.051086 196.0
120.104935 168.0
120.131111 84.0
120.151703 236.0
120.21402 320.0
120.262032 172.0
120.312241 76.0
120.353722 116.0
120.386475 224.0
120.456879 152.0
120.517532 128.0
120.578995 128.0
120.607132 108.0
120.659599 184.0
120.707703 56.0
120.763573 200.0
120.823616 96.0
120.858627 152.0
120.9002 228.0
121.005264 120.0
121.040298 48.0
121.108917 192.0
121.183952 176.0
121.210289 172.0
121.241837 120.0
121.268135 180.0
121.3032 188.0
121.386513 156.0
121.428185 132.0
121.452309 72.0
121.509346 204.0
121.601501 132.0
121.673943 152.0
121.702484 132.0
121.724442 140.0
121.771553 220.0
121.821075 228.0
121.871605 200.0
121.961708 200.0
122.038651 128.0
122.082626 188.0
122.106819 172.0
122.133209 176.0
122.187637 124.0
122.219009 160.0
122.34446 56.0
122.36647 100.0
122.392891 128.0
122.412712 156.0
122.491058 432.0
122.538261 128.0
122.564697 116.0
122.64183 156.0
122.683655 140.0
122.735268 240.0
122.827049 124.0
122.921913 180.0
123.024681 1832.0
123.061424 156.0
123.080841 152.0
123.105431 148.0
123.130798 196.0
123.228645 144.0
123.390167 184.0
123.47419 144.0
123.533905 112.0
123.564293 196.0
123.601822 172.0
123.609283 288.0
123.717583 172.0
123.914688 132.0
124.001106 124.0
124.025513 188.0
124.059456 116.0
124.114159 136.0
124.131897 176.0
124.320457 224.0
124.393929 152.0
124.466965 124.0
124.489166 96.0
124.540245 148.0
124.684662 140.0
124.791359 180.0
124.826935 244.0
124.844727 136.0
124.864738 112.0
124.886978 204.0
124.918121 112.0
124.935921 180.0
124.95594 176.0
125.096146 124.0
125.25647 156.0
125.305481 176.0
125.363594 208.0
125.428047 212.0
125.463715 204.0
125.604706 140.0
125.629761 148.0
125.713516 212.0
125.836281 148.0
125.867546 180.0
125.883171 168.0
125.925606 192.0
125.965813 172.0
125.99485 176.0
126.017189 168.0
126.032829 148.0
126.086464 48.0
126.113281 264.0
126.180344 156.0
126.222824 240.0
126.249657 168.0
126.321228 60.0
126.439819 360.0
126.489059 76.0
126.511444 140.0
126.5495 168.0
126.648033 420.0
126.677155 144.0
126.716873 148.0
126.73764 124.0
126.826393 204.0
126.896774 184.0
126.981987 104.0
127.044792 60.0
127.120117 168.0
127.129868 96.0
127.135437 160.0
127.181671 140.0
127.233299 108.0
127.278206 60.0
127.300659 228.0
127.320869 132.0
127.354561 320.0
127.383759 124.0
127.41571 180.0
127.437675 164.0
127.462395 152.0
127.48262 128.0
127.5383 160.0
127.568024 140.0
127.62648 144.0
127.66021 204.0
127.682693 116.0
127.720932 108.0
127.752419 148.0
127.797417 140.0
127.834572 164.0
127.968468 200.0
128.028046 172.0
128.045029 80.0
128.066284 176.0
128.139572 136.0
128.279358 172.0
128.356018 224.0
128.410141 96.0
128.459763 64.0
128.605362 144.0
128.629349 184.0
128.649139 344.0
128.678665 28.0
128.69899 160.0
128.728333 192.0
128.750214 228.0
128.765656 168.0
128.784805 188.0
128.83223 184.0
128.875153 108.0
128.913574 168.0
128.936172 108.0
129.058243 180.0
129.130707 176.0
129.160004 192.0
129.232391 240.0
129.334229 140.0
129.368179 128.0
129.386292 96.0
129.402145 140.0
129.449692 156.0
129.490463 124.0
129.610519 132.0
129.644516 160.0
129.673965 152.0
129.701172 72.0
129.723831 120.0
129.753311 160.0
129.814529 264.0
129.832672 140.0
129.853073 124.0
129.891632 312.0
129.950623 160.0
130.000534 140.0
130.03685 128.0
130.051788 112.0
130.091324 96.0
130.192596 232.0
130.284348 176.0
130.300262 224.0
130.458374 180.0
130.50708 160.0
130.600616 212.0
130.702698 116.0
130.759583 32.0
130.777786 156.0
130.811935 124.0
130.899567 236.0
130.923492 164.0
131.053329 112.0
131.082962 180.0
131.112579 172.0
131.180954 176.0
131.237961 156.0
131.278992 208.0
131.434113 148.0
131.539093 128.0
131.57106 204.0
131.593887 140.0
131.632706 48.0
131.662384 152.0
131.730911 100.0
131.749176 216.0
131.798569 168.0
131.882919 148.0
131.938324 204.0
131.964005 188.0
132.009735 104.0
132.064636 168.0
132.087509 236.0
132.208328 148.0
132.245377 148.0
132.270554 228.0
132.314056 112.0
132.330078 180.0
132.36113 136.0
132.488098 44.0
132.575165 132.0
132.657684 180.0
132.745514 156.0
132.768219 76.0
132.848022 176.0
132.955627 200.0
132.992569 112.0
133.027008 208.0
133.043488 156.0
133.091293 144.0
133.160187 212.0
133.27504 188.0
133.381714 192.0
133.422134 364.0
133.4814 160.0
133.546295 184.0
133.608414 160.0
133.626816 76.0
133.672836 152.0
133.748779 180.0
133.792511 140.0
133.932983 140.0
133.958328 52.0
133.97905 108.0
134.009003 248.0
134.049286 164.0
134.098877 176.0
134.133453 124.0
134.234894 188.0
134.329453 124.0
134.426346 256.0
134.490967 120.0
134.534836 172.0
134.560226 144.0
134.57869 172.0
134.631805 164.0
134.679047 116.0
134.708023 144.0
134.763474 56.0
134.798126 116.0
134.899826 172.0
134.929871 52.0
134.948364 168.0
134.971497 160.0
135.033936 108.0
135.060623 288.0
135.158554 348.0
135.2005 148.0
135.246796 152.0
135.318558 164.0
135.334763 160.0
135.398285 188.0
135.449142 172.0
135.496628 188.0
135.559448 140.0
135.605789 76.0
135.663742 148.0
135.728653 196.0
135.770401 160.0
135.806839 112.0
135.846939 156.0
135.923492 156.0
135.94342 280.0
135.99826 92.0
136.055725 152.0
136.109192 192.0
136.144028 164.0
136.160278 268.0
136.184616 316.0
136.216019 156.0
136.289139 116.0
136.327652 164.0
136.494919 168.0
136.573471 184.0
136.62178 176.0
136.641449 92.0
136.674011 136.0
136.750809 140.0
136.797363 276.0
136.850906 176.0
136.905426 224.0
136.965027 108.0
137.013947 92.0
137.032578 156.0
137.107147 128.0
137.163086 96.0
137.214371 220.0
137.247009 144.0
137.335617 172.0
137.405609 80.0
137.45166 152.0
137.571304 80.0
137.613831 220.0
137.636673 140.0
137.755783 196.0
137.825867 164.0
137.858582 120.0
137.952072 168.0
137.973114 156.0
138.022202 188.0
138.059616 256.0
138.143829 224.0
138.218689 140.0
138.331024 152.0
138.377853 168.0
138.405945 164.0
138.438721 176.0
138.518356 328.0
138.564896 184.0
138.591858 148.0
138.666367 248.0
138.703476 96.0
138.790146 128.0
138.841797 152.0
138.949707 260.0
138.970825 116.0
139.008362 212.0
139.048248 184.0
139.071732 128.0
139.165619 164.0
139.243118 96.0
139.315826 172.0
139.344116 116.0
139.515686 172.0
139.536835 140.0
139.583862 120.0
139.628113 152.0
139.647354 84.0
139.668533 272.0
139.720276 256.0
139.749451 192.0
139.767334 192.0
139.799255 424.0
139.88736 140.0
139.953278 124.0
140.026291 80.0
140.04512 56.0
140.063965 136.0
140.138702 160.0
140.184128 200.0
140.228897 216.0
140.264252 208.0
140.323196 84.0
140.346771 196.0
140.457611 168.0
140.476471 52.0
140.516586 164.0
140.653519 148.0
140.707748 128.0
140.842346 172.0
140.9841 100.0
141.017197 108.0
141.070648 236.0
141.21579 204.0
141.250443 124.0
141.272568 124.0
141.379028 80.0
141.484085 52.0
141.710541 164.0
141.82428 100.0
141.852737 200.0
141.876434 116.0
141.916748 144.0
142.013962 108.0
142.040054 216.0
142.065201 120.0
142.085129 132.0
142.115967 184.0
142.142075 172.0
142.19191 136.0
142.208527 184.0
142.272614 44.0
142.301102 160.0
142.353333 68.0
142.398819 160.0
142.478622 112.0
142.53624 224.0
142.574265 184.0
142.65033 128.0
142.678848 112.0
142.850067 212.0
142.957138 144.0
142.985687 216.0
143.016632 176.0
143.061859 144.0
143.085663 140.0
143.197266 180.0
143.230927 136.0
143.271423 148.0
143.330994 132.0
143.416779 148.0
143.486511 128.0
143.547897 216.0
143.593216 204.0
143.66954 148.0
143.741119 164.0
143.779297 176.0
143.815094 140.0
143.860458 212.0
143.881943 136.0
143.934464 208.0
143.996552 84.0
144.042679 856.0
144.090195 272.0
144.132721 140.0
144.171188 160.0
144.203461 180.0
144.268951 252.0
144.317886 180.0
144.407639 148.0
144.546066 208.0
144.59996 396.0
144.639725 120.0
144.684601 204.0
144.723068 192.0
144.764221 192.0
144.788162 172.0
144.901459 136.0
144.909607 40.0
144.916931 164.0
144.98439 132.0
145.04071 9768.0
145.071365 148.0
145.101517 200.0
145.144577 148.0
145.161926 152.0
145.197983 320.0
145.240768 176.0
145.394424 208.0
145.430695 68.0
145.457108 88.0
145.484741 140.0
145.512405 176.0
145.543533 68.0
145.562744 192.0
145.584473 180.0
145.604492 248.0
145.625183 108.0
145.651428 160.0
145.674423 216.0
145.703415 112.0
145.707764 160.0
145.745361 276.0
145.791321 204.0
145.839371 88.0
145.859009 240.0
145.886963 204.0
145.896408 224.0
145.902283 448.0
145.942337 364.0
145.975494 416.0
145.991684 504.0
146.02475 175424.0
146.086212 76.0
146.093536 184.0
146.102646 132.0
146.109589 160.0
146.179688 204.0
146.197525 212.0
146.231384 192.0
146.250504 408.0
146.287643 268.0
146.312897 52.0
146.357895 128.0
146.395248 440.0
146.420792 2720.0
146.444672 336.0
146.46698 180.0
146.484055 168.0
146.510803 156.0
146.554611 100.0
146.57608 88.0
146.585861 68.0
146.601105 216.0
146.634949 312.0
146.655289 140.0
146.695618 212.0
146.723969 108.0
146.761017 88.0
146.813126 172.0
146.83522 172.0
146.852203 64.0
146.881607 52.0
146.917786 100.0
146.942596 204.0
146.974152 132.0
146.981522 116.0
147.027466 24832.0
147.081787 100.0
147.118637 68.0
147.138962 80.0
147.156189 76.0
147.183273 124.0
147.202591 48.0
147.220245 64.0
147.250671 48.0
147.292755 60.0
147.312729 60.0
147.352341 100.0
147.371017 44.0
147.393463 232.0
147.43129 148.0
147.472366 36.0
147.510559 68.0
147.534546 112.0
147.584732 80.0
147.612671 96.0
147.642395 48.0
147.663864 156.0
147.73996 168.0
147.766342 172.0
147.832687 140.0
147.859344 220.0
147.88269 132.0
147.910629 92.0
147.931534 112.0
147.958496 156.0
147.984146 172.0
148.03006 3528.0
148.066727 100.0
148.117386 112.0
148.153458 264.0
148.20137 152.0
148.223145 104.0
148.241623 224.0
148.273743 140.0
148.282776 148.0
148.290558 204.0
148.322739 72.0
148.368805 84.0
148.426605 128.0
148.499741 116.0
148.516724 52.0
148.560379 164.0
148.60405 80.0
148.677841 156.0
148.764221 100.0
148.817291 140.0
148.826706 120.0
148.833679 196.0
148.858902 160.0
148.894318 92.0
148.910156 80.0
148.931763 140.0
148.963348 104.0
149.003448 132.0
149.026932 244.0
149.062271 128.0
149.080414 176.0
149.091812 32.0
149.099838 112.0
149.13829 36.0
149.172318 36.0
149.203934 132.0
149.220947 172.0
149.242828 64.0
149.264709 72.0
149.291458 152.0
149.315781 124.0
149.354691 240.0
149.374146 72.0
149.427673 188.0
149.556778 152.0
149.636978 76.0
149.700287 68.0
149.76207 176.0
149.779068 184.0
149.843994 68.0
149.890289 72.0
149.953644 112.0
149.995087 28.0
150.112106 48.0
150.165756 128.0
150.367691 52.0
150.480545 72.0
150.546478 168.0
150.751678 56.0
150.78833 60.0
150.810318 148.0
150.846985 152.0
150.894623 140.0
151.01326 140.0
151.071152 168.0
151.116653 196.0
151.306763 140.0
151.310532 132.0
151.390152 164.0
151.421982 80.0
151.537109 196.0
151.615524 188.0
151.738831 156.0
151.804291 44.0
151.949005 96.0
151.980896 200.0
152.007889 152.0
152.044693 64.0
152.064331 188.0
152.177246 112.0
152.236176 148.0
152.27301 96.0
152.494141 92.0
152.558044 64.0
152.648956 168.0
152.653152 164.0
152.85318 72.0
152.880249 72.0
152.981155 280.0
152.998398 156.0
153.073318 212.0
153.17569 164.0
153.323532 40.0
153.37529 52.0
153.636673 168.0
153.708588 232.0
153.802002 136.0
153.867676 220.0
153.93779 84.0
153.978729 124.0
154.058563 204.0
154.108841 236.0
154.206268 160.0
154.271072 112.0
154.281128 100.0
154.287445 208.0
154.325714 136.0
154.372696 72.0
154.467651 144.0
154.511215 60.0
154.538422 100.0
154.573074 100.0
154.607712 180.0
154.684433 188.0
154.813766 156.0
154.835464 56.0
155.021271 100.0
155.095627 196.0
155.127838 124.0
155.157593 140.0
155.209656 48.0
155.293976 108.0
155.3535 184.0
155.442825 156.0
155.489975 160.0
155.544571 128.0
155.561951 60.0
155.650467 140.0
155.683609 128.0
155.785446 60.0
155.827042 140.0
155.902222 168.0
156.03894 168.0
156.175705 236.0
156.227936 160.0
156.247833 104.0
156.285156 76.0
156.460236 196.0
156.526596 112.0
156.566452 184.0
156.688492 92.0
156.728363 208.0
156.885376 160.0
156.925262 60.0
156.967651 176.0
157.005051 108.0
157.084869 128.0
157.134064 128.0
157.239563 184.0
157.324432 184.0
157.41954 168.0
157.5242 104.0
157.554184 144.0
157.619141 44.0
157.674118 96.0
157.784103 104.0
157.814102 148.0
157.896622 156.0
157.914124 112.0
157.994171 108.0
158.029205 208.0
158.061722 108.0
158.086746 92.0
158.154327 112.0
158.266983 164.0
158.29953 60.0
158.447311 56.0
158.487045 144.0
158.602676 208.0
158.788208 180.0
158.817123 136.0
158.839874 160.0
158.870987 128.0
159.008987 108.0
159.061691 100.0
159.115234 244.0
159.204803 164.0
159.435928 180.0
159.554062 212.0
159.579666 64.0
159.73172 160.0
159.795502 60.0
159.873505 208.0
159.898666 72.0
159.964111 236.0
159.994308 92.0
160.024521 56.0
160.30159 144.0
160.349472 124.0
160.379715 192.0
160.429718 204.0
160.682327 144.0
160.735306 172.0
160.813538 136.0
160.845856 160.0
160.904419 116.0
160.939758 104.0
160.975113 196.0
161.012985 156.0
161.075226 928.0
161.106445 164.0
161.136765 132.0
161.1595 172.0
161.258057 48.0
161.303558 48.0
161.384445 92.0
161.407211 180.0
161.639923 200.0
161.693069 176.0
161.7285 144.0
161.753815 136.0
161.92598 212.0
162.071884 304.0
162.166672 148.0
162.185806 172.0
162.328918 164.0
162.351746 240.0
162.382172 104.0
162.516617 64.0
162.580063 88.0
162.820847 156.0
162.850922 128.0
163.052582 556.0
163.093094 124.0
163.123596 60.0
163.188187 120.0
163.21257 120.0
163.273605 60.0
163.385513 68.0
163.454208 176.0
163.500015 136.0
163.584015 168.0
163.634933 120.0
163.690948 136.0
163.749512 92.0
163.769897 56.0
163.790268 112.0
163.87178 128.0
164.035355 440.0
164.054535 152.0
164.107239 188.0
164.170013 76.0
164.519562 168.0
164.570633 208.0
164.598709 156.0
164.746841 152.0
164.771866 172.0
164.897598 200.0
164.951279 116.0
164.989624 160.0
165.069397 140.0
165.19165 76.0
165.327255 84.0
165.382782 120.0
165.437317 220.0
165.524353 32.0
165.703659 160.0
165.739517 196.0
165.839462 128.0
165.967636 104.0
165.988159 64.0
166.031754 40.0
166.308838 184.0
166.355042 208.0
166.383286 192.0
166.410187 108.0
166.506531 172.0
166.529648 140.0
166.547623 192.0
166.634964 232.0
166.819992 212.0
166.997421 268.0
167.090027 268.0
167.172363 148.0
167.239273 204.0
167.316498 140.0
167.36026 76.0
167.646927 224.0
167.720932 120.0
167.769897 52.0
167.897537 192.0
167.940094 168.0
168.035538 172.0
168.23967 204.0
168.267807 248.0
168.301376 200.0
168.360764 124.0
168.482162 164.0
168.776794 128.0
168.885422 228.0
168.921631 148.0
169.017349 40.0
169.040634 196.0
169.076874 152.0
169.255493 152.0
169.496384 216.0
169.563751 136.0
169.750412 144.0
169.885269 48.0
169.991653 192.0
170.048737 208.0
170.238266 88.0
170.472046 124.0
170.596802 72.0
170.661804 156.0
170.737213 112.0
170.890686 184.0
170.932312 152.0
171.026001 152.0
171.055801 2556.0
171.171799 52.0
171.244705 108.0
171.320251 224.0
171.386658 228.0
171.481796 196.0
171.549576 104.0
171.614746 44.0
171.857315 184.0
171.906891 84.0
171.94342 52.0
171.969528 112.0
171.990402 140.0
172.025131 228.0
172.053604 552.0
172.131378 136.0
172.23584 152.0
172.32933 188.0
172.481461 76.0
172.612183 120.0
172.674942 72.0
172.693253 160.0
172.813583 120.0
172.89209 108.0
173.036423 140.0
173.075317 624.0
173.211502 144.0
173.822357 152.0
173.851227 120.0
173.872223 148.0
173.932587 160.0
174.126877 120.0
174.173767 132.0
174.326538 160.0
174.415894 112.0
174.435547 172.0
174.855133 148.0
174.87619 128.0
175.07756 320.0
175.10788 84.0
175.131577 148.0
175.157913 188.0
175.242218 136.0
175.368713 160.0
175.429337 180.0
175.535492 168.0
175.561157 168.0
175.656113 80.0
175.930557 88.0
175.967514 60.0
176.046722 116.0
176.081055 96.0
176.205063 152.0
176.215622 144.0
176.334686 212.0
176.376968 184.0
176.411346 152.0
176.453644 148.0
176.488007 208.0
177.072906 656.0
177.101959 144.0
177.144348 192.0
177.329819 176.0
177.355698 152.0
177.382828 208.0
177.459717 148.0
177.483582 184.0
177.55603 172.0
177.831085 180.0
177.990372 108.0
178.075348 168.0
178.095551 272.0
178.184265 96.0
178.237396 112.0
178.301178 140.0
178.63353 64.0
178.888992 116.0
178.918274 120.0
178.948257 184.0
179.016785 36.0
179.056732 160.0
179.090073 152.0
179.139313 148.0
179.160614 104.0
179.208572 156.0
179.280518 180.0
179.519608 168.0
179.781876 56.0
179.952698 144.0
179.975555 128.0
180.07019 192.0
180.15834 168.0
180.321335 84.0
180.36142 76.0
180.409546 124.0
180.709076 152.0
180.82782 160.0
180.853577 96.0
180.91246 84.0
181.019562 168.0
181.040985 132.0
181.086517 48.0
181.316925 220.0
181.450943 168.0
181.566238 128.0
181.872101 124.0
181.984848 224.0
182.054657 228.0
182.148666 180.0
182.186279 188.0
182.226578 180.0
182.304489 180.0
182.408936 120.0
182.51416 216.0
182.559875 120.0
182.589462 72.0
182.925781 148.0
183.037018 140.0
183.095413 148.0
183.286667 120.0
183.656006 68.0
183.680283 232.0
183.898834 172.0
183.917725 176.0
183.958221 140.0
184.017609 96.0
184.07431 172.0
184.189255 220.0
184.233658 128.0
184.294861 220.0
184.420105 32.0
184.452545 112.0
184.566086 152.0
184.59584 140.0
184.630997 96.0
184.961075 84.0
185.292343 112.0
185.329376 160.0
185.364594 176.0
185.470291 216.0
185.524506 148.0
185.578735 172.0
185.630249 160.0
185.673645 136.0
185.774002 116.0
185.825546 228.0
186.026367 184.0
186.145828 168.0
186.172974 292.0
186.268036 180.0
186.297928 180.0
186.428345 84.0
186.512589 164.0
186.643082 204.0
186.716507 136.0
186.81987 204.0
187.018829 132.0
187.060593 196.0
187.089279 108.0
187.18457 152.0
187.267059 152.0
187.413376 60.0
187.446075 180.0
187.522369 100.0
187.606873 160.0
187.754105 108.0
187.803207 108.0
187.835938 92.0
187.890488 168.0
187.925964 56.0
188.039078 92.0
188.055679 148.0
188.083008 156.0
188.127487 176.0
188.136917 148.0
188.156403 128.0
188.177048 144.0
188.23439 164.0
188.25351 196.0
188.283554 320.0
188.316208 96.0
188.322525 132.0
188.349091 144.0
188.392807 92.0
188.426285 172.0
188.467697 156.0
188.475983 188.0
188.521225 88.0
188.550629 328.0
188.577026 284.0
188.616287 316.0
188.627747 168.0
188.639511 128.0
188.64621 236.0
188.689713 372.0
188.700348 144.0
188.70546 248.0
188.756409 216.0
188.791855 128.0
188.824677 320.0
188.8797 168.0
188.912323 300.0
188.971634 364.0
189.003967 492.0
189.023758 604.0
189.066971 213104.0
189.154373 88.0
189.177002 112.0
189.183273 72.0
189.241577 132.0
189.26828 112.0
189.302017 128.0
189.328827 276.0
189.371918 400.0
189.399689 320.0
189.44339 176.0
189.46286 304.0
189.483643 172.0
189.517578 2700.0
189.56723 204.0
189.596817 92.0
189.644867 164.0
189.658722 176.0
189.69989 132.0
189.754227 128.0
189.826233 328.0
189.876343 32.0
189.917892 204.0
189.971786 80.0
190.004715 152.0
190.022263 180.0
190.069214 27300.0
190.101868 1132.0
190.139709 220.0
190.208984 148.0
190.239243 76.0
190.246918 136.0
190.256821 84.0
190.275314 60.0
190.321289 164.0
190.357498 84.0
190.377731 40.0
190.40834 160.0
190.433594 240.0
190.468231 208.0
190.533844 136.0
190.553116 80.0
190.590057 64.0
190.638031 184.0
190.661316 60.0
190.697235 188.0
190.792755 96.0
190.827927 76.0
190.845932 44.0
190.866409 48.0
190.94899 112.0
190.969421 60.0
190.988678 116.0
191.041626 192.0
191.072296 3360.0
191.14978 100.0
191.17688 128.0
191.197784 124.0
191.227859 136.0
191.266876 116.0
191.289215 212.0
191.3284 132.0
191.366318 176.0
191.412796 56.0
191.445374 176.0
191.489258 216.0
191.515747 160.0
191.552963 132.0
191.586014 156.0
191.596115 252.0
191.616257 368.0
191.701736 32.0
191.753784 140.0
191.810669 76.0
191.846649 44.0
191.938797 64.0
191.958099 124.0
191.977402 128.0
192.038071 32.0
192.088791 180.0
192.099976 284.0
192.18428 100.0
192.247055 144.0
192.272583 124.0
192.300186 76.0
192.33606 72.0
192.380417 56.0
192.406586 80.0
192.547348 148.0
192.573517 96.0
192.62323 56.0
192.661911 84.0
192.689529 124.0
192.736496 92.0
192.885742 92.0
192.999084 72.0
193.090332 144.0
193.136902 48.0
193.214813 44.0
193.297821 56.0
193.466644 32.0
193.504562 128.0
193.749115 76.0
193.851639 160.0
193.890427 104.0
194.384048 96.0
194.489502 40.0
194.553345 36.0
194.589447 84.0
194.800507 80.0
194.978317 64.0
195.462189 112.0
195.779526 76.0
195.932724 72.0
196.116638 136.0
196.738678 44.0
196.878281 64.0
196.970459 48.0
197.110138 108.0
197.244293 36.0
198.013718 128.0
198.557419 104.0
198.739761 180.0
198.78746 88.0
198.826752 132.0
198.913757 44.0
198.96991 32.0
199.045715 168.0
199.076599 56.0
199.140137 128.0
199.233887 108.0
200.164841 60.0
200.240875 92.0
200.404266 120.0
200.452164 36.0
200.545166 104.0
200.656464 132.0
200.731232 64.0
201.131836 112.0
201.775909 36.0
202.101028 168.0
202.384216 108.0
202.474823 96.0
203.115372 124.0
203.191971 84.0
203.430344 72.0
203.751251 100.0
203.955841 80.0
204.078079 140.0
204.550339 104.0
205.028824 180.0
205.276016 96.0
205.422302 80.0
205.750473 52.0
205.970352 36.0
206.095001 368.0
206.1875 44.0
206.570801 68.0
206.693649 56.0
206.789368 60.0
206.81958 136.0
207.103119 148.0
207.412491 64.0
207.524292 92.0
207.555832 156.0
207.965683 120.0
208.112381 6728.0
208.284302 48.0
208.327866 44.0
208.393936 92.0
208.413666 60.0
208.465775 64.0
208.48877 160.0
208.603729 48.0
208.747482 68.0
208.88266 36.0
209.029388 68.0
209.114914 1956.0
209.951202 76.0
210.117691 244.0
210.375351 52.0
210.470612 56.0
210.568802 96.0
210.681458 68.0
210.797028 36.0
210.875046 92.0
211.060059 76.0
211.58374 92.0
211.882034 68.0
212.093582 116.0
212.139954 176.0
212.818832 88.0
213.312698 108.0
213.58313 100.0
214.351715 168.0
215.14502 60.0
215.276413 284.0
216.121262 144.0
216.548569 80.0
217.118729 88.0
217.671753 92.0
218.047775 156.0
218.182999 36.0
218.85968 68.0
218.915619 56.0
219.056992 148.0
220.104965 108.0
220.754059 84.0
221.114975 88.0
221.541351 104.0
222.656616 84.0
223.545471 124.0
224.04866 120.0
225.316559 96.0
225.558624 76.0
226.960083 132.0
230.185349 56.0
230.535751 80.0
230.777573 140.0
232.073441 156.0
232.114029 176.0
232.923172 156.0
233.07811 60.0
233.12674 164.0
233.521957 72.0
234.127991 2480.0
234.401749 32.0
234.990219 40.0
235.132797 460.0
236.377396 64.0
236.818237 108.0
238.791733 112.0
238.850159 40.0
239.062454 124.0
241.96077 100.0
242.001007 128.0
244.680359 48.0
246.242584 116.0
246.36441 72.0
247.484039 56.0
248.860474 76.0
249.624008 88.0
250.234421 136.0
251.145126 48.0
254.366272 96.0
255.468933 48.0
256.653687 52.0
257.732544 120.0
258.323975 84.0
260.894318 176.0
264.169006 48.0
265.506683 76.0
266.750214 120.0
267.2901 100.0
270.750366 80.0
271.215607 60.0
271.395905 156.0
272.019226 216.0
272.649841 56.0
276.422424 112.0
277.14093 96.0
277.280121 52.0
277.492249 60.0
277.661377 48.0
278.162384 100.0
279.724701 52.0
280.061005 88.0
280.774231 60.0
280.897644 40.0
281.211273 260.0
282.103119 108.0
282.912659 100.0
284.082214 120.0
284.176147 32.0
284.639343 96.0
284.901306 160.0
285.11972 164.0
285.176849 100.0
286.014343 40.0
289.237854 128.0
289.833893 144.0
289.860992 60.0
290.902222 188.0
291.625702 120.0
291.96228 100.0
292.020111 92.0
294.006317 44.0
294.846436 60.0
297.837463 168.0
297.998932 52.0
298.346039 48.0
299.274933 80.0
299.374817 72.0
299.898468 88.0
300.826355 120.0
301.209625 112.0
303.434784 112.0
303.62204 184.0
303.833618 108.0
303.993225 208.0
304.649414 48.0
305.849091 60.0
306.322632 176.0
308.842804 72.0
309.024719 84.0
311.352234 84.0
314.153961 120.0
314.453888 64.0
316.41217 108.0
316.660034 36.0
317.91861 80.0
318.188354 172.0
319.321869 100.0
320.261505 68.0
321.85202 52.0
323.650543 128.0
324.352692 104.0
324.750702 72.0
325.209961 64.0
325.299683 72.0
327.766876 48.0
328.087646 128.0
331.017822 148.0
331.430756 108.0
331.800446 116.0
331.869324 156.0
332.518646 124.0
332.725555 40.0
332.87442 44.0
336.548401 56.0
337.414307 132.0
339.912231 136.0
340.323334 72.0
340.466522 56.0
340.60611 92.0
342.997833 188.0
343.237457 108.0
343.381287 48.0
344.008545 84.0
346.471466 116.0
347.045929 96.0
347.17569 48.0
347.613434 48.0
348.341125 196.0
351.147583 116.0
353.310303 108.0
354.219971 188.0
356.369598 164.0
356.549957 44.0
357.651947 48.0
361.00592 36.0
362.398865 64.0
362.516327 32.0
364.048889 80.0
364.409729 112.0
365.76355 48.0
366.475708 116.0
367.329651 168.0
367.703583 100.0
372.505005 144.0
373.450562 52.0
373.619812 64.0
375.534241 40.0
377.16748 112.0
379.846985 100.0
380.988281 108.0
381.225281 60.0
381.567322 60.0
382.36084 104.0
382.863037 104.0
385.371216 116.0
392.492035 80.0
393.663177 48.0
394.153809 156.0
394.769653 68.0
394.919952 124.0
395.139435 204.0
395.156647 100.0
395.167053 188.0
395.220581 164.0
395.374908 52.0
395.711365 196.0
395.802429 208.0
395.909363 252.0
396.044006 108.0
396.099457 124.0
396.171448 8696.0
396.400574 120.0
396.483795 52.0
396.51944 80.0
396.570984 68.0
396.709717 48.0
396.820709 76.0
396.868286 100.0
397.070526 140.0
397.17514 1716.0
397.284729 48.0
397.344238 28.0
397.54657 28.0
397.610077 104.0
397.717224 36.0
397.784729 68.0
397.828369 64.0
397.995117 60.0
398.169312 236.0
398.269135 84.0
399.17923 132.0
399.246826 60.0
399.31842 60.0
399.652588 96.0
400.444763 68.0
400.623993 48.0
400.775391 88.0
400.958679 116.0
401.185883 80.0
403.501373 84.0
405.643097 44.0
407.420807 44.0
409.375549 40.0
412.057831 64.0
413.0159 56.0
413.096802 92.0
414.538147 116.0
424.808594 124.0
427.454468 100.0
430.215881 72.0
433.756836 72.0
434.146576 56.0
435.84433 56.0
436.451172 84.0
449.478241 44.0
451.903534 64.0
454.539001 52.0
454.776642 80.0
460.170135 76.0
461.742645 160.0
464.05069 52.0
464.736938 64.0
466.274231 76.0
470.124268 68.0
471.80011 52.0
478.028473 76.0
483.041412 44.0
484.84967 112.0
491.330933 68.0
495.584076 48.0
497.207031 76.0
498.765991 48.0
504.628143 112.0
510.857361 72.0
511.919556 48.0
520.947266 72.0
526.983643 72.0
529.691895 44.0
530.237122 48.0
532.558655 64.0
539.955933 48.0
545.092346 112.0
549.795654 88.0
549.893677 88.0
550.659363 96.0
552.033325 128.0
564.778625 100.0
565.393677 116.0
570.868103 132.0
574.101562 40.0
580.351257 56.0
590.221924 84.0
598.99646 64.0
601.029419 60.0
601.649292 76.0
620.021118 68.0
625.429749 100.0
628.968689 44.0
629.472961 56.0
629.812561 84.0
634.691895 28.0
635.248596 60.0
639.071716 68.0
643.808899 76.0
645.341003 96.0
646.393127 40.0
648.322449 44.0
650.427246 104.0
651.874695 80.0
664.95343 116.0
672.994141 56.0
676.525269 108.0
681.301392 136.0
686.334167 96.0
697.338013 104.0
707.550232 184.0
713.688782 108.0
722.981018 108.0
725.777222 76.0
732.144897 84.0
740.272217 64.0
742.016907 60.0
753.003296 96.0
755.260559 40.0
761.217834 108.0
761.426514 64.0
762.459351 176.0
765.374817 96.0
768.003479 168.0
777.425293 96.0
781.548401 80.0
785.587524 120.0
789.133789 40.0
791.159058 60.0
793.781128 48.0
794.201721 64.0
797.008667 36.0
797.660583 168.0
799.719238 184.0
810.970215 48.0
811.140259 176.0
814.334717 184.0
826.499939 152.0
842.673767 56.0
844.847534 228.0
848.588745 156.0
855.979553 60.0
856.80658 80.0
859.167664 60.0
862.858582 172.0
867.319214 156.0
868.450806 152.0
873.231689 144.0
879.193787 80.0
879.235046 84.0
883.779175 48.0
883.897522 192.0
894.509094 44.0
895.116333 148.0
896.408936 100.0
902.712585 48.0
905.14801 112.0
907.838562 184.0
919.58197 152.0
924.731323 248.0
925.239807 180.0
931.018188 48.0
932.008362 284.0
934.105774 188.0
937.777344 72.0
944.132812 196.0
951.473328 160.0
955.000488 160.0
957.868774 100.0
959.125793 116.0
965.015076 224.0
966.115906 108.0
968.028442 112.0
970.599976 88.0
972.243835 224.0
972.349304 112.0
976.169861 168.0
976.443481 196.0
976.766907 188.0
977.233459 92.0
978.453308 192.0
978.907837 180.0
982.242126 84.0
982.685059 176.0
983.028259 184.0
988.808838 164.0
992.003235 176.0
992.134888 196.0
995.673767 156.0
998.080505 136.0
998.313171 164.0
1000.080994 148.0
1006.536499 140.0
1014.032898 184.0
1017.508972 148.0
1018.766357 160.0
1019.528809 124.0
1019.706787 60.0
1019.808472 84.0
1023.937561 56.0
1024.389771 228.0
1026.977661 212.0
1030.63562 120.0
1031.849976 192.0
1032.387085 156.0
1035.273193 120.0
1037.560547 132.0
1039.574585 172.0
1040.73645 72.0
1047.411743 92.0
1048.391113 68.0
1051.002563 208.0
1051.867432 192.0
1054.211914 168.0
1055.065063 104.0
1057.464844 148.0
1059.517456 136.0
1060.606079 168.0
1060.768188 160.0
1060.949707 32.0
1062.532104 184.0
1063.34314 236.0
1067.422852 68.0
1069.257324 104.0
1070.891479 148.0
1071.888184 160.0
1073.074463 72.0
1073.185303 124.0
1074.280884 220.0
1074.992065 148.0
1075.723022 44.0
1076.191895 164.0
1078.035156 168.0
1081.658447 108.0
1082.162476 168.0
1082.594604 164.0
1084.324219 148.0
1084.959961 200.0
1085.766479 288.0
1088.292847 192.0
1088.719604 124.0
1088.940063 224.0
1090.486938 212.0
1090.947021 168.0
1092.064819 140.0
1096.113525 148.0
1096.410034 120.0
1096.495728 200.0
1097.286743 196.0
1098.803589 128.0
1099.90564 40.0
1101.76123 180.0
1105.490234 144.0
1106.291138 120.0
1107.847412 144.0
1114.735107 212.0
1115.325684 188.0
1116.349609 236.0
1119.304077 160.0
1119.364014 232.0
1120.143188 136.0
1120.243164 152.0
1120.48291 200.0
1120.702759 176.0
1121.995728 104.0
1122.615845 236.0
1123.448364 108.0
1124.577271 112.0
1124.837524 88.0
1125.191406 136.0
1126.426758 72.0
1127.248535 132.0
1129.427979 132.0
1130.297729 180.0
1132.011353 196.0
1133.397827 176.0
1135.113892 192.0
1135.16748 40.0
1135.569824 212.0
1135.771118 136.0
1138.133301 148.0
1140.242676 168.0
1143.538086 104.0
1143.773682 176.0
1144.588257 136.0
1146.285767 60.0
1146.440796 252.0
1146.804688 220.0
1146.986694 160.0
1147.57312 156.0
1148.004639 136.0
1149.495483 236.0
1150.055664 164.0
1150.190674 204.0
1151.676025 212.0
1153.034058 56.0
1153.101685 248.0
1153.169189 192.0
1153.608643 140.0
1154.088623 36.0
1160.141113 184.0
1160.855469 164.0
1161.39563 152.0
1162.691406 176.0
1162.827148 204.0
1164.84375 168.0
1166.11438 216.0
1166.359009 108.0
1169.814575 144.0
1170.331909 64.0
1172.879761 180.0
1173.963867 136.0
1174.659546 204.0
1175.08252 124.0
1175.908081 116.0
1176.283569 52.0
1178.318604 124.0
1178.818481 172.0
1179.063354 152.0
1181.319702 112.0
1184.411865 76.0
1184.578125 52.0
1184.667114 292.0
1186.044434 160.0
1186.428345 148.0
1187.134521 196.0
1189.721191 76.0
1189.796753 116.0
1190.483276 172.0
1190.572632 64.0
1192.056396 260.0
1192.53064 208.0
1194.111938 180.0
1194.173828 164.0
1195.116211 28.0
1195.446533 148.0
1198.221313 176.0
1198.517578 80.0
1198.614014 184.0
1199.062012 128.0
1200.033936 176.0
1200.557983 132.0
1201.495972 112.0
1202.054932 204.0
1202.327637 152.0
1202.537964 168.0
1202.634644 244.0
1203.987793 144.0
1204.063721 200.0
1205.127563 144.0
1206.841675 116.0
1207.671509 152.0
1207.896973 160.0
1208.404663 88.0
1209.816528 152.0
1209.975708 188.0
1211.700195 180.0
1212.046631 136.0
1214.750488 156.0
1215.381836 176.0
1215.694092 80.0
1216.721313 180.0
1217.137817 168.0
1217.485107 180.0
1218.825684 136.0
1219.194092 200.0
1220.069824 216.0
1220.848511 132.0
1222.880005 244.0
1223.805786 84.0
1224.836548 172.0
1227.422119 200.0
1227.966064 120.0
1228.014893 124.0
1228.244995 136.0
1228.614746 172.0
1229.577637 216.0
1232.706177 116.0
1233.999268 136.0
1235.978638 184.0
1236.146606 124.0
1237.119385 144.0
1238.309814 164.0
1238.723022 156.0
1239.290527 60.0
1239.45166 56.0
1239.977173 132.0
1241.239014 224.0
1242.087646 64.0
1243.217163 60.0
1243.540039 92.0
1243.606812 196.0
1244.972168 108.0
1245.541138 148.0
1245.695679 108.0
1246.117188 188.0
1246.320923 140.0
1251.877808 132.0
1252.265137 80.0
1252.758301 164.0
1252.90625 204.0
1253.216187 100.0
1254.484741 172.0
1256.120728 84.0
1257.108398 188.0
1257.383667 136.0
1257.552979 48.0
1257.651855 148.0
1258.808838 144.0
1260.25769 164.0
1261.416626 224.0
1261.883301 148.0
1263.018433 180.0
1263.099609 144.0
1265.045532 152.0
1266.50415 128.0
1266.624634 180.0
1267.007202 156.0
1267.736938 160.0
1267.829102 128.0
1267.878662 200.0
1267.942505 136.0
1269.601318 192.0
1269.927612 148.0
1270.416992 184.0
1270.800171 144.0
1271.289673 156.0
1271.786499 100.0
1271.892944 184.0
1273.199341 176.0
1274.314575 192.0
1274.38562 64.0
1274.911377 184.0
1275.743042 144.0
1276.055786 96.0
1276.33374 172.0
1276.653076 132.0
1277.677368 124.0
1277.947632 140.0
1278.385742 176.0
1278.901245 176.0
1279.122437 224.0
1279.292725 176.0
1279.427979 200.0
1279.584595 180.0
1280.446167 208.0
1280.980469 200.0
1281.464844 160.0
1281.536133 160.0
1281.707153 204.0
1282.098999 168.0
1283.460571 144.0
1283.567505 96.0
1284.266357 208.0
1285.372192 144.0
1285.84314 164.0
1286.628296 196.0
1286.828247 148.0
1286.892456 136.0
1287.378052 216.0
1288.778076 196.0
1288.970947 232.0
1290.436157 132.0
1291.716309 188.0
1292.624878 124.0
1292.889648 180.0
1293.963379 60.0
1294.27124 184.0
1294.679443 180.0
1294.994507 164.0
1296.53479 240.0
1297.074585 208.0
1297.53833 188.0
1298.025879 132.0
1298.821899 52.0
1299.302612 156.0
1299.352783 96.0
1299.481934 88.0
1299.80481 68.0
1300.02002 120.0
1300.235352 184.0
1300.357422 172.0
1300.536743 176.0
1300.699219 184.0
1301.261841 112.0
1301.520264 180.0
1301.750122 156.0
1302.051636 172.0
1303.445312 124.0
1304.509033 132.0
1304.631226 292.0
1305.680908 176.0
1306.241943 120.0
1307.709839 180.0
1308.184204 124.0
1308.292847 168.0
1308.429688 216.0
1308.811157 108.0
1309.005615 172.0
1311.051514 152.0
1311.534058 120.0
1312.089722 176.0
1312.413818 152.0
1312.529175 68.0
1315.840942 244.0
1315.905884 156.0
1316.54126 164.0
1316.62793 104.0
1317.299683 132.0
1317.776489 112.0
1318.448486 108.0
1319.966553 140.0
1320.284668 96.0
1321.181641 124.0
1321.593994 320.0
1321.948608 180.0
1322.136719 112.0
1322.223511 196.0
1322.295898 140.0
1322.556519 164.0
1322.730225 196.0
1322.882202 148.0
1323.270142 152.0
1323.338257 168.0
1324.163818 64.0
1324.337646 176.0
1325.621826 200.0
1326.670898 148.0
1327.722168 184.0
1328.04126 60.0
1328.309692 180.0
1328.476562 140.0
1330.036621 112.0
1330.232666 148.0
1330.327026 136.0
1330.87146 148.0
1331.292603 84.0
1331.446167 208.0
1331.568604 136.0
1331.750244 28.0
1332.018921 148.0
1333.617798 104.0
1333.937256 52.0
1334.068115 124.0
1334.307983 212.0
1334.373413 180.0
1334.504272 220.0
1334.751587 68.0
1335.093262 116.0
1335.289673 176.0
1335.340576 148.0
1335.624268 132.0
1336.6427 184.0
1336.74292 228.0
1337.232178 148.0
1337.414185 228.0
1337.734497 144.0
1338.640259 224.0
1339.307251 100.0
1339.43103 160.0
1339.496582 72.0
1339.576782 188.0
1342.506714 180.0
1342.645264 128.0
1342.922363 216.0
1343.104736 208.0
1344.695312 144.0
1345.527466 160.0
1346.666626 196.0
1347.082886 148.0
1348.039673 148.0
1348.368896 216.0
1348.712402 52.0
1348.960938 172.0
1350.187256 172.0
1350.379395 68.0
1350.584229 132.0
1350.884155 192.0
1351.966919 112.0
1352.310913 204.0
1352.962402 196.0
1353.987549 160.0
1354.214478 104.0
1354.378906 188.0
1354.470947 72.0
1355.291382 128.0
1355.3573 128.0
1355.459961 140.0
1355.848267 136.0
1356.442017 144.0
1357.248413 96.0
1357.39502 168.0
1357.673706 124.0
1358.018433 124.0
1358.906006 192.0
1359.038086 136.0
1359.287598 52.0
1359.617798 196.0
1359.757202 140.0
1360.232178 96.0
1360.483887 164.0
1360.674805 224.0
1360.931763 144.0
1361.10791 164.0
1362.518066 172.0
1362.753174 200.0
1362.958984 104.0
1363.0177 176.0
1363.157349 72.0
1363.216187 156.0
1363.274902 72.0
1366.775146 112.0
1367.091553 184.0
1367.157715 216.0
1367.591919 108.0
1367.871704 176.0
1368.993408 176.0
1369.285278 164.0
1370.161865 164.0
1370.509155 216.0
1370.574463 164.0
1371.466187 164.0
1371.864258 112.0
1372.763672 200.0
1373.729858 176.0
1374.032349 124.0
1374.187256 152.0
1374.482422 160.0
1374.829224 84.0
1375.331055 156.0
1376.106201 164.0
1376.453247 112.0
1376.54187 156.0
1376.719116 48.0
1376.881592 128.0
1377.228638 76.0
1378.144653 132.0
1378.765381 160.0
1378.814575 68.0
1379.304932 152.0
1379.609253 192.0
1379.859375 116.0
1380.169922 44.0
1381.756104 200.0
1381.841431 140.0
1382.2854 172.0
1382.99585 200.0
1383.336304 184.0
1383.425171 164.0
1384.483887 224.0
1384.543213 156.0
1384.935669 260.0
1385.254272 176.0
1385.880615 136.0
1387.240112 128.0
1388.129883 40.0
1388.797363 168.0
1389.012451 180.0
1389.168701 120.0
1389.880371 180.0
1390.533447 124.0
1391.498413 88.0
1391.95874 260.0
1392.078735 204.0
1392.649414 108.0
1393.095093 152.0
1393.407104 148.0
1394.068359 120.0
1394.655518 180.0
1394.744751 184.0
1395.369141 140.0
1396.298584 176.0
1396.536621 220.0
1397.39209 220.0
1398.180786 56.0
1398.404053 228.0
1399.200562 160.0
1399.275024 192.0
1399.371826 44.0
1399.803711 172.0
1399.930298 180.0
1400.496338 92.0
1400.675049 200.0
1401.256104 136.0
1401.911743 112.0
1402.098145 140.0
1402.366455 144.0
1402.709229 156.0
1402.917969 188.0
1403.46228 40.0
1403.872314 212.0
1404.347534 164.0
1405.595459 116.0
1406.714966 172.0
1407.124634 228.0
1407.230103 152.0
1407.334595 200.0
1410.838501 108.0
1411.481567 60.0
1411.661011 160.0
1412.715576 208.0
1412.945923 140.0
1413.104614 240.0
1413.613403 124.0
1414.683594 68.0
1414.900757 168.0
1415.46228 52.0
1415.649536 180.0
1417.851929 40.0
1418.309082 136.0
1418.788818 208.0
1418.976318 28.0
1419.463745 204.0
1420.101074 60.0
1420.303589 168.0
1420.461182 152.0
1420.573608 152.0
1420.903687 208.0
1421.376465 172.0
1421.54895 132.0
1421.781616 104.0
1422.119385 132.0
1422.231934 208.0
1422.517212 56.0
1423.005127 192.0
1423.76355 204.0
1423.928711 92.0
1425.333496 128.0
1425.761841 92.0
1425.927246 152.0
1426.47583 224.0
1426.964478 168.0
1427.220215 56.0
1427.333008 152.0
1427.957153 180.0
1428.130127 92.0
1428.604004 212.0
1428.731812 140.0
1429.040283 220.0
1429.115601 192.0
1429.326294 180.0
1429.454224 224.0
1429.87561 72.0
1430.552979 156.0
1431.13269 160.0
1431.667358 148.0
1431.833008 288.0
1432.024902 168.0
1432.541016 144.0
1433.143677 184.0
1433.241699 52.0
1433.618408 72.0
1434.666138 116.0
1435.208862 160.0
1435.269287 176.0
1435.729248 152.0
1436.498535 36.0
1436.709717 132.0
1437.418945 168.0
1439.532593 164.0
1439.623169 136.0
1440.114014 176.0
1440.204712 144.0
1440.574829 144.0
1440.884521 76.0
1441.806396 144.0
1442.547119 72.0
1442.612305 172.0
1442.736938 148.0
1443.257812 104.0
1443.348511 56.0
1443.530029 216.0
1443.60144 228.0
1444.097168 164.0
1444.535889 188.0
1444.687134 136.0
1444.770386 144.0
1445.428589 160.0
1446.586548 176.0
1446.836426 372.0
1447.161865 120.0
1447.298218 68.0
1447.587524 296.0
1447.805542 192.0
1448.093384 176.0
1448.502319 120.0
1448.782593 160.0
1449.237183 200.0
1449.926758 200.0
1450.373901 164.0
1450.449707 216.0
1450.677124 124.0
1451.025879 84.0
1451.511108 156.0
1451.594482 124.0
1451.768921 220.0
1452.2771 156.0
1453.392212 164.0
1453.543945 148.0
1453.710938 120.0
1454.264893 88.0
1454.598877 124.0
1454.834229 228.0
1455.525146 144.0
1456.088623 144.0
1456.276978 52.0
1457.335938 164.0
1458.009155 196.0
1458.161133 40.0
1458.275146 184.0
1458.373901 128.0
1458.503174 140.0
1460.008545 180.0
1460.168213 112.0
1460.571289 164.0
1460.6521 180.0
1460.731079 152.0
1461.11145 52.0
1461.172241 144.0
1461.298218 300.0
1461.484253 136.0
1461.879883 196.0
1461.97876 72.0
1462.48877 152.0
1462.595337 136.0
1462.777954 204.0
1463.371826 132.0
1463.554443 240.0
1463.874268 128.0
1464.262695 68.0
1464.407349 64.0
1465.260498 56.0
1465.763428 124.0
1466.113892 144.0
1466.197754 196.0
1466.322998 144.0
1467.432617 128.0
1467.585083 100.0
1467.935913 140.0
1468.378174 180.0
1468.469727 124.0
1468.698486 248.0
1468.828125 132.0
1469.316406 140.0
1469.490356 144.0
1469.743652 188.0
1470.132812 136.0
1470.254883 188.0
1470.338867 128.0
1470.453369 220.0
1471.167725 40.0
1471.300659 48.0
1471.865601 184.0
1471.926636 36.0
1472.66333 184.0
1472.857178 216.0
1473.247925 76.0
1473.729248 128.0
1473.920288 176.0
1474.06543 164.0
1474.241211 120.0
1474.638672 136.0
1476.014648 164.0
1476.297607 188.0
1476.679932 236.0
1477.299561 172.0
1477.858032 220.0
1478.041626 88.0
1478.63855 168.0
1479.204956 112.0
1479.549438 384.0
1479.978149 132.0
1480.177246 108.0
1480.230835 88.0
1480.353394 180.0
1480.812866 176.0
1481.126831 36.0
1481.44043 132.0
1481.525146 116.0
1481.632446 136.0
1481.755005 76.0
1481.823975 216.0
1482.046143 196.0
1482.51355 124.0
1482.574951 124.0
1482.65918 60.0
1482.736328 180.0
1482.797119 52.0
1483.004028 164.0
1483.264648 240.0
1483.88562 124.0
1484.153931 188.0
1484.322632 440.0
1484.713745 116.0
1485.511475 160.0
1485.649536 88.0
1486.324707 144.0
1486.416748 228.0
1486.5625 168.0
1486.800415 216.0
1487.460449 180.0
1488.036255 144.0
1488.312622 220.0
1488.596802 108.0
1489.518311 148.0
1489.641235 136.0
1490.294312 148.0
1490.378784 176.0
1490.501465 132.0
1490.609253 144.0
1491.031982 152.0
1491.439331 116.0
1491.785156 48.0
1492.03125 420.0
1492.422241 188.0
1492.923096 200.0
1493.074829 156.0
1494.115356 168.0
1494.36145 148.0
1494.5 200.0
1494.599976 192.0
1494.854004 136.0
1495.225708 172.0
1495.685181 140.0
1495.993042 168.0
1496.139282 128.0
1496.200928 164.0
1496.408813 212.0
1496.501099 164.0
1497.040161 104.0
1497.471191 132.0
1497.556152 168.0
1497.802612 196.0
1498.056763 60.0
1498.203125 256.0
1498.318726 36.0
1498.403442 104.0
1498.61145 68.0
1499.200806 280.0
1499.515503 180.0
1499.567017 368.0
1499.890747 152.0
1500.037231 124.0
1500.091187 164.0
1500.607666 132.0
1500.838989 200.0
1501.810669 184.0
1502.149048 252.0
1502.435425 116.0
1502.535767 192.0
1502.643799 128.0
1502.697754 168.0
1502.759521 184.0
1502.875244 204.0
1502.998657 136.0
1503.708618 228.0
1504.218018 152.0
1504.480469 120.0
1504.549927 128.0
1504.673462 224.0
1505.082764 116.0
