>compound MLS002473243-01!3-(3,4-dihydroxyphenyl)-8-hydroxyisochromen-1-one
>formula C15H10O5
>ionization [M+H]+
>parentmass 271.059357
#inchi InChI=1S/C15H10O5/c16-10-5-4-8(6-12(10)18)13-7-9-2-1-3-11(17)14(9)15(19)20-13/h1-7,16-18H
#inchikey WHZXJVJVGGWZQI
#Ion_Source LC-ESI
#Instrument qTof
#Compound_Source NIH Natural Product Library
#PI Dorrestein
#Data_Collector VVP/LMS
#Scan -1
#Precursor_MZ 271.061
#ExactMass 270.053
#Charge 1
#CAS_Number N/A
#Pubmed_ID N/A
#Smiles Oc1ccc(cc1O)c2cc3cccc(O)c3c(=O)o2
#INCHI_AUX N/A
#Library_Class 1
#SpectrumID CCMSLIB00000079533
#IonMode Positive
#UpdateWorkflowName UPDATE-SINGLE-ANNOTATED-GOLD
#LibraryQualityString Gold
#TaskID b1d8e8f6646f4e71acdff9ca3d919d08
##Scan# 2032
#SpectrumFile p1-G07_GG7_01_17951.mzXML
#LibraryName NIH_Natural_Products_Library.mgf
#MQScore -1
#Organism NIH_Natural_Products_Library
#TIC_Query 0
#RT_Query -1
#MZErrorPPM -1
#SharedPeaks 0
#MassDiff 0
#LibMZ -1
#SpecMZ 271.061
#SpecCharge 0
#internalFilename spec-00000.mgf

>collision 10
95.206848 140.0
96.236946 72.0
96.580894 192.0
96.766808 172.0
97.474884 144.0
98.457901 152.0
100.213448 172.0
100.364929 164.0
100.718163 108.0
100.836044 148.0
102.249992 68.0
102.272133 160.0
102.531944 136.0
103.048523 52.0
103.659592 148.0
103.74675 136.0
104.380219 52.0
104.632515 216.0
104.999298 272.0
105.033203 524.0
105.219673 104.0
105.812569 40.0
106.036865 360.0
106.423553 164.0
106.803741 120.0
107.050713 192.0
107.562019 52.0
108.4328 260.0
110.036613 188.0
111.75737 172.0
112.376823 40.0
112.556236 188.0
112.704094 168.0
112.862617 192.0
112.921837 200.0
114.109337 48.0
114.498741 188.0
114.754448 76.0
115.053703 1612.0
116.055031 576.0
116.421356 80.0
116.65126 84.0
116.930878 124.0
117.935959 152.0
118.018112 196.0
118.082985 128.0
118.247414 76.0
119.219002 64.0
119.242912 148.0
119.95031 56.0
120.24913 104.0
120.554878 124.0
120.970444 160.0
121.093063 144.0
121.266151 60.0
121.70929 196.0
122.736862 72.0
123.107582 92.0
124.249718 184.0
125.038383 232.0
125.296844 160.0
125.660255 184.0
126.044296 140.0
126.693138 156.0
127.051598 628.0
127.33017 60.0
128.062286 216.0
128.651917 220.0
128.970413 172.0
129.064575 136.0
129.273468 116.0
130.796371 168.0
131.014984 148.0
131.046875 104.0
131.987274 104.0
132.332779 56.0
132.646637 156.0
133.032013 364.0
133.917297 148.0
134.032486 164.0
134.288376 172.0
135.281967 136.0
135.4487 184.0
135.898438 220.0
136.979477 128.0
137.583466 228.0
137.751602 188.0
137.805344 88.0
138.476715 180.0
138.912689 184.0
139.049896 316.0
139.836121 108.0
140.054199 256.0
140.203522 180.0
140.923233 200.0
141.036667 96.0
141.069519 1880.0
141.70874 192.0
142.073105 144.0
142.123672 208.0
142.142654 112.0
142.175873 200.0
142.665176 124.0
143.426926 56.0
144.377533 132.0
144.8918 44.0
145.061951 196.0
145.524963 52.0
145.724319 160.0
146.930527 72.0
148.202271 220.0
148.51741 172.0
149.029648 324.0
150.005554 216.0
150.04657 1132.0
151.016449 124.0
151.053665 2792.0
151.075668 180.0
151.15834 92.0
151.470612 44.0
152.060822 632.0
152.23941 156.0
152.588318 56.0
152.981949 52.0
153.043488 112.0
153.068115 316.0
154.037384 184.0
155.056259 604.0
155.637268 116.0
156.051025 368.0
156.639526 116.0
157.060791 108.0
157.784973 160.0
158.040085 136.0
159.08519 236.0
159.137909 120.0
159.602737 148.0
160.534439 180.0
161.019363 360.0
161.059555 124.0
161.130127 204.0
161.582672 120.0
162.005463 176.0
163.038147 196.0
163.814178 156.0
164.809174 32.0
165.486984 136.0
165.940475 48.0
167.047348 312.0
168.05513 660.0
168.816681 248.0
169.064072 1756.0
169.720398 196.0
169.953842 148.0
170.065704 152.0
170.444595 64.0
171.003708 152.0
171.044861 876.0
171.072998 204.0
171.376099 56.0
171.668045 152.0
171.733246 80.0
172.047256 288.0
172.247452 196.0
172.880173 28.0
172.93251 188.0
172.966537 76.0
173.055557 196.0
173.159958 156.0
173.207443 120.0
173.67926 108.0
173.81044 168.0
174.075562 168.0
174.495972 156.0
175.06958 172.0
176.143051 152.0
177.227737 132.0
179.055557 824.0
180.056931 312.0
180.434921 184.0
181.058334 388.0
181.395996 128.0
182.072128 164.0
182.725327 64.0
183.042923 156.0
183.479416 136.0
183.592667 188.0
185.016632 68.0
185.062653 128.0
185.639816 192.0
186.133682 176.0
187.07106 140.0
187.082169 108.0
187.086746 232.0
187.224152 220.0
187.921982 268.0
188.047501 84.0
188.072067 140.0
188.656631 184.0
189.428345 136.0
190.514664 116.0
192.475662 136.0
193.844925 184.0
195.269089 76.0
195.583496 240.0
195.672577 76.0
196.047852 336.0
196.628693 164.0
196.85202 144.0
196.927429 148.0
197.002853 132.0
197.058487 12872.0
197.142548 60.0
197.29068 52.0
197.335419 68.0
197.374557 44.0
197.46254 96.0
197.489227 56.0
197.510406 84.0
197.60112 64.0
197.763428 88.0
197.78862 68.0
197.825012 84.0
197.962204 56.0
198.029419 128.0
198.061783 1224.0
198.578751 116.0
198.643265 160.0
198.685349 84.0
198.727432 64.0
198.825653 28.0
199.067856 368.0
199.165375 104.0
199.31427 64.0
199.51944 96.0
199.547562 124.0
199.718353 112.0
200.082108 152.0
200.494202 80.0
201.048019 164.0
202.074646 48.0
202.782593 28.0
203.22496 148.0
207.041962 376.0
207.414368 36.0
208.04747 168.0
209.061295 160.0
212.353607 172.0
213.049591 260.0
214.064377 164.0
214.866913 212.0
215.065338 200.0
215.310593 104.0
216.049667 132.0
216.410095 236.0
221.090515 260.0
224.056854 120.0
224.465195 108.0
225.05423 1660.0
225.495132 52.0
226.053574 348.0
226.302826 120.0
227.057953 148.0
228.033707 96.0
228.358429 132.0
229.050156 108.0
235.040421 364.0
241.057129 236.0
242.054825 240.0
243.057846 168.0
243.336853 140.0
244.067017 164.0
244.96022 44.0
248.339188 176.0
252.039108 248.0
252.385925 200.0
252.711716 136.0
253.048401 9292.0
253.086182 212.0
253.177032 64.0
253.303726 76.0
253.807632 56.0
253.988403 164.0
254.050674 1996.0
254.258102 44.0
254.305695 68.0
254.616837 60.0
255.050629 192.0
255.268311 28.0
255.311996 76.0
255.446426 64.0
255.494141 108.0
255.697784 124.0
255.82193 44.0
256.685364 44.0
257.023468 124.0
265.013885 104.0
265.814789 60.0
271.059357 684.0
271.189392 236.0
272.063019 396.0
273.630127 92.0
274.671509 116.0
302.71814 56.0
314.927795 84.0
345.502899 52.0
365.04245 96.0
372.987244 124.0
375.694366 68.0
382.148926 84.0
382.366821 120.0
401.734711 20.0
512.703796 88.0
526.504639 64.0
592.576111 76.0
597.080811 132.0
721.755249 56.0
910.451843 68.0
959.857117 120.0
974.980469 128.0
1011.757507 84.0
1019.514893 108.0
1041.024536 80.0
1070.83252 124.0
1075.174683 36.0
1091.144287 160.0
1091.387573 124.0
1138.812622 200.0
1186.108154 168.0
1198.836792 136.0
1226.671997 20.0
1256.187622 208.0
1272.592407 220.0
1272.642212 80.0
1279.246826 176.0
1282.380981 192.0
1294.934326 140.0
1302.896484 184.0
1342.876587 160.0
1345.715332 108.0
1346.496704 124.0
1353.787964 128.0
1353.971069 160.0
1360.261963 92.0
1364.11853 228.0
1376.355835 172.0
1381.130005 140.0
1381.411133 196.0
1393.227783 164.0
1411.667725 148.0
1413.97937 108.0
1446.480591 124.0
1448.123657 180.0
1466.297241 292.0
1479.182617 184.0
1485.028931 64.0
1486.647705 156.0
1490.687012 152.0
1490.917603 132.0
1494.078735 176.0
1496.41748 28.0
1496.586792 172.0
1503.670288 172.0
