>compound MLS001146904-01!52-86-8
>formula C21H23ClFNO2
>ionization [M+H]+
>parentmass 376.146698
#inchi InChI=1S/C21H23ClFNO2/c22-18-7-5-17(6-8-18)21(26)11-14-24(15-12-21)13-1-2-20(25)16-3-9-19(23)10-4-16/h3-10,26H,1-2,11-15H2
#inchikey LNEPOXFFQSENCJ
#Ion_Source LC-ESI
#Instrument qTof
#Compound_Source NIH Pharmacologically Active Library
#PI Dorrestein
#Data_Collector VP/LMS
#Scan -1
#Precursor_MZ 376.152
#ExactMass 375.14
#Charge 1
#CAS_Number N/A
#Pubmed_ID N/A
#Smiles OC1(CCN(CCCC(=O)c2ccc(F)cc2)CC1)c3ccc(Cl)cc3
#INCHI_AUX N/A
#Library_Class 1
#SpectrumID CCMSLIB00000084896
#IonMode Positive
#UpdateWorkflowName UPDATE-SINGLE-ANNOTATED-GOLD
#LibraryQualityString Gold
#TaskID d252d724072548979f1f6f1ced849daf
##Scan# 1718
#SpectrumFile p3-C04_GC4_01_18249.mzXML
#LibraryName Pharm_Active_Library.mgf
#MQScore -1
#Organism Pharm_Active_Library
#TIC_Query 0
#RT_Query -1
#MZErrorPPM -1
#SharedPeaks 0
#MassDiff 0
#LibMZ -1
#SpecMZ 376.152
#SpecCharge 0
#internalFilename spec-00000.mgf

>collision 10
44.896973 144.0
44.912048 208.0
44.93766 228.0
44.947865 204.0
45.021835 188.0
45.096313 152.0
45.121712 96.0
45.156483 108.0
45.168518 88.0
45.185913 244.0
45.212078 164.0
45.223011 188.0
45.239445 188.0
45.264885 192.0
45.282379 160.0
45.305065 200.0
45.323826 196.0
45.346607 32.0
45.360596 156.0
45.364326 200.0
45.417 64.0
45.444504 104.0
45.460957 244.0
45.466488 188.0
45.471886 316.0
45.482079 84.0
45.52306 268.0
45.555939 140.0
45.56937 108.0
45.580635 168.0
45.627487 184.0
45.645988 180.0
45.673996 180.0
45.692947 156.0
45.706524 108.0
45.719978 192.0
45.744209 172.0
45.78191 100.0
45.799419 176.0
45.832439 180.0
45.837597 272.0
45.876228 180.0
45.900417 136.0
45.923042 212.0
45.942776 176.0
45.963898 136.0
45.994938 92.0
46.004391 164.0
46.021454 144.0
46.031097 164.0
46.051651 104.0
46.094967 132.0
46.116508 116.0
46.155712 224.0
46.168282 204.0
46.187099 192.0
46.205757 168.0
46.226055 140.0
46.254112 192.0
46.26992 128.0
46.295097 192.0
46.314762 156.0
46.330063 236.0
46.352108 140.0
46.364189 156.0
46.380455 128.0
46.394009 156.0
46.430592 204.0
46.455669 180.0
46.472675 252.0
46.505245 148.0
46.529617 176.0
46.564987 212.0
46.573933 164.0
46.597588 180.0
46.616611 124.0
46.625572 108.0
46.651337 168.0
46.782551 104.0
46.798889 168.0
46.809784 148.0
46.826126 160.0
46.837021 120.0
46.880623 128.0
46.902428 236.0
46.93924 132.0
46.978794 144.0
46.990383 160.0
47.001591 116.0
47.01099 148.0
47.038399 136.0
47.06205 164.0
47.078434 148.0
47.089363 164.0
47.098923 80.0
47.117367 180.0
47.13308 52.0
47.153576 80.0
47.17955 156.0
47.207676 160.0
47.236988 144.0
47.252033 132.0
47.304264 172.0
47.330055 212.0
47.340176 212.0
47.358322 200.0
47.41362 124.0
47.442402 164.0
47.48703 184.0
47.504517 192.0
47.528992 152.0
47.540604 196.0
47.551125 332.0
47.561749 120.0
47.588734 336.0
47.604698 200.0
47.624912 132.0
47.65239 72.0
47.662006 132.0
47.716988 36.0
47.734863 148.0
47.752495 156.0
47.798141 200.0
47.827499 192.0
47.865593 152.0
47.903187 148.0
47.934467 152.0
47.967545 136.0
47.98608 176.0
48.015804 60.0
48.025459 152.0
48.043392 112.0
48.061329 364.0
48.081417 196.0
48.105495 228.0
48.11792 108.0
48.132061 132.0
48.1483 156.0
48.163616 136.0
48.182461 340.0
48.231201 136.0
48.25885 148.0
48.270977 156.0
48.307259 104.0
48.318188 160.0
48.340462 148.0
48.366356 164.0
48.393063 124.0
48.405525 204.0
48.431839 140.0
48.470634 236.0
48.485878 140.0
48.498352 168.0
48.509441 176.0
48.548264 120.0
48.562134 92.0
48.579819 144.0
48.598202 132.0
48.621487 200.0
48.636272 148.0
48.644936 196.0
48.659271 212.0
48.669277 196.0
48.708084 168.0
48.734356 136.0
48.768658 184.0
48.789871 360.0
48.819069 144.0
48.843506 148.0
48.853149 168.0
48.887238 200.0
48.906723 172.0
48.940136 132.0
48.966595 176.0
48.991669 180.0
49.02232 108.0
49.040688 180.0
49.074284 144.0
49.088821 148.0
49.128193 172.0
49.163963 276.0
49.208527 204.0
49.244148 72.0
49.255325 212.0
49.279072 204.0
49.290253 164.0
49.305626 204.0
49.316807 108.0
49.350285 156.0
49.354439 148.0
49.371334 208.0
49.387196 176.0
49.425606 196.0
49.45528 172.0
49.46788 160.0
49.503387 376.0
49.578953 160.0
49.602242 96.0
49.619682 168.0
49.655266 176.0
49.664059 164.0
49.698765 276.0
49.730003 144.0
49.75808 128.0
49.76791 156.0
49.812851 124.0
49.884285 196.0
49.918945 188.0
49.947487 216.0
49.968903 164.0
50.001266 156.0
50.019566 64.0
50.054764 148.0
50.074478 100.0
50.0942 140.0
50.115334 164.0
50.125198 160.0
50.135063 156.0
50.151974 184.0
50.1703 164.0
50.180168 176.0
50.230938 168.0
50.250439 180.0
50.283146 144.0
50.293026 96.0
50.332794 156.0
50.344658 148.0
50.355152 124.0
50.394405 244.0
50.41449 96.0
50.443676 136.0
50.469173 176.0
50.516293 216.0
50.548443 172.0
50.564404 104.0
50.598335 132.0
50.618198 88.0
50.640381 168.0
50.652191 188.0
50.702896 152.0
50.718792 164.0
50.734386 160.0
50.748562 164.0
50.790241 144.0
50.805294 180.0
50.817188 188.0
50.836823 200.0
50.881931 52.0
50.891872 168.0
50.90181 148.0
50.928795 172.0
50.953625 176.0
51.004105 212.0
51.020233 204.0
51.106503 188.0
51.119308 188.0
51.149197 132.0
51.168556 180.0
51.196514 172.0
51.213272 132.0
51.256012 148.0
51.288792 180.0
51.303047 100.0
51.314453 124.0
51.344398 88.0
51.374355 156.0
51.385769 132.0
51.430008 148.0
51.442432 204.0
51.471409 100.0
51.489975 156.0
51.504257 220.0
51.519867 188.0
51.525368 108.0
51.549976 200.0
51.56427 88.0
51.591427 124.0
51.615734 112.0
51.656036 200.0
51.694412 48.0
51.707291 176.0
51.745941 152.0
51.757397 200.0
51.767422 164.0
51.777447 172.0
51.787472 128.0
51.812202 200.0
51.916462 140.0
51.935108 184.0
51.945148 80.0
51.974911 172.0
51.984211 176.0
51.996429 184.0
52.062263 148.0
52.075771 220.0
52.085827 168.0
52.107376 120.0
52.132324 184.0
52.146713 160.0
52.16243 168.0
52.172672 236.0
52.196491 148.0
52.207996 184.0
52.220547 180.0
52.262657 120.0
52.27705 200.0
52.291958 156.0
52.317352 128.0
52.359463 424.0
52.387917 164.0
52.398003 100.0
52.412411 104.0
52.464298 64.0
52.514767 216.0
52.552277 136.0
52.593304 168.0
52.644661 156.0
52.698807 140.0
52.715324 188.0
52.74192 120.0
52.763058 368.0
52.787727 124.0
52.807976 144.0
52.836853 180.0
52.865189 184.0
52.880318 180.0
52.931873 196.0
52.974827 196.0
53.007763 168.0
53.045444 192.0
53.067612 152.0
53.087494 148.0
53.110699 184.0
53.138264 144.0
53.152771 148.0
53.165833 356.0
53.187603 52.0
53.232613 224.0
53.295074 60.0
53.325592 264.0
53.34013 132.0
53.357574 136.0
53.370937 188.0
53.409206 164.0
53.471889 184.0
53.510006 192.0
53.541431 216.0
53.555485 188.0
53.602325 172.0
53.638542 152.0
53.661869 220.0
53.67905 320.0
53.708241 220.0
53.720932 352.0
53.747925 224.0
53.772736 268.0
53.787331 156.0
53.820908 192.0
53.851578 336.0
53.877106 168.0
53.89431 160.0
53.920246 136.0
53.931385 176.0
54.015289 148.0
54.030571 144.0
54.041271 140.0
54.060646 120.0
54.082958 180.0
54.103092 168.0
54.132378 152.0
54.154346 176.0
54.273411 232.0
54.291809 244.0
54.317642 168.0
54.352123 128.0
54.412437 116.0
54.433826 120.0
54.457962 304.0
54.487343 188.0
54.510853 164.0
54.526234 292.0
54.54213 184.0
54.551445 136.0
54.568523 204.0
54.590233 128.0
54.613693 164.0
54.629948 80.0
54.648582 180.0
54.653831 120.0
54.69175 128.0
54.70647 168.0
54.755062 188.0
54.771671 136.0
54.78767 176.0
54.815464 64.0
54.831676 176.0
54.846413 160.0
54.872272 192.0
54.889168 72.0
54.912708 412.0
54.935436 152.0
54.956165 236.0
54.992439 184.0
55.010311 188.0
55.01516 164.0
55.019939 140.0
55.047909 140.0
55.07365 144.0
55.091377 172.0
55.107151 124.0
55.123882 140.0
55.14753 152.0
55.163925 192.0
55.190399 184.0
55.213745 208.0
55.235744 116.0
55.276196 188.0
55.286198 100.0
55.326519 448.0
55.344284 128.0
55.38279 144.0
55.432037 232.0
55.456875 36.0
55.473412 180.0
55.502834 40.0
55.528385 156.0
55.560947 200.0
55.565674 164.0
55.605194 100.0
55.621521 172.0
55.639336 240.0
55.721024 236.0
55.78344 212.0
55.842918 180.0
55.863743 164.0
55.886803 108.0
55.923237 204.0
55.954525 204.0
55.978352 184.0
56.000721 196.0
56.037933 48.0
56.055813 132.0
56.0886 152.0
56.100811 168.0
56.14526 180.0
56.169125 176.0
56.183193 176.0
56.226849 440.0
56.263142 516.0
56.281612 172.0
56.300468 124.0
56.321083 100.0
56.32473 132.0
56.366199 128.0
56.376659 160.0
56.392372 292.0
56.414028 116.0
56.436848 168.0
56.462563 188.0
56.477222 184.0
56.527702 192.0
56.54084 176.0
56.561108 272.0
56.592068 160.0
56.617523 148.0
56.643559 220.0
56.661362 196.0
56.672951 180.0
56.716412 192.0
56.7314 140.0
56.743393 284.0
56.776646 160.0
56.800381 172.0
56.839287 172.0
56.864902 112.0
56.884415 60.0
56.901821 256.0
56.918949 132.0
56.93042 144.0
56.941475 204.0
56.957996 100.0
56.979027 132.0
57.00391 176.0
57.025612 192.0
57.042149 196.0
57.058685 188.0
57.076725 200.0
57.089836 156.0
57.138393 160.0
57.157955 208.0
57.174999 160.0
57.194077 208.0
57.215813 228.0
57.230206 72.0
57.26635 108.0
57.285294 140.0
57.308372 192.0
57.337162 144.0
57.348366 148.0
57.372894 176.0
57.403378 312.0
57.472885 208.0
57.485603 184.0
57.494011 144.0
57.516571 156.0
57.604233 140.0
57.619339 176.0
57.647152 148.0
57.676899 228.0
57.69944 236.0
57.710655 260.0
57.765102 144.0
57.78022 224.0
57.794514 196.0
57.818943 144.0
57.837105 100.0
57.858299 148.0
57.905239 116.0
57.930992 136.0
57.944897 156.0
57.97493 128.0
58.007427 164.0
58.03717 136.0
58.109886 136.0
58.153896 184.0
58.193539 276.0
58.220699 144.0
58.237404 212.0
58.252594 92.0
58.26627 136.0
58.279942 92.0
58.313419 136.0
58.380127 128.0
58.405083 140.0
58.468506 148.0
58.482166 148.0
58.520264 196.0
58.558334 220.0
58.594604 168.0
58.675671 44.0
58.722942 116.0
58.753452 64.0
58.764133 380.0
58.779392 136.0
58.841736 208.0
58.855644 184.0
58.873627 148.0
58.898239 156.0
58.926548 192.0
58.945839 168.0
58.988632 172.0
59.014622 200.0
59.046471 184.0
59.076736 484.0
59.087402 96.0
59.09306 256.0
59.132416 188.0
59.148422 288.0
59.173748 104.0
59.218204 244.0
59.235165 228.0
59.272526 188.0
59.288631 160.0
59.313034 152.0
59.365284 148.0
59.399326 100.0
59.410904 124.0
59.453663 164.0
59.480354 112.0
59.494171 332.0
59.507988 164.0
59.51931 204.0
59.552254 332.0
59.563854 96.0
59.581711 144.0
59.630882 80.0
59.647793 116.0
59.677002 168.0
59.711235 200.0
59.72929 208.0
59.766212 180.0
59.794205 148.0
59.810631 184.0
59.82338 168.0
59.881115 232.0
59.921726 108.0
59.947918 152.0
59.97691 168.0
59.991943 276.0
60.004951 208.0
60.03899 160.0
60.117554 148.0
60.169445 168.0
60.187019 168.0
60.200916 164.0
60.251892 128.0
60.271976 196.0
60.321434 136.0
60.339985 152.0
60.376163 176.0
60.389046 160.0
60.418861 156.0
60.502434 136.0
60.618649 124.0
60.629448 156.0
60.655262 220.0
60.661739 144.0
60.667061 196.0
60.690113 180.0
60.70541 180.0
60.724022 160.0
60.763557 148.0
60.79694 112.0
60.810909 164.0
60.827984 192.0
60.838848 136.0
60.904072 188.0
60.914944 116.0
60.931278 140.0
60.942909 184.0
60.981758 196.0
61.00663 152.0
61.040836 120.0
61.057941 160.0
61.12875 136.0
61.151226 188.0
61.189522 136.0
61.214005 300.0
61.233356 192.0
61.23954 136.0
61.31171 196.0
61.32262 168.0
61.335091 68.0
61.347561 140.0
61.367828 48.0
61.402012 184.0
61.422413 320.0
61.449936 156.0
61.464539 112.0
61.48671 116.0
61.539337 152.0
61.558197 192.0
61.578503 196.0
61.61599 128.0
61.640991 212.0
61.667561 132.0
61.753883 152.0
61.838394 196.0
61.859959 164.0
61.915955 236.0
61.955486 84.0
61.978989 108.0
62.013466 208.0
62.026005 196.0
62.086555 156.0
62.117252 232.0
62.153038 196.0
62.196983 112.0
62.24094 208.0
62.261356 152.0
62.288387 172.0
62.300529 196.0
62.347183 76.0
62.380772 140.0
62.49086 212.0
62.509743 32.0
62.539646 164.0
62.564098 60.0
62.582779 152.0
62.605442 228.0
62.627384 352.0
62.651451 92.0
62.684082 456.0
62.70311 224.0
62.728668 148.0
62.763355 152.0
62.777546 48.0
62.793316 84.0
62.807514 172.0
62.835182 148.0
62.928177 148.0
62.94482 168.0
62.955872 176.0
63.011158 228.0
63.026958 212.0
63.045921 228.0
63.064888 112.0
63.102829 120.0
63.128128 88.0
63.162418 188.0
63.180325 116.0
63.19915 160.0
63.251537 168.0
63.314869 88.0
63.358757 136.0
63.381657 176.0
63.40099 156.0
63.429993 304.0
63.460655 160.0
63.478783 296.0
63.525681 172.0
63.54353 192.0
63.569397 224.0
63.597843 244.0
63.625984 176.0
63.663769 104.0
63.694901 140.0
63.711422 80.0
63.736843 196.0
63.769695 196.0
63.805187 144.0
63.824268 132.0
63.905388 124.0
63.949947 128.0
63.970638 152.0
63.984966 368.0
64.040413 184.0
64.046494 232.0
64.057121 168.0
64.078392 232.0
64.098053 344.0
64.110466 164.0
64.121964 160.0
64.136307 200.0
64.156311 216.0
64.194687 156.0
64.228004 144.0
64.254433 212.0
64.305374 204.0
64.31974 92.0
64.377068 220.0
64.399582 104.0
64.422791 136.0
64.441849 148.0
64.448067 96.0
64.453133 200.0
64.49691 136.0
64.535774 160.0
64.565796 92.0
64.600243 180.0
64.626587 212.0
64.637787 120.0
64.650589 200.0
64.714622 172.0
64.727432 148.0
64.746643 124.0
64.758682 140.0
64.775475 48.0
64.798943 204.0
64.819389 164.0
64.869423 192.0
64.887161 220.0
64.906898 176.0
64.932327 56.0
64.959824 168.0
64.996727 176.0
65.02401 168.0
65.041664 164.0
65.072388 124.0
65.094887 172.0
65.14283 172.0
65.162109 172.0
65.174965 216.0
65.255325 92.0
65.296539 312.0
65.345398 108.0
65.372749 168.0
65.387238 152.0
65.419426 60.0
65.459854 148.0
65.511223 240.0
65.546547 160.0
65.568626 116.0
65.615974 220.0
65.632103 132.0
65.659515 156.0
65.670807 92.0
65.692078 172.0
65.711823 168.0
65.749863 180.0
65.761162 180.0
65.798447 120.0
65.830582 152.0
65.877419 200.0
65.900581 144.0
65.925896 156.0
65.937202 144.0
65.956604 144.0
65.967918 208.0
65.988792 180.0
66.026123 96.0
66.073036 224.0
66.133217 160.0
66.14856 120.0
66.168526 152.0
66.232071 184.0
66.259224 168.0
66.279953 196.0
66.362434 228.0
66.368645 156.0
66.37249 172.0
66.387276 160.0
66.403488 148.0
66.436768 148.0
66.451057 176.0
66.470009 28.0
66.486237 200.0
66.513824 140.0
66.557816 124.0
66.57621 160.0
66.612877 156.0
66.628151 200.0
66.643745 188.0
66.664871 132.0
66.681122 176.0
66.713638 148.0
66.733147 152.0
66.76313 152.0
66.778839 204.0
66.837837 88.0
66.849586 116.0
66.918625 116.0
66.931656 128.0
66.95282 132.0
66.9786 224.0
66.98291 144.0
67.047791 152.0
67.060356 156.0
67.078178 128.0
67.126717 260.0
67.129837 136.0
67.218391 164.0
67.247925 124.0
67.273956 204.0
67.304474 144.0
67.370583 240.0
67.386726 192.0
67.440659 188.0
67.485878 208.0
67.50605 136.0
67.545303 220.0
67.585289 164.0
67.597427 84.0
67.602074 144.0
67.689331 140.0
67.708984 132.0
67.776146 176.0
67.807793 192.0
67.822037 124.0
67.835152 204.0
67.85318 140.0
67.886429 160.0
67.907761 128.0
67.922058 180.0
67.94175 176.0
67.995018 188.0
68.012344 176.0
68.028725 168.0
68.054993 180.0
68.139091 176.0
68.194626 168.0
68.229149 176.0
68.242477 188.0
68.275192 72.0
68.304794 208.0
68.322891 128.0
68.359818 204.0
68.389458 236.0
68.423798 164.0
68.448341 220.0
68.461159 100.0
68.482567 144.0
68.50457 156.0
68.52375 168.0
68.535286 152.0
68.550117 220.0
68.574837 128.0
68.617691 180.0
68.658607 148.0
68.673759 148.0
68.723251 328.0
68.75621 152.0
68.789268 48.0
68.820084 156.0
68.834732 120.0
68.861816 124.0
68.893135 116.0
68.915581 124.0
68.932961 132.0
68.94783 112.0
69.008995 136.0
69.027184 72.0
69.043724 96.0
69.121475 144.0
69.134712 80.0
69.152916 164.0
69.189598 152.0
69.21154 136.0
69.260544 152.0
69.305275 148.0
69.331787 104.0
69.384827 200.0
69.405945 248.0
69.427559 172.0
69.458267 184.0
69.481628 208.0
69.507904 240.0
69.522316 176.0
69.620888 136.0
69.683807 200.0
69.696495 324.0
69.717148 216.0
69.730034 96.0
69.735542 132.0
69.746727 340.0
69.763344 192.0
69.794937 176.0
69.808243 100.0
69.828194 220.0
69.893074 48.0
69.919701 208.0
69.940491 188.0
69.955505 212.0
69.99295 204.0
70.051239 148.0
70.070534 204.0
70.150764 144.0
70.183807 148.0
70.22126 164.0
70.236275 204.0
70.251358 184.0
70.277977 128.0
70.300247 192.0
70.331383 192.0
70.358795 124.0
70.369781 156.0
70.383141 116.0
70.394829 100.0
70.424889 204.0
70.458298 136.0
70.48336 144.0
70.526115 100.0
70.566429 204.0
70.622116 368.0
70.64241 156.0
70.668961 136.0
70.716194 160.0
70.72921 116.0
70.74762 176.0
70.760612 184.0
70.825996 204.0
70.872292 156.0
70.900047 44.0
70.928543 176.0
70.981804 140.0
70.989357 184.0
71.000671 180.0
71.052635 172.0
71.087875 144.0
71.115372 176.0
71.128563 200.0
71.173256 292.0
71.209587 152.0
71.224861 296.0
71.253281 188.0
71.265869 120.0
71.291069 140.0
71.358307 156.0
71.412117 148.0
71.432396 76.0
71.450813 280.0
71.487267 168.0
71.503067 144.0
71.516441 116.0
71.556839 168.0
71.592659 208.0
71.617462 204.0
71.651154 444.0
71.669693 116.0
71.713509 36.0
71.740479 100.0
71.776512 128.0
71.797218 160.0
71.814674 160.0
71.834915 152.0
71.875023 184.0
71.893967 136.0
71.909157 108.0
71.94458 164.0
71.990196 172.0
72.030731 160.0
72.075356 140.0
72.100006 76.0
72.121979 148.0
72.156349 240.0
72.176071 216.0
72.190704 164.0
72.226814 164.0
72.302948 184.0
72.323257 172.0
72.333908 116.0
72.35849 128.0
72.391663 208.0
72.417915 168.0
72.424721 152.0
72.443489 140.0
72.465004 372.0
72.482216 56.0
72.50898 160.0
72.524826 76.0
72.53669 240.0
72.553642 136.0
72.573586 236.0
72.589859 240.0
72.638878 196.0
72.672363 236.0
72.69442 152.0
72.711395 128.0
72.747299 212.0
72.780243 136.0
72.791183 304.0
72.845535 128.0
72.910103 152.0
72.921997 148.0
72.935593 136.0
72.967896 104.0
72.9925 180.0
73.020752 188.0
73.03582 204.0
73.041519 164.0
73.056328 124.0
73.117867 140.0
73.170357 160.0
73.202705 192.0
73.231659 196.0
73.30529 128.0
73.327789 160.0
73.356049 124.0
73.370224 164.0
73.481636 200.0
73.531151 176.0
73.550514 224.0
73.564163 172.0
73.586357 188.0
73.637589 224.0
73.679359 204.0
73.689316 128.0
73.702507 128.0
73.805061 76.0
73.851013 136.0
73.900848 168.0
73.917259 172.0
73.931648 200.0
73.945343 168.0
73.978882 152.0
73.998413 360.0
74.045326 252.0
74.072052 180.0
74.08918 128.0
74.132019 112.0
74.156441 192.0
74.183434 184.0
74.209915 224.0
74.248756 168.0
74.262314 152.0
74.300049 160.0
74.317207 200.0
74.352356 124.0
74.36998 160.0
74.425346 204.0
74.437363 236.0
74.459686 192.0
74.479973 168.0
74.50457 188.0
74.540436 132.0
74.566208 164.0
74.601028 264.0
74.618484 136.0
74.641853 176.0
74.673988 180.0
74.684845 232.0
74.715813 128.0
74.783493 312.0
74.820793 236.0
74.841454 128.0
74.856949 172.0
74.876289 176.0
74.909523 132.0
74.934464 196.0
74.965477 152.0
74.987137 204.0
74.990379 116.0
74.998718 256.0
75.033936 188.0
75.058563 184.0
75.075813 140.0
75.107391 396.0
75.181046 152.0
75.22084 144.0
75.248924 124.0
75.270813 180.0
75.284622 128.0
75.307892 176.0
75.36927 240.0
75.394356 240.0
75.42363 148.0
75.459145 124.0
75.490463 144.0
75.51606 176.0
75.555389 204.0
75.584106 180.0
75.613106 192.0
75.632965 180.0
75.65522 120.0
75.66925 192.0
75.705772 220.0
75.740089 200.0
75.765533 140.0
75.801865 112.0
75.841293 128.0
75.859787 144.0
75.869942 160.0
75.897209 172.0
75.973518 144.0
75.989136 176.0
76.03772 156.0
76.061661 268.0
76.08622 196.0
76.092628 184.0
76.124527 172.0
76.161034 172.0
76.266022 212.0
76.29454 132.0
76.341003 164.0
76.401794 200.0
76.437424 120.0
76.450684 168.0
76.480934 48.0
76.515747 180.0
76.538383 204.0
76.553856 176.0
76.565247 320.0
76.583664 116.0
76.623734 120.0
76.639885 160.0
76.707382 120.0
76.732437 108.0
76.75135 200.0
76.775421 168.0
76.813751 104.0
76.887276 172.0
76.914963 168.0
76.929916 204.0
76.952438 176.0
76.979523 200.0
77.004013 124.0
77.049423 192.0
77.070396 168.0
77.091362 132.0
77.105347 68.0
77.206741 168.0
77.285408 128.0
77.31871 84.0
77.36422 112.0
77.376472 164.0
77.467545 120.0
77.485062 196.0
77.531143 280.0
77.577942 180.0
77.604858 160.0
77.620026 168.0
77.638634 216.0
77.641655 132.0
77.649506 128.0
77.672333 160.0
77.680084 132.0
77.683716 192.0
77.702461 332.0
77.770073 136.0
77.798683 160.0
77.818298 148.0
77.865822 188.0
77.921921 192.0
77.94001 164.0
77.964096 176.0
77.980988 308.0
78.017769 144.0
78.032646 136.0
78.050812 280.0
78.06562 300.0
78.100945 144.0
78.1241 184.0
78.138931 176.0
78.176888 48.0
78.192726 116.0
78.215233 224.0
78.247292 136.0
78.273003 200.0
78.280457 120.0
78.285133 180.0
78.291519 208.0
78.321083 164.0
78.344162 132.0
78.374107 164.0
78.40583 244.0
78.440681 124.0
78.453819 160.0
78.490448 160.0
78.547165 124.0
78.565582 140.0
78.635109 128.0
78.654518 148.0
78.686295 208.0
78.723381 176.0
78.746338 172.0
78.805984 204.0
78.837288 192.0
78.857651 116.0
78.915985 168.0
78.945068 296.0
78.955269 168.0
78.999107 120.0
79.023613 160.0
79.094666 168.0
79.118156 164.0
79.151009 228.0
79.173325 168.0
79.204445 188.0
79.239876 180.0
79.254051 152.0
79.275314 136.0
79.296585 208.0
79.322563 108.0
79.335579 140.0
79.373528 200.0
79.379379 80.0
79.386192 176.0
79.401192 196.0
79.413605 148.0
79.481445 132.0
79.496674 180.0
79.524666 148.0
79.564255 196.0
79.569115 176.0
79.598175 244.0
79.617706 96.0
79.630142 176.0
79.646126 132.0
79.66333 288.0
79.694756 172.0
79.724297 112.0
79.750961 108.0
79.779404 344.0
79.818512 204.0
79.868309 304.0
79.907448 144.0
79.943039 48.0
79.962616 120.0
80.031975 112.0
80.062309 180.0
80.099716 232.0
80.14782 104.0
80.235153 172.0
80.261894 156.0
80.280891 252.0
80.310051 192.0
80.322533 136.0
80.371658 188.0
80.413536 180.0
80.436737 240.0
80.45459 160.0
80.485184 176.0
80.515297 148.0
80.540306 80.0
80.556946 152.0
80.605927 164.0
80.643936 76.0
80.676086 148.0
80.743935 168.0
80.767159 140.0
80.796799 180.0
80.819191 212.0
80.867516 116.0
80.899734 96.0
80.921219 152.0
80.941658 168.0
80.962402 140.0
80.982101 204.0
81.015083 244.0
81.028748 156.0
81.048386 188.0
81.064514 116.0
81.087814 100.0
81.107529 148.0
81.120079 152.0
81.143379 140.0
81.173866 164.0
81.193588 64.0
81.206146 188.0
81.220497 148.0
81.258163 144.0
81.303238 172.0
81.392433 184.0
81.40612 196.0
81.435959 192.0
81.453102 208.0
81.486801 128.0
81.531105 192.0
81.588623 132.0
81.627708 168.0
81.677956 176.0
81.700439 232.0
81.71537 160.0
81.824303 148.0
81.870773 164.0
81.88913 204.0
81.901741 168.0
81.949234 148.0
81.963707 172.0
81.970947 68.0
81.974678 132.0
82.036575 184.0
82.061172 184.0
82.080452 196.0
82.105049 120.0
82.125244 204.0
82.167999 160.0
82.212807 180.0
82.219971 96.0
82.223167 132.0
82.267746 140.0
82.294884 180.0
82.329948 200.0
82.387207 204.0
82.400017 204.0
82.443657 200.0
82.46904 216.0
82.499039 144.0
82.526596 196.0
82.550919 184.0
82.569557 132.0
82.587624 216.0
82.625633 132.0
82.647064 180.0
82.683533 144.0
82.730766 128.0
82.763588 268.0
82.810272 160.0
82.871864 212.0
82.899841 328.0
82.938911 112.0
82.98526 192.0
83.044083 200.0
83.056778 144.0
83.069473 200.0
83.098503 176.0
83.151024 148.0
83.208046 220.0
83.225555 132.0
83.241898 176.0
83.347252 112.0
83.379135 144.0
83.40802 160.0
83.424362 188.0
83.476822 216.0
83.54361 124.0
83.569084 244.0
83.61805 128.0
83.632774 168.0
83.669937 184.0
83.691032 176.0
83.706711 208.0
83.730156 132.0
83.782791 220.0
83.805786 144.0
83.828697 184.0
83.844048 164.0
83.882324 164.0
83.924255 232.0
84.027855 180.0
84.084785 184.0
84.104866 124.0
84.121292 156.0
84.152328 196.0
84.164299 144.0
84.196663 144.0
84.250221 180.0
84.292664 128.0
84.330612 216.0
84.406311 136.0
84.422768 252.0
84.4422 96.0
84.45752 144.0
84.487762 120.0
84.552658 148.0
84.581375 268.0
84.603912 136.0
84.627907 112.0
84.642365 176.0
84.691811 228.0
84.706467 76.0
84.721115 180.0
84.73394 152.0
84.755928 180.0
84.802696 108.0
84.816406 176.0
84.83474 128.0
84.915199 164.0
84.952393 208.0
84.970451 304.0
84.996033 188.0
85.020164 176.0
85.028229 148.0
85.05896 140.0
85.076897 168.0
85.184837 200.0
85.205452 268.0
85.238525 156.0
85.291595 196.0
85.31916 156.0
85.337784 116.0
85.366859 172.0
85.403984 148.0
85.42054 148.0
85.472771 276.0
85.497818 112.0
85.570236 176.0
85.591698 120.0
85.608276 128.0
85.632858 172.0
85.705902 232.0
85.729103 180.0
85.778427 80.0
85.782852 176.0
85.842308 184.0
85.860657 152.0
85.878746 148.0
85.901329 208.0
85.921623 192.0
85.955666 196.0
85.976982 112.0
86.024239 152.0
86.040108 180.0
86.074821 148.0
86.102516 136.0
86.119141 404.0
86.132072 176.0
86.172714 124.0
86.215561 176.0
86.23185 60.0
86.258385 144.0
86.294701 180.0
86.316116 160.0
86.346474 164.0
86.363121 80.0
86.405701 236.0
86.429726 120.0
86.478302 144.0
86.513008 56.0
86.538925 208.0
86.561569 248.0
86.575966 144.0
86.622269 204.0
86.651909 124.0
86.687111 148.0
86.700089 176.0
86.722328 136.0
86.763435 160.0
86.785355 172.0
86.803696 144.0
86.821678 164.0
86.849419 324.0
86.892929 160.0
86.996857 76.0
87.045433 148.0
87.058372 368.0
87.07946 212.0
87.113853 32.0
87.126854 180.0
87.171448 100.0
87.241806 192.0
87.245438 164.0
87.289803 120.0
87.322037 116.0
87.358665 156.0
87.385284 32.0
87.437386 168.0
87.450417 128.0
87.46991 164.0
87.501129 180.0
87.547226 40.0
87.571442 204.0
87.59642 224.0
87.645958 180.0
87.679497 308.0
87.703728 160.0
87.721809 120.0
87.777237 96.0
87.794411 176.0
87.864105 68.0
87.884628 188.0
87.920082 96.0
87.934273 192.0
87.983543 300.0
87.99762 208.0
88.01902 184.0
88.103065 96.0
88.123619 204.0
88.153519 100.0
88.248238 200.0
88.271286 144.0
88.295593 100.0
88.3461 56.0
88.361069 148.0
88.428818 344.0
88.471481 192.0
88.492516 172.0
88.518295 144.0
88.587593 188.0
88.621315 172.0
88.640053 324.0
88.656494 176.0
88.726273 192.0
88.762268 180.0
88.78627 220.0
88.803154 168.0
88.840195 252.0
88.861305 220.0
88.88681 128.0
88.908218 72.0
88.951385 128.0
88.982628 100.0
89.022736 108.0
89.038971 216.0
89.056618 232.0
89.070374 160.0
89.097168 148.0
89.119011 188.0
89.152359 324.0
89.173027 136.0
89.235062 136.0
89.261391 180.0
89.283951 128.0
89.306526 152.0
89.366928 180.0
89.419411 64.0
89.435455 136.0
89.488289 312.0
89.522957 120.0
89.570045 208.0
89.600182 176.0
89.634445 108.0
89.681519 200.0
89.701485 260.0
89.70826 196.0
89.716225 188.0
89.733124 120.0
89.764915 172.0
89.790565 172.0
89.826408 172.0
89.860367 152.0
89.934906 56.0
89.9627 160.0
89.977379 140.0
90.01104 232.0
90.032135 64.0
90.047249 176.0
90.073692 132.0
90.095413 168.0
90.130196 148.0
90.190842 80.0
90.2192 136.0
90.236214 172.0
90.268356 108.0
90.283485 112.0
90.31356 140.0
90.414024 184.0
90.454376 188.0
90.476685 192.0
90.544518 168.0
90.551888 156.0
90.595795 96.0
90.66114 136.0
90.73983 144.0
90.775856 192.0
90.792923 120.0
90.815681 240.0
90.84034 108.0
90.864143 140.0
90.910545 204.0
90.94471 152.0
90.961792 76.0
90.990646 140.0
91.090919 84.0
91.105698 164.0
91.112762 128.0
91.124931 208.0
91.151711 340.0
91.181831 212.0
91.216331 96.0
91.263863 36.0
91.300606 148.0
91.322472 176.0
91.338776 236.0
91.382759 180.0
91.423653 152.0
91.457909 160.0
91.495483 184.0
91.511353 160.0
91.536224 196.0
91.555008 192.0
91.56884 180.0
91.592178 232.0
91.610245 176.0
91.63501 176.0
91.672249 324.0
91.690269 128.0
91.713142 360.0
91.736298 164.0
91.762711 136.0
91.789406 104.0
91.827545 180.0
91.893768 168.0
91.919922 368.0
91.99881 380.0
92.060715 148.0
92.110039 132.0
92.12532 92.0
92.161621 292.0
92.225388 152.0
92.241417 176.0
92.298355 276.0
92.334618 208.0
92.352791 148.0
92.3927 348.0
92.410179 140.0
92.428146 176.0
92.513527 172.0
92.552856 172.0
92.569054 164.0
92.608131 168.0
92.647583 132.0
92.668655 168.0
92.683983 168.0
92.706978 168.0
92.728058 100.0
92.75106 268.0
92.788651 224.0
92.799423 176.0
92.823914 132.0
92.90255 144.0
92.923653 192.0
92.938286 128.0
92.962029 88.0
92.990532 188.0
93.023453 172.0
93.035942 140.0
93.08873 144.0
93.111778 168.0
93.140587 128.0
93.16748 344.0
93.188614 44.0
93.223907 272.0
93.262657 136.0
93.284706 192.0
93.30201 140.0
93.319313 120.0
93.358345 240.0
93.388542 148.0
93.406906 184.0
93.446251 152.0
93.461647 124.0
93.559799 148.0
93.59407 244.0
93.651054 144.0
93.663788 200.0
93.750488 176.0
93.779396 236.0
93.802528 164.0
93.836563 204.0
93.863503 284.0
93.877632 168.0
93.89122 224.0
93.941376 132.0
93.968384 172.0
93.98864 156.0
94.068161 148.0
94.094055 172.0
94.122795 204.0
94.162125 216.0
94.174934 160.0
94.19738 220.0
94.21357 64.0
94.238686 156.0
94.256073 176.0
94.279266 100.0
94.308258 112.0
94.386734 192.0
94.410728 128.0
94.445541 96.0
94.495834 60.0
94.530663 92.0
94.549309 196.0
94.582924 124.0
94.643135 156.0
94.660362 132.0
94.699425 176.0
94.722343 196.0
94.737038 204.0
94.767159 148.0
94.792091 140.0
94.843086 204.0
94.858597 164.0
94.876869 200.0
94.896759 128.0
94.9161 168.0
94.919739 164.0
94.941002 180.0
94.954933 96.0
94.980148 208.0
95.029015 10492.0
95.060829 116.0
95.090744 68.0
95.129761 196.0
95.146713 120.0
95.208694 424.0
95.234421 284.0
95.277893 164.0
95.306252 164.0
95.343224 72.0
95.375793 232.0
95.401535 156.0
95.467072 68.0
95.480476 120.0
95.504593 32.0
95.553131 148.0
95.6017 176.0
95.654678 164.0
95.697258 192.0
95.751778 164.0
95.796577 152.0
95.816063 92.0
95.83165 172.0
95.860878 92.0
95.874519 52.0
95.906792 192.0
95.947388 108.0
95.969421 244.0
96.031982 520.0
96.065598 144.0
96.079918 116.0
96.141693 36.0
96.177864 128.0
96.186356 68.0
96.189384 120.0
96.210716 144.0
96.242546 120.0
96.256241 124.0
96.274445 60.0
96.293976 96.0
96.325226 140.0
96.339874 152.0
96.357094 304.0
96.416138 280.0
96.446739 216.0
96.471786 68.0
96.48938 172.0
96.510017 328.0
96.542175 156.0
96.569176 332.0
96.583244 132.0
96.608002 128.0
96.644295 176.0
96.669563 100.0
96.692818 132.0
96.710953 196.0
96.717285 152.0
96.724739 220.0
96.759018 132.0
96.774361 220.0
96.808319 212.0
96.861961 144.0
96.930855 160.0
96.94693 260.0
96.966866 204.0
96.979958 172.0
97.010307 244.0
97.029739 52.0
97.055283 144.0
97.088844 56.0
97.106651 160.0
97.144974 100.0
97.180397 168.0
97.205963 156.0
97.227768 164.0
97.259026 208.0
97.290169 160.0
97.327965 64.0
97.375099 72.0
97.394867 240.0
97.422104 180.0
97.43634 180.0
97.463501 36.0
97.506729 192.0
97.55632 176.0
97.575531 192.0
97.612892 28.0
97.642387 52.0
97.667839 132.0
97.70932 148.0
97.725952 168.0
97.742714 124.0
97.784576 208.0
97.83596 128.0
97.852776 140.0
97.880508 176.0
97.935646 120.0
97.973076 52.0
97.998688 176.0
98.014015 428.0
98.04007 204.0
98.071602 196.0
98.107086 80.0
98.123779 156.0
98.153687 164.0
98.187927 160.0
98.201736 180.0
98.21949 176.0
98.272751 196.0
98.320114 236.0
98.355873 200.0
98.448219 184.0
98.491081 204.0
98.602531 344.0
98.644035 88.0
98.695442 144.0
98.744881 84.0
98.785362 128.0
98.81411 160.0
98.851707 120.0
98.895248 116.0
98.925041 152.0
98.9487 184.0
98.988297 204.0
99.002731 376.0
99.024132 1132.0
99.052292 128.0
99.10318 328.0
99.132904 152.0
99.18605 172.0
99.228172 188.0
99.263741 124.0
99.287537 208.0
99.310326 188.0
99.341087 148.0
99.362228 104.0
99.420456 168.0
99.452209 108.0
99.507797 160.0
99.54155 180.0
99.634567 164.0
99.696503 168.0
99.714386 160.0
99.74247 220.0
99.764122 172.0
99.781975 128.0
99.829697 148.0
99.870949 324.0
99.929146 124.0
99.95752 140.0
99.985184 156.0
100.044754 140.0
100.078171 156.0
100.100327 124.0
100.134186 288.0
100.154099 56.0
100.209885 128.0
100.239769 208.0
100.262947 216.0
100.311211 52.0
100.314102 136.0
100.346642 228.0
100.42318 224.0
100.437141 112.0
100.465073 364.0
100.489014 128.0
100.508965 208.0
100.522934 248.0
100.570641 164.0
100.588799 212.0
100.674477 136.0
100.720589 156.0
100.750549 236.0
100.79451 76.0
100.812004 372.0
100.855156 220.0
100.870453 184.0
100.92643 104.0
100.974762 160.0
101.006432 396.0
101.044655 148.0
101.078453 168.0
101.112473 100.0
101.135658 96.0
101.151756 172.0
101.190544 196.0
101.220573 148.0
101.246902 192.0
101.320724 144.0
101.344765 144.0
101.362801 544.0
101.412903 136.0
101.432945 152.0
101.464767 96.0
101.497101 208.0
101.525177 176.0
101.539215 124.0
101.563278 168.0
101.583344 140.0
101.613892 120.0
101.640579 212.0
101.652122 156.0
101.742607 376.0
101.765968 328.0
101.802116 176.0
101.846001 200.0
101.910652 120.0
101.93264 176.0
101.974892 100.0
102.01236 216.0
102.046394 380.0
102.066933 168.0
102.085464 224.0
102.113342 116.0
102.118225 164.0
102.137756 244.0
102.161575 204.0
102.266533 160.0
102.280617 140.0
102.297134 136.0
102.390282 220.0
102.416214 184.0
102.433655 176.0
102.463875 100.0
102.498123 136.0
102.564636 144.0
102.606964 176.0
102.637207 48.0
102.658112 88.0
102.712265 204.0
102.79657 148.0
102.820786 68.0
102.851059 132.0
102.87249 156.0
102.970184 124.0
103.002502 184.0
103.024757 212.0
103.038635 220.0
103.057343 148.0
103.087357 176.0
103.11161 180.0
103.135056 180.0
103.156075 144.0
103.200554 156.0
103.226845 184.0
103.257179 160.0
103.276756 212.0
103.305588 180.0
103.390701 176.0
103.438606 180.0
103.477745 52.0
103.510139 140.0
103.534439 172.0
103.558746 72.0
103.599258 124.0
103.631676 124.0
103.684357 152.0
103.72287 192.0
103.751152 84.0
103.787743 160.0
103.82222 176.0
103.846558 136.0
103.876984 32.0
103.891182 116.0
103.929085 176.0
103.934677 164.0
103.952049 128.0
103.970314 108.0
104.001869 204.0
104.016144 136.0
104.092117 184.0
104.10836 104.0
104.12664 164.0
104.232277 84.0
104.324181 164.0
104.354233 212.0
104.398964 164.0
104.4132 112.0
104.449814 212.0
104.489632 336.0
104.517227 148.0
104.550728 208.0
104.575966 92.0
104.622787 156.0
104.693512 136.0
104.700012 224.0
104.785034 168.0
104.822769 192.0
104.845337 204.0
104.875778 184.0
104.891685 192.0
104.910934 160.0
104.944687 176.0
104.960999 172.0
104.991592 172.0
105.007904 160.0
105.04258 196.0
105.075882 260.0
105.113693 164.0
105.226189 124.0
105.276428 204.0
105.314064 40.0
105.344704 172.0
105.41008 184.0
105.428474 128.0
105.444824 92.0
105.459129 164.0
105.493881 208.0
105.561348 132.0
105.579758 188.0
105.61657 136.0
105.634979 112.0
105.6493 112.0
105.697151 152.0
105.741379 124.0
105.77034 80.0
105.831451 224.0
105.865631 168.0
105.884499 124.0
105.890694 112.0
105.927704 156.0
105.955673 92.0
105.976341 152.0
106.009659 32.0
106.02401 196.0
106.045441 140.0
106.072151 180.0
106.087547 140.0
106.149055 192.0
106.226616 324.0
106.298805 120.0
106.325478 64.0
106.357719 204.0
106.373398 220.0
106.421959 140.0
106.464188 192.0
106.488899 388.0
106.514374 160.0
106.553406 136.0
106.635605 136.0
106.674538 204.0
106.712112 128.0
106.759682 148.0
106.882385 132.0
106.960587 116.0
106.991364 164.0
107.013939 192.0
107.030533 160.0
107.049118 32.0
107.06765 140.0
107.134331 140.0
107.181641 184.0
107.202179 160.0
107.240913 124.0
107.269577 144.0
107.308746 136.0
107.365448 120.0
107.418045 140.0
107.440735 180.0
107.479935 128.0
107.50264 32.0
107.539787 100.0
107.58107 152.0
107.633453 356.0
107.677834 224.0
107.72876 108.0
107.754547 144.0
107.779343 148.0
107.815163 160.0
107.863388 204.0
107.880615 200.0
107.915756 216.0
107.956078 152.0
107.986069 68.0
108.021233 108.0
108.039848 132.0
108.066246 200.0
108.072227 148.0
108.080612 160.0
108.088623 196.0
108.184715 156.0
108.199203 112.0
108.21991 224.0
108.309593 156.0
108.344177 164.0
108.373184 196.0
108.390564 164.0
108.407761 116.0
108.424583 156.0
108.507904 144.0
108.534851 132.0
108.54937 60.0
108.599144 140.0
108.61718 144.0
108.629471 264.0
108.658493 216.0
108.696648 260.0
108.715324 164.0
108.785896 136.0
108.809631 324.0
108.927498 164.0
108.964493 120.0
108.98735 120.0
109.044495 2844.0
109.104164 176.0
109.168198 148.0
109.216034 192.0
109.240997 56.0
109.261795 176.0
109.315895 168.0
109.367928 176.0
109.411644 128.0
109.43454 240.0
109.459526 168.0
109.478271 96.0
109.492546 236.0
109.525238 152.0
109.547005 204.0
109.591606 176.0
109.642853 96.0
109.684532 136.0
109.699127 172.0
109.724144 172.0
109.750717 156.0
109.781372 180.0
109.826759 324.0
109.859192 148.0
109.887276 184.0
109.937218 132.0
109.979904 212.0
110.004097 344.0
110.032921 164.0
110.059425 132.0
110.106003 144.0
110.132217 160.0
110.156555 208.0
110.203529 204.0
110.219238 176.0
110.245972 188.0
110.268959 80.0
110.291588 160.0
110.357292 188.0
110.395447 144.0
110.492706 348.0
110.507355 144.0
110.524094 136.0
110.557571 188.0
110.576408 144.0
110.641296 96.0
110.680183 140.0
110.69574 124.0
110.725052 104.0
110.750504 132.0
110.769043 68.0
110.792084 328.0
110.808846 144.0
110.88501 184.0
110.912117 172.0
110.973122 144.0
110.990623 176.0
111.02317 556.0
111.056252 192.0
111.075089 112.0
111.096924 136.0
111.104897 172.0
111.13475 324.0
111.15271 120.0
111.169502 268.0
111.204857 176.0
111.22197 192.0
111.333244 172.0
111.358444 124.0
111.39299 152.0
111.427765 192.0
111.45298 168.0
111.48922 196.0
111.507622 132.0
111.539764 168.0
111.564415 188.0
111.605156 160.0
111.671379 352.0
111.696381 196.0
111.707878 200.0
111.732613 44.0
111.790619 168.0
111.836777 192.0
111.883514 188.0
111.891861 132.0
111.934677 120.0
111.968369 164.0
111.991539 160.0
112.012138 212.0
112.051102 204.0
112.077911 204.0
112.136917 112.0
112.191719 56.0
112.213226 636.0
112.23053 216.0
112.267632 92.0
112.329353 272.0
112.352127 196.0
112.430069 36.0
112.449043 228.0
112.49128 156.0
112.578957 152.0
112.603188 176.0
112.647545 164.0
112.702316 260.0
112.726395 144.0
112.775322 212.0
112.816605 52.0
112.865273 200.0
112.89061 128.0
112.906464 144.0
112.933929 200.0
112.968277 156.0
113.039429 1212.0
113.068314 248.0
113.085747 168.0
113.112991 148.0
113.144516 156.0
113.216743 176.0
113.234253 316.0
113.254631 132.0
113.276787 252.0
113.309708 140.0
113.374771 136.0
113.413544 60.0
113.441101 160.0
113.45594 196.0
113.475021 84.0
113.496223 172.0
113.513184 120.0
113.538635 140.0
113.590446 280.0
113.644577 188.0
113.672279 168.0
113.706238 140.0
113.723213 308.0
113.781425 180.0
113.852722 164.0
113.884583 228.0
113.912193 64.0
113.944061 152.0
113.986557 180.0
114.042801 468.0
114.060944 208.0
114.105583 172.0
114.133224 120.0
114.163101 164.0
114.19915 160.0
114.244949 136.0
114.252571 72.0
114.259781 144.0
114.28212 128.0
114.331062 228.0
114.371498 124.0
114.386398 224.0
114.411942 164.0
114.446007 192.0
114.471565 188.0
114.510727 200.0
114.563385 180.0
114.629196 188.0
114.648376 220.0
114.686737 92.0
114.760918 196.0
114.786942 164.0
114.808266 224.0
114.851685 200.0
114.922867 116.0
114.940521 80.0
114.97789 180.0
114.997398 172.0
115.034683 200.0
115.056053 536.0
115.09182 100.0
115.094994 196.0
115.173225 220.0
115.211678 192.0
115.226631 144.0
115.290733 144.0
115.329208 164.0
115.347687 180.0
115.378372 156.0
115.401894 112.0
115.459625 172.0
115.510963 240.0
115.532616 224.0
115.570862 92.0
115.65155 176.0
115.665657 176.0
115.705704 112.0
115.727112 132.0
115.758461 412.0
115.795143 104.0
115.836334 164.0
115.857758 144.0
115.881325 188.0
115.907036 160.0
115.925133 180.0
115.962677 136.0
115.997421 208.0
116.046356 40.0
116.06591 168.0
116.110596 208.0
116.14286 128.0
116.16095 188.0
116.179329 124.0
116.22438 160.0
116.25013 172.0
116.266808 208.0
116.292168 188.0
116.353157 112.0
116.369102 172.0
116.391808 160.0
116.411133 180.0
116.48201 92.0
116.512085 112.0
116.582993 156.0
116.598038 344.0
116.684013 340.0
116.787239 192.0
116.819504 204.0
116.879745 88.0
116.91848 60.0
116.991661 184.0
117.030411 212.0
117.069176 144.0
117.095306 148.0
117.146576 188.0
117.155083 176.0
117.213226 220.0
117.265221 184.0
117.310966 180.0
117.327736 148.0
117.351448 224.0
117.371773 248.0
117.401047 172.0
117.420456 160.0
117.446335 152.0
117.463593 208.0
117.493797 156.0
117.545578 172.0
117.57579 164.0
117.662132 152.0
117.711792 88.0
117.747238 164.0
117.763626 176.0
117.803734 180.0
117.844948 192.0
117.90406 76.0
117.934319 316.0
117.975388 168.0
117.998604 184.0
118.036087 156.0
118.079178 164.0
118.09864 156.0
118.137161 200.0
118.179634 236.0
118.269577 332.0
118.318619 128.0
118.354004 144.0
118.407059 128.0
118.432816 144.0
118.460129 96.0
118.490456 204.0
118.516457 152.0
118.533791 112.0
118.585808 68.0
118.626755 184.0
118.670349 132.0
118.685524 104.0
118.735405 188.0
118.774445 156.0
118.790726 144.0
118.80481 208.0
118.828674 48.0
118.880135 172.0
118.889565 164.0
118.907227 160.0
118.956718 188.0
119.026962 124.0
119.051598 160.0
119.102203 76.0
119.126099 304.0
119.150833 156.0
119.177597 148.0
119.228218 88.0
119.254303 56.0
119.278214 336.0
119.306473 180.0
119.339081 104.0
119.35865 168.0
119.45652 176.0
119.483536 144.0
119.526146 124.0
119.552254 108.0
119.587074 188.0
119.60231 132.0
119.654556 200.0
119.674759 144.0
119.717705 100.0
119.759087 220.0
119.815353 212.0
119.844048 208.0
119.859299 200.0
119.87455 148.0
119.891983 124.0
119.910408 176.0
119.948601 168.0
119.967308 244.0
120.035576 548.0
120.072937 128.0
120.125282 228.0
120.153641 260.0
120.172363 228.0
120.218094 164.0
120.27803 272.0
120.293221 192.0
120.310776 128.0
120.369728 164.0
120.391563 128.0
120.413406 108.0
120.435242 104.0
120.610306 100.0
120.631905 156.0
120.669067 136.0
120.708427 104.0
120.802475 236.0
120.819977 176.0
120.847633 56.0
120.865921 152.0
120.889992 156.0
120.915497 116.0
120.923462 164.0
121.004768 140.0
121.038872 364.0
121.086456 108.0
121.112671 124.0
121.221458 176.0
121.246956 124.0
121.270905 172.0
121.327835 276.0
121.363243 172.0
121.420151 156.0
121.442085 180.0
121.459633 200.0
121.488411 168.0
121.556168 128.0
121.575912 144.0
121.593475 168.0
121.629158 404.0
121.663818 168.0
121.673073 136.0
121.67981 204.0
121.696648 80.0
121.813042 164.0
121.847855 156.0
121.892136 168.0
121.910851 132.0
121.944878 104.0
121.975655 240.0
121.995438 184.0
122.016335 308.0
122.051315 192.0
122.074585 152.0
122.096581 112.0
122.119736 148.0
122.150055 128.0
122.188965 372.0
122.21537 112.0
122.232971 172.0
122.266739 160.0
122.294594 116.0
122.312202 144.0
122.339737 104.0
122.371368 156.0
122.388245 164.0
122.426247 204.0
122.466331 144.0
122.483467 156.0
122.528534 252.0
122.54615 196.0
122.562531 144.0
122.591042 152.0
122.606567 160.0
122.621956 188.0
122.640984 284.0
122.679634 596.0
122.713562 200.0
122.732124 276.0
122.748177 220.0
122.770157 444.0
122.785248 536.0
122.795006 412.0
122.812645 940.0
122.855392 176.0
122.877151 332.0
122.901573 612.0
122.923645 484.0
122.952995 668.0
122.974342 800.0
122.998405 772.0
123.025345 223404.0
123.090607 68.0
123.106354 236.0
123.147461 204.0
123.157516 76.0
123.185844 356.0
123.234154 364.0
123.270958 84.0
123.297264 164.0
123.327202 120.0
123.364067 948.0
123.388191 6876.0
123.422493 280.0
123.447403 180.0
123.454704 164.0
123.459915 380.0
123.491638 88.0
123.536232 268.0
123.584618 92.0
123.600319 156.0
123.60878 140.0
123.642784 92.0
123.671379 132.0
123.689873 64.0
123.723412 220.0
123.740692 292.0
123.763931 208.0
123.781029 228.0
123.803268 104.0
123.820709 172.0
123.853691 112.0
123.889038 60.0
123.922714 240.0
123.959709 216.0
123.991615 160.0
124.027596 35580.0
124.062233 128.0
124.107796 220.0
124.133301 140.0
124.154137 48.0
124.176781 132.0
124.21698 76.0
124.232506 28.0
124.248039 36.0
124.28698 152.0
124.317467 200.0
124.334106 76.0
124.369492 60.0
124.39006 96.0
124.409668 48.0
124.432838 164.0
124.461105 32.0
124.478874 60.0
124.499451 60.0
124.507149 60.0
124.517937 88.0
124.527206 112.0
124.542007 112.0
124.559937 88.0
124.612747 220.0
124.644989 92.0
124.648064 120.0
124.677994 88.0
124.713379 124.0
124.755508 384.0
124.780464 196.0
124.795059 240.0
124.81942 284.0
124.837585 108.0
124.863937 104.0
124.895401 216.0
124.915169 268.0
124.93631 104.0
124.965759 84.0
125.028656 1048.0
125.095329 180.0
125.108566 144.0
125.13353 184.0
125.154755 100.0
125.212257 92.0
125.252075 112.0
125.277992 96.0
125.320099 208.0
125.347572 44.0
125.373962 164.0
125.398994 168.0
125.472397 76.0
125.491287 48.0
125.544807 168.0
125.560417 40.0
125.577965 240.0
125.689804 112.0
125.741127 92.0
125.761215 112.0
125.792999 168.0
125.817024 156.0
125.844292 188.0
125.852074 40.0
125.860611 132.0
125.888474 48.0
125.92173 148.0
125.977104 88.0
125.984818 60.0
125.994759 96.0
126.009094 116.0
126.040489 120.0
126.071655 28.0
126.111473 196.0
126.158829 96.0
126.178947 32.0
126.214325 204.0
126.237083 268.0
126.288521 36.0
126.305481 144.0
126.314621 84.0
126.322693 116.0
126.345825 104.0
126.424995 196.0
126.439964 64.0
126.463043 112.0
126.507812 180.0
126.548111 204.0
126.611526 112.0
126.666801 184.0
126.698166 60.0
126.72953 84.0
126.747459 56.0
126.812447 268.0
126.832619 76.0
126.861763 108.0
126.929024 172.0
126.951187 140.0
127.012108 288.0
127.035202 128.0
127.05529 236.0
127.101929 48.0
127.133156 148.0
127.164574 48.0
127.191513 148.0
127.236404 176.0
127.266716 104.0
127.290291 144.0
127.338234 104.0
127.36216 180.0
127.429558 56.0
127.490227 88.0
127.537163 104.0
127.59362 164.0
127.618355 52.0
127.63575 168.0
127.665573 216.0
127.765663 176.0
127.814041 184.0
128.029434 88.0
128.064713 208.0
128.11348 160.0
128.165298 160.0
128.181076 136.0
128.208115 172.0
128.228409 192.0
128.259964 52.0
128.277985 188.0
128.334351 180.0
128.384491 168.0
128.537354 140.0
128.569382 204.0
128.62764 64.0
128.652466 184.0
128.724518 140.0
128.728668 128.0
128.871536 156.0
128.921249 132.0
128.952881 92.0
128.980011 76.0
129.012589 172.0
129.039307 264.0
129.068176 492.0
129.141037 188.0
129.158646 68.0
129.190308 84.0
129.258194 112.0
129.274033 148.0
129.303452 176.0
129.388336 100.0
129.407578 112.0
129.437012 112.0
129.457397 112.0
129.480042 104.0
129.498154 48.0
129.570648 188.0
129.695282 136.0
129.73793 216.0
129.790497 224.0
129.815445 100.0
129.84021 212.0
129.885742 240.0
129.9039 136.0
129.924316 48.0
129.954346 168.0
129.984024 60.0
130.079285 516.0
130.140839 140.0
130.167648 232.0
130.267105 60.0
130.283005 168.0
130.310272 72.0
130.344345 132.0
130.373688 92.0
130.471634 80.0
130.544388 176.0
130.642197 124.0
130.658112 60.0
130.689972 144.0
130.715302 148.0
130.742737 148.0
130.783279 136.0
130.801483 196.0
130.824249 200.0
130.914322 136.0
130.944275 56.0
130.983658 100.0
131.031494 192.0
131.054276 32.0
131.077057 304.0
131.188736 88.0
131.252579 52.0
131.276581 220.0
131.37117 100.0
131.409958 48.0
131.444183 72.0
131.494003 188.0
131.551132 312.0
131.569717 68.0
131.638214 132.0
131.659744 84.0
131.736084 236.0
131.768967 216.0
131.811829 96.0
131.82782 64.0
131.866669 148.0
131.914673 204.0
131.980972 108.0
132.027328 88.0
132.051865 136.0
132.093033 208.0
132.131927 72.0
132.166245 120.0
132.200577 108.0
132.221161 132.0
132.278076 208.0
132.335953 84.0
132.38829 204.0
132.417068 148.0
132.475388 156.0
132.49823 140.0
132.535217 140.0
132.562576 48.0
132.58989 212.0
132.61969 72.0
132.69075 108.0
132.727432 96.0
132.761826 200.0
132.876526 144.0
132.892578 172.0
133.047104 608.0
133.076202 148.0
133.096863 120.0
133.158859 68.0
133.185089 124.0
133.221054 164.0
133.249496 176.0
133.327698 140.0
133.349564 196.0
133.377136 76.0
133.450699 124.0
133.50589 72.0
133.521988 160.0
133.57489 132.0
133.637009 116.0
133.732697 256.0
133.809372 180.0
133.851074 196.0
133.871796 108.0
133.889832 164.0
134.044571 148.0
134.08374 132.0
134.126297 268.0
134.254333 148.0
134.298157 148.0
134.318924 44.0
134.383514 92.0
134.485046 108.0
134.544357 156.0
134.591248 180.0
134.609726 48.0
134.651291 216.0
134.68132 156.0
134.7229 68.0
134.764481 312.0
134.802383 168.0
134.921646 200.0
134.973282 132.0
134.997284 224.0
135.022003 148.0
135.059906 3280.0
135.10434 220.0
135.291794 156.0
135.328842 152.0
135.34967 108.0
135.40062 76.0
135.502548 172.0
135.704178 112.0
135.740616 168.0
135.762146 132.0
135.878128 48.0
136.026657 180.0
136.065948 208.0
136.119522 192.0
136.145065 208.0
136.18837 136.0
136.407608 116.0
136.486664 96.0
136.519211 224.0
136.549454 172.0
136.582016 160.0
136.602173 168.0
136.644821 160.0
136.71463 92.0
136.853638 184.0
136.900208 152.0
136.938858 288.0
136.968399 104.0
137.013458 376.0
137.071121 136.0
137.138504 136.0
137.15715 188.0
137.252731 252.0
137.381012 104.0
137.510101 220.0
137.64241 156.0
137.682114 72.0
137.732559 232.0
137.85965 92.0
137.899384 160.0
137.934448 148.0
137.983536 28.0
138.017731 180.0
138.046661 108.0
138.065384 124.0
138.095779 320.0
138.205734 240.0
138.282959 120.0
138.322754 224.0
138.348495 112.0
138.397659 144.0
138.475586 160.0
138.608475 124.0
138.697525 64.0
138.908569 124.0
138.931839 148.0
138.980225 120.0
139.008057 320.0
139.031403 124.0
139.054047 116.0
139.089249 44.0
139.119766 80.0
139.176117 152.0
139.300583 156.0
139.361679 304.0
139.431732 128.0
139.512085 216.0
139.635178 216.0
139.674347 44.0
139.747269 132.0
139.766098 140.0
139.801392 144.0
139.817871 176.0
139.834335 200.0
139.85553 132.0
139.900253 144.0
139.954391 108.0
139.977951 32.0
140.039352 148.0
140.098068 144.0
140.141556 156.0
140.168747 156.0
140.198227 136.0
140.266403 148.0
140.34082 220.0
140.4776 108.0
140.50827 260.0
140.649857 52.0
140.668747 136.0
140.692352 168.0
140.739578 28.0
140.760818 156.0
140.850571 60.0
140.881271 120.0
140.928528 160.0
140.992325 200.0
141.011078 124.0
141.025558 132.0
141.060349 108.0
141.089249 176.0
141.181458 64.0
141.198013 180.0
141.252411 60.0
141.358887 168.0
141.435013 192.0
141.460648 164.0
141.484329 136.0
141.538788 148.0
141.595551 140.0
141.64061 76.0
141.666672 84.0
141.743637 148.0
141.789886 68.0
141.932114 200.0
141.951096 148.0
142.00563 100.0
142.100525 168.0
142.119385 252.0
142.171707 36.0
142.188324 120.0
142.214279 188.0
142.264282 32.0
142.326004 152.0
142.345001 64.0
142.406754 28.0
142.42337 180.0
142.451874 124.0
142.475632 60.0
142.518402 140.0
142.554047 120.0
142.620178 188.0
142.646729 148.0
142.689529 176.0
142.710068 176.0
142.789398 148.0
142.834595 80.0
142.863129 172.0
142.891678 100.0
142.920242 184.0
142.93927 44.0
142.965454 96.0
142.999359 208.0
143.027664 144.0
143.079071 152.0
143.096359 192.0
143.167801 188.0
143.19162 160.0
143.236877 152.0
143.344086 88.0
143.401276 140.0
143.465637 60.0
143.513321 160.0
143.552032 252.0
143.577698 136.0
143.637329 124.0
143.665955 172.0
143.792419 52.0
143.829376 216.0
143.875961 188.0
143.942825 144.0
144.014465 108.0
144.08992 904.0
144.120331 164.0
144.174545 80.0
144.203217 192.0
144.246246 164.0
144.359604 260.0
144.406448 228.0
144.504517 172.0
144.601074 184.0
144.628967 144.0
144.66008 136.0
144.755844 164.0
144.803741 136.0
144.978638 152.0
145.014587 52.0
145.042923 320.0
145.088898 184.0
145.18721 208.0
145.232773 184.0
145.318314 164.0
145.335922 136.0
145.398315 136.0
145.508743 112.0
145.702896 152.0
145.746521 192.0
145.77536 128.0
145.813812 144.0
145.833038 168.0
145.910828 156.0
145.953232 132.0
145.984497 156.0
146.001328 144.0
146.052902 172.0
146.092728 128.0
146.109573 168.0
146.241913 144.0
146.388779 140.0
146.42009 160.0
146.509201 188.0
146.533295 168.0
146.567032 192.0
146.595947 176.0
146.636917 120.0
146.762268 216.0
146.863556 204.0
146.906982 168.0
147.060059 1656.0
147.119339 224.0
147.198685 148.0
147.204269 180.0
147.235245 140.0
147.288376 224.0
147.309372 80.0
147.368103 164.0
147.452667 56.0
147.487183 172.0
147.520355 128.0
147.539688 136.0
147.590469 136.0
147.614639 100.0
147.718643 176.0
147.737503 216.0
147.856567 172.0
147.904144 188.0
147.976517 208.0
147.99617 196.0
148.059921 160.0
148.103516 184.0
148.239868 164.0
148.341721 172.0
148.401596 168.0
148.450089 140.0
148.534973 200.0
148.593933 172.0
148.636871 148.0
148.663559 40.0
148.699966 148.0
148.794632 92.0
148.843201 168.0
148.928192 40.0
149.03508 132.0
149.071655 484.0
149.14444 96.0
149.17691 244.0
149.256271 176.0
149.377884 144.0
149.426529 108.0
149.493958 124.0
149.730804 116.0
150.001266 176.0
150.084152 104.0
150.203659 164.0
150.337921 132.0
150.425705 168.0
150.49144 216.0
150.511932 152.0
150.581985 140.0
150.608841 28.0
150.711456 84.0
150.738327 168.0
150.765121 208.0
150.818176 208.0
150.870316 128.0
150.929001 164.0
151.009689 148.0
151.032654 348.0
151.05838 172.0
151.087967 100.0
151.300888 160.0
151.374344 160.0
151.49176 144.0
151.526199 172.0
151.636475 132.0
151.673233 168.0
151.714905 136.0
151.837509 116.0
151.8694 80.0
151.928268 44.0
151.987152 172.0
152.02916 136.0
152.060699 152.0
152.067139 148.0
152.131958 228.0
152.233505 156.0
152.279282 68.0
152.338226 120.0
152.365768 192.0
152.424225 180.0
152.46846 156.0
152.534821 48.0
152.564316 176.0
152.603653 116.0
152.623322 220.0
152.643585 168.0
152.699554 52.0
152.784225 180.0
152.820099 204.0
152.854538 152.0
153.021912 44.0
153.0793 172.0
153.159821 176.0
153.248505 132.0
153.278076 180.0
153.364334 140.0
153.416092 48.0
153.472809 136.0
153.529526 148.0
153.561584 112.0
153.623245 188.0
153.78363 296.0
153.805847 176.0
153.862625 188.0
153.88237 200.0
153.904602 220.0
154.032639 204.0
154.03653 172.0
154.078033 128.0
154.124435 188.0
154.171387 176.0
154.255417 208.0
154.304855 312.0
154.341949 156.0
154.366669 228.0
154.413666 120.0
154.460663 168.0
154.532394 180.0
154.596741 152.0
154.725449 180.0
154.748489 272.0
154.834396 96.0
154.896317 180.0
154.94339 132.0
155.030106 160.0
155.055542 300.0
155.168915 192.0
155.198669 136.0
155.216019 80.0
155.260666 132.0
155.302826 184.0
155.32019 172.0
155.342514 204.0
155.431824 48.0
155.462555 200.0
155.729736 96.0
155.747116 48.0
155.810806 132.0
155.893707 164.0
156.015488 88.0
156.035385 144.0
156.087601 208.0
156.110794 172.0
156.149765 48.0
156.175522 68.0
156.203339 164.0
156.239319 160.0
156.308975 68.0
156.326401 84.0
156.353775 156.0
156.401459 128.0
156.440887 168.0
156.480316 144.0
156.540482 136.0
156.612701 184.0
156.762192 148.0
156.854401 124.0
156.922714 140.0
156.986542 196.0
157.0065 124.0
157.118744 148.0
157.17363 44.0
157.231033 184.0
157.379425 148.0
157.450729 192.0
157.549881 184.0
157.613098 140.0
157.640579 188.0
157.728058 236.0
157.74556 132.0
157.858063 188.0
157.924103 136.0
157.977371 172.0
158.015656 76.0
158.079117 192.0
158.123245 184.0
158.1633 148.0
158.228378 104.0
158.260925 168.0
158.33606 196.0
158.451279 60.0
158.493866 124.0
158.559021 196.0
158.59613 204.0
158.629211 132.0
158.646759 104.0
158.704422 184.0
158.754578 136.0
158.847366 124.0
158.867432 160.0
159.053131 88.0
159.123428 96.0
159.181168 92.0
159.248978 160.0
159.304245 96.0
159.354492 120.0
159.384644 144.0
159.411606 136.0
159.520355 160.0
159.573151 168.0
159.664429 120.0
159.696365 156.0
159.72403 68.0
159.759247 112.0
159.902679 108.0
160.018539 156.0
160.048691 148.0
160.071777 208.0
160.232544 236.0
160.272858 152.0
160.419037 112.0
160.439209 80.0
160.479538 164.0
160.585449 200.0
160.857971 96.0
160.988174 160.0
161.064346 120.0
161.145859 140.0
161.193878 124.0
161.229248 64.0
161.342148 220.0
161.449188 68.0
161.52507 52.0
161.58374 84.0
161.654495 156.0
161.701065 108.0
161.818634 104.0
161.90773 172.0
161.999664 148.0
162.049103 168.0
162.122589 216.0
162.244247 160.0
162.287689 152.0
162.335892 168.0
162.365967 112.0
162.404007 236.0
162.454742 128.0
162.538467 136.0
162.670441 180.0
162.72905 188.0
162.766922 152.0
162.845642 200.0
162.884933 188.0
162.896027 192.0
162.947693 368.0
162.963989 156.0
162.998062 144.0
163.021606 180.0
163.055557 2412.0
163.189178 216.0
163.224304 32.0
163.275497 152.0
163.303131 108.0
163.364182 136.0
163.396225 168.0
163.420151 44.0
163.437958 152.0
163.459885 104.0
163.49649 128.0
163.577942 52.0
163.618668 232.0
163.682327 132.0
163.702698 220.0
163.723068 112.0
163.75618 80.0
163.794388 40.0
163.852905 144.0
163.878448 32.0
163.90213 176.0
163.910233 144.0
163.917313 192.0
163.956345 120.0
164.006561 148.0
164.052567 400.0
164.091812 180.0
164.135666 188.0
164.153732 168.0
164.171036 164.0
164.204254 148.0
164.225143 108.0
164.25972 180.0
164.292389 272.0
164.356949 324.0
164.401215 372.0
164.441238 144.0
164.467941 436.0
164.489853 180.0
164.510574 172.0
164.545563 108.0
164.592438 400.0
164.664001 196.0
164.6866 320.0
164.742645 292.0
164.766724 172.0
164.775787 164.0
164.785019 200.0
164.820847 164.0
164.862488 164.0
164.909607 216.0
164.946671 388.0
164.969437 336.0
165.002121 608.0
165.071854 299252.0
165.136398 284.0
165.1642 264.0
165.2202 264.0
165.247559 164.0
165.302826 164.0
165.324448 412.0
165.346085 208.0
165.381409 236.0
165.459091 176.0
165.492737 4448.0
165.522705 208.0
165.55661 244.0
165.590805 108.0
165.61322 116.0
165.627197 112.0
165.633728 120.0
165.653229 52.0
165.674805 152.0
165.697311 40.0
165.714508 256.0
165.723434 160.0
165.771057 128.0
165.820572 72.0
165.87381 176.0
165.891159 136.0
165.911499 140.0
165.937988 120.0
165.987549 124.0
166.01413 172.0
166.074539 36132.0
166.157608 200.0
166.178802 40.0
166.203903 116.0
166.238831 44.0
166.258972 68.0
166.263931 64.0
166.301178 104.0
166.354858 188.0
166.359741 228.0
166.399109 56.0
166.424255 36.0
166.44046 100.0
166.468491 72.0
166.497879 140.0
166.52066 216.0
166.562363 112.0
166.590347 52.0
166.613464 44.0
166.655258 92.0
166.681061 108.0
166.713669 80.0
166.751099 92.0
166.776733 112.0
166.816055 72.0
166.835922 76.0
166.85817 108.0
166.8936 28.0
166.927307 96.0
166.957779 104.0
166.964584 60.0
166.97464 148.0
166.981964 136.0
167.001038 104.0
167.017746 148.0
167.076797 1156.0
167.112228 160.0
167.133942 92.0
167.177017 68.0
167.206543 248.0
167.223175 72.0
167.261139 196.0
167.278656 196.0
167.335342 284.0
167.356995 228.0
167.389725 184.0
167.420578 104.0
167.458588 224.0
167.505096 40.0
167.56366 72.0
167.585983 188.0
167.627563 116.0
167.652985 92.0
167.734222 176.0
167.745544 92.0
167.751602 60.0
167.82225 72.0
167.859512 68.0
167.913361 56.0
167.939163 196.0
167.962372 116.0
167.98558 72.0
168.008804 124.0
168.083176 136.0
168.119751 76.0
168.174149 52.0
168.205887 40.0
168.271133 144.0
168.29599 128.0
168.313354 176.0
168.336594 108.0
168.372757 116.0
168.408905 40.0
168.434738 88.0
168.527206 192.0
168.576843 80.0
168.644028 100.0
168.871567 60.0
168.889664 80.0
168.975037 92.0
169.062042 160.0
169.10701 44.0
169.220901 76.0
169.456589 76.0
169.531738 56.0
169.840256 92.0
169.873978 56.0
169.962189 56.0
170.019287 48.0
170.315262 108.0
170.465942 40.0
170.80394 56.0
170.957443 116.0
171.107574 164.0
171.251633 132.0
171.331772 68.0
171.389694 96.0
171.4366 44.0
171.475693 32.0
172.287201 56.0
172.833633 72.0
172.863922 104.0
173.022079 104.0
173.050461 440.0
173.18071 76.0
173.236816 160.0
173.467422 44.0
173.547897 52.0
173.879227 52.0
173.936966 72.0
173.960602 124.0
174.074753 108.0
174.091873 156.0
174.157608 132.0
174.286255 172.0
174.388748 176.0
174.441772 164.0
174.514923 72.0
174.593811 76.0
174.620117 48.0
174.683243 80.0
174.859528 96.0
174.985794 108.0
175.056976 72.0
175.117554 60.0
175.207108 120.0
175.225555 44.0
175.257172 116.0
175.404755 116.0
175.439026 136.0
175.497025 76.0
175.560318 44.0
175.718582 88.0
175.847885 84.0
175.898026 48.0
175.927063 120.0
176.040604 120.0
176.086365 388.0
176.328552 56.0
176.373489 80.0
176.439575 64.0
176.635269 104.0
176.852234 128.0
177.070953 244.0
177.514557 48.0
177.632675 128.0
177.702896 96.0
177.724121 64.0
177.753311 120.0
177.843536 56.0
178.032043 168.0
178.05722 124.0
178.084198 60.0
178.10228 116.0
178.172806 56.0
178.196716 120.0
178.32428 156.0
178.34288 32.0
178.378189 160.0
178.590149 160.0
178.683258 32.0
178.736481 144.0
178.787033 64.0
178.882858 60.0
178.925446 40.0
178.949402 104.0
179.056107 112.0
179.241989 108.0
179.274384 52.0
179.380981 84.0
179.575638 40.0
179.636978 40.0
179.706345 200.0
180.007965 52.0
180.045349 140.0
180.085419 72.0
180.379333 64.0
180.496979 52.0
180.954514 116.0
181.050903 188.0
181.085724 256.0
181.326843 180.0
181.56546 116.0
181.809586 76.0
181.847153 76.0
181.930374 32.0
182.161316 140.0
182.427353 80.0
182.76622 56.0
183.237396 56.0
183.40448 56.0
183.927765 100.0
183.968246 92.0
184.676208 104.0
185.182343 84.0
185.201309 116.0
185.540024 164.0
186.242859 176.0
186.566223 72.0
186.66954 160.0
186.819138 92.0
186.840897 192.0
186.936127 76.0
187.551636 76.0
187.772476 188.0
188.080795 160.0
189.522018 88.0
189.64534 52.0
189.752243 76.0
190.100357 180.0
190.25705 116.0
190.490463 132.0
191.505447 104.0
191.585327 60.0
191.70105 60.0
192.059143 136.0
192.125671 104.0
192.180847 36.0
192.26915 48.0
192.302261 144.0
192.476181 132.0
192.727539 76.0
193.064728 188.0
193.773392 136.0
194.071976 2348.0
194.096848 2776.0
194.605453 40.0
194.652649 48.0
194.918396 120.0
194.955444 176.0
195.071045 260.0
195.102036 256.0
195.142319 124.0
195.328003 112.0
195.418976 80.0
195.91272 184.0
195.943237 204.0
196.029617 160.0
196.073242 1028.0
196.129944 48.0
196.292603 108.0
196.433884 76.0
196.523163 76.0
197.042465 144.0
197.061371 136.0
197.098343 100.0
197.218521 56.0
197.238083 140.0
197.257645 96.0
197.280014 100.0
197.341522 52.0
197.520493 152.0
197.735947 32.0
197.800323 220.0
198.084549 232.0
198.368958 112.0
198.988953 116.0
199.474731 96.0
200.031937 104.0
200.088242 124.0
200.116394 40.0
200.603775 32.0
201.331726 112.0
201.450348 64.0
201.56337 56.0
201.797958 92.0
201.947845 48.0
202.103485 444.0
203.092117 136.0
203.178452 92.0
203.48941 116.0
203.517807 52.0
203.600418 132.0
203.631393 196.0
204.120605 280.0
204.182755 112.0
204.433105 64.0
204.803223 36.0
204.826004 136.0
205.153702 80.0
205.236389 96.0
205.353302 116.0
205.5961 156.0
205.635773 64.0
205.906998 136.0
205.952698 192.0
206.097794 8632.0
206.146973 108.0
206.206985 28.0
206.275574 28.0
206.304169 72.0
206.361343 48.0
206.412811 48.0
206.564392 92.0
206.641632 36.0
206.713165 100.0
206.830505 52.0
206.87059 32.0
207.022339 44.0
207.070343 196.0
207.10112 976.0
207.159805 112.0
207.320267 68.0
207.638489 148.0
208.073471 260.0
208.206726 116.0
208.381943 80.0
208.660736 140.0
208.723984 148.0
208.864914 76.0
209.084274 112.0
209.12674 196.0
209.423309 244.0
209.512604 60.0
209.708542 72.0
210.089172 132.0
211.262039 156.0
211.455917 148.0
212.081528 160.0
212.165588 52.0
214.077454 172.0
214.266785 100.0
214.940292 52.0
215.080383 160.0
215.197159 32.0
216.718063 156.0
217.146057 160.0
218.035629 188.0
218.065018 56.0
218.179657 52.0
218.409027 116.0
218.597321 120.0
218.667953 116.0
218.776855 120.0
219.230453 52.0
219.504593 60.0
220.08606 360.0
220.113968 160.0
220.96666 52.0
221.093994 140.0
221.318878 140.0
221.890701 72.0
222.006348 180.0
222.065231 140.0
222.08345 396.0
222.123886 108.0
222.163544 124.0
222.623596 96.0
223.738602 140.0
224.054291 36.0
224.093018 100.0
224.438766 132.0
224.689301 112.0
224.781799 76.0
224.90416 44.0
225.268448 220.0
225.289368 52.0
225.319244 148.0
225.352097 96.0
225.540375 96.0
226.093689 64.0
226.189453 128.0
226.785522 120.0
226.863464 64.0
227.022369 104.0
227.085342 120.0
227.394379 60.0
227.565475 56.0
227.598511 136.0
228.160355 144.0
228.921585 48.0
230.067337 168.0
231.57016 40.0
231.921631 56.0
232.088364 152.0
233.099152 140.0
233.235916 36.0
233.269348 108.0
233.905106 80.0
234.105286 128.0
234.116959 172.0
234.697205 156.0
234.727692 136.0
235.105957 152.0
235.200577 144.0
235.273834 108.0
235.322693 116.0
236.094955 164.0
236.7323 100.0
236.802734 96.0
239.847656 124.0
240.64357 108.0
240.8134 64.0
241.329483 124.0
241.382034 80.0
243.784454 156.0
244.051788 136.0
244.104645 52.0
245.131897 112.0
245.945892 192.0
247.105255 84.0
248.082367 84.0
248.66893 44.0
250.076294 144.0
251.211334 60.0
252.08519 104.0
252.601257 100.0
253.1203 84.0
253.291321 148.0
254.042603 68.0
255.055557 52.0
255.554855 56.0
255.914505 96.0
256.003662 116.0
256.618652 40.0
257.403564 84.0
257.876373 112.0
258.960999 132.0
259.34549 64.0
259.970398 236.0
261.426636 204.0
261.725983 92.0
261.912781 136.0
262.002991 124.0
263.477325 124.0
264.499176 124.0
264.570404 172.0
264.73877 188.0
264.861847 64.0
265.266876 60.0
266.233765 116.0
266.402679 120.0
266.688599 84.0
267.104797 64.0
268.10437 68.0
268.844635 116.0
269.308228 96.0
269.533661 120.0
269.644775 56.0
269.736267 144.0
269.961884 40.0
270.154846 112.0
270.252991 192.0
270.289001 124.0
270.318451 100.0
271.307587 80.0
271.352051 120.0
272.11792 36.0
272.301819 164.0
273.488739 144.0
274.688141 112.0
274.760712 48.0
275.351562 48.0
275.876953 72.0
276.287018 92.0
276.657654 124.0
276.829834 72.0
276.94574 152.0
277.025238 88.0
277.12796 84.0
277.296967 104.0
277.585358 96.0
280.634491 96.0
281.959717 184.0
282.724548 172.0
282.852753 140.0
283.395264 88.0
283.884644 104.0
284.079193 84.0
284.176483 164.0
284.871429 120.0
284.975555 116.0
286.061829 192.0
287.052368 156.0
287.774445 120.0
288.27774 128.0
288.510956 76.0
288.8862 92.0
289.217957 64.0
289.756378 64.0
290.308868 64.0
291.05542 116.0
291.758698 92.0
292.571777 120.0
292.782898 76.0
293.334839 88.0
293.47464 68.0
294.03067 124.0
294.085266 52.0
294.788788 60.0
295.773773 60.0
295.975769 76.0
296.359375 136.0
296.62326 76.0
297.130798 88.0
299.320221 36.0
299.523407 80.0
299.664673 108.0
300.516266 68.0
300.699158 124.0
301.023682 56.0
301.434753 124.0
302.416901 152.0
302.776978 60.0
303.109528 44.0
303.140717 128.0
303.782135 60.0
303.88623 112.0
304.122192 184.0
304.611786 72.0
307.298279 76.0
307.987091 156.0
308.147797 108.0
308.892426 120.0
310.412415 96.0
310.468536 128.0
310.900024 76.0
311.093079 56.0
311.683105 128.0
313.199402 116.0
313.343811 156.0
313.994385 228.0
314.119385 88.0
316.296082 156.0
316.377502 132.0
316.589935 100.0
317.110748 48.0
317.135529 172.0
317.500732 116.0
317.706451 164.0
319.813629 128.0
320.258698 52.0
321.502991 92.0
321.606476 120.0
321.967072 68.0
322.435089 104.0
322.524445 188.0
323.046387 120.0
323.205414 124.0
323.450867 68.0
323.90921 104.0
324.134918 60.0
325.656006 56.0
326.051208 96.0
326.720001 104.0
330.02005 116.0
330.240631 72.0
330.508331 216.0
331.884735 36.0
332.029785 64.0
332.116821 148.0
333.253082 100.0
333.729218 136.0
334.063812 164.0
335.34552 40.0
335.870575 172.0
336.589539 44.0
337.59079 92.0
337.96756 56.0
340.122894 168.0
341.389954 116.0
341.522369 144.0
341.882904 56.0
342.122559 152.0
342.221558 28.0
342.810913 152.0
343.028381 84.0
343.083679 64.0
343.120544 60.0
343.581543 88.0
343.736481 40.0
344.153595 52.0
344.60788 172.0
345.317657 56.0
345.713501 100.0
345.894867 140.0
346.282928 84.0
347.733276 32.0
349.278961 64.0
350.947357 180.0
351.413574 64.0
351.932373 40.0
353.105743 84.0
353.521027 104.0
353.966461 100.0
354.494659 44.0
355.068237 120.0
355.244507 112.0
355.483154 112.0
355.676056 96.0
356.235535 44.0
356.652649 84.0
356.957153 60.0
357.058716 128.0
357.179047 60.0
357.205383 132.0
357.258057 164.0
357.506378 148.0
357.532715 112.0
357.634338 96.0
357.758759 224.0
357.924225 72.0
357.98999 156.0
358.05603 108.0
358.136505 19456.0
358.222412 68.0
358.249908 40.0
358.280029 68.0
358.357147 64.0
358.371613 36.0
358.410126 72.0
358.462891 36.0
358.536591 72.0
358.576599 140.0
358.632477 56.0
358.670166 64.0
358.704102 28.0
358.807526 156.0
358.881287 44.0
358.929199 68.0
358.969543 88.0
359.005707 108.0
359.069824 64.0
359.13739 3364.0
359.216919 40.0
359.303894 160.0
359.439514 136.0
359.595612 132.0
359.637299 88.0
359.688599 52.0
359.813202 64.0
359.937775 184.0
360.026672 52.0
360.066193 156.0
360.132782 4912.0
360.28479 64.0
360.368378 48.0
360.447723 80.0
360.5625 140.0
360.723633 68.0
360.865753 80.0
361.132294 704.0
361.188721 64.0
361.222778 64.0
361.302216 56.0
361.328705 152.0
361.444336 128.0
361.544373 52.0
361.760101 72.0
361.81311 48.0
361.88504 68.0
362.032501 68.0
362.13797 76.0
362.691956 44.0
362.983887 124.0
363.025604 60.0
363.283508 36.0
363.523132 128.0
363.558777 44.0
363.879333 76.0
363.905914 104.0
364.335052 52.0
364.422455 96.0
364.479431 44.0
364.829102 48.0
365.45282 136.0
365.894318 152.0
366.762848 60.0
368.308197 68.0
369.967773 48.0
370.611206 56.0
370.645691 88.0
372.060944 128.0
372.6716 112.0
372.817627 76.0
373.475067 96.0
374.13269 152.0
374.818665 100.0
375.103851 36.0
375.184784 96.0
375.292755 108.0
375.572815 100.0
375.690002 112.0
375.720856 140.0
375.933685 172.0
376.029541 96.0
376.146698 8740.0
376.231476 208.0
376.295898 48.0
376.384705 60.0
376.502045 72.0
376.709137 124.0
376.743896 88.0
376.778656 96.0
376.80957 100.0
376.91153 112.0
376.975708 40.0
377.148041 1616.0
377.350647 64.0
377.439575 40.0
377.489838 72.0
377.578796 48.0
377.617462 96.0
377.861176 36.0
378.053894 212.0
378.142853 2992.0
378.325562 128.0
378.444366 188.0
378.743774 72.0
378.871613 48.0
378.906494 72.0
378.99173 60.0
379.144836 668.0
379.483948 72.0
379.526611 112.0
379.658447 48.0
379.902802 88.0
380.729553 92.0
381.331726 68.0
382.580353 32.0
384.357605 40.0
384.775238 36.0
384.84549 52.0
385.56427 56.0
385.724518 108.0
388.524445 76.0
389.274109 40.0
391.106171 40.0
392.421936 92.0
395.859589 44.0
397.34201 72.0
398.028656 44.0
402.069183 80.0
403.211365 48.0
404.551331 84.0
407.298157 56.0
410.038147 100.0
411.906281 72.0
412.374969 92.0
412.718597 116.0
416.081421 40.0
417.605255 52.0
419.502747 116.0
420.787811 84.0
422.038055 116.0
423.621887 112.0
430.197418 92.0
433.133362 52.0
437.052429 48.0
437.214691 132.0
439.364746 64.0
439.748657 56.0
440.52948 168.0
441.888184 84.0
441.992767 60.0
447.356506 76.0
448.211487 56.0
450.004059 88.0
450.147644 64.0
455.348114 80.0
456.997467 88.0
467.782349 88.0
469.328979 72.0
471.133057 88.0
479.320251 100.0
485.992767 96.0
486.466736 128.0
494.086304 36.0
498.151489 60.0
500.223694 88.0
509.134766 144.0
511.018188 64.0
516.160156 68.0
520.196899 60.0
524.308655 136.0
524.72345 68.0
526.370605 64.0
531.153198 88.0
532.773621 72.0
534.879761 56.0
536.828613 56.0
547.794739 68.0
548.913269 124.0
551.836243 96.0
555.953613 72.0
560.321777 100.0
560.401917 68.0
561.976685 60.0
568.57312 52.0
574.139282 36.0
575.652039 108.0
576.602722 144.0
580.504333 68.0
581.502197 56.0
582.87085 112.0
585.771973 92.0
586.147766 92.0
591.740967 80.0
592.47229 64.0
594.135132 168.0
599.488403 44.0
603.931213 68.0
607.953491 56.0
608.400146 112.0
608.866638 76.0
609.259583 48.0
613.265076 72.0
618.881958 52.0
621.623047 60.0
623.753723 72.0
627.302917 160.0
630.557251 60.0
640.532043 176.0
652.708862 88.0
653.303955 160.0
654.520325 40.0
655.702209 116.0
655.839844 56.0
657.471863 156.0
665.32373 84.0
672.210449 168.0
672.411682 56.0
675.962036 100.0
677.504944 52.0
679.25708 88.0
680.097656 68.0
680.450684 116.0
681.957092 120.0
682.185852 92.0
682.393799 124.0
682.690186 112.0
682.846191 44.0
684.417786 52.0
684.641663 60.0
690.188721 108.0
698.57489 120.0
700.243469 80.0
706.519592 76.0
708.038757 120.0
708.594971 52.0
718.89447 96.0
725.124817 92.0
734.253845 76.0
739.397095 64.0
740.490723 96.0
743.78186 152.0
743.906738 72.0
747.248962 104.0
748.293945 40.0
750.3479 156.0
752.26825 148.0
752.475708 56.0
755.465088 68.0
756.307739 144.0
759.820374 64.0
760.122131 164.0
764.127686 140.0
766.241821 104.0
771.888245 64.0
778.699097 212.0
780.944519 172.0
781.078003 48.0
783.131897 44.0
789.807495 132.0
791.648804 112.0
800.448303 168.0
800.988953 184.0
811.041199 40.0
813.815308 200.0
813.906189 84.0
817.868652 172.0
820.34082 60.0
820.922363 148.0
822.348633 80.0
823.421997 128.0
826.732117 40.0
830.352783 160.0
833.108032 224.0
835.367188 240.0
837.007507 132.0
837.900208 160.0
841.458679 84.0
843.122253 136.0
845.591736 268.0
845.809082 168.0
848.650391 144.0
850.559021 220.0
852.202515 72.0
853.312622 176.0
854.627075 60.0
856.501648 208.0
858.384094 172.0
861.348938 92.0
862.494202 184.0
862.885864 172.0
863.464783 52.0
864.348083 92.0
864.646545 108.0
865.067993 116.0
865.395813 136.0
870.350342 80.0
870.890625 84.0
871.090393 32.0
872.271484 56.0
873.871094 144.0
874.424255 168.0
875.012878 156.0
875.104187 180.0
876.67395 156.0
879.416321 28.0
880.195618 56.0
880.262146 192.0
884.30426 132.0
884.487732 60.0
884.541016 188.0
884.718567 104.0
885.701599 128.0
889.419373 192.0
893.406677 140.0
893.519714 44.0
895.692566 100.0
898.017151 80.0
898.339233 164.0
898.900085 100.0
899.371582 124.0
903.596497 108.0
904.051208 44.0
904.170898 184.0
905.518005 140.0
906.24884 172.0
906.410583 188.0
907.249695 148.0
909.649231 196.0
910.069458 52.0
912.003845 240.0
912.337646 160.0
912.56897 92.0
913.260498 48.0
914.391663 164.0
915.661987 168.0
917.34906 180.0
917.722839 52.0
918.585266 80.0
919.985291 148.0
920.601135 144.0
922.425781 164.0
925.039001 172.0
925.789795 140.0
927.983276 192.0
929.675659 140.0
930.914062 64.0
930.956543 68.0
931.977051 104.0
932.019592 84.0
932.84613 172.0
932.967712 220.0
933.910217 176.0
934.871521 196.0
936.222961 48.0
937.453552 192.0
937.64856 64.0
938.056946 124.0
938.617798 220.0
941.980652 112.0
942.133362 200.0
942.952148 200.0
944.829407 64.0
947.063721 156.0
947.39447 152.0
948.877625 88.0
949.355896 140.0
949.920105 188.0
952.535156 148.0
953.481323 176.0
954.507935 28.0
954.741638 140.0
955.584351 124.0
955.762756 116.0
955.96582 124.0
956.125854 168.0
956.335083 120.0
957.701965 148.0
959.254761 132.0
961.092651 168.0
962.882812 88.0
963.154602 172.0
963.846497 80.0
964.328552 140.0
964.41095 228.0
965.249695 56.0
965.478516 60.0
967.130432 184.0
967.179932 132.0
967.52655 192.0
968.659851 132.0
970.463257 164.0
971.728516 116.0
971.902283 180.0
971.95813 184.0
972.001526 164.0
972.498047 48.0
972.938721 196.0
973.23053 196.0
973.89502 140.0
974.168335 212.0
974.447937 136.0
974.789673 168.0
975.529297 144.0
976.368652 232.0
977.301758 44.0
977.828369 184.0
979.293823 212.0
979.817078 144.0
980.583496 160.0
982.373047 212.0
982.828491 164.0
984.014404 52.0
985.24469 216.0
985.294678 136.0
988.652405 216.0
989.628906 224.0
990.480652 84.0
991.802734 140.0
992.479797 44.0
993.63385 96.0
994.047974 72.0
994.750916 152.0
994.914124 188.0
995.661316 48.0
997.841797 168.0
997.967529 168.0
999.080688 120.0
1000.402283 204.0
1001.164124 144.0
1002.140503 196.0
1002.695007 148.0
1002.839966 32.0
1003.955872 144.0
1004.756958 180.0
1005.293274 196.0
1007.098877 168.0
1008.950378 184.0
1009.064209 204.0
1009.383728 96.0
1009.462524 100.0
1009.639587 56.0
1010.759277 144.0
1011.987244 76.0
1012.519165 172.0
1013.108215 192.0
1013.222229 184.0
1013.450317 160.0
1014.090393 56.0
1014.255188 60.0
1014.426331 116.0
1015.688232 60.0
1015.7453 128.0
1015.986328 144.0
1016.519348 140.0
1016.830261 180.0
1017.826965 184.0
1017.877747 204.0
1018.773254 176.0
1018.830444 192.0
1018.938477 144.0
1019.008362 148.0
1019.237061 132.0
1019.899231 148.0
1020.533752 132.0
1021.322327 136.0
1022.976746 104.0
1023.613403 124.0
1024.358643 212.0
1024.447754 208.0
1025.046631 156.0
1027.271729 60.0
1027.724731 148.0
1028.114014 196.0
1028.694824 132.0
1033.47522 132.0
1034.160034 180.0
1034.339233 132.0
1034.451294 176.0
1034.512573 192.0
1035.3573 44.0
1036.183594 96.0
1036.279663 184.0
1037.253784 176.0
1037.516602 220.0
1037.920532 112.0
1038.005615 216.0
1038.182007 164.0
1038.77356 212.0
1040.801514 148.0
1041.013428 184.0
1041.084106 132.0
1041.544678 176.0
1041.623657 172.0
1041.724243 148.0
1041.943237 184.0
1042.439575 172.0
1043.210815 164.0
1043.352295 164.0
1044.792847 188.0
1045.449097 76.0
1046.04126 244.0
1046.466187 176.0
1046.601318 140.0
1047.213135 140.0
1048.198853 136.0
1049.084473 196.0
1049.339722 248.0
1049.520264 140.0
1050.068359 108.0
1050.119263 188.0
1050.261841 196.0
1050.868286 236.0
1051.313477 180.0
1051.623291 56.0
1051.720093 88.0
1052.404419 208.0
1052.533569 76.0
1053.573364 52.0
1053.844727 124.0
1054.355225 160.0
1054.697754 204.0
1055.609375 184.0
1056.275513 176.0
1056.503174 164.0
1059.764893 176.0
1060.140747 32.0
1060.374023 84.0
1060.71106 204.0
1061.696655 204.0
1061.86853 232.0
1061.949585 128.0
1062.170044 240.0
1064.123413 112.0
1064.552002 56.0
1064.610474 64.0
1064.865234 180.0
1065.130005 260.0
1065.422363 156.0
1066.156616 172.0
1066.202148 44.0
1067.203125 104.0
1067.664795 132.0
1068.217651 36.0
1069.12854 152.0
1069.642822 160.0
1069.805542 224.0
1069.851074 148.0
1069.896606 152.0
1070.280762 272.0
1070.625977 132.0
1071.759399 80.0
1071.922241 136.0
1072.261108 156.0
1072.958618 92.0
1073.610596 108.0
1073.891113 140.0
1074.054199 140.0
1074.282471 228.0
1074.552246 220.0
1074.836426 172.0
1075.091553 112.0
1075.2677 164.0
1076.599609 156.0
1077.259277 144.0
1077.337646 104.0
1077.540161 244.0
1077.762329 136.0
1077.814575 40.0
1078.664185 204.0
1078.85376 172.0
1079.174072 108.0
1079.435669 160.0
1080.01123 176.0
1080.560669 212.0
1080.613037 184.0
1080.809326 160.0
1081.19458 172.0
1081.394897 180.0
1081.522583 148.0
1081.692871 64.0
1081.771362 212.0
1082.00708 172.0
1082.773193 136.0
1082.845581 228.0
1083.277466 128.0
1083.505127 168.0
1085.105957 88.0
1085.368164 192.0
1085.500488 200.0
1086.279785 364.0
1086.673462 136.0
1087.250854 208.0
1087.316528 36.0
1087.506836 172.0
1087.848145 208.0
1088.420044 160.0
1088.511353 28.0
1088.93103 128.0
1089.056396 284.0
1089.174683 68.0
1089.634521 180.0
1090.712158 40.0
1091.15271 164.0
1091.257812 160.0
1091.816772 148.0
1092.606079 124.0
1092.777222 160.0
1093.454956 100.0
1093.915649 148.0
1094.409424 76.0
1094.725586 112.0
1094.78479 404.0
1094.876953 168.0
1095.548828 164.0
1095.832153 144.0
1095.930908 84.0
1095.983643 128.0
1097.433716 200.0
1097.552368 148.0
1098.528564 196.0
1098.673706 136.0
1099.069458 148.0
1099.373047 152.0
1100.121216 128.0
1100.297119 148.0
1100.785767 228.0
1100.851807 124.0
1100.977295 148.0
1102.556152 180.0
1102.628906 136.0
1102.681763 172.0
1103.719604 176.0
1103.881104 216.0
1104.017212 160.0
1104.103149 132.0
1104.222168 144.0
1104.519897 144.0
1104.804321 96.0
1105.095459 212.0
1105.763794 116.0
1105.876221 152.0
1105.942505 88.0
1106.021851 108.0
1106.16748 184.0
1107.538208 300.0
1108.41272 124.0
1108.869995 104.0
1108.916382 140.0
1109.078003 220.0
1109.254395 256.0
1109.440063 232.0
1109.552734 56.0
1109.619019 208.0
1110.049927 48.0
1110.096436 152.0
1110.209106 140.0
1111.078003 184.0
1111.296997 200.0
1111.728271 140.0
1112.126465 52.0
1112.923096 60.0
1113.155518 144.0
1113.268433 220.0
1113.341553 116.0
1113.466064 48.0
1113.852905 96.0
1113.952515 168.0
1114.081787 164.0
1114.769775 104.0
1115.042236 176.0
1115.22168 216.0
1115.394531 96.0
1115.773438 128.0
1116.591309 136.0
1116.651123 64.0
1116.877319 72.0
1117.180664 168.0
1117.362915 44.0
1117.595825 200.0
1117.782104 108.0
1117.968384 180.0
1118.054932 136.0
1118.154785 128.0
1118.267944 224.0
1118.634033 192.0
1118.773804 44.0
1119.126709 168.0
1119.173218 120.0
1119.432983 144.0
1119.579468 196.0
1119.752686 176.0
1121.185059 160.0
1122.484985 144.0
1122.678345 176.0
1123.071777 184.0
1123.191895 168.0
1123.331909 204.0
1123.97998 224.0
1124.05249 172.0
1124.4729 92.0
1124.695435 140.0
1125.207275 212.0
1125.514404 164.0
1126.703247 208.0
1126.790039 208.0
1126.963745 140.0
1127.124146 156.0
1127.217651 152.0
1127.264404 152.0
1127.356812 192.0
1127.825806 64.0
1128.449463 156.0
1128.741699 308.0
1129.256714 136.0
1129.47583 164.0
1129.564331 40.0
1129.711548 140.0
1130.026001 128.0
1130.179932 156.0
1130.675049 144.0
1130.862427 136.0
1131.083374 152.0
1131.337769 136.0
1131.474976 328.0
1131.558594 168.0
1131.799683 176.0
1131.987183 164.0
1132.342163 172.0
1132.415771 268.0
1132.516235 160.0
1132.823608 176.0
1133.052124 132.0
1133.371704 160.0
1133.487671 160.0
1133.581421 124.0
1133.889771 144.0
1133.994873 208.0
1134.204712 168.0
1134.590332 160.0
1134.955566 196.0
1135.109863 56.0
1135.311035 136.0
1135.639648 112.0
1135.860962 192.0
1135.914673 120.0
1136.243408 220.0
1136.397705 124.0
1136.525146 120.0
1136.578857 152.0
1136.800293 136.0
1137.156006 116.0
1137.331299 156.0
1137.94812 84.0
1138.089111 36.0
1138.53894 172.0
1138.700195 88.0
1139.674194 136.0
1140.857056 184.0
1141.435303 192.0
1142.447388 208.0
1142.726807 120.0
1143.139771 172.0
1143.211182 132.0
1143.466919 156.0
1143.574585 204.0
1143.87085 184.0
1143.931519 184.0
1144.106445 132.0
1144.328613 172.0
1144.584473 128.0
1144.936646 176.0
1145.170288 132.0
1145.251221 168.0
1145.338745 28.0
1145.446533 128.0
1145.588013 104.0
1145.953735 96.0
1146.219604 204.0
1146.369507 248.0
1146.537964 128.0
1147.050293 188.0
1147.198608 40.0
1147.31311 164.0
1147.43457 120.0
1147.623291 136.0
1147.690674 156.0
1147.960449 140.0
1148.965454 176.0
1149.039673 88.0
1149.140869 80.0
1149.25 196.0
1149.532227 160.0
1149.579468 140.0
1150.861938 212.0
1151.057739 156.0
1151.665649 108.0
1151.881714 200.0
1151.976318 164.0
1152.489746 148.0
1152.726318 156.0
1152.983032 164.0
1153.38855 100.0
1153.442627 172.0
1153.557617 160.0
1153.699585 36.0
1154.007446 252.0
1154.078125 116.0
1154.281006 92.0
1154.666504 32.0
1154.889648 128.0
1155.126465 188.0
1155.207642 124.0
1155.396973 196.0
1155.541504 172.0
1155.660889 140.0
1155.958618 148.0
1156.330811 108.0
1156.621826 152.0
1156.818115 148.0
1156.919678 104.0
1157.041504 76.0
1157.508423 172.0
1157.752563 112.0
1158.016602 360.0
1158.307861 184.0
1158.666992 132.0
1159.358032 92.0
1159.696899 56.0
1159.987671 172.0
1160.252808 76.0
1160.361328 152.0
1160.585083 184.0
1160.734253 144.0
1161.283569 212.0
1161.535278 144.0
1161.63623 112.0
1161.687744 136.0
1162.484375 200.0
1162.905151 172.0
1162.99292 200.0
1163.018188 188.0
1163.210571 136.0
1163.298828 188.0
1163.43457 144.0
1163.488892 184.0
1163.801147 164.0
1163.903076 172.0
1165.111938 144.0
1165.431274 148.0
1165.540039 152.0
1166.511963 220.0
1166.675049 88.0
1166.895508 204.0
1167.327759 164.0
1167.593018 228.0
1167.729004 180.0
1167.885498 164.0
1168.104614 180.0
1168.157593 144.0
1168.484131 160.0
1169.082886 160.0
1169.457153 132.0
1169.606934 200.0
1170.028931 240.0
1170.267334 176.0
1170.927856 176.0
1171.13208 128.0
1171.370483 92.0
1171.724731 188.0
1171.929199 168.0
1172.276733 176.0
1172.556152 44.0
1172.610596 76.0
1172.740112 112.0
1172.801514 80.0
1172.862793 196.0
1172.965088 112.0
1173.121826 168.0
1173.360474 164.0
1173.435425 152.0
1173.510498 152.0
1174.854004 48.0
1174.901733 160.0
1174.963135 180.0
1175.045044 144.0
1175.379395 152.0
1175.454224 160.0
1175.638672 108.0
1175.801147 192.0
1176.2052 176.0
1176.65564 164.0
1176.737671 172.0
1177.039917 192.0
1177.625366 196.0
1177.796143 216.0
1178.356323 68.0
1178.643311 160.0
1178.916626 136.0
1179.10791 160.0
1179.490723 184.0
1179.561157 412.0
1179.647949 180.0
1179.72998 96.0
1179.825684 156.0
1179.914551 160.0
1179.969238 160.0
1180.126465 144.0
1180.187988 52.0
1180.317993 276.0
1180.523071 84.0
1180.605103 160.0
1180.768066 140.0
1181.022339 148.0
1181.497559 128.0
1181.562744 356.0
1181.685913 104.0
1181.843262 64.0
1182.004761 180.0
1182.678223 160.0
1183.027344 140.0
1183.191528 204.0
1183.266846 152.0
1183.427246 204.0
1183.513428 132.0
1184.061157 156.0
1184.16394 72.0
1184.314575 44.0
1184.91748 132.0
1185.088745 136.0
1185.45874 224.0
1185.782227 124.0
1186.082397 176.0
1186.459473 136.0
1186.788574 164.0
1186.925659 168.0
1187.076538 152.0
1187.199951 188.0
1187.401245 176.0
1187.645752 136.0
1187.776123 172.0
1187.981934 220.0
1188.544434 152.0
1188.79834 196.0
1188.867065 180.0
1189.285645 108.0
1189.450439 136.0
1189.642578 228.0
1189.766113 172.0
1189.924072 184.0
1190.082031 212.0
1190.2948 180.0
1190.370361 180.0
1190.703247 172.0
1190.830566 148.0
1190.883423 120.0
1191.304443 152.0
1191.524292 44.0
1191.80603 160.0
1192.54126 192.0
1192.699463 196.0
1192.90564 148.0
1193.235596 160.0
1193.758179 116.0
1194.019531 172.0
1194.110596 132.0
1194.363403 68.0
1194.575928 168.0
1194.913696 132.0
1195.718872 144.0
1195.86084 368.0
1195.973511 100.0
1196.283203 76.0
1196.393433 176.0
1196.689453 132.0
1196.999268 80.0
1197.116333 220.0
1197.205933 184.0
1197.488281 164.0
1197.949707 184.0
1198.061401 196.0
1199.0177 120.0
1199.358887 228.0
1199.41748 124.0
1199.624268 160.0
1199.920776 124.0
1200.706787 148.0
1200.775757 168.0
1200.934448 184.0
1201.153198 168.0
1201.317627 256.0
1202.01062 100.0
1202.224609 100.0
1202.341919 192.0
1202.680054 124.0
1203.039062 168.0
1203.315186 176.0
1203.508545 140.0
1203.826172 100.0
1203.950439 144.0
1204.033325 112.0
1204.316528 204.0
1204.779297 100.0
1204.896729 188.0
1205.142944 188.0
1205.477173 132.0
1205.525513 144.0
1205.864136 160.0
1205.947632 156.0
1206.043823 52.0
1206.12146 232.0
1206.278931 156.0
1207.011719 104.0
1207.067017 160.0
1207.302124 176.0
1207.473633 168.0
1207.558105 176.0
1207.744751 136.0
1207.890015 196.0
1208.796387 148.0
1209.419312 60.0
1209.495361 136.0
1209.606201 228.0
1210.201538 176.0
1210.457764 76.0
1210.540771 140.0
1210.921753 200.0
1211.063843 164.0
1211.191895 176.0
1211.50354 68.0
1211.627441 160.0
1211.701538 220.0
1212.369629 152.0
1212.461548 156.0
1213.04895 52.0
1213.125122 180.0
1213.353882 168.0
1213.744263 120.0
1214.144409 184.0
1214.428711 96.0
1214.692383 100.0
1214.907349 204.0
1215.004517 184.0
1215.094727 76.0
1215.171021 160.0
1216.114746 188.0
1216.211914 168.0
1216.28833 64.0
1216.489624 160.0
1216.62146 156.0
1216.670166 144.0
1216.836792 120.0
1216.927002 136.0
1217.015137 196.0
1217.126099 176.0
1217.239502 156.0
1217.315796 44.0
1217.475586 60.0
1218.003418 52.0
1218.089844 188.0
1218.34375 200.0
1218.392456 112.0
1218.524414 152.0
1218.723511 372.0
1218.816284 152.0
1219.309692 120.0
1219.448608 132.0
1219.810059 160.0
1219.983887 148.0
1220.046387 164.0
1220.185425 56.0
1220.234131 148.0
1220.435791 120.0
1220.644409 68.0
1220.811279 224.0
1220.999023 176.0
1221.42334 72.0
1221.59021 120.0
1221.645874 124.0
1221.708496 120.0
1221.9729 176.0
1222.044067 208.0
1222.411255 256.0
1222.592163 148.0
1223.218628 48.0
1223.49707 124.0
1223.690186 172.0
1224.496826 216.0
1225.224243 64.0
1225.313477 136.0
1225.412354 124.0
1225.46106 240.0
1225.593506 152.0
1225.753662 184.0
1226.032471 172.0
1226.456299 156.0
1226.680664 96.0
1227.719604 160.0
1227.92981 136.0
1228.18689 40.0
1228.291504 196.0
1228.591431 192.0
1228.891479 148.0
1229.01001 116.0
1229.184448 156.0
1229.491577 164.0
1229.679932 100.0
1230.002563 168.0
1230.140625 44.0
1230.259277 152.0
1230.370972 164.0
1230.517578 124.0
1230.776001 140.0
1230.887695 128.0
1230.964478 216.0
1231.348633 104.0
1231.474365 208.0
1231.732788 124.0
1231.977295 124.0
1232.123901 132.0
1232.682983 208.0
1232.829712 180.0
1233.325928 184.0
1233.56604 184.0
1233.968994 52.0
1234.060059 156.0
1234.290649 152.0
1234.381592 200.0
1234.787231 204.0
1234.864136 52.0
1235.052979 88.0
1235.145142 232.0
1235.318726 124.0
1235.682495 156.0
1235.92749 224.0
1236.655273 136.0
1236.732178 224.0
1237.026245 164.0
1237.292236 152.0
1237.369263 176.0
1237.488281 160.0
1237.866333 80.0
1238.076416 136.0
1238.163818 184.0
1238.40564 232.0
1238.454712 212.0
1238.5177 184.0
1238.762939 160.0
1238.860962 68.0
1238.93103 188.0
1239.134155 196.0
1240.129272 156.0
1240.297485 160.0
1240.879272 168.0
1240.949463 192.0
1241.054565 116.0
1241.573486 92.0
1241.720825 140.0
1241.776855 136.0
1241.82605 152.0
1242.30957 136.0
1242.751953 152.0
1242.927368 136.0
1243.025635 124.0
1243.149048 156.0
1243.55896 144.0
1244.022217 168.0
1244.204834 184.0
1244.359253 232.0
1244.592529 196.0
1245.658447 180.0
1245.897339 400.0
1246.459351 164.0
1246.754517 136.0
1247.246582 152.0
1247.408203 172.0
1247.52771 140.0
1247.668335 108.0
1248.202637 136.0
1248.352783 164.0
1248.420654 68.0
1248.519165 116.0
1248.619263 148.0
1248.737183 232.0
1248.997314 200.0
1249.067749 180.0
1249.412354 204.0
1249.588257 224.0
1250.168945 148.0
1250.53125 88.0
1250.615723 136.0
1250.679077 172.0
1250.728271 68.0
1251.080322 204.0
1251.207886 184.0
1251.425293 76.0
1251.728027 136.0
1252.164673 132.0
1252.228027 180.0
1252.296631 196.0
1252.629517 148.0
1253.00293 152.0
1253.136719 140.0
1253.291748 204.0
1253.341064 112.0
1253.575439 140.0
1253.679321 240.0
1253.806152 168.0
1253.975342 144.0
1254.116333 120.0
1254.510986 172.0
1255.018677 136.0
1255.674438 72.0
1256.03418 188.0
1256.448608 216.0
1256.58252 208.0
1257.177124 164.0
1257.275635 164.0
1257.424194 68.0
1257.537109 48.0
1257.727661 212.0
1258.03125 148.0
1258.172974 168.0
1258.235962 168.0
1258.526611 136.0
1258.631104 120.0
1258.701904 84.0
1258.949097 188.0
1259.450562 104.0
1259.627075 196.0
1259.740112 96.0
1260.354858 128.0
1260.689819 220.0
1260.790283 244.0
1260.934326 144.0
1261.174561 220.0
1261.245239 204.0
1261.308838 100.0
1261.443237 148.0
1261.733032 208.0
1261.914551 60.0
1261.980469 148.0
1262.129028 124.0
1262.277466 148.0
1262.489746 192.0
1262.553223 168.0
1262.829102 132.0
1263.138428 148.0
1263.164429 108.0
1263.192871 192.0
1263.515259 100.0
1263.713379 52.0
1263.819458 72.0
1263.911499 64.0
1264.258179 140.0
1264.321899 116.0
1264.463379 60.0
1264.667114 192.0
1264.739502 204.0
1264.789062 132.0
1264.853882 148.0
1264.923462 128.0
1265.224121 140.0
1265.793091 184.0
1266.263672 156.0
1266.415405 180.0
1266.658325 168.0
1267.111816 168.0
1267.246704 248.0
1267.508545 188.0
1267.737183 136.0
1267.852661 172.0
1268.018799 144.0
1268.199219 168.0
1268.401489 152.0
1268.486572 172.0
1268.628418 128.0
1268.800903 156.0
1268.857178 164.0
1268.948975 140.0
1269.195557 96.0
1269.372803 124.0
1269.684814 160.0
1270.067871 200.0
1270.131714 148.0
1270.2948 204.0
1270.394165 96.0
1270.713379 196.0
1270.7771 192.0
1270.876587 204.0
1270.92627 208.0
1271.018555 160.0
1271.352051 120.0
1271.724854 160.0
1271.855957 140.0
1272.494873 180.0
1272.757568 140.0
1272.821411 72.0
1272.942139 64.0
1273.417969 192.0
1273.544312 392.0
1273.638184 156.0
1273.737671 164.0
1273.794434 140.0
1274.178101 172.0
1274.910156 124.0
1275.044922 204.0
1275.414551 176.0
1275.585083 204.0
1275.65625 144.0
1275.741577 136.0
1275.919312 160.0
1275.997437 152.0
1276.369629 228.0
1276.580688 180.0
1276.694336 136.0
1276.827393 212.0
1276.893433 160.0
1277.291748 164.0
1277.341553 72.0
1277.41272 108.0
1277.490967 144.0
1277.579468 184.0
1277.841431 120.0
1277.924927 152.0
1278.209473 156.0
1278.373169 180.0
1278.444336 144.0
1279.059448 176.0
1279.27002 196.0
1279.426636 212.0
1279.526245 168.0
1279.796875 144.0
1279.85376 156.0
1280.01001 136.0
1280.359985 188.0
1280.501831 108.0
1280.558838 116.0
1280.637085 184.0
1280.721191 156.0
1280.740479 124.0
1281.120361 180.0
1281.321045 148.0
1281.698608 160.0
1281.748535 216.0
1281.826904 164.0
1282.047729 128.0
1282.176025 204.0
1282.36853 140.0
1282.453979 28.0
1282.723389 136.0
1282.931641 196.0
1283.309448 72.0
1283.387939 212.0
1283.516235 176.0
1283.723022 164.0
1283.772949 212.0
1283.958374 60.0
1284.129517 152.0
1284.265015 188.0
1284.557495 196.0
1284.73584 100.0
1284.864258 216.0
1285.466064 236.0
1285.617188 164.0
1286.105957 204.0
1286.298706 52.0
1286.53418 220.0
1286.669922 180.0
1286.876953 168.0
1286.92688 208.0
1287.062622 180.0
1287.137817 132.0
1287.381714 352.0
1287.455078 136.0
1287.581909 132.0
1287.676758 100.0
1288.183838 128.0
1288.430908 172.0
1288.483887 192.0
1288.898315 140.0
1288.969727 92.0
1289.034058 192.0
1289.362793 228.0
1289.548584 148.0
1289.627197 208.0
1289.82019 264.0
1289.898804 192.0
1290.020386 204.0
1290.16333 168.0
1290.363525 148.0
1290.470825 236.0
1290.817017 124.0
1290.942749 144.0
1291.057129 124.0
1291.142944 180.0
1291.221558 160.0
1291.34314 188.0
1291.443359 156.0
1291.608032 208.0
1291.66748 224.0
1291.715088 168.0
1291.843872 172.0
1291.958374 148.0
1292.395142 236.0
1292.559326 124.0
1292.609497 160.0
1293.074585 252.0
1293.174805 156.0
1294.145508 276.0
1294.270142 160.0
1294.563721 144.0
1294.835815 188.0
1295.294189 144.0
1295.444702 220.0
1295.516357 120.0
1295.831543 152.0
1296.153931 204.0
1296.361816 60.0
1296.433472 104.0
1296.583984 156.0
1296.677124 220.0
1296.927979 160.0
1297.300659 216.0
1297.496704 164.0
1297.730835 116.0
1297.967529 132.0
1298.042114 184.0
1298.12439 168.0
1298.23999 176.0
1298.885498 108.0
1299.028931 60.0
1299.3302 144.0
1299.452148 176.0
1299.559814 128.0
1299.641113 148.0
1299.703369 88.0
1299.918579 132.0
1300.109375 160.0
1301.062988 156.0
1301.397217 172.0
1301.756348 192.0
1301.99353 196.0
1302.187134 220.0
1302.232666 208.0
1302.309326 40.0
1302.359619 172.0
1302.517578 300.0
1302.71875 192.0
1303.142578 192.0
1303.509033 88.0
1303.580933 180.0
1303.65271 156.0
1303.7677 144.0
1303.918701 140.0
1304.414673 92.0
1304.55835 48.0
1304.659058 184.0
1304.735229 240.0
1304.853149 104.0
1304.936768 132.0
1305.026489 196.0
1305.270142 108.0
1305.320557 128.0
1305.435547 196.0
1305.557861 120.0
1305.629761 164.0
1305.701782 160.0
1305.823853 184.0
1306.022095 144.0
1306.10437 156.0
1306.399292 132.0
1306.471313 196.0
1306.536011 204.0
1306.766235 292.0
1307.169189 56.0
1307.298706 128.0
1307.442627 152.0
1307.644165 96.0
1307.795288 128.0
1308.004028 176.0
1308.240723 224.0
1308.250122 196.0
1308.752808 108.0
1308.918457 196.0
1309.109009 220.0
1309.192017 300.0
1309.272583 148.0
1309.63855 216.0
1309.703735 184.0
1309.869019 52.0
1309.969971 216.0
1310.064575 120.0
1310.164429 172.0
1310.294067 112.0
1310.358887 72.0
1310.438232 140.0
1310.668701 176.0
1311.057861 144.0
1311.295776 204.0
1311.555176 136.0
1311.742554 172.0
1311.901245 144.0
1312.261719 176.0
1312.340942 168.0
1312.542847 280.0
1312.622192 44.0
1312.860107 144.0
1313.134155 156.0
1313.242432 72.0
1313.307373 40.0
1313.372192 108.0
1313.444336 172.0
1314.158569 196.0
1314.28125 164.0
1314.483276 164.0
1314.548218 140.0
1314.721436 172.0
1314.952393 204.0
1315.48645 204.0
1315.717529 148.0
1316.055908 180.0
1316.345703 184.0
1316.56958 116.0
1316.661011 116.0
1316.807861 72.0
1317.053467 208.0
1317.547241 144.0
1317.63855 192.0
1317.739746 124.0
1317.900024 208.0
1318.028687 60.0
1318.137085 188.0
1318.245483 160.0
1318.404541 64.0
1318.476807 128.0
1318.549072 136.0
1318.635742 128.0
1318.924927 36.0
1319.033325 128.0
1319.134521 192.0
1319.260742 208.0
1319.374146 132.0
1319.442505 192.0
1319.60437 100.0
1320.139526 164.0
1320.255249 128.0
1320.710815 188.0
1320.877197 180.0
1321.188232 224.0
1321.6875 152.0
1321.738159 176.0
1321.97583 216.0
1322.001099 164.0
1322.022095 216.0
1322.290527 144.0
1322.377563 176.0
1322.577637 48.0
1322.628296 192.0
1322.990234 152.0
1323.069824 48.0
1323.207397 72.0
1323.547729 316.0
1323.605713 176.0
1323.667603 232.0
1323.902588 172.0
1323.960449 160.0
1324.098389 104.0
1324.286377 180.0
1324.590576 156.0
1324.684814 236.0
1324.800659 124.0
1325.300659 144.0
1325.423828 44.0
1325.478394 208.0
1325.619385 356.0
1325.668701 184.0
1325.786133 156.0
1326.032471 148.0
1326.329712 164.0
1326.568848 92.0
1326.663086 156.0
1327.40271 136.0
1327.47522 128.0
1327.707275 188.0
1327.931274 144.0
1327.987183 188.0
1328.302002 176.0
1328.514648 292.0
1328.675049 288.0
1328.855835 156.0
1328.925903 76.0
1328.991211 160.0
1329.223389 168.0
1329.45752 200.0
1329.542725 120.0
1329.935669 164.0
1330.508057 128.0
1330.718628 100.0
1330.769409 168.0
1330.849365 164.0
1331.223022 184.0
1331.372192 148.0
1331.430298 152.0
1331.527466 168.0
1331.590088 168.0
1332.018555 196.0
1332.309204 172.0
1332.534424 44.0
1332.59668 180.0
1333.079468 208.0
1333.275513 244.0
1333.391846 188.0
1333.667969 132.0
1333.857056 168.0
1333.992554 272.0
1334.012817 176.0
1334.132446 172.0
1334.287598 216.0
1334.467651 156.0
1334.620361 112.0
1334.765747 128.0
1335.031738 172.0
1335.216675 168.0
1335.463989 152.0
1335.514893 220.0
1335.653076 236.0
1335.963135 172.0
1336.213257 216.0
1336.380127 148.0
1336.729858 56.0
1336.787964 136.0
1337.071533 176.0
1337.151855 44.0
1337.224731 180.0
1337.294556 168.0
1337.41394 148.0
1337.494019 188.0
1337.610474 176.0
1337.682007 420.0
1337.940063 136.0
1338.054565 108.0
1338.194458 180.0
1338.498657 252.0
1338.746216 208.0
1338.804565 128.0
1338.884644 44.0
1339.409058 180.0
1339.569214 168.0
1340.312378 120.0
1340.392578 104.0
1340.494629 188.0
1340.596558 144.0
1340.698608 184.0
1340.821289 144.0
1341.376465 176.0
1341.471191 180.0
1341.733643 200.0
1341.894043 180.0
1342.178467 124.0
1342.338867 176.0
1342.411743 148.0
1342.601318 168.0
1342.951416 144.0
1343.082764 160.0
1343.252808 216.0
1343.323486 200.0
1343.396362 168.0
1343.462036 52.0
1343.629883 164.0
1343.753906 160.0
1343.804932 308.0
1343.935425 184.0
1344.279175 196.0
1344.939575 160.0
1345.417847 124.0
1345.840454 180.0
1345.869629 160.0
1346.126099 36.0
1346.269897 364.0
1346.588135 176.0
1346.696777 160.0
1346.748657 224.0
1346.86377 184.0
1347.186768 164.0
1347.499268 192.0
1347.645874 176.0
1347.798828 88.0
1348.734253 248.0
1348.931641 256.0
1349.125366 176.0
1349.24585 136.0
1349.494629 140.0
1349.918701 156.0
1350.62085 76.0
1350.745117 104.0
1351.042358 96.0
1351.213379 140.0
1351.425537 136.0
1351.64502 64.0
1351.987671 180.0
1352.450073 136.0
1352.508667 36.0
1352.751343 168.0
1353.035645 172.0
1353.16748 72.0
1353.357788 108.0
1353.559326 196.0
1353.681885 244.0
1353.899658 72.0
1354.229248 148.0
1354.407593 208.0
1354.500244 160.0
1354.828003 172.0
1354.97229 160.0
1355.130371 60.0
1355.181641 148.0
1355.339478 140.0
1355.687256 136.0
1356.002319 172.0
1356.119629 128.0
1356.222168 144.0
1356.280884 168.0
1356.368774 144.0
1356.471436 136.0
1356.669312 44.0
1356.728027 116.0
1356.793945 236.0
1357.153198 160.0
1357.54187 72.0
1357.600586 132.0
1357.917725 172.0
1358.27063 184.0
1358.539429 136.0
1358.593506 180.0
1358.678467 180.0
1358.824585 168.0
1358.920898 144.0
1359.019897 192.0
1359.074951 136.0
1359.229004 128.0
1359.280396 52.0
1359.559326 136.0
1359.669312 108.0
1360.19043 168.0
1360.755737 152.0
1360.902588 48.0
1361.262451 140.0
1361.365234 52.0
1361.614868 220.0
1361.717773 192.0
1362.158447 164.0
1362.518433 124.0
1362.94458 356.0
1363.032715 84.0
1363.209106 52.0
1363.413208 144.0
1363.561768 192.0
1364.216064 132.0
1364.374512 200.0
1364.573608 280.0
1364.649292 136.0
1364.782104 116.0
1365.017456 104.0
1365.105713 132.0
1365.304199 196.0
1365.495483 84.0
1365.554321 228.0
1365.730835 140.0
1365.966187 144.0
1366.223633 120.0
1366.401489 72.0
1366.598877 100.0
1366.790161 160.0
1366.871094 168.0
1367.091919 124.0
1367.182007 220.0
1367.246216 172.0
1367.342041 188.0
1367.481934 132.0
1367.584961 168.0
1367.687988 100.0
1367.776367 132.0
1367.864624 148.0
1368.048706 136.0
1368.571411 172.0
1368.674561 144.0
1369.626343 192.0
1369.81604 140.0
1369.956055 180.0
1370.154907 184.0
1370.479126 160.0
1370.528564 116.0
1370.788574 184.0
1370.862305 160.0
1371.098145 48.0
1371.587891 160.0
1371.848389 204.0
1371.91626 80.0
1371.98999 232.0
1372.100586 208.0
1372.329102 172.0
1372.638794 180.0
1372.712524 240.0
1372.904297 160.0
1373.516479 132.0
1373.619751 148.0
1373.789429 136.0
1373.922241 104.0
1374.128784 32.0
1374.187744 204.0
1374.372192 148.0
1374.447021 156.0
1374.574707 128.0
1374.733765 132.0
1374.866699 148.0
1374.933105 104.0
1375.043823 180.0
1375.117554 168.0
1375.7229 152.0
1375.811401 112.0
1375.928833 196.0
1376.165771 72.0
1376.217529 192.0
1376.313477 208.0
1376.518921 136.0
1376.649902 192.0
1376.727051 36.0
1377.088867 48.0
1377.303101 112.0
1377.473022 180.0
1377.578857 132.0
1377.783203 148.0
1378.9729 144.0
1379.217896 144.0
1379.268555 184.0
1379.394287 204.0
1379.574463 140.0
1379.667725 200.0
1379.877197 156.0
1380.288818 148.0
1380.518066 120.0
1380.762085 188.0
1381.006226 124.0
1381.109741 200.0
1381.168945 172.0
1381.338989 136.0
1381.562134 156.0
1381.893921 132.0
1381.997437 120.0
1382.07959 180.0
1382.212036 148.0
1382.367432 120.0
1382.50061 184.0
1382.55603 164.0
1382.633911 240.0
1382.685669 172.0
1382.797363 124.0
1382.974365 176.0
1383.151978 172.0
1383.255615 184.0
1383.374023 204.0
1383.455444 228.0
1383.749634 216.0
1383.88855 140.0
1384.062622 128.0
1384.18103 112.0
1384.432861 236.0
1384.610596 160.0
1384.914185 124.0
1385.152466 176.0
1385.279297 412.0
1385.333496 232.0
1385.558716 192.0
1385.646118 120.0
1385.752563 176.0
1385.936523 136.0
1386.069946 124.0
1386.137695 88.0
1386.358887 148.0
1386.596069 148.0
1386.847046 136.0
1386.929565 164.0
1387.024292 124.0
1387.300293 156.0
1387.439331 164.0
1387.589355 80.0
1387.66687 184.0
1387.861938 188.0
1387.977661 364.0
1388.11145 156.0
1388.276245 176.0
1388.553345 136.0
1388.998413 124.0
1389.183838 100.0
1389.695801 220.0
1389.879395 204.0
1390.010742 80.0
1390.096436 184.0
1390.222656 228.0
1390.400757 200.0
1390.464233 208.0
1390.964844 156.0
1391.276611 228.0
1391.403931 212.0
1391.454712 144.0
1391.655273 152.0
1391.736938 64.0
1391.800415 248.0
1391.87793 48.0
1392.011597 160.0
1392.241821 124.0
1392.316162 32.0
1392.39624 188.0
1392.524048 136.0
1392.895386 164.0
1393.11084 160.0
1393.281738 176.0
1393.556641 108.0
1393.697754 128.0
1393.779541 172.0
1394.143677 96.0
1394.34436 232.0
1394.396362 136.0
1394.466187 164.0
1394.549316 176.0
1394.619263 56.0
1394.682861 240.0
1394.834839 128.0
1395.069458 160.0
1395.139648 108.0
1395.204346 168.0
1395.295776 112.0
1395.49646 188.0
1395.82373 32.0
1396.042847 148.0
1396.455811 116.0
1396.641724 48.0
1396.791626 140.0
1396.848755 120.0
1396.954102 84.0
1397.042725 120.0
1397.147583 244.0
1397.221924 124.0
1397.474976 148.0
1397.690674 136.0
1397.780029 132.0
1397.861816 204.0
1398.047852 156.0
1398.151855 208.0
1398.449829 96.0
1398.746826 212.0
1398.978516 156.0
1399.048584 172.0
1399.179321 176.0
1399.568726 144.0
1399.700439 92.0
1399.938721 196.0
1400.057983 136.0
1400.206055 152.0
1400.318604 168.0
1400.460083 184.0
1400.661255 228.0
1400.84668 156.0
1400.903809 324.0
1400.971191 244.0
1401.095947 216.0
1401.145386 380.0
1401.262695 188.0
1401.421143 148.0
1401.674438 228.0
1401.906006 148.0
1402.004028 196.0
1402.135498 88.0
1402.218506 132.0
1402.449463 128.0
1402.528564 144.0
1402.625 148.0
1402.859497 108.0
1403.008545 184.0
1403.068237 96.0
1403.150269 188.0
1403.217285 48.0
1403.359009 240.0
1403.523071 164.0
1403.836182 120.0
1403.895874 152.0
1403.970459 128.0
1404.268799 164.0
1404.731079 164.0
1404.880371 124.0
1404.94751 92.0
1405.178467 152.0
1405.372803 36.0
1405.454956 232.0
1405.686279 92.0
1405.895142 108.0
1405.954834 128.0
1406.178711 140.0
1406.271851 168.0
1406.335449 132.0
1406.410156 156.0
1406.469849 184.0
1406.522095 164.0
1406.760986 168.0
1406.962524 216.0
1407.179077 128.0
1407.373169 160.0
1407.46521 160.0
1407.537476 140.0
1407.619629 192.0
1407.910767 88.0
1408.134888 140.0
1408.269287 136.0
1408.505005 224.0
1408.605469 44.0
1408.672729 148.0
1409.008789 180.0
1409.061157 188.0
1409.186401 228.0
1409.240479 112.0
1409.524414 208.0
1409.718628 180.0
1410.002686 176.0
1410.069946 232.0
1410.31958 212.0
1410.540771 180.0
1410.608032 116.0
1411.148193 184.0
1411.213623 140.0
1411.430542 140.0
1411.6698 44.0
1412.372803 200.0
1412.495117 176.0
1412.832397 168.0
1412.888916 100.0
1412.960083 168.0
1413.21814 76.0
1413.450073 312.0
1413.866577 228.0
1414.101196 192.0
1414.19104 136.0
1414.28833 124.0
1414.430542 144.0
1414.512817 272.0
1414.685059 44.0
1415.231567 356.0
1415.291504 248.0
1415.362793 156.0
1415.471191 136.0
1415.52356 216.0
1416.085205 260.0
1416.572144 40.0
1416.731201 212.0
1416.931763 196.0
1417.074097 144.0
1417.156494 76.0
1417.42627 160.0
1417.652588 212.0
1417.733521 144.0
1417.93396 172.0
1418.205688 124.0
1418.262329 164.0
1418.430542 160.0
1418.587891 196.0
1418.977783 212.0
1419.19519 156.0
1419.780151 176.0
1420.072632 144.0
1420.147583 220.0
1420.282593 120.0
1420.522583 140.0
1420.620117 132.0
1420.773193 156.0
1421.025269 208.0
1421.092773 132.0
1421.167847 140.0
1421.278198 180.0
1421.453003 172.0
1421.527954 152.0
1421.910767 132.0
1422.053345 164.0
1422.135864 192.0
1422.339722 100.0
1422.443604 172.0
1422.548706 52.0
1422.676392 92.0
1422.766479 144.0
1423.464722 192.0
1423.532349 200.0
1423.862793 52.0
1423.98291 212.0
1424.380981 108.0
1424.749146 200.0
1425.0271 132.0
1425.282593 148.0
1425.341553 212.0
1425.455322 112.0
1425.853638 84.0
1426.071655 196.0
1426.349731 176.0
1426.433838 152.0
1426.515137 120.0
1426.575073 136.0
1426.906006 224.0
1427.165039 192.0
1427.3125 188.0
1427.447388 164.0
1427.518921 132.0
1427.650391 156.0
1427.770752 400.0
1427.972168 168.0
1428.101685 64.0
1428.201538 184.0
1428.310303 284.0
1428.391357 184.0
1428.510132 204.0
1428.830444 132.0
1428.966797 56.0
1429.132324 168.0
1429.230103 128.0
1429.365601 184.0
1429.590576 172.0
1429.674072 216.0
1429.80957 132.0
1429.929932 188.0
1429.990234 152.0
1430.215942 132.0
1430.328857 172.0
1430.471924 200.0
1430.607422 196.0
1430.678711 180.0
1430.727905 228.0
1431.111816 212.0
1431.72937 132.0
1431.925171 204.0
1432.223022 388.0
1432.286621 128.0
1432.595459 136.0
1432.786255 156.0
1432.979736 116.0
1433.047241 188.0
1433.153076 216.0
1433.326294 100.0
1433.583008 172.0
1433.695557 176.0
1433.868896 108.0
1434.057373 160.0
1434.275879 152.0
1434.520874 276.0
1434.637695 176.0
1434.690552 140.0
1434.760864 80.0
1434.886475 168.0
1435.144409 164.0
1435.240845 152.0
1435.46875 148.0
1435.844238 316.0
1435.934692 176.0
1436.040283 152.0
1436.334473 168.0
1436.432861 156.0
1436.922852 120.0
1437.040771 160.0
1437.194458 224.0
1437.277466 104.0
1437.443481 224.0
1437.745361 280.0
1437.839844 192.0
1437.911377 248.0
1438.1604 152.0
1438.437378 184.0
1438.575562 276.0
1438.628418 140.0
1438.924561 128.0
1439.217285 64.0
1439.430176 148.0
1439.821411 152.0
1439.904541 84.0
1440.168823 144.0
1440.30603 180.0
1440.576782 180.0
1440.7052 84.0
1440.818481 172.0
1440.945312 168.0
1441.443481 260.0
1441.596802 120.0
1441.763062 120.0
1441.823486 152.0
1441.876343 116.0
1441.997314 112.0
1442.113281 208.0
1442.186523 184.0
1442.292114 68.0
1442.496216 276.0
1442.881714 184.0
1442.977905 268.0
1442.992676 192.0
1443.229492 156.0
1443.290039 168.0
1443.371338 164.0
1443.8573 160.0
1443.936157 172.0
1444.469849 188.0
1444.540283 156.0
1444.628052 140.0
1445.17334 144.0
1445.26416 88.0
1445.43396 180.0
1445.513916 216.0
1445.687988 192.0
1445.809082 164.0
1445.862061 108.0
1445.945312 168.0
1446.073975 136.0
1446.225342 148.0
1446.376709 100.0
1446.588623 384.0
1446.78186 168.0
1447.142456 160.0
1447.375977 148.0
1447.565308 216.0
1447.86438 140.0
1448.087891 120.0
1448.19397 92.0
1448.368164 72.0
1448.436279 144.0
1448.5271 236.0
1448.824463 152.0
1448.989258 144.0
1449.0802 192.0
1449.178711 184.0
1449.436279 88.0
1449.512085 172.0
1449.656128 60.0
1449.709106 184.0
1449.838013 152.0
1450.254761 148.0
1450.31543 196.0
1450.52771 160.0
1450.608154 176.0
1450.800537 216.0
1450.876343 108.0
1451.000732 236.0
1451.081055 172.0
1451.134155 136.0
1451.415161 140.0
1451.513306 196.0
1451.854492 112.0
1451.953125 164.0
1452.22583 156.0
1452.302002 176.0
1452.430908 32.0
1452.552368 152.0
1452.605469 136.0
1452.749512 152.0
1452.99231 124.0
1453.063965 144.0
1453.11377 192.0
1453.662231 180.0
1453.948853 132.0
1454.373413 128.0
1454.434204 184.0
1454.483398 180.0
1454.63147 52.0
1454.737793 164.0
1454.966309 152.0
1455.238892 208.0
1455.318604 200.0
1455.595703 148.0
1455.732422 144.0
1455.89563 132.0
1456.089355 176.0
1456.226074 368.0
1456.461548 132.0
1456.689331 140.0
1456.750122 324.0
1456.947632 104.0
1457.015991 180.0
1457.115356 156.0
1457.232178 172.0
1457.380737 104.0
1457.623901 160.0
1457.684692 96.0
1457.745483 136.0
1457.825439 180.0
1457.950684 120.0
1458.087402 64.0
1458.186768 160.0
1458.254639 144.0
1458.543457 168.0
1458.638428 132.0
1458.733521 280.0
1458.80957 204.0
1458.923584 192.0
1459.022339 132.0
1459.093994 144.0
1459.159302 120.0
1459.220093 104.0
1459.280884 48.0
1459.474731 196.0
1459.701294 164.0
1459.840942 204.0
1460.071777 124.0
1460.528076 44.0
1460.999756 124.0
1461.12146 188.0
1461.448608 148.0
1461.509399 136.0
1461.737671 204.0
1461.791016 136.0
1462.209595 152.0
1462.268799 244.0
1462.34729 196.0
1462.643433 136.0
1462.788086 168.0
1462.864136 80.0
1463.039185 156.0
1463.35144 96.0
1463.488403 176.0
1463.545776 156.0
1463.910767 152.0
1464.063354 168.0
1464.272217 196.0
1464.579346 196.0
1464.958374 324.0
1465.019287 232.0
1465.103027 164.0
1465.230225 172.0
1465.283813 220.0
1465.360352 156.0
1465.461182 128.0
1465.605957 224.0
1465.88501 336.0
1466.160034 200.0
1466.26123 128.0
1466.409302 236.0
1466.651123 244.0
1466.878662 176.0
1466.939575 208.0
1467.370728 192.0
1467.497192 208.0
1467.575439 212.0
1467.627563 168.0
1467.684082 112.0
1467.862183 168.0
1468.14209 180.0
1468.334961 180.0
1468.418823 184.0
1468.487549 44.0
1468.632446 344.0
1468.693481 100.0
1468.891724 176.0
1468.993774 160.0
1469.097778 148.0
1469.212158 268.0
1469.415649 176.0
1469.606689 284.0
1469.662354 140.0
1470.509399 224.0
1470.608643 188.0
1470.785767 132.0
1470.952026 44.0
1471.074219 188.0
1471.142944 156.0
1471.455933 248.0
1471.524658 132.0
1471.852905 120.0
1472.108887 180.0
1472.181274 168.0
1472.303467 148.0
1472.396362 248.0
1472.582031 152.0
1472.75415 160.0
1472.952759 156.0
1473.118286 112.0
1473.200439 76.0
1473.311768 148.0
1473.411133 196.0
1473.922974 152.0
1474.121704 272.0
1474.717773 156.0
1474.969971 148.0
1475.088501 172.0
1475.199341 188.0
1475.283447 164.0
1475.714111 224.0
1475.792114 120.0
1475.956177 276.0
1476.101562 188.0
1476.170288 136.0
1476.239136 136.0
1476.39978 80.0
1476.476196 192.0
1476.60022 188.0
1476.820435 176.0
1477.088135 152.0
1477.21814 152.0
1477.279297 132.0
1477.480225 212.0
1477.539429 132.0
1477.746094 220.0
1477.82251 132.0
1477.954956 132.0
1478.052124 348.0
1478.373535 352.0
1478.506836 372.0
1478.863281 176.0
1479.103149 188.0
1479.189087 244.0
1479.364258 156.0
1479.88916 56.0
1479.973389 160.0
1480.070435 204.0
1480.164795 168.0
1480.254883 160.0
1480.425171 152.0
1480.693115 336.0
1480.923828 180.0
1480.984253 188.0
1481.091431 196.0
1481.22937 140.0
1481.382568 280.0
1481.573242 324.0
1481.61499 160.0
1481.646851 204.0
1481.852295 148.0
1482.361572 164.0
1482.44751 224.0
1482.53186 120.0
1482.654419 180.0
1482.723389 172.0
1482.884399 200.0
1483.075928 140.0
1483.16748 120.0
1483.382568 156.0
1483.666382 180.0
1483.758179 132.0
1483.920288 172.0
1484.187622 36.0
1484.379272 132.0
1484.609375 328.0
1484.730591 172.0
1484.845947 196.0
1484.860718 168.0
1485.023315 184.0
1485.041748 296.0
1485.10022 156.0
1485.20752 140.0
1485.268921 168.0
1485.486694 196.0
1485.614136 136.0
1485.767578 64.0
1485.922363 160.0
1486.066772 144.0
1486.227905 148.0
1486.373657 112.0
1486.524048 176.0
1486.680664 160.0
1486.795776 92.0
1486.97229 128.0
1487.102783 64.0
1487.471191 144.0
1487.624634 160.0
1487.993164 120.0
1488.131348 132.0
1488.254272 44.0
1488.400146 120.0
1488.679688 168.0
1488.720947 88.0
1488.748779 148.0
1488.851196 132.0
1488.980225 240.0
1489.164429 320.0
1489.292236 176.0
1489.413818 192.0
1489.475342 160.0
1489.590576 64.0
1489.797974 224.0
1489.856934 124.0
1490.097534 168.0
1490.404907 168.0
1490.735352 92.0
1490.881348 120.0
1491.000732 196.0
1491.165894 176.0
1491.219482 208.0
1491.311768 52.0
1491.529175 280.0
1491.696045 180.0
1492.18811 136.0
1492.349487 148.0
1492.472534 156.0
1492.603271 132.0
1492.657104 184.0
1492.787842 108.0
1492.957031 216.0
1493.113037 176.0
1493.51001 172.0
1493.601562 120.0
1493.772339 204.0
1494.103027 220.0
1494.326172 196.0
1494.393066 180.0
1494.464722 184.0
1494.795532 56.0
1494.857178 132.0
1494.970947 132.0
1495.028076 132.0
1495.195679 148.0
1495.265015 72.0
1495.349609 156.0
1495.449707 100.0
1495.50354 140.0
1495.630493 140.0
1495.842285 240.0
1496.150146 192.0
1496.28125 148.0
1496.373413 172.0
1496.427368 168.0
1496.635254 212.0
1496.839233 156.0
1496.935547 48.0
1496.99585 184.0
1497.081909 124.0
1497.297485 152.0
1497.459229 148.0
1498.006836 140.0
1498.144775 156.0
1498.210327 132.0
1498.421265 112.0
1498.745728 216.0
1498.980591 180.0
1499.154175 80.0
1499.231201 124.0
1499.318481 176.0
1499.458252 200.0
1499.531738 96.0
1499.786133 200.0
1499.878662 156.0
1500.148438 108.0
1500.217773 360.0
1500.435303 152.0
1500.533936 124.0
1500.765137 116.0
1501.079102 224.0
1501.220093 160.0
1501.497803 192.0
1501.764404 120.0
1501.875732 172.0
1501.975952 188.0
1502.029907 128.0
1502.129883 212.0
1502.32312 288.0
1502.477539 184.0
1502.539062 160.0
1502.670288 124.0
1502.747437 152.0
1502.847656 168.0
1502.924927 76.0
1503.21814 164.0
1503.270996 144.0
1503.346191 160.0
1503.457275 40.0
1503.758301 36.0
1503.827759 208.0
1504.126709 388.0
1504.50708 60.0
1504.615112 144.0
1504.723267 112.0
1504.777222 120.0
1504.941895 312.0
1505.032104 148.0
1505.183228 300.0
