>compound Fenticonazole nitrate
>formula C24H20Cl2N2OS
>ionization [M+H]+
>parentmass 455.075348
#inchi InChI=1S/C24H20Cl2N2OS/c25-19-8-11-22(23(26)14-19)24(15-28-13-12-27-17-28)29-16-18-6-9-21(10-7-18)30-20-4-2-1-3-5-20/h1-14,17,24H,15-16H2
#inchikey ZCJYUTQZBAIHBS
#origInchi InChI=1S/C24H20Cl2N2OS.HNO3/c25-19-8-11-22(23(26)14-19)24(15-28-13-12-27-17-28)29-16-18-6-9-21(10-7-18)30-20-4-2-1-3-5-20;2-1(3)4/h1-14,17,24H,15-16H2;(H,2,3,4)
#Ion_Source LC-ESI
#Instrument qTof
#Compound_Source Commercial
#PI Dorrestein
#Data_Collector Garg_Neha
#Scan -1
#Precursor_MZ 455.075
#ExactMass 454.067
#Charge 1
#CAS_Number 73151-29-8
#Pubmed_ID N/A
#Smiles C(OCC1=CC=C(C=C1)SC2=CC=CC=C2)(C3=CC=C(C=C3Cl)Cl)CN4(C=CN=C4).[N+]([O-])(=O)O
#INCHI_AUX N/A
#Library_Class 1
#SpectrumID CCMSLIB00000078400
#IonMode Positive
#UpdateWorkflowName UPDATE-SINGLE-ANNOTATED-GOLD
#LibraryQualityString Gold
#TaskID 77f51c88eb8b467eb4a01dd2d0cb90d2
##Scan# 2063
#SpectrumFile Plate6_21_40_GD8_01_15775.mzXML
#LibraryName FDALibrary_2_04302014.mgf
#MQScore -1
#Organism FDALibrary_2_04302014
#TIC_Query 0
#RT_Query -1
#MZErrorPPM -1
#SharedPeaks 0
#MassDiff 0
#LibMZ -1
#SpecMZ 455.075
#SpecCharge 0
#internalFilename spec-00000.mgf

>collision 10
44.920387 156.0
45.041866 172.0
45.360352 152.0
45.605999 160.0
46.10199 160.0
46.543617 144.0
47.006447 148.0
47.235989 140.0
47.357815 148.0
48.076893 156.0
48.773582 172.0
50.280746 148.0
51.29921 172.0
51.381927 204.0
52.094898 160.0
53.317348 156.0
53.48753 160.0
53.819935 156.0
54.059673 144.0
54.214909 208.0
54.790924 144.0
54.979668 164.0
55.12735 152.0
55.449986 184.0
55.607204 144.0
55.90398 184.0
56.059326 176.0
57.642574 204.0
57.712109 196.0
57.740841 140.0
58.32156 196.0
58.458443 176.0
58.595486 224.0
58.656445 172.0
59.028984 140.0
59.468685 212.0
59.714523 196.0
60.653336 164.0
61.085033 140.0
61.526066 184.0
62.114491 140.0
62.440819 180.0
63.15255 176.0
63.39637 144.0
63.600971 208.0
63.664478 180.0
65.743782 200.0
66.735558 144.0
67.23893 188.0
67.3908 188.0
68.077164 168.0
68.414238 176.0
70.210472 152.0
70.337166 176.0
70.601273 148.0
70.684914 148.0
71.202942 204.0
71.28862 140.0
72.097557 212.0
72.314049 152.0
72.88047 152.0
73.50882 160.0
75.494766 168.0
75.917328 172.0
76.033569 172.0
76.106476 172.0
76.153366 200.0
77.088951 148.0
77.160614 192.0
77.728127 152.0
78.090034 144.0
78.835808 176.0
78.906517 200.0
79.976242 184.0
80.141869 188.0
81.223495 212.0
81.259377 184.0
81.818336 196.0
81.908379 176.0
82.010117 172.0
83.134247 148.0
84.334496 240.0
84.546654 164.0
86.745956 212.0
86.80529 168.0
87.511398 240.0
87.692101 156.0
88.121315 152.0
88.267113 196.0
88.383087 200.0
88.424263 148.0
90.294449 152.0
90.874123 176.0
90.976608 172.0
91.056358 156.0
91.562271 256.0
91.676582 164.0
92.607025 184.0
92.74115 200.0
92.815918 140.0
93.307465 152.0
94.275108 280.0
94.849953 176.0
95.222504 172.0
95.352676 212.0
95.414879 160.0
95.609406 204.0
95.84893 200.0
96.788513 160.0
96.935432 148.0
96.982468 156.0
97.009911 148.0
97.139343 140.0
97.4515 140.0
97.551735 180.0
97.811401 156.0
98.321899 232.0
98.525284 172.0
99.23185 184.0
100.044441 188.0
100.622604 168.0
101.406784 376.0
101.707649 172.0
102.101463 168.0
102.163818 172.0
103.408867 152.0
103.506042 148.0
103.633652 236.0
104.094116 176.0
104.724586 184.0
104.910019 204.0
105.001778 156.0
105.120102 212.0
105.230331 164.0
105.287506 148.0
105.763908 152.0
106.04657 200.0
106.483597 208.0
107.843475 180.0
108.902275 224.0
109.159988 208.0
110.170891 188.0
110.308815 148.0
110.550591 196.0
111.131889 184.0
111.302383 232.0
111.360718 144.0
111.570854 148.0
112.459824 152.0
112.692123 188.0
112.768196 184.0
112.831612 232.0
113.104515 156.0
113.490097 144.0
113.564323 184.0
114.171753 176.0
114.484604 140.0
114.561279 216.0
114.693398 152.0
115.052132 172.0
115.182053 248.0
115.303848 208.0
116.510262 152.0
117.531776 168.0
118.285103 160.0
118.66423 188.0
118.987511 172.0
119.041794 140.0
119.36776 220.0
119.77475 144.0
120.575523 180.0
120.59082 152.0
120.756989 224.0
121.065582 156.0
121.186066 164.0
121.556641 180.0
122.112465 152.0
122.579193 224.0
122.59903 148.0
123.031364 168.0
123.537445 160.0
123.643654 184.0
123.789772 152.0
124.011322 140.0
124.104431 188.0
124.290756 156.0
124.550507 176.0
124.879478 160.0
126.043228 148.0
127.030594 196.0
127.048546 160.0
127.798965 176.0
128.296707 156.0
129.062119 140.0
129.109604 176.0
129.664291 144.0
129.759491 144.0
132.551758 152.0
132.685822 164.0
132.8246 152.0
133.173492 160.0
133.32283 160.0
133.460754 140.0
133.651672 144.0
133.672394 208.0
133.881882 144.0
134.016541 180.0
134.372864 140.0
135.304291 144.0
135.760773 156.0
135.826828 104.0
136.006699 188.0
136.222656 176.0
136.378357 344.0
136.496918 216.0
136.843628 272.0
137.017563 216.0
137.179108 152.0
137.295685 216.0
137.316681 152.0
137.477661 180.0
138.061707 200.0
138.775925 188.0
139.051682 184.0
140.887115 156.0
141.069077 216.0
141.317413 152.0
142.445908 164.0
144.218781 192.0
144.41246 208.0
144.995148 132.0
145.111725 180.0
145.449997 160.0
145.555634 144.0
145.663712 176.0
145.709351 148.0
146.031479 188.0
146.406937 140.0
146.92276 152.0
147.024002 272.0
147.246811 148.0
147.536194 172.0
147.589386 164.0
149.384155 180.0
149.632385 192.0
149.759293 152.0
149.866211 184.0
149.927139 184.0
150.551041 148.0
150.862 184.0
151.057632 164.0
152.05983 720.0
152.782257 212.0
153.065308 156.0
153.827164 216.0
154.075073 160.0
154.097351 188.0
155.084656 704.0
155.835709 144.0
155.972397 160.0
156.087082 200.0
157.071869 160.0
157.524567 140.0
158.042389 144.0
158.081192 176.0
158.891769 180.0
158.972992 424.0
159.026474 148.0
159.426605 140.0
159.451736 192.0
159.635269 140.0
159.771088 144.0
159.984116 188.0
160.642761 144.0
160.971466 484.0
161.301849 156.0
161.537033 172.0
162.058578 196.0
162.119385 140.0
162.322189 176.0
162.497208 140.0
162.733261 168.0
162.852615 140.0
163.054993 248.0
163.373734 212.0
163.941544 212.0
164.023102 152.0
164.066437 216.0
164.663544 160.0
165.015839 148.0
165.068359 3964.0
166.076614 2564.0
167.084641 10156.0
167.141449 172.0
167.731674 128.0
167.765884 148.0
167.807144 148.0
167.870667 144.0
168.027939 204.0
168.08609 2184.0
168.150238 208.0
168.413589 184.0
168.846848 128.0
169.790543 156.0
170.720291 176.0
170.976608 100.0
171.025864 256.0
171.121017 188.0
171.865707 216.0
171.98053 140.0
172.991699 812.0
173.034836 184.0
173.058395 164.0
173.974792 116.0
174.070557 144.0
174.341141 148.0
174.991318 144.0
176.027481 160.0
176.209412 144.0
176.658844 144.0
176.920837 152.0
177.024109 160.0
177.063828 224.0
177.570053 192.0
177.620453 156.0
178.077026 652.0
178.27626 172.0
178.464081 164.0
178.579346 196.0
180.504883 144.0
180.793808 152.0
180.817886 140.0
180.84198 160.0
181.089737 132.0
181.1707 148.0
181.710236 140.0
182.865768 160.0
183.028625 176.0
183.264328 152.0
183.517487 152.0
183.744186 156.0
183.803619 180.0
184.032867 7104.0
184.492355 248.0
184.619034 108.0
184.768219 176.0
185.03569 1008.0
185.678375 180.0
186.029617 312.0
186.441269 220.0
186.718582 144.0
186.922623 176.0
186.974548 144.0
188.143051 116.0
188.978943 136.0
189.045837 200.0
189.155212 236.0
189.207214 168.0
189.264725 192.0
190.128235 180.0
190.364334 148.0
190.964645 216.0
191.654465 180.0
191.71785 144.0
192.904709 156.0
193.879013 148.0
194.397614 160.0
194.61969 172.0
194.719666 244.0
194.908569 144.0
195.222687 144.0
195.782074 168.0
196.029922 136.0
196.161011 200.0
196.504044 152.0
196.593338 144.0
196.68544 148.0
197.040543 1996.0
197.311203 152.0
198.048813 1048.0
198.122101 100.0
198.15007 112.0
198.18248 104.0
198.378738 144.0
198.51828 140.0
198.560455 148.0
198.635834 224.0
198.728424 156.0
198.75087 144.0
198.80748 208.0
198.844421 312.0
198.892883 108.0
198.925171 312.0
198.984909 200.0
199.0168 264.0
199.057785 217768.0
199.149261 180.0
199.238159 132.0
199.275711 116.0
199.315475 292.0
199.375092 216.0
199.518387 2424.0
199.556244 148.0
199.5952 192.0
199.653976 132.0
199.730255 132.0
199.806168 152.0
199.83551 228.0
199.982834 156.0
200.059891 45376.0
200.164459 164.0
200.209061 104.0
200.268311 212.0
200.322449 132.0
200.374298 128.0
200.543411 184.0
200.686935 108.0
200.781479 116.0
200.822815 108.0
200.993042 124.0
201.052979 8284.0
201.136414 96.0
201.263885 176.0
201.367783 232.0
201.413208 96.0
201.455475 124.0
201.487488 128.0
201.604416 472.0
201.669098 156.0
201.728256 120.0
201.781586 164.0
201.876038 140.0
202.054672 880.0
202.339951 96.0
202.622177 144.0
203.042923 176.0
204.220398 140.0
205.025391 136.0
205.047012 112.0
205.083145 152.0
206.069641 200.0
206.10199 148.0
206.779755 172.0
207.039993 160.0
208.041077 284.0
208.954926 240.0
209.165009 188.0
209.48465 180.0
210.687653 220.0
211.734787 196.0
212.04097 156.0
213.044632 1216.0
213.165009 260.0
213.359756 176.0
214.005661 172.0
214.044144 120.0
215.037338 192.0
216.042847 360.0
216.487762 212.0
218.043961 196.0
218.104385 148.0
218.421967 168.0
219.346588 168.0
220.976807 172.0
221.401642 100.0
222.325073 144.0
224.130142 152.0
225.748093 164.0
226.31665 164.0
226.745026 200.0
228.051941 120.0
228.197952 176.0
231.049561 192.0
234.866699 152.0
235.82547 144.0
236.027237 156.0
236.189331 160.0
239.045746 148.0
240.014542 156.0
240.500443 236.0
240.580704 176.0
241.021622 364.0
242.017349 264.0
242.185623 264.0
242.318832 156.0
243.013351 152.0
243.875961 172.0
244.01181 120.0
246.002869 152.0
246.034195 152.0
247.981171 160.0
248.012207 2800.0
248.260208 164.0
248.445267 140.0
249.016724 756.0
250.010361 892.0
250.117081 140.0
251.012833 508.0
252.022171 348.0
253.008759 164.0
253.363464 164.0
253.53775 240.0
253.951935 144.0
254.038727 144.0
254.298935 156.0
255.009521 1168.0
255.054901 172.0
255.445709 156.0
256.012146 140.0
257.005127 680.0
257.72879 148.0
257.990875 188.0
258.540131 140.0
259.006714 132.0
260.031342 172.0
261.249207 172.0
261.596771 192.0
263.208832 140.0
265.869843 148.0
266.168518 192.0
266.301666 224.0
266.353638 176.0
267.092865 904.0
268.100159 280.0
268.935791 160.0
269.025879 136.0
270.851929 184.0
271.020355 140.0
271.756775 152.0
271.806 140.0
273.02475 168.0
274.48468 100.0
274.994995 148.0
276.118347 160.0
276.806702 168.0
277.690918 164.0
278.515381 184.0
278.975494 264.0
279.02652 172.0
280.517975 140.0
284.592987 148.0
284.656769 156.0
285.914093 192.0
285.964966 180.0
286.176666 172.0
286.496429 136.0
286.53894 192.0
286.651611 144.0
286.762817 156.0
286.796539 168.0
287.072998 140.0
287.477814 212.0
288.301849 176.0
289.326752 148.0
289.877502 100.0
290.502716 152.0
291.759247 148.0
293.137787 192.0
293.161621 172.0
293.267273 152.0
293.31842 144.0
294.00058 164.0
295.015045 212.0
295.062897 160.0
295.210754 116.0
296.236755 144.0
296.94632 152.0
297.285187 160.0
297.375183 164.0
298.264832 144.0
298.345886 144.0
300.161835 232.0
300.801453 104.0
301.128174 148.0
303.148621 140.0
303.185394 168.0
303.346161 144.0
303.842102 152.0
304.421753 148.0
305.217529 152.0
305.857697 160.0
306.268585 156.0
309.225983 168.0
309.63562 140.0
310.845093 228.0
311.062714 172.0
311.394806 172.0
311.965546 140.0
312.341797 144.0
313.902039 140.0
314.95636 144.0
315.22937 196.0
315.315613 160.0
315.589935 156.0
315.833954 152.0
316.704712 164.0
317.360321 140.0
320.908844 224.0
321.046448 136.0
322.049957 428.0
322.787048 148.0
323.81192 140.0
324.168854 140.0
324.807037 160.0
325.234039 156.0
325.413544 168.0
325.94516 148.0
326.901703 156.0
326.945099 140.0
327.033051 120.0
327.265259 168.0
327.812805 148.0
328.444763 252.0
329.288361 160.0
330.058105 204.0
330.361908 144.0
330.694824 196.0
330.787537 208.0
331.22348 152.0
332.619568 156.0
333.295074 144.0
333.447723 212.0
334.84848 168.0
335.252869 164.0
335.960236 224.0
336.270416 164.0
336.777924 180.0
336.891174 180.0
337.902802 108.0
338.225922 160.0
338.625031 148.0
339.420288 140.0
340.146729 188.0
343.11554 196.0
343.237213 164.0
344.11911 172.0
344.312378 140.0
344.429321 140.0
344.684235 140.0
346.471344 140.0
348.220398 96.0
348.247101 184.0
349.679688 184.0
351.020874 152.0
351.378967 160.0
352.084473 144.0
352.570129 192.0
353.849457 152.0
355.266113 168.0
355.596313 160.0
357.024994 252.0
358.032501 268.0
358.269928 180.0
358.575226 172.0
359.027557 312.0
361.010254 160.0
361.301483 140.0
362.240356 172.0
362.657166 240.0
363.924255 192.0
364.858917 160.0
365.23111 128.0
365.749084 196.0
366.523865 176.0
367.082581 144.0
367.52124 172.0
370.702759 184.0
371.050476 112.0
372.218018 156.0
372.717377 152.0
373.094055 144.0
373.409363 184.0
374.460083 144.0
375.373474 140.0
375.839081 108.0
376.531219 148.0
376.732086 188.0
376.827393 168.0
377.565765 160.0
378.859863 160.0
379.084595 228.0
379.239624 184.0
380.574158 164.0
381.176239 200.0
381.96936 168.0
382.693237 144.0
382.969757 148.0
383.667267 144.0
383.970154 528.0
384.396667 176.0
384.970673 248.0
385.214447 160.0
385.966583 228.0
386.95462 156.0
389.659271 184.0
389.80072 172.0
390.268494 144.0
390.897858 168.0
390.960815 148.0
391.70105 276.0
392.075378 152.0
392.635193 204.0
392.952301 120.0
393.961487 188.0
394.317108 180.0
395.428497 144.0
395.966949 160.0
396.478027 200.0
397.259155 144.0
397.584534 164.0
397.747559 112.0
398.85553 196.0
398.950562 132.0
399.939331 196.0
400.228424 96.0
400.40332 148.0
400.837555 192.0
401.168365 204.0
401.200256 156.0
401.650879 180.0
401.8703 168.0
403.663818 164.0
404.083801 144.0
404.828339 140.0
405.493378 192.0
406.31543 164.0
406.648499 172.0
407.499847 184.0
407.588257 156.0
408.036926 164.0
408.199738 132.0
409.173004 188.0
410.828979 152.0
411.446869 184.0
412.040558 152.0
412.836884 156.0
413.642029 152.0
414.34671 144.0
415.867401 156.0
416.439911 196.0
416.760834 140.0
416.984344 140.0
418.530334 140.0
418.733856 172.0
419.119049 312.0
419.357239 236.0
420.417633 264.0
420.666626 184.0
420.927917 144.0
422.156464 228.0
423.361145 156.0
423.606903 176.0
424.21524 176.0
424.730072 180.0
425.210144 140.0
425.25528 144.0
426.039612 160.0
426.964447 144.0
428.681183 184.0
428.878998 172.0
429.901855 192.0
430.67804 140.0
431.004425 148.0
431.955353 148.0
432.923859 152.0
434.316467 156.0
434.507294 164.0
434.675842 212.0
435.628204 176.0
435.732086 156.0
436.60083 152.0
436.679871 156.0
437.129181 172.0
437.353912 164.0
437.766113 160.0
438.207642 144.0
439.462646 188.0
439.512726 152.0
440.070129 124.0
440.406128 140.0
442.219788 164.0
442.453674 172.0
442.622711 144.0
442.710632 152.0
444.156647 156.0
444.577301 152.0
444.647552 168.0
444.843262 192.0
446.145325 120.0
446.451569 132.0
447.080933 184.0
447.598724 156.0
448.926147 140.0
449.086426 196.0
449.127472 104.0
450.046021 124.0
450.746155 120.0
451.295105 156.0
451.534821 216.0
451.667267 152.0
451.825256 128.0
452.099243 168.0
452.190765 144.0
452.282135 232.0
452.365479 108.0
452.687103 104.0
452.74234 172.0
452.891449 96.0
452.938965 284.0
452.983246 196.0
453.041504 224.0
453.186157 152.0
453.263824 100.0
453.29425 224.0
453.626709 116.0
453.795258 232.0
453.82843 264.0
453.909393 172.0
453.976685 240.0
454.067108 208.0
454.158661 156.0
454.194946 260.0
454.285431 240.0
454.370575 192.0
454.433868 252.0
454.53299 260.0
454.562042 280.0
454.593079 256.0
454.652679 248.0
454.758972 212.0
454.833984 504.0
454.878082 336.0
454.894745 304.0
454.934601 348.0
454.967804 360.0
454.977844 324.0
454.991669 432.0
455.075348 212788.0
455.229309 136.0
455.282684 180.0
455.34433 220.0
455.39151 272.0
455.4776 644.0
455.522736 252.0
455.568573 376.0
455.641724 264.0
455.719727 388.0
455.776245 4996.0
455.82724 520.0
455.8927 128.0
455.96814 212.0
456.077972 121476.0
456.26712 296.0
456.416168 152.0
456.453888 188.0
456.492096 464.0
456.551666 108.0
456.590118 324.0
456.673523 196.0
456.721405 252.0
456.793579 356.0
456.92395 360.0
456.941528 156.0
457.072906 187852.0
457.209717 100.0
457.281128 120.0
457.328766 212.0
457.396912 264.0
457.457214 228.0
457.495117 200.0
457.545227 176.0
457.583313 196.0
457.627655 160.0
457.664551 136.0
457.714722 196.0
457.773773 1332.0
457.83429 352.0
457.916077 236.0
457.982513 152.0
458.01416 364.0
458.074799 60696.0
458.213501 296.0
458.301575 272.0
458.355225 156.0
458.398224 164.0
458.48587 360.0
458.555878 288.0
458.617523 308.0
458.681854 132.0
458.727966 140.0
458.775635 300.0
458.8367 176.0
458.897797 288.0
458.963409 244.0
459.068634 19576.0
459.200989 120.0
459.213135 120.0
459.227661 340.0
459.265747 276.0
459.331818 112.0
459.418427 172.0
459.455109 112.0
459.496399 172.0
459.521088 152.0
459.567871 192.0
459.638916 144.0
459.67868 100.0
459.717743 232.0
459.748352 264.0
459.788849 196.0
459.88324 208.0
459.944916 144.0
460.069672 404.0
460.122986 120.0
460.194275 236.0
460.226685 268.0
460.270569 100.0
460.335632 156.0
460.42511 112.0
460.460693 176.0
460.567352 104.0
460.631073 216.0
460.678802 128.0
460.756653 204.0
460.793823 188.0
460.820465 180.0
460.87561 144.0
460.953735 148.0
461.252808 156.0
461.339569 140.0
461.401642 152.0
461.437988 128.0
461.529938 120.0
461.710266 188.0
461.767517 112.0
461.813385 112.0
461.942657 100.0
462.133026 128.0
462.376953 116.0
462.417816 160.0
462.558319 132.0
462.725281 128.0
462.95401 116.0
465.369965 204.0
470.949646 116.0
471.985687 100.0
477.448395 116.0
491.793854 116.0
615.118408 140.0
623.638367 240.0
626.773682 160.0
683.937378 124.0
758.222656 156.0
799.558044 200.0
864.530762 140.0
878.420837 196.0
1282.754517 212.0
1409.177979 144.0
1541.909546 196.0
1601.203125 152.0
1625.418335 152.0
1640.765137 160.0
1643.765625 176.0
1655.673706 164.0
1703.415283 160.0
1732.437256 172.0
1735.860474 164.0
1739.195679 160.0
1741.872559 212.0
1741.969116 148.0
1762.874146 144.0
1771.567749 164.0
1778.242432 160.0
1800.680664 228.0
1803.51123 184.0
1830.933594 196.0
1833.677002 148.0
1838.94812 180.0
1841.056885 176.0
1843.448975 152.0
1858.828979 184.0
1862.572266 192.0
1870.397339 160.0
1872.076294 184.0
1881.026001 180.0
1890.213501 196.0
1897.914185 200.0
1910.334106 188.0
1927.67627 176.0
1929.459473 184.0
1931.628296 148.0
1957.529053 256.0
1959.872192 180.0
1961.758301 144.0
1972.987915 144.0
1976.72937 184.0
1977.180664 152.0
1978.110107 180.0
1981.528564 268.0
1983.566895 152.0
1989.484009 148.0
1990.540527 168.0
2001.050659 168.0
2002.030151 148.0
2002.849609 196.0
