>compound MLS001049101-01!3-hydroxy-9-methoxy-6-oxo-7-pentanoyl-1-pentylbenzo[b][1,4]benzodioxepine-2-carboxylic acid
>formula C25H28O8
>ionization [M+H]+
>parentmass 457.185425
#inchi InChI=1S/C25H28O8/c1-4-6-8-9-15-21(24(28)29)18(27)13-20-23(15)32-19-12-14(31-3)11-16(17(26)10-7-5-2)22(19)25(30)33-20/h11-13,27H,4-10H2,1-3H3,(H,28,29)
#inchikey JHEWMLHQNRHTQX
#Ion_Source LC-ESI
#Instrument qTof
#Compound_Source NIH Natural Product Library
#PI Dorrestein
#Data_Collector VVP/LMS
#Scan -1
#Precursor_MZ 457.186
#ExactMass 456.178
#Charge 1
#CAS_Number N/A
#Pubmed_ID N/A
#Smiles CCCCCc1c(C(=O)O)c(O)cc2OC(=O)c3c(cc(OC)cc3Oc12)C(=O)CCCC
#INCHI_AUX N/A
#Library_Class 1
#SpectrumID CCMSLIB00000079520
#IonMode Positive
#UpdateWorkflowName UPDATE-SINGLE-ANNOTATED-GOLD
#LibraryQualityString Gold
#TaskID b1d8e8f6646f4e71acdff9ca3d919d08
##Scan# 2785
#SpectrumFile p1-E07_GE7_01_17927.mzXML
#LibraryName NIH_Natural_Products_Library.mgf
#MQScore -1
#Organism NIH_Natural_Products_Library
#TIC_Query 0
#RT_Query -1
#MZErrorPPM -1
#SharedPeaks 0
#MassDiff 0
#LibMZ -1
#SpecMZ 457.186
#SpecCharge 0
#internalFilename spec-00000.mgf

>collision 10
95.014229 216.0
95.05043 128.0
95.084717 180.0
95.100883 136.0
95.227089 116.0
95.287308 132.0
95.629547 144.0
95.647064 180.0
95.721046 52.0
95.927567 168.0
96.036758 68.0
96.069916 56.0
96.095917 172.0
96.181145 84.0
96.208473 140.0
96.278763 244.0
96.304153 160.0
96.384247 308.0
96.51017 176.0
96.608803 220.0
96.648216 168.0
96.684822 232.0
96.959572 76.0
97.026215 200.0
97.063469 76.0
97.096802 136.0
97.128189 268.0
97.153687 76.0
97.202736 208.0
97.236099 116.0
97.281242 184.0
97.404953 144.0
97.514984 104.0
97.595581 160.0
97.739166 156.0
97.792305 216.0
97.831673 136.0
98.186333 60.0
98.271156 176.0
98.326187 180.0
98.364632 208.0
98.383652 196.0
98.767006 224.0
98.788765 136.0
98.886734 140.0
98.97084 136.0
99.003754 244.0
99.046097 204.0
99.083733 216.0
99.20462 168.0
99.285912 188.0
99.37426 96.0
99.593536 132.0
99.746536 152.0
100.062843 228.0
100.08474 176.0
100.102661 48.0
100.122574 140.0
100.238113 136.0
100.321556 128.0
100.395599 152.0
100.520592 164.0
100.690956 224.0
100.800827 112.0
100.98275 44.0
101.060768 132.0
101.305016 128.0
101.363113 88.0
101.503426 184.0
101.637817 132.0
101.653877 172.0
101.790092 144.0
101.878746 100.0
102.046585 152.0
102.075714 100.0
102.158173 160.0
102.232613 120.0
102.425896 148.0
102.472229 100.0
102.558075 120.0
102.651619 32.0
102.665733 192.0
102.71817 108.0
103.01693 200.0
103.061371 164.0
103.273636 168.0
103.299736 124.0
103.378838 104.0
103.50029 176.0
103.53067 96.0
103.646133 144.0
103.788017 164.0
103.984787 108.0
104.025383 84.0
104.055832 160.0
104.115677 136.0
104.212219 140.0
104.376411 184.0
104.480583 116.0
104.596581 160.0
104.745224 144.0
104.769669 152.0
105.028549 128.0
105.071678 428.0
105.220367 172.0
105.261208 236.0
105.365372 152.0
105.400803 208.0
105.575905 160.0
105.590218 160.0
105.606583 184.0
105.736526 148.0
105.760033 104.0
105.788689 172.0
105.809166 32.0
105.83783 228.0
106.028336 124.0
106.069328 96.0
106.169792 160.0
106.214912 132.0
106.286713 176.0
106.446823 164.0
106.483788 236.0
106.598831 140.0
106.635818 120.0
106.757118 192.0
107.010208 156.0
107.051186 380.0
107.086052 272.0
107.150009 168.0
107.18734 172.0
107.205887 176.0
107.240921 228.0
107.263596 48.0
107.424438 124.0
107.472961 100.0
107.619293 128.0
107.701035 176.0
107.775406 164.0
107.963509 168.0
108.015221 192.0
108.029701 148.0
108.049477 168.0
108.091766 180.0
108.11039 132.0
108.529434 148.0
108.564064 104.0
108.609695 168.0
108.68853 184.0
108.804756 180.0
108.881584 160.0
108.898201 124.0
108.923126 172.0
109.095596 144.0
109.178764 80.0
109.222443 128.0
109.328552 164.0
109.515923 180.0
109.622169 180.0
109.784775 188.0
110.001762 148.0
110.016373 168.0
110.083183 200.0
110.103447 176.0
110.131218 84.0
110.150017 220.0
110.400818 140.0
110.524239 136.0
110.557716 140.0
110.712631 84.0
110.781403 120.0
110.832031 148.0
110.928436 232.0
110.944611 28.0
110.999718 60.0
111.215805 176.0
111.316574 148.0
111.373276 184.0
111.463615 148.0
111.490936 144.0
111.522461 88.0
111.60865 200.0
111.627571 332.0
111.663322 56.0
111.741158 224.0
112.059067 212.0
112.208702 124.0
112.521965 216.0
112.547302 224.0
112.704697 84.0
112.79557 124.0
113.019737 160.0
113.040901 144.0
113.266624 272.0
113.381844 32.0
113.451004 108.0
113.511154 92.0
113.748772 136.0
113.776375 148.0
113.816711 76.0
113.867676 84.0
113.971764 172.0
114.152443 60.0
114.241776 60.0
114.260918 108.0
114.288582 160.0
114.452469 184.0
114.58239 40.0
114.761421 180.0
114.806198 208.0
114.838188 156.0
114.885117 236.0
115.054535 656.0
115.179695 212.0
115.310562 156.0
115.322708 60.0
115.328423 152.0
115.357056 184.0
115.423332 60.0
115.471367 164.0
115.614532 244.0
115.748573 68.0
115.833466 144.0
115.874947 124.0
115.958511 140.0
116.020676 116.0
116.061829 232.0
116.090797 168.0
116.16864 132.0
116.299965 180.0
116.447678 128.0
116.503532 112.0
116.540054 84.0
116.63031 136.0
116.675453 160.0
117.029724 228.0
117.038261 152.0
117.069092 232.0
117.219994 52.0
117.304047 132.0
117.556389 124.0
117.59523 136.0
117.612503 200.0
117.677261 168.0
117.709648 164.0
118.053238 68.0
118.08567 172.0
118.115952 168.0
118.260925 168.0
118.343185 160.0
118.393349 120.0
118.707207 124.0
118.806976 152.0
118.854706 164.0
118.9133 172.0
118.97625 100.0
119.050117 212.0
119.085144 160.0
119.226166 132.0
119.339073 120.0
119.399956 132.0
119.452156 80.0
119.722038 128.0
119.826591 168.0
119.865814 140.0
120.051102 352.0
120.079453 116.0
120.274261 220.0
120.366058 96.0
120.452682 132.0
120.483269 140.0
120.568481 184.0
120.67778 152.0
120.710579 32.0
120.81234 120.0
121.02935 312.0
121.066895 512.0
121.095741 156.0
121.185555 40.0
121.433266 144.0
121.455193 192.0
121.747093 104.0
121.804474 128.0
121.929436 108.0
122.033707 172.0
122.066025 148.0
122.144905 156.0
122.25824 184.0
122.274719 188.0
122.44751 240.0
122.552177 128.0
122.704254 164.0
122.752762 104.0
122.867455 148.0
123.046211 148.0
123.082138 456.0
123.152206 136.0
123.390862 176.0
123.430664 160.0
123.523552 188.0
123.577751 176.0
123.682869 116.0
123.738205 128.0
123.846718 172.0
123.933113 180.0
124.026184 112.0
124.052841 156.0
124.083824 136.0
124.354446 192.0
124.423264 72.0
124.652031 44.0
124.736488 148.0
124.756493 208.0
124.83876 124.0
124.905479 200.0
124.952255 148.0
124.994469 176.0
125.030075 108.0
125.047882 180.0
125.079041 152.0
125.105751 336.0
125.168091 124.0
125.324265 172.0
125.43544 180.0
125.464417 164.0
125.48671 196.0
125.502319 48.0
125.549149 188.0
125.580368 112.0
125.613823 168.0
125.676292 140.0
125.709763 144.0
125.852623 68.0
125.870483 32.0
125.979431 92.0
126.017899 164.0
126.046944 272.0
126.287926 212.0
126.293716 168.0
126.339767 136.0
126.503197 48.0
126.541252 188.0
126.996155 180.0
127.036285 184.0
127.198097 180.0
127.258705 196.0
127.366501 232.0
127.440636 200.0
127.469849 140.0
127.615944 140.0
127.672165 48.0
127.881393 172.0
127.937668 240.0
128.061218 548.0
128.088547 128.0
128.156128 108.0
128.248291 204.0
128.339294 256.0
128.363495 44.0
128.399582 160.0
128.417618 296.0
128.446945 164.0
128.537186 144.0
128.555237 152.0
128.683899 32.0
128.986618 128.0
129.013733 168.0
129.069809 648.0
129.140366 152.0
129.181076 136.0
129.271576 132.0
129.314575 104.0
129.407394 136.0
129.545532 132.0
129.858215 160.0
129.962692 168.0
130.075668 204.0
130.132919 176.0
130.198761 136.0
130.387329 192.0
130.453232 132.0
130.566925 72.0
130.851349 192.0
130.892334 60.0
130.956924 220.0
131.0466 340.0
131.086441 320.0
131.148254 48.0
131.17485 76.0
131.190796 140.0
131.240952 60.0
131.325333 156.0
131.43364 192.0
131.480057 44.0
131.610596 100.0
131.788742 172.0
131.967026 124.0
132.019608 132.0
132.053925 136.0
132.097382 156.0
132.26442 132.0
132.294174 172.0
132.642365 176.0
132.697388 128.0
132.853333 112.0
132.880859 36.0
132.93074 212.0
132.965759 120.0
133.021698 260.0
133.065552 480.0
133.144836 268.0
133.220627 136.0
133.310242 104.0
133.450455 148.0
133.593033 180.0
133.620636 188.0
133.708084 212.0
133.843903 64.0
133.88765 168.0
133.956757 148.0
134.12265 156.0
134.200363 68.0
134.247147 104.0
134.30481 112.0
134.417847 128.0
134.438629 148.0
134.510162 128.0
134.535568 144.0
134.704132 152.0
134.833527 160.0
134.856644 184.0
134.914429 164.0
135.021072 192.0
135.039963 372.0
135.081421 136.0
135.117935 104.0
135.136444 156.0
135.178101 40.0
135.340118 180.0
135.356339 176.0
135.4953 172.0
135.543961 116.0
135.599579 180.0
135.666794 188.0
135.759537 84.0
135.780411 112.0
135.847672 148.0
136.019394 36.0
136.037964 172.0
136.082062 188.0
136.181915 120.0
136.40033 128.0
136.456131 124.0
136.512299 180.0
136.623199 124.0
136.69104 60.0
136.721298 136.0
136.921509 164.0
137.022202 484.0
137.062653 324.0
137.250076 88.0
137.464676 116.0
137.735504 240.0
137.756516 160.0
137.819595 108.0
137.95047 140.0
137.969177 228.0
138.026535 140.0
138.151581 72.0
138.266235 68.0
138.486313 200.0
138.575333 148.0
138.629227 160.0
138.673752 72.0
138.754578 132.0
138.78392 132.0
138.898834 136.0
139.032578 164.0
139.078568 176.0
139.095947 172.0
139.1875 144.0
139.294144 188.0
139.443558 144.0
139.514084 140.0
139.539932 184.0
139.676956 76.0
139.715256 176.0
139.822205 144.0
139.852798 124.0
139.944611 36.0
139.990768 180.0
140.029388 108.0
140.060013 152.0
140.25322 172.0
140.269714 120.0
140.352234 276.0
140.559799 44.0
140.581039 156.0
140.635315 136.0
140.762802 156.0
140.845856 104.0
140.937286 148.0
141.070923 524.0
141.112503 108.0
141.189651 184.0
141.214188 132.0
141.453156 28.0
141.476837 52.0
141.578644 156.0
141.669876 124.0
141.689972 168.0
141.765793 192.0
141.813187 164.0
141.877197 136.0
141.893784 120.0
141.923096 184.0
141.938843 200.0
142.0746 560.0
142.138092 112.0
142.154694 260.0
142.266251 140.0
142.312546 200.0
142.731918 168.0
142.938858 168.0
143.047958 216.0
143.084747 540.0
143.198349 168.0
143.489059 188.0
143.718018 52.0
143.777679 124.0
143.863602 128.0
144.02597 196.0
144.057693 632.0
144.083313 136.0
144.170547 188.0
144.212341 164.0
144.243423 212.0
144.528015 168.0
144.75061 156.0
144.801224 152.0
145.018936 184.0
145.060257 360.0
145.096191 104.0
145.263504 140.0
145.2827 96.0
145.364273 136.0
145.498672 148.0
145.604324 120.0
145.65477 264.0
145.699585 104.0
146.012894 132.0
146.029724 180.0
146.072876 140.0
146.128357 188.0
146.184174 136.0
146.443695 56.0
146.559326 108.0
146.684647 180.0
146.834137 80.0
146.876236 148.0
147.04216 244.0
147.081482 332.0
147.553711 172.0
147.613464 168.0
147.889954 156.0
147.938354 136.0
148.054672 104.0
148.086975 192.0
148.216873 104.0
148.356094 100.0
148.483536 48.0
148.630417 124.0
148.776611 92.0
149.007843 96.0
149.027283 176.0
149.05925 592.0
149.108139 380.0
149.175537 136.0
149.277649 152.0
149.36763 108.0
149.467377 44.0
149.742462 208.0
149.805786 44.0
149.890991 124.0
149.934921 156.0
149.969055 132.0
150.032425 180.0
150.063477 180.0
150.151901 212.0
150.232391 112.0
150.300705 196.0
150.703583 96.0
150.798889 104.0
150.852661 308.0
150.987137 172.0
151.037735 456.0
151.075195 172.0
151.351746 100.0
151.408066 148.0
151.466858 184.0
151.48645 240.0
151.535446 60.0
151.77565 140.0
151.792816 96.0
151.846756 68.0
152.001312 108.0
152.039398 192.0
152.064926 632.0
152.200134 68.0
152.240952 232.0
152.305725 196.0
152.362228 128.0
152.381882 132.0
152.408905 112.0
152.541626 120.0
152.625214 216.0
152.686691 188.0
152.782623 72.0
152.836746 136.0
152.986877 108.0
153.017822 112.0
153.072571 596.0
153.348953 104.0
153.538803 100.0
153.647324 104.0
153.726288 128.0
154.082565 176.0
154.129929 128.0
154.326508 124.0
154.400696 176.0
154.474899 200.0
154.554062 224.0
154.571381 132.0
154.749603 140.0
154.950211 192.0
155.050171 320.0
155.086273 444.0
155.148468 152.0
155.177979 208.0
155.24765 172.0
155.346863 40.0
155.483322 152.0
155.505661 112.0
155.530487 44.0
155.557785 136.0
155.580124 188.0
155.671997 116.0
155.753952 144.0
155.771332 152.0
155.791214 168.0
155.835922 104.0
155.870712 112.0
156.058197 252.0
156.086975 360.0
156.106857 132.0
156.129242 116.0
156.16655 152.0
156.284103 140.0
156.387985 56.0
156.415375 212.0
156.490051 132.0
156.673309 204.0
156.736633 116.0
156.778992 164.0
156.843796 108.0
156.88118 148.0
156.906113 152.0
157.033295 132.0
157.064148 756.0
157.107635 164.0
157.143051 72.0
157.165497 132.0
157.26033 240.0
157.289841 156.0
157.33522 200.0
157.390152 112.0
157.517517 76.0
157.572342 224.0
157.602448 64.0
157.742401 136.0
157.764908 132.0
157.869919 156.0
157.92244 64.0
157.977463 176.0
158.00499 52.0
158.040009 168.0
158.071487 2340.0
158.125092 80.0
158.166229 144.0
158.252762 172.0
158.292816 144.0
158.47316 164.0
158.495712 188.0
158.631042 136.0
158.668655 52.0
158.718796 176.0
158.746384 188.0
158.839172 180.0
158.949554 172.0
159.044052 284.0
159.078552 356.0
159.115219 144.0
159.227631 224.0
159.258347 116.0
159.301056 148.0
159.456833 140.0
159.549835 52.0
159.771149 144.0
159.854172 140.0
159.909546 160.0
159.934708 124.0
159.985046 132.0
160.027847 144.0
160.054306 340.0
160.081009 140.0
160.292328 48.0
160.403214 216.0
160.635208 92.0
160.652863 136.0
160.748734 104.0
161.011276 128.0
161.061035 492.0
161.107727 340.0
161.127472 188.0
161.245529 160.0
161.37262 152.0
161.635666 164.0
161.66098 140.0
161.739441 112.0
161.848297 156.0
161.905121 108.0
161.964783 92.0
161.995178 192.0
162.069641 320.0
162.095551 212.0
162.206848 148.0
162.245209 164.0
162.337341 184.0
162.355087 80.0
162.816971 124.0
162.852524 148.0
163.038803 448.0
163.073578 184.0
163.115524 220.0
163.337997 96.0
163.386337 228.0
163.511017 188.0
163.803818 144.0
163.89299 148.0
163.978409 148.0
164.044128 184.0
164.087433 164.0
164.130035 72.0
164.300919 148.0
164.343491 216.0
164.400681 160.0
164.985336 44.0
165.072037 1376.0
165.090378 480.0
165.1362 48.0
165.238525 52.0
165.417648 60.0
165.530304 148.0
165.569992 56.0
165.605682 196.0
165.666046 160.0
165.696793 64.0
165.789032 164.0
166.024887 176.0
166.082016 236.0
166.186478 92.0
166.232666 116.0
166.281433 164.0
166.409775 216.0
166.522766 104.0
166.551025 124.0
166.74115 220.0
166.944244 132.0
167.084076 240.0
167.132874 60.0
167.188751 160.0
167.281281 220.0
167.366241 148.0
167.654755 60.0
167.755264 88.0
167.989929 144.0
168.037994 216.0
168.056732 420.0
168.090668 276.0
168.330612 172.0
168.409866 64.0
168.449417 220.0
168.667404 176.0
168.804703 120.0
168.878494 96.0
168.966446 144.0
169.066589 352.0
169.125183 140.0
169.212311 160.0
169.230423 188.0
169.357315 196.0
169.38063 44.0
169.458344 156.0
169.47908 204.0
169.56459 108.0
169.626801 148.0
169.7668 260.0
169.85498 176.0
169.88092 116.0
169.984695 108.0
170.034012 132.0
170.069366 392.0
170.127457 204.0
170.254898 140.0
170.366364 72.0
170.452103 176.0
170.504074 168.0
170.740646 164.0
170.826492 144.0
170.88176 164.0
170.889175 40.0
170.900879 168.0
170.95137 132.0
171.043961 460.0
171.079285 280.0
171.162216 232.0
171.253372 148.0
171.487854 236.0
171.957321 128.0
172.009872 208.0
172.040634 168.0
172.085587 304.0
172.174011 184.0
172.205353 72.0
172.250366 168.0
172.579041 120.0
172.712402 176.0
172.877228 136.0
173.012924 128.0
173.059204 764.0
173.097061 1600.0
173.157349 184.0
173.19664 160.0
173.21759 136.0
173.267365 108.0
173.380035 92.0
173.591187 136.0
173.615982 204.0
173.639572 124.0
173.684174 144.0
173.726135 144.0
173.794342 116.0
173.817963 140.0
173.879684 164.0
173.904572 168.0
174.027863 116.0
174.065811 364.0
174.098709 204.0
174.190765 40.0
174.382584 128.0
174.479843 184.0
174.540314 160.0
174.66391 164.0
174.832001 180.0
174.861252 124.0
175.043594 356.0
175.074753 952.0
175.108704 324.0
175.204132 180.0
175.280411 188.0
175.3918 220.0
175.462585 152.0
175.474045 44.0
175.484695 136.0
175.55661 152.0
175.605301 68.0
175.707092 136.0
175.754578 44.0
175.817917 84.0
175.873337 108.0
175.910294 160.0
175.934052 168.0
175.984207 132.0
176.026459 148.0
176.057602 176.0
176.0811 160.0
176.116241 152.0
176.17363 188.0
176.219269 180.0
176.26683 184.0
176.35405 64.0
176.377838 180.0
176.451843 188.0
176.473007 132.0
176.655487 176.0
176.835403 124.0
176.888351 52.0
176.920105 156.0
177.056595 448.0
177.088272 436.0
177.129303 156.0
177.293579 92.0
177.373093 80.0
177.527557 152.0
177.8293 120.0
177.871765 224.0
177.940781 116.0
177.962021 100.0
178.022308 156.0
178.078339 260.0
178.126678 108.0
178.182465 68.0
178.283432 132.0
178.357849 100.0
178.498764 140.0
178.594498 144.0
178.676956 76.0
178.810013 200.0
178.927124 68.0
178.991028 116.0
179.035446 984.0
179.085068 1112.0
179.126846 148.0
179.145493 172.0
179.209442 208.0
179.260071 44.0
179.334686 48.0
179.38266 64.0
179.489304 56.0
179.550644 88.0
179.595978 96.0
179.641327 140.0
179.796082 52.0
180.037903 128.0
180.063049 176.0
180.100479 140.0
180.252716 32.0
180.300827 240.0
180.44249 152.0
180.503235 128.0
180.613632 100.0
180.88121 188.0
180.990982 128.0
181.048691 152.0
181.065735 620.0
181.103195 168.0
181.110626 124.0
181.124878 252.0
181.234726 152.0
181.331192 160.0
181.618073 212.0
181.757568 152.0
181.804489 108.0
181.835403 140.0
181.864914 48.0
182.0448 156.0
182.068939 432.0
182.09314 168.0
182.187149 208.0
182.278503 152.0
182.325516 20.0
182.386002 68.0
182.506973 192.0
182.555374 96.0
182.786713 184.0
182.870132 128.0
182.999023 68.0
183.040573 116.0
183.079666 612.0
183.117828 192.0
183.249817 144.0
183.298325 196.0
183.398041 164.0
183.443863 140.0
183.487 172.0
183.716217 412.0
183.861923 136.0
184.051834 492.0
184.084717 156.0
184.22644 176.0
184.269653 176.0
184.342621 192.0
184.434509 168.0
184.472351 128.0
184.643219 184.0
184.72113 152.0
184.796875 164.0
185.061859 776.0
185.097321 108.0
185.12439 60.0
185.221893 152.0
185.332962 220.0
185.509125 180.0
185.991959 104.0
186.030594 104.0
186.068619 268.0
186.105988 196.0
186.198303 204.0
186.431946 44.0
186.529785 128.0
186.562408 124.0
186.605896 156.0
186.785385 72.0
186.8806 44.0
186.929581 264.0
186.994888 152.0
187.033127 440.0
187.074875 1068.0
187.111084 364.0
187.162186 188.0
187.190048 268.0
187.234467 64.0
187.272598 136.0
187.299835 184.0
187.348877 76.0
187.392456 172.0
187.528717 52.0
187.61322 140.0
187.756302 100.0
187.813477 164.0
188.011444 128.0
188.046555 316.0
188.084518 488.0
188.228882 176.0
188.273514 140.0
188.502975 136.0
188.589554 236.0
188.872055 116.0
189.02211 180.0
189.054871 804.0
189.090912 480.0
189.129257 180.0
189.233292 104.0
189.266357 148.0
189.304474 164.0
189.460602 100.0
189.487991 192.0
189.597916 104.0
189.674347 76.0
189.73465 80.0
189.778519 80.0
189.888199 92.0
189.931808 176.0
190.006149 160.0
190.055359 124.0
190.073837 156.0
190.116791 296.0
190.198242 184.0
190.29158 108.0
190.368454 100.0
190.393173 152.0
190.546997 60.0
190.717072 144.0
190.887817 148.0
190.945572 224.0
191.033142 764.0
191.068176 216.0
191.073425 168.0
191.088974 404.0
191.109482 556.0
191.171158 148.0
191.20694 148.0
191.295013 148.0
191.329865 124.0
191.435425 152.0
191.485001 144.0
191.617218 48.0
191.672318 164.0
191.757751 192.0
191.829422 116.0
191.925903 104.0
191.961761 108.0
192.040268 328.0
192.090576 312.0
192.151077 156.0
192.192108 168.0
192.276245 116.0
192.334198 236.0
192.43634 60.0
192.513657 176.0
192.560608 168.0
192.629654 172.0
192.947449 164.0
193.002747 160.0
193.055542 608.0
193.099762 212.0
193.207413 172.0
193.273819 104.0
193.362366 100.0
193.403885 196.0
193.437103 40.0
193.500778 156.0
193.673218 160.0
193.730637 64.0
193.781296 112.0
193.827606 60.0
193.847 100.0
193.996658 140.0
194.079697 240.0
194.104187 272.0
194.165802 80.0
194.187012 136.0
194.210175 120.0
194.229599 248.0
194.323914 168.0
194.365524 236.0
194.490417 132.0
194.568146 92.0
194.701202 152.0
194.806961 52.0
194.843079 120.0
194.887527 80.0
194.954224 44.0
194.995911 220.0
195.043442 140.0
195.079773 344.0
195.116013 176.0
195.321213 128.0
195.351807 192.0
195.396332 60.0
195.446411 148.0
195.471451 104.0
195.510406 112.0
195.606918 124.0
195.756592 120.0
195.82222 184.0
195.891846 68.0
195.975433 164.0
196.020874 168.0
196.050461 372.0
196.086945 416.0
196.134277 136.0
196.225342 132.0
196.286514 224.0
196.360123 112.0
196.438217 156.0
196.505173 44.0
196.560974 96.0
196.653061 188.0
196.7061 160.0
196.764725 116.0
196.932266 96.0
197.065186 336.0
197.095047 148.0
197.235886 132.0
197.312302 76.0
197.421555 156.0
197.494949 88.0
197.751465 136.0
197.885834 172.0
198.034241 332.0
198.06636 492.0
198.098679 308.0
198.137894 116.0
198.435669 48.0
198.709824 176.0
198.729462 132.0
198.827667 120.0
198.903458 156.0
198.951172 112.0
198.996094 116.0
199.034622 316.0
199.073853 1708.0
199.106705 424.0
199.324722 40.0
199.366867 136.0
199.406219 164.0
199.44838 216.0
199.546768 160.0
199.726746 68.0
199.766113 136.0
199.926498 120.0
200.046112 568.0
200.080978 160.0
200.120712 52.0
200.171402 108.0
200.233353 84.0
200.307281 212.0
200.402374 128.0
200.422089 156.0
200.482376 184.0
200.565811 164.0
200.591187 40.0
200.797012 184.0
200.836502 136.0
200.878815 216.0
201.019882 212.0
201.053345 876.0
201.089508 4372.0
201.24852 60.0
201.324753 140.0
201.392532 48.0
201.451859 116.0
201.570511 80.0
201.59877 60.0
201.672653 56.0
201.867325 160.0
202.059067 416.0
202.091614 880.0
202.150208 128.0
202.30304 168.0
202.438644 156.0
202.586227 160.0
202.709 108.0
202.74205 176.0
202.917801 188.0
202.963165 116.0
203.000031 100.0
203.028748 148.0
203.07103 488.0
203.090027 720.0
203.19574 92.0
203.229782 232.0
203.371674 120.0
203.547684 156.0
203.647079 84.0
203.749344 116.0
203.7948 168.0
203.917099 204.0
204.016479 136.0
204.042068 224.0
204.086884 136.0
204.095459 236.0
204.246811 80.0
204.272415 168.0
204.334991 120.0
204.434586 148.0
204.579742 136.0
204.613907 172.0
204.633835 112.0
204.687927 120.0
204.761963 40.0
204.924332 136.0
204.957001 156.0
205.054855 428.0
205.080536 360.0
205.101212 196.0
205.135223 148.0
205.186539 76.0
205.375183 132.0
205.440353 124.0
205.620117 164.0
205.802811 176.0
205.862762 80.0
205.888474 180.0
205.959869 44.0
205.98558 116.0
206.056656 236.0
206.076538 304.0
206.10965 356.0
206.137543 64.0
206.33136 156.0
206.477188 156.0
206.534607 156.0
206.560135 136.0
206.588745 160.0
206.737518 68.0
206.902237 164.0
206.923569 232.0
206.955063 108.0
207.02092 96.0
207.046585 172.0
207.081619 304.0
207.110794 228.0
207.152679 136.0
207.175598 120.0
207.27301 132.0
207.35704 196.0
207.467896 60.0
207.502304 192.0
207.545303 40.0
207.634201 76.0
207.898132 124.0
207.946915 216.0
208.018677 172.0
208.055954 256.0
208.086273 476.0
208.234024 64.0
208.274796 184.0
208.5242 132.0
208.587433 164.0
208.621933 176.0
208.653549 56.0
208.693802 180.0
208.731186 196.0
208.990051 184.0
209.059998 576.0
209.094971 724.0
209.123184 296.0
209.145447 136.0
209.234695 136.0
209.274994 140.0
209.298035 176.0
209.444901 80.0
209.473709 124.0
209.499634 136.0
209.604797 40.0
209.709976 136.0
209.758987 80.0
209.836823 96.0
209.957932 148.0
210.062454 480.0
210.107086 420.0
210.285339 140.0
210.358978 100.0
210.399521 124.0
210.6073 196.0
210.991623 76.0
211.07486 920.0
211.111664 256.0
211.234543 80.0
211.27504 200.0
211.30687 164.0
211.361832 112.0
211.390778 76.0
211.499039 176.0
211.564438 108.0
211.696396 160.0
211.798981 156.0
211.85112 104.0
211.884506 100.0
211.944855 136.0
212.016678 144.0
212.045425 604.0
212.077698 796.0
212.117722 156.0
212.155411 128.0
212.268478 56.0
212.407684 276.0
212.479065 172.0
212.610794 316.0
212.75882 92.0
212.860443 136.0
212.901093 140.0
212.982407 96.0
213.013855 92.0
213.053497 696.0
213.091278 680.0
213.123489 348.0
213.182877 128.0
213.217743 136.0
213.467758 104.0
213.531738 124.0
213.573639 176.0
213.758652 132.0
213.781921 200.0
213.848862 188.0
213.950745 172.0
214.026443 176.0
214.061661 204.0
214.08699 156.0
214.195358 172.0
214.250702 208.0
214.399292 196.0
214.472168 136.0
214.568359 68.0
214.600433 144.0
214.638336 188.0
214.793503 176.0
214.836655 192.0
214.994217 60.0
215.031616 196.0
215.07077 1064.0
215.102386 276.0
215.230667 248.0
215.30658 112.0
215.370834 80.0
215.394211 104.0
215.443863 160.0
215.679703 192.0
215.701019 140.0
215.765335 168.0
216.070877 528.0
216.13385 252.0
216.166046 88.0
216.25177 116.0
216.385559 164.0
216.520264 100.0
216.599335 180.0
216.693085 172.0
216.7341 220.0
216.918503 204.0
216.983231 204.0
217.046265 280.0
217.085693 2484.0
217.203171 156.0
217.297043 96.0
217.358658 64.0
217.478973 228.0
217.628693 84.0
217.749084 196.0
217.807831 120.0
217.925339 64.0
217.9841 44.0
218.036469 132.0
218.073944 428.0
218.079391 248.0
218.097931 320.0
218.186722 188.0
218.278061 128.0
218.366272 120.0
218.430145 100.0
218.657547 240.0
218.719345 200.0
218.760559 184.0
218.829132 96.0
218.919556 44.0
219.016739 128.0
219.081177 596.0
219.169937 36.0
219.202347 112.0
219.308441 144.0
219.373032 236.0
219.641617 120.0
219.715363 156.0
219.741928 64.0
219.767365 148.0
219.84787 220.0
219.996902 160.0
220.042877 140.0
220.087433 288.0
220.157013 140.0
220.198105 148.0
220.25444 124.0
220.408768 188.0
220.63974 152.0
220.731384 76.0
220.83786 132.0
220.861511 84.0
221.059372 640.0
221.099762 708.0
221.169235 88.0
221.24324 144.0
221.452438 220.0
221.515686 104.0
221.649002 184.0
221.74823 140.0
221.975067 212.0
222.06665 1320.0
222.103836 436.0
222.158951 64.0
222.27124 208.0
222.4646 76.0
222.553665 164.0
222.883362 300.0
223.002228 116.0
223.073486 1032.0
223.110077 824.0
223.293594 184.0
223.41217 128.0
223.46315 64.0
223.498856 176.0
223.522659 176.0
223.570267 172.0
223.728409 124.0
223.760773 84.0
223.838181 132.0
223.906677 164.0
223.987091 132.0
224.017273 156.0
224.045181 280.0
224.080917 840.0
224.115524 288.0
224.183731 212.0
224.520599 180.0
224.550415 120.0
224.592178 68.0
224.740021 156.0
224.833847 144.0
224.857712 136.0
224.881592 192.0
224.902481 204.0
225.052429 924.0
225.090302 1028.0
225.511795 76.0
225.559616 108.0
225.718063 40.0
225.813766 84.0
225.858627 276.0
225.939392 116.0
225.98056 172.0
226.023163 320.0
226.064499 328.0
226.09761 404.0
226.139877 48.0
226.36441 152.0
226.466232 168.0
226.529129 84.0
226.616013 168.0
226.843781 144.0
226.954697 108.0
227.034882 320.0
227.069977 3920.0
227.107162 756.0
227.162292 200.0
227.254639 28.0
227.407684 200.0
227.615311 172.0
227.832275 188.0
227.864105 104.0
227.913742 116.0
228.034119 180.0
228.074844 932.0
228.103256 224.0
228.269882 108.0
228.308975 160.0
228.3992 220.0
228.793396 60.0
228.850601 136.0
228.910828 104.0
229.047699 448.0
229.084549 584.0
229.160828 68.0
229.248215 152.0
229.293411 68.0
229.37178 80.0
229.474274 40.0
229.549652 40.0
229.730621 96.0
229.893555 128.0
229.968994 132.0
230.058899 432.0
230.095993 252.0
230.129181 364.0
230.27092 80.0
230.427994 28.0
230.464249 92.0
230.542816 212.0
230.665146 160.0
230.712067 124.0
230.843689 188.0
230.905594 84.0
231.068466 800.0
231.097473 480.0
231.164566 112.0
231.196014 80.0
231.467178 132.0
231.56839 88.0
231.595657 116.0
231.624619 220.0
231.883484 52.0
231.910767 52.0
232.033585 208.0
232.071274 372.0
232.07489 168.0
232.089264 504.0
232.141174 212.0
232.177567 212.0
232.40506 140.0
232.4263 148.0
232.483963 140.0
232.605362 160.0
232.656967 52.0
232.742371 132.0
233.037766 212.0
233.05957 296.0
233.095108 488.0
233.123901 240.0
233.138611 268.0
233.516891 120.0
233.92157 156.0
233.961151 156.0
234.012894 168.0
234.070938 292.0
234.100616 508.0
234.135376 140.0
234.190887 116.0
234.329651 88.0
234.385757 144.0
234.515533 188.0
234.704544 80.0
234.75769 204.0
234.914978 68.0
234.98819 160.0
235.039337 180.0
235.075958 1076.0
235.091263 1200.0
235.189606 68.0
235.210968 28.0
235.259811 40.0
235.284225 128.0
235.305603 204.0
235.353226 180.0
235.403305 160.0
235.439957 56.0
235.577393 120.0
235.629333 140.0
235.809616 68.0
235.855469 140.0
235.938004 52.0
235.964798 220.0
236.080048 1528.0
236.119965 408.0
236.185699 112.0
236.207108 44.0
236.447662 184.0
236.540634 132.0
236.601013 100.0
236.705963 120.0
236.74884 96.0
236.810089 72.0
236.877472 196.0
237.056747 756.0
237.092819 984.0
237.127884 432.0
237.206131 176.0
237.281982 108.0
237.318771 40.0
237.34024 92.0
237.444504 136.0
237.46904 96.0
237.551849 104.0
237.576401 60.0
237.689911 108.0
237.714462 108.0
237.969223 140.0
238.017227 172.0
238.06218 996.0
238.095947 588.0
238.217987 144.0
238.337799 160.0
238.589813 140.0
238.617493 172.0
238.765091 80.0
238.79892 164.0
238.88504 192.0
238.940414 136.0
239.014252 52.0
239.07048 1152.0
239.109055 992.0
239.140427 504.0
239.177368 92.0
239.223541 92.0
239.247437 192.0
239.306656 144.0
239.355927 32.0
239.423676 172.0
239.531464 52.0
239.719406 180.0
239.744064 236.0
239.86734 224.0
240.041061 672.0
240.07634 816.0
240.114166 436.0
240.144852 192.0
240.228119 124.0
240.274399 76.0
240.30217 204.0
240.379303 104.0
240.576828 140.0
240.665451 204.0
240.737381 100.0
240.779572 152.0
240.83313 116.0
240.926575 48.0
240.965179 128.0
241.036758 444.0
241.047119 320.0
241.08371 1896.0
241.123825 992.0
241.159515 156.0
241.37027 168.0
241.425491 84.0
241.522385 112.0
241.544037 40.0
241.574982 52.0
241.868942 60.0
241.994812 212.0
242.057465 1828.0
242.092392 324.0
242.12233 336.0
242.293182 124.0
242.465515 136.0
242.556595 36.0
242.782913 52.0
242.835648 60.0
242.872864 380.0
242.922485 196.0
242.975235 228.0
243.021774 120.0
243.063385 532.0
243.101501 1176.0
243.31369 68.0
243.353867 88.0
243.40976 120.0
243.639587 36.0
243.925491 52.0
243.962784 172.0
244.034897 164.0
244.067947 652.0
244.103516 372.0
244.223984 176.0
244.261307 80.0
244.329742 124.0
244.3983 120.0
244.849564 140.0
244.896286 148.0
244.933655 140.0
245.037262 216.0
245.087158 1432.0
245.144073 148.0
245.198486 148.0
245.257706 80.0
245.544556 180.0
245.669312 60.0
245.762909 148.0
245.797226 76.0
245.900208 116.0
245.928299 100.0
245.972 180.0
246.095612 764.0
246.149963 128.0
246.256134 192.0
246.493561 168.0
246.518555 112.0
246.681076 84.0
246.903076 128.0
246.987793 188.0
247.043015 260.0
247.076233 720.0
247.140808 112.0
247.510147 104.0
247.535202 252.0
247.572784 124.0
247.624069 188.0
247.658768 132.0
247.687485 160.0
247.820236 160.0
247.886047 148.0
247.942444 188.0
248.089508 664.0
248.115677 144.0
248.274658 136.0
248.488052 160.0
248.757935 56.0
249.02475 156.0
249.054977 1256.0
249.09285 1984.0
249.313858 36.0
249.383011 72.0
249.455307 112.0
249.559052 196.0
249.640808 140.0
250.060333 524.0
250.094437 724.0
250.134933 144.0
250.295319 128.0
250.374039 124.0
250.522079 80.0
250.6418 192.0
250.679611 60.0
250.730026 140.0
250.824585 116.0
250.956985 108.0
251.070465 1704.0
251.106674 1284.0
251.140152 260.0
251.184052 180.0
251.30394 36.0
251.329178 68.0
251.474335 56.0
251.528 140.0
251.641647 44.0
252.011169 172.0
252.042984 384.0
252.077118 1664.0
252.108658 516.0
252.430862 108.0
252.482162 132.0
252.504303 128.0
252.626083 200.0
252.836487 160.0
252.871307 144.0
252.900726 188.0
253.047943 1200.0
253.087509 1504.0
253.120667 816.0
253.162552 136.0
253.225891 136.0
253.251236 76.0
253.42067 140.0
253.45874 100.0
253.503693 192.0
253.568069 124.0
253.758255 192.0
253.783615 56.0
253.98024 140.0
254.011963 176.0
254.056732 600.0
254.087936 1188.0
254.125687 384.0
254.161072 164.0
254.243576 80.0
254.418137 72.0
254.465759 160.0
254.491165 52.0
254.572433 108.0
254.694412 44.0
254.719818 36.0
254.900314 172.0
254.906235 136.0
254.951752 264.0
254.981918 172.0
255.065262 6600.0
255.098587 992.0
255.137726 188.0
255.188004 124.0
255.218765 72.0
255.27919 56.0
255.403214 64.0
255.428665 152.0
255.454117 32.0
255.498642 40.0
255.555908 196.0
255.699112 108.0
255.797775 32.0
255.851654 52.0
255.902832 84.0
255.953781 160.0
255.982437 44.0
256.035614 408.0
256.068817 1096.0
256.112335 272.0
256.145599 140.0
256.245819 128.0
256.367889 92.0
256.428436 180.0
256.511322 48.0
256.584625 128.0
256.626068 40.0
256.664337 152.0
256.772766 32.0
256.852509 152.0
256.935425 172.0
257.018402 48.0
257.044128 668.0
257.079071 480.0
257.116211 684.0
257.286499 136.0
257.497223 68.0
257.519592 76.0
257.54834 212.0
257.570679 172.0
257.653748 156.0
257.685699 92.0
257.736816 172.0
257.827362 128.0
257.867828 76.0
257.957336 180.0
258.044891 240.0
258.078247 140.0
258.118439 288.0
258.373871 48.0
258.40506 132.0
258.510651 184.0
258.616974 88.0
258.66748 180.0
258.776306 136.0
258.803223 108.0
258.990875 188.0
259.032501 76.0
259.092987 944.0
259.131622 728.0
259.187744 124.0
259.269592 192.0
259.417755 192.0
259.474762 32.0
259.505341 96.0
259.628662 196.0
259.753754 196.0
259.797607 184.0
259.830719 72.0
259.859619 68.0
259.923767 208.0
259.984741 200.0
260.026459 132.0
260.082703 320.0
260.123413 144.0
260.286499 80.0
260.344299 100.0
260.511322 124.0
260.671967 144.0
260.723358 200.0
260.771576 224.0
260.817902 108.0
260.842285 124.0
260.932312 116.0
260.964447 88.0
261.057465 160.0
261.089813 660.0
261.189575 112.0
261.221741 88.0
261.651947 176.0
261.804291 160.0
261.888031 92.0
261.97821 120.0
262.026703 76.0
262.062775 264.0
262.071991 184.0
262.097412 612.0
262.152557 144.0
262.239227 200.0
262.271454 160.0
262.313354 148.0
262.407349 124.0
262.461639 152.0
262.497131 140.0
262.600311 32.0
262.645477 100.0
262.671265 88.0
262.693848 96.0
262.78418 184.0
263.019073 232.0
263.069763 1396.0
263.105957 2248.0
263.300659 160.0
263.371704 36.0
263.494476 96.0
263.555847 168.0
263.746521 52.0
263.791779 120.0
263.827332 164.0
263.847839 124.0
263.949158 356.0
264.037506 108.0
264.0784 3032.0
264.117615 896.0
264.217133 60.0
264.338348 108.0
264.516357 112.0
264.606995 52.0
264.713867 80.0
264.739777 108.0
264.78186 128.0
264.827209 108.0
265.046722 512.0
265.083069 2184.0
265.12265 4644.0
265.169159 228.0
265.235474 116.0
265.350281 160.0
265.404053 212.0
265.511047 180.0
265.559692 44.0
265.682953 188.0
265.926331 56.0
266.057739 1188.0
266.093384 1156.0
266.122803 876.0
266.208771 124.0
266.358154 40.0
266.413391 96.0
266.498962 192.0
266.534668 60.0
266.566101 60.0
266.608337 116.0
266.816376 144.0
266.870636 236.0
266.975677 72.0
267.025848 164.0
267.065094 1988.0
267.100189 1500.0
267.137207 732.0
267.180115 268.0
267.23468 232.0
267.258698 164.0
267.403564 172.0
267.450684 64.0
267.496216 192.0
267.586639 188.0
267.62323 176.0
267.815369 220.0
268.004303 48.0
268.073517 940.0
268.107422 400.0
268.196564 48.0
268.222656 140.0
268.294373 92.0
268.386993 164.0
268.568268 80.0
268.613953 156.0
268.74234 196.0
268.782227 152.0
268.865173 104.0
268.959808 100.0
269.00119 208.0
269.048157 328.0
269.080536 2304.0
269.116791 4948.0
269.184174 164.0
269.269989 140.0
269.332062 64.0
269.426788 180.0
269.466003 80.0
269.494049 136.0
269.524811 116.0
269.616302 36.0
269.664948 88.0
269.760101 124.0
269.835297 136.0
269.93338 104.0
270.019348 112.0
270.047424 816.0
270.083588 520.0
270.110931 232.0
270.168884 140.0
270.204865 108.0
270.329193 156.0
270.401184 148.0
270.56485 44.0
270.630341 144.0
270.682739 96.0
271.061493 664.0
271.095917 1256.0
271.178284 196.0
271.318359 48.0
271.515076 144.0
271.544617 40.0
271.620056 60.0
271.688934 60.0
271.772003 100.0
271.852997 116.0
271.91861 92.0
272.069641 372.0
272.104584 604.0
272.129303 176.0
272.187805 48.0
272.223938 156.0
272.312592 156.0
272.361877 44.0
272.766022 200.0
272.84491 212.0
272.927124 112.0
273.009308 112.0
273.11087 1720.0
273.236267 44.0
273.394226 68.0
273.440277 216.0
273.48407 40.0
273.670715 92.0
273.878174 140.0
273.914581 156.0
273.970428 228.0
274.063232 376.0
274.114716 736.0
274.167419 116.0
274.280182 68.0
274.316254 76.0
274.355988 148.0
274.438416 156.0
274.550537 188.0
274.75174 160.0
274.845642 180.0
275.112732 380.0
275.236908 128.0
275.296326 48.0
275.319458 136.0
275.368988 92.0
275.451569 180.0
275.507721 152.0
275.5672 200.0
275.613434 64.0
275.663025 156.0
275.70929 80.0
275.746887 156.0
275.808441 148.0
275.854706 40.0
276.000183 168.0
276.037659 108.0
276.079193 748.0
276.114075 332.0
276.150879 88.0
276.157257 96.0
276.350769 60.0
276.476501 72.0
276.539398 100.0
276.565857 112.0
276.608887 232.0
276.63208 60.0
276.850586 104.0
276.877075 176.0
277.048645 640.0
277.085571 1048.0
277.12088 936.0
277.177979 144.0
277.277954 64.0
277.350861 128.0
277.393951 192.0
277.473511 204.0
277.513306 40.0
277.745453 60.0
277.828369 120.0
277.888092 164.0
277.951141 56.0
278.056824 488.0
278.095001 1972.0
278.130341 860.0
278.289703 152.0
278.326202 36.0
278.385986 100.0
278.412537 236.0
278.63678 136.0
278.68161 200.0
278.82782 60.0
279.026093 380.0
279.062286 944.0
279.100403 1200.0
279.186859 48.0
279.263367 72.0
279.369781 52.0
279.423035 80.0
279.542816 156.0
279.715881 104.0
279.745819 60.0
279.789948 172.0
279.918152 172.0
280.000061 56.0
280.030792 356.0
280.07309 2112.0
280.108978 1652.0
280.155731 352.0
280.192078 188.0
280.228729 52.0
280.302032 80.0
280.391998 76.0
280.555328 160.0
280.808746 140.0
280.94104 200.0
281.043671 636.0
281.077393 924.0
281.116699 1660.0
281.167542 212.0
281.179565 248.0
281.269196 44.0
281.335938 136.0
281.51178 84.0
281.609772 132.0
281.846954 116.0
281.923798 140.0
281.957214 216.0
282.056854 604.0
282.121429 408.0
282.221283 44.0
282.375122 32.0
282.542358 128.0
282.607758 140.0
282.7771 184.0
282.803375 124.0
283.021423 1532.0
283.057434 752.0
283.099426 732.0
283.132935 900.0
283.312927 136.0
283.355896 92.0
283.394043 144.0
283.432953 40.0
283.459778 264.0
283.516724 120.0
283.731262 180.0
283.81842 48.0
283.973999 176.0
284.030457 948.0
284.06601 372.0
284.101715 328.0
284.137115 544.0
284.16507 92.0
284.241058 68.0
284.55658 64.0
284.632507 168.0
284.724457 100.0
284.751312 44.0
284.864929 172.0
285.039612 1068.0
285.076019 1136.0
285.112366 684.0
285.355499 196.0
285.467133 108.0
285.642029 44.0
285.894379 120.0
285.917908 56.0
285.958313 232.0
286.045166 344.0
286.071289 168.0
286.113007 156.0
286.167023 232.0
286.217529 40.0
286.318542 224.0
286.354492 84.0
286.598145 144.0
286.716064 132.0
286.826691 136.0
287.024963 228.0
287.081085 456.0
287.127258 4508.0
287.252167 156.0
287.299377 44.0
287.474854 116.0
287.623352 136.0
287.646973 40.0
287.813629 136.0
287.849548 84.0
287.901489 188.0
287.930573 64.0
288.00412 52.0
288.075653 372.0
288.131744 1264.0
288.204193 152.0
288.231232 68.0
288.27179 136.0
288.30896 156.0
288.365631 140.0
288.403595 44.0
288.565857 84.0
288.596283 56.0
288.826233 156.0
288.931091 48.0
288.985626 100.0
289.083435 748.0
289.21875 116.0
289.398163 156.0
289.486206 92.0
289.52005 96.0
289.574249 144.0
289.602905 112.0
289.889801 80.0
289.946411 192.0
290.06131 432.0
290.089447 1052.0
290.124634 404.0
290.170746 112.0
290.20285 124.0
290.424957 112.0
290.509766 120.0
290.665833 144.0
290.862671 52.0
291.012054 72.0
291.067596 1536.0
291.09906 1648.0
291.13504 920.0
291.219177 140.0
291.416199 56.0
291.480774 200.0
291.609894 196.0
291.650696 44.0
291.737946 108.0
291.807068 136.0
291.932861 168.0
291.977081 124.0
292.033691 260.0
292.069824 1152.0
292.109589 1140.0
292.146484 852.0
292.279846 148.0
292.412567 44.0
292.501038 96.0
292.548706 164.0
292.595581 104.0
292.691711 172.0
292.840912 156.0
292.916473 196.0
293.047455 624.0
293.083557 1116.0
293.118744 3936.0
293.245422 88.0
293.393555 144.0
293.417419 132.0
293.519714 148.0
293.574249 72.0
293.618591 48.0
293.662933 40.0
293.788513 132.0
293.825134 164.0
293.867615 108.0
293.973389 52.0
294.012787 88.0
294.051544 464.0
294.08905 1388.0
294.122406 1264.0
294.191833 72.0
294.410339 68.0
294.529877 96.0
294.639191 188.0
294.700684 36.0
294.755371 168.0
294.795624 128.0
294.864716 48.0
294.912567 132.0
294.99118 64.0
295.060944 532.0
295.09726 1824.0
295.133057 548.0
295.203156 136.0
295.24762 76.0
295.306244 140.0
295.531525 80.0
295.636353 176.0
295.839447 148.0
295.8909 84.0
296.063995 896.0
296.100922 1544.0
296.131897 364.0
296.184875 264.0
296.307007 112.0
296.42865 124.0
296.493744 96.0
296.534882 192.0
296.567719 116.0
296.610291 128.0
296.69516 84.0
296.819397 60.0
296.894836 172.0
297.040405 512.0
297.078033 700.0
297.108002 660.0
297.171051 92.0
297.190613 108.0
297.220734 100.0
297.268768 52.0
297.584564 36.0
297.618896 200.0
297.742523 44.0
297.814636 212.0
297.862732 120.0
297.896545 52.0
298.045288 1240.0
298.078796 1324.0
298.120026 352.0
298.154419 124.0
298.201111 132.0
298.405701 52.0
298.50885 40.0
298.601685 132.0
298.629211 92.0
298.753052 40.0
298.908844 112.0
299.054352 888.0
299.093811 1124.0
299.127747 400.0
299.162292 156.0
299.26239 156.0
299.365692 120.0
299.438019 64.0
299.462128 180.0
299.541351 68.0
299.575775 100.0
299.661926 80.0
299.947937 92.0
300.027374 180.0
300.099213 516.0
300.216858 88.0
300.244446 28.0
300.375519 96.0
300.579071 64.0
300.786133 44.0
300.872589 204.0
301.064758 196.0
301.114014 308.0
301.144745 284.0
301.231598 64.0
301.546021 188.0
301.656616 56.0
301.786346 76.0
301.864594 80.0
301.919403 84.0
301.971252 92.0
302.104675 1160.0
302.289551 112.0
302.331055 168.0
302.379517 96.0
302.63913 148.0
302.80188 40.0
302.848358 116.0
302.895416 196.0
302.99588 68.0
303.081482 280.0
303.11615 524.0
303.169128 156.0
303.321625 144.0
303.36322 120.0
303.605927 172.0
303.647522 92.0
303.89035 108.0
303.928528 40.0
304.073944 536.0
304.110321 692.0
304.264557 88.0
304.473511 140.0
304.549927 44.0
304.586884 64.0
305.02887 76.0
305.080048 1168.0
305.114471 492.0
305.210205 44.0
305.30014 152.0
305.443207 184.0
305.60672 56.0
305.746002 76.0
305.836395 108.0
305.982605 120.0
306.048401 228.0
306.088409 1140.0
306.118805 312.0
306.161346 304.0
306.240295 184.0
306.369171 64.0
306.428406 40.0
306.620056 72.0
306.686279 88.0
306.895416 188.0
306.944244 92.0
307.061218 1736.0
307.096191 2228.0
307.134064 1084.0
307.160919 448.0
307.20932 132.0
307.244202 32.0
307.394226 92.0
307.432617 52.0
307.488434 180.0
307.696533 124.0
307.743256 48.0
307.816589 36.0
307.910889 132.0
308.001678 184.0
308.065704 1688.0
308.103302 4072.0
308.172882 92.0
308.225281 60.0
308.382538 136.0
308.42099 60.0
308.678009 108.0
308.751587 192.0
308.838867 244.0
308.85199 136.0
308.865723 144.0
308.990997 180.0
309.038147 636.0
309.077759 1000.0
309.111298 5676.0
309.197449 204.0
309.361938 60.0
309.403961 136.0
309.482239 72.0
309.649048 84.0
309.719116 380.0
309.761139 284.0
309.910156 112.0
309.939819 96.0
310.006409 100.0
310.032135 256.0
310.11618 1776.0
310.150848 400.0
310.181183 32.0
310.194885 144.0
310.24823 176.0
310.313324 188.0
310.363922 156.0
310.413025 136.0
310.477112 144.0
310.549805 108.0
310.855011 184.0
310.886597 76.0
311.053467 696.0
311.092102 776.0
311.126495 3584.0
311.157135 932.0
311.462372 96.0
311.515076 156.0
311.690735 28.0
311.761993 156.0
311.884033 44.0
311.990936 144.0
312.058075 408.0
312.084778 424.0
312.094238 228.0
312.128845 620.0
312.222046 116.0
312.274292 88.0
312.309479 92.0
312.365753 140.0
312.671844 64.0
312.838898 156.0
313.036316 724.0
313.106384 1556.0
313.170502 308.0
313.240509 172.0
313.481812 72.0
313.626312 168.0
313.813141 140.0
313.887207 72.0
314.000031 176.0
314.073853 288.0
314.116211 608.0
314.179932 96.0
314.328125 144.0
314.511627 68.0
314.546936 80.0
314.71286 148.0
314.875275 120.0
315.056122 124.0
315.096893 404.0
315.10437 308.0
315.119049 576.0
315.161224 204.0
315.200104 160.0
315.36145 100.0
315.440613 56.0
315.553741 136.0
315.627991 64.0
315.80127 76.0
315.879089 92.0
316.021515 1120.0
316.102295 280.0
316.18692 56.0
316.300171 140.0
316.353271 52.0
316.378052 152.0
316.671936 140.0
316.732147 44.0
317.025024 420.0
317.096252 400.0
317.121216 252.0
317.133453 368.0
317.323975 248.0
317.487061 172.0
317.667969 40.0
317.731812 36.0
317.923431 92.0
318.047638 224.0
318.090393 616.0
318.122559 236.0
318.168335 48.0
318.392029 136.0
318.619354 116.0
318.665741 136.0
318.939392 132.0
318.971161 88.0
319.056488 616.0
319.098602 968.0
319.135223 968.0
319.171997 180.0
319.211151 160.0
319.404968 48.0
319.433411 84.0
320.018921 224.0
320.052368 232.0
320.105682 848.0
320.184418 112.0
320.216492 132.0
320.412384 80.0
320.611938 96.0
320.78302 192.0
320.807953 100.0
320.986237 116.0
321.04184 308.0
321.077362 1136.0
321.113708 1752.0
321.188416 352.0
321.260681 80.0
321.335785 52.0
321.375031 144.0
321.582001 60.0
321.606964 116.0
321.736633 136.0
321.921143 100.0
322.042755 772.0
322.082031 1452.0
322.116241 704.0
322.220215 164.0
322.285492 32.0
322.362 136.0
322.410553 60.0
322.546387 56.0
322.580017 216.0
322.604675 128.0
322.660767 56.0
322.710815 96.0
322.749146 172.0
322.88559 160.0
322.930267 176.0
323.047791 256.0
323.089905 2124.0
323.125183 1952.0
323.165588 1316.0
323.22229 56.0
323.385468 88.0
323.398468 52.0
323.406525 100.0
323.465668 32.0
323.662567 92.0
323.838043 84.0
323.94458 156.0
323.988495 184.0
324.052063 124.0
324.084351 412.0
324.127777 680.0
324.15918 588.0
324.232147 92.0
324.317657 88.0
324.375519 164.0
324.805786 132.0
324.856018 52.0
324.891907 72.0
325.071228 408.0
325.107422 1548.0
325.17923 1104.0
325.243561 172.0
325.272278 140.0
325.4841 164.0
325.5383 164.0
325.678009 104.0
325.810913 100.0
325.842133 44.0
325.962585 172.0
326.051666 56.0
326.112549 892.0
326.189606 252.0
326.346436 128.0
326.497437 32.0
326.641327 96.0
326.788818 172.0
326.857178 100.0
326.952881 144.0
326.994629 104.0
327.049011 728.0
327.114258 244.0
327.172089 144.0
327.178955 228.0
327.210266 164.0
327.350311 52.0
327.404327 140.0
327.841003 56.0
327.876282 60.0
327.988007 124.0
328.059723 164.0
328.121674 476.0
328.164642 212.0
328.229553 216.0
328.449554 172.0
328.638489 224.0
329.035645 116.0
329.062592 136.0
329.132477 448.0
329.167511 304.0
329.254395 128.0
329.294128 28.0
329.496399 140.0
329.651764 44.0
329.883087 36.0
330.112885 180.0
330.147858 168.0
330.226593 72.0
330.280853 176.0
330.523224 236.0
331.096161 252.0
331.133301 136.0
331.16272 180.0
331.406708 44.0
331.432068 188.0
331.529907 116.0
331.571533 100.0
331.696625 180.0
331.961304 148.0
332.074127 312.0
332.097015 76.0
332.128113 164.0
332.160767 112.0
332.186157 168.0
333.012115 144.0
333.075928 560.0
333.118042 868.0
333.213531 152.0
333.733246 36.0
333.769623 148.0
333.882355 112.0
333.91507 68.0
334.080139 256.0
334.121765 516.0
334.540924 88.0
334.617371 112.0
334.813995 116.0
334.912323 164.0
335.05658 320.0
335.089783 732.0
335.129944 192.0
335.218353 156.0
335.25116 80.0
335.309479 76.0
335.593811 164.0
335.889191 144.0
336.061401 524.0
336.101044 1480.0
336.126892 912.0
336.341644 104.0
336.504486 112.0
336.553375 104.0
336.710419 88.0
336.805359 28.0
336.860168 56.0
336.896698 64.0
336.953827 88.0
337.03186 148.0
337.109283 3560.0
337.175201 692.0
337.287689 136.0
337.382721 80.0
337.562836 172.0
337.678925 56.0
337.83255 56.0
337.95694 68.0
337.989868 84.0
338.076599 224.0
338.109741 1304.0
338.151489 240.0
338.186462 424.0
339.059143 180.0
339.12326 756.0
339.188202 224.0
339.238739 64.0
339.484375 196.0
339.521057 36.0
339.579742 196.0
339.656769 116.0
339.697113 36.0
340.051788 156.0
340.089081 488.0
340.127808 232.0
340.19986 176.0
340.225555 96.0
340.318634 56.0
340.55603 260.0
340.58371 60.0
340.613007 256.0
340.722046 224.0
340.912384 116.0
340.93811 100.0
341.102081 1584.0
341.174591 1140.0
341.250549 128.0
341.445435 80.0
341.544739 52.0
341.644073 68.0
341.728699 140.0
341.754456 60.0
341.949463 176.0
342.045166 60.0
342.105988 332.0
342.146942 188.0
342.1745 156.0
342.221863 36.0
342.288147 144.0
342.383911 120.0
342.492279 60.0
342.770691 208.0
342.851776 72.0
342.946198 176.0
342.991821 36.0
343.054474 168.0
343.114868 808.0
343.188904 2480.0
343.249878 76.0
343.281891 164.0
343.331024 100.0
343.386322 144.0
343.504364 144.0
343.574463 88.0
343.747864 56.0
343.803223 100.0
343.910248 104.0
343.950836 64.0
344.085938 396.0
344.117767 388.0
344.192596 812.0
344.305298 60.0
344.438263 72.0
344.755981 64.0
345.044312 152.0
345.110382 156.0
345.150269 216.0
345.21463 336.0
345.499176 220.0
345.759247 56.0
345.861816 68.0
345.921051 52.0
345.995087 72.0
346.10434 148.0
346.15918 256.0
346.209717 108.0
346.254272 104.0
346.350586 164.0
346.698853 136.0
347.125732 668.0
347.203033 152.0
347.310577 120.0
347.481232 132.0
347.985962 80.0
348.107666 148.0
348.133606 808.0
348.245911 140.0
348.395569 152.0
348.487366 40.0
348.5914 112.0
348.680603 48.0
348.937073 44.0
348.977966 116.0
349.01889 136.0
349.076019 556.0
349.109009 384.0
349.14566 336.0
349.1763 324.0
349.312683 36.0
349.40567 132.0
349.532196 156.0
349.703369 56.0
350.074921 864.0
350.16748 188.0
350.21344 132.0
350.477936 68.0
350.548737 168.0
350.738831 200.0
350.95282 60.0
350.977417 144.0
351.085968 4660.0
351.159271 1296.0
351.227264 40.0
351.33429 240.0
351.427826 164.0
351.458588 64.0
351.528168 68.0
351.570526 60.0
351.704865 44.0
351.742218 68.0
351.99234 148.0
352.088654 1648.0
352.162872 312.0
352.510345 136.0
352.545197 168.0
352.634888 40.0
352.743286 116.0
352.776917 100.0
352.866638 164.0
352.935608 272.0
353.100403 704.0
353.170715 1244.0
353.483795 132.0
353.554901 112.0
353.655945 132.0
353.682159 120.0
353.754761 60.0
353.820648 96.0
353.962952 120.0
354.100861 180.0
354.176941 404.0
354.401184 80.0
354.435608 108.0
354.524841 52.0
354.596039 64.0
354.622284 48.0
354.903442 184.0
355.118286 1412.0
355.180756 184.0
355.634949 136.0
356.122375 1232.0
356.202637 128.0
356.423584 128.0
356.761841 76.0
357.051361 148.0
357.132996 1840.0
357.201813 136.0
357.243195 216.0
357.461395 64.0
357.675934 172.0
357.946991 108.0
358.014771 100.0
358.140656 180.0
358.432892 64.0
358.515808 76.0
358.636414 48.0
358.764557 120.0
358.964386 172.0
359.051117 80.0
359.086792 264.0
359.128113 260.0
359.165558 116.0
359.371765 68.0
359.462311 128.0
359.749176 96.0
359.835999 68.0
360.00592 184.0
360.066315 172.0
360.096558 80.0
360.139099 380.0
360.417633 140.0
360.527222 68.0
360.746429 188.0
360.833405 104.0
361.143372 996.0
361.317474 68.0
361.381805 100.0
361.650482 48.0
361.680756 160.0
361.866241 72.0
361.983643 60.0
362.153137 444.0
362.252533 80.0
362.351044 64.0
363.040894 276.0
363.083771 248.0
363.122803 480.0
363.583374 196.0
363.795929 200.0
363.88324 168.0
364.008545 128.0
364.100372 732.0
364.128113 740.0
364.247803 64.0
364.456757 92.0
364.528961 128.0
364.825409 44.0
364.943268 116.0
365.099243 960.0
365.175354 1800.0
365.253632 144.0
365.452911 120.0
365.498596 44.0
365.582306 116.0
365.659943 148.0
365.848724 84.0
365.997223 144.0
366.056549 164.0
366.10675 592.0
366.143646 140.0
366.177826 468.0
366.541901 40.0
366.713379 84.0
366.774384 148.0
366.980225 132.0
367.072876 160.0
367.114014 380.0
367.184418 492.0
367.331085 48.0
367.613403 76.0
368.082947 192.0
368.120209 320.0
368.196167 164.0
368.360718 104.0
368.392303 156.0
368.686493 84.0
368.713867 124.0
368.770569 152.0
368.869965 136.0
368.915833 156.0
368.973175 44.0
369.04007 112.0
369.096832 10972.0
369.171997 752.0
369.270447 128.0
369.634644 72.0
369.65155 100.0
369.801941 164.0
369.966736 180.0
369.992859 52.0
370.100311 3404.0
370.169861 420.0
370.205231 40.0
370.346924 64.0
370.389069 64.0
370.509949 100.0
370.538452 88.0
370.707062 140.0
370.791351 136.0
370.865234 136.0
371.021332 140.0
371.100494 288.0
371.182007 2704.0
371.328094 88.0
371.485352 76.0
371.884399 132.0
371.911285 64.0
371.995728 148.0
372.067871 212.0
372.091583 136.0
372.137787 64.0
372.186096 984.0
372.233765 32.0
372.331543 108.0
372.421936 80.0
372.47467 104.0
372.637054 136.0
372.702393 44.0
372.779236 92.0
372.882996 72.0
373.114014 120.0
373.19397 340.0
373.398163 120.0
373.444305 72.0
373.525085 40.0
373.736694 52.0
373.890594 140.0
374.121552 160.0
374.213959 140.0
374.379517 96.0
374.522034 124.0
374.764709 152.0
375.126984 268.0
375.404572 44.0
375.43158 72.0
376.06427 36.0
376.114471 116.0
376.174408 136.0
376.353821 164.0
376.7323 64.0
377.105377 296.0
377.130402 148.0
377.174652 980.0
377.586517 96.0
377.748962 68.0
378.120789 164.0
378.178101 928.0
378.259735 176.0
378.43396 160.0
378.716644 32.0
378.952942 120.0
379.072296 160.0
379.080688 124.0
379.153931 11456.0
379.239716 76.0
379.277527 244.0
379.363739 68.0
379.473785 84.0
379.526581 60.0
379.735992 48.0
379.836823 160.0
379.863983 48.0
379.968719 44.0
380.047668 208.0
380.155487 2188.0
380.283691 116.0
380.395599 108.0
380.446075 80.0
380.509247 160.0
380.931488 44.0
381.036377 136.0
381.090332 232.0
381.159485 524.0
381.253967 60.0
381.335571 52.0
381.405518 60.0
381.440521 44.0
381.49881 64.0
381.660675 140.0
381.709991 168.0
381.914886 44.0
382.140686 196.0
382.27417 196.0
382.335083 172.0
382.463501 116.0
382.509888 144.0
382.549133 60.0
382.584167 84.0
382.623108 44.0
382.652679 128.0
382.704865 68.0
382.732117 84.0
382.94632 192.0
383.114838 196.0
383.182831 296.0
383.232574 132.0
383.519043 40.0
383.678894 136.0
384.117249 200.0
384.189758 96.0
384.253143 144.0
384.958649 56.0
385.013336 48.0
385.100769 108.0
385.142212 104.0
385.194672 136.0
385.224243 168.0
385.337524 52.0
385.697052 52.0
385.93161 48.0
386.267944 100.0
386.44397 160.0
386.753143 184.0
386.88623 128.0
387.058502 188.0
387.101562 132.0
387.207306 124.0
387.759705 100.0
388.092896 80.0
388.141785 164.0
388.41449 92.0
388.70874 132.0
389.058044 48.0
389.1315 160.0
389.674622 92.0
389.859314 84.0
390.140656 144.0
390.393921 116.0
390.641724 112.0
390.708588 96.0
391.109985 116.0
391.155701 116.0
391.42099 64.0
391.676971 52.0
391.992157 188.0
392.127106 708.0
392.268036 172.0
392.547943 124.0
392.930542 220.0
392.970001 168.0
393.041016 92.0
393.113831 400.0
393.168152 4184.0
393.850311 76.0
393.881927 36.0
394.028076 40.0
394.111053 172.0
394.172546 1156.0
394.395599 44.0
394.466736 44.0
394.506256 44.0
394.569519 128.0
394.71582 120.0
394.759308 196.0
394.889832 160.0
394.917511 140.0
395.048309 56.0
395.083649 124.0
395.136322 256.0
395.184875 1276.0
395.241882 124.0
395.526825 44.0
395.602051 140.0
395.655365 172.0
395.700897 128.0
395.799988 40.0
395.962372 196.0
396.184143 572.0
396.23172 160.0
396.30304 60.0
396.342651 84.0
396.457947 84.0
396.550049 144.0
396.669708 84.0
396.77829 188.0
396.820557 152.0
396.864075 196.0
396.893616 36.0
396.954193 132.0
397.009918 208.0
397.164886 37204.0
397.296692 120.0
397.377747 144.0
397.395752 40.0
397.404327 264.0
397.465576 100.0
397.55304 84.0
397.639374 32.0
397.717438 68.0
397.794189 48.0
397.871552 140.0
397.960938 64.0
398.028412 144.0
398.092041 244.0
398.167511 11492.0
398.307068 212.0
398.393829 100.0
398.449432 56.0
398.497101 44.0
398.561737 144.0
398.60202 80.0
398.65506 64.0
398.714935 156.0
398.791748 56.0
398.855835 196.0
398.898499 100.0
398.94223 68.0
398.985962 104.0
399.029877 76.0
399.06546 36.0
399.107086 96.0
399.168793 1836.0
399.218079 208.0
399.327911 52.0
399.383362 72.0
399.492371 92.0
399.610962 52.0
399.650146 108.0
399.741638 36.0
399.805328 68.0
399.865021 48.0
399.912781 120.0
400.040161 64.0
400.175873 360.0
400.28714 120.0
400.362671 72.0
400.394531 100.0
400.437836 132.0
400.446838 116.0
400.459106 148.0
400.523865 192.0
400.582397 184.0
400.665375 76.0
400.812531 184.0
400.860596 140.0
401.125122 156.0
401.157776 76.0
401.326965 88.0
401.366852 104.0
401.496613 96.0
401.626068 132.0
401.653992 48.0
401.806061 132.0
402.0849 52.0
402.212616 48.0
402.252533 72.0
402.328369 156.0
402.444305 96.0
402.751648 40.0
402.799591 120.0
403.156769 616.0
403.370972 28.0
403.534882 76.0
403.826813 60.0
404.159698 276.0
404.479004 128.0
404.737366 200.0
404.915405 164.0
404.990234 112.0
405.019562 48.0
405.055603 64.0
405.156128 132.0
405.368103 108.0
405.566315 96.0
405.648651 56.0
406.077667 60.0
406.125824 72.0
406.165924 36.0
406.820007 76.0
407.14389 276.0
407.253662 40.0
407.362122 36.0
407.632477 124.0
407.796082 84.0
407.912628 40.0
407.944794 104.0
408.097565 140.0
408.845734 56.0
409.626831 48.0
409.739624 40.0
409.829742 164.0
410.154694 48.0
410.46109 128.0
411.170319 252.0
411.627258 160.0
412.164459 184.0
413.041748 40.0
413.18988 664.0
413.5961 140.0
413.709442 136.0
413.863281 60.0
414.061707 76.0
414.193329 140.0
414.418182 120.0
414.495148 108.0
414.535675 68.0
414.645111 76.0
414.70993 104.0
414.742371 64.0
414.896393 172.0
415.0383 44.0
415.123474 76.0
415.172577 344.0
415.285675 68.0
415.995758 88.0
416.12973 140.0
416.170746 160.0
416.205597 208.0
416.252533 164.0
416.320587 92.0
416.426178 156.0
416.682098 52.0
417.161621 124.0
417.373016 124.0
418.076752 152.0
418.280273 100.0
418.426819 84.0
418.728119 88.0
418.874756 208.0
419.049927 112.0
419.119202 200.0
419.168091 48.0
419.290344 64.0
419.386658 108.0
419.469696 76.0
419.59198 88.0
419.628693 68.0
419.68927 144.0
419.730621 196.0
419.869263 96.0
419.954895 64.0
419.983459 28.0
420.020172 100.0
420.060944 52.0
420.138458 124.0
420.175171 132.0
420.293488 124.0
420.326141 84.0
420.424072 116.0
420.559265 196.0
420.598633 244.0
420.634979 124.0
420.741272 96.0
420.818878 128.0
420.832062 80.0
420.846466 92.0
420.85376 120.0
420.909515 148.0
420.935547 192.0
420.992096 140.0
421.018982 144.0
421.058807 464.0
421.164459 50456.0
421.2742 104.0
421.331085 80.0
421.387451 240.0
421.397827 204.0
421.472168 108.0
421.495941 140.0
421.581879 156.0
421.615601 208.0
421.645416 64.0
421.675659 88.0
421.722412 84.0
421.75824 228.0
421.791504 124.0
421.834412 80.0
421.869049 36.0
421.903503 176.0
421.970551 276.0
422.049072 168.0
422.166809 14640.0
422.259613 96.0
422.306793 140.0
422.374146 136.0
422.426117 172.0
422.491943 80.0
422.550659 80.0
422.683838 140.0
422.721008 48.0
422.761505 96.0
422.827972 56.0
422.889679 96.0
422.94986 32.0
423.011261 76.0
423.045288 52.0
423.117096 132.0
423.167755 2412.0
423.228241 132.0
423.296204 60.0
423.351105 52.0
423.412506 56.0
423.457275 56.0
423.61731 68.0
423.726288 60.0
423.781342 112.0
423.867218 64.0
423.920502 68.0
423.965576 56.0
424.035248 64.0
424.176849 604.0
424.245667 104.0
424.31842 96.0
424.367279 168.0
424.44455 208.0
424.474335 108.0
424.521149 152.0
424.584961 96.0
424.63382 40.0
424.714966 148.0
424.769165 40.0
424.808563 40.0
424.872711 84.0
424.933502 140.0
424.974304 76.0
425.064575 48.0
425.101501 100.0
425.170898 140.0
425.241028 120.0
425.276123 80.0
425.319031 36.0
425.536591 124.0
425.624878 72.0
425.819916 28.0
425.900116 88.0
425.967804 56.0
426.222504 80.0
426.27182 160.0
426.370453 68.0
426.571838 60.0
426.62735 104.0
426.662292 56.0
426.748627 76.0
426.793854 76.0
426.84729 44.0
426.921326 68.0
426.999451 52.0
427.051544 60.0
427.094055 96.0
427.258606 80.0
427.55484 64.0
427.789459 40.0
428.168274 76.0
428.415405 68.0
428.6008 36.0
429.309784 68.0
429.76767 36.0
430.139099 80.0
430.621552 60.0
430.981567 100.0
432.068939 60.0
432.155792 88.0
433.004395 104.0
433.451813 96.0
433.617554 40.0
434.658447 140.0
436.070404 44.0
437.039307 60.0
437.721954 136.0
437.896851 108.0
437.980164 176.0
438.175934 128.0
438.676025 172.0
439.026245 128.0
439.175903 3152.0
439.259827 152.0
439.40683 100.0
439.464233 112.0
439.672882 60.0
439.756348 48.0
440.119537 92.0
440.18219 940.0
440.228088 112.0
440.545532 40.0
440.641602 88.0
441.118011 92.0
441.180481 180.0
441.615601 48.0
441.782928 44.0
441.975372 108.0
442.05069 36.0
442.276672 80.0
442.536224 44.0
442.927887 76.0
443.059753 96.0
443.147736 80.0
443.721893 100.0
444.137054 40.0
444.300659 64.0
444.695099 72.0
445.106506 60.0
445.656738 120.0
446.623627 92.0
447.58313 28.0
450.50589 52.0
454.477081 40.0
454.655304 60.0
455.079773 128.0
455.466217 104.0
456.601044 100.0
456.639313 48.0
457.060455 44.0
457.185425 540.0
457.277496 136.0
457.750031 92.0
458.186218 360.0
459.315063 92.0
460.218719 260.0
460.453705 72.0
464.026703 28.0
464.133911 68.0
465.507019 112.0
467.075714 168.0
467.38974 52.0
473.740631 100.0
474.993378 48.0
475.631256 48.0
480.483307 84.0
481.806122 56.0
481.941559 76.0
483.62738 40.0
486.873932 60.0
488.108734 52.0
491.68576 88.0
491.924103 124.0
492.546722 80.0
492.727844 124.0
493.771027 72.0
496.237488 100.0
496.60553 92.0
497.16452 72.0
497.568451 52.0
498.412323 92.0
500.609741 64.0
506.388641 64.0
506.912781 84.0
509.915039 112.0
512.736877 120.0
514.455383 72.0
515.959717 32.0
516.941223 56.0
517.230896 68.0
518.480896 28.0
519.519226 148.0
520.204468 76.0
524.662598 48.0
527.054138 124.0
527.209534 32.0
529.144348 92.0
529.950439 68.0
530.119995 152.0
531.312073 100.0
532.482605 76.0
543.478516 88.0
544.327942 72.0
545.015442 48.0
546.968628 108.0
547.150208 104.0
547.434204 112.0
548.883423 68.0
549.732422 64.0
555.604431 100.0
555.782715 64.0
559.787537 76.0
560.960693 60.0
561.53125 96.0
567.105469 112.0
569.311584 104.0
569.35907 104.0
572.350098 140.0
574.938538 120.0
576.858582 100.0
576.992432 56.0
579.672791 56.0
580.550049 28.0
583.334778 72.0
585.5047 60.0
586.087585 120.0
586.299622 48.0
586.463501 76.0
587.215637 48.0
588.021301 48.0
588.137146 104.0
591.322266 92.0
594.287903 84.0
596.283752 44.0
598.000549 40.0
598.8526 40.0
607.612305 52.0
610.382446 76.0
612.991333 64.0
615.86261 108.0
616.262756 92.0
618.359375 72.0
622.846558 100.0
623.373169 64.0
627.399719 88.0
632.093018 64.0
638.807495 52.0
641.546936 44.0
643.544739 68.0
645.358643 68.0
645.449646 60.0
646.314575 132.0
647.281372 52.0
650.566711 104.0
651.836487 104.0
654.618958 88.0
655.918091 60.0
658.30072 108.0
661.107178 132.0
663.709351 48.0
664.03241 60.0
669.263733 48.0
671.453796 104.0
671.495056 52.0
675.99469 68.0
679.372803 64.0
679.477295 84.0
680.618408 64.0
696.799377 80.0
699.260315 88.0
700.877014 112.0
701.472534 60.0
704.073669 80.0
705.045715 40.0
708.649231 56.0
709.756958 92.0
710.228943 64.0
716.240601 20.0
716.347107 104.0
717.828796 60.0
718.847595 144.0
724.863403 112.0
728.060547 44.0
728.46875 52.0
730.79657 56.0
731.582336 72.0
733.009583 112.0
733.311401 68.0
736.159851 132.0
736.402893 48.0
738.478333 76.0
740.470032 112.0
742.952515 80.0
745.140381 96.0
751.150391 136.0
752.290894 88.0
756.023926 64.0
756.511047 108.0
759.299988 84.0
759.426147 108.0
764.634583 216.0
766.385681 36.0
768.800903 72.0
769.904968 56.0
775.154724 104.0
775.514954 80.0
776.612732 76.0
781.818481 44.0
796.433105 112.0
800.24585 48.0
803.943542 56.0
809.794861 96.0
816.486145 68.0
818.227295 80.0
821.173279 80.0
823.370544 88.0
823.604736 80.0
825.130493 48.0
832.028198 36.0
833.682434 80.0
840.875427 72.0
841.585449 60.0
864.335815 88.0
866.549072 36.0
872.435425 100.0
872.799927 52.0
902.088379 100.0
911.323608 68.0
927.642395 44.0
928.430603 112.0
942.119507 52.0
944.218811 44.0
949.02301 88.0
959.043335 100.0
961.454773 40.0
979.118286 48.0
979.609314 60.0
998.33606 164.0
1000.909729 64.0
1002.528625 136.0
1006.294312 144.0
1018.020996 80.0
1018.789551 56.0
1019.138977 220.0
1019.348633 32.0
1026.223022 176.0
1027.779297 36.0
1032.052368 56.0
1034.675415 48.0
1039.129639 224.0
1039.874023 168.0
1041.793945 72.0
1050.084351 136.0
1054.12561 44.0
1055.450806 88.0
1061.271606 152.0
1067.791382 44.0
1069.190063 92.0
1073.939575 120.0
1087.404541 180.0
1091.221069 160.0
1091.773315 68.0
1095.241821 176.0
1097.205566 60.0
1103.332031 124.0
1104.945679 128.0
1109.40918 112.0
1117.784302 96.0
1123.08728 100.0
1136.553955 228.0
1139.904663 48.0
1151.687622 112.0
1161.210571 148.0
1164.380005 180.0
1173.927856 60.0
1175.066895 92.0
1178.542114 128.0
1186.316772 208.0
1193.663086 80.0
1201.984009 80.0
1203.985962 208.0
1212.619995 48.0
1218.865601 44.0
1222.272827 208.0
1223.254028 176.0
1225.719482 56.0
1228.724609 144.0
1229.457275 140.0
1233.822754 88.0
1254.370239 96.0
1260.390259 48.0
1260.524536 124.0
1260.969727 120.0
1279.703979 96.0
1287.933472 72.0
1294.713623 144.0
1295.179199 180.0
1296.296753 84.0
1297.235718 140.0
1301.863403 68.0
1302.890503 140.0
1307.21167 52.0
1309.861084 184.0
1327.546631 84.0
1333.303467 44.0
1335.993774 60.0
1339.145508 220.0
1340.806641 72.0
1344.679321 140.0
1350.378052 252.0
1351.753296 40.0
1358.68457 200.0
1360.343018 96.0
1361.738159 60.0
1363.692505 88.0
1368.665405 180.0
1370.484741 240.0
1376.752441 176.0
1377.087036 72.0
1381.973267 148.0
1387.231445 140.0
1390.509888 100.0
1391.690186 180.0
1399.571533 40.0
1401.590088 76.0
1406.265869 176.0
1410.740112 152.0
1412.63208 208.0
1415.049316 40.0
1416.539551 152.0
1417.71582 104.0
1421.675415 36.0
1425.505127 176.0
1429.422852 56.0
1431.733887 100.0
1432.856201 176.0
1441.450073 208.0
1444.277588 48.0
1446.600586 124.0
1453.846436 116.0
1454.544678 136.0
1461.262573 180.0
1464.223511 176.0
1464.360718 140.0
1465.290039 200.0
1468.888184 224.0
1478.652832 176.0
1482.436035 144.0
1484.873779 188.0
1485.65332 140.0
1485.947754 156.0
1487.114136 36.0
1489.770874 64.0
1492.337769 80.0
1492.476196 68.0
1493.352905 172.0
1494.722168 36.0
1501.462646 56.0
1504.085938 156.0
