>compound MLS001148627-01!
>formula C29H33ClN2O2
>ionization [M+H]+
>parentmass 477.228333
#inchi InChI=1S/C29H33ClN2O2/c1-31(2)27(33)29(24-9-5-3-6-10-24,25-11-7-4-8-12-25)19-22-32-20-17-28(34,18-21-32)23-13-15-26(30)16-14-23/h3-16,34H,17-22H2,1-2H3
#inchikey RDOIQAHITMMDAJ
#origInchi InChI=1S/C29H33ClN2O2.ClH/c1-31(2)27(33)29(24-9-5-3-6-10-24,25-11-7-4-8-12-25)19-22-32-20-17-28(34,18-21-32)23-13-15-26(30)16-14-23;/h3-16,34H,17-22H2,1-2H3;1H
#Ion_Source LC-ESI
#Instrument qTof
#Compound_Source NIH Pharmacologically Active Library
#PI Dorrestein
#Data_Collector VP/LMS
#Scan -1
#Precursor_MZ 477.231
#ExactMass 476.223
#Charge 1
#CAS_Number N/A
#Pubmed_ID N/A
#Smiles CN(C)C(=O)C(CCN1CCC(O)(CC1)c2ccc(Cl)cc2)(c3ccccc3)c4ccccc4.Cl
#INCHI_AUX N/A
#Library_Class 1
#SpectrumID CCMSLIB00000085073
#IonMode Positive
#UpdateWorkflowName UPDATE-SINGLE-ANNOTATED-GOLD
#LibraryQualityString Gold
#TaskID d252d724072548979f1f6f1ced849daf
##Scan# 1970
#SpectrumFile p3-E06_GE6_01_18275.mzXML
#LibraryName Pharm_Active_Library.mgf
#MQScore -1
#Organism Pharm_Active_Library
#TIC_Query 0
#RT_Query -1
#MZErrorPPM -1
#SharedPeaks 0
#MassDiff 0
#LibMZ -1
#SpecMZ 477.231
#SpecCharge 0
#internalFilename spec-00000.mgf

>collision 10
44.889702 124.0
44.902081 156.0
44.920715 144.0
44.954388 204.0
44.989704 220.0
45.011143 96.0
45.051212 96.0
45.065094 72.0
45.069027 144.0
45.090809 212.0
45.118034 124.0
45.15414 128.0
45.169895 144.0
45.199627 128.0
45.214352 140.0
45.242462 92.0
45.254513 124.0
45.265224 100.0
45.291142 180.0
45.329525 216.0
45.354992 224.0
45.380707 156.0
45.399239 228.0
45.420948 152.0
45.435455 72.0
45.470345 116.0
45.488083 184.0
45.504684 348.0
45.517712 172.0
45.533451 148.0
45.54554 200.0
45.580471 92.0
45.597942 156.0
45.615417 92.0
45.640965 168.0
45.666515 116.0
45.678623 196.0
45.700966 132.0
45.721684 44.0
45.741871 144.0
45.783615 136.0
45.801125 100.0
45.823387 164.0
45.838688 168.0
45.852032 184.0
45.872986 172.0
45.893505 132.0
45.915695 200.0
45.933231 236.0
45.964264 252.0
45.988556 144.0
46.001362 148.0
46.041214 144.0
46.050671 120.0
46.061474 148.0
46.072285 104.0
46.103458 168.0
46.115528 140.0
46.135803 132.0
46.146622 140.0
46.159775 132.0
46.179001 144.0
46.202076 156.0
46.212898 176.0
46.226982 196.0
46.236526 252.0
46.263718 140.0
46.295303 436.0
46.318501 140.0
46.330692 52.0
46.353222 144.0
46.412018 120.0
46.432362 116.0
46.454063 288.0
46.473061 88.0
46.492058 196.0
46.511059 200.0
46.532604 152.0
46.567944 148.0
46.607891 108.0
46.663055 132.0
46.739391 140.0
46.758236 180.0
46.771492 144.0
46.785671 108.0
46.811543 124.0
46.837421 136.0
46.860802 148.0
46.883747 152.0
46.930096 236.0
46.942371 108.0
46.956009 96.0
46.972298 68.0
46.978546 92.0
47.013561 196.0
47.053123 168.0
47.073444 348.0
47.089767 132.0
47.100357 192.0
47.112991 164.0
47.136219 128.0
47.156719 140.0
47.166973 176.0
47.203033 184.0
47.231342 112.0
47.251575 204.0
47.266132 136.0
47.282555 220.0
47.291336 140.0
47.305061 172.0
47.311085 76.0
47.314758 160.0
47.343685 196.0
47.364712 220.0
47.377041 160.0
47.397594 100.0
47.412437 260.0
47.436455 152.0
47.459278 168.0
47.470249 60.0
47.494938 96.0
47.509838 116.0
47.563549 160.0
47.588043 176.0
47.612427 136.0
47.66106 120.0
47.673431 192.0
47.703671 108.0
47.747902 184.0
47.754356 144.0
47.783165 180.0
47.819218 156.0
47.83849 116.0
47.871536 156.0
47.962471 172.0
47.98315 128.0
48.007973 104.0
48.032803 92.0
48.050735 224.0
48.060394 120.0
48.072815 80.0
48.107323 72.0
48.119747 132.0
48.13908 132.0
48.169468 152.0
48.183281 80.0
48.202629 292.0
48.239727 224.0
48.309093 84.0
48.328465 152.0
48.33815 160.0
48.360039 176.0
48.373375 132.0
48.410137 144.0
48.422466 120.0
48.468323 96.0
48.493267 88.0
48.509048 156.0
48.528515 152.0
48.54734 136.0
48.570671 156.0
48.583496 244.0
48.61195 168.0
48.623882 164.0
48.641335 172.0
48.67033 172.0
48.694458 148.0
48.715721 104.0
48.744473 268.0
48.756798 168.0
48.768391 152.0
48.796398 180.0
48.823139 164.0
48.851208 152.0
48.87281 192.0
48.903023 112.0
48.937012 368.0
48.957565 196.0
48.987968 116.0
49.015835 168.0
49.032558 152.0
49.069218 148.0
49.079956 48.0
49.103664 160.0
49.121799 44.0
49.149704 116.0
49.162804 140.0
49.184597 196.0
49.213913 116.0
49.233463 148.0
49.320095 208.0
49.360638 136.0
49.388611 108.0
49.398403 80.0
49.410461 220.0
49.414948 136.0
49.418419 196.0
49.430496 128.0
49.441864 136.0
49.475307 160.0
49.56176 160.0
49.583237 128.0
49.593052 148.0
49.62249 56.0
49.644928 124.0
49.702156 340.0
49.711567 168.0
49.726303 144.0
49.739597 136.0
49.754997 136.0
49.821964 164.0
49.86676 208.0
49.878006 96.0
49.896088 144.0
49.925117 168.0
49.937061 44.0
49.948242 152.0
49.952694 144.0
49.968807 176.0
50.006008 152.0
50.048244 236.0
50.068386 344.0
50.081501 176.0
50.097538 124.0
50.129948 168.0
50.140141 172.0
50.156727 108.0
50.179447 140.0
50.191975 156.0
50.217125 144.0
50.219147 120.0
50.224861 176.0
50.235699 92.0
50.279442 204.0
50.289322 300.0
50.320507 132.0
50.385349 156.0
50.397293 112.0
50.407303 276.0
50.45623 160.0
50.471573 196.0
50.487129 160.0
50.502457 148.0
50.546547 156.0
50.573349 128.0
50.583443 236.0
50.600334 100.0
50.614494 168.0
50.625824 188.0
50.635738 144.0
50.651974 156.0
50.676819 104.0
50.766129 144.0
50.797295 156.0
50.824364 148.0
50.835644 152.0
50.859772 120.0
50.897511 172.0
50.90871 188.0
50.940712 80.0
50.955654 192.0
50.973392 32.0
50.991871 168.0
51.013191 156.0
51.040207 196.0
51.05727 224.0
51.082874 80.0
51.114178 124.0
51.148335 172.0
51.17448 176.0
51.188934 68.0
51.21384 48.0
51.234493 136.0
51.25943 188.0
51.276531 144.0
51.28651 56.0
51.317875 40.0
51.330708 84.0
51.350674 112.0
51.360661 272.0
51.397755 164.0
51.414879 132.0
51.445332 204.0
51.474842 96.0
51.487694 92.0
51.517239 224.0
51.547695 188.0
51.563419 196.0
51.583431 136.0
51.612576 156.0
51.68927 152.0
51.699287 68.0
51.710739 184.0
51.72858 216.0
51.733055 156.0
51.775169 112.0
51.793789 168.0
51.819576 44.0
51.902695 152.0
51.928528 124.0
51.998833 188.0
52.034721 204.0
52.049084 172.0
52.060219 164.0
52.075245 148.0
52.098892 152.0
52.114029 112.0
52.154785 160.0
52.174088 116.0
52.187027 76.0
52.222805 324.0
52.241684 160.0
52.251755 188.0
52.289608 184.0
52.312542 152.0
52.342438 200.0
52.369011 180.0
52.391411 132.0
52.414463 216.0
52.483654 92.0
52.499519 76.0
52.522594 120.0
52.541351 164.0
52.56155 156.0
52.616451 112.0
52.640949 148.0
52.658905 212.0
52.692951 140.0
52.739067 156.0
52.776787 96.0
52.823067 336.0
52.842022 156.0
52.860687 120.0
52.879501 44.0
52.921482 116.0
52.950878 108.0
52.993908 132.0
53.004051 148.0
53.022892 200.0
53.053333 120.0
53.119877 176.0
53.134552 188.0
53.147369 192.0
53.185345 248.0
53.195507 120.0
53.212929 200.0
53.225994 168.0
53.24197 160.0
53.297173 408.0
53.332848 220.0
53.348045 124.0
53.397163 180.0
53.411549 108.0
53.431705 168.0
53.437225 88.0
53.443386 196.0
53.528469 136.0
53.544689 264.0
53.570248 228.0
53.589649 92.0
53.607136 96.0
53.628807 92.0
53.656696 76.0
53.684402 100.0
53.712116 108.0
53.724819 124.0
53.742752 112.0
53.767563 116.0
53.787621 116.0
53.8041 136.0
53.82378 128.0
53.846405 252.0
53.890228 112.0
53.908401 220.0
53.917095 156.0
53.93029 136.0
53.939495 192.0
53.956001 160.0
53.972088 164.0
53.999874 124.0
54.023277 140.0
54.03791 152.0
54.083279 112.0
54.131592 200.0
54.15942 228.0
54.178463 136.0
54.19165 124.0
54.229755 140.0
54.257454 192.0
54.297199 56.0
54.349361 108.0
54.368206 232.0
54.42194 156.0
54.445435 196.0
54.548393 116.0
54.576122 168.0
54.604168 128.0
54.62035 180.0
54.633587 140.0
54.6483 68.0
54.678513 348.0
54.704556 160.0
54.732204 32.0
54.752823 256.0
54.77018 160.0
54.798489 144.0
54.814697 148.0
54.840294 120.0
54.866817 200.0
54.887741 240.0
54.901676 108.0
54.928406 164.0
54.959209 72.0
54.975121 128.0
55.009392 116.0
55.027107 72.0
55.051552 148.0
55.086849 160.0
55.097263 144.0
55.126759 312.0
55.147186 312.0
55.208866 216.0
55.275322 140.0
55.326317 176.0
55.347977 156.0
55.358341 192.0
55.38493 164.0
55.401299 168.0
55.432411 112.0
55.456974 168.0
55.472431 120.0
55.501301 212.0
55.516125 120.0
55.53323 180.0
55.562901 128.0
55.582188 156.0
55.608902 144.0
55.638592 172.0
55.661655 128.0
55.675438 196.0
55.706383 176.0
55.75769 196.0
55.775269 60.0
55.813923 252.0
55.824333 64.0
55.873116 152.0
55.905411 168.0
55.922527 48.0
55.940392 124.0
55.988041 112.0
55.999954 168.0
56.03273 76.0
56.044647 116.0
56.060951 132.0
56.084888 228.0
56.116093 172.0
56.128124 192.0
56.145782 100.0
56.175854 108.0
56.202709 156.0
56.232555 124.0
56.245991 96.0
56.273983 136.0
56.292274 132.0
56.310196 152.0
56.327961 184.0
56.34605 120.0
56.357841 184.0
56.393219 348.0
56.4188 160.0
56.43969 272.0
56.484837 144.0
56.543442 192.0
56.556915 156.0
56.575409 360.0
56.597336 124.0
56.607895 80.0
56.654552 200.0
56.690216 124.0
56.708199 64.0
56.736683 172.0
56.762173 148.0
56.790668 144.0
56.82217 172.0
56.844681 196.0
56.863358 180.0
56.885204 100.0
56.921242 52.0
56.988838 120.0
57.023403 156.0
57.049667 152.0
57.092564 192.0
57.107605 204.0
57.131298 80.0
57.151234 128.0
57.174538 156.0
57.190361 216.0
57.213219 152.0
57.234802 180.0
57.264019 148.0
57.268108 120.0
57.282326 112.0
57.295776 168.0
57.306324 128.0
57.337605 148.0
57.362087 128.0
57.449554 224.0
57.474472 280.0
57.490295 156.0
57.512417 220.0
57.525089 156.0
57.558231 176.0
57.569454 128.0
57.589947 64.0
57.603542 224.0
57.629097 140.0
57.649578 256.0
57.677544 132.0
57.692028 188.0
57.741093 132.0
57.754707 164.0
57.770592 112.0
57.784966 100.0
57.837406 196.0
57.884869 128.0
57.899246 176.0
57.912128 112.0
57.924007 200.0
57.92984 168.0
57.957581 136.0
57.983932 144.0
57.998501 280.0
58.018208 152.0
58.033371 140.0
58.053082 100.0
58.065216 52.0
58.082706 188.0
58.146015 220.0
58.163048 88.0
58.178127 192.0
58.191772 196.0
58.20702 108.0
58.231857 136.0
58.262554 164.0
58.312702 252.0
58.336071 268.0
58.357265 204.0
58.377209 168.0
58.392399 136.0
58.409603 132.0
58.434361 124.0
58.457916 208.0
58.486103 108.0
58.501328 164.0
58.517139 224.0
58.556232 212.0
58.574425 104.0
58.60133 200.0
58.627724 192.0
58.641663 128.0
58.667706 192.0
58.701237 64.0
58.746437 216.0
58.774757 164.0
58.793625 116.0
58.832153 208.0
58.863132 180.0
58.881016 112.0
58.913708 120.0
58.918118 168.0
58.948456 56.0
58.981609 120.0
59.014259 148.0
59.034672 164.0
59.052204 212.0
59.069027 140.0
59.101158 300.0
59.117992 128.0
59.141693 272.0
59.196068 180.0
59.225933 148.0
59.26144 360.0
59.272663 144.0
59.28339 76.0
59.320175 136.0
59.344707 40.0
59.356976 152.0
59.36771 112.0
59.379978 240.0
59.44902 180.0
59.481945 208.0
59.499672 164.0
59.513493 108.0
59.56646 164.0
59.592937 172.0
59.604389 184.0
59.638386 68.0
59.693283 164.0
59.704048 164.0
59.726086 244.0
59.74712 160.0
59.803799 120.0
59.828686 304.0
59.865562 152.0
59.884125 116.0
59.90107 72.0
59.911854 84.0
59.922638 128.0
59.934963 332.0
59.959621 120.0
59.995388 276.0
60.034214 104.0
60.051517 180.0
60.079899 152.0
60.093784 136.0
60.109219 224.0
60.153492 140.0
60.212654 100.0
60.239563 148.0
60.250885 128.0
60.266724 48.0
60.288578 152.0
60.316181 140.0
60.360752 164.0
60.367943 92.0
60.373245 128.0
60.388023 144.0
60.439308 72.0
60.450077 224.0
60.469273 148.0
60.473354 144.0
60.484081 148.0
60.519775 160.0
60.559326 180.0
60.574608 128.0
60.591652 136.0
60.617199 172.0
60.678337 292.0
60.717911 200.0
60.746567 160.0
60.760872 340.0
60.796337 132.0
60.81353 52.0
60.832233 160.0
60.847565 80.0
60.867748 204.0
60.897259 92.0
60.920559 136.0
60.957848 200.0
60.975937 144.0
61.004478 140.0
61.02158 308.0
61.058327 204.0
61.067844 96.0
61.086903 176.0
61.11763 208.0
61.141361 156.0
61.153812 188.0
61.166267 64.0
61.177883 172.0
61.199821 208.0
61.245682 100.0
61.264378 204.0
61.32671 168.0
61.35717 148.0
61.385605 148.0
61.410908 240.0
61.435867 192.0
61.458397 292.0
61.478897 132.0
61.489651 120.0
61.511307 188.0
61.535477 112.0
61.544579 264.0
61.579971 256.0
61.595016 148.0
61.610706 312.0
61.6381 108.0
61.660728 136.0
61.671196 92.0
61.739235 132.0
61.812428 228.0
61.832291 160.0
61.850178 152.0
61.898529 92.0
61.912621 228.0
61.973717 108.0
62.011589 168.0
62.05275 152.0
62.097565 116.0
62.112953 148.0
62.149338 132.0
62.161892 164.0
62.179153 104.0
62.229389 224.0
62.265507 32.0
62.279644 152.0
62.293781 116.0
62.326775 100.0
62.342491 188.0
62.38879 164.0
62.41518 200.0
62.432102 152.0
62.447575 148.0
62.479328 176.0
62.525944 180.0
62.543816 140.0
62.554832 200.0
62.565853 140.0
62.594841 196.0
62.641449 76.0
62.6572 44.0
62.674534 100.0
62.685566 204.0
62.7029 108.0
62.720238 96.0
62.731274 104.0
62.770691 140.0
62.796947 228.0
62.809483 128.0
62.83366 152.0
62.838295 140.0
62.842823 132.0
62.871658 56.0
62.885864 204.0
62.89563 156.0
62.933094 144.0
62.968716 312.0
62.982182 112.0
63.013779 124.0
63.030392 156.0
63.03669 80.0
63.039551 116.0
63.076786 332.0
63.121265 136.0
63.15448 200.0
63.186119 152.0
63.216183 72.0
63.241505 156.0
63.255753 108.0
63.268417 120.0
63.292168 156.0
63.304836 152.0
63.323078 180.0
63.349186 100.0
63.37022 160.0
63.395138 164.0
63.412571 140.0
63.434193 156.0
63.483917 176.0
63.499226 288.0
63.51881 208.0
63.544193 148.0
63.589104 200.0
63.599892 248.0
63.641018 132.0
63.679131 148.0
63.693253 144.0
63.725201 164.0
63.74427 68.0
63.779236 108.0
63.796604 160.0
63.812622 180.0
63.864155 168.0
63.905739 176.0
63.933517 92.0
63.945824 108.0
63.967354 124.0
63.997326 192.0
64.01992 176.0
64.068687 144.0
64.089485 136.0
64.15493 48.0
64.175652 176.0
64.197556 196.0
64.229881 168.0
64.251419 188.0
64.26239 148.0
64.290512 88.0
64.317642 176.0
64.341591 188.0
64.365601 112.0
64.377022 84.0
64.381683 152.0
64.418251 116.0
64.47258 144.0
64.49762 168.0
64.522705 172.0
64.539719 132.0
64.556999 156.0
64.581299 228.0
64.597298 152.0
64.609123 224.0
64.634094 124.0
64.646896 152.0
64.667816 172.0
64.681679 252.0
64.768585 156.0
64.782234 276.0
64.799019 84.0
64.824661 212.0
64.840256 120.0
64.852585 160.0
64.881493 192.0
64.912827 108.0
64.93203 196.0
64.948761 168.0
64.975388 84.0
64.991432 252.0
65.005875 48.0
65.025131 188.0
65.042793 176.0
65.046501 116.0
65.084663 148.0
65.126289 140.0
65.155205 160.0
65.171867 172.0
65.187546 156.0
65.206627 84.0
65.21949 224.0
65.24321 148.0
65.255257 144.0
65.288292 156.0
65.332054 100.0
65.348145 64.0
65.379387 96.0
65.441414 160.0
65.451599 176.0
65.483368 180.0
65.514816 184.0
65.544594 168.0
65.583374 128.0
65.601616 168.0
65.61335 128.0
65.65583 48.0
65.676926 184.0
65.710793 160.0
65.779068 148.0
65.79705 132.0
65.812218 132.0
65.830124 136.0
65.846275 132.0
65.864319 116.0
65.879745 200.0
65.914131 172.0
65.942154 164.0
65.956146 100.0
65.978783 188.0
66.000099 152.0
66.012283 148.0
66.02729 80.0
66.038612 104.0
66.066757 140.0
66.08638 168.0
66.118668 176.0
66.142174 140.0
66.161598 204.0
66.176567 132.0
66.192368 164.0
66.211105 184.0
66.22715 148.0
66.247437 244.0
66.281952 224.0
66.301704 188.0
66.337044 136.0
66.373177 180.0
66.418884 128.0
66.437119 208.0
66.490669 212.0
66.51339 136.0
66.537743 124.0
66.563881 160.0
66.591942 160.0
66.612831 168.0
66.661194 196.0
66.695206 168.0
66.708328 88.0
66.719711 116.0
66.732712 268.0
66.762909 212.0
66.78801 108.0
66.818916 68.0
66.843323 148.0
66.87262 224.0
66.890526 200.0
66.901924 152.0
66.922272 216.0
66.964905 148.0
66.993126 104.0
67.017624 104.0
67.048523 168.0
67.071617 48.0
67.090363 84.0
67.104622 136.0
67.15287 144.0
67.164291 144.0
67.196861 116.0
67.208672 208.0
67.228264 348.0
67.245911 188.0
67.291283 172.0
67.308189 192.0
67.347061 248.0
67.399002 232.0
67.424622 224.0
67.477852 144.0
67.528542 156.0
67.539993 88.0
67.552696 144.0
67.582535 164.0
67.618538 60.0
67.634575 140.0
67.645485 244.0
67.661285 176.0
67.697121 140.0
67.745529 144.0
67.767349 220.0
67.771362 236.0
67.7799 136.0
67.835861 172.0
67.880661 168.0
67.898842 140.0
67.920029 136.0
67.940262 120.0
67.964325 284.0
67.984016 40.0
68.015198 144.0
68.041466 140.0
68.052963 140.0
68.095566 208.0
68.123581 184.0
68.135086 152.0
68.149811 172.0
68.179451 228.0
68.199173 176.0
68.213966 200.0
68.235344 128.0
68.269875 136.0
68.285896 232.0
68.301125 164.0
68.312637 144.0
68.363976 180.0
68.396568 280.0
68.409737 108.0
68.427132 212.0
68.460777 136.0
68.49334 240.0
68.59919 164.0
68.614021 96.0
68.640404 112.0
68.655251 276.0
68.671013 136.0
68.722885 124.0
68.741714 136.0
68.776642 208.0
68.806816 136.0
68.858253 172.0
68.876801 244.0
68.899918 212.0
68.927452 176.0
68.965027 212.0
68.987488 212.0
69.002022 136.0
69.028481 132.0
69.043365 144.0
69.083061 84.0
69.104568 124.0
69.122261 208.0
69.139893 196.0
69.169113 100.0
69.197258 112.0
69.220444 132.0
69.25869 128.0
69.280067 88.0
69.298294 100.0
69.324104 108.0
69.338791 184.0
69.437195 152.0
69.537094 168.0
69.555031 216.0
69.566605 108.0
69.595619 144.0
69.614372 220.0
69.648346 236.0
69.677658 56.0
69.700851 172.0
69.736275 216.0
69.764458 212.0
69.799591 180.0
69.819542 180.0
69.837601 220.0
69.876106 132.0
69.887749 180.0
69.929359 88.0
69.954323 128.0
69.974083 184.0
70.02478 64.0
70.062386 172.0
70.083122 120.0
70.10923 136.0
70.16188 412.0
70.179733 212.0
70.204262 176.0
70.247627 240.0
70.259308 128.0
70.283218 216.0
70.310303 136.0
70.336075 100.0
70.358612 48.0
70.399521 144.0
70.440964 180.0
70.451912 164.0
70.454918 220.0
70.461975 360.0
70.477745 92.0
70.497169 212.0
70.532982 164.0
70.568138 128.0
70.572906 116.0
70.640213 144.0
70.700447 328.0
70.754013 112.0
70.765732 144.0
70.787498 100.0
70.811577 180.0
70.836075 124.0
70.857849 184.0
70.876282 164.0
70.887512 120.0
70.916504 160.0
70.940483 144.0
70.992004 132.0
71.005371 156.0
71.030533 304.0
71.057373 140.0
71.085899 108.0
71.120804 256.0
71.143723 304.0
71.17746 384.0
71.213493 96.0
71.258545 172.0
71.278458 180.0
71.339912 176.0
71.384926 100.0
71.403427 44.0
71.423607 172.0
71.442116 252.0
71.471725 240.0
71.486824 112.0
71.512787 136.0
71.541405 196.0
71.553192 164.0
71.56498 112.0
71.657349 164.0
71.700912 168.0
71.731773 148.0
71.77224 124.0
71.811806 240.0
71.875137 176.0
71.886703 140.0
71.892403 120.0
71.899239 168.0
71.92495 116.0
71.955521 100.0
71.969666 208.0
72.000061 160.0
72.02877 84.0
72.043976 148.0
72.064056 172.0
72.099739 236.0
72.135239 188.0
72.177368 196.0
72.179863 324.0
72.194412 148.0
72.2164 184.0
72.231628 152.0
72.25531 80.0
72.267159 172.0
72.306076 136.0
72.33316 204.0
72.348396 96.0
72.382706 136.0
72.421211 204.0
72.453728 164.0
72.476273 112.0
72.491447 88.0
72.52343 160.0
72.540375 124.0
72.572044 168.0
72.595718 108.0
72.62352 124.0
72.681488 160.0
72.704445 168.0
72.728676 124.0
72.745102 220.0
72.766747 164.0
72.84594 316.0
72.863983 152.0
72.879272 156.0
72.930359 132.0
72.962555 168.0
72.981262 128.0
73.00547 204.0
73.019936 156.0
73.052696 236.0
73.076515 80.0
73.091827 104.0
73.112991 92.0
73.171829 204.0
73.185448 200.0
73.223663 128.0
73.237389 208.0
73.284241 108.0
73.302361 196.0
73.331963 148.0
73.347084 192.0
73.372871 56.0
73.445801 136.0
73.500145 160.0
73.513412 132.0
73.533638 132.0
73.564178 148.0
73.584808 148.0
73.613464 144.0
73.642838 280.0
73.657875 108.0
73.68576 160.0
73.70742 120.0
73.722618 152.0
73.743439 156.0
73.757767 96.0
73.78434 172.0
73.813408 232.0
73.833931 148.0
73.852745 160.0
73.871185 200.0
73.913506 184.0
73.933159 168.0
73.965675 112.0
74.013374 184.0
74.047546 192.0
74.075272 132.0
74.116394 48.0
74.147446 136.0
74.16095 124.0
74.180847 192.0
74.215813 136.0
74.244965 152.0
74.25869 96.0
74.279274 272.0
74.299156 128.0
74.380516 212.0
74.399399 160.0
74.424538 212.0
74.452629 128.0
74.486984 88.0
74.523064 108.0
74.548782 128.0
74.550835 200.0
74.566025 152.0
74.62619 248.0
74.642509 188.0
74.658867 136.0
74.676064 168.0
74.704681 496.0
74.723053 104.0
74.743935 124.0
74.766975 200.0
74.805122 152.0
74.830444 144.0
74.861122 160.0
74.879166 160.0
74.915337 92.0
74.936012 128.0
74.972198 108.0
74.985985 64.0
74.998055 76.0
75.023911 172.0
75.03598 184.0
75.085991 104.0
75.099785 80.0
75.13813 176.0
75.174446 176.0
75.201591 84.0
75.225754 88.0
75.255104 108.0
75.277557 100.0
75.293098 148.0
75.313065 164.0
75.323196 160.0
75.339737 104.0
75.382935 208.0
75.396271 156.0
75.465858 136.0
75.49012 92.0
75.513092 212.0
75.548119 376.0
75.578339 136.0
75.604301 156.0
75.627899 160.0
75.643066 160.0
75.660263 128.0
75.721329 188.0
75.760139 204.0
75.799988 104.0
75.817322 140.0
75.838219 200.0
75.857185 64.0
75.877579 168.0
75.955162 216.0
75.983788 112.0
76.015022 280.0
76.055779 116.0
76.067093 156.0
76.08445 156.0
76.112236 124.0
76.13446 100.0
76.177422 188.0
76.268593 104.0
76.294579 76.0
76.29882 124.0
76.331184 136.0
76.357269 228.0
76.397278 108.0
76.413605 168.0
76.43042 180.0
76.448853 188.0
76.479073 144.0
76.515472 136.0
76.536522 180.0
76.565315 160.0
76.581802 156.0
76.604446 128.0
76.628838 180.0
76.660202 28.0
76.695709 108.0
76.771637 232.0
76.787498 152.0
76.808617 164.0
76.822365 112.0
76.838234 288.0
76.870407 160.0
76.893906 124.0
76.907867 272.0
76.923576 132.0
76.958008 100.0
77.042336 168.0
77.066971 156.0
77.080772 236.0
77.096893 180.0
77.138451 128.0
77.169319 196.0
77.229378 76.0
77.248619 268.0
77.278366 168.0
77.29731 184.0
77.328621 208.0
77.346619 56.0
77.385132 32.0
77.441177 104.0
77.460388 128.0
77.50148 236.0
77.530533 148.0
77.556824 180.0
77.573509 216.0
77.600647 172.0
77.618187 160.0
77.65229 152.0
77.676109 148.0
77.680046 132.0
77.687912 180.0
77.694565 88.0
77.714905 132.0
77.749756 380.0
77.77784 124.0
77.804176 172.0
77.832268 64.0
77.863655 188.0
77.908134 144.0
77.929405 132.0
77.953476 64.0
77.97049 200.0
78.024353 212.0
78.046646 104.0
78.058952 148.0
78.092369 132.0
78.148666 176.0
78.169777 116.0
78.215469 100.0
78.229156 164.0
78.26609 176.0
78.292122 324.0
78.331764 36.0
78.351143 120.0
78.372284 244.0
78.406837 192.0
78.413429 116.0
78.419258 116.0
78.426476 192.0
78.455894 256.0
78.481575 164.0
78.495682 132.0
78.546829 136.0
78.571526 164.0
78.585785 144.0
78.635056 232.0
78.657997 192.0
78.688011 96.0
78.725899 184.0
78.763954 140.0
78.799286 116.0
78.815186 124.0
78.834274 120.0
78.846199 200.0
78.871742 96.0
78.910637 156.0
78.926552 160.0
79.01017 188.0
79.025604 208.0
79.085777 148.0
79.100632 132.0
79.118484 128.0
79.140976 132.0
79.161903 80.0
79.174301 160.0
79.190117 172.0
79.245163 196.0
79.261108 124.0
79.309998 164.0
79.340874 140.0
79.356827 128.0
79.428726 104.0
79.461472 112.0
79.47744 108.0
79.505882 152.0
79.545029 304.0
79.567078 80.0
79.6017 148.0
79.622047 176.0
79.654358 180.0
79.686104 144.0
79.699402 64.0
79.756271 252.0
79.82917 172.0
79.854958 192.0
79.903114 288.0
79.944809 212.0
79.969727 168.0
79.993752 144.0
80.012352 144.0
80.05162 168.0
80.069427 188.0
80.142471 60.0
80.170128 92.0
80.197136 172.0
80.226242 156.0
80.247841 192.0
80.282532 360.0
80.296379 192.0
80.313759 104.0
80.456764 312.0
80.499237 276.0
80.527191 212.0
80.539467 172.0
80.554604 156.0
80.595581 120.0
80.618401 296.0
80.658249 124.0
80.674339 96.0
80.695793 152.0
80.732361 320.0
80.754807 204.0
80.785217 156.0
80.814102 196.0
80.839714 128.0
80.863953 44.0
80.894943 296.0
80.930191 156.0
80.95414 168.0
81.008385 212.0
81.037476 116.0
81.084747 336.0
81.107559 156.0
81.138031 180.0
81.165627 184.0
81.259697 192.0
81.285118 172.0
81.306137 208.0
81.327293 152.0
81.371277 120.0
81.386566 128.0
81.414375 196.0
81.443108 124.0
81.459862 232.0
81.502396 148.0
81.532944 152.0
81.551521 132.0
81.585304 156.0
81.618553 116.0
81.637222 108.0
81.683304 116.0
81.705574 196.0
81.725365 80.0
81.741562 128.0
81.759552 224.0
81.77935 132.0
81.793755 120.0
81.813614 128.0
81.844208 164.0
81.870415 160.0
81.901154 236.0
81.927017 204.0
81.941429 160.0
81.972061 132.0
81.99324 112.0
82.013512 124.0
82.053177 72.0
82.071205 72.0
82.096451 56.0
82.132088 180.0
82.14325 148.0
82.15609 224.0
82.226723 196.0
82.269676 160.0
82.305786 200.0
82.33287 204.0
82.387062 180.0
82.406013 172.0
82.43766 212.0
82.45031 124.0
82.47628 216.0
82.493019 108.0
82.517235 160.0
82.540695 224.0
82.560928 128.0
82.576866 108.0
82.588814 92.0
82.605049 172.0
82.634758 180.0
82.663712 172.0
82.708954 196.0
82.750473 116.0
82.785004 136.0
82.797676 68.0
82.826118 240.0
82.828941 168.0
82.841911 152.0
82.873764 172.0
82.891884 72.0
82.917419 112.0
82.948067 124.0
82.967583 204.0
82.998833 196.0
83.020599 80.0
83.038734 68.0
83.133072 160.0
83.167747 308.0
83.183899 68.0
83.209206 128.0
83.225655 72.0
83.272873 180.0
83.309204 108.0
83.324844 72.0
83.356163 184.0
83.381065 168.0
83.400063 160.0
83.421875 168.0
83.43824 140.0
83.483696 156.0
83.500069 164.0
83.525528 148.0
83.551003 188.0
83.578293 148.0
83.601952 128.0
83.64563 192.0
83.679192 132.0
83.69297 124.0
83.743637 224.0
83.746933 184.0
83.780396 192.0
83.811371 160.0
83.853287 132.0
83.887917 176.0
83.917091 184.0
83.975449 148.0
83.99987 144.0
84.016899 204.0
84.033821 208.0
84.06813 152.0
84.115952 108.0
84.136032 264.0
84.15554 128.0
84.210617 204.0
84.240128 136.0
84.253975 200.0
84.285805 264.0
84.298599 40.0
84.313217 128.0
84.340858 228.0
84.371468 152.0
84.392258 220.0
84.413765 60.0
84.434769 136.0
84.457664 80.0
84.519531 152.0
84.524055 220.0
84.566147 156.0
84.611382 120.0
84.638847 144.0
84.66082 164.0
84.675476 140.0
84.688293 148.0
84.730431 92.0
84.746918 176.0
84.795891 152.0
84.823059 140.0
84.846825 140.0
84.884804 200.0
84.904572 148.0
84.965103 124.0
84.98378 136.0
84.9963 164.0
85.014648 180.0
85.055344 188.0
85.087334 200.0
85.099937 156.0
85.163315 136.0
85.190285 116.0
85.195755 76.0
85.235161 52.0
85.247879 108.0
85.264664 60.0
85.303024 128.0
85.32692 108.0
85.347145 160.0
85.376945 184.0
85.396805 132.0
85.415199 184.0
85.438263 204.0
85.460518 196.0
85.472946 72.0
85.48056 152.0
85.500481 172.0
85.514557 152.0
85.54084 160.0
85.564262 200.0
85.606613 84.0
85.627037 136.0
85.648659 140.0
85.680374 176.0
85.731888 112.0
85.75769 116.0
85.784332 208.0
85.796402 208.0
85.824059 112.0
85.841713 244.0
85.932137 168.0
86.005112 148.0
86.021217 200.0
86.050316 132.0
86.086098 140.0
86.108932 208.0
86.142464 60.0
86.158134 220.0
86.188377 164.0
86.23864 312.0
86.263474 132.0
86.289139 100.0
86.33699 132.0
86.3619 160.0
86.394264 76.0
86.419243 196.0
86.431168 132.0
86.450333 160.0
86.47065 40.0
86.503944 224.0
86.525627 120.0
86.541458 292.0
86.565063 152.0
86.592567 160.0
86.611366 304.0
86.651398 92.0
86.67807 152.0
86.714844 128.0
86.771385 220.0
86.803795 160.0
86.83194 160.0
86.870895 160.0
86.884811 208.0
86.94326 172.0
86.961823 264.0
86.984093 120.0
87.038414 140.0
87.071335 140.0
87.105186 172.0
87.145676 144.0
87.171684 160.0
87.197708 132.0
87.27755 152.0
87.321754 184.0
87.337814 148.0
87.402275 208.0
87.430946 156.0
87.445076 92.0
87.482986 132.0
87.507751 216.0
87.527832 160.0
87.556641 204.0
87.577278 156.0
87.597771 128.0
87.612671 200.0
87.631744 136.0
87.64621 184.0
87.662979 88.0
87.679276 172.0
87.698395 164.0
87.754318 168.0
87.767952 116.0
87.773796 36.0
87.786606 192.0
87.800941 92.0
87.835167 160.0
87.867722 172.0
87.897186 196.0
87.91288 88.0
87.939003 148.0
87.952072 132.0
87.967003 204.0
87.980072 248.0
88.011818 168.0
88.033287 288.0
88.058372 116.0
88.072914 148.0
88.076752 140.0
88.110809 120.0
88.127563 128.0
88.151917 140.0
88.168739 184.0
88.187691 152.0
88.19828 124.0
88.235153 128.0
88.260338 44.0
88.315468 160.0
88.344505 232.0
88.384727 152.0
88.443687 252.0
88.482468 164.0
88.495743 124.0
88.50737 224.0
88.540756 412.0
88.554161 216.0
88.573792 164.0
88.601692 160.0
88.643311 332.0
88.698677 156.0
88.714333 184.0
88.74501 176.0
88.77906 264.0
88.827202 488.0
88.844841 60.0
88.86425 172.0
88.878487 76.0
88.919777 80.0
88.93396 136.0
88.955437 204.0
88.981277 152.0
89.010826 180.0
89.052254 172.0
89.066231 60.0
89.079384 184.0
89.109444 44.0
89.147026 288.0
89.173332 156.0
89.199654 172.0
89.214088 88.0
89.231026 128.0
89.258896 180.0
89.280624 124.0
89.295547 144.0
89.32 156.0
89.347969 124.0
89.362396 388.0
89.387733 140.0
89.405281 124.0
89.463509 124.0
89.481377 112.0
89.488281 192.0
89.516716 60.0
89.538635 360.0
89.560883 124.0
89.617462 80.0
89.636307 160.0
89.682007 80.0
89.700386 148.0
89.739403 92.0
89.763611 60.0
89.789009 140.0
89.816643 112.0
89.831764 144.0
89.867546 120.0
89.894661 200.0
89.915421 60.0
89.959213 120.0
90.00985 180.0
90.053246 68.0
90.068359 176.0
90.092201 168.0
90.123146 92.0
90.138268 136.0
90.164726 72.0
90.189293 200.0
90.222466 132.0
90.235336 152.0
90.268593 208.0
90.295181 64.0
90.325439 88.0
90.382011 148.0
90.401123 120.0
90.426262 156.0
90.497887 136.0
90.536415 156.0
90.553146 188.0
90.586678 72.0
90.613205 112.0
90.649208 128.0
90.671951 156.0
90.696587 188.0
90.715546 88.0
90.752655 160.0
90.79438 164.0
90.826279 160.0
90.878723 196.0
90.909645 180.0
90.945076 100.0
90.960258 108.0
90.99823 152.0
91.01722 128.0
91.036209 104.0
91.052589 416.0
91.099571 224.0
91.121689 368.0
91.148293 128.0
91.188202 124.0
91.256638 144.0
91.285591 176.0
91.304176 200.0
91.323669 200.0
91.357437 140.0
91.372658 160.0
91.395493 88.0
91.443069 88.0
91.479233 220.0
91.52256 148.0
91.547783 148.0
91.561111 180.0
91.59684 164.0
91.605003 96.0
91.641121 188.0
91.672394 228.0
91.716866 156.0
91.729141 180.0
91.755859 140.0
91.77771 152.0
91.796638 108.0
91.814163 196.0
91.82132 152.0
91.858459 188.0
91.881355 148.0
91.969139 220.0
91.982506 176.0
91.995865 132.0
92.014015 124.0
92.053146 136.0
92.076912 144.0
92.119995 144.0
92.152473 188.0
92.190697 40.0
92.228111 132.0
92.257172 108.0
92.27256 232.0
92.309219 132.0
92.342445 120.0
92.378075 92.0
92.414429 156.0
92.429733 140.0
92.47184 152.0
92.487801 248.0
92.510124 168.0
92.523521 112.0
92.542671 180.0
92.576729 132.0
92.655617 300.0
92.678665 84.0
92.693932 320.0
92.769707 88.0
92.774582 92.0
92.786819 244.0
92.808189 328.0
92.867821 216.0
92.883804 192.0
92.904907 184.0
92.937523 108.0
92.963806 276.0
93.028267 304.0
93.034569 164.0
93.039536 216.0
93.060371 96.0
93.078156 260.0
93.104538 72.0
93.155441 172.0
93.176903 256.0
93.190979 236.0
93.219803 176.0
93.242867 104.0
93.292847 164.0
93.309845 176.0
93.322372 208.0
93.383224 200.0
93.398613 140.0
93.4217 132.0
93.453934 148.0
93.477493 108.0
93.490456 120.0
93.535233 164.0
93.555733 136.0
93.582428 280.0
93.639214 200.0
93.681183 132.0
93.6987 168.0
93.739395 104.0
93.77961 60.0
93.794212 208.0
93.85968 140.0
93.882957 128.0
93.902809 168.0
93.924484 184.0
93.949562 76.0
93.971718 164.0
94.029037 216.0
94.10199 180.0
94.127686 224.0
94.175423 136.0
94.196671 160.0
94.21019 96.0
94.252228 244.0
94.292862 184.0
94.336952 216.0
94.357071 184.0
94.389557 120.0
94.403481 280.0
94.416954 144.0
94.439079 176.0
94.457642 144.0
94.48085 100.0
94.507523 168.0
94.539948 208.0
94.555786 72.0
94.58194 220.0
94.629883 148.0
94.652237 164.0
94.66861 152.0
94.689232 228.0
94.745377 348.0
94.762939 92.0
94.78392 140.0
94.78949 140.0
94.819725 144.0
94.83329 140.0
94.857002 292.0
94.879883 120.0
94.926353 192.0
94.972046 136.0
94.998116 120.0
95.041557 392.0
95.06118 112.0
95.084976 84.0
95.097542 84.0
95.12426 88.0
95.163307 180.0
95.192215 136.0
95.217461 96.0
95.245491 164.0
95.290634 172.0
95.323944 148.0
95.353569 148.0
95.431229 168.0
95.456505 180.0
95.472061 80.0
95.497345 188.0
95.514854 168.0
95.528473 88.0
95.542084 312.0
95.559601 188.0
95.598518 352.0
95.668587 164.0
95.689697 128.0
95.736397 236.0
95.787376 172.0
95.865318 124.0
95.88784 232.0
95.925735 156.0
95.945236 204.0
95.96595 128.0
95.992592 500.0
96.023232 112.0
96.043625 120.0
96.059479 372.0
96.084572 172.0
96.113625 132.0
96.129936 156.0
96.137695 108.0
96.173477 196.0
96.212631 232.0
96.234375 204.0
96.25293 132.0
96.306252 136.0
96.321877 192.0
96.342484 144.0
96.362907 120.0
96.379333 128.0
96.398079 128.0
96.413986 144.0
96.441078 152.0
96.455429 164.0
96.480171 136.0
96.506729 172.0
96.5793 180.0
96.594643 152.0
96.619034 120.0
96.662674 184.0
96.691437 92.0
96.742325 88.0
96.782234 156.0
96.79715 180.0
96.834358 140.0
96.897194 160.0
96.916641 160.0
96.943985 168.0
96.983322 180.0
97.010719 180.0
97.048546 176.0
97.06562 80.0
97.124756 236.0
97.159767 72.0
97.179382 224.0
97.197044 232.0
97.217926 288.0
97.243134 116.0
97.278137 164.0
97.336418 72.0
97.359985 208.0
97.383499 136.0
97.44838 72.0
97.464104 148.0
97.47982 116.0
97.493576 116.0
97.5093 124.0
97.540688 152.0
97.586555 148.0
97.602577 116.0
97.6194 196.0
97.633163 88.0
97.662666 88.0
97.688377 112.0
97.727585 100.0
97.743332 136.0
97.796471 120.0
97.813065 168.0
97.837914 152.0
97.85257 64.0
97.890968 124.0
97.910667 68.0
97.933128 188.0
97.950058 160.0
97.97567 140.0
97.996735 156.0
98.010452 404.0
98.052628 144.0
98.079353 156.0
98.106903 88.0
98.121513 148.0
98.157005 44.0
98.18856 56.0
98.24379 156.0
98.261543 184.0
98.289169 120.0
98.302986 116.0
98.346405 124.0
98.382973 184.0
98.439529 216.0
98.478699 192.0
98.492523 128.0
98.507256 140.0
98.560089 100.0
98.575508 120.0
98.605148 120.0
98.624077 216.0
98.650612 160.0
98.663643 180.0
98.702019 144.0
98.72377 140.0
98.744148 152.0
98.759743 128.0
98.823982 140.0
98.831284 92.0
98.872154 164.0
98.903824 196.0
98.921638 148.0
98.970108 108.0
98.988953 144.0
99.032524 204.0
99.113853 156.0
99.1492 208.0
99.189064 124.0
99.206436 288.0
99.248543 96.0
99.282257 64.0
99.306053 116.0
99.325218 272.0
99.357635 128.0
99.373505 164.0
99.401283 136.0
99.419144 144.0
99.433037 148.0
99.480675 188.0
99.512444 144.0
99.532303 120.0
99.577888 92.0
99.59977 136.0
99.633598 120.0
99.655457 92.0
99.674927 184.0
99.68409 84.0
99.70549 224.0
99.718681 152.0
99.76619 196.0
99.798569 132.0
99.846291 100.0
99.87883 200.0
99.893837 124.0
99.90625 196.0
99.96566 248.0
99.987267 112.0
100.001884 120.0
100.026413 244.0
100.067131 164.0
100.11895 152.0
100.156563 172.0
100.19664 132.0
100.210152 128.0
100.228516 100.0
100.254425 132.0
100.280334 48.0
100.294807 228.0
100.328232 144.0
100.346123 156.0
100.408157 108.0
100.437378 184.0
100.445312 92.0
100.473763 164.0
100.518723 120.0
100.60981 72.0
100.631439 164.0
100.653404 212.0
100.684067 124.0
100.708786 344.0
100.735291 192.0
100.810616 160.0
100.829208 152.0
100.849251 136.0
100.87632 224.0
100.887894 200.0
100.913162 152.0
100.940956 160.0
100.965439 172.0
100.999161 136.0
101.033104 124.0
101.039772 120.0
101.065178 192.0
101.080254 128.0
101.100319 168.0
101.129219 132.0
101.150307 292.0
101.164948 312.0
101.186935 140.0
101.19342 80.0
101.247353 200.0
101.265373 100.0
101.279396 140.0
101.32457 168.0
101.340691 128.0
101.360329 252.0
101.39962 208.0
101.412491 132.0
101.444183 172.0
101.459755 124.0
101.479805 180.0
101.502716 196.0
101.525925 192.0
101.590111 172.0
101.638214 164.0
101.68721 196.0
101.771606 224.0
101.794838 212.0
101.815208 172.0
101.836769 164.0
101.842094 144.0
101.849876 240.0
101.87719 104.0
101.916054 240.0
101.960289 136.0
101.983696 148.0
101.997765 88.0
102.062996 252.0
102.086235 176.0
102.112381 200.0
102.140541 156.0
102.166122 312.0
102.182693 176.0
102.233093 92.0
102.291466 300.0
102.32235 124.0
102.339447 232.0
102.365448 284.0
102.394157 164.0
102.420341 236.0
102.478767 208.0
102.49852 160.0
102.524025 172.0
102.539101 132.0
102.561394 132.0
102.588959 148.0
102.607758 160.0
102.649338 296.0
102.669792 372.0
102.692451 132.0
102.718674 124.0
102.750954 76.0
102.777184 132.0
102.792641 176.0
102.825623 144.0
102.856476 140.0
102.879379 212.0
102.922752 176.0
102.981087 188.0
103.076042 216.0
103.120056 144.0
103.137245 156.0
103.150826 228.0
103.164589 168.0
103.205414 168.0
103.23436 152.0
103.259247 180.0
103.290352 92.0
103.332199 156.0
103.340393 60.0
103.346352 136.0
103.366264 172.0
103.385452 32.0
103.418381 148.0
103.433067 304.0
103.494766 28.0
103.519066 148.0
103.552605 208.0
103.571724 144.0
103.602112 184.0
103.616295 128.0
103.634529 116.0
103.652763 188.0
103.679108 156.0
103.69735 148.0
103.727722 252.0
103.752083 48.0
103.774384 144.0
103.83725 192.0
103.855507 300.0
103.907135 156.0
103.940643 176.0
103.947021 260.0
104.003693 132.0
104.038139 148.0
104.072945 196.0
104.088234 164.0
104.109207 88.0
104.125458 176.0
104.153893 124.0
104.17392 140.0
104.199883 184.0
104.235161 132.0
104.269096 200.0
104.296135 176.0
104.344414 224.0
104.381523 108.0
104.426819 208.0
104.440506 424.0
104.468025 172.0
104.497467 164.0
104.523918 232.0
104.541107 188.0
104.568687 232.0
104.636665 224.0
104.656227 44.0
104.69297 96.0
104.715286 184.0
104.74839 144.0
104.778435 72.0
104.796776 480.0
104.820488 176.0
104.846199 220.0
104.877579 168.0
104.90683 120.0
104.945045 140.0
104.952545 104.0
104.95665 184.0
105.012863 72.0
105.03289 1268.0
105.069656 244.0
105.105713 220.0
105.163857 212.0
105.184387 128.0
105.210091 164.0
105.233269 160.0
105.247559 148.0
105.309441 80.0
105.338982 168.0
105.363106 176.0
105.406281 160.0
105.466156 164.0
105.488647 236.0
105.505089 184.0
105.517967 164.0
105.537712 104.0
105.557877 172.0
105.580658 236.0
105.617477 200.0
105.633415 136.0
105.656342 132.0
105.713638 140.0
105.766327 264.0
105.805748 312.0
105.821899 180.0
105.87513 104.0
105.891754 40.0
105.912239 116.0
105.929192 144.0
105.958771 168.0
105.981895 92.0
106.010582 188.0
106.035995 328.0
106.047951 172.0
106.090912 168.0
106.105492 92.0
106.182793 144.0
106.225868 100.0
106.250488 84.0
106.318199 76.0
106.346748 232.0
106.363358 52.0
106.387993 184.0
106.416313 196.0
106.451645 76.0
106.489655 220.0
106.516838 140.0
106.557091 60.0
106.573868 148.0
106.587425 288.0
106.605721 156.0
106.632439 120.0
106.64888 156.0
106.691696 164.0
106.722412 156.0
106.758415 156.0
106.776031 284.0
106.794868 176.0
106.809265 256.0
106.833862 180.0
106.86422 148.0
106.883331 156.0
106.915146 252.0
106.936287 208.0
106.978973 120.0
107.018234 208.0
107.048622 360.0
107.098381 168.0
107.167908 172.0
107.210556 236.0
107.237328 72.0
107.274666 80.0
107.293221 100.0
107.341263 200.0
107.377289 296.0
107.400452 112.0
107.493866 188.0
107.53495 108.0
107.543732 156.0
107.584114 184.0
107.631599 148.0
107.662575 340.0
107.709755 204.0
107.776482 120.0
107.821655 136.0
107.854729 168.0
107.883667 124.0
107.89814 184.0
107.941422 176.0
107.987228 156.0
108.014984 168.0
108.065674 232.0
108.092575 240.0
108.12944 152.0
108.136101 124.0
108.145164 156.0
108.148804 188.0
108.202278 112.0
108.242897 272.0
108.291321 152.0
108.330246 284.0
108.349327 132.0
108.382477 32.0
108.412575 180.0
108.436356 36.0
108.475746 176.0
108.492218 156.0
108.500282 148.0
108.50782 280.0
108.530708 156.0
108.557167 148.0
108.602234 104.0
108.655876 112.0
108.6782 304.0
108.696129 216.0
108.726028 180.0
108.734749 120.0
108.750542 312.0
108.791069 200.0
108.845436 152.0
108.907356 116.0
108.936371 124.0
108.943573 120.0
108.955589 92.0
108.998772 172.0
109.045082 132.0
109.068413 120.0
109.086067 200.0
109.133278 164.0
109.148346 368.0
109.169571 308.0
109.224808 128.0
109.285728 76.0
109.310928 108.0
109.348068 148.0
109.381462 200.0
109.406738 140.0
109.475159 120.0
109.519737 208.0
109.55014 92.0
109.626678 164.0
109.664749 212.0
109.685593 104.0
109.716148 268.0
109.738129 356.0
109.775246 60.0
109.802361 136.0
109.839905 92.0
109.861977 200.0
109.919189 72.0
109.935883 192.0
109.955185 128.0
109.994423 172.0
110.02124 148.0
110.039711 100.0
110.049835 168.0
110.066757 144.0
110.082817 156.0
110.117516 172.0
110.140625 128.0
110.226158 92.0
110.240784 108.0
110.293037 216.0
110.322304 132.0
110.391304 204.0
110.406693 100.0
110.422676 112.0
110.451851 156.0
110.485428 144.0
110.523888 272.0
110.554482 136.0
110.587013 184.0
110.644485 204.0
110.660538 156.0
110.698929 100.0
110.717117 140.0
110.724846 96.0
110.729202 176.0
110.772232 120.0
110.786903 80.0
110.830902 124.0
110.884445 196.0
110.905563 160.0
110.951736 68.0
110.967979 240.0
110.990875 200.0
111.016212 240.0
111.073425 100.0
111.087646 184.0
111.106766 160.0
111.130295 168.0
111.203682 212.0
111.22728 100.0
111.256676 152.0
111.287682 188.0
111.307068 200.0
111.391411 152.0
111.407883 124.0
111.424538 112.0
111.482361 164.0
111.521309 164.0
111.536659 188.0
111.576012 116.0
111.59494 76.0
111.623322 208.0
111.663834 168.0
111.693779 184.0
111.725243 220.0
111.746376 116.0
111.768753 240.0
111.840431 144.0
111.849075 100.0
111.864708 88.0
111.898956 160.0
111.93161 148.0
111.963196 160.0
112.05378 152.0
112.073616 276.0
112.1465 152.0
112.170502 176.0
112.199203 136.0
112.219559 220.0
112.249474 176.0
112.328262 152.0
112.375923 172.0
112.441452 100.0
112.475555 100.0
112.502419 116.0
112.51165 84.0
112.530449 68.0
112.558929 180.0
112.604362 88.0
112.62809 152.0
112.699425 72.0
112.726891 180.0
112.764938 148.0
112.813553 52.0
112.847855 108.0
112.862183 184.0
112.886703 288.0
112.97287 216.0
113.018707 136.0
113.056381 160.0
113.063858 240.0
113.081169 164.0
113.103363 152.0
113.166878 144.0
113.198639 64.0
113.228287 176.0
113.27211 192.0
113.290054 188.0
113.321495 424.0
113.338448 84.0
113.357521 208.0
113.374474 432.0
113.402031 60.0
113.441345 208.0
113.508034 176.0
113.545113 68.0
113.572815 176.0
113.618324 200.0
113.641968 168.0
113.66748 168.0
113.690247 112.0
113.713814 112.0
113.730659 148.0
113.753975 348.0
113.796608 104.0
113.847572 180.0
113.870934 156.0
113.896843 204.0
113.905548 108.0
113.911888 128.0
113.920143 144.0
113.929016 152.0
113.938828 196.0
113.991074 204.0
114.03241 56.0
114.066422 152.0
114.082161 148.0
114.115318 116.0
114.159676 172.0
114.185493 120.0
114.200386 92.0
114.242294 148.0
114.26532 84.0
114.31057 76.0
114.348183 340.0
114.38427 172.0
114.434349 212.0
114.472801 116.0
114.496117 152.0
114.503922 144.0
114.509895 96.0
114.532486 184.0
114.54863 80.0
114.600609 128.0
114.643005 152.0
114.664185 156.0
114.687347 40.0
114.690811 172.0
114.708771 272.0
114.744942 140.0
114.768814 184.0
114.775757 168.0
114.802666 112.0
114.832977 200.0
114.867111 184.0
114.894844 232.0
114.93325 108.0
114.960518 72.0
114.98233 172.0
115.007942 72.0
115.053368 8484.0
115.106155 228.0
115.129646 140.0
115.169815 124.0
115.197762 328.0
115.222351 120.0
115.270515 144.0
115.277634 132.0
115.315041 224.0
115.335945 144.0
115.363922 196.0
115.422417 116.0
115.441658 196.0
115.456627 100.0
115.475876 140.0
115.490852 120.0
115.535332 252.0
115.552887 152.0
115.595421 96.0
115.611626 136.0
115.629929 156.0
115.649193 136.0
115.664177 168.0
115.709824 136.0
115.745529 280.0
115.771027 172.0
115.805496 148.0
115.835487 112.0
115.87191 52.0
115.900497 256.0
115.922562 144.0
115.966194 164.0
115.989777 128.0
116.014885 140.0
116.05481 952.0
116.078674 112.0
116.109848 164.0
116.138802 184.0
116.165054 192.0
116.189217 72.0
116.206383 92.0
116.231087 272.0
116.275047 140.0
116.324417 192.0
116.351357 160.0
116.374268 164.0
116.423187 292.0
116.455406 112.0
116.482613 196.0
116.506577 380.0
116.55423 204.0
116.580017 284.0
116.624565 168.0
116.665344 208.0
116.73526 224.0
116.753128 188.0
116.781982 168.0
116.835892 156.0
116.850952 128.0
116.874413 124.0
116.901443 380.0
116.926735 112.0
116.947792 96.0
116.994713 176.0
117.02417 184.0
117.06723 660.0
117.096359 124.0
117.143753 104.0
117.228065 180.0
117.262878 140.0
117.296753 80.0
117.313995 84.0
117.345299 200.0
117.378677 120.0
117.393776 136.0
117.429054 144.0
117.470886 184.0
117.488686 168.0
117.505943 356.0
117.533997 132.0
117.587944 116.0
117.607368 208.0
117.626198 172.0
117.657021 164.0
117.693535 160.0
117.730438 144.0
117.763275 176.0
117.784439 144.0
117.812378 236.0
117.826775 280.0
117.862213 284.0
117.87896 144.0
117.914078 164.0
117.935692 180.0
117.983253 144.0
118.006538 140.0
118.045235 252.0
118.065697 1292.0
118.093796 268.0
118.132477 120.0
118.147614 236.0
118.173576 48.0
118.222626 88.0
118.236336 128.0
118.268677 132.0
118.298645 168.0
118.346565 152.0
118.38311 156.0
118.411705 76.0
118.426865 152.0
118.461227 204.0
118.49836 328.0
118.513466 156.0
118.554695 124.0
118.589371 128.0
118.621887 148.0
118.645737 176.0
118.671753 132.0
118.753883 140.0
118.78447 288.0
118.843109 188.0
118.867203 184.0
118.899529 172.0
118.918907 112.0
118.963264 224.0
119.004433 148.0
119.055847 172.0
119.076355 72.0
119.11306 200.0
119.129692 184.0
119.153595 156.0
119.169891 280.0
119.177368 140.0
119.18972 204.0
119.212265 168.0
119.229645 136.0
119.294861 156.0
119.338341 36.0
119.374428 240.0
119.397057 56.0
119.449257 136.0
119.471008 84.0
119.508896 116.0
119.553696 324.0
119.577248 224.0
119.593826 220.0
119.666893 104.0
119.69883 192.0
119.728729 312.0
119.796059 272.0
119.823807 200.0
119.854515 184.0
119.88765 128.0
119.926758 152.0
119.950111 64.0
119.988426 132.0
120.008972 144.0
120.046043 172.0
120.114609 124.0
120.131111 80.0
120.159576 172.0
120.213348 156.0
120.231483 172.0
120.260582 216.0
120.284485 184.0
120.316078 164.0
120.349892 164.0
120.386101 148.0
120.424484 120.0
120.458565 224.0
120.493515 104.0
120.513756 92.0
120.545959 220.0
120.583115 48.0
120.602783 168.0
120.624641 120.0
120.655739 232.0
120.684891 144.0
120.723038 116.0
120.79084 104.0
120.807266 204.0
120.828667 188.0
120.871712 112.0
120.917747 200.0
120.957146 192.0
120.978699 260.0
120.996155 264.0
121.004578 120.0
121.013245 320.0
121.083855 164.0
121.135445 152.0
121.152855 164.0
121.168678 332.0
121.205658 120.0
121.233124 128.0
121.353806 120.0
121.401932 52.0
121.439087 168.0
121.462967 136.0
121.476974 152.0
121.494057 200.0
121.512726 172.0
121.566643 196.0
121.571793 112.0
121.597191 84.0
121.618042 128.0
121.675011 192.0
121.704758 100.0
121.768448 92.0
121.803589 180.0
121.854118 132.0
121.935738 112.0
121.957878 116.0
122.019524 156.0
122.045639 148.0
122.062935 160.0
122.094818 212.0
122.143967 152.0
122.177307 104.0
122.205177 60.0
122.268532 272.0
122.284172 128.0
122.304947 152.0
122.32119 204.0
122.343559 148.0
122.370987 316.0
122.390366 144.0
122.400352 84.0
122.465866 156.0
122.503136 196.0
122.535217 220.0
122.551605 172.0
122.584656 96.0
122.617714 164.0
122.655182 176.0
122.692474 232.0
122.741173 116.0
122.758812 196.0
122.80954 92.0
122.908318 212.0
122.944122 128.0
122.979225 124.0
122.987007 112.0
122.999008 172.0
123.013039 232.0
123.07605 244.0
123.106247 144.0
123.127365 176.0
123.157074 176.0
123.178764 104.0
123.231194 104.0
123.246658 96.0
123.262131 116.0
123.286438 388.0
123.306458 136.0
123.326218 200.0
123.34169 184.0
123.369125 224.0
123.39917 140.0
123.428154 172.0
123.44561 160.0
123.497444 164.0
123.548592 244.0
123.649147 180.0
123.679466 160.0
123.762047 152.0
123.812881 176.0
123.848419 304.0
123.866135 260.0
123.886078 100.0
123.901581 168.0
123.919312 36.0
123.944313 160.0
123.963623 160.0
124.000778 136.0
124.018631 168.0
124.070442 168.0
124.088921 76.0
124.097336 112.0
124.129883 172.0
124.159218 356.0
124.185043 184.0
124.203865 116.0
124.225838 412.0
124.275139 108.0
124.314011 208.0
124.352928 224.0
124.410286 160.0
124.478859 156.0
124.509285 196.0
124.549355 164.0
124.576012 264.0
124.604622 268.0
124.610359 96.0
124.649918 168.0
124.667114 180.0
124.693787 136.0
124.713791 156.0
124.738235 216.0
124.768822 164.0
124.776749 124.0
124.829399 176.0
124.860535 184.0
124.936165 132.0
124.981087 168.0
124.989731 160.0
125.011818 204.0
125.029617 64.0
125.129425 196.0
125.160858 168.0
125.185196 240.0
125.276779 156.0
125.314651 136.0
125.32431 132.0
125.333076 180.0
125.364517 192.0
125.369316 260.0
125.398895 240.0
125.430542 136.0
125.4729 116.0
125.505653 116.0
125.510971 136.0
125.519295 144.0
125.52697 192.0
125.548378 132.0
125.571022 36.0
125.607193 244.0
125.732834 144.0
125.757545 220.0
125.782997 68.0
125.809784 132.0
125.827644 132.0
125.856667 120.0
125.89463 368.0
125.918747 216.0
125.95047 204.0
125.969765 188.0
125.995148 168.0
126.022781 164.0
126.049545 256.0
126.092705 132.0
126.11721 196.0
126.132668 144.0
126.156059 312.0
126.207481 84.0
126.233871 180.0
126.270103 124.0
126.293159 168.0
126.343918 160.0
126.352783 108.0
126.36084 156.0
126.417755 88.0
126.44014 100.0
126.45932 168.0
126.523865 296.0
126.605247 176.0
126.648972 324.0
126.71109 208.0
126.760391 164.0
126.786003 252.0
126.825386 188.0
126.847801 128.0
126.867973 100.0
126.916801 144.0
126.959053 168.0
126.995796 108.0
127.076553 56.0
127.101234 180.0
127.115189 144.0
127.134895 128.0
127.155098 240.0
127.179703 216.0
127.217949 112.0
127.285309 192.0
127.323967 204.0
127.370506 140.0
127.393776 172.0
127.458275 152.0
127.480743 204.0
127.523445 148.0
127.559616 208.0
127.58197 136.0
127.6381 136.0
127.687576 144.0
127.719162 96.0
127.739311 132.0
127.769699 160.0
127.785141 152.0
127.817688 120.0
127.832367 156.0
127.847313 204.0
127.894577 92.0
127.921593 128.0
127.953339 184.0
127.983734 180.0
128.011047 180.0
128.038574 164.0
128.061844 304.0
128.079666 224.0
128.133286 180.0
128.152435 104.0
128.177979 212.0
128.184036 176.0
128.204285 212.0
128.230057 340.0
128.276047 184.0
128.325394 272.0
128.344696 172.0
128.352859 292.0
128.394775 124.0
128.423416 132.0
128.432144 92.0
128.436508 184.0
128.480484 184.0
128.543671 176.0
128.566025 168.0
128.631699 192.0
128.656189 188.0
128.699738 156.0
128.759674 392.0
128.787872 144.0
128.800873 96.0
128.811554 136.0
128.817459 184.0
128.852112 140.0
128.895386 196.0
128.920807 384.0
128.959229 152.0
128.987854 204.0
129.073059 160.0
129.080093 164.0
129.145966 204.0
129.184235 156.0
129.240372 132.0
129.260773 164.0
129.28862 188.0
129.316406 96.0
129.373184 184.0
129.425262 144.0
129.445648 108.0
129.481873 156.0
129.522644 96.0
129.546082 208.0
129.59288 152.0
129.633026 324.0
129.649536 152.0
129.68663 204.0
129.703934 188.0
129.724335 128.0
129.753799 56.0
129.776474 128.0
129.805038 180.0
129.844513 100.0
129.86525 224.0
129.908478 220.0
129.951126 148.0
129.968018 224.0
129.991974 140.0
130.014664 252.0
130.046432 48.0
130.064423 112.0
130.087296 168.0
130.105453 152.0
130.160507 228.0
130.186249 124.0
130.205124 296.0
130.239441 228.0
130.260818 204.0
130.316681 128.0
130.359985 140.0
130.417862 212.0
130.475784 136.0
130.498184 248.0
130.516708 180.0
130.569016 208.0
130.607681 184.0
130.637253 148.0
130.679245 228.0
130.720413 176.0
130.746475 156.0
130.777756 204.0
130.786438 136.0
130.817169 136.0
130.857162 132.0
130.904907 176.0
130.921768 188.0
130.939056 152.0
130.946686 132.0
130.971878 152.0
130.994659 148.0
131.019714 148.0
131.051376 184.0
131.054245 236.0
131.073303 776.0
131.092682 232.0
131.123734 204.0
131.132553 132.0
131.139389 272.0
131.191574 208.0
131.233093 176.0
131.279251 112.0
131.322906 160.0
131.358322 288.0
131.391342 168.0
131.421005 128.0
131.439255 144.0
131.462082 176.0
131.518555 268.0
131.564423 292.0
131.61731 136.0
131.671356 168.0
131.70488 300.0
131.734619 196.0
131.76712 108.0
131.786331 128.0
131.802322 168.0
131.825439 144.0
131.845535 172.0
131.870346 236.0
131.905182 168.0
131.932617 140.0
131.982864 164.0
132.003494 32.0
132.024719 232.0
132.078156 408.0
132.155731 196.0
132.176712 196.0
132.194962 148.0
132.213593 124.0
132.227692 156.0
132.248291 52.0
132.287201 176.0
132.330841 136.0
132.348236 104.0
132.390686 180.0
132.428192 148.0
132.46608 148.0
132.484161 132.0
132.544434 328.0
132.5672 148.0
132.603317 72.0
132.627777 196.0
132.652405 144.0
132.679642 120.0
132.697983 116.0
132.733994 204.0
132.766495 116.0
132.780853 180.0
132.81015 192.0
132.844086 156.0
132.864731 200.0
132.880783 488.0
132.899445 212.0
132.9198 76.0
132.953156 160.0
132.999847 236.0
133.042633 108.0
133.068863 236.0
133.082886 244.0
133.103439 124.0
133.137573 176.0
133.155548 308.0
133.183823 32.0
133.218277 188.0
133.246094 112.0
133.266525 352.0
133.291214 236.0
133.335846 72.0
133.358551 88.0
133.388733 252.0
133.422821 136.0
133.445801 176.0
133.467621 188.0
133.513748 212.0
133.549362 128.0
133.576889 180.0
133.678131 132.0
133.710983 116.0
133.749268 176.0
133.785599 168.0
133.794098 104.0
133.803314 208.0
133.813034 184.0
133.939484 368.0
133.965942 208.0
133.988983 196.0
134.021927 172.0
134.06041 160.0
134.095856 2064.0
134.125305 172.0
134.170029 144.0
134.244843 96.0
134.27034 140.0
134.307114 152.0
134.341721 108.0
134.40686 220.0
134.421783 176.0
134.440933 120.0
134.469849 220.0
134.498642 72.0
134.521713 196.0
134.551727 112.0
134.579437 168.0
134.618698 112.0
134.662582 92.0
134.693085 136.0
134.72908 116.0
134.754974 148.0
134.787323 76.0
134.826614 88.0
134.842789 168.0
134.870529 156.0
134.890686 204.0
134.979187 120.0
135.031494 188.0
135.070114 208.0
135.100296 356.0
135.142654 180.0
135.166138 192.0
135.212845 156.0
135.25914 116.0
135.288071 152.0
135.315125 200.0
135.400375 272.0
135.443542 304.0
135.474503 220.0
135.520844 272.0
135.541702 128.0
135.570816 324.0
135.579132 184.0
135.619919 144.0
135.65155 180.0
135.708588 268.0
135.741058 300.0
135.762695 336.0
135.79834 108.0
135.821762 140.0
135.843079 148.0
135.878433 312.0
135.938232 176.0
135.954193 152.0
135.986969 108.0
136.014832 240.0
136.068268 208.0
136.119019 128.0
136.215866 180.0
136.237762 104.0
136.258667 120.0
136.27774 252.0
136.307465 96.0
136.367889 164.0
136.398102 140.0
136.419037 124.0
136.460144 152.0
136.514816 144.0
136.604126 196.0
136.672546 108.0
136.722809 180.0
136.727493 156.0
136.739639 120.0
136.742767 152.0
136.76181 112.0
136.794388 148.0
136.853195 164.0
136.890701 200.0
136.925461 200.0
136.955948 208.0
136.99678 152.0
137.019974 144.0
137.043793 188.0
137.170944 52.0
137.275024 304.0
137.31662 128.0
137.354858 468.0
137.400269 144.0
137.495163 136.0
137.521652 184.0
137.549713 168.0
137.586212 76.0
137.611816 128.0
137.641449 164.0
137.688522 148.0
137.734207 96.0
137.763702 168.0
137.801071 188.0
137.832886 176.0
137.861969 288.0
137.888916 136.0
137.908569 200.0
137.97403 44.0
137.990982 224.0
138.033051 216.0
138.073822 124.0
138.090958 128.0
138.130722 172.0
138.150024 112.0
138.172821 144.0
138.243027 204.0
138.264084 148.0
138.318985 160.0
138.357727 136.0
138.383469 112.0
138.400589 320.0
138.423279 228.0
138.457321 112.0
138.509933 140.0
138.56041 228.0
138.593765 160.0
138.620056 136.0
138.639221 156.0
138.697403 144.0
138.716156 68.0
138.735779 116.0
138.753662 144.0
138.781082 144.0
138.832596 188.0
138.866226 164.0
138.882645 176.0
138.901413 144.0
138.964508 152.0
139.000336 96.0
139.028107 104.0
139.051575 100.0
139.136963 188.0
139.159561 248.0
139.212631 200.0
139.248795 300.0
139.309875 128.0
139.326324 144.0
139.355728 112.0
139.373306 164.0
139.406204 180.0
139.432068 120.0
139.520523 288.0
139.536469 212.0
139.577362 228.0
139.613205 160.0
139.641312 152.0
139.689621 156.0
139.718948 180.0
139.763641 64.0
139.793152 288.0
139.896622 144.0
139.941559 160.0
139.98288 152.0
140.046158 120.0
140.069595 160.0
140.140381 152.0
140.172287 104.0
140.265289 240.0
140.30571 140.0
140.310638 172.0
140.341995 224.0
140.38353 136.0
140.429596 264.0
140.45546 180.0
140.502762 232.0
140.533051 132.0
140.555771 196.0
140.602585 252.0
140.708817 156.0
140.744232 128.0
140.774506 132.0
140.803268 148.0
140.825485 216.0
140.894928 100.0
140.935699 204.0
140.964233 88.0
140.987549 152.0
141.010193 144.0
141.039551 72.0
141.068451 264.0
141.101501 200.0
141.157654 188.0
141.164124 180.0
141.218506 136.0
141.236801 144.0
141.284882 140.0
141.310394 196.0
141.330444 192.0
141.379654 200.0
141.403412 168.0
141.422424 192.0
141.430893 180.0
141.455872 144.0
141.473984 140.0
141.512695 80.0
141.564789 184.0
141.607422 112.0
141.653534 196.0
141.678482 60.0
141.729385 108.0
141.754303 216.0
141.78038 40.0
141.837265 120.0
141.869553 212.0
141.918533 200.0
141.973618 172.0
142.026962 160.0
142.07962 340.0
142.097733 144.0
142.143219 168.0
142.185928 168.0
142.204926 208.0
142.252457 172.0
142.278824 184.0
142.325989 192.0
142.369522 196.0
142.397232 156.0
142.438904 148.0
142.448242 196.0
142.47261 148.0
142.535034 152.0
142.561172 100.0
142.626419 240.0
142.660233 116.0
142.707016 360.0
142.744217 132.0
142.760864 216.0
142.776642 160.0
142.821854 180.0
142.848877 200.0
142.921188 356.0
142.960632 152.0
142.992508 208.0
143.034485 64.0
143.051147 160.0
143.084732 148.0
143.136856 160.0
143.217438 168.0
143.245865 200.0
143.272308 208.0
143.288406 96.0
143.313126 156.0
143.346909 112.0
143.363174 336.0
143.408447 256.0
143.453751 132.0
143.480484 184.0
143.536255 212.0
143.559174 96.0
143.606262 108.0
143.626358 248.0
143.67276 180.0
143.713715 176.0
143.763321 240.0
143.830658 36.0
143.856903 148.0
143.873993 104.0
143.924591 172.0
143.960022 260.0
143.970123 48.0
143.978271 220.0
143.994125 112.0
144.027466 248.0
144.081253 400.0
144.105286 160.0
144.122253 164.0
144.166458 244.0
144.187988 152.0
144.193756 204.0
144.204498 156.0
144.211716 128.0
144.234344 208.0
144.284882 172.0
144.308456 144.0
144.345642 176.0
144.371628 144.0
144.414734 356.0
144.470734 64.0
144.490036 148.0
144.530685 100.0
144.559616 140.0
144.606613 132.0
144.653183 128.0
144.683441 164.0
144.68782 100.0
144.723053 44.0
144.751968 172.0
144.808609 292.0
144.840195 216.0
144.861313 64.0
144.891968 236.0
144.940369 124.0
144.977341 160.0
145.012268 88.0
145.035889 192.0
145.063217 124.0
145.079208 160.0
145.088455 128.0
145.119217 124.0
145.136932 176.0
145.158508 48.0
145.182205 148.0
145.218979 176.0
145.252045 152.0
145.289062 112.0
145.325943 180.0
145.345612 152.0
145.374954 124.0
145.419312 204.0
145.423889 144.0
145.452393 108.0
145.47522 100.0
145.531082 120.0
145.556381 184.0
145.565292 148.0
145.570755 112.0
145.618591 328.0
145.662537 132.0
145.692444 184.0
145.736816 100.0
145.772797 108.0
145.810944 188.0
145.819992 144.0
145.847565 140.0
145.864395 96.0
145.900848 172.0
145.940491 172.0
145.97258 116.0
146.042328 248.0
146.05748 252.0
146.079788 156.0
146.103851 268.0
146.145782 140.0
146.177063 180.0
146.219574 96.0
146.261292 156.0
146.321487 108.0
146.373352 152.0
146.408173 132.0
146.458679 156.0
146.483902 136.0
146.521301 116.0
146.550293 52.0
146.574387 128.0
146.605713 112.0
146.670029 184.0
146.704544 128.0
146.740707 104.0
146.76416 164.0
146.863693 132.0
146.925613 132.0
146.948135 188.0
146.965027 104.0
147.006042 240.0
147.065552 940.0
147.10112 328.0
147.136948 52.0
147.232971 132.0
147.252304 100.0
147.274033 240.0
147.293365 56.0
147.329605 136.0
147.379257 292.0
147.413757 188.0
147.447617 176.0
147.474594 84.0
147.496338 280.0
147.519226 172.0
147.570374 148.0
147.638992 120.0
147.67038 180.0
147.677643 176.0
147.721237 100.0
147.750916 252.0
147.77832 172.0
147.841171 212.0
147.866776 332.0
147.906189 240.0
147.930206 192.0
147.960831 168.0
148.043152 56.0
148.073654 168.0
148.109055 688.0
148.149734 136.0
148.177002 140.0
148.234894 140.0
148.258591 168.0
148.280716 204.0
148.304153 232.0
148.341171 152.0
148.362381 144.0
148.375275 152.0
148.414108 96.0
148.472763 148.0
148.506073 80.0
148.541992 144.0
148.588547 164.0
148.608673 188.0
148.627716 112.0
148.662155 80.0
148.722794 272.0
148.748718 152.0
148.79834 236.0
148.847565 328.0
148.863983 204.0
148.938126 292.0
148.95755 192.0
149.002121 152.0
149.054749 68.0
149.095779 156.0
149.145752 264.0
149.167465 212.0
149.185989 60.0
149.204681 180.0
149.213364 124.0
149.229156 372.0
149.244858 152.0
149.287872 120.0
149.343811 196.0
149.38298 148.0
149.402435 164.0
149.424042 164.0
149.446228 72.0
149.529831 148.0
149.546753 72.0
149.563049 180.0
149.580078 156.0
149.60199 188.0
149.638519 132.0
149.694519 288.0
149.802368 200.0
149.845459 128.0
149.897507 184.0
149.950333 88.0
149.974701 96.0
150.012985 172.0
150.041428 156.0
150.099243 148.0
150.127487 136.0
150.161987 156.0
150.190811 204.0
150.24295 204.0
150.2771 132.0
150.318832 520.0
150.421097 212.0
150.487015 96.0
150.53096 168.0
150.587128 156.0
150.618317 152.0
150.633057 160.0
150.670197 144.0
150.710129 440.0
150.741043 112.0
150.767929 120.0
150.792374 116.0
150.837952 248.0
150.857956 320.0
150.898575 152.0
150.919495 104.0
150.936615 168.0
150.958237 152.0
150.987152 96.0
151.026535 156.0
151.054001 140.0
151.107895 156.0
151.139435 296.0
151.164185 120.0
151.193481 108.0
151.220184 188.0
151.255844 196.0
151.284042 104.0
151.313416 212.0
151.378464 292.0
151.408051 112.0
151.458466 140.0
151.548355 148.0
151.584854 108.0
151.591888 88.0
151.598724 168.0
151.645447 164.0
151.653152 88.0
151.670197 164.0
151.697479 284.0
151.742767 136.0
151.791229 144.0
151.837814 300.0
151.872162 136.0
151.891785 176.0
151.915161 164.0
151.940536 164.0
151.965378 312.0
151.990524 164.0
152.061646 1384.0
152.092377 156.0
152.109512 208.0
152.147003 176.0
152.172165 112.0
152.190887 156.0
152.227539 160.0
152.270767 412.0
152.300903 196.0
152.32309 188.0
152.350845 92.0
152.384781 172.0
152.429596 76.0
152.452942 148.0
152.513443 212.0
152.546188 252.0
152.605225 136.0
152.633362 144.0
152.660858 120.0
152.694336 152.0
152.699112 112.0
152.708527 228.0
152.731766 184.0
152.816391 152.0
152.847504 316.0
152.894257 332.0
152.964935 168.0
152.971634 120.0
152.981537 220.0
153.008194 140.0
153.039108 200.0
153.069397 368.0
153.103882 284.0
153.124634 120.0
153.188614 228.0
153.216843 112.0
153.234085 116.0
153.286896 332.0
153.346527 172.0
153.386887 100.0
153.41153 124.0
153.436188 200.0
153.465775 200.0
153.495361 160.0
153.579224 188.0
153.60881 180.0
153.628555 168.0
153.645706 160.0
153.745773 188.0
153.806915 144.0
153.885223 180.0
153.904083 216.0
153.936127 124.0
153.959305 92.0
154.030945 324.0
154.055359 212.0
154.073944 268.0
154.110001 60.0
154.145569 152.0
154.17424 180.0
154.204575 204.0
154.258316 180.0
154.298615 240.0
154.342346 256.0
154.378204 176.0
154.396103 144.0
154.425552 372.0
154.451157 124.0
154.506912 96.0
154.564972 160.0
154.595413 112.0
154.65654 288.0
154.705612 204.0
154.735916 184.0
154.760513 168.0
154.792709 104.0
154.819946 176.0
154.864792 116.0
154.886963 136.0
154.933823 212.0
155.000717 132.0
155.00705 220.0
155.046677 156.0
155.072891 212.0
155.101669 196.0
155.139587 112.0
155.190704 208.0
155.218658 180.0
155.22612 160.0
155.266052 108.0
155.283417 140.0
155.307129 128.0
155.35347 196.0
155.371796 236.0
155.432266 156.0
155.44928 140.0
155.490219 124.0
155.5112 144.0
155.534714 300.0
155.577042 84.0
155.614929 136.0
155.661911 148.0
155.695404 64.0
155.726089 228.0
155.784836 168.0
155.808548 132.0
155.856888 116.0
155.883484 136.0
155.926926 196.0
155.953369 68.0
156.020782 136.0
156.07811 64.0
156.098007 184.0
156.120377 52.0
156.147232 136.0
156.168182 148.0
156.187851 180.0
156.2771 120.0
156.321884 188.0
156.350266 188.0
156.392166 68.0
156.410858 140.0
156.459625 132.0
156.46785 44.0
156.475281 116.0
156.495819 128.0
156.523529 240.0
156.547638 312.0
156.590775 104.0
156.631607 152.0
156.655533 48.0
156.675461 100.0
156.71283 132.0
156.744888 88.0
156.762619 176.0
156.798462 176.0
156.826309 128.0
156.858292 132.0
156.894775 140.0
156.933563 188.0
156.940811 104.0
156.951904 132.0
156.986374 224.0
157.034424 212.0
157.070297 252.0
157.100433 148.0
157.134201 304.0
157.153549 128.0
157.233398 176.0
157.276459 112.0
157.301422 68.0
157.318893 244.0
157.366333 116.0
157.420441 352.0
157.445175 132.0
157.462753 144.0
157.504303 204.0
157.550217 140.0
157.610107 100.0
157.635574 76.0
157.682663 76.0
157.703583 80.0
157.737335 156.0
157.763962 152.0
157.794144 124.0
157.851288 192.0
157.873596 208.0
157.8936 96.0
157.917938 148.0
157.933197 140.0
157.968018 176.0
157.990631 240.0
158.030533 212.0
158.059006 208.0
158.091782 252.0
158.153809 212.0
158.196365 84.0
158.266464 180.0
158.291519 136.0
158.326569 132.0
158.376572 112.0
158.383896 108.0
158.39209 100.0
158.402206 124.0
158.409958 124.0
158.417313 160.0
158.439285 132.0
158.464432 128.0
158.514465 184.0
158.544968 220.0
158.593094 192.0
158.634766 204.0
158.664673 192.0
158.685577 180.0
158.717133 152.0
158.78772 156.0
158.8172 112.0
158.835449 152.0
158.853348 172.0
158.873016 124.0
158.905136 372.0
158.953308 240.0
158.985809 176.0
159.036316 216.0
159.0923 304.0
159.165192 156.0
159.201828 152.0
159.24202 140.0
159.2621 144.0
159.281906 136.0
159.319885 80.0
159.33876 144.0
159.359344 164.0
159.392746 176.0
159.435257 184.0
159.474167 252.0
159.513382 88.0
159.533493 112.0
159.62114 84.0
159.67308 148.0
159.70253 164.0
159.742233 116.0
159.772415 164.0
159.804306 528.0
159.832809 108.0
159.863007 124.0
159.917282 140.0
159.969879 172.0
159.979797 80.0
159.988632 136.0
160.074188 320.0
160.110168 1568.0
160.167648 108.0
160.195099 188.0
160.251968 188.0
160.275986 84.0
160.306229 184.0
160.336624 128.0
160.420853 140.0
160.439819 144.0
160.578506 64.0
160.634003 124.0
160.669312 152.0
160.742493 64.0
160.76326 292.0
160.802612 160.0
160.828659 196.0
160.858398 216.0
160.914124 68.0
160.933426 156.0
160.962112 112.0
160.990387 160.0
161.049286 208.0
161.080948 312.0
161.11409 420.0
161.241959 124.0
161.306183 128.0
161.347168 212.0
161.409851 212.0
161.450043 224.0
161.543427 148.0
161.574081 168.0
161.582245 140.0
161.65361 132.0
161.684616 220.0
161.715317 172.0
161.742279 268.0
161.767685 180.0
161.787994 144.0
161.806625 200.0
161.840775 140.0
161.862335 124.0
161.901581 96.0
161.931793 160.0
161.966171 184.0
162.024109 220.0
162.064468 120.0
162.09285 188.0
162.125198 136.0
162.147339 120.0
162.180801 108.0
162.217407 192.0
162.254272 76.0
162.293472 208.0
162.33046 332.0
162.366638 56.0
162.406647 160.0
162.416382 124.0
162.470413 88.0
162.487457 160.0
162.534073 168.0
162.571243 124.0
162.605133 176.0
162.643646 164.0
162.671127 240.0
162.714294 184.0
162.735275 208.0
162.770691 268.0
162.871735 428.0
162.907303 60.0
162.946152 192.0
162.992859 280.0
163.04007 180.0
163.07196 140.0
163.087921 156.0
163.146194 80.0
163.192398 136.0
163.317184 248.0
163.371918 192.0
163.407089 164.0
163.422668 328.0
163.49704 172.0
163.526199 112.0
163.594894 64.0
163.624481 144.0
163.680145 224.0
163.721252 80.0
163.777618 120.0
163.812729 180.0
163.853699 136.0
163.888824 112.0
163.917404 308.0
164.022263 88.0
164.085037 240.0
164.091736 184.0
164.136627 184.0
164.157028 136.0
164.196808 128.0
164.222931 176.0
164.264374 92.0
164.292221 168.0
164.318054 216.0
164.363571 176.0
164.432892 184.0
164.463058 148.0
164.521851 212.0
164.562759 200.0
164.586029 104.0
164.643051 180.0
164.690445 100.0
164.735397 180.0
164.765564 168.0
164.789642 468.0
164.82074 272.0
164.843445 144.0
164.892685 212.0
164.92778 208.0
164.963867 112.0
165.021149 164.0
165.041641 200.0
165.070084 2376.0
165.119034 88.0
165.140305 136.0
165.201141 112.0
165.25087 200.0
165.268448 164.0
165.31427 168.0
165.344986 124.0
165.368088 160.0
165.395737 188.0
165.43457 192.0
165.459488 208.0
165.477234 288.0
165.521637 132.0
165.590027 164.0
165.678604 112.0
165.697311 136.0
165.741196 168.0
165.773499 204.0
165.829269 212.0
165.867508 168.0
165.955933 276.0
165.993134 180.0
166.007355 88.0
166.014603 140.0
166.034164 200.0
166.07605 912.0
166.126511 196.0
166.160919 192.0
166.190659 188.0
166.229141 116.0
166.269806 280.0
166.312836 180.0
166.349777 52.0
166.375443 172.0
166.411057 144.0
166.444794 280.0
166.475586 60.0
166.493561 196.0
166.51506 152.0
166.560349 168.0
166.596313 156.0
166.64769 200.0
166.675018 396.0
166.702103 136.0
166.726852 164.0
166.750275 200.0
166.804718 212.0
166.849106 88.0
166.889313 80.0
166.918304 356.0
166.979309 256.0
167.014099 184.0
167.047684 236.0
167.084381 8404.0
167.145081 120.0
167.195923 204.0
167.226318 140.0
167.264923 156.0
167.285751 216.0
167.336472 172.0
167.346542 136.0
167.371857 276.0
167.416046 156.0
167.439102 136.0
167.490448 144.0
167.51413 252.0
167.546768 60.0
167.571381 204.0
167.589432 168.0
167.608383 224.0
167.64505 132.0
167.692505 208.0
167.731171 156.0
167.759705 112.0
167.82399 124.0
167.896194 128.0
167.914246 44.0
167.985825 120.0
168.050049 112.0
168.055267 72.0
168.089584 692.0
168.161926 216.0
168.250565 172.0
168.347824 132.0
168.389145 116.0
168.409805 156.0
168.433044 300.0
168.485611 260.0
168.505386 156.0
168.522324 152.0
168.550888 144.0
168.572723 212.0
168.600998 188.0
168.629425 144.0
168.672943 216.0
168.746124 200.0
168.781952 176.0
168.800064 168.0
168.833679 140.0
168.882812 164.0
168.90419 256.0
168.935135 172.0
168.971481 96.0
169.023392 72.0
169.087418 180.0
169.10939 136.0
169.157104 108.0
169.201111 140.0
169.219238 164.0
169.262711 140.0
169.328003 72.0
169.350128 316.0
169.374207 192.0
169.393707 168.0
169.429031 48.0
169.45752 148.0
169.513123 212.0
169.581924 176.0
169.603409 164.0
169.657486 236.0
169.677368 112.0
169.751846 156.0
169.771179 100.0
169.799927 148.0
169.820465 144.0
169.837036 132.0
169.865479 192.0
169.903549 132.0
169.950958 220.0
169.986496 112.0
170.022827 96.0
170.044815 148.0
170.087662 168.0
170.151672 176.0
170.160751 248.0
170.200684 164.0
170.242462 312.0
170.304459 180.0
170.322189 120.0
170.365585 368.0
170.399353 240.0
170.425766 148.0
170.450516 192.0
170.505905 132.0
170.524094 136.0
170.586472 180.0
170.612473 160.0
170.64888 84.0
170.682678 152.0
170.729492 132.0
170.75029 60.0
170.782959 112.0
170.802307 124.0
170.82312 92.0
170.851746 108.0
170.885849 112.0
170.929321 168.0
170.992264 120.0
171.01239 228.0
171.0625 160.0
171.095535 112.0
171.119812 184.0
171.145844 196.0
171.1745 376.0
171.210953 128.0
171.270859 120.0
171.307327 296.0
171.33754 136.0
171.376099 304.0
171.437836 88.0
171.466934 172.0
171.500153 144.0
171.539261 120.0
171.618515 364.0
171.656586 124.0
171.676315 212.0
171.716446 168.0
171.750473 160.0
171.775146 148.0
171.800995 236.0
171.833679 192.0
171.876495 228.0
171.904404 128.0
171.942459 228.0
171.953674 132.0
171.961487 212.0
171.986389 156.0
172.007355 232.0
172.031479 216.0
172.12561 152.0
172.161301 148.0
172.205948 192.0
172.236206 148.0
172.290848 88.0
172.396118 160.0
172.452454 152.0
172.476395 204.0
172.496643 172.0
172.560043 100.0
172.626587 252.0
172.653763 388.0
172.695633 128.0
172.747467 260.0
172.77713 172.0
172.801804 176.0
172.829453 64.0
172.847778 148.0
172.883148 240.0
172.924286 152.0
172.958313 252.0
172.988907 104.0
173.023804 176.0
173.065033 132.0
173.088608 124.0
173.114792 132.0
173.14621 128.0
173.233658 196.0
173.30864 152.0
173.339218 428.0
173.36496 316.0
173.384277 148.0
173.42395 216.0
173.476395 232.0
173.509583 132.0
173.55928 180.0
173.650406 192.0
173.712387 140.0
173.770111 156.0
173.78833 144.0
173.802399 196.0
173.867203 104.0
173.893448 144.0
173.933411 228.0
173.980286 48.0
174.082642 184.0
174.150757 216.0
174.182281 80.0
174.247955 136.0
174.278732 184.0
174.314545 152.0
174.327042 120.0
174.335373 164.0
174.37146 208.0
174.474319 244.0
174.502899 148.0
174.533325 180.0
174.552856 124.0
174.58783 108.0
174.650177 172.0
174.678482 184.0
174.726456 136.0
174.76593 156.0
174.794876 104.0
174.821701 164.0
174.852768 72.0
174.892624 224.0
175.010712 144.0
175.029144 28.0
175.057739 312.0
175.087082 172.0
175.122375 204.0
175.144043 204.0
175.205627 156.0
175.239868 216.0
175.274536 156.0
175.31102 508.0
175.340012 148.0
175.410645 168.0
175.433609 236.0
175.491867 224.0
175.51712 308.0
175.540375 376.0
175.577286 144.0
175.598969 216.0
175.625992 184.0
175.675659 144.0
175.708969 48.0
175.745926 240.0
175.763184 256.0
175.812485 212.0
175.854324 104.0
175.888641 240.0
175.923935 184.0
175.945053 108.0
175.978394 96.0
176.012421 212.0
176.029572 220.0
176.055695 176.0
176.091766 112.0
176.096008 104.0
176.109619 168.0
176.181198 188.0
176.212845 188.0
176.261032 100.0
176.298615 108.0
176.317108 168.0
176.488953 212.0
176.557007 96.0
176.607361 120.0
176.649033 104.0
176.697891 128.0
176.718475 220.0
176.762787 288.0
176.818176 124.0
176.850388 156.0
176.901703 108.0
176.946091 216.0
176.96463 128.0
177.01976 176.0
177.030319 144.0
177.07605 420.0
177.104889 112.0
177.142242 304.0
177.201767 384.0
177.234802 96.0
177.253357 144.0
177.295746 104.0
177.316956 72.0
177.427063 168.0
177.470718 120.0
177.508835 96.0
177.554367 180.0
177.598007 236.0
177.672852 168.0
177.791489 204.0
177.79892 188.0
177.831818 160.0
177.885757 188.0
177.979919 296.0
178.016159 196.0
178.076614 4344.0
178.125656 160.0
178.188828 288.0
178.252991 68.0
178.287689 152.0
178.324265 192.0
178.384445 220.0
178.415909 168.0
178.51651 96.0
178.559784 112.0
178.585983 96.0
178.595352 184.0
178.617004 200.0
178.665909 72.0
178.687195 80.0
178.728088 204.0
178.770065 164.0
178.796555 168.0
178.817581 192.0
178.838837 272.0
178.885544 124.0
178.901382 220.0
178.949203 152.0
178.97998 100.0
179.008621 180.0
179.043152 168.0
179.082565 1800.0
179.119583 152.0
179.145111 76.0
179.195679 192.0
179.238358 172.0
179.260498 120.0
179.307648 28.0
179.335892 148.0
179.361938 164.0
179.395615 176.0
179.446075 384.0
179.499603 164.0
179.520935 64.0
179.564514 200.0
179.603607 96.0
179.664825 260.0
179.720016 184.0
179.761017 92.0
179.785034 252.0
179.867233 192.0
179.871994 124.0
179.895676 188.0
179.956482 124.0
179.979019 96.0
180.039902 120.0
180.049973 136.0
180.085648 448.0
180.162766 200.0
180.204285 228.0
180.233673 192.0
180.268127 172.0
180.32988 156.0
180.370514 180.0
180.443527 196.0
180.48494 168.0
180.524597 120.0
180.534027 100.0
180.539383 156.0
180.5728 108.0
180.628098 136.0
180.682404 116.0
180.756622 204.0
180.804276 172.0
180.813919 184.0
180.824371 168.0
180.83461 164.0
180.901855 164.0
180.931885 280.0
180.958862 168.0
181.022797 128.0
181.060074 268.0
181.079636 228.0
181.100266 148.0
181.104446 148.0
181.134033 188.0
181.140656 180.0
181.150055 188.0
181.183899 140.0
181.213989 204.0
181.306137 140.0
181.346222 132.0
181.371338 132.0
181.412201 156.0
181.447235 236.0
181.513199 44.0
181.533569 140.0
181.54512 84.0
181.554565 132.0
181.561996 140.0
181.596329 164.0
181.663696 176.0
181.692902 276.0
181.717056 60.0
181.762665 132.0
181.796494 272.0
181.861542 128.0
181.953201 328.0
181.998886 156.0
182.044952 260.0
182.093109 188.0
182.13414 176.0
182.173691 92.0
182.196365 144.0
182.270187 200.0
182.297058 100.0
182.330795 196.0
182.372742 168.0
182.416504 144.0
182.4422 108.0
182.46228 132.0
182.490601 172.0
182.539185 180.0
182.596603 200.0
182.628815 132.0
182.668304 156.0
182.735352 148.0
182.881042 240.0
182.912033 180.0
182.939789 152.0
182.986694 156.0
183.017761 176.0
183.063751 192.0
183.097412 128.0
183.149933 380.0
183.168472 136.0
183.198761 224.0
183.253769 176.0
183.278976 196.0
183.35202 212.0
183.381668 168.0
183.432877 104.0
183.46254 168.0
183.487823 180.0
183.512085 212.0
183.535324 108.0
183.559448 140.0
183.59465 208.0
183.630615 144.0
183.659393 116.0
183.716034 112.0
183.740326 116.0
183.761902 132.0
183.832062 84.0
183.883331 104.0
183.953522 96.0
183.977814 36.0
183.999176 404.0
184.023712 140.0
184.06691 228.0
184.093918 124.0
184.161896 156.0
184.184601 340.0
184.222794 140.0
184.253296 240.0
184.272858 212.0
184.294098 156.0
184.328949 104.0
184.375931 156.0
184.389145 116.0
184.442459 140.0
184.476868 216.0
184.486984 136.0
184.494888 224.0
184.520142 168.0
184.566818 124.0
184.636612 144.0
184.689774 228.0
184.725418 132.0
184.741272 188.0
184.765579 116.0
184.775284 124.0
184.845444 172.0
184.875137 136.0
184.897171 164.0
184.928894 72.0
184.953705 140.0
184.98085 228.0
185.02536 128.0
185.044891 152.0
185.070358 136.0
185.099365 160.0
185.126144 180.0
185.150864 200.0
185.194687 148.0
185.215714 136.0
185.268921 188.0
185.349106 104.0
185.427963 292.0
185.449829 172.0
185.488525 136.0
185.506897 128.0
185.538849 188.0
185.593979 204.0
185.640305 152.0
185.705414 160.0
185.728668 156.0
185.762543 172.0
185.829269 48.0
185.869751 144.0
185.928741 200.0
185.97493 180.0
186.027161 112.0
186.06517 240.0
186.100479 104.0
186.169876 176.0
186.197342 236.0
186.227066 136.0
186.273941 192.0
186.335663 172.0
186.361221 72.0
186.469925 128.0
186.49884 328.0
186.548447 144.0
186.558533 128.0
186.568924 220.0
186.609024 216.0
186.659897 196.0
186.675232 180.0
186.699875 200.0
186.787613 160.0
186.797104 124.0
186.815811 200.0
186.859055 164.0
186.867493 160.0
186.87883 224.0
186.898148 68.0
186.930145 196.0
186.957184 148.0
186.986694 76.0
187.024796 88.0
187.047928 164.0
187.09285 136.0
187.111908 40.0
187.133255 152.0
187.153244 156.0
187.188156 164.0
187.226639 148.0
187.255798 224.0
187.296127 160.0
187.342789 228.0
187.365204 100.0
187.386993 188.0
187.420578 148.0
187.452988 164.0
187.497025 336.0
187.646454 124.0
187.682678 424.0
187.720428 196.0
187.823181 116.0
187.850723 124.0
187.880478 144.0
187.925415 152.0
187.98468 144.0
188.036942 128.0
188.057007 156.0
188.105804 772.0
188.13266 116.0
188.153397 52.0
188.188126 152.0
188.220871 140.0
188.253479 140.0
188.284454 204.0
188.330887 208.0
188.355469 184.0
188.396454 172.0
188.430573 140.0
188.494812 88.0
188.519409 128.0
188.544006 188.0
188.576797 84.0
188.595932 132.0
188.620544 156.0
188.667862 168.0
188.706406 228.0
188.729721 124.0
188.810577 192.0
188.880798 152.0
188.915878 184.0
188.947922 168.0
188.984268 88.0
189.027496 216.0
189.047134 128.0
189.070496 260.0
189.113678 1968.0
189.146683 152.0
189.152695 164.0
189.182831 124.0
189.211441 144.0
189.230606 220.0
189.270081 136.0
189.326462 196.0
189.359802 184.0
189.383972 184.0
189.413559 184.0
189.424988 148.0
189.43103 180.0
189.471634 232.0
189.547409 128.0
189.566025 152.0
189.693619 304.0
189.71582 120.0
189.79834 80.0
189.870041 176.0
189.891037 164.0
189.968796 116.0
190.019974 124.0
190.073105 192.0
190.118073 440.0
190.147186 168.0
190.180649 268.0
190.210632 84.0
190.231476 432.0
190.273346 176.0
190.290359 116.0
190.343018 116.0
190.352814 124.0
190.365738 112.0
190.406219 232.0
190.415466 164.0
190.422424 132.0
190.457672 128.0
190.497665 120.0
190.535812 136.0
190.577866 168.0
190.62381 196.0
190.657974 200.0
190.687271 128.0
190.716263 200.0
190.777985 136.0
190.797226 100.0
190.843857 100.0
190.876968 160.0
190.902756 136.0
190.940216 48.0
190.995224 100.0
191.083633 692.0
191.159637 100.0
191.172485 132.0
191.207092 244.0
191.266403 148.0
191.315613 140.0
191.375015 192.0
191.395386 108.0
191.421204 180.0
191.431503 140.0
191.471771 260.0
191.531982 144.0
191.554031 140.0
191.630234 368.0
191.680771 172.0
191.706696 204.0
191.746902 180.0
191.775696 144.0
191.821335 248.0
191.881134 196.0
191.911728 172.0
192.010284 76.0
192.032608 116.0
192.073441 128.0
192.093704 52.0
192.119156 124.0
192.148178 124.0
192.173721 160.0
192.229523 56.0
192.265091 104.0
192.28334 176.0
192.338074 304.0
192.384094 140.0
192.419983 112.0
192.4561 208.0
192.516632 116.0
192.53862 152.0
192.602249 256.0
192.654739 44.0
192.69455 156.0
192.717896 460.0
192.737625 172.0
192.762497 280.0
192.795288 236.0
192.837112 112.0
192.947418 332.0
192.969803 216.0
193.001312 204.0
193.027878 104.0
193.056366 132.0
193.100143 11260.0
193.152328 160.0
193.186264 180.0
193.227036 216.0
193.246475 156.0
193.296051 144.0
193.361282 148.0
193.382004 216.0
193.404144 60.0
193.440002 152.0
193.448975 144.0
193.471985 300.0
193.510269 212.0
193.556412 188.0
193.576813 248.0
193.625809 260.0
193.659897 152.0
193.796005 200.0
193.835358 336.0
193.902832 156.0
193.935074 264.0
193.952591 352.0
193.971893 108.0
194.014694 200.0
194.069824 328.0
194.100433 1372.0
194.141403 284.0
194.21225 168.0
194.251648 104.0
194.267441 52.0
194.278381 100.0
194.372772 152.0
194.378281 188.0
194.417053 244.0
194.489288 132.0
194.554565 48.0
194.575577 184.0
194.626755 184.0
194.646194 140.0
194.671188 152.0
194.693405 208.0
194.72641 140.0
194.82666 324.0
194.8573 152.0
194.889252 148.0
194.932312 184.0
194.951767 76.0
195.012909 148.0
195.03537 152.0
195.080338 792.0
195.102982 328.0
195.154694 196.0
195.182495 292.0
195.218307 160.0
195.221985 140.0
195.236725 188.0
195.248093 164.0
195.279831 168.0
195.302094 220.0
195.335464 128.0
195.359238 220.0
195.366989 120.0
195.429245 252.0
195.463455 124.0
195.501923 208.0
195.528366 160.0
195.549728 120.0
195.588699 96.0
195.644363 140.0
195.676392 128.0
195.705627 168.0
195.72789 80.0
195.75737 48.0
195.832336 128.0
195.852829 112.0
195.873596 224.0
195.900574 160.0
195.920074 28.0
195.953796 204.0
196.022171 212.0
196.08284 464.0
196.101822 224.0
196.159073 132.0
196.179871 128.0
196.2155 152.0
196.260117 112.0
196.300598 208.0
196.332611 132.0
196.360504 136.0
196.420715 376.0
196.467789 244.0
196.490753 220.0
196.552994 136.0
196.583694 48.0
196.632019 268.0
196.672119 212.0
196.698135 120.0
196.801422 80.0
196.827927 104.0
196.868454 156.0
196.92363 400.0
196.985962 208.0
197.052811 128.0
197.077957 192.0
197.104904 188.0
197.161789 196.0
197.189743 160.0
197.228867 168.0
197.258575 108.0
197.293167 232.0
197.329514 192.0
197.396698 180.0
197.448303 116.0
197.517319 116.0
197.574692 224.0
197.599014 348.0
197.635483 144.0
197.684753 188.0
197.709946 36.0
197.793915 132.0
197.914291 132.0
197.945892 184.0
197.963684 144.0
197.991425 140.0
198.087051 176.0
198.107544 164.0
198.128433 140.0
198.182419 116.0
198.188126 316.0
198.232315 128.0
198.270111 160.0
198.293732 216.0
198.348862 112.0
198.383972 220.0
198.422516 228.0
198.464783 156.0
198.498199 164.0
198.55043 120.0
198.587982 172.0
198.610031 144.0
198.641449 204.0
198.733414 156.0
198.760818 196.0
198.773453 56.0
198.779572 100.0
198.807953 116.0
198.847824 76.0
198.8815 104.0
198.920807 56.0
198.957306 144.0
198.979752 112.0
199.005035 124.0
199.038727 160.0
199.066071 172.0
199.098419 176.0
199.122971 156.0
199.151062 192.0
199.189392 192.0
199.218475 76.0
199.248032 148.0
199.269043 84.0
199.319626 180.0
199.339294 160.0
199.365356 140.0
199.400452 116.0
199.452957 208.0
199.513565 144.0
199.554642 176.0
199.593689 96.0
199.656967 140.0
199.69072 60.0
199.714081 136.0
199.735718 148.0
199.755417 168.0
199.797607 164.0
199.859512 116.0
199.89328 72.0
199.920044 300.0
199.98053 148.0
200.014297 136.0
200.056534 164.0
200.1241 196.0
200.178589 356.0
200.295898 156.0
200.379303 132.0
200.442596 156.0
200.493118 104.0
200.54248 80.0
200.583313 156.0
200.617142 44.0
200.666 196.0
200.856842 156.0
200.888443 100.0
200.98822 284.0
201.01767 132.0
201.046082 176.0
201.09285 124.0
201.170166 136.0
201.190903 192.0
201.221725 164.0
201.266541 288.0
201.314072 76.0
201.33667 160.0
201.373383 204.0
201.438354 200.0
201.524643 148.0
201.556686 128.0
201.613541 132.0
201.644623 344.0
201.692673 196.0
201.740738 84.0
201.794449 156.0
201.822723 72.0
201.876587 172.0
201.907684 96.0
201.941498 184.0
201.983932 108.0
202.009689 280.0
202.048431 120.0
202.077972 116.0
202.088272 136.0
202.095245 208.0
202.181458 148.0
202.255173 360.0
202.348999 172.0
202.38298 164.0
202.414948 156.0
202.439621 208.0
202.467941 168.0
202.517532 148.0
202.523529 108.0
202.583908 144.0
202.620895 56.0
202.681229 344.0
202.705826 164.0
202.755844 116.0
202.790924 156.0
202.824936 112.0
202.869385 248.0
202.949188 168.0
202.995056 164.0
203.02359 196.0
203.045181 172.0
203.083954 128.0
203.119095 180.0
203.146866 176.0
203.178146 276.0
203.289566 240.0
203.351105 216.0
203.39595 160.0
203.423019 168.0
203.48027 180.0
203.551254 176.0
203.605209 164.0
203.630768 144.0
203.656326 140.0
203.676208 168.0
203.712997 228.0
203.745682 132.0
203.765976 148.0
203.798203 324.0
203.87767 168.0
203.963211 152.0
203.983109 144.0
204.015701 292.0
204.078369 284.0
204.111313 264.0
204.162933 164.0
204.194077 104.0
204.219116 208.0
204.255005 192.0
204.298187 172.0
204.353912 188.0
204.383713 180.0
204.38858 120.0
204.407806 136.0
204.446579 144.0
204.477341 164.0
204.529266 172.0
204.555115 156.0
204.578857 172.0
204.589218 72.0
204.597855 176.0
204.668777 316.0
204.700104 152.0
204.718109 184.0
204.754532 140.0
204.779846 180.0
204.809509 220.0
204.859604 136.0
204.953613 52.0
204.991608 212.0
205.000839 196.0
205.064377 128.0
205.096024 268.0
205.129623 164.0
205.226486 104.0
205.23671 152.0
205.366379 92.0
205.373215 284.0
205.40979 136.0
205.432602 256.0
205.46875 192.0
205.509644 132.0
205.529617 180.0
205.549591 108.0
205.569565 68.0
205.658203 140.0
205.696289 260.0
205.750229 148.0
205.792221 188.0
205.848282 360.0
205.875702 184.0
205.918167 224.0
205.943573 140.0
205.991379 292.0
206.012482 204.0
206.072083 1068.0
206.146423 144.0
206.212158 284.0
206.243591 148.0
206.289169 144.0
206.363419 92.0
206.42334 156.0
206.428131 228.0
206.45517 52.0
206.489075 164.0
206.550095 128.0
206.56073 128.0
206.595322 212.0
206.621078 196.0
206.654617 168.0
206.706848 348.0
206.792908 168.0
206.827118 80.0
206.904419 104.0
206.926407 120.0
206.953094 128.0
206.973755 228.0
206.999893 144.0
207.030411 156.0
207.07724 1068.0
207.102661 380.0
207.141739 92.0
207.194992 364.0
207.225189 124.0
207.252411 176.0
207.278931 332.0
207.302567 144.0
207.346497 148.0
207.374207 124.0
207.411469 40.0
207.44014 204.0
207.48027 72.0
207.503204 60.0
207.569153 80.0
207.597839 144.0
207.69249 112.0
207.721161 164.0
207.778885 132.0
207.845596 184.0
207.871414 252.0
207.925293 200.0
207.959335 92.0
207.995911 116.0
208.064804 416.0
208.104904 1204.0
208.153442 124.0
208.200409 116.0
208.245026 184.0
208.354996 168.0
208.390228 176.0
208.427444 128.0
208.446457 128.0
208.470551 32.0
208.490677 104.0
208.530685 168.0
208.592819 164.0
208.610565 304.0
208.637268 140.0
208.677856 168.0
208.708069 96.0
208.713425 136.0
208.730438 296.0
208.750641 112.0
208.759018 140.0
208.771042 160.0
208.779785 64.0
208.81662 172.0
208.84137 160.0
208.875961 128.0
208.913345 192.0
208.936371 144.0
208.997818 324.0
209.005249 136.0
209.047394 272.0
209.058014 160.0
209.079117 112.0
209.084412 224.0
209.124527 248.0
209.170486 316.0
209.207291 200.0
209.242203 76.0
209.272614 220.0
209.34671 100.0
209.396942 164.0
209.439453 220.0
209.468658 300.0
209.505264 284.0
209.536224 284.0
209.571503 344.0
209.594894 148.0
209.62381 192.0
209.677261 220.0
209.703094 208.0
209.733215 160.0
209.796265 260.0
209.870621 144.0
209.892349 148.0
209.926956 228.0
209.971039 360.0
210.002533 364.0
210.037354 748.0
210.061188 820.0
210.09343 896.0
210.127975 266656.0
210.217697 204.0
210.290436 300.0
210.309509 180.0
210.315277 228.0
210.331741 252.0
210.387665 352.0
210.428925 300.0
210.467117 436.0
210.534912 208.0
210.570831 484.0
210.603073 4796.0
210.638931 320.0
210.718384 248.0
210.760727 216.0
210.770309 112.0
210.790222 260.0
210.814941 144.0
210.847687 120.0
210.871643 292.0
210.904541 88.0
210.942963 196.0
210.971527 96.0
211.007339 348.0
211.043961 292.0
211.130203 64964.0
211.195633 224.0
211.244003 216.0
211.287476 128.0
211.313232 68.0
211.343765 232.0
211.385437 288.0
211.428558 100.0
211.454041 176.0
211.487808 180.0
211.509613 328.0
211.547195 120.0
211.569565 184.0
211.603653 56.0
211.614639 100.0
211.625366 76.0
211.637146 112.0
211.647537 112.0
211.656982 76.0
211.677078 104.0
211.685532 88.0
211.709824 188.0
211.736023 172.0
211.77301 232.0
211.798248 136.0
211.811035 84.0
211.823135 120.0
211.867203 204.0
211.888336 92.0
211.920532 220.0
211.968033 192.0
211.99527 300.0
212.031891 48.0
212.068665 64.0
212.132874 4548.0
212.169464 96.0
212.201218 136.0
212.210037 128.0
212.236557 184.0
212.267593 220.0
212.295914 276.0
212.316315 76.0
212.344208 100.0
212.370743 320.0
212.394455 232.0
212.43103 124.0
212.471359 132.0
212.496124 164.0
212.533447 300.0
212.599457 124.0
212.627487 216.0
212.693481 344.0
212.714737 164.0
212.739441 152.0
212.788651 336.0
212.829224 176.0
212.849075 176.0
212.881516 132.0
212.901016 104.0
212.922592 188.0
212.959412 380.0
212.995193 204.0
213.033264 192.0
213.069046 248.0
213.135651 212.0
213.199768 108.0
213.223083 112.0
213.241257 152.0
213.262527 188.0
213.287491 212.0
213.344559 156.0
213.389709 128.0
213.418198 48.0
213.449875 208.0
213.486282 160.0
213.524368 128.0
213.552094 256.0
213.58757 264.0
213.627853 120.0
213.675262 112.0
213.722168 168.0
213.75412 184.0
213.783539 200.0
213.808243 184.0
213.890823 88.0
213.918961 108.0
213.937027 184.0
213.986633 88.0
213.996765 144.0
214.043243 136.0
214.113327 192.0
214.13768 96.0
214.145554 108.0
214.154968 84.0
214.193665 124.0
214.21405 180.0
214.269409 28.0
214.299957 124.0
214.345169 140.0
214.36557 72.0
214.400528 156.0
214.430557 88.0
214.451126 92.0
214.475601 124.0
214.512054 124.0
214.548553 108.0
214.567001 184.0
214.600266 180.0
214.628647 112.0
214.66983 172.0
214.709564 272.0
214.752975 200.0
214.787079 56.0
214.811661 212.0
214.846893 152.0
214.896088 136.0
214.919601 160.0
214.951324 244.0
215.004379 84.0
215.048019 132.0
215.123917 100.0
215.167358 100.0
215.307861 144.0
215.351013 212.0
215.38089 116.0
215.426163 216.0
215.473999 160.0
215.547409 72.0
215.582489 84.0
215.622925 100.0
215.679688 124.0
215.740326 176.0
215.775406 252.0
215.811066 204.0
215.883591 156.0
215.906998 212.0
216.064941 148.0
216.119614 104.0
216.224014 56.0
216.296143 116.0
216.31955 136.0
216.345901 200.0
216.410309 108.0
216.436661 136.0
216.475906 72.0
216.531387 164.0
216.583099 44.0
216.603607 112.0
216.631546 104.0
216.67392 140.0
216.716568 144.0
216.755798 76.0
216.835083 188.0
216.863449 124.0
216.893707 56.0
216.934631 208.0
216.969925 76.0
217.006668 180.0
217.013412 96.0
217.02742 164.0
217.066681 76.0
217.097473 72.0
217.104477 36.0
217.123093 136.0
217.151733 48.0
217.186325 136.0
217.245605 184.0
217.282242 148.0
217.29953 116.0
217.341721 116.0
217.389374 172.0
217.423981 172.0
217.504883 124.0
217.531662 100.0
217.599091 144.0
217.608795 64.0
217.620285 192.0
217.691742 244.0
217.744614 188.0
217.768112 256.0
217.811768 180.0
217.870926 112.0
217.897354 76.0
217.919983 40.0
217.937469 80.0
217.984802 132.0
217.996796 100.0
218.004715 216.0
218.088562 252.0
218.120712 152.0
218.150101 208.0
218.22319 172.0
218.246017 148.0
218.277588 156.0
218.302841 148.0
218.332413 108.0
218.352997 152.0
218.403 60.0
218.441238 172.0
218.470657 100.0
218.49939 188.0
218.541275 100.0
218.604431 116.0
218.638382 76.0
218.667816 244.0
218.694305 76.0
218.800278 168.0
218.826767 100.0
218.856461 140.0
218.885666 112.0
218.909225 92.0
218.94603 128.0
218.985794 48.0
219.044708 204.0
219.109131 92.0
219.147278 280.0
219.233276 168.0
219.265167 188.0
219.372986 180.0
219.451416 64.0
219.486572 212.0
219.566422 136.0
219.628357 124.0
219.684402 132.0
219.722763 120.0
219.745667 152.0
219.782578 116.0
219.808319 136.0
219.855545 68.0
219.907135 216.0
219.957794 224.0
219.997223 152.0
220.031097 148.0
220.079697 308.0
220.10907 560.0
220.150757 196.0
220.192108 104.0
220.24823 192.0
220.280731 148.0
220.306839 228.0
220.330948 144.0
220.367874 208.0
220.422012 180.0
220.447067 200.0
220.468719 160.0
220.502335 80.0
220.570312 32.0
220.618988 256.0
220.66394 144.0
220.697449 116.0
220.723419 168.0
220.735794 132.0
220.743439 296.0
220.777283 64.0
220.83255 280.0
220.854965 168.0
220.93956 412.0
220.986526 120.0
221.019867 276.0
221.043533 200.0
221.109924 580.0
221.182358 248.0
221.234329 208.0
221.264496 232.0
221.285507 144.0
221.339279 172.0
221.372131 136.0
221.41655 188.0
221.442337 136.0
221.514297 284.0
221.537003 72.0
221.557999 196.0
221.582428 112.0
221.617706 292.0
221.671326 160.0
221.735046 24.0
221.840271 80.0
221.884735 84.0
221.929214 232.0
221.983032 136.0
222.043243 160.0
222.09642 1804.0
222.19838 144.0
222.23877 176.0
222.256393 92.0
222.297043 136.0
222.323746 136.0
222.36409 108.0
222.396576 164.0
222.439499 36.0
222.485184 72.0
222.537109 160.0
222.562317 208.0
222.616043 104.0
222.664505 108.0
222.706238 140.0
222.73349 144.0
222.754272 84.0
222.827606 88.0
222.868332 144.0
222.953354 104.0
223.03064 88.0
223.098755 4484.0
223.133102 840.0
223.197128 120.0
223.329895 192.0
223.35881 132.0
223.367126 176.0
223.397781 128.0
223.425659 172.0
223.491608 88.0
223.518387 112.0
223.557434 344.0
223.588593 204.0
223.616592 108.0
223.642532 224.0
223.699936 116.0
223.735886 164.0
223.775452 176.0
223.804138 92.0
223.851395 60.0
223.877411 120.0
223.949966 128.0
224.082443 3068.0
224.141159 444.0
224.242065 188.0
224.26889 184.0
224.308197 128.0
224.357941 156.0
224.420929 60.0
224.486526 68.0
224.564072 128.0
224.605331 192.0
224.638641 128.0
224.662506 140.0
224.689362 92.0
224.710251 172.0
224.733353 148.0
224.780258 284.0
224.808716 160.0
224.907211 84.0
224.931 144.0
224.959442 32.0
225.008713 32.0
225.082001 476.0
225.175934 140.0
225.220734 60.0
225.311386 128.0
225.370117 180.0
225.411621 132.0
225.429611 156.0
225.521606 164.0
225.555405 176.0
225.612198 164.0
225.636124 112.0
225.663025 144.0
225.68396 92.0
225.716736 204.0
225.759857 84.0
225.788361 92.0
225.7966 84.0
225.804871 148.0
225.836319 172.0
225.8815 496.0
225.947159 248.0
225.977081 136.0
225.998032 132.0
226.0215 152.0
226.078476 1272.0
226.120728 180.0
226.16095 164.0
226.195602 260.0
226.232895 144.0
226.259277 336.0
226.317139 224.0
226.341293 160.0
226.382721 204.0
226.387924 272.0
226.450821 112.0
226.500992 188.0
226.556015 260.0
226.593857 196.0
226.629822 136.0
226.677963 148.0
226.71373 64.0
226.737701 180.0
226.782654 180.0
226.803635 68.0
226.863586 180.0
226.952484 104.0
227.028748 296.0
227.071777 200.0
227.147659 116.0
227.175476 48.0
227.211533 280.0
227.28331 276.0
227.290375 256.0
227.367523 176.0
227.386826 120.0
227.445557 100.0
227.496582 52.0
227.529617 36.0
227.579926 116.0
227.618149 164.0
227.660126 336.0
227.693176 272.0
227.724808 56.0
227.766846 172.0
227.810242 100.0
227.846024 124.0
227.865143 156.0
227.89003 148.0
227.92308 136.0
227.944122 96.0
228.004608 156.0
228.031265 96.0
228.152023 140.0
228.176987 308.0
228.199615 280.0
228.222336 144.0
228.247726 196.0
228.315887 192.0
228.326294 220.0
228.373352 264.0
228.428177 80.0
228.454025 156.0
228.476318 132.0
228.542511 224.0
228.563568 180.0
228.584641 124.0
228.611084 172.0
228.671906 64.0
228.709427 124.0
228.744156 84.0
228.783279 192.0
228.816406 76.0
228.858551 148.0
228.902313 156.0
228.933838 76.0
228.960938 200.0
228.980438 192.0
229.002701 180.0
229.073898 112.0
229.155716 188.0
229.22438 224.0
229.262207 48.0
229.302353 324.0
229.346603 112.0
229.370605 152.0
229.403885 164.0
229.482269 100.0
229.524475 120.0
229.586258 248.0
229.617966 128.0
229.640488 136.0
229.668213 200.0
229.724014 180.0
229.838745 176.0
229.925705 160.0
229.961746 132.0
230.031342 268.0
230.091385 144.0
230.121429 148.0
230.12912 124.0
230.179291 184.0
230.209488 112.0
230.257812 148.0
230.307205 148.0
230.326782 316.0
230.415253 164.0
230.459885 152.0
230.466339 136.0
230.505051 100.0
230.526688 180.0
230.600845 112.0
230.641541 148.0
230.662704 148.0
230.685669 288.0
230.794083 308.0
230.948288 288.0
230.99231 112.0
231.021118 92.0
231.155685 144.0
231.207138 108.0
231.249512 156.0
231.388763 108.0
231.413483 192.0
231.514374 200.0
231.565811 344.0
231.633255 120.0
231.652237 172.0
231.698914 124.0
231.747849 172.0
231.794647 116.0
231.961639 124.0
232.012878 84.0
232.045471 148.0
232.094162 168.0
232.170547 212.0
232.203918 64.0
232.266907 208.0
232.419891 164.0
232.563248 176.0
232.653015 104.0
232.730988 88.0
232.764709 244.0
232.924637 180.0
232.962769 196.0
232.995132 148.0
233.053925 244.0
233.078232 72.0
233.131027 172.0
233.168701 104.0
233.177155 80.0
233.185989 148.0
233.214996 284.0
233.30011 240.0
233.351791 188.0
233.420853 140.0
233.45517 232.0
233.500793 144.0
233.552505 152.0
233.595093 96.0
233.63768 108.0
233.662018 180.0
233.698532 120.0
233.725922 144.0
233.871994 164.0
233.923752 104.0
234.094254 176.0
234.12677 148.0
234.15358 100.0
234.159576 196.0
234.195267 144.0
234.22522 200.0
234.261765 100.0
234.298325 216.0
234.358353 140.0
234.420212 64.0
234.447632 120.0
234.475067 176.0
234.502502 80.0
234.534058 304.0
234.589783 216.0
234.612335 124.0
234.666473 208.0
234.758591 172.0
234.825684 116.0
234.947708 176.0
234.990417 176.0
235.017883 252.0
235.038376 120.0
235.13237 804.0
235.188782 160.0
235.222366 164.0
235.356689 148.0
235.436234 172.0
235.480759 192.0
235.613266 260.0
235.687698 132.0
235.7202 156.0
235.762985 104.0
235.793121 260.0
235.838882 144.0
235.851349 120.0
235.859146 224.0
235.909698 104.0
235.949448 200.0
236.053406 144.0
236.105804 1664.0
236.142242 448.0
236.209396 144.0
236.250244 136.0
236.300659 344.0
236.325958 80.0
236.394257 124.0
236.446014 216.0
236.509033 160.0
236.628662 180.0
236.683777 212.0
236.72052 60.0
236.748077 76.0
236.827713 124.0
236.87883 128.0
236.988083 92.0
237.029175 132.0
237.074173 336.0
237.113907 524.0
237.1465 300.0
237.195419 116.0
237.226303 220.0
237.261398 332.0
237.339508 260.0
237.380905 160.0
237.420822 164.0
237.443466 116.0
237.479324 136.0
237.517395 60.0
237.572937 144.0
237.649307 144.0
237.686218 152.0
237.732162 132.0
237.78334 152.0
237.834381 212.0
237.869553 116.0
237.891769 156.0
237.934296 132.0
237.96048 244.0
238.008484 260.0
238.039154 128.0
238.12175 55584.0
238.216507 168.0
238.236908 104.0
238.291031 48.0
238.317078 216.0
238.344193 132.0
238.399246 92.0
238.448715 264.0
238.474075 72.0
238.498688 84.0
238.526993 96.0
238.603333 140.0
238.626038 40.0
238.727295 164.0
238.755188 188.0
238.797775 288.0
238.832092 236.0
238.867126 148.0
238.900635 84.0
238.929855 228.0
238.969223 132.0
238.982666 76.0
238.987152 128.0
239.070297 184.0
239.124649 9804.0
239.200378 184.0
239.225357 300.0
239.258453 204.0
239.296494 76.0
239.358368 172.0
239.392578 264.0
239.448044 132.0
239.486877 196.0
239.555481 120.0
239.581039 272.0
239.614014 84.0
239.673813 128.0
239.724121 180.0
239.770706 240.0
239.801987 48.0
239.867432 164.0
239.919128 64.0
239.980789 72.0
240.030136 116.0
240.069931 176.0
240.130295 1152.0
240.218262 248.0
240.242722 164.0
240.28595 132.0
240.323166 104.0
240.349777 160.0
240.372543 76.0
240.414871 128.0
240.471146 168.0
240.505127 196.0
240.566986 92.0
240.605499 300.0
240.649612 220.0
240.692032 180.0
240.749634 52.0
240.786224 32.0
240.82637 356.0
240.865158 72.0
240.917603 172.0
240.943756 272.0
240.966309 120.0
240.990097 132.0
241.051071 140.0
241.099854 144.0
241.122711 92.0
241.13446 84.0
241.141159 68.0
241.170303 128.0
241.206497 196.0
241.28389 156.0
241.343857 160.0
241.413589 56.0
241.445724 184.0
241.47789 200.0
241.512558 156.0
241.545349 180.0
241.580612 148.0
241.601044 140.0
241.636871 152.0
241.667252 80.0
241.701355 168.0
241.738419 92.0
241.784836 108.0
241.806503 152.0
241.844681 168.0
241.877701 60.0
241.90976 108.0
241.951996 160.0
242.029236 156.0
242.063461 96.0
242.186874 156.0
242.243103 64.0
242.289566 164.0
242.323654 232.0
242.401123 136.0
242.454758 160.0
242.557465 144.0
242.642883 156.0
242.721588 84.0
242.945297 144.0
242.995102 148.0
243.018173 60.0
243.064728 112.0
243.16713 136.0
243.2043 148.0
243.275787 76.0
243.356506 112.0
243.393768 160.0
243.457428 112.0
243.514877 52.0
243.558365 192.0
243.617386 116.0
243.651443 212.0
243.688843 132.0
243.758926 116.0
243.807159 160.0
243.898666 272.0
243.925034 80.0
243.951294 184.0
244.011002 196.0
244.108475 100.0
244.148911 240.0
244.189346 172.0
244.287796 156.0
244.313766 180.0
244.39003 328.0
244.415665 160.0
244.428574 120.0
244.438217 148.0
244.499557 224.0
244.531586 132.0
244.559601 124.0
244.596954 56.0
244.646759 184.0
244.722214 376.0
244.831253 380.0
244.910004 120.0
244.922958 184.0
244.932083 64.0
244.944 160.0
244.99556 132.0
245.032593 176.0
245.073456 96.0
245.140594 176.0
245.17688 84.0
245.210571 144.0
245.353958 176.0
245.378906 172.0
245.422546 164.0
245.507523 136.0
245.553528 48.0
245.659592 48.0
245.706375 76.0
245.746948 212.0
245.79248 200.0
245.815598 140.0
245.846802 68.0
245.887375 128.0
245.919815 224.0
245.97789 124.0
246.077789 124.0
246.107681 272.0
246.117508 156.0
246.128738 228.0
246.158981 172.0
246.224564 160.0
246.266983 172.0
246.324509 68.0
246.355743 144.0
246.433853 100.0
246.465546 200.0
246.542999 160.0
246.575867 172.0
246.636993 116.0
246.724518 184.0
246.82457 136.0
246.887115 84.0
246.917053 240.0
246.977829 224.0
247.007721 144.0
247.115402 184.0
247.166809 148.0
247.238373 232.0
247.259415 168.0
247.315445 40.0
247.33017 172.0
247.400284 32.0
247.425323 192.0
247.466034 192.0
247.524612 152.0
247.616333 160.0
247.63826 60.0
247.672577 172.0
247.708679 184.0
247.759384 296.0
247.867325 104.0
247.915619 212.0
247.954712 200.0
248.02681 40.0
248.140259 276.0
248.167877 172.0
248.202377 156.0
248.280777 104.0
248.312134 116.0
248.344528 328.0
248.374863 140.0
248.415024 164.0
248.443878 100.0
248.472122 148.0
248.530365 156.0
248.55188 152.0
248.583679 140.0
248.616531 184.0
248.648407 88.0
248.67923 196.0
248.700638 112.0
248.735733 100.0
248.767365 260.0
248.849609 180.0
248.908096 124.0
248.933105 120.0
248.99939 132.0
249.040314 312.0
249.071716 72.0
249.096848 108.0
249.131409 88.0
249.191101 112.0
249.215485 116.0
249.263367 76.0
249.291656 148.0
249.323074 168.0
249.354507 112.0
249.451111 164.0
249.517975 136.0
249.543121 156.0
249.583008 164.0
249.643753 132.0
249.6689 212.0
249.71521 176.0
249.760117 156.0
249.82106 160.0
249.926865 152.0
249.999237 124.0
250.040222 172.0
250.08107 168.0
250.115295 224.0
250.177185 764.0
250.222733 108.0
250.266205 212.0
250.289886 136.0
250.332626 164.0
250.340164 148.0
250.419846 188.0
250.495834 128.0
250.564926 196.0
250.610138 100.0
250.643326 128.0
250.725006 204.0
250.777161 148.0
250.833893 124.0
250.885544 188.0
250.947388 104.0
250.969467 76.0
251.045319 132.0
251.079834 72.0
251.130493 252.0
251.180771 152.0
251.237549 136.0
251.294342 144.0
251.344833 156.0
251.370071 160.0
251.410446 212.0
251.438339 184.0
251.48053 136.0
251.505783 132.0
251.550919 108.0
251.630356 160.0
251.665482 116.0
251.689972 164.0
251.719788 184.0
251.799423 72.0
251.870407 220.0
251.905487 196.0
251.963684 220.0
252.049149 348.0
252.07428 144.0
252.105881 176.0
252.175415 216.0
252.2323 196.0
252.279724 224.0
252.313705 232.0
252.322861 136.0
252.335709 468.0
252.41568 60.0
252.578644 160.0
252.646576 152.0
252.735168 144.0
252.780258 48.0
252.86174 152.0
252.910477 152.0
253.00087 160.0
253.029449 164.0
253.09285 144.0
253.169037 68.0
253.211334 184.0
253.248032 168.0
253.352554 160.0
253.387665 256.0
253.422256 140.0
253.51416 180.0
253.549026 180.0
253.637772 144.0
253.661331 172.0
253.725189 132.0
253.764572 88.0
253.793121 188.0
253.862473 280.0
253.884018 216.0
253.91362 124.0
253.964371 140.0
253.990662 264.0
254.018295 140.0
254.07222 152.0
254.116638 116.0
254.157333 92.0
254.192795 88.0
254.215012 144.0
254.268967 136.0
254.318497 112.0
254.329895 140.0
254.376877 112.0
254.40863 160.0
254.430847 124.0
254.494354 120.0
254.567383 116.0
254.621368 184.0
254.700775 180.0
254.72937 52.0
254.763489 92.0
254.791626 176.0
254.846924 192.0
254.904114 124.0
254.97403 180.0
254.999466 116.0
255.024887 296.0
255.075836 144.0
255.121872 172.0
255.158127 168.0
255.211929 220.0
255.256973 148.0
255.365097 164.0
255.390549 100.0
255.43396 136.0
255.508255 80.0
255.568695 160.0
255.595184 144.0
255.647293 184.0
255.718277 124.0
255.759659 76.0
255.80397 156.0
255.906097 156.0
255.952744 160.0
255.986618 140.0
256.039307 164.0
256.085754 184.0
256.125824 152.0
256.179993 128.0
256.246887 288.0
256.305878 164.0
256.367554 152.0
256.393463 132.0
256.431732 184.0
256.476959 168.0
256.508209 204.0
256.568787 292.0
256.601044 236.0
256.635742 208.0
256.664612 156.0
256.694092 304.0
256.821655 136.0
256.887695 136.0
256.91922 160.0
256.96109 324.0
256.983429 188.0
257.025848 172.0
257.049469 160.0
257.095093 124.0
257.120636 140.0
257.223633 196.0
257.299408 128.0
257.355927 164.0
257.366333 116.0
257.373718 160.0
257.429901 196.0
257.439697 136.0
257.473175 160.0
257.524933 192.0
257.554871 160.0
257.5979 256.0
257.649078 152.0
257.736969 148.0
257.79129 140.0
257.81366 204.0
257.855225 132.0
257.962921 172.0
258.037415 140.0
258.082184 92.0
258.120331 176.0
258.18515 164.0
258.233673 76.0
258.293274 64.0
258.368927 148.0
258.56427 172.0
258.681396 112.0
258.713013 156.0
258.760498 232.0
258.808533 156.0
258.885376 132.0
258.917419 100.0
258.979919 152.0
259.031799 96.0
259.088654 96.0
259.139221 180.0
259.164062 160.0
259.255585 128.0
259.285858 132.0
259.343536 60.0
259.382019 52.0
259.449341 208.0
259.481201 136.0
259.563873 188.0
259.657745 64.0
259.721924 176.0
259.753235 116.0
259.798889 148.0
259.878418 204.0
259.914398 152.0
259.997192 152.0
260.055603 116.0
260.097351 68.0
260.129425 176.0
260.186066 188.0
260.22757 192.0
260.239197 108.0
260.246582 212.0
260.318878 144.0
260.367035 124.0
260.429077 244.0
260.453705 176.0
260.49231 124.0
260.52478 152.0
260.566193 116.0
260.598328 100.0
260.620819 112.0
260.646545 164.0
260.672241 184.0
260.739716 148.0
260.77829 184.0
260.874725 156.0
260.897247 152.0
260.993561 160.0
261.018036 112.0
261.103302 152.0
261.159515 184.0
261.217621 136.0
261.260651 160.0
261.283173 164.0
261.331421 192.0
261.365326 240.0
261.396729 124.0
261.507568 136.0
261.557526 160.0
261.61142 152.0
261.685486 160.0
261.750946 108.0
261.773621 140.0
261.824768 96.0
261.887878 244.0
261.933472 212.0
261.959229 164.0
261.98822 144.0
262.028778 192.0
262.056366 212.0
262.088104 156.0
262.110657 124.0
262.213257 144.0
262.291138 124.0
262.32016 200.0
262.371735 308.0
262.423553 132.0
262.477783 368.0
262.529724 176.0
262.550629 96.0
262.585938 96.0
262.628052 316.0
262.665558 176.0
262.706024 164.0
262.774414 192.0
262.80481 116.0
262.851196 184.0
262.874512 180.0
262.950714 148.0
262.976288 196.0
263.033173 172.0
263.105988 108.0
263.142822 132.0
263.214508 180.0
263.288147 116.0
263.31076 200.0
263.349548 192.0
263.363068 184.0
263.394745 148.0
263.434296 80.0
263.465088 200.0
263.475494 100.0
263.483704 128.0
263.515411 128.0
263.55304 56.0
263.59906 116.0
263.644653 148.0
263.668671 164.0
263.71463 56.0
263.737244 36.0
263.765656 96.0
263.809906 300.0
263.867401 444.0
263.95578 180.0
264.01712 276.0
264.041992 204.0
264.089691 88.0
264.131409 188.0
264.143005 132.0
264.191406 36.0
264.201935 268.0
264.251434 176.0
264.287079 164.0
264.321869 84.0
264.331085 196.0
264.340332 60.0
264.391357 132.0
264.420593 132.0
264.448364 244.0
264.484039 64.0
264.491547 96.0
264.505829 100.0
264.527313 188.0
264.560028 180.0
264.591461 116.0
264.620605 72.0
264.655212 96.0
264.708588 428.0
264.745331 180.0
264.777222 184.0
264.823181 288.0
264.862152 328.0
264.88797 220.0
264.898438 232.0
264.912231 148.0
264.939575 412.0
264.972931 200.0
265.001343 224.0
265.037079 192.0
265.075104 228.0
265.121429 192.0
265.127747 280.0
265.156128 580.0
265.224091 300.0
265.264313 268.0
265.302643 276.0
265.319183 264.0
265.331268 264.0
265.388763 508.0
265.412689 156.0
265.463226 216.0
265.494385 176.0
265.533417 188.0
265.56842 412.0
265.574829 468.0
265.626587 576.0
265.660004 348.0
265.719421 728.0
265.763611 884.0
265.801605 576.0
265.82605 348.0
265.858948 300.0
265.873108 532.0
265.88031 480.0
265.892822 444.0
265.922028 452.0
265.933563 468.0
265.992676 648.0
266.022461 1080.0
266.042542 904.0
266.110962 2424.0
266.154755 480672.0
266.244843 80.0
266.254028 384.0
266.279144 452.0
266.322632 368.0
266.377289 284.0
266.456268 1096.0
266.489288 556.0
266.50943 468.0
266.55246 444.0
266.589355 296.0
266.648926 744.0
266.691376 13488.0
266.739105 600.0
266.765747 416.0
266.812683 220.0
266.85257 292.0
266.880524 264.0
266.911896 336.0
266.924744 196.0
266.934509 508.0
266.963837 680.0
267.032837 792.0
267.096375 300.0
267.100067 284.0
267.157196 196156.0
267.21814 124.0
267.238708 320.0
267.269409 228.0
267.377655 360.0
267.431 288.0
267.467194 360.0
267.499084 248.0
267.521118 380.0
267.544769 192.0
267.552704 252.0
267.578186 412.0
267.623505 184.0
267.652863 180.0
267.691895 300.0
267.735718 232.0
267.778046 204.0
267.788086 284.0
267.801941 184.0
267.861633 236.0
267.942047 176.0
267.96756 288.0
268.001282 92.0
268.035431 168.0
268.090088 200.0
268.159119 15912.0
268.263153 216.0
268.288635 112.0
268.319092 176.0
268.342926 144.0
268.394623 264.0
268.414429 76.0
268.504517 404.0
268.541565 204.0
268.575806 300.0
268.645294 196.0
268.690277 216.0
268.729034 216.0
268.746429 280.0
268.752625 240.0
268.788544 324.0
268.799957 104.0
268.81543 388.0
268.880005 660.0
268.923157 204.0
268.934082 280.0
268.958466 504.0
269.002716 516.0
269.047577 700.0
269.055908 544.0
269.080658 532.0
269.105408 404.0
269.125092 612.0
269.160248 1308.0
269.215363 132.0
269.225037 188.0
269.25235 276.0
269.287079 276.0
269.322296 144.0
269.356537 180.0
269.377502 84.0
269.459412 124.0
269.469513 88.0
269.485657 92.0
269.541626 184.0
269.59903 168.0
269.647339 348.0
269.670776 88.0
269.680054 168.0
269.726349 208.0
269.73703 208.0
269.747589 164.0
269.800018 300.0
269.889191 184.0
269.950348 80.0
270.004242 176.0
270.038452 112.0
270.079498 276.0
270.135773 288.0
270.176605 108.0
270.222748 108.0
270.263428 152.0
270.323364 88.0
270.368378 228.0
270.401917 128.0
270.435211 100.0
270.509552 100.0
270.576721 128.0
270.607727 32.0
270.6409 44.0
270.667755 144.0
270.696564 76.0
270.758789 72.0
270.78241 128.0
270.815399 128.0
270.886536 64.0
270.965057 112.0
271.022827 168.0
271.081848 124.0
271.11261 36.0
271.158478 32.0
271.183197 116.0
271.210938 44.0
271.2388 56.0
271.245422 76.0
271.260376 140.0
271.324463 120.0
271.365021 84.0
271.411652 96.0
271.446167 64.0
271.463959 132.0
271.509308 60.0
271.564514 72.0
271.720337 36.0
271.745483 68.0
271.771729 188.0
271.823212 72.0
271.87674 52.0
271.913879 52.0
271.945648 68.0
272.034302 88.0
272.060547 48.0
272.086823 88.0
272.113098 52.0
272.178741 72.0
272.234589 100.0
272.267426 108.0
272.298035 88.0
272.346252 40.0
272.441498 140.0
272.574249 100.0
272.658386 100.0
272.684296 72.0
272.733978 80.0
272.773407 76.0
272.803009 48.0
272.852325 32.0
272.944397 108.0
273.02002 44.0
273.089081 56.0
273.128571 108.0
273.151581 108.0
273.194366 52.0
273.223663 92.0
273.253571 64.0
273.283173 56.0
273.352295 72.0
273.390411 116.0
273.421387 100.0
273.730865 68.0
273.763794 96.0
273.88269 76.0
273.943573 68.0
274.045349 76.0
274.228333 100.0
274.271179 48.0
274.54483 96.0
274.673462 104.0
274.716339 80.0
274.904419 72.0
274.940735 48.0
274.99353 108.0
275.099152 84.0
275.171783 180.0
275.231232 48.0
275.270844 68.0
275.3237 96.0
275.455811 48.0
275.535095 60.0
275.64743 52.0
275.746582 96.0
275.824524 76.0
275.878815 52.0
275.921783 88.0
276.019318 64.0
276.11026 72.0
276.170929 128.0
276.262421 52.0
276.295502 100.0
276.512146 120.0
276.535614 64.0
276.745636 132.0
276.78537 104.0
276.831726 80.0
276.972504 32.0
277.07901 84.0
277.146423 80.0
277.186188 44.0
277.212708 84.0
277.24585 48.0
277.272339 36.0
277.318756 52.0
277.365143 84.0
277.408264 44.0
277.431458 44.0
277.471252 88.0
277.567413 72.0
277.703369 84.0
277.736053 108.0
277.839386 76.0
277.864624 112.0
277.94223 52.0
277.975403 100.0
278.03183 40.0
278.069092 136.0
278.09491 64.0
278.131287 112.0
278.138306 108.0
278.250916 96.0
278.28241 72.0
278.307373 48.0
278.367126 96.0
278.420258 88.0
278.495422 76.0
278.516602 96.0
278.53775 76.0
278.586334 60.0
278.700562 64.0
278.748047 120.0
278.815613 36.0
278.858826 88.0
278.895386 32.0
278.963348 80.0
279.041656 108.0
279.0849 92.0
279.242981 96.0
279.304871 80.0
279.342651 96.0
279.442291 88.0
279.475891 72.0
279.537292 116.0
279.621796 100.0
279.687439 132.0
279.766937 124.0
279.826874 72.0
279.853516 32.0
279.917053 48.0
279.94101 104.0
280.065125 80.0
280.119324 108.0
280.172638 88.0
280.216553 124.0
280.303192 44.0
280.443176 48.0
280.573181 56.0
280.601837 100.0
280.693207 84.0
280.813263 68.0
280.849945 144.0
280.906677 56.0
280.93335 72.0
280.993408 44.0
281.153564 104.0
281.267059 64.0
281.290436 108.0
281.47287 88.0
281.584259 36.0
281.610992 124.0
281.657745 180.0
281.744598 84.0
281.831055 92.0
281.868225 44.0
281.908325 64.0
281.935059 52.0
282.058716 36.0
282.082123 72.0
282.225891 32.0
282.294586 168.0
282.428986 88.0
282.611969 44.0
282.725311 136.0
282.754456 52.0
282.79126 84.0
282.898376 80.0
283.042358 72.0
283.324066 132.0
283.353851 80.0
283.404877 140.0
283.444305 64.0
283.6521 48.0
283.749329 52.0
283.774414 100.0
283.87439 108.0
283.957245 116.0
284.078003 52.0
284.118256 96.0
284.161865 144.0
284.198517 52.0
284.316223 156.0
284.437073 128.0
284.856812 44.0
284.957916 44.0
285.112183 48.0
285.135712 40.0
285.266785 84.0
285.310516 80.0
285.473663 68.0
285.516907 104.0
285.560791 96.0
285.64679 36.0
285.828491 64.0
286.020325 48.0
286.121307 76.0
286.154968 84.0
286.198761 100.0
286.239166 44.0
286.400818 28.0
286.507263 100.0
286.707428 140.0
286.7883 120.0
287.008057 88.0
287.118713 88.0
287.1828 40.0
287.206421 160.0
287.260376 40.0
287.324493 80.0
287.456207 104.0
288.046936 48.0
288.148285 68.0
289.304932 116.0
289.555511 96.0
289.945129 68.0
290.043427 100.0
290.450317 48.0
290.636932 60.0
290.830383 52.0
290.993317 56.0
291.400909 48.0
291.584412 32.0
291.73056 100.0
291.941376 116.0
292.094421 96.0
292.118225 132.0
293.743164 96.0
293.804565 60.0
294.016144 116.0
294.139008 44.0
294.832367 168.0
294.914398 100.0
294.958832 64.0
295.109253 120.0
295.478638 76.0
295.673706 120.0
295.992065 76.0
296.248932 48.0
297.142426 124.0
297.538452 80.0
298.235809 72.0
298.521149 160.0
299.02002 68.0
299.071625 120.0
299.106049 96.0
299.22998 52.0
299.484833 60.0
299.898315 52.0
300.053436 108.0
300.232727 100.0
301.472107 96.0
301.807434 108.0
301.99765 60.0
302.052979 104.0
302.288239 40.0
302.634399 48.0
302.738281 80.0
302.869904 56.0
302.956512 60.0
303.153992 124.0
303.681 84.0
304.093872 52.0
304.118164 84.0
304.215363 68.0
304.632111 96.0
305.031738 152.0
306.183441 68.0
306.214783 44.0
306.322754 52.0
306.873413 76.0
307.614288 92.0
307.714264 128.0
308.234711 40.0
308.58078 36.0
309.070465 136.0
309.178925 40.0
309.332947 76.0
309.518494 48.0
309.753174 72.0
309.781189 48.0
310.647064 92.0
310.927765 60.0
311.791748 80.0
312.238251 88.0
312.271088 96.0
312.530243 76.0
312.618195 136.0
312.889252 108.0
313.047699 96.0
313.107574 72.0
313.202667 104.0
313.234375 140.0
313.904022 52.0
313.94635 68.0
314.652069 40.0
314.976959 64.0
315.591888 40.0
315.65387 88.0
316.39505 176.0
316.809418 76.0
316.9086 84.0
317.209869 96.0
317.355225 72.0
317.475769 48.0
318.107361 68.0
318.426941 60.0
319.148346 40.0
320.148285 84.0
320.978607 60.0
321.213989 120.0
321.36026 44.0
321.831421 104.0
323.243347 48.0
323.551178 68.0
324.084839 100.0
325.146332 96.0
325.918396 40.0
325.957947 72.0
326.177185 72.0
327.108856 84.0
328.099548 140.0
328.326721 64.0
328.745209 108.0
330.085449 120.0
330.635315 112.0
331.765442 140.0
332.345764 68.0
332.527222 124.0
332.713257 96.0
334.126099 116.0
334.242554 64.0
334.537354 64.0
334.803162 104.0
335.378815 52.0
336.17392 72.0
336.2323 56.0
336.265137 92.0
336.38559 60.0
336.55719 88.0
337.620605 36.0
337.649872 76.0
337.763245 124.0
338.28653 44.0
338.46228 80.0
338.736969 76.0
339.125366 164.0
340.508606 40.0
341.784271 112.0
342.030853 60.0
342.25174 144.0
342.292236 32.0
342.347473 64.0
342.483765 40.0
342.807983 72.0
343.224518 132.0
343.549103 56.0
344.039917 48.0
344.619781 68.0
345.392456 60.0
345.584839 48.0
346.021576 116.0
346.843994 40.0
346.907013 84.0
346.951508 56.0
347.107239 116.0
347.526367 84.0
347.771301 160.0
347.98291 64.0
348.05719 44.0
349.075348 128.0
349.305969 96.0
350.001923 140.0
350.150879 60.0
350.337128 92.0
350.53833 28.0
352.004364 112.0
352.097748 48.0
352.359924 108.0
352.624542 84.0
352.807709 80.0
353.185394 48.0
353.391144 80.0
353.548309 52.0
354.061218 44.0
354.428345 120.0
355.275696 108.0
355.515839 80.0
355.662231 44.0
356.112793 96.0
356.424622 56.0
356.559906 124.0
356.830566 80.0
356.992249 88.0
357.266815 104.0
357.319489 108.0
358.012115 36.0
358.064819 128.0
358.956299 64.0
359.195618 64.0
359.448395 104.0
359.682404 84.0
360.978302 44.0
361.190094 52.0
361.466309 44.0
361.511719 124.0
361.912964 72.0
361.977325 76.0
363.945343 68.0
365.442932 124.0
365.979614 116.0
366.44812 56.0
366.520508 32.0
366.787292 48.0
367.389832 124.0
368.157043 72.0
368.531403 84.0
369.395447 108.0
369.941132 60.0
370.011597 32.0
370.111145 68.0
370.195374 80.0
370.532471 92.0
371.233917 40.0
371.475555 100.0
372.093445 92.0
372.823273 40.0
373.796204 100.0
374.600891 84.0
375.117279 72.0
375.371765 156.0
376.838562 40.0
377.0047 36.0
377.147705 144.0
377.89798 84.0
377.944397 52.0
379.24176 40.0
379.412323 100.0
379.749695 72.0
379.932007 76.0
381.648743 64.0
382.37619 112.0
382.407318 124.0
382.481293 56.0
382.800537 64.0
383.677246 120.0
383.72403 100.0
383.985291 44.0
384.078918 108.0
384.240662 112.0
384.312988 68.0
384.699371 48.0
385.066406 56.0
385.640778 44.0
385.707214 148.0
385.890961 64.0
386.141235 96.0
386.170715 180.0
386.258575 104.0
386.884705 96.0
387.172668 112.0
387.260651 96.0
387.480011 104.0
389.92865 56.0
391.163757 80.0
391.703247 120.0
391.754456 144.0
392.027802 72.0
392.156372 76.0
393.572662 52.0
394.062439 148.0
394.497162 52.0
394.532745 52.0
394.592041 72.0
394.837219 72.0
396.131561 88.0
397.170135 64.0
397.82489 148.0
397.88443 56.0
397.951935 64.0
398.488129 104.0
398.579529 104.0
399.072418 56.0
399.764557 68.0
399.808319 76.0
400.027252 68.0
400.180634 76.0
400.357727 80.0
401.040344 60.0
402.630981 88.0
402.834686 112.0
403.110382 56.0
403.490082 80.0
403.598053 104.0
403.973999 44.0
404.142029 60.0
404.186066 144.0
404.95871 80.0
405.499603 44.0
405.543701 104.0
406.044891 76.0
407.116455 32.0
407.703003 64.0
408.181366 96.0
408.430725 68.0
409.259766 124.0
409.638367 136.0
409.7995 124.0
410.073547 56.0
410.315399 32.0
410.517029 56.0
410.855835 56.0
410.968811 48.0
411.206909 80.0
411.594452 76.0
412.228668 140.0
412.277161 72.0
412.337799 32.0
412.762268 124.0
412.936188 60.0
413.154602 108.0
413.243622 116.0
413.324554 72.0
413.365021 32.0
414.028931 100.0
414.160645 268.0
414.308441 48.0
414.466431 92.0
414.956879 80.0
415.236694 64.0
416.088867 64.0
416.649323 92.0
416.767151 48.0
417.352478 72.0
417.698151 132.0
417.938202 68.0
418.235291 44.0
418.797211 88.0
418.894958 100.0
419.033478 100.0
419.127197 40.0
419.420624 44.0
419.658508 92.0
420.206665 124.0
420.391327 108.0
420.734192 64.0
421.322296 48.0
421.906708 48.0
421.988495 64.0
422.221588 112.0
422.569275 116.0
423.498566 88.0
424.711853 80.0
424.810303 96.0
425.585968 84.0
428.016113 148.0
428.831848 32.0
428.955505 132.0
430.011444 72.0
432.176483 420.0
432.284485 68.0
432.358978 100.0
432.934448 52.0
433.192413 184.0
433.543427 132.0
433.642914 64.0
434.186066 492.0
434.928741 96.0
434.978546 112.0
435.040802 84.0
435.174988 152.0
435.634674 40.0
435.992004 64.0
436.511658 100.0
436.781982 104.0
437.164764 160.0
437.331268 112.0
437.451965 48.0
437.597687 36.0
437.626831 100.0
437.672638 96.0
438.059967 60.0
438.401642 56.0
438.697571 44.0
439.260529 80.0
439.343964 84.0
439.458801 100.0
439.531738 48.0
439.961639 80.0
440.032623 116.0
440.6633 108.0
441.097931 76.0
441.984589 36.0
442.687836 72.0
442.729706 92.0
443.337189 56.0
443.626404 96.0
444.133789 72.0
444.523987 32.0
444.561737 60.0
445.430878 92.0
445.998138 100.0
446.090607 68.0
446.237762 64.0
446.586823 36.0
446.734039 68.0
447.946442 44.0
448.03067 120.0
448.098083 76.0
448.393066 68.0
449.253265 76.0
450.976135 72.0
451.348175 92.0
452.448273 120.0
452.744659 76.0
452.833618 96.0
453.392853 104.0
453.931274 88.0
454.037292 44.0
454.308746 76.0
454.894379 44.0
455.229828 52.0
455.361481 64.0
455.657196 52.0
455.81604 84.0
455.888275 32.0
456.500458 80.0
457.381165 84.0
458.015625 164.0
458.092316 36.0
458.56955 116.0
458.740051 108.0
459.503448 92.0
460.058258 56.0
460.280273 44.0
460.327271 96.0
460.493805 100.0
460.822754 52.0
461.230835 156.0
461.912933 68.0
462.327972 48.0
462.918732 64.0
463.004395 68.0
463.104736 112.0
463.377075 72.0
463.557037 108.0
463.785675 116.0
465.18689 136.0
466.18335 64.0
467.069061 76.0
467.215332 108.0
467.327179 64.0
467.550964 68.0
468.166595 72.0
468.713684 96.0
469.955536 104.0
470.672058 52.0
471.367523 52.0
471.743561 72.0
471.972687 36.0
472.154327 60.0
473.188538 120.0
473.322784 120.0
473.452698 132.0
474.492645 52.0
475.373199 116.0
475.551117 56.0
476.124237 92.0
477.039185 96.0
477.228333 1848.0
477.499237 140.0
477.858673 76.0
478.228363 680.0
478.55072 84.0
478.729248 112.0
478.777161 128.0
479.112579 68.0
479.22522 744.0
479.278137 76.0
479.352203 192.0
479.517822 140.0
479.54834 64.0
479.687805 68.0
480.110748 68.0
480.229645 420.0
480.503326 136.0
481.232574 104.0
481.437469 80.0
481.616547 32.0
481.81311 28.0
481.922333 72.0
484.015564 132.0
484.641998 136.0
486.766998 64.0
487.215027 44.0
487.755554 72.0
488.045715 96.0
488.226013 124.0
489.933868 84.0
489.973541 68.0
490.002563 80.0
490.224701 100.0
490.286377 40.0
490.475922 60.0
490.79776 128.0
491.349091 76.0
497.119049 48.0
497.21225 36.0
497.940399 64.0
498.606812 80.0
498.815735 88.0
498.886871 52.0
500.337189 68.0
500.769135 72.0
502.066101 108.0
502.226654 64.0
503.820312 88.0
504.334198 112.0
504.839417 40.0
505.358307 84.0
505.980438 80.0
506.137146 100.0
506.249115 48.0
506.602966 56.0
506.647766 60.0
506.692566 76.0
506.997253 72.0
507.369324 88.0
508.347137 112.0
508.809448 44.0
509.39328 116.0
511.16925 116.0
512.13269 76.0
514.07135 72.0
514.427917 52.0
514.734985 72.0
515.534546 100.0
516.000122 40.0
517.488708 92.0
518.820679 84.0
519.423828 96.0
519.523621 48.0
520.467712 84.0
520.594849 60.0
521.271729 84.0
522.253723 64.0
522.30835 80.0
522.64502 80.0
523.682983 104.0
523.860596 56.0
524.302612 40.0
525.556641 28.0
525.867004 72.0
526.08606 52.0
527.008667 116.0
528.206482 96.0
528.7052 88.0
530.661194 112.0
530.794189 72.0
531.408813 44.0
531.52356 92.0
532.037598 104.0
533.098633 36.0
534.376953 108.0
534.436768 84.0
534.906189 52.0
535.320618 36.0
536.265076 104.0
537.228821 56.0
538.484375 60.0
539.242065 56.0
539.408508 48.0
540.661926 96.0
541.046143 40.0
541.078552 148.0
541.249878 84.0
541.33783 48.0
541.555542 60.0
541.879822 140.0
542.588928 104.0
545.313843 68.0
545.862427 96.0
546.113525 56.0
546.443848 108.0
546.643921 40.0
546.737 80.0
547.9104 88.0
548.29718 108.0
549.248352 56.0
550.022949 44.0
550.732727 72.0
552.869385 64.0
553.122131 52.0
554.733582 80.0
555.291565 28.0
555.422913 68.0
556.647888 68.0
556.699524 92.0
557.535767 88.0
559.751526 56.0
561.764099 52.0
562.490784 88.0
568.055847 44.0
569.807678 120.0
570.449219 60.0
570.734497 44.0
571.195862 64.0
571.695435 112.0
571.781067 96.0
572.190491 72.0
572.309509 156.0
572.433289 56.0
572.828613 80.0
573.138306 64.0
573.595825 64.0
574.058289 84.0
574.940918 104.0
578.123779 76.0
578.387024 120.0
579.526794 64.0
580.188232 84.0
580.408752 100.0
580.897949 36.0
580.993896 36.0
582.602234 92.0
583.10675 40.0
584.092468 76.0
584.28009 52.0
585.584595 64.0
586.071167 80.0
586.172363 68.0
588.43457 96.0
589.321167 128.0
590.36261 52.0
591.281799 48.0
591.577087 76.0
595.004639 72.0
595.208557 120.0
595.529114 96.0
595.575928 56.0
596.073242 96.0
596.442627 96.0
599.586853 84.0
601.772278 40.0
603.511719 160.0
603.87854 36.0
604.930542 52.0
605.420166 84.0
607.419983 100.0
608.008728 48.0
609.939026 108.0
610.04718 68.0
611.168579 52.0
613.651062 36.0
614.933655 156.0
617.186401 44.0
618.571655 52.0
618.78949 60.0
618.878601 68.0
620.295532 76.0
623.039917 48.0
623.591492 52.0
624.575989 132.0
625.924744 96.0
627.673767 84.0
628.107666 120.0
628.147583 120.0
629.15564 72.0
632.960632 84.0
633.135925 68.0
633.646851 76.0
634.975281 64.0
635.261169 92.0
635.983765 96.0
636.224731 136.0
636.279968 68.0
638.666992 108.0
641.416321 116.0
641.617981 80.0
643.924072 92.0
645.106445 92.0
645.692993 48.0
647.768311 76.0
647.935486 84.0
649.030273 80.0
649.923035 76.0
651.227722 100.0
651.41571 76.0
653.05249 100.0
653.57135 56.0
654.121033 32.0
654.790283 92.0
655.119141 40.0
656.225098 48.0
658.37854 64.0
658.930176 48.0
659.129456 96.0
659.364563 44.0
660.489441 40.0
661.001038 96.0
663.218628 40.0
664.449402 44.0
665.224365 52.0
665.383484 88.0
665.429688 56.0
665.501587 52.0
668.88446 72.0
669.219116 116.0
669.342651 76.0
670.439941 140.0
671.476257 84.0
673.334229 100.0
674.998352 60.0
676.793884 92.0
678.052734 84.0
678.109741 48.0
678.358521 32.0
680.459656 48.0
680.890686 84.0
683.043335 104.0
685.140503 52.0
687.820984 92.0
688.087219 128.0
692.364624 80.0
694.948975 104.0
695.164124 120.0
695.925232 104.0
696.660522 72.0
697.758972 108.0
697.953491 124.0
698.453125 144.0
698.579346 124.0
698.82666 60.0
700.390198 116.0
701.486267 128.0
702.89447 40.0
703.374756 52.0
705.630554 84.0
706.60376 96.0
707.074707 68.0
709.698975 52.0
709.834839 84.0
709.988586 36.0
710.524353 76.0
711.177063 104.0
712.754395 44.0
713.291199 128.0
722.452942 56.0
724.733765 36.0
726.964478 104.0
728.618286 140.0
729.865295 104.0
732.346252 48.0
733.51355 64.0
736.607605 164.0
738.894409 40.0
739.154114 108.0
739.635803 104.0
741.85144 116.0
742.155029 92.0
742.578003 64.0
743.891174 72.0
748.131531 76.0
748.823059 64.0
751.052368 48.0
752.96814 96.0
754.935608 48.0
756.757812 156.0
757.584839 64.0
760.886353 88.0
763.820984 40.0
766.832947 200.0
767.685608 132.0
768.172852 48.0
772.514893 56.0
772.979675 116.0
773.190002 60.0
773.267456 44.0
776.281311 48.0
776.492065 92.0
777.174377 40.0
782.014832 132.0
784.114624 108.0
784.638611 84.0
785.581116 112.0
787.495728 52.0
794.324707 60.0
794.95874 56.0
796.255615 88.0
800.6875 104.0
803.235168 96.0
803.364929 92.0
805.425354 48.0
805.803894 120.0
806.470703 32.0
807.27356 64.0
807.437561 36.0
807.731689 124.0
808.704956 36.0
808.953979 80.0
809.384277 64.0
809.911011 96.0
812.206726 28.0
814.624939 80.0
815.249939 68.0
819.551941 48.0
822.666016 92.0
824.85968 116.0
825.014038 60.0
825.442871 84.0
826.289368 104.0
826.375183 56.0
830.700684 68.0
833.255432 56.0
834.588928 52.0
836.326355 48.0
836.504761 124.0
838.192322 52.0
840.15271 48.0
841.43396 128.0
841.901672 76.0
843.993591 76.0
846.360229 64.0
847.524475 28.0
847.796814 72.0
849.060669 56.0
850.110779 56.0
851.364746 76.0
852.555664 72.0
854.270935 68.0
857.613403 124.0
859.473816 96.0
859.713074 120.0
862.59259 60.0
865.517944 64.0
866.595703 84.0
867.164124 52.0
867.873474 40.0
867.955566 132.0
870.913452 80.0
872.799988 52.0
875.159546 96.0
877.274658 128.0
878.047119 64.0
878.589783 44.0
879.646118 52.0
886.856873 60.0
887.787659 120.0
888.784302 60.0
894.085083 60.0
897.385254 56.0
901.300842 76.0
901.749084 92.0
902.125671 56.0
903.806274 120.0
904.093567 52.0
904.279053 88.0
905.985657 116.0
906.111511 100.0
908.203674 68.0
916.307312 84.0
916.819519 36.0
918.290649 92.0
920.74707 100.0
921.453857 36.0
924.689087 56.0
924.90094 48.0
925.10675 100.0
930.405334 108.0
932.507141 56.0
933.30957 104.0
933.887329 68.0
934.526123 40.0
939.308594 108.0
944.23175 96.0
945.736877 56.0
945.926636 56.0
946.912476 64.0
946.99823 192.0
947.494385 100.0
950.799561 32.0
952.635498 132.0
953.919861 60.0
955.684998 72.0
957.445557 68.0
964.232117 64.0
967.306274 88.0
972.084961 48.0
975.619141 116.0
976.614136 92.0
982.276367 96.0
982.56958 36.0
988.862305 88.0
990.026794 88.0
995.181396 48.0
995.269287 64.0
997.116211 120.0
997.298523 48.0
998.304443 68.0
998.694397 180.0
1000.418579 52.0
1004.722961 52.0
1006.774414 56.0
1008.40448 96.0
1009.200989 68.0
1010.40271 124.0
1011.74176 112.0
1014.887024 84.0
1019.870667 52.0
1021.396729 80.0
1021.759338 156.0
1023.261414 60.0
1023.649841 48.0
1023.764465 72.0
1025.82251 84.0
1026.784424 112.0
1031.107666 72.0
1034.657837 56.0
1034.92041 120.0
1035.906616 164.0
1036.36792 184.0
1041.28833 40.0
1042.110596 80.0
1044.48938 132.0
1046.336304 32.0
1053.701782 100.0
1053.869751 104.0
1054.341431 96.0
1056.229492 44.0
1059.006348 88.0
1059.077637 60.0
1061.125366 132.0
1062.111206 120.0
1062.416016 148.0
1062.532837 120.0
1062.740479 148.0
1065.694824 128.0
1065.831299 96.0
1068.022217 96.0
1068.69873 48.0
1068.783325 48.0
1070.697266 92.0
1074.797729 144.0
1075.215454 52.0
1075.881226 108.0
1076.86731 88.0
1078.409302 80.0
1079.631836 84.0
1079.769165 140.0
1080.475708 36.0
1084.476807 192.0
1085.224121 48.0
1087.237427 184.0
1088.675781 164.0
1089.523193 176.0
1095.654785 108.0
1096.300537 132.0
1099.664185 148.0
1099.934814 96.0
1104.619995 96.0
1105.347778 76.0
1105.678589 124.0
1107.241089 60.0
1109.613403 84.0
1110.130615 56.0
1111.941772 204.0
1113.229736 120.0
1114.465332 80.0
1114.990234 176.0
1116.539429 128.0
1116.818726 64.0
1117.703613 36.0
1120.533447 116.0
1122.253052 204.0
1123.553589 156.0
1125.449097 136.0
1126.310669 120.0
1126.631348 76.0
1126.764893 80.0
1129.031006 68.0
1129.403198 148.0
1130.141479 72.0
1131.593872 36.0
1132.162598 52.0
1135.400146 56.0
1137.715088 64.0
1140.926392 80.0
1142.157104 132.0
1142.897095 64.0
1143.28064 100.0
1143.415283 96.0
1144.909912 196.0
1145.758667 60.0
1146.304443 168.0
1151.276367 168.0
1151.884277 176.0
1153.817017 88.0
1155.183105 56.0
1155.304932 172.0
1156.726074 140.0
1157.734863 168.0
1158.358032 80.0
1158.547729 68.0
1159.415039 100.0
1164.693726 172.0
1165.040161 84.0
1167.385132 84.0
1168.405518 116.0
1169.895874 152.0
1170.365723 144.0
1171.135254 84.0
1171.319214 144.0
1172.416138 56.0
1173.745483 168.0
1174.741333 56.0
1175.355347 80.0
1175.785278 128.0
1176.775146 140.0
1177.485352 64.0
1178.24353 64.0
1179.466797 100.0
1179.822266 56.0
1179.876953 64.0
1182.914429 160.0
1184.565674 132.0
1184.97583 128.0
1185.352783 44.0
1187.121338 180.0
1189.358032 96.0
1189.433594 60.0
1193.775879 172.0
1196.108276 84.0
1198.580811 132.0
1198.76001 92.0
1201.214478 80.0
1201.338745 156.0
1201.469727 72.0
1203.160645 208.0
1203.250366 140.0
1203.906372 72.0
1204.838867 64.0
1204.990845 148.0
1205.668091 136.0
1207.389526 84.0
1207.763062 84.0
1208.247314 48.0
1210.067505 76.0
1210.981689 176.0
1211.494263 40.0
1213.837036 104.0
1213.885498 40.0
1215.432495 64.0
1216.904907 144.0
1220.572754 160.0
1220.75354 176.0
1222.332642 176.0
1222.423096 132.0
1222.875488 56.0
1223.585571 220.0
1224.428101 144.0
1224.637085 104.0
1225.027222 88.0
1225.29895 120.0
1225.556641 156.0
1226.392944 84.0
1226.455688 60.0
1227.829224 32.0
1228.212891 144.0
1228.91748 60.0
1229.168701 156.0
1229.636353 228.0
1229.908569 156.0
1230.711426 108.0
1230.91394 128.0
1233.366211 184.0
1234.191162 152.0
1234.260132 180.0
1234.498779 48.0
1235.177246 64.0
1236.14978 156.0
1237.052734 76.0
1238.137939 124.0
1238.271118 168.0
1239.875488 52.0
1240.190918 200.0
1240.366089 220.0
1240.786743 160.0
1240.898926 128.0
1242.147217 180.0
1242.217407 132.0
1244.954834 188.0
1247.864014 180.0
1248.131104 124.0
1249.699707 40.0
1250.340088 156.0
1250.445679 168.0
1252.875122 212.0
1254.072998 112.0
1255.20105 200.0
1255.292725 68.0
1255.998047 164.0
1258.637573 152.0
1260.043091 132.0
1260.735596 176.0
1262.461914 64.0
1263.210327 68.0
1263.946167 164.0
1264.335449 88.0
1267.132446 112.0
1267.833984 92.0
1269.556763 164.0
1270.542725 128.0
1274.376709 64.0
1275.33606 144.0
1275.435547 176.0
1276.67981 120.0
1277.753906 164.0
1278.515381 100.0
1279.058594 172.0
1279.668579 140.0
1281.890991 52.0
1282.425415 112.0
1284.628906 84.0
1285.73584 84.0
1286.498657 152.0
1287.469727 88.0
1288.6698 164.0
1290.485352 132.0
1293.196655 156.0
1293.626099 156.0
1294.256104 240.0
1296.218872 132.0
1296.333496 152.0
1297.007202 68.0
1299.180054 32.0
1301.239868 160.0
1303.631836 240.0
1304.594971 164.0
1305.083984 152.0
1305.637695 156.0
1305.702393 136.0
1306.565552 44.0
1306.889404 172.0
1308.407959 112.0
1308.5448 116.0
1309.877197 228.0
1310.87146 128.0
1311.469604 104.0
1312.197754 128.0
1312.392456 168.0
1312.493408 152.0
1313.935913 48.0
1315.588623 148.0
1315.920776 160.0
1316.576538 196.0
1316.678955 136.0
1318.297241 48.0
1318.427368 176.0
1320.675903 84.0
1322.086792 180.0
1322.882935 128.0
1324.577515 124.0
1324.881714 172.0
1325.099121 60.0
1325.925171 120.0
1328.760498 88.0
1328.992676 144.0
1329.123291 128.0
1330.415283 180.0
1331.613403 120.0
1332.60144 164.0
1333.247559 148.0
1333.524292 144.0
1333.647827 140.0
1335.400269 176.0
1335.727539 160.0
1336.593384 164.0
1336.834595 128.0
1339.833374 96.0
1340.532959 184.0
1345.215576 44.0
1345.485596 184.0
1346.822021 88.0
1347.136108 176.0
1349.708862 108.0
1350.15271 212.0
1351.75708 40.0
1352.737793 96.0
1352.811035 160.0
1353.616455 64.0
1354.671143 148.0
1354.795654 72.0
1357.69104 108.0
1359.084839 44.0
1359.356323 196.0
1359.715942 144.0
1359.82605 60.0
1360.648193 52.0
1361.404541 152.0
1362.102295 112.0
1362.161133 136.0
1362.925171 144.0
1364.681885 176.0
1364.733398 80.0
1364.880493 68.0
1365.770386 92.0
1365.880615 112.0
1366.439819 156.0
1367.175659 204.0
1367.683472 132.0
1368.095703 128.0
1368.147217 60.0
1368.765747 96.0
1369.222778 136.0
1369.413818 104.0
1370.769409 88.0
1371.94873 128.0
1374.198242 68.0
1374.926147 124.0
1375.054199 40.0
1375.268311 44.0
1376.257568 192.0
1376.966553 160.0
1377.59436 60.0
1378.192871 184.0
1378.333252 132.0
1379.427124 104.0
1381.127808 196.0
1382.555786 168.0
1383.814209 124.0
1385.317627 120.0
1385.84375 104.0
1386.251221 228.0
1386.414307 72.0
1387.133301 112.0
1387.481689 100.0
1387.548462 136.0
1389.031616 196.0
1389.55835 152.0
1389.751343 84.0
1389.877441 148.0
1390.701172 180.0
1390.864502 148.0
1392.149048 152.0
1392.468384 104.0
1392.847168 184.0
1393.203735 140.0
1394.759399 108.0
1396.199341 148.0
1396.526611 204.0
1398.30481 136.0
1398.401611 96.0
1398.528076 208.0
1400.099121 212.0
1400.538574 44.0
1401.015381 136.0
1401.849854 168.0
1402.587769 132.0
1402.975342 160.0
1404.123657 164.0
1404.280273 132.0
1405.459106 48.0
1405.988892 148.0
1406.294922 128.0
1406.395752 156.0
1406.563599 144.0
1407.437134 156.0
1407.60144 144.0
1409.080322 128.0
1409.409058 184.0
1409.842529 104.0
1410.111572 140.0
1410.477905 100.0
1410.756348 80.0
1412.354736 180.0
1412.481934 124.0
1413.147705 68.0
1413.679077 168.0
1415.191162 136.0
1415.7677 88.0
1415.842651 124.0
1416.089722 136.0
1416.157227 216.0
1417.693115 112.0
1418.045288 72.0
1418.952393 112.0
1419.272583 256.0
1419.469727 140.0
1419.814697 180.0
1420.02478 128.0
1420.15979 144.0
1420.827393 128.0
1422.283203 56.0
1422.562866 200.0
1423.341797 120.0
1423.619751 152.0
1423.724854 44.0
1424.085327 144.0
1424.243042 116.0
1424.971802 156.0
1426.234375 88.0
1426.459839 164.0
1427.046265 116.0
1427.241699 152.0
1427.5802 132.0
1428.189331 172.0
1428.821289 124.0
1429.107178 132.0
1429.182373 176.0
1429.325439 220.0
1429.498413 136.0
1430.931152 180.0
1431.666626 124.0
1431.854858 148.0
1432.321899 144.0
1432.608154 172.0
1433.482178 120.0
1434.175537 84.0
1434.424316 196.0
1435.321533 72.0
1435.381836 180.0
1435.954956 152.0
1437.124268 236.0
1437.199707 176.0
1437.652466 132.0
1438.407227 164.0
1438.694092 96.0
1438.905518 60.0
1439.041504 196.0
1439.449219 168.0
1439.796631 104.0
1439.879639 32.0
1440.015625 140.0
1442.441162 120.0
1442.652832 112.0
1443.454224 52.0
1444.248413 156.0
1446.071899 148.0
1446.170288 100.0
1447.820801 112.0
1448.282837 116.0
1448.381348 88.0
1448.570679 144.0
1449.061157 216.0
1449.752686 204.0
1449.88916 136.0
1450.472778 184.0
1450.88208 132.0
1451.465942 48.0
1451.58728 240.0
1452.603638 116.0
1455.085327 184.0
1455.259888 144.0
1455.43457 140.0
1455.791504 112.0
1456.315552 152.0
1457.17395 32.0
1457.265137 152.0
1457.455078 176.0
1458.891602 172.0
1459.788818 156.0
1460.503662 140.0
1460.625366 128.0
1460.937378 132.0
1461.812378 188.0
1462.025391 164.0
1462.36792 104.0
1462.558228 136.0
1462.672363 44.0
1462.847412 152.0
1463.243408 140.0
1464.218018 228.0
1465.269287 220.0
1466.176025 320.0
1466.237061 164.0
1467.956299 104.0
1469.30249 128.0
1470.035034 104.0
1471.019653 132.0
1472.073242 168.0
1472.508545 208.0
1473.341187 160.0
1474.082397 92.0
1474.242798 176.0
1474.326904 188.0
1474.984863 144.0
1475.221191 252.0
1476.199951 104.0
1476.895874 172.0
1476.995361 128.0
1477.668579 108.0
1477.775635 128.0
1477.974609 172.0
1478.028198 116.0
1478.349609 124.0
1478.418457 116.0
1478.571533 160.0
1478.678711 156.0
1480.485474 144.0
1481.187866 120.0
1481.603882 152.0
1481.68042 112.0
1481.793091 96.0
1483.197876 180.0
1483.450806 80.0
1484.232788 328.0
1484.30957 200.0
1484.969116 36.0
1485.194214 100.0
1485.835938 100.0
1486.181152 200.0
1486.380615 88.0
1486.733643 156.0
1487.393799 132.0
1487.908081 48.0
1488.322754 80.0
1489.605347 132.0
1489.775635 148.0
1490.043213 116.0
1490.135498 116.0
1490.289062 152.0
1490.742432 116.0
1491.14209 156.0
1491.362793 164.0
1492.54895 192.0
1493.171875 48.0
1493.564209 92.0
1493.925659 132.0
1494.141113 136.0
1494.333496 56.0
1494.764404 64.0
1495.955933 196.0
1496.226807 96.0
1496.311523 192.0
1496.38855 104.0
1496.519409 156.0
1496.657959 68.0
1497.043091 60.0
1497.297241 48.0
1498.421875 164.0
1498.853394 120.0
1499.276978 144.0
1499.454468 48.0
1499.516113 44.0
1501.196777 64.0
1501.281616 124.0
1501.466675 116.0
1502.685547 60.0
