>compound Nefiracetam
>formula C14H18N2O2 
>ionization [M+H]+
>parentmass 247.145
#inchi InChI=1S/C14H18N2O2/c1-10-5-3-6-11(2)14(10)15-12(17)9-16-8-4-7-13(16)18/h3,5-6H,4,7-9H2,1-2H3,(H,15,17)
#inchikey NGHTXZCKLWZPGK
#Ion_Source LC-ESI
#Instrument qTof
#Compound_Source Isolated
#PI Sirenas
#Data_Collector Ed Esquenazi 
#Scan -1
#Precursor_MZ 247.145
#ExactMass 0.0
#Charge 1
#CAS_Number N/A
#Pubmed_ID N/A
#Smiles N/A
#INCHI_AUX N/A
#Library_Class 3
#SpectrumID CCMSLIB00000004652
#IonMode Positive
#UpdateWorkflowName UPDATE-SINGLE-ANNOTATED-BRONZE
#LibraryQualityString Bronze
#TaskID d19310cd93df49b68e9fcbec27720eb5
##Scan# 3
#SpectrumFile Nefiracetam.mgf
#LibraryName fda_library.mgf
#MQScore -1
#Organism fda_library
#TIC_Query 0
#RT_Query -1
#MZErrorPPM -1
#SharedPeaks 0
#MassDiff 0
#LibMZ -1
#SpecMZ 247.145
#SpecCharge 0
#internalFilename spec-00000.mgf

>collision 10
100.119728 3.653261
100.169151 3.6
100.294121 10.40634
100.718689 7.457858
100.887222 3.375
101.005852 5.864362
101.044312 3.603571
101.072296 1.817308
101.32077 3.418182
101.415611 6.318421
101.463181 4.601666
101.653725 3.504167
101.780022 7.803462
102.117233 2.664474
102.835594 2.220455
102.930954 3.096428
103.052643 54.491379
104.553802 1.8
105.066963 55.961281
105.234337 1.6
107.072601 26.5625
107.08461 34.149471
107.418633 11.24802
109.975967 6.482843
112.048218 5.489815
119.070862 36.34454
125.002647 49.278259
125.408348 1.633333
126.055443 193.332397
126.176216 5.034616
126.336456 5.009091
126.524223 4.225
134.096252 144.671097
135.953552 13.21775
137.920502 39.13475
138.873337 17.109341
153.548386 3.472727
153.892242 227.966095
154.2173 6.204246
154.749161 2.840909
159.102386 22.936291
169.120148 2.805556
223.804993 4.696154
245.891357 3.641667
267.767609 7.91413
390.33316 2.801667
410.024078 2.8125
461.528381 6.235
503.221588 4.803125
612.31366 2.85
683.211243 9.251271
714.534241 5.033065
756.70459 2.469445
874.181519 6.089286
1052.117554 44.16814
1479.730713 4.0
1628.518677 3.045
