>compound 2-[4-[3-[2-(trifluoromethyl)phenothiazin-10-yl]propyl]piperazin-1-yl]ethanol
>formula C22H26F3N3OS
>ionization [M+H]+
>parentmass 438.18214456409055
#inchi InChI=1S/C22H26F3N3OS/c23-22(24,25)17-6-7-21-19(16-17)28(18-4-1-2-5-20(18)30-21)9-3-8-26-10-12-27(13-11-26)14-15-29/h1-2,4-7,16,29H,3,8-15H2
#inchikey PLDUPXSUYLZYBN
#Ion_Source LC-ESI
#Instrument qTof
#Compound_Source Commercial
#PI Dorrestein
#Data_Collector Garg_Neha
#Scan -1
#Precursor_MZ 438.182
#ExactMass 437.175
#Charge 1
#CAS_Number N/A
#Pubmed_ID N/A
#Smiles OCCN1CCN(CCCN2c3ccccc3Sc4ccc(cc24)C(F)(F)F)CC1
#INCHI_AUX N/A
#Library_Class 1
#SpectrumID CCMSLIB00000079049
#IonMode Positive
#UpdateWorkflowName UPDATE-SINGLE-ANNOTATED-GOLD
#LibraryQualityString Gold
#TaskID 278b19f5865741e282cec7349aa7e7a1
##Scan# 1224
#SpectrumFile NCP003432_A2_B11_BC8_01_15722.mzXML
#LibraryName NIHcollectionI_05062014.mgf
#MQScore -1
#Organism NIHcollectionI_05062014
#TIC_Query 0
#RT_Query -1
#MZErrorPPM -1
#SharedPeaks 0
#MassDiff 0
#LibMZ -1
#SpecMZ 438.182
#SpecCharge 0
#internalFilename spec-00000.mgf

>collision 10
45.197945 132.0
46.21582 212.0
46.623989 184.0
46.717808 144.0
46.808998 140.0
46.858032 200.0
47.020302 200.0
47.077641 188.0
47.488216 156.0
47.674931 160.0
48.013596 148.0
48.623714 168.0
48.787621 160.0
48.962944 224.0
49.560829 152.0
49.989105 140.0
50.379662 168.0
50.815712 140.0
51.243664 184.0
52.313484 160.0
52.382607 140.0
52.62056 156.0
52.927082 156.0
53.16917 160.0
53.343464 216.0
53.884132 172.0
54.917587 168.0
55.815037 164.0
56.540031 156.0
56.628365 172.0
57.084595 192.0
57.433998 148.0
57.928291 240.0
59.047043 144.0
59.643475 200.0
59.677296 256.0
59.845005 140.0
60.654522 160.0
61.058208 160.0
61.227844 200.0
61.318207 152.0
61.541279 236.0
61.736603 144.0
61.769447 168.0
61.987068 144.0
62.121902 156.0
62.643806 168.0
62.766739 268.0
62.855072 140.0
63.104633 188.0
63.197948 148.0
63.272335 144.0
64.052055 144.0
64.35347 172.0
64.556396 196.0
65.187996 168.0
65.864662 156.0
66.522095 148.0
67.068649 176.0
67.504555 200.0
67.720581 152.0
68.582832 204.0
68.682121 148.0
68.832306 148.0
69.11496 156.0
69.562431 204.0
69.574051 152.0
69.710251 204.0
70.13131 196.0
70.416618 152.0
70.943695 168.0
70.995674 204.0
71.183624 160.0
71.22393 160.0
71.371819 140.0
71.46096 196.0
71.902458 156.0
72.338539 144.0
72.570633 172.0
73.352882 132.0
73.950493 192.0
74.044655 236.0
74.360115 184.0
74.54731 172.0
74.915504 172.0
75.079247 176.0
76.035957 176.0
76.121025 160.0
77.005707 152.0
77.197708 144.0
77.269661 164.0
78.882317 140.0
79.170708 188.0
79.310677 264.0
79.464958 140.0
79.635376 148.0
80.308159 184.0
80.592003 160.0
80.606293 168.0
80.919441 276.0
81.475273 156.0
81.701599 148.0
81.854782 168.0
81.892601 144.0
82.267662 156.0
82.70134 200.0
83.325287 200.0
83.643532 204.0
83.803795 240.0
84.00798 144.0
86.106003 148.0
86.586853 156.0
86.638718 176.0
87.85453 196.0
88.61544 204.0
88.851669 160.0
90.266182 148.0
91.549866 252.0
92.054337 140.0
93.461304 184.0
94.342697 148.0
94.456787 236.0
94.625153 172.0
94.658371 128.0
94.975906 148.0
94.997238 248.0
95.057388 140.0
95.249596 192.0
95.876083 204.0
96.081779 416.0
96.143257 144.0
96.354141 176.0
96.453804 180.0
97.076469 444.0
97.604614 164.0
97.74427 164.0
98.049843 248.0
98.083771 4520.0
99.096352 140.0
99.160851 112.0
100.076302 8052.0
100.110382 340.0
101.079941 760.0
101.12001 204.0
101.725342 212.0
102.095032 152.0
102.848541 184.0
103.610901 152.0
103.655479 160.0
104.492935 168.0
104.730186 144.0
105.133865 216.0
105.577171 168.0
105.804291 152.0
106.478905 208.0
107.731705 200.0
108.026855 156.0
110.087021 156.0
110.489998 148.0
110.894135 188.0
111.096306 296.0
111.435539 160.0
111.685699 140.0
112.07946 100.0
112.100426 580.0
112.492226 148.0
112.884659 184.0
113.107727 1672.0
113.641907 152.0
113.733154 144.0
114.079399 268.0
114.107033 232.0
114.572121 120.0
115.428986 224.0
115.953476 152.0
116.315834 148.0
117.070007 316.0
117.29467 148.0
117.562111 244.0
118.916893 176.0
119.425308 180.0
121.371117 252.0
121.788078 176.0
121.915504 220.0
122.012222 184.0
123.091774 132.0
123.916862 156.0
124.023232 204.0
124.099617 412.0
124.762421 168.0
125.107353 1840.0
125.923347 144.0
126.113998 668.0
126.486794 140.0
126.898994 188.0
127.123398 240.0
127.921181 140.0
128.094879 3052.0
128.633499 140.0
129.097778 204.0
130.098129 200.0
130.350235 160.0
130.750473 140.0
131.120468 144.0
131.415863 176.0
131.48204 184.0
131.550507 220.0
131.918289 160.0
132.217331 200.0
132.795258 204.0
133.180862 152.0
133.45433 152.0
134.050491 140.0
134.080444 160.0
134.976135 140.0
135.089996 204.0
135.596542 160.0
136.020996 172.0
137.107162 152.0
137.123489 252.0
137.139801 236.0
138.131027 108.0
138.617416 164.0
138.743362 216.0
139.082397 292.0
139.122849 444.0
139.760315 180.0
140.108765 160.0
140.127609 228.0
140.415192 164.0
140.686539 164.0
140.863647 164.0
141.102432 3064.0
141.139938 3556.0
141.357788 216.0
141.410049 136.0
141.864639 188.0
141.93338 164.0
142.107925 432.0
142.141449 512.0
142.241806 180.0
142.470932 188.0
142.61235 180.0
142.664642 148.0
142.778336 200.0
142.829468 116.0
142.947678 144.0
142.967728 308.0
143.030792 120.0
143.055923 108.0
143.075272 216.0
143.118591 62408.0
143.170425 280.0
143.232544 116.0
143.310989 124.0
143.34993 112.0
143.365631 232.0
143.707779 148.0
143.746033 112.0
143.963242 144.0
144.121613 5220.0
144.711609 144.0
145.082779 108.0
145.12294 140.0
146.146896 140.0
146.438187 212.0
147.731964 148.0
148.034515 196.0
148.741547 140.0
149.734467 144.0
150.102432 140.0
150.129257 196.0
150.180481 168.0
150.300018 152.0
150.394135 220.0
151.052261 128.0
151.108749 140.0
153.136383 156.0
154.143768 308.0
155.557098 200.0
156.305176 140.0
156.33255 172.0
157.047577 196.0
157.137756 160.0
158.332199 152.0
158.903717 168.0
161.361832 144.0
161.943848 180.0
163.344955 248.0
163.413651 228.0
164.386124 164.0
165.565491 152.0
166.139633 144.0
166.732773 292.0
167.200821 192.0
167.522675 200.0
168.182785 164.0
168.694244 156.0
169.133545 396.0
169.463898 140.0
169.501724 156.0
169.906204 184.0
170.183411 148.0
170.573593 172.0
170.832611 204.0
171.098648 268.0
171.149872 51364.0
171.62999 124.0
171.667084 148.0
171.757324 144.0
172.152451 5344.0
173.153259 360.0
173.199219 136.0
173.252899 104.0
173.269928 172.0
173.388718 144.0
173.945908 144.0
174.634323 148.0
175.738098 268.0
176.205414 148.0
176.432693 180.0
176.583405 176.0
176.763306 144.0
177.47847 260.0
177.812714 156.0
179.001022 176.0
179.638 220.0
180.252075 140.0
180.821686 192.0
181.49675 152.0
181.606689 144.0
183.059647 208.0
183.308716 168.0
183.36235 164.0
183.729065 144.0
184.175995 212.0
184.569031 144.0
184.738449 156.0
185.059326 180.0
185.145416 192.0
188.838593 144.0
190.056778 128.0
190.834137 116.0
191.00647 216.0
191.998138 184.0
192.079712 160.0
193.154221 148.0
193.262115 140.0
193.541672 216.0
193.680145 156.0
194.04039 176.0
195.088699 112.0
195.123138 200.0
197.12999 140.0
197.745239 208.0
199.046005 160.0
199.14711 140.0
199.192047 208.0
201.177307 148.0
201.517471 148.0
202.764923 152.0
204.041443 160.0
204.16655 144.0
204.725021 132.0
206.102097 120.0
208.233414 192.0
208.919525 160.0
209.513428 152.0
210.036636 336.0
210.343933 164.0
210.589355 172.0
211.436462 188.0
211.812851 176.0
212.08812 140.0
212.12735 128.0
212.34166 180.0
212.665619 168.0
213.617355 136.0
213.926834 184.0
215.373154 192.0
216.587006 200.0
219.8564 152.0
219.962646 156.0
220.10141 156.0
221.048477 120.0
222.826309 176.0
223.310837 144.0
224.050461 124.0
225.448441 148.0
225.687561 140.0
226.066513 1428.0
226.873154 168.0
227.320053 144.0
228.073318 128.0
228.407623 208.0
228.592606 124.0
228.661148 184.0
230.010666 156.0
230.054825 152.0
230.076492 492.0
232.066818 160.0
232.413574 148.0
232.571381 148.0
233.013962 204.0
233.25177 164.0
233.771851 140.0
234.134109 164.0
235.073044 180.0
235.732635 156.0
236.026077 208.0
236.052429 188.0
236.873825 140.0
237.07402 188.0
237.380753 136.0
237.431656 172.0
238.031769 312.0
239.038284 160.0
239.078033 880.0
239.198776 136.0
239.460037 144.0
240.086685 240.0
241.030258 200.0
241.073853 156.0
241.255875 160.0
242.038254 200.0
243.142212 192.0
244.015213 160.0
244.056732 452.0
244.91127 200.0
245.060806 176.0
245.247787 148.0
245.403656 152.0
246.051666 136.0
246.68988 140.0
246.880981 144.0
247.068054 172.0
248.027771 168.0
248.068222 7412.0
248.340042 204.0
248.427872 140.0
248.688309 152.0
249.074509 680.0
249.523895 196.0
250.076065 456.0
250.742065 156.0
251.240265 176.0
251.514801 168.0
251.795807 184.0
251.96637 176.0
253.072479 152.0
254.319168 176.0
255.028061 128.0
255.081497 180.0
255.50444 156.0
255.727188 176.0
257.117004 180.0
257.573334 156.0
257.854492 232.0
257.926819 152.0
258.038971 4288.0
258.100647 168.0
259.041901 908.0
259.583191 176.0
259.908661 104.0
260.034698 1588.0
260.308411 180.0
261.034515 256.0
261.092529 220.0
261.642731 232.0
262.050568 548.0
262.087311 164.0
262.245117 168.0
262.622345 164.0
263.051727 204.0
263.118103 100.0
263.739502 200.0
264.014313 152.0
264.04718 148.0
264.664734 152.0
264.79425 212.0
265.8284 144.0
266.024445 356.0
266.065338 140.0
266.201721 200.0
266.370605 148.0
266.552551 144.0
266.715027 212.0
266.78006 164.0
267.033264 1112.0
268.040405 300.0
268.499237 148.0
268.72757 232.0
268.962524 140.0
269.442566 176.0
269.785706 144.0
269.909943 160.0
270.793518 192.0
271.013 172.0
271.176849 152.0
272.089874 128.0
272.354736 156.0
273.52533 164.0
274.085114 452.0
275.090179 1340.0
276.09848 660.0
276.14325 168.0
276.640594 168.0
277.085449 116.0
277.419922 172.0
277.685211 180.0
278.080017 184.0
278.679443 124.0
279.029816 112.0
279.219574 152.0
280.041321 28368.0
280.111206 172.0
281.044037 4184.0
281.121796 184.0
281.368103 152.0
281.505676 160.0
281.772888 192.0
282.040802 1316.0
282.459625 216.0
282.556274 152.0
282.635498 152.0
282.932068 184.0
283.037872 180.0
283.566467 160.0
283.630157 144.0
283.986694 132.0
284.045715 128.0
284.243866 176.0
285.133789 188.0
285.204376 184.0
285.241333 196.0
285.295135 140.0
286.067932 456.0
286.472931 144.0
287.018921 212.0
287.069519 168.0
287.194275 152.0
287.548553 176.0
287.612305 144.0
287.933411 140.0
288.063782 232.0
288.3591 152.0
288.555176 180.0
288.656616 168.0
290.013519 164.0
291.056885 120.0
291.143951 160.0
291.289978 152.0
291.942535 100.0
292.279297 192.0
292.744049 124.0
293.062347 148.0
293.969452 144.0
294.064423 104.0
294.165649 172.0
294.303955 152.0
294.997498 148.0
295.058228 168.0
295.571228 164.0
295.630219 184.0
295.705536 156.0
296.884613 120.0
298.690613 152.0
298.797333 136.0
300.28186 176.0
300.799438 188.0
301.452179 148.0
301.756348 160.0
304.268127 164.0
304.584137 148.0
304.627777 128.0
304.771729 140.0
305.106903 148.0
307.742767 140.0
307.969757 180.0
308.072144 5500.0
309.073029 824.0
309.238922 180.0
309.52948 192.0
309.858734 224.0
310.070984 488.0
310.938721 172.0
312.154205 140.0
312.439117 156.0
312.724121 176.0
312.776917 144.0
313.32547 160.0
315.249268 196.0
316.105011 212.0
316.384613 144.0
318.05777 164.0
318.565552 152.0
319.8172 164.0
320.212402 140.0
320.271332 104.0
320.778961 184.0
321.00827 212.0
322.21756 160.0
322.885529 144.0
324.048889 156.0
325.460052 156.0
325.756531 156.0
326.579681 192.0
327.627167 156.0
328.665497 148.0
329.239471 172.0
331.108734 96.0
331.562042 156.0
331.891907 140.0
333.151154 104.0
334.052795 144.0
335.24295 164.0
336.198822 236.0
337.038696 160.0
337.081635 176.0
337.971069 140.0
338.857117 140.0
339.494354 156.0
340.250763 176.0
341.141174 128.0
341.34201 224.0
341.625183 168.0
342.032166 160.0
342.622833 180.0
343.2789 204.0
344.190338 220.0
344.50058 148.0
346.319794 152.0
346.361206 148.0
346.987488 152.0
347.091309 140.0
347.321228 192.0
347.851837 140.0
348.082031 152.0
348.381866 148.0
348.881622 136.0
348.977509 144.0
349.017578 124.0
349.128571 192.0
350.011871 232.0
350.037964 148.0
350.136108 124.0
351.110504 224.0
351.174591 224.0
351.262054 156.0
352.130035 164.0
353.143677 136.0
353.716492 136.0
353.816467 144.0
354.104767 148.0
356.222168 156.0
357.178772 140.0
358.067047 144.0
358.44751 148.0
358.575653 160.0
358.747589 156.0
358.908295 132.0
359.157562 168.0
360.185486 208.0
360.220734 152.0
360.45874 192.0
362.915283 204.0
363.268005 140.0
364.08783 156.0
365.12915 224.0
366.137665 140.0
366.216858 196.0
367.141541 168.0
367.55954 188.0
367.998474 148.0
368.078674 160.0
368.269623 184.0
369.278748 124.0
370.08606 144.0
370.125427 144.0
371.131866 140.0
372.509857 140.0
372.621246 176.0
373.097809 204.0
373.138702 772.0
373.20929 172.0
373.382355 140.0
373.774719 204.0
373.824738 176.0
374.144104 216.0
374.648682 140.0
375.512115 192.0
375.623962 256.0
375.878601 160.0
376.189819 120.0
376.717896 128.0
377.284485 168.0
378.161133 1028.0
379.164581 328.0
379.210754 124.0
379.324554 164.0
380.150665 220.0
380.826324 104.0
381.028168 188.0
381.170807 152.0
381.200867 196.0
381.739441 168.0
382.825165 140.0
383.70575 164.0
385.625946 232.0
386.075989 116.0
387.105042 176.0
387.387054 164.0
387.7435 132.0
388.323853 140.0
389.292419 160.0
389.358368 160.0
390.098633 120.0
390.362061 160.0
390.763245 172.0
391.132416 580.0
391.810486 148.0
392.128845 232.0
392.441071 156.0
392.874908 148.0
393.020874 204.0
393.251312 112.0
393.811249 172.0
394.126434 164.0
394.225616 124.0
394.324036 160.0
395.121796 144.0
395.208954 184.0
395.463104 148.0
396.76236 160.0
397.908905 144.0
398.000214 160.0
398.169647 2756.0
398.965668 216.0
399.092896 144.0
399.1716 804.0
399.240021 192.0
399.466705 164.0
400.171295 428.0
400.219482 164.0
400.609192 156.0
400.77652 156.0
402.335938 156.0
402.52005 176.0
403.882385 168.0
404.83493 152.0
405.339661 140.0
405.371704 140.0
405.79657 148.0
405.840668 140.0
406.081299 140.0
408.531494 148.0
408.857422 216.0
409.416992 180.0
409.626434 152.0
410.267181 152.0
410.36795 148.0
411.328094 148.0
413.591644 160.0
413.811432 156.0
414.27597 152.0
414.664978 184.0
418.011261 160.0
418.108917 168.0
418.171234 432.0
418.43457 244.0
418.511932 160.0
419.154877 160.0
420.080963 172.0
421.992218 168.0
422.127167 156.0
422.978149 160.0
423.055908 160.0
424.809814 200.0
425.234406 136.0
426.196442 144.0
426.337189 144.0
426.562134 132.0
426.91272 172.0
427.274689 196.0
427.459839 140.0
427.679352 116.0
428.316162 200.0
429.070282 144.0
430.060303 180.0
430.175873 368.0
430.740021 212.0
430.883026 132.0
430.925262 172.0
431.967407 160.0
432.171539 144.0
432.331055 128.0
432.457672 108.0
432.745575 144.0
432.884552 136.0
432.964539 104.0
433.430725 132.0
433.538452 180.0
433.586548 112.0
433.830933 176.0
433.886627 164.0
433.936371 236.0
434.02533 156.0
434.387665 140.0
434.582062 132.0
434.716187 356.0
434.92395 108.0
434.996033 168.0
435.042511 176.0
435.094269 248.0
435.182373 188.0
435.250458 348.0
435.292236 148.0
435.323914 100.0
435.398956 152.0
435.499817 192.0
435.574768 124.0
435.621796 128.0
435.715057 280.0
435.757202 108.0
435.792358 148.0
435.829742 144.0
435.887177 100.0
435.988892 124.0
436.026855 164.0
436.113312 152.0
436.169281 132.0
436.218048 180.0
436.296814 144.0
436.480438 144.0
436.504639 420.0
436.540802 348.0
436.570099 136.0
436.648254 104.0
436.69809 136.0
436.738922 132.0
436.78772 196.0
436.855164 292.0
436.934082 136.0
436.996887 288.0
437.073853 356.0
437.132996 176.0
437.220093 292.0
437.316345 132.0
437.343475 332.0
437.380859 232.0
437.443237 152.0
437.477173 512.0
437.547119 424.0
437.650696 140.0
437.715057 120.0
437.789734 288.0
437.842407 284.0
437.947357 708.0
438.008789 520.0
438.074615 328.0
438.122955 440.0
438.185272 229072.0
438.32309 244.0
438.468811 308.0
438.500397 336.0
438.570374 880.0
438.632812 500.0
438.693665 412.0
438.81665 784.0
438.873993 10148.0
438.939484 304.0
439.030518 384.0
439.088806 304.0
439.186768 142484.0
439.32431 140.0
439.448669 184.0
439.490509 132.0
439.568298 292.0
439.642059 160.0
439.760986 252.0
439.815094 208.0
439.876282 1504.0
439.989075 220.0
440.032806 308.0
440.183075 45512.0
440.332153 140.0
440.51709 228.0
440.598938 152.0
440.633026 300.0
440.789856 112.0
440.831665 212.0
440.867798 140.0
440.930511 220.0
441.009918 148.0
441.183838 6716.0
441.245392 332.0
441.301331 140.0
441.535095 208.0
441.553955 384.0
441.584656 324.0
441.618744 480.0
441.686829 268.0
441.749756 148.0
441.806213 220.0
441.83136 424.0
441.869019 208.0
441.915619 304.0
441.957153 356.0
442.019073 220.0
442.105011 232.0
442.186432 276.0
442.255554 152.0
442.337982 176.0
442.371429 156.0
442.52243 200.0
442.71814 116.0
442.804779 168.0
442.89978 180.0
442.940125 200.0
443.001495 220.0
443.086548 276.0
443.128082 208.0
443.214874 104.0
443.259094 144.0
443.340393 212.0
443.738007 112.0
443.806946 132.0
444.092926 96.0
444.203033 184.0
444.881195 104.0
445.053223 104.0
445.186401 144.0
445.973145 96.0
446.330475 96.0
448.078522 120.0
449.694397 104.0
452.010864 96.0
452.161072 104.0
453.018524 164.0
454.424957 124.0
454.946289 132.0
457.062469 116.0
457.212463 240.0
459.274048 104.0
462.91568 124.0
468.784576 140.0
490.668976 124.0
511.304474 160.0
515.783203 176.0
534.210632 168.0
566.593567 156.0
579.871887 104.0
583.675964 152.0
605.15686 204.0
646.005554 100.0
657.611511 152.0
666.26532 168.0
731.130432 156.0
786.21582 184.0
829.527527 144.0
848.061584 240.0
956.223328 144.0
1030.953979 160.0
1049.337646 140.0
1052.950195 140.0
1054.288452 144.0
1058.771729 192.0
1120.65564 140.0
1125.765137 160.0
1211.866577 144.0
1216.266968 112.0
1217.089355 224.0
1259.509277 160.0
1341.382324 172.0
1362.460571 156.0
1368.638672 256.0
1392.41333 216.0
1404.381104 156.0
1411.161743 140.0
1418.123535 176.0
1422.609009 200.0
1428.545654 228.0
1436.319458 156.0
1456.780273 192.0
1472.669678 188.0
1476.127441 152.0
1482.623169 188.0
1495.064209 180.0
1504.344116 220.0
1515.039062 140.0
1557.569458 268.0
1568.36499 172.0
1570.833008 152.0
1573.40564 176.0
1578.067017 172.0
1579.791016 172.0
1581.626831 144.0
1601.827515 212.0
1616.189819 192.0
1618.23877 192.0
1618.719238 160.0
1623.254639 152.0
1645.6073 156.0
1653.747681 196.0
1657.035278 184.0
1659.166748 164.0
1684.579224 180.0
1692.653809 184.0
1692.866699 160.0
1697.045654 168.0
1698.948364 184.0
1699.301147 164.0
1709.399414 168.0
1714.40625 168.0
1720.963989 184.0
1723.003906 212.0
1729.040039 228.0
1735.932495 148.0
1736.778442 156.0
1739.724243 160.0
1757.234375 144.0
1765.161011 172.0
1772.753418 260.0
1773.390381 216.0
1774.798706 204.0
1789.561279 144.0
1793.478516 208.0
1795.771851 176.0
1802.145264 172.0
1806.55835 200.0
1819.125488 140.0
1828.262451 152.0
1844.860596 140.0
1846.425293 148.0
1850.27063 176.0
1853.701904 224.0
1876.807251 144.0
1878.842651 192.0
1891.840088 152.0
1892.316284 196.0
1893.433228 144.0
1902.641846 192.0
1913.456909 144.0
1915.102783 144.0
1916.78418 172.0
1918.675415 140.0
1925.752319 196.0
1932.089722 148.0
1944.690308 156.0
1960.42395 168.0
1965.379639 160.0
1970.014648 152.0
1977.557129 152.0
1982.942017 176.0
1986.568604 148.0
1988.476318 188.0
1989.062012 180.0
1998.780396 140.0
2000.769531 160.0
2002.969116 152.0
