>compound MLS001074087-01!389-08-2
>formula C15H12N2O2
>ionization [M+H]+
>parentmass 253.09715407609053
#inchi InChI=1S/C15H12N2O2/c18-13-15(17-14(19)16-13,11-7-3-1-4-8-11)12-9-5-2-6-10-12/h1-10H,(H2,16,17,18,19)
#inchikey CXOFVDLJLONNDW
#Ion_Source LC-ESI
#Instrument qTof
#Compound_Source NIH Pharmacologically Active Library
#PI Dorrestein
#Data_Collector VP/LMS
#Scan -1
#Precursor_MZ 253.1
#ExactMass 252.09
#Charge 1
#CAS_Number N/A
#Pubmed_ID N/A
#Smiles O=C1NC(=O)C(N1)(c2ccccc2)c3ccccc3
#INCHI_AUX N/A
#Library_Class 1
#SpectrumID CCMSLIB00000084814
#IonMode Positive
#UpdateWorkflowName UPDATE-SINGLE-ANNOTATED-GOLD
#LibraryQualityString Gold
#TaskID d252d724072548979f1f6f1ced849daf
##Scan# 1804
#SpectrumFile p3-B02_GB2_01_18235.mzXML
#LibraryName Pharm_Active_Library.mgf
#MQScore -1
#Organism Pharm_Active_Library
#TIC_Query 0
#RT_Query -1
#MZErrorPPM -1
#SharedPeaks 0
#MassDiff 0
#LibMZ -1
#SpecMZ 253.1
#SpecCharge 0
#internalFilename spec-00000.mgf

>collision 10
45.415962 128.0
46.972935 152.0
47.31184 220.0
47.935417 140.0
49.562653 184.0
49.589279 236.0
50.127537 136.0
50.898476 200.0
52.751041 232.0
53.496677 132.0
54.196255 144.0
54.278339 100.0
54.351681 128.0
54.901848 108.0
57.862175 152.0
58.259518 104.0
58.33094 48.0
58.887093 96.0
60.119923 112.0
60.540413 156.0
60.904884 36.0
62.291996 124.0
63.685196 120.0
64.186501 172.0
65.018349 152.0
65.82164 212.0
66.106148 152.0
68.407539 152.0
70.018623 208.0
70.452301 152.0
70.728218 164.0
70.91246 176.0
71.8592 180.0
72.038155 148.0
72.922653 156.0
75.800743 124.0
77.17411 224.0
78.291893 116.0
79.180214 108.0
80.483696 128.0
81.704247 208.0
81.846428 204.0
83.215157 124.0
83.789871 240.0
85.02964 148.0
85.912857 216.0
86.163925 196.0
87.610985 176.0
87.635201 208.0
88.058655 244.0
88.382057 200.0
88.961174 148.0
89.49511 204.0
89.713654 184.0
91.055199 248.0
91.085587 148.0
91.475403 172.0
91.604889 160.0
91.639183 152.0
91.953819 224.0
92.848106 176.0
94.666481 140.0
95.97422 144.0
97.09079 120.0
98.842049 88.0
100.668861 188.0
101.892685 72.0
102.037384 152.0
102.282806 172.0
102.423759 248.0
103.417168 160.0
103.652084 188.0
103.749367 220.0
103.864952 208.0
103.92379 192.0
104.02726 392.0
104.050499 13040.0
104.076912 172.0
104.147095 120.0
104.203972 44.0
104.228355 72.0
104.519119 40.0
104.574066 120.0
104.626991 40.0
104.649384 168.0
104.667709 72.0
104.920349 68.0
105.024345 192.0
105.052872 776.0
105.17942 32.0
105.460663 180.0
105.753769 176.0
105.786522 48.0
105.815186 168.0
105.897095 76.0
106.049133 212.0
106.081505 76.0
106.280434 100.0
106.640839 88.0
108.425049 100.0
109.093399 80.0
111.066704 96.0
111.446686 156.0
112.265511 88.0
112.92231 40.0
113.18895 68.0
113.612839 160.0
114.026894 224.0
115.047775 128.0
115.061653 164.0
116.821556 76.0
116.877495 84.0
118.068245 152.0
118.865425 176.0
119.665291 160.0
120.456917 176.0
121.071518 280.0
121.31691 96.0
123.156487 144.0
124.139114 136.0
126.939941 120.0
127.575325 164.0
129.339325 76.0
130.896729 96.0
132.044769 436.0
132.786652 164.0
133.045929 108.0
133.09874 200.0
134.945282 228.0
136.551285 192.0
136.983231 172.0
138.373718 116.0
138.586853 220.0
138.696991 156.0
139.403412 196.0
139.513885 64.0
139.970322 228.0
141.822464 172.0
143.160034 260.0
144.056808 92.0
144.121323 160.0
147.014847 140.0
147.058289 172.0
151.077393 160.0
152.339859 204.0
152.949692 132.0
154.081573 164.0
154.930115 228.0
155.091187 212.0
155.163071 64.0
155.532684 52.0
155.681656 148.0
156.330475 96.0
156.706451 124.0
157.584671 220.0
158.312561 164.0
159.325882 112.0
161.182755 116.0
161.92395 144.0
163.162216 156.0
163.989502 260.0
165.067673 304.0
166.071564 168.0
166.091232 76.0
166.124573 68.0
167.072525 160.0
168.082458 128.0
173.405853 100.0
174.93718 184.0
176.155457 224.0
176.607452 164.0
178.932022 160.0
181.068192 196.0
181.309296 216.0
181.381668 64.0
181.807739 176.0
182.096558 10444.0
182.16658 72.0
182.355972 76.0
182.581802 44.0
182.915436 92.0
182.969269 180.0
183.098053 2128.0
183.163162 52.0
183.432617 48.0
184.050186 96.0
184.080124 184.0
184.102127 160.0
184.138977 116.0
184.266495 92.0
184.315125 96.0
184.396194 116.0
184.563797 36.0
191.233932 32.0
193.096237 208.0
198.123306 164.0
198.919708 60.0
202.747101 92.0
208.069687 96.0
209.07283 176.0
211.132614 192.0
222.404434 96.0
224.126297 204.0
225.10466 140.0
234.956757 144.0
240.177795 144.0
240.304276 60.0
251.217651 144.0
254.181824 160.0
254.186813 144.0
273.955902 52.0
282.219849 36.0
393.282898 52.0
599.992249 60.0
878.69281 236.0
918.834229 264.0
927.257324 180.0
946.470764 144.0
953.826477 180.0
956.176025 132.0
977.638306 152.0
992.367188 160.0
995.058716 136.0
998.017944 168.0
1000.9375 160.0
1002.335876 216.0
1008.387756 216.0
1047.753418 196.0
1049.325928 180.0
1091.262817 180.0
1098.784058 116.0
1100.532959 212.0
1105.126587 140.0
1108.960693 40.0
1109.716431 160.0
1115.106567 136.0
1124.470703 176.0
1135.261597 188.0
1139.611206 160.0
1149.016602 116.0
1153.79126 124.0
1157.918823 112.0
1158.812988 200.0
1162.080933 176.0
1163.356812 200.0
1169.624146 172.0
1170.699829 188.0
1174.202759 172.0
1178.858521 120.0
1193.974487 156.0
1208.21814 196.0
1217.874146 204.0
1241.28833 64.0
1249.885986 132.0
1253.80835 152.0
1256.508911 128.0
1260.081299 144.0
1272.006836 112.0
1273.59021 140.0
1273.90271 204.0
1275.800171 184.0
1279.074951 216.0
1279.734375 116.0
1279.876831 136.0
1281.0448 144.0
1282.826294 64.0
1286.62146 220.0
1293.584229 192.0
1296.155273 232.0
1297.130005 60.0
1299.970093 268.0
1301.362671 208.0
1301.434448 184.0
1305.098755 188.0
1308.35791 200.0
1341.624878 180.0
1346.126587 196.0
1354.837524 160.0
1357.446777 228.0
1359.823608 128.0
1363.091553 160.0
1365.201294 152.0
1371.628784 132.0
1373.479492 144.0
1374.925537 116.0
1375.988525 108.0
1385.425049 232.0
1386.566162 164.0
1386.973755 180.0
1392.768677 180.0
1394.908691 116.0
1397.615723 152.0
1401.278931 88.0
1406.715454 140.0
1407.618896 152.0
1412.446777 156.0
1414.309937 180.0
1416.443848 136.0
1418.02478 152.0
1430.975098 152.0
1432.775146 220.0
1443.704468 160.0
1446.95813 176.0
1464.354736 176.0
1469.553589 176.0
1469.6604 120.0
1471.30896 120.0
1484.223755 176.0
1485.0979 152.0
1486.900879 60.0
1488.213501 160.0
1490.68689 164.0
1491.217163 128.0
1492.993042 184.0
1496.625122 168.0
