>compound TOCAINIDE
>formula C11H16N2O
>ionization [M+H]+
>parentmass 193.133942
#inchi InChI=1S/C11H16N2O/c1-7-5-4-6-8(2)10(7)13-11(14)9(3)12/h4-6,9H,12H2,1-3H3,(H,13,14)
#inchikey BUJAGSGYPOAWEI
#Ion_Source LC-ESI
#Instrument qTof
#Compound_Source Commercial
#PI Dorrestein
#Data_Collector Garg_Neha
#Scan -1
#Precursor_MZ 193.134
#ExactMass 192.126
#Charge 1
#CAS_Number N/A
#Pubmed_ID N/A
#Smiles CC(N)C(=O)Nc1c(C)cccc1C
#INCHI_AUX N/A
#Library_Class 1
#SpectrumID CCMSLIB00000078994
#IonMode Positive
#UpdateWorkflowName UPDATE-SINGLE-ANNOTATED-GOLD
#LibraryQualityString Gold
#TaskID 278b19f5865741e282cec7349aa7e7a1
##Scan# 991
#SpectrumFile NCP003352_C2_D11_BC5_01_15719.mzXML
#LibraryName NIHcollectionI_05062014.mgf
#MQScore -1
#Organism NIHcollectionI_05062014
#TIC_Query 0
#RT_Query -1
#MZErrorPPM -1
#SharedPeaks 0
#MassDiff 0
#LibMZ -1
#SpecMZ 193.134
#SpecCharge 0
#internalFilename spec-00000.mgf

>collision 10
49.17775 144.0
64.084045 164.0
66.421623 176.0
67.225349 180.0
70.09478 180.0
75.398781 144.0
81.392815 148.0
83.383598 148.0
89.344055 248.0
89.694313 172.0
92.982994 176.0
94.014526 176.0
96.892342 160.0
103.053604 268.0
103.45517 148.0
104.659111 172.0
104.928055 156.0
105.070328 600.0
106.072182 304.0
107.073944 720.0
108.077621 148.0
113.94574 172.0
115.055313 152.0
115.752327 144.0
117.077293 168.0
121.103996 168.0
121.494179 200.0
122.096695 9284.0
123.079758 224.0
123.099586 772.0
123.973137 100.0
124.177284 140.0
132.080261 424.0
133.089264 180.0
133.960785 152.0
134.108368 232.0
136.930374 152.0
143.784409 228.0
144.082886 144.0
148.04422 176.0
148.111313 588.0
149.966934 460.0
150.091324 876.0
154.969528 156.0
158.097198 188.0
161.090424 144.0
163.124054 192.0
163.961441 152.0
167.9767 160.0
175.118347 208.0
175.334991 196.0
176.107391 316.0
178.123718 144.0
187.932037 184.0
192.140778 188.0
193.043976 160.0
193.090988 228.0
193.133942 6888.0
194.085861 196.0
194.137009 948.0
195.146332 160.0
241.043091 152.0
1733.946289 244.0
1776.597046 152.0
1790.263672 168.0
1832.796265 144.0
1850.467896 180.0
1863.057739 160.0
1905.679077 132.0
1911.267456 204.0
1919.097778 148.0
1946.125122 180.0
1987.18457 144.0
1988.018677 192.0
1997.712158 160.0
