>compound MLS000859987-01!(+/-)-threo-1-Phenyl-2-decanoylamino-3-morpholino-1-propanol hydrochloride
>formula C23H38N2O3
>ionization [M+H]+
>parentmass 391.294403
#inchi InChI=1S/C23H38N2O3/c1-2-3-4-5-6-7-11-14-22(26)24-21(19-25-15-17-28-18-16-25)23(27)20-12-9-8-10-13-20/h8-10,12-13,21,23,27H,2-7,11,14-19H2,1H3,(H,24,26)/t21-,23-/m1/s1
#inchikey UYNCFCUHRNOSCN
#origInchi InChI=1S/C23H38N2O3.ClH/c1-2-3-4-5-6-7-11-14-22(26)24-21(19-25-15-17-28-18-16-25)23(27)20-12-9-8-10-13-20;/h8-10,12-13,21,23,27H,2-7,11,14-19H2,1H3,(H,24,26);1H/t21-,23-;/m1./s1
#Ion_Source LC-ESI
#Instrument qTof
#Compound_Source NIH Pharmacologically Active Library
#PI Dorrestein
#Data_Collector VP/LMS
#Scan -1
#Precursor_MZ 391.305
#ExactMass 390.288
#Charge 1
#CAS_Number N/A
#Pubmed_ID N/A
#Smiles CCCCCCCCCC(=O)N[C@H](CN1CCOCC1)[C@H](O)c2ccccc2.Cl
#INCHI_AUX N/A
#Library_Class 1
#SpectrumID CCMSLIB00000086075
#IonMode Positive
#UpdateWorkflowName UPDATE-SINGLE-ANNOTATED-GOLD
#LibraryQualityString Gold
#TaskID d252d724072548979f1f6f1ced849daf
##Scan# 1922
#SpectrumFile p5-D04_GD4_01_18455.mzXML
#LibraryName Pharm_Active_Library.mgf
#MQScore -1
#Organism Pharm_Active_Library
#TIC_Query 0
#RT_Query -1
#MZErrorPPM -1
#SharedPeaks 0
#MassDiff 0
#LibMZ -1
#SpecMZ 391.305
#SpecCharge 0
#internalFilename spec-00000.mgf

>collision 10
44.911335 136.0
44.934013 88.0
44.95108 192.0
44.972713 120.0
44.998074 132.0
45.037018 220.0
45.092262 172.0
45.110291 184.0
45.139706 148.0
45.180977 168.0
45.207928 108.0
45.235897 196.0
45.253036 308.0
45.276199 176.0
45.345867 196.0
45.363564 176.0
45.378036 136.0
45.388763 200.0
45.406925 140.0
45.430664 200.0
45.446453 196.0
45.471462 172.0
45.50856 296.0
45.576679 132.0
45.592125 160.0
45.626408 136.0
45.647919 72.0
45.672127 184.0
45.689472 152.0
45.71624 208.0
45.775089 148.0
45.796562 176.0
45.825592 168.0
45.85635 228.0
45.891167 116.0
45.894615 76.0
45.898945 132.0
45.978142 300.0
46.026405 208.0
46.068161 184.0
46.106258 204.0
46.148354 200.0
46.167091 108.0
46.213417 204.0
46.223907 88.0
46.253681 436.0
46.280758 172.0
46.30695 152.0
46.337643 144.0
46.352547 64.0
46.368809 100.0
46.388889 152.0
46.407871 176.0
46.439831 208.0
46.472664 224.0
46.515553 208.0
46.538372 180.0
46.598129 156.0
46.629383 160.0
46.650913 200.0
46.680416 52.0
46.706882 140.0
46.720486 108.0
46.799423 144.0
46.811676 28.0
46.834827 240.0
46.870247 64.0
46.893768 200.0
46.907043 224.0
46.925041 140.0
46.935677 220.0
46.959988 140.0
47.058472 120.0
47.09671 124.0
47.154091 168.0
47.17733 168.0
47.210144 200.0
47.255283 172.0
47.299072 72.0
47.34005 172.0
47.355209 136.0
47.414894 320.0
47.454697 180.0
47.463753 136.0
47.489525 60.0
47.503242 172.0
47.530682 176.0
47.542896 160.0
47.575974 184.0
47.607227 236.0
47.62793 196.0
47.691357 152.0
47.711975 176.0
47.743603 168.0
47.765606 156.0
47.786243 176.0
47.85368 176.0
47.866837 180.0
47.894135 128.0
47.921169 208.0
47.934948 160.0
47.959755 164.0
47.98494 192.0
48.016281 48.0
48.035591 152.0
48.050827 192.0
48.063183 124.0
48.117012 148.0
48.139801 208.0
48.184681 204.0
48.212318 240.0
48.241341 108.0
48.266228 64.0
48.299419 184.0
48.337502 188.0
48.370056 160.0
48.39629 180.0
48.415676 188.0
48.434002 208.0
48.455845 76.0
48.520985 172.0
48.539009 88.0
48.580616 256.0
48.63612 120.0
48.659199 160.0
48.699989 96.0
48.750942 176.0
48.7729 176.0
48.79726 148.0
48.816643 200.0
48.836739 176.0
48.847324 136.0
48.858452 132.0
48.891846 200.0
48.907734 232.0
48.923267 156.0
48.940052 228.0
49.007172 156.0
49.026932 180.0
49.041065 196.0
49.070072 168.0
49.138771 152.0
49.16151 196.0
49.186314 72.0
49.201698 160.0
49.279491 84.0
49.333996 148.0
49.350773 140.0
49.383259 172.0
49.410912 160.0
49.434696 148.0
49.515892 152.0
49.525696 88.0
49.536903 168.0
49.561443 120.0
49.609447 160.0
49.640957 148.0
49.683971 180.0
49.758476 64.0
49.769707 152.0
49.809029 204.0
49.821972 112.0
49.842747 152.0
49.893345 156.0
49.936935 40.0
49.951 148.0
49.970695 144.0
49.989338 224.0
50.005875 160.0
50.015724 112.0
50.030323 220.0
50.081902 116.0
50.098953 176.0
50.122757 168.0
50.152351 140.0
50.164726 200.0
50.168724 156.0
50.194645 164.0
50.22567 112.0
50.241188 160.0
50.276463 120.0
50.305172 176.0
50.33353 156.0
50.362583 60.0
50.403553 144.0
50.417183 192.0
50.429996 140.0
50.459427 164.0
50.4753 236.0
50.495438 144.0
50.512413 32.0
50.531586 208.0
50.55061 188.0
50.594456 188.0
50.627052 176.0
50.639797 152.0
50.71489 60.0
50.734566 200.0
50.738087 176.0
50.814819 204.0
50.879436 156.0
50.889374 116.0
50.902023 176.0
51.009327 208.0
51.037098 132.0
51.076473 128.0
51.098186 152.0
51.129017 204.0
51.151726 196.0
51.222149 200.0
51.244942 152.0
51.270592 200.0
51.286266 176.0
51.33902 40.0
51.363266 164.0
51.386932 196.0
51.416954 152.0
51.434063 156.0
51.449265 300.0
51.474583 184.0
51.488861 152.0
51.526001 116.0
51.55172 188.0
51.563152 168.0
51.587452 176.0
51.598888 148.0
51.611755 164.0
51.637497 308.0
51.669186 220.0
51.69434 140.0
51.714756 160.0
51.727638 176.0
51.737656 124.0
51.766293 152.0
51.78841 236.0
51.799232 44.0
51.827885 296.0
51.852245 176.0
51.866581 184.0
51.880913 188.0
51.893059 180.0
51.909855 152.0
51.948315 128.0
52.04734 108.0
52.06601 148.0
52.083302 192.0
52.109806 124.0
52.119156 164.0
52.16946 160.0
52.213978 168.0
52.234402 196.0
52.284527 184.0
52.294601 112.0
52.309937 232.0
52.365147 168.0
52.435741 208.0
52.481743 136.0
52.499176 196.0
52.50927 164.0
52.523579 204.0
52.582848 200.0
52.605942 132.0
52.62904 176.0
52.776417 172.0
52.795216 172.0
52.818356 104.0
52.829697 200.0
52.882019 228.0
52.916759 120.0
52.934811 232.0
52.961651 144.0
52.977585 316.0
53.026852 152.0
53.048592 148.0
53.097889 384.0
53.112713 120.0
53.124599 220.0
53.14431 228.0
53.168976 240.0
53.216991 156.0
53.235756 212.0
53.248825 152.0
53.281528 148.0
53.295227 136.0
53.340363 188.0
53.354622 168.0
53.388416 152.0
53.401428 60.0
53.41161 348.0
53.445072 48.0
53.461079 192.0
53.479996 140.0
53.514359 252.0
53.533936 164.0
53.56736 144.0
53.599415 132.0
53.621273 216.0
53.641678 212.0
53.719563 68.0
53.733551 140.0
53.748142 152.0
53.770996 164.0
53.781578 184.0
53.802143 144.0
53.820278 228.0
53.835747 144.0
53.857632 136.0
53.874439 164.0
53.90353 168.0
53.921967 120.0
53.939457 112.0
53.954075 116.0
53.974545 160.0
53.98624 160.0
54.01384 152.0
54.02866 184.0
54.159225 164.0
54.216076 132.0
54.228638 112.0
54.263859 184.0
54.292305 164.0
54.323109 196.0
54.338531 148.0
54.35685 156.0
54.375931 120.0
54.427307 268.0
54.469898 176.0
54.496342 172.0
54.508682 140.0
54.52573 88.0
54.536701 120.0
54.569828 164.0
54.583061 196.0
54.60659 92.0
54.632397 48.0
54.68626 212.0
54.697815 104.0
54.714046 148.0
54.737564 120.0
54.771435 88.0
54.8009 180.0
54.824474 184.0
54.853081 144.0
54.904083 160.0
54.920303 208.0
54.938007 36.0
54.960136 152.0
54.989803 232.0
55.01963 232.0
55.033936 164.0
55.060833 148.0
55.103611 136.0
55.11591 152.0
55.122559 228.0
55.144726 172.0
55.196468 92.0
55.217171 96.0
55.23048 536.0
55.25563 56.0
55.273384 268.0
55.299442 164.0
55.323151 140.0
55.366642 144.0
55.382935 216.0
55.399143 68.0
55.418098 168.0
55.519283 144.0
55.534214 184.0
55.556366 184.0
55.577137 148.0
55.594254 164.0
55.635048 200.0
55.656723 252.0
55.67065 192.0
55.699577 128.0
55.731319 180.0
55.736713 152.0
55.77911 144.0
55.792488 168.0
55.811813 104.0
55.822224 116.0
55.847504 164.0
55.890648 176.0
55.912968 236.0
55.939758 156.0
55.95018 100.0
56.005276 208.0
56.018681 116.0
56.052319 180.0
56.064869 136.0
56.100903 136.0
56.157303 64.0
56.241726 240.0
56.28587 196.0
56.304512 276.0
56.346123 164.0
56.366302 180.0
56.387222 156.0
56.419041 168.0
56.425713 48.0
56.431606 156.0
56.49287 488.0
56.508343 172.0
56.527798 132.0
56.538273 148.0
56.566708 60.0
56.59893 192.0
56.622074 184.0
56.624069 180.0
56.629971 240.0
56.653561 228.0
56.753975 168.0
56.851475 80.0
56.864983 140.0
56.891758 124.0
56.924377 200.0
56.944553 124.0
56.995632 208.0
57.022678 172.0
57.037708 220.0
57.058754 80.0
57.069279 188.0
57.098293 176.0
57.119503 192.0
57.132446 156.0
57.165546 100.0
57.186615 152.0
57.221237 164.0
57.278461 160.0
57.312206 160.0
57.349277 188.0
57.376411 60.0
57.413185 220.0
57.446495 188.0
57.465393 184.0
57.499405 156.0
57.511589 164.0
57.534817 52.0
57.57938 84.0
57.596043 132.0
57.610325 96.0
57.632984 144.0
57.664719 112.0
57.687393 168.0
57.709934 224.0
57.770561 148.0
57.822006 136.0
57.839001 328.0
57.85228 188.0
57.878017 184.0
57.895153 164.0
57.947689 148.0
57.961327 88.0
58.020435 124.0
58.049385 128.0
58.122314 208.0
58.146332 188.0
58.156956 132.0
58.211609 48.0
58.22393 176.0
58.248058 64.0
58.293636 164.0
58.304276 148.0
58.337711 156.0
58.386368 260.0
58.479172 152.0
58.500381 120.0
58.537922 268.0
58.60252 152.0
58.613186 144.0
58.640614 200.0
58.674149 152.0
58.684822 68.0
58.73362 144.0
58.760239 160.0
58.797077 220.0
58.829754 200.0
58.863342 180.0
58.882675 180.0
58.924438 40.0
58.936031 160.0
59.017193 180.0
59.046722 120.0
59.068134 88.0
59.145809 268.0
59.205883 188.0
59.230389 112.0
59.254532 184.0
59.280945 28.0
59.354523 176.0
59.369858 184.0
59.383659 52.0
59.429161 224.0
59.497211 124.0
59.514099 120.0
59.529709 120.0
59.539513 160.0
59.572456 132.0
59.606258 144.0
59.624699 80.0
59.670811 152.0
59.770134 160.0
59.821575 140.0
59.836967 188.0
59.855446 124.0
59.870846 144.0
59.895485 136.0
59.929379 64.0
59.947868 172.0
59.975609 144.0
60.002285 184.0
60.018776 112.0
60.060413 208.0
60.078922 132.0
60.139179 160.0
60.176151 60.0
60.203945 172.0
60.221752 212.0
60.234833 108.0
60.279636 156.0
60.324459 208.0
60.342556 260.0
60.378574 144.0
60.406414 96.0
60.421883 96.0
60.452827 212.0
60.474495 40.0
60.486877 140.0
60.531776 40.0
60.545712 144.0
60.627819 52.0
60.655251 172.0
60.692924 112.0
60.703777 112.0
60.744102 256.0
60.770473 204.0
60.798405 148.0
60.880489 356.0
60.91951 124.0
60.935047 40.0
60.994747 192.0
61.033062 180.0
61.102955 164.0
61.152748 140.0
61.179211 168.0
61.30537 276.0
61.317837 224.0
61.348671 220.0
61.43634 176.0
61.4613 80.0
61.506557 188.0
61.528278 232.0
61.545586 172.0
61.581505 260.0
61.668037 192.0
61.701824 164.0
61.728405 188.0
61.786274 160.0
61.806614 172.0
61.842609 32.0
61.881744 188.0
61.898968 164.0
61.92585 192.0
61.967884 200.0
61.983551 140.0
62.003201 200.0
62.033703 164.0
62.05722 96.0
62.081238 176.0
62.110538 180.0
62.126225 136.0
62.143326 160.0
62.195465 128.0
62.258068 116.0
62.29105 160.0
62.336613 132.0
62.355469 132.0
62.36647 136.0
62.413631 136.0
62.424641 120.0
62.443512 140.0
62.454521 136.0
62.467106 44.0
62.489128 124.0
62.509583 164.0
62.523746 128.0
62.566181 192.0
62.572201 184.0
62.597733 108.0
62.667038 200.0
62.683147 180.0
62.744267 192.0
62.764763 108.0
62.797878 164.0
62.846779 136.0
62.868656 176.0
62.929104 176.0
62.953602 160.0
62.987282 264.0
63.013401 248.0
63.037529 164.0
63.053642 156.0
63.071026 236.0
63.093159 360.0
63.110813 168.0
63.174953 116.0
63.207951 152.0
63.249763 160.0
63.354359 224.0
63.458874 204.0
63.481609 248.0
63.500103 128.0
63.531826 88.0
63.581013 44.0
63.633762 172.0
63.652802 180.0
63.664696 140.0
63.678886 296.0
63.719154 176.0
63.739685 152.0
63.75729 112.0
63.7859 180.0
63.797752 148.0
63.814514 216.0
63.868584 208.0
63.913464 132.0
63.975197 236.0
64.001076 156.0
64.017815 184.0
64.038277 220.0
64.062935 124.0
64.097229 180.0
64.107597 92.0
64.127739 160.0
64.142456 156.0
64.163399 144.0
64.177528 180.0
64.198257 104.0
64.234528 184.0
64.266846 160.0
64.298164 236.0
64.313126 212.0
64.363914 152.0
64.426262 188.0
64.432648 160.0
64.46804 80.0
64.486397 132.0
64.535172 208.0
64.551163 148.0
64.565559 184.0
64.593048 128.0
64.675949 180.0
64.703163 208.0
64.723976 132.0
64.767525 208.0
64.785789 228.0
64.793404 92.0
64.796944 108.0
64.823288 64.0
64.898628 128.0
64.910988 364.0
64.925888 184.0
64.985237 104.0
64.99807 152.0
65.026955 240.0
65.060387 160.0
65.073509 164.0
65.108833 132.0
65.144173 108.0
65.157387 176.0
65.17997 256.0
65.197723 144.0
65.210045 72.0
65.26149 112.0
65.280785 208.0
65.341904 128.0
65.389763 156.0
65.409492 140.0
65.433105 216.0
65.452957 260.0
65.488388 132.0
65.551216 168.0
65.56572 172.0
65.578613 148.0
65.594734 208.0
65.606018 128.0
65.649551 128.0
65.671959 112.0
65.684608 192.0
65.708694 348.0
65.778221 192.0
65.857498 132.0
65.911049 72.0
65.93206 132.0
65.962769 160.0
66.009651 36.0
66.025826 140.0
66.111565 196.0
66.224892 244.0
66.252426 172.0
66.289696 124.0
66.32859 152.0
66.416145 144.0
66.43399 132.0
66.451439 244.0
66.510399 228.0
66.534607 228.0
66.568703 124.0
66.587753 164.0
66.604431 168.0
66.615799 144.0
66.631386 196.0
66.679169 152.0
66.714928 280.0
66.732811 132.0
66.762077 92.0
66.825516 216.0
66.848297 148.0
66.88974 164.0
66.92643 136.0
66.944344 228.0
66.965904 132.0
66.983635 160.0
67.02253 136.0
67.054878 220.0
67.093521 204.0
67.1138 156.0
67.135002 172.0
67.149017 140.0
67.162727 104.0
67.175774 176.0
67.188431 196.0
67.203506 224.0
67.260628 152.0
67.274704 284.0
67.350357 176.0
67.363503 120.0
67.384735 52.0
67.445198 144.0
67.520615 188.0
67.565826 188.0
67.600571 164.0
67.613663 196.0
67.628204 72.0
67.63932 200.0
67.667679 128.0
67.724991 104.0
67.759857 196.0
67.779053 164.0
67.7938 152.0
67.826134 332.0
67.867561 180.0
67.894775 168.0
67.908562 172.0
67.919983 196.0
67.94957 124.0
67.979103 200.0
68.029305 156.0
68.033722 216.0
68.046165 140.0
68.084167 136.0
68.200813 116.0
68.236977 212.0
68.249611 228.0
68.269859 200.0
68.299469 296.0
68.315918 88.0
68.388313 68.0
68.416298 156.0
68.432762 124.0
68.505226 128.0
68.516754 244.0
68.533234 176.0
68.554649 152.0
68.569481 136.0
68.582672 152.0
68.655678 256.0
68.669731 144.0
68.793808 164.0
68.81031 180.0
68.864273 148.0
68.871086 100.0
68.876732 128.0
68.894539 216.0
68.91394 208.0
68.945763 108.0
68.977318 200.0
68.990387 220.0
69.028488 180.0
69.056915 188.0
69.071411 168.0
69.099533 160.0
69.122704 280.0
69.147522 204.0
69.167145 164.0
69.228645 196.0
69.255142 188.0
69.275017 64.0
69.347389 92.0
69.379417 120.0
69.414238 184.0
69.43911 172.0
69.470627 176.0
69.524963 256.0
69.548615 140.0
69.572014 168.0
69.589325 168.0
69.644638 164.0
69.747932 140.0
69.772964 176.0
69.791153 140.0
69.841042 180.0
69.853745 180.0
69.883415 212.0
69.924232 128.0
69.953918 144.0
69.979164 152.0
70.010239 352.0
70.04023 188.0
70.064102 76.0
70.107422 88.0
70.148033 176.0
70.175766 144.0
70.232872 148.0
70.253922 208.0
70.282509 80.0
70.297844 212.0
70.318443 156.0
70.349266 168.0
70.36364 184.0
70.379814 180.0
70.402969 244.0
70.424248 168.0
70.457031 340.0
70.492905 152.0
70.513542 140.0
70.532059 128.0
70.58448 224.0
70.589325 176.0
70.624275 136.0
70.643379 120.0
70.655083 124.0
70.691895 268.0
70.712418 136.0
70.747131 188.0
70.77108 196.0
70.790657 144.0
70.805443 184.0
70.829552 228.0
70.842583 152.0
70.860756 320.0
70.88279 192.0
70.933067 184.0
70.944801 168.0
70.973305 196.0
70.992409 172.0
71.037796 184.0
71.073944 128.0
71.094078 196.0
71.109184 120.0
71.12429 144.0
71.209915 92.0
71.228394 156.0
71.250229 236.0
71.362831 148.0
71.40992 244.0
71.423378 180.0
71.440193 116.0
71.487305 156.0
71.543427 128.0
71.576523 172.0
71.640518 184.0
71.689651 148.0
71.721405 84.0
71.7332 124.0
71.767288 184.0
71.790527 180.0
71.819199 128.0
71.899551 204.0
71.939003 128.0
71.955299 204.0
71.967003 396.0
71.986275 180.0
72.030182 56.0
72.053833 204.0
72.068031 196.0
72.194122 132.0
72.207603 156.0
72.221184 156.0
72.233025 160.0
72.253326 136.0
72.265167 140.0
72.279083 324.0
72.306313 200.0
72.329475 400.0
72.348099 156.0
72.364838 216.0
72.397194 152.0
72.419685 172.0
72.437843 252.0
72.451401 156.0
72.464088 148.0
72.493759 168.0
72.505615 128.0
72.548973 104.0
72.571777 252.0
72.615814 168.0
72.627686 236.0
72.687065 220.0
72.707428 164.0
72.736687 140.0
72.75071 128.0
72.804192 128.0
72.846657 148.0
72.860245 124.0
72.882332 164.0
72.936714 208.0
72.962212 84.0
72.987717 144.0
73.003021 304.0
73.064255 172.0
73.111633 156.0
73.174835 176.0
73.210632 52.0
73.234474 176.0
73.249802 128.0
73.273651 212.0
73.304321 184.0
73.331696 188.0
73.371132 184.0
73.39978 132.0
73.437294 340.0
73.461327 304.0
73.505196 180.0
73.521629 132.0
73.580635 144.0
73.594376 172.0
73.625816 148.0
73.666023 72.0
73.722404 164.0
73.819107 148.0
73.863869 156.0
73.880547 148.0
73.925819 172.0
73.950043 184.0
73.970398 176.0
74.02005 104.0
74.086845 224.0
74.126251 172.0
74.138245 172.0
74.167381 64.0
74.223953 160.0
74.258255 196.0
74.285698 176.0
74.301132 344.0
74.368996 168.0
74.390373 200.0
74.42141 152.0
74.443596 208.0
74.476227 212.0
74.494499 344.0
74.539787 136.0
74.596504 188.0
74.615166 136.0
74.694427 368.0
74.71344 216.0
74.735313 84.0
74.751297 132.0
74.768501 176.0
74.783775 160.0
74.829163 116.0
74.878189 308.0
74.951668 164.0
74.982018 196.0
74.99929 136.0
75.045837 196.0
75.078735 100.0
75.142418 104.0
75.181137 200.0
75.211952 156.0
75.23996 148.0
75.253044 200.0
75.282562 124.0
75.317123 216.0
75.347862 68.0
75.376991 168.0
75.425507 236.0
75.465385 136.0
75.482498 312.0
75.495201 132.0
75.518997 180.0
75.534561 232.0
75.579544 128.0
75.597015 40.0
75.617615 184.0
75.631134 224.0
75.673004 116.0
75.686852 116.0
75.728416 148.0
75.742271 116.0
75.835838 148.0
75.858368 196.0
75.929459 128.0
75.955147 168.0
75.990845 284.0
76.010994 156.0
76.049171 436.0
76.072311 144.0
76.101448 172.0
76.120346 204.0
76.135979 88.0
76.182472 208.0
76.21936 176.0
76.236732 160.0
76.325386 168.0
76.341034 188.0
76.421051 180.0
76.434967 220.0
76.446686 164.0
76.45208 120.0
76.483093 164.0
76.519829 180.0
76.538559 80.0
76.575974 176.0
76.60733 132.0
76.661499 224.0
76.684952 176.0
76.70491 88.0
76.725792 172.0
76.738358 236.0
76.757217 52.0
76.778137 40.0
76.793839 128.0
76.959618 136.0
76.994537 120.0
77.017242 212.0
77.040154 208.0
77.087128 172.0
77.197639 220.0
77.233093 212.0
77.288216 212.0
77.348267 228.0
77.389732 88.0
77.469582 148.0
77.487808 200.0
77.517944 160.0
77.577484 140.0
77.606987 104.0
77.699944 160.0
77.726257 232.0
77.76136 112.0
77.845039 180.0
77.900391 176.0
77.979141 116.0
78.01609 192.0
78.031876 196.0
78.053879 264.0
78.079346 148.0
78.119804 176.0
78.197472 200.0
78.211189 120.0
78.23243 116.0
78.246513 128.0
78.264114 180.0
78.297577 172.0
78.353943 32.0
78.426277 76.0
78.443817 168.0
78.456154 168.0
78.49102 168.0
78.535507 160.0
78.616661 112.0
78.644897 144.0
78.662544 192.0
78.680199 172.0
78.727592 152.0
78.802063 120.0
78.817963 92.0
78.857475 188.0
78.881584 132.0
78.973526 164.0
79.035446 136.0
79.069069 156.0
79.121765 212.0
79.150093 192.0
79.213173 200.0
79.235512 172.0
79.252907 244.0
79.350708 104.0
79.386169 128.0
79.40625 144.0
79.464218 100.0
79.483734 196.0
79.497932 148.0
79.539772 340.0
79.563599 172.0
79.58313 156.0
79.629303 172.0
79.725235 92.0
79.764336 172.0
79.778557 148.0
79.839012 312.0
79.855019 120.0
79.925819 204.0
79.970665 116.0
80.024185 176.0
80.075195 140.0
80.097076 144.0
80.113831 88.0
80.144409 188.0
80.175606 156.0
80.223595 200.0
80.24118 176.0
80.280815 172.0
80.335938 172.0
80.357346 196.0
80.371758 108.0
80.435555 68.0
80.447723 156.0
80.480499 284.0
80.546577 144.0
80.596596 148.0
80.614464 140.0
80.646637 80.0
80.663994 220.0
80.685959 104.0
80.7248 200.0
80.77359 188.0
80.804001 60.0
80.834412 164.0
80.846939 260.0
80.864716 120.0
80.867073 112.0
80.879333 164.0
80.903084 260.0
80.92749 156.0
80.941101 204.0
80.956139 148.0
81.008354 184.0
81.03492 216.0
81.057587 152.0
81.091545 200.0
81.117386 48.0
81.150269 272.0
81.171173 168.0
81.190903 152.0
81.22139 148.0
81.241447 152.0
81.271622 72.0
81.299454 188.0
81.323372 292.0
81.359558 156.0
81.402649 176.0
81.514023 208.0
81.528397 260.0
81.563881 264.0
81.598503 124.0
81.654243 184.0
81.704605 136.0
81.742691 180.0
81.837791 100.0
81.91523 40.0
81.947655 340.0
81.983559 348.0
82.014572 120.0
82.067879 216.0
82.09185 168.0
82.106277 84.0
82.133331 112.0
82.156784 152.0
82.212463 180.0
82.288895 136.0
82.302971 160.0
82.320648 172.0
82.353539 180.0
82.405922 168.0
82.451096 160.0
82.479141 180.0
82.496284 168.0
82.528824 100.0
82.601166 84.0
82.653625 156.0
82.673531 200.0
82.687012 188.0
82.733261 184.0
82.77002 132.0
82.82666 208.0
82.841919 124.0
82.87307 300.0
82.963333 152.0
82.976021 88.0
83.001404 204.0
83.014099 128.0
83.037674 136.0
83.063911 248.0
83.088463 168.0
83.159233 164.0
83.193718 180.0
83.242737 184.0
83.262711 184.0
83.300858 168.0
83.350304 204.0
83.388115 168.0
83.424423 100.0
83.462601 216.0
83.478966 128.0
83.493515 240.0
83.52063 44.0
83.570465 160.0
83.588112 140.0
83.602669 104.0
83.685638 144.0
83.713715 164.0
83.757423 220.0
83.770172 136.0
83.80114 68.0
83.817345 184.0
83.843056 136.0
83.866745 192.0
83.906853 32.0
83.934196 164.0
83.950607 136.0
84.007149 100.0
84.052757 176.0
84.080132 100.0
84.107513 136.0
84.125763 176.0
84.144905 152.0
84.222542 124.0
84.237152 164.0
84.253593 192.0
84.268211 124.0
84.293793 136.0
84.366859 176.0
84.373192 172.0
84.379517 80.0
84.386116 164.0
84.418091 156.0
84.444145 180.0
84.47113 200.0
84.493088 52.0
84.526016 192.0
84.577263 152.0
84.665962 160.0
84.678505 172.0
84.699936 152.0
84.725586 44.0
84.771393 164.0
84.831871 160.0
84.884056 260.0
84.938965 148.0
85.006485 232.0
85.051987 344.0
85.08136 144.0
85.132301 204.0
85.173172 36.0
85.279739 88.0
85.29261 120.0
85.314323 212.0
85.347763 180.0
85.382652 152.0
85.453552 172.0
85.50412 276.0
85.531769 176.0
85.56118 168.0
85.601685 192.0
85.640358 164.0
85.65403 164.0
85.72142 208.0
85.749062 172.0
85.780991 136.0
85.887344 160.0
85.900253 156.0
85.928047 172.0
85.944534 200.0
85.962982 128.0
85.982635 160.0
85.989319 104.0
86.008659 176.0
86.02758 208.0
86.040504 68.0
86.071892 152.0
86.130989 172.0
86.19944 156.0
86.215981 152.0
86.245544 180.0
86.26403 156.0
86.309647 208.0
86.344627 224.0
86.399025 188.0
86.413826 160.0
86.426781 224.0
86.452682 156.0
86.465637 180.0
86.524872 204.0
86.584404 160.0
86.664314 180.0
86.705429 148.0
86.795372 156.0
86.858429 156.0
86.895531 132.0
86.944092 164.0
86.967903 196.0
86.984612 204.0
87.063644 164.0
87.081161 188.0
87.098961 140.0
87.123878 160.0
87.166611 168.0
87.183334 160.0
87.198204 156.0
87.214935 156.0
87.259544 284.0
87.34137 184.0
87.367409 144.0
87.40834 176.0
87.438118 160.0
87.516304 168.0
87.533058 156.0
87.546951 184.0
87.5606 132.0
87.581482 180.0
87.661697 148.0
87.676498 176.0
87.702591 108.0
87.74424 152.0
87.765976 72.0
87.81073 148.0
87.827515 52.0
87.85363 124.0
87.867897 260.0
87.907738 52.0
87.922661 56.0
87.952187 228.0
87.97657 200.0
88.017868 172.0
88.038406 136.0
88.060822 160.0
88.086586 236.0
88.126701 120.0
88.140167 152.0
88.189735 164.0
88.249557 112.0
88.310333 216.0
88.338188 172.0
88.366417 324.0
88.46283 52.0
88.489037 164.0
88.53772 116.0
88.562706 188.0
88.621323 260.0
88.648247 152.0
88.666985 112.0
88.755089 72.0
88.771965 208.0
88.798218 128.0
88.824959 172.0
88.839485 268.0
88.881577 356.0
88.935654 176.0
88.951393 120.0
88.968506 176.0
88.98587 176.0
89.037651 320.0
89.062859 120.0
89.076012 192.0
89.124008 328.0
89.143646 176.0
89.168076 88.0
89.18499 164.0
89.248909 112.0
89.273811 308.0
89.29216 156.0
89.312851 112.0
89.449417 156.0
89.499153 148.0
89.636658 148.0
89.672462 80.0
89.693192 164.0
89.75164 232.0
89.784988 196.0
89.816681 204.0
89.84594 56.0
89.881622 228.0
89.959167 136.0
89.997665 204.0
90.027138 256.0
90.054794 272.0
90.106468 200.0
90.170708 68.0
90.209358 232.0
90.233093 176.0
90.29686 200.0
90.34845 180.0
90.376831 156.0
90.397644 168.0
90.427925 120.0
90.442894 224.0
90.496071 136.0
90.600235 172.0
90.617287 140.0
90.65139 176.0
90.667465 216.0
90.740479 164.0
90.783508 392.0
90.803047 56.0
90.899796 164.0
90.937752 220.0
90.964752 196.0
90.996597 96.0
91.02549 148.0
91.054848 15476.0
91.109627 148.0
91.149208 104.0
91.182755 44.0
91.200417 244.0
91.24659 240.0
91.296661 168.0
91.305634 120.0
91.371002 84.0
91.426178 152.0
91.448067 136.0
91.466148 52.0
91.504135 348.0
91.508598 188.0
91.516281 216.0
91.540398 212.0
91.553726 100.0
91.577904 244.0
91.595627 188.0
91.620392 140.0
91.633728 192.0
91.654686 156.0
91.698517 240.0
91.723297 68.0
91.767143 52.0
91.787781 208.0
91.791084 172.0
91.808792 180.0
91.897842 208.0
91.918266 172.0
91.966217 188.0
92.001747 140.0
92.013405 148.0
92.058632 2804.0
92.097542 196.0
92.154579 76.0
92.169868 232.0
92.208084 228.0
92.221634 180.0
92.252052 44.0
92.272057 120.0
92.290283 292.0
92.303673 124.0
92.333366 144.0
92.364868 120.0
92.38591 148.0
92.437569 96.0
92.479668 192.0
92.50264 160.0
92.527657 120.0
92.550499 120.0
92.569443 184.0
92.583054 300.0
92.602203 144.0
92.654167 308.0
92.699905 132.0
92.726677 120.0
92.731651 128.0
92.738274 196.0
92.768906 60.0
92.788811 188.0
92.807251 140.0
92.970299 180.0
93.004845 124.0
93.052834 132.0
93.074478 212.0
93.120041 184.0
93.139244 196.0
93.166138 144.0
93.187271 180.0
93.20649 200.0
93.221855 180.0
93.256454 64.0
93.288872 148.0
93.394882 116.0
93.444901 284.0
93.479538 136.0
93.506477 164.0
93.523796 136.0
93.541122 132.0
93.564224 172.0
93.620064 168.0
93.668213 176.0
93.692451 140.0
93.727432 204.0
93.751053 136.0
93.770325 172.0
93.874184 188.0
93.891785 100.0
93.997887 172.0
94.015251 172.0
94.043152 224.0
94.059441 192.0
94.075081 164.0
94.107903 204.0
94.148453 180.0
94.206154 168.0
94.246971 244.0
94.268227 36.0
94.361 152.0
94.378403 36.0
94.42868 120.0
94.444664 136.0
94.468117 164.0
94.505882 244.0
94.531044 232.0
94.552498 200.0
94.574318 132.0
94.597015 52.0
94.614441 244.0
94.670586 192.0
94.719353 156.0
94.792625 164.0
94.84108 208.0
94.879845 36.0
94.901176 132.0
94.916687 100.0
94.936073 140.0
94.960121 164.0
94.990082 504.0
95.025299 208.0
95.038879 128.0
95.058289 64.0
95.088028 152.0
95.116508 156.0
95.130096 172.0
95.143684 260.0
95.212318 196.0
95.256317 136.0
95.273796 56.0
95.295166 112.0
95.335976 328.0
95.393532 52.0
95.422256 164.0
95.448723 196.0
95.472054 256.0
95.505119 152.0
95.590714 180.0
95.623802 216.0
95.680252 104.0
95.693878 128.0
95.754242 88.0
95.781509 132.0
95.812675 144.0
95.828262 184.0
95.89257 56.0
95.969666 152.0
96.009544 192.0
96.049515 356.0
96.078529 136.0
96.10199 152.0
96.152176 176.0
96.181061 184.0
96.256126 88.0
96.274948 72.0
96.302467 132.0
96.325722 116.0
96.35112 184.0
96.376518 220.0
96.396057 192.0
96.412766 160.0
96.464378 188.0
96.491608 176.0
96.515297 104.0
96.579826 204.0
96.605255 152.0
96.620911 176.0
96.6483 36.0
96.671783 112.0
96.693306 224.0
96.707008 96.0
96.810356 192.0
96.875404 196.0
96.891075 132.0
96.914505 104.0
96.947159 216.0
97.040024 144.0
97.087349 148.0
97.110619 148.0
97.128265 140.0
97.236176 52.0
97.259727 68.0
97.297028 120.0
97.310768 272.0
97.375839 176.0
97.391281 100.0
97.434502 52.0
97.460037 76.0
97.477722 216.0
97.507202 132.0
97.562241 160.0
97.58049 140.0
97.595657 124.0
97.61541 276.0
97.636955 188.0
97.747116 192.0
97.762283 232.0
97.867188 136.0
97.882935 168.0
97.912476 180.0
97.951866 208.0
97.978203 140.0
97.993233 84.0
98.059822 736.0
98.085808 168.0
98.107544 152.0
98.230171 172.0
98.255447 140.0
98.294907 188.0
98.322533 172.0
98.386681 180.0
98.40741 132.0
98.456779 136.0
98.480301 176.0
98.524109 144.0
98.565422 168.0
98.58123 108.0
98.602974 160.0
98.623985 164.0
98.654366 64.0
98.675117 112.0
98.699837 256.0
98.741364 192.0
98.796745 164.0
98.881279 244.0
98.915474 100.0
98.931313 172.0
98.992691 128.0
99.038239 112.0
99.063988 108.0
99.081818 152.0
99.125412 128.0
99.139282 208.0
99.173004 112.0
99.210632 192.0
99.230209 128.0
99.307472 312.0
99.325974 168.0
99.356537 392.0
99.373947 184.0
99.403885 160.0
99.456604 204.0
99.482407 172.0
99.504242 176.0
99.520836 112.0
99.604195 108.0
99.620796 436.0
99.65004 228.0
99.673065 132.0
99.694923 132.0
99.710999 196.0
99.742622 48.0
99.75853 156.0
99.784172 292.0
99.788788 236.0
99.817589 260.0
99.82589 204.0
99.828644 120.0
99.846397 188.0
99.865173 200.0
99.879097 384.0
99.908615 204.0
99.953133 236.0
99.966888 332.0
99.977112 80.0
99.980553 148.0
99.99691 304.0
100.008087 284.0
100.014297 252.0
100.02285 264.0
100.051521 676.0
100.077248 151920.0
100.118958 164.0
100.126762 56.0
100.133171 160.0
100.149307 52.0
100.163521 132.0
100.181946 136.0
100.214836 120.0
100.272316 240.0
100.292892 44.0
100.314148 68.0
100.333847 204.0
100.356804 192.0
100.382378 284.0
100.404221 1944.0
100.433052 72.0
100.455391 76.0
100.478271 160.0
100.501381 60.0
100.521332 24.0
100.542534 32.0
100.568192 76.0
100.591064 132.0
100.614929 116.0
100.640381 56.0
100.645889 100.0
100.658928 172.0
100.674759 176.0
100.696007 164.0
100.744949 152.0
100.778908 60.0
100.816872 60.0
100.836861 136.0
100.8731 224.0
100.89827 72.0
100.932816 140.0
100.948814 172.0
100.977707 152.0
101.017433 176.0
101.052383 92.0
101.079605 13208.0
101.12706 40.0
101.148056 68.0
101.172897 64.0
101.228958 228.0
101.249924 120.0
101.285034 44.0
101.306213 56.0
101.324303 152.0
101.355431 120.0
101.405701 68.0
101.440033 136.0
101.478493 128.0
101.519241 224.0
101.525848 236.0
101.552185 120.0
101.572884 132.0
101.586395 188.0
101.609535 224.0
101.629578 124.0
101.648254 208.0
101.67672 236.0
101.709709 156.0
101.768883 268.0
101.830139 144.0
101.838402 36.0
101.850853 312.0
101.866745 80.0
101.889168 124.0
101.913567 156.0
101.936394 60.0
101.959167 148.0
101.982368 124.0
102.003082 132.0
102.009918 112.0
102.031487 184.0
102.036461 44.0
102.052307 244.0
102.080925 540.0
102.124245 112.0
102.140114 96.0
102.15522 156.0
102.205338 172.0
102.289017 60.0
102.343376 52.0
102.411842 208.0
102.433159 240.0
102.474792 48.0
102.506416 208.0
102.540787 80.0
102.562958 160.0
102.601257 68.0
102.616783 80.0
102.6315 240.0
102.655701 48.0
102.669815 60.0
102.711212 204.0
102.726288 144.0
102.774704 144.0
102.796906 200.0
102.827171 132.0
102.874084 100.0
102.893784 196.0
102.915993 52.0
102.938202 60.0
102.961006 164.0
102.979675 160.0
103.013092 100.0
103.055405 14012.0
103.098267 136.0
103.112549 60.0
103.13533 188.0
103.160446 112.0
103.189697 176.0
103.204926 108.0
103.219078 180.0
103.233231 72.0
103.251434 52.0
103.304024 48.0
103.319458 136.0
103.338409 32.0
103.358643 148.0
103.413284 156.0
103.459839 88.0
103.476036 112.0
103.492233 124.0
103.510033 76.0
103.515587 60.0
103.593498 60.0
103.644928 196.0
103.682251 124.0
103.764061 144.0
103.778633 124.0
103.824944 168.0
103.857002 100.0
103.903091 156.0
103.982796 144.0
104.025421 232.0
104.05825 1628.0
104.074753 252.0
104.104599 152.0
104.145218 72.0
104.214287 148.0
104.228516 72.0
104.259445 200.0
104.295578 196.0
104.376892 60.0
104.396187 140.0
104.460281 36.0
104.484688 92.0
104.529449 196.0
104.559975 152.0
104.631218 68.0
104.665833 68.0
104.685379 216.0
104.724884 100.0
104.746201 204.0
104.77298 144.0
104.780998 88.0
104.785065 192.0
104.820633 140.0
104.837852 192.0
104.852394 96.0
104.870453 316.0
104.883736 208.0
104.928658 80.0
104.944534 164.0
104.949699 100.0
104.961143 232.0
104.97229 220.0
104.997986 184.0
105.012154 288.0
105.027451 188.0
105.033974 208.0
105.071159 82604.0
105.129501 60.0
105.146378 224.0
105.199219 144.0
105.231995 72.0
105.27417 144.0
105.297997 60.0
105.329155 80.0
105.374084 112.0
105.40522 448.0
105.424995 160.0
105.464737 196.0
105.489311 128.0
105.510048 72.0
105.603302 52.0
105.65847 124.0
105.672066 172.0
105.696533 124.0
105.710945 232.0
105.731407 164.0
105.774391 76.0
105.851685 180.0
105.887001 44.0
105.917397 100.0
105.945518 140.0
105.97303 152.0
105.989426 92.0
106.003769 80.0
106.035713 144.0
106.073799 11580.0
106.117134 156.0
106.130295 88.0
106.183556 188.0
106.20121 104.0
106.2416 128.0
106.263855 52.0
106.325729 112.0
106.364235 84.0
106.403725 68.0
106.420151 128.0
106.434525 132.0
106.459167 96.0
106.481758 36.0
106.589172 124.0
106.636833 120.0
106.664314 136.0
106.683983 172.0
106.698143 104.0
106.733696 100.0
106.757133 76.0
106.785927 84.0
106.822952 148.0
106.845581 40.0
106.864098 92.0
106.893745 176.0
106.93428 152.0
106.9814 104.0
107.017662 72.0
107.048683 224.0
107.074318 180.0
107.10289 168.0
107.12635 72.0
107.152328 96.0
107.201782 92.0
107.222389 108.0
107.236816 140.0
107.259491 28.0
107.3069 172.0
107.352264 136.0
107.387321 84.0
107.401764 56.0
107.422386 96.0
107.451271 84.0
107.52681 92.0
107.563568 128.0
107.591606 32.0
107.641159 100.0
107.707863 112.0
107.7341 140.0
107.748558 72.0
107.83535 124.0
107.866348 48.0
107.935234 88.0
107.963524 52.0
107.980072 100.0
108.093849 136.0
108.147018 104.0
108.174561 128.0
108.271873 132.0
108.4086 176.0
108.435539 160.0
108.491508 104.0
108.50602 88.0
108.566147 100.0
108.599335 44.0
108.649117 132.0
108.759094 148.0
108.873283 140.0
108.895042 96.0
108.997917 120.0
109.022858 120.0
109.064423 40.0
109.101837 140.0
109.16629 192.0
109.222443 52.0
109.248344 204.0
109.343117 208.0
109.374344 184.0
109.40213 164.0
109.418053 144.0
109.478439 132.0
109.645096 80.0
109.666603 164.0
109.713882 40.0
109.743073 32.0
109.830658 112.0
109.945404 44.0
110.003845 152.0
110.031052 120.0
110.060234 404.0
110.09436 192.0
110.116592 172.0
110.145836 84.0
110.227318 208.0
110.271202 56.0
110.352142 188.0
110.377083 172.0
110.43219 120.0
110.523376 176.0
110.559807 220.0
110.595383 152.0
110.637253 104.0
110.733566 156.0
110.813171 184.0
110.840408 144.0
110.905373 152.0
110.945198 156.0
111.005806 172.0
111.06694 416.0
111.089897 96.0
111.157036 172.0
111.289207 140.0
111.316933 68.0
111.375366 96.0
111.490601 288.0
111.528755 204.0
111.568695 88.0
111.621254 52.0
111.707481 36.0
111.749557 84.0
111.764282 56.0
111.835838 216.0
111.979004 64.0
112.073799 124.0
112.089714 172.0
112.236099 148.0
112.28038 28.0
112.349983 120.0
112.398514 160.0
112.48082 160.0
112.552597 208.0
112.601166 116.0
112.628624 132.0
112.704674 164.0
112.732407 172.0
112.787094 260.0
112.801888 168.0
112.879395 124.0
112.958366 160.0
112.973175 108.0
113.146706 184.0
113.163643 148.0
113.199638 100.0
113.400894 164.0
113.422089 168.0
113.447525 212.0
113.462372 88.0
113.570511 80.0
113.763611 196.0
113.829422 40.0
113.869774 164.0
113.922874 132.0
113.958992 188.0
113.98024 68.0
114.016365 204.0
114.067375 176.0
114.090546 488.0
114.165176 144.0
114.199203 96.0
114.350258 192.0
114.42263 128.0
114.580231 176.0
114.668663 112.0
114.693169 180.0
114.828278 184.0
114.896492 92.0
114.917084 144.0
114.953712 172.0
115.015442 176.0
115.023277 184.0
115.055206 30084.0
115.096375 52.0
115.12999 172.0
115.158302 36.0
115.218063 168.0
115.262978 136.0
115.280159 100.0
115.307053 96.0
115.383522 60.0
115.444679 36.0
115.628654 48.0
115.645775 48.0
115.701431 176.0
115.780769 272.0
115.797791 140.0
115.909187 92.0
115.993027 100.0
116.057854 2976.0
116.088669 208.0
116.137909 108.0
116.215797 128.0
116.247986 124.0
116.323105 60.0
116.359596 180.0
116.37677 164.0
116.447639 136.0
116.570091 44.0
116.58728 136.0
116.613068 220.0
116.66983 236.0
116.704735 136.0
116.793274 128.0
116.810883 348.0
116.937828 44.0
117.068108 4096.0
117.116531 264.0
117.144539 200.0
117.161766 68.0
117.176849 44.0
117.223679 60.0
117.265198 60.0
117.314774 52.0
117.394547 36.0
117.47435 196.0
117.502396 212.0
117.528282 32.0
117.688004 212.0
117.744095 152.0
117.852158 132.0
117.968788 128.0
117.974419 84.0
118.012093 56.0
118.037788 204.0
118.068092 568.0
118.126717 84.0
118.204597 180.0
118.241386 160.0
118.295502 168.0
118.436249 60.0
118.553238 184.0
118.68763 216.0
118.752693 96.0
118.772209 156.0
118.839462 68.0
118.898048 28.0
118.971848 120.0
119.056526 136.0
119.078606 144.0
119.147751 176.0
119.217278 36.0
119.358574 124.0
119.44339 156.0
119.458618 188.0
119.571762 168.0
119.628349 196.0
119.661003 88.0
119.921883 184.0
120.042313 108.0
120.080841 580.0
120.147003 72.0
120.214638 132.0
120.284477 68.0
120.34124 140.0
120.393646 60.0
120.467903 128.0
120.485382 176.0
120.776115 100.0
120.887688 56.0
120.979614 180.0
121.023399 168.0
121.062813 228.0
121.085663 204.0
121.143852 144.0
121.165756 180.0
121.332314 100.0
121.523125 96.0
121.586754 212.0
121.648216 128.0
121.733841 128.0
121.76239 196.0
121.777763 176.0
121.815102 56.0
121.918365 48.0
121.968918 144.0
122.004089 176.0
122.065651 156.0
122.270233 72.0
122.316452 48.0
122.448555 212.0
122.488205 52.0
122.585144 192.0
122.666687 192.0
122.686531 196.0
122.724007 160.0
122.776932 252.0
122.794571 84.0
122.911491 168.0
122.964455 132.0
123.021843 176.0
123.081451 160.0
123.16095 236.0
123.211761 136.0
123.510185 196.0
123.704903 112.0
123.742538 148.0
123.831841 164.0
123.864342 208.0
124.026093 96.0
124.046036 180.0
124.076904 304.0
124.202835 208.0
124.256714 36.0
124.28334 200.0
124.354347 132.0
124.432037 128.0
124.834206 80.0
124.869789 252.0
124.892029 164.0
124.923172 128.0
125.078934 116.0
125.098969 116.0
125.125687 132.0
125.381836 140.0
125.43087 192.0
125.491066 156.0
125.658333 84.0
125.801163 116.0
125.968643 72.0
126.070854 144.0
126.077789 108.0
126.187134 140.0
126.216713 196.0
126.248016 112.0
126.288277 68.0
126.375519 68.0
126.426987 168.0
126.469505 168.0
126.590401 164.0
126.626228 188.0
126.662064 160.0
126.870468 60.0
126.928757 128.0
126.957909 184.0
127.029678 176.0
127.046631 140.0
127.088852 344.0
127.206955 128.0
127.24736 216.0
127.263077 140.0
127.303497 128.0
127.352905 180.0
127.43602 156.0
127.512421 164.0
127.645058 184.0
127.667542 80.0
127.863686 148.0
127.962303 144.0
128.093735 1060.0
128.14473 92.0
128.160507 208.0
128.303818 224.0
128.410721 140.0
128.451324 104.0
128.54834 184.0
128.577728 172.0
128.604752 56.0
128.627335 152.0
128.848633 68.0
129.036209 224.0
129.071274 132.0
129.102432 228.0
129.13797 148.0
129.309921 60.0
129.380081 256.0
129.420837 184.0
129.56517 132.0
129.608841 196.0
129.626968 48.0
129.672287 108.0
129.747086 152.0
129.76976 100.0
129.849121 56.0
129.874069 44.0
129.99205 156.0
130.064575 1536.0
130.175919 92.0
130.225876 64.0
130.32843 168.0
130.405365 168.0
130.448547 112.0
130.935272 236.0
130.977402 228.0
131.046432 204.0
131.072098 392.0
131.088089 164.0
131.211166 228.0
131.352554 140.0
131.36969 188.0
131.496307 60.0
131.573914 156.0
131.59903 76.0
131.677963 204.0
131.745178 216.0
131.80687 100.0
131.849182 216.0
131.876236 148.0
131.912003 192.0
131.960007 152.0
131.997818 172.0
132.021744 236.0
132.081604 20176.0
132.166214 76.0
132.193588 136.0
132.232452 320.0
132.256317 264.0
132.291809 128.0
132.3237 124.0
132.399338 212.0
132.447433 132.0
132.484085 256.0
132.508194 132.0
132.576889 140.0
132.59407 108.0
132.612411 100.0
132.679199 384.0
132.746918 184.0
132.781158 196.0
132.81218 252.0
132.830231 136.0
132.865829 284.0
132.886276 204.0
132.927109 140.0
132.953262 64.0
132.974564 480.0
133.012878 368.0
133.065964 119524.0
133.128937 208.0
133.150696 116.0
133.189728 52.0
133.207214 156.0
133.238846 76.0
133.274872 100.0
133.300323 212.0
133.336792 104.0
133.357712 88.0
133.398987 148.0
133.420258 68.0
133.442505 764.0
133.485779 88.0
133.512375 64.0
133.530762 68.0
133.55014 76.0
133.599777 100.0
133.664291 96.0
133.693237 32.0
133.743515 68.0
133.797028 68.0
133.841431 100.0
133.862152 144.0
133.906601 80.0
133.924332 160.0
133.94046 52.0
133.960526 56.0
134.001389 168.0
134.068069 11764.0
134.095718 972.0
134.152328 212.0
134.195053 100.0
134.22171 204.0
134.247589 152.0
134.279053 44.0
134.293762 56.0
134.345123 80.0
134.363632 28.0
134.385376 108.0
134.436142 72.0
134.4823 76.0
134.500763 68.0
134.52507 196.0
134.599396 144.0
134.656876 96.0
134.680862 132.0
134.700195 128.0
134.730774 92.0
134.752472 96.0
134.789444 40.0
134.891129 60.0
134.939255 44.0
134.962799 140.0
134.987915 88.0
135.016891 160.0
135.034698 112.0
135.073273 1172.0
135.102371 340.0
135.148834 136.0
135.166122 124.0
135.199738 248.0
135.217255 64.0
135.248062 116.0
135.282059 136.0
135.307526 44.0
135.339951 184.0
135.45343 120.0
135.478897 52.0
135.502075 148.0
135.57254 116.0
135.750076 52.0
135.817337 76.0
135.866043 104.0
135.952621 116.0
135.989029 112.0
136.079788 160.0
136.110565 136.0
136.150543 160.0
136.179413 32.0
136.235153 52.0
136.323456 156.0
136.423386 128.0
136.53035 48.0
136.55127 64.0
136.651306 56.0
136.781616 92.0
136.909668 176.0
136.988861 88.0
137.005173 52.0
137.075073 64.0
137.110016 152.0
137.130997 92.0
137.287201 208.0
137.987686 184.0
138.090439 272.0
138.130997 336.0
138.263687 256.0
138.685257 48.0
138.776688 116.0
139.084 132.0
139.114517 176.0
139.180252 48.0
139.393997 92.0
139.412796 72.0
139.52327 132.0
139.614975 188.0
139.685532 72.0
140.066864 88.0
140.113968 184.0
140.142242 156.0
140.175232 116.0
140.293076 76.0
140.356735 72.0
140.382675 48.0
140.84761 96.0
140.937378 140.0
141.134689 108.0
141.251801 80.0
141.452942 88.0
141.727646 52.0
141.756088 104.0
141.969437 68.0
142.07431 144.0
142.152084 196.0
142.237534 80.0
142.762589 176.0
142.795654 124.0
142.967178 108.0
143.017151 96.0
143.069138 180.0
143.254715 92.0
143.336273 96.0
143.529343 112.0
143.708237 72.0
143.958862 140.0
144.085449 128.0
144.116516 40.0
144.222397 116.0
144.412933 44.0
144.611511 92.0
145.037857 108.0
145.084503 104.0
145.120605 92.0
145.397614 76.0
146.053513 32.0
146.099228 132.0
146.438614 176.0
146.722946 40.0
147.393921 44.0
147.534088 240.0
147.594543 52.0
147.9832 172.0
148.113358 188.0
148.934692 40.0
149.025848 244.0
149.133926 80.0
149.420868 160.0
149.863968 136.0
150.092178 1124.0
150.122345 160.0
150.163803 64.0
150.446854 180.0
150.627548 92.0
150.805923 144.0
150.88414 76.0
150.915924 332.0
151.067551 172.0
151.092102 116.0
151.361237 72.0
151.866074 144.0
152.001007 152.0
152.110336 380.0
152.141373 184.0
152.29454 84.0
152.325073 128.0
152.465118 88.0
152.779846 64.0
153.11145 144.0
153.15892 132.0
153.553268 80.0
153.73584 48.0
153.982712 128.0
154.157394 424.0
154.249557 108.0
154.729462 140.0
154.808701 184.0
155.080429 140.0
155.141891 400.0
155.326675 204.0
155.363892 100.0
155.440796 184.0
155.639374 172.0
155.910141 140.0
156.08107 152.0
156.186111 128.0
157.087082 192.0
157.127731 156.0
157.434738 60.0
157.497177 144.0
157.587112 172.0
157.809555 176.0
158.0979 388.0
158.28746 116.0
158.826279 120.0
159.099792 72.0
159.122391 176.0
159.147491 100.0
159.283096 168.0
159.484116 128.0
159.567062 40.0
159.587189 160.0
160.581863 212.0
160.622208 104.0
160.806396 36.0
161.455688 164.0
161.589752 76.0
161.999863 116.0
162.478989 176.0
163.118927 76.0
163.279114 240.0
163.716827 108.0
163.877304 76.0
164.257141 140.0
164.915909 192.0
164.977249 124.0
165.104004 168.0
165.128113 156.0
165.176712 128.0
165.266251 220.0
165.348129 124.0
165.5811 224.0
166.11937 132.0
166.150146 172.0
166.232254 176.0
166.596832 120.0
167.159897 132.0
167.386414 48.0
168.66861 44.0
168.857361 156.0
169.061737 112.0
169.398315 152.0
169.514908 80.0
169.766357 48.0
170.043945 176.0
170.300964 144.0
170.412674 100.0
170.774002 152.0
171.549942 224.0
171.698563 72.0
172.020538 200.0
172.170135 708.0
172.293686 272.0
172.447861 88.0
172.552414 80.0
173.086166 212.0
173.173325 428.0
173.2957 52.0
174.077347 128.0
174.126923 296.0
174.747604 180.0
174.996643 148.0
175.137207 156.0
175.203064 148.0
175.506149 44.0
175.627457 84.0
175.701309 120.0
176.105682 228.0
176.139511 216.0
176.253113 152.0
176.340317 108.0
176.438126 100.0
176.504227 188.0
176.541245 192.0
176.763443 68.0
176.842834 36.0
177.075821 100.0
177.1129 180.0
177.33812 88.0
178.418472 136.0
179.033112 132.0
179.387466 116.0
179.563446 124.0
179.811554 172.0
180.173691 692.0
180.872635 88.0
180.995789 104.0
181.175491 208.0
181.335999 216.0
181.647034 48.0
182.001282 164.0
182.033493 104.0
182.208084 204.0
182.285995 40.0
183.513382 80.0
184.117828 184.0
184.136734 200.0
184.652924 52.0
184.899948 184.0
185.410965 184.0
185.462463 160.0
185.562759 92.0
185.665802 188.0
185.777008 48.0
185.877396 36.0
186.129822 176.0
186.991577 112.0
187.026962 124.0
187.051453 80.0
187.089569 156.0
187.536285 152.0
187.748947 160.0
187.879868 52.0
188.110031 196.0
188.147308 104.0
188.494171 132.0
188.991821 56.0
189.128647 140.0
189.651794 60.0
189.687424 76.0
190.125381 160.0
190.157898 224.0
190.469452 140.0
190.848694 92.0
191.019211 132.0
191.140259 136.0
192.305954 176.0
192.673218 92.0
192.935745 48.0
193.115479 128.0
194.030899 108.0
194.153732 1116.0
194.298279 52.0
194.353775 40.0
194.467545 112.0
194.54805 148.0
194.656326 56.0
194.686874 116.0
194.739639 100.0
194.792419 232.0
194.867416 84.0
195.158539 376.0
195.231552 40.0
195.321747 148.0
195.401215 52.0
195.540344 184.0
195.671173 160.0
195.916245 108.0
196.168579 156.0
196.29808 72.0
196.337128 40.0
196.733337 200.0
196.856186 156.0
196.956726 96.0
197.014023 272.0
197.096405 44.0
197.280869 116.0
197.678009 104.0
198.19043 160.0
198.588501 144.0
198.667038 92.0
199.135788 216.0
199.295914 132.0
199.430801 156.0
200.018661 124.0
200.117188 200.0
200.663773 136.0
200.940155 48.0
201.089706 112.0
201.256256 84.0
201.764816 116.0
201.841156 176.0
201.897705 140.0
202.00235 88.0
202.121948 3404.0
202.310806 124.0
202.828033 188.0
203.132782 176.0
203.180817 76.0
203.419189 68.0
203.447571 120.0
203.904877 92.0
204.095337 56.0
204.137985 128.0
204.408218 124.0
204.726654 148.0
205.171524 152.0
205.699265 184.0
205.787766 52.0
206.004807 88.0
206.144806 72.0
206.196243 84.0
206.281998 180.0
206.977203 164.0
207.140442 56.0
207.220657 96.0
207.515854 48.0
207.791183 188.0
207.926056 112.0
208.168381 1792.0
208.241852 112.0
208.513184 100.0
208.612518 56.0
208.825302 88.0
208.992142 176.0
209.113007 208.0
209.176025 372.0
209.544937 60.0
209.657318 76.0
210.003265 176.0
210.185013 44.0
210.475266 144.0
210.811615 100.0
211.430481 60.0
211.583893 160.0
211.60994 96.0
211.90535 136.0
212.000977 76.0
212.134293 140.0
212.714447 160.0
212.746384 152.0
212.856705 88.0
213.714172 120.0
213.74617 136.0
213.88295 84.0
213.941177 212.0
214.453827 168.0
215.013794 124.0
215.410889 92.0
215.650482 104.0
215.831726 68.0
216.103745 196.0
217.666 176.0
218.477173 36.0
218.74202 56.0
218.850952 76.0
219.151642 572.0
219.758728 160.0
219.785294 40.0
219.853165 108.0
220.065689 44.0
220.139191 160.0
221.132828 552.0
221.156494 120.0
221.488113 184.0
221.986023 64.0
222.033463 84.0
222.448853 72.0
222.579483 140.0
222.600266 96.0
222.919479 224.0
223.031036 28.0
223.218338 172.0
223.343246 112.0
223.500916 40.0
223.655655 128.0
224.349716 56.0
225.564651 120.0
225.860672 100.0
225.938446 112.0
225.9953 112.0
226.240707 136.0
227.025711 124.0
227.112686 168.0
227.47876 96.0
228.458389 48.0
228.479446 48.0
228.994171 148.0
229.796005 52.0
230.289337 168.0
230.402832 64.0
230.430023 52.0
231.743088 44.0
231.918854 160.0
233.032547 164.0
233.239197 144.0
233.470261 68.0
234.292068 156.0
234.429169 164.0
235.933899 108.0
236.040909 164.0
237.032669 196.0
237.160461 2348.0
237.238022 64.0
237.294785 52.0
237.320786 148.0
237.725677 92.0
238.164154 664.0
238.736343 172.0
238.908585 164.0
239.159256 164.0
239.551956 92.0
239.761475 36.0
240.186951 88.0
240.791885 144.0
240.986496 160.0
241.175003 40.0
241.224457 132.0
241.307922 44.0
242.18367 100.0
243.455231 132.0
245.159973 84.0
245.247238 196.0
245.521591 136.0
246.011444 64.0
249.011108 180.0
249.752853 144.0
250.013977 196.0
251.078781 156.0
251.432129 48.0
251.630981 124.0
252.424042 112.0
253.123352 164.0
253.367233 108.0
253.531998 148.0
253.684128 244.0
253.78241 60.0
254.906036 128.0
255.163498 160.0
255.239807 120.0
255.30658 80.0
255.624695 160.0
256.203522 1580.0
256.475006 36.0
256.730072 80.0
257.201324 304.0
257.725983 252.0
258.125519 132.0
258.147919 48.0
258.219849 684.0
258.311035 152.0
258.477386 52.0
258.717438 48.0
258.755859 84.0
259.111328 196.0
259.223816 352.0
259.335632 212.0
259.406158 104.0
260.188904 172.0
260.223724 188.0
260.63855 120.0
261.278351 116.0
261.74826 60.0
261.852539 148.0
262.769989 92.0
262.847412 124.0
263.380096 72.0
264.227051 132.0
264.472961 76.0
264.502106 364.0
264.641296 88.0
265.425415 144.0
266.142487 148.0
266.220428 164.0
266.532257 148.0
266.9711 108.0
267.089172 196.0
267.239807 136.0
267.928009 188.0
268.240845 156.0
268.798553 32.0
268.99762 72.0
269.043335 136.0
269.350281 60.0
269.670502 188.0
269.716248 128.0
270.222809 324.0
271.195679 128.0
272.758057 84.0
274.044769 204.0
274.371063 148.0
274.539215 212.0
274.657959 168.0
274.766815 188.0
274.865784 240.0
275.218964 36.0
275.341156 168.0
275.592194 180.0
275.740906 124.0
276.250092 152.0
276.895508 136.0
276.918701 160.0
278.022675 132.0
278.075775 156.0
278.294891 176.0
278.683472 64.0
278.962646 48.0
279.088959 92.0
279.325104 88.0
279.448181 128.0
279.687775 68.0
280.39386 156.0
280.73056 56.0
281.177582 156.0
281.444641 256.0
281.49472 168.0
282.132874 224.0
282.226501 316.0
282.24942 112.0
283.143372 164.0
283.977875 120.0
284.061737 76.0
284.28653 128.0
284.34021 72.0
284.588623 40.0
284.702789 72.0
284.957123 216.0
285.016327 124.0
285.189941 52.0
285.226898 116.0
285.358032 140.0
285.388275 76.0
285.438721 204.0
285.566498 84.0
285.685242 92.0
285.727966 144.0
285.803741 160.0
285.876007 52.0
285.941101 140.0
285.983704 120.0
286.033752 92.0
286.084686 192.0
286.121704 104.0
286.216766 40488.0
286.322052 84.0
286.353027 52.0
286.404572 36.0
286.428162 84.0
286.461853 80.0
286.520355 204.0
286.565277 96.0
286.574127 60.0
286.64209 64.0
286.67984 80.0
286.72464 132.0
286.761444 52.0
286.837494 100.0
286.916779 80.0
287.004425 112.0
287.058197 144.0
287.12854 60.0
287.219269 7280.0
287.2854 52.0
287.331573 56.0
287.432251 268.0
287.550903 80.0
287.648804 36.0
287.682556 92.0
287.706177 88.0
287.756836 60.0
287.817596 80.0
287.895264 48.0
288.014923 68.0
288.135071 60.0
288.229706 5876.0
288.329529 80.0
288.370392 44.0
288.452606 112.0
288.483154 40.0
288.521759 96.0
288.571045 120.0
288.690704 196.0
288.728699 64.0
288.795929 100.0
288.89447 120.0
288.934814 72.0
289.003967 28.0
289.041199 44.0
289.06488 68.0
289.108887 52.0
289.135956 128.0
289.161377 196.0
289.233826 884.0
289.349182 104.0
289.372894 96.0
289.413513 128.0
289.458221 40.0
289.49649 96.0
289.592987 72.0
289.767334 104.0
289.836914 64.0
289.928406 52.0
290.172455 76.0
290.236877 140.0
290.297913 76.0
290.525146 52.0
290.57605 56.0
290.745697 80.0
290.884857 56.0
291.153076 80.0
291.180237 152.0
291.309326 72.0
291.411224 60.0
291.9245 96.0
292.108154 112.0
292.305481 48.0
292.462006 132.0
292.669678 168.0
292.730957 84.0
293.23175 72.0
293.872833 136.0
294.098053 120.0
295.567535 56.0
295.666779 64.0
296.091278 136.0
296.358459 140.0
296.776611 108.0
297.102448 140.0
297.36322 48.0
297.596649 160.0
297.627533 96.0
298.596588 72.0
299.83255 100.0
299.946259 72.0
299.991089 84.0
300.028992 148.0
300.263489 160.0
300.287628 92.0
300.598083 88.0
301.039948 100.0
301.831238 80.0
302.363983 156.0
302.5578 76.0
302.703217 116.0
302.810577 60.0
302.841766 104.0
302.973389 124.0
303.073853 40.0
303.232178 64.0
303.416962 60.0
303.460693 124.0
303.579926 60.0
303.621552 132.0
303.840057 80.0
303.89212 112.0
303.92572 128.0
303.989258 116.0
304.065613 132.0
304.226746 19384.0
304.391937 52.0
304.416229 184.0
304.439362 84.0
304.475098 80.0
304.527435 164.0
304.589874 44.0
304.645477 124.0
304.721893 64.0
304.76358 48.0
304.821198 76.0
304.857391 92.0
304.947754 128.0
305.006836 68.0
305.142426 128.0
305.173706 184.0
305.23053 3328.0
305.312805 72.0
305.504089 48.0
305.531921 48.0
305.594543 48.0
305.681549 52.0
305.761566 60.0
305.861633 112.0
305.900116 40.0
305.942566 88.0
305.970428 36.0
306.067902 56.0
306.229919 496.0
306.45105 44.0
306.520721 64.0
306.785614 96.0
306.935516 48.0
306.973877 88.0
307.00528 100.0
307.029694 108.0
307.121521 144.0
307.148254 80.0
307.235474 112.0
307.29129 28.0
307.33316 60.0
307.371552 108.0
307.50415 36.0
307.598389 56.0
307.643768 120.0
307.671692 132.0
307.717072 92.0
308.355774 152.0
308.391266 104.0
308.450684 148.0
309.251678 148.0
309.290161 108.0
309.938049 56.0
310.085236 72.0
310.449829 36.0
310.877777 80.0
311.39386 152.0
311.959564 76.0
312.268982 124.0
312.353394 156.0
317.673187 96.0
318.937286 124.0
318.962189 56.0
320.253784 52.0
321.697876 76.0
323.173859 100.0
323.331329 120.0
325.259552 156.0
325.593475 44.0
325.995819 48.0
326.556641 160.0
326.887604 96.0
327.31955 88.0
328.22757 40.0
330.083557 124.0
330.246307 72.0
332.623199 88.0
332.80835 88.0
339.970184 60.0
343.185089 52.0
343.325195 184.0
344.136993 72.0
347.697968 88.0
352.513062 84.0
354.998657 56.0
355.27594 172.0
356.278534 112.0
356.537811 76.0
358.423065 80.0
358.758514 160.0
359.460022 160.0
367.118927 68.0
367.950714 132.0
368.027069 80.0
368.080536 100.0
372.799835 84.0
373.287384 256.0
373.815033 52.0
374.272461 284.0
374.28067 124.0
375.290283 56.0
376.166016 108.0
376.293396 168.0
379.679169 60.0
381.107635 84.0
382.79187 92.0
384.085754 36.0
384.511017 232.0
387.486725 112.0
388.682556 116.0
389.184967 68.0
389.306702 188.0
389.927399 112.0
390.353668 176.0
390.855438 116.0
391.099457 128.0
391.294403 8076.0
391.452026 96.0
391.524658 48.0
391.564026 40.0
391.694916 120.0
391.808228 64.0
391.86734 108.0
392.036774 60.0
392.131348 60.0
392.182587 88.0
392.218048 128.0
392.297424 1432.0
392.545288 104.0
392.588654 52.0
392.620209 60.0
392.860809 84.0
393.298889 236.0
393.551453 76.0
393.764709 48.0
393.808136 68.0
394.072815 84.0
394.195282 80.0
394.262482 100.0
394.303864 168.0
394.376373 88.0
394.444275 72.0
394.566833 136.0
394.966217 108.0
395.013702 128.0
395.227325 44.0
395.900238 132.0
396.102234 108.0
396.359741 64.0
396.7323 76.0
398.196442 148.0
401.18866 124.0
402.66098 112.0
403.348206 116.0
406.239319 44.0
411.12381 112.0
412.21814 76.0
413.670105 92.0
419.014374 100.0
427.058075 80.0
428.824371 52.0
432.38028 84.0
433.664154 88.0
435.277924 36.0
435.743103 72.0
436.55777 76.0
442.449249 64.0
451.973816 56.0
452.816223 60.0
454.715576 64.0
463.251831 56.0
471.582184 108.0
474.937714 56.0
479.04538 76.0
483.026398 68.0
484.243164 80.0
485.536041 144.0
489.451416 116.0
492.096863 136.0
495.8125 80.0
497.950867 116.0
502.005035 68.0
515.675354 64.0
518.005554 72.0
526.684448 100.0
531.183899 88.0
542.560425 112.0
563.150085 72.0
567.826111 72.0
572.692932 164.0
573.007324 80.0
575.477844 68.0
576.433167 60.0
583.512451 108.0
583.993347 84.0
595.690674 112.0
597.071045 64.0
605.190857 52.0
611.085388 100.0
611.646423 68.0
614.0755 80.0
617.84436 124.0
619.255066 68.0
623.561462 64.0
634.031982 56.0
640.22113 64.0
642.696167 104.0
648.917175 128.0
652.023743 152.0
654.694519 156.0
665.894592 84.0
676.216248 56.0
679.740173 160.0
680.86145 104.0
682.565857 76.0
686.455627 164.0
689.786499 172.0
696.710449 68.0
704.378784 172.0
707.234009 60.0
712.605835 80.0
713.23822 96.0
714.088928 100.0
717.587463 108.0
719.844421 64.0
721.698547 132.0
722.265442 148.0
724.733337 128.0
725.542603 44.0
728.236267 104.0
733.428406 44.0
738.065735 160.0
739.466797 96.0
743.048584 72.0
745.470154 68.0
747.171997 208.0
747.716125 136.0
749.943665 72.0
755.042908 92.0
756.263 144.0
757.434692 96.0
757.905823 104.0
761.411072 132.0
762.136169 152.0
763.878967 152.0
765.706299 48.0
766.025757 76.0
768.600342 196.0
769.516541 152.0
770.521729 72.0
770.731689 164.0
771.881348 168.0
773.175842 104.0
773.679504 148.0
774.992065 236.0
776.516479 68.0
779.158691 88.0
787.262878 212.0
787.391296 136.0
787.849304 212.0
788.743408 156.0
791.512634 160.0
791.971863 220.0
795.21814 96.0
795.594238 60.0
795.717773 88.0
797.408508 136.0
797.880676 152.0
798.077454 64.0
798.381104 180.0
798.561096 200.0
798.83667 108.0
799.16864 88.0
801.510925 80.0
802.198486 164.0
802.361938 144.0
803.834045 80.0
809.854858 92.0
812.104919 156.0
813.665405 192.0
813.835754 176.0
815.392212 152.0
816.921692 152.0
819.990662 208.0
820.691833 156.0
821.826843 172.0
821.906738 200.0
822.003723 40.0
824.64209 208.0
827.307617 148.0
827.593872 204.0
828.27533 264.0
828.43573 44.0
831.285217 196.0
832.49646 184.0
833.208679 148.0
833.743042 144.0
833.875244 148.0
833.949951 212.0
834.530579 196.0
834.593811 72.0
834.852539 100.0
837.177429 176.0
837.488403 188.0
838.127869 176.0
838.260376 160.0
839.499756 164.0
840.359192 116.0
841.126709 148.0
841.311462 144.0
842.662842 156.0
844.576233 232.0
845.235718 184.0
845.808655 144.0
846.381836 148.0
849.244568 140.0
849.406982 128.0
850.381775 152.0
850.880981 200.0
851.240967 148.0
852.135437 196.0
852.617737 220.0
853.146667 116.0
853.245483 160.0
853.434021 120.0
853.605957 156.0
853.751343 132.0
853.89093 152.0
855.054443 212.0
856.17804 60.0
856.242126 84.0
857.891052 208.0
858.025146 144.0
858.275818 204.0
858.400146 240.0
858.90564 64.0
859.483215 40.0
860.568848 148.0
860.672302 188.0
860.761536 144.0
860.889954 160.0
861.071045 156.0
861.450684 132.0
862.093384 88.0
862.747986 112.0
863.081238 112.0
863.221558 192.0
863.449646 168.0
865.199158 160.0
865.890076 172.0
865.931091 60.0
866.446533 180.0
867.149719 140.0
867.976257 240.0
868.075928 180.0
868.404358 204.0
868.568604 180.0
868.768005 44.0
869.172852 200.0
869.389954 96.0
869.642334 148.0
869.765564 212.0
870.22345 84.0
870.564026 168.0
870.95166 120.0
872.179688 96.0
872.996887 96.0
873.337952 108.0
873.432068 156.0
874.108643 100.0
875.344788 252.0
876.369629 184.0
878.008362 148.0
878.515625 236.0
878.604126 120.0
879.01709 112.0
879.099365 148.0
879.264954 224.0
879.601379 112.0
879.896545 132.0
880.020508 100.0
880.073669 164.0
880.174011 164.0
881.302185 104.0
881.650818 84.0
881.703979 192.0
882.809448 80.0
883.0224 92.0
883.720398 136.0
884.087219 188.0
885.472534 280.0
885.632446 72.0
886.272217 156.0
886.538879 116.0
887.641479 132.0
887.854919 144.0
887.967651 140.0
888.584534 172.0
889.225403 64.0
889.617126 152.0
889.878357 200.0
890.353394 72.0
890.484009 192.0
891.060242 152.0
891.387024 176.0
892.088318 76.0
892.623413 40.0
892.706665 164.0
892.813721 144.0
892.992126 248.0
893.283569 52.0
893.335571 124.0
893.420349 120.0
893.866577 168.0
895.003479 208.0
895.1745 144.0
895.628784 144.0
895.843201 184.0
896.105347 160.0
896.188782 184.0
897.661011 228.0
897.965149 52.0
898.112183 184.0
898.78241 168.0
900.017944 120.0
900.250854 208.0
901.439575 168.0
901.541138 168.0
902.796509 128.0
903.059692 180.0
903.897217 172.0
906.202393 228.0
906.48999 128.0
907.365051 132.0
907.472961 136.0
907.598877 172.0
907.772766 116.0
908.078613 132.0
908.342529 164.0
908.55249 104.0
908.624512 104.0
909.296509 56.0
909.644653 148.0
910.827576 148.0
910.97876 164.0
911.97522 164.0
912.426025 176.0
912.840881 136.0
912.913025 64.0
913.081421 108.0
913.382141 208.0
913.694946 76.0
913.755127 168.0
914.08606 116.0
914.200378 168.0
914.311584 244.0
914.971863 164.0
915.085205 200.0
915.139404 112.0
915.723511 208.0
916.512634 84.0
916.621094 48.0
916.994751 224.0
917.290039 148.0
918.236694 160.0
918.48999 152.0
918.857971 152.0
918.954529 164.0
919.286377 124.0
919.582092 252.0
919.726929 172.0
920.384949 148.0
920.445312 168.0
920.626526 40.0
920.974243 180.0
921.695679 112.0
921.931335 172.0
922.044556 168.0
922.469238 68.0
922.590149 144.0
922.928711 52.0
923.358032 164.0
923.751221 184.0
924.410645 144.0
924.507507 148.0
924.931152 152.0
925.076416 164.0
925.639465 212.0
925.700012 64.0
926.334473 200.0
927.244812 76.0
927.541809 240.0
927.602417 140.0
927.644836 108.0
928.368896 152.0
928.596802 196.0
928.778748 136.0
930.080261 120.0
930.228943 156.0
930.289673 144.0
931.188293 108.0
931.352295 200.0
931.70459 148.0
931.850403 92.0
932.622131 136.0
932.865295 148.0
932.974731 48.0
933.491516 192.0
933.850342 216.0
934.683716 164.0
935.487122 172.0
935.706238 172.0
936.065491 216.0
936.132446 156.0
936.65625 164.0
936.778076 124.0
937.151184 228.0
937.911438 160.0
938.216248 152.0
938.556641 208.0
938.691772 148.0
938.752747 92.0
939.045471 408.0
939.594482 136.0
939.734802 160.0
939.911743 204.0
940.118469 168.0
940.296204 152.0
940.369446 168.0
940.760071 148.0
940.833313 176.0
941.046997 156.0
941.20575 140.0
941.431702 160.0
941.523254 176.0
941.682068 168.0
942.305115 156.0
942.389832 204.0
943.105652 192.0
943.765869 136.0
944.291748 108.0
945.007446 208.0
945.086975 220.0
945.845825 144.0
946.794861 40.0
947.039795 136.0
947.627869 132.0
948.424927 120.0
948.620667 132.0
948.872009 172.0
949.068237 156.0
949.190857 180.0
949.767334 208.0
950.129211 160.0
950.540344 112.0
950.656921 208.0
950.853271 40.0
951.061951 132.0
951.620605 156.0
952.210083 140.0
952.621582 200.0
952.67688 100.0
953.082397 228.0
953.223694 164.0
953.272827 264.0
953.464233 164.0
953.518677 136.0
953.561707 120.0
953.623169 164.0
953.696899 144.0
953.887451 172.0
954.545288 52.0
954.760498 180.0
955.117249 220.0
955.178772 144.0
955.307922 84.0
955.818542 204.0
956.249329 156.0
956.667908 168.0
956.901794 120.0
957.101624 176.0
957.83783 88.0
957.96106 188.0
958.090393 168.0
958.238281 120.0
958.823669 196.0
958.93457 184.0
959.051697 144.0
959.144165 156.0
959.606506 148.0
959.865479 92.0
960.346497 180.0
960.790588 140.0
960.906372 224.0
961.467407 144.0
961.586609 160.0
961.679138 180.0
962.129761 164.0
962.3172 168.0
962.555786 88.0
962.648376 168.0
962.778076 180.0
962.969543 152.0
963.741699 48.0
963.939453 172.0
964.143372 204.0
964.198975 136.0
964.279297 140.0
965.280762 220.0
965.453918 192.0
965.98584 168.0
967.019165 132.0
967.310059 144.0
967.662903 136.0
968.163513 156.0
968.511292 200.0
968.647583 180.0
968.728088 228.0
968.957275 144.0
969.985962 100.0
970.32074 60.0
970.512939 176.0
970.574951 136.0
970.816772 144.0
971.381165 124.0
971.616882 148.0
971.920898 72.0
972.181519 200.0
972.386292 168.0
972.988403 144.0
973.466492 192.0
973.590698 216.0
974.106201 124.0
974.180725 248.0
974.60321 140.0
975.025757 88.0
975.150085 172.0
975.249512 120.0
975.827637 168.0
976.206909 160.0
976.250427 128.0
976.592468 160.0
977.009216 176.0
977.363892 152.0
977.556763 184.0
977.836792 184.0
977.886597 140.0
978.104431 272.0
978.57135 140.0
978.670959 64.0
978.783936 136.0
978.895081 176.0
978.969849 164.0
979.032104 156.0
979.499207 204.0
979.653687 180.0
979.86676 208.0
980.066101 100.0
980.147156 52.0
980.290466 132.0
980.764099 184.0
980.82019 136.0
980.944885 152.0
981.206665 112.0
981.256531 156.0
981.393738 148.0
981.649353 136.0
981.74292 180.0
982.054749 192.0
982.11084 156.0
982.659668 144.0
982.90918 104.0
983.265076 156.0
983.520996 152.0
983.570923 68.0
983.80188 128.0
984.182678 132.0
984.347839 144.0
984.819702 164.0
985.132019 180.0
985.394348 128.0
985.450623 180.0
985.581787 128.0
986.406738 128.0
986.48175 104.0
986.744324 152.0
986.806824 156.0
987.52594 44.0
987.575989 96.0
987.651062 156.0
988.07019 484.0
988.245361 120.0
988.414307 172.0
988.476257 176.0
988.545715 204.0
988.664612 172.0
988.819641 180.0
989.302979 180.0
989.396912 120.0
989.703674 168.0
989.921082 212.0
990.091919 192.0
990.217163 164.0
990.54303 164.0
990.831055 168.0
991.796021 236.0
991.908875 140.0
992.05304 112.0
992.372803 240.0
992.918335 156.0
993.37616 272.0
993.470276 140.0
993.683594 176.0
993.821594 204.0
994.141602 140.0
994.262512 136.0
994.342468 164.0
994.405212 212.0
995.06427 144.0
995.133362 140.0
995.330933 120.0
995.654541 92.0
996.062805 248.0
996.251221 168.0
996.358032 44.0
996.716125 160.0
996.923523 228.0
997.030334 248.0
997.187439 148.0
997.665161 184.0
998.331665 112.0
998.430176 208.0
998.447144 140.0
998.471436 120.0
998.496948 168.0
998.589478 188.0
998.872498 144.0
998.973145 196.0
999.231079 192.0
999.630859 192.0
999.769409 216.0
999.986206 116.0
1000.458252 84.0
1000.773071 160.0
1001.434265 184.0
1001.50354 220.0
1001.65802 164.0
1001.711426 200.0
1001.900391 176.0
1002.132019 152.0
1002.360352 124.0
1002.42334 192.0
1002.650208 124.0
1002.832947 168.0
1002.977966 104.0
1003.182129 164.0
1003.381409 212.0
1003.425537 64.0
1003.602051 164.0
1004.598511 112.0
1004.687866 192.0
1004.980103 212.0
1005.128479 40.0
1005.216797 160.0
1005.317749 128.0
1005.835266 196.0
1006.033142 152.0
1006.263916 176.0
1006.315613 176.0
1007.022278 144.0
1007.194702 228.0
1007.306519 196.0
1007.745483 240.0
1008.039429 68.0
1008.237915 136.0
1008.50708 104.0
1008.671387 28.0
1008.930603 80.0
1009.107605 172.0
1009.297302 80.0
1009.733582 264.0
1009.793152 164.0
1010.043518 176.0
1010.283875 188.0
1010.338257 224.0
1010.60022 196.0
1011.0495 192.0
1011.150757 180.0
1011.220337 180.0
1011.331604 132.0
1011.581177 164.0
1011.688782 160.0
1011.783752 108.0
1011.954651 164.0
1012.01886 172.0
1012.290222 140.0
1012.484009 200.0
1012.610168 124.0
1012.822205 136.0
1012.956604 168.0
1013.132629 60.0
1013.197815 164.0
1013.309998 104.0
1013.481079 88.0
1014.019714 156.0
1014.203491 124.0
1014.298584 196.0
1014.66626 212.0
1014.723328 128.0
1015.160828 156.0
1015.46521 144.0
1015.528625 148.0
1015.839417 176.0
1016.047913 204.0
1016.066833 176.0
1016.4104 192.0
1016.797546 172.0
1017.248169 164.0
1017.308716 200.0
1017.425903 168.0
1017.514771 192.0
1017.724304 196.0
1017.844971 172.0
1018.002991 184.0
1018.270386 144.0
1018.359314 264.0
1018.962769 236.0
1019.204224 152.0
1019.324951 116.0
1019.534668 140.0
1019.922363 100.0
1020.170227 148.0
1020.31012 204.0
1020.411804 200.0
1020.933228 116.0
1021.295715 144.0
1021.448364 228.0
1021.963684 172.0
1022.141846 156.0
1022.370911 168.0
1024.350952 128.0
1024.599487 152.0
1024.682251 200.0
1024.790527 128.0
1024.924316 188.0
1025.166504 136.0
1025.536133 176.0
1025.931396 156.0
1026.129028 180.0
1026.255981 144.0
1026.581665 176.0
1026.690063 128.0
1027.366211 112.0
1027.480957 128.0
1027.532104 208.0
1027.742554 148.0
1028.004272 228.0
1028.074463 184.0
1028.17395 180.0
1028.380737 184.0
1028.48291 140.0
1028.683594 180.0
1028.942505 144.0
1029.165894 148.0
1029.887573 112.0
1030.430542 148.0
1030.501831 128.0
1030.564697 44.0
1030.820312 88.0
1030.871338 136.0
1030.97998 144.0
1031.050293 136.0
1031.203735 188.0
1031.638306 144.0
1032.021973 136.0
1032.06665 152.0
1032.591064 136.0
1032.840454 108.0
1032.898071 148.0
1033.070801 156.0
1033.115601 204.0
1033.214722 172.0
1033.33313 192.0
1033.608154 132.0
1034.139404 268.0
1034.286621 60.0
1034.382568 204.0
1034.516968 128.0
1034.856323 168.0
1035.111938 164.0
1035.560669 156.0
1036.111572 120.0
1036.188477 216.0
1036.291016 156.0
1036.444702 152.0
1036.579346 60.0
1036.64978 132.0
1036.835571 156.0
1037.040771 120.0
1037.143311 140.0
1037.361206 92.0
1037.534302 168.0
1037.662476 124.0
1037.765137 56.0
1037.912598 124.0
1038.20752 104.0
1038.900269 152.0
1038.98999 128.0
1039.407104 156.0
1039.618774 144.0
1039.740723 240.0
1040.068115 132.0
1040.132324 184.0
1040.202881 164.0
1040.292725 48.0
1040.478882 100.0
1040.530273 200.0
1040.645874 164.0
1040.825562 180.0
1040.920654 368.0
1041.08252 96.0
1041.127441 160.0
1041.24939 176.0
1041.506348 148.0
1041.572144 184.0
1041.769653 164.0
1041.846802 200.0
1042.2323 128.0
1042.579224 168.0
1043.337769 100.0
1043.466309 144.0
1043.800659 176.0
1044.051392 176.0
1044.13501 172.0
1044.302246 60.0
1044.373047 232.0
1044.495239 140.0
1044.836182 100.0
1044.900513 168.0
1045.35083 236.0
1045.440918 96.0
1045.537476 44.0
1045.598511 104.0
1046.200439 84.0
1046.779907 152.0
1047.127686 120.0
1047.301514 160.0
1047.359497 144.0
1047.462524 180.0
1047.829712 160.0
1048.171265 156.0
1048.474121 180.0
1048.815674 196.0
1048.884033 376.0
1049.312012 144.0
1049.382935 160.0
1049.582886 144.0
1049.763428 388.0
1049.917847 172.0
1050.169678 140.0
1050.311646 64.0
1050.943848 188.0
1051.305176 60.0
1051.369629 152.0
1051.414795 136.0
1051.466431 208.0
1051.87439 160.0
1051.959717 236.0
1052.324951 136.0
1052.570312 248.0
1052.628418 188.0
1052.712402 220.0
1052.770508 204.0
1053.416382 88.0
1053.661865 132.0
1053.972046 156.0
1054.05603 156.0
1054.366211 236.0
1054.624634 128.0
1054.986694 168.0
1055.284058 200.0
1055.355225 88.0
1055.4198 216.0
1055.568604 172.0
1056.111816 64.0
1056.251709 280.0
1056.471924 208.0
1056.590454 188.0
1056.752197 64.0
1056.901001 172.0
1057.386353 184.0
1057.690552 76.0
1057.774658 152.0
1057.852417 160.0
1058.046631 188.0
1058.441528 172.0
1058.630371 164.0
1059.036011 180.0
1059.334961 236.0
1059.438965 104.0
1059.529663 200.0
1059.736938 180.0
1060.045532 116.0
1060.294189 196.0
1060.495117 180.0
1060.864624 232.0
1060.916382 188.0
1061.026611 180.0
1061.072021 188.0
1061.143311 48.0
1061.20813 164.0
1061.486938 172.0
1061.564819 124.0
1061.639282 212.0
1061.733398 140.0
1061.882568 180.0
1061.979858 200.0
1062.298706 160.0
1062.44043 140.0
1062.48584 108.0
1062.555664 116.0
1062.82312 196.0
1062.965942 144.0
1063.206055 124.0
1063.413696 168.0
1063.524048 208.0
1063.670044 148.0
1063.835571 196.0
1064.380981 128.0
1064.471924 164.0
1064.653687 156.0
1064.85498 144.0
1065.165894 172.0
1065.803467 108.0
1065.944336 224.0
1066.21936 136.0
1066.433838 212.0
1066.739258 160.0
1066.921265 140.0
1067.502319 192.0
1067.682007 172.0
1067.75354 108.0
1067.871948 160.0
1068.039795 88.0
1068.085327 176.0
1068.508179 60.0
1068.725464 120.0
1068.905029 96.0
1069.06958 208.0
1069.184814 52.0
1069.321533 200.0
1069.412598 164.0
1069.542847 196.0
1069.62085 44.0
1070.128662 156.0
1070.311035 172.0
1070.385132 108.0
1070.598755 216.0
1070.805908 360.0
1071.538696 200.0
1071.672241 176.0
1071.893799 200.0
1071.984985 148.0
1072.349976 56.0
1072.799683 192.0
1072.923584 172.0
1073.053955 164.0
1073.406006 140.0
1073.582153 172.0
1073.856079 192.0
1073.973389 160.0
1074.201782 160.0
1075.07605 132.0
1075.125488 192.0
1075.389282 148.0
1075.826538 260.0
1075.983276 252.0
1076.041992 100.0
1076.629639 132.0
1076.930054 208.0
1077.276245 112.0
1077.883911 128.0
1077.968872 124.0
1078.217163 184.0
1078.387085 164.0
1078.855591 160.0
1078.960815 196.0
1079.361084 132.0
1079.524658 188.0
1079.766602 216.0
1080.132812 132.0
1080.544922 120.0
1080.59082 224.0
1080.791748 156.0
1080.834717 156.0
1080.976807 140.0
1081.101196 144.0
1081.186157 220.0
1081.356323 232.0
1081.467651 196.0
1081.552734 140.0
1081.624756 132.0
1081.807983 140.0
1081.886597 144.0
1081.945435 176.0
1082.384155 128.0
1082.639526 176.0
1083.017456 80.0
1083.143799 196.0
1083.232544 184.0
1083.707153 48.0
1083.79895 180.0
1084.414917 112.0
1084.742676 324.0
1085.280273 112.0
1085.398193 152.0
1085.667114 28.0
1085.863892 172.0
1085.969238 56.0
1086.342651 108.0
1086.408203 236.0
1086.775635 168.0
1087.031616 136.0
1087.51062 188.0
1087.556519 56.0
1087.67981 184.0
1087.945801 224.0
1088.029175 152.0
1088.134277 172.0
1088.226196 200.0
1088.377197 124.0
1088.567627 124.0
1088.718628 208.0
1089.04541 160.0
1089.119263 144.0
1089.484985 200.0
1090.360962 192.0
1090.689575 172.0
1090.937622 180.0
1090.998535 152.0
1091.250488 136.0
1091.482178 204.0
1091.688965 164.0
1092.1427 140.0
1092.326904 204.0
1092.570312 64.0
1092.655762 148.0
1093.116333 160.0
1093.570435 164.0
1093.616577 184.0
1093.741577 176.0
1093.899536 44.0
1094.004883 88.0
1094.131348 204.0
1094.195801 128.0
1094.268188 176.0
1094.617188 192.0
1094.722534 192.0
1094.834473 212.0
1094.906982 200.0
1094.966187 248.0
1095.148071 196.0
1095.328491 68.0
1095.493164 188.0
1095.703979 120.0
1095.888428 124.0
1095.967529 132.0
1096.020142 228.0
1096.135742 140.0
1096.343018 148.0
1096.514404 64.0
1096.890137 172.0
1097.068115 128.0
1097.219727 212.0
1097.476807 48.0
1097.621948 164.0
1097.694458 176.0
1097.740601 188.0
1098.042236 204.0
1098.235229 204.0
1098.650757 140.0
1098.848633 160.0
1098.901489 120.0
1099.099365 144.0
1099.336914 188.0
1099.897949 168.0
1100.062988 124.0
1100.201172 148.0
1100.260986 68.0
1100.419434 104.0
1100.94104 120.0
1101.040161 184.0
1101.313232 244.0
1101.588379 168.0
1101.641235 116.0
1101.88562 268.0
1102.116821 156.0
1102.249023 184.0
1102.632324 144.0
1102.784302 40.0
1102.890015 112.0
1103.02771 176.0
1103.478394 192.0
1103.789185 152.0
1103.908203 144.0
1104.338013 200.0
1104.470337 76.0
1104.840698 224.0
1104.917847 224.0
1105.019409 172.0
1105.092163 184.0
1105.138428 116.0
1105.224487 160.0
1105.46936 148.0
1105.556641 176.0
1106.569946 212.0
1107.053955 228.0
1107.130859 112.0
1107.183838 196.0
1107.289795 108.0
1107.402466 168.0
1107.561401 88.0
1107.8396 80.0
1107.932373 204.0
1108.40271 48.0
1108.800293 136.0
1108.893066 184.0
1108.994385 180.0
1109.171509 76.0
1109.237793 164.0
1109.42334 196.0
1109.516235 324.0
1109.72168 100.0
1109.887451 212.0
1110.159302 160.0
1110.258789 60.0
1110.599487 132.0
1110.66333 148.0
1110.873169 148.0
1111.127686 184.0
1111.227295 192.0
1111.280273 160.0
1111.333374 248.0
1111.38916 260.0
1111.446167 112.0
1111.512573 152.0
1111.592163 196.0
1111.678467 152.0
1111.857666 204.0
1112.136353 120.0
1112.287109 168.0
1113.464233 144.0
1113.604248 180.0
1113.743164 188.0
1113.9823 128.0
1114.101807 52.0
1114.161621 160.0
1114.254639 156.0
1114.327759 164.0
1114.374268 96.0
1114.520386 152.0
1114.566895 160.0
1115.04541 180.0
1115.172119 160.0
1115.523926 100.0
1115.72998 116.0
1115.876221 148.0
1116.082397 128.0
1116.295166 176.0
1116.875244 148.0
1117.472412 180.0
1117.669067 168.0
1117.778564 164.0
1118.091309 92.0
1118.151123 212.0
1118.304199 196.0
1118.437378 304.0
1118.563843 124.0
1118.750244 212.0
1119.023193 196.0
1119.149658 136.0
1119.226685 28.0
1119.675781 152.0
1119.828857 172.0
1119.895508 184.0
1119.955444 164.0
1120.221924 152.0
1120.297241 188.0
1120.355103 192.0
1120.488403 216.0
1120.841431 156.0
1120.981445 200.0
1121.354614 148.0
1121.418579 152.0
1122.007812 220.0
1122.181152 168.0
1122.387817 172.0
1122.721313 64.0
1122.841309 148.0
1122.954712 156.0
1123.20813 220.0
1123.595093 148.0
1123.675171 272.0
1123.881958 168.0
1123.94873 152.0
1124.184326 136.0
1124.295654 160.0
1124.435791 188.0
1124.482544 152.0
1124.595947 284.0
1124.923096 136.0
1125.230103 188.0
1125.490479 220.0
1125.563965 56.0
1125.897827 188.0
1125.984619 144.0
1126.271851 172.0
1126.338623 156.0
1126.552368 164.0
1126.639282 152.0
1126.772827 176.0
1126.993408 228.0
1127.28064 144.0
1127.60144 52.0
1128.189697 128.0
1128.463745 148.0
1128.533691 160.0
1128.605103 180.0
1128.886841 168.0
1129.125732 172.0
1129.291382 200.0
1129.553223 196.0
1130.296387 148.0
1130.534668 276.0
1130.608154 208.0
1130.898682 112.0
1131.019165 188.0
1131.666016 220.0
1131.69397 136.0
1131.710693 192.0
1132.003296 68.0
1132.14856 184.0
1132.626099 204.0
1132.679688 184.0
1132.77356 40.0
1132.96106 188.0
1133.014648 148.0
1133.403198 176.0
1133.517212 196.0
1133.671265 156.0
1133.79187 148.0
1133.858887 216.0
1134.509033 152.0
1134.576172 152.0
1134.643188 220.0
1134.790649 176.0
1135.481323 172.0
1135.535034 256.0
1135.970947 280.0
1136.038086 56.0
1136.145386 72.0
1136.272827 216.0
1136.503662 160.0
1136.64856 140.0
1136.80957 136.0
1137.567993 136.0
1137.930542 220.0
1138.084961 176.0
1138.144653 176.0
1138.23938 56.0
1138.460938 220.0
1138.519531 180.0
1138.823608 132.0
1138.978149 140.0
1139.273682 136.0
1139.918701 172.0
1139.965698 72.0
1140.079956 100.0
1140.136719 156.0
1140.510132 152.0
1140.583984 176.0
1140.886475 140.0
1141.101685 144.0
1141.310059 148.0
1141.686646 164.0
1141.733765 152.0
1141.848022 136.0
1142.049805 144.0
1142.110352 232.0
1142.184326 136.0
1142.30542 180.0
1142.529297 160.0
1142.628296 128.0
1142.870483 156.0
1143.17981 144.0
1143.4021 176.0
1143.680298 196.0
1143.765503 56.0
1143.873291 128.0
1144.216553 116.0
1144.768677 148.0
1145.318359 236.0
1145.590332 156.0
1145.718384 112.0
1145.826172 224.0
1145.927246 144.0
1146.082153 176.0
1146.304565 240.0
1146.354126 212.0
1146.419067 252.0
1146.628052 120.0
1146.722412 300.0
1146.769531 208.0
1147.288574 128.0
1147.387085 244.0
1147.443604 108.0
1147.598633 140.0
1147.666138 164.0
1147.841431 172.0
1147.929077 152.0
1148.003296 164.0
1148.093628 148.0
1148.664185 216.0
1148.71814 192.0
1149.08252 156.0
1149.224121 144.0
1149.307983 112.0
1149.479492 204.0
1149.568237 160.0
1149.750488 60.0
1150.033936 196.0
1150.081177 108.0
1150.337646 164.0
1150.762939 232.0
1150.82373 200.0
1151.518555 200.0
1151.580078 124.0
1151.877197 188.0
1152.208008 112.0
1152.299072 136.0
1152.57312 176.0
1152.654175 156.0
1152.877197 212.0
1153.369751 192.0
1153.458374 156.0
1153.546265 180.0
1153.613892 184.0
1153.931641 232.0
1154.344116 136.0
1154.404907 156.0
1154.499634 232.0
1154.770142 140.0
1154.830933 148.0
1154.952759 132.0
1155.128296 180.0
1155.714111 232.0
1155.764526 204.0
1155.81189 152.0
1156.075806 144.0
1156.700684 252.0
1156.820312 176.0
1156.867676 196.0
1156.935425 144.0
1157.28064 120.0
1157.653076 156.0
1157.807007 176.0
1157.93335 188.0
1158.418457 124.0
1158.49292 152.0
1158.682617 124.0
1158.879028 208.0
1159.095947 212.0
1159.617676 172.0
1160.139648 184.0
1160.481689 164.0
1160.661621 148.0
1160.824341 216.0
1160.966797 144.0
1161.265259 148.0
1161.353394 228.0
1161.692505 288.0
1162.100342 144.0
1162.235229 116.0
1162.322754 172.0
1162.730591 208.0
1162.934204 184.0
1163.097168 208.0
1163.24646 200.0
1163.321167 220.0
1163.572266 216.0
1163.911743 220.0
1164.482178 56.0
1164.529785 176.0
1164.658813 164.0
1164.923706 140.0
1165.161133 200.0
1165.412842 184.0
1165.593384 216.0
1165.725464 124.0
1165.949707 132.0
1166.296265 80.0
1166.439087 220.0
1166.54895 184.0
1166.606934 144.0
1166.710938 228.0
1166.846924 240.0
1166.921753 212.0
1167.125732 160.0
1167.19043 192.0
1167.248047 128.0
1167.384033 448.0
1167.439575 152.0
1167.69043 176.0
1167.780396 152.0
1167.894165 204.0
1168.016602 212.0
1168.47229 168.0
1168.914551 88.0
1169.166382 152.0
1169.220825 188.0
1169.370483 152.0
1169.438599 252.0
1169.506714 144.0
1169.554321 168.0
1169.615601 136.0
1170.269043 92.0
1170.324585 196.0
1170.398438 260.0
1170.466553 216.0
1170.670776 192.0
1170.754639 160.0
1171.135742 168.0
1172.250244 180.0
1172.428345 116.0
1172.551025 148.0
1172.660156 160.0
1172.762329 152.0
1172.83728 172.0
1173.228271 204.0
1173.294067 212.0
1173.389404 196.0
1173.44397 116.0
1173.519043 52.0
1173.628052 220.0
1173.692993 320.0
1173.866699 196.0
1173.921265 208.0
1174.101807 196.0
1174.378174 180.0
1174.978516 204.0
1175.108154 228.0
1175.196899 196.0
1175.31958 88.0
1175.865601 232.0
1176.077148 108.0
1176.131714 156.0
1176.179565 132.0
1176.268188 432.0
1176.514038 200.0
1176.624268 164.0
1176.7052 40.0
1177.054077 144.0
1177.251343 220.0
1177.503296 152.0
1177.58606 220.0
1177.9375 176.0
1178.064209 128.0
1178.473999 108.0
1178.547974 172.0
1178.651733 148.0
1178.740479 176.0
1178.808838 172.0
1179.034424 224.0
1179.266724 236.0
1179.318848 52.0
1179.649536 156.0
1179.779419 140.0
1179.916138 192.0
1180.306519 184.0
1180.469604 192.0
1181.078613 108.0
1181.317993 160.0
1181.612183 148.0
1181.742188 156.0
1182.282715 196.0
1183.179443 148.0
1183.391602 124.0
1183.446411 84.0
1183.501221 184.0
1183.791016 220.0
1183.887695 224.0
1184.31604 88.0
1184.377686 160.0
1184.461304 140.0
1184.54895 40.0
1184.631226 52.0
1185.06958 160.0
1185.232056 132.0
1185.36853 244.0
1185.54248 68.0
1185.645264 156.0
1185.816528 196.0
1185.996704 192.0
1186.265625 180.0
1186.337524 168.0
1186.500122 220.0
1186.584229 120.0
1186.954468 220.0
1187.058228 152.0
1187.112183 128.0
1187.19458 160.0
1187.702026 160.0
1187.832397 56.0
1188.086182 212.0
1188.250854 184.0
1188.35376 152.0
1188.436035 132.0
1188.607544 88.0
1188.738159 180.0
1188.806763 168.0
1188.916382 204.0
1189.190918 160.0
1189.259521 92.0
1189.355591 180.0
1189.437988 152.0
1189.637085 236.0
1189.808716 168.0
1189.940063 180.0
1190.09021 108.0
1190.230225 168.0
1190.598267 180.0
1190.72876 164.0
1190.976074 156.0
1191.10791 164.0
1191.253418 180.0
1191.312622 136.0
1191.573975 352.0
1192.040894 132.0
1192.253052 208.0
1192.384521 124.0
1192.570068 136.0
1192.638794 168.0
1192.755615 136.0
1192.879395 116.0
1193.003052 184.0
1193.209351 136.0
1193.278076 176.0
1193.39502 80.0
1193.477539 124.0
1193.979492 216.0
1194.048218 164.0
1194.199585 108.0
1194.335693 120.0
1194.353149 96.0
1194.460938 176.0
1194.557251 176.0
1194.625977 124.0
1194.836426 176.0
1195.197021 192.0
1195.403442 168.0
1195.582397 104.0
1195.664917 220.0
1195.857666 188.0
1196.222412 128.0
1196.504761 184.0
1196.773193 120.0
1196.890259 132.0
1197.317261 164.0
1197.549683 224.0
1197.654663 80.0
1197.85437 128.0
1197.930176 136.0
1197.985352 120.0
1198.198853 168.0
1198.295288 160.0
1198.433105 184.0
1198.749023 164.0
1198.772949 140.0
1198.800537 208.0
1198.915405 104.0
1199.115356 120.0
1199.287598 140.0
1199.370361 132.0
1199.500977 208.0
1199.597778 124.0
1199.652954 188.0
1199.763184 168.0
1199.956299 172.0
1200.066528 144.0
1200.142456 184.0
1200.252808 116.0
1200.321655 228.0
1200.432007 152.0
1200.901001 184.0
1201.218262 160.0
1201.266602 232.0
1201.369995 188.0
1201.528687 108.0
1201.627563 332.0
1201.684082 184.0
1201.763306 40.0
1201.977173 148.0
1202.253174 136.0
1202.315308 220.0
1202.709839 176.0
1202.82605 156.0
1202.922607 144.0
1203.033081 164.0
1203.219482 124.0
1203.350708 160.0
1203.495728 96.0
1203.716675 100.0
1203.799438 152.0
1203.915405 228.0
1204.248413 188.0
1204.329346 208.0
1204.490112 188.0
1204.549683 128.0
1204.801025 116.0
1204.998657 156.0
1205.077271 176.0
1205.12854 156.0
1205.346802 176.0
1205.550903 140.0
1205.649658 208.0
1205.913452 180.0
1206.376587 120.0
1206.693359 208.0
1206.816528 168.0
1206.908936 164.0
1207.24231 204.0
1207.309937 124.0
1207.413696 128.0
1207.538208 136.0
1207.614258 96.0
1207.724976 204.0
1207.787231 132.0
1207.925537 160.0
1208.001587 228.0
1208.056885 52.0
1208.112305 156.0
1208.27832 212.0
1208.38208 192.0
1208.527344 156.0
1208.603516 132.0
1208.731079 316.0
1208.942505 176.0
1209.115601 136.0
1209.309326 128.0
1209.357788 144.0
1209.676147 148.0
1209.856201 152.0
1210.082886 160.0
1210.202393 116.0
1210.271606 160.0
1210.347778 128.0
1210.472412 132.0
1210.534668 160.0
1211.012573 144.0
1211.310425 136.0
1211.445312 252.0
1211.774536 120.0
1211.885376 152.0
1212.197144 180.0
1212.312744 232.0
1212.564453 164.0
1212.619873 168.0
1212.915649 160.0
1213.125854 168.0
1213.555786 124.0
1213.625122 148.0
1213.862793 212.0
1213.954346 220.0
1214.110474 160.0
1214.17981 80.0
1214.420776 176.0
1214.519653 144.0
1214.658325 208.0
1214.770996 124.0
1214.873413 140.0
1214.935791 220.0
1215.199463 100.0
1215.345215 160.0
1215.428467 192.0
1215.650513 128.0
1215.751587 208.0
1215.844849 140.0
1216.025269 132.0
1216.115479 160.0
1216.219604 96.0
1216.705444 184.0
1216.785278 188.0
1216.832886 112.0
1216.899902 140.0
1216.948486 112.0
1217.08728 192.0
1217.135986 180.0
1217.219238 228.0
1217.49707 68.0
1217.913696 200.0
1218.143066 184.0
1218.47644 112.0
1218.56604 132.0
1218.66394 248.0
1218.816895 44.0
1219.116821 272.0
1219.379761 176.0
1219.553467 144.0
1219.664673 176.0
1219.720337 36.0
1219.971313 148.0
1220.293213 172.0
1220.696655 184.0
1221.152588 172.0
1221.291748 216.0
1221.465576 164.0
1221.52124 152.0
1222.049927 112.0
1222.119507 204.0
1222.536987 172.0
1222.592651 204.0
1222.641357 96.0
1222.692871 132.0
1223.045044 168.0
1223.246948 200.0
1223.354248 212.0
1223.523682 152.0
1223.629761 360.0
1223.796875 148.0
1223.970947 124.0
1224.082397 272.0
1224.472412 92.0
1224.521118 136.0
1224.618652 124.0
1224.716064 144.0
1224.936279 156.0
1225.301758 176.0
1225.851685 160.0
1225.984131 156.0
1226.736816 148.0
1226.827393 172.0
1226.952881 148.0
1227.078369 172.0
1227.223755 196.0
1227.351685 252.0
1227.44104 100.0
1227.698975 220.0
1228.061646 212.0
1228.187134 124.0
1228.277832 132.0
1228.584839 284.0
1228.703369 160.0
1229.303467 104.0
1229.498779 164.0
1229.910645 88.0
1230.050171 132.0
1230.392212 188.0
1230.455078 140.0
1230.685547 152.0
1230.952271 208.0
1231.013672 164.0
1231.244141 184.0
1231.418701 144.0
1231.572388 68.0
1231.746948 140.0
1231.928589 188.0
1231.998413 116.0
1232.068359 248.0
1232.494507 108.0
1233.235229 112.0
1233.389038 204.0
1233.444092 208.0
1233.563721 68.0
1233.647705 180.0
1233.836426 280.0
1234.00415 204.0
1234.576172 116.0
1234.871338 120.0
1235.018188 104.0
1235.359375 204.0
1235.437866 152.0
1235.493774 164.0
1235.913574 108.0
1236.270508 84.0
1236.36377 160.0
1236.463501 132.0
1236.753418 56.0
1237.005371 180.0
1237.082397 176.0
1237.180298 224.0
1237.407837 180.0
1237.676147 136.0
1237.901489 228.0
1238.055542 204.0
1238.223633 184.0
1238.328735 164.0
1238.377686 40.0
1238.489746 168.0
1238.839966 156.0
1238.987183 176.0
1239.050171 92.0
1239.380737 220.0
1239.487915 132.0
1239.785889 132.0
1239.905029 128.0
1240.143311 144.0
1240.213379 144.0
1240.40271 64.0
1240.558105 160.0
1240.739136 180.0
1241.173828 128.0
1241.22998 176.0
1241.279053 160.0
1241.526245 140.0
1241.783936 112.0
1241.896118 240.0
1242.022339 176.0
1242.548462 152.0
1242.610962 164.0
1242.751953 180.0
1242.829102 144.0
1243.208008 32.0
1243.937988 96.0
1244.043335 240.0
1244.246826 132.0
1244.331055 148.0
1244.387329 180.0
1244.443481 236.0
1244.52771 224.0
1244.752441 52.0
1244.871704 152.0
1245.006592 136.0
1245.313477 180.0
1245.436768 244.0
1245.602173 184.0
1245.974487 164.0
1246.290649 172.0
1246.339844 128.0
1246.423096 180.0
1246.564697 68.0
1246.641968 184.0
1246.979248 192.0
1247.067505 192.0
1247.260498 160.0
1247.478394 192.0
1247.534546 212.0
1247.58374 144.0
1247.640015 156.0
1247.720215 148.0
1247.942383 140.0
1248.209473 148.0
1248.329102 152.0
1248.380371 144.0
1248.518921 160.0
1248.582275 132.0
1248.63147 156.0
1248.724121 188.0
1248.779175 136.0
1249.01123 196.0
1249.114868 132.0
1249.22937 160.0
1249.471191 192.0
1249.707642 124.0
1249.778076 128.0
1249.883545 196.0
1250.193237 176.0
1250.263794 132.0
1250.348022 128.0
1250.791504 212.0
1250.984375 184.0
1251.150513 168.0
1251.313843 136.0
1251.383301 272.0
1251.430298 80.0
1251.544678 196.0
1251.678467 124.0
1251.960205 96.0
1252.12915 156.0
1252.403809 220.0
1252.579956 348.0
1252.727905 184.0
1252.883545 212.0
1253.140747 264.0
1253.376099 96.0
1253.471558 220.0
1253.629761 132.0
1253.876587 124.0
1254.06665 116.0
1254.178223 180.0
1254.383789 124.0
1254.623535 104.0
1254.870239 164.0
1254.98291 188.0
1255.074707 176.0
1255.138184 140.0
1255.497803 52.0
1256.12793 196.0
1256.148193 248.0
1256.351318 32.0
1256.421753 208.0
1256.781616 144.0
1257.032593 248.0
1257.14856 164.0
1257.254395 380.0
1257.371826 248.0
1257.628418 188.0
1257.932007 180.0
1258.037842 172.0
1258.263794 200.0
1258.31311 208.0
1258.602661 156.0
1258.842773 96.0
1258.994629 176.0
1259.125244 116.0
1259.372437 372.0
1259.44873 184.0
1259.470337 148.0
1259.654907 244.0
1259.746704 128.0
1259.817383 64.0
1259.888062 196.0
1260.31189 192.0
1260.545166 132.0
1260.657715 204.0
1260.7854 180.0
1261.166992 92.0
1261.36499 168.0
1261.428589 104.0
1261.640625 192.0
1261.687134 256.0
1261.824463 172.0
1262.10022 156.0
1262.347656 164.0
1262.432495 188.0
1262.602173 172.0
1262.72937 180.0
1262.906372 180.0
1262.998291 96.0
1263.337769 140.0
1263.46106 220.0
1263.670288 184.0
1263.917969 116.0
1264.335449 164.0
1264.42749 72.0
1264.525146 180.0
1264.703491 168.0
1265.036133 148.0
1265.099854 200.0
1265.163574 136.0
1265.248535 240.0
1265.460938 236.0
1265.510498 176.0
1265.665894 168.0
1266.020264 152.0
1266.077026 188.0
1266.296509 136.0
1266.558594 136.0
1266.693115 256.0
1266.756958 100.0
1267.139404 204.0
1267.295288 36.0
1267.344971 68.0
1267.511353 148.0
1267.621216 68.0
1267.706299 44.0
1267.812622 164.0
1268.126099 172.0
1268.280396 264.0
1268.344116 120.0
1268.904175 168.0
1269.159424 112.0
1269.208984 156.0
1269.591919 160.0
1270.138062 168.0
1270.272827 124.0
1270.478516 156.0
1270.613281 184.0
1270.854492 52.0
1270.904175 196.0
1271.070557 140.0
1271.137085 240.0
1271.569946 160.0
1271.622437 128.0
1271.855103 204.0
1271.947388 96.0
1272.543701 128.0
1272.635986 144.0
1272.692871 128.0
1273.036987 136.0
1273.109741 152.0
1273.431396 200.0
1273.665771 104.0
1273.765137 76.0
1274.252197 172.0
1274.389648 168.0
1274.511108 212.0
1274.93042 120.0
1275.029907 204.0
1275.235962 92.0
1275.349731 168.0
1275.783325 128.0
1275.888794 184.0
1275.946777 60.0
1275.996582 116.0
1276.185425 168.0
1276.309448 140.0
1276.401855 132.0
1276.839478 160.0
1277.056763 140.0
1277.134277 200.0
1277.205444 32.0
1277.333496 172.0
1277.546875 124.0
1277.632202 112.0
1278.03064 164.0
1278.101807 132.0
1278.151611 172.0
1278.208496 132.0
1278.279663 176.0
1278.400635 136.0
1278.528809 256.0
1278.813477 88.0
1278.934448 192.0
1279.026978 180.0
1279.156128 168.0
1279.367188 160.0
1279.432739 148.0
1279.605957 224.0
1279.838501 380.0
1279.895508 136.0
1280.180298 156.0
1280.490112 164.0
1280.593384 48.0
1281.00647 140.0
1281.061646 196.0
1281.17749 168.0
1281.234497 92.0
1281.512329 164.0
1281.768799 140.0
1281.899902 212.0
1282.008789 208.0
1282.082397 172.0
1282.463989 192.0
1282.745239 168.0
1283.125854 128.0
1283.272705 180.0
1283.365479 136.0
1283.443848 168.0
1283.542725 156.0
1283.84314 92.0
1283.900269 180.0
1284.121338 176.0
1284.235474 60.0
1284.449341 184.0
1284.905884 136.0
1285.219849 236.0
1285.402222 152.0
1285.58374 204.0
1285.655151 172.0
1285.940552 252.0
1286.00769 184.0
1286.06189 104.0
1286.247559 208.0
1286.411743 136.0
1286.490234 196.0
1286.540161 132.0
1286.675781 132.0
1287.004272 208.0
1287.208008 216.0
1287.261353 132.0
1287.379272 156.0
1287.554077 120.0
1287.682617 132.0
1287.763672 224.0
1288.046875 184.0
1288.168335 196.0
1288.268311 52.0
1288.436279 184.0
1288.610107 184.0
1288.718384 260.0
1288.782715 204.0
1288.861328 132.0
1288.954224 100.0
1289.018555 116.0
1289.068481 256.0
1289.611694 156.0
1289.683105 152.0
1289.829712 152.0
1290.076294 220.0
1290.140625 200.0
1290.255005 96.0
1290.591064 136.0
1290.655396 216.0
1290.948608 204.0
1291.213135 148.0
1291.363281 96.0
1291.427734 84.0
1291.492065 316.0
1291.603394 212.0
1291.685181 60.0
1291.763916 124.0
1291.935547 216.0
1292.207397 424.0
1292.300415 120.0
1292.501343 184.0
1292.579468 184.0
1292.959839 180.0
1293.12207 208.0
1293.280762 172.0
1293.452637 48.0
1293.595703 120.0
1293.846313 152.0
1294.146973 160.0
1294.526489 188.0
1294.626709 88.0
1294.773071 160.0
1295.171021 176.0
1295.256958 124.0
1295.371582 208.0
1295.604126 308.0
1295.811523 188.0
1296.045044 180.0
1296.353149 220.0
1296.490967 156.0
1296.618286 176.0
1296.718628 196.0
1297.134399 200.0
1297.234741 152.0
1297.313599 156.0
1297.564453 100.0
1297.887085 140.0
1297.937256 160.0
1298.03772 100.0
1298.166748 132.0
1298.274292 128.0
1298.367554 348.0
1298.575562 140.0
1299.027466 152.0
1299.256958 184.0
1299.495483 180.0
1299.714478 168.0
1299.974487 168.0
1300.23999 268.0
1300.498413 88.0
1300.896118 168.0
1301.072632 232.0
1301.137207 196.0
1301.194702 48.0
1301.338257 140.0
1301.625488 132.0
1301.70874 220.0
1301.862427 200.0
1301.970093 40.0
1302.401001 184.0
1302.686768 192.0
1302.925415 196.0
1303.033203 216.0
1303.356567 172.0
1303.446045 132.0
1303.58313 152.0
1303.793091 160.0
1303.916992 48.0
1303.97229 224.0
1304.118286 156.0
1304.190186 32.0
1304.261963 152.0
1304.535156 196.0
1304.642944 156.0
1304.73645 192.0
1304.837036 140.0
1305.052734 80.0
1305.21875 188.0
1305.405151 216.0
1305.584839 152.0
1305.671143 160.0
1305.944458 184.0
1306.073975 156.0
1306.138672 200.0
1306.404785 124.0
1306.491211 144.0
1306.599854 196.0
1306.728516 156.0
1307.584839 136.0
1307.641846 164.0
1307.69812 108.0
1307.887085 168.0
1307.9375 176.0
1308.009521 192.0
1308.164795 140.0
1308.326172 100.0
1308.513428 180.0
1308.642944 148.0
1308.75354 248.0
1308.945435 128.0
1309.039062 208.0
1309.149658 144.0
1309.182495 52.0
1309.195435 192.0
1309.283813 228.0
1309.522095 200.0
1309.795166 160.0
1310.040161 192.0
1310.227417 128.0
1310.285034 164.0
1310.364258 140.0
1310.573242 96.0
1310.739014 72.0
1310.796997 160.0
1310.976196 140.0
1311.265015 148.0
1311.60376 176.0
1311.668701 176.0
1311.797974 176.0
1311.903076 204.0
1311.964233 164.0
1312.065186 132.0
1312.375122 184.0
1312.656372 200.0
1312.706787 104.0
1312.757324 124.0
1312.872681 164.0
1313.096191 176.0
1313.182739 140.0
1313.233276 116.0
1313.288452 192.0
1313.457153 196.0
1313.651611 40.0
1313.997925 156.0
1314.055664 212.0
1314.293701 152.0
1314.35083 192.0
1314.452515 212.0
1314.50293 216.0
1314.560669 64.0
1314.647339 168.0
1314.762939 184.0
1314.905151 92.0
1315.893066 192.0
1316.192017 180.0
1316.596436 120.0
1316.704712 184.0
1316.847412 168.0
1316.946655 192.0
1317.051392 168.0
1317.138062 112.0
1317.513672 200.0
1317.578735 156.0
1317.904053 156.0
1317.97644 188.0
1318.142334 156.0
1318.225098 164.0
1318.308472 44.0
1318.366333 132.0
1318.546997 32.0
1318.86499 124.0
1318.915527 148.0
1319.03125 196.0
1319.089111 156.0
1319.222412 196.0
1319.36377 184.0
1319.47937 188.0
1319.661377 164.0
1319.75415 248.0
1319.845093 216.0
1320.028931 152.0
1320.098877 148.0
1320.253052 296.0
1320.340454 180.0
1320.62915 164.0
1321.066772 324.0
1321.135498 160.0
1321.280151 116.0
1321.504517 128.0
1321.613037 216.0
1321.678101 200.0
1321.735962 120.0
1321.822998 168.0
1321.924194 180.0
1322.097778 160.0
1322.22937 156.0
1322.401733 124.0
1322.517578 196.0
1323.031494 144.0
1323.473145 152.0
1323.654175 168.0
1323.741089 188.0
1324.076538 180.0
1324.153809 136.0
1324.204468 132.0
1324.327637 160.0
1324.486938 84.0
1324.573975 160.0
1324.790527 176.0
1325.182495 128.0
1325.479492 188.0
1325.544678 168.0
1325.595459 184.0
1325.733154 120.0
1325.892578 180.0
1326.230591 196.0
1326.356445 164.0
1326.428955 104.0
1326.559326 156.0
1326.689819 156.0
1327.110352 144.0
1327.346558 324.0
1327.596191 104.0
1327.646973 176.0
1327.7771 180.0
1327.980591 164.0
1328.234375 132.0
1328.415771 156.0
1328.524536 212.0
1328.763916 108.0
1328.93811 116.0
1329.293579 152.0
1329.358887 96.0
1329.416992 40.0
1329.641968 204.0
1330.284546 120.0
1330.349243 212.0
1330.419189 332.0
1330.571045 108.0
1330.745239 156.0
1331.040283 128.0
1331.067261 196.0
1331.246338 224.0
1331.31897 140.0
1331.384277 152.0
1331.435059 172.0
1331.689331 96.0
1331.740112 40.0
1332.168701 108.0
1332.299438 196.0
1332.568237 172.0
1332.633667 120.0
1332.749878 176.0
1332.866089 148.0
1332.953369 244.0
1333.374878 252.0
1333.62915 160.0
1333.69458 128.0
1333.745483 340.0
1334.058105 188.0
1334.27002 80.0
1334.421509 72.0
1334.814209 64.0
1335.017822 120.0
1335.134155 136.0
1335.257812 180.0
1335.641846 164.0
1335.846924 144.0
1336.508911 120.0
1336.613159 76.0
1336.756348 136.0
1336.843628 188.0
1336.967407 136.0
1337.331299 200.0
1337.418579 256.0
1337.491455 168.0
1337.58606 208.0
1337.850952 140.0
1337.953247 160.0
1338.117432 92.0
1338.168457 160.0
1338.226685 176.0
1338.284912 112.0
1338.357666 100.0
1338.650513 136.0
1338.816406 196.0
1339.158691 216.0
1339.390991 176.0
1339.508423 164.0
1339.821655 140.0
1340.03125 196.0
1340.200439 40.0
1340.360718 144.0
1340.433594 156.0
1340.608521 120.0
1340.725098 164.0
1341.023926 44.0
1341.169678 276.0
1341.322754 160.0
1341.410156 216.0
1341.497681 148.0
1341.597412 128.0
1341.716431 180.0
1341.920532 132.0
1342.044434 116.0
1342.445557 192.0
1343.00708 64.0
1343.342651 156.0
1343.459351 132.0
1343.594849 128.0
1343.780273 144.0
1343.853271 120.0
1344.013794 128.0
1344.101318 64.0
1344.322754 152.0
1344.415161 156.0
1344.604858 192.0
1344.911377 100.0
1344.975586 156.0
1345.057373 116.0
1345.137695 180.0
1345.393188 128.0
1345.451538 64.0
1345.741333 168.0
1345.802002 164.0
1346.057617 152.0
1346.123291 132.0
1346.563599 216.0
1346.634521 164.0
1346.744019 180.0
1347.028931 204.0
1347.437988 32.0
1347.540283 156.0
1347.613281 200.0
1347.664429 144.0
1347.713623 60.0
1347.796021 112.0
1347.916748 144.0
1348.073608 164.0
1348.234375 268.0
1348.475586 180.0
1348.534058 144.0
1348.621826 136.0
1348.694092 176.0
1348.707764 156.0
1348.936035 204.0
1349.250366 160.0
1349.390747 160.0
1349.455078 140.0
1349.550171 212.0
1349.78418 108.0
1349.849976 208.0
1349.983521 196.0
1350.383789 132.0
1350.500854 156.0
1350.657837 144.0
1350.786133 184.0
1351.144531 172.0
1351.473755 144.0
1351.525513 152.0
1351.729858 224.0
1352.110352 44.0
1352.198242 168.0
1352.490967 148.0
1352.556885 176.0
1352.754517 216.0
1352.908203 212.0
1353.040039 76.0
1353.098511 172.0
1353.274292 192.0
1353.449951 144.0
1353.925903 124.0
1353.984253 116.0
1354.270142 180.0
1354.344482 172.0
1354.848877 396.0
1355.142822 160.0
1355.219604 224.0
1355.508301 152.0
1355.691406 200.0
1355.86731 36.0
1356.133301 216.0
1356.526978 176.0
1356.60022 96.0
1356.739502 216.0
1356.847046 268.0
1356.930176 176.0
1357.010864 140.0
1357.139526 168.0
1357.406738 144.0
1357.494751 156.0
1357.663452 196.0
1357.87854 164.0
1357.956177 140.0
1358.011353 232.0
1358.096069 64.0
1358.235352 204.0
1358.536255 124.0
1358.591675 164.0
1358.983765 180.0
1359.247925 148.0
1359.384155 188.0
1359.534058 208.0
1359.592773 168.0
1359.812988 196.0
1360.033081 64.0
1360.422119 124.0
1360.620361 104.0
1360.745239 212.0
1360.803955 160.0
1361.153687 164.0
1361.325195 164.0
1361.604248 180.0
1361.663086 88.0
1361.765869 148.0
1361.883423 372.0
1361.962769 128.0
1362.111084 180.0
1362.167725 180.0
1362.404907 156.0
1362.573853 144.0
1362.661987 176.0
1362.801636 96.0
1362.979126 152.0
1363.227783 180.0
1363.359985 196.0
1363.551147 132.0
1363.690796 96.0
1363.962769 144.0
1364.05835 320.0
1364.109741 48.0
1364.234741 120.0
1364.300903 200.0
1364.428467 220.0
1364.49939 132.0
1364.594971 140.0
1364.7052 148.0
1364.815552 124.0
1364.925781 152.0
1365.014038 224.0
1365.065552 168.0
1365.168457 224.0
1365.359741 152.0
1365.425537 168.0
1365.612671 132.0
1365.675903 200.0
1365.874512 136.0
1365.94812 152.0
1366.058472 132.0
1366.156982 152.0
1366.199585 356.0
1366.661621 136.0
1366.735229 160.0
1366.794067 120.0
1366.93396 172.0
1367.228271 208.0
1367.507935 196.0
1367.691895 196.0
1367.750854 84.0
1367.92749 180.0
1368.118896 188.0
1368.273438 184.0
1368.604736 176.0
1368.656372 216.0
1369.039185 192.0
1369.230713 192.0
1369.473755 180.0
1369.525269 192.0
1369.715942 176.0
1369.849365 140.0
1370.239868 176.0
1370.745361 164.0
1370.834229 156.0
1370.947144 148.0
1371.227173 168.0
1371.743164 132.0
1372.288696 188.0
1372.384521 164.0
1372.677734 220.0
1372.76062 220.0
1372.841675 112.0
1373.015625 160.0
1373.092407 184.0
1373.22522 112.0
1373.388184 160.0
1373.461182 160.0
1373.687622 156.0
1373.852173 196.0
1374.073486 92.0
1374.154663 196.0
1374.25061 48.0
1374.324341 184.0
1374.412842 132.0
1374.730225 204.0
1375.078979 152.0
1375.149658 240.0
1375.357544 108.0
1375.508789 176.0
1375.577148 184.0
1375.889038 140.0
1376.140015 184.0
1376.221191 172.0
1376.395142 88.0
1376.516602 128.0
1376.677368 196.0
1376.760254 136.0
1376.829712 268.0
1377.240112 180.0
1377.314209 148.0
1377.410156 168.0
1377.633789 188.0
1377.905151 140.0
1377.956787 108.0
1378.067627 176.0
1378.185913 204.0
1378.237549 192.0
1378.370605 160.0
1378.631836 228.0
1378.740112 92.0
1378.836182 132.0
1378.90271 212.0
1378.961792 116.0
1379.057861 192.0
1379.262451 152.0
1379.346191 208.0
1379.634399 76.0
1379.723145 176.0
1379.922729 140.0
1380.011475 160.0
1380.329956 180.0
1380.462524 204.0
1380.514282 172.0
1380.625244 116.0
1380.69873 136.0
1380.780518 132.0
1381.06897 152.0
1381.224243 144.0
1381.47583 244.0
1381.542358 140.0
1381.763794 352.0
1381.912231 104.0
1382.097168 208.0
1382.200806 180.0
1382.352051 172.0
1382.48938 164.0
1382.54126 124.0
1382.689209 264.0
1382.866821 60.0
1383.222168 184.0
1383.288696 68.0
1383.340576 196.0
1383.625122 160.0
1383.725464 112.0
1384.095703 68.0
1384.229004 184.0
1384.46228 184.0
1384.799194 164.0
1384.910278 104.0
1384.963501 208.0
1385.021118 240.0
1385.359741 124.0
1385.531982 180.0
1385.828857 152.0
1385.895508 200.0
1386.021484 188.0
1386.110474 196.0
1386.28833 312.0
1386.547607 176.0
1386.781494 136.0
1386.955322 180.0
1387.029419 172.0
1387.155396 156.0
1387.229492 212.0
1387.696655 184.0
1387.800415 148.0
1387.85791 152.0
1387.908325 260.0
1388.393555 212.0
1388.504883 172.0
1388.723633 112.0
1388.846069 188.0
1389.498779 192.0
1389.67688 132.0
1389.773315 156.0
1389.847534 132.0
1389.976685 308.0
1390.099731 220.0
1390.312012 80.0
1390.474121 240.0
1390.5896 160.0
1390.886475 48.0
1391.061157 344.0
1391.30957 44.0
1391.376465 248.0
1391.428345 32.0
1391.539795 112.0
1391.67334 204.0
1391.851562 116.0
1392.014893 80.0
1392.116089 108.0
1392.549683 52.0
1392.609009 100.0
1392.68335 124.0
1392.772461 124.0
1392.839355 124.0
1393.114136 176.0
1393.210693 156.0
1393.40979 120.0
1393.522705 160.0
1393.857056 188.0
1393.926147 204.0
1394.236084 164.0
1394.304565 172.0
1394.364136 172.0
1394.536499 240.0
1394.704346 140.0
1395.046265 176.0
1395.461792 256.0
1395.692993 128.0
1395.789673 236.0
1395.940308 188.0
1396.027588 176.0
1396.280518 136.0
1396.40686 184.0
1396.496216 128.0
1396.67041 148.0
1396.830933 160.0
1397.085693 184.0
1397.553101 160.0
1397.683472 208.0
1397.827759 188.0
1397.932007 164.0
1398.02124 132.0
1398.205444 172.0
1398.371094 152.0
1398.497559 144.0
1398.884644 124.0
1399.055786 132.0
1399.338745 140.0
1399.524902 56.0
1399.614258 188.0
1399.725952 152.0
1399.822754 44.0
1400.269531 244.0
1400.388672 332.0
1400.589844 100.0
1401.19104 212.0
1401.220093 152.0
1401.407349 208.0
1401.543335 164.0
1401.804199 144.0
1402.016357 252.0
1402.072388 172.0
1402.213989 124.0
1402.392944 100.0
1402.489746 60.0
1402.571777 88.0
1402.668701 136.0
1402.720825 100.0
1402.79541 152.0
1402.869995 144.0
1402.996704 128.0
1403.05188 180.0
1403.391846 108.0
1403.832764 148.0
1404.003296 152.0
1404.070312 308.0
1404.143677 172.0
1404.234497 144.0
1404.383789 148.0
1404.478027 152.0
1404.547729 204.0
1404.629761 216.0
1404.751587 160.0
1404.883423 240.0
1404.943115 196.0
1405.062378 132.0
1405.696655 180.0
1405.807495 220.0
1405.942871 168.0
1406.001343 208.0
1406.129395 196.0
1406.211548 116.0
1406.292969 172.0
1406.816162 116.0
1406.981201 144.0
1407.0625 180.0
1407.268188 216.0
1407.689697 216.0
1407.86145 188.0
1407.943726 148.0
1408.010742 188.0
1408.087036 172.0
1408.39917 152.0
1408.60083 168.0
1409.040039 196.0
1409.19104 188.0
1409.293335 160.0
1409.564575 112.0
1409.811157 96.0
1409.900879 192.0
1410.032471 144.0
1410.228516 100.0
1410.424072 252.0
1410.551147 120.0
1410.603394 156.0
1410.693115 152.0
1410.984619 124.0
1411.19397 168.0
1411.33606 196.0
1411.440796 180.0
1411.588379 172.0
1411.732422 144.0
1411.815796 184.0
1412.001587 128.0
1412.292358 188.0
1412.392212 176.0
1412.472778 184.0
1412.846802 136.0
1412.921631 132.0
1413.011353 216.0
1413.063721 136.0
1413.161011 196.0
1413.356812 164.0
1413.498291 200.0
1413.587524 196.0
1413.699707 232.0
1413.894287 164.0
1414.146973 48.0
1414.50061 168.0
1414.730957 88.0
1414.867432 120.0
1415.005493 168.0
1415.51123 96.0
1415.698486 216.0
1415.765869 56.0
1415.825806 104.0
1415.923096 92.0
1416.162842 176.0
1416.234497 168.0
1416.627197 152.0
1416.741577 160.0
1416.822021 324.0
1417.016724 160.0
1417.279053 184.0
1417.466309 80.0
1417.563721 108.0
1417.7146 160.0
1417.803589 212.0
1418.035889 108.0
1418.195312 200.0
1418.25769 140.0
1418.552979 172.0
1418.665527 144.0
1418.912842 124.0
1419.190308 164.0
1419.298462 192.0
1419.377686 116.0
1419.490234 152.0
1419.546631 204.0
1419.605103 160.0
1419.722656 36.0
1419.857666 152.0
1420.103638 160.0
1420.202637 332.0
1420.255127 124.0
1420.360107 136.0
1420.532715 164.0
1420.715088 168.0
1421.020264 184.0
1421.126221 164.0
1421.196289 236.0
1421.68811 172.0
1421.988281 184.0
1422.085815 156.0
1422.175903 108.0
1422.228516 160.0
1422.347168 188.0
1422.546997 212.0
1423.054199 60.0
1423.209717 336.0
1423.287842 156.0
1423.714966 136.0
1423.827637 116.0
1423.947754 212.0
1424.263306 116.0
1424.36084 140.0
1424.470459 216.0
1424.561523 176.0
1424.57959 112.0
1424.729004 116.0
1424.811646 160.0
1425.138672 216.0
1425.23999 176.0
1425.315063 220.0
1425.450195 188.0
1425.562988 48.0
1425.795898 188.0
1425.923706 116.0
1425.98877 172.0
1426.073975 188.0
1426.133789 156.0
1426.216797 164.0
1426.682861 112.0
1427.088867 148.0
1427.29187 152.0
1427.592651 172.0
1427.697876 96.0
1427.968628 68.0
1428.412354 140.0
1428.623047 60.0
1428.750854 184.0
1429.127075 112.0
1429.277588 296.0
1429.337769 236.0
1429.448975 176.0
1429.503296 212.0
1429.6073 172.0
1429.77417 180.0
1429.84021 168.0
1429.962402 220.0
1430.037598 184.0
1430.316162 192.0
1430.662354 156.0
1430.715088 124.0
1430.948486 148.0
1431.023682 184.0
1431.144165 140.0
1431.452637 176.0
1431.492676 172.0
1431.588501 180.0
1432.057739 156.0
1432.251221 196.0
1432.320557 136.0
1432.447021 228.0
1432.831299 160.0
1432.884033 152.0
1433.16272 224.0
1433.43396 124.0
1433.531982 168.0
1433.74292 156.0
1434.149902 56.0
1434.334595 144.0
1434.421265 124.0
1434.578979 196.0
1434.722778 180.0
1434.783081 192.0
1434.916626 168.0
1435.087891 192.0
1435.303345 64.0
1435.371216 104.0
1435.567261 184.0
1435.917358 384.0
1436.07251 136.0
1436.146851 112.0
1436.540161 116.0
1436.65332 68.0
1436.706177 132.0
1436.819092 128.0
1436.955078 88.0
1437.106079 324.0
1437.204102 184.0
1437.498413 60.0
1437.573853 320.0
1437.7323 204.0
1437.853027 188.0
1438.087036 176.0
1438.162598 196.0
1438.196655 168.0
1438.328613 44.0
1438.479492 160.0
1438.586426 180.0
1438.635864 96.0
1438.773926 128.0
1438.836914 328.0
1438.911743 296.0
1439.007935 184.0
1439.113647 164.0
1439.468506 188.0
1439.657349 140.0
1439.75354 220.0
1439.997192 184.0
1440.149902 212.0
1440.314453 176.0
1440.36731 108.0
1440.465454 52.0
1440.63916 144.0
1440.779175 204.0
1440.956543 148.0
1441.440063 224.0
1441.523193 200.0
1441.587036 148.0
1441.999268 164.0
1442.127808 188.0
1442.213989 220.0
1442.331787 176.0
1442.483032 76.0
1442.664429 108.0
1442.99707 64.0
1443.050049 132.0
1443.110474 116.0
1443.163452 208.0
1443.363159 144.0
1443.443115 200.0
1443.640381 148.0
1443.753174 112.0
1443.806152 108.0
1443.980103 172.0
1444.138916 156.0
1444.396118 132.0
1444.448975 228.0
1444.5625 128.0
1444.706177 120.0
1444.827271 108.0
1444.925537 232.0
1444.985962 140.0
1445.152588 144.0
1445.646118 176.0
1445.765503 208.0
1445.901733 168.0
1446.01709 188.0
1446.113647 172.0
1446.204468 164.0
1446.37854 32.0
1446.575317 160.0
1446.923584 156.0
1447.090088 308.0
1447.158203 144.0
1447.302124 224.0
1447.415649 112.0
1447.616333 120.0
1447.741333 176.0
1447.80188 144.0
1447.94873 260.0
1448.301758 216.0
1448.900146 224.0
1449.176758 312.0
1449.271362 96.0
1450.001465 188.0
1450.461182 136.0
1450.626953 252.0
1450.666748 324.0
1450.779541 156.0
1450.862915 176.0
1450.99939 80.0
1451.060059 184.0
1451.15918 148.0
1451.219238 276.0
1451.358765 216.0
1451.499878 152.0
1451.616821 184.0
1451.689331 120.0
1451.742432 104.0
1451.933472 224.0
1452.326416 264.0
1452.493286 152.0
1452.576782 184.0
1452.64502 96.0
1452.758179 144.0
1453.335327 192.0
1453.484131 280.0
1454.088135 176.0
1454.268799 120.0
1454.356812 140.0
1454.435791 112.0
1454.553345 140.0
1454.609619 156.0
1454.857178 192.0
1454.929199 104.0
1455.079956 148.0
1455.164551 176.0
1455.35437 36.0
1455.640625 80.0
1455.72644 216.0
1455.981567 164.0
1456.060547 184.0
1456.212402 116.0
1456.296021 128.0
1456.840698 180.0
1457.017456 184.0
1457.420654 148.0
1457.847168 112.0
1458.187744 184.0
1458.296631 184.0
1458.392944 56.0
1458.70459 128.0
1459.510498 216.0
1459.614502 112.0
1459.840088 140.0
1460.026855 128.0
1460.052002 164.0
1460.247925 176.0
1460.366577 176.0
1460.610107 216.0
1460.780518 188.0
1460.955444 52.0
1461.069946 172.0
1461.160889 72.0
1461.22937 156.0
1461.407837 112.0
1461.480469 160.0
1461.540405 232.0
1461.613037 212.0
1461.723877 104.0
1461.819336 208.0
1461.891357 136.0
1462.066406 140.0
1462.317505 184.0
1462.492676 168.0
1462.626099 180.0
1462.751343 60.0
1463.101562 152.0
1463.170044 144.0
1463.307129 48.0
1463.444092 60.0
1463.527832 180.0
1463.64209 128.0
1463.788818 232.0
1463.946655 204.0
1464.205566 172.0
1464.731079 132.0
1464.799683 116.0
1464.929199 112.0
1465.066284 184.0
1465.188232 116.0
1465.264404 116.0
1465.38623 212.0
1465.500488 212.0
1465.567749 156.0
1465.954468 248.0
1466.102539 60.0
1466.480957 164.0
1466.613159 280.0
1466.666504 424.0
1466.825317 120.0
1466.902832 172.0
1467.047607 180.0
1467.108643 212.0
1467.217285 128.0
1467.268677 164.0
1467.340942 184.0
1467.642334 36.0
1467.695679 192.0
1467.832886 208.0
1467.939697 188.0
1468.168457 300.0
1468.267578 148.0
1468.35144 168.0
1468.475464 468.0
1468.528687 172.0
1468.603149 208.0
1468.755737 156.0
1469.068481 116.0
1469.297241 108.0
1469.356323 196.0
1469.739746 148.0
1469.902954 260.0
1469.96875 196.0
1470.08313 184.0
1470.258667 140.0
1470.318604 236.0
1470.884521 160.0
1471.058105 240.0
1471.266235 228.0
1471.516724 156.0
1471.716675 128.0
1472.182495 140.0
1472.259644 196.0
1472.358032 204.0
1472.461548 140.0
1472.686523 124.0
1472.803955 64.0
1472.984375 156.0
1473.351074 200.0
1473.537964 124.0
1473.601685 200.0
1473.702515 132.0
1473.854736 60.0
1473.955688 192.0
1474.229736 300.0
1474.298462 148.0
1474.474243 208.0
1474.925171 140.0
1475.042114 148.0
1475.123901 124.0
1475.360962 132.0
1475.574951 108.0
1475.720215 172.0
1475.888428 232.0
1476.3396 160.0
1476.614868 40.0
1476.676025 160.0
1476.806152 236.0
1476.905518 164.0
1476.974365 188.0
1477.081055 168.0
1477.165649 68.0
1477.425659 172.0
1477.486938 108.0
1477.986938 200.0
1478.27417 200.0
1478.611694 152.0
1478.79541 136.0
1479.040283 164.0
1479.17041 84.0
1479.391479 128.0
1479.790527 132.0
1479.886841 284.0
1480.066162 156.0
1480.180908 124.0
1480.256104 196.0
1480.464233 40.0
1480.540894 124.0
1480.686401 68.0
1480.940186 56.0
1481.031006 152.0
1481.176514 180.0
1481.368042 240.0
1481.544189 180.0
1481.62854 212.0
1481.760254 100.0
1481.820068 156.0
1482.065186 172.0
1482.306763 144.0
1482.364014 148.0
1482.547974 260.0
1482.716553 208.0
1482.808228 124.0
1483.005249 192.0
1483.352661 152.0
1483.720703 244.0
1483.835693 148.0
1483.941162 212.0
1484.057983 160.0
1484.265015 136.0
1484.363159 212.0
1484.533447 136.0
1484.962891 184.0
1485.277344 152.0
1485.468872 172.0
1485.599487 120.0
1485.72229 140.0
1485.79895 140.0
1485.883301 156.0
1486.136597 168.0
1486.251587 264.0
1486.397461 52.0
1486.638916 168.0
1486.688965 180.0
1486.796387 160.0
1486.903931 140.0
1486.995972 240.0
1487.051636 180.0
1487.134155 148.0
1487.402832 140.0
1487.456543 80.0
1487.556274 160.0
1487.810181 192.0
1487.947754 208.0
1488.070679 192.0
1488.138672 168.0
1488.648315 156.0
1488.738647 184.0
1488.846191 120.0
1489.007446 132.0
1489.230225 140.0
1489.330078 128.0
1489.429932 156.0
1489.506714 332.0
1489.859985 236.0
1489.990601 240.0
1490.144287 152.0
1490.582275 228.0
1490.682129 104.0
1490.881958 172.0
1491.177856 172.0
1491.273926 184.0
1491.350708 204.0
1491.404541 156.0
1491.508911 180.0
1491.607666 184.0
1491.765869 124.0
1492.023804 176.0
1492.300049 124.0
1492.389282 168.0
1492.542358 180.0
1492.785156 204.0
1492.857544 204.0
1492.919067 104.0
1492.995972 112.0
1493.166626 220.0
1493.272827 120.0
1493.503784 180.0
1493.611328 144.0
1493.700928 164.0
1493.809814 196.0
1494.019897 140.0
1494.265137 152.0
1494.372803 112.0
1494.572876 292.0
1494.688354 156.0
1494.757568 172.0
1494.942261 68.0
1495.027344 200.0
1495.134644 168.0
1495.22998 204.0
1495.350098 136.0
1495.404053 180.0
1495.465576 56.0
1496.081421 152.0
1496.161011 188.0
1496.43103 172.0
1496.63562 148.0
1496.712646 120.0
1496.847046 224.0
1496.982178 204.0
1497.744629 128.0
1497.963623 220.0
1498.037354 96.0
1498.661377 84.0
1498.730713 164.0
1498.892456 136.0
1499.077393 132.0
1499.131348 168.0
1499.216187 48.0
1499.455078 112.0
1500.00708 208.0
1500.079346 176.0
1500.202759 128.0
1500.835449 208.0
1500.935181 132.0
1501.073975 200.0
1501.285767 172.0
1501.654785 176.0
1501.777466 312.0
1501.954468 212.0
1502.115112 100.0
1502.267212 192.0
1502.283447 140.0
1502.309204 168.0
1502.616455 152.0
1502.73291 180.0
1502.848022 136.0
1502.925171 136.0
1503.226074 48.0
1503.496094 196.0
1503.611938 124.0
1504.144409 172.0
1504.198486 116.0
1504.35376 168.0
1504.777466 200.0
