>compound MLS001148459-01!(-)-BICUCULLINE METHIODIDE
>formula C21H20NO6
>ionization [M+H]+
>parentmass 383.13633881209057
#inchi InChI=1S/C21H20NO6/c1-22(2)6-5-11-7-15-16(26-9-25-15)8-13(11)18(22)19-12-3-4-14-20(27-10-24-14)17(12)21(23)28-19/h3-4,7-8,18-19H,5-6,9-10H2,1-2H3/q+1/t18-,19+/m0/s1
#inchikey WDIQXKYUSINZME
#origInchi InChI=1S/C21H20NO6.HI/c1-22(2)6-5-11-7-15-16(26-9-25-15)8-13(11)18(22)19-12-3-4-14-20(27-10-24-14)17(12)21(23)28-19;/h3-4,7-8,18-19H,5-6,9-10H2,1-2H3;1H/q+1;/p-1/t18-,19+;/m0./s1
#Ion_Source LC-ESI
#Instrument qTof
#Compound_Source NIH Pharmacologically Active Library
#PI Dorrestein
#Data_Collector VP/LMS
#Scan -1
#Precursor_MZ 382.13
#ExactMass 382.129
#Charge 1
#CAS_Number N/A
#Pubmed_ID N/A
#Smiles C[N+]1(C)CCc2cc3OCOc3cc2[C@H]1[C@@H]4OC(=O)c5c6OCOc6ccc45.[I-]
#INCHI_AUX N/A
#Library_Class 1
#SpectrumID CCMSLIB00000084970
#IonMode Positive
#UpdateWorkflowName UPDATE-SINGLE-ANNOTATED-GOLD
#LibraryQualityString Gold
#TaskID d252d724072548979f1f6f1ced849daf
##Scan# 1355
#SpectrumFile p3-D04_GD4_01_18261.mzXML
#LibraryName Pharm_Active_Library.mgf
#MQScore -1
#Organism Pharm_Active_Library
#TIC_Query 0
#RT_Query -1
#MZErrorPPM -1
#SharedPeaks 0
#MassDiff 0
#LibMZ -1
#SpecMZ 382.13
#SpecCharge 0
#internalFilename spec-00000.mgf

>collision 10
44.896206 64.0
45.079102 44.0
45.147285 68.0
45.235596 164.0
46.066692 52.0
46.854931 100.0
47.502953 104.0
48.195492 104.0
48.659504 88.0
49.129925 140.0
49.213669 156.0
50.936172 104.0
51.464554 140.0
51.654636 144.0
51.925362 212.0
51.966961 180.0
52.07032 112.0
52.134975 132.0
52.216923 40.0
52.692635 120.0
52.905239 112.0
53.376797 120.0
53.480095 176.0
53.519402 204.0
53.913273 140.0
54.138573 52.0
54.249931 48.0
55.054806 148.0
55.344646 140.0
55.987659 164.0
56.069599 200.0
56.118793 196.0
56.288902 144.0
57.044044 112.0
57.604637 188.0
58.06176 104.0
59.529934 160.0
59.778973 216.0
60.879692 112.0
61.06464 176.0
61.924652 128.0
61.937183 212.0
62.059425 148.0
62.232021 100.0
63.672241 192.0
63.707188 196.0
64.703964 40.0
65.760117 212.0
66.407326 236.0
66.509544 100.0
66.650841 220.0
66.697975 252.0
67.361198 200.0
67.683395 160.0
67.83577 140.0
68.147598 128.0
68.170601 212.0
68.697495 136.0
69.26947 108.0
70.060234 304.0
70.081894 252.0
70.59436 152.0
72.080429 160.0
72.722298 156.0
72.737579 132.0
72.774925 128.0
72.829269 180.0
73.017937 120.0
73.713501 244.0
73.860542 148.0
73.98204 184.0
74.153336 180.0
74.415474 148.0
74.83017 76.0
75.74955 248.0
77.148109 140.0
77.79982 116.0
79.52803 180.0
80.277054 232.0
80.432274 52.0
80.494766 248.0
80.643044 160.0
82.185707 136.0
82.483704 64.0
82.655518 184.0
82.705269 164.0
82.746025 124.0
83.954407 160.0
84.37986 116.0
84.634193 168.0
85.1091 76.0
86.059219 148.0
86.279083 140.0
86.334557 156.0
87.053604 176.0
87.425407 132.0
87.919273 184.0
89.333946 140.0
89.912415 96.0
90.12014 260.0
90.362152 144.0
90.854744 136.0
91.857307 184.0
92.019524 132.0
93.372414 132.0
95.088089 152.0
95.879654 140.0
95.895248 140.0
96.293274 256.0
97.427444 168.0
98.623596 280.0
98.680931 92.0
99.255142 160.0
100.316849 172.0
100.654037 144.0
100.76989 64.0
100.793861 212.0
100.911797 144.0
101.544594 108.0
101.940094 212.0
102.042465 152.0
102.340393 156.0
102.874664 100.0
103.016029 164.0
103.046333 228.0
103.228256 168.0
103.906136 128.0
103.935219 140.0
105.476944 104.0
105.536232 36.0
105.890266 156.0
109.702774 68.0
109.821632 212.0
109.934296 184.0
109.971863 160.0
110.253822 92.0
111.09137 172.0
112.651291 124.0
113.398239 208.0
113.489395 224.0
113.633629 124.0
114.368919 80.0
114.511574 96.0
115.027588 184.0
115.052429 148.0
116.335564 148.0
116.640602 116.0
116.668549 172.0
117.073067 216.0
117.355354 188.0
118.468399 144.0
119.056213 184.0
119.939568 144.0
120.055122 204.0
120.194733 80.0
120.563789 160.0
120.614059 156.0
120.71682 204.0
120.786804 148.0
120.896202 44.0
121.028152 516.0
121.301407 40.0
121.716064 184.0
122.219437 180.0
122.267845 164.0
123.041557 168.0
125.283737 68.0
125.493233 180.0
125.609207 208.0
125.787727 120.0
126.145142 168.0
126.960152 152.0
127.366402 184.0
127.935333 140.0
128.06369 196.0
128.826126 160.0
129.359818 204.0
130.038666 164.0
130.061905 232.0
130.564651 96.0
131.046799 144.0
131.4189 52.0
131.473663 188.0
131.505615 260.0
132.071503 108.0
132.307968 60.0
132.411011 68.0
132.837357 176.0
133.062256 160.0
135.043503 500.0
135.118088 184.0
136.040466 140.0
137.55127 444.0
138.196289 140.0
138.59668 176.0
138.814682 152.0
139.115005 188.0
139.667221 208.0
139.867752 184.0
140.997025 156.0
141.041931 128.0
141.323349 176.0
141.640594 124.0
142.088638 148.0
142.216782 192.0
143.04364 504.0
144.050308 140.0
144.090927 208.0
145.028992 120.0
145.049057 300.0
145.088928 388.0
145.165649 212.0
145.400757 160.0
146.05188 252.0
146.405685 108.0
146.487579 164.0
146.651428 108.0
147.043549 240.0
147.071121 112.0
147.112167 80.0
148.051559 412.0
148.084229 144.0
148.845718 132.0
149.023315 968.0
149.05838 592.0
149.086212 124.0
149.482605 100.0
150.062332 144.0
150.557678 128.0
151.067276 144.0
151.156616 152.0
151.884262 172.0
151.921051 128.0
153.068863 236.0
153.209259 144.0
153.243744 152.0
153.741852 180.0
154.048019 148.0
154.918808 60.0
155.107147 212.0
155.941147 116.0
155.983398 192.0
156.102737 200.0
156.192276 196.0
156.695145 196.0
156.946884 164.0
158.093719 160.0
158.639496 128.0
158.684631 76.0
159.043411 188.0
159.663956 104.0
159.714249 92.0
160.047928 848.0
160.076675 144.0
160.442017 116.0
161.055771 128.0
161.075439 352.0
161.128479 152.0
161.626587 148.0
162.070374 332.0
162.840897 116.0
162.934891 248.0
163.039062 160.0
163.069565 96.0
163.384888 56.0
163.491745 156.0
164.041916 76.0
164.090363 120.0
164.131149 32.0
164.192352 164.0
164.636414 108.0
165.067947 184.0
165.902985 132.0
166.539368 104.0
166.755203 176.0
167.027756 224.0
167.082657 136.0
167.328842 164.0
167.563156 172.0
169.078979 144.0
169.120392 44.0
169.265381 68.0
170.063873 180.0
170.292358 48.0
170.541794 204.0
170.929291 140.0
171.924774 156.0
172.026566 168.0
172.050064 152.0
172.08255 152.0
172.813217 160.0
172.941452 116.0
173.031479 132.0
173.059799 292.0
173.083069 356.0
173.365738 160.0
173.433884 108.0
174.008392 108.0
174.026764 124.0
174.091095 512.0
174.181717 100.0
174.40506 132.0
174.899567 164.0
175.048859 160.0
175.095779 460.0
175.210312 200.0
175.31044 156.0
175.460678 172.0
175.906525 88.0
175.943481 100.0
176.061234 276.0
176.093994 100.0
176.379364 104.0
176.704636 40.0
176.786667 208.0
176.81842 128.0
177.017471 1564.0
177.065002 712.0
178.015152 284.0
178.059204 192.0
178.083115 160.0
178.138885 160.0
178.883484 68.0
179.0327 756.0
179.079681 124.0
179.112488 144.0
179.144455 148.0
179.195068 76.0
179.482941 124.0
180.04007 340.0
181.014084 32.0
181.038177 156.0
181.348969 152.0
182.409225 180.0
183.285721 148.0
184.076981 360.0
184.095871 72.0
184.128281 232.0
184.203918 120.0
184.655304 180.0
184.998962 132.0
185.082886 176.0
185.462173 188.0
186.089874 216.0
186.509903 244.0
186.893372 152.0
187.039413 428.0
187.459763 176.0
188.069138 1560.0
188.485794 44.0
188.737259 152.0
188.915039 64.0
188.977966 172.0
189.070496 352.0
189.20787 120.0
189.448868 120.0
189.506409 208.0
190.085999 1940.0
190.400665 28.0
190.425385 108.0
190.58197 204.0
190.73587 104.0
190.988846 48.0
191.090607 820.0
191.354858 44.0
191.509064 84.0
191.795624 40.0
192.007935 88.0
192.052063 160.0
192.319702 84.0
192.37767 64.0
193.066635 368.0
193.516724 96.0
194.0681 368.0
195.042206 136.0
195.067551 148.0
195.134277 104.0
196.030563 92.0
196.066788 220.0
196.172714 132.0
196.284225 68.0
196.593872 164.0
196.613419 188.0
196.744598 160.0
197.445953 124.0
197.521469 76.0
198.064514 156.0
198.140152 200.0
199.033142 144.0
199.220261 92.0
200.063919 104.0
200.979919 172.0
201.075378 260.0
201.782059 128.0
201.804672 32.0
202.084854 420.0
203.048691 132.0
203.093124 4060.0
203.555817 84.0
203.783051 228.0
203.993347 172.0
204.097961 364.0
204.346008 100.0
204.485443 172.0
204.958176 68.0
205.061981 1604.0
205.109085 312.0
205.299301 52.0
205.411484 68.0
205.459976 200.0
205.793915 40.0
206.069046 308.0
206.122391 180.0
206.23671 48.0
206.436844 144.0
206.645645 60.0
206.797318 104.0
206.954773 80.0
207.081879 208.0
207.115143 184.0
207.178162 44.0
207.461884 112.0
208.050598 132.0
208.095917 160.0
209.060699 392.0
209.156723 56.0
210.064911 148.0
211.645325 136.0
212.007431 104.0
212.988083 144.0
214.046722 184.0
214.760727 76.0
215.02916 176.0
215.45256 68.0
215.893936 140.0
216.104568 328.0
216.37381 200.0
217.067642 160.0
217.801956 120.0
218.071915 128.0
219.043945 160.0
219.082245 464.0
220.054825 120.0
220.184753 116.0
220.589554 36.0
220.799484 204.0
221.061722 524.0
221.883255 36.0
222.070206 160.0
222.565674 116.0
222.877563 148.0
223.071274 452.0
223.600189 152.0
224.082596 76.0
225.052109 160.0
225.075836 136.0
226.053314 168.0
226.208954 180.0
227.056915 144.0
227.131897 148.0
227.494995 176.0
227.8013 204.0
230.413239 148.0
231.044449 312.0
231.426453 220.0
231.90509 92.0
232.056671 92.0
232.262894 100.0
232.347824 92.0
233.059235 2216.0
233.103867 128.0
233.483871 56.0
233.678558 60.0
234.066391 652.0
234.113846 76.0
234.171707 92.0
234.33316 76.0
234.497711 108.0
234.772095 56.0
235.076477 1208.0
235.403809 64.0
235.541245 100.0
235.694 100.0
236.080566 336.0
236.18927 140.0
236.437103 48.0
237.062286 136.0
237.086349 188.0
237.273331 56.0
237.506393 80.0
237.76413 112.0
238.061905 168.0
240.312057 120.0
240.521912 132.0
240.920273 188.0
241.281845 136.0
241.696304 120.0
242.627365 220.0
244.050583 164.0
244.834747 144.0
245.062973 464.0
245.183685 48.0
245.224197 240.0
245.327057 84.0
245.367584 172.0
245.398773 180.0
246.050842 196.0
247.07373 460.0
248.038635 272.0
248.080826 192.0
248.711731 148.0
248.994904 152.0
249.051453 820.0
249.817841 168.0
250.055313 388.0
250.948471 68.0
251.068924 724.0
251.10614 136.0
251.911041 132.0
252.03038 176.0
252.0802 200.0
252.625488 28.0
252.95459 244.0
253.045975 120.0
253.077011 260.0
253.37262 152.0
255.254807 220.0
256.002625 200.0
256.295685 176.0
256.93335 236.0
257.958466 140.0
258.153503 144.0
258.182281 128.0
259.032593 224.0
259.088135 156.0
259.331665 108.0
260.039062 160.0
260.168915 224.0
261.013916 132.0
261.053619 4592.0
261.148987 144.0
261.258362 196.0
261.316254 68.0
261.435333 96.0
261.506134 52.0
261.747589 60.0
261.968903 168.0
262.057892 1360.0
262.105133 232.0
262.153473 156.0
262.208252 96.0
262.250153 44.0
262.504852 124.0
262.595154 60.0
262.653198 164.0
263.067749 1180.0
263.211548 32.0
263.327789 116.0
263.476379 44.0
263.893311 152.0
264.072235 348.0
264.553314 148.0
264.686066 84.0
264.835022 60.0
265.047272 268.0
265.075073 124.0
265.989716 228.0
266.049896 68.0
266.08429 136.0
267.065674 136.0
268.064392 156.0
268.34494 300.0
268.768738 32.0
268.866638 188.0
269.199615 160.0
270.14093 136.0
270.46817 48.0
271.985809 152.0
272.761017 144.0
273.051392 180.0
273.096405 144.0
273.145752 156.0
273.511017 128.0
274.06427 240.0
274.575226 140.0
275.06485 472.0
275.625031 56.0
275.687805 40.0
276.074219 144.0
276.488129 88.0
276.647003 40.0
277.047668 860.0
277.110657 96.0
277.505066 36.0
278.052063 564.0
278.115479 120.0
278.155304 188.0
278.457458 144.0
278.942596 204.0
279.06189 1384.0
280.063995 160.0
281.049927 152.0
281.065826 148.0
281.104126 184.0
281.244324 108.0
281.661713 36.0
281.708466 72.0
282.059326 168.0
282.273315 64.0
282.761749 184.0
284.024902 132.0
288.050842 156.0
288.814758 180.0
289.000824 132.0
289.049316 6512.0
289.095886 232.0
289.420532 80.0
289.56955 72.0
290.053833 1012.0
290.196472 156.0
290.220184 32.0
290.281219 48.0
290.352448 92.0
290.406708 32.0
290.528839 48.0
290.752777 132.0
290.807098 96.0
290.878357 104.0
290.932678 112.0
291.064056 1876.0
291.18396 152.0
291.639252 100.0
292.070618 1072.0
292.149323 76.0
292.2854 56.0
293.00116 72.0
293.047119 168.0
293.074829 576.0
293.426422 32.0
293.549194 40.0
293.781128 88.0
294.050018 144.0
294.083588 488.0
295.059113 300.0
295.095306 164.0
295.205414 164.0
296.060028 336.0
296.211639 136.0
297.466705 104.0
297.806671 184.0
298.53183 164.0
298.855164 116.0
299.161469 140.0
300.074432 96.0
300.426941 180.0
301.448242 108.0
302.06366 176.0
302.454681 132.0
303.063965 1964.0
303.195862 124.0
303.601471 60.0
303.670837 36.0
304.067871 1080.0
305.014587 100.0
305.06366 176.0
305.098938 200.0
305.511871 92.0
305.7276 52.0
305.929474 28.0
306.051331 164.0
306.120972 148.0
306.472809 32.0
306.789948 120.0
307.020081 168.0
307.054352 1496.0
308.064697 480.0
308.098663 224.0
308.762787 152.0
309.072418 656.0
309.11261 248.0
310.073334 376.0
310.110718 108.0
310.314056 152.0
311.097992 208.0
312.07309 124.0
313.46347 92.0
314.115723 108.0
316.087067 148.0
317.04248 128.0
317.780884 144.0
318.06015 272.0
318.26004 160.0
318.590332 108.0
318.899506 132.0
319.059875 2300.0
319.244354 44.0
319.592957 80.0
319.621429 72.0
319.689026 80.0
319.738861 28.0
319.820709 32.0
320.06485 1028.0
320.786041 104.0
320.814575 108.0
321.075684 1168.0
321.185425 156.0
322.070129 408.0
322.114258 172.0
322.14209 152.0
322.256409 148.0
322.860535 48.0
323.060822 176.0
323.085876 136.0
323.375702 68.0
324.056122 120.0
324.127045 164.0
325.063965 164.0
331.214447 204.0
332.088562 128.0
332.211304 192.0
332.842834 120.0
333.059296 316.0
333.107971 184.0
334.071289 184.0
334.10202 176.0
334.311432 140.0
335.043304 200.0
336.078766 288.0
337.067596 460.0
337.2547 100.0
337.766602 92.0
338.066101 116.0
338.099548 128.0
339.02243 68.0
339.082275 808.0
339.532013 84.0
340.087952 224.0
346.047028 152.0
346.117401 148.0
348.081879 184.0
348.353821 84.0
348.736542 88.0
349.065735 176.0
349.119476 172.0
349.751984 56.0
350.072174 116.0
350.105682 148.0
351.085815 140.0
352.080139 192.0
352.119049 236.0
358.953552 80.0
362.522095 76.0
366.085449 128.0
367.101776 240.0
367.133453 44.0
369.107727 164.0
375.366943 56.0
382.126526 2124.0
382.378998 40.0
382.4841 76.0
382.569733 72.0
382.674835 76.0
382.737152 144.0
383.129791 672.0
384.134125 132.0
385.127106 184.0
385.670898 48.0
386.762207 52.0
396.225281 52.0
399.806915 80.0
431.926666 172.0
464.579163 76.0
485.285217 140.0
487.910706 68.0
540.773499 104.0
563.742554 68.0
581.674561 144.0
599.605835 52.0
618.407471 56.0
635.465698 116.0
717.147705 100.0
763.388489 120.0
948.590393 132.0
979.239197 56.0
1022.406128 64.0
1034.469727 192.0
1076.792114 40.0
1089.32251 52.0
1120.456055 152.0
1146.535767 156.0
1171.300537 128.0
1234.751343 236.0
1238.285767 152.0
1287.3125 192.0
1301.656006 96.0
1343.514038 156.0
1350.578003 76.0
1351.404663 188.0
1360.463257 176.0
1372.772949 40.0
1373.134399 56.0
1395.654419 108.0
1396.84436 148.0
1400.87915 208.0
1406.374878 220.0
1438.887695 168.0
1454.44458 116.0
1463.141235 192.0
1472.703857 104.0
1482.987305 176.0
1484.559082 108.0
1484.789062 160.0
1485.671265 188.0
1498.556763 152.0
1498.764771 196.0
1505.05127 60.0
1505.282959 92.0
