>compound Gatifloxacin
>formula C19H22FN3O4 
>ionization [M+H]+
>parentmass 376.16671085609056
#inchi InChI=1S/C19H22FN3O4/c1-10-8-22(6-5-21-10)16-14(20)7-12-15(18(16)27-2)23(11-3-4-11)9-13(17(12)24)19(25)26/h7,9-11,21H,3-6,8H2,1-2H3,(H,25,26)
#inchikey XUBOMFCQGDBHNK
#Ion_Source LC-ESI
#Instrument qTof
#Compound_Source Commercial
#PI Dorrestein
#Data_Collector Garg_Neha
#Scan -1
#Precursor_MZ 376.17
#ExactMass 375.159
#Charge 1
#CAS_Number N/A
#Pubmed_ID N/A
#Smiles N/A
#INCHI_AUX N/A
#Library_Class 1
#SpectrumID CCMSLIB00000077150
#IonMode Positive
#UpdateWorkflowName UPDATE-SINGLE-ANNOTATED-GOLD
#LibraryQualityString Gold
#TaskID 48f7f52fc6d249b5abbcc6e7b3df5969
##Scan# 1044
#SpectrumFile NCP003195_E2E6F2F6G2G6H2H6_BB7_01_15711.mzXML
#LibraryName NIH_Clinical_Collection_2.mgf
#MQScore -1
#Organism NIHcollection2_04212014_2_mgf
#TIC_Query 0
#RT_Query -1
#MZErrorPPM -1
#SharedPeaks 0
#MassDiff 0
#LibMZ -1
#SpecMZ 376.17
#SpecCharge 0
#internalFilename spec-00000.mgf

>collision 10
45.90955 168.0
46.300114 168.0
46.862492 188.0
47.37756 164.0
50.03595 212.0
50.164146 200.0
51.022045 152.0
51.39806 172.0
51.904427 176.0
52.982536 180.0
53.217491 172.0
53.836353 228.0
58.247303 140.0
58.601768 232.0
59.353786 164.0
59.588623 144.0
60.269642 172.0
60.811657 156.0
61.038471 200.0
61.250134 176.0
61.920193 196.0
62.361069 140.0
62.389362 144.0
63.648602 152.0
65.264061 148.0
67.077324 164.0
68.300522 224.0
68.417358 144.0
70.066872 172.0
70.940903 168.0
71.004616 144.0
71.182274 144.0
71.278252 208.0
72.325562 148.0
72.378044 184.0
72.457649 164.0
74.721558 208.0
74.867867 168.0
76.591194 140.0
76.629524 144.0
78.008591 184.0
78.953659 164.0
78.976654 196.0
79.352074 204.0
80.123405 148.0
81.853622 168.0
84.638725 96.0
85.715591 248.0
86.289619 152.0
86.415382 152.0
86.882263 148.0
88.981865 144.0
89.285454 120.0
91.53067 240.0
92.720802 152.0
92.751465 180.0
93.304329 180.0
94.194641 156.0
94.740158 172.0
95.21315 160.0
95.740471 160.0
95.832024 164.0
96.138161 156.0
96.82827 144.0
96.941895 200.0
97.085007 184.0
98.131096 184.0
99.095604 220.0
99.700813 176.0
100.603104 172.0
100.778854 144.0
101.076782 160.0
104.604378 168.0
105.242882 152.0
106.141144 216.0
107.170929 144.0
109.851608 212.0
113.898628 132.0
114.135574 196.0
115.077339 288.0
115.141403 152.0
115.320869 148.0
115.485504 180.0
116.434959 148.0
116.875641 148.0
117.146912 156.0
117.177071 152.0
117.325775 252.0
117.420654 152.0
117.528511 188.0
117.765976 152.0
117.800537 156.0
118.412666 228.0
118.486313 208.0
119.955162 208.0
120.238914 180.0
120.739212 204.0
120.920799 168.0
121.106903 220.0
121.23616 144.0
121.499283 148.0
121.88131 168.0
122.45327 144.0
122.605682 224.0
123.015533 152.0
123.700806 228.0
124.092575 100.0
124.899055 168.0
125.039223 160.0
125.128265 176.0
127.634209 160.0
128.928131 168.0
129.235672 200.0
129.554886 156.0
129.972061 188.0
130.742401 160.0
131.480789 192.0
132.20752 152.0
133.053726 156.0
133.103821 152.0
133.524368 140.0
133.568069 140.0
135.018814 160.0
135.044434 160.0
135.46553 180.0
136.231064 152.0
136.321671 196.0
136.442535 156.0
136.477417 140.0
137.143204 148.0
137.339066 184.0
137.418381 144.0
137.500992 140.0
137.712509 140.0
137.759232 172.0
137.894745 156.0
138.308746 160.0
138.75383 152.0
139.119797 172.0
142.264282 140.0
142.955933 144.0
143.184479 168.0
144.045517 204.0
144.471024 240.0
144.509308 152.0
144.607422 188.0
144.904343 160.0
144.935501 176.0
144.96904 140.0
145.475113 144.0
145.621597 200.0
146.311707 148.0
147.900101 176.0
147.929153 196.0
148.055054 168.0
150.052414 328.0
150.07193 184.0
151.04248 152.0
151.074814 168.0
151.972366 140.0
152.034042 148.0
152.714249 152.0
153.053345 192.0
153.085876 152.0
154.856613 172.0
155.178757 140.0
155.312668 156.0
155.95079 176.0
156.072601 240.0
156.231766 168.0
156.697327 264.0
157.687973 164.0
158.05809 172.0
158.42363 228.0
160.064804 108.0
160.739227 140.0
161.075012 200.0
162.038849 184.0
162.064484 268.0
162.099258 152.0
162.249207 180.0
162.754089 200.0
162.782028 164.0
163.042648 452.0
163.868134 196.0
164.05191 164.0
165.047318 172.0
165.167526 144.0
165.454132 216.0
165.618011 180.0
166.026886 196.0
168.047348 236.0
168.868805 164.0
169.072479 160.0
169.764877 172.0
169.889374 192.0
170.369644 172.0
171.027527 148.0
171.053024 176.0
171.083862 156.0
171.428604 160.0
172.058228 204.0
173.063782 184.0
173.100433 144.0
173.4384 140.0
174.070663 164.0
174.125824 188.0
174.654114 172.0
174.709351 180.0
175.068726 156.0
175.138428 164.0
175.478363 152.0
176.05162 376.0
176.854675 140.0
176.942032 228.0
176.997635 152.0
177.055893 428.0
177.074432 176.0
178.02861 412.0
178.05809 1364.0
178.536743 172.0
179.038132 912.0
179.05751 508.0
179.405319 148.0
179.578079 164.0
180.04393 108.0
181.868393 192.0
182.050629 136.0
182.067551 132.0
182.121277 192.0
183.032455 200.0
183.088669 164.0
183.385361 244.0
183.824951 148.0
183.949097 176.0
184.040894 188.0
184.065002 184.0
184.138107 268.0
185.068176 336.0
185.099121 152.0
186.077652 360.0
186.413742 144.0
187.034042 148.0
187.067383 216.0
187.2108 144.0
187.706757 188.0
188.048492 648.0
188.074829 252.0
188.266159 168.0
188.41893 112.0
188.965912 192.0
189.020645 176.0
189.04776 216.0
189.082932 404.0
189.527206 156.0
189.919235 208.0
190.069046 840.0
190.128372 228.0
190.745346 144.0
191.038147 664.0
191.064072 320.0
192.045898 2740.0
192.07666 388.0
192.348557 152.0
192.641586 180.0
192.846069 172.0
193.04657 1564.0
193.086243 124.0
193.158508 212.0
193.606888 144.0
194.025513 1372.0
194.052429 296.0
194.341461 216.0
194.377533 140.0
194.966248 240.0
195.030594 748.0
195.055038 368.0
195.400009 200.0
195.521088 180.0
195.608734 196.0
196.043213 140.0
196.069794 172.0
196.188156 152.0
196.503296 228.0
196.682358 144.0
197.076859 252.0
197.107742 136.0
197.176254 160.0
197.682434 144.0
198.2453 224.0
198.357407 224.0
198.677094 176.0
199.047394 124.0
199.112167 144.0
199.412781 164.0
199.826141 196.0
200.056213 188.0
200.085373 148.0
200.177979 144.0
201.059357 220.0
201.084473 172.0
201.633652 160.0
202.065933 1372.0
202.098602 208.0
202.271759 164.0
203.065811 1084.0
203.122955 172.0
203.818512 192.0
203.857071 176.0
203.962402 196.0
204.045044 1532.0
204.080811 736.0
204.232819 136.0
204.614899 144.0
204.822769 180.0
204.869522 188.0
205.012314 112.0
205.04274 2172.0
205.076721 1452.0
205.204941 188.0
205.809509 152.0
206.023453 176.0
206.053162 800.0
206.278046 144.0
206.58403 164.0
207.026337 104.0
207.064301 1220.0
207.26828 168.0
207.484039 156.0
207.678238 156.0
208.065109 368.0
209.055588 164.0
209.096985 160.0
210.068085 144.0
210.360016 160.0
210.429306 160.0
211.046539 152.0
211.090988 148.0
211.71315 152.0
212.037628 160.0
212.063034 208.0
212.085693 304.0
212.188354 152.0
212.811325 128.0
212.968948 160.0
213.066818 912.0
213.099655 504.0
213.622971 164.0
214.071976 556.0
215.062164 720.0
216.07486 560.0
216.11763 220.0
217.012344 172.0
217.044205 484.0
217.078033 2392.0
218.060181 1520.0
218.083313 1600.0
218.329163 184.0
218.349747 260.0
218.446045 124.0
218.764618 156.0
218.788177 192.0
218.982513 200.0
219.057617 14560.0
219.177719 184.0
219.220352 104.0
220.016083 132.0
220.064789 5720.0
220.260117 196.0
220.673386 232.0
221.010574 264.0
221.07106 2036.0
221.106293 296.0
221.967316 176.0
222.077042 360.0
223.029465 140.0
223.0849 260.0
223.125259 148.0
223.413742 144.0
224.029968 164.0
224.089691 256.0
225.065964 460.0
225.100998 424.0
226.07431 456.0
226.106384 288.0
226.701096 140.0
227.080704 440.0
227.113831 148.0
227.820251 176.0
227.862305 152.0
228.089691 364.0
228.86084 180.0
228.969254 144.0
229.044693 284.0
229.077393 1708.0
229.958145 140.0
230.061249 1272.0
230.741486 184.0
230.943115 228.0
231.021545 268.0
231.056961 2260.0
231.094116 3416.0
231.191193 320.0
231.742294 184.0
232.021118 184.0
232.077316 2892.0
232.494308 180.0
232.606598 148.0
232.83432 140.0
232.983154 140.0
233.034546 140.0
233.075195 6000.0
233.106567 2012.0
233.241455 152.0
233.310211 136.0
233.509415 152.0
233.585052 192.0
233.611923 96.0
233.671387 116.0
233.823715 128.0
234.078964 2856.0
234.286606 96.0
234.559464 164.0
235.088211 3700.0
235.259689 132.0
235.30687 152.0
235.95018 120.0
236.047379 224.0
236.090637 484.0
236.278732 172.0
236.431732 224.0
237.040817 156.0
237.052856 140.0
237.099106 144.0
237.651306 148.0
238.007355 164.0
238.036774 256.0
238.097031 304.0
238.246918 140.0
239.077286 132.0
239.108994 232.0
240.085098 316.0
240.110916 704.0
240.139984 156.0
240.305435 196.0
241.08493 352.0
241.12796 140.0
242.055389 176.0
242.083038 320.0
242.130341 124.0
243.057114 280.0
243.094513 2232.0
243.193787 140.0
244.035477 152.0
244.097198 436.0
244.438248 228.0
244.619171 128.0
244.939285 128.0
245.034119 1700.0
245.072998 14648.0
245.107162 3772.0
245.398941 184.0
245.533432 140.0
246.077438 3448.0
246.114685 940.0
246.206818 192.0
246.824966 144.0
246.870041 200.0
246.940323 136.0
247.053238 376.0
247.088028 5440.0
247.124573 496.0
248.058929 260.0
248.095245 1884.0
248.483154 176.0
248.533356 208.0
248.602386 228.0
248.633774 144.0
248.827011 100.0
249.042267 168.0
249.103394 1412.0
250.098679 212.0
250.140823 288.0
250.580185 180.0
251.048401 144.0
251.226471 184.0
252.070892 176.0
252.448792 164.0
253.096207 404.0
253.981674 168.0
254.106186 624.0
255.092865 264.0
255.132645 124.0
255.617813 160.0
256.10318 504.0
257.072083 492.0
257.107086 1372.0
258.007904 132.0
258.062866 344.0
258.084595 516.0
258.11496 296.0
258.256165 188.0
259.088959 7964.0
259.123688 824.0
259.501862 196.0
259.575623 176.0
260.059784 568.0
260.095825 5244.0
260.486206 156.0
260.612396 176.0
260.818909 184.0
260.920929 172.0
260.97403 236.0
261.066711 6488.0
261.104797 40732.0
261.401825 164.0
261.480621 140.0
261.55603 132.0
261.603027 124.0
262.07077 700.0
262.107941 4232.0
262.479706 280.0
262.594971 96.0
262.937347 164.0
263.045959 148.0
263.082306 276.0
263.109375 612.0
263.701263 116.0
264.110199 184.0
264.80069 124.0
265.090698 172.0
265.976562 176.0
266.112885 184.0
266.427917 152.0
266.631531 176.0
266.830902 156.0
267.039032 144.0
267.126862 168.0
268.109894 348.0
268.143372 144.0
268.909149 164.0
269.084198 168.0
269.110107 212.0
270.083588 188.0
270.123596 156.0
271.049622 532.0
271.08844 544.0
271.120697 524.0
271.407043 156.0
272.051025 304.0
272.093781 328.0
272.128418 312.0
272.333893 180.0
273.040253 140.0
273.066528 872.0
273.103729 1312.0
274.111176 7024.0
274.342163 104.0
275.117859 2148.0
275.572113 156.0
275.734039 144.0
276.115753 1588.0
276.680054 208.0
277.080414 304.0
277.120819 504.0
278.04306 244.0
278.071991 156.0
279.077454 648.0
279.404724 172.0
279.903961 152.0
280.075256 112.0
280.146576 128.0
280.217072 140.0
280.733704 156.0
280.890472 140.0
281.151398 124.0
281.97226 144.0
282.005676 176.0
282.123169 152.0
282.283173 152.0
283.109375 148.0
283.131287 372.0
283.565338 144.0
283.863708 160.0
284.09848 148.0
284.128174 180.0
285.109283 180.0
286.101929 956.0
287.02829 172.0
287.083344 472.0
287.118347 1124.0
287.163635 160.0
288.117065 496.0
288.55069 216.0
288.577728 144.0
288.89267 96.0
288.942993 164.0
289.097229 1312.0
289.135132 13916.0
289.223877 156.0
289.307587 112.0
289.928345 148.0
289.972931 152.0
290.10144 252.0
290.138 1852.0
290.854248 148.0
291.080566 168.0
291.139832 320.0
291.842834 180.0
291.950348 220.0
292.091095 380.0
292.203369 140.0
292.397308 144.0
292.6492 196.0
292.720703 232.0
293.206146 136.0
296.117767 220.0
296.848663 140.0
297.146851 416.0
297.486816 140.0
298.118103 184.0
298.149109 136.0
298.386902 144.0
299.11853 240.0
299.140747 208.0
300.032532 164.0
300.088959 468.0
300.152039 548.0
301.105804 372.0
301.155914 528.0
301.310883 116.0
301.800232 168.0
302.097076 432.0
302.129974 380.0
302.161011 268.0
302.554443 192.0
303.110931 136.0
303.326965 148.0
304.086243 128.0
304.174835 180.0
304.823761 156.0
305.094482 1864.0
305.149506 160.0
306.097382 164.0
307.633453 168.0
308.492065 148.0
309.959259 152.0
310.573547 200.0
311.078064 156.0
312.166656 644.0
312.739655 128.0
312.916687 180.0
313.142059 184.0
313.318176 140.0
314.07254 156.0
314.125458 140.0
314.683044 148.0
315.114746 2532.0
315.421387 224.0
316.119659 760.0
316.518127 160.0
316.588501 164.0
317.153229 1540.0
317.782288 128.0
318.103027 360.0
318.156036 304.0
318.987396 164.0
319.1026 272.0
320.109253 288.0
320.72583 112.0
321.241486 148.0
321.587585 180.0
322.080322 228.0
322.837433 120.0
323.714752 160.0
323.940399 164.0
325.105652 152.0
326.434784 220.0
326.60022 144.0
326.675781 180.0
327.719818 152.0
329.72052 140.0
330.09967 212.0
330.163177 948.0
330.8685 108.0
331.161163 252.0
331.370972 108.0
331.537323 152.0
331.695129 160.0
331.809265 124.0
331.904114 148.0
332.035187 120.0
332.072754 276.0
332.178467 38944.0
332.274689 220.0
332.437653 140.0
332.590698 156.0
333.12619 2468.0
333.180267 8776.0
333.410706 112.0
333.627563 188.0
334.128052 664.0
334.184418 1088.0
334.949768 160.0
335.184814 268.0
335.250946 128.0
335.403687 112.0
335.479279 240.0
335.521271 132.0
336.172272 156.0
336.482544 144.0
337.081543 248.0
338.149841 568.0
338.526459 140.0
339.15036 164.0
341.013824 224.0
341.168213 140.0
343.100952 140.0
343.131866 144.0
344.35553 212.0
344.971832 132.0
345.205536 140.0
347.123688 160.0
347.919525 164.0
348.118195 144.0
350.092834 156.0
351.016998 236.0
351.673584 192.0
354.422241 144.0
354.56839 192.0
356.15863 356.0
356.959686 188.0
357.080048 144.0
357.309479 152.0
357.851959 148.0
358.156311 6056.0
358.540771 144.0
359.15799 1456.0
360.155945 436.0
361.146332 476.0
361.514587 148.0
361.559906 144.0
364.041321 216.0
368.864777 160.0
369.886078 172.0
370.054535 176.0
371.81015 156.0
372.766357 200.0
372.87616 140.0
373.316437 204.0
373.756165 116.0
373.906891 228.0
374.028961 228.0
374.118896 188.0
374.156036 180.0
374.228241 172.0
374.260193 200.0
374.696625 124.0
374.755676 168.0
374.802856 128.0
374.975403 184.0
375.033142 240.0
375.071472 148.0
375.145355 164.0
375.17395 208.0
375.253723 148.0
375.318848 188.0
375.371796 104.0
375.432617 136.0
375.512604 100.0
375.565033 176.0
375.656006 152.0
375.746948 128.0
375.787689 120.0
375.818939 316.0
375.843475 276.0
375.94165 216.0
375.991455 448.0
376.037323 268.0
376.084106 356.0
376.169678 207544.0
376.257568 220.0
376.311584 324.0
376.417175 204.0
376.509338 228.0
376.618683 240.0
376.686676 148.0
376.753784 272.0
376.803772 3964.0
376.86554 196.0
376.905884 288.0
376.988068 188.0
377.068329 144.0
377.103973 400.0
377.171478 64800.0
377.32251 168.0
377.384949 124.0
377.433716 128.0
377.481354 152.0
377.61084 136.0
377.71814 160.0
377.775208 200.0
377.855835 116.0
377.906769 156.0
378.01709 112.0
378.10733 124.0
378.17215 7104.0
378.360291 160.0
378.418976 152.0
378.605103 104.0
378.674713 168.0
378.809906 104.0
378.860687 144.0
378.93988 192.0
379.005219 144.0
379.052948 160.0
379.17627 1136.0
379.230194 292.0
379.357269 256.0
379.402771 292.0
379.451477 240.0
379.57724 236.0
379.619446 236.0
379.680664 272.0
379.736145 232.0
379.744934 176.0
379.793365 144.0
379.947998 156.0
380.174652 156.0
380.775574 112.0
380.811676 232.0
381.287628 164.0
381.349792 140.0
381.447205 128.0
382.335236 208.0
383.738281 112.0
383.83606 104.0
385.889618 132.0
389.1091 132.0
389.785858 120.0
393.056885 140.0
415.723206 128.0
417.20224 144.0
432.949463 204.0
435.275848 176.0
578.96344 140.0
591.421143 276.0
612.887695 144.0
696.663147 140.0
715.349792 104.0
782.008606 144.0
890.684937 160.0
971.058899 184.0
1642.101929 148.0
1654.651123 232.0
1668.686768 212.0
1679.664429 140.0
1748.041016 188.0
1789.036499 196.0
1875.322021 148.0
1931.466309 144.0
1940.021606 168.0
1941.099976 148.0
1952.006226 152.0
1975.829468 148.0
1994.842773 152.0
2000.6073 148.0
