>compound MLS001074357-01!9-methyl-3-[(2-methyl-1H-imidazol-1-yl)methyl]-1,2,3,9-tetrahydro-4H-carbazol-4-one hydrochloride hydrate
>formula C18H19N3O
>ionization [M+H]+
>parentmass 294.160767
#inchi InChI=1S/C18H19N3O/c1-12-19-9-10-21(12)11-13-7-8-16-17(18(13)22)14-5-3-4-6-15(14)20(16)2/h3-6,9-10,13H,7-8,11H2,1-2H3
#inchikey FELGMEQIXOGIFQ
#origInchi InChI=1S/C18H19N3O.ClH.H2O/c1-12-19-9-10-21(12)11-13-7-8-16-17(18(13)22)14-5-3-4-6-15(14)20(16)2;;/h3-6,9-10,13H,7-8,11H2,1-2H3;1H;1H2
#Ion_Source LC-ESI
#Instrument qTof
#Compound_Source NIH Pharmacologically Active Library
#PI Dorrestein
#Data_Collector VP/LMS
#Scan -1
#Precursor_MZ 294.162
#ExactMass 293.153
#Charge 1
#CAS_Number N/A
#Pubmed_ID N/A
#Smiles Cc1nccn1CC2CCc3c(C2=O)c4ccccc4n3C.O.Cl
#INCHI_AUX N/A
#Library_Class 1
#SpectrumID CCMSLIB00000084747
#IonMode Positive
#UpdateWorkflowName UPDATE-SINGLE-ANNOTATED-GOLD
#LibraryQualityString Gold
#TaskID d252d724072548979f1f6f1ced849daf
##Scan# 1454
#SpectrumFile p3-A03_GA3_01_18225.mzXML
#LibraryName Pharm_Active_Library.mgf
#MQScore -1
#Organism Pharm_Active_Library
#TIC_Query 0
#RT_Query -1
#MZErrorPPM -1
#SharedPeaks 0
#MassDiff 0
#LibMZ -1
#SpecMZ 294.162
#SpecCharge 0
#internalFilename spec-00000.mgf

>collision 10
44.987701 124.0
45.008545 208.0
45.020565 96.0
45.071327 136.0
45.144848 176.0
45.219711 184.0
45.23851 80.0
45.304131 100.0
45.360413 160.0
45.426121 124.0
45.436855 160.0
45.525444 176.0
45.603371 180.0
45.709614 184.0
45.735188 220.0
45.772884 116.0
45.913036 172.0
46.037193 112.0
46.072311 184.0
46.081772 148.0
46.106094 84.0
46.161522 132.0
46.22916 220.0
46.250816 228.0
46.276535 120.0
46.300911 188.0
46.334778 120.0
46.349682 296.0
46.380852 108.0
46.464931 60.0
46.513786 144.0
46.587116 212.0
46.602062 180.0
46.652348 172.0
46.664585 128.0
46.743477 204.0
46.815624 120.0
47.022854 160.0
47.100681 44.0
47.16217 148.0
47.222332 128.0
47.252426 132.0
47.297588 44.0
47.309906 100.0
47.329075 228.0
47.418262 116.0
47.455132 68.0
47.478447 200.0
47.526459 72.0
47.57724 180.0
47.641788 220.0
47.666519 180.0
47.776711 224.0
47.817795 152.0
47.940369 148.0
48.021107 212.0
48.079655 120.0
48.129353 196.0
48.14975 140.0
48.213455 168.0
48.322861 40.0
48.338081 100.0
48.351921 108.0
48.580547 184.0
48.759712 132.0
48.861179 148.0
48.944695 140.0
48.96558 196.0
49.001801 144.0
49.081249 164.0
49.117508 184.0
49.170532 224.0
49.233356 168.0
49.279808 188.0
49.373112 180.0
49.408081 40.0
49.473854 176.0
49.486458 76.0
49.657421 192.0
49.695297 140.0
49.844135 72.0
49.924263 108.0
49.949581 152.0
49.971851 176.0
50.064995 220.0
50.197464 204.0
50.241188 76.0
50.317398 116.0
50.390842 180.0
50.591667 160.0
50.66531 128.0
50.712074 304.0
50.739006 60.0
50.754604 176.0
50.816429 204.0
50.88372 180.0
50.946365 180.0
50.981731 156.0
50.997364 220.0
51.015846 28.0
51.047123 172.0
51.066059 204.0
51.076992 200.0
51.09264 148.0
51.108292 188.0
51.123943 136.0
51.142445 100.0
51.200821 188.0
51.210052 172.0
51.24498 148.0
51.280964 96.0
51.331928 204.0
51.354748 32.0
51.421806 148.0
51.511765 128.0
51.541767 148.0
51.570351 100.0
51.607517 76.0
51.624676 164.0
51.634689 136.0
51.782104 48.0
51.816483 240.0
51.882408 52.0
51.946945 192.0
52.017258 124.0
52.043266 172.0
52.097679 136.0
52.120667 248.0
52.142223 60.0
52.281723 196.0
52.329227 104.0
52.426586 184.0
52.444473 168.0
52.503586 132.0
52.53532 88.0
52.683964 116.0
52.700909 208.0
52.727364 224.0
52.743263 200.0
52.754826 108.0
52.779408 188.0
52.879227 92.0
52.918312 208.0
52.937134 172.0
52.954514 108.0
52.966988 248.0
52.992176 216.0
53.016811 56.0
53.031029 188.0
53.034393 152.0
53.03894 208.0
53.071896 156.0
53.14587 148.0
53.306362 228.0
53.355019 156.0
53.445194 112.0
53.487694 196.0
53.612656 168.0
53.773689 308.0
53.830017 188.0
54.060993 176.0
54.1968 140.0
54.232346 88.0
54.371681 252.0
54.4063 164.0
54.443619 128.0
54.472996 156.0
54.52589 120.0
54.542057 144.0
54.558228 192.0
54.606754 124.0
54.630657 64.0
54.656773 44.0
54.824646 88.0
54.908649 192.0
54.958836 148.0
55.035591 224.0
55.094757 136.0
55.122742 172.0
55.369797 100.0
55.40831 120.0
55.423126 196.0
55.454247 212.0
55.463806 152.0
55.489826 200.0
55.599682 200.0
55.615921 172.0
55.632652 192.0
55.73473 132.0
55.746616 136.0
55.773369 116.0
55.813511 212.0
55.895321 180.0
55.917114 168.0
55.957836 184.0
55.984638 192.0
56.169418 160.0
56.181389 132.0
56.212723 188.0
56.264965 68.0
56.275414 216.0
56.288853 272.0
56.345612 192.0
56.371014 136.0
56.393429 136.0
56.409874 96.0
56.450241 152.0
56.499599 148.0
56.629898 180.0
56.659794 184.0
56.704746 228.0
56.807663 176.0
56.823212 176.0
56.88324 176.0
56.994377 228.0
57.117657 120.0
57.131195 176.0
57.198914 236.0
57.223 128.0
57.287762 168.0
57.320908 76.0
57.397785 268.0
57.421913 188.0
57.458118 164.0
57.485275 68.0
57.510933 128.0
57.533577 100.0
57.679649 236.0
57.74205 244.0
57.790508 128.0
57.835911 104.0
57.891926 184.0
57.970703 180.0
58.005791 160.0
58.069244 76.0
58.093513 180.0
58.119129 136.0
58.156681 236.0
58.162251 148.0
58.170036 132.0
58.17448 204.0
58.192162 196.0
58.208866 292.0
58.314526 180.0
58.325851 160.0
58.363857 224.0
58.39275 136.0
58.406441 120.0
58.438389 112.0
58.549511 116.0
58.579975 224.0
58.607395 188.0
58.619587 124.0
58.630253 228.0
58.653118 128.0
58.675983 200.0
58.686657 132.0
58.733932 120.0
58.755291 212.0
58.767494 156.0
58.836174 248.0
58.857552 108.0
59.195492 152.0
59.246643 152.0
59.299667 200.0
59.334927 204.0
59.372559 236.0
59.405472 40.0
59.436153 128.0
59.494476 108.0
59.618893 136.0
59.664494 192.0
59.709335 156.0
59.768055 192.0
59.794216 244.0
59.874275 104.0
59.909702 164.0
59.922028 144.0
60.025299 144.0
60.036095 60.0
60.127117 108.0
60.176514 196.0
60.24292 148.0
60.295456 148.0
60.309368 176.0
60.32637 196.0
60.39917 208.0
60.451653 128.0
60.490345 156.0
60.575516 112.0
60.58791 144.0
60.620445 360.0
60.72897 172.0
60.775803 192.0
60.801891 200.0
60.879517 44.0
61.045795 124.0
61.167152 184.0
61.229317 216.0
61.233917 200.0
61.339005 148.0
61.374359 204.0
61.449226 176.0
61.503845 156.0
61.516331 136.0
61.636833 236.0
61.65847 160.0
61.736637 228.0
61.843025 236.0
61.89674 180.0
61.941673 156.0
61.99181 248.0
62.02002 116.0
62.054508 156.0
62.065483 152.0
62.178432 148.0
62.198837 228.0
62.299339 140.0
62.310333 164.0
62.483276 112.0
62.599754 192.0
62.623375 176.0
62.645428 144.0
62.692696 204.0
62.714764 156.0
62.771519 164.0
62.845654 136.0
62.905712 216.0
62.927727 260.0
63.128086 80.0
63.144218 100.0
63.275558 48.0
63.307228 164.0
63.389603 104.0
63.414959 204.0
63.500576 168.0
63.633873 56.0
63.681511 108.0
63.734249 224.0
63.857933 144.0
63.889748 132.0
64.106293 172.0
64.154106 176.0
64.244141 172.0
64.291283 144.0
64.308838 116.0
64.339165 204.0
64.361519 128.0
64.458954 220.0
64.492516 200.0
64.590897 196.0
64.702072 68.0
64.742104 128.0
64.775742 148.0
64.800041 188.0
64.814194 172.0
64.995384 44.0
65.021057 152.0
65.033897 148.0
65.139877 112.0
65.366577 160.0
65.398758 204.0
65.435783 192.0
65.456718 144.0
65.492149 92.0
65.540482 188.0
65.564651 160.0
65.609787 196.0
65.652504 144.0
65.675896 136.0
65.692032 160.0
65.71946 180.0
65.813423 204.0
65.840523 124.0
65.861519 136.0
65.879288 116.0
65.89164 240.0
65.912712 208.0
65.961708 128.0
66.126686 148.0
66.170395 112.0
66.241653 84.0
66.3405 176.0
66.363678 256.0
66.483238 128.0
66.55304 148.0
66.608253 212.0
66.629372 328.0
66.666748 160.0
66.710632 232.0
66.819077 152.0
66.860275 168.0
66.904221 108.0
66.974243 124.0
67.050819 136.0
67.137222 80.0
67.242493 160.0
67.315102 88.0
67.390236 100.0
67.450706 156.0
67.465416 148.0
67.679749 164.0
67.81736 192.0
67.867355 184.0
68.019112 144.0
68.106636 172.0
68.120918 208.0
68.1735 196.0
68.209656 196.0
68.255692 224.0
68.324768 236.0
68.346161 240.0
68.374138 196.0
68.387299 148.0
68.584953 116.0
68.60144 84.0
68.622871 164.0
68.801056 248.0
68.922134 160.0
69.163071 208.0
69.186249 148.0
69.206116 60.0
69.2939 236.0
69.371788 80.0
69.481247 192.0
69.521065 184.0
69.577499 100.0
69.599083 160.0
69.625656 160.0
69.638939 164.0
69.677147 136.0
69.792236 252.0
69.976517 180.0
70.033134 120.0
70.076447 180.0
70.141441 164.0
70.158112 148.0
70.253174 172.0
70.314018 164.0
70.370934 128.0
70.433456 124.0
70.445145 176.0
70.465195 120.0
70.578972 172.0
70.630699 172.0
70.692596 192.0
70.731094 168.0
70.88456 184.0
70.930389 180.0
71.190483 140.0
71.230789 176.0
71.247589 120.0
71.311447 164.0
71.405602 212.0
71.494766 140.0
71.509911 132.0
71.653046 176.0
71.666527 128.0
71.685059 140.0
71.811501 80.0
71.851982 96.0
71.863792 136.0
71.908539 188.0
71.960564 156.0
72.007286 84.0
72.037689 200.0
72.049118 172.0
72.101891 80.0
72.157677 140.0
72.16951 52.0
72.281403 132.0
72.299492 176.0
72.399643 148.0
72.582664 220.0
72.608101 148.0
72.628448 120.0
72.806664 232.0
72.834877 380.0
72.898399 164.0
72.96299 180.0
73.014229 148.0
73.075233 180.0
73.143311 144.0
73.169807 248.0
73.190979 204.0
73.214821 156.0
73.23185 68.0
73.291473 196.0
73.344307 184.0
73.443199 172.0
73.487556 52.0
73.548988 72.0
73.632652 192.0
73.671936 156.0
73.747124 176.0
73.803543 128.0
73.827477 160.0
73.957504 200.0
73.998596 172.0
74.014 132.0
74.077507 228.0
74.096214 100.0
74.226479 120.0
74.283073 104.0
74.307091 132.0
74.32254 60.0
74.416939 184.0
74.45472 108.0
74.480476 204.0
74.542328 108.0
74.619675 44.0
74.639099 228.0
74.660942 200.0
74.750397 164.0
74.78138 124.0
74.84507 184.0
74.881241 28.0
75.01564 132.0
75.126884 172.0
75.302071 124.0
75.419556 136.0
75.436844 148.0
75.570007 176.0
75.656548 156.0
75.693542 196.0
75.739662 172.0
75.838432 64.0
75.940727 136.0
76.008385 112.0
76.079544 180.0
76.121216 108.0
76.135109 220.0
76.239342 184.0
76.409744 228.0
76.430626 192.0
76.451508 144.0
76.615181 120.0
76.733688 72.0
76.756355 108.0
76.833099 156.0
76.852287 156.0
77.042595 160.0
77.079285 96.0
77.121231 152.0
77.17717 264.0
77.294365 232.0
77.339867 132.0
77.414299 188.0
77.572838 140.0
77.613159 208.0
77.639465 476.0
77.700859 48.0
77.732437 204.0
77.76403 128.0
77.807915 48.0
77.836006 144.0
77.898193 156.0
77.934372 68.0
77.964241 152.0
77.983574 84.0
77.998497 196.0
78.031036 196.0
78.062691 48.0
78.173515 172.0
78.194633 100.0
78.265045 208.0
78.326683 144.0
78.386589 160.0
78.419991 180.0
78.439461 152.0
78.490585 144.0
78.505592 260.0
78.614067 224.0
78.654663 84.0
78.701096 188.0
78.721748 76.0
78.765907 36.0
78.840111 172.0
78.864853 184.0
78.917892 248.0
78.96917 208.0
79.052681 196.0
79.082413 176.0
79.30735 164.0
79.500671 368.0
79.546814 156.0
79.606369 236.0
79.662239 108.0
79.703102 144.0
79.731537 120.0
79.779526 148.0
79.793755 108.0
79.91069 160.0
79.932487 200.0
79.946724 104.0
80.028603 124.0
80.076683 164.0
80.101624 208.0
80.11557 212.0
80.228149 140.0
80.251328 184.0
80.288773 136.0
80.390457 200.0
80.451141 148.0
80.472565 260.0
80.485062 208.0
80.527924 128.0
80.586876 136.0
80.697685 160.0
80.742622 180.0
80.788895 96.0
80.828262 188.0
80.842575 52.0
80.88195 124.0
80.924911 132.0
81.057465 156.0
81.102264 156.0
81.313911 152.0
81.349808 380.0
81.480904 220.0
81.531456 152.0
81.585144 180.0
81.703117 120.0
81.781212 188.0
81.820816 200.0
81.845619 144.0
81.888214 196.0
81.903648 156.0
82.047813 228.0
82.114532 164.0
82.152412 152.0
82.1903 180.0
82.202927 128.0
82.237221 192.0
82.255272 136.0
82.287766 136.0
82.473831 64.0
82.529877 92.0
82.596786 84.0
82.692474 172.0
83.056877 184.0
83.143967 256.0
83.170982 176.0
83.252892 192.0
83.285583 252.0
83.314644 144.0
83.329178 40.0
83.485504 220.0
83.558258 100.0
83.705688 100.0
83.81498 204.0
83.897003 76.0
83.92202 204.0
83.963486 168.0
83.979057 152.0
84.052025 104.0
84.092178 380.0
84.1632 196.0
84.272964 92.0
84.298546 128.0
84.492363 28.0
84.534439 128.0
84.550087 168.0
84.602165 112.0
84.684563 164.0
84.697388 144.0
84.727448 236.0
84.902664 196.0
84.966858 172.0
85.104515 236.0
85.157768 196.0
85.176132 140.0
85.218391 36.0
85.268005 144.0
85.356247 168.0
85.376472 232.0
85.519974 216.0
85.554955 176.0
85.575203 148.0
85.641495 108.0
85.739143 176.0
85.853447 144.0
85.886642 160.0
86.003616 128.0
86.01664 160.0
86.034271 136.0
86.083275 80.0
86.171028 152.0
86.283669 80.0
86.329269 200.0
86.474197 132.0
86.492714 204.0
86.679764 128.0
86.720535 132.0
86.835487 212.0
86.889282 164.0
86.97464 272.0
87.31279 176.0
87.335114 224.0
87.472809 152.0
87.530518 180.0
87.569626 152.0
87.597572 160.0
87.616196 136.0
87.636696 108.0
87.711235 184.0
87.847359 180.0
87.918266 204.0
87.991058 156.0
88.041473 160.0
88.108719 68.0
88.127403 124.0
88.184784 240.0
88.261978 188.0
88.326698 172.0
88.394791 88.0
88.477142 68.0
88.495865 144.0
88.591377 220.0
88.647591 176.0
88.784439 124.0
88.927025 224.0
88.979584 160.0
89.011505 108.0
89.039673 172.0
89.058456 152.0
89.133598 116.0
89.165955 220.0
89.220062 212.0
89.236977 144.0
89.282112 192.0
89.368637 200.0
89.39122 108.0
89.425095 176.0
89.442978 136.0
89.603981 196.0
89.681244 184.0
89.749115 44.0
89.888695 144.0
89.922668 144.0
89.997604 172.0
90.047501 164.0
90.080162 156.0
90.117165 144.0
90.234352 108.0
90.249474 140.0
90.2854 192.0
90.415939 144.0
90.512482 124.0
90.546974 168.0
90.616661 156.0
90.665947 164.0
90.777771 188.0
90.794838 172.0
90.840363 120.0
90.865028 148.0
90.883995 148.0
90.925743 136.0
91.03965 136.0
91.096634 84.0
91.208748 208.0
91.241493 176.0
91.290497 208.0
91.324287 188.0
91.371475 216.0
91.444595 204.0
91.532166 200.0
91.701721 204.0
91.793228 100.0
91.852348 124.0
91.879059 152.0
91.894318 144.0
91.943932 168.0
91.957291 56.0
91.980194 168.0
92.014557 144.0
92.083305 152.0
92.1922 208.0
92.228508 168.0
92.46759 148.0
92.517357 152.0
92.534592 120.0
92.618141 140.0
92.737648 108.0
92.757812 184.0
92.789398 132.0
92.835419 156.0
92.864189 100.0
92.919815 156.0
93.031792 220.0
93.059921 76.0
93.113693 104.0
93.152107 176.0
93.213585 176.0
93.228958 40.0
93.273163 120.0
93.321228 76.0
93.338531 192.0
93.615631 116.0
93.650299 92.0
93.736992 136.0
93.796738 140.0
93.81987 96.0
93.860359 216.0
93.9105 128.0
93.951004 200.0
94.02626 152.0
94.041695 156.0
94.12471 180.0
94.138229 240.0
94.184578 136.0
94.261856 120.0
94.281471 188.0
94.309395 288.0
94.345459 252.0
94.40007 136.0
94.408318 68.0
94.411545 120.0
94.425438 212.0
94.43972 240.0
94.515167 100.0
94.548065 192.0
94.567421 200.0
94.617195 28.0
94.673897 120.0
94.82695 120.0
94.918449 160.0
94.947685 220.0
95.011162 184.0
95.048027 196.0
95.071312 236.0
95.104309 136.0
95.139244 184.0
95.228569 220.0
95.286842 216.0
95.356796 112.0
95.395676 132.0
95.436241 148.0
95.481224 152.0
95.601845 56.0
95.647324 260.0
95.698212 236.0
95.714745 140.0
95.743744 144.0
95.830139 148.0
95.876434 124.0
95.915413 72.0
96.077271 108.0
96.112389 140.0
96.157272 88.0
96.188499 108.0
96.253151 104.0
96.430702 184.0
96.448288 148.0
96.501076 160.0
96.555824 168.0
96.573425 108.0
96.604729 140.0
96.647766 152.0
96.671249 168.0
96.798485 140.0
96.831779 128.0
96.903183 184.0
97.074791 88.0
97.108131 128.0
97.151283 164.0
97.190521 160.0
97.30632 192.0
97.327919 172.0
97.575996 184.0
97.591209 164.0
97.665939 184.0
97.726921 144.0
97.833199 180.0
97.856827 84.0
97.911964 124.0
97.945442 128.0
98.073517 56.0
98.089287 172.0
98.114914 184.0
98.134628 156.0
98.193176 220.0
98.286507 156.0
98.316109 180.0
98.377296 140.0
98.452324 172.0
98.487877 112.0
98.547134 184.0
98.588631 144.0
98.618279 144.0
98.640022 156.0
98.677582 220.0
98.706177 252.0
98.770073 156.0
98.845665 184.0
98.869453 156.0
98.883308 148.0
98.899139 156.0
98.972389 164.0
98.990211 152.0
99.011993 236.0
99.055573 184.0
99.109062 164.0
99.138786 228.0
99.235909 288.0
99.249794 196.0
99.283501 184.0
99.299973 144.0
99.337051 164.0
99.362846 176.0
99.436264 244.0
99.491844 180.0
99.557365 144.0
99.5951 172.0
99.895256 152.0
100.038528 136.0
100.094276 116.0
100.143974 168.0
100.321411 140.0
100.37764 156.0
100.578735 84.0
100.6138 192.0
100.661324 260.0
100.712517 60.0
100.750465 36.0
100.818405 192.0
100.844383 192.0
100.890358 236.0
100.938347 124.0
100.979507 208.0
101.014343 164.0
101.028343 144.0
101.102722 232.0
101.126396 76.0
101.179276 308.0
101.218483 124.0
101.472946 200.0
101.49099 104.0
101.531097 200.0
101.549149 184.0
101.611336 116.0
101.709663 148.0
101.793983 112.0
101.914505 120.0
101.938705 180.0
101.976799 116.0
102.047562 552.0
102.065254 224.0
102.161797 48.0
102.298637 192.0
102.398689 208.0
102.487946 172.0
102.546387 148.0
102.574608 84.0
102.600815 172.0
102.647186 212.0
102.675423 168.0
102.797302 212.0
102.863892 204.0
103.053795 484.0
103.097351 144.0
103.26313 168.0
103.319016 128.0
103.342026 128.0
103.475609 172.0
103.605217 108.0
103.742363 184.0
103.793709 188.0
103.830215 144.0
103.913376 240.0
103.927582 196.0
103.943817 136.0
104.018906 76.0
104.052795 704.0
104.067978 188.0
104.415367 160.0
104.514793 168.0
104.540092 120.0
104.565666 244.0
104.681709 92.0
104.82634 232.0
104.858414 232.0
104.913979 132.0
105.058197 512.0
105.140388 176.0
105.168961 156.0
105.277168 80.0
105.328224 136.0
105.358864 104.0
105.387466 72.0
105.438553 56.0
105.571442 44.0
105.628708 140.0
105.651627 136.0
105.682533 152.0
105.814934 172.0
105.837456 124.0
105.859978 156.0
105.968536 140.0
106.062805 140.0
106.146301 160.0
106.165321 196.0
106.179672 208.0
106.194031 40.0
106.226852 92.0
106.384857 148.0
106.473152 96.0
106.610794 288.0
106.703293 128.0
106.782608 108.0
106.79583 280.0
106.935738 168.0
107.046906 164.0
107.086311 148.0
107.127228 84.0
107.146156 192.0
107.175751 152.0
107.205528 124.0
107.304466 212.0
107.368385 132.0
107.471527 176.0
107.531372 180.0
107.547882 172.0
107.636658 164.0
107.675896 176.0
107.739922 156.0
107.855644 44.0
107.930069 104.0
108.03141 180.0
108.050034 188.0
108.172127 144.0
108.209389 188.0
108.286224 192.0
108.31501 192.0
108.370941 192.0
108.385445 164.0
108.449692 148.0
108.563713 172.0
108.619713 72.0
108.723457 48.0
108.740059 60.0
108.787796 48.0
109.165939 88.0
109.184654 136.0
109.215904 168.0
109.522453 212.0
109.657257 200.0
109.717705 140.0
109.905418 224.0
110.099548 176.0
110.114166 168.0
110.147591 140.0
110.21862 180.0
110.254143 48.0
110.339844 160.0
110.37748 160.0
110.461136 148.0
110.482109 168.0
110.525093 228.0
110.609703 200.0
110.680885 136.0
110.804459 64.0
110.831696 36.0
110.850555 168.0
110.879898 156.0
110.963745 248.0
111.003578 140.0
111.022453 164.0
111.037132 104.0
111.074936 168.0
111.160904 160.0
111.270767 188.0
111.549454 92.0
111.589394 96.0
111.648277 196.0
111.890251 76.0
111.911308 208.0
111.978882 176.0
112.020821 236.0
112.102989 188.0
112.175179 32.0
112.229462 144.0
112.364449 104.0
112.482971 120.0
112.5354 136.0
112.626205 132.0
112.723389 160.0
112.752975 176.0
112.769882 132.0
112.837524 172.0
112.867126 112.0
112.983452 164.0
113.0224 216.0
113.082909 132.0
113.114601 156.0
113.161232 196.0
113.180283 148.0
113.197227 64.0
113.298889 180.0
113.313721 184.0
113.370934 56.0
113.449356 132.0
113.521446 224.0
113.569862 188.0
113.612648 60.0
113.691154 220.0
113.797287 180.0
113.877983 148.0
113.933212 72.0
113.992706 184.0
114.033081 180.0
114.069214 56.0
114.126808 176.0
114.171272 152.0
114.249969 104.0
114.277626 48.0
114.318054 156.0
114.42514 168.0
114.460678 76.0
114.475586 152.0
114.533089 180.0
114.621552 160.0
114.681564 240.0
114.705017 152.0
114.763245 36.0
114.799805 164.0
114.898567 168.0
114.978691 56.0
115.055443 1388.0
115.0961 168.0
115.111046 36.0
115.130272 160.0
115.232796 120.0
115.273392 136.0
115.311859 148.0
115.431534 176.0
115.476486 212.0
115.508575 52.0
115.714012 148.0
115.778252 140.0
115.842506 176.0
115.885353 188.0
115.964645 156.0
115.990364 120.0
116.02681 236.0
116.062088 836.0
116.14904 216.0
116.189796 124.0
116.221977 200.0
116.260605 136.0
116.496788 100.0
116.5271 180.0
116.595627 228.0
116.614967 168.0
116.750412 208.0
116.778374 124.0
116.804184 136.0
116.834297 144.0
116.918213 156.0
117.017227 188.0
117.06002 600.0
117.161652 188.0
117.239098 128.0
117.256332 100.0
117.381371 212.0
117.409218 184.0
117.510788 148.0
117.532364 188.0
117.646751 188.0
117.687767 148.0
117.761192 112.0
117.80439 192.0
117.835648 208.0
117.900406 192.0
117.964302 156.0
117.988083 248.0
118.064354 704.0
118.169754 228.0
118.219521 148.0
118.316917 40.0
118.373215 136.0
118.3992 272.0
118.431206 108.0
118.555183 68.0
118.596359 56.0
118.713432 128.0
118.756592 164.0
118.869614 144.0
118.919769 108.0
118.952087 200.0
118.967285 92.0
118.986206 168.0
119.034592 160.0
119.072479 368.0
119.125809 112.0
119.249664 72.0
119.331757 204.0
119.382278 168.0
119.492188 204.0
119.560669 116.0
119.604195 140.0
119.741364 188.0
119.811066 168.0
119.874252 188.0
120.01812 180.0
120.164253 136.0
120.192612 208.0
120.343224 136.0
120.382523 152.0
120.421837 72.0
120.541992 276.0
120.633781 172.0
120.670952 180.0
120.727798 136.0
120.751854 176.0
120.926888 68.0
120.975044 144.0
120.996933 204.0
121.058243 92.0
121.15023 164.0
121.174332 172.0
121.211578 152.0
121.329933 204.0
121.375977 164.0
121.422028 128.0
121.463699 248.0
121.500992 168.0
121.533905 144.0
121.55146 140.0
121.669983 128.0
121.700714 116.0
121.763489 212.0
121.878632 152.0
121.898407 148.0
121.981926 92.0
122.021492 220.0
122.056671 204.0
122.079643 140.0
122.113853 116.0
122.157845 88.0
122.190842 52.0
122.259048 188.0
122.289864 180.0
122.33609 116.0
122.393333 144.0
122.438492 236.0
122.492439 152.0
122.624832 244.0
122.684151 156.0
122.794403 192.0
122.829697 108.0
122.851753 128.0
122.900291 32.0
122.935593 176.0
122.990906 200.0
123.233688 192.0
123.269043 168.0
123.31311 204.0
123.374031 104.0
123.563164 180.0
123.605583 144.0
123.647202 276.0
123.715813 164.0
123.755669 132.0
123.797737 236.0
123.921783 40.0
123.939507 56.0
123.97496 192.0
124.043671 120.0
124.170052 148.0
124.232506 128.0
124.276527 180.0
124.440773 188.0
124.467415 192.0
124.596237 76.0
124.625122 116.0
124.742905 108.0
124.791817 212.0
124.825165 92.0
124.918579 136.0
124.938599 48.0
124.97197 96.0
125.003128 136.0
125.038734 128.0
125.283661 104.0
125.368332 188.0
125.383926 104.0
125.43438 164.0
125.595741 116.0
125.678284 120.0
125.707291 188.0
125.747787 136.0
125.806847 240.0
125.836746 168.0
125.888107 128.0
125.941704 120.0
126.055641 148.0
126.073898 188.0
126.120453 188.0
126.270256 156.0
126.400009 176.0
126.476097 172.0
126.637306 140.0
126.668663 124.0
126.693306 116.0
126.729156 180.0
126.760521 160.0
126.789658 196.0
126.827515 112.0
126.833023 172.0
126.856895 132.0
126.879311 168.0
126.917427 180.0
126.988243 180.0
127.016106 168.0
127.055664 372.0
127.090584 160.0
127.135017 176.0
127.172501 160.0
127.213577 28.0
127.256226 52.0
127.29174 172.0
127.298508 140.0
127.347656 188.0
127.372635 144.0
127.471863 184.0
127.511589 236.0
127.527916 144.0
127.62471 148.0
127.66069 156.0
127.698921 156.0
127.728157 224.0
127.770897 56.0
127.812477 368.0
127.89917 148.0
127.977959 156.0
128.016235 236.0
128.061188 2584.0
128.087662 152.0
128.114517 208.0
128.205475 124.0
128.232559 176.0
128.255051 64.0
128.273514 156.0
128.291122 240.0
128.465836 192.0
128.489578 148.0
128.516647 132.0
128.634003 112.0
128.74379 152.0
128.796585 116.0
128.889206 200.0
128.927628 160.0
128.970566 132.0
128.997696 176.0
129.070221 1716.0
129.124313 108.0
129.153717 56.0
129.196686 152.0
129.212524 88.0
129.26004 144.0
129.3302 148.0
129.357361 60.0
129.416229 124.0
129.456985 176.0
129.49791 228.0
129.80983 312.0
129.894409 188.0
129.910522 196.0
129.925537 72.0
129.962463 136.0
130.041885 116.0
130.065857 1260.0
130.346207 136.0
130.389374 144.0
130.525772 184.0
130.546234 348.0
130.723679 96.0
130.844315 76.0
130.917175 152.0
130.971832 172.0
131.00145 148.0
131.024231 140.0
131.073013 484.0
131.213547 176.0
131.272675 72.0
131.318283 136.0
131.454895 168.0
131.539612 92.0
131.564713 124.0
131.662903 164.0
131.715439 256.0
131.806808 312.0
131.865433 272.0
132.012543 432.0
132.044754 508.0
132.064194 156.0
132.07933 196.0
132.120041 76.0
132.284805 200.0
132.355789 140.0
132.400894 224.0
132.477173 64.0
132.636581 224.0
132.676544 152.0
132.869873 188.0
133.036362 340.0
133.123962 124.0
133.245697 212.0
133.277863 216.0
133.383575 68.0
133.473236 236.0
133.549133 64.0
133.581329 60.0
133.62735 156.0
133.666458 112.0
133.737808 128.0
133.845367 216.0
133.998016 68.0
134.021057 188.0
134.378433 220.0
134.3992 88.0
134.424576 160.0
134.482269 148.0
134.512283 148.0
134.612946 220.0
134.666977 236.0
134.976654 60.0
135.064529 148.0
135.12468 200.0
135.166336 72.0
135.207977 156.0
135.335297 152.0
135.476578 144.0
135.645737 140.0
135.734528 176.0
135.775223 132.0
135.790543 204.0
135.815002 180.0
135.893875 64.0
136.004776 208.0
136.044739 140.0
136.086517 164.0
136.112061 128.0
136.186371 276.0
136.239807 92.0
136.2733 228.0
136.311829 132.0
136.377411 216.0
136.439667 140.0
136.500122 44.0
136.518723 140.0
136.567551 172.0
136.646652 172.0
136.690201 212.0
136.804901 140.0
136.930634 140.0
137.153931 168.0
137.443497 208.0
137.560181 196.0
137.771301 228.0
137.833435 164.0
137.920609 160.0
138.008743 116.0
138.163101 208.0
138.189514 152.0
138.242661 164.0
138.291794 172.0
138.371078 184.0
138.398849 192.0
138.469742 96.0
138.565781 44.0
138.593887 216.0
138.800156 156.0
138.96637 144.0
139.05069 136.0
139.072296 80.0
139.116898 128.0
139.238998 136.0
139.300781 208.0
139.394043 108.0
139.584442 188.0
139.654999 88.0
139.958572 152.0
140.046768 160.0
140.098999 108.0
140.139938 180.0
140.172913 128.0
140.253052 204.0
140.323776 160.0
140.354416 364.0
140.432236 72.0
140.524246 192.0
140.602112 184.0
140.625717 84.0
140.644592 188.0
140.768387 256.0
140.800415 196.0
140.918533 200.0
140.96106 180.0
141.013046 136.0
141.069351 764.0
141.088684 68.0
141.204559 96.0
141.22821 40.0
141.287338 112.0
141.31337 140.0
141.400925 204.0
141.424591 40.0
141.580841 244.0
141.599792 72.0
141.620514 272.0
141.870667 148.0
141.922821 176.0
141.959946 132.0
141.983734 152.0
142.021683 36.0
142.066177 3236.0
142.104706 168.0
142.216232 132.0
142.232849 60.0
142.293732 236.0
142.374512 144.0
142.440903 104.0
142.482193 208.0
142.505951 128.0
142.541595 204.0
142.69133 176.0
142.727005 88.0
142.781693 44.0
142.817368 132.0
142.893494 140.0
142.933945 148.0
143.024719 168.0
143.07489 12760.0
143.167221 88.0
143.235565 52.0
143.243744 92.0
143.274414 40.0
143.291687 80.0
143.314316 96.0
143.372101 152.0
143.409714 184.0
143.524658 208.0
143.556198 176.0
143.574387 164.0
143.667755 72.0
143.686844 180.0
143.74173 256.0
143.830505 200.0
143.879044 156.0
143.93985 120.0
143.992386 60.0
144.013885 176.0
144.053085 136.0
144.079727 3116.0
144.106216 276.0
144.133331 132.0
144.214584 92.0
144.257599 88.0
144.322159 64.0
144.412567 228.0
144.468048 40.0
144.580505 140.0
144.604431 124.0
144.659485 200.0
144.704971 96.0
144.733704 40.0
144.825226 220.0
144.906158 68.0
145.018784 88.0
145.045685 176.0
145.085312 240.0
145.089874 212.0
145.112274 44.0
145.191391 124.0
145.208191 160.0
145.28273 160.0
145.361725 144.0
145.411789 144.0
145.572968 172.0
145.597748 212.0
145.702667 128.0
145.748993 128.0
145.818008 176.0
145.911743 232.0
145.932037 100.0
145.957428 132.0
146.019958 112.0
146.058838 668.0
146.089706 156.0
146.109589 212.0
146.26683 204.0
146.350677 184.0
146.371307 176.0
146.397797 116.0
146.436325 64.0
146.501358 188.0
146.535095 152.0
146.5905 152.0
146.630875 196.0
146.703781 188.0
146.800232 212.0
146.822403 180.0
146.854401 176.0
146.877411 88.0
146.971497 192.0
147.002853 60.0
147.046295 196.0
147.065613 164.0
147.138031 168.0
147.232193 152.0
147.331223 124.0
147.367462 140.0
147.396469 148.0
147.454453 184.0
147.582581 192.0
147.650284 100.0
147.68898 152.0
147.800262 168.0
147.8414 192.0
147.884964 236.0
147.90918 140.0
147.972107 188.0
147.991486 140.0
148.054443 140.0
148.071396 184.0
148.131943 64.0
148.165863 188.0
148.199783 172.0
148.22644 132.0
148.32338 104.0
148.471268 100.0
148.575577 100.0
148.699326 124.0
148.718735 148.0
148.803696 116.0
148.844971 220.0
148.903259 224.0
149.070892 156.0
149.228882 216.0
149.25383 216.0
149.301834 120.0
149.355331 40.0
149.478165 196.0
149.542679 180.0
149.647354 236.0
149.688751 144.0
149.8508 204.0
149.886063 164.0
149.95636 200.0
150.173721 148.0
150.232269 132.0
150.263977 92.0
150.334732 236.0
150.47876 160.0
150.588638 132.0
150.661926 116.0
150.820755 96.0
150.920532 128.0
150.974777 224.0
151.05304 168.0
151.077515 208.0
151.153351 152.0
151.241455 132.0
151.60495 164.0
151.670105 160.0
151.746094 188.0
151.764389 208.0
151.844177 132.0
151.886719 116.0
151.937393 196.0
151.957016 312.0
151.996277 76.0
152.062469 404.0
152.202469 168.0
152.258942 224.0
152.285965 180.0
152.303146 200.0
152.331833 184.0
152.465302 160.0
152.524292 156.0
152.570999 56.0
152.593124 108.0
152.642563 148.0
152.703781 252.0
152.910446 204.0
152.996597 132.0
153.026138 52.0
153.070358 732.0
153.100006 200.0
153.144348 144.0
153.190399 184.0
153.245346 216.0
153.269974 240.0
153.294617 164.0
153.398132 128.0
153.425247 116.0
153.459763 32.0
153.69902 240.0
153.775528 160.0
153.807602 116.0
153.834763 200.0
153.938461 176.0
154.065613 5744.0
154.236267 164.0
154.276947 148.0
154.400574 156.0
154.447571 172.0
154.472305 64.0
154.49054 116.0
154.667786 160.0
154.698944 224.0
154.81633 68.0
154.833679 148.0
154.865875 192.0
154.888168 120.0
155.073578 5800.0
155.212097 168.0
155.331161 184.0
155.418686 172.0
155.45343 160.0
155.510513 76.0
155.529037 184.0
155.617249 112.0
155.860657 52.0
155.895447 180.0
155.950134 72.0
156.044342 852.0
156.078491 1752.0
156.115326 204.0
156.15152 108.0
156.358017 156.0
156.386169 132.0
156.462555 176.0
156.557175 160.0
156.691681 212.0
156.756454 180.0
156.803802 216.0
156.836212 180.0
156.868607 128.0
156.891052 140.0
156.948395 192.0
157.088165 1152.0
157.127975 64.0
157.222794 232.0
157.275192 72.0
157.312637 76.0
157.330124 120.0
157.375061 172.0
157.402527 136.0
157.472443 180.0
157.514908 148.0
157.542389 332.0
157.56987 36.0
157.611572 144.0
157.699814 188.0
157.777298 52.0
157.927338 72.0
157.964859 60.0
157.989868 112.0
158.037399 236.0
158.063705 340.0
158.095642 288.0
158.228516 92.0
158.405411 92.0
158.455521 92.0
158.512344 136.0
158.542374 140.0
158.563263 192.0
158.876694 36.0
158.904297 152.0
159.067383 304.0
159.094574 224.0
159.12265 164.0
159.188431 200.0
159.406479 112.0
159.729675 104.0
159.841492 40.0
160.040344 136.0
160.128738 156.0
160.219162 96.0
160.318771 180.0
160.365311 152.0
160.635101 208.0
160.708267 168.0
160.730972 68.0
160.847061 164.0
160.950577 212.0
160.97583 164.0
161.026337 124.0
161.160217 208.0
161.342194 120.0
161.410446 276.0
161.577377 180.0
161.886185 180.0
161.939362 180.0
161.964691 192.0
162.066025 144.0
162.135483 216.0
162.189224 52.0
162.240906 148.0
162.417938 256.0
162.441681 184.0
162.519882 88.0
162.583313 104.0
162.611237 268.0
162.695007 160.0
162.745773 120.0
162.890533 196.0
162.906799 192.0
162.933716 228.0
162.954041 212.0
163.004868 184.0
163.024002 204.0
163.048065 168.0
163.143097 300.0
163.223465 184.0
163.2845 168.0
163.335373 144.0
163.360809 160.0
163.391327 120.0
163.442215 112.0
163.463654 200.0
163.485474 164.0
163.620377 124.0
163.882706 92.0
163.900543 192.0
164.007584 192.0
164.140152 188.0
164.214096 108.0
164.48201 88.0
164.609665 52.0
164.627533 108.0
164.706711 204.0
164.747589 180.0
164.801239 208.0
164.841293 152.0
164.916229 180.0
164.944351 120.0
165.075165 208.0
165.120773 60.0
165.146347 148.0
165.200058 128.0
165.238327 180.0
165.420135 120.0
165.714645 180.0
165.732574 204.0
165.812012 116.0
166.029922 152.0
166.069153 300.0
166.178711 160.0
166.224884 212.0
166.337814 156.0
166.376328 108.0
166.437943 188.0
166.546997 164.0
166.568924 96.0
166.628006 60.0
166.712799 136.0
166.789902 136.0
166.812057 136.0
166.892731 204.0
166.951996 160.0
166.959961 168.0
167.01857 364.0
167.073959 12124.0
167.292389 128.0
167.318375 240.0
167.361084 140.0
167.391907 152.0
167.429382 312.0
167.479477 128.0
167.500076 76.0
167.538727 48.0
167.569641 180.0
167.61882 180.0
167.726837 136.0
167.830963 112.0
167.878952 132.0
167.909897 164.0
168.001923 312.0
168.005554 416.0
168.031128 64.0
168.081543 19308.0
168.136856 128.0
168.179977 176.0
168.224686 64.0
168.242752 140.0
168.281479 56.0
168.302139 84.0
168.325378 148.0
168.372269 196.0
168.413177 92.0
168.515564 88.0
168.566803 60.0
168.586349 152.0
168.617294 104.0
168.635376 180.0
168.670654 104.0
168.722458 152.0
168.774979 160.0
168.821518 40.0
168.856369 76.0
168.937912 168.0
168.964462 60.0
169.025879 200.0
169.089233 23452.0
169.200806 68.0
169.218628 244.0
169.247665 244.0
169.266602 32.0
169.297684 40.0
169.340836 156.0
169.359833 128.0
169.384506 152.0
169.432373 112.0
169.454849 148.0
169.517319 132.0
169.566086 468.0
169.598206 168.0
169.62413 108.0
169.650055 160.0
169.670349 116.0
169.69693 48.0
169.743698 192.0
169.78215 144.0
169.788727 132.0
169.799225 280.0
169.830978 300.0
169.860092 416.0
169.880249 324.0
169.908966 224.0
169.935791 204.0
169.962158 188.0
169.99176 192.0
169.999466 184.0
170.027298 352.0
170.053482 660.0
170.097641 145064.0
170.167282 216.0
170.223114 140.0
170.260788 136.0
170.3172 208.0
170.362503 152.0
170.388412 156.0
170.415161 84.0
170.419266 88.0
170.447708 116.0
170.479691 56.0
170.502991 200.0
170.524582 436.0
170.560028 104.0
170.596497 96.0
170.628174 84.0
170.65773 124.0
170.692871 184.0
170.699936 84.0
170.754791 140.0
170.776321 80.0
170.802139 140.0
170.812607 156.0
170.881378 84.0
170.940506 240.0
170.970886 152.0
171.029129 128.0
171.068253 13916.0
171.100189 16156.0
171.137939 320.0
171.172287 132.0
171.215347 216.0
171.262573 100.0
171.299484 308.0
171.332794 108.0
171.359528 68.0
171.38681 96.0
171.431564 156.0
171.485184 40.0
171.504608 168.0
171.54187 48.0
171.57753 56.0
171.616058 56.0
171.680298 100.0
171.697662 96.0
171.716736 108.0
171.746719 52.0
171.785034 124.0
171.821564 52.0
171.842438 40.0
171.860703 184.0
171.878738 84.0
171.925934 104.0
171.980743 100.0
172.01741 84.0
172.040771 120.0
172.070816 2064.0
172.10437 1312.0
172.170212 84.0
172.212967 220.0
172.239761 160.0
172.266754 64.0
172.292786 248.0
172.317612 124.0
172.341034 120.0
172.371246 280.0
172.389771 136.0
172.399857 84.0
172.419296 296.0
172.452225 124.0
172.469177 200.0
172.492691 40.0
172.520493 96.0
172.572433 68.0
172.675568 64.0
172.735886 124.0
172.76825 96.0
172.778732 84.0
172.898102 48.0
172.980927 136.0
173.073883 184.0
173.105362 140.0
173.148178 84.0
173.189621 124.0
173.241104 132.0
173.262054 72.0
173.311844 60.0
173.516266 176.0
173.54512 96.0
173.587067 72.0
173.61853 108.0
173.760178 188.0
173.825775 68.0
173.878265 68.0
173.941254 100.0
174.172318 40.0
174.235367 100.0
174.424576 92.0
174.448227 132.0
174.553391 136.0
174.848022 72.0
174.866455 140.0
175.024399 156.0
175.05336 200.0
175.395859 168.0
175.561966 120.0
175.638443 100.0
175.696472 92.0
175.912872 272.0
176.095062 76.0
176.560211 128.0
176.597229 192.0
177.049789 32.0
177.134552 204.0
177.532104 192.0
177.651459 160.0
177.853134 32.0
177.977905 168.0
178.007111 168.0
178.070847 136.0
178.23024 140.0
178.351273 88.0
178.506683 48.0
178.530609 104.0
178.605087 116.0
179.041565 68.0
179.230957 124.0
179.553726 136.0
179.601257 148.0
179.646606 112.0
179.68663 116.0
179.910797 156.0
180.076355 184.0
180.183197 168.0
180.316803 44.0
180.437088 140.0
180.466507 84.0
180.565445 120.0
180.659058 80.0
180.796463 136.0
180.83075 120.0
180.865112 96.0
180.945419 128.0
181.083084 280.0
181.2052 264.0
181.225967 144.0
181.392792 88.0
181.442505 88.0
181.521484 204.0
181.540253 128.0
181.668991 60.0
181.695816 116.0
181.746796 68.0
181.781677 148.0
181.813889 32.0
181.847214 152.0
181.886353 112.0
181.942719 116.0
181.9991 184.0
182.066315 180.0
182.097488 18076.0
182.139481 196.0
182.170364 52.0
182.21666 48.0
182.254272 176.0
182.369827 36.0
182.407455 60.0
182.504242 144.0
182.546936 228.0
182.646774 92.0
182.689804 76.0
182.708633 52.0
182.808197 124.0
182.931992 76.0
182.956223 188.0
182.977768 60.0
183.008774 116.0
183.042389 184.0
183.102249 3716.0
183.274033 200.0
183.30098 120.0
183.376434 76.0
183.420425 236.0
183.49382 168.0
183.538681 128.0
183.581329 132.0
183.605591 144.0
183.66011 164.0
183.724274 160.0
183.792068 216.0
183.851089 104.0
183.882462 128.0
183.910461 80.0
183.948761 212.0
183.990372 100.0
184.011078 208.0
184.028763 200.0
184.036667 80.0
184.077652 752.0
184.113434 101420.0
184.187607 236.0
184.194656 96.0
184.213135 120.0
184.233841 216.0
184.264847 72.0
184.282669 188.0
184.315201 92.0
184.340332 116.0
184.363541 188.0
184.400131 80.0
184.482941 124.0
184.53775 80.0
184.557144 84.0
184.602081 52.0
184.632385 168.0
184.653458 84.0
184.687119 108.0
184.699219 48.0
184.706131 72.0
184.745438 80.0
184.769775 52.0
184.825516 80.0
184.856354 172.0
184.899658 80.0
184.941483 204.0
184.988174 228.0
185.020645 92.0
185.047485 76.0
185.080765 204.0
185.115494 12068.0
185.159561 56.0
185.205597 84.0
185.240005 80.0
185.250153 112.0
185.277161 48.0
185.327515 28.0
185.349182 52.0
185.377869 164.0
185.429932 136.0
185.50383 136.0
185.560593 44.0
185.632385 92.0
185.652237 136.0
185.676315 160.0
185.708206 68.0
185.820953 44.0
185.853516 52.0
185.887711 80.0
185.907181 72.0
185.947479 64.0
185.988831 116.0
186.120529 768.0
186.166 104.0
186.200989 236.0
186.332062 180.0
186.360535 120.0
186.418091 48.0
186.470337 84.0
186.503769 116.0
186.553925 196.0
186.601746 68.0
186.641861 100.0
186.66568 272.0
186.696762 84.0
186.864243 84.0
187.054733 68.0
187.128235 160.0
187.147293 112.0
187.204483 48.0
187.278015 100.0
187.422226 132.0
187.472733 108.0
187.555939 48.0
187.618637 92.0
187.684067 100.0
187.823151 100.0
187.871994 44.0
188.011398 52.0
188.240707 72.0
188.295334 48.0
188.355423 28.0
188.604065 60.0
188.669678 156.0
188.692062 212.0
188.965836 96.0
189.176483 92.0
189.904633 52.0
189.989655 80.0
190.033554 112.0
190.091171 44.0
190.637634 52.0
191.330765 100.0
191.443665 88.0
191.823868 116.0
192.237579 104.0
192.480499 92.0
192.682114 116.0
192.961258 36.0
193.165894 168.0
193.190796 132.0
193.381714 36.0
194.021591 112.0
194.095718 524.0
194.226791 52.0
194.504272 40.0
194.734726 36.0
194.823608 68.0
195.095947 60.0
195.257217 116.0
196.072357 400.0
196.337967 124.0
196.641876 84.0
197.043976 156.0
197.082428 500.0
197.384979 52.0
197.424118 80.0
197.485657 44.0
197.530411 196.0
197.591949 84.0
197.838226 112.0
198.020218 156.0
198.08783 116.0
198.126663 112.0
198.320023 148.0
198.774338 152.0
198.934311 188.0
199.099335 212.0
199.552368 132.0
199.726715 100.0
199.808304 164.0
199.833618 104.0
200.202362 80.0
200.410538 204.0
200.421585 184.0
200.960617 28.0
201.070663 80.0
201.237198 148.0
201.259796 80.0
201.627014 112.0
202.099258 144.0
202.909271 180.0
203.05957 160.0
204.312225 132.0
204.947128 160.0
207.697296 48.0
207.918213 80.0
208.297211 56.0
210.43692 108.0
211.055237 100.0
211.231644 172.0
211.332901 152.0
211.576004 152.0
211.610748 172.0
211.695328 208.0
211.779541 252.0
211.940933 96.0
211.990204 204.0
212.068451 52.0
212.107895 14444.0
212.191879 56.0
212.239487 64.0
212.309082 72.0
212.385696 96.0
212.471512 76.0
212.51503 64.0
212.555649 80.0
212.753006 100.0
212.880768 52.0
213.110123 2816.0
213.336914 40.0
213.424133 72.0
213.78775 40.0
213.81102 104.0
214.055557 96.0
214.112457 132.0
214.259445 52.0
214.466003 72.0
214.530457 108.0
214.580017 88.0
214.638336 64.0
214.673325 96.0
214.784149 140.0
214.836655 108.0
215.294907 100.0
215.736099 48.0
215.932007 84.0
216.247986 80.0
216.945114 176.0
220.161072 120.0
220.911804 48.0
222.004715 84.0
223.216293 48.0
225.201065 104.0
225.341476 176.0
225.718079 128.0
225.795822 84.0
226.160843 40.0
226.385376 160.0
226.972702 172.0
229.962967 52.0
231.619904 136.0
235.043121 108.0
235.088898 124.0
237.115341 88.0
237.785065 176.0
240.123276 112.0
243.727509 68.0
246.3936 84.0
246.906219 116.0
247.716873 44.0
247.90799 184.0
248.980881 144.0
250.027756 208.0
250.279587 64.0
252.090179 28.0
255.988815 128.0
256.935455 52.0
258.965271 148.0
258.99408 112.0
260.347534 100.0
261.147766 116.0
262.410095 168.0
262.477783 84.0
264.027832 40.0
264.956787 40.0
266.358185 192.0
267.877258 68.0
268.437836 232.0
269.093689 92.0
273.387634 252.0
273.614777 136.0
274.534058 60.0
275.131256 140.0
275.435059 92.0
276.153564 144.0
276.221771 144.0
277.148743 48.0
279.107239 156.0
284.190735 180.0
284.445801 56.0
284.902496 160.0
285.325928 80.0
287.562592 124.0
289.279663 192.0
290.011322 84.0
290.289307 52.0
290.66922 84.0
291.127502 56.0
291.358459 80.0
291.548737 132.0
292.249237 36.0
292.443207 96.0
292.790466 44.0
293.642487 172.0
293.954926 108.0
294.096252 120.0
294.160767 7412.0
294.305634 120.0
294.359131 96.0
294.546967 160.0
294.912567 52.0
295.165619 1940.0
295.227356 56.0
295.268127 68.0
295.305756 60.0
295.422058 140.0
295.558899 168.0
295.822418 80.0
295.993622 48.0
296.051819 44.0
296.165253 200.0
296.613708 88.0
296.774841 80.0
297.165833 120.0
297.347717 40.0
298.199432 72.0
298.450409 36.0
298.732391 92.0
299.382904 72.0
300.648102 56.0
300.72403 76.0
304.716675 92.0
305.564972 120.0
306.543365 84.0
308.407013 104.0
312.147675 68.0
313.203491 148.0
313.340881 84.0
314.01413 120.0
316.385132 136.0
316.764038 72.0
318.40979 72.0
318.555389 36.0
324.217804 140.0
324.655151 136.0
326.565765 92.0
327.019104 116.0
327.887085 100.0
329.597565 88.0
331.424805 112.0
331.533508 84.0
334.479034 80.0
337.152435 124.0
339.788818 100.0
358.689148 76.0
359.107666 96.0
359.960541 52.0
363.63266 88.0
365.038269 72.0
367.304352 68.0
370.055847 144.0
378.894775 40.0
381.129547 124.0
381.160645 56.0
382.878937 80.0
384.634552 100.0
384.775085 56.0
388.967682 100.0
389.847443 108.0
394.292755 108.0
396.025665 76.0
396.865784 72.0
403.934723 68.0
404.222778 72.0
404.270813 56.0
413.782227 56.0
415.630432 100.0
424.830627 88.0
424.867554 76.0
441.895782 100.0
446.648773 164.0
449.336395 64.0
451.807831 116.0
456.685974 92.0
460.001007 68.0
464.108063 104.0
464.352509 88.0
465.48114 92.0
470.661194 108.0
471.797455 60.0
475.926331 84.0
476.126099 116.0
479.035889 28.0
482.457153 64.0
483.397491 92.0
491.540009 116.0
492.85144 40.0
501.153046 76.0
503.999695 84.0
504.424255 108.0
505.676636 124.0
505.846741 96.0
519.065552 112.0
524.156555 60.0
526.75708 76.0
535.775879 88.0
547.019714 136.0
554.197754 72.0
555.355652 80.0
565.797974 64.0
573.731689 52.0
574.351562 116.0
575.692688 64.0
596.633545 68.0
600.948608 60.0
610.697083 28.0
619.532776 116.0
627.604004 68.0
631.52417 84.0
645.661926 84.0
662.387024 96.0
671.783813 48.0
685.679871 52.0
704.395813 112.0
707.404663 84.0
723.144287 104.0
737.759155 116.0
759.124512 72.0
762.764587 204.0
766.473877 80.0
790.608032 80.0
792.948975 44.0
802.093689 212.0
802.183899 88.0
811.874878 192.0
818.10791 88.0
819.366455 144.0
835.528259 196.0
841.926331 184.0
856.76355 180.0
857.095642 60.0
873.917725 112.0
886.015015 20.0
891.111267 128.0
903.188965 100.0
911.269897 156.0
913.325867 132.0
916.064697 52.0
918.379333 116.0
927.188232 108.0
939.647522 92.0
941.00238 140.0
945.329956 80.0
947.074768 240.0
947.558716 44.0
949.949585 224.0
950.949707 92.0
953.14209 164.0
953.584534 152.0
955.090942 216.0
957.817688 72.0
958.452271 212.0
964.44458 104.0
968.39209 180.0
968.738953 28.0
972.726196 88.0
973.961853 92.0
975.714233 80.0
977.157104 108.0
987.261963 104.0
987.9375 196.0
988.206482 48.0
996.557861 132.0
1003.468567 168.0
1005.329285 120.0
1008.91687 164.0
1015.933655 144.0
1016.948914 176.0
1017.520203 140.0
1019.908752 240.0
1025.739258 180.0
1025.898682 84.0
1028.296997 128.0
1030.793945 256.0
1034.663574 172.0
1036.706787 228.0
1039.021484 180.0
1045.324585 100.0
1045.839355 132.0
1046.090454 160.0
1046.496094 132.0
1046.908081 164.0
1048.196533 168.0
1049.105225 208.0
1050.736816 108.0
1051.840332 112.0
1052.828125 184.0
1053.222168 180.0
1060.371582 216.0
1061.317993 188.0
1063.757446 76.0
1065.049561 200.0
1067.025024 152.0
1067.109619 316.0
1069.607666 84.0
1069.848511 124.0
1074.188477 52.0
1074.977905 64.0
1075.650146 48.0
1079.969238 84.0
1087.071777 168.0
1090.091553 144.0
1090.676514 176.0
1090.775146 196.0
1092.083618 148.0
1092.267822 44.0
1092.715088 200.0
1095.229736 216.0
1097.661621 116.0
1100.016968 164.0
1100.835693 160.0
1103.524902 32.0
1110.24585 192.0
1112.077026 208.0
1115.923218 188.0
1117.33313 156.0
1118.28479 136.0
1118.484375 232.0
1119.456421 168.0
1120.122437 244.0
1121.068604 116.0
1122.315063 32.0
1127.040649 120.0
1129.380493 164.0
1129.681519 40.0
1130.223389 164.0
1132.693848 152.0
1134.865112 116.0
1136.421143 188.0
1140.30249 200.0
1152.175415 152.0
1154.067871 136.0
1154.50061 156.0
1154.554688 172.0
1155.224365 172.0
1156.042969 228.0
1157.478027 164.0
1160.384766 148.0
1162.908203 212.0
1164.279663 180.0
1165.053955 136.0
1169.800537 116.0
1170.467773 160.0
1172.954468 100.0
1174.038574 128.0
1174.775146 208.0
1175.928345 176.0
1176.4198 176.0
1177.505371 96.0
1179.069946 164.0
1181.059448 188.0
1181.914673 172.0
1185.811157 204.0
1186.195068 132.0
1187.069702 176.0
1187.134277 64.0
1188.163208 80.0
1189.267944 136.0
1190.757812 196.0
1194.856201 184.0
1195.21936 184.0
1195.928101 236.0
1196.038208 116.0
1196.210327 200.0
1199.558105 172.0
1201.040649 128.0
1203.815063 244.0
1204.519531 56.0
1204.616211 116.0
1207.491577 68.0
1210.074585 200.0
1211.561646 184.0
1211.831909 144.0
1215.63623 144.0
1216.325684 56.0
1217.318481 160.0
1217.422607 40.0
1218.117188 56.0
1218.353394 160.0
1220.132446 232.0
1220.709595 168.0
1220.890381 124.0
1222.295532 52.0
1223.228149 196.0
1223.44397 132.0
1223.819824 112.0
1224.787842 132.0
1227.275757 172.0
1230.101318 144.0
1233.069824 140.0
1235.174316 104.0
1235.384155 80.0
1235.978882 128.0
1236.888672 176.0
1237.148193 56.0
1237.28772 164.0
1238.520142 124.0
1238.611206 132.0
1240.075562 48.0
1240.173706 172.0
1240.720459 204.0
1242.497559 144.0
1242.964844 176.0
1243.996582 212.0
1246.187744 152.0
1247.733887 76.0
1247.860474 56.0
1248.521484 200.0
1248.844971 56.0
1249.794678 188.0
1252.568481 176.0
1252.667114 108.0
1253.674561 240.0
1256.036499 220.0
1256.60791 144.0
1257.144165 312.0
1258.160522 140.0
1258.534668 152.0
1258.746582 184.0
1259.989624 180.0
1261.78479 184.0
1261.862549 112.0
1262.343262 136.0
1263.347656 212.0
1264.317017 208.0
1264.869019 144.0
1264.925659 132.0
1265.569946 120.0
1266.533081 64.0
1269.694092 52.0
1269.828857 168.0
1270.474365 192.0
1270.949707 168.0
1271.751587 176.0
1274.38623 96.0
1274.961792 192.0
1275.288696 248.0
1275.452148 172.0
1276.781738 140.0
1276.952393 124.0
1277.48584 116.0
1278.268433 172.0
1278.9375 184.0
1280.810059 176.0
1282.174927 132.0
1282.798218 176.0
1286.436279 192.0
1288.064331 188.0
1288.442993 188.0
1288.593018 152.0
1288.950317 60.0
1289.97229 64.0
1290.222534 272.0
1290.615723 176.0
1292.668579 80.0
1294.093018 56.0
1294.193237 88.0
1294.615723 192.0
1296.313477 124.0
1297.718384 184.0
1298.93042 164.0
1300.300781 140.0
1300.386963 172.0
1301.486206 156.0
1301.93042 204.0
1303.424683 272.0
1304.653687 168.0
1305.135376 192.0
1306.545044 160.0
1306.760864 204.0
1309.222656 208.0
1309.532227 188.0
1310.807373 152.0
1311.398315 180.0
1311.715454 180.0
1311.780396 136.0
1311.881348 180.0
1311.982178 108.0
1312.587891 36.0
1312.65271 172.0
1312.74646 140.0
1313.438843 156.0
1314.326172 164.0
1314.614868 216.0
1315.185059 160.0
1315.632568 144.0
1316.296753 172.0
1316.600098 132.0
1317.358521 104.0
1318.131592 124.0
1318.21106 124.0
1319.244629 36.0
1319.512085 156.0
1319.707275 160.0
1319.945923 60.0
1320.191772 132.0
1320.560547 160.0
1320.683594 112.0
1320.951172 112.0
1322.116089 132.0
1323.093262 184.0
1325.548584 112.0
1325.693481 128.0
1327.650757 184.0
1327.853882 244.0
1328.891235 232.0
1330.219238 144.0
1330.509644 196.0
1331.540771 144.0
1331.707764 180.0
1333.160767 144.0
1333.684082 184.0
1334.716431 180.0
1335.23999 152.0
1336.294678 164.0
1337.640991 188.0
1337.786621 176.0
1338.012329 68.0
1338.41272 204.0
1339.563477 208.0
1340.437744 220.0
1340.73645 108.0
1342.559082 120.0
1343.441528 148.0
1344.607056 184.0
1344.849854 112.0
1345.696655 176.0
1345.871948 144.0
1347.332642 108.0
1347.902588 48.0
1349.086548 264.0
1349.503296 156.0
1351.175049 200.0
1351.543945 156.0
1351.704956 176.0
1353.527588 180.0
1357.726562 168.0
1358.592041 132.0
1358.672729 132.0
1359.978882 172.0
1360.125732 188.0
1360.74231 124.0
1361.616089 40.0
1362.093506 144.0
1363.269043 124.0
1363.371948 128.0
1364.026123 120.0
1364.106934 172.0
1366.953369 156.0
1369.610962 156.0
1369.677246 160.0
1370.789795 232.0
1371.187744 132.0
1371.261353 164.0
1371.718384 196.0
1372.064819 132.0
1372.352417 168.0
1372.440918 236.0
1372.621094 160.0
1372.743164 148.0
1373.340576 160.0
1374.277466 184.0
1374.628906 244.0
1374.796997 180.0
1375.687012 184.0
1375.923218 176.0
1376.159546 148.0
1377.363281 220.0
1377.891479 164.0
1378.057739 136.0
1378.752319 136.0
1380.60791 224.0
1381.28833 164.0
1382.53125 124.0
1383.537964 196.0
1384.26355 132.0
1384.811523 156.0
1385.174438 136.0
1386.515625 176.0
1386.723022 140.0
1388.509888 136.0
1388.591431 92.0
1388.784302 152.0
1389.607666 128.0
1391.18103 172.0
1391.745239 192.0
1392.614136 212.0
1392.814697 44.0
1393.030029 32.0
1393.646729 132.0
1393.839844 256.0
1394.895264 200.0
1395.11084 104.0
1396.012329 208.0
1396.67981 164.0
1396.902954 124.0
1397.140991 144.0
1399.061035 196.0
1399.120605 100.0
1399.731079 180.0
1400.490723 168.0
1401.109009 208.0
1401.354858 208.0
1402.837891 188.0
1403.203247 276.0
1403.732666 208.0
1403.904175 180.0
1404.463501 160.0
1404.881226 120.0
1405.282227 172.0
1407.04541 120.0
1407.523315 52.0
1407.762207 92.0
1408.075928 156.0
1409.293579 176.0
1410.048218 448.0
1410.324829 140.0
1413.735229 136.0
1414.580933 164.0
1414.820435 200.0
1415.352051 136.0
1415.516968 132.0
1415.636597 192.0
1416.220825 84.0
1416.99231 192.0
1417.509399 156.0
1418.146362 152.0
1418.258789 76.0
1418.498657 184.0
1419.023438 176.0
1421.438599 204.0
1423.315186 76.0
1423.668091 76.0
1424.306519 204.0
1425.132812 236.0
1425.328247 80.0
1426.673584 188.0
1426.748779 264.0
1426.899048 176.0
1427.823975 164.0
1428.305298 200.0
1428.67395 56.0
1429.877808 152.0
1430.329468 180.0
1430.600464 64.0
1430.653076 204.0
1432.415283 216.0
1433.130981 140.0
1433.54541 224.0
1434.442261 152.0
1434.555298 252.0
1434.917236 200.0
1435.404419 320.0
1435.799438 144.0
1436.357544 184.0
1436.953491 52.0
1437.021484 132.0
1437.398682 200.0
1438.289185 140.0
1438.840332 148.0
1439.097046 144.0
1439.587769 128.0
1440.487549 148.0
1440.546997 180.0
1440.977661 172.0
1441.138428 224.0
1441.861694 124.0
1442.095947 100.0
1442.247192 180.0
1443.10144 64.0
1443.2677 44.0
1443.57019 148.0
1445.491577 72.0
1445.65564 252.0
1446.104614 156.0
1446.225708 208.0
1446.414917 184.0
1446.725342 108.0
1447.081055 132.0
1447.512695 200.0
1447.596558 148.0
1448.262451 92.0
1448.353394 164.0
1448.588135 184.0
1449.330566 136.0
1450.361328 184.0
1450.550781 36.0
1450.694824 124.0
1450.808472 116.0
1450.914673 196.0
1451.63501 140.0
1452.825684 120.0
1452.894043 108.0
1453.296143 132.0
1453.453979 124.0
1454.364258 196.0
1454.79126 92.0
1455.679565 176.0
1456.355469 132.0
1457.206299 112.0
1458.688232 152.0
1459.578491 176.0
1460.178467 192.0
1460.505493 200.0
1463.130859 132.0
1463.861816 200.0
1464.660767 224.0
1465.377563 84.0
1465.712769 160.0
1466.170044 232.0
1466.246216 48.0
1467.26001 220.0
1467.343872 168.0
1467.854736 128.0
1468.586792 196.0
1468.693604 60.0
1468.953003 144.0
1470.715576 144.0
1470.776611 124.0
1471.341553 212.0
1471.685059 224.0
1472.13562 72.0
1472.387695 172.0
1473.098022 224.0
1474.175293 152.0
1475.344727 36.0
1475.404297 168.0
1475.551147 172.0
1475.956299 216.0
1476.621582 160.0
1476.866333 200.0
1477.653931 192.0
1478.779175 180.0
1480.501709 200.0
1480.769775 192.0
1482.033813 172.0
1482.40918 172.0
1482.539551 232.0
1482.731079 88.0
1483.390259 84.0
1483.528198 164.0
1484.969727 112.0
1485.713867 184.0
1485.98999 220.0
1486.365967 176.0
1487.425049 184.0
1488.016235 136.0
1488.231201 188.0
1488.310181 68.0
1489.582764 136.0
1490.468872 160.0
1491.027344 128.0
1492.21875 176.0
1494.287598 96.0
1494.449219 44.0
1494.632324 204.0
1495.157104 168.0
1495.709717 212.0
1495.865234 120.0
1496.535034 156.0
1496.712158 200.0
1497.012451 204.0
1497.238525 176.0
1497.459106 80.0
1497.682495 76.0
1498.437378 148.0
1498.491333 200.0
1499.285034 112.0
1500.664795 152.0
1500.81897 260.0
1501.32019 148.0
1501.543823 132.0
1501.944946 204.0
1502.068359 172.0
1504.676636 92.0
1505.27124 152.0
