>compound Crizotinib (PF-02341066)
>formula C21H22Cl2FN5O
>ionization [M+H]+
>parentmass 450.124603
#inchi InChI=1S/C21H22Cl2FN5O/c1-12(19-16(22)2-3-17(24)20(19)23)30-18-8-13(9-27-21(18)25)14-10-28-29(11-14)15-4-6-26-7-5-15/h2-3,8-12,15,26H,4-7H2,1H3,(H2,25,27)/t12-/m1/s1
#inchikey KTEIFNKAUNYNJU
#Ion_Source LC-ESI
#Instrument qTof
#Compound_Source Commercial
#PI Dorrestein
#Data_Collector Garg_Neha
#Scan -1
#Precursor_MZ 450.126
#ExactMass 449.119
#Charge 1
#CAS_Number 877399-52-5, 877399-53-6 (acetate)
#Pubmed_ID N/A
#Smiles C1(=CC(=C(N=C1)N)O[C@@H](C2=C(C=CC(=C2Cl)F)Cl)C)C3=CN(N=C3)C4CCNCC4
#INCHI_AUX N/A
#Library_Class 1
#SpectrumID CCMSLIB00000078015
#IonMode Positive
#UpdateWorkflowName UPDATE-SINGLE-ANNOTATED-GOLD
#LibraryQualityString Gold
#TaskID 77f51c88eb8b467eb4a01dd2d0cb90d2
##Scan# 1106
#SpectrumFile Plate1_1_20_GG1_01_16488.mzXML
#LibraryName FDALibrary_2_04302014.mgf
#MQScore -1
#Organism FDALibrary_2_04302014
#TIC_Query 0
#RT_Query -1
#MZErrorPPM -1
#SharedPeaks 0
#MassDiff 0
#LibMZ -1
#SpecMZ 450.126
#SpecCharge 0
#internalFilename spec-00000.mgf

>collision 10
45.031822 180.0
51.029358 224.0
59.434067 140.0
63.368542 152.0
75.749969 188.0
88.811104 232.0
98.61911 172.0
100.073273 416.0
114.128197 208.0
122.335899 200.0
125.758591 224.0
125.80323 152.0
128.107468 772.0
129.108078 140.0
131.003937 168.0
133.084747 164.0
137.168808 140.0
145.583496 216.0
149.023666 392.0
150.026138 160.0
161.060913 140.0
162.128647 156.0
164.147171 140.0
167.038834 184.0
175.815155 180.0
176.065964 140.0
177.076416 696.0
177.118546 192.0
178.073547 220.0
179.16153 140.0
186.318253 144.0
188.102036 212.0
189.096573 232.0
189.609177 144.0
191.786041 208.0
215.133423 148.0
219.579025 156.0
221.639557 232.0
237.061539 228.0
237.570526 224.0
238.059906 560.0
238.559341 616.0
239.05809 836.0
239.55896 264.0
240.061981 156.0
248.131363 236.0
249.104248 200.0
259.143372 864.0
260.150391 1108.0
261.14917 212.0
261.187897 152.0
265.588715 640.0
265.81131 236.0
266.095154 160.0
266.588104 804.0
267.099487 184.0
268.094238 140.0
269.121796 232.0
283.070648 164.0
295.189545 144.0
302.182709 152.0
327.24411 152.0
333.055817 144.0
337.048828 168.0
337.238892 168.0
352.047821 228.0
359.017029 208.0
361.992584 136.0
363.002991 168.0
363.992462 172.0
366.088806 144.0
367.067291 188.0
369.056732 120.0
382.266083 200.0
389.016296 140.0
390.033722 140.0
391.391174 224.0
395.19223 140.0
407.276184 140.0
407.76236 160.0
412.159088 184.0
413.307495 160.0
422.179871 216.0
425.219849 156.0
427.241577 160.0
431.088654 168.0
433.339691 172.0
435.314178 156.0
447.159454 836.0
447.200531 164.0
447.903748 148.0
448.166901 360.0
449.154877 464.0
449.341309 116.0
450.124603 1456.0
450.198883 176.0
450.240967 344.0
450.329285 116.0
450.373993 304.0
451.13382 824.0
451.338165 164.0
452.125244 724.0
452.380005 152.0
452.803436 176.0
453.120697 356.0
454.135925 168.0
525.310425 152.0
590.726135 160.0
657.371887 112.0
1701.428955 192.0
1953.967041 200.0
