>compound Vemurafenib (PLX4032)
>formula C23H18ClF2N3O3S
>ionization [M+H]+
>parentmass 490.081696
#inchi InChI=1S/C23H18ClF2N3O3S/c1-2-9-33(31,32)29-19-8-7-18(25)20(21(19)26)22(30)17-12-28-23-16(17)10-14(11-27-23)13-3-5-15(24)6-4-13/h3-8,10-12,29H,2,9H2,1H3,(H,27,28)
#inchikey GPXBXXGIAQBQNI
#Ion_Source LC-ESI
#Instrument qTof
#Compound_Source Commercial
#PI Dorrestein
#Data_Collector Garg_Neha
#Scan -1
#Precursor_MZ 490.08
#ExactMass 489.073
#Charge 1
#CAS_Number 918504-65-1
#Pubmed_ID N/A
#Smiles C1(=CN=C2C(=C1)C(=CN2)C(=O)C3=C(C(=CC=C3F)NS(=O)(=O)CCC)F)C4=CC=C(C=C4)Cl
#INCHI_AUX N/A
#Library_Class 1
#SpectrumID CCMSLIB00000078077
#IonMode Positive
#UpdateWorkflowName UPDATE-SINGLE-ANNOTATED-GOLD
#LibraryQualityString Gold
#TaskID 77f51c88eb8b467eb4a01dd2d0cb90d2
##Scan# 2295
#SpectrumFile Plate1_61_88_GG4_01_16491.mzXML
#LibraryName FDALibrary_2_04302014.mgf
#MQScore -1
#Organism FDALibrary_2_04302014
#TIC_Query 0
#RT_Query -1
#MZErrorPPM -1
#SharedPeaks 0
#MassDiff 0
#LibMZ -1
#SpecMZ 490.08
#SpecCharge 0
#internalFilename spec-00000.mgf

>collision 10
44.92651 160.0
46.198765 200.0
46.555248 152.0
47.057716 196.0
47.329815 192.0
47.74287 156.0
48.565037 160.0
48.602116 172.0
48.946842 184.0
50.500469 208.0
50.85342 156.0
51.452576 144.0
51.999401 160.0
52.091297 204.0
53.053867 152.0
54.177502 160.0
54.438587 180.0
54.715019 156.0
54.763615 212.0
57.129082 144.0
57.237446 156.0
57.391144 156.0
57.576756 172.0
58.177895 216.0
59.947632 180.0
60.020084 208.0
60.097206 224.0
60.121895 236.0
60.760963 160.0
61.129219 260.0
61.818977 216.0
62.397781 156.0
63.028255 192.0
63.214375 172.0
64.528748 148.0
64.839294 172.0
65.462631 156.0
66.166634 148.0
67.22644 220.0
68.767555 140.0
71.101059 148.0
72.597504 160.0
74.215797 160.0
74.832642 160.0
75.369072 212.0
75.42437 252.0
76.179909 156.0
76.475525 196.0
76.698479 140.0
78.375702 156.0
78.96003 176.0
80.89959 144.0
81.252647 148.0
81.869194 160.0
82.112495 252.0
82.639984 152.0
83.62175 168.0
84.077393 192.0
85.396545 144.0
85.845924 152.0
86.252113 180.0
86.3908 164.0
87.809959 184.0
88.202065 236.0
88.480804 156.0
89.547417 152.0
89.843369 164.0
90.571167 164.0
91.797043 148.0
92.737679 236.0
92.751091 176.0
93.315506 192.0
95.12381 156.0
95.49884 160.0
96.258911 192.0
97.16713 140.0
97.963348 176.0
99.012199 176.0
99.107292 144.0
99.238106 188.0
101.723999 140.0
101.936905 172.0
102.115829 164.0
102.236542 148.0
103.174492 144.0
103.817429 168.0
104.669868 152.0
104.716705 152.0
105.367439 204.0
105.651619 160.0
108.125008 188.0
109.862144 292.0
110.164856 152.0
111.596306 184.0
112.099396 148.0
112.272263 140.0
112.637405 164.0
113.015839 144.0
113.263535 180.0
114.033768 180.0
115.25489 160.0
115.56279 144.0
116.830772 188.0
116.852287 152.0
116.934067 164.0
117.007256 196.0
117.682098 144.0
118.097023 184.0
119.00071 144.0
119.518021 164.0
119.990662 160.0
120.1586 204.0
121.354996 152.0
124.721741 276.0
125.636986 184.0
126.052284 156.0
127.022041 264.0
127.621384 160.0
128.540421 148.0
128.651016 152.0
128.836197 196.0
129.039307 380.0
129.066742 152.0
130.595276 168.0
130.654434 180.0
132.180878 168.0
132.524338 152.0
134.98735 156.0
135.505844 140.0
136.169296 168.0
136.417923 160.0
137.04631 140.0
137.158173 168.0
137.46138 212.0
138.00798 176.0
140.044998 156.0
140.941483 164.0
141.485474 232.0
141.727066 240.0
142.036804 172.0
142.134918 148.0
142.236969 152.0
143.154709 152.0
143.669556 140.0
143.98703 164.0
144.479446 200.0
144.975098 184.0
144.991867 176.0
145.025421 152.0
145.385193 156.0
145.541214 232.0
148.029785 172.0
148.735306 208.0
148.961136 148.0
149.1604 208.0
149.534988 152.0
151.383118 144.0
152.187424 180.0
152.216888 164.0
152.27092 200.0
153.001251 160.0
153.511292 148.0
154.286606 148.0
154.303909 324.0
155.017029 1200.0
155.049011 172.0
155.078751 152.0
155.289505 184.0
155.485504 156.0
156.025925 1760.0
156.378983 260.0
156.701492 144.0
156.816132 172.0
157.029541 328.0
157.479813 184.0
157.497299 144.0
157.902222 168.0
158.099869 140.0
158.989548 204.0
160.435867 184.0
162.329697 208.0
163.345642 192.0
163.719788 180.0
164.428543 204.0
166.471527 164.0
167.034409 176.0
167.508057 188.0
168.387619 200.0
169.671112 152.0
170.076706 220.0
170.460175 152.0
171.13649 152.0
171.493393 216.0
171.756744 148.0
173.037277 160.0
174.03363 164.0
175.334137 128.0
177.029221 156.0
177.068939 236.0
178.084778 148.0
178.366425 140.0
178.84523 112.0
179.503281 340.0
179.636642 152.0
179.71402 232.0
180.956879 140.0
181.315826 172.0
181.452545 188.0
184.046326 168.0
184.07872 204.0
184.611099 152.0
184.81398 172.0
185.68898 248.0
186.085175 240.0
186.29158 276.0
186.846191 236.0
186.876114 144.0
187.911469 172.0
190.188354 144.0
190.207565 156.0
190.625046 148.0
190.869492 160.0
191.059479 164.0
191.230087 216.0
191.378738 192.0
191.756149 156.0
192.076004 184.0
192.313309 280.0
193.065643 196.0
193.299942 156.0
193.488159 168.0
194.852707 152.0
195.687088 176.0
195.728867 144.0
196.065475 168.0
196.97554 164.0
197.014648 168.0
197.176727 156.0
197.257782 164.0
197.817261 176.0
198.071121 540.0
198.097305 216.0
199.076538 156.0
199.700104 172.0
200.742157 152.0
201.385635 196.0
201.552307 184.0
201.600357 144.0
203.271149 212.0
203.509598 196.0
203.782272 168.0
204.589981 184.0
204.77507 176.0
204.837738 152.0
205.661819 148.0
205.94165 172.0
206.021622 176.0
206.653473 296.0
206.899612 140.0
207.177414 144.0
209.276917 160.0
209.418015 188.0
210.407135 152.0
210.97049 176.0
212.21254 152.0
212.311127 192.0
213.821869 208.0
215.002213 148.0
215.618454 152.0
215.67691 172.0
216.62207 160.0
217.058777 144.0
217.332977 144.0
217.566376 144.0
218.062805 156.0
218.606888 140.0
218.662811 200.0
218.954285 192.0
219.086838 184.0
219.319641 156.0
219.384491 212.0
219.549606 168.0
220.198898 144.0
220.420471 152.0
220.792953 156.0
221.136154 208.0
221.509247 188.0
222.989899 204.0
223.635315 188.0
224.180344 220.0
224.940918 144.0
226.026962 200.0
226.397034 164.0
226.429977 160.0
227.03537 140.0
228.04454 440.0
228.191452 156.0
228.811234 180.0
229.082275 188.0
229.209412 144.0
229.808868 180.0
230.05011 240.0
230.533585 212.0
230.811691 188.0
231.050644 160.0
231.592499 156.0
231.647766 164.0
232.110748 164.0
232.313965 144.0
232.942352 168.0
233.376953 216.0
233.425613 180.0
234.326584 144.0
235.281204 140.0
235.862808 216.0
236.048126 184.0
236.773422 140.0
237.686966 160.0
238.11676 172.0
238.577682 148.0
238.906738 156.0
239.956955 172.0
241.028 212.0
241.463898 156.0
242.166473 140.0
242.801849 144.0
242.860779 176.0
243.143127 152.0
243.289017 152.0
243.370743 196.0
244.208817 208.0
244.828171 160.0
244.915375 216.0
245.077377 184.0
245.69783 140.0
246.100449 160.0
246.181641 204.0
246.647171 364.0
246.969238 148.0
247.767502 156.0
248.215714 252.0
249.122787 156.0
249.361588 236.0
249.845856 204.0
250.003174 140.0
252.040298 144.0
252.685318 156.0
253.334335 172.0
253.752686 200.0
254.020523 448.0
254.06604 164.0
254.47435 140.0
254.555466 148.0
254.831818 204.0
254.922714 304.0
254.988266 172.0
255.032471 43260.0
255.121185 276.0
255.750885 144.0
255.947464 160.0
256.035339 6500.0
256.138062 156.0
256.214355 140.0
256.286926 152.0
256.32251 116.0
256.623779 144.0
256.792786 192.0
256.939514 164.0
257.029358 11412.0
257.086304 296.0
257.117493 140.0
257.920349 172.0
258.030396 1860.0
258.096588 212.0
258.151764 100.0
258.447601 160.0
258.841309 160.0
259.038147 124.0
259.15332 200.0
259.199493 160.0
259.305847 228.0
259.854218 200.0
262.032593 372.0
262.436981 140.0
262.749847 172.0
263.049866 380.0
263.401947 188.0
263.460083 144.0
264.029724 180.0
264.982269 204.0
265.979523 156.0
266.158081 204.0
266.994934 156.0
267.155884 180.0
267.681671 156.0
268.735229 212.0
270.137909 128.0
270.982269 148.0
272.060852 656.0
272.931976 196.0
272.958282 140.0
273.081238 340.0
273.109558 152.0
273.283905 144.0
273.820496 224.0
274.087341 144.0
274.202667 156.0
275.337616 160.0
276.134125 156.0
276.706635 148.0
276.941132 196.0
279.088928 184.0
279.970764 180.0
280.407196 180.0
283.066498 140.0
284.441132 244.0
285.785431 184.0
285.835907 160.0
287.942902 144.0
288.696564 160.0
288.926575 180.0
290.084778 140.0
290.145813 172.0
290.484924 152.0
290.579926 184.0
290.993988 144.0
292.963165 216.0
293.010864 196.0
293.740417 176.0
294.021729 116.0
294.310364 172.0
294.474304 172.0
294.66217 204.0
295.715424 144.0
295.866058 156.0
296.109161 168.0
296.945465 148.0
297.515076 164.0
298.202087 200.0
298.693329 184.0
298.834839 224.0
298.989685 156.0
299.104126 160.0
299.206543 172.0
299.709412 168.0
299.84726 140.0
300.088562 340.0
300.112701 200.0
300.202362 140.0
300.799255 216.0
301.077362 152.0
301.32074 156.0
302.046722 144.0
303.146698 164.0
303.608795 148.0
304.051361 212.0
305.421814 180.0
306.496368 136.0
306.989105 152.0
307.246429 224.0
308.041962 204.0
309.361572 192.0
309.424591 140.0
309.515625 152.0
309.953491 148.0
310.058838 208.0
310.09082 148.0
310.135742 204.0
310.531952 140.0
311.279449 176.0
313.700134 192.0
314.042572 140.0
314.1586 148.0
314.409119 192.0
315.047638 124.0
315.390991 244.0
315.673828 144.0
316.045593 164.0
316.516052 140.0
316.725006 180.0
316.941101 140.0
317.568604 144.0
318.043976 196.0
318.182495 148.0
318.658417 160.0
319.088501 156.0
319.241394 184.0
319.554413 152.0
319.976471 220.0
320.056274 208.0
320.094971 196.0
320.177368 220.0
320.401093 236.0
321.482178 168.0
321.692749 160.0
321.849854 180.0
322.246338 208.0
323.691406 164.0
323.755859 184.0
324.300446 176.0
324.748657 140.0
324.856262 152.0
325.780731 140.0
326.07312 732.0
326.709991 144.0
327.079224 608.0
327.822571 156.0
327.91629 272.0
327.970337 148.0
328.083649 932.0
328.457153 196.0
328.965942 160.0
329.06189 328.0
329.095917 652.0
329.453491 144.0
329.59079 152.0
330.050903 108.0
330.462189 152.0
331.255035 164.0
331.523163 204.0
331.581146 156.0
331.925568 260.0
332.444305 172.0
333.152344 140.0
333.325226 152.0
333.448181 124.0
333.497559 164.0
333.704773 156.0
333.813843 188.0
334.056244 292.0
334.137573 176.0
334.763641 180.0
335.060211 1620.0
335.388611 180.0
336.052551 592.0
336.058685 680.0
336.645386 140.0
336.91568 152.0
337.052246 220.0
337.50412 152.0
338.049988 452.0
338.495789 160.0
339.05426 284.0
339.195557 140.0
339.624573 168.0
339.789673 148.0
339.870392 168.0
340.685455 184.0
341.058716 128.0
341.111755 168.0
341.968811 180.0
342.045135 108.0
342.852722 148.0
343.046967 504.0
344.041229 116.0
345.056458 172.0
345.163666 172.0
345.322693 168.0
346.059235 120.0
346.243469 200.0
346.447998 168.0
346.800018 152.0
347.03775 536.0
348.040253 328.0
348.088928 148.0
348.275513 148.0
349.040649 172.0
349.161407 192.0
350.051483 244.0
350.881775 144.0
351.062042 140.0
351.441223 200.0
351.933929 200.0
351.963806 192.0
352.045959 144.0
352.10199 140.0
352.318634 180.0
352.625061 176.0
353.122314 144.0
354.059326 3824.0
354.582489 164.0
355.066711 1544.0
355.5914 156.0
356.056213 1960.0
356.180908 144.0
356.222229 144.0
356.504028 156.0
356.76712 160.0
357.054871 540.0
358.051361 688.0
358.359161 172.0
359.060455 204.0
359.098022 180.0
360.154877 184.0
360.72525 144.0
360.904266 136.0
361.130066 184.0
361.186798 156.0
361.485687 140.0
361.576508 168.0
361.727753 120.0
362.049957 6464.0
362.367371 204.0
362.894806 140.0
363.013489 136.0
363.056091 5716.0
363.146301 172.0
363.229797 148.0
364.057343 2352.0
364.141876 128.0
364.169098 156.0
364.527008 164.0
364.703705 136.0
364.774048 168.0
365.054657 1596.0
365.173309 148.0
365.241241 196.0
365.352081 188.0
365.453278 172.0
365.492859 228.0
365.957245 156.0
366.058105 1228.0
366.49588 164.0
366.677216 148.0
366.989807 140.0
367.042969 912.0
367.348328 216.0
367.645935 156.0
368.05069 432.0
368.09259 148.0
368.279724 156.0
369.043213 416.0
369.35672 152.0
369.786194 152.0
369.856903 160.0
370.080963 148.0
370.435974 144.0
370.709167 192.0
370.808807 148.0
371.027313 140.0
371.101105 128.0
371.26889 148.0
371.790649 148.0
372.59317 144.0
372.627747 156.0
373.608124 176.0
373.842834 168.0
375.484039 196.0
376.349213 160.0
378.053192 156.0
378.409302 204.0
379.056152 196.0
379.182281 188.0
379.680298 256.0
379.893646 172.0
380.053253 216.0
380.393982 124.0
380.616455 208.0
380.84079 192.0
381.214874 128.0
381.711365 164.0
381.795044 108.0
381.991394 140.0
382.052979 840.0
382.110046 104.0
382.30188 160.0
382.41391 144.0
382.53775 140.0
382.656128 136.0
382.789276 164.0
382.885254 148.0
382.979858 120.0
383.009796 400.0
383.063477 66508.0
383.230133 164.0
383.294434 96.0
383.338013 144.0
383.383026 184.0
383.45993 240.0
383.572906 180.0
383.681274 132.0
383.817291 148.0
383.905548 108.0
383.943909 188.0
383.989288 152.0
384.065308 17396.0
384.176514 96.0
384.297363 144.0
384.386261 208.0
384.49826 160.0
384.803009 172.0
384.843964 176.0
384.88327 212.0
384.915283 148.0
384.944611 152.0
385.060883 21424.0
385.187958 208.0
385.325684 180.0
385.420563 96.0
385.457336 140.0
385.603241 136.0
385.651672 140.0
385.81543 104.0
385.892334 272.0
386.061676 4064.0
386.647156 200.0
386.711884 120.0
386.885132 156.0
386.938293 164.0
387.066711 280.0
387.425446 136.0
387.464752 216.0
387.522583 168.0
387.617554 160.0
387.663452 140.0
387.769928 132.0
388.715668 112.0
389.617432 100.0
390.302521 148.0
390.969879 96.0
392.200134 192.0
392.566772 184.0
393.798126 160.0
394.078613 140.0
394.161591 168.0
394.240631 160.0
394.624054 144.0
394.788818 156.0
395.00769 152.0
395.411285 152.0
396.112122 176.0
396.286438 204.0
396.833405 172.0
397.777618 200.0
397.940399 148.0
398.297821 172.0
398.381226 172.0
398.683228 148.0
398.948425 176.0
399.20401 164.0
399.442627 176.0
400.270477 220.0
400.320038 172.0
400.708618 184.0
401.139038 224.0
401.84494 232.0
402.180145 156.0
402.334534 156.0
402.41568 184.0
402.483582 160.0
403.674377 168.0
404.8349 184.0
405.660309 172.0
406.109406 140.0
406.936096 184.0
407.101868 168.0
408.349762 132.0
408.712677 212.0
408.82135 172.0
409.558136 148.0
409.606476 200.0
409.904602 140.0
411.501923 160.0
411.792664 140.0
411.881531 152.0
412.241119 144.0
412.875824 140.0
413.179199 164.0
413.830841 152.0
414.243927 184.0
414.405975 192.0
415.658905 152.0
415.878082 148.0
417.291779 184.0
417.637451 152.0
418.178619 176.0
419.139709 192.0
419.327179 144.0
420.367157 148.0
420.405182 200.0
420.746735 200.0
421.633148 196.0
421.755768 164.0
422.270935 156.0
422.381378 168.0
422.798737 156.0
422.917419 148.0
423.289978 152.0
423.408752 152.0
423.73645 180.0
424.06427 156.0
424.142151 152.0
424.535767 224.0
425.385101 164.0
426.121979 288.0
426.905334 156.0
427.123444 496.0
427.411316 144.0
428.113342 448.0
428.247009 144.0
428.702454 96.0
428.823853 144.0
429.170135 164.0
429.508331 252.0
430.081879 148.0
433.755066 148.0
435.801086 144.0
436.00473 224.0
436.096161 188.0
436.969452 256.0
438.101868 204.0
438.693634 140.0
439.269104 184.0
441.018738 192.0
441.16922 176.0
442.512207 192.0
442.675507 156.0
443.471527 144.0
443.785919 148.0
445.187469 156.0
445.317657 140.0
445.874542 140.0
445.968933 156.0
446.587006 152.0
447.087677 144.0
447.946625 164.0
448.275269 168.0
448.62088 160.0
448.95401 140.0
449.274567 168.0
449.848511 160.0
451.077789 140.0
451.255341 176.0
452.524658 184.0
453.426941 172.0
454.086182 152.0
454.652618 148.0
455.658997 164.0
456.045715 220.0
456.271027 140.0
456.543152 144.0
457.104675 164.0
457.236603 316.0
457.449432 160.0
457.764496 164.0
458.118042 156.0
458.41629 236.0
458.450378 192.0
458.642181 148.0
459.452423 236.0
460.647736 148.0
460.75882 160.0
461.13913 156.0
461.955872 196.0
462.041412 148.0
462.841797 148.0
463.222992 140.0
463.784332 184.0
464.835083 156.0
465.676544 176.0
466.282349 160.0
466.578613 200.0
467.594116 152.0
468.04184 216.0
468.179657 144.0
469.140503 144.0
469.293549 132.0
469.543121 152.0
471.415192 176.0
472.351715 164.0
475.742218 176.0
476.684753 156.0
477.558594 160.0
477.839111 128.0
478.180786 160.0
479.452545 188.0
479.530975 164.0
480.957275 172.0
481.313202 160.0
481.577301 140.0
481.869995 240.0
481.988251 128.0
482.283875 124.0
483.107239 144.0
483.273499 196.0
483.608429 252.0
484.380249 216.0
485.08667 332.0
485.205017 212.0
486.095428 144.0
486.202271 188.0
486.448608 140.0
486.604614 140.0
486.8461 176.0
487.390839 160.0
487.677795 136.0
487.762238 220.0
487.875763 272.0
487.913879 188.0
488.046021 136.0
488.102936 184.0
488.141388 244.0
488.336029 216.0
488.425842 148.0
488.476654 140.0
488.528015 224.0
488.592987 376.0
488.630737 184.0
488.723145 164.0
488.920013 128.0
488.960785 148.0
489.012146 144.0
489.062378 148.0
489.172485 296.0
489.224976 152.0
489.258636 228.0
489.321014 196.0
489.335327 228.0
489.420349 164.0
489.490173 420.0
489.571198 256.0
489.63739 152.0
489.692871 144.0
489.730011 164.0
489.760712 488.0
489.866974 208.0
489.921478 144.0
489.954773 320.0
489.993134 316.0
490.014771 360.0
490.081696 167756.0
490.23465 176.0
490.275269 156.0
490.38559 180.0
490.434082 260.0
490.499329 296.0
490.556854 272.0
490.632935 100.0
490.737762 248.0
490.806366 920.0
490.848419 260.0
490.889435 112.0
490.971558 172.0
491.083527 54576.0
491.253998 252.0
491.383484 240.0
491.45813 132.0
491.595947 232.0
491.648224 320.0
491.75061 164.0
491.833069 192.0
491.929962 156.0
492.077911 67584.0
492.250488 180.0
492.304657 184.0
492.381226 164.0
492.494873 124.0
492.557739 460.0
492.825806 180.0
492.985229 160.0
493.079803 11644.0
493.249542 112.0
493.444794 96.0
493.511047 164.0
493.561493 204.0
493.604187 116.0
493.697266 228.0
493.886932 100.0
494.079834 2044.0
494.251801 232.0
494.300934 96.0
494.470703 128.0
494.526398 156.0
494.579529 260.0
494.631714 140.0
494.674622 116.0
494.72345 140.0
495.061218 136.0
495.328278 128.0
495.68866 156.0
495.920502 128.0
496.123169 128.0
496.23761 172.0
496.863434 188.0
497.115601 232.0
498.291321 156.0
499.100281 148.0
499.594849 100.0
502.873627 184.0
508.210175 108.0
515.36731 148.0
533.484619 180.0
598.096008 144.0
602.841614 148.0
604.695129 180.0
752.009094 104.0
1191.859619 168.0
1254.109375 160.0
1368.633179 188.0
1528.338623 180.0
1709.076904 200.0
1782.303467 200.0
1799.874756 208.0
1845.436523 176.0
1900.026123 232.0
1902.890137 284.0
1924.902466 224.0
1958.404785 176.0
