>compound Erythrinine
>formula C18H19NO4
>ionization [M+H]+
>parentmass 314.13868454009054
#inchi InChI=1S/C18H19NO4/c1-21-12-3-2-11-4-5-19-9-15(20)13-6-16-17(23-10-22-16)7-14(13)18(11,19)8-12/h2-4,6-7,12,15,20H,5,8-10H2,1H3
#inchikey VBJYPSPIKMUCLP
#Ion_Source DI-ESI
#Instrument Ion Trap
#Compound_Source Isolated
#PI Norberto Lopes
#Data_Collector Denise Silva
#Scan -1
#Precursor_MZ 282.1
#ExactMass 313.131
#Charge 1
#CAS_Number 29306-29-4
#Pubmed_ID  
#Smiles COC1CC23C4=CC5=C(OCO5)C=C4C(O)CN2CC=C3C=C1
#INCHI_AUX  
#Library_Class 3
#SpectrumID CCMSLIB00000081235
#IonMode Positive
#UpdateWorkflowName UPDATE-SINGLE-ANNOTATED-BRONZE
#LibraryQualityString Bronze
#TaskID 57779211e4a54c9c8eb01d92a1f11787
##Scan# 1
#SpectrumFile gnps_Erythrinine_pos_MplusHminusCH3OH.mgf
#LibraryName gnps_library.mgf
#MQScore -1
#Organism gnps_library
#TIC_Query 0
#RT_Query -1
#MZErrorPPM -1
#SharedPeaks 0
#MassDiff 0
#LibMZ -1
#SpecMZ 282.1
#SpecCharge 0
#internalFilename spec-00000.mgf

>collision 10
118.072998 45314.0
118.981003 112810.0
135.042999 282459.0
137.048004 41179.0
141.949997 51029.0
146.033005 411310.0
148.951004 125024.0
153.074997 41935.0
155.044006 35762.0
160.042007 354700.0
172.949997 45935.0
185.949997 142194.0
188.899994 755850.0
192.979996 166124.0
195.042007 388527.0
206.035995 1360114.0
207.022003 2885145.0
208.960007 517279.0
212.042999 113197.0
215.985001 195752.0
217.028 3148108.0
223.089005 474348.0
225.046005 304954.0
232.981995 45510.0
234.046005 11544573.0
237.050995 3180960.0
239.046005 643765.0
246.080002 57161.0
247.031998 1788342.0
248.988007 160082.0
252.076004 569469.0
254.091995 463149.0
258.105988 65319.0
262.054993 1532175.0
264.071991 12987749.0
280.934998 267563.0
282.071991 1315216.0
