>compound NCGC00160197-01!(2-{4,5-Dimethoxy-2-[2-(4-methoxy-phenyl)-vinyl]-phenyl}-ethyl)-trimethyl-ammonium
>formula C22H30NO3+
>ionization [M+H]+
>parentmass 357.22984527209053
#inchi InChI=1S/C22H30NO3/c1-23(2,3)14-13-19-16-22(26-6)21(25-5)15-18(19)10-7-17-8-11-20(24-4)12-9-17/h7-12,15-16H,13-14H2,1-6H3/q+1/b10-7+
#inchikey LPWOWWGQXXVYJQ
#Ion_Source LC-ESI
#Instrument qTOF
#Compound_Source Prestwick Phytochem Lib
#PI Dorrestein
#Data_Collector VVP/LMS
#Scan -1
#Precursor_MZ 356.223
#ExactMass 356.223
#Charge 1
#CAS_Number N/A
#Pubmed_ID N/A
#Smiles COC1=CC=C(\C=C\C2=C(CC[N+](C)(C)C)C=C(OC)C(OC)=C2)C=C1
#INCHI_AUX N/A
#Library_Class 1
#SpectrumID CCMSLIB00000078692
#IonMode Positive
#UpdateWorkflowName UPDATE-SINGLE-ANNOTATED-GOLD
#LibraryQualityString Gold
#TaskID 67c915c6594c435cadc1fe2b5358144d
##Scan# 1775
#SpectrumFile p1-B02_GB2_01_17886.mzXML
#LibraryName phytochem_lib.mgf
#MQScore -1
#Organism phytochem_lib
#TIC_Query 0
#RT_Query -1
#MZErrorPPM -1
#SharedPeaks 0
#MassDiff 0
#LibMZ -1
#SpecMZ 356.223
#SpecCharge 0
#internalFilename spec-00000.mgf

>collision 10
94.99411 132.0
95.05426 152.0
95.166382 120.0
95.25811 152.0
95.571114 92.0
95.615868 208.0
95.865143 168.0
96.072029 184.0
96.128395 112.0
96.188896 200.0
96.220261 180.0
96.261917 160.0
96.276756 200.0
96.343163 176.0
96.367737 244.0
96.386147 56.0
96.435005 224.0
96.679466 216.0
96.834129 172.0
96.865471 140.0
96.990875 156.0
97.057533 216.0
97.126167 204.0
97.159676 148.0
97.373474 68.0
97.524757 40.0
97.576889 192.0
97.601425 192.0
97.680092 388.0
97.762726 76.0
97.839485 148.0
97.853271 176.0
98.01281 44.0
98.091637 168.0
98.115295 88.0
98.1567 136.0
98.200081 196.0
98.259262 116.0
98.40728 152.0
98.484299 104.0
98.533684 204.0
98.547516 176.0
98.57122 96.0
98.723434 92.0
98.755081 120.0
98.808487 100.0
98.836601 192.0
98.867851 160.0
98.901497 152.0
98.952965 216.0
99.012367 140.0
99.100464 208.0
99.269989 132.0
99.349327 56.0
99.365196 124.0
99.468391 160.0
99.525963 60.0
99.585533 72.0
99.621292 84.0
99.875725 156.0
99.959282 172.0
100.001076 236.0
100.020981 168.0
100.198212 124.0
100.232079 148.0
100.309807 184.0
100.425453 192.0
100.460556 244.0
100.559128 152.0
100.6604 192.0
100.745155 196.0
100.896713 36.0
100.954697 36.0
101.030701 216.0
101.128746 204.0
101.184799 52.0
101.447235 168.0
101.559525 156.0
101.71804 164.0
101.758186 172.0
101.858597 84.0
102.045494 192.0
102.210419 156.0
102.246643 100.0
102.284889 164.0
102.710045 144.0
102.802849 192.0
102.82505 152.0
102.925987 212.0
103.055733 724.0
103.473915 188.0
103.595421 228.0
103.666336 76.0
103.771736 152.0
103.988785 172.0
104.061867 124.0
104.108566 148.0
104.285316 68.0
104.405266 208.0
104.476456 100.0
104.531395 96.0
104.606697 188.0
104.724792 220.0
104.97139 132.0
105.014435 184.0
105.033867 160.0
105.070343 1552.0
105.436829 144.0
105.453178 148.0
105.500191 124.0
105.528809 116.0
105.880768 148.0
106.000465 168.0
106.021103 112.0
106.042358 532.0
106.073242 168.0
106.110268 172.0
106.158646 148.0
106.173828 152.0
106.212799 200.0
106.35643 160.0
106.436493 152.0
106.557678 80.0
106.728264 52.0
106.913239 200.0
106.946327 160.0
107.049644 692.0
107.111183 256.0
107.205826 76.0
107.228493 60.0
107.282089 84.0
107.337753 184.0
107.409935 212.0
107.46357 164.0
107.589462 180.0
107.746422 180.0
107.765015 180.0
107.942772 104.0
108.060188 172.0
108.089638 164.0
108.120674 152.0
108.290443 120.0
108.36087 64.0
108.690544 148.0
108.842064 204.0
109.002007 76.0
109.044434 280.0
109.06839 348.0
109.297272 184.0
109.438812 184.0
109.478371 168.0
109.570023 228.0
109.705017 180.0
109.718452 180.0
109.83268 200.0
109.880661 136.0
109.949516 168.0
109.978737 156.0
109.99752 264.0
110.018394 144.0
110.041359 204.0
110.101913 184.0
110.200089 124.0
110.453041 160.0
110.505341 176.0
110.532547 168.0
110.676971 84.0
110.825684 104.0
110.945145 144.0
111.003853 92.0
111.308113 152.0
111.537109 176.0
111.572845 152.0
111.589661 204.0
111.661156 116.0
111.741089 212.0
111.829468 200.0
111.871567 124.0
111.890518 116.0
111.964211 144.0
111.987007 224.0
112.046364 192.0
112.326736 80.0
112.432228 140.0
112.449112 156.0
112.615906 148.0
112.641251 132.0
112.787048 208.0
113.036606 216.0
113.106621 188.0
113.443245 140.0
113.485649 168.0
113.642601 228.0
113.852745 152.0
114.058838 188.0
114.104866 196.0
114.38002 168.0
114.520554 160.0
114.556763 168.0
115.054428 1760.0
115.107018 60.0
115.166817 160.0
115.2715 164.0
115.393333 100.0
115.476273 152.0
115.56015 216.0
115.615784 140.0
115.939163 44.0
116.062912 1196.0
116.144981 224.0
116.190033 156.0
116.314491 220.0
116.413254 140.0
116.450111 124.0
116.51683 216.0
116.608749 68.0
116.739891 200.0
116.866798 264.0
116.88401 48.0
116.924896 212.0
117.063347 680.0
117.208099 188.0
117.288887 172.0
117.519638 72.0
117.741974 176.0
117.767891 104.0
117.960197 160.0
117.983978 208.0
118.041191 204.0
118.073631 172.0
118.146172 128.0
118.191605 200.0
118.286827 156.0
118.323631 168.0
118.379929 160.0
118.412415 164.0
118.490395 92.0
118.659439 196.0
118.841621 188.0
119.051476 284.0
119.084328 144.0
119.428162 180.0
119.452087 104.0
119.519531 128.0
119.602226 228.0
119.67189 124.0
119.885353 140.0
119.93766 92.0
120.021805 268.0
120.060303 316.0
120.160095 96.0
120.190636 156.0
120.428589 48.0
120.47644 168.0
120.53331 184.0
120.566231 104.0
120.626511 160.0
120.671204 160.0
120.709778 204.0
120.736748 116.0
120.762993 160.0
120.793617 80.0
120.812401 216.0
120.841743 144.0
120.939087 224.0
121.026588 212.0
121.065636 53912.0
121.121956 44.0
121.160294 56.0
121.209343 108.0
121.263397 108.0
121.291473 176.0
121.340858 112.0
121.383682 180.0
121.41848 192.0
121.457108 208.0
121.499504 192.0
121.525322 44.0
121.646027 76.0
121.692131 112.0
121.737076 100.0
121.755814 152.0
121.784363 88.0
121.83992 68.0
121.94915 216.0
121.964531 204.0
121.997505 48.0
122.043282 136.0
122.068588 3916.0
122.172783 176.0
122.208633 156.0
122.305466 40.0
122.371506 92.0
122.393524 120.0
122.42215 52.0
122.491623 220.0
122.563126 136.0
122.585159 52.0
122.646866 100.0
122.816643 72.0
122.857498 148.0
122.914139 376.0
122.944611 128.0
122.966675 92.0
122.982124 164.0
123.018318 128.0
123.046143 200.0
123.070389 692.0
123.160973 184.0
123.19632 220.0
123.223167 104.0
123.38858 224.0
123.477028 120.0
123.505783 180.0
123.592056 96.0
123.702713 212.0
123.864365 60.0
123.893158 140.0
123.913101 120.0
124.052986 328.0
124.403206 108.0
124.445389 172.0
124.645294 68.0
124.865372 32.0
124.907631 164.0
125.045578 180.0
125.060913 340.0
125.321655 164.0
125.361816 40.0
125.401932 188.0
125.417534 164.0
125.442055 216.0
125.689606 188.0
125.749863 208.0
126.036331 200.0
126.055809 136.0
126.127327 116.0
126.328575 148.0
126.471786 104.0
126.624031 164.0
126.751724 172.0
126.801025 328.0
126.90638 236.0
126.940018 44.0
127.03421 80.0
127.055824 664.0
127.231697 164.0
127.276596 176.0
127.314774 116.0
127.739563 96.0
127.802559 152.0
127.849808 252.0
127.888069 192.0
128.002884 124.0
128.027649 84.0
128.062546 1964.0
128.491989 224.0
128.528091 136.0
128.634155 100.0
128.855469 216.0
128.934555 124.0
129.070374 2736.0
129.346191 140.0
129.493362 208.0
129.681412 244.0
129.699554 220.0
129.871872 96.0
129.994385 116.0
130.060196 192.0
130.078934 240.0
130.110138 172.0
130.239563 152.0
130.325897 116.0
130.434982 156.0
130.712433 236.0
130.796646 192.0
130.908203 116.0
130.951477 224.0
131.026642 152.0
131.049744 2116.0
131.083878 204.0
131.120071 160.0
131.193008 152.0
131.277374 80.0
131.361755 52.0
131.421066 152.0
131.507782 156.0
131.875504 44.0
131.939514 172.0
132.054474 320.0
132.097107 144.0
132.142822 196.0
132.431488 196.0
132.967987 80.0
133.013885 176.0
133.065628 760.0
133.098831 304.0
133.135574 96.0
133.843826 200.0
134.030396 208.0
134.070526 396.0
134.127182 140.0
134.263214 104.0
134.350861 156.0
134.42009 180.0
134.577042 124.0
134.593201 156.0
134.851944 184.0
134.969681 116.0
135.046677 496.0
135.079773 3004.0
135.245132 84.0
135.404892 136.0
135.597183 144.0
135.72699 196.0
135.801208 56.0
135.933441 388.0
135.972885 124.0
136.026993 224.0
136.052246 980.0
136.084061 328.0
136.151657 144.0
136.191132 96.0
136.323563 104.0
136.749146 124.0
136.86554 104.0
136.944717 84.0
137.021591 132.0
137.056488 268.0
137.093826 204.0
137.243011 68.0
137.266327 128.0
137.406265 168.0
137.431931 68.0
137.450592 92.0
137.558014 168.0
137.674698 48.0
137.763443 144.0
138.060287 216.0
138.158524 204.0
138.535416 112.0
138.58696 152.0
138.608047 116.0
138.82605 56.0
138.945679 108.0
139.074234 240.0
139.133423 184.0
139.340088 156.0
139.455231 156.0
139.572769 120.0
139.810364 144.0
140.071915 136.0
140.14473 124.0
140.238998 196.0
140.373367 196.0
140.805237 232.0
140.975327 176.0
140.994232 56.0
141.034409 116.0
141.067505 212.0
141.209366 128.0
141.346344 204.0
142.043106 296.0
142.121399 92.0
142.142746 204.0
142.361145 140.0
142.672394 92.0
142.729462 124.0
142.762054 208.0
142.794266 220.0
142.822205 144.0
142.984375 124.0
143.010162 92.0
143.048645 3600.0
143.224457 48.0
143.381714 160.0
143.792236 144.0
143.870682 148.0
143.93515 76.0
144.056427 7356.0
144.092789 224.0
144.14534 52.0
144.286362 148.0
144.456146 80.0
144.582962 148.0
144.603241 220.0
144.664337 148.0
144.939758 156.0
144.975067 196.0
145.064133 3164.0
145.147095 80.0
145.188187 204.0
145.580231 116.0
145.731567 152.0
145.868546 72.0
145.916656 248.0
145.964706 176.0
146.071411 1616.0
146.121048 112.0
146.166763 36.0
146.366547 92.0
146.470108 208.0
146.515869 132.0
146.568497 124.0
146.677338 184.0
146.735184 84.0
146.831635 104.0
146.91124 228.0
146.952255 48.0
147.045059 408.0
147.079086 436.0
147.256409 92.0
147.273315 52.0
147.362686 208.0
147.382019 176.0
147.510117 168.0
147.592865 88.0
147.708389 124.0
147.909225 208.0
147.969742 52.0
148.056915 292.0
148.085266 192.0
148.22406 172.0
148.456772 96.0
148.512558 144.0
148.536804 196.0
148.699371 44.0
148.76976 84.0
148.854736 144.0
149.055542 176.0
149.094238 324.0
149.401596 56.0
149.49649 140.0
149.545166 144.0
149.615753 156.0
149.900726 88.0
149.973831 172.0
150.005524 124.0
150.067261 812.0
150.154251 160.0
150.366516 136.0
150.408005 224.0
150.815903 136.0
150.867584 228.0
150.996826 144.0
151.044983 164.0
151.075851 9264.0
151.12648 52.0
151.185211 52.0
151.297806 120.0
151.334518 52.0
151.447174 64.0
151.518204 88.0
151.618668 108.0
151.67009 180.0
151.697098 84.0
151.743683 76.0
151.93988 44.0
152.078873 996.0
152.214783 132.0
152.541534 172.0
152.590698 48.0
152.625122 172.0
152.770233 148.0
152.816971 168.0
152.962173 148.0
153.082809 164.0
153.107437 116.0
153.149307 120.0
153.671906 116.0
153.780487 172.0
153.802704 52.0
153.842194 240.0
153.958237 244.0
154.047165 200.0
154.084213 176.0
154.173172 156.0
154.340805 260.0
154.7099 108.0
154.737137 128.0
154.952591 180.0
155.060074 780.0
155.086411 196.0
155.140213 68.0
155.225235 92.0
155.250046 196.0
155.3815 156.0
155.776215 100.0
156.054962 148.0
156.176407 156.0
156.213715 124.0
156.288361 80.0
156.330658 116.0
156.524826 168.0
157.017502 176.0
157.067642 520.0
157.155426 124.0
157.27771 220.0
157.407532 28.0
157.462479 176.0
157.914841 184.0
157.964859 132.0
158.072937 8312.0
158.123444 180.0
158.150024 200.0
158.29187 164.0
158.313858 192.0
158.525696 32.0
158.558273 76.0
158.575806 112.0
158.635971 52.0
158.741272 220.0
158.791428 88.0
158.849121 160.0
158.926895 144.0
158.964523 152.0
158.987106 56.0
159.017227 124.0
159.045135 3512.0
159.080246 11024.0
159.120148 48.0
159.146912 176.0
159.21167 80.0
159.237381 64.0
159.293427 108.0
159.469315 56.0
159.552261 52.0
159.635239 92.0
159.660385 68.0
159.750092 216.0
159.806137 72.0
159.91951 60.0
160.007614 64.0
160.044952 944.0
160.084915 1412.0
160.115891 64.0
160.140961 88.0
160.234283 52.0
160.302307 124.0
160.337585 176.0
160.430847 128.0
160.514053 116.0
160.544312 128.0
160.657822 124.0
160.834457 76.0
160.897552 108.0
160.945526 92.0
161.057327 1060.0
161.094666 852.0
161.16275 52.0
161.191803 88.0
161.315079 176.0
161.337143 136.0
161.412979 112.0
161.870987 140.0
162.067383 688.0
162.098938 332.0
162.205414 44.0
162.329636 44.0
162.53511 192.0
162.552872 148.0
162.674698 112.0
162.750854 32.0
162.992157 180.0
163.020111 184.0
163.075134 4368.0
163.1073 184.0
163.112274 244.0
163.276871 84.0
163.2995 80.0
163.597458 52.0
163.70694 84.0
163.824112 92.0
163.877609 68.0
164.017776 208.0
164.076233 176.0
164.081879 164.0
164.0896 200.0
164.117188 60.0
164.244705 116.0
164.333984 28.0
164.507538 140.0
164.722031 40.0
165.070328 576.0
165.090576 1512.0
165.166794 80.0
165.258896 72.0
165.312622 144.0
165.335663 36.0
165.425247 56.0
165.673645 32.0
165.93248 72.0
165.963242 92.0
166.079224 256.0
166.158173 36.0
166.335236 128.0
166.617706 76.0
166.969864 124.0
167.047028 132.0
167.081619 148.0
167.2117 140.0
167.252869 60.0
167.296631 112.0
167.726822 40.0
167.814468 128.0
167.927933 220.0
168.307281 56.0
168.826675 68.0
169.063873 196.0
169.100906 144.0
169.429749 120.0
169.572266 176.0
169.836731 80.0
170.065063 380.0
170.20784 204.0
170.558563 188.0
170.62355 168.0
170.985107 32.0
171.031952 152.0
171.082535 332.0
171.417389 52.0
171.607666 180.0
171.944168 116.0
171.978104 144.0
172.045975 128.0
172.082489 304.0
172.168686 144.0
172.26532 88.0
172.968735 260.0
172.997528 188.0
173.058548 356.0
173.102249 156.0
173.138916 208.0
173.268295 204.0
173.994247 156.0
174.030472 148.0
174.067001 10228.0
174.13884 240.0
174.232697 100.0
174.337799 44.0
174.398254 220.0
174.435043 80.0
174.566498 48.0
174.590164 144.0
174.670425 124.0
174.748001 104.0
174.861145 48.0
175.071487 1712.0
175.111267 344.0
175.149567 48.0
175.279861 156.0
175.725449 164.0
175.849487 108.0
175.928665 52.0
176.056244 176.0
176.082184 1376.0
176.124069 72.0
176.168976 116.0
176.24559 212.0
176.390945 136.0
176.607773 48.0
176.737396 20.0
176.925308 196.0
176.959717 156.0
177.09053 652.0
177.709778 200.0
178.049561 148.0
178.07724 160.0
178.682175 144.0
178.873779 36.0
179.020218 168.0
179.086609 1068.0
179.243973 96.0
179.492996 104.0
179.763947 164.0
179.873383 148.0
180.090881 480.0
180.116364 192.0
180.249939 100.0
180.487839 116.0
180.560043 112.0
180.661682 136.0
180.760681 60.0
180.835602 152.0
181.025681 228.0
181.061386 300.0
181.095306 232.0
181.186386 48.0
181.258728 128.0
181.349854 92.0
181.427582 88.0
182.069595 324.0
182.149429 76.0
182.367081 140.0
182.541824 84.0
182.703201 132.0
182.886185 60.0
183.078461 176.0
183.536926 184.0
183.735001 136.0
183.964386 188.0
184.02037 152.0
184.092392 224.0
184.656097 132.0
184.808853 172.0
185.018692 144.0
185.064087 344.0
185.099915 172.0
185.14595 152.0
185.343704 176.0
185.381638 52.0
186.114014 56.0
187.079163 128.0
187.113434 108.0
187.158127 120.0
187.188065 148.0
187.215302 68.0
187.592667 128.0
187.913101 196.0
188.079071 156.0
188.456421 228.0
188.483749 184.0
188.593063 208.0
188.612198 184.0
188.895447 196.0
188.954025 188.0
188.975906 200.0
189.090866 18548.0
189.183899 108.0
189.257812 72.0
189.316483 96.0
189.430359 92.0
189.483612 100.0
189.594742 68.0
189.682449 160.0
189.778412 56.0
189.948441 52.0
190.049942 76.0
190.093826 1860.0
190.247543 100.0
190.318924 84.0
190.4711 68.0
190.577942 96.0
190.610077 84.0
190.81073 40.0
191.027985 140.0
191.086731 1308.0
191.108673 1132.0
191.199631 176.0
191.303162 172.0
191.465607 72.0
191.600098 140.0
192.052658 144.0
192.092728 756.0
192.350647 144.0
192.510788 160.0
192.77475 36.0
193.067673 224.0
193.102615 436.0
193.262634 196.0
193.306915 28.0
193.334579 88.0
193.365021 116.0
193.616959 76.0
193.641891 108.0
193.977142 104.0
194.070801 332.0
194.198975 64.0
194.382065 88.0
194.415375 76.0
194.954117 112.0
194.976349 76.0
195.037491 44.0
195.079773 816.0
195.193176 220.0
195.836029 196.0
195.863892 148.0
195.96138 160.0
196.025467 132.0
196.08577 364.0
196.120224 228.0
196.188385 184.0
196.839996 132.0
197.066238 452.0
197.092133 352.0
197.225525 220.0
197.401657 36.0
198.098557 156.0
198.157394 88.0
198.17981 56.0
198.364761 52.0
198.426437 164.0
198.577866 124.0
198.619934 168.0
198.704086 80.0
198.74057 212.0
199.049332 44.0
199.083023 304.0
199.111862 192.0
199.139191 128.0
199.257172 144.0
199.36113 152.0
200.14595 48.0
200.17691 128.0
200.283936 156.0
200.850494 88.0
201.07338 120.0
201.095963 132.0
201.125626 100.0
201.587357 160.0
201.624084 204.0
202.083374 172.0
202.150085 200.0
202.790115 76.0
203.039261 164.0
203.088165 756.0
203.604355 156.0
203.871399 44.0
204.050476 148.0
204.093765 420.0
204.195496 44.0
204.303589 176.0
204.387619 104.0
205.062347 276.0
205.093597 260.0
205.939758 176.0
206.07196 392.0
206.105453 164.0
206.296936 180.0
206.402725 124.0
206.946365 100.0
207.07959 1124.0
207.119476 212.0
207.284348 136.0
207.447708 204.0
207.659897 88.0
208.087814 1128.0
208.117676 304.0
208.268372 52.0
208.297089 48.0
208.52121 88.0
208.587311 256.0
208.627563 92.0
208.915131 68.0
209.055161 168.0
209.096954 1480.0
209.37854 200.0
209.753098 128.0
210.062286 144.0
210.10347 292.0
210.240524 68.0
210.468567 48.0
210.592743 120.0
210.679398 132.0
210.991516 44.0
211.076233 516.0
211.109543 840.0
211.20549 116.0
211.295166 148.0
211.462997 168.0
211.562241 168.0
211.990082 140.0
212.079956 292.0
212.11557 508.0
212.755798 56.0
212.956146 156.0
213.092682 152.0
213.249603 112.0
213.290283 112.0
213.586868 180.0
214.387527 116.0
214.614883 56.0
214.693619 76.0
214.894882 236.0
215.423294 164.0
215.487564 36.0
216.083984 156.0
216.242004 176.0
217.064407 632.0
217.091599 108.0
218.072235 496.0
218.120773 220.0
218.63681 144.0
219.034286 88.0
219.080078 1604.0
219.116776 52.0
219.293579 128.0
219.532379 56.0
219.617905 56.0
220.084839 1096.0
220.270218 72.0
220.477036 148.0
220.663254 108.0
220.74263 128.0
220.956055 196.0
221.051926 140.0
221.095459 696.0
221.148392 128.0
221.27272 76.0
221.403 116.0
221.468155 32.0
221.506668 40.0
221.628128 96.0
221.859299 48.0
222.007553 144.0
222.057617 144.0
222.103775 396.0
222.232986 132.0
222.416977 64.0
222.479324 116.0
222.702026 172.0
223.073395 864.0
223.112778 2628.0
223.17453 128.0
223.399811 80.0
223.501709 80.0
223.54039 96.0
223.644547 92.0
223.715988 76.0
224.081268 880.0
224.118942 660.0
224.195526 224.0
224.249176 104.0
224.284943 108.0
224.365417 200.0
224.396378 52.0
224.672592 40.0
224.914291 216.0
225.05162 160.0
225.088577 1124.0
225.128952 352.0
225.484772 136.0
225.577423 96.0
225.670105 92.0
226.014069 156.0
226.098038 368.0
226.810669 248.0
226.861633 92.0
226.888611 196.0
227.041534 188.0
227.10701 452.0
227.491592 96.0
227.638702 48.0
228.110138 136.0
229.04924 116.0
230.231522 148.0
230.9599 224.0
231.083923 148.0
231.547058 128.0
232.090912 224.0
232.350327 132.0
232.480789 120.0
233.096771 768.0
233.997543 104.0
234.102219 1192.0
234.262497 32.0
234.737717 212.0
235.072968 1400.0
235.111542 2776.0
235.494797 144.0
236.084457 1440.0
236.116196 420.0
236.607849 68.0
236.83139 164.0
236.93248 64.0
237.056442 136.0
237.087814 916.0
237.127518 288.0
237.162292 64.0
237.309448 180.0
237.422897 48.0
237.517975 112.0
237.695923 148.0
238.097 1440.0
238.137558 124.0
238.177917 76.0
238.356094 56.0
238.448288 72.0
238.498169 88.0
238.737274 56.0
238.912582 156.0
239.068802 228.0
239.106964 3176.0
239.140579 344.0
239.291122 132.0
239.669968 88.0
239.745346 224.0
239.820969 188.0
239.944275 212.0
240.106628 548.0
240.153961 104.0
240.332886 48.0
240.666229 120.0
240.897858 132.0
240.981262 112.0
241.075607 136.0
241.119705 204.0
241.389069 188.0
241.500977 100.0
241.698593 48.0
241.720245 128.0
241.831665 64.0
242.063843 204.0
242.125778 172.0
243.10231 168.0
243.269897 108.0
243.766846 36.0
243.807236 152.0
244.223846 68.0
244.376282 52.0
244.780914 96.0
245.092407 140.0
247.100586 148.0
247.143799 52.0
247.215775 228.0
247.350342 244.0
248.07666 320.0
248.230713 188.0
248.456543 196.0
248.786041 180.0
248.911957 176.0
248.965012 168.0
249.090973 908.0
249.247726 40.0
249.294861 124.0
249.370285 164.0
249.942642 252.0
250.100159 1500.0
250.238495 216.0
250.301468 224.0
250.521942 236.0
250.569183 148.0
250.600693 180.0
250.836441 164.0
250.899368 172.0
250.931625 188.0
251.00415 132.0
251.05687 128.0
251.106613 11068.0
251.169937 84.0
251.209152 92.0
251.243851 44.0
251.313263 56.0
251.448944 40.0
251.572052 164.0
251.616241 92.0
251.654129 56.0
251.679382 36.0
251.704651 44.0
251.840439 56.0
251.875183 56.0
252.078873 568.0
252.110245 2064.0
252.446182 60.0
252.700272 64.0
252.801529 88.0
252.84584 184.0
253.004105 64.0
253.088013 688.0
253.119385 820.0
253.339783 172.0
253.781296 116.0
253.808838 52.0
253.872391 100.0
253.910599 136.0
253.954712 124.0
254.092194 904.0
254.138702 388.0
254.271988 56.0
254.726028 60.0
255.099686 1096.0
255.3172 44.0
255.991852 88.0
256.105988 144.0
256.345428 128.0
256.776489 56.0
256.881073 180.0
256.912964 124.0
257.111298 176.0
257.171417 116.0
257.305481 72.0
257.906036 132.0
258.07547 64.0
258.776154 112.0
259.263062 64.0
261.03183 72.0
261.105804 168.0
261.466125 136.0
261.816406 84.0
262.477631 88.0
263.009918 36.0
263.103546 168.0
263.416779 204.0
264.053528 80.0
264.113373 328.0
264.438538 124.0
264.597137 144.0
264.674835 144.0
264.762268 92.0
264.865936 84.0
264.91452 160.0
265.082977 100.0
265.123383 2384.0
265.252686 56.0
265.31311 48.0
265.433075 48.0
266.004059 136.0
266.040741 168.0
266.086761 392.0
266.130585 11948.0
266.218353 44.0
266.27356 60.0
266.309296 132.0
266.437378 172.0
266.492493 80.0
266.551239 76.0
266.673187 144.0
266.702423 96.0
266.760956 56.0
266.822723 152.0
266.861725 68.0
266.958313 200.0
267.017822 52.0
267.102173 4864.0
267.132935 2596.0
267.224518 88.0
267.26178 28.0
267.331146 128.0
267.4245 36.0
267.453796 48.0
267.505859 52.0
267.567719 76.0
267.72403 108.0
267.945496 172.0
267.994385 276.0
268.105682 1228.0
268.141357 852.0
268.39856 108.0
268.496368 80.0
268.623566 56.0
268.65451 76.0
268.731232 108.0
268.796478 40.0
268.829132 60.0
269.057587 48.0
269.112854 1268.0
269.150208 188.0
269.201263 52.0
269.420105 76.0
269.710938 144.0
269.854767 224.0
269.897278 132.0
269.992096 100.0
270.01825 76.0
270.12384 1500.0
270.154602 160.0
270.538513 68.0
270.600708 44.0
271.121735 320.0
272.072754 64.0
272.486542 64.0
272.759308 156.0
273.288757 84.0
273.943909 76.0
275.560425 56.0
275.609985 96.0
276.056213 164.0
276.751099 96.0
277.118744 132.0
277.877991 112.0
278.412384 56.0
279.10025 132.0
279.151337 184.0
280.117493 448.0
281.116058 928.0
281.355804 108.0
281.43927 92.0
281.549469 116.0
282.003845 216.0
282.124542 6484.0
282.181 28.0
282.205566 128.0
282.311157 52.0
282.316986 48.0
282.329559 84.0
282.478638 52.0
282.602417 64.0
282.876862 88.0
282.936005 60.0
282.973938 188.0
283.128571 1436.0
283.33374 64.0
283.61377 92.0
283.778015 48.0
284.136993 760.0
284.566467 100.0
284.59668 36.0
284.8284 136.0
284.994141 96.0
285.144257 128.0
285.271057 104.0
286.11972 96.0
286.843994 48.0
287.127197 120.0
289.381073 68.0
290.479065 104.0
291.106964 68.0
295.134949 600.0
295.267975 176.0
295.632477 80.0
296.135315 180.0
296.38736 32.0
296.527863 144.0
296.592987 104.0
296.627258 128.0
296.743805 168.0
296.874115 160.0
297.148071 6880.0
297.196686 204.0
297.4711 72.0
297.591248 76.0
298.06839 192.0
298.15097 1488.0
298.900818 44.0
298.931793 64.0
299.163727 1208.0
299.324188 56.0
299.413727 56.0
299.579071 120.0
299.696198 56.0
299.999481 92.0
300.075317 40.0
300.171173 200.0
300.468475 92.0
304.78598 72.0
309.074768 112.0
309.960663 36.0
310.809204 72.0
313.104706 132.0
314.123322 76.0
314.207977 160.0
316.130096 72.0
319.049194 68.0
323.104034 116.0
326.223999 92.0
330.425354 84.0
336.604309 64.0
338.143372 92.0
338.168976 60.0
339.16156 88.0
345.447205 92.0
345.506378 72.0
347.642426 20.0
353.027222 112.0
355.837463 132.0
356.212433 240.0
356.622559 32.0
357.239227 176.0
358.251862 156.0
358.983032 96.0
359.533813 68.0
367.47583 108.0
383.133057 68.0
388.202484 116.0
392.508301 96.0
394.740723 56.0
405.15152 104.0
407.699371 80.0
409.687012 60.0
412.406708 84.0
426.94986 28.0
427.134949 136.0
436.344482 116.0
437.034912 116.0
438.629913 84.0
441.276642 76.0
443.583313 116.0
445.732117 120.0
446.724304 120.0
463.14798 152.0
480.509216 48.0
505.945068 60.0
508.024414 48.0
508.890564 40.0
513.552612 84.0
518.797913 104.0
520.240479 64.0
534.472778 96.0
536.951111 60.0
543.575684 104.0
553.401367 108.0
558.187317 96.0
577.513367 84.0
586.583618 112.0
596.200745 100.0
640.523621 244.0
681.500977 132.0
683.398743 88.0
689.050415 60.0
690.618652 100.0
693.03717 80.0
706.245483 76.0
713.760193 120.0
716.240173 88.0
721.737 68.0
733.192383 104.0
762.494751 172.0
763.401855 40.0
770.639221 152.0
776.129822 44.0
787.152832 144.0
792.494568 192.0
805.828979 220.0
828.936218 108.0
838.181824 148.0
843.283325 120.0
869.327881 112.0
873.71106 132.0
878.264526 32.0
883.663818 208.0
892.025635 156.0
893.286255 184.0
900.175964 204.0
902.350891 152.0
909.947693 168.0
911.611511 192.0
926.084595 52.0
932.965698 128.0
939.811218 132.0
951.24939 128.0
956.812866 184.0
957.391663 164.0
958.204712 180.0
961.293762 164.0
970.367676 240.0
971.006348 184.0
974.370667 104.0
976.933228 100.0
977.610168 160.0
977.790649 52.0
980.823853 132.0
986.022949 40.0
991.517761 116.0
998.461243 160.0
1005.012451 36.0
1009.826111 232.0
1013.592773 148.0
1030.933105 64.0
1031.764038 188.0
1042.056641 112.0
1043.252075 144.0
1048.794312 144.0
1052.200317 164.0
1060.033081 168.0
1060.622803 188.0
1064.216675 160.0
1065.833984 188.0
1075.08728 176.0
1085.69812 160.0
1091.812134 60.0
1092.72644 136.0
1094.655029 196.0
1095.570557 144.0
1096.044922 260.0
1096.493042 176.0
1096.539185 204.0
1100.36499 192.0
1102.016113 100.0
1104.349731 112.0
1109.401978 136.0
1109.514648 128.0
1110.192383 192.0
1111.610596 172.0
1116.187256 172.0
1121.039917 212.0
1121.259888 192.0
1123.49353 268.0
1132.544434 196.0
1133.033447 184.0
1134.916748 180.0
1137.392212 256.0
1137.70105 52.0
1139.11792 196.0
1139.359741 160.0
1146.748169 160.0
1147.004272 152.0
1147.85376 216.0
1151.119629 124.0
1151.835571 264.0
1151.896362 192.0
1153.518066 224.0
1155.425171 208.0
1160.579224 200.0
1161.576172 52.0
1162.797485 140.0
1163.876831 76.0
1168.93396 176.0
1169.002075 180.0
1174.227173 188.0
1174.88208 68.0
1175.772461 20.0
1176.649536 196.0
1178.473145 92.0
1179.16333 132.0
1180.947754 220.0
1184.21936 152.0
1184.596069 184.0
1185.500488 180.0
1188.709717 124.0
1190.178589 184.0
1190.570068 180.0
1194.343262 132.0
1194.907227 192.0
1195.251343 168.0
1196.689819 140.0
1198.57019 164.0
1210.305542 156.0
1210.409424 176.0
1211.018799 36.0
1214.311035 76.0
1214.914429 60.0
1215.379272 100.0
1215.767822 152.0
1222.745117 148.0
1224.931519 168.0
1228.765747 48.0
1232.990234 160.0
1237.270996 184.0
1239.519287 116.0
1240.773804 180.0
1245.377075 188.0
1246.002319 108.0
1246.142822 44.0
1246.458984 168.0
1247.182861 140.0
1248.251465 184.0
1249.095459 148.0
1249.17981 200.0
1250.404053 184.0
1250.727905 208.0
1251.685303 96.0
1251.790894 64.0
1254.129883 140.0
1254.383667 156.0
1255.004028 52.0
1257.719971 168.0
1258.687256 160.0
1259.299683 72.0
1261.336548 136.0
1262.517212 188.0
1262.807251 264.0
1266.317627 224.0
1269.017456 128.0
1270.939575 168.0
1272.678589 140.0
1274.653198 176.0
1279.696167 160.0
1279.795898 136.0
1283.130249 160.0
1283.971558 164.0
1284.2854 116.0
1284.706299 156.0
1285.7052 176.0
1290.741333 80.0
1292.543823 164.0
1292.994751 192.0
1294.727173 148.0
1294.884766 100.0
1295.479248 200.0
1298.181274 148.0
1298.346313 96.0
1298.912842 132.0
1299.874268 172.0
1300.699585 196.0
1300.76416 160.0
1301.833984 128.0
1302.624023 156.0
1304.125732 172.0
1304.681519 184.0
1306.031128 160.0
1306.239624 160.0
1306.469849 148.0
1306.714478 172.0
1307.210938 224.0
1308.751343 168.0
1309.305786 180.0
1312.072754 160.0
1313.248047 216.0
1314.279663 172.0
1314.676514 184.0
1315.838623 128.0
1315.925293 236.0
1316.567871 128.0
1319.01001 156.0
1320.137817 124.0
1322.771362 164.0
1323.510498 176.0
1323.712524 156.0
1324.429565 132.0
1325.001831 168.0
1326.987549 188.0
1327.400879 80.0
1331.377563 188.0
1332.307251 128.0
1332.656006 124.0
1335.032959 148.0
1335.280151 160.0
1336.429565 44.0
1336.538696 120.0
1336.604126 48.0
1337.623047 180.0
1338.190918 176.0
1339.778564 148.0
1339.953369 64.0
1340.499878 128.0
1340.769409 136.0
1341.206787 160.0
1341.59314 44.0
1342.110718 184.0
1342.482666 308.0
1343.190063 172.0
1346.605957 136.0
1349.338867 128.0
1350.47229 92.0
1354.563965 64.0
1354.703125 248.0
1355.890137 204.0
1356.263916 176.0
1356.447144 52.0
1357.099609 104.0
1357.780762 152.0
1360.665283 216.0
1360.951538 156.0
1361.274658 156.0
1361.377441 120.0
1364.206177 156.0
1364.360596 188.0
1365.294434 140.0
1365.470825 152.0
1365.595947 160.0
1367.766479 140.0
1367.817993 224.0
1368.156616 100.0
1369.38623 148.0
1371.110229 188.0
1372.252808 208.0
1373.462158 136.0
1375.602051 148.0
1377.064087 164.0
1377.750977 140.0
1379.620728 168.0
1379.842407 168.0
1380.049438 132.0
1380.559692 168.0
1381.203125 160.0
1382.053833 200.0
1382.475708 112.0
1382.793945 224.0
1383.563721 232.0
1384.000488 68.0
1384.207886 152.0
1384.296753 172.0
1386.378296 212.0
1388.861938 192.0
1390.69458 72.0
1391.392456 124.0
1395.880127 212.0
1396.534546 200.0
1396.594116 168.0
1397.963013 192.0
1401.112549 176.0
1401.574463 228.0
1402.692261 116.0
1406.951782 172.0
1407.855225 248.0
1408.609619 152.0
1410.006836 136.0
1411.472046 148.0
1416.186646 240.0
1416.388916 192.0
1418.142212 184.0
1418.674438 140.0
1421.944702 184.0
1422.132324 144.0
1422.53772 140.0
1423.408569 144.0
1424.84314 204.0
1429.414551 148.0
1429.911255 96.0
1430.641357 80.0
1431.273804 116.0
1431.364136 160.0
1433.066406 32.0
1433.307495 160.0
1435.116455 48.0
1436.14209 148.0
1436.587036 148.0
1437.877319 124.0
1438.692505 244.0
1441.267944 140.0
1442.401489 164.0
1442.454468 164.0
1443.081909 140.0
1443.225586 172.0
1443.664185 224.0
1445.177002 132.0
1445.335815 168.0
1445.487183 48.0
1446.947998 68.0
1447.65979 164.0
1447.970215 168.0
1450.902588 92.0
1451.266602 184.0
1451.584961 268.0
1451.97937 200.0
1453.488892 108.0
1454.726074 188.0
1457.361328 48.0
1457.429688 152.0
1462.2052 176.0
1462.63147 192.0
1463.385132 132.0
1465.42627 156.0
1466.782715 208.0
1467.224854 112.0
1467.522217 160.0
1467.94165 212.0
1468.681396 160.0
1468.742432 112.0
1469.940186 208.0
1470.321777 140.0
1472.871826 260.0
1474.086548 112.0
1475.905762 196.0
1479.004028 168.0
1480.780396 152.0
1481.216919 168.0
1483.446777 184.0
1483.669189 188.0
1483.791748 56.0
1484.15979 180.0
1484.228882 160.0
1484.397461 176.0
1485.693726 132.0
1486.03894 212.0
1487.873169 176.0
1488.502808 100.0
1488.894409 172.0
1491.998657 156.0
1492.26001 212.0
1495.875732 168.0
1497.716064 152.0
1498.039551 96.0
1498.37085 132.0
1498.987305 196.0
1499.703979 168.0
1500.744629 120.0
1500.821777 220.0
1500.883423 264.0
1503.660522 272.0
