>compound Eszopiclone
>formula C17H17ClN6O3 
>ionization [M+H]+
>parentmass 389.111481
#inchi InChI=1S/C17H17ClN6O3/c1-22-6-8-23(9-7-22)17(26)27-16-14-13(19-4-5-20-14)15(25)24(16)12-3-2-11(18)10-21-12/h2-5,10,16H,6-9H2,1H3/t16-/m0/s1
#inchikey GBBSUAFBMRNDJC
#Ion_Source LC-ESI
#Instrument qTof
#Compound_Source Commercial
#PI Dorrestein
#Data_Collector Garg_Neha
#Scan -1
#Precursor_MZ 389.115
#ExactMass 388.105
#Charge 1
#CAS_Number N/A
#Pubmed_ID N/A
#Smiles N/A
#INCHI_AUX N/A
#Library_Class 1
#SpectrumID CCMSLIB00000077079
#IonMode Positive
#UpdateWorkflowName UPDATE-SINGLE-ANNOTATED-GOLD
#LibraryQualityString Gold
#TaskID 48f7f52fc6d249b5abbcc6e7b3df5969
##Scan# 1071
#SpectrumFile NCP003106_A2_B11_BB2_01_15705.mzXML
#LibraryName NIH_Clinical_Collection_2.mgf
#MQScore -1
#Organism NIHcollection2_04212014_2_mgf
#TIC_Query 0
#RT_Query -1
#MZErrorPPM -1
#SharedPeaks 0
#MassDiff 0
#LibMZ -1
#SpecMZ 389.115
#SpecCharge 0
#internalFilename spec-00000.mgf

>collision 10
45.173973 224.0
45.259628 168.0
45.310524 152.0
46.436123 176.0
46.579304 148.0
46.864338 160.0
47.268517 280.0
47.480854 208.0
47.579651 156.0
47.796814 156.0
47.82021 224.0
47.932301 224.0
48.059998 160.0
48.195312 208.0
48.254745 184.0
48.41526 152.0
48.750984 160.0
48.780979 124.0
49.032104 180.0
49.711773 140.0
49.759499 156.0
50.016758 228.0
50.033653 188.0
50.067444 140.0
50.393295 140.0
50.679108 196.0
51.102222 148.0
51.234627 160.0
51.615715 204.0
52.226662 144.0
52.637402 176.0
52.873039 152.0
52.942528 172.0
53.367916 216.0
53.61808 208.0
53.717228 252.0
53.800411 160.0
53.962578 160.0
54.20702 172.0
54.252457 156.0
54.406498 204.0
54.465237 168.0
54.591633 164.0
54.691677 152.0
54.880245 156.0
55.083908 156.0
55.165184 160.0
55.190319 168.0
55.249477 144.0
55.348644 160.0
56.394493 156.0
56.653366 152.0
56.728294 172.0
56.968399 184.0
57.679665 152.0
57.696293 220.0
57.840004 192.0
58.349724 252.0
58.546013 168.0
58.596279 152.0
58.613041 144.0
58.625233 144.0
58.706028 232.0
58.809963 128.0
59.340599 188.0
59.781509 96.0
59.852257 180.0
59.936974 168.0
60.798321 160.0
60.951279 160.0
61.045326 184.0
61.105988 208.0
61.14489 172.0
61.808121 168.0
61.823189 156.0
62.151276 164.0
62.454479 308.0
62.574078 144.0
62.922508 148.0
63.233917 168.0
63.436665 148.0
63.546093 144.0
64.085091 140.0
64.444084 148.0
64.611961 180.0
64.746414 164.0
65.525482 140.0
65.907875 196.0
65.99192 156.0
66.299477 208.0
66.383774 208.0
66.628036 160.0
66.698784 160.0
66.841866 180.0
67.164444 140.0
67.195442 160.0
67.311325 148.0
67.415878 188.0
67.525414 148.0
67.805374 248.0
67.828323 232.0
67.872589 164.0
67.915222 176.0
68.002007 180.0
68.179558 176.0
68.263397 156.0
68.595978 148.0
69.076515 232.0
69.164215 160.0
69.280128 160.0
69.78965 152.0
69.87281 176.0
70.344429 164.0
70.499763 160.0
70.643822 148.0
70.903084 208.0
71.195557 228.0
71.255142 132.0
71.334381 192.0
71.374802 224.0
71.418526 188.0
71.507706 192.0
72.350014 184.0
72.908066 168.0
73.183632 200.0
73.247902 184.0
73.369339 176.0
73.437553 212.0
73.69191 152.0
74.342644 140.0
75.191032 164.0
75.785896 164.0
75.855225 232.0
76.14325 140.0
76.553673 180.0
76.591988 148.0
76.897118 144.0
77.139915 168.0
77.1912 188.0
77.738914 200.0
77.796837 236.0
77.909225 232.0
78.248657 188.0
78.760063 224.0
78.873146 200.0
79.051773 144.0
79.312126 144.0
79.652809 160.0
80.326897 176.0
80.359573 144.0
80.463089 192.0
80.684624 164.0
81.067665 152.0
81.184189 228.0
81.214676 144.0
81.652916 208.0
81.678101 148.0
82.218979 160.0
82.246162 244.0
83.170639 176.0
83.388596 188.0
83.688751 164.0
83.863632 172.0
84.122658 144.0
84.20665 160.0
84.230392 184.0
84.401947 136.0
84.441772 212.0
84.473511 196.0
84.735306 148.0
85.219673 144.0
85.327522 112.0
85.352013 164.0
85.407181 208.0
85.502861 144.0
85.569122 188.0
86.484749 208.0
86.836784 196.0
87.604469 152.0
87.910248 180.0
88.349327 140.0
88.364296 180.0
88.392365 140.0
89.364319 164.0
89.73159 212.0
89.750443 160.0
90.065605 148.0
90.169525 164.0
90.663475 144.0
90.903526 240.0
91.153076 164.0
91.248116 148.0
91.432625 148.0
91.95417 208.0
92.161072 232.0
92.616379 176.0
92.629791 152.0
92.875145 160.0
93.684418 164.0
94.377289 148.0
94.41983 144.0
94.663666 196.0
94.779892 204.0
95.175682 168.0
95.208603 180.0
95.241615 148.0
95.519577 144.0
95.737572 168.0
96.104034 168.0
96.254333 180.0
96.295341 160.0
96.324638 144.0
96.371529 188.0
96.4282 204.0
96.4888 184.0
96.551369 156.0
96.580276 164.0
96.674614 224.0
96.772491 220.0
97.050713 140.0
97.078323 204.0
97.138969 172.0
97.356827 192.0
97.441292 172.0
97.48452 160.0
97.661461 192.0
97.927177 244.0
97.948837 152.0
98.083824 620.0
98.189301 156.0
99.007492 172.0
99.092903 2400.0
99.179863 144.0
99.560799 164.0
99.773407 192.0
99.890739 252.0
100.097282 216.0
100.26506 172.0
101.22596 164.0
102.086563 116.0
102.259857 152.0
102.670853 168.0
102.95945 264.0
103.024918 136.0
103.042267 160.0
103.080658 172.0
103.475075 192.0
103.588486 220.0
103.959518 240.0
104.186928 164.0
104.221466 144.0
104.337318 220.0
104.682198 200.0
104.897148 224.0
105.470734 188.0
105.70388 192.0
106.277618 176.0
106.291985 140.0
106.610275 180.0
106.667824 152.0
107.243729 228.0
107.875801 144.0
108.91188 164.0
109.738045 160.0
109.919518 144.0
110.525543 152.0
110.680382 192.0
110.929695 140.0
111.089066 148.0
111.141518 212.0
111.994713 4456.0
112.158997 148.0
112.340744 168.0
112.998062 404.0
113.108559 124.0
113.194611 160.0
113.887047 176.0
113.991043 1448.0
114.223953 164.0
114.447411 148.0
114.694534 144.0
114.781944 152.0
114.981407 248.0
115.572273 164.0
115.58725 188.0
116.062775 224.0
116.156456 176.0
116.350273 148.0
116.524239 148.0
116.831566 164.0
116.98877 144.0
117.10289 192.0
117.193367 160.0
117.20845 144.0
117.238617 140.0
117.258011 180.0
117.637642 148.0
118.05896 220.0
118.22554 160.0
118.262329 208.0
118.533043 292.0
118.702118 212.0
118.94294 160.0
119.273109 148.0
119.738724 180.0
120.011116 164.0
120.048187 188.0
120.148514 220.0
120.259804 140.0
120.342758 160.0
121.022751 184.0
121.228653 192.0
121.645378 144.0
123.052132 180.0
123.56488 208.0
123.677742 148.0
124.216187 168.0
124.491402 148.0
125.080894 144.0
125.225311 156.0
125.880974 208.0
126.236282 152.0
126.404053 152.0
126.858711 156.0
126.961853 172.0
127.085381 116.0
127.4608 120.0
127.493912 152.0
127.807137 124.0
127.946022 268.0
128.097275 168.0
128.778107 176.0
128.848129 208.0
129.227951 160.0
130.006104 2780.0
130.043762 184.0
130.451736 168.0
130.875778 164.0
130.936172 100.0
131.008438 284.0
131.060074 172.0
131.203873 228.0
131.272278 176.0
131.288239 140.0
131.363495 168.0
131.38353 164.0
131.472015 156.0
131.842987 188.0
132.001572 436.0
132.06633 208.0
132.121124 156.0
132.298157 212.0
132.60968 176.0
132.703659 208.0
133.29126 156.0
133.368759 208.0
133.470718 164.0
133.569809 128.0
134.069061 144.0
134.313461 152.0
134.394211 164.0
134.809845 144.0
134.83699 172.0
135.050293 144.0
135.066483 168.0
135.548035 192.0
135.777527 144.0
136.497421 148.0
136.602081 200.0
136.62767 148.0
136.815811 200.0
137.105011 296.0
137.13298 152.0
137.156281 172.0
137.405807 148.0
137.504318 156.0
137.681244 176.0
137.935913 168.0
138.462357 140.0
138.863129 148.0
138.961655 196.0
139.005646 18084.0
139.163025 116.0
139.631134 244.0
140.009018 1484.0
140.849686 224.0
141.002853 7152.0
141.4487 132.0
141.535522 156.0
141.632629 168.0
141.736862 172.0
141.886185 228.0
141.983398 180.0
142.005417 620.0
142.084152 168.0
142.377365 140.0
142.441116 128.0
142.805161 164.0
143.008118 196.0
143.082336 7192.0
143.575043 140.0
143.705627 148.0
143.884628 156.0
144.06134 148.0
144.083527 336.0
144.467606 144.0
145.969162 196.0
146.005234 148.0
146.070114 176.0
146.151978 268.0
146.327667 196.0
146.582993 156.0
146.607086 156.0
147.454178 148.0
147.512192 164.0
147.550873 224.0
147.875015 232.0
148.097107 152.0
148.214035 140.0
148.371582 160.0
148.917557 144.0
149.026886 180.0
149.124084 172.0
149.954025 164.0
151.270584 176.0
151.307297 156.0
151.637985 148.0
151.664948 144.0
151.762512 124.0
152.057388 180.0
152.511765 172.0
152.629761 188.0
152.691238 164.0
153.558167 152.0
154.041595 268.0
154.749252 160.0
155.016937 120.0
155.222519 176.0
155.418472 152.0
156.12146 152.0
156.315491 168.0
156.944748 136.0
157.01593 236.0
157.162704 148.0
157.247543 176.0
158.009689 328.0
158.06723 144.0
158.55806 200.0
158.966843 196.0
159.013901 380.0
159.054672 152.0
159.489227 140.0
159.66774 168.0
159.745712 224.0
159.889389 196.0
160.008591 132.0
160.051468 220.0
161.023636 204.0
161.056473 152.0
161.109528 160.0
162.14949 152.0
162.616165 164.0
162.735474 196.0
162.83197 164.0
163.004959 780.0
163.426804 164.0
164.001846 208.0
164.060974 164.0
164.527817 156.0
164.632507 160.0
165.008545 168.0
165.079712 148.0
165.118225 140.0
165.612045 144.0
166.078537 184.0
166.407013 148.0
166.810883 116.0
167.250198 240.0
167.373779 232.0
167.445877 164.0
168.172958 224.0
168.31752 160.0
168.720581 140.0
168.948166 180.0
169.142242 140.0
169.411545 216.0
169.515182 140.0
169.878174 152.0
169.979355 240.0
170.236343 268.0
170.316849 164.0
170.501328 284.0
170.839157 108.0
171.495529 144.0
171.839752 160.0
172.090317 200.0
172.137314 340.0
172.41423 180.0
172.623352 148.0
172.87973 160.0
172.973938 144.0
173.430939 128.0
173.657822 176.0
173.760132 164.0
173.817856 168.0
174.065079 484.0
175.069122 192.0
175.103363 180.0
175.56192 152.0
176.198059 200.0
176.816803 192.0
177.007416 184.0
177.092148 164.0
177.385818 116.0
177.601059 140.0
177.768188 224.0
178.062866 264.0
178.402985 240.0
179.017609 164.0
180.070206 136.0
180.089722 152.0
180.116425 192.0
180.354233 152.0
180.573486 148.0
180.974884 196.0
181.049774 1912.0
181.155624 128.0
181.564407 140.0
181.618057 276.0
181.652924 152.0
181.854172 148.0
182.059723 588.0
182.168335 180.0
182.53923 188.0
182.673706 176.0
182.757111 160.0
182.934738 180.0
183.047913 104.0
183.065079 184.0
183.08551 208.0
184.013092 168.0
184.048203 160.0
184.077896 256.0
184.118408 148.0
184.304794 148.0
184.8508 160.0
185.067749 112.0
185.517288 164.0
186.013718 156.0
186.035431 204.0
186.066269 288.0
186.752792 192.0
186.861603 176.0
186.943237 156.0
187.185501 140.0
187.485153 172.0
187.550568 148.0
188.131592 188.0
188.153427 188.0
188.224426 168.0
188.2845 180.0
188.347321 200.0
188.653366 140.0
189.114105 304.0
189.499023 164.0
190.016876 3296.0
190.115997 144.0
190.173019 180.0
190.313629 164.0
191.017075 556.0
191.052948 148.0
191.372192 172.0
192.012833 1000.0
192.070419 188.0
192.467194 152.0
192.875702 168.0
193.841583 144.0
193.988235 212.0
194.018982 156.0
194.310181 148.0
194.393417 140.0
194.634918 172.0
194.657135 180.0
195.026627 192.0
195.104462 160.0
195.271301 184.0
195.363083 192.0
195.928223 160.0
196.494171 172.0
197.094467 156.0
197.267746 264.0
198.003616 152.0
198.308151 144.0
199.004715 164.0
199.06636 400.0
199.167587 140.0
200.075546 148.0
200.281448 140.0
201.059601 148.0
201.774246 172.0
202.023117 144.0
202.081055 848.0
202.909531 232.0
203.042801 176.0
203.068329 172.0
203.091019 148.0
203.238541 220.0
203.388947 176.0
203.587692 140.0
204.113403 148.0
204.483231 152.0
204.642639 140.0
204.887573 144.0
205.105377 140.0
205.366455 176.0
206.040131 220.0
206.211594 152.0
206.283051 148.0
206.67485 192.0
206.903824 116.0
206.992584 152.0
207.03688 104.0
207.084229 184.0
207.118591 156.0
207.270432 168.0
207.680389 160.0
207.772186 160.0
207.843918 144.0
207.973312 220.0
208.025513 176.0
208.076401 168.0
208.208481 140.0
208.242584 156.0
208.441177 172.0
209.001877 148.0
209.174561 148.0
209.353073 196.0
210.048798 404.0
211.217529 244.0
211.411377 156.0
211.645844 140.0
211.686386 168.0
211.72403 184.0
211.893677 124.0
212.02533 140.0
212.065903 192.0
212.801926 172.0
213.040878 196.0
213.267532 192.0
213.453598 160.0
214.052704 184.0
214.390945 204.0
214.647476 168.0
215.012939 172.0
215.093842 156.0
215.391678 144.0
215.549454 144.0
216.233749 148.0
216.416 124.0
216.460007 140.0
216.587448 120.0
216.75502 148.0
216.78743 144.0
216.865417 180.0
216.939331 280.0
216.997635 252.0
217.0289 164944.0
217.108917 2516.0
217.257126 184.0
217.360245 100.0
217.51001 364.0
217.554428 120.0
217.625946 204.0
217.660782 148.0
217.794861 200.0
217.923004 168.0
218.030807 16404.0
218.109024 580.0
218.413773 288.0
218.655975 100.0
218.734894 188.0
218.763947 168.0
218.83754 200.0
218.862106 152.0
218.895508 152.0
218.925888 228.0
218.975708 184.0
219.025528 50760.0
219.20993 116.0
219.323624 228.0
219.347 172.0
219.413956 172.0
219.43924 164.0
219.495239 268.0
219.526764 208.0
219.568832 96.0
219.656174 192.0
219.685577 176.0
220.028534 3308.0
220.272919 112.0
221.042633 188.0
221.198318 108.0
221.218674 156.0
221.337357 136.0
221.429108 124.0
221.495422 248.0
221.530563 116.0
221.640594 196.0
222.54985 116.0
222.987869 188.0
224.036942 228.0
224.148483 144.0
224.726944 176.0
226.758484 164.0
228.450897 180.0
229.977036 156.0
230.80336 224.0
231.299515 180.0
231.620483 148.0
231.947739 180.0
231.99321 172.0
233.819 192.0
233.955688 160.0
234.150558 200.0
234.214523 260.0
234.269363 172.0
234.575409 152.0
235.04071 148.0
235.131577 180.0
235.199402 196.0
235.260452 140.0
235.327621 144.0
235.547501 200.0
236.04567 152.0
236.366852 152.0
237.414505 192.0
238.550552 196.0
239.89888 168.0
239.923538 216.0
240.170227 160.0
240.235016 200.0
240.69841 280.0
241.597366 160.0
241.880692 208.0
242.45195 180.0
242.845688 224.0
242.895325 144.0
243.047562 152.0
243.369186 116.0
243.446152 244.0
243.822067 248.0
243.85173 140.0
243.949692 148.0
244.038986 180.0
244.154816 164.0
244.247849 132.0
244.321594 172.0
244.37706 96.0
244.394714 328.0
244.544586 144.0
244.64061 168.0
244.682465 136.0
244.758499 280.0
244.795807 328.0
244.834534 108.0
244.880997 196.0
244.901031 708.0
244.923645 296.0
244.944458 448.0
244.97876 460.0
245.024216 338348.0
245.103241 188.0
245.137161 176.0
245.248154 260.0
245.296448 280.0
245.373825 124.0
245.406418 208.0
245.448853 120.0
245.49678 240.0
245.535675 4672.0
245.580017 468.0
245.616974 208.0
245.690674 236.0
245.721268 124.0
245.776047 160.0
245.81926 188.0
245.879669 216.0
245.942017 180.0
245.967316 184.0
246.026505 48956.0
246.099777 296.0
246.17067 252.0
246.307861 100.0
246.411331 140.0
246.464676 160.0
246.511124 140.0
246.544174 200.0
246.730911 200.0
246.772766 256.0
246.800385 216.0
246.810379 200.0
246.824219 276.0
246.88829 120.0
246.948959 204.0
247.020767 124676.0
247.107193 100.0
247.272202 224.0
247.305145 256.0
247.338715 316.0
247.360275 276.0
247.455414 164.0
247.503006 336.0
247.564682 376.0
247.6129 180.0
247.668976 204.0
247.701553 188.0
247.807892 192.0
247.826462 276.0
247.876038 324.0
247.922424 200.0
248.022644 10784.0
248.22406 112.0
248.318222 100.0
248.351547 124.0
248.376572 120.0
248.468689 136.0
248.577209 96.0
248.722656 236.0
249.035919 1552.0
249.113602 144.0
249.36293 172.0
249.407944 120.0
249.432556 144.0
249.514343 124.0
249.611145 172.0
249.64856 140.0
249.683517 104.0
249.755508 192.0
249.882263 96.0
249.986389 176.0
250.032959 212.0
250.629181 128.0
250.729965 96.0
250.984879 132.0
251.196671 132.0
253.754852 116.0
254.054092 140.0
254.939392 160.0
255.060715 148.0
255.536423 116.0
258.031799 212.0
259.037598 264.0
259.456482 140.0
259.642456 140.0
259.713013 152.0
260.353699 108.0
263.032898 14532.0
263.436005 136.0
264.035767 3156.0
264.97287 160.0
265.030487 4424.0
266.033966 312.0
267.045044 148.0
271.033295 140.0
273.040466 176.0
280.142151 124.0
285.051605 140.0
288.053528 168.0
296.399261 188.0
304.086243 152.0
324.276978 140.0
335.059601 168.0
340.708679 156.0
343.640839 120.0
345.029724 132.0
345.072968 248.0
345.123016 30696.0
345.361115 96.0
345.530792 144.0
345.940979 168.0
346.028625 192.0
346.126007 4076.0
346.253448 120.0
346.315674 276.0
346.629181 96.0
347.019775 156.0
347.120209 9536.0
347.183197 200.0
347.238007 112.0
347.351105 164.0
348.121857 1848.0
348.698669 100.0
349.416962 136.0
381.835846 160.0
388.644775 196.0
389.111481 1012.0
390.110107 440.0
390.329865 164.0
390.736328 180.0
391.108551 240.0
391.150208 132.0
391.217926 144.0
392.135712 216.0
410.403656 140.0
637.667664 160.0
891.187256 144.0
1042.141724 148.0
1069.887817 192.0
1115.259155 164.0
1210.724976 152.0
1320.54834 156.0
1364.587402 236.0
1411.209839 164.0
1420.676392 140.0
1422.650024 160.0
1435.176636 224.0
1500.282837 200.0
1541.849243 192.0
1548.80481 164.0
1561.928955 204.0
1581.315308 160.0
1586.321289 176.0
1601.657593 156.0
1613.012207 172.0
1626.501465 172.0
1628.08313 148.0
1631.763306 160.0
1642.982056 148.0
1647.50293 156.0
1653.146484 184.0
1658.272949 188.0
1675.459106 224.0
1723.75415 180.0
1766.280396 168.0
1774.369873 172.0
1827.121582 148.0
1833.20105 144.0
1848.572021 152.0
1855.278564 140.0
1860.279907 180.0
1883.909912 188.0
1895.096313 180.0
1903.631714 156.0
1906.063965 140.0
1908.949829 152.0
1912.786743 144.0
1913.622437 172.0
1915.642944 140.0
1921.868896 132.0
1922.600708 144.0
1922.810181 160.0
1940.462524 204.0
1946.244507 156.0
1952.633179 168.0
1953.169678 176.0
1957.684692 184.0
1962.003418 120.0
1966.39502 192.0
1973.594604 144.0
1977.256836 152.0
1984.121704 184.0
1999.657715 216.0
2002.28418 164.0
2002.649292 140.0
