>compound Epicatechin
>formula C15H14O6
>ionization [M+H]+
>parentmass 291.08631462009055
#inchi InChI=1S/C15H14O6/c16-8-4-11(18)9-6-13(20)15(21-14(9)5-8)7-1-2-10(17)12(19)3-7/h1-5,13,15-20H,6H2/t13-,15-/m1/s1
#inchikey PFTAWBLQPZVEMU
#Ion_Source DI-ESI
#Instrument qTof
#Compound_Source Commercial
#PI Norberto Lopes
#Data_Collector Denise Silva
#Scan -1
#Precursor_MZ 291.077
#ExactMass 290.079
#Charge 1
#CAS_Number 490-46-0
#Pubmed_ID N/A
#Smiles OC1=C(C[C@@H](O)[C@@H](C2=CC(O)=C(O)C=C2)O3)C3=CC(O)=C1
#INCHI_AUX N/A
#Library_Class 3
#SpectrumID CCMSLIB00000081479
#IonMode Positive
#UpdateWorkflowName UPDATE-SINGLE-ANNOTATED-BRONZE
#LibraryQualityString Bronze
#TaskID 053e8682627d4c9488a292c234ed8aed
##Scan# 1
#SpectrumFile gnps_Epicatechin_pos_MplusH.mgf
#LibraryName gnps_library.mgf
#MQScore -1
#Organism blank
#TIC_Query 0
#RT_Query -1
#MZErrorPPM -1
#SharedPeaks 0
#MassDiff 0
#LibMZ -1
#SpecMZ 291.077
#SpecCharge 0
#internalFilename spec-00000.mgf

>collision 10
119.044594 517.0
123.039482 13010.0
124.042793 673.0
127.034721 389.0
135.039749 245.0
137.056046 266.0
139.034607 41025.0
140.037094 1806.0
143.044434 533.0
145.067337 105.0
147.038681 8052.0
148.041855 525.0
151.03447 1062.0
153.050583 446.0
157.082565 124.0
161.054825 3294.0
162.059357 238.0
163.033493 984.0
165.049438 5937.0
166.05278 390.0
169.043655 940.0
177.050415 434.0
179.063736 2457.0
180.067322 190.0
181.043457 888.0
189.049545 1013.0
203.063995 278.0
205.078964 449.0
207.059753 10170.0
208.060089 734.0
231.059311 334.0
249.066849 710.0
255.056442 136.0
273.069366 497.0
291.07666 909.0
