>compound MLS001140675-01!
>formula C33H30N4O5
>ionization [M+H]+
>parentmass 563.229
#inchi InChI=1S/C33H30N4O5/c1-19-10-12-20(13-11-19)29-28-24(22-6-2-4-8-25(22)34-28)18-27-31(39)37(33(42)36(27)29)26-9-5-3-7-23(26)30(38)35-16-14-21(15-17-35)32(40)41/h2-13,21,27,29,34H,14-18H2,1H3,(H,40,41)/t27-,29?/m0/s1
#inchikey SHZFSEANVASGEO
#Ion_Source LC-ESI
#Instrument qTof
#Compound_Source NIH Natural Product Library
#PI Dorrestein
#Data_Collector VVP/LMS
#Scan -1
#Precursor_MZ 563.229
#ExactMass 562.222
#Charge 1
#CAS_Number N/A
#Pubmed_ID N/A
#Smiles Cc1ccc(cc1)C2N3[C@@H](Cc4c2[nH]c5ccccc45)C(=O)N(C3=O)c6ccccc6C(=O)N7CCC(CC7)C(=O)O
#INCHI_AUX N/A
#Library_Class 1
#SpectrumID CCMSLIB00000079936
#IonMode Positive
#UpdateWorkflowName UPDATE-SINGLE-ANNOTATED-GOLD
#LibraryQualityString Gold
#TaskID b1d8e8f6646f4e71acdff9ca3d919d08
##Scan# 2235
#SpectrumFile p2-A02_GA2_01_17979.mzXML
#LibraryName NIH_Natural_Products_Library.mgf
#MQScore -1
#Organism NIH_Natural_Products_Library
#TIC_Query 0
#RT_Query -1
#MZErrorPPM -1
#SharedPeaks 0
#MassDiff 0
#LibMZ -1
#SpecMZ 563.229
#SpecCharge 0
#internalFilename spec-00000.mgf

>collision 10
94.993858 180.0
95.049232 76.0
95.080284 112.0
95.09581 124.0
95.134636 108.0
95.212303 72.0
95.24144 148.0
95.272514 132.0
95.299721 204.0
95.361908 168.0
95.393005 64.0
95.462997 156.0
95.513565 104.0
95.603065 160.0
95.650887 120.0
95.733498 88.0
95.774399 40.0
95.821152 180.0
95.858177 44.0
95.926392 76.0
95.982933 116.0
96.027786 128.0
96.045341 120.0
96.144852 152.0
96.168266 188.0
96.305321 104.0
96.387764 156.0
96.40654 160.0
96.457359 148.0
96.559036 112.0
96.682289 100.0
96.703819 156.0
96.791916 224.0
96.993706 136.0
97.123123 64.0
97.205528 156.0
97.289925 164.0
97.337044 136.0
97.362579 168.0
97.415611 232.0
97.551201 128.0
97.747887 44.0
97.775436 92.0
97.815514 144.0
97.997955 228.0
98.011749 144.0
98.057076 172.0
98.074814 152.0
98.183258 196.0
98.201004 228.0
98.287811 176.0
98.388748 168.0
98.420059 164.0
98.45652 184.0
98.493134 152.0
98.696693 188.0
98.839111 224.0
98.973709 412.0
99.003418 148.0
99.017281 272.0
99.100479 112.0
99.241203 156.0
99.48127 152.0
99.556717 104.0
99.580551 104.0
99.632195 68.0
99.677895 144.0
99.69976 84.0
99.753426 48.0
99.769325 56.0
99.783241 84.0
99.846878 192.0
99.872734 160.0
99.892624 188.0
100.027939 128.0
100.105591 48.0
100.127495 168.0
100.157372 196.0
100.195221 80.0
100.380394 180.0
100.444641 208.0
100.673943 192.0
100.695908 156.0
100.821777 104.0
100.897736 140.0
100.949722 132.0
101.127777 140.0
101.209862 52.0
101.225876 156.0
101.26593 160.0
101.310005 172.0
101.408188 116.0
101.424225 168.0
101.594604 216.0
101.664902 196.0
101.707054 124.0
101.785347 108.0
101.809448 116.0
101.835556 180.0
102.133034 212.0
102.247719 64.0
102.289986 180.0
102.314148 176.0
102.332268 56.0
102.360458 128.0
102.39872 180.0
102.416847 148.0
102.441017 144.0
102.503479 212.0
102.608292 40.0
102.63047 48.0
102.658699 204.0
102.888725 144.0
103.054344 184.0
103.110924 128.0
103.21402 112.0
103.232224 88.0
103.319199 124.0
103.359665 152.0
103.416328 76.0
103.679626 144.0
103.772873 116.0
103.825592 156.0
103.929047 140.0
104.122925 200.0
104.174713 144.0
104.47467 128.0
104.514244 200.0
104.573257 64.0
104.652657 152.0
104.719856 40.0
104.750412 172.0
104.774857 196.0
104.893051 168.0
104.968491 116.0
105.015396 256.0
105.048363 188.0
105.06974 4292.0
105.213333 148.0
105.233749 104.0
105.287514 196.0
105.38166 144.0
105.413506 88.0
105.493217 132.0
105.512268 176.0
105.541855 172.0
105.566826 212.0
105.669098 124.0
105.73867 116.0
105.773468 60.0
105.847176 212.0
105.872559 172.0
105.885635 244.0
106.072762 448.0
106.09304 124.0
106.122116 264.0
106.211021 184.0
106.357666 76.0
106.505508 176.0
106.538376 200.0
106.579468 180.0
106.637817 152.0
106.733627 228.0
106.813843 156.0
106.842644 236.0
106.884804 308.0
106.92701 156.0
106.955826 128.0
107.04229 128.0
107.12056 136.0
107.153519 136.0
107.210815 144.0
107.367897 168.0
107.471039 144.0
107.508186 56.0
107.68161 152.0
107.698128 32.0
107.758041 196.0
107.776634 116.0
107.834496 188.0
107.958542 160.0
107.979225 148.0
108.026024 192.0
108.171654 144.0
108.382904 212.0
108.434715 228.0
108.548737 124.0
108.610954 60.0
108.639999 104.0
108.812256 204.0
108.872475 164.0
109.078171 160.0
109.142616 140.0
109.224968 228.0
109.246613 128.0
109.263252 92.0
109.283852 200.0
109.667244 180.0
109.696426 160.0
109.750191 132.0
110.005165 116.0
110.023949 196.0
110.051094 180.0
110.090767 120.0
110.161781 108.0
110.186852 180.0
110.278801 200.0
110.3666 172.0
110.456535 140.0
110.527664 132.0
110.577888 132.0
110.626038 136.0
110.881012 192.0
110.929787 168.0
110.957047 212.0
111.017853 232.0
111.137421 148.0
111.159958 216.0
111.282249 228.0
111.322144 124.0
111.40406 128.0
111.433472 148.0
111.540649 132.0
111.614235 92.0
111.649986 104.0
111.689949 176.0
111.767784 96.0
111.80146 248.0
111.97831 228.0
112.022537 140.0
112.084274 292.0
112.19429 152.0
112.26915 108.0
112.372505 200.0
112.524467 124.0
112.556145 244.0
112.598381 64.0
112.623726 192.0
112.773743 104.0
112.838142 148.0
112.858307 136.0
112.955589 192.0
113.018997 132.0
113.026001 128.0
113.032257 168.0
113.311249 164.0
113.383293 100.0
113.603813 172.0
113.805435 104.0
113.843658 204.0
113.937119 112.0
113.985985 188.0
114.024239 144.0
114.073128 144.0
114.122025 120.0
114.142059 224.0
114.158173 192.0
114.279427 108.0
114.317726 136.0
114.360291 152.0
114.404991 32.0
114.419891 168.0
114.615845 156.0
114.944229 192.0
114.984779 116.0
115.061623 168.0
115.220337 96.0
115.307281 160.0
115.45266 132.0
115.608826 180.0
115.62381 116.0
115.724419 172.0
115.859352 144.0
115.910774 260.0
116.006065 160.0
116.035088 64.0
116.060822 172.0
116.185219 204.0
116.2453 40.0
116.288223 132.0
116.305389 176.0
116.322563 152.0
116.371941 140.0
116.451401 88.0
116.515839 168.0
116.554955 176.0
117.004044 208.0
117.036339 120.0
117.057877 224.0
117.085678 180.0
117.149292 180.0
117.210815 92.0
117.277626 124.0
117.385826 172.0
117.439339 184.0
117.460907 156.0
117.508369 128.0
117.529945 248.0
117.594688 96.0
117.785751 168.0
117.821693 224.0
117.927307 164.0
118.02459 136.0
118.095963 144.0
118.143547 180.0
118.362152 228.0
118.411957 164.0
118.479111 136.0
118.511612 184.0
118.574455 156.0
118.896141 184.0
118.919312 104.0
118.967064 128.0
119.049347 1240.0
119.141037 144.0
119.192947 248.0
119.2864 148.0
119.362495 160.0
119.508232 56.0
119.523468 196.0
119.662766 172.0
119.824554 128.0
119.917641 116.0
119.996117 140.0
120.044609 1628.0
120.168419 160.0
120.183693 52.0
120.264442 216.0
120.516518 140.0
120.559288 68.0
120.574585 160.0
120.816193 284.0
120.896072 196.0
121.046867 396.0
121.064644 64.0
121.272774 128.0
121.577637 64.0
121.606163 168.0
121.674217 208.0
121.786209 176.0
121.94001 116.0
121.983971 112.0
122.032341 28.0
122.071922 52.0
122.115906 216.0
122.173096 104.0
122.37558 104.0
122.445274 160.0
122.479797 160.0
122.677338 436.0
122.823868 48.0
122.869278 76.0
122.975197 192.0
123.054665 164.0
123.098831 120.0
123.127541 132.0
123.167297 172.0
123.222527 120.0
123.246826 156.0
123.286606 132.0
123.321968 164.0
123.352913 236.0
123.370598 92.0
123.405693 160.0
123.547516 84.0
123.565216 184.0
123.596191 140.0
123.638237 104.0
123.733421 208.0
123.815353 180.0
124.001556 176.0
124.05909 168.0
124.127823 96.0
124.145561 164.0
124.227631 92.0
124.314163 116.0
124.478432 116.0
124.585991 248.0
124.644432 88.0
124.747276 108.0
124.881638 160.0
124.985252 52.0
125.0765 196.0
125.170006 156.0
125.195946 160.0
125.299194 40.0
125.319244 208.0
125.334839 276.0
125.557762 196.0
125.717369 188.0
125.821388 196.0
125.867485 164.0
125.938202 212.0
126.004211 92.0
126.048897 72.0
126.180771 152.0
126.272453 228.0
126.306007 100.0
126.419289 120.0
126.460396 148.0
126.523071 156.0
126.539581 120.0
126.63504 184.0
126.673119 96.0
126.780663 120.0
126.847908 140.0
126.874809 132.0
126.897224 72.0
126.937592 156.0
127.036278 296.0
127.114799 376.0
127.224785 192.0
127.304695 168.0
127.647194 152.0
127.715805 236.0
127.75515 192.0
127.791145 216.0
127.890167 136.0
128.018494 176.0
128.066818 280.0
128.124359 152.0
128.149139 120.0
128.275345 124.0
128.467041 84.0
128.485794 164.0
128.564056 128.0
128.618225 144.0
128.674667 124.0
128.814682 192.0
128.950256 200.0
128.997726 140.0
129.122086 164.0
129.318924 120.0
129.414001 164.0
129.45929 228.0
129.568008 112.0
129.64505 88.0
129.79921 72.0
129.86319 244.0
129.96933 132.0
130.065094 636.0
130.084183 316.0
130.107254 160.0
130.187988 136.0
130.248581 60.0
130.300186 164.0
130.316727 72.0
130.346268 152.0
130.414444 240.0
130.430359 140.0
130.450821 72.0
130.512207 140.0
130.566788 84.0
130.664597 192.0
130.719208 120.0
130.857605 164.0
130.921814 184.0
131.044815 128.0
131.088104 120.0
131.145081 172.0
131.231277 144.0
131.311523 128.0
131.334335 160.0
131.391373 76.0
131.407333 176.0
131.5009 168.0
131.732895 184.0
131.832062 188.0
131.96376 172.0
132.046906 320.0
132.090424 100.0
132.169006 104.0
132.239151 180.0
132.321564 60.0
132.376511 180.0
132.44751 144.0
132.465836 148.0
132.484161 124.0
132.504791 160.0
132.603271 188.0
132.713364 92.0
132.789032 168.0
132.906281 168.0
132.92897 164.0
132.954224 116.0
133.050964 188.0
133.22287 116.0
133.259628 196.0
133.496384 88.0
133.536423 196.0
133.572281 128.0
133.615997 40.0
133.652802 156.0
133.682724 32.0
133.779388 148.0
133.841553 180.0
133.876099 296.0
133.89682 120.0
133.977188 216.0
134.012009 44.0
134.049362 172.0
134.115707 156.0
134.150284 176.0
134.166428 52.0
134.39061 196.0
134.44783 168.0
134.614044 212.0
134.634827 156.0
134.775742 124.0
134.916733 148.0
134.963974 176.0
135.018478 140.0
135.090179 116.0
135.189667 172.0
135.347076 132.0
135.551514 156.0
135.706863 188.0
135.750275 188.0
135.861618 68.0
135.877853 140.0
135.979965 164.0
135.99852 56.0
136.05191 132.0
136.105316 144.0
136.135513 208.0
136.229507 220.0
136.281845 108.0
136.379456 152.0
136.404785 156.0
136.493378 212.0
136.542206 152.0
136.572449 140.0
136.76091 100.0
136.840057 84.0
136.879654 144.0
136.949509 168.0
137.024063 108.0
137.06134 196.0
137.30397 152.0
137.36676 172.0
137.427414 132.0
137.497421 100.0
137.588455 172.0
137.77063 208.0
137.805664 116.0
137.873428 164.0
137.927185 152.0
137.999664 200.0
138.228897 104.0
138.273361 152.0
138.301453 172.0
138.378693 164.0
138.441925 164.0
138.462997 224.0
138.692612 128.0
138.711365 132.0
139.091385 140.0
139.401398 80.0
139.530685 168.0
139.549484 148.0
139.615326 104.0
139.700012 56.0
139.75177 168.0
139.874146 176.0
139.90004 48.0
140.087402 256.0
140.107285 156.0
140.210953 220.0
140.258102 184.0
140.314682 212.0
140.463242 148.0
140.482117 128.0
140.513062 156.0
140.692154 72.0
140.742157 204.0
140.824387 60.0
140.902344 208.0
141.018143 104.0
141.155258 120.0
141.228577 216.0
141.261688 176.0
141.309006 196.0
141.363419 212.0
141.436798 228.0
141.505447 184.0
141.590698 52.0
141.728088 208.0
141.747055 176.0
141.844223 148.0
141.898743 128.0
142.022339 120.0
142.060013 120.0
142.095596 156.0
142.176285 72.0
142.22612 60.0
142.278351 124.0
142.494476 32.0
142.632309 132.0
142.656082 72.0
142.725113 220.0
142.787354 132.0
142.867737 244.0
142.883163 188.0
143.174789 160.0
143.23909 68.0
143.312958 216.0
143.420197 304.0
143.537018 140.0
143.622406 124.0
143.755539 172.0
143.851944 100.0
143.949844 224.0
144.044617 720.0
144.079529 188.0
144.114655 44.0
144.212631 108.0
144.234146 176.0
144.480469 112.0
144.504379 192.0
144.566605 160.0
144.602493 84.0
144.677505 204.0
144.782059 172.0
144.841934 92.0
144.897034 124.0
144.95694 148.0
145.026443 132.0
145.055161 188.0
145.112747 192.0
145.134323 112.0
145.178345 156.0
145.405396 132.0
145.551834 152.0
145.578247 140.0
145.645508 108.0
145.741592 168.0
145.775238 96.0
145.808884 92.0
145.84494 160.0
145.926666 220.0
145.948318 156.0
146.023697 7852.0
146.143143 80.0
146.316437 104.0
146.3694 176.0
146.420654 156.0
146.444061 252.0
146.574158 40.0
146.630096 152.0
146.687439 80.0
146.741119 132.0
146.815216 132.0
146.853806 32.0
147.02739 688.0
147.057785 192.0
147.138565 84.0
147.237564 196.0
147.515427 132.0
147.554108 164.0
147.616974 168.0
147.716141 120.0
147.766953 96.0
147.817764 156.0
147.844376 124.0
147.921829 44.0
147.955719 96.0
148.038757 260.0
148.060211 184.0
148.132507 192.0
148.166428 200.0
148.234268 112.0
148.265778 200.0
148.329926 180.0
148.348129 196.0
148.425766 120.0
148.615616 164.0
148.862564 208.0
148.923279 44.0
149.019379 128.0
149.030594 196.0
149.054459 128.0
149.248932 100.0
149.445999 204.0
149.538422 152.0
149.560318 132.0
149.623611 152.0
149.645523 180.0
149.828201 112.0
149.923218 168.0
149.942719 144.0
149.996338 160.0
150.147522 52.0
150.186539 68.0
150.293884 128.0
150.352448 100.0
150.381729 120.0
150.467178 40.0
150.540421 164.0
150.704086 148.0
150.738297 144.0
150.814056 168.0
150.831177 132.0
150.858063 144.0
150.938751 216.0
151.25827 180.0
151.34494 68.0
151.460037 100.0
151.570282 216.0
151.60704 128.0
151.624191 140.0
151.685471 156.0
151.907394 128.0
152.031311 216.0
152.141769 192.0
152.200684 160.0
152.237518 300.0
152.266998 200.0
152.311203 60.0
152.39473 112.0
152.411926 32.0
152.434052 232.0
152.473373 204.0
152.49057 128.0
152.578476 184.0
152.893921 204.0
153.17215 176.0
153.234863 148.0
153.268234 160.0
153.312592 112.0
153.411179 136.0
153.522141 176.0
153.556656 120.0
153.818207 104.0
153.847839 148.0
153.864441 132.0
153.907089 196.0
153.961411 156.0
154.015747 88.0
154.183762 160.0
154.299942 196.0
154.572388 164.0
154.777481 240.0
154.893875 52.0
154.921127 124.0
154.980591 176.0
155.017761 116.0
155.109467 120.0
155.144165 132.0
155.176392 168.0
155.335114 144.0
155.364655 212.0
155.449249 36.0
155.501358 140.0
155.593216 200.0
155.695023 172.0
156.066071 176.0
156.157288 112.0
156.209518 120.0
156.301575 92.0
156.326462 192.0
156.345749 160.0
156.421036 172.0
156.51416 100.0
156.70993 92.0
156.764755 96.0
156.829559 244.0
156.866943 148.0
156.93425 72.0
157.006577 420.0
157.061447 148.0
157.081406 332.0
157.225143 216.0
157.435822 92.0
157.473282 124.0
157.590698 92.0
157.640671 176.0
157.695648 160.0
157.785645 208.0
157.855652 176.0
157.890671 100.0
157.966064 196.0
158.023239 140.0
158.05806 180.0
158.220963 168.0
158.316116 112.0
158.438858 192.0
158.526962 168.0
158.679443 116.0
158.704529 176.0
158.727097 160.0
158.752167 200.0
158.865036 48.0
158.962891 236.0
158.990494 80.0
159.055435 128.0
159.078339 172.0
159.211426 128.0
159.258362 128.0
159.342041 132.0
159.555222 200.0
159.673859 160.0
159.736191 148.0
159.829819 108.0
159.859024 252.0
159.907837 140.0
160.225113 124.0
160.404053 184.0
160.472107 128.0
160.578033 108.0
160.734436 268.0
160.833954 148.0
160.878296 144.0
160.946472 128.0
160.989395 88.0
161.009598 164.0
161.062637 180.0
161.115692 104.0
161.183914 224.0
161.259735 168.0
161.315338 132.0
161.350723 132.0
161.58847 164.0
161.621368 148.0
161.730179 180.0
161.82132 196.0
161.844101 64.0
161.932739 184.0
162.08728 84.0
162.196259 156.0
162.241882 168.0
162.340775 80.0
162.381348 80.0
162.510727 104.0
162.612228 156.0
162.65538 160.0
162.919479 80.0
163.051666 136.0
163.148209 132.0
163.282974 124.0
163.352692 136.0
163.389816 68.0
163.438431 256.0
163.603592 192.0
163.65451 52.0
163.685059 168.0
163.840439 300.0
163.942352 80.0
163.973816 128.0
164.051956 196.0
164.227905 80.0
164.268723 84.0
164.393738 176.0
164.447327 44.0
164.475845 140.0
164.654144 160.0
164.763977 180.0
164.877808 196.0
165.001663 104.0
165.034897 120.0
165.080917 152.0
165.11673 116.0
165.160202 124.0
165.306046 264.0
165.35466 256.0
165.385376 100.0
165.457062 144.0
165.751602 148.0
165.907959 60.0
165.936157 56.0
166.06694 136.0
166.138763 200.0
166.277328 68.0
166.359467 184.0
166.451889 132.0
166.475006 216.0
166.613708 140.0
166.726776 176.0
166.803879 68.0
166.827011 132.0
166.850143 192.0
166.955582 160.0
167.062408 176.0
167.109909 180.0
167.158798 52.0
167.197403 96.0
167.230865 60.0
167.36731 152.0
167.460022 64.0
167.520935 172.0
167.612015 136.0
167.635208 96.0
167.673859 188.0
167.743454 140.0
167.776962 80.0
167.851746 148.0
167.887848 168.0
168.021973 172.0
168.06842 168.0
168.163208 180.0
168.197464 144.0
168.21553 64.0
168.280655 124.0
168.31105 184.0
168.339462 184.0
168.509933 284.0
168.569366 72.0
168.639145 116.0
168.675339 52.0
168.696014 52.0
168.802017 128.0
169.065887 120.0
169.169418 152.0
169.251373 208.0
169.519089 172.0
169.734238 140.0
169.944336 268.0
170.027374 108.0
170.058563 320.0
170.14418 128.0
170.235062 32.0
170.344147 60.0
170.367538 164.0
170.424698 136.0
170.479263 108.0
170.552032 132.0
170.734039 180.0
170.757446 200.0
170.783447 280.0
170.817261 84.0
170.905716 204.0
170.926529 144.0
171.059387 176.0
171.095718 36.0
171.155609 144.0
171.228516 172.0
171.251953 112.0
171.291031 124.0
171.382217 168.0
171.481247 128.0
171.525558 148.0
171.58551 128.0
171.833282 188.0
171.908951 112.0
171.945496 120.0
171.968979 120.0
172.117783 128.0
172.151733 144.0
172.271881 44.0
172.458878 56.0
172.622116 48.0
172.658722 124.0
172.690109 40.0
172.805222 152.0
172.962234 184.0
173.087906 200.0
173.125 216.0
173.258148 200.0
173.332825 120.0
173.45993 124.0
173.598892 172.0
173.727417 208.0
173.863861 156.0
173.887482 48.0
173.908478 164.0
174.121155 128.0
174.228851 176.0
174.305038 180.0
174.338287 208.0
174.614502 140.0
174.749405 100.0
174.791519 196.0
174.825104 224.0
174.888885 168.0
174.978088 140.0
175.031387 156.0
175.057388 152.0
175.163071 124.0
175.2444 192.0
175.352448 152.0
175.386719 192.0
175.471069 88.0
175.502716 192.0
175.623215 336.0
175.65831 100.0
175.713715 120.0
175.766479 148.0
175.795517 156.0
175.819962 152.0
175.848297 168.0
175.93541 156.0
176.10704 120.0
176.306717 156.0
176.627762 200.0
176.691254 284.0
176.812973 52.0
176.854736 144.0
176.887085 176.0
176.924149 128.0
176.942688 140.0
177.149246 148.0
177.224625 236.0
177.334732 184.0
177.38356 192.0
177.45137 192.0
177.526672 244.0
177.581314 112.0
177.631714 48.0
177.731171 180.0
177.780289 136.0
177.812149 152.0
177.905045 52.0
178.082962 172.0
178.104202 176.0
178.162643 100.0
178.290192 48.0
178.388535 192.0
178.425751 48.0
178.516159 176.0
178.683182 148.0
178.715668 88.0
178.768875 216.0
178.830093 92.0
178.93924 116.0
178.95787 236.0
178.997818 120.0
179.02977 200.0
179.048416 164.0
179.073471 136.0
179.146973 236.0
179.264206 136.0
179.314835 156.0
179.426788 140.0
179.485458 184.0
179.802902 152.0
179.861633 220.0
179.890991 64.0
179.955063 140.0
179.989777 188.0
180.016479 96.0
180.107285 180.0
180.19812 164.0
180.393204 168.0
180.540268 72.0
180.885422 116.0
180.984482 112.0
181.099625 152.0
181.196075 152.0
181.268417 92.0
181.375626 84.0
181.397064 148.0
181.418182 232.0
181.442642 152.0
181.508331 160.0
181.619629 76.0
181.663696 232.0
181.705475 260.0
181.751083 164.0
181.912109 172.0
182.057098 152.0
182.159164 168.0
182.180664 252.0
182.202148 368.0
182.269318 68.0
182.331131 144.0
182.366074 156.0
182.470917 144.0
182.554276 152.0
182.68338 184.0
182.785614 216.0
182.836746 116.0
182.922882 132.0
182.987488 248.0
183.011719 176.0
183.278381 224.0
183.326889 148.0
183.396957 140.0
183.696274 164.0
183.790695 140.0
183.871658 180.0
183.917542 124.0
183.941833 204.0
184.066498 500.0
184.090332 216.0
184.120041 220.0
184.14975 80.0
184.22966 236.0
184.328049 168.0
184.557816 144.0
184.598877 128.0
184.661743 148.0
184.936554 188.0
184.994659 148.0
185.065491 140.0
185.096283 152.0
185.126068 116.0
185.192657 192.0
185.600281 56.0
185.632828 104.0
185.668076 164.0
185.706055 176.0
185.763016 160.0
185.944809 112.0
186.175583 140.0
186.227173 108.0
186.324966 280.0
186.40921 220.0
186.449966 208.0
186.623947 40.0
186.678329 128.0
186.71463 180.0
186.743607 132.0
186.83609 132.0
187.039307 112.0
187.089188 224.0
187.119125 92.0
187.279678 184.0
187.339722 196.0
187.432358 388.0
187.601349 84.0
187.808594 108.0
187.947723 124.0
187.988647 152.0
188.070526 88.0
188.15242 72.0
188.182465 72.0
188.239792 52.0
188.390015 168.0
188.480179 156.0
188.67894 144.0
188.753525 188.0
188.867126 284.0
189.030136 560.0
189.070862 168.0
189.090027 216.0
189.117386 204.0
189.174881 56.0
189.391205 112.0
189.532166 176.0
189.720032 132.0
189.887299 132.0
189.9888 168.0
190.02446 116.0
190.051895 140.0
190.156174 184.0
190.230804 148.0
190.452713 124.0
190.496658 156.0
190.707382 128.0
191.068481 152.0
191.3396 204.0
191.396011 112.0
191.577789 188.0
191.770676 172.0
191.858032 192.0
192.029861 232.0
192.085022 184.0
192.187103 104.0
192.222977 120.0
192.336136 176.0
192.357193 292.0
192.521118 184.0
192.545975 148.0
192.692368 72.0
192.739349 112.0
192.802902 116.0
192.949402 140.0
193.033829 160.0
193.083755 584.0
193.173416 176.0
193.248108 224.0
193.314514 88.0
193.397552 112.0
193.455673 184.0
193.577499 200.0
193.691055 204.0
193.740921 180.0
193.799103 252.0
193.88501 136.0
193.970932 84.0
194.045776 184.0
194.095886 1092.0
194.156693 148.0
194.348099 120.0
194.470215 160.0
194.539612 128.0
194.720093 56.0
194.792313 252.0
195.006271 184.0
195.057495 128.0
195.094131 492.0
195.156387 128.0
195.270401 168.0
195.490189 140.0
195.68782 84.0
195.738953 188.0
195.76857 96.0
195.8396 164.0
195.912979 156.0
195.96077 120.0
196.014084 148.0
196.080597 96.0
196.105682 92.0
196.200455 120.0
196.313248 212.0
196.764008 176.0
196.939941 348.0
196.993011 164.0
197.086319 152.0
197.14389 156.0
197.21376 188.0
197.264084 208.0
197.339569 144.0
197.3871 112.0
197.507355 48.0
197.546524 228.0
197.633255 84.0
197.82077 156.0
197.918747 164.0
197.955154 164.0
198.005569 124.0
198.025177 192.0
198.065536 156.0
198.212875 136.0
198.243698 200.0
198.433029 176.0
198.467651 188.0
198.524033 136.0
198.588531 140.0
198.633423 140.0
198.717575 176.0
198.737228 196.0
198.759674 176.0
198.787735 140.0
198.880341 156.0
198.950531 176.0
198.972977 168.0
199.001053 152.0
199.048798 132.0
199.20607 108.0
199.262268 108.0
199.369049 56.0
199.503967 128.0
199.593933 196.0
199.622055 132.0
199.644547 164.0
199.880844 112.0
199.920242 200.0
199.939941 136.0
200.328506 72.0
200.360123 144.0
200.432755 68.0
200.50885 132.0
200.652603 36.0
200.675156 124.0
200.756943 180.0
200.87056 220.0
200.973312 164.0
200.981339 116.0
201.035446 188.0
201.062927 176.0
201.109604 156.0
201.19429 120.0
201.239456 64.0
201.406082 112.0
201.431503 56.0
201.491364 148.0
201.671677 116.0
201.779099 36.0
201.830002 108.0
201.861099 172.0
201.895035 184.0
202.027985 144.0
202.076172 124.0
202.186432 152.0
202.27417 108.0
202.321274 176.0
202.441223 176.0
202.472382 164.0
202.509399 164.0
202.636673 104.0
202.675201 60.0
202.790527 192.0
202.956955 192.0
202.99382 136.0
203.040771 172.0
203.101135 172.0
203.178177 192.0
203.198044 140.0
203.311539 116.0
203.337082 132.0
203.377747 148.0
203.436432 120.0
203.513092 184.0
203.771561 208.0
203.862488 196.0
203.993637 192.0
204.047241 136.0
204.079483 440.0
204.183731 116.0
204.249161 124.0
204.283295 208.0
204.399948 60.0
204.559326 128.0
204.579254 128.0
204.604874 176.0
204.676056 132.0
204.715927 112.0
204.975143 80.0
205.026443 172.0
205.085999 156.0
205.154709 96.0
205.322937 36.0
205.434189 180.0
205.468414 216.0
205.519775 92.0
205.679596 192.0
205.719559 248.0
205.805206 200.0
205.833755 116.0
206.025131 128.0
206.08226 152.0
206.35379 28.0
206.428131 196.0
206.453873 176.0
206.585449 108.0
206.76857 196.0
206.845856 136.0
206.911697 216.0
206.943192 80.0
207.017639 212.0
207.073044 200.0
207.112991 192.0
207.149399 100.0
207.189056 152.0
207.295517 164.0
207.467392 116.0
207.573578 156.0
207.651001 196.0
207.808472 144.0
207.871902 196.0
207.914963 152.0
208.074844 120.0
208.314072 112.0
208.368408 96.0
208.515198 44.0
208.658936 156.0
208.704926 180.0
208.810059 244.0
208.837219 56.0
208.874619 164.0
209.021347 104.0
209.063034 188.0
209.072144 92.0
209.082962 156.0
209.194031 168.0
209.458954 92.0
209.484879 180.0
209.626068 56.0
209.675049 112.0
209.868195 212.0
209.969193 172.0
210.018158 180.0
210.110474 72.0
210.287292 216.0
210.361542 236.0
210.514572 160.0
210.682098 112.0
210.771667 72.0
210.921951 156.0
210.942184 220.0
211.092529 136.0
211.112762 148.0
211.173187 144.0
211.234238 212.0
211.266068 132.0
211.292099 136.0
211.335495 128.0
211.448364 192.0
211.57283 192.0
211.659683 172.0
211.679962 196.0
211.795807 160.0
211.885605 180.0
211.966736 256.0
212.033386 188.0
212.17543 164.0
212.256607 264.0
212.282715 164.0
212.320419 220.0
212.358124 144.0
212.378418 144.0
212.833282 228.0
212.915359 156.0
212.938599 132.0
212.979752 164.0
213.008301 136.0
213.037354 164.0
213.2146 156.0
213.281448 240.0
213.389008 132.0
213.458801 140.0
213.490387 144.0
213.59549 176.0
213.895203 80.0
214.032043 184.0
214.061157 160.0
214.171829 140.0
214.311676 124.0
214.332062 248.0
214.419495 212.0
214.44281 112.0
214.486526 192.0
214.60022 168.0
214.643967 108.0
214.677536 180.0
214.716873 160.0
214.848129 156.0
214.950256 160.0
215.042175 136.0
215.063522 148.0
215.10054 220.0
215.186676 152.0
215.248001 172.0
215.396942 136.0
215.446609 116.0
215.548874 124.0
215.604401 120.0
215.633621 132.0
215.693359 128.0
215.764801 164.0
215.847031 108.0
215.955246 172.0
216.025436 184.0
216.057617 180.0
216.079132 168.0
216.139542 208.0
216.180298 160.0
216.293121 160.0
216.397125 84.0
216.523041 184.0
216.584549 164.0
216.613846 164.0
216.80722 76.0
216.889282 116.0
216.936188 128.0
216.98819 168.0
217.089188 5412.0
217.18544 152.0
217.223892 148.0
217.24649 172.0
217.284851 248.0
217.319199 128.0
217.381058 124.0
217.414093 176.0
217.443634 128.0
217.478851 176.0
217.546494 196.0
217.571472 80.0
217.63739 204.0
217.728424 156.0
217.763351 228.0
217.780472 144.0
217.848846 112.0
217.896759 300.0
217.952026 148.0
218.005905 300.0
218.018738 156.0
218.055038 588.0
218.097733 98748.0
218.191116 64.0
218.245667 156.0
218.291565 140.0
218.31308 120.0
218.324554 64.0
218.378601 136.0
218.415634 104.0
218.440643 76.0
218.479263 36.0
218.518524 188.0
218.547379 88.0
218.581406 684.0
218.615158 160.0
218.649719 76.0
218.679214 148.0
218.71022 56.0
218.756638 216.0
218.780014 132.0
218.841049 192.0
218.869415 208.0
218.893951 24.0
218.920944 176.0
219.010666 104.0
219.040024 168.0
219.101028 21140.0
219.147629 88.0
219.159546 56.0
219.213089 232.0
219.256271 192.0
219.307419 272.0
219.32901 108.0
219.359772 88.0
219.386673 108.0
219.426285 84.0
219.50975 196.0
219.567825 36.0
219.603226 44.0
219.693619 124.0
219.747772 116.0
219.788345 48.0
219.828842 168.0
219.859894 144.0
219.89093 132.0
219.926956 72.0
219.946228 84.0
219.998627 108.0
220.018723 84.0
220.105591 2328.0
220.157806 140.0
220.227737 136.0
220.308212 72.0
220.339966 88.0
220.390289 72.0
220.411621 256.0
220.457932 80.0
220.533295 116.0
220.562851 144.0
220.61409 72.0
220.636749 100.0
220.687012 108.0
220.732086 132.0
220.766418 168.0
220.828964 48.0
220.857635 104.0
220.893219 144.0
220.930695 100.0
221.00856 316.0
221.049362 144.0
221.083923 340.0
221.112762 368.0
221.192047 96.0
221.292542 104.0
221.423859 116.0
221.47084 116.0
221.50383 144.0
221.545303 308.0
221.595673 240.0
221.625305 52.0
221.672714 140.0
221.693451 132.0
221.732635 128.0
221.796158 136.0
221.85614 108.0
221.903915 192.0
221.930099 48.0
221.962021 228.0
221.98378 188.0
221.992874 188.0
222.029617 144.0
222.09198 42852.0
222.150589 112.0
222.191101 120.0
222.220123 156.0
222.256866 184.0
222.298416 300.0
222.363235 184.0
222.424301 48.0
222.520386 92.0
222.530457 84.0
222.579651 68.0
222.607147 64.0
222.642776 124.0
222.67984 92.0
222.715164 108.0
222.769043 100.0
222.81926 204.0
222.886383 216.0
222.918198 152.0
222.969589 100.0
223.033661 92.0
223.055786 56.0
223.095276 7276.0
223.153091 60.0
223.173706 132.0
223.210388 96.0
223.249039 52.0
223.320831 148.0
223.362061 136.0
223.394775 140.0
223.422668 96.0
223.442169 56.0
223.450119 140.0
223.497253 108.0
223.571106 264.0
223.595016 96.0
223.70932 212.0
223.829315 148.0
224.022919 48.0
224.054977 140.0
224.097855 756.0
224.159973 88.0
224.204666 152.0
224.234467 76.0
224.321991 232.0
224.357498 176.0
224.376511 136.0
224.439331 112.0
224.513596 168.0
224.539459 68.0
224.56543 208.0
224.625076 132.0
224.657074 80.0
224.708527 92.0
224.750381 128.0
224.771271 48.0
224.79216 72.0
224.843842 76.0
224.865692 144.0
224.942413 116.0
224.983719 308.0
225.101807 264.0
225.13829 152.0
225.234024 72.0
225.293777 140.0
225.347549 96.0
225.434204 92.0
225.553757 160.0
225.580658 64.0
225.625 160.0
225.783981 104.0
225.891663 220.0
225.911575 128.0
225.991531 156.0
226.035263 136.0
226.092133 136.0
226.157974 344.0
226.193893 120.0
226.226822 152.0
226.289688 84.0
226.419617 164.0
226.475357 108.0
226.661102 48.0
226.789978 32.0
226.828735 120.0
226.996841 32.0
227.086807 148.0
227.243988 152.0
227.344818 128.0
227.515915 80.0
227.539932 196.0
227.58197 64.0
227.648026 124.0
228.077667 192.0
228.200912 148.0
228.297134 172.0
228.324203 224.0
228.396393 132.0
228.450531 164.0
228.537781 52.0
228.619034 92.0
228.700302 56.0
228.721359 264.0
228.950195 100.0
229.036423 152.0
229.058624 164.0
229.088058 440.0
229.182144 104.0
229.209259 164.0
229.305695 220.0
229.339783 156.0
229.399139 144.0
229.4534 180.0
229.62529 140.0
229.764038 88.0
229.884735 48.0
230.035645 100.0
230.096771 1168.0
230.21077 196.0
230.296265 220.0
230.374908 164.0
230.576324 88.0
230.597473 132.0
230.635651 76.0
230.659256 136.0
230.754669 144.0
230.821182 84.0
230.866547 68.0
230.984512 132.0
231.008713 288.0
231.062469 156.0
231.104294 10056.0
231.166031 184.0
231.199326 116.0
231.220505 112.0
231.337173 76.0
231.362778 120.0
231.383972 132.0
231.414246 168.0
231.53537 156.0
231.588089 228.0
231.652832 108.0
231.735565 136.0
231.77037 160.0
231.827484 104.0
231.862579 108.0
231.891571 152.0
231.959045 184.0
232.023636 88.0
232.113098 45664.0
232.171127 220.0
232.196075 124.0
232.226395 32.0
232.27887 148.0
232.320358 172.0
232.376816 48.0
232.398438 96.0
232.481247 52.0
232.523727 112.0
232.55484 64.0
232.602875 160.0
232.616821 72.0
232.622482 120.0
232.66391 44.0
232.694092 132.0
232.737885 88.0
232.781784 40.0
232.836716 296.0
232.872894 252.0
232.927567 140.0
232.96402 88.0
233.00058 240.0
233.039978 240.0
233.072906 136.0
233.119598 41012.0
233.193878 68.0
233.219269 60.0
233.249191 76.0
233.279083 100.0
233.301346 84.0
233.343903 124.0
233.382339 100.0
233.404724 148.0
233.468582 56.0
233.506714 52.0
233.539551 84.0
233.565903 208.0
233.636154 148.0
233.682877 44.0
233.714981 68.0
233.766815 116.0
233.801865 132.0
233.824539 72.0
233.84584 152.0
233.925278 120.0
233.973679 68.0
234.00708 120.0
234.044586 56.0
234.082199 200.0
234.12413 5984.0
234.181473 132.0
234.246338 68.0
234.308701 68.0
234.38446 60.0
234.412842 56.0
234.444519 104.0
234.532852 72.0
234.604309 68.0
234.648193 184.0
234.704193 116.0
234.78894 80.0
234.816132 60.0
234.852524 180.0
234.909271 120.0
234.93367 88.0
234.967224 48.0
235.037415 180.0
235.058502 160.0
235.124649 844.0
235.186951 124.0
235.208313 172.0
235.238846 60.0
235.394119 112.0
235.425095 148.0
235.494324 104.0
235.535049 64.0
235.562531 60.0
235.590027 132.0
235.663361 104.0
235.710464 84.0
235.764191 68.0
235.87117 112.0
235.892563 68.0
235.926193 92.0
235.981232 108.0
236.033203 96.0
236.091309 36.0
236.12674 116.0
236.244247 192.0
236.265656 88.0
236.412521 84.0
236.470673 112.0
236.559448 140.0
236.660477 164.0
236.746216 112.0
236.789093 128.0
236.822784 68.0
236.922241 104.0
237.000473 80.0
237.067886 248.0
237.096588 152.0
237.208878 64.0
237.405106 52.0
237.546188 80.0
237.644363 160.0
237.702667 48.0
237.72496 164.0
237.799911 176.0
237.865326 152.0
238.081451 164.0
238.157028 172.0
238.339661 144.0
238.384384 92.0
238.412048 236.0
238.611847 136.0
238.639511 212.0
238.845566 44.0
239.085541 176.0
239.134796 108.0
239.159409 272.0
239.215515 204.0
239.276398 160.0
239.356445 164.0
239.384155 156.0
239.530121 208.0
239.920288 160.0
239.966537 192.0
240.136139 104.0
240.172516 136.0
240.256439 72.0
240.336655 44.0
240.873856 144.0
240.904739 152.0
241.000519 136.0
241.056137 176.0
241.167389 64.0
241.396179 136.0
241.504425 144.0
241.63063 200.0
241.903595 136.0
241.95546 212.0
242.005753 92.0
242.092453 424.0
242.131943 144.0
242.176086 156.0
242.290695 140.0
242.464218 104.0
242.501419 124.0
242.523117 140.0
242.606812 168.0
242.662613 180.0
242.749435 60.0
242.805252 132.0
242.826965 176.0
242.870392 204.0
242.920013 220.0
243.0224 128.0
243.103943 236.0
243.137222 48.0
243.228821 156.0
243.4104 168.0
243.49115 144.0
243.555374 200.0
243.740891 204.0
243.835999 140.0
243.86087 168.0
244.038055 200.0
244.112991 33136.0
244.18367 172.0
244.230881 32.0
244.255753 76.0
244.277267 48.0
244.312408 96.0
244.364639 160.0
244.408951 116.0
244.444656 100.0
244.474167 188.0
244.545135 48.0
244.588715 60.0
244.613617 128.0
244.700775 48.0
244.746384 68.0
244.787964 92.0
244.840912 80.0
244.865829 64.0
244.943695 80.0
244.968613 52.0
244.99353 36.0
245.022095 48.0
245.062073 144.0
245.115585 8684.0
245.171143 104.0
245.510468 128.0
245.660675 224.0
245.738663 124.0
245.779221 104.0
245.841629 68.0
245.935272 32.0
245.971481 88.0
245.993057 140.0
246.033798 120.0
246.091705 2520.0
246.152878 320.0
246.239594 68.0
246.369324 196.0
246.422424 196.0
246.472427 68.0
246.599319 112.0
246.64119 56.0
246.710236 44.0
246.780548 236.0
246.834442 64.0
246.845596 72.0
246.92572 100.0
246.96637 160.0
246.991394 176.0
247.041443 100.0
247.090271 1520.0
247.12413 432.0
247.191635 140.0
247.36377 204.0
247.457687 72.0
247.488998 52.0
247.61113 72.0
247.631149 56.0
247.67691 108.0
247.824142 68.0
247.855484 44.0
247.921295 60.0
248.037262 88.0
248.085449 160.0
248.187744 104.0
248.247314 44.0
248.353958 40.0
248.507675 184.0
248.598663 160.0
248.739914 32.0
248.868622 48.0
248.928284 144.0
249.101028 128.0
249.137634 172.0
249.198425 172.0
249.251831 128.0
249.298965 132.0
249.324112 92.0
249.424698 236.0
249.549103 216.0
249.720108 172.0
249.761139 208.0
249.839096 72.0
249.89711 244.0
249.99939 188.0
250.039764 152.0
250.087067 37500.0
250.179672 84.0
250.210815 268.0
250.246689 160.0
250.300308 76.0
250.348022 196.0
250.431259 76.0
250.475677 152.0
250.516632 72.0
250.560745 64.0
250.585938 48.0
250.629379 56.0
250.647766 116.0
250.696228 40.0
250.734055 104.0
250.787628 60.0
250.822296 160.0
250.901108 40.0
250.942093 104.0
250.970474 152.0
251.090469 7512.0
251.149445 48.0
251.197556 196.0
251.257492 60.0
251.301666 44.0
251.330063 56.0
251.519409 184.0
251.579391 140.0
251.619217 108.0
251.696213 96.0
251.748367 124.0
252.092438 840.0
252.151123 184.0
252.202713 108.0
252.268066 92.0
252.309174 76.0
252.331299 40.0
252.359756 36.0
252.399567 88.0
252.440323 92.0
252.60643 100.0
252.660217 52.0
252.695114 140.0
252.71788 124.0
252.785797 80.0
252.862732 152.0
252.916534 104.0
252.951355 36.0
253.011932 84.0
253.036835 52.0
253.065338 52.0
253.09845 148.0
253.107483 216.0
253.153992 84.0
253.396652 68.0
253.585434 44.0
253.627335 120.0
253.803604 108.0
253.959 160.0
254.025604 96.0
254.108093 180.0
254.18425 120.0
254.260406 156.0
254.428635 116.0
254.466736 68.0
255.088425 168.0
255.175247 76.0
255.229309 112.0
255.299271 116.0
255.385132 104.0
255.6492 160.0
255.693756 172.0
256.037598 268.0
256.09848 252.0
256.155457 112.0
256.321106 148.0
256.891815 64.0
257.006683 228.0
257.079102 248.0
257.300323 100.0
257.447205 148.0
257.55899 108.0
257.868927 80.0
258.087463 348.0
258.668579 128.0
258.924713 108.0
259.083282 340.0
259.122009 1704.0
259.168182 128.0
259.27713 100.0
259.527161 124.0
259.876801 80.0
259.928131 148.0
260.05603 160.0
260.122467 352.0
260.335815 52.0
260.700623 208.0
260.988129 156.0
261.101532 436.0
261.261505 84.0
261.306549 128.0
261.341949 176.0
261.457794 68.0
261.538269 88.0
261.760406 52.0
261.81192 92.0
261.85379 96.0
262.101288 140.0
262.343567 124.0
262.41449 80.0
262.543488 52.0
262.653137 120.0
262.682892 92.0
262.786743 136.0
262.862854 88.0
263.09201 292.0
263.121063 156.0
263.851227 136.0
264.106689 120.0
264.579163 152.0
264.731323 164.0
265.006683 56.0
265.236755 136.0
265.340515 68.0
265.38913 92.0
265.63562 144.0
265.752411 84.0
265.921143 124.0
266.411469 108.0
266.593445 76.0
266.664917 84.0
266.733185 92.0
266.775452 204.0
267.045349 64.0
267.614838 76.0
267.738586 164.0
268.121796 172.0
268.23056 128.0
268.43924 180.0
268.475098 144.0
268.540314 160.0
268.850281 148.0
268.905762 120.0
269.006927 104.0
269.039581 132.0
269.114105 116.0
269.219177 108.0
269.614471 128.0
269.728851 132.0
270.098663 132.0
270.160522 164.0
270.733307 108.0
270.769348 148.0
270.897095 92.0
270.997162 176.0
271.037964 76.0
271.088501 544.0
271.273956 56.0
271.506744 128.0
271.621552 200.0
271.693695 80.0
271.843964 284.0
271.880737 140.0
271.975922 108.0
272.01532 148.0
272.050171 180.0
272.10733 14512.0
272.221222 112.0
272.264862 120.0
272.330536 56.0
272.407715 80.0
272.591461 152.0
272.637329 92.0
272.685394 60.0
272.793854 112.0
272.839874 140.0
273.004272 36.0
273.109863 2980.0
273.249969 100.0
273.32666 40.0
273.418793 76.0
273.529999 168.0
273.613007 76.0
273.975281 60.0
274.088379 1408.0
274.156494 108.0
274.222412 192.0
274.37735 68.0
274.453186 72.0
274.496063 80.0
274.614777 108.0
274.665436 180.0
274.703827 52.0
274.765442 148.0
274.835815 164.0
275.017303 80.0
275.084412 432.0
275.104248 428.0
275.149353 36.0
275.185669 36.0
275.261627 124.0
275.337585 92.0
275.492828 52.0
275.591919 156.0
275.753845 124.0
275.8927 52.0
276.093323 128.0
276.323151 100.0
276.680054 44.0
276.786011 208.0
277.097382 112.0
277.239838 40.0
277.929596 128.0
278.387695 120.0
278.507263 104.0
278.985748 56.0
279.205231 104.0
279.235138 40.0
279.354889 120.0
279.827484 308.0
280.317108 108.0
280.79718 112.0
281.067383 156.0
281.301025 132.0
281.524841 128.0
281.668335 128.0
281.775238 188.0
281.897461 152.0
281.952332 76.0
282.343689 140.0
282.473938 68.0
282.945801 144.0
283.09314 176.0
283.558807 92.0
283.706299 108.0
283.843781 112.0
283.914185 92.0
284.138916 180.0
284.833832 48.0
284.921173 84.0
285.072388 136.0
285.102386 116.0
285.179749 144.0
285.22699 76.0
286.102081 144.0
286.391205 72.0
286.576508 128.0
286.805664 48.0
287.118774 8780.0
287.203552 28.0
287.27887 148.0
287.456573 132.0
287.483582 76.0
287.588196 44.0
287.750244 56.0
287.892059 168.0
287.944824 172.0
288.12262 1556.0
288.452911 64.0
288.922974 52.0
289.05957 140.0
289.096313 268.0
289.126678 548.0
289.349396 136.0
289.488251 80.0
289.715179 64.0
289.796478 96.0
289.94519 176.0
290.11142 168.0
290.172699 60.0
290.213379 168.0
290.684875 76.0
290.973389 52.0
291.090973 108.0
291.245056 128.0
291.28241 52.0
291.309601 44.0
291.6698 60.0
292.261566 144.0
292.455536 224.0
292.595093 200.0
293.088959 180.0
293.131439 84.0
293.470734 120.0
293.825439 60.0
294.224731 40.0
294.573059 88.0
295.00708 56.0
295.475586 128.0
296.177368 80.0
296.413757 124.0
296.948578 136.0
296.972565 132.0
297.106354 144.0
297.20929 120.0
297.286926 192.0
297.552521 164.0
297.607452 108.0
298.081482 156.0
298.108948 136.0
298.397705 124.0
298.696899 112.0
299.079834 1828.0
299.230316 160.0
299.316376 124.0
299.684937 84.0
300.082428 860.0
300.319275 72.0
300.567657 48.0
301.091492 140.0
301.387756 200.0
301.683228 180.0
301.721252 60.0
302.077454 156.0
302.105133 116.0
302.409637 64.0
302.548096 180.0
302.655426 160.0
302.773163 116.0
302.970612 116.0
303.098816 80.0
303.123077 84.0
303.324097 68.0
303.729797 176.0
304.715698 56.0
304.951996 128.0
305.092407 248.0
305.237091 136.0
305.605774 116.0
305.773804 172.0
306.086121 108.0
306.120941 172.0
306.166229 184.0
306.633087 104.0
306.971222 140.0
307.10376 136.0
307.18399 116.0
307.634155 88.0
308.199951 176.0
308.563446 164.0
308.927155 104.0
309.182587 148.0
309.564178 124.0
309.926605 156.0
310.005554 172.0
310.636688 104.0
311.359741 140.0
311.907837 140.0
312.104736 60.0
312.189117 104.0
312.632385 84.0
312.737976 116.0
312.987915 96.0
313.111176 228.0
313.230927 136.0
313.280243 124.0
313.579742 92.0
313.988739 176.0
314.087036 412.0
314.517975 216.0
314.563873 36.0
314.66626 260.0
315.065338 64.0
315.108643 272.0
315.355103 132.0
316.027008 48.0
316.094238 100.0
316.122528 160.0
316.589844 204.0
316.717346 144.0
316.89801 84.0
317.093109 264.0
317.160248 136.0
317.241791 72.0
317.745392 76.0
318.015076 112.0
318.09671 124.0
318.487305 160.0
318.590332 76.0
318.739563 188.0
318.842621 48.0
319.208771 140.0
319.496887 96.0
319.571594 176.0
320.101959 48.0
320.139435 76.0
320.219482 200.0
320.411835 152.0
320.725433 144.0
321.142059 80.0
321.360199 164.0
321.505096 200.0
321.9599 192.0
322.124207 168.0
322.167084 136.0
322.231384 80.0
322.460083 144.0
322.588776 124.0
323.125214 196.0
323.637024 64.0
325.246704 88.0
326.01532 140.0
326.525818 192.0
326.630127 52.0
327.468781 164.0
327.634491 148.0
327.753387 208.0
327.893921 112.0
328.088593 72.0
328.114349 132.0
328.535767 128.0
328.749084 168.0
329.093567 288.0
329.275726 136.0
330.087952 444.0
330.127411 212.0
330.164795 112.0
330.331177 148.0
330.598938 136.0
331.095886 244.0
331.138367 68.0
331.913879 172.0
331.98642 168.0
332.093628 136.0
332.133514 296.0
332.548767 124.0
333.576721 132.0
333.773041 76.0
334.125854 140.0
334.835663 124.0
335.112518 120.0
335.154907 468.0
335.389465 176.0
335.575409 132.0
335.608215 48.0
335.783264 124.0
336.155426 316.0
336.213745 76.0
336.73584 132.0
336.812531 104.0
337.130402 152.0
337.155975 140.0
337.543488 208.0
337.664154 192.0
337.956818 152.0
338.38504 116.0
339.436646 140.0
340.096436 148.0
340.166748 168.0
340.236511 96.0
341.11084 72.0
341.165985 120.0
342.030457 100.0
342.085297 1020.0
342.800201 172.0
343.085999 264.0
343.336182 92.0
343.537598 168.0
343.729462 108.0
344.131805 88.0
344.216705 180.0
345.138702 672.0
345.584351 52.0
345.817505 132.0
345.994385 156.0
346.141083 344.0
346.591492 52.0
346.62854 180.0
347.073364 104.0
347.10675 60.0
347.159088 408.0
348.137238 536.0
348.684479 76.0
349.133667 412.0
349.320312 176.0
349.644012 128.0
350.30307 128.0
350.936615 72.0
352.018738 104.0
352.250305 224.0
352.425903 160.0
352.584717 144.0
352.960419 104.0
353.164093 156.0
353.248383 156.0
353.353149 124.0
353.547729 88.0
353.832184 116.0
354.101807 116.0
354.337799 132.0
355.098419 180.0
355.107758 152.0
355.135162 568.0
355.488922 164.0
355.759186 100.0
355.84552 148.0
356.131927 576.0
356.519897 120.0
356.589325 152.0
357.078064 72.0
357.138184 376.0
357.804321 112.0
357.902222 136.0
357.981293 180.0
358.052856 120.0
358.110291 1056.0
358.357971 96.0
358.391876 120.0
358.459717 80.0
358.712219 48.0
358.814026 96.0
358.994995 56.0
359.059113 136.0
359.118805 356.0
359.232635 40.0
359.523163 56.0
359.564667 48.0
360.158752 156.0
360.376556 132.0
360.595734 204.0
360.637421 132.0
360.697784 160.0
360.924622 32.0
361.135986 336.0
361.473114 60.0
361.787262 68.0
361.950073 112.0
362.084381 172.0
362.139374 232.0
362.162354 280.0
362.336395 160.0
362.413757 256.0
362.848053 96.0
362.992126 44.0
363.05661 148.0
363.147125 4068.0
363.409363 152.0
363.443512 92.0
363.542175 204.0
363.587738 44.0
363.686401 132.0
364.155487 1324.0
364.267365 88.0
364.556122 136.0
364.611237 40.0
364.791779 76.0
365.151855 128.0
365.161713 152.0
365.288116 168.0
365.438324 228.0
365.925476 32.0
366.066376 88.0
366.150146 140.0
366.230133 92.0
366.374908 212.0
366.534912 48.0
366.65686 116.0
366.862701 168.0
366.900818 132.0
367.030457 132.0
367.812561 140.0
367.881256 116.0
368.102722 88.0
368.171448 136.0
368.205811 96.0
368.430603 188.0
368.599304 232.0
368.805664 160.0
368.950928 132.0
369.02359 116.0
369.27597 168.0
369.715942 268.0
369.891998 160.0
370.539215 196.0
370.65799 60.0
370.807434 132.0
371.114105 152.0
371.148621 156.0
371.417084 228.0
371.758545 112.0
371.95813 164.0
372.057922 88.0
372.138184 160.0
372.148468 144.0
372.272949 56.0
372.545654 136.0
372.657074 104.0
372.918396 120.0
373.071838 152.0
373.132874 3616.0
373.610535 88.0
373.891449 96.0
374.135651 664.0
374.278595 132.0
374.384216 32.0
374.597656 68.0
374.634583 84.0
374.715485 204.0
374.800262 68.0
375.083435 116.0
375.144348 312.0
375.941681 36.0
375.999573 132.0
376.119385 1312.0
376.159424 280.0
376.285217 180.0
376.632782 152.0
377.02063 156.0
377.129028 328.0
377.208527 84.0
377.332214 72.0
377.397949 64.0
377.53717 108.0
377.672546 72.0
378.126373 108.0
378.143127 32.0
378.151337 128.0
378.585938 52.0
378.845428 60.0
378.891937 116.0
379.192566 96.0
379.279449 164.0
380.396606 172.0
380.699463 136.0
380.971344 164.0
381.565948 68.0
381.659271 104.0
382.62027 80.0
382.869476 120.0
383.052551 116.0
383.325287 124.0
383.804749 140.0
383.933411 48.0
384.003632 160.0
384.503021 64.0
384.738647 120.0
384.93634 32.0
385.037872 88.0
385.412903 64.0
385.600494 128.0
385.690369 136.0
385.835693 144.0
386.664276 144.0
386.781708 112.0
386.926544 168.0
387.196747 124.0
387.286804 168.0
387.851044 132.0
387.882416 180.0
387.984344 180.0
388.07843 168.0
388.148834 320.0
388.25882 72.0
388.34903 148.0
388.419617 164.0
388.50592 160.0
389.067139 116.0
389.135223 364.0
389.204559 172.0
389.314484 88.0
389.345917 88.0
389.400909 48.0
389.538361 116.0
389.591644 124.0
389.624786 160.0
389.805542 148.0
389.852692 164.0
389.907715 144.0
389.966675 180.0
390.006958 64.0
390.033478 108.0
390.068359 200.0
390.133881 996.0
390.237915 144.0
390.289032 124.0
390.450256 172.0
390.506592 112.0
390.580048 140.0
390.656555 72.0
390.761017 116.0
390.791992 160.0
390.828949 180.0
390.873169 144.0
390.906616 148.0
390.942841 136.0
390.980316 192.0
391.047821 168.0
391.088715 356.0
391.146027 45076.0
391.240326 168.0
391.299835 108.0
391.347473 124.0
391.403564 32.0
391.460205 76.0
391.487885 140.0
391.543243 164.0
391.593964 128.0
391.627075 28.0
391.675354 124.0
391.751068 96.0
391.789948 128.0
391.838867 136.0
391.875244 116.0
391.947327 240.0
392.03299 236.0
392.148102 12344.0
392.218109 156.0
392.245697 56.0
392.320587 40.0
392.374054 72.0
392.420074 80.0
392.46109 76.0
392.491211 88.0
392.624207 88.0
392.662323 48.0
392.701111 48.0
392.714935 40.0
392.781982 116.0
392.872711 84.0
392.924011 52.0
392.95163 48.0
393.069977 76.0
393.149689 2732.0
393.293884 164.0
393.301117 120.0
393.358093 32.0
393.405457 44.0
393.44101 56.0
393.500214 96.0
393.587097 64.0
393.619995 72.0
393.649078 120.0
393.921539 176.0
394.013641 100.0
394.111237 148.0
394.149506 168.0
394.395294 160.0
394.44046 144.0
394.482727 104.0
394.582764 88.0
394.632507 124.0
394.68161 84.0
394.733002 36.0
394.800232 152.0
394.825409 76.0
394.875397 92.0
394.907013 76.0
394.979553 72.0
395.116669 148.0
395.168121 124.0
395.3797 80.0
395.480743 60.0
395.561615 84.0
395.694519 88.0
395.805389 112.0
395.848816 148.0
395.908325 80.0
395.942749 208.0
396.241058 28.0
396.300507 92.0
396.6651 60.0
396.692841 84.0
396.950562 56.0
397.021942 104.0
397.101257 96.0
397.232147 88.0
397.837463 68.0
398.109314 48.0
398.151733 136.0
398.601898 48.0
399.079834 84.0
399.476593 88.0
399.584015 40.0
400.129272 112.0
400.352234 52.0
400.652039 76.0
400.75058 148.0
401.114288 260.0
401.404297 40.0
402.897064 68.0
403.012909 132.0
403.412567 76.0
403.588501 156.0
403.648468 44.0
404.416595 72.0
404.500641 124.0
405.077301 164.0
405.189453 68.0
405.69043 124.0
405.967072 184.0
406.007172 128.0
406.15564 8500.0
406.404297 72.0
406.657135 28.0
406.893127 148.0
406.966248 52.0
407.046539 64.0
407.160522 3680.0
407.23407 176.0
407.645081 64.0
407.817902 160.0
407.962616 56.0
408.034973 72.0
408.168182 596.0
408.21994 148.0
408.437103 76.0
408.964233 60.0
409.169739 140.0
409.229919 64.0
409.262115 68.0
409.378906 80.0
409.540009 40.0
409.717255 84.0
410.358063 132.0
410.507263 80.0
410.608063 88.0
411.168854 136.0
411.358582 108.0
411.689667 84.0
411.717926 88.0
412.243103 72.0
412.598785 68.0
412.676849 184.0
412.810181 52.0
413.30661 44.0
414.480865 48.0
414.728088 112.0
414.837524 40.0
414.983459 140.0
415.101074 64.0
415.226776 44.0
415.328186 128.0
416.135071 896.0
416.76532 192.0
417.128052 412.0
418.644623 128.0
418.868652 100.0
419.133453 176.0
419.210876 220.0
419.390533 248.0
420.340454 84.0
421.018097 156.0
421.054871 156.0
421.103882 108.0
423.099365 132.0
423.336853 48.0
423.43924 100.0
424.217773 60.0
424.299774 148.0
424.590881 40.0
425.308899 104.0
426.068604 84.0
428.042877 128.0
428.182892 172.0
429.089447 112.0
429.477081 44.0
429.61322 76.0
429.67923 44.0
430.265259 104.0
430.653442 132.0
430.950867 60.0
431.561401 84.0
431.650482 148.0
431.852081 152.0
432.009247 100.0
432.127319 268.0
432.431305 172.0
432.808044 228.0
432.853577 160.0
432.890839 120.0
432.940552 104.0
432.984406 140.0
433.060638 132.0
433.143494 84.0
433.309204 48.0
433.346497 56.0
433.387909 56.0
433.54126 68.0
433.570251 172.0
433.633575 200.0
433.702881 156.0
433.765045 100.0
433.893005 324.0
433.925049 304.0
433.988922 328.0
434.028107 144.0
434.15152 40700.0
434.259003 264.0
434.356384 164.0
434.458069 76.0
434.493713 108.0
434.547699 228.0
434.638153 92.0
434.683502 72.0
434.74765 84.0
434.78125 72.0
434.827362 84.0
434.918213 32.0
434.963226 104.0
435.006348 68.0
435.061127 80.0
435.15451 14928.0
435.250122 120.0
435.287689 56.0
435.333374 88.0
435.362457 76.0
435.412292 160.0
435.447998 80.0
435.476837 100.0
435.533081 76.0
435.595032 40.0
435.627655 256.0
435.690582 56.0
435.719666 40.0
435.856781 68.0
435.890015 52.0
436.010529 52.0
436.047943 44.0
436.07843 144.0
436.158417 2152.0
436.2724 76.0
436.4534 60.0
436.539581 92.0
436.625854 48.0
436.675018 68.0
436.728424 84.0
436.953491 52.0
436.991913 120.0
437.160004 284.0
437.317596 152.0
437.47467 120.0
437.520477 72.0
437.549622 80.0
437.666199 72.0
437.712006 76.0
437.778625 76.0
437.818451 92.0
437.895233 232.0
437.955994 180.0
437.991028 44.0
438.053497 84.0
438.096771 104.0
438.165985 76.0
438.220154 48.0
438.396912 76.0
438.466003 60.0
438.501221 72.0
438.537781 148.0
438.611877 124.0
438.661926 64.0
438.7995 72.0
438.828674 40.0
438.86203 128.0
438.971863 176.0
439.141418 32.0
439.350006 76.0
439.556396 60.0
439.934265 84.0
440.16806 28.0
440.21817 52.0
440.293335 48.0
440.439545 48.0
441.246063 60.0
442.689636 136.0
443.179718 116.0
443.297058 168.0
443.946838 76.0
445.495636 44.0
446.369843 68.0
447.278595 52.0
448.108215 112.0
448.209351 44.0
448.55072 60.0
449.394196 92.0
449.562958 36.0
451.189148 40.0
453.21225 72.0
454.191559 52.0
454.543701 76.0
456.863525 96.0
458.61795 104.0
459.24472 48.0
459.69696 52.0
460.384247 52.0
460.952423 72.0
461.572235 72.0
465.948425 40.0
467.578125 88.0
468.034454 56.0
468.133484 124.0
469.48233 44.0
470.703583 52.0
471.701599 56.0
474.11676 60.0
474.684662 136.0
475.804108 84.0
477.150909 116.0
477.350922 64.0
478.190552 96.0
478.861053 80.0
480.443359 40.0
481.670044 120.0
482.404175 88.0
485.929626 120.0
487.317047 104.0
487.61264 76.0
487.804871 120.0
490.252045 148.0
492.197418 56.0
493.222382 80.0
493.43457 120.0
494.354614 84.0
494.74411 144.0
496.068695 72.0
496.246002 100.0
498.545349 56.0
500.186554 100.0
500.355713 88.0
501.108398 120.0
504.857941 88.0
508.280396 124.0
508.778595 52.0
509.056976 44.0
509.649902 60.0
515.982422 60.0
518.086853 108.0
519.605652 40.0
519.9505 112.0
520.404419 84.0
522.122131 84.0
526.474365 116.0
526.995117 40.0
528.183777 68.0
529.992126 108.0
533.176819 40.0
534.827942 48.0
536.569275 72.0
536.629211 44.0
537.833252 72.0
539.986389 72.0
543.748413 64.0
545.769165 80.0
550.895874 88.0
551.895996 60.0
557.521179 48.0
558.83313 44.0
560.683716 76.0
561.343567 140.0
562.202271 76.0
563.382507 536.0
564.370117 228.0
564.413025 120.0
565.113098 124.0
565.378052 108.0
566.405518 104.0
566.656555 120.0
567.22998 92.0
568.553284 108.0
572.289612 100.0
574.066956 188.0
575.737244 32.0
577.524719 72.0
577.562988 56.0
581.760742 92.0
584.30304 84.0
585.22229 84.0
586.229004 72.0
586.344666 36.0
586.537476 116.0
588.052002 132.0
592.321533 168.0
594.459656 56.0
597.277527 56.0
601.995361 56.0
612.2547 60.0
616.012024 124.0
616.136658 52.0
617.441589 76.0
617.545471 144.0
618.723206 68.0
619.579956 88.0
619.614624 76.0
621.379639 60.0
623.266357 136.0
624.340088 128.0
625.479492 124.0
626.490356 68.0
628.704224 76.0
629.038635 96.0
634.461426 52.0
635.519653 156.0
636.764587 112.0
639.977966 92.0
645.594238 104.0
648.155701 48.0
650.179077 56.0
650.38208 120.0
652.2005 116.0
653.670288 128.0
657.543335 52.0
664.497559 96.0
667.085876 20.0
674.529541 60.0
686.404541 84.0
691.585815 96.0
691.810913 128.0
694.037537 64.0
696.467407 68.0
696.624939 72.0
696.908691 40.0
702.241394 48.0
704.991943 76.0
707.89093 104.0
727.4104 116.0
728.833618 84.0
728.887329 72.0
732.815186 80.0
733.661377 44.0
741.276917 48.0
742.491272 60.0
758.499573 60.0
758.603699 104.0
760.013245 72.0
760.572998 72.0
760.990234 96.0
769.358643 124.0
769.458008 124.0
775.332397 80.0
778.522339 84.0
789.165405 80.0
790.826843 56.0
793.476501 44.0
794.076477 92.0
797.321594 40.0
814.696777 44.0
816.424683 64.0
822.823608 96.0
823.069153 64.0
824.600159 72.0
824.994568 108.0
836.68634 120.0
842.181824 88.0
842.586182 44.0
856.112793 100.0
856.922485 72.0
861.180908 84.0
864.876221 152.0
868.855164 68.0
870.545593 36.0
887.777466 56.0
892.284241 56.0
898.895691 104.0
900.131348 92.0
903.873291 108.0
905.884949 60.0
910.395325 96.0
914.375183 92.0
922.971558 124.0
928.67627 52.0
931.936218 96.0
937.266296 84.0
948.523743 80.0
949.480225 52.0
983.054932 84.0
991.572693 160.0
993.315735 112.0
1001.335999 192.0
1016.57196 124.0
1016.914673 100.0
1018.305115 36.0
1020.300354 160.0
1033.681885 108.0
1034.699585 64.0
1038.275146 124.0
1040.020264 108.0
1041.965942 52.0
1042.068726 216.0
1049.032104 244.0
1058.957031 168.0
1062.399048 228.0
1064.32666 60.0
1088.762695 132.0
1097.47522 160.0
1106.672485 48.0
1106.718872 80.0
1106.818237 152.0
1109.561157 172.0
1124.041016 120.0
1127.607178 192.0
1127.667236 196.0
1131.24585 84.0
1135.386597 144.0
1142.580566 76.0
1147.382446 160.0
1150.019897 76.0
1151.437744 188.0
1151.714722 52.0
1154.573608 32.0
1162.669312 176.0
1170.207764 160.0
1171.3927 60.0
1173.444092 80.0
1174.828491 76.0
1176.09082 128.0
1185.762085 164.0
1191.512329 156.0
1196.925293 104.0
1200.598145 92.0
1213.015869 96.0
1215.124146 172.0
1216.651001 112.0
1219.311279 100.0
1219.373779 164.0
1221.939697 108.0
1229.737427 144.0
1235.061523 200.0
1235.614136 80.0
1235.824097 172.0
1238.946655 184.0
1239.303955 160.0
1244.262573 128.0
1248.928589 36.0
1253.180542 100.0
1265.25061 32.0
1267.283325 152.0
1276.645996 176.0
1279.129028 48.0
1280.789062 160.0
1283.631714 148.0
1284.494751 152.0
1292.109985 32.0
1295.102173 68.0
1298.449219 172.0
1298.829346 156.0
1303.60376 92.0
1303.71875 168.0
1310.533081 164.0
1311.203247 44.0
1313.229248 172.0
1314.584595 152.0
1314.715454 160.0
1317.134155 208.0
1320.856689 148.0
1326.736816 224.0
1327.773682 180.0
1331.387817 172.0
1337.771729 116.0
1340.743408 144.0
1342.252441 36.0
1342.733765 132.0
1346.07605 100.0
1347.653809 108.0
1347.785278 180.0
1352.912231 92.0
1355.087402 200.0
1358.444946 200.0
1360.771362 168.0
1364.143433 72.0
1367.733032 136.0
1375.369385 208.0
1376.779541 216.0
1378.057495 168.0
1379.956909 96.0
1381.6875 132.0
1383.441406 184.0
1386.018799 72.0
1389.466553 244.0
1389.681641 44.0
1395.4823 184.0
1397.066406 152.0
1397.550049 40.0
1398.249512 168.0
1398.398438 48.0
1398.792847 76.0
1400.192627 196.0
1406.156982 64.0
1406.79895 152.0
1410.085449 72.0
1411.730225 164.0
1416.827393 64.0
1417.958862 148.0
1418.423584 184.0
1419.870605 164.0
1421.84375 216.0
1424.689453 228.0
1426.267578 212.0
1429.651978 88.0
1433.869385 156.0
1433.997437 196.0
1439.315918 192.0
1441.060669 124.0
1442.141235 84.0
1447.012939 160.0
1448.618408 156.0
1451.771362 40.0
1455.246704 116.0
1460.087158 136.0
1460.330566 188.0
1460.505493 120.0
1465.148926 120.0
1466.71875 164.0
1470.402588 128.0
1473.65564 244.0
1474.068237 92.0
1474.786621 104.0
1476.239258 156.0
1476.469604 156.0
1481.060791 140.0
1481.750244 108.0
1482.049072 112.0
1482.501099 124.0
1482.960938 192.0
1485.153809 164.0
1486.849365 112.0
1487.187134 116.0
1489.167969 156.0
1489.290894 180.0
1490.981201 120.0
1492.049561 36.0
1494.503052 220.0
1496.896973 96.0
1497.590088 164.0
1498.213989 56.0
1499.577881 168.0
1500.325562 164.0
1500.61853 192.0
1500.92688 64.0
