>compound MLS001140284-01!(2S)-1-[(2S)-2-[(5-chloro-1-methylindole-2-carbonyl)amino]-4-methylpentanoyl]pyrrolidine-2-carboxylic acid
>formula C21H26ClN3O4
>ionization [M+H]+
>parentmass 420.169
#inchi InChI=1S/C21H26ClN3O4/c1-12(2)9-15(20(27)25-8-4-5-17(25)21(28)29)23-19(26)18-11-13-10-14(22)6-7-16(13)24(18)3/h6-7,10-12,15,17H,4-5,8-9H2,1-3H3,(H,23,26)(H,28,29)/t15-,17-/m0/s1
#inchikey OPHAWRYOHOYBLZ
#Ion_Source LC-ESI
#Instrument qTof
#Compound_Source NIH Natural Product Library
#PI Dorrestein
#Data_Collector VVP/LMS
#Scan -1
#Precursor_MZ 420.169
#ExactMass 419.161
#Charge 1
#CAS_Number N/A
#Pubmed_ID N/A
#Smiles CC(C)C[C@H](NC(=O)c1cc2cc(Cl)ccc2n1C)C(=O)N3CCC[C@H]3C(=O)O
#INCHI_AUX N/A
#Library_Class 1
#SpectrumID CCMSLIB00000079876
#IonMode Positive
#UpdateWorkflowName UPDATE-SINGLE-ANNOTATED-GOLD
#LibraryQualityString Gold
#TaskID b1d8e8f6646f4e71acdff9ca3d919d08
##Scan# 2319
#SpectrumFile p1-C12_GC12_01_17908.mzXML
#LibraryName NIH_Natural_Products_Library.mgf
#MQScore -1
#Organism NIH_Natural_Products_Library
#TIC_Query 0
#RT_Query -1
#MZErrorPPM -1
#SharedPeaks 0
#MassDiff 0
#LibMZ -1
#SpecMZ 420.169
#SpecCharge 0
#internalFilename spec-00000.mgf

>collision 10
95.083862 260.0
95.148872 84.0
95.304245 104.0
95.317848 196.0
95.683502 128.0
95.747032 172.0
96.020599 256.0
96.047905 88.0
96.104401 200.0
96.264534 184.0
96.312515 176.0
96.7827 168.0
96.847328 152.0
97.002121 116.0
97.021721 228.0
97.04525 248.0
97.084465 152.0
97.166847 60.0
97.198242 124.0
97.292442 216.0
97.32386 112.0
97.382767 52.0
97.866524 172.0
98.10096 200.0
98.164955 124.0
98.335686 176.0
98.405159 164.0
98.440315 184.0
98.643806 220.0
98.865326 176.0
98.885117 136.0
98.904854 148.0
99.003899 148.0
99.091049 240.0
99.249947 164.0
99.26944 68.0
99.374565 56.0
99.471802 128.0
99.676361 160.0
99.754883 152.0
99.972382 240.0
100.096069 168.0
100.226677 84.0
100.377022 120.0
100.42395 132.0
100.446823 132.0
100.500694 168.0
100.534615 124.0
100.556564 136.0
100.614449 192.0
100.628426 140.0
100.772224 160.0
100.922127 144.0
100.996117 156.0
101.020119 80.0
101.142181 76.0
101.190224 180.0
101.246292 180.0
101.326408 136.0
101.506798 176.0
101.589027 204.0
101.769646 144.0
101.814117 188.0
101.946411 76.0
101.974541 200.0
102.207817 124.0
102.374886 176.0
102.534035 112.0
102.570312 104.0
102.650955 176.0
102.705795 168.0
102.72847 184.0
102.826462 200.0
102.994041 156.0
103.056664 152.0
103.173882 124.0
103.291168 140.0
103.313423 128.0
103.524239 200.0
103.665718 272.0
103.80761 144.0
103.823837 124.0
103.856285 160.0
104.048782 412.0
104.116066 84.0
104.168869 104.0
104.276558 192.0
104.400566 52.0
104.557213 196.0
104.604027 136.0
104.661026 152.0
104.807678 184.0
105.057465 360.0
105.07885 128.0
105.15435 188.0
105.209457 108.0
105.366707 144.0
105.397354 228.0
105.440269 92.0
105.472969 204.0
105.495453 148.0
105.597687 132.0
105.866699 160.0
105.910835 136.0
105.93132 148.0
105.964096 100.0
106.05426 132.0
106.514351 208.0
106.571388 232.0
106.602211 168.0
106.667984 144.0
106.686478 196.0
106.702927 80.0
106.836601 152.0
106.871773 212.0
106.9189 224.0
106.954361 212.0
107.003296 152.0
107.093903 256.0
107.143341 164.0
107.16394 172.0
107.260796 196.0
107.400223 228.0
107.557457 160.0
107.594978 128.0
107.687897 204.0
107.73954 192.0
107.772591 172.0
107.983444 144.0
107.997925 68.0
108.157242 196.0
108.221413 180.0
108.308388 88.0
108.362251 196.0
108.480377 128.0
108.521835 144.0
108.563309 224.0
108.631752 192.0
108.72097 68.0
108.830986 144.0
108.887047 92.0
108.947662 200.0
109.040268 176.0
109.084435 144.0
109.101067 152.0
109.16552 220.0
109.358994 148.0
109.406425 188.0
109.504738 212.0
109.53598 160.0
109.625565 144.0
109.834045 76.0
110.028114 224.0
110.074043 152.0
110.10955 64.0
110.452316 164.0
110.483696 60.0
110.590408 104.0
110.680428 180.0
111.00647 392.0
111.026184 180.0
111.070221 176.0
111.345169 192.0
111.630966 176.0
111.727722 180.0
111.79715 200.0
111.826614 124.0
111.978485 128.0
112.007889 312.0
112.075104 144.0
112.189285 156.0
112.465233 148.0
112.581352 192.0
112.66584 164.0
112.745255 320.0
112.955444 172.0
112.984787 156.0
113.01503 528.0
113.032845 96.0
113.073929 92.0
113.131073 92.0
113.220436 156.0
113.395844 224.0
113.529404 216.0
113.616364 108.0
113.881699 72.0
113.951797 108.0
113.998055 176.0
114.011749 220.0
114.057213 160.0
114.148705 252.0
114.255814 216.0
114.345177 112.0
114.517632 144.0
114.662216 176.0
114.747765 104.0
114.781883 120.0
114.948257 164.0
115.040031 76.0
115.155334 140.0
115.264282 216.0
115.497307 164.0
115.563622 172.0
115.587914 204.0
115.606415 172.0
115.621399 176.0
115.784096 356.0
115.889061 96.0
115.936203 72.0
115.979065 136.0
116.037918 352.0
116.071274 18768.0
116.13884 144.0
116.176918 56.0
116.212807 152.0
116.31456 116.0
116.341576 44.0
116.369484 160.0
116.408134 160.0
116.429611 40.0
116.558495 40.0
116.625114 76.0
116.689606 60.0
116.764862 56.0
116.782074 104.0
116.849136 112.0
116.91761 172.0
116.964958 56.0
116.992943 168.0
117.073975 616.0
117.124298 68.0
117.175995 60.0
117.27861 136.0
117.387222 100.0
117.542938 128.0
117.561951 232.0
117.656921 276.0
117.704422 116.0
117.758408 56.0
117.773529 116.0
117.851295 84.0
117.89019 144.0
117.913963 88.0
117.951347 256.0
117.970627 92.0
118.028534 144.0
118.251343 176.0
118.439713 56.0
118.461372 228.0
118.535034 172.0
118.760498 212.0
118.788696 204.0
118.855949 112.0
119.042625 44.0
119.087982 244.0
119.231621 168.0
119.503426 144.0
119.6819 116.0
119.952042 204.0
120.034882 140.0
120.091583 136.0
120.170113 44.0
120.338173 128.0
120.476486 156.0
120.582825 216.0
120.668259 232.0
120.735855 248.0
120.775223 40.0
120.884605 128.0
120.932755 124.0
121.145149 152.0
121.213066 148.0
121.350342 152.0
121.621025 160.0
121.710983 176.0
121.801018 52.0
121.847153 168.0
121.906479 220.0
121.989998 116.0
122.141716 164.0
122.361778 140.0
122.52034 204.0
122.676804 192.0
122.744987 224.0
122.86425 48.0
122.965744 124.0
123.000412 7572.0
123.062874 84.0
123.114571 240.0
123.213051 152.0
123.28376 116.0
123.367744 216.0
123.383224 144.0
123.398697 160.0
123.471664 68.0
123.498207 168.0
123.733368 88.0
123.84127 168.0
123.881134 112.0
123.909935 156.0
123.924141 92.0
124.00235 648.0
124.085022 80.0
124.178154 136.0
124.471077 36.0
124.537704 128.0
124.599899 144.0
124.659889 176.0
124.73101 168.0
124.751015 108.0
124.771019 64.0
124.811043 44.0
124.957832 144.0
124.997078 2628.0
125.091354 136.0
125.14122 160.0
125.307373 164.0
125.561478 136.0
125.751114 204.0
125.768974 380.0
125.822548 172.0
125.920792 64.0
125.987633 156.0
126.000443 420.0
126.171051 188.0
126.265724 188.0
126.338776 180.0
126.493179 160.0
126.643196 48.0
126.699196 68.0
126.778282 176.0
126.932289 104.0
126.996956 220.0
127.011246 136.0
127.03994 140.0
127.087059 204.0
127.174576 248.0
127.203751 148.0
127.974854 176.0
128.007278 228.0
128.050674 312.0
128.274475 32.0
128.389465 32.0
128.448105 152.0
128.7686 96.0
128.809265 56.0
128.833176 156.0
128.858963 172.0
129.001144 152.0
129.055893 116.0
129.229736 148.0
129.440247 120.0
129.625977 72.0
129.941147 120.0
129.975174 160.0
130.062988 156.0
130.127243 176.0
130.236252 244.0
130.295303 108.0
130.508942 148.0
130.586258 188.0
130.645401 184.0
130.684082 192.0
130.709106 252.0
130.868439 164.0
130.941299 88.0
131.071152 104.0
131.105331 120.0
131.698502 88.0
131.94986 40.0
132.041122 136.0
132.0802 132.0
132.322769 208.0
132.421234 124.0
132.538071 188.0
132.645782 204.0
132.822342 124.0
133.05011 472.0
133.106918 204.0
134.243652 204.0
134.305084 132.0
134.326675 220.0
134.573608 168.0
134.689072 172.0
134.758377 184.0
134.779617 224.0
134.901657 188.0
135.742081 188.0
135.776871 148.0
135.84877 220.0
135.946213 160.0
136.057617 192.0
136.164429 136.0
136.231796 164.0
136.373535 184.0
136.39212 132.0
136.436295 80.0
136.592087 180.0
136.766602 108.0
136.9552 152.0
137.013428 84.0
137.388763 168.0
137.414429 168.0
137.437759 200.0
137.84404 124.0
137.970245 164.0
137.991287 184.0
138.126923 176.0
138.241562 112.0
138.522522 144.0
138.548279 220.0
138.592804 172.0
138.613892 184.0
138.728729 196.0
138.916321 72.0
138.942123 116.0
138.971359 208.0
138.993454 128.0
139.08046 152.0
139.167435 68.0
139.29425 132.0
139.562164 192.0
139.58374 112.0
139.616241 112.0
139.707977 204.0
139.846802 140.0
139.896225 232.0
140.026276 1276.0
140.197708 76.0
140.237778 88.0
140.296707 56.0
140.409882 164.0
140.511307 128.0
140.617493 140.0
141.014267 160.0
141.042633 140.0
141.061539 128.0
141.115906 188.0
141.219955 80.0
141.286194 244.0
141.328781 148.0
141.366638 200.0
141.589157 220.0
141.650742 68.0
141.932755 180.0
141.958847 136.0
142.022888 348.0
142.103531 120.0
142.134369 124.0
142.355133 68.0
142.395508 112.0
142.723434 156.0
143.070786 160.0
143.135071 104.0
143.227951 172.0
143.373276 116.0
143.623611 180.0
143.704727 96.0
143.754837 144.0
143.795395 124.0
143.84552 160.0
143.974457 232.0
144.249207 152.0
144.275513 132.0
144.342453 188.0
144.363968 168.0
144.598419 168.0
144.625015 180.0
144.897736 128.0
144.945648 100.0
145.108627 124.0
145.17337 152.0
145.471725 148.0
145.82637 160.0
145.948959 136.0
146.059586 228.0
146.160629 152.0
146.240036 192.0
146.724213 136.0
146.79895 156.0
146.909897 100.0
147.05806 168.0
147.076401 96.0
147.177795 156.0
147.305786 60.0
147.455582 176.0
147.692535 128.0
147.794128 176.0
147.873993 168.0
148.159714 128.0
148.196045 44.0
148.496643 168.0
148.588806 188.0
148.710144 144.0
148.911652 144.0
148.943222 288.0
149.062271 176.0
149.084137 84.0
149.293198 176.0
149.354004 48.0
149.860352 128.0
149.894455 148.0
150.010559 688.0
150.206528 192.0
150.328506 156.0
150.369995 124.0
150.445663 132.0
150.870728 184.0
150.95874 64.0
151.017639 184.0
151.120178 124.0
151.289047 120.0
151.369843 168.0
151.438416 204.0
151.553543 156.0
151.65892 140.0
151.683426 132.0
151.710388 196.0
151.771866 164.0
151.980164 160.0
152.001877 212.0
152.070969 36.0
152.208435 112.0
152.336151 128.0
152.402481 388.0
152.431961 160.0
152.54747 104.0
152.695007 64.0
152.716919 184.0
152.994629 496.0
153.017395 180.0
153.1651 112.0
153.182343 168.0
153.443558 176.0
153.512375 228.0
153.710327 200.0
153.927582 228.0
154.211243 192.0
154.423874 92.0
154.454498 156.0
154.728226 92.0
154.931305 48.0
154.965988 180.0
154.990646 396.0
155.275833 112.0
155.38002 164.0
155.466858 252.0
155.514008 124.0
155.585999 148.0
155.618271 244.0
155.672897 132.0
155.707657 232.0
155.814468 148.0
155.869125 100.0
155.891495 168.0
156.020737 208.0
156.249542 124.0
156.809799 216.0
156.894547 208.0
156.956879 132.0
157.046646 44.0
157.064102 104.0
157.114365 188.0
157.171387 176.0
157.236267 108.0
157.258728 184.0
157.5159 172.0
157.590851 40.0
157.750793 140.0
158.028381 212.0
158.073425 108.0
158.221085 172.0
158.383255 116.0
158.62941 200.0
158.769821 196.0
158.852585 120.0
159.035751 140.0
159.108551 168.0
159.178848 240.0
159.347137 168.0
159.419998 156.0
159.482834 116.0
159.824844 224.0
159.862579 108.0
159.897812 200.0
160.119354 128.0
160.18988 124.0
160.26799 156.0
160.532654 20.0
160.908844 212.0
161.034409 204.0
161.075272 148.0
161.103058 188.0
161.283478 160.0
161.337372 172.0
161.408859 92.0
161.606155 128.0
161.747864 120.0
161.798492 152.0
161.861786 180.0
161.904846 152.0
161.983353 72.0
162.011215 216.0
162.259583 180.0
162.282394 160.0
162.345779 44.0
162.660385 112.0
163.120148 116.0
163.140488 152.0
163.21167 112.0
163.238235 216.0
163.272705 160.0
163.300674 128.0
163.364258 60.0
163.539841 160.0
163.896362 208.0
163.930893 196.0
163.995743 160.0
164.025238 2108.0
164.084961 108.0
164.106964 76.0
164.227753 100.0
164.291534 108.0
164.809235 184.0
164.845566 164.0
164.950348 232.0
165.004044 176.0
165.02739 332.0
165.234207 124.0
165.264908 128.0
165.282822 92.0
165.413345 164.0
165.467102 200.0
165.619324 180.0
165.695023 164.0
165.723206 224.0
166.021011 516.0
166.044052 148.0
166.379761 172.0
166.446518 56.0
166.467056 104.0
166.538971 112.0
166.56958 144.0
166.654572 156.0
166.718811 116.0
166.788193 196.0
166.929596 196.0
166.970734 144.0
167.011887 184.0
167.035034 168.0
167.096786 136.0
167.148239 200.0
167.609146 140.0
167.70192 192.0
167.802444 136.0
168.022614 724.0
168.083588 84.0
168.305893 156.0
168.35463 132.0
168.437271 196.0
168.631058 68.0
168.768066 124.0
168.88443 164.0
168.910294 212.0
168.938751 64.0
169.018951 152.0
169.075882 184.0
169.12764 184.0
169.166473 132.0
169.238953 108.0
169.319229 128.0
169.534256 188.0
169.661255 160.0
169.81424 204.0
169.941345 128.0
169.98027 208.0
170.016602 160.0
170.374908 180.0
170.671188 56.0
171.011978 196.0
171.090057 224.0
171.295776 248.0
171.334854 124.0
171.462524 132.0
171.611115 136.0
171.980606 212.0
172.036362 176.0
172.543152 192.0
172.600677 124.0
172.765442 180.0
173.016678 196.0
173.207825 268.0
173.385986 120.0
173.506561 160.0
173.624557 108.0
173.6875 144.0
173.826553 236.0
173.912537 228.0
174.393799 120.0
174.474792 108.0
174.625168 388.0
174.7146 208.0
174.92511 120.0
175.335999 88.0
175.567978 176.0
175.719284 144.0
175.926819 108.0
175.984894 148.0
176.249023 120.0
176.315079 152.0
176.377167 188.0
176.412872 48.0
176.505417 108.0
176.550369 156.0
176.568878 164.0
176.833435 200.0
176.891663 164.0
176.926086 180.0
176.990265 164.0
177.296906 200.0
177.597473 160.0
177.620361 144.0
177.657501 196.0
177.835281 248.0
177.904282 92.0
177.962692 184.0
177.99826 236.0
178.04213 2792.0
178.077026 148.0
178.297394 52.0
178.33194 232.0
178.515366 152.0
178.906479 120.0
178.949081 164.0
178.973038 56.0
179.00499 164.0
179.046249 552.0
179.084885 116.0
179.127502 188.0
179.274033 212.0
179.545959 96.0
179.593964 192.0
179.681992 192.0
179.794052 136.0
179.87413 204.0
180.036652 1248.0
180.079712 40.0
180.177353 152.0
180.290771 160.0
180.370956 188.0
180.571472 92.0
180.950607 152.0
181.024094 340.0
181.0952 212.0
181.146942 212.0
181.219269 148.0
181.266098 168.0
181.629425 80.0
181.782349 144.0
181.858994 128.0
181.916534 80.0
181.9944 204.0
182.027817 316.0
182.262985 88.0
182.383926 56.0
182.510269 140.0
182.593628 164.0
182.970337 192.0
183.075348 140.0
183.255814 172.0
183.313919 184.0
183.385162 272.0
183.482208 80.0
183.786972 168.0
183.805862 148.0
183.931305 108.0
184.035278 108.0
184.154099 132.0
184.490692 224.0
184.51889 128.0
184.597305 132.0
184.691956 160.0
184.751465 132.0
184.903 84.0
185.322708 128.0
185.517838 112.0
185.618942 180.0
185.68866 240.0
185.772751 180.0
185.997971 196.0
186.125565 144.0
186.15271 68.0
186.408051 168.0
186.511322 192.0
186.688049 164.0
186.766907 136.0
186.919266 80.0
187.055344 200.0
187.153336 104.0
187.292221 148.0
187.488388 180.0
187.62468 156.0
188.042007 176.0
188.213989 148.0
188.383316 84.0
188.560913 156.0
188.850723 164.0
188.960144 244.0
189.044968 156.0
189.138016 212.0
189.557022 56.0
190.012161 192.0
190.130157 104.0
190.206314 208.0
190.399185 152.0
190.426651 188.0
190.500824 172.0
190.544769 128.0
190.569504 144.0
190.728882 88.0
190.764618 28.0
190.871841 156.0
190.962585 104.0
191.141403 104.0
191.183517 132.0
191.245972 168.0
191.270752 92.0
191.340591 216.0
191.383621 76.0
191.425858 224.0
191.466507 204.0
191.50676 136.0
191.546097 172.0
191.584549 164.0
191.604858 340.0
191.675583 224.0
191.719681 204.0
191.774155 224.0
191.825562 184.0
191.851761 172.0
191.87648 212.0
191.904404 180.0
191.9207 176.0
191.931488 192.0
191.956055 360.0
192.021973 137288.0
192.085129 260.0
192.124756 68.0
192.147064 68.0
192.210114 112.0
192.255173 284.0
192.275879 56.0
192.29538 48.0
192.302887 76.0
192.327896 128.0
192.347946 76.0
192.386871 104.0
192.421478 148.0
192.47641 836.0
192.516251 240.0
192.571457 112.0
192.644608 192.0
192.686096 72.0
192.71579 88.0
192.748947 72.0
192.776581 88.0
192.803574 68.0
192.842422 160.0
192.909073 64.0
192.959991 108.0
192.980652 256.0
193.024841 14624.0
193.08194 160.0
193.102737 128.0
193.169815 88.0
193.201721 68.0
193.241425 140.0
193.277176 68.0
193.339249 136.0
193.390533 156.0
193.444 120.0
193.473572 160.0
193.498489 76.0
193.526474 76.0
193.578476 72.0
193.606201 80.0
193.638763 164.0
193.662338 120.0
193.707565 104.0
193.736664 200.0
193.754166 100.0
193.778854 172.0
193.82869 244.0
193.850769 196.0
193.90358 132.0
193.940521 168.0
194.018875 53660.0
194.095245 124.0
194.119766 228.0
194.160385 156.0
194.190262 96.0
194.220596 196.0
194.310059 116.0
194.356857 104.0
194.389252 188.0
194.446579 232.0
194.473572 96.0
194.505402 312.0
194.551697 212.0
194.582489 132.0
194.599915 128.0
194.649719 76.0
194.688004 80.0
194.736145 84.0
194.765564 52.0
194.793549 156.0
194.812988 84.0
194.832443 72.0
194.883011 112.0
194.919678 116.0
194.937439 76.0
195.01976 3432.0
195.089798 72.0
195.137146 56.0
195.146179 36.0
195.158539 52.0
195.238251 48.0
195.279968 120.0
195.304993 136.0
195.39679 44.0
195.501099 172.0
195.538696 112.0
195.588104 64.0
195.619415 116.0
195.639023 100.0
195.741913 88.0
195.920639 72.0
196.000961 72.0
196.026276 300.0
196.166626 120.0
196.285278 128.0
196.32431 48.0
196.363358 84.0
196.430298 128.0
196.475952 120.0
196.505615 52.0
196.567001 48.0
196.648849 132.0
196.675842 40.0
196.71492 88.0
196.773544 60.0
196.798676 88.0
197.449753 200.0
197.484344 152.0
197.975876 72.0
198.068298 44.0
198.113113 44.0
198.239197 44.0
198.373718 68.0
198.511093 88.0
198.985291 84.0
199.024597 96.0
199.128494 128.0
199.401016 36.0
199.654022 80.0
200.083527 108.0
200.414047 88.0
200.918701 40.0
201.412704 64.0
201.483322 148.0
201.695251 92.0
201.805511 88.0
201.833786 100.0
202.24115 52.0
203.298248 148.0
203.582123 96.0
203.800842 44.0
204.039581 164.0
204.545929 128.0
205.249619 80.0
205.419189 80.0
205.62616 72.0
205.800293 92.0
205.961578 92.0
206.214493 60.0
206.60051 148.0
206.72641 60.0
207.605835 68.0
208.852264 52.0
209.053665 148.0
209.111221 44.0
209.134247 200.0
210.249588 48.0
211.046844 44.0
215.169571 120.0
216.696213 76.0
216.933594 56.0
219.801102 44.0
221.59581 80.0
221.729156 116.0
221.948517 124.0
222.058228 84.0
224.067642 116.0
224.875732 144.0
224.992142 60.0
225.834793 148.0
226.235748 124.0
233.070007 68.0
234.05246 100.0
234.105194 2912.0
235.104004 328.0
235.562088 48.0
236.099915 528.0
236.715103 140.0
245.818909 48.0
249.103134 172.0
249.200531 60.0
251.297379 112.0
252.175232 100.0
258.535889 72.0
261.263184 48.0
264.991974 164.0
265.731171 92.0
265.971313 100.0
267.717194 44.0
269.344635 164.0
274.995331 60.0
275.229706 148.0
275.979736 88.0
277.058655 52.0
277.109436 2400.0
277.201141 92.0
277.294464 124.0
277.330383 64.0
277.416565 104.0
277.73819 92.0
277.860931 80.0
278.112091 804.0
278.172882 64.0
278.797272 92.0
279.105377 448.0
279.159637 100.0
279.259399 56.0
279.362518 76.0
280.101471 184.0
280.608002 44.0
282.531647 56.0
284.841309 84.0
286.981628 96.0
291.881042 72.0
293.621155 56.0
301.130463 92.0
305.103851 252.0
306.61554 76.0
306.957153 60.0
310.096436 96.0
313.075562 60.0
313.188263 128.0
315.06134 76.0
317.056915 156.0
321.127625 60.0
323.142303 128.0
324.370636 136.0
339.281189 92.0
340.863068 40.0
351.288971 32.0
357.305328 120.0
359.369934 72.0
359.909668 68.0
369.173828 68.0
370.371735 48.0
371.813293 80.0
373.273071 76.0
375.336945 120.0
396.229309 100.0
397.783813 20.0
401.204865 80.0
410.00293 68.0
418.289703 116.0
421.217407 80.0
426.051147 72.0
440.488098 88.0
443.349854 76.0
452.40976 100.0
454.350647 104.0
465.469116 92.0
468.923492 80.0
473.091705 96.0
493.612213 104.0
493.647583 60.0
511.732513 100.0
512.890259 68.0
546.019226 52.0
558.775085 128.0
559.193909 84.0
563.858215 112.0
570.161316 52.0
578.69342 64.0
588.483887 92.0
592.275146 68.0
607.405151 172.0
610.885376 20.0
614.513672 72.0
633.4599 80.0
650.103149 88.0
650.966064 72.0
684.55249 88.0
712.790527 124.0
714.954773 152.0
724.169495 52.0
733.507812 164.0
746.621155 48.0
774.602661 84.0
789.015625 144.0
819.726685 172.0
828.892151 100.0
830.97345 96.0
850.623535 88.0
857.049744 28.0
922.847717 76.0
931.74469 120.0
936.111755 128.0
991.42981 176.0
994.477722 88.0
1009.212219 240.0
1015.8302 188.0
1027.197388 64.0
1034.001953 176.0
1038.031372 96.0
1040.071533 184.0
1042.441284 208.0
1047.304932 176.0
1048.00708 84.0
1061.444946 84.0
1069.708862 156.0
1070.985107 196.0
1071.265259 188.0
1071.610474 60.0
1079.475708 196.0
1087.317017 188.0
1095.358154 104.0
1095.470093 92.0
1099.143188 152.0
1099.650391 112.0
1111.157593 208.0
1112.544556 140.0
1112.922974 204.0
1114.377563 96.0
1115.181519 140.0
1115.999268 108.0
1118.127808 116.0
1120.47168 108.0
1127.71167 20.0
1133.171997 188.0
1135.296753 180.0
1136.322998 48.0
1140.540161 36.0
1143.028564 168.0
1143.620728 212.0
1145.728394 204.0
1146.442505 40.0
1147.885132 172.0
1149.402832 80.0
1157.013062 120.0
1163.018921 184.0
1165.477173 148.0
1166.129517 192.0
1167.094849 60.0
1177.158936 200.0
1177.814575 172.0
1185.148193 188.0
1188.59021 132.0
1189.194092 168.0
1191.130249 160.0
1192.071533 144.0
1199.132202 152.0
1200.828247 160.0
1203.97522 180.0
1207.949463 216.0
1216.965454 92.0
1220.919189 144.0
1224.34314 76.0
1232.546509 176.0
1233.021606 160.0
1236.945435 136.0
1240.384644 176.0
1242.544556 140.0
1244.959106 168.0
1245.872192 192.0
1250.766357 140.0
1254.295166 100.0
1258.605713 124.0
1259.509644 204.0
1260.767212 140.0
1260.943848 52.0
1266.114258 184.0
1269.545288 152.0
1269.87146 124.0
1271.694946 64.0
1277.969604 184.0
1278.95166 140.0
1279.279053 132.0
1279.556763 148.0
1279.677734 84.0
1284.331055 120.0
1289.007202 188.0
1289.11438 200.0
1290.422363 148.0
1293.233643 104.0
1293.791992 152.0
1302.79187 92.0
1303.165405 212.0
1305.559082 156.0
1306.134399 184.0
1307.112793 172.0
1309.214722 188.0
1311.772461 96.0
1312.983765 120.0
1320.03186 164.0
1320.4729 160.0
1320.704346 212.0
1321.152832 144.0
1321.800171 216.0
1325.540405 196.0
1326.344849 224.0
1328.701538 164.0
1331.35083 28.0
1334.213623 28.0
1335.02063 180.0
1336.322632 168.0
1336.832031 60.0
1337.967407 188.0
1338.134888 176.0
1338.484375 136.0
1339.467529 228.0
1342.315796 108.0
1343.841553 148.0
1344.563965 124.0
1346.045776 240.0
1347.623535 52.0
1351.38147 172.0
1352.96228 156.0
1356.529785 152.0
1357.167603 184.0
1361.129761 200.0
1364.281616 52.0
1367.128052 116.0
1367.289917 180.0
1368.048096 216.0
1368.268921 176.0
1375.995117 188.0
1377.989136 172.0
1379.940308 56.0
1380.827637 160.0
1383.906006 204.0
1387.343506 124.0
1390.926392 132.0
1392.515259 136.0
1394.320557 168.0
1400.413818 52.0
1401.59082 180.0
1402.574463 184.0
1402.835449 64.0
1403.088867 208.0
1403.342407 124.0
1404.244629 136.0
1406.400879 188.0
1408.140503 184.0
1410.875244 160.0
1411.809814 136.0
1413.35083 52.0
1413.418091 148.0
1414.406006 224.0
1415.895874 160.0
1417.933594 168.0
1418.36084 136.0
1420.202026 100.0
1421.638306 232.0
1421.818359 52.0
1421.895508 168.0
1423.597534 192.0
1423.777832 104.0
1424.15332 260.0
1426.151855 48.0
1426.212036 132.0
1427.196777 168.0
1427.805908 88.0
1428.986816 144.0
1431.207153 124.0
1432.050537 60.0
1432.630493 92.0
1434.039551 64.0
1435.200439 128.0
1435.253296 84.0
1435.313599 100.0
1435.55603 132.0
1437.289795 64.0
1439.403198 144.0
1442.553711 168.0
1448.36499 140.0
1448.732544 144.0
1450.463867 76.0
1455.07605 104.0
1455.622681 164.0
1457.597656 176.0
1458.471558 72.0
1459.60437 192.0
1461.19397 148.0
1462.518066 124.0
1463.309692 116.0
1466.341431 168.0
1466.478516 136.0
1468.544678 212.0
1468.750732 148.0
1469.208374 228.0
1472.246094 112.0
1472.597412 44.0
1473.066406 224.0
1473.903687 140.0
1474.522705 204.0
1474.713745 172.0
1475.432495 140.0
1476.42627 192.0
1476.739868 112.0
1483.776978 60.0
1485.203247 180.0
1485.40271 172.0
1486.146851 136.0
1486.699219 188.0
1488.841064 160.0
1489.59375 196.0
1493.821533 60.0
1494.429321 188.0
1495.860718 248.0
1497.639404 236.0
1500.621582 180.0
1502.673096 120.0
