>compound Chlormezanone (Trancopal)
>formula C11H12ClNO3S
>ionization [M+H]+
>parentmass 274.02951
#inchi InChI=1S/C11H12ClNO3S/c1-13-10(14)6-7-17(15,16)11(13)8-2-4-9(12)5-3-8/h2-5,11H,6-7H2,1H3
#inchikey WEQAYVWKMWHEJO
#Ion_Source LC-ESI
#Instrument qTof
#Compound_Source Commercial
#PI Dorrestein
#Data_Collector Garg_Neha
#Scan -1
#Precursor_MZ 274.03
#ExactMass 273.023
#Charge 1
#CAS_Number 80-77-3
#Pubmed_ID N/A
#Smiles C1=C(C=CC(=C1)C2S(CCC(N2C)=O)(=O)=O)Cl
#INCHI_AUX N/A
#Library_Class 1
#SpectrumID CCMSLIB00000078391
#IonMode Positive
#UpdateWorkflowName UPDATE-SINGLE-ANNOTATED-GOLD
#LibraryQualityString Gold
#TaskID 77f51c88eb8b467eb4a01dd2d0cb90d2
##Scan# 1161
#SpectrumFile Plate6_21_40_GD8_01_15775.mzXML
#LibraryName FDALibrary_2_04302014.mgf
#MQScore -1
#Organism FDALibrary_2_04302014
#TIC_Query 0
#RT_Query -1
#MZErrorPPM -1
#SharedPeaks 0
#MassDiff 0
#LibMZ -1
#SpecMZ 274.03
#SpecCharge 0
#internalFilename spec-00000.mgf

>collision 10
49.359211 140.0
52.346668 208.0
54.668774 232.0
55.384857 160.0
60.113621 208.0
64.242348 192.0
64.256714 208.0
66.511444 140.0
68.706024 148.0
70.365746 212.0
71.637001 168.0
71.819061 140.0
75.874069 240.0
76.379425 204.0
79.025108 160.0
81.126755 144.0
82.60527 164.0
82.972908 156.0
83.383156 192.0
88.287788 192.0
91.107758 160.0
92.931122 156.0
94.120682 144.0
95.952354 148.0
96.044006 140.0
96.338776 164.0
98.057411 228.0
99.097191 200.0
99.819717 180.0
102.194122 156.0
102.798637 164.0
102.865242 184.0
102.983894 1136.0
103.988663 220.0
105.737419 144.0
107.018402 216.0
109.91629 176.0
113.967819 216.0
115.053444 724.0
116.063454 492.0
116.630737 160.0
117.069626 1268.0
117.591393 172.0
118.07354 176.0
120.994469 1104.0
121.979401 112.0
121.99929 188.0
122.29744 208.0
122.348068 140.0
124.111229 152.0
124.993088 180.0
125.014488 676.0
125.204575 160.0
126.018166 244.0
126.29377 188.0
127.010445 296.0
128.078278 164.0
134.025711 1584.0
135.029083 188.0
135.05452 172.0
136.021576 188.0
137.407822 172.0
138.021622 1052.0
138.766708 144.0
139.026077 156.0
139.294754 156.0
140.02095 624.0
140.08754 188.0
141.026184 240.0
142.02446 200.0
142.771713 172.0
143.048218 404.0
144.059586 196.0
145.065079 136.0
145.086761 180.0
146.092941 180.0
147.901657 164.0
149.394058 164.0
150.022369 496.0
150.188187 144.0
150.366302 160.0
151.030014 1472.0
152.031418 960.0
153.03125 620.0
153.548523 176.0
153.802658 172.0
154.040787 20376.0
154.074738 360.0
154.155228 120.0
154.776749 148.0
155.04274 1580.0
156.002411 144.0
156.038315 4996.0
157.04306 396.0
161.064514 176.0
162.028366 168.0
162.317307 160.0
164.533508 148.0
164.778702 168.0
165.236359 196.0
166.805862 212.0
167.075897 212.0
167.093903 148.0
168.036896 160.0
168.251099 156.0
168.788528 196.0
172.898911 208.0
173.087402 196.0
175.012146 188.0
176.780762 172.0
178.016479 1464.0
179.02417 152.0
180.014145 540.0
180.03653 176.0
180.989441 184.0
181.039917 240.0
182.032471 136.0
183.021057 116.0
186.104645 188.0
189.17186 152.0
190.348083 160.0
192.025589 140.0
194.046356 232.0
195.545654 180.0
197.090622 168.0
198.546326 248.0
198.991287 148.0
200.162216 228.0
203.063339 148.0
205.890839 144.0
205.92511 160.0
206.542114 204.0
207.992447 168.0
208.050964 3356.0
208.506577 144.0
208.676178 140.0
209.025436 268.0
209.059433 14108.0
209.969147 148.0
210.059021 1412.0
210.497269 152.0
210.709427 124.0
211.055252 2680.0
211.112808 156.0
211.643341 224.0
211.819031 144.0
212.056824 464.0
215.043732 164.0
218.3134 144.0
219.05806 268.0
221.551422 176.0
222.055359 176.0
223.044113 144.0
230.88504 152.0
231.28746 148.0
236.354828 176.0
237.985519 148.0
241.044296 328.0
242.068222 184.0
243.535187 140.0
252.819138 160.0
262.57663 168.0
268.355438 156.0
273.222443 140.0
273.548248 140.0
273.814972 144.0
273.917084 180.0
274.02951 28564.0
274.726318 108.0
274.863312 148.0
275.032135 2940.0
275.128448 260.0
275.173584 256.0
275.227753 176.0
276.02652 11232.0
276.102142 140.0
276.370941 200.0
276.934509 172.0
277.032562 852.0
277.323853 144.0
279.0867 156.0
281.425781 156.0
292.038574 124.0
294.034821 280.0
315.05307 152.0
316.064087 144.0
329.982208 124.0
335.143951 140.0
344.156433 216.0
438.545715 152.0
455.083618 172.0
483.118439 164.0
1204.56543 140.0
1516.840088 144.0
1530.825439 160.0
1570.191772 192.0
1698.06543 228.0
1711.987793 156.0
1856.266235 176.0
1868.136353 140.0
1917.894897 164.0
1933.931885 164.0
1938.83667 208.0
1958.174316 156.0
1965.84021 192.0
1971.019165 168.0
1978.174438 160.0
1986.38916 152.0
