>compound Lurasidone HCl
>formula C28H36N4O2S
>ionization [M+H]+
>parentmass 493.265045
#inchi InChI=1S/C28H36N4O2S/c33-27-24-18-9-10-19(15-18)25(24)28(34)32(27)17-21-6-2-1-5-20(21)16-30-11-13-31(14-12-30)26-22-7-3-4-8-23(22)35-29-26/h3-4,7-8,18-21,24-25H,1-2,5-6,9-17H2/t18-,19+,20-,21-,24+,25-/m0/s1
#inchikey PQXKDMSYBGKCJA
#origInchi InChI=1S/C28H36N4O2S.ClH/c33-27-24-18-9-10-19(15-18)25(24)28(34)32(27)17-21-6-2-1-5-20(21)16-30-11-13-31(14-12-30)26-22-7-3-4-8-23(22)35-29-26;/h3-4,7-8,18-21,24-25H,1-2,5-6,9-17H2;1H/t18-,19+,20-,21-,24+,25-;/m0./s1
#Ion_Source LC-ESI
#Instrument qTof
#Compound_Source Commercial
#PI Dorrestein
#Data_Collector Garg_Neha
#Scan -1
#Precursor_MZ 493.263
#ExactMass 492.256
#Charge 1
#CAS_Number 367514-88-3
#Pubmed_ID N/A
#Smiles N1(CCN(CC1)C2=NSC3=C2C=CC=C3)C[C@H]4([C@H](CN5C([C@]6([C@@]7(CC[C@]([C@]6(C5=O)[H])(C7)[H])[H])[H])=O)CCCC4).Cl
#INCHI_AUX N/A
#Library_Class 1
#SpectrumID CCMSLIB00000078554
#IonMode Positive
#UpdateWorkflowName UPDATE-SINGLE-ANNOTATED-GOLD
#LibraryQualityString Gold
#TaskID 77f51c88eb8b467eb4a01dd2d0cb90d2
##Scan# 1336
#SpectrumFile Plate9_1_20_GC4_01_15750.mzXML
#LibraryName FDALibrary_2_04302014.mgf
#MQScore -1
#Organism FDALibrary_2_04302014
#TIC_Query 0
#RT_Query -1
#MZErrorPPM -1
#SharedPeaks 0
#MassDiff 0
#LibMZ -1
#SpecMZ 493.263
#SpecCharge 0
#internalFilename spec-00000.mgf

>collision 10
45.160645 168.0
45.352116 192.0
45.491623 148.0
46.954361 192.0
47.014389 204.0
47.171459 148.0
47.858807 212.0
47.883595 196.0
49.404976 148.0
49.416168 168.0
49.825562 140.0
50.524837 152.0
51.487156 156.0
51.674412 192.0
51.84338 172.0
51.858639 204.0
51.876347 160.0
51.975307 180.0
52.288586 232.0
52.779068 152.0
53.00198 216.0
53.181808 184.0
53.19342 208.0
53.659863 128.0
53.788792 144.0
54.117729 140.0
54.968807 204.0
55.09874 168.0
55.354626 144.0
55.366474 188.0
57.207569 168.0
57.361221 156.0
57.988506 156.0
58.134098 168.0
58.313305 144.0
59.225502 188.0
60.68515 184.0
60.817009 144.0
61.118504 140.0
61.367714 144.0
61.823837 200.0
61.898979 172.0
61.968082 168.0
62.185871 156.0
62.52063 196.0
62.689133 148.0
63.693802 196.0
63.793911 168.0
64.476112 160.0
66.118164 164.0
66.44873 188.0
67.029198 152.0
67.528755 160.0
68.177994 204.0
68.456009 144.0
68.548149 124.0
68.587814 144.0
68.703247 196.0
68.795662 176.0
69.158066 184.0
69.436012 160.0
69.465874 180.0
69.656769 168.0
70.279419 164.0
71.033943 148.0
71.114487 224.0
71.285789 172.0
71.328873 208.0
71.627327 168.0
71.932541 156.0
72.439034 160.0
72.785835 144.0
73.61171 208.0
74.236313 180.0
75.310249 152.0
76.830894 144.0
77.230927 176.0
77.391922 172.0
77.649529 140.0
77.726715 224.0
78.483078 192.0
78.541275 140.0
78.617134 156.0
79.381355 224.0
79.702644 192.0
80.211639 176.0
80.386429 184.0
80.432831 220.0
80.511391 188.0
80.638794 140.0
81.178894 196.0
82.30175 152.0
82.518562 192.0
82.552498 132.0
82.623459 224.0
82.665077 176.0
82.748337 144.0
84.427879 148.0
84.609024 156.0
84.623672 148.0
85.376007 152.0
86.007965 168.0
86.268425 184.0
86.403427 140.0
86.692276 152.0
87.106018 208.0
87.680954 228.0
87.761391 136.0
87.93647 152.0
89.264725 164.0
89.967514 144.0
90.55748 172.0
90.801971 204.0
90.921494 236.0
91.137978 140.0
91.592491 136.0
92.00647 160.0
92.121056 180.0
92.438431 176.0
92.551369 156.0
93.069 156.0
93.684525 176.0
93.711494 148.0
93.770012 152.0
95.08445 188.0
95.4944 140.0
95.920822 208.0
96.020256 148.0
96.090485 160.0
96.145119 236.0
96.182808 168.0
96.362106 160.0
96.4674 176.0
96.606239 184.0
96.688423 140.0
96.930481 132.0
97.013565 172.0
97.588806 164.0
98.359093 176.0
99.078911 232.0
99.275139 184.0
99.886864 168.0
100.299049 164.0
100.616234 160.0
100.821976 184.0
101.073936 164.0
101.558754 144.0
103.15757 204.0
103.68383 188.0
103.748688 140.0
104.235802 188.0
105.060402 244.0
105.968132 252.0
106.103401 140.0
106.318771 144.0
106.68644 152.0
106.826851 144.0
107.048561 300.0
107.085632 164.0
107.124771 248.0
107.233978 196.0
107.390671 260.0
107.714737 152.0
107.859383 144.0
107.888321 236.0
108.518623 208.0
108.596504 188.0
108.652512 152.0
108.685707 168.0
108.980553 168.0
108.999252 172.0
109.040817 176.0
109.10112 14020.0
109.275169 160.0
109.60685 180.0
109.748589 184.0
110.105011 1132.0
110.287201 160.0
110.400093 160.0
111.099678 156.0
111.78463 192.0
111.799362 240.0
111.923561 152.0
111.969887 224.0
112.193245 156.0
112.353523 220.0
112.410431 152.0
113.188385 156.0
113.648346 156.0
113.682297 216.0
113.843636 172.0
114.136879 152.0
114.238968 156.0
114.927116 160.0
115.968575 168.0
116.991043 164.0
117.334724 152.0
117.471603 160.0
117.957474 148.0
118.656715 144.0
119.555977 224.0
119.603859 132.0
119.802017 152.0
120.080078 2188.0
120.229385 180.0
120.299225 188.0
120.316574 144.0
120.622528 164.0
120.637825 196.0
120.930939 220.0
121.065277 376.0
121.086754 800.0
121.261658 160.0
121.336189 152.0
121.557724 144.0
121.873917 196.0
122.07003 164.0
122.096512 168.0
122.155327 204.0
122.602287 160.0
122.626526 220.0
122.75219 140.0
123.0037 172.0
123.021362 152.0
123.30851 188.0
123.390297 208.0
124.195557 176.0
124.735939 156.0
125.194267 144.0
125.624443 164.0
125.644524 140.0
126.10746 112.0
127.197578 156.0
127.332596 128.0
127.640167 148.0
127.795372 144.0
128.072998 160.0
128.302109 184.0
128.757919 188.0
128.868607 144.0
129.53598 188.0
129.585831 172.0
129.89415 168.0
130.395935 168.0
131.085495 196.0
131.160706 164.0
131.443497 144.0
131.927704 188.0
132.951553 140.0
133.148987 156.0
133.201813 248.0
133.935501 116.0
134.094559 140.0
134.320526 148.0
134.40358 144.0
135.015778 144.0
135.079102 152.0
135.18924 188.0
135.698318 180.0
136.020462 600.0
136.081665 188.0
136.265137 164.0
136.59758 152.0
136.916458 228.0
137.37207 140.0
137.590332 172.0
137.703735 140.0
138.089661 424.0
138.180145 204.0
138.593704 144.0
139.671707 276.0
139.701843 196.0
140.045517 176.0
140.493393 164.0
140.801682 112.0
140.970337 144.0
141.422043 272.0
142.384644 152.0
142.926636 148.0
143.228989 236.0
143.295212 100.0
143.357651 144.0
143.448212 224.0
143.720093 204.0
143.822708 188.0
143.992233 264.0
144.544464 148.0
145.170898 104.0
145.692123 120.0
146.002991 156.0
146.481964 192.0
146.923111 208.0
147.42775 216.0
147.642914 188.0
147.717896 144.0
148.075363 1920.0
148.294174 148.0
149.030869 160.0
150.037338 676.0
150.09082 520.0
150.131912 156.0
150.788895 144.0
151.031677 1504.0
151.076492 168.0
151.953217 116.0
152.082092 188.0
152.142456 1228.0
152.182739 172.0
152.290787 228.0
152.31781 168.0
153.006378 208.0
153.141815 156.0
153.48436 164.0
153.807541 216.0
153.928513 140.0
154.41333 180.0
155.130951 184.0
156.490829 108.0
156.522278 196.0
157.297638 160.0
157.374435 164.0
158.407898 148.0
158.677811 176.0
159.300934 140.0
160.542648 188.0
160.74971 152.0
161.036438 140.0
161.314392 168.0
161.724167 224.0
161.863403 144.0
161.98497 144.0
162.669632 160.0
163.033096 160.0
164.11113 180.0
164.142075 148.0
164.201385 156.0
164.303421 156.0
165.031311 200.0
165.564911 168.0
165.646088 184.0
165.715866 124.0
165.744705 112.0
165.814636 160.0
165.846619 168.0
165.912033 244.0
165.932541 224.0
166.008514 192.0
166.027039 232.0
166.054306 300.0
166.063248 304.0
166.086456 165852.0
166.159637 236.0
166.330704 140.0
166.371475 116.0
166.468292 176.0
166.507416 308.0
166.552856 100.0
166.90744 132.0
167.089569 13832.0
167.127533 276.0
167.857986 152.0
168.037918 120.0
168.090698 540.0
168.208969 168.0
168.273819 168.0
168.34053 124.0
168.372787 220.0
168.3983 136.0
168.638046 168.0
168.67041 116.0
169.09314 276.0
169.499832 168.0
169.519623 112.0
169.870575 156.0
170.274155 104.0
170.41835 164.0
170.613281 148.0
170.717285 144.0
171.250809 148.0
171.7043 164.0
172.008179 188.0
172.649704 196.0
173.353897 152.0
173.592453 156.0
173.692108 192.0
173.776062 168.0
173.862656 176.0
174.885025 152.0
175.034119 316.0
175.22847 152.0
176.039841 172.0
176.331253 128.0
176.512833 208.0
176.592377 160.0
176.798477 140.0
176.97438 168.0
177.048157 59216.0
177.17894 172.0
177.62352 100.0
177.721512 120.0
177.749817 176.0
178.050537 5120.0
178.085434 4468.0
178.215164 156.0
178.493576 148.0
178.774139 108.0
179.044418 1676.0
179.085464 572.0
179.331039 160.0
179.865631 196.0
180.04657 284.0
180.103271 196.0
180.13327 156.0
180.355743 148.0
180.658554 148.0
180.691376 140.0
181.052734 152.0
181.205109 104.0
182.29689 196.0
183.091614 124.0
183.347031 164.0
184.009918 112.0
184.069992 148.0
184.093765 652.0
184.572601 192.0
184.908035 152.0
185.013275 132.0
185.048798 204.0
185.216385 104.0
185.94606 164.0
186.486542 144.0
187.036591 140.0
189.04422 116.0
189.13501 176.0
189.200623 124.0
189.314255 128.0
189.773315 156.0
190.035294 124.0
190.116196 176.0
190.514328 228.0
190.64621 152.0
191.06279 428.0
191.369644 148.0
192.064117 200.0
192.101608 2372.0
193.057755 104.0
193.099762 256.0
193.260315 144.0
193.847336 168.0
194.860107 176.0
195.509171 104.0
195.661072 144.0
196.094696 444.0
196.215485 172.0
196.578094 144.0
196.862823 148.0
197.094681 152.0
198.08786 164.0
198.237793 108.0
199.107498 116.0
199.263321 140.0
199.358856 148.0
200.090179 168.0
200.931808 104.0
201.045715 252.0
201.74054 228.0
202.041443 248.0
202.261871 188.0
202.799194 184.0
202.906921 184.0
202.929596 180.0
203.063324 3428.0
203.101944 212.0
203.142303 152.0
204.065491 904.0
204.206543 124.0
204.659943 168.0
205.078796 7464.0
205.936554 152.0
206.080658 1100.0
206.120941 176.0
206.271835 204.0
206.788406 240.0
207.025452 160.0
207.072388 692.0
207.110229 180.0
207.735123 144.0
207.996246 184.0
208.062622 144.0
208.128311 160.0
209.292816 168.0
209.322739 124.0
209.566452 140.0
209.755493 148.0
209.949829 180.0
210.513718 220.0
211.468506 224.0
214.003754 164.0
214.3125 168.0
214.770187 156.0
214.811035 216.0
215.173477 140.0
215.570145 144.0
216.091782 144.0
216.358887 144.0
217.067337 1208.0
217.207336 120.0
217.89473 180.0
218.072266 724.0
218.199341 140.0
218.452255 144.0
219.057236 140.0
219.079498 128.0
219.599396 204.0
219.656418 128.0
219.710159 156.0
219.945206 308.0
220.023376 188.0
220.09024 28488.0
220.252167 112.0
220.401031 172.0
220.9776 148.0
221.092621 4060.0
221.136322 144.0
221.554916 140.0
222.086746 1680.0
222.25325 104.0
222.724609 140.0
223.28244 148.0
223.639465 144.0
223.672211 148.0
223.764496 180.0
224.073517 164.0
224.211304 156.0
225.11821 152.0
225.635117 148.0
225.871368 184.0
225.898285 180.0
226.535904 168.0
226.625793 148.0
226.697235 152.0
226.877533 140.0
226.916748 156.0
227.039459 152.0
227.931015 160.0
228.138397 140.0
228.803253 160.0
229.463043 204.0
230.667572 108.0
230.985077 152.0
231.617706 144.0
232.090088 228.0
232.493927 156.0
233.289719 208.0
233.402206 164.0
233.542099 140.0
233.81897 164.0
234.104218 540.0
234.373199 140.0
234.74884 136.0
235.11026 260.0
235.914459 152.0
236.093369 132.0
236.396484 160.0
237.813614 192.0
237.878067 168.0
238.160568 144.0
238.246582 160.0
238.332596 152.0
238.369476 176.0
238.615372 156.0
240.16124 220.0
240.293884 164.0
240.780182 208.0
241.269241 108.0
241.473892 152.0
241.736862 164.0
243.62178 124.0
244.542374 280.0
245.513474 132.0
246.235336 232.0
246.325912 164.0
246.541504 156.0
246.619629 144.0
246.735291 144.0
249.343246 172.0
249.700333 176.0
249.793472 148.0
250.583054 192.0
251.327148 148.0
251.633301 160.0
251.936493 188.0
252.502289 168.0
252.562378 140.0
252.992737 144.0
253.252396 212.0
253.786758 180.0
254.235214 152.0
254.403748 124.0
254.762299 156.0
255.760773 172.0
256.172028 160.0
256.429657 180.0
256.773956 180.0
256.908905 100.0
257.043915 156.0
257.171143 124.0
257.805145 168.0
257.99527 132.0
258.381836 128.0
258.549103 120.0
259.101013 152.0
259.139465 140.0
259.431122 164.0
259.508057 160.0
259.552948 140.0
259.575806 152.0
259.655548 228.0
260.384186 136.0
262.002045 144.0
262.174255 108.0
262.208282 140.0
262.23407 148.0
262.312836 228.0
262.377747 144.0
262.679016 156.0
263.091553 120.0
263.360107 148.0
263.71875 152.0
263.86261 124.0
264.37851 148.0
265.288666 168.0
266.700684 184.0
266.917542 180.0
267.839539 152.0
268.644684 144.0
269.215851 144.0
270.31488 148.0
270.589172 192.0
270.698975 108.0
270.812042 132.0
270.949432 176.0
271.028076 212.0
271.280426 96.0
271.703461 140.0
272.649139 176.0
272.767456 200.0
273.010773 152.0
273.125885 152.0
273.246307 112.0
273.977631 156.0
274.179993 10996.0
274.329803 164.0
274.497772 172.0
274.5289 152.0
274.720337 168.0
274.773132 100.0
274.903137 116.0
274.988922 184.0
275.078796 96.0
275.18277 2780.0
275.235596 124.0
275.760315 148.0
276.183533 132.0
276.504486 144.0
276.618164 148.0
276.75412 128.0
276.794128 108.0
277.382202 232.0
277.826569 152.0
278.118835 164.0
278.3078 216.0
278.399567 152.0
278.55014 132.0
279.07782 192.0
279.280792 184.0
279.444702 136.0
279.473145 252.0
280.414673 224.0
282.031952 112.0
282.135925 184.0
283.059387 152.0
283.444611 148.0
284.746216 200.0
285.045197 160.0
285.599915 180.0
285.699585 100.0
285.916168 152.0
286.176788 260.0
286.751404 180.0
287.552521 104.0
287.667603 96.0
288.317383 144.0
288.526947 184.0
289.183167 160.0
290.290985 152.0
290.368988 308.0
290.436829 148.0
291.547058 176.0
292.356415 228.0
292.843262 156.0
293.507812 160.0
293.596466 176.0
294.139893 116.0
294.415497 140.0
294.537994 144.0
295.4888 184.0
297.245667 144.0
297.36322 140.0
297.916168 116.0
298.404053 220.0
298.495361 116.0
298.739166 172.0
298.785828 160.0
298.827087 184.0
299.175781 176.0
299.209137 208.0
299.325684 112.0
299.939423 140.0
299.99115 148.0
300.546417 200.0
301.37027 152.0
301.487122 132.0
302.294586 104.0
302.36911 120.0
302.719757 156.0
303.229919 164.0
303.926544 176.0
303.951233 208.0
304.044922 352.0
304.07962 168.0
304.198364 136.0
304.298309 144.0
304.867981 156.0
304.944427 176.0
304.989624 164.0
305.890533 156.0
305.981049 148.0
306.15863 144.0
306.747437 212.0
306.963623 152.0
307.724274 160.0
307.813782 176.0
308.132904 140.0
308.269165 168.0
308.901978 152.0
308.971954 152.0
309.934784 156.0
310.124023 200.0
310.439545 148.0
310.495117 156.0
311.295807 148.0
311.330902 156.0
311.46756 168.0
312.262238 156.0
312.395905 224.0
312.764435 136.0
314.040863 140.0
314.481903 160.0
314.527466 156.0
314.55957 152.0
314.827881 152.0
315.207245 444.0
315.30835 172.0
315.514435 108.0
315.56543 144.0
315.608826 216.0
316.273926 236.0
316.34201 152.0
316.709442 168.0
316.990509 144.0
317.052155 120.0
317.161285 320.0
317.222076 25296.0
317.303192 108.0
317.408569 188.0
317.49762 104.0
317.723267 140.0
317.894318 136.0
318.104919 160.0
318.224762 5604.0
318.293243 108.0
318.331482 168.0
318.458832 100.0
318.720154 124.0
318.757782 160.0
319.104797 188.0
319.141754 152.0
319.225494 788.0
319.748657 148.0
320.183899 140.0
320.229523 128.0
320.473816 156.0
320.575958 136.0
320.91568 96.0
321.148529 172.0
321.253235 156.0
322.123322 156.0
322.237152 148.0
322.856018 152.0
323.550446 112.0
323.876038 140.0
324.150879 508.0
324.538513 112.0
324.917816 236.0
325.150085 680.0
325.425262 216.0
326.050293 144.0
326.170898 220.0
326.582397 168.0
327.166656 248.0
327.708313 120.0
328.18454 2296.0
328.365234 172.0
328.424744 104.0
328.577087 140.0
329.063751 160.0
329.18576 1136.0
329.593719 100.0
329.84198 140.0
330.062531 164.0
330.174988 152.0
331.00238 124.0
331.108337 172.0
331.136169 172.0
331.314789 224.0
331.379059 244.0
332.134064 224.0
332.441071 232.0
334.081085 144.0
335.135681 144.0
336.086578 208.0
336.520935 156.0
336.639618 108.0
336.788025 152.0
337.345306 112.0
337.443604 148.0
337.967651 128.0
338.173737 156.0
338.339935 180.0
339.370667 124.0
339.720428 132.0
340.404205 164.0
340.791962 164.0
340.897064 120.0
341.223755 348.0
341.558228 200.0
341.89798 160.0
341.94455 140.0
342.058655 164.0
342.205933 212.0
342.261139 192.0
342.352661 216.0
342.920563 144.0
343.235382 944.0
343.28186 184.0
343.386749 132.0
343.565857 164.0
344.235565 320.0
344.740021 156.0
344.825012 164.0
345.234955 140.0
345.916168 148.0
346.238281 236.0
346.327179 168.0
346.563324 184.0
347.715942 160.0
347.971588 156.0
349.155304 148.0
349.371033 168.0
349.455322 168.0
349.713379 144.0
349.851105 160.0
350.547607 176.0
350.697021 132.0
350.78241 164.0
350.968811 140.0
351.166473 140.0
352.149841 132.0
352.6987 160.0
352.981445 152.0
353.090668 124.0
353.313232 152.0
353.737183 144.0
354.16275 136.0
354.26825 148.0
354.455322 156.0
355.164825 172.0
355.341156 184.0
355.459778 108.0
355.649902 144.0
355.791504 272.0
356.911835 152.0
357.243896 356.0
357.370026 140.0
357.405762 152.0
357.791534 152.0
357.896484 128.0
358.011139 160.0
358.15683 188.0
358.249023 256.0
358.522278 140.0
358.823822 180.0
358.940704 160.0
359.108429 112.0
359.378265 152.0
359.691498 144.0
359.827393 160.0
360.065277 188.0
360.220154 200.0
360.296631 128.0
360.582855 168.0
360.836121 160.0
361.34024 232.0
361.781921 140.0
361.817566 164.0
362.100006 156.0
362.285583 152.0
362.418213 208.0
362.533875 148.0
362.689423 128.0
363.363495 224.0
363.44986 136.0
363.55957 168.0
363.808807 132.0
364.391144 152.0
364.443573 100.0
364.592529 160.0
364.756805 128.0
364.812988 156.0
365.061005 156.0
365.284546 184.0
365.341583 140.0
365.425293 192.0
365.897217 236.0
366.209473 208.0
366.247559 160.0
367.906342 168.0
368.540314 160.0
368.843079 180.0
369.030182 124.0
369.063965 172.0
369.4133 184.0
369.572693 156.0
370.330658 184.0
370.385406 136.0
370.824921 164.0
370.936066 148.0
371.134766 164.0
371.219788 140.0
371.431641 152.0
371.653229 156.0
372.417175 172.0
372.517059 140.0
372.862854 208.0
372.932037 184.0
373.035828 160.0
373.153351 160.0
373.437439 124.0
373.68808 112.0
374.041473 156.0
374.550171 148.0
374.665009 112.0
374.902527 156.0
375.173615 108.0
375.802979 116.0
376.990845 108.0
377.519897 204.0
377.833191 192.0
378.026672 148.0
378.2966 124.0
379.359009 148.0
379.44043 164.0
379.90802 144.0
380.029938 176.0
380.103668 148.0
380.212341 300.0
380.36615 108.0
380.484039 212.0
380.590515 208.0
380.938416 140.0
381.385254 160.0
381.665741 136.0
381.714905 208.0
381.753632 224.0
382.373169 144.0
382.633972 144.0
383.132477 180.0
383.245453 244.0
383.479279 176.0
383.646881 156.0
383.853516 140.0
384.458313 200.0
384.985199 144.0
385.770538 144.0
386.020752 156.0
386.360931 152.0
387.085114 148.0
387.1987 152.0
388.668732 192.0
390.479706 164.0
391.026581 164.0
391.172211 140.0
391.432159 176.0
391.575195 164.0
392.382111 148.0
393.146851 224.0
393.479248 96.0
394.468994 128.0
394.92868 144.0
395.32196 108.0
395.608917 168.0
396.08078 120.0
396.11615 156.0
396.14389 380.0
396.266693 176.0
396.368042 124.0
396.462463 128.0
396.68811 212.0
396.744293 96.0
397.529541 148.0
398.285919 172.0
398.613525 112.0
398.995575 136.0
399.648834 124.0
400.083313 172.0
400.278381 156.0
400.732483 168.0
400.883881 164.0
401.686249 148.0
401.819763 168.0
401.872772 192.0
402.251892 148.0
402.305542 108.0
402.394684 172.0
402.679138 172.0
403.598267 144.0
403.947906 160.0
404.350311 152.0
405.251312 172.0
405.311432 160.0
407.641235 144.0
407.835785 116.0
408.102661 108.0
408.282806 136.0
408.327148 104.0
409.000427 104.0
409.09549 128.0
409.267853 160.0
409.511902 112.0
411.218994 160.0
411.424164 96.0
411.59845 140.0
411.715576 140.0
412.058899 164.0
412.133087 156.0
413.087189 136.0
413.645081 160.0
413.916992 240.0
413.972107 188.0
414.672974 164.0
414.807434 120.0
414.895935 164.0
415.406891 152.0
415.466797 120.0
416.03183 96.0
416.13739 144.0
416.653198 132.0
417.01889 160.0
417.206268 128.0
417.366486 256.0
418.335999 204.0
418.528503 136.0
418.737427 144.0
419.122833 148.0
419.588654 248.0
419.843567 144.0
420.11734 112.0
420.770935 104.0
420.964355 160.0
421.698914 176.0
422.388885 168.0
423.11731 156.0
423.162354 124.0
423.5242 156.0
423.569 108.0
423.76474 96.0
423.79718 152.0
423.980103 144.0
424.227509 148.0
424.466705 180.0
424.821686 108.0
424.92688 152.0
425.029053 144.0
425.121643 148.0
425.414185 132.0
425.682251 192.0
425.762054 164.0
425.966309 160.0
426.078339 148.0
426.218872 120.0
426.300232 140.0
426.339752 156.0
426.36557 156.0
426.704071 144.0
426.966217 144.0
427.009735 96.0
427.136841 272.0
427.620361 140.0
428.589783 124.0
428.785919 184.0
429.020844 164.0
429.301239 160.0
429.373413 184.0
429.433197 148.0
429.869232 144.0
429.953857 140.0
430.072723 156.0
430.708618 172.0
431.049103 164.0
431.6633 140.0
431.706512 136.0
431.741852 148.0
432.337585 172.0
432.403809 156.0
433.683594 180.0
434.073303 176.0
434.807587 348.0
435.554932 164.0
435.885162 180.0
435.978729 140.0
437.317902 164.0
437.415649 144.0
437.706665 148.0
437.761932 116.0
438.132355 176.0
438.309052 152.0
438.661804 176.0
438.763367 144.0
439.156006 128.0
439.397278 140.0
439.635101 204.0
439.681305 172.0
439.756134 140.0
439.952332 156.0
440.207306 124.0
440.704102 164.0
441.009155 156.0
441.372864 140.0
441.655457 136.0
441.941711 168.0
442.540253 168.0
442.636536 172.0
442.670868 164.0
445.008362 120.0
445.274323 140.0
445.433929 140.0
445.577515 136.0
445.652405 184.0
445.891907 204.0
446.14621 112.0
446.526764 192.0
446.991486 144.0
447.675659 152.0
447.92334 104.0
448.206024 256.0
448.542511 192.0
448.697418 212.0
448.781708 156.0
449.872345 172.0
450.463562 148.0
450.505798 180.0
450.543823 152.0
451.45993 312.0
451.763245 204.0
451.816315 164.0
452.248962 132.0
452.605927 132.0
453.927521 132.0
455.003326 160.0
455.415527 116.0
455.814575 160.0
455.908936 152.0
455.985901 140.0
456.133301 152.0
456.163055 196.0
456.609528 172.0
456.756561 112.0
457.269318 212.0
458.225677 116.0
459.092896 196.0
459.245911 144.0
459.740784 176.0
460.163391 160.0
460.54892 156.0
461.227081 160.0
461.462219 156.0
461.628967 152.0
461.761536 152.0
462.139648 176.0
462.20105 108.0
462.758606 256.0
462.938446 152.0
463.796997 212.0
464.001404 156.0
464.065369 320.0
464.225189 208.0
464.300232 120.0
464.764496 148.0
464.914703 160.0
465.231995 104.0
465.859283 164.0
466.224182 172.0
466.714569 144.0
466.822052 148.0
467.342529 140.0
468.157806 140.0
468.6698 172.0
468.724701 140.0
469.414398 184.0
469.464325 132.0
469.69043 168.0
470.212494 148.0
470.683044 160.0
470.912598 156.0
471.07605 168.0
471.145172 152.0
471.382812 140.0
471.767487 168.0
471.987762 228.0
472.16095 164.0
472.985077 160.0
473.112885 148.0
473.23111 208.0
473.342346 140.0
473.421051 136.0
473.82077 96.0
473.89679 160.0
474.267548 108.0
474.334473 144.0
474.466248 172.0
475.245667 316.0
475.442322 156.0
475.548981 208.0
475.770355 148.0
475.878418 144.0
476.257782 516.0
476.745789 140.0
477.293823 156.0
477.363892 100.0
477.512817 212.0
477.678101 224.0
477.833405 160.0
478.269867 144.0
478.369995 144.0
479.044952 188.0
479.572205 156.0
479.672455 168.0
479.764008 140.0
479.990723 156.0
480.06485 196.0
480.186951 176.0
480.659637 148.0
480.755463 140.0
481.056854 164.0
481.142578 200.0
481.278046 152.0
481.376953 164.0
481.684082 172.0
482.241669 124.0
482.461914 148.0
482.636658 112.0
482.856873 192.0
483.201019 144.0
483.354156 152.0
483.498566 156.0
483.619385 132.0
484.113953 112.0
484.407501 176.0
484.843048 152.0
484.876434 124.0
485.277008 148.0
485.338409 140.0
485.65686 168.0
485.842468 112.0
485.990417 120.0
486.290344 164.0
486.487885 180.0
486.574371 228.0
486.990417 116.0
487.024536 132.0
487.161377 108.0
487.250977 152.0
487.388885 160.0
487.467926 148.0
487.6539 184.0
487.834137 104.0
487.920044 100.0
487.990875 104.0
488.055908 160.0
488.196259 132.0
488.51236 104.0
488.60498 172.0
488.658295 344.0
488.876343 140.0
488.932129 216.0
489.090515 144.0
489.147034 320.0
489.200958 144.0
489.316467 160.0
489.352783 116.0
489.427582 112.0
489.501129 128.0
489.553345 124.0
489.599792 252.0
489.654144 136.0
489.707764 136.0
489.73291 300.0
489.772797 212.0
489.973083 116.0
490.049622 140.0
490.118164 116.0
490.158905 220.0
490.200256 328.0
490.256317 196.0
490.359497 192.0
490.420837 224.0
490.468719 196.0
490.556671 108.0
490.636963 168.0
490.686127 372.0
490.736908 272.0
490.810669 224.0
490.992554 216.0
491.09729 176.0
491.177979 268.0
491.245605 4424.0
491.34198 256.0
491.375977 244.0
491.484283 224.0
491.58316 380.0
491.599548 364.0
491.650452 136.0
491.678253 216.0
491.714569 624.0
491.834625 392.0
491.900452 364.0
491.944977 388.0
491.981384 456.0
492.053436 768.0
492.098419 348.0
492.139862 504.0
492.250763 1480.0
492.316467 724.0
492.327698 292.0
492.368835 948.0
492.402374 676.0
492.43811 472.0
492.502136 660.0
492.548279 748.0
492.588318 324.0
492.647827 472.0
492.695038 260.0
492.782532 604.0
492.825928 572.0
492.871368 448.0
492.905884 488.0
492.951355 584.0
492.992065 820.0
493.039856 504.0
493.1008 968.0
493.16568 1388.0
493.265045 421964.0
493.41922 328.0
493.541229 512.0
493.571777 584.0
493.678558 2260.0
493.738342 720.0
493.819092 1084.0
493.934814 1060.0
494.003021 12148.0
494.098389 716.0
494.110046 600.0
494.267303 321304.0
494.408569 408.0
494.517761 480.0
494.591583 224.0
494.684296 1952.0
494.735199 1192.0
494.781128 516.0
494.870789 320.0
494.932983 364.0
494.998596 1416.0
495.056335 620.0
495.141479 312.0
495.183075 304.0
495.264404 101216.0
495.408295 424.0
495.490234 144.0
495.636505 180.0
495.682922 228.0
495.738739 248.0
495.785706 360.0
495.811005 444.0
495.876373 256.0
495.909454 172.0
496.000854 260.0
496.066681 176.0
496.12851 336.0
496.149811 460.0
496.26355 15160.0
496.418274 504.0
496.473907 184.0
496.49469 324.0
496.545044 276.0
496.605011 568.0
496.741272 308.0
496.77774 408.0
496.850952 452.0
496.920441 328.0
496.988831 492.0
497.048798 572.0
497.114594 576.0
497.150452 656.0
497.265015 2056.0
497.364502 324.0
497.422546 320.0
497.523468 232.0
497.532959 228.0
497.59494 368.0
497.698975 244.0
497.783478 252.0
497.84375 328.0
497.883453 308.0
497.940582 276.0
498.04541 208.0
498.078094 240.0
498.118713 384.0
498.169678 208.0
498.214783 360.0
498.276306 380.0
498.34845 228.0
498.388855 120.0
498.430176 360.0
498.48465 292.0
498.540436 240.0
498.604889 204.0
498.669098 300.0
498.753174 140.0
498.871185 164.0
498.906128 240.0
498.998444 212.0
499.065094 296.0
499.10141 260.0
499.199707 236.0
499.253815 116.0
499.295929 132.0
499.351929 96.0
499.535431 176.0
499.694031 120.0
499.742371 160.0
500.005432 148.0
500.107941 204.0
500.263306 204.0
500.532257 108.0
500.738251 124.0
500.982452 120.0
501.361969 124.0
501.451294 140.0
501.489746 112.0
501.774689 96.0
502.215088 96.0
502.582153 128.0
502.735413 116.0
502.892365 112.0
504.137604 196.0
504.228271 208.0
504.310944 96.0
506.410614 116.0
506.711731 188.0
507.502441 96.0
508.076447 100.0
508.110229 136.0
508.183624 96.0
508.846558 104.0
508.942474 156.0
509.14743 196.0
509.399872 116.0
509.825592 96.0
510.215149 192.0
510.464966 124.0
510.759583 100.0
511.031616 128.0
511.388641 96.0
511.450897 156.0
511.69043 116.0
511.751007 204.0
511.929291 108.0
512.171204 116.0
513.00116 100.0
513.036865 144.0
514.683594 100.0
515.066345 164.0
515.250854 156.0
515.745239 100.0
515.809143 112.0
517.939819 124.0
520.511292 136.0
542.142456 112.0
549.603516 112.0
591.745056 148.0
611.178284 128.0
613.267639 124.0
621.771179 148.0
636.096436 96.0
636.53302 168.0
637.932861 160.0
643.18866 160.0
647.141968 188.0
658.056396 128.0
672.252747 116.0
686.355347 140.0
708.576233 120.0
709.424622 104.0
717.162476 104.0
739.984314 136.0
745.444031 124.0
746.579163 144.0
753.116516 96.0
798.953979 108.0
810.702332 104.0
820.954956 140.0
856.001343 200.0
881.240234 156.0
921.974609 112.0
964.902466 156.0
1066.083984 140.0
1111.062988 96.0
1115.599365 156.0
1125.960449 140.0
1148.815674 160.0
1206.305054 152.0
1219.113525 232.0
1304.017456 172.0
1315.152588 232.0
1327.988159 156.0
1337.433838 140.0
1341.046509 184.0
1341.775391 156.0
1346.114502 116.0
1356.403442 164.0
1381.9375 132.0
1398.015991 164.0
1408.42395 140.0
1414.720215 156.0
1423.477417 156.0
1424.656616 140.0
1435.728638 156.0
1446.540771 140.0
1456.679321 160.0
1459.871582 144.0
1468.218018 176.0
1534.146973 176.0
1548.085938 176.0
1552.329224 116.0
1559.799805 196.0
1561.348633 168.0
1569.175781 168.0
1571.477905 180.0
1571.628662 176.0
1605.899658 160.0
1615.333008 180.0
1620.264282 148.0
1635.827759 176.0
1639.515381 132.0
1641.701294 156.0
1650.446533 140.0
1655.074829 200.0
1659.101562 160.0
1659.288086 156.0
1667.454102 192.0
1679.430786 172.0
1691.43396 184.0
1710.216187 180.0
1715.26355 172.0
1719.412231 164.0
1723.615601 180.0
1726.417847 164.0
1736.123657 156.0
1736.505127 168.0
1754.674561 176.0
1755.950317 164.0
1757.710571 212.0
1764.450928 140.0
1767.997559 152.0
1769.110718 320.0
1783.698486 204.0
1791.052734 180.0
1794.389893 172.0
1795.966797 144.0
1797.122559 144.0
1798.329346 144.0
1803.675903 152.0
1804.952515 232.0
1807.481689 240.0
1809.927979 156.0
1814.147217 140.0
1816.402832 184.0
1821.275024 160.0
1823.127197 148.0
1823.739136 144.0
1823.900635 160.0
1825.008911 232.0
1828.076538 144.0
1828.468018 148.0
1831.797241 160.0
1844.94751 176.0
1845.982178 204.0
1846.230103 172.0
1852.221313 160.0
1854.911987 196.0
1855.151978 204.0
1859.91272 168.0
1861.5354 144.0
1862.883911 164.0
1864.327271 176.0
1865.582275 176.0
1870.132568 144.0
1870.192871 168.0
1870.803955 164.0
1875.593506 208.0
1876.024414 228.0
1877.205688 180.0
1882.763184 164.0
1883.75647 152.0
1884.058838 156.0
1890.344727 164.0
1891.019775 156.0
1894.097656 108.0
1899.034058 156.0
1899.35498 188.0
1906.630859 148.0
1908.412842 144.0
1911.457153 180.0
1912.867188 192.0
1914.582397 228.0
1915.523071 144.0
1916.272217 184.0
1918.424927 140.0
1934.988892 192.0
1936.354858 168.0
1939.737061 144.0
1942.540649 116.0
1942.648315 148.0
1944.131104 208.0
1946.77356 164.0
1950.920654 184.0
1951.026245 148.0
1959.844971 200.0
1964.494995 112.0
1968.206787 140.0
1968.498169 148.0
1969.602173 180.0
1973.251953 172.0
1974.312988 184.0
1979.197632 172.0
1981.385376 164.0
1987.307861 176.0
1989.970581 156.0
1990.165894 164.0
2001.912354 176.0
