>compound Clozapine
>formula C18H19ClN4 
>ionization [M+H]+
>parentmass 327.135986
#inchi InChI=1S/C18H19ClN4/c1-22-8-10-23(11-9-22)18-14-4-2-3-5-15(14)20-16-7-6-13(19)12-17(16)21-18/h2-7,12,21H,8-11H2,1H3
#inchikey ZUXABONWMNSFBN
#Ion_Source LC-ESI
#Instrument qTof
#Compound_Source Isolated
#PI Sirenas
#Data_Collector Ed Esquenazi 
#Scan -1
#Precursor_MZ 327.138
#ExactMass 0.0
#Charge 1
#CAS_Number N/A
#Pubmed_ID N/A
#Smiles N/A
#INCHI_AUX N/A
#Library_Class 3
#SpectrumID CCMSLIB00000005801
#IonMode Positive
#UpdateWorkflowName UPDATE-SINGLE-ANNOTATED-BRONZE
#LibraryQualityString Bronze
#TaskID d19310cd93df49b68e9fcbec27720eb5
##Scan# 3
#SpectrumFile Clozapine.mgf
#LibraryName fda_library.mgf
#MQScore -1
#Organism fda_library
#TIC_Query 0
#RT_Query -1
#MZErrorPPM -1
#SharedPeaks 0
#MassDiff 0
#LibMZ -1
#SpecMZ 327.138
#SpecCharge 0
#internalFilename spec-00000.mgf

>collision 10
100.009186 19.782961
101.107315 132.216507
102.035789 26.481131
103.054581 63.320919
104.048721 41.3675
104.925667 14.71075
104.931183 3.834936
105.048134 43.227539
106.062004 43.160751
108.066086 18.537189
109.077187 22.57292
110.997429 9.711021
114.036995 23.00148
115.051346 29.26515
116.048256 145.256302
117.056755 182.772903
117.347527 6.707615
117.635033 4.835938
118.066063 53.00985
119.064537 39.395321
119.498802 8.282372
120.470497 6.574911
123.196892 4.505357
123.355171 3.334326
123.861855 4.000484
123.994606 1904.932007
124.041748 11.78895
124.118591 3.9675
124.132004 8.768801
124.152435 12.95139
124.159927 7.170834
124.168877 5.002778
124.190956 12.5125
124.19902 6.052536
124.257156 4.844298
124.375595 7.275735
124.419632 11.36111
124.478233 3.166667
124.503716 4.401389
124.513168 6.670204
124.593857 7.302778
124.711227 7.717659
124.718994 4.333333
125.014359 46.19104
125.611786 8.775641
125.805305 3.013889
126.01078 356.754303
127.052078 12.38587
127.135101 8.049428
127.327751 2.851852
128.047165 12.66667
128.062592 13.38028
128.197556 8.076923
128.248138 5.895833
129.054993 27.18668
130.065536 52.762299
130.084549 4.75
130.748337 9.380029
131.061691 124.552696
131.075394 17.861019
131.462952 7.041159
131.582733 9.166667
131.710449 5.415
132.067627 412.912598
132.171799 6.502315
132.362045 4.025
132.512955 6.074167
134.937012 25.28635
137.000732 17.001659
137.037231 34.289131
137.925583 11.39352
138.009064 25.890039
138.045654 251.931107
138.204636 7.757883
139.032043 40.197781
139.052002 55.30632
139.376785 4.539244
139.754898 4.529167
139.829376 3.705128
140.023056 34.416229
140.10675 7.020833
140.124374 17.213909
140.435379 5.188844
141.019791 84.29248
141.400681 5.836512
142.063675 30.550819
143.05806 46.997231
143.071274 15.85417
144.066162 17.578131
144.080429 78.192833
144.262207 7.190217
150.010773 7.6
150.049011 16.2099
152.016068 42.984241
152.027588 55.430222
152.050476 9.64938
152.446838 7.675495
152.496979 4.505556
152.94986 42.52459
153.028946 204.669693
153.892654 3.6875
154.169846 4.008152
154.948349 14.50172
155.07814 2.053571
155.888794 6.193452
156.079758 27.52771
156.145844 4.214881
157.074509 31.44034
158.079407 10.45936
158.269257 6.544271
158.340454 4.561237
158.580978 7.686274
159.078171 102.791496
162.044373 20.276369
162.708038 4.012821
163.002213 11.71171
163.051102 19.5467
163.1698 7.205911
164.049377 1216.713013
164.122284 6.169271
164.136932 4.713362
164.256088 3.888889
164.264893 5.214015
164.314301 3.336806
164.36734 7.225291
164.403152 6.501488
164.433304 34.938099
164.568237 5.33507
164.58609 7.179167
164.621826 4.821047
164.630722 7.168333
164.866653 9.880952
165.023438 25.20236
165.033356 28.56599
165.056732 526.453125
165.130341 8.160714
165.148926 5.357073
165.192886 7.496059
165.283661 19.650921
165.551743 6.646849
165.587616 8.986209
165.640488 8.419208
166.026566 15.34884
166.062897 184.203094
166.219147 4.333333
166.299896 4.849638
166.466049 11.18519
166.58226 4.694221
166.874634 4.511111
167.036484 118.786301
167.067032 85.827209
168.064987 59.65633
169.07489 56.248619
169.53212 5.504808
170.081329 30.723921
170.912704 41.87244
171.090759 63.89534
171.117355 5.745098
171.289627 5.535088
171.572037 1.501603
172.023315 36.060822
173.014252 87.725456
174.170181 3.0
175.034454 19.86842
175.05275 5.626984
177.018616 12.02759
177.056046 4.669271
178.067581 16.439569
179.035049 16.668871
179.057251 13.23512
179.072052 278.017212
180.077576 49.102798
180.454941 5.636364
181.82814 4.349116
185.108063 12.48594
187.119141 14.78571
188.024292 30.928539
188.426117 5.508772
189.053238 25.8675
189.291351 9.350636
189.981628 7.21007
190.034073 6.435381
190.047653 17.63315
190.061386 36.530281
190.097214 6.044271
190.1371 17.966669
190.151184 23.593229
190.186172 17.67244
190.293121 5.343137
190.35611 18.002781
190.384323 4.349116
190.427917 11.18937
190.478638 10.24969
190.533157 6.66713
190.610641 6.556019
190.768524 4.862319
190.788467 10.51071
190.816101 6.252083
190.860214 9.290157
190.885956 20.747351
190.897888 12.19048
190.921265 36.522751
190.942261 77.209869
190.973785 37.206131
191.011047 105.3339
191.021973 44.629742
191.033691 32.078239
191.060547 4621.25
191.115112 71.110901
191.143005 30.886921
191.155746 61.72271
191.182465 84.457336
191.207367 30.54084
191.224731 41.11253
191.240402 51.21603
191.270401 101.4366
191.301117 62.479481
191.322723 38.052341
191.341812 13.26042
191.374893 66.823036
191.409668 26.80109
191.437729 47.19054
191.458405 8.819592
191.496948 72.471428
191.527451 26.483419
191.546066 20.83906
191.559616 41.757759
191.58049 18.165039
191.602829 57.231201
191.629211 16.878969
191.645645 17.17778
191.714996 84.581047
191.741989 4.075
191.761551 9.867045
191.776199 18.566561
191.836807 18.53512
191.893829 13.85392
191.92363 42.076839
191.951157 8.688406
191.968155 13.19157
191.979263 15.16987
192.068588 112373.601562
192.479065 146.002594
192.52124 30.42338
192.535812 8.395127
192.548401 29.285351
192.565094 52.03474
192.585358 29.007721
192.612747 3.008333
192.623398 13.26207
192.633774 36.922859
192.65979 54.24329
192.672852 2.006944
192.693802 64.286179
192.724304 60.063782
192.74646 18.580759
192.767731 65.440086
192.791519 57.838039
192.820724 54.782921
192.846756 83.155083
192.882492 53.664429
192.907639 30.23719
192.948242 34.75782
193.03186 39.35342
193.134659 56.129108
193.168579 40.51873
193.305008 21.880011
193.3694 6.274167
193.410309 51.872349
193.497894 13.33673
193.586594 14.00536
193.601776 9.169332
193.655014 21.595751
193.710876 5.107456
193.755447 15.22029
193.897491 14.13225
193.934906 16.549339
193.95015 42.77232
193.968216 10.38294
194.05307 7.005357
194.145737 16.7428
194.195816 17.77664
194.238998 4.300595
194.30751 9.877761
194.368622 11.19735
194.457214 4.850134
194.468643 6.095109
194.505707 11.50107
194.529984 5.5375
194.554138 9.24397
194.622192 7.914351
194.670776 4.427083
194.777466 4.868535
194.796951 8.448053
194.84053 7.845446
194.966934 4.528986
194.981491 5.681548
195.057663 12.63614
195.501633 5.670204
195.822861 8.222131
195.890991 5.667439
196.069809 6.538462
196.330948 8.307693
196.344284 3.490385
196.402573 5.293651
196.505264 24.502871
196.535919 7.377752
196.763672 8.408951
196.964096 10.18182
197.040939 5.357143
197.093628 11.77083
197.111252 3.314951
197.198929 6.888889
197.77005 8.542857
198.542603 11.07292
198.77449 4.960938
198.84819 12.22917
198.863205 5.667201
199.093201 4.72815
199.117752 7.078432
199.993057 8.173612
200.025742 2296.280029
200.097092 9.709523
200.120712 4.666667
200.172653 10.04735
200.189346 4.668982
200.214233 10.42667
200.239502 11.15022
200.251724 12.51947
200.294678 11.94643
200.341248 12.78841
200.376617 11.2419
200.393539 19.81654
200.421677 6.05609
200.442932 3.333333
200.463669 4.130208
200.553757 5.711957
200.622742 7.001603
200.686813 3.743056
200.773727 4.354167
200.990128 20.574089
201.165329 12.08805
201.32019 3.080044
201.408951 6.25926
201.639542 8.043269
202.021515 12.02997
202.054123 48.193562
202.524979 18.04167
202.737076 5.693452
202.905731 3.195513
203.074417 9.837323
204.032654 17.025459
204.818085 5.449275
204.862885 9.680651
205.07608 569.375183
205.136856 4.360923
205.211624 5.423611
205.302002 4.963235
205.440903 3.551136
205.465836 4.333929
205.655365 4.409722
205.669281 3.166667
205.889404 4.080357
205.931656 7.840868
206.082962 1066.625977
206.144592 5.003676
206.289429 6.667339
206.32692 12.50123
206.411652 3.595109
206.44426 6.800463
206.539642 9.175
206.616531 9.362069
206.90332 4.500992
206.92453 4.561275
207.091019 672.113525
207.360168 8.022041
207.435287 7.838709
207.550552 4.182449
207.701569 6.890625
207.7939 10.23692
207.90654 2.843202
208.062073 4.363636
208.099472 796.378418
208.267868 3.348485
208.346024 4.340278
208.382935 6.260417
208.433609 6.513481
208.58931 5.300463
208.629501 4.847756
208.790146 11.83929
209.07106 31.72393
210.104721 11.42158
210.129608 9.001041
210.422195 4.340833
210.904785 13.62745
212.648514 8.169465
213.034225 286.986389
213.908554 9.597673
214.041 349.241486
214.215759 4.6
214.937515 5.186683
215.036972 1012.228027
215.126678 12.55518
215.43222 3.657051
215.507751 5.561237
215.708633 4.194221
215.800339 5.121212
215.904678 3.670833
215.98436 4.722685
216.053146 34.99408
216.291229 3.005682
216.511292 5.0625
216.823654 7.171568
216.905624 4.503989
217.075684 282.883789
217.170532 16.945379
217.454147 4.371142
217.506851 7.892565
218.041794 11.90395
218.083801 4014.909912
218.142181 6.705246
218.191925 21.390011
218.224426 7.668561
218.239914 8.230681
218.315308 11.30262
218.374084 12.69479
218.391983 7.506945
218.43869 13.83776
218.512283 7.189783
218.630585 6.582237
218.677673 10.3375
218.76915 10.87171
218.821152 6.906666
218.84668 6.501984
218.916443 20.819019
218.933716 20.82892
219.132324 18.972521
219.165787 7.000772
219.304962 5.004167
219.322906 15.22712
219.398132 12.87619
219.469849 3.833333
219.662079 5.797619
219.965088 3.3075
220.054276 67.649673
220.141388 12.18382
220.170135 14.31591
220.252167 14.72768
220.291794 14.86525
220.31073 7.605469
220.335678 15.503
220.362534 17.0
220.378128 11.44537
220.433426 11.67361
220.460495 13.91228
220.522476 4.365079
220.817047 4.666667
221.215866 7.714285
221.422318 5.660017
222.085419 5.888889
222.126892 4.901515
223.000534 9.740779
223.820389 7.515
224.028625 4.512112
224.481873 12.83899
224.601532 19.5404
224.658081 10.44583
224.732544 10.68241
224.796707 8.588644
224.831818 3.65308
224.949326 11.94444
225.037674 11.86111
225.053452 28.626169
225.086914 7.545725
225.334564 5.002976
225.604691 8.061275
225.633408 6.370833
225.659241 10.73148
225.671875 7.367773
225.697983 6.500379
225.718994 11.83494
225.728149 25.29232
225.755768 4.837963
225.776108 42.373829
225.807938 56.654289
225.837128 54.616749
225.862152 3.650219
225.876282 37.946388
225.889175 2.944444
225.912323 7.00436
225.934464 15.09426
225.957962 12.87466
225.979797 38.423618
225.994629 19.94083
226.029709 4962.992188
226.091309 51.198719
226.111252 7.680021
226.136246 19.005779
226.165848 18.780359
226.184387 9.520833
226.199997 4.005357
226.226486 18.116671
226.241745 40.164131
226.269791 79.953773
226.305069 31.341089
226.319763 4.276268
226.335236 8.174903
226.375778 91.672722
226.393631 5.386968
226.418457 25.095079
226.453491 18.215281
226.515533 25.77985
226.553802 18.98546
226.630005 13.06028
226.668518 26.887899
226.700241 9.414216
226.716492 22.375271
226.732773 22.00057
226.896423 4.16723
226.921692 31.67684
226.966171 18.230881
226.995651 51.933609
227.037613 27433.380859
227.205795 27.10355
227.252914 27.63522
227.320801 99.17424
227.353027 44.38826
227.387009 63.07711
227.415314 16.507099
227.428711 15.00568
227.438705 51.32832
227.474091 60.797749
227.500824 39.240318
227.556763 60.736
227.583328 25.41864
227.610748 19.494711
227.648331 70.574333
227.678558 28.349899
227.71669 80.589417
227.748779 18.05995
227.847565 17.2586
227.869339 22.610701
227.98027 13.81954
228.005997 37.400242
228.111023 18.96106
228.122391 11.00051
228.145218 4.704475
228.157578 52.029411
228.302994 4.504808
228.45575 4.194221
228.587006 19.50247
228.765137 5.501389
228.814972 10.04838
228.936523 4.83716
228.962753 9.583927
229.053024 1639.659058
229.176407 5.524899
229.214401 5.213542
229.269852 8.136111
229.288361 5.227904
229.330322 21.44977
229.381912 4.500992
229.48851 33.375488
229.514633 10.97974
229.620636 6.72002
229.913574 17.25
230.134476 14.84625
230.546921 5.6875
230.616425 5.682971
230.814819 16.542629
231.090866 90.837143
231.275894 6.259339
231.912827 4.531863
232.097336 252.293396
232.204071 6.320988
232.368454 4.669872
232.658783 7.040948
232.750397 4.402778
233.021164 12.00362
233.095673 300.87439
233.233643 3.894608
233.274902 7.0625
233.393021 6.667339
233.437576 7.142857
233.462158 6.540013
233.702194 4.731771
233.725449 12.31444
233.816345 12.31818
233.994019 7.019261
234.064514 48.432838
234.102646 2316.501953
234.150116 13.65091
234.164322 2.893939
234.196289 4.671474
234.24942 5.51796
234.265503 5.670494
234.300537 13.17951
234.331894 23.85037
234.357254 13.02587
234.393311 12.00181
234.419968 8.846265
234.446579 6.508333
234.491394 6.981617
234.515823 10.8343
234.548218 4.479167
234.611755 7.520833
234.787613 13.58926
234.862793 8.526786
234.894348 15.40054
235.109573 1887.453003
235.1716 11.1187
235.237595 11.59061
235.256943 5.333333
235.311691 12.66581
235.384537 11.6818
235.449356 9.568055
235.465332 4.469445
235.576004 17.28816
235.63736 21.49324
235.66069 6.693452
235.721466 12.50599
235.751266 13.00535
235.893066 8.047619
237.723251 14.70588
237.755432 5.0
237.975266 5.368535
238.020432 24.40885
238.04187 35.964119
239.037628 626.987122
239.136032 5.225291
239.17923 3.630401
239.259186 4.526786
239.391479 10.81705
239.639481 10.12257
239.862854 8.003179
240.042984 904.630615
240.17276 5.791667
240.191727 4.814815
240.231918 9.705358
240.272507 5.711957
240.315659 6.876736
240.32959 10.70761
240.428909 5.515783
240.542831 14.44142
240.579987 5.500563
240.720413 8.510629
241.006454 6.196272
241.051025 1338.973022
241.103683 4.666667
241.178497 5.69422
241.234985 9.741605
241.417557 4.727904
241.578812 6.236111
241.595642 6.897436
242.0392 11.16739
242.098801 12.09879
242.196136 9.07619
242.23941 5.833776
242.304947 6.452381
242.456039 4.344415
242.468506 8.760417
242.625565 3.060185
242.824829 3.851852
242.851837 6.094203
242.878738 7.048387
242.922684 5.113426
243.067123 915.326721
243.168701 15.63008
243.196304 5.140152
243.26384 4.748547
243.388657 8.210784
243.497208 7.33701
243.518921 5.211957
243.654663 5.333333
243.745239 5.420027
243.79921 8.414216
244.091171 79.186546
244.225174 6.69697
244.35025 4.84741
244.643799 3.518518
244.747391 5.415
244.818115 8.501603
245.096054 114.664597
245.112946 17.819851
245.368256 9.197304
245.439072 3.172024
245.79892 4.714881
246.102905 668.483887
246.317856 5.615919
246.339188 6.554167
246.361023 4.571429
246.390305 6.546696
246.426559 4.674603
246.848129 8.45
247.791 6.520833
248.259766 19.495991
249.120926 5.002083
250.533936 5.5
250.887787 4.855511
251.030106 33.10928
251.044662 18.67544
251.600662 7.347222
251.71907 11.62589
251.735794 6.135
251.824249 11.67532
251.954407 5.726852
252.044266 199.203705
252.100525 31.726549
252.386368 11.12056
252.441635 7.939577
252.481491 4.381547
252.749847 12.59912
252.960663 18.37945
253.051926 3630.131104
253.11586 32.99424
253.155823 15.00833
253.170029 13.68149
253.200623 4.886968
253.250244 10.20545
253.289429 12.62404
253.322418 4.408333
253.383118 7.826754
253.403458 11.23901
253.43013 23.48114
253.466507 24.253571
253.479675 3.12963
253.553391 5.372024
253.588333 12.1725
253.743362 22.79751
253.803619 29.788851
253.865341 7.51791
253.887466 8.333333
253.990219 44.56432
254.003281 8.911574
254.056168 1557.088013
254.347702 16.995831
254.378159 8.335649
254.402924 29.02562
254.619751 5.191358
254.751221 11.34028
254.79155 4.69853
254.874893 7.672715
255.016617 9.069036
255.056595 2618.4729
255.097382 3.01796
255.125565 9.411859
255.202026 11.31034
255.21994 8.024899
255.25296 7.7125
255.379929 6.731482
255.423065 26.459721
255.448898 10.41506
255.492035 6.361935
255.542572 7.635803
255.642197 6.720301
255.745422 8.766006
255.809921 5.517045
255.831345 5.209936
256.025787 11.34211
256.187622 5.160714
256.22876 18.480261
256.337982 6.225291
256.410706 4.130401
256.479645 4.73279
256.499481 4.013889
256.549591 5.184627
256.606445 6.075
256.8172 7.53592
256.93985 6.16875
257.084869 5.19697
257.930664 5.583333
258.006073 4.552083
258.073151 7.952712
258.099854 190.314194
258.115692 12.14002
258.287994 5.787037
258.308563 15.23351
258.471558 8.926667
258.772186 6.511082
259.543091 12.0
259.932281 8.489899
259.959961 4.835784
260.118835 554.403625
260.201202 5.844415
260.38089 10.3592
260.453796 7.500443
260.988464 7.648148
261.702576 11.69564
261.844177 5.233333
262.013336 7.840868
263.032593 19.541479
264.463379 4.440834
264.732849 10.6875
264.993011 2.836111
265.044952 6.31579
265.491486 5.473684
265.511444 5.186275
265.668823 5.227904
266.050018 270.260803
266.09848 3.179487
266.308502 4.178571
266.438293 6.82353
266.602081 8.724916
267.063141 164.259995
267.368347 4.979167
267.438568 8.189394
267.491272 11.00476
267.701233 6.181903
267.718292 3.530934
267.746735 10.18065
268.063416 1177.11499
268.170715 11.0125
268.220123 7.683333
268.293518 4.374492
268.315063 21.24411
268.367828 36.081718
268.386597 84.378403
268.402313 23.08696
268.449554 59.785709
268.474823 76.722603
268.505646 132.964493
268.534882 117.285103
268.598816 42.524712
268.627075 68.140648
268.647034 88.677933
268.68222 58.16478
268.727722 41.631908
268.742004 40.492661
268.766632 8.020017
268.809998 67.210861
268.853516 101.5849
268.912964 47.45882
269.205078 14.46695
269.260712 17.90752
269.322357 21.927469
269.592041 18.78363
269.771759 30.673401
269.875458 22.56609
269.961639 7.534032
270.011688 92.865433
270.079956 78646.429688
270.160095 5.666667
270.240173 11.0
270.580444 134.348099
270.593903 21.09375
270.64444 107.3433
270.684265 68.087013
270.705963 115.810997
270.725922 59.96666
270.741608 91.523163
270.772278 69.880157
270.788849 25.46456
270.817963 73.164757
270.8815 91.306503
270.921021 22.73094
270.943329 56.943642
270.974792 81.303627
271.02356 71.887253
271.049316 89.182793
271.171692 17.91077
271.27005 14.88973
271.305847 25.80694
271.349884 25.211439
271.406921 22.352131
271.458923 12.82666
271.498444 26.141171
271.608673 24.361219
271.66214 22.318911
271.755981 9.400641
271.874451 52.985088
271.905609 21.251619
271.928314 33.094101
272.188049 6.335938
272.233948 8.186683
272.3573 14.20892
272.460388 17.64826
272.545166 14.02478
272.714691 7.120039
272.813446 5.388889
272.897217 11.34941
273.307709 4.36397
273.516052 13.7406
273.7099 6.703947
273.803375 15.34105
273.822479 3.826993
274.040527 7.287202
274.655762 3.080357
274.704651 22.96969
274.753906 4.721102
274.875061 7.166667
274.944305 4.691667
275.123901 8.609469
275.423279 5.109012
275.881042 7.667076
276.130096 13.39532
277.048065 11.00643
277.105927 5.71007
278.05658 17.834021
278.178314 7.245098
278.317841 7.448276
278.526642 5.382936
278.590454 6.784722
278.623413 4.833333
278.753113 7.291667
279.06662 86.102692
279.351288 4.516667
279.414368 4.986413
279.665771 7.04023
280.023254 12.51852
280.06485 549.383118
280.176666 6.08507
280.275818 3.706731
280.29657 14.98227
280.34256 27.16205
280.398315 4.136364
280.478943 16.83205
280.614838 11.02264
280.631622 4.881944
280.748871 5.640625
280.894623 4.522685
280.9646 5.373397
281.07019 672.679382
281.192047 6.732527
281.317566 5.210938
281.723175 3.003788
282.360657 9.861112
282.412628 7.525641
284.095215 116.267799
284.339539 11.15341
288.023438 4.333818
292.40683 4.826993
293.086609 5.690476
294.079834 619.447876
294.142242 3.786706
294.165131 11.84991
294.190674 8.361008
294.228302 30.549561
294.244354 7.921875
294.26947 4.537138
294.309845 5.54529
294.328796 29.617371
294.398193 30.57695
294.438232 28.45075
294.472534 13.71014
294.500854 6.333742
294.53595 17.37924
294.566528 5.865079
294.584442 6.265432
294.602356 6.272295
295.020477 7.078432
295.141449 35.640831
295.297546 4.574846
295.845917 6.277039
295.887604 6.840015
295.994568 5.580128
296.019409 13.08134
296.040802 35.273129
296.067108 9.502435
296.095215 9826.441406
296.16333 28.174271
296.193878 66.59037
296.220917 8.433611
296.245911 12.93333
296.261444 21.41844
296.280334 11.62046
296.300659 7.154321
296.32077 38.566078
296.349182 23.367559
296.393433 26.407681
296.41626 41.51881
296.46698 57.23505
296.49881 15.3649
296.51593 38.476101
296.552429 27.42198
296.585205 21.371811
296.626648 4.982253
296.644135 12.8125
296.725464 12.69841
296.764862 20.47859
296.799347 10.20417
296.872742 15.76214
296.941711 8.0
296.983704 6.192308
297.361267 17.720091
297.447662 17.18553
297.619507 5.009259
297.661346 15.29105
297.746002 12.07037
297.787567 3.0
297.891022 15.59476
298.520416 4.502604
298.748322 5.729167
298.767975 3.260031
298.947418 5.522727
301.611328 6.348485
302.505951 12.59263
309.078644 9.338889
320.026886 7.055555
325.127258 11.35185
327.135986 125.888496
331.354828 6.740942
344.656738 3.002604
352.27359 7.653409
454.796753 36.01701
612.963623 15.15504
626.454529 9.651124
676.736328 4.761905
684.7099 8.875
873.080261 4.701754
1165.827393 7.070076
1695.570068 12.98
