>compound MLS000877022-01!5,7-dihydroxy-2-(4-hydroxyphenyl)-6-[3,4,5-trihydroxy-6-(hydroxymethyl)oxan-2-yl]chromen-4-one
>formula C21H20O10
>ionization [M+H]+
>parentmass 433.113
#inchi InChI=1S/C21H20O10/c22-7-14-17(26)19(28)20(29)21(31-14)16-11(25)6-13-15(18(16)27)10(24)5-12(30-13)8-1-3-9(23)4-2-8/h1-6,14,17,19-23,25-29H,7H2
#inchikey MYXNWGACZJSMBT
#Ion_Source LC-ESI
#Instrument qTof
#Compound_Source NIH Natural Product Library
#PI Dorrestein
#Data_Collector VVP/LMS
#Scan -1
#Precursor_MZ 433.113
#ExactMass 432.106
#Charge 1
#CAS_Number N/A
#Pubmed_ID N/A
#Smiles OCC1OC(C(O)C(O)C1O)c2c(O)cc3oc(cc(=O)c3c2O)c4ccc(O)cc4
#INCHI_AUX N/A
#Library_Class 1
#SpectrumID CCMSLIB00000080201
#IonMode Positive
#UpdateWorkflowName UPDATE-SINGLE-ANNOTATED-GOLD
#LibraryQualityString Gold
#TaskID b1d8e8f6646f4e71acdff9ca3d919d08
##Scan# 1495
#SpectrumFile p2-E05_GE5_01_18029.mzXML
#LibraryName NIH_Natural_Products_Library.mgf
#MQScore -1
#Organism NIH_Natural_Products_Library
#TIC_Query 0
#RT_Query -1
#MZErrorPPM -1
#SharedPeaks 0
#MassDiff 0
#LibMZ -1
#SpecMZ 433.113
#SpecCharge 0
#internalFilename spec-00000.mgf

>collision 10
97.023682 176.0
97.290489 76.0
97.844887 180.0
98.357437 180.0
98.758545 120.0
99.237778 152.0
99.376617 140.0
102.903343 124.0
103.036636 172.0
103.432999 232.0
103.568665 140.0
103.848373 120.0
104.602219 212.0
105.028084 168.0
105.418037 144.0
106.257545 132.0
108.230034 40.0
108.422684 104.0
109.080635 148.0
109.586349 156.0
110.44017 232.0
110.701775 120.0
111.011917 168.0
112.121918 44.0
112.355972 48.0
112.535362 44.0
112.693771 156.0
113.553223 96.0
115.000015 108.0
115.038437 156.0
115.057655 144.0
115.65834 156.0
116.353859 196.0
116.455971 92.0
116.728905 148.0
117.043068 92.0
117.122749 96.0
117.301598 92.0
117.377052 160.0
119.046387 376.0
120.151184 92.0
121.02739 912.0
121.305855 168.0
122.031487 144.0
122.426399 132.0
122.602638 220.0
123.004059 204.0
123.04821 204.0
123.620689 108.0
124.192284 148.0
124.216682 120.0
125.720749 132.0
125.854683 188.0
125.98645 160.0
126.583633 144.0
126.608269 340.0
128.135712 56.0
131.017502 164.0
131.047119 120.0
131.245422 100.0
132.065277 172.0
132.442932 60.0
132.704193 292.0
132.811966 36.0
133.029968 132.0
133.261917 132.0
133.37912 172.0
135.045837 220.0
135.168808 36.0
136.860947 80.0
137.023987 172.0
137.518356 96.0
137.572037 104.0
138.130539 68.0
138.423096 60.0
138.439484 208.0
139.848129 112.0
140.500854 144.0
140.708542 144.0
141.879623 80.0
142.230713 188.0
142.729614 208.0
143.763443 256.0
143.875626 68.0
144.01651 164.0
145.025162 412.0
145.059036 204.0
145.758194 228.0
146.333054 136.0
146.439011 96.0
147.012787 152.0
147.044281 164.0
149.026611 460.0
149.068756 112.0
149.336182 48.0
150.037476 164.0
150.543045 100.0
151.031357 172.0
152.711502 128.0
153.019104 128.0
153.233368 216.0
154.022781 196.0
154.084549 100.0
154.371262 176.0
154.618652 156.0
154.950455 132.0
155.409134 176.0
155.632523 148.0
156.248901 132.0
156.819153 140.0
158.070328 132.0
158.132904 168.0
159.050262 152.0
159.203415 128.0
159.371704 164.0
159.630615 196.0
160.050842 160.0
160.141495 120.0
160.703659 188.0
160.786926 144.0
160.812164 120.0
161.057083 52.0
162.274307 144.0
163.039215 584.0
163.211212 192.0
163.605576 208.0
164.298752 160.0
164.548859 164.0
164.817047 156.0
165.018143 2516.0
165.067551 188.0
165.300323 52.0
165.51535 128.0
165.93811 56.0
166.020172 136.0
166.500076 140.0
167.035156 160.0
167.271423 184.0
168.039398 152.0
168.06778 156.0
168.77034 208.0
169.039352 176.0
170.242172 160.0
171.61087 200.0
171.647385 252.0
171.806473 88.0
171.858658 144.0
172.613541 72.0
172.901306 172.0
173.055923 116.0
173.671585 120.0
173.828995 32.0
174.485641 176.0
174.72496 40.0
175.038177 40.0
175.343765 220.0
177.018295 392.0
177.06897 368.0
178.018448 156.0
178.435547 60.0
179.000031 180.0
179.034241 376.0
179.068863 180.0
179.10083 140.0
179.258011 64.0
179.479248 160.0
179.532593 144.0
179.836731 132.0
181.053207 192.0
181.89241 300.0
182.394714 148.0
182.736252 148.0
182.779297 140.0
182.948868 64.0
183.024841 176.0
183.269348 112.0
185.588455 164.0
186.027954 160.0
187.038177 332.0
187.216141 48.0
187.635757 116.0
187.851196 152.0
188.044922 216.0
188.115891 164.0
189.017807 48.0
189.056122 192.0
189.113602 128.0
189.132751 60.0
189.987717 148.0
190.04808 172.0
190.817108 48.0
191.000183 164.0
191.031219 108.0
192.09494 104.0
192.666382 116.0
194.027985 124.0
194.630066 136.0
194.910599 112.0
195.031921 172.0
196.029236 236.0
197.062637 136.0
198.135986 36.0
199.01384 176.0
199.053146 176.0
199.117737 108.0
200.231461 116.0
200.251175 172.0
200.781021 44.0
201.023636 180.0
201.046204 132.0
201.37088 68.0
201.664719 208.0
201.913513 160.0
202.066269 160.0
203.003815 128.0
203.071884 176.0
203.483353 152.0
204.020294 116.0
204.071472 144.0
204.330292 176.0
204.99942 92.0
205.043762 300.0
205.068375 164.0
205.932312 144.0
206.707062 56.0
207.039124 168.0
207.314148 88.0
209.255905 148.0
210.065704 176.0
210.137833 52.0
210.36293 228.0
210.435104 136.0
210.46109 152.0
210.608383 52.0
211.365814 188.0
213.012573 204.0
213.733582 188.0
215.036209 240.0
215.071243 136.0
215.804489 140.0
216.038467 188.0
217.046494 296.0
217.764954 72.0
217.8237 108.0
218.249832 124.0
218.879517 88.0
219.035614 128.0
219.757889 52.0
220.892319 180.0
221.060959 120.0
221.881424 56.0
222.080109 136.0
222.320419 188.0
223.086716 120.0
224.11647 36.0
224.873932 124.0
225.047073 80.0
225.65657 144.0
226.009506 124.0
226.479523 212.0
227.066208 220.0
228.072784 132.0
229.054916 372.0
229.177246 28.0
229.409302 164.0
229.819473 84.0
229.970352 144.0
230.042801 124.0
230.556274 172.0
230.906967 136.0
231.027695 192.0
231.073334 140.0
231.491043 76.0
231.727295 228.0
232.033401 152.0
232.977234 108.0
233.059586 152.0
233.414902 144.0
234.971313 148.0
235.038437 160.0
235.303986 200.0
235.655212 96.0
235.774384 124.0
236.129028 196.0
236.386002 48.0
236.980026 80.0
237.479706 160.0
237.725143 136.0
238.056671 56.0
238.081238 148.0
238.139603 72.0
238.376144 104.0
239.066986 172.0
239.095749 124.0
240.069244 344.0
240.100082 160.0
240.140182 48.0
240.257401 184.0
240.470306 100.0
240.683319 160.0
241.048248 284.0
241.146698 164.0
241.502274 116.0
241.669312 188.0
242.058395 132.0
242.911636 92.0
243.033951 220.0
243.119507 132.0
243.88974 148.0
244.032227 144.0
244.062637 124.0
245.231232 120.0
245.776978 84.0
245.851868 104.0
246.31395 124.0
247.070465 160.0
248.637161 192.0
248.687378 96.0
249.083008 160.0
249.177246 120.0
249.526108 176.0
250.671814 152.0
251.520203 80.0
252.300461 76.0
252.404785 72.0
252.904648 128.0
253.382812 80.0
253.512711 32.0
253.560257 60.0
253.931198 172.0
254.708832 64.0
254.781891 176.0
254.854965 40.0
255.068298 180.0
255.57991 164.0
256.003265 128.0
256.073578 772.0
256.10202 68.0
256.146606 36.0
256.994629 176.0
257.064453 144.0
257.757751 180.0
258.157318 204.0
259.258575 160.0
260.397491 144.0
261.030579 148.0
261.101318 160.0
261.294312 224.0
263.070007 128.0
263.606171 156.0
264.071686 136.0
264.845276 160.0
265.094727 164.0
265.797882 128.0
266.056213 264.0
266.129456 184.0
267.06601 1124.0
267.634888 256.0
268.068695 400.0
268.733307 72.0
269.0466 192.0
269.066986 184.0
270.051575 688.0
270.553711 236.0
270.848419 224.0
271.059052 1072.0
272.063263 428.0
272.462372 136.0
272.883057 64.0
273.032501 160.0
273.304047 152.0
273.35672 64.0
273.843933 284.0
273.932861 88.0
274.941803 84.0
275.387512 136.0
277.094727 136.0
278.09256 204.0
278.152313 88.0
279.066803 492.0
280.073242 148.0
280.827515 160.0
281.034332 244.0
281.077209 524.0
281.755493 112.0
282.042877 116.0
282.08371 480.0
282.263519 192.0
282.370544 52.0
282.421692 68.0
282.608032 208.0
282.64151 196.0
282.715118 152.0
282.905914 192.0
282.935211 160.0
282.987152 320.0
283.060883 10160.0
283.19632 60.0
283.227386 80.0
283.260254 128.0
283.304413 52.0
283.331207 40.0
283.406525 208.0
283.470734 80.0
283.511139 120.0
283.636169 96.0
283.877563 112.0
283.944641 64.0
284.066101 4156.0
284.132477 172.0
284.162659 80.0
284.186157 48.0
284.229767 32.0
284.370728 60.0
284.820648 48.0
285.07251 1448.0
285.428925 56.0
285.657623 52.0
285.926819 60.0
285.970551 100.0
286.079285 256.0
286.20285 124.0
286.832825 132.0
286.944092 84.0
287.070801 144.0
287.277954 60.0
287.352173 88.0
288.882568 140.0
288.967133 44.0
289.083466 116.0
289.285248 184.0
289.674683 156.0
290.050812 88.0
290.091492 168.0
290.776642 156.0
291.057098 228.0
291.119537 108.0
291.211212 72.0
291.292755 88.0
292.069366 236.0
293.085663 36.0
293.239014 88.0
293.532196 28.0
293.678833 60.0
293.808472 48.0
294.009766 76.0
294.055969 120.0
294.173615 236.0
294.19751 176.0
294.224823 40.0
294.463837 128.0
294.996887 116.0
295.060608 1844.0
295.509857 44.0
296.066803 420.0
297.075531 780.0
297.17157 56.0
297.257355 76.0
297.494171 44.0
297.71048 88.0
297.741394 28.0
297.861603 88.0
298.086884 284.0
298.570831 128.0
299.057312 156.0
299.088135 252.0
301.061249 136.0
303.081421 132.0
303.965607 168.0
304.903229 68.0
305.078278 524.0
305.376068 36.0
306.084778 148.0
306.127808 52.0
306.214081 88.0
306.246216 76.0
307.05658 432.0
307.3862 60.0
307.937775 72.0
308.064575 428.0
308.28714 72.0
308.378021 52.0
308.43045 100.0
309.075745 3700.0
309.158966 92.0
309.283905 68.0
309.637543 100.0
309.672546 76.0
309.739105 80.0
310.026398 120.0
310.079041 408.0
310.408508 220.0
310.706635 44.0
311.055664 260.0
311.25769 40.0
311.345459 124.0
311.450836 96.0
311.566742 60.0
311.619446 100.0
311.93573 56.0
311.984955 92.0
312.037689 64.0
312.069061 168.0
312.132629 84.0
313.014404 332.0
313.072021 5528.0
313.177856 72.0
313.213074 52.0
313.332825 88.0
313.361023 56.0
313.389221 84.0
313.445374 64.0
313.484344 32.0
313.755737 80.0
313.874451 120.0
314.006104 44.0
314.071899 1816.0
315.076233 344.0
315.185181 52.0
315.552765 48.0
315.772003 132.0
316.055206 140.0
316.093933 108.0
316.118713 52.0
316.150543 92.0
316.217804 52.0
316.578888 160.0
316.894135 32.0
317.404541 120.0
318.661041 152.0
319.041321 84.0
320.062408 168.0
321.079315 568.0
321.181458 64.0
322.085754 180.0
322.136536 164.0
322.198822 152.0
322.516846 64.0
322.549042 60.0
322.93161 156.0
323.092499 2048.0
323.162079 188.0
323.35022 40.0
323.536346 52.0
323.564972 72.0
323.625854 52.0
324.054321 236.0
324.061066 148.0
324.093689 520.0
324.27066 36.0
325.069946 280.0
326.065063 188.0
326.410248 44.0
327.084473 132.0
331.06897 168.0
332.048889 164.0
333.071503 372.0
333.448883 44.0
334.089172 204.0
335.061615 148.0
335.104584 212.0
336.037933 120.0
336.08902 176.0
336.337189 96.0
336.843964 112.0
337.070648 1972.0
337.151642 268.0
337.418488 40.0
337.893921 56.0
338.079895 412.0
338.385742 84.0
338.523499 60.0
338.582092 64.0
338.644348 48.0
338.691956 132.0
338.754242 44.0
339.08847 368.0
339.116974 68.0
340.452423 88.0
340.89325 48.0
343.085419 244.0
345.030853 120.0
347.113281 148.0
349.07074 1832.0
350.082184 496.0
350.227631 44.0
350.68219 200.0
351.089111 284.0
351.162933 120.0
351.838562 104.0
352.095215 100.0
353.060394 104.0
353.831207 176.0
354.052124 140.0
354.213196 64.0
354.374268 112.0
355.062256 180.0
356.084839 196.0
358.356903 84.0
360.065704 72.0
361.068848 580.0
361.15799 28.0
361.453064 44.0
361.612 72.0
362.070374 336.0
362.926514 84.0
363.076233 132.0
363.487885 168.0
365.128998 136.0
365.159424 40.0
366.427002 120.0
367.080505 284.0
367.65863 100.0
368.089996 148.0
368.114014 128.0
370.323395 60.0
375.697174 60.0
378.328918 84.0
378.754883 196.0
378.809113 144.0
379.081482 1052.0
379.312866 40.0
380.007019 68.0
380.093323 208.0
380.22821 112.0
381.087646 124.0
381.160217 100.0
395.708557 56.0
396.865479 136.0
397.031799 148.0
397.094299 220.0
397.100555 576.0
398.104065 176.0
398.659668 60.0
398.715302 60.0
399.088959 116.0
399.462799 68.0
400.692932 56.0
410.850037 20.0
410.940796 120.0
415.10611 564.0
415.163788 124.0
416.092957 116.0
417.096344 132.0
418.768646 76.0
433.12854 56.0
435.198853 144.0
435.251923 172.0
437.255615 132.0
457.954498 96.0
464.730194 100.0
468.005371 52.0
470.803925 40.0
491.487427 148.0
500.040192 96.0
521.772156 76.0
562.211182 52.0
569.711182 104.0
586.724487 88.0
609.184082 88.0
629.675964 40.0
659.011719 40.0
667.119385 96.0
699.887878 84.0
707.49054 84.0
708.051819 72.0
736.360901 120.0
741.684875 44.0
830.124695 60.0
836.168152 76.0
838.840698 52.0
842.04303 116.0
869.23584 64.0
873.948242 48.0
908.473267 52.0
967.111145 140.0
1033.409424 68.0
1041.518799 108.0
1125.490723 112.0
1211.664307 92.0
1226.876953 168.0
1235.84436 180.0
1249.771851 52.0
1293.546631 128.0
1301.705444 108.0
1360.680298 108.0
1408.796509 60.0
1472.749146 124.0
1498.108276 192.0
1500.713135 132.0
