>compound Progesterone
>formula C21H30O2 
>ionization [M+H]+
>parentmass 315.232208
#inchi InChI=1S/C21H30O2/c1-13(22)17-6-7-18-16-5-4-14-12-15(23)8-10-20(14,2)19(16)9-11-21(17,18)3/h12,16-19H,4-11H2,1-3H3/t16-,17+,18-,19-,20-,21+/m0/s1
#inchikey RJKFOVLPORLFTN
#Ion_Source LC-ESI
#Instrument qTof
#Compound_Source Isolated
#PI Sirenas
#Data_Collector Ed Esquenazi 
#Scan -1
#Precursor_MZ 315.232
#ExactMass 0.0
#Charge 1
#CAS_Number N/A
#Pubmed_ID N/A
#Smiles N/A
#INCHI_AUX N/A
#Library_Class 3
#SpectrumID CCMSLIB00000005857
#IonMode Positive
#UpdateWorkflowName UPDATE-SINGLE-ANNOTATED-BRONZE
#LibraryQualityString Bronze
#TaskID d19310cd93df49b68e9fcbec27720eb5
##Scan# 5
#SpectrumFile Progesterone.mgf
#LibraryName fda_library.mgf
#MQScore -1
#Organism fda_library
#TIC_Query 0
#RT_Query -1
#MZErrorPPM -1
#SharedPeaks 0
#MassDiff 0
#LibMZ -1
#SpecMZ 315.232
#SpecCharge 0
#internalFilename spec-00000.mgf

>collision 10
105.069626 590.193787
107.050011 70.54023
107.085274 873.943909
107.696632 45.372089
108.543549 43.453751
108.68486 58.3559
109.065117 36829.019531
109.123123 54.454571
109.39917 41.93047
109.441513 51.40546
109.561607 54.551769
109.96019 37.581711
110.067902 316.366913
110.105087 62.26622
111.080338 333.14151
111.11512 44.944019
113.059204 47.554211
113.095375 105.220497
117.070061 101.514999
119.085129 847.035095
121.06472 315.266113
121.101013 1040.432983
123.080376 2886.879883
123.114883 158.625504
129.06575 50.531761
131.085632 713.957275
133.063065 48.486401
133.101974 693.828003
135.079788 111.130096
135.116714 635.97113
137.095901 732.72821
137.132629 180.160904
139.11586 47.904362
143.085419 196.700806
145.100677 923.812012
147.078278 53.352482
147.116898 981.961914
149.097519 149.178299
149.131729 346.098602
151.11174 445.798706
151.145432 36.943298
155.084259 98.714821
157.100845 374.974213
159.116287 928.969421
161.09346 98.697289
161.131317 491.299988
163.111954 764.553772
163.146469 251.380096
165.126907 149.9552
169.100967 90.100906
171.116821 726.825317
173.097885 63.69138
173.131393 963.913025
175.111435 199.807297
175.147385 572.998413
177.126801 1156.375977
177.163971 99.635681
179.138763 43.12925
183.116638 203.420502
185.132767 495.278107
187.111664 425.845093
187.14798 614.107727
189.127167 574.146729
189.163345 297.477997
191.142639 412.446289
191.176651 48.24659
193.157623 52.269749
194.10759 40.614399
197.131409 224.798599
199.148544 327.808807
201.126663 179.130295
201.163132 1003.820007
203.143158 231.8965
205.159164 234.043304
207.171661 105.820602
209.133957 81.191689
210.136398 52.00145
211.146759 87.897324
213.126785 132.932999
213.16394 662.95697
215.141479 400.277893
215.178375 796.299683
217.158234 144.075806
219.138031 37.765911
219.172241 267.313995
223.146942 404.768402
225.162674 106.3218
227.143173 138.681702
227.179367 471.948914
229.158447 342.541199
231.172089 227.999695
233.188126 225.803696
237.163742 299.178986
239.179306 969.938171
241.158676 451.743988
245.190445 472.851105
251.176575 70.976372
253.194992 531.603027
255.176743 191.553696
255.209869 1434.196045
257.190002 378.843414
269.188751 142.826508
269.22757 119.8134
271.205902 329.457794
273.220612 933.454285
279.210419 1571.121948
297.221161 4621.354004
297.375061 42.18663
297.637604 45.7724
297.780609 39.063419
313.348724 40.416279
313.396057 37.75806
313.445282 44.361919
313.575409 67.29837
315.232208 14255.910156
315.456116 84.348312
315.597351 53.85268
315.661957 65.618233
315.701477 82.882553
315.746429 45.205662
315.848053 40.259789
315.884552 61.68309
315.973694 46.386742
316.067627 43.852669
