>compound MLS001142728-01!
>formula C25H25FN4O3
>ionization [M+H]+
>parentmass 449.199
#inchi InChI=1S/C25H25FN4O3/c1-15(22(31)27-13-11-16-7-9-17(26)10-8-16)30-23(32)25(2)21-19(12-14-29(25)24(30)33)18-5-3-4-6-20(18)28-21/h3-10,15,28H,11-14H2,1-2H3,(H,27,31)/t15-,25-/m0/s1
#inchikey YNRUNZYNJNHUAC
#Ion_Source LC-ESI
#Instrument qTof
#Compound_Source NIH Natural Product Library
#PI Dorrestein
#Data_Collector VVP/LMS
#Scan -1
#Precursor_MZ 449.199
#ExactMass 448.191
#Charge 1
#CAS_Number N/A
#Pubmed_ID N/A
#Smiles C[C@H](N1C(=O)N2CCc3c([nH]c4ccccc34)[C@@]2(C)C1=O)C(=O)NCCc5ccc(F)cc5
#INCHI_AUX N/A
#Library_Class 1
#SpectrumID CCMSLIB00000080514
#IonMode Positive
#UpdateWorkflowName UPDATE-SINGLE-ANNOTATED-GOLD
#LibraryQualityString Gold
#TaskID b1d8e8f6646f4e71acdff9ca3d919d08
##Scan# 2348
#SpectrumFile p2-A10_GA10_01_17986.mzXML
#LibraryName NIH_Natural_Products_Library.mgf
#MQScore -1
#Organism NIH_Natural_Products_Library
#TIC_Query 0
#RT_Query -1
#MZErrorPPM -1
#SharedPeaks 0
#MassDiff 0
#LibMZ -1
#SpecMZ 449.199
#SpecCharge 0
#internalFilename spec-00000.mgf

>collision 10
95.315636 128.0
95.583374 216.0
95.640472 148.0
95.915169 160.0
96.082909 184.0
96.428596 192.0
96.459877 136.0
96.483337 148.0
96.706375 120.0
96.751411 72.0
96.98848 96.0
97.010048 248.0
97.086525 180.0
97.147339 160.0
98.563194 128.0
98.604706 124.0
98.758949 180.0
99.073746 112.0
99.373169 180.0
99.418816 188.0
99.45256 116.0
99.619392 144.0
99.855965 124.0
100.114738 200.0
100.24823 188.0
100.337944 212.0
100.409744 208.0
100.551422 124.0
100.569382 160.0
100.855064 104.0
101.123131 92.0
101.161171 156.0
101.463722 124.0
101.527901 76.0
101.682411 180.0
102.08226 144.0
102.305641 52.0
102.521194 176.0
102.706718 176.0
103.088524 516.0
103.179337 144.0
103.244057 120.0
103.403595 128.0
103.519325 192.0
103.646965 172.0
103.878128 192.0
103.951187 72.0
104.081123 136.0
105.078636 264.0
105.301178 124.0
105.382904 160.0
105.523956 120.0
105.818626 216.0
106.281929 192.0
106.600266 112.0
107.310532 176.0
107.376526 140.0
107.523033 96.0
107.946609 108.0
107.994186 132.0
108.190804 180.0
108.358589 176.0
108.381386 136.0
108.642807 172.0
109.022705 168.0
109.197372 184.0
109.340958 184.0
109.615898 152.0
109.711792 108.0
110.02269 232.0
110.054008 128.0
110.116669 152.0
110.164719 116.0
111.060799 168.0
111.180412 236.0
111.287483 92.0
111.318985 208.0
111.424026 192.0
111.514404 168.0
111.724716 156.0
112.861725 88.0
113.079659 68.0
113.236359 168.0
113.408005 152.0
114.053383 60.0
114.568443 200.0
114.583359 72.0
115.069717 192.0
115.091293 220.0
115.204285 212.0
115.300453 224.0
115.420189 180.0
115.672691 144.0
115.756203 188.0
115.835464 168.0
116.105576 116.0
116.498436 148.0
116.567207 56.0
116.668243 164.0
116.741356 88.0
116.859688 308.0
116.896271 180.0
117.111603 128.0
117.299095 144.0
117.316345 188.0
117.445747 256.0
117.83223 200.0
118.114265 172.0
118.628777 124.0
118.991142 128.0
119.012856 184.0
119.132332 140.0
119.382324 156.0
119.71534 172.0
120.310699 184.0
121.211975 192.0
121.284317 136.0
121.446602 192.0
121.736351 176.0
122.110023 208.0
122.21524 112.0
122.283867 112.0
122.517319 200.0
122.702477 188.0
122.779663 192.0
122.931915 164.0
123.1017 768.0
123.472534 184.0
123.831863 152.0
123.953728 96.0
124.107643 288.0
124.317467 156.0
124.632591 172.0
124.804024 200.0
124.846283 128.0
124.930824 96.0
125.033195 168.0
125.302673 112.0
125.52784 152.0
125.690704 84.0
126.349945 164.0
126.773209 160.0
126.941368 204.0
127.098412 180.0
127.349892 172.0
128.09314 164.0
128.150894 164.0
128.448532 128.0
128.534271 156.0
128.640366 192.0
128.696823 136.0
129.049362 68.0
130.10759 160.0
130.29158 212.0
130.771469 124.0
130.883041 168.0
131.633377 188.0
131.788727 168.0
132.472916 100.0
132.9086 128.0
133.259964 188.0
133.551956 176.0
133.671616 196.0
133.812042 168.0
133.867325 92.0
133.952545 160.0
134.097748 116.0
134.120789 164.0
134.2061 176.0
134.769394 172.0
134.901154 148.0
135.243561 108.0
135.570175 100.0
136.089874 180.0
136.40123 196.0
137.764694 172.0
138.696198 188.0
138.7173 144.0
138.808762 168.0
138.958893 176.0
139.102081 180.0
139.562637 160.0
139.73671 156.0
140.110931 152.0
140.133759 252.0
141.121445 104.0
141.504807 188.0
142.002518 152.0
142.113083 208.0
142.322952 140.0
142.432205 180.0
142.600937 136.0
142.817337 52.0
142.964874 48.0
143.120087 204.0
143.195847 60.0
143.24588 212.0
143.593948 172.0
143.655975 148.0
143.685303 136.0
143.808716 172.0
143.946075 204.0
144.130692 6136.0
144.171799 40.0
144.492264 172.0
144.868195 160.0
144.916122 140.0
145.131348 780.0
145.499023 76.0
145.604691 48.0
145.741653 140.0
145.891479 108.0
146.24263 212.0
146.364746 100.0
146.511688 180.0
146.776855 160.0
146.911942 228.0
146.998825 56.0
147.220947 116.0
147.864136 156.0
148.10202 172.0
148.312302 136.0
148.955429 92.0
149.46608 64.0
150.458237 112.0
150.602341 136.0
151.816483 120.0
152.027496 144.0
152.086411 176.0
152.194443 156.0
152.265671 192.0
152.518784 152.0
152.69339 228.0
153.161118 140.0
153.553085 116.0
153.587616 200.0
154.113556 144.0
154.355835 72.0
154.410248 188.0
154.486938 184.0
154.70723 120.0
154.724564 140.0
154.927673 152.0
155.125061 244.0
155.369034 148.0
155.975067 120.0
156.131195 252.0
156.624619 124.0
156.642059 180.0
157.078369 136.0
157.135925 180.0
157.290512 60.0
157.377899 172.0
157.432846 164.0
157.475311 136.0
158.04538 120.0
158.065414 156.0
158.150513 192.0
158.278214 160.0
158.36087 196.0
159.895172 152.0
160.373795 112.0
160.414139 120.0
160.50975 232.0
161.372391 168.0
161.568436 176.0
162.641464 152.0
162.737015 160.0
162.927536 100.0
163.464111 128.0
164.751938 192.0
165.076599 48.0
165.519363 80.0
165.678192 176.0
166.124329 200.0
166.152557 180.0
166.275742 108.0
166.386139 108.0
166.416962 172.0
166.519699 180.0
166.581345 116.0
166.828094 132.0
166.923233 132.0
167.100754 180.0
167.128693 696.0
167.316971 84.0
167.43544 172.0
167.984558 164.0
168.139252 1728.0
168.163666 148.0
168.436371 116.0
168.480286 52.0
168.573318 68.0
168.617264 40.0
168.723846 68.0
169.046646 140.0
169.135696 908.0
169.297791 64.0
169.349594 264.0
169.811035 52.0
170.00824 172.0
170.114044 384.0
170.152161 460.0
170.478363 160.0
170.577911 148.0
171.113144 156.0
171.152527 436.0
171.311111 124.0
171.350189 132.0
171.68129 188.0
171.702148 180.0
171.732635 164.0
172.872742 96.0
173.818893 188.0
174.870285 136.0
175.49736 120.0
176.125565 176.0
176.244461 92.0
176.754883 232.0
177.141495 200.0
177.448959 176.0
177.467529 180.0
177.496704 76.0
177.533829 108.0
177.557709 192.0
177.658524 36.0
177.955811 144.0
178.160355 104.0
178.410202 60.0
178.444778 216.0
178.875824 152.0
178.987656 44.0
179.102203 228.0
180.297699 84.0
180.49823 184.0
180.672104 156.0
180.730988 192.0
180.929077 180.0
181.864777 140.0
182.042007 100.0
182.150909 204.0
182.773285 116.0
183.154694 1900.0
183.263428 120.0
183.309235 72.0
183.665176 52.0
183.773102 172.0
183.989059 48.0
184.162079 508.0
184.502457 112.0
184.634964 108.0
184.677399 164.0
184.713104 148.0
184.794601 136.0
184.875793 160.0
185.10051 136.0
185.171097 8064.0
185.311829 88.0
185.341629 60.0
185.49614 56.0
185.696823 128.0
185.805344 56.0
185.946472 60.0
186.175842 1048.0
186.228897 72.0
186.391922 32.0
186.427261 60.0
186.489777 152.0
186.620285 180.0
186.840622 132.0
187.155701 224.0
187.177963 184.0
187.439728 96.0
187.494247 100.0
187.567841 60.0
187.668732 136.0
187.690552 80.0
187.780563 36.0
188.465881 88.0
188.501404 148.0
188.807648 144.0
189.18074 228.0
189.598984 92.0
189.620911 92.0
190.14209 176.0
191.040756 68.0
191.563889 104.0
191.619003 160.0
192.159485 156.0
192.430008 140.0
193.14035 192.0
194.132034 160.0
194.164307 232.0
194.990021 168.0
195.09845 136.0
195.120697 156.0
195.157852 144.0
195.746857 228.0
196.137909 368.0
196.164841 268.0
196.195511 148.0
197.136307 172.0
197.173645 112.0
197.706894 164.0
197.762878 80.0
197.799271 176.0
198.188675 136.0
199.193176 276.0
199.30838 192.0
199.718903 120.0
200.55249 164.0
200.786545 148.0
201.370865 132.0
202.267334 32.0
203.086365 184.0
203.489395 40.0
203.5746 128.0
205.442078 128.0
205.710373 180.0
205.738937 168.0
206.321838 36.0
206.845428 168.0
207.186264 128.0
207.280838 200.0
208.063995 144.0
208.181732 104.0
209.819244 120.0
210.087494 260.0
210.214478 208.0
210.540741 156.0
210.699631 188.0
211.023392 156.0
211.052307 80.0
211.159744 7760.0
211.195847 1476.0
211.344498 48.0
211.44902 104.0
211.474747 84.0
211.509079 56.0
211.638138 48.0
211.801987 80.0
211.845444 48.0
211.987442 140.0
212.036728 152.0
212.065704 56.0
212.162186 952.0
212.205444 312.0
212.262878 72.0
212.294785 120.0
212.341202 84.0
212.457245 64.0
212.828812 48.0
212.97403 164.0
213.020523 40.0
213.176697 1556.0
213.21579 184.0
213.287903 176.0
213.376099 180.0
213.593277 144.0
213.651459 172.0
213.700928 72.0
213.744583 116.0
213.773682 80.0
213.861954 212.0
214.050278 72.0
214.179611 404.0
214.606918 76.0
215.062088 136.0
215.088364 192.0
215.353241 172.0
215.377487 164.0
215.918289 244.0
216.237244 76.0
216.322144 140.0
216.87001 220.0
217.107529 112.0
218.04715 192.0
218.294144 184.0
218.407257 44.0
218.794418 132.0
219.127274 36.0
219.610825 108.0
219.93248 136.0
221.180389 148.0
221.793335 116.0
222.168777 264.0
222.630142 224.0
223.05806 108.0
223.653076 160.0
223.691772 180.0
224.821594 168.0
226.397354 144.0
226.88884 172.0
227.236801 148.0
227.290817 176.0
227.386856 216.0
227.416885 104.0
228.381531 168.0
228.480347 124.0
229.63472 148.0
229.758423 120.0
231.04866 144.0
232.169586 124.0
233.07132 80.0
234.002213 184.0
234.831223 104.0
235.221848 112.0
235.411179 148.0
236.150894 136.0
236.178436 72.0
236.662048 120.0
236.879532 184.0
237.18721 336.0
238.174484 184.0
238.21492 676.0
238.79213 168.0
239.164078 1116.0
239.211899 328.0
239.395432 84.0
239.842239 76.0
240.17012 340.0
240.199997 176.0
240.891571 44.0
241.179001 104.0
241.200638 172.0
241.268661 44.0
241.689362 56.0
241.927719 276.0
242.494675 128.0
242.662094 44.0
242.913345 96.0
244.028442 184.0
244.146622 48.0
245.598251 56.0
245.782349 168.0
246.823105 148.0
247.501801 152.0
248.037628 140.0
248.313599 148.0
249.456726 132.0
249.840454 116.0
250.870422 96.0
251.147964 68.0
251.258392 128.0
252.142685 156.0
252.199585 104.0
252.556946 76.0
252.639206 184.0
252.674011 48.0
253.196396 96.0
253.275589 128.0
253.319946 172.0
253.43219 160.0
253.512299 268.0
253.592499 244.0
253.693939 188.0
253.811279 76.0
253.846802 160.0
253.87471 212.0
253.928635 184.0
253.951996 164.0
254.02063 104.0
254.093613 308.0
254.125336 232.0
254.217377 49028.0
254.295776 132.0
254.322128 92.0
254.360229 56.0
254.403778 228.0
254.468185 64.0
254.572983 104.0
254.598175 72.0
254.651337 48.0
254.713806 96.0
254.741806 28.0
254.7612 80.0
254.823685 84.0
254.860886 116.0
254.896835 56.0
254.923889 108.0
254.955643 184.0
255.028244 88.0
255.055984 136.0
255.122757 48.0
255.148193 60.0
255.220444 8704.0
255.294479 60.0
255.323105 132.0
255.405823 100.0
255.429794 60.0
255.56604 68.0
255.663574 76.0
255.72406 76.0
255.96286 112.0
255.991531 84.0
256.084412 100.0
256.222687 796.0
256.377045 40.0
256.405731 44.0
256.648071 56.0
256.694397 152.0
256.783356 104.0
256.868164 76.0
256.912811 64.0
256.971008 84.0
257.063812 128.0
257.090363 108.0
257.117065 104.0
257.152649 192.0
257.21283 68.0
257.34375 120.0
257.385254 48.0
257.583313 140.0
257.70105 108.0
258.018005 104.0
258.061157 120.0
258.174713 172.0
258.200287 224.0
258.256073 156.0
258.552277 40.0
258.769989 60.0
258.830841 132.0
258.891693 92.0
259.606445 116.0
260.299713 224.0
260.486023 56.0
262.352814 28.0
263.165955 56.0
263.191803 160.0
263.295166 88.0
264.200348 204.0
264.462524 80.0
264.647064 44.0
264.711853 48.0
265.077942 100.0
265.188171 172.0
266.225494 188.0
267.058685 176.0
267.188171 184.0
268.120239 156.0
268.208252 144.0
269.203522 92.0
269.693665 224.0
270.223541 68.0
270.966858 76.0
271.222504 108.0
272.765533 200.0
273.574921 40.0
273.90097 108.0
274.270081 108.0
274.712036 120.0
275.65979 56.0
279.101135 144.0
279.310699 144.0
280.292999 176.0
281.053375 64.0
281.190247 96.0
281.327118 88.0
281.547516 132.0
281.657745 176.0
281.804779 168.0
281.9953 156.0
282.142395 100.0
282.221497 16904.0
282.301331 228.0
282.345245 68.0
282.379852 76.0
282.486908 108.0
282.593964 60.0
282.699554 80.0
282.741241 80.0
282.848358 112.0
282.885193 64.0
283.022491 84.0
283.096161 40.0
283.137695 40.0
283.224335 3520.0
283.323975 56.0
283.350769 112.0
283.482544 136.0
283.507996 48.0
283.575317 52.0
284.101868 152.0
284.22818 548.0
284.434143 60.0
284.457642 68.0
284.504639 28.0
284.766602 60.0
285.122803 96.0
285.220276 100.0
285.267365 64.0
285.411957 88.0
285.983948 68.0
286.142181 96.0
286.76886 76.0
290.332947 84.0
292.007568 36.0
293.393677 72.0
294.260406 116.0
294.595154 80.0
294.779694 116.0
296.247742 104.0
300.242462 168.0
301.641083 40.0
304.739838 108.0
307.07608 40.0
310.220093 396.0
311.235657 128.0
329.789215 92.0
338.657928 156.0
346.502075 76.0
356.015594 124.0
363.707764 76.0
366.183411 116.0
376.309814 140.0
379.745941 92.0
385.442444 96.0
386.091461 76.0
398.296387 172.0
400.050323 60.0
401.369293 92.0
404.013763 116.0
418.188293 68.0
421.063141 100.0
435.921722 172.0
438.302307 112.0
447.45575 148.0
448.340454 184.0
449.437042 156.0
450.19278 96.0
450.408203 156.0
450.847687 76.0
461.476562 76.0
466.506317 72.0
469.602814 124.0
476.786713 84.0
488.330963 132.0
495.550568 116.0
512.987366 56.0
547.704285 156.0
556.366272 120.0
562.142456 52.0
566.976379 56.0
576.199646 116.0
607.986877 116.0
610.984741 68.0
619.368286 60.0
619.630859 76.0
673.315491 80.0
676.910217 80.0
728.171509 92.0
807.102783 56.0
812.115479 172.0
953.404419 104.0
965.032043 92.0
985.040649 196.0
985.303101 60.0
1012.614563 192.0
1022.062256 20.0
1040.536987 136.0
1042.271362 164.0
1044.174561 196.0
1063.209961 240.0
1069.157959 184.0
1080.179932 44.0
1096.584717 20.0
1113.471802 220.0
1115.817871 196.0
1126.950073 168.0
1140.953125 212.0
1178.378052 228.0
1191.637695 132.0
1193.067383 224.0
1203.085693 92.0
1212.334839 140.0
1215.296265 112.0
1216.712402 208.0
1225.776733 164.0
1231.658936 208.0
1244.05542 116.0
1249.840454 164.0
1256.647949 96.0
1264.075439 76.0
1270.537598 216.0
1281.389038 208.0
1284.997314 164.0
1307.558838 164.0
1318.501221 256.0
1378.312866 212.0
1381.492554 248.0
1384.964722 112.0
1391.060913 132.0
1391.528687 132.0
1401.489502 148.0
1405.531494 176.0
1413.992188 152.0
1423.439453 152.0
1427.535522 176.0
1428.66394 136.0
1429.694946 152.0
1464.25354 116.0
1465.579346 152.0
1466.486328 40.0
1468.796997 172.0
1471.407227 120.0
1475.556396 188.0
1477.920166 64.0
1479.229126 240.0
1481.021118 208.0
1483.718994 88.0
1491.381104 148.0
1500.928833 240.0
