>compound Prednisone
>formula C21H26O5 
>ionization [M+H]+
>parentmass 359.186798
#inchi InChI=1S/C21H26O5/c1-19-7-5-13(23)9-12(19)3-4-14-15-6-8-21(26,17(25)11-22)20(15,2)10-16(24)18(14)19/h5,7,9,14-15,18,22,26H,3-4,6,8,10-11H2,1-2H3/t14-,15-,18+,19-,20-,21-/m0/s1
#inchikey XOFYZVNMUHMLCC
#Ion_Source LC-ESI
#Instrument qTof
#Compound_Source Commercial
#PI Dorrestein
#Data_Collector Garg_Neha
#Scan -1
#Precursor_MZ 359.184
#ExactMass 358.178
#Charge 1
#CAS_Number N/A
#Pubmed_ID N/A
#Smiles N/A
#INCHI_AUX N/A
#Library_Class 1
#SpectrumID CCMSLIB00000076993
#IonMode Positive
#UpdateWorkflowName UPDATE-SINGLE-ANNOTATED-GOLD
#LibraryQualityString Gold
#TaskID 48f7f52fc6d249b5abbcc6e7b3df5969
##Scan# 1165
#SpectrumFile NCP002928_E2_F11_BA4_01_15698.mzXML
#LibraryName NIH_Clinical_Collection_2.mgf
#MQScore -1
#Organism NIHcollection2_04212014_2_mgf
#TIC_Query 0
#RT_Query -1
#MZErrorPPM -1
#SharedPeaks 0
#MassDiff 0
#LibMZ -1
#SpecMZ 359.184
#SpecCharge 0
#internalFilename spec-00000.mgf

>collision 10
50.895485 164.0
51.303822 184.0
52.26199 236.0
52.506882 168.0
53.189823 140.0
53.719513 140.0
54.039463 144.0
54.2313 168.0
54.510147 204.0
61.613628 168.0
62.381531 172.0
63.059326 152.0
66.185478 176.0
74.043716 188.0
76.139206 144.0
76.427773 176.0
77.866508 156.0
82.19101 200.0
83.333534 168.0
84.982285 144.0
90.890533 144.0
91.055603 268.0
93.322952 164.0
94.073479 160.0
95.049995 140.0
95.085808 156.0
96.218712 208.0
96.954185 148.0
97.028671 148.0
97.128685 160.0
97.391708 172.0
98.795242 172.0
101.630417 152.0
102.070312 160.0
102.281555 152.0
104.550461 140.0
105.07 152.0
107.050087 240.0
107.091278 176.0
107.666702 216.0
108.055313 140.0
108.088417 160.0
109.064316 384.0
110.049782 180.0
110.589966 212.0
111.078186 308.0
112.390991 188.0
112.724625 260.0
115.049019 184.0
119.083115 268.0
119.255371 164.0
120.705139 140.0
121.066322 484.0
122.258278 160.0
123.084549 184.0
123.520325 240.0
125.095863 348.0
127.197144 180.0
128.060471 184.0
128.080841 168.0
128.112381 156.0
129.074295 148.0
130.421982 128.0
131.086029 700.0
132.058624 192.0
133.06456 400.0
133.099655 132.0
134.089569 152.0
135.079971 572.0
137.057312 220.0
137.096863 272.0
139.059998 176.0
139.082535 140.0
141.071335 400.0
142.075714 192.0
143.948914 156.0
144.20932 216.0
145.06459 460.0
145.476456 192.0
145.781494 140.0
146.069611 400.0
146.966217 200.0
147.080856 3748.0
147.116226 184.0
147.156906 220.0
147.224518 228.0
148.084015 604.0
148.330215 196.0
151.07341 140.0
152.064621 196.0
153.089676 192.0
154.101151 184.0
155.070709 164.0
155.08934 124.0
156.387573 164.0
156.808502 180.0
157.092636 168.0
158.072632 580.0
158.112198 212.0
158.725952 184.0
159.034531 144.0
159.079971 1852.0
160.081711 240.0
161.095917 892.0
162.045547 176.0
162.098755 256.0
163.077576 396.0
164.068588 172.0
164.481842 232.0
165.075485 168.0
167.085907 400.0
168.054245 156.0
169.096924 156.0
170.108078 276.0
171.080231 3696.0
172.087555 424.0
173.096878 1584.0
173.699829 140.0
174.092728 204.0
175.07431 240.0
175.103409 196.0
175.274643 156.0
175.374786 160.0
177.085861 428.0
178.972412 148.0
179.083435 684.0
179.598694 140.0
179.897552 144.0
180.095291 156.0
180.948212 244.0
181.058884 420.0
181.084457 448.0
181.197281 180.0
182.073822 280.0
183.096802 640.0
183.139496 148.0
184.085007 152.0
185.059723 140.0
185.094543 616.0
185.392746 172.0
186.059998 200.0
186.096329 196.0
186.127884 192.0
186.174042 144.0
187.052246 148.0
187.073395 752.0
187.111847 396.0
188.109909 140.0
189.089935 588.0
190.081467 124.0
191.108139 160.0
192.095886 152.0
192.301376 272.0
193.101868 180.0
194.01918 180.0
194.066315 156.0
194.102356 160.0
195.082733 732.0
196.086884 272.0
197.095474 1892.0
197.12822 160.0
198.103485 444.0
198.631699 168.0
199.080765 156.0
199.110703 828.0
200.113419 216.0
200.77211 140.0
201.068329 172.0
201.124786 240.0
202.077133 156.0
202.13089 168.0
203.08287 300.0
203.092804 128.0
203.101654 368.0
204.094147 160.0
205.090179 140.0
206.109848 216.0
207.080383 520.0
207.12178 148.0
208.090286 640.0
208.118073 184.0
209.096664 1456.0
210.102509 580.0
211.077957 296.0
211.11235 568.0
211.733078 148.0
212.11879 472.0
213.08577 204.0
213.127121 1236.0
214.130188 312.0
215.09906 176.0
215.138016 160.0
215.476791 160.0
216.09256 156.0
217.09848 136.0
218.104797 164.0
219.023483 168.0
219.115982 312.0
220.08606 224.0
221.096085 576.0
222.103989 1320.0
222.510071 160.0
223.111115 1300.0
224.081284 248.0
224.117859 592.0
224.405273 140.0
224.906448 148.0
225.087296 168.0
225.12796 828.0
226.10498 204.0
226.132538 376.0
227.103989 164.0
227.14534 560.0
228.099564 184.0
228.150665 212.0
228.544662 164.0
229.104004 148.0
230.110367 256.0
231.079132 316.0
231.114349 472.0
232.103592 224.0
233.096436 400.0
233.133179 148.0
234.10817 160.0
235.110306 588.0
235.146088 232.0
236.118057 148.0
236.156326 184.0
237.093887 176.0
237.126877 2776.0
238.095093 264.0
238.133362 728.0
239.103943 732.0
239.141846 964.0
240.111008 152.0
240.145737 136.0
241.121948 164.0
241.167892 244.0
243.111633 208.0
243.138168 120.0
244.119644 160.0
245.094513 404.0
245.139618 184.0
246.101898 300.0
247.107864 296.0
247.151474 128.0
248.078705 144.0
248.122086 468.0
249.125549 712.0
250.129883 432.0
250.186646 164.0
251.104645 132.0
251.141479 500.0
252.112671 148.0
252.146378 180.0
253.122437 1180.0
253.15419 412.0
254.129089 388.0
255.138306 896.0
255.171753 196.0
255.268112 144.0
255.299911 176.0
256.14444 196.0
257.097595 180.0
259.136871 416.0
260.1203 116.0
261.127655 960.0
262.134491 256.0
263.141846 1188.0
264.146759 1324.0
264.942444 168.0
265.027771 168.0
265.054108 104.0
265.118744 156.0
265.158508 2620.0
265.409149 144.0
265.905487 148.0
266.116486 148.0
266.159943 524.0
267.137482 2964.0
267.175781 392.0
267.932098 160.0
268.137451 664.0
268.18042 276.0
270.125061 184.0
270.858307 140.0
271.104034 144.0
272.11969 100.0
273.037659 152.0
273.123199 284.0
275.141174 532.0
276.119263 340.0
276.146576 120.0
277.118011 128.0
277.157166 1388.0
278.162689 308.0
279.13681 220.0
279.189026 160.0
280.004395 200.0
280.143402 252.0
281.152344 1036.0
282.12323 172.0
282.160767 764.0
283.169678 900.0
284.176941 320.0
285.176758 120.0
285.196136 380.0
286.140137 184.0
287.144562 960.0
288.980865 160.0
289.112854 140.0
289.373474 148.0
292.148804 208.0
293.153809 1160.0
294.158081 444.0
295.168549 3020.0
296.173553 848.0
297.150635 444.0
297.178955 336.0
298.145569 120.0
301.16864 208.0
303.140656 200.0
305.152802 1776.0
306.157379 488.0
308.651093 228.0
311.16626 620.0
312.164642 308.0
312.907135 196.0
313.180939 3884.0
313.276917 148.0
314.182098 800.0
315.174744 192.0
323.16394 4444.0
324.166962 988.0
324.211304 224.0
325.165771 332.0
326.795685 216.0
329.170166 144.0
331.189117 168.0
337.141357 216.0
340.119019 172.0
340.908661 172.0
341.022583 140.0
341.0961 140.0
341.174133 10700.0
341.29657 132.0
342.178802 2000.0
343.187347 100.0
346.072876 180.0
357.206329 120.0
359.186798 6752.0
359.491364 148.0
360.188293 1068.0
361.20755 408.0
521.893616 140.0
1275.44519 140.0
1386.502563 264.0
1549.909668 200.0
1598.998901 192.0
1637.324463 164.0
1658.231079 116.0
1786.36438 172.0
1815.707764 168.0
1815.970703 220.0
1883.930176 152.0
1899.234619 176.0
1907.031738 184.0
1912.937866 140.0
1942.518188 164.0
