>compound MLS001140704-01!
>formula C33H33N5O5
>ionization [M+H]+
>parentmass 580.2554456080906
#inchi InChI=1S/C33H33N5O5/c1-42-22-12-10-21(11-13-22)30-29-25(23-6-2-4-8-26(23)35-29)20-28-32(40)38(33(41)37(28)30)27-9-5-3-7-24(27)31(39)34-14-15-36-16-18-43-19-17-36/h2-13,28,30,35H,14-20H2,1H3,(H,34,39)/t28-,30?/m0/s1
#inchikey TYNNXAMDNHTMLY
#Ion_Source LC-ESI
#Instrument qTof
#Compound_Source NIH Natural Product Library
#PI Dorrestein
#Data_Collector VVP/LMS
#Scan -1
#Precursor_MZ 580.256
#ExactMass 579.248
#Charge 1
#CAS_Number N/A
#Pubmed_ID N/A
#Smiles COc1ccc(cc1)C2N3[C@@H](Cc4c2[nH]c5ccccc45)C(=O)N(C3=O)c6ccccc6C(=O)NCCN7CCOCC7
#INCHI_AUX N/A
#Library_Class 1
#SpectrumID CCMSLIB00000080467
#IonMode Positive
#UpdateWorkflowName UPDATE-SINGLE-ANNOTATED-GOLD
#LibraryQualityString Gold
#TaskID b1d8e8f6646f4e71acdff9ca3d919d08
##Scan# 1853
#SpectrumFile p2-D09_GD9_01_18021.mzXML
#LibraryName NIH_Natural_Products_Library.mgf
#MQScore -1
#Organism NIH_Natural_Products_Library
#TIC_Query 0
#RT_Query -1
#MZErrorPPM -1
#SharedPeaks 0
#MassDiff 0
#LibMZ -1
#SpecMZ 580.256
#SpecCharge 0
#internalFilename spec-00000.mgf

>collision 10
94.948761 180.0
95.024895 208.0
95.109795 136.0
95.129204 76.0
95.189392 104.0
95.223801 156.0
95.25634 204.0
95.274979 124.0
95.315651 128.0
95.375931 116.0
95.438408 152.0
95.465332 100.0
95.55175 212.0
95.585449 224.0
95.62291 248.0
95.648216 284.0
95.679359 176.0
95.729988 208.0
95.820053 100.0
95.866348 180.0
95.895828 156.0
95.922867 180.0
95.949585 204.0
96.098381 120.0
96.145218 112.0
96.18425 128.0
96.205727 124.0
96.22525 188.0
96.249428 216.0
96.322891 196.0
96.342422 160.0
96.371727 132.0
96.418625 164.0
96.449898 132.0
96.467491 108.0
96.509949 240.0
96.559914 208.0
96.584816 184.0
96.610245 188.0
96.645638 132.0
96.680687 160.0
96.72374 152.0
96.798141 228.0
96.841225 132.0
96.864731 96.0
96.892357 116.0
96.940468 128.0
96.994057 112.0
97.16201 136.0
97.207825 192.0
97.242462 148.0
97.271744 92.0
97.417908 104.0
97.435585 220.0
97.467903 188.0
97.529045 208.0
97.578011 180.0
97.600204 148.0
97.663612 144.0
97.685249 180.0
97.702957 160.0
97.780945 172.0
97.817093 88.0
97.838745 180.0
97.872215 36.0
97.925392 160.0
97.966751 132.0
98.006157 244.0
98.033745 160.0
98.094841 84.0
98.299957 132.0
98.37101 144.0
98.394699 100.0
98.412468 104.0
98.459023 164.0
98.483559 148.0
98.519119 136.0
98.56456 332.0
98.579903 188.0
98.617912 188.0
98.633728 140.0
98.691055 140.0
98.708855 156.0
98.747505 220.0
98.811523 132.0
98.814278 188.0
98.848991 128.0
98.892838 60.0
98.908676 112.0
98.949112 48.0
99.049263 48.0
99.069069 164.0
99.082939 156.0
99.115486 168.0
99.232658 184.0
99.257355 192.0
99.291153 280.0
99.350571 140.0
99.364456 144.0
99.442314 136.0
99.471619 112.0
99.49147 140.0
99.547066 148.0
99.562843 144.0
99.598701 160.0
99.616577 164.0
99.668236 132.0
99.713203 284.0
99.747795 120.0
99.776474 216.0
99.804192 60.0
99.952576 144.0
100.050102 224.0
100.07505 224.0
100.137718 92.0
100.167595 132.0
100.189507 44.0
100.227356 208.0
100.24131 276.0
100.273193 64.0
100.303093 168.0
100.336769 188.0
100.378853 256.0
100.432693 80.0
100.464615 160.0
100.513145 160.0
100.558395 140.0
100.579948 120.0
100.627838 132.0
100.674469 124.0
100.771706 156.0
100.791283 188.0
100.812027 136.0
100.826012 220.0
100.842957 160.0
100.88398 96.0
100.897972 200.0
100.913971 124.0
100.957962 240.0
100.971954 132.0
101.005295 228.0
101.097992 188.0
101.140022 160.0
101.166046 120.0
101.188065 128.0
101.21209 152.0
101.255089 148.0
101.281029 136.0
101.384369 164.0
101.407288 128.0
101.463509 128.0
101.478577 152.0
101.506645 204.0
101.539375 200.0
101.558792 52.0
101.612953 140.0
101.67968 172.0
101.707367 160.0
101.726166 184.0
101.789581 52.0
101.815689 220.0
101.829742 116.0
101.849831 148.0
101.892929 120.0
101.916451 124.0
101.946266 120.0
101.968376 164.0
102.000534 152.0
102.026665 164.0
102.052803 104.0
102.143295 48.0
102.166023 148.0
102.179512 188.0
102.209686 192.0
102.227798 192.0
102.266037 84.0
102.315575 144.0
102.346558 184.0
102.413017 160.0
102.465393 124.0
102.514046 136.0
102.552589 192.0
102.607681 200.0
102.650826 120.0
102.668976 112.0
102.687126 172.0
102.723434 136.0
102.745621 144.0
102.7658 144.0
102.784058 164.0
102.804138 148.0
103.011421 120.0
103.018059 80.0
103.024841 116.0
103.064621 180.0
103.088875 240.0
103.216225 140.0
103.317795 236.0
103.341629 264.0
103.374001 172.0
103.42662 136.0
103.46508 228.0
103.48735 148.0
103.518532 180.0
103.546074 156.0
103.568359 116.0
103.607948 132.0
103.631157 104.0
103.674316 160.0
103.683273 172.0
103.68956 136.0
103.738449 212.0
103.789253 72.0
103.840172 108.0
103.86264 148.0
103.918015 64.0
103.933266 364.0
103.947472 160.0
104.010384 92.0
104.062302 104.0
104.083466 128.0
104.115677 144.0
104.197212 104.0
104.243942 172.0
104.264259 52.0
104.288651 108.0
104.341194 184.0
104.361832 120.0
104.390305 208.0
104.416161 168.0
104.507874 200.0
104.546944 184.0
104.608002 176.0
104.654823 116.0
104.689445 140.0
104.735443 184.0
104.753639 160.0
104.79129 196.0
104.857742 236.0
104.88707 148.0
104.91153 92.0
104.962975 120.0
105.009407 244.0
105.067078 160.0
105.101204 204.0
105.162422 128.0
105.195084 220.0
105.217537 172.0
105.231827 52.0
105.256332 252.0
105.298027 172.0
105.306366 72.0
105.314476 136.0
105.348236 176.0
105.419746 148.0
105.444603 164.0
105.464714 188.0
105.484177 176.0
105.514198 192.0
105.64875 224.0
105.693352 140.0
105.699265 52.0
105.722511 152.0
105.779716 188.0
105.806328 132.0
105.825737 216.0
105.852531 184.0
105.880478 188.0
105.900185 220.0
105.933296 184.0
105.99604 192.0
106.025497 40.0
106.044052 148.0
106.06649 108.0
106.101334 84.0
106.115685 80.0
106.179253 104.0
106.204041 144.0
106.22876 148.0
106.248993 140.0
106.301552 156.0
106.347221 152.0
106.376228 204.0
106.396759 144.0
106.454788 152.0
106.479607 184.0
106.511757 192.0
106.550781 208.0
106.598045 180.0
106.616539 128.0
106.635033 104.0
106.655586 104.0
106.721375 124.0
106.748543 188.0
106.795403 140.0
106.828316 120.0
106.857117 160.0
106.935455 176.0
106.988831 152.0
107.041725 144.0
107.106209 312.0
107.143288 128.0
107.180374 152.0
107.242195 128.0
107.351646 136.0
107.462845 112.0
107.485641 168.0
107.535133 132.0
107.572227 80.0
107.633736 172.0
107.651253 188.0
107.665138 280.0
107.683037 168.0
107.706764 180.0
107.737427 52.0
107.760422 156.0
107.824829 148.0
107.84626 176.0
107.891518 168.0
107.968857 112.0
107.984299 148.0
108.02684 172.0
108.05574 124.0
108.102913 224.0
108.108688 172.0
108.1185 148.0
108.124741 216.0
108.171692 148.0
108.202744 152.0
108.221382 164.0
108.248299 144.0
108.263847 220.0
108.272705 112.0
108.276108 196.0
108.340965 200.0
108.349174 148.0
108.42231 92.0
108.470703 184.0
108.510544 184.0
108.554985 140.0
108.675293 132.0
108.773819 176.0
108.797737 152.0
108.812851 200.0
108.87664 100.0
108.907799 92.0
108.96804 136.0
108.982582 156.0
109.013748 216.0
109.118652 188.0
109.169662 128.0
109.192535 208.0
109.223732 68.0
109.254616 208.0
109.271584 164.0
109.302795 156.0
109.362633 180.0
109.413101 100.0
109.475563 160.0
109.535965 172.0
109.624008 232.0
109.648476 84.0
109.667236 148.0
109.73571 156.0
109.763313 140.0
109.811905 176.0
109.837601 244.0
109.907059 184.0
109.956856 148.0
110.080307 80.0
110.138786 196.0
110.160355 136.0
110.176384 200.0
110.211052 252.0
110.278778 104.0
110.301773 192.0
110.323875 168.0
110.358215 64.0
110.381393 140.0
110.404221 196.0
110.427223 176.0
110.446045 144.0
110.531906 192.0
110.548561 128.0
110.588326 96.0
110.61055 292.0
110.633095 176.0
110.649033 132.0
110.700272 144.0
110.739075 136.0
110.758247 104.0
110.80056 192.0
110.840736 168.0
110.884277 136.0
110.899925 140.0
110.92765 324.0
110.965385 184.0
110.980064 200.0
110.996841 64.0
111.035568 140.0
111.1007 92.0
111.200325 208.0
111.231812 284.0
111.389297 128.0
111.416611 196.0
111.464935 332.0
111.480225 144.0
111.673058 184.0
111.700401 72.0
111.731956 164.0
111.750893 116.0
112.009827 76.0
112.05407 160.0
112.076866 1252.0
112.110962 60.0
112.19738 52.0
112.216354 32.0
112.239548 148.0
112.262741 56.0
112.302811 136.0
112.367363 140.0
112.375893 124.0
112.381287 220.0
112.415215 104.0
112.442062 212.0
112.471611 228.0
112.490608 164.0
112.549721 148.0
112.580269 248.0
112.610962 196.0
112.640533 56.0
112.657433 176.0
112.670967 108.0
112.688683 212.0
112.710251 96.0
112.756737 132.0
112.771538 144.0
112.817154 172.0
112.853981 88.0
112.93222 188.0
112.961388 152.0
113.017151 136.0
113.058006 88.0
113.077072 504.0
113.114189 192.0
113.194641 208.0
113.222176 172.0
113.25412 248.0
113.311134 96.0
113.332321 172.0
113.376823 168.0
113.471146 208.0
113.508255 156.0
113.528923 252.0
113.560211 184.0
113.592987 244.0
113.646126 120.0
113.687363 212.0
113.724945 220.0
113.760727 36.0
113.813705 172.0
113.821518 164.0
113.843536 144.0
113.878281 228.0
113.89875 184.0
113.919998 272.0
113.934868 196.0
113.958977 160.0
113.977356 172.0
114.034737 40.0
114.058113 184.0
114.091667 13464.0
114.135132 132.0
114.151665 60.0
114.181435 148.0
114.20723 208.0
114.225227 172.0
114.243118 44.0
114.31546 136.0
114.37722 192.0
114.402725 104.0
114.486267 152.0
114.543564 172.0
114.564568 144.0
114.590134 176.0
114.609138 100.0
114.675369 160.0
114.704109 68.0
114.720131 88.0
114.747849 100.0
114.78315 236.0
114.8022 212.0
114.824608 176.0
114.839539 228.0
114.865135 144.0
114.892868 184.0
114.920601 132.0
114.94194 96.0
114.987686 192.0
115.008636 392.0
115.05777 104.0
115.095276 1112.0
115.115631 152.0
115.124016 216.0
115.185326 284.0
115.233742 172.0
115.270782 160.0
115.286156 124.0
115.317795 68.0
115.338196 148.0
115.403305 140.0
115.418274 84.0
115.443932 180.0
115.471733 204.0
115.527687 176.0
115.560097 220.0
115.602097 124.0
115.628296 136.0
115.742828 188.0
115.811249 108.0
115.884872 256.0
115.925583 92.0
116.034904 132.0
116.069206 132.0
116.087967 128.0
116.14856 88.0
116.23008 60.0
116.266685 140.0
116.298752 112.0
116.360657 124.0
116.380333 196.0
116.401001 148.0
116.418472 168.0
116.464081 176.0
116.517784 232.0
116.551666 192.0
116.605888 152.0
116.623077 108.0
116.640274 88.0
116.732719 164.0
116.782188 152.0
116.81015 196.0
116.87899 216.0
116.904358 208.0
116.92981 172.0
116.984451 140.0
117.041412 100.0
117.070572 116.0
117.105034 172.0
117.154076 156.0
117.169655 196.0
117.208336 84.0
117.249382 140.0
117.449242 120.0
117.506638 248.0
117.571808 244.0
117.632423 404.0
117.680801 104.0
117.726143 152.0
117.747742 140.0
117.765022 160.0
117.811729 64.0
117.834145 108.0
117.86348 104.0
117.886002 328.0
117.945946 152.0
117.970718 160.0
117.998398 52.0
118.03035 180.0
118.058945 172.0
118.104362 208.0
118.130783 148.0
118.239616 124.0
118.296944 96.0
118.338074 52.0
118.472351 76.0
118.516869 364.0
118.579605 352.0
118.654388 132.0
118.67672 120.0
118.73896 144.0
118.762817 152.0
118.793182 124.0
118.825722 80.0
118.84874 92.0
118.929939 172.0
118.987785 232.0
119.023949 172.0
119.049057 204.0
119.056122 56.0
119.065842 168.0
119.106804 184.0
119.164413 124.0
119.218933 132.0
119.264381 52.0
119.290459 160.0
119.312202 180.0
119.349159 148.0
119.370903 84.0
119.396049 160.0
119.412224 136.0
119.447029 136.0
119.475304 88.0
119.497063 112.0
119.529701 104.0
119.54493 116.0
119.57975 168.0
119.616913 108.0
119.675537 108.0
119.698051 240.0
119.738686 108.0
119.786606 92.0
119.821457 160.0
119.862854 268.0
119.893364 128.0
119.921692 188.0
119.958748 128.0
119.976768 120.0
120.013252 172.0
120.04512 1084.0
120.083435 144.0
120.100487 36.0
120.119492 140.0
120.133575 196.0
120.192108 40.0
120.266579 204.0
120.284477 168.0
120.353539 112.0
120.361275 104.0
120.367249 136.0
120.397308 128.0
120.435692 180.0
120.484673 120.0
120.522812 132.0
120.570175 124.0
120.589561 152.0
120.617661 112.0
120.629677 148.0
120.650764 164.0
120.70105 120.0
120.729607 140.0
120.758965 208.0
120.81739 168.0
120.826973 168.0
120.873856 172.0
120.89801 204.0
120.926376 176.0
120.974457 116.0
121.000214 328.0
121.007851 240.0
121.065765 48236.0
121.112846 112.0
121.143967 140.0
121.171631 64.0
121.189156 136.0
121.207741 52.0
121.232109 60.0
121.259285 116.0
121.324974 136.0
121.352921 172.0
121.403511 152.0
121.425827 144.0
121.452225 344.0
121.489517 168.0
121.510994 76.0
121.543945 136.0
121.549789 120.0
121.581589 116.0
121.630157 176.0
121.70414 172.0
121.724358 140.0
121.767136 140.0
121.791649 136.0
121.828583 132.0
121.873726 224.0
121.945747 172.0
121.970352 188.0
122.018784 124.0
122.068169 2900.0
122.097183 140.0
122.152924 200.0
122.185928 72.0
122.217651 124.0
122.255028 188.0
122.286697 156.0
122.331169 140.0
122.381805 80.0
122.489113 200.0
122.509544 96.0
122.53598 128.0
122.555809 136.0
122.647652 284.0
122.666 120.0
122.700554 148.0
122.7397 96.0
122.765213 72.0
122.780655 52.0
122.815941 136.0
122.834488 136.0
122.850212 104.0
122.865669 148.0
122.880638 220.0
122.91301 32.0
122.928741 244.0
122.948318 64.0
122.987869 108.0
123.00251 108.0
123.043747 188.0
123.072449 276.0
123.120514 48.0
123.140091 388.0
123.162476 108.0
123.17794 156.0
123.223091 200.0
123.264099 132.0
123.305237 176.0
123.449783 224.0
123.471901 120.0
123.500656 100.0
123.516136 216.0
123.589142 108.0
123.659401 112.0
123.747963 148.0
123.797684 152.0
123.826004 132.0
123.870712 172.0
123.895233 140.0
123.945633 84.0
123.965569 156.0
123.987213 204.0
124.020081 200.0
124.096352 124.0
124.121681 132.0
124.212997 160.0
124.237846 180.0
124.283203 164.0
124.333694 160.0
124.351456 224.0
124.381432 144.0
124.398064 120.0
124.489098 156.0
124.510445 140.0
124.531288 184.0
124.760162 132.0
124.803482 136.0
124.840202 116.0
124.895805 76.0
124.9403 136.0
125.007042 72.0
125.052536 172.0
125.071991 160.0
125.109428 164.0
125.129227 112.0
125.15583 152.0
125.20295 76.0
125.227448 128.0
125.274223 40.0
125.313766 176.0
125.356407 180.0
125.382874 136.0
125.432434 164.0
125.456955 148.0
125.474792 112.0
125.514923 156.0
125.568443 96.0
125.610825 160.0
125.644279 164.0
125.751389 52.0
125.775368 124.0
125.79953 168.0
125.916603 108.0
125.96376 160.0
125.981377 96.0
126.021591 192.0
126.050644 120.0
126.079079 220.0
126.21524 204.0
126.239807 160.0
126.462128 92.0
126.484512 108.0
126.511375 172.0
126.583023 168.0
126.609894 124.0
126.632294 92.0
126.67485 152.0
126.690529 92.0
126.70845 96.0
126.735474 128.0
126.792046 144.0
126.819016 176.0
126.836182 80.0
126.896713 180.0
126.93483 140.0
126.984169 100.0
127.031006 136.0
127.053703 164.0
127.113251 108.0
127.136719 92.0
127.187218 148.0
127.206299 136.0
127.266914 152.0
127.296104 300.0
127.332039 140.0
127.352249 176.0
127.397179 64.0
127.426796 152.0
127.462334 240.0
127.489296 172.0
127.540985 64.0
127.570213 208.0
127.61068 136.0
127.644402 192.0
127.673637 180.0
127.702873 120.0
127.788734 120.0
127.813103 200.0
127.853615 152.0
127.868675 156.0
127.90313 156.0
127.990929 108.0
128.014328 172.0
128.050583 160.0
128.096771 168.0
128.143143 156.0
128.165253 92.0
128.178329 192.0
128.207184 176.0
128.245499 112.0
128.283813 168.0
128.314468 232.0
128.357132 200.0
128.361588 104.0
128.370163 148.0
128.40004 204.0
128.413788 224.0
128.468719 196.0
128.489029 60.0
128.525131 88.0
128.570267 208.0
128.613144 200.0
128.658295 160.0
128.680939 120.0
128.73848 240.0
128.767487 200.0
128.789261 156.0
128.868988 164.0
128.91803 116.0
128.990356 124.0
129.043427 488.0
129.10321 428.0
129.128281 160.0
129.182571 88.0
129.230072 92.0
129.268539 120.0
129.304749 84.0
129.320602 188.0
129.340973 216.0
129.356812 76.0
129.393036 108.0
129.408875 220.0
129.456436 64.0
129.476807 124.0
129.493286 188.0
129.541183 152.0
129.599136 168.0
129.624054 304.0
129.638229 236.0
129.667114 164.0
129.73999 136.0
129.850754 116.0
129.870834 184.0
129.92334 148.0
129.964188 120.0
130.031387 196.0
130.065277 3256.0
130.120636 120.0
130.191177 120.0
130.22525 260.0
130.352463 116.0
130.386978 152.0
130.407013 152.0
130.538864 148.0
130.566711 180.0
130.663956 112.0
130.734497 152.0
130.751099 220.0
130.778091 208.0
130.820984 136.0
130.93483 136.0
130.959885 152.0
131.035065 164.0
131.065872 464.0
131.117249 172.0
131.149002 180.0
131.205994 156.0
131.302765 272.0
131.35878 92.0
131.41391 120.0
131.426041 132.0
131.434708 184.0
131.461441 152.0
131.484268 180.0
131.550201 92.0
131.556946 76.0
131.565125 132.0
131.605255 164.0
131.630371 92.0
131.653198 120.0
131.70459 208.0
131.718842 324.0
131.75827 64.0
131.897675 160.0
131.963959 176.0
131.995972 204.0
132.048569 176.0
132.080597 152.0
132.124298 104.0
132.167526 96.0
132.226959 136.0
132.291122 156.0
132.318588 60.0
132.341888 180.0
132.42392 100.0
132.52243 152.0
132.548492 200.0
132.600342 148.0
132.63472 192.0
132.653061 176.0
132.689163 144.0
132.722168 108.0
132.763107 140.0
132.795212 148.0
132.847382 204.0
132.877792 172.0
132.948929 144.0
133.015488 136.0
133.040604 152.0
133.065353 256.0
133.111984 124.0
133.137177 168.0
133.153244 104.0
133.182526 128.0
133.20607 124.0
133.22905 204.0
133.258911 152.0
133.279953 332.0
133.314056 124.0
133.493362 132.0
133.518661 116.0
133.560059 156.0
133.619873 104.0
133.652084 196.0
133.668198 192.0
133.6866 108.0
133.738937 216.0
133.847733 148.0
133.893784 112.0
134.00206 44.0
134.060577 488.0
134.124191 120.0
134.151855 120.0
134.194794 352.0
134.211792 120.0
134.238129 172.0
134.276001 204.0
134.2883 208.0
134.306351 88.0
134.350174 80.0
134.387085 164.0
134.553268 152.0
134.569977 168.0
134.613403 160.0
134.67334 152.0
134.708221 176.0
134.733398 160.0
134.772552 156.0
134.81427 160.0
134.844376 132.0
134.9021 124.0
134.920593 80.0
134.951904 184.0
134.969147 144.0
134.98764 128.0
135.044052 2480.0
135.073212 176.0
135.135681 140.0
135.170105 164.0
135.232864 84.0
135.269897 124.0
135.291931 72.0
135.306946 128.0
135.343903 108.0
135.39653 208.0
135.429672 100.0
135.469055 168.0
135.487579 172.0
135.527939 200.0
135.554779 132.0
135.570999 224.0
135.691986 144.0
135.744858 100.0
135.786591 132.0
135.807465 140.0
135.828354 188.0
135.860825 104.0
135.882431 76.0
135.942032 104.0
135.96524 52.0
136.049286 712.0
136.073807 140.0
136.125412 100.0
136.146317 164.0
136.175491 100.0
136.204956 132.0
136.220642 188.0
136.315903 344.0
136.353073 112.0
136.373322 116.0
136.4673 176.0
136.525116 176.0
136.569031 136.0
136.652817 196.0
136.742813 180.0
136.808975 60.0
136.876495 40.0
136.911423 188.0
136.958954 196.0
136.995163 172.0
137.033691 164.0
137.103546 136.0
137.140594 252.0
137.172958 128.0
137.344925 108.0
137.375244 104.0
137.41655 108.0
137.603958 128.0
137.624374 188.0
137.648956 44.0
137.685013 120.0
137.727722 124.0
137.832855 156.0
137.853882 164.0
137.931778 208.0
137.987106 208.0
138.026077 204.0
138.061935 208.0
138.095581 224.0
138.146164 220.0
138.167191 112.0
138.204407 288.0
138.210236 260.0
138.264908 152.0
138.302917 168.0
138.331009 188.0
138.40358 232.0
138.471497 176.0
138.503357 160.0
138.541763 104.0
138.587708 72.0
138.627701 148.0
138.682358 88.0
138.736267 136.0
138.75737 52.0
138.79213 160.0
138.816498 200.0
138.876846 164.0
138.944504 116.0
138.96611 160.0
139.002258 128.0
139.079147 184.0
139.107483 232.0
139.134842 116.0
139.141586 104.0
139.150269 196.0
139.179688 124.0
139.271286 116.0
139.315918 156.0
139.339401 148.0
139.407089 136.0
139.428696 176.0
139.53212 128.0
139.579147 76.0
139.605011 172.0
139.628525 136.0
139.661453 92.0
139.734375 144.0
139.779083 96.0
139.816742 136.0
139.837921 132.0
139.93631 160.0
139.955627 140.0
139.97757 188.0
140.051987 196.0
140.118134 152.0
140.136978 124.0
140.202957 124.0
140.271317 164.0
140.296906 140.0
140.318451 184.0
140.337326 140.0
140.414627 148.0
140.434006 168.0
140.553757 184.0
140.575562 100.0
140.592072 160.0
140.67067 148.0
140.773117 172.0
140.830521 36.0
140.84996 236.0
140.91066 156.0
140.948639 64.0
141.054993 100.0
141.10582 144.0
141.128281 100.0
141.213409 172.0
141.23233 148.0
141.331589 176.0
141.390854 112.0
141.459198 128.0
141.49501 144.0
141.539993 164.0
141.568405 268.0
141.594452 44.0
141.670258 176.0
141.690414 220.0
141.70816 156.0
141.755554 308.0
141.818604 216.0
141.836121 128.0
141.869308 36.0
141.900131 212.0
141.928589 116.0
141.952301 116.0
142.037674 84.0
142.064957 456.0
142.110123 164.0
142.149704 144.0
142.176315 204.0
142.28511 208.0
142.322464 76.0
142.385757 116.0
142.424576 132.0
142.567123 148.0
142.587051 52.0
142.624161 208.0
142.640808 152.0
142.681213 140.0
142.700241 292.0
142.766022 224.0
142.789062 148.0
142.820328 96.0
142.933258 136.0
142.989365 124.0
143.074402 564.0
143.126129 40.0
143.157089 172.0
143.176147 256.0
143.352432 120.0
143.440613 200.0
143.515869 120.0
143.589844 164.0
143.61467 120.0
143.700546 192.0
143.730164 204.0
143.739639 84.0
143.746948 152.0
143.784073 196.0
143.85144 124.0
143.869125 132.0
143.924911 68.0
143.96312 156.0
144.04538 1232.0
144.081985 5476.0
144.142822 88.0
144.209183 148.0
144.275848 208.0
144.311981 168.0
144.343063 212.0
144.366974 72.0
144.387878 140.0
144.426773 152.0
144.445908 48.0
144.476349 408.0
144.503311 160.0
144.524857 44.0
144.559753 184.0
144.59903 108.0
144.632538 124.0
144.659515 148.0
144.689987 176.0
144.708298 180.0
144.780975 148.0
144.809723 104.0
144.867203 56.0
144.905533 200.0
144.954926 92.0
144.997971 112.0
145.039886 2288.0
145.084579 740.0
145.105698 132.0
145.136826 152.0
145.166809 32.0
145.198029 124.0
145.231552 196.0
145.291519 132.0
145.308319 136.0
145.342819 200.0
145.352142 272.0
145.370697 156.0
145.44751 128.0
145.516998 160.0
145.531006 168.0
145.552399 248.0
145.569946 144.0
145.603561 116.0
145.641998 132.0
145.661072 132.0
145.69725 220.0
145.726074 172.0
145.757309 240.0
145.774826 96.0
145.941376 312.0
145.967377 152.0
146.024536 43368.0
146.082336 124.0
146.108871 312.0
146.166306 184.0
146.206024 148.0
146.230423 60.0
146.279205 64.0
146.307953 152.0
146.334564 48.0
146.356232 108.0
146.420151 76.0
146.463379 148.0
146.498337 152.0
146.563858 120.0
146.627502 72.0
146.653931 160.0
146.686295 56.0
146.732101 96.0
146.771469 144.0
146.816483 156.0
146.871429 172.0
146.90332 152.0
146.944336 68.0
147.027512 3872.0
147.081879 136.0
147.122528 168.0
147.213745 156.0
147.279877 224.0
147.304031 104.0
147.364426 148.0
147.417587 156.0
147.439331 72.0
147.468338 64.0
147.493011 156.0
147.521515 120.0
147.562622 64.0
147.588318 240.0
147.607391 124.0
147.673843 196.0
147.688736 180.0
147.711548 68.0
147.735153 164.0
147.797226 108.0
147.815308 76.0
147.847733 124.0
147.91156 148.0
147.935181 176.0
147.952118 92.0
147.979904 212.0
148.029282 544.0
148.055832 152.0
148.078766 628.0
148.124329 188.0
148.173859 100.0
148.230652 136.0
148.305786 92.0
148.332443 148.0
148.371231 164.0
148.425369 172.0
148.480347 176.0
148.507019 120.0
148.532761 204.0
148.598083 136.0
148.62941 224.0
148.684082 196.0
148.722961 36.0
148.771515 40.0
148.815216 112.0
148.832214 88.0
148.873566 256.0
148.907547 156.0
149.00563 168.0
149.041641 144.0
149.079971 152.0
149.122177 184.0
149.138306 176.0
149.165039 136.0
149.227676 152.0
149.25499 300.0
149.275894 116.0
149.425247 88.0
149.469055 104.0
149.490952 156.0
149.510422 124.0
149.527451 164.0
149.552933 184.0
149.597656 152.0
149.646729 152.0
149.736618 96.0
149.808914 148.0
149.82695 168.0
149.844009 112.0
149.907364 164.0
149.928513 164.0
149.9561 104.0
150.061874 132.0
150.079727 192.0
150.084854 152.0
150.160889 116.0
150.23526 248.0
150.263565 200.0
150.292633 216.0
150.324341 112.0
150.358505 216.0
150.434174 192.0
150.451263 216.0
150.472061 116.0
150.522064 124.0
150.560684 152.0
150.636856 180.0
150.72142 236.0
150.754135 168.0
150.832336 160.0
150.875534 228.0
150.915466 132.0
150.935028 92.0
150.983932 28.0
151.010834 128.0
151.028366 96.0
151.06337 184.0
151.152725 168.0
151.20166 152.0
151.218796 96.0
151.363495 148.0
151.384659 176.0
151.431793 188.0
151.451614 220.0
151.474823 128.0
151.50882 220.0
151.592834 196.0
151.644958 96.0
151.707657 200.0
151.750656 144.0
151.801849 124.0
151.87645 164.0
151.89505 124.0
152.101959 124.0
152.12326 188.0
152.187088 128.0
152.204285 144.0
152.230927 108.0
152.263092 152.0
152.314789 108.0
152.351639 124.0
152.393402 68.0
152.420441 120.0
152.454834 148.0
152.521194 128.0
152.580353 128.0
152.70314 132.0
152.725281 60.0
152.764633 32.0
152.799072 132.0
152.831055 164.0
152.907349 36.0
152.973801 148.0
152.994949 156.0
153.027954 124.0
153.052582 100.0
153.094711 160.0
153.114151 80.0
153.138779 144.0
153.192444 176.0
153.246826 172.0
153.293976 300.0
153.343262 108.0
153.382706 68.0
153.430344 256.0
153.466522 212.0
153.589828 156.0
153.61203 64.0
153.647598 192.0
153.688293 136.0
153.727982 196.0
153.755127 64.0
153.850006 264.0
153.8909 128.0
153.999023 132.0
154.067017 324.0
154.105774 96.0
154.123077 176.0
154.187317 88.0
154.20462 164.0
154.288666 120.0
154.335648 256.0
154.402328 136.0
154.476608 176.0
154.510544 184.0
154.532837 132.0
154.540619 96.0
154.600311 116.0
154.664673 168.0
154.746353 220.0
154.765396 180.0
154.788452 220.0
154.821014 136.0
154.926208 184.0
154.96431 140.0
155.041122 68.0
155.072037 404.0
155.147705 164.0
155.201935 128.0
155.224564 76.0
155.339539 112.0
155.378342 148.0
155.472641 156.0
155.522186 124.0
155.532196 172.0
155.646393 148.0
155.672791 160.0
155.760635 104.0
155.78299 148.0
155.812805 132.0
155.852554 152.0
155.882385 96.0
155.932083 220.0
155.966873 100.0
156.049637 180.0
156.071716 324.0
156.160812 248.0
156.178223 176.0
156.195633 76.0
156.21553 72.0
156.280212 96.0
156.305908 148.0
156.375717 160.0
156.492706 172.0
156.527802 120.0
156.56897 220.0
156.608826 132.0
156.666107 140.0
156.728394 108.0
156.764282 120.0
156.861694 172.0
156.937622 132.0
157.037521 140.0
157.089951 200.0
157.115463 112.0
157.169739 124.0
157.194687 216.0
157.214645 68.0
157.246277 160.0
157.276215 60.0
157.320663 140.0
157.362915 236.0
157.389389 164.0
157.424347 180.0
157.484283 116.0
157.521744 72.0
157.551727 160.0
157.594193 148.0
157.711655 80.0
157.766647 288.0
157.800842 232.0
157.861649 192.0
157.886658 244.0
157.908264 176.0
157.941544 140.0
158.061722 148.0
158.155365 160.0
158.179398 160.0
158.214447 72.0
158.239471 152.0
158.265686 120.0
158.304581 120.0
158.338608 144.0
158.387222 136.0
158.455795 140.0
158.512955 152.0
158.555099 128.0
158.572632 144.0
158.597168 168.0
158.632126 152.0
158.674072 152.0
158.697281 204.0
158.723831 284.0
158.775711 404.0
158.798279 168.0
158.840927 92.0
158.886078 76.0
158.903641 144.0
158.933075 180.0
158.953812 200.0
158.973892 192.0
159.106705 140.0
159.112625 192.0
159.132034 200.0
159.152115 136.0
159.177231 136.0
159.207352 80.0
159.247269 148.0
159.285217 124.0
159.326294 240.0
159.35556 192.0
159.39325 84.0
159.422089 184.0
159.463608 168.0
159.546555 148.0
159.566681 172.0
159.584274 76.0
159.614441 132.0
159.662231 108.0
159.750259 160.0
159.777924 228.0
159.841812 408.0
159.871033 128.0
159.909195 144.0
159.945251 136.0
159.979263 80.0
159.99939 144.0
160.059372 160.0
160.077652 292.0
160.107666 292.0
160.152817 168.0
160.213455 152.0
160.248734 140.0
160.281479 132.0
160.309433 168.0
160.348587 248.0
160.377243 384.0
160.430176 116.0
160.473038 184.0
160.606461 140.0
160.623352 244.0
160.653641 156.0
160.687424 124.0
160.747971 164.0
160.787399 180.0
160.806015 176.0
160.899414 156.0
160.929718 116.0
160.98526 72.0
161.046738 164.0
161.068604 144.0
161.114075 180.0
161.159561 108.0
161.179764 120.0
161.205032 204.0
161.227783 84.0
161.371857 152.0
161.402206 124.0
161.438187 172.0
161.510941 160.0
161.541962 108.0
161.561539 164.0
161.586472 212.0
161.622253 120.0
161.649643 268.0
161.693115 100.0
161.71843 124.0
161.847534 212.0
161.86525 116.0
161.93869 136.0
161.979218 176.0
162.05127 472.0
162.085632 208.0
162.204742 176.0
162.283325 224.0
162.323898 104.0
162.345291 144.0
162.372086 168.0
162.403381 328.0
162.450714 64.0
162.483139 200.0
162.547119 228.0
162.605499 180.0
162.663864 120.0
162.70195 100.0
162.721298 176.0
162.755264 212.0
162.775574 312.0
162.82637 100.0
162.874619 212.0
162.967926 160.0
163.047348 412.0
163.086533 1164.0
163.114716 148.0
163.145676 160.0
163.233917 88.0
163.258392 104.0
163.28331 116.0
163.334702 304.0
163.3983 188.0
163.479721 176.0
163.530609 156.0
163.563141 128.0
163.629898 164.0
163.685913 128.0
163.747025 132.0
163.777191 156.0
163.82283 168.0
163.847198 160.0
163.938095 240.0
163.971848 164.0
164.00946 148.0
164.055344 152.0
164.092682 452.0
164.113235 260.0
164.138962 160.0
164.190475 148.0
164.210876 80.0
164.25679 124.0
164.302612 180.0
164.336517 112.0
164.369324 212.0
164.409866 116.0
164.432846 180.0
164.488998 188.0
164.527283 188.0
164.588562 84.0
164.626862 160.0
164.667725 104.0
164.685608 144.0
164.734131 112.0
164.831223 76.0
164.965546 180.0
164.992249 64.0
165.02803 112.0
165.066391 172.0
165.107788 148.0
165.12793 124.0
165.334991 148.0
165.373383 200.0
165.411774 116.0
165.493698 140.0
165.518372 168.0
165.749832 120.0
165.80365 232.0
165.835709 108.0
165.874283 136.0
165.931808 132.0
166.018997 176.0
166.087219 220.0
166.106201 168.0
166.154938 152.0
166.190857 96.0
166.242172 84.0
166.310974 168.0
166.365372 180.0
166.411438 212.0
166.514236 180.0
166.604202 148.0
166.629898 172.0
166.650452 128.0
166.758377 96.0
166.784073 92.0
166.856812 96.0
166.88176 156.0
166.917755 180.0
166.943481 132.0
166.971771 212.0
167.00058 156.0
167.041214 160.0
167.066605 336.0
167.185287 156.0
167.205017 104.0
167.352615 116.0
167.385406 212.0
167.408371 116.0
167.47438 140.0
167.499405 112.0
167.52774 72.0
167.613327 160.0
167.744202 132.0
167.762238 80.0
167.794952 128.0
167.940155 224.0
167.963379 112.0
168.038193 128.0
168.068924 180.0
168.107849 120.0
168.131073 108.0
168.185272 152.0
168.223999 136.0
168.280792 152.0
168.324692 180.0
168.342758 184.0
168.37117 348.0
168.430801 136.0
168.492569 144.0
168.594604 180.0
168.621765 168.0
168.676758 148.0
168.707062 108.0
168.779465 152.0
168.823425 156.0
168.887695 156.0
168.911835 220.0
168.96376 124.0
169.02002 148.0
169.04071 84.0
169.075851 3968.0
169.176804 144.0
169.185867 196.0
169.219315 80.0
169.241776 116.0
169.320877 160.0
169.346191 120.0
169.369507 116.0
169.390228 64.0
169.429153 188.0
169.453949 148.0
169.55127 128.0
169.574951 152.0
169.601059 208.0
169.670105 116.0
169.729736 160.0
169.784195 168.0
169.856812 160.0
169.949036 160.0
169.978745 104.0
170.022873 332.0
170.044891 132.0
170.079193 948.0
170.144867 84.0
170.212723 140.0
170.232147 168.0
170.318848 116.0
170.388992 140.0
170.412231 80.0
170.46434 184.0
170.500717 164.0
170.541382 248.0
170.596893 164.0
170.646286 224.0
170.682678 132.0
170.732086 124.0
170.770554 132.0
170.777206 104.0
170.788254 168.0
170.825897 188.0
170.834229 164.0
170.916122 172.0
171.010635 120.0
171.053772 768.0
171.089279 408.0
171.174484 152.0
171.285675 252.0
171.317719 44.0
171.335968 164.0
171.370483 160.0
171.470856 156.0
171.504074 164.0
171.52977 192.0
171.562683 88.0
171.717407 216.0
171.750778 120.0
171.833908 116.0
171.853195 144.0
171.90004 152.0
171.937286 172.0
171.965576 236.0
172.048615 532.0
172.093842 216.0
172.136688 132.0
172.228088 188.0
172.329971 136.0
172.437119 120.0
172.476166 136.0
172.5103 92.0
172.613739 128.0
172.654099 152.0
172.769196 68.0
172.795761 156.0
172.857986 124.0
172.942047 136.0
172.962662 236.0
172.98111 216.0
173.041702 268.0
173.071503 3796.0
173.113525 164.0
173.154587 188.0
173.291962 136.0
173.324615 136.0
173.34465 224.0
173.39238 168.0
173.434311 212.0
173.48674 192.0
173.529022 124.0
173.616501 244.0
173.642624 124.0
173.651749 144.0
173.661026 120.0
173.722748 180.0
173.750778 148.0
173.787323 280.0
173.821487 152.0
173.940552 80.0
173.9991 144.0
174.023087 120.0
174.059418 244.0
174.077942 628.0
174.171616 44.0
174.220734 132.0
174.284592 96.0
174.318741 32.0
174.413361 108.0
174.437012 180.0
174.463303 292.0
174.518509 96.0
174.563217 152.0
174.584244 56.0
174.64801 232.0
174.67894 96.0
174.726288 152.0
174.902603 152.0
174.953033 300.0
174.973679 212.0
174.994736 124.0
175.053894 160.0
175.087662 152.0
175.144836 208.0
175.180145 148.0
175.26976 152.0
175.319489 152.0
175.355621 136.0
175.534882 144.0
175.57695 156.0
175.656204 92.0
175.686508 188.0
175.727432 60.0
175.769653 40.0
175.809235 104.0
175.87793 132.0
175.928009 360.0
175.961395 124.0
176.104919 200.0
176.237 180.0
176.258148 176.0
176.337418 260.0
176.395142 124.0
176.419357 276.0
176.489792 176.0
176.678528 268.0
176.737411 168.0
176.808182 180.0
176.839935 136.0
176.870361 228.0
176.900818 476.0
176.965439 176.0
177.008347 196.0
177.016525 120.0
177.025925 160.0
177.046448 148.0
177.067627 176.0
177.130356 240.0
177.137848 164.0
177.173584 160.0
177.208023 152.0
177.320618 204.0
177.345825 84.0
177.396179 124.0
177.514832 176.0
177.544662 152.0
177.573837 152.0
177.621582 176.0
177.677292 180.0
177.719742 96.0
177.802582 200.0
177.863037 140.0
177.889587 160.0
177.911713 180.0
177.932068 72.0
178.003754 80.0
178.1866 176.0
178.234848 188.0
178.260513 212.0
178.313187 216.0
178.363525 180.0
178.412918 116.0
178.450134 124.0
178.490021 204.0
178.543747 192.0
178.634964 112.0
178.640533 208.0
178.678864 68.0
178.70546 72.0
178.744644 116.0
178.827866 132.0
178.889099 176.0
178.944214 176.0
178.998245 136.0
179.093994 172.0
179.100769 148.0
179.168533 116.0
179.232651 204.0
179.303589 136.0
179.324753 136.0
179.352585 48.0
179.389893 88.0
179.436615 152.0
179.477081 188.0
179.528549 156.0
179.557877 164.0
179.60994 196.0
179.637894 184.0
179.690765 44.0
179.792984 156.0
179.963486 156.0
180.011551 84.0
180.080597 272.0
180.106033 184.0
180.308167 132.0
180.417664 104.0
180.46579 176.0
180.492523 192.0
180.523422 160.0
180.703827 132.0
180.724289 136.0
180.768036 124.0
180.808182 132.0
180.853577 96.0
180.875092 168.0
180.955414 176.0
180.984863 144.0
181.063461 148.0
181.083542 160.0
181.134827 220.0
181.193771 36.0
181.222031 220.0
181.260757 100.0
181.298935 144.0
181.370636 56.0
181.432281 212.0
181.47879 116.0
181.512711 132.0
181.534164 172.0
181.576508 188.0
181.644135 160.0
181.676956 204.0
181.732666 88.0
181.848373 164.0
181.93663 72.0
182.028488 168.0
182.062149 148.0
182.096298 292.0
182.127289 36.0
182.151459 232.0
182.237427 160.0
182.292526 132.0
182.376755 52.0
182.394745 96.0
182.554611 116.0
182.658936 96.0
182.6716 152.0
182.721375 64.0
182.837082 52.0
182.915131 140.0
182.971176 156.0
183.01474 72.0
183.056839 120.0
183.083374 244.0
183.179016 88.0
183.234772 196.0
183.402664 108.0
183.43988 144.0
183.477768 180.0
183.510498 96.0
183.604294 132.0
183.704666 232.0
183.753235 108.0
183.815292 208.0
183.832489 204.0
183.852386 304.0
183.909744 164.0
183.934036 88.0
183.961029 140.0
184.006927 392.0
184.058228 412.0
184.139969 128.0
184.172943 140.0
184.317535 144.0
184.355362 80.0
184.376984 268.0
184.398605 100.0
184.467407 96.0
184.490509 180.0
184.539169 68.0
184.579727 288.0
184.628403 184.0
184.758224 128.0
184.793396 192.0
184.866455 52.0
184.893524 108.0
184.91246 232.0
184.942154 128.0
184.98555 168.0
185.071671 176.0
185.110092 136.0
185.178391 200.0
185.233261 168.0
185.343033 188.0
185.397232 220.0
185.494812 128.0
185.660202 60.0
185.680283 176.0
185.706299 28.0
185.738846 176.0
185.793106 232.0
185.841034 180.0
185.87178 128.0
185.961334 96.0
185.983047 76.0
186.018555 196.0
186.058273 644.0
186.17038 52.0
186.371872 340.0
186.443329 152.0
186.467865 144.0
186.532944 72.0
186.558914 180.0
186.586105 84.0
186.61409 136.0
186.643204 212.0
186.673111 80.0
186.738388 120.0
186.760147 152.0
186.781906 132.0
186.818726 172.0
186.871674 56.0
186.936981 180.0
186.965302 148.0
187.013718 200.0
187.049286 320.0
187.07132 272.0
187.111176 248.0
187.252777 148.0
187.30452 176.0
187.397141 152.0
187.457092 144.0
187.478897 196.0
187.497971 212.0
187.57428 172.0
187.609726 168.0
187.64473 176.0
187.686066 224.0
187.718781 156.0
187.767868 116.0
187.820984 168.0
187.893341 148.0
187.915176 88.0
187.957306 108.0
188.031372 252.0
188.079575 444.0
188.117111 84.0
188.16626 224.0
188.184601 160.0
188.305527 296.0
188.338303 56.0
188.374008 160.0
188.385147 80.0
188.419968 172.0
188.45694 140.0
188.526245 156.0
188.5439 156.0
188.622681 100.0
188.694839 152.0
188.732681 140.0
188.763474 196.0
188.774933 172.0
188.797836 672.0
188.830261 180.0
188.860123 148.0
188.883972 88.0
188.908585 152.0
188.942078 152.0
188.963547 116.0
188.968216 204.0
189.000519 424.0
189.06723 105912.0
189.121201 172.0
189.143005 196.0
189.204346 152.0
189.233887 252.0
189.25061 216.0
189.288803 72.0
189.322098 140.0
189.329849 88.0
189.377319 64.0
189.387436 56.0
189.407211 60.0
189.428406 68.0
189.492371 72.0
189.518356 568.0
189.539413 84.0
189.57962 100.0
189.597153 120.0
189.608704 96.0
189.614746 188.0
189.65451 88.0
189.686768 224.0
189.707428 116.0
189.733887 108.0
189.76326 160.0
189.820648 192.0
189.848007 128.0
189.895554 336.0
189.931625 96.0
189.958755 72.0
189.997162 216.0
190.021164 64.0
190.069855 10712.0
190.133087 52.0
190.142975 28.0
190.149445 56.0
190.178574 56.0
190.278076 168.0
190.322418 160.0
190.342087 260.0
190.363678 156.0
190.389206 260.0
190.422043 76.0
190.461075 44.0
190.499527 52.0
190.540634 208.0
190.601181 216.0
190.619644 136.0
190.674072 76.0
190.727356 108.0
190.747437 300.0
190.785324 100.0
190.814743 120.0
190.846512 172.0
190.877625 84.0
190.944809 148.0
190.977478 164.0
191.022186 264.0
191.071426 1252.0
191.104935 132.0
191.131607 120.0
191.174072 212.0
191.201599 200.0
191.248123 360.0
191.266205 108.0
191.292191 104.0
191.313919 112.0
191.356277 120.0
191.384201 200.0
191.428146 124.0
191.451614 76.0
191.477814 220.0
191.50058 64.0
191.507812 128.0
191.526764 72.0
191.534576 100.0
191.572144 100.0
191.591003 268.0
191.633316 100.0
191.661301 128.0
191.701859 124.0
191.722382 180.0
191.744629 100.0
191.858978 68.0
191.884674 200.0
191.937225 84.0
191.977463 176.0
192.005112 128.0
192.031418 148.0
192.07312 304.0
192.090836 160.0
192.137589 136.0
192.19545 148.0
192.283752 68.0
192.340179 144.0
192.41777 124.0
192.518646 96.0
192.557083 112.0
192.576416 76.0
192.600708 140.0
192.662033 56.0
192.733871 176.0
192.783615 96.0
192.885864 208.0
192.935623 172.0
192.96051 88.0
193.040695 136.0
193.079697 304.0
193.115372 212.0
193.181747 248.0
193.245377 80.0
193.263138 72.0
193.325623 32.0
193.414185 60.0
193.441864 148.0
193.513855 52.0
193.535995 100.0
193.663742 184.0
193.694824 148.0
193.752029 128.0
193.882263 164.0
193.909973 168.0
193.940018 124.0
193.96817 144.0
194.012527 56.0
194.055817 156.0
194.134521 88.0
194.248245 44.0
194.314819 256.0
194.443359 124.0
194.486862 80.0
194.513412 128.0
194.55072 168.0
194.711761 68.0
194.733978 124.0
194.756195 124.0
194.778412 48.0
194.921143 124.0
195.01738 108.0
195.061752 152.0
195.095428 144.0
195.148026 100.0
195.17305 116.0
195.225891 216.0
195.270752 180.0
195.317657 160.0
195.449234 176.0
195.481812 80.0
195.576431 168.0
195.715622 108.0
195.760178 156.0
195.813095 72.0
195.835373 168.0
195.879944 100.0
196.019241 44.0
196.066101 172.0
196.133499 116.0
196.164169 148.0
196.239441 204.0
196.278473 188.0
196.331451 184.0
196.39003 172.0
196.419128 136.0
196.439407 164.0
196.484436 156.0
196.618805 160.0
196.65509 160.0
196.681046 132.0
196.72377 376.0
196.757141 136.0
196.786285 184.0
196.814209 80.0
196.833755 192.0
196.942673 88.0
196.979752 72.0
197.0009 132.0
197.069458 484.0
197.077423 732.0
197.115875 112.0
197.150406 156.0
197.42337 136.0
197.493286 172.0
197.568985 200.0
197.613571 172.0
197.742538 188.0
197.775879 116.0
197.843063 80.0
197.918655 156.0
197.952332 152.0
198.00267 116.0
198.034637 212.0
198.070496 136.0
198.181946 116.0
198.209961 136.0
198.241119 132.0
198.266647 160.0
198.288437 152.0
198.335602 140.0
198.380936 152.0
198.406998 148.0
198.431396 232.0
198.459427 180.0
198.505432 172.0
198.562103 148.0
198.582199 108.0
198.595444 96.0
198.606339 156.0
198.644897 148.0
198.675385 100.0
198.714661 72.0
198.769257 184.0
198.874603 84.0
198.899872 76.0
198.959793 128.0
199.043488 128.0
199.073624 164.0
199.121689 76.0
199.194702 72.0
199.219986 180.0
199.270554 116.0
199.352051 108.0
199.387451 160.0
199.513229 116.0
199.615234 188.0
199.666901 108.0
199.689407 84.0
199.72316 176.0
199.796295 116.0
199.855377 160.0
199.920868 116.0
199.962311 100.0
199.98201 100.0
200.008774 148.0
200.044388 452.0
200.082214 2568.0
200.193817 236.0
200.23822 204.0
200.259079 180.0
200.280457 112.0
200.328812 120.0
200.366364 168.0
200.453903 184.0
200.500229 192.0
200.579132 128.0
200.632706 108.0
200.683441 208.0
200.703186 52.0
200.745483 148.0
200.774384 32.0
200.821625 32.0
200.852646 84.0
200.923172 160.0
200.988068 100.0
201.030716 380.0
201.072357 872.0
201.157394 104.0
201.177155 36.0
201.245422 132.0
201.318329 144.0
201.37764 48.0
201.456329 168.0
201.484985 168.0
201.611191 132.0
201.665833 72.0
201.69487 188.0
201.736801 108.0
201.781723 172.0
201.8116 248.0
201.841095 136.0
201.872208 100.0
201.918335 128.0
201.982498 152.0
202.002304 140.0
202.060638 736.0
202.091446 300.0
202.166626 100.0
202.191879 120.0
202.257706 156.0
202.289215 144.0
202.326431 172.0
202.387192 152.0
202.412674 100.0
202.438171 44.0
202.475281 148.0
202.500473 108.0
202.548615 148.0
202.616608 236.0
202.701614 156.0
202.848984 148.0
202.874496 132.0
202.908508 88.0
202.957291 156.0
202.979401 76.0
202.999252 108.0
203.042236 176.0
203.065689 144.0
203.102676 68.0
203.135391 140.0
203.193573 188.0
203.274399 180.0
203.345352 88.0
203.368057 172.0
203.391968 164.0
203.436188 176.0
203.522324 244.0
203.552582 80.0
203.58667 180.0
203.691757 136.0
203.717316 108.0
203.785492 60.0
203.824692 196.0
203.856537 116.0
203.941788 148.0
204.020889 92.0
204.046967 260.0
204.081802 2276.0
204.143143 180.0
204.223282 64.0
204.243195 92.0
204.292114 80.0
204.352158 236.0
204.382187 144.0
204.535278 128.0
204.585403 156.0
204.606873 144.0
204.686234 332.0
204.806763 148.0
204.892227 40.0
204.929611 160.0
205.048935 100.0
205.086685 820.0
205.146912 140.0
205.191406 188.0
205.290604 120.0
205.319901 192.0
205.373962 104.0
205.448135 188.0
205.473267 168.0
205.579376 96.0
205.622192 136.0
205.67717 124.0
205.802032 48.0
205.833435 100.0
205.919113 168.0
205.957855 204.0
206.033371 160.0
206.064285 156.0
206.096146 3144.0
206.125153 412.0
206.146088 80.0
206.179092 184.0
206.20195 128.0
206.264557 192.0
206.304855 100.0
206.34201 108.0
206.376328 148.0
206.443939 124.0
206.467834 164.0
206.530273 144.0
206.60199 160.0
206.649689 104.0
206.660706 112.0
206.670929 152.0
206.771088 84.0
206.796844 204.0
206.882874 72.0
206.922791 148.0
206.988647 136.0
207.019318 96.0
207.068832 92.0
207.101425 508.0
207.128326 252.0
207.255035 112.0
207.311386 288.0
207.369781 164.0
207.498657 156.0
207.544525 208.0
207.5858 184.0
207.693649 148.0
207.796051 128.0
207.834229 140.0
207.894485 184.0
207.960495 120.0
207.994934 124.0
208.026505 44.0
208.06163 188.0
208.069 80.0
208.07515 136.0
208.095978 300.0
208.181549 152.0
208.312454 184.0
208.408478 124.0
208.428589 124.0
208.451569 124.0
208.480316 144.0
208.538101 188.0
208.585419 184.0
208.649902 192.0
208.687271 120.0
208.716019 112.0
208.74765 124.0
208.803085 204.0
208.946121 136.0
209.069778 188.0
209.079697 132.0
209.143188 116.0
209.199371 92.0
209.323868 164.0
209.3367 40.0
209.342728 192.0
209.460815 188.0
209.540024 180.0
209.582413 84.0
209.616989 100.0
209.642914 160.0
209.663086 68.0
209.829987 200.0
209.861649 136.0
209.911011 140.0
209.982788 112.0
209.993835 100.0
210.001724 184.0
210.052322 312.0
210.092087 1988.0
210.216782 152.0
210.251404 160.0
210.297577 64.0
210.32933 128.0
210.398605 128.0
210.431259 144.0
210.488113 56.0
210.736511 124.0
210.781799 156.0
210.847824 200.0
210.944595 64.0
210.987961 148.0
211.031326 144.0
211.095673 172.0
211.132523 196.0
211.196365 164.0
211.222183 84.0
211.24823 128.0
211.303192 132.0
211.381317 184.0
211.445145 136.0
211.497208 84.0
211.526016 56.0
211.593155 148.0
211.676575 72.0
211.702637 132.0
211.804001 160.0
211.922775 184.0
211.966232 124.0
212.001007 60.0
212.029984 128.0
212.061874 140.0
212.102448 164.0
212.157516 124.0
212.192307 220.0
212.23291 80.0
212.256104 136.0
212.29187 60.0
212.297577 172.0
212.340195 124.0
212.435913 188.0
212.473633 112.0
212.528 156.0
212.554871 132.0
212.583893 64.0
212.630325 112.0
212.659348 68.0
212.70578 184.0
212.730453 240.0
212.755127 36.0
212.801575 224.0
212.891724 216.0
213.065826 268.0
213.09581 104.0
213.134781 192.0
213.199524 204.0
213.240219 124.0
213.272186 140.0
213.347763 124.0
213.373932 124.0
213.432083 184.0
213.500381 112.0
213.530869 136.0
213.59494 168.0
213.640396 160.0
213.669174 116.0
213.781143 124.0
213.830612 96.0
213.855255 156.0
213.887726 148.0
213.926666 100.0
213.958694 76.0
213.984894 208.0
214.031479 184.0
214.056763 204.0
214.165985 108.0
214.205261 212.0
214.292587 192.0
214.322754 140.0
214.383392 168.0
214.453888 100.0
214.500946 168.0
214.579239 168.0
214.611313 156.0
214.712677 188.0
214.760544 132.0
214.797943 116.0
214.879639 72.0
214.902969 128.0
214.975922 192.0
215.002182 176.0
215.040131 148.0
215.072983 108.0
215.145203 188.0
215.174408 96.0
215.240952 156.0
215.313797 240.0
215.377884 168.0
215.40625 180.0
215.434311 124.0
215.463287 196.0
215.510269 76.0
215.57164 52.0
215.609634 164.0
215.689713 228.0
215.723618 140.0
215.782089 92.0
215.825104 28.0
215.8815 100.0
215.969238 136.0
216.005295 148.0
216.078018 1296.0
216.124283 80.0
216.151978 344.0
216.210541 124.0
216.255981 228.0
216.287292 212.0
216.343796 456.0
216.378922 152.0
216.434555 168.0
216.56926 140.0
216.638214 156.0
216.660065 152.0
216.683502 164.0
216.712799 136.0
216.747955 184.0
216.768478 196.0
216.819962 128.0
216.870239 188.0
216.950195 152.0
217.00296 108.0
217.049911 164.0
217.090073 7824.0
217.162949 36.0
217.190643 156.0
217.231705 132.0
217.315323 140.0
217.367218 156.0
217.388123 128.0
217.408997 128.0
217.445908 124.0
217.47818 100.0
217.529526 284.0
217.569183 96.0
217.592667 136.0
217.645523 40.0
217.671234 200.0
217.712738 260.0
217.723282 224.0
217.762665 144.0
217.797348 308.0
217.820847 176.0
217.839355 208.0
217.861649 280.0
217.880524 280.0
217.908798 120.0
217.937775 112.0
217.96582 232.0
217.99234 448.0
218.025925 416.0
218.097961 116064.0
218.186111 60.0
218.196503 68.0
218.26416 64.0
218.299591 128.0
218.326553 100.0
218.356476 136.0
218.380692 72.0
218.413437 132.0
218.424316 72.0
218.454117 224.0
218.485809 376.0
218.515503 32.0
218.551575 360.0
218.581451 828.0
218.618393 172.0
218.690308 100.0
218.731384 156.0
218.750931 128.0
218.79715 124.0
218.816422 116.0
218.863297 216.0
218.894669 156.0
218.924194 64.0
218.935944 96.0
218.975998 68.0
219.045776 288.0
219.10083 21768.0
219.147797 164.0
219.177979 60.0
219.213333 80.0
219.259369 180.0
219.271301 132.0
219.276062 212.0
219.307648 180.0
219.356049 76.0
219.397507 124.0
219.433365 100.0
219.461395 108.0
219.504059 64.0
219.528351 88.0
219.553696 176.0
219.562225 80.0
219.571091 124.0
219.599457 148.0
219.624603 112.0
219.664246 64.0
219.670334 60.0
219.681763 64.0
219.692108 52.0
219.745453 152.0
219.767685 52.0
219.80014 96.0
219.820801 48.0
219.857635 152.0
219.866333 148.0
219.9142 92.0
219.981903 156.0
220.009445 48.0
220.02655 152.0
220.04512 228.0
220.105652 1740.0
220.199112 140.0
220.234116 140.0
220.272354 76.0
220.305115 104.0
220.352753 296.0
220.381821 64.0
220.416458 144.0
220.439178 68.0
220.483582 64.0
220.522675 132.0
220.568771 72.0
220.602676 60.0
220.633026 92.0
220.652756 116.0
220.692902 304.0
220.736511 112.0
220.782608 136.0
220.85817 116.0
220.903809 136.0
220.958832 120.0
220.996033 108.0
221.041183 148.0
221.087906 648.0
221.113571 96.0
221.125534 104.0
221.136749 216.0
221.171036 64.0
221.190247 104.0
221.21701 168.0
221.273453 160.0
221.325348 100.0
221.443802 40.0
221.473419 52.0
221.505997 72.0
221.55043 200.0
221.618576 84.0
221.696609 240.0
221.715134 116.0
221.759979 268.0
221.796387 128.0
221.849747 136.0
221.900146 124.0
221.968338 108.0
221.992065 100.0
222.073303 192.0
222.107727 88.0
222.167053 180.0
222.210129 248.0
222.227737 140.0
222.276825 108.0
222.339142 152.0
222.37085 92.0
222.478653 100.0
222.505371 72.0
222.693848 140.0
222.731064 192.0
222.775787 140.0
222.811264 176.0
222.912277 164.0
223.014526 168.0
223.063309 1292.0
223.114395 160.0
223.147095 176.0
223.215485 76.0
223.257111 144.0
223.327652 228.0
223.486298 176.0
223.611145 228.0
223.649841 56.0
223.742111 56.0
223.774857 128.0
223.85228 156.0
223.882065 100.0
223.915085 44.0
223.983322 96.0
224.033966 164.0
224.073715 140.0
224.116043 156.0
224.159103 152.0
224.19783 140.0
224.278305 64.0
224.30513 120.0
224.40947 172.0
224.528748 68.0
224.618225 80.0
224.646622 100.0
224.731583 260.0
224.821106 60.0
224.934525 60.0
225.033035 248.0
225.056931 196.0
225.076782 140.0
225.131577 136.0
225.224167 152.0
225.310791 80.0
225.337677 104.0
225.433289 144.0
225.478119 112.0
225.502029 120.0
225.540054 160.0
225.627579 80.0
225.681137 212.0
225.70929 84.0
225.830902 128.0
225.891693 188.0
225.923645 200.0
225.983475 156.0
226.059769 72.0
226.071838 164.0
226.115143 180.0
226.180984 144.0
226.210922 120.0
226.255814 176.0
226.291748 180.0
226.343918 216.0
226.408524 28.0
226.534317 80.0
226.611633 104.0
226.795013 104.0
226.842972 196.0
226.949158 152.0
227.005951 200.0
227.079926 156.0
227.142181 220.0
227.175827 152.0
227.260162 108.0
227.302292 140.0
227.337845 132.0
227.448898 144.0
227.543243 140.0
227.632034 172.0
227.677078 188.0
227.732483 152.0
227.758163 88.0
227.821243 184.0
227.8573 204.0
227.937607 204.0
227.961517 124.0
228.033005 184.0
228.077972 2424.0
228.175873 192.0
228.211945 188.0
228.295471 108.0
228.353287 36.0
228.410431 52.0
228.518127 160.0
228.596954 92.0
228.648117 112.0
228.690262 156.0
228.717346 76.0
228.780563 112.0
228.866928 140.0
228.91687 148.0
228.95636 52.0
228.991333 36.0
229.018448 144.0
229.048569 148.0
229.084213 788.0
229.179443 100.0
229.220291 40.0
229.253433 108.0
229.364944 212.0
229.448349 252.0
229.488541 108.0
229.518692 100.0
229.565079 84.0
229.636307 44.0
229.683792 140.0
229.708694 128.0
229.943054 196.0
229.971207 156.0
230.096512 592.0
230.155365 184.0
230.17952 180.0
230.203674 220.0
230.248962 96.0
230.303329 140.0
230.342606 196.0
230.423691 76.0
230.434555 64.0
230.514816 108.0
230.576935 100.0
230.641739 172.0
230.666931 144.0
230.726837 184.0
230.780334 128.0
230.827469 120.0
230.869858 124.0
230.966415 116.0
231.004044 176.0
231.065109 128.0
231.093842 112.0
231.191406 172.0
231.217484 200.0
231.253769 172.0
231.279953 160.0
231.410126 156.0
231.443436 56.0
231.467651 44.0
231.53125 132.0
231.571838 168.0
231.594849 64.0
231.676636 160.0
231.759491 252.0
231.788742 168.0
231.846313 156.0
231.931168 88.0
231.955231 132.0
231.985733 212.0
232.013016 148.0
232.078796 736.0
232.124786 164.0
232.179779 96.0
232.389084 136.0
232.431564 140.0
232.503967 168.0
232.545578 188.0
232.571167 72.0
232.659195 84.0
232.686523 168.0
232.725983 104.0
232.765457 188.0
232.810638 228.0
232.850494 36.0
232.880859 132.0
232.947693 144.0
232.979477 120.0
233.08429 2772.0
233.129089 164.0
233.212036 40.0
233.257629 216.0
233.324509 44.0
233.352905 164.0
233.430923 48.0
233.528381 172.0
233.570831 224.0
233.592117 116.0
233.71077 172.0
233.802444 96.0
233.854263 156.0
233.886841 224.0
233.893753 160.0
233.938232 124.0
233.976486 156.0
234.049042 116.0
234.092438 15328.0
234.161301 104.0
234.182617 40.0
234.206024 176.0
234.256424 52.0
234.290756 312.0
234.34407 168.0
234.382492 72.0
234.429382 144.0
234.456818 116.0
234.494904 56.0
234.559097 172.0
234.653183 208.0
234.682388 152.0
234.734222 48.0
234.89798 144.0
234.947723 148.0
234.983139 184.0
235.012009 56.0
235.066589 176.0
235.097015 3332.0
235.158264 40.0
235.188782 140.0
235.219315 144.0
235.243103 212.0
235.298676 76.0
235.347534 184.0
235.375015 344.0
235.507141 196.0
235.588806 64.0
235.640747 36.0
235.688965 128.0
235.720184 72.0
235.772125 164.0
235.81572 92.0
235.85466 64.0
235.954102 196.0
236.050308 336.0
236.106689 4544.0
236.204025 140.0
236.279709 100.0
236.359253 72.0
236.404144 216.0
236.47467 168.0
236.540253 144.0
236.567368 176.0
236.601044 76.0
236.717392 40.0
236.787827 120.0
236.815399 72.0
236.836838 160.0
236.916473 64.0
236.961334 200.0
237.005325 92.0
237.0383 84.0
237.079376 396.0
237.110046 1028.0
237.165192 196.0
237.195328 140.0
237.336365 260.0
237.383636 192.0
237.459015 40.0
237.495819 100.0
237.57251 88.0
237.600128 108.0
237.621597 180.0
237.722473 132.0
237.767197 152.0
237.800842 232.0
237.833344 48.0
237.867096 152.0
237.892471 152.0
237.956131 40.0
237.980682 104.0
238.00972 184.0
238.087158 19400.0
238.152664 92.0
238.187241 108.0
238.243408 220.0
238.295334 152.0
238.320404 132.0
238.39537 108.0
238.426102 140.0
238.467346 76.0
238.512146 116.0
238.545959 192.0
238.595642 124.0
238.637756 128.0
238.71199 196.0
238.746658 232.0
238.804245 156.0
238.875 76.0
238.92247 168.0
239.01651 92.0
239.089828 2876.0
239.149872 96.0
239.201172 144.0
239.262161 116.0
239.27066 224.0
239.380646 144.0
239.434784 348.0
239.901978 48.0
239.975449 120.0
240.004425 96.0
240.025925 148.0
240.095062 412.0
240.134766 172.0
240.18721 168.0
240.239639 32.0
240.261246 92.0
240.287613 132.0
240.338364 164.0
240.371445 156.0
240.40625 92.0
240.429398 152.0
240.465515 144.0
240.503571 128.0
240.568634 204.0
240.702591 96.0
240.734512 144.0
240.766464 88.0
240.815079 76.0
240.851227 192.0
240.958954 64.0
241.032532 148.0
241.058777 144.0
241.101089 340.0
241.138184 112.0
241.29274 144.0
241.317474 92.0
241.385498 112.0
241.446259 148.0
241.452377 108.0
241.493729 132.0
241.515381 112.0
241.549408 144.0
241.632935 112.0
241.654587 44.0
241.886688 116.0
241.914551 48.0
241.979568 128.0
242.010086 140.0
242.036072 160.0
242.084839 108.0
242.106522 184.0
242.162262 104.0
242.259567 124.0
242.283066 76.0
242.307846 136.0
242.329544 116.0
242.503067 168.0
242.548264 144.0
242.729385 204.0
242.762497 188.0
242.818329 140.0
242.93718 160.0
243.005432 452.0
243.041458 124.0
243.103439 276.0
243.365616 164.0
243.398407 92.0
243.449295 104.0
243.652039 132.0
243.756836 44.0
243.787903 108.0
243.812759 60.0
243.843842 324.0
243.895157 284.0
244.01474 164.0
244.02507 152.0
244.07309 30172.0
244.174728 56.0
244.203461 72.0
244.256439 112.0
244.28537 72.0
244.311508 168.0
244.340317 248.0
244.348724 164.0
244.377899 124.0
244.422256 188.0
244.445816 168.0
244.481384 56.0
244.503174 120.0
244.591873 56.0
244.628418 100.0
244.712769 36.0
244.762207 56.0
244.786255 128.0
244.839172 116.0
244.959076 84.0
244.995132 148.0
245.023163 104.0
245.077164 6364.0
245.13063 164.0
245.169617 60.0
245.203903 184.0
245.238174 48.0
245.264679 48.0
245.320557 188.0
245.376373 48.0
245.402359 84.0
245.411407 56.0
245.422104 60.0
245.48027 204.0
245.529968 88.0
245.604446 128.0
245.663528 136.0
245.699677 136.0
245.737534 92.0
245.790161 44.0
245.830734 44.0
245.902802 232.0
245.974289 184.0
246.01799 116.0
246.039856 200.0
246.08902 2536.0
246.192841 56.0
246.242813 196.0
246.31778 176.0
246.394226 76.0
246.431854 116.0
246.458694 60.0
246.518936 228.0
246.569733 212.0
246.599274 112.0
246.625412 104.0
246.648712 180.0
246.657974 32.0
246.690063 204.0
246.71727 76.0
246.725632 192.0
246.770905 172.0
246.834839 224.0
246.864716 176.0
246.903763 148.0
246.932251 128.0
246.973648 96.0
247.005463 152.0
247.041733 228.0
247.100098 6308.0
247.15831 140.0
247.193604 172.0
247.223007 164.0
247.266876 116.0
247.302002 180.0
247.34079 140.0
247.387222 72.0
247.460678 328.0
247.490173 248.0
247.554993 96.0
247.603271 96.0
247.652802 308.0
247.679916 160.0
247.703491 156.0
247.731689 104.0
247.767365 196.0
247.836563 84.0
247.891663 176.0
247.924896 192.0
247.967316 236.0
247.991165 64.0
248.040222 192.0
248.108963 82108.0
248.188782 112.0
248.228149 180.0
248.263367 76.0
248.31041 204.0
248.351746 64.0
248.392426 416.0
248.413498 60.0
248.441269 136.0
248.467102 132.0
248.4991 136.0
248.537842 148.0
248.577042 200.0
248.625351 496.0
248.66217 196.0
248.707794 148.0
248.759262 184.0
248.80304 236.0
248.864624 272.0
248.891846 212.0
248.932129 252.0
249.00087 248.0
249.01088 132.0
249.021286 292.0
249.072372 312.0
249.115921 88584.0
249.202347 72.0
249.251083 144.0
249.290939 172.0
249.32132 160.0
249.359344 76.0
249.390121 216.0
249.431107 312.0
249.477325 180.0
249.489975 108.0
249.522812 108.0
249.536041 80.0
249.578201 120.0
249.59613 232.0
249.633331 204.0
249.695587 220.0
249.749435 104.0
249.799988 168.0
249.812424 96.0
249.822235 160.0
249.855896 232.0
249.908905 72.0
249.954529 68.0
249.995865 244.0
250.035446 136.0
250.122208 39436.0
250.18248 80.0
250.201385 52.0
250.24324 148.0
250.258911 156.0
250.315735 160.0
250.3759 56.0
250.427094 72.0
250.46524 168.0
250.528259 184.0
250.576813 76.0
250.640961 56.0
250.674637 160.0
250.752213 116.0
250.781448 152.0
250.847122 48.0
250.8918 176.0
250.934082 96.0
250.985916 124.0
251.008499 84.0
251.050537 384.0
251.125824 6896.0
251.192673 76.0
251.217331 136.0
251.236923 160.0
251.306244 56.0
251.335114 80.0
251.411697 200.0
251.437057 88.0
251.465729 112.0
251.504013 48.0
251.529099 152.0
251.55687 108.0
251.610413 32.0
251.666061 100.0
251.699127 76.0
251.743591 108.0
251.77829 248.0
251.822372 160.0
251.847504 124.0
251.870667 132.0
251.967758 160.0
251.985489 208.0
252.014694 168.0
252.059387 144.0
252.128937 812.0
252.203094 112.0
252.267487 156.0
252.337799 124.0
252.362564 76.0
252.4104 84.0
252.442841 136.0
252.499298 120.0
252.635254 136.0
252.706604 128.0
252.757385 120.0
252.791656 160.0
252.829895 44.0
252.86412 52.0
252.907272 204.0
252.988907 228.0
253.014069 76.0
253.049301 80.0
253.095474 144.0
253.123535 216.0
253.202881 40.0
253.253555 48.0
253.358093 164.0
253.389771 120.0
253.455582 88.0
253.467865 68.0
253.508408 72.0
253.545029 120.0
253.576721 180.0
253.617935 44.0
253.676819 88.0
253.71936 96.0
253.831543 148.0
253.896927 92.0
254.100876 108.0
254.155319 88.0
254.183487 120.0
254.242722 128.0
254.417297 188.0
254.439514 52.0
254.506195 48.0
254.569702 56.0
254.630035 288.0
254.655243 184.0
254.825302 144.0
254.874649 44.0
254.947723 52.0
255.030365 48.0
255.144791 36.0
255.24971 112.0
255.303421 144.0
255.497803 144.0
255.529617 40.0
255.596436 168.0
255.666443 60.0
255.698257 112.0
255.783432 184.0
255.889252 104.0
255.92746 64.0
255.949753 120.0
255.972031 68.0
256.081635 264.0
256.128082 160.0
256.163116 168.0
256.210907 168.0
256.29245 128.0
256.46582 184.0
256.755951 48.0
256.861206 96.0
256.937775 132.0
257.085571 500.0
257.209015 100.0
257.237762 100.0
257.292908 72.0
257.422943 112.0
257.470825 204.0
257.643311 112.0
257.66568 152.0
257.750641 64.0
257.812653 116.0
257.879761 156.0
257.90683 68.0
258.000824 136.0
258.060516 352.0
258.091766 328.0
258.186676 136.0
258.228271 52.0
258.25705 40.0
258.3479 164.0
258.477783 60.0
258.605804 168.0
258.644196 132.0
258.689026 28.0
258.711426 168.0
258.788269 132.0
258.810669 164.0
258.863098 64.0
258.905029 116.0
259.081665 340.0
259.089355 188.0
259.130951 208.0
259.175812 124.0
259.219543 80.0
259.273529 140.0
259.313629 160.0
259.445038 116.0
259.467468 148.0
259.500977 208.0
259.564941 200.0
259.603149 164.0
259.627808 44.0
259.656677 60.0
259.704773 72.0
259.830597 140.0
259.888184 120.0
259.910095 192.0
259.977478 148.0
260.008514 192.0
260.060272 304.0
260.108246 37872.0
260.161926 172.0
260.197174 124.0
260.22226 216.0
260.266357 72.0
260.298492 84.0
260.32077 64.0
260.351746 96.0
260.39325 124.0
260.470642 340.0
260.518158 80.0
260.542572 68.0
260.579346 100.0
260.602844 184.0
260.63797 64.0
260.690369 100.0
260.727722 84.0
260.806335 180.0
260.852234 168.0
260.919556 56.0
260.973236 44.0
261.023071 72.0
261.041534 220.0
261.111359 6100.0
261.224091 40.0
261.276642 60.0
261.339905 208.0
261.397827 64.0
261.426788 48.0
261.487946 176.0
261.56839 180.0
261.614594 92.0
261.668182 72.0
261.793762 32.0
261.948364 76.0
261.983795 112.0
262.038574 208.0
262.087311 1344.0
262.11969 1204.0
262.161011 120.0
262.309265 116.0
262.369598 140.0
262.40274 104.0
262.428558 124.0
262.476898 196.0
262.515594 152.0
262.572754 116.0
262.640015 104.0
262.676147 108.0
262.732788 48.0
262.776886 92.0
262.842621 324.0
262.902466 104.0
262.91214 96.0
262.946533 236.0
263.005737 68.0
263.040741 120.0
263.065338 144.0
263.093567 136.0
263.123169 224.0
263.183533 116.0
263.235199 64.0
263.325623 44.0
263.383759 140.0
263.407593 140.0
263.51944 196.0
263.567902 44.0
263.643585 124.0
263.713348 76.0
263.76181 92.0
263.858795 188.0
263.936401 108.0
263.96225 108.0
264.059296 100.0
264.097656 112.0
264.122253 120.0
264.148621 224.0
264.222717 92.0
264.306152 152.0
264.343964 144.0
264.392517 156.0
264.433136 116.0
264.570526 68.0
264.628815 148.0
264.687073 80.0
264.804993 148.0
264.842529 196.0
264.938293 156.0
265.074829 160.0
265.095795 132.0
265.13089 204.0
265.228119 132.0
265.250458 112.0
265.351288 92.0
265.390198 140.0
265.455048 36.0
265.498932 196.0
265.523163 116.0
265.549103 188.0
265.573761 140.0
265.639923 184.0
265.698303 336.0
265.754089 104.0
265.825836 176.0
265.909241 212.0
265.94928 448.0
266.015778 120.0
266.082581 58864.0
266.17041 60.0
266.218628 52.0
266.232391 184.0
266.326965 60.0
266.384369 168.0
266.4198 168.0
266.454346 64.0
266.477081 100.0
266.501312 96.0
266.53894 96.0
266.568237 112.0
266.572601 88.0
266.643219 152.0
266.699677 108.0
266.739349 172.0
266.790863 164.0
266.818726 192.0
266.859375 40.0
266.865204 164.0
266.914856 104.0
266.955292 100.0
266.995575 52.0
267.032562 132.0
267.085632 8740.0
267.20575 36.0
267.382599 104.0
267.443573 48.0
267.482605 136.0
267.515381 84.0
267.54422 128.0
267.606079 48.0
267.648407 52.0
267.680969 100.0
267.740967 140.0
267.794861 172.0
267.834015 136.0
267.856842 92.0
267.980621 44.0
268.02298 292.0
268.087646 1880.0
268.134521 124.0
268.203125 228.0
268.21344 100.0
268.223846 272.0
268.277191 60.0
268.312408 160.0
268.417389 68.0
268.442444 152.0
268.464722 116.0
268.536743 136.0
268.59024 72.0
268.626129 112.0
268.652222 56.0
268.684845 64.0
268.735718 84.0
268.792511 76.0
268.853577 160.0
268.903625 72.0
268.926666 220.0
268.97525 88.0
269.001373 96.0
269.049011 168.0
269.087677 168.0
269.113953 108.0
269.148285 80.0
269.200531 48.0
269.252777 96.0
269.309113 128.0
269.360565 84.0
269.391052 204.0
269.425903 112.0
269.469452 60.0
269.532776 124.0
269.662262 156.0
269.70285 64.0
269.795197 148.0
269.877625 92.0
269.926727 96.0
269.961945 68.0
269.984833 56.0
270.085938 96.0
270.111694 152.0
270.16275 116.0
270.238892 132.0
270.31601 132.0
270.346497 132.0
270.449402 52.0
270.496674 100.0
270.606537 164.0
270.679291 164.0
270.737518 76.0
270.884918 92.0
270.920929 128.0
271.045441 356.0
271.088562 1456.0
271.219116 56.0
271.356812 104.0
271.497803 48.0
271.730682 68.0
271.770081 200.0
271.796326 148.0
271.822571 40.0
271.950562 76.0
272.010468 140.0
272.093414 892.0
272.180359 44.0
272.2677 216.0
272.360992 44.0
272.482513 160.0
272.564667 72.0
272.70105 120.0
272.748688 88.0
272.891876 116.0
272.922943 124.0
272.952545 140.0
273.093109 432.0
273.213745 124.0
273.363708 60.0
273.521698 200.0
273.555847 208.0
273.627014 40.0
273.653351 56.0
273.715912 56.0
273.834473 96.0
273.933289 80.0
273.985992 84.0
274.086212 232.0
274.122925 628.0
274.179352 76.0
274.295776 88.0
274.506775 136.0
274.55954 40.0
274.589203 52.0
274.707947 64.0
274.800323 52.0
274.965302 156.0
275.034637 52.0
275.119202 1156.0
275.331757 64.0
275.381317 168.0
275.515686 188.0
275.714996 92.0
275.74472 112.0
275.880249 56.0
275.986053 140.0
276.128632 1440.0
276.21756 92.0
276.270477 136.0
276.300232 188.0
276.326721 72.0
276.521942 104.0
276.604706 128.0
276.677521 80.0
276.796722 296.0
276.869568 96.0
277.04425 116.0
277.133331 7512.0
277.183075 100.0
277.283691 80.0
277.320129 56.0
277.412964 52.0
277.436157 208.0
277.598633 72.0
277.678223 52.0
277.754486 60.0
277.787842 152.0
277.883881 60.0
277.910431 132.0
277.956879 112.0
277.990356 88.0
278.084625 96.0
278.13623 2868.0
278.232361 104.0
278.305389 80.0
278.378448 136.0
278.723907 56.0
278.780396 52.0
278.833557 120.0
278.948181 132.0
279.102417 96.0
279.116669 72.0
279.14209 272.0
279.169342 52.0
279.222534 64.0
279.381134 76.0
279.529327 72.0
279.596588 160.0
279.621765 88.0
279.658386 132.0
279.821503 28.0
279.853882 164.0
279.965668 212.0
280.112061 216.0
280.15451 140.0
280.227814 52.0
280.314453 88.0
280.431091 248.0
280.576019 84.0
280.724457 132.0
280.784485 144.0
280.819855 160.0
281.054688 140.0
281.078064 152.0
281.128632 104.0
281.161469 100.0
281.298309 60.0
281.358398 212.0
281.52536 36.0
281.56543 88.0
281.678986 64.0
281.730713 108.0
281.772522 140.0
281.822632 60.0
281.901215 140.0
281.973022 80.0
282.003082 144.0
282.140259 116.0
282.254669 168.0
282.3508 84.0
282.437744 72.0
282.474548 32.0
282.497955 184.0
282.541443 120.0
282.581604 124.0
282.829224 52.0
282.896454 152.0
282.973175 176.0
283.023407 60.0
283.094971 128.0
283.381775 68.0
283.522522 160.0
283.602966 88.0
283.767212 220.0
283.868805 188.0
283.938232 104.0
284.001953 108.0
284.10614 144.0
284.187683 44.0
284.226715 112.0
284.461639 112.0
284.511993 72.0
284.595947 256.0
284.62616 136.0
284.693329 132.0
284.750397 76.0
285.083008 116.0
285.108429 120.0
285.136078 192.0
285.384583 160.0
285.389923 116.0
285.50415 228.0
285.812683 124.0
285.8396 56.0
285.973572 188.0
286.001129 212.0
286.09552 528.0
286.31424 128.0
286.432129 144.0
286.486023 96.0
286.642639 116.0
286.698303 60.0
286.887054 224.0
286.98819 144.0
287.087891 360.0
287.119385 1560.0
287.153961 280.0
287.271484 128.0
287.328827 132.0
287.392944 164.0
287.453674 220.0
287.492767 136.0
287.556091 196.0
287.688904 200.0
287.732025 204.0
287.763214 164.0
287.818848 44.0
287.882385 64.0
287.914001 200.0
287.951538 116.0
287.988037 140.0
288.103516 50688.0
288.182281 148.0
288.227325 104.0
288.266113 80.0
288.339111 164.0
288.393372 64.0
288.425842 164.0
288.473175 384.0
288.505096 52.0
288.546509 72.0
288.598206 52.0
288.635712 68.0
288.673706 116.0
288.701752 112.0
288.746582 88.0
288.815155 48.0
288.874725 72.0
288.903107 152.0
288.968872 92.0
288.981262 40.0
288.993042 96.0
289.025146 60.0
289.105988 8628.0
289.255829 40.0
289.292267 72.0
289.325043 200.0
289.354401 68.0
289.38031 84.0
289.425812 152.0
289.432129 92.0
289.47644 92.0
289.54718 56.0
289.576691 80.0
289.615997 156.0
289.639282 84.0
289.68399 116.0
289.718964 52.0
289.742676 56.0
289.786713 84.0
289.824005 88.0
289.91861 152.0
289.971283 128.0
289.995789 52.0
290.104492 2052.0
290.236877 148.0
290.302338 168.0
290.337585 132.0
290.386719 36.0
290.460358 56.0
290.515625 48.0
290.566498 68.0
290.646088 76.0
290.678467 60.0
290.712402 56.0
290.743164 64.0
290.785187 132.0
290.865143 212.0
290.887604 96.0
290.92688 212.0
290.98056 68.0
291.011108 120.0
291.037262 136.0
291.097229 544.0
291.156494 124.0
291.211639 72.0
291.236053 84.0
291.287231 80.0
291.411865 232.0
291.452637 44.0
291.493439 160.0
291.557983 180.0
291.59198 44.0
291.700745 52.0
291.782318 76.0
291.908142 40.0
291.931946 176.0
292.093719 224.0
292.163208 204.0
292.308746 124.0
292.387787 128.0
292.493317 68.0
292.51712 68.0
292.687347 60.0
292.901917 112.0
293.010925 108.0
293.162415 148.0
293.297852 100.0
293.324432 116.0
293.378967 132.0
293.433533 112.0
293.808655 68.0
293.934906 72.0
294.108276 60.0
294.230133 52.0
294.252319 144.0
294.373688 88.0
294.46405 52.0
295.050385 120.0
295.087494 116.0
295.192169 124.0
295.246674 128.0
295.400574 192.0
295.490204 264.0
295.568207 160.0
295.742737 140.0
295.82489 76.0
296.071411 168.0
296.136505 76.0
296.163879 72.0
296.516785 120.0
296.698456 108.0
296.743011 60.0
296.825317 216.0
297.061951 148.0
297.099701 132.0
297.135986 172.0
297.312439 80.0
297.446289 28.0
297.477173 144.0
297.528656 56.0
297.614502 104.0
297.641968 48.0
297.720947 168.0
297.844604 44.0
298.042786 144.0
298.100342 404.0
298.305054 72.0
298.518188 128.0
298.669525 148.0
298.910339 156.0
299.037689 216.0
299.083374 3624.0
299.134064 148.0
299.278656 68.0
299.388824 152.0
299.440491 80.0
299.70575 132.0
300.046967 308.0
300.086212 844.0
300.215912 188.0
300.326263 116.0
300.38147 44.0
300.515991 108.0
300.580322 144.0
300.660919 100.0
300.736847 176.0
300.767914 112.0
300.912903 100.0
301.094849 220.0
301.216797 48.0
301.361908 72.0
301.482849 28.0
301.776642 80.0
301.800842 60.0
301.859619 120.0
301.914948 92.0
301.987579 84.0
302.06308 140.0
302.106476 240.0
302.215912 188.0
302.357788 88.0
302.487305 76.0
302.742676 132.0
302.797455 152.0
302.849396 196.0
302.901367 164.0
303.064392 136.0
303.113556 7344.0
303.211121 100.0
303.485382 100.0
303.525177 52.0
303.611877 136.0
303.774902 120.0
303.851227 148.0
303.893951 76.0
303.93689 172.0
303.96225 104.0
303.993469 88.0
304.118011 1272.0
304.337097 148.0
304.406555 128.0
304.507263 112.0
304.562836 44.0
304.698303 148.0
304.82782 84.0
304.946777 100.0
305.124695 584.0
305.20575 36.0
305.480499 64.0
305.522247 68.0
305.637054 36.0
305.68924 172.0
305.748413 112.0
305.845856 32.0
305.967712 84.0
306.061707 44.0
306.123444 316.0
306.399536 132.0
306.469452 120.0
306.619568 168.0
306.768951 64.0
307.071381 416.0
307.107178 132.0
307.137482 200.0
307.236237 84.0
307.295532 52.0
307.43512 36.0
307.515381 180.0
307.592163 44.0
307.665466 88.0
307.714355 116.0
307.773712 48.0
307.892426 76.0
307.92038 144.0
308.039124 80.0
308.318634 52.0
308.437469 192.0
308.685699 188.0
308.787109 48.0
309.129944 160.0
309.448486 188.0
309.613037 104.0
309.970367 136.0
310.131561 168.0
310.362946 172.0
310.517242 136.0
310.868042 108.0
311.109863 152.0
311.229584 148.0
311.367889 168.0
311.573792 44.0
312.083405 132.0
312.600464 144.0
312.672028 168.0
312.836273 164.0
312.910217 180.0
312.963013 68.0
313.05484 108.0
313.131866 1740.0
313.2659 44.0
313.431488 212.0
313.459656 116.0
313.498413 124.0
313.533661 128.0
313.55835 88.0
313.838257 196.0
313.900299 76.0
314.009613 156.0
314.040192 112.0
314.091034 1084.0
314.134857 536.0
314.260071 60.0
314.411804 60.0
314.602386 72.0
314.740082 144.0
314.78598 132.0
314.959045 172.0
315.019104 136.0
315.096344 616.0
315.450195 104.0
315.506775 112.0
315.591614 144.0
315.619904 60.0
315.715393 28.0
315.842712 116.0
316.033722 144.0
316.105835 372.0
316.198212 108.0
316.412445 68.0
316.455872 88.0
316.670929 128.0
316.865753 100.0
317.065582 112.0
317.111145 252.0
317.148804 224.0
317.617279 160.0
318.000916 156.0
318.03952 204.0
318.101746 172.0
318.171417 128.0
318.277374 76.0
318.778107 120.0
318.874176 72.0
318.906158 80.0
319.218994 104.0
319.375488 176.0
319.816681 68.0
320.107605 156.0
320.131287 140.0
320.293793 56.0
320.3508 204.0
320.618011 236.0
320.981628 108.0
321.08847 228.0
321.120514 140.0
321.202759 96.0
321.381134 156.0
321.42395 56.0
321.548828 184.0
321.998688 60.0
322.091614 244.0
322.384491 100.0
322.459564 88.0
322.58493 52.0
322.691895 104.0
322.802734 124.0
323.010193 176.0
323.081726 92.0
323.502869 88.0
323.686584 120.0
324.005371 112.0
324.130768 124.0
324.204926 120.0
324.43576 204.0
324.621857 172.0
324.707916 112.0
324.835876 184.0
325.098938 180.0
325.382507 148.0
325.809875 128.0
325.881714 180.0
325.98233 132.0
326.064484 140.0
326.115631 268.0
326.162018 172.0
326.575531 152.0
326.701416 80.0
326.740997 144.0
327.025269 124.0
327.123688 116.0
327.468109 236.0
327.547363 172.0
327.612183 152.0
327.673431 156.0
327.727478 92.0
328.130859 160.0
328.313446 108.0
328.358307 164.0
328.498993 48.0
328.585571 148.0
328.989746 160.0
329.103149 168.0
329.235291 148.0
329.26416 144.0
329.433929 64.0
329.502563 64.0
329.607361 60.0
329.722992 68.0
329.777191 116.0
329.831696 148.0
329.848206 68.0
329.858337 124.0
330.041107 120.0
330.093536 256.0
330.163727 140.0
330.225525 120.0
330.276154 104.0
330.569214 148.0
330.675812 108.0
330.724823 60.0
330.797211 92.0
330.858765 100.0
330.945648 224.0
330.971008 160.0
331.003571 140.0
331.028931 96.0
331.141388 9336.0
331.202759 172.0
331.242615 72.0
331.267975 36.0
331.296936 64.0
331.369873 92.0
331.407349 76.0
331.438232 28.0
331.493408 168.0
331.521576 68.0
331.554199 56.0
331.735443 48.0
331.818817 52.0
331.876831 100.0
331.985596 44.0
332.040009 128.0
332.142029 1756.0
332.275787 116.0
332.341095 68.0
332.420898 64.0
332.467651 100.0
332.537048 172.0
332.685852 180.0
332.7258 60.0
332.797394 188.0
332.970734 88.0
333.119446 252.0
333.151855 252.0
333.263306 108.0
333.372314 116.0
333.510437 80.0
333.615845 52.0
333.665863 84.0
333.780731 56.0
333.884888 120.0
334.143158 116.0
334.186829 60.0
334.281433 48.0
334.317291 56.0
334.354218 124.0
334.408783 88.0
334.459747 44.0
334.50708 132.0
334.576233 76.0
334.631683 140.0
334.780151 192.0
334.882111 128.0
335.035095 196.0
335.106537 120.0
335.250061 132.0
335.401642 88.0
335.461456 120.0
336.137726 284.0
336.358795 176.0
336.537689 36.0
336.687408 148.0
336.807922 156.0
337.049042 120.0
337.096558 116.0
337.135315 184.0
337.173279 168.0
337.215546 100.0
337.241608 116.0
337.363342 100.0
337.549805 52.0
337.608337 104.0
337.641235 120.0
337.849731 180.0
338.00705 88.0
338.142456 104.0
338.242188 64.0
339.087341 136.0
339.138672 128.0
339.241302 56.0
339.281616 44.0
339.442932 160.0
339.604309 156.0
339.740021 152.0
339.802399 168.0
340.084961 132.0
340.121643 184.0
340.268494 112.0
340.341919 128.0
341.043579 60.0
341.106049 1824.0
341.216339 52.0
341.470062 148.0
341.62088 172.0
341.657684 220.0
341.705505 56.0
341.848999 128.0
341.889465 112.0
341.915222 92.0
341.955719 80.0
342.091156 2716.0
342.178284 144.0
342.231384 144.0
342.441711 152.0
342.492645 92.0
342.876434 96.0
342.933899 52.0
342.983337 36.0
343.042297 44.0
343.090271 520.0
343.211884 48.0
343.329895 208.0
343.529053 112.0
343.661865 44.0
343.78363 104.0
343.886993 164.0
343.975555 64.0
344.008789 140.0
344.05307 56.0
344.103729 696.0
344.267242 28.0
344.426056 136.0
344.481445 84.0
344.554962 120.0
344.582611 128.0
344.711243 104.0
345.002502 108.0
345.116669 308.0
345.279816 172.0
345.331604 104.0
345.427765 56.0
345.523956 60.0
345.764465 108.0
346.030975 80.0
346.114349 120.0
346.245728 32.0
346.3013 136.0
346.685303 184.0
346.731049 152.0
347.074402 168.0
347.084778 104.0
347.121216 644.0
347.205597 28.0
347.238983 72.0
347.446686 156.0
347.559204 184.0
347.836334 44.0
347.88089 116.0
348.014526 196.0
348.11377 220.0
348.125092 140.0
348.136322 132.0
348.222473 144.0
348.300476 160.0
348.326477 72.0
348.486237 184.0
348.590271 80.0
348.750061 140.0
348.924774 160.0
348.991699 88.0
349.125854 100.0
349.22226 196.0
349.279877 140.0
349.397095 132.0
349.735718 172.0
349.854828 168.0
349.913483 224.0
350.048431 92.0
350.086578 168.0
350.114716 136.0
350.286804 116.0
350.651947 56.0
350.711578 188.0
350.931519 180.0
351.150665 544.0
351.183777 192.0
351.223297 184.0
351.252228 164.0
351.431305 88.0
351.511597 116.0
351.85791 132.0
351.976257 72.0
352.136841 120.0
352.230194 104.0
352.353485 212.0
352.704742 108.0
353.112427 180.0
353.190826 64.0
353.258148 156.0
353.475159 144.0
353.739532 56.0
353.886871 148.0
354.137787 92.0
354.486176 160.0
354.542389 220.0
354.628601 112.0
354.66983 40.0
355.052246 44.0
355.157257 220.0
355.303558 132.0
355.607513 88.0
355.708832 228.0
356.118103 108.0
356.264618 164.0
356.779449 56.0
356.862152 124.0
356.974976 176.0
357.101807 116.0
357.290894 176.0
357.31723 128.0
357.527954 176.0
357.558075 120.0
357.746246 124.0
357.942047 204.0
357.998535 88.0
358.115814 396.0
358.258392 52.0
358.71814 92.0
359.100494 136.0
359.175659 192.0
360.087189 188.0
360.126038 156.0
360.216217 116.0
360.405121 184.0
360.522247 184.0
360.55249 112.0
360.783051 108.0
360.941833 92.0
361.086273 168.0
361.137177 296.0
361.388153 120.0
361.433563 180.0
361.563141 184.0
361.668213 60.0
361.694702 168.0
361.827179 56.0
361.971069 188.0
362.148254 496.0
362.258911 56.0
362.323303 180.0
362.48468 88.0
362.574432 144.0
362.815979 124.0
363.147827 400.0
363.19516 116.0
363.240692 96.0
363.297577 80.0
363.407593 92.0
363.883026 120.0
364.030121 148.0
364.128479 1456.0
364.284576 136.0
364.520142 196.0
364.679749 160.0
364.710144 92.0
364.957245 92.0
365.06839 52.0
365.130585 672.0
365.174011 216.0
365.272888 156.0
365.680023 84.0
366.087677 96.0
366.146942 276.0
366.251129 60.0
366.300659 100.0
366.357788 72.0
367.074341 116.0
367.107452 116.0
367.135345 120.0
367.165863 72.0
367.493896 92.0
367.818268 112.0
368.11264 144.0
368.222992 72.0
368.616486 208.0
368.71759 228.0
368.799927 176.0
368.861084 116.0
368.922241 40.0
369.113403 156.0
369.156616 132.0
369.293152 148.0
369.721619 128.0
369.989563 196.0
370.211639 92.0
370.456757 176.0
370.537201 168.0
370.65332 200.0
370.694305 124.0
370.81311 164.0
370.974091 184.0
371.008606 188.0
371.058441 164.0
371.131561 144.0
371.161957 140.0
371.299988 64.0
371.43042 76.0
371.46109 192.0
371.499451 220.0
371.591522 104.0
371.649078 148.0
371.696991 104.0
371.863983 76.0
372.13092 460.0
372.163391 148.0
372.739563 136.0
372.858154 144.0
373.031647 128.0
373.089294 84.0
373.123779 116.0
373.136658 112.0
373.14798 152.0
373.27002 124.0
373.343079 156.0
373.54306 40.0
373.637573 204.0
374.115997 548.0
374.375397 184.0
374.46521 200.0
374.532196 120.0
374.691986 160.0
374.751892 76.0
374.794281 40.0
375.1138 680.0
375.143738 680.0
375.177307 428.0
375.291473 84.0
375.349335 124.0
375.468872 116.0
375.607727 52.0
375.704163 56.0
375.81604 120.0
375.877777 72.0
375.927948 64.0
376.119171 708.0
376.420532 132.0
376.628235 204.0
376.707855 104.0
376.804413 192.0
376.917816 148.0
376.970551 92.0
377.128815 404.0
377.302979 152.0
377.341614 156.0
377.422821 96.0
377.465363 28.0
377.631653 72.0
377.830139 220.0
377.875336 88.0
377.906281 80.0
378.095795 148.0
378.123474 272.0
378.162323 320.0
378.59494 220.0
378.641785 44.0
378.678284 56.0
378.713745 144.0
378.777344 44.0
378.816071 156.0
378.982666 84.0
379.036896 160.0
379.067902 176.0
379.146271 3788.0
379.251831 140.0
379.544678 40.0
379.571808 80.0
379.610596 108.0
379.653259 76.0
379.70755 164.0
379.796753 96.0
380.091583 88.0
380.148315 1156.0
380.391785 184.0
380.517059 148.0
380.642792 120.0
380.74762 128.0
381.150543 232.0
381.318726 120.0
381.365356 76.0
381.412018 100.0
381.466431 108.0
381.835815 180.0
381.908417 96.0
382.018616 136.0
382.108093 124.0
382.139221 120.0
382.209259 168.0
382.283173 148.0
382.473877 56.0
382.593018 132.0
382.980072 128.0
383.178711 100.0
383.280029 76.0
383.327393 108.0
383.404724 88.0
383.494354 72.0
383.599609 64.0
383.626892 64.0
383.763336 52.0
384.586456 112.0
384.684021 100.0
384.738678 136.0
384.894867 84.0
384.95343 128.0
385.130035 1140.0
385.210388 152.0
385.332306 184.0
385.410461 72.0
385.504211 112.0
385.563568 64.0
385.69574 52.0
385.816895 132.0
385.856018 208.0
385.969391 112.0
386.05542 156.0
386.082794 112.0
386.138519 340.0
386.239227 72.0
386.446564 132.0
386.516998 92.0
386.560028 168.0
386.95929 168.0
387.04541 44.0
387.076752 140.0
387.142883 784.0
387.198151 176.0
387.303894 148.0
387.950439 112.0
388.149445 316.0
388.315094 56.0
389.129822 1100.0
389.187622 136.0
389.402252 36.0
389.516144 68.0
389.563293 80.0
389.956207 88.0
389.995514 156.0
390.023041 84.0
390.091583 252.0
390.133698 664.0
390.207794 172.0
390.549896 188.0
390.663971 156.0
390.789856 44.0
391.019531 120.0
391.053528 76.0
391.110687 492.0
391.155853 268.0
391.242462 68.0
391.344818 124.0
391.510193 156.0
391.616547 40.0
391.698975 116.0
391.714172 56.0
391.728638 104.0
392.064026 144.0
392.116028 2084.0
392.24823 100.0
392.381012 52.0
392.463806 316.0
392.53476 132.0
392.696472 72.0
392.767456 156.0
393.023895 200.0
393.119415 640.0
393.169891 124.0
393.217255 136.0
393.710724 68.0
393.769958 88.0
393.799957 148.0
394.134735 280.0
394.170288 60.0
394.259857 56.0
394.785614 176.0
394.854736 128.0
394.983368 48.0
395.171875 336.0
395.747162 100.0
395.941193 52.0
396.115448 84.0
396.285797 112.0
396.45224 128.0
396.66626 144.0
396.785187 104.0
396.831024 204.0
396.876373 344.0
397.106354 120.0
397.249146 140.0
397.296753 124.0
397.459442 116.0
397.570526 192.0
398.15274 92.0
398.181915 168.0
398.718231 164.0
398.78183 208.0
399.052155 72.0
399.135651 48.0
399.344849 92.0
399.433899 188.0
399.975067 136.0
400.030792 216.0
400.06662 124.0
400.237823 152.0
400.329407 124.0
400.373199 100.0
400.468781 100.0
400.524536 76.0
400.691864 100.0
400.795441 160.0
400.858337 200.0
400.986725 108.0
401.019989 128.0
401.058472 208.0
401.397339 112.0
401.469116 192.0
401.576782 136.0
401.692474 96.0
401.760284 56.0
402.051544 152.0
402.151337 124.0
402.235138 104.0
402.358887 196.0
402.534576 164.0
402.698303 52.0
402.798157 124.0
402.96994 112.0
403.133759 120.0
403.537476 52.0
403.613434 144.0
403.641418 220.0
403.909393 120.0
404.025391 120.0
404.057404 148.0
404.152954 436.0
404.15802 400.0
404.297455 32.0
404.525604 84.0
404.619934 112.0
404.661713 104.0
404.757812 44.0
404.954041 76.0
405.01413 72.0
405.143188 388.0
405.22644 152.0
405.324982 128.0
405.407959 120.0
405.618073 140.0
405.659241 64.0
405.763489 96.0
405.847687 144.0
405.952911 132.0
405.984009 180.0
406.090637 136.0
406.140259 604.0
406.213959 228.0
406.427795 180.0
406.436951 48.0
406.450623 120.0
406.498352 408.0
406.57373 292.0
406.616364 140.0
406.675873 140.0
406.710175 124.0
406.754333 136.0
406.797394 264.0
406.879608 116.0
406.943176 300.0
406.993378 300.0
407.040833 156.0
407.079498 328.0
407.141144 40752.0
407.22168 244.0
407.260681 160.0
407.302429 104.0
407.329376 120.0
407.384766 184.0
407.467621 128.0
407.479492 132.0
407.497131 124.0
407.566528 100.0
407.637909 52.0
407.682953 76.0
407.719055 140.0
407.805389 80.0
407.855927 140.0
407.9487 120.0
407.967072 40.0
407.978485 156.0
408.011688 204.0
408.051056 136.0
408.144318 10916.0
408.263306 220.0
408.326935 48.0
408.369568 76.0
408.4646 124.0
408.503174 92.0
408.549988 120.0
408.591064 60.0
408.717865 88.0
408.789856 76.0
408.852966 180.0
408.963135 68.0
409.142487 1496.0
409.327362 76.0
409.491791 48.0
409.548859 56.0
409.637482 204.0
409.71402 48.0
409.750275 44.0
409.822784 44.0
409.891296 52.0
410.00412 68.0
410.057922 68.0
410.088745 56.0
410.155151 224.0
410.208374 124.0
410.237885 108.0
410.299255 108.0
410.338684 40.0
410.374969 172.0
410.419312 28.0
410.44754 132.0
410.475769 76.0
410.552368 108.0
410.588684 48.0
410.638702 208.0
410.699707 152.0
410.712891 80.0
410.729706 136.0
410.800262 104.0
410.872803 128.0
411.173645 108.0
411.291016 100.0
411.353271 96.0
411.42392 104.0
411.508698 48.0
411.694427 128.0
411.843872 116.0
411.948883 40.0
412.017548 84.0
412.048889 116.0
412.162994 64.0
412.332733 132.0
412.490356 48.0
412.680359 52.0
413.007935 44.0
413.125244 128.0
413.157593 60.0
413.299194 116.0
413.408447 52.0
413.546051 220.0
413.825378 180.0
414.080475 36.0
414.149323 144.0
414.315521 132.0
414.623352 160.0
414.696289 108.0
414.757111 60.0
414.907074 72.0
415.151581 228.0
415.353149 88.0
415.438324 80.0
415.535706 72.0
415.584381 140.0
415.65741 64.0
415.697998 76.0
416.087646 72.0
416.139069 156.0
416.36377 140.0
416.453125 32.0
416.709015 92.0
416.80249 124.0
416.887817 276.0
416.920319 148.0
417.054443 124.0
417.117676 108.0
417.124817 236.0
417.379669 92.0
417.460999 120.0
417.522003 120.0
417.981659 148.0
418.050842 64.0
418.368317 156.0
418.441589 144.0
418.490448 48.0
418.584106 52.0
418.881409 60.0
419.170258 136.0
419.394806 92.0
419.561951 76.0
419.647552 56.0
419.712799 156.0
419.773956 76.0
420.10022 32.0
420.194061 148.0
420.222626 92.0
420.434814 80.0
420.655212 132.0
420.712341 60.0
420.740936 36.0
421.284058 100.0
421.598694 36.0
421.784088 144.0
421.961639 80.0
422.044312 184.0
422.152283 5028.0
422.208862 232.0
422.237427 164.0
422.277313 60.0
422.542267 88.0
422.614532 148.0
422.731415 40.0
422.79895 112.0
422.866486 148.0
422.952545 132.0
423.154083 1508.0
423.349548 140.0
423.439667 128.0
423.607574 100.0
423.748749 104.0
424.074707 220.0
424.158539 244.0
424.232605 140.0
424.481659 108.0
424.628174 44.0
424.656891 84.0
425.042511 52.0
425.122162 136.0
425.370819 88.0
425.436523 136.0
425.559662 108.0
425.719818 44.0
425.879974 72.0
425.925171 64.0
425.980011 80.0
426.167542 160.0
426.245605 112.0
426.282593 116.0
426.393555 40.0
426.574402 100.0
426.837524 172.0
427.125397 140.0
427.24881 44.0
427.277618 108.0
427.339325 52.0
427.85788 96.0
428.012054 108.0
428.228485 60.0
428.361481 152.0
428.504456 124.0
428.656921 188.0
428.879456 60.0
429.266998 44.0
429.361847 96.0
429.716583 96.0
429.778473 180.0
429.877502 148.0
429.951782 92.0
430.178802 224.0
430.521484 120.0
430.674286 104.0
430.773407 168.0
430.880829 92.0
430.93042 104.0
430.95932 64.0
431.046112 40.0
431.147369 272.0
431.260986 148.0
431.699219 84.0
431.794342 128.0
432.038391 72.0
432.140442 584.0
432.323883 60.0
432.620544 100.0
432.659119 40.0
432.799896 124.0
432.928253 68.0
433.04007 44.0
433.147858 412.0
433.174438 92.0
433.195404 224.0
433.487488 68.0
433.553802 104.0
433.607666 192.0
433.736176 56.0
433.810791 64.0
433.939301 104.0
434.176147 228.0
434.295929 96.0
434.507477 168.0
434.53653 64.0
435.055267 168.0
435.149597 184.0
435.156616 128.0
435.177063 272.0
435.420654 156.0
435.482117 156.0
435.740509 144.0
435.794525 28.0
435.877625 68.0
436.052155 136.0
436.276611 88.0
436.559326 64.0
436.775604 80.0
436.875427 128.0
436.908722 208.0
436.991943 84.0
437.062225 112.0
437.19165 112.0
437.312347 136.0
437.391418 72.0
437.61795 152.0
437.703674 124.0
438.045166 116.0
438.13681 64.0
438.170166 32.0
438.207642 100.0
438.25827 112.0
438.420166 172.0
438.595184 68.0
438.753601 88.0
438.832825 60.0
438.86618 120.0
438.912048 80.0
439.445923 52.0
439.658722 132.0
439.817322 60.0
439.925842 156.0
440.101196 80.0
440.543884 156.0
440.581482 108.0
440.744415 68.0
440.857239 80.0
441.00769 176.0
441.199982 48.0
441.296143 172.0
441.73526 104.0
442.145294 164.0
442.463409 136.0
442.79837 44.0
443.083221 124.0
443.246613 68.0
444.013763 144.0
444.047302 184.0
444.177338 160.0
444.219269 44.0
444.252838 140.0
444.298981 116.0
444.345123 148.0
444.387085 148.0
444.747986 48.0
444.806732 192.0
444.978851 132.0
445.197205 184.0
445.407196 60.0
445.503815 124.0
445.642456 68.0
446.100525 124.0
446.158356 164.0
446.272888 72.0
446.354706 52.0
446.769165 56.0
446.81543 176.0
446.882751 64.0
446.9711 120.0
447.17218 276.0
447.236237 48.0
447.387787 52.0
447.644623 48.0
447.690918 52.0
447.773621 168.0
447.835114 152.0
448.004852 60.0
448.185883 44.0
448.326538 136.0
448.573273 124.0
448.611145 88.0
448.686279 156.0
448.723267 108.0
448.760193 164.0
448.81601 168.0
448.853973 204.0
448.972046 84.0
449.055176 160.0
449.1987 1364.0
449.279938 72.0
449.309479 48.0
449.364319 128.0
449.419739 60.0
449.470978 188.0
449.521332 124.0
449.586639 108.0
449.648804 144.0
449.713348 248.0
449.80191 52.0
449.825806 112.0
449.894226 180.0
449.959259 196.0
449.990204 348.0
450.034424 224.0
450.078339 328.0
450.147644 86124.0
450.291809 100.0
450.380035 120.0
450.386932 116.0
450.428467 156.0
450.536469 112.0
450.568878 100.0
450.647217 212.0
450.655121 168.0
450.713165 60.0
450.726685 104.0
450.781281 116.0
450.842865 316.0
450.884796 140.0
450.967957 152.0
450.996155 276.0
451.027374 244.0
451.149994 24372.0
451.269684 200.0
451.31369 212.0
451.343872 136.0
451.393982 92.0
451.422729 84.0
451.514954 124.0
451.580231 56.0
451.622681 240.0
451.685669 236.0
451.76651 52.0
451.810303 76.0
451.85318 40.0
451.911987 132.0
451.949219 100.0
451.996613 124.0
452.043152 60.0
452.076813 92.0
452.152985 3920.0
452.252045 104.0
452.32724 100.0
452.417023 120.0
452.462189 36.0
452.529572 48.0
452.574066 140.0
452.655396 132.0
452.704224 24.0
452.74588 28.0
452.800934 68.0
452.833252 120.0
452.887085 128.0
452.966949 80.0
453.023102 52.0
453.063538 84.0
453.101654 32.0
453.15448 648.0
453.262665 28.0
453.29657 52.0
453.36438 60.0
453.428986 92.0
453.513519 252.0
453.558258 64.0
453.619537 192.0
453.730377 124.0
453.844696 96.0
453.88266 180.0
453.916901 140.0
453.96991 128.0
453.984222 108.0
454.001373 76.0
454.014709 128.0
454.033295 76.0
454.04718 104.0
454.085632 88.0
454.149872 96.0
454.195343 68.0
454.266693 68.0
454.360779 80.0
454.402222 80.0
454.522003 36.0
454.555969 56.0
454.662048 96.0
454.766846 92.0
454.779755 76.0
454.81897 84.0
454.886993 176.0
454.919342 92.0
454.984619 96.0
455.018433 196.0
455.099548 196.0
455.13324 124.0
455.186157 172.0
455.230896 40.0
455.455994 88.0
455.494202 80.0
455.587677 136.0
455.65564 92.0
455.753357 112.0
455.855347 52.0
455.889343 44.0
455.948578 72.0
456.008331 84.0
456.038086 48.0
456.305878 68.0
456.395172 44.0
456.461548 92.0
456.765167 52.0
456.888519 36.0
457.118286 52.0
457.152313 40.0
457.216156 36.0
457.424713 48.0
457.582214 52.0
457.790863 60.0
457.94455 44.0
457.99527 60.0
458.159393 152.0
458.24234 152.0
458.721222 140.0
458.77417 76.0
459.184601 172.0
459.278229 68.0
460.046295 180.0
460.131683 72.0
460.434845 56.0
460.520264 136.0
460.597168 72.0
460.639862 92.0
460.917572 72.0
460.994476 48.0
461.079956 136.0
461.233826 160.0
461.644257 60.0
461.935089 80.0
462.048828 88.0
462.238831 136.0
462.414307 64.0
462.46994 52.0
463.022247 148.0
463.193542 180.0
463.330627 88.0
463.523438 80.0
463.579132 128.0
463.634857 124.0
463.878143 100.0
464.169098 156.0
464.247894 72.0
464.290771 52.0
464.342224 32.0
464.402283 36.0
464.496643 88.0
464.801239 76.0
464.872192 164.0
464.938568 124.0
465.00293 88.0
465.110229 52.0
465.161743 136.0
465.204651 100.0
465.281952 92.0
465.904633 144.0
466.269867 108.0
467.202911 144.0
467.310486 136.0
467.469696 100.0
468.147675 136.0
468.421173 164.0
468.524567 64.0
468.998566 52.0
469.071838 120.0
469.153748 116.0
469.203369 172.0
469.283081 104.0
469.571991 48.0
469.931793 136.0
470.059448 108.0
470.383148 64.0
470.452209 124.0
470.884003 116.0
470.927185 64.0
471.134521 144.0
471.18277 120.0
471.281433 76.0
471.54071 80.0
471.847595 60.0
471.908112 52.0
472.198853 252.0
472.280029 96.0
472.466034 76.0
472.617462 36.0
473.204712 120.0
473.435577 88.0
473.608795 36.0
473.76474 116.0
474.146057 92.0
474.375305 188.0
474.47113 172.0
474.575195 36.0
474.674927 48.0
474.726959 84.0
474.870056 88.0
475.171082 384.0
475.224152 140.0
475.460083 76.0
475.51651 100.0
475.603302 36.0
475.902863 48.0
476.011414 124.0
476.15094 120.0
476.193787 312.0
476.228546 80.0
476.302368 124.0
476.332794 44.0
476.450073 68.0
476.549988 96.0
476.941101 128.0
477.106293 180.0
477.187256 96.0
477.341064 52.0
477.571564 140.0
477.880432 76.0
478.200043 144.0
478.23291 124.0
478.589874 92.0
478.620361 64.0
479.247559 80.0
479.295502 112.0
479.984192 80.0
480.71701 60.0
481.210236 40.0
481.598877 88.0
481.760498 72.0
482.110046 48.0
482.411621 64.0
482.700165 68.0
482.969604 196.0
483.400055 108.0
483.535706 52.0
484.082947 88.0
484.249359 136.0
484.385132 100.0
484.656738 128.0
485.616791 48.0
486.002808 200.0
486.367065 180.0
486.446075 212.0
486.52948 116.0
486.836823 124.0
486.889526 92.0
487.179413 148.0
487.271667 152.0
487.368317 44.0
487.495758 100.0
487.755066 60.0
488.080383 52.0
488.60376 92.0
488.845764 164.0
489.193451 104.0
489.259491 224.0
489.352966 52.0
489.669006 140.0
489.753418 48.0
490.338654 92.0
490.422394 68.0
490.651611 92.0
490.708435 108.0
491.059265 124.0
491.165741 224.0
491.269012 160.0
491.383698 72.0
491.467529 244.0
491.601013 112.0
491.639618 116.0
491.811737 104.0
491.959625 64.0
492.120758 96.0
492.182587 88.0
492.228638 252.0
492.266479 108.0
492.385712 156.0
492.421051 96.0
492.451294 188.0
492.518219 92.0
492.617584 64.0
492.680237 212.0
492.765594 144.0
492.832764 124.0
492.884888 84.0
492.949493 160.0
493.041962 204.0
493.099365 220.0
493.189209 48632.0
493.303192 68.0
493.339905 48.0
493.375458 32.0
493.429077 156.0
493.485565 200.0
493.561005 76.0
493.59201 332.0
493.672058 52.0
493.714569 108.0
493.815826 184.0
493.861237 124.0
493.907532 136.0
493.990295 112.0
494.048767 96.0
494.192749 16692.0
494.293915 80.0
494.330811 80.0
494.373962 248.0
494.44339 124.0
494.546234 220.0
494.646393 120.0
494.697479 156.0
494.783325 112.0
494.830994 196.0
494.869934 80.0
494.94812 88.0
494.990387 68.0
495.041534 116.0
495.085938 188.0
495.200226 5460.0
495.272736 132.0
495.337708 160.0
495.411133 36.0
495.45282 52.0
495.490173 76.0
495.535187 60.0
495.570618 48.0
495.676971 172.0
495.70639 112.0
495.715851 72.0
495.844543 152.0
495.957336 76.0
495.988831 136.0
496.031494 32.0
496.072571 76.0
496.131653 108.0
496.201752 2336.0
496.332977 48.0
496.380035 72.0
496.430542 44.0
496.470428 128.0
496.541382 44.0
496.590179 64.0
496.638489 112.0
496.67807 104.0
496.752167 92.0
496.826569 68.0
496.859772 72.0
496.891815 144.0
496.98056 148.0
497.030243 116.0
497.095917 96.0
497.134521 132.0
497.21701 892.0
497.324219 144.0
497.381073 64.0
497.420349 124.0
497.504242 92.0
497.615234 68.0
497.686279 68.0
497.737793 60.0
497.815033 104.0
497.863892 96.0
498.010162 124.0
498.068176 120.0
498.103729 124.0
498.151489 196.0
498.294739 56.0
498.335052 56.0
498.396942 36.0
498.42804 108.0
498.490234 48.0
498.645782 124.0
498.788025 84.0
498.845795 92.0
498.894714 144.0
499.191742 84.0
499.272644 152.0
499.503906 56.0
499.775299 80.0
499.938446 88.0
500.051178 76.0
500.140198 144.0
500.282654 40.0
500.353882 168.0
500.460724 40.0
500.812531 44.0
501.164459 80.0
501.258026 104.0
501.51651 96.0
501.650238 116.0
501.815186 52.0
501.913269 48.0
502.154083 64.0
502.265594 108.0
502.408325 60.0
505.347992 44.0
505.979034 64.0
506.131256 116.0
507.59201 64.0
508.193054 64.0
508.35907 72.0
508.412933 100.0
508.525116 68.0
508.758514 68.0
508.992004 72.0
509.409668 64.0
509.625305 60.0
510.348938 92.0
510.573761 48.0
510.632233 88.0
510.785156 152.0
510.98761 92.0
511.257568 44.0
511.325073 52.0
511.811249 128.0
512.013855 52.0
512.527405 128.0
513.00061 60.0
513.866516 60.0
514.065063 96.0
514.913757 88.0
515.013123 132.0
515.708923 84.0
515.903259 68.0
516.1474 40.0
516.409729 96.0
516.771606 52.0
517.794617 96.0
518.075439 72.0
518.659973 112.0
519.24939 88.0
520.248596 124.0
520.669922 96.0
522.574463 76.0
525.171021 168.0
526.444336 44.0
527.810608 124.0
529.957275 44.0
530.424744 212.0
531.589661 68.0
532.158813 148.0
532.190918 184.0
533.164734 44.0
534.144043 36.0
534.249878 92.0
534.640991 132.0
535.207153 140.0
535.575562 84.0
535.888794 52.0
536.176941 184.0
536.220581 88.0
536.257446 148.0
537.184265 168.0
537.830261 72.0
538.541321 80.0
539.844543 100.0
540.154419 148.0
540.237732 104.0
540.519897 80.0
541.73291 180.0
541.987732 60.0
542.39093 104.0
543.258057 136.0
544.754517 96.0
545.2453 164.0
546.556641 56.0
546.891724 108.0
547.30603 124.0
547.67395 112.0
549.804565 124.0
550.276001 76.0
550.50946 40.0
550.934509 36.0
551.579346 112.0
551.630798 116.0
553.252441 96.0
553.684814 56.0
555.714478 116.0
555.967834 160.0
556.052307 72.0
556.474792 76.0
557.371887 52.0
557.818359 60.0
558.838867 76.0
561.523926 40.0
562.019226 112.0
562.242249 532.0
563.189941 120.0
563.23877 244.0
563.345825 92.0
563.49231 72.0
564.253174 144.0
565.218079 48.0
566.155334 36.0
566.259521 56.0
567.210205 160.0
567.60376 48.0
567.875671 40.0
568.710693 128.0
568.86731 60.0
569.204407 96.0
569.600342 100.0
569.921631 84.0
569.978699 144.0
570.211548 196.0
570.354126 88.0
570.786743 136.0
570.867554 128.0
570.9151 84.0
572.542664 108.0
573.257202 100.0
573.385864 64.0
573.462158 76.0
575.059875 64.0
575.260376 64.0
575.351074 72.0
575.950378 104.0
576.473511 76.0
577.1427 40.0
577.180969 56.0
577.393555 148.0
577.472656 136.0
577.764465 76.0
577.831421 76.0
577.927124 32.0
577.974976 128.0
578.156799 64.0
578.218994 132.0
578.386536 108.0
578.496643 128.0
578.705872 136.0
578.913147 56.0
578.994568 100.0
579.315063 48.0
579.382568 156.0
579.511902 144.0
579.569397 108.0
579.626892 360.0
579.679626 104.0
580.034241 176.0
580.123169 44.0
580.257446 12380.0
580.362976 156.0
580.417786 132.0
580.459167 120.0
580.649414 156.0
580.830994 176.0
580.938843 124.0
580.988525 144.0
581.081909 52.0
581.139221 216.0
581.263062 5704.0
581.381958 64.0
581.426086 72.0
581.545105 68.0
581.578735 68.0
581.660339 32.0
581.761108 36.0
581.83313 48.0
581.962769 136.0
582.029968 28.0
582.092407 116.0
582.145203 84.0
582.259277 880.0
582.351746 64.0
582.428589 72.0
582.466187 84.0
582.691162 116.0
582.841736 32.0
582.942627 36.0
583.20697 72.0
583.27063 256.0
583.346375 48.0
583.423279 48.0
583.750244 68.0
583.830322 116.0
584.077271 64.0
584.134949 56.0
584.240784 128.0
584.35144 44.0
584.539124 76.0
584.774902 136.0
584.842285 76.0
585.097412 84.0
585.328552 128.0
585.391113 84.0
585.458557 176.0
585.670471 96.0
585.742676 92.0
586.311218 84.0
586.957153 116.0
587.072937 52.0
587.150085 124.0
587.183838 52.0
587.600769 100.0
588.689514 48.0
590.337341 168.0
591.324219 48.0
591.919678 96.0
593.300476 84.0
594.095825 60.0
594.202515 80.0
596.164185 68.0
596.411987 84.0
596.937073 40.0
597.880798 128.0
598.387024 60.0
598.839905 96.0
598.917786 44.0
599.081238 108.0
599.336792 72.0
599.458618 32.0
599.546326 104.0
600.12146 92.0
600.311646 84.0
600.550598 84.0
601.043335 56.0
601.218994 84.0
601.66803 96.0
602.351746 92.0
602.620422 92.0
602.713257 152.0
602.810974 40.0
603.045532 52.0
603.338806 32.0
603.637085 56.0
603.871826 40.0
604.033203 84.0
604.816101 64.0
605.080444 92.0
605.330139 92.0
605.726868 104.0
606.251099 92.0
606.422607 60.0
606.550049 104.0
606.809875 124.0
607.972351 64.0
608.207947 92.0
610.212219 80.0
610.856445 100.0
611.245117 112.0
612.155762 48.0
612.229614 56.0
613.283936 44.0
613.55011 128.0
613.94458 108.0
614.649963 80.0
614.895386 76.0
616.289246 48.0
616.877319 80.0
617.802063 80.0
619.871582 60.0
621.076294 44.0
622.282166 76.0
623.275513 92.0
626.539307 48.0
626.957825 68.0
627.536072 56.0
627.705566 108.0
628.588501 64.0
630.021423 116.0
630.685974 48.0
633.33783 108.0
633.438049 104.0
633.571228 88.0
633.748657 56.0
633.959106 44.0
636.411926 44.0
636.637878 84.0
637.321045 72.0
640.228455 64.0
640.419861 88.0
640.933655 48.0
642.128418 40.0
642.713562 76.0
645.425964 100.0
648.980347 40.0
649.507751 144.0
653.037781 112.0
653.536316 56.0
653.704224 44.0
657.44458 96.0
658.2052 28.0
658.715881 52.0
658.955994 44.0
659.594788 64.0
660.285034 76.0
660.868164 64.0
661.748474 36.0
667.320312 140.0
668.662842 60.0
669.769836 92.0
670.918945 36.0
671.135498 216.0
671.620239 48.0
671.811096 108.0
671.857483 72.0
672.703796 92.0
673.122009 88.0
673.958801 116.0
676.91748 44.0
677.440552 76.0
677.715149 72.0
678.684387 84.0
679.586853 60.0
680.297852 92.0
680.733948 96.0
681.274109 60.0
682.074341 84.0
685.649963 84.0
685.952271 144.0
686.176453 84.0
686.692688 72.0
687.913635 72.0
692.740173 48.0
693.908813 64.0
696.842651 80.0
697.037048 52.0
698.561707 72.0
698.997986 56.0
700.235474 72.0
700.946655 84.0
701.911255 116.0
702.507202 92.0
704.618896 96.0
705.073303 64.0
705.575439 120.0
706.606689 52.0
707.289368 56.0
707.427002 104.0
707.702271 64.0
709.05304 120.0
711.254089 64.0
711.572632 124.0
712.332031 104.0
715.623901 84.0
715.991272 144.0
717.195374 76.0
717.771118 84.0
717.984436 72.0
723.391479 156.0
724.007202 64.0
724.162537 200.0
729.238037 160.0
729.782349 76.0
730.049805 44.0
732.94043 36.0
733.81897 164.0
734.417542 44.0
736.592773 112.0
737.451843 88.0
739.431335 100.0
740.974548 56.0
742.324158 120.0
742.638733 100.0
747.022095 40.0
747.713135 52.0
747.8927 124.0
747.930847 28.0
752.613708 124.0
753.039612 128.0
753.225342 40.0
754.744568 60.0
755.740051 76.0
756.221619 28.0
756.369385 96.0
758.406982 100.0
758.450806 120.0
759.755859 84.0
763.388672 48.0
766.094238 92.0
766.380737 64.0
766.568115 72.0
766.832581 36.0
767.984924 68.0
768.801453 56.0
770.485474 56.0
773.868225 112.0
775.171814 80.0
775.593018 48.0
779.061096 36.0
780.717407 92.0
780.823059 68.0
784.893738 44.0
790.68103 36.0
792.853882 56.0
793.560181 76.0
794.120911 100.0
797.697632 80.0
801.366821 92.0
807.729004 96.0
807.785583 76.0
807.842163 116.0
808.079773 68.0
814.332214 116.0
817.515808 72.0
817.931274 48.0
818.517639 80.0
818.642944 88.0
821.332947 128.0
822.108887 72.0
822.511414 104.0
825.096069 76.0
828.724609 84.0
829.899536 84.0
831.557373 156.0
832.447205 88.0
833.986816 40.0
834.096008 32.0
845.145569 168.0
845.336487 80.0
850.633728 64.0
850.81366 104.0
852.213318 44.0
852.410889 92.0
852.880615 116.0
857.543701 76.0
857.736023 68.0
860.14502 32.0
864.218262 64.0
868.283569 64.0
868.436035 52.0
868.887695 140.0
869.298401 44.0
869.56488 88.0
870.037964 92.0
872.699341 72.0
873.457947 64.0
876.000854 76.0
878.364563 80.0
880.979553 108.0
883.154846 92.0
883.864685 192.0
885.930969 80.0
887.246521 84.0
889.619446 92.0
891.751831 52.0
893.619019 72.0
894.499756 116.0
898.820496 68.0
899.202454 184.0
901.178955 64.0
901.55542 72.0
902.194946 56.0
907.067627 92.0
912.144104 132.0
914.629944 92.0
914.684143 180.0
915.888367 40.0
916.213684 180.0
918.498291 120.0
919.01709 48.0
920.272522 60.0
920.556274 96.0
921.111938 44.0
923.934937 60.0
924.600525 56.0
926.556274 188.0
930.389038 104.0
932.539307 48.0
934.978088 236.0
935.501526 100.0
937.810059 48.0
940.779114 268.0
941.70874 36.0
942.704529 80.0
946.392883 124.0
950.438171 140.0
951.346497 44.0
951.831543 48.0
956.860901 60.0
961.156738 84.0
961.199951 40.0
961.545532 64.0
962.909912 164.0
965.394226 160.0
965.839539 76.0
968.030334 84.0
968.903687 164.0
972.394653 144.0
976.905579 64.0
977.888733 148.0
978.996826 152.0
979.096497 52.0
979.80658 52.0
980.473267 116.0
980.872131 200.0
982.711853 84.0
983.641663 28.0
983.828918 168.0
986.346313 212.0
986.434387 224.0
989.398987 168.0
989.931152 104.0
994.275452 308.0
995.744507 116.0
996.454346 144.0
997.478638 108.0
1000.80658 220.0
1001.266235 212.0
1002.047302 72.0
1004.871765 60.0
1005.117859 44.0
1005.363953 160.0
1005.654236 180.0
1007.466492 156.0
1009.798889 44.0
1012.026306 168.0
1014.26886 56.0
1016.057129 76.0
1016.564697 220.0
1017.523132 140.0
1018.1073 28.0
1018.837708 40.0
1021.176819 208.0
1023.843445 132.0
1023.919861 120.0
1024.556763 140.0
1025.678345 172.0
1028.069946 168.0
1030.113037 80.0
1030.841431 208.0
1032.324341 152.0
1035.191162 56.0
1036.113525 136.0
1038.940674 76.0
1039.267822 44.0
1042.716064 164.0
1044.175537 64.0
1044.619263 152.0
1047.419312 160.0
1048.044189 228.0
1049.14624 44.0
1049.384888 80.0
1049.481567 92.0
1050.003906 176.0
1050.287598 64.0
1052.875732 108.0
1054.54895 108.0
1057.394653 68.0
1057.76355 128.0
1061.242432 64.0
1063.045532 44.0
1066.065186 68.0
1066.318604 108.0
1066.871094 196.0
1070.618774 68.0
1071.289673 48.0
1073.042725 92.0
1074.640625 204.0
1077.180054 80.0
1077.480591 80.0
1077.911743 204.0
1078.604492 112.0
1079.572144 144.0
1079.944946 128.0
1082.713257 76.0
1083.722046 160.0
1084.685425 52.0
1086.475586 180.0
1087.039795 200.0
1089.317993 80.0
1090.241333 128.0
1091.368408 72.0
1092.19043 136.0
1092.73645 60.0
1095.514526 196.0
1095.857178 132.0
1097.702637 100.0
1098.790894 104.0
1100.24939 180.0
1101.220093 196.0
1104.425659 156.0
1104.796021 76.0
1106.437256 136.0
1106.880859 84.0
1107.099365 232.0
1107.827881 144.0
1107.967041 56.0
1109.703369 204.0
1110.979614 208.0
1111.95874 192.0
1114.229614 76.0
1115.498901 160.0
1115.56543 164.0
1116.55603 132.0
1116.615967 36.0
1116.875244 56.0
1117.573853 160.0
1122.349365 72.0
1123.389771 208.0
1124.490723 184.0
1124.884521 92.0
1125.54541 192.0
1125.845947 80.0
1127.609619 112.0
1128.28479 172.0
1128.93335 224.0
1129.996826 136.0
1130.250244 180.0
1130.411621 76.0
1130.54541 76.0
1132.044922 236.0
1132.547241 172.0
1132.714722 92.0
1132.835205 148.0
1133.411377 208.0
1134.048096 220.0
1134.182129 140.0
1134.336304 176.0
1134.671509 188.0
1135.046875 80.0
1135.523071 36.0
1136.101685 176.0
1137.012451 168.0
1137.307739 132.0
1137.576172 84.0
1138.415405 176.0
1138.57666 60.0
1138.630371 152.0
1139.389282 140.0
1142.374146 108.0
1143.416992 156.0
1143.679443 124.0
1145.982544 148.0
1146.245361 136.0
1149.117554 144.0
1149.610107 156.0
1153.669312 36.0
1153.838379 200.0
1155.921509 120.0
1156.726929 144.0
1158.311401 216.0
1158.995605 192.0
1159.591919 116.0
1159.761353 108.0
1161.870239 128.0
1162.365479 172.0
1163.865601 160.0
1163.974243 32.0
1164.425781 64.0
1164.877441 188.0
1166.141235 56.0
1167.133789 208.0
1167.337769 144.0
1167.528198 100.0
1171.496216 128.0
1172.572754 56.0
1172.770386 184.0
1172.852173 48.0
1172.968018 152.0
1173.288452 56.0
1173.963501 52.0
1174.925171 96.0
1177.020508 152.0
1177.409668 160.0
1177.826294 112.0
1179.643921 200.0
1180.006226 120.0
1180.177124 236.0
1180.669434 192.0
1182.263428 108.0
1183.036865 168.0
1184.235107 128.0
1184.796753 140.0
1185.605225 152.0
1186.153564 176.0
1187.182007 212.0
1188.231445 212.0
1188.890137 96.0
1191.581665 144.0
1192.172607 128.0
1192.316895 88.0
1192.743042 136.0
1193.017944 140.0
1193.169189 104.0
1193.306763 148.0
1193.980591 136.0
1194.290039 196.0
1195.404541 80.0
1196.113403 128.0
1196.258057 220.0
1196.712402 120.0
1196.774292 152.0
1196.884521 160.0
1199.536865 60.0
1200.605469 92.0
1201.605713 176.0
1202.765015 136.0
1203.572754 92.0
1203.772949 152.0
1204.256348 144.0
1204.339233 136.0
1205.016235 236.0
1205.720947 140.0
1207.428589 120.0
1207.829712 100.0
1208.154785 108.0
1208.300171 140.0
1208.403931 184.0
1208.735962 144.0
1209.885742 156.0
1211.297607 172.0
1211.720093 168.0
1212.080444 88.0
1212.34375 116.0
1213.529053 104.0
1213.9104 208.0
1214.194702 160.0
1214.709473 112.0
1215.262939 132.0
1215.484985 164.0
1215.845825 160.0
1216.768921 104.0
1217.442505 40.0
1218.498169 68.0
1218.602417 204.0
1219.234741 128.0
1220.06189 200.0
1220.353882 112.0
1220.687622 148.0
1221.02832 176.0
1221.466553 104.0
1221.939575 88.0
1222.781494 172.0
1223.732544 160.0
1224.069458 48.0
1224.173828 180.0
1226.187134 136.0
1227.128174 136.0
1227.344238 188.0
1228.055542 184.0
1228.139282 164.0
1228.942749 136.0
1229.185669 116.0
1231.992432 108.0
1232.746948 120.0
1232.865723 168.0
1233.578613 172.0
1233.634521 112.0
1235.151978 96.0
1235.200928 52.0
1236.068359 140.0
1237.810059 156.0
1237.888306 156.0
1238.623779 144.0
1239.576538 124.0
1240.985352 48.0
1241.132568 164.0
1241.451782 164.0
1242.710693 92.0
1242.829956 160.0
1243.44751 176.0
1244.507446 152.0
1244.570679 176.0
1245.279907 120.0
1245.869873 104.0
1246.375732 76.0
1247.022217 72.0
1247.268311 132.0
1247.331543 132.0
1248.013428 148.0
1248.407227 120.0
1249.406006 204.0
1249.792969 132.0
1250.630371 88.0
1250.848511 136.0
1251.242798 128.0
1252.094727 176.0
1253.094971 128.0
1255.632568 140.0
1256.041626 176.0
1256.253296 148.0
1257.431519 48.0
1257.925659 188.0
1258.868408 96.0
1259.041138 180.0
1259.231812 216.0
1259.486084 88.0
1259.811035 96.0
1260.015869 272.0
1260.135986 240.0
1260.998047 176.0
1261.521118 52.0
1262.051392 188.0
1263.871826 104.0
1263.96106 160.0
1264.109741 32.0
1264.15918 144.0
1264.293701 72.0
1264.895264 168.0
1265.709351 180.0
1267.104736 104.0
1267.373901 136.0
1267.699829 144.0
1268.323486 240.0
1269.394043 224.0
1270.074829 204.0
1270.775635 164.0
1271.529297 172.0
1272.175171 188.0
1273.311279 108.0
1273.701904 92.0
1274.469116 172.0
1275.222412 112.0
1275.563477 124.0
1275.705688 176.0
1275.990112 156.0
1276.914429 152.0
1279.532959 152.0
1280.109741 160.0
1280.878906 160.0
1281.049805 104.0
1281.854858 48.0
1282.76709 48.0
1283.993408 128.0
1284.37146 64.0
1284.920776 72.0
1285.127686 176.0
1286.397949 152.0
1287.083252 176.0
1287.161865 100.0
1288.597412 148.0
1288.81897 192.0
1289.790894 124.0
1291.664185 184.0
1291.714355 28.0
1292.837524 192.0
1293.331421 156.0
1295.348999 144.0
1295.472412 96.0
1295.744629 116.0
1295.80188 188.0
1295.880737 96.0
1296.711914 40.0
1297.213623 168.0
1297.659058 152.0
1298.102661 164.0
1299.601807 80.0
1299.752441 140.0
1302.415771 180.0
1302.509155 112.0
1302.825317 148.0
1303.708984 48.0
1303.831177 88.0
1304.204956 132.0
1306.426758 76.0
1306.556274 156.0
1307.252686 156.0
1307.434082 100.0
1307.509766 200.0
1307.685913 148.0
1308.5354 160.0
1310.667236 168.0
1311.099609 144.0
1311.539307 132.0
1312.007812 180.0
1312.303345 88.0
1312.548584 136.0
1313.204712 84.0
1313.255249 120.0
1313.47168 68.0
1314.185791 168.0
1314.438354 204.0
1315.658081 148.0
1316.733887 256.0
1316.993896 96.0
1318.886963 140.0
1319.146484 200.0
1319.436279 136.0
1319.768921 36.0
1319.942383 176.0
1320.564331 108.0
1320.737915 120.0
1321.47583 80.0
1323.053467 128.0
1323.408203 84.0
1323.487915 216.0
1323.78479 176.0
1324.29895 64.0
1324.834961 176.0
1324.994263 120.0
1326.436401 132.0
1326.639282 128.0
1327.676147 140.0
1328.590088 172.0
1329.00354 168.0
1329.620361 164.0
1329.852661 176.0
1330.309937 200.0
1330.716431 252.0
1330.876221 124.0
1331.035889 112.0
1331.46936 204.0
1332.147095 84.0
1332.59021 216.0
1332.670166 56.0
1332.83728 60.0
1333.433105 268.0
1333.923828 164.0
1334.196289 192.0
1334.894287 224.0
1336.146851 188.0
1337.826416 72.0
1338.292358 192.0
1338.733887 88.0
1339.515747 88.0
1339.807129 192.0
1340.202759 160.0
1340.819946 92.0
1341.534302 128.0
1342.4646 172.0
1343.649048 36.0
1343.962769 88.0
1344.400635 204.0
1344.539307 112.0
1345.685303 132.0
1346.196411 184.0
1346.393555 132.0
1347.109253 128.0
1349.155396 68.0
1350.025513 200.0
1350.449707 192.0
1350.910522 192.0
1351.477661 152.0
1351.835815 124.0
1352.007935 96.0
1352.834961 156.0
1352.959473 160.0
1353.018066 152.0
1353.113159 132.0
1353.391357 112.0
1354.636353 108.0
1354.922119 208.0
1355.024658 136.0
1355.530273 148.0
1355.940552 140.0
1356.219116 152.0
1356.431641 184.0
1356.974121 96.0
1357.20874 160.0
1357.634033 92.0
1361.295776 72.0
1362.875 76.0
1362.977905 56.0
1363.102783 104.0
1363.374756 52.0
1364.021484 152.0
1364.139038 188.0
1364.229004 172.0
1364.543457 44.0
1364.859619 132.0
1365.161011 120.0
1366.440918 160.0
1367.088379 100.0
1367.802246 264.0
1368.582642 156.0
1370.36499 112.0
1370.637573 152.0
1370.991211 120.0
1371.492432 216.0
1371.610352 44.0
1371.765137 80.0
1372.716187 176.0
1372.952148 256.0
1373.350464 180.0
1373.652832 136.0
1374.065918 104.0
1375.71167 48.0
1375.984741 60.0
1376.243164 164.0
1376.412964 100.0
1377.07605 192.0
1377.262329 228.0
1377.313965 128.0
1379.493774 212.0
1379.59729 96.0
1380.588013 116.0
1380.647217 60.0
1380.743286 204.0
1382.200562 108.0
1382.415161 160.0
1382.666748 120.0
1383.547607 96.0
1383.636475 132.0
1384.036255 156.0
1385.635986 156.0
1386.28064 180.0
1386.406616 140.0
1386.547363 212.0
1386.67334 40.0
1386.7771 56.0
1387.963257 88.0
1388.452637 60.0
1389.046021 112.0
1389.194336 176.0
1389.832397 200.0
1390.181152 144.0
1390.314697 208.0
1390.656128 108.0
1390.7229 160.0
1390.789673 180.0
1391.079102 152.0
1391.435547 196.0
1392.423096 92.0
1393.433228 196.0
1393.856812 208.0
1394.800537 212.0
1395.469604 140.0
1395.945435 52.0
1396.347046 156.0
1396.555298 72.0
1396.986694 180.0
1397.046265 156.0
1397.753052 116.0
1398.534424 84.0
1399.122437 112.0
1399.822388 208.0
1400.395752 84.0
1401.081055 200.0
1401.706909 124.0
1402.286377 220.0
1403.003662 80.0
1403.190063 176.0
1403.391357 196.0
1403.642212 68.0
1403.741821 156.0
1405.755859 252.0
1405.88269 104.0
1406.046875 100.0
1406.285767 172.0
1407.062012 108.0
1407.241211 140.0
1407.704102 112.0
1408.548096 236.0
1409.765869 236.0
1410.857056 156.0
1412.337646 100.0
1412.80896 132.0
1412.921143 84.0
1413.616943 84.0
1414.485107 104.0
1414.919312 120.0
1415.727905 92.0
1415.915161 116.0
1416.1698 204.0
1416.446899 168.0
1417.218506 80.0
1418.964844 108.0
1419.137207 44.0
1419.737061 128.0
1419.999634 56.0
1420.104248 204.0
1421.032837 108.0
1421.534058 96.0
1422.257935 156.0
1422.723267 164.0
1422.895996 96.0
1422.948486 108.0
1423.046143 136.0
1423.541748 168.0
1423.887085 56.0
1425.344238 128.0
1426.088379 136.0
1427.088257 164.0
1427.411499 56.0
1428.043213 120.0
1428.381714 200.0
1428.464478 192.0
1428.552002 112.0
1428.572266 72.0
1428.595825 136.0
1428.953369 164.0
1429.179077 192.0
1429.841309 96.0
1430.112183 116.0
1430.210083 64.0
1430.601562 148.0
1431.482422 140.0
1431.776123 208.0
1432.341553 140.0
1432.60376 236.0
1432.883301 72.0
1433.365479 112.0
1433.455933 44.0
1433.644287 52.0
1433.787476 168.0
1434.176025 116.0
1434.360352 96.0
1434.985962 120.0
1435.166992 56.0
1435.3479 124.0
1435.566528 124.0
1436.071899 152.0
1436.169922 196.0
1437.361816 40.0
1437.487305 212.0
1437.807007 60.0
1437.956543 104.0
1438.154175 136.0
1438.320312 216.0
1438.659912 112.0
1438.86377 196.0
1439.007202 156.0
1439.203491 120.0
1439.331909 164.0
1440.648315 356.0
1441.10498 216.0
1441.337769 108.0
1442.111938 192.0
1442.542725 156.0
1443.034058 160.0
1444.939941 148.0
1445.680664 160.0
1446.12793 144.0
1446.559326 180.0
1446.831909 60.0
1446.892456 212.0
1447.172607 172.0
1447.286133 72.0
1447.596558 76.0
1447.793457 212.0
1448.52063 100.0
1448.876587 148.0
1449.558472 120.0
1449.732788 212.0
1449.92981 244.0
1451.48291 168.0
1451.635498 36.0
1453.126099 172.0
1453.266235 112.0
1453.615234 168.0
1453.759399 188.0
1453.888428 100.0
1454.116089 184.0
1454.305908 200.0
1455.090942 168.0
1455.632568 204.0
1455.983643 120.0
1456.97876 128.0
1457.928467 56.0
1458.650513 140.0
1458.984985 136.0
1459.372681 52.0
1459.60083 156.0
1459.707275 52.0
1460.163574 132.0
1460.429688 56.0
1460.498169 120.0
1460.914062 136.0
1461.42627 136.0
1461.958862 160.0
1462.14917 120.0
1462.301392 56.0
1462.803711 116.0
1463.047241 124.0
1464.052368 144.0
1464.12085 216.0
1464.471191 164.0
1465.050049 84.0
1465.773804 208.0
1465.885376 184.0
1466.566406 48.0
1467.580322 128.0
1467.718994 240.0
1468.27417 52.0
1469.044556 88.0
1469.708252 152.0
1470.921631 212.0
1471.501831 132.0
1471.608765 128.0
1471.700317 92.0
1472.051636 180.0
1472.12793 144.0
1472.295898 124.0
1472.456299 72.0
1472.62439 100.0
1473.166626 248.0
1473.221069 136.0
1473.884766 220.0
1473.945923 156.0
1474.014648 56.0
1474.289795 212.0
1476.537354 156.0
1476.697998 128.0
1477.103271 120.0
1477.531738 72.0
1477.677002 124.0
1478.266235 200.0
1478.595215 204.0
1478.763672 168.0
1478.977905 112.0
1480.348267 112.0
1481.022217 148.0
1481.113037 144.0
1481.229004 244.0
1482.424194 60.0
1483.355591 144.0
1483.750244 160.0
1483.826904 132.0
1484.455566 176.0
1484.823608 144.0
1485.130493 100.0
1485.214844 176.0
1485.81311 92.0
1486.104614 176.0
1486.89502 144.0
1487.277954 152.0
1487.421753 152.0
1487.77002 184.0
1488.17688 152.0
1490.358154 104.0
1490.411987 72.0
1490.680908 208.0
1490.980591 140.0
1491.211182 100.0
1491.526245 112.0
1491.82605 152.0
1492.318115 152.0
1493.094727 232.0
1493.548462 180.0
1493.917725 84.0
1494.540894 148.0
1494.76062 124.0
1494.871704 112.0
1495.187256 168.0
1495.54895 172.0
1496.141724 124.0
1496.334106 100.0
1496.619019 44.0
1496.950073 132.0
1497.466064 104.0
1499.920044 192.0
1500.733276 68.0
1501.080322 220.0
1501.234497 152.0
1501.496704 160.0
1502.379028 132.0
1502.491699 128.0
1502.561157 140.0
1502.615234 176.0
1503.749512 124.0
