>compound Chloroxine
>formula C9H5Cl2NO
>ionization [M+H]+
>parentmass 213.980988
#inchi InChI=1S/C9H5Cl2NO/c10-6-4-7(11)9(13)8-5(6)2-1-3-12-8/h1-4,13H
#inchikey WDFKMLRRRCGAKS
#Ion_Source LC-ESI
#Instrument qTof
#Compound_Source Commercial
#PI Dorrestein
#Data_Collector Garg_Neha
#Scan -1
#Precursor_MZ 213.982
#ExactMass 212.975
#Charge 1
#CAS_Number 773-76-2
#Pubmed_ID N/A
#Smiles C1=C(C2=C(C(=C1Cl)O)N=CC=C2)Cl
#INCHI_AUX N/A
#Library_Class 1
#SpectrumID CCMSLIB00000078311
#IonMode Positive
#UpdateWorkflowName UPDATE-SINGLE-ANNOTATED-GOLD
#LibraryQualityString Gold
#TaskID 77f51c88eb8b467eb4a01dd2d0cb90d2
##Scan# 1728
#SpectrumFile Plate5_1_20_GH6_01_16508.mzXML
#LibraryName FDALibrary_2_04302014.mgf
#MQScore -1
#Organism FDALibrary_2_04302014
#TIC_Query 0
#RT_Query -1
#MZErrorPPM -1
#SharedPeaks 0
#MassDiff 0
#LibMZ -1
#SpecMZ 213.982
#SpecCharge 0
#internalFilename spec-00000.mgf

>collision 10
47.099319 204.0
47.268845 184.0
49.585854 148.0
49.681202 188.0
50.618481 164.0
50.77578 248.0
51.961163 236.0
51.995602 180.0
53.023907 208.0
53.187801 160.0
55.092991 164.0
57.519733 228.0
57.948952 156.0
59.44046 208.0
60.978615 204.0
61.26025 180.0
61.76601 184.0
62.029076 164.0
62.29427 200.0
64.791359 200.0
65.65451 196.0
67.393059 172.0
68.053123 180.0
68.223984 224.0
68.699913 192.0
68.907928 156.0
69.382912 164.0
72.172363 208.0
74.406075 192.0
74.631142 276.0
77.694984 200.0
82.980026 212.0
83.224968 140.0
83.270363 184.0
83.330307 176.0
91.969872 156.0
92.926704 200.0
93.898125 156.0
95.297691 164.0
96.842705 160.0
99.015106 200.0
99.717438 176.0
99.767128 156.0
100.013786 140.0
100.779572 168.0
101.783073 188.0
101.865417 180.0
101.915642 192.0
102.523346 176.0
103.70768 144.0
104.46711 188.0
108.156723 160.0
108.888618 192.0
110.412094 192.0
112.857719 212.0
113.607452 160.0
113.777222 156.0
114.032257 148.0
114.050987 160.0
114.564079 188.0
115.039627 444.0
115.129303 172.0
115.723457 144.0
116.044655 304.0
116.521599 184.0
117.080856 156.0
118.032509 164.0
121.989716 264.0
122.997444 348.0
123.668327 156.0
126.012169 184.0
126.972466 220.0
130.023422 216.0
131.593353 204.0
132.043518 164.0
135.05423 144.0
135.54039 164.0
136.359573 152.0
137.738922 200.0
138.021713 196.0
138.346924 164.0
140.882019 196.0
141.250793 208.0
142.661728 220.0
143.047104 212.0
143.137573 200.0
144.046234 156.0
147.250427 204.0
149.111115 148.0
149.663315 200.0
150.008194 2404.0
150.643494 208.0
150.868546 168.0
151.015289 1068.0
151.054398 144.0
151.602829 152.0
152.005783 644.0
153.011765 484.0
156.501282 164.0
157.713699 224.0
158.975952 152.0
160.190338 184.0
161.00502 188.0
161.048279 160.0
161.368896 160.0
161.667374 152.0
161.986389 164.0
162.353897 204.0
162.516235 208.0
164.76181 164.0
164.994629 1144.0
166.004471 820.0
166.483047 184.0
167.000046 172.0
167.148834 220.0
167.524734 188.0
167.998199 196.0
170.677063 196.0
172.551712 232.0
178.005997 152.0
178.455048 232.0
178.977676 208.0
179.011078 2496.0
180.01564 504.0
180.131332 156.0
180.216827 164.0
181.007095 624.0
181.834244 212.0
182.006042 228.0
183.939041 144.0
184.975784 144.0
186.97197 180.0
189.475891 188.0
190.205338 192.0
190.460709 148.0
194.034348 204.0
196.386887 160.0
197.974319 144.0
198.215225 172.0
203.49263 180.0
211.766052 184.0
211.983322 148.0
212.798386 148.0
212.968964 140.0
213.268982 144.0
213.929291 168.0
213.980988 16624.0
214.078369 156.0
214.984421 1552.0
215.130325 196.0
215.702866 152.0
215.806259 164.0
215.928009 140.0
215.978989 10600.0
216.232285 140.0
216.982071 492.0
331.83728 200.0
1258.01123 180.0
1506.828369 196.0
1562.291016 168.0
1586.432129 200.0
1652.562744 168.0
1688.272217 196.0
1703.673096 188.0
1703.804565 164.0
1709.263916 152.0
1728.920166 244.0
1729.607178 184.0
1792.698608 212.0
1845.428345 184.0
1854.845215 180.0
1879.881348 152.0
1961.70459 160.0
1966.176392 240.0
1978.74585 164.0
1988.940308 172.0
1994.127319 176.0
2000.219971 220.0
2002.472656 244.0
