>compound MLS000737174-01!
>formula C12H8N2O
>ionization [M+H]+
>parentmass 197.07196
#inchi InChI=1S/C12H8N2O/c15-11-7-3-6-10-12(11)14-9-5-2-1-4-8(9)13-10/h1-7,15H
#inchikey SVRNCBGWUMMBQB
#Ion_Source LC-ESI
#Instrument qTof
#Compound_Source NIH Natural Product Library
#PI Dorrestein
#Data_Collector VVP/LMS
#Scan -1
#Precursor_MZ 197.071
#ExactMass 196.064
#Charge 1
#CAS_Number N/A
#Pubmed_ID N/A
#Smiles Oc1cccc2nc3ccccc3nc12
#INCHI_AUX N/A
#Library_Class 1
#SpectrumID CCMSLIB00000080019
#IonMode Positive
#UpdateWorkflowName UPDATE-SINGLE-ANNOTATED-GOLD
#LibraryQualityString Gold
#TaskID b1d8e8f6646f4e71acdff9ca3d919d08
##Scan# 1848
#SpectrumFile p2-A03_GA3_01_17980.mzXML
#LibraryName NIH_Natural_Products_Library.mgf
#MQScore -1
#Organism NIH_Natural_Products_Library
#TIC_Query 0
#RT_Query -1
#MZErrorPPM -1
#SharedPeaks 0
#MassDiff 0
#LibMZ -1
#SpecMZ 197.071
#SpecCharge 0
#internalFilename spec-00000.mgf

>collision 10
94.994896 264.0
95.216171 96.0
95.237534 44.0
95.396873 160.0
95.459091 188.0
95.538841 244.0
95.593323 176.0
95.688698 184.0
95.786072 136.0
95.826981 128.0
95.889343 168.0
95.926376 52.0
95.943924 128.0
96.037521 204.0
96.135071 192.0
96.209244 156.0
96.247223 204.0
96.390892 136.0
96.418251 136.0
96.467117 136.0
96.488617 160.0
96.531639 232.0
96.584442 156.0
96.672485 140.0
96.705757 172.0
96.936852 80.0
96.950569 192.0
97.074074 124.0
97.144684 136.0
97.229057 172.0
97.26635 180.0
97.289909 188.0
97.355125 168.0
97.384163 188.0
97.509911 156.0
97.562981 120.0
97.6082 108.0
97.641632 92.0
97.814781 196.0
97.830536 144.0
97.968384 144.0
97.986115 160.0
98.013817 340.0
98.053116 184.0
98.179291 144.0
98.422012 160.0
98.449661 140.0
98.566216 212.0
98.801498 180.0
98.852943 104.0
98.926178 200.0
98.955872 168.0
99.019783 160.0
99.104424 124.0
99.134148 176.0
99.169861 184.0
99.298698 168.0
99.37011 208.0
99.472008 160.0
99.495148 152.0
99.513016 196.0
99.594559 200.0
99.683838 176.0
99.719612 212.0
99.751419 132.0
99.781235 120.0
99.799133 132.0
99.930405 136.0
99.948311 80.0
100.360634 184.0
100.398521 96.0
100.5065 152.0
100.520004 192.0
100.606033 152.0
100.677917 96.0
100.777794 132.0
100.819756 164.0
100.86573 172.0
100.934875 192.0
100.963699 184.0
100.993706 104.0
101.023705 220.0
101.037598 212.0
101.354057 192.0
101.478333 160.0
101.570587 144.0
101.6689 208.0
101.739151 188.0
101.787338 92.0
101.827507 180.0
101.950058 140.0
102.034775 1628.0
102.064636 84.0
102.110893 44.0
102.219528 72.0
102.260681 172.0
102.390648 132.0
102.501442 92.0
102.578033 260.0
102.60424 104.0
102.68692 140.0
102.723221 68.0
102.759537 204.0
102.793839 240.0
102.890724 68.0
102.925049 176.0
102.959381 148.0
103.037811 376.0
103.191765 204.0
103.329292 144.0
103.392021 168.0
103.519562 104.0
103.65731 148.0
103.78907 144.0
104.010208 136.0
104.050743 200.0
104.154381 188.0
104.481667 96.0
104.532539 156.0
104.55085 80.0
104.601738 172.0
104.780952 164.0
104.890633 180.0
104.954193 88.0
105.041893 156.0
105.123505 172.0
105.196983 188.0
105.219444 220.0
105.415527 120.0
105.450272 164.0
105.585213 156.0
105.656799 232.0
105.7714 328.0
105.892204 124.0
105.955711 200.0
105.979256 160.0
106.029236 204.0
106.131973 128.0
106.431557 48.0
106.491112 192.0
106.723328 220.0
107.000725 180.0
107.122597 164.0
107.413254 200.0
107.435951 68.0
107.615509 240.0
107.766281 160.0
107.799347 160.0
107.832413 180.0
107.89856 144.0
107.925438 208.0
107.939911 172.0
107.981277 96.0
107.997818 188.0
108.190269 160.0
108.293808 48.0
108.33316 212.0
108.459572 124.0
108.637901 212.0
108.720901 92.0
109.067757 140.0
109.107254 164.0
109.128044 84.0
109.152992 316.0
109.204987 88.0
109.263237 108.0
109.340225 124.0
109.460968 96.0
109.540115 136.0
109.594284 136.0
109.617203 144.0
109.823601 136.0
109.838203 152.0
109.915398 140.0
109.956001 140.0
109.98922 128.0
110.011406 152.0
110.103279 164.0
110.163849 244.0
110.292542 152.0
110.312225 184.0
110.384819 164.0
110.438889 188.0
110.53183 84.0
110.563225 232.0
110.67836 96.0
110.747467 156.0
110.824982 116.0
110.917191 156.0
110.943481 196.0
111.133202 196.0
111.196159 240.0
111.229744 156.0
111.340103 192.0
111.359924 112.0
111.410339 136.0
111.500694 180.0
111.537766 220.0
111.702545 180.0
111.750931 44.0
111.919319 176.0
112.005669 124.0
112.041481 204.0
112.224846 196.0
112.349281 176.0
112.412575 40.0
112.463234 64.0
112.581459 48.0
112.689194 156.0
112.763153 88.0
112.917496 136.0
112.978836 200.0
112.993645 76.0
113.03891 628.0
113.154495 184.0
113.232849 80.0
113.298515 224.0
113.415062 120.0
113.582581 224.0
113.98172 96.0
113.997017 200.0
114.043198 324.0
114.068855 164.0
114.151772 124.0
114.173042 100.0
114.187927 92.0
114.345367 144.0
114.724525 128.0
114.858871 68.0
114.886604 208.0
114.967682 92.0
114.989029 224.0
115.05439 7156.0
115.1577 68.0
115.177437 116.0
115.215378 124.0
115.469749 184.0
115.60025 72.0
115.662315 152.0
115.737244 76.0
115.770706 192.0
115.82077 88.0
115.921165 144.0
115.953613 188.0
116.051682 1100.0
116.086533 176.0
116.14444 48.0
116.223816 156.0
116.276268 136.0
116.359039 124.0
116.475006 188.0
116.707108 80.0
116.76947 84.0
116.784531 152.0
116.806038 216.0
116.829704 208.0
116.9459 200.0
116.971733 188.0
117.057243 592.0
117.088005 116.0
117.109543 28.0
117.768456 180.0
117.791161 164.0
117.830048 240.0
117.886223 140.0
117.929451 96.0
118.013756 156.0
118.063713 232.0
118.17598 176.0
118.212769 156.0
118.232239 136.0
118.273361 216.0
118.459595 84.0
118.769569 168.0
119.06163 468.0
119.229866 56.0
119.292191 160.0
119.334206 136.0
119.37117 160.0
119.510384 188.0
119.656212 76.0
119.728073 168.0
120.026619 184.0
120.044586 180.0
120.146584 128.0
120.391052 208.0
120.443466 184.0
120.500267 164.0
120.535225 148.0
120.557083 208.0
120.578934 164.0
120.745094 164.0
120.78228 88.0
120.84713 180.0
120.900429 156.0
120.950768 40.0
120.974846 204.0
121.047096 168.0
121.101852 172.0
121.11718 132.0
121.14566 128.0
121.189476 316.0
121.323174 140.0
121.424042 156.0
121.516174 168.0
121.623703 64.0
121.817902 212.0
121.854286 184.0
122.001144 156.0
122.159874 192.0
122.26989 220.0
122.357941 220.0
122.531929 212.0
122.575996 220.0
122.650932 152.0
122.74794 292.0
122.818512 128.0
122.878075 164.0
122.893524 240.0
123.012695 180.0
123.065681 168.0
123.101013 224.0
123.147392 148.0
123.198196 32.0
123.45681 216.0
123.505463 176.0
123.5298 140.0
123.633789 168.0
123.711258 236.0
123.737831 76.0
123.786537 164.0
123.932739 196.0
124.079018 232.0
124.152191 140.0
124.2742 136.0
124.30748 224.0
124.387383 148.0
124.408539 128.0
124.471748 224.0
124.553925 88.0
124.64946 124.0
124.798386 192.0
124.825066 196.0
124.842857 180.0
124.962975 200.0
124.994125 152.0
125.009705 156.0
125.038445 2104.0
125.276894 60.0
125.323677 168.0
125.519829 176.0
125.604584 132.0
125.655891 132.0
125.776398 152.0
125.92823 140.0
126.037361 392.0
126.120392 84.0
126.227699 208.0
126.247826 148.0
126.384285 132.0
126.455894 140.0
126.805298 172.0
126.888237 176.0
126.902878 136.0
127.011574 100.0
127.048744 320.0
127.274155 96.0
127.396843 128.0
127.487556 132.0
127.548241 180.0
127.566223 96.0
127.892395 204.0
128.027481 176.0
128.050049 1856.0
128.144623 96.0
128.282089 220.0
128.53244 40.0
128.688187 212.0
128.760452 80.0
128.839508 80.0
128.915558 164.0
128.936676 192.0
128.968307 180.0
129.043579 3388.0
129.137894 60.0
129.239685 144.0
129.348328 160.0
129.368698 80.0
129.400391 240.0
129.451584 160.0
129.495499 44.0
129.554398 196.0
129.626907 172.0
129.667694 144.0
129.683563 188.0
129.708496 140.0
129.817322 36.0
129.928467 108.0
130.040466 964.0
130.134995 164.0
130.150894 80.0
130.441696 208.0
130.498535 128.0
130.534912 108.0
130.764694 200.0
130.807938 144.0
130.962784 40.0
131.039108 168.0
131.061417 232.0
131.129105 172.0
131.318344 44.0
131.67897 140.0
131.896027 140.0
131.996628 192.0
132.06752 232.0
132.22081 180.0
132.408554 72.0
132.550583 72.0
132.715622 80.0
132.779831 56.0
132.883057 84.0
132.899124 40.0
132.938126 188.0
133.023056 124.0
133.046265 176.0
133.156235 208.0
133.420486 196.0
133.540054 92.0
133.835999 128.0
133.871475 144.0
133.906021 92.0
133.949509 200.0
134.035019 192.0
134.187149 196.0
134.210205 200.0
134.570145 144.0
134.833496 144.0
134.946762 188.0
134.976822 96.0
135.117905 84.0
135.750259 116.0
135.803604 164.0
135.875504 124.0
135.984573 156.0
136.082077 204.0
136.219101 136.0
136.253937 124.0
136.319 156.0
136.36084 184.0
136.444519 40.0
136.577072 152.0
136.735291 108.0
136.788818 176.0
136.805115 160.0
136.826065 88.0
136.937851 236.0
137.042679 136.0
137.124237 168.0
137.280441 168.0
137.600113 88.0
137.686508 200.0
137.857056 144.0
138.205475 156.0
138.336533 156.0
138.36554 236.0
138.446579 192.0
138.559021 216.0
138.643372 192.0
138.693375 120.0
138.842651 128.0
138.859055 92.0
138.891891 124.0
138.96463 124.0
139.112473 276.0
139.159439 168.0
139.192963 228.0
139.356735 188.0
139.440216 164.0
139.476883 156.0
139.500092 36.0
139.634125 248.0
139.916489 148.0
139.984772 180.0
140.003616 172.0
140.0495 2704.0
140.133163 216.0
140.183258 156.0
140.401901 168.0
140.437271 180.0
140.498611 136.0
140.555237 68.0
140.574112 120.0
140.614227 236.0
140.706299 156.0
140.882095 128.0
140.96611 172.0
140.988968 156.0
141.028198 164.0
141.056076 1668.0
141.08194 208.0
141.09848 180.0
141.139526 144.0
141.178879 120.0
141.247467 164.0
141.266388 192.0
141.342102 56.0
141.38707 220.0
141.438416 236.0
141.514893 156.0
141.596329 72.0
141.623825 56.0
141.697266 200.0
141.829376 144.0
141.889236 212.0
141.920059 52.0
141.953262 216.0
142.018066 172.0
142.061401 2172.0
142.170242 200.0
142.283066 204.0
142.380432 36.0
142.596634 116.0
142.696472 160.0
142.734512 152.0
142.865326 188.0
142.886734 220.0
142.903397 52.0
142.929565 148.0
142.965256 128.0
143.060532 1252.0
143.143799 52.0
143.196198 164.0
143.229538 192.0
143.411774 148.0
143.457138 176.0
143.548904 164.0
143.677704 112.0
143.750183 140.0
143.80896 100.0
143.966522 124.0
144.066025 348.0
144.32019 112.0
144.358444 116.0
144.454117 304.0
144.497177 124.0
144.643158 76.0
144.659912 136.0
144.693436 192.0
144.772446 196.0
144.803589 128.0
144.920975 196.0
145.007233 148.0
145.026413 204.0
145.067169 120.0
145.311783 124.0
145.405365 68.0
145.549408 124.0
145.683914 40.0
145.753586 180.0
145.777618 60.0
145.890579 252.0
145.945877 64.0
145.977142 252.0
146.003601 176.0
146.062897 392.0
146.123871 208.0
146.140717 220.0
146.157547 36.0
146.23938 84.0
146.475342 152.0
146.672943 220.0
146.706696 196.0
146.894791 172.0
147.051636 40.0
147.201309 196.0
147.261688 184.0
147.370392 52.0
147.445312 104.0
147.629044 128.0
147.965378 108.0
148.039658 136.0
148.132477 124.0
148.210007 40.0
148.238373 216.0
148.29483 172.0
148.374817 132.0
148.430588 88.0
148.704727 188.0
148.762985 132.0
148.85524 160.0
148.873657 228.0
148.903824 116.0
148.974258 196.0
149.175964 152.0
149.209991 88.0
149.256195 72.0
149.336441 128.0
149.462952 144.0
149.531097 136.0
149.626022 220.0
149.706375 128.0
149.752655 168.0
149.852524 224.0
149.940262 124.0
149.959747 192.0
149.996323 156.0
150.036438 148.0
150.101151 132.0
150.186508 144.0
150.232864 116.0
150.254822 84.0
150.320694 104.0
150.430527 200.0
150.575928 124.0
150.924866 144.0
151.040924 468.0
151.070786 144.0
151.131958 140.0
151.224945 152.0
151.403671 68.0
151.43306 152.0
151.634705 80.0
151.673187 184.0
151.79332 116.0
151.862 52.0
151.896332 196.0
152.006744 216.0
152.049454 10040.0
152.095093 124.0
152.149094 48.0
152.190842 68.0
152.239944 160.0
152.343109 124.0
152.375046 88.0
152.523376 268.0
152.552002 56.0
152.630676 112.0
152.699524 176.0
152.734192 212.0
152.788086 192.0
152.827454 120.0
152.987427 40.0
153.04599 5576.0
153.079834 196.0
153.113007 152.0
153.161362 172.0
153.204147 76.0
153.223846 100.0
153.303879 192.0
153.47525 88.0
153.645432 56.0
153.702179 48.0
153.781158 104.0
153.936691 136.0
154.046494 992.0
154.133774 92.0
154.270248 100.0
154.401291 124.0
154.492813 164.0
154.651184 164.0
154.673462 196.0
154.737823 156.0
154.762589 60.0
154.826981 80.0
154.95578 156.0
154.974991 216.0
155.054092 280.0
155.213562 184.0
155.27803 160.0
155.307312 100.0
155.352448 92.0
155.395523 208.0
155.46907 160.0
155.794342 120.0
155.86142 156.0
156.045364 488.0
156.111603 168.0
156.290176 140.0
156.406082 104.0
156.632675 240.0
156.719864 144.0
156.745789 160.0
156.832016 68.0
156.896835 36.0
156.958221 308.0
157.208618 196.0
157.231079 104.0
157.638138 196.0
157.908142 180.0
158.080765 140.0
158.220932 180.0
158.358658 184.0
158.478912 104.0
158.531525 124.0
158.717026 184.0
158.757156 164.0
158.830719 204.0
158.895111 224.0
158.987961 100.0
159.015564 248.0
159.035248 228.0
159.098404 160.0
159.329453 100.0
159.485245 36.0
159.555634 128.0
159.673828 88.0
159.886627 280.0
160.076477 108.0
160.242722 144.0
160.42923 168.0
160.479645 216.0
160.570435 196.0
160.593124 148.0
160.77478 152.0
160.948959 144.0
161.467026 272.0
161.512543 172.0
161.666885 152.0
161.740616 132.0
161.833954 168.0
161.861801 132.0
161.970703 192.0
161.990967 228.0
162.249466 132.0
162.317917 140.0
162.602051 160.0
163.071915 124.0
163.112595 132.0
163.260056 136.0
163.277863 44.0
163.491562 188.0
163.557739 180.0
163.644287 184.0
163.847031 140.0
163.893906 128.0
163.927032 112.0
164.100357 116.0
164.258484 72.0
164.364944 148.0
164.530228 172.0
164.664322 180.0
164.73584 48.0
164.815048 184.0
164.922379 100.0
165.114136 80.0
165.224136 124.0
165.420853 184.0
165.551758 176.0
165.73877 144.0
165.864349 132.0
165.925873 132.0
165.984848 140.0
166.052963 264.0
166.107941 200.0
166.1259 208.0
166.274734 72.0
166.336334 132.0
166.446732 120.0
166.474976 148.0
166.629089 112.0
166.880966 156.0
166.901535 200.0
167.060745 1664.0
167.093307 196.0
167.201721 204.0
167.501205 236.0
167.537262 244.0
167.573334 180.0
167.614563 168.0
167.667801 212.0
167.698318 144.0
167.790695 168.0
167.846558 52.0
167.865799 176.0
167.948105 148.0
168.000793 200.0
168.068802 55968.0
168.120514 172.0
168.1427 80.0
168.160461 100.0
168.184525 100.0
168.210327 148.0
168.249802 124.0
168.273773 104.0
168.30365 84.0
168.360092 64.0
168.384232 84.0
168.40538 104.0
168.432404 48.0
168.467636 100.0
168.49733 128.0
168.525482 88.0
168.59108 96.0
168.623611 64.0
168.672806 116.0
168.716858 268.0
168.727631 180.0
168.736023 272.0
168.781708 152.0
168.870819 212.0
168.911621 164.0
168.93013 172.0
168.96434 156.0
168.996597 340.0
169.035767 168.0
169.040756 296.0
169.076599 98716.0
169.135178 196.0
169.157486 120.0
169.197159 44.0
169.243073 160.0
169.260162 68.0
169.288101 132.0
169.329071 120.0
169.365326 132.0
169.417923 144.0
169.470322 208.0
169.503723 256.0
169.541214 92.0
169.559097 44.0
169.58902 20.0
169.629868 116.0
169.651871 112.0
169.713455 76.0
169.739395 56.0
169.768127 88.0
169.7957 28.0
169.852448 128.0
169.905396 148.0
169.924026 44.0
169.945923 232.0
169.987427 220.0
170.078629 11952.0
170.132523 172.0
170.144989 108.0
170.153305 152.0
170.171417 80.0
170.180099 156.0
170.197098 72.0
170.266479 112.0
170.327133 148.0
170.355759 108.0
170.397888 212.0
170.437408 44.0
170.456604 108.0
170.484421 176.0
170.519394 88.0
170.549408 52.0
170.580734 112.0
170.637787 96.0
170.676956 64.0
170.702789 40.0
170.77301 120.0
170.793015 52.0
170.834427 164.0
170.867889 84.0
170.905685 104.0
170.98143 464.0
171.056198 1056.0
171.081207 832.0
171.149963 172.0
171.198914 68.0
171.223282 52.0
171.291 64.0
171.330078 140.0
171.358444 108.0
171.391006 72.0
171.444717 84.0
171.467484 120.0
171.485168 116.0
171.53334 156.0
171.595917 84.0
171.739334 28.0
171.774231 64.0
171.923538 60.0
171.968948 212.0
172.050705 120.0
172.128204 92.0
172.25618 76.0
172.312363 108.0
172.336197 100.0
172.429855 116.0
172.535797 32.0
172.565475 160.0
172.6064 160.0
172.643005 104.0
172.799957 40.0
172.970062 232.0
173.027649 212.0
173.067612 184.0
173.095734 76.0
173.166443 212.0
173.279083 80.0
173.394379 88.0
173.703781 48.0
174.046219 100.0
174.097473 88.0
174.517914 196.0
174.96257 76.0
175.365601 148.0
175.41832 124.0
175.645096 124.0
175.674118 152.0
175.916901 152.0
176.051559 120.0
176.072678 152.0
176.204758 240.0
176.32103 36.0
176.421463 196.0
176.463776 248.0
177.047409 920.0
177.241943 128.0
177.316147 204.0
177.583939 148.0
177.849274 108.0
178.052628 548.0
178.082932 160.0
178.157303 164.0
178.415085 112.0
178.56134 152.0
178.641129 176.0
178.670395 204.0
178.85791 208.0
178.885666 144.0
178.939209 116.0
179.005768 216.0
179.060791 28320.0
179.155685 84.0
179.205551 52.0
179.272156 104.0
179.336121 88.0
179.368118 72.0
179.41272 120.0
179.500778 100.0
179.544083 44.0
179.634781 32.0
179.73616 64.0
179.810883 88.0
179.83757 104.0
179.908203 104.0
179.952362 76.0
179.976395 224.0
180.061218 3424.0
180.115265 60.0
180.155334 56.0
180.208771 128.0
180.304962 168.0
180.361099 48.0
180.414566 128.0
180.433273 36.0
180.548248 40.0
180.574997 44.0
180.599075 48.0
180.794388 48.0
180.854996 68.0
180.928223 104.0
181.005859 96.0
181.060364 136.0
181.099167 124.0
181.131744 76.0
181.323624 124.0
181.367538 40.0
181.46405 64.0
181.507797 128.0
181.531082 108.0
181.885239 184.0
182.065125 164.0
182.156448 40.0
182.177948 136.0
182.253174 52.0
182.296158 188.0
182.4655 48.0
182.677963 176.0
182.97171 104.0
183.056503 308.0
183.087082 96.0
183.1194 104.0
183.154419 76.0
184.079498 48.0
184.657837 44.0
184.936523 112.0
185.058334 184.0
185.17749 100.0
185.771118 56.0
186.045212 148.0
186.066925 112.0
186.085938 184.0
186.295059 56.0
186.458084 160.0
187.214401 200.0
187.486832 56.0
187.519531 52.0
188.570328 216.0
188.616791 148.0
188.974136 60.0
189.089981 52.0
189.161148 112.0
189.262451 196.0
189.391159 92.0
189.813217 104.0
189.859833 116.0
190.073807 160.0
190.546082 76.0
191.162003 120.0
191.525421 32.0
192.087753 40.0
193.671631 140.0
194.009705 124.0
194.239868 160.0
195.053482 56.0
195.729538 192.0
195.924515 144.0
196.06398 208.0
196.172028 216.0
196.31752 136.0
196.381668 148.0
196.46257 132.0
196.493256 128.0
196.572876 180.0
196.646729 104.0
196.757278 192.0
196.764847 116.0
196.77652 228.0
196.842163 52.0
196.89801 100.0
196.936676 76.0
196.963547 180.0
196.998199 392.0
197.019211 216.0
197.03981 84.0
197.07196 36488.0
197.133179 180.0
197.174149 124.0
197.209259 188.0
197.244247 100.0
197.307465 192.0
197.401047 60.0
197.432251 60.0
197.468155 40.0
197.493332 84.0
197.58844 56.0
197.617828 40.0
197.685059 68.0
197.757111 44.0
197.868317 68.0
197.901917 120.0
197.99292 72.0
198.074295 5124.0
198.176147 168.0
198.268875 60.0
198.392212 60.0
198.624969 60.0
198.700714 88.0
198.720352 88.0
198.79892 72.0
198.835403 92.0
198.85939 88.0
199.012253 64.0
199.0755 332.0
199.118958 96.0
199.169525 184.0
199.228516 40.0
199.287521 128.0
199.309998 176.0
199.350174 80.0
199.374619 32.0
199.394302 88.0
199.461761 68.0
199.523605 76.0
199.624832 44.0
199.644516 128.0
199.678253 108.0
199.808914 80.0
199.849854 84.0
200.062469 132.0
200.277771 56.0
200.370728 64.0
200.412994 96.0
200.435532 120.0
200.53981 96.0
200.610275 128.0
201.092636 60.0
201.519043 64.0
202.008133 92.0
202.228851 144.0
203.907913 52.0
205.032104 152.0
206.917389 52.0
206.99469 56.0
207.057693 276.0
209.093246 76.0
210.041199 128.0
210.728287 80.0
211.037552 184.0
211.338364 124.0
214.180069 104.0
214.988144 148.0
216.148285 96.0
218.025101 68.0
220.143936 88.0
225.996323 64.0
226.67305 68.0
230.407059 80.0
232.605637 100.0
244.772354 136.0
246.331787 68.0
246.788071 112.0
248.984772 44.0
258.61731 96.0
261.702393 56.0
262.395111 104.0
266.343201 88.0
267.025787 116.0
268.409821 92.0
269.176666 56.0
274.71698 112.0
276.272949 96.0
280.707092 56.0
285.146271 100.0
285.418549 180.0
285.485809 96.0
285.549713 112.0
290.562683 84.0
291.122742 104.0
292.087982 112.0
292.227478 40.0
296.639923 176.0
300.91275 44.0
300.940369 36.0
306.960724 84.0
314.002777 104.0
314.761536 88.0
315.372711 96.0
322.878326 132.0
323.103516 96.0
323.490173 92.0
324.142029 116.0
325.007141 76.0
332.040741 44.0
333.514862 56.0
339.05899 96.0
340.001526 40.0
341.01889 136.0
352.366058 60.0
353.641235 68.0
355.886749 52.0
357.732727 52.0
357.890869 64.0
365.327911 108.0
375.362976 68.0
386.985199 92.0
391.808197 44.0
392.300812 52.0
399.524261 40.0
407.142853 68.0
426.874146 40.0
434.972076 48.0
445.100739 84.0
446.281464 104.0
452.59375 52.0
466.971405 84.0
469.357208 124.0
471.896057 108.0
477.798828 68.0
482.714508 160.0
486.263062 76.0
492.563904 72.0
518.123047 96.0
523.075867 56.0
535.058044 92.0
544.941711 76.0
548.362061 120.0
566.282227 80.0
630.282104 76.0
631.666931 68.0
639.756348 48.0
643.618347 76.0
650.696716 92.0
651.143555 124.0
664.215271 84.0
705.959229 64.0
725.409363 96.0
779.366516 148.0
799.115234 56.0
800.989868 40.0
815.685425 168.0
836.663147 64.0
844.678711 64.0
845.274658 188.0
854.25592 192.0
859.697876 36.0
867.312744 160.0
872.778381 92.0
880.320923 172.0
882.696411 140.0
884.601562 152.0
885.851013 188.0
893.657959 184.0
906.657715 100.0
907.460938 200.0
913.701111 76.0
917.061218 252.0
918.568665 116.0
924.513916 208.0
929.422302 172.0
950.81134 184.0
951.443604 60.0
955.598206 96.0
957.586548 216.0
959.268677 224.0
962.439758 124.0
966.482178 204.0
968.574707 164.0
973.530212 184.0
998.170349 184.0
1000.586487 252.0
1001.915344 136.0
1003.8125 92.0
1012.856506 136.0
1015.42981 156.0
1018.203308 120.0
1021.470276 160.0
1022.055603 124.0
1024.207397 132.0
1024.570435 176.0
1027.988037 152.0
1036.230103 156.0
1042.595459 152.0
1046.017212 156.0
1047.633545 156.0
1051.315186 148.0
1052.754761 156.0
1055.041992 232.0
1060.252563 148.0
1067.224365 72.0
1069.013184 176.0
1073.423218 172.0
1074.186279 208.0
1075.236816 160.0
1078.319458 184.0
1079.927856 160.0
1080.065186 144.0
1082.231323 112.0
1083.200562 188.0
1084.543823 184.0
1086.721069 88.0
1087.003174 140.0
1088.782227 220.0
1090.45752 116.0
1090.549561 184.0
1093.910767 64.0
1095.326538 148.0
1096.341187 124.0
1100.701538 116.0
1102.286865 168.0
1104.434814 172.0
1106.28833 164.0
1106.606079 172.0
1107.592896 152.0
1107.91748 128.0
1110.19751 180.0
1115.529175 176.0
1117.45105 164.0
1130.643188 164.0
1136.593872 128.0
1137.526733 128.0
1140.78479 108.0
1142.741821 172.0
1145.838867 204.0
1146.582031 80.0
1146.883301 148.0
1149.850952 192.0
1150.303223 172.0
1152.106323 236.0
1154.214966 192.0
1162.275513 144.0
1162.845581 156.0
1164.481812 172.0
1165.351318 148.0
1167.349731 124.0
1171.917114 112.0
1172.47583 112.0
1172.64624 144.0
1177.176147 196.0
1177.640625 272.0
1178.064087 164.0
1178.201782 132.0
1185.933105 168.0
1186.207397 184.0
1191.381592 92.0
1191.436523 180.0
1191.594482 152.0
1193.436523 188.0
1196.119507 208.0
1196.759766 216.0
1198.268188 176.0
1201.425659 104.0
1201.60498 64.0
1203.820679 116.0
1204.511353 160.0
1204.732422 132.0
1207.033936 168.0
1207.428101 124.0
1209.095459 144.0
1215.179443 240.0
1215.283447 72.0
1215.366699 188.0
1215.561035 108.0
1218.178467 168.0
1222.811523 104.0
1222.89978 144.0
1223.888306 164.0
1224.229614 240.0
1228.327759 208.0
1228.606812 60.0
1230.002441 200.0
1230.393311 140.0
1232.509644 268.0
1236.25769 168.0
1236.411621 104.0
1237.097534 144.0
1237.314575 156.0
1240.263794 160.0
1241.44165 164.0
1242.963867 152.0
1247.894531 52.0
1250.638184 108.0
1251.229492 220.0
1252.363159 168.0
1253.018311 92.0
1254.047119 216.0
1254.145752 192.0
1254.914185 72.0
1255.915527 52.0
1256.508179 180.0
1261.741333 152.0
1263.21228 168.0
1264.2948 256.0
1265.852173 140.0
1268.821045 40.0
1269.920166 152.0
1275.302002 132.0
1277.364014 204.0
1277.876221 152.0
1277.997192 132.0
1278.516724 104.0
1282.576294 120.0
1283.510254 140.0
1286.713867 128.0
1292.503174 144.0
1293.011353 136.0
1294.829712 140.0
1295.63916 168.0
1298.470581 184.0
1299.345703 196.0
1301.556274 156.0
1303.632202 52.0
1303.876587 104.0
1304.426636 176.0
1305.817749 264.0
1306.421997 164.0
1310.597656 200.0
1310.921997 228.0
1314.744019 140.0
1314.859497 172.0
1315.841187 236.0
1316.252808 200.0
1316.895508 148.0
1316.982178 140.0
1317.234985 184.0
1318.008057 100.0
1318.318726 144.0
1318.795776 184.0
1320.357422 116.0
1321.182007 208.0
1322.924316 188.0
1324.48291 60.0
1324.700195 160.0
1326.946777 164.0
1328.353638 272.0
1331.525513 104.0
1332.38623 140.0
1333.647095 164.0
1333.901489 212.0
1334.715698 172.0
1338.244629 124.0
1338.681519 48.0
1339.038452 44.0
1339.198608 84.0
1339.825073 168.0
1340.488159 176.0
1341.012817 200.0
1341.377319 204.0
1342.966797 180.0
1343.484741 124.0
1343.769287 84.0
1344.681396 192.0
1345.630371 124.0
1348.172363 200.0
1351.704346 184.0
1352.004395 140.0
1352.611816 76.0
1352.875366 204.0
1353.797974 208.0
1353.915039 132.0
1354.647583 96.0
1355.959106 196.0
1358.664795 140.0
1361.050171 140.0
1361.299805 152.0
1362.438232 176.0
1364.723999 108.0
1367.548828 208.0
1370.067139 216.0
1371.762085 124.0
1374.033447 172.0
1375.568481 124.0
1376.314087 128.0
1376.808838 144.0
1376.912231 140.0
1378.064575 56.0
1378.197998 160.0
1379.74231 136.0
1379.816162 124.0
1380.422485 172.0
1380.570435 152.0
1383.641113 184.0
1387.960571 176.0
1389.265991 44.0
1389.83728 120.0
1390.942993 144.0
1392.799316 148.0
1393.133667 148.0
1393.676025 160.0
1394.798218 136.0
1395.965454 136.0
1398.159912 176.0
1398.465088 172.0
1398.755371 68.0
1401.227783 160.0
1401.2948 192.0
1401.45874 176.0
1401.764282 224.0
1402.874756 168.0
1404.112549 112.0
1404.164795 96.0
1404.284058 68.0
1408.34436 80.0
1410.735474 192.0
1413.233398 128.0
1415.209351 192.0
1415.359131 68.0
1415.778442 168.0
1417.66626 152.0
1419.885376 164.0
1420.5979 124.0
1422.879272 132.0
1424.321167 68.0
1424.516479 236.0
1426.064331 180.0
1427.81604 148.0
1427.906372 148.0
1427.981567 168.0
1429.606567 124.0
1432.63269 204.0
1432.829224 132.0
1434.705688 156.0
1435.66333 244.0
1436.123413 80.0
1436.440186 220.0
1437.541748 108.0
1439.156982 124.0
1443.244751 176.0
1443.728638 116.0
1445.264282 128.0
1448.762085 204.0
1448.913574 136.0
1449.042358 180.0
1449.678833 184.0
1451.551147 200.0
1452.157959 168.0
1452.795044 228.0
1454.744507 192.0
1456.43103 176.0
1456.795654 172.0
1457.061646 184.0
1457.502319 140.0
1457.68457 188.0
1458.437012 132.0
1459.128784 112.0
1461.007202 160.0
1462.2323 216.0
1462.509155 216.0
1463.206665 192.0
1465.963867 132.0
1466.25354 188.0
1467.518921 192.0
1468.853516 68.0
1470.036011 148.0
1470.119995 208.0
1470.234497 284.0
1470.791626 216.0
1471.096924 172.0
1471.325928 124.0
1473.869263 80.0
1474.11377 116.0
1474.388916 168.0
1474.717529 36.0
1474.885742 148.0
1475.375 176.0
1475.757202 180.0
1476.414795 220.0
1477.791748 192.0
1477.898804 216.0
1478.318726 204.0
1479.360596 140.0
1479.567261 176.0
1480.447876 180.0
1480.677612 136.0
1480.800171 140.0
1481.78833 168.0
1482.156006 124.0
1482.332275 136.0
1482.953003 224.0
1483.973877 124.0
1484.846802 132.0
1484.954102 76.0
1486.979614 172.0
1487.317261 172.0
1487.691284 224.0
1488.622437 180.0
1489.367432 156.0
1489.88208 232.0
1491.365112 148.0
1491.995483 96.0
1492.449097 160.0
1493.425781 144.0
1495.5802 172.0
1495.649414 196.0
1495.980469 168.0
1496.034302 180.0
1496.14978 48.0
1498.591187 188.0
1498.884033 168.0
1499.939819 88.0
1501.744141 196.0
1501.852051 116.0
1501.998657 188.0
1504.074341 56.0
