>compound MLS002222297-01!
>formula C17H25NO3
>ionization [M+H]+
>parentmass 292.190338
#inchi InChI=1S/C17H25NO3/c1-12-10-14(11-17(2,3)18(12)4)21-16(20)15(19)13-8-6-5-7-9-13/h5-9,12,14-15,19H,10-11H2,1-4H3
#inchikey QSAVEGSLJISCDF
#origInchi InChI=1S/C17H25NO3.ClH/c1-12-10-14(11-17(2,3)18(12)4)21-16(20)15(19)13-8-6-5-7-9-13;/h5-9,12,14-15,19H,10-11H2,1-4H3;1H
#Ion_Source LC-ESI
#Instrument qTof
#Compound_Source NIH Pharmacologically Active Library
#PI Dorrestein
#Data_Collector VP/LMS
#Scan -1
#Precursor_MZ 292.194
#ExactMass 291.183
#Charge 1
#CAS_Number N/A
#Pubmed_ID N/A
#Smiles CC1CC(CC(C)(C)N1C)OC(=O)C(O)c2ccccc2.Cl
#INCHI_AUX N/A
#Library_Class 3
#SpectrumID CCMSLIB00000084831
#IonMode Positive
#UpdateWorkflowName UPDATE-SINGLE-ANNOTATED-BRONZE
#LibraryQualityString Bronze
#TaskID d252d724072548979f1f6f1ced849daf
##Scan# 1254
#SpectrumFile p3-B04_GB4_01_18237.mzXML
#LibraryName Pharm_Active_Library.mgf
#MQScore -1
#Organism Pharm_Active_Library
#TIC_Query 0
#RT_Query -1
#MZErrorPPM -1
#SharedPeaks 0
#MassDiff 0
#LibMZ -1
#SpecMZ 292.194
#SpecCharge 0
#internalFilename spec-00000.mgf

>collision 10
44.898418 164.0
46.075645 172.0
46.605408 212.0
47.96167 220.0
48.109272 148.0
48.234982 148.0
49.062813 184.0
49.92067 196.0
50.522949 104.0
51.153034 176.0
52.937756 236.0
53.725227 200.0
55.243118 180.0
55.286026 120.0
57.452694 180.0
60.251247 168.0
61.256512 208.0
62.243393 228.0
63.155884 132.0
66.227661 192.0
72.088936 184.0
73.266479 140.0
77.256416 196.0
78.686974 140.0
80.071877 164.0
80.253639 152.0
80.83773 92.0
82.201645 164.0
85.246452 180.0
85.30159 104.0
86.395134 168.0
89.736397 188.0
90.947098 148.0
91.056305 176.0
92.053215 228.0
92.550941 124.0
93.783707 180.0
93.959183 136.0
95.703514 144.0
96.079712 192.0
96.742157 152.0
97.298912 220.0
98.096069 164.0
98.389572 168.0
99.044922 192.0
101.413231 160.0
102.090599 556.0
102.564941 100.0
103.08564 220.0
104.309784 204.0
104.441956 132.0
104.773766 120.0
105.065292 124.0
107.050957 956.0
107.087311 168.0
108.053841 324.0
108.089722 180.0
109.101952 3352.0
109.145523 64.0
110.105034 344.0
112.109665 216.0
114.566704 348.0
115.006775 156.0
116.98526 164.0
118.555496 188.0
120.077003 148.0
121.571503 180.0
122.389214 40.0
123.079361 120.0
123.118103 644.0
123.492607 84.0
124.116776 160.0
125.121361 192.0
126.055908 204.0
126.122955 120.0
127.038795 196.0
127.112831 192.0
128.05928 172.0
128.106384 180.0
129.071594 332.0
130.237396 148.0
132.301056 112.0
135.046646 240.0
136.488678 148.0
138.133438 188.0
140.015259 164.0
140.145569 1368.0
141.02739 132.0
141.074661 132.0
141.15033 176.0
142.152313 188.0
143.098312 256.0
143.818237 72.0
144.064178 164.0
145.049438 960.0
145.095459 184.0
145.397842 240.0
146.051346 196.0
146.130737 80.0
146.981262 152.0
148.07634 176.0
148.11377 384.0
149.102585 64.0
150.312866 44.0
150.933304 112.0
155.088913 180.0
156.223694 140.0
157.096405 168.0
158.151428 1140.0
159.670456 204.0
162.07753 176.0
162.195267 160.0
164.608139 184.0
164.670929 76.0
165.230743 180.0
174.14859 104.0
180.982742 152.0
182.109039 116.0
184.093872 152.0
184.161392 152.0
185.102509 176.0
186.942947 188.0
188.120377 144.0
190.116608 356.0
192.093872 48.0
197.944321 164.0
198.103958 140.0
200.340057 96.0
202.108353 668.0
202.860748 116.0
203.11879 236.0
206.050919 136.0
207.123657 176.0
219.195969 136.0
220.926102 144.0
226.148331 132.0
226.268066 156.0
228.119247 264.0
246.18425 520.0
259.28479 172.0
262.373749 100.0
265.91568 232.0
269.932465 152.0
274.252838 168.0
275.183075 132.0
276.439117 144.0
284.179291 140.0
285.677948 108.0
289.366547 124.0
289.417358 80.0
289.583282 176.0
290.515411 188.0
290.729156 76.0
291.122955 36.0
291.163696 144.0
291.67334 164.0
291.771912 140.0
292.135803 160.0
292.190338 2508.0
292.278687 88.0
292.680328 180.0
293.041351 72.0
293.150391 52.0
293.19278 628.0
293.467377 100.0
293.641296 36.0
293.692474 60.0
294.026825 36.0
294.204651 204.0
294.446716 72.0
302.225983 100.0
324.216309 100.0
328.96402 100.0
343.141266 160.0
602.946106 20.0
905.000061 192.0
956.922119 232.0
957.482483 64.0
988.391296 192.0
1017.409058 108.0
1037.812378 140.0
1044.41394 156.0
1047.200928 136.0
1056.178955 220.0
1093.586426 140.0
1093.632446 56.0
1110.560181 168.0
1144.22644 140.0
1162.428589 136.0
1179.550415 152.0
1199.594604 128.0
1200.552856 248.0
1216.202515 208.0
1217.646729 188.0
1262.23877 212.0
1263.929321 144.0
1278.938843 176.0
1281.64502 280.0
1290.688477 148.0
1296.981201 164.0
1322.146118 260.0
1339.782959 100.0
1348.151855 244.0
1372.920898 144.0
1417.659546 112.0
1444.969604 132.0
1457.487427 176.0
1460.056763 184.0
1460.687988 32.0
1462.856689 108.0
1467.671631 176.0
1472.471558 104.0
1476.499146 224.0
1483.183105 120.0
1489.628662 96.0
1492.264648 160.0
1496.242188 128.0
1497.358643 128.0
1503.533936 112.0
