>compound Olmesartan medoxomil (Benicar)
>formula C29H30N6O6
>ionization [M+H]+
>parentmass 559.2299591320905
#inchi InChI=1S/C29H30N6O6/c1-5-8-23-30-25(29(3,4)38)24(27(36)39-16-22-17(2)40-28(37)41-22)35(23)15-18-11-13-19(14-12-18)20-9-6-7-10-21(20)26-31-33-34-32-26/h6-7,9-14,38H,5,8,15-16H2,1-4H3,(H,31,32,33,34)
#inchikey UQGKUQLKSCSZGY
#Ion_Source LC-ESI
#Instrument qTof
#Compound_Source Commercial
#PI Dorrestein
#Data_Collector Garg_Neha
#Scan -1
#Precursor_MZ 559.23
#ExactMass 558.223
#Charge 1
#CAS_Number 144689-63-4, 1112046-13-5 (3HCl)
#Pubmed_ID N/A
#Smiles N1(CC2=CC=C(C=C2)C3=CC=CC=C3C4=NNN=N4)C(=NC(=C1C(OCC5OC(OC=5C)=O)=O)C(O)(C)C)CCC
#INCHI_AUX N/A
#Library_Class 1
#SpectrumID CCMSLIB00000078195
#IonMode Positive
#UpdateWorkflowName UPDATE-SINGLE-ANNOTATED-GOLD
#LibraryQualityString Gold
#TaskID 77f51c88eb8b467eb4a01dd2d0cb90d2
##Scan# 1201
#SpectrumFile Plate3_41_60_GG11_01_16500.mzXML
#LibraryName FDALibrary_2_04302014.mgf
#MQScore -1
#Organism FDALibrary_2_04302014
#TIC_Query 0
#RT_Query -1
#MZErrorPPM -1
#SharedPeaks 0
#MassDiff 0
#LibMZ -1
#SpecMZ 559.23
#SpecCharge 0
#internalFilename spec-00000.mgf

>collision 10
44.905018 188.0
44.959717 188.0
45.01712 180.0
45.031811 216.0
45.133373 140.0
45.160122 168.0
45.181034 180.0
45.327629 192.0
45.350246 252.0
45.387978 164.0
45.418629 144.0
45.440239 144.0
45.505856 168.0
45.522789 196.0
45.555546 148.0
45.581821 316.0
45.611984 160.0
45.625477 312.0
45.639919 164.0
45.655006 176.0
45.687828 180.0
45.699673 176.0
45.745155 176.0
45.761944 144.0
45.860481 168.0
45.871494 132.0
45.949997 156.0
45.97768 124.0
46.009377 188.0
46.05529 176.0
46.087711 220.0
46.16341 152.0
46.176006 208.0
46.193375 128.0
46.247837 148.0
46.280689 184.0
46.2915 280.0
46.33329 204.0
46.345779 132.0
46.407318 152.0
46.43272 180.0
46.457321 156.0
46.477669 156.0
46.48925 300.0
46.508636 132.0
46.593075 164.0
46.636925 164.0
46.666157 140.0
46.708263 272.0
46.731777 208.0
46.807976 168.0
46.817509 160.0
46.889538 152.0
46.944244 164.0
47.008163 196.0
47.044312 152.0
47.087536 192.0
47.103226 160.0
47.12442 176.0
47.162365 188.0
47.178627 228.0
47.206432 176.0
47.226948 160.0
47.293991 160.0
47.310417 160.0
47.39822 184.0
47.43919 192.0
47.451527 148.0
47.49678 204.0
47.545242 100.0
47.609341 192.0
47.652573 140.0
47.695221 100.0
47.819366 164.0
47.837563 260.0
47.85556 168.0
47.941795 136.0
48.034618 168.0
48.058071 208.0
48.130535 192.0
48.188683 192.0
48.204433 164.0
48.244518 140.0
48.261108 164.0
48.281849 180.0
48.293232 164.0
48.319199 180.0
48.344105 196.0
48.363918 176.0
48.422947 160.0
48.463188 168.0
48.522785 152.0
48.579643 140.0
48.654636 192.0
48.665688 180.0
48.801853 168.0
48.850529 188.0
48.897339 168.0
48.929852 140.0
48.9422 152.0
48.9967 152.0
49.015789 112.0
49.054867 200.0
49.216118 152.0
49.229359 184.0
49.271362 128.0
49.303673 156.0
49.370777 224.0
49.394035 204.0
49.475719 156.0
49.500782 120.0
49.517727 164.0
49.547302 176.0
49.576523 232.0
49.625626 168.0
49.636845 172.0
49.670502 148.0
49.695221 220.0
49.739258 160.0
49.749905 156.0
49.831947 236.0
49.950035 204.0
50.046703 180.0
50.099251 140.0
50.119587 156.0
50.199322 176.0
50.230392 128.0
50.265362 176.0
50.309052 176.0
50.361618 168.0
50.422371 200.0
50.452534 156.0
50.483162 184.0
50.52216 112.0
50.559555 188.0
50.569462 180.0
50.717522 112.0
50.766384 168.0
50.807518 268.0
50.831638 168.0
50.851505 140.0
50.883335 196.0
50.904034 148.0
50.967953 156.0
51.005306 168.0
51.040447 168.0
51.053242 164.0
51.077423 188.0
51.115833 200.0
51.12722 340.0
51.189857 200.0
51.201248 160.0
51.258232 160.0
51.379421 160.0
51.410812 196.0
51.477909 160.0
51.576218 148.0
51.643932 352.0
51.657993 160.0
51.682228 136.0
51.745289 144.0
51.805614 164.0
51.831226 164.0
51.932274 124.0
51.97892 148.0
52.114887 196.0
52.173492 136.0
52.191505 200.0
52.201572 188.0
52.236092 176.0
52.272057 140.0
52.282131 328.0
52.33683 164.0
52.349445 100.0
52.43911 156.0
52.450642 144.0
52.658413 160.0
52.693081 172.0
52.711864 152.0
52.790783 128.0
52.836208 160.0
52.856575 104.0
52.961498 172.0
53.007061 204.0
53.025898 192.0
53.041355 260.0
53.057716 164.0
53.07267 136.0
53.096939 160.0
53.107815 176.0
53.14481 168.0
53.192787 136.0
53.269047 168.0
53.288548 176.0
53.309597 132.0
53.337959 156.0
53.383766 144.0
53.397942 172.0
53.432484 144.0
53.474682 200.0
53.498489 160.0
53.528545 160.0
53.557289 136.0
53.576698 328.0
53.617409 180.0
53.645214 156.0
53.69603 120.0
53.742817 400.0
53.764706 176.0
53.827477 228.0
53.846458 160.0
53.866909 308.0
53.877132 336.0
53.942894 180.0
53.979832 196.0
54.024784 144.0
54.1077 160.0
54.124603 180.0
54.15757 188.0
54.210735 212.0
54.257553 140.0
54.285496 156.0
54.446922 172.0
54.507153 168.0
54.538013 208.0
54.583096 216.0
54.598293 140.0
54.635212 168.0
54.736622 160.0
54.751347 348.0
54.795536 272.0
54.831551 172.0
54.874371 188.0
54.891342 212.0
54.951817 176.0
55.145004 136.0
55.183945 144.0
55.207355 152.0
55.219189 156.0
55.350895 152.0
55.494003 212.0
55.535152 180.0
55.552269 188.0
55.599941 260.0
55.624191 188.0
55.786991 244.0
55.83073 160.0
55.867874 136.0
55.917225 180.0
55.970085 196.0
56.043587 208.0
56.063934 192.0
56.102688 152.0
56.119854 132.0
56.189182 180.0
56.201965 148.0
56.238556 140.0
56.293667 144.0
56.344196 164.0
56.366863 144.0
56.396751 184.0
56.435905 168.0
56.455059 160.0
56.488914 132.0
56.511169 164.0
56.541203 172.0
56.576214 156.0
56.589729 164.0
56.613094 152.0
56.645138 200.0
56.660118 256.0
56.700577 144.0
56.715565 220.0
56.730267 184.0
56.768036 176.0
56.9226 144.0
56.970661 164.0
56.992928 244.0
57.204834 100.0
57.217739 136.0
57.279976 116.0
57.310108 212.0
57.341343 228.0
57.351269 188.0
57.367279 116.0
57.400383 240.0
57.494926 320.0
57.566071 140.0
57.681931 152.0
57.698559 172.0
57.767029 160.0
57.924408 132.0
57.950428 228.0
57.969494 188.0
58.007381 160.0
58.030048 160.0
58.059078 208.0
58.139336 192.0
58.19854 168.0
58.261982 176.0
58.306393 188.0
58.426514 176.0
58.457272 148.0
58.484337 232.0
58.540264 332.0
58.559124 168.0
58.583317 176.0
58.652699 120.0
58.669662 140.0
58.68829 196.0
58.698906 228.0
58.752533 180.0
58.775417 172.0
58.80899 332.0
58.830948 276.0
58.850208 184.0
58.888527 172.0
58.98439 96.0
58.998405 164.0
59.024651 120.0
59.168217 168.0
59.186588 192.0
59.205006 160.0
59.257221 140.0
59.270718 104.0
59.28648 164.0
59.323372 144.0
59.418575 156.0
59.439507 236.0
59.464058 160.0
59.477875 156.0
59.505505 172.0
59.53775 160.0
59.558067 136.0
59.571541 144.0
59.633003 164.0
59.657543 132.0
59.706982 172.0
59.801445 120.0
59.826817 152.0
59.891491 176.0
59.934216 120.0
59.949249 180.0
60.003986 204.0
60.029251 124.0
60.044731 132.0
60.179909 168.0
60.199429 96.0
60.369637 232.0
60.388489 152.0
60.428711 140.0
60.49057 148.0
60.551331 188.0
60.589722 160.0
60.723568 208.0
60.782845 212.0
60.82233 156.0
60.837852 172.0
60.904625 204.0
60.915497 140.0
60.935692 172.0
60.969032 184.0
61.017864 156.0
61.050716 144.0
61.147175 144.0
61.234325 188.0
61.25219 124.0
61.300179 144.0
61.344677 140.0
61.419586 252.0
61.45953 108.0
61.496292 232.0
61.566547 172.0
61.625668 160.0
61.700924 144.0
61.726173 188.0
61.741032 172.0
61.760345 156.0
61.793854 152.0
61.818233 164.0
61.837448 200.0
61.873737 156.0
61.885086 248.0
61.949863 112.0
62.049202 164.0
62.157391 168.0
62.177303 156.0
62.206997 180.0
62.238964 364.0
62.257168 160.0
62.313145 340.0
62.330456 208.0
62.383389 156.0
62.419025 140.0
62.434128 188.0
62.508686 148.0
62.55777 192.0
62.639362 144.0
62.655117 152.0
62.670872 164.0
62.808025 180.0
62.832462 144.0
62.884178 220.0
63.006927 188.0
63.029045 144.0
63.054195 140.0
63.105827 176.0
63.123661 196.0
63.141556 208.0
63.177662 160.0
63.231461 168.0
63.252037 188.0
63.457981 184.0
63.470669 144.0
63.518742 204.0
63.588058 164.0
63.676968 176.0
63.79287 140.0
63.810448 164.0
63.846687 192.0
64.026009 196.0
64.077095 148.0
64.123306 100.0
64.19352 164.0
64.23246 232.0
64.366516 152.0
64.435204 144.0
64.447647 180.0
64.470352 288.0
64.510124 160.0
64.610909 128.0
64.626457 148.0
64.647079 164.0
64.671371 208.0
64.726295 216.0
64.782356 176.0
64.851257 156.0
64.966705 140.0
65.061394 208.0
65.096718 144.0
65.141975 176.0
65.157753 180.0
65.220421 144.0
65.373207 264.0
65.453697 152.0
65.467155 212.0
65.574326 204.0
65.641281 164.0
65.657623 164.0
65.725464 152.0
65.750694 168.0
65.790665 292.0
65.843948 156.0
65.858482 152.0
65.875954 216.0
65.898865 196.0
65.946312 144.0
65.980469 96.0
66.0 192.0
66.044357 196.0
66.061661 172.0
66.075256 160.0
66.120956 164.0
66.201347 176.0
66.215919 148.0
66.283638 160.0
66.322357 116.0
66.354614 108.0
66.524078 164.0
66.551147 116.0
66.561935 152.0
66.655548 296.0
66.668304 156.0
66.691307 164.0
66.75383 152.0
66.840179 132.0
66.857193 144.0
66.909279 176.0
66.93045 172.0
66.980141 164.0
67.048592 236.0
67.069351 276.0
67.093376 140.0
67.105339 256.0
67.127701 224.0
67.198784 124.0
67.236115 196.0
67.28083 148.0
67.325745 224.0
67.36795 176.0
67.380608 232.0
67.427994 216.0
67.494278 164.0
67.522591 160.0
67.54081 232.0
67.562073 160.0
67.604073 204.0
67.6754 152.0
67.747063 184.0
67.830635 148.0
67.860764 256.0
67.886612 168.0
67.920822 152.0
67.938866 156.0
67.955864 148.0
68.03405 184.0
68.112083 192.0
68.16674 172.0
68.285454 156.0
68.310486 200.0
68.341385 172.0
68.52845 108.0
68.829491 156.0
68.85405 140.0
68.906906 232.0
68.951523 176.0
69.004417 448.0
69.128845 140.0
69.144341 160.0
69.316086 204.0
69.409241 200.0
69.436607 140.0
69.475342 132.0
69.541649 180.0
69.566025 180.0
69.607536 160.0
69.710526 316.0
69.72216 160.0
69.776917 144.0
69.789131 264.0
69.863487 144.0
69.888443 180.0
69.908417 168.0
70.01329 208.0
70.138252 148.0
70.191597 208.0
70.22538 156.0
70.269508 192.0
70.314667 140.0
70.362434 176.0
70.373474 272.0
70.393547 188.0
70.426003 176.0
70.539909 128.0
70.63752 296.0
70.754822 124.0
70.789825 156.0
70.87059 148.0
70.906525 180.0
70.938942 144.0
71.014397 256.0
71.027214 116.0
71.288048 184.0
71.300056 164.0
71.449905 180.0
71.553925 168.0
71.569588 96.0
71.585793 152.0
71.599266 164.0
71.615372 100.0
71.668335 176.0
71.729202 204.0
71.764877 216.0
71.785126 152.0
71.855621 196.0
71.916229 140.0
71.933205 208.0
71.978691 160.0
72.085114 204.0
72.107086 176.0
72.147652 144.0
72.205833 156.0
72.22036 164.0
72.299095 312.0
72.328651 144.0
72.34626 160.0
72.360695 168.0
72.394684 180.0
72.477684 256.0
72.509552 224.0
72.533607 196.0
72.671341 168.0
72.690666 132.0
72.721886 160.0
72.82766 228.0
72.867081 184.0
72.907005 244.0
72.919647 200.0
72.94194 144.0
73.003029 264.0
73.029411 192.0
73.058754 144.0
73.081505 144.0
73.100212 148.0
73.203964 156.0
73.231956 156.0
73.250694 156.0
73.279655 144.0
73.342735 168.0
73.393112 216.0
73.423225 232.0
73.443748 136.0
73.456955 156.0
73.533737 152.0
73.582191 228.0
73.60202 192.0
73.646423 244.0
73.6689 148.0
73.722084 208.0
73.774574 160.0
73.801933 164.0
73.908012 216.0
73.994255 384.0
74.021729 192.0
74.13401 140.0
74.175064 168.0
74.251434 348.0
74.279747 148.0
74.292915 188.0
74.317482 144.0
74.384415 180.0
74.401581 176.0
74.451866 156.0
74.500397 188.0
74.539406 132.0
74.560066 120.0
74.572403 216.0
74.604301 192.0
74.654938 176.0
74.79554 208.0
74.860664 148.0
74.964859 140.0
75.072571 128.0
75.119194 196.0
75.149521 172.0
75.167503 208.0
75.22963 164.0
75.245171 152.0
75.257256 160.0
75.33152 148.0
75.362617 152.0
75.380829 104.0
75.400635 164.0
75.45153 456.0
75.518883 212.0
75.658363 140.0
75.774155 188.0
75.820175 144.0
75.848518 140.0
75.881851 176.0
75.931503 120.0
75.961624 232.0
75.995308 116.0
76.135857 128.0
76.208763 224.0
76.252647 184.0
76.355904 152.0
76.397644 164.0
76.561256 156.0
76.612671 232.0
76.660683 168.0
76.72036 140.0
76.761658 156.0
76.775612 172.0
76.793053 156.0
76.866325 172.0
76.879745 340.0
76.990265 164.0
77.004234 144.0
77.024323 136.0
77.210365 140.0
77.250877 152.0
77.473732 224.0
77.548363 296.0
77.620239 188.0
77.660011 236.0
77.713203 264.0
77.754318 140.0
77.787697 152.0
77.808174 144.0
77.837822 156.0
77.941338 124.0
77.967339 204.0
77.988914 164.0
78.078232 148.0
78.095856 160.0
78.168068 216.0
78.187172 176.0
78.281906 140.0
78.328506 144.0
78.382118 176.0
78.400406 124.0
78.413406 460.0
78.438004 144.0
78.463577 204.0
78.488884 164.0
78.504753 180.0
78.568253 160.0
78.652008 172.0
78.747284 136.0
78.801025 104.0
78.864914 156.0
78.922073 156.0
78.961349 132.0
78.999298 148.0
79.016731 164.0
79.062996 148.0
79.085724 152.0
79.095245 164.0
79.109016 144.0
79.141777 144.0
79.178711 144.0
79.223991 216.0
79.248749 120.0
79.291267 112.0
79.463715 196.0
79.496002 200.0
79.543953 168.0
79.562294 208.0
79.637421 188.0
79.649857 216.0
79.683609 156.0
79.697823 160.0
79.742348 340.0
79.767044 512.0
79.856972 152.0
79.889618 164.0
79.925362 124.0
80.01326 136.0
80.051933 164.0
80.113213 104.0
80.176598 148.0
80.249367 196.0
80.286758 180.0
80.335312 180.0
80.43869 172.0
80.461479 188.0
80.485107 176.0
80.497604 140.0
80.56012 232.0
80.578819 136.0
80.602997 192.0
80.621094 96.0
80.715607 380.0
80.728668 252.0
80.806831 160.0
80.840828 180.0
80.893517 300.0
81.017288 108.0
81.075424 140.0
81.145775 176.0
81.161461 148.0
81.175812 168.0
81.326508 196.0
81.345779 152.0
81.391037 140.0
81.423462 172.0
81.574074 184.0
81.588768 208.0
81.609688 208.0
81.629837 152.0
81.744957 220.0
81.819046 144.0
81.833015 140.0
81.901878 144.0
81.928185 220.0
81.959145 132.0
82.064072 196.0
82.101936 304.0
82.151543 120.0
82.206947 172.0
82.293213 140.0
82.307655 164.0
82.325958 232.0
82.341965 196.0
82.361748 172.0
82.399704 220.0
82.455055 188.0
82.486511 164.0
82.555344 116.0
82.583725 152.0
82.614906 172.0
82.74118 160.0
82.79953 144.0
82.873489 164.0
82.901299 136.0
82.929977 316.0
82.949913 172.0
83.059883 212.0
83.075035 144.0
83.125839 140.0
83.178581 128.0
83.205704 352.0
83.228462 172.0
83.264366 260.0
83.376442 180.0
83.392799 164.0
83.429153 160.0
83.441879 168.0
83.472794 196.0
83.512535 192.0
83.563736 156.0
83.608192 148.0
83.636528 204.0
83.658234 136.0
83.696602 168.0
83.787674 148.0
83.801651 176.0
83.847801 160.0
83.901588 140.0
83.949074 152.0
83.999138 148.0
84.031975 168.0
84.053589 184.0
84.080215 156.0
84.104362 176.0
84.158493 100.0
84.198082 244.0
84.217384 176.0
84.327797 184.0
84.372459 176.0
84.41555 156.0
84.4814 140.0
84.49791 148.0
84.529884 152.0
84.548004 208.0
84.570053 124.0
84.605835 168.0
84.63147 320.0
84.705414 192.0
84.726707 112.0
84.752357 164.0
84.772377 108.0
84.798172 172.0
84.823204 164.0
84.846642 308.0
84.867828 172.0
84.886169 204.0
84.911842 168.0
85.098061 184.0
85.128395 180.0
85.174309 168.0
85.200356 156.0
85.308037 124.0
85.332352 172.0
85.385582 212.0
85.45755 216.0
85.515404 156.0
85.542068 192.0
85.556801 188.0
85.591782 192.0
85.656242 260.0
85.685547 216.0
85.715576 172.0
85.743584 152.0
85.772324 144.0
85.800529 160.0
85.833168 180.0
85.858986 188.0
85.899559 160.0
85.94384 152.0
86.020477 160.0
86.052734 188.0
86.116074 160.0
86.164345 120.0
86.219078 252.0
86.284729 196.0
86.313934 152.0
86.349464 172.0
86.403221 168.0
86.432915 212.0
86.454689 164.0
86.539787 140.0
86.652931 216.0
86.715256 184.0
86.736122 292.0
86.75946 416.0
86.774345 148.0
86.790977 152.0
86.821159 160.0
86.854034 284.0
86.882233 100.0
86.952789 124.0
86.983551 140.0
87.11982 176.0
87.254486 128.0
87.377892 144.0
87.429703 300.0
87.446373 140.0
87.478386 176.0
87.491417 140.0
87.570732 100.0
87.634819 172.0
87.65036 204.0
87.745834 192.0
87.811333 180.0
87.890846 232.0
87.923851 144.0
88.022797 208.0
88.099373 196.0
88.131126 180.0
88.189064 176.0
88.203384 320.0
88.255638 312.0
88.312462 184.0
88.344078 160.0
88.38089 236.0
88.402267 144.0
88.438156 204.0
88.490234 172.0
88.507088 176.0
88.521957 176.0
88.551216 108.0
88.570312 132.0
88.673576 156.0
88.710945 188.0
88.726295 180.0
88.780739 224.0
88.851234 136.0
88.92701 200.0
88.942024 140.0
89.03215 164.0
89.057312 160.0
89.077225 240.0
89.099464 124.0
89.144234 168.0
89.268929 148.0
89.344162 208.0
89.407272 192.0
89.452461 196.0
89.489456 188.0
89.628349 136.0
89.744354 164.0
89.809441 140.0
89.832588 148.0
89.875755 156.0
89.906548 148.0
89.98101 144.0
89.999878 244.0
90.098251 180.0
90.19841 176.0
90.224876 192.0
90.255127 184.0
90.327759 128.0
90.43882 148.0
90.488602 140.0
90.520035 144.0
90.552582 172.0
90.574326 148.0
90.686752 184.0
90.77494 168.0
90.863106 180.0
90.899155 140.0
90.961784 144.0
90.994873 232.0
91.071625 132.0
91.10611 172.0
91.201118 224.0
91.253227 184.0
91.398895 184.0
91.443604 204.0
91.488411 184.0
91.554993 180.0
91.640709 148.0
91.74585 96.0
91.76841 216.0
91.846848 152.0
91.871941 224.0
91.953445 152.0
91.968712 160.0
91.99353 140.0
92.012421 116.0
92.052536 168.0
92.111923 148.0
92.188347 216.0
92.216133 156.0
92.269493 132.0
92.368065 196.0
92.389107 172.0
92.41172 132.0
92.538383 144.0
92.558258 124.0
92.587692 144.0
92.62265 152.0
92.644081 148.0
92.66671 188.0
92.706787 144.0
92.760727 148.0
92.776672 148.0
92.858398 240.0
92.908272 176.0
92.935371 156.0
92.995102 180.0
93.138367 208.0
93.169357 184.0
93.217392 152.0
93.285393 116.0
93.32888 204.0
93.448837 120.0
93.507782 144.0
93.542305 124.0
93.602112 152.0
93.701118 140.0
93.725388 188.0
93.817902 144.0
93.853325 372.0
93.889244 160.0
93.917549 172.0
93.951836 172.0
94.014641 172.0
94.033936 164.0
94.056847 120.0
94.174881 156.0
94.190338 148.0
94.288246 160.0
94.336319 176.0
94.376686 184.0
94.495773 340.0
94.534477 140.0
94.578018 136.0
94.637642 148.0
94.76609 208.0
94.821091 228.0
94.91449 268.0
94.97419 196.0
95.023323 208.0
95.125954 228.0
95.192139 152.0
95.234352 364.0
95.391739 144.0
95.413124 152.0
95.471458 176.0
95.525032 132.0
95.58519 224.0
95.609207 124.0
95.632889 164.0
95.650452 172.0
95.771179 216.0
95.796959 188.0
95.843262 212.0
95.885674 168.0
95.937119 176.0
96.067467 192.0
96.083069 336.0
96.118195 124.0
96.159035 168.0
96.270706 152.0
96.318253 168.0
96.370804 160.0
96.487335 164.0
96.519264 228.0
96.537819 176.0
96.566269 208.0
96.595764 108.0
96.63166 308.0
96.658577 172.0
96.723808 136.0
96.823898 184.0
96.866989 252.0
96.947319 160.0
96.988472 192.0
97.08062 168.0
97.102257 124.0
97.133575 196.0
97.210091 180.0
97.236115 108.0
97.270935 152.0
97.337273 152.0
97.370087 176.0
97.442978 132.0
97.463394 156.0
97.489319 180.0
97.599022 428.0
97.643242 180.0
97.674965 128.0
97.773636 172.0
97.867714 176.0
97.927666 164.0
97.958725 136.0
97.991882 108.0
98.125336 140.0
98.202011 184.0
98.254532 224.0
98.359474 176.0
98.378487 196.0
98.406853 140.0
98.539833 180.0
98.556961 152.0
98.577095 188.0
98.606361 188.0
98.621239 160.0
98.64151 128.0
98.704552 192.0
98.774887 188.0
98.806122 240.0
98.86544 140.0
98.882774 352.0
98.911118 152.0
98.986763 152.0
99.071732 208.0
99.182327 172.0
99.20256 152.0
99.248787 168.0
99.271309 204.0
99.287407 360.0
99.303391 140.0
99.362785 152.0
99.388306 116.0
99.422211 160.0
99.547379 180.0
99.562401 276.0
99.59716 176.0
99.652649 164.0
99.686485 140.0
99.811661 220.0
99.969254 160.0
100.15197 168.0
100.20974 160.0
100.282776 148.0
100.492859 196.0
100.518448 204.0
100.622589 192.0
100.649063 120.0
100.681068 196.0
100.74572 208.0
100.832329 180.0
100.913307 172.0
100.932671 144.0
101.037582 104.0
101.059052 176.0
101.19239 320.0
101.228737 156.0
101.262474 140.0
101.282501 220.0
101.314613 136.0
101.382683 208.0
101.402718 204.0
101.436104 244.0
101.504959 184.0
101.711601 292.0
101.809982 180.0
101.848145 208.0
101.874252 328.0
101.906364 128.0
102.057144 348.0
102.131645 172.0
102.182152 132.0
102.219589 164.0
102.268372 184.0
102.28756 180.0
102.381508 184.0
102.460701 196.0
102.539505 176.0
102.674561 112.0
102.690788 196.0
102.719727 140.0
102.745949 156.0
102.775627 124.0
102.909424 176.0
103.052299 244.0
103.066971 152.0
103.131638 164.0
103.178131 140.0
103.233376 360.0
103.331841 308.0
103.388855 168.0
103.471481 220.0
103.569931 176.0
103.668251 140.0
103.796387 192.0
103.844337 200.0
103.888962 152.0
103.935265 112.0
104.022896 436.0
104.048981 212.0
104.065529 168.0
104.107773 164.0
104.241211 148.0
104.261841 144.0
104.313377 160.0
104.368622 116.0
104.396736 152.0
104.427933 180.0
104.521736 204.0
104.779396 148.0
104.79985 208.0
104.83004 164.0
104.952637 304.0
104.972267 300.0
104.991386 184.0
105.01178 180.0
105.049133 192.0
105.091339 160.0
105.216515 148.0
105.318604 148.0
105.408997 160.0
105.442566 216.0
105.485519 160.0
105.508743 332.0
105.544579 204.0
105.583633 200.0
105.616646 140.0
105.710464 144.0
105.835556 224.0
105.872192 156.0
105.909218 148.0
105.97448 128.0
106.025696 176.0
106.1175 128.0
106.155815 144.0
106.23246 176.0
106.270187 124.0
106.298576 152.0
106.314995 152.0
106.353989 180.0
106.393349 184.0
106.421471 188.0
106.476692 144.0
106.522369 192.0
106.608841 180.0
106.625099 140.0
106.65976 144.0
106.692932 180.0
106.709381 152.0
106.822487 152.0
106.954826 140.0
107.115868 148.0
107.154503 144.0
107.190384 152.0
107.316757 204.0
107.390991 156.0
107.409798 104.0
107.489372 140.0
107.511673 204.0
107.645477 128.0
107.661354 148.0
107.68486 200.0
107.717117 172.0
107.750175 180.0
107.783577 192.0
107.799492 244.0
107.953407 196.0
108.031578 100.0
108.09465 176.0
108.17009 144.0
108.25486 164.0
108.301338 132.0
108.329422 184.0
108.383293 176.0
108.399864 140.0
108.421097 148.0
108.470337 212.0
108.506721 304.0
108.678253 156.0
108.737236 176.0
108.887383 140.0
108.999298 128.0
109.244316 144.0
109.315636 180.0
109.390564 348.0
109.423866 160.0
109.503059 140.0
109.545876 164.0
109.610252 148.0
109.646751 188.0
109.826057 160.0
110.036819 152.0
110.05127 136.0
110.074036 180.0
110.145416 212.0
110.210175 200.0
110.316765 168.0
110.370972 164.0
110.382141 208.0
110.474045 132.0
110.490341 168.0
110.522423 268.0
110.559387 144.0
110.596222 120.0
110.659645 156.0
110.695564 236.0
110.731056 260.0
110.809586 184.0
110.858269 172.0
110.882011 152.0
110.933235 168.0
111.029648 148.0
111.049629 208.0
111.089607 140.0
111.156624 212.0
111.191101 128.0
111.254814 240.0
111.30146 352.0
111.317757 240.0
111.392845 156.0
111.413406 120.0
111.452263 304.0
111.520042 164.0
111.547264 164.0
111.718063 216.0
111.759674 152.0
111.893883 292.0
112.119759 204.0
112.167747 172.0
112.243347 140.0
112.26944 212.0
112.362968 208.0
112.390869 156.0
112.508942 188.0
112.618294 176.0
112.650391 128.0
112.712486 208.0
112.782417 144.0
112.822227 144.0
112.841232 328.0
112.911446 160.0
112.926254 164.0
112.950645 128.0
112.970673 160.0
112.989716 108.0
113.022583 900.0
113.054207 104.0
113.102837 160.0
113.151848 164.0
113.29245 156.0
113.464104 212.0
113.547523 176.0
113.590813 144.0
113.622047 152.0
113.6847 168.0
113.735634 164.0
113.758804 140.0
113.778091 204.0
113.801834 152.0
113.834129 192.0
113.85099 128.0
113.888786 156.0
113.969238 148.0
113.992615 192.0
114.052124 196.0
114.074791 252.0
114.104286 156.0
114.122276 204.0
114.143394 180.0
114.212799 188.0
114.256775 100.0
114.279785 144.0
114.294563 320.0
114.363266 192.0
114.434441 172.0
114.531471 156.0
114.71199 172.0
114.746101 160.0
114.796936 204.0
114.829262 156.0
114.863937 156.0
114.916725 144.0
115.050438 292.0
115.078934 148.0
115.153671 160.0
115.226295 176.0
115.313911 148.0
115.382637 184.0
115.41539 212.0
115.432571 164.0
115.508949 128.0
115.641144 172.0
115.773727 168.0
115.799576 120.0
115.85527 176.0
115.923653 188.0
116.07357 164.0
116.106842 184.0
116.144188 164.0
116.168251 208.0
116.202225 176.0
116.234764 172.0
116.260399 152.0
116.302155 140.0
116.354958 144.0
116.384521 156.0
116.451591 208.0
116.494545 148.0
116.528923 140.0
116.57312 140.0
116.601982 164.0
116.64444 196.0
116.696564 172.0
116.735268 148.0
116.773979 164.0
116.797638 152.0
116.834206 180.0
116.896606 140.0
117.015442 132.0
117.058792 184.0
117.094658 152.0
117.145927 140.0
117.225891 140.0
117.266632 120.0
117.310127 164.0
117.336395 176.0
117.3554 188.0
117.387749 176.0
117.428726 172.0
117.454605 140.0
117.478333 232.0
117.571892 144.0
117.605644 168.0
117.624443 176.0
117.64666 372.0
117.6996 176.0
117.769737 168.0
117.840744 152.0
117.868416 136.0
117.93541 172.0
118.143822 144.0
118.168121 208.0
118.185417 184.0
118.278107 180.0
118.290848 188.0
118.391533 144.0
118.427803 292.0
118.450531 124.0
118.489388 212.0
118.521049 344.0
118.586952 188.0
118.637451 184.0
118.654793 212.0
118.683945 216.0
118.723999 144.0
118.759575 176.0
118.795761 152.0
118.862503 152.0
118.907425 112.0
118.957436 192.0
118.992096 196.0
119.028786 152.0
119.07576 164.0
119.138321 160.0
119.245224 200.0
119.262611 148.0
119.499649 168.0
119.539032 196.0
119.569283 152.0
119.619217 140.0
119.681221 132.0
119.697533 188.0
119.74781 200.0
119.809113 176.0
119.864227 264.0
119.885933 200.0
120.034126 104.0
120.068481 144.0
120.098717 172.0
120.12191 200.0
120.148888 208.0
120.172356 196.0
120.227074 144.0
120.347496 120.0
120.383492 216.0
120.452324 160.0
120.496803 184.0
120.602409 252.0
120.626205 132.0
120.723335 252.0
120.745209 156.0
120.792213 132.0
120.853981 176.0
120.959946 192.0
120.986153 240.0
121.013992 144.0
121.049393 140.0
121.072388 152.0
121.089714 208.0
121.161095 156.0
121.265373 184.0
121.289261 220.0
121.330788 140.0
121.37381 152.0
121.441681 152.0
121.620888 136.0
121.643402 152.0
121.677299 268.0
121.720749 172.0
121.74894 160.0
121.838989 140.0
121.888794 372.0
121.927505 156.0
121.935677 148.0
122.053001 172.0
122.1036 264.0
122.131355 248.0
122.173149 152.0
122.246712 212.0
122.447525 184.0
122.526749 104.0
122.634483 260.0
122.699013 128.0
122.725952 148.0
122.821884 196.0
122.873184 180.0
122.947716 168.0
122.996979 164.0
123.021584 140.0
123.060501 148.0
123.094444 172.0
123.177345 164.0
123.259743 96.0
123.295471 168.0
123.328621 160.0
123.372833 200.0
123.425896 148.0
123.448853 168.0
123.603012 168.0
123.619804 196.0
123.672058 176.0
123.740486 216.0
123.813148 240.0
123.828651 144.0
123.876518 164.0
123.895988 240.0
123.930557 152.0
124.01049 112.0
124.114525 144.0
124.143181 208.0
124.25338 172.0
124.329697 164.0
124.365204 176.0
124.412766 128.0
124.500107 192.0
124.518402 308.0
124.5495 156.0
124.588959 136.0
124.614708 168.0
124.693916 148.0
124.719612 172.0
124.758377 144.0
124.778076 136.0
124.809517 192.0
124.953712 96.0
124.978561 296.0
125.027512 176.0
125.053932 184.0
125.177322 108.0
125.204697 136.0
125.254616 152.0
125.326523 144.0
125.367653 228.0
125.401535 128.0
125.430763 156.0
125.460182 96.0
125.526512 148.0
125.583992 176.0
125.599617 180.0
125.624649 328.0
125.670692 224.0
125.702736 184.0
125.718361 188.0
125.740677 224.0
125.766861 104.0
125.954445 124.0
125.983765 152.0
126.030029 132.0
126.087898 340.0
126.148781 148.0
126.165993 156.0
126.288063 156.0
126.316376 164.0
126.359642 196.0
126.377541 144.0
126.426422 260.0
126.47377 220.0
126.503105 272.0
126.576591 196.0
126.612587 200.0
126.649284 232.0
126.692131 148.0
126.75029 156.0
126.844376 124.0
126.867638 164.0
126.896461 204.0
126.954071 200.0
126.973404 156.0
127.09005 144.0
127.239487 372.0
127.291504 316.0
127.343941 148.0
127.384155 164.0
127.584908 180.0
127.66938 124.0
127.705353 180.0
127.76445 116.0
127.93235 188.0
128.009872 128.0
128.031525 116.0
128.187363 352.0
128.250946 232.0
128.314651 132.0
128.341766 96.0
128.381226 144.0
128.525848 180.0
128.566208 160.0
128.628891 124.0
128.65892 164.0
128.77063 124.0
128.839417 156.0
128.90152 172.0
128.920639 152.0
128.958191 160.0
128.981781 140.0
129.027069 172.0
129.045853 284.0
129.074539 636.0
129.171722 172.0
129.198868 164.0
129.33107 132.0
129.357285 176.0
129.375381 364.0
129.418045 128.0
129.495392 180.0
129.552902 176.0
129.661987 296.0
129.803604 280.0
129.826019 136.0
129.967346 152.0
130.039536 296.0
130.057693 232.0
130.157089 148.0
130.237076 244.0
130.252136 156.0
130.293869 180.0
130.322906 128.0
130.361008 148.0
130.393143 116.0
130.466507 128.0
130.522842 172.0
130.539825 188.0
130.56662 180.0
130.596191 392.0
130.648514 160.0
130.664444 140.0
130.709946 180.0
130.775406 188.0
130.865921 204.0
130.939865 152.0
130.96492 148.0
131.000092 352.0
131.13353 204.0
131.229553 192.0
131.263474 176.0
131.284821 140.0
131.315918 192.0
131.53952 176.0
131.555511 140.0
131.639984 220.0
131.660538 140.0
131.739792 184.0
131.816986 132.0
131.852432 152.0
131.941589 148.0
131.981628 152.0
132.090225 176.0
132.215637 168.0
132.25412 140.0
132.316788 172.0
132.415253 176.0
132.451889 144.0
132.53009 224.0
132.561859 148.0
132.594543 168.0
132.621445 152.0
132.659561 248.0
132.759766 168.0
132.779648 184.0
133.025162 140.0
133.045029 208.0
133.183594 176.0
133.234009 224.0
133.276093 256.0
133.309952 184.0
133.354752 188.0
133.55365 168.0
133.574356 152.0
133.635666 136.0
133.687714 228.0
133.758499 172.0
133.83902 196.0
133.972122 216.0
134.062454 172.0
134.088577 184.0
134.107697 108.0
134.130966 204.0
134.155594 108.0
134.230743 224.0
134.295502 140.0
134.406204 168.0
134.523743 176.0
134.680771 184.0
134.813873 100.0
134.8358 192.0
134.864502 192.0
134.923401 220.0
134.93959 180.0
134.962708 196.0
135.004333 304.0
135.054504 324.0
135.091934 132.0
135.116943 104.0
135.156525 176.0
135.187088 140.0
135.252304 240.0
135.325958 156.0
135.395493 152.0
135.424255 188.0
135.458496 388.0
135.479782 196.0
135.508682 112.0
135.597488 112.0
135.61554 148.0
135.66571 136.0
135.718658 280.0
135.764359 104.0
135.773575 120.0
135.806564 168.0
135.890961 176.0
135.90657 144.0
135.930939 160.0
135.975021 184.0
136.011505 184.0
136.048172 132.0
136.078125 292.0
136.118103 328.0
136.172363 276.0
136.195221 180.0
136.220871 168.0
136.295486 208.0
136.393585 152.0
136.467499 184.0
136.602371 164.0
136.638336 236.0
136.66481 148.0
136.695435 192.0
136.720535 112.0
136.791885 220.0
136.837418 144.0
136.893311 256.0
136.963684 128.0
136.998123 140.0
137.039673 188.0
137.18544 336.0
137.213913 220.0
137.253708 156.0
137.306122 172.0
137.422424 156.0
137.438751 172.0
137.516815 152.0
137.546112 180.0
137.632187 184.0
137.657471 132.0
137.675995 224.0
137.736725 108.0
137.786636 160.0
137.821899 132.0
137.848648 208.0
137.868423 148.0
137.923401 160.0
137.959579 216.0
138.044907 128.0
138.131332 160.0
138.158752 164.0
138.184097 212.0
138.269653 184.0
138.317474 152.0
138.404099 156.0
138.51886 144.0
138.544632 188.0
138.571289 212.0
138.603195 164.0
138.721954 160.0
138.81105 148.0
138.864594 168.0
138.907974 188.0
138.924408 144.0
138.950378 108.0
138.967972 160.0
138.990097 140.0
139.054764 248.0
139.078354 172.0
139.235565 116.0
139.274811 144.0
139.316437 168.0
139.433258 228.0
139.553802 160.0
139.576614 132.0
139.666901 324.0
139.752792 220.0
139.79454 292.0
139.955078 276.0
140.01442 128.0
140.05014 1796.0
140.091614 104.0
140.1353 148.0
140.263245 148.0
140.309555 180.0
140.354126 164.0
140.374054 192.0
140.397644 204.0
140.447174 304.0
140.4888 136.0
140.583176 220.0
140.668777 192.0
140.688705 152.0
140.746506 264.0
140.783096 156.0
140.807449 152.0
140.953918 356.0
141.00354 196.0
141.069992 524.0
141.195831 192.0
141.279709 176.0
141.363174 376.0
141.412308 144.0
141.44751 152.0
141.518204 212.0
141.578781 204.0
141.617172 240.0
141.651413 196.0
141.730026 144.0
141.764725 200.0
141.821487 188.0
141.860382 144.0
141.891968 212.0
142.058014 352.0
142.10939 236.0
142.175964 188.0
142.267639 152.0
142.342636 212.0
142.371231 168.0
142.433334 180.0
142.451965 148.0
142.517776 216.0
142.576141 148.0
142.593582 160.0
142.648636 188.0
142.686737 184.0
142.741425 164.0
142.765579 112.0
142.786896 172.0
142.821457 124.0
142.928024 296.0
142.951035 176.0
142.98848 132.0
143.029083 156.0
143.059464 168.0
143.102417 184.0
143.197174 180.0
143.316437 200.0
143.340897 108.0
143.386353 152.0
143.496002 176.0
143.579453 184.0
143.611862 164.0
143.667709 236.0
143.784348 136.0
143.84668 140.0
143.932037 144.0
143.969543 132.0
144.010834 164.0
144.074188 504.0
144.195145 148.0
144.219315 184.0
144.243134 224.0
144.286362 152.0
144.327011 164.0
144.357422 244.0
144.422546 140.0
144.514587 244.0
144.604263 160.0
144.634644 360.0
144.673798 180.0
144.706284 120.0
144.789001 292.0
144.812576 184.0
144.87178 148.0
144.929565 96.0
145.06427 272.0
145.08345 148.0
145.217911 164.0
145.249649 104.0
145.279999 188.0
145.308884 140.0
145.328079 148.0
145.377487 204.0
145.393784 120.0
145.419266 140.0
145.458282 172.0
145.496078 168.0
145.671387 160.0
145.695526 260.0
145.815018 548.0
145.930557 124.0
146.011673 140.0
146.095963 260.0
146.156631 156.0
146.201172 136.0
146.217377 152.0
146.277359 164.0
146.313629 128.0
146.336731 176.0
146.366272 168.0
146.375519 156.0
146.46907 268.0
146.59642 144.0
146.629791 176.0
146.67308 248.0
146.739899 168.0
146.757874 176.0
146.831543 152.0
146.89183 192.0
146.909805 260.0
146.96994 152.0
147.051712 168.0
147.09079 116.0
147.125916 140.0
147.166962 200.0
147.187317 148.0
147.330017 132.0
147.376984 184.0
147.411407 120.0
147.467972 236.0
147.490173 212.0
147.562531 156.0
147.582535 140.0
147.679276 140.0
147.710144 140.0
147.839813 168.0
147.873581 168.0
147.948242 156.0
147.981186 140.0
148.004944 188.0
148.069824 212.0
148.122223 144.0
148.151291 148.0
148.171829 168.0
148.293747 96.0
148.374344 188.0
148.41304 172.0
148.483368 212.0
148.531342 128.0
148.573105 148.0
148.591095 148.0
148.649567 156.0
148.767532 140.0
148.820999 172.0
148.908081 244.0
148.942032 172.0
149.087296 168.0
149.10434 304.0
149.15744 172.0
149.208939 168.0
149.276245 212.0
149.337296 160.0
149.359467 208.0
149.41452 128.0
149.479614 168.0
149.582733 200.0
149.622986 184.0
149.697037 96.0
149.785309 164.0
149.83902 328.0
149.875 144.0
149.966446 208.0
150.020081 192.0
150.049118 292.0
150.090271 656.0
150.112717 252.0
150.16394 160.0
150.195572 148.0
150.220032 148.0
150.237106 212.0
150.26358 116.0
150.292603 192.0
150.352386 132.0
150.436829 124.0
150.549698 116.0
150.607712 180.0
150.636475 200.0
150.66893 136.0
150.686523 200.0
150.735809 284.0
150.773956 148.0
150.881836 148.0
150.928299 168.0
150.974747 284.0
151.054031 1064.0
151.123489 2076.0
151.224304 176.0
151.287689 152.0
151.366287 256.0
151.415268 152.0
151.505325 208.0
151.542648 156.0
151.586746 172.0
151.664352 248.0
151.739182 256.0
151.768143 144.0
151.886826 172.0
151.912842 156.0
151.932465 200.0
151.97171 180.0
152.062836 4288.0
152.123306 176.0
152.153534 152.0
152.307526 188.0
152.420746 396.0
152.440704 296.0
152.511978 176.0
152.542404 288.0
152.577576 192.0
152.609711 260.0
152.807678 132.0
152.856888 156.0
152.919083 116.0
152.949799 204.0
152.970505 144.0
153.011353 172.0
153.070816 7416.0
153.150681 276.0
153.208374 156.0
153.339783 224.0
153.480881 116.0
153.504135 156.0
153.56308 132.0
153.679962 172.0
153.71875 312.0
153.750824 160.0
153.790451 140.0
153.86203 168.0
153.895737 204.0
153.920822 116.0
153.97876 136.0
154.072098 1376.0
154.10289 216.0
154.167267 128.0
154.226807 144.0
154.456528 160.0
154.487137 152.0
154.506226 112.0
154.548981 216.0
154.578171 348.0
154.624298 196.0
154.669495 132.0
154.841599 156.0
154.860901 180.0
154.984772 216.0
155.052109 196.0
155.074982 320.0
155.108749 132.0
155.134842 144.0
155.15744 180.0
155.24704 164.0
155.314484 156.0
155.418686 152.0
155.490646 292.0
155.524292 136.0
155.572723 116.0
155.624695 184.0
155.679321 140.0
155.706635 184.0
155.746384 200.0
155.913757 164.0
155.962036 96.0
156.006348 192.0
156.037125 144.0
156.080246 164.0
156.108398 276.0
156.209961 108.0
156.244461 240.0
156.303253 244.0
156.367645 96.0
156.41774 228.0
156.44014 236.0
156.486404 220.0
156.569214 196.0
156.584702 204.0
156.649521 152.0
156.700607 192.0
156.756454 160.0
156.947006 144.0
157.007034 168.0
157.076706 196.0
157.093262 120.0
157.188538 204.0
157.303757 264.0
157.382401 140.0
157.437851 108.0
157.492493 156.0
157.537384 252.0
157.608856 132.0
157.654251 140.0
157.818054 120.0
157.932327 152.0
157.997375 160.0
158.053589 136.0
158.097458 176.0
158.168579 228.0
158.217606 188.0
158.256531 196.0
158.354614 156.0
158.500168 152.0
158.545731 152.0
158.571579 164.0
158.612244 216.0
158.648499 188.0
158.718353 148.0
158.788223 264.0
158.919357 212.0
159.04483 184.0
159.090012 176.0
159.150269 164.0
159.185791 144.0
159.227234 148.0
159.237656 180.0
159.285248 172.0
159.328583 196.0
159.39743 208.0
159.435654 176.0
159.554779 160.0
159.709427 256.0
159.766022 164.0
159.849045 156.0
159.906937 168.0
159.963531 156.0
160.173828 156.0
160.219879 172.0
160.269562 120.0
160.297272 176.0
160.324997 188.0
160.454651 220.0
160.515442 168.0
160.716766 144.0
160.761276 184.0
160.882706 108.0
160.916458 264.0
161.035507 128.0
161.060272 280.0
161.108459 436.0
161.183685 172.0
161.227539 208.0
161.311874 144.0
161.354782 148.0
161.370728 200.0
161.496033 176.0
161.602585 176.0
161.632812 120.0
161.679733 164.0
161.7267 156.0
161.763336 112.0
161.803101 196.0
161.86087 156.0
161.880142 160.0
161.924301 168.0
161.959641 180.0
162.06189 144.0
162.117371 252.0
162.248718 164.0
162.287918 216.0
162.428391 160.0
162.474243 144.0
162.501801 208.0
162.557968 164.0
162.598373 160.0
162.634094 304.0
162.673706 160.0
162.731995 328.0
162.770172 280.0
162.79509 104.0
162.86586 144.0
162.895645 144.0
162.973679 200.0
163.007431 176.0
163.05423 1180.0
163.08461 404.0
163.122589 1800.0
163.21669 248.0
163.305862 124.0
163.472778 284.0
163.531311 216.0
163.551682 152.0
163.59874 164.0
163.656982 152.0
163.689148 140.0
163.811401 264.0
163.840851 200.0
163.896774 236.0
163.938293 140.0
164.060013 532.0
164.120255 252.0
164.269653 136.0
164.325211 132.0
164.367203 184.0
164.40802 152.0
164.448914 252.0
164.492249 168.0
164.526794 136.0
164.602036 196.0
164.622467 140.0
164.679443 168.0
164.710602 236.0
164.816605 164.0
164.91626 176.0
164.937515 156.0
165.069275 2968.0
165.105164 208.0
165.124969 320.0
165.152023 176.0
165.304993 236.0
165.334351 304.0
165.467575 124.0
165.671463 152.0
165.701309 128.0
165.838684 164.0
165.869217 172.0
165.887329 140.0
165.94223 112.0
166.042786 164.0
166.070358 1296.0
166.109482 148.0
166.135132 172.0
166.282806 196.0
166.399139 232.0
166.481628 164.0
166.527634 180.0
166.553543 168.0
166.573639 136.0
166.697815 156.0
166.759094 176.0
166.804565 192.0
166.843491 120.0
166.939819 148.0
167.02977 176.0
167.075134 2136.0
167.146683 112.0
167.197144 136.0
167.248016 220.0
167.317108 172.0
167.352783 132.0
167.601395 144.0
167.621017 104.0
167.664124 160.0
167.749847 132.0
167.798904 200.0
167.862946 196.0
167.946945 180.0
168.00209 132.0
168.068176 364.0
168.077438 176.0
168.168808 384.0
168.277832 136.0
168.345505 104.0
168.364761 136.0
168.472641 124.0
168.503647 256.0
168.703781 144.0
168.729568 192.0
168.815918 128.0
168.869995 304.0
168.903046 292.0
168.953247 172.0
168.98439 152.0
169.036285 168.0
169.067062 224.0
169.138809 188.0
169.195419 132.0
169.229202 240.0
169.287369 156.0
169.36438 208.0
169.410721 144.0
169.429825 140.0
169.50827 184.0
169.559387 168.0
169.5867 116.0
169.637146 168.0
169.680267 164.0
169.753067 152.0
169.791275 180.0
169.820801 164.0
169.964874 144.0
170.079544 204.0
170.107361 164.0
170.159424 148.0
170.193405 212.0
170.220169 112.0
170.403992 148.0
170.429626 184.0
170.454697 360.0
170.498871 164.0
170.536911 264.0
170.611389 240.0
170.702713 124.0
170.732849 164.0
170.767563 184.0
170.799255 192.0
170.821274 140.0
170.844696 176.0
170.939789 116.0
171.024231 176.0
171.084106 176.0
171.113876 128.0
171.159607 144.0
171.251968 172.0
171.296631 188.0
171.317245 140.0
171.396637 164.0
171.477432 176.0
171.544464 100.0
171.576477 168.0
171.7061 164.0
171.748001 336.0
171.839828 156.0
171.867813 320.0
171.912949 216.0
171.932526 240.0
171.96167 120.0
172.002441 140.0
172.097351 112.0
172.198746 152.0
172.254974 172.0
172.339447 144.0
172.450699 216.0
172.523499 164.0
172.586884 180.0
172.605194 188.0
172.633102 124.0
172.663239 200.0
172.720978 116.0
172.757187 140.0
172.84169 280.0
172.876175 128.0
172.904541 240.0
172.925201 160.0
172.981934 152.0
173.000259 144.0
173.028442 280.0
173.066315 180.0
173.112839 152.0
173.169754 164.0
173.234528 164.0
173.278946 96.0
173.302078 244.0
173.33812 160.0
173.377975 160.0
173.554947 172.0
173.581238 160.0
173.629105 188.0
173.685059 120.0
173.745499 308.0
173.797958 172.0
173.865143 156.0
173.949203 204.0
174.107971 256.0
174.161896 192.0
174.230194 164.0
174.260864 172.0
174.307343 144.0
174.370331 168.0
174.511414 172.0
174.592926 176.0
174.650787 160.0
174.684097 144.0
174.717758 212.0
174.919174 200.0
174.988922 184.0
175.011322 168.0
175.085556 148.0
175.123703 432.0
175.143494 192.0
175.162964 148.0
175.218826 148.0
175.248367 144.0
175.268967 176.0
175.318619 188.0
175.389191 164.0
175.418488 152.0
175.469833 164.0
175.509308 148.0
175.530212 108.0
175.682297 196.0
175.76709 104.0
175.901413 168.0
176.018814 108.0
176.061218 616.0
176.129639 136.0
176.169327 148.0
176.194778 476.0
176.244537 192.0
176.323624 196.0
176.351715 216.0
176.388443 152.0
176.412231 152.0
176.479584 176.0
176.513367 156.0
176.586746 156.0
176.644943 152.0
176.692551 140.0
176.722931 108.0
176.762482 164.0
176.864639 128.0
176.904266 176.0
176.92923 176.0
176.966721 304.0
176.986267 152.0
177.033478 340.0
177.068375 436.0
177.10318 64044.0
177.344635 232.0
177.369965 124.0
177.412521 104.0
177.447891 192.0
177.562119 232.0
177.672913 176.0
177.699493 124.0
177.77298 460.0
177.795853 148.0
177.844757 144.0
177.865326 180.0
177.96051 284.0
178.032532 292.0
178.078064 45912.0
178.104935 5000.0
178.145645 152.0
178.182312 180.0
178.187286 172.0
178.237183 140.0
178.288895 112.0
178.339218 240.0
178.374039 172.0
178.406143 192.0
178.428009 192.0
178.519379 140.0
178.617859 136.0
178.690323 156.0
178.717865 180.0
178.740875 192.0
178.810822 100.0
178.881439 176.0
178.963028 180.0
178.989822 280.0
179.036438 160.0
179.085037 24860.0
179.162262 144.0
179.289825 220.0
179.453613 292.0
179.512177 268.0
179.542648 108.0
179.589645 200.0
179.642715 136.0
179.66153 320.0
179.681 132.0
179.764557 216.0
179.846283 116.0
179.930557 156.0
179.975342 504.0
179.998306 428.0
180.021683 148.0
180.081833 55032.0
180.142776 112.0
180.161072 216.0
180.185806 176.0
180.243774 324.0
180.279984 204.0
180.299438 96.0
180.327103 188.0
180.358902 136.0
180.380127 188.0
180.405075 220.0
180.43721 140.0
180.499924 124.0
180.532104 128.0
180.657501 288.0
180.737778 96.0
180.83493 288.0
180.86171 140.0
180.907913 224.0
181.001755 152.0
181.031219 212.0
181.084305 6212.0
181.166656 176.0
181.18924 172.0
181.225967 176.0
181.321579 220.0
181.549637 220.0
181.591583 232.0
181.650345 208.0
182.003433 184.0
182.056442 144.0
182.091492 700.0
182.129532 188.0
182.208328 108.0
182.254395 300.0
182.274475 204.0
182.311905 172.0
182.380432 276.0
182.454834 236.0
182.521255 244.0
182.599533 144.0
182.675339 196.0
182.743149 216.0
182.787079 328.0
182.82164 128.0
182.960663 192.0
183.021622 132.0
183.066452 404.0
183.131393 156.0
183.157135 100.0
183.25824 180.0
183.304565 156.0
183.327484 168.0
183.36351 176.0
183.395615 136.0
183.422394 140.0
183.443115 180.0
183.557907 224.0
183.636322 292.0
183.706879 104.0
183.862549 124.0
183.885803 156.0
184.073456 372.0
184.100159 268.0
184.220261 160.0
184.244812 120.0
184.284729 168.0
184.386612 164.0
184.430527 156.0
184.49678 288.0
184.522369 220.0
184.550781 164.0
184.574829 148.0
184.641861 164.0
184.824036 192.0
184.876099 244.0
184.925476 140.0
184.946442 156.0
184.973587 184.0
185.094711 188.0
185.181366 144.0
185.371063 212.0
185.428558 116.0
185.538467 128.0
185.650223 188.0
185.726166 124.0
185.763596 160.0
185.803192 152.0
185.850952 148.0
185.878098 132.0
185.925415 128.0
186.017441 192.0
186.143967 156.0
186.196854 160.0
186.245209 184.0
186.315216 248.0
186.51416 268.0
186.551071 188.0
186.637131 116.0
186.72023 140.0
186.739273 168.0
186.792358 232.0
186.87558 148.0
187.04129 164.0
187.09845 216.0
187.125671 168.0
187.195419 244.0
187.255478 120.0
187.454926 168.0
187.494858 240.0
187.544754 188.0
187.592667 240.0
187.677719 164.0
187.766113 144.0
187.819031 240.0
187.88118 188.0
187.983627 168.0
188.038864 148.0
188.08316 172.0
188.120132 284.0
188.186264 156.0
188.263504 112.0
188.332581 132.0
188.369247 180.0
188.456665 184.0
188.535904 140.0
188.658905 216.0
188.713577 148.0
188.86673 244.0
188.888611 164.0
188.918701 192.0
189.027969 172.0
189.069321 408.0
189.102661 692.0
189.134872 148.0
189.221909 116.0
189.30188 224.0
189.434219 112.0
189.46228 156.0
189.558548 212.0
189.576675 212.0
189.619659 144.0
189.6651 152.0
189.777878 420.0
189.833496 168.0
189.87738 140.0
189.896576 148.0
189.919907 260.0
189.93692 276.0
189.996078 304.0
190.03183 164.0
190.065796 35332.0
190.106461 416.0
190.134277 164.0
190.227539 144.0
190.293655 176.0
190.368362 168.0
190.420792 156.0
190.44194 296.0
190.476822 180.0
190.518326 144.0
190.567886 124.0
190.625687 128.0
190.779556 324.0
190.839264 160.0
190.892868 148.0
190.927414 176.0
191.017075 136.0
191.072845 16332.0
191.138412 156.0
191.166809 124.0
191.215378 212.0
191.311691 184.0
191.356644 144.0
191.533356 168.0
191.587067 184.0
191.675552 496.0
191.751205 208.0
191.79361 164.0
191.80983 460.0
191.873825 164.0
191.93158 244.0
191.949799 204.0
191.984406 128.0
192.020981 316.0
192.079208 29256.0
192.161087 152.0
192.235291 392.0
192.295029 144.0
192.345963 100.0
192.407089 176.0
192.434189 100.0
192.466415 120.0
192.558014 204.0
192.583817 152.0
192.61644 228.0
192.641647 312.0
192.685928 104.0
192.745529 132.0
192.767975 176.0
192.79808 192.0
192.83429 192.0
192.875 148.0
192.916794 156.0
192.944656 124.0
193.006332 432.0
193.02861 132.0
193.08197 4248.0
193.152634 176.0
193.265686 152.0
193.339508 180.0
193.41185 108.0
193.459427 192.0
193.675125 136.0
193.761292 264.0
193.810211 224.0
193.849945 172.0
193.924118 136.0
193.963577 112.0
193.999619 172.0
194.061523 1016.0
194.089844 452.0
194.193604 96.0
194.254318 164.0
194.28479 120.0
194.368301 232.0
194.397568 184.0
194.436768 192.0
194.474701 192.0
194.494614 196.0
194.554901 96.0
194.591339 96.0
194.664673 236.0
194.721039 156.0
194.757156 172.0
194.801788 276.0
194.832855 144.0
194.900208 244.0
194.929092 304.0
194.990967 128.0
195.01297 264.0
195.069611 944.0
195.11319 58408.0
195.192596 136.0
195.213318 184.0
195.260391 176.0
195.358841 148.0
195.387726 152.0
195.421005 132.0
195.501633 196.0
195.589142 148.0
195.677612 180.0
195.759872 96.0
195.830872 112.0
195.939926 128.0
195.974426 140.0
196.075836 1552.0
196.115723 5288.0
196.212616 316.0
196.313492 152.0
196.378876 152.0
196.426437 192.0
196.480148 312.0
196.510941 144.0
196.543701 124.0
196.565323 148.0
196.615875 152.0
196.653259 176.0
196.817978 204.0
196.854507 140.0
196.91571 144.0
196.965988 140.0
197.07869 148.0
197.123398 760.0
197.200699 192.0
197.23671 208.0
197.297668 144.0
197.350998 204.0
197.383667 160.0
197.423416 124.0
197.508636 136.0
197.606735 156.0
197.63974 152.0
197.673325 192.0
197.694061 192.0
197.740479 156.0
197.784302 104.0
197.821655 176.0
197.841812 140.0
197.869247 180.0
197.93924 160.0
198.07634 164.0
198.099579 196.0
198.153961 152.0
198.184021 228.0
198.230576 148.0
198.330383 260.0
198.373215 152.0
198.446396 244.0
198.477234 164.0
198.498978 144.0
198.571304 116.0
198.649826 116.0
198.683304 144.0
198.730087 164.0
198.752121 172.0
198.797852 108.0
198.857864 212.0
198.954987 264.0
199.04567 116.0
199.091782 248.0
199.121582 236.0
199.21817 184.0
199.345139 128.0
199.403625 204.0
199.459839 156.0
199.53215 100.0
199.677048 156.0
199.753723 140.0
199.858521 152.0
199.945267 244.0
200.120941 156.0
200.143478 216.0
200.163177 156.0
200.369659 236.0
200.396881 176.0
200.4505 176.0
200.529419 172.0
200.684448 176.0
200.817001 188.0
200.838989 232.0
200.899521 172.0
200.932648 148.0
200.972733 156.0
201.029968 112.0
201.085022 144.0
201.163101 156.0
201.370178 192.0
201.502945 140.0
201.587708 204.0
201.626373 112.0
201.718948 148.0
201.7686 208.0
201.853424 248.0
201.89769 160.0
201.992737 172.0
202.042938 276.0
202.076965 364.0
202.139984 148.0
202.340088 164.0
202.364273 152.0
202.460724 152.0
202.649948 148.0
202.809586 152.0
202.833008 140.0
202.872696 164.0
203.049637 160.0
203.083435 636.0
203.194305 208.0
203.248123 160.0
203.337875 176.0
203.363419 140.0
203.395981 188.0
203.480896 164.0
203.520584 164.0
203.547943 144.0
203.597687 132.0
203.728653 172.0
203.749252 160.0
203.78389 240.0
203.945679 144.0
204.008209 152.0
204.091019 1408.0
204.150375 152.0
204.219986 140.0
204.244232 144.0
204.272675 156.0
204.355881 136.0
204.402985 120.0
204.460464 168.0
204.579712 240.0
204.623581 132.0
204.665878 356.0
204.71933 396.0
204.83931 312.0
204.899185 160.0
205.012741 172.0
205.042191 196.0
205.076447 7176.0
205.10054 5208.0
205.161163 112.0
205.193909 148.0
205.21933 336.0
205.260712 240.0
205.309418 184.0
205.330902 180.0
205.421432 264.0
205.461609 180.0
205.512375 188.0
205.554749 204.0
205.590668 144.0
205.714218 216.0
205.791656 140.0
205.918335 176.0
205.946548 120.0
205.966843 316.0
206.01442 184.0
206.042236 172.0
206.085251 24940.0
206.144028 156.0
206.169373 204.0
206.236816 220.0
206.316757 184.0
206.387161 408.0
206.42485 300.0
206.470474 180.0
206.542892 472.0
206.574219 144.0
206.604752 208.0
206.641144 216.0
206.684296 452.0
206.730453 256.0
206.750504 212.0
206.778152 344.0
206.80629 292.0
206.85379 320.0
206.928497 372.0
206.951553 604.0
206.984451 928.0
207.005905 548.0
207.01799 484.0
207.041626 1272.0
207.094025 328764.0
207.161102 168.0
207.190201 332.0
207.235931 112.0
207.292053 244.0
207.358871 244.0
207.419632 208.0
207.442169 284.0
207.526566 288.0
207.564041 10024.0
207.620956 148.0
207.669952 156.0
207.700546 312.0
207.74263 240.0
207.78186 272.0
207.833694 164.0
207.862946 264.0
207.892685 308.0
207.94989 120.0
208.004959 204.0
208.040604 372.0
208.095627 109168.0
208.180893 340.0
208.217087 148.0
208.239059 276.0
208.290833 332.0
208.368256 296.0
208.429214 300.0
208.456741 228.0
208.507751 148.0
208.588593 164.0
208.685699 128.0
208.726395 232.0
208.844833 224.0
208.923431 272.0
208.945892 140.0
209.002121 140.0
209.098251 5508.0
209.156082 220.0
209.182724 112.0
209.226196 184.0
209.26091 160.0
209.286133 288.0
209.325409 148.0
209.386047 136.0
209.422806 296.0
209.483444 448.0
209.526703 440.0
209.561188 172.0
209.604874 548.0
209.626678 316.0
209.674271 240.0
209.765274 276.0
209.826035 184.0
209.998611 188.0
210.058334 176.0
210.097626 384.0
210.141602 276.0
210.324448 124.0
210.384384 96.0
210.514572 232.0
210.614105 136.0
210.67244 100.0
210.76799 152.0
210.806183 116.0
210.831436 180.0
210.913071 140.0
211.020416 132.0
211.061371 288.0
211.134857 104.0
211.18811 172.0
211.231766 96.0
211.314194 180.0
211.57933 124.0
211.624527 156.0
211.789017 108.0
211.879257 188.0
211.985626 208.0
212.07872 196.0
212.120178 128.0
212.175095 160.0
212.531754 160.0
212.587906 160.0
212.631439 160.0
212.734665 156.0
212.774033 96.0
212.812317 128.0
212.876831 204.0
212.916946 236.0
213.057098 228.0
213.124374 3628.0
213.189529 116.0
213.224747 124.0
213.363434 196.0
213.473038 184.0
213.625519 128.0
213.801147 128.0
213.953995 176.0
214.126343 492.0
214.176773 184.0
214.282043 136.0
214.313477 132.0
214.386688 260.0
214.474716 148.0
214.614029 184.0
214.889526 168.0
214.912872 184.0
214.934753 128.0
215.003326 168.0
215.040756 180.0
215.086899 184.0
215.20636 144.0
215.331818 132.0
215.442093 148.0
215.496811 160.0
215.518661 128.0
216.008423 168.0
216.082016 476.0
216.131302 172.0
216.157944 188.0
216.255295 96.0
216.376862 124.0
216.800735 104.0
216.991516 156.0
217.087311 436.0
217.131088 284.0
217.304504 144.0
217.447632 124.0
218.090942 760.0
218.163773 140.0
218.351669 104.0
218.405212 156.0
218.443146 252.0
218.575531 164.0
218.725204 144.0
218.765427 108.0
218.918411 108.0
219.03894 332.0
219.091888 1120.0
219.116455 3548.0
219.227615 116.0
219.276138 96.0
219.38559 196.0
219.541748 208.0
219.584213 156.0
219.707855 100.0
219.7724 216.0
219.809738 264.0
219.940796 152.0
220.081146 244.0
220.114609 1336.0
220.185333 100.0
220.21759 180.0
220.342957 128.0
220.409607 224.0
220.524857 152.0
220.575104 216.0
220.601608 120.0
220.742142 128.0
220.915176 144.0
221.068985 272.0
221.105545 628.0
221.41127 132.0
221.442734 120.0
221.495209 152.0
221.904327 152.0
221.979401 100.0
222.05484 408.0
222.110825 328.0
222.295853 188.0
222.414566 232.0
222.48877 160.0
222.522003 164.0
222.557068 144.0
222.913513 156.0
222.9599 176.0
223.049698 332.0
223.120682 228.0
223.188538 168.0
223.323227 132.0
223.380295 164.0
223.505234 144.0
223.58757 144.0
223.889252 180.0
224.065933 164.0
224.13649 188.0
224.284058 228.0
224.490372 156.0
224.53894 256.0
224.807831 120.0
224.851456 184.0
224.99231 132.0
225.034286 144.0
225.100067 724.0
225.301422 152.0
225.482361 140.0
225.656723 168.0
225.697464 196.0
225.77533 156.0
225.990707 200.0
226.102127 144.0
226.203186 168.0
226.252304 128.0
226.291107 208.0
226.970154 140.0
227.315109 160.0
227.548233 204.0
227.726395 156.0
227.758362 156.0
227.881638 148.0
227.933792 120.0
228.044174 148.0
228.080093 352.0
228.384338 236.0
228.471878 160.0
228.700562 180.0
228.79689 152.0
228.929565 220.0
229.005844 144.0
229.10054 544.0
229.287872 140.0
229.664749 140.0
229.902084 96.0
230.014755 188.0
230.042908 184.0
230.095566 980.0
230.207993 140.0
230.596008 128.0
230.663086 260.0
230.741425 184.0
230.919327 180.0
231.089737 712.0
231.151627 120.0
231.367447 220.0
231.537811 120.0
231.606659 188.0
231.658432 172.0
231.684006 144.0
231.978714 156.0
232.099731 1848.0
232.422165 172.0
232.894333 156.0
232.920273 148.0
233.074921 628.0
233.10791 15076.0
233.232727 132.0
233.303543 176.0
233.337479 212.0
233.630356 136.0
233.719467 124.0
233.780411 160.0
233.836639 160.0
233.870346 316.0
233.90506 124.0
233.979935 444.0
234.020554 212.0
234.108414 3984.0
234.170273 284.0
234.254776 160.0
234.381271 156.0
234.615082 324.0
234.689194 192.0
234.731339 156.0
234.768158 184.0
234.833084 208.0
234.930893 180.0
234.968094 168.0
235.000671 428.0
235.09845 58516.0
235.219223 220.0
235.25119 236.0
235.362778 276.0
235.448044 164.0
235.504089 112.0
235.526978 148.0
235.557709 132.0
235.58812 144.0
235.686905 136.0
235.740631 144.0
235.800995 252.0
235.821884 328.0
235.845627 232.0
235.876297 176.0
235.914871 188.0
236.100479 9116.0
236.159363 164.0
236.190216 96.0
236.431976 184.0
236.490982 108.0
236.558868 160.0
236.77388 164.0
236.84166 124.0
237.104279 688.0
237.164474 164.0
237.233017 104.0
237.42778 132.0
237.572983 164.0
237.602005 96.0
237.661331 124.0
237.704742 228.0
237.790726 140.0
237.857971 120.0
237.899124 196.0
237.986359 152.0
238.094986 140.0
238.245529 148.0
238.469345 116.0
238.608749 156.0
238.710205 140.0
238.918015 224.0
239.000076 116.0
239.193329 148.0
239.298004 152.0
239.3293 120.0
239.402267 148.0
239.441177 144.0
239.565338 184.0
239.618301 152.0
239.892578 144.0
239.925613 168.0
239.981979 200.0
240.031326 140.0
240.134415 144.0
240.212051 164.0
240.307068 272.0
241.099411 144.0
241.150116 128.0
241.246994 200.0
241.302628 148.0
241.355988 156.0
241.547394 112.0
241.730652 128.0
241.812744 132.0
241.857162 140.0
241.912186 180.0
242.018143 324.0
242.085968 172.0
242.157486 164.0
242.191559 180.0
242.275192 212.0
242.364639 180.0
242.618347 132.0
242.745102 204.0
242.818207 176.0
242.890762 156.0
242.919998 164.0
242.998993 208.0
243.099426 132.0
243.506638 184.0
243.615356 144.0
243.689713 120.0
243.918869 172.0
244.073486 108.0
244.112991 248.0
244.171738 172.0
244.387894 188.0
244.583847 96.0
244.669586 156.0
244.716293 148.0
244.746613 108.0
244.825272 156.0
244.853302 152.0
245.100098 324.0
245.129257 316.0
245.262497 96.0
245.390945 104.0
245.54715 100.0
245.730865 144.0
245.863403 232.0
245.907196 112.0
246.103851 748.0
246.264771 228.0
246.414261 192.0
246.491333 144.0
246.55957 144.0
246.588821 144.0
246.63916 188.0
246.709854 292.0
246.772156 108.0
246.941666 180.0
247.119034 2280.0
247.179199 132.0
247.315628 116.0
247.406097 180.0
247.520203 140.0
247.89296 156.0
248.114441 1028.0
248.208389 96.0
248.540817 132.0
248.604813 144.0
248.68013 208.0
249.100784 2088.0
249.134171 252.0
249.173126 148.0
249.244003 236.0
249.286255 144.0
249.376587 128.0
249.414062 96.0
249.729523 172.0
249.779861 156.0
249.808167 144.0
249.947647 120.0
250.026596 120.0
250.100433 572.0
250.136154 152.0
250.260834 144.0
250.673126 132.0
250.989197 220.0
251.077621 284.0
251.247833 332.0
251.348785 148.0
251.898132 168.0
251.947495 172.0
252.009079 100.0
252.089081 284.0
252.137314 200.0
252.159439 120.0
252.289978 224.0
252.519043 100.0
252.558762 176.0
252.590393 140.0
252.623718 188.0
252.8862 140.0
252.981384 180.0
253.177994 232.0
253.412903 172.0
253.511719 180.0
253.558075 96.0
253.988159 160.0
254.10144 260.0
254.209381 152.0
254.382492 272.0
254.493561 132.0
254.52478 188.0
254.653839 160.0
254.922089 128.0
255.101486 192.0
255.22406 164.0
255.321243 180.0
255.346695 172.0
255.603302 108.0
255.868546 156.0
255.908051 156.0
255.976624 148.0
256.096252 336.0
256.124664 280.0
256.243042 204.0
256.298523 204.0
256.411865 120.0
256.539154 184.0
256.572815 120.0
256.66861 184.0
256.743195 192.0
257.044647 140.0
257.106628 964.0
257.154388 176.0
257.295166 212.0
257.327667 152.0
257.38443 148.0
257.440369 112.0
257.497986 148.0
257.633728 96.0
257.890961 200.0
257.921814 160.0
257.977264 196.0
258.039917 180.0
258.108246 624.0
258.190063 116.0
258.575989 132.0
258.621704 108.0
258.777069 240.0
258.863525 176.0
258.95639 168.0
259.104767 164.0
259.449341 152.0
259.499939 96.0
259.634369 132.0
259.713043 104.0
259.822174 120.0
260.00058 196.0
260.026581 96.0
260.105438 764.0
260.434998 200.0
260.613953 192.0
260.843079 160.0
260.898163 272.0
260.963318 160.0
261.083618 172.0
261.113312 400.0
261.301147 196.0
261.323792 120.0
261.71814 176.0
262.092346 136.0
262.256134 164.0
262.488251 196.0
262.512939 140.0
262.571259 160.0
262.636597 212.0
262.842804 104.0
262.920502 152.0
263.134369 360.0
263.275635 148.0
263.331604 144.0
263.4935 240.0
263.639435 112.0
263.692383 172.0
263.74408 168.0
263.770996 124.0
263.842255 176.0
264.117889 320.0
264.154938 164.0
264.329468 236.0
264.588104 136.0
264.675812 160.0
264.734894 96.0
264.909088 168.0
265.100159 144.0
265.130859 160.0
265.439545 212.0
265.550781 156.0
265.940033 132.0
266.072662 140.0
266.468079 160.0
266.531464 136.0
266.732666 204.0
266.891968 200.0
267.002441 140.0
267.306427 148.0
267.454773 212.0
267.656036 112.0
267.698944 140.0
267.808624 160.0
267.832489 148.0
268.089783 164.0
268.113098 184.0
268.173065 128.0
268.42749 200.0
268.505829 140.0
268.534668 176.0
268.698944 180.0
268.89624 124.0
269.013824 156.0
269.10141 280.0
269.226898 236.0
269.690918 240.0
269.780579 160.0
269.957153 164.0
270.112549 324.0
270.169769 200.0
270.301727 256.0
270.421692 196.0
270.47876 256.0
270.519897 184.0
270.605103 160.0
270.650848 160.0
270.881439 128.0
270.904144 176.0
270.960205 168.0
271.121674 708.0
271.673401 200.0
271.796753 176.0
272.123993 288.0
272.173584 136.0
272.203735 212.0
272.313477 148.0
272.397034 116.0
272.597839 136.0
272.62558 360.0
272.75705 184.0
273.125336 144.0
273.169403 220.0
273.26709 128.0
273.44986 144.0
273.474701 268.0
273.689545 116.0
273.774658 164.0
273.826385 156.0
273.875793 172.0
273.95813 160.0
273.994385 164.0
274.111694 508.0
274.25 324.0
274.39624 132.0
274.431152 112.0
274.559479 196.0
274.643311 156.0
274.834564 140.0
274.875153 180.0
274.916016 124.0
274.987396 140.0
275.079163 136.0
275.118713 48088.0
275.235596 164.0
275.306 160.0
275.362732 140.0
275.415222 116.0
275.451416 124.0
275.487885 188.0
275.545471 132.0
275.586609 172.0
275.66925 176.0
275.706085 100.0
275.736633 156.0
275.913483 116.0
276.120972 9720.0
276.249146 280.0
276.31076 152.0
276.362183 140.0
276.399231 208.0
276.522125 160.0
276.598907 156.0
276.669403 204.0
276.903595 116.0
277.057312 124.0
277.123322 1236.0
277.218506 144.0
277.282196 124.0
277.417297 100.0
277.534973 164.0
277.588593 156.0
277.745361 244.0
277.800964 96.0
277.859802 124.0
277.890228 100.0
277.931854 156.0
277.965332 196.0
278.114685 120.0
278.233856 196.0
278.27005 172.0
278.402832 236.0
278.429535 120.0
278.509003 164.0
278.623444 156.0
278.693176 144.0
278.737518 148.0
278.799438 156.0
278.851471 168.0
278.893951 160.0
278.983704 164.0
279.058258 164.0
279.332184 184.0
279.414825 176.0
279.506134 304.0
279.661407 204.0
279.738831 216.0
279.851562 152.0
280.109741 148.0
280.159454 160.0
280.49295 124.0
280.59964 144.0
280.679657 200.0
280.889771 144.0
280.918213 120.0
280.947815 116.0
281.098938 132.0
281.215393 148.0
281.293518 160.0
281.525635 180.0
281.645416 144.0
281.686035 204.0
281.762024 180.0
281.821198 152.0
281.966858 160.0
281.992737 180.0
282.218933 164.0
282.26239 160.0
282.383545 160.0
282.470673 132.0
283.109985 148.0
283.152557 208.0
283.263092 184.0
283.28653 144.0
283.316315 112.0
283.410492 176.0
283.578064 232.0
283.616638 164.0
283.728882 172.0
284.014709 120.0
284.102875 132.0
284.113831 180.0
284.233276 156.0
284.282318 228.0
284.330139 148.0
284.382996 132.0
284.444763 224.0
284.624725 176.0
284.764954 132.0
285.139801 180.0
285.22699 160.0
285.3862 140.0
285.699036 192.0
285.868469 172.0
285.924103 108.0
286.133453 332.0
286.419159 140.0
286.509644 152.0
286.804718 180.0
286.918732 160.0
286.945892 116.0
287.026398 112.0
287.134583 220.0
287.219452 156.0
287.434509 140.0
287.533234 204.0
287.575256 116.0
287.654022 112.0
287.976898 188.0
288.150848 316.0
288.22171 132.0
288.410309 228.0
288.482361 144.0
288.5466 140.0
288.585815 148.0
288.651428 192.0
288.681091 124.0
288.806976 176.0
289.114746 120.0
289.172394 168.0
289.218903 172.0
289.253632 188.0
289.293274 140.0
289.526337 132.0
289.786407 344.0
289.89035 148.0
290.011536 116.0
290.088898 152.0
290.246277 216.0
290.367981 188.0
290.45993 160.0
290.572327 120.0
290.811737 188.0
290.85614 168.0
290.97525 164.0
291.024841 104.0
291.108459 196.0
291.252075 168.0
291.375946 96.0
291.629822 144.0
291.667419 152.0
291.699341 148.0
291.774139 152.0
292.095154 116.0
292.161713 128.0
292.265961 132.0
292.483459 116.0
292.633209 152.0
292.730591 120.0
292.96463 108.0
293.012939 208.0
293.074585 128.0
293.125946 272.0
293.407867 164.0
293.418427 148.0
293.686707 104.0
293.845612 120.0
294.121674 124.0
294.257782 168.0
294.315826 144.0
294.398895 164.0
294.466095 168.0
294.653961 160.0
294.956207 196.0
295.086121 256.0
295.132782 128.0
295.207672 156.0
295.464203 176.0
295.646179 152.0
295.699768 108.0
295.891205 124.0
296.056366 164.0
296.126434 104.0
296.40918 140.0
296.467346 136.0
296.544861 136.0
296.570251 204.0
296.77594 316.0
296.950714 120.0
297.02655 244.0
297.096466 200.0
297.137726 124.0
297.182709 164.0
297.299194 104.0
297.359131 144.0
297.403748 140.0
297.427765 196.0
297.479248 148.0
297.653198 208.0
297.80835 128.0
297.970337 172.0
298.079559 152.0
298.102692 132.0
298.138489 320.0
298.18338 184.0
298.338074 176.0
298.364319 196.0
298.394562 156.0
298.509979 232.0
298.638733 140.0
298.722107 124.0
298.798889 160.0
298.957062 172.0
299.025909 152.0
299.113861 176.0
299.144501 260.0
299.17746 192.0
299.2901 184.0
299.316956 172.0
299.49353 132.0
299.526825 156.0
299.572144 132.0
299.664368 220.0
299.794647 128.0
299.862915 176.0
299.9422 164.0
300.024933 172.0
300.054047 120.0
300.106201 136.0
300.163086 152.0
300.287659 188.0
300.345123 136.0
300.404541 160.0
301.201752 132.0
301.459534 144.0
301.49353 168.0
302.311737 116.0
302.483765 148.0
302.503998 312.0
302.55722 160.0
302.6409 200.0
302.686859 140.0
302.813446 184.0
302.863373 164.0
302.995361 148.0
303.02478 196.0
303.123474 804.0
303.167267 188.0
303.198029 164.0
303.360931 168.0
303.849915 176.0
304.123688 324.0
304.195709 168.0
304.318451 196.0
304.516388 144.0
304.560425 148.0
304.687439 116.0
305.109772 156.0
305.216797 160.0
305.401276 276.0
305.498901 168.0
305.623871 148.0
305.743652 236.0
305.844574 148.0
305.907227 148.0
305.935089 272.0
306.076111 104.0
306.154205 120.0
306.196228 152.0
306.22702 124.0
306.265564 132.0
306.344543 100.0
306.446808 128.0
306.959412 176.0
306.985199 160.0
307.12796 2628.0
307.388458 204.0
307.446991 132.0
307.638916 116.0
307.729736 232.0
307.973053 232.0
308.132294 768.0
308.457916 168.0
308.56781 172.0
308.681091 96.0
308.792847 164.0
308.86145 180.0
308.93219 148.0
309.12915 464.0
309.296265 176.0
309.408691 204.0
309.78302 148.0
309.927063 144.0
309.955078 144.0
310.063721 160.0
310.138458 172.0
310.183502 228.0
310.407257 164.0
310.614197 192.0
310.646759 152.0
310.718719 180.0
310.898376 168.0
310.972076 176.0
311.080109 124.0
311.14209 336.0
311.20871 188.0
311.32074 140.0
311.57254 168.0
311.679657 180.0
311.906372 168.0
311.966125 156.0
312.129578 140.0
312.159393 392.0
312.302155 136.0
312.459076 140.0
312.775482 100.0
312.835938 168.0
313.153839 96.0
313.23822 276.0
313.312225 128.0
313.500732 272.0
313.591339 124.0
313.747437 148.0
313.821075 304.0
313.881287 160.0
314.131531 136.0
314.175659 356.0
314.421173 156.0
314.452332 164.0
314.526031 180.0
314.576477 176.0
314.616852 144.0
314.696503 132.0
314.889679 152.0
314.943695 152.0
315.014343 172.0
315.077942 156.0
315.111664 116.0
315.150208 248.0
315.285095 108.0
315.657593 148.0
316.007751 140.0
316.160828 172.0
316.237579 148.0
316.321991 228.0
316.4422 120.0
316.513916 180.0
316.679779 148.0
316.933075 164.0
316.974396 144.0
317.03653 232.0
317.103882 112.0
317.132721 288.0
317.188019 300.0
317.300476 148.0
317.367828 228.0
317.403931 152.0
317.490112 116.0
317.545013 100.0
317.789124 128.0
318.095123 140.0
318.144806 144.0
318.1745 144.0
318.32077 228.0
318.37204 144.0
318.489685 100.0
318.759247 192.0
318.851654 168.0
318.898712 164.0
318.940521 168.0
319.05426 188.0
319.108246 5336.0
319.233002 120.0
319.44162 108.0
319.707794 144.0
319.764191 228.0
319.972137 236.0
320.109772 1644.0
320.581207 160.0
320.76297 264.0
320.829224 124.0
320.894745 108.0
321.07489 136.0
321.110565 164.0
321.341583 156.0
321.4664 104.0
321.597626 148.0
321.64566 96.0
321.753387 224.0
321.961914 124.0
322.008881 136.0
322.120026 256.0
322.156677 116.0
322.331818 204.0
322.529877 200.0
322.60968 156.0
322.64743 188.0
322.830536 196.0
322.879974 108.0
323.000061 148.0
323.144135 140.0
323.207001 164.0
323.305695 140.0
323.481354 188.0
323.771393 188.0
323.817932 268.0
323.85733 148.0
324.057953 152.0
324.091797 144.0
324.161957 264.0
324.244293 140.0
324.299866 136.0
324.441437 200.0
324.477448 100.0
324.517639 156.0
324.608948 96.0
324.883362 140.0
324.954285 112.0
325.076263 204.0
325.142181 1480.0
325.359833 176.0
325.59079 124.0
325.650696 144.0
325.758453 108.0
326.149994 620.0
326.159454 452.0
326.27594 176.0
326.334717 124.0
326.398987 140.0
326.439911 116.0
326.577026 148.0
326.622894 140.0
326.687012 168.0
326.819031 164.0
327.147736 332.0
327.180206 568.0
327.400421 108.0
327.575043 184.0
327.760986 112.0
327.812836 176.0
327.923492 148.0
327.989929 160.0
328.16098 212.0
328.194122 1076.0
328.304169 104.0
328.42572 148.0
328.461792 196.0
328.519531 180.0
328.590698 260.0
328.653015 176.0
328.685486 196.0
329.165558 148.0
329.196716 452.0
329.337219 148.0
329.389496 216.0
329.602631 212.0
329.749084 144.0
329.805908 96.0
330.205322 200.0
330.472504 132.0
330.524689 140.0
330.550018 240.0
330.635376 116.0
330.748535 188.0
330.80658 140.0
330.882996 220.0
331.042328 232.0
331.178375 188.0
331.242981 100.0
331.423279 144.0
331.799591 144.0
332.092072 268.0
332.188507 168.0
332.340088 188.0
332.471191 204.0
332.523804 160.0
332.76828 284.0
333.205292 136.0
333.298218 196.0
333.45871 176.0
333.547699 124.0
333.577271 216.0
333.657684 124.0
334.327667 188.0
334.368744 196.0
334.542419 184.0
334.644226 108.0
334.739014 192.0
334.764526 144.0
334.899261 200.0
334.945618 116.0
335.024475 172.0
335.325958 148.0
335.420319 228.0
335.485931 156.0
335.589661 140.0
335.729248 132.0
335.949066 168.0
336.009186 96.0
336.248718 132.0
336.350098 116.0
336.412506 148.0
336.603607 164.0
336.684021 112.0
336.719238 236.0
337.164734 156.0
337.627716 100.0
337.695251 148.0
337.775543 152.0
337.825409 228.0
337.936493 148.0
337.987732 200.0
338.12851 260.0
338.163422 292.0
338.617371 144.0
338.767548 164.0
339.016693 208.0
339.113495 160.0
339.152496 244.0
339.197327 132.0
339.276947 152.0
339.549255 148.0
339.860077 144.0
339.907776 192.0
339.955505 160.0
340.087616 144.0
340.18103 920.0
340.360504 168.0
340.541443 140.0
340.694794 248.0
340.831482 172.0
340.896332 96.0
341.108734 180.0
341.178833 716.0
341.242096 148.0
341.528107 164.0
341.730499 244.0
342.072144 124.0
342.195801 652.0
342.239471 136.0
342.335999 184.0
342.403992 156.0
342.45578 132.0
342.552063 188.0
342.606476 224.0
342.644043 124.0
342.696899 132.0
342.742706 164.0
342.87915 164.0
342.995026 128.0
343.089233 148.0
343.157623 668.0
343.198944 512.0
343.352844 132.0
343.616638 212.0
343.839905 300.0
343.87027 196.0
344.169556 204.0
344.255188 168.0
344.292114 296.0
344.381317 288.0
344.425568 176.0
344.698456 160.0
344.960876 188.0
345.066803 224.0
345.380402 184.0
345.581635 160.0
345.648773 152.0
345.710907 188.0
345.796814 148.0
345.889465 116.0
345.943573 148.0
346.007812 188.0
346.176208 96.0
346.405518 152.0
346.529083 160.0
346.819061 152.0
346.870392 176.0
347.014465 376.0
347.113831 2060.0
347.247437 148.0
347.287384 116.0
347.363953 160.0
347.561615 156.0
347.590454 180.0
347.651428 212.0
347.795715 128.0
347.899078 104.0
347.943054 168.0
348.002075 100.0
348.116821 612.0
348.22525 188.0
348.268188 164.0
348.415039 132.0
348.578186 168.0
348.838348 164.0
348.979614 148.0
349.121704 236.0
349.160065 136.0
349.210175 140.0
349.396179 320.0
349.460663 156.0
349.585938 152.0
349.692749 204.0
349.756958 148.0
349.927856 112.0
350.006195 164.0
350.045654 104.0
350.117737 196.0
350.153931 176.0
350.203949 152.0
350.32312 144.0
350.362793 112.0
350.405975 152.0
350.502411 136.0
350.539368 120.0
350.673401 160.0
350.772552 168.0
350.979767 212.0
351.156982 176.0
351.335327 108.0
351.427765 164.0
351.480957 188.0
351.617859 168.0
351.656158 96.0
351.721497 156.0
351.945618 112.0
352.031372 184.0
352.089905 100.0
352.125275 196.0
352.188354 200.0
352.533691 156.0
352.741241 172.0
352.797302 140.0
353.142761 236.0
353.17688 176.0
353.262634 100.0
353.308624 148.0
353.452728 184.0
353.555603 152.0
353.840118 156.0
353.952484 112.0
354.174011 204.0
354.28006 136.0
354.356415 148.0
354.383423 124.0
354.68924 196.0
354.796509 136.0
354.831329 140.0
354.953125 188.0
355.036621 132.0
355.184479 1280.0
355.536652 136.0
355.606628 236.0
355.650085 200.0
355.770447 140.0
356.012085 204.0
356.13089 284.0
356.188538 436.0
356.338898 244.0
356.423035 184.0
356.579376 244.0
356.851837 184.0
356.922791 184.0
357.050659 124.0
357.207733 4164.0
357.377899 172.0
357.442688 176.0
357.534637 216.0
357.670013 136.0
357.854584 144.0
357.880951 164.0
358.011078 164.0
358.123474 176.0
358.209351 1516.0
358.777618 232.0
358.804016 152.0
358.844635 300.0
359.067963 148.0
359.212616 128.0
359.299957 120.0
359.505585 152.0
359.539551 312.0
359.63559 140.0
359.723969 140.0
359.868164 132.0
360.007141 116.0
360.137512 136.0
360.34137 292.0
360.537842 140.0
360.578125 140.0
360.808685 152.0
361.097839 132.0
361.158356 196.0
361.269775 148.0
361.425201 144.0
361.630615 168.0
361.69989 220.0
361.809113 168.0
361.856659 184.0
362.065796 124.0
362.239166 152.0
362.362549 196.0
362.42688 132.0
362.467804 136.0
362.702271 128.0
362.864471 264.0
363.0336 124.0
363.22467 236.0
363.383667 152.0
363.54892 152.0
363.611725 160.0
363.653473 140.0
363.681702 120.0
363.714203 156.0
363.809113 144.0
363.883118 268.0
364.090088 156.0
364.607666 152.0
364.682953 232.0
364.998566 184.0
365.173187 732.0
365.228119 96.0
365.259216 112.0
365.33786 160.0
365.488983 164.0
365.635132 160.0
365.814453 108.0
365.859772 124.0
365.925385 176.0
366.037109 232.0
366.117065 168.0
366.158264 348.0
366.364655 144.0
366.539917 152.0
366.764771 140.0
366.902008 232.0
367.039246 148.0
367.075836 148.0
367.161346 308.0
367.19455 288.0
367.841248 160.0
367.881317 152.0
367.970245 140.0
368.006714 180.0
368.072083 116.0
368.173462 2712.0
368.330841 160.0
368.527863 192.0
368.803009 192.0
368.975037 156.0
369.168762 1600.0
369.330658 144.0
369.435577 128.0
369.588318 156.0
369.636078 168.0
370.048126 156.0
370.175476 668.0
370.36795 140.0
370.969543 156.0
371.190613 128.0
371.307068 136.0
371.439423 164.0
371.469482 128.0
371.629181 220.0
371.686066 112.0
371.770111 128.0
371.828735 272.0
371.872528 144.0
371.940033 156.0
372.107422 152.0
372.179474 672.0
372.227966 292.0
372.262543 148.0
372.32782 164.0
372.423828 368.0
372.509094 184.0
372.576874 148.0
372.696594 160.0
372.742706 208.0
372.904968 148.0
372.996155 160.0
373.124847 140.0
373.198395 332.0
373.492218 96.0
373.554016 148.0
373.69046 172.0
374.189026 124.0
374.267059 124.0
374.723907 136.0
374.810089 100.0
374.869232 164.0
374.913361 148.0
375.009399 248.0
375.230255 164.0
375.330078 156.0
375.375641 148.0
375.468201 208.0
375.509949 184.0
375.874207 96.0
376.017578 160.0
376.118774 136.0
376.156738 272.0
376.386627 180.0
376.484589 112.0
376.525665 168.0
376.571991 256.0
376.692413 104.0
376.826965 160.0
377.109039 176.0
377.482056 116.0
377.700623 148.0
377.866974 152.0
377.944336 140.0
378.006256 148.0
378.137848 204.0
378.167267 172.0
378.243317 320.0
378.372498 156.0
378.544098 152.0
378.636353 152.0
378.709534 168.0
378.924316 112.0
379.05307 192.0
379.154663 124.0
379.296967 152.0
379.469757 148.0
379.675903 156.0
379.761017 212.0
379.942566 112.0
380.481049 144.0
380.651672 100.0
380.737244 240.0
381.047577 276.0
381.198578 432.0
381.271484 248.0
381.39975 144.0
381.708832 128.0
381.788544 140.0
381.827423 140.0
381.885773 144.0
382.07782 136.0
382.149658 172.0
382.235504 204.0
382.343506 188.0
382.382416 160.0
382.614746 132.0
383.098206 208.0
383.186249 6932.0
383.396362 184.0
383.641663 144.0
383.771606 180.0
383.947235 124.0
384.027924 180.0
384.111877 216.0
384.187286 2108.0
384.358521 124.0
384.375366 192.0
384.507812 164.0
384.54776 144.0
384.735718 124.0
384.856445 184.0
384.888702 148.0
385.113251 244.0
385.210052 1244.0
385.300476 144.0
385.372559 176.0
385.452881 156.0
385.61731 152.0
385.735779 104.0
385.786255 140.0
385.91861 156.0
386.02887 148.0
386.186096 3940.0
386.5047 148.0
386.601562 160.0
386.67691 144.0
386.78891 148.0
386.906891 136.0
386.955475 260.0
387.016693 120.0
387.185486 1332.0
387.227478 244.0
387.366028 156.0
387.411865 152.0
387.487457 156.0
387.56192 188.0
387.674774 124.0
387.781372 260.0
387.857147 108.0
387.942078 172.0
388.066895 152.0
388.096375 236.0
388.138092 168.0
388.184601 236.0
388.395508 164.0
388.753967 144.0
388.852081 176.0
389.040466 184.0
389.078583 148.0
389.262543 144.0
389.374969 148.0
389.498932 144.0
389.551727 148.0
389.682587 108.0
389.757935 148.0
389.93399 152.0
390.089355 152.0
390.157806 136.0
390.182495 136.0
390.389893 100.0
390.496948 288.0
390.659546 148.0
390.690033 120.0
390.915283 168.0
390.982178 164.0
391.073578 140.0
391.285278 144.0
391.379761 248.0
391.482147 148.0
391.522156 124.0
391.662231 116.0
391.710876 172.0
391.835022 176.0
392.199554 184.0
392.236816 196.0
392.285706 156.0
392.541565 196.0
392.59552 220.0
392.770935 140.0
392.868378 164.0
393.064178 108.0
393.298523 128.0
393.395935 132.0
393.512817 260.0
393.632294 160.0
393.674988 284.0
393.745636 100.0
393.794189 188.0
393.959106 180.0
394.068237 180.0
394.11319 160.0
394.211395 136.0
394.282959 204.0
394.448151 148.0
394.632507 160.0
394.935974 240.0
394.974243 136.0
395.184692 184.0
395.272247 124.0
395.332642 164.0
395.509186 144.0
395.665405 148.0
395.716492 136.0
395.754639 168.0
395.920288 120.0
396.203125 248.0
396.23642 252.0
396.41803 184.0
396.574799 112.0
396.752441 192.0
396.976532 152.0
397.231995 476.0
397.569824 160.0
397.788422 152.0
398.262665 132.0
398.619476 176.0
398.770813 96.0
399.206787 932.0
399.648346 148.0
399.747223 212.0
399.859253 152.0
400.073181 96.0
400.2052 372.0
400.477692 120.0
400.576324 128.0
400.625366 156.0
400.693909 124.0
400.755768 148.0
400.798004 156.0
400.850861 168.0
400.905609 140.0
401.036804 256.0
401.074036 232.0
401.139923 308.0
401.196991 17636.0
401.285309 212.0
401.343781 156.0
401.500641 204.0
401.668152 172.0
401.761597 188.0
401.847076 272.0
401.92569 140.0
402.067139 156.0
402.128143 180.0
402.200287 5044.0
402.305817 136.0
402.347473 156.0
402.411865 212.0
402.488831 136.0
402.552643 104.0
402.621002 168.0
402.736786 128.0
402.86969 164.0
403.122803 128.0
403.200623 912.0
403.305908 192.0
403.428497 120.0
403.550629 268.0
403.613098 140.0
403.909668 152.0
404.012207 156.0
404.056122 120.0
404.099213 148.0
404.200226 676.0
404.285431 104.0
404.363983 392.0
404.408142 152.0
404.501251 236.0
404.566559 128.0
405.033813 308.0
405.19397 244.0
405.266174 208.0
405.358643 172.0
405.592651 120.0
405.666931 144.0
405.735077 144.0
405.787048 96.0
405.872742 332.0
405.919525 140.0
406.498352 160.0
406.701843 176.0
406.858398 144.0
407.095062 152.0
407.267975 144.0
407.314636 124.0
407.349701 140.0
407.439789 140.0
407.497375 192.0
407.54837 184.0
407.666321 156.0
408.10788 140.0
408.259583 96.0
408.314606 136.0
408.36734 216.0
408.553955 136.0
408.762482 188.0
408.986145 176.0
409.053284 144.0
409.202393 308.0
409.528778 136.0
409.80545 112.0
409.982544 140.0
410.097473 136.0
410.225433 256.0
410.345734 204.0
410.459351 152.0
410.647369 172.0
410.683105 132.0
410.749908 152.0
410.888153 140.0
410.951599 112.0
411.042542 152.0
411.094208 180.0
411.137146 152.0
411.192444 16896.0
411.311707 116.0
411.62207 160.0
411.868103 116.0
411.897308 224.0
412.195221 5984.0
412.271393 152.0
412.340668 132.0
412.433624 140.0
412.50177 144.0
412.548187 328.0
412.65094 132.0
412.73584 224.0
412.839691 156.0
413.019409 124.0
413.060089 312.0
413.198395 1464.0
413.356781 124.0
413.466888 112.0
413.584717 104.0
413.688293 120.0
413.767761 96.0
413.881805 148.0
413.999237 148.0
414.202698 216.0
414.330872 96.0
414.852478 156.0
414.891632 200.0
415.281372 100.0
415.47464 168.0
415.527374 280.0
415.839813 192.0
415.933716 124.0
415.970734 164.0
416.286072 104.0
416.334381 308.0
416.449554 120.0
416.557922 160.0
416.704773 144.0
416.87323 148.0
417.029846 184.0
417.103607 180.0
417.150604 108.0
417.214233 216.0
417.298828 132.0
417.358582 148.0
417.429626 204.0
417.885803 140.0
417.973846 192.0
418.048553 108.0
418.272308 268.0
418.331635 120.0
418.437347 256.0
418.46991 188.0
418.698578 180.0
418.832123 140.0
418.939758 172.0
418.988922 100.0
419.205536 944.0
419.256073 152.0
419.345917 176.0
419.508759 280.0
419.864716 176.0
420.203796 308.0
420.269196 100.0
420.363373 216.0
420.600739 104.0
420.653503 272.0
420.760254 128.0
420.832397 288.0
421.062988 136.0
421.173645 152.0
421.220856 156.0
421.371765 104.0
421.635315 184.0
421.680908 104.0
421.903198 216.0
422.076508 112.0
422.18338 200.0
422.29248 184.0
422.332367 124.0
422.455994 140.0
422.526001 208.0
422.628998 108.0
422.843353 168.0
422.878632 152.0
422.915466 144.0
422.998627 120.0
423.036102 236.0
423.198273 384.0
423.292114 240.0
423.337158 152.0
423.468201 160.0
423.515076 172.0
423.554199 200.0
423.660706 164.0
423.73584 156.0
423.813721 140.0
423.980316 300.0
424.018402 164.0
424.155365 96.0
424.206848 404.0
424.263611 168.0
424.402252 120.0
424.451752 140.0
424.483307 172.0
424.53595 156.0
424.689606 208.0
424.788055 148.0
424.843414 112.0
424.880188 232.0
424.930023 112.0
424.985138 100.0
425.048065 144.0
425.128723 296.0
425.172302 308.0
425.234528 9140.0
425.317841 192.0
425.350616 264.0
425.4729 172.0
425.700653 144.0
425.998077 192.0
426.045563 144.0
426.108826 100.0
426.133942 328.0
426.16745 144.0
426.236664 2608.0
426.443695 144.0
426.620941 208.0
426.810211 108.0
426.966217 140.0
427.019165 148.0
427.065552 116.0
427.240936 1044.0
427.312286 136.0
427.375549 168.0
427.443634 220.0
427.485626 228.0
427.520477 184.0
427.555664 268.0
427.605988 160.0
427.687561 104.0
427.74942 160.0
427.844421 216.0
427.879791 164.0
427.913391 132.0
427.94751 152.0
427.988861 228.0
428.059235 104.0
428.102112 276.0
428.177673 640.0
428.235382 260.0
428.309967 240.0
428.316498 396.0
428.355591 128.0
428.412476 132.0
428.528931 280.0
428.588715 608.0
428.622589 212.0
428.69754 252.0
428.791992 212.0
428.822449 344.0
428.901764 472.0
428.94342 364.0
428.982849 480.0
429.046204 540.0
429.076233 584.0
429.149323 1132.0
429.205994 222188.0
429.321686 120.0
429.47934 500.0
429.595337 536.0
429.638275 660.0
429.686584 404.0
429.739655 280.0
429.828796 136.0
429.886963 6844.0
429.935791 768.0
429.985779 420.0
430.037415 308.0
430.108246 364.0
430.207977 132648.0
430.35849 156.0
430.494751 140.0
430.603302 204.0
430.647583 328.0
430.686127 124.0
430.835449 444.0
430.887878 796.0
430.931824 264.0
430.993347 292.0
431.041077 108.0
431.209961 20884.0
431.341522 128.0
431.419006 292.0
431.52652 128.0
431.583832 304.0
431.626587 176.0
431.731934 120.0
431.775116 156.0
431.84549 148.0
431.874756 144.0
431.913116 136.0
431.986084 132.0
432.14212 156.0
432.207489 1572.0
432.434479 220.0
432.482513 156.0
432.547852 232.0
432.608765 128.0
432.685974 184.0
432.716827 224.0
432.760559 204.0
432.826508 344.0
432.88089 356.0
432.932587 292.0
432.974487 408.0
433.051849 324.0
433.143402 132.0
433.189972 188.0
433.266998 136.0
433.595886 140.0
433.637787 128.0
433.703522 148.0
433.755585 128.0
433.7995 172.0
433.837616 168.0
433.934448 120.0
433.998047 164.0
434.166809 172.0
434.203369 220.0
434.288849 96.0
434.390137 96.0
434.585083 108.0
434.696808 184.0
434.945404 144.0
435.036255 124.0
435.089233 160.0
435.227905 112.0
435.55603 116.0
435.654572 208.0
436.357056 140.0
436.45752 248.0
436.676147 100.0
436.83078 184.0
436.882599 124.0
437.143707 180.0
437.476196 160.0
437.650452 156.0
438.003571 164.0
438.532745 160.0
438.905945 208.0
438.994751 224.0
439.061798 120.0
439.273376 96.0
439.354218 172.0
439.69397 112.0
439.782715 132.0
440.172272 140.0
440.211365 164.0
440.396057 116.0
440.552338 196.0
440.682861 148.0
441.214966 340.0
441.364777 144.0
441.502838 128.0
441.753082 116.0
442.034943 112.0
442.227142 136.0
442.319366 104.0
442.513031 160.0
443.033081 164.0
443.25647 200.0
443.336548 112.0
443.416229 100.0
443.457214 164.0
443.930023 204.0
444.238281 176.0
444.659149 144.0
444.762115 144.0
444.80719 160.0
444.875916 144.0
444.988098 140.0
445.162689 124.0
445.312836 108.0
445.397675 136.0
445.456421 156.0
445.51358 96.0
445.54599 156.0
445.580017 160.0
445.764374 200.0
445.849701 152.0
445.884216 144.0
445.982452 220.0
446.048859 164.0
446.232574 152.0
446.456085 164.0
446.557587 152.0
446.670532 260.0
446.721527 132.0
446.798676 164.0
446.813293 232.0
446.879181 184.0
447.078186 248.0
447.15155 556.0
447.215637 119576.0
447.437103 208.0
447.536652 284.0
447.60672 112.0
447.651459 224.0
447.754913 120.0
448.13324 208.0
448.218231 30664.0
448.494507 156.0
448.57901 100.0
448.706055 100.0
448.7388 144.0
448.9823 200.0
449.118591 132.0
449.21994 4740.0
449.523041 100.0
449.569885 144.0
449.661499 120.0
449.721497 156.0
449.904724 96.0
449.942352 184.0
450.054596 152.0
450.09729 176.0
450.217255 316.0
450.292969 144.0
450.430878 128.0
450.478485 104.0
450.531708 128.0
450.58429 148.0
450.732605 312.0
450.780182 320.0
450.848999 212.0
450.894897 200.0
451.013702 264.0
451.048767 264.0
451.110626 156.0
451.212158 2284.0
451.974121 148.0
452.142517 104.0
452.210144 1072.0
452.271942 180.0
452.534912 108.0
452.891907 124.0
453.009888 132.0
453.237579 240.0
454.014893 176.0
454.21402 1588.0
454.41748 108.0
454.89743 128.0
454.93219 96.0
455.084045 104.0
455.214355 476.0
456.220154 192.0
456.259399 160.0
456.420654 108.0
456.616608 140.0
456.872986 116.0
457.816711 148.0
457.903809 108.0
457.967773 112.0
458.319366 160.0
458.616791 192.0
458.728516 176.0
459.091736 192.0
459.246399 104.0
459.424866 136.0
459.65451 132.0
460.010895 180.0
460.132996 108.0
460.597504 152.0
460.654053 140.0
461.144409 148.0
461.871307 248.0
462.303406 152.0
462.423248 184.0
462.735718 200.0
463.547913 124.0
463.606476 156.0
464.878906 232.0
465.017853 136.0
465.677399 180.0
466.141388 160.0
466.200317 188.0
466.588379 176.0
466.708771 144.0
466.922272 140.0
467.005493 144.0
467.21579 108.0
467.366852 140.0
468.342743 140.0
468.494873 196.0
468.810028 160.0
468.885498 180.0
469.021454 196.0
469.222382 3724.0
469.494843 256.0
469.903778 152.0
470.223785 1272.0
470.564941 148.0
470.741974 176.0
471.224548 168.0
471.689606 96.0
471.854523 116.0
472.139526 112.0
472.475189 152.0
472.746704 112.0
472.79538 188.0
473.362488 172.0
473.496735 184.0
473.726288 224.0
474.270752 204.0
474.406647 156.0
474.791534 136.0
475.243317 144.0
475.321167 168.0
475.807892 140.0
476.009857 140.0
476.17749 224.0
476.428925 212.0
476.754822 152.0
476.854767 148.0
476.898224 152.0
477.055145 244.0
477.155487 152.0
477.238037 144.0
477.275116 208.0
477.658997 116.0
478.724121 144.0
478.833984 112.0
479.032471 104.0
479.500916 184.0
480.058563 116.0
480.239716 124.0
481.027954 140.0
481.177948 200.0
481.349823 172.0
481.739319 184.0
481.843262 116.0
482.017426 104.0
482.125092 228.0
482.252075 148.0
482.416656 164.0
482.75946 148.0
482.940674 176.0
483.190704 160.0
483.734131 124.0
483.924683 148.0
484.037933 120.0
484.246643 124.0
484.759857 108.0
485.161469 184.0
485.20697 164.0
485.586792 184.0
485.731537 148.0
485.887299 140.0
486.208282 304.0
486.543365 172.0
486.786163 120.0
486.934174 168.0
487.18454 228.0
487.734863 168.0
489.078674 108.0
489.546448 196.0
489.665649 184.0
490.493683 180.0
491.022797 148.0
491.83902 176.0
492.383484 152.0
492.894531 148.0
492.995941 160.0
493.520172 96.0
493.580963 96.0
493.898102 152.0
493.995392 148.0
494.592407 160.0
494.867249 184.0
494.967407 116.0
495.201385 532.0
495.428772 120.0
495.859497 244.0
495.889221 204.0
496.211395 216.0
497.230438 1972.0
497.852631 132.0
498.009003 212.0
498.14566 168.0
498.228973 960.0
498.371155 140.0
498.500031 144.0
498.73114 140.0
498.946869 148.0
499.121094 128.0
499.231537 256.0
499.954193 180.0
500.327332 164.0
500.602692 156.0
500.987183 184.0
501.203003 136.0
501.332581 100.0
501.470642 96.0
501.547394 156.0
501.891907 148.0
501.953186 108.0
502.088135 176.0
502.168976 124.0
502.472992 156.0
502.608795 184.0
502.804657 172.0
503.135315 128.0
503.417999 164.0
503.553864 124.0
504.479462 96.0
504.57019 148.0
504.618683 112.0
505.007904 144.0
505.307648 124.0
505.787567 112.0
505.85022 184.0
505.962158 168.0
506.142822 112.0
506.226318 200.0
506.705566 148.0
507.104401 148.0
507.239624 140.0
507.433075 160.0
507.97876 184.0
508.131287 220.0
508.360107 224.0
509.008575 104.0
509.72522 176.0
509.900482 152.0
510.622406 160.0
510.691772 140.0
510.736755 172.0
510.984192 140.0
511.098419 188.0
511.855438 112.0
511.959473 100.0
512.03894 264.0
512.417053 152.0
512.487976 160.0
512.606445 124.0
512.902588 272.0
512.964233 140.0
513.211853 5392.0
513.370605 184.0
513.437256 116.0
513.706909 260.0
513.781677 176.0
513.843506 268.0
514.030945 136.0
514.215454 1476.0
514.378906 124.0
514.652954 184.0
514.756836 156.0
515.221313 356.0
515.527405 172.0
515.735413 156.0
515.947266 144.0
516.129395 168.0
516.211121 208.0
516.666138 196.0
517.28418 140.0
517.529358 96.0
517.679993 140.0
518.070312 216.0
518.319885 180.0
518.620239 100.0
518.795471 212.0
518.991028 100.0
519.364929 132.0
519.49469 148.0
519.94928 152.0
520.130798 284.0
520.805725 164.0
521.101196 112.0
521.848022 168.0
522.266418 160.0
522.489319 196.0
522.521179 204.0
522.734985 144.0
523.120239 100.0
523.206665 2968.0
523.804932 144.0
524.051086 108.0
524.211975 832.0
524.431091 100.0
524.530334 100.0
524.722351 176.0
524.830139 112.0
525.20874 120.0
526.030212 152.0
526.231934 188.0
526.422363 148.0
526.730164 168.0
526.897827 148.0
527.02417 104.0
527.188538 164.0
527.775391 196.0
527.824158 144.0
527.94458 196.0
528.594177 168.0
529.166321 164.0
529.670044 140.0
530.094604 132.0
530.242798 156.0
530.701172 208.0
530.871338 140.0
530.964355 100.0
531.220947 240.0
531.352417 152.0
531.559082 256.0
531.745056 128.0
531.893616 120.0
532.077393 120.0
532.199036 140.0
532.229736 396.0
532.629883 148.0
532.837524 248.0
532.949097 96.0
533.214172 140.0
533.304077 232.0
533.538513 228.0
533.612061 160.0
533.89624 184.0
534.00293 264.0
534.072571 204.0
534.736755 168.0
534.856873 160.0
535.121155 140.0
535.414246 148.0
536.189819 196.0
536.383423 180.0
536.420288 140.0
536.464539 168.0
536.736084 240.0
536.971863 152.0
537.53894 188.0
537.581299 176.0
537.95105 156.0
538.113342 168.0
538.185974 120.0
538.328003 120.0
538.601318 248.0
538.673828 112.0
538.73291 160.0
538.785706 212.0
538.86438 264.0
538.910583 192.0
538.9823 180.0
539.017334 140.0
539.076904 100.0
539.124451 156.0
539.269348 224.0
539.322266 224.0
539.378845 120.0
539.541565 240.0
539.591431 148.0
539.62738 176.0
539.701172 304.0
539.732971 320.0
539.786682 248.0
539.851746 208.0
539.918335 148.0
540.027954 100.0
540.126648 256.0
540.194031 308.0
540.251465 508.0
540.315735 504.0
540.372437 588.0
540.410278 284.0
540.43866 212.0
540.545227 396.0
540.606812 292.0
540.676025 380.0
540.699646 208.0
540.735596 228.0
540.751221 256.0
540.782166 272.0
540.832397 460.0
540.877625 536.0
540.925232 592.0
540.971191 744.0
541.024231 452.0
541.089111 404.0
541.102722 796.0
541.221863 220728.0
541.384277 236.0
541.541199 340.0
541.58905 156.0
541.651978 476.0
541.716858 480.0
541.783875 580.0
541.92334 392.0
541.987793 4672.0
542.078369 332.0
542.108521 704.0
542.223938 134496.0
542.385864 156.0
542.48822 160.0
542.568909 104.0
542.650635 308.0
542.75116 260.0
542.849426 240.0
542.925598 176.0
542.989502 180.0
543.062317 204.0
543.22583 27472.0
543.367493 128.0
543.446289 176.0
543.502502 240.0
543.588562 152.0
543.708252 252.0
543.783447 112.0
543.877502 236.0
543.943787 156.0
544.112915 200.0
544.225586 2352.0
544.346436 96.0
544.513855 136.0
544.557739 140.0
544.642578 148.0
544.848938 208.0
544.908508 176.0
544.947205 236.0
545.076416 116.0
545.09198 192.0
545.107727 296.0
545.180908 140.0
545.220703 592.0
545.313599 420.0
545.379517 472.0
545.426697 188.0
545.476929 256.0
545.527893 208.0
545.602905 192.0
545.654175 236.0
545.767151 152.0
545.845032 308.0
545.923645 232.0
546.00647 96.0
546.047791 108.0
546.141907 172.0
546.315979 176.0
546.362366 108.0
546.465759 220.0
546.613037 260.0
546.668701 312.0
546.785889 128.0
546.869812 108.0
547.0755 184.0
547.196899 112.0
547.312683 200.0
547.404785 108.0
547.506287 196.0
548.812683 188.0
549.008057 120.0
550.330811 96.0
550.422485 152.0
550.565674 132.0
551.395813 124.0
551.668579 172.0
551.702637 192.0
552.343262 212.0
552.392883 116.0
552.66156 96.0
553.351135 140.0
554.017639 172.0
554.124512 124.0
554.352722 96.0
554.637634 152.0
556.388855 104.0
556.595703 120.0
556.747803 128.0
556.847595 196.0
557.077759 176.0
557.233276 124.0
557.458313 176.0
557.680481 160.0
557.880371 204.0
558.011108 192.0
558.060669 124.0
558.322266 132.0
558.516846 188.0
558.581299 140.0
558.790894 164.0
558.865845 360.0
558.991882 176.0
559.066101 128.0
559.122253 168.0
559.232178 77596.0
559.474548 140.0
559.526917 176.0
559.67511 216.0
559.742126 180.0
559.828857 164.0
560.006775 236.0
560.06781 116.0
560.131714 296.0
560.234436 25472.0
560.372742 152.0
560.426697 140.0
560.525635 248.0
560.694458 108.0
560.77179 180.0
560.845398 116.0
560.989136 108.0
561.035034 140.0
561.09198 144.0
561.237244 5048.0
561.323547 248.0
561.474304 256.0
561.617615 104.0
561.748535 112.0
562.235291 524.0
562.374146 224.0
562.887512 124.0
562.950867 112.0
563.016174 120.0
563.244507 216.0
563.276062 220.0
563.557434 136.0
563.641296 144.0
563.685181 212.0
563.838135 124.0
564.803223 120.0
564.973999 152.0
572.257324 100.0
574.458923 140.0
576.511963 132.0
610.931824 100.0
613.850525 112.0
623.661194 152.0
650.297729 140.0
659.123169 172.0
662.14856 120.0
683.277954 128.0
704.993347 152.0
709.384521 140.0
721.847473 96.0
738.752441 96.0
740.259583 144.0
741.097412 100.0
760.348999 108.0
777.15918 108.0
803.247375 104.0
808.069702 220.0
821.964417 96.0
837.444397 96.0
918.773376 172.0
926.360168 164.0
928.815186 212.0
947.799316 96.0
986.3078 152.0
990.35614 176.0
1008.913147 152.0
1017.48468 140.0
1109.730835 112.0
1171.370239 140.0
1221.874756 140.0
1265.835693 144.0
1283.621948 148.0
1290.669678 188.0
1311.359131 144.0
1311.669067 196.0
1318.217285 104.0
1342.439209 236.0
1353.238892 200.0
1354.115356 108.0
1362.487061 160.0
1363.023438 160.0
1378.224487 188.0
1379.007812 200.0
1383.593994 144.0
1390.635986 164.0
1395.432617 204.0
1408.28186 140.0
1409.043823 168.0
1413.567383 176.0
1422.921631 164.0
1423.9729 160.0
1429.242676 140.0
1430.672607 148.0
1435.901855 140.0
1438.082275 156.0
1440.966919 204.0
1450.835693 164.0
1452.140015 188.0
1454.875854 100.0
1459.992798 164.0
1461.331543 184.0
1464.787842 160.0
1468.606567 232.0
1478.309204 144.0
1480.169312 184.0
1481.410034 148.0
1482.298828 156.0
1487.863403 184.0
1491.039551 188.0
1494.938599 212.0
1498.303345 140.0
1501.787598 168.0
1503.646973 168.0
1503.778198 168.0
1506.302979 144.0
1510.214233 172.0
1514.00647 160.0
1515.6875 228.0
1516.051636 244.0
1516.92749 140.0
1520.510864 160.0
1521.776245 152.0
1522.370728 184.0
1523.251709 144.0
1526.982666 144.0
1529.036499 188.0
1530.032837 176.0
1532.792847 124.0
1533.000488 164.0
1541.092163 232.0
1543.593384 180.0
1543.9375 216.0
1544.109497 156.0
1545.196777 184.0
1546.801025 164.0
1554.324829 144.0
1554.434692 172.0
1557.111572 140.0
1558.358276 96.0
1558.431396 204.0
1558.619873 196.0
1563.55835 412.0
1565.597412 140.0
1566.747314 224.0
1568.772583 228.0
1569.434937 164.0
1572.614014 272.0
1573.521851 140.0
1575.559448 184.0
1576.738647 152.0
1579.701782 96.0
1580.342651 184.0
1580.918579 164.0
1585.331177 168.0
1586.036499 184.0
1590.645142 160.0
1590.883301 196.0
1590.98645 212.0
1591.573975 216.0
1594.65625 220.0
1597.784668 172.0
1600.200684 164.0
1601.219971 168.0
1602.550293 208.0
1603.881104 144.0
1605.842529 156.0
1607.693481 188.0
1609.218018 140.0
1609.928711 144.0
1612.597046 152.0
1614.267944 192.0
1615.859619 200.0
1616.731812 164.0
1620.102661 168.0
1624.303223 240.0
1624.944946 156.0
1626.582153 160.0
1628.187866 172.0
1628.388672 152.0
1632.332153 172.0
1633.605225 184.0
1638.169556 184.0
1638.370972 196.0
1638.644897 140.0
1640.087402 144.0
1640.466309 224.0
1641.070923 180.0
1643.119507 180.0
1647.583984 180.0
1651.383179 204.0
1652.300537 160.0
1652.584351 112.0
1653.974609 152.0
1656.150391 156.0
1657.916626 156.0
1659.010742 152.0
1660.454102 172.0
1664.747192 212.0
1664.990723 216.0
1665.924805 192.0
1667.338623 184.0
1669.224609 140.0
1669.832886 248.0
1671.542969 180.0
1671.933594 152.0
1677.512817 140.0
1678.73584 140.0
1678.956055 276.0
1679.086548 212.0
1680.414185 152.0
1685.600952 148.0
1685.707153 188.0
1688.175903 180.0
1689.157349 200.0
1689.320923 192.0
1689.378174 200.0
1690.220947 212.0
1693.135132 188.0
1693.970581 144.0
1695.80603 140.0
1703.313721 192.0
1706.864136 152.0
1707.127197 144.0
1708.854614 152.0
1710.245239 156.0
1710.574585 216.0
1711.381348 140.0
1712.421021 196.0
1712.649536 176.0
1712.715454 144.0
1713.440308 184.0
1713.616943 244.0
1714.709351 144.0
1715.855103 164.0
1716.036499 152.0
1716.696167 240.0
1717.611572 160.0
1718.090088 148.0
1720.012817 188.0
1722.085205 176.0
1724.307739 144.0
1727.582031 172.0
1727.697876 160.0
1732.587402 160.0
1732.731445 156.0
1733.246704 160.0
1733.518555 164.0
1735.607422 168.0
1735.665527 200.0
1736.913208 184.0
1738.153931 144.0
1738.436035 164.0
1738.925659 184.0
1739.066772 152.0
1739.88855 320.0
1741.507812 152.0
1744.083618 176.0
1744.399414 212.0
1744.815063 188.0
1746.245361 140.0
1746.782349 236.0
1747.950684 236.0
1748.017334 148.0
1748.175415 236.0
1748.566528 152.0
1749.049316 200.0
1749.465454 156.0
1750.164917 168.0
1750.634766 128.0
1752.288696 156.0
1753.055298 180.0
1753.530273 184.0
1754.34436 220.0
1754.872437 184.0
1756.356812 216.0
1757.944946 184.0
1758.042114 184.0
1759.277466 196.0
1759.753296 180.0
1760.129028 156.0
1762.058472 156.0
1762.49292 184.0
1764.16626 224.0
1766.179688 196.0
1766.629395 140.0
1767.258789 156.0
1767.585205 156.0
1770.263794 192.0
1770.649048 168.0
1771.101318 140.0
1771.377808 144.0
1771.939087 160.0
1772.936157 152.0
1773.053467 140.0
1774.503662 156.0
1777.800171 152.0
1780.285034 164.0
1781.830444 248.0
1783.637207 140.0
1786.134644 144.0
1786.230591 108.0
1786.370117 216.0
1787.001099 180.0
1787.716309 156.0
1788.456909 164.0
1788.64209 144.0
1789.180908 176.0
1789.555664 132.0
1791.51355 184.0
1791.902344 140.0
1792.061157 176.0
1792.44043 184.0
1793.240967 144.0
1793.911621 168.0
1794.918579 220.0
1795.196899 220.0
1795.272705 160.0
1796.422607 192.0
1797.432251 228.0
1798.504028 176.0
1798.587769 184.0
1800.2854 156.0
1800.471191 160.0
1800.868164 148.0
1801.146851 208.0
1802.050781 240.0
1803.064819 144.0
1803.293091 140.0
1803.712891 172.0
1804.324341 244.0
1806.531494 148.0
1806.937622 156.0
1808.037476 176.0
1808.646973 144.0
1808.934814 164.0
1809.332642 168.0
1810.001587 156.0
1811.119385 228.0
1811.703979 140.0
1813.085083 180.0
1813.830933 160.0
1815.730103 152.0
1817.486084 164.0
1818.495972 164.0
1819.07312 180.0
1819.658936 160.0
1820.117432 192.0
1820.907227 148.0
1821.034546 148.0
1821.300415 132.0
1822.189819 176.0
1822.315918 148.0
1823.065063 184.0
1824.305908 192.0
1824.654541 156.0
1825.912964 148.0
1826.567871 160.0
1827.010254 288.0
1827.827026 164.0
1828.073853 172.0
1829.359009 164.0
1829.767578 320.0
1830.133667 148.0
1831.044922 156.0
1831.164062 144.0
1831.223755 168.0
1832.177734 152.0
1832.60376 184.0
1833.328003 172.0
1833.387695 160.0
1834.001343 168.0
1834.683228 184.0
1835.049927 152.0
1835.229126 160.0
1835.425049 188.0
1836.644531 184.0
1837.590332 268.0
1839.400635 188.0
1840.151978 212.0
1840.326172 168.0
1840.595947 244.0
1841.039917 172.0
1843.645508 148.0
1844.419312 96.0
1845.363647 188.0
1847.681396 140.0
1847.775513 164.0
1848.263184 144.0
1849.55542 172.0
1851.259155 148.0
1852.55249 172.0
1854.231934 172.0
1854.737549 140.0
1855.64624 172.0
1856.722412 136.0
1858.571045 172.0
1859.47168 156.0
1861.515259 160.0
1862.288208 188.0
1863.095703 156.0
1864.814209 172.0
1866.103638 188.0
1866.327148 148.0
1867.075317 172.0
1869.200073 144.0
1870.490845 200.0
1870.796753 140.0
1871.412231 152.0
1871.73938 164.0
1875.176636 144.0
1875.440186 212.0
1875.685181 176.0
1876.20813 176.0
1876.814575 152.0
1878.159912 156.0
1878.763794 148.0
1878.957642 284.0
1879.90271 140.0
1879.983521 196.0
1882.11792 208.0
1882.880981 200.0
1883.088257 144.0
1884.530884 188.0
1885.667603 96.0
1885.879028 224.0
1887.599365 160.0
1887.694458 172.0
1888.52478 164.0
1890.204712 204.0
1890.583862 172.0
1891.068481 144.0
1892.825806 176.0
1892.938477 144.0
1895.103882 148.0
1895.294556 144.0
1895.537109 152.0
1896.102661 216.0
1899.612061 156.0
1900.453491 140.0
1900.783203 168.0
1901.868042 144.0
1902.165771 220.0
1902.293457 168.0
1902.493042 172.0
1902.640625 148.0
1903.708618 180.0
1904.690063 200.0
1904.915894 184.0
1905.094604 180.0
1905.584839 160.0
1906.582153 128.0
1906.888306 188.0
1909.339966 156.0
1909.618286 152.0
1910.157593 148.0
1911.114502 148.0
1911.723999 176.0
1913.015503 132.0
1913.116211 148.0
1913.853271 140.0
1914.178467 148.0
1915.449951 196.0
1915.563232 156.0
1916.338623 140.0
1916.948486 260.0
1917.297119 232.0
1917.401733 156.0
1919.546265 168.0
1919.692505 184.0
1919.799072 148.0
1920.165405 176.0
1921.656982 152.0
1922.93103 140.0
1923.018311 144.0
1923.096924 196.0
1923.969849 152.0
1925.104858 144.0
1925.751099 156.0
1926.03064 140.0
1927.94397 164.0
1928.424683 192.0
1930.575317 192.0
1931.091309 172.0
1931.913574 188.0
1932.009766 192.0
1932.561035 208.0
1932.622192 140.0
1933.120972 200.0
1933.786133 160.0
1933.926147 164.0
1934.871582 172.0
1937.198975 212.0
1937.367432 140.0
1937.840576 192.0
1937.901855 156.0
1937.963257 168.0
1940.876343 168.0
1941.688721 144.0
1942.811523 144.0
1943.215088 256.0
1944.285522 156.0
1944.873901 136.0
1945.171997 160.0
1946.086548 140.0
1946.757812 176.0
1947.221069 196.0
1947.630615 152.0
1949.02063 184.0
1949.458008 152.0
1950.099609 176.0
1951.031372 192.0
1951.092896 252.0
1951.303955 200.0
1951.750366 180.0
1952.227173 176.0
1952.87793 156.0
1952.959351 124.0
1953.176392 168.0
1954.892578 188.0
1955.08252 168.0
1955.367798 140.0
1956.292114 228.0
1956.485718 184.0
1956.650269 116.0
1956.881958 168.0
1957.181274 184.0
1957.401367 200.0
1959.444824 172.0
1960.061646 224.0
1960.211426 156.0
1961.071411 108.0
1961.50708 192.0
1962.917603 164.0
1963.517212 168.0
1963.914062 156.0
1965.89917 152.0
1966.013916 188.0
1966.227417 144.0
1966.99353 184.0
1967.505615 144.0
1968.194214 152.0
1968.264893 148.0
1968.323364 220.0
1969.236328 164.0
1969.465942 192.0
1969.845703 148.0
1973.188843 188.0
1974.875244 156.0
1975.291016 252.0
1975.370605 204.0
1976.402466 100.0
1978.618286 280.0
1979.565796 104.0
1979.707397 232.0
1980.017334 140.0
1980.226807 212.0
1980.982788 196.0
1981.319458 148.0
1981.748779 148.0
1982.887817 156.0
1984.155396 208.0
1984.545532 140.0
1984.988892 176.0
1987.305908 148.0
1987.720947 180.0
1987.93396 144.0
1988.120361 144.0
1988.335205 164.0
1989.265259 156.0
1989.478271 192.0
1991.428589 232.0
1991.787109 216.0
1991.893677 176.0
1992.386475 172.0
1993.083984 144.0
1994.488281 164.0
1994.906128 208.0
1995.848511 168.0
1996.089966 176.0
1996.346436 160.0
1996.473022 172.0
1996.719971 144.0
1997.404907 148.0
1997.484863 164.0
1997.781738 172.0
1997.91272 184.0
1998.721558 184.0
1999.486816 180.0
2000.412476 188.0
2000.733032 180.0
2001.356201 204.0
