>compound MLS001146569-01!(2S)-2-[[2-(3-benzyl-4-methyl-2-oxochromen-7-yl)oxyacetyl]amino]-3-phenylpropanoic acid
>formula C28H25NO6
>ionization [M+H]+
>parentmass 472.176
#inchi InChI=1S/C28H25NO6/c1-18-22-13-12-21(16-25(22)35-28(33)23(18)14-19-8-4-2-5-9-19)34-17-26(30)29-24(27(31)32)15-20-10-6-3-7-11-20/h2-13,16,24H,14-15,17H2,1H3,(H,29,30)(H,31,32)/t24-/m0/s1
#inchikey KTZOKINREVUDBT
#Ion_Source LC-ESI
#Instrument qTof
#Compound_Source NIH Natural Product Library
#PI Dorrestein
#Data_Collector VVP/LMS
#Scan -1
#Precursor_MZ 472.176
#ExactMass 471.168
#Charge 1
#CAS_Number N/A
#Pubmed_ID N/A
#Smiles Cc1c(Cc2ccccc2)c(=O)oc3cc(OCC(=O)N[C@@H](Cc4ccccc4)C(=O)O)ccc13
#INCHI_AUX N/A
#Library_Class 1
#SpectrumID CCMSLIB00000079449
#IonMode Positive
#UpdateWorkflowName UPDATE-SINGLE-ANNOTATED-GOLD
#LibraryQualityString Gold
#TaskID b1d8e8f6646f4e71acdff9ca3d919d08
##Scan# 2350
#SpectrumFile p1-E06_GE6_01_17926.mzXML
#LibraryName NIH_Natural_Products_Library.mgf
#MQScore -1
#Organism NIH_Natural_Products_Library
#TIC_Query 0
#RT_Query -1
#MZErrorPPM -1
#SharedPeaks 0
#MassDiff 0
#LibMZ -1
#SpecMZ 472.176
#SpecCharge 0
#internalFilename spec-00000.mgf

>collision 10
95.011284 204.0
95.14325 152.0
95.358864 136.0
95.372467 80.0
95.514107 128.0
95.564987 216.0
95.650612 156.0
95.833672 200.0
95.886284 168.0
96.075424 148.0
96.132004 144.0
96.256935 132.0
96.348732 96.0
96.370499 144.0
96.393669 184.0
96.514862 76.0
96.575485 148.0
96.659607 128.0
97.057236 180.0
97.24556 132.0
97.294632 164.0
97.681763 196.0
97.756523 100.0
97.862816 380.0
98.032211 172.0
98.197815 188.0
98.258965 160.0
98.375397 204.0
98.480049 124.0
98.733025 232.0
98.782471 132.0
98.806213 104.0
98.824013 144.0
98.998207 232.0
99.033905 144.0
99.06356 132.0
99.150742 76.0
99.299438 176.0
99.391739 324.0
99.539558 112.0
99.557434 68.0
99.615028 88.0
99.640854 204.0
99.817749 184.0
99.86747 100.0
100.026649 176.0
100.11425 216.0
100.134163 100.0
100.201889 84.0
100.273628 56.0
100.308174 192.0
100.357346 156.0
100.393242 144.0
100.427147 136.0
100.736534 184.0
100.806465 84.0
101.002388 212.0
101.040398 224.0
101.086418 204.0
101.14872 152.0
101.176483 120.0
101.270599 176.0
101.302643 156.0
101.354736 204.0
101.39682 104.0
101.535149 152.0
101.599693 164.0
101.659531 132.0
101.689629 128.0
101.806068 176.0
101.904495 168.0
102.047806 396.0
102.142204 196.0
102.214134 224.0
102.29464 204.0
102.310745 184.0
102.389275 192.0
102.487976 208.0
102.570602 148.0
102.869141 184.0
102.882385 224.0
102.919395 180.0
102.962021 164.0
103.011673 296.0
103.055122 4140.0
103.129089 248.0
103.145882 164.0
103.182266 196.0
103.309677 88.0
103.372955 72.0
103.410851 168.0
103.439186 120.0
103.469551 144.0
103.609291 68.0
103.633598 172.0
103.668045 108.0
103.767365 104.0
103.785614 108.0
103.836311 128.0
103.868759 180.0
103.891075 44.0
103.909332 112.0
103.939766 120.0
104.03299 180.0
104.054489 512.0
104.211845 152.0
104.26265 136.0
104.303291 128.0
104.319557 124.0
104.551422 316.0
104.659309 184.0
104.691895 128.0
104.71022 168.0
104.795418 160.0
104.867096 156.0
104.889519 180.0
104.909904 68.0
104.980125 136.0
105.009575 168.0
105.034416 452.0
105.07058 12848.0
105.096054 116.0
105.11692 72.0
105.199577 76.0
105.213867 132.0
105.24041 64.0
105.28421 204.0
105.514183 180.0
105.602226 156.0
105.624611 124.0
105.682373 288.0
105.74942 212.0
105.839493 128.0
105.855873 148.0
105.960335 192.0
106.034103 96.0
106.049248 216.0
106.071747 1092.0
106.126343 112.0
106.308907 148.0
106.358162 104.0
106.395683 128.0
106.534927 188.0
106.551186 188.0
106.587685 168.0
106.730003 104.0
106.750565 76.0
106.801979 40.0
106.849289 224.0
106.887779 136.0
106.948067 40.0
107.049706 488.0
107.070732 200.0
107.07711 112.0
107.094254 72.0
107.277641 56.0
107.296196 172.0
107.485947 140.0
107.551987 112.0
107.578819 180.0
107.597313 188.0
107.626305 196.0
107.653145 60.0
107.737831 84.0
107.777084 124.0
107.814537 160.0
107.870087 36.0
108.014832 128.0
108.056206 80.0
108.134834 196.0
108.167953 192.0
108.215569 204.0
108.387482 192.0
108.451721 184.0
108.486961 48.0
108.580269 360.0
108.669464 144.0
108.731712 100.0
108.829277 144.0
108.854195 144.0
108.94558 156.0
108.972588 80.0
109.024536 104.0
109.070259 232.0
109.130547 192.0
109.153419 76.0
109.238693 120.0
109.282379 64.0
109.378105 52.0
109.409332 144.0
109.580109 120.0
109.615524 92.0
109.955444 156.0
109.986748 164.0
110.157974 48.0
110.187225 60.0
110.260353 168.0
110.287529 192.0
110.343971 52.0
110.385674 232.0
110.513374 160.0
110.597084 76.0
110.613831 176.0
110.747116 104.0
110.829536 88.0
110.919655 120.0
110.938522 132.0
111.13356 208.0
111.248985 140.0
111.267883 280.0
111.309303 220.0
111.515755 108.0
111.578812 164.0
111.707092 152.0
111.721817 108.0
112.069199 160.0
112.366478 160.0
112.429779 144.0
112.531097 164.0
112.581772 60.0
112.763458 52.0
112.786705 80.0
112.902992 224.0
112.998177 176.0
113.05954 132.0
113.080704 144.0
113.157356 208.0
113.231018 148.0
113.423828 192.0
113.506508 216.0
113.544678 176.0
113.661354 180.0
113.76535 196.0
113.803566 184.0
113.890396 180.0
113.969231 160.0
114.083534 184.0
114.245613 164.0
114.369034 188.0
114.443542 248.0
114.539375 116.0
114.741821 84.0
114.950844 60.0
115.025543 180.0
115.055061 4284.0
115.080673 184.0
115.113075 124.0
115.207054 188.0
115.345947 136.0
115.405807 52.0
115.467819 72.0
115.604736 152.0
115.647537 32.0
115.820969 100.0
115.853104 192.0
115.870239 144.0
115.889526 44.0
115.934525 184.0
116.055954 896.0
116.106026 40.0
116.217567 184.0
116.303406 188.0
116.406456 160.0
116.442963 152.0
116.494514 40.0
116.515999 40.0
116.690079 192.0
116.771423 164.0
116.77774 136.0
116.857834 172.0
116.905174 176.0
116.944633 168.0
116.996292 212.0
117.026459 136.0
117.057777 9292.0
117.117516 204.0
117.144165 84.0
117.167862 240.0
117.189407 44.0
117.333801 84.0
117.44162 184.0
117.476135 88.0
117.566757 196.0
117.655251 40.0
117.722183 188.0
117.847466 124.0
117.884193 104.0
117.914452 148.0
117.979294 96.0
118.009567 200.0
118.062805 1164.0
118.150139 176.0
118.206398 52.0
118.230202 84.0
118.273483 188.0
118.336266 132.0
118.403572 48.0
118.427216 224.0
118.487869 232.0
118.557762 140.0
118.604881 204.0
118.627419 172.0
118.829918 216.0
118.906364 92.0
118.928062 44.0
118.99102 88.0
119.048637 424.0
119.07338 204.0
119.078323 316.0
119.10611 160.0
119.245163 72.0
119.477829 108.0
119.558334 124.0
119.617104 136.0
119.745567 48.0
119.760811 176.0
119.817451 112.0
119.880638 128.0
120.020576 176.0
120.044128 148.0
120.081909 12344.0
120.205551 244.0
120.227371 112.0
120.247009 156.0
120.297867 80.0
120.36412 248.0
120.609573 180.0
120.69046 184.0
120.738571 188.0
120.773567 192.0
120.795441 48.0
120.887329 260.0
120.972687 84.0
121.003334 100.0
121.031799 160.0
121.06353 304.0
121.083282 1492.0
121.220177 44.0
121.316612 236.0
121.53154 196.0
121.641266 116.0
121.661644 112.0
121.808151 136.0
121.949928 216.0
122.074089 208.0
122.148865 204.0
122.426178 100.0
122.452606 92.0
122.525299 116.0
122.615639 172.0
122.787827 156.0
123.043388 148.0
123.061226 64.0
123.116432 192.0
123.629303 192.0
123.838287 208.0
123.943741 224.0
124.078941 108.0
124.136589 160.0
124.178726 148.0
124.32959 108.0
124.362877 184.0
124.976219 164.0
125.022949 200.0
125.105301 144.0
125.301048 192.0
125.468422 184.0
125.662453 132.0
125.901291 156.0
126.15377 180.0
126.227554 140.0
126.268219 172.0
126.328194 252.0
126.368462 200.0
126.677406 128.0
126.793915 144.0
126.858917 124.0
126.921692 96.0
126.948601 208.0
127.02037 100.0
127.05191 144.0
127.341339 196.0
127.601997 148.0
127.635727 128.0
127.869675 104.0
127.892189 132.0
128.023666 192.0
128.062119 432.0
128.108353 260.0
128.135391 172.0
128.243546 48.0
128.306671 224.0
128.349503 180.0
128.480316 260.0
128.85733 132.0
128.91156 196.0
128.963547 184.0
129.07103 1408.0
129.100739 164.0
129.289215 156.0
129.318634 220.0
129.456741 136.0
129.472595 208.0
129.536514 196.0
129.569992 168.0
129.698135 168.0
129.758087 112.0
129.80571 136.0
129.871475 140.0
129.923645 172.0
129.988708 196.0
130.038742 172.0
130.065872 14636.0
130.095917 148.0
130.130646 252.0
130.35405 64.0
130.377762 52.0
130.520981 144.0
130.54599 180.0
130.614212 128.0
130.730255 216.0
130.778046 112.0
130.837219 60.0
130.869095 176.0
130.896423 148.0
130.916916 148.0
131.002258 160.0
131.048233 1012.0
131.070389 1780.0
131.099854 132.0
131.126511 128.0
131.153854 260.0
131.185776 116.0
131.343109 352.0
131.393295 108.0
131.461746 220.0
131.482285 104.0
131.547699 156.0
131.574646 180.0
131.631897 192.0
131.658066 156.0
131.774567 176.0
131.807846 204.0
131.833969 104.0
131.865967 176.0
131.925262 132.0
131.951569 268.0
131.968842 128.0
132.022339 100.0
132.032578 96.0
132.081665 61096.0
132.172394 92.0
132.207764 88.0
132.236374 96.0
132.257965 72.0
132.282257 96.0
132.311188 144.0
132.327026 60.0
132.34407 44.0
132.36467 88.0
132.42421 80.0
132.458664 160.0
132.488358 36.0
132.511261 144.0
132.560959 52.0
132.580002 40.0
132.688431 92.0
132.717545 80.0
132.756516 112.0
132.777161 64.0
132.793213 72.0
132.844742 96.0
132.868912 156.0
132.889557 132.0
132.910202 44.0
133.013824 80.0
133.044983 116.0
133.083542 6872.0
133.169617 104.0
133.222443 88.0
133.268402 60.0
133.305161 68.0
133.335037 52.0
133.352676 124.0
133.397095 32.0
133.413177 52.0
133.495956 172.0
133.512054 44.0
133.656982 48.0
133.68689 84.0
133.746735 68.0
133.835327 292.0
133.859543 100.0
133.89122 148.0
133.933228 72.0
133.983917 80.0
134.043915 100.0
134.072433 352.0
134.086777 416.0
134.141769 112.0
134.157852 108.0
134.202866 108.0
134.267426 84.0
134.295105 116.0
134.336624 68.0
134.451981 172.0
134.547485 64.0
134.693115 172.0
134.735992 116.0
134.75679 124.0
134.819168 80.0
134.844589 132.0
134.969421 64.0
135.04538 336.0
135.075806 148.0
135.138275 260.0
135.249344 192.0
135.487869 128.0
135.541153 108.0
135.768326 148.0
136.043823 152.0
136.072296 108.0
136.095505 112.0
136.19072 128.0
136.251114 184.0
136.444016 160.0
136.485855 144.0
137.074768 168.0
137.403519 152.0
137.447845 160.0
137.529526 156.0
137.571548 128.0
137.896225 240.0
138.097122 164.0
138.256378 92.0
138.510193 148.0
138.56546 192.0
138.598267 156.0
138.628723 140.0
138.80687 68.0
139.057892 184.0
139.107178 96.0
139.384308 184.0
139.71582 96.0
140.196152 192.0
140.269211 244.0
140.32579 112.0
140.49559 80.0
140.514465 112.0
140.561661 160.0
140.854401 88.0
140.887482 184.0
140.927643 136.0
141.067657 164.0
141.522141 68.0
141.862457 160.0
141.916992 84.0
141.959671 100.0
142.064667 516.0
142.4272 52.0
142.570068 124.0
143.047058 628.0
143.071472 160.0
143.684097 156.0
143.74614 196.0
144.057632 332.0
144.0793 148.0
144.142517 80.0
144.807571 48.0
144.953705 88.0
144.994446 124.0
145.064194 900.0
145.092148 180.0
145.380539 128.0
145.500549 164.0
145.58699 180.0
146.060471 96.0
146.204819 64.0
146.443176 44.0
146.643143 148.0
146.679291 76.0
146.86496 108.0
147.045166 372.0
147.101425 176.0
147.212494 100.0
147.309097 136.0
147.635391 196.0
147.676498 116.0
147.741806 88.0
147.824066 52.0
147.85553 164.0
147.91362 204.0
147.993866 164.0
148.049957 324.0
148.076385 292.0
148.390854 140.0
148.563049 136.0
148.689224 116.0
149.06076 180.0
149.128815 112.0
149.863724 128.0
149.944138 120.0
150.01239 208.0
150.089996 448.0
150.146484 204.0
150.197708 204.0
150.263565 88.0
150.683487 160.0
150.854568 172.0
150.879013 108.0
151.277756 152.0
151.495697 164.0
151.691742 32.0
152.061752 472.0
152.106293 208.0
152.189758 160.0
152.337112 92.0
152.63942 108.0
152.715652 220.0
152.804214 192.0
153.070496 276.0
153.313904 192.0
153.498795 32.0
153.888641 100.0
154.073669 204.0
154.645065 84.0
154.820847 96.0
154.870819 112.0
155.066254 424.0
155.150391 92.0
155.242126 96.0
155.331421 148.0
155.547302 56.0
155.604385 96.0
155.736008 180.0
155.770782 120.0
156.034195 160.0
156.061539 188.0
156.115265 160.0
156.248077 200.0
156.616486 136.0
156.930267 236.0
157.065964 160.0
157.105057 128.0
157.459503 172.0
157.527252 140.0
157.721848 132.0
157.924362 176.0
158.041946 68.0
158.076981 100.0
158.202118 136.0
158.314789 196.0
158.41246 68.0
158.487625 56.0
158.703186 160.0
158.798477 116.0
159.064438 124.0
159.105545 192.0
159.267822 212.0
159.388412 124.0
159.622177 100.0
159.707687 176.0
159.757996 96.0
160.053131 480.0
160.074249 1248.0
160.113449 452.0
160.143112 56.0
160.17334 204.0
160.534653 144.0
160.642197 204.0
160.949142 180.0
160.993027 116.0
161.020798 152.0
161.060272 4252.0
161.111633 372.0
161.483307 132.0
161.53389 84.0
161.581955 52.0
161.624969 60.0
161.683167 192.0
161.754044 152.0
162.060928 716.0
162.088333 312.0
162.118744 36.0
162.281235 192.0
162.302383 160.0
162.384949 184.0
162.402695 92.0
162.542221 136.0
162.933228 96.0
162.968796 184.0
162.986588 132.0
163.041183 328.0
163.064575 144.0
163.121277 132.0
163.612244 136.0
163.744644 156.0
163.836349 204.0
164.04277 168.0
164.407486 124.0
164.496826 212.0
164.790512 116.0
164.83905 152.0
164.885056 180.0
164.954071 116.0
165.071228 748.0
165.596298 172.0
165.880707 40.0
166.076645 632.0
166.124313 156.0
166.375809 216.0
166.457962 164.0
166.771393 68.0
166.804794 76.0
167.08577 844.0
167.33989 180.0
167.525314 84.0
167.901627 136.0
168.084717 308.0
168.218994 40.0
168.237061 152.0
168.443649 120.0
168.534943 188.0
169.062775 180.0
169.104263 144.0
169.395569 44.0
169.776566 120.0
169.841751 180.0
170.043777 172.0
170.061951 136.0
170.093094 208.0
170.18396 196.0
170.391724 240.0
170.565842 180.0
170.677628 176.0
171.014816 116.0
171.044312 156.0
171.07843 144.0
171.108459 176.0
171.393417 68.0
171.41687 60.0
171.528946 164.0
171.596725 140.0
172.051498 364.0
172.241287 180.0
172.445099 192.0
172.947266 188.0
172.981293 156.0
173.025803 152.0
173.057159 804.0
173.135773 36.0
173.234711 176.0
173.282455 72.0
173.366302 184.0
173.770111 76.0
174.022064 164.0
174.069336 60.0
174.171753 64.0
174.245316 204.0
174.371445 48.0
175.040115 352.0
175.121155 200.0
175.313583 196.0
175.334671 220.0
175.582489 220.0
175.888535 136.0
176.042694 180.0
176.062973 280.0
176.242416 144.0
176.990952 192.0
177.012146 116.0
177.07132 432.0
177.22934 144.0
177.266434 132.0
177.377747 176.0
177.428116 140.0
177.451981 128.0
177.550095 208.0
177.589874 140.0
177.629272 84.0
177.672104 188.0
177.770279 136.0
177.841934 156.0
177.93483 164.0
177.979965 52.0
178.017151 152.0
178.078323 9432.0
178.131348 216.0
178.224335 128.0
178.482162 60.0
178.532684 148.0
179.009018 56.0
179.030319 212.0
179.083389 2432.0
179.114456 156.0
179.272736 28.0
179.445999 64.0
179.52066 184.0
179.862152 36.0
179.931564 124.0
180.091019 784.0
180.383942 124.0
180.583557 136.0
180.899292 216.0
181.062408 204.0
181.103119 568.0
181.378784 104.0
181.95285 108.0
182.106415 428.0
182.127396 132.0
183.014847 48.0
183.083649 188.0
183.117172 172.0
183.766815 120.0
184.005753 144.0
184.079636 112.0
184.433838 92.0
184.590637 124.0
184.609573 140.0
184.690704 108.0
184.842209 108.0
185.600632 204.0
185.768784 92.0
185.790482 68.0
185.874588 168.0
186.014862 188.0
186.37825 140.0
187.391556 188.0
187.978012 140.0
188.049561 532.0
188.082321 216.0
188.107956 388.0
188.155426 132.0
188.245529 156.0
188.360229 124.0
188.43399 60.0
188.507767 88.0
188.556961 124.0
188.701828 184.0
188.759247 152.0
188.783859 164.0
188.827881 124.0
188.876846 136.0
188.927811 236.0
188.972595 260.0
188.992096 188.0
189.022873 328.0
189.055283 39152.0
189.108124 132.0
189.17511 96.0
189.205231 48.0
189.233673 60.0
189.273682 52.0
189.302567 116.0
189.446213 128.0
189.473618 56.0
189.50499 60.0
189.544464 116.0
189.594177 148.0
189.617599 80.0
189.655533 76.0
189.717514 36.0
189.746216 68.0
189.777069 116.0
189.818954 104.0
189.851868 132.0
189.931396 148.0
189.997238 68.0
190.058395 4728.0
190.120712 72.0
190.168045 96.0
190.21402 56.0
190.635025 72.0
190.689194 84.0
190.848633 44.0
190.870636 60.0
190.903641 36.0
191.00058 156.0
191.060089 540.0
191.083801 476.0
191.151199 84.0
191.189728 88.0
191.272293 84.0
191.316345 68.0
191.341125 184.0
191.419952 108.0
191.445755 108.0
191.498077 116.0
191.520111 108.0
191.577957 132.0
191.670212 116.0
191.82872 52.0
192.025635 164.0
192.094437 1332.0
192.190002 128.0
192.272797 64.0
192.327988 80.0
192.775391 68.0
192.921875 124.0
192.957825 48.0
192.993759 212.0
193.029709 84.0
193.058655 292.0
193.101593 7892.0
193.132462 360.0
193.176285 52.0
193.334 44.0
193.358902 40.0
193.46962 128.0
193.497314 160.0
193.699463 92.0
193.724976 76.0
193.83522 68.0
194.070053 160.0
194.10318 940.0
194.140137 228.0
194.247009 188.0
194.409225 104.0
195.078522 352.0
195.114029 556.0
195.256546 72.0
195.334427 116.0
195.365021 68.0
195.392838 64.0
196.01239 100.0
196.097595 128.0
196.116852 160.0
196.136353 208.0
196.239502 104.0
196.523987 48.0
196.568634 68.0
197.094849 212.0
197.124313 156.0
197.232529 184.0
197.683594 136.0
198.019531 156.0
198.118698 228.0
198.762405 68.0
198.796082 184.0
199.048721 192.0
199.085236 128.0
200.052429 160.0
200.73143 148.0
201.053391 784.0
201.256256 52.0
201.414413 28.0
201.459595 192.0
202.072693 152.0
202.545837 112.0
202.616653 104.0
202.681824 224.0
202.868866 120.0
203.083817 912.0
203.308502 92.0
203.524231 160.0
204.033524 156.0
204.092575 580.0
204.530609 180.0
204.610321 136.0
204.752686 160.0
204.77832 160.0
204.886566 108.0
204.952087 144.0
205.040436 164.0
205.101212 832.0
205.160995 80.0
205.182953 40.0
205.34549 200.0
205.41394 180.0
205.593689 148.0
205.779221 164.0
206.077209 452.0
206.105225 292.0
206.313461 156.0
206.470383 168.0
207.07991 1508.0
207.118332 356.0
207.126709 524.0
208.083496 596.0
208.132767 124.0
208.330933 120.0
208.356796 84.0
208.65567 68.0
208.764938 140.0
209.092651 420.0
209.127426 148.0
209.156219 156.0
209.205154 200.0
209.533447 188.0
209.813004 136.0
210.170639 168.0
210.710541 48.0
211.077606 152.0
211.112808 188.0
211.552094 88.0
211.760574 108.0
212.003922 112.0
212.082184 156.0
213.019409 92.0
213.060577 260.0
213.661865 124.0
213.964523 204.0
214.050797 204.0
214.722122 48.0
215.082718 136.0
215.978027 104.0
216.045303 144.0
216.449203 36.0
217.044022 120.0
217.080383 168.0
217.111465 144.0
217.325592 76.0
217.69545 60.0
217.889297 92.0
218.068481 352.0
218.092056 192.0
218.406662 112.0
218.60379 212.0
218.680298 116.0
218.759766 68.0
219.077393 136.0
219.124084 136.0
219.673279 116.0
220.088715 272.0
220.402496 232.0
220.659637 348.0
220.857758 144.0
220.878464 128.0
220.937637 48.0
221.095505 12844.0
221.192413 80.0
221.28389 216.0
221.35791 80.0
221.384567 48.0
221.597839 60.0
221.654129 136.0
221.731171 56.0
221.760818 52.0
221.828995 48.0
221.974258 52.0
222.040939 124.0
222.099792 1844.0
222.13739 208.0
222.196716 44.0
222.288696 48.0
222.377716 40.0
222.636017 56.0
222.761917 112.0
222.823135 76.0
222.906342 100.0
222.953888 176.0
223.019272 196.0
223.077789 620.0
223.109619 1652.0
223.444504 56.0
223.509949 96.0
223.697449 52.0
223.721268 160.0
223.756989 80.0
224.022034 152.0
224.07132 308.0
224.119736 612.0
224.230606 40.0
224.537689 160.0
224.603302 72.0
224.773346 112.0
224.797775 64.0
225.088516 144.0
225.116638 164.0
225.206223 60.0
225.53598 220.0
225.663437 232.0
225.842865 88.0
225.902679 84.0
226.192947 76.0
226.456436 144.0
227.082825 156.0
227.893341 132.0
228.067917 144.0
228.332214 64.0
228.575882 128.0
229.048996 1264.0
229.729797 48.0
230.049667 116.0
230.291229 36.0
230.554077 44.0
230.795898 116.0
231.059021 124.0
231.087906 44.0
231.38588 76.0
232.055435 136.0
232.087982 120.0
232.458847 144.0
233.066147 124.0
233.095032 716.0
233.40657 60.0
233.528214 44.0
233.625549 56.0
233.780731 84.0
234.039459 160.0
234.060593 196.0
234.085129 144.0
234.657959 32.0
234.861191 56.0
235.06488 88.0
235.110703 456.0
235.228439 56.0
235.252853 52.0
235.298645 84.0
235.677368 96.0
236.080322 296.0
236.109375 160.0
237.005295 100.0
237.083237 340.0
237.25354 160.0
237.547928 108.0
238.100693 272.0
238.303146 68.0
238.524414 188.0
238.794983 64.0
238.914948 160.0
239.105713 140.0
239.983627 76.0
240.062119 120.0
241.097961 160.0
241.648361 140.0
242.072403 128.0
243.008484 36.0
243.092819 144.0
243.303314 216.0
243.98056 84.0
244.440872 180.0
244.833115 72.0
245.054276 172.0
245.107239 236.0
245.334763 92.0
245.737061 176.0
246.068588 216.0
246.805252 188.0
247.062164 160.0
247.268219 144.0
247.791153 36.0
248.082687 144.0
248.725647 172.0
248.866928 192.0
249.0522 156.0
249.090897 5472.0
249.265839 44.0
249.41983 52.0
249.627319 60.0
249.932434 216.0
250.095413 1452.0
250.683945 224.0
251.064835 148.0
251.106659 3004.0
251.293564 40.0
251.423096 76.0
251.650208 148.0
251.691254 136.0
251.814407 56.0
251.858627 120.0
251.961502 92.0
252.107391 912.0
252.465439 208.0
252.503387 56.0
253.082428 256.0
253.118896 104.0
253.20282 176.0
253.234482 116.0
253.836609 52.0
254.084 164.0
254.131592 72.0
254.290253 136.0
255.071609 128.0
255.364136 52.0
255.7332 148.0
255.911469 100.0
255.933762 128.0
255.984695 60.0
256.070679 120.0
256.140747 132.0
256.500824 140.0
257.05896 124.0
257.742279 144.0
259.082825 200.0
259.259308 108.0
260.083313 172.0
260.407593 168.0
261.002106 144.0
261.098663 280.0
262.086823 140.0
262.144806 48.0
262.393005 88.0
262.786469 32.0
262.999451 212.0
263.025269 160.0
263.080048 348.0
263.10733 264.0
263.532288 184.0
263.758514 76.0
264.089417 340.0
264.405365 52.0
264.664337 168.0
264.835968 64.0
265.090363 652.0
265.701477 48.0
266.098236 796.0
266.626862 72.0
266.698364 60.0
267.026764 196.0
267.101776 1988.0
267.221924 64.0
267.293518 64.0
268.105438 296.0
269.020874 116.0
269.12207 196.0
270.295502 112.0
271.068268 128.0
272.479156 144.0
272.620422 32.0
273.08786 132.0
273.900269 140.0
274.090118 284.0
274.862915 96.0
275.108887 92.0
275.982635 116.0
276.10498 128.0
276.518524 120.0
276.66748 56.0
277.041687 152.0
277.085083 624.0
277.678101 192.0
277.933533 64.0
277.996582 140.0
278.087769 160.0
278.368378 160.0
278.551056 88.0
278.697205 128.0
278.793579 212.0
278.964935 196.0
279.100891 9944.0
279.21579 132.0
279.29892 84.0
279.330902 76.0
279.367035 68.0
279.402069 36.0
279.431519 56.0
279.505188 92.0
280.017853 160.0
280.104736 2440.0
280.34433 52.0
280.484314 100.0
280.677673 64.0
280.751953 44.0
280.891113 48.0
281.079865 1452.0
281.592041 56.0
281.648834 100.0
281.976257 48.0
282.094421 184.0
282.132629 128.0
282.233643 80.0
282.283813 92.0
282.46106 40.0
282.638367 44.0
282.782288 36.0
282.922852 108.0
283.081024 176.0
283.435303 56.0
283.87442 52.0
284.27359 88.0
285.607361 32.0
286.064972 96.0
288.872559 56.0
289.05188 120.0
289.088318 104.0
290.111969 184.0
291.100433 1492.0
291.177368 200.0
291.721039 100.0
292.102448 436.0
292.217529 92.0
292.285583 92.0
293.014221 44.0
293.116882 164.0
293.327728 40.0
293.904083 152.0
294.10202 136.0
294.337585 76.0
295.154236 136.0
295.427826 124.0
296.773773 104.0
296.825195 56.0
297.117615 328.0
299.068542 56.0
299.515381 108.0
299.991669 128.0
301.710846 60.0
303.100708 296.0
303.670715 72.0
304.100922 116.0
304.208527 128.0
305.052979 84.0
305.097839 136.0
306.113586 124.0
306.371552 40.0
307.096313 472.0
308.094574 88.0
308.881439 160.0
309.03186 160.0
309.133331 88.0
310.415405 140.0
310.857391 76.0
311.131165 132.0
312.867828 88.0
313.160095 180.0
313.202362 60.0
314.150574 180.0
314.655243 104.0
314.976593 96.0
315.365265 108.0
315.94516 56.0
317.110138 132.0
317.861938 132.0
319.610168 112.0
320.671356 44.0
320.952972 188.0
321.031433 80.0
322.037842 124.0
323.024353 92.0
323.070862 124.0
323.199677 56.0
324.001648 128.0
324.101959 116.0
324.128601 128.0
325.102417 136.0
325.127533 120.0
325.56192 132.0
326.104401 168.0
331.101227 144.0
331.804199 64.0
333.045227 148.0
333.125153 120.0
334.121338 184.0
335.08963 144.0
335.122406 156.0
336.285675 160.0
336.71286 84.0
337.039368 256.0
337.867889 152.0
338.034607 164.0
339.13855 156.0
340.144806 224.0
341.054504 116.0
341.1427 116.0
342.356873 136.0
343.189667 44.0
347.624664 96.0
347.984711 112.0
348.122406 1220.0
348.211243 60.0
348.389526 56.0
348.7388 100.0
348.969299 216.0
349.120483 552.0
349.638855 120.0
350.122284 112.0
350.625732 44.0
351.140228 156.0
351.849182 176.0
352.121765 108.0
352.147919 68.0
352.955109 44.0
353.157074 144.0
353.385254 60.0
354.433624 84.0
354.939636 120.0
356.042908 136.0
356.166931 140.0
358.95932 144.0
360.193451 160.0
360.900146 80.0
361.338867 56.0
362.520233 128.0
362.74762 68.0
363.127197 164.0
364.08316 196.0
366.201538 88.0
368.860992 184.0
369.145782 668.0
369.197449 152.0
369.595245 48.0
370.154877 592.0
370.901184 108.0
371.15506 140.0
373.058472 92.0
377.87912 120.0
380.037201 172.0
380.47818 40.0
381.135925 204.0
382.680145 164.0
382.816406 96.0
383.124115 124.0
385.161469 168.0
388.448395 112.0
391.13736 164.0
392.645142 40.0
393.323761 60.0
394.010864 136.0
394.12854 2604.0
394.192627 80.0
394.255829 96.0
394.342804 132.0
395.132111 760.0
395.302002 44.0
395.580841 64.0
396.127167 272.0
396.729614 120.0
397.463348 56.0
398.177216 164.0
398.885132 96.0
399.10379 104.0
399.187286 196.0
403.741364 172.0
404.445526 164.0
405.430756 92.0
405.97998 60.0
407.071472 316.0
408.146698 392.0
408.345398 128.0
409.153595 156.0
409.339417 76.0
410.072601 88.0
410.10083 80.0
412.688446 132.0
415.105164 140.0
416.136353 168.0
416.61557 88.0
419.150299 148.0
422.469574 60.0
423.923065 120.0
424.788147 224.0
425.05484 88.0
425.083557 124.0
425.613068 40.0
425.94162 164.0
426.089508 144.0
426.168945 3004.0
426.232941 44.0
426.422333 60.0
426.75531 96.0
426.870422 56.0
427.169189 1360.0
428.192749 264.0
429.481476 96.0
429.935303 132.0
429.984833 92.0
430.071503 64.0
430.781708 104.0
435.815338 36.0
436.068817 44.0
443.472992 72.0
446.041748 128.0
447.147919 48.0
449.457214 76.0
451.396057 44.0
452.127869 84.0
456.812042 48.0
457.382233 64.0
458.374542 108.0
458.532227 84.0
461.550293 68.0
468.033722 72.0
469.628204 84.0
470.560303 116.0
472.167114 284.0
472.323425 80.0
473.180267 192.0
474.176544 132.0
478.111237 48.0
485.169739 88.0
490.352112 108.0
492.090088 112.0
496.475128 116.0
497.07843 112.0
500.363037 68.0
510.111969 272.0
510.145203 156.0
514.724426 60.0
528.139343 404.0
529.124146 120.0
533.316833 100.0
548.499146 96.0
551.528442 76.0
555.438232 96.0
576.727478 96.0
582.78479 112.0
608.876526 56.0
639.962708 152.0
640.692932 116.0
645.674866 140.0
653.456116 256.0
664.14801 56.0
668.581848 72.0
671.580322 100.0
680.486145 188.0
681.192444 112.0
707.778015 128.0
742.97699 48.0
759.478271 164.0
760.504272 132.0
762.844238 156.0
766.173584 52.0
768.014709 48.0
773.141785 88.0
775.850281 96.0
782.806519 100.0
794.886353 72.0
799.381775 132.0
804.493774 104.0
811.129089 216.0
813.312927 160.0
828.194702 68.0
828.349365 120.0
835.122437 124.0
838.179321 96.0
839.781921 80.0
840.404968 156.0
840.612671 192.0
861.602295 196.0
862.987427 84.0
871.915039 52.0
876.092651 188.0
879.536316 68.0
880.250671 184.0
882.779846 132.0
888.495483 216.0
899.044983 204.0
900.973572 184.0
903.604065 176.0
906.052673 72.0
913.111633 52.0
913.21991 216.0
919.304688 168.0
920.125549 132.0
924.725586 180.0
926.693604 192.0
928.742615 196.0
929.956116 188.0
931.188599 64.0
933.473572 176.0
937.893494 76.0
938.460449 56.0
938.783569 28.0
944.371643 84.0
945.356628 168.0
955.197632 152.0
957.727478 244.0
958.442078 232.0
976.53717 20.0
977.551208 72.0
979.437561 220.0
979.830017 76.0
982.804016 128.0
983.440552 176.0
989.178528 168.0
990.055115 52.0
993.558899 76.0
993.872559 176.0
996.032166 196.0
998.137512 36.0
1004.101074 124.0
1010.012817 168.0
1010.677063 272.0
1012.234192 108.0
1012.48114 152.0
1015.104675 140.0
1019.445801 152.0
1024.250122 180.0
1024.600464 176.0
1026.11731 156.0
1027.641602 200.0
1027.966919 164.0
1028.21582 172.0
1029.422363 136.0
1029.479858 204.0
1030.417969 152.0
1031.620239 140.0
1031.665039 124.0
1033.378906 216.0
1034.792603 152.0
1034.814331 132.0
1034.827271 188.0
1035.081543 56.0
1035.978149 96.0
1036.317749 224.0
1038.510132 176.0
1040.422241 76.0
1040.813965 128.0
1041.167114 172.0
1043.165283 216.0
1045.661011 244.0
1046.19519 196.0
1048.043579 88.0
1052.255249 200.0
1053.094727 140.0
1054.283447 164.0
1057.193481 104.0
1060.217773 104.0
1064.038208 32.0
1064.557617 164.0
1065.057739 140.0
1067.17627 136.0
1069.479126 200.0
1070.488159 192.0
1073.896606 176.0
1074.979614 56.0
1075.097046 84.0
1078.068359 60.0
1079.133789 132.0
1079.774536 204.0
1083.007812 208.0
1083.446655 176.0
1084.842529 96.0
1085.373535 120.0
1087.085571 140.0
1088.339355 228.0
1088.641724 80.0
1090.63208 44.0
1092.091675 176.0
1092.229858 112.0
1092.473145 148.0
1092.571899 100.0
1094.95459 160.0
1095.689453 172.0
1095.758301 108.0
1097.02356 176.0
1097.379517 156.0
1099.655396 232.0
1100.751221 196.0
1104.584473 192.0
1105.365112 56.0
1106.291748 152.0
1107.417358 168.0
1109.20813 220.0
1111.023315 128.0
1111.89917 228.0
1113.160522 104.0
1114.276367 188.0
1114.542114 248.0
1115.977783 168.0
1117.620605 136.0
1118.632202 144.0
1120.323608 136.0
1122.996582 240.0
1123.536865 164.0
1123.75708 72.0
1126.093384 116.0
1126.474121 168.0
1127.95752 168.0
1128.72644 168.0
1129.114258 180.0
1129.281494 164.0
1129.348389 132.0
1130.224731 116.0
1130.887207 128.0
1132.97644 184.0
1133.076904 96.0
1133.411865 220.0
1138.295044 172.0
1139.255493 164.0
1140.182739 224.0
1145.794556 152.0
1146.879395 84.0
1147.169312 152.0
1148.807983 72.0
1151.136475 140.0
1151.318726 164.0
1151.56189 92.0
1152.304932 168.0
1153.839111 176.0
1156.402832 148.0
1157.770386 128.0
1160.019775 184.0
1160.067261 160.0
1160.412964 40.0
1161.843994 124.0
1162.766724 176.0
1163.1604 252.0
1163.404785 208.0
1163.513428 216.0
1166.203369 212.0
1166.774414 80.0
1167.971191 112.0
1169.052979 76.0
1169.835693 212.0
1170.407593 172.0
1173.13269 192.0
1173.759888 196.0
1174.298706 184.0
1175.0354 176.0
1175.472046 248.0
1176.530029 152.0
1182.107178 68.0
1183.332397 208.0
1183.777466 204.0
1185.723022 156.0
1187.073486 160.0
1187.279175 188.0
1187.670166 132.0
1190.916626 52.0
1191.335693 188.0
1191.933472 136.0
1193.424927 192.0
1196.204346 236.0
1196.789429 204.0
1199.703735 152.0
1200.848389 188.0
1203.456787 160.0
1203.705444 180.0
1203.753662 184.0
1204.941772 196.0
1205.487549 204.0
1206.289307 140.0
1206.738647 128.0
1208.668335 156.0
1210.474976 232.0
1210.661987 144.0
1213.911987 228.0
1213.981323 64.0
1215.49353 184.0
1216.395752 196.0
1218.256836 128.0
1218.416626 180.0
1219.11145 80.0
1220.209595 200.0
1221.378784 156.0
1221.572632 36.0
1221.767456 204.0
1221.99707 124.0
1222.581543 68.0
1224.530884 132.0
1225.324951 176.0
1225.401611 140.0
1227.47168 180.0
1227.904053 188.0
1228.134155 160.0
1228.308594 164.0
1228.796875 192.0
1230.073975 140.0
1230.136841 144.0
1233.867188 112.0
1234.028076 184.0
1236.938232 128.0
1237.995483 116.0
1238.976074 140.0
1239.214233 136.0
1239.755859 184.0
1240.475708 280.0
1241.408203 64.0
1241.499268 156.0
1241.55542 136.0
1243.484741 160.0
1244.179565 172.0
1244.467407 104.0
1244.8396 168.0
1245.183716 72.0
1245.267944 200.0
1246.153076 208.0
1246.335815 256.0
1251.209839 172.0
1251.287231 208.0
1252.054688 88.0
1252.315308 156.0
1253.223755 168.0
1253.477661 200.0
1254.069702 80.0
1254.196533 100.0
1254.654785 92.0
1256.834106 196.0
1257.335083 20.0
1257.723267 68.0
1258.612793 168.0
1261.049927 148.0
1261.975952 192.0
1264.805664 80.0
1265.195068 172.0
1266.157959 140.0
1267.199341 208.0
1267.780273 240.0
1270.00647 144.0
1270.290161 172.0
1271.276367 132.0
1271.595703 216.0
1271.829956 84.0
1271.986084 100.0
1272.527588 156.0
1273.57666 168.0
1274.375 228.0
1276.75354 136.0
1276.87439 176.0
1277.180298 144.0
1277.776123 176.0
1279.208252 176.0
1280.190674 176.0
1280.881592 76.0
1281.330322 136.0
1281.601074 40.0
1281.765015 152.0
1282.021484 200.0
1282.605957 200.0
1283.561279 176.0
1284.474121 132.0
1284.937866 176.0
1285.715576 92.0
1286.857666 148.0
1286.914795 108.0
1287.064697 196.0
1288.843262 176.0
1289.071899 92.0
1291.080688 216.0
1291.53833 148.0
1293.269897 152.0
1293.828247 180.0
1294.379517 184.0
1295.210327 92.0
1296.36377 152.0
1296.901245 192.0
1297.317017 160.0
1299.891846 76.0
1300.695679 244.0
1301.873047 140.0
1302.656006 108.0
1303.309692 48.0
1306.940796 236.0
1307.45166 152.0
1307.854736 176.0
1308.049072 152.0
1309.10022 212.0
1311.210938 196.0
1313.071045 188.0
1313.734619 64.0
1314.89624 104.0
1316.536987 136.0
1317.062256 192.0
1319.11438 140.0
1320.16272 136.0
1320.95105 212.0
1321.623901 188.0
1322.854248 200.0
1323.607178 156.0
1325.034058 224.0
1326.287598 192.0
1326.795044 124.0
1326.943237 220.0
1328.680664 164.0
1331.221069 304.0
1332.913574 156.0
1333.582153 144.0
1334.694336 200.0
1335.130615 92.0
1337.28418 144.0
1337.437012 120.0
1338.529053 116.0
1338.893066 104.0
1339.351929 68.0
1339.541382 84.0
1340.503052 128.0
1341.421387 104.0
1342.259766 168.0
1342.90918 144.0
1343.054688 64.0
1345.141602 192.0
1345.557617 128.0
1346.923218 204.0
1347.361572 160.0
1347.668457 180.0
1349.517578 164.0
1349.736938 100.0
1351.770386 168.0
1351.828979 176.0
1352.838989 128.0
1353.724854 216.0
1354.493896 172.0
1354.823486 80.0
1355.079956 164.0
1355.205322 208.0
1355.314453 200.0
1355.783447 144.0
1358.775024 64.0
1358.973145 88.0
1359.905029 68.0
1360.066528 132.0
1360.161987 144.0
1361.40271 156.0
1361.637695 164.0
1362.306152 132.0
1362.578003 176.0
1363.033447 196.0
1363.187744 68.0
1363.452393 48.0
1364.00354 160.0
1364.547607 120.0
1365.128418 188.0
1365.591797 144.0
1366.136108 176.0
1368.299683 136.0
1369.757812 196.0
1371.17981 188.0
1371.62207 180.0
1372.123291 148.0
1372.528809 180.0
1373.22937 224.0
1373.738281 132.0
1374.608887 144.0
1375.605225 128.0
1375.9375 172.0
1376.055664 196.0
1376.424805 184.0
1377.251953 188.0
1377.687744 212.0
1377.848999 164.0
1378.166748 192.0
1378.640869 184.0
1379.074097 192.0
1379.312012 204.0
1382.387207 224.0
1383.174561 124.0
1387.960449 220.0
1388.30896 180.0
1388.672363 168.0
1388.954224 132.0
1390.05957 152.0
1390.200562 132.0
1390.994751 192.0
1391.633179 136.0
1392.457397 236.0
1392.89563 172.0
1393.081421 76.0
1393.772339 100.0
1395.281128 180.0
1395.370239 92.0
1396.455933 96.0
1397.64624 176.0
1397.780151 156.0
1399.827148 164.0
1399.931396 168.0
1400.125 136.0
1401.488159 116.0
1401.629761 176.0
1402.330322 180.0
1402.509155 124.0
1402.814819 196.0
1403.523071 236.0
1404.731201 48.0
1404.895386 180.0
1405.850342 176.0
1406.298096 184.0
1406.477295 104.0
1407.434082 144.0
1407.99292 48.0
1408.209473 120.0
1409.748413 228.0
1410.151978 224.0
1411.804199 120.0
1413.509766 212.0
1413.81665 128.0
1414.707275 152.0
1414.782104 100.0
1414.946899 44.0
1415.463501 220.0
1417.800659 140.0
1417.973022 244.0
1418.315186 164.0
1418.880005 156.0
1419.299927 216.0
1419.701782 140.0
1419.802246 100.0
1420.582397 232.0
1420.964966 176.0
1421.362549 156.0
1422.231445 228.0
1422.630981 212.0
1425.101807 176.0
1426.680054 164.0
1427.755249 64.0
1428.003418 160.0
1428.319336 156.0
1428.657837 164.0
1430.027344 224.0
1430.644531 128.0
1431.231812 116.0
1431.743896 168.0
1432.173096 204.0
1433.672363 260.0
1435.398682 180.0
1436.658203 168.0
1439.518677 52.0
1441.79248 140.0
1442.041992 140.0
1443.608765 160.0
1443.721191 160.0
1444.00769 52.0
1446.095825 188.0
1446.171509 148.0
1446.292603 196.0
1446.640747 148.0
1447.29187 132.0
1449.200562 184.0
1449.283936 128.0
1449.359741 128.0
1451.45166 216.0
1451.891479 232.0
1452.103882 136.0
1453.029297 212.0
1453.309204 220.0
1453.719727 104.0
1454.486328 140.0
1455.268188 144.0
1455.640259 164.0
1456.878296 144.0
1456.999878 136.0
1457.919189 188.0
1458.276367 124.0
1459.006104 268.0
1459.481567 136.0
1459.751221 196.0
1460.192261 248.0
1460.625854 188.0
1461.067017 168.0
1461.949707 168.0
1463.129395 124.0
1463.197998 172.0
1463.715698 148.0
1464.050781 228.0
1465.056152 200.0
1466.869751 176.0
1467.700806 92.0
1467.838013 220.0
1468.539673 156.0
1469.783081 172.0
1470.599609 232.0
1471.592041 228.0
1472.401489 140.0
1472.748291 196.0
1473.325684 152.0
1473.814697 284.0
1475.519043 140.0
1476.153687 112.0
1476.55896 192.0
1476.765381 180.0
1477.492065 144.0
1477.813477 140.0
1477.866943 84.0
1478.991943 84.0
1479.734497 208.0
1479.833984 148.0
1481.474243 116.0
1481.672119 192.0
1481.779297 180.0
1482.131836 136.0
1484.262695 68.0
1486.533203 180.0
1488.459839 104.0
1488.905273 164.0
1489.419922 164.0
1490.472412 192.0
1490.956421 188.0
1491.466553 188.0
1491.640503 116.0
1491.867188 216.0
1492.37854 108.0
1492.663086 48.0
1493.062866 140.0
1493.393677 244.0
1493.44751 84.0
1494.155151 76.0
1494.401367 172.0
1495.270874 236.0
1495.724976 56.0
1497.988892 140.0
1498.073608 144.0
1498.501831 256.0
1498.56665 116.0
1499.291016 180.0
1499.475952 164.0
1500.454834 212.0
1500.80957 120.0
1501.449585 224.0
1501.596069 156.0
1501.773438 176.0
1502.876587 156.0
1503.0354 184.0
1503.246948 132.0
1503.578857 228.0
