>compound MLS000876812-01!TRICLABENDAZOLE
>formula C14H9Cl3N2OS
>ionization [M+H]+
>parentmass 358.956543
#inchi InChI=1S/C14H9Cl3N2OS/c1-21-14-18-9-5-8(16)12(6-10(9)19-14)20-11-4-2-3-7(15)13(11)17/h2-6H,1H3,(H,18,19)
#inchikey NQPDXQQQCQDHHW
#Ion_Source LC-ESI
#Instrument qTof
#Compound_Source NIH Pharmacologically Active Library
#PI Dorrestein
#Data_Collector VP/LMS
#Scan -1
#Precursor_MZ 358.957
#ExactMass 357.95
#Charge 1
#CAS_Number N/A
#Pubmed_ID N/A
#Smiles CSc1nc2cc(Cl)c(Oc3cccc(Cl)c3Cl)cc2[nH]1
#INCHI_AUX N/A
#Library_Class 1
#SpectrumID CCMSLIB00000085182
#IonMode Positive
#UpdateWorkflowName UPDATE-SINGLE-ANNOTATED-GOLD
#LibraryQualityString Gold
#TaskID d252d724072548979f1f6f1ced849daf
##Scan# 2422
#SpectrumFile p3-F09_GF9_01_18290.mzXML
#LibraryName Pharm_Active_Library.mgf
#MQScore -1
#Organism Pharm_Active_Library
#TIC_Query 0
#RT_Query -1
#MZErrorPPM -1
#SharedPeaks 0
#MassDiff 0
#LibMZ -1
#SpecMZ 358.957
#SpecCharge 0
#internalFilename spec-00000.mgf

>collision 10
44.909931 196.0
44.94519 172.0
44.962132 132.0
44.988617 108.0
45.016708 172.0
45.060791 196.0
45.092865 252.0
45.109161 212.0
45.133831 172.0
45.189152 332.0
45.208672 164.0
45.219933 192.0
45.238674 152.0
45.264114 120.0
45.330616 200.0
45.349861 100.0
45.394108 108.0
45.419949 272.0
45.43222 116.0
45.455818 208.0
45.467896 144.0
45.53503 144.0
45.552494 184.0
45.590118 172.0
45.602215 124.0
45.61969 140.0
45.658268 160.0
45.688282 92.0
45.708466 140.0
45.742115 196.0
45.765003 136.0
45.777122 244.0
45.798672 232.0
45.861557 120.0
45.885635 144.0
45.905151 164.0
45.928078 112.0
45.976654 168.0
46.006351 96.0
46.025253 112.0
46.03471 144.0
46.048214 244.0
46.087395 196.0
46.117126 156.0
46.145515 92.0
46.199619 128.0
46.24157 76.0
46.252399 120.0
46.265934 156.0
46.284893 172.0
46.33535 160.0
46.386513 80.0
46.432617 88.0
46.45155 96.0
46.465172 112.0
46.478741 48.0
46.567947 176.0
46.576366 204.0
46.585224 212.0
46.59552 232.0
46.60968 152.0
46.624863 148.0
46.644444 152.0
46.685238 148.0
46.71516 96.0
46.753693 164.0
46.769596 104.0
46.779125 140.0
46.809082 92.0
46.818615 56.0
46.828682 204.0
46.836906 140.0
46.881931 196.0
46.899006 48.0
46.912636 148.0
46.92627 116.0
46.937519 96.0
46.964458 136.0
46.989014 148.0
47.008118 192.0
47.053879 92.0
47.099598 176.0
47.117359 104.0
47.139221 212.0
47.152946 168.0
47.169292 40.0
47.188435 116.0
47.207794 176.0
47.225357 128.0
47.234936 352.0
47.252087 144.0
47.278839 140.0
47.298508 176.0
47.314312 112.0
47.329372 188.0
47.344406 176.0
47.363613 116.0
47.396221 176.0
47.411572 104.0
47.496681 196.0
47.521278 108.0
47.563305 348.0
47.583046 184.0
47.61132 176.0
47.640732 156.0
47.670959 144.0
47.689648 112.0
47.702576 80.0
47.724575 104.0
47.768585 148.0
47.778217 132.0
47.805737 104.0
47.840149 208.0
47.877331 88.0
47.892551 228.0
47.902351 144.0
47.915081 212.0
47.925545 176.0
47.947273 120.0
47.978996 180.0
48.009438 192.0
48.053783 104.0
48.0662 116.0
48.108032 196.0
48.133846 140.0
48.146275 108.0
48.162849 140.0
48.17252 168.0
48.193245 148.0
48.205833 292.0
48.227795 144.0
48.246151 72.0
48.283104 76.0
48.308002 132.0
48.317688 88.0
48.350899 216.0
48.424282 152.0
48.479702 44.0
48.493248 224.0
48.51503 132.0
48.588116 88.0
48.594963 192.0
48.633606 160.0
48.646156 168.0
48.661217 132.0
48.678093 136.0
48.689201 132.0
48.72393 232.0
48.739216 180.0
48.756535 208.0
48.768402 184.0
48.792034 184.0
48.831806 100.0
48.836895 140.0
48.875492 128.0
48.896671 216.0
48.932331 168.0
48.944782 124.0
48.974075 204.0
48.989666 164.0
49.007069 180.0
49.060745 160.0
49.085842 140.0
49.103889 196.0
49.137455 188.0
49.153641 100.0
49.180943 124.0
49.208992 212.0
49.264507 100.0
49.291058 44.0
49.307827 88.0
49.322113 416.0
49.411312 120.0
49.479401 148.0
49.497589 132.0
49.5135 160.0
49.527508 108.0
49.606678 148.0
49.62392 96.0
49.646648 104.0
49.676105 132.0
49.695747 36.0
49.70557 108.0
49.723816 72.0
49.737091 128.0
49.760315 132.0
49.770145 124.0
49.781147 240.0
49.792614 152.0
49.843193 172.0
49.853878 172.0
49.867569 116.0
49.889576 176.0
49.939289 192.0
49.972561 120.0
50.002113 192.0
50.019821 76.0
50.043213 124.0
50.057667 160.0
50.072964 188.0
50.111141 176.0
50.142963 100.0
50.155647 112.0
50.220371 200.0
50.260017 140.0
50.313656 144.0
50.332012 124.0
50.350937 40.0
50.396992 100.0
50.406883 240.0
50.445045 120.0
50.457863 180.0
50.473324 212.0
50.483223 116.0
50.511513 116.0
50.541313 128.0
50.593594 112.0
50.606339 144.0
50.628174 172.0
50.654491 176.0
50.693272 76.0
50.711838 120.0
50.732601 176.0
50.745197 200.0
50.755093 168.0
50.825027 120.0
50.849468 40.0
50.870052 88.0
50.889931 72.0
50.90839 44.0
50.924015 80.0
50.975163 148.0
50.996483 132.0
51.030602 224.0
51.067577 168.0
51.104809 136.0
51.121643 128.0
51.164433 176.0
51.26976 172.0
51.279736 140.0
51.289951 144.0
51.305031 172.0
51.349606 164.0
51.359589 268.0
51.379719 180.0
51.403164 252.0
51.471889 164.0
51.489479 100.0
51.53091 60.0
51.550915 124.0
51.591755 140.0
51.649799 176.0
51.664928 256.0
51.685341 204.0
51.711102 280.0
51.748322 176.0
51.790962 120.0
51.800735 168.0
51.870102 116.0
51.890892 232.0
51.915012 188.0
51.926025 140.0
51.940372 164.0
51.981979 124.0
51.996983 212.0
52.025043 80.0
52.053204 352.0
52.068825 196.0
52.094532 176.0
52.118237 208.0
52.138523 216.0
52.165836 156.0
52.182087 132.0
52.231323 104.0
52.272274 76.0
52.293861 208.0
52.316895 64.0
52.393227 164.0
52.417183 192.0
52.436459 148.0
52.462124 172.0
52.471386 176.0
52.493225 172.0
52.520092 152.0
52.537403 220.0
52.556812 124.0
52.598015 128.0
52.645664 160.0
52.665058 168.0
52.681255 144.0
52.700558 188.0
52.754036 128.0
52.768494 88.0
52.801411 168.0
52.806274 128.0
52.810875 184.0
52.861073 160.0
52.894363 120.0
52.91608 204.0
52.969666 168.0
52.981853 188.0
53.007339 88.0
53.017483 112.0
53.036327 92.0
53.063873 96.0
53.092876 128.0
53.106823 116.0
53.121742 112.0
53.1343 244.0
53.148003 144.0
53.159611 148.0
53.178478 156.0
53.205093 180.0
53.230747 80.0
53.240913 172.0
53.307743 144.0
53.355854 124.0
53.370251 144.0
53.390411 232.0
53.401348 84.0
53.404736 124.0
53.411945 48.0
53.416348 156.0
53.448803 116.0
53.482277 76.0
53.494812 168.0
53.546345 144.0
53.576939 300.0
53.611389 244.0
53.629402 204.0
53.641064 192.0
53.678974 128.0
53.702309 176.0
53.728512 208.0
53.772346 132.0
53.804947 180.0
53.835506 108.0
53.870182 96.0
53.886253 164.0
53.909637 116.0
53.939167 176.0
53.954952 180.0
53.966648 156.0
53.990047 260.0
54.004673 132.0
54.017838 188.0
54.033009 152.0
54.037861 204.0
54.120068 184.0
54.145187 132.0
54.17347 156.0
54.241856 164.0
54.259491 172.0
54.295925 104.0
54.301189 184.0
54.33429 176.0
54.354168 264.0
54.365108 176.0
54.376011 196.0
54.400337 180.0
54.428234 128.0
54.451733 180.0
54.482578 156.0
54.495415 196.0
54.497559 144.0
54.505135 80.0
54.508347 172.0
54.525196 144.0
54.541363 200.0
54.55843 168.0
54.574188 208.0
54.594296 252.0
54.628128 156.0
54.644314 132.0
54.669144 152.0
54.678276 192.0
54.70171 60.0
54.757668 148.0
54.787128 44.0
54.806282 120.0
54.843128 168.0
54.854767 152.0
54.902107 264.0
54.91243 40.0
54.971203 284.0
55.008347 140.0
55.02459 88.0
55.051167 128.0
55.104347 108.0
55.12376 116.0
55.138336 148.0
55.1679 88.0
55.185734 128.0
55.203018 112.0
55.232971 40.0
55.280849 212.0
55.338615 136.0
55.361774 180.0
55.373592 188.0
55.389885 60.0
55.404701 184.0
55.423962 120.0
55.46442 148.0
55.47752 240.0
55.511425 108.0
55.534603 172.0
55.567795 148.0
55.594505 60.0
55.610741 128.0
55.639038 184.0
55.673191 116.0
55.686558 128.0
55.701485 252.0
55.729641 152.0
55.740044 156.0
55.778687 164.0
55.796528 160.0
55.818832 124.0
55.844437 148.0
55.888134 116.0
55.936375 304.0
55.951736 164.0
55.962589 132.0
55.99147 92.0
56.016792 160.0
56.033184 168.0
56.052219 160.0
56.06942 240.0
56.084469 148.0
56.105709 196.0
56.120094 168.0
56.146477 132.0
56.188168 156.0
56.207901 140.0
56.23003 104.0
56.242645 212.0
56.269203 284.0
56.290859 176.0
56.30442 160.0
56.333778 184.0
56.361454 176.0
56.376396 236.0
56.4347 144.0
56.452644 188.0
56.473381 148.0
56.522957 160.0
56.534927 212.0
56.58223 200.0
56.623184 156.0
56.639843 176.0
56.680569 152.0
56.69368 204.0
56.712475 104.0
56.741985 232.0
56.748192 220.0
56.768044 224.0
56.796139 136.0
56.842152 220.0
56.853405 80.0
56.867664 152.0
56.882675 88.0
56.916309 132.0
56.960766 152.0
56.987808 144.0
57.008846 188.0
57.041653 184.0
57.056835 52.0
57.090031 120.0
57.102062 124.0
57.120113 72.0
57.150204 196.0
57.184818 100.0
57.220951 48.0
57.240524 156.0
57.276001 152.0
57.302284 164.0
57.327904 384.0
57.352016 120.0
57.375805 36.0
57.391216 180.0
57.421379 88.0
57.435833 316.0
57.469654 284.0
57.48217 280.0
57.492516 188.0
57.504047 132.0
57.530758 116.0
57.558121 184.0
57.568668 176.0
57.61845 176.0
57.643314 360.0
57.663349 172.0
57.680031 384.0
57.704445 236.0
57.714607 148.0
57.747635 80.0
57.780918 148.0
57.809666 132.0
57.857971 136.0
57.877789 116.0
57.90202 116.0
57.915386 68.0
57.957203 272.0
57.973228 112.0
57.989902 124.0
58.010262 132.0
58.039932 160.0
58.055096 132.0
58.071781 276.0
58.100109 184.0
58.118813 124.0
58.138542 140.0
58.1689 148.0
58.188637 128.0
58.199265 152.0
58.229084 108.0
58.250904 164.0
58.263058 200.0
58.276733 228.0
58.290409 100.0
58.358814 80.0
58.415089 188.0
58.454647 116.0
58.491177 144.0
58.529243 132.0
58.562748 112.0
58.609768 116.0
58.649605 124.0
58.691547 172.0
58.712662 180.0
58.730423 156.0
58.804012 140.0
58.838776 164.0
58.855991 116.0
58.872368 176.0
58.891762 156.0
58.91674 152.0
58.932884 280.0
58.958275 140.0
58.976269 164.0
59.019711 164.0
59.025688 136.0
59.083767 204.0
59.103207 136.0
59.130756 108.0
59.165058 180.0
59.196945 172.0
59.210373 132.0
59.228752 224.0
59.276253 116.0
59.297443 116.0
59.323769 168.0
59.352898 148.0
59.378971 180.0
59.391243 164.0
59.401981 156.0
59.432667 196.0
59.44817 116.0
59.464893 168.0
59.488377 188.0
59.507881 104.0
59.518627 180.0
59.536797 188.0
59.553951 44.0
59.603115 128.0
59.624516 160.0
59.640003 164.0
59.667675 136.0
59.704582 152.0
59.728104 204.0
59.743038 296.0
59.756969 144.0
59.795357 188.0
59.836922 104.0
59.905537 160.0
59.932693 136.0
59.950161 172.0
59.975574 96.0
60.014408 128.0
60.085911 176.0
60.114388 172.0
60.152294 172.0
60.234352 144.0
60.285812 212.0
60.296631 196.0
60.308998 124.0
60.347691 184.0
60.36079 40.0
60.38345 160.0
60.427563 132.0
60.443554 60.0
60.454388 148.0
60.499409 92.0
60.519405 68.0
60.533005 148.0
60.562767 320.0
60.586605 176.0
60.616997 148.0
60.661945 172.0
60.696644 204.0
60.722713 128.0
60.736382 228.0
60.759651 136.0
60.802746 104.0
60.827938 128.0
60.841911 116.0
60.855984 124.0
60.882286 128.0
60.900051 184.0
60.911797 112.0
60.931995 144.0
60.967091 164.0
60.978615 144.0
61.012814 88.0
61.046745 112.0
61.073006 220.0
61.1357 120.0
61.163815 136.0
61.191742 136.0
61.24625 156.0
61.258713 40.0
61.282082 144.0
61.300781 224.0
61.321045 216.0
61.349102 184.0
61.360161 172.0
61.381847 216.0
61.441982 148.0
61.483856 124.0
61.517593 124.0
61.60442 188.0
61.628643 152.0
61.638142 200.0
61.665527 160.0
61.685841 132.0
61.692642 216.0
61.720715 112.0
61.761379 136.0
61.794231 200.0
61.823963 124.0
61.836483 92.0
61.850571 160.0
61.877899 144.0
61.913204 364.0
61.931999 132.0
61.946098 168.0
62.003918 80.0
62.009205 132.0
62.023487 168.0
62.046185 144.0
62.050903 124.0
62.071491 88.0
62.118626 152.0
62.135803 68.0
62.175034 104.0
62.200146 116.0
62.212708 104.0
62.225883 192.0
62.245548 216.0
62.264828 236.0
62.283375 156.0
62.298683 156.0
62.326473 232.0
62.375015 152.0
62.404388 136.0
62.41613 128.0
62.435223 284.0
62.462582 176.0
62.476704 196.0
62.497196 180.0
62.508209 192.0
62.53339 132.0
62.563126 156.0
62.577312 160.0
62.595409 184.0
62.625015 356.0
62.681435 96.0
62.69434 148.0
62.724731 136.0
62.794949 220.0
62.813877 152.0
62.840698 252.0
62.862793 116.0
62.87336 92.0
62.902252 152.0
62.913303 144.0
62.940144 104.0
63.014385 128.0
63.086884 248.0
63.119682 140.0
63.12978 192.0
63.147179 124.0
63.174072 152.0
63.206299 212.0
63.223125 188.0
63.248962 100.0
63.269028 164.0
63.313366 68.0
63.334675 116.0
63.365322 276.0
63.392582 144.0
63.413185 152.0
63.427452 100.0
63.463848 184.0
63.50515 88.0
63.519428 168.0
63.530533 72.0
63.551159 168.0
63.567028 164.0
63.586697 168.0
63.615608 132.0
63.638245 188.0
63.684517 72.0
63.711525 52.0
63.737717 124.0
63.742039 156.0
63.756016 44.0
63.769726 128.0
63.830738 132.0
63.887997 120.0
63.908684 200.0
63.936066 444.0
63.94883 164.0
63.969162 216.0
64.021706 260.0
64.036041 268.0
64.057343 128.0
64.070473 140.0
64.085426 140.0
64.101364 132.0
64.125275 200.0
64.145554 160.0
64.162903 172.0
64.188004 208.0
64.276306 320.0
64.311897 128.0
64.33744 140.0
64.351807 116.0
64.369194 180.0
64.375168 140.0
64.397346 120.0
64.416924 176.0
64.422691 136.0
64.457237 112.0
64.480392 220.0
64.501984 128.0
64.534126 160.0
64.573944 128.0
64.60733 216.0
64.653946 324.0
64.735596 160.0
64.758011 140.0
64.770828 212.0
64.806076 176.0
64.852554 168.0
64.900368 180.0
64.963203 76.0
65.005623 56.0
65.021408 160.0
65.045555 176.0
65.074257 300.0
65.087669 168.0
65.102852 236.0
65.139793 84.0
65.179962 104.0
65.204018 120.0
65.308586 148.0
65.35202 148.0
65.368111 144.0
65.382599 136.0
65.408348 76.0
65.419617 88.0
65.434113 88.0
65.488861 120.0
65.501144 212.0
65.525917 80.0
65.538811 256.0
65.551697 136.0
65.567818 120.0
65.608116 120.0
65.620369 176.0
65.646858 144.0
65.696815 160.0
65.752045 124.0
65.777512 148.0
65.795853 320.0
65.811279 232.0
65.822151 160.0
65.889931 72.0
65.904549 128.0
65.924355 136.0
65.955208 288.0
65.966522 52.0
66.005325 124.0
66.030403 316.0
66.087822 148.0
66.120842 100.0
66.142853 188.0
66.157425 136.0
66.217339 72.0
66.269562 84.0
66.28862 152.0
66.317795 288.0
66.32914 80.0
66.348969 140.0
66.387512 184.0
66.413467 116.0
66.473061 152.0
66.486526 140.0
66.549606 212.0
66.600243 228.0
66.647255 88.0
66.702583 184.0
66.749664 132.0
66.770805 136.0
66.801712 144.0
66.820595 148.0
66.886337 36.0
66.902618 200.0
66.916084 148.0
66.941696 164.0
66.962868 152.0
66.974266 184.0
66.999084 172.0
67.01989 156.0
67.039444 156.0
67.088341 84.0
67.119324 140.0
67.134003 192.0
67.169884 84.0
67.200882 204.0
67.217201 148.0
67.245384 120.0
67.251915 148.0
67.273735 192.0
67.306984 88.0
67.323357 156.0
67.396828 132.0
67.439323 160.0
67.4851 128.0
67.499817 120.0
67.552155 148.0
67.566879 112.0
67.597969 196.0
67.609421 112.0
67.631683 180.0
67.655258 200.0
67.672272 184.0
67.720764 144.0
67.75071 184.0
67.785019 144.0
67.827271 76.0
67.840927 160.0
67.865639 180.0
67.883018 128.0
67.907623 168.0
67.921471 144.0
67.939087 152.0
67.959862 180.0
67.978172 52.0
68.019882 68.0
68.024124 28.0
68.038147 96.0
68.044701 120.0
68.057365 212.0
68.079956 108.0
68.095848 160.0
68.132332 140.0
68.155525 180.0
68.213631 224.0
68.244736 160.0
68.265907 108.0
68.307419 292.0
68.334755 148.0
68.351212 164.0
68.367668 188.0
68.386688 136.0
68.403877 116.0
68.42363 96.0
68.449982 84.0
68.466446 56.0
68.48027 328.0
68.509277 140.0
68.5653 80.0
68.617767 160.0
68.632545 152.0
68.655319 120.0
68.666748 152.0
68.711708 164.0
68.717842 128.0
68.726059 100.0
68.729317 176.0
68.736526 180.0
68.74472 112.0
68.74707 208.0
68.768181 92.0
68.792503 136.0
68.839172 240.0
68.867249 112.0
68.915161 132.0
68.926727 148.0
68.943253 188.0
68.986229 160.0
69.03418 128.0
69.086334 120.0
69.10862 164.0
69.133446 244.0
69.161583 120.0
69.174828 164.0
69.239403 128.0
69.259277 152.0
69.270828 132.0
69.292412 88.0
69.400642 176.0
69.461517 168.0
69.479195 104.0
69.491379 80.0
69.510529 152.0
69.541954 212.0
69.561089 180.0
69.572708 148.0
69.584335 160.0
69.603531 284.0
69.649101 168.0
69.662392 224.0
69.677345 140.0
69.690636 104.0
69.716812 144.0
69.747147 44.0
69.760445 168.0
69.808662 156.0
69.823853 152.0
69.839775 136.0
69.866882 160.0
69.894295 176.0
69.910149 116.0
69.930115 108.0
69.960083 180.0
69.971733 72.0
70.00724 188.0
70.027084 188.0
70.033859 144.0
70.054604 196.0
70.065712 180.0
70.112808 140.0
70.140434 260.0
70.160004 52.0
70.208366 96.0
70.220039 148.0
70.242058 180.0
70.267464 144.0
70.281731 196.0
70.301788 124.0
70.313477 152.0
70.325157 216.0
70.350197 232.0
70.388603 112.0
70.405304 172.0
70.416992 56.0
70.428688 280.0
70.472122 140.0
70.497192 84.0
70.602516 148.0
70.627693 152.0
70.654373 148.0
70.692589 200.0
70.758919 120.0
70.794739 140.0
70.834137 184.0
70.864517 168.0
70.878571 156.0
70.896568 136.0
70.911118 176.0
70.933662 172.0
70.94883 108.0
70.965912 272.0
71.078293 92.0
71.090042 176.0
71.121933 144.0
71.135361 160.0
71.147118 124.0
71.204208 152.0
71.222992 132.0
71.239487 124.0
71.259644 304.0
71.274078 88.0
71.319534 164.0
71.337921 140.0
71.342316 172.0
71.37619 184.0
71.421043 192.0
71.446274 112.0
71.476562 184.0
71.490028 112.0
71.513588 172.0
71.539558 168.0
71.557358 144.0
71.573158 208.0
71.596092 136.0
71.61985 140.0
71.634834 256.0
71.67804 180.0
71.702484 136.0
71.715721 224.0
71.779785 180.0
71.825981 216.0
71.842995 236.0
71.872566 144.0
71.902939 100.0
71.931503 192.0
71.938927 120.0
71.943756 200.0
71.989044 120.0
72.013954 180.0
72.029587 132.0
72.059616 160.0
72.093155 212.0
72.157013 180.0
72.181702 204.0
72.225159 156.0
72.257332 180.0
72.290573 168.0
72.318253 124.0
72.337364 144.0
72.361061 108.0
72.401222 168.0
72.416946 48.0
72.43232 56.0
72.460999 180.0
72.483025 160.0
72.497681 204.0
72.518616 100.0
72.562691 52.0
72.596046 188.0
72.618156 108.0
72.635223 188.0
72.655563 160.0
72.681427 156.0
72.713669 124.0
72.725555 296.0
72.74762 176.0
72.787041 176.0
72.802689 224.0
72.820641 92.0
72.851852 192.0
72.879906 140.0
72.90197 152.0
72.917488 156.0
72.92939 176.0
72.956589 96.0
72.975388 140.0
72.988892 212.0
73.03096 196.0
73.048424 116.0
73.077347 100.0
73.091759 180.0
73.104576 164.0
73.141556 132.0
73.1931 192.0
73.244904 204.0
73.265396 164.0
73.300415 180.0
73.312347 60.0
73.342415 156.0
73.346642 100.0
73.352242 168.0
73.368599 144.0
73.408104 120.0
73.429405 292.0
73.463608 164.0
73.4897 104.0
73.546013 172.0
73.568207 164.0
73.612602 80.0
73.647209 76.0
73.676529 160.0
73.701431 268.0
73.727066 124.0
73.773216 132.0
73.821098 208.0
73.861526 240.0
73.892944 56.0
73.911049 124.0
73.933952 112.0
74.029884 160.0
74.050224 224.0
74.118965 156.0
74.136101 100.0
74.175957 208.0
74.219627 116.0
74.24926 156.0
74.262978 144.0
74.369125 232.0
74.410568 132.0
74.43644 120.0
74.450058 208.0
74.462082 48.0
74.489571 356.0
74.528656 224.0
74.568611 64.0
74.580643 240.0
74.616745 164.0
74.632225 184.0
74.644257 192.0
74.65802 148.0
74.685539 124.0
74.713058 48.0
74.728165 144.0
74.76432 260.0
74.799454 240.0
74.861092 132.0
74.897263 64.0
74.925598 180.0
74.994438 324.0
75.057457 144.0
75.079971 120.0
75.131721 112.0
75.145523 132.0
75.169868 112.0
75.195572 96.0
75.21801 188.0
75.246574 124.0
75.30262 160.0
75.320801 176.0
75.332893 196.0
75.348114 284.0
75.37603 228.0
75.42012 140.0
75.435677 136.0
75.497269 180.0
75.522324 188.0
75.553276 156.0
75.574677 184.0
75.595764 116.0
75.670975 212.0
75.761734 160.0
75.799156 220.0
75.811035 120.0
75.835548 220.0
75.873688 176.0
75.929085 144.0
75.961304 208.0
75.986427 124.0
76.003777 132.0
76.050636 296.0
76.067307 292.0
76.105927 212.0
76.128769 204.0
76.160034 136.0
76.175499 128.0
76.178841 116.0
76.22084 168.0
76.241112 192.0
76.298882 196.0
76.346191 152.0
76.377457 244.0
76.431671 132.0
76.44648 112.0
76.459099 164.0
76.472435 284.0
76.488686 200.0
76.512665 268.0
76.546837 264.0
76.574005 120.0
76.586205 36.0
76.617516 168.0
76.636726 168.0
76.661125 108.0
76.70121 168.0
76.723877 112.0
76.738358 244.0
76.769913 168.0
76.796501 216.0
76.83181 316.0
76.834846 280.0
76.841026 212.0
76.882614 148.0
76.91465 188.0
76.929291 124.0
76.966408 132.0
76.980377 108.0
77.010323 136.0
77.031029 164.0
77.045906 148.0
77.059898 160.0
77.09568 160.0
77.111412 124.0
77.12365 104.0
77.149048 140.0
77.180229 164.0
77.204079 132.0
77.230309 64.0
77.242554 124.0
77.278931 152.0
77.325539 164.0
77.361557 148.0
77.391319 112.0
77.417587 196.0
77.431602 208.0
77.522705 140.0
77.557968 204.0
77.591064 172.0
77.628075 152.0
77.667992 144.0
77.679184 212.0
77.705315 156.0
77.725449 144.0
77.830681 164.0
77.844429 176.0
77.866577 132.0
77.904785 160.0
77.913872 104.0
77.99485 172.0
78.058792 260.0
78.072075 152.0
78.097656 112.0
78.134659 152.0
78.147858 128.0
78.172554 112.0
78.216537 164.0
78.232338 144.0
78.273575 232.0
78.31884 132.0
78.341125 244.0
78.366196 184.0
78.385963 164.0
78.4049 228.0
78.438454 340.0
78.468422 128.0
78.503693 180.0
78.536949 140.0
78.559441 152.0
78.585831 312.0
78.643692 172.0
78.664757 156.0
78.722527 196.0
78.762177 232.0
78.794952 148.0
78.822868 144.0
78.834915 344.0
78.898788 160.0
78.952324 152.0
79.005348 204.0
79.017731 148.0
79.052567 140.0
79.075256 196.0
79.091599 200.0
79.094734 212.0
79.143883 132.0
79.217789 152.0
79.231964 168.0
79.248581 124.0
79.304619 132.0
79.345398 200.0
79.372681 144.0
79.411293 132.0
79.449852 192.0
79.489075 140.0
79.519241 228.0
79.54232 132.0
79.563622 68.0
79.597359 92.0
79.627556 188.0
79.645317 188.0
79.664856 152.0
79.705719 92.0
79.71994 100.0
79.743042 156.0
79.787361 56.0
79.799072 132.0
79.821274 116.0
79.8535 132.0
79.884636 192.0
79.903091 72.0
79.946198 108.0
79.961815 96.0
79.999199 108.0
80.091805 128.0
80.131386 128.0
80.143913 384.0
80.155167 220.0
80.203842 160.0
80.235176 132.0
80.264687 120.0
80.280731 140.0
80.350616 136.0
80.381172 160.0
80.408417 168.0
80.464813 152.0
80.496674 180.0
80.534645 352.0
80.56546 80.0
80.609215 72.0
80.638 112.0
80.680717 152.0
80.74752 112.0
80.766556 100.0
80.784447 116.0
80.796234 120.0
80.821861 136.0
80.842926 88.0
80.870956 156.0
80.970406 140.0
81.039421 136.0
81.076317 112.0
81.108894 112.0
81.122917 64.0
81.142044 132.0
81.170731 144.0
81.189262 96.0
81.26461 192.0
81.278961 160.0
81.35614 132.0
81.402832 64.0
81.429771 92.0
81.451324 132.0
81.502075 120.0
81.507347 220.0
81.532181 116.0
81.577118 112.0
81.5933 136.0
81.609482 140.0
81.633652 136.0
81.654442 372.0
81.688293 132.0
81.733597 196.0
81.76239 64.0
81.774994 180.0
81.795731 192.0
81.823936 192.0
81.856644 136.0
81.884399 152.0
81.905052 140.0
81.934929 108.0
81.986534 132.0
82.037994 184.0
82.050735 120.0
82.084503 176.0
82.111504 172.0
82.131767 132.0
82.16259 184.0
82.18589 164.0
82.209351 64.0
82.232811 136.0
82.252174 132.0
82.26564 140.0
82.286972 192.0
82.299614 124.0
82.346565 116.0
82.364632 148.0
82.409798 28.0
82.436592 140.0
82.451363 148.0
82.467888 140.0
82.486076 136.0
82.525955 168.0
82.558029 120.0
82.584061 204.0
82.612297 172.0
82.637093 204.0
82.684601 188.0
82.717255 68.0
82.737923 212.0
82.757088 120.0
82.775078 60.0
82.789772 192.0
82.827118 276.0
82.858299 228.0
82.882072 148.0
82.920135 128.0
82.953644 148.0
82.982002 124.0
83.059753 120.0
83.092407 200.0
83.135582 116.0
83.183151 268.0
83.215225 84.0
83.237625 112.0
83.281212 152.0
83.307678 148.0
83.337532 172.0
83.441666 68.0
83.461136 132.0
83.48114 60.0
83.499191 168.0
83.528427 156.0
83.558067 180.0
83.590202 164.0
83.616066 124.0
83.653999 204.0
83.694656 204.0
83.728653 116.0
83.761444 160.0
83.77858 192.0
83.807144 140.0
83.835175 180.0
83.856194 88.0
83.87989 208.0
83.903587 204.0
83.94072 132.0
83.962196 172.0
83.98201 156.0
84.009369 172.0
84.021255 152.0
84.033089 188.0
84.060463 140.0
84.127998 120.0
84.159035 72.0
84.180618 132.0
84.201035 132.0
84.213821 172.0
84.233978 132.0
84.246704 180.0
84.274109 168.0
84.310905 88.0
84.369156 112.0
84.398407 152.0
84.457848 112.0
84.548416 60.0
84.590515 140.0
84.627136 264.0
84.643616 148.0
84.661926 152.0
84.676582 168.0
84.693481 124.0
84.723213 148.0
84.7397 96.0
84.76635 132.0
84.785378 200.0
84.813332 96.0
84.869148 152.0
84.902252 312.0
84.920357 184.0
84.935036 120.0
84.983795 152.0
85.001083 132.0
85.021271 108.0
85.043297 132.0
85.061653 132.0
85.087357 152.0
85.111221 188.0
85.149788 80.0
85.166321 108.0
85.182343 260.0
85.259735 152.0
85.302444 164.0
85.326866 268.0
85.348816 256.0
85.3685 128.0
85.401604 136.0
85.43235 84.0
85.450661 204.0
85.467201 84.0
85.493599 136.0
85.523552 316.0
85.559868 68.0
85.589752 140.0
85.603416 148.0
85.620636 296.0
85.695633 248.0
85.758827 204.0
85.78923 164.0
85.804909 124.0
85.849167 148.0
85.865768 172.0
85.884209 204.0
85.898972 144.0
85.915573 112.0
85.973503 300.0
86.026306 156.0
86.063873 104.0
86.070099 100.0
86.076958 176.0
86.090927 156.0
86.116829 168.0
86.143898 148.0
86.183296 120.0
86.240349 176.0
86.294197 152.0
86.318237 128.0
86.332596 168.0
86.347191 192.0
86.370338 96.0
86.393898 164.0
86.413605 180.0
86.438484 108.0
86.458839 160.0
86.481049 48.0
86.494011 136.0
86.512604 152.0
86.531036 64.0
86.560661 152.0
86.606964 192.0
86.625488 128.0
86.641548 192.0
86.679779 264.0
86.742241 420.0
86.768318 136.0
86.808945 180.0
86.859238 128.0
86.875763 64.0
86.908409 236.0
86.946274 124.0
86.964836 144.0
87.018677 340.0
87.035385 120.0
87.055328 136.0
87.091103 140.0
87.120827 48.0
87.181213 136.0
87.209084 200.0
87.257225 92.0
87.295547 120.0
87.308571 180.0
87.330841 160.0
87.356934 84.0
87.375534 184.0
87.401917 164.0
87.415894 256.0
87.444389 56.0
87.463005 148.0
87.498375 180.0
87.520355 164.0
87.600662 140.0
87.61216 196.0
87.631081 176.0
87.659775 68.0
87.692116 172.0
87.714485 168.0
87.745613 172.0
87.776093 180.0
87.792793 184.0
87.817039 228.0
87.838463 140.0
87.87674 160.0
87.907219 200.0
87.917694 152.0
87.920052 192.0
87.949738 176.0
88.007088 48.0
88.03244 176.0
88.059692 112.0
88.084686 168.0
88.108665 148.0
88.136284 124.0
88.169556 148.0
88.234718 200.0
88.261528 228.0
88.302673 156.0
88.322609 176.0
88.343826 144.0
88.381248 144.0
88.414932 164.0
88.453156 160.0
88.508537 228.0
88.547867 228.0
88.562851 52.0
88.584572 196.0
88.612473 140.0
88.639664 116.0
88.658409 116.0
88.686523 164.0
88.731514 148.0
88.760513 180.0
88.882378 196.0
88.929192 236.0
88.955399 184.0
88.975426 172.0
88.998016 216.0
89.026123 156.0
89.069321 120.0
89.121422 104.0
89.137352 136.0
89.152618 192.0
89.186394 120.0
89.200867 172.0
89.217789 168.0
89.244255 208.0
89.2836 228.0
89.307274 164.0
89.336266 124.0
89.36068 164.0
89.364021 160.0
89.383308 188.0
89.424713 136.0
89.466553 124.0
89.48291 140.0
89.548981 164.0
89.593773 144.0
89.611153 80.0
89.650726 124.0
89.701614 156.0
89.737434 164.0
89.757271 108.0
89.775154 84.0
89.794014 116.0
89.825722 160.0
89.846138 192.0
89.90155 96.0
89.944962 192.0
89.986435 120.0
90.017609 168.0
90.077148 48.0
90.116165 196.0
90.132576 200.0
90.17041 160.0
90.190536 224.0
90.239685 176.0
90.34182 88.0
90.368095 144.0
90.401604 148.0
90.415619 184.0
90.446655 200.0
90.462936 132.0
90.476189 168.0
90.489395 144.0
90.49453 140.0
90.51297 132.0
90.536789 100.0
90.580833 220.0
90.584534 136.0
90.612556 88.0
90.705421 128.0
90.72525 96.0
90.747131 136.0
90.760406 68.0
90.786957 88.0
90.826843 136.0
90.853165 124.0
90.872314 108.0
90.906471 128.0
90.92337 172.0
90.961517 112.0
90.975281 208.0
91.005188 228.0
91.031769 148.0
91.050758 260.0
91.124237 112.0
91.142822 360.0
91.170456 208.0
91.182541 108.0
91.242691 40.0
91.255997 148.0
91.273872 220.0
91.282196 148.0
91.309448 148.0
91.338562 136.0
91.376503 180.0
91.415787 152.0
91.437576 80.0
91.459564 192.0
91.474792 168.0
91.488121 108.0
91.505257 112.0
91.541237 116.0
91.551849 196.0
91.583717 140.0
91.662216 188.0
91.680504 192.0
91.705284 72.0
91.794891 144.0
91.824852 152.0
91.867371 40.0
91.884544 168.0
91.909691 112.0
91.935623 224.0
91.972328 128.0
92.002586 212.0
92.020058 136.0
92.04882 320.0
92.067627 224.0
92.102707 232.0
92.125099 124.0
92.150925 148.0
92.197716 132.0
92.217293 164.0
92.247696 208.0
92.310509 164.0
92.34771 356.0
92.379364 188.0
92.392761 116.0
92.414642 148.0
92.466003 188.0
92.494186 176.0
92.556145 232.0
92.588737 148.0
92.610992 120.0
92.628235 212.0
92.678047 132.0
92.714462 112.0
92.767639 140.0
92.798805 152.0
92.817986 144.0
92.839073 112.0
92.857086 288.0
92.876923 120.0
92.887665 132.0
92.902374 44.0
92.94651 128.0
92.966606 128.0
93.002983 160.0
93.021362 132.0
93.061676 176.0
93.080879 328.0
93.112106 196.0
93.125053 156.0
93.15387 112.0
93.176926 136.0
93.209587 164.0
93.22496 132.0
93.244179 112.0
93.261482 396.0
93.310577 104.0
93.326843 52.0
93.358803 84.0
93.363091 52.0
93.378769 128.0
93.417336 160.0
93.429855 144.0
93.451874 280.0
93.471115 92.0
93.519234 196.0
93.539742 324.0
93.588776 132.0
93.621277 192.0
93.675209 152.0
93.69062 136.0
93.718918 140.0
93.742645 176.0
93.758064 112.0
93.776062 224.0
93.811256 332.0
93.852524 88.0
93.878738 148.0
93.899536 148.0
93.925812 144.0
93.977386 104.0
93.998833 172.0
94.033508 148.0
94.06147 300.0
94.097893 172.0
94.155067 192.0
94.217323 208.0
94.267563 136.0
94.306221 148.0
94.326477 200.0
94.342949 84.0
94.399414 156.0
94.437698 132.0
94.486069 140.0
94.517082 252.0
94.560707 140.0
94.569054 136.0
94.573212 124.0
94.61187 132.0
94.638977 112.0
94.68943 148.0
94.71257 168.0
94.739693 156.0
94.759407 180.0
94.78038 204.0
94.803635 160.0
94.826889 136.0
94.863724 132.0
94.879234 164.0
94.908493 132.0
94.93502 192.0
94.961731 132.0
94.975128 128.0
94.99321 140.0
95.019615 252.0
95.059959 140.0
95.08831 424.0
95.133492 212.0
95.174156 96.0
95.211052 136.0
95.240845 248.0
95.350403 172.0
95.395653 188.0
95.419754 212.0
95.438423 140.0
95.459816 168.0
95.481857 120.0
95.53373 160.0
95.573219 188.0
95.594269 196.0
95.632919 148.0
95.637817 180.0
95.726425 140.0
95.780548 132.0
95.80629 156.0
95.841362 100.0
95.872597 136.0
95.925171 72.0
95.950729 180.0
95.971352 180.0
95.985611 148.0
96.063629 188.0
96.090942 188.0
96.10968 212.0
96.16333 128.0
96.180717 220.0
96.210495 188.0
96.244881 144.0
96.260765 136.0
96.275459 128.0
96.288109 212.0
96.303734 108.0
96.317406 144.0
96.340851 172.0
96.354523 100.0
96.368202 160.0
96.448425 256.0
96.465927 228.0
96.49929 124.0
96.58326 244.0
96.621063 148.0
96.669342 160.0
96.712105 132.0
96.743729 56.0
96.778969 144.0
96.802467 48.0
96.835037 184.0
96.865143 376.0
96.904327 92.0
96.928299 136.0
96.937546 84.0
96.942268 132.0
96.957237 164.0
96.980164 212.0
96.985367 148.0
97.014503 188.0
97.023209 128.0
97.076828 112.0
97.108208 156.0
97.133713 112.0
97.163139 144.0
97.192566 148.0
97.210228 132.0
97.227844 156.0
97.24752 216.0
97.271072 168.0
97.32164 196.0
97.359436 120.0
97.406578 148.0
97.422295 104.0
97.449272 220.0
97.492165 100.0
97.524475 76.0
97.557899 84.0
97.611855 272.0
97.648354 160.0
97.681793 184.0
97.717201 144.0
97.734917 144.0
97.753532 268.0
97.785728 156.0
97.815414 160.0
97.883301 252.0
97.90242 136.0
97.981033 132.0
97.997864 156.0
98.036209 120.0
98.055923 128.0
98.0914 184.0
98.122948 148.0
98.146606 364.0
98.225494 184.0
98.243256 224.0
98.266617 128.0
98.299591 196.0
98.337761 112.0
98.368614 184.0
98.39325 92.0
98.411018 136.0
98.436691 188.0
98.506569 188.0
98.516304 104.0
98.535454 252.0
98.549141 160.0
98.56028 348.0
98.574974 188.0
98.59671 112.0
98.676407 164.0
98.70636 164.0
98.748245 56.0
98.818008 128.0
98.855965 184.0
98.907425 232.0
98.932983 84.0
98.973877 188.0
99.009377 444.0
99.023941 176.0
99.047844 160.0
99.064331 200.0
99.122208 184.0
99.145416 148.0
99.16674 224.0
99.219742 168.0
99.23996 184.0
99.270676 180.0
99.338593 172.0
99.372986 56.0
99.400764 164.0
99.416641 140.0
99.480156 140.0
99.535301 136.0
99.555885 144.0
99.608032 204.0
99.650963 224.0
99.672821 168.0
99.686729 48.0
99.736565 176.0
99.770218 156.0
99.811974 196.0
99.940338 176.0
99.993011 384.0
100.010925 168.0
100.05529 112.0
100.080605 112.0
100.094543 176.0
100.136368 124.0
100.150307 220.0
100.1782 116.0
100.201408 160.0
100.255913 84.0
100.283813 108.0
100.319695 92.0
100.34362 336.0
100.394379 176.0
100.408333 136.0
100.421394 148.0
100.445328 80.0
100.463287 92.0
100.504173 132.0
100.536057 188.0
100.561066 132.0
100.578987 176.0
100.608047 268.0
100.63131 176.0
100.683418 208.0
100.740578 312.0
100.784744 104.0
100.814949 136.0
100.865845 228.0
100.914665 120.0
100.936661 200.0
101.002663 160.0
101.041122 140.0
101.086426 176.0
101.153862 216.0
101.184776 148.0
101.206802 164.0
101.234749 180.0
101.287613 172.0
101.322975 120.0
101.379082 72.0
101.397125 152.0
101.415161 116.0
101.455254 160.0
101.469292 236.0
101.508003 232.0
101.522926 96.0
101.52803 136.0
101.555519 156.0
101.57621 216.0
101.62574 72.0
101.669884 100.0
101.689789 140.0
101.708023 148.0
101.78231 224.0
101.796364 148.0
101.852654 156.0
101.889435 180.0
101.919449 176.0
101.951546 196.0
101.973862 120.0
101.991257 188.0
102.005325 172.0
102.04882 164.0
102.075325 172.0
102.09584 148.0
102.1119 76.0
102.150711 244.0
102.184319 200.0
102.207726 120.0
102.27137 140.0
102.288078 144.0
102.312027 160.0
102.34333 112.0
102.372536 144.0
102.391663 164.0
102.445107 128.0
102.47023 160.0
102.488007 180.0
102.510529 180.0
102.549049 108.0
102.59317 72.0
102.623688 208.0
102.655197 184.0
102.694283 172.0
102.726273 100.0
102.76461 136.0
102.787155 160.0
102.866783 160.0
102.893784 72.0
102.912643 248.0
103.00396 224.0
103.030807 120.0
103.052544 200.0
103.094788 164.0
103.127098 120.0
103.148026 216.0
103.19545 132.0
103.217079 76.0
103.24337 180.0
103.265892 60.0
103.284821 284.0
103.298111 148.0
103.332375 68.0
103.350235 160.0
103.381485 180.0
103.423447 208.0
103.504074 160.0
103.532784 52.0
103.557144 144.0
103.5895 140.0
103.617859 120.0
103.64061 124.0
103.691032 152.0
103.719193 128.0
103.788124 140.0
103.802322 128.0
103.855522 156.0
103.889534 140.0
103.915916 152.0
103.932144 180.0
103.989319 116.0
104.022774 332.0
104.079529 324.0
104.108757 148.0
104.126793 300.0
104.155472 168.0
104.185951 152.0
104.209106 188.0
104.222519 172.0
104.273071 160.0
104.297722 136.0
104.325134 164.0
104.380562 204.0
104.384483 184.0
104.438026 208.0
104.452263 176.0
104.496033 172.0
104.550407 164.0
104.582497 108.0
104.613029 196.0
104.64521 144.0
104.663559 124.0
104.714844 172.0
104.733345 96.0
104.767807 200.0
104.805565 212.0
104.853035 136.0
104.894348 200.0
104.910469 152.0
104.941055 120.0
105.029526 116.0
105.04509 328.0
105.113335 128.0
105.155518 124.0
105.218391 176.0
105.261551 188.0
105.277824 152.0
105.298897 176.0
105.328819 124.0
105.369247 132.0
105.421356 440.0
105.439156 88.0
105.471863 88.0
105.496254 172.0
105.588585 144.0
105.612953 124.0
105.63868 160.0
105.67318 192.0
105.710442 148.0
105.776794 124.0
105.807373 252.0
105.835075 104.0
105.864174 108.0
105.90567 136.0
105.928673 172.0
105.963585 148.0
106.046448 164.0
106.082329 76.0
106.107986 260.0
106.13726 176.0
106.203537 240.0
106.219299 44.0
106.24836 72.0
106.262383 132.0
106.299316 76.0
106.317787 124.0
106.386642 228.0
106.413139 168.0
106.427765 104.0
106.449173 160.0
106.465607 116.0
106.486145 124.0
106.510796 100.0
106.525169 172.0
106.546211 184.0
106.570374 124.0
106.623802 192.0
106.649933 188.0
106.697662 224.0
106.720291 304.0
106.747154 64.0
106.763611 168.0
106.784172 176.0
106.815033 196.0
106.835602 168.0
106.858749 176.0
106.890686 208.0
106.923286 152.0
106.950844 340.0
106.965408 104.0
106.984558 180.0
107.010544 144.0
107.049667 232.0
107.068413 80.0
107.086746 104.0
107.107338 172.0
107.138245 120.0
107.193878 108.0
107.235832 224.0
107.272202 156.0
107.321678 100.0
107.34024 180.0
107.354675 152.0
107.373238 152.0
107.41037 140.0
107.426636 156.0
107.47226 88.0
107.500702 184.0
107.507111 144.0
107.557907 40.0
107.582214 264.0
107.598167 148.0
107.613022 144.0
107.683571 112.0
107.689575 152.0
107.708504 144.0
107.742744 196.0
107.7696 148.0
107.784065 168.0
107.808868 164.0
107.850883 424.0
107.877075 92.0
107.899818 148.0
107.916359 100.0
107.961853 172.0
108.001152 136.0
108.019768 72.0
108.048729 84.0
108.067352 204.0
108.098335 128.0
108.114952 116.0
108.152206 164.0
108.185402 220.0
108.206032 136.0
108.230736 264.0
108.273109 184.0
108.328224 152.0
108.350807 160.0
108.361626 164.0
108.395775 188.0
108.491943 156.0
108.527748 140.0
108.550835 60.0
108.577774 256.0
108.615005 176.0
108.637115 156.0
108.668236 180.0
108.684837 124.0
108.79277 144.0
108.815468 140.0
108.857841 224.0
108.929832 84.0
108.991859 192.0
109.024689 172.0
109.054512 192.0
109.085068 172.0
109.116875 184.0
109.133514 160.0
109.168861 144.0
109.204796 144.0
109.231262 112.0
109.261009 240.0
109.317001 136.0
109.342361 132.0
109.380112 144.0
109.385712 184.0
109.414536 176.0
109.468117 156.0
109.474388 124.0
109.484444 132.0
109.505142 316.0
109.533844 204.0
109.563713 156.0
109.666466 188.0
109.695656 128.0
109.766838 256.0
109.795738 180.0
109.811699 172.0
109.819283 112.0
109.850533 316.0
109.887833 192.0
109.910477 136.0
109.933434 108.0
109.948784 68.0
109.967033 200.0
109.988586 136.0
109.997948 176.0
110.027367 88.0
110.047562 356.0
110.056259 148.0
110.059425 136.0
110.10672 164.0
110.135414 184.0
110.163116 124.0
110.242516 232.0
110.269691 228.0
110.284317 144.0
110.303612 160.0
110.342857 108.0
110.375267 76.0
110.403946 204.0
110.424408 112.0
110.453697 148.0
110.479485 208.0
110.497627 128.0
110.556221 180.0
110.581078 160.0
110.591408 128.0
110.594513 136.0
110.608643 176.0
110.627388 84.0
110.677635 168.0
110.702766 112.0
110.734184 176.0
110.75708 176.0
110.786713 156.0
110.809601 144.0
110.836761 104.0
110.863602 140.0
110.918259 156.0
110.943085 232.0
110.979378 204.0
110.997879 596.0
111.057899 164.0
111.074265 176.0
111.101639 192.0
111.117813 308.0
111.136696 32.0
111.151382 148.0
111.168175 232.0
111.188911 168.0
111.230751 108.0
111.250038 128.0
111.284523 244.0
111.306725 256.0
111.328667 152.0
111.335266 68.0
111.341278 124.0
111.394943 120.0
111.422935 148.0
111.448357 180.0
111.474785 48.0
111.50206 196.0
111.518921 136.0
111.566299 104.0
111.590401 84.0
111.624649 276.0
111.645073 48.0
111.666107 168.0
111.697655 100.0
111.716591 72.0
111.733421 188.0
111.764984 172.0
111.82711 160.0
111.851273 188.0
111.876534 240.0
111.891273 268.0
111.914436 136.0
111.935875 132.0
111.960762 188.0
111.989456 296.0
112.021851 208.0
112.057663 148.0
112.104095 180.0
112.143654 264.0
112.190117 336.0
112.22538 168.0
112.266357 100.0
112.314865 208.0
112.333626 152.0
112.348618 172.0
112.368042 136.0
112.406067 176.0
112.433022 104.0
112.456284 196.0
112.511124 84.0
112.529564 180.0
112.595726 216.0
112.612488 128.0
112.630913 188.0
112.653305 204.0
112.703331 52.0
112.72789 224.0
112.762939 304.0
112.783432 40.0
112.81324 128.0
112.879593 144.0
112.919876 140.0
112.95916 104.0
112.997238 108.0
113.037445 128.0
113.066414 192.0
113.099037 200.0
113.149628 140.0
113.164452 140.0
113.194824 304.0
113.219513 268.0
113.284645 224.0
113.302971 160.0
113.371323 316.0
113.450478 176.0
113.468353 168.0
113.501907 140.0
113.553139 136.0
113.582314 144.0
113.643105 332.0
113.67794 152.0
113.715637 140.0
113.755974 132.0
113.81707 144.0
113.855286 352.0
113.860336 136.0
113.89846 100.0
113.914032 84.0
113.97364 204.0
113.990868 176.0
114.039337 164.0
114.046509 104.0
114.057571 172.0
114.071777 152.0
114.089096 144.0
114.104424 140.0
114.138237 140.0
114.156181 152.0
114.174568 128.0
114.208817 156.0
114.224823 224.0
114.247498 168.0
114.272095 104.0
114.291649 108.0
114.29895 60.0
114.30793 192.0
114.340523 100.0
114.361801 232.0
114.389481 184.0
114.425667 136.0
114.444832 124.0
114.478905 128.0
114.536507 180.0
114.56929 168.0
114.610977 100.0
114.672203 416.0
114.698364 116.0
114.725174 104.0
114.762321 88.0
114.859871 168.0
114.888161 424.0
114.920265 176.0
114.982048 188.0
115.00602 312.0
115.035416 140.0
115.093063 208.0
115.124741 120.0
115.157135 176.0
115.184898 164.0
115.210533 172.0
115.25103 164.0
115.28746 140.0
115.392059 172.0
115.408119 136.0
115.415321 128.0
115.42382 112.0
115.435188 240.0
115.492722 216.0
115.525406 216.0
115.551476 164.0
115.579254 272.0
115.608818 192.0
115.615959 144.0
115.63723 192.0
115.666046 80.0
115.690361 112.0
115.727837 224.0
115.762398 152.0
115.781395 184.0
115.787399 160.0
115.79744 132.0
115.805122 208.0
115.81514 128.0
115.823929 160.0
115.870773 200.0
115.904404 124.0
115.91993 172.0
115.959503 148.0
115.973488 88.0
116.009056 172.0
116.036407 192.0
116.085999 120.0
116.120453 120.0
116.149307 156.0
116.212555 144.0
116.237206 160.0
116.259766 60.0
116.291962 44.0
116.309135 88.0
116.326309 40.0
116.364532 204.0
116.399734 264.0
116.427231 56.0
116.445839 120.0
116.465889 148.0
116.486626 196.0
116.508858 140.0
116.547241 120.0
116.582184 96.0
116.606026 508.0
116.644241 228.0
116.680794 136.0
116.694969 116.0
116.72699 132.0
116.746094 120.0
116.772362 124.0
116.879379 208.0
116.901192 156.0
116.920105 124.0
116.950676 168.0
116.981987 280.0
116.999214 304.0
117.017281 168.0
117.042274 128.0
117.078888 104.0
117.115265 168.0
117.130867 228.0
117.184441 308.0
117.198845 148.0
117.247627 224.0
117.268486 156.0
117.320221 180.0
117.356323 172.0
117.379875 204.0
117.409409 236.0
117.443146 104.0
117.469025 132.0
117.49276 176.0
117.516495 160.0
117.548019 156.0
117.583389 276.0
117.624496 180.0
117.650307 484.0
117.697807 252.0
117.755272 160.0
117.784203 216.0
117.800209 348.0
117.842529 136.0
117.90313 96.0
117.988731 156.0
118.051308 148.0
118.073273 152.0
118.082413 112.0
118.089684 148.0
118.112617 188.0
118.161522 180.0
118.203644 132.0
118.225235 176.0
118.277847 156.0
118.333519 156.0
118.350845 124.0
118.376831 80.0
118.394157 116.0
118.424477 176.0
118.459137 92.0
118.493797 172.0
118.520866 244.0
118.556641 128.0
118.571815 120.0
118.591095 144.0
118.617332 132.0
118.636841 108.0
118.652023 148.0
118.673706 112.0
118.708397 212.0
118.734421 204.0
118.749466 184.0
118.754951 172.0
118.804237 152.0
118.825531 44.0
118.859848 108.0
118.894974 108.0
118.911598 200.0
118.944099 240.0
118.970947 96.0
118.990486 92.0
119.020882 120.0
119.049942 264.0
119.071266 160.0
119.089546 156.0
119.114273 204.0
119.141312 108.0
119.179893 200.0
119.205528 148.0
119.272911 120.0
119.349007 152.0
119.375214 148.0
119.392494 176.0
119.426956 76.0
119.457748 88.0
119.490387 132.0
119.520851 340.0
119.551315 168.0
119.575256 164.0
119.59568 104.0
119.611755 172.0
119.636749 160.0
119.658943 244.0
119.712158 208.0
119.736977 116.0
119.782112 168.0
119.80172 164.0
119.833611 308.0
119.851761 124.0
119.921074 140.0
119.958633 148.0
119.986366 240.0
120.002777 160.0
120.042641 164.0
120.070656 128.0
120.087288 144.0
120.102554 120.0
120.144569 196.0
120.163643 48.0
120.199371 96.0
120.233109 148.0
120.292404 188.0
120.349167 128.0
120.398254 140.0
120.428802 156.0
120.433861 72.0
120.441956 140.0
120.519547 216.0
120.543587 124.0
120.57637 100.0
120.624458 244.0
120.672554 76.0
120.722847 208.0
120.738159 144.0
120.762215 116.0
120.792755 168.0
120.873795 160.0
120.904434 128.0
120.926323 216.0
120.96434 152.0
120.998558 124.0
121.013885 236.0
121.040161 188.0
121.062065 148.0
121.116821 76.0
121.147491 88.0
121.175125 76.0
121.20446 176.0
121.238838 148.0
121.266411 132.0
121.283356 132.0
121.303909 192.0
121.327721 152.0
121.395172 176.0
121.41272 104.0
121.443428 180.0
121.469749 168.0
121.504852 120.0
121.534012 124.0
121.568245 192.0
121.576164 64.0
121.579849 120.0
121.663246 212.0
121.715569 280.0
121.756004 184.0
121.779259 164.0
121.795982 156.0
121.847305 204.0
121.868111 144.0
121.912514 180.0
121.959435 112.0
121.979454 188.0
122.004822 204.0
122.038582 100.0
122.08342 136.0
122.13221 152.0
122.16259 188.0
122.212349 80.0
122.233238 116.0
122.342209 88.0
122.385277 200.0
122.408264 140.0
122.439095 192.0
122.472137 128.0
122.529411 92.0
122.547043 168.0
122.59993 52.0
122.619766 152.0
122.637398 48.0
122.668259 136.0
122.703529 112.0
122.727112 312.0
122.761993 180.0
122.778885 188.0
122.804977 48.0
122.862701 168.0
122.879982 200.0
122.903114 140.0
122.937355 108.0
122.963837 320.0
123.002541 172.0
123.037788 120.0
123.054352 168.0
123.087646 204.0
123.115593 264.0
123.146294 132.0
123.196869 136.0
123.226921 208.0
123.277451 148.0
123.31604 160.0
123.361443 104.0
123.380013 140.0
123.398926 252.0
123.441048 148.0
123.456528 96.0
123.472008 136.0
123.490807 112.0
123.532623 292.0
123.549431 160.0
123.601509 148.0
123.684425 104.0
123.699921 132.0
123.727264 192.0
123.753052 48.0
123.774147 152.0
123.803986 132.0
123.863792 148.0
123.905884 104.0
123.932472 148.0
123.993179 428.0
124.041069 120.0
124.082504 204.0
124.127541 188.0
124.149345 120.0
124.169678 116.0
124.211823 176.0
124.260628 180.0
124.313889 184.0
124.337631 200.0
124.398232 136.0
124.418213 196.0
124.452118 176.0
124.476753 220.0
124.509254 280.0
124.542572 196.0
124.569 156.0
124.58075 172.0
124.598106 152.0
124.62471 144.0
124.717964 120.0
124.755478 252.0
124.795036 180.0
124.910049 192.0
124.930138 152.0
124.950363 120.0
124.981804 156.0
125.004982 200.0
125.03643 160.0
125.076248 232.0
125.13913 244.0
125.261078 148.0
125.286255 172.0
125.311966 152.0
125.357758 204.0
125.378716 216.0
125.448738 96.0
125.504013 112.0
125.531998 196.0
125.568993 172.0
125.611061 124.0
125.646759 108.0
125.68692 208.0
125.707947 76.0
125.733032 212.0
125.772438 152.0
125.794052 112.0
125.849869 144.0
125.858498 116.0
125.899002 192.0
125.922562 168.0
125.975998 136.0
126.001755 148.0
126.027794 208.0
126.06134 216.0
126.078506 264.0
126.100464 192.0
126.134697 208.0
126.16938 124.0
126.189499 140.0
126.208023 156.0
126.235062 192.0
126.283424 108.0
126.32914 212.0
126.35054 144.0
126.393051 140.0
126.43927 196.0
126.462433 84.0
126.47953 244.0
126.500488 188.0
126.518394 104.0
126.563171 92.0
126.59211 204.0
126.598587 172.0
126.631149 136.0
126.674507 124.0
126.691078 192.0
126.72596 232.0
126.744095 148.0
126.811852 192.0
126.852898 192.0
126.882942 196.0
126.914978 180.0
126.930672 48.0
126.947121 248.0
126.97261 308.0
127.004059 864.0
127.067497 156.0
127.087692 140.0
127.130333 156.0
127.188026 108.0
127.217178 220.0
127.231339 264.0
127.253792 172.0
127.273666 132.0
127.338707 148.0
127.345047 120.0
127.352348 104.0
127.383308 156.0
127.413895 100.0
127.473541 232.0
127.500816 352.0
127.512642 248.0
127.600906 164.0
127.619202 128.0
127.639328 188.0
127.671768 180.0
127.701004 196.0
127.725861 164.0
127.762268 140.0
127.790794 184.0
127.797295 180.0
127.814461 192.0
127.835999 124.0
127.876511 128.0
127.93412 216.0
127.966553 196.0
127.993279 152.0
128.00235 112.0
128.009705 152.0
128.03862 164.0
128.061142 96.0
128.117188 160.0
128.132584 112.0
128.175278 224.0
128.229752 364.0
128.272476 208.0
128.288742 92.0
128.311279 184.0
128.345108 116.0
128.36792 132.0
128.389771 164.0
128.405991 164.0
128.4263 96.0
128.453369 172.0
128.48291 120.0
128.502991 140.0
128.534866 132.0
128.568436 184.0
128.602295 128.0
128.641525 92.0
128.705505 140.0
128.712036 72.0
128.720505 112.0
128.770767 52.0
128.826859 152.0
128.855225 104.0
128.871033 192.0
128.918488 168.0
128.955887 160.0
129.000168 548.0
129.041931 316.0
129.085449 184.0
129.118423 148.0
129.132828 324.0
129.156113 184.0
129.180389 160.0
129.2034 52.0
129.226028 148.0
129.250916 180.0
129.27356 92.0
129.300705 304.0
129.342148 144.0
129.411636 124.0
129.438934 168.0
129.479568 156.0
129.497696 364.0
129.52475 148.0
129.581543 176.0
129.603149 160.0
129.620041 56.0
129.652039 152.0
129.673233 204.0
129.707581 160.0
129.715134 100.0
129.724121 156.0
129.928406 148.0
129.963989 192.0
129.985962 164.0
130.043777 304.0
130.072556 160.0
130.132675 116.0
130.158752 172.0
130.191727 80.0
130.221252 196.0
130.257217 124.0
130.280472 172.0
130.318939 140.0
130.362717 136.0
130.384842 208.0
130.40683 136.0
130.428024 132.0
130.471481 152.0
130.509872 212.0
130.555344 92.0
130.574158 132.0
130.604507 180.0
130.650513 168.0
130.72081 180.0
130.7715 280.0
130.78743 152.0
130.830673 116.0
130.858002 224.0
130.918777 168.0
130.960846 148.0
130.981644 152.0
131.002304 168.0
131.009384 60.0
131.016418 136.0
131.04303 168.0
131.05043 132.0
131.058716 160.0
131.081238 132.0
131.110855 144.0
131.131958 152.0
131.160995 160.0
131.196579 192.0
131.218002 120.0
131.289917 216.0
131.303162 116.0
131.322891 140.0
131.385559 300.0
131.405029 32.0
131.43074 164.0
131.455078 140.0
131.469772 284.0
131.516846 144.0
131.580414 152.0
131.612732 120.0
131.678452 108.0
131.716888 128.0
131.776886 408.0
131.811478 140.0
131.860733 312.0
131.891937 176.0
131.963303 460.0
131.990036 152.0
132.01265 152.0
132.029297 128.0
132.044662 192.0
132.064209 172.0
132.08812 208.0
132.125839 180.0
132.161652 156.0
132.179642 228.0
132.204819 112.0
132.249466 188.0
132.305222 144.0
132.335297 72.0
132.3582 124.0
132.396042 112.0
132.426895 176.0
132.44751 96.0
132.484177 204.0
132.516251 156.0
132.543747 168.0
132.598907 56.0
132.61937 88.0
132.65834 184.0
132.676682 96.0
132.708786 108.0
132.73172 100.0
132.75975 140.0
132.795929 144.0
132.81929 152.0
132.858887 196.0
132.887695 204.0
132.905029 184.0
132.950394 112.0
132.981476 148.0
133.0056 96.0
133.016785 160.0
133.03624 160.0
133.064423 136.0
133.103455 144.0
133.121826 140.0
133.193039 88.0
133.218307 144.0
133.23558 100.0
133.254257 148.0
133.287231 72.0
133.310165 180.0
133.350647 152.0
133.38147 252.0
133.402161 184.0
133.425552 204.0
133.460678 132.0
133.496429 100.0
133.528625 132.0
133.553925 76.0
133.606842 212.0
133.640137 108.0
133.698883 28.0
133.735703 92.0
133.756424 108.0
133.774841 188.0
133.78952 96.0
133.841614 100.0
133.869247 156.0
133.92572 168.0
133.945251 124.0
133.96138 216.0
133.993637 104.0
134.067368 104.0
134.087631 172.0
134.150345 184.0
134.182877 148.0
134.202637 188.0
134.229813 304.0
134.238495 140.0
134.245499 196.0
134.272568 220.0
134.291016 156.0
134.345917 40.0
134.425156 196.0
134.482529 228.0
134.53331 144.0
134.558136 196.0
134.588181 220.0
134.618576 108.0
134.627335 100.0
134.637802 180.0
134.663864 160.0
134.752716 192.0
134.78392 264.0
134.805878 184.0
134.838226 184.0
134.857254 224.0
134.874344 140.0
134.924759 156.0
134.941742 236.0
134.945175 184.0
134.996841 292.0
135.02359 164.0
135.042313 112.0
135.062073 128.0
135.09259 156.0
135.111099 168.0
135.152878 204.0
135.208954 260.0
135.26152 68.0
135.294418 188.0
135.319397 164.0
135.347183 176.0
135.38887 180.0
135.4767 88.0
135.491699 164.0
135.522842 172.0
135.574203 128.0
135.629837 120.0
135.646057 128.0
135.72258 192.0
135.7388 212.0
135.77359 76.0
135.800461 172.0
135.821136 200.0
135.863052 172.0
135.889587 120.0
135.9151 180.0
135.93367 136.0
135.956879 128.0
135.983749 228.0
136.010117 308.0
136.047409 120.0
136.076248 104.0
136.104233 184.0
136.125977 76.0
136.173447 188.0
136.244812 280.0
136.300583 84.0
136.337753 184.0
136.3703 172.0
136.394501 188.0
136.416794 160.0
136.467941 84.0
136.488861 228.0
136.513809 116.0
136.544678 72.0
136.586655 180.0
136.612137 64.0
136.648438 100.0
136.674561 140.0
136.734314 120.0
136.770386 148.0
136.78772 152.0
136.836182 236.0
136.85878 124.0
136.879807 216.0
136.945023 156.0
136.978943 280.0
137.001419 132.0
137.035934 136.0
137.103882 176.0
137.133759 188.0
137.156372 284.0
137.193161 168.0
137.244781 316.0
137.267609 144.0
137.30629 120.0
137.341278 124.0
137.362823 152.0
137.424896 128.0
137.445007 348.0
137.478928 228.0
137.497604 232.0
137.654022 132.0
137.686722 312.0
137.721756 240.0
137.741425 324.0
137.784836 220.0
137.801178 152.0
137.826889 192.0
137.857269 160.0
137.873688 144.0
137.924698 132.0
137.966446 272.0
138.006882 1280.0
138.048965 96.0
138.085342 180.0
138.105942 264.0
138.146606 184.0
138.164413 192.0
138.187744 208.0
138.205704 148.0
138.238464 136.0
138.275909 156.0
138.315704 200.0
138.335434 144.0
138.376572 116.0
138.41983 120.0
138.46373 108.0
138.496002 152.0
138.529678 184.0
138.548508 184.0
138.567215 216.0
138.596741 192.0
138.620178 168.0
138.636826 40.0
138.678772 92.0
138.718628 176.0
138.738068 256.0
138.770569 268.0
138.80687 156.0
138.842072 204.0
138.879791 120.0
138.941422 180.0
138.96019 68.0
139.004333 2268.0
139.050873 168.0
139.07518 68.0
139.098648 176.0
139.113571 140.0
139.178085 192.0
139.18634 160.0
139.196838 88.0
139.207123 232.0
139.246964 172.0
139.288864 136.0
139.349823 140.0
139.422043 212.0
139.450943 196.0
139.476852 108.0
139.540329 112.0
139.595917 252.0
139.654144 212.0
139.681442 172.0
139.704971 100.0
139.782608 136.0
139.808777 68.0
139.877289 192.0
139.954453 164.0
139.970932 124.0
140.004852 716.0
140.04451 184.0
140.069275 176.0
140.092606 152.0
140.142334 220.0
140.179092 176.0
140.198273 128.0
140.274994 128.0
140.29129 168.0
140.340897 140.0
140.370132 160.0
140.470612 100.0
140.49765 164.0
140.543747 72.0
140.598511 208.0
140.638519 352.0
140.657333 152.0
140.693359 320.0
140.732849 108.0
140.779816 92.0
140.801071 72.0
140.853439 208.0
140.876663 132.0
140.900284 144.0
140.933365 36.0
140.960587 168.0
141.001083 1084.0
141.017899 640.0
141.086441 152.0
141.110641 184.0
141.148468 136.0
141.167389 140.0
141.19104 72.0
141.217819 124.0
141.249832 112.0
141.276199 48.0
141.305374 132.0
141.367996 100.0
141.42807 176.0
141.517609 164.0
141.538223 196.0
141.572067 68.0
141.650238 140.0
141.692886 220.0
141.730789 188.0
141.769974 224.0
141.821976 192.0
141.86055 136.0
141.890594 180.0
141.922791 56.0
141.941757 292.0
141.961777 136.0
142.006042 272.0
142.024567 316.0
142.107803 136.0
142.143402 164.0
142.175522 104.0
142.21727 32.0
142.223282 128.0
142.247833 156.0
142.275589 232.0
142.311935 136.0
142.335358 208.0
142.367508 140.0
142.440292 188.0
142.470215 168.0
142.492447 180.0
142.543793 192.0
142.573242 124.0
142.655426 132.0
142.695999 132.0
142.77533 152.0
142.811905 96.0
142.837173 120.0
142.888718 204.0
142.932343 76.0
142.960892 152.0
143.000549 580.0
143.063248 148.0
143.09021 340.0
143.111176 152.0
143.143204 200.0
143.201187 84.0
143.259079 156.0
143.310959 196.0
143.343155 92.0
143.363373 72.0
143.386124 204.0
143.430115 108.0
143.468262 72.0
143.49324 152.0
143.527756 88.0
143.559097 164.0
143.580338 156.0
143.605225 220.0
143.693222 228.0
143.756989 180.0
143.778351 136.0
143.803925 324.0
143.820679 164.0
143.854736 208.0
143.914429 160.0
143.966293 460.0
144.002411 228.0
144.018173 180.0
144.03862 188.0
144.058655 104.0
144.141006 140.0
144.186768 112.0
144.214218 156.0
144.244125 108.0
144.26564 72.0
144.296722 152.0
144.318237 128.0
144.344543 232.0
144.39238 124.0
144.417953 156.0
144.495239 244.0
144.524414 184.0
144.531128 116.0
144.5392 184.0
144.562241 172.0
144.612503 192.0
144.631653 216.0
144.664871 380.0
144.732407 104.0
144.760162 208.0
144.784897 208.0
144.808838 216.0
144.825607 156.0
144.898499 140.0
144.932358 208.0
144.950195 156.0
144.996277 316.0
145.027466 184.0
145.046066 104.0
145.065247 196.0
145.127579 116.0
145.176987 172.0
145.220291 116.0
145.259491 104.0
145.288269 136.0
145.355011 216.0
145.361237 176.0
145.39386 188.0
145.409622 224.0
145.42746 176.0
145.467224 184.0
145.520386 180.0
145.537888 132.0
145.55751 192.0
145.579712 96.0
145.60408 240.0
145.655579 116.0
145.682007 116.0
145.754089 332.0
145.771881 204.0
145.799622 160.0
145.807922 120.0
145.835495 304.0
145.869171 168.0
145.895401 320.0
145.915558 152.0
145.936523 116.0
145.975891 420.0
146.017151 84.0
146.056839 264.0
146.094681 220.0
146.119125 220.0
146.122559 180.0
146.154022 176.0
146.193649 208.0
146.21582 140.0
146.251648 172.0
146.271179 152.0
146.28981 168.0
146.314514 132.0
146.345825 120.0
146.37471 176.0
146.391571 160.0
146.413254 188.0
146.430099 136.0
146.451935 124.0
146.496338 268.0
146.563553 244.0
146.586456 116.0
146.626709 140.0
146.709045 148.0
146.733749 140.0
146.765091 256.0
146.781967 184.0
146.808502 100.0
146.825378 220.0
146.873611 92.0
146.922195 144.0
146.955643 92.0
146.999588 412.0
147.019821 220.0
147.053574 352.0
147.087677 204.0
147.105286 112.0
147.131012 208.0
147.163925 164.0
147.191803 196.0
147.233658 340.0
147.276733 136.0
147.315384 68.0
147.337128 96.0
147.36322 140.0
147.406998 144.0
147.51178 104.0
147.528397 192.0
147.576645 160.0
147.602112 184.0
147.653168 108.0
147.706757 120.0
147.738449 56.0
147.773605 228.0
147.790619 164.0
147.81778 204.0
147.827316 160.0
147.859222 88.0
147.897003 188.0
147.924408 416.0
147.948318 140.0
147.979034 240.0
148.00795 2260.0
148.119659 240.0
148.153473 208.0
148.173462 148.0
148.207352 156.0
148.301971 156.0
148.326935 116.0
148.343903 204.0
148.37056 140.0
148.397232 40.0
148.415329 144.0
148.433609 176.0
148.472412 168.0
148.489395 172.0
148.514435 148.0
148.606354 148.0
148.629791 128.0
148.678635 164.0
148.70047 220.0
148.784348 260.0
148.812149 164.0
148.892212 140.0
148.919006 92.0
148.951859 144.0
148.97113 164.0
149.010284 568.0
149.040466 156.0
149.093933 120.0
149.137466 136.0
149.168747 180.0
149.192749 92.0
149.213501 148.0
149.232101 132.0
149.245453 164.0
149.264832 204.0
149.306747 204.0
149.329849 120.0
149.36525 220.0
149.400314 84.0
149.417343 152.0
149.463577 204.0
149.488708 332.0
149.522125 144.0
149.5457 140.0
149.575012 220.0
149.599884 112.0
149.626312 164.0
149.714325 144.0
149.786087 144.0
149.815292 164.0
149.850586 132.0
149.888062 176.0
149.938599 212.0
149.963608 128.0
149.992798 180.0
150.028656 120.0
150.050598 184.0
150.103485 128.0
150.129623 88.0
150.194489 36.0
150.234283 104.0
150.260361 164.0
150.29451 156.0
150.313019 488.0
150.358261 132.0
150.379288 132.0
150.394577 224.0
150.427841 204.0
150.432816 72.0
150.471405 144.0
150.509323 108.0
150.558167 164.0
150.582367 180.0
150.599808 168.0
150.624115 128.0
150.643311 172.0
150.671524 236.0
150.702286 44.0
150.741394 116.0
150.768051 168.0
150.80249 124.0
150.841599 156.0
150.889908 164.0
150.908722 168.0
150.947189 152.0
151.003067 204.0
151.040253 168.0
151.066788 188.0
151.095947 172.0
151.117966 176.0
151.139984 112.0
151.197861 352.0
151.231674 232.0
151.252274 204.0
151.286316 168.0
151.314423 224.0
151.350494 156.0
151.379883 80.0
151.422989 180.0
151.443558 132.0
151.470734 136.0
151.498032 120.0
151.519333 124.0
151.568726 180.0
151.617081 132.0
151.668228 148.0
151.688614 264.0
151.724838 160.0
151.747452 152.0
151.821014 208.0
151.889053 216.0
151.916595 224.0
151.946121 180.0
152.011444 1148.0
152.049774 184.0
152.095825 120.0
152.120987 160.0
152.141037 160.0
152.182388 212.0
152.208755 132.0
152.225952 172.0
152.272614 104.0
152.302078 96.0
152.326645 132.0
152.388062 148.0
152.415649 108.0
152.444412 112.0
152.506027 336.0
152.544312 112.0
152.569946 224.0
152.587158 64.0
152.611526 132.0
152.639053 188.0
152.665848 128.0
152.68718 160.0
152.739639 128.0
152.774933 200.0
152.806107 204.0
152.842972 132.0
152.884064 156.0
152.927322 248.0
152.952454 140.0
152.96199 104.0
153.01886 1580.0
153.049652 108.0
153.081223 180.0
153.137894 372.0
153.194397 136.0
153.229538 100.0
153.273483 188.0
153.305008 128.0
153.325653 104.0
153.354584 248.0
153.38945 168.0
153.421783 180.0
153.44397 140.0
153.463501 148.0
153.517944 140.0
153.580231 160.0
153.614151 256.0
153.638184 124.0
153.698029 104.0
153.781937 128.0
153.804153 124.0
153.825775 216.0
153.860138 160.0
153.901505 288.0
153.953537 104.0
154.01239 224.0
154.110809 48.0
154.134949 236.0
154.178543 208.0
154.225204 160.0
154.285889 144.0
154.318359 120.0
154.333496 236.0
154.386917 140.0
154.478195 156.0
154.539566 92.0
154.547501 160.0
154.557602 108.0
154.563263 192.0
154.595078 64.0
154.639969 148.0
154.703995 176.0
154.728745 108.0
154.746078 124.0
154.79808 204.0
154.820374 132.0
154.85257 152.0
154.916977 100.0
154.93927 116.0
154.956604 204.0
154.997864 148.0
155.014648 716.0
155.033722 424.0
155.051697 280.0
155.092911 200.0
155.131531 160.0
155.204483 228.0
155.244736 256.0
155.278885 160.0
155.294571 100.0
155.317154 204.0
155.34697 180.0
155.425247 208.0
155.464951 160.0
155.552536 144.0
155.615753 176.0
155.620255 136.0
155.630112 120.0
155.685913 56.0
155.717285 164.0
155.775848 132.0
155.79422 196.0
155.827942 292.0
155.838104 252.0
155.843307 88.0
155.965118 1672.0
156.018875 176.0
156.056168 52.0
156.075928 152.0
156.118332 96.0
156.235245 276.0
156.25267 84.0
156.291199 132.0
156.323517 156.0
156.365616 156.0
156.405396 168.0
156.426453 164.0
156.45134 160.0
156.514023 128.0
156.534531 216.0
156.605225 128.0
156.628586 152.0
156.7108 136.0
156.759018 188.0
156.800354 132.0
156.811066 136.0
156.815887 164.0
156.864578 176.0
156.884079 144.0
156.927643 124.0
156.945099 268.0
156.968674 220.0
156.993225 80.0
157.022415 220.0
157.04129 112.0
157.087265 200.0
157.104721 108.0
157.137161 160.0
157.172089 120.0
157.204529 200.0
157.227005 236.0
157.248871 168.0
157.271423 160.0
157.299377 128.0
157.330917 164.0
157.379272 252.0
157.41423 148.0
157.461746 188.0
157.486298 192.0
157.529129 96.0
157.552887 264.0
157.591599 136.0
157.63205 104.0
157.676559 192.0
157.694061 184.0
157.747086 116.0
157.780655 180.0
157.891571 120.0
157.925003 120.0
157.9617 1132.0
158.019928 244.0
158.054001 164.0
158.078812 128.0
158.126099 300.0
158.170593 140.0
158.202744 304.0
158.217972 192.0
158.244995 156.0
158.251999 160.0
158.263504 148.0
158.275436 200.0
158.299515 108.0
158.326019 116.0
158.353851 120.0
158.522461 80.0
158.542511 172.0
158.584198 304.0
158.620789 156.0
158.650833 180.0
158.663696 104.0
158.684189 232.0
158.715485 88.0
158.769073 116.0
158.808289 156.0
158.844635 152.0
158.889404 172.0
158.913651 80.0
158.971481 588.0
158.99646 168.0
159.05484 156.0
159.116959 324.0
159.162155 308.0
159.190216 112.0
159.218765 132.0
159.240005 296.0
159.286697 224.0
159.332947 128.0
159.361923 188.0
159.380692 92.0
159.400787 148.0
159.434189 152.0
159.471161 100.0
159.551605 132.0
159.569199 156.0
159.604843 164.0
159.63855 152.0
159.6698 160.0
159.70871 116.0
159.740219 108.0
159.775986 376.0
159.808151 112.0
159.855957 132.0
159.902252 264.0
159.930176 68.0
159.963058 488.0
160.006042 160.0
160.047272 128.0
160.097244 176.0
160.104584 148.0
160.178238 60.0
160.212921 220.0
160.222229 104.0
160.267334 176.0
160.292114 104.0
160.336258 180.0
160.356033 180.0
160.38739 196.0
160.446976 228.0
160.518524 204.0
160.550308 144.0
160.556534 216.0
160.564758 152.0
160.594162 224.0
160.617966 156.0
160.646484 108.0
160.682465 40.0
160.70047 144.0
160.716736 48.0
160.751556 280.0
160.811157 136.0
160.841446 188.0
160.865753 180.0
160.889923 172.0
160.904129 92.0
160.93486 156.0
160.972198 188.0
160.998001 168.0
161.028305 240.0
161.058228 160.0
161.091446 224.0
161.109131 188.0
161.136932 116.0
161.169067 144.0
161.196442 232.0
161.237335 136.0
161.260757 180.0
161.280975 164.0
161.31636 140.0
161.340317 152.0
161.349762 192.0
161.374512 144.0
161.396866 176.0
161.467484 152.0
161.51329 160.0
161.549026 92.0
161.665634 140.0
161.710159 196.0
161.744324 128.0
161.799683 100.0
161.842621 60.0
161.862885 188.0
161.880615 184.0
161.933792 124.0
161.960159 244.0
161.994583 124.0
162.021149 360.0
162.041565 140.0
162.080734 136.0
162.131424 124.0
162.177124 124.0
162.204926 180.0
162.225204 140.0
162.25563 156.0
162.293518 136.0
162.325409 116.0
162.35968 128.0
162.39003 132.0
162.416962 136.0
162.494888 156.0
162.527023 44.0
162.577774 120.0
162.608231 140.0
162.638687 160.0
162.678375 304.0
162.704697 104.0
162.755478 184.0
162.803757 236.0
162.870987 448.0
162.905334 176.0
162.947632 136.0
162.995987 328.0
163.030701 21740.0
163.06781 132.0
163.106308 140.0
163.128387 88.0
163.137482 168.0
163.166412 152.0
163.207779 156.0
163.231628 236.0
163.271286 136.0
163.278061 132.0
163.294617 156.0
163.332413 128.0
163.355301 216.0
163.379929 112.0
163.412888 216.0
163.451981 32.0
163.476852 120.0
163.518158 204.0
163.543762 128.0
163.584335 124.0
163.602158 208.0
163.642456 116.0
163.678253 140.0
163.687317 72.0
163.697083 100.0
163.742203 160.0
163.780411 132.0
163.81958 128.0
163.902176 192.0
163.938675 120.0
163.958771 96.0
164.001663 416.0
164.033722 1680.0
164.095032 196.0
164.11348 180.0
164.131683 140.0
164.207458 384.0
164.227493 296.0
164.303345 196.0
164.331085 180.0
164.368622 248.0
164.420395 140.0
164.459961 160.0
164.500809 136.0
164.524399 156.0
164.564972 336.0
164.582535 188.0
164.61171 360.0
164.644669 152.0
164.651535 128.0
164.690186 416.0
164.72937 120.0
164.774307 176.0
164.797394 172.0
164.86525 200.0
164.893341 184.0
164.929871 92.0
164.959045 292.0
165.020462 37044.0
165.09201 188.0
165.123108 108.0
165.143982 148.0
165.177765 108.0
165.197052 72.0
165.221619 164.0
165.264786 108.0
165.307999 88.0
165.336716 196.0
165.366074 84.0
165.402939 244.0
165.435425 208.0
165.480652 116.0
165.490982 76.0
165.524887 132.0
165.555542 68.0
165.611832 184.0
165.676849 224.0
165.712845 168.0
165.732056 172.0
165.770737 72.0
165.857178 132.0
165.909103 184.0
165.915207 288.0
165.946548 300.0
165.975174 208.0
166.02356 4260.0
166.065369 248.0
166.0755 228.0
166.10936 340.0
166.145096 212.0
166.16214 156.0
166.194168 160.0
166.216949 164.0
166.251541 196.0
166.291367 100.0
166.317047 100.0
166.376007 144.0
166.385223 136.0
166.390915 236.0
166.414597 112.0
166.470047 128.0
166.504929 140.0
166.530884 184.0
166.560989 100.0
166.581543 168.0
166.620071 72.0
166.650909 196.0
166.671463 84.0
166.719742 132.0
166.727203 136.0
166.736801 236.0
166.763977 64.0
166.784332 144.0
166.795898 48.0
166.802536 116.0
166.825455 140.0
166.844742 220.0
166.866806 136.0
166.904465 180.0
166.952164 188.0
167.017761 11036.0
167.072571 172.0
167.125656 196.0
167.175491 148.0
167.212112 192.0
167.252502 208.0
167.269043 212.0
167.291382 152.0
167.314484 100.0
167.354095 156.0
167.386459 172.0
167.427704 248.0
167.441147 132.0
167.468994 140.0
167.495758 124.0
167.540741 160.0
167.552902 56.0
167.558105 136.0
167.583801 156.0
167.612244 144.0
167.642578 260.0
167.675125 68.0
167.70694 152.0
167.759888 100.0
167.836868 616.0
167.865906 72.0
167.883957 92.0
167.91362 112.0
167.956177 236.0
168.019104 1248.0
168.054291 216.0
168.081512 172.0
168.099564 168.0
168.116776 180.0
168.142944 168.0
168.16777 76.0
168.188416 116.0
168.208435 180.0
168.213165 136.0
168.239243 192.0
168.309998 172.0
168.343323 236.0
168.363907 120.0
168.396179 260.0
168.445862 140.0
168.467316 208.0
168.501953 156.0
168.573929 168.0
168.581985 84.0
168.589676 180.0
168.630112 128.0
168.658539 160.0
168.707657 48.0
168.790146 176.0
168.82753 112.0
168.879791 212.0
168.921982 164.0
168.948181 100.0
168.996506 848.0
169.047546 148.0
169.069794 112.0
169.104858 204.0
169.198135 152.0
169.226715 200.0
169.250854 140.0
169.286148 112.0
169.293381 208.0
169.367081 132.0
169.387848 172.0
169.434906 96.0
169.467865 184.0
169.486725 212.0
169.507462 100.0
169.538559 88.0
169.563202 164.0
169.639648 116.0
169.694092 152.0
169.72261 196.0
169.793121 188.0
169.831543 60.0
169.865265 64.0
169.886017 112.0
169.969284 456.0
170.006485 312.0
170.059875 144.0
170.092651 128.0
170.156448 192.0
170.178177 136.0
170.210449 44.0
170.285843 136.0
170.329926 156.0
170.394257 152.0
170.472336 172.0
170.478149 136.0
170.510529 128.0
170.535202 28.0
170.556 312.0
170.621429 252.0
170.642883 148.0
170.669739 160.0
170.70816 168.0
170.741119 204.0
170.780243 152.0
170.80043 184.0
170.834473 144.0
170.868073 216.0
170.885147 176.0
170.936584 276.0
170.976898 34508.0
171.040466 332.0
171.08165 68.0
171.105728 116.0
171.128235 252.0
171.17395 308.0
171.199036 56.0
171.216888 144.0
171.236679 80.0
171.265076 304.0
171.285782 152.0
171.318481 104.0
171.337646 156.0
171.36937 188.0
171.424362 164.0
171.444229 140.0
171.46701 140.0
171.502197 168.0
171.539993 84.0
171.561478 168.0
171.582092 164.0
171.623688 124.0
171.698166 164.0
171.722961 120.0
171.79567 152.0
171.829483 108.0
171.888306 104.0
171.91037 96.0
171.939224 220.0
171.977646 3388.0
172.020081 360.0
172.046112 40.0
172.078827 100.0
172.119217 156.0
172.147095 184.0
172.179276 84.0
172.20018 328.0
172.241974 320.0
172.265472 72.0
172.303558 188.0
172.329224 80.0
172.3909 84.0
172.427383 96.0
172.488083 240.0
172.57486 96.0
172.600021 184.0
172.626175 96.0
172.687897 60.0
172.709747 172.0
172.715668 168.0
172.738754 200.0
172.765106 212.0
172.786072 128.0
172.811462 188.0
172.839462 204.0
172.844559 108.0
172.854477 148.0
172.886322 200.0
172.973419 11448.0
173.012253 160.0
173.035217 264.0
173.066605 184.0
173.109055 140.0
173.128647 152.0
173.156036 172.0
173.184891 204.0
173.193344 40.0
173.202759 136.0
173.241104 288.0
173.246979 228.0
173.298141 452.0
173.359512 100.0
173.386246 148.0
173.398071 176.0
173.414749 420.0
173.441971 212.0
173.481461 136.0
173.508514 172.0
173.56105 208.0
173.595139 88.0
173.616119 112.0
173.659119 132.0
173.711624 184.0
173.761993 144.0
173.799026 328.0
173.845596 216.0
173.870346 164.0
173.976547 1080.0
174.004623 216.0
174.148239 280.0
174.201447 124.0
174.243622 320.0
174.273209 192.0
174.324478 316.0
174.352417 168.0
174.405167 140.0
174.437973 116.0
174.465347 116.0
174.475342 148.0
174.499008 164.0
174.56337 144.0
174.58522 232.0
174.603622 192.0
174.635635 328.0
174.722 144.0
174.745682 112.0
174.766724 80.0
174.819351 132.0
174.877258 140.0
174.911484 88.0
174.969299 112.0
174.995728 252.0
175.01416 136.0
175.066818 148.0
175.103699 200.0
175.146286 116.0
175.205765 132.0
175.227509 80.0
175.25386 128.0
175.292526 124.0
175.325012 132.0
175.376801 320.0
175.420364 136.0
175.459442 160.0
175.488449 212.0
175.52272 124.0
175.559647 104.0
175.601242 88.0
175.674606 192.0
175.715591 148.0
175.789169 208.0
175.809692 164.0
175.854996 160.0
175.894745 116.0
175.923126 180.0
175.943893 148.0
175.995026 160.0
176.039703 256.0
176.115692 184.0
176.135315 132.0
176.16272 144.0
176.238083 236.0
176.27507 140.0
176.307465 124.0
176.318909 164.0
176.328598 220.0
176.35994 192.0
176.390396 76.0
176.462753 292.0
176.499176 72.0
176.526215 376.0
176.546585 152.0
176.591965 172.0
176.634659 128.0
176.692734 248.0
176.732544 68.0
176.80127 132.0
176.838394 84.0
176.861465 84.0
176.902863 192.0
176.925064 260.0
177.005188 172.0
177.06398 124.0
177.083206 88.0
177.101135 160.0
177.127029 184.0
177.159836 192.0
177.193253 188.0
177.314529 252.0
177.39299 188.0
177.425049 88.0
177.443008 252.0
177.502121 152.0
177.552841 200.0
177.602051 140.0
177.685791 156.0
177.739471 292.0
177.773972 276.0
177.803162 92.0
177.846664 100.0
177.906693 32.0
177.949219 200.0
177.975723 328.0
178.047089 452.0
178.06601 152.0
178.110199 208.0
178.151016 168.0
178.281219 172.0
178.29982 96.0
178.387543 100.0
178.435394 100.0
178.454544 160.0
178.520493 148.0
178.593597 164.0
178.65239 176.0
178.677429 168.0
178.71846 160.0
178.738449 176.0
178.762573 172.0
178.783859 116.0
178.858383 168.0
178.88707 264.0
178.922287 128.0
178.954239 112.0
178.983215 188.0
179.008026 204.0
179.031052 52.0
179.037216 112.0
179.058395 156.0
179.091843 172.0
179.115295 260.0
179.159714 216.0
179.178696 116.0
179.199814 100.0
179.258926 220.0
179.270081 84.0
179.278 184.0
179.351181 148.0
179.404495 104.0
179.428497 120.0
179.447159 124.0
179.495163 212.0
179.578125 192.0
179.624588 272.0
179.721893 300.0
179.753922 144.0
179.789764 184.0
179.841995 40.0
179.879059 140.0
179.924744 128.0
179.967468 84.0
180.004852 128.0
180.041595 296.0
180.092987 144.0
180.111679 252.0
180.135666 204.0
180.189056 116.0
180.201736 132.0
180.319336 140.0
180.348389 192.0
180.378906 156.0
180.472473 156.0
180.501968 132.0
180.547363 180.0
180.588211 160.0
180.608047 260.0
180.675751 168.0
180.702515 68.0
180.769409 100.0
180.836014 176.0
180.839661 112.0
180.881821 120.0
180.91394 176.0
180.938141 100.0
181.011261 416.0
181.055862 192.0
181.113113 172.0
181.150986 224.0
181.19783 128.0
181.238022 180.0
181.25679 92.0
181.326157 212.0
181.363983 152.0
181.457825 160.0
181.48732 92.0
181.50798 136.0
181.536911 216.0
181.557037 152.0
181.577179 116.0
181.616043 112.0
181.653763 136.0
181.721481 328.0
181.755554 164.0
181.782394 216.0
181.841431 64.0
181.860229 124.0
181.892441 144.0
181.962845 312.0
181.968475 136.0
182.021866 172.0
182.045471 84.0
182.075027 160.0
182.121765 288.0
182.152908 164.0
182.184662 108.0
182.226379 140.0
182.248871 156.0
182.268799 180.0
182.334854 180.0
182.370575 124.0
182.407181 220.0
182.411926 136.0
182.486176 160.0
182.523819 308.0
182.541183 228.0
182.557632 244.0
182.617752 160.0
182.627396 164.0
182.658295 36.0
182.70285 196.0
182.725555 220.0
182.749771 160.0
182.782059 148.0
182.8311 160.0
182.857407 88.0
182.929626 116.0
182.975296 4720.0
183.012314 136.0
183.018204 176.0
183.057709 244.0
183.126953 148.0
183.221848 176.0
183.255981 132.0
183.2966 204.0
183.360138 116.0
183.388031 28.0
183.412292 164.0
183.458115 148.0
183.49498 148.0
183.570892 160.0
183.609802 284.0
183.633957 76.0
183.655716 160.0
183.684647 188.0
183.709351 176.0
183.732712 200.0
183.768005 92.0
183.786667 176.0
183.816849 324.0
183.835739 128.0
183.890594 180.0
183.914017 192.0
183.94371 108.0
183.982117 408.0
184.011475 200.0
184.065018 172.0
184.117645 180.0
184.167831 268.0
184.186569 188.0
184.243469 296.0
184.266983 280.0
184.284332 168.0
184.327271 148.0
184.362366 136.0
184.398682 104.0
184.416412 236.0
184.459671 96.0
184.51915 148.0
184.54808 200.0
184.575928 72.0
184.611557 132.0
184.640015 132.0
184.698166 164.0
184.723358 112.0
184.756256 152.0
184.790909 184.0
184.806503 116.0
184.887039 80.0
184.91275 224.0
184.973755 1756.0
185.019669 236.0
185.044037 104.0
185.073822 116.0
185.109024 120.0
185.176743 148.0
185.206528 124.0
185.264465 104.0
185.30249 172.0
185.344696 180.0
185.398895 196.0
185.466354 144.0
185.493942 128.0
185.531723 124.0
185.550705 100.0
185.575104 148.0
185.654617 148.0
185.72226 176.0
185.774979 276.0
185.843216 132.0
185.870132 68.0
185.908768 348.0
185.965546 456.0
185.994812 160.0
186.011581 428.0
186.054062 144.0
186.078659 184.0
186.123215 128.0
186.142227 240.0
186.194687 216.0
186.254288 200.0
186.289841 92.0
186.400299 64.0
186.428497 180.0
186.449219 192.0
186.499054 160.0
186.548676 220.0
186.575119 176.0
186.6716 160.0
186.733017 220.0
186.776688 100.0
186.821747 92.0
186.862549 200.0
186.926025 172.0
186.934418 68.0
186.945663 312.0
186.972336 1532.0
187.01123 312.0
187.042175 284.0
187.07756 80.0
187.134735 272.0
187.158707 180.0
187.191925 192.0
187.211761 140.0
187.251831 120.0
187.297073 280.0
187.319702 188.0
187.404037 152.0
187.467072 144.0
187.491592 84.0
187.510681 100.0
187.540649 100.0
187.587341 156.0
187.644257 312.0
187.702286 128.0
187.739685 164.0
187.775955 188.0
187.799698 172.0
187.87442 164.0
187.908813 112.0
187.939026 172.0
187.971695 96.0
187.999176 324.0
188.024521 612.0
188.067093 124.0
188.217453 172.0
188.246429 76.0
188.282791 204.0
188.325623 328.0
188.411179 140.0
188.452164 172.0
188.493149 104.0
188.572418 136.0
188.597015 152.0
188.670822 76.0
188.740692 268.0
188.814377 132.0
188.843094 156.0
188.869843 268.0
188.890778 144.0
188.970169 464.0
189.009781 148.0
189.144089 244.0
189.185165 116.0
189.213745 108.0
189.256729 168.0
189.311371 172.0
189.343979 364.0
189.370239 320.0
189.417938 132.0
189.470093 160.0
189.513901 156.0
189.541229 236.0
189.565887 112.0
189.585068 184.0
189.626846 312.0
189.678268 40.0
189.716095 120.0
189.785187 160.0
189.811768 164.0
189.846497 224.0
189.872299 340.0
189.899384 56.0
189.951843 396.0
189.970596 60.0
189.989594 132.0
190.020737 352.0
190.069092 92.0
190.086929 124.0
190.108047 196.0
190.132187 228.0
190.158279 176.0
190.22142 124.0
190.257111 164.0
190.277985 152.0
190.304794 152.0
190.381271 204.0
190.40451 264.0
190.443954 316.0
190.4617 120.0
190.52626 128.0
190.549393 332.0
190.581207 128.0
190.620514 172.0
190.643829 168.0
190.654327 132.0
190.663467 116.0
190.673309 240.0
190.698471 232.0
190.752991 104.0
190.776352 272.0
190.814346 184.0
190.841415 116.0
190.88324 384.0
190.94133 240.0
191.010483 88.0
191.051361 128.0
191.082458 80.0
191.118759 244.0
191.166107 252.0
191.179871 80.0
191.190735 228.0
191.238495 128.0
191.297531 172.0
191.321075 176.0
191.343109 144.0
191.385773 116.0
191.428146 172.0
191.449951 148.0
191.486298 160.0
191.505402 232.0
191.54689 68.0
191.573334 208.0
191.679153 196.0
191.736359 200.0
191.799347 176.0
191.833496 128.0
191.893646 260.0
191.955261 100.0
191.980942 248.0
192.070648 152.0
192.097641 116.0
192.139893 188.0
192.186523 136.0
192.216507 120.0
192.254654 128.0
192.277603 128.0
192.336853 144.0
192.38063 172.0
192.412369 180.0
192.438553 200.0
192.500305 120.0
192.562927 268.0
192.595123 136.0
192.633804 168.0
192.726715 232.0
192.796814 84.0
192.818939 88.0
192.838272 164.0
192.936722 196.0
192.965805 156.0
193.006912 228.0
193.08989 124.0
193.145203 128.0
193.167328 40.0
193.205002 344.0
193.251801 136.0
193.301361 208.0
193.343842 192.0
193.37236 168.0
193.409409 176.0
193.455139 132.0
193.491135 216.0
193.510513 172.0
193.560364 104.0
193.61972 92.0
193.670319 176.0
193.69873 192.0
193.745422 216.0
193.768097 192.0
193.82106 212.0
193.851227 48.0
193.884491 316.0
193.972931 136.0
194.07576 152.0
194.096878 128.0
194.221085 220.0
194.250031 180.0
194.269226 196.0
194.279205 80.0
194.291397 156.0
194.332565 180.0
194.368256 216.0
194.408646 172.0
194.44751 188.0
194.491211 144.0
194.514816 128.0
194.551987 176.0
194.583405 372.0
194.595474 200.0
194.600601 232.0
194.625015 328.0
194.675003 136.0
194.685837 128.0
194.699203 116.0
194.75293 96.0
194.77623 144.0
194.869003 184.0
194.878723 144.0
194.887268 224.0
194.936295 320.0
194.975403 112.0
195.006363 172.0
195.056046 352.0
195.126266 96.0
195.197617 92.0
195.279144 204.0
195.305542 184.0
195.361496 148.0
195.382126 144.0
195.431274 124.0
195.456314 172.0
195.544434 188.0
195.568695 144.0
195.61647 156.0
195.653946 108.0
195.726028 180.0
195.784256 140.0
195.809875 96.0
195.854446 152.0
195.882309 132.0
195.946381 128.0
195.984589 224.0
196.025955 200.0
196.061737 120.0
196.093201 128.0
196.121948 120.0
196.147034 132.0
196.177383 144.0
196.204956 260.0
196.239044 156.0
196.26413 152.0
196.283646 132.0
196.331314 168.0
196.36174 64.0
196.393814 128.0
196.508331 248.0
196.536987 152.0
196.570984 64.0
196.626801 140.0
196.688202 124.0
196.766373 172.0
196.789932 160.0
196.843719 120.0
196.884293 292.0
196.908081 172.0
196.992279 10164.0
197.058624 232.0
197.083511 180.0
197.123917 128.0
197.17421 52.0
197.212036 196.0
197.228683 380.0
197.252365 188.0
197.305359 276.0
197.330765 140.0
197.392273 76.0
197.446426 300.0
197.481781 152.0
197.546112 128.0
197.579681 120.0
197.69635 104.0
197.71492 196.0
197.760803 144.0
197.800766 140.0
197.820374 140.0
197.850677 168.0
197.868896 180.0
197.891785 100.0
197.931305 192.0
197.964096 592.0
198.000351 28568.0
198.048798 264.0
198.084946 136.0
198.128189 288.0
198.155685 96.0
198.191574 324.0
198.209335 184.0
198.236755 200.0
198.261856 332.0
198.331223 312.0
198.348892 72.0
198.403091 208.0
198.444794 252.0
198.486588 184.0
198.528763 268.0
198.534225 148.0
198.557724 264.0
198.575104 220.0
198.622452 180.0
198.644806 104.0
198.761169 192.0
198.790176 152.0
198.813873 144.0
198.83577 248.0
198.874176 208.0
198.892303 588.0
198.932449 440.0
198.972061 101936.0
199.038986 44.0
199.063171 124.0
199.093613 252.0
199.122864 72.0
199.163086 228.0
199.197418 180.0
199.245636 180.0
199.273041 176.0
199.278015 152.0
199.303284 232.0
199.365005 180.0
199.392822 176.0
199.434128 408.0
199.457275 220.0
199.479645 168.0
199.499969 148.0
199.547165 244.0
199.570587 88.0
199.589325 164.0
199.632111 92.0
199.678238 160.0
199.703629 180.0
199.734299 80.0
199.792603 284.0
199.832123 244.0
199.859619 124.0
199.870575 60.0
199.882629 128.0
199.902023 180.0
199.922272 200.0
199.928696 228.0
199.975952 9044.0
199.994019 8984.0
200.05899 68.0
200.078598 128.0
200.123169 236.0
200.144119 124.0
200.173477 56.0
200.221161 100.0
200.263733 140.0
200.300018 72.0
200.338287 144.0
200.367935 276.0
200.409088 152.0
200.451416 160.0
200.473221 144.0
200.494919 160.0
200.531082 148.0
200.562088 76.0
200.641373 128.0
200.681625 160.0
200.729385 204.0
200.750992 60.0
200.774918 124.0
200.809433 128.0
200.830872 124.0
200.862701 272.0
200.909378 132.0
200.968399 31516.0
201.040649 224.0
201.071808 112.0
201.091568 256.0
201.13533 92.0
201.20993 360.0
201.234131 188.0
201.24588 180.0
201.275879 284.0
201.336594 260.0
201.364075 176.0
201.372726 204.0
201.426926 116.0
201.479065 116.0
201.487289 216.0
201.514343 112.0
201.560654 192.0
201.586914 344.0
201.622787 60.0
201.630417 96.0
201.644089 216.0
201.705078 272.0
201.740799 176.0
201.775162 108.0
201.79863 156.0
201.825974 216.0
201.866486 40.0
201.891937 148.0
201.970535 2636.0
202.027832 240.0
202.103012 184.0
202.132401 208.0
202.180511 272.0
202.234299 200.0
202.289841 320.0
202.358856 216.0
202.378677 148.0
202.441559 136.0
202.470825 200.0
202.49649 140.0
202.502853 132.0
202.559937 64.0
202.583588 184.0
202.61235 176.0
202.691971 160.0
202.756119 68.0
202.78598 176.0
202.842575 152.0
202.884415 64.0
202.965027 704.0
203.007965 116.0
203.01828 164.0
203.03096 136.0
203.040237 116.0
203.098526 196.0
203.127106 156.0
203.158401 152.0
203.218292 172.0
203.247375 188.0
203.292725 284.0
203.331192 132.0
203.362885 204.0
203.390182 148.0
203.427704 96.0
203.464615 148.0
203.497299 252.0
203.517014 140.0
203.5466 172.0
203.62149 212.0
203.661789 176.0
203.696564 112.0
203.718567 208.0
203.759979 64.0
203.788391 120.0
203.839539 108.0
203.870804 68.0
203.939026 152.0
203.958923 336.0
203.982117 224.0
204.006668 100.0
204.027588 180.0
204.095383 104.0
204.173416 292.0
204.196564 188.0
204.217667 68.0
204.25444 160.0
204.297653 288.0
204.356186 248.0
204.408661 216.0
204.453827 184.0
204.523254 112.0
204.549316 160.0
204.618927 100.0
204.638138 220.0
204.678726 72.0
204.733078 140.0
204.768188 164.0
204.821777 176.0
204.875259 168.0
204.937546 144.0
205.015442 224.0
205.049072 72.0
205.071884 160.0
205.1026 144.0
205.143143 196.0
205.173004 160.0
205.200165 76.0
205.228668 132.0
205.264084 48.0
205.291412 116.0
205.317078 192.0
205.431183 104.0
205.52533 308.0
205.545303 172.0
205.593811 48.0
205.625214 184.0
205.650894 104.0
205.670883 96.0
205.695435 140.0
205.715347 180.0
205.738876 156.0
205.779373 124.0
205.831604 68.0
205.863312 80.0
205.910721 112.0
205.990555 152.0
206.032257 176.0
206.072281 88.0
206.111664 168.0
206.147858 112.0
206.25647 280.0
206.299347 196.0
206.356812 160.0
206.390839 180.0
206.417801 204.0
206.488068 112.0
206.510956 64.0
206.547653 188.0
206.58107 172.0
206.620956 88.0
206.668915 100.0
206.709274 188.0
206.74556 164.0
206.780487 204.0
206.805969 116.0
206.844131 192.0
206.907806 212.0
206.936356 172.0
206.982147 224.0
207.018402 172.0
207.071335 208.0
207.097733 144.0
207.14357 64.0
207.177948 176.0
207.216919 292.0
207.298294 176.0
207.362137 272.0
207.43013 168.0
207.484604 128.0
207.530472 84.0
207.580307 96.0
207.610779 324.0
207.662857 140.0
207.694809 160.0
207.756729 124.0
207.791489 36.0
207.814438 124.0
207.84343 156.0
207.861664 140.0
207.942078 176.0
207.978531 344.0
208.049072 144.0
208.078506 196.0
208.118698 108.0
208.144547 192.0
208.176132 124.0
208.196243 80.0
208.222092 184.0
208.261261 172.0
208.381012 124.0
208.420319 116.0
208.454117 152.0
208.517273 200.0
208.569687 172.0
208.61171 108.0
208.622757 64.0
208.635117 136.0
208.643585 164.0
208.673248 40.0
208.706665 116.0
208.776566 56.0
208.811295 160.0
208.84581 220.0
208.86972 128.0
208.943192 164.0
208.956558 80.0
208.962357 148.0
208.988708 304.0
209.013519 196.0
209.067352 140.0
209.119568 168.0
209.144913 156.0
209.188248 56.0
209.217865 128.0
209.273621 300.0
209.34726 176.0
209.382675 264.0
209.411499 240.0
209.470459 120.0
209.5177 120.0
209.545364 148.0
209.577057 228.0
209.66539 356.0
209.698715 184.0
209.725784 232.0
209.788589 200.0
209.882599 128.0
209.905258 112.0
209.961487 124.0
209.974319 136.0
210.025375 452.0
210.059845 360.0
210.144669 136.0
210.208572 92.0
210.234543 124.0
210.257629 128.0
210.405548 116.0
210.430359 168.0
210.5103 172.0
210.546082 172.0
210.586777 152.0
210.630463 200.0
210.676331 168.0
210.699448 116.0
210.733749 96.0
210.7659 72.0
210.791534 188.0
210.796265 212.0
210.832367 116.0
210.878616 156.0
210.90239 88.0
210.921967 160.0
210.945099 84.0
210.972336 256.0
211.030899 1536.0
211.065521 332.0
211.093552 160.0
211.167923 164.0
211.195175 248.0
211.201431 56.0
211.211914 164.0
211.248749 172.0
211.309494 128.0
211.329758 120.0
211.384735 100.0
211.404984 116.0
211.471771 56.0
211.507858 192.0
211.533401 164.0
211.615585 144.0
211.650208 124.0
211.677963 220.0
211.763992 124.0
211.813248 100.0
211.85379 164.0
211.880005 84.0
211.917542 204.0
212.03096 416.0
212.076279 160.0
212.120407 100.0
212.1436 216.0
212.189987 88.0
212.221878 72.0
212.242188 156.0
212.273056 224.0
212.363174 184.0
212.377975 112.0
212.38887 152.0
212.436508 116.0
212.480026 168.0
212.514847 144.0
212.546768 104.0
212.592117 140.0
212.657043 136.0
212.703491 156.0
212.735428 88.0
212.793488 124.0
212.828323 192.0
212.921265 172.0
212.987106 700.0
213.021179 740.0
213.072311 108.0
213.095551 180.0
213.118408 120.0
213.159485 152.0
213.180298 188.0
213.211792 96.0
213.24086 128.0
213.26976 72.0
213.308685 144.0
213.335419 364.0
213.369003 196.0
213.424011 64.0
213.453094 136.0
213.476349 88.0
213.49823 180.0
213.525787 156.0
213.551239 280.0
213.59581 164.0
213.656693 148.0
213.67836 304.0
213.764359 48.0
213.79306 116.0
213.841553 176.0
213.849792 136.0
213.877289 208.0
213.923264 236.0
213.943359 92.0
213.996521 2868.0
214.062744 168.0
214.096909 156.0
214.133682 220.0
214.221481 116.0
214.278473 128.0
214.315765 120.0
214.34256 144.0
214.370087 128.0
214.447906 108.0
214.485077 220.0
214.544968 144.0
214.568298 64.0
214.597458 140.0
214.629532 204.0
214.661606 156.0
214.708267 248.0
214.731598 164.0
214.764786 120.0
214.787247 160.0
214.822021 132.0
214.85704 72.0
214.877457 160.0
214.906631 176.0
214.926422 180.0
214.946854 184.0
214.985306 680.0
215.009827 736.0
215.06424 168.0
215.087585 168.0
215.109863 152.0
215.131805 260.0
215.158768 156.0
215.186325 148.0
215.23941 164.0
215.347702 208.0
215.374954 132.0
215.411087 148.0
215.433914 144.0
215.505219 88.0
215.549042 112.0
215.596786 132.0
215.642563 124.0
215.686417 152.0
215.739029 168.0
215.782883 132.0
215.83638 164.0
215.886475 144.0
215.91156 120.0
215.946655 176.0
215.988998 800.0
216.019241 628.0
216.079849 136.0
216.134705 172.0
216.1884 292.0
216.28212 152.0
216.356339 160.0
216.414902 172.0
216.480972 164.0
216.539749 208.0
216.575974 272.0
216.609543 164.0
216.639984 192.0
216.672638 232.0
216.703629 328.0
216.760544 148.0
216.781067 60.0
216.871918 160.0
216.943954 160.0
216.979691 176.0
217.019745 360.0
217.034042 172.0
217.045105 184.0
217.06897 380.0
217.162201 232.0
217.250198 108.0
217.329422 140.0
217.370499 180.0
217.473221 140.0
217.504379 104.0
217.55249 192.0
217.661118 172.0
217.704147 104.0
217.71965 160.0
217.747208 140.0
217.78447 112.0
217.822662 208.0
217.858353 108.0
217.867615 132.0
217.888794 228.0
217.919617 156.0
217.97998 156.0
217.98613 144.0
218.019363 276.0
218.134216 208.0
218.15744 52.0
218.204712 152.0
218.292923 192.0
218.348267 88.0
218.374039 308.0
218.468887 224.0
218.505783 220.0
218.557678 128.0
218.601486 156.0
218.638168 192.0
218.66362 292.0
218.695999 120.0
218.724869 212.0
218.745193 180.0
218.75441 200.0
218.788864 196.0
218.858337 208.0
218.916809 80.0
218.937424 76.0
218.990509 208.0
219.023804 148.0
219.093063 196.0
219.164261 52.0
219.196182 160.0
219.25856 104.0
219.32341 160.0
219.37352 48.0
219.405273 140.0
219.415894 108.0
219.42482 180.0
219.45607 104.0
219.508362 152.0
219.547485 44.0
219.602463 184.0
219.666367 200.0
219.710587 124.0
219.799484 228.0
219.837555 300.0
219.871216 220.0
219.891251 248.0
219.946655 112.0
219.972 292.0
219.991379 184.0
220.058136 176.0
220.21669 120.0
220.233749 180.0
220.256943 56.0
220.286499 152.0
220.321075 228.0
220.353363 160.0
220.385239 152.0
220.402802 120.0
220.427704 200.0
220.462692 124.0
220.483383 160.0
220.525024 156.0
220.601624 56.0
220.622314 252.0
220.701263 188.0
220.787903 200.0
220.822067 276.0
220.921646 168.0
220.934982 144.0
220.984512 208.0
221.067429 572.0
221.106293 216.0
221.195007 292.0
221.237671 172.0
221.258408 104.0
221.301331 88.0
221.348709 208.0
221.412384 112.0
221.509415 100.0
221.540161 144.0
221.604355 180.0
221.628647 104.0
221.67453 132.0
221.711609 76.0
221.791641 144.0
221.815353 112.0
221.839066 68.0
221.889481 132.0
221.985687 864.0
222.02626 152.0
222.072906 272.0
222.114868 168.0
222.204407 176.0
222.258972 216.0
222.270004 124.0
222.307144 224.0
222.346573 172.0
222.375977 156.0
222.408234 180.0
222.430359 176.0
222.485809 216.0
222.525146 180.0
222.565979 136.0
222.630905 204.0
222.654266 44.0
222.768677 148.0
222.800308 188.0
222.827362 160.0
222.871277 180.0
222.942261 196.0
222.988098 620.0
223.140778 312.0
223.18576 132.0
223.223816 64.0
223.291107 88.0
223.353378 124.0
223.366394 116.0
223.378189 160.0
223.442825 208.0
223.479309 76.0
223.564819 116.0
223.593918 160.0
223.606293 124.0
223.612991 152.0
223.708038 136.0
223.728531 164.0
223.856567 208.0
223.877411 48.0
223.92012 248.0
223.984146 352.0
224.048798 116.0
224.123474 160.0
224.147095 160.0
224.217056 148.0
224.248581 120.0
224.320343 80.0
224.348206 164.0
224.425735 88.0
224.513046 128.0
224.532013 100.0
224.555923 184.0
224.634506 132.0
224.746918 136.0
224.780701 36.0
224.804581 76.0
224.857376 232.0
224.920975 56.0
224.967316 400.0
224.986969 616.0
225.019501 156.0
225.043381 136.0
225.070404 84.0
225.150894 96.0
225.181412 220.0
225.261414 132.0
225.300247 96.0
225.340897 172.0
225.390213 36.0
225.425735 168.0
225.463852 112.0
225.490097 128.0
225.521774 180.0
225.594543 144.0
225.656052 420.0
225.706741 144.0
225.766556 140.0
225.821884 208.0
225.836655 220.0
225.874222 152.0
225.909225 176.0
225.941223 112.0
225.975464 248.0
226.029816 100.0
226.057205 128.0
226.08667 200.0
226.110291 156.0
226.16449 116.0
226.227356 128.0
226.251297 160.0
226.350113 180.0
226.41008 200.0
226.450806 200.0
226.4617 124.0
226.470795 108.0
226.512299 188.0
226.552902 176.0
226.58075 64.0
226.60881 132.0
226.685623 168.0
226.712601 128.0
226.803406 160.0
226.838486 116.0
226.878693 176.0
226.916595 144.0
226.945084 260.0
226.973724 152.0
227.01535 160.0
227.100922 120.0
227.138367 240.0
227.186462 224.0
227.230331 292.0
227.312378 188.0
227.341034 268.0
227.388031 156.0
227.473679 108.0
227.50148 96.0
227.540512 172.0
227.576233 156.0
227.595169 176.0
227.617844 164.0
227.64592 76.0
227.690659 76.0
227.732697 232.0
227.78978 36.0
227.823792 172.0
227.869934 88.0
227.893784 116.0
228.0056 124.0
228.013992 296.0
228.038773 364.0
228.08522 300.0
228.153412 84.0
228.216553 220.0
228.285706 140.0
228.306763 180.0
228.331238 268.0
228.37764 128.0
228.499283 76.0
228.534332 96.0
228.578674 156.0
228.585892 128.0
228.627136 156.0
228.708649 112.0
228.715042 92.0
228.755096 116.0
228.816422 232.0
228.85144 104.0
228.884567 440.0
228.956833 48.0
228.986679 156.0
229.018478 464.0
229.058823 152.0
229.118088 128.0
229.139206 148.0
229.223587 220.0
229.277527 100.0
229.300308 88.0
229.341278 208.0
229.350677 124.0
229.370651 180.0
229.421539 312.0
229.496262 204.0
229.538467 132.0
229.598785 168.0
229.62291 44.0
229.652023 172.0
229.667252 172.0
229.738098 148.0
229.765594 256.0
229.803925 72.0
229.836685 384.0
229.855682 204.0
229.87851 156.0
229.946487 148.0
229.989304 13556.0
230.059906 44.0
230.084229 144.0
230.113388 272.0
230.161804 196.0
230.177948 132.0
230.200363 352.0
230.243042 172.0
230.270416 112.0
230.342758 92.0
230.365479 108.0
230.404755 104.0
230.437256 332.0
230.556915 180.0
230.637451 108.0
230.691864 136.0
230.713028 112.0
230.733185 108.0
230.760773 152.0
230.789703 156.0
230.841492 320.0
230.903534 252.0
230.948547 136.0
230.992737 1596.0
231.032822 172.0
231.108368 152.0
231.130417 120.0
231.158493 312.0
231.21701 124.0
231.266617 240.0
231.290558 176.0
231.354401 168.0
231.48317 160.0
231.52301 140.0
231.591324 168.0
231.624939 132.0
231.645126 220.0
231.677063 156.0
231.723907 40.0
231.754196 152.0
231.799377 172.0
231.870193 160.0
231.892487 228.0
231.931656 196.0
231.985291 4560.0
232.04895 116.0
232.082321 160.0
232.104141 72.0
232.163773 72.0
232.253769 292.0
232.335083 192.0
232.34465 76.0
232.352554 280.0
232.389999 128.0
232.416199 436.0
232.521286 128.0
232.5327 124.0
232.566971 136.0
232.641815 104.0
232.70871 128.0
232.746292 300.0
232.799652 164.0
232.809311 108.0
232.845001 180.0
232.870605 100.0
232.906952 224.0
232.926224 168.0
232.985382 584.0
233.037689 172.0
233.07164 176.0
233.110779 296.0
233.136856 196.0
233.191971 200.0
233.250031 356.0
233.27475 64.0
233.305161 236.0
233.448074 116.0
233.493973 168.0
233.597107 140.0
233.620239 116.0
233.682297 120.0
233.715759 164.0
233.737061 40.0
233.770538 100.0
233.79184 144.0
233.835571 232.0
233.870132 144.0
233.91272 112.0
233.986832 272.0
234.065826 168.0
234.114548 48.0
234.145004 136.0
234.221161 92.0
234.309509 264.0
234.361298 104.0
234.391769 136.0
234.434433 112.0
234.521896 144.0
234.53392 100.0
234.579437 156.0
234.650024 176.0
234.696136 268.0
234.736237 128.0
234.764832 96.0
234.808731 140.0
234.816406 196.0
234.846527 156.0
234.894836 200.0
234.946701 176.0
234.990417 264.0
235.016876 168.0
235.081589 156.0
235.108429 124.0
235.175583 152.0
235.238358 176.0
235.309708 184.0
235.376526 224.0
235.398453 88.0
235.41983 96.0
235.441208 184.0
235.487656 168.0
235.508408 180.0
235.543839 156.0
235.573486 144.0
235.603104 88.0
235.649139 384.0
235.693085 160.0
235.740601 144.0
235.826691 280.0
235.887695 160.0
235.916428 148.0
235.971832 404.0
236.072586 304.0
236.113586 96.0
236.145523 144.0
236.190048 108.0
236.316772 152.0
236.352203 132.0
236.437897 120.0
236.45932 92.0
236.532776 164.0
236.609314 84.0
236.633804 204.0
236.691986 44.0
236.719543 96.0
236.805298 148.0
236.845123 136.0
236.872696 440.0
236.900253 204.0
236.924774 104.0
236.94928 172.0
236.994431 152.0
237.117828 112.0
237.143951 44.0
237.172989 128.0
237.19751 80.0
237.232727 156.0
237.258469 104.0
237.310959 72.0
237.353882 136.0
237.38353 120.0
237.415207 148.0
237.44281 112.0
237.494293 164.0
237.522568 96.0
237.594147 180.0
237.636078 280.0
237.700516 132.0
237.795654 136.0
237.826355 136.0
237.869324 244.0
237.908936 140.0
237.986664 120.0
238.01622 792.0
238.130325 244.0
238.160812 212.0
238.197906 108.0
238.228622 268.0
238.258972 128.0
238.269989 112.0
238.305435 172.0
238.337021 172.0
238.442078 112.0
238.473434 180.0
238.523636 172.0
238.577225 180.0
238.608231 164.0
238.647522 164.0
238.724518 204.0
238.792908 204.0
238.814362 156.0
238.877182 116.0
238.922729 104.0
238.934753 200.0
238.939957 108.0
238.975372 312.0
239.026611 4300.0
239.073746 188.0
239.096619 100.0
239.118912 152.0
239.149765 168.0
239.178864 36.0
239.290237 260.0
239.342026 144.0
239.424911 188.0
239.446579 228.0
239.478027 128.0
239.508347 156.0
239.555222 148.0
239.597473 240.0
239.619278 212.0
239.651535 164.0
239.676743 300.0
239.742004 260.0
239.838058 44.0
239.895676 52.0
239.92128 184.0
239.963852 184.0
239.996582 172.0
240.003845 72.0
240.029236 1052.0
240.088959 128.0
240.121719 140.0
240.158737 112.0
240.204208 248.0
240.246506 204.0
240.281616 124.0
240.311447 160.0
240.365448 156.0
240.399399 180.0
240.487244 204.0
240.538223 228.0
240.627823 164.0
240.656296 228.0
240.700577 204.0
240.772568 260.0
240.810013 124.0
240.840897 104.0
240.868134 172.0
240.895218 240.0
240.900452 144.0
240.948181 324.0
240.979675 280.0
241.015854 900.0
241.081894 148.0
241.106628 48.0
241.24263 92.0
241.268677 292.0
241.291931 148.0
241.36972 172.0
241.4104 184.0
241.442734 240.0
241.506424 144.0
241.535721 264.0
241.589676 148.0
241.690689 188.0
241.7509 160.0
241.797714 124.0
241.827133 176.0
241.924896 156.0
241.962418 200.0
242.02272 30184.0
242.088379 100.0
242.155258 224.0
242.162018 112.0
242.219727 220.0
242.274551 92.0
242.305984 232.0
242.344742 184.0
242.396103 120.0
242.415161 176.0
242.446381 196.0
242.486923 156.0
242.536652 220.0
242.574356 112.0
242.616119 196.0
242.638901 48.0
242.693741 140.0
242.73291 204.0
242.755646 264.0
242.76712 172.0
242.809174 164.0
242.830322 128.0
242.882233 336.0
242.921478 264.0
242.954559 108.0
243.024963 3844.0
243.061295 208.0
243.132385 132.0
243.184891 132.0
243.21991 132.0
243.25705 160.0
243.293152 116.0
243.335892 112.0
243.383499 152.0
243.432846 180.0
243.476242 152.0
243.505585 168.0
243.515823 48.0
243.528778 196.0
243.571335 184.0
243.610306 184.0
243.63205 104.0
243.692215 188.0
243.728806 144.0
243.814758 360.0
243.845505 52.0
243.85759 208.0
243.893005 140.0
243.904602 136.0
243.910248 192.0
243.961487 156.0
244.020111 8752.0
244.0784 152.0
244.117706 208.0
244.144943 120.0
244.189682 156.0
244.201569 116.0
244.21225 180.0
244.223389 232.0
244.260025 56.0
244.296753 104.0
244.320038 168.0
244.362686 96.0
244.393799 128.0
244.457474 200.0
244.505829 48.0
244.529449 132.0
244.570267 160.0
244.592987 144.0
244.624115 104.0
244.648483 116.0
244.692612 164.0
244.732483 164.0
244.755371 128.0
244.788971 76.0
244.816101 128.0
244.856094 96.0
244.885895 196.0
244.934006 200.0
244.992249 1296.0
245.022171 1512.0
245.091293 172.0
245.132141 136.0
245.156738 92.0
245.194382 104.0
245.215378 64.0
245.282608 116.0
245.345413 220.0
245.38118 180.0
245.446655 316.0
245.468491 104.0
245.529861 224.0
245.604141 404.0
245.647903 92.0
245.684189 236.0
245.758591 104.0
245.782486 284.0
245.820999 96.0
245.845276 144.0
245.894257 144.0
245.938385 144.0
245.998718 1892.0
246.066879 156.0
246.090363 400.0
246.243866 72.0
246.296585 148.0
246.343658 172.0
246.372833 188.0
246.396561 208.0
246.441254 228.0
246.523651 136.0
246.591873 116.0
246.626801 60.0
246.648682 96.0
246.680908 180.0
246.736206 112.0
246.771042 172.0
246.801865 188.0
246.881897 144.0
246.98793 624.0
247.057266 140.0
247.070312 92.0
247.075455 124.0
247.139694 144.0
247.170517 160.0
247.217926 76.0
247.289902 168.0
247.326782 128.0
247.380692 32.0
247.433914 60.0
247.469284 108.0
247.512192 164.0
247.557877 144.0
247.596741 132.0
247.621796 164.0
247.668777 92.0
247.737701 60.0
247.775299 176.0
247.810425 120.0
247.836609 148.0
247.996628 1216.0
248.067001 52.0
248.145386 128.0
248.177826 140.0
248.220169 168.0
248.258026 164.0
248.279968 156.0
248.325562 180.0
248.37973 184.0
248.411789 160.0
248.448624 68.0
248.460434 128.0
248.502701 156.0
248.632889 156.0
248.664276 156.0
248.72905 288.0
248.761322 112.0
248.785172 176.0
248.851105 168.0
248.874069 164.0
248.932739 196.0
248.997574 812.0
249.032639 296.0
249.072006 188.0
249.143845 116.0
249.176468 136.0
249.202805 164.0
249.297165 140.0
249.325439 64.0
249.356873 128.0
249.392502 132.0
249.434006 104.0
249.547134 92.0
249.608383 56.0
249.639832 180.0
249.68457 160.0
249.734177 120.0
249.779053 112.0
249.803146 160.0
249.815369 148.0
249.82515 144.0
249.860016 128.0
249.883148 148.0
249.909943 388.0
249.981155 2056.0
250.037155 188.0
250.085083 100.0
250.113251 164.0
250.165298 144.0
250.203064 168.0
250.237701 124.0
250.319366 148.0
250.357361 108.0
250.401459 176.0
250.442398 176.0
250.525803 152.0
250.53656 72.0
250.54715 144.0
250.612534 236.0
250.650345 92.0
250.675293 168.0
250.696411 84.0
250.75119 104.0
250.776016 160.0
250.784683 140.0
250.815216 128.0
250.890915 148.0
250.921417 112.0
250.988708 34508.0
251.050781 428.0
251.083572 236.0
251.104477 80.0
251.172638 120.0
251.242844 48.0
251.271515 44.0
251.29718 260.0
251.343033 204.0
251.383667 44.0
251.42392 40.0
251.464005 92.0
251.503464 152.0
251.529846 192.0
251.589218 108.0
251.629211 84.0
251.649109 44.0
251.702621 124.0
251.776581 120.0
251.825989 160.0
251.880676 92.0
251.910172 108.0
251.990356 3724.0
252.043518 136.0
252.070374 116.0
252.10083 88.0
252.137802 72.0
252.16835 116.0
252.214935 136.0
252.244217 124.0
252.303528 84.0
252.335892 120.0
252.38649 136.0
252.411789 76.0
252.439133 248.0
252.466385 180.0
252.514145 188.0
252.556305 144.0
252.582581 112.0
252.630035 48.0
252.667999 36.0
252.695572 140.0
252.720062 140.0
252.749756 324.0
252.773026 144.0
252.839417 168.0
252.897781 72.0
252.906387 108.0
252.939896 192.0
252.985687 22468.0
253.060455 128.0
253.092133 104.0
253.117462 56.0
253.209198 88.0
253.263046 120.0
253.267365 120.0
253.312576 172.0
253.355179 152.0
253.388138 88.0
253.422745 32.0
253.446503 208.0
253.488541 196.0
253.522949 200.0
253.588257 84.0
253.625473 160.0
253.675339 120.0
253.752411 168.0
253.77655 64.0
253.819427 100.0
253.850342 148.0
253.901718 152.0
253.987869 3052.0
254.04686 292.0
254.103241 56.0
254.157181 88.0
254.190262 76.0
254.274139 112.0
254.324081 116.0
254.346756 104.0
254.352737 168.0
254.377609 116.0
254.403885 132.0
254.415604 96.0
254.423645 80.0
254.454803 252.0
254.475067 148.0
254.520966 180.0
254.53067 152.0
254.582565 160.0
254.616608 228.0
254.688995 196.0
254.754089 92.0
254.77951 112.0
254.822021 136.0
254.846222 108.0
254.871643 156.0
254.912964 140.0
254.982742 2332.0
255.030975 424.0
255.10112 80.0
255.160889 196.0
255.192688 108.0
255.251114 140.0
255.319504 440.0
255.347809 72.0
255.380325 104.0
255.413773 108.0
255.448883 36.0
255.456955 160.0
255.489502 124.0
255.519394 128.0
255.548065 44.0
255.596024 140.0
255.622116 184.0
255.653946 72.0
255.707199 136.0
255.729309 100.0
255.77507 68.0
255.798721 140.0
255.867218 188.0
255.983612 548.0
256.039917 936.0
256.093811 184.0
256.174347 156.0
256.2388 156.0
256.284454 104.0
256.351379 152.0
256.389618 196.0
256.421509 92.0
256.513824 160.0
256.620911 296.0
256.650452 200.0
256.661987 164.0
256.687378 160.0
256.738922 136.0
256.775604 176.0
256.816864 48.0
256.880127 164.0
256.963196 184.0
256.991058 112.0
257.031494 88.0
257.069763 120.0
257.148712 56.0
257.177216 60.0
257.212555 136.0
257.292358 96.0
257.359406 148.0
257.39563 164.0
257.467896 160.0
257.5159 184.0
257.544647 128.0
257.576141 180.0
257.618378 136.0
257.650787 124.0
257.706451 124.0
257.789062 200.0
257.851379 132.0
257.885834 164.0
257.962158 492.0
258.017609 100.0
258.09433 48.0
258.163971 140.0
258.302216 96.0
258.342316 68.0
258.379639 124.0
258.405518 224.0
258.42923 120.0
258.449402 156.0
258.497406 172.0
258.54599 128.0
258.601471 192.0
258.712769 292.0
258.809845 304.0
258.864594 312.0
258.928986 212.0
258.95639 320.0
259.008331 172.0
259.036957 284.0
259.086365 208.0
259.147919 80.0
259.213379 136.0
259.26944 148.0
259.326904 176.0
259.392761 132.0
259.427338 156.0
259.474365 104.0
259.52887 204.0
259.561584 60.0
259.637909 96.0
259.660339 148.0
259.71283 224.0
259.815186 180.0
259.904175 92.0
259.960815 1508.0
260.099609 160.0
260.108856 144.0
260.124115 128.0
260.130768 172.0
260.202667 180.0
260.238007 52.0
260.281677 220.0
260.31369 112.0
260.379303 64.0
260.412781 124.0
260.508362 156.0
260.619415 112.0
260.652374 140.0
260.726288 108.0
260.801056 104.0
260.863525 172.0
260.954742 272.0
261.020813 156.0
261.04776 216.0
261.099091 128.0
261.163544 184.0
261.211792 152.0
261.236206 108.0
261.279358 200.0
261.314758 212.0
261.345642 112.0
261.440247 92.0
261.499908 164.0
261.578644 136.0
261.643036 124.0
261.688568 172.0
261.72998 136.0
261.762177 44.0
261.804047 176.0
261.858795 100.0
261.958374 292.0
262.013 252.0
262.023895 164.0
262.098572 184.0
262.129425 160.0
262.210205 120.0
262.273376 156.0
262.340393 272.0
262.363007 184.0
262.394165 296.0
262.577545 180.0
262.654968 80.0
262.687225 132.0
262.732391 124.0
262.797485 336.0
262.852264 160.0
262.893066 176.0
262.922424 148.0
262.949982 172.0
262.973419 168.0
263.005798 156.0
263.038971 260.0
263.059814 116.0
263.100311 92.0
263.12738 240.0
263.171326 152.0
263.25528 360.0
263.307678 144.0
263.387726 152.0
263.413574 140.0
263.459198 448.0
263.589874 188.0
263.630737 144.0
263.661377 184.0
263.72699 188.0
263.757294 200.0
263.781952 28.0
263.817505 148.0
263.846008 148.0
263.869141 136.0
263.878693 104.0
263.92099 124.0
263.953308 160.0
263.996399 124.0
264.02771 128.0
264.063263 108.0
264.225006 136.0
264.256775 172.0
264.357697 92.0
264.400116 108.0
264.490387 140.0
264.526276 136.0
264.561615 200.0
264.593994 292.0
264.652344 180.0
264.73645 120.0
264.783997 112.0
264.840088 80.0
264.888702 164.0
264.986267 132.0
265.008575 192.0
265.04422 124.0
265.073364 104.0
265.144684 48.0
265.188141 184.0
265.285034 120.0
265.345642 180.0
265.399139 152.0
265.433197 96.0
265.539032 132.0
265.614838 120.0
265.712158 176.0
265.783539 132.0
265.84845 124.0
265.884125 140.0
265.90686 124.0
265.934906 124.0
265.968536 164.0
265.997803 448.0
266.072418 48.0
266.104889 116.0
266.15033 68.0
266.233307 132.0
266.278992 296.0
266.385406 168.0
266.416656 120.0
266.449799 104.0
266.560486 136.0
266.585022 172.0
266.61673 180.0
266.670135 204.0
266.729248 192.0
266.769836 280.0
266.85376 208.0
266.887939 152.0
266.925964 196.0
266.98761 288.0
267.050568 180.0
267.071259 104.0
267.115631 136.0
267.150574 176.0
267.183929 124.0
267.226227 164.0
267.275635 44.0
267.316254 108.0
267.338898 312.0
267.375916 200.0
267.418243 136.0
267.478912 100.0
267.509369 104.0
267.545105 136.0
267.642883 136.0
267.685303 176.0
267.711517 316.0
267.743561 288.0
267.778229 148.0
267.815491 60.0
267.853424 136.0
267.890411 116.0
267.969025 184.0
268.009766 304.0
268.108704 112.0
268.138062 152.0
268.206512 268.0
268.229309 136.0
268.275513 208.0
268.304291 112.0
268.370575 196.0
268.413452 216.0
268.516266 172.0
268.552124 244.0
268.606689 132.0
268.655334 180.0
268.689148 180.0
268.730438 176.0
268.780518 248.0
268.84903 116.0
268.891479 180.0
268.997131 260.0
269.019684 184.0
269.136322 124.0
269.168976 104.0
269.195923 160.0
269.28183 328.0
269.319305 108.0
269.397614 96.0
269.447083 196.0
269.551178 252.0
269.596924 72.0
269.654572 348.0
269.695923 136.0
269.728058 136.0
269.786499 220.0
269.817841 96.0
269.914032 204.0
269.955261 256.0
270.054657 104.0
270.106995 36.0
270.129883 156.0
270.172241 156.0
270.228424 256.0
270.300018 76.0
270.327545 140.0
270.394409 280.0
270.476746 144.0
270.555145 180.0
270.588074 128.0
270.632904 232.0
270.698395 304.0
270.720367 120.0
270.787476 228.0
270.872681 172.0
270.935699 112.0
270.961456 228.0
270.987671 264.0
271.01059 112.0
271.056458 184.0
271.081757 100.0
271.133545 132.0
271.172913 128.0
271.197906 324.0
271.235321 112.0
271.279358 72.0
271.306458 176.0
271.366058 196.0
271.390808 248.0
271.423615 300.0
271.489838 124.0
271.571198 224.0
271.657928 108.0
271.710754 140.0
271.781372 128.0
271.882874 72.0
271.922272 148.0
271.952789 80.0
271.986908 136.0
272.017456 216.0
272.051849 128.0
272.078644 132.0
272.112671 132.0
272.147797 120.0
272.240753 52.0
272.27359 176.0
272.328369 228.0
272.376617 120.0
272.407257 140.0
272.452972 124.0
272.459167 176.0
272.511566 208.0
272.552826 152.0
272.579102 224.0
272.601532 156.0
272.641449 128.0
272.675812 192.0
272.68515 132.0
272.744995 72.0
272.779602 196.0
272.819366 144.0
272.86261 112.0
272.919647 200.0
272.933502 172.0
272.986847 12140.0
273.062378 120.0
273.097992 204.0
273.144836 256.0
273.219849 120.0
273.315979 256.0
273.375366 60.0
273.410889 288.0
273.432861 264.0
273.465271 448.0
273.496368 200.0
273.537567 200.0
273.61673 384.0
273.675323 144.0
273.682495 176.0
273.709625 676.0
273.719604 512.0
273.728912 328.0
273.77179 320.0
273.78363 376.0
273.815094 484.0
273.838348 308.0
273.864624 356.0
273.90155 788.0
273.948975 1148.0
273.996307 293876.0
274.085236 184.0
274.120972 476.0
274.193848 352.0
274.236542 240.0
274.291901 256.0
274.334778 276.0
274.349548 220.0
274.380951 228.0
274.404663 224.0
274.413818 268.0
274.439667 324.0
274.49585 256.0
274.538666 2852.0
274.619415 120.0
274.647888 284.0
274.698486 392.0
274.720978 296.0
274.781219 220.0
274.839569 96.0
274.892303 388.0
274.928436 148.0
274.998352 49192.0
275.084778 192.0
275.136322 356.0
275.175781 128.0
275.239594 96.0
275.25 128.0
275.274048 220.0
275.312012 136.0
275.369934 88.0
275.400452 228.0
275.436005 88.0
275.494263 152.0
275.502411 184.0
275.553955 460.0
275.627075 312.0
275.6586 540.0
275.686676 236.0
275.721527 152.0
275.731171 148.0
275.755554 128.0
275.825592 448.0
275.88147 396.0
275.94339 532.0
275.992493 119084.0
276.099396 128.0
276.127441 128.0
276.162628 60.0
276.200623 288.0
276.227051 116.0
276.314819 156.0
276.326782 160.0
276.376343 296.0
276.412537 156.0
276.483582 224.0
276.528198 212.0
276.569366 288.0
276.578125 144.0
276.603333 216.0
276.631714 76.0
276.652374 108.0
276.66153 196.0
276.687164 248.0
276.722321 188.0
276.745605 296.0
276.799713 264.0
276.836975 312.0
276.869598 256.0
276.910614 176.0
276.992767 41880.0
277.080139 212.0
277.149689 272.0
277.194061 236.0
277.25647 244.0
277.27652 64.0
277.304535 220.0
277.334106 120.0
277.372803 56.0
277.423828 176.0
277.469452 300.0
277.49472 140.0
277.521576 128.0
277.559479 208.0
277.592712 220.0
277.622345 132.0
277.660004 108.0
277.714996 60.0
277.748383 48.0
277.773285 144.0
277.806824 56.0
277.840546 116.0
277.888611 108.0
277.91333 196.0
277.985596 11680.0
278.060699 116.0
278.094971 208.0
278.103882 184.0
278.119293 188.0
278.128174 192.0
278.169067 88.0
278.200745 96.0
278.212433 96.0
278.258575 140.0
278.332336 100.0
278.354767 120.0
278.417236 88.0
278.457611 132.0
278.471436 128.0
278.48584 196.0
278.496399 164.0
278.542633 168.0
278.57608 112.0
278.605072 88.0
278.646759 404.0
278.713104 216.0
278.769867 228.0
278.821259 132.0
278.870544 176.0
278.904694 128.0
278.988678 15484.0
279.064514 192.0
279.080566 248.0
279.088379 312.0
279.141113 148.0
279.164185 112.0
279.216064 128.0
279.266266 128.0
279.294128 116.0
279.327393 92.0
279.366669 132.0
279.416504 252.0
279.444122 172.0
279.469391 76.0
279.479401 52.0
279.494293 60.0
279.502289 56.0
279.557434 56.0
279.626862 72.0
279.666779 64.0
279.694244 96.0
279.736694 128.0
279.766663 132.0
279.816284 168.0
279.824158 240.0
279.845856 304.0
279.890686 100.0
279.926331 272.0
279.989319 2200.0
280.057373 184.0
280.148987 60.0
280.191284 80.0
280.24295 128.0
280.31897 264.0
280.347656 184.0
280.399567 108.0
280.426239 92.0
280.456238 32.0
280.488739 96.0
280.529572 68.0
280.556244 96.0
280.590637 124.0
280.623718 164.0
280.666992 72.0
280.714783 224.0
280.752563 100.0
280.798798 156.0
280.849701 72.0
280.883057 204.0
280.905396 148.0
280.917816 104.0
280.968994 7636.0
281.056549 132.0
281.129852 92.0
281.198456 136.0
281.276825 168.0
281.316772 148.0
281.352875 128.0
281.393646 44.0
281.423706 44.0
281.479218 160.0
281.492279 52.0
281.502075 140.0
281.566315 108.0
281.653961 200.0
281.714294 272.0
281.747681 96.0
281.876892 236.0
281.970886 1576.0
282.093048 212.0
282.272461 200.0
282.334076 132.0
282.379486 112.0
282.422974 36.0
282.466461 140.0
282.540039 92.0
282.5802 96.0
282.615906 156.0
282.748199 236.0
282.787689 244.0
282.846771 84.0
282.878052 172.0
282.903961 92.0
282.965393 5456.0
283.084015 172.0
283.139252 68.0
283.181213 208.0
283.200714 148.0
283.240326 136.0
283.250275 320.0
283.265533 312.0
283.326813 36.0
283.356964 100.0
283.423981 56.0
283.464203 136.0
283.498688 136.0
283.53537 120.0
283.585602 256.0
283.624115 220.0
283.682068 28.0
283.72229 40.0
283.755249 92.0
283.785675 40.0
283.797546 72.0
283.868011 148.0
283.916656 100.0
283.966522 880.0
284.037903 156.0
284.081146 96.0
284.179535 136.0
284.221863 328.0
284.26709 152.0
284.302612 180.0
284.352936 120.0
284.388153 164.0
284.423431 176.0
284.461548 112.0
284.493927 124.0
284.58548 152.0
284.629364 176.0
284.78772 124.0
284.853271 100.0
284.895477 168.0
284.962708 592.0
285.027985 64.0
285.135529 100.0
285.173523 116.0
285.236359 112.0
285.267548 104.0
285.320404 180.0
285.360748 56.0
285.387634 76.0
285.417908 128.0
285.444824 88.0
285.487579 172.0
285.52121 184.0
285.582703 88.0
285.609619 52.0
285.637329 168.0
285.672943 116.0
285.702667 224.0
285.735626 196.0
285.745178 40.0
285.755249 108.0
285.777832 136.0
285.948212 120.0
285.984558 212.0
286.0336 184.0
286.072632 148.0
286.171295 160.0
286.228546 168.0
286.242157 152.0
286.247559 160.0
286.2789 84.0
286.370331 96.0
286.434326 104.0
286.473145 108.0
286.532013 160.0
286.585144 84.0
286.636658 148.0
286.670166 136.0
286.712036 104.0
286.747711 184.0
286.804993 168.0
286.839935 140.0
286.869049 112.0
286.901947 116.0
286.944611 152.0
286.998962 68.0
287.090057 344.0
287.144318 132.0
287.183411 108.0
287.250122 72.0
287.314209 120.0
287.367035 104.0
287.405304 68.0
287.445038 192.0
287.484985 164.0
287.533539 48.0
287.61795 80.0
287.658447 52.0
287.702332 132.0
287.730408 152.0
287.759216 136.0
287.793488 72.0
287.834015 152.0
287.86441 148.0
287.956696 408.0
288.014221 136.0
288.054443 196.0
288.093811 100.0
288.144775 96.0
288.204803 104.0
288.237061 144.0
288.293457 52.0
288.323853 76.0
288.410858 108.0
288.44812 132.0
288.499512 196.0
288.535797 132.0
288.56015 160.0
288.607819 84.0
288.64502 132.0
288.692383 156.0
288.722809 92.0
288.774902 88.0
288.869263 108.0
288.931427 168.0
288.943329 148.0
289.016541 616.0
289.10849 92.0
289.206635 136.0
289.342041 168.0
289.376862 112.0
289.40976 84.0
289.436859 112.0
289.65918 180.0
289.733917 204.0
289.812866 140.0
289.850128 120.0
289.996979 152.0
290.024902 108.0
290.161957 64.0
290.219604 180.0
290.256897 80.0
290.311157 76.0
290.341705 80.0
290.407074 72.0
290.453705 128.0
290.552002 184.0
290.604095 148.0
290.704712 124.0
290.770874 80.0
290.871002 44.0
290.947998 176.0
291.0065 3900.0
291.064728 160.0
291.117523 132.0
291.148712 152.0
291.173218 36.0
291.215363 76.0
291.252502 92.0
291.388489 136.0
291.412354 192.0
291.439301 116.0
291.516754 68.0
291.59259 148.0
291.640411 120.0
291.686279 160.0
291.734222 200.0
291.788269 216.0
291.837402 152.0
291.843445 196.0
291.897095 80.0
291.937561 160.0
291.94809 144.0
291.961182 160.0
291.969269 172.0
292.009064 1456.0
292.097839 108.0
292.128143 176.0
292.240936 248.0
292.291687 44.0
292.34729 152.0
292.390381 136.0
292.472076 120.0
292.525482 196.0
292.580994 80.0
292.699219 100.0
292.778503 136.0
292.904541 48.0
292.934296 108.0
292.999634 2032.0
293.044861 236.0
293.085114 176.0
293.13623 212.0
293.180511 88.0
293.204376 80.0
293.235046 68.0
293.303223 52.0
293.351593 148.0
293.453857 44.0
293.50293 184.0
293.664673 48.0
293.702179 108.0
293.729462 60.0
293.759003 188.0
293.784058 132.0
293.818604 164.0
293.866974 112.0
293.913696 32.0
294.001373 580.0
294.036102 128.0
294.100952 324.0
294.214081 84.0
294.296021 112.0
294.350647 160.0
294.402008 112.0
294.463348 92.0
294.573914 196.0
294.618134 104.0
294.678558 96.0
294.76059 176.0
294.818481 200.0
294.884064 128.0
294.934875 192.0
294.990509 104.0
295.031708 184.0
295.116089 96.0
295.177612 172.0
295.228912 124.0
295.313141 148.0
295.383606 164.0
295.427307 132.0
295.464935 216.0
295.519684 60.0
295.584717 72.0
295.731873 132.0
295.796265 132.0
295.828522 136.0
295.891357 184.0
295.947968 128.0
295.997009 144.0
296.009796 176.0
296.132477 80.0
296.242096 132.0
296.270905 176.0
296.303772 136.0
296.389435 208.0
296.427124 116.0
296.454529 96.0
296.639404 184.0
296.687622 148.0
296.717285 320.0
296.903656 96.0
296.983612 308.0
297.033997 128.0
297.115234 152.0
297.181519 196.0
297.210785 204.0
297.255402 136.0
297.438904 152.0
297.476685 128.0
297.511871 144.0
297.5625 100.0
297.686127 120.0
297.71701 124.0
297.782288 76.0
297.81662 128.0
297.91626 148.0
297.944763 200.0
297.998718 128.0
298.103271 168.0
298.20993 148.0
298.23584 144.0
298.259888 224.0
298.31601 112.0
298.349976 60.0
298.397552 188.0
298.457275 312.0
298.49176 124.0
298.527496 120.0
298.608643 332.0
298.655334 152.0
298.796387 124.0
298.909943 192.0
298.951233 256.0
298.97699 172.0
299.003876 120.0
299.101624 160.0
299.171509 120.0
299.205933 140.0
299.250702 204.0
299.28125 120.0
299.32663 132.0
299.409119 84.0
299.462189 156.0
299.512451 144.0
299.584778 128.0
299.726044 136.0
299.973175 120.0
300.012115 108.0
300.077637 140.0
300.156952 168.0
300.199341 108.0
300.2742 112.0
300.353546 80.0
300.413666 140.0
300.640503 160.0
300.8284 192.0
300.923737 160.0
300.988586 116.0
301.033478 204.0
301.088715 76.0
301.118958 144.0
301.161255 116.0
301.307831 176.0
301.351257 144.0
301.392731 132.0
301.433472 148.0
301.5448 92.0
301.698364 84.0
301.739746 100.0
301.824829 88.0
301.869781 168.0
301.893982 140.0
301.973724 144.0
302.056549 92.0
302.151154 128.0
302.203827 160.0
302.363739 148.0
302.416412 96.0
302.447571 152.0
302.529266 168.0
302.582581 148.0
302.745331 180.0
302.89859 208.0
302.922668 212.0
303.016479 116.0
303.064026 96.0
303.202301 80.0
303.417572 140.0
303.448761 52.0
303.549316 116.0
303.636017 124.0
303.677643 244.0
303.712341 76.0
303.778259 96.0
303.806 116.0
303.882324 188.0
303.918701 180.0
303.973907 132.0
304.010712 172.0
304.099518 68.0
304.177338 92.0
304.215637 164.0
304.253265 132.0
304.43985 112.0
304.502686 120.0
304.569702 168.0
304.600983 76.0
304.646149 104.0
304.67392 172.0
304.726044 48.0
304.757324 48.0
304.879181 172.0
304.986572 108.0
305.038849 76.0
305.075012 128.0
305.136627 152.0
305.170959 128.0
305.20224 100.0
305.310059 32.0
305.370697 164.0
305.434814 128.0
305.749786 236.0
305.783234 148.0
305.841797 160.0
305.873718 124.0
305.910797 216.0
305.978149 128.0
306.021393 128.0
306.111572 152.0
306.122955 48.0
306.133911 180.0
306.20871 116.0
306.239349 120.0
306.281128 128.0
306.319458 104.0
306.347321 48.0
306.434418 116.0
306.476227 160.0
306.535492 116.0
306.595581 180.0
306.637146 140.0
306.706268 160.0
306.749237 144.0
306.835236 176.0
306.871552 136.0
306.95462 276.0
307.005829 144.0
307.058899 176.0
307.121216 164.0
307.156097 132.0
307.18399 128.0
307.229553 144.0
307.310547 116.0
307.326324 116.0
307.522461 116.0
307.553894 196.0
307.602753 136.0
307.721466 152.0
307.825073 148.0
307.908386 172.0
307.955688 6708.0
308.025604 172.0
308.07132 208.0
308.16156 152.0
308.231445 112.0
308.288452 164.0
308.344604 116.0
308.389954 156.0
308.452606 160.0
308.507568 176.0
308.559998 256.0
308.584473 104.0
308.612457 40.0
308.653931 148.0
308.699615 164.0
308.7052 152.0
308.721466 92.0
308.773315 140.0
308.811798 116.0
308.853271 116.0
308.880585 80.0
308.909729 140.0
308.963562 32048.0
309.051178 112.0
309.107697 96.0
309.149994 320.0
309.174255 60.0
309.221497 284.0
309.270264 188.0
309.428467 184.0
309.454529 156.0
309.537323 136.0
309.630798 108.0
309.672028 188.0
309.714874 180.0
309.758698 124.0
309.785339 100.0
309.823456 44.0
309.862671 148.0
309.902161 184.0
309.957916 7084.0
310.058228 96.0
310.110809 52.0
310.17334 288.0
310.213043 196.0
310.260284 268.0
310.342499 216.0
310.450897 80.0
310.475464 64.0
310.5 104.0
310.561127 132.0
310.631287 148.0
310.671875 104.0
310.699341 116.0
310.73172 200.0
310.804047 68.0
310.864014 140.0
310.875397 96.0
310.96051 23696.0
311.031281 124.0
311.064026 124.0
311.123444 64.0
311.187378 164.0
311.251923 240.0
311.291748 260.0
311.331787 60.0
311.366913 72.0
311.412567 128.0
311.446869 188.0
311.471375 108.0
311.499115 88.0
311.546448 108.0
311.584473 80.0
311.6185 160.0
311.650543 124.0
311.693634 36.0
311.732269 76.0
311.768982 152.0
311.826294 136.0
311.885529 264.0
311.960419 8164.0
312.043854 168.0
312.073975 176.0
312.133026 120.0
312.170135 116.0
312.207794 108.0
312.252045 124.0
312.279663 132.0
312.297455 64.0
312.305115 60.0
312.348999 156.0
312.385284 64.0
312.570557 212.0
312.607941 56.0
312.661743 164.0
312.696686 204.0
312.741669 188.0
312.837646 136.0
312.909515 112.0
312.958679 4352.0
313.069122 128.0
313.101807 156.0
313.137878 100.0
313.2276 40.0
313.283966 112.0
313.315826 104.0
313.354431 60.0
313.455902 116.0
313.516541 164.0
313.555603 144.0
313.611694 144.0
313.66275 192.0
313.716125 232.0
313.773865 296.0
313.816162 92.0
313.886688 80.0
313.957489 4952.0
314.022644 240.0
314.172394 72.0
314.298431 156.0
314.394684 132.0
314.438416 124.0
314.50412 48.0
314.564117 192.0
314.640167 304.0
314.687683 132.0
314.730072 100.0
314.850128 84.0
314.925751 240.0
314.958069 824.0
315.009827 116.0
315.047943 212.0
315.093872 140.0
315.157471 176.0
315.200897 140.0
315.270111 132.0
315.358917 96.0
315.383667 52.0
315.411926 128.0
315.467926 148.0
315.592224 84.0
315.631134 44.0
315.673584 140.0
315.765533 28.0
315.951874 1976.0
316.041473 100.0
316.122864 104.0
316.218414 124.0
316.526428 172.0
316.578613 196.0
316.699951 112.0
316.738922 68.0
316.845184 92.0
316.877075 132.0
316.915833 296.0
316.956207 344.0
317.032379 112.0
317.114532 200.0
317.284668 148.0
317.366211 96.0
317.422974 144.0
317.508179 152.0
317.636749 172.0
317.819366 80.0
317.874542 176.0
317.946625 444.0
318.011383 56.0
318.047394 72.0
318.075775 216.0
318.149078 156.0
318.207153 156.0
318.381134 132.0
318.406006 264.0
318.679535 100.0
318.761261 116.0
318.803925 104.0
318.838745 180.0
318.882111 124.0
318.936462 380.0
319.017181 300.0
319.089294 112.0
319.280304 48.0
319.308777 140.0
319.351807 204.0
319.395508 156.0
319.547119 180.0
319.625397 108.0
319.678772 104.0
319.703674 104.0
319.792664 120.0
319.885223 152.0
319.913696 144.0
320.034729 120.0
320.155823 88.0
320.230621 180.0
320.289459 168.0
320.47641 160.0
320.576202 136.0
320.622437 136.0
320.768677 140.0
320.899384 120.0
321.084717 160.0
321.13385 136.0
321.16806 100.0
321.289337 128.0
321.436707 200.0
321.531982 32.0
321.602997 148.0
321.685486 120.0
321.885437 160.0
321.946136 148.0
322.015411 192.0
322.09259 140.0
322.211884 84.0
322.294861 180.0
322.356964 104.0
322.385559 84.0
322.432007 108.0
322.463623 124.0
322.565002 136.0
322.684692 128.0
322.818848 196.0
322.984222 252.0
323.047058 176.0
323.079254 160.0
323.136505 216.0
323.284271 180.0
323.351196 80.0
323.412048 36.0
323.508698 72.0
323.626862 96.0
323.66983 64.0
323.784424 168.0
323.841736 76.0
323.866791 144.0
323.988525 632.0
324.081757 132.0
324.203583 76.0
324.232086 216.0
324.261047 128.0
324.332642 72.0
324.407043 148.0
324.527191 180.0
324.573059 120.0
324.712708 156.0
324.795197 112.0
324.977905 156.0
325.046356 156.0
325.086945 168.0
325.166107 120.0
325.301178 148.0
325.39093 120.0
325.447723 172.0
325.498657 164.0
325.530975 128.0
325.660278 132.0
325.739288 132.0
325.764435 76.0
325.901276 48.0
325.929718 48.0
325.982025 1204.0
326.095215 120.0
326.16333 112.0
326.238831 84.0
326.361053 140.0
326.389832 216.0
326.635406 184.0
326.717133 156.0
326.799896 124.0
326.919708 148.0
326.967499 152.0
326.974182 152.0
327.102203 60.0
327.134613 124.0
327.213806 108.0
327.319855 124.0
327.391846 144.0
327.427551 136.0
327.52713 128.0
327.563141 116.0
327.631592 76.0
327.682037 56.0
327.732483 132.0
327.779327 132.0
327.855743 136.0
327.923492 164.0
327.973206 296.0
328.028015 136.0
328.162201 236.0
328.26239 116.0
328.309265 152.0
328.348938 60.0
328.442719 136.0
328.467957 128.0
328.561768 140.0
328.623413 176.0
328.706085 104.0
328.756622 168.0
328.828796 68.0
328.857666 120.0
328.898041 152.0
328.97403 84.0
329.049011 112.0
329.092987 152.0
329.345123 168.0
329.416046 108.0
329.514923 64.0
329.558289 172.0
329.601654 108.0
329.66925 164.0
329.724518 96.0
329.829346 132.0
329.894409 124.0
329.934174 116.0
330.002869 96.0
330.042633 164.0
330.16922 92.0
330.274109 136.0
330.335602 160.0
330.407959 120.0
330.440521 28.0
330.517303 128.0
330.557556 152.0
330.673615 184.0
330.704712 64.0
330.802429 68.0
330.878448 116.0
330.954498 48.0
331.003174 144.0
331.059967 64.0
331.084869 224.0
331.381897 120.0
331.572937 192.0
331.628326 100.0
331.653717 112.0
331.682709 108.0
331.791473 96.0
331.838074 56.0
331.870605 228.0
331.898163 172.0
331.947388 92.0
331.983643 32.0
332.012665 112.0
332.150085 140.0
332.226685 100.0
332.426239 132.0
332.487946 80.0
332.527863 140.0
332.641357 180.0
332.682037 196.0
332.716614 76.0
332.760193 32.0
332.807404 92.0
332.934509 92.0
332.967194 148.0
333.039825 120.0
333.177856 52.0
333.203308 124.0
333.228729 208.0
333.276947 164.0
333.363098 176.0
333.450043 196.0
333.577637 116.0
333.67804 128.0
333.719421 108.0
333.784882 120.0
333.813965 72.0
333.843048 192.0
333.887909 96.0
333.959442 84.0
334.039459 112.0
334.10495 164.0
334.144989 152.0
334.203064 128.0
334.226471 152.0
334.374237 84.0
334.629059 100.0
334.705505 176.0
334.789276 152.0
334.847565 176.0
334.927673 124.0
335.069763 108.0
335.131714 72.0
335.175415 76.0
335.241028 60.0
335.550873 176.0
335.685791 172.0
335.718597 120.0
335.815033 128.0
335.909332 152.0
335.941101 52.0
336.032318 152.0
336.170837 120.0
336.262207 96.0
336.313324 112.0
336.470276 108.0
336.549561 132.0
336.597839 124.0
336.673004 124.0
336.784363 232.0
336.838867 52.0
336.901245 124.0
336.952393 152.0
337.015594 56.0
337.130432 116.0
337.194366 112.0
337.321503 56.0
337.426727 184.0
337.504333 108.0
337.543274 220.0
337.647766 144.0
337.745697 172.0
337.78595 64.0
337.826172 92.0
337.862762 180.0
337.990814 168.0
338.071442 136.0
338.115265 96.0
338.180817 144.0
338.276306 200.0
338.411774 104.0
338.466705 220.0
338.532623 104.0
338.671783 116.0
338.723083 108.0
338.756042 148.0
338.847626 88.0
338.946564 116.0
339.116211 236.0
339.224701 212.0
339.287445 140.0
339.340088 264.0
339.390106 140.0
339.580811 132.0
339.712952 144.0
339.782562 120.0
339.815582 184.0
339.896301 216.0
339.955017 132.0
339.984375 92.0
340.142548 132.0
340.321442 272.0
340.399231 132.0
340.44696 184.0
340.49472 124.0
340.564514 176.0
340.601227 88.0
340.650909 92.0
340.711456 68.0
340.737152 64.0
340.770233 112.0
340.802368 160.0
340.914581 128.0
340.946625 96.0
340.983368 140.0
341.108337 140.0
341.213501 140.0
341.295837 68.0
341.333344 180.0
341.365723 80.0
341.409851 60.0
341.465027 108.0
341.498108 52.0
341.527557 148.0
341.568024 96.0
341.615845 96.0
341.667328 108.0
341.763 112.0
341.797333 156.0
341.821869 204.0
341.851318 80.0
341.90033 164.0
341.970276 112.0
342.009583 160.0
342.044891 108.0
342.094238 188.0
342.120026 96.0
342.1763 140.0
342.210876 88.0
342.306824 104.0
342.352692 168.0
342.407227 136.0
342.440399 176.0
342.506683 128.0
342.547211 148.0
342.572998 112.0
342.609192 136.0
342.653717 88.0
342.662903 80.0
342.684296 76.0
342.729797 216.0
342.78302 152.0
342.84906 152.0
342.92627 520.0
342.95874 136.0
343.047699 224.0
343.071686 116.0
343.086273 164.0
343.093506 316.0
343.121735 112.0
343.156799 84.0
343.188507 52.0
343.261597 212.0
343.310028 148.0
343.39621 184.0
343.436615 120.0
343.448608 176.0
343.524597 92.0
343.593506 232.0
343.644745 168.0
343.690552 172.0
343.752869 328.0
343.782166 256.0
343.794861 160.0
343.817627 500.0
343.867126 812.0
343.933502 178676.0
344.053009 292.0
344.109619 456.0
344.159851 284.0
344.201233 112.0
344.226227 336.0
344.280273 352.0
344.379364 288.0
344.440826 284.0
344.468384 204.0
344.541656 660.0
344.571625 224.0
344.605438 136.0
344.644104 116.0
344.686859 120.0
344.715942 256.0
344.747711 84.0
344.803864 168.0
344.846558 256.0
344.935638 28428.0
345.009308 312.0
345.07016 136.0
345.107208 144.0
345.145111 180.0
345.153687 216.0
345.185944 224.0
345.264099 188.0
345.311554 192.0
345.367828 220.0
345.399292 132.0
345.431274 140.0
345.473328 248.0
345.558502 148.0
345.606873 316.0
345.633087 160.0
345.643799 204.0
345.665283 220.0
345.697083 624.0
345.734131 380.0
345.787842 512.0
345.814911 372.0
345.840912 300.0
345.845123 484.0
345.930725 210404.0
346.034088 232.0
346.078522 104.0
346.112762 180.0
346.165924 120.0
346.176147 88.0
346.216461 296.0
346.2612 176.0
346.271545 176.0
346.296967 144.0
346.333679 176.0
346.409576 248.0
346.450317 96.0
346.470398 176.0
346.501831 268.0
346.541504 492.0
346.636353 88.0
346.661957 212.0
346.679565 156.0
346.716949 288.0
346.760925 180.0
346.810059 212.0
346.839417 324.0
346.932251 27708.0
346.999969 268.0
347.082275 352.0
347.157867 128.0
347.18515 128.0
347.199158 88.0
347.215485 232.0
347.272034 348.0
347.32666 236.0
347.355957 112.0
347.391632 356.0
347.435577 232.0
347.473724 76.0
347.517395 324.0
347.574188 120.0
347.589203 136.0
347.655365 292.0
347.704559 256.0
347.736786 164.0
347.809631 360.0
347.836029 208.0
347.926849 63608.0
348.007935 100.0
348.058563 100.0
348.103577 216.0
348.135254 140.0
348.166809 104.0
348.223297 184.0
348.267944 176.0
348.3172 156.0
348.358185 156.0
348.421936 156.0
348.44577 76.0
348.463257 80.0
348.476562 60.0
348.518036 148.0
348.557678 84.0
348.594269 84.0
348.638763 92.0
348.699036 100.0
348.721344 176.0
348.768127 100.0
348.828247 296.0
348.871582 68.0
348.880493 184.0
348.929657 7152.0
349.016296 76.0
349.061768 284.0
349.098175 112.0
349.141388 116.0
349.181793 324.0
349.224854 128.0
349.297791 112.0
349.340454 256.0
349.391174 140.0
349.420898 88.0
349.459015 272.0
349.510406 136.0
349.559906 60.0
349.608429 128.0
349.67157 68.0
349.701355 92.0
349.756134 72.0
349.785004 92.0
349.824188 92.0
349.855316 100.0
349.919678 1324.0
349.984009 112.0
350.061829 112.0
350.090759 108.0
350.149902 68.0
350.185394 120.0
350.280914 56.0
350.346893 68.0
350.391022 40.0
350.40332 72.0
350.415863 100.0
350.431946 64.0
350.444031 112.0
350.491974 84.0
350.53186 96.0
350.578552 76.0
350.656616 136.0
350.692139 56.0
350.727875 68.0
350.776642 176.0
350.884613 132.0
350.95163 120.0
351.044647 140.0
351.066925 68.0
351.114655 80.0
351.158203 88.0
351.189392 100.0
351.227966 224.0
351.269867 132.0
351.326324 120.0
351.371429 88.0
351.437897 88.0
351.483185 144.0
351.535004 40.0
351.591003 48.0
351.624573 92.0
351.69458 260.0
351.784698 116.0
351.850647 72.0
351.949371 64.0
352.007721 172.0
352.094635 76.0
352.137909 148.0
352.149597 72.0
352.160004 120.0
352.223114 136.0
352.326599 72.0
352.398621 220.0
352.453644 92.0
352.509705 88.0
352.603149 40.0
352.662933 100.0
352.696594 44.0
352.858795 112.0
352.920227 80.0
352.952606 108.0
352.984467 68.0
353.242554 44.0
353.309875 52.0
353.352844 156.0
353.425873 64.0
353.680115 64.0
353.706573 160.0
353.825134 232.0
354.090851 76.0
354.144684 68.0
354.213287 76.0
354.302002 88.0
354.354462 96.0
354.493103 84.0
354.643036 68.0
354.766724 40.0
354.875458 36.0
355.160492 40.0
355.216736 40.0
355.339294 108.0
355.38559 36.0
355.437469 92.0
355.494415 44.0
355.58432 104.0
355.597534 100.0
355.682068 224.0
355.727112 48.0
355.815186 156.0
355.952393 96.0
356.068817 100.0
356.106873 260.0
356.135101 92.0
356.16272 192.0
356.204041 108.0
356.294861 184.0
356.373108 40.0
356.482086 48.0
356.512146 44.0
356.564758 40.0
356.636169 56.0
356.726379 180.0
356.78653 32.0
356.899323 132.0
357.109924 52.0
357.256653 108.0
357.298035 88.0
357.344696 84.0
357.523804 56.0
357.582428 160.0
357.614349 72.0
357.717712 72.0
357.764832 124.0
357.798584 196.0
357.83728 72.0
357.873901 180.0
357.930389 128.0
357.985443 184.0
358.043365 156.0
358.141296 108.0
358.178955 144.0
358.216614 84.0
358.271423 164.0
358.303284 124.0
358.356018 124.0
358.389923 80.0
358.458008 252.0
358.488739 108.0
358.533997 332.0
358.578369 248.0
358.608185 140.0
358.637268 344.0
358.687683 112.0
358.715118 100.0
358.770264 300.0
358.777557 52.0
358.782959 220.0
358.791351 72.0
358.800781 120.0
358.846497 236.0
358.956543 97904.0
359.091125 32.0
359.137268 200.0
359.177063 36.0
359.202881 96.0
359.243561 108.0
359.292694 84.0
359.356903 80.0
359.420441 268.0
359.452393 172.0
359.485077 52.0
359.527618 172.0
359.5755 296.0
359.616425 72.0
359.649109 64.0
359.686523 112.0
359.769836 92.0
359.779053 80.0
359.80954 148.0
359.959106 11180.0
360.060211 116.0
360.101837 72.0
360.140625 88.0
360.182007 48.0
360.241913 168.0
360.266754 148.0
360.282196 248.0
360.321533 120.0
360.327515 368.0
360.355316 300.0
360.393341 200.0
360.425995 164.0
360.463837 100.0
360.504883 128.0
360.519348 84.0
360.58371 104.0
360.62735 200.0
360.677429 280.0
360.714233 104.0
360.77356 112.0
360.818054 340.0
360.880676 648.0
360.954102 122756.0
361.036224 40.0
361.068237 172.0
361.118866 220.0
361.146362 60.0
361.188629 84.0
361.219879 236.0
361.264893 72.0
361.289642 92.0
361.32077 140.0
361.346405 160.0
361.40802 200.0
361.457031 120.0
361.504486 124.0
361.530273 108.0
361.577942 416.0
361.620911 104.0
361.664185 176.0
361.692413 204.0
361.788269 216.0
361.841187 268.0
361.870453 44.0
361.95578 14488.0
362.051483 92.0
362.085327 120.0
362.142975 144.0
362.155762 60.0
362.169281 72.0
362.203796 124.0
362.253052 288.0
362.297668 280.0
362.373535 156.0
362.427063 64.0
362.493134 388.0
362.498962 116.0
362.53714 120.0
362.582672 120.0
362.614044 200.0
362.664276 120.0
362.694611 172.0
362.745056 228.0
362.770416 44.0
362.800934 236.0
362.857941 192.0
362.886902 144.0
362.950531 35024.0
363.05661 92.0
363.068085 72.0
363.117798 64.0
363.176178 68.0
363.226288 84.0
363.264709 128.0
363.292877 104.0
363.384827 52.0
363.406647 48.0
363.454865 52.0
363.498657 176.0
363.527924 192.0
363.580017 72.0
363.619293 92.0
363.630219 60.0
363.69339 236.0
363.756897 136.0
363.843048 108.0
363.89856 164.0
363.95285 3736.0
364.052734 84.0
364.084076 136.0
364.123291 64.0
364.17218 72.0
364.200531 60.0
364.238251 168.0
364.322083 144.0
364.374512 84.0
364.424347 128.0
364.451782 88.0
364.5177 92.0
364.57312 80.0
364.587799 76.0
364.623657 68.0
364.658997 76.0
364.72406 136.0
364.80838 116.0
364.859985 160.0
364.943817 588.0
364.999146 68.0
365.071594 160.0
365.131226 44.0
365.162048 188.0
365.206421 72.0
365.245911 100.0
365.428986 84.0
365.537994 136.0
365.587585 148.0
365.691559 112.0
365.72583 120.0
365.751953 88.0
365.862854 92.0
365.926117 52.0
365.953308 128.0
366.003754 64.0
366.042358 56.0
366.085754 92.0
366.120789 56.0
366.194794 120.0
366.266541 76.0
366.313171 132.0
366.514191 64.0
366.613251 76.0
366.700928 152.0
366.7276 112.0
366.769196 44.0
366.793976 68.0
366.826721 44.0
366.89151 40.0
366.963959 40.0
367.177521 192.0
367.257599 48.0
367.326263 100.0
367.387299 44.0
367.458405 88.0
367.520844 56.0
367.597168 44.0
367.761292 68.0
367.795624 48.0
367.955963 72.0
368.066711 48.0
368.219452 36.0
368.330231 120.0
368.456299 56.0
368.496552 64.0
368.525085 44.0
368.668518 52.0
368.74707 92.0
368.8461 76.0
368.968445 100.0
368.995209 100.0
369.025787 44.0
369.052551 60.0
369.477112 60.0
369.687561 60.0
369.729675 96.0
369.829193 36.0
369.947845 36.0
370.36908 116.0
370.434204 68.0
370.525574 180.0
370.621948 84.0
370.664093 40.0
371.124084 96.0
371.338837 48.0
371.565186 40.0
371.676727 52.0
371.979645 52.0
372.359802 60.0
372.68634 136.0
372.759338 72.0
372.909241 64.0
373.00531 116.0
373.097595 60.0
373.132202 80.0
373.232147 56.0
373.309082 60.0
373.466766 120.0
374.076691 72.0
374.232605 96.0
374.486786 92.0
374.523376 72.0
374.552277 84.0
374.910583 72.0
375.076324 56.0
375.111664 48.0
375.685638 108.0
375.720367 96.0
375.78595 52.0
375.967316 68.0
376.00592 36.0
376.04837 68.0
376.160309 64.0
376.241364 44.0
376.295441 124.0
376.357208 128.0
376.612091 88.0
376.874817 36.0
376.901855 44.0
376.97879 84.0
377.133728 52.0
377.244324 112.0
377.624786 60.0
378.917755 76.0
379.006897 92.0
379.413849 48.0
379.77063 88.0
379.817169 40.0
379.925812 72.0
380.139221 84.0
380.261108 108.0
380.410919 28.0
380.53125 80.0
381.008972 76.0
381.269318 52.0
381.327637 96.0
381.930328 68.0
382.152069 48.0
382.272705 36.0
382.673645 96.0
383.17218 140.0
383.429382 44.0
384.022034 108.0
384.27948 52.0
384.458984 104.0
384.775177 44.0
384.86499 64.0
384.946991 68.0
385.314178 60.0
385.646332 40.0
385.908264 68.0
386.240692 84.0
386.365875 88.0
386.549774 60.0
386.698486 84.0
386.89032 72.0
387.003845 48.0
387.050842 64.0
387.285828 68.0
387.489532 72.0
387.854004 80.0
388.964111 84.0
389.922546 92.0
390.091553 68.0
390.7995 40.0
390.913605 84.0
391.645905 112.0
391.901611 84.0
392.615509 100.0
392.722015 76.0
392.836395 60.0
392.871918 64.0
394.123535 60.0
394.926086 84.0
396.03833 72.0
396.563171 52.0
397.783112 68.0
397.87442 56.0
398.800018 76.0
399.300995 32.0
399.472046 64.0
400.104828 56.0
400.491089 76.0
401.324036 36.0
401.615173 40.0
401.840637 56.0
402.373413 76.0
402.557068 84.0
402.728821 96.0
402.756775 128.0
402.784729 92.0
403.388153 56.0
404.016022 156.0
404.7565 60.0
404.94873 84.0
405.345367 92.0
406.311707 104.0
406.929779 56.0
406.998047 68.0
407.130585 112.0
407.198853 88.0
408.046753 104.0
408.336304 112.0
408.782867 76.0
409.028381 68.0
409.104858 68.0
409.588104 124.0
409.769409 88.0
409.950745 60.0
410.015228 60.0
410.095825 124.0
410.996216 124.0
411.35437 64.0
411.475494 52.0
412.267212 52.0
412.368256 76.0
412.926239 60.0
416.091095 36.0
416.257599 64.0
416.615021 96.0
417.81842 60.0
418.962463 80.0
419.02356 80.0
419.58194 72.0
419.883698 184.0
420.446716 44.0
420.683472 64.0
421.414551 60.0
421.684265 48.0
421.827332 80.0
422.166687 68.0
422.305756 96.0
422.457123 112.0
422.624847 60.0
422.727173 64.0
423.423157 124.0
423.95575 92.0
424.439484 84.0
424.931702 96.0
426.229218 44.0
426.32373 96.0
426.697815 84.0
426.973328 72.0
427.244812 44.0
427.302399 68.0
427.635742 56.0
427.800415 44.0
430.402039 64.0
430.48877 40.0
431.290314 60.0
431.848511 68.0
432.196045 56.0
434.225983 76.0
434.321381 68.0
434.960419 96.0
436.709808 108.0
437.666992 48.0
437.700317 92.0
438.637756 104.0
439.092255 36.0
439.171478 36.0
440.862427 76.0
440.937653 92.0
441.242828 72.0
441.755615 124.0
443.243591 56.0
443.516022 76.0
444.086273 80.0
444.47644 100.0
444.875183 76.0
446.051453 44.0
446.577057 56.0
446.623322 212.0
446.854706 124.0
447.321869 100.0
447.523956 84.0
449.0242 116.0
449.066376 40.0
449.500916 52.0
450.311523 108.0
450.784698 112.0
451.507629 100.0
451.807953 92.0
453.13739 76.0
453.506073 52.0
453.539978 52.0
455.029053 160.0
455.215881 92.0
455.559937 76.0
455.797852 56.0
456.044342 68.0
456.078369 132.0
456.14212 116.0
456.571564 88.0
457.686523 100.0
458.308441 124.0
458.408905 132.0
458.457581 72.0
458.67923 72.0
458.71759 76.0
458.836975 44.0
459.698608 88.0
459.847992 44.0
459.877869 40.0
460.078491 84.0
460.415833 80.0
461.766418 100.0
461.804901 64.0
462.279816 100.0
462.388947 128.0
462.472412 96.0
463.568817 56.0
464.134674 44.0
464.464935 160.0
465.160095 60.0
465.731201 92.0
467.03363 84.0
468.98938 104.0
470.023621 80.0
470.688385 60.0
470.810669 88.0
472.019348 76.0
472.188019 88.0
472.668213 100.0
473.217957 72.0
473.447449 100.0
475.203094 128.0
475.263824 52.0
475.624054 100.0
475.745605 80.0
475.806396 40.0
479.35141 136.0
480.642181 44.0
481.144135 52.0
482.371735 36.0
482.765259 108.0
483.627197 56.0
483.846069 36.0
484.459198 40.0
484.853577 64.0
485.423492 52.0
485.607697 76.0
485.967438 88.0
486.002533 148.0
486.068359 100.0
486.340454 92.0
487.064972 68.0
487.095734 68.0
487.350555 64.0
487.535126 56.0
487.908752 56.0
488.700439 108.0
489.805481 112.0
490.576691 84.0
490.863281 96.0
491.670593 92.0
492.151794 40.0
492.266602 76.0
492.452087 84.0
493.145813 48.0
493.645386 72.0
493.786926 128.0
494.012512 80.0
495.974274 60.0
496.923309 68.0
497.944336 88.0
498.179749 120.0
498.361938 84.0
499.019745 68.0
499.38443 80.0
500.020691 40.0
500.888947 96.0
501.860535 128.0
501.89621 68.0
502.123657 76.0
502.181641 44.0
503.042847 120.0
503.471497 60.0
503.556366 56.0
503.748444 32.0
503.976288 60.0
504.476868 80.0
505.375854 60.0
506.513031 76.0
507.301727 88.0
507.358154 96.0
507.440704 64.0
507.678375 92.0
507.956451 100.0
508.180786 60.0
508.360291 116.0
509.156403 60.0
509.289673 92.0
509.943329 88.0
510.008606 60.0
510.534668 40.0
511.425507 56.0
511.511047 64.0
512.632568 48.0
513.105835 120.0
513.701172 68.0
513.863586 96.0
514.134338 120.0
514.418701 80.0
514.499939 56.0
514.685059 28.0
517.65155 72.0
517.887024 44.0
517.93689 52.0
518.2948 72.0
518.589355 96.0
518.752563 92.0
518.793335 76.0
519.18335 80.0
519.405579 84.0
519.614258 56.0
519.945496 92.0
520.481201 80.0
520.703735 64.0
521.294373 72.0
521.539795 64.0
521.612488 52.0
522.149048 48.0
522.321899 56.0
523.915222 92.0
524.047363 100.0
524.147644 52.0
524.430176 56.0
524.81311 88.0
525.643311 92.0
525.880676 44.0
526.898987 56.0
526.930969 44.0
527.173157 56.0
527.858887 116.0
528.384949 76.0
528.723572 88.0
529.854614 56.0
530.147888 96.0
530.8172 84.0
531.835693 76.0
534.57959 136.0
535.187195 88.0
535.237854 88.0
535.339172 100.0
535.781372 136.0
536.007141 72.0
536.366638 64.0
536.933777 96.0
538.027405 76.0
538.918823 112.0
539.750854 96.0
540.676086 116.0
540.976929 96.0
541.463135 44.0
542.273987 48.0
542.705139 76.0
542.793213 96.0
543.196716 72.0
543.730347 40.0
544.844788 76.0
546.025513 104.0
546.565186 80.0
546.695496 72.0
547.649902 48.0
548.017944 116.0
548.460693 76.0
549.61731 104.0
550.154114 36.0
551.793945 76.0
551.976318 80.0
552.032471 60.0
552.534973 100.0
553.11792 84.0
553.322021 80.0
553.642334 44.0
553.756592 56.0
554.218506 48.0
554.659058 72.0
554.710632 120.0
555.00885 152.0
555.446899 56.0
555.686157 116.0
556.258728 140.0
556.643738 56.0
556.817505 108.0
557.700806 84.0
558.250916 100.0
558.721313 64.0
559.61084 92.0
559.690918 104.0
559.898132 96.0
560.062927 80.0
560.552917 88.0
561.88739 56.0
562.307373 48.0
562.397034 80.0
562.595276 60.0
563.724182 48.0
563.842346 92.0
564.296143 88.0
564.816406 88.0
564.972473 84.0
565.388916 72.0
565.483582 72.0
565.785645 108.0
566.899658 52.0
567.079773 56.0
567.345215 88.0
568.317505 40.0
568.668701 76.0
569.257446 28.0
569.290649 60.0
569.756165 128.0
570.526062 68.0
571.677185 48.0
571.886597 84.0
572.562683 84.0
572.610352 60.0
572.972351 36.0
573.010498 40.0
574.068665 48.0
574.373962 112.0
575.213806 80.0
575.7677 60.0
576.718506 76.0
576.895386 44.0
578.708679 144.0
579.470276 52.0
579.872803 60.0
580.366577 68.0
580.601562 80.0
580.889343 72.0
581.609131 52.0
581.810791 88.0
582.103699 112.0
582.209351 92.0
582.670471 68.0
583.213501 68.0
583.574097 92.0
584.661255 120.0
585.619385 88.0
585.737671 92.0
585.821716 96.0
586.187866 76.0
586.245728 52.0
586.385498 44.0
586.539734 92.0
586.814514 80.0
588.628845 128.0
589.440369 80.0
590.252502 36.0
591.011963 64.0
591.147461 76.0
591.544373 40.0
592.01886 80.0
592.566895 144.0
592.924805 40.0
593.356262 40.0
593.695679 60.0
594.229309 48.0
595.034973 80.0
595.938416 44.0
596.098755 44.0
596.477905 100.0
597.04187 56.0
597.669434 80.0
598.380066 72.0
600.221924 104.0
600.699951 76.0
601.778503 60.0
603.166016 64.0
604.13916 92.0
604.677429 112.0
605.21106 80.0
606.842712 56.0
608.118225 96.0
608.18689 112.0
608.226196 80.0
608.447083 104.0
608.707336 56.0
609.011841 28.0
609.208313 84.0
609.763611 48.0
609.881592 84.0
609.920898 80.0
611.076599 80.0
611.258667 72.0
611.485046 112.0
612.243286 32.0
612.785095 64.0
613.031494 68.0
613.139954 60.0
613.470215 84.0
613.687134 80.0
614.244446 36.0
615.631409 48.0
616.599731 64.0
616.866638 44.0
617.257263 80.0
617.524292 104.0
621.214661 96.0
621.681091 88.0
621.844849 80.0
622.957153 100.0
623.976013 100.0
624.274353 112.0
625.184753 60.0
626.574036 76.0
627.022522 56.0
627.919983 100.0
632.64209 88.0
633.057739 80.0
633.428345 40.0
633.52356 92.0
634.245178 56.0
634.716431 32.0
636.869507 84.0
637.397034 80.0
637.970032 60.0
641.14624 104.0
642.164673 48.0
643.774658 56.0
643.966614 44.0
644.860901 76.0
644.946838 64.0
646.459106 52.0
646.985535 40.0
647.968079 72.0
650.026733 72.0
652.586914 36.0
654.464478 52.0
654.535767 64.0
654.912659 68.0
655.483276 56.0
657.609985 68.0
657.829468 80.0
659.12677 60.0
659.29541 104.0
660.251465 56.0
664.759827 60.0
666.063965 48.0
669.407104 68.0
670.179749 80.0
670.473511 72.0
672.144409 36.0
672.443726 64.0
672.903198 32.0
673.533203 68.0
673.646851 76.0
674.535706 116.0
674.985535 88.0
675.161377 56.0
675.435486 44.0
676.863953 56.0
676.905396 100.0
679.035461 112.0
679.429688 84.0
680.306763 112.0
680.561157 64.0
681.361023 52.0
681.641663 56.0
682.405762 56.0
682.707336 80.0
684.237183 72.0
684.64856 92.0
684.862122 60.0
685.60199 100.0
687.745667 68.0
688.570618 84.0
688.695984 68.0
689.072083 68.0
690.12793 80.0
691.299683 68.0
692.17395 68.0
693.085388 84.0
694.700256 48.0
697.584717 108.0
697.898804 72.0
698.666748 76.0
698.803528 100.0
698.966675 96.0
699.003479 68.0
699.082397 84.0
699.577209 80.0
701.626587 124.0
703.441406 72.0
703.546997 80.0
703.879639 84.0
705.787231 88.0
706.328369 88.0
706.882263 116.0
708.751526 72.0
708.841614 68.0
709.689758 40.0
710.877991 52.0
711.270752 64.0
711.477783 48.0
712.896057 68.0
713.193665 48.0
713.347839 112.0
713.810425 108.0
714.193359 60.0
715.318298 100.0
715.630249 60.0
716.823486 64.0
716.919373 64.0
717.644348 76.0
720.489136 64.0
721.023499 68.0
722.173096 72.0
722.57428 96.0
723.537659 108.0
724.362427 64.0
725.643311 64.0
725.680847 92.0
727.11853 96.0
728.632812 88.0
728.708069 68.0
729.503479 64.0
730.568298 64.0
732.359741 76.0
734.603394 80.0
736.530518 84.0
738.173584 80.0
740.397888 92.0
742.41394 68.0
742.65802 52.0
743.792114 104.0
744.19928 84.0
746.497864 68.0
747.406311 64.0
748.386108 76.0
749.688049 72.0
751.160217 40.0
751.220215 76.0
752.650208 116.0
753.349365 72.0
753.507812 132.0
754.223694 76.0
754.661072 188.0
755.098572 88.0
755.148315 80.0
756.822388 48.0
759.266541 28.0
760.029053 56.0
761.505859 124.0
761.681641 84.0
765.570312 140.0
766.291931 44.0
766.54541 96.0
768.825012 76.0
770.72821 52.0
772.088135 112.0
773.255554 80.0
778.37262 104.0
778.505859 108.0
778.861328 108.0
782.34906 116.0
782.565247 44.0
783.278137 80.0
783.924438 92.0
785.530273 100.0
786.099365 100.0
789.188477 52.0
789.898743 60.0
790.475037 44.0
790.620544 84.0
792.3172 44.0
792.530151 144.0
792.642212 108.0
793.561523 76.0
795.137817 108.0
795.541992 92.0
796.069824 144.0
796.210205 84.0
797.030396 40.0
797.406921 28.0
799.172791 76.0
800.811035 96.0
801.543396 140.0
801.746277 40.0
802.326904 92.0
803.838562 100.0
804.346497 68.0
807.680542 36.0
807.946411 72.0
811.576965 164.0
813.500366 96.0
813.880737 60.0
815.090698 84.0
816.209351 112.0
820.90863 68.0
823.202759 96.0
824.425293 36.0
825.076965 76.0
825.397156 60.0
829.324585 100.0
831.951904 88.0
832.210266 96.0
833.76709 108.0
833.882019 60.0
833.933777 92.0
834.497131 44.0
835.802856 68.0
836.125122 64.0
836.810181 32.0
837.495483 72.0
839.103333 44.0
839.455078 64.0
840.614624 100.0
841.494812 108.0
842.312073 40.0
843.325195 92.0
844.207886 132.0
844.277283 76.0
846.389587 100.0
848.603027 192.0
851.127136 48.0
852.550415 80.0
852.736389 128.0
853.259583 32.0
853.463074 64.0
854.07373 68.0
854.399475 56.0
855.633362 48.0
861.447876 76.0
863.686829 112.0
864.816162 100.0
865.952026 52.0
869.781006 40.0
871.061157 60.0
871.889648 92.0
873.783142 60.0
874.630615 84.0
874.736572 96.0
876.138184 40.0
883.955933 56.0
884.092041 32.0
884.417542 36.0
885.785461 112.0
886.413452 68.0
888.803223 76.0
889.105896 104.0
889.485779 84.0
890.768494 60.0
890.815979 136.0
893.176025 112.0
893.723328 76.0
898.478027 64.0
899.498535 44.0
902.396118 76.0
902.958252 128.0
903.640198 92.0
904.454102 100.0
904.573853 48.0
904.968994 200.0
905.78949 72.0
908.037231 52.0
908.427124 76.0
909.951538 60.0
911.281677 160.0
912.180481 68.0
914.117188 48.0
914.98999 40.0
915.453613 88.0
917.050232 48.0
917.90033 92.0
920.078552 112.0
920.169128 56.0
920.211365 56.0
924.32666 112.0
924.630371 140.0
925.144897 108.0
925.278076 52.0
925.550537 80.0
928.228943 92.0
929.42395 116.0
936.524963 156.0
937.511963 116.0
938.773926 64.0
940.885193 128.0
941.337036 116.0
942.0578 92.0
945.775818 52.0
947.25769 116.0
951.962158 60.0
953.289124 140.0
955.449463 60.0
957.872986 104.0
958.433655 64.0
962.912476 84.0
963.845337 48.0
966.714722 184.0
967.104614 64.0
967.469849 100.0
968.485474 44.0
969.501587 68.0
971.585022 56.0
972.118652 60.0
972.162109 72.0
975.105957 52.0
975.44165 108.0
976.305908 192.0
976.996338 140.0
977.102112 64.0
979.748169 48.0
980.377502 228.0
980.439819 80.0
982.865723 84.0
984.570007 60.0
984.619934 56.0
984.907288 44.0
986.20697 108.0
988.039246 72.0
990.524658 244.0
990.606079 160.0
995.385437 44.0
996.641785 144.0
996.830261 168.0
997.389648 36.0
997.433655 220.0
997.659973 44.0
999.031006 88.0
999.729431 48.0
1000.19519 260.0
1001.599426 56.0
1002.368103 160.0
1003.90625 84.0
1006.796753 72.0
1009.634399 292.0
1012.229126 28.0
1014.243896 44.0
1015.15686 96.0
1018.495361 64.0
1018.940063 52.0
1019.016296 132.0
1019.86792 60.0
1021.610291 128.0
1022.28479 100.0
1022.934021 76.0
1025.724243 68.0
1029.099121 132.0
1029.44397 212.0
1030.261597 92.0
1030.919678 52.0
1036.826904 44.0
1041.934814 64.0
1044.615601 124.0
1046.720337 188.0
1048.221313 112.0
1049.910278 92.0
1050.368286 112.0
1052.685425 64.0
1052.982422 52.0
1053.583252 224.0
1056.317871 40.0
1057.728638 60.0
1058.071655 80.0
1065.172974 60.0
1065.965698 72.0
1068.436523 88.0
1069.796753 168.0
1074.052124 152.0
1074.123901 212.0
1075.102539 60.0
1076.244995 164.0
1078.86499 60.0
1079.015381 72.0
1079.447021 144.0
1080.781372 140.0
1081.180664 84.0
1082.915649 100.0
1084.920898 60.0
1086.901733 40.0
1091.335571 88.0
1091.644653 100.0
1093.072144 236.0
1095.231689 60.0
1097.109863 52.0
1097.60437 180.0
1099.372314 104.0
1099.576904 68.0
1099.827759 176.0
1100.600098 200.0
1100.718994 120.0
1100.765259 104.0
1103.752197 72.0
1104.876587 44.0
1105.89563 220.0
1106.014893 152.0
1108.21167 68.0
1108.26001 84.0
1108.39917 88.0
1108.723877 128.0
1110.295166 124.0
1110.368042 132.0
1112.610962 48.0
1113.135498 84.0
1114.490723 192.0
1114.703369 56.0
1114.955811 136.0
1115.301514 60.0
1118.081787 136.0
1118.580933 112.0
1118.694092 172.0
1118.793945 80.0
1121.212036 64.0
1121.571899 100.0
1124.980713 148.0
1125.140991 200.0
1126.423218 184.0
1126.717163 104.0
1126.817383 40.0
1127.11145 80.0
1128.822754 132.0
1128.929688 40.0
1130.622314 220.0
1132.195679 188.0
1133.18042 56.0
1135.385864 180.0
1137.774658 144.0
1138.546875 232.0
1138.728271 80.0
1141.248413 156.0
1142.015137 52.0
1143.730957 156.0
1147.773315 136.0
1148.447754 76.0
1152.025513 104.0
1152.484985 80.0
1153.410889 72.0
1154.465576 60.0
1154.655029 164.0
1155.426147 104.0
1159.448486 100.0
1159.583984 44.0
1161.414795 144.0
1161.48938 100.0
1161.950684 72.0
1162.269653 96.0
1163.050171 144.0
1163.280884 68.0
1163.742554 224.0
1165.895996 88.0
1167.670532 96.0
1167.892456 76.0
1169.03125 128.0
1170.208862 32.0
1170.862549 36.0
1171.598267 132.0
1173.874878 140.0
1177.66272 236.0
1177.888184 172.0
1180.471802 40.0
1182.305176 176.0
1182.5448 96.0
1187.567261 124.0
1187.921387 160.0
1188.02002 96.0
1188.273804 52.0
1188.740479 132.0
1189.763184 108.0
1190.751953 112.0
1192.387207 36.0
1192.586548 80.0
1192.689697 100.0
1194.615112 124.0
1196.734985 160.0
1197.230835 128.0
1197.492554 88.0
1198.029785 100.0
1198.78772 124.0
1199.104736 168.0
1199.614014 148.0
1200.228516 132.0
1200.607788 164.0
1200.890625 128.0
1201.525269 40.0
1202.822632 112.0
1203.575195 148.0
1203.782349 216.0
1204.55603 188.0
1205.564819 80.0
1206.325073 192.0
1207.922485 132.0
1208.662842 44.0
1208.74585 184.0
1208.918945 188.0
1209.971069 140.0
1213.130249 68.0
1214.045532 152.0
1215.037476 20.0
1216.161743 204.0
1219.259521 160.0
1219.613892 184.0
1220.997559 68.0
1221.741943 180.0
1221.888062 96.0
1221.957642 120.0
1222.298584 60.0
1222.500366 124.0
1223.158691 208.0
1223.238159 92.0
1224.268677 164.0
1224.498535 140.0
1227.557983 120.0
1227.969482 112.0
1228.583374 132.0
1228.702026 148.0
1230.61438 88.0
1231.599121 96.0
1232.332642 40.0
1232.521362 104.0
1232.730957 108.0
1234.954346 88.0
1236.171631 56.0
1237.305664 88.0
1237.403687 72.0
1238.363037 188.0
1239.114136 204.0
1239.322876 140.0
1240.219849 176.0
1241.131348 80.0
1243.102539 116.0
1245.159546 152.0
1245.342163 176.0
1245.833862 156.0
1247.696289 76.0
1247.900269 100.0
1248.385376 56.0
1250.003418 32.0
1250.876221 140.0
1250.925537 72.0
1252.143677 144.0
1252.3479 92.0
1253.420532 176.0
1253.545654 48.0
1253.728882 80.0
1254.483154 56.0
1255.357422 48.0
1255.56897 136.0
1256.126221 92.0
1256.31665 108.0
1256.641235 92.0
1257.925781 156.0
1258.384644 48.0
1258.575317 132.0
1259.606445 116.0
1260.857056 192.0
1261.507446 60.0
1262.759033 124.0
1263.268311 56.0
1265.823486 104.0
1266.227173 116.0
1267.247314 100.0
1267.587402 212.0
1268.388306 76.0
1269.522705 108.0
1270.005005 56.0
1271.360229 108.0
1271.807373 116.0
1272.084229 136.0
1272.929199 100.0
1273.312622 168.0
1275.10437 180.0
1275.295044 144.0
1275.714478 176.0
1277.008667 152.0
1277.577759 116.0
1277.961914 36.0
1279.257202 216.0
1280.647339 116.0
1281.671753 104.0
1281.89978 112.0
1282.591187 64.0
1283.660645 68.0
1285.187134 168.0
1285.815186 28.0
1285.936523 160.0
1287.135864 124.0
1287.48584 180.0
1288.269409 244.0
1288.864624 220.0
1289.107544 60.0
1289.893799 64.0
1290.601562 176.0
1291.860352 124.0
1292.525757 48.0
1293.0625 168.0
1296.120483 44.0
1296.328369 80.0
1296.830078 44.0
1298.378784 252.0
1299.14624 48.0
1299.461914 216.0
1301.019409 52.0
1301.141479 160.0
1301.252319 108.0
1302.462769 172.0
1302.671143 160.0
1303.849609 144.0
1304.072876 116.0
1304.352783 180.0
1304.670166 104.0
1305.042969 108.0
1306.50293 100.0
1306.582153 116.0
1307.129028 184.0
1307.834351 128.0
1308.302246 88.0
1308.374268 124.0
1308.453369 152.0
1308.510986 56.0
1308.799072 40.0
1310.016235 176.0
1310.354858 64.0
1310.758423 96.0
1312.214355 136.0
1312.423462 148.0
1312.517212 104.0
1313.470825 184.0
1313.555786 168.0
1314.392822 160.0
1315.4104 156.0
1315.489868 48.0
1316.334595 160.0
1316.500732 44.0
1317.04248 148.0
1317.685425 152.0
1317.851562 100.0
1318.140625 152.0
1319.268188 180.0
1319.369385 188.0
1319.463379 140.0
1320.244385 52.0
1322.914429 128.0
1324.268555 116.0
1324.637939 172.0
1324.942261 120.0
1325.543579 48.0
1326.464111 116.0
1326.536621 100.0
1327.733032 192.0
1329.684692 184.0
1330.686523 68.0
1331.1875 148.0
1331.296509 152.0
1331.441772 40.0
1331.739502 52.0
1332.044556 72.0
1333.323486 200.0
1333.497925 156.0
1333.841797 128.0
1333.934082 40.0
1334.573853 116.0
1334.879272 172.0
1335.271973 44.0
1336.079468 88.0
1336.137573 148.0
1337.789673 32.0
1338.037964 196.0
1338.43042 128.0
1338.707153 64.0
1339.457397 144.0
1340.134888 68.0
1340.335938 292.0
1340.659546 108.0
1341.818604 112.0
1342.000854 128.0
1342.482178 144.0
1342.970825 100.0
1344.605225 140.0
1346.079956 160.0
1346.693481 36.0
1346.919922 136.0
1347.489746 52.0
1348.001221 100.0
1348.710205 80.0
1348.907593 172.0
1349.22644 176.0
1349.419312 88.0
1349.521729 80.0
1349.722656 196.0
1350.201782 76.0
1352.052856 60.0
1352.352905 220.0
1353.333862 200.0
1353.502319 160.0
1353.670776 52.0
1353.86853 236.0
1354.732788 76.0
1355.091797 40.0
1355.150391 124.0
1356.608887 136.0
1356.733521 40.0
1358.842651 120.0
1358.999878 212.0
1359.154053 164.0
1362.296509 164.0
1364.185181 172.0
1364.582153 176.0
1366.192871 124.0
1366.869873 148.0
1367.149414 208.0
1367.52478 132.0
1367.819214 168.0
1368.828003 40.0
1369.719116 92.0
1369.851807 108.0
1370.330688 108.0
1370.448486 64.0
1370.743286 160.0
1371.966797 168.0
1372.239624 40.0
1373.154053 180.0
1373.345825 72.0
1373.485962 168.0
1373.832764 76.0
1373.994995 180.0
1374.20166 80.0
1374.48938 256.0
1374.836304 40.0
1375.116699 184.0
1375.360229 168.0
1376.187134 64.0
1376.593262 140.0
1379.94812 108.0
1380.169922 112.0
1380.41394 244.0
1381.826782 144.0
1381.974731 172.0
1382.056152 60.0
1382.581543 168.0
1382.714844 40.0
1383.432861 100.0
1384.12146 184.0
1384.358398 164.0
1384.943481 168.0
1384.995361 140.0
1385.83252 152.0
1386.766235 28.0
1387.17395 144.0
1387.515015 68.0
1387.574341 124.0
1388.234253 140.0
1389.40625 168.0
1389.940552 32.0
1390.096313 184.0
1390.935059 136.0
1391.013306 156.0
1391.246826 244.0
1391.484375 92.0
1391.922485 104.0
1393.304077 216.0
1393.504639 40.0
1393.608643 124.0
1395.27356 212.0
1395.496704 100.0
1396.158447 128.0
1396.344482 136.0
1397.884521 172.0
1399.038208 120.0
1399.790161 132.0
1400.430664 56.0
1400.654175 160.0
1401.44397 84.0
1401.630249 76.0
1401.786743 136.0
1401.905884 160.0
1402.054932 68.0
1402.696045 104.0
1403.18811 128.0
1404.038208 116.0
1404.746826 160.0
1406.179443 192.0
1406.231689 52.0
1406.478027 120.0
1406.896118 140.0
1407.493408 184.0
1407.545654 352.0
1407.810669 116.0
1408.464355 168.0
1408.68103 132.0
1409.712036 168.0
1409.786865 160.0
1410.123169 80.0
1410.235229 192.0
1410.997803 192.0
1411.080078 224.0
1411.42395 108.0
1411.618408 168.0
1411.902588 192.0
1412.583252 160.0
1413.653198 56.0
1414.760986 180.0
1415.10083 248.0
1415.375 128.0
1415.434937 176.0
1416.063965 212.0
1417.539917 136.0
1417.644775 164.0
1417.727295 140.0
1418.536743 172.0
1418.791626 208.0
1419.054077 108.0
1419.286499 160.0
1419.473999 152.0
1420.134033 120.0
1420.573242 204.0
1420.884155 212.0
1420.989258 148.0
1421.36438 136.0
1421.687134 156.0
1421.807129 116.0
1423.030762 120.0
1423.69165 56.0
1423.939453 196.0
1424.93103 104.0
1426.313843 140.0
1426.546875 116.0
1426.674683 196.0
1427.328857 44.0
1428.921753 168.0
1429.104126 124.0
1430.240479 184.0
1430.345947 72.0
1431.256836 80.0
1432.092896 160.0
1432.160645 148.0
1432.281128 40.0
1432.356445 140.0
1432.748291 76.0
1432.996826 136.0
1433.637451 244.0
1434.835938 196.0
1434.986694 176.0
1435.220459 148.0
1436.412109 112.0
1437.030762 56.0
1438.51001 52.0
1438.623291 140.0
1440.15625 144.0
1440.518799 72.0
1441.123169 60.0
1441.886475 172.0
1442.264404 204.0
1442.489136 148.0
1443.247192 136.0
1444.336304 152.0
1444.707031 168.0
1445.819336 112.0
1446.349121 36.0
1446.553589 188.0
1447.855957 216.0
1450.045532 180.0
1450.727417 88.0
1450.833862 60.0
1451.038574 60.0
1451.099243 108.0
1451.6073 232.0
1451.978882 96.0
1452.158203 168.0
1452.38855 136.0
1452.623657 148.0
1453.078857 152.0
1453.306519 108.0
1454.283447 100.0
1454.566406 80.0
1454.665039 140.0
1455.158569 28.0
1455.621704 168.0
1455.728027 176.0
1455.993896 76.0
1456.305298 168.0
1456.753418 168.0
1458.486084 176.0
1459.01062 68.0
1459.641724 132.0
1459.741699 132.0
1459.953491 132.0
1460.12085 188.0
1460.295776 116.0
1460.371826 148.0
1460.736938 152.0
1462.152222 136.0
1462.730713 40.0
1463.81189 284.0
1463.994629 80.0
1464.516846 124.0
1465.099121 188.0
1465.205811 88.0
1465.358276 124.0
1465.845947 208.0
1466.981567 180.0
1467.225586 140.0
1467.5 180.0
1468.064331 140.0
1468.201538 88.0
1468.453247 152.0
1469.155029 132.0
1469.39917 88.0
1469.876465 132.0
1470.032593 144.0
1470.650757 236.0
1470.742432 80.0
1470.910278 224.0
1471.238525 100.0
1471.48291 96.0
1471.887573 152.0
1472.025024 108.0
1472.139648 160.0
1472.648438 160.0
1473.577881 124.0
1473.850708 140.0
1474.133545 156.0
1475.0354 44.0
1475.134766 184.0
1475.692871 96.0
1476.73291 100.0
1476.863037 180.0
1477.398438 52.0
1478.201904 116.0
1478.34729 184.0
1478.69165 128.0
1479.082031 152.0
1479.349976 132.0
1479.549072 160.0
1479.832397 96.0
1480.437256 92.0
1480.935181 196.0
1483.287598 204.0
1483.555908 108.0
1484.207642 116.0
1484.598755 76.0
1484.675415 84.0
1485.074219 132.0
1486.025513 120.0
1486.209717 108.0
1486.41687 132.0
1486.731567 128.0
1487.629639 144.0
1487.875244 100.0
1488.166992 168.0
1488.243774 120.0
1488.359009 76.0
1488.573975 132.0
1489.234497 52.0
1489.518677 208.0
1490.748047 48.0
1491.286133 152.0
1492.447021 124.0
1492.792969 76.0
1492.869873 176.0
1493.554443 164.0
1493.685181 28.0
1494.31604 132.0
1494.623901 84.0
1494.77002 140.0
1495.35498 136.0
1496.078613 160.0
1496.692627 184.0
1497.164307 60.0
1497.272095 168.0
1497.426147 52.0
1498.165649 84.0
1498.319702 124.0
1500.94043 180.0
1501.202637 244.0
1502.375 244.0
1502.621948 128.0
1503.115723 160.0
1503.254639 120.0
1503.729858 228.0
1503.980225 152.0
1504.404785 44.0
1504.906616 136.0
1505.030151 120.0
1505.130493 132.0
