>compound (2E,4E,6E,8E)-9-(4-methoxy-2,3,6-trimethylphenyl)-3,7-dimethylnona-2,4,6,8-tetraenoic acid
>formula C21H26O3 
>ionization [M+H]+
>parentmass 327.194519
#inchi InChI=1S/C21H26O3/c1-14(8-7-9-15(2)12-21(22)23)10-11-19-16(3)13-20(24-6)18(5)17(19)4/h7-13H,1-6H3,(H,22,23)/b9-7+,11-10+,14-8+,15-12+
#inchikey IHUNBGSDBOWDMA
#Ion_Source LC-ESI
#Instrument qTof
#Compound_Source Commercial
#PI Dorrestein
#Data_Collector Garg_Neha
#Scan -1
#Precursor_MZ 327.197
#ExactMass 326.188
#Charge 1
#CAS_Number N/A
#Pubmed_ID N/A
#Smiles N/A
#INCHI_AUX N/A
#Library_Class 1
#SpectrumID CCMSLIB00000077146
#IonMode Positive
#UpdateWorkflowName UPDATE-SINGLE-ANNOTATED-GOLD
#LibraryQualityString Gold
#TaskID 48f7f52fc6d249b5abbcc6e7b3df5969
##Scan# 3134
#SpectrumFile NCP003195_E2E6F2F6G2G6H2H6_BB7_01_15711.mzXML
#LibraryName NIH_Clinical_Collection_2.mgf
#MQScore -1
#Organism NIHcollection2_04212014_2_mgf
#TIC_Query 0
#RT_Query -1
#MZErrorPPM -1
#SharedPeaks 0
#MassDiff 0
#LibMZ -1
#SpecMZ 327.197
#SpecCharge 0
#internalFilename spec-00000.mgf

>collision 10
45.150673 144.0
46.413849 144.0
49.579334 168.0
51.924393 164.0
53.719479 160.0
54.071617 172.0
60.676575 144.0
61.468269 216.0
61.978027 172.0
66.740189 152.0
66.901253 220.0
68.086708 144.0
68.788124 204.0
70.478836 156.0
70.798332 152.0
73.015961 152.0
73.598755 180.0
74.173584 144.0
77.548538 168.0
80.660378 184.0
80.792709 160.0
85.255363 248.0
88.056633 148.0
91.052856 360.0
92.261223 172.0
93.958931 148.0
97.512787 216.0
103.804054 164.0
104.999825 172.0
105.070969 172.0
106.071213 148.0
107.08699 188.0
107.634796 140.0
108.000595 148.0
109.065399 140.0
112.240219 256.0
114.065178 200.0
116.063789 164.0
117.066833 176.0
117.336311 180.0
119.086563 140.0
121.067841 168.0
121.102272 188.0
122.072296 140.0
128.808121 204.0
129.075256 160.0
130.079437 176.0
131.085922 2308.0
131.240997 208.0
131.409775 164.0
131.439438 144.0
132.089447 284.0
133.101685 1048.0
134.103302 312.0
135.080215 1296.0
136.091293 228.0
141.077148 148.0
143.08725 176.0
147.116592 228.0
148.998291 168.0
149.027451 140.0
149.096268 704.0
150.103195 540.0
151.112259 1460.0
152.113327 260.0
154.072159 180.0
154.277267 224.0
155.089188 168.0
156.092667 468.0
157.103363 320.0
157.273041 200.0
157.500259 140.0
158.083313 168.0
158.987442 192.0
159.081146 4008.0
160.082794 692.0
161.062042 156.0
161.101776 236.0
163.075394 128.0
163.111511 716.0
164.080627 152.0
164.117432 240.0
164.880814 164.0
166.076462 168.0
166.394669 140.0
166.630951 164.0
167.678238 156.0
169.098862 152.0
170.11998 192.0
171.081558 476.0
171.119644 172.0
171.24588 144.0
172.086884 300.0
172.997971 240.0
173.096893 468.0
174.108963 156.0
175.110001 348.0
176.116608 152.0
176.952255 168.0
176.980621 212.0
177.091019 10948.0
177.36824 144.0
177.728836 156.0
178.09729 1576.0
179.098343 252.0
182.088165 172.0
186.102295 796.0
187.111679 588.0
188.112213 184.0
189.096878 180.0
189.126343 256.0
194.110825 152.0
195.12149 160.0
197.101044 136.0
197.130127 188.0
198.103638 176.0
199.115967 224.0
200.11554 136.0
201.12709 1216.0
202.133987 276.0
203.144836 896.0
204.145584 224.0
206.107452 156.0
209.134933 176.0
212.113098 168.0
212.292297 192.0
213.128067 1060.0
214.132812 256.0
214.158112 172.0
214.356216 156.0
217.156891 164.0
218.106796 140.0
218.131378 160.0
220.125519 228.0
221.132614 152.0
222.134338 300.0
223.107224 360.0
223.143585 176.0
224.115891 292.0
225.128647 136.0
226.138367 156.0
227.120056 160.0
227.142746 376.0
227.474426 140.0
228.147934 464.0
229.157349 120.0
234.101242 152.0
234.137589 224.0
235.126282 156.0
235.152649 128.0
236.149612 220.0
237.126328 504.0
237.161865 160.0
238.1297 264.0
238.160416 160.0
239.141235 344.0
240.152069 152.0
241.159042 144.0
248.112564 200.0
249.126221 144.0
249.168701 216.0
251.149292 304.0
252.112976 124.0
252.151703 280.0
253.156281 380.0
254.146103 140.0
255.145554 184.0
256.177124 128.0
260.159027 140.0
262.13382 100.0
263.145416 316.0
264.148438 208.0
265.119751 256.0
265.154205 152.0
266.159698 116.0
266.888885 148.0
267.134613 312.0
267.173584 1476.0
267.272705 172.0
268.13562 164.0
268.176727 316.0
269.181274 176.0
277.155731 360.0
278.129822 232.0
278.170624 168.0
279.135895 404.0
280.146515 200.0
281.191071 1564.0
281.617523 152.0
282.203522 204.0
282.282593 140.0
283.209595 296.0
291.879639 212.0
292.177643 136.0
293.896088 164.0
294.083771 244.0
294.16391 208.0
294.196411 160.0
295.171844 132.0
296.17337 140.0
305.893341 216.0
308.611023 144.0
308.907898 176.0
309.185303 6696.0
309.282715 196.0
310.185669 1252.0
310.239014 188.0
311.158936 276.0
311.183868 348.0
311.502319 152.0
312.172882 96.0
325.155212 196.0
326.184082 140.0
327.194519 5752.0
328.198639 1740.0
328.600311 100.0
329.195648 296.0
331.154572 144.0
1153.851562 228.0
1721.494141 196.0
1723.484863 164.0
1755.07605 208.0
1779.180176 160.0
1981.553467 176.0
1981.757202 164.0
1983.857666 168.0
