>compound MLS000515793-01!
>formula C11H11NO3
>ionization [M+H]+
>parentmass 206.082
#inchi InChI=1S/C11H11NO3/c13-10(11(14)15)5-7-6-12-9-4-2-1-3-8(7)9/h1-4,6,10,12-13H,5H2,(H,14,15)
#inchikey XGILAAMKEQUXLS
#Ion_Source LC-ESI
#Instrument qTof
#Compound_Source NIH Natural Product Library
#PI Dorrestein
#Data_Collector VVP/LMS
#Scan -1
#Precursor_MZ 206.082
#ExactMass 205.074
#Charge 1
#CAS_Number N/A
#Pubmed_ID N/A
#Smiles OC(Cc1c[nH]c2ccccc12)C(=O)O
#INCHI_AUX N/A
#Library_Class 1
#SpectrumID CCMSLIB00000080356
#IonMode Positive
#UpdateWorkflowName UPDATE-SINGLE-ANNOTATED-GOLD
#LibraryQualityString Gold
#TaskID b1d8e8f6646f4e71acdff9ca3d919d08
##Scan# 1501
#SpectrumFile p2-G07_GG7_01_18055.mzXML
#LibraryName NIH_Natural_Products_Library.mgf
#MQScore -1
#Organism NIH_Natural_Products_Library
#TIC_Query 0
#RT_Query -1
#MZErrorPPM -1
#SharedPeaks 0
#MassDiff 0
#LibMZ -1
#SpecMZ 206.082
#SpecCharge 0
#internalFilename spec-00000.mgf

>collision 10
95.012711 200.0
95.111687 188.0
97.339363 148.0
102.034866 164.0
102.266205 196.0
103.054482 328.0
103.355988 168.0
112.037689 140.0
113.869553 180.0
114.29686 208.0
115.0541 564.0
115.074097 160.0
115.158134 40.0
116.058441 176.0
116.144882 152.0
116.162041 36.0
116.215675 80.0
116.329422 64.0
116.671005 56.0
116.787125 156.0
117.058952 1148.0
118.064667 2048.0
118.362579 64.0
119.06955 304.0
122.259354 192.0
122.849861 200.0
126.042648 180.0
126.991875 116.0
127.061409 184.0
128.051331 160.0
129.056976 148.0
129.523178 132.0
129.999298 168.0
130.042419 188.0
130.064758 4208.0
130.088226 180.0
130.203629 40.0
130.39447 56.0
130.41037 132.0
131.070602 556.0
131.469421 56.0
131.537903 48.0
131.937683 92.0
132.080521 528.0
132.952408 140.0
133.065765 132.0
133.083252 132.0
133.846649 76.0
137.371918 40.0
139.973526 128.0
140.045364 144.0
141.064392 180.0
142.062332 688.0
143.07338 1052.0
144.042755 252.0
144.077484 648.0
145.082108 236.0
146.06076 120.0
147.259827 104.0
155.061737 160.0
157.991287 140.0
160.077087 132.0
160.369339 64.0
160.8284 40.0
161.085968 148.0
164.542374 188.0
170.061035 440.0
171.070297 48.0
179.987762 128.0
188.071213 144.0
196.929474 216.0
205.084183 248.0
209.102676 140.0
242.995361 120.0
246.901581 128.0
267.814453 100.0
322.904602 108.0
388.872253 52.0
511.401123 76.0
903.296204 180.0
968.522644 104.0
990.116516 104.0
990.179138 52.0
1014.52063 148.0
1016.334473 124.0
1068.80896 136.0
1070.761963 160.0
1092.19751 240.0
1100.950073 144.0
1111.236572 148.0
1116.823364 160.0
1134.452026 144.0
1140.002686 160.0
1142.11377 220.0
1144.657715 96.0
1147.487671 172.0
1153.719116 172.0
1167.279419 144.0
1175.317139 76.0
1176.231689 100.0
1181.863037 228.0
1202.334106 256.0
1252.62854 144.0
1255.962646 248.0
1267.131958 156.0
1269.485229 192.0
1285.762207 152.0
1301.633057 204.0
1306.886353 136.0
1311.02063 168.0
1312.794067 212.0
1318.46106 188.0
1318.699585 180.0
1345.77417 192.0
1349.105713 172.0
1357.723755 148.0
1372.924927 196.0
1375.440796 124.0
1407.154907 224.0
1411.728638 176.0
1412.288696 176.0
1413.365967 96.0
1416.9823 192.0
1427.874146 216.0
1458.206909 168.0
1460.799805 164.0
1490.955811 196.0
