>compound MLS002153332-01!GR 127935 hydrochloride hydrate
>formula C29H31N5O3
>ionization [M+H]+
>parentmass 498.250244
#inchi InChI=1S/C29H31N5O3/c1-19-17-23(28-30-20(2)37-32-28)9-11-25(19)21-5-7-22(8-6-21)29(35)31-24-10-12-27(36-4)26(18-24)34-15-13-33(3)14-16-34/h5-12,17-18H,13-16H2,1-4H3,(H,31,35)
#inchikey YDBCEBYHYKAFRX
#origInchi InChI=1S/C29H31N5O3.ClH/c1-19-17-23(28-30-20(2)37-32-28)9-11-25(19)21-5-7-22(8-6-21)29(35)31-24-10-12-27(36-4)26(18-24)34-15-13-33(3)14-16-34;/h5-12,17-18H,13-16H2,1-4H3,(H,31,35);1H
#Ion_Source LC-ESI
#Instrument qTof
#Compound_Source NIH Pharmacologically Active Library
#PI Dorrestein
#Data_Collector VP/LMS
#Scan -1
#Precursor_MZ 498.259
#ExactMass 497.243
#Charge 1
#CAS_Number N/A
#Pubmed_ID N/A
#Smiles COc1ccc(NC(=O)c2ccc(cc2)c3ccc(cc3C)c4noc(C)n4)cc1N5CCN(C)CC5.Cl
#INCHI_AUX N/A
#Library_Class 1
#SpectrumID CCMSLIB00000085653
#IonMode Positive
#UpdateWorkflowName UPDATE-SINGLE-ANNOTATED-GOLD
#LibraryQualityString Gold
#TaskID d252d724072548979f1f6f1ced849daf
##Scan# 1838
#SpectrumFile p4-D10_GD10_01_18370.mzXML
#LibraryName Pharm_Active_Library.mgf
#MQScore -1
#Organism Pharm_Active_Library
#TIC_Query 0
#RT_Query -1
#MZErrorPPM -1
#SharedPeaks 0
#MassDiff 0
#LibMZ -1
#SpecMZ 498.259
#SpecCharge 0
#internalFilename spec-00000.mgf

>collision 10
44.901958 72.0
44.913757 220.0
44.934372 336.0
44.970673 240.0
44.993923 172.0
45.00605 48.0
45.040325 108.0
45.06316 132.0
45.087631 56.0
45.138336 100.0
45.154778 108.0
45.173107 100.0
45.208492 60.0
45.234665 68.0
45.252068 88.0
45.277287 72.0
45.30238 332.0
45.315018 40.0
45.324398 148.0
45.346573 164.0
45.365261 188.0
45.379353 128.0
45.391308 328.0
45.421112 144.0
45.435043 132.0
45.451782 64.0
45.469872 144.0
45.486176 128.0
45.50816 60.0
45.517559 112.0
45.53994 96.0
45.560089 120.0
45.577332 140.0
45.584663 92.0
45.595905 112.0
45.61026 92.0
45.622833 68.0
45.642525 96.0
45.658043 104.0
45.681564 144.0
45.700867 104.0
45.718246 188.0
45.741932 176.0
45.75317 136.0
45.797367 140.0
45.810535 96.0
45.812916 80.0
45.818096 144.0
45.830563 172.0
45.867359 140.0
45.895668 56.0
45.90583 212.0
45.919945 112.0
45.929386 44.0
45.942425 104.0
45.95097 184.0
45.967773 44.0
46.011494 180.0
46.026554 64.0
46.04121 268.0
46.056789 120.0
46.068848 140.0
46.088337 184.0
46.117771 108.0
46.146198 124.0
46.173855 144.0
46.193806 160.0
46.202599 128.0
46.211731 176.0
46.256393 128.0
46.275345 96.0
46.300159 160.0
46.314438 120.0
46.332157 76.0
46.349842 108.0
46.412819 164.0
46.425755 236.0
46.442234 160.0
46.488457 164.0
46.501053 72.0
46.524807 152.0
46.53949 108.0
46.547237 184.0
46.5583 84.0
46.580536 104.0
46.606297 64.0
46.633869 128.0
46.652508 92.0
46.662781 176.0
46.684261 164.0
46.72649 176.0
46.751801 100.0
46.764374 300.0
46.777683 248.0
46.809467 188.0
46.833488 168.0
46.855286 180.0
46.89344 76.0
46.908783 188.0
46.930481 116.0
46.94252 104.0
46.977982 88.0
46.990971 100.0
47.035522 72.0
47.051678 164.0
47.073906 228.0
47.089119 152.0
47.100952 144.0
47.119965 48.0
47.160961 204.0
47.169979 160.0
47.187447 64.0
47.207443 160.0
47.227959 144.0
47.254269 148.0
47.26543 184.0
47.271172 164.0
47.274887 248.0
47.289532 48.0
47.312534 164.0
47.360683 124.0
47.390869 116.0
47.416904 136.0
47.43198 76.0
47.443802 180.0
47.475189 164.0
47.494019 132.0
47.509186 84.0
47.536217 28.0
47.554935 100.0
47.580395 172.0
47.593166 92.0
47.60313 120.0
47.628204 152.0
47.656071 112.0
47.692783 68.0
47.716496 208.0
47.72089 108.0
47.738968 128.0
47.772541 52.0
47.796646 148.0
47.824829 108.0
47.83939 120.0
47.855946 224.0
47.869602 100.0
47.880833 160.0
47.904694 100.0
47.920559 148.0
47.936386 132.0
47.970055 188.0
48.001797 292.0
48.019371 144.0
48.036381 152.0
48.079807 184.0
48.100361 148.0
48.104946 132.0
48.108498 56.0
48.134693 116.0
48.150215 172.0
48.177841 124.0
48.198566 96.0
48.211006 96.0
48.233719 120.0
48.256618 112.0
48.284275 196.0
48.293957 148.0
48.32024 128.0
48.347637 232.0
48.378368 196.0
48.414997 164.0
48.424721 84.0
48.453804 136.0
48.471958 112.0
48.483639 76.0
48.498882 64.0
48.519676 80.0
48.558502 44.0
48.575146 116.0
48.596893 100.0
48.608444 72.0
48.625099 216.0
48.646515 112.0
48.666744 124.0
48.677277 124.0
48.691742 84.0
48.714153 148.0
48.727856 168.0
48.766232 176.0
48.784275 148.0
48.811253 100.0
48.837105 120.0
48.85437 80.0
48.866516 208.0
48.884979 164.0
48.918385 176.0
48.953194 96.0
48.983284 132.0
48.987457 80.0
49.00473 64.0
49.017273 84.0
49.042099 108.0
49.057388 92.0
49.093945 32.0
49.105099 104.0
49.128059 108.0
49.149879 80.0
49.171246 88.0
49.188644 32.0
49.20557 84.0
49.219536 192.0
49.231686 132.0
49.268108 108.0
49.28849 120.0
49.325603 152.0
49.346684 160.0
49.361717 96.0
49.363846 132.0
49.390038 144.0
49.406822 88.0
49.418015 164.0
49.430408 168.0
49.446003 96.0
49.464897 88.0
49.48497 212.0
49.504803 112.0
49.545422 144.0
49.565037 168.0
49.578152 256.0
49.593067 96.0
49.621101 64.0
49.639332 136.0
49.655285 160.0
49.682812 188.0
49.71386 220.0
49.725609 176.0
49.736214 144.0
49.756668 128.0
49.770298 104.0
49.783195 112.0
49.816002 96.0
49.830227 104.0
49.844913 168.0
49.865356 140.0
49.885036 416.0
49.896843 156.0
49.92527 188.0
49.928566 188.0
49.950283 140.0
49.966061 52.0
49.984604 156.0
50.005974 180.0
50.009426 176.0
50.028381 276.0
50.050362 212.0
50.076584 92.0
50.08971 196.0
50.127117 248.0
50.140045 92.0
50.149666 148.0
50.163765 144.0
50.179272 104.0
50.199013 88.0
50.221928 80.0
50.232231 188.0
50.24556 88.0
50.262737 136.0
50.283867 108.0
50.297024 136.0
50.333599 132.0
50.364136 92.0
50.387569 116.0
50.396545 68.0
50.4002 144.0
50.424339 224.0
50.457405 112.0
50.488514 80.0
50.498413 172.0
50.542267 80.0
50.553589 84.0
50.569866 88.0
50.580776 212.0
50.647034 172.0
50.657787 236.0
50.683193 160.0
50.694859 164.0
50.706539 96.0
50.726383 156.0
50.737724 80.0
50.749069 108.0
50.784195 132.0
50.79665 164.0
50.826466 92.0
50.859749 160.0
50.879597 148.0
50.898056 168.0
50.90889 68.0
50.927879 80.0
50.93782 84.0
50.957157 164.0
50.98798 172.0
50.992615 128.0
50.996552 192.0
51.037891 208.0
51.056046 180.0
51.072575 140.0
51.097042 72.0
51.121231 28.0
51.141716 112.0
51.156815 108.0
51.178169 88.0
51.195126 152.0
51.210926 92.0
51.257938 36.0
51.270763 120.0
51.282166 168.0
51.297844 76.0
51.314636 36.0
51.332062 92.0
51.359161 176.0
51.386265 84.0
51.404243 100.0
51.411575 176.0
51.415062 156.0
51.433643 100.0
51.454445 104.0
51.465736 100.0
51.483288 132.0
51.500912 272.0
51.511898 112.0
51.521896 268.0
51.55619 80.0
51.61219 228.0
51.62624 120.0
51.647488 112.0
51.650841 140.0
51.661827 160.0
51.679489 124.0
51.717804 112.0
51.767555 144.0
51.782234 168.0
51.796558 136.0
51.815182 128.0
51.85244 184.0
51.862473 68.0
51.87653 104.0
51.894012 68.0
51.943932 168.0
51.978638 96.0
51.988686 172.0
52.011517 160.0
52.034618 104.0
52.048977 40.0
52.067924 144.0
52.083637 148.0
52.100075 104.0
52.116234 136.0
52.129307 156.0
52.143791 60.0
52.164486 120.0
52.178101 152.0
52.194103 180.0
52.211266 120.0
52.227707 176.0
52.264587 120.0
52.285454 56.0
52.302921 140.0
52.317448 264.0
52.327915 100.0
52.345196 56.0
52.381203 88.0
52.414543 112.0
52.432526 232.0
52.441719 196.0
52.534008 104.0
52.558109 68.0
52.58884 96.0
52.614822 128.0
52.639107 308.0
52.65416 216.0
52.677841 132.0
52.696106 128.0
52.72097 284.0
52.735573 156.0
52.752064 156.0
52.767899 236.0
52.771202 164.0
52.775806 192.0
52.801228 96.0
52.821476 36.0
52.835941 156.0
52.853306 64.0
52.87067 184.0
52.883694 196.0
52.916988 120.0
52.92878 280.0
52.947906 80.0
52.977428 140.0
53.015488 88.0
53.068626 164.0
53.088501 148.0
53.120285 72.0
53.150349 132.0
53.16341 160.0
53.202164 80.0
53.222435 212.0
53.234543 224.0
53.250519 72.0
53.294102 200.0
53.314659 216.0
53.330429 100.0
53.34206 128.0
53.368229 148.0
53.391495 128.0
53.435398 176.0
53.451138 92.0
53.510815 116.0
53.52597 108.0
53.545765 44.0
53.639015 136.0
53.65163 124.0
53.665257 108.0
53.694866 184.0
53.718834 152.0
53.738186 112.0
53.772186 160.0
53.786343 120.0
53.798023 148.0
53.81982 116.0
53.868332 164.0
53.890678 172.0
53.905762 136.0
53.922913 152.0
53.95322 108.0
53.974808 60.0
53.99226 120.0
54.015564 180.0
54.046482 88.0
54.071362 108.0
54.087891 140.0
54.117554 108.0
54.140282 104.0
54.163605 100.0
54.179718 212.0
54.213634 108.0
54.231007 72.0
54.282074 144.0
54.291485 160.0
54.305782 104.0
54.32045 104.0
54.333111 108.0
54.34539 136.0
54.361534 76.0
54.37619 196.0
54.397987 96.0
54.419704 260.0
54.436401 116.0
54.449051 192.0
54.462303 168.0
54.480316 80.0
54.491352 68.0
54.523075 96.0
54.551003 152.0
54.56805 124.0
54.578266 176.0
54.606876 92.0
54.641411 204.0
54.656895 216.0
54.684856 60.0
54.705463 60.0
54.733437 144.0
54.754055 136.0
54.768158 168.0
54.778584 184.0
54.794758 228.0
54.828804 164.0
54.838966 76.0
54.860382 156.0
54.872547 68.0
54.902321 192.0
54.932404 172.0
54.966339 176.0
54.978867 180.0
55.007938 172.0
55.020035 168.0
55.051956 96.0
55.06377 112.0
55.081497 100.0
55.097691 108.0
55.101665 104.0
55.134686 144.0
55.150513 164.0
55.163261 156.0
55.178349 268.0
55.195297 104.0
55.223122 196.0
55.237419 224.0
55.254185 132.0
55.305454 176.0
55.325497 152.0
55.349579 212.0
55.371975 124.0
55.387321 112.0
55.405308 148.0
55.442112 132.0
55.455372 136.0
55.470673 144.0
55.481052 100.0
55.504776 168.0
55.52702 64.0
55.538883 68.0
55.55563 208.0
55.580425 92.0
55.60899 120.0
55.62133 64.0
55.635651 96.0
55.676323 120.0
55.697708 60.0
55.708107 132.0
55.718506 180.0
55.742279 264.0
55.776463 80.0
55.804302 132.0
55.831474 100.0
55.853786 288.0
55.870148 64.0
55.884098 128.0
55.904846 60.0
55.916275 96.0
55.929539 92.0
55.964088 188.0
55.983959 104.0
56.020508 116.0
56.031746 228.0
56.08572 84.0
56.103962 104.0
56.120735 128.0
56.136856 64.0
56.153069 124.0
56.163174 96.0
56.169304 176.0
56.190567 112.0
56.209858 92.0
56.220306 56.0
56.243332 112.0
56.262096 56.0
56.276653 112.0
56.288975 124.0
56.300838 72.0
56.332287 280.0
56.354698 220.0
56.372028 140.0
56.389069 100.0
56.415005 148.0
56.436104 308.0
56.484856 160.0
56.508698 80.0
56.540123 112.0
56.553841 144.0
56.603836 200.0
56.635357 112.0
56.675938 92.0
56.707985 76.0
56.727066 204.0
56.778156 172.0
56.801502 328.0
56.81554 124.0
56.839836 148.0
56.854843 164.0
56.886364 188.0
56.901375 64.0
56.923897 120.0
56.938915 116.0
56.962948 272.0
56.987576 132.0
57.023052 160.0
57.055607 164.0
57.083267 72.0
57.114216 228.0
57.133923 180.0
57.158634 76.0
57.177963 104.0
57.210495 124.0
57.226131 116.0
57.262272 184.0
57.276093 92.0
57.300751 196.0
57.329216 172.0
57.360909 228.0
57.375286 92.0
57.403934 204.0
57.440941 112.0
57.455219 116.0
57.477673 168.0
57.500488 128.0
57.516388 112.0
57.543739 92.0
57.569328 120.0
57.580593 80.0
57.591076 156.0
57.604671 128.0
57.635281 148.0
57.655155 136.0
57.660469 56.0
57.665981 132.0
57.692623 80.0
57.719536 168.0
57.735138 176.0
57.748272 84.0
57.768719 276.0
57.788757 136.0
57.804871 116.0
57.814014 88.0
57.828011 252.0
57.866306 168.0
57.884216 212.0
57.902649 116.0
57.932941 140.0
57.948986 88.0
57.986496 128.0
58.009647 180.0
58.029255 80.0
58.044998 60.0
58.053654 156.0
58.064816 136.0
58.079983 264.0
58.09988 68.0
58.128853 132.0
58.145763 180.0
58.158882 36.0
58.222775 224.0
58.246952 44.0
58.265789 100.0
58.278656 120.0
58.297554 160.0
58.321407 68.0
58.354599 72.0
58.375462 176.0
58.387432 132.0
58.406559 112.0
58.425785 232.0
58.464375 100.0
58.499939 240.0
58.54388 160.0
58.563404 212.0
58.5839 56.0
58.633232 168.0
58.647141 232.0
58.65781 168.0
58.681416 248.0
58.69989 100.0
58.744728 148.0
58.779819 180.0
58.800144 88.0
58.823914 136.0
58.832859 128.0
58.837059 112.0
58.842999 184.0
58.875019 144.0
58.885887 92.0
58.911869 140.0
58.938625 140.0
59.000195 224.0
59.020546 108.0
59.065517 68.0
59.083031 152.0
59.098759 176.0
59.131145 192.0
59.136368 132.0
59.157696 152.0
59.171112 32.0
59.184891 44.0
59.197144 304.0
59.217598 112.0
59.275047 112.0
59.278645 176.0
59.314548 152.0
59.347462 260.0
59.385265 144.0
59.413261 100.0
59.471573 68.0
59.482315 64.0
59.514923 100.0
59.53759 208.0
59.592823 208.0
59.605183 200.0
59.626259 240.0
59.655903 176.0
59.67976 164.0
59.702675 88.0
59.71587 124.0
59.734329 80.0
59.762245 96.0
59.77953 212.0
59.804363 296.0
59.820503 120.0
59.874393 148.0
59.901829 148.0
59.908024 120.0
59.914204 128.0
59.937744 164.0
59.964779 156.0
60.00383 108.0
60.014626 208.0
60.054722 96.0
60.068134 228.0
60.081223 156.0
60.108715 104.0
60.124149 60.0
60.158764 140.0
60.172298 268.0
60.218327 64.0
60.252586 168.0
60.269146 192.0
60.292484 100.0
60.316574 220.0
60.400715 136.0
60.415489 80.0
60.436222 80.0
60.43824 172.0
60.47963 72.0
60.490467 100.0
60.510391 124.0
60.542889 112.0
60.552402 140.0
60.581486 108.0
60.592495 68.0
60.614182 100.0
60.657085 164.0
60.674492 152.0
60.704845 196.0
60.724438 156.0
60.735947 152.0
60.748993 188.0
60.775631 160.0
60.827843 168.0
60.840096 172.0
60.864105 128.0
60.896351 168.0
60.908772 116.0
60.915005 88.0
60.919277 184.0
60.958862 128.0
60.975956 144.0
60.996162 136.0
61.006718 76.0
61.023098 196.0
61.046253 140.0
61.063972 216.0
61.094131 64.0
61.120583 96.0
61.151142 88.0
61.187172 92.0
61.19923 192.0
61.210865 100.0
61.221767 92.0
61.265778 156.0
61.285633 60.0
61.2981 132.0
61.322254 392.0
61.336102 104.0
61.351093 240.0
61.365566 172.0
61.37851 136.0
61.438423 92.0
61.461086 168.0
61.507088 108.0
61.527382 52.0
61.558769 116.0
61.572197 228.0
61.590424 184.0
61.604465 100.0
61.619526 88.0
61.647652 192.0
61.661716 44.0
61.681988 132.0
61.69767 92.0
61.720444 120.0
61.741161 108.0
61.747337 68.0
61.753464 100.0
61.78212 148.0
61.793625 168.0
61.80872 212.0
61.835125 268.0
61.852539 232.0
61.876022 92.0
61.89698 124.0
61.915169 132.0
61.949627 116.0
61.963726 168.0
61.976261 68.0
62.013737 92.0
62.035759 108.0
62.073742 64.0
62.087559 248.0
62.098034 112.0
62.119976 168.0
62.153446 120.0
62.166653 144.0
62.206425 148.0
62.225647 28.0
62.241997 116.0
62.248001 152.0
62.268044 116.0
62.279037 156.0
62.296501 136.0
62.308887 116.0
62.321281 108.0
62.327019 96.0
62.333084 160.0
62.356026 156.0
62.396896 180.0
62.418911 52.0
62.433487 316.0
62.454601 144.0
62.489128 212.0
62.493858 136.0
62.497826 164.0
62.510906 116.0
62.517567 56.0
62.521229 96.0
62.531666 184.0
62.552334 164.0
62.606174 56.0
62.623947 148.0
62.661263 152.0
62.691906 152.0
62.754295 228.0
62.788746 104.0
62.823746 304.0
62.837303 204.0
62.861557 100.0
62.880493 56.0
62.891544 56.0
62.92522 152.0
62.942062 160.0
62.956276 32.0
62.972069 104.0
63.006207 124.0
63.022621 132.0
63.043163 76.0
63.05743 140.0
63.071693 156.0
63.078686 84.0
63.084991 112.0
63.102207 196.0
63.119041 184.0
63.132877 144.0
63.183887 84.0
63.227123 136.0
63.241604 152.0
63.255196 68.0
63.286766 176.0
63.314514 252.0
63.326405 252.0
63.339027 204.0
63.359619 84.0
63.379803 228.0
63.391369 216.0
63.403988 104.0
63.419704 104.0
63.447102 120.0
63.483253 72.0
63.502285 128.0
63.51339 120.0
63.534012 136.0
63.550606 148.0
63.563446 152.0
63.6049 196.0
63.637638 204.0
63.674629 68.0
63.684345 136.0
63.716022 88.0
63.739624 120.0
63.756824 136.0
63.774818 164.0
63.799801 176.0
63.838631 152.0
63.852238 308.0
63.894646 128.0
63.916378 176.0
63.932835 108.0
63.950161 140.0
63.954807 124.0
63.965462 88.0
63.982178 108.0
64.016388 232.0
64.033134 144.0
64.055435 76.0
64.071365 52.0
64.086258 120.0
64.115982 148.0
64.134705 124.0
64.157486 200.0
64.169975 160.0
64.19339 180.0
64.21698 104.0
64.257896 56.0
64.28981 68.0
64.304176 180.0
64.336845 132.0
64.36338 140.0
64.380806 56.0
64.412399 144.0
64.430321 296.0
64.44828 100.0
64.467606 216.0
64.487854 120.0
64.515121 192.0
64.542206 176.0
64.562996 132.0
64.580589 172.0
64.593384 140.0
64.610153 128.0
64.637344 136.0
64.653564 176.0
64.680664 132.0
64.710205 124.0
64.731026 140.0
64.783882 108.0
64.7985 128.0
64.82151 156.0
64.843307 132.0
64.861633 268.0
64.876823 148.0
64.902481 220.0
64.924385 176.0
64.939362 120.0
64.952194 244.0
64.965744 72.0
64.984787 156.0
64.999329 116.0
65.028008 128.0
65.059715 124.0
65.070198 64.0
65.087006 156.0
65.135185 136.0
65.148041 100.0
65.17234 216.0
65.193031 252.0
65.207489 180.0
65.223381 104.0
65.257324 156.0
65.279839 68.0
65.302979 72.0
65.315216 208.0
65.331245 136.0
65.345787 144.0
65.377968 148.0
65.409698 84.0
65.419167 148.0
65.47039 136.0
65.48584 60.0
65.515648 128.0
65.538513 120.0
65.563171 116.0
65.593735 192.0
65.611526 168.0
65.630875 72.0
65.649994 112.0
65.663452 220.0
65.68248 144.0
65.702576 288.0
65.732498 160.0
65.74379 132.0
65.755089 96.0
65.781349 184.0
65.809975 76.0
65.837425 188.0
65.853577 112.0
65.87072 152.0
65.898575 136.0
65.908066 220.0
65.947289 172.0
65.976387 72.0
65.999435 312.0
66.016624 184.0
66.034599 36.0
66.058548 104.0
66.086853 292.0
66.121964 116.0
66.160355 112.0
66.181168 140.0
66.196434 184.0
66.220726 100.0
66.251266 184.0
66.279045 184.0
66.293106 216.0
66.311455 116.0
66.350365 80.0
66.371979 72.0
66.384743 236.0
66.397385 124.0
66.413574 188.0
66.444427 100.0
66.465523 92.0
66.487373 172.0
66.515594 108.0
66.542572 284.0
66.583038 144.0
66.606766 96.0
66.669853 284.0
66.691818 116.0
66.706154 172.0
66.733528 352.0
66.748161 120.0
66.796417 140.0
66.82119 176.0
66.851486 100.0
66.854362 140.0
66.872391 132.0
66.887955 296.0
66.909332 72.0
66.913414 128.0
66.941803 136.0
66.953201 160.0
66.977898 124.0
66.994827 108.0
67.024979 388.0
67.101196 96.0
67.130836 164.0
67.145515 52.0
67.171425 104.0
67.198662 184.0
67.216667 208.0
67.223564 128.0
67.227089 188.0
67.234428 128.0
67.240944 252.0
67.26358 100.0
67.284218 132.0
67.295639 52.0
67.309227 212.0
67.329933 40.0
67.350235 56.0
67.371452 144.0
67.419792 120.0
67.442673 184.0
67.476997 64.0
67.500435 252.0
67.520638 128.0
67.540504 120.0
67.556335 188.0
67.577469 56.0
67.608879 160.0
67.634209 40.0
67.649506 144.0
67.701172 56.0
67.722466 104.0
67.747032 116.0
67.763855 164.0
67.799469 104.0
67.833885 84.0
67.847 48.0
67.878395 140.0
67.901962 124.0
67.912598 336.0
67.926353 144.0
67.943062 112.0
67.957954 92.0
67.962364 140.0
67.978218 224.0
68.014328 108.0
68.032494 116.0
68.048798 52.0
68.067444 88.0
68.083282 124.0
68.09478 72.0
68.107918 64.0
68.137993 156.0
68.161125 152.0
68.185143 200.0
68.198288 120.0
68.219658 172.0
68.242493 108.0
68.262581 76.0
68.295464 40.0
68.315041 52.0
68.362114 144.0
68.38343 128.0
68.409737 148.0
68.416931 184.0
68.420586 212.0
68.458237 100.0
68.479591 120.0
68.516739 124.0
68.539658 112.0
68.546638 48.0
68.54966 96.0
68.566963 168.0
68.598244 152.0
68.60228 180.0
68.619064 132.0
68.637444 128.0
68.658188 92.0
68.696388 104.0
68.715302 92.0
68.738327 172.0
68.755737 96.0
68.780396 144.0
68.811432 160.0
68.829262 160.0
68.850166 132.0
68.899025 144.0
68.914413 88.0
68.945892 180.0
68.98452 128.0
69.007713 44.0
69.037476 140.0
69.052361 76.0
69.073868 104.0
69.089302 84.0
69.120132 116.0
69.134392 172.0
69.158257 28.0
69.175125 124.0
69.215729 120.0
69.227112 128.0
69.242691 68.0
69.268814 104.0
69.271523 128.0
69.287643 352.0
69.312889 180.0
69.333115 236.0
69.353706 32.0
69.379562 180.0
69.409958 120.0
69.431152 52.0
69.445335 156.0
69.502342 248.0
69.512123 100.0
69.516853 108.0
69.523254 140.0
69.547737 132.0
69.566025 132.0
69.585953 52.0
69.601112 152.0
69.620819 84.0
69.650131 128.0
69.672905 112.0
69.688301 148.0
69.713852 140.0
69.736832 184.0
69.762054 52.0
69.798134 108.0
69.82106 180.0
69.84024 232.0
69.85302 188.0
69.878471 60.0
69.891777 40.0
69.917381 128.0
69.948051 172.0
69.967232 132.0
70.010521 96.0
70.046059 132.0
70.056778 152.0
70.074272 132.0
70.093262 64.0
70.13665 120.0
70.151596 104.0
70.179878 120.0
70.184448 136.0
70.233299 176.0
70.252853 188.0
70.283722 128.0
70.297905 260.0
70.335091 116.0
70.353836 52.0
70.371819 140.0
70.393936 160.0
70.41523 116.0
70.456993 140.0
70.479836 156.0
70.497536 188.0
70.51548 96.0
70.528847 88.0
70.545563 96.0
70.560608 72.0
70.580673 100.0
70.627502 76.0
70.645622 260.0
70.65773 112.0
70.678543 220.0
70.694427 60.0
70.738754 140.0
70.767975 200.0
70.781845 268.0
70.822258 180.0
70.82663 104.0
70.832428 216.0
70.853493 92.0
70.87619 232.0
70.887817 212.0
70.900681 60.0
70.923874 124.0
70.938965 120.0
70.950699 92.0
70.969879 208.0
70.975609 92.0
70.981979 164.0
71.009949 108.0
71.015144 92.0
71.022263 148.0
71.037903 108.0
71.060234 204.0
71.073135 136.0
71.093636 92.0
71.126839 32.0
71.148659 224.0
71.16713 232.0
71.206787 52.0
71.222511 216.0
71.228264 80.0
71.234924 160.0
71.249428 116.0
71.298882 176.0
71.315948 180.0
71.351944 172.0
71.407433 108.0
71.436844 124.0
71.482529 104.0
71.515114 136.0
71.528976 120.0
71.542053 316.0
71.552864 164.0
71.585831 100.0
71.604355 100.0
71.633904 172.0
71.654884 96.0
71.741013 76.0
71.757698 128.0
71.769501 224.0
71.786072 152.0
71.822739 228.0
71.857536 144.0
71.873337 92.0
71.888283 144.0
71.90387 180.0
71.929375 152.0
71.9459 144.0
71.963646 124.0
71.991463 152.0
72.009903 96.0
72.039536 144.0
72.051361 120.0
72.063599 88.0
72.080086 120.0
72.091911 64.0
72.110634 160.0
72.13163 88.0
72.146004 140.0
72.174461 204.0
72.183609 132.0
72.204643 100.0
72.211349 68.0
72.218384 144.0
72.245781 116.0
72.279617 64.0
72.308388 96.0
72.326805 136.0
72.346992 124.0
72.370979 148.0
72.410393 176.0
72.423515 172.0
72.436928 192.0
72.459091 88.0
72.489326 128.0
72.516167 208.0
72.540436 76.0
72.554436 140.0
72.565872 280.0
72.584518 88.0
72.615936 84.0
72.653816 168.0
72.723473 124.0
72.762451 264.0
72.791183 284.0
72.826134 76.0
72.862 116.0
72.899727 256.0
72.921928 128.0
72.946152 136.0
72.966553 148.0
72.985252 28.0
73.01416 152.0
73.027771 152.0
73.054985 108.0
73.080505 120.0
73.104858 296.0
73.139748 244.0
73.170708 120.0
73.193977 144.0
73.207878 92.0
73.214539 76.0
73.23822 156.0
73.256737 156.0
73.281418 28.0
73.306976 180.0
73.322311 76.0
73.35981 60.0
73.381973 84.0
73.416336 132.0
73.440071 60.0
73.457016 68.0
73.492027 92.0
73.517776 124.0
73.570213 108.0
73.591835 48.0
73.613258 132.0
73.626846 208.0
73.646484 124.0
73.666214 132.0
73.67894 80.0
73.742798 184.0
73.754616 180.0
73.807129 216.0
73.833885 180.0
73.866989 80.0
73.901855 136.0
73.927635 108.0
73.952034 160.0
73.971565 144.0
73.997559 108.0
74.018288 148.0
74.042374 120.0
74.059006 136.0
74.09169 232.0
74.119392 140.0
74.136978 196.0
74.177818 108.0
74.197914 100.0
74.212936 172.0
74.273193 88.0
74.295258 236.0
74.320992 136.0
74.346733 120.0
74.364548 116.0
74.375908 180.0
74.411964 80.0
74.449738 288.0
74.501205 116.0
74.525726 84.0
74.558929 100.0
74.575722 220.0
74.600945 140.0
74.618134 44.0
74.651329 156.0
74.676247 136.0
74.686203 164.0
74.731514 100.0
74.734055 120.0
74.757462 92.0
74.771225 140.0
74.7892 108.0
74.849174 144.0
74.865913 160.0
74.890022 32.0
74.908974 92.0
74.933563 276.0
74.9496 124.0
74.974449 216.0
75.00547 176.0
75.030319 136.0
75.049774 132.0
75.070503 124.0
75.103409 40.0
75.128006 196.0
75.164139 200.0
75.176323 128.0
75.207565 124.0
75.236343 96.0
75.25528 164.0
75.277077 136.0
75.297806 236.0
75.326118 396.0
75.397926 164.0
75.443001 280.0
75.462158 52.0
75.476395 88.0
75.506187 136.0
75.521751 212.0
75.533859 56.0
75.571922 132.0
75.634529 136.0
75.649803 192.0
75.670578 112.0
75.705902 120.0
75.728821 152.0
75.753708 184.0
75.769623 276.0
75.784836 136.0
75.796898 176.0
75.833672 248.0
75.878487 56.0
75.891342 120.0
75.912323 72.0
75.941315 120.0
75.954788 88.0
76.010307 148.0
76.046608 196.0
76.058167 76.0
76.064949 148.0
76.079247 320.0
76.094643 156.0
76.105476 116.0
76.127907 376.0
76.166557 84.0
76.198555 172.0
76.225624 72.0
76.270226 180.0
76.287468 196.0
76.324707 204.0
76.346054 116.0
76.357353 124.0
76.400177 124.0
76.421051 164.0
76.437775 176.0
76.47084 100.0
76.505653 104.0
76.521324 168.0
76.553902 108.0
76.568886 256.0
76.601433 120.0
76.627563 48.0
76.65049 76.0
76.67984 132.0
76.715828 88.0
76.737366 104.0
76.751312 136.0
76.768082 120.0
76.78212 48.0
76.785759 192.0
76.826309 116.0
76.853653 220.0
76.869026 208.0
76.882149 252.0
76.909721 104.0
76.928001 148.0
76.941109 196.0
76.953651 216.0
76.965416 160.0
76.994034 264.0
77.014839 236.0
77.031418 244.0
77.058846 124.0
77.084419 184.0
77.119469 196.0
77.128616 144.0
77.142395 136.0
77.161057 156.0
77.180672 112.0
77.185333 100.0
77.195694 124.0
77.241043 204.0
77.278809 68.0
77.298607 140.0
77.322556 128.0
77.35955 180.0
77.373726 156.0
77.387329 160.0
77.415344 76.0
77.453873 132.0
77.473145 124.0
77.490662 124.0
77.505722 168.0
77.525711 84.0
77.543556 108.0
77.581795 152.0
77.610489 164.0
77.637909 124.0
77.668045 64.0
77.708069 96.0
77.723862 76.0
77.737495 52.0
77.750847 64.0
77.779663 196.0
77.806358 72.0
77.820404 64.0
77.840347 64.0
77.910599 280.0
77.941597 160.0
77.964439 140.0
77.985535 124.0
77.997261 156.0
78.011902 72.0
78.035866 152.0
78.063019 164.0
78.08223 120.0
78.100731 108.0
78.13958 100.0
78.154358 232.0
78.169289 132.0
78.184273 92.0
78.2024 120.0
78.289902 124.0
78.302231 112.0
78.325844 180.0
78.353661 196.0
78.375717 212.0
78.400703 188.0
78.428078 220.0
78.441429 116.0
78.453766 132.0
78.487267 144.0
78.501373 124.0
78.526917 148.0
78.541939 96.0
78.565895 96.0
78.601921 124.0
78.646042 136.0
78.711617 140.0
78.753746 76.0
78.778481 52.0
78.818054 100.0
78.850922 112.0
78.896881 132.0
78.922249 208.0
78.941559 180.0
78.963341 144.0
78.984802 152.0
79.036545 116.0
79.058029 148.0
79.115242 136.0
79.135727 56.0
79.149002 256.0
79.195938 164.0
79.229591 136.0
79.246719 220.0
79.274513 156.0
79.291611 64.0
79.318245 148.0
79.334152 124.0
79.355431 40.0
79.375725 140.0
79.389893 92.0
79.409309 124.0
79.436592 68.0
79.458298 68.0
79.490234 64.0
79.524574 120.0
79.54348 96.0
79.570107 72.0
79.582535 120.0
79.602287 64.0
79.616272 48.0
79.63591 148.0
79.680542 132.0
79.702225 104.0
79.732292 164.0
79.748413 120.0
79.79731 200.0
79.818161 112.0
79.8517 128.0
79.875336 148.0
79.902458 96.0
79.936195 108.0
79.940025 104.0
79.94783 64.0
79.985985 64.0
79.990417 112.0
80.003166 156.0
80.022453 176.0
80.087593 332.0
80.10006 180.0
80.126648 108.0
80.144386 100.0
80.17382 220.0
80.194077 204.0
80.206291 52.0
80.213463 144.0
80.256523 128.0
80.330902 40.0
80.365692 60.0
80.413513 156.0
80.502869 104.0
80.523735 120.0
80.529037 64.0
80.564651 128.0
80.583519 144.0
80.622833 196.0
80.659821 156.0
80.706848 76.0
80.721832 116.0
80.770607 172.0
80.7948 160.0
80.814781 92.0
80.839218 164.0
80.867386 152.0
80.903656 84.0
80.917976 244.0
80.944344 232.0
80.956787 132.0
80.980652 80.0
80.996773 200.0
81.038971 232.0
81.056953 88.0
81.061821 144.0
81.06942 132.0
81.073814 84.0
81.093529 144.0
81.136368 168.0
81.152687 44.0
81.20047 180.0
81.215454 96.0
81.242584 64.0
81.304359 116.0
81.338303 224.0
81.364395 156.0
81.434853 136.0
81.463783 268.0
81.479591 104.0
81.508972 124.0
81.533943 108.0
81.560204 88.0
81.576385 112.0
81.604385 160.0
81.643311 128.0
81.662689 120.0
81.679588 112.0
81.69799 112.0
81.722763 164.0
81.749962 220.0
81.792557 172.0
81.849213 124.0
81.869194 232.0
81.896095 136.0
81.917969 132.0
81.924011 160.0
81.93631 216.0
81.954285 184.0
81.997574 92.0
82.011993 200.0
82.037231 224.0
82.052658 144.0
82.081779 164.0
82.126541 88.0
82.13382 92.0
82.178391 148.0
82.201363 112.0
82.228432 96.0
82.251892 96.0
82.268929 92.0
82.284393 288.0
82.312126 188.0
82.354362 112.0
82.377251 152.0
82.404572 192.0
82.430046 156.0
82.454826 204.0
82.477684 48.0
82.495758 56.0
82.51342 160.0
82.591599 80.0
82.606071 72.0
82.625206 76.0
82.640297 100.0
82.660347 80.0
82.687492 116.0
82.751755 168.0
82.763527 28.0
82.781021 140.0
82.79612 136.0
82.814232 240.0
82.832069 148.0
82.868576 76.0
82.906631 176.0
82.951942 92.0
82.986389 76.0
83.000763 108.0
83.028 144.0
83.04805 64.0
83.064018 144.0
83.080528 128.0
83.097031 128.0
83.120613 144.0
83.150467 204.0
83.188751 108.0
83.215004 132.0
83.228195 196.0
83.245186 184.0
83.257423 88.0
83.298676 160.0
83.336693 72.0
83.360313 160.0
83.387573 196.0
83.414101 188.0
83.448685 156.0
83.475479 272.0
83.502113 172.0
83.52758 36.0
83.56942 88.0
83.591972 164.0
83.61306 220.0
83.638054 196.0
83.657486 124.0
83.697746 116.0
83.737289 132.0
83.763115 132.0
83.814308 216.0
83.849815 172.0
83.875374 172.0
83.908188 48.0
83.94101 160.0
84.002983 212.0
84.032211 116.0
84.060539 44.0
84.07589 124.0
84.09565 124.0
84.123459 56.0
84.140968 224.0
84.15815 196.0
84.171944 104.0
84.187363 200.0
84.20015 56.0
84.22937 52.0
84.245811 148.0
84.279686 104.0
84.287315 56.0
84.292152 88.0
84.309944 164.0
84.372551 160.0
84.395683 148.0
84.417213 196.0
84.439568 208.0
84.476242 80.0
84.498108 72.0
84.526703 184.0
84.561378 104.0
84.589867 112.0
84.628052 92.0
84.6427 164.0
84.670174 132.0
84.695816 132.0
84.720543 72.0
84.751831 176.0
84.78038 184.0
84.804337 244.0
84.849403 188.0
84.901085 144.0
84.920227 208.0
84.957146 64.0
85.011162 196.0
85.02951 160.0
85.047867 128.0
85.066223 96.0
85.094589 124.0
85.156326 224.0
85.226006 128.0
85.244377 120.0
85.25724 148.0
85.281906 124.0
85.327087 136.0
85.367546 140.0
85.384094 40.0
85.406708 68.0
85.453285 156.0
85.48011 216.0
85.5 120.0
85.520859 108.0
85.534966 296.0
85.55706 56.0
85.571785 176.0
85.604935 116.0
85.62854 244.0
85.662354 112.0
85.694313 92.0
85.712646 84.0
85.737015 212.0
85.765221 168.0
85.795311 148.0
85.81868 136.0
85.834724 112.0
85.851738 108.0
85.874527 308.0
85.910896 208.0
85.932907 60.0
85.949638 148.0
85.971786 60.0
85.989433 128.0
86.014969 80.0
86.072601 104.0
86.106262 140.0
86.13118 160.0
86.17823 144.0
86.198921 408.0
86.212746 100.0
86.223946 104.0
86.248116 296.0
86.261093 176.0
86.27552 200.0
86.298187 208.0
86.312782 128.0
86.381958 100.0
86.40786 104.0
86.428711 224.0
86.44455 352.0
86.465767 96.0
86.504097 128.0
86.518372 112.0
86.545593 96.0
86.567047 152.0
86.615456 200.0
86.661308 184.0
86.691162 144.0
86.70784 56.0
86.735641 48.0
86.752327 48.0
86.765892 52.0
86.780136 120.0
86.793114 80.0
86.809807 184.0
86.822289 180.0
86.837967 260.0
86.858025 96.0
86.875908 188.0
86.878922 120.0
86.921265 256.0
86.961884 148.0
86.964462 144.0
86.9972 144.0
87.035988 200.0
87.065903 116.0
87.087997 116.0
87.108307 212.0
87.14817 168.0
87.185669 188.0
87.208046 236.0
87.234924 156.0
87.261009 204.0
87.283325 32.0
87.317192 160.0
87.330551 112.0
87.351166 92.0
87.390678 120.0
87.41394 128.0
87.447235 284.0
87.465645 188.0
87.486557 236.0
87.507401 140.0
87.561363 252.0
87.595993 168.0
87.629532 116.0
87.644432 120.0
87.65934 144.0
87.682281 116.0
87.716042 132.0
87.745224 144.0
87.774918 64.0
87.804756 164.0
87.818062 144.0
87.855469 128.0
87.871056 176.0
87.888123 116.0
87.911087 96.0
87.930786 128.0
87.955719 136.0
87.973869 220.0
87.981133 160.0
88.049706 128.0
88.071327 176.0
88.092064 112.0
88.112526 100.0
88.151237 140.0
88.183762 80.0
88.209885 164.0
88.235115 152.0
88.29274 168.0
88.314644 128.0
88.328499 340.0
88.341576 220.0
88.36953 152.0
88.408188 88.0
88.456848 164.0
88.471825 128.0
88.487427 132.0
88.524254 168.0
88.537361 80.0
88.572945 92.0
88.606667 124.0
88.619781 220.0
88.649948 40.0
88.666626 360.0
88.710648 188.0
88.737289 76.0
88.756195 144.0
88.792244 60.0
88.815605 48.0
88.845642 196.0
88.870239 248.0
88.91021 168.0
88.929909 96.0
88.96196 68.0
88.986885 88.0
89.012672 104.0
89.028618 128.0
89.045052 172.0
89.061577 184.0
89.096329 184.0
89.116997 32.0
89.133904 60.0
89.152794 156.0
89.171021 128.0
89.190285 176.0
89.224129 124.0
89.239037 116.0
89.284424 120.0
89.309959 124.0
89.313919 80.0
89.358223 132.0
89.383453 192.0
89.401924 152.0
89.421638 168.0
89.44046 60.0
89.462402 140.0
89.51577 128.0
89.528946 120.0
89.554817 136.0
89.585457 136.0
89.607323 152.0
89.638016 76.0
89.65506 68.0
89.671082 116.0
89.697723 92.0
89.730568 160.0
89.771126 260.0
89.793907 244.0
89.849472 172.0
89.871475 96.0
89.877243 68.0
89.901443 120.0
89.907127 200.0
89.945625 128.0
89.958839 76.0
89.977722 148.0
90.008873 56.0
90.0326 244.0
90.075058 140.0
90.106148 100.0
90.128723 76.0
90.13311 104.0
90.151176 236.0
90.176559 180.0
90.210571 220.0
90.238449 136.0
90.251244 52.0
90.263672 116.0
90.287613 104.0
90.307068 224.0
90.32061 116.0
90.343597 164.0
90.361382 120.0
90.382652 116.0
90.441643 108.0
90.474937 136.0
90.490082 228.0
90.539314 120.0
90.568619 68.0
90.650543 264.0
90.688995 160.0
90.723511 96.0
90.736053 116.0
90.768616 196.0
90.790794 344.0
90.835892 68.0
90.869141 92.0
90.912788 136.0
90.96209 160.0
90.992813 124.0
91.055595 144.0
91.096107 196.0
91.123238 164.0
91.154289 140.0
91.173645 308.0
91.195663 168.0
91.215965 160.0
91.253677 104.0
91.264442 136.0
91.298195 188.0
91.313835 176.0
91.32019 64.0
91.329628 204.0
91.344048 220.0
91.371704 176.0
91.399254 96.0
91.412575 140.0
91.450134 180.0
91.485977 92.0
91.499512 160.0
91.517265 80.0
91.535606 108.0
91.543259 68.0
91.551636 152.0
91.570702 140.0
91.595352 140.0
91.614403 96.0
91.652153 228.0
91.664635 88.0
91.679184 176.0
91.69252 76.0
91.707214 96.0
91.748543 164.0
91.773476 92.0
91.789749 100.0
91.803093 108.0
91.835663 108.0
91.863029 76.0
91.915642 136.0
91.941513 100.0
91.95713 136.0
91.983658 148.0
92.015671 168.0
92.048996 224.0
92.092178 160.0
92.118019 100.0
92.146179 184.0
92.185638 164.0
92.243378 80.0
92.261353 80.0
92.278557 128.0
92.314888 132.0
92.357086 120.0
92.390091 200.0
92.416267 156.0
92.435402 80.0
92.495506 188.0
92.52919 152.0
92.541695 64.0
92.577675 168.0
92.614761 192.0
92.638351 136.0
92.652695 164.0
92.69355 136.0
92.716553 312.0
92.767464 160.0
92.784843 248.0
92.82618 148.0
92.846512 100.0
92.88372 124.0
92.908653 160.0
92.929756 116.0
92.952133 164.0
92.955109 208.0
92.987892 96.0
93.014847 244.0
93.034279 96.0
93.057816 140.0
93.091957 100.0
93.139015 168.0
93.157372 136.0
93.179352 120.0
93.192802 116.0
93.240402 104.0
93.285049 136.0
93.326805 128.0
93.359161 184.0
93.391769 192.0
93.40873 152.0
93.442215 204.0
93.453773 132.0
93.45977 132.0
93.483719 228.0
93.531273 92.0
93.618423 164.0
93.639099 124.0
93.675697 84.0
93.709167 116.0
93.7201 84.0
93.726547 132.0
93.732155 132.0
93.745461 228.0
93.760178 140.0
93.774971 92.0
93.806091 216.0
93.826744 164.0
93.862648 44.0
93.906097 120.0
93.948212 140.0
93.961014 176.0
93.982811 236.0
94.013573 84.0
94.040482 176.0
94.063545 152.0
94.082596 88.0
94.115707 188.0
94.172112 124.0
94.188576 176.0
94.230995 172.0
94.257027 176.0
94.270775 216.0
94.284462 152.0
94.329872 56.0
94.356758 44.0
94.396515 108.0
94.435371 72.0
94.448486 160.0
94.467163 120.0
94.547806 164.0
94.581612 56.0
94.625267 104.0
94.653091 124.0
94.675797 152.0
94.703323 136.0
94.721786 120.0
94.744003 112.0
94.80394 60.0
94.839554 152.0
94.86261 128.0
94.87989 100.0
94.934219 204.0
94.980659 96.0
94.999977 100.0
95.046242 260.0
95.09182 196.0
95.110504 36.0
95.125305 96.0
95.145691 128.0
95.178452 108.0
95.193985 60.0
95.210182 212.0
95.238312 140.0
95.268333 304.0
95.290031 108.0
95.30542 164.0
95.326462 164.0
95.344711 116.0
95.369888 156.0
95.39563 96.0
95.400589 156.0
95.432396 224.0
95.45858 152.0
95.50106 140.0
95.520508 128.0
95.536705 148.0
95.569145 224.0
95.63166 192.0
95.669449 52.0
95.722816 152.0
95.744804 200.0
95.77076 112.0
95.785728 112.0
95.806229 140.0
95.820206 152.0
95.824203 152.0
95.843689 272.0
95.867897 152.0
95.89241 240.0
95.943092 212.0
95.958145 156.0
95.985985 108.0
96.019135 84.0
96.037384 108.0
96.058434 520.0
96.075066 184.0
96.102959 124.0
96.10894 120.0
96.142654 204.0
96.169373 44.0
96.183899 96.0
96.210709 168.0
96.255272 40.0
96.274841 128.0
96.290421 48.0
96.320465 296.0
96.337303 128.0
96.357536 112.0
96.373024 56.0
96.388939 100.0
96.403732 160.0
96.427269 112.0
96.486763 144.0
96.502579 148.0
96.519676 96.0
96.534752 176.0
96.561699 120.0
96.580772 152.0
96.611588 184.0
96.665062 132.0
96.684334 64.0
96.710785 56.0
96.729591 172.0
96.747765 144.0
96.762756 212.0
96.786705 236.0
96.82476 56.0
96.846046 100.0
96.869392 176.0
96.89698 152.0
96.967155 112.0
97.029305 148.0
97.071205 224.0
97.100685 160.0
97.116371 76.0
97.186348 72.0
97.216156 372.0
97.258667 108.0
97.264694 136.0
97.278587 168.0
97.309601 112.0
97.358078 204.0
97.383308 152.0
97.401527 132.0
97.45459 84.0
97.47049 124.0
97.511017 48.0
97.534973 128.0
97.576775 240.0
97.603416 76.0
97.627274 60.0
97.667778 140.0
97.691772 264.0
97.72039 300.0
97.75882 180.0
97.77784 180.0
97.811958 120.0
97.832397 364.0
97.85392 76.0
97.908432 80.0
97.936005 80.0
97.961617 60.0
97.986885 140.0
98.014503 104.0
98.059898 124.0
98.083405 248.0
98.125191 116.0
98.163597 92.0
98.214233 128.0
98.242294 184.0
98.271141 168.0
98.30468 120.0
98.336884 76.0
98.357971 120.0
98.372353 212.0
98.387199 128.0
98.434967 168.0
98.467987 156.0
98.485031 184.0
98.511993 152.0
98.541878 108.0
98.560226 92.0
98.603546 156.0
98.691849 72.0
98.709641 44.0
98.724854 156.0
98.744308 108.0
98.815224 72.0
98.832336 152.0
98.879227 72.0
98.884209 100.0
98.893219 96.0
98.898659 148.0
98.940849 136.0
98.971268 164.0
98.984695 196.0
99.008461 172.0
99.036186 192.0
99.049347 208.0
99.090111 472.0
99.12233 108.0
99.152077 204.0
99.172112 160.0
99.196693 132.0
99.232376 84.0
99.247017 156.0
99.274017 72.0
99.312454 84.0
99.325584 116.0
99.339272 80.0
99.362404 164.0
99.378754 80.0
99.406929 96.0
99.441208 132.0
99.489143 148.0
99.5233 100.0
99.5439 80.0
99.566277 176.0
99.579643 180.0
99.618172 212.0
99.645203 344.0
99.673019 120.0
99.693764 116.0
99.716515 72.0
99.732635 128.0
99.764626 128.0
99.783058 88.0
99.798241 60.0
99.820114 120.0
99.833092 128.0
99.859505 124.0
99.900223 216.0
99.931953 88.0
99.951401 64.0
99.98101 364.0
100.01873 144.0
100.037933 52.0
100.069588 148.0
100.095459 296.0
100.138535 164.0
100.171669 132.0
100.203529 128.0
100.248962 84.0
100.283371 132.0
100.306755 160.0
100.320366 220.0
100.345421 128.0
100.377853 136.0
100.392967 88.0
100.413574 140.0
100.435516 152.0
100.4562 40.0
100.483391 152.0
100.51133 156.0
100.538704 200.0
100.557732 188.0
100.587357 124.0
100.631325 100.0
100.669724 128.0
100.693832 180.0
100.732452 132.0
100.756081 168.0
100.787735 80.0
100.81147 120.0
100.851402 112.0
100.876617 120.0
100.896805 332.0
100.928795 44.0
100.956795 212.0
100.996796 40.0
101.035667 136.0
101.065628 128.0
101.116844 68.0
101.132858 64.0
101.156815 132.0
101.204727 328.0
101.222504 144.0
101.263 136.0
101.303902 176.0
101.339767 236.0
101.358749 148.0
101.393394 104.0
101.430344 156.0
101.456116 164.0
101.525543 148.0
101.563171 220.0
101.568665 168.0
101.577042 136.0
101.613052 140.0
101.657349 172.0
101.672882 180.0
101.69648 128.0
101.710129 76.0
101.727791 128.0
101.761269 132.0
101.78466 160.0
101.803078 148.0
101.832603 100.0
101.848679 108.0
101.896889 92.0
101.93042 128.0
101.947792 132.0
101.975258 132.0
102.00943 140.0
102.061775 212.0
102.091866 52.0
102.120018 144.0
102.158241 124.0
102.195915 176.0
102.234993 164.0
102.268082 172.0
102.289581 156.0
102.326019 232.0
102.357491 204.0
102.37455 224.0
102.392517 184.0
102.441002 116.0
102.465782 68.0
102.483345 100.0
102.540817 136.0
102.567741 332.0
102.609879 120.0
102.634438 100.0
102.671982 68.0
102.745598 108.0
102.781059 244.0
102.861526 212.0
102.88588 124.0
102.93956 92.0
102.95993 92.0
103.016724 188.0
103.042397 420.0
103.070343 152.0
103.085709 116.0
103.100548 124.0
103.131546 236.0
103.167427 168.0
103.171478 120.0
103.181839 100.0
103.19857 96.0
103.229881 172.0
103.255524 144.0
103.292313 108.0
103.311287 136.0
103.324303 284.0
103.353828 292.0
103.372864 148.0
103.404747 196.0
103.425484 48.0
103.442665 152.0
103.472046 160.0
103.488243 156.0
103.502419 44.0
103.528336 208.0
103.545563 132.0
103.564735 140.0
103.587479 220.0
103.625839 68.0
103.631538 148.0
103.666016 204.0
103.71814 108.0
103.757355 184.0
103.79084 200.0
103.824623 156.0
103.854698 128.0
103.880714 128.0
103.914474 192.0
103.934166 136.0
104.003166 152.0
104.04776 828.0
104.082657 76.0
104.104675 48.0
104.128159 64.0
104.152763 160.0
104.172012 104.0
104.192017 164.0
104.206238 56.0
104.222046 144.0
104.244957 152.0
104.263138 180.0
104.282211 280.0
104.317474 120.0
104.364777 156.0
104.385109 92.0
104.403412 136.0
104.433205 96.0
104.477753 80.0
104.518585 300.0
104.544724 156.0
104.576843 196.0
104.599983 124.0
104.635376 176.0
104.653702 52.0
104.701729 124.0
104.719498 52.0
104.747292 172.0
104.769791 108.0
104.794945 128.0
104.809128 120.0
104.832329 120.0
104.865562 56.0
104.883781 100.0
104.935837 136.0
104.954185 212.0
104.972595 144.0
104.996048 88.0
105.022606 200.0
105.032684 100.0
105.054443 300.0
105.072823 224.0
105.088867 228.0
105.12661 288.0
105.145882 188.0
105.187317 156.0
105.205048 140.0
105.226631 72.0
105.259026 300.0
105.273598 48.0
105.313393 140.0
105.340019 48.0
105.354424 96.0
105.377541 248.0
105.408417 76.0
105.44149 88.0
105.465012 104.0
105.503052 160.0
105.523903 124.0
105.551506 156.0
105.580856 140.0
105.59771 268.0
105.62471 116.0
105.643547 132.0
105.659912 144.0
105.709641 92.0
105.741226 228.0
105.764275 188.0
105.795303 76.0
105.844887 188.0
105.885048 156.0
105.912994 152.0
105.959831 212.0
105.975807 124.0
106.000687 176.0
106.018242 88.0
106.065025 1164.0
106.108429 136.0
106.128937 136.0
106.194557 100.0
106.210304 168.0
106.233124 100.0
106.267075 92.0
106.284775 104.0
106.309448 172.0
106.344337 32.0
106.360756 60.0
106.390373 84.0
106.414131 148.0
106.447273 124.0
106.463417 160.0
106.498329 156.0
106.521866 140.0
106.544891 144.0
106.562996 200.0
106.609276 164.0
106.650375 40.0
106.686371 128.0
106.72332 100.0
106.747093 96.0
106.767029 76.0
106.80246 112.0
106.826859 228.0
106.859711 116.0
106.884827 116.0
106.911476 164.0
106.94545 128.0
106.960976 112.0
106.98156 168.0
106.995453 156.0
107.024094 152.0
107.049004 892.0
107.084518 88.0
107.128159 148.0
107.146317 276.0
107.162796 60.0
107.20813 60.0
107.222557 100.0
107.239044 188.0
107.28418 276.0
107.318283 128.0
107.334335 144.0
107.349457 72.0
107.38131 100.0
107.410187 68.0
107.440613 144.0
107.459373 120.0
107.499626 136.0
107.523666 248.0
107.548332 168.0
107.572685 128.0
107.597977 112.0
107.628944 76.0
107.664223 96.0
107.680473 168.0
107.688683 160.0
107.694771 64.0
107.71624 164.0
107.764839 116.0
107.771378 92.0
107.796265 180.0
107.827263 148.0
107.841728 68.0
107.878937 108.0
107.915428 80.0
107.938766 128.0
107.944344 120.0
107.986755 168.0
108.019913 248.0
108.04216 328.0
108.066124 344.0
108.095718 140.0
108.14164 120.0
108.173767 92.0
108.214088 96.0
108.24308 32.0
108.26265 160.0
108.305206 112.0
108.334213 96.0
108.363632 100.0
108.380905 164.0
108.409729 116.0
108.447433 100.0
108.514511 124.0
108.534271 120.0
108.543304 104.0
108.547989 132.0
108.571182 164.0
108.613411 192.0
108.65023 128.0
108.669243 260.0
108.685532 156.0
108.728172 144.0
108.759308 172.0
108.773834 128.0
108.788368 172.0
108.824287 152.0
108.86055 184.0
108.903656 212.0
108.949135 144.0
108.987579 188.0
109.024208 212.0
109.055351 136.0
109.069145 300.0
109.094597 244.0
109.109749 212.0
109.138603 120.0
109.154037 84.0
109.175262 160.0
109.197189 112.0
109.239311 136.0
109.262917 136.0
109.295135 216.0
109.329079 148.0
109.364159 80.0
109.39122 136.0
109.421677 172.0
109.452789 148.0
109.479004 148.0
109.495331 96.0
109.533577 88.0
109.549484 120.0
109.568237 116.0
109.599487 80.0
109.628662 52.0
109.655754 124.0
109.729286 180.0
109.749565 40.0
109.767113 212.0
109.789803 148.0
109.820465 132.0
109.834213 144.0
109.860924 172.0
109.935074 180.0
109.943329 144.0
109.966522 188.0
110.018082 108.0
110.021591 104.0
110.060905 540.0
110.099815 84.0
110.112411 228.0
110.133553 80.0
110.148178 80.0
110.193321 92.0
110.228111 132.0
110.260796 160.0
110.289902 152.0
110.342651 132.0
110.386902 144.0
110.417023 128.0
110.442802 80.0
110.467255 100.0
110.501076 124.0
110.519394 292.0
110.525749 208.0
110.532265 168.0
110.556038 120.0
110.599831 44.0
110.625725 212.0
110.645889 64.0
110.686714 64.0
110.704514 72.0
110.745354 56.0
110.773407 148.0
110.798058 164.0
110.818832 216.0
110.840179 84.0
110.852592 204.0
110.882591 120.0
110.913231 168.0
110.942719 264.0
110.997894 36.0
111.023949 244.0
111.065002 156.0
111.091522 112.0
111.112633 244.0
111.151016 120.0
111.17688 124.0
111.20118 164.0
111.235779 196.0
111.264359 120.0
111.309433 128.0
111.350487 296.0
111.386162 36.0
111.427971 124.0
111.465996 88.0
111.514328 84.0
111.547661 84.0
111.561119 228.0
111.59211 220.0
111.632065 152.0
111.649017 64.0
111.66571 136.0
111.682533 96.0
111.714424 132.0
111.73513 160.0
111.762482 152.0
111.789299 188.0
111.811646 132.0
111.820457 176.0
111.855492 148.0
111.924553 184.0
111.944382 144.0
111.960358 176.0
112.046387 100.0
112.07531 112.0
112.099434 376.0
112.121155 108.0
112.141541 156.0
112.164726 108.0
112.179482 160.0
112.202675 132.0
112.272255 100.0
112.311157 108.0
112.332596 132.0
112.359833 108.0
112.420486 76.0
112.456932 188.0
112.528442 256.0
112.555031 108.0
112.581314 84.0
112.635574 204.0
112.652184 120.0
112.673508 84.0
112.697906 136.0
112.714928 132.0
112.719421 92.0
112.728249 116.0
112.747261 188.0
112.762062 284.0
112.795876 168.0
112.809883 168.0
112.829704 136.0
112.845222 140.0
112.869873 112.0
112.935226 204.0
112.974731 132.0
113.023132 176.0
113.077118 120.0
113.127182 52.0
113.150497 216.0
113.200859 164.0
113.229469 148.0
113.282959 188.0
113.31012 60.0
113.357643 216.0
113.392761 84.0
113.409721 140.0
113.429695 132.0
113.451012 92.0
113.480026 188.0
113.512604 156.0
113.541992 176.0
113.58445 148.0
113.63163 56.0
113.659966 132.0
113.699181 292.0
113.721024 260.0
113.76326 60.0
113.786377 144.0
113.814919 324.0
113.854179 168.0
113.872696 136.0
113.893501 124.0
113.927696 120.0
113.95298 128.0
114.027084 124.0
114.045418 80.0
114.073509 280.0
114.120888 160.0
114.138924 160.0
114.162613 116.0
114.19532 60.0
114.229546 140.0
114.260551 168.0
114.292679 68.0
114.313744 180.0
114.348503 76.0
114.378258 180.0
114.418755 52.0
114.440041 108.0
114.454948 144.0
114.478371 96.0
114.499664 116.0
114.531616 92.0
114.548096 168.0
114.573875 172.0
114.580849 96.0
114.608307 120.0
114.63324 160.0
114.656372 84.0
114.68425 164.0
114.713081 212.0
114.734055 100.0
114.755379 116.0
114.776169 80.0
114.815086 148.0
114.855148 332.0
114.882805 80.0
114.91452 156.0
114.961266 176.0
115.007103 132.0
115.024185 116.0
115.054176 280.0
115.07666 124.0
115.098488 124.0
115.117195 92.0
115.170502 164.0
115.193672 136.0
115.209969 80.0
115.246033 220.0
115.302818 132.0
115.34021 164.0
115.363884 180.0
115.430115 48.0
115.473953 68.0
115.490334 132.0
115.535316 108.0
115.581642 184.0
115.617538 124.0
115.640778 136.0
115.667885 148.0
115.729538 172.0
115.741425 168.0
115.769951 144.0
115.782059 228.0
115.796829 152.0
115.811707 172.0
115.832481 144.0
115.892464 80.0
115.937462 108.0
115.966858 204.0
116.019447 156.0
116.048538 1312.0
116.073715 116.0
116.096107 84.0
116.119698 128.0
116.13559 80.0
116.160446 40.0
116.181747 112.0
116.229858 136.0
116.272026 116.0
116.289192 56.0
116.307198 88.0
116.333733 160.0
116.364716 224.0
116.387177 168.0
116.413712 152.0
116.439804 156.0
116.498779 152.0
116.541359 136.0
116.575905 96.0
116.590744 196.0
116.650269 196.0
116.668289 116.0
116.693954 76.0
116.718849 72.0
116.733902 96.0
116.794807 176.0
116.834068 148.0
116.867264 80.0
116.915215 184.0
116.939888 220.0
116.947121 184.0
116.989693 136.0
117.033241 228.0
117.056862 1352.0
117.086838 140.0
117.136375 200.0
117.168434 68.0
117.235489 212.0
117.261925 152.0
117.287216 104.0
117.316765 104.0
117.354805 136.0
117.375603 244.0
117.395012 128.0
117.42952 52.0
117.478661 164.0
117.495316 136.0
117.52095 240.0
117.545479 112.0
117.569359 88.0
117.587105 172.0
117.62645 260.0
117.645302 112.0
117.673363 56.0
117.703186 128.0
117.728989 184.0
117.748947 92.0
117.778137 116.0
117.810448 80.0
117.859634 168.0
117.876404 120.0
117.913696 128.0
117.93692 56.0
117.958534 188.0
117.98671 112.0
118.025551 184.0
118.064941 1176.0
118.095535 228.0
118.138191 84.0
118.161324 88.0
118.194275 160.0
118.222404 52.0
118.243942 84.0
118.248047 80.0
118.266029 204.0
118.287331 76.0
118.305908 88.0
118.335983 144.0
118.378265 200.0
118.394669 160.0
118.409668 96.0
118.414169 76.0
118.42524 128.0
118.428558 164.0
118.464218 104.0
118.480072 128.0
118.510399 92.0
118.535919 304.0
118.574081 340.0
118.598526 312.0
118.613205 128.0
118.631767 192.0
118.666328 192.0
118.71199 144.0
118.740028 164.0
118.809593 204.0
118.850273 112.0
118.867424 104.0
118.914665 144.0
118.966629 144.0
118.981445 196.0
119.002861 80.0
119.017021 112.0
119.062546 288.0
119.109619 96.0
119.152664 96.0
119.17318 112.0
119.204102 304.0
119.226494 148.0
119.250404 88.0
119.290398 140.0
119.323685 176.0
119.352631 168.0
119.389542 112.0
119.429855 172.0
119.439003 92.0
119.442566 148.0
119.459145 104.0
119.475922 152.0
119.499031 96.0
119.522675 200.0
119.586441 112.0
119.596161 124.0
119.617996 112.0
119.635414 64.0
119.654335 200.0
119.687668 128.0
119.724503 140.0
119.732651 128.0
119.738937 96.0
119.752602 140.0
119.794388 120.0
119.809517 72.0
119.832382 112.0
119.882141 104.0
119.903336 176.0
119.927307 100.0
119.952736 140.0
119.960777 124.0
119.970901 60.0
119.978569 124.0
119.999245 156.0
120.014511 108.0
120.040962 244.0
120.083015 404.0
120.138824 236.0
120.184639 56.0
120.202095 136.0
120.234833 136.0
120.260773 128.0
120.290329 160.0
120.315094 152.0
120.336578 124.0
120.365356 212.0
120.371635 144.0
120.394859 120.0
120.447906 88.0
120.460373 108.0
120.487991 116.0
120.51403 168.0
120.542747 148.0
120.558899 144.0
120.603943 224.0
120.627373 256.0
120.645477 92.0
120.675041 184.0
120.714493 188.0
120.755142 244.0
120.785431 164.0
120.801758 112.0
120.823967 52.0
120.837288 108.0
120.873642 188.0
120.949539 180.0
120.968475 164.0
121.003571 120.0
121.066071 656.0
121.101677 116.0
121.133957 184.0
121.169212 116.0
121.210365 172.0
121.249771 172.0
121.266129 200.0
121.285072 132.0
121.324135 176.0
121.365791 188.0
121.420609 84.0
121.435966 152.0
121.461235 100.0
121.516739 180.0
121.554062 192.0
121.581787 60.0
121.613686 76.0
121.659096 140.0
121.685013 244.0
121.714676 188.0
121.734436 124.0
121.752007 144.0
121.76738 96.0
121.80452 172.0
121.834259 188.0
121.852074 144.0
121.866699 100.0
121.914574 160.0
121.958527 52.0
122.006195 152.0
122.011452 164.0
122.018188 288.0
122.060127 648.0
122.10199 160.0
122.118469 172.0
122.145432 72.0
122.163033 144.0
122.200851 104.0
122.244438 144.0
122.263412 172.0
122.286255 132.0
122.321304 160.0
122.359108 120.0
122.376511 120.0
122.418343 128.0
122.442574 108.0
122.498444 228.0
122.535088 108.0
122.570343 212.0
122.587967 120.0
122.607803 72.0
122.626404 236.0
122.658501 64.0
122.695267 100.0
122.720726 144.0
122.740013 148.0
122.777557 112.0
122.809586 184.0
122.816246 96.0
122.823059 140.0
122.847557 112.0
122.905502 44.0
122.937073 156.0
122.965088 120.0
123.041588 904.0
123.06414 544.0
123.089386 132.0
123.110794 124.0
123.132881 172.0
123.155373 152.0
123.205452 300.0
123.234497 76.0
123.274269 112.0
123.292953 132.0
123.317871 132.0
123.348061 124.0
123.375465 176.0
123.417778 104.0
123.45034 216.0
123.482582 272.0
123.523224 112.0
123.571846 124.0
123.593369 204.0
123.6343 276.0
123.675285 100.0
123.705009 160.0
123.734222 144.0
123.761536 128.0
123.769524 108.0
123.777405 116.0
123.809113 120.0
123.82251 152.0
123.851463 144.0
123.856392 176.0
123.877754 164.0
123.900444 40.0
123.919731 108.0
123.946663 228.0
123.989082 76.0
124.015366 116.0
124.049248 328.0
124.073692 180.0
124.122864 80.0
124.141693 236.0
124.181274 80.0
124.224113 72.0
124.268997 172.0
124.316963 168.0
124.37944 144.0
124.399422 164.0
124.438377 180.0
124.466026 112.0
124.499924 136.0
124.52272 128.0
124.564301 160.0
124.58358 200.0
124.674843 188.0
124.698013 84.0
124.708916 96.0
124.758018 136.0
124.787094 192.0
124.808586 72.0
124.826004 108.0
124.855736 76.0
124.912262 204.0
124.96981 92.0
124.991814 136.0
125.021507 172.0
125.05825 500.0
125.07618 64.0
125.098373 124.0
125.120789 164.0
125.207512 104.0
125.242111 220.0
125.293419 96.0
125.32972 168.0
125.387009 128.0
125.41143 96.0
125.446136 68.0
125.460564 96.0
125.490807 184.0
125.49958 104.0
125.505623 132.0
125.536179 140.0
125.576164 152.0
125.607742 316.0
125.707397 96.0
125.772789 116.0
125.786835 124.0
125.808578 52.0
125.828674 144.0
125.845642 200.0
125.886726 112.0
125.904526 128.0
125.910133 100.0
125.958199 164.0
125.977997 116.0
125.998405 180.0
126.027954 144.0
126.071533 132.0
126.090027 140.0
126.104553 128.0
126.125206 152.0
126.16008 140.0
126.168755 180.0
126.192291 140.0
126.233795 168.0
126.262177 104.0
126.331696 48.0
126.364601 172.0
126.391922 108.0
126.427513 128.0
126.44426 244.0
126.476746 164.0
126.526299 108.0
126.590118 280.0
126.621803 152.0
126.641365 148.0
126.68399 176.0
126.70314 164.0
126.744072 208.0
126.765251 72.0
126.782806 36.0
126.887054 148.0
126.906227 124.0
126.936241 240.0
126.964592 168.0
126.991135 84.0
127.028114 104.0
127.042839 248.0
127.070854 288.0
127.095505 92.0
127.125595 176.0
127.142067 108.0
127.157028 128.0
127.164223 116.0
127.172073 168.0
127.208618 140.0
127.238739 132.0
127.276085 168.0
127.291565 116.0
127.31916 136.0
127.354393 100.0
127.369759 124.0
127.386246 116.0
127.414986 164.0
127.467461 296.0
127.489792 124.0
127.510246 152.0
127.543541 128.0
127.56105 152.0
127.62748 124.0
127.642426 116.0
127.663193 128.0
127.680489 128.0
127.711052 208.0
127.747688 140.0
127.774353 152.0
127.823326 104.0
127.829063 88.0
127.844879 232.0
127.862946 204.0
127.895561 208.0
127.915817 152.0
127.949074 228.0
127.997925 136.0
128.019394 160.0
128.050659 124.0
128.065811 104.0
128.087982 76.0
128.116653 152.0
128.146622 176.0
128.171524 52.0
128.218918 148.0
128.260391 124.0
128.292023 84.0
128.313538 88.0
128.364166 80.0
128.407394 168.0
128.437683 84.0
128.451477 148.0
128.470016 124.0
128.494995 88.0
128.513046 180.0
128.542374 100.0
128.560425 108.0
128.598526 180.0
128.63028 148.0
128.665771 124.0
128.692963 224.0
128.718445 48.0
128.753265 76.0
128.835892 172.0
128.866928 48.0
128.881531 140.0
128.896896 132.0
128.919586 96.0
128.937576 112.0
128.969223 132.0
129.003128 208.0
129.037033 96.0
129.057388 176.0
129.076797 84.0
129.096863 272.0
129.113922 144.0
129.134277 180.0
129.152176 192.0
129.171036 128.0
129.179947 360.0
129.239807 104.0
129.284241 180.0
129.325211 72.0
129.330872 108.0
129.376572 156.0
129.409363 104.0
129.423355 220.0
129.442047 120.0
129.47345 284.0
129.496399 76.0
129.512253 52.0
129.537933 108.0
129.560669 76.0
129.585434 264.0
129.602127 72.0
129.630753 120.0
129.670944 104.0
129.681824 48.0
129.696228 156.0
129.772568 108.0
129.806717 108.0
129.841553 168.0
129.86319 212.0
129.878738 88.0
129.888062 116.0
129.91861 172.0
129.949188 168.0
129.991577 172.0
130.043137 216.0
130.068741 808.0
130.12265 124.0
130.141113 140.0
130.164902 124.0
130.197205 44.0
130.230515 120.0
130.255798 116.0
130.287933 140.0
130.307053 100.0
130.33699 128.0
130.361313 120.0
130.412842 124.0
130.432434 204.0
130.440994 108.0
130.446884 144.0
130.476334 148.0
130.50853 60.0
130.565384 80.0
130.604034 60.0
130.622238 160.0
130.654083 80.0
130.67218 144.0
130.706421 136.0
130.724625 64.0
130.751602 112.0
130.783539 164.0
130.808838 128.0
130.829315 112.0
130.865326 120.0
130.906097 264.0
130.924957 164.0
130.953064 140.0
130.96701 232.0
131.00264 168.0
131.037018 632.0
131.061691 2004.0
131.100464 88.0
131.138779 100.0
131.173309 180.0
131.18898 152.0
131.21434 104.0
131.236893 112.0
131.29187 68.0
131.328934 236.0
131.355728 180.0
131.387451 172.0
131.428574 112.0
131.443939 260.0
131.47438 164.0
131.510895 244.0
131.530289 40.0
131.5681 64.0
131.588318 92.0
131.594681 136.0
131.624619 176.0
131.661575 212.0
131.695053 176.0
131.713455 84.0
131.761139 84.0
131.794968 92.0
131.81398 176.0
131.859802 196.0
131.886169 120.0
131.912918 108.0
131.929672 144.0
131.951782 72.0
131.97464 60.0
131.989548 60.0
132.019714 96.0
132.042801 1828.0
132.065231 744.0
132.107285 72.0
132.127884 48.0
132.154785 148.0
132.172714 188.0
132.191269 208.0
132.220535 116.0
132.244339 220.0
132.277847 60.0
132.292267 96.0
132.315552 160.0
132.333557 212.0
132.365921 100.0
132.401154 204.0
132.426315 128.0
132.450653 260.0
132.473572 80.0
132.494186 116.0
132.514801 92.0
132.535431 120.0
132.558929 172.0
132.589127 204.0
132.619614 136.0
132.623123 104.0
132.65892 136.0
132.673553 148.0
132.732147 68.0
132.755478 128.0
132.818207 148.0
132.847229 132.0
132.884003 148.0
132.916061 168.0
132.942947 84.0
132.958588 68.0
132.962906 116.0
132.991318 156.0
133.009537 132.0
133.05162 5808.0
133.075668 1156.0
133.112137 192.0
133.141373 208.0
133.186203 48.0
133.199951 164.0
133.217911 76.0
133.2397 88.0
133.267456 108.0
133.290344 84.0
133.321213 148.0
133.350098 84.0
133.389175 88.0
133.409866 188.0
133.429886 164.0
133.448944 152.0
133.466888 164.0
133.486496 168.0
133.520752 272.0
133.558609 64.0
133.569656 204.0
133.614548 112.0
133.636353 200.0
133.684845 192.0
133.700516 216.0
133.714478 84.0
133.722565 76.0
133.750397 112.0
133.807861 148.0
133.855545 168.0
133.871521 124.0
133.88002 120.0
133.91275 160.0
133.959854 324.0
133.992783 232.0
134.012726 76.0
134.017975 72.0
134.059692 10132.0
134.108246 152.0
134.138214 92.0
134.169571 124.0
134.238739 116.0
134.262482 164.0
134.32869 48.0
134.344849 112.0
134.367905 124.0
134.404922 128.0
134.431839 192.0
134.471939 96.0
134.491058 84.0
134.511612 108.0
134.536118 140.0
134.571472 160.0
134.592743 176.0
134.62413 80.0
134.644913 240.0
134.67955 152.0
134.695724 212.0
134.711899 152.0
134.745392 216.0
134.779068 208.0
134.804306 176.0
134.824173 108.0
134.828583 64.0
134.859772 124.0
134.877213 96.0
134.909729 132.0
134.921967 84.0
134.926346 156.0
134.962997 148.0
134.989777 156.0
135.023056 184.0
135.06636 8868.0
135.12883 104.0
135.150009 112.0
135.172577 260.0
135.230484 204.0
135.290024 52.0
135.306229 120.0
135.33757 188.0
135.373306 116.0
135.395096 96.0
135.410782 152.0
135.486176 144.0
135.514038 72.0
135.55722 260.0
135.593475 100.0
135.618958 104.0
135.641769 76.0
135.667526 92.0
135.676224 148.0
135.68309 120.0
135.713394 120.0
135.736679 328.0
135.79155 176.0
135.805771 228.0
135.839645 112.0
135.884491 96.0
135.911301 208.0
135.932541 248.0
135.962418 144.0
135.992828 108.0
136.038971 4828.0
136.073441 2240.0
136.125763 284.0
136.157242 260.0
136.202667 164.0
136.221191 224.0
136.23999 108.0
136.316452 120.0
136.340408 256.0
136.403641 132.0
136.450165 128.0
136.503754 148.0
136.541122 244.0
136.561646 96.0
136.594208 88.0
136.643051 88.0
136.663742 108.0
136.705215 112.0
136.737717 212.0
136.76825 80.0
136.799515 224.0
136.817398 176.0
136.860275 184.0
136.893234 200.0
136.910858 76.0
136.979141 152.0
137.019241 80.0
137.045441 2668.0
137.077713 280.0
137.1129 144.0
137.140198 76.0
137.190353 200.0
137.237885 92.0
137.271957 108.0
137.295959 136.0
137.361069 116.0
137.371613 136.0
137.398727 136.0
137.415787 132.0
137.443619 88.0
137.481903 152.0
137.499207 176.0
137.534851 64.0
137.570938 144.0
137.589279 52.0
137.617294 36.0
137.638306 164.0
137.668671 80.0
137.730911 208.0
137.764786 212.0
137.799927 144.0
137.833847 96.0
137.87468 140.0
137.891525 184.0
137.945404 296.0
137.962845 208.0
138.020142 176.0
138.029419 160.0
138.054276 1096.0
138.09198 1028.0
138.140793 320.0
138.183517 108.0
138.204163 324.0
138.225021 308.0
138.266098 284.0
138.28981 140.0
138.340363 156.0
138.397293 176.0
138.432373 152.0
138.438538 192.0
138.456787 156.0
138.477859 68.0
138.516983 108.0
138.531845 88.0
138.562393 176.0
138.617203 92.0
138.632004 212.0
138.655914 120.0
138.672333 124.0
138.700058 152.0
138.770157 120.0
138.794235 208.0
138.818817 124.0
138.844055 160.0
138.868134 148.0
138.887222 180.0
138.909149 100.0
138.932602 152.0
138.949036 72.0
138.974838 92.0
139.010941 292.0
139.027313 132.0
139.052887 684.0
139.072754 480.0
139.117111 208.0
139.13913 72.0
139.164307 188.0
139.216278 196.0
139.25679 112.0
139.307907 120.0
139.343674 240.0
139.370438 108.0
139.402206 84.0
139.427338 92.0
139.475067 112.0
139.499466 112.0
139.530045 252.0
139.552643 148.0
139.578873 104.0
139.605133 120.0
139.630234 128.0
139.649063 128.0
139.674927 92.0
139.736099 136.0
139.772797 120.0
139.78157 148.0
139.823166 152.0
139.854065 92.0
139.864868 72.0
139.869049 144.0
139.892441 248.0
139.913727 180.0
139.945572 116.0
139.965408 160.0
140.00444 312.0
140.028854 160.0
140.05928 180.0
140.094879 60.0
140.117981 196.0
140.144226 140.0
140.191406 188.0
140.217972 292.0
140.26265 108.0
140.268555 120.0
140.283798 276.0
140.313019 104.0
140.36734 40.0
140.397491 148.0
140.434952 144.0
140.450958 176.0
140.47348 156.0
140.523026 160.0
140.547256 132.0
140.578613 128.0
140.612976 160.0
140.665115 248.0
140.697662 104.0
140.736679 192.0
140.770859 80.0
140.808655 56.0
140.857895 108.0
140.865967 140.0
140.927032 116.0
140.967285 108.0
140.996964 68.0
141.012939 176.0
141.039017 112.0
141.069687 1308.0
141.107819 212.0
141.152023 304.0
141.179688 220.0
141.214417 164.0
141.243408 120.0
141.268433 124.0
141.340744 100.0
141.361847 144.0
141.393341 280.0
141.494461 92.0
141.535034 136.0
141.56665 124.0
141.585403 340.0
141.609161 188.0
141.636475 260.0
141.684814 392.0
141.705704 228.0
141.783707 172.0
141.868713 64.0
141.894791 40.0
141.923233 156.0
141.946945 68.0
141.968002 256.0
142.000641 164.0
142.024139 176.0
142.073288 124.0
142.125427 116.0
142.167572 148.0
142.188934 44.0
142.236252 200.0
142.26651 140.0
142.291504 152.0
142.301193 192.0
142.348831 124.0
142.375687 168.0
142.400238 120.0
142.415848 76.0
142.442978 80.0
142.473495 76.0
142.480484 132.0
142.489014 180.0
142.514984 156.0
142.543839 160.0
142.569397 132.0
142.595047 148.0
142.635239 132.0
142.67157 168.0
142.727493 220.0
142.766815 192.0
142.788345 132.0
142.821625 68.0
142.861374 72.0
142.8936 152.0
142.925613 128.0
142.966064 132.0
143.007401 116.0
143.033234 196.0
143.076523 144.0
143.093323 212.0
143.115509 164.0
143.132782 104.0
143.163651 220.0
143.179047 208.0
143.201752 108.0
143.227951 120.0
143.244629 132.0
143.283447 76.0
143.312088 140.0
143.36853 204.0
143.414322 224.0
143.432541 112.0
143.473404 120.0
143.502014 112.0
143.534515 108.0
143.568466 96.0
143.58696 96.0
143.633728 104.0
143.661804 280.0
143.678497 80.0
143.709518 52.0
143.741287 132.0
143.760574 136.0
143.796692 184.0
143.81929 56.0
143.844498 164.0
143.872955 176.0
143.89682 76.0
143.923981 232.0
143.953491 152.0
143.973038 112.0
143.996826 212.0
144.015091 200.0
144.041367 168.0
144.059235 100.0
144.079102 436.0
144.122589 56.0
144.141708 128.0
144.175766 96.0
144.235565 276.0
144.256424 124.0
144.297455 160.0
144.330841 160.0
144.352951 192.0
144.371506 216.0
144.39032 204.0
144.433914 236.0
144.45311 80.0
144.49472 144.0
144.539001 164.0
144.558853 164.0
144.637787 160.0
144.669342 192.0
144.742111 76.0
144.761261 184.0
144.785217 120.0
144.809158 120.0
144.848206 140.0
144.866379 124.0
144.897797 56.0
144.931564 88.0
144.959717 376.0
144.993637 100.0
145.057739 244.0
145.075897 692.0
145.156662 192.0
145.189713 92.0
145.202072 156.0
145.252869 104.0
145.27179 48.0
145.304291 168.0
145.32843 92.0
145.37088 192.0
145.398956 108.0
145.422607 112.0
145.472366 48.0
145.494965 56.0
145.52359 104.0
145.550186 68.0
145.588608 140.0
145.623413 212.0
145.641449 132.0
145.658264 128.0
145.71524 140.0
145.726776 108.0
145.731415 196.0
145.749344 136.0
145.784546 128.0
145.807068 56.0
145.818787 124.0
145.824112 156.0
145.8694 116.0
145.912216 124.0
145.950394 252.0
145.981674 100.0
146.006775 56.0
146.057602 1576.0
146.114304 228.0
146.144836 236.0
146.161331 64.0
146.166916 192.0
146.195755 108.0
146.240158 92.0
146.277603 100.0
146.300323 64.0
146.387009 224.0
146.424149 236.0
146.447113 196.0
146.46553 224.0
146.507446 84.0
146.53334 64.0
146.595352 100.0
146.613464 92.0
146.659012 120.0
146.679413 188.0
146.718384 136.0
146.749649 148.0
146.757477 360.0
146.79538 100.0
146.823196 52.0
146.865814 120.0
146.921021 116.0
146.989655 64.0
147.065811 2488.0
147.096924 296.0
147.130661 124.0
147.16687 144.0
147.194839 112.0
147.211349 76.0
147.250381 72.0
147.273621 116.0
147.304352 204.0
147.333023 168.0
147.399048 184.0
147.423828 156.0
147.432648 72.0
147.445267 168.0
147.475082 60.0
147.494415 168.0
147.513748 104.0
147.533096 160.0
147.579025 140.0
147.606308 112.0
147.614532 76.0
147.623856 164.0
147.652328 132.0
147.690735 168.0
147.696976 188.0
147.724136 92.0
147.751144 324.0
147.800308 140.0
147.82399 228.0
147.860504 120.0
147.893341 220.0
147.927612 136.0
147.954849 120.0
147.96524 128.0
147.973099 156.0
147.996506 96.0
148.037888 216.0
148.073486 5104.0
148.117126 116.0
148.155197 192.0
148.205048 200.0
148.251968 136.0
148.27948 140.0
148.297562 64.0
148.321548 128.0
148.351212 200.0
148.368225 112.0
148.398987 116.0
148.40416 76.0
148.41333 176.0
148.430313 140.0
148.451401 176.0
148.505219 156.0
148.588501 116.0
148.630814 160.0
148.66095 92.0
148.710342 164.0
148.752716 156.0
148.777374 316.0
148.818893 156.0
148.863281 72.0
148.890335 176.0
148.912918 156.0
148.93396 248.0
148.970047 200.0
149.013214 144.0
149.023361 124.0
149.070908 3052.0
149.107666 180.0
149.144394 256.0
149.189926 164.0
149.239395 168.0
149.246277 196.0
149.297318 180.0
149.344223 144.0
149.393356 164.0
149.449875 264.0
149.468155 288.0
149.50264 192.0
149.539139 92.0
149.564682 236.0
149.603683 164.0
149.653549 128.0
149.691147 108.0
149.71199 228.0
149.747482 112.0
149.781677 44.0
149.821396 160.0
149.853546 92.0
149.894699 152.0
149.938843 180.0
149.958069 56.0
149.975128 88.0
150.008911 88.0
150.025131 124.0
150.053391 864.0
150.076233 728.0
150.12059 216.0
150.153961 104.0
150.186127 172.0
150.215042 204.0
150.252335 208.0
150.285934 384.0
150.347473 180.0
150.382446 64.0
150.40686 128.0
150.44606 140.0
150.478668 136.0
150.49556 84.0
150.523193 68.0
150.530487 44.0
150.542831 52.0
150.546875 80.0
150.569489 112.0
150.59166 152.0
150.598724 104.0
150.640244 152.0
150.662872 172.0
150.684753 176.0
150.72525 76.0
150.797928 168.0
150.853882 88.0
150.885666 96.0
150.902985 92.0
150.927231 180.0
150.967926 112.0
150.999084 148.0
151.033081 336.0
151.061325 2688.0
151.127167 164.0
151.139481 88.0
151.205612 176.0
151.242035 88.0
151.269745 172.0
151.3069 136.0
151.341858 152.0
151.372803 168.0
151.401688 220.0
151.41095 276.0
151.443878 240.0
151.494049 168.0
151.537888 100.0
151.558105 92.0
151.572571 192.0
151.59549 84.0
151.638962 136.0
151.681274 96.0
151.74292 120.0
151.778564 216.0
151.824295 132.0
151.830093 264.0
151.882339 124.0
151.912872 136.0
151.954941 108.0
152.003693 188.0
152.014008 132.0
152.02002 244.0
152.030472 192.0
152.040802 144.0
152.063919 664.0
152.106628 292.0
152.125275 128.0
152.202316 112.0
152.219803 80.0
152.251541 188.0
152.358582 164.0
152.390518 132.0
152.416763 164.0
152.436386 60.0
152.440994 132.0
152.481445 148.0
152.505539 148.0
152.526062 232.0
152.552948 104.0
152.585938 212.0
152.629349 120.0
152.660431 184.0
152.695328 356.0
152.722397 76.0
152.744995 212.0
152.775314 116.0
152.807266 112.0
152.838013 112.0
152.864243 108.0
152.900406 152.0
152.918304 172.0
152.943832 108.0
152.973129 204.0
152.999329 52.0
153.014801 432.0
153.037384 96.0
153.068878 1372.0
153.097519 48.0
153.145142 240.0
153.182693 184.0
153.205521 76.0
153.247787 112.0
153.303635 136.0
153.325897 260.0
153.346436 228.0
153.383881 156.0
153.398438 200.0
153.427795 200.0
153.448853 120.0
153.468323 76.0
153.513397 376.0
153.537033 116.0
153.55307 120.0
153.599701 100.0
153.642487 248.0
153.668365 240.0
153.728729 128.0
153.757462 148.0
153.781525 200.0
153.822739 160.0
153.834045 88.0
153.868179 236.0
153.878891 132.0
153.902649 104.0
153.953079 168.0
153.970184 180.0
154.010452 132.0
154.048111 208.0
154.057755 120.0
154.067932 260.0
154.09549 204.0
154.137604 92.0
154.158173 184.0
154.191864 116.0
154.23288 216.0
154.256989 148.0
154.290741 148.0
154.336014 216.0
154.368835 144.0
154.402008 204.0
154.433029 96.0
154.477676 88.0
154.510223 224.0
154.543015 88.0
154.594971 156.0
154.633972 196.0
154.719727 116.0
154.786163 68.0
154.859634 100.0
154.876617 168.0
154.884384 148.0
154.952789 204.0
154.990509 420.0
155.015594 188.0
155.056442 344.0
155.098846 116.0
155.115097 128.0
155.139877 84.0
155.17868 160.0
155.196838 152.0
155.215759 160.0
155.263855 108.0
155.297638 116.0
155.31842 184.0
155.362823 244.0
155.397186 288.0
155.432419 124.0
155.481262 272.0
155.507675 160.0
155.580353 244.0
155.618713 108.0
155.660126 124.0
155.692856 140.0
155.752289 188.0
155.79007 136.0
155.812439 144.0
155.838898 144.0
155.898743 192.0
155.957077 248.0
155.991364 188.0
156.021194 140.0
156.046051 476.0
156.073624 92.0
156.125626 96.0
156.151215 112.0
156.179932 48.0
156.236206 172.0
156.255722 156.0
156.302246 68.0
156.321106 216.0
156.358093 172.0
156.386856 36.0
156.416382 128.0
156.450134 168.0
156.501373 120.0
156.550674 140.0
156.57402 140.0
156.613739 232.0
156.67572 140.0
156.699799 96.0
156.738007 108.0
156.76358 184.0
156.782272 204.0
156.797821 268.0
156.835907 212.0
156.857635 288.0
156.875076 136.0
156.904648 84.0
156.910461 148.0
156.944885 64.0
156.97731 116.0
157.004211 88.0
157.070145 72.0
157.088501 144.0
157.105118 224.0
157.131134 220.0
157.192993 320.0
157.222961 136.0
157.242813 132.0
157.266296 340.0
157.303116 136.0
157.360413 112.0
157.4095 144.0
157.445511 148.0
157.479568 96.0
157.492371 116.0
157.518906 120.0
157.551376 164.0
157.569595 124.0
157.621338 300.0
157.719635 128.0
157.748306 140.0
157.776306 148.0
157.793808 104.0
157.81131 144.0
157.829788 112.0
157.903656 200.0
157.938812 228.0
157.983994 156.0
158.007462 168.0
158.056427 220.0
158.092804 112.0
158.109619 316.0
158.172699 152.0
158.201859 152.0
158.251663 132.0
158.277557 176.0
158.316574 224.0
158.356842 100.0
158.387726 188.0
158.449524 108.0
158.477081 272.0
158.499634 144.0
158.526657 260.0
158.555099 60.0
158.618576 52.0
158.670074 120.0
158.688812 84.0
158.717682 176.0
158.740952 164.0
158.761429 172.0
158.812088 76.0
158.833069 48.0
158.868774 128.0
158.939514 172.0
158.959641 84.0
158.9841 144.0
159.002975 112.0
159.058273 1196.0
159.139236 56.0
159.181931 132.0
159.205093 144.0
159.22554 164.0
159.253571 76.0
159.304642 112.0
159.352737 136.0
159.370316 132.0
159.405502 72.0
159.453201 116.0
159.480896 144.0
159.529633 208.0
159.550858 328.0
159.582764 92.0
159.600388 128.0
159.639832 160.0
159.658524 160.0
159.692093 104.0
159.717255 116.0
159.74353 116.0
159.767563 188.0
159.825302 232.0
159.832397 120.0
159.853989 160.0
159.893372 92.0
159.956299 332.0
159.976654 92.0
160.066177 1192.0
160.105637 180.0
160.115738 188.0
160.151749 168.0
160.220718 44.0
160.248428 128.0
160.271332 136.0
160.290527 68.0
160.309875 160.0
160.34549 124.0
160.40921 140.0
160.425827 92.0
160.444031 224.0
160.460144 108.0
160.502701 152.0
160.511826 136.0
160.544662 316.0
160.581177 84.0
160.608826 156.0
160.686493 96.0
160.718964 52.0
160.755157 108.0
160.796585 128.0
160.836014 136.0
160.853683 224.0
160.900421 148.0
160.957352 192.0
160.983902 236.0
161.036774 1016.0
161.070038 3240.0
161.10289 536.0
161.135223 104.0
161.159271 168.0
161.17569 92.0
161.204758 84.0
161.232559 72.0
161.254684 136.0
161.280914 124.0
161.350601 144.0
161.389908 112.0
161.415787 116.0
161.527084 156.0
161.608047 220.0
161.637054 88.0
161.685852 100.0
161.753769 116.0
161.781433 104.0
161.836868 196.0
161.901062 228.0
161.928299 216.0
161.96022 132.0
162.006744 124.0
162.042053 460.0
162.063904 404.0
162.088303 532.0
162.118896 204.0
162.171524 192.0
162.187866 144.0
162.206512 148.0
162.257721 96.0
162.29509 204.0
162.382812 132.0
162.42157 228.0
162.450455 60.0
162.479828 104.0
162.50119 48.0
162.529099 188.0
162.554184 136.0
162.598709 128.0
162.611725 72.0
162.624054 96.0
162.658539 160.0
162.689377 172.0
162.728348 168.0
162.777679 84.0
162.817093 100.0
162.858337 152.0
162.895493 140.0
162.92981 188.0
162.955032 160.0
162.981415 220.0
163.020798 436.0
163.054611 592.0
163.085526 11300.0
163.119461 212.0
163.15448 132.0
163.189499 128.0
163.212387 80.0
163.266296 144.0
163.271591 128.0
163.299911 76.0
163.332336 48.0
163.349716 76.0
163.392807 68.0
163.495255 148.0
163.515106 284.0
163.53801 84.0
163.563461 44.0
163.601654 192.0
163.633575 108.0
163.656052 76.0
163.687027 60.0
163.705017 80.0
163.710815 64.0
163.739151 148.0
163.779922 232.0
163.79921 188.0
163.823364 124.0
163.842484 120.0
163.862839 132.0
163.880249 236.0
163.923065 128.0
163.95401 196.0
163.988251 104.0
164.02916 140.0
164.070465 1456.0
164.089371 1916.0
164.146759 148.0
164.203598 232.0
164.244446 200.0
164.317978 52.0
164.324799 160.0
164.335114 172.0
164.380997 160.0
164.388168 124.0
164.395523 232.0
164.426407 244.0
164.460587 208.0
164.482697 84.0
164.524506 44.0
164.561432 148.0
164.590897 140.0
164.621658 116.0
164.668472 84.0
164.69368 172.0
164.735306 128.0
164.754349 164.0
164.793884 196.0
164.819321 84.0
164.833466 108.0
164.856812 80.0
164.884979 168.0
164.907928 280.0
164.933304 268.0
164.969589 108.0
164.98497 116.0
165.01503 52.0
165.069946 13412.0
165.135147 204.0
165.185165 160.0
165.210663 156.0
165.248398 268.0
165.266739 160.0
165.291275 160.0
165.327789 180.0
165.350647 92.0
165.367218 192.0
165.410263 248.0
165.449966 164.0
165.467438 136.0
165.474197 112.0
165.512146 112.0
165.575439 196.0
165.603607 136.0
165.667068 260.0
165.688919 368.0
165.743423 144.0
165.789139 48.0
165.817474 212.0
165.843414 120.0
165.915314 112.0
165.948639 256.0
165.987656 180.0
166.025787 364.0
166.082367 13800.0
166.151764 364.0
166.17424 260.0
166.208618 124.0
166.23172 168.0
166.253281 236.0
166.279831 312.0
166.298523 92.0
166.321884 148.0
166.356934 156.0
166.390427 188.0
166.43013 76.0
166.449905 132.0
166.491837 160.0
166.516678 112.0
166.558014 128.0
166.566818 156.0
166.584518 112.0
166.614288 124.0
166.634842 260.0
166.665176 104.0
166.70018 132.0
166.776184 76.0
166.805847 204.0
166.852524 236.0
166.881592 152.0
166.918228 284.0
166.942993 100.0
166.965805 180.0
166.988586 160.0
167.016495 148.0
167.083099 1928.0
167.141068 104.0
167.177856 100.0
167.209747 164.0
167.267548 256.0
167.293228 140.0
167.345566 84.0
167.371582 120.0
167.427109 116.0
167.461044 188.0
167.511749 196.0
167.571747 80.0
167.591217 124.0
167.646225 148.0
167.663651 64.0
167.710526 72.0
167.745255 144.0
167.764023 136.0
167.802017 364.0
167.823792 128.0
167.87886 116.0
167.900452 176.0
167.91774 108.0
167.923462 68.0
167.972168 68.0
168.00528 52.0
168.059296 232.0
168.088074 364.0
168.139481 124.0
168.163528 92.0
168.221115 388.0
168.259979 108.0
168.279556 76.0
168.298279 168.0
168.319366 40.0
168.337448 144.0
168.364792 88.0
168.39006 140.0
168.425629 136.0
168.467606 132.0
168.489838 156.0
168.507919 144.0
168.534576 144.0
168.565887 100.0
168.595779 100.0
168.615662 104.0
168.636353 40.0
168.655228 100.0
168.68457 216.0
168.726913 108.0
168.751541 168.0
168.777496 108.0
168.806992 136.0
168.887863 164.0
168.918106 120.0
169.002823 204.0
169.064163 1032.0
169.097504 108.0
169.174423 252.0
169.198456 68.0
169.237305 284.0
169.256424 188.0
169.290085 332.0
169.355499 168.0
169.387863 144.0
169.408234 108.0
169.436722 52.0
169.454865 32.0
169.505493 104.0
169.542969 60.0
169.578705 116.0
169.613083 276.0
169.647095 192.0
169.683258 316.0
169.707199 164.0
169.755844 200.0
169.769257 96.0
169.776917 232.0
169.815186 136.0
169.833344 136.0
169.872253 280.0
169.890411 144.0
169.918106 160.0
169.935501 100.0
169.968246 184.0
170.00705 80.0
170.046661 204.0
170.070877 308.0
170.102386 216.0
170.127365 168.0
170.13501 176.0
170.142593 212.0
170.196671 32.0
170.251953 172.0
170.298813 112.0
170.357697 108.0
170.406296 96.0
170.424347 280.0
170.48587 188.0
170.494003 328.0
170.532104 264.0
170.597519 120.0
170.616486 96.0
170.643326 84.0
170.66777 272.0
170.720535 84.0
170.771072 132.0
170.801636 192.0
170.83046 88.0
170.864777 316.0
170.888062 108.0
170.946976 180.0
170.994751 112.0
171.011963 104.0
171.02739 140.0
171.062454 316.0
171.092529 176.0
171.113312 180.0
171.188095 148.0
171.251846 148.0
171.278275 76.0
171.329605 140.0
171.39592 156.0
171.431061 164.0
171.463547 176.0
171.492218 128.0
171.515671 84.0
171.543869 132.0
171.570068 216.0
171.600189 172.0
171.626251 144.0
171.682098 48.0
171.703156 148.0
171.748322 132.0
171.776428 124.0
171.794693 104.0
171.832916 144.0
171.858887 132.0
171.922546 68.0
171.94603 136.0
171.964294 300.0
171.983978 140.0
172.005295 288.0
172.043335 128.0
172.062454 128.0
172.08194 120.0
172.133072 148.0
172.16011 176.0
172.192825 76.0
172.21991 80.0
172.257172 96.0
172.329285 220.0
172.336502 128.0
172.397827 84.0
172.425156 132.0
172.462769 92.0
172.538254 188.0
172.573471 152.0
172.622955 140.0
172.642609 120.0
172.670547 240.0
172.753418 224.0
172.770905 76.0
172.79129 136.0
172.808731 228.0
172.84761 92.0
172.889725 132.0
172.914993 80.0
172.954102 104.0
173.048508 172.0
173.069595 548.0
173.107285 684.0
173.1539 56.0
173.174149 196.0
173.224625 236.0
173.29274 120.0
173.338364 224.0
173.359375 168.0
173.404907 164.0
173.458771 68.0
173.506439 224.0
173.547852 180.0
173.569519 128.0
173.601074 180.0
173.621872 208.0
173.654404 112.0
173.670319 376.0
173.702393 124.0
173.734238 120.0
173.753799 120.0
173.820114 316.0
173.844131 132.0
173.882751 212.0
173.912888 240.0
173.962769 248.0
173.984436 196.0
174.001953 152.0
174.083313 996.0
174.112167 244.0
174.201736 124.0
174.213074 60.0
174.217453 112.0
174.274033 92.0
174.300003 240.0
174.33696 152.0
174.361832 116.0
174.404037 272.0
174.443588 256.0
174.479034 100.0
174.525772 252.0
174.572357 168.0
174.626297 144.0
174.671005 128.0
174.691452 176.0
174.712402 184.0
174.779907 132.0
174.835297 144.0
174.861816 200.0
174.905579 112.0
174.940018 124.0
174.986801 160.0
175.018402 96.0
175.0504 380.0
175.084946 1656.0
175.167221 204.0
175.20134 156.0
175.229568 152.0
175.255371 132.0
175.265091 128.0
175.303482 124.0
175.321335 208.0
175.346558 176.0
175.387222 148.0
175.422791 160.0
175.457794 104.0
175.480637 84.0
175.513763 92.0
175.54689 136.0
175.575455 308.0
175.624527 72.0
175.661469 108.0
175.686646 176.0
175.714218 132.0
175.74292 164.0
175.768784 100.0
175.788956 124.0
175.831207 188.0
175.876282 248.0
175.925354 144.0
175.956818 100.0
176.023422 56.0
176.056992 1088.0
176.080734 824.0
176.132645 104.0
176.153122 84.0
176.175659 128.0
176.202545 108.0
176.237 148.0
176.289307 112.0
176.368011 80.0
176.403152 184.0
176.424652 68.0
176.45372 128.0
176.490738 136.0
176.520935 188.0
176.562576 156.0
176.597855 104.0
176.637589 184.0
176.658279 104.0
176.71579 48.0
176.722794 104.0
176.779999 312.0
176.832001 140.0
176.878799 200.0
176.902878 108.0
176.948471 252.0
176.984604 108.0
177.017899 148.0
177.066452 576.0
177.100143 796.0
177.17923 152.0
177.19873 84.0
177.239441 108.0
177.297195 224.0
177.36438 156.0
177.410553 200.0
177.429916 100.0
177.437317 204.0
177.459824 140.0
177.502792 232.0
177.544159 152.0
177.571976 140.0
177.654663 208.0
177.680557 172.0
177.713669 204.0
177.771301 216.0
177.823059 112.0
177.86235 148.0
177.870331 108.0
177.888702 176.0
177.929428 96.0
177.962662 116.0
177.968185 208.0
177.986984 224.0
178.022812 48.0
178.080536 636.0
178.132797 120.0
178.169571 76.0
178.175385 144.0
178.185593 132.0
178.218216 296.0
178.24649 80.0
178.264099 148.0
178.291428 184.0
178.339386 256.0
178.370407 220.0
178.390839 152.0
178.400467 104.0
178.411438 184.0
178.434219 44.0
178.455353 108.0
178.487823 124.0
178.524628 140.0
178.543243 88.0
178.588547 168.0
178.631012 88.0
178.650894 204.0
178.695786 144.0
178.718811 72.0
178.742752 128.0
178.760223 156.0
178.780014 76.0
178.814606 156.0
178.844803 140.0
178.864639 240.0
178.874191 180.0
178.88501 152.0
178.941498 132.0
178.992966 116.0
179.016937 128.0
179.071259 300.0
179.080017 380.0
179.089981 216.0
179.140869 120.0
179.14595 64.0
179.182083 84.0
179.218628 124.0
179.237457 168.0
179.257812 196.0
179.285004 64.0
179.292145 92.0
179.313202 176.0
179.333969 172.0
179.364944 148.0
179.397949 92.0
179.419281 124.0
179.462006 144.0
179.48233 216.0
179.515366 108.0
179.559006 260.0
179.611282 152.0
179.65538 128.0
179.690552 168.0
179.71759 244.0
179.758011 152.0
179.779358 124.0
179.830063 112.0
179.863388 216.0
179.895767 124.0
179.965637 276.0
180.018066 144.0
180.079926 14432.0
180.149277 88.0
180.154953 48.0
180.171722 228.0
180.178497 108.0
180.189148 196.0
180.20787 84.0
180.218521 68.0
180.249359 52.0
180.311966 196.0
180.346878 252.0
180.410416 244.0
180.462326 212.0
180.500626 164.0
180.533051 160.0
180.564804 48.0
180.602585 184.0
180.630005 252.0
180.661102 144.0
180.701996 112.0
180.707916 132.0
180.740433 172.0
180.78418 112.0
180.816086 156.0
180.869263 76.0
180.87999 60.0
180.887268 124.0
180.952927 96.0
180.995651 316.0
181.081009 1228.0
181.167938 160.0
181.213989 148.0
181.239304 152.0
181.288605 164.0
181.299118 112.0
181.34082 132.0
181.36734 76.0
181.439301 232.0
181.454712 204.0
181.482208 204.0
181.530975 160.0
181.575867 180.0
181.641373 72.0
181.657761 144.0
181.685638 156.0
181.736786 284.0
181.75293 144.0
181.791794 104.0
181.809738 244.0
181.833664 212.0
181.864258 76.0
181.903366 176.0
181.930954 156.0
181.961868 180.0
181.995804 88.0
182.026245 148.0
182.053558 152.0
182.065277 64.0
182.092621 1428.0
182.145935 128.0
182.200089 132.0
182.235275 152.0
182.291275 176.0
182.32077 228.0
182.354233 196.0
182.393478 520.0
182.468445 136.0
182.509964 156.0
182.532257 124.0
182.602615 168.0
182.643478 208.0
182.664993 224.0
182.683823 96.0
182.702652 140.0
182.733414 156.0
182.751587 256.0
182.831802 68.0
182.877563 100.0
182.916382 76.0
182.955841 152.0
182.998016 188.0
183.053818 100.0
183.08223 424.0
183.137802 184.0
183.157104 88.0
183.229599 148.0
183.311157 80.0
183.340897 112.0
183.370453 188.0
183.427048 84.0
183.470184 64.0
183.500031 176.0
183.534988 104.0
183.566895 180.0
183.609314 188.0
183.660614 116.0
183.683792 152.0
183.736557 140.0
183.768936 156.0
183.837006 76.0
183.908524 96.0
183.932922 112.0
183.958084 200.0
184.002197 176.0
184.026855 144.0
184.076035 96.0
184.082916 108.0
184.093063 176.0
184.144775 156.0
184.162521 120.0
184.181793 228.0
184.206589 68.0
184.224335 84.0
184.247208 104.0
184.307266 220.0
184.366791 116.0
184.393341 136.0
184.412262 140.0
184.464035 180.0
184.485794 140.0
184.601517 248.0
184.641388 156.0
184.685349 116.0
184.744858 124.0
184.780029 124.0
184.809799 168.0
184.838104 112.0
184.86087 116.0
184.883331 136.0
184.928864 164.0
184.961349 60.0
184.996536 48.0
185.015488 44.0
185.034439 48.0
185.053391 92.0
185.092178 188.0
185.141785 224.0
185.165253 192.0
185.185959 180.0
185.243927 124.0
185.261932 196.0
185.280884 48.0
185.31752 108.0
185.347076 112.0
185.393768 164.0
185.435669 144.0
185.492264 180.0
185.519379 36.0
185.554077 60.0
185.580688 104.0
185.64241 160.0
185.687286 104.0
185.717331 116.0
185.758728 136.0
185.770813 100.0
185.777634 148.0
185.809555 116.0
185.835785 184.0
185.863281 108.0
185.869934 180.0
185.899094 140.0
185.945236 84.0
185.975082 80.0
185.999512 96.0
186.035873 276.0
186.07338 156.0
186.102676 48.0
186.133438 224.0
186.175629 268.0
186.237564 120.0
186.267532 188.0
186.293808 128.0
186.330826 120.0
186.384933 144.0
186.435913 220.0
186.479004 164.0
186.512894 136.0
186.564545 132.0
186.61348 148.0
186.667221 100.0
186.686249 188.0
186.729156 276.0
186.749054 108.0
186.80072 120.0
186.815216 68.0
186.838043 212.0
186.857834 304.0
186.899078 136.0
186.923141 280.0
186.931915 120.0
186.977997 108.0
187.008667 164.0
187.050247 260.0
187.08606 188.0
187.128952 368.0
187.197357 104.0
187.234222 176.0
187.254074 128.0
187.299759 68.0
187.326828 104.0
187.361938 64.0
187.388153 172.0
187.438446 96.0
187.490005 112.0
187.534698 80.0
187.566315 116.0
187.615387 92.0
187.645844 304.0
187.680908 240.0
187.717056 176.0
187.74353 68.0
187.882645 120.0
187.904465 232.0
187.922287 192.0
187.950851 104.0
187.972595 128.0
187.997208 192.0
188.062744 120.0
188.088409 160.0
188.11821 416.0
188.19313 304.0
188.237473 200.0
188.259323 276.0
188.279404 116.0
188.316666 164.0
188.342041 220.0
188.360153 84.0
188.364517 108.0
188.400909 176.0
188.468338 100.0
188.517685 180.0
188.540695 136.0
188.5616 140.0
188.599915 116.0
188.64975 152.0
188.660721 136.0
188.672684 140.0
188.679428 176.0
188.701233 44.0
188.719788 132.0
188.766785 148.0
188.794952 124.0
188.835968 72.0
188.867493 84.0
188.960281 72.0
189.064331 700.0
189.10022 616.0
189.126541 180.0
189.154358 188.0
189.192474 184.0
189.227448 68.0
189.251419 256.0
189.273834 56.0
189.314911 68.0
189.343048 88.0
189.364624 136.0
189.42131 80.0
189.463379 116.0
189.508911 160.0
189.542877 272.0
189.60257 140.0
189.642212 120.0
189.701706 92.0
189.722534 104.0
189.763992 184.0
189.784103 176.0
189.812729 216.0
189.832214 164.0
189.8685 152.0
189.896408 340.0
189.931 96.0
189.957001 132.0
189.979431 180.0
190.004883 188.0
190.065155 2960.0
190.103485 700.0
190.129211 736.0
190.184906 172.0
190.19696 56.0
190.204941 96.0
190.250839 180.0
190.291077 148.0
190.312775 168.0
190.399658 112.0
190.435242 320.0
190.49144 96.0
190.526138 88.0
190.562119 128.0
190.582565 248.0
190.611557 140.0
190.64267 272.0
190.679398 112.0
190.705124 72.0
190.730621 128.0
190.763611 172.0
190.798874 124.0
190.830032 144.0
190.89032 236.0
190.945084 76.0
190.969833 84.0
191.019852 136.0
191.078232 4676.0
191.13176 236.0
191.139297 724.0
191.183975 96.0
191.220215 108.0
191.258743 112.0
191.297272 116.0
191.330872 132.0
191.357849 120.0
191.385376 196.0
191.423309 196.0
191.454025 112.0
191.47261 136.0
191.512115 196.0
191.54512 104.0
191.575409 144.0
191.631775 188.0
191.664398 200.0
191.699585 120.0
191.719604 84.0
191.75177 212.0
191.777863 340.0
191.821976 160.0
191.890625 160.0
191.912262 164.0
191.933868 212.0
191.969559 60.0
191.99437 124.0
192.077698 1252.0
192.120956 168.0
192.156311 232.0
192.192993 136.0
192.239899 172.0
192.267395 148.0
192.305679 164.0
192.323959 248.0
192.363571 104.0
192.39447 128.0
192.435684 112.0
192.450775 172.0
192.497498 128.0
192.513412 136.0
192.558563 112.0
192.626434 156.0
192.694931 112.0
192.73497 84.0
192.771927 128.0
192.805511 196.0
192.855789 120.0
192.880493 164.0
192.964569 148.0
193.012009 140.0
193.073349 2080.0
193.136154 220.0
193.195053 116.0
193.229095 64.0
193.261154 108.0
193.295502 84.0
193.327774 152.0
193.348831 60.0
193.370224 168.0
193.389603 44.0
193.41156 132.0
193.435623 236.0
193.486603 184.0
193.529297 156.0
193.565292 96.0
193.626663 272.0
193.677567 68.0
193.710236 156.0
193.781387 148.0
193.802231 148.0
193.846558 76.0
193.870819 96.0
193.895737 176.0
193.917725 136.0
193.957428 168.0
194.046921 244.0
194.076584 820.0
194.116806 188.0
194.143188 144.0
194.17865 76.0
194.215302 68.0
194.236938 176.0
194.304794 92.0
194.371735 184.0
194.44516 184.0
194.473343 108.0
194.514969 140.0
194.58046 68.0
194.636078 116.0
194.687119 84.0
194.757629 176.0
194.787109 72.0
194.812729 196.0
194.832428 216.0
194.871292 128.0
194.901321 316.0
194.930954 176.0
194.953369 76.0
194.988571 116.0
195.081406 424.0
195.145142 144.0
195.188629 68.0
195.193939 136.0
195.249466 172.0
195.303421 128.0
195.348846 140.0
195.368896 112.0
195.374634 80.0
195.385513 108.0
195.410721 88.0
195.449249 72.0
195.4729 132.0
195.497696 188.0
195.535049 80.0
195.554535 56.0
195.590027 144.0
195.669769 196.0
195.691986 180.0
195.744583 76.0
195.786453 272.0
195.839722 96.0
195.862427 148.0
195.921112 128.0
195.969894 176.0
196.03302 188.0
196.076355 200.0
196.116379 100.0
196.135101 108.0
196.148468 172.0
196.185028 284.0
196.248947 88.0
196.284439 36.0
196.317902 164.0
196.356949 192.0
196.382645 124.0
196.421097 60.0
196.469421 172.0
196.493622 152.0
196.525284 92.0
196.555008 172.0
196.583542 88.0
196.619186 216.0
196.658737 144.0
196.695404 128.0
196.73085 116.0
196.758759 36.0
196.79422 480.0
196.834152 148.0
196.87207 116.0
196.894974 184.0
196.936081 144.0
196.977463 128.0
197.023148 96.0
197.061005 240.0
197.085083 244.0
197.126587 128.0
197.154892 244.0
197.188934 156.0
197.230865 32.0
197.256027 72.0
197.284622 116.0
197.309479 132.0
197.348282 104.0
197.387421 88.0
197.46109 124.0
197.521851 184.0
197.546631 108.0
197.567474 160.0
197.605591 140.0
197.636093 80.0
197.646729 132.0
197.671844 456.0
197.734314 88.0
197.779907 152.0
197.833221 132.0
197.89447 192.0
197.943909 152.0
198.005356 104.0
198.065155 100.0
198.123169 244.0
198.180084 164.0
198.219162 124.0
198.244019 44.0
198.283249 132.0
198.319061 288.0
198.353317 148.0
198.381363 108.0
198.414795 112.0
198.422974 104.0
198.433578 96.0
198.458206 132.0
198.490707 128.0
198.515945 92.0
198.555206 240.0
198.5737 124.0
198.614105 140.0
198.661789 172.0
198.68663 276.0
198.690872 292.0
198.72377 168.0
198.765594 80.0
198.810425 156.0
198.828354 88.0
198.864197 136.0
198.943619 56.0
198.982697 160.0
199.026642 88.0
199.046295 148.0
199.067886 116.0
199.092255 164.0
199.144669 140.0
199.231232 76.0
199.235336 132.0
199.304764 164.0
199.363739 72.0
199.389023 84.0
199.419937 52.0
199.490219 120.0
199.52417 148.0
199.594238 124.0
199.627548 164.0
199.640839 184.0
199.648834 116.0
199.701752 88.0
199.729233 36.0
199.75174 156.0
199.815659 232.0
199.847397 124.0
199.885101 264.0
199.926178 116.0
199.9487 56.0
199.971207 384.0
200.000565 212.0
200.056213 76.0
200.085281 260.0
200.091507 136.0
200.103134 360.0
200.155304 204.0
200.189133 236.0
200.22731 108.0
200.254211 144.0
200.275299 136.0
200.301086 128.0
200.349457 112.0
200.392548 116.0
200.403793 72.0
200.426102 60.0
200.435074 84.0
200.501343 156.0
200.538177 160.0
200.562698 112.0
200.595871 460.0
200.627533 56.0
200.661362 68.0
200.698013 60.0
200.75061 92.0
200.7798 116.0
200.802322 168.0
200.843048 160.0
200.902847 204.0
200.929031 172.0
200.938263 100.0
200.968979 152.0
201.072495 128.0
201.094376 80.0
201.107971 152.0
201.120041 128.0
201.152237 260.0
201.171616 60.0
201.222809 120.0
201.245407 164.0
201.283737 192.0
201.310349 296.0
201.350998 152.0
201.397598 192.0
201.447159 128.0
201.513519 108.0
201.522873 100.0
201.542755 144.0
201.55481 96.0
201.567047 188.0
201.570786 184.0
201.643478 208.0
201.671982 172.0
201.70163 228.0
201.761017 132.0
201.792511 156.0
201.824631 104.0
201.853683 132.0
201.984131 120.0
202.039307 160.0
202.070328 180.0
202.095779 76.0
202.10083 192.0
202.134262 208.0
202.18013 252.0
202.265976 64.0
202.304321 168.0
202.353317 108.0
202.38205 132.0
202.430984 84.0
202.480133 188.0
202.486923 120.0
202.496384 192.0
202.516785 284.0
202.548431 128.0
202.581116 180.0
202.627533 320.0
202.672791 248.0
202.702942 284.0
202.721954 360.0
202.748413 72.0
202.784317 88.0
202.804153 120.0
202.83493 140.0
202.89061 140.0
202.928116 176.0
202.95314 188.0
202.984146 140.0
203.016785 140.0
203.045273 92.0
203.08316 264.0
203.109619 192.0
203.147263 164.0
203.166275 200.0
203.186981 96.0
203.254089 220.0
203.280441 160.0
203.337997 296.0
203.364334 72.0
203.392975 244.0
203.449493 260.0
203.462051 108.0
203.468704 208.0
203.502014 160.0
203.523071 180.0
203.559967 168.0
203.594833 192.0
203.649063 92.0
203.678772 216.0
203.700119 164.0
203.723984 300.0
203.760468 60.0
203.805984 184.0
203.875305 144.0
203.914948 164.0
203.946976 152.0
203.970306 152.0
204.014572 176.0
204.04715 92.0
204.089996 196.0
204.118881 592.0
204.173126 140.0
204.203918 92.0
204.255112 104.0
204.281982 84.0
204.31871 152.0
204.339493 212.0
204.385986 80.0
204.425583 184.0
204.447876 128.0
204.466629 296.0
204.558105 84.0
204.587219 148.0
204.593536 104.0
204.617798 252.0
204.656387 68.0
204.683624 192.0
204.700134 140.0
204.740814 136.0
204.827301 160.0
204.896164 228.0
204.941223 156.0
204.965836 144.0
205.01889 188.0
205.037369 184.0
205.076462 508.0
205.120682 248.0
205.193863 152.0
205.257614 64.0
205.283646 152.0
205.296524 180.0
205.337631 132.0
205.398041 84.0
205.466202 356.0
205.488647 56.0
205.517181 124.0
205.573654 172.0
205.597076 148.0
205.636368 188.0
205.659592 40.0
205.693771 120.0
205.722672 44.0
205.762634 108.0
205.803329 192.0
205.840973 188.0
205.862579 136.0
205.896851 132.0
205.921219 112.0
205.985382 64.0
206.027679 144.0
206.032043 108.0
206.082825 2952.0
206.127716 860.0
206.169968 136.0
206.178574 104.0
206.213821 76.0
206.235046 108.0
206.302017 120.0
206.356903 208.0
206.38707 116.0
206.422668 116.0
206.460297 180.0
206.517227 184.0
206.54039 172.0
206.570007 124.0
206.631134 412.0
206.671524 204.0
206.717316 112.0
206.73735 204.0
206.75737 52.0
206.779068 240.0
206.809753 216.0
206.8461 180.0
206.870361 280.0
206.901794 160.0
206.940353 148.0
207.025131 300.0
207.090958 35300.0
207.189072 220.0
207.222763 256.0
207.262802 64.0
207.297562 108.0
207.323685 244.0
207.35881 300.0
207.38652 68.0
207.445007 292.0
207.476151 124.0
207.512314 192.0
207.546967 112.0
207.570587 180.0
207.636505 112.0
207.662506 52.0
207.72319 240.0
207.755417 364.0
207.78894 228.0
207.814758 72.0
207.837723 80.0
207.857803 76.0
207.894638 192.0
207.951981 216.0
207.972931 176.0
208.093323 3832.0
208.165009 156.0
208.20105 148.0
208.225266 60.0
208.25856 196.0
208.296005 216.0
208.35878 164.0
208.396088 192.0
208.422791 140.0
208.500778 160.0
208.513855 160.0
208.536758 124.0
208.546936 100.0
208.58493 180.0
208.623062 120.0
208.664719 116.0
208.687912 68.0
208.709625 152.0
208.752213 156.0
208.774185 80.0
208.800461 92.0
208.821182 152.0
208.885864 88.0
208.922318 280.0
208.946762 108.0
208.983826 100.0
208.990906 228.0
209.033081 136.0
209.106033 10704.0
209.20903 92.0
209.24411 140.0
209.288498 180.0
209.336075 296.0
209.375061 192.0
209.395813 136.0
209.415359 88.0
209.452942 72.0
209.461838 100.0
209.472931 176.0
209.510056 236.0
209.556717 196.0
209.6203 52.0
209.674545 104.0
209.698105 260.0
209.705276 108.0
209.732346 92.0
209.781006 120.0
209.819412 104.0
209.839584 68.0
209.893417 252.0
209.938492 80.0
209.963165 188.0
210.009583 156.0
210.028885 212.0
210.107285 1412.0
210.171478 180.0
210.200439 140.0
210.243423 136.0
210.272278 88.0
210.322403 96.0
210.331894 92.0
210.360321 144.0
210.396408 80.0
210.428162 160.0
210.46669 144.0
210.492569 144.0
210.5056 44.0
210.519379 180.0
210.541519 208.0
210.57486 140.0
210.582275 76.0
210.644516 144.0
210.682312 144.0
210.711197 192.0
210.734314 184.0
210.762817 116.0
210.795898 128.0
210.814026 96.0
210.837372 204.0
210.858673 144.0
210.905945 184.0
210.918625 72.0
210.925049 168.0
210.956848 60.0
210.982864 172.0
211.040588 120.0
211.085754 852.0
211.120575 216.0
211.158051 68.0
211.181229 136.0
211.243912 84.0
211.281555 240.0
211.309677 380.0
211.387802 40.0
211.428314 120.0
211.477859 132.0
211.534302 104.0
211.598526 176.0
211.644028 116.0
211.674377 136.0
211.709213 144.0
211.741165 236.0
211.773224 228.0
211.802292 244.0
211.835541 188.0
211.916931 108.0
211.9552 184.0
211.990829 200.0
212.024902 76.0
212.076385 140.0
212.106064 224.0
212.139542 276.0
212.171616 96.0
212.238693 80.0
212.245514 40.0
212.256729 120.0
212.34288 184.0
212.377853 152.0
212.44397 68.0
212.480606 180.0
212.501648 128.0
212.532013 124.0
212.575912 120.0
212.622543 176.0
212.653854 108.0
212.662018 208.0
212.696594 196.0
212.753983 68.0
212.760696 120.0
212.833908 152.0
212.860733 168.0
212.91066 128.0
212.95192 140.0
213.017227 140.0
213.063995 156.0
213.086197 108.0
213.118896 84.0
213.197723 164.0
213.241791 164.0
213.257523 80.0
213.265533 140.0
213.317459 176.0
213.370926 208.0
213.412476 116.0
213.434036 112.0
213.46994 240.0
213.514252 52.0
213.548889 100.0
213.648697 292.0
213.733398 168.0
213.767349 92.0
213.807617 148.0
213.819168 124.0
213.82991 248.0
213.854645 112.0
213.90123 96.0
213.958908 116.0
214.019363 172.0
214.039963 92.0
214.05098 100.0
214.1008 248.0
214.145813 140.0
214.208206 208.0
214.230118 212.0
214.238266 92.0
214.291458 144.0
214.343155 260.0
214.383026 88.0
214.404282 140.0
214.423233 128.0
214.455109 104.0
214.499741 120.0
214.505463 404.0
214.553772 60.0
214.594589 236.0
214.620819 32.0
214.673431 192.0
214.721451 160.0
214.775391 72.0
214.800262 184.0
214.849228 180.0
214.883331 84.0
214.922256 140.0
214.946701 144.0
215.023392 208.0
215.051193 136.0
215.060577 100.0
215.076797 208.0
215.105377 92.0
215.154953 112.0
215.218399 220.0
215.23671 228.0
215.302643 172.0
215.338715 152.0
215.359161 160.0
215.421844 164.0
215.449707 176.0
215.501495 184.0
215.538086 112.0
215.572433 136.0
215.59581 140.0
215.636719 192.0
215.677444 244.0
215.703949 104.0
215.733185 204.0
215.817963 120.0
215.856659 240.0
215.891068 48.0
215.934616 72.0
215.977859 184.0
216.023514 148.0
216.06842 108.0
216.111984 184.0
216.144424 152.0
216.209457 96.0
216.244003 176.0
216.300476 116.0
216.347519 144.0
216.368011 104.0
216.400223 168.0
216.427689 140.0
216.467346 124.0
216.540787 132.0
216.587646 132.0
216.62355 124.0
216.655014 60.0
216.694717 108.0
216.716553 36.0
216.737061 36.0
216.778076 128.0
216.804459 136.0
216.880157 164.0
216.914139 124.0
216.964127 84.0
216.99205 80.0
217.028381 196.0
217.097198 856.0
217.123779 184.0
217.156265 128.0
217.257202 52.0
217.326416 40.0
217.348267 152.0
217.407211 192.0
217.446335 116.0
217.476089 288.0
217.523041 80.0
217.571259 160.0
217.58403 124.0
217.593506 88.0
217.610809 112.0
217.616196 104.0
217.652405 168.0
217.668259 104.0
217.696777 140.0
217.732788 116.0
217.759537 148.0
217.802002 244.0
217.852875 336.0
217.903351 108.0
217.928329 188.0
217.959534 116.0
217.987091 120.0
218.049515 164.0
218.070038 200.0
218.105194 328.0
218.118774 100.0
218.128983 256.0
218.175201 80.0
218.215561 132.0
218.266357 28.0
218.292816 96.0
218.332108 120.0
218.379654 76.0
218.419022 224.0
218.428757 180.0
218.444336 108.0
218.454132 236.0
218.492828 80.0
218.513428 120.0
218.557556 168.0
218.593979 164.0
218.628723 152.0
218.682419 100.0
218.764145 284.0
218.787125 124.0
218.839264 240.0
218.890121 160.0
218.92421 72.0
218.951065 224.0
219.016205 240.0
219.056061 160.0
219.092728 208.0
219.111755 188.0
219.171799 92.0
219.209885 128.0
219.289047 152.0
219.308105 144.0
219.340942 88.0
219.375046 168.0
219.440247 104.0
219.464767 108.0
219.499161 156.0
219.550323 284.0
219.560272 184.0
219.591568 52.0
219.624939 104.0
219.672195 96.0
219.703796 172.0
219.76561 188.0
219.811218 92.0
219.844559 396.0
219.901367 184.0
219.925888 160.0
219.957535 236.0
219.977188 180.0
220.0737 6404.0
220.117752 156.0
220.143661 396.0
220.169388 132.0
220.201233 228.0
220.231903 192.0
220.295258 168.0
220.33049 124.0
220.378845 196.0
220.406235 100.0
220.462997 212.0
220.484955 100.0
220.513336 196.0
220.605621 128.0
220.639847 92.0
220.681229 120.0
220.695572 108.0
220.704208 104.0
220.737656 204.0
220.75676 144.0
220.77977 112.0
220.807816 140.0
220.841705 136.0
220.889404 124.0
220.965164 72.0
221.010498 144.0
221.0784 1492.0
221.125595 216.0
221.181198 176.0
221.248672 96.0
221.256088 140.0
221.267731 140.0
221.279785 92.0
221.292068 168.0
221.334732 140.0
221.345215 120.0
221.351028 188.0
221.425049 144.0
221.475586 124.0
221.488068 132.0
221.589874 156.0
221.618515 60.0
221.65271 96.0
221.681732 168.0
221.705429 56.0
221.729141 132.0
221.749893 40.0
221.826538 224.0
221.868454 176.0
221.896988 116.0
221.918274 40.0
221.929489 96.0
221.954437 100.0
221.989136 168.0
222.000763 220.0
222.022446 156.0
222.074631 236.0
222.108353 288.0
222.145859 332.0
222.201859 48.0
222.212051 164.0
222.222473 120.0
222.26886 140.0
222.305283 140.0
222.333252 152.0
222.382126 216.0
222.449905 72.0
222.49147 64.0
222.549026 204.0
222.583511 148.0
222.604294 344.0
222.631027 100.0
222.668503 116.0
222.717606 128.0
222.747238 312.0
222.783691 120.0
222.809708 104.0
222.842392 176.0
222.869415 184.0
222.895401 244.0
222.919067 224.0
222.963211 108.0
223.007278 144.0
223.047791 248.0
223.085464 292.0
223.144012 1768.0
223.183731 164.0
223.20752 36.0
223.252121 104.0
223.296783 200.0
223.319473 180.0
223.356491 136.0
223.378098 192.0
223.406998 120.0
223.443665 144.0
223.475586 140.0
223.512268 116.0
223.571655 144.0
223.612595 268.0
223.647827 184.0
223.768677 184.0
223.799652 76.0
223.832413 40.0
223.859207 52.0
223.896851 144.0
223.921753 92.0
223.958618 148.0
224.001022 228.0
224.055786 96.0
224.086121 200.0
224.114792 164.0
224.144379 268.0
224.211838 108.0
224.255753 68.0
224.294388 244.0
224.329361 80.0
224.336914 120.0
224.375153 176.0
224.433594 100.0
224.493958 148.0
224.529892 148.0
224.540085 68.0
224.563721 172.0
224.586319 136.0
224.632874 168.0
224.651398 144.0
224.691589 108.0
224.744522 160.0
224.819809 204.0
224.871872 136.0
224.880905 80.0
224.905029 92.0
224.911896 92.0
224.962387 136.0
225.00119 44.0
225.058014 264.0
225.100494 556.0
225.14772 176.0
225.177368 44.0
225.211105 68.0
225.246078 224.0
225.29805 40.0
225.389923 108.0
225.452225 92.0
225.476135 164.0
225.523087 124.0
225.563797 160.0
225.595917 164.0
225.626389 152.0
225.679535 324.0
225.725616 68.0
225.759399 260.0
225.805008 168.0
225.870758 160.0
225.907898 100.0
225.932571 180.0
225.960556 68.0
226.01442 208.0
226.062927 392.0
226.09964 216.0
226.125107 240.0
226.154388 352.0
226.185455 248.0
226.205963 84.0
226.229797 120.0
226.300262 144.0
226.336578 236.0
226.391586 200.0
226.426712 132.0
226.458878 128.0
226.551941 216.0
226.580292 64.0
226.625229 124.0
226.676361 192.0
226.712814 140.0
226.748093 148.0
226.785095 76.0
226.820038 120.0
226.867813 68.0
226.887207 108.0
226.911545 84.0
226.943359 148.0
226.975159 156.0
227.000671 160.0
227.053406 116.0
227.09024 136.0
227.144028 168.0
227.185883 64.0
227.208191 140.0
227.230881 200.0
227.277222 36.0
227.304031 180.0
227.34491 376.0
227.407532 140.0
227.438782 100.0
227.485977 80.0
227.527374 76.0
227.578644 152.0
227.612778 68.0
227.654114 156.0
227.703278 140.0
227.745148 100.0
227.818848 156.0
227.84935 136.0
227.874481 120.0
227.934494 164.0
227.962906 136.0
227.996582 112.0
228.022003 100.0
228.073547 156.0
228.196136 104.0
228.258362 144.0
228.285187 132.0
228.316574 140.0
228.359711 108.0
228.373688 196.0
228.462036 100.0
228.489716 88.0
228.523239 224.0
228.572205 348.0
228.631409 92.0
228.664246 140.0
228.717743 212.0
228.753754 136.0
228.817642 92.0
228.868057 120.0
228.94751 236.0
228.986404 328.0
229.011765 208.0
229.095642 172.0
229.155045 264.0
229.193405 156.0
229.224396 40.0
229.250519 72.0
229.322968 124.0
229.369064 324.0
229.390167 224.0
229.438019 64.0
229.468536 52.0
229.578354 144.0
229.602768 264.0
229.670944 68.0
229.694717 156.0
229.763748 136.0
229.776505 148.0
229.824753 196.0
229.857635 32.0
229.892014 144.0
229.952621 84.0
229.972321 160.0
229.997681 208.0
230.051605 136.0
230.085342 136.0
230.110825 168.0
230.133209 320.0
230.196381 148.0
230.24707 168.0
230.282425 176.0
230.324997 120.0
230.346924 68.0
230.369202 184.0
230.389038 228.0
230.413208 72.0
230.460464 172.0
230.504517 200.0
230.57431 164.0
230.589981 180.0
230.642242 136.0
230.709366 164.0
230.752457 112.0
230.799179 108.0
230.835175 164.0
230.867798 116.0
230.887772 136.0
230.921036 72.0
230.969986 132.0
231.018433 204.0
231.090958 136.0
231.177032 260.0
231.208282 280.0
231.231369 136.0
231.293198 132.0
231.347687 128.0
231.383606 180.0
231.417618 84.0
231.44249 116.0
231.515701 188.0
231.566574 168.0
231.585876 140.0
231.611557 144.0
231.639145 132.0
231.730103 172.0
231.757935 132.0
231.826477 152.0
231.860779 160.0
231.89595 64.0
231.936035 180.0
231.965668 28.0
232.021973 204.0
232.062286 152.0
232.084854 132.0
232.136688 100.0
232.158096 120.0
232.182343 104.0
232.20636 108.0
232.22789 100.0
232.238205 132.0
232.26123 144.0
232.282501 108.0
232.331696 116.0
232.377991 100.0
232.44371 168.0
232.467758 160.0
232.501923 124.0
232.536789 140.0
232.561859 124.0
232.58165 388.0
232.612686 136.0
232.661179 104.0
232.68869 244.0
232.767731 156.0
232.806107 156.0
232.826614 128.0
232.870499 100.0
232.906342 72.0
232.955536 164.0
232.991394 304.0
233.016632 108.0
233.069855 692.0
233.091843 636.0
233.152435 72.0
233.191818 180.0
233.222153 120.0
233.277054 152.0
233.31485 116.0
233.337952 136.0
233.369278 168.0
233.39653 220.0
233.430023 248.0
233.450806 136.0
233.486023 140.0
233.536453 92.0
233.599396 76.0
233.64064 136.0
233.662567 128.0
233.687622 164.0
233.713837 104.0
233.753662 108.0
233.813004 140.0
233.851547 148.0
233.934143 136.0
233.998337 272.0
234.078888 2524.0
234.155701 184.0
234.204391 80.0
234.235184 132.0
234.269577 168.0
234.317093 160.0
234.325195 108.0
234.338226 76.0
234.401505 256.0
234.454025 252.0
234.495636 164.0
234.54689 180.0
234.583481 108.0
234.619095 212.0
234.686569 156.0
234.705307 276.0
234.731827 132.0
234.746368 96.0
234.763809 80.0
234.843628 164.0
234.940536 316.0
234.983902 312.0
234.988937 232.0
235.006302 288.0
235.086578 148428.0
235.177109 276.0
235.241684 152.0
235.253052 96.0
235.285583 352.0
235.317596 152.0
235.332245 204.0
235.337891 100.0
235.374008 208.0
235.392303 424.0
235.416733 240.0
235.44989 108.0
235.500183 84.0
235.540451 276.0
235.588257 1012.0
235.641876 188.0
235.666122 144.0
235.69548 100.0
235.73056 252.0
235.782349 140.0
235.821075 92.0
235.85437 160.0
235.877167 232.0
235.888 168.0
235.914993 420.0
235.946228 224.0
235.990738 188.0
236.020981 52.0
236.088028 26204.0
236.141968 172.0
236.183563 224.0
236.209412 64.0
236.236969 84.0
236.269608 168.0
236.309769 240.0
236.350571 136.0
236.384827 208.0
236.405136 48.0
236.434174 84.0
236.488434 64.0
236.504013 72.0
236.512482 164.0
236.561371 140.0
236.596664 204.0
236.632935 184.0
236.657227 128.0
236.665314 104.0
236.689941 104.0
236.744949 60.0
236.753372 156.0
236.76651 124.0
236.841934 48.0
236.875137 108.0
236.926819 104.0
236.975403 132.0
237.020477 228.0
237.086243 2376.0
237.139145 192.0
237.171814 44.0
237.196609 88.0
237.264969 108.0
237.30722 56.0
237.343765 144.0
237.383148 128.0
237.390274 108.0
237.400955 136.0
237.435577 64.0
237.462952 252.0
237.483826 92.0
237.523178 136.0
237.52829 100.0
237.567154 96.0
237.593567 240.0
237.639282 104.0
237.67662 272.0
237.716171 264.0
237.762344 116.0
237.84787 288.0
237.891205 196.0
237.926468 144.0
237.946213 92.0
237.966873 256.0
238.005753 292.0
238.05838 168.0
238.09108 696.0
238.131439 132.0
238.165161 192.0
238.205566 44.0
238.21669 132.0
238.258011 156.0
238.292191 72.0
238.346481 108.0
238.37146 204.0
238.375778 188.0
238.389862 56.0
238.416763 168.0
238.447922 112.0
238.469009 272.0
238.516541 176.0
238.537277 76.0
238.562637 56.0
238.604538 204.0
238.657181 144.0
238.707153 64.0
238.73175 72.0
238.756348 60.0
238.786057 180.0
238.815857 96.0
238.856537 204.0
238.91806 28.0
238.985001 220.0
239.016708 360.0
239.080978 616.0
239.119125 96.0
239.155899 144.0
239.194061 124.0
239.254822 104.0
239.278259 92.0
239.320099 80.0
239.344116 208.0
239.392075 200.0
239.464386 216.0
239.603104 92.0
239.637405 72.0
239.66011 88.0
239.699051 176.0
239.727417 100.0
239.76358 144.0
239.812378 60.0
239.849365 156.0
239.882019 128.0
239.91832 108.0
239.969589 104.0
240.001053 140.0
240.023666 92.0
240.044144 228.0
240.082321 204.0
240.126862 108.0
240.166962 60.0
240.191635 48.0
240.225159 152.0
240.259506 184.0
240.312485 160.0
240.346832 92.0
240.416916 228.0
240.473541 88.0
240.50882 212.0
240.540329 72.0
240.616974 152.0
240.642868 148.0
240.695923 120.0
240.724228 160.0
240.768814 68.0
240.812042 40.0
240.857849 224.0
240.961029 88.0
240.994308 72.0
241.046646 64.0
241.121002 176.0
241.202042 128.0
241.226089 68.0
241.247742 120.0
241.284775 104.0
241.389954 92.0
241.430969 152.0
241.459366 72.0
241.487625 76.0
241.552383 256.0
241.584808 84.0
241.606476 92.0
241.654083 196.0
241.722427 168.0
241.795227 200.0
241.847748 136.0
241.855576 72.0
241.87233 140.0
241.9048 156.0
241.93956 140.0
241.958664 40.0
242.004791 172.0
242.051086 80.0
242.063705 44.0
242.104813 152.0
242.126617 100.0
242.162003 112.0
242.187775 160.0
242.25238 80.0
242.281372 48.0
242.343552 172.0
242.426987 188.0
242.454178 72.0
242.489639 168.0
242.522171 96.0
242.552139 112.0
242.596329 152.0
242.643967 92.0
242.675812 88.0
242.710114 232.0
242.7715 152.0
242.814514 120.0
242.837677 120.0
242.886246 96.0
242.918076 144.0
242.941696 80.0
242.98793 68.0
243.013672 208.0
243.075104 228.0
243.108322 108.0
243.161148 144.0
243.187805 140.0
243.235199 124.0
243.268143 212.0
243.295471 80.0
243.343231 188.0
243.373901 108.0
243.396088 136.0
243.42981 56.0
243.454956 132.0
243.491089 108.0
243.531479 112.0
243.574951 104.0
243.608871 96.0
243.649521 288.0
243.715744 140.0
243.776901 148.0
243.801773 188.0
243.828339 160.0
243.880997 212.0
243.938522 116.0
243.988785 52.0
244.044235 88.0
244.084961 244.0
244.119415 148.0
244.145828 208.0
244.204269 156.0
244.237045 132.0
244.25209 100.0
244.280594 152.0
244.345581 208.0
244.399734 148.0
244.428467 152.0
244.449341 152.0
244.471512 136.0
244.501511 68.0
244.533279 292.0
244.592117 144.0
244.672699 112.0
244.714859 252.0
244.736664 148.0
244.766113 120.0
244.822159 100.0
244.869644 168.0
244.894379 208.0
244.940903 256.0
244.968246 364.0
244.99971 116.0
245.044754 52.0
245.070847 72.0
245.099136 120.0
245.139923 92.0
245.167603 172.0
245.270813 76.0
245.317581 52.0
245.364334 148.0
245.412949 152.0
245.439163 136.0
245.46875 140.0
245.504715 160.0
245.544876 168.0
245.587936 108.0
245.594116 76.0
245.640274 112.0
245.66684 88.0
245.698044 84.0
245.72081 112.0
245.744843 76.0
245.835846 72.0
245.860092 128.0
245.894623 88.0
245.95816 124.0
245.986237 172.0
246.025726 124.0
246.082367 152.0
246.089417 80.0
246.104736 104.0
246.136429 240.0
246.204422 104.0
246.227997 180.0
246.259918 108.0
246.316147 60.0
246.341141 124.0
246.369247 68.0
246.403076 92.0
246.43367 84.0
246.464951 108.0
246.524033 124.0
246.545502 196.0
246.586472 132.0
246.610535 112.0
246.646271 68.0
246.684021 88.0
246.738266 100.0
246.790573 84.0
246.834946 80.0
246.873566 260.0
246.938461 120.0
246.991409 104.0
247.028854 152.0
247.057022 152.0
247.089035 224.0
247.114944 388.0
247.161697 284.0
247.188431 168.0
247.219727 172.0
247.287109 128.0
247.334686 152.0
247.369385 276.0
247.410645 112.0
247.438828 176.0
247.463867 200.0
247.488678 52.0
247.520142 128.0
247.544144 100.0
247.55632 84.0
247.625656 208.0
247.683762 112.0
247.708145 112.0
247.752106 136.0
247.786469 116.0
247.826797 176.0
247.88031 148.0
247.904022 116.0
247.915909 168.0
247.943146 48.0
247.973572 88.0
248.007187 108.0
248.056885 96.0
248.086044 224.0
248.120911 212.0
248.140411 268.0
248.174332 80.0
248.196274 236.0
248.309952 136.0
248.344452 252.0
248.37677 132.0
248.457169 172.0
248.503464 252.0
248.54837 112.0
248.614273 292.0
248.637939 156.0
248.646698 84.0
248.714706 148.0
248.764938 104.0
248.8228 120.0
248.851822 160.0
248.8871 328.0
248.924484 144.0
248.972244 160.0
249.023117 300.0
249.060104 144.0
249.101486 2536.0
249.146484 128.0
249.170441 128.0
249.195953 212.0
249.253387 172.0
249.300369 168.0
249.324692 284.0
249.36174 96.0
249.383743 56.0
249.407425 208.0
249.454117 144.0
249.460052 144.0
249.487473 136.0
249.544006 168.0
249.617264 184.0
249.758331 116.0
249.820251 88.0
249.829727 72.0
249.840286 148.0
249.855042 100.0
249.865692 136.0
249.949341 132.0
249.99028 260.0
250.012756 144.0
250.038834 444.0
250.07048 340.0
250.101151 468.0
250.142517 176.0
250.20224 80.0
250.256317 264.0
250.299347 100.0
250.347061 136.0
250.388474 140.0
250.419861 52.0
250.437515 144.0
250.504822 324.0
250.568604 136.0
250.604538 156.0
250.646927 52.0
250.677216 288.0
250.710358 132.0
250.733109 120.0
250.757736 80.0
250.79068 124.0
250.828506 140.0
250.856873 228.0
250.878937 144.0
250.91362 116.0
250.939346 148.0
251.029465 92.0
251.037933 160.0
251.117569 2992.0
251.237625 152.0
251.258484 156.0
251.283875 348.0
251.346054 108.0
251.386826 156.0
251.432053 180.0
251.499344 232.0
251.607697 52.0
251.664246 180.0
251.669373 164.0
251.684448 104.0
251.697586 196.0
251.730637 172.0
251.773926 136.0
251.806625 232.0
251.835052 100.0
251.872955 52.0
251.904343 64.0
251.945618 88.0
251.974045 168.0
252.031845 184.0
252.057343 88.0
252.117188 1312.0
252.206604 128.0
252.286926 44.0
252.345963 200.0
252.384933 136.0
252.433777 60.0
252.495621 124.0
252.528091 388.0
252.558868 44.0
252.583237 148.0
252.64389 96.0
252.669937 136.0
252.705734 224.0
252.770844 140.0
252.809021 180.0
252.845886 116.0
252.898895 224.0
252.938583 128.0
252.97023 108.0
253.042114 68.0
253.06163 92.0
253.097122 440.0
253.121307 648.0
253.16098 120.0
253.200989 224.0
253.245712 128.0
253.273514 72.0
253.309067 172.0
253.340256 180.0
253.367935 144.0
253.405624 228.0
253.44635 124.0
253.489655 80.0
253.544983 148.0
253.575226 104.0
253.607513 64.0
253.633804 156.0
253.665176 84.0
253.706009 320.0
253.757935 244.0
253.793961 48.0
253.835709 408.0
253.889099 196.0
253.913498 132.0
253.942169 196.0
253.981277 120.0
254.055252 124.0
254.130341 224.0
254.168839 108.0
254.199738 64.0
254.257095 88.0
254.292786 148.0
254.317398 176.0
254.33963 160.0
254.381821 260.0
254.424759 220.0
254.485657 96.0
254.515213 156.0
254.534805 92.0
254.56546 240.0
254.631729 40.0
254.657135 48.0
254.680603 176.0
254.736908 244.0
254.781021 80.0
254.806442 136.0
254.90062 156.0
254.958694 124.0
255.000198 172.0
255.049332 304.0
255.088623 116.0
255.121063 176.0
255.157593 156.0
255.204102 152.0
255.273682 72.0
255.301437 88.0
255.327744 120.0
255.378632 52.0
255.406509 152.0
255.47348 152.0
255.526001 212.0
255.550629 240.0
255.573715 212.0
255.654541 72.0
255.677704 120.0
255.74942 324.0
255.816055 60.0
255.839752 316.0
255.868683 68.0
255.903717 120.0
255.941925 52.0
255.990921 124.0
256.026489 228.0
256.062927 60.0
256.117737 200.0
256.164032 76.0
256.191803 80.0
256.22229 136.0
256.265228 176.0
256.300507 288.0
256.399536 320.0
256.429321 132.0
256.499908 136.0
256.543152 168.0
256.55365 120.0
256.560913 168.0
256.591888 44.0
256.6716 148.0
256.693939 80.0
256.729706 180.0
256.822327 296.0
256.853394 40.0
256.891663 40.0
256.916138 256.0
256.949097 76.0
256.998901 192.0
257.083496 100.0
257.110779 252.0
257.143524 156.0
257.150452 80.0
257.164276 156.0
257.175323 36.0
257.202881 68.0
257.250061 232.0
257.286621 160.0
257.319305 120.0
257.357635 76.0
257.437469 92.0
257.458618 124.0
257.504517 104.0
257.540466 76.0
257.564392 92.0
257.613129 112.0
257.645081 112.0
257.675171 120.0
257.730286 144.0
257.764008 292.0
257.816864 116.0
257.838928 248.0
257.89978 276.0
257.931854 188.0
257.963379 132.0
257.974396 80.0
257.996399 172.0
258.041687 164.0
258.057007 108.0
258.067688 208.0
258.105316 172.0
258.16983 252.0
258.198059 136.0
258.268433 52.0
258.321533 132.0
258.362915 172.0
258.434784 176.0
258.468384 88.0
258.498138 176.0
258.513031 96.0
258.528412 124.0
258.542175 128.0
258.553192 68.0
258.583069 292.0
258.607574 104.0
258.707672 152.0
258.754028 232.0
258.778931 92.0
258.809998 120.0
258.874451 88.0
258.895721 152.0
258.920441 156.0
258.966187 128.0
258.987488 124.0
259.014984 208.0
259.04837 360.0
259.07016 152.0
259.12265 256.0
259.203644 132.0
259.241516 188.0
259.268921 104.0
259.295959 156.0
259.359344 84.0
259.437225 136.0
259.483643 100.0
259.547028 196.0
259.569244 300.0
259.603149 64.0
259.649292 300.0
259.688843 116.0
259.716125 148.0
259.739807 224.0
259.780365 96.0
259.890625 132.0
259.925537 188.0
259.972168 92.0
260.003998 140.0
260.0289 88.0
260.079987 236.0
260.165466 208.0
260.229675 92.0
260.286011 212.0
260.313873 352.0
260.356476 180.0
260.413269 92.0
260.495636 296.0
260.525146 84.0
260.615662 204.0
260.647247 76.0
260.70166 132.0
260.722412 164.0
260.795074 192.0
260.85907 180.0
260.908936 160.0
260.955414 120.0
261.003815 124.0
261.016418 80.0
261.024231 148.0
261.074493 88.0
261.10498 388.0
261.13443 88.0
261.172089 156.0
261.242035 108.0
261.270996 132.0
261.325684 112.0
261.369324 128.0
261.424408 128.0
261.473694 120.0
261.524872 120.0
261.596008 84.0
261.629425 116.0
261.671814 300.0
261.713196 132.0
261.737 240.0
261.804596 380.0
261.843414 144.0
261.87207 148.0
261.944 128.0
261.968414 160.0
261.987122 112.0
262.032043 264.0
262.087585 132.0
262.136932 160.0
262.166107 76.0
262.235413 140.0
262.261383 128.0
262.292267 328.0
262.317596 124.0
262.351776 156.0
262.396179 224.0
262.476166 152.0
262.513367 116.0
262.536102 104.0
262.569092 160.0
262.591675 72.0
262.722626 380.0
262.816467 140.0
262.899963 192.0
262.924835 152.0
262.99472 92.0
263.082855 540.0
263.112122 580.0
263.15152 196.0
263.177185 128.0
263.214508 104.0
263.240356 136.0
263.262939 108.0
263.289856 176.0
263.327545 232.0
263.358032 108.0
263.372498 48.0
263.384766 28.0
263.421204 68.0
263.446014 172.0
263.468689 132.0
263.526428 168.0
263.598907 132.0
263.63446 60.0
263.660309 160.0
263.683594 120.0
263.707031 100.0
263.749847 132.0
263.81546 88.0
263.871826 156.0
263.931854 164.0
263.974182 128.0
264.027466 120.0
264.063019 140.0
264.102081 140.0
264.137329 104.0
264.253143 156.0
264.325531 160.0
264.336914 228.0
264.373108 64.0
264.454315 160.0
264.492188 204.0
264.540161 316.0
264.591888 124.0
264.640045 96.0
264.672607 120.0
264.715424 240.0
264.748077 140.0
264.772278 256.0
264.804169 108.0
264.843689 148.0
264.88205 208.0
264.930817 144.0
264.9935 112.0
265.039825 148.0
265.064789 212.0
265.093933 140.0
265.130737 272.0
265.157471 72.0
265.207367 156.0
265.242249 396.0
265.33551 84.0
265.356506 140.0
265.463501 148.0
265.625305 140.0
265.797607 160.0
265.832703 128.0
265.92041 192.0
265.95694 288.0
265.9823 292.0
266.011475 152.0
266.070892 136.0
266.151428 60.0
266.232605 188.0
266.29834 156.0
266.325928 224.0
266.375885 104.0
266.435883 96.0
266.475159 132.0
266.552643 140.0
266.575165 64.0
266.624268 128.0
266.673431 188.0
266.737457 124.0
266.762207 92.0
266.802673 136.0
266.831299 128.0
266.864868 216.0
266.913605 212.0
266.969391 256.0
267.03595 132.0
267.073059 88.0
267.111572 416.0
267.186615 208.0
267.222778 104.0
267.276093 72.0
267.328156 164.0
267.357452 120.0
267.383484 188.0
267.415466 184.0
267.470215 128.0
267.486542 60.0
267.498444 124.0
267.529175 176.0
267.556 128.0
267.582031 72.0
267.611328 108.0
267.645416 112.0
267.694763 116.0
267.737946 96.0
267.780304 176.0
267.820007 160.0
267.876831 256.0
267.917908 144.0
267.963104 168.0
268.002045 160.0
268.055664 168.0
268.113281 416.0
268.157806 188.0
268.235229 120.0
268.296906 200.0
268.353638 360.0
268.417267 316.0
268.467285 136.0
268.515991 216.0
268.568054 132.0
268.614868 112.0
268.660187 136.0
268.690002 92.0
268.712982 164.0
268.735809 116.0
268.790314 228.0
268.836975 76.0
268.866333 124.0
268.906952 160.0
268.988556 172.0
268.998108 76.0
269.009674 136.0
269.051514 176.0
269.083008 128.0
269.12912 168.0
269.139252 180.0
269.190765 84.0
269.236603 92.0
269.294037 272.0
269.343018 52.0
269.372437 100.0
269.423157 204.0
269.486786 88.0
269.511292 152.0
269.560303 120.0
269.566589 260.0
269.636505 196.0
269.679993 132.0
269.716553 128.0
269.780914 104.0
269.809631 100.0
269.918243 200.0
269.941132 140.0
270.008606 144.0
270.030334 128.0
270.086182 148.0
270.118286 72.0
270.155273 84.0
270.175934 192.0
270.217224 176.0
270.283051 120.0
270.315948 284.0
270.368195 132.0
270.39035 140.0
270.418762 60.0
270.486847 140.0
270.495331 112.0
270.512054 72.0
270.569031 88.0
270.580688 172.0
270.628265 76.0
270.652039 156.0
270.702209 180.0
270.783936 148.0
270.856628 268.0
270.886688 176.0
270.959351 136.0
271.009308 108.0
271.047119 220.0
271.085602 144.0
271.119629 112.0
271.15567 184.0
271.217957 80.0
271.247101 204.0
271.286804 76.0
271.335968 156.0
271.403412 156.0
271.470398 176.0
271.498749 244.0
271.536011 120.0
271.595032 356.0
271.618011 176.0
271.640961 56.0
271.678772 84.0
271.728607 128.0
271.756927 196.0
271.81485 140.0
271.839081 84.0
271.86734 168.0
271.905884 124.0
271.962524 112.0
272.034485 52.0
272.063385 144.0
272.136841 152.0
272.175934 144.0
272.204102 96.0
272.274445 136.0
272.299591 76.0
272.34668 72.0
272.377869 144.0
272.412292 156.0
272.420013 124.0
272.498749 196.0
272.544983 160.0
272.583221 152.0
272.611267 120.0
272.650085 456.0
272.675262 336.0
272.698273 68.0
272.762085 356.0
272.802734 128.0
272.816345 100.0
272.87262 104.0
272.91983 196.0
272.966339 164.0
273.013885 148.0
273.036896 136.0
273.06308 96.0
273.090149 168.0
273.143585 92.0
273.194794 100.0
273.2211 220.0
273.246643 124.0
273.276611 216.0
273.326385 92.0
273.373901 208.0
273.401917 84.0
273.428711 396.0
273.456055 128.0
273.482758 108.0
273.529175 136.0
273.591797 156.0
273.620422 136.0
273.658234 132.0
273.70163 168.0
273.740204 124.0
273.753601 180.0
273.762787 84.0
273.775574 176.0
273.816895 104.0
273.85556 124.0
273.900146 172.0
273.961395 184.0
273.983154 136.0
274.024414 156.0
274.062042 172.0
274.104095 220.0
274.141083 168.0
274.168823 116.0
274.208862 172.0
274.243866 108.0
274.294647 100.0
274.334839 152.0
274.371796 120.0
274.398743 132.0
274.436401 160.0
274.508301 180.0
274.542969 152.0
274.597992 60.0
274.621094 180.0
274.664642 156.0
274.693939 136.0
274.749634 140.0
274.781647 136.0
274.790009 152.0
274.861023 140.0
274.934387 100.0
274.96936 144.0
275.035095 176.0
275.079987 1960.0
275.165497 172.0
275.217163 128.0
275.229797 40.0
275.23938 124.0
275.281586 144.0
275.328552 204.0
275.35379 212.0
275.422821 120.0
275.446228 240.0
275.518799 136.0
275.53717 104.0
275.550201 132.0
275.613464 172.0
275.640076 116.0
275.665802 196.0
275.689728 140.0
275.713287 252.0
275.763733 288.0
275.792358 148.0
275.817322 220.0
275.838043 240.0
275.866882 292.0
275.925446 292.0
275.977692 312.0
276.0224 284.0
276.11142 2876.0
276.187073 476.0
276.226349 380.0
276.277893 436.0
276.347809 156.0
276.376099 268.0
276.469147 392.0
276.483276 544.0
276.51947 164.0
276.544342 264.0
276.602631 360.0
276.646149 488.0
276.656372 176.0
276.677155 396.0
276.71048 380.0
276.757477 336.0
276.782227 452.0
276.794067 572.0
276.824371 432.0
276.847412 416.0
276.890289 276.0
276.927826 708.0
276.976929 1080.0
277.004456 688.0
277.032806 1228.0
277.097809 334808.0
277.205414 168.0
277.276184 228.0
277.320282 840.0
277.403107 872.0
277.458344 808.0
277.51535 772.0
277.547424 584.0
277.597046 648.0
277.647247 7560.0
277.721649 536.0
277.76297 364.0
277.77063 136.0
277.810822 68.0
277.882111 268.0
277.912109 328.0
277.968933 268.0
278.003143 232.0
278.100006 109432.0
278.20993 212.0
278.289185 160.0
278.325836 68.0
278.351471 220.0
278.36322 76.0
278.392883 260.0
278.405396 76.0
278.417938 300.0
278.456329 240.0
278.469452 296.0
278.482941 208.0
278.527802 128.0
278.557922 216.0
278.601196 112.0
278.640015 436.0
278.686279 340.0
278.732269 208.0
278.745239 108.0
278.750793 184.0
278.77356 172.0
278.830353 236.0
278.890656 148.0
278.916077 220.0
278.943939 256.0
278.969025 112.0
279.026886 428.0
279.101379 13088.0
279.189941 40.0
279.217072 108.0
279.262268 160.0
279.285675 168.0
279.35672 308.0
279.39035 48.0
279.403168 116.0
279.424866 160.0
279.446289 96.0
279.475891 92.0
279.506226 128.0
279.532806 380.0
279.563843 176.0
279.61377 260.0
279.659515 248.0
279.702972 268.0
279.750336 52.0
279.78476 240.0
279.82077 336.0
279.848969 200.0
279.89917 416.0
279.948853 208.0
279.995148 380.0
280.014587 328.0
280.058838 256.0
280.101349 1036.0
280.170776 256.0
280.215179 300.0
280.251068 220.0
280.310486 248.0
280.363098 184.0
280.40152 140.0
280.442596 300.0
280.486145 128.0
280.520447 156.0
280.54599 52.0
280.569122 156.0
280.641632 84.0
280.667786 284.0
280.709991 88.0
280.719025 72.0
280.758362 168.0
280.77243 100.0
280.798431 256.0
280.810272 120.0
280.822449 60.0
280.848816 124.0
280.911163 88.0
280.942657 148.0
280.983643 276.0
281.02771 184.0
281.086853 272.0
281.139648 100.0
281.195984 160.0
281.21579 120.0
281.260223 96.0
281.295135 144.0
281.366974 168.0
281.377655 76.0
281.420868 112.0
281.458252 208.0
281.526489 120.0
281.570343 100.0
281.599945 76.0
281.638702 52.0
281.676453 108.0
281.703003 176.0
281.749298 96.0
281.779083 152.0
281.834045 40.0
281.849091 60.0
281.877167 92.0
281.910675 88.0
281.974762 208.0
282.018341 128.0
282.095367 96.0
282.131012 88.0
282.164001 76.0
282.22229 56.0
282.258423 164.0
282.27066 176.0
282.294159 116.0
282.328949 128.0
282.385376 84.0
282.407745 116.0
282.422058 88.0
282.473602 48.0
282.592712 48.0
282.627502 148.0
282.679901 156.0
282.729401 132.0
282.77301 132.0
282.802948 140.0
282.842529 156.0
282.865112 188.0
282.885986 120.0
282.973145 132.0
283.006836 104.0
283.060333 104.0
283.097809 332.0
283.132568 100.0
283.17746 140.0
283.207764 144.0
283.23526 224.0
283.290405 64.0
283.3172 128.0
283.368347 136.0
283.43634 36.0
283.491699 140.0
283.580261 80.0
283.659119 128.0
283.702606 68.0
283.759583 56.0
283.796295 72.0
283.829193 140.0
283.877563 152.0
283.934174 120.0
284.005371 68.0
284.044647 92.0
284.079987 52.0
284.108704 184.0
284.153107 60.0
284.202332 68.0
284.300354 156.0
284.329834 160.0
284.38623 120.0
284.438324 100.0
284.469208 80.0
284.511108 44.0
284.564819 236.0
284.602417 160.0
284.64502 108.0
284.686279 212.0
284.736084 168.0
284.873657 108.0
284.92627 120.0
285.02063 184.0
285.068665 116.0
285.107941 148.0
285.153961 84.0
285.237091 164.0
285.270325 96.0
285.351013 80.0
285.404816 172.0
285.492218 32.0
285.515778 116.0
285.586304 140.0
285.640228 128.0
285.713348 108.0
285.788239 148.0
285.890961 84.0
285.90332 120.0
285.968353 292.0
286.010376 148.0
286.131836 192.0
286.164825 168.0
286.229187 168.0
286.269592 52.0
286.293945 160.0
286.329895 40.0
286.358643 192.0
286.421173 136.0
286.49527 76.0
286.536896 136.0
286.653107 160.0
286.666718 136.0
286.673553 144.0
286.710907 108.0
286.761475 76.0
286.817413 160.0
286.86734 136.0
286.887299 84.0
286.914703 96.0
287.007568 32.0
287.04129 76.0
287.084961 92.0
287.096558 152.0
287.12262 164.0
287.1492 160.0
287.181366 52.0
287.233521 80.0
287.273987 104.0
287.368469 132.0
287.408966 176.0
287.448334 148.0
287.503448 104.0
287.533813 172.0
287.557434 144.0
287.604248 172.0
287.658691 100.0
287.685699 48.0
287.737183 112.0
287.778198 188.0
287.861267 160.0
287.894318 148.0
287.945709 84.0
287.989624 84.0
288.031403 140.0
288.117981 36.0
288.215973 60.0
288.324097 104.0
288.428864 244.0
288.462677 80.0
288.53183 44.0
288.584381 160.0
288.61142 96.0
288.692596 100.0
288.717896 56.0
288.78064 76.0
288.820496 248.0
288.89267 156.0
288.938416 148.0
288.945068 100.0
288.987854 112.0
289.045746 116.0
289.103851 212.0
289.140167 120.0
289.183136 32.0
289.209076 140.0
289.24408 180.0
289.325317 96.0
289.372711 108.0
289.413361 36.0
289.461578 100.0
289.501129 228.0
289.641174 224.0
289.664581 108.0
289.688477 208.0
289.735992 80.0
289.76181 140.0
289.804871 156.0
289.848572 196.0
289.928253 128.0
289.951965 120.0
289.979065 88.0
290.014923 84.0
290.080078 196.0
290.12323 244.0
290.137085 128.0
290.147034 160.0
290.186493 128.0
290.223145 124.0
290.263855 136.0
290.309143 144.0
290.401398 144.0
290.456421 148.0
290.480255 192.0
290.5336 128.0
290.565308 64.0
290.62381 100.0
290.705139 220.0
290.744232 72.0
290.786285 188.0
290.834473 140.0
290.885956 188.0
290.936066 64.0
291.037506 128.0
291.085022 268.0
291.115814 128.0
291.16214 124.0
291.22879 176.0
291.246094 80.0
291.259705 148.0
291.319519 88.0
291.382111 136.0
291.476776 196.0
291.562317 96.0
291.621307 64.0
291.644043 136.0
291.705414 140.0
291.80011 116.0
291.856384 88.0
291.92926 148.0
292.002594 176.0
292.029816 108.0
292.060425 80.0
292.100037 236.0
292.133392 148.0
292.170013 128.0
292.236359 168.0
292.263672 164.0
292.308258 212.0
292.426697 176.0
292.499084 108.0
292.540222 120.0
292.583588 76.0
292.638947 64.0
292.666199 88.0
292.731293 100.0
292.777191 296.0
292.817261 216.0
292.889893 128.0
292.95636 100.0
293.010193 40.0
293.096222 176.0
293.178467 124.0
293.259583 132.0
293.348206 168.0
293.419159 56.0
293.490753 48.0
293.524872 56.0
293.562225 96.0
293.644226 56.0
293.697449 132.0
293.736633 300.0
293.773834 88.0
293.814789 248.0
293.847443 132.0
293.896667 116.0
293.980591 60.0
294.006989 36.0
294.038208 100.0
294.074127 88.0
294.124817 772.0
294.27005 152.0
294.296326 216.0
294.337891 104.0
294.429199 96.0
294.468384 144.0
294.52005 140.0
294.563721 104.0
294.599976 136.0
294.665527 104.0
294.693481 96.0
294.736633 112.0
294.8284 136.0
294.890411 168.0
294.92099 128.0
294.947266 44.0
294.960236 92.0
294.966156 176.0
295.020294 44.0
295.057922 184.0
295.085266 332.0
295.126007 244.0
295.181 132.0
295.240234 152.0
295.280182 60.0
295.406738 108.0
295.452362 132.0
295.462128 164.0
295.554321 60.0
295.602173 84.0
295.683777 120.0
295.71759 152.0
295.795135 152.0
295.841339 168.0
295.885834 132.0
295.914581 152.0
296.000275 124.0
296.056091 128.0
296.098145 32.0
296.124359 316.0
296.182648 108.0
296.233459 56.0
296.299072 92.0
296.385895 128.0
296.41568 204.0
296.485199 176.0
296.54129 108.0
296.601807 188.0
296.665405 80.0
296.677246 44.0
296.706085 136.0
296.759521 108.0
296.790375 128.0
296.844086 48.0
296.872681 76.0
296.900269 92.0
296.934387 32.0
297.027008 120.0
297.093567 156.0
297.117401 232.0
297.16037 96.0
297.232971 128.0
297.318665 144.0
297.462799 48.0
297.509735 132.0
297.569244 56.0
297.614929 128.0
297.658508 132.0
297.764954 84.0
297.820221 212.0
297.887146 84.0
298.026031 80.0
298.119629 392.0
298.177246 80.0
298.211609 144.0
298.242004 100.0
298.355988 96.0
298.383209 100.0
298.391418 92.0
298.401642 128.0
298.4328 128.0
298.458923 104.0
298.500397 56.0
298.586365 100.0
298.619995 72.0
298.651703 36.0
298.675781 104.0
298.726776 132.0
298.808167 88.0
298.875336 52.0
298.906311 164.0
298.941772 116.0
298.999207 168.0
299.11203 260.0
299.121094 376.0
299.238647 144.0
299.307556 176.0
299.346069 116.0
299.370697 164.0
299.508789 124.0
299.562103 108.0
299.608673 64.0
299.721893 144.0
299.767181 88.0
299.821777 104.0
299.932617 124.0
300.039459 84.0
300.07309 140.0
300.109283 180.0
300.13147 188.0
300.16156 68.0
300.21936 72.0
300.260162 156.0
300.367249 84.0
300.422272 68.0
300.457916 96.0
300.486115 52.0
300.594788 72.0
300.629303 180.0
300.700317 196.0
300.72937 136.0
300.80484 84.0
300.916077 48.0
300.945526 68.0
300.988037 108.0
301.019379 56.0
301.120178 64.0
301.195526 36.0
301.232422 128.0
301.255859 148.0
301.329315 136.0
301.352081 152.0
301.449249 108.0
301.53067 152.0
301.558319 160.0
301.613922 144.0
301.658569 80.0
301.70697 104.0
301.748444 128.0
301.800293 76.0
301.838348 192.0
301.907837 164.0
301.949005 96.0
301.985687 168.0
302.081268 116.0
302.121338 44.0
302.184601 108.0
302.237549 128.0
302.298401 160.0
302.375397 164.0
302.455292 220.0
302.506073 136.0
302.565033 148.0
302.601318 148.0
302.658417 112.0
302.699982 116.0
302.734589 92.0
302.776154 188.0
302.848877 68.0
302.900848 92.0
302.93869 168.0
303.018616 124.0
303.067139 212.0
303.113861 480.0
303.137238 200.0
303.214081 160.0
303.250793 96.0
303.392761 116.0
303.419281 172.0
303.460114 192.0
303.487976 124.0
303.522034 120.0
303.560516 208.0
303.594879 180.0
303.632172 164.0
303.659912 144.0
303.684204 172.0
303.762115 140.0
303.838409 140.0
303.868073 112.0
303.973724 136.0
304.020233 116.0
304.104431 288.0
304.187347 168.0
304.260254 68.0
304.367859 72.0
304.416473 176.0
304.454681 156.0
304.59201 164.0
304.635315 44.0
304.66571 132.0
304.709961 132.0
304.743011 204.0
304.774261 160.0
304.803497 116.0
304.879303 148.0
304.902832 168.0
304.934113 72.0
304.986267 52.0
305.025726 56.0
305.097107 176.0
305.130096 160.0
305.201813 116.0
305.31308 136.0
305.40448 128.0
305.441772 124.0
305.490479 128.0
305.541565 204.0
305.59433 192.0
305.69574 88.0
305.73056 100.0
305.76535 100.0
305.80365 80.0
305.851532 152.0
305.875366 188.0
305.943909 148.0
305.974213 80.0
306.002045 124.0
306.05777 116.0
306.125 136.0
306.181396 184.0
306.245819 68.0
306.294678 160.0
306.329407 40.0
306.362915 84.0
306.413025 108.0
306.493011 84.0
306.504486 80.0
306.552399 172.0
306.622101 112.0
306.704803 260.0
306.748688 140.0
306.785309 148.0
306.82428 84.0
306.848694 60.0
306.876587 84.0
306.940399 104.0
307.036987 152.0
307.068359 116.0
307.099335 64.0
307.27417 48.0
307.358032 124.0
307.40329 68.0
307.522369 268.0
307.588257 40.0
307.612701 44.0
307.707794 80.0
307.801239 56.0
307.895508 132.0
308.054291 112.0
308.129547 100.0
308.188934 100.0
308.224365 116.0
308.255341 72.0
308.285339 56.0
308.360168 120.0
308.416107 124.0
308.440582 88.0
308.528809 184.0
308.582916 128.0
308.629364 132.0
308.67923 120.0
308.809906 120.0
308.881378 132.0
308.926636 104.0
308.993103 80.0
309.06308 104.0
309.11557 60.0
309.140076 148.0
309.197266 188.0
309.266052 124.0
309.297546 104.0
309.365814 136.0
309.535645 108.0
309.595154 120.0
309.623169 44.0
309.651184 128.0
309.694092 112.0
309.745239 208.0
309.798309 164.0
309.833344 52.0
309.880096 92.0
309.940491 104.0
310.001526 132.0
310.061096 60.0
310.089142 108.0
310.113678 56.0
310.141724 100.0
310.170776 196.0
310.208313 176.0
310.232849 68.0
310.304718 80.0
310.331024 96.0
310.373108 32.0
310.461609 136.0
310.513367 124.0
310.54071 164.0
310.564453 128.0
310.636139 84.0
310.685242 76.0
310.713318 224.0
310.751923 72.0
310.779022 148.0
310.855042 168.0
310.907562 120.0
310.934387 124.0
310.964142 84.0
311.046692 84.0
311.093414 148.0
311.136597 112.0
311.201172 84.0
311.225739 116.0
311.271393 228.0
311.331085 140.0
311.366211 140.0
311.409332 144.0
311.531311 288.0
311.61618 116.0
311.735077 156.0
311.808899 80.0
311.842316 76.0
311.875671 128.0
311.942444 48.0
311.983826 140.0
312.068176 204.0
312.121246 476.0
312.169159 100.0
312.227264 128.0
312.26593 132.0
312.413666 168.0
312.501617 72.0
312.533295 72.0
312.631836 40.0
312.659332 132.0
312.792328 60.0
312.825012 72.0
312.835541 64.0
312.844788 128.0
312.896332 92.0
312.945099 108.0
312.969757 76.0
313.019043 68.0
313.059906 80.0
313.095673 260.0
313.119812 144.0
313.18457 100.0
313.255035 112.0
313.339569 112.0
313.395966 68.0
313.482086 152.0
313.510345 80.0
313.540436 32.0
313.589783 124.0
313.681427 280.0
313.815369 164.0
313.843597 40.0
313.871796 196.0
313.924683 56.0
313.9776 128.0
314.011292 136.0
314.044617 164.0
314.100952 188.0
314.123749 252.0
314.217468 60.0
314.259796 172.0
314.290222 184.0
314.33252 112.0
314.384979 132.0
314.422516 180.0
314.491516 180.0
314.542114 140.0
314.610962 140.0
314.66214 164.0
314.692169 120.0
314.782196 48.0
314.810455 76.0
314.965851 132.0
315.037933 108.0
315.062012 200.0
315.133453 164.0
315.181366 144.0
315.215149 128.0
315.253632 88.0
315.317169 140.0
315.379089 156.0
315.445282 112.0
315.540741 164.0
315.59491 84.0
315.661072 152.0
315.718689 72.0
315.768188 144.0
315.800537 140.0
315.867218 140.0
315.923828 72.0
315.948578 148.0
315.998108 48.0
316.052338 112.0
316.097748 156.0
316.144348 136.0
316.236481 200.0
316.329285 132.0
316.36264 176.0
316.408661 52.0
316.436981 28.0
316.546143 92.0
316.587646 148.0
316.61554 160.0
316.645905 300.0
316.677795 88.0
316.727386 164.0
316.81546 152.0
316.874695 184.0
316.918671 116.0
316.946686 128.0
317.028534 144.0
317.064972 144.0
317.113586 96.0
317.152588 80.0
317.184479 88.0
317.22702 100.0
317.276642 132.0
317.319183 168.0
317.358185 64.0
317.395966 184.0
317.573334 132.0
317.631256 88.0
317.680939 56.0
317.71286 112.0
317.766083 144.0
317.788391 96.0
317.837036 116.0
317.914062 128.0
317.942383 192.0
317.993195 196.0
318.074829 156.0
318.106781 112.0
318.160034 60.0
318.234161 104.0
318.294952 140.0
318.369507 88.0
318.433441 32.0
318.465393 116.0
318.522247 64.0
318.596832 132.0
318.641907 152.0
318.724731 76.0
318.796906 188.0
318.866882 56.0
318.927155 164.0
318.95575 196.0
318.984192 36.0
319.062134 56.0
319.121124 116.0
319.147583 188.0
319.214325 176.0
319.243744 116.0
319.272186 76.0
319.304199 124.0
319.345795 144.0
319.410889 36.0
319.468964 132.0
319.50885 180.0
319.549652 60.0
319.58316 132.0
319.642334 84.0
319.707092 172.0
319.733276 56.0
319.773834 100.0
319.869934 124.0
319.975494 80.0
320.034698 144.0
320.072876 156.0
320.182465 176.0
320.229553 92.0
320.318604 132.0
320.373932 144.0
320.411224 44.0
320.510986 80.0
320.566895 152.0
320.613861 88.0
320.657104 128.0
320.73111 200.0
320.77829 40.0
320.89325 80.0
320.942291 104.0
320.967255 144.0
321.020294 128.0
321.109894 260.0
321.133789 196.0
321.161346 92.0
321.195496 164.0
321.222382 104.0
321.306091 124.0
321.372467 212.0
321.409546 156.0
321.445862 148.0
321.513031 100.0
321.600708 100.0
321.625336 104.0
321.659393 76.0
321.697906 136.0
321.745605 260.0
321.893555 136.0
321.948578 164.0
321.973572 180.0
322.016449 152.0
322.095978 156.0
322.132172 128.0
322.18222 116.0
322.221863 104.0
322.25473 76.0
322.280792 148.0
322.305817 136.0
322.349518 120.0
322.476746 72.0
322.602448 156.0
322.659637 52.0
322.684662 108.0
322.770477 288.0
322.834381 148.0
322.902802 188.0
322.936859 176.0
322.981506 56.0
323.045868 96.0
323.124298 148.0
323.193542 140.0
323.22821 212.0
323.324982 156.0
323.37149 116.0
323.396027 108.0
323.432343 180.0
323.457397 108.0
323.495789 124.0
323.535156 256.0
323.60965 136.0
323.725922 152.0
323.771027 196.0
323.825623 168.0
323.949066 252.0
324.048309 92.0
324.101501 108.0
324.152039 224.0
324.20755 56.0
324.264862 184.0
324.306305 76.0
324.430206 92.0
324.467621 108.0
324.502716 148.0
324.54483 128.0
324.589539 52.0
324.654083 96.0
324.68277 48.0
324.73587 124.0
324.793945 160.0
324.82724 156.0
324.946533 160.0
324.998444 52.0
325.068207 148.0
325.116821 192.0
325.160675 152.0
325.224548 160.0
325.255615 164.0
325.325043 104.0
325.39093 92.0
325.439941 156.0
325.471619 136.0
325.526123 204.0
325.565613 104.0
325.615906 168.0
325.640076 136.0
325.701111 88.0
325.802673 80.0
325.874542 72.0
325.90329 40.0
325.947662 168.0
325.978058 84.0
326.006653 172.0
326.090393 188.0
326.11911 348.0
326.176392 60.0
326.23938 100.0
326.282501 228.0
326.327393 128.0
326.399323 96.0
326.430389 100.0
326.485626 92.0
326.516357 160.0
326.531067 192.0
326.57428 136.0
326.659546 332.0
326.848938 172.0
326.949707 76.0
326.99469 236.0
327.091797 116.0
327.12854 144.0
327.17804 64.0
327.192932 196.0
327.244873 124.0
327.280884 196.0
327.374512 164.0
327.449036 268.0
327.529358 52.0
327.619415 104.0
327.660492 132.0
327.716705 104.0
327.756348 84.0
327.820618 152.0
327.833588 128.0
327.889679 152.0
327.929321 52.0
327.971436 428.0
328.008606 180.0
328.05188 100.0
328.096985 156.0
328.138489 204.0
328.21051 128.0
328.265991 52.0
328.405243 140.0
328.430511 68.0
328.477386 152.0
328.579315 128.0
328.672211 84.0
328.732635 140.0
328.745117 176.0
328.794891 188.0
328.841217 280.0
328.921234 164.0
328.957947 124.0
329.000641 52.0
329.115875 192.0
329.150787 132.0
329.216492 128.0
329.24707 132.0
329.31842 116.0
329.387054 264.0
329.467163 204.0
329.551666 136.0
329.587189 180.0
329.719452 172.0
329.744324 100.0
329.778412 152.0
329.813416 92.0
329.900177 164.0
329.92334 112.0
329.965271 104.0
330.008636 168.0
330.037567 84.0
330.120728 136.0
330.147614 296.0
330.202454 152.0
330.301575 164.0
330.334137 140.0
330.442657 200.0
330.467987 160.0
330.55484 96.0
330.639679 80.0
330.703217 92.0
330.735779 128.0
330.829895 104.0
330.86853 180.0
330.960236 148.0
331.011047 124.0
331.068878 132.0
331.097839 112.0
331.139191 164.0
331.231873 128.0
331.257233 84.0
331.282562 176.0
331.340546 136.0
331.402313 80.0
331.442505 168.0
331.586945 152.0
331.659424 120.0
331.800812 172.0
331.857849 148.0
331.895081 144.0
331.971039 76.0
332.153168 72.0
332.190582 100.0
332.292206 128.0
332.515411 240.0
332.577118 144.0
332.613617 136.0
332.693268 180.0
332.722321 152.0
332.762238 236.0
332.80249 144.0
332.871185 108.0
332.932922 264.0
332.970703 152.0
333.034607 92.0
333.06366 60.0
333.099243 116.0
333.203735 204.0
333.276062 172.0
333.333771 128.0
333.38446 108.0
333.412476 100.0
333.447418 52.0
333.512299 96.0
333.555084 148.0
333.605103 204.0
333.637817 140.0
333.663269 80.0
333.703278 64.0
333.792114 252.0
333.852356 100.0
333.888733 96.0
333.925079 52.0
333.968719 60.0
334.033234 104.0
334.113922 216.0
334.156525 300.0
334.194275 156.0
334.248871 124.0
334.307098 108.0
334.346649 96.0
334.41626 76.0
334.445374 40.0
334.510895 156.0
334.549988 120.0
334.601929 272.0
334.634674 156.0
334.66745 136.0
334.709686 100.0
334.777924 212.0
334.80896 112.0
334.90918 116.0
334.954742 140.0
334.969971 116.0
335.011566 116.0
335.083618 140.0
335.148254 144.0
335.2146 152.0
335.265472 120.0
335.326141 176.0
335.404388 128.0
335.487213 108.0
335.563477 104.0
335.60022 172.0
335.673157 104.0
335.711426 120.0
335.769897 136.0
335.822662 108.0
335.891968 124.0
335.958618 132.0
336.016022 224.0
336.056152 136.0
336.127502 108.0
336.193268 152.0
336.249542 136.0
336.289154 108.0
336.40799 136.0
336.441467 132.0
336.49411 240.0
336.581024 120.0
336.640167 68.0
336.673981 236.0
336.717834 236.0
336.764343 48.0
336.824799 80.0
336.864807 144.0
336.994507 104.0
337.067474 152.0
337.126404 164.0
337.153168 104.0
337.188171 140.0
337.253967 104.0
337.341675 140.0
337.418671 208.0
337.464752 96.0
337.487915 48.0
337.553741 144.0
337.632233 200.0
337.744904 104.0
337.781708 168.0
337.862061 80.0
337.956116 148.0
337.989044 144.0
338.021393 104.0
338.117462 372.0
338.155609 324.0
338.226929 92.0
338.267181 104.0
338.347717 56.0
338.391663 104.0
338.464874 140.0
338.491638 108.0
338.538605 96.0
338.576508 124.0
338.658966 88.0
338.773956 124.0
338.801849 292.0
338.869232 132.0
338.921783 144.0
339.124512 660.0
339.221283 88.0
339.335632 88.0
339.37442 88.0
339.421265 144.0
339.461884 144.0
339.625031 148.0
339.669067 204.0
339.714905 100.0
339.740356 132.0
339.782867 224.0
339.821045 120.0
339.879761 92.0
340.131958 904.0
340.206421 72.0
340.434052 148.0
340.492828 44.0
340.533203 108.0
340.584625 220.0
340.645081 192.0
340.694855 128.0
340.720551 112.0
340.797699 112.0
340.838135 140.0
340.892548 128.0
340.918243 140.0
340.97583 180.0
341.011902 112.0
341.071442 124.0
341.132629 816.0
341.240906 76.0
341.321228 132.0
341.3638 72.0
341.429993 92.0
341.492493 84.0
341.521942 148.0
341.573425 88.0
341.718079 160.0
341.75 44.0
341.800049 124.0
341.845673 144.0
341.930328 132.0
341.96048 104.0
342.018677 160.0
342.052795 104.0
342.119995 296.0
342.143402 248.0
342.19635 104.0
342.262024 160.0
342.298462 100.0
342.456818 164.0
342.497345 48.0
342.53418 120.0
342.567871 136.0
342.607849 112.0
342.667145 44.0
342.718384 144.0
342.744171 60.0
342.779419 152.0
342.836884 128.0
342.887909 72.0
342.9711 132.0
343.024261 160.0
343.072205 52.0
343.148651 744.0
343.297791 240.0
343.429871 60.0
343.491241 144.0
343.566376 124.0
343.610626 56.0
343.636475 40.0
343.713959 108.0
343.757996 188.0
343.847168 40.0
343.906311 156.0
344.020721 132.0
344.063446 92.0
344.126099 144.0
344.16153 428.0
344.187561 116.0
344.300903 124.0
344.372314 68.0
344.426483 100.0
344.441071 84.0
344.560547 308.0
344.635681 64.0
344.664612 148.0
344.704102 84.0
344.763245 160.0
344.81073 152.0
344.835052 132.0
344.88681 172.0
344.949066 132.0
345.051025 184.0
345.155975 356.0
345.202606 120.0
345.309845 48.0
345.34314 116.0
345.468353 104.0
345.526367 144.0
345.654022 116.0
345.713104 248.0
345.752197 164.0
345.846344 80.0
345.883362 156.0
345.938904 64.0
345.998138 116.0
346.114807 108.0
346.14447 168.0
346.197021 140.0
346.26474 48.0
346.320282 116.0
346.364746 92.0
346.433655 152.0
346.49234 92.0
346.545593 88.0
346.658875 144.0
346.72345 64.0
346.798248 52.0
346.842743 52.0
346.881165 164.0
346.953949 92.0
347.003937 272.0
347.050262 152.0
347.130859 84.0
347.196747 224.0
347.245667 168.0
347.292572 204.0
347.332214 140.0
347.358154 68.0
347.409119 152.0
347.513977 84.0
347.558502 216.0
347.584473 108.0
347.666412 140.0
347.730469 140.0
347.808838 124.0
347.835175 276.0
347.859894 152.0
347.903656 228.0
347.948212 288.0
347.976624 196.0
347.990326 128.0
348.004333 240.0
348.05484 128.0
348.099243 188.0
348.135895 236.0
348.174713 64.0
348.230438 72.0
348.276642 164.0
348.323303 68.0
348.354858 136.0
348.523926 196.0
348.56488 192.0
348.613098 100.0
348.672546 80.0
348.73761 48.0
348.791504 68.0
348.839813 56.0
348.897827 192.0
348.918976 164.0
348.958771 52.0
349.009979 120.0
349.146484 252.0
349.201752 212.0
349.325256 156.0
349.367889 56.0
349.464417 140.0
349.530426 128.0
349.579956 160.0
349.635803 160.0
349.676727 116.0
349.721405 76.0
349.747437 92.0
349.81073 156.0
349.965637 196.0
350.028931 296.0
350.060181 128.0
350.101746 356.0
350.136078 360.0
350.287384 164.0
350.328339 124.0
350.363098 184.0
350.428955 172.0
350.466187 200.0
350.531342 132.0
350.574249 168.0
350.816528 108.0
350.855438 120.0
350.913452 36.0
350.948975 184.0
351.017883 96.0
351.133301 352.0
351.193146 208.0
351.256348 144.0
351.329071 212.0
351.360168 160.0
351.454285 124.0
351.480408 104.0
351.506531 96.0
351.567535 112.0
351.667023 44.0
351.711792 92.0
351.749115 48.0
351.805115 96.0
351.854004 164.0
351.886505 80.0
351.98999 132.0
352.113678 148.0
352.17276 372.0
352.244232 196.0
352.324707 92.0
352.421356 72.0
352.470062 112.0
352.518524 72.0
352.580811 156.0
352.619415 68.0
352.684357 32.0
352.716583 160.0
352.831238 132.0
352.846924 88.0
352.85965 120.0
352.929962 116.0
353.011963 56.0
353.068054 100.0
353.141937 860.0
353.247589 80.0
353.314911 60.0
353.384735 128.0
353.430847 148.0
353.530426 168.0
353.629242 144.0
353.655457 76.0
353.707855 116.0
353.756531 132.0
353.812683 144.0
353.906281 192.0
353.953674 164.0
353.979279 56.0
353.994598 136.0
354.04248 32.0
354.119446 1636.0
354.220032 128.0
354.258331 60.0
354.293121 232.0
354.360992 88.0
354.400696 44.0
354.42691 72.0
354.464844 132.0
354.536285 196.0
354.582428 40.0
354.642914 132.0
354.681763 316.0
354.711761 144.0
354.760468 144.0
354.787933 136.0
354.873291 128.0
354.950317 132.0
355.047668 136.0
355.144348 2044.0
355.263947 140.0
355.300201 152.0
355.308838 128.0
355.353027 56.0
355.379303 36.0
355.41571 192.0
355.521881 100.0
355.604309 204.0
355.641998 144.0
355.705811 168.0
355.728851 60.0
355.784637 96.0
355.860779 228.0
355.899017 60.0
355.940399 156.0
355.998016 168.0
356.039978 176.0
356.087921 120.0
356.135864 1280.0
356.269104 128.0
356.49649 108.0
356.537903 52.0
356.594757 220.0
356.656128 60.0
356.68457 92.0
356.749176 64.0
356.791473 184.0
356.841095 160.0
356.919312 44.0
356.951202 108.0
356.981903 160.0
357.024689 180.0
357.0672 148.0
357.097931 108.0
357.146393 1256.0
357.205139 200.0
357.246521 108.0
357.280365 172.0
357.336792 136.0
357.403015 148.0
357.479797 144.0
357.506134 116.0
357.556732 152.0
357.584198 156.0
357.606628 108.0
357.660797 88.0
357.698303 136.0
357.73288 112.0
357.759583 180.0
357.872925 72.0
357.927368 68.0
358.002533 160.0
358.033173 96.0
358.118622 108.0
358.155701 532.0
358.220734 184.0
358.252686 160.0
358.334534 100.0
358.371399 92.0
358.422852 128.0
358.495941 72.0
358.578949 148.0
358.632233 136.0
358.700073 124.0
358.749084 116.0
358.775482 108.0
358.867523 164.0
358.953003 132.0
358.997925 168.0
359.033569 144.0
359.080902 100.0
359.149628 180.0
359.197266 104.0
359.256531 140.0
359.278381 140.0
359.30722 92.0
359.341187 128.0
359.431732 104.0
359.533752 68.0
359.563629 72.0
359.607147 144.0
359.714813 288.0
359.742584 180.0
359.801697 132.0
359.888428 144.0
359.941345 100.0
359.994202 140.0
360.037079 152.0
360.075226 88.0
360.118835 64.0
360.152832 140.0
360.230927 172.0
360.266144 88.0
360.292603 92.0
360.371796 396.0
360.40155 100.0
360.436157 180.0
360.485291 120.0
360.515533 40.0
360.548431 68.0
360.625122 116.0
360.694946 272.0
360.763031 156.0
360.779694 76.0
360.793274 148.0
360.934052 184.0
360.969147 124.0
361.033447 96.0
361.066223 136.0
361.145233 108.0
361.153198 60.0
361.169067 88.0
361.19751 164.0
361.238831 120.0
361.31488 112.0
361.351166 152.0
361.437073 112.0
361.468475 120.0
361.53479 84.0
361.602112 64.0
361.648987 184.0
361.718994 96.0
361.761475 96.0
361.807556 136.0
361.858337 76.0
361.930267 204.0
362.017365 148.0
362.144958 168.0
362.178009 136.0
362.248413 172.0
362.319855 200.0
362.437836 100.0
362.577484 132.0
362.638702 104.0
362.742401 156.0
362.804626 348.0
362.834442 188.0
362.862091 148.0
363.010223 160.0
363.131744 112.0
363.235077 256.0
363.328827 68.0
363.441803 160.0
363.704529 136.0
363.753876 48.0
363.886749 116.0
363.92038 96.0
364.024414 196.0
364.128784 880.0
364.191315 120.0
364.251495 164.0
364.276825 168.0
364.342896 112.0
364.376678 204.0
364.486877 240.0
364.543854 72.0
364.608948 120.0
364.634979 188.0
364.712921 132.0
364.783325 224.0
364.813721 48.0
364.878357 88.0
364.915497 52.0
365.072266 68.0
365.132141 356.0
365.139954 348.0
365.239624 148.0
365.275665 160.0
365.325134 180.0
365.361359 188.0
365.410797 88.0
365.441254 44.0
365.479553 120.0
365.511658 112.0
365.593445 152.0
365.620087 164.0
365.681671 140.0
365.80661 68.0
365.863708 116.0
365.897064 100.0
365.96756 148.0
366.019806 68.0
366.054077 308.0
366.156982 840.0
366.235291 152.0
366.283539 64.0
366.324493 144.0
366.391022 240.0
366.434967 72.0
366.489258 128.0
366.568329 92.0
366.595001 132.0
366.640747 196.0
366.667419 104.0
366.700806 172.0
366.785583 140.0
366.843262 184.0
366.968567 60.0
367.014313 168.0
367.157837 1676.0
367.22406 136.0
367.281281 188.0
367.307983 96.0
367.340332 208.0
367.37973 104.0
367.48584 116.0
367.529236 172.0
367.557526 136.0
367.652954 120.0
367.710236 112.0
367.792908 48.0
367.817719 116.0
367.853638 136.0
367.92157 176.0
367.954865 136.0
368.031128 132.0
368.058899 168.0
368.142212 2136.0
368.209045 216.0
368.291321 180.0
368.357635 156.0
368.401733 184.0
368.445587 168.0
368.501343 80.0
368.546082 172.0
368.604584 104.0
368.631317 96.0
368.690125 52.0
368.744812 104.0
368.756042 144.0
368.782257 144.0
368.818787 192.0
368.869598 136.0
368.920044 240.0
368.967804 176.0
369.006866 228.0
369.04892 268.0
369.13382 41928.0
369.250397 272.0
369.277924 136.0
369.313049 116.0
369.369202 144.0
369.404999 156.0
369.452942 136.0
369.500763 292.0
369.539886 176.0
369.577209 144.0
369.680664 212.0
369.734558 80.0
369.749878 76.0
369.759003 132.0
369.854156 164.0
369.919647 80.0
369.95343 316.0
369.995148 248.0
370.066223 184.0
370.13681 14164.0
370.220367 84.0
370.299316 156.0
370.364166 44.0
370.396118 160.0
370.419617 412.0
370.452698 104.0
370.506653 296.0
370.55957 88.0
370.656982 128.0
370.666321 144.0
370.740692 124.0
370.770325 304.0
370.865601 196.0
370.929596 208.0
371.002991 176.0
371.03006 232.0
371.072021 220.0
371.147003 9644.0
371.252197 128.0
371.319122 152.0
371.364563 180.0
371.386719 136.0
371.422455 60.0
371.44046 128.0
371.463104 188.0
371.50058 188.0
371.526703 88.0
371.565338 104.0
371.605682 168.0
371.659149 164.0
371.680786 188.0
371.714417 92.0
371.754974 144.0
371.817902 96.0
371.86438 192.0
371.914978 88.0
371.94342 116.0
371.978333 56.0
372.007111 76.0
372.067993 160.0
372.149536 2412.0
372.235748 152.0
372.354126 172.0
372.425659 152.0
372.481781 132.0
372.526367 128.0
372.566254 60.0
372.61969 112.0
372.665771 104.0
372.722534 136.0
372.756958 260.0
372.809875 152.0
372.852142 236.0
372.879639 76.0
372.936707 72.0
373.000946 244.0
373.047333 56.0
373.15271 372.0
373.236542 108.0
373.306458 140.0
373.354187 184.0
373.390381 84.0
373.444214 156.0
373.477783 44.0
373.546875 116.0
373.616852 64.0
373.62561 76.0
373.673584 96.0
373.721466 56.0
373.763519 148.0
373.79834 88.0
373.832031 140.0
373.874573 200.0
373.923279 188.0
373.9935 100.0
374.075531 124.0
374.14566 92.0
374.192963 188.0
374.223938 124.0
374.259552 328.0
374.295654 116.0
374.364349 104.0
374.405487 100.0
374.438324 164.0
374.453613 124.0
374.568176 100.0
374.610535 104.0
374.711151 104.0
374.761871 112.0
374.805603 280.0
374.843781 148.0
374.887329 124.0
374.94577 164.0
375.06311 120.0
375.142334 40.0
375.244995 228.0
375.302917 68.0
375.381378 272.0
375.515686 68.0
375.521912 156.0
375.585785 104.0
375.66156 152.0
375.689941 176.0
375.735748 128.0
375.849426 96.0
375.878998 136.0
375.921753 148.0
375.990906 152.0
376.077179 192.0
376.11499 188.0
376.151642 236.0
376.185242 208.0
376.227722 172.0
376.291992 204.0
376.333099 124.0
376.374908 84.0
376.407837 84.0
376.469391 136.0
376.48291 128.0
376.510956 68.0
376.523346 44.0
376.555298 64.0
376.665192 252.0
376.738495 104.0
376.867157 96.0
376.875031 88.0
376.949188 140.0
377.045258 72.0
377.141876 76.0
377.168915 136.0
377.202454 128.0
377.247467 76.0
377.29538 112.0
377.335632 100.0
377.397034 128.0
377.451141 48.0
377.513031 80.0
377.571045 96.0
377.608368 144.0
377.638641 92.0
377.665985 80.0
377.735931 152.0
377.79538 200.0
377.895966 140.0
377.936157 120.0
378.051727 32.0
378.16571 160.0
378.25769 108.0
378.28775 208.0
378.341034 60.0
378.379761 156.0
378.437469 84.0
378.484283 64.0
378.538513 104.0
378.584991 112.0
378.689545 36.0
378.759277 88.0
378.794128 64.0
378.861908 120.0
378.890991 160.0
378.941345 132.0
378.970398 168.0
379.033081 144.0
379.065338 172.0
379.1521 3148.0
379.267151 108.0
379.356506 196.0
379.420715 192.0
379.469849 132.0
379.580536 92.0
379.592926 40.0
379.65329 116.0
379.684052 164.0
379.728271 72.0
379.837067 148.0
379.913727 180.0
380.002319 96.0
380.053619 252.0
380.090271 88.0
380.15921 1812.0
380.285034 96.0
380.332581 112.0
380.391602 88.0
380.488434 160.0
380.557068 124.0
380.570343 156.0
380.628601 236.0
380.733826 128.0
380.822784 160.0
380.857727 52.0
380.908234 76.0
380.950958 44.0
380.991486 248.0
381.161774 2632.0
381.220367 252.0
381.282745 116.0
381.345856 136.0
381.39505 116.0
381.429688 208.0
381.502777 144.0
381.616394 144.0
381.706085 292.0
381.789886 248.0
381.847137 72.0
381.872192 100.0
381.916168 52.0
381.960144 208.0
381.983978 76.0
382.025604 248.0
382.078369 88.0
382.144501 3356.0
382.22757 92.0
382.265106 132.0
382.319611 36.0
382.399353 128.0
382.463593 176.0
382.496552 200.0
382.533661 72.0
382.583435 56.0
382.645966 104.0
382.75238 116.0
382.796661 80.0
382.840057 96.0
382.873047 140.0
382.905212 112.0
382.9375 164.0
383.023865 164.0
383.072418 148.0
383.087219 192.0
383.149017 12224.0
383.259857 236.0
383.387634 104.0
383.41394 148.0
383.490692 184.0
383.562836 72.0
383.596313 96.0
383.646667 216.0
383.70694 144.0
383.741394 36.0
383.799866 92.0
383.8685 152.0
383.983398 132.0
384.035217 300.0
384.160583 13508.0
384.268433 148.0
384.336395 72.0
384.355713 112.0
384.40506 80.0
384.498138 188.0
384.578583 184.0
384.612488 192.0
384.646454 260.0
384.709229 104.0
384.859894 196.0
384.917755 92.0
384.960083 196.0
385.031738 112.0
385.047913 176.0
385.061066 176.0
385.163788 7648.0
385.224152 160.0
385.274963 72.0
385.314636 80.0
385.363708 140.0
385.403107 164.0
385.466949 144.0
385.501953 108.0
385.532043 40.0
385.583862 88.0
385.638916 96.0
385.673615 68.0
385.69928 164.0
385.730988 120.0
385.7612 100.0
385.783752 276.0
385.854523 148.0
385.926758 156.0
385.959137 64.0
386.000427 136.0
386.034027 108.0
386.098694 76.0
386.105103 160.0
386.164215 1780.0
386.226471 192.0
386.274841 156.0
386.364502 160.0
386.426239 76.0
386.478058 108.0
386.507446 88.0
386.571655 96.0
386.606995 52.0
386.658752 100.0
386.672791 84.0
386.684357 136.0
386.761139 180.0
386.808105 180.0
386.84726 144.0
386.932983 188.0
386.976471 104.0
387.011688 160.0
387.039093 72.0
387.066528 184.0
387.091949 148.0
387.156342 432.0
387.212708 168.0
387.270782 204.0
387.353882 148.0
387.412659 160.0
387.437256 76.0
387.487335 124.0
387.52655 132.0
387.595612 68.0
387.670288 152.0
387.73053 80.0
387.800659 132.0
387.838318 104.0
387.865753 116.0
387.896637 132.0
387.910217 60.0
387.926361 112.0
387.943573 56.0
387.953796 104.0
387.99765 136.0
388.005981 88.0
388.023102 116.0
388.117249 140.0
388.163696 60.0
388.198761 128.0
388.253906 52.0
388.318298 104.0
388.355865 56.0
388.392761 168.0
388.453949 108.0
388.500763 180.0
388.558441 64.0
388.58551 168.0
388.703125 224.0
388.739075 100.0
388.771759 132.0
388.810272 156.0
388.859558 148.0
388.924805 160.0
388.96405 96.0
388.990234 184.0
389.138641 116.0
389.207611 112.0
389.258514 76.0
389.297791 156.0
389.33075 92.0
389.51062 168.0
389.551514 40.0
389.572144 136.0
389.629425 140.0
389.690582 100.0
389.723694 140.0
389.997101 108.0
390.036407 204.0
390.094208 172.0
390.161407 136.0
390.319489 100.0
390.362732 96.0
390.395966 124.0
390.40683 56.0
390.420105 136.0
390.54364 76.0
390.572723 112.0
390.597321 124.0
390.667572 120.0
390.711578 128.0
390.801086 284.0
391.027588 116.0
391.065033 148.0
391.106323 124.0
391.151215 336.0
391.204712 128.0
391.232269 156.0
391.299225 100.0
391.346466 48.0
391.478577 152.0
391.514038 136.0
391.657562 52.0
391.78125 80.0
391.836212 92.0
391.931305 136.0
391.9646 60.0
391.990784 132.0
392.093231 168.0
392.152832 324.0
392.205261 356.0
392.309418 128.0
392.342224 92.0
392.358093 68.0
392.460632 180.0
392.500214 152.0
392.536438 224.0
392.591827 84.0
392.636993 168.0
392.666565 100.0
392.707214 116.0
392.824768 116.0
392.866394 196.0
392.882874 92.0
392.893768 128.0
392.958496 200.0
393.070312 128.0
393.164581 464.0
393.207855 112.0
393.266296 116.0
393.337799 140.0
393.384705 116.0
393.443939 84.0
393.501617 144.0
393.550537 104.0
393.62088 156.0
393.646545 152.0
393.704529 40.0
393.740082 160.0
393.791412 196.0
393.837158 148.0
393.941528 124.0
393.987335 148.0
394.063995 92.0
394.124817 160.0
394.158966 304.0
394.22995 100.0
394.257599 80.0
394.324799 72.0
394.356415 136.0
394.384094 48.0
394.411743 84.0
394.459198 148.0
394.54483 96.0
394.629181 132.0
394.668732 168.0
394.771545 80.0
394.838776 124.0
394.959991 196.0
395.020721 84.0
395.093536 128.0
395.145386 392.0
395.181396 292.0
395.22821 144.0
395.308136 124.0
395.344788 88.0
395.370972 164.0
395.421387 92.0
395.453278 220.0
395.58725 160.0
395.667236 140.0
395.797791 104.0
395.891449 180.0
395.933777 64.0
395.958527 180.0
396.014252 52.0
396.045929 104.0
396.077606 84.0
396.123016 340.0
396.15921 856.0
396.257019 112.0
396.292908 156.0
396.335114 64.0
396.573212 144.0
396.636322 100.0
396.696808 236.0
396.729065 132.0
396.771088 64.0
396.806793 120.0
396.855499 112.0
396.895844 156.0
396.965393 140.0
397.022308 68.0
397.05661 92.0
397.163513 3596.0
397.23111 240.0
397.296661 108.0
397.34314 292.0
397.399506 136.0
397.449341 92.0
397.485046 132.0
397.548523 56.0
397.591248 200.0
397.641571 136.0
397.68576 104.0
397.711243 188.0
397.760071 160.0
397.77774 48.0
397.814911 208.0
397.860474 64.0
397.894928 180.0
397.934937 244.0
397.993134 96.0
398.056763 128.0
398.166534 3652.0
398.260345 68.0
398.299469 148.0
398.362274 76.0
398.411987 120.0
398.450714 76.0
398.480804 92.0
398.51355 172.0
398.566132 152.0
398.658325 156.0
398.72168 100.0
398.753601 212.0
398.80542 68.0
398.866852 112.0
398.911499 68.0
398.951538 156.0
399.007751 320.0
399.038086 256.0
399.089233 464.0
399.179962 48644.0
399.263336 236.0
399.301575 48.0
399.384064 44.0
399.446808 56.0
399.478912 76.0
399.507721 96.0
399.539001 244.0
399.55426 92.0
399.59491 88.0
399.637024 164.0
399.687469 272.0
399.729034 208.0
399.786987 100.0
399.851166 100.0
399.902985 116.0
399.944885 168.0
399.984894 72.0
400.012756 196.0
400.050659 92.0
400.079834 268.0
400.17868 12176.0
400.246246 636.0
400.317352 32.0
400.378754 152.0
400.389374 68.0
400.424652 304.0
400.480865 200.0
400.54776 148.0
400.594147 176.0
400.644043 76.0
400.677704 132.0
400.707642 180.0
400.737 84.0
400.777435 40.0
400.791748 108.0
400.841187 132.0
400.929443 144.0
400.982452 192.0
401.017212 176.0
401.053955 164.0
401.09668 164.0
401.175964 2400.0
401.259613 240.0
401.288849 168.0
401.329865 164.0
401.423401 140.0
401.481689 144.0
401.540405 132.0
401.57074 84.0
401.61261 48.0
401.70166 68.0
401.764069 200.0
401.796234 124.0
401.84552 140.0
401.871735 88.0
401.882843 116.0
401.925873 100.0
401.973663 36.0
402.026611 136.0
402.080658 100.0
402.181549 484.0
402.258636 144.0
402.297943 196.0
402.344757 136.0
402.358185 84.0
402.404755 124.0
402.440826 112.0
402.476624 140.0
402.541992 152.0
402.550934 124.0
402.568726 196.0
402.638916 100.0
402.671143 112.0
402.726837 104.0
402.743896 56.0
402.76178 180.0
402.786499 168.0
402.825958 68.0
402.842468 108.0
402.873657 124.0
402.919952 56.0
402.967377 124.0
403.051819 68.0
403.087769 72.0
403.154236 272.0
403.180969 136.0
403.275604 64.0
403.307098 132.0
403.393005 108.0
403.430267 196.0
403.499451 100.0
403.560242 60.0
403.619415 140.0
403.656525 128.0
403.697662 168.0
403.811371 88.0
403.867371 100.0
403.915375 84.0
404.0448 156.0
404.070282 204.0
404.125305 168.0
404.18634 272.0
404.219421 136.0
404.35202 88.0
404.38504 204.0
404.423523 148.0
404.474762 200.0
404.551636 48.0
404.593842 96.0
404.634583 136.0
404.706024 184.0
404.792969 72.0
404.879639 100.0
404.927094 172.0
405.028137 40.0
405.087097 192.0
405.16272 124.0
405.228455 160.0
405.304596 40.0
405.368683 172.0
405.487152 136.0
405.569672 108.0
405.638641 124.0
405.691589 264.0
405.737701 108.0
405.801666 136.0
405.889313 64.0
405.92334 88.0
405.976288 136.0
406.026306 100.0
406.138245 796.0
406.264984 44.0
406.338379 192.0
406.375153 56.0
406.442993 44.0
406.478027 168.0
406.550323 116.0
406.5961 188.0
406.682434 112.0
406.793701 180.0
406.875336 204.0
406.972076 160.0
407.071289 240.0
407.140656 868.0
407.181366 220.0
407.242432 168.0
407.298492 84.0
407.330627 72.0
407.384308 152.0
407.457123 220.0
407.511688 108.0
407.606873 132.0
407.660065 188.0
407.73642 116.0
407.770142 144.0
407.83432 136.0
407.89859 116.0
407.931 112.0
407.96698 156.0
408.023926 96.0
408.052887 88.0
408.086029 124.0
408.152435 1376.0
408.268707 80.0
408.462128 188.0
408.525848 132.0
408.606628 128.0
408.713623 152.0
408.769958 88.0
408.805847 52.0
408.854767 108.0
408.886658 120.0
408.938965 200.0
408.991302 72.0
409.163208 2700.0
409.270294 188.0
409.337524 132.0
409.368134 40.0
409.401581 164.0
409.437408 124.0
409.517914 96.0
409.533661 172.0
409.547852 216.0
409.559998 220.0
409.589752 128.0
409.617523 124.0
409.669952 96.0
409.713715 116.0
409.808807 100.0
409.839752 124.0
409.957916 212.0
410.046844 184.0
410.171661 8676.0
410.266235 56.0
410.282501 120.0
410.317841 192.0
410.373077 180.0
410.418365 244.0
410.469147 92.0
410.497131 100.0
410.532776 116.0
410.579132 312.0
410.631165 128.0
410.734833 244.0
410.803497 100.0
410.847595 104.0
410.928284 92.0
410.980042 180.0
411.060822 40.0
411.145844 12096.0
411.341217 144.0
411.382233 248.0
411.469666 156.0
411.505585 64.0
411.563751 168.0
411.594849 220.0
411.668365 108.0
411.71402 156.0
411.762085 132.0
411.80658 84.0
411.87085 168.0
411.902618 60.0
411.952911 156.0
411.987671 168.0
412.03009 224.0
412.149414 10724.0
412.260712 76.0
412.289551 92.0
412.332947 324.0
412.367279 36.0
412.39444 232.0
412.477722 160.0
412.543518 80.0
412.584747 40.0
412.630707 72.0
412.688538 132.0
412.727081 36.0
412.773193 108.0
412.811066 192.0
412.859161 96.0
412.90625 156.0
412.936707 176.0
413.013184 124.0
413.072693 188.0
413.157257 8072.0
413.315796 176.0
413.354034 64.0
413.401062 116.0
413.454468 88.0
413.507812 32.0
413.543915 140.0
413.580017 244.0
413.63974 92.0
413.693542 208.0
413.72641 76.0
413.758087 68.0
413.794403 140.0
413.826508 124.0
413.880249 104.0
413.974701 88.0
414.006683 128.0
414.038879 120.0
414.082123 80.0
414.161499 2732.0
414.254669 116.0
414.346039 28.0
414.46759 164.0
414.507141 108.0
414.534637 204.0
414.605225 104.0
414.694519 52.0
414.750366 124.0
414.80304 140.0
414.876953 308.0
414.944763 224.0
414.985382 64.0
415.01532 120.0
415.099945 196.0
415.170898 508.0
415.257416 96.0
415.296448 124.0
415.361633 184.0
415.41629 108.0
415.46579 40.0
415.508484 116.0
415.549866 52.0
415.591461 180.0
415.644531 160.0
415.720917 52.0
415.757111 88.0
415.79483 120.0
415.852173 180.0
415.897888 88.0
415.985352 224.0
416.011017 116.0
416.070221 88.0
416.161377 236.0
416.191467 148.0
416.256195 180.0
416.307831 140.0
416.410767 72.0
416.467621 72.0
416.535492 152.0
416.627197 200.0
416.66806 112.0
416.703247 28.0
416.734558 196.0
416.805573 128.0
416.8414 172.0
416.934875 184.0
416.996948 160.0
417.077881 104.0
417.129852 160.0
417.174438 144.0
417.293915 144.0
417.336609 48.0
417.386078 92.0
417.440338 140.0
417.483673 160.0
417.549805 140.0
417.584778 116.0
417.711456 80.0
417.743988 104.0
417.77655 152.0
417.841644 108.0
417.874176 144.0
417.923126 140.0
418.004028 268.0
418.064972 108.0
418.121857 148.0
418.177155 88.0
418.206635 92.0
418.233429 136.0
418.279236 112.0
418.286194 148.0
418.36853 156.0
418.452118 76.0
418.541687 124.0
418.582428 56.0
418.627441 140.0
418.666748 156.0
418.743347 124.0
418.787842 180.0
418.821777 104.0
418.872681 60.0
418.94516 188.0
418.98114 152.0
419.05249 128.0
419.128021 76.0
419.155426 240.0
419.209747 156.0
419.258636 144.0
419.316589 112.0
419.362335 136.0
419.391449 144.0
419.440216 132.0
419.470581 108.0
419.52948 108.0
419.617371 68.0
419.645905 60.0
419.73053 132.0
419.772308 216.0
419.831543 196.0
419.881348 76.0
419.96109 96.0
420.021088 88.0
420.097229 96.0
420.139679 232.0
420.239655 76.0
420.324799 36.0
420.369598 312.0
420.441345 256.0
420.562958 100.0
420.598206 128.0
420.644043 72.0
420.690308 92.0
420.777893 116.0
420.830444 136.0
420.878693 172.0
420.988922 120.0
421.039703 148.0
421.163055 7096.0
421.274292 180.0
421.315125 36.0
421.349792 224.0
421.373199 124.0
421.414673 168.0
421.470398 68.0
421.514313 32.0
421.530518 56.0
421.605255 80.0
421.634613 64.0
421.662476 144.0
421.694641 124.0
421.78717 188.0
421.851929 180.0
421.889862 180.0
421.920105 132.0
422.002747 116.0
422.03949 140.0
422.088989 108.0
422.165253 2604.0
422.295502 164.0
422.390259 84.0
422.44754 160.0
422.565186 132.0
422.614838 112.0
422.655487 140.0
422.664246 124.0
422.697968 116.0
422.746307 124.0
422.886719 236.0
422.946014 260.0
422.985077 96.0
423.043365 80.0
423.055573 48.0
423.067749 108.0
423.178619 6656.0
423.285492 180.0
423.40274 168.0
423.585541 88.0
423.650085 116.0
423.692047 60.0
423.743164 152.0
423.794495 100.0
423.830078 180.0
423.858704 280.0
424.005646 156.0
424.067352 112.0
424.180389 4268.0
424.268219 280.0
424.298615 140.0
424.338776 156.0
424.385437 132.0
424.438538 252.0
424.53241 308.0
424.589722 228.0
424.653564 76.0
424.701782 200.0
424.740997 372.0
424.833588 396.0
424.918549 228.0
424.965607 184.0
425.01178 68.0
425.038391 260.0
425.07016 292.0
425.15921 74800.0
425.314636 148.0
425.367249 172.0
425.405975 168.0
425.425629 56.0
425.439209 92.0
425.46756 112.0
425.509064 296.0
425.541199 444.0
425.595245 108.0
425.638824 56.0
425.696075 136.0
425.724457 116.0
425.789307 556.0
425.834198 180.0
425.856506 136.0
425.876434 220.0
425.886078 108.0
425.91452 248.0
425.966431 184.0
426.054077 312.0
426.09201 368.0
426.164703 37620.0
426.268829 292.0
426.351471 132.0
426.415405 332.0
426.445007 280.0
426.476685 160.0
426.546082 160.0
426.582825 168.0
426.623627 596.0
426.653015 172.0
426.696106 200.0
426.765259 152.0
426.793884 160.0
426.841034 100.0
426.903534 184.0
426.929291 112.0
426.95694 188.0
426.98764 116.0
427.055786 148.0
427.170685 13152.0
427.282227 100.0
427.321381 108.0
427.400726 128.0
427.457062 156.0
427.524658 112.0
427.56134 140.0
427.602631 108.0
427.630035 112.0
427.68866 180.0
427.724701 156.0
427.806244 192.0
427.85849 80.0
427.893341 84.0
427.901306 80.0
427.94751 176.0
427.985077 80.0
428.017365 92.0
428.070435 116.0
428.100342 84.0
428.114258 72.0
428.176575 3192.0
428.230988 512.0
428.296112 124.0
428.365387 76.0
428.415253 156.0
428.425781 144.0
428.497345 84.0
428.537201 108.0
428.640991 132.0
428.690063 100.0
428.735077 128.0
428.769653 124.0
428.82193 212.0
428.863983 100.0
428.925018 200.0
428.997131 84.0
429.057953 136.0
429.099884 88.0
429.110931 116.0
429.178253 492.0
429.279419 184.0
429.365845 60.0
429.404755 292.0
429.49353 148.0
429.53595 72.0
429.588623 84.0
429.62854 44.0
429.672333 244.0
429.711029 56.0
429.779541 80.0
429.852203 76.0
429.866699 72.0
429.878601 260.0
429.923737 124.0
429.972504 100.0
430.010132 252.0
430.080627 64.0
430.126099 136.0
430.173615 188.0
430.220459 164.0
430.255341 136.0
430.266205 124.0
430.297119 116.0
430.326019 112.0
430.420135 176.0
430.4664 104.0
430.576202 152.0
430.623993 200.0
430.685364 120.0
430.725708 92.0
430.759399 164.0
430.805084 92.0
430.888397 292.0
430.941284 124.0
430.965607 192.0
431.012909 144.0
431.12323 56.0
431.160767 48.0
431.222412 112.0
431.267883 40.0
431.3125 176.0
431.371063 104.0
431.41748 168.0
431.480713 56.0
431.52005 108.0
431.587738 100.0
431.615143 132.0
431.664703 232.0
431.70816 128.0
431.747589 168.0
431.850586 176.0
431.925323 76.0
431.968018 76.0
432.037018 148.0
432.158569 140.0
432.212494 184.0
432.289429 164.0
432.327667 180.0
432.419678 76.0
432.471222 104.0
432.53775 52.0
432.619507 136.0
432.658386 56.0
432.715759 96.0
432.74472 40.0
432.827545 60.0
432.873108 128.0
432.947632 60.0
432.989044 48.0
433.022186 152.0
433.103882 136.0
433.158295 160.0
433.26474 152.0
433.356659 140.0
433.440582 64.0
433.468781 112.0
433.551147 160.0
433.581482 136.0
433.657196 184.0
433.751434 88.0
433.821899 136.0
433.912109 116.0
433.960785 120.0
434.054016 212.0
434.126801 112.0
434.161133 172.0
434.170898 112.0
434.224121 40.0
434.278015 96.0
434.327179 188.0
434.385864 180.0
434.458649 188.0
434.572327 140.0
434.643097 164.0
434.673157 212.0
434.713654 88.0
434.746857 40.0
434.780029 84.0
434.837555 124.0
434.89209 36.0
434.954376 84.0
435.175262 256.0
435.25116 108.0
435.280212 124.0
435.331818 92.0
435.342255 160.0
435.436005 100.0
435.48584 168.0
435.529144 76.0
435.614075 124.0
435.674713 120.0
435.767639 172.0
435.833069 76.0
435.909607 132.0
435.949463 256.0
436.013489 56.0
436.056732 128.0
436.113251 84.0
436.178375 908.0
436.276733 144.0
436.329407 132.0
436.437653 116.0
436.541473 200.0
436.570587 176.0
436.649597 40.0
436.758972 188.0
436.82785 268.0
436.878357 120.0
436.916962 300.0
436.990692 104.0
437.082245 80.0
437.168121 1708.0
437.240356 116.0
437.279694 80.0
437.349365 316.0
437.36441 60.0
437.376892 304.0
437.419922 168.0
437.494263 128.0
437.531738 60.0
437.621124 120.0
437.681641 116.0
437.806549 100.0
437.860809 116.0
437.890778 156.0
437.951355 104.0
438.026184 140.0
438.093964 104.0
438.184082 864.0
438.278992 148.0
438.364594 184.0
438.461823 168.0
438.54715 116.0
438.641418 160.0
438.684937 160.0
438.751862 124.0
438.786316 220.0
438.82196 108.0
438.895569 180.0
438.996185 112.0
439.01413 52.0
439.040344 100.0
439.068817 264.0
439.174896 24736.0
439.326935 168.0
439.378204 80.0
439.486145 344.0
439.565613 104.0
439.583557 84.0
439.611511 196.0
439.654144 108.0
439.685883 156.0
439.717255 280.0
439.799316 112.0
439.808411 108.0
439.843231 280.0
439.942352 184.0
439.980255 308.0
440.020386 168.0
440.07074 396.0
440.089417 140.0
440.098755 264.0
440.180237 18084.0
440.270477 104.0
440.287537 244.0
440.31778 204.0
440.37616 148.0
440.4375 124.0
440.511322 220.0
440.584473 280.0
440.646027 216.0
440.708923 472.0
440.750977 100.0
440.767212 112.0
440.780212 200.0
440.831787 316.0
440.874908 336.0
440.916748 152.0
440.991516 200.0
441.075989 380.0
441.113464 576.0
441.191467 198868.0
441.289368 328.0
441.33255 228.0
441.345673 252.0
441.414185 120.0
441.486816 240.0
441.568909 132.0
441.583374 324.0
441.613342 240.0
441.670105 340.0
441.749939 208.0
441.845703 200.0
441.87674 412.0
441.923523 248.0
441.950256 332.0
441.999298 292.0
442.038086 276.0
442.078033 176.0
442.194031 57496.0
442.304169 136.0
442.344696 280.0
442.391785 288.0
442.440308 192.0
442.514008 312.0
442.576965 180.0
442.614563 308.0
442.647766 116.0
442.706787 224.0
442.757843 96.0
442.78717 88.0
442.828613 200.0
442.870514 184.0
442.904877 76.0
442.94693 276.0
443.036713 88.0
443.075562 264.0
443.114136 76.0
443.195496 9496.0
443.320099 148.0
443.394653 200.0
443.500336 124.0
443.509308 64.0
443.564056 124.0
443.612305 196.0
443.680389 196.0
443.739929 52.0
443.782776 96.0
443.843964 68.0
443.89212 112.0
443.919189 160.0
443.976227 144.0
444.02475 96.0
444.041016 192.0
444.104187 164.0
444.202118 1116.0
444.244537 308.0
444.291901 80.0
444.34845 92.0
444.389923 224.0
444.461121 108.0
444.467743 84.0
444.539581 108.0
444.617767 128.0
444.652649 324.0
444.696136 140.0
444.746948 124.0
444.802551 108.0
444.814178 268.0
444.871338 92.0
444.898102 216.0
444.943024 276.0
444.98175 212.0
445.028351 172.0
445.093567 468.0
445.126099 120.0
445.169586 132.0
445.222168 84.0
445.273712 144.0
445.329712 220.0
445.40097 164.0
445.425354 148.0
445.46283 132.0
445.494476 156.0
445.539642 52.0
445.567902 128.0
445.582153 84.0
445.612305 176.0
445.649567 60.0
445.680542 80.0
445.731934 64.0
445.788666 100.0
445.827026 80.0
445.868011 156.0
445.913025 140.0
445.95993 200.0
446.027832 72.0
446.074341 212.0
446.166779 100.0
446.212494 64.0
446.232788 104.0
446.280304 52.0
446.342773 112.0
446.402252 128.0
446.479858 192.0
446.55304 84.0
446.600647 140.0
446.699188 60.0
446.771362 248.0
446.817566 92.0
446.864929 140.0
446.92981 76.0
446.997559 76.0
447.029053 116.0
447.058502 124.0
447.098907 80.0
447.138092 232.0
447.186737 160.0
447.242493 100.0
447.279297 84.0
447.337524 88.0
447.403656 212.0
447.433105 112.0
447.477539 180.0
447.638214 84.0
447.65094 60.0
447.722961 180.0
447.788635 232.0
447.841583 80.0
447.993225 32.0
448.112823 52.0
448.164612 168.0
448.245026 68.0
448.278931 124.0
448.330292 188.0
448.371216 124.0
448.460968 76.0
448.507324 120.0
448.629578 44.0
448.746552 48.0
448.840363 64.0
448.890991 108.0
448.975311 52.0
449.063873 64.0
449.196472 552.0
449.260895 124.0
449.382782 148.0
449.48999 56.0
449.549042 60.0
449.632843 140.0
449.650543 80.0
449.669342 144.0
449.768524 48.0
449.81073 64.0
449.859314 124.0
449.941589 136.0
449.971161 100.0
450.050415 88.0
450.135254 104.0
450.197937 444.0
450.315826 116.0
450.361633 196.0
450.431458 104.0
450.469482 36.0
450.535187 80.0
450.600433 100.0
450.661713 96.0
450.743439 128.0
450.800934 68.0
450.925812 96.0
451.023041 84.0
451.182953 632.0
451.251007 52.0
451.265839 92.0
451.329529 144.0
451.483887 52.0
451.54245 80.0
451.578278 88.0
451.634094 116.0
451.772919 108.0
451.824402 104.0
451.906891 108.0
452.008453 104.0
452.110016 172.0
452.205231 2640.0
452.285004 112.0
452.371674 36.0
452.452637 156.0
452.533295 44.0
452.567169 92.0
452.601532 104.0
452.689972 140.0
452.735016 92.0
452.798798 164.0
452.832153 108.0
452.863617 72.0
452.89325 188.0
452.935211 204.0
453.013916 108.0
453.053467 136.0
453.105072 72.0
453.191528 4700.0
453.278534 188.0
453.292542 180.0
453.490692 92.0
453.549316 128.0
453.588867 176.0
453.622101 204.0
453.656006 52.0
453.706879 96.0
453.750793 100.0
453.795898 156.0
453.824493 76.0
453.906158 104.0
453.990967 84.0
454.064758 120.0
454.129333 128.0
454.189819 1848.0
454.333893 80.0
454.376953 104.0
454.440613 276.0
454.49762 192.0
454.561371 88.0
454.631958 120.0
454.716431 132.0
454.746124 148.0
454.811798 136.0
454.876465 68.0
454.920166 84.0
454.98584 120.0
455.037048 68.0
455.072998 44.0
455.104218 164.0
455.205475 3280.0
455.306549 84.0
455.347565 100.0
455.416992 164.0
455.446716 148.0
455.47644 72.0
455.512939 116.0
455.59964 128.0
455.639618 128.0
455.686859 152.0
455.727112 184.0
455.829071 108.0
455.870667 168.0
455.914062 88.0
455.997742 300.0
456.054321 116.0
456.124359 304.0
456.238556 9148.0
456.363098 148.0
456.385223 72.0
456.392181 192.0
456.529022 92.0
456.568756 200.0
456.630829 128.0
456.743164 48.0
456.86261 96.0
456.934845 136.0
457.002655 80.0
457.045197 160.0
457.114471 100.0
457.230957 2084.0
457.398834 44.0
457.429871 188.0
457.489105 108.0
457.666107 132.0
457.747559 96.0
457.786285 88.0
457.865082 128.0
457.913635 116.0
457.953644 144.0
458.004517 144.0
458.077087 88.0
458.150391 104.0
458.227722 536.0
458.352448 80.0
458.386536 160.0
458.450439 88.0
458.487915 116.0
458.641083 184.0
458.785217 136.0
458.853912 68.0
458.893768 136.0
458.938202 160.0
458.979614 180.0
459.062653 288.0
459.141083 128.0
459.220795 64.0
459.315948 216.0
459.371399 80.0
459.522186 152.0
459.593262 44.0
459.687134 128.0
459.717224 96.0
459.776764 96.0
459.821075 168.0
459.893555 76.0
460.031342 168.0
460.065155 156.0
460.13382 68.0
460.261566 168.0
460.297577 72.0
460.340271 220.0
460.382965 88.0
460.429962 72.0
460.491028 164.0
460.590607 124.0
460.669128 116.0
460.738281 64.0
460.895569 152.0
460.948608 104.0
461.019501 72.0
461.066498 96.0
461.130615 44.0
461.164795 64.0
461.246765 68.0
461.280212 68.0
461.331512 112.0
461.399933 128.0
461.442657 236.0
461.485443 148.0
461.536743 120.0
461.635101 108.0
461.694946 56.0
461.729187 108.0
461.866028 136.0
461.955292 148.0
462.028595 104.0
462.139832 144.0
462.239471 56.0
462.288239 168.0
462.486755 152.0
462.529266 180.0
462.608459 124.0
462.670532 136.0
462.786133 96.0
462.854645 140.0
462.92746 124.0
462.994385 76.0
463.046234 208.0
463.128723 60.0
463.192993 108.0
463.250824 64.0
463.287231 124.0
463.467163 72.0
463.518585 96.0
463.595734 56.0
463.625732 236.0
463.664612 164.0
463.698578 88.0
463.78186 84.0
463.848602 124.0
463.904327 120.0
463.977203 100.0
464.011505 40.0
464.06723 76.0
464.148712 60.0
464.182861 168.0
464.198853 156.0
464.209442 328.0
464.245636 100.0
464.304871 204.0
464.423187 340.0
464.670135 156.0
464.72348 120.0
464.757812 100.0
464.813599 124.0
464.873657 56.0
464.920868 124.0
465.019592 160.0
465.0625 116.0
465.209747 1540.0
465.33725 56.0
465.380188 60.0
465.500397 136.0
465.556244 76.0
465.616364 136.0
465.679352 108.0
465.717346 84.0
465.752319 184.0
465.869781 108.0
465.919678 280.0
465.9729 100.0
466.00296 56.0
466.037323 76.0
466.07428 80.0
466.118988 132.0
466.187958 7436.0
466.288208 196.0
466.342438 48.0
466.404114 92.0
466.516296 108.0
466.593292 124.0
466.610138 148.0
466.669678 152.0
466.773071 48.0
466.857147 112.0
466.975861 100.0
467.213135 2452.0
467.30011 132.0
467.399872 244.0
467.438202 244.0
467.475159 96.0
467.526489 52.0
467.624176 192.0
467.700836 148.0
467.922821 272.0
468.056396 152.0
468.096649 144.0
468.20224 5416.0
468.317352 160.0
468.422089 128.0
468.534485 128.0
468.601166 132.0
468.63855 72.0
468.645966 100.0
468.737091 172.0
468.809235 48.0
468.842987 120.0
468.911926 68.0
468.989532 152.0
469.02832 204.0
469.127472 132.0
469.207245 2780.0
469.348785 144.0
469.42926 128.0
469.488861 132.0
469.589874 84.0
469.653381 100.0
469.668793 60.0
469.686981 80.0
469.720642 172.0
469.776062 148.0
469.849091 192.0
469.892365 196.0
469.929993 128.0
469.968475 116.0
469.998657 52.0
470.02887 148.0
470.09082 68.0
470.134155 120.0
470.207428 840.0
470.292114 136.0
470.341278 124.0
470.465881 96.0
470.530212 184.0
470.624542 132.0
470.812317 120.0
470.860901 60.0
470.872589 108.0
470.974335 68.0
471.027863 76.0
471.082336 172.0
471.138489 76.0
471.194611 504.0
471.308105 216.0
471.344086 84.0
471.382477 148.0
471.43399 164.0
471.536041 92.0
471.596527 100.0
471.631104 72.0
471.709961 148.0
471.760254 64.0
471.838623 88.0
471.881836 104.0
471.922089 220.0
471.965881 92.0
472.00293 168.0
472.061005 184.0
472.111023 56.0
472.183624 160.0
472.219147 104.0
472.253754 120.0
472.294342 120.0
472.363739 204.0
472.534943 84.0
472.599823 108.0
472.701752 116.0
472.816193 160.0
472.980682 116.0
473.04126 96.0
473.166016 136.0
473.227417 196.0
473.322693 168.0
473.35733 128.0
473.467712 96.0
473.495911 144.0
473.542755 92.0
473.643158 52.0
473.749695 176.0
473.786133 80.0
473.890106 152.0
473.98111 64.0
474.015747 132.0
474.054749 108.0
474.171783 148.0
474.427521 104.0
474.574921 72.0
474.618286 108.0
474.665985 180.0
474.713684 56.0
474.748383 124.0
474.835114 100.0
474.96524 88.0
475.165283 136.0
475.263062 80.0
475.542328 180.0
475.572693 40.0
475.621674 128.0
475.695618 188.0
475.816284 108.0
475.867889 128.0
475.972107 80.0
476.063293 64.0
476.18924 100.0
476.294983 116.0
476.338348 152.0
476.406433 128.0
476.562836 188.0
476.645386 56.0
476.675812 104.0
476.782959 172.0
476.85202 168.0
476.953949 96.0
477.006104 172.0
477.045227 100.0
477.080017 48.0
477.127838 132.0
477.183655 76.0
477.427856 192.0
477.551422 232.0
477.586975 144.0
477.667084 164.0
477.811035 100.0
477.928101 52.0
477.958557 212.0
478.028198 72.0
478.154388 152.0
478.24646 136.0
478.31543 116.0
478.483032 104.0
478.524414 148.0
478.694214 120.0
478.724701 88.0
478.929413 80.0
479.0383 224.0
479.164642 148.0
479.223083 172.0
479.25531 128.0
479.312775 148.0
479.50943 164.0
479.691956 96.0
479.783508 152.0
479.94046 72.0
480.016144 56.0
480.062408 112.0
480.123749 140.0
480.240082 1616.0
480.341675 112.0
480.407135 84.0
480.455109 216.0
480.490021 156.0
480.55545 72.0
480.60791 184.0
480.696899 172.0
480.77774 136.0
480.834747 156.0
480.924438 144.0
480.963776 148.0
480.999359 156.0
481.04425 236.0
481.098907 108.0
481.138672 456.0
481.210602 13944.0
481.327698 100.0
481.376068 32.0
481.480438 312.0
481.553528 260.0
481.590454 216.0
481.661346 164.0
481.708984 36.0
481.768433 48.0
481.842316 104.0
481.895874 68.0
481.934418 160.0
482.00946 176.0
482.078979 132.0
482.129456 148.0
482.211609 5964.0
482.311035 76.0
482.381866 152.0
482.447998 164.0
482.517792 148.0
482.608307 68.0
482.64566 80.0
482.748047 160.0
482.805084 64.0
482.879425 96.0
482.952576 144.0
483.027008 108.0
483.216583 1768.0
483.329346 52.0
483.389709 112.0
483.42804 80.0
483.463318 208.0
483.595184 148.0
483.662628 188.0
483.744965 128.0
483.798126 88.0
483.955933 132.0
484.012848 164.0
484.061035 124.0
484.131104 84.0
484.223328 324.0
484.368195 88.0
484.389252 68.0
484.396301 152.0
484.433319 288.0
484.47229 116.0
484.480164 104.0
484.498199 84.0
484.540314 124.0
484.656769 56.0
484.82132 108.0
484.83847 60.0
484.854919 100.0
484.87674 112.0
484.94989 72.0
485.029266 184.0
485.106781 228.0
485.209015 88.0
485.265991 152.0
485.299408 136.0
485.334015 256.0
485.389313 96.0
485.457581 116.0
485.524719 136.0
485.60437 100.0
485.663971 112.0
485.682037 60.0
485.693237 104.0
485.73526 48.0
485.822968 32.0
485.880005 52.0
485.971832 112.0
486.011627 132.0
486.178375 80.0
486.38028 40.0
486.445251 120.0
486.493927 108.0
486.527191 112.0
486.582214 116.0
486.797363 208.0
486.858856 88.0
487.113586 140.0
487.399658 144.0
487.487061 244.0
487.539795 160.0
487.596924 60.0
487.651123 144.0
487.683838 88.0
487.781525 108.0
487.860657 108.0
488.02771 112.0
488.065247 152.0
488.142975 152.0
488.2388 236.0
488.331146 44.0
488.423523 80.0
488.45755 60.0
488.495605 164.0
488.603882 96.0
488.708282 176.0
488.876678 136.0
489.04834 176.0
489.131958 180.0
489.227936 60.0
489.299255 172.0
489.360901 80.0
489.421143 128.0
489.537018 92.0
489.623444 160.0
489.682343 140.0
489.757233 52.0
489.814484 88.0
489.857727 152.0
489.924622 120.0
489.99118 76.0
490.02594 184.0
490.118469 152.0
490.18808 316.0
490.307953 96.0
490.365265 60.0
490.508728 80.0
490.625977 100.0
490.660614 100.0
490.89386 156.0
490.919586 128.0
491.000275 120.0
491.057465 140.0
491.105988 76.0
491.215363 160.0
491.226746 256.0
491.273621 84.0
491.391998 124.0
491.469208 120.0
491.505249 64.0
491.704346 104.0
491.78006 228.0
491.834015 116.0
491.882355 160.0
491.937775 88.0
491.979462 76.0
492.050446 168.0
492.120972 88.0
492.196045 148.0
492.284363 100.0
492.319672 56.0
492.355011 92.0
492.438934 148.0
492.500763 108.0
492.606781 88.0
492.787262 80.0
492.882294 132.0
492.929321 104.0
492.994202 256.0
493.030945 148.0
493.073151 112.0
493.124023 64.0
493.163544 108.0
493.280609 116.0
493.345154 128.0
493.410828 68.0
493.494019 100.0
493.549683 188.0
493.671967 76.0
493.722992 52.0
493.780396 224.0
493.820953 128.0
493.873749 64.0
493.999146 200.0
494.074249 180.0
494.113312 72.0
494.16275 92.0
494.227844 60.0
494.275482 96.0
494.30896 156.0
494.418854 132.0
494.424988 168.0
494.521393 128.0
494.555908 124.0
494.64743 136.0
494.701813 116.0
494.794556 152.0
494.801178 136.0
494.873566 108.0
494.888489 112.0
494.941956 64.0
495.003967 160.0
495.078613 216.0
495.165161 60.0
495.22464 164.0
495.316833 192.0
495.378204 64.0
495.433594 76.0
495.47345 204.0
495.518768 120.0
495.585571 408.0
495.671356 116.0
495.710876 220.0
495.765747 224.0
495.818085 140.0
495.840912 52.0
495.847748 136.0
495.9133 88.0
495.955933 96.0
496.025818 200.0
496.116486 128.0
496.232971 11332.0
496.336578 200.0
496.379211 128.0
496.427155 232.0
496.500153 300.0
496.563171 196.0
496.605774 316.0
496.637146 260.0
496.704102 164.0
496.792786 204.0
496.862732 140.0
496.882202 160.0
496.911041 280.0
497.018402 344.0
497.032257 168.0
497.083832 260.0
497.126373 304.0
497.172485 228.0
497.236023 4444.0
497.371704 196.0
497.427277 596.0
497.457153 292.0
497.534576 316.0
497.575867 216.0
497.595154 184.0
497.615204 332.0
497.62146 300.0
497.663116 268.0
497.715118 168.0
497.766174 456.0
497.774658 160.0
497.813385 356.0
497.893829 664.0
497.972473 456.0
498.020203 272.0
498.072876 1160.0
498.121796 508.0
498.250244 256624.0
498.389252 272.0
498.470642 196.0
498.547607 312.0
498.580017 252.0
498.588867 372.0
498.607117 204.0
498.657074 632.0
498.692841 308.0
498.739929 340.0
498.770599 468.0
498.848419 68.0
498.916565 268.0
498.985138 2888.0
499.049316 808.0
499.095856 660.0
499.145905 204.0
499.252563 164692.0
499.356598 212.0
499.414215 280.0
499.466248 124.0
499.483063 160.0
499.516663 204.0
499.528168 124.0
499.588623 80.0
499.618103 236.0
499.666748 284.0
499.708374 372.0
499.772034 384.0
499.827881 316.0
499.884521 236.0
499.993073 180.0
500.036835 400.0
500.104279 120.0
500.144989 140.0
500.174286 428.0
500.254272 18756.0
500.348083 160.0
500.379578 132.0
500.392029 88.0
500.429413 228.0
500.488739 284.0
500.528931 148.0
500.57959 124.0
500.642426 116.0
500.679993 76.0
500.739075 188.0
500.783936 152.0
500.833801 112.0
500.903595 152.0
500.954285 132.0
501.02005 160.0
501.057556 120.0
501.10553 60.0
501.162476 408.0
501.254395 3016.0
501.33551 136.0
501.386841 244.0
501.433258 132.0
501.504303 276.0
501.557098 164.0
501.605164 92.0
501.646973 252.0
501.721466 256.0
501.792358 224.0
501.844269 96.0
501.889465 220.0
501.952698 376.0
501.97879 192.0
501.988464 168.0
502.006073 220.0
502.043884 168.0
502.096008 260.0
502.164856 500.0
502.262085 744.0
502.296692 544.0
502.352448 284.0
502.416077 272.0
502.4664 332.0
502.506042 188.0
502.608459 120.0
502.615082 304.0
502.692749 76.0
502.770508 80.0
502.811127 148.0
502.876831 208.0
502.93576 128.0
502.9729 140.0
503.015411 152.0
503.049316 104.0
503.067963 40.0
503.087982 88.0
503.102295 116.0
503.136719 236.0
503.171387 228.0
503.256012 200.0
503.312988 100.0
503.363434 196.0
503.483063 144.0
503.522644 76.0
503.531799 120.0
503.550934 180.0
503.566833 72.0
503.623566 32.0
503.667389 96.0
503.757019 124.0
503.79306 56.0
503.825836 188.0
503.917084 48.0
503.943726 196.0
503.99826 64.0
504.05188 80.0
504.100403 104.0
504.136627 160.0
504.153595 132.0
504.161224 84.0
504.223419 84.0
504.292969 112.0
504.304138 72.0
504.371674 80.0
504.452454 112.0
504.492828 116.0
504.576447 128.0
504.626892 84.0
504.65979 40.0
504.766388 76.0
504.876831 120.0
504.956665 72.0
505.053314 108.0
505.122772 76.0
505.177612 56.0
505.26059 36.0
505.301208 52.0
505.335175 44.0
505.366486 128.0
505.469391 40.0
505.539886 92.0
505.600677 48.0
505.631927 68.0
505.715546 72.0
505.768127 60.0
505.828003 32.0
505.914337 80.0
505.974304 104.0
506.064728 88.0
506.17868 80.0
506.222931 60.0
506.366028 84.0
506.440887 76.0
506.472229 32.0
506.622223 116.0
506.714142 40.0
506.888885 68.0
506.965057 80.0
507.04126 108.0
507.092651 128.0
507.127869 84.0
507.202606 72.0
507.305725 60.0
507.352448 104.0
507.422272 100.0
507.459717 92.0
507.480011 32.0
507.496857 88.0
507.534363 84.0
507.626984 84.0
507.758575 136.0
507.852783 80.0
507.9021 92.0
507.961823 116.0
508.014252 84.0
508.269745 72.0
508.332825 104.0
508.364227 84.0
508.543732 44.0
508.633514 28.0
508.763702 76.0
508.825317 72.0
508.884918 68.0
508.983704 84.0
509.042084 44.0
509.131897 100.0
509.347473 60.0
509.450806 76.0
509.513702 128.0
509.576599 96.0
509.621521 84.0
509.661957 80.0
509.699249 76.0
509.873169 84.0
509.928589 108.0
510.244812 88.0
510.291229 72.0
510.385651 152.0
510.453094 40.0
510.534027 52.0
510.628479 84.0
510.745422 80.0
510.844391 36.0
510.961334 44.0
511.118835 32.0
511.319275 88.0
511.458374 152.0
511.559906 48.0
511.631927 52.0
511.663422 40.0
511.821014 32.0
511.870544 28.0
512.456116 32.0
512.573242 80.0
512.640869 40.0
512.717468 96.0
512.785095 116.0
512.976807 76.0
513.064575 92.0
513.100586 164.0
513.187195 120.0
513.294495 112.0
513.353088 148.0
513.447815 64.0
513.501953 32.0
513.587646 84.0
513.691406 152.0
513.741821 68.0
513.858337 100.0
513.97522 48.0
514.186768 116.0
514.341187 96.0
514.407654 100.0
514.508179 212.0
514.548828 96.0
514.621094 56.0
515.086853 80.0
515.122375 108.0
515.470276 100.0
515.587769 44.0
515.687195 72.0
515.727844 40.0
515.773071 104.0
515.813721 64.0
515.985535 164.0
516.062378 108.0
516.242188 100.0
516.365051 104.0
516.531677 88.0
516.556946 104.0
516.613586 92.0
516.760071 80.0
516.894653 164.0
516.930542 52.0
517.012329 60.0
517.065796 44.0
517.074158 116.0
517.320557 80.0
517.380554 148.0
517.505737 128.0
517.569153 56.0
517.60083 128.0
517.734497 116.0
517.895203 88.0
517.967651 88.0
518.035645 44.0
518.153381 44.0
518.207764 72.0
518.41449 64.0
518.534058 88.0
518.592957 76.0
518.624695 108.0
518.688171 100.0
518.787903 72.0
518.853943 120.0
518.987366 52.0
519.082581 60.0
519.195984 48.0
519.458679 52.0
519.474915 48.0
519.487915 76.0
519.558838 76.0
519.615173 112.0
519.672241 72.0
519.772095 44.0
519.858276 124.0
519.917297 60.0
520.017151 56.0
520.067078 88.0
520.203247 84.0
520.28949 96.0
520.357605 76.0
520.462036 52.0
520.528931 44.0
520.689392 60.0
520.811707 120.0
520.866211 32.0
520.94342 76.0
521.033997 56.0
521.105103 116.0
521.246216 120.0
521.31604 112.0
521.348694 104.0
521.411438 92.0
521.479614 88.0
521.511475 104.0
521.552368 92.0
521.67511 56.0
521.761475 64.0
521.909424 88.0
522.364868 72.0
522.412292 108.0
522.830383 100.0
523.203613 56.0
523.659668 56.0
523.791077 76.0
523.841187 52.0
523.959656 68.0
524.023438 64.0
524.305969 56.0
524.360657 112.0
524.424438 144.0
524.511047 128.0
524.670593 88.0
525.09845 72.0
525.115356 60.0
525.228394 100.0
525.500671 88.0
525.559998 68.0
525.742493 80.0
526.180725 80.0
526.436401 40.0
526.518616 64.0
526.623657 104.0
526.876709 72.0
526.96167 48.0
527.121643 72.0
527.171875 52.0
527.25415 32.0
527.363831 68.0
527.88501 160.0
527.930725 76.0
528.077087 88.0
528.607788 40.0
528.713013 40.0
529.015137 36.0
529.637878 92.0
529.770752 56.0
529.937317 80.0
530.11438 36.0
530.302307 64.0
530.380188 28.0
530.508545 108.0
530.579529 84.0
530.829468 40.0
530.921204 84.0
530.953308 124.0
531.008362 124.0
531.114563 80.0
531.811279 32.0
532.270386 60.0
532.3255 88.0
532.739136 68.0
532.885864 84.0
532.931824 48.0
533.175354 76.0
533.575256 40.0
533.786743 80.0
534.030518 108.0
534.175598 44.0
534.352539 76.0
534.554993 40.0
535.127563 92.0
535.369812 52.0
535.858032 56.0
536.341919 104.0
536.402893 72.0
536.802979 92.0
537.13501 48.0
537.619507 48.0
537.937988 48.0
538.468933 92.0
539.000244 40.0
539.106506 96.0
539.360718 88.0
539.406921 40.0
539.453186 44.0
539.798584 168.0
539.929382 64.0
540.105164 92.0
540.299438 32.0
540.5354 48.0
540.595581 32.0
540.743652 100.0
541.114014 56.0
541.31311 80.0
541.839722 84.0
541.961609 76.0
542.179382 76.0
542.295227 36.0
542.448242 56.0
542.508484 84.0
542.944336 88.0
543.064941 88.0
543.38501 120.0
544.127563 48.0
544.21582 40.0
544.336548 100.0
544.466553 96.0
545.200562 32.0
545.24707 76.0
545.656128 60.0
545.721191 48.0
546.377014 100.0
546.516541 92.0
547.126282 64.0
547.503418 72.0
547.86676 56.0
548.15564 48.0
548.453918 52.0
549.032043 56.0
549.10199 100.0
549.20929 100.0
549.260559 96.0
549.423828 84.0
550.254578 56.0
550.744934 92.0
550.983154 100.0
551.038452 48.0
551.19342 80.0
551.464478 80.0
551.616577 132.0
551.852478 116.0
552.577393 68.0
552.862854 48.0
553.457336 100.0
554.422363 44.0
554.511353 28.0
555.996094 84.0
556.495667 76.0
556.772705 72.0
557.303528 56.0
557.500916 96.0
557.886353 68.0
558.083801 36.0
558.144897 52.0
558.30011 64.0
558.356506 108.0
558.478821 48.0
558.822205 48.0
559.862549 36.0
559.970825 80.0
560.003784 48.0
560.253479 68.0
560.913208 48.0
561.658203 92.0
562.229126 132.0
562.408447 104.0
562.965576 64.0
563.428467 52.0
563.461548 48.0
563.589111 64.0
563.622192 32.0
563.797058 92.0
563.896301 56.0
564.038086 100.0
564.293335 76.0
564.496704 112.0
565.075134 68.0
565.816772 32.0
566.437195 76.0
566.512939 108.0
567.128967 64.0
567.470276 52.0
568.093201 100.0
568.26239 160.0
568.300293 32.0
568.542297 56.0
569.316162 68.0
569.39563 136.0
569.506104 32.0
569.871887 68.0
570.142761 88.0
570.21405 88.0
570.4422 72.0
570.827332 112.0
571.083069 72.0
571.207825 52.0
571.255371 108.0
571.288696 96.0
571.464722 56.0
571.916809 108.0
572.207214 72.0
572.302429 68.0
572.492859 48.0
572.55957 48.0
572.959656 44.0
573.250305 92.0
573.531494 80.0
574.094116 92.0
574.237183 60.0
574.637878 108.0
575.124634 96.0
575.286926 80.0
575.563843 72.0
576.07489 128.0
576.237305 96.0
576.390198 72.0
576.614807 36.0
577.375 56.0
577.437134 28.0
577.920288 120.0
578.063843 44.0
578.245728 104.0
578.306458 92.0
579.442871 44.0
579.596191 40.0
580.152161 72.0
580.852295 176.0
581.106567 64.0
581.303284 64.0
581.399231 40.0
582.473633 68.0
582.527588 88.0
582.777405 68.0
582.993652 92.0
583.421448 76.0
583.531982 60.0
583.61853 60.0
583.964783 56.0
584.003296 52.0
584.152405 76.0
584.205322 92.0
584.498779 60.0
585.047485 56.0
585.151001 88.0
585.389343 64.0
585.577148 48.0
585.625305 60.0
586.169678 48.0
586.36731 48.0
586.621216 112.0
586.75293 84.0
587.442566 116.0
587.804382 68.0
588.011902 36.0
588.779541 92.0
589.132141 32.0
589.765198 80.0
590.058472 60.0
590.127747 68.0
590.325989 36.0
590.703247 104.0
590.87738 88.0
591.598511 112.0
592.194092 28.0
593.056519 88.0
593.361938 76.0
594.28833 60.0
594.45813 72.0
594.773621 56.0
594.984131 76.0
595.278564 48.0
595.875977 84.0
596.250122 104.0
596.36969 88.0
596.974487 40.0
597.028015 128.0
597.071777 112.0
597.173889 28.0
597.431519 88.0
597.553345 88.0
597.631165 64.0
598.171387 116.0
599.398743 52.0
599.79834 44.0
600.368774 92.0
600.495605 92.0
600.929749 108.0
601.866882 148.0
601.935242 80.0
602.130615 44.0
602.228271 44.0
602.3797 76.0
603.767822 128.0
605.020447 48.0
605.216309 48.0
605.392578 84.0
605.505249 64.0
606.26947 76.0
606.852844 64.0
607.102905 72.0
607.642456 88.0
608.22644 84.0
608.300049 52.0
608.442444 76.0
609.193787 36.0
609.25769 160.0
609.370667 48.0
609.424744 92.0
609.749023 60.0
609.881775 100.0
609.980042 68.0
610.13739 72.0
610.363525 80.0
610.452087 128.0
610.806152 68.0
610.891296 80.0
610.929138 76.0
611.135803 96.0
611.175171 100.0
611.402161 60.0
611.883911 116.0
612.253235 64.0
612.458557 92.0
612.533936 104.0
612.617676 52.0
612.681763 40.0
613.136353 120.0
613.194214 64.0
613.687195 44.0
614.027405 176.0
614.851318 68.0
614.935242 88.0
615.58197 56.0
615.670837 112.0
616.061035 40.0
616.382202 96.0
616.416809 100.0
616.490906 60.0
616.545288 168.0
618.09314 28.0
618.563293 80.0
618.657349 108.0
618.701904 56.0
618.885071 72.0
619.023743 48.0
619.187134 92.0
619.583435 68.0
620.183044 80.0
620.239563 88.0
620.887085 128.0
621.224365 80.0
621.373169 48.0
621.487305 44.0
621.576599 136.0
622.018311 104.0
622.082886 36.0
622.519775 100.0
622.698547 60.0
623.309631 96.0
623.503418 40.0
624.154663 76.0
624.726624 100.0
624.771362 48.0
624.980347 60.0
625.084839 80.0
625.194336 60.0
625.44812 84.0
625.592529 84.0
625.677124 60.0
625.955994 40.0
626.17511 76.0
626.952271 48.0
627.490601 68.0
627.86554 108.0
628.029175 72.0
628.079102 48.0
628.498169 60.0
628.737671 72.0
629.017151 64.0
629.326721 92.0
629.371643 96.0
629.771179 76.0
629.881042 84.0
630.080872 60.0
630.29071 120.0
630.785522 68.0
631.555542 60.0
631.950745 140.0
632.232849 108.0
632.641418 28.0
632.966858 56.0
633.117065 64.0
633.903564 60.0
633.98877 88.0
634.038879 60.0
634.655457 72.0
634.851074 40.0
634.98645 40.0
635.332581 76.0
635.493103 136.0
635.718933 64.0
635.969849 84.0
636.456787 40.0
636.738037 44.0
637.300659 96.0
637.773071 68.0
638.421631 64.0
638.708313 112.0
639.226501 88.0
640.112488 64.0
640.193054 64.0
640.344116 80.0
640.883118 48.0
641.074646 68.0
641.125 48.0
642.274536 108.0
643.152527 96.0
643.21814 64.0
643.743225 72.0
644.866943 112.0
645.886169 64.0
646.027771 44.0
646.934387 56.0
647.075378 56.0
647.424805 64.0
647.958923 88.0
648.057983 104.0
648.103577 40.0
648.609497 48.0
648.67627 76.0
648.777649 96.0
649.1427 124.0
649.606384 48.0
649.741211 68.0
650.487244 72.0
650.715698 64.0
651.370789 64.0
651.736572 76.0
651.858521 56.0
652.422729 60.0
652.783691 76.0
652.926086 100.0
653.282166 100.0
654.274536 36.0
654.391602 36.0
654.763367 76.0
655.660034 60.0
655.741577 48.0
656.659302 52.0
657.184692 60.0
657.26123 100.0
657.797119 80.0
658.289612 104.0
659.436768 64.0
660.520752 68.0
660.9505 112.0
661.452026 48.0
661.508362 104.0
661.677307 36.0
661.78479 104.0
661.958923 104.0
663.332031 152.0
663.506287 72.0
664.875854 108.0
665.738342 52.0
665.789673 96.0
665.919434 108.0
666.195435 76.0
666.277649 80.0
666.657898 76.0
667.274719 28.0
667.331238 76.0
667.768372 84.0
667.99469 40.0
668.154175 76.0
668.267334 48.0
668.34967 56.0
668.715027 44.0
668.895203 48.0
668.987854 124.0
669.430664 56.0
669.770569 104.0
669.889038 40.0
669.966309 80.0
670.033325 52.0
670.177551 52.0
670.445557 148.0
670.739319 52.0
671.425049 100.0
671.621033 72.0
671.68811 84.0
671.97699 80.0
672.240173 96.0
672.358826 128.0
672.818237 40.0
673.060913 68.0
673.525696 88.0
673.56189 84.0
673.680115 76.0
673.763367 100.0
674.140564 84.0
674.264587 48.0
674.373108 80.0
674.564331 112.0
674.972778 88.0
675.293457 40.0
675.484802 80.0
676.053955 112.0
676.147095 68.0
676.587097 84.0
676.680298 68.0
678.218872 108.0
678.265503 60.0
679.095093 104.0
679.421936 80.0
679.883728 96.0
680.018677 96.0
680.070557 44.0
680.553345 28.0
681.114197 68.0
681.296021 64.0
681.774048 28.0
681.878723 152.0
682.798218 84.0
683.214355 136.0
683.370422 116.0
684.109497 72.0
684.192749 32.0
684.947876 168.0
685.479248 52.0
685.742554 64.0
685.990051 84.0
686.047363 56.0
686.094299 40.0
686.620972 100.0
686.892151 60.0
688.259521 72.0
688.463196 40.0
688.854919 68.0
689.173645 68.0
690.161499 72.0
690.304077 104.0
690.347473 100.0
691.872375 72.0
692.296509 40.0
692.432678 112.0
692.636902 76.0
693.171326 84.0
693.43335 80.0
694.335144 40.0
694.382324 132.0
694.849182 60.0
694.885925 84.0
695.27948 72.0
695.410645 52.0
695.862122 48.0
696.250671 36.0
696.536072 84.0
696.749695 84.0
697.527466 84.0
697.685181 36.0
698.13739 64.0
698.395081 168.0
698.73175 116.0
698.828308 112.0
698.86853 48.0
698.905396 40.0
699.331665 160.0
699.394775 68.0
699.568481 136.0
699.852783 84.0
699.95813 56.0
700.764038 36.0
700.916809 56.0
701.096008 40.0
701.222473 80.0
701.433289 40.0
701.833313 64.0
702.429932 60.0
702.834717 72.0
703.126404 76.0
703.538147 76.0
703.740601 96.0
703.781006 76.0
704.045044 32.0
704.20874 60.0
704.409485 76.0
704.847961 76.0
705.46106 52.0
705.757141 72.0
705.799438 28.0
706.190796 88.0
706.894409 52.0
707.206665 52.0
707.243713 112.0
707.741333 84.0
708.276245 32.0
708.519897 88.0
708.731812 100.0
709.749573 96.0
709.813171 44.0
709.96698 112.0
710.126099 72.0
710.354126 84.0
710.645935 36.0
710.709595 40.0
710.996155 96.0
711.155396 68.0
711.298706 72.0
711.468567 84.0
711.606628 44.0
711.78717 76.0
713.104675 80.0
713.716003 100.0
713.806396 120.0
714.221252 80.0
714.343567 72.0
715.003357 60.0
715.328003 56.0
715.402527 64.0
715.477112 76.0
715.540955 60.0
715.908386 76.0
716.29187 48.0
716.462341 104.0
716.74469 76.0
717.016479 48.0
717.389587 152.0
718.802979 32.0
719.187256 36.0
719.4328 84.0
719.486206 52.0
720.196411 40.0
720.532959 56.0
720.725281 100.0
721.13678 68.0
721.640686 76.0
721.949402 76.0
722.281006 64.0
723.208679 68.0
723.356567 40.0
723.485046 68.0
723.699219 88.0
724.084778 92.0
724.152771 100.0
725.033081 64.0
725.585144 52.0
725.912231 64.0
726.604187 64.0
727.124634 88.0
727.291016 56.0
727.376953 96.0
727.854736 52.0
727.951416 44.0
728.579834 80.0
728.783997 84.0
729.692322 76.0
729.988037 48.0
730.187012 80.0
730.294617 148.0
730.395142 64.0
730.638855 88.0
730.929443 48.0
731.150085 80.0
731.591431 56.0
731.909119 56.0
732.194519 100.0
733.826599 96.0
734.08606 52.0
734.274841 84.0
734.323364 124.0
734.808838 44.0
735.019287 44.0
735.327881 68.0
735.76416 32.0
736.503967 68.0
736.666016 80.0
736.709229 28.0
736.925293 96.0
737.638672 76.0
738.666138 68.0
739.223389 88.0
739.483154 84.0
739.585999 60.0
739.634705 128.0
739.856689 72.0
739.921631 52.0
740.27356 64.0
740.863953 36.0
741.160706 52.0
741.411194 40.0
741.772034 92.0
741.915283 36.0
741.996643 72.0
742.077942 108.0
742.278564 68.0
743.010803 40.0
743.613159 56.0
743.841125 32.0
744.264587 72.0
744.579529 80.0
745.302063 100.0
745.861816 56.0
745.965088 52.0
746.204285 80.0
746.269531 104.0
746.677368 100.0
746.742615 92.0
747.025513 48.0
747.248535 52.0
748.200989 48.0
748.239075 192.0
748.293518 100.0
748.418762 136.0
748.554871 80.0
748.908875 56.0
748.995422 68.0
750.020447 100.0
751.007324 96.0
751.656555 88.0
752.213257 72.0
752.300598 96.0
752.426147 28.0
752.524414 48.0
753.018066 120.0
753.616821 88.0
753.780762 48.0
754.097717 52.0
754.463928 56.0
755.380737 80.0
755.601501 84.0
755.771118 96.0
756.942505 88.0
757.265625 68.0
758.662903 48.0
758.887695 108.0
758.947998 64.0
759.266052 84.0
760.385254 52.0
760.928711 88.0
761.263672 48.0
761.550537 100.0
761.68103 92.0
761.999695 108.0
763.329834 116.0
763.857849 36.0
764.40802 52.0
765.129089 60.0
765.239197 96.0
765.756836 56.0
765.911011 56.0
766.638306 72.0
767.112305 116.0
767.283203 64.0
767.840149 76.0
768.375183 52.0
769.180908 44.0
769.230591 76.0
769.672241 84.0
769.716431 88.0
770.870972 64.0
771.169373 36.0
771.87146 88.0
772.175659 96.0
772.319458 72.0
772.485413 52.0
772.717773 64.0
773.265564 60.0
773.664124 100.0
773.736084 108.0
773.946472 68.0
774.208008 156.0
774.248596 72.0
774.638794 60.0
774.766174 128.0
774.832703 68.0
775.808044 104.0
776.839539 72.0
777.286926 108.0
777.63855 80.0
777.755127 76.0
777.874817 100.0
778.404663 72.0
778.626831 120.0
779.171204 40.0
779.215637 32.0
779.254517 80.0
779.410095 144.0
780.1604 48.0
780.477356 84.0
780.788757 120.0
781.050171 140.0
781.383911 84.0
781.766968 72.0
782.313354 64.0
782.78656 60.0
783.070618 60.0
783.510681 64.0
783.560791 80.0
783.741943 92.0
784.865051 36.0
785.08252 36.0
785.394836 108.0
785.824402 64.0
785.891357 132.0
786.996521 48.0
787.582886 72.0
787.92926 132.0
788.320374 92.0
788.594238 64.0
788.979919 108.0
789.326599 52.0
789.62854 96.0
789.818726 84.0
790.243896 108.0
790.373901 68.0
790.557251 56.0
791.200928 80.0
791.77771 56.0
792.231384 112.0
793.341003 92.0
793.497986 48.0
793.587708 92.0
793.868042 80.0
793.963379 88.0
794.389648 72.0
794.44574 40.0
794.950745 108.0
795.349243 72.0
796.000488 80.0
796.107178 60.0
797.118347 28.0
797.359985 100.0
797.511719 64.0
798.141357 132.0
798.298828 56.0
798.47876 44.0
798.754395 52.0
799.761597 68.0
800.014893 116.0
800.09375 100.0
800.797607 96.0
801.24823 76.0
801.406006 104.0
801.507446 84.0
801.924438 84.0
801.975159 48.0
802.662964 80.0
803.847595 44.0
803.977356 96.0
804.564392 48.0
805.388855 100.0
805.445312 72.0
805.541382 56.0
805.897278 112.0
806.490662 96.0
806.852478 40.0
807.446167 44.0
807.502747 92.0
808.158936 52.0
808.402283 44.0
808.577698 72.0
808.719177 100.0
808.821106 68.0
809.183411 36.0
809.279663 60.0
810.56543 76.0
810.610779 212.0
810.962158 40.0
811.211548 80.0
811.835266 64.0
811.920288 52.0
812.720154 60.0
812.873352 56.0
813.548767 60.0
814.428955 88.0
814.889099 120.0
815.30957 76.0
815.573669 88.0
815.633545 68.0
815.730164 88.0
815.877991 120.0
816.159973 64.0
816.514832 88.0
817.794983 68.0
818.540771 60.0
819.081848 60.0
819.150208 108.0
819.264099 36.0
820.192993 64.0
820.25 52.0
820.751648 44.0
820.837219 88.0
821.932434 60.0
822.023743 108.0
822.457458 52.0
822.822815 48.0
823.622314 40.0
824.33075 108.0
824.485046 68.0
824.770813 68.0
825.062378 28.0
825.35791 52.0
825.60553 108.0
825.94873 32.0
828.977417 80.0
830.014954 76.0
830.680237 64.0
830.749084 48.0
831.094727 96.0
831.50647 156.0
831.638489 100.0
831.74408 112.0
831.902527 36.0
832.097717 52.0
832.844299 52.0
832.913208 232.0
833.413025 36.0
833.901489 68.0
834.901855 40.0
835.137695 88.0
835.281494 152.0
835.833801 40.0
836.420837 80.0
836.512939 84.0
836.651062 84.0
837.745239 140.0
838.511597 64.0
838.86322 196.0
839.35907 56.0
839.803101 36.0
841.020569 80.0
841.488159 128.0
841.979004 32.0
842.337097 60.0
842.608643 88.0
842.689514 84.0
842.839722 52.0
842.984192 112.0
843.030457 68.0
843.203796 88.0
843.937988 124.0
844.16925 44.0
844.41217 56.0
844.718689 80.0
845.326233 52.0
845.708191 80.0
845.916565 108.0
846.889343 136.0
848.053955 48.0
849.039612 68.0
849.283203 176.0
850.083801 60.0
852.342712 92.0
852.743713 56.0
853.243591 60.0
853.656433 156.0
854.272949 72.0
854.499817 72.0
854.633667 60.0
855.052673 52.0
855.287659 192.0
855.821045 100.0
856.228699 64.0
856.415039 64.0
856.479126 40.0
858.419922 60.0
859.230652 72.0
859.458191 96.0
860.304504 96.0
860.672302 108.0
861.092773 40.0
861.621765 88.0
862.126831 44.0
862.372314 36.0
862.430725 92.0
862.769775 56.0
863.412964 104.0
863.553345 52.0
864.33728 76.0
864.419189 92.0
864.565491 88.0
864.641602 64.0
864.875671 144.0
865.654358 40.0
865.994019 36.0
866.228333 104.0
866.368958 28.0
867.048645 48.0
867.388611 72.0
868.971985 56.0
869.241882 80.0
870.650818 120.0
870.967957 88.0
871.108948 184.0
872.054993 88.0
872.272461 52.0
873.072083 116.0
873.177917 28.0
873.695557 76.0
874.17804 28.0
874.86084 152.0
874.990356 52.0
875.378967 72.0
876.716187 72.0
877.081604 68.0
877.523743 56.0
878.862671 40.0
879.5 48.0
879.671204 156.0
879.889648 84.0
880.326538 76.0
880.621826 88.0
880.899475 72.0
881.86261 56.0
882.920898 68.0
883.394104 44.0
883.956177 60.0
884.252075 60.0
885.382874 32.0
886.378113 84.0
886.455139 132.0
886.81073 112.0
886.976685 60.0
887.480591 60.0
887.528015 100.0
888.38208 120.0
888.744019 60.0
889.515503 60.0
889.937012 60.0
890.25177 56.0
890.346741 44.0
891.725098 76.0
892.509827 92.0
892.652527 72.0
892.706055 44.0
893.042358 44.0
893.086243 100.0
893.431702 40.0
893.711365 72.0
894.044556 56.0
895.133972 76.0
896.575623 88.0
896.623291 112.0
897.410156 60.0
897.875305 56.0
897.922974 44.0
898.125793 72.0
898.203308 84.0
898.31665 92.0
898.453857 84.0
899.086365 80.0
899.760864 60.0
901.463623 100.0
901.552795 36.0
902.114685 112.0
902.174438 44.0
903.573853 84.0
903.813232 40.0
905.01239 92.0
905.579224 44.0
906.417969 68.0
906.521118 56.0
908.846436 132.0
909.770691 72.0
910.052856 120.0
910.166931 104.0
910.257019 60.0
910.383118 68.0
911.037842 80.0
912.227722 40.0
912.828918 48.0
912.883057 56.0
913.027405 100.0
913.147705 88.0
913.436401 72.0
914.116272 48.0
915.380371 28.0
916.223633 200.0
916.307983 56.0
916.994934 56.0
917.639954 48.0
918.001709 28.0
918.062073 68.0
918.119629 80.0
918.182678 60.0
918.454102 116.0
918.514404 52.0
918.604858 60.0
919.153931 92.0
920.053223 48.0
920.186035 96.0
920.379272 72.0
920.5 76.0
921.061707 88.0
921.188538 100.0
921.321472 152.0
921.442261 84.0
922.125122 80.0
922.40918 48.0
922.657043 56.0
922.790039 68.0
923.231506 52.0
923.933105 88.0
924.15094 156.0
925.23877 108.0
925.761108 68.0
926.172913 32.0
926.693909 120.0
927.469604 100.0
927.76062 48.0
928.846069 76.0
929.13269 80.0
929.774414 48.0
931.328674 36.0
931.371216 32.0
932.756653 56.0
935.914124 180.0
936.699768 140.0
937.589355 92.0
939.449036 172.0
940.083557 48.0
940.211731 60.0
940.516907 68.0
940.596252 80.0
941.011414 88.0
941.218994 104.0
941.609802 52.0
942.019043 136.0
942.434509 124.0
944.678284 28.0
944.757812 124.0
944.843445 200.0
945.504272 88.0
946.402222 128.0
947.175781 116.0
948.677124 112.0
948.959167 212.0
949.106323 128.0
949.357727 80.0
949.750244 48.0
949.805481 96.0
949.885193 96.0
950.087646 108.0
950.492554 96.0
952.088684 92.0
952.180786 48.0
952.758179 40.0
953.255859 160.0
953.809021 120.0
953.882751 132.0
954.110229 128.0
954.675903 68.0
955.143372 116.0
955.217163 136.0
955.75238 72.0
956.312439 28.0
956.60791 36.0
956.866455 80.0
957.118896 92.0
958.005798 56.0
958.147461 48.0
958.812988 60.0
959.447876 44.0
959.645142 40.0
960.224792 100.0
960.397522 60.0
961.131653 132.0
961.298279 40.0
962.217957 80.0
962.699585 40.0
962.866333 92.0
962.934265 52.0
963.558167 36.0
964.01947 128.0
964.781799 160.0
965.177551 84.0
965.418701 68.0
966.717834 72.0
966.847778 140.0
969.134094 116.0
969.219482 44.0
969.430725 92.0
969.913635 96.0
970.217407 76.0
970.31958 148.0
970.403381 32.0
970.638977 76.0
970.837402 76.0
973.574219 108.0
973.835083 72.0
974.13324 124.0
974.592957 136.0
974.80426 156.0
975.201965 28.0
975.320068 76.0
976.302429 104.0
976.781372 128.0
977.266602 64.0
977.920044 72.0
978.088074 36.0
978.212585 48.0
979.14032 88.0
979.246216 108.0
979.532715 108.0
979.91272 56.0
981.090637 60.0
982.485046 88.0
982.5979 88.0
982.68103 48.0
982.861206 140.0
983.201965 72.0
984.166504 128.0
984.534912 64.0
984.703552 84.0
985.240723 80.0
986.928223 156.0
988.135376 80.0
988.410706 124.0
988.698547 136.0
989.481018 160.0
990.288818 76.0
990.702209 40.0
991.924194 100.0
992.043335 108.0
993.266113 312.0
993.461304 136.0
993.523315 44.0
993.598572 60.0
995.192749 128.0
995.381165 112.0
996.178772 72.0
996.599731 172.0
997.404175 104.0
997.617859 76.0
999.907471 88.0
999.951538 136.0
1001.059509 88.0
1001.317749 64.0
1001.368103 52.0
1001.525574 52.0
1001.764954 56.0
1002.817261 100.0
1003.151306 72.0
1004.116028 88.0
1004.437744 36.0
1004.746826 60.0
1005.188477 76.0
1005.851196 68.0
1006.173157 40.0
1007.423584 56.0
1007.512024 232.0
1007.739441 140.0
1008.030151 80.0
1008.586304 132.0
1008.737976 88.0
1008.877075 32.0
1009.073059 116.0
1009.136292 60.0
1009.180542 28.0
1009.338623 36.0
1009.522034 56.0
1009.737061 76.0
1010.534058 104.0
1011.065613 56.0
1011.325134 144.0
1011.856873 88.0
1012.078491 136.0
1012.287415 100.0
1012.439392 40.0
1012.724426 108.0
1013.900574 56.0
1014.16272 56.0
1014.205688 144.0
1014.879089 52.0
1015.208801 172.0
1016.033386 92.0
1016.096863 168.0
1016.566406 52.0
1017.728027 72.0
1017.880432 48.0
1018.356689 100.0
1018.401184 176.0
1018.623474 48.0
1019.290588 100.0
1019.48761 64.0
1019.77356 96.0
1020.924316 40.0
1022.031189 68.0
1022.234802 124.0
1022.432068 60.0
1023.45697 76.0
1024.90918 184.0
1025.348877 108.0
1025.520996 68.0
1026.311523 64.0
1027.172485 92.0
1027.249023 36.0
1027.574341 72.0
1028.020996 100.0
1028.250854 84.0
1028.455078 136.0
1028.672119 88.0
1029.087036 140.0
1029.170044 72.0
1029.214722 92.0
1029.495728 48.0
1029.617065 216.0
1029.891724 176.0
1030.811646 212.0
1031.237427 88.0
1031.891846 60.0
1032.198853 220.0
1032.275513 52.0
1032.403442 72.0
1032.506836 152.0
1032.831909 88.0
1033.081421 40.0
1033.682861 80.0
1034.130859 124.0
1034.553345 36.0
1034.796631 112.0
1036.487549 56.0
1036.58374 188.0
1036.878418 84.0
1037.006714 32.0
1037.775879 60.0
1038.417236 140.0
1038.532593 36.0
1038.672119 168.0
1039.989136 140.0
1040.249756 156.0
1041.421021 124.0
1041.536621 88.0
1042.018433 28.0
1042.095459 44.0
1042.223999 152.0
1042.461792 140.0
1042.590332 148.0
1043.008057 100.0
1043.303833 196.0
1043.591187 144.0
1044.191162 204.0
1044.448364 76.0
1045.548584 116.0
1047.061523 132.0
1047.222534 108.0
1047.802368 92.0
1048.420898 92.0
1048.646484 80.0
1049.046143 68.0
1049.613525 56.0
1049.671509 116.0
1049.935913 112.0
1050.077881 108.0
1050.561646 100.0
1050.72937 52.0
1051.148682 176.0
1051.497192 84.0
1051.794189 44.0
1051.929688 64.0
1053.395508 56.0
1055.515381 44.0
1055.618896 100.0
1056.569702 60.0
1056.62793 84.0
1057.229736 92.0
1058.524414 56.0
1059.243286 84.0
1059.677368 92.0
1060.046753 48.0
1060.364258 72.0
1060.746704 112.0
1060.805054 56.0
1061.096802 56.0
1061.174561 48.0
1061.252319 64.0
1061.38208 92.0
1061.44043 228.0
1062.588501 56.0
1062.848022 52.0
1063.358643 100.0
1063.64624 56.0
1063.842896 140.0
1064.282471 88.0
1065.367065 116.0
1065.51001 68.0
1066.595337 32.0
1067.375488 72.0
1068.513672 40.0
1068.682861 80.0
1068.975708 76.0
1069.105835 88.0
1069.444214 52.0
1069.782715 48.0
1070.674805 172.0
1070.75293 120.0
1071.834351 120.0
1071.892944 136.0
1071.95166 104.0
1072.473022 52.0
1073.535767 60.0
1074.272705 104.0
1074.716431 64.0
1074.801147 116.0
1075.871582 84.0
1076.054443 108.0
1076.30249 96.0
1076.785767 104.0
1077.621948 108.0
1077.96167 160.0
1078.033569 160.0
1078.497559 76.0
1079.53064 48.0
1079.860229 88.0
1079.988403 56.0
1081.067871 80.0
1081.44751 116.0
1081.696289 64.0
1082.233032 120.0
1082.278931 124.0
1082.809326 52.0
1083.280884 112.0
1083.398804 176.0
1084.185181 36.0
1084.709473 104.0
1084.85376 104.0
1085.67334 44.0
1086.009888 140.0
1086.302979 140.0
1087.293701 60.0
1087.543091 52.0
1088.034546 108.0
1088.337524 28.0
1088.724976 32.0
1088.994263 72.0
1089.040161 44.0
1089.119019 44.0
1089.414551 64.0
1090.249023 28.0
1090.314819 100.0
1091.057495 84.0
1092.484619 160.0
1092.82019 72.0
1093.524292 164.0
1093.899536 112.0
1093.965332 108.0
1094.35376 36.0
1095.05835 64.0
1095.223022 72.0
1095.394287 68.0
1095.47998 216.0
1096.138794 96.0
1096.19812 52.0
1097.002197 156.0
1097.490112 60.0
1097.575806 64.0
1097.635132 48.0
1097.945068 100.0
1097.997803 112.0
1098.288086 104.0
1099.198486 156.0
1099.383301 236.0
1099.964111 148.0
1100.604492 108.0
1100.683716 200.0
1100.782715 64.0
1100.89502 64.0
1101.198853 156.0
1101.641357 132.0
1102.725098 136.0
1102.949829 44.0
1103.710083 64.0
1103.776245 128.0
1104.834473 80.0
1105.052734 68.0
1105.310791 52.0
1105.515991 148.0
1105.959351 36.0
1106.535278 92.0
1106.68103 108.0
1107.051758 80.0
1109.118896 56.0
1109.410645 128.0
1109.536499 152.0
1109.722168 44.0
1109.795166 88.0
1109.894531 96.0
1110.007324 76.0
1110.15979 116.0
1110.206299 60.0
1110.265991 180.0
1110.440552 100.0
1110.829712 40.0
1111.002197 68.0
1111.599365 36.0
1111.692261 52.0
1111.791748 204.0
1113.199219 160.0
1114.753662 96.0
1114.813477 112.0
1115.012817 96.0
1115.265381 100.0
1115.31189 48.0
1115.624268 156.0
1117.393311 84.0
1117.446533 36.0
1117.599609 64.0
1119.163818 84.0
1119.516724 64.0
1120.375977 56.0
1121.002319 188.0
1121.408813 176.0
1122.05542 180.0
1122.22876 96.0
1122.835571 80.0
1123.042358 64.0
1123.315796 80.0
1123.762817 112.0
1124.897339 136.0
1125.056763 192.0
1125.251221 48.0
1125.317993 44.0
1126.319702 128.0
1126.386475 48.0
1126.693726 144.0
1127.475586 184.0
1128.759033 96.0
1128.879395 72.0
1128.939697 52.0
1129.160278 64.0
1129.37439 128.0
1129.733154 92.0
1129.815918 132.0
1130.022217 100.0
1130.578613 84.0
1130.64563 36.0
1130.873169 136.0
1131.489014 92.0
1131.814209 104.0
1131.991211 116.0
1132.835083 68.0
1133.216919 96.0
1134.006226 236.0
1134.348145 128.0
1134.952881 120.0
1135.315063 52.0
1135.824829 116.0
1135.979126 40.0
1136.770752 112.0
1137.139893 124.0
1137.636597 104.0
1138.502808 76.0
1139.335693 44.0
1139.685059 72.0
1139.994141 88.0
1140.151245 52.0
1140.491455 112.0
1141.096558 60.0
1141.264648 84.0
1141.405762 72.0
1141.594116 176.0
1141.673828 88.0
1141.82666 104.0
1141.883301 48.0
1145.672974 40.0
1145.901978 64.0
1146.414185 80.0
1147.074707 76.0
1147.816284 96.0
1148.045532 180.0
1149.131592 100.0
1149.684937 80.0
1152.176514 72.0
1152.426392 84.0
1152.744019 132.0
1153.109009 52.0
1153.588867 60.0
1153.784912 120.0
1153.852539 232.0
1154.319092 56.0
1154.474609 152.0
1154.711304 48.0
1155.106079 76.0
1155.712524 56.0
1156.098267 112.0
1156.15918 68.0
1156.477173 88.0
1156.592285 148.0
1157.248901 76.0
1157.377563 60.0
1157.547241 68.0
1158.888062 88.0
1159.599609 132.0
1160.013062 120.0
1160.630005 80.0
1161.179321 124.0
1161.247192 76.0
1161.437134 48.0
1161.565918 68.0
1162.298706 64.0
1162.851074 128.0
1163.146973 84.0
1163.595093 168.0
1163.730835 168.0
1164.246948 56.0
1164.389526 140.0
1164.477905 152.0
1165.204712 128.0
1165.724365 132.0
1165.890991 76.0
1166.910645 68.0
1167.162231 144.0
1167.298218 28.0
1167.529419 64.0
1168.64502 48.0
1168.964844 100.0
1169.93811 48.0
1170.401123 64.0
1170.625854 108.0
1171.497559 36.0
1171.715576 128.0
1172.492432 44.0
1172.656006 68.0
1172.921875 112.0
1173.539307 164.0
1173.780884 68.0
1174.496948 52.0
1174.585571 180.0
1174.988159 76.0
1175.206421 116.0
1175.807007 92.0
1177.281616 76.0
1177.55481 72.0
1177.609375 140.0
1177.882568 40.0
1179.016846 52.0
1179.167114 100.0
1179.331177 180.0
1179.508911 76.0
1179.973755 156.0
1180.096802 116.0
1180.192627 32.0
1180.575562 96.0
1181.102173 116.0
1181.252686 120.0
1181.457886 96.0
1181.65625 128.0
1181.957275 128.0
1182.491089 52.0
1183.956177 288.0
1184.141113 68.0
1184.956299 28.0
1185.984253 172.0
1186.614868 48.0
1186.745239 100.0
1186.841187 36.0
1186.978271 108.0
1187.273193 28.0
1188.151245 60.0
1188.212891 40.0
1188.576538 44.0
1188.906006 100.0
1189.12561 84.0
1189.187378 120.0
1189.612915 68.0
1189.832642 120.0
1190.134766 76.0
1190.409424 136.0
1190.707886 148.0
1191.219849 52.0
1191.858765 96.0
1192.511597 56.0
1192.573486 72.0
1193.192139 148.0
1193.343506 32.0
1193.625366 40.0
1193.866089 208.0
1193.96228 100.0
1194.175537 56.0
1194.299316 60.0
1194.533203 56.0
1195.868164 52.0
1196.65979 108.0
1197.006958 176.0
1197.258789 172.0
1197.4104 96.0
1197.506836 56.0
1197.858032 44.0
1198.243896 140.0
1198.484985 92.0
1198.733032 64.0
1198.808838 48.0
1199.18103 52.0
1199.71875 96.0
1199.801392 48.0
1200.203247 128.0
1200.66333 196.0
1200.911621 44.0
1201.008179 68.0
1201.153076 40.0
1201.318604 116.0
1201.560059 76.0
1201.987793 104.0
1202.077515 36.0
1202.450195 100.0
1202.69873 72.0
1203.319946 80.0
1203.713623 60.0
1203.768799 72.0
1204.424927 44.0
1204.75647 52.0
1204.963745 124.0
1205.37146 100.0
1205.454102 124.0
1205.523438 84.0
1205.592529 116.0
1206.470337 40.0
1207.431519 52.0
1207.600342 96.0
1207.915649 60.0
1208.310059 148.0
1208.496826 64.0
1209.324463 224.0
1209.666382 124.0
1209.72876 56.0
1209.929443 92.0
1210.157959 108.0
1210.490356 104.0
1211.095581 152.0
1211.356079 132.0
1211.536255 112.0
1212.04895 92.0
1212.161987 108.0
1212.665649 64.0
1212.811279 60.0
1213.254883 48.0
1213.86499 172.0
1214.049316 104.0
1214.121582 100.0
1214.516968 68.0
1215.224609 76.0
1215.362793 96.0
1215.883789 52.0
1216.154419 44.0
1216.355713 164.0
1217.362549 64.0
1217.543091 148.0
1218.140381 44.0
1218.341797 40.0
1219.398071 164.0
1219.467529 40.0
1219.530151 44.0
1219.756348 188.0
1219.947144 52.0
1220.155762 52.0
1220.572876 72.0
1220.635498 160.0
1220.725952 64.0
1221.873535 100.0
1222.172729 164.0
1222.374512 60.0
1222.506714 160.0
1222.628784 108.0
1222.826904 56.0
1223.938599 168.0
1224.06604 60.0
1224.678955 132.0
1225.124756 116.0
1225.512939 200.0
1225.786743 148.0
1225.932983 152.0
1226.288452 48.0
1226.623047 156.0
1226.783325 140.0
1226.957642 28.0
1227.640991 156.0
1228.177979 104.0
1228.303589 44.0
1228.526733 212.0
1229.005249 140.0
1229.375122 132.0
1229.950317 76.0
1230.11792 76.0
1230.173706 80.0
1230.313354 128.0
1230.585571 164.0
1230.648438 200.0
1231.060425 172.0
1231.170898 84.0
1231.716919 160.0
1231.856689 152.0
1232.674072 68.0
1233.575684 52.0
1235.428955 168.0
1236.086548 152.0
1236.646484 104.0
1236.702515 84.0
1236.793457 168.0
1237.313843 112.0
1237.696533 52.0
1238.270752 32.0
1238.354858 92.0
1238.620972 192.0
1238.69104 124.0
1239.202515 156.0
1239.587891 28.0
1239.791138 64.0
1240.183594 176.0
1240.484985 88.0
1240.63916 56.0
1241.35437 100.0
1241.564819 144.0
1242.022461 128.0
1242.651978 164.0
1242.77832 100.0
1243.480103 36.0
1244.097778 124.0
1244.231201 160.0
1244.329468 76.0
1244.568237 96.0
1244.645386 160.0
1245.066772 120.0
1245.186157 104.0
1245.944824 148.0
1246.064209 132.0
1246.366333 72.0
1246.549072 76.0
1246.724731 120.0
1247.033936 56.0
1247.427612 104.0
1247.526001 132.0
1247.954834 104.0
1248.123657 72.0
1248.397827 68.0
1248.756592 60.0
1249.178589 40.0
1249.305176 84.0
1249.635864 144.0
1249.875122 164.0
1249.931396 92.0
1250.290283 52.0
1250.578857 180.0
1250.790039 168.0
1252.008057 44.0
1252.275757 112.0
1254.650391 40.0
1255.165161 84.0
1255.637573 28.0
1255.720337 152.0
1256.653442 92.0
1257.025146 160.0
1257.888428 164.0
1258.121338 132.0
1259.152344 160.0
1259.667969 76.0
1260.049438 100.0
1260.83374 68.0
1261.067017 64.0
1261.130615 152.0
1261.39209 104.0
1261.830444 72.0
1262.18396 120.0
1262.304199 92.0
1262.728516 176.0
1263.017822 80.0
1263.164185 116.0
1263.662231 48.0
1264.030273 120.0
1264.447754 100.0
1264.822876 140.0
1265.488281 52.0
1266.22937 132.0
1266.288574 56.0
1266.536499 52.0
1266.6073 56.0
1266.784424 112.0
1267.244873 48.0
1267.464478 80.0
1267.584961 120.0
1268.187378 56.0
1268.279541 136.0
1269.002563 60.0
1269.059326 76.0
1269.506104 148.0
1269.562866 48.0
1269.789795 156.0
1270.293335 100.0
1271.05249 104.0
1271.166016 128.0
1271.442749 120.0
1271.634399 132.0
1271.762207 68.0
1272.344238 56.0
1272.507568 44.0
1273.800049 112.0
1273.920898 108.0
1274.368408 88.0
1274.823242 160.0
1274.894287 44.0
1276.109741 44.0
1276.515137 100.0
1277.034302 132.0
1277.083984 72.0
1277.133789 124.0
1277.510864 80.0
1277.589111 132.0
1277.667358 144.0
1277.816772 68.0
1279.062134 184.0
1279.183105 136.0
1279.411011 92.0
1279.766968 68.0
1279.966309 108.0
1280.113403 184.0
1280.315308 44.0
1280.479004 48.0
1280.6073 128.0
1281.120117 84.0
1281.74707 124.0
1282.224609 144.0
1282.495361 104.0
1282.595215 92.0
1282.80188 64.0
1283.058594 212.0
1283.158325 56.0
1283.957642 128.0
1284.740723 88.0
1284.977051 156.0
1285.540771 64.0
1285.712036 168.0
1286.111694 76.0
1286.825562 56.0
1287.768188 216.0
1287.918213 60.0
1288.053955 76.0
1288.275391 44.0
1288.846924 120.0
1289.025635 104.0
1289.132812 76.0
1289.24707 144.0
1289.36145 136.0
1289.454346 52.0
1290.069092 36.0
1290.147705 136.0
1290.212036 152.0
1290.419434 52.0
1290.776978 88.0
1291.656616 264.0
1292.121582 116.0
1292.243286 136.0
1292.465088 168.0
1292.603394 180.0
1293.817749 76.0
1293.939453 172.0
1294.082642 76.0
1294.136108 88.0
1294.233032 180.0
1294.519409 132.0
1294.691284 104.0
1294.805908 108.0
1295.49353 68.0
1295.557983 140.0
1295.744263 36.0
1295.808838 72.0
1295.887573 80.0
1296.539673 172.0
1296.862183 104.0
1298.002075 60.0
1298.088135 148.0
1299.745117 84.0
1300.00354 68.0
1300.316284 124.0
1300.807373 136.0
1301.467896 172.0
1301.589966 176.0
1302.20752 72.0
1302.466064 88.0
1302.530762 72.0
1303.076782 144.0
1303.421631 80.0
1303.680298 68.0
1303.744995 116.0
1303.87439 196.0
1304.255249 80.0
1304.327148 156.0
1304.435059 68.0
1304.895142 160.0
1305.189941 48.0
1305.434448 52.0
1306.578003 76.0
1306.786743 48.0
1306.952148 76.0
1307.247192 184.0
1307.563843 152.0
1307.714966 80.0
1307.779785 108.0
1308.257935 208.0
1308.773193 112.0
1309.111694 52.0
1309.183716 136.0
1309.573853 156.0
1309.810303 200.0
1310.055176 108.0
1310.220947 72.0
1310.271362 144.0
1310.350586 168.0
1310.516357 48.0
1310.62439 172.0
1310.761353 72.0
1311.539673 188.0
1311.943359 64.0
1312.08252 80.0
1312.130737 176.0
1312.354248 196.0
1313.140381 140.0
1313.335083 40.0
1313.405518 140.0
1313.724609 80.0
1314.143066 168.0
1314.193604 120.0
1314.9729 88.0
1315.442139 40.0
1315.702026 92.0
1316.084595 32.0
1316.322876 68.0
1316.611816 84.0
1316.691284 96.0
1316.915161 48.0
1316.9729 48.0
1317.23291 52.0
1317.702515 88.0
1317.897583 100.0
1318.584106 180.0
1318.945557 88.0
1319.017822 192.0
1319.256348 112.0
1319.473267 88.0
1319.914307 116.0
1320.116699 152.0
1320.620117 132.0
1320.74292 96.0
1321.064209 44.0
1321.78772 100.0
1321.838379 144.0
1322.137695 96.0
1322.20752 48.0
1322.482544 52.0
1322.887939 52.0
1323.496094 68.0
1324.010254 148.0
1324.734497 176.0
1325.046021 84.0
1325.27063 176.0
1326.161987 76.0
1326.640747 144.0
1326.93042 32.0
1326.995605 216.0
1327.394409 96.0
1327.668823 72.0
1327.974609 116.0
1328.395386 108.0
1328.729004 32.0
1329.932983 92.0
1330.136963 56.0
1330.209473 48.0
1330.354736 108.0
1331.334961 40.0
1331.614502 80.0
1331.668945 136.0
1332.5625 96.0
1332.620605 36.0
1332.845825 32.0
1333.245605 152.0
1333.547363 184.0
1333.72522 132.0
1334.750366 52.0
1334.912109 60.0
1335.404785 176.0
1335.58667 128.0
1335.826782 88.0
1335.928589 40.0
1336.285034 92.0
1336.426025 148.0
1336.521118 116.0
1336.712646 216.0
1336.845337 92.0
1337.565918 120.0
1337.616821 172.0
1337.726074 52.0
1338.053589 80.0
1338.257446 152.0
1338.519653 192.0
1339.056152 108.0
1339.561157 60.0
1339.947266 92.0
1340.595703 184.0
1341.076782 60.0
1341.546997 148.0
1341.667236 88.0
1341.812988 104.0
1341.937622 80.0
1342.250488 112.0
1342.549438 108.0
1342.635986 56.0
1342.790161 164.0
1342.855835 168.0
1343.483154 80.0
1343.548706 192.0
1343.767578 68.0
1343.838013 92.0
1344.012573 64.0
1344.526489 92.0
1345.125 68.0
1345.322144 136.0
1345.928101 84.0
1346.103394 52.0
1346.205566 160.0
1346.278687 124.0
1346.753418 112.0
1347.133179 104.0
1347.212158 164.0
1347.337769 100.0
1347.973389 72.0
1348.148804 48.0
1348.426514 48.0
1348.484985 44.0
1349.311035 104.0
1349.852051 60.0
1350.217773 64.0
1350.817505 112.0
1351.110107 88.0
1351.54187 64.0
1351.900391 136.0
1352.105347 132.0
1352.44458 132.0
1352.595703 52.0
1353.218018 164.0
1353.415649 192.0
1353.650024 64.0
1354.016113 120.0
1354.074707 168.0
1354.477539 92.0
1355.415283 144.0
1355.986938 112.0
1356.206787 88.0
1356.316772 60.0
1356.727295 56.0
1357.621826 80.0
1357.849243 132.0
1358.054565 92.0
1358.171875 152.0
1358.428711 100.0
1358.612061 144.0
1358.751465 64.0
1358.854126 228.0
1358.986206 100.0
1359.690674 60.0
1359.932861 192.0
1360.608276 64.0
1360.725708 48.0
1360.92395 164.0
1361.078125 52.0
1361.298462 128.0
1361.614258 84.0
1361.749146 76.0
1361.981445 164.0
1362.109619 204.0
1362.510376 32.0
1362.618042 172.0
1362.679321 108.0
1362.914429 60.0
1363.039429 140.0
1363.296631 72.0
1363.40686 180.0
1363.604126 132.0
1363.840454 68.0
1363.921265 152.0
1364.097778 148.0
1364.185913 132.0
1364.303589 80.0
1364.35498 72.0
1365.516846 104.0
1365.832642 60.0
1366.473145 84.0
1367.319336 180.0
1367.797852 176.0
1367.974487 168.0
1368.026855 168.0
1368.629761 176.0
1368.850586 100.0
1369.012573 100.0
1369.278442 136.0
1369.498657 56.0
1369.660767 176.0
1370.32373 220.0
1370.50061 184.0
1370.950073 40.0
1371.429199 108.0
1372.843506 120.0
1373.05127 92.0
1373.117554 120.0
1374.057373 212.0
1374.548828 156.0
1375.021118 244.0
1375.862549 80.0
1376.032349 140.0
1376.71167 116.0
1377.162231 212.0
1377.258301 188.0
1377.319458 276.0
1378.196411 160.0
1379.495605 132.0
1379.652466 68.0
1379.763306 44.0
1379.903809 72.0
1380.0 88.0
1380.066528 64.0
1380.406616 64.0
1380.509033 180.0
1380.718384 136.0
1380.776367 136.0
1380.91687 196.0
1381.072266 128.0
1381.686279 216.0
1381.789795 128.0
1382.115356 228.0
1382.279663 136.0
1382.574219 104.0
1382.747681 80.0
1382.966431 100.0
1383.247681 240.0
1383.388306 36.0
1383.484619 92.0
1383.684448 68.0
1383.95105 132.0
1384.884155 68.0
1384.950806 68.0
1385.580444 72.0
1385.765747 64.0
1385.891602 168.0
1386.054688 116.0
1386.501953 164.0
1386.874756 164.0
1386.988525 112.0
1387.056274 184.0
1387.821045 128.0
1388.085693 116.0
1388.248901 44.0
1388.582642 84.0
1389.36145 76.0
1389.472778 60.0
1389.903076 76.0
1390.830811 100.0
1390.949585 112.0
1391.090576 56.0
1391.328125 116.0
1391.647339 116.0
1391.825562 140.0
1392.100342 48.0
1392.647095 192.0
1393.177368 76.0
1393.548828 72.0
1393.652832 64.0
1394.011963 120.0
1394.098633 168.0
1394.343872 176.0
1394.893921 48.0
1395.094604 176.0
1395.191284 132.0
1395.287964 128.0
1395.522583 116.0
1395.921875 192.0
1396.060181 116.0
1396.187744 204.0
1396.650146 160.0
1396.998413 128.0
1397.095093 140.0
1397.184448 108.0
1397.593628 92.0
1397.723022 124.0
1398.040161 216.0
1398.375 196.0
1398.471802 184.0
1399.146851 144.0
1399.908691 164.0
1400.631104 220.0
1400.951416 76.0
1401.247681 100.0
1401.297241 132.0
1401.614502 152.0
1401.718872 176.0
1401.793335 112.0
1402.479004 100.0
1402.69519 196.0
1403.194702 52.0
1403.709106 80.0
1403.800415 172.0
1403.888062 176.0
1403.940308 200.0
1404.126709 204.0
1404.216309 180.0
1404.432617 148.0
1404.671265 56.0
1404.850342 116.0
1404.947266 56.0
1405.177734 116.0
1405.26062 120.0
1405.477051 80.0
1405.656128 116.0
1406.073975 64.0
1407.021973 152.0
1407.148926 128.0
1407.455078 80.0
1407.507324 60.0
1407.716431 64.0
1407.955322 68.0
1408.149536 132.0
1408.38855 104.0
1408.64502 176.0
1408.806885 136.0
1409.157959 96.0
1409.389648 80.0
1409.441895 116.0
1409.583862 84.0
1409.755737 136.0
1409.875366 196.0
1410.084595 184.0
1410.181763 224.0
1410.301392 132.0
1410.914307 68.0
1410.996582 80.0
1411.288208 260.0
1411.422729 168.0
1411.766724 116.0
1411.931274 204.0
1412.091064 76.0
1412.858765 128.0
1413.158081 60.0
1413.247803 64.0
1413.300293 60.0
1413.405029 140.0
1414.085938 148.0
1414.145874 152.0
1414.348022 160.0
1414.594971 96.0
1415.171509 80.0
1415.703125 48.0
1415.830444 92.0
1416.16748 68.0
1416.249878 120.0
1416.504517 180.0
1416.729248 144.0
1416.811646 88.0
1417.336182 60.0
1417.875732 40.0
1418.123047 156.0
1418.610229 156.0
1418.677734 176.0
1418.78894 128.0
1419.097534 108.0
1419.217529 80.0
1419.405029 68.0
1419.622437 156.0
1419.892456 136.0
1420.027466 40.0
1420.263184 152.0
1420.454956 112.0
1420.597534 116.0
1420.82251 140.0
1421.452881 160.0
1421.610474 152.0
1421.817017 128.0
1421.90564 72.0
1422.135742 172.0
1422.616211 112.0
1422.833862 176.0
1423.104126 88.0
1423.38855 128.0
1423.547241 160.0
1423.907715 148.0
1424.138672 152.0
1424.320801 56.0
1425.54541 196.0
1425.621826 116.0
1425.831055 92.0
1426.202393 108.0
1426.286743 144.0
1426.515015 108.0
1427.003662 104.0
1427.259277 88.0
1427.432251 76.0
1427.860962 36.0
1427.921143 92.0
1428.101562 148.0
1428.67334 60.0
1428.748535 36.0
1429.091187 224.0
1429.675903 132.0
1429.922363 168.0
1430.06543 56.0
1430.12561 92.0
1430.193359 72.0
1430.577271 120.0
1431.013916 96.0
1431.074097 168.0
1431.251709 88.0
1431.55603 124.0
1431.872314 56.0
1431.992798 160.0
1432.233887 152.0
1432.550293 148.0
1432.708496 56.0
1433.183105 68.0
1433.537231 44.0
1433.763306 132.0
1434.064819 108.0
1434.13269 176.0
1434.223145 64.0
1434.275879 76.0
1434.396484 200.0
1434.735718 108.0
1435.203125 124.0
1436.183594 72.0
1436.266479 184.0
1436.568237 196.0
1436.769165 140.0
1436.922852 188.0
1437.036011 104.0
1437.164307 124.0
1437.443481 64.0
1437.783081 40.0
1438.258545 144.0
1438.817139 92.0
1439.730835 156.0
1440.100952 152.0
1440.168945 88.0
1440.221802 64.0
1440.372803 176.0
1440.71936 96.0
1440.748779 84.0
1440.969604 68.0
1441.120728 132.0
1441.173706 52.0
1441.226562 52.0
1441.370117 96.0
1441.43811 84.0
1441.551514 48.0
1441.717773 180.0
1441.921753 68.0
1442.723022 92.0
1442.884399 80.0
1443.070801 112.0
1443.562256 56.0
1443.683228 104.0
1443.947998 180.0
1444.696777 108.0
1445.014526 44.0
1445.072021 108.0
1445.173462 196.0
1445.294556 112.0
1445.445923 76.0
1445.809082 168.0
1446.000122 184.0
1446.081177 164.0
1446.513062 108.0
1446.921753 48.0
1447.020264 136.0
1447.724487 192.0
1447.777466 112.0
1447.830444 132.0
1448.269775 80.0
1448.466675 120.0
1448.78479 44.0
1448.981812 144.0
1449.209106 176.0
1449.421265 108.0
1449.519775 40.0
1449.633423 56.0
1449.891113 248.0
1450.02002 156.0
1450.194336 60.0
1450.596069 100.0
1450.937134 116.0
1451.434082 132.0
1451.536133 208.0
1451.744141 104.0
1452.18811 152.0
1452.26416 100.0
1452.514526 48.0
1452.774414 196.0
1452.840698 84.0
1453.189697 124.0
1453.553955 148.0
1453.660156 52.0
1454.221802 84.0
1454.517822 72.0
1454.828979 188.0
1455.246582 132.0
1455.299683 156.0
1455.466797 72.0
1455.527588 88.0
1455.68042 232.0
1456.021118 80.0
1456.074341 84.0
1456.343994 52.0
1456.438843 88.0
1456.651611 148.0
1457.320068 84.0
1457.434082 56.0
1457.510132 40.0
1457.641968 132.0
1458.216797 136.0
1458.574097 44.0
1458.938965 116.0
1459.11377 44.0
1459.334351 92.0
1459.529175 108.0
1459.760132 136.0
1460.277222 44.0
1460.452148 132.0
1460.551025 124.0
1460.718384 172.0
1460.771729 64.0
1461.654175 128.0
1462.171753 128.0
1462.43811 132.0
1462.546265 96.0
1462.768188 228.0
1462.993774 40.0
1463.222168 172.0
1463.38208 168.0
1463.81604 60.0
1463.918091 80.0
1464.074951 144.0
1464.166382 96.0
1464.387207 52.0
1464.505127 200.0
1464.570068 64.0
1464.821411 60.0
1465.735718 76.0
1465.834717 164.0
1466.086182 88.0
1466.375854 36.0
1466.543457 44.0
1466.657837 156.0
1466.795044 156.0
1466.871338 104.0
1466.985596 56.0
1467.109009 108.0
1467.183105 196.0
1467.442993 160.0
1467.549805 124.0
1467.702271 120.0
1467.755615 48.0
1468.091187 92.0
1469.181885 36.0
1469.519653 180.0
1469.761841 196.0
1470.406616 120.0
1470.639404 116.0
1471.838013 52.0
1472.196899 168.0
1472.395508 224.0
1472.479492 212.0
1472.800293 56.0
1473.434326 116.0
1474.160156 108.0
1474.213623 184.0
1475.678589 160.0
1475.765381 168.0
1475.834229 72.0
1476.010132 160.0
1476.132446 168.0
1476.265625 152.0
1476.453613 120.0
1476.690674 108.0
1476.759521 108.0
1478.006592 124.0
1478.067749 92.0
1478.121338 56.0
1478.243774 92.0
1478.526855 180.0
1478.702881 168.0
1478.779419 124.0
1478.875122 80.0
1478.947876 108.0
1479.050537 136.0
1479.146851 80.0
1479.36377 108.0
1480.800781 76.0
1480.862061 128.0
1481.329224 124.0
1481.428833 80.0
1481.528442 180.0
1481.605103 112.0
1481.697021 52.0
1481.825439 184.0
1482.201416 280.0
1482.279297 192.0
1482.340576 136.0
1482.509155 48.0
1482.608887 112.0
1482.716187 116.0
1482.953735 156.0
1483.091675 208.0
1483.682007 88.0
1484.47937 124.0
1484.744629 196.0
1484.809082 164.0
1484.947144 44.0
1485.100586 96.0
1485.208008 80.0
1485.583862 100.0
1485.893188 132.0
1486.028809 76.0
1486.228271 104.0
1486.343384 92.0
1486.504517 148.0
1486.619629 60.0
1486.911255 84.0
1487.379517 76.0
1487.855469 124.0
1488.001343 132.0
1488.454346 64.0
1488.546509 64.0
1489.084106 132.0
1489.189209 76.0
1489.268433 140.0
1489.437378 132.0
1489.590942 128.0
1489.7677 72.0
1490.010498 120.0
1490.105713 84.0
1490.497559 196.0
1490.666626 144.0
1491.012451 144.0
1491.412109 108.0
1491.804199 84.0
1491.911743 88.0
1492.127075 128.0
1492.188599 116.0
1492.419189 92.0
1492.473022 40.0
1492.811401 100.0
1493.111328 140.0
1493.272827 136.0
1493.480469 220.0
1493.572754 52.0
1493.711304 92.0
1493.888184 84.0
1494.573853 32.0
1495.011475 132.0
1495.296265 68.0
1495.388672 104.0
1495.665771 96.0
1495.750366 164.0
1495.809082 156.0
1496.096802 44.0
1496.543335 60.0
1496.625122 96.0
1496.728149 136.0
1496.959229 104.0
1497.113159 172.0
1497.213257 136.0
1497.97583 76.0
1498.299438 84.0
1498.384155 48.0
1498.738525 80.0
1499.262573 128.0
1499.355103 160.0
1499.462891 112.0
1499.717285 60.0
1500.303101 204.0
1500.372559 52.0
1500.665527 180.0
1501.151245 100.0
1501.213013 148.0
1501.297852 92.0
1501.513794 176.0
1502.078125 96.0
1502.369995 152.0
1502.477905 88.0
1502.717163 160.0
1503.133789 140.0
1503.671387 108.0
1503.728027 80.0
1504.222046 52.0
1504.662109 48.0
1504.893677 80.0
1505.078979 44.0
1505.194824 144.0
