>compound Sulfinpyrazone
>formula C23H20N2O3S 
>ionization [M+H]+
>parentmass 405.128479
#inchi InChI=1S/C23H20N2O3S/c26-22-21(16-17-29(28)20-14-8-3-9-15-20)23(27)25(19-12-6-2-7-13-19)24(22)18-10-4-1-5-11-18/h1-15,21H,16-17H2
#inchikey MBGGBVCUIVRRBF
#Ion_Source LC-ESI
#Instrument qTof
#Compound_Source Commercial
#PI Dorrestein
#Data_Collector Garg_Neha
#Scan -1
#Precursor_MZ 405.13
#ExactMass 404.119
#Charge 1
#CAS_Number N/A
#Pubmed_ID N/A
#Smiles N/A
#INCHI_AUX N/A
#Library_Class 1
#SpectrumID CCMSLIB00000077050
#IonMode Positive
#UpdateWorkflowName UPDATE-SINGLE-ANNOTATED-GOLD
#LibraryQualityString Gold
#TaskID 48f7f52fc6d249b5abbcc6e7b3df5969
##Scan# 1460
#SpectrumFile NCP003017_E2_F11_BA8_01_15703.mzXML
#LibraryName NIH_Clinical_Collection_2.mgf
#MQScore -1
#Organism NIHcollection2_04212014_2_mgf
#TIC_Query 0
#RT_Query -1
#MZErrorPPM -1
#SharedPeaks 0
#MassDiff 0
#LibMZ -1
#SpecMZ 405.13
#SpecCharge 0
#internalFilename spec-00000.mgf

>collision 10
45.265224 144.0
45.565678 156.0
46.981838 144.0
47.438602 180.0
48.566589 176.0
49.270977 188.0
49.536777 168.0
50.253784 140.0
50.304592 148.0
51.203564 216.0
51.63744 144.0
51.87513 152.0
52.267365 160.0
53.07613 216.0
53.343269 148.0
53.514938 148.0
53.770042 156.0
54.86137 148.0
55.437817 160.0
57.843342 184.0
58.13586 176.0
58.573742 160.0
58.880318 156.0
58.947536 176.0
59.230576 164.0
59.617214 176.0
60.320045 140.0
60.992455 204.0
61.154552 148.0
61.419437 168.0
61.802193 200.0
63.586102 144.0
64.18425 160.0
65.179893 144.0
65.411491 196.0
65.751579 148.0
66.413322 168.0
67.426041 160.0
68.107628 192.0
68.211151 152.0
68.370697 164.0
68.852089 168.0
70.503479 140.0
70.999023 180.0
72.558784 160.0
73.012154 148.0
73.030861 244.0
73.163589 196.0
73.463531 220.0
73.480591 172.0
74.423668 172.0
75.011833 156.0
75.158646 156.0
75.213875 204.0
77.583221 140.0
79.339134 228.0
79.489899 156.0
80.948074 172.0
81.432289 176.0
81.705521 148.0
82.262375 156.0
82.508064 184.0
82.536995 148.0
82.665428 172.0
83.378136 152.0
83.845856 156.0
84.543488 144.0
85.372696 160.0
85.851501 160.0
85.951118 144.0
86.14682 164.0
86.414894 144.0
86.833542 192.0
86.855797 196.0
87.082245 144.0
88.310516 168.0
89.637825 180.0
90.098198 160.0
90.510521 168.0
90.546501 140.0
90.747368 212.0
91.054184 324.0
91.208466 180.0
92.05088 372.0
92.06987 188.0
92.94854 180.0
93.033012 172.0
93.057678 2076.0
93.088669 172.0
93.124023 156.0
93.592468 164.0
93.850662 204.0
94.06012 344.0
94.120804 228.0
94.509315 148.0
95.001991 200.0
95.063507 228.0
95.47924 216.0
96.853294 152.0
97.029617 176.0
97.909973 152.0
99.557358 160.0
100.371246 224.0
101.170433 156.0
101.246521 168.0
101.64344 140.0
102.046196 140.0
102.580666 168.0
103.139816 148.0
103.259109 152.0
103.319794 148.0
103.962105 228.0
104.049454 2608.0
105.033134 144.0
105.054482 300.0
105.937851 156.0
106.064751 420.0
106.958427 140.0
107.121101 144.0
108.080513 176.0
108.1577 188.0
108.725594 204.0
108.792015 204.0
108.970627 140.0
109.011955 184.0
109.253372 176.0
109.421944 160.0
109.719864 184.0
110.559555 172.0
111.00164 120.0
112.075691 156.0
112.848206 140.0
113.301117 220.0
113.572456 152.0
113.954575 144.0
114.582207 140.0
114.624817 148.0
115.052193 164.0
115.444542 212.0
116.05648 160.0
116.27771 172.0
117.055443 752.0
117.185371 248.0
117.906097 200.0
118.065804 1968.0
118.696243 156.0
119.035545 176.0
119.068451 148.0
119.826492 148.0
120.042847 1304.0
120.079353 148.0
120.618668 144.0
120.706116 172.0
121.027771 156.0
123.026413 468.0
123.452736 204.0
123.970749 140.0
124.24791 144.0
124.565361 204.0
125.025612 144.0
125.555832 176.0
125.772247 224.0
125.872711 180.0
126.05365 140.0
126.380112 148.0
126.767494 248.0
128.051712 168.0
128.898514 188.0
128.923386 204.0
129.057816 3220.0
130.037933 184.0
130.064484 6784.0
130.103668 132.0
130.157959 148.0
130.373764 144.0
131.038193 204.0
131.069458 780.0
131.129349 184.0
132.045135 1624.0
132.081421 3324.0
132.697495 196.0
133.049728 312.0
133.088959 260.0
133.324142 152.0
133.383911 180.0
133.804886 164.0
133.922333 156.0
133.959183 176.0
134.061295 320.0
134.422607 276.0
134.706589 160.0
135.025467 1108.0
135.131973 148.0
135.560333 172.0
136.028091 288.0
136.712173 140.0
136.805267 160.0
137.005539 288.0
137.040054 384.0
137.061035 176.0
137.705338 140.0
137.754379 192.0
138.049698 172.0
138.306229 216.0
140.734711 156.0
141.06012 196.0
141.396606 176.0
141.685501 160.0
142.065582 768.0
142.088531 140.0
143.043869 144.0
143.07074 180.0
143.167664 164.0
144.043961 448.0
144.236115 176.0
144.683884 220.0
145.049088 164.0
145.213455 192.0
146.020447 332.0
146.057861 856.0
147.028702 336.0
147.061707 376.0
148.033813 160.0
148.075607 188.0
148.396622 240.0
148.413589 156.0
149.042252 160.0
149.601639 164.0
150.052414 128.0
150.657578 244.0
150.679565 140.0
151.063385 160.0
151.166138 140.0
152.834732 144.0
152.950409 140.0
155.064682 152.0
155.342392 168.0
155.759415 160.0
156.044388 340.0
156.420853 260.0
156.572739 176.0
156.856781 184.0
157.016357 212.0
157.053253 116.0
157.078232 312.0
157.498062 196.0
158.060852 21676.0
159.063858 2016.0
159.236313 192.0
159.925217 240.0
160.02063 284.0
160.074783 2812.0
160.251694 124.0
160.314743 120.0
160.360947 156.0
160.703903 156.0
161.05278 204.0
161.078995 772.0
161.345413 164.0
161.9198 204.0
162.055588 1032.0
162.08194 348.0
163.020828 172.0
163.053864 152.0
163.57019 144.0
164.914413 140.0
165.032013 168.0
165.06781 152.0
165.336426 184.0
165.531967 208.0
166.063187 132.0
166.443848 188.0
167.070267 260.0
167.725037 224.0
168.039658 172.0
168.079819 480.0
168.899918 144.0
169.051529 344.0
169.082321 148.0
169.233749 152.0
170.060074 152.0
171.055267 236.0
171.102036 108.0
172.060898 168.0
173.009872 280.0
173.05629 200.0
174.051605 172.0
174.076019 176.0
175.021698 200.0
175.061127 244.0
175.887375 212.0
176.07019 284.0
177.037476 300.0
178.268387 144.0
178.829529 156.0
179.090469 204.0
179.556183 196.0
180.079803 432.0
181.075378 308.0
181.125824 224.0
181.54393 156.0
182.085602 436.0
182.446091 176.0
182.77153 144.0
183.060333 360.0
183.091599 6276.0
183.892609 164.0
184.066086 136.0
184.09584 1196.0
184.522003 164.0
184.852066 148.0
184.888458 124.0
185.047638 27548.0
185.108795 244.0
185.21402 144.0
185.468445 168.0
185.869202 148.0
185.9767 156.0
186.008957 144.0
186.054932 19024.0
186.079269 4584.0
186.22139 168.0
186.275848 188.0
187.006821 164.0
187.05864 2788.0
187.26889 112.0
187.300888 144.0
187.63063 180.0
188.075851 244.0
188.489334 124.0
188.649139 144.0
188.996033 160.0
189.212463 200.0
189.269958 192.0
189.316513 152.0
190.051743 148.0
190.429977 192.0
191.015976 356.0
191.081467 208.0
191.425537 236.0
192.012527 188.0
192.766174 176.0
192.810394 184.0
193.034622 144.0
193.075119 156.0
194.065063 548.0
194.363922 140.0
194.785919 156.0
195.058884 272.0
196.02121 156.0
196.100433 216.0
196.570557 180.0
196.855286 152.0
197.073318 140.0
198.817688 140.0
199.446823 184.0
200.085388 192.0
200.961914 148.0
201.001801 212.0
201.064713 776.0
201.792282 152.0
202.06662 160.0
203.02269 168.0
203.057556 4040.0
204.061768 836.0
204.492844 188.0
205.075485 376.0
206.089233 292.0
206.504318 168.0
206.841949 208.0
207.092087 340.0
207.449234 144.0
208.100082 408.0
209.068985 148.0
209.107635 172.0
210.075989 268.0
210.576996 152.0
211.030685 176.0
211.086563 14716.0
212.088806 2548.0
213.056534 148.0
213.095291 236.0
213.120453 212.0
213.451813 140.0
215.28476 192.0
216.313934 184.0
216.460327 192.0
216.926163 200.0
216.946686 148.0
217.090729 220.0
219.018356 172.0
219.09024 324.0
219.489883 220.0
219.625549 200.0
220.094574 328.0
220.999237 156.0
221.108231 1192.0
221.144241 172.0
222.087723 112.0
222.110931 248.0
223.088821 512.0
223.121841 272.0
224.054337 144.0
224.091858 160.0
224.826599 180.0
225.094528 192.0
225.175903 164.0
226.042191 144.0
226.351181 164.0
229.454971 144.0
230.514404 200.0
230.650406 212.0
230.750168 180.0
231.089859 612.0
231.370377 148.0
232.098022 876.0
233.106354 3760.0
233.16304 280.0
233.622177 160.0
234.089706 464.0
234.110703 816.0
234.883316 196.0
235.087448 268.0
235.120972 864.0
236.125031 132.0
237.101517 276.0
238.067673 516.0
238.656342 176.0
238.810104 180.0
239.070862 140.0
239.856995 228.0
240.074295 196.0
241.023575 144.0
241.096115 152.0
243.090149 336.0
243.421127 184.0
243.517395 160.0
244.104767 176.0
245.110199 180.0
245.458435 112.0
246.083359 192.0
247.082886 416.0
247.302536 140.0
248.071152 304.0
248.116974 220.0
249.060059 144.0
249.103943 1320.0
250.06427 144.0
250.110321 748.0
250.266006 144.0
251.082977 896.0
251.118576 5392.0
251.80574 208.0
252.120804 748.0
252.250412 148.0
253.097687 12036.0
253.580627 200.0
253.69574 188.0
254.10199 1928.0
254.330353 112.0
254.977798 232.0
255.111969 136.0
255.456375 168.0
256.087555 168.0
256.478546 196.0
257.084503 140.0
257.892517 140.0
258.31781 148.0
258.794647 144.0
259.087402 916.0
260.09314 2124.0
261.102417 7748.0
261.172638 144.0
261.253448 132.0
261.340271 116.0
262.104736 1212.0
263.085571 1016.0
264.101562 208.0
264.266388 220.0
265.096283 816.0
265.271881 104.0
265.70163 160.0
266.064423 3204.0
266.844849 148.0
266.97818 192.0
267.067474 708.0
267.277435 172.0
268.058075 420.0
268.082672 244.0
269.088226 540.0
269.461975 140.0
270.094513 160.0
270.459381 192.0
273.136902 192.0
276.369965 240.0
276.787018 292.0
276.94931 196.0
277.098602 3104.0
277.866241 132.0
278.104675 7296.0
278.1922 136.0
278.36618 144.0
278.46756 112.0
278.541351 128.0
278.637299 160.0
278.669098 124.0
278.745392 108.0
278.79248 128.0
278.82196 140.0
278.845703 188.0
278.895142 180.0
278.94104 228.0
279.055481 320.0
279.11438 132780.0
279.297699 180.0
279.334503 132.0
279.364655 268.0
279.407379 184.0
279.48175 104.0
279.511536 136.0
279.661102 796.0
279.782593 180.0
279.841675 112.0
279.921692 120.0
280.069977 368.0
280.117249 25484.0
280.240692 228.0
280.507935 120.0
280.722321 156.0
280.809326 112.0
281.023254 116.0
281.119904 3104.0
281.169952 116.0
281.487854 112.0
281.560944 108.0
282.042206 192.0
282.084747 100.0
282.11972 380.0
282.811676 104.0
283.010345 160.0
283.173126 104.0
283.311798 172.0
287.091339 128.0
290.74826 168.0
293.648346 132.0
294.058319 8064.0
294.884796 176.0
295.060059 1312.0
295.103577 148.0
295.233521 196.0
296.05899 684.0
296.121216 160.0
297.039429 164.0
299.144989 144.0
302.157745 236.0
309.068817 140.0
310.742523 140.0
310.932007 176.0
312.067169 548.0
313.073181 348.0
313.682556 236.0
315.564209 160.0
316.512451 168.0
317.430206 200.0
319.081268 160.0
324.078033 160.0
324.346802 204.0
327.753784 204.0
330.678894 148.0
333.05014 144.0
335.371552 140.0
337.434082 140.0
337.547424 184.0
339.224243 148.0
341.228699 188.0
344.146759 176.0
350.478302 140.0
351.544739 152.0
353.21106 176.0
354.019501 244.0
357.420441 160.0
359.118347 520.0
361.991699 144.0
363.921722 144.0
369.015839 160.0
370.112671 108.0
371.466827 204.0
375.740845 176.0
378.616699 200.0
379.03894 188.0
380.202301 172.0
383.309418 172.0
384.600311 144.0
385.944183 144.0
386.108673 132.0
386.213318 292.0
386.534821 140.0
386.914398 208.0
387.117615 25340.0
387.281738 132.0
387.637482 188.0
387.778595 100.0
388.119965 7644.0
388.535767 116.0
388.995117 220.0
389.119873 1668.0
389.878235 156.0
390.119293 332.0
390.477783 232.0
390.709625 148.0
392.739166 168.0
394.944458 148.0
395.39325 144.0
400.809875 176.0
401.212433 156.0
403.337708 180.0
403.553497 116.0
403.737061 256.0
403.998627 156.0
404.058472 132.0
404.152588 152.0
404.202911 272.0
404.311279 144.0
404.526154 148.0
404.563995 372.0
404.629517 164.0
404.674011 212.0
404.835571 248.0
404.890411 104.0
404.915314 180.0
405.055969 228.0
405.128479 122100.0
405.27655 132.0
405.355988 104.0
405.4151 180.0
405.45871 128.0
405.497925 176.0
405.567749 172.0
405.66156 144.0
405.716003 140.0
405.786285 532.0
405.847961 236.0
405.992615 112.0
406.031342 164.0
406.063538 172.0
406.130096 35336.0
406.250793 164.0
406.424652 268.0
406.526398 164.0
406.571198 192.0
406.814392 156.0
407.12796 7720.0
407.213287 240.0
407.263214 228.0
407.419952 144.0
407.716431 184.0
407.950439 104.0
408.128204 1512.0
408.265076 108.0
408.29953 132.0
408.399567 124.0
408.451874 128.0
408.550629 216.0
408.617828 256.0
408.65683 136.0
408.740631 136.0
408.815674 176.0
408.850006 120.0
408.970276 252.0
409.107819 108.0
409.143707 132.0
409.190002 120.0
409.352753 172.0
409.560333 268.0
409.799042 112.0
410.186127 120.0
410.642578 104.0
410.869659 100.0
411.468506 104.0
413.213531 128.0
414.647064 164.0
421.443207 152.0
424.016174 148.0
563.314331 144.0
599.836243 140.0
611.434753 148.0
1066.543457 168.0
1118.664062 148.0
1125.023804 184.0
1309.318115 140.0
1350.653809 164.0
1360.641968 252.0
1363.903687 180.0
1375.785645 208.0
1396.905762 180.0
1402.095459 148.0
1422.057129 152.0
1443.051758 160.0
1445.668945 192.0
1507.353027 144.0
1538.209961 148.0
1541.0448 152.0
1551.704712 156.0
1587.265259 140.0
1590.343506 148.0
1597.097168 196.0
1607.909058 148.0
1640.095825 200.0
1651.448242 140.0
1674.800049 228.0
1683.828979 140.0
1686.606934 164.0
1687.71875 200.0
1715.889038 148.0
1716.928101 144.0
1743.768921 196.0
1747.935303 144.0
1764.508545 184.0
1764.99353 172.0
1774.236816 160.0
1780.933228 176.0
1781.160034 216.0
1800.489868 152.0
1802.103271 156.0
1815.333374 176.0
1822.446655 172.0
1827.939575 148.0
1830.782837 168.0
1832.42688 164.0
1832.520508 144.0
1873.085327 228.0
1875.075684 272.0
1885.743164 204.0
1919.618774 152.0
1928.995728 176.0
1937.19519 140.0
1939.122925 256.0
1948.687866 156.0
1952.775513 156.0
1958.294067 156.0
1966.458374 160.0
1985.692871 180.0
1988.469849 152.0
1990.129883 248.0
1992.847778 144.0
1994.429565 216.0
