>compound MLS001142815-01!tert-butyl (2S)-2-[4-[[(2S)-1-[(4-methylphenyl)methylamino]-1-oxopropan-2-yl]carbamoyl]piperidine-1-carbonyl]pyrrolidine-1-carboxylate
>formula C27H40N4O5
>ionization [M+H]+
>parentmass 501.308
#inchi InChI=1S/C27H40N4O5/c1-18-8-10-20(11-9-18)17-28-23(32)19(2)29-24(33)21-12-15-30(16-13-21)25(34)22-7-6-14-31(22)26(35)36-27(3,4)5/h8-11,19,21-22H,6-7,12-17H2,1-5H3,(H,28,32)(H,29,33)/t19-,22-/m0/s1
#inchikey MYHSTFYQUQCVIJ
#Ion_Source LC-ESI
#Instrument qTof
#Compound_Source NIH Natural Product Library
#PI Dorrestein
#Data_Collector VVP/LMS
#Scan -1
#Precursor_MZ 501.308
#ExactMass 500.3
#Charge 1
#CAS_Number N/A
#Pubmed_ID N/A
#Smiles C[C@H](NC(=O)C1CCN(CC1)C(=O)[C@@H]2CCCN2C(=O)OC(C)(C)C)C(=O)NCc3ccc(C)cc3
#INCHI_AUX N/A
#Library_Class 1
#SpectrumID CCMSLIB00000080364
#IonMode Positive
#UpdateWorkflowName UPDATE-SINGLE-ANNOTATED-GOLD
#LibraryQualityString Gold
#TaskID b1d8e8f6646f4e71acdff9ca3d919d08
##Scan# 1908
#SpectrumFile p2-G07_GG7_01_18055.mzXML
#LibraryName NIH_Natural_Products_Library.mgf
#MQScore -1
#Organism NIH_Natural_Products_Library
#TIC_Query 0
#RT_Query -1
#MZErrorPPM -1
#SharedPeaks 0
#MassDiff 0
#LibMZ -1
#SpecMZ 501.308
#SpecCharge 0
#internalFilename spec-00000.mgf

>collision 10
94.975655 60.0
95.008629 164.0
95.051315 220.0
95.065468 68.0
95.148361 184.0
95.543724 140.0
95.62851 232.0
95.799866 72.0
95.918739 232.0
95.932381 160.0
96.080276 216.0
96.228928 172.0
96.2836 168.0
96.367599 176.0
96.381279 48.0
96.539619 144.0
96.563087 160.0
96.643295 208.0
96.996277 152.0
97.109535 220.0
97.26651 180.0
97.29792 176.0
97.329338 160.0
97.496315 196.0
97.763771 56.0
97.919304 164.0
98.039482 160.0
98.179451 160.0
98.207069 136.0
98.542664 236.0
98.71859 196.0
98.827385 208.0
98.900604 172.0
98.930298 184.0
98.969894 148.0
99.25325 80.0
99.402023 160.0
99.507225 96.0
99.566795 208.0
99.650223 196.0
99.79731 148.0
100.070747 196.0
100.291023 36.0
100.3927 148.0
100.50042 96.0
100.556297 116.0
100.574265 184.0
100.897881 172.0
100.997871 184.0
101.035881 144.0
101.25206 144.0
101.544678 120.0
101.667061 156.0
102.066818 204.0
102.39283 160.0
102.836395 164.0
103.008026 136.0
103.056221 572.0
103.145439 176.0
103.420532 176.0
103.5886 268.0
104.054367 156.0
104.115959 172.0
104.160645 172.0
104.665024 100.0
104.97068 220.0
105.011475 148.0
105.033905 144.0
105.069603 17092.0
105.121956 104.0
105.176094 60.0
105.203285 96.0
105.317635 124.0
105.536308 76.0
105.577202 44.0
105.790001 148.0
106.073776 1064.0
106.11985 76.0
106.154709 128.0
106.308563 32.0
106.337296 184.0
106.712761 176.0
106.820168 168.0
106.846909 76.0
107.079521 168.0
107.124832 180.0
107.68383 160.0
107.749931 144.0
107.898743 140.0
108.196655 188.0
108.598671 168.0
108.799957 172.0
108.903786 116.0
109.103279 48.0
109.269653 148.0
109.367462 120.0
109.709091 172.0
109.802925 132.0
109.95314 216.0
110.064407 200.0
110.086754 136.0
110.193283 188.0
110.270599 124.0
110.381401 192.0
110.414864 160.0
110.429504 136.0
110.555389 140.0
110.668068 140.0
110.728798 124.0
110.944069 60.0
111.095078 204.0
111.154373 168.0
111.223625 36.0
111.286606 140.0
111.536613 196.0
111.595474 172.0
111.717461 208.0
111.749016 136.0
111.976364 136.0
112.027779 176.0
112.052078 212.0
112.075905 42644.0
112.14711 172.0
112.216599 68.0
112.23793 144.0
112.344635 180.0
112.365211 164.0
112.383224 76.0
112.422363 252.0
112.450752 52.0
112.501411 84.0
112.577423 76.0
112.600655 52.0
112.63868 72.0
112.68515 80.0
112.746429 68.0
112.797157 48.0
112.826759 112.0
112.95787 40.0
112.974792 144.0
113.021339 104.0
113.079018 3720.0
113.122932 84.0
113.180092 52.0
113.224731 52.0
113.296585 172.0
113.349556 96.0
113.385582 80.0
113.455528 120.0
113.610344 80.0
113.752525 152.0
113.78437 52.0
113.804298 104.0
113.846985 164.0
113.888428 48.0
113.915337 144.0
113.934494 140.0
113.961868 112.0
113.988281 60.0
114.054169 160.0
114.081131 288.0
114.203003 168.0
114.413673 52.0
114.589951 204.0
114.707664 72.0
114.748169 92.0
115.014832 40.0
115.973091 184.0
116.269073 72.0
117.062355 96.0
117.088196 164.0
117.891678 204.0
118.046387 160.0
118.329849 172.0
118.754585 136.0
118.808815 184.0
119.180084 156.0
119.70649 168.0
119.933075 84.0
120.042084 124.0
120.131508 200.0
121.26857 92.0
121.349686 32.0
121.63488 36.0
122.094315 592.0
122.331726 264.0
122.607056 116.0
122.748146 80.0
122.76358 196.0
123.101219 176.0
124.154617 100.0
124.616333 200.0
124.698555 204.0
125.045525 148.0
125.584717 224.0
126.015564 196.0
126.129539 160.0
126.509827 104.0
126.807747 128.0
127.081741 144.0
127.892609 208.0
128.144821 104.0
128.612686 148.0
129.106445 232.0
129.176559 152.0
129.436829 172.0
129.803925 104.0
129.887848 152.0
129.908264 208.0
130.198807 152.0
130.557877 140.0
130.789948 140.0
130.915176 116.0
130.965271 144.0
131.355057 216.0
131.823105 172.0
131.843674 88.0
132.040298 116.0
134.868378 84.0
135.034866 224.0
135.092682 168.0
135.224579 160.0
135.416748 188.0
135.966232 92.0
136.567993 156.0
136.754135 140.0
136.898483 208.0
137.07785 56.0
137.908691 204.0
139.124451 144.0
139.154968 164.0
139.890823 88.0
139.935562 132.0
140.070511 404.0
140.564911 92.0
140.708893 164.0
140.80571 52.0
141.065613 128.0
141.967728 208.0
142.299927 112.0
143.015472 156.0
143.496368 244.0
143.728058 180.0
143.909454 168.0
144.043198 60.0
144.320435 168.0
144.423264 168.0
144.459137 52.0
144.923599 120.0
145.256851 116.0
145.619293 168.0
147.341644 88.0
147.554321 140.0
147.762329 128.0
147.839752 136.0
148.110855 880.0
148.215103 92.0
148.54483 140.0
148.569092 32.0
148.700119 108.0
149.061981 60.0
149.11203 168.0
149.288055 72.0
149.453461 196.0
149.601929 52.0
149.894196 152.0
150.693222 148.0
151.132202 112.0
151.663635 200.0
151.75679 224.0
152.267212 112.0
152.704697 160.0
152.763733 160.0
153.009842 124.0
153.036926 56.0
153.104324 184.0
153.371964 144.0
153.389221 120.0
153.542084 164.0
153.754257 48.0
154.099976 80.0
154.280396 120.0
154.587097 260.0
154.611847 164.0
154.874283 152.0
155.06012 148.0
155.118011 7528.0
155.160019 212.0
155.18985 124.0
155.253494 36.0
155.392883 84.0
156.092865 76.0
156.119766 912.0
156.279419 72.0
156.620483 152.0
157.001816 84.0
157.116562 180.0
157.166458 84.0
157.433563 124.0
158.672165 76.0
159.196594 148.0
159.234253 96.0
159.395035 116.0
159.623795 168.0
159.729416 92.0
159.772186 252.0
159.928207 176.0
159.945831 160.0
160.744766 152.0
161.578583 72.0
161.968445 148.0
162.090042 136.0
162.361298 108.0
162.379059 112.0
163.119125 160.0
163.4104 192.0
163.468933 180.0
163.532547 144.0
163.942596 156.0
164.552231 104.0
164.799988 88.0
164.894531 112.0
164.984009 196.0
165.198822 184.0
165.255112 100.0
165.341217 160.0
165.383057 48.0
165.431702 140.0
166.580551 204.0
167.020126 164.0
167.123032 112.0
167.475723 156.0
167.617416 100.0
169.004028 68.0
169.18779 156.0
169.213684 76.0
171.176682 156.0
171.265228 168.0
172.298264 92.0
172.601456 216.0
172.80809 104.0
172.899673 52.0
173.683075 160.0
173.753906 236.0
174.092514 204.0
174.127869 672.0
175.127274 200.0
176.086182 152.0
176.116165 260.0
177.687683 176.0
178.378159 88.0
179.112595 80.0
179.435059 240.0
179.899261 160.0
180.20639 136.0
181.096359 124.0
181.292801 164.0
181.898956 108.0
182.06543 172.0
182.129883 140.0
182.323334 80.0
182.371719 136.0
182.952759 160.0
182.97699 144.0
183.112747 15344.0
183.208603 56.0
183.413406 92.0
183.456528 48.0
183.526627 100.0
183.761292 188.0
183.815247 44.0
183.843521 84.0
183.885422 112.0
184.116394 1048.0
184.268875 48.0
184.479675 44.0
184.544556 84.0
184.969299 72.0
185.119354 452.0
185.158844 68.0
185.36348 164.0
185.40538 136.0
185.456879 60.0
185.85553 216.0
186.249176 160.0
186.477417 136.0
186.724838 108.0
187.408112 152.0
187.459885 156.0
187.923447 140.0
188.144516 148.0
188.311081 144.0
188.581573 132.0
188.999985 72.0
190.00827 148.0
190.447495 180.0
191.743408 172.0
192.0522 120.0
192.15152 108.0
192.452362 76.0
192.540726 212.0
192.57663 172.0
192.612549 188.0
192.841873 112.0
192.883347 120.0
193.132675 8936.0
193.23732 64.0
193.263199 68.0
193.38768 108.0
193.67749 140.0
193.937958 140.0
194.023392 112.0
194.062698 116.0
194.135498 1276.0
194.258911 64.0
194.789825 56.0
195.106628 32.0
195.13443 308.0
195.359695 44.0
195.44873 64.0
195.532211 128.0
195.565613 88.0
195.66861 128.0
195.698776 120.0
196.013992 60.0
196.591248 72.0
196.711258 152.0
197.113449 180.0
197.303513 124.0
198.118835 600.0
198.5047 164.0
199.21199 120.0
200.13681 188.0
200.760056 104.0
200.785431 132.0
201.471344 36.0
204.266525 176.0
204.815903 56.0
206.25975 116.0
207.052307 60.0
207.232788 188.0
207.906647 60.0
208.113327 148.0
208.146698 164.0
208.210968 104.0
208.443665 152.0
208.463776 116.0
209.129471 144.0
209.911758 64.0
209.943481 204.0
210.128082 60.0
210.364731 44.0
210.485992 92.0
210.994522 228.0
211.111313 176.0
211.153564 212.0
211.176697 76.0
211.518143 48.0
213.857681 64.0
214.731766 140.0
216.143417 144.0
216.49115 116.0
217.141754 148.0
218.145981 176.0
218.290039 176.0
218.716644 64.0
219.692032 80.0
220.787872 208.0
221.077805 108.0
221.924988 140.0
222.509491 208.0
222.631226 116.0
223.296951 80.0
223.916016 116.0
227.134293 384.0
227.627335 48.0
229.737228 116.0
231.390366 108.0
232.675858 180.0
233.775955 164.0
234.162827 124.0
235.022491 240.0
235.095734 120.0
236.177292 132.0
237.031464 132.0
237.724487 136.0
238.05603 84.0
238.09288 104.0
238.676758 140.0
239.316772 232.0
242.2229 180.0
242.421188 188.0
242.554459 180.0
243.156189 156.0
245.520676 128.0
250.892029 168.0
251.343048 148.0
251.778687 116.0
251.819748 136.0
252.100922 168.0
252.170807 1788.0
252.954895 164.0
253.17189 468.0
253.673981 44.0
253.867401 48.0
253.927658 180.0
254.01329 136.0
254.165573 92.0
254.813309 128.0
254.918167 128.0
255.073898 40.0
255.5923 108.0
256.873077 76.0
258.572937 172.0
259.264709 144.0
259.726379 176.0
259.835449 148.0
260.095398 80.0
262.082916 164.0
263.295837 148.0
264.602203 172.0
265.457611 196.0
265.509521 44.0
266.350159 112.0
268.492462 100.0
269.157532 120.0
269.703094 92.0
269.997375 160.0
271.089081 348.0
271.189117 128.0
271.78598 128.0
272.08136 200.0
272.685791 96.0
273.100067 480.0
273.165863 80.0
273.527832 124.0
276.124573 132.0
276.412384 108.0
277.760803 64.0
278.052795 216.0
278.391418 52.0
279.135803 72.0
279.17569 160.0
279.774628 168.0
280.16922 1276.0
280.397522 80.0
281.165588 556.0
282.38739 152.0
282.852478 112.0
284.038696 124.0
284.172882 180.0
286.186218 272.0
287.198029 196.0
287.919495 168.0
288.169464 124.0
288.845612 140.0
288.913269 32.0
289.356598 132.0
289.776581 140.0
290.373199 36.0
291.102844 116.0
292.459381 180.0
292.919067 60.0
296.04422 168.0
296.520447 60.0
296.60611 44.0
296.973022 152.0
297.199432 168.0
297.240601 152.0
297.439667 156.0
298.903748 120.0
301.345001 152.0
301.448639 92.0
301.839264 52.0
302.187195 176.0
303.113129 60.0
303.189362 64.0
303.227478 108.0
303.556824 88.0
303.827362 200.0
303.907166 152.0
303.941864 88.0
304.11322 128.0
304.202911 27172.0
304.293823 144.0
304.382996 96.0
304.504242 76.0
304.546265 40.0
304.596558 104.0
304.650513 112.0
304.677948 132.0
304.723114 36.0
304.775208 80.0
304.942017 48.0
305.004578 44.0
305.205231 4972.0
305.307068 124.0
305.411407 48.0
305.484863 68.0
305.529694 76.0
305.646698 76.0
305.689758 96.0
305.731506 72.0
305.905548 52.0
306.058716 80.0
306.20755 896.0
306.323608 148.0
306.474396 132.0
306.504578 72.0
306.542908 100.0
306.643982 84.0
306.668365 60.0
306.724152 92.0
306.877533 140.0
307.180969 144.0
307.207764 468.0
307.308075 120.0
307.375793 104.0
307.432159 132.0
307.469086 124.0
307.498474 136.0
307.529877 108.0
307.805695 72.0
308.189911 124.0
308.298248 168.0
308.431061 44.0
308.563904 48.0
308.745728 68.0
308.980103 40.0
310.903809 48.0
311.089813 100.0
312.217712 180.0
312.509674 52.0
312.537842 128.0
312.587097 60.0
312.710266 60.0
314.426666 40.0
314.684357 92.0
317.061493 108.0
317.224518 48.0
318.349274 76.0
320.907715 72.0
321.314301 116.0
321.960388 84.0
322.138977 92.0
324.095978 208.0
325.056976 76.0
326.033752 60.0
328.049408 132.0
328.687775 236.0
330.168915 120.0
330.255707 88.0
331.204041 124.0
331.537384 40.0
335.069275 160.0
338.323303 188.0
338.872681 148.0
339.400482 84.0
342.078796 120.0
342.262878 140.0
343.752106 132.0
345.059662 152.0
346.892212 144.0
346.966339 104.0
349.157166 132.0
349.808319 120.0
353.162872 188.0
353.353668 40.0
360.154205 108.0
361.76886 188.0
362.962341 236.0
363.637604 204.0
368.397339 124.0
372.868988 144.0
383.230927 200.0
384.242126 104.0
384.909576 116.0
387.150299 216.0
390.266022 180.0
392.352722 64.0
393.79303 128.0
397.716858 112.0
399.572662 68.0
400.082062 64.0
400.185577 100.0
400.611725 108.0
400.919067 120.0
400.958405 164.0
401.173645 120.0
401.255463 12284.0
401.327057 160.0
401.45459 104.0
401.50058 188.0
401.536499 88.0
401.608276 56.0
401.77182 72.0
401.820618 172.0
402.003265 96.0
402.083069 60.0
402.256744 4744.0
402.450317 40.0
402.55014 88.0
402.610046 68.0
402.649994 40.0
402.74585 96.0
402.849701 92.0
403.113403 116.0
403.265411 496.0
403.513123 44.0
403.569092 48.0
403.66507 56.0
403.817017 44.0
403.853027 56.0
403.909027 40.0
404.025024 48.0
404.134918 112.0
404.193085 84.0
404.533264 52.0
404.581329 68.0
404.721436 100.0
404.797516 108.0
404.944214 100.0
405.218109 88.0
405.907532 44.0
406.117981 48.0
406.746033 40.0
406.89859 36.0
409.186218 104.0
424.357788 116.0
428.95816 128.0
437.129852 184.0
438.716766 32.0
439.2547 88.0
440.916473 40.0
452.226196 28.0
454.145569 160.0
462.449921 48.0
469.24588 184.0
470.760406 104.0
472.787933 80.0
473.272736 148.0
487.497925 56.0
499.969208 96.0
500.824036 100.0
503.000031 96.0
503.308075 84.0
504.286438 68.0
505.257782 72.0
505.335968 2928.0
505.51181 204.0
505.552094 144.0
505.681885 36.0
506.205688 104.0
506.341522 36.0
506.649109 52.0
508.164459 56.0
508.936462 60.0
509.520355 88.0
510.701294 48.0
512.755676 88.0
519.887695 56.0
522.450378 80.0
536.390259 92.0
540.713562 88.0
542.144592 40.0
547.948242 36.0
556.141174 40.0
584.510742 104.0
589.579041 124.0
605.875 40.0
609.373047 48.0
641.37439 156.0
668.39325 80.0
693.351868 108.0
704.512207 72.0
726.429443 64.0
741.928467 104.0
768.537415 80.0
782.330078 52.0
789.077087 124.0
790.374756 64.0
815.368469 52.0
816.061951 160.0
848.351501 48.0
850.770569 108.0
856.329529 212.0
880.540894 64.0
882.201233 136.0
900.455139 124.0
916.996399 160.0
921.782104 240.0
926.719604 124.0
933.347717 140.0
934.02887 192.0
949.935547 272.0
952.347839 52.0
954.025391 140.0
968.539124 88.0
982.363831 196.0
986.866699 132.0
994.327393 144.0
1002.68573 124.0
1006.824341 132.0
1010.566467 180.0
1011.768982 80.0
1013.174927 168.0
1014.150757 176.0
1024.196289 124.0
1028.85144 184.0
1030.09668 216.0
1040.920532 56.0
1042.063843 160.0
1043.464966 196.0
1049.194824 108.0
1051.387939 176.0
1064.51001 168.0
1065.432373 156.0
1066.030762 168.0
1067.720337 152.0
1069.027954 176.0
1069.372803 60.0
1071.554321 60.0
1071.639038 212.0
1071.775879 136.0
1072.192871 140.0
1075.075439 212.0
1077.406372 44.0
1079.399902 72.0
1083.405518 164.0
1084.388306 40.0
1084.945557 220.0
1085.850464 152.0
1087.654785 120.0
1089.99939 40.0
1091.445435 188.0
1097.424072 160.0
1097.483398 224.0
1097.707642 148.0
1100.260986 168.0
1100.888306 64.0
1101.119385 56.0
1103.663574 168.0
1104.000854 180.0
1109.841309 80.0
1114.414429 224.0
1115.876709 120.0
1116.761108 156.0
1119.016968 120.0
1119.649536 140.0
1119.81604 156.0
1123.895874 180.0
1125.437744 224.0
1126.766846 184.0
1131.62915 204.0
1132.131348 216.0
1134.51062 196.0
1142.925415 184.0
1152.790649 228.0
1153.175781 104.0
1153.89917 216.0
1154.40625 176.0
1155.576416 144.0
1159.530151 148.0
1162.935791 196.0
1163.343018 196.0
1172.907227 228.0
1174.352783 184.0
1176.481689 200.0
1177.116699 228.0
1182.756958 204.0
1184.030396 152.0
1184.626343 144.0
1185.46228 180.0
1186.689209 180.0
1188.417603 100.0
1193.184082 208.0
1195.130493 164.0
1195.880615 240.0
1197.271362 64.0
1199.076294 116.0
1201.517334 76.0
1201.993408 216.0
1202.945801 176.0
1204.741333 172.0
1207.858887 72.0
1214.855347 164.0
1215.965576 168.0
1217.722046 172.0
1218.465332 60.0
1230.42334 144.0
1230.744507 96.0
1231.233276 160.0
1231.701294 204.0
1233.070679 148.0
1234.818604 116.0
1238.673096 216.0
1238.906372 144.0
1244.180054 160.0
1245.317627 52.0
1248.009155 92.0
1248.494385 64.0
1251.976074 184.0
1252.928833 192.0
1255.057251 148.0
1255.61438 168.0
1255.889404 144.0
1257.032349 152.0
1257.66748 136.0
1258.316895 176.0
1258.895996 156.0
1259.595215 200.0
1260.457031 156.0
1263.405396 176.0
1264.622437 176.0
1266.58374 60.0
1268.85144 104.0
1269.198853 112.0
1269.67395 136.0
1269.808716 140.0
1270.518066 140.0
1271.405029 192.0
1272.469727 148.0
1273.300537 184.0
1273.961182 184.0
1274.387451 216.0
1274.465576 180.0
1277.536865 104.0
1279.173584 172.0
1280.946655 172.0
1284.032959 172.0
1285.309937 192.0
1285.923584 204.0
1287.551392 136.0
1289.66626 216.0
1290.574097 200.0
1293.02063 216.0
1294.19458 244.0
1295.949463 140.0
1296.114258 148.0
1296.673218 216.0
1296.816528 176.0
1297.648071 128.0
1299.419556 208.0
1299.893066 152.0
1301.658936 108.0
1302.62854 208.0
1305.51062 172.0
1306.057251 196.0
1308.734375 152.0
1309.065552 212.0
1309.130371 168.0
1310.989014 212.0
1312.387451 60.0
1317.468262 204.0
1317.583862 164.0
1318.089722 36.0
1319.564209 204.0
1323.036865 156.0
1325.919678 132.0
1326.079102 204.0
1326.66626 204.0
1330.925049 160.0
1332.559204 80.0
1334.536133 164.0
1336.303589 212.0
1337.045776 220.0
1338.450806 160.0
1338.54541 60.0
1338.705566 156.0
1340.687134 124.0
1340.745361 44.0
1341.262817 224.0
1341.70752 212.0
1342.368774 240.0
1342.757568 172.0
1344.362549 244.0
1345.55957 132.0
1346.450439 220.0
1347.546143 192.0
1348.781128 176.0
1349.007812 232.0
1351.084595 112.0
1351.765137 212.0
1352.716553 132.0
1353.016724 80.0
1354.803589 100.0
1355.060059 176.0
1356.232544 136.0
1358.733154 144.0
1361.470947 148.0
1362.227539 44.0
1365.476318 100.0
1365.645508 180.0
1367.028564 140.0
1368.441772 176.0
1371.867554 96.0
1374.168579 228.0
1374.522705 160.0
1374.935913 176.0
1375.194214 48.0
1375.533813 164.0
1377.933838 168.0
1378.362427 164.0
1380.69104 196.0
1382.103882 96.0
1383.650757 196.0
1384.917114 104.0
1385.34668 196.0
1387.436523 188.0
1389.705933 156.0
1391.56897 220.0
1393.299316 204.0
1395.692627 28.0
1398.363281 112.0
1398.713013 136.0
1398.772583 80.0
1399.174561 208.0
1399.680908 236.0
1402.839844 152.0
1403.533203 172.0
1403.883667 164.0
1406.778564 176.0
1408.667847 188.0
1409.101196 248.0
1409.59436 108.0
1410.364136 168.0
1411.530396 224.0
1411.859375 152.0
1412.113037 224.0
1412.22583 100.0
1413.407837 136.0
1414.747559 156.0
1415.11438 112.0
1415.369019 156.0
1415.676025 208.0
1415.735962 164.0
1418.830444 92.0
1419.655273 208.0
1420.637817 160.0
1420.98291 208.0
1421.568115 204.0
1421.973389 236.0
1422.27356 168.0
1423.084351 168.0
1423.272095 152.0
1424.053101 100.0
1424.548828 136.0
1426.833374 104.0
1427.307129 164.0
1427.585327 156.0
1428.232056 180.0
1428.344971 136.0
1428.796265 204.0
1430.963745 144.0
1432.365356 176.0
1433.675537 148.0
1433.901611 216.0
1435.431885 144.0
1435.718506 196.0
1438.47998 132.0
1440.11853 208.0
1440.375244 128.0
1440.433228 156.0
1441.629517 200.0
1444.139404 176.0
1445.024536 228.0
1445.153198 220.0
1447.688965 160.0
1449.529663 112.0
1449.984375 124.0
1450.075317 152.0
1457.132324 188.0
1459.032349 184.0
1459.473267 176.0
1461.100952 156.0
1463.110107 220.0
1467.32312 124.0
1468.428833 124.0
1468.505005 124.0
1470.023193 144.0
1471.061157 160.0
1471.481079 184.0
1472.305786 168.0
1475.553223 172.0
1476.218506 156.0
1477.488159 112.0
1478.421631 188.0
1479.324829 168.0
1480.718384 28.0
1481.315796 116.0
1482.265747 200.0
1483.116455 100.0
1483.430786 84.0
1483.852417 60.0
1485.125366 56.0
1485.194336 144.0
1485.248047 172.0
1485.309448 128.0
1485.930786 216.0
1487.250732 136.0
1488.348511 164.0
1489.853882 80.0
1491.844238 176.0
1492.85144 248.0
1494.766846 148.0
1496.344727 44.0
1496.860596 64.0
