>compound MLS000859999-01!Dilazep dihydrochloride
>formula C31H44N2O10
>ionization [M+H]+
>parentmass 605.307495
#inchi InChI=1S/C31H44N2O10/c1-36-24-18-22(19-25(37-2)28(24)40-5)30(34)42-16-8-12-32-10-7-11-33(15-14-32)13-9-17-43-31(35)23-20-26(38-3)29(41-6)27(21-23)39-4/h18-21H,7-17H2,1-6H3
#inchikey QVZCXCJXTMIDME
#origInchi InChI=1S/C31H44N2O10.ClH/c1-36-24-18-22(19-25(37-2)28(24)40-5)30(34)42-16-8-12-32-10-7-11-33(15-14-32)13-9-17-43-31(35)23-20-26(38-3)29(41-6)27(21-23)39-4;/h18-21H,7-17H2,1-6H3;1H
#Ion_Source LC-ESI
#Instrument qTof
#Compound_Source NIH Pharmacologically Active Library
#PI Dorrestein
#Data_Collector VP/LMS
#Scan -1
#Precursor_MZ 605.312
#ExactMass 604.3
#Charge 1
#CAS_Number N/A
#Pubmed_ID N/A
#Smiles COc1cc(cc(OC)c1OC)C(=O)OCCCN2CCCN(CCCOC(=O)c3cc(OC)c(OC)c(OC)c3)CC2.Cl
#INCHI_AUX N/A
#Library_Class 1
#SpectrumID CCMSLIB00000084924
#IonMode Positive
#UpdateWorkflowName UPDATE-SINGLE-ANNOTATED-GOLD
#LibraryQualityString Gold
#TaskID d252d724072548979f1f6f1ced849daf
##Scan# 1531
#SpectrumFile p3-C08_GC8_01_18253.mzXML
#LibraryName Pharm_Active_Library.mgf
#MQScore -1
#Organism Pharm_Active_Library
#TIC_Query 0
#RT_Query -1
#MZErrorPPM -1
#SharedPeaks 0
#MassDiff 0
#LibMZ -1
#SpecMZ 605.312
#SpecCharge 0
#internalFilename spec-00000.mgf

>collision 10
44.891342 108.0
44.93803 140.0
44.955379 48.0
44.986076 192.0
45.023464 184.0
45.046173 168.0
45.072895 200.0
45.088932 164.0
45.11306 152.0
45.158455 176.0
45.171833 172.0
45.191902 436.0
45.244099 188.0
45.264183 168.0
45.297817 180.0
45.344566 148.0
45.357357 140.0
45.382103 132.0
45.411606 172.0
45.436424 132.0
45.45163 144.0
45.467957 140.0
45.525684 144.0
45.572701 160.0
45.584797 132.0
45.595547 56.0
45.652012 172.0
45.707169 164.0
45.72197 116.0
45.758316 160.0
45.793327 104.0
45.84367 356.0
45.863396 172.0
45.952404 188.0
46.023941 120.0
46.104469 144.0
46.134731 112.0
46.159069 264.0
46.172768 156.0
46.183929 284.0
46.207764 136.0
46.247009 148.0
46.267315 144.0
46.278145 180.0
46.312004 188.0
46.32555 132.0
46.340012 172.0
46.365551 144.0
46.393311 80.0
46.430882 192.0
46.458405 176.0
46.467903 84.0
46.556137 76.0
46.581944 184.0
46.596889 80.0
46.641735 224.0
46.683884 156.0
46.701565 232.0
46.751907 116.0
46.767635 208.0
46.781853 176.0
46.849678 144.0
46.873108 312.0
46.94997 168.0
46.968544 80.0
47.002651 160.0
47.020393 144.0
47.046329 60.0
47.094124 132.0
47.128735 156.0
47.164986 172.0
47.18705 100.0
47.220451 160.0
47.236286 80.0
47.265015 60.0
47.308815 140.0
47.329353 88.0
47.359482 132.0
47.371811 128.0
47.412918 172.0
47.432636 176.0
47.446075 148.0
47.495182 116.0
47.50811 104.0
47.695663 40.0
47.740921 48.0
47.829407 140.0
47.842861 136.0
47.894516 180.0
47.899441 92.0
47.902863 168.0
47.939278 268.0
47.955692 176.0
47.980629 160.0
47.99028 116.0
48.002693 156.0
48.012344 172.0
48.055111 160.0
48.09375 308.0
48.125504 104.0
48.194569 192.0
48.208385 88.0
48.234646 168.0
48.256767 460.0
48.274944 164.0
48.343914 152.0
48.364674 180.0
48.422829 176.0
48.443607 96.0
48.499035 136.0
48.561432 224.0
48.587788 172.0
48.705788 108.0
48.729404 148.0
48.769707 180.0
48.786388 188.0
48.823933 144.0
48.910198 120.0
48.919941 368.0
48.956142 168.0
48.982605 140.0
49.000874 180.0
49.014153 172.0
49.045311 160.0
49.073196 212.0
49.149513 168.0
49.194576 136.0
49.212723 140.0
49.233669 152.0
49.254528 180.0
49.297825 132.0
49.301662 96.0
49.367836 92.0
49.380421 160.0
49.440544 144.0
49.453178 176.0
49.493412 244.0
49.524906 212.0
49.573627 180.0
49.588093 136.0
49.626892 208.0
49.640915 160.0
49.680595 248.0
49.699833 144.0
49.746147 172.0
49.769356 144.0
49.79108 184.0
49.800911 188.0
49.839863 204.0
49.895065 196.0
49.930218 148.0
49.962574 136.0
49.996342 152.0
50.007603 128.0
50.017456 156.0
50.028717 116.0
50.090679 132.0
50.137177 136.0
50.194977 96.0
50.211128 136.0
50.240112 236.0
50.258453 148.0
50.270397 224.0
50.347763 136.0
50.367165 240.0
50.406723 104.0
50.470016 124.0
50.491547 76.0
50.519836 160.0
50.597675 112.0
50.645103 228.0
50.657158 172.0
50.667072 36.0
50.679825 112.0
50.70108 120.0
50.713837 180.0
50.726593 40.0
50.746445 248.0
50.790497 124.0
50.835808 336.0
50.850159 108.0
50.88549 84.0
50.899689 268.0
50.94585 160.0
50.966454 132.0
50.97924 152.0
50.990612 160.0
51.007668 240.0
51.080193 136.0
51.101532 200.0
51.114338 132.0
51.168427 192.0
51.179817 184.0
51.238213 160.0
51.29306 132.0
51.325157 128.0
51.341011 172.0
51.36224 208.0
51.385067 184.0
51.395054 188.0
51.416458 176.0
51.453575 228.0
51.479275 160.0
51.497639 196.0
51.500599 168.0
51.550705 208.0
51.577862 136.0
51.615032 140.0
51.633625 200.0
51.645065 184.0
51.655079 128.0
51.680832 128.0
51.713745 172.0
51.736649 160.0
51.778175 160.0
51.805717 140.0
51.819717 124.0
51.834049 76.0
51.84959 52.0
51.860813 136.0
51.88995 176.0
51.912891 176.0
51.9674 152.0
52.019657 80.0
52.042038 116.0
52.057835 192.0
52.075603 140.0
52.078262 180.0
52.178535 196.0
52.188599 92.0
52.220238 152.0
52.279224 108.0
52.378574 132.0
52.405945 128.0
52.430443 116.0
52.441975 224.0
52.458378 232.0
52.495319 136.0
52.511181 72.0
52.545803 184.0
52.566006 188.0
52.597755 124.0
52.613636 176.0
52.636738 152.0
52.699612 152.0
52.710197 196.0
52.840546 168.0
52.863697 176.0
52.882511 168.0
52.9216 160.0
52.96719 100.0
53.073742 76.0
53.104195 136.0
53.159328 160.0
53.19416 152.0
53.206791 160.0
53.210079 112.0
53.214897 156.0
53.255917 144.0
53.269676 124.0
53.281296 220.0
53.365597 116.0
53.375774 240.0
53.415043 88.0
53.48489 120.0
53.516048 220.0
53.58392 120.0
53.624722 212.0
53.639297 76.0
53.678665 120.0
53.760357 100.0
53.795387 100.0
53.805607 96.0
53.827511 148.0
53.853798 208.0
53.884476 168.0
53.938549 108.0
53.950245 164.0
54.011791 184.0
54.039459 132.0
54.078285 196.0
54.114105 136.0
54.128746 164.0
54.144855 236.0
54.165363 184.0
54.245796 108.0
54.289948 224.0
54.305092 184.0
54.319283 108.0
54.361588 120.0
54.380913 364.0
54.419079 140.0
54.434765 188.0
54.449917 136.0
54.480766 124.0
54.533665 52.0
54.597061 204.0
54.633659 156.0
54.664558 152.0
54.721966 164.0
54.781467 80.0
54.799812 136.0
54.810345 52.0
54.845715 60.0
54.870777 160.0
54.919441 108.0
54.947468 228.0
54.961487 128.0
54.982883 112.0
55.006981 172.0
55.028645 168.0
55.104362 152.0
55.133987 192.0
55.149784 144.0
55.170479 240.0
55.188221 132.0
55.20153 132.0
55.21632 272.0
55.285854 108.0
55.330261 36.0
55.358395 52.0
55.383572 204.0
55.399563 156.0
55.412132 172.0
55.424095 132.0
55.45813 188.0
55.471001 168.0
55.481377 136.0
55.491756 196.0
55.503616 144.0
55.522896 216.0
55.560707 236.0
55.595592 100.0
55.623791 164.0
55.653484 132.0
55.694912 188.0
55.709923 212.0
55.738152 204.0
55.788689 148.0
55.811237 216.0
55.84132 192.0
55.886848 164.0
55.922565 140.0
55.937183 92.0
55.958294 156.0
55.992542 104.0
56.017864 164.0
56.029411 144.0
56.072998 172.0
56.096848 76.0
56.113247 192.0
56.144562 176.0
56.202496 172.0
56.263935 48.0
56.340099 148.0
56.362514 184.0
56.375961 116.0
56.387917 176.0
56.401371 132.0
56.419308 128.0
56.442154 172.0
56.476135 296.0
56.503063 156.0
56.54496 156.0
56.577892 248.0
56.597572 196.0
56.637794 108.0
56.682739 60.0
56.705219 156.0
56.778687 140.0
56.789185 216.0
56.804184 144.0
56.8582 136.0
56.873211 156.0
56.889496 160.0
56.921253 112.0
56.946819 172.0
56.969673 168.0
57.017399 140.0
57.053558 148.0
57.223484 132.0
57.298195 176.0
57.345509 148.0
57.359074 200.0
57.387718 192.0
57.516438 124.0
57.64584 164.0
57.663975 164.0
57.692696 100.0
57.713863 124.0
57.736546 120.0
57.813881 204.0
57.842461 316.0
57.873852 196.0
57.890911 212.0
57.931808 52.0
57.967068 192.0
57.980297 132.0
58.00243 192.0
58.051548 120.0
58.066402 156.0
58.086433 148.0
58.13195 232.0
58.153198 172.0
58.16534 200.0
58.210102 208.0
58.247341 68.0
58.476463 152.0
58.508911 108.0
58.534794 156.0
58.62315 52.0
58.662777 84.0
58.682598 196.0
58.706997 220.0
58.74818 96.0
58.764492 208.0
58.817787 184.0
58.829826 128.0
58.845856 132.0
58.887089 188.0
58.917637 152.0
58.932919 148.0
58.957367 180.0
59.030746 168.0
59.070515 132.0
59.104172 64.0
59.126373 124.0
59.156212 116.0
59.166927 208.0
59.189892 132.0
59.212864 312.0
59.245033 92.0
59.304203 124.0
59.33852 124.0
59.352322 172.0
59.364811 388.0
59.386059 60.0
59.421776 156.0
59.47966 184.0
59.534935 152.0
59.576408 140.0
59.605598 188.0
59.667431 204.0
59.708599 204.0
59.728596 280.0
59.756287 188.0
59.773212 76.0
59.807072 196.0
59.860958 124.0
59.871738 172.0
59.893257 140.0
59.919491 144.0
60.063198 312.0
60.091347 180.0
60.114372 144.0
60.140247 104.0
60.16008 104.0
60.180149 44.0
60.246563 140.0
60.302189 156.0
60.337746 120.0
60.481613 76.0
60.492451 180.0
60.504833 196.0
60.565231 144.0
60.613258 136.0
60.642704 208.0
60.690762 124.0
60.836601 104.0
60.849022 156.0
60.864552 196.0
60.890949 208.0
60.90493 180.0
60.922016 124.0
60.941158 204.0
60.969967 136.0
60.992722 232.0
61.005699 184.0
61.058285 192.0
61.08836 112.0
61.158985 176.0
61.217545 116.0
61.235611 60.0
61.265083 108.0
61.325047 136.0
61.340069 188.0
61.359341 196.0
61.392086 196.0
61.42952 176.0
61.50116 220.0
61.507011 200.0
61.511852 200.0
61.550617 212.0
61.568436 48.0
61.665302 192.0
61.680935 184.0
61.821701 100.0
61.870224 228.0
62.050396 176.0
62.074539 188.0
62.136658 128.0
62.213558 164.0
62.241821 180.0
62.265377 132.0
62.301506 88.0
62.342358 132.0
62.356503 136.0
62.392658 204.0
62.414669 76.0
62.436684 208.0
62.516991 140.0
62.554695 140.0
62.611126 124.0
62.663315 136.0
62.679119 148.0
62.729553 204.0
62.767391 212.0
62.783161 232.0
62.844685 108.0
62.884136 136.0
62.936234 128.0
62.978085 208.0
63.000988 168.0
63.015209 176.0
63.026268 172.0
63.048393 116.0
63.061035 120.0
63.114784 160.0
63.127438 156.0
63.147995 124.0
63.192291 212.0
63.234261 268.0
63.271427 148.0
63.285675 140.0
63.356949 180.0
63.406017 144.0
63.437908 184.0
63.482166 96.0
63.529751 144.0
63.553547 152.0
63.566242 180.0
63.602745 180.0
63.614109 92.0
63.666256 160.0
63.73711 188.0
63.774296 132.0
63.809269 208.0
63.931038 188.0
64.003387 96.0
64.057007 136.0
64.073463 224.0
64.108879 248.0
64.129242 80.0
64.143585 184.0
64.164314 168.0
64.233665 108.0
64.266388 76.0
64.32962 188.0
64.352577 180.0
64.393066 148.0
64.397575 316.0
64.432434 152.0
64.470787 68.0
64.481972 228.0
64.519814 172.0
64.533127 92.0
64.57151 184.0
64.6483 212.0
64.659508 120.0
64.710732 172.0
64.723541 40.0
64.755569 188.0
64.769981 180.0
64.844635 156.0
64.880554 184.0
64.893166 176.0
64.957535 220.0
64.968765 160.0
64.98111 144.0
64.998444 164.0
65.058632 268.0
65.079506 68.0
65.110016 132.0
65.127686 72.0
65.174278 128.0
65.212334 164.0
65.235352 192.0
65.261299 140.0
65.301811 128.0
65.325401 184.0
65.337929 92.0
65.353516 164.0
65.388161 128.0
65.420242 176.0
65.439674 148.0
65.454163 108.0
65.478691 208.0
65.547592 172.0
65.562096 196.0
65.579826 216.0
65.631416 164.0
65.655602 208.0
65.686249 316.0
65.705605 152.0
65.773384 160.0
65.79512 216.0
65.818047 172.0
65.8321 176.0
65.857658 188.0
65.951065 352.0
65.978546 180.0
66.00927 160.0
66.111183 176.0
66.174316 192.0
66.216415 128.0
66.290337 200.0
66.323357 188.0
66.344429 248.0
66.365509 208.0
66.384567 180.0
66.487534 216.0
66.501175 236.0
66.592705 124.0
66.620316 68.0
66.644691 196.0
66.707596 176.0
66.72596 168.0
66.769859 112.0
66.812157 44.0
66.83168 176.0
66.892822 224.0
66.914131 208.0
66.929344 148.0
66.979828 108.0
67.048264 192.0
67.093903 196.0
67.113464 116.0
67.126511 180.0
67.165657 68.0
67.191757 164.0
67.226021 148.0
67.262367 164.0
67.28315 108.0
67.296211 44.0
67.353371 148.0
67.376244 176.0
67.436707 176.0
67.457954 148.0
67.487381 48.0
67.616615 140.0
67.629715 224.0
67.658455 188.0
67.682098 148.0
67.706665 140.0
67.726318 136.0
67.778748 184.0
67.790215 32.0
67.834465 140.0
67.952545 144.0
67.987007 180.0
68.009987 164.0
68.060257 292.0
68.077301 212.0
68.095367 160.0
68.116722 152.0
68.141876 128.0
68.182442 132.0
68.195595 172.0
68.2071 96.0
68.22847 176.0
68.263 72.0
68.286018 188.0
68.304115 180.0
68.323853 204.0
68.383095 124.0
68.458832 112.0
68.528015 164.0
68.564262 132.0
68.577454 188.0
68.707726 64.0
68.731117 200.0
68.758881 180.0
68.794441 148.0
68.834816 156.0
68.883171 288.0
68.90419 180.0
68.922363 224.0
69.008636 228.0
69.058853 128.0
69.079231 200.0
69.086014 176.0
69.119141 300.0
69.140656 160.0
69.173759 156.0
69.190308 124.0
69.231705 88.0
69.246613 140.0
69.266487 176.0
69.284714 280.0
69.341049 76.0
69.369232 160.0
69.400734 124.0
69.435555 188.0
69.462097 228.0
69.491959 212.0
69.636383 72.0
69.676247 100.0
69.696625 212.0
69.721115 148.0
69.733513 164.0
69.746048 132.0
69.812553 28.0
69.920685 212.0
69.938995 140.0
70.0439 204.0
70.069962 168.0
70.082222 180.0
70.106918 196.0
70.127213 232.0
70.185562 172.0
70.287315 176.0
70.317352 144.0
70.40918 68.0
70.469315 148.0
70.496056 48.0
70.512764 164.0
70.57428 216.0
70.615158 116.0
70.658676 160.0
70.686691 192.0
70.758667 156.0
70.786903 176.0
70.8022 200.0
70.849106 148.0
70.885963 144.0
70.917809 108.0
70.941277 232.0
70.971451 228.0
70.994934 60.0
71.060349 96.0
71.133308 200.0
71.179527 188.0
71.199677 124.0
71.213112 160.0
71.234947 148.0
71.349274 152.0
71.41481 140.0
71.464867 208.0
71.480423 168.0
71.502846 160.0
71.615105 232.0
71.663963 112.0
71.712311 156.0
71.716019 108.0
71.722572 144.0
71.78701 96.0
71.820747 68.0
71.839302 172.0
71.855972 168.0
71.890564 168.0
72.028366 176.0
72.10778 128.0
72.125763 132.0
72.153419 200.0
72.16864 116.0
72.198853 212.0
72.222755 124.0
72.283051 188.0
72.329361 96.0
72.407242 192.0
72.461052 188.0
72.465263 144.0
72.470528 224.0
72.522461 96.0
72.566536 160.0
72.620804 140.0
72.642097 176.0
72.671692 196.0
72.729393 124.0
72.791992 156.0
72.805794 168.0
72.831276 164.0
72.843163 200.0
72.901306 144.0
72.929825 168.0
72.945122 220.0
72.970627 136.0
72.997833 156.0
73.016045 124.0
73.055656 212.0
73.093094 80.0
73.142448 120.0
73.162872 208.0
73.1782 132.0
73.200333 176.0
73.264427 76.0
73.353676 128.0
73.469635 176.0
73.493523 144.0
73.568619 196.0
73.621552 172.0
73.701836 156.0
73.719696 292.0
73.782013 132.0
73.802689 108.0
73.843201 180.0
73.867676 132.0
73.879654 204.0
73.89505 172.0
73.910446 164.0
73.92585 180.0
73.969406 240.0
73.999451 136.0
74.026093 260.0
74.071381 172.0
74.119354 128.0
74.16391 132.0
74.179337 48.0
74.205856 172.0
74.225632 120.0
74.27758 180.0
74.312134 176.0
74.35601 112.0
74.373177 180.0
74.390343 304.0
74.505669 180.0
74.527084 304.0
74.539192 132.0
74.542015 104.0
74.55867 156.0
74.596481 148.0
74.613678 132.0
74.632591 168.0
74.761604 84.0
74.787422 132.0
74.873505 104.0
74.887283 192.0
74.952751 84.0
75.019966 184.0
75.100708 216.0
75.128616 136.0
75.145866 168.0
75.158722 156.0
75.17395 320.0
75.242523 176.0
75.267685 192.0
75.356514 192.0
75.409653 176.0
75.424332 320.0
75.491341 172.0
75.555336 64.0
75.577011 212.0
75.587059 168.0
75.696762 220.0
75.771751 48.0
75.81485 180.0
75.837601 116.0
75.856667 44.0
75.948868 168.0
75.969284 196.0
75.984337 188.0
76.00235 128.0
76.040527 192.0
76.064827 156.0
76.097816 72.0
76.125595 192.0
76.142967 112.0
76.222878 120.0
76.255898 164.0
76.268066 68.0
76.381805 136.0
76.395935 120.0
76.429802 128.0
76.456818 176.0
76.50116 156.0
76.51683 216.0
76.62307 144.0
76.654434 140.0
76.670868 232.0
76.688156 216.0
76.711952 112.0
76.729523 148.0
76.748566 196.0
76.78344 168.0
76.795647 52.0
76.821815 304.0
76.898834 144.0
76.933502 140.0
76.947472 88.0
76.991798 208.0
77.023003 144.0
77.052261 184.0
77.085457 160.0
77.118523 100.0
77.14695 220.0
77.19384 32.0
77.214828 184.0
77.235817 160.0
77.275017 176.0
77.305801 140.0
77.326805 56.0
77.342552 208.0
77.394363 296.0
77.416092 328.0
77.438858 156.0
77.468636 192.0
77.48703 128.0
77.512436 160.0
77.524704 196.0
77.543983 100.0
77.572029 136.0
77.653801 164.0
77.709732 160.0
77.766731 200.0
77.785728 136.0
77.817642 180.0
77.85276 112.0
77.880585 200.0
77.940598 136.0
77.98629 128.0
78.012657 184.0
78.03199 200.0
78.05661 152.0
78.128723 128.0
78.149834 108.0
78.165672 148.0
78.22551 140.0
78.266006 184.0
78.302986 236.0
78.327644 208.0
78.353859 132.0
78.398125 156.0
78.470398 220.0
78.539978 156.0
78.570923 316.0
78.586365 160.0
78.636215 132.0
78.680344 144.0
78.726257 104.0
78.798676 92.0
78.858757 112.0
78.895882 136.0
78.966614 152.0
78.980766 252.0
79.023224 168.0
79.13385 164.0
79.148895 120.0
79.171913 172.0
79.186081 148.0
79.254486 176.0
79.374977 300.0
79.427139 144.0
79.448425 172.0
79.496338 208.0
79.604622 104.0
79.703087 176.0
79.750305 192.0
79.812912 168.0
79.851654 204.0
79.912354 132.0
79.985252 96.0
80.020706 208.0
80.070656 160.0
80.115097 220.0
80.140038 212.0
80.287994 132.0
80.302803 92.0
80.334373 180.0
80.427773 140.0
80.484871 172.0
80.500366 104.0
80.518219 92.0
80.562874 60.0
80.609329 160.0
80.630775 144.0
80.646866 148.0
80.748833 124.0
80.768234 164.0
80.781296 176.0
80.824715 312.0
80.845016 168.0
80.88118 212.0
80.92057 92.0
80.985039 176.0
81.044151 272.0
81.058487 164.0
81.114052 148.0
81.141945 184.0
81.202599 156.0
81.225227 120.0
81.241371 160.0
81.284431 188.0
81.409286 216.0
81.437035 120.0
81.451401 224.0
81.494522 124.0
81.546631 132.0
81.581078 196.0
81.59697 164.0
81.640121 80.0
81.659904 220.0
81.719269 112.0
81.76606 144.0
81.784058 296.0
81.81826 160.0
81.838066 120.0
81.85247 132.0
81.938972 160.0
81.958748 196.0
82.030838 96.0
82.047058 144.0
82.070503 112.0
82.083122 140.0
82.111351 116.0
82.13903 160.0
82.166092 112.0
82.184135 148.0
82.212311 196.0
82.232857 176.0
82.352028 156.0
82.37912 176.0
82.431519 72.0
82.46283 220.0
82.484566 148.0
82.53817 32.0
82.559868 216.0
82.61956 196.0
82.673843 116.0
82.690132 132.0
82.717598 92.0
82.735382 140.0
82.748055 204.0
82.778839 120.0
82.802383 192.0
82.83136 172.0
82.904228 148.0
83.034683 160.0
83.048882 164.0
83.072464 56.0
83.152298 120.0
83.17408 108.0
83.188911 188.0
83.21402 128.0
83.24852 144.0
83.297562 120.0
83.337524 92.0
83.387726 148.0
83.402954 400.0
83.427765 184.0
83.477493 192.0
83.492043 140.0
83.51387 172.0
83.541153 80.0
83.582207 340.0
83.63578 76.0
83.650337 172.0
83.697678 200.0
83.721352 148.0
83.746849 80.0
83.763245 108.0
83.785103 164.0
83.808784 68.0
83.824448 216.0
83.849617 128.0
83.923058 156.0
83.936386 236.0
84.037727 168.0
84.067726 160.0
84.084152 120.0
84.106056 188.0
84.128181 148.0
84.197342 132.0
84.263107 196.0
84.297821 224.0
84.330719 96.0
84.400185 120.0
84.435844 160.0
84.475174 80.0
84.504448 88.0
84.546532 176.0
84.608765 160.0
84.65023 224.0
84.725975 144.0
84.747963 164.0
84.771782 44.0
84.815987 136.0
84.8396 184.0
84.883606 192.0
84.92762 148.0
84.96431 360.0
84.986328 116.0
85.034607 208.0
85.084427 128.0
85.185211 196.0
85.215843 152.0
85.298538 108.0
85.384956 124.0
85.40519 64.0
85.436462 152.0
85.458542 176.0
85.493088 160.0
85.521111 168.0
85.536568 200.0
85.612007 156.0
85.6381 200.0
85.762947 108.0
85.808487 160.0
85.834305 116.0
85.884094 180.0
86.018799 308.0
86.074188 92.0
86.090805 212.0
86.112328 184.0
86.179474 212.0
86.380989 184.0
86.401337 124.0
86.49572 120.0
86.523483 168.0
86.553108 204.0
86.623489 144.0
86.645721 224.0
86.705017 112.0
86.779167 84.0
86.80883 292.0
86.838509 200.0
86.881172 132.0
86.920135 164.0
86.981575 152.0
87.020752 184.0
87.064934 180.0
87.135124 132.0
87.181976 160.0
87.211708 132.0
87.230301 148.0
87.267479 112.0
87.282669 192.0
87.421562 192.0
87.474327 152.0
87.565224 216.0
87.578262 176.0
87.606201 176.0
87.652992 180.0
87.693787 60.0
87.751572 172.0
87.825233 168.0
87.842957 132.0
87.936249 124.0
87.984787 176.0
88.021225 204.0
88.072556 148.0
88.109917 124.0
88.128792 152.0
88.16597 184.0
88.254517 120.0
88.294968 256.0
88.356796 156.0
88.384766 108.0
88.408699 208.0
88.468987 188.0
88.528908 40.0
88.59259 136.0
88.7519 160.0
88.780022 72.0
88.802528 144.0
88.844833 152.0
88.885078 52.0
88.924484 148.0
89.011765 212.0
89.052162 152.0
89.127304 116.0
89.140457 156.0
89.170525 152.0
89.196846 116.0
89.311546 92.0
89.334122 152.0
89.352928 136.0
89.43573 144.0
89.544937 144.0
89.58783 176.0
89.613098 196.0
89.646667 144.0
89.786179 156.0
89.801262 144.0
89.850311 208.0
89.923904 212.0
89.942238 208.0
89.989975 172.0
90.046631 168.0
90.080627 308.0
90.128922 184.0
90.203461 140.0
90.313133 224.0
90.504272 164.0
90.558929 88.0
90.743004 140.0
90.771446 64.0
90.876778 188.0
90.930809 172.0
90.968391 160.0
90.999146 140.0
91.031105 216.0
91.041153 232.0
91.060623 128.0
91.1017 44.0
91.1492 44.0
91.235542 188.0
91.286064 264.0
91.324104 68.0
91.388786 160.0
91.428749 256.0
91.451584 124.0
91.466812 220.0
91.484863 232.0
91.499176 336.0
91.537979 180.0
91.562012 156.0
91.668694 184.0
91.758286 168.0
91.779259 144.0
91.865082 148.0
91.914688 140.0
92.006302 128.0
92.030098 152.0
92.065498 128.0
92.094147 144.0
92.117065 152.0
92.161011 216.0
92.193497 104.0
92.268044 100.0
92.317757 108.0
92.449753 240.0
92.484207 188.0
92.581848 148.0
92.597168 128.0
92.620155 236.0
92.63356 140.0
92.696793 120.0
92.765961 180.0
92.781128 168.0
92.80545 128.0
92.8181 184.0
92.857552 220.0
92.903084 244.0
92.927292 132.0
92.967178 196.0
93.036285 180.0
93.057259 108.0
93.090042 136.0
93.159187 148.0
93.181221 192.0
93.220673 136.0
93.268959 160.0
93.307167 156.0
93.370621 220.0
93.389854 224.0
93.446083 248.0
93.580376 160.0
93.5989 244.0
93.649704 100.0
93.676666 120.0
93.809639 48.0
93.848198 220.0
93.879051 136.0
93.925339 144.0
94.038383 604.0
94.064919 536.0
94.093231 176.0
94.247742 152.0
94.303787 128.0
94.359848 112.0
94.475082 196.0
94.495232 84.0
94.512047 64.0
94.590065 132.0
94.65976 148.0
94.680634 196.0
94.688759 152.0
94.697044 192.0
94.73336 144.0
94.749458 156.0
94.782112 148.0
94.808929 152.0
94.85157 204.0
94.911667 76.0
94.933258 152.0
94.960152 108.0
94.998947 140.0
95.050323 756.0
95.072639 160.0
95.091225 144.0
95.117317 168.0
95.130905 140.0
95.200806 180.0
95.251305 108.0
95.28627 168.0
95.316086 128.0
95.402878 132.0
95.416489 64.0
95.446877 172.0
95.491188 116.0
95.533173 124.0
95.547836 144.0
95.579872 148.0
95.652634 184.0
95.689346 196.0
95.71418 172.0
95.73024 484.0
95.805336 180.0
95.811028 144.0
95.860275 184.0
95.879768 100.0
95.905106 296.0
95.926544 208.0
95.96199 200.0
96.000633 184.0
96.080383 2800.0
96.189896 240.0
96.202957 208.0
96.242607 152.0
96.269943 196.0
96.33049 124.0
96.34417 308.0
96.364189 224.0
96.389572 168.0
96.468201 196.0
96.514206 108.0
96.527893 68.0
96.543541 156.0
96.568962 116.0
96.600258 152.0
96.61982 92.0
96.658958 188.0
96.684395 148.0
96.746567 168.0
96.799896 188.0
96.827316 188.0
96.842979 72.0
96.868446 172.0
96.960541 140.0
96.988457 148.0
97.012489 164.0
97.030922 168.0
97.055206 192.0
97.077759 548.0
97.109383 196.0
97.176239 184.0
97.223999 212.0
97.262589 156.0
97.295959 120.0
97.335228 204.0
97.386292 168.0
97.504181 160.0
97.525795 164.0
97.554756 164.0
97.596573 208.0
97.626068 176.0
97.655563 140.0
97.671303 152.0
97.687042 148.0
97.76181 116.0
97.814949 124.0
97.835175 88.0
97.856293 188.0
97.877953 176.0
97.905518 132.0
97.964607 192.0
98.017807 180.0
98.037514 144.0
98.063133 104.0
98.076927 288.0
98.096748 4428.0
98.129852 128.0
98.165649 116.0
98.195961 224.0
98.248489 136.0
98.362946 156.0
98.459694 168.0
98.527229 168.0
98.558472 200.0
98.571701 184.0
98.596016 168.0
98.625664 200.0
98.65136 100.0
98.690903 120.0
98.73774 216.0
98.743279 148.0
98.786324 220.0
98.805618 88.0
98.860649 172.0
98.928314 136.0
99.042252 208.0
99.09507 216.0
99.129921 228.0
99.160744 152.0
99.183853 176.0
99.222404 128.0
99.237381 132.0
99.262383 144.0
99.290924 208.0
99.320671 176.0
99.346458 72.0
99.433769 168.0
99.457588 116.0
99.535011 60.0
99.599037 472.0
99.656174 120.0
99.723747 152.0
99.821159 144.0
99.848228 144.0
99.887703 188.0
99.978317 32.0
100.023277 204.0
100.095314 176.0
100.099106 136.0
100.111938 168.0
100.173927 148.0
100.199341 124.0
100.215279 128.0
100.247162 172.0
100.269081 96.0
100.302971 160.0
100.340843 252.0
100.368935 176.0
100.402664 120.0
100.492424 56.0
100.532188 164.0
100.558281 112.0
100.612175 108.0
100.628151 212.0
100.646118 44.0
100.672073 124.0
100.819908 160.0
100.839897 232.0
100.983849 172.0
101.1129 164.0
101.145927 152.0
101.187965 148.0
101.227562 160.0
101.253647 240.0
101.288094 116.0
101.330162 160.0
101.378258 144.0
101.420341 152.0
101.512566 96.0
101.582764 136.0
101.634933 188.0
101.68309 216.0
101.71521 216.0
101.76339 236.0
101.811584 200.0
101.938141 160.0
101.962257 116.0
102.006477 148.0
102.06237 160.0
102.069496 128.0
102.073578 204.0
102.117653 220.0
102.180626 208.0
102.265961 68.0
102.298164 180.0
102.37468 152.0
102.43309 140.0
102.465317 136.0
102.483452 200.0
102.553047 232.0
102.615608 216.0
102.634628 120.0
102.664871 56.0
102.699158 116.0
102.723366 144.0
102.743378 152.0
102.78714 500.0
102.816177 132.0
102.846458 208.0
102.997894 212.0
103.03022 124.0
103.066582 212.0
103.15551 188.0
103.218185 68.0
103.246979 184.0
103.275871 92.0
103.295044 180.0
103.333481 132.0
103.428596 176.0
103.513626 160.0
103.619911 220.0
103.649345 176.0
103.726357 120.0
103.744606 184.0
103.770462 176.0
103.853249 208.0
103.914963 156.0
103.988014 144.0
104.010345 96.0
104.029869 84.0
104.063126 176.0
104.162636 388.0
104.193108 100.0
104.241875 172.0
104.331306 224.0
104.358459 212.0
104.382912 200.0
104.440193 120.0
104.483269 124.0
104.4972 200.0
104.525444 196.0
104.544876 92.0
104.610008 172.0
104.62426 124.0
104.662186 128.0
104.754593 168.0
104.801453 124.0
104.853668 148.0
104.88266 156.0
104.904465 184.0
104.941498 124.0
104.972679 56.0
104.993073 192.0
105.013466 144.0
105.039986 176.0
105.05703 204.0
105.084869 152.0
105.119057 212.0
105.17466 148.0
105.21489 192.0
105.270615 124.0
105.29512 164.0
105.323715 36.0
105.419746 128.0
105.474922 112.0
105.513763 112.0
105.553413 156.0
105.571022 140.0
105.62011 144.0
105.650787 240.0
105.722404 188.0
105.744919 88.0
105.77562 200.0
105.796089 164.0
105.822708 164.0
105.848915 180.0
105.906906 104.0
105.912437 172.0
105.920135 404.0
105.933823 208.0
105.955643 168.0
106.002617 120.0
106.019356 176.0
106.053345 212.0
106.056648 264.0
106.1157 188.0
106.132103 200.0
106.203926 164.0
106.25721 160.0
106.300911 180.0
106.44194 136.0
106.483017 176.0
106.517693 172.0
106.539734 164.0
106.586922 180.0
106.603325 200.0
106.61142 112.0
106.617012 144.0
106.657661 208.0
106.799538 176.0
106.818054 172.0
106.836685 212.0
106.89212 228.0
106.912697 308.0
106.927109 192.0
106.962097 160.0
106.990913 144.0
107.013329 140.0
107.050156 704.0
107.07328 280.0
107.0877 72.0
107.139198 168.0
107.277275 160.0
107.312317 148.0
107.328812 120.0
107.353561 188.0
107.390686 128.0
107.417496 40.0
107.489708 60.0
107.727142 56.0
107.760094 152.0
107.774055 176.0
107.787094 248.0
107.873863 104.0
107.947571 148.0
107.952911 192.0
107.993797 172.0
108.018753 124.0
108.057121 320.0
108.081123 1028.0
108.111725 296.0
108.126213 160.0
108.198662 128.0
108.26078 48.0
108.300133 76.0
108.360207 172.0
108.395432 264.0
108.528091 136.0
108.547272 156.0
108.632782 292.0
108.662514 200.0
108.704407 44.0
108.738304 80.0
108.787056 200.0
108.845566 112.0
108.868408 52.0
108.882942 132.0
108.930717 56.0
108.953568 92.0
108.974342 168.0
109.027405 848.0
109.064331 1720.0
109.130226 52.0
109.146866 168.0
109.163498 180.0
109.178055 176.0
109.247498 160.0
109.302872 172.0
109.354897 124.0
109.37719 220.0
109.392365 168.0
109.425674 212.0
109.444412 120.0
109.486633 44.0
109.500641 84.0
109.627724 192.0
109.65065 160.0
109.694023 168.0
109.763222 144.0
109.805389 156.0
109.834129 184.0
109.863922 128.0
109.911324 152.0
109.953064 164.0
109.998978 156.0
110.03447 212.0
110.066765 436.0
110.096573 3584.0
110.161865 200.0
110.184593 268.0
110.212006 184.0
110.234993 168.0
110.295601 104.0
110.329712 176.0
110.345772 156.0
110.366684 136.0
110.400139 172.0
110.430351 108.0
110.469086 212.0
110.508911 156.0
110.53611 144.0
110.559135 104.0
110.753845 168.0
110.795746 144.0
110.875366 208.0
110.906807 152.0
110.938248 140.0
110.995926 268.0
111.022118 148.0
111.040154 336.0
111.059868 192.0
111.092247 3568.0
111.126999 196.0
111.143791 48.0
111.194153 124.0
111.221436 72.0
111.240334 156.0
111.282318 64.0
111.324089 188.0
111.36422 188.0
111.38102 56.0
111.441948 104.0
111.502884 68.0
111.53231 68.0
111.692116 196.0
111.744713 244.0
111.821091 108.0
111.832268 220.0
111.866776 180.0
111.924904 72.0
111.944679 108.0
111.991013 92.0
112.0205 164.0
112.050636 144.0
112.096931 920.0
112.144821 144.0
112.227036 144.0
112.241798 72.0
112.332069 200.0
112.427437 60.0
112.446426 132.0
112.482315 128.0
112.499199 64.0
112.558319 92.0
112.573097 208.0
112.663925 84.0
112.678711 148.0
112.693504 128.0
112.775917 140.0
112.803398 172.0
112.885857 68.0
112.920174 124.0
112.940842 132.0
112.997963 36.0
113.024223 324.0
113.058411 432.0
113.079887 196.0
113.104813 408.0
113.12706 168.0
113.199043 136.0
113.221489 120.0
113.281883 180.0
113.366394 96.0
113.393951 204.0
113.466019 164.0
113.482979 176.0
113.502068 44.0
113.529633 156.0
113.572052 92.0
113.678131 224.0
113.722702 80.0
113.771523 136.0
113.854332 224.0
113.878036 172.0
113.913803 240.0
113.94355 124.0
113.988167 116.0
114.047676 132.0
114.092316 132.0
114.113228 220.0
114.164612 108.0
114.185875 168.0
114.211395 116.0
114.258202 104.0
114.294373 164.0
114.328415 112.0
114.375244 168.0
114.413559 156.0
114.430588 60.0
114.45401 204.0
114.534523 144.0
114.553047 148.0
114.632889 144.0
114.675568 164.0
114.718201 52.0
114.748047 144.0
114.762787 140.0
114.78643 32.0
114.839745 108.0
114.945412 188.0
114.994904 188.0
115.097969 332.0
115.153496 184.0
115.200485 144.0
115.22612 108.0
115.24749 52.0
115.316269 152.0
115.33297 372.0
115.36203 148.0
115.390694 176.0
115.452698 112.0
115.521149 128.0
115.563934 68.0
115.6688 180.0
115.816551 232.0
115.835823 112.0
115.870102 48.0
115.895226 160.0
115.972961 196.0
116.002975 156.0
116.05014 240.0
116.09259 236.0
116.099869 188.0
116.17453 176.0
116.189545 188.0
116.204567 120.0
116.249626 172.0
116.298477 184.0
116.368439 220.0
116.399895 212.0
116.451431 212.0
116.500839 84.0
116.546814 120.0
116.564957 204.0
116.630646 196.0
116.659866 220.0
116.685661 208.0
116.73082 136.0
116.745872 60.0
116.774307 168.0
116.836212 116.0
116.859879 148.0
116.887627 312.0
116.943802 56.0
116.978241 92.0
117.042831 212.0
117.070824 152.0
117.085899 252.0
117.202225 52.0
117.271187 144.0
117.286278 40.0
117.323135 164.0
117.411537 204.0
117.488983 168.0
117.553711 148.0
117.675117 180.0
117.722092 156.0
117.776085 152.0
117.820953 172.0
117.899239 100.0
117.916527 424.0
117.942871 128.0
118.009483 184.0
118.130592 140.0
118.208481 168.0
118.264748 148.0
118.290726 140.0
118.345711 272.0
118.398773 120.0
118.448799 140.0
118.494293 188.0
118.550636 68.0
118.565804 192.0
118.605682 100.0
118.656845 132.0
118.695877 160.0
118.89122 192.0
118.898849 184.0
118.969254 136.0
119.020432 364.0
119.051758 208.0
119.082169 236.0
119.142433 188.0
119.305977 160.0
119.342941 144.0
119.379906 236.0
119.448532 192.0
119.469086 144.0
119.527832 232.0
119.558296 176.0
119.588768 152.0
119.612709 144.0
119.629616 172.0
119.633293 132.0
119.808701 220.0
119.835999 216.0
119.893677 128.0
120.050819 196.0
120.081123 176.0
120.14225 184.0
120.22953 120.0
120.244804 128.0
120.270996 140.0
120.29126 156.0
120.323387 148.0
120.393265 128.0
120.410736 212.0
120.491554 72.0
120.509033 88.0
120.554924 176.0
120.572403 192.0
120.615089 136.0
120.665634 148.0
120.710129 164.0
120.758247 188.0
120.913582 160.0
120.935471 176.0
120.963928 196.0
121.002563 148.0
121.026939 960.0
121.08654 292.0
121.121071 188.0
121.128586 144.0
121.140205 216.0
121.174355 92.0
121.211411 108.0
121.231133 248.0
121.293961 180.0
121.353889 48.0
121.378075 128.0
121.393356 204.0
121.454765 168.0
121.4767 88.0
121.498642 80.0
121.549103 116.0
121.654457 156.0
121.801422 164.0
121.810158 124.0
121.815971 276.0
121.836731 164.0
121.896049 124.0
121.929016 200.0
122.036858 1892.0
122.065819 136.0
122.095863 1800.0
122.124695 124.0
122.189392 212.0
122.230293 148.0
122.254501 244.0
122.306023 156.0
122.344742 180.0
122.380806 180.0
122.479073 124.0
122.496696 64.0
122.529739 172.0
122.551773 52.0
122.579315 216.0
122.588501 108.0
122.596725 180.0
122.622292 136.0
122.65535 112.0
122.739128 120.0
122.792053 152.0
122.829552 144.0
122.924423 164.0
122.972977 64.0
123.013565 196.0
123.040993 344.0
123.094795 380.0
123.120895 168.0
123.215157 172.0
123.237976 112.0
123.27243 148.0
123.300293 120.0
123.315315 248.0
123.335213 136.0
123.366158 252.0
123.562988 196.0
123.586754 140.0
123.61692 128.0
123.751114 72.0
123.797615 156.0
123.815331 196.0
123.861847 156.0
123.881783 176.0
123.915009 196.0
123.999672 176.0
124.010056 184.0
124.051804 2792.0
124.111229 736.0
124.149971 116.0
124.165497 172.0
124.214294 140.0
124.238693 152.0
124.272446 208.0
124.314133 172.0
124.342987 184.0
124.429115 200.0
124.562805 128.0
124.593903 196.0
124.609459 128.0
124.651207 172.0
124.673897 92.0
124.787262 232.0
124.809494 176.0
124.858421 212.0
124.876213 88.0
124.895866 148.0
124.98967 124.0
125.023438 184.0
125.056206 548.0
125.085373 232.0
125.10791 1468.0
125.167923 196.0
125.193756 176.0
125.218964 164.0
125.267967 96.0
125.299866 176.0
125.359322 64.0
125.407173 144.0
125.489388 68.0
125.537926 168.0
125.635796 208.0
125.660339 64.0
125.701004 168.0
125.722816 140.0
125.75853 148.0
125.790771 184.0
125.827728 148.0
125.921516 96.0
125.963959 140.0
126.058937 176.0
126.093552 64.0
126.111237 420.0
126.214264 140.0
126.280785 280.0
126.304802 108.0
126.476021 200.0
126.505119 132.0
126.524277 176.0
126.550537 200.0
126.579002 144.0
126.630508 180.0
126.69323 204.0
126.791824 216.0
126.908386 116.0
126.934128 48.0
126.964447 156.0
127.036095 180.0
127.114456 240.0
127.130638 224.0
127.158104 216.0
127.193306 288.0
127.221771 180.0
127.292091 124.0
127.339249 124.0
127.415627 80.0
127.444832 156.0
127.476295 140.0
127.510933 184.0
127.53437 152.0
127.552711 180.0
127.606667 128.0
127.64489 136.0
127.687614 116.0
127.712784 120.0
127.777596 216.0
127.817398 156.0
127.854256 172.0
127.892815 160.0
127.939636 72.0
128.01619 184.0
128.046356 1036.0
128.072495 320.0
128.091644 168.0
128.101562 84.0
128.109833 160.0
128.119598 176.0
128.153595 196.0
128.185135 152.0
128.214981 188.0
128.239227 200.0
128.298813 212.0
128.308273 172.0
128.36998 224.0
128.410583 60.0
128.439896 52.0
128.462463 140.0
128.478256 96.0
128.588821 264.0
128.638199 128.0
128.663315 120.0
128.753632 88.0
128.970535 116.0
128.988617 144.0
129.015747 152.0
129.045135 192.0
129.124283 128.0
129.158142 136.0
129.186066 200.0
129.203445 136.0
129.26001 172.0
129.318909 184.0
129.395813 36.0
129.420731 180.0
129.468277 124.0
129.540756 248.0
129.635925 92.0
129.681244 136.0
129.719772 184.0
129.849167 128.0
129.887589 132.0
129.937485 128.0
129.958023 156.0
130.010101 44.0
130.046417 160.0
130.096359 164.0
130.175827 164.0
130.231491 280.0
130.292023 124.0
130.328018 120.0
130.357559 236.0
130.393921 124.0
130.523499 96.0
130.548508 192.0
130.5849 104.0
130.614471 104.0
130.637207 64.0
130.696365 44.0
130.744156 140.0
130.767166 184.0
130.805206 160.0
130.905792 144.0
131.003723 204.0
131.028717 128.0
131.119934 80.0
131.199707 116.0
131.265839 200.0
131.284073 104.0
131.302322 72.0
131.338806 76.0
131.382156 212.0
131.404968 92.0
131.434631 76.0
131.459732 380.0
131.48027 144.0
131.576141 136.0
131.637787 44.0
131.672806 204.0
131.69043 168.0
131.725616 132.0
131.754272 168.0
131.826874 160.0
131.875381 172.0
132.042297 136.0
132.142944 156.0
132.158966 144.0
132.20665 152.0
132.254044 212.0
132.316071 440.0
132.348938 168.0
132.383286 168.0
132.4039 208.0
132.454285 160.0
132.470322 32.0
132.559677 132.0
132.635315 156.0
132.676575 208.0
132.696472 188.0
132.722427 176.0
132.73848 152.0
132.765991 160.0
132.816452 36.0
132.84169 120.0
132.921982 148.0
133.004608 172.0
133.027573 156.0
133.081085 244.0
133.110214 204.0
133.152786 180.0
133.194992 132.0
133.260315 220.0
133.33075 212.0
133.444855 208.0
133.466385 108.0
133.48938 176.0
133.576096 176.0
133.638901 184.0
133.668671 140.0
133.83223 56.0
133.91983 208.0
133.983917 332.0
134.03978 344.0
134.074112 140.0
134.131729 140.0
134.159393 176.0
134.181824 252.0
134.272385 156.0
134.341583 196.0
134.369263 164.0
134.412048 148.0
134.461563 160.0
134.613846 208.0
134.678864 176.0
134.77623 168.0
134.857986 168.0
135.013718 168.0
135.042664 328.0
135.072617 92.0
135.122437 144.0
135.163605 232.0
135.20575 188.0
135.234818 200.0
135.252029 152.0
135.298325 128.0
135.314545 152.0
135.351578 168.0
135.367798 164.0
135.388641 104.0
135.42569 148.0
135.485916 204.0
135.532257 80.0
135.567017 196.0
135.673645 172.0
135.694504 132.0
135.826691 152.0
135.875839 216.0
135.940369 168.0
135.969467 196.0
136.013199 64.0
136.021149 200.0
136.074997 384.0
136.108459 324.0
136.131973 232.0
136.214432 192.0
136.295654 152.0
136.318893 160.0
136.372345 108.0
136.407211 140.0
136.532761 116.0
136.565323 64.0
136.610687 184.0
136.730301 156.0
136.753311 212.0
136.792542 80.0
136.825867 104.0
136.840378 200.0
136.858551 164.0
136.884171 76.0
136.903976 132.0
136.981979 76.0
137.024094 1612.0
137.059677 240.0
137.082169 164.0
137.112488 576.0
137.137924 212.0
137.199051 152.0
137.273315 180.0
137.336288 184.0
137.361954 176.0
137.408615 164.0
137.470001 232.0
137.506622 136.0
137.616333 176.0
137.644043 184.0
137.821869 208.0
137.840561 108.0
137.863937 92.0
137.901276 188.0
137.931717 96.0
137.956329 128.0
138.024277 148.0
138.043945 196.0
138.066269 136.0
138.113007 536.0
138.160889 200.0
138.200668 184.0
138.24469 192.0
138.303635 148.0
138.37854 172.0
138.427719 136.0
138.444107 124.0
138.475449 156.0
138.492111 212.0
138.549515 132.0
138.659637 68.0
138.690109 108.0
138.715897 172.0
138.775177 112.0
138.797012 160.0
138.852493 140.0
138.875351 160.0
138.959793 132.0
138.983261 152.0
139.036148 448.0
139.074844 6976.0
139.122818 656.0
139.201141 128.0
139.227386 216.0
139.279068 56.0
139.307251 180.0
139.410629 112.0
139.428329 108.0
139.452942 68.0
139.482117 48.0
139.511703 148.0
139.536774 48.0
139.566544 196.0
139.625839 52.0
139.662201 48.0
139.782181 140.0
139.859848 148.0
139.891861 392.0
139.934738 108.0
140.011139 204.0
140.044876 152.0
140.079239 1024.0
140.105942 520.0
140.13063 1476.0
140.17543 208.0
140.19429 32.0
140.229645 196.0
140.253204 172.0
140.323929 152.0
140.355377 180.0
140.389954 100.0
140.41713 220.0
140.486664 88.0
140.573959 164.0
140.60228 164.0
140.64151 220.0
140.670731 128.0
140.69783 176.0
140.722672 52.0
140.751816 164.0
140.771545 188.0
140.821854 44.0
140.85965 108.0
140.911682 160.0
140.922211 148.0
140.926651 232.0
140.963593 140.0
141.016388 1292.0
141.051941 616.0
141.08783 192.0
141.135468 348.0
141.179901 104.0
141.197647 120.0
141.252045 64.0
141.282791 88.0
141.299347 120.0
141.408203 220.0
141.43187 172.0
141.507629 132.0
141.5242 216.0
141.618927 72.0
141.647354 224.0
141.666306 164.0
141.697098 172.0
141.716049 36.0
141.8172 152.0
141.851151 236.0
141.884338 128.0
141.900925 180.0
141.953094 172.0
141.980392 272.0
142.047958 152.0
142.07373 204.0
142.127518 128.0
142.171341 56.0
142.214066 64.0
142.230682 68.0
142.247299 128.0
142.280533 112.0
142.29715 172.0
142.315506 148.0
142.349716 116.0
142.491119 184.0
142.49823 120.0
142.563187 132.0
142.589523 328.0
142.682037 68.0
142.819962 224.0
142.910355 92.0
143.073578 492.0
143.115051 280.0
143.131622 148.0
143.167435 132.0
143.196014 224.0
143.215073 140.0
143.238892 192.0
143.25795 180.0
143.300827 120.0
143.319901 76.0
143.450974 44.0
143.494324 264.0
143.617889 172.0
143.697433 164.0
143.880386 100.0
143.904266 196.0
143.960526 128.0
143.992615 216.0
144.030823 116.0
144.052322 40.0
144.075775 124.0
144.13356 132.0
144.181351 100.0
144.22438 168.0
144.24588 548.0
144.296097 180.0
144.573563 48.0
144.64537 144.0
144.750702 160.0
144.844116 156.0
144.959106 100.0
145.02861 136.0
145.064575 396.0
145.134094 164.0
145.194046 224.0
145.277725 232.0
145.28273 140.0
145.310577 124.0
145.354782 168.0
145.426773 108.0
145.46962 160.0
145.479507 136.0
145.602539 212.0
145.640472 160.0
145.717346 148.0
145.738632 200.0
145.782211 244.0
145.8423 140.0
145.888855 152.0
145.97934 184.0
146.049911 152.0
146.073135 76.0
146.24559 168.0
146.359726 100.0
146.439011 224.0
146.487183 164.0
146.564285 136.0
146.615723 220.0
146.643799 36.0
146.761932 68.0
146.817398 92.0
146.899399 264.0
146.977448 204.0
147.036926 124.0
147.080383 196.0
147.114166 164.0
147.152802 188.0
147.169708 200.0
147.259048 84.0
147.275955 184.0
147.348434 188.0
147.416092 132.0
147.440247 192.0
147.466843 132.0
147.577789 188.0
147.694122 200.0
147.844131 156.0
147.904633 204.0
147.933685 156.0
147.953049 208.0
147.970001 160.0
147.985107 116.0
148.034958 208.0
148.100098 160.0
148.178284 180.0
148.222595 152.0
148.286514 116.0
148.384293 160.0
148.408539 132.0
148.444916 132.0
148.469162 164.0
148.52626 148.0
148.624405 72.0
148.653534 156.0
148.672943 188.0
148.755463 52.0
148.772461 80.0
148.796875 68.0
148.847733 156.0
148.878082 224.0
148.925446 148.0
148.991028 68.0
149.02504 460.0
149.056442 392.0
149.099884 160.0
149.12468 184.0
149.226776 148.0
149.268112 288.0
149.293625 292.0
149.357101 172.0
149.407089 112.0
149.490952 152.0
149.523544 68.0
149.545456 88.0
149.617661 204.0
149.645264 132.0
149.669601 204.0
149.718307 248.0
149.791382 132.0
149.820618 180.0
149.898575 112.0
149.959503 180.0
149.97934 144.0
150.011261 172.0
150.03508 200.0
150.053848 188.0
150.086273 40.0
150.130173 176.0
150.152115 176.0
150.175201 176.0
150.278961 144.0
150.34729 168.0
150.420517 80.0
150.442474 164.0
150.462006 168.0
150.515671 164.0
150.540695 176.0
150.650055 76.0
150.733124 200.0
150.77507 212.0
150.845551 180.0
150.884674 140.0
150.956314 132.0
150.977585 248.0
151.004211 144.0
151.036789 1588.0
151.123825 604.0
151.185532 132.0
151.249161 132.0
151.303024 36.0
151.442596 88.0
151.472 168.0
151.667313 164.0
151.684769 48.0
151.724411 132.0
151.756271 204.0
151.805313 40.0
151.831665 188.0
151.856827 156.0
151.878891 140.0
151.963974 188.0
152.006119 140.0
152.0466 15048.0
152.128159 152.0
152.159424 88.0
152.214798 244.0
152.23111 160.0
152.287094 128.0
152.337921 200.0
152.421463 352.0
152.468155 184.0
152.525665 136.0
152.577789 212.0
152.61319 128.0
152.645996 140.0
152.665771 180.0
152.686508 132.0
152.742279 340.0
152.768127 88.0
152.80011 152.0
152.824707 176.0
152.841934 148.0
152.896072 88.0
152.918228 148.0
152.936691 192.0
152.968567 140.0
153.001923 208.0
153.049377 1208.0
153.106781 528.0
153.138641 35040.0
153.202942 64.0
153.235886 44.0
153.269226 212.0
153.301239 152.0
153.340714 168.0
153.368958 36.0
153.408508 160.0
153.445694 64.0
153.467575 104.0
153.519547 160.0
153.566208 128.0
153.593338 100.0
153.620117 164.0
153.659958 164.0
153.679688 72.0
153.702942 104.0
153.747116 148.0
153.778397 156.0
153.801239 144.0
153.819748 144.0
153.849991 104.0
153.88739 308.0
153.920959 188.0
154.006134 68.0
154.022842 200.0
154.060715 356.0
154.106842 192.0
154.141464 3768.0
154.211411 88.0
154.250183 28.0
154.277374 56.0
154.393585 248.0
154.428207 76.0
154.529633 80.0
154.56369 136.0
154.611282 52.0
154.706467 212.0
154.728577 148.0
154.755112 316.0
154.791336 176.0
154.811127 116.0
154.832535 192.0
154.910889 128.0
154.946335 124.0
154.983521 200.0
155.009995 148.0
155.033936 320.0
155.049255 148.0
155.05304 100.0
155.09111 340.0
155.119049 304.0
155.141556 100.0
155.172836 132.0
155.228134 132.0
155.243912 56.0
155.277618 92.0
155.281265 160.0
155.35463 136.0
155.386108 116.0
155.444427 188.0
155.480057 148.0
155.550674 160.0
155.592392 84.0
155.63884 348.0
155.674805 208.0
155.756775 76.0
155.818878 128.0
155.868576 40.0
155.888443 88.0
155.908325 332.0
155.935913 160.0
156.041214 2496.0
156.127991 404.0
156.187607 160.0
156.224106 184.0
156.283813 192.0
156.313675 140.0
156.4207 132.0
156.464371 132.0
156.488251 188.0
156.51651 280.0
156.562622 188.0
156.614914 200.0
156.631073 132.0
156.667236 144.0
156.73201 140.0
156.784668 180.0
156.81424 176.0
156.866913 212.0
156.889023 216.0
156.936401 124.0
156.956345 68.0
157.045288 316.0
157.073563 168.0
157.096008 128.0
157.127182 356.0
157.180847 180.0
157.328094 152.0
157.375534 232.0
157.457947 136.0
157.565353 116.0
157.663971 188.0
157.700287 160.0
157.722794 152.0
157.742676 192.0
157.747726 184.0
157.775284 80.0
157.977844 132.0
158.062912 220.0
158.122971 128.0
158.153015 48.0
158.173035 108.0
158.213089 124.0
158.235626 152.0
158.282745 200.0
158.349838 196.0
158.378357 132.0
158.41153 164.0
158.513657 124.0
158.605988 304.0
158.690781 60.0
158.71167 200.0
158.761826 156.0
158.781891 100.0
158.817001 172.0
158.952484 36.0
159.006439 160.0
159.030273 56.0
159.061401 160.0
159.080475 108.0
159.103073 148.0
159.178391 204.0
159.228241 80.0
159.276688 176.0
159.419556 176.0
159.540207 168.0
159.615631 152.0
159.752609 164.0
159.779114 108.0
159.814346 64.0
159.836639 176.0
159.846451 152.0
159.907455 124.0
159.952759 220.0
159.977936 112.0
160.025375 132.0
160.083679 120.0
160.111374 160.0
160.176865 152.0
160.224731 164.0
160.330566 164.0
160.428864 280.0
160.471725 56.0
160.515182 168.0
160.580154 268.0
160.681061 180.0
160.789566 144.0
160.810608 148.0
160.908203 148.0
160.930923 56.0
160.994049 100.0
161.029404 108.0
161.075806 196.0
161.095078 96.0
161.117813 176.0
161.173401 180.0
161.347794 232.0
161.365494 180.0
161.383194 160.0
161.428711 184.0
161.453995 164.0
161.494461 192.0
161.53241 112.0
161.615891 136.0
161.643723 132.0
161.661438 120.0
161.79306 148.0
161.859833 204.0
161.891815 180.0
161.927261 148.0
161.94635 204.0
162.031097 264.0
162.056458 48.0
162.075211 144.0
162.129944 192.0
162.165421 108.0
162.231339 92.0
162.274429 84.0
162.302322 100.0
162.330215 156.0
162.396149 124.0
162.515381 96.0
162.677811 88.0
162.959717 180.0
162.982574 288.0
163.07518 284.0
163.104568 68.0
163.130417 168.0
163.160492 124.0
163.216431 144.0
163.343597 180.0
163.361404 240.0
163.379211 272.0
163.43576 176.0
163.473343 160.0
163.507614 216.0
163.56752 128.0
163.600616 52.0
163.714966 180.0
163.78804 172.0
163.797516 160.0
163.871628 136.0
164.052872 204.0
164.088562 212.0
164.17627 212.0
164.179657 188.0
164.227463 176.0
164.255524 144.0
164.309097 44.0
164.362671 156.0
164.390747 184.0
164.494247 188.0
164.610275 60.0
164.643478 168.0
164.726028 300.0
164.919403 160.0
164.967972 176.0
165.000961 124.0
165.039566 188.0
165.06514 156.0
165.1035 148.0
165.164871 156.0
165.205811 48.0
165.26976 116.0
165.305588 252.0
165.363663 156.0
165.3806 156.0
165.400284 148.0
165.451477 92.0
165.479645 108.0
165.568298 220.0
165.686813 228.0
165.722961 164.0
165.749344 164.0
165.807526 104.0
165.828033 172.0
165.852371 208.0
165.88443 100.0
165.911911 144.0
165.953644 180.0
166.062408 416.0
166.102386 124.0
166.135742 152.0
166.176788 196.0
166.253769 192.0
166.323059 96.0
166.420624 128.0
166.451431 112.0
166.484818 232.0
166.536179 152.0
166.613251 168.0
166.687759 112.0
166.754578 116.0
166.790558 212.0
166.821411 160.0
166.844543 212.0
166.893387 124.0
166.916367 120.0
166.925171 112.0
166.932739 160.0
166.973114 224.0
166.998825 116.0
167.070633 9148.0
167.119736 132.0
167.153595 1280.0
167.189804 212.0
167.218704 332.0
167.258713 52.0
167.343658 108.0
167.364258 80.0
167.495605 96.0
167.544556 164.0
167.580765 204.0
167.608963 80.0
167.639877 76.0
167.703461 132.0
167.714508 88.0
167.720062 112.0
167.763596 52.0
167.811661 204.0
167.834961 148.0
167.851257 200.0
167.915741 236.0
168.017441 224.0
168.075699 1180.0
168.155182 792.0
168.202133 148.0
168.307983 136.0
168.344131 156.0
168.43454 188.0
168.481033 116.0
168.522369 184.0
168.579224 216.0
168.610229 60.0
168.696854 148.0
168.753326 128.0
168.778259 140.0
168.871353 96.0
168.899811 204.0
168.922775 168.0
168.943787 128.0
169.015045 192.0
169.049057 292.0
169.07988 452.0
169.130783 380.0
169.152176 136.0
169.187225 228.0
169.236191 192.0
169.263031 196.0
169.33783 156.0
169.38385 88.0
169.417526 124.0
169.44603 128.0
169.515991 164.0
169.575592 156.0
169.648178 144.0
169.795975 132.0
169.867584 236.0
169.897141 100.0
169.930862 172.0
169.974426 196.0
170.05867 436.0
170.089035 164.0
170.112534 168.0
170.134827 332.0
170.229507 148.0
170.281311 44.0
170.307281 156.0
170.334885 172.0
170.377609 104.0
170.481354 164.0
170.533325 144.0
170.572311 80.0
170.642502 224.0
170.666946 132.0
170.749115 128.0
170.894791 180.0
170.936432 68.0
170.98848 128.0
171.023529 188.0
171.066071 472.0
171.149872 192.0
171.181122 160.0
171.199356 184.0
171.24884 232.0
171.290512 192.0
171.333374 44.0
171.394714 148.0
171.434357 148.0
171.45726 156.0
171.514603 140.0
171.574554 136.0
171.618881 60.0
171.671036 92.0
171.70755 140.0
171.767532 140.0
171.845795 192.0
171.869278 212.0
171.91626 148.0
171.971054 116.0
171.994553 36.0
172.038925 208.0
172.069183 244.0
172.096146 140.0
172.284409 60.0
172.319901 164.0
172.380402 152.0
172.412445 112.0
172.456879 156.0
172.503098 216.0
172.545746 148.0
172.595428 124.0
172.710495 52.0
172.785873 152.0
172.820374 116.0
172.840485 204.0
172.904114 156.0
172.994476 184.0
173.074265 148.0
173.122574 188.0
173.298538 160.0
173.317871 128.0
173.336212 64.0
173.37027 284.0
173.417664 196.0
173.462006 132.0
173.485611 216.0
173.63768 164.0
173.71637 28.0
173.774094 144.0
173.813446 204.0
173.863312 124.0
173.888397 200.0
173.994553 224.0
174.068069 52.0
174.104828 104.0
174.14949 236.0
174.167877 136.0
174.270325 132.0
174.352188 184.0
174.430634 152.0
174.480591 80.0
174.501617 144.0
174.53154 200.0
174.567352 180.0
174.609436 164.0
174.656769 128.0
174.677811 52.0
174.736359 212.0
174.780426 112.0
174.864639 208.0
174.938339 160.0
174.994965 172.0
175.004562 204.0
175.065674 176.0
175.130554 140.0
175.153336 148.0
175.175827 144.0
175.199051 172.0
175.230667 132.0
175.285995 32.0
175.371399 188.0
175.407227 136.0
175.502136 140.0
175.546967 140.0
175.578613 168.0
175.731613 68.0
175.776459 184.0
176.006119 128.0
176.045731 44.0
176.071655 200.0
176.076752 112.0
176.087723 120.0
176.111755 208.0
176.150665 504.0
176.267624 220.0
176.289398 312.0
176.317825 88.0
176.344254 80.0
176.389191 160.0
176.558411 140.0
176.611313 208.0
176.642838 100.0
176.67215 116.0
176.751129 136.0
176.77005 132.0
176.817688 156.0
176.870621 108.0
176.890625 200.0
176.997696 136.0
177.043716 220.0
177.097488 104.0
177.175156 124.0
177.228134 184.0
177.262009 164.0
177.347397 148.0
177.397751 192.0
177.444077 204.0
177.575409 164.0
177.676208 168.0
177.745193 148.0
177.869476 160.0
177.93364 168.0
178.034546 188.0
178.061676 188.0
178.111572 204.0
178.130173 204.0
178.223145 156.0
178.270981 112.0
178.375595 148.0
178.422546 192.0
178.579376 176.0
178.605972 176.0
178.669815 208.0
178.688446 180.0
178.728348 200.0
178.774826 120.0
178.796677 172.0
178.852325 164.0
178.87207 128.0
178.896027 100.0
178.994537 44.0
179.038559 260.0
179.065125 268.0
179.095734 208.0
179.11438 136.0
179.154373 1804.0
179.218277 172.0
179.298233 136.0
179.330215 176.0
179.392014 108.0
179.436844 180.0
179.512833 304.0
179.583511 208.0
179.62352 168.0
179.658188 184.0
179.750443 160.0
179.852997 100.0
179.874344 168.0
179.901047 180.0
180.038757 604.0
180.076477 120.0
180.109329 176.0
180.160004 204.0
180.214523 192.0
180.301697 88.0
180.327927 192.0
180.432678 156.0
180.456741 204.0
180.475037 172.0
180.536957 188.0
180.647705 188.0
180.721527 128.0
180.788361 172.0
180.849976 128.0
180.943573 204.0
180.999908 108.0
181.047287 132.0
181.085022 300.0
181.117737 208.0
181.170334 2956.0
181.213821 184.0
181.270447 144.0
181.313324 120.0
181.372513 144.0
181.396423 132.0
181.461639 184.0
181.533157 148.0
181.606201 204.0
181.672623 148.0
181.695358 196.0
181.766525 44.0
181.792419 192.0
181.814835 176.0
181.863144 136.0
181.900726 96.0
181.927567 160.0
181.984238 152.0
182.013489 92.0
182.048767 400.0
182.083313 112.0
182.134338 120.0
182.172394 648.0
182.231049 136.0
182.28479 196.0
182.311661 180.0
182.343918 164.0
182.428635 196.0
182.457062 128.0
182.503555 176.0
182.529404 64.0
182.60202 208.0
182.631607 104.0
182.651489 264.0
182.802139 124.0
182.808945 48.0
182.826126 92.0
182.858276 96.0
182.887222 184.0
182.908752 136.0
183.019135 160.0
183.067596 92.0
183.091568 160.0
183.136642 156.0
183.180725 268.0
183.203217 272.0
183.24501 148.0
183.293106 140.0
183.313416 192.0
183.378387 72.0
183.514908 244.0
183.551895 212.0
183.644348 176.0
183.754288 180.0
183.787323 164.0
183.827805 124.0
183.903366 216.0
183.989746 152.0
184.036911 600.0
184.129456 244.0
184.15126 200.0
184.203079 164.0
184.240906 116.0
184.27063 120.0
184.297638 144.0
184.32196 152.0
184.486832 76.0
184.532791 116.0
184.600388 100.0
184.763123 120.0
184.824905 76.0
184.906082 148.0
184.933151 140.0
185.032974 348.0
185.078964 284.0
185.106415 156.0
185.159729 164.0
185.190369 204.0
185.315628 220.0
185.335831 168.0
185.417953 140.0
185.515167 148.0
185.545364 132.0
185.621277 144.0
185.656525 120.0
185.691788 132.0
185.727051 36.0
185.811142 144.0
185.870834 156.0
185.902161 152.0
186.001099 140.0
186.033676 160.0
186.052689 116.0
186.093811 192.0
186.259064 152.0
186.292206 220.0
186.332413 72.0
186.356873 144.0
186.378601 168.0
186.4832 172.0
186.560699 100.0
186.650421 196.0
186.693924 128.0
186.767502 160.0
186.797104 124.0
186.938766 120.0
186.963257 164.0
186.993195 128.0
187.023132 128.0
187.102707 240.0
187.202393 176.0
187.303589 228.0
187.344452 68.0
187.377151 52.0
187.460434 176.0
187.481171 180.0
187.614243 188.0
187.712402 88.0
187.736954 156.0
187.884232 172.0
187.917725 172.0
188.017944 168.0
188.051163 208.0
188.172729 172.0
188.26091 236.0
188.285492 120.0
188.318268 140.0
188.368317 168.0
188.430267 152.0
188.471252 240.0
188.569626 140.0
188.602432 108.0
188.750061 112.0
188.851242 68.0
188.881638 200.0
188.970032 192.0
188.990768 172.0
189.064651 104.0
189.111176 144.0
189.209717 84.0
189.302811 156.0
189.362595 232.0
189.408386 172.0
189.45813 96.0
189.527435 104.0
189.583847 156.0
189.870087 156.0
189.905746 176.0
189.977066 152.0
190.042908 260.0
190.062119 144.0
190.089951 164.0
190.127548 152.0
190.155426 148.0
190.221298 116.0
190.278946 156.0
190.31189 212.0
190.405258 132.0
190.424484 52.0
190.455673 176.0
190.481308 204.0
190.545349 68.0
190.708603 176.0
190.736893 188.0
190.773453 364.0
190.894424 124.0
190.924683 160.0
191.069977 200.0
191.139099 148.0
191.17778 132.0
191.235565 196.0
191.371765 152.0
191.488876 192.0
191.532944 136.0
191.585281 184.0
191.630508 144.0
191.668594 216.0
191.799179 300.0
191.849838 52.0
191.951859 100.0
191.990463 108.0
192.0401 156.0
192.077759 492.0
192.153214 80.0
192.184479 248.0
192.205627 164.0
192.238739 116.0
192.315216 192.0
192.405655 144.0
192.431961 168.0
192.461777 200.0
192.499527 144.0
192.530319 116.0
192.560471 172.0
192.592133 40.0
192.669479 64.0
192.73027 144.0
192.755127 104.0
192.824219 108.0
192.862915 136.0
192.883652 176.0
192.964066 132.0
193.046722 224.0
193.085083 116.0
193.120056 280.0
193.177185 116.0
193.202744 188.0
193.236237 104.0
193.283279 84.0
193.312256 204.0
193.365097 148.0
193.507477 244.0
193.569778 200.0
193.58989 152.0
193.610641 180.0
193.631821 84.0
193.672882 176.0
193.73735 196.0
193.762283 124.0
193.789978 72.0
193.817688 44.0
193.864182 196.0
193.88974 164.0
193.920227 300.0
193.941696 444.0
193.96376 228.0
194.014481 40.0
194.093689 1624.0
194.137512 160.0
194.167557 96.0
194.186401 148.0
194.213486 212.0
194.243896 288.0
194.290085 108.0
194.323578 212.0
194.344376 196.0
194.383224 204.0
194.427673 228.0
194.451416 176.0
194.476028 176.0
194.507904 396.0
194.542068 180.0
194.570511 132.0
194.599594 340.0
194.633698 328.0
194.661057 212.0
194.69545 180.0
194.714752 224.0
194.735275 272.0
194.812958 528.0
194.845657 320.0
194.868637 188.0
194.908081 196.0
194.92775 696.0
194.947693 636.0
195.019821 628.0
195.028519 1264.0
195.066238 364332.0
195.170471 256.0
195.207047 208.0
195.246536 120.0
195.282166 376.0
195.325058 364.0
195.365509 348.0
195.391068 208.0
195.415955 204.0
195.438599 184.0
195.465591 96.0
195.491302 408.0
195.523956 4996.0
195.560272 212.0
195.591171 240.0
195.630707 108.0
195.673309 144.0
195.709549 156.0
195.745117 284.0
195.764771 212.0
195.810349 160.0
195.852386 216.0
195.906082 292.0
195.911636 120.0
195.968292 136.0
195.99324 416.0
196.016922 308.0
196.025238 124.0
196.068588 58948.0
196.115402 416.0
196.150238 80.0
196.182526 92.0
196.198166 100.0
196.239578 188.0
196.26088 140.0
196.284683 248.0
196.309113 88.0
196.345901 168.0
196.373199 80.0
196.402542 52.0
196.436279 252.0
196.491196 108.0
196.522812 92.0
196.541748 60.0
196.590347 168.0
196.617401 36.0
196.639053 104.0
196.687424 76.0
196.728729 120.0
196.752151 72.0
196.7883 68.0
196.814301 108.0
196.837357 92.0
196.867783 120.0
196.89447 188.0
196.925064 296.0
196.946762 172.0
196.955048 124.0
197.015137 180.0
197.070267 5992.0
197.126633 44.0
197.163635 732.0
197.1884 96.0
197.226334 72.0
197.245544 164.0
197.252213 68.0
197.262299 212.0
197.287262 200.0
197.314209 240.0
197.340103 56.0
197.364807 96.0
197.399368 372.0
197.441818 216.0
197.487625 256.0
197.511124 108.0
197.515686 276.0
197.557022 316.0
197.577576 220.0
197.598572 452.0
197.627609 164.0
197.636948 128.0
197.65538 140.0
197.704605 164.0
197.729263 344.0
197.75145 96.0
197.807556 116.0
197.839508 76.0
197.883835 120.0
197.9207 24.0
197.951492 136.0
197.9935 116.0
198.075226 484.0
198.125153 96.0
198.171967 332.0
198.215866 116.0
198.239471 120.0
198.26506 100.0
198.294373 132.0
198.319244 244.0
198.34993 112.0
198.371689 220.0
198.390274 152.0
198.441849 64.0
198.484482 204.0
198.506851 132.0
198.544052 116.0
198.575623 136.0
198.650528 80.0
198.748428 92.0
198.778442 72.0
198.79808 56.0
198.820541 44.0
198.840179 88.0
198.880035 208.0
198.899124 84.0
198.935608 76.0
198.994568 56.0
199.023346 32.0
199.047913 64.0
199.120941 172.0
199.180923 560.0
199.210815 172.0
199.230484 212.0
199.272629 72.0
199.331635 36.0
199.410324 148.0
199.446854 176.0
199.50589 52.0
199.604294 44.0
199.643661 136.0
199.663345 56.0
199.702362 144.0
199.730148 208.0
199.761215 116.0
199.771637 48.0
199.78157 140.0
199.905289 140.0
199.944687 60.0
200.000977 152.0
200.026306 148.0
200.060089 120.0
200.088242 80.0
200.107956 64.0
200.181168 300.0
200.279739 76.0
200.310715 40.0
200.347336 80.0
200.39241 192.0
200.43187 76.0
200.48259 60.0
200.586868 140.0
200.685547 84.0
200.775772 44.0
200.818085 164.0
200.874496 72.0
200.9422 128.0
201.080475 68.0
201.204681 104.0
201.230087 160.0
201.256607 92.0
201.319153 96.0
201.385406 160.0
201.487091 44.0
201.64534 188.0
201.696213 100.0
201.812119 52.0
201.8517 216.0
202.07634 144.0
202.128922 80.0
202.182693 128.0
202.239288 76.0
202.31572 216.0
202.392166 156.0
202.500793 100.0
202.547928 88.0
202.723587 44.0
202.859634 124.0
202.913498 124.0
202.969116 64.0
202.989273 116.0
203.131866 64.0
203.276566 60.0
203.299271 108.0
203.412796 108.0
203.557587 180.0
203.620071 84.0
203.702438 68.0
203.795105 136.0
203.926865 212.0
204.036087 128.0
204.071899 72.0
204.142975 120.0
204.396149 84.0
204.482834 96.0
204.677948 68.0
204.771927 84.0
204.902969 92.0
204.934296 48.0
204.988571 184.0
205.051132 264.0
205.150909 52.0
205.191467 244.0
205.276352 80.0
205.476013 192.0
205.593002 76.0
205.617981 240.0
205.655792 60.0
205.838501 100.0
205.915619 148.0
206.038437 96.0
206.118439 128.0
206.219604 108.0
206.328522 48.0
206.346085 224.0
206.398575 92.0
206.432877 60.0
206.555862 128.0
206.650269 112.0
206.693192 36.0
206.713226 84.0
206.759018 44.0
206.781662 92.0
206.892899 196.0
207.029037 100.0
207.059998 272.0
207.080902 128.0
207.161469 108.0
207.179916 148.0
207.205704 80.0
207.260147 48.0
207.348984 64.0
207.41777 88.0
207.483704 28.0
207.523849 84.0
207.684433 52.0
208.020157 72.0
208.06897 152.0
208.103424 112.0
208.209671 68.0
208.376266 84.0
208.68956 44.0
208.715424 88.0
208.769745 108.0
208.859222 60.0
208.879364 80.0
208.959915 96.0
208.985809 112.0
209.031845 112.0
209.075439 284.0
209.115936 328.0
209.169998 136.0
209.352859 132.0
209.3629 68.0
209.370056 132.0
209.475235 104.0
209.71727 120.0
209.763397 44.0
209.936386 76.0
209.979645 216.0
210.06041 152.0
210.11174 136.0
210.219086 80.0
210.412476 136.0
210.507767 92.0
210.588623 104.0
210.712845 104.0
210.747513 60.0
210.923798 60.0
210.993179 92.0
211.077026 172.0
211.117508 116.0
211.212952 140.0
211.256348 144.0
211.302643 136.0
211.467575 44.0
211.568893 88.0
211.713669 48.0
211.844009 128.0
211.919327 148.0
212.068954 1072.0
212.206268 56.0
212.271088 136.0
212.29187 100.0
212.328064 80.0
212.409271 68.0
212.641403 156.0
212.70816 84.0
212.844604 180.0
212.896881 160.0
213.070663 308.0
213.149612 128.0
213.315262 36.0
213.55661 164.0
213.588608 100.0
213.608963 140.0
213.84465 36.0
213.879578 84.0
213.98439 68.0
214.165222 228.0
214.50061 120.0
214.669128 88.0
214.724533 88.0
214.946243 72.0
215.118439 172.0
215.188507 132.0
215.279022 88.0
215.679291 120.0
215.819611 172.0
215.86055 156.0
215.965836 156.0
216.00972 144.0
216.057602 216.0
216.568787 136.0
216.791458 72.0
216.92334 152.0
216.955597 88.0
217.14032 92.0
217.375015 136.0
217.799789 260.0
217.988754 56.0
218.100433 164.0
218.262131 108.0
218.38269 88.0
218.506241 156.0
218.54744 32.0
218.621002 88.0
218.735794 96.0
218.989014 72.0
219.067123 104.0
219.100815 172.0
219.321136 156.0
219.42514 200.0
219.487061 44.0
219.584366 60.0
219.655167 204.0
219.684662 108.0
219.873505 160.0
219.911865 156.0
220.075745 320.0
220.100815 100.0
220.135254 168.0
220.354828 56.0
220.667252 244.0
220.83075 112.0
220.875122 92.0
220.916534 104.0
220.999374 80.0
221.055588 64.0
221.083557 316.0
221.345688 140.0
221.400192 148.0
221.751541 72.0
221.834549 128.0
222.039139 100.0
222.107346 156.0
222.160751 72.0
222.421875 124.0
222.475311 36.0
222.570328 108.0
222.923813 72.0
223.05397 248.0
223.194305 164.0
223.724915 176.0
223.750702 104.0
223.843002 36.0
223.954773 136.0
223.988937 180.0
224.075333 108.0
224.102142 52.0
224.247437 132.0
224.343552 168.0
224.38826 156.0
224.498596 68.0
224.521667 76.0
224.96106 124.0
225.077499 196.0
225.346313 120.0
225.41803 92.0
225.537582 128.0
225.821625 140.0
225.91304 200.0
226.108841 88.0
226.315399 108.0
226.516052 152.0
226.540009 156.0
226.650864 132.0
226.7108 124.0
226.896637 176.0
227.16954 108.0
227.307556 176.0
227.59964 248.0
227.66478 164.0
227.718842 64.0
228.040329 168.0
228.15155 172.0
228.307892 168.0
228.58165 84.0
228.726105 168.0
228.99408 108.0
229.14772 108.0
229.464172 116.0
229.605896 28.0
229.719177 144.0
230.112854 116.0
230.254776 140.0
230.324234 144.0
230.517593 128.0
230.632446 72.0
230.962875 100.0
231.446243 128.0
231.624924 112.0
231.96431 112.0
232.097885 136.0
232.334274 212.0
232.525436 84.0
232.55275 164.0
233.200836 128.0
233.242249 136.0
233.43074 408.0
234.115448 88.0
234.349991 148.0
234.420074 176.0
235.097946 364.0
235.167267 120.0
235.274109 116.0
235.521454 156.0
235.615158 256.0
235.937042 120.0
236.092834 240.0
236.172501 80.0
236.356064 136.0
236.58493 196.0
236.784637 68.0
237.074265 292.0
237.111221 340.0
237.354645 164.0
237.419037 76.0
237.498779 132.0
237.664444 112.0
237.82402 112.0
237.977509 44.0
238.020508 168.0
238.244705 124.0
238.310669 128.0
238.34845 220.0
238.573532 48.0
238.877975 176.0
238.932144 152.0
239.091568 368.0
239.299606 44.0
239.379654 36.0
239.502853 132.0
239.650726 40.0
239.866455 56.0
240.029846 160.0
240.140869 148.0
240.495697 128.0
240.690186 92.0
240.835342 112.0
241.036148 272.0
241.363983 136.0
241.9207 120.0
242.496841 104.0
242.639435 120.0
242.747955 84.0
242.803787 132.0
242.97438 72.0
243.055054 76.0
243.492767 120.0
243.536255 124.0
243.58905 52.0
243.955734 104.0
244.332031 108.0
244.447159 184.0
244.472061 148.0
244.503174 112.0
244.960876 144.0
245.169632 68.0
245.203918 196.0
245.238205 164.0
245.419006 208.0
245.506317 124.0
246.042999 224.0
246.258469 116.0
246.430283 132.0
246.492767 180.0
246.91481 228.0
247.468674 160.0
247.543823 48.0
247.634644 60.0
247.872742 124.0
248.07959 132.0
248.217545 120.0
248.51239 100.0
248.832535 80.0
249.033005 100.0
249.04097 160.0
249.122437 180.0
249.181152 44.0
249.344543 168.0
249.520584 60.0
249.860245 88.0
250.143463 220.0
250.313477 80.0
250.513535 124.0
250.732468 88.0
250.7892 84.0
250.855392 68.0
250.953125 144.0
250.99411 200.0
251.101807 80.0
251.180191 72.0
251.382111 132.0
251.453751 188.0
251.491989 160.0
251.584106 124.0
251.649567 120.0
251.783035 32.0
251.805145 224.0
251.843048 68.0
251.896744 48.0
251.931488 116.0
251.963089 128.0
252.076828 88.0
252.111588 132.0
252.133713 168.0
252.212723 148.0
252.236465 172.0
252.266464 192.0
252.288589 104.0
252.330994 284.0
252.392929 212.0
252.494125 152.0
252.584351 152.0
252.61557 152.0
252.674423 240.0
252.702896 144.0
252.740097 164.0
252.80574 72.0
252.811447 144.0
252.855469 280.0
252.892776 52.0
252.919952 68.0
252.958511 140.0
252.994064 160.0
253.038391 228.0
253.107193 96688.0
253.166092 136.0
253.216064 160.0
253.240906 200.0
253.299057 204.0
253.321686 88.0
253.355087 84.0
253.383133 100.0
253.433029 80.0
253.518845 160.0
253.570023 176.0
253.628525 156.0
253.671158 88.0
253.688187 112.0
253.730804 72.0
253.795639 56.0
253.838028 52.0
253.885086 120.0
253.913605 80.0
253.948135 44.0
253.979385 144.0
254.011826 136.0
254.031555 172.0
254.0672 192.0
254.110123 13840.0
254.174149 84.0
254.209412 144.0
254.2556 60.0
254.293686 36.0
254.326462 80.0
254.401611 44.0
254.432159 128.0
254.45726 100.0
254.510132 88.0
254.552704 88.0
254.579758 112.0
254.630234 64.0
254.682693 56.0
254.723022 116.0
254.77594 64.0
254.824005 84.0
254.850906 60.0
254.874207 140.0
254.961197 160.0
255.01149 108.0
255.065521 40.0
255.111649 1816.0
255.176788 44.0
255.218979 140.0
255.249924 136.0
255.293915 148.0
255.349167 116.0
255.406769 112.0
255.488464 40.0
255.51828 128.0
255.569229 176.0
255.667679 196.0
255.692108 108.0
255.715591 156.0
255.752579 112.0
255.805969 192.0
255.835342 96.0
255.880707 96.0
255.921295 68.0
255.970322 132.0
256.005524 80.0
256.042297 112.0
256.06778 48.0
256.098602 124.0
256.108582 148.0
256.192017 88.0
256.239807 80.0
256.29715 148.0
256.357971 144.0
256.383179 68.0
256.456482 112.0
256.574432 132.0
256.63501 64.0
256.746613 116.0
256.826355 88.0
256.851868 112.0
256.899719 52.0
256.947571 48.0
257.046478 120.0
257.285858 168.0
257.717041 112.0
257.756775 176.0
257.822479 200.0
257.848053 116.0
257.873627 48.0
258.023865 88.0
258.151764 76.0
258.302094 64.0
258.33728 44.0
258.436462 60.0
258.506836 124.0
258.567657 96.0
258.766113 36.0
259.541504 92.0
260.141449 200.0
260.186401 96.0
260.208862 72.0
260.298767 140.0
260.497894 48.0
260.526825 188.0
260.719604 76.0
261.153625 80.0
261.19223 76.0
261.491455 104.0
261.910034 56.0
262.007996 184.0
262.045349 160.0
262.117981 80.0
262.139343 184.0
262.183899 68.0
262.435333 100.0
262.832062 80.0
262.919189 116.0
263.080566 64.0
263.151611 140.0
263.574738 140.0
263.651215 132.0
264.069336 92.0
264.119598 164.0
264.192261 92.0
264.47702 80.0
264.561188 100.0
264.729553 44.0
264.862335 104.0
264.97345 228.0
265.021637 140.0
265.069702 72.0
265.280365 272.0
265.319275 52.0
265.951813 112.0
266.094666 152.0
266.135681 224.0
267.261475 100.0
267.495819 40.0
267.753021 172.0
267.824677 40.0
268.740753 52.0
269.041016 108.0
269.367554 144.0
269.847961 96.0
269.911072 120.0
269.975494 116.0
270.132477 80.0
270.764191 120.0
271.075409 140.0
271.219635 136.0
271.367157 48.0
271.436005 156.0
271.49176 108.0
271.534393 140.0
271.878876 172.0
271.928101 152.0
272.190704 72.0
273.022125 116.0
273.045135 120.0
273.117493 68.0
273.285278 112.0
273.755981 168.0
274.098572 164.0
274.121643 104.0
274.207336 128.0
274.385315 72.0
274.955994 96.0
275.041779 56.0
275.137512 140.0
275.292725 76.0
276.019714 84.0
276.115509 128.0
276.171814 128.0
276.433197 112.0
276.711243 84.0
276.788727 216.0
277.138489 88.0
277.161682 148.0
277.290924 120.0
277.350586 120.0
277.874542 92.0
277.897766 128.0
278.098724 216.0
278.135406 476.0
278.269501 100.0
278.392365 168.0
278.485352 220.0
278.518555 140.0
278.578339 140.0
278.661407 112.0
279.14502 136.0
279.575836 228.0
279.698975 116.0
280.146088 164.0
280.281799 188.0
280.738464 120.0
280.875214 136.0
281.114868 92.0
281.268951 76.0
282.070648 40.0
282.129578 216.0
282.167603 36.0
282.585663 160.0
282.615784 112.0
282.675995 160.0
282.793152 64.0
283.12619 160.0
283.282013 40.0
284.141907 108.0
284.284515 116.0
284.63028 108.0
285.144257 136.0
285.611603 100.0
286.244324 164.0
286.453125 160.0
286.641815 184.0
286.773224 124.0
287.143768 196.0
287.393738 124.0
287.545593 200.0
287.643463 40.0
287.954102 68.0
288.150024 116.0
288.538696 124.0
288.697632 68.0
288.758484 48.0
288.795715 148.0
289.340515 128.0
289.689331 112.0
289.713043 88.0
289.74353 128.0
289.790955 108.0
289.946838 144.0
290.794739 128.0
291.103668 116.0
291.290466 188.0
291.409363 40.0
291.647247 108.0
291.977051 68.0
292.106293 124.0
292.147125 184.0
292.174316 100.0
292.34787 176.0
293.161774 132.0
293.185608 156.0
293.29126 96.0
293.366272 40.0
293.47876 140.0
294.024567 144.0
294.130524 284.0
294.168304 156.0
294.3284 32.0
295.138184 88.0
295.990204 76.0
296.082672 44.0
296.110077 156.0
296.147827 3612.0
296.260773 32.0
296.349091 88.0
296.514343 36.0
296.600037 72.0
296.709717 172.0
296.744019 32.0
296.768005 36.0
296.917694 80.0
297.153137 708.0
297.189911 64.0
297.237946 160.0
297.402679 156.0
297.567444 48.0
297.605194 56.0
298.295746 88.0
298.660248 56.0
298.894165 92.0
299.166077 92.0
299.424316 96.0
299.67923 76.0
299.782593 176.0
299.817078 48.0
300.041107 68.0
300.168701 148.0
300.341125 164.0
300.530853 100.0
300.589539 60.0
301.162628 220.0
301.407379 160.0
301.640656 92.0
302.05722 128.0
302.273865 156.0
302.573486 128.0
302.691223 148.0
303.167358 184.0
303.210846 140.0
303.481232 140.0
303.973785 140.0
304.051514 120.0
304.077911 108.0
304.133423 152.0
304.156433 224.0
304.751587 132.0
305.07132 160.0
305.116516 80.0
305.151276 28.0
305.506012 100.0
305.836609 344.0
305.888794 144.0
306.021088 84.0
306.136017 84.0
306.163116 112.0
306.871246 112.0
306.906097 140.0
307.063019 116.0
307.108368 168.0
307.14325 156.0
307.197357 160.0
308.022888 52.0
308.054321 188.0
308.148865 540.0
308.378296 128.0
308.470154 108.0
309.155548 372.0
309.253693 112.0
309.319946 56.0
309.568787 176.0
309.60379 136.0
309.635315 124.0
309.754395 224.0
310.047852 160.0
310.083771 180.0
310.164581 9036.0
310.248505 120.0
310.420319 52.0
310.462402 36.0
310.504486 44.0
310.550079 96.0
310.834229 40.0
310.869324 72.0
311.013214 56.0
311.055359 48.0
311.104492 36.0
311.167603 1736.0
311.385406 88.0
311.462677 72.0
311.51535 80.0
311.561035 60.0
311.743744 56.0
311.905396 44.0
312.166718 524.0
312.380127 72.0
312.468079 60.0
312.702759 132.0
312.837585 56.0
312.90799 40.0
312.957306 124.0
313.073486 124.0
313.16507 144.0
313.193237 152.0
313.253113 208.0
313.311523 132.0
313.418701 88.0
313.460999 152.0
313.614075 192.0
313.866364 176.0
313.993317 112.0
314.046234 80.0
314.208496 88.0
314.451965 152.0
314.515503 64.0
314.740112 192.0
314.946289 48.0
315.084045 208.0
315.122925 104.0
315.448029 72.0
315.829926 204.0
315.868835 64.0
315.992676 112.0
316.063416 172.0
316.183746 40.0
316.307617 108.0
316.385498 176.0
316.49881 176.0
316.799835 108.0
317.037231 136.0
317.166107 136.0
317.198181 156.0
317.278259 72.0
317.359802 180.0
317.565491 120.0
317.668365 156.0
317.845764 224.0
318.216522 200.0
318.261047 256.0
318.591339 192.0
318.786774 172.0
318.870422 144.0
319.195557 128.0
319.576172 108.0
319.604614 120.0
319.786102 108.0
320.14212 104.0
320.256104 176.0
320.352264 248.0
320.56604 56.0
320.796051 180.0
321.040161 108.0
321.307709 128.0
321.371918 36.0
321.578888 152.0
321.893066 208.0
322.163635 356.0
322.525421 180.0
322.586182 40.0
322.879364 44.0
322.905975 164.0
323.163727 312.0
323.272888 40.0
323.630859 220.0
323.713196 128.0
323.791992 92.0
324.103638 116.0
324.172333 612.0
324.419037 40.0
324.723816 148.0
325.000061 100.0
325.178162 204.0
325.32666 52.0
325.398438 136.0
325.430756 48.0
325.531311 104.0
325.779144 80.0
326.149261 104.0
326.321808 228.0
326.379333 108.0
327.257263 116.0
327.332886 132.0
327.664246 68.0
328.010223 140.0
328.096741 108.0
328.623291 112.0
328.836212 72.0
329.0961 112.0
329.186401 148.0
329.511475 100.0
330.017456 172.0
330.089783 176.0
330.353821 52.0
330.921997 200.0
331.052368 36.0
331.247955 120.0
331.374725 84.0
331.497925 100.0
332.052612 56.0
332.189606 156.0
332.212494 152.0
332.511993 84.0
332.807404 84.0
333.181488 128.0
333.221466 124.0
333.27597 144.0
333.533997 204.0
334.058258 136.0
334.186249 204.0
334.312317 96.0
334.555176 204.0
335.02597 108.0
335.149841 132.0
335.187256 272.0
335.291962 120.0
335.539825 116.0
335.733063 120.0
335.809662 160.0
335.988403 60.0
336.18576 152.0
336.76593 124.0
336.853607 72.0
337.152771 132.0
337.181244 136.0
337.354218 100.0
337.701599 68.0
337.924744 52.0
338.605621 204.0
339.221191 132.0
339.364166 108.0
339.492493 88.0
340.207977 208.0
340.237366 60.0
340.270386 116.0
340.464996 76.0
340.512756 100.0
341.038147 136.0
341.391113 132.0
341.508789 92.0
341.608093 128.0
341.784698 96.0
342.138031 104.0
342.535736 92.0
342.878418 100.0
343.084808 200.0
343.317108 56.0
343.357697 128.0
343.815155 136.0
344.195374 48.0
344.867737 64.0
345.137604 80.0
345.218964 284.0
345.411499 136.0
345.588867 80.0
346.092255 152.0
347.200989 220.0
347.415375 156.0
347.541504 52.0
347.626862 92.0
347.797577 168.0
347.934937 96.0
347.983185 168.0
348.172577 132.0
348.395447 116.0
348.573761 36.0
348.607208 92.0
348.96405 48.0
348.997528 84.0
349.034698 108.0
349.182983 128.0
349.212219 328.0
349.633636 156.0
349.663391 116.0
349.689453 32.0
349.812286 160.0
349.950043 32.0
350.136139 220.0
350.184784 3076.0
350.449127 56.0
350.482666 32.0
350.790344 36.0
350.944855 76.0
351.189117 1036.0
351.243195 52.0
351.571533 132.0
351.616302 68.0
352.189697 348.0
352.535004 116.0
352.815338 64.0
352.938049 176.0
352.991058 100.0
353.201385 484.0
353.280518 112.0
353.357635 168.0
353.421234 64.0
353.619568 44.0
353.769287 28.0
353.810486 168.0
353.874115 36.0
354.020142 84.0
354.218933 160.0
354.485291 120.0
354.81076 120.0
354.99823 132.0
355.18576 68.0
355.264526 72.0
356.112854 60.0
356.706543 140.0
356.905792 160.0
357.135193 68.0
357.169067 144.0
357.293182 140.0
357.571655 44.0
358.573456 56.0
358.678986 124.0
358.727997 220.0
358.965546 180.0
359.191071 220.0
359.301208 120.0
359.346497 152.0
360.192139 124.0
360.316803 44.0
360.520844 156.0
360.626648 80.0
360.808105 52.0
361.084137 140.0
361.110596 48.0
361.17868 144.0
361.211884 164.0
361.480438 100.0
361.560822 104.0
361.97345 76.0
362.106354 84.0
362.189331 112.0
362.920746 52.0
363.188629 880.0
363.223999 104.0
363.489716 36.0
363.687073 112.0
364.193024 156.0
364.19989 328.0
364.325012 112.0
364.631042 172.0
364.853271 80.0
364.944519 136.0
365.13855 144.0
365.204742 3964.0
365.378082 188.0
365.479279 60.0
365.492218 36.0
365.537872 76.0
365.594971 120.0
365.735779 52.0
365.933746 76.0
366.146973 108.0
366.209045 780.0
366.444092 52.0
366.512695 44.0
366.619385 176.0
366.672729 48.0
366.720184 108.0
366.912872 136.0
366.958649 40.0
367.032593 80.0
367.065399 92.0
367.136353 136.0
367.168365 96.0
367.216095 116.0
368.259918 236.0
368.305756 64.0
368.420349 160.0
368.489105 108.0
368.855988 92.0
369.027008 244.0
369.058594 64.0
369.093018 96.0
369.372192 64.0
369.525238 108.0
369.827545 88.0
369.914978 128.0
369.969177 68.0
370.302307 100.0
370.432526 172.0
370.976685 104.0
371.053375 72.0
371.168396 80.0
371.509735 76.0
372.231293 88.0
372.342682 148.0
372.553925 156.0
372.772949 152.0
373.141937 232.0
373.507263 40.0
373.568817 96.0
373.622681 160.0
373.865082 108.0
374.057526 48.0
374.092163 132.0
374.207672 128.0
374.450256 96.0
374.673676 128.0
374.954956 60.0
375.036102 164.0
375.132263 124.0
375.232513 128.0
375.425293 112.0
375.487 80.0
375.58728 248.0
375.768585 92.0
375.911346 72.0
376.223999 196.0
376.66037 244.0
376.822601 72.0
377.069916 96.0
377.112427 116.0
377.207764 520.0
377.40625 152.0
377.483582 176.0
377.839417 84.0
378.071594 52.0
378.213684 268.0
378.423828 80.0
378.466431 92.0
378.57486 80.0
378.662109 136.0
379.203308 72.0
379.229584 168.0
380.090515 100.0
380.204712 208.0
380.53302 104.0
380.991272 96.0
381.197205 164.0
381.51593 104.0
382.196564 84.0
382.231567 60.0
382.655823 60.0
384.89389 56.0
385.01886 144.0
385.093048 136.0
385.346954 112.0
385.444641 136.0
385.608795 72.0
385.944977 64.0
386.140503 128.0
386.179626 100.0
386.242188 172.0
386.29306 172.0
386.480835 88.0
386.645203 48.0
386.899628 100.0
387.236359 204.0
387.404816 136.0
387.671234 136.0
387.96521 144.0
388.92627 32.0
389.256042 52.0
389.350311 68.0
389.43277 124.0
389.460266 100.0
389.574188 160.0
389.609528 192.0
389.880646 120.0
390.103943 148.0
390.320923 64.0
390.600159 44.0
390.63559 36.0
390.789001 48.0
390.893036 64.0
390.938538 164.0
390.970001 236.0
391.062622 120.0
391.089203 128.0
391.151062 108.0
391.217133 320.0
391.450287 56.0
391.513306 44.0
391.737793 208.0
391.848114 188.0
391.894836 120.0
391.95047 176.0
392.179657 152.0
392.222473 372.0
392.388062 36.0
392.415649 140.0
392.451141 60.0
392.494507 176.0
392.524658 124.0
392.550415 312.0
392.620697 96.0
392.66803 168.0
392.723572 188.0
392.778473 92.0
392.869202 168.0
392.987549 144.0
393.020782 220.0
393.057892 140.0
393.08313 272.0
393.113831 184.0
393.237732 45668.0
393.305054 476.0
393.399506 52.0
393.442383 196.0
393.480469 120.0
393.521851 196.0
393.571289 112.0
393.606293 68.0
393.672333 168.0
393.731323 116.0
393.811279 84.0
393.880127 64.0
393.936188 112.0
393.96579 132.0
393.979889 76.0
394.037415 128.0
394.075653 112.0
394.109711 88.0
394.157196 184.0
394.241089 11956.0
394.345428 144.0
394.393433 60.0
394.43631 80.0
394.443665 68.0
394.567352 40.0
394.646454 224.0
394.675964 144.0
394.749237 84.0
394.824371 140.0
394.899536 28.0
394.950958 56.0
394.983765 68.0
395.023651 172.0
395.061707 60.0
395.105225 92.0
395.162659 156.0
395.240173 1600.0
395.336029 220.0
395.433655 32.0
395.473236 68.0
395.539215 60.0
395.584076 100.0
395.623657 72.0
395.664917 76.0
395.73056 36.0
395.904785 60.0
395.96814 52.0
396.113068 68.0
396.24704 416.0
396.344482 84.0
396.395996 44.0
396.545044 100.0
396.602081 204.0
396.663513 152.0
396.789124 88.0
396.839935 124.0
396.891479 56.0
396.96814 96.0
397.002502 112.0
397.038208 40.0
397.146667 92.0
397.212708 112.0
397.387268 44.0
397.462677 32.0
397.490448 48.0
397.54599 56.0
397.633301 96.0
397.692841 72.0
397.732544 164.0
397.776184 96.0
397.847656 76.0
397.946899 128.0
397.982635 52.0
398.038544 100.0
398.324188 40.0
398.35199 28.0
398.435425 60.0
398.566528 56.0
398.59433 160.0
398.713562 44.0
398.813934 124.0
398.856659 96.0
398.936157 188.0
399.035522 84.0
399.07132 44.0
399.17868 96.0
399.441162 68.0
399.79129 48.0
399.855988 140.0
400.073914 80.0
400.157501 168.0
400.28891 28.0
400.428284 160.0
400.643372 48.0
401.069763 128.0
401.73172 56.0
401.79953 48.0
402.024536 144.0
402.094818 108.0
402.478027 104.0
402.617798 60.0
402.769562 56.0
402.841492 148.0
403.688812 104.0
403.928772 116.0
404.1008 60.0
404.224854 56.0
404.563477 132.0
404.665131 60.0
404.753235 112.0
405.081635 144.0
405.895233 52.0
406.220093 52.0
406.460815 112.0
406.49292 60.0
406.545074 100.0
406.701599 40.0
406.966553 44.0
407.263733 44.0
407.344086 28.0
407.524841 104.0
407.577087 152.0
407.605225 84.0
407.806152 88.0
407.844452 220.0
407.970978 172.0
408.212219 108.0
408.437439 108.0
408.763306 76.0
408.835754 216.0
409.105408 156.0
409.153717 80.0
409.229645 1148.0
409.37735 52.0
409.576569 100.0
409.679016 120.0
409.991547 92.0
410.237 316.0
410.418823 32.0
411.227753 108.0
411.243286 120.0
411.706085 152.0
411.778778 200.0
411.940369 128.0
412.01712 100.0
412.150452 48.0
412.316132 128.0
412.457581 32.0
412.502045 156.0
413.140991 136.0
413.205719 120.0
413.294739 80.0
413.671112 132.0
413.963165 92.0
414.055786 120.0
414.200226 192.0
414.764832 108.0
414.939148 172.0
415.020233 76.0
415.085114 84.0
415.368988 68.0
415.592133 48.0
416.30249 116.0
417.989471 112.0
418.384277 172.0
418.9422 48.0
419.125549 168.0
419.186676 64.0
419.35376 60.0
419.488281 52.0
420.53656 120.0
420.977478 108.0
421.373688 188.0
423.278137 176.0
423.390289 84.0
423.550049 52.0
423.595093 36.0
423.849091 132.0
424.299957 148.0
424.644409 112.0
424.722321 128.0
425.637512 160.0
425.916809 112.0
426.015381 112.0
426.052368 112.0
426.401611 160.0
426.783936 80.0
426.907288 108.0
427.080017 88.0
428.026581 64.0
428.549683 116.0
428.854645 116.0
428.887604 160.0
429.217438 92.0
429.561066 136.0
429.646362 36.0
430.199371 104.0
430.261292 200.0
430.521423 76.0
431.083252 132.0
431.112183 128.0
431.627228 180.0
431.794312 100.0
431.930786 64.0
432.837158 92.0
433.156067 96.0
433.226471 72.0
433.412903 144.0
434.295929 96.0
435.512085 80.0
435.591003 76.0
435.861053 244.0
435.90686 88.0
437.029449 160.0
437.354065 100.0
437.691284 120.0
438.061951 76.0
438.595306 68.0
438.937164 32.0
439.012238 80.0
439.512817 100.0
440.163971 160.0
440.285065 68.0
440.961884 116.0
441.308868 120.0
441.555573 48.0
442.11618 168.0
442.455231 132.0
443.013733 132.0
443.267792 156.0
443.586304 180.0
443.628235 120.0
444.190643 136.0
444.366333 84.0
445.105072 68.0
446.866211 72.0
447.055573 116.0
448.082977 44.0
448.302094 220.0
448.985016 160.0
449.069366 68.0
449.185211 104.0
449.634735 80.0
450.246582 56.0
450.513 68.0
450.808746 112.0
451.561279 84.0
451.696625 116.0
451.726257 52.0
451.755859 80.0
451.988556 132.0
452.784393 136.0
452.860626 116.0
452.966522 120.0
453.275818 40.0
453.466522 140.0
453.580963 84.0
454.02774 148.0
454.467316 72.0
454.615814 152.0
455.218628 80.0
455.945068 80.0
456.11084 84.0
457.289032 112.0
457.923401 84.0
458.204559 40.0
458.370728 200.0
458.481537 112.0
458.643494 80.0
459.423828 88.0
459.709717 160.0
459.96579 180.0
460.166443 132.0
460.572144 60.0
460.841278 80.0
460.973724 196.0
461.606384 108.0
461.76889 56.0
462.697449 68.0
462.808777 68.0
462.988617 132.0
463.292755 164.0
463.972229 124.0
464.535919 136.0
464.70755 104.0
465.205383 52.0
465.261169 148.0
466.250946 28.0
466.623077 180.0
466.863892 144.0
467.251007 104.0
467.466125 100.0
467.909485 180.0
467.956848 60.0
468.734406 76.0
468.900208 124.0
469.503784 92.0
469.546906 136.0
470.142273 140.0
470.478943 116.0
470.910767 140.0
471.070587 208.0
471.494019 168.0
472.241272 100.0
472.298187 184.0
472.890961 96.0
473.167999 124.0
473.523071 156.0
473.999603 124.0
474.203308 116.0
474.394012 168.0
474.931702 148.0
475.183319 116.0
475.82132 36.0
476.312042 140.0
476.542267 108.0
477.042053 128.0
477.115967 128.0
477.53775 140.0
477.646515 96.0
477.729156 64.0
477.933624 128.0
479.178864 28.0
479.915466 140.0
481.394714 96.0
481.879547 136.0
481.980042 100.0
483.086182 120.0
483.283051 148.0
483.59375 184.0
483.637512 188.0
484.136627 108.0
484.311829 160.0
484.39505 76.0
484.465118 68.0
485.012878 80.0
485.232086 172.0
485.600433 140.0
485.758331 220.0
486.012787 156.0
487.237732 124.0
487.650818 84.0
487.712341 64.0
487.952667 144.0
488.165161 84.0
488.2883 108.0
488.385071 132.0
488.693024 44.0
490.01828 140.0
490.208832 128.0
490.820465 164.0
491.195343 128.0
491.680664 168.0
491.755707 100.0
492.024963 128.0
492.16626 164.0
492.638824 52.0
492.705078 136.0
492.983459 44.0
493.306091 64.0
493.474091 196.0
493.712891 92.0
494.996216 108.0
495.040497 160.0
495.51001 100.0
495.620789 84.0
496.721771 140.0
496.795685 52.0
496.942078 88.0
496.973145 140.0
497.251312 128.0
497.852051 108.0
498.038574 96.0
498.229584 84.0
498.305115 104.0
498.407318 40.0
498.562836 168.0
499.203003 108.0
499.251923 92.0
499.478729 176.0
500.239655 172.0
500.805176 260.0
501.016357 68.0
501.138672 148.0
501.237305 116.0
501.304138 72.0
501.348724 44.0
501.678558 140.0
501.729462 200.0
502.079834 116.0
502.85614 32.0
503.619629 92.0
503.97702 196.0
504.50885 92.0
504.687683 84.0
504.942596 132.0
505.434662 136.0
505.483887 132.0
505.707672 144.0
507.293335 92.0
507.625122 200.0
508.688446 120.0
508.872528 88.0
508.957825 84.0
509.159912 80.0
509.379974 144.0
509.802338 156.0
510.575562 128.0
511.056885 64.0
511.578949 96.0
511.673492 128.0
512.236389 112.0
512.583313 52.0
512.759094 180.0
513.264709 124.0
513.99469 120.0
514.220337 100.0
514.712402 104.0
515.385437 124.0
515.516479 80.0
515.606873 180.0
515.918762 148.0
516.054382 88.0
516.180969 104.0
516.217163 276.0
516.465942 112.0
516.940979 52.0
517.352844 80.0
517.506775 80.0
517.542969 112.0
517.715088 148.0
518.100098 168.0
518.720886 128.0
519.333069 104.0
519.428284 64.0
519.508789 140.0
519.623352 84.0
519.804871 136.0
519.936462 160.0
519.981873 72.0
520.417664 104.0
521.8125 216.0
521.971619 104.0
522.089844 88.0
522.17627 148.0
522.503784 196.0
522.599304 68.0
522.731262 32.0
525.004456 152.0
525.232483 64.0
525.4104 212.0
525.538147 176.0
527.520264 52.0
527.753418 80.0
527.844849 128.0
527.982056 188.0
528.027771 72.0
528.233582 116.0
529.222168 100.0
529.263367 92.0
529.744263 100.0
529.881653 128.0
530.242126 108.0
530.821289 160.0
531.004761 80.0
531.084839 100.0
531.247864 92.0
531.426758 148.0
531.509338 84.0
532.03717 108.0
532.215637 60.0
532.413696 100.0
532.551453 164.0
533.452087 96.0
533.83374 128.0
533.953308 56.0
534.551331 76.0
534.689392 76.0
534.822876 212.0
535.287842 72.0
535.426025 56.0
535.506104 212.0
535.859009 88.0
536.015686 192.0
536.264526 80.0
536.619507 56.0
536.73938 132.0
536.860718 164.0
537.278992 68.0
537.343567 80.0
537.758911 44.0
537.874268 116.0
539.244019 152.0
539.615906 124.0
539.648254 176.0
540.693726 100.0
541.255432 308.0
541.323303 160.0
541.360352 108.0
541.3974 36.0
541.517822 84.0
542.25885 312.0
542.537231 112.0
542.639221 132.0
542.731934 60.0
543.269165 196.0
544.88092 92.0
545.173645 144.0
545.266602 88.0
546.03833 188.0
546.131348 140.0
546.796692 96.0
547.085266 208.0
547.234253 108.0
547.269531 112.0
547.732544 124.0
547.807129 32.0
548.063354 156.0
548.264282 104.0
548.42218 120.0
548.785828 116.0
548.841736 52.0
549.018982 108.0
549.980042 184.0
550.143433 80.0
550.675781 92.0
550.914001 156.0
551.138245 64.0
551.960876 132.0
552.34906 72.0
552.779541 108.0
553.856323 100.0
553.982788 132.0
554.296692 204.0
554.456055 84.0
554.615356 120.0
555.539185 132.0
556.041199 96.0
556.15387 164.0
556.285278 164.0
557.243347 76.0
557.290344 84.0
557.581665 96.0
557.623962 120.0
557.717957 120.0
557.83551 120.0
558.037659 72.0
558.159912 84.0
558.257446 144.0
558.686646 84.0
559.249084 192.0
559.3125 36.0
559.496094 216.0
559.675049 48.0
560.640686 84.0
560.786804 104.0
561.008362 120.0
561.247437 172.0
562.258301 176.0
562.296082 176.0
562.374634 68.0
562.522644 84.0
562.631226 80.0
562.683105 72.0
562.768127 72.0
563.070312 76.0
563.287598 108.0
563.523804 96.0
564.100403 104.0
564.426575 128.0
565.084045 40.0
565.642456 168.0
566.201172 72.0
567.300476 96.0
567.433228 100.0
567.494812 164.0
567.675049 144.0
567.755615 116.0
568.381836 140.0
568.590637 44.0
568.918152 120.0
569.032104 136.0
569.12854 68.0
569.454712 132.0
569.69696 272.0
569.861755 168.0
570.623718 132.0
570.733032 140.0
570.842407 160.0
571.027893 132.0
571.156311 128.0
571.263794 236.0
571.332336 64.0
572.266418 272.0
572.317505 100.0
572.47467 204.0
572.593689 120.0
572.6604 116.0
572.893799 68.0
573.120117 104.0
573.271545 152.0
573.784973 96.0
574.633911 116.0
574.715027 104.0
574.905884 164.0
574.991821 116.0
575.248352 108.0
575.430969 140.0
575.604309 104.0
575.841614 116.0
576.05658 68.0
576.109131 128.0
576.266785 140.0
577.283142 580.0
577.418823 76.0
577.791931 40.0
578.150818 56.0
578.266113 176.0
578.380554 172.0
578.854492 72.0
578.931152 136.0
579.515503 148.0
580.325562 40.0
580.546082 92.0
580.996948 100.0
581.515198 140.0
581.740845 104.0
582.081726 84.0
582.475525 120.0
582.955994 168.0
583.066528 68.0
583.181885 120.0
583.287598 36.0
584.528442 144.0
584.595825 136.0
585.038635 104.0
585.173401 88.0
585.664612 164.0
585.756104 148.0
586.174866 144.0
586.290955 36.0
586.903137 60.0
587.115295 140.0
587.380615 184.0
587.520508 48.0
587.563904 132.0
587.684509 44.0
587.73761 92.0
587.838928 124.0
587.969238 80.0
588.171936 72.0
588.698181 80.0
589.269348 412.0
589.364807 128.0
589.577454 52.0
589.736938 136.0
589.920593 72.0
590.002808 220.0
590.274658 412.0
590.471802 44.0
590.597595 160.0
590.927368 96.0
590.984619 108.0
591.05719 156.0
591.280029 144.0
591.38623 128.0
592.262634 112.0
592.325623 116.0
592.655029 112.0
592.776184 168.0
592.931274 128.0
593.047607 104.0
593.352966 108.0
593.57605 116.0
593.765137 172.0
593.973694 40.0
594.094971 72.0
594.327881 160.0
594.468567 48.0
594.507385 156.0
595.439514 144.0
595.502686 144.0
595.73584 96.0
596.080811 116.0
596.226562 148.0
596.498779 120.0
596.649475 100.0
596.741821 84.0
596.848816 40.0
597.163208 216.0
597.230774 332.0
597.291382 80.0
597.61731 60.0
598.052795 96.0
598.123413 112.0
598.55658 116.0
598.673584 40.0
598.863525 112.0
599.107117 44.0
599.155823 164.0
599.272766 64.0
599.33606 84.0
599.901428 76.0
599.974548 116.0
600.086853 104.0
600.14032 76.0
600.291504 92.0
600.461792 104.0
600.558655 108.0
600.569702 84.0
600.591431 112.0
600.599731 140.0
600.76355 180.0
600.862183 100.0
600.9646 64.0
601.057312 128.0
601.13446 120.0
601.153503 96.0
601.174866 188.0
601.242798 44.0
601.281799 208.0
601.350159 76.0
601.486816 88.0
601.560059 60.0
601.647888 84.0
601.831421 116.0
601.91156 112.0
601.969604 136.0
602.006042 92.0
602.071045 176.0
602.194824 40.0
602.236084 120.0
602.305725 156.0
602.448792 64.0
602.536743 80.0
602.588684 144.0
602.653992 72.0
602.762878 100.0
602.841125 160.0
602.899292 140.0
602.952087 56.0
603.032471 284.0
603.067566 140.0
603.140686 356.0
603.292358 268.0
603.362671 64.0
603.396912 200.0
603.471741 92.0
603.504761 152.0
603.599304 300.0
603.66095 64.0
603.713257 240.0
603.759521 116.0
603.802734 224.0
603.884216 128.0
603.968689 152.0
603.987549 148.0
604.00061 268.0
604.121582 188.0
604.159729 128.0
604.229675 176.0
604.28186 436.0
604.348083 232.0
604.389587 128.0
604.435364 200.0
604.517944 104.0
604.57373 180.0
604.613159 192.0
604.657898 160.0
604.731995 204.0
604.787231 276.0
604.847107 172.0
604.892395 188.0
604.964172 100.0
604.998596 176.0
605.084351 396.0
605.174377 436.0
605.214722 512.0
605.307495 142520.0
605.449585 160.0
605.522522 132.0
605.611328 216.0
605.66925 80.0
605.739624 120.0
605.794067 132.0
605.841431 88.0
605.889099 140.0
605.931274 92.0
605.971252 116.0
606.039734 228.0
606.115173 188.0
606.21283 416.0
606.310181 51816.0
606.413818 152.0
606.479065 188.0
606.574646 136.0
606.632141 344.0
606.697754 212.0
606.752808 156.0
606.768066 124.0
606.798706 216.0
606.856812 156.0
606.895203 68.0
606.915344 160.0
606.940002 68.0
606.955078 72.0
607.022156 124.0
607.081848 324.0
607.122009 224.0
607.21698 160.0
607.312622 9964.0
607.429749 72.0
607.490295 152.0
607.544128 108.0
607.608582 144.0
607.679993 148.0
607.719482 308.0
607.785034 104.0
607.868713 80.0
607.90448 140.0
608.023376 164.0
608.096863 104.0
608.161072 48.0
608.209717 160.0
608.311768 1188.0
608.408752 92.0
608.475647 116.0
608.542053 124.0
608.595337 100.0
608.630859 196.0
608.723267 68.0
608.770325 164.0
608.807983 104.0
608.90332 156.0
608.99353 96.0
609.08136 164.0
609.122864 88.0
609.143005 116.0
609.16272 108.0
609.18219 96.0
609.253235 164.0
609.307129 200.0
609.364014 152.0
609.497681 140.0
609.576355 280.0
609.594055 192.0
609.657166 192.0
609.679749 68.0
609.698059 128.0
609.73877 204.0
609.824036 268.0
609.918213 192.0
610.010254 96.0
610.094421 136.0
610.144714 124.0
610.203369 84.0
610.297852 124.0
610.350525 140.0
610.46344 68.0
610.562439 148.0
610.636475 176.0
610.721069 128.0
610.807861 136.0
610.850891 84.0
610.868835 80.0
610.914673 52.0
610.954407 84.0
611.070312 40.0
611.171509 64.0
611.224243 176.0
611.258667 48.0
611.276672 92.0
611.304688 84.0
611.392334 52.0
611.487366 96.0
611.52478 96.0
611.542419 80.0
611.565491 132.0
611.623657 60.0
611.725586 80.0
611.779785 108.0
611.840271 132.0
611.89325 132.0
611.987976 52.0
612.076599 36.0
612.125854 64.0
612.181396 80.0
612.224304 64.0
612.28833 60.0
612.337585 40.0
612.485352 116.0
612.554321 36.0
612.603577 36.0
612.682373 52.0
612.778992 92.0
612.914001 56.0
613.111084 88.0
613.2146 116.0
613.295898 96.0
613.46106 56.0
613.589233 52.0
613.885071 60.0
613.919556 72.0
614.037964 52.0
614.509033 40.0
614.5448 80.0
614.929077 64.0
615.513489 44.0
615.68634 88.0
615.809814 44.0
615.86908 64.0
616.007385 44.0
616.130859 72.0
616.501465 120.0
616.629944 92.0
616.975952 56.0
617.025391 64.0
617.312195 60.0
617.440735 56.0
617.925537 52.0
617.970032 48.0
618.064087 84.0
618.321411 80.0
618.498901 60.0
618.742126 116.0
619.366089 44.0
619.569214 76.0
619.732178 80.0
619.856567 64.0
620.051514 84.0
620.208435 52.0
620.540588 64.0
620.758728 88.0
621.071228 88.0
621.384583 48.0
621.795593 80.0
621.939514 76.0
622.073547 72.0
622.128174 64.0
622.267151 68.0
622.341614 80.0
622.386353 108.0
623.059448 128.0
623.384766 48.0
623.449402 56.0
623.568665 88.0
623.712769 64.0
623.996155 112.0
624.483459 56.0
624.821716 108.0
624.856567 76.0
625.254639 76.0
625.309387 88.0
625.393982 116.0
625.996399 104.0
626.051208 80.0
626.350037 44.0
626.439697 44.0
626.484497 40.0
626.663879 72.0
626.722595 92.0
627.012695 84.0
627.167175 112.0
627.217041 56.0
628.079651 60.0
628.189392 52.0
628.423889 80.0
629.181824 60.0
630.071472 128.0
631.136047 104.0
631.671204 100.0
632.241577 80.0
632.301636 64.0
632.396729 120.0
634.51062 56.0
634.575806 44.0
634.866638 124.0
635.62915 56.0
637.065063 68.0
638.125488 80.0
638.608276 64.0
641.029846 84.0
643.349915 100.0
644.820435 96.0
646.529236 60.0
647.977417 92.0
650.020813 44.0
650.112122 52.0
650.59436 84.0
653.694763 56.0
654.112122 56.0
659.70813 52.0
659.922852 124.0
660.684937 36.0
661.641907 52.0
662.671326 88.0
663.958008 64.0
665.476868 52.0
666.606934 76.0
666.858765 60.0
666.910156 48.0
673.102661 48.0
674.378662 100.0
679.624634 112.0
679.785522 88.0
680.003479 104.0
682.559387 152.0
682.595764 64.0
684.562805 116.0
685.297241 84.0
685.917419 68.0
686.376221 92.0
687.315125 64.0
687.518616 116.0
690.088623 68.0
691.799438 48.0
694.912476 56.0
695.237793 68.0
695.988464 64.0
697.685486 100.0
701.713013 96.0
702.250854 104.0
708.59436 100.0
709.012939 80.0
711.967957 48.0
713.519531 52.0
714.588501 68.0
715.429382 52.0
715.55719 128.0
715.834045 52.0
716.409302 96.0
718.9953 88.0
719.49707 92.0
721.655518 116.0
721.730408 48.0
721.853394 92.0
724.51886 56.0
724.936768 48.0
726.76532 92.0
728.601501 124.0
729.278564 76.0
735.694092 164.0
738.503967 96.0
739.564453 116.0
743.309326 40.0
746.18811 132.0
746.226135 60.0
747.205139 120.0
747.335693 188.0
752.502686 128.0
752.977783 72.0
753.682434 60.0
755.508545 40.0
756.592163 68.0
757.840881 48.0
758.191589 64.0
761.455933 64.0
763.115417 80.0
764.617188 100.0
765.305298 40.0
767.349365 60.0
774.494751 104.0
777.710693 60.0
778.110352 140.0
778.7323 68.0
780.460632 128.0
781.957031 104.0
782.062805 176.0
783.616455 36.0
785.941528 140.0
786.209351 44.0
787.057861 40.0
791.682373 188.0
793.038208 224.0
795.124634 80.0
795.775757 92.0
798.579895 68.0
803.886963 116.0
807.185913 116.0
807.711853 32.0
810.570923 48.0
811.545898 44.0
812.27179 80.0
813.105835 144.0
815.536743 48.0
816.582886 92.0
818.836731 76.0
819.281006 76.0
819.919189 80.0
827.968933 96.0
832.602783 92.0
834.64856 48.0
834.924622 56.0
835.51709 76.0
836.990479 80.0
838.349976 64.0
839.427979 56.0
840.252808 60.0
840.714417 88.0
844.57959 188.0
846.663147 64.0
847.387268 36.0
849.810791 188.0
850.025452 140.0
850.193787 196.0
851.453552 76.0
853.144409 148.0
854.959167 156.0
857.043884 152.0
857.311951 44.0
857.999756 140.0
858.378723 64.0
860.152344 60.0
862.097229 88.0
865.16803 48.0
867.312012 72.0
867.511292 84.0
867.704773 44.0
868.157288 160.0
868.60199 132.0
871.414001 148.0
871.807739 56.0
871.96637 176.0
872.072205 60.0
873.4422 164.0
874.395386 56.0
875.113525 80.0
875.731873 84.0
876.60968 84.0
877.340576 92.0
877.912476 88.0
878.130676 108.0
880.355652 148.0
882.612976 88.0
884.387756 64.0
884.867249 104.0
885.666687 180.0
885.933289 116.0
889.461609 32.0
889.592224 180.0
890.672974 204.0
890.785828 60.0
891.891052 264.0
894.055969 92.0
895.079895 56.0
895.693298 80.0
898.990356 212.0
900.291748 88.0
901.361023 56.0
902.108154 68.0
905.52478 88.0
906.453369 48.0
907.022705 184.0
908.089966 92.0
909.950256 132.0
910.262451 96.0
910.658813 140.0
912.948608 100.0
914.205933 152.0
917.325867 136.0
918.182068 64.0
918.942139 104.0
922.390442 128.0
923.291321 72.0
927.450806 120.0
927.759949 172.0
928.590698 168.0
928.736267 44.0
928.881836 88.0
930.046875 200.0
933.953857 188.0
934.32489 216.0
937.095093 64.0
938.10675 160.0
938.771301 44.0
941.413696 204.0
945.809631 44.0
947.322083 108.0
948.369934 104.0
948.651917 60.0
948.940063 44.0
952.99707 100.0
953.427185 176.0
959.693726 168.0
960.131531 88.0
961.562866 92.0
964.045532 44.0
964.484314 160.0
968.481506 284.0
968.630127 164.0
969.206299 144.0
972.834534 40.0
973.18219 108.0
973.964661 76.0
976.600098 52.0
978.442078 84.0
979.345032 120.0
982.549133 136.0
982.917236 92.0
985.264893 40.0
985.346069 204.0
986.089722 200.0
986.871094 100.0
990.272034 120.0
990.494629 76.0
991.472046 84.0
992.255554 80.0
992.299438 76.0
999.113708 224.0
1002.709167 132.0
1003.427795 200.0
1003.856567 76.0
1003.906982 76.0
1004.184509 68.0
1006.222717 96.0
1007.498413 180.0
1007.921753 224.0
1009.356628 220.0
1009.495728 168.0
1009.830933 176.0
1010.172485 44.0
1011.267151 152.0
1011.431763 96.0
1016.578064 44.0
1018.819397 84.0
1019.105347 156.0
1019.156128 172.0
1020.579956 128.0
1021.703308 108.0
1022.704712 144.0
1023.042114 164.0
1023.666077 180.0
1024.666138 112.0
1026.240356 88.0
1026.935425 108.0
1027.362793 36.0
1027.611694 116.0
1027.777588 44.0
1029.354248 104.0
1029.91626 108.0
1031.782227 160.0
1031.96936 72.0
1036.633911 116.0
1039.134644 76.0
1041.130859 168.0
1042.377197 96.0
1043.064819 164.0
1043.598389 176.0
1043.733521 164.0
1044.640259 132.0
1044.916992 72.0
1046.107544 180.0
1047.369629 128.0
1047.820557 40.0
1049.141724 140.0
1052.651733 56.0
1053.523682 176.0
1054.350708 84.0
1055.443115 56.0
1055.811768 60.0
1056.814453 128.0
1057.066772 140.0
1057.125 144.0
1057.616943 44.0
1059.196777 148.0
1059.488281 168.0
1060.784424 112.0
1061.86731 128.0
1063.099854 152.0
1063.320557 204.0
1066.184692 144.0
1067.231201 112.0
1068.590576 180.0
1068.779297 144.0
1069.898682 60.0
1071.344482 136.0
1071.396606 128.0
1071.57251 108.0
1071.657227 164.0
1072.289307 64.0
1075.439575 136.0
1080.844238 160.0
1081.204102 184.0
1082.519897 160.0
1083.653076 48.0
1084.282227 124.0
1084.675415 144.0
1086.341064 96.0
1087.981689 136.0
1090.116333 40.0
1091.233765 164.0
1091.398193 148.0
1091.470459 48.0
1091.878174 216.0
1092.338623 124.0
1092.595215 48.0
1093.259766 56.0
1095.71582 84.0
1098.603394 112.0
1099.342407 144.0
1100.741821 176.0
1101.864746 224.0
1103.252563 120.0
1107.408081 220.0
1107.745972 76.0
1107.957886 100.0
1108.16333 192.0
1108.299194 176.0
1109.84021 252.0
1110.686523 224.0
1110.954468 28.0
1112.427612 184.0
1112.474121 88.0
1112.606934 136.0
1114.034668 128.0
1115.63623 148.0
1115.696045 136.0
1117.06604 144.0
1117.15918 208.0
1117.930908 152.0
1118.889404 240.0
1121.534058 196.0
1121.947388 76.0
1124.749146 140.0
1125.957642 144.0
1126.19812 348.0
1126.458618 164.0
1126.993042 204.0
1129.125488 172.0
1129.934937 228.0
1131.07251 152.0
1131.989746 180.0
1132.143799 80.0
1134.871094 140.0
1135.313599 120.0
1135.716064 52.0
1137.010986 100.0
1138.729736 204.0
1139.710449 200.0
1141.115234 132.0
1141.801147 92.0
1144.257202 196.0
1144.324585 208.0
1144.972168 184.0
1145.301025 112.0
1148.239624 192.0
1148.421753 112.0
1149.953369 76.0
1150.216553 160.0
1150.844482 32.0
1151.276611 208.0
1151.621094 232.0
1153.458984 56.0
1154.92627 100.0
1156.529907 124.0
1156.936035 144.0
1157.312134 132.0
1157.54541 268.0
1157.599609 80.0
1158.486816 84.0
1159.238892 120.0
1159.638794 176.0
1159.692993 64.0
1159.801392 164.0
1160.136353 128.0
1160.418335 188.0
1161.082886 112.0
1161.435547 212.0
1162.100342 132.0
1162.337891 128.0
1165.352661 36.0
1165.427368 160.0
1165.529297 148.0
1166.671143 116.0
1168.983643 96.0
1169.140137 140.0
1170.270142 188.0
1171.666382 124.0
1173.27478 56.0
1173.86792 124.0
1174.979736 216.0
1175.668945 56.0
1176.638184 188.0
1176.911255 52.0
1179.664551 100.0
1180.074829 44.0
1180.785889 168.0
1182.598999 72.0
1185.660522 84.0
1186.044922 136.0
1186.284302 160.0
1186.565308 96.0
1186.681396 112.0
1188.478882 220.0
1189.096558 152.0
1189.300537 212.0
1191.561768 140.0
1192.248901 112.0
1193.080566 80.0
1193.383057 160.0
1194.112061 160.0
1194.662231 96.0
1194.964966 144.0
1195.542969 92.0
1198.600464 204.0
1199.772217 36.0
1200.572021 224.0
1201.634277 144.0
1202.213867 188.0
1202.262207 56.0
1202.911011 144.0
1203.359741 136.0
1203.912231 80.0
1205.452637 56.0
1206.489502 156.0
1207.720337 136.0
1208.813477 28.0
1210.343262 36.0
1210.523315 204.0
1210.647949 196.0
1210.924927 116.0
1211.10498 144.0
1211.589966 64.0
1212.525391 192.0
1212.587769 100.0
1212.63623 176.0
1213.870239 136.0
1214.307129 148.0
1214.647095 92.0
1215.421753 156.0
1215.61145 176.0
1215.757202 44.0
1217.242798 272.0
1218.02063 32.0
1221.264526 132.0
1221.593628 56.0
1223.082764 108.0
1223.256714 180.0
1223.45166 124.0
1223.549072 144.0
1223.869385 164.0
1224.259399 140.0
1225.938232 252.0
1226.49585 172.0
1227.109253 100.0
1229.166992 100.0
1231.247192 108.0
1232.595459 140.0
1234.88855 148.0
1236.875732 140.0
1240.805664 148.0
1242.509888 124.0
1242.685303 148.0
1243.315186 196.0
1245.500488 28.0
1248.670288 36.0
1248.965698 220.0
1249.718506 64.0
1250.232178 60.0
1251.266968 156.0
1251.372559 36.0
1251.611938 148.0
1252.273926 124.0
1252.457031 164.0
1253.140381 140.0
1253.767456 132.0
1253.915527 164.0
1254.733154 44.0
1257.519531 48.0
1257.625366 116.0
1258.084229 112.0
1258.317261 176.0
1258.394775 208.0
1258.677368 140.0
1259.489502 200.0
1260.916748 192.0
1261.291626 176.0
1261.743774 152.0
1262.953003 176.0
1263.4552 112.0
1264.169922 144.0
1264.311401 172.0
1265.46521 80.0
1265.536011 64.0
1266.300903 44.0
1267.349243 168.0
1267.987061 192.0
1268.681763 204.0
1268.773926 116.0
1268.901489 112.0
1269.263062 164.0
1269.645996 36.0
1269.738281 180.0
1269.865845 156.0
1270.525635 172.0
1270.681641 72.0
1271.703491 136.0
1272.292725 168.0
1272.349487 148.0
1272.434692 160.0
1272.832275 224.0
1273.265503 172.0
1273.578003 160.0
1273.97583 112.0
1275.721924 140.0
1276.11499 136.0
1277.494751 72.0
1279.409058 36.0
1279.530029 84.0
1279.921631 68.0
1280.149536 180.0
1280.925903 180.0
1281.630981 184.0
1281.658691 180.0
1281.682373 160.0
1282.244019 112.0
1283.184937 132.0
1283.263428 168.0
1283.327637 132.0
1283.619873 184.0
1285.349976 172.0
1285.438965 220.0
1286.016968 204.0
1287.65918 152.0
1290.517578 196.0
1290.996704 140.0
1291.36853 164.0
1292.949707 164.0
1293.214478 112.0
1294.53186 212.0
1295.634888 172.0
1296.365723 48.0
1298.014526 140.0
1298.602539 192.0
1298.659912 196.0
1299.85083 216.0
1300.647461 96.0
1301.796143 144.0
1302.456909 172.0
1303.556152 148.0
1305.482788 92.0
1306.101318 132.0
1306.540039 216.0
1306.597656 140.0
1308.09668 176.0
1310.849731 188.0
1311.407959 152.0
1311.508789 156.0
1311.905273 372.0
1311.963013 188.0
1312.424438 144.0
1312.676758 204.0
1313.823608 96.0
1314.177124 156.0
1314.458496 124.0
1314.732788 196.0
1315.237915 164.0
1315.952637 152.0
1317.592163 136.0
1317.671631 96.0
1318.96521 248.0
1319.225342 148.0
1319.623047 212.0
1320.88855 148.0
1321.15625 108.0
1321.438477 184.0
1322.37915 72.0
1322.893066 116.0
1325.587402 188.0
1325.733032 160.0
1326.580322 136.0
1326.986328 204.0
1327.196655 216.0
1327.653442 180.0
1328.161133 132.0
1328.67627 172.0
1329.046265 92.0
1329.554199 112.0
1329.626831 100.0
1329.684814 204.0
1330.541382 172.0
1332.509521 160.0
1334.464722 176.0
1334.661011 56.0
1335.460938 72.0
1336.39209 156.0
1336.589844 112.0
1337.418213 60.0
1338.102539 40.0
1338.364624 92.0
1338.72876 160.0
1339.121948 80.0
1339.529907 128.0
1339.886841 56.0
1340.134521 100.0
1340.418701 192.0
1341.249634 176.0
1341.446411 44.0
1342.248413 180.0
1342.386963 172.0
1342.788086 40.0
1344.283569 192.0
1344.794434 112.0
1346.911987 72.0
1347.182251 176.0
1347.442993 168.0
1347.700928 112.0
1348.497559 88.0
1348.994507 144.0
1350.808105 132.0
1352.198364 188.0
1352.395996 244.0
1352.718018 148.0
1353.318359 96.0
1353.53064 60.0
1353.750366 136.0
1354.270386 196.0
1354.702515 128.0
1356.01416 96.0
1356.871826 124.0
1358.441162 96.0
1358.573242 188.0
1358.756592 92.0
1359.549072 132.0
1360.07019 172.0
1360.525391 144.0
1360.642822 108.0
1360.929199 152.0
1361.061279 208.0
1361.523926 136.0
1361.72229 156.0
1362.23645 120.0
1362.581665 168.0
1363.073975 200.0
1363.154785 52.0
1363.294434 168.0
1363.853027 112.0
1364.161743 88.0
1364.433716 40.0
1365.647095 164.0
1366.007568 208.0
1366.684326 180.0
1366.794678 132.0
1367.957642 164.0
1368.229126 164.0
1368.590698 148.0
1369.054688 44.0
1369.209351 120.0
1369.909058 140.0
1370.34375 132.0
1370.881592 184.0
1372.437012 56.0
1372.849976 164.0
1373.528442 108.0
1374.80481 124.0
1377.403809 140.0
1377.588501 212.0
1378.18689 244.0
1378.297729 120.0
1378.718994 148.0
1378.881592 68.0
1378.990723 196.0
1379.088501 120.0
1379.214111 144.0
1380.012573 120.0
1380.071655 152.0
1380.271362 92.0
1380.589355 52.0
1381.543457 220.0
1382.320312 136.0
1382.379517 76.0
1382.682983 220.0
1382.831055 164.0
1383.053101 116.0
1383.563843 144.0
1383.674927 168.0
1383.726685 156.0
1384.348633 140.0
1384.748657 208.0
1386.119141 80.0
1386.193237 208.0
1386.54895 180.0
1386.726807 164.0
1388.031616 144.0
1388.980957 220.0
1389.225708 192.0
1389.297852 72.0
1389.811768 136.0
1390.116089 228.0
1390.368408 92.0
1390.546509 220.0
1390.835938 156.0
1391.415039 116.0
1392.699707 156.0
1392.952271 168.0
1393.405396 88.0
1394.103882 148.0
1394.16333 196.0
1394.572144 188.0
1394.839722 212.0
1395.044678 132.0
1395.724365 132.0
1396.862305 44.0
1396.929199 176.0
1398.060181 108.0
1398.722656 128.0
1399.668091 136.0
1400.114868 148.0
1400.397949 168.0
1400.502197 96.0
1400.896973 168.0
1401.008789 164.0
1401.105591 136.0
1401.646118 252.0
1401.977417 232.0
1402.089233 136.0
1402.148804 84.0
1402.514038 160.0
1402.827148 140.0
1403.013428 120.0
1403.289307 116.0
1404.147827 164.0
1404.721191 288.0
1404.9375 152.0
1405.310547 204.0
1406.653931 96.0
1406.989868 148.0
1407.146606 128.0
1407.422852 132.0
1407.646606 132.0
1408.289185 148.0
1408.431152 160.0
1408.804565 144.0
1409.095947 196.0
1409.768433 192.0
1409.820801 156.0
1410.187012 132.0
1410.814941 80.0
1410.919556 188.0
1411.181274 168.0
1411.742065 136.0
1412.078613 32.0
1412.302979 164.0
1412.946289 192.0
1413.484985 192.0
1413.604736 204.0
1414.046265 96.0
1414.442993 220.0
1414.719971 168.0
1414.922119 204.0
1416.195068 152.0
1416.29248 152.0
1416.792603 196.0
1417.918335 152.0
1418.585449 164.0
1419.087769 156.0
1419.462646 108.0
1420.272583 204.0
1420.647705 96.0
1420.782715 132.0
1421.743164 132.0
1423.259521 164.0
1424.543823 148.0
1424.618896 132.0
1426.475098 128.0
1426.580322 104.0
1427.226929 72.0
1427.730713 100.0
1427.821045 144.0
1427.89624 128.0
1428.227173 176.0
1428.851562 152.0
1429.024536 172.0
1429.092285 132.0
1429.680298 136.0
1430.913696 152.0
1430.981445 120.0
1431.410645 108.0
1431.734497 120.0
1431.802246 160.0
1432.367188 60.0
1432.954712 212.0
1433.150635 116.0
1433.602783 140.0
1434.02478 140.0
1434.575073 164.0
1434.876587 132.0
1435.185791 152.0
1435.283813 180.0
1435.623169 220.0
1435.86438 148.0
1436.090698 120.0
1436.211426 116.0
1436.384888 172.0
1436.852539 56.0
1437.146851 96.0
1437.214722 216.0
1438.165649 144.0
1439.192383 52.0
1439.562378 180.0
1439.841797 136.0
1439.90979 124.0
1440.355347 248.0
1440.846436 184.0
1441.171265 220.0
1441.927002 112.0
1442.032837 152.0
1442.622314 176.0
1442.985229 200.0
1443.091064 32.0
1443.15918 108.0
1443.522095 144.0
1443.990967 216.0
1444.127075 196.0
1444.240601 172.0
1444.293579 176.0
1445.640259 148.0
1445.746216 148.0
1445.988403 100.0
1446.964844 144.0
1447.2677 164.0
1448.017456 148.0
1448.820312 80.0
1448.964233 32.0
1449.017334 224.0
1449.244629 148.0
1449.456787 168.0
1449.668945 144.0
1450.313232 184.0
1450.714966 40.0
1450.965088 84.0
1451.867432 164.0
1452.861084 120.0
1454.211792 192.0
1454.591309 108.0
1455.464355 212.0
1455.737793 140.0
1455.973145 60.0
1456.489624 232.0
1457.484863 248.0
1457.629272 244.0
1457.773682 84.0
1458.031982 136.0
1458.404419 168.0
1458.579224 100.0
1458.860474 44.0
1458.951782 148.0
1459.058228 116.0
1459.301514 84.0
1459.369873 112.0
1459.567627 128.0
1459.742554 164.0
1459.803345 160.0
1460.252075 220.0
1460.698975 184.0
1460.951904 196.0
1461.492065 216.0
1461.610962 204.0
1461.910522 140.0
1462.078003 156.0
1462.161743 100.0
1462.237793 124.0
1462.34436 52.0
1463.090332 136.0
1463.219727 208.0
1463.714722 148.0
1463.920288 80.0
1464.491455 112.0
1464.704712 140.0
1464.902832 208.0
1465.084473 132.0
1465.397949 140.0
1465.88562 64.0
1466.045654 64.0
1466.281982 200.0
1466.365845 176.0
1466.731689 168.0
1466.891724 132.0
1467.440674 188.0
1468.012573 148.0
1468.111694 52.0
1468.287109 208.0
1468.356079 184.0
1468.576904 72.0
1468.759888 152.0
1469.293945 196.0
1469.835693 100.0
1470.021484 200.0
1470.293579 160.0
1470.560669 152.0
1471.957764 156.0
1472.202148 136.0
1472.30896 188.0
1472.446533 188.0
1473.103394 220.0
1473.286743 232.0
1473.493042 44.0
1474.226562 108.0
1474.596313 164.0
1474.761475 188.0
1474.845581 132.0
1475.136108 32.0
1475.571777 92.0
1475.816528 136.0
1476.420532 168.0
1476.619385 64.0
1476.986572 176.0
1478.183228 192.0
1478.692993 156.0
1478.937744 132.0
1479.067871 188.0
1479.282227 176.0
1479.435303 204.0
1480.017212 176.0
1480.72937 64.0
1481.326782 176.0
1482.223267 136.0
1482.361206 192.0
1482.660034 56.0
1483.020264 184.0
1484.200806 240.0
1485.151855 112.0
1485.228516 68.0
1485.696411 116.0
1485.811523 48.0
1486.70166 188.0
1487.069946 36.0
1487.802734 208.0
1487.937378 96.0
1488.282959 144.0
1489.173706 168.0
1489.611572 184.0
1489.789307 144.0
1489.949585 172.0
1490.54126 308.0
1490.610352 156.0
1491.025391 80.0
1491.255859 172.0
1491.832397 132.0
1492.462891 112.0
1492.762695 48.0
1493.685669 196.0
1493.978027 160.0
1494.285767 184.0
1494.520752 204.0
1494.878174 184.0
1494.962891 48.0
1495.201416 104.0
1495.809448 108.0
1496.178955 164.0
1497.411011 260.0
1497.880859 160.0
1498.412476 136.0
1498.481812 124.0
1498.551147 148.0
1498.890137 96.0
1499.343994 196.0
1502.390625 196.0
1502.753174 180.0
1503.100464 188.0
1503.254761 156.0
1503.393677 228.0
1504.721313 144.0
1504.775391 172.0
1504.875732 180.0
1505.207764 180.0
