>compound Testosterone
>formula C19H28O2 
>ionization [M+H]+
>parentmass 289.21620658809053
#inchi InChI=1S/C19H28O2/c1-18-9-7-13(20)11-12(18)3-4-14-15-5-6-17(21)19(15,2)10-8-16(14)18/h11,14-17,21H,3-10H2,1-2H3/t14-,15-,16-,17-,18-,19-/m0/s1
#inchikey MUMGGOZAMZWBJJ
#Ion_Source LC-ESI
#Instrument qTof
#Compound_Source Commercial
#PI Dorrestein
#Data_Collector Garg_Neha
#Scan -1
#Precursor_MZ 289.218
#ExactMass 288.209
#Charge 1
#CAS_Number N/A
#Pubmed_ID N/A
#Smiles N/A
#INCHI_AUX N/A
#Library_Class 1
#SpectrumID CCMSLIB00000077101
#IonMode Positive
#UpdateWorkflowName UPDATE-SINGLE-ANNOTATED-GOLD
#LibraryQualityString Gold
#TaskID 48f7f52fc6d249b5abbcc6e7b3df5969
##Scan# 1423
#SpectrumFile NCP003106_C2_D11_BB3_01_15706.mzXML
#LibraryName NIH_Clinical_Collection_2.mgf
#MQScore -1
#Organism NIHcollection2_04212014_2_mgf
#TIC_Query 0
#RT_Query -1
#MZErrorPPM -1
#SharedPeaks 0
#MassDiff 0
#LibMZ -1
#SpecMZ 289.218
#SpecCharge 0
#internalFilename spec-00000.mgf

>collision 10
45.35603 180.0
45.508968 140.0
45.746597 160.0
46.883358 148.0
47.373878 140.0
47.633148 160.0
47.831264 156.0
48.856594 184.0
48.940102 180.0
48.951241 176.0
49.108723 204.0
49.30463 164.0
49.440559 144.0
51.939316 140.0
52.84837 148.0
53.112034 180.0
55.924587 196.0
56.086941 188.0
56.391434 212.0
56.7957 168.0
58.159763 156.0
59.389599 280.0
59.60453 140.0
60.307281 140.0
60.355206 180.0
60.451111 212.0
60.902264 180.0
61.701687 152.0
61.934853 208.0
62.162331 192.0
63.308243 236.0
63.358929 188.0
64.175858 160.0
64.675888 152.0
65.65435 152.0
66.17305 160.0
66.877586 168.0
67.11869 244.0
67.839706 180.0
67.851181 152.0
68.386703 148.0
69.537056 184.0
69.814507 184.0
69.842773 200.0
70.290932 172.0
70.774162 192.0
70.894615 156.0
71.114319 172.0
71.364624 196.0
71.758606 180.0
72.099586 152.0
72.595604 152.0
74.10244 164.0
74.174416 144.0
75.223732 140.0
77.311218 196.0
77.442528 168.0
77.489822 256.0
78.234467 164.0
78.290817 140.0
78.377129 148.0
78.405327 144.0
79.393578 144.0
80.341629 188.0
81.534157 180.0
81.622246 144.0
82.22393 156.0
82.867683 144.0
83.050774 240.0
83.175972 184.0
83.513939 196.0
83.75238 204.0
84.363686 228.0
84.405731 140.0
84.925842 152.0
85.919182 148.0
86.310471 136.0
87.343742 192.0
87.975456 176.0
88.452141 164.0
89.437599 156.0
91.05265 332.0
92.042526 176.0
93.066811 180.0
93.7845 152.0
94.075775 164.0
94.5532 232.0
95.04776 172.0
95.086922 256.0
95.13858 152.0
95.647888 196.0
96.027832 160.0
96.774323 168.0
96.817406 180.0
97.022118 276.0
97.06546 13316.0
97.098701 172.0
97.380272 152.0
98.068687 892.0
98.578087 156.0
98.678894 140.0
99.07209 260.0
100.855713 200.0
102.602165 152.0
103.395996 156.0
103.857948 196.0
104.28701 208.0
104.734001 184.0
104.870514 164.0
105.07093 364.0
105.194839 156.0
105.454247 168.0
105.478775 160.0
106.027252 140.0
106.0765 188.0
106.12365 160.0
107.051399 176.0
107.083641 508.0
108.089622 132.0
108.874352 212.0
109.065598 16940.0
109.10289 352.0
110.067879 860.0
110.583939 224.0
111.082634 168.0
111.328201 164.0
111.855927 144.0
113.892212 144.0
114.7285 164.0
117.005836 148.0
117.072075 200.0
117.445442 148.0
119.083763 596.0
119.634872 212.0
119.806091 172.0
121.063087 576.0
121.101013 480.0
121.148712 144.0
122.26725 140.0
122.639465 172.0
122.804825 176.0
123.040939 244.0
123.080467 3096.0
123.372322 192.0
123.420959 144.0
124.083145 484.0
124.580086 176.0
125.096008 180.0
126.596405 160.0
126.863037 160.0
127.320763 156.0
128.058075 280.0
128.875076 160.0
129.072983 392.0
130.082184 148.0
131.088043 840.0
131.158112 180.0
132.097794 356.0
133.103302 868.0
134.101425 180.0
134.657196 184.0
135.08519 144.0
135.116379 888.0
135.288452 220.0
135.645203 164.0
135.835342 152.0
136.120819 156.0
136.527481 204.0
137.098038 648.0
137.130478 164.0
137.416748 168.0
137.533981 176.0
139.1091 160.0
139.45462 196.0
139.649765 140.0
139.706223 140.0
140.10643 164.0
140.415222 168.0
140.559128 180.0
140.830856 196.0
141.071671 148.0
141.104736 140.0
142.085709 172.0
143.084503 1140.0
143.107193 208.0
144.089828 156.0
145.103241 1632.0
146.09874 144.0
147.077209 156.0
147.116592 1696.0
147.403244 140.0
147.480576 160.0
147.560349 168.0
148.118027 200.0
148.727982 148.0
149.097305 348.0
149.131561 568.0
150.43924 180.0
150.500275 148.0
151.111313 308.0
151.853546 156.0
152.37149 184.0
152.558273 180.0
153.129135 160.0
153.437149 192.0
153.543182 152.0
154.786209 160.0
155.085953 524.0
155.728592 188.0
155.939774 188.0
156.706223 196.0
156.848267 140.0
157.099564 1068.0
158.107254 588.0
159.078598 168.0
159.117737 1316.0
160.122162 164.0
161.098282 804.0
161.132019 1616.0
162.133881 320.0
163.111938 660.0
163.149048 508.0
164.045471 168.0
164.114655 232.0
164.15509 156.0
165.094849 144.0
165.131226 160.0
166.713608 144.0
167.427643 144.0
167.494614 212.0
168.094376 364.0
168.849655 168.0
169.102249 648.0
171.11412 940.0
172.11821 188.0
172.419235 180.0
172.599609 196.0
173.088547 140.0
173.132736 1192.0
173.340393 156.0
173.961975 140.0
175.111328 176.0
175.148117 1064.0
175.870377 232.0
176.151474 296.0
176.673691 152.0
176.880096 140.0
177.126266 756.0
177.661835 148.0
177.937836 160.0
178.132172 232.0
180.407471 148.0
182.111069 116.0
182.48671 144.0
182.649261 200.0
183.118042 412.0
183.149918 180.0
183.184937 168.0
184.069336 188.0
185.135071 668.0
185.400497 140.0
185.815369 160.0
186.131012 164.0
187.148407 936.0
187.644272 156.0
188.151108 136.0
188.800781 140.0
189.130814 288.0
189.164352 972.0
189.452209 164.0
189.824966 196.0
189.879822 176.0
190.13884 252.0
190.165146 220.0
190.340851 212.0
190.42598 196.0
191.077454 168.0
191.143433 192.0
192.231949 144.0
193.157501 144.0
193.19899 184.0
194.174011 184.0
195.604935 140.0
195.857895 176.0
196.711594 248.0
197.010391 160.0
197.13295 788.0
197.628265 216.0
198.13884 476.0
199.148682 852.0
199.203857 188.0
199.932068 164.0
200.147339 136.0
200.540405 172.0
201.122726 132.0
201.162888 688.0
201.980423 140.0
202.031342 204.0
202.133057 168.0
203.146545 468.0
203.176971 224.0
203.41423 252.0
204.235428 168.0
204.650909 144.0
205.158234 284.0
205.845657 152.0
206.511536 140.0
206.963684 152.0
209.635117 156.0
210.373474 184.0
211.150681 444.0
211.280899 168.0
212.15094 628.0
213.163498 1712.0
214.17128 116.0
214.399414 152.0
215.14444 444.0
216.145691 340.0
217.156448 508.0
217.194504 144.0
218.013641 176.0
218.163452 148.0
218.726013 152.0
219.173843 428.0
219.591644 140.0
220.577835 232.0
224.163101 144.0
225.165085 152.0
225.538925 188.0
226.167068 140.0
227.179672 856.0
228.107803 148.0
228.252106 164.0
229.16217 172.0
229.202698 244.0
230.162491 332.0
231.173599 316.0
233.188858 168.0
235.400604 180.0
236.173813 144.0
237.395813 168.0
238.177399 204.0
240.259384 156.0
242.774048 184.0
243.174377 112.0
243.213165 280.0
245.190689 264.0
245.688507 172.0
246.472168 144.0
247.238297 160.0
250.780991 212.0
251.181442 160.0
252.419464 144.0
252.479553 220.0
252.963654 152.0
253.195969 4836.0
253.641525 168.0
254.199524 1140.0
255.19838 316.0
256.182068 164.0
256.256958 140.0
256.786133 184.0
256.88501 156.0
258.311249 124.0
258.351288 200.0
259.100403 184.0
260.255035 152.0
260.489471 156.0
262.5784 164.0
264.753418 140.0
266.778076 172.0
268.464661 172.0
269.179321 176.0
269.659546 268.0
270.961914 140.0
271.207458 6044.0
271.437164 188.0
272.209351 1036.0
273.213287 272.0
274.015625 100.0
275.029724 156.0
276.397919 180.0
277.013733 232.0
277.136322 164.0
277.351715 172.0
278.00177 168.0
279.580292 148.0
280.286255 140.0
281.116547 156.0
282.697205 164.0
283.611511 180.0
283.795868 176.0
284.164825 172.0
285.531982 160.0
285.62616 204.0
286.370026 156.0
287.327332 140.0
287.951569 112.0
288.077423 276.0
288.148193 148.0
288.217987 156.0
288.296417 244.0
288.323456 180.0
288.400757 148.0
288.517883 124.0
288.575897 164.0
288.644745 220.0
288.670959 196.0
288.70813 112.0
288.788544 148.0
288.814789 208.0
288.850891 160.0
288.893555 264.0
288.938629 124.0
288.986877 208.0
289.052063 192.0
289.117065 192.0
289.178833 420.0
289.218689 162312.0
289.324005 156.0
289.345612 328.0
289.398376 196.0
289.428223 144.0
289.539612 140.0
289.597504 244.0
289.652252 168.0
289.694305 112.0
289.737732 108.0
289.775085 2888.0
289.825867 180.0
289.914215 220.0
289.965851 124.0
290.001221 124.0
290.058075 168.0
290.096283 208.0
290.177338 152.0
290.220734 35168.0
290.423065 144.0
290.503418 132.0
290.52066 120.0
290.582733 96.0
290.636963 184.0
290.727142 116.0
290.989136 172.0
291.110992 180.0
291.143524 152.0
291.222534 3988.0
291.478729 132.0
291.543182 144.0
291.688568 112.0
291.757904 120.0
291.843872 116.0
291.951813 160.0
292.042969 204.0
292.134369 192.0
292.17868 132.0
292.233643 408.0
292.267365 144.0
292.299988 116.0
292.337189 108.0
292.616638 96.0
292.643372 100.0
292.690979 108.0
292.955231 172.0
293.084442 228.0
330.250732 136.0
397.558411 140.0
1142.312378 204.0
1288.143311 156.0
1306.833252 140.0
1308.251099 144.0
1337.903809 164.0
1341.393188 224.0
1377.859131 236.0
1382.931885 148.0
1393.930054 156.0
1395.684326 152.0
1398.407104 196.0
1445.561035 208.0
1457.792725 220.0
1482.832275 188.0
1489.914795 140.0
1490.022339 172.0
1498.986084 148.0
1499.109375 176.0
1511.40271 144.0
1511.572876 156.0
1525.074951 152.0
1535.040039 156.0
1556.873291 228.0
1585.336548 232.0
1594.057617 216.0
1594.963623 144.0
1607.036621 192.0
1612.778442 240.0
1619.827881 204.0
1621.550537 212.0
1628.530762 156.0
1634.037231 224.0
1635.00293 168.0
1649.981812 156.0
1655.305786 200.0
1660.143555 152.0
1662.06604 168.0
1685.729492 140.0
1686.692749 152.0
1692.731689 196.0
1697.90271 144.0
1698.878784 204.0
1702.462646 192.0
1732.845337 200.0
1738.981812 144.0
1745.794312 216.0
1747.823975 184.0
1752.320068 160.0
1757.656372 212.0
1768.897217 192.0
1777.26123 180.0
1790.021118 228.0
1829.289307 164.0
1834.95459 192.0
1843.045776 168.0
1844.267944 168.0
1848.475586 156.0
1855.842041 176.0
1894.678101 172.0
1905.696533 144.0
1907.625854 208.0
1931.440063 176.0
1940.582764 176.0
1946.768921 140.0
1947.770142 200.0
1947.963379 140.0
1953.395996 148.0
1955.102905 160.0
1963.895508 152.0
1969.641724 208.0
1995.260986 156.0
1996.763672 148.0
1998.809814 204.0
