>compound MLS001141399-01!1-[2-(3,4-dimethyl-2-oxochromen-7-yl)oxyacetyl]piperidine-4-carboxylic acid
>formula C19H21NO6
>ionization [M+H]+
>parentmass 360.142181
#inchi InChI=1S/C19H21NO6/c1-11-12(2)19(24)26-16-9-14(3-4-15(11)16)25-10-17(21)20-7-5-13(6-8-20)18(22)23/h3-4,9,13H,5-8,10H2,1-2H3,(H,22,23)
#inchikey OWEDAMDWUSCDJX
#Ion_Source LC-ESI
#Instrument qTof
#Compound_Source NIH Natural Product Library
#PI Dorrestein
#Data_Collector VVP/LMS
#Scan -1
#Precursor_MZ 360.145
#ExactMass 359.137
#Charge 1
#CAS_Number N/A
#Pubmed_ID N/A
#Smiles Cc1c(C)c2ccc(OCC(=O)N3CCC(CC3)C(=O)O)cc2oc1=O
#INCHI_AUX N/A
#Library_Class 1
#SpectrumID CCMSLIB00000079429
#IonMode Positive
#UpdateWorkflowName UPDATE-SINGLE-ANNOTATED-GOLD
#LibraryQualityString Gold
#TaskID b1d8e8f6646f4e71acdff9ca3d919d08
##Scan# 1803
#SpectrumFile p1-C06_GC6_01_17902.mzXML
#LibraryName NIH_Natural_Products_Library.mgf
#MQScore -1
#Organism NIH_Natural_Products_Library
#TIC_Query 0
#RT_Query -1
#MZErrorPPM -1
#SharedPeaks 0
#MassDiff 0
#LibMZ -1
#SpecMZ 360.145
#SpecCharge 0
#internalFilename spec-00000.mgf

>collision 10
95.075821 116.0
95.789368 180.0
95.875092 252.0
95.917969 168.0
96.082474 564.0
96.280869 184.0
96.983238 184.0
97.089943 172.0
97.389381 164.0
98.239723 144.0
98.366013 60.0
98.755264 128.0
98.833405 20.0
99.045143 728.0
100.03907 184.0
100.070923 100.0
100.268127 100.0
100.362755 76.0
101.271072 124.0
101.625885 84.0
102.045654 188.0
102.440094 136.0
103.057426 144.0
103.079651 188.0
103.273727 172.0
103.33239 32.0
103.719551 108.0
103.917908 244.0
104.025467 92.0
104.062012 144.0
104.307816 140.0
104.43795 212.0
104.926666 180.0
105.07019 504.0
105.36953 68.0
105.387917 148.0
105.778526 168.0
105.960785 80.0
106.012009 100.0
106.428406 56.0
106.541359 168.0
106.853851 64.0
106.991737 88.0
107.049385 240.0
107.088516 72.0
107.179153 180.0
107.243034 196.0
108.002853 148.0
108.052505 152.0
108.166374 152.0
109.534706 120.0
110.064537 144.0
110.085304 112.0
110.323486 160.0
110.388298 156.0
110.903305 104.0
111.127686 84.0
111.142372 108.0
111.392197 124.0
111.94323 168.0
112.029579 224.0
112.077034 960.0
112.577957 124.0
112.74485 140.0
113.012672 140.0
113.057831 156.0
113.080597 300.0
114.055939 1864.0
114.092369 168.0
114.222618 84.0
114.243889 60.0
114.360924 204.0
114.531258 64.0
114.833908 88.0
115.03875 112.0
115.059959 324.0
115.111336 236.0
115.386963 132.0
115.891418 256.0
116.022789 96.0
116.062096 368.0
116.475571 20.0
117.043327 136.0
117.070084 1308.0
117.131622 252.0
117.325562 180.0
117.543396 192.0
118.07489 308.0
118.334473 144.0
118.516411 64.0
118.722336 96.0
118.752693 144.0
119.048798 228.0
119.087105 620.0
119.778603 132.0
120.208099 172.0
120.387093 196.0
121.321358 144.0
123.043915 208.0
123.34655 208.0
124.039383 152.0
124.074799 524.0
124.678589 124.0
124.967659 236.0
125.084709 588.0
125.234787 52.0
125.540108 148.0
125.680634 144.0
125.852501 100.0
126.091209 2284.0
126.205521 68.0
126.366554 44.0
126.514259 84.0
126.724777 68.0
127.056587 244.0
127.095543 372.0
127.476448 88.0
127.669777 44.0
127.757492 164.0
127.96904 180.0
128.071136 5992.0
128.117676 152.0
128.203293 96.0
128.261902 60.0
128.534775 96.0
129.072968 880.0
129.104019 52.0
130.060104 56.0
130.087006 724.0
130.132751 96.0
130.473526 240.0
131.046371 188.0
131.08197 304.0
131.503113 84.0
131.761154 104.0
132.02858 188.0
132.061646 156.0
132.626129 180.0
133.032135 104.0
133.065216 160.0
133.107895 80.0
133.664154 196.0
134.074051 252.0
134.341507 104.0
135.039078 144.0
135.080704 136.0
135.166306 188.0
136.984161 144.0
137.389771 84.0
138.057785 196.0
139.149689 108.0
139.459763 92.0
141.405548 164.0
141.5168 144.0
141.545212 144.0
141.748917 132.0
141.857941 152.0
141.90535 144.0
141.938553 100.0
142.021561 240.0
142.086288 4816.0
142.249344 88.0
142.344315 56.0
142.415558 60.0
142.577103 128.0
142.757782 40.0
142.900497 40.0
143.007584 100.0
143.090866 1048.0
143.908661 268.0
144.092743 148.0
144.169022 144.0
144.8461 132.0
145.028198 172.0
145.066132 784.0
145.095901 132.0
145.210419 100.0
145.738525 68.0
145.894745 232.0
146.06665 544.0
147.043182 380.0
147.079681 680.0
147.645248 40.0
147.763763 76.0
148.04213 136.0
148.085175 264.0
148.555954 196.0
148.915176 112.0
149.06337 176.0
153.262314 128.0
154.034485 224.0
155.061295 172.0
155.92247 120.0
156.057938 360.0
156.074097 108.0
156.387558 60.0
157.060287 172.0
159.081955 192.0
160.050034 196.0
160.085281 152.0
160.664993 184.0
161.058075 320.0
161.913635 152.0
162.030151 232.0
162.067474 1780.0
162.109024 220.0
162.175919 184.0
163.072403 324.0
167.610382 128.0
168.80809 128.0
168.96846 188.0
170.080154 704.0
170.150223 216.0
171.09079 320.0
172.084259 172.0
172.199509 44.0
173.060928 636.0
173.17244 76.0
173.759613 196.0
174.06572 280.0
175.018555 360.0
175.036987 124.0
175.074753 2864.0
175.202911 52.0
175.337296 36.0
175.653687 52.0
175.751297 92.0
175.864761 52.0
175.899078 48.0
176.075134 280.0
176.200119 144.0
176.287323 64.0
176.57283 80.0
177.085083 196.0
177.539444 108.0
178.498077 180.0
179.549942 252.0
180.95546 72.0
181.504715 240.0
181.574448 164.0
181.657593 128.0
185.242813 132.0
187.273529 180.0
188.046127 224.0
188.092529 208.0
188.898621 216.0
189.057297 320.0
189.152847 216.0
189.552948 96.0
189.92305 156.0
190.060928 544.0
191.072067 944.0
192.074478 160.0
192.28093 172.0
193.076569 152.0
193.535919 244.0
197.199585 100.0
199.807388 48.0
200.663544 124.0
200.908905 208.0
201.027405 140.0
201.063904 776.0
201.532837 60.0
201.674133 52.0
201.945557 60.0
202.647583 192.0
202.721252 104.0
202.990555 136.0
203.021744 164.0
203.070953 6156.0
203.136841 180.0
203.174911 108.0
203.254349 68.0
203.291946 112.0
203.367859 60.0
203.521164 40.0
203.620544 52.0
203.88475 144.0
204.021194 104.0
204.070374 528.0
205.074387 104.0
205.1884 108.0
205.342377 112.0
205.539215 132.0
205.66478 152.0
206.078857 144.0
206.201736 136.0
208.649643 168.0
212.746124 108.0
214.328262 92.0
215.069 404.0
216.513275 68.0
217.082962 140.0
218.700546 84.0
227.073395 160.0
227.971024 160.0
229.081223 136.0
230.444824 140.0
231.063782 504.0
232.067093 128.0
233.248001 180.0
242.062561 40.0
242.090424 148.0
243.110443 184.0
244.096756 500.0
244.175873 108.0
246.542068 112.0
249.048447 184.0
254.067474 56.0
258.11557 48.0
259.101349 152.0
260.087433 232.0
261.097839 188.0
263.276367 88.0
264.754242 124.0
271.100647 160.0
272.085938 480.0
272.121887 136.0
273.097198 208.0
277.932648 80.0
280.35675 268.0
285.111206 204.0
286.144135 1020.0
287.148987 428.0
287.49646 72.0
288.134613 120.0
288.550293 52.0
296.125061 120.0
297.136261 132.0
302.747742 180.0
303.51355 100.0
304.766541 148.0
308.261444 88.0
308.530579 52.0
309.391174 112.0
313.881317 120.0
313.927155 184.0
314.096436 84.0
314.137085 1900.0
314.297546 44.0
314.541046 40.0
315.138947 328.0
316.1539 220.0
332.520996 40.0
336.375519 68.0
341.247833 104.0
341.883759 172.0
342.133514 320.0
343.140045 400.0
355.388123 148.0
357.962891 156.0
360.142181 964.0
360.203125 108.0
360.361786 60.0
360.452454 52.0
360.936279 68.0
361.148529 336.0
374.865601 116.0
408.30304 64.0
485.298309 48.0
491.976715 60.0
503.780426 40.0
525.893494 104.0
629.453552 68.0
630.507568 92.0
728.315491 80.0
745.311157 284.0
751.594604 140.0
759.165161 140.0
760.3172 196.0
781.881775 204.0
826.52771 76.0
829.09314 128.0
851.036194 72.0
856.595825 176.0
880.514954 220.0
946.927917 160.0
955.540039 140.0
973.514526 232.0
997.022339 120.0
1005.669495 156.0
1028.200317 72.0
1046.011963 164.0
1048.981567 224.0
1050.755005 136.0
1080.45813 136.0
1084.688477 56.0
1087.679565 196.0
1100.556274 164.0
1109.932129 96.0
1112.121338 188.0
1114.658203 168.0
1136.727295 176.0
1146.424072 64.0
1150.464111 148.0
1178.622559 124.0
1197.880127 112.0
1202.223755 144.0
1207.149048 176.0
1212.036011 64.0
1215.190674 116.0
1225.86377 88.0
1228.806274 92.0
1231.277222 200.0
1236.772583 64.0
1238.607056 216.0
1239.559814 208.0
1240.526978 28.0
1254.318604 192.0
1255.079956 224.0
1260.960205 128.0
1261.744873 64.0
1261.87915 136.0
1262.416504 44.0
1263.732178 164.0
1264.085938 140.0
1279.737061 104.0
1281.674316 120.0
1283.802124 20.0
1290.481934 176.0
1297.892456 112.0
1305.531982 196.0
1305.762817 68.0
1307.374268 296.0
1313.440674 212.0
1316.991821 168.0
1317.266235 184.0
1317.374634 160.0
1318.364502 132.0
1326.550293 192.0
1330.496582 184.0
1334.176514 160.0
1341.648926 152.0
1342.006226 204.0
1357.947632 128.0
1358.651733 200.0
1359.187378 152.0
1360.082642 232.0
1362.483887 200.0
1364.460815 192.0
1376.655029 72.0
1377.238525 72.0
1383.760742 184.0
1387.865356 128.0
1390.305786 108.0
1392.518066 188.0
1394.055908 188.0
1399.575195 76.0
1402.681763 164.0
1418.019043 100.0
1418.57373 136.0
1434.916992 200.0
1438.877808 128.0
1440.237061 40.0
1444.416992 164.0
1446.846069 200.0
1450.997559 60.0
1465.59021 140.0
1465.940674 176.0
1468.525024 128.0
1473.792358 212.0
1479.849976 204.0
1488.283813 164.0
1489.881348 132.0
1491.710205 44.0
1492.740479 264.0
