>compound MLS000697735-01!
>formula C20H18O6
>ionization [M+H]+
>parentmass 355.117462
#inchi InChI=1S/C20H18O6/c1-10(2)3-4-11-7-12(5-6-14(11)22)20-19(25)18(24)17-15(23)8-13(21)9-16(17)26-20/h3,5-9,21-23,25H,4H2,1-2H3
#inchikey PGCKDCPTJAQQSQ
#Ion_Source LC-ESI
#Instrument qTof
#Compound_Source NIH Natural Product Library
#PI Dorrestein
#Data_Collector VVP/LMS
#Scan -1
#Precursor_MZ 355.118
#ExactMass 354.11
#Charge 1
#CAS_Number N/A
#Pubmed_ID N/A
#Smiles CC(=CCc1cc(ccc1O)c2oc3cc(O)cc(O)c3c(=O)c2O)C
#INCHI_AUX N/A
#Library_Class 1
#SpectrumID CCMSLIB00000079607
#IonMode Positive
#UpdateWorkflowName UPDATE-SINGLE-ANNOTATED-GOLD
#LibraryQualityString Gold
#TaskID b1d8e8f6646f4e71acdff9ca3d919d08
##Scan# 2347
#SpectrumFile p1-G08_GG8_01_17952.mzXML
#LibraryName NIH_Natural_Products_Library.mgf
#MQScore -1
#Organism NIH_Natural_Products_Library
#TIC_Query 0
#RT_Query -1
#MZErrorPPM -1
#SharedPeaks 0
#MassDiff 0
#LibMZ -1
#SpecMZ 355.118
#SpecCharge 0
#internalFilename spec-00000.mgf

>collision 10
96.453819 88.0
96.876503 140.0
98.051514 164.0
98.768227 192.0
98.859238 116.0
102.044838 180.0
102.312416 160.0
102.889 184.0
103.874535 220.0
104.528732 160.0
105.033356 424.0
105.056435 248.0
105.142136 136.0
107.623985 260.0
108.012512 156.0
108.381027 152.0
109.03054 236.0
109.723694 160.0
109.761223 52.0
110.049164 48.0
110.630371 196.0
110.693184 48.0
110.971863 256.0
111.006546 252.0
111.133369 92.0
111.835266 136.0
112.239754 180.0
112.300911 164.0
112.535149 160.0
112.871109 104.0
113.476669 144.0
114.677742 188.0
115.18557 108.0
116.767395 184.0
116.928757 44.0
117.067253 156.0
118.038322 156.0
119.046692 156.0
119.082169 136.0
119.612701 36.0
119.715034 192.0
120.059357 156.0
120.155327 192.0
120.268806 148.0
121.025597 204.0
121.555664 52.0
121.986137 128.0
122.074089 108.0
122.884674 120.0
122.911148 148.0
124.112236 124.0
124.767204 116.0
126.028687 132.0
126.484909 176.0
126.912811 124.0
127.667305 104.0
127.932808 168.0
128.058899 140.0
128.360886 244.0
129.069916 156.0
130.025894 200.0
131.047882 188.0
131.601151 136.0
131.911865 172.0
132.049057 180.0
133.029755 172.0
133.055008 108.0
133.673294 116.0
135.041809 272.0
135.926315 172.0
136.044693 180.0
137.016785 168.0
137.760986 148.0
138.071854 124.0
138.111618 140.0
139.051163 172.0
139.560928 188.0
141.068161 472.0
141.602188 152.0
141.652878 148.0
141.924133 112.0
143.148209 112.0
143.293503 88.0
144.048813 136.0
144.073639 100.0
144.592514 140.0
144.740936 48.0
145.029709 240.0
145.065262 420.0
145.371384 156.0
146.034454 168.0
146.063324 112.0
147.039139 140.0
148.027893 96.0
148.158691 220.0
148.294388 220.0
148.447128 140.0
149.080719 156.0
150.044601 160.0
150.713348 72.0
152.005798 132.0
152.062683 192.0
152.561325 216.0
152.691635 152.0
152.733444 52.0
152.88353 100.0
153.018311 2076.0
153.065689 180.0
154.018539 304.0
154.549179 128.0
155.048523 308.0
155.77887 164.0
155.898132 272.0
156.046494 64.0
156.754181 240.0
157.064346 584.0
157.089813 220.0
157.872528 236.0
158.062653 156.0
158.117706 236.0
159.04184 396.0
159.077103 228.0
159.846771 184.0
160.046417 384.0
161.024078 180.0
161.053314 212.0
161.380386 28.0
161.640915 260.0
162.157532 144.0
163.043274 240.0
163.086487 224.0
163.485779 44.0
163.804031 168.0
164.041031 116.0
164.102203 148.0
164.645737 196.0
165.015976 460.0
165.085281 132.0
165.886673 104.0
166.027695 176.0
166.607788 152.0
166.625778 84.0
167.139999 84.0
167.6138 136.0
169.063431 276.0
171.038986 120.0
171.074036 88.0
171.524689 44.0
171.649841 152.0
171.75676 168.0
171.91069 184.0
171.968109 192.0
172.051636 164.0
173.020386 392.0
173.060516 168.0
173.430206 184.0
173.545563 144.0
174.065094 128.0
174.143875 172.0
175.030136 208.0
175.069 168.0
175.652115 100.0
176.034805 96.0
176.082336 140.0
177.068832 176.0
178.4487 116.0
178.746613 196.0
179.027771 116.0
179.540176 172.0
179.695175 148.0
180.055527 180.0
180.64624 128.0
181.071823 268.0
182.026535 140.0
182.064117 156.0
183.031387 144.0
183.077988 160.0
183.943466 176.0
184.051453 172.0
184.440475 200.0
184.537796 144.0
185.052429 152.0
185.089783 136.0
185.119568 216.0
185.490738 172.0
186.451569 108.0
186.908432 144.0
187.03923 780.0
187.073807 164.0
187.109833 48.0
187.488464 56.0
188.035385 180.0
188.066666 44.0
188.421661 156.0
188.53096 92.0
188.845367 292.0
189.053284 144.0
189.951965 60.0
190.056213 40.0
190.294998 124.0
191.031525 220.0
191.353516 164.0
192.036926 160.0
193.01445 192.0
193.404617 200.0
193.659348 44.0
193.720291 48.0
193.922562 148.0
194.020859 200.0
195.733887 168.0
196.363693 132.0
197.058075 868.0
198.064087 124.0
199.033432 48.0
199.935791 140.0
200.044785 264.0
200.239853 84.0
201.052322 920.0
201.57988 108.0
202.043579 136.0
202.28978 160.0
202.371887 72.0
202.457077 224.0
203.036942 396.0
203.069 92.0
203.111542 196.0
203.798569 72.0
204.313171 180.0
207.039566 192.0
207.145065 204.0
208.395905 244.0
210.039719 172.0
211.045486 184.0
213.052521 344.0
213.369995 140.0
213.655014 52.0
214.059586 192.0
215.068222 1156.0
215.851273 56.0
216.041382 120.0
216.073563 284.0
216.790939 68.0
217.057693 124.0
217.081161 48.0
217.491898 172.0
217.738525 160.0
217.788452 152.0
218.361588 180.0
219.070969 188.0
221.428085 128.0
222.733139 116.0
223.205673 228.0
223.294891 84.0
224.045609 136.0
224.891876 192.0
225.053986 284.0
225.797165 164.0
226.056915 140.0
227.037018 164.0
227.070007 148.0
227.62265 132.0
228.036774 156.0
228.945358 144.0
229.048553 1416.0
229.098969 36.0
229.436493 80.0
229.997574 56.0
230.041733 160.0
231.067017 184.0
231.306427 100.0
231.657684 104.0
232.015289 128.0
233.418015 164.0
235.279648 40.0
238.213409 144.0
239.071243 140.0
240.05394 168.0
240.205063 148.0
240.742096 248.0
240.810043 240.0
241.042313 396.0
241.075745 152.0
241.957275 116.0
242.057419 356.0
242.248367 100.0
242.924164 76.0
243.06369 3524.0
243.10257 176.0
243.153778 64.0
243.175491 136.0
243.274826 52.0
243.402115 60.0
244.02977 68.0
244.069458 632.0
244.272339 88.0
244.393677 48.0
244.901108 48.0
245.056976 328.0
245.265656 156.0
246.050446 296.0
247.05809 64.0
247.089371 212.0
248.075867 232.0
248.662415 212.0
250.558548 128.0
250.586914 164.0
250.615265 164.0
250.70665 100.0
252.085693 168.0
252.550446 152.0
253.050003 356.0
253.132294 136.0
253.289871 172.0
253.5224 188.0
253.804535 52.0
254.049911 252.0
255.061722 116.0
255.427399 84.0
255.732864 108.0
256.037689 420.0
256.153168 112.0
257.043304 140.0
257.665283 64.0
258.043823 288.0
258.832733 152.0
258.899994 88.0
259.048309 280.0
259.242767 180.0
260.025269 120.0
262.350861 76.0
264.17868 36.0
266.058289 148.0
266.971344 140.0
268.678101 160.0
268.710724 172.0
269.017517 120.0
269.046875 484.0
269.664246 152.0
269.997742 188.0
270.047791 380.0
270.786469 104.0
271.058044 4960.0
271.196014 160.0
271.635406 48.0
271.789612 32.0
271.930725 84.0
272.063293 1036.0
272.518524 52.0
272.659485 196.0
272.985291 88.0
273.059204 180.0
273.097107 160.0
273.396484 216.0
273.686188 96.0
273.831085 76.0
274.552826 80.0
275.268921 64.0
275.632294 168.0
276.111633 152.0
276.707245 176.0
277.562103 156.0
278.434845 136.0
279.898071 100.0
280.074585 180.0
280.167847 260.0
281.048492 464.0
281.104767 56.0
281.598846 168.0
282.048798 172.0
282.083344 132.0
282.146851 120.0
283.026794 160.0
283.054443 140.0
283.150696 32.0
283.810852 104.0
284.043549 208.0
284.099304 120.0
284.250275 96.0
284.61615 184.0
285.031891 172.0
285.079712 156.0
285.12677 156.0
285.210785 72.0
285.395691 44.0
285.432678 56.0
285.60083 60.0
286.043854 396.0
286.499603 124.0
286.624268 144.0
286.839966 44.0
286.887146 104.0
286.941101 84.0
287.010437 120.0
287.053772 9256.0
287.136841 168.0
287.20752 200.0
287.324188 68.0
287.433533 68.0
287.460541 72.0
287.885895 60.0
287.993958 72.0
288.055145 2176.0
288.247345 120.0
288.565063 212.0
288.937073 108.0
289.066803 132.0
289.371582 112.0
289.678467 156.0
289.929199 88.0
290.064789 72.0
290.088501 48.0
290.196991 96.0
290.359772 48.0
290.573456 60.0
291.238831 40.0
292.415222 100.0
293.000916 92.0
295.052032 148.0
296.393707 56.0
296.86676 160.0
297.033142 132.0
297.405396 48.0
298.047607 148.0
298.260681 112.0
298.3638 172.0
298.521973 48.0
298.718018 120.0
298.888092 92.0
298.947998 104.0
298.996704 68.0
299.053223 10788.0
299.144714 56.0
299.170776 48.0
299.230774 48.0
299.254883 196.0
299.437378 64.0
299.489044 84.0
299.513153 80.0
299.58551 72.0
299.719879 56.0
299.919739 76.0
299.974915 128.0
300.057465 2200.0
300.112793 72.0
300.216248 56.0
300.471497 84.0
300.585358 76.0
300.730316 104.0
300.951233 52.0
301.027222 204.0
301.058044 288.0
301.165344 36.0
301.303528 80.0
301.507416 40.0
302.061951 72.0
302.233582 112.0
303.400787 40.0
307.519348 52.0
309.746674 68.0
311.047119 796.0
312.059143 128.0
312.091003 100.0
313.064697 252.0
313.077606 160.0
313.087708 212.0
314.07019 116.0
321.078644 148.0
323.089661 148.0
325.071075 152.0
326.756226 136.0
328.38446 128.0
330.03479 92.0
335.15271 120.0
336.958771 48.0
338.960175 140.0
339.095795 144.0
339.194733 160.0
340.045685 44.0
345.355011 88.0
350.046051 120.0
355.117462 2148.0
355.181213 188.0
355.241211 80.0
355.867981 52.0
356.118317 708.0
358.146912 68.0
358.463379 72.0
374.553406 40.0
383.393127 20.0
417.297119 116.0
417.415039 64.0
429.29071 104.0
478.176331 104.0
485.801178 88.0
492.977997 56.0
497.842133 48.0
503.779358 72.0
518.524902 60.0
572.935486 60.0
574.608826 104.0
581.55719 80.0
587.668823 48.0
592.261414 124.0
656.831726 72.0
680.240723 56.0
762.360535 76.0
765.182312 52.0
819.159302 56.0
840.308289 68.0
849.605469 20.0
894.464172 60.0
960.788696 96.0
975.602295 60.0
993.663696 96.0
1002.309082 108.0
1008.158752 136.0
1023.618286 232.0
1033.953735 60.0
1034.523315 80.0
1087.886108 152.0
1114.748413 108.0
1161.865479 80.0
1166.401733 104.0
1275.917847 124.0
1287.303833 116.0
1294.598022 64.0
1301.130127 152.0
1320.586426 204.0
1323.749023 160.0
1341.848755 136.0
1360.379761 100.0
1374.141968 132.0
1379.7771 20.0
1394.387329 140.0
1395.08606 104.0
1401.918701 88.0
1416.218384 212.0
1416.945068 116.0
1468.851929 68.0
1475.021729 184.0
1481.480347 184.0
1488.19873 44.0
1489.796143 148.0
1490.041992 156.0
1496.848999 92.0
