>compound MLS001056800-01!Mibefradil dihydrochloride hydrate
>formula C29H38FN3O3
>ionization [M+H]+
>parentmass 496.296814
#inchi InChI=1S/C29H38FN3O3/c1-20(2)28-23-12-11-22(30)18-21(23)13-14-29(28,36-27(34)19-35-4)15-17-33(3)16-7-10-26-31-24-8-5-6-9-25(24)32-26/h5-6,8-9,11-12,18,20,28H,7,10,13-17,19H2,1-4H3,(H,31,32)/t28-,29-/m0/s1
#inchikey HBNPJJILLOYFJU
#origInchi InChI=1S/C29H38FN3O3.ClH.H2O/c1-20(2)28-23-12-11-22(30)18-21(23)13-14-29(28,36-27(34)19-35-4)15-17-33(3)16-7-10-26-31-24-8-5-6-9-25(24)32-26;;/h5-6,8-9,11-12,18,20,28H,7,10,13-17,19H2,1-4H3,(H,31,32);1H;1H2/t28-,29-;;/m0../s1
#Ion_Source LC-ESI
#Instrument qTof
#Compound_Source NIH Pharmacologically Active Library
#PI Dorrestein
#Data_Collector VP/LMS
#Scan -1
#Precursor_MZ 496.299
#ExactMass 495.29
#Charge 1
#CAS_Number N/A
#Pubmed_ID N/A
#Smiles COCC(=O)O[C@]1(CCN(C)CCCc2nc3ccccc3[nH]2)CCc4cc(F)ccc4[C@@H]1C(C)C.O.Cl
#INCHI_AUX N/A
#Library_Class 1
#SpectrumID CCMSLIB00000085917
#IonMode Positive
#UpdateWorkflowName UPDATE-SINGLE-ANNOTATED-GOLD
#LibraryQualityString Gold
#TaskID d252d724072548979f1f6f1ced849daf
##Scan# 1674
#SpectrumFile p4-G11_GG11_01_18407.mzXML
#LibraryName Pharm_Active_Library.mgf
#MQScore -1
#Organism Pharm_Active_Library
#TIC_Query 0
#RT_Query -1
#MZErrorPPM -1
#SharedPeaks 0
#MassDiff 0
#LibMZ -1
#SpecMZ 496.299
#SpecCharge 0
#internalFilename spec-00000.mgf

>collision 10
44.911297 224.0
44.945984 140.0
44.960663 172.0
44.982018 116.0
45.004959 196.0
45.067493 44.0
45.094223 196.0
45.123631 200.0
45.134331 108.0
45.185158 172.0
45.231998 220.0
45.259438 264.0
45.269485 120.0
45.286526 244.0
45.304314 152.0
45.31369 120.0
45.349415 176.0
45.371323 168.0
45.38607 184.0
45.433014 156.0
45.524288 180.0
45.556526 72.0
45.568619 188.0
45.595932 208.0
45.611622 140.0
45.629101 108.0
45.661762 128.0
45.677513 88.0
45.695004 224.0
45.721916 140.0
45.771729 156.0
45.781155 180.0
45.80405 108.0
45.825607 332.0
45.856602 48.0
45.886261 184.0
45.938694 164.0
45.953144 204.0
45.97934 204.0
45.996887 144.0
46.017136 52.0
46.036041 128.0
46.050896 56.0
46.061703 124.0
46.079594 364.0
46.104942 136.0
46.134678 116.0
46.234776 180.0
46.265907 140.0
46.286217 172.0
46.298611 160.0
46.309849 128.0
46.353951 124.0
46.429871 32.0
46.45882 152.0
46.497707 212.0
46.51535 260.0
46.537075 136.0
46.556084 132.0
46.577641 92.0
46.600914 140.0
46.611511 200.0
46.638966 156.0
46.667088 204.0
46.685192 180.0
46.708996 124.0
46.742329 164.0
46.754826 176.0
46.776867 212.0
46.840359 188.0
46.958866 208.0
46.98077 180.0
46.997143 52.0
47.013519 204.0
47.035358 220.0
47.04628 256.0
47.070858 120.0
47.177429 120.0
47.192471 156.0
47.241707 228.0
47.259495 148.0
47.271599 140.0
47.308956 144.0
47.351215 152.0
47.367725 152.0
47.414238 152.0
47.460674 188.0
47.480049 140.0
47.537666 260.0
47.558254 148.0
47.573357 148.0
47.607681 80.0
47.635155 92.0
47.650673 352.0
47.673626 164.0
47.701115 60.0
47.788639 288.0
47.84832 160.0
47.862087 120.0
47.879303 184.0
47.955769 212.0
47.992992 176.0
48.006783 100.0
48.020573 136.0
48.049545 148.0
48.104382 212.0
48.117172 100.0
48.135124 80.0
48.185692 164.0
48.200047 92.0
48.216633 144.0
48.230453 156.0
48.242897 48.0
48.287144 108.0
48.307892 204.0
48.323273 172.0
48.44804 120.0
48.487904 224.0
48.51424 164.0
48.579418 156.0
48.600231 280.0
48.650196 164.0
48.72641 128.0
48.754375 240.0
48.766121 136.0
48.800247 84.0
48.818325 172.0
48.853168 160.0
48.892979 224.0
48.936604 132.0
48.947746 140.0
48.965851 188.0
48.999283 156.0
49.031334 172.0
49.046665 172.0
49.092674 216.0
49.102436 184.0
49.122589 144.0
49.149868 188.0
49.169407 136.0
49.190346 104.0
49.258701 160.0
49.311474 184.0
49.316994 132.0
49.361572 240.0
49.380383 152.0
49.397167 176.0
49.414051 176.0
49.425148 240.0
49.44334 140.0
49.457336 144.0
49.49794 188.0
49.528751 212.0
49.546963 120.0
49.584652 116.0
49.692776 168.0
49.746861 124.0
49.768574 84.0
49.784019 184.0
49.823349 76.0
49.8657 352.0
49.885185 128.0
49.899246 160.0
49.928776 120.0
49.966755 324.0
49.985046 60.0
50.082191 196.0
50.121639 264.0
50.131504 172.0
50.148418 192.0
50.204815 168.0
50.22131 224.0
50.235031 208.0
50.250492 208.0
50.290878 152.0
50.336056 140.0
50.375603 168.0
50.388321 148.0
50.440609 88.0
50.455494 108.0
50.474541 248.0
50.511314 136.0
50.595634 168.0
50.616047 48.0
50.659958 156.0
50.670387 176.0
50.67979 212.0
50.713802 184.0
50.763428 108.0
50.807396 144.0
50.845711 228.0
50.884037 108.0
50.905338 236.0
50.938004 144.0
50.976368 32.0
50.993515 248.0
51.014809 180.0
51.033226 132.0
51.052467 204.0
51.148464 192.0
51.17934 280.0
51.21928 164.0
51.248814 160.0
51.274925 128.0
51.293762 156.0
51.304874 136.0
51.342243 172.0
51.365063 160.0
51.375641 116.0
51.386463 228.0
51.417858 136.0
51.43784 256.0
51.46925 184.0
51.549145 164.0
51.577831 92.0
51.686527 132.0
51.697975 180.0
51.72374 108.0
51.756668 156.0
51.788177 160.0
51.81728 152.0
51.845486 392.0
51.866985 168.0
51.879887 184.0
51.903465 220.0
51.975986 176.0
52.014736 196.0
52.027657 140.0
52.102341 124.0
52.173977 216.0
52.270569 132.0
52.326706 64.0
52.37711 288.0
52.408714 124.0
52.433304 232.0
52.453484 112.0
52.485203 88.0
52.515488 180.0
52.527042 192.0
52.591351 152.0
52.613617 220.0
52.633831 388.0
52.662716 168.0
52.68005 180.0
52.734165 204.0
52.75375 176.0
52.787949 136.0
52.828953 56.0
52.856441 136.0
52.87381 164.0
52.895519 168.0
52.910698 176.0
52.947647 160.0
52.96236 152.0
52.991104 192.0
53.073727 172.0
53.108532 100.0
53.133972 340.0
53.168018 180.0
53.197926 172.0
53.21447 192.0
53.281281 140.0
53.305984 88.0
53.324295 80.0
53.352661 176.0
53.406303 252.0
53.420849 184.0
53.468868 204.0
53.528557 184.0
53.575165 212.0
53.604382 152.0
53.620724 148.0
53.696438 164.0
53.724461 128.0
53.751907 188.0
53.793919 212.0
53.830517 164.0
53.886761 160.0
53.923923 200.0
53.950233 140.0
53.973629 124.0
54.017849 204.0
54.075142 72.0
54.100166 372.0
54.127277 136.0
54.143486 116.0
54.207748 184.0
54.241756 176.0
54.254749 188.0
54.31781 144.0
54.358891 64.0
54.371506 188.0
54.415195 244.0
54.433968 140.0
54.46349 132.0
54.489574 144.0
54.504269 216.0
54.534264 284.0
54.564533 140.0
54.576294 224.0
54.616005 160.0
54.635937 216.0
54.664669 104.0
54.717846 196.0
54.730797 152.0
54.74258 188.0
54.77676 212.0
54.804447 168.0
54.830975 132.0
54.853085 188.0
54.885521 324.0
54.95042 160.0
54.987312 136.0
55.077381 116.0
55.12252 188.0
55.146828 232.0
55.160133 116.0
55.177872 168.0
55.191181 128.0
55.207447 156.0
55.23851 36.0
55.25774 112.0
55.322636 184.0
55.3536 200.0
55.390984 184.0
55.436913 72.0
55.452477 152.0
55.463257 160.0
55.493244 40.0
55.50362 156.0
55.528831 156.0
55.554169 152.0
55.580757 256.0
55.595135 240.0
55.69289 140.0
55.703671 188.0
55.730732 140.0
55.741131 192.0
55.775314 136.0
55.818432 160.0
55.843716 128.0
55.855614 212.0
55.866028 144.0
55.886196 180.0
55.919598 140.0
55.973194 176.0
55.995533 144.0
56.035751 148.0
56.099838 228.0
56.130913 176.0
56.146065 104.0
56.16098 180.0
56.184845 96.0
56.199768 148.0
56.246628 240.0
56.290825 32.0
56.324448 164.0
56.337128 188.0
56.375034 140.0
56.434273 204.0
56.479141 152.0
56.49432 212.0
56.541985 132.0
56.609352 112.0
56.657284 164.0
56.675262 156.0
56.700741 216.0
56.71627 420.0
56.756207 152.0
56.775066 188.0
56.828205 160.0
56.844711 92.0
56.861423 148.0
56.894947 128.0
56.946804 156.0
56.993374 128.0
57.017418 144.0
57.048233 176.0
57.067421 192.0
57.088081 140.0
57.098606 208.0
57.139221 136.0
57.205441 152.0
57.255131 160.0
57.289776 148.0
57.322926 104.0
57.378696 56.0
57.423935 204.0
57.449577 68.0
57.499374 148.0
57.520508 88.0
57.540131 92.0
57.614136 152.0
57.641335 128.0
57.687191 200.0
57.715405 136.0
57.771366 140.0
57.784981 124.0
57.806168 88.0
57.817837 228.0
57.840977 172.0
57.968868 168.0
57.992451 168.0
58.072815 112.0
58.100117 108.0
58.110741 64.0
58.145641 188.0
58.163643 312.0
58.190483 200.0
58.196529 92.0
58.247375 104.0
58.259529 172.0
58.283836 152.0
58.304276 232.0
58.367443 128.0
58.387211 152.0
58.413071 212.0
58.440456 180.0
58.498291 156.0
58.53714 240.0
58.609474 124.0
58.641281 156.0
58.664341 176.0
58.707035 104.0
58.734489 204.0
58.790943 140.0
58.810783 204.0
58.861164 204.0
58.88102 212.0
58.931431 140.0
58.945648 144.0
58.955414 144.0
59.004745 120.0
59.020607 164.0
59.037098 208.0
59.064438 140.0
59.102463 136.0
59.140945 92.0
59.153191 28.0
59.180752 132.0
59.196064 108.0
59.206783 192.0
59.225163 72.0
59.315571 188.0
59.347767 204.0
59.403278 164.0
59.441864 184.0
59.46743 64.0
59.508877 108.0
59.520424 208.0
59.548805 112.0
59.576256 124.0
59.6287 208.0
59.76403 52.0
59.790192 136.0
59.830215 200.0
59.856388 36.0
59.907219 132.0
59.942654 132.0
59.953442 172.0
59.970398 180.0
60.041321 32.0
60.052116 104.0
60.101486 212.0
60.184837 236.0
60.21727 208.0
60.274288 176.0
60.300701 136.0
60.316158 124.0
60.337368 156.0
60.393475 156.0
60.403179 132.0
60.416679 148.0
60.446075 136.0
60.500252 36.0
60.512638 224.0
60.531219 180.0
60.543606 156.0
60.614868 172.0
60.683071 188.0
60.697025 140.0
60.7607 240.0
60.928299 124.0
60.948498 184.0
60.966125 336.0
60.990459 84.0
61.040211 136.0
61.057316 164.0
61.069241 72.0
61.080647 176.0
61.100872 232.0
61.132103 188.0
61.208271 164.0
61.223843 136.0
61.234745 420.0
61.25967 236.0
61.290829 164.0
61.331352 168.0
61.417114 156.0
61.459236 120.0
61.501068 184.0
61.54821 168.0
61.581005 56.0
61.599331 184.0
61.62006 140.0
61.643497 152.0
61.658653 132.0
61.682575 56.0
61.700417 164.0
61.792046 148.0
61.837757 76.0
61.901619 172.0
61.976807 52.0
62.003448 196.0
62.028526 152.0
62.100658 160.0
62.194805 88.0
62.211124 188.0
62.237194 48.0
62.252895 136.0
62.400604 136.0
62.449352 148.0
62.485535 148.0
62.49905 160.0
62.515434 192.0
62.534615 208.0
62.572102 56.0
62.611469 156.0
62.630367 64.0
62.669754 124.0
62.759598 160.0
62.787987 188.0
62.809746 176.0
62.824265 112.0
62.835308 136.0
62.879494 128.0
62.941063 276.0
63.020042 172.0
63.046906 60.0
63.060841 224.0
63.116901 188.0
63.144928 160.0
63.157581 132.0
63.255692 112.0
63.28894 160.0
63.32378 60.0
63.37606 84.0
63.41251 208.0
63.452141 180.0
63.462631 212.0
63.474339 168.0
63.505386 180.0
63.533024 32.0
63.556824 136.0
63.629837 156.0
63.666359 188.0
63.68383 288.0
63.701305 140.0
63.718781 136.0
63.787117 140.0
63.798244 92.0
63.845028 180.0
63.890488 160.0
63.925491 176.0
63.944592 184.0
63.957325 152.0
64.016235 200.0
64.084732 172.0
64.100662 264.0
64.130943 168.0
64.155388 360.0
64.218643 136.0
64.271286 148.0
64.293633 180.0
64.327148 196.0
64.343803 176.0
64.370979 228.0
64.437347 160.0
64.473969 100.0
64.510864 132.0
64.584419 116.0
64.595619 132.0
64.618019 128.0
64.637215 124.0
64.650017 144.0
64.731667 212.0
64.764915 232.0
64.840607 140.0
64.853424 184.0
64.866249 168.0
64.895981 132.0
64.915955 216.0
64.929672 196.0
64.944824 196.0
64.973701 204.0
64.995712 184.0
65.01088 140.0
65.034683 208.0
65.137451 140.0
65.150299 32.0
65.163155 172.0
65.1744 164.0
65.188866 228.0
65.217796 120.0
65.267632 128.0
65.282104 168.0
65.312874 152.0
65.351273 188.0
65.378632 136.0
65.390251 164.0
65.420303 256.0
65.486504 152.0
65.523552 108.0
65.545143 188.0
65.574234 208.0
65.608833 180.0
65.647675 192.0
65.66864 192.0
65.686386 176.0
65.757378 108.0
65.775581 104.0
65.839722 144.0
65.857491 116.0
65.923645 236.0
65.92572 308.0
65.938278 152.0
66.017494 200.0
66.030434 72.0
66.043373 156.0
66.092834 140.0
66.13884 140.0
66.189034 160.0
66.20443 136.0
66.258682 168.0
66.291084 136.0
66.301735 144.0
66.323502 116.0
66.354301 60.0
66.365654 140.0
66.382072 188.0
66.399712 160.0
66.425659 144.0
66.449814 140.0
66.466225 140.0
66.502754 180.0
66.600975 132.0
66.637268 140.0
66.650185 228.0
66.667587 128.0
66.703346 168.0
66.729362 160.0
66.799294 200.0
66.866005 112.0
66.890419 184.0
66.945778 152.0
66.957176 144.0
66.983238 156.0
67.008392 128.0
67.023972 208.0
67.064713 136.0
67.17234 204.0
67.187759 124.0
67.198441 300.0
67.209862 172.0
67.223701 192.0
67.235977 64.0
67.284943 172.0
67.331757 180.0
67.373138 172.0
67.405792 200.0
67.477737 124.0
67.508286 188.0
67.536331 188.0
67.551331 168.0
67.590599 168.0
67.711746 108.0
67.75106 176.0
67.787102 196.0
67.814964 200.0
67.833755 156.0
67.903503 184.0
67.944519 176.0
67.964203 132.0
68.003593 36.0
68.062881 176.0
68.075829 128.0
68.113609 148.0
68.14975 160.0
68.168129 264.0
68.193771 208.0
68.218964 180.0
68.268799 124.0
68.381485 224.0
68.498535 80.0
68.567741 68.0
68.587524 44.0
68.604004 148.0
68.629196 188.0
68.664085 192.0
68.698006 172.0
68.749161 236.0
68.812202 228.0
68.86412 140.0
68.885735 196.0
68.920898 160.0
68.932465 112.0
68.95726 172.0
68.972198 108.0
69.026695 132.0
69.091202 128.0
69.18885 104.0
69.22821 176.0
69.278282 164.0
69.294846 312.0
69.336273 52.0
69.349533 112.0
69.404243 116.0
69.42746 124.0
69.457314 128.0
69.468925 156.0
69.50045 224.0
69.522026 124.0
69.55024 120.0
69.585098 180.0
69.608147 164.0
69.638245 116.0
69.676453 80.0
69.715858 112.0
69.721916 176.0
69.751236 260.0
69.766968 192.0
69.792801 172.0
69.804436 136.0
69.895927 76.0
69.909241 160.0
69.934212 132.0
69.960846 156.0
69.984154 136.0
70.000801 144.0
70.04744 148.0
70.094093 112.0
70.142426 84.0
70.168861 168.0
70.216927 176.0
70.342606 196.0
70.401039 152.0
70.423447 228.0
70.448753 192.0
70.476212 112.0
70.488739 176.0
70.523148 144.0
70.553101 184.0
70.569817 96.0
70.599831 296.0
70.656792 56.0
70.688652 200.0
70.703644 188.0
70.720383 172.0
70.738792 136.0
70.773956 128.0
70.884308 172.0
70.903687 136.0
70.918533 228.0
70.949593 92.0
70.981888 132.0
71.038765 52.0
71.055542 128.0
71.08239 204.0
71.11763 160.0
71.156242 124.0
71.201584 200.0
71.251389 160.0
71.290627 192.0
71.306641 196.0
71.347893 116.0
71.366272 60.0
71.406631 108.0
71.425133 100.0
71.463829 124.0
71.536201 148.0
71.566505 184.0
71.592308 108.0
71.604507 148.0
71.637238 96.0
71.684418 148.0
71.756897 148.0
71.770386 152.0
71.861473 216.0
71.896912 156.0
71.934044 148.0
71.988075 200.0
72.011345 220.0
72.030296 184.0
72.067467 164.0
72.091202 168.0
72.163811 252.0
72.192558 184.0
72.241608 124.0
72.272064 184.0
72.304214 200.0
72.321144 164.0
72.400719 64.0
72.417656 212.0
72.429924 188.0
72.443069 112.0
72.466782 76.0
72.509148 192.0
72.560005 172.0
72.582283 292.0
72.60302 208.0
72.634621 180.0
72.67704 236.0
72.758507 120.0
72.77269 136.0
72.804359 136.0
72.868904 136.0
72.89949 260.0
72.91819 168.0
72.963707 164.0
73.008293 156.0
73.055649 200.0
73.108765 144.0
73.141006 148.0
73.217628 152.0
73.290329 248.0
73.321693 204.0
73.346817 152.0
73.41021 164.0
73.46138 204.0
73.531334 216.0
73.5467 132.0
73.611427 140.0
73.630638 124.0
73.650856 124.0
73.671356 168.0
73.761932 200.0
73.782753 180.0
73.809807 184.0
73.832718 140.0
73.903885 156.0
73.924416 172.0
73.940285 148.0
73.955223 40.0
74.08194 124.0
74.164192 160.0
74.212196 52.0
74.256508 172.0
74.272224 152.0
74.320534 152.0
74.3666 132.0
74.385475 80.0
74.411232 160.0
74.438705 140.0
74.490234 176.0
74.502258 188.0
74.553879 264.0
74.591621 88.0
74.610527 164.0
74.627823 200.0
74.660439 160.0
74.679909 196.0
74.7034 176.0
74.741707 120.0
74.775665 124.0
74.804932 148.0
74.820427 140.0
74.900871 192.0
74.985458 204.0
75.044662 188.0
75.073723 132.0
75.087517 128.0
75.104767 188.0
75.125648 152.0
75.165154 160.0
75.177231 128.0
75.19104 132.0
75.218658 164.0
75.253906 184.0
75.28772 220.0
75.320541 148.0
75.370644 108.0
75.451881 204.0
75.504219 192.0
75.560837 132.0
75.607559 204.0
75.640488 156.0
75.729202 188.0
75.74781 148.0
75.775528 112.0
75.799789 160.0
75.905533 224.0
75.928528 260.0
75.941956 200.0
75.957565 200.0
76.02523 80.0
76.070358 116.0
76.101608 208.0
76.127655 176.0
76.185844 148.0
76.198875 140.0
76.238846 100.0
76.277084 112.0
76.315331 176.0
76.327499 108.0
76.366318 188.0
76.398811 92.0
76.414391 176.0
76.43013 196.0
76.445793 44.0
76.539795 188.0
76.595528 96.0
76.619751 168.0
76.712288 164.0
76.734947 252.0
76.749771 240.0
76.783318 196.0
76.80471 156.0
76.825638 204.0
76.852226 184.0
76.869263 232.0
76.884109 152.0
76.897186 128.0
76.984245 164.0
77.032433 132.0
77.046539 220.0
77.070541 196.0
77.108521 176.0
77.125999 200.0
77.144638 200.0
77.164459 112.0
77.20118 116.0
77.218674 80.0
77.232033 232.0
77.262405 232.0
77.278152 176.0
77.301872 136.0
77.337654 244.0
77.389084 276.0
77.447968 184.0
77.502785 152.0
77.525055 56.0
77.554276 164.0
77.579391 216.0
77.62323 180.0
77.675842 116.0
77.717949 140.0
77.8022 168.0
77.830292 108.0
77.865326 156.0
77.928658 88.0
77.96907 184.0
78.044525 156.0
78.061752 156.0
78.102699 136.0
78.125572 156.0
78.268135 196.0
78.289268 160.0
78.310402 156.0
78.336823 372.0
78.384399 156.0
78.440796 188.0
78.454903 124.0
78.472527 148.0
78.508438 184.0
78.520142 140.0
78.557182 140.0
78.573067 32.0
78.618942 160.0
78.640121 112.0
78.687782 192.0
78.7258 152.0
78.748962 208.0
78.76902 104.0
78.784149 164.0
78.799057 112.0
78.886566 240.0
78.921013 156.0
78.967308 160.0
79.004333 448.0
79.039528 148.0
79.066078 192.0
79.106789 156.0
79.154594 196.0
79.178978 172.0
79.193558 188.0
79.216583 88.0
79.231659 168.0
79.244926 228.0
79.259102 132.0
79.278595 124.0
79.324684 128.0
79.351273 60.0
79.379646 84.0
79.411568 136.0
79.427124 208.0
79.465866 192.0
79.546425 124.0
79.578384 180.0
79.615677 204.0
79.633438 224.0
79.648445 172.0
79.698509 172.0
79.735474 208.0
79.800484 56.0
79.814705 148.0
79.848495 176.0
79.875175 124.0
79.892967 92.0
79.907204 88.0
79.949905 48.0
79.983681 296.0
80.022888 132.0
80.062065 168.0
80.095909 148.0
80.165398 172.0
80.215302 184.0
80.25631 124.0
80.300888 160.0
80.340134 68.0
80.356194 104.0
80.411514 236.0
80.448997 216.0
80.477562 156.0
80.536499 192.0
80.554359 144.0
80.615112 140.0
80.666946 160.0
80.744461 200.0
80.777817 124.0
80.793922 168.0
80.808235 172.0
80.840439 100.0
80.863441 160.0
80.912041 188.0
80.928154 68.0
80.940689 156.0
81.021294 76.0
81.088783 192.0
81.130898 152.0
81.155716 148.0
81.171371 208.0
81.254364 196.0
81.274719 196.0
81.306404 136.0
81.334785 128.0
81.348602 212.0
81.423103 104.0
81.450043 168.0
81.495827 132.0
81.521446 204.0
81.577629 164.0
81.602798 60.0
81.65593 180.0
81.687332 256.0
81.732445 156.0
81.751427 128.0
81.768303 92.0
81.872726 212.0
81.896141 172.0
81.924957 136.0
81.94838 212.0
82.009659 168.0
82.112427 64.0
82.13768 148.0
82.162247 156.0
82.211655 224.0
82.224617 380.0
82.262199 56.0
82.310654 172.0
82.352486 196.0
82.365685 168.0
82.381386 140.0
82.417519 136.0
82.520889 288.0
82.549484 188.0
82.567566 68.0
82.605553 152.0
82.621216 216.0
82.641731 280.0
82.688286 332.0
82.719559 160.0
82.735847 176.0
82.757996 208.0
82.7845 120.0
82.810097 84.0
82.847824 184.0
82.882561 220.0
82.916992 172.0
83.0009 156.0
83.076561 148.0
83.094704 188.0
83.109222 204.0
83.165482 216.0
83.247185 156.0
83.283508 340.0
83.296219 176.0
83.345276 168.0
83.361633 60.0
83.381622 120.0
83.407066 152.0
83.456154 164.0
83.493271 204.0
83.521629 168.0
83.5755 208.0
83.594345 128.0
83.632622 144.0
83.672676 212.0
83.714554 64.0
83.732765 164.0
83.757736 124.0
83.789238 152.0
83.80928 68.0
83.858482 144.0
83.882179 136.0
83.900414 144.0
84.006683 132.0
84.042671 156.0
84.075523 152.0
84.119331 160.0
84.132111 164.0
84.197258 188.0
84.223412 68.0
84.245338 120.0
84.269089 136.0
84.304993 160.0
84.333435 212.0
84.402519 64.0
84.459213 188.0
84.502426 136.0
84.56118 204.0
84.609276 100.0
84.685486 136.0
84.708168 80.0
84.7668 152.0
84.788795 152.0
84.829468 232.0
84.924004 236.0
84.972168 36.0
85.058426 128.0
85.078613 188.0
85.18132 148.0
85.220039 116.0
85.269653 164.0
85.286201 108.0
85.339516 144.0
85.424065 156.0
85.45723 32.0
85.486671 168.0
85.532043 344.0
85.56398 292.0
85.587921 128.0
85.611855 160.0
85.670845 160.0
85.709496 128.0
85.761093 140.0
85.779526 200.0
85.797966 152.0
85.813766 112.0
85.886482 156.0
85.924377 132.0
85.967865 220.0
86.03965 44.0
86.101021 328.0
86.143066 188.0
86.165398 140.0
86.220673 148.0
86.274284 64.0
86.314957 196.0
86.364891 136.0
86.381348 152.0
86.404762 188.0
86.427795 188.0
86.44075 40.0
86.479614 192.0
86.524239 148.0
86.637016 152.0
86.688896 224.0
86.70372 144.0
86.780525 288.0
86.836113 196.0
86.877968 132.0
86.892868 132.0
86.91481 184.0
86.967148 156.0
86.998657 116.0
87.024651 132.0
87.058075 140.0
87.071075 148.0
87.124939 132.0
87.139809 244.0
87.188118 164.0
87.23452 172.0
87.265808 192.0
87.290367 172.0
87.331978 396.0
87.377663 228.0
87.407562 112.0
87.420586 132.0
87.470367 204.0
87.513977 164.0
87.532196 176.0
87.563942 132.0
87.580704 232.0
87.595123 200.0
87.626572 248.0
87.666412 184.0
87.826752 92.0
87.852867 124.0
87.871529 164.0
87.962975 140.0
88.033928 156.0
88.146011 140.0
88.194603 76.0
88.237602 116.0
88.269386 220.0
88.341202 268.0
88.381622 144.0
88.442337 200.0
88.460228 144.0
88.540169 208.0
88.576332 116.0
88.615677 260.0
88.632538 100.0
88.657295 152.0
88.709381 384.0
88.829407 60.0
88.890495 100.0
88.953255 164.0
88.969841 120.0
89.053795 96.0
89.191826 144.0
89.217369 92.0
89.24823 156.0
89.268913 184.0
89.31781 140.0
89.358765 172.0
89.365929 132.0
89.371368 248.0
89.399635 160.0
89.411888 184.0
89.451416 112.0
89.4646 160.0
89.516739 224.0
89.587006 116.0
89.619865 240.0
89.644753 216.0
89.713272 148.0
89.767952 144.0
89.840103 200.0
89.866623 256.0
89.880981 192.0
89.917801 176.0
89.95475 224.0
89.984955 188.0
90.041603 248.0
90.076218 160.0
90.092606 144.0
90.111496 188.0
90.134285 136.0
90.156853 160.0
90.177643 136.0
90.213554 384.0
90.248581 180.0
90.444344 184.0
90.474632 196.0
90.491669 116.0
90.535011 144.0
90.546944 148.0
90.567421 156.0
90.59584 284.0
90.679214 144.0
90.745567 188.0
90.844185 152.0
90.862885 168.0
90.899208 168.0
90.959946 168.0
90.999809 84.0
91.035889 156.0
91.100471 48.0
91.144173 116.0
91.173248 344.0
91.303856 120.0
91.393265 152.0
91.559448 68.0
91.610313 156.0
91.636986 104.0
91.661758 68.0
91.806641 160.0
91.837158 180.0
91.879128 92.0
91.894386 120.0
91.971291 216.0
91.987907 204.0
92.008904 124.0
92.048752 304.0
92.102188 208.0
92.125404 80.0
92.160988 224.0
92.175728 212.0
92.211395 176.0
92.236244 116.0
92.253448 96.0
92.26683 152.0
92.306984 200.0
92.324196 172.0
92.389229 136.0
92.419838 88.0
92.448547 176.0
92.473427 164.0
92.496399 76.0
92.563408 140.0
92.66301 136.0
92.682175 116.0
92.720497 140.0
92.778801 384.0
92.827858 60.0
92.870049 64.0
92.883476 184.0
92.908417 176.0
92.938965 204.0
92.9804 164.0
92.988564 136.0
93.017807 180.0
93.053123 172.0
93.059105 164.0
93.108833 108.0
93.177773 188.0
93.19915 228.0
93.261757 172.0
93.288673 56.0
93.367508 192.0
93.450226 124.0
93.554153 156.0
93.577133 136.0
93.593597 388.0
93.658142 256.0
93.796883 208.0
93.835716 168.0
93.856651 128.0
93.879791 152.0
94.051506 148.0
94.067619 172.0
94.093979 168.0
94.170174 140.0
94.213722 148.0
94.229172 208.0
94.248497 180.0
94.329674 72.0
94.362381 148.0
94.439888 144.0
94.472862 180.0
94.60244 180.0
94.620605 240.0
94.728317 192.0
94.828079 144.0
94.879478 136.0
94.918259 36.0
94.945404 136.0
94.970619 124.0
95.015915 208.0
95.040253 184.0
95.075394 144.0
95.106445 76.0
95.16275 144.0
95.245605 192.0
95.323975 160.0
95.364784 152.0
95.463943 136.0
95.535912 172.0
95.582603 112.0
95.674034 148.0
95.807564 180.0
95.832397 184.0
95.868683 164.0
95.909798 44.0
95.948662 188.0
95.956276 176.0
96.001434 200.0
96.020943 176.0
96.042397 48.0
96.086601 176.0
96.136047 96.0
96.173126 112.0
96.21035 176.0
96.226974 128.0
96.263794 160.0
96.303955 152.0
96.323776 136.0
96.370377 140.0
96.400162 196.0
96.498367 140.0
96.535896 124.0
96.716309 176.0
96.783096 244.0
96.896698 148.0
96.930008 176.0
96.943726 68.0
96.975082 88.0
97.000565 368.0
97.036781 152.0
97.071152 212.0
97.084877 128.0
97.116257 124.0
97.12999 172.0
97.192879 144.0
97.232018 140.0
97.245758 208.0
97.28109 172.0
97.316429 116.0
97.333672 220.0
97.414627 148.0
97.528603 192.0
97.550507 168.0
97.587585 144.0
97.632812 248.0
97.650513 188.0
97.717812 228.0
97.764626 64.0
97.817764 308.0
97.851234 168.0
97.878799 156.0
97.953644 136.0
98.006836 160.0
98.042305 216.0
98.115242 124.0
98.142845 136.0
98.214638 244.0
98.231598 120.0
98.245407 128.0
98.278946 80.0
98.324333 168.0
98.403297 204.0
98.472412 184.0
98.511665 188.0
98.540291 156.0
98.553413 188.0
98.592934 160.0
98.608742 40.0
98.666069 104.0
98.695732 48.0
98.718971 196.0
98.798576 204.0
98.850021 156.0
98.889603 152.0
98.926437 132.0
98.968567 104.0
99.046249 148.0
99.085655 88.0
99.125282 144.0
99.180779 136.0
99.204567 180.0
99.266029 176.0
99.279915 40.0
99.305695 208.0
99.321564 84.0
99.357269 216.0
99.385048 72.0
99.436646 156.0
99.613373 184.0
99.785957 200.0
99.871788 116.0
99.891678 164.0
99.941414 204.0
99.996391 192.0
100.015907 316.0
100.060837 44.0
100.102654 148.0
100.154533 172.0
100.190979 164.0
100.206238 136.0
100.222176 188.0
100.258339 160.0
100.310066 120.0
100.515938 200.0
100.547234 152.0
100.649521 184.0
100.673004 88.0
100.716949 136.0
100.784874 200.0
100.83683 164.0
100.883698 288.0
100.924797 64.0
100.942795 124.0
100.979698 220.0
101.008797 128.0
101.036804 156.0
101.064812 232.0
101.142868 156.0
101.212936 120.0
101.240059 172.0
101.31308 148.0
101.32711 196.0
101.357162 220.0
101.409271 84.0
101.439339 180.0
101.497482 164.0
101.518211 224.0
101.551628 104.0
101.572746 348.0
101.592812 136.0
101.619835 208.0
101.722191 172.0
101.862762 388.0
101.884857 160.0
101.902939 140.0
101.919014 200.0
101.953178 108.0
101.987343 120.0
102.012039 168.0
102.067764 200.0
102.095917 152.0
102.126083 148.0
102.140167 172.0
102.232719 196.0
102.246811 72.0
102.265015 432.0
102.34259 172.0
102.366913 152.0
102.409622 176.0
102.41758 152.0
102.462738 156.0
102.595589 148.0
102.647987 232.0
102.677963 180.0
102.694099 148.0
102.724358 108.0
102.889839 184.0
102.910355 148.0
102.962532 168.0
103.000908 192.0
103.056732 444.0
103.134277 120.0
103.151459 176.0
103.194923 228.0
103.259636 208.0
103.303078 176.0
103.330437 140.0
103.35067 140.0
103.372932 268.0
103.478188 148.0
103.547043 76.0
103.601257 208.0
103.634148 296.0
103.65036 228.0
103.664543 132.0
103.74968 92.0
103.77198 148.0
103.7882 240.0
103.826935 160.0
103.89164 168.0
103.943443 192.0
103.961754 124.0
104.000381 136.0
104.047546 296.0
104.066185 180.0
104.086487 160.0
104.114922 128.0
104.130424 240.0
104.230713 204.0
104.28965 172.0
104.356743 192.0
104.389275 164.0
104.527603 44.0
104.633453 92.0
104.666031 132.0
104.689049 132.0
104.72509 240.0
104.751572 172.0
104.782173 188.0
104.802505 164.0
104.826157 132.0
104.867714 272.0
104.903091 216.0
104.937569 136.0
104.962112 160.0
105.037689 168.0
105.050514 168.0
105.080536 200.0
105.167557 232.0
105.185928 120.0
105.200218 148.0
105.279846 168.0
105.30027 136.0
105.317749 136.0
105.347252 56.0
105.371498 180.0
105.40284 156.0
105.446518 248.0
105.494392 196.0
105.51033 176.0
105.564262 208.0
105.596901 184.0
105.632065 372.0
105.65596 104.0
105.671165 184.0
105.68869 152.0
105.769806 152.0
105.809456 220.0
105.895462 140.0
105.935028 140.0
105.95282 132.0
105.985603 188.0
106.063889 160.0
106.088081 188.0
106.135239 100.0
106.223999 216.0
106.250839 432.0
106.313065 192.0
106.338341 232.0
106.394295 184.0
106.426949 172.0
106.461525 176.0
106.521553 176.0
106.541634 168.0
106.564232 140.0
106.597343 312.0
106.634102 156.0
106.685493 140.0
106.726616 140.0
106.755402 220.0
106.835617 132.0
106.850021 76.0
106.904594 184.0
106.924103 144.0
107.010559 156.0
107.041451 148.0
107.061401 64.0
107.123833 248.0
107.1465 132.0
107.168388 128.0
107.246574 108.0
107.270149 144.0
107.325813 136.0
107.352623 128.0
107.527985 184.0
107.600304 124.0
107.654282 120.0
107.682152 204.0
107.707626 152.0
107.738609 232.0
107.767532 156.0
107.791534 204.0
107.808868 164.0
107.83596 216.0
107.901886 152.0
107.916359 76.0
107.948448 156.0
107.963173 144.0
108.01149 192.0
108.030106 60.0
108.092178 112.0
108.166916 144.0
108.211082 208.0
108.361305 144.0
108.374054 160.0
108.394516 252.0
108.429054 180.0
108.508522 152.0
108.525108 192.0
108.593544 200.0
108.620506 176.0
108.659927 160.0
108.686897 228.0
108.730476 152.0
108.807152 128.0
108.931061 380.0
108.945129 300.0
109.044815 768.0
109.075272 200.0
109.152199 156.0
109.406044 216.0
109.420616 220.0
109.47097 176.0
109.489334 160.0
109.535156 192.0
109.566521 152.0
109.597664 188.0
109.633087 164.0
109.701874 164.0
109.728973 176.0
109.760254 148.0
109.80822 184.0
109.843674 40.0
109.883385 120.0
109.908356 188.0
109.937569 120.0
109.958443 128.0
110.047424 268.0
110.137695 232.0
110.156807 108.0
110.177696 140.0
110.235863 124.0
110.243019 168.0
110.295784 276.0
110.343887 236.0
110.356316 240.0
110.390419 192.0
110.505951 192.0
110.575005 200.0
110.685959 232.0
110.74041 144.0
110.755074 140.0
110.805351 112.0
110.834312 180.0
110.885452 216.0
110.916428 180.0
110.975128 124.0
110.999901 172.0
111.16851 148.0
111.186996 144.0
111.220581 116.0
111.262566 160.0
111.281464 128.0
111.338165 72.0
111.373871 160.0
111.430588 44.0
111.481018 220.0
111.546181 144.0
111.575607 144.0
111.616898 204.0
111.638695 136.0
111.694458 208.0
111.710205 156.0
111.758598 188.0
111.778343 436.0
111.825935 28.0
111.911102 120.0
112.007027 136.0
112.070229 116.0
112.221985 176.0
112.25573 208.0
112.272598 316.0
112.323219 172.0
112.415947 76.0
112.441811 412.0
112.47937 60.0
112.496262 252.0
112.523705 52.0
112.555382 180.0
112.584946 180.0
112.665215 64.0
112.718033 208.0
112.768753 136.0
112.800613 172.0
112.859657 276.0
112.897728 172.0
112.927338 188.0
112.942139 84.0
112.965408 192.0
113.0466 204.0
113.122841 160.0
113.160782 216.0
113.251183 144.0
113.344398 60.0
113.361351 144.0
113.424934 200.0
113.460976 156.0
113.561966 160.0
113.624283 184.0
113.649742 64.0
113.687943 116.0
113.706871 148.0
113.721527 204.0
113.742264 208.0
113.785583 124.0
113.800446 120.0
113.832298 144.0
113.85778 248.0
113.89814 72.0
113.91703 152.0
113.953377 220.0
113.989494 188.0
114.027748 116.0
114.068138 132.0
114.10379 140.0
114.227623 168.0
114.291451 164.0
114.314857 100.0
114.359558 204.0
114.392235 132.0
114.49369 196.0
114.658447 168.0
114.69397 60.0
114.728859 196.0
114.783516 200.0
114.81411 128.0
114.847496 104.0
114.864563 184.0
114.900833 156.0
114.932838 208.0
114.954948 264.0
114.975517 124.0
115.009666 164.0
115.052101 556.0
115.069443 180.0
115.16127 148.0
115.300148 80.0
115.325798 124.0
115.394203 156.0
115.464821 188.0
115.489105 212.0
115.5298 260.0
115.565041 188.0
115.593132 160.0
115.617477 276.0
115.653061 180.0
115.712997 180.0
115.755829 128.0
115.918633 104.0
115.952919 156.0
115.986359 120.0
116.026215 232.0
116.051537 52.0
116.121384 280.0
116.152328 88.0
116.167351 128.0
116.194221 208.0
116.296097 188.0
116.419579 172.0
116.425362 216.0
116.514496 160.0
116.52166 112.0
116.526566 164.0
116.587051 156.0
116.639786 84.0
116.693329 296.0
116.772446 172.0
116.792458 152.0
116.897881 352.0
116.912941 116.0
116.928009 224.0
116.960297 168.0
116.979668 152.0
117.056953 184.0
117.119637 120.0
117.145859 208.0
117.177803 108.0
117.199348 116.0
117.248917 200.0
117.268311 332.0
117.321358 132.0
117.365891 152.0
117.46669 584.0
117.608337 348.0
117.660225 148.0
117.762421 84.0
117.834381 180.0
117.861794 172.0
117.879082 208.0
117.909401 132.0
117.971573 212.0
118.0131 136.0
118.049713 520.0
118.098579 168.0
118.179649 104.0
118.216438 120.0
118.240242 196.0
118.318916 160.0
118.409119 152.0
118.467606 172.0
118.541275 208.0
118.632309 180.0
118.661537 200.0
118.690849 168.0
118.711502 252.0
118.745064 184.0
118.774574 152.0
118.794373 284.0
118.820992 56.0
118.887085 188.0
118.916473 176.0
118.949036 156.0
118.983765 140.0
119.005478 104.0
119.059265 1196.0
119.124931 144.0
119.179245 248.0
119.201073 188.0
119.264008 80.0
119.392281 288.0
119.418381 112.0
119.477119 120.0
119.527908 128.0
119.581566 128.0
119.627281 136.0
119.645393 180.0
119.69014 184.0
119.720909 132.0
119.751396 200.0
119.824013 96.0
119.893021 172.0
119.91481 184.0
119.934433 192.0
119.978027 204.0
119.99765 188.0
120.015091 208.0
120.045624 116.0
120.066193 204.0
120.091423 184.0
120.108871 164.0
120.155029 248.0
120.187416 132.0
120.230888 152.0
120.281258 152.0
120.300911 220.0
120.322739 124.0
120.375145 140.0
120.451591 128.0
120.475616 128.0
120.508392 120.0
120.548416 176.0
120.579483 120.0
120.671303 184.0
120.700745 192.0
120.764168 172.0
120.816666 136.0
120.853081 212.0
120.89325 104.0
120.934837 124.0
120.952347 188.0
121.046646 188.0
121.086357 176.0
121.105621 160.0
121.139969 248.0
121.191765 376.0
121.237083 184.0
121.261192 80.0
121.3423 148.0
121.357651 196.0
121.389862 212.0
121.410278 148.0
121.443176 104.0
121.458534 224.0
121.53093 172.0
121.594566 124.0
121.612129 176.0
121.640106 180.0
121.68457 192.0
121.849297 200.0
121.875664 156.0
121.893242 200.0
121.925812 132.0
121.971237 140.0
122.002144 188.0
122.064705 176.0
122.099899 204.0
122.121887 128.0
122.198883 148.0
122.289116 184.0
122.315529 212.0
122.341942 112.0
122.371269 176.0
122.421211 164.0
122.465263 308.0
122.51152 224.0
122.546768 120.0
122.598297 292.0
122.663574 32.0
122.683418 140.0
122.767204 108.0
122.787056 112.0
122.811317 148.0
122.846611 36.0
122.870819 148.0
122.950317 136.0
122.969269 184.0
123.041977 180.0
123.076149 200.0
123.096024 64.0
123.14019 356.0
123.162903 256.0
123.184372 200.0
123.228554 128.0
123.387695 140.0
123.409805 116.0
123.529228 176.0
123.780182 376.0
123.802086 412.0
123.867928 212.0
123.936165 120.0
123.956551 220.0
124.031906 204.0
124.061729 176.0
124.100632 156.0
124.16938 136.0
124.189339 40.0
124.231491 92.0
124.259552 240.0
124.275864 132.0
124.383308 164.0
124.409027 76.0
124.437675 124.0
124.48008 200.0
124.503952 192.0
124.568924 224.0
124.60891 148.0
124.646683 148.0
124.683502 172.0
124.727303 176.0
124.76004 124.0
124.775604 156.0
124.793396 132.0
124.826744 80.0
124.846764 172.0
124.908218 184.0
124.967285 156.0
125.018066 160.0
125.038094 124.0
125.107101 152.0
125.1828 180.0
125.208191 180.0
125.234032 196.0
125.262985 84.0
125.27858 32.0
125.29863 224.0
125.336952 160.0
125.481392 144.0
125.515701 248.0
125.566132 112.0
125.58094 136.0
125.711662 104.0
125.733459 200.0
125.753548 192.0
125.820518 172.0
125.836143 152.0
125.874107 172.0
125.909836 124.0
126.068459 156.0
126.108551 232.0
126.218407 52.0
126.275688 220.0
126.316017 200.0
126.368103 212.0
126.509102 44.0
126.611702 180.0
126.638977 164.0
126.655457 348.0
126.719627 100.0
126.781029 228.0
126.847366 56.0
126.939293 144.0
127.006577 124.0
127.053688 92.0
127.114273 80.0
127.179359 168.0
127.204048 204.0
127.313705 124.0
127.406166 136.0
127.425453 140.0
127.475822 196.0
127.520271 144.0
127.629547 156.0
127.688202 196.0
127.770508 192.0
127.84523 136.0
127.869392 224.0
127.905403 148.0
128.059525 188.0
128.096817 52.0
128.144516 204.0
128.175674 200.0
128.244553 144.0
128.281601 128.0
128.306396 184.0
128.381042 160.0
128.525192 224.0
128.628998 32.0
128.687546 260.0
128.705765 172.0
128.734512 192.0
128.766739 156.0
128.789322 172.0
128.834503 132.0
128.92038 148.0
128.942978 156.0
128.972351 160.0
129.003998 120.0
129.092026 232.0
129.139679 176.0
129.184921 172.0
129.215836 156.0
129.234695 144.0
129.282211 152.0
129.298065 160.0
129.322952 60.0
129.354858 172.0
129.39415 116.0
129.424835 168.0
129.456528 192.0
129.572052 128.0
129.596146 152.0
129.63324 160.0
129.653625 148.0
129.703491 56.0
129.753372 140.0
129.778305 308.0
129.810059 80.0
129.839539 156.0
129.857681 180.0
129.895264 288.0
129.934021 148.0
129.954971 172.0
130.041473 148.0
130.062592 92.0
130.143631 176.0
130.203354 292.0
130.23674 156.0
130.262543 320.0
130.302628 60.0
130.335693 208.0
130.385956 184.0
130.445801 132.0
130.466263 148.0
130.543564 156.0
130.566315 116.0
130.587814 132.0
130.639099 72.0
130.689148 168.0
130.752869 96.0
130.781403 224.0
130.809769 116.0
130.827988 56.0
130.85759 136.0
130.875793 116.0
130.904678 152.0
130.932724 188.0
131.001068 200.0
131.060547 10840.0
131.126389 88.0
131.159119 180.0
131.236328 196.0
131.281418 216.0
131.297379 220.0
131.322479 44.0
131.341339 44.0
131.346024 184.0
131.386353 68.0
131.402878 148.0
131.422058 104.0
131.467957 288.0
131.491318 104.0
131.507294 176.0
131.527832 148.0
131.552948 144.0
131.593506 192.0
131.614594 168.0
131.660263 168.0
131.678528 88.0
131.715088 40.0
131.777802 272.0
131.79628 136.0
131.820175 112.0
131.854462 204.0
131.893311 108.0
131.932175 88.0
132.005341 140.0
132.065598 1188.0
132.112854 216.0
132.182343 220.0
132.202087 80.0
132.231842 76.0
132.290176 320.0
132.343002 180.0
132.430206 176.0
132.487595 180.0
132.504349 152.0
132.533356 176.0
132.623505 208.0
132.70723 192.0
132.76178 128.0
132.77713 116.0
132.800064 140.0
132.820709 208.0
132.866592 148.0
132.889542 180.0
132.912476 96.0
132.94252 176.0
133.019608 220.0
133.043823 1468.0
133.077179 308.0
133.11908 356.0
133.178787 52.0
133.20636 52.0
133.257339 104.0
133.31665 152.0
133.3741 140.0
133.426987 164.0
133.443069 136.0
133.468369 244.0
133.486771 184.0
133.544266 148.0
133.562668 172.0
133.585663 136.0
133.627075 168.0
133.654694 56.0
133.670792 128.0
133.704163 140.0
133.739838 108.0
133.785889 136.0
133.805237 188.0
133.82135 128.0
133.898712 112.0
133.927368 200.0
133.960907 120.0
133.983948 140.0
134.02623 196.0
134.049942 572.0
134.094559 192.0
134.136047 108.0
134.205215 152.0
134.266541 116.0
134.332062 320.0
134.367264 228.0
134.419739 164.0
134.530518 120.0
134.553604 148.0
134.574387 160.0
134.629807 56.0
134.655212 156.0
134.675568 212.0
134.699677 216.0
134.777649 96.0
134.874481 188.0
134.907089 236.0
134.988007 48.0
135.006516 108.0
135.025009 160.0
135.060486 17408.0
135.14801 168.0
135.191513 236.0
135.237885 36.0
135.265656 184.0
135.293182 144.0
135.321213 152.0
135.347427 176.0
135.368073 68.0
135.401535 188.0
135.420792 116.0
135.483337 116.0
135.531998 164.0
135.592422 216.0
135.623215 168.0
135.651382 180.0
135.782364 172.0
135.803238 80.0
135.824112 180.0
135.845001 144.0
135.900681 132.0
135.980499 172.0
136.026657 300.0
136.063705 1236.0
136.110992 264.0
136.159515 184.0
136.225708 64.0
136.261383 204.0
136.327957 136.0
136.371155 220.0
136.393036 192.0
136.461914 240.0
136.488358 168.0
136.509277 116.0
136.525558 92.0
136.544159 228.0
136.588364 132.0
136.633789 168.0
136.655823 160.0
136.707687 280.0
136.753571 136.0
136.809433 120.0
136.839386 180.0
136.843994 156.0
136.893631 176.0
137.006592 240.0
137.039871 140.0
137.076035 164.0
137.098267 164.0
137.116913 64.0
137.140213 152.0
137.170517 60.0
137.189163 148.0
137.210159 180.0
137.306778 156.0
137.327545 200.0
137.3629 200.0
137.392075 132.0
137.415405 200.0
137.431732 88.0
137.466736 132.0
137.493668 104.0
137.511078 160.0
137.52742 68.0
137.550751 104.0
137.576431 160.0
137.758591 164.0
137.85907 204.0
137.965347 212.0
137.98996 168.0
138.034393 168.0
138.104401 180.0
138.16304 240.0
138.227951 160.0
138.244934 180.0
138.266388 316.0
138.316483 252.0
138.325684 144.0
138.332001 180.0
138.36319 144.0
138.417984 104.0
138.466354 168.0
138.500137 124.0
138.552246 200.0
138.612595 64.0
138.661819 148.0
138.750885 76.0
138.92186 124.0
139.053024 160.0
139.123703 180.0
139.138855 188.0
139.156784 160.0
139.21315 140.0
139.318848 72.0
139.365829 164.0
139.415314 208.0
139.471588 124.0
139.537415 156.0
139.57724 252.0
139.594727 140.0
139.619064 172.0
139.678513 272.0
139.701889 188.0
139.810287 180.0
139.829117 124.0
139.847946 120.0
139.871933 200.0
139.890305 112.0
139.986481 156.0
140.016846 168.0
140.066925 52.0
140.115067 176.0
140.158813 128.0
140.187088 220.0
140.231873 40.0
140.282547 176.0
140.304947 184.0
140.338989 200.0
140.467667 184.0
140.488892 156.0
140.521927 136.0
140.543167 192.0
140.562042 152.0
140.580917 156.0
140.649368 32.0
140.698944 124.0
140.853409 224.0
140.898636 224.0
140.918594 236.0
140.989487 136.0
141.069855 532.0
141.133682 140.0
141.18335 172.0
141.216461 160.0
141.260223 144.0
141.306976 256.0
141.327652 76.0
141.363144 176.0
141.389175 192.0
141.428818 132.0
141.474777 220.0
141.515717 128.0
141.5354 208.0
141.542282 160.0
141.597519 228.0
141.630676 204.0
141.692276 200.0
141.734924 208.0
141.760986 136.0
141.777573 60.0
141.813126 104.0
141.931671 176.0
141.957275 140.0
142.062225 88.0
142.069687 296.0
142.088211 212.0
142.119064 168.0
142.206863 168.0
142.233826 136.0
142.254333 120.0
142.282822 120.0
142.363556 216.0
142.39444 100.0
142.444321 188.0
142.47995 136.0
142.523911 164.0
142.557068 204.0
142.639175 160.0
142.712875 128.0
142.746887 120.0
142.753799 152.0
142.798492 228.0
142.819901 100.0
142.865143 200.0
142.907928 156.0
142.945389 156.0
143.014587 156.0
143.055481 344.0
143.145966 136.0
143.165009 164.0
143.284485 76.0
143.322235 128.0
143.338913 236.0
143.503387 88.0
143.565384 116.0
143.61232 176.0
143.634552 320.0
143.656021 232.0
143.720444 120.0
143.784882 148.0
143.846939 168.0
143.868423 232.0
143.895798 180.0
143.928116 148.0
143.972336 116.0
144.012573 112.0
144.066467 172.0
144.361359 184.0
144.413254 172.0
144.429993 296.0
144.451523 76.0
144.475449 128.0
144.506546 88.0
144.635132 128.0
144.674088 108.0
144.72197 60.0
144.789017 120.0
144.831726 188.0
144.886856 180.0
144.923172 224.0
144.951935 36.0
144.970261 196.0
145.025726 172.0
145.029251 136.0
145.04274 208.0
145.075058 788.0
145.131714 160.0
145.261276 156.0
145.335815 88.0
145.364395 176.0
145.403214 224.0
145.542023 228.0
145.573639 220.0
145.606873 104.0
145.770233 116.0
145.796661 256.0
145.8255 232.0
145.885605 216.0
145.93718 132.0
146.00824 212.0
146.051498 4104.0
146.126099 184.0
146.20166 152.0
146.26088 112.0
146.312271 88.0
146.334152 308.0
146.469254 164.0
146.511032 204.0
146.537827 136.0
146.61734 72.0
146.660736 148.0
146.682419 184.0
146.708618 152.0
146.788513 208.0
146.808807 360.0
146.823029 140.0
146.83313 136.0
146.880157 144.0
146.901871 148.0
146.947708 156.0
147.060501 9164.0
147.084946 180.0
147.118958 188.0
147.136505 228.0
147.191498 140.0
147.208405 156.0
147.250992 220.0
147.266113 228.0
147.317154 176.0
147.370255 48.0
147.396835 196.0
147.437912 228.0
147.454834 328.0
147.48172 128.0
147.532471 204.0
147.598709 224.0
147.633743 180.0
147.655502 180.0
147.708725 136.0
147.832108 64.0
147.943451 96.0
147.96283 144.0
147.994293 108.0
148.013672 52.0
148.062851 880.0
148.139618 112.0
148.168686 140.0
148.185654 140.0
148.299545 68.0
148.318314 172.0
148.383331 328.0
148.420425 172.0
148.461685 148.0
148.50322 108.0
148.53476 216.0
148.58812 100.0
148.643936 172.0
148.677658 152.0
148.726456 232.0
148.743439 192.0
148.773666 168.0
148.813843 164.0
148.850266 168.0
148.976334 124.0
149.047028 108.0
149.07431 1692.0
149.139389 32.0
149.156403 124.0
149.18071 100.0
149.217178 140.0
149.287781 208.0
149.311356 104.0
149.363098 56.0
149.523682 208.0
149.565063 236.0
149.647827 164.0
149.685715 136.0
149.704529 212.0
149.730637 72.0
149.768051 176.0
149.78421 208.0
149.935287 124.0
149.957214 48.0
150.085938 236.0
150.097275 116.0
150.101852 172.0
150.146851 232.0
150.183975 68.0
150.205933 52.0
150.235672 84.0
150.257172 68.0
150.313278 164.0
150.346451 144.0
150.393829 204.0
150.437759 180.0
150.459732 148.0
150.528107 124.0
150.564743 156.0
150.586716 140.0
150.644669 204.0
150.701538 192.0
150.777283 120.0
150.794403 172.0
150.828613 172.0
150.911743 160.0
150.94577 148.0
151.009766 120.0
151.029129 140.0
151.049866 176.0
151.092728 348.0
151.112305 212.0
151.12944 104.0
151.175934 132.0
151.294891 192.0
151.41095 164.0
151.443512 192.0
151.506485 148.0
151.597168 216.0
151.673126 120.0
151.719696 120.0
151.773651 116.0
151.87175 100.0
151.896271 148.0
152.055771 172.0
152.078964 176.0
152.109772 72.0
152.143112 176.0
152.184082 192.0
152.220245 124.0
152.244812 188.0
152.28656 140.0
152.32341 128.0
152.377457 396.0
152.519562 140.0
152.640457 228.0
152.721619 216.0
152.822388 104.0
152.863892 296.0
152.886475 124.0
152.948837 212.0
152.967697 120.0
153.009537 172.0
153.036026 148.0
153.070679 192.0
153.089325 160.0
153.110504 116.0
153.133072 224.0
153.166885 108.0
153.231201 188.0
153.249252 224.0
153.287125 144.0
153.319916 128.0
153.347031 188.0
153.416046 68.0
153.448105 236.0
153.534409 204.0
153.588669 48.0
153.694763 176.0
153.74411 224.0
153.786072 116.0
153.813171 212.0
153.866379 240.0
153.897156 132.0
153.94902 196.0
153.970184 148.0
154.034286 168.0
154.129349 148.0
154.225739 108.0
154.294113 208.0
154.324631 104.0
154.356766 132.0
154.388153 192.0
154.426025 144.0
154.48291 76.0
154.539062 196.0
154.547318 136.0
154.55545 200.0
154.594254 124.0
154.611572 108.0
154.648712 136.0
154.665237 160.0
154.693268 232.0
154.725449 144.0
154.77002 160.0
154.797852 184.0
154.848877 76.0
154.944 132.0
154.978088 112.0
155.051498 228.0
155.074112 144.0
155.0905 176.0
155.139175 224.0
155.258209 188.0
155.281845 112.0
155.3078 260.0
155.327652 108.0
155.349976 184.0
155.433014 232.0
155.459152 132.0
155.591599 288.0
155.618027 124.0
155.667679 184.0
155.692062 196.0
155.732254 228.0
155.784973 180.0
155.807831 104.0
155.833359 224.0
155.890259 168.0
155.934631 232.0
155.995712 208.0
156.040405 64.0
156.066971 744.0
156.117493 52.0
156.148865 176.0
156.171738 192.0
156.251343 172.0
156.332489 168.0
156.368774 124.0
156.491806 252.0
156.533081 128.0
156.642578 216.0
156.685715 172.0
156.704086 212.0
156.762924 180.0
156.804626 108.0
156.883759 156.0
156.926682 156.0
156.935806 116.0
156.984131 164.0
157.003845 372.0
157.024033 108.0
157.07579 24268.0
157.176163 160.0
157.230499 220.0
157.305023 132.0
157.332672 136.0
157.363647 44.0
157.393387 36.0
157.429825 136.0
157.453323 212.0
157.471207 148.0
157.504944 144.0
157.525497 156.0
157.579361 176.0
157.604965 292.0
157.636887 160.0
157.661713 156.0
157.688187 140.0
157.712173 200.0
157.719177 120.0
157.73204 128.0
157.739914 144.0
157.775665 68.0
157.83873 144.0
157.86319 116.0
157.885696 88.0
157.920242 236.0
157.958237 164.0
158.005768 84.0
158.077576 2336.0
158.138397 100.0
158.158417 48.0
158.205978 224.0
158.252975 176.0
158.291107 336.0
158.323837 60.0
158.375061 208.0
158.418411 136.0
158.448196 84.0
158.468063 260.0
158.487442 164.0
158.511917 232.0
158.536377 168.0
158.555649 248.0
158.582825 284.0
158.610687 152.0
158.642761 152.0
158.667648 316.0
158.691101 172.0
158.749313 180.0
158.756714 268.0
158.791901 264.0
158.827881 168.0
158.837036 272.0
158.862717 764.0
158.882217 296.0
158.906937 252.0
158.916748 148.0
158.92366 492.0
158.933624 188.0
158.982544 256.0
159.020584 324.0
159.043137 768.0
159.06218 1020.0
159.092438 303884.0
159.182632 304.0
159.203812 80.0
159.235626 84.0
159.242508 180.0
159.2659 160.0
159.299896 132.0
159.32605 612.0
159.373581 416.0
159.400299 248.0
159.430832 220.0
159.452118 76.0
159.476456 596.0
159.507675 4060.0
159.537292 536.0
159.563568 116.0
159.586304 80.0
159.625046 56.0
159.661285 188.0
159.688187 212.0
159.713104 280.0
159.727341 88.0
159.746719 164.0
159.766739 276.0
159.786072 160.0
159.790604 212.0
159.828506 60.0
159.850677 252.0
159.876404 148.0
159.907761 212.0
159.923447 380.0
159.942932 72.0
159.96286 100.0
159.987411 48.0
160.005051 88.0
160.022186 100.0
160.094727 49664.0
160.169327 160.0
160.185699 160.0
160.216705 164.0
160.241821 68.0
160.27597 184.0
160.308151 308.0
160.336304 288.0
160.362061 64.0
160.381683 144.0
160.424408 80.0
160.44635 48.0
160.467377 100.0
160.504257 212.0
160.544006 80.0
160.588989 200.0
160.627716 96.0
160.650116 108.0
160.669754 72.0
160.709732 184.0
160.739273 68.0
160.778946 128.0
160.80423 84.0
160.829361 92.0
160.869858 92.0
160.909378 216.0
160.937317 156.0
160.961639 132.0
160.998718 88.0
161.005264 160.0
161.0177 140.0
161.023315 112.0
161.0755 23656.0
161.12825 268.0
161.167816 112.0
161.18576 52.0
161.203888 60.0
161.238708 224.0
161.263611 120.0
161.278824 152.0
161.30098 480.0
161.328506 268.0
161.365036 284.0
161.418533 200.0
161.430191 164.0
161.440628 120.0
161.461243 196.0
161.484467 104.0
161.52533 44.0
161.556473 112.0
161.626526 48.0
161.651825 132.0
161.677139 96.0
161.699921 88.0
161.721939 108.0
161.763199 40.0
161.812561 160.0
161.889648 264.0
161.931915 144.0
161.948883 96.0
161.993637 100.0
162.032486 60.0
162.078964 2412.0
162.138367 68.0
162.176086 108.0
162.216797 68.0
162.281952 100.0
162.326996 92.0
162.364029 128.0
162.382507 136.0
162.402985 108.0
162.442337 152.0
162.465179 188.0
162.482941 60.0
162.504852 128.0
162.533554 80.0
162.576828 44.0
162.594589 64.0
162.655502 68.0
162.675812 48.0
162.762131 60.0
162.782455 144.0
162.800232 148.0
162.836639 48.0
162.858643 36.0
162.912201 96.0
162.955185 60.0
163.003708 80.0
163.05954 188.0
163.088989 492.0
163.153427 116.0
163.239868 68.0
163.31871 112.0
163.395035 80.0
163.445923 184.0
163.489182 196.0
163.545181 84.0
163.685211 156.0
163.715759 144.0
163.787079 144.0
163.807465 192.0
163.843781 116.0
163.862106 152.0
164.010727 52.0
164.062302 64.0
164.084961 172.0
164.161743 48.0
164.187241 112.0
164.220398 164.0
164.268875 228.0
164.427063 96.0
164.498535 44.0
164.595566 48.0
164.776917 56.0
164.820343 44.0
164.935944 120.0
164.971146 36.0
165.098999 128.0
165.127121 136.0
165.180847 204.0
165.219223 216.0
165.244797 84.0
165.270386 104.0
165.290863 176.0
165.362518 144.0
165.420685 148.0
165.623688 56.0
165.682617 196.0
165.738983 96.0
165.77742 60.0
165.862 132.0
165.890198 32.0
166.162048 60.0
166.190262 204.0
166.441818 72.0
166.765518 96.0
166.783524 100.0
166.865784 104.0
166.924927 84.0
167.174454 92.0
167.27742 88.0
167.313461 104.0
167.340363 80.0
167.426758 60.0
167.470535 128.0
167.50531 168.0
167.679245 40.0
167.743683 60.0
167.867447 52.0
168.169296 96.0
168.300964 44.0
168.388763 60.0
168.451553 144.0
168.479172 76.0
168.569611 208.0
168.858521 160.0
168.929001 156.0
168.978165 84.0
169.022141 148.0
169.073898 52.0
169.12944 44.0
169.224045 160.0
169.252533 84.0
169.291367 116.0
169.334106 128.0
169.363892 80.0
169.405045 72.0
169.42865 44.0
169.509567 156.0
169.5634 140.0
169.597092 104.0
169.615234 56.0
169.716461 144.0
169.786362 232.0
169.939423 28.0
170.126282 44.0
170.152252 52.0
170.313263 96.0
170.42131 88.0
170.450958 112.0
170.469147 36.0
170.521118 116.0
170.562714 52.0
170.692703 144.0
170.729111 64.0
170.895599 36.0
170.929428 128.0
170.960663 140.0
171.03093 176.0
171.088928 196.0
171.12204 68.0
171.278305 64.0
171.411179 32.0
171.512817 60.0
171.575394 112.0
171.604065 96.0
171.742279 56.0
171.814026 152.0
171.8936 40.0
172.008438 72.0
172.063263 40.0
172.086761 292.0
172.133774 52.0
172.231354 176.0
172.329681 136.0
172.350586 28.0
172.37149 108.0
172.468185 80.0
172.64859 108.0
172.724945 148.0
172.868347 196.0
173.004456 148.0
173.041107 144.0
173.075317 1168.0
173.128235 112.0
173.16156 156.0
173.211334 164.0
173.229675 148.0
173.352814 36.0
173.37117 48.0
173.402618 148.0
173.478622 156.0
173.659561 144.0
173.803848 144.0
173.945587 204.0
173.992828 148.0
174.037476 128.0
174.084152 776.0
174.323792 108.0
174.354172 108.0
174.477386 144.0
174.578796 48.0
174.612991 96.0
174.697159 128.0
174.773468 100.0
174.805038 60.0
174.876709 188.0
174.920853 168.0
174.943726 244.0
174.994568 180.0
175.026154 116.0
175.049866 72.0
175.091614 10640.0
175.139343 156.0
175.273773 56.0
175.318573 72.0
175.360733 56.0
175.418732 148.0
175.43718 112.0
175.487274 52.0
175.532104 64.0
175.563751 120.0
175.582214 88.0
175.769516 228.0
175.872452 104.0
176.009735 72.0
176.093842 2664.0
176.273895 160.0
176.456268 52.0
177.027832 148.0
177.096603 112.0
177.170868 100.0
177.306915 144.0
177.422638 48.0
177.459763 108.0
177.896057 132.0
177.961243 56.0
178.1073 124.0
178.250778 64.0
178.399612 196.0
178.548523 236.0
178.628311 84.0
178.817245 212.0
178.947678 116.0
179.53392 228.0
179.680634 188.0
179.724243 104.0
179.987091 172.0
180.019623 160.0
180.334885 152.0
180.538086 184.0
180.564835 172.0
181.317154 128.0
181.392212 168.0
182.030777 120.0
182.116714 124.0
182.205368 136.0
182.226868 180.0
182.831909 144.0
183.154999 124.0
183.29361 128.0
183.400208 92.0
183.454117 80.0
183.629395 152.0
183.920807 112.0
184.109802 224.0
184.739594 32.0
184.950668 124.0
185.091461 152.0
185.134781 116.0
185.400284 152.0
185.690384 172.0
185.882996 48.0
186.339172 108.0
186.450592 136.0
186.646317 200.0
186.765991 192.0
187.092331 208.0
187.111176 128.0
187.253204 124.0
187.340363 96.0
187.373062 204.0
187.8638 96.0
188.086014 176.0
188.117004 308.0
188.183121 56.0
188.385223 168.0
188.456909 168.0
188.521835 52.0
188.665558 172.0
189.108032 1244.0
189.156387 84.0
189.304245 176.0
189.474075 48.0
189.559006 188.0
189.687836 56.0
189.720734 124.0
190.082779 100.0
190.132599 6656.0
190.206284 208.0
190.233734 72.0
190.283157 188.0
190.571548 64.0
190.616867 196.0
190.67569 76.0
190.76889 260.0
190.805176 76.0
190.989426 152.0
191.078094 172.0
191.134476 1400.0
191.209549 232.0
191.324814 96.0
191.369217 176.0
191.473862 100.0
191.509659 168.0
191.622604 72.0
191.643005 120.0
191.796234 68.0
191.917526 92.0
191.950623 64.0
192.003021 48.0
192.030777 192.0
192.140106 132.0
192.33136 108.0
192.378281 52.0
192.508057 84.0
192.579041 200.0
192.648926 92.0
192.695892 176.0
192.71524 180.0
192.811951 52.0
193.226746 180.0
193.29039 112.0
193.730621 32.0
193.755554 164.0
193.825058 96.0
194.590378 64.0
194.615372 104.0
194.643143 172.0
194.773666 228.0
194.973724 200.0
195.060638 296.0
195.27121 164.0
195.382492 188.0
195.575272 284.0
195.747116 204.0
195.869659 128.0
196.059128 184.0
196.647614 172.0
196.745316 52.0
196.80954 148.0
196.938004 56.0
197.035782 88.0
197.088867 52.0
197.332031 132.0
197.566971 212.0
197.620132 456.0
197.790848 276.0
197.953232 80.0
198.38472 92.0
198.496887 148.0
198.541748 60.0
198.564835 172.0
198.701645 76.0
198.78302 148.0
198.856293 180.0
199.105865 176.0
199.288452 144.0
199.350281 60.0
199.890213 228.0
199.97464 36.0
200.08725 140.0
200.119751 124.0
200.188614 144.0
200.304092 172.0
200.616898 192.0
200.848129 108.0
200.898911 48.0
201.110458 116.0
201.137344 624.0
201.225708 76.0
201.269714 180.0
201.313828 96.0
201.370316 128.0
201.409058 140.0
201.440933 100.0
201.469177 248.0
201.512009 76.0
201.548294 136.0
201.590683 112.0
201.669815 136.0
201.689606 140.0
201.710831 204.0
201.757446 148.0
201.780075 132.0
201.799866 108.0
201.824646 152.0
201.895279 156.0
201.920532 184.0
201.964645 164.0
201.984451 180.0
202.009735 432.0
202.028778 200.0
202.061218 176.0
202.133881 109832.0
202.222656 44.0
202.234818 144.0
202.266922 72.0
202.302109 84.0
202.332764 92.0
202.378082 164.0
202.405243 144.0
202.45636 200.0
202.476028 144.0
202.499771 220.0
202.532593 48.0
202.548126 68.0
202.602493 124.0
202.635727 240.0
202.675949 76.0
202.715942 140.0
202.73822 76.0
202.773361 72.0
202.81189 192.0
202.877274 44.0
202.905823 216.0
202.938004 120.0
202.956467 108.0
202.992126 76.0
203.016495 68.0
203.069122 260.0
203.136337 16968.0
203.18602 204.0
203.230255 68.0
203.311127 136.0
203.332825 84.0
203.352722 232.0
203.40097 52.0
203.431763 132.0
203.460144 120.0
203.541 84.0
203.562378 48.0
203.616165 72.0
203.623352 68.0
203.661774 92.0
203.719788 76.0
203.795578 56.0
203.849289 28.0
203.999924 60.0
204.032745 140.0
204.065323 44.0
204.103363 116.0
204.141434 760.0
204.206085 104.0
204.235947 152.0
204.270096 40.0
204.320343 64.0
204.345337 132.0
204.389587 100.0
204.430298 52.0
204.473007 64.0
204.507217 72.0
204.524551 76.0
204.560349 80.0
204.600525 72.0
204.644409 276.0
204.717728 192.0
204.735657 120.0
204.769547 120.0
204.813797 116.0
204.84227 72.0
204.882156 72.0
204.904953 160.0
204.930588 68.0
204.984741 48.0
205.004684 80.0
205.087341 100.0
205.112991 44.0
205.138931 40.0
205.238434 64.0
205.540802 44.0
205.566483 116.0
205.677795 44.0
205.700623 56.0
205.740601 120.0
205.786285 44.0
205.843384 32.0
205.943344 52.0
206.069046 40.0
206.506424 36.0
206.592239 100.0
206.80687 72.0
207.279419 64.0
207.574677 60.0
208.550812 76.0
208.665802 84.0
208.921173 116.0
209.097305 32.0
210.287659 108.0
210.509964 92.0
210.674606 104.0
211.116837 40.0
211.281723 100.0
211.301971 128.0
211.328018 36.0
211.631927 148.0
212.849792 76.0
213.038589 68.0
213.131561 40.0
213.204208 36.0
213.84407 96.0
214.226776 112.0
214.412018 180.0
214.992386 64.0
215.122818 192.0
215.170441 60.0
215.512177 92.0
215.728455 88.0
215.763535 52.0
216.009186 60.0
216.949234 188.0
217.098785 164.0
217.138092 5992.0
217.196152 120.0
217.418564 92.0
217.506744 88.0
217.624039 60.0
217.703323 64.0
218.01474 124.0
218.141739 708.0
218.282257 64.0
218.546997 72.0
219.038666 56.0
219.153564 124.0
219.324493 72.0
219.377548 112.0
219.639145 96.0
219.7108 132.0
220.070892 120.0
220.200821 88.0
220.298294 60.0
220.845169 68.0
221.709717 48.0
222.228653 112.0
223.143463 72.0
223.699814 128.0
224.230011 104.0
225.238541 116.0
226.195435 80.0
228.160431 204.0
228.786194 96.0
229.629944 80.0
231.343262 96.0
231.482544 132.0
232.145111 136.0
232.157898 164.0
232.525436 156.0
232.892838 72.0
233.160202 148.0
234.200775 156.0
234.871384 112.0
235.112427 100.0
235.261993 44.0
236.041122 64.0
236.524521 108.0
236.986969 92.0
238.675201 84.0
239.207458 96.0
240.048599 80.0
240.236755 56.0
240.406464 80.0
242.404205 104.0
242.930145 140.0
243.819351 48.0
244.992447 148.0
245.675186 160.0
245.821838 176.0
246.312027 116.0
248.108337 120.0
248.610214 116.0
251.004196 28.0
251.139801 32.0
252.760529 40.0
253.973953 100.0
254.351547 48.0
256.068573 116.0
256.680481 104.0
257.139862 144.0
259.141754 64.0
260.59201 100.0
260.614502 92.0
261.498871 44.0
262.271912 132.0
262.839539 48.0
262.916992 40.0
263.388397 88.0
264.274231 28.0
266.082825 104.0
266.125031 52.0
267.87149 88.0
270.637787 48.0
270.939117 200.0
273.076141 132.0
273.138641 104.0
273.819977 44.0
274.129669 136.0
276.136963 116.0
277.693665 124.0
279.035248 272.0
279.560822 112.0
280.873566 168.0
282.015533 48.0
284.890717 56.0
285.902802 140.0
286.20578 140.0
286.916718 196.0
288.208466 228.0
288.899139 172.0
288.993896 136.0
289.22821 168.0
290.501556 88.0
291.496368 100.0
292.264893 152.0
292.390808 84.0
293.470673 68.0
293.897064 68.0
294.289581 44.0
296.396667 36.0
297.806702 72.0
297.978455 80.0
301.247955 68.0
301.299774 92.0
301.341248 112.0
301.500183 124.0
302.132965 92.0
302.704102 48.0
303.628448 116.0
303.889587 68.0
305.345123 160.0
306.020233 136.0
306.270966 60.0
306.584564 88.0
306.744873 92.0
309.666077 172.0
309.841248 124.0
310.111053 60.0
310.300354 56.0
312.33374 80.0
313.270111 56.0
316.275238 120.0
316.49472 84.0
316.873718 144.0
318.580231 172.0
319.184448 128.0
319.540161 56.0
319.63623 132.0
320.497955 68.0
320.861511 104.0
321.039795 44.0
323.226074 172.0
325.118225 76.0
325.204376 124.0
325.577759 160.0
326.814362 84.0
327.109497 92.0
327.84787 92.0
328.147064 88.0
328.590698 84.0
330.404388 64.0
331.154968 456.0
332.168671 216.0
334.833008 48.0
335.401398 80.0
336.777039 88.0
337.453125 152.0
337.723755 92.0
339.038147 172.0
341.715118 108.0
342.300385 88.0
346.863342 40.0
347.126587 120.0
347.36026 68.0
348.492584 92.0
348.630096 72.0
348.719269 164.0
350.092133 116.0
353.182526 84.0
353.212463 84.0
354.616608 108.0
354.984009 128.0
355.561768 60.0
357.380615 36.0
358.604523 56.0
358.713837 72.0
359.456879 56.0
360.434906 88.0
361.656464 44.0
361.857117 96.0
362.186157 144.0
362.770172 80.0
363.191071 132.0
363.217651 160.0
363.764069 72.0
363.976685 44.0
364.229797 156.0
365.23468 148.0
367.394653 52.0
368.971954 32.0
369.270233 44.0
372.167419 88.0
372.282623 92.0
373.685669 144.0
374.517212 96.0
374.906372 152.0
375.227081 256.0
375.862732 132.0
375.897461 216.0
375.993958 160.0
376.22821 192.0
376.835785 108.0
376.905334 48.0
377.550903 84.0
377.922272 60.0
379.649963 28.0
382.965271 80.0
386.228455 64.0
386.259766 164.0
386.557098 56.0
388.995026 120.0
390.735992 156.0
393.230438 32.0
394.775208 72.0
396.422058 180.0
397.111908 96.0
398.151764 84.0
398.489441 72.0
399.503265 84.0
399.753937 244.0
401.14798 60.0
403.339539 52.0
403.475433 100.0
403.915344 84.0
404.233276 136.0
404.759827 96.0
404.916016 116.0
405.084259 140.0
405.228485 88.0
405.368713 148.0
405.77356 104.0
405.93396 44.0
406.118439 52.0
406.175629 244.0
406.264648 11164.0
406.346283 252.0
406.524689 80.0
406.587891 52.0
406.760468 84.0
406.88092 52.0
406.921051 48.0
407.005371 184.0
407.267334 4072.0
407.338379 44.0
407.419098 152.0
407.467285 68.0
407.499451 92.0
407.58783 52.0
407.648102 64.0
407.941528 68.0
408.033997 96.0
408.122437 52.0
408.27121 576.0
408.343628 136.0
408.456268 44.0
408.749969 84.0
409.011566 56.0
409.264374 240.0
409.413544 124.0
409.78479 152.0
409.837189 64.0
410.203949 92.0
410.695892 52.0
410.788666 80.0
410.865326 80.0
411.82608 68.0
413.427155 96.0
414.994843 80.0
416.64267 68.0
417.56543 68.0
417.610168 104.0
421.144073 128.0
422.877747 124.0
423.045563 48.0
427.120483 156.0
430.392853 60.0
433.147308 132.0
433.706726 48.0
435.574005 128.0
441.229248 108.0
443.343109 64.0
443.489807 100.0
446.681122 56.0
448.247345 144.0
449.72348 36.0
450.323059 128.0
451.717957 92.0
454.166382 84.0
454.675537 92.0
455.584229 92.0
457.000031 44.0
457.204285 84.0
462.201508 40.0
464.703888 60.0
465.15451 76.0
465.459351 112.0
466.705475 56.0
467.234528 80.0
470.410706 40.0
471.209686 96.0
471.481903 44.0
471.672089 88.0
472.277466 92.0
472.597595 104.0
474.381989 132.0
474.70285 88.0
477.543213 44.0
478.409149 84.0
478.696533 48.0
479.480713 76.0
480.021301 40.0
480.117218 72.0
481.867676 68.0
487.265533 72.0
489.271088 156.0
494.112671 40.0
495.20166 104.0
496.296814 428.0
497.303314 312.0
497.773926 64.0
498.29361 96.0
499.711945 136.0
504.797089 100.0
508.210449 128.0
526.820435 88.0
526.992981 52.0
532.761292 44.0
533.027771 88.0
533.266785 104.0
536.466003 40.0
543.774597 52.0
547.093567 40.0
550.53009 104.0
554.464661 84.0
562.446594 88.0
566.868835 108.0
570.894531 84.0
571.083984 124.0
576.29541 52.0
579.712097 48.0
581.284973 108.0
595.381897 128.0
596.115479 128.0
598.124146 96.0
601.819641 92.0
603.779236 88.0
606.251587 100.0
610.532593 88.0
619.580566 88.0
628.515503 96.0
628.585388 48.0
631.643066 160.0
632.874268 116.0
644.367432 84.0
649.465271 52.0
666.142578 104.0
666.384033 28.0
676.125122 76.0
685.895264 48.0
689.501953 80.0
692.259033 56.0
695.037354 44.0
696.14502 44.0
699.504761 88.0
712.275574 40.0
714.364685 64.0
723.089111 40.0
727.307373 56.0
731.957947 80.0
732.981445 44.0
740.436707 108.0
741.688293 72.0
756.598694 52.0
758.050232 88.0
759.239868 88.0
760.188965 80.0
762.011963 92.0
776.375366 104.0
780.912964 108.0
801.628296 224.0
802.665527 140.0
805.815186 84.0
808.088135 60.0
809.254089 104.0
811.407104 132.0
814.443237 104.0
825.929138 80.0
833.180969 56.0
835.854675 64.0
841.076294 52.0
850.917969 72.0
853.561768 144.0
859.954773 220.0
864.493958 116.0
866.039612 192.0
873.974243 236.0
877.116028 48.0
883.115295 168.0
887.942505 60.0
888.173828 56.0
889.467407 84.0
890.268982 160.0
894.300049 140.0
902.41333 36.0
914.561768 200.0
915.374512 64.0
917.712524 116.0
919.90863 144.0
920.168213 100.0
921.273438 92.0
925.616211 76.0
933.62677 164.0
938.461853 224.0
948.181824 224.0
949.518372 228.0
949.776001 48.0
950.131775 120.0
951.752197 152.0
952.089905 176.0
953.58905 256.0
955.963013 176.0
959.270569 60.0
960.93573 48.0
961.775024 168.0
963.380615 52.0
967.53656 76.0
970.647034 216.0
972.02417 36.0
972.787598 52.0
973.184937 152.0
976.72113 208.0
982.433655 168.0
986.818054 56.0
991.350037 112.0
992.961304 148.0
1002.57428 164.0
1003.028076 152.0
1003.841431 124.0
1004.314453 140.0
1004.774963 164.0
1006.561218 152.0
1006.637024 56.0
1011.068726 44.0
1011.613037 208.0
1013.481445 228.0
1013.994751 184.0
1019.243103 156.0
1023.040222 204.0
1024.970093 156.0
1029.786743 224.0
1035.972412 44.0
1036.472168 124.0
1038.331299 188.0
1038.799561 108.0
1038.844482 92.0
1039.415527 200.0
1039.800537 116.0
1041.264404 152.0
1042.33728 40.0
1045.881104 140.0
1047.387817 156.0
1048.283447 188.0
1053.664795 168.0
1057.803833 196.0
1058.723267 140.0
1060.19397 148.0
1068.746338 176.0
1071.982666 92.0
1073.038696 104.0
1078.20874 80.0
1081.308838 176.0
1083.050537 112.0
1086.971069 60.0
1087.634033 184.0
1088.704224 44.0
1089.262573 172.0
1095.169556 168.0
1095.87439 60.0
1097.271729 60.0
1097.693726 228.0
1098.003662 156.0
1103.815308 40.0
1107.230103 156.0
1108.68103 144.0
1111.068237 172.0
1111.26062 220.0
1114.474243 116.0
1115.730469 212.0
1115.910034 56.0
1116.442017 172.0
1116.574951 104.0
1116.821045 152.0
1116.980713 236.0
1117.226807 116.0
1117.466431 136.0
1117.872314 156.0
1118.025391 164.0
1120.549072 140.0
1121.108887 144.0
1121.168823 196.0
1121.428711 52.0
1122.522095 180.0
1123.382568 140.0
1124.243286 192.0
1124.470215 224.0
1124.897461 144.0
1128.605469 60.0
1128.852905 108.0
1130.980469 164.0
1133.170288 196.0
1133.55896 204.0
1134.658325 192.0
1135.114258 220.0
1137.133545 184.0
1138.389038 104.0
1142.105835 140.0
1142.240356 52.0
1142.845825 176.0
1143.680298 132.0
1144.58252 100.0
1145.006714 180.0
1145.80835 76.0
1148.53186 120.0
1149.152588 68.0
1149.516968 152.0
1150.090576 92.0
1150.217407 128.0
1150.880493 148.0
1151.657104 136.0
1151.758423 172.0
1152.055664 192.0
1152.603027 148.0
1152.71106 212.0
1154.265869 184.0
1155.314331 72.0
1155.490234 208.0
1156.02478 208.0
1157.297363 164.0
1158.062622 216.0
1158.46228 204.0
1159.390625 176.0
1159.778931 124.0
1160.04126 176.0
1160.353149 68.0
1162.34729 168.0
1162.557739 176.0
1163.43335 76.0
1163.657349 156.0
1165.735962 240.0
1166.626343 168.0
1168.35376 136.0
1169.87146 132.0
1170.457031 188.0
1170.845093 148.0
1170.897949 184.0
1173.046021 224.0
1174.703125 240.0
1174.907837 176.0
1175.801758 172.0
1177.023682 144.0
1178.102905 172.0
1180.023315 132.0
1180.331055 156.0
1181.283447 236.0
1181.685425 172.0
1181.856445 184.0
1182.937866 232.0
1183.122681 140.0
1183.63623 128.0
1183.814209 60.0
1184.139526 128.0
1184.458008 204.0
1185.444702 124.0
1185.931274 144.0
1186.226074 172.0
1186.644287 200.0
1187.549438 172.0
1189.875854 148.0
1190.60376 216.0
1190.686157 84.0
1191.043335 132.0
1191.421143 192.0
1191.922729 172.0
1192.671875 144.0
1192.946777 136.0
1193.496826 120.0
1193.55188 180.0
1194.244629 248.0
1194.728027 164.0
1197.577881 200.0
1199.135132 164.0
1199.238403 140.0
1200.258789 124.0
1200.893311 68.0
1201.582275 160.0
1202.445679 148.0
1203.163574 144.0
1204.309937 140.0
1206.784058 216.0
1207.869873 236.0
1208.181152 184.0
1210.146729 136.0
1211.053955 200.0
1211.725952 196.0
1212.460449 132.0
1213.881592 60.0
1214.637695 172.0
1214.894287 132.0
1215.602051 120.0
1215.692261 128.0
1216.108643 212.0
1216.271118 188.0
1216.430664 180.0
1217.531982 164.0
1218.01123 228.0
1219.970947 76.0
1220.422852 240.0
1221.000122 132.0
1221.048828 204.0
1221.118286 188.0
1222.085327 128.0
1222.384521 172.0
1224.494019 192.0
1224.737793 144.0
1225.657349 44.0
1226.54248 120.0
1226.911987 156.0
1227.086304 152.0
1227.720825 204.0
1229.220703 184.0
1229.709229 88.0
1229.988525 148.0
1230.456177 48.0
1230.819336 156.0
1231.322144 200.0
1231.838989 168.0
1232.02063 168.0
1233.809814 132.0
1233.959106 200.0
1234.17334 148.0
1234.355225 160.0
1234.82373 196.0
1234.914673 212.0
1235.544312 136.0
1235.677124 184.0
1236.563477 208.0
1236.880859 224.0
1237.076904 212.0
1238.008179 108.0
1238.568481 100.0
1239.219971 240.0
1240.740967 28.0
1241.259766 216.0
1241.743652 36.0
1242.332886 128.0
1242.424194 184.0
1243.027588 80.0
1243.153931 124.0
1244.71228 160.0
1245.372437 212.0
1245.498901 208.0
1245.555176 220.0
1245.962524 248.0
1246.136353 124.0
1247.40332 136.0
1247.466553 108.0
1247.543823 200.0
1249.034668 120.0
1249.583496 228.0
1250.646118 128.0
1251.033203 172.0
1251.631714 52.0
1251.973511 204.0
1252.314819 256.0
1252.84314 128.0
1253.054565 68.0
1253.126953 176.0
1253.85083 204.0
1254.192871 252.0
1254.245605 216.0
1254.393555 84.0
1254.703735 148.0
1255.380737 148.0
1255.564087 40.0
1256.784424 152.0
1257.708984 144.0
1258.796265 128.0
1259.227051 76.0
1261.156006 60.0
1261.481201 188.0
1262.612549 116.0
1262.706055 224.0
1263.164307 48.0
1263.489746 192.0
1264.062866 124.0
1266.356689 108.0
1267.178467 192.0
1269.368774 88.0
1269.425415 148.0
1269.645264 180.0
1269.865112 124.0
1270.248169 60.0
1270.46106 124.0
1270.723511 204.0
1270.773193 192.0
1270.879639 132.0
1271.362183 216.0
1271.873169 164.0
1272.263672 200.0
1272.41272 116.0
1272.625732 156.0
1272.89563 220.0
1272.987915 100.0
1273.577393 160.0
1273.939697 164.0
1274.017822 152.0
1275.027466 200.0
1275.176147 132.0
1275.495972 136.0
1276.256714 140.0
1276.44873 120.0
1276.939331 68.0
1277.252319 40.0
1278.219971 144.0
1278.426392 144.0
1278.554443 188.0
1278.967285 184.0
1279.344604 176.0
1279.422852 172.0
1280.362793 112.0
1281.545288 164.0
1281.645142 164.0
1281.915894 160.0
1282.093994 172.0
1282.992188 164.0
1284.090332 132.0
1284.875 212.0
1285.517212 128.0
1285.588623 176.0
1285.63855 44.0
1285.77417 176.0
1285.838379 164.0
1286.166748 192.0
1286.409424 112.0
1286.852051 148.0
1287.701904 132.0
1287.751831 188.0
1288.916382 148.0
1289.809692 196.0
1290.703369 144.0
1290.789185 132.0
1290.975098 156.0
1291.718994 68.0
1291.776245 124.0
1291.869263 192.0
1292.248413 184.0
1294.288452 156.0
1295.885742 36.0
1295.97168 188.0
1296.036255 184.0
1296.093506 152.0
1296.473389 200.0
1297.233154 212.0
1297.727783 156.0
1298.559692 196.0
1298.617065 124.0
1298.667236 88.0
1298.746216 236.0
1299.011597 176.0
1301.660034 140.0
1302.780518 112.0
1302.859497 176.0
1303.053589 300.0
1303.233154 232.0
1303.455933 40.0
1305.411255 104.0
1305.515747 140.0
1305.57666 84.0
1306.662842 276.0
1306.87146 132.0
1307.605469 116.0
1307.684692 128.0
1307.915039 100.0
1308.152588 48.0
1308.318115 224.0
1308.440552 104.0
1308.620605 92.0
1309.095825 188.0
1309.290283 132.0
1309.71521 220.0
1309.888062 52.0
1310.349121 180.0
1310.774292 200.0
1311.228271 136.0
1313.018921 212.0
1313.081299 268.0
1314.112793 72.0
1314.552979 92.0
1314.646851 164.0
1314.729248 216.0
1315.736816 184.0
1315.960571 208.0
1317.17395 156.0
1318.113159 140.0
1318.886475 116.0
1319.117798 192.0
1320.19519 196.0
1320.433838 160.0
1320.932861 48.0
1321.482788 192.0
1323.61084 124.0
1324.478516 180.0
1324.537842 68.0
1324.675537 204.0
1324.979858 196.0
1325.218872 132.0
1325.305908 76.0
1325.878296 52.0
1326.045044 268.0
1326.269775 228.0
1326.436523 200.0
1327.184937 120.0
1328.481445 172.0
1328.604858 156.0
1329.787598 128.0
1332.082275 168.0
1332.496338 136.0
1332.699707 56.0
1332.946777 148.0
1333.353149 208.0
1333.44104 136.0
1333.709961 160.0
1335.389038 164.0
1335.782349 124.0
1335.949707 144.0
1336.165283 188.0
1336.185669 120.0
1336.771851 148.0
1336.975708 168.0
1338.213135 180.0
1338.854004 172.0
1339.269165 148.0
1339.509521 76.0
1339.633423 116.0
1340.937744 176.0
1341.06897 180.0
1341.571899 196.0
1341.783325 52.0
1343.365967 300.0
1344.365479 184.0
1344.467651 148.0
1344.63562 196.0
1345.533447 168.0
1346.190674 164.0
1346.278198 212.0
1346.329346 168.0
1346.416992 100.0
1346.738403 136.0
1346.921021 200.0
1346.994019 176.0
1347.096313 120.0
1347.710083 188.0
1348.828247 116.0
1349.157227 128.0
1349.537354 144.0
1349.588623 136.0
1350.247314 160.0
1350.70752 148.0
1351.490356 236.0
1352.149048 200.0
1352.712646 176.0
1352.946899 120.0
1355.166138 200.0
1355.37854 116.0
1355.58374 180.0
1356.360718 136.0
1356.976562 224.0
1357.063599 168.0
1357.955688 144.0
1359.184326 192.0
1359.25769 152.0
1359.668701 180.0
1359.76416 172.0
1360.006348 52.0
1360.834595 140.0
1361.070801 152.0
1361.133301 104.0
1361.393921 124.0
1361.555542 136.0
1361.665649 224.0
1361.834595 128.0
1363.869995 172.0
1364.024414 84.0
1364.105225 156.0
1364.399292 40.0
1364.502197 132.0
1365.259644 156.0
1365.973145 72.0
1366.179077 84.0
1366.289429 136.0
1366.5177 192.0
1366.610596 184.0
1366.804443 128.0
1366.855957 172.0
1366.907471 144.0
1367.680298 196.0
1367.768555 156.0
1368.497437 164.0
1368.622681 76.0
1369.130737 132.0
1369.226562 116.0
1369.535889 72.0
1370.088379 136.0
1370.384521 60.0
1370.648315 160.0
1370.744141 56.0
1370.825195 128.0
1371.02417 104.0
1371.127319 188.0
1371.547485 148.0
1372.041382 180.0
1372.704956 132.0
1373.169678 228.0
1373.656494 140.0
1373.951538 256.0
1374.571411 80.0
1375.877808 112.0
1376.808228 132.0
1376.869263 164.0
1377.67627 172.0
1377.953247 140.0
1378.359619 140.0
1378.802979 96.0
1379.143066 124.0
1379.298218 160.0
1379.394287 160.0
1379.800903 228.0
1379.961792 328.0
1380.79187 184.0
1381.028564 140.0
1381.857056 140.0
1382.651855 188.0
1382.767334 68.0
1382.885742 52.0
1383.248413 108.0
1384.07019 188.0
1384.647949 140.0
1384.870117 212.0
1385.151611 96.0
1385.736816 92.0
1385.996216 52.0
1386.262939 128.0
1386.700195 88.0
1386.900391 240.0
1387.026367 156.0
1387.760376 212.0
1388.028198 368.0
1388.620605 60.0
1388.791138 144.0
1389.125 160.0
1389.258545 236.0
1389.555298 192.0
1389.688843 132.0
1390.364136 140.0
1390.764893 136.0
1390.897583 200.0
1391.22522 132.0
1391.477539 124.0
1391.846191 352.0
1392.309326 104.0
1392.487549 160.0
1392.628662 132.0
1392.732666 208.0
1393.612549 176.0
1394.040283 180.0
1394.359619 156.0
1394.448975 152.0
1395.06604 104.0
1395.296509 92.0
1395.489746 156.0
1395.608765 172.0
1396.099487 196.0
1396.374756 148.0
1396.835938 196.0
1397.468262 48.0
1397.557617 84.0
1397.847778 136.0
1399.157837 176.0
1399.567383 124.0
1400.096069 184.0
1400.5802 140.0
1401.369873 116.0
1401.7052 164.0
1401.955688 200.0
1402.428101 160.0
1402.607056 72.0
1402.681519 224.0
1403.024536 176.0
1403.442017 132.0
1404.150513 140.0
1404.411499 168.0
1404.842529 212.0
1404.92627 72.0
1405.635132 120.0
1405.709717 100.0
1405.978394 152.0
1406.120239 176.0
1406.456055 148.0
1406.851685 164.0
1406.926392 164.0
1407.172729 180.0
1407.799072 132.0
1407.934448 196.0
1408.024048 180.0
1408.713867 136.0
1409.025024 164.0
1409.854492 124.0
1410.811279 176.0
1410.908447 108.0
1410.960815 64.0
1411.259888 76.0
1411.715942 108.0
1411.947876 108.0
1412.00769 168.0
1412.478882 192.0
1413.256958 148.0
1413.533813 144.0
1413.631104 140.0
1413.975342 204.0
1414.248413 148.0
1414.888672 172.0
1415.525024 240.0
1415.607422 216.0
1415.719727 188.0
1416.408813 128.0
1416.506226 120.0
1416.858398 200.0
1417.098145 180.0
1417.596313 124.0
1417.765015 40.0
1418.004883 144.0
1418.612061 60.0
1419.121826 176.0
1419.406738 180.0
1419.541748 136.0
1419.706787 136.0
1420.56189 204.0
1421.739868 180.0
1421.987549 156.0
1422.340332 204.0
1422.407837 52.0
1422.595581 108.0
1422.715698 188.0
1422.813232 212.0
1422.873291 40.0
1423.106079 204.0
1423.166138 136.0
1423.687256 256.0
1423.849487 220.0
1424.56311 148.0
1424.720947 144.0
1424.893677 192.0
1425.65686 200.0
1425.79541 184.0
1425.961426 96.0
1426.119995 172.0
1426.291504 76.0
1426.761719 216.0
1427.291382 120.0
1427.501953 76.0
1428.005859 72.0
1428.073608 172.0
1428.547485 212.0
1428.916138 228.0
1429.089233 356.0
1429.187012 136.0
1429.344971 168.0
1429.402588 112.0
1429.570801 160.0
1430.263184 128.0
1430.481567 104.0
1431.339844 180.0
1431.467896 112.0
1431.671143 216.0
1431.723877 140.0
1431.859497 120.0
1432.18335 156.0
1432.36731 164.0
1432.55249 48.0
1432.853882 96.0
1433.637451 148.0
1434.142456 164.0
1434.323364 196.0
1434.730469 220.0
1434.986816 128.0
1435.084839 252.0
1435.672974 184.0
1436.381958 148.0
1436.917603 56.0
1437.830688 184.0
1437.898682 168.0
1437.98877 140.0
1438.298706 200.0
1438.374146 140.0
1438.449707 212.0
1438.540283 104.0
1438.713867 168.0
1438.910889 160.0
1439.295288 72.0
1439.748413 136.0
1439.966431 212.0
1440.118408 164.0
1440.216675 192.0
1441.274292 292.0
1441.387695 56.0
1441.878906 184.0
1441.984741 136.0
1442.098145 324.0
1442.151001 76.0
1442.952393 92.0
1443.012817 112.0
1443.315308 116.0
1443.91272 200.0
1444.396851 236.0
1444.570801 124.0
1444.638916 204.0
1444.699341 156.0
1445.009644 156.0
1445.183594 252.0
1445.251709 96.0
1445.607422 120.0
1445.917725 224.0
1446.016113 204.0
1446.12207 184.0
1446.303711 164.0
1446.477417 172.0
1446.574097 132.0
1447.11377 168.0
1447.280273 220.0
1447.333374 128.0
1447.552979 164.0
1447.704346 296.0
1447.83313 180.0
1448.037598 148.0
1448.136108 140.0
1448.787598 188.0
1449.014893 76.0
1449.067871 180.0
1449.370972 96.0
1449.431641 92.0
1449.825684 208.0
1449.893921 28.0
1450.060547 164.0
1450.143921 136.0
1450.295532 208.0
1450.378906 128.0
1450.432007 204.0
1450.492676 52.0
1451.288696 108.0
1451.431641 164.0
1451.554077 88.0
1451.827148 100.0
1451.895386 172.0
1452.047119 148.0
1452.14563 224.0
1452.638672 172.0
1452.835938 128.0
1453.040771 156.0
1453.298828 136.0
1453.609863 108.0
1454.346069 144.0
1454.444702 152.0
1455.188721 196.0
1455.484863 164.0
1455.62915 192.0
1455.803833 172.0
1455.970947 108.0
1456.107666 236.0
1456.183716 152.0
1456.365845 164.0
1456.646973 120.0
1457.543457 124.0
1457.718262 160.0
1458.691162 96.0
1460.173828 112.0
1460.645386 160.0
1460.942139 204.0
1461.041016 196.0
1461.124756 168.0
1461.293945 208.0
1461.611694 156.0
1461.839966 196.0
1462.380371 128.0
1462.608643 92.0
1462.844727 176.0
1463.369995 184.0
1464.832275 168.0
1465.083618 72.0
1465.152222 164.0
1465.647461 80.0
1466.340942 204.0
1466.401978 196.0
1466.744995 212.0
1466.859253 140.0
1467.194702 84.0
1467.499756 160.0
1468.651245 144.0
1468.719971 156.0
1468.895386 240.0
1469.040283 172.0
1469.131836 136.0
1469.948242 152.0
1470.280029 164.0
1470.337524 152.0
1470.406128 208.0
1470.925171 168.0
1471.276367 40.0
1471.482544 116.0
1471.673462 144.0
1471.963623 144.0
1472.123901 168.0
1472.32251 196.0
1472.605103 76.0
1472.81897 140.0
1474.094849 208.0
1474.224854 136.0
1474.507568 140.0
1474.606934 236.0
1474.805664 164.0
1474.901611 252.0
1475.012085 152.0
1475.478394 128.0
1476.13562 180.0
1476.327148 88.0
1476.57959 188.0
1477.253784 132.0
1478.002441 112.0
1478.05603 120.0
1478.137451 144.0
1478.392822 196.0
1478.54187 172.0
1478.760132 108.0
1479.724731 188.0
1479.916138 92.0
1480.130493 96.0
1480.641357 140.0
1481.141479 316.0
1481.360107 128.0
1481.624146 208.0
1482.060791 148.0
1482.275391 112.0
1482.56665 124.0
1482.750488 128.0
1482.92688 136.0
1483.11084 184.0
1483.241089 160.0
1483.36377 176.0
1483.520386 80.0
1483.577881 64.0
1483.77771 72.0
1484.000122 136.0
1484.237793 72.0
1484.337524 196.0
1484.590576 136.0
1485.004639 88.0
1485.280884 136.0
1485.418945 144.0
1485.541626 200.0
1485.98584 184.0
1487.153076 60.0
1487.567627 124.0
1487.767212 164.0
1487.931152 156.0
1488.42749 72.0
1488.535034 216.0
1488.750122 132.0
1488.803833 172.0
1488.994141 180.0
1489.111694 132.0
1489.495117 244.0
1489.763916 140.0
1490.032837 168.0
1490.440063 172.0
1490.509277 148.0
1490.562988 120.0
1490.639893 136.0
1490.693726 252.0
1490.832031 124.0
1491.601074 140.0
1492.000366 112.0
1492.09021 244.0
1492.184937 180.0
1492.23877 164.0
1492.300293 128.0
1492.607788 172.0
1492.82312 136.0
1493.607666 144.0
1493.769165 208.0
1493.830688 184.0
1494.17688 180.0
1494.754028 164.0
1494.830933 188.0
1495.000244 144.0
1495.115723 40.0
1495.223511 56.0
1495.93396 160.0
1496.031738 100.0
1496.262695 248.0
1496.331909 200.0
1496.478271 52.0
1496.817993 100.0
1497.194458 160.0
1497.340698 176.0
1497.47168 124.0
1497.860962 184.0
1498.99707 140.0
1499.573242 240.0
1500.291992 40.0
1500.592651 72.0
1500.739258 100.0
1500.955078 176.0
1501.060547 224.0
1501.309814 212.0
1501.433228 76.0
1501.533447 188.0
1501.957764 160.0
1502.164673 140.0
1502.698364 112.0
1503.045532 184.0
1503.817261 68.0
1504.156982 160.0
1504.442627 124.0
1504.604736 244.0
1504.756104 168.0
1505.137451 184.0
