>compound Terazosin HCl (Hytrin)
>formula C19H25N5O4
>ionization [M+H]+
>parentmass 388.198639
#inchi InChI=1S/C19H25N5O4/c1-26-15-10-12-13(11-16(15)27-2)21-19(22-17(12)20)24-7-5-23(6-8-24)18(25)14-4-3-9-28-14/h10-11,14H,3-9H2,1-2H3,(H2,20,21,22)
#inchikey VCKUSRYTPJJLNI
#origInchi InChI=1S/C19H25N5O4.ClH.2H2O/c1-26-15-10-12-13(11-16(15)27-2)21-19(22-17(12)20)24-7-5-23(6-8-24)18(25)14-4-3-9-28-14;;;/h10-11,14H,3-9H2,1-2H3,(H2,20,21,22);1H;2*1H2
#Ion_Source LC-ESI
#Instrument qTof
#Compound_Source Commercial
#PI Dorrestein
#Data_Collector Garg_Neha
#Scan -1
#Precursor_MZ 388.198
#ExactMass 387.191
#Charge 1
#CAS_Number 70024-40-7, 63590-64-7(free base)
#Pubmed_ID N/A
#Smiles C12(=C(C(=NC(=N1)N3CCN(CC3)C(C4CCCO4)=O)N)C=C(C(=C2)OC)OC).Cl.O.O
#INCHI_AUX N/A
#Library_Class 1
#SpectrumID CCMSLIB00000078411
#IonMode Positive
#UpdateWorkflowName UPDATE-SINGLE-ANNOTATED-GOLD
#LibraryQualityString Gold
#TaskID 77f51c88eb8b467eb4a01dd2d0cb90d2
##Scan# 1022
#SpectrumFile Plate6_41_60_GD9_01_15776.mzXML
#LibraryName FDALibrary_2_04302014.mgf
#MQScore -1
#Organism FDALibrary_2_04302014
#TIC_Query 0
#RT_Query -1
#MZErrorPPM -1
#SharedPeaks 0
#MassDiff 0
#LibMZ -1
#SpecMZ 388.198
#SpecCharge 0
#internalFilename spec-00000.mgf

>collision 10
46.287365 144.0
46.379494 152.0
48.770844 140.0
49.321445 196.0
49.907471 164.0
54.232544 180.0
54.521687 208.0
56.988647 208.0
57.307632 140.0
58.873158 152.0
59.041267 148.0
60.668888 212.0
61.136429 196.0
63.10516 148.0
67.234093 188.0
67.2798 204.0
73.725769 144.0
75.311623 140.0
76.921341 144.0
83.414032 140.0
86.783112 140.0
87.068893 184.0
88.859085 188.0
89.965736 152.0
92.656914 148.0
94.014473 164.0
95.463577 140.0
96.077141 244.0
96.110306 160.0
96.581146 260.0
97.066856 172.0
98.057693 316.0
98.195709 200.0
99.706367 184.0
101.511116 176.0
101.583328 212.0
102.351089 212.0
106.94426 164.0
107.049255 172.0
108.292564 160.0
108.367142 200.0
110.614326 140.0
110.922264 204.0
112.916298 180.0
113.435066 164.0
114.4123 184.0
117.82457 200.0
117.952072 168.0
119.903412 176.0
120.302582 204.0
120.879608 140.0
121.175209 164.0
121.591858 152.0
122.057594 152.0
126.517502 168.0
127.524712 184.0
127.560677 196.0
127.913849 180.0
128.387024 148.0
128.576523 148.0
128.651016 208.0
128.928848 144.0
130.06813 156.0
130.927597 156.0
130.945816 160.0
131.924728 216.0
133.152939 140.0
133.978729 156.0
135.149323 152.0
136.283188 140.0
137.428772 268.0
138.750259 172.0
138.780731 164.0
138.99379 140.0
139.802582 148.0
141.589767 152.0
141.739014 184.0
142.084915 1092.0
143.089752 208.0
144.132874 144.0
144.206955 144.0
145.426117 180.0
145.546143 160.0
148.434616 148.0
150.085709 176.0
150.278412 160.0
150.422394 152.0
150.532272 144.0
150.783905 160.0
152.06485 144.0
153.454758 144.0
154.534119 192.0
155.843292 140.0
157.133026 140.0
157.54248 164.0
157.624924 164.0
159.115265 144.0
159.866852 140.0
159.972565 184.0
160.501663 148.0
160.776627 164.0
161.365189 148.0
162.393341 140.0
163.888168 192.0
164.028336 148.0
164.983109 172.0
165.546021 148.0
167.866592 148.0
168.101715 428.0
168.28978 192.0
168.421494 180.0
168.571335 156.0
169.500336 144.0
170.234467 184.0
170.623444 132.0
176.336395 156.0
176.616669 164.0
177.074585 280.0
177.384598 140.0
177.554291 152.0
177.67897 184.0
178.313614 168.0
178.515671 272.0
178.584824 180.0
179.039948 176.0
179.983963 176.0
182.169479 168.0
183.45314 140.0
183.517853 160.0
184.714264 148.0
185.083527 164.0
185.131088 152.0
185.960709 204.0
185.985138 148.0
186.063858 140.0
187.448349 168.0
188.037415 152.0
188.466171 144.0
189.075989 168.0
190.07077 160.0
191.092926 352.0
191.988174 204.0
192.951874 208.0
193.115997 184.0
193.137161 152.0
196.294998 252.0
196.417725 184.0
197.658203 144.0
198.167816 196.0
198.43689 168.0
198.812775 200.0
199.115982 160.0
200.878036 180.0
201.609329 180.0
202.082748 172.0
202.922775 180.0
203.09201 792.0
203.382355 188.0
203.555542 152.0
203.798965 144.0
204.07428 360.0
204.108322 192.0
205.071457 124.0
205.095551 232.0
205.431213 164.0
206.080902 808.0
206.473785 148.0
207.084854 216.0
207.404343 156.0
207.613708 156.0
209.101852 276.0
209.634659 148.0
210.540512 244.0
210.656052 164.0
211.842133 212.0
212.651154 140.0
214.058258 156.0
214.308777 144.0
217.069138 280.0
218.078796 172.0
218.984863 116.0
219.087128 148.0
219.125748 160.0
220.093277 168.0
220.752182 224.0
220.873749 156.0
220.926697 140.0
221.028839 184.0
221.102295 6764.0
221.450638 152.0
221.832886 140.0
222.103363 712.0
222.764709 140.0
222.821152 164.0
223.085266 188.0
223.20459 148.0
223.519897 152.0
223.835434 172.0
226.158173 152.0
226.430634 144.0
227.123016 172.0
227.953323 144.0
228.089905 148.0
229.06488 176.0
229.111481 176.0
229.176361 152.0
229.842743 180.0
230.002701 148.0
230.087402 136.0
231.086105 3808.0
232.094864 3496.0
232.139572 160.0
233.101166 1376.0
234.104111 236.0
234.815048 152.0
235.106216 200.0
235.575104 152.0
235.792053 164.0
237.752136 144.0
238.3479 180.0
241.238922 156.0
241.381149 192.0
241.455368 224.0
241.483215 196.0
242.62587 160.0
243.091125 160.0
244.082443 268.0
244.240692 144.0
245.100937 1524.0
245.926422 236.0
246.104691 336.0
246.13205 276.0
246.955551 184.0
247.005493 156.0
247.046768 188.0
247.085175 180.0
247.118347 30612.0
247.222076 100.0
247.248505 200.0
247.292313 160.0
247.415543 120.0
248.119415 4184.0
248.966537 172.0
249.123505 504.0
249.500717 148.0
249.52272 140.0
250.040253 128.0
250.271561 200.0
250.498322 176.0
250.816589 196.0
252.781082 164.0
253.262314 184.0
253.989731 156.0
254.861252 272.0
255.092819 144.0
257.099731 484.0
257.815308 144.0
258.048645 156.0
258.101837 676.0
258.147766 164.0
259.116425 220.0
259.175323 168.0
259.887177 192.0
260.110901 392.0
260.375122 148.0
260.407227 152.0
261.123901 332.0
261.88678 148.0
263.22522 152.0
264.130157 148.0
264.392242 192.0
264.88559 156.0
265.150085 196.0
268.293396 168.0
269.455261 248.0
270.056763 180.0
270.089478 208.0
270.145081 184.0
271.124115 160.0
272.115417 348.0
272.390625 152.0
272.998688 140.0
273.132782 2344.0
273.268433 172.0
274.127594 672.0
275.135986 828.0
275.206512 172.0
275.887115 140.0
276.146301 488.0
277.900787 156.0
279.099884 140.0
280.081665 148.0
280.444885 180.0
281.17865 152.0
284.046173 156.0
284.113495 252.0
284.949249 144.0
285.087036 144.0
285.122803 124.0
286.456451 196.0
287.138977 268.0
288.143738 1536.0
288.592804 136.0
288.903961 164.0
289.150116 464.0
289.223083 172.0
289.37439 140.0
289.530151 140.0
289.814697 256.0
289.871552 124.0
290.082458 152.0
290.160522 35172.0
290.401184 144.0
290.466431 156.0
290.570801 164.0
291.163055 4652.0
291.239594 144.0
291.7901 144.0
292.02475 168.0
292.166534 356.0
292.329773 116.0
292.511322 180.0
292.964478 116.0
293.095245 136.0
294.158386 120.0
294.564209 176.0
295.295685 192.0
296.713379 140.0
297.358276 212.0
297.396027 208.0
297.523041 220.0
298.125732 108.0
300.110382 188.0
300.143341 584.0
301.147095 652.0
301.657104 148.0
302.123657 140.0
303.089966 156.0
303.13501 240.0
303.901337 144.0
304.269226 152.0
305.210846 180.0
305.245605 208.0
306.484833 140.0
306.516205 160.0
307.489166 188.0
309.628876 148.0
310.242096 160.0
311.990417 144.0
312.954437 144.0
314.164093 172.0
314.66449 184.0
315.54422 156.0
316.13736 620.0
316.203033 240.0
317.160065 348.0
318.116302 156.0
318.15155 232.0
319.057739 156.0
319.138794 360.0
320.859222 144.0
324.141296 152.0
324.704224 220.0
325.144592 164.0
325.963409 144.0
326.37677 172.0
326.585358 176.0
327.147705 148.0
331.506378 208.0
332.670685 168.0
336.252441 176.0
339.039337 212.0
339.794708 176.0
340.179718 132.0
341.175629 144.0
341.885529 160.0
342.152313 328.0
342.193085 204.0
342.251282 160.0
342.658813 140.0
343.161346 288.0
344.169067 292.0
345.15741 136.0
346.045715 144.0
346.156799 212.0
346.401245 168.0
347.5914 156.0
349.611969 156.0
349.769318 208.0
351.379242 172.0
353.602692 264.0
354.081909 204.0
354.163116 156.0
355.166016 120.0
355.401489 204.0
355.465271 152.0
355.979553 148.0
356.04715 148.0
356.077209 168.0
356.152344 192.0
357.178528 168.0
357.313934 176.0
358.258911 160.0
359.156097 144.0
359.190033 156.0
360.198395 376.0
362.828064 156.0
365.547668 140.0
367.764648 172.0
368.239258 152.0
370.187653 648.0
371.159241 144.0
371.203156 220.0
372.164734 1408.0
372.402679 184.0
373.17276 1588.0
373.255859 176.0
373.363525 176.0
374.131378 160.0
374.170197 344.0
375.190704 116.0
375.427765 160.0
377.261871 144.0
378.379944 172.0
379.19342 180.0
381.907471 144.0
382.370453 228.0
383.363586 180.0
384.028839 120.0
384.151184 152.0
384.295532 152.0
384.81076 196.0
385.094421 120.0
385.318481 144.0
385.399933 276.0
385.443298 140.0
385.751068 180.0
385.975159 152.0
386.095978 152.0
386.127594 312.0
386.185486 144.0
386.225433 180.0
386.259125 156.0
386.30368 200.0
386.366119 104.0
386.595978 120.0
386.663666 140.0
386.708191 180.0
386.79126 180.0
386.890015 120.0
386.936066 116.0
386.962219 256.0
387.053345 104.0
387.105438 304.0
387.150146 148.0
387.204651 504.0
387.262665 148.0
387.273804 168.0
387.37088 236.0
387.435028 296.0
387.499603 236.0
387.57428 224.0
387.628754 168.0
387.65686 196.0
387.691803 120.0
387.719055 176.0
387.797119 184.0
387.827118 156.0
387.896912 148.0
387.960999 296.0
388.012634 216.0
388.061401 168.0
388.198639 203140.0
388.307373 188.0
388.456177 280.0
388.546265 192.0
388.584106 168.0
388.742737 168.0
388.775452 132.0
388.844147 3036.0
388.919281 156.0
388.990753 108.0
389.025665 224.0
389.116028 192.0
389.201202 69492.0
389.36264 128.0
389.440125 188.0
389.543854 120.0
389.605835 128.0
389.708191 232.0
389.768097 168.0
389.804993 140.0
389.88916 160.0
389.952881 132.0
390.018463 124.0
390.052673 188.0
390.113586 172.0
390.202393 8608.0
390.298981 172.0
390.392822 128.0
390.446198 144.0
390.505737 116.0
390.770416 204.0
391.204895 616.0
391.299072 144.0
391.379364 168.0
391.426788 244.0
391.479126 112.0
391.533356 164.0
391.574463 148.0
391.632812 148.0
391.705109 120.0
391.7659 200.0
391.850128 228.0
391.924713 112.0
392.203735 144.0
392.413147 152.0
392.632446 124.0
392.696594 116.0
392.802765 156.0
392.905518 224.0
393.793549 108.0
398.514099 144.0
402.605133 156.0
426.738647 152.0
470.700287 160.0
597.700012 140.0
1148.268799 208.0
1593.50415 200.0
