>compound MLS000860007-01!CGS-12066A maleate salt
>formula C17H17F3N4
>ionization [M+H]+
>parentmass 335.147125
#inchi InChI=1S/C17H17F3N4/c1-22-7-9-23(10-8-22)16-15-3-2-6-24(15)14-5-4-12(17(18,19)20)11-13(14)21-16/h2-6,11H,7-10H2,1H3
#inchikey LXFHSCDLMBZYKY
#origInchi InChI=1S/C17H17F3N4.C4H4O4/c1-22-7-9-23(10-8-22)16-15-3-2-6-24(15)14-5-4-12(17(18,19)20)11-13(14)21-16;5-3(6)1-2-4(7)8/h2-6,11H,7-10H2,1H3;1-2H,(H,5,6)(H,7,8)/b;2-1-
#Ion_Source LC-ESI
#Instrument qTof
#Compound_Source NIH Pharmacologically Active Library
#PI Dorrestein
#Data_Collector VP/LMS
#Scan -1
#Precursor_MZ 335.153
#ExactMass 334.141
#Charge 1
#CAS_Number N/A
#Pubmed_ID N/A
#Smiles CN1CCN(CC1)c2nc3cc(ccc3n4cccc24)C(F)(F)F.OC(=O)/C=C\C(=O)O
#INCHI_AUX N/A
#Library_Class 1
#SpectrumID CCMSLIB00000085663
#IonMode Positive
#UpdateWorkflowName UPDATE-SINGLE-ANNOTATED-GOLD
#LibraryQualityString Gold
#TaskID d252d724072548979f1f6f1ced849daf
##Scan# 1696
#SpectrumFile p4-D11_GD11_01_18371.mzXML
#LibraryName Pharm_Active_Library.mgf
#MQScore -1
#Organism Pharm_Active_Library
#TIC_Query 0
#RT_Query -1
#MZErrorPPM -1
#SharedPeaks 0
#MassDiff 0
#LibMZ -1
#SpecMZ 335.153
#SpecCharge 0
#internalFilename spec-00000.mgf

>collision 10
44.888805 180.0
44.923485 60.0
44.943497 192.0
44.968853 196.0
45.003559 236.0
45.063381 112.0
45.081944 200.0
45.117126 204.0
45.261627 128.0
45.276356 52.0
45.295109 188.0
45.305824 200.0
45.328602 92.0
45.363449 152.0
45.388924 140.0
45.403675 100.0
45.442577 184.0
45.463375 128.0
45.505657 80.0
45.524845 248.0
45.58625 204.0
45.610443 112.0
45.621197 212.0
45.654812 92.0
45.744415 164.0
45.789139 208.0
45.812069 96.0
45.823074 232.0
45.839241 48.0
45.865452 256.0
45.907993 164.0
46.048351 144.0
46.10915 132.0
46.121311 120.0
46.13483 164.0
46.155109 204.0
46.167824 168.0
46.188923 188.0
46.236279 128.0
46.253872 116.0
46.325645 132.0
46.350033 112.0
46.430012 116.0
46.477493 172.0
46.579315 128.0
46.595619 144.0
46.68261 104.0
46.693489 44.0
46.753349 68.0
46.825508 232.0
46.863651 68.0
46.960442 112.0
46.9809 272.0
47.019108 136.0
47.03685 124.0
47.144753 116.0
47.244568 136.0
47.255146 164.0
47.31847 128.0
47.330467 152.0
47.343117 128.0
47.395172 148.0
47.404762 208.0
47.443516 192.0
47.501148 228.0
47.524059 80.0
47.595058 188.0
47.600403 136.0
47.676487 140.0
47.697102 160.0
47.746166 140.0
47.771358 164.0
47.889736 212.0
47.965523 132.0
48.003475 144.0
48.060684 124.0
48.122795 120.0
48.265114 128.0
48.287239 152.0
48.299686 172.0
48.313522 160.0
48.346729 192.0
48.382717 208.0
48.39669 172.0
48.42149 232.0
48.457504 132.0
48.49852 160.0
48.509544 176.0
48.519875 72.0
48.539547 212.0
48.597542 84.0
48.610031 196.0
48.628071 104.0
48.640564 252.0
48.711384 64.0
48.823967 140.0
48.835094 156.0
48.855961 164.0
48.956177 168.0
49.004932 140.0
49.035587 164.0
49.119247 72.0
49.142456 240.0
49.253254 116.0
49.300484 244.0
49.337097 88.0
49.384644 56.0
49.412621 108.0
49.453201 196.0
49.502201 112.0
49.524612 192.0
49.597054 200.0
49.626911 336.0
49.656361 76.0
49.668415 236.0
49.68251 200.0
49.746746 212.0
49.779861 136.0
49.801926 208.0
49.83886 196.0
49.878208 224.0
49.96962 132.0
50.028923 224.0
50.08083 156.0
50.134369 180.0
50.147053 168.0
50.181812 176.0
50.213318 160.0
50.242943 256.0
50.255638 104.0
50.320564 204.0
50.408138 184.0
50.419445 84.0
50.429337 72.0
50.456196 204.0
50.466095 136.0
50.533985 144.0
50.578068 320.0
50.601921 176.0
50.628826 100.0
50.769127 92.0
50.864189 160.0
50.888321 196.0
50.903942 136.0
50.92717 196.0
50.965023 124.0
51.009079 184.0
51.064533 264.0
51.07449 112.0
51.088715 156.0
51.117172 84.0
51.157024 168.0
51.191196 180.0
51.211132 144.0
51.233925 200.0
51.248173 88.0
51.276711 148.0
51.290928 188.0
51.315163 192.0
51.444988 160.0
51.473545 156.0
51.514965 144.0
51.529938 164.0
51.559258 88.0
51.632172 60.0
51.643612 44.0
51.672222 120.0
51.725174 128.0
51.744476 240.0
51.775288 244.0
51.809662 72.0
51.859818 216.0
51.86985 92.0
51.930073 204.0
52.014732 232.0
52.059841 220.0
52.096584 204.0
52.122444 132.0
52.205822 136.0
52.315174 160.0
52.325249 108.0
52.338207 224.0
52.355648 144.0
52.384766 208.0
52.480858 104.0
52.558746 112.0
52.596272 132.0
52.620811 160.0
52.725269 204.0
52.759506 172.0
52.769627 80.0
52.817352 212.0
52.83905 176.0
52.886806 132.0
52.922871 136.0
52.925941 124.0
52.931229 140.0
53.059189 132.0
53.08239 136.0
53.133156 164.0
53.227501 220.0
53.260258 196.0
53.295769 120.0
53.350998 112.0
53.428078 72.0
53.508121 96.0
53.559681 188.0
53.592598 164.0
53.629032 200.0
53.664017 128.0
53.684433 68.0
53.694641 160.0
53.716522 128.0
53.774887 116.0
53.839127 108.0
53.856384 176.0
53.939175 160.0
53.995502 144.0
54.029144 108.0
54.056946 112.0
54.130138 204.0
54.157967 256.0
54.292805 172.0
54.307472 156.0
54.318691 216.0
54.339241 152.0
54.373028 172.0
54.391106 204.0
54.418999 156.0
54.482155 128.0
54.517418 136.0
54.532116 68.0
54.560043 168.0
54.60857 152.0
54.6395 160.0
54.651234 188.0
54.665947 196.0
54.738079 52.0
54.749859 192.0
54.76017 172.0
54.777843 124.0
54.810257 112.0
54.839733 120.0
54.879536 88.0
54.911976 100.0
55.006409 212.0
55.049229 160.0
55.061043 108.0
55.07729 156.0
55.127522 156.0
55.183693 136.0
55.213268 128.0
55.226578 140.0
55.281319 40.0
55.334156 212.0
55.485725 124.0
55.497425 144.0
55.537628 264.0
55.584057 244.0
55.662292 184.0
55.672688 156.0
55.693478 144.0
55.714275 92.0
55.788582 128.0
55.839138 168.0
55.877815 172.0
55.946274 128.0
55.977543 164.0
56.128044 136.0
56.166077 304.0
56.186073 168.0
56.227997 32.0
56.281738 60.0
56.31459 152.0
56.357914 184.0
56.371365 136.0
56.384811 116.0
56.420689 160.0
56.438755 176.0
56.50338 220.0
56.522392 156.0
56.571785 112.0
56.607719 112.0
56.636173 128.0
56.663994 196.0
56.676624 112.0
56.6991 108.0
56.778561 96.0
56.798061 176.0
56.808559 152.0
56.823563 272.0
56.885094 148.0
56.910103 188.0
56.934643 424.0
56.952 212.0
57.005833 216.0
57.086426 128.0
57.15863 184.0
57.197762 176.0
57.242928 120.0
57.265518 160.0
57.30619 292.0
57.334824 196.0
57.380043 108.0
57.400433 192.0
57.562786 180.0
57.580738 68.0
57.591312 204.0
57.603397 76.0
57.632103 144.0
57.644192 180.0
57.681976 52.0
57.69558 92.0
57.734894 72.0
57.781544 200.0
57.819614 168.0
57.846859 100.0
57.912155 232.0
57.969543 160.0
57.980148 72.0
58.040646 192.0
58.060768 136.0
58.081734 184.0
58.102974 60.0
58.128769 204.0
58.142426 224.0
58.29277 184.0
58.358131 72.0
58.388546 168.0
58.399193 104.0
58.411362 204.0
58.432659 80.0
58.54073 64.0
58.601696 160.0
58.638233 124.0
58.665668 96.0
58.697689 88.0
58.711414 72.0
58.755646 164.0
58.77243 248.0
58.790741 184.0
58.838062 156.0
58.909901 184.0
58.925114 204.0
59.004589 108.0
59.085648 144.0
59.215759 164.0
59.255924 164.0
59.278572 156.0
59.413502 152.0
59.427311 188.0
59.467144 188.0
59.522476 44.0
59.560104 148.0
59.580841 144.0
59.600815 92.0
59.653069 104.0
59.674595 136.0
59.705349 128.0
59.81459 108.0
59.857697 156.0
59.880798 132.0
59.916229 288.0
59.937798 136.0
59.980953 128.0
60.068848 160.0
60.092995 196.0
60.11359 156.0
60.141369 128.0
60.271095 200.0
60.319008 188.0
60.362297 124.0
60.373123 168.0
60.391682 148.0
60.422619 196.0
60.45047 116.0
60.487617 168.0
60.498665 176.0
60.524773 108.0
60.542934 280.0
60.589825 216.0
60.636311 228.0
60.689018 96.0
60.720032 180.0
60.764622 236.0
60.830196 132.0
60.879883 108.0
60.901627 144.0
60.918713 140.0
60.936676 192.0
60.95689 48.0
60.983974 88.0
60.999519 116.0
61.021286 108.0
61.039944 176.0
61.060162 192.0
61.122387 140.0
61.172192 152.0
61.201771 232.0
61.254723 148.0
61.326401 152.0
61.345104 172.0
61.360695 172.0
61.421516 36.0
61.481384 236.0
61.518482 144.0
61.576038 180.0
61.649467 100.0
61.721375 152.0
61.733883 136.0
61.769855 136.0
61.791267 204.0
61.921684 132.0
61.946747 156.0
62.114475 180.0
62.15213 128.0
62.174099 228.0
62.221191 72.0
62.235321 120.0
62.307568 152.0
62.332706 152.0
62.356281 76.0
62.416019 168.0
62.463989 80.0
62.560768 128.0
62.584385 160.0
62.612728 156.0
62.729328 120.0
62.806595 104.0
62.836567 68.0
62.934425 156.0
63.036823 116.0
63.058506 212.0
63.07819 160.0
63.114552 172.0
63.139854 224.0
63.179398 144.0
63.207878 196.0
63.2332 196.0
63.287022 140.0
63.326687 172.0
63.350372 148.0
63.366215 80.0
63.39949 68.0
63.450626 216.0
63.518494 360.0
63.547688 192.0
63.607269 116.0
63.741737 168.0
63.781998 136.0
63.796307 176.0
63.824924 276.0
63.840824 152.0
63.882179 124.0
63.893314 144.0
63.906044 44.0
63.946724 196.0
63.972889 104.0
63.987217 148.0
64.095528 84.0
64.135368 148.0
64.155296 216.0
64.203926 172.0
64.314011 128.0
64.353043 44.0
64.364502 128.0
64.382668 156.0
64.4226 124.0
64.451355 140.0
64.489708 92.0
64.515289 120.0
64.556862 140.0
64.644844 32.0
64.656044 144.0
64.69606 120.0
64.7425 140.0
64.771324 132.0
64.782539 216.0
64.878693 148.0
64.891518 116.0
64.926796 96.0
64.979729 44.0
64.998985 48.0
65.013428 156.0
65.031082 76.0
65.043922 156.0
65.161156 180.0
65.188469 100.0
65.235085 140.0
65.264023 60.0
65.275276 148.0
65.355705 144.0
65.373024 220.0
65.410423 48.0
65.42894 184.0
65.466774 144.0
65.555382 128.0
65.574715 224.0
65.587616 180.0
65.637589 116.0
65.745674 52.0
65.766655 132.0
65.823158 144.0
65.855461 100.0
65.983124 72.0
66.023544 236.0
66.059128 248.0
66.078545 100.0
66.091484 44.0
66.131775 152.0
66.135704 136.0
66.140533 196.0
66.172417 124.0
66.20034 148.0
66.232338 204.0
66.258255 180.0
66.28418 72.0
66.321457 244.0
66.336044 200.0
66.355499 132.0
66.384682 128.0
66.443077 180.0
66.482018 92.0
66.498245 84.0
66.52166 132.0
66.538826 84.0
66.558311 172.0
66.641151 140.0
66.654152 252.0
66.673401 156.0
66.759682 148.0
66.883469 148.0
66.924164 48.0
66.942078 128.0
66.990936 156.0
67.055855 100.0
67.098495 120.0
67.138672 176.0
67.171883 156.0
67.212669 196.0
67.270287 132.0
67.286118 172.0
67.336739 192.0
67.353073 184.0
67.371048 144.0
67.447403 148.0
67.502007 224.0
67.542686 264.0
67.560684 164.0
67.575409 172.0
67.614677 168.0
67.642502 132.0
67.703087 196.0
67.732567 112.0
67.758781 124.0
67.798103 52.0
67.827606 156.0
67.845642 164.0
67.888268 148.0
67.906311 84.0
67.95388 44.0
67.986702 128.0
68.027733 292.0
68.141052 192.0
68.167343 104.0
68.218292 128.0
68.295578 212.0
68.315315 76.0
68.428879 116.0
68.448631 88.0
68.479927 136.0
68.544174 92.0
68.587021 164.0
68.603508 56.0
68.639778 160.0
68.69091 128.0
68.702454 180.0
68.720604 180.0
68.825073 204.0
69.017914 128.0
69.071754 180.0
69.132973 180.0
69.165154 136.0
69.208199 136.0
69.254257 172.0
69.272789 76.0
69.310898 44.0
69.335251 184.0
69.360619 208.0
69.385483 176.0
69.427864 172.0
69.448463 184.0
69.466743 152.0
69.495232 188.0
69.62693 164.0
69.664291 184.0
69.820717 216.0
69.908409 184.0
69.925346 168.0
70.050537 152.0
70.088547 120.0
70.166885 56.0
70.183556 80.0
70.209518 204.0
70.313675 116.0
70.328697 92.0
70.403831 160.0
70.41552 148.0
70.499054 156.0
70.519104 96.0
70.594337 172.0
70.61274 156.0
70.662788 104.0
70.714798 164.0
70.744926 144.0
70.770042 144.0
70.828651 152.0
70.863831 124.0
70.993568 132.0
71.011353 168.0
71.059998 196.0
71.128807 196.0
71.142235 240.0
71.175812 128.0
71.214439 180.0
71.227875 132.0
71.342148 144.0
71.367371 68.0
71.394272 272.0
71.538971 120.0
71.552444 84.0
71.640823 208.0
71.664444 192.0
71.724274 184.0
71.737755 152.0
71.75293 112.0
71.793396 92.0
71.880882 196.0
71.943573 104.0
71.958763 108.0
72.048241 208.0
72.095589 132.0
72.124245 176.0
72.337456 208.0
72.359467 32.0
72.425507 100.0
72.454308 128.0
72.486496 232.0
72.505966 180.0
72.591599 268.0
72.619843 208.0
72.669624 248.0
72.687256 144.0
72.742599 144.0
72.778252 140.0
72.802025 204.0
72.820709 104.0
72.847885 160.0
72.871674 172.0
72.941345 108.0
72.95665 100.0
73.009361 132.0
73.031471 104.0
73.070595 144.0
73.114838 140.0
73.136963 140.0
73.174637 184.0
73.188034 180.0
73.203362 204.0
73.26638 132.0
73.30883 188.0
73.343063 172.0
73.421227 256.0
73.527267 112.0
73.554581 36.0
73.588722 96.0
73.609215 180.0
73.654976 156.0
73.71199 192.0
73.72538 188.0
73.812561 200.0
73.831367 144.0
73.865578 124.0
73.899796 168.0
73.918617 92.0
73.93573 48.0
73.994858 148.0
74.014473 200.0
74.035027 152.0
74.059372 148.0
74.077019 264.0
74.093262 116.0
74.146385 144.0
74.221809 168.0
74.242386 188.0
74.264687 68.0
74.293846 44.0
74.338455 108.0
74.352188 156.0
74.422569 172.0
74.458626 192.0
74.489548 176.0
74.501572 104.0
74.535934 140.0
74.547966 200.0
74.565147 36.0
74.590927 92.0
74.625313 128.0
74.656311 180.0
74.671745 132.0
74.694107 128.0
74.762924 160.0
74.788742 164.0
74.823174 116.0
74.85675 152.0
74.890182 168.0
74.935829 200.0
74.985397 68.0
75.0075 208.0
75.050598 136.0
75.086815 172.0
75.138565 212.0
75.202415 168.0
75.262833 128.0
75.333649 72.0
75.426956 52.0
75.444244 212.0
75.579147 176.0
75.599915 160.0
75.617226 208.0
75.636261 116.0
75.668625 184.0
75.725517 256.0
75.793861 124.0
75.837189 76.0
75.933662 224.0
75.974174 180.0
75.998466 152.0
76.029701 80.0
76.05574 112.0
76.071358 92.0
76.090454 96.0
76.119972 144.0
76.137337 76.0
76.185974 112.0
76.210297 180.0
76.229416 120.0
76.245056 208.0
76.398064 96.0
76.438087 244.0
76.45723 232.0
76.469414 104.0
76.49839 252.0
76.508507 96.0
76.516968 112.0
76.540787 256.0
76.552979 96.0
76.591293 124.0
76.664848 200.0
76.692101 136.0
76.762093 168.0
76.861519 88.0
76.877228 56.0
76.925278 196.0
77.04187 216.0
77.123482 152.0
77.170685 232.0
77.191666 128.0
77.212654 152.0
77.245888 180.0
77.282623 216.0
77.328125 168.0
77.363129 152.0
77.382393 120.0
77.417412 148.0
77.464699 192.0
77.506752 176.0
77.541801 152.0
77.590881 120.0
77.604225 176.0
77.715408 44.0
77.727692 136.0
77.754013 188.0
77.773186 216.0
77.831253 192.0
77.897995 132.0
77.927856 116.0
78.052658 40.0
78.080795 120.0
78.128868 156.0
78.163475 176.0
78.226837 148.0
78.267853 120.0
78.28067 104.0
78.313118 140.0
78.401207 140.0
78.422356 116.0
78.461136 80.0
78.477005 132.0
78.64537 164.0
78.674606 220.0
78.713448 140.0
78.727577 72.0
78.775955 216.0
78.801765 136.0
78.837105 132.0
78.856544 96.0
78.87027 136.0
79.040466 52.0
79.070549 192.0
79.137817 132.0
79.217514 120.0
79.26181 96.0
79.293709 148.0
79.342361 116.0
79.369934 164.0
79.423141 144.0
79.44265 52.0
79.467491 92.0
79.593513 56.0
79.657448 192.0
79.715149 160.0
79.742737 100.0
79.774734 156.0
79.81385 80.0
79.860085 48.0
79.880524 188.0
79.908119 164.0
80.004219 84.0
80.050514 160.0
80.091476 172.0
80.130669 100.0
80.210861 208.0
80.255432 128.0
80.317856 108.0
80.346397 164.0
80.453476 204.0
80.47847 104.0
80.530258 132.0
80.589211 132.0
80.608864 164.0
80.648186 140.0
80.721481 80.0
80.79303 184.0
80.9067 116.0
80.966652 40.0
80.983284 140.0
81.061493 128.0
81.172745 132.0
81.194344 172.0
81.208611 96.0
81.255249 148.0
81.294724 324.0
81.309082 140.0
81.336006 28.0
81.361137 176.0
81.423988 144.0
81.436554 136.0
81.450928 144.0
81.479668 144.0
81.504822 216.0
81.533577 68.0
81.556938 148.0
81.630653 152.0
81.643242 200.0
81.670784 228.0
81.718788 124.0
81.761978 44.0
81.779976 172.0
81.803375 100.0
81.824982 96.0
81.850189 112.0
81.888008 136.0
81.912209 128.0
81.934845 144.0
81.9907 140.0
82.00872 288.0
82.046577 172.0
82.064606 128.0
82.093811 144.0
82.118706 36.0
82.236557 172.0
82.254036 192.0
82.315422 192.0
82.346123 100.0
82.427567 192.0
82.44368 72.0
82.468987 164.0
82.48597 192.0
82.581085 152.0
82.626305 100.0
82.744987 108.0
82.777435 168.0
82.80468 164.0
82.858047 96.0
82.914223 120.0
82.94503 124.0
82.959534 176.0
83.012115 112.0
83.079224 60.0
83.102806 156.0
83.115509 96.0
83.142731 172.0
83.158501 192.0
83.180847 144.0
83.276001 360.0
83.297066 128.0
83.3116 152.0
83.377007 108.0
83.429718 164.0
83.442451 124.0
83.476997 180.0
83.522606 156.0
83.553589 184.0
83.602516 140.0
83.626175 148.0
83.711746 152.0
83.760918 188.0
83.815575 108.0
83.839264 148.0
83.864784 132.0
83.877541 136.0
83.973297 180.0
84.075157 172.0
84.09137 156.0
84.1092 140.0
84.147537 104.0
84.200493 144.0
84.220581 180.0
84.394196 96.0
84.417969 176.0
84.439911 184.0
84.564323 132.0
84.615585 136.0
84.714478 144.0
84.763947 188.0
84.80426 192.0
84.879425 132.0
84.967468 108.0
85.064728 140.0
85.084923 144.0
85.141098 216.0
85.165726 116.0
85.185928 188.0
85.239212 132.0
85.292511 140.0
85.314568 168.0
85.349503 168.0
85.375244 196.0
85.417549 104.0
85.459862 212.0
85.47274 120.0
85.494827 148.0
85.520592 164.0
85.597916 132.0
85.612579 108.0
85.70475 204.0
85.722443 192.0
85.748482 148.0
85.863289 144.0
85.900177 232.0
85.918625 160.0
85.938919 160.0
85.973976 260.0
85.990585 108.0
86.005356 180.0
86.040428 172.0
86.077354 200.0
86.110947 168.0
86.13903 160.0
86.169708 236.0
86.208511 184.0
86.225143 44.0
86.24733 236.0
86.265808 160.0
86.295395 220.0
86.323128 128.0
86.33786 120.0
86.353859 84.0
86.39711 124.0
86.421165 260.0
86.543327 240.0
86.58075 172.0
86.658157 132.0
86.711899 188.0
86.728584 160.0
86.781769 180.0
86.816193 140.0
86.867851 152.0
86.918045 200.0
86.943726 248.0
87.049545 152.0
87.09597 172.0
87.108978 132.0
87.183296 104.0
87.214737 144.0
87.229767 68.0
87.249878 156.0
87.315292 128.0
87.335754 176.0
87.350632 152.0
87.37854 124.0
87.458557 112.0
87.509834 228.0
87.529953 172.0
87.547928 168.0
87.598213 132.0
87.670143 212.0
87.799515 84.0
87.862938 88.0
87.87973 120.0
87.907715 188.0
87.943176 104.0
88.007996 272.0
88.029213 140.0
88.058937 108.0
88.080528 164.0
88.113106 136.0
88.193466 88.0
88.214027 192.0
88.23085 120.0
88.272919 256.0
88.309387 80.0
88.333 96.0
88.367378 100.0
88.388779 276.0
88.429131 168.0
88.485291 144.0
88.501755 168.0
88.547089 344.0
88.588295 312.0
88.65387 132.0
88.730392 160.0
88.837624 144.0
88.880775 200.0
88.916428 188.0
88.948334 140.0
88.970863 172.0
89.0009 44.0
89.050842 108.0
89.098572 188.0
89.117355 72.0
89.160576 148.0
89.230125 88.0
89.247047 188.0
89.320396 148.0
89.354256 124.0
89.377106 112.0
89.446472 316.0
89.523666 152.0
89.634804 188.0
89.647354 152.0
89.668259 176.0
89.727165 60.0
89.762985 208.0
89.77845 180.0
89.825554 184.0
89.840317 152.0
89.894188 216.0
89.917686 68.0
89.930893 132.0
90.138634 100.0
90.158485 180.0
90.236923 188.0
90.263397 128.0
90.289871 48.0
90.310944 168.0
90.454483 84.0
90.471519 188.0
90.539688 152.0
90.622154 200.0
90.673531 68.0
90.686768 120.0
90.728111 172.0
90.796486 208.0
90.833466 136.0
90.849442 152.0
90.884689 180.0
90.932137 132.0
90.960609 248.0
91.053642 120.0
91.089729 196.0
91.113297 148.0
91.127731 164.0
91.158134 120.0
91.236061 188.0
91.25032 176.0
91.26342 144.0
91.312119 228.0
91.3787 212.0
91.397728 148.0
91.412949 224.0
91.479561 152.0
91.531067 160.0
91.551918 124.0
91.573433 216.0
91.599533 168.0
91.654404 108.0
91.681465 104.0
91.706238 148.0
91.732925 56.0
91.775726 80.0
91.797752 216.0
91.853058 88.0
91.921745 88.0
91.950371 168.0
91.977089 184.0
92.017181 52.0
92.046944 216.0
92.112663 140.0
92.154694 68.0
92.215851 120.0
92.278931 180.0
92.315262 204.0
92.414726 188.0
92.431953 116.0
92.4664 192.0
92.596512 200.0
92.657883 168.0
92.681526 212.0
92.870842 88.0
93.01152 196.0
93.048286 236.0
93.112503 156.0
93.133629 160.0
93.148994 160.0
93.173515 68.0
93.189339 120.0
93.239304 80.0
93.252754 132.0
93.314011 192.0
93.335419 128.0
93.398888 196.0
93.431587 216.0
93.50856 108.0
93.565651 200.0
93.608665 124.0
93.66925 88.0
93.707207 152.0
93.810974 224.0
93.826393 128.0
93.84182 88.0
93.864952 184.0
93.924744 252.0
93.951752 208.0
93.986481 172.0
94.059258 108.0
94.072487 160.0
94.100357 112.0
94.121597 280.0
94.206573 116.0
94.241264 184.0
94.278069 148.0
94.301262 168.0
94.349586 184.0
94.380516 148.0
94.411461 132.0
94.454582 148.0
94.494637 64.0
94.513985 164.0
94.560432 236.0
94.581718 180.0
94.641739 132.0
94.697899 164.0
94.75795 212.0
94.800186 224.0
94.868416 176.0
94.994461 156.0
95.009987 116.0
95.056404 108.0
95.108948 180.0
95.128365 164.0
95.220718 156.0
95.343315 104.0
95.395294 88.0
95.567589 96.0
95.633751 132.0
95.703445 160.0
95.721359 216.0
95.775894 188.0
95.791481 124.0
95.844078 144.0
95.869415 168.0
95.945427 72.0
95.961029 108.0
96.011726 124.0
96.027328 176.0
96.078049 76.0
96.143776 192.0
96.150932 296.0
96.288857 60.0
96.312302 108.0
96.32988 92.0
96.345505 168.0
96.366997 160.0
96.380676 172.0
96.411697 128.0
96.470581 184.0
96.54097 248.0
96.613335 180.0
96.645004 172.0
96.670082 116.0
96.689651 68.0
96.709221 140.0
96.773827 260.0
96.845375 140.0
96.924644 128.0
96.978287 156.0
97.085953 168.0
97.140366 132.0
97.167885 144.0
97.187393 104.0
97.212906 80.0
97.25106 336.0
97.381744 144.0
97.452461 120.0
97.550728 100.0
97.646378 180.0
97.72773 140.0
97.902924 128.0
98.0093 156.0
98.024284 224.0
98.070389 184.0
98.178825 184.0
98.234055 188.0
98.269562 204.0
98.349266 176.0
98.368286 172.0
98.386009 136.0
98.413651 148.0
98.476936 164.0
98.516769 132.0
98.547958 152.0
98.633743 216.0
98.650726 156.0
98.684341 176.0
98.712021 112.0
98.826744 160.0
98.866325 184.0
98.938454 172.0
98.957382 40.0
99.022728 164.0
99.043137 132.0
99.064323 92.0
99.096024 192.0
99.115837 140.0
99.148415 164.0
99.171326 96.0
99.212952 192.0
99.268471 156.0
99.34182 148.0
99.377571 140.0
99.402473 196.0
99.425194 112.0
99.484741 108.0
99.579033 84.0
99.61779 120.0
99.640221 152.0
99.695282 120.0
99.72509 112.0
99.774788 192.0
99.815689 224.0
99.846375 164.0
99.904053 220.0
99.921959 132.0
99.979332 120.0
100.04734 116.0
100.071236 108.0
100.103088 180.0
100.119026 176.0
100.172798 164.0
100.1987 176.0
100.246521 172.0
100.29435 252.0
100.314285 168.0
100.331345 208.0
100.387154 132.0
100.433929 112.0
100.459862 60.0
100.475822 88.0
100.571609 160.0
100.607536 80.0
100.641479 108.0
100.89122 56.0
100.909218 116.0
100.925209 200.0
100.965202 168.0
100.979202 132.0
101.027855 124.0
101.069229 152.0
101.145279 68.0
101.191322 184.0
101.256432 280.0
101.280891 128.0
101.30748 168.0
101.365585 128.0
101.394608 188.0
101.429718 108.0
101.471817 124.0
101.507904 160.0
101.539993 200.0
101.576248 104.0
101.635628 164.0
101.688461 184.0
101.712547 116.0
101.734627 180.0
101.790848 184.0
101.814949 92.0
101.909355 108.0
101.945526 140.0
101.959595 148.0
101.985512 152.0
102.015877 148.0
102.049614 200.0
102.099571 160.0
102.134514 188.0
102.152618 76.0
102.200905 188.0
102.295494 112.0
102.332314 188.0
102.361717 136.0
102.384087 80.0
102.440491 48.0
102.467735 228.0
102.5438 132.0
102.6101 148.0
102.627914 64.0
102.648079 156.0
102.664215 152.0
102.688133 172.0
102.712624 100.0
102.730774 104.0
102.754982 204.0
102.77314 152.0
102.809464 184.0
102.839737 160.0
102.857903 72.0
102.981071 52.0
103.002731 300.0
103.092194 124.0
103.117424 140.0
103.2155 124.0
103.259995 168.0
103.306519 40.0
103.36924 76.0
103.39959 116.0
103.424583 172.0
103.56562 208.0
103.691963 168.0
103.732849 196.0
103.764473 92.0
103.838921 176.0
103.846642 148.0
103.865608 296.0
103.913689 200.0
103.973145 92.0
104.001556 208.0
104.056366 96.0
104.133293 136.0
104.27169 60.0
104.356094 192.0
104.383499 172.0
104.416985 188.0
104.460785 64.0
104.5261 188.0
104.535156 116.0
104.595093 32.0
104.609337 236.0
104.623589 140.0
104.641914 136.0
104.690781 188.0
104.721329 200.0
104.775093 272.0
104.813004 124.0
104.831345 76.0
104.855804 124.0
104.949577 152.0
104.965126 172.0
105.035233 232.0
105.104591 164.0
105.118881 160.0
105.151535 64.0
105.199821 164.0
105.247475 108.0
105.349594 76.0
105.396591 172.0
105.419067 196.0
105.453812 148.0
105.484467 128.0
105.526581 220.0
105.573921 160.0
105.63192 152.0
105.703308 156.0
105.794601 208.0
105.846596 128.0
105.883461 52.0
105.912132 164.0
106.00843 176.0
106.030968 128.0
106.070007 180.0
106.092621 168.0
106.161873 160.0
106.203194 188.0
106.229858 168.0
106.250374 144.0
106.380424 228.0
106.395378 220.0
106.570663 128.0
106.642593 172.0
106.683701 160.0
106.708374 92.0
106.78598 124.0
106.809143 164.0
106.885818 192.0
106.935928 220.0
106.984055 180.0
107.016998 80.0
107.062294 176.0
107.209999 92.0
107.225868 132.0
107.242989 108.0
107.31369 132.0
107.381744 116.0
107.435371 128.0
107.470451 156.0
107.514336 120.0
107.534271 168.0
107.561256 104.0
107.629387 140.0
107.672752 256.0
107.703728 60.0
107.722321 208.0
107.784302 160.0
107.798767 164.0
107.831833 156.0
107.879539 204.0
107.91452 192.0
107.977028 160.0
108.045593 192.0
108.063568 132.0
108.09713 184.0
108.159615 144.0
108.177269 168.0
108.193825 176.0
108.262154 184.0
108.297363 140.0
108.311325 124.0
108.332581 216.0
108.380119 144.0
108.465202 72.0
108.504593 112.0
108.523247 136.0
108.539001 208.0
108.579239 164.0
108.635239 144.0
108.682961 100.0
108.7127 108.0
108.732994 184.0
108.803337 120.0
108.82785 224.0
108.87394 92.0
108.938324 116.0
108.995934 204.0
109.041405 132.0
109.114975 168.0
109.137848 172.0
109.169037 132.0
109.24411 172.0
109.307449 172.0
109.330437 172.0
109.426254 104.0
109.479111 192.0
109.627022 72.0
109.66037 124.0
109.715668 204.0
109.764603 176.0
109.833427 200.0
109.875153 120.0
109.950272 172.0
110.008713 92.0
110.025414 56.0
110.067177 204.0
110.152802 180.0
110.200851 104.0
110.284447 208.0
110.308983 168.0
110.330429 168.0
110.368065 44.0
110.422737 196.0
110.51239 84.0
110.531219 116.0
110.600288 152.0
110.64006 164.0
110.665184 132.0
110.757324 232.0
110.832367 108.0
110.995193 112.0
111.021408 116.0
111.075943 116.0
111.09063 140.0
111.182945 120.0
111.252213 64.0
111.300507 168.0
111.340401 76.0
111.422325 172.0
111.550514 168.0
111.609383 188.0
111.676682 136.0
111.697716 232.0
111.775658 168.0
111.845009 192.0
111.874481 168.0
111.918694 136.0
111.946068 152.0
112.005043 124.0
112.038742 124.0
112.064026 108.0
112.091423 148.0
112.139893 72.0
112.187553 164.0
112.209457 248.0
112.304741 152.0
112.392952 60.0
112.437271 188.0
112.473152 152.0
112.500595 84.0
112.561821 196.0
112.57872 140.0
112.628944 328.0
112.703545 128.0
112.721153 216.0
112.751038 204.0
112.779427 168.0
112.805161 208.0
112.944435 204.0
113.039558 132.0
113.088234 232.0
113.137245 264.0
113.162331 152.0
113.179268 112.0
113.222404 108.0
113.310585 144.0
113.333588 168.0
113.362282 140.0
113.402397 244.0
113.42704 168.0
113.473778 68.0
113.492859 200.0
113.567085 68.0
113.591713 168.0
113.634972 164.0
113.649498 132.0
113.747444 108.0
113.817505 124.0
113.857857 196.0
113.888611 208.0
113.930077 108.0
114.006569 124.0
114.042694 168.0
114.121353 120.0
114.166008 116.0
114.23407 104.0
114.317047 124.0
114.336205 200.0
114.36174 144.0
114.404312 104.0
114.435875 136.0
114.47757 268.0
114.500137 120.0
114.529953 204.0
114.564034 136.0
114.585342 124.0
114.615166 64.0
114.632217 196.0
114.719788 136.0
114.75798 112.0
114.856079 184.0
114.909409 128.0
114.945686 136.0
114.975555 188.0
115.029793 244.0
115.048706 216.0
115.206161 116.0
115.238213 64.0
115.280945 156.0
115.313004 176.0
115.347206 128.0
115.383545 148.0
115.402786 108.0
115.546089 328.0
115.608139 184.0
115.65522 200.0
115.681946 232.0
115.71991 148.0
115.751534 268.0
115.787476 192.0
115.898979 156.0
116.007645 184.0
116.141617 204.0
116.210098 156.0
116.262756 192.0
116.281082 192.0
116.379829 72.0
116.493652 164.0
116.568855 248.0
116.674171 140.0
116.718315 136.0
116.747284 132.0
116.822563 140.0
116.84623 196.0
116.880035 168.0
116.953827 56.0
116.994728 196.0
117.018867 188.0
117.052856 160.0
117.087311 52.0
117.11747 144.0
117.143623 196.0
117.210106 188.0
117.225189 144.0
117.251053 148.0
117.266136 132.0
117.320023 164.0
117.343742 136.0
117.405495 144.0
117.483925 84.0
117.565201 144.0
117.598289 56.0
117.652252 196.0
117.671684 180.0
117.713791 40.0
117.777504 188.0
117.807877 204.0
117.879044 76.0
117.917946 128.0
118.067123 152.0
118.091805 180.0
118.138496 112.0
118.1623 152.0
118.2099 208.0
118.284256 192.0
118.309464 40.0
118.424232 140.0
118.482719 168.0
118.584564 128.0
118.606934 236.0
118.638756 180.0
118.738495 160.0
118.801399 208.0
118.879509 152.0
118.957649 92.0
118.990211 120.0
119.011925 196.0
119.035812 200.0
119.092278 128.0
119.123802 148.0
119.163963 60.0
119.184013 228.0
119.235672 128.0
119.32225 164.0
119.349396 204.0
119.422653 320.0
119.46833 56.0
119.496613 112.0
119.557541 92.0
119.72953 164.0
119.84716 164.0
119.940872 208.0
119.960327 160.0
119.975754 224.0
120.030258 116.0
120.054245 136.0
120.080887 148.0
120.095688 192.0
120.119682 116.0
120.182945 40.0
120.209137 116.0
120.227608 188.0
120.260979 180.0
120.276787 264.0
120.359749 148.0
120.403427 180.0
120.49173 152.0
120.517021 124.0
120.621918 200.0
120.731239 108.0
120.753113 100.0
120.790375 108.0
120.842804 140.0
120.882187 128.0
121.038788 112.0
121.088539 264.0
121.118637 156.0
121.142731 160.0
121.256676 96.0
121.285423 104.0
121.372864 168.0
121.415489 200.0
121.440849 124.0
121.491295 216.0
121.60321 200.0
121.620766 52.0
121.66906 148.0
121.718422 176.0
121.752876 140.0
121.783165 176.0
121.858879 84.0
121.933746 280.0
122.03006 180.0
122.101936 128.0
122.135887 156.0
122.302155 168.0
122.363258 180.0
122.381409 156.0
122.460686 176.0
122.504745 180.0
122.584061 124.0
122.676628 132.0
122.706955 164.0
122.73175 72.0
122.760414 172.0
122.857758 224.0
122.885864 124.0
122.941315 204.0
123.057198 200.0
123.115715 76.0
123.173141 140.0
123.254883 100.0
123.312218 152.0
123.363182 36.0
123.389709 156.0
123.409607 60.0
123.462677 120.0
123.496803 192.0
123.53125 216.0
123.723778 92.0
123.759201 32.0
123.799057 192.0
123.90538 92.0
123.93145 188.0
124.005096 36.0
124.029427 164.0
124.0849 108.0
124.191345 68.0
124.234566 148.0
124.268509 112.0
124.324463 96.0
124.441383 184.0
124.47097 148.0
124.530937 100.0
124.567444 128.0
124.593933 144.0
124.635345 168.0
124.66201 84.0
124.688683 176.0
124.719795 128.0
124.806503 124.0
124.835411 212.0
124.875443 152.0
124.895454 120.0
125.015602 148.0
125.033401 136.0
125.051208 172.0
125.071243 92.0
125.08905 132.0
125.169197 196.0
125.202599 160.0
125.218193 132.0
125.236008 168.0
125.287483 188.0
125.308334 164.0
125.426643 224.0
125.458847 112.0
125.478912 100.0
125.55249 144.0
125.671677 56.0
125.738472 144.0
125.759987 140.0
125.82695 160.0
125.997437 60.0
126.018707 168.0
126.050316 108.0
126.083832 100.0
126.137474 144.0
126.188896 160.0
126.209984 232.0
126.267159 160.0
126.319267 320.0
126.356636 188.0
126.37677 160.0
126.403625 196.0
126.461807 148.0
126.567032 140.0
126.638695 128.0
126.687973 264.0
126.735023 160.0
126.761909 180.0
126.84877 180.0
126.909851 252.0
126.943489 100.0
127.179054 200.0
127.226196 336.0
127.278282 120.0
127.307373 156.0
127.340714 48.0
127.38903 112.0
127.42363 176.0
127.45079 124.0
127.513718 136.0
127.540688 152.0
127.574409 296.0
127.605881 152.0
127.680084 140.0
127.918587 356.0
127.961365 232.0
128.010895 76.0
128.066818 212.0
128.094238 56.0
128.13028 68.0
128.146042 132.0
128.238449 212.0
128.265488 64.0
128.351166 96.0
128.37822 64.0
128.45517 136.0
128.475204 96.0
128.500031 100.0
128.542892 176.0
128.560944 140.0
128.624146 72.0
128.648514 136.0
128.694138 236.0
128.721863 196.0
128.758987 124.0
128.777695 188.0
128.798019 52.0
128.834152 172.0
128.880371 132.0
128.918564 348.0
128.99234 144.0
129.012695 116.0
129.051697 224.0
129.069214 192.0
129.100876 200.0
129.200394 280.0
129.24791 128.0
129.269547 100.0
129.290909 128.0
129.431595 216.0
129.464706 156.0
129.482239 104.0
129.514816 112.0
129.542938 116.0
129.669128 176.0
129.706894 204.0
129.741653 180.0
129.803375 148.0
129.852768 100.0
129.952576 128.0
130.011581 184.0
130.062286 260.0
130.120529 188.0
130.140976 112.0
130.163681 128.0
130.220444 180.0
130.347672 136.0
130.384033 140.0
130.435242 128.0
130.465866 104.0
130.486328 192.0
130.50679 220.0
130.528351 132.0
130.543167 204.0
130.584106 208.0
130.678024 208.0
130.685715 60.0
130.694839 188.0
130.786606 120.0
130.832489 232.0
130.878952 152.0
130.901688 160.0
130.921768 208.0
130.95282 116.0
130.992218 200.0
131.023438 144.0
131.048492 156.0
131.082047 276.0
131.090195 200.0
131.096283 140.0
131.130539 212.0
131.148865 180.0
131.271454 212.0
131.279266 280.0
131.322052 108.0
131.342575 192.0
131.375946 140.0
131.426987 184.0
131.559372 124.0
131.57991 172.0
131.598175 136.0
131.614166 180.0
131.650696 112.0
131.71904 108.0
131.742065 196.0
131.757141 152.0
131.874588 204.0
131.908875 76.0
131.960266 412.0
132.041489 100.0
132.088043 228.0
132.093765 80.0
132.102402 216.0
132.194778 36.0
132.212036 96.0
132.261139 180.0
132.284042 336.0
132.325867 176.0
132.386063 164.0
132.423706 152.0
132.45578 148.0
132.478683 176.0
132.49472 100.0
132.522217 148.0
132.539993 164.0
132.654526 164.0
132.680359 136.0
132.696411 136.0
132.758316 272.0
132.78125 160.0
132.845474 208.0
132.869751 176.0
132.956894 164.0
133.013 184.0
133.043121 388.0
133.077271 48.0
133.152145 132.0
133.208176 96.0
133.240341 288.0
133.340591 184.0
133.348587 116.0
133.353882 196.0
133.415009 212.0
133.440292 124.0
133.483978 148.0
133.520859 208.0
133.552002 132.0
133.586899 200.0
133.647293 340.0
133.714218 148.0
133.750854 104.0
133.794388 172.0
133.868271 196.0
133.884399 92.0
133.921249 116.0
133.940628 204.0
133.967316 72.0
133.990356 72.0
134.016373 176.0
134.041046 124.0
134.063156 228.0
134.16217 236.0
134.199921 108.0
134.218536 160.0
134.377686 208.0
134.437683 140.0
134.456146 164.0
134.514114 140.0
134.564636 172.0
134.583115 136.0
134.601578 160.0
134.649689 216.0
134.686829 180.0
134.751709 124.0
134.858017 96.0
134.978226 176.0
134.999039 132.0
135.022171 96.0
135.151718 136.0
135.17485 124.0
135.269745 112.0
135.288269 124.0
135.318359 188.0
135.336884 180.0
135.464264 56.0
135.517548 140.0
135.549988 68.0
135.591705 84.0
135.654282 248.0
135.672836 128.0
135.689056 188.0
135.737747 92.0
135.786453 180.0
135.902435 116.0
135.953491 76.0
136.03009 156.0
136.115982 152.0
136.1996 128.0
136.297165 36.0
136.455231 56.0
136.536774 232.0
136.576889 152.0
136.627319 156.0
136.694809 160.0
136.728836 180.0
136.749832 204.0
136.759613 132.0
136.765274 184.0
136.829803 84.0
136.864731 176.0
136.89267 152.0
136.929932 172.0
136.953217 148.0
136.976517 68.0
137.007294 208.0
137.022278 124.0
137.169922 104.0
137.197906 216.0
137.260849 212.0
137.319153 32.0
137.342484 108.0
137.361145 156.0
137.418945 180.0
137.470795 168.0
137.49881 168.0
137.584061 84.0
137.615524 168.0
137.634857 184.0
137.718277 36.0
137.734619 100.0
137.788345 168.0
137.804703 164.0
137.933105 196.0
138.043121 144.0
138.061829 140.0
138.101593 164.0
138.227921 152.0
138.316864 184.0
138.390945 212.0
138.43158 144.0
138.452667 176.0
138.469055 180.0
138.487793 148.0
138.508881 140.0
138.593216 164.0
138.649323 216.0
138.754944 148.0
138.787766 144.0
138.888412 96.0
138.920761 152.0
138.956635 160.0
138.991837 52.0
139.040039 160.0
139.073975 184.0
139.091568 148.0
139.109177 164.0
139.185684 184.0
139.26181 104.0
139.308792 116.0
139.386322 104.0
139.41452 140.0
139.489731 152.0
139.557907 104.0
139.630814 192.0
139.669174 128.0
139.731964 108.0
139.757843 148.0
139.83728 184.0
139.920395 60.0
139.964981 156.0
140.025223 360.0
140.047836 428.0
140.079575 176.0
140.125137 100.0
140.182388 204.0
140.202499 348.0
140.233536 112.0
140.274887 132.0
140.301895 60.0
140.40329 276.0
140.460312 160.0
140.513657 192.0
140.52005 152.0
140.526978 268.0
140.594376 104.0
140.620346 144.0
140.638184 172.0
140.70433 172.0
140.750183 144.0
140.85173 156.0
140.927338 144.0
140.964767 228.0
140.986404 152.0
141.017136 188.0
141.05397 304.0
141.090408 188.0
141.158234 340.0
141.189728 208.0
141.206284 204.0
141.249954 124.0
141.345856 144.0
141.367157 168.0
141.383713 112.0
141.400284 180.0
141.442886 124.0
141.466568 100.0
141.490234 208.0
141.511551 144.0
141.551804 120.0
141.594421 112.0
141.632324 164.0
141.77684 144.0
141.836105 72.0
141.874985 148.0
141.928558 300.0
142.049515 128.0
142.131363 152.0
142.158661 220.0
142.18306 112.0
142.1987 256.0
142.271011 188.0
142.317688 176.0
142.341446 96.0
142.407928 224.0
142.431686 152.0
142.46019 104.0
142.483948 200.0
142.533844 184.0
142.574631 200.0
142.6035 180.0
142.640793 168.0
142.664566 144.0
142.702606 96.0
142.785828 164.0
142.80249 108.0
142.828644 132.0
142.878372 120.0
142.90715 224.0
142.999969 88.0
143.029236 256.0
143.058792 184.0
143.149948 140.0
143.19519 148.0
143.230927 108.0
143.261887 156.0
143.289505 236.0
143.305344 184.0
143.397705 136.0
143.464447 124.0
143.512131 160.0
143.537308 172.0
143.643311 144.0
143.784348 180.0
143.809738 176.0
143.884338 60.0
143.934479 156.0
143.990601 136.0
144.03479 136.0
144.065842 156.0
144.082565 196.0
144.136932 212.0
144.197891 152.0
144.272964 352.0
144.340698 180.0
144.374466 168.0
144.405258 128.0
144.500946 96.0
144.559219 160.0
144.601456 328.0
144.666077 148.0
144.773834 152.0
144.79538 140.0
144.831314 152.0
144.857666 152.0
144.916092 72.0
144.958694 260.0
145.025177 148.0
145.136108 176.0
145.176437 164.0
145.210007 180.0
145.262787 128.0
145.287079 152.0
145.320358 132.0
145.365005 184.0
145.415085 124.0
145.435547 128.0
145.555206 180.0
145.643051 164.0
145.663666 96.0
145.710831 120.0
145.728531 152.0
145.759766 76.0
145.851089 160.0
145.879929 184.0
145.912186 180.0
145.957474 332.0
145.992935 156.0
146.04248 180.0
146.062698 120.0
146.265503 196.0
146.31778 192.0
146.346664 208.0
146.414093 120.0
146.433365 364.0
146.462265 116.0
146.509705 148.0
146.679138 204.0
146.749039 164.0
146.852737 188.0
146.881683 96.0
146.915451 156.0
146.97818 240.0
147.011703 148.0
147.018112 132.0
147.025009 220.0
147.052994 160.0
147.094025 128.0
147.13266 164.0
147.155121 144.0
147.212341 100.0
147.245987 116.0
147.277542 220.0
147.326233 232.0
147.364517 152.0
147.405594 168.0
147.422501 148.0
147.511932 132.0
147.536789 212.0
147.626114 144.0
147.644913 76.0
147.675659 96.0
147.700546 68.0
147.746506 300.0
147.806992 48.0
147.840881 116.0
147.894363 204.0
147.969162 164.0
147.988541 152.0
148.017593 160.0
148.036957 76.0
148.133072 316.0
148.194412 52.0
148.210922 212.0
148.383453 76.0
148.412552 88.0
148.470749 120.0
148.49501 96.0
148.519257 152.0
148.638138 176.0
148.740204 144.0
148.797012 140.0
148.961044 44.0
148.995056 128.0
149.028015 332.0
149.089813 232.0
149.145721 132.0
149.206497 208.0
149.246887 104.0
149.290497 168.0
149.300308 48.0
149.36116 180.0
149.420517 96.0
149.447281 88.0
149.476471 128.0
149.52243 228.0
149.588425 132.0
149.639557 140.0
149.668777 200.0
149.702866 116.0
149.71991 196.0
149.760941 128.0
149.783234 176.0
149.815384 180.0
149.858765 140.0
149.892868 108.0
149.931519 168.0
149.973297 48.0
150.019608 128.0
150.071518 148.0
150.097626 180.0
150.134216 192.0
150.180557 132.0
150.251297 200.0
150.325058 156.0
150.368423 168.0
150.397705 180.0
150.590607 104.0
150.607697 76.0
150.634567 132.0
150.688309 172.0
150.711304 236.0
150.754288 196.0
150.80072 92.0
150.878937 124.0
150.896057 60.0
150.947403 140.0
151.154709 188.0
151.177353 196.0
151.226593 164.0
151.248337 164.0
151.272812 156.0
151.511948 436.0
151.5569 132.0
151.58876 148.0
151.701508 160.0
151.72934 192.0
151.768082 128.0
151.796204 96.0
151.885422 140.0
151.907501 184.0
151.939392 112.0
151.957626 228.0
152.031372 164.0
152.071899 96.0
152.136536 168.0
152.167633 92.0
152.191925 148.0
152.226562 172.0
152.391144 148.0
152.41571 196.0
152.455032 152.0
152.526306 144.0
152.558258 220.0
152.586761 196.0
152.641861 144.0
152.659073 132.0
152.793884 148.0
152.823868 128.0
152.851288 144.0
152.881149 160.0
152.91246 140.0
152.94693 196.0
153.053406 232.0
153.077057 172.0
153.183319 176.0
153.35408 172.0
153.453613 136.0
153.519714 136.0
153.565369 168.0
153.592438 128.0
153.622116 212.0
153.651718 92.0
153.713394 124.0
153.745483 40.0
153.856552 116.0
153.918274 172.0
154.022003 156.0
154.050751 196.0
154.069931 432.0
154.133179 132.0
154.177658 252.0
154.222153 292.0
154.251816 132.0
154.271591 156.0
154.301254 160.0
154.320175 120.0
154.449631 80.0
154.509567 176.0
154.533737 48.0
154.561386 164.0
154.585709 212.0
154.66243 276.0
154.711929 244.0
154.731735 76.0
154.87735 120.0
154.981903 220.0
155.004608 144.0
155.049866 216.0
155.075394 344.0
155.125977 204.0
155.14595 208.0
155.192581 144.0
155.222336 284.0
155.249619 108.0
155.301697 176.0
155.333557 172.0
155.386871 168.0
155.408371 100.0
155.430695 148.0
155.497711 144.0
155.557281 304.0
155.601028 224.0
155.621826 120.0
155.699814 176.0
155.731094 204.0
155.750961 176.0
155.781937 144.0
155.809158 220.0
155.825485 196.0
155.895065 120.0
155.992004 248.0
156.021835 132.0
156.05777 88.0
156.065186 136.0
156.135437 128.0
156.185959 160.0
156.213318 164.0
156.355148 180.0
156.439774 148.0
156.496674 164.0
156.581863 176.0
156.628174 116.0
156.666397 128.0
156.758575 120.0
156.793472 96.0
156.81839 120.0
156.89566 80.0
156.930573 152.0
157.005219 120.0
157.08519 104.0
157.110138 128.0
157.26236 120.0
157.344727 136.0
157.402161 100.0
157.499557 128.0
157.529541 156.0
157.547028 148.0
157.579498 176.0
157.608398 276.0
157.734451 220.0
157.752502 180.0
157.809448 88.0
157.974503 128.0
158.039688 1148.0
158.075806 148.0
158.159943 192.0
158.227264 136.0
158.262405 128.0
158.322418 172.0
158.527847 232.0
158.594528 172.0
158.740631 184.0
158.823685 168.0
158.878876 160.0
159.042435 440.0
159.065765 144.0
159.170029 160.0
159.210205 168.0
159.270477 180.0
159.29303 164.0
159.386917 172.0
159.481537 112.0
159.541641 128.0
159.58461 192.0
159.697784 128.0
159.747437 176.0
159.770615 184.0
159.779739 144.0
159.793121 124.0
159.798859 112.0
160.023071 200.0
160.042145 248.0
160.067734 156.0
160.150833 124.0
160.279312 176.0
160.31459 200.0
160.343536 108.0
160.442688 144.0
160.473404 108.0
160.541046 208.0
160.622192 196.0
160.649933 132.0
160.67012 116.0
160.694427 152.0
160.756912 204.0
160.781143 116.0
160.824051 116.0
160.897263 52.0
160.91745 28.0
160.983109 132.0
161.000778 160.0
161.041306 152.0
161.24234 104.0
161.313995 212.0
161.322861 204.0
161.328552 144.0
161.357071 180.0
161.389618 128.0
161.430801 148.0
161.455688 172.0
161.512238 112.0
161.543045 132.0
161.577103 212.0
161.607269 160.0
161.64035 160.0
161.669403 92.0
161.690964 172.0
161.756775 156.0
161.840317 172.0
161.863113 116.0
161.881699 156.0
161.939087 128.0
161.987213 196.0
162.037888 224.0
162.057114 204.0
162.075882 48.0
162.098694 120.0
162.120392 164.0
162.187393 140.0
162.217819 124.0
162.249405 232.0
162.291336 192.0
162.311615 132.0
162.361893 228.0
162.402924 188.0
162.469376 100.0
162.547531 224.0
162.570374 144.0
162.664276 164.0
162.707428 236.0
162.770905 112.0
162.788681 176.0
162.958878 76.0
163.010406 112.0
163.035751 156.0
163.172363 88.0
163.241013 116.0
163.309677 116.0
163.386002 216.0
163.406616 112.0
163.431519 112.0
163.468399 188.0
163.505585 108.0
163.55336 156.0
163.582916 148.0
163.613754 180.0
163.696518 188.0
163.795532 196.0
163.879929 160.0
163.90361 136.0
163.974655 204.0
164.045837 196.0
164.112701 196.0
164.221527 140.0
164.264877 172.0
164.287842 112.0
164.313354 164.0
164.369492 132.0
164.458817 144.0
164.491989 144.0
164.548157 152.0
164.566025 160.0
164.778015 180.0
164.811234 156.0
164.834229 156.0
164.857224 60.0
164.890457 112.0
164.917969 256.0
164.959473 124.0
164.983383 132.0
165.014587 308.0
165.056625 128.0
165.164032 152.0
165.224442 240.0
165.297073 200.0
165.317535 52.0
165.453201 348.0
165.512085 28.0
165.611969 128.0
165.711868 144.0
165.752869 120.0
165.781067 132.0
165.811813 108.0
165.850266 176.0
165.870758 152.0
165.911774 68.0
165.952805 108.0
165.981003 104.0
166.051682 1744.0
166.094696 196.0
166.11438 188.0
166.155426 120.0
166.194733 124.0
166.234955 144.0
166.306824 132.0
166.324783 124.0
166.466736 168.0
166.573868 152.0
166.59404 164.0
166.663788 96.0
166.789719 176.0
166.869415 120.0
166.887405 192.0
166.941406 176.0
166.981064 208.0
167.010849 212.0
167.060791 692.0
167.116318 92.0
167.147202 60.0
167.299057 96.0
167.492188 224.0
167.525665 56.0
167.55658 184.0
167.59523 124.0
167.647278 244.0
167.687363 192.0
167.742142 212.0
167.778229 152.0
167.79628 140.0
167.819473 68.0
167.87175 208.0
167.932938 248.0
168.020706 168.0
168.067825 4112.0
168.20903 88.0
168.309723 56.0
168.330383 148.0
168.382034 140.0
168.401642 128.0
168.446609 140.0
168.46727 76.0
168.503433 68.0
168.5672 128.0
168.611969 124.0
168.662506 164.0
168.694687 168.0
168.730118 124.0
168.75592 268.0
168.816208 160.0
168.906494 180.0
168.966232 108.0
169.043854 52.0
169.073837 444.0
169.223557 172.0
169.276825 176.0
169.416687 52.0
169.436691 216.0
169.502197 176.0
169.528229 176.0
169.549637 116.0
169.624008 72.0
169.680618 244.0
169.714737 196.0
169.796921 208.0
169.828644 208.0
169.843719 164.0
169.940399 144.0
170.017227 296.0
170.073105 272.0
170.101303 212.0
170.135056 84.0
170.162231 216.0
170.21553 100.0
170.269241 176.0
170.293442 124.0
170.354645 100.0
170.412949 304.0
170.440201 96.0
170.488235 156.0
170.532486 108.0
170.581863 124.0
170.624252 144.0
170.646866 120.0
170.821106 224.0
170.860138 112.0
170.908768 144.0
171.003372 164.0
171.09436 72.0
171.123001 108.0
171.258408 64.0
171.307907 180.0
171.381012 192.0
171.462936 176.0
171.542435 228.0
171.607605 76.0
171.632126 156.0
171.651932 120.0
171.753647 96.0
171.774521 148.0
171.813644 92.0
171.847565 160.0
171.970215 136.0
172.035995 140.0
172.07724 172.0
172.125717 156.0
172.178482 172.0
172.272736 192.0
172.403763 48.0
172.442963 176.0
172.474335 132.0
172.518768 132.0
172.555374 128.0
172.581512 184.0
172.646881 148.0
172.678268 156.0
172.853546 148.0
172.896622 204.0
172.993744 148.0
173.025833 180.0
173.052475 188.0
173.107056 228.0
173.140884 168.0
173.28035 228.0
173.329117 176.0
173.356384 148.0
173.410126 244.0
173.448059 100.0
173.496048 104.0
173.529327 148.0
173.64209 200.0
173.68689 148.0
173.851974 128.0
173.886093 156.0
174.047989 404.0
174.101364 140.0
174.127625 184.0
174.151276 116.0
174.189667 196.0
174.217056 152.0
174.322968 204.0
174.350388 172.0
174.384354 144.0
174.429794 120.0
174.477112 144.0
174.531769 304.0
174.582291 148.0
174.652908 172.0
174.700653 180.0
174.741928 128.0
174.766434 228.0
174.834839 156.0
174.90303 212.0
174.992432 212.0
175.042816 104.0
175.074417 112.0
175.121582 228.0
175.169235 120.0
175.203476 140.0
175.231476 180.0
175.319412 92.0
175.380035 116.0
175.422211 208.0
175.442719 112.0
175.476044 180.0
175.503937 84.0
175.548767 224.0
175.575134 176.0
175.652908 180.0
175.712677 220.0
175.802017 180.0
175.873276 100.0
175.907593 128.0
176.00264 140.0
176.126755 196.0
176.192795 160.0
176.282639 120.0
176.311707 220.0
176.374008 128.0
176.452866 168.0
176.529968 348.0
176.582169 228.0
176.634277 188.0
176.663528 196.0
176.779785 72.0
176.798309 176.0
176.819733 132.0
176.935959 112.0
176.983612 200.0
177.033524 160.0
177.046661 104.0
177.110733 168.0
177.155762 96.0
177.176956 48.0
177.21405 200.0
177.354507 104.0
177.394272 84.0
177.418121 80.0
177.447906 156.0
177.502975 160.0
177.59845 144.0
177.776199 144.0
177.802734 84.0
177.874405 236.0
177.899658 280.0
177.940781 132.0
177.991226 160.0
178.023087 120.0
178.131912 144.0
178.19574 168.0
178.248886 184.0
178.355194 148.0
178.37912 148.0
178.403046 128.0
178.445572 228.0
178.509399 60.0
178.54332 196.0
178.722198 204.0
178.751465 128.0
178.86058 132.0
178.905838 232.0
179.001694 80.0
179.063278 340.0
179.086914 208.0
179.165894 148.0
179.173157 116.0
179.18306 212.0
179.265411 184.0
179.30928 208.0
179.340027 92.0
179.392715 208.0
179.428009 88.0
179.449326 48.0
179.561325 120.0
179.580002 152.0
179.609344 236.0
179.636017 124.0
179.679565 148.0
179.746201 200.0
179.82547 212.0
179.846817 148.0
179.868164 60.0
179.89032 224.0
179.996323 236.0
180.020355 96.0
180.066284 680.0
180.113831 132.0
180.162521 176.0
180.226044 44.0
180.263443 164.0
180.312637 108.0
180.345505 216.0
180.472748 428.0
180.497116 136.0
180.61409 132.0
180.660278 144.0
180.710968 164.0
180.80632 148.0
180.922745 160.0
180.987183 300.0
181.020493 108.0
181.074509 780.0
181.108871 220.0
181.152924 108.0
181.224838 152.0
181.280334 80.0
181.304916 160.0
181.382172 144.0
181.449203 144.0
181.48941 116.0
181.623505 200.0
181.642288 140.0
181.695938 68.0
181.736267 124.0
181.763016 176.0
181.875732 100.0
181.916 132.0
181.983109 228.0
182.034058 280.0
182.083069 4904.0
182.144241 64.0
182.171112 60.0
182.195282 116.0
182.214096 112.0
182.266235 208.0
182.294708 176.0
182.332001 100.0
182.348724 200.0
182.391464 156.0
182.429092 144.0
182.533951 184.0
182.587738 116.0
182.617325 184.0
182.660355 148.0
182.706085 124.0
182.73703 72.0
182.773346 200.0
182.813721 44.0
182.851395 172.0
182.894455 176.0
182.954468 68.0
183.041824 6228.0
183.086823 680.0
183.118927 68.0
183.142181 100.0
183.182587 172.0
183.379288 44.0
183.435074 240.0
183.480728 196.0
183.510025 152.0
183.543732 144.0
183.573395 148.0
183.669174 124.0
183.688507 200.0
183.734985 92.0
183.761597 140.0
183.766556 164.0
183.837753 132.0
183.857056 96.0
183.941162 232.0
183.978119 228.0
184.04364 528.0
184.071014 160.0
184.102325 88.0
184.145523 176.0
184.164444 256.0
184.211227 224.0
184.323837 120.0
184.364365 148.0
184.391388 136.0
184.472488 172.0
184.548187 84.0
184.569809 108.0
184.632004 128.0
184.668915 152.0
184.699036 172.0
184.742325 204.0
184.786194 216.0
184.943146 152.0
184.997284 196.0
185.016235 116.0
185.0383 280.0
185.071442 184.0
185.107635 148.0
185.173294 52.0
185.200378 240.0
185.251846 100.0
185.27449 168.0
185.353943 164.0
185.387314 80.0
185.547241 48.0
185.601471 120.0
185.640167 176.0
185.669266 112.0
185.699097 116.0
185.731354 148.0
185.788605 164.0
185.816864 136.0
185.848297 180.0
185.889008 108.0
186.001022 220.0
186.053635 464.0
186.122452 152.0
186.224609 84.0
186.250092 140.0
186.288116 256.0
186.318314 204.0
186.348267 172.0
186.372345 108.0
186.394073 84.0
186.421249 148.0
186.510941 224.0
186.634735 124.0
186.698547 248.0
186.869904 136.0
186.907166 156.0
186.940659 104.0
186.997803 112.0
187.049606 308.0
187.17749 188.0
187.204712 204.0
187.321671 152.0
187.340897 196.0
187.360535 192.0
187.44989 108.0
187.558899 148.0
187.599792 288.0
187.68158 96.0
187.759216 180.0
187.770798 84.0
187.775558 156.0
187.989822 164.0
188.028488 716.0
188.055267 184.0
188.059387 148.0
188.17543 120.0
188.292862 176.0
188.365601 208.0
188.40976 216.0
188.445831 208.0
188.464951 80.0
188.494476 184.0
188.512009 236.0
188.570023 260.0
188.626205 168.0
188.64534 156.0
188.775116 196.0
188.872299 68.0
188.924271 112.0
189.022415 152.0
189.05835 136.0
189.080246 220.0
189.223984 196.0
189.272461 204.0
189.31842 152.0
189.351929 236.0
189.386887 164.0
189.414276 36.0
189.548523 32.0
189.584152 184.0
189.606079 136.0
189.68248 164.0
189.750366 296.0
189.79451 108.0
189.842499 168.0
189.866516 176.0
189.955276 212.0
190.013428 188.0
190.049133 372.0
190.083237 116.0
190.107941 188.0
190.173813 76.0
190.214981 176.0
190.253418 48.0
190.314819 120.0
190.382462 232.0
190.459366 120.0
190.541779 160.0
190.593643 164.0
190.634781 212.0
190.764389 96.0
190.796692 176.0
190.844116 184.0
190.877655 160.0
190.95723 212.0
191.029388 216.0
191.05249 240.0
191.106033 196.0
191.132919 64.0
191.154938 148.0
191.226486 148.0
191.28154 184.0
191.36232 108.0
191.406906 124.0
191.457748 180.0
191.631119 176.0
191.678131 56.0
191.70845 216.0
191.837997 44.0
191.879349 164.0
192.002136 188.0
192.067261 2516.0
192.199295 232.0
192.221359 148.0
192.265518 120.0
192.307648 76.0
192.331757 184.0
192.361908 156.0
192.455994 136.0
192.48912 104.0
192.554733 192.0
192.562347 140.0
192.571213 284.0
192.685242 196.0
192.721161 136.0
192.828934 132.0
192.86763 148.0
192.896439 364.0
192.925674 224.0
192.954529 100.0
192.991699 240.0
193.025208 176.0
193.072647 680.0
193.135712 224.0
193.169022 184.0
193.216248 120.0
193.293533 60.0
193.352203 100.0
193.406998 188.0
193.440216 196.0
193.527283 156.0
193.546036 144.0
193.653427 160.0
193.686661 144.0
193.787384 124.0
193.877838 100.0
194.072601 812.0
194.105148 312.0
194.135742 168.0
194.180023 36.0
194.25769 104.0
194.279892 84.0
194.357574 136.0
194.416595 164.0
194.468582 164.0
194.52359 196.0
194.551849 56.0
194.576843 232.0
194.621262 188.0
194.657364 132.0
194.707855 212.0
194.746231 196.0
194.846237 148.0
194.926819 116.0
194.954605 104.0
195.001846 188.0
195.036896 316.0
195.078003 648.0
195.129715 148.0
195.185333 132.0
195.204788 148.0
195.260635 152.0
195.343857 120.0
195.374466 144.0
195.413406 120.0
195.452362 48.0
195.520203 116.0
195.626923 212.0
195.665833 172.0
195.696884 160.0
195.839325 132.0
195.858826 128.0
195.886688 148.0
195.922897 192.0
195.992554 56.0
196.038071 136.0
196.067795 128.0
196.095657 204.0
196.130035 168.0
196.151413 68.0
196.179291 188.0
196.223892 104.0
196.300568 208.0
196.380051 264.0
196.503723 180.0
196.608826 164.0
196.645111 36.0
196.698151 120.0
196.74028 176.0
196.807022 292.0
196.8517 244.0
196.876831 112.0
196.907486 148.0
196.949448 84.0
196.977386 152.0
197.032166 372.0
197.050705 388.0
197.281982 192.0
197.318329 52.0
197.421783 104.0
197.502899 136.0
197.527054 204.0
197.562973 88.0
197.637177 108.0
197.662354 196.0
197.703796 168.0
197.714172 164.0
197.724945 88.0
197.790497 164.0
197.85199 192.0
197.961884 156.0
197.989883 136.0
198.021057 124.0
198.045593 164.0
198.106323 332.0
198.152359 120.0
198.181747 220.0
198.23082 200.0
198.256027 200.0
198.346909 184.0
198.527969 52.0
198.628937 184.0
198.668213 112.0
198.740128 120.0
198.864624 140.0
198.8927 48.0
198.948837 168.0
198.99437 148.0
199.045273 304.0
199.146317 208.0
199.1763 188.0
199.207199 172.0
199.336441 160.0
199.409515 80.0
199.436188 236.0
199.482025 256.0
199.502274 156.0
199.581482 184.0
199.637238 180.0
199.699341 144.0
199.766617 156.0
199.851013 100.0
199.939346 296.0
199.965408 184.0
200.048691 384.0
200.185532 176.0
200.281738 196.0
200.313354 344.0
200.388794 148.0
200.439896 144.0
200.513397 184.0
200.56633 108.0
200.596207 120.0
200.657806 116.0
200.70166 104.0
200.727036 256.0
200.779953 188.0
200.828568 104.0
200.866074 480.0
200.951187 340.0
200.984161 156.0
201.045059 260.0
201.069229 272.0
201.110718 56.0
201.149475 172.0
201.22081 152.0
201.299866 124.0
201.360291 204.0
201.381775 108.0
201.415665 156.0
201.48912 76.0
201.524628 56.0
201.556931 80.0
201.596481 196.0
201.651093 92.0
201.678452 164.0
201.722549 192.0
201.749115 88.0
201.825378 316.0
201.908752 192.0
201.942993 128.0
201.974045 164.0
202.06073 176.0
202.255478 224.0
202.33757 196.0
202.368713 116.0
202.414215 176.0
202.469894 60.0
202.552795 104.0
202.595276 132.0
202.633133 212.0
202.692108 160.0
202.731293 248.0
202.75679 156.0
202.776627 132.0
202.827652 160.0
202.890366 128.0
202.912704 200.0
203.021164 128.0
203.053009 124.0
203.112549 220.0
203.182129 128.0
203.2332 108.0
203.294724 88.0
203.320877 180.0
203.372253 124.0
203.494324 88.0
203.515839 152.0
203.539749 116.0
203.617538 180.0
203.6689 228.0
203.73288 168.0
203.761292 128.0
203.803909 204.0
203.828629 120.0
203.84938 144.0
203.88623 156.0
203.904556 144.0
203.948227 276.0
203.980118 148.0
204.017075 108.0
204.05751 108.0
204.130798 148.0
204.197708 160.0
204.287231 112.0
204.352676 88.0
204.403885 148.0
204.435196 160.0
204.494949 236.0
204.523422 160.0
204.554733 188.0
204.691391 132.0
204.76326 188.0
204.791061 240.0
204.865128 76.0
204.982285 168.0
205.043274 156.0
205.063309 196.0
205.087387 136.0
205.170059 164.0
205.195724 176.0
205.309784 84.0
205.332596 96.0
205.41246 52.0
205.436737 124.0
205.480927 112.0
205.520874 64.0
205.583649 136.0
205.685806 136.0
205.720657 184.0
205.85199 124.0
205.889114 96.0
205.984375 148.0
206.042282 200.0
206.086212 196.0
206.111938 120.0
206.150284 284.0
206.194809 48.0
206.280426 184.0
206.323441 212.0
206.346313 100.0
206.400635 104.0
206.457825 84.0
206.49501 168.0
206.635635 100.0
206.689545 84.0
206.832642 176.0
206.861099 144.0
206.907059 108.0
206.94429 176.0
206.971375 164.0
207.041275 244.0
207.077271 540.0
207.107513 184.0
207.127563 148.0
207.209122 204.0
207.276047 184.0
207.300385 188.0
207.336731 72.0
207.392487 168.0
207.454239 160.0
207.484543 212.0
207.558777 192.0
207.583267 120.0
207.692245 192.0
207.742065 196.0
207.778305 188.0
207.798401 36.0
207.829956 184.0
207.89595 144.0
207.950485 192.0
207.976318 172.0
208.036179 9100.0
208.087067 3408.0
208.134216 148.0
208.180161 168.0
208.205246 120.0
208.234726 192.0
208.276627 68.0
208.306534 76.0
208.347534 224.0
208.421234 188.0
208.434097 80.0
208.510544 148.0
208.542603 128.0
208.599197 184.0
208.648514 136.0
208.691635 148.0
208.734772 56.0
208.757782 172.0
208.782837 296.0
208.846359 100.0
208.868027 120.0
208.924606 140.0
208.973511 92.0
209.038101 1808.0
209.093307 2308.0
209.14003 196.0
209.169205 216.0
209.188278 40.0
209.215683 136.0
209.297958 196.0
209.349899 168.0
209.393799 172.0
209.4142 48.0
209.451401 96.0
209.487228 76.0
209.546463 152.0
209.604095 124.0
209.676132 248.0
209.826035 64.0
209.900345 176.0
209.932861 152.0
209.967316 168.0
210.041916 152.0
210.095352 416.0
210.154831 40.0
210.203873 196.0
210.23851 112.0
210.302002 56.0
210.440567 172.0
210.468613 56.0
210.501205 88.0
210.550293 96.0
210.586044 116.0
210.68895 92.0
210.779572 88.0
210.82515 116.0
210.908569 100.0
210.972168 168.0
211.048874 248.0
211.119629 40.0
211.142761 48.0
211.20639 116.0
211.232422 156.0
211.264252 52.0
211.359726 124.0
211.396439 180.0
211.432068 104.0
211.461014 128.0
211.52179 104.0
211.608643 96.0
211.631805 92.0
211.683929 128.0
211.736053 48.0
211.756332 152.0
211.782394 148.0
211.811142 108.0
211.853821 164.0
211.89537 132.0
211.918549 108.0
211.938828 152.0
212.008377 456.0
212.050507 652.0
212.086166 172.0
212.143372 28.0
212.173599 84.0
212.266388 184.0
212.385284 160.0
212.464233 188.0
212.495529 152.0
212.515839 120.0
212.541946 76.0
212.591278 216.0
212.687057 168.0
212.710281 76.0
212.791199 192.0
212.811066 168.0
212.855438 160.0
212.893188 40.0
212.916428 228.0
213.057587 472.0
213.122681 152.0
213.147766 220.0
213.169083 168.0
213.240311 176.0
213.30867 92.0
213.35228 340.0
213.398804 140.0
213.491852 72.0
213.567001 248.0
213.608185 176.0
213.639771 140.0
213.665283 132.0
213.71875 76.0
213.76239 128.0
213.794403 208.0
213.842514 132.0
213.977783 124.0
214.05011 376.0
214.0811 292.0
214.135025 220.0
214.236984 164.0
214.376831 76.0
214.423462 192.0
214.478851 180.0
214.532196 80.0
214.547348 128.0
214.654968 172.0
214.72377 144.0
214.75293 116.0
214.808258 128.0
214.881287 164.0
214.913376 244.0
215.001678 200.0
215.040787 2804.0
215.123154 132.0
215.155624 176.0
215.222488 160.0
215.386322 224.0
215.457123 68.0
215.484818 296.0
215.511948 168.0
215.535324 76.0
215.58374 132.0
215.620071 136.0
215.652542 176.0
215.681442 132.0
215.755203 240.0
215.824692 156.0
215.874405 148.0
215.970917 140.0
216.04277 680.0
216.111343 192.0
216.271408 156.0
216.295715 128.0
216.345474 200.0
216.444519 164.0
216.496643 96.0
216.529953 84.0
216.564178 124.0
216.60318 172.0
216.708633 164.0
216.834641 168.0
216.861023 180.0
216.90477 160.0
216.978287 84.0
216.99881 112.0
217.05603 2920.0
217.142487 176.0
217.168884 52.0
217.195282 68.0
217.21582 124.0
217.263962 88.0
217.297958 160.0
217.353714 76.0
217.432037 156.0
217.547424 220.0
217.572845 188.0
217.673752 292.0
217.716705 128.0
217.767639 200.0
217.837952 120.0
217.84462 152.0
217.91452 192.0
217.952728 132.0
217.993866 180.0
218.014435 100.0
218.063583 760.0
218.104019 200.0
218.144394 148.0
218.234894 160.0
218.308411 144.0
218.415939 128.0
218.455475 216.0
218.488617 208.0
218.576096 92.0
218.776245 72.0
218.832184 108.0
218.926407 156.0
218.967636 56.0
219.036209 200.0
219.064346 172.0
219.090179 172.0
219.153229 128.0
219.229843 128.0
219.294678 140.0
219.322891 152.0
219.354202 204.0
219.414062 160.0
219.474503 96.0
219.503983 44.0
219.551178 132.0
219.58316 236.0
219.693756 292.0
219.740036 156.0
219.839371 168.0
219.884125 168.0
219.934723 116.0
219.990814 164.0
220.052811 168.0
220.078506 176.0
220.139709 120.0
220.203415 128.0
220.238846 176.0
220.286118 80.0
220.342239 188.0
220.368835 216.0
220.411072 216.0
220.458878 136.0
220.484955 196.0
220.557968 88.0
220.693954 96.0
220.718887 196.0
220.741272 164.0
220.830719 212.0
220.921692 128.0
220.963104 532.0
221.007492 112.0
221.046295 160.0
221.196899 136.0
221.222977 124.0
221.24202 132.0
221.291641 152.0
221.333084 184.0
221.386383 112.0
221.422653 264.0
221.443954 180.0
221.487091 204.0
221.528564 220.0
221.578918 200.0
221.635941 164.0
221.694489 152.0
221.770187 192.0
221.829575 176.0
221.851578 124.0
221.887146 136.0
222.052963 248.0
222.091766 92.0
222.251968 240.0
222.290543 108.0
222.326157 100.0
222.391449 120.0
222.412231 104.0
222.44487 180.0
222.519089 116.0
222.551758 188.0
222.687515 140.0
222.7379 100.0
222.789352 332.0
222.816086 112.0
222.868561 232.0
222.909744 56.0
222.946838 156.0
223.017929 228.0
223.047974 1412.0
223.130386 160.0
223.170898 40.0
223.208435 80.0
223.336319 64.0
223.357132 80.0
223.389862 40.0
223.479004 112.0
223.529694 108.0
223.671524 236.0
223.710312 140.0
223.836304 132.0
223.889893 192.0
223.925644 112.0
223.946487 180.0
223.994141 148.0
224.056961 292.0
224.131195 140.0
224.211655 232.0
224.261414 208.0
224.318481 204.0
224.32872 172.0
224.414352 172.0
224.462616 108.0
224.557495 136.0
224.641006 172.0
224.694717 128.0
224.78804 100.0
224.826004 132.0
224.930466 124.0
224.96022 116.0
224.987915 164.0
225.062195 744.0
225.163361 116.0
225.276855 120.0
225.336609 328.0
225.402344 116.0
225.447174 52.0
225.474075 96.0
225.512924 72.0
225.549194 176.0
225.579758 100.0
225.617538 160.0
225.641083 156.0
225.677338 168.0
225.767044 112.0
225.814896 224.0
225.835831 148.0
225.856781 116.0
225.877716 124.0
225.916595 56.0
226.006363 188.0
226.045181 316.0
226.076492 292.0
226.103165 236.0
226.319214 128.0
226.365128 112.0
226.401489 96.0
226.437439 152.0
226.460358 104.0
226.483215 148.0
226.521301 176.0
226.627411 124.0
226.667542 136.0
226.752014 140.0
226.772995 156.0
226.80896 156.0
226.882233 208.0
226.955872 112.0
227.077713 248.0
227.087891 176.0
227.167603 80.0
227.303818 128.0
227.424667 60.0
227.480896 108.0
227.522919 156.0
227.585968 156.0
227.61882 196.0
227.661041 88.0
227.727112 104.0
227.75415 176.0
227.852097 252.0
228.044449 188.0
228.091888 220.0
228.254211 180.0
228.301147 72.0
228.349274 176.0
228.385361 160.0
228.434601 216.0
228.517731 176.0
228.592194 228.0
228.650131 96.0
228.67421 184.0
228.704315 92.0
228.767517 192.0
228.839783 108.0
228.887955 48.0
228.924088 40.0
229.008423 100.0
229.059464 536.0
229.101791 160.0
229.166687 216.0
229.246246 216.0
229.272156 236.0
229.325623 200.0
229.461731 164.0
229.490585 196.0
229.544586 88.0
229.599136 36.0
229.632309 124.0
229.746933 96.0
229.80426 188.0
229.900162 128.0
229.949112 64.0
229.982315 116.0
230.009476 256.0
230.066254 168.0
230.085922 180.0
230.181564 188.0
230.202698 164.0
230.231659 292.0
230.368591 148.0
230.37999 172.0
230.456573 176.0
230.522919 176.0
230.574295 236.0
230.655899 80.0
230.704514 192.0
230.731476 184.0
230.773804 140.0
230.81311 116.0
230.921844 176.0
231.016724 148.0
231.071854 2752.0
231.254791 92.0
231.279007 88.0
231.333496 152.0
231.357712 56.0
231.385788 160.0
231.411575 208.0
231.462296 148.0
231.580444 60.0
231.602997 172.0
231.654205 172.0
231.721146 56.0
231.784775 160.0
231.816544 144.0
231.894836 176.0
231.946945 236.0
232.077393 560.0
232.209183 120.0
232.248611 80.0
232.306259 160.0
232.357819 132.0
232.431442 136.0
232.488297 204.0
232.603256 192.0
232.658279 212.0
232.749359 84.0
232.788834 116.0
232.827072 272.0
232.867798 100.0
232.957794 32.0
233.010574 160.0
233.055603 308.0
233.299286 136.0
233.533432 168.0
233.625092 92.0
233.658157 184.0
233.727158 188.0
233.755524 96.0
233.846817 116.0
233.895523 44.0
234.008163 144.0
234.049744 1448.0
234.102234 300.0
234.169556 124.0
234.250305 180.0
234.306625 112.0
234.367111 108.0
234.455933 76.0
234.521393 168.0
234.544327 120.0
234.57402 140.0
234.620529 136.0
234.643478 84.0
234.677399 320.0
234.730301 264.0
234.794342 120.0
234.824615 112.0
234.841202 164.0
234.879349 336.0
234.9263 184.0
234.983459 220.0
235.04837 36296.0
235.156769 168.0
235.181412 152.0
235.188568 132.0
235.233032 36.0
235.257019 184.0
235.322678 144.0
235.357788 100.0
235.376038 52.0
235.385818 44.0
235.405426 144.0
235.454727 188.0
235.499039 148.0
235.555237 164.0
235.58606 116.0
235.648315 216.0
235.679611 188.0
235.700989 296.0
235.730087 200.0
235.774338 100.0
235.83284 92.0
235.867966 152.0
235.927841 108.0
236.052979 9576.0
236.161179 160.0
236.203781 76.0
236.223572 124.0
236.272278 384.0
236.292694 108.0
236.341019 128.0
236.399658 84.0
236.454834 128.0
236.486954 104.0
236.509674 76.0
236.534393 288.0
236.569809 176.0
236.596161 168.0
236.628784 108.0
236.656372 164.0
236.682785 200.0
236.690231 120.0
236.703171 172.0
236.711258 208.0
236.776825 124.0
236.802307 108.0
236.842453 112.0
236.911438 344.0
236.985336 172.0
237.063675 47936.0
237.157394 36.0
237.178375 260.0
237.200638 52.0
237.2276 196.0
237.269943 140.0
237.320206 88.0
237.350296 232.0
237.354965 132.0
237.381989 220.0
237.404617 76.0
237.438263 144.0
237.481262 140.0
237.509491 72.0
237.541016 88.0
237.569885 200.0
237.602936 88.0
237.643188 276.0
237.671478 224.0
237.723129 248.0
237.7453 152.0
237.793304 108.0
237.86908 44.0
237.898392 88.0
237.949951 208.0
237.983231 132.0
238.065979 7608.0
238.10994 144.0
238.145721 144.0
238.173813 160.0
238.218613 60.0
238.253235 56.0
238.274734 160.0
238.31662 92.0
238.417862 200.0
238.478577 108.0
238.489838 36.0
238.513321 188.0
238.582062 68.0
238.616486 204.0
238.711197 52.0
238.774933 180.0
238.864975 132.0
238.898819 152.0
238.940002 72.0
238.963242 136.0
238.971786 128.0
238.980164 228.0
239.066696 628.0
239.245956 240.0
239.29657 168.0
239.328613 160.0
239.407364 144.0
239.466583 224.0
239.499405 112.0
239.524292 64.0
239.55011 148.0
239.583725 92.0
239.635681 116.0
239.658646 156.0
239.702759 180.0
239.756912 248.0
239.805679 112.0
239.875 112.0
239.904541 192.0
239.94899 128.0
239.970566 136.0
239.996048 124.0
240.032242 128.0
240.07811 128.0
240.119705 84.0
240.167938 60.0
240.24321 392.0
240.298706 268.0
240.331436 188.0
240.371552 228.0
240.405502 44.0
240.439453 124.0
240.470306 108.0
240.513992 80.0
240.535339 236.0
240.630829 128.0
240.745087 68.0
240.770325 320.0
240.814148 176.0
240.855911 180.0
240.871063 76.0
240.878799 164.0
240.936203 164.0
240.971939 72.0
241.054138 776.0
241.094406 184.0
241.121994 48.0
241.183807 136.0
241.273453 100.0
241.30127 104.0
241.372391 168.0
241.465164 112.0
241.486816 44.0
241.529434 180.0
241.619125 156.0
241.740509 80.0
241.780731 120.0
241.816696 148.0
241.882874 132.0
241.904541 128.0
241.981934 428.0
242.052734 428.0
242.093414 152.0
242.149155 60.0
242.214203 76.0
242.242081 164.0
242.291641 128.0
242.325729 76.0
242.396988 68.0
242.446579 40.0
242.481049 96.0
242.526245 176.0
242.58606 92.0
242.707703 168.0
242.755386 228.0
242.79689 128.0
242.824814 60.0
242.889938 108.0
242.911652 124.0
242.959503 88.0
242.99852 168.0
243.059845 436.0
243.21994 204.0
243.330612 104.0
243.448608 180.0
243.47345 120.0
243.529358 160.0
243.588882 172.0
243.615097 116.0
243.794006 132.0
243.936417 168.0
243.965317 200.0
243.976913 140.0
244.029678 132.0
244.072296 776.0
244.135406 96.0
244.182053 168.0
244.24115 52.0
244.278473 156.0
244.325134 152.0
244.486938 204.0
244.53363 136.0
244.564743 108.0
244.623886 156.0
244.670593 104.0
244.700455 196.0
244.751541 160.0
244.841843 52.0
244.863647 136.0
244.916595 72.0
244.941513 36.0
245.016281 164.0
245.041199 128.0
245.078598 112.0
245.213882 212.0
245.265579 124.0
245.296753 228.0
245.426178 316.0
245.477585 164.0
245.523315 144.0
245.552429 256.0
245.62529 112.0
245.659729 120.0
245.780167 108.0
245.831818 144.0
245.873779 160.0
245.951813 92.0
246.017365 152.0
246.087158 180.0
246.161148 156.0
246.210953 104.0
246.259323 164.0
246.304657 124.0
246.326523 44.0
246.368927 188.0
246.476486 168.0
246.498352 188.0
246.531921 228.0
246.726517 172.0
246.764038 288.0
246.810944 156.0
246.936035 172.0
246.9673 184.0
247.028961 184.0
247.059616 284.0
247.10495 196.0
247.148758 80.0
247.189362 176.0
247.22493 200.0
247.273926 116.0
247.320679 128.0
247.358444 64.0
247.38974 148.0
247.462814 248.0
247.522797 196.0
247.605789 152.0
247.668442 124.0
247.727951 204.0
247.763153 120.0
247.936676 104.0
248.008179 112.0
248.031921 144.0
248.053406 328.0
248.074646 120.0
248.12291 144.0
248.226288 112.0
248.276474 140.0
248.323517 132.0
248.414474 48.0
248.439575 60.0
248.464676 176.0
248.499191 292.0
248.563721 148.0
248.590179 156.0
248.612152 96.0
248.718857 212.0
248.774551 104.0
248.875824 120.0
248.913254 156.0
248.960617 160.0
249.063431 3128.0
249.117828 152.0
249.186783 84.0
249.27475 188.0
249.313766 148.0
249.343887 120.0
249.365891 136.0
249.40686 124.0
249.475906 156.0
249.530899 136.0
249.567078 136.0
249.625061 156.0
249.673584 60.0
249.730606 152.0
249.791367 152.0
249.88475 28.0
249.94838 132.0
249.986145 288.0
250.064102 5496.0
250.132477 140.0
250.166214 184.0
250.244156 148.0
250.282013 112.0
250.32785 176.0
250.36557 220.0
250.400314 216.0
250.437988 216.0
250.47345 76.0
250.532272 208.0
250.54213 140.0
250.552902 180.0
250.619949 128.0
250.664215 116.0
250.701828 180.0
250.766479 124.0
250.873657 84.0
250.913895 220.0
250.935089 324.0
250.962189 436.0
250.99588 240.0
251.078842 53192.0
251.150467 148.0
251.209106 172.0
251.239471 144.0
251.292572 116.0
251.313309 112.0
251.3479 204.0
251.381989 120.0
251.42691 232.0
251.473709 52.0
251.495071 116.0
251.542419 44.0
251.570831 40.0
251.607422 148.0
251.641907 116.0
251.679276 112.0
251.700287 160.0
251.721451 68.0
251.766602 188.0
251.794724 308.0
251.842392 108.0
251.8703 48.0
251.917847 56.0
251.945587 108.0
251.997192 208.0
252.078278 10724.0
252.129913 64.0
252.17099 56.0
252.204468 216.0
252.243698 140.0
252.335373 168.0
252.361115 212.0
252.406067 136.0
252.42691 80.0
252.458694 164.0
252.498413 128.0
252.569382 76.0
252.619995 140.0
252.699097 84.0
252.752884 180.0
252.783997 48.0
252.811218 36.0
252.852036 108.0
252.879471 92.0
252.947083 132.0
252.996582 96.0
253.057861 9524.0
253.130219 216.0
253.149918 112.0
253.176544 136.0
253.181122 100.0
253.200531 208.0
253.253082 136.0
253.281586 236.0
253.326447 124.0
253.363953 32.0
253.388077 108.0
253.452667 160.0
253.512054 120.0
253.55513 156.0
253.604782 204.0
253.649017 92.0
253.686691 152.0
253.72876 104.0
253.752579 192.0
253.782837 96.0
253.817764 156.0
253.871246 44.0
253.894424 144.0
253.922989 68.0
253.973633 420.0
254.02652 88.0
254.063217 1416.0
254.104233 176.0
254.159317 76.0
254.283524 64.0
254.360764 108.0
254.394623 68.0
254.442245 156.0
254.493042 120.0
254.518448 48.0
254.563431 96.0
254.590317 160.0
254.610535 196.0
254.658173 96.0
254.801422 128.0
254.841751 152.0
254.879364 96.0
254.915512 92.0
254.96669 156.0
255.004562 180.0
255.031265 76.0
255.063202 308.0
255.103027 172.0
255.160263 132.0
255.185684 28.0
255.24292 28.0
255.341507 116.0
255.443298 120.0
255.498489 244.0
255.624649 132.0
255.672379 184.0
255.739212 140.0
255.777405 108.0
255.846588 148.0
256.028931 196.0
256.065643 236.0
256.127686 144.0
256.200958 148.0
256.268707 120.0
256.323425 144.0
256.374481 296.0
256.434601 184.0
256.508514 52.0
256.568817 208.0
256.631195 280.0
256.679016 268.0
256.789001 124.0
256.801117 172.0
256.825745 128.0
256.994812 124.0
257.074158 948.0
257.157562 172.0
257.189484 124.0
257.27887 232.0
257.37146 144.0
257.438507 72.0
257.483215 136.0
257.521545 52.0
257.745178 336.0
257.841034 168.0
257.956116 144.0
257.988068 148.0
258.011627 220.0
258.082123 3160.0
258.167145 52.0
258.307861 124.0
258.449371 208.0
258.561584 160.0
258.68866 188.0
258.73349 104.0
258.799713 128.0
258.859589 156.0
258.999268 216.0
259.036713 164.0
259.087158 464.0
259.217133 176.0
259.329315 304.0
259.380585 156.0
259.492798 176.0
259.56012 112.0
259.671234 172.0
259.72049 160.0
259.791046 180.0
259.816711 112.0
259.870209 200.0
259.942719 176.0
260.054077 780.0
260.140839 72.0
260.208862 176.0
260.293488 116.0
260.349548 92.0
260.372009 196.0
260.446747 240.0
260.497375 136.0
260.584045 160.0
260.619385 172.0
260.709351 252.0
260.760956 136.0
260.788788 120.0
260.859009 184.0
260.897125 104.0
260.967224 180.0
260.97464 160.0
261.013947 132.0
261.063538 8176.0
261.10321 164.0
261.140015 212.0
261.181976 152.0
261.244476 120.0
261.313263 200.0
261.324188 176.0
261.41684 96.0
261.562317 176.0
261.592651 152.0
261.651794 184.0
261.674347 164.0
261.716187 152.0
261.748413 176.0
261.787048 176.0
261.833527 228.0
261.901611 152.0
261.978119 184.0
262.059143 11388.0
262.1763 164.0
262.208282 164.0
262.231628 100.0
262.276764 248.0
262.399261 260.0
262.436432 144.0
262.511353 116.0
262.566925 216.0
262.599182 144.0
262.627014 60.0
262.665802 240.0
262.685913 136.0
262.776154 112.0
262.781097 184.0
262.815338 160.0
262.891174 168.0
262.984985 132.0
262.992065 104.0
263.066254 12500.0
263.114471 148.0
263.154236 64.0
263.185638 168.0
263.264008 172.0
263.299561 32.0
263.34021 168.0
263.395081 76.0
263.43103 68.0
263.462646 204.0
263.48349 72.0
263.52243 104.0
263.554749 52.0
263.595886 104.0
263.627686 112.0
263.737823 160.0
263.844543 132.0
263.869415 136.0
263.920197 240.0
263.960083 212.0
263.987885 236.0
264.073303 13052.0
264.13797 116.0
264.21109 52.0
264.240204 28.0
264.271118 96.0
264.346985 180.0
264.370911 232.0
264.414948 40.0
264.47644 84.0
264.511597 148.0
264.524994 96.0
264.579712 252.0
264.646057 116.0
264.683624 52.0
264.726685 108.0
264.767822 48.0
264.811279 76.0
264.835999 76.0
264.854187 108.0
264.913574 124.0
264.934723 116.0
264.998596 128.0
265.07608 2184.0
265.132233 108.0
265.154388 140.0
265.210236 68.0
265.28302 72.0
265.3284 136.0
265.377045 60.0
265.429047 88.0
265.490509 244.0
265.619873 156.0
265.655945 84.0
265.706573 72.0
265.7164 172.0
265.759766 172.0
265.798706 156.0
265.870087 100.0
265.920929 144.0
265.970703 184.0
266.004639 140.0
266.044098 172.0
266.071167 300.0
266.094604 116.0
266.162262 76.0
266.205841 76.0
266.25708 40.0
266.305145 64.0
266.345917 152.0
266.386353 52.0
266.420746 108.0
266.500061 68.0
266.568298 88.0
266.630035 76.0
266.716553 116.0
266.763306 184.0
266.808807 152.0
266.870605 76.0
266.932373 144.0
266.971405 168.0
267.013214 176.0
267.028992 140.0
267.035034 152.0
267.073303 344.0
267.099457 160.0
267.168823 80.0
267.309723 76.0
267.338989 156.0
267.37619 160.0
267.400299 48.0
267.446411 120.0
267.485474 64.0
267.609772 220.0
267.638489 144.0
267.724396 152.0
267.783386 176.0
267.853424 100.0
267.93811 188.0
267.973969 208.0
268.006531 192.0
268.035553 172.0
268.047394 156.0
268.056702 256.0
268.140167 52.0
268.202087 128.0
268.243744 180.0
268.338989 104.0
268.407471 120.0
268.461853 136.0
268.557495 212.0
268.632507 112.0
268.681458 124.0
268.800812 68.0
268.830811 200.0
268.893555 192.0
268.997986 80.0
269.138367 56.0
269.171021 68.0
269.20694 148.0
269.24942 96.0
269.311462 100.0
269.468262 168.0
269.502869 204.0
269.536896 108.0
269.697021 192.0
269.71991 116.0
269.909515 92.0
269.971649 144.0
270.059967 188.0
270.11557 36.0
270.181 132.0
270.267151 124.0
270.315155 144.0
270.425232 212.0
270.550812 156.0
270.707977 168.0
270.783295 160.0
270.842255 56.0
270.877289 212.0
270.940521 164.0
271.109222 156.0
271.150238 124.0
271.281342 204.0
271.315125 92.0
271.501038 136.0
271.546936 32.0
271.576447 60.0
271.710114 140.0
271.750977 164.0
271.786407 120.0
271.855316 196.0
271.953369 92.0
272.18689 132.0
272.266785 120.0
272.452911 116.0
272.485779 164.0
272.537323 168.0
272.699219 176.0
272.792572 136.0
272.820984 56.0
273.064331 128.0
273.088379 228.0
273.172821 192.0
273.258392 124.0
273.311035 160.0
273.365997 324.0
273.396606 48.0
273.469666 140.0
273.620422 168.0
273.66983 132.0
273.721649 164.0
273.743774 192.0
273.785065 104.0
273.82782 176.0
273.873505 188.0
273.933289 116.0
274.06604 248.0
274.117798 164.0
274.150757 228.0
274.184204 136.0
274.248077 136.0
274.378296 104.0
274.413239 140.0
274.462372 164.0
274.506775 204.0
274.539764 168.0
274.592529 128.0
274.65686 100.0
274.737671 204.0
274.773956 64.0
274.863037 144.0
275.066925 2060.0
275.108551 152.0
275.19754 300.0
275.248871 104.0
275.321564 160.0
275.353638 124.0
275.450714 212.0
275.530945 152.0
275.596985 144.0
275.672058 44.0
275.778992 112.0
275.812836 88.0
275.841919 112.0
275.903442 252.0
275.939819 148.0
275.962952 140.0
275.996002 204.0
276.024109 208.0
276.073364 8028.0
276.158051 72.0
276.219604 272.0
276.304688 124.0
276.359253 228.0
276.386322 204.0
276.435974 68.0
276.47998 176.0
276.509369 96.0
276.548492 60.0
276.583466 92.0
276.62793 128.0
276.665405 148.0
276.699402 216.0
276.712555 80.0
276.721893 208.0
276.752319 316.0
276.778687 296.0
276.810516 136.0
276.870728 196.0
276.908356 156.0
276.942108 288.0
277.00174 136.0
277.031006 140.0
277.081299 2912.0
277.137573 356.0
277.179413 252.0
277.221069 140.0
277.27298 348.0
277.31601 292.0
277.349396 220.0
277.382996 236.0
277.402496 108.0
277.435394 96.0
277.447235 120.0
277.514618 368.0
277.55658 472.0
277.578247 144.0
277.590149 244.0
277.63504 164.0
277.675995 304.0
277.703735 280.0
277.74823 260.0
277.795746 268.0
277.807404 428.0
277.817657 376.0
277.846191 292.0
277.881897 380.0
277.914642 312.0
277.930084 560.0
277.952057 348.0
278.026428 1152.0
278.090973 393792.0
278.16803 180.0
278.219086 240.0
278.257233 156.0
278.298401 168.0
278.309418 436.0
278.342438 344.0
278.381744 204.0
278.388916 396.0
278.425964 288.0
278.45343 252.0
278.48114 236.0
278.509521 236.0
278.535767 300.0
278.592316 228.0
278.638519 5208.0
278.665222 408.0
278.72052 372.0
278.767883 260.0
278.818542 232.0
278.865204 348.0
278.952362 672.0
278.983337 232.0
279.029083 400.0
279.092529 67836.0
279.14386 256.0
279.175812 288.0
279.23819 148.0
279.30896 44.0
279.34079 232.0
279.382996 176.0
279.401855 128.0
279.457458 156.0
279.4953 216.0
279.542419 136.0
279.594299 120.0
279.656952 128.0
279.674866 48.0
279.68277 144.0
279.730255 224.0
279.776215 180.0
279.857971 240.0
279.90979 260.0
279.966492 44.0
279.997559 188.0
280.095276 4924.0
280.172424 180.0
280.206024 48.0
280.237305 80.0
280.274445 108.0
280.335632 96.0
280.347229 76.0
280.380554 228.0
280.392456 184.0
280.433746 72.0
280.466583 236.0
280.526489 128.0
280.535309 128.0
280.549805 188.0
280.611908 72.0
280.650452 192.0
280.6875 188.0
280.72818 196.0
280.779144 228.0
280.835541 288.0
280.877258 356.0
280.918854 252.0
280.944305 236.0
280.963104 112.0
280.984619 220.0
281.037415 556.0
281.045471 184.0
281.061249 256.0
281.087158 444.0
281.162048 124.0
281.218262 196.0
281.25882 216.0
281.286041 68.0
281.375824 104.0
281.41098 108.0
281.449524 88.0
281.4888 60.0
281.551208 164.0
281.587616 68.0
281.636292 100.0
281.67276 160.0
281.70047 64.0
281.781982 108.0
281.79068 84.0
281.830505 136.0
281.868164 120.0
281.909698 80.0
281.935608 80.0
281.993378 100.0
282.048309 120.0
282.082184 124.0
282.121002 236.0
282.218506 72.0
282.254211 136.0
282.37442 52.0
282.425323 108.0
282.498169 80.0
282.529602 160.0
282.605225 48.0
282.645386 56.0
282.815002 68.0
282.891205 80.0
282.936584 40.0
283.00354 68.0
283.057098 64.0
283.081787 172.0
283.105133 116.0
283.150879 52.0
283.214508 88.0
283.291565 56.0
283.442322 112.0
283.505981 76.0
283.53952 60.0
283.576385 44.0
283.643402 72.0
283.717163 76.0
283.834686 76.0
284.006073 52.0
284.069275 100.0
284.092773 120.0
284.158417 176.0
284.226959 76.0
284.418274 84.0
284.441772 112.0
284.533112 56.0
284.569336 60.0
284.764099 56.0
284.787598 72.0
284.817841 68.0
284.881653 52.0
284.93689 136.0
285.160553 72.0
285.227783 136.0
285.405975 116.0
285.491699 120.0
285.550568 52.0
285.62793 96.0
285.651489 52.0
285.740479 88.0
285.769226 140.0
285.849304 100.0
285.924011 164.0
286.014893 56.0
286.067017 132.0
286.243835 52.0
286.277496 84.0
286.385284 76.0
286.42569 40.0
286.470856 128.0
286.496429 88.0
286.54361 36.0
286.610992 28.0
286.843536 40.0
286.937927 44.0
286.964905 148.0
287.008728 108.0
287.076843 756.0
287.227936 72.0
287.268433 68.0
287.420258 68.0
287.482422 84.0
287.565369 44.0
287.64975 96.0
287.707123 88.0
288.076721 1520.0
288.173218 60.0
288.237396 36.0
288.311737 60.0
288.369202 100.0
288.39624 64.0
288.436798 64.0
288.585571 92.0
288.832428 188.0
288.866272 84.0
288.964355 148.0
289.039978 92.0
289.079041 2732.0
289.133545 40.0
289.301239 140.0
289.35141 100.0
289.380676 88.0
289.407745 64.0
289.440857 128.0
289.468689 40.0
289.516113 76.0
289.584137 92.0
289.756622 112.0
290.086487 1512.0
290.139587 80.0
290.207397 132.0
290.261627 36.0
290.350067 104.0
290.397278 136.0
290.491302 84.0
290.536377 64.0
290.678864 76.0
290.716187 88.0
290.750122 64.0
290.795044 120.0
290.918884 84.0
291.012787 108.0
291.087769 336.0
291.16626 140.0
291.236359 76.0
291.317169 156.0
291.371521 104.0
291.484894 100.0
291.622986 72.0
291.71817 80.0
291.770691 80.0
291.79538 124.0
291.986786 108.0
292.045044 240.0
292.108673 736.0
292.153442 168.0
292.188049 116.0
292.620667 100.0
292.698181 88.0
292.817535 44.0
292.933014 76.0
293.018188 92.0
293.047699 132.0
293.105988 292.0
293.124908 100.0
293.773621 96.0
294.013885 44.0
294.060791 140.0
294.126526 228.0
294.201599 44.0
294.317688 80.0
294.407257 104.0
294.485016 52.0
294.536255 88.0
294.61142 72.0
294.679749 164.0
294.789093 144.0
294.833527 112.0
294.963409 108.0
295.014679 48.0
295.168518 68.0
295.319 56.0
295.3703 48.0
295.551636 88.0
295.673492 132.0
295.712463 88.0
295.828857 72.0
296.119904 52.0
296.14389 52.0
296.1987 124.0
296.304871 28.0
296.620178 212.0
296.832733 92.0
297.032928 100.0
297.309967 104.0
297.364471 84.0
297.512085 52.0
297.56015 120.0
297.800507 60.0
297.89328 56.0
298.130341 96.0
298.202515 148.0
298.295319 120.0
298.436279 100.0
299.114014 88.0
299.303375 256.0
299.634033 140.0
299.678802 72.0
299.75116 216.0
299.988983 68.0
300.102753 192.0
300.151031 68.0
300.551147 72.0
301.148376 132.0
301.293457 68.0
301.614838 68.0
301.894897 48.0
302.086273 536.0
302.133575 164.0
302.209686 72.0
302.303101 112.0
302.708496 72.0
302.73584 132.0
303.019867 184.0
303.085449 208.0
303.148071 148.0
303.182739 28.0
303.252045 96.0
303.328308 32.0
303.609131 84.0
303.661163 92.0
303.80896 164.0
303.898071 176.0
303.945618 48.0
303.976868 112.0
304.049103 132.0
304.105347 27712.0
304.223297 176.0
304.270935 100.0
304.337158 60.0
304.417725 60.0
304.450867 140.0
304.489563 64.0
304.601807 56.0
304.674133 100.0
304.792877 80.0
304.832703 72.0
304.872803 140.0
304.904083 120.0
304.97522 60.0
305.006439 80.0
305.108856 4476.0
305.153046 244.0
305.279541 68.0
305.31781 80.0
305.359528 48.0
305.390839 52.0
305.415192 100.0
305.479462 108.0
305.610016 68.0
305.660736 124.0
305.707428 52.0
306.023834 40.0
306.106445 928.0
306.172821 124.0
306.234467 84.0
306.314911 92.0
306.343018 76.0
306.472626 140.0
306.543213 56.0
306.769409 128.0
306.818542 148.0
306.968475 56.0
307.112274 88.0
307.172516 112.0
307.289398 100.0
307.474335 120.0
307.704712 64.0
307.809448 88.0
307.963135 36.0
308.158752 72.0
308.204163 132.0
309.01535 40.0
309.120331 88.0
310.185059 80.0
310.50412 84.0
311.037445 72.0
311.248077 52.0
311.311279 72.0
312.305908 144.0
312.777405 80.0
312.935822 88.0
313.365509 56.0
314.391632 80.0
316.09848 184.0
316.130341 208.0
316.15509 40.0
316.445251 120.0
316.546875 132.0
317.08905 112.0
317.320496 72.0
317.738983 76.0
318.113129 280.0
318.157776 68.0
318.274933 48.0
319.095703 120.0
319.213043 80.0
319.383728 96.0
319.479797 44.0
320.615631 76.0
320.98996 44.0
321.039886 136.0
321.325226 56.0
321.525055 104.0
321.967743 84.0
323.988708 68.0
325.254578 48.0
325.692657 48.0
329.110291 100.0
329.157257 96.0
329.850922 88.0
330.472961 48.0
330.99057 76.0
332.447815 60.0
332.941528 88.0
333.13266 880.0
333.211487 100.0
333.2612 72.0
333.653717 48.0
334.075592 188.0
334.111969 168.0
334.139526 152.0
334.796265 108.0
334.956512 96.0
335.147125 4728.0
336.149261 948.0
336.5466 48.0
337.196838 100.0
337.27359 60.0
337.792847 96.0
337.909912 92.0
338.436981 44.0
338.510193 80.0
338.993744 116.0
339.169678 72.0
339.528992 128.0
339.771088 56.0
339.800415 116.0
340.766022 88.0
340.806458 88.0
341.519653 120.0
342.104706 56.0
342.185699 104.0
342.712402 76.0
343.560394 88.0
343.99585 48.0
344.494385 72.0
347.062897 104.0
347.571045 96.0
348.43988 112.0
348.926758 140.0
350.564514 100.0
351.758026 32.0
352.381683 96.0
353.432343 48.0
354.113678 128.0
354.593262 172.0
355.151917 88.0
355.887451 84.0
357.236694 84.0
357.729645 112.0
358.381195 96.0
360.520782 64.0
360.758881 64.0
361.019775 124.0
362.143829 32.0
363.48587 48.0
366.249786 76.0
366.756561 48.0
366.813751 76.0
369.333954 72.0
369.789276 100.0
371.49057 92.0
371.997101 100.0
372.842133 72.0
374.130676 92.0
374.438721 80.0
375.047485 48.0
375.371338 132.0
375.838074 68.0
376.115936 72.0
376.312836 64.0
377.692474 64.0
380.05954 80.0
380.183716 44.0
381.535431 80.0
381.95932 108.0
382.153839 48.0
382.546906 56.0
382.803894 128.0
385.956818 36.0
387.056335 84.0
387.267822 92.0
387.988861 120.0
388.447662 56.0
390.006561 48.0
390.100891 68.0
390.399719 56.0
390.5177 136.0
390.72226 136.0
390.773407 116.0
391.94281 72.0
392.23053 40.0
392.510437 72.0
392.743103 76.0
393.591614 124.0
393.907562 116.0
394.421265 68.0
394.705933 68.0
395.414032 132.0
396.396179 32.0
396.52298 72.0
396.78064 92.0
397.546173 104.0
397.998718 68.0
398.189331 92.0
399.119232 72.0
400.054199 64.0
400.528076 28.0
401.871552 96.0
402.366455 120.0
402.522186 44.0
403.02948 68.0
403.869019 92.0
404.405151 60.0
405.222076 72.0
406.525269 40.0
406.573425 72.0
407.223816 76.0
407.541168 44.0
407.657715 84.0
407.77829 124.0
409.125824 72.0
409.919281 52.0
410.620758 60.0
411.585236 128.0
412.41745 64.0
412.857269 92.0
414.659729 68.0
415.848114 92.0
418.18515 80.0
418.861053 100.0
419.182922 68.0
419.329651 76.0
420.05542 44.0
420.56958 52.0
421.852203 76.0
424.587372 104.0
424.620178 104.0
426.796661 120.0
427.397186 28.0
427.677032 60.0
428.714905 96.0
429.238464 76.0
433.065369 144.0
433.301483 84.0
433.715881 88.0
434.362762 112.0
435.745178 136.0
437.47525 100.0
440.438721 60.0
441.342804 108.0
443.997742 56.0
444.597656 48.0
445.235779 104.0
446.214844 88.0
446.761566 68.0
447.064514 44.0
448.555511 72.0
449.54245 64.0
449.728149 68.0
450.974152 104.0
453.314545 76.0
455.669464 48.0
456.145447 76.0
456.179443 72.0
459.309296 84.0
459.663391 80.0
459.881042 100.0
461.855072 36.0
462.925049 36.0
463.567627 72.0
464.386475 88.0
465.571014 128.0
466.013458 116.0
466.855957 108.0
466.950592 84.0
467.023712 124.0
467.759491 44.0
468.302032 64.0
468.39679 68.0
468.935394 108.0
469.793488 40.0
473.376587 52.0
473.528137 140.0
474.949829 68.0
477.529846 64.0
479.192719 120.0
482.404785 84.0
484.42215 88.0
486.101379 80.0
487.462677 48.0
487.585724 96.0
488.478302 56.0
489.512604 124.0
490.402527 92.0
491.125641 80.0
492.467438 52.0
493.886261 68.0
495.692596 104.0
495.732452 32.0
497.06723 96.0
497.719757 48.0
498.270508 124.0
498.412689 92.0
503.307983 56.0
505.458038 64.0
506.398163 104.0
507.850342 92.0
508.047729 152.0
509.601135 108.0
510.972412 80.0
513.224426 56.0
513.873962 52.0
513.959656 80.0
514.144653 120.0
515.72998 96.0
516.023804 72.0
516.41272 68.0
516.92395 92.0
517.874634 132.0
517.906372 64.0
518.848938 84.0
520.459595 88.0
520.895569 72.0
525.416138 80.0
526.520752 60.0
526.602966 88.0
528.028931 52.0
529.98822 68.0
531.781311 56.0
532.024597 132.0
532.883423 132.0
533.398132 80.0
535.063477 104.0
535.229187 40.0
535.339722 88.0
535.56543 48.0
535.625305 40.0
536.159729 56.0
536.210449 96.0
537.155701 80.0
537.727844 96.0
538.115601 40.0
538.614319 96.0
539.03479 108.0
539.362915 80.0
540.949524 52.0
542.557068 40.0
543.048584 52.0
543.517151 108.0
547.743225 36.0
549.118225 48.0
549.482056 40.0
549.925354 64.0
551.205566 64.0
551.793945 40.0
554.302734 104.0
556.83606 100.0
556.944092 100.0
559.182129 148.0
560.67041 64.0
563.912781 64.0
565.710205 100.0
567.29718 52.0
568.184021 44.0
568.492432 32.0
569.997803 124.0
570.249634 60.0
570.82489 36.0
572.700012 36.0
575.534668 92.0
575.714233 92.0
577.563843 44.0
577.673889 100.0
578.406006 56.0
580.518921 88.0
582.967163 40.0
588.043274 124.0
590.754028 96.0
591.744202 40.0
593.985107 104.0
595.16925 120.0
602.054932 124.0
604.318176 48.0
604.743896 96.0
606.855286 92.0
608.651123 108.0
610.877502 64.0
612.196594 72.0
615.001892 80.0
616.315552 80.0
616.854248 96.0
619.08075 56.0
623.65509 64.0
624.042847 32.0
624.097534 112.0
627.602844 40.0
628.166443 72.0
635.741577 76.0
637.87616 60.0
638.308533 60.0
638.927246 76.0
642.509216 76.0
645.008972 64.0
646.323853 84.0
648.085938 88.0
649.657654 140.0
649.962036 68.0
650.824951 72.0
664.555298 84.0
670.443115 148.0
670.535889 88.0
671.035889 116.0
671.933289 48.0
674.753235 40.0
676.688232 56.0
679.320923 116.0
685.242371 76.0
687.677673 52.0
690.927917 64.0
691.906616 128.0
692.047974 112.0
693.441406 56.0
695.770447 52.0
696.883911 72.0
698.529419 56.0
698.824036 36.0
699.781921 56.0
701.33075 44.0
701.921204 120.0
708.098999 108.0
712.315857 80.0
713.92627 52.0
717.046082 48.0
718.299072 48.0
719.574524 100.0
720.867188 76.0
721.321472 84.0
729.044922 116.0
730.867859 80.0
733.194153 76.0
734.401855 72.0
737.414673 124.0
738.647461 32.0
741.777405 88.0
744.180725 72.0
752.958923 64.0
756.759399 96.0
757.816467 60.0
758.479614 56.0
759.082703 96.0
760.876892 96.0
761.186523 100.0
761.766541 72.0
765.077148 56.0
767.153992 68.0
771.305176 32.0
773.584229 48.0
775.68927 84.0
778.441162 88.0
778.868835 68.0
782.650574 84.0
791.248962 72.0
792.430725 112.0
793.736694 72.0
795.532104 124.0
799.297729 44.0
800.800842 56.0
802.198303 40.0
807.002747 52.0
808.779114 100.0
811.674072 112.0
812.933411 60.0
815.432251 128.0
822.848999 72.0
827.892334 44.0
835.164062 36.0
846.319458 52.0
849.466492 124.0
851.155396 68.0
851.259888 64.0
852.503052 40.0
858.067688 64.0
862.977966 44.0
865.324158 76.0
865.575928 32.0
868.072205 140.0
868.142578 76.0
876.749207 56.0
877.491943 224.0
879.999451 72.0
887.288574 104.0
891.710938 76.0
893.179565 104.0
897.169373 168.0
903.260498 76.0
917.505005 88.0
918.729248 92.0
921.137939 148.0
931.223145 108.0
937.160461 124.0
948.515503 56.0
954.987305 132.0
960.512451 164.0
961.129395 76.0
965.595764 76.0
969.173889 104.0
970.233704 48.0
972.367554 68.0
974.130981 136.0
976.716919 48.0
979.673767 88.0
980.359131 76.0
982.641357 112.0
982.865967 48.0
984.620117 28.0
986.819702 64.0
987.582642 40.0
990.148804 216.0
990.812744 52.0
994.32428 64.0
995.14032 60.0
995.542175 32.0
999.540222 60.0
1000.742493 44.0
1001.926514 188.0
1010.006775 116.0
1016.075623 40.0
1016.221558 204.0
1021.749023 84.0
1027.763672 112.0
1029.646851 112.0
1035.543701 180.0
1042.517456 48.0
1057.014038 104.0
1086.248413 48.0
1086.681396 196.0
1089.083984 156.0
1094.799438 56.0
1101.223145 108.0
1104.303101 68.0
1104.9646 148.0
1126.391113 32.0
1129.75354 104.0
1135.487305 184.0
1142.338623 152.0
1143.145996 144.0
1147.679321 60.0
1155.236816 88.0
1161.401123 100.0
1175.204468 44.0
1176.733276 80.0
1191.341431 124.0
1194.992188 196.0
1196.382324 88.0
1202.358521 108.0
1202.655273 140.0
1208.903076 228.0
1210.245972 120.0
1211.416382 164.0
1211.797485 188.0
1212.497314 68.0
1212.608276 108.0
1213.682739 160.0
1213.980957 204.0
1214.612061 56.0
1214.958984 84.0
1216.839722 72.0
1225.89624 84.0
1230.067017 240.0
1230.848999 148.0
1234.031982 200.0
1236.210571 148.0
1239.536865 60.0
1255.720337 84.0
1256.496216 80.0
1257.632324 180.0
1258.211182 148.0
1259.545898 60.0
1262.500244 116.0
1268.235107 76.0
1271.802856 256.0
1275.773682 44.0
1280.99707 36.0
1282.044556 156.0
1291.611816 160.0
1293.00708 112.0
1294.324219 56.0
1301.430054 244.0
1302.313354 136.0
1302.959961 60.0
1303.563477 152.0
1303.649658 148.0
1307.151733 104.0
1307.317261 124.0
1309.462646 104.0
1309.686035 56.0
1310.010132 152.0
1310.953003 140.0
1316.942139 168.0
1317.028809 144.0
1317.353882 96.0
1321.279419 212.0
1325.638306 56.0
1328.291992 48.0
1329.445557 48.0
1329.554443 120.0
1330.628662 68.0
1331.057129 44.0
1332.778687 180.0
1337.782471 72.0
1342.576782 312.0
1344.626831 140.0
1345.349487 152.0
1355.552734 64.0
1356.314941 188.0
1362.868652 124.0
1364.294434 108.0
1364.36792 160.0
1364.875244 44.0
1365.794556 88.0
1367.244019 148.0
1370.675659 184.0
1371.103149 188.0
1377.426392 92.0
1377.854858 184.0
1378.335083 172.0
1380.663696 144.0
1382.453979 240.0
1387.906006 180.0
1388.921997 184.0
1400.867676 164.0
1401.441406 164.0
1401.605347 160.0
1402.723267 164.0
1403.655151 168.0
1404.759033 164.0
1405.549927 168.0
1405.878174 156.0
1407.094971 56.0
1407.393555 172.0
1410.269775 40.0
1411.794922 40.0
1412.789795 144.0
1413.029175 196.0
1415.102295 104.0
1415.813721 140.0
1417.386841 52.0
1417.499268 220.0
1418.391113 44.0
1419.395752 112.0
1419.583252 36.0
1420.108276 156.0
1422.419312 96.0
1426.182495 132.0
1426.295288 172.0
1428.182617 76.0
1428.483521 100.0
1428.739258 132.0
1431.765259 184.0
1433.045776 132.0
1433.701416 136.0
1434.176147 120.0
1435.382446 48.0
1437.155029 112.0
1437.238037 148.0
1437.954956 120.0
1441.617798 188.0
1442.592773 124.0
1443.772339 32.0
1446.836792 164.0
1449.96521 136.0
1450.397217 184.0
1451.208496 176.0
1451.284302 72.0
1451.473877 72.0
1451.989502 128.0
1452.823853 80.0
1453.332153 232.0
1455.077881 216.0
1456.27771 60.0
1458.169556 136.0
1458.274414 180.0
1458.557251 52.0
1458.792847 164.0
1459.066528 100.0
1461.987427 148.0
1462.763794 108.0
1464.484619 176.0
1467.853149 72.0
1471.836304 56.0
1471.981445 92.0
1472.661133 188.0
1473.165283 52.0
1475.350952 180.0
1478.13501 60.0
1479.252441 68.0
1481.228027 112.0
1481.565186 220.0
1481.657104 136.0
1487.585083 192.0
1488.253052 40.0
1488.828979 148.0
1488.905762 172.0
1489.082397 188.0
1489.512573 160.0
1489.658569 128.0
1490.21167 116.0
1490.657349 132.0
1491.057007 196.0
1493.591187 252.0
1493.925049 144.0
1496.480103 96.0
1497.789307 76.0
1499.253296 104.0
1501.620117 148.0
1501.882324 116.0
1502.962402 228.0
1503.062744 132.0
1503.564331 152.0
