>compound Acitretin
>formula C21H26O3
>ionization [M+H]+
>parentmass 327.195923
#inchi InChI=1S/C21H26O3/c1-14(8-7-9-15(2)12-21(22)23)10-11-19-16(3)13-20(24-6)18(5)17(19)4/h7-13H,1-6H3,(H,22,23)/b9-7+,11-10+,14-8+,15-12+
#inchikey IHUNBGSDBOWDMA
#Ion_Source LC-ESI
#Instrument qTof
#Compound_Source Commercial
#PI Dorrestein
#Data_Collector Garg_Neha
#Scan -1
#Precursor_MZ 327.195
#ExactMass 326.188
#Charge 1
#CAS_Number 55079-83-9,925701-88-8 (sodium salt)
#Pubmed_ID N/A
#Smiles C1=C(C(=C(C(=C1C)/C=C/C(=C/C=C/C(=C/C(O)=O)C)C)C)C)OC
#INCHI_AUX N/A
#Library_Class 1
#SpectrumID CCMSLIB00000078116
#IonMode Positive
#UpdateWorkflowName UPDATE-SINGLE-ANNOTATED-GOLD
#LibraryQualityString Gold
#TaskID 77f51c88eb8b467eb4a01dd2d0cb90d2
##Scan# 3093
#SpectrumFile Plate2_41_60_GG7_01_16495.mzXML
#LibraryName FDALibrary_2_04302014.mgf
#MQScore -1
#Organism FDALibrary_2_04302014
#TIC_Query 0
#RT_Query -1
#MZErrorPPM -1
#SharedPeaks 0
#MassDiff 0
#LibMZ -1
#SpecMZ 327.195
#SpecCharge 0
#internalFilename spec-00000.mgf

>collision 10
44.908997 164.0
45.055832 208.0
45.963478 144.0
45.98777 152.0
46.314983 152.0
46.669189 208.0
46.724953 204.0
47.858234 144.0
48.201851 176.0
48.787983 224.0
49.512169 156.0
49.641098 160.0
49.721062 168.0
50.114799 148.0
50.551121 188.0
50.674313 200.0
51.37664 152.0
52.603634 196.0
52.9188 160.0
53.197155 204.0
53.258144 200.0
54.320812 192.0
54.342819 176.0
54.400055 156.0
54.454384 152.0
54.541073 228.0
54.682274 180.0
55.65797 232.0
55.693615 232.0
55.901756 168.0
56.367012 208.0
56.661774 168.0
56.715721 172.0
57.365097 144.0
57.396759 244.0
57.679077 172.0
58.062141 140.0
58.153175 224.0
58.216938 140.0
58.259468 152.0
59.06741 208.0
59.117901 176.0
60.462967 152.0
61.815342 248.0
62.356392 148.0
62.680576 168.0
62.729435 188.0
62.765697 200.0
63.008762 160.0
63.266548 156.0
65.289848 172.0
65.813568 152.0
66.847755 220.0
67.433228 140.0
67.898201 168.0
68.52449 184.0
69.438629 248.0
69.451897 140.0
69.739151 192.0
69.840576 184.0
70.115295 180.0
70.862244 156.0
70.935982 176.0
71.232193 184.0
71.264915 252.0
72.542503 164.0
72.81739 168.0
73.234093 144.0
73.438629 140.0
74.108757 236.0
74.221886 180.0
74.266472 192.0
74.50425 168.0
75.138634 176.0
75.224922 140.0
75.542885 176.0
75.783539 148.0
75.835526 236.0
76.248596 232.0
76.292053 148.0
76.898407 184.0
77.001244 196.0
77.585686 192.0
77.648811 172.0
77.722488 248.0
77.864685 160.0
78.124832 144.0
78.697617 192.0
79.387726 164.0
79.831688 184.0
79.943764 192.0
80.066605 204.0
80.635727 180.0
81.178177 188.0
81.373756 144.0
81.477928 200.0
81.747635 180.0
81.793861 164.0
82.635406 192.0
82.752243 116.0
83.06295 184.0
83.549797 188.0
83.597107 172.0
83.985168 264.0
84.116547 244.0
84.277267 140.0
85.763771 180.0
85.905754 160.0
86.278793 232.0
86.445259 160.0
87.01059 220.0
87.04216 208.0
87.127594 152.0
87.190773 156.0
88.107544 232.0
88.457245 140.0
88.586456 180.0
88.704514 160.0
88.751389 188.0
89.017845 204.0
89.260246 144.0
89.601929 200.0
90.454521 176.0
90.700768 192.0
91.05455 380.0
91.199974 196.0
92.061127 172.0
92.248375 200.0
92.437721 200.0
93.070282 224.0
93.768593 140.0
94.732788 240.0
94.827736 224.0
95.622101 140.0
95.657135 184.0
95.703865 168.0
96.279121 188.0
97.122681 156.0
97.234512 172.0
98.167015 176.0
98.271561 164.0
98.510445 180.0
99.173325 208.0
99.256592 192.0
99.733063 160.0
99.949837 188.0
100.049347 140.0
100.087181 180.0
100.537697 188.0
100.629517 192.0
100.837265 192.0
101.397659 152.0
101.513939 204.0
102.029961 152.0
102.148613 188.0
102.611801 156.0
102.718689 264.0
102.926559 164.0
103.055832 196.0
103.225624 172.0
103.334854 244.0
104.788567 164.0
105.071068 1496.0
105.785187 168.0
106.152374 168.0
106.895561 168.0
107.085274 328.0
108.088272 156.0
108.394737 140.0
108.842796 156.0
109.063416 224.0
109.612442 176.0
109.631195 228.0
110.069267 156.0
110.159073 220.0
110.322075 140.0
110.451721 176.0
110.922867 212.0
110.983665 236.0
111.045074 248.0
112.059814 288.0
112.98243 152.0
114.10434 180.0
114.359612 176.0
114.728127 184.0
114.84967 196.0
115.013969 208.0
115.055267 640.0
115.752007 228.0
116.063316 836.0
116.979652 164.0
117.068962 544.0
118.07547 148.0
118.448051 196.0
119.007576 200.0
119.084946 464.0
119.159607 164.0
119.363922 256.0
119.620651 168.0
120.390312 184.0
121.066185 700.0
121.100632 280.0
121.390388 200.0
121.629532 196.0
121.994186 176.0
122.482704 184.0
122.689842 156.0
123.263367 128.0
123.495842 196.0
123.679489 180.0
123.722939 236.0
124.184677 212.0
124.231255 180.0
124.726448 232.0
125.249359 144.0
125.334015 204.0
125.525719 172.0
126.173225 180.0
127.513695 160.0
127.752045 220.0
128.064789 372.0
128.100967 208.0
128.45816 168.0
128.527084 180.0
128.981018 228.0
129.069946 732.0
130.072845 404.0
130.343109 176.0
130.882202 176.0
131.05986 172.0
131.086884 3900.0
131.408722 208.0
131.461197 176.0
131.618698 192.0
131.742035 140.0
131.817429 192.0
132.089859 864.0
132.139832 160.0
132.499283 172.0
132.571289 152.0
133.05658 180.0
133.101578 2264.0
133.143753 192.0
133.32074 188.0
133.734726 172.0
134.105942 392.0
134.188538 164.0
134.419189 188.0
134.62233 168.0
134.821014 168.0
134.861481 164.0
135.081909 2524.0
135.106186 332.0
135.243835 108.0
135.289352 124.0
135.580093 156.0
135.904739 168.0
136.084671 1088.0
136.592407 168.0
136.794861 144.0
137.013763 172.0
137.065018 156.0
137.090652 168.0
137.797668 152.0
137.923859 212.0
138.851044 156.0
138.916718 144.0
139.088028 216.0
139.830765 148.0
140.205231 160.0
140.308945 164.0
140.993469 152.0
141.069046 708.0
141.402618 168.0
142.077316 180.0
142.84288 204.0
143.086136 188.0
143.566956 152.0
144.057251 368.0
144.091873 288.0
145.065964 140.0
145.452316 160.0
145.53154 220.0
145.697266 160.0
146.050629 172.0
147.116669 132.0
147.874725 168.0
148.075668 168.0
149.053329 156.0
149.096024 2872.0
149.802689 144.0
150.103683 1420.0
150.361053 164.0
150.854462 188.0
151.076111 156.0
151.112534 4816.0
151.902542 144.0
152.116684 520.0
152.305115 168.0
152.341965 180.0
152.759872 172.0
154.075455 156.0
154.672287 156.0
155.082947 192.0
156.096603 352.0
157.060608 260.0
157.097549 124.0
157.272293 176.0
158.765961 192.0
159.081467 9520.0
159.87384 164.0
160.084991 936.0
160.145752 164.0
160.425446 188.0
161.095901 140.0
161.132095 184.0
162.107162 176.0
162.352142 192.0
162.562714 144.0
163.07692 140.0
163.113388 2772.0
164.116409 500.0
164.795853 172.0
165.070007 208.0
165.332855 160.0
165.524841 164.0
166.077072 200.0
166.134842 224.0
167.085403 140.0
167.257812 176.0
167.291275 160.0
168.103165 212.0
168.227051 236.0
168.578323 252.0
169.09848 344.0
170.10553 536.0
170.438873 192.0
171.083069 560.0
171.114532 460.0
172.053696 160.0
172.084885 544.0
172.120102 360.0
172.284317 156.0
172.309647 140.0
172.683456 168.0
173.094543 680.0
173.846664 160.0
174.103683 1100.0
174.348267 184.0
174.377167 172.0
174.983902 148.0
175.111008 664.0
175.820435 168.0
175.907532 140.0
176.077423 176.0
176.126129 160.0
176.740036 156.0
176.896194 184.0
176.943848 172.0
177.061676 164.0
177.091476 21008.0
177.138763 264.0
177.190155 140.0
177.315063 200.0
178.093933 1452.0
179.094101 376.0
179.494598 208.0
179.651962 156.0
181.071304 196.0
181.098099 144.0
181.650269 252.0
182.110153 220.0
183.08287 188.0
183.111725 280.0
184.079773 220.0
185.097366 324.0
185.133026 128.0
185.184067 176.0
185.514648 204.0
186.103836 1736.0
187.10994 712.0
187.872437 244.0
187.978851 172.0
188.057983 224.0
188.116165 516.0
188.32283 164.0
189.126328 200.0
189.67453 216.0
190.128677 156.0
191.061325 176.0
191.108093 184.0
192.092163 164.0
193.104446 148.0
194.106552 312.0
195.115814 212.0
196.084534 120.0
196.124954 220.0
197.058334 180.0
197.094894 144.0
197.135498 324.0
198.102722 296.0
199.111298 548.0
199.159378 148.0
199.710281 180.0
200.119125 296.0
201.12767 2088.0
201.689682 184.0
202.13681 364.0
203.045898 168.0
203.141983 548.0
204.096619 148.0
204.119354 144.0
204.146744 176.0
204.213211 144.0
205.152893 156.0
206.107758 272.0
207.11702 312.0
207.142151 176.0
208.180084 260.0
208.381149 180.0
209.099594 272.0
209.129639 144.0
210.108337 316.0
211.113724 416.0
212.117157 292.0
212.579605 192.0
213.058197 168.0
213.127197 2864.0
214.133636 1160.0
214.726608 172.0
215.141525 312.0
216.155151 160.0
217.121887 256.0
217.153549 136.0
219.118713 244.0
219.212082 144.0
219.288696 144.0
220.11972 504.0
221.130142 696.0
222.10463 188.0
222.13855 140.0
223.11171 328.0
223.145355 468.0
224.120361 704.0
224.187729 204.0
225.094589 148.0
225.125061 520.0
226.13446 272.0
226.175385 236.0
227.075745 176.0
227.141754 1236.0
227.288727 204.0
227.620728 200.0
228.150055 984.0
229.047485 156.0
229.095688 208.0
229.154846 224.0
229.210175 208.0
230.151291 204.0
230.172424 268.0
233.104691 204.0
233.141632 228.0
234.138306 384.0
234.492432 156.0
235.107056 96.0
235.149338 640.0
236.117996 404.0
236.160461 284.0
237.082275 164.0
237.126663 972.0
237.280258 204.0
238.090347 156.0
238.132675 716.0
238.164948 180.0
238.606567 220.0
239.104889 172.0
239.143661 324.0
240.150635 448.0
241.154892 680.0
241.870407 180.0
242.164551 180.0
242.89917 184.0
242.979828 172.0
244.748337 180.0
245.127487 208.0
245.720795 152.0
246.153214 140.0
246.929688 140.0
247.116089 156.0
248.120056 308.0
249.11525 288.0
249.167465 136.0
250.142365 244.0
251.140335 736.0
252.079254 180.0
252.114594 404.0
252.14859 852.0
253.127319 100.0
253.159042 416.0
253.966156 152.0
254.166092 156.0
255.134735 148.0
255.175278 324.0
256.065948 192.0
256.162628 172.0
256.420715 208.0
260.160004 156.0
260.66748 204.0
261.120758 184.0
261.14328 172.0
261.217255 140.0
262.136932 156.0
262.228302 160.0
262.821686 148.0
263.143005 188.0
264.108826 300.0
264.145111 208.0
265.115875 228.0
265.14563 172.0
266.125763 136.0
266.1651 488.0
266.860748 164.0
267.136414 468.0
267.172577 3144.0
267.271515 196.0
267.82074 152.0
267.954315 176.0
268.14859 196.0
268.178375 540.0
269.186096 192.0
269.99118 148.0
270.126526 116.0
270.249603 164.0
271.127197 164.0
272.561249 144.0
273.577545 200.0
274.130859 156.0
276.152405 160.0
277.155701 580.0
278.165039 276.0
279.139008 976.0
280.142487 260.0
281.152557 120.0
281.188049 2580.0
281.258331 184.0
282.123505 156.0
282.191864 716.0
283.019775 204.0
283.187622 200.0
283.626556 144.0
284.330902 200.0
285.144562 176.0
285.284515 132.0
286.193207 192.0
291.175507 312.0
291.38501 196.0
292.172241 144.0
293.149078 324.0
294.160828 972.0
294.331238 152.0
295.12738 176.0
295.166626 192.0
296.0513 192.0
296.177246 164.0
297.140198 300.0
297.165344 164.0
297.539429 168.0
299.571899 208.0
303.08905 164.0
307.753479 200.0
308.144653 152.0
308.278015 168.0
308.728394 188.0
308.816742 124.0
308.861969 204.0
309.031097 112.0
309.100952 208.0
309.185486 15576.0
309.764435 156.0
309.862518 212.0
310.187561 3088.0
310.381256 184.0
311.184204 492.0
312.17514 468.0
312.224182 284.0
321.335815 156.0
321.824768 196.0
325.180389 184.0
325.232269 204.0
325.276978 160.0
326.098511 152.0
326.200775 280.0
326.947296 188.0
327.15033 208.0
327.195923 9880.0
327.290344 124.0
328.043457 96.0
328.198547 2276.0
329.14267 176.0
329.200531 388.0
330.434448 112.0
483.152313 156.0
1244.205078 176.0
1333.414551 152.0
1388.079956 204.0
1396.412476 236.0
1409.966675 200.0
1449.362183 176.0
1471.35083 164.0
1480.365723 212.0
1533.731079 148.0
1534.869263 140.0
1541.18396 156.0
1542.395264 168.0
1544.256226 200.0
1547.214111 224.0
1565.690308 212.0
1572.233765 184.0
1577.20166 144.0
1589.302612 164.0
1615.09082 184.0
1615.618774 184.0
1621.183594 176.0
1627.295898 176.0
1642.215454 140.0
1648.989502 180.0
1653.259766 152.0
1658.467407 176.0
1662.936523 172.0
1663.861938 176.0
1673.691772 224.0
1696.429321 196.0
1713.218506 216.0
1737.930786 164.0
1748.143188 148.0
1752.064941 184.0
1775.620361 188.0
1777.348511 220.0
1786.405396 236.0
1786.632568 220.0
1787.583374 148.0
1792.029175 140.0
1805.154785 192.0
1805.603027 148.0
1809.757935 188.0
1819.296021 216.0
1832.282349 160.0
1835.956177 200.0
1852.5979 148.0
1871.87146 148.0
1879.767578 212.0
1882.547241 216.0
1882.789062 200.0
1887.611206 184.0
1892.075806 220.0
1893.885742 204.0
1897.013794 152.0
1908.126099 180.0
1912.667114 212.0
1915.375244 160.0
1916.891113 156.0
1921.983521 180.0
1926.497314 172.0
1927.773071 152.0
1929.529907 160.0
1939.307983 172.0
1947.134155 176.0
1952.750244 148.0
1955.996948 188.0
1958.462524 168.0
1961.238037 184.0
1965.142334 192.0
1968.604858 204.0
1981.855713 172.0
1998.753174 164.0
2003.258179 260.0
