>compound MLS001146619-01!3,4-dimethoxy-N-(2-pyridin-3-ylpiperidine-1-carbothioyl)benzamide
>formula C20H23N3O3S
>ionization [M+H]+
>parentmass 386.154297
#inchi InChI=1S/C20H23N3O3S/c1-25-17-9-8-14(12-18(17)26-2)19(24)22-20(27)23-11-4-3-7-16(23)15-6-5-10-21-13-15/h5-6,8-10,12-13,16H,3-4,7,11H2,1-2H3,(H,22,24,27)
#inchikey NBSGYTDQQVCASP
#Ion_Source LC-ESI
#Instrument qTof
#Compound_Source NIH Natural Product Library
#PI Dorrestein
#Data_Collector VVP/LMS
#Scan -1
#Precursor_MZ 386.154
#ExactMass 385.146
#Charge 1
#CAS_Number N/A
#Pubmed_ID N/A
#Smiles COc1ccc(cc1OC)C(=O)NC(=S)N2CCCCC2c3cccnc3
#INCHI_AUX N/A
#Library_Class 1
#SpectrumID CCMSLIB00000080230
#IonMode Positive
#UpdateWorkflowName UPDATE-SINGLE-ANNOTATED-GOLD
#LibraryQualityString Gold
#TaskID b1d8e8f6646f4e71acdff9ca3d919d08
##Scan# 1593
#SpectrumFile p2-H05_GH5_01_18065.mzXML
#LibraryName NIH_Natural_Products_Library.mgf
#MQScore -1
#Organism NIH_Natural_Products_Library
#TIC_Query 0
#RT_Query -1
#MZErrorPPM -1
#SharedPeaks 0
#MassDiff 0
#LibMZ -1
#SpecMZ 386.154
#SpecCharge 0
#internalFilename spec-00000.mgf

>collision 10
95.046516 188.0
95.07412 196.0
95.154877 176.0
95.18206 160.0
95.255867 116.0
95.304558 184.0
95.378288 56.0
95.440498 100.0
95.459221 172.0
95.500786 160.0
95.524002 120.0
95.543587 120.0
95.582497 180.0
95.617523 168.0
95.638939 168.0
95.723869 404.0
95.843422 140.0
95.878502 264.0
95.964272 180.0
96.022774 156.0
96.038376 116.0
96.077393 156.0
96.104706 152.0
96.135933 136.0
96.22963 184.0
96.297974 160.0
96.397728 200.0
96.477753 232.0
96.520767 96.0
96.589218 128.0
96.704659 168.0
96.755333 176.0
96.810387 104.0
96.828011 108.0
96.898529 204.0
97.030602 196.0
97.049454 244.0
97.076904 124.0
97.125679 152.0
97.203178 216.0
97.227959 144.0
97.26329 36.0
97.28096 168.0
97.296661 192.0
97.32415 124.0
97.337898 172.0
97.383064 60.0
97.418129 112.0
97.491417 108.0
97.532402 188.0
97.548126 160.0
97.56189 132.0
97.579399 216.0
97.701515 208.0
97.764481 116.0
97.839279 136.0
97.874718 128.0
97.896385 152.0
97.91214 188.0
97.931831 184.0
98.004723 104.0
98.034592 296.0
98.067787 160.0
98.111153 148.0
98.166367 212.0
98.233421 224.0
98.259071 216.0
98.387352 104.0
98.479294 148.0
98.551285 76.0
98.576973 208.0
98.737106 184.0
98.816231 132.0
98.843933 148.0
98.869659 168.0
98.915184 116.0
98.974953 168.0
99.133049 164.0
99.172691 36.0
99.24604 184.0
99.267853 64.0
99.302612 220.0
99.349449 124.0
99.468239 44.0
99.63903 192.0
99.730438 220.0
99.809959 184.0
99.892525 164.0
99.985023 140.0
100.063766 144.0
100.084557 160.0
100.116425 168.0
100.144302 116.0
100.185715 244.0
100.222 200.0
100.259865 160.0
100.349304 184.0
100.35405 160.0
100.3601 224.0
100.417366 184.0
100.473221 200.0
100.559021 92.0
100.620911 204.0
100.720757 48.0
100.802673 148.0
100.820656 116.0
100.878403 184.0
100.936607 184.0
101.017418 140.0
101.072624 72.0
101.092934 164.0
101.156685 184.0
101.189796 168.0
101.224762 120.0
101.2528 140.0
101.308884 136.0
101.375008 144.0
101.397049 136.0
101.430344 164.0
101.473221 236.0
101.523354 84.0
101.567482 104.0
101.58754 172.0
101.61763 188.0
101.633682 72.0
101.660713 188.0
101.675827 108.0
101.699913 176.0
101.770172 56.0
101.78624 92.0
101.830421 192.0
101.858543 92.0
101.942924 52.0
102.029358 156.0
102.043434 116.0
102.19915 248.0
102.272766 152.0
102.317055 144.0
102.373436 172.0
102.409683 160.0
102.504372 140.0
102.518478 176.0
102.554756 180.0
102.629349 196.0
102.663628 132.0
102.808884 152.0
102.835121 112.0
102.954239 152.0
103.018875 144.0
103.055336 196.0
103.146187 100.0
103.346405 120.0
103.372711 120.0
103.44397 196.0
103.474747 172.0
103.56707 300.0
103.594841 152.0
103.660263 160.0
103.710342 192.0
103.772942 184.0
103.820419 136.0
103.859253 188.0
103.885323 124.0
103.952278 180.0
103.976631 176.0
103.996925 196.0
104.027824 164.0
104.047798 180.0
104.094528 160.0
104.242676 188.0
104.309654 176.0
104.346336 144.0
104.45005 176.0
104.474464 164.0
104.490738 188.0
104.53347 72.0
104.582314 164.0
104.604706 172.0
104.631172 164.0
104.704475 236.0
104.771698 200.0
104.826714 264.0
105.032509 956.0
105.09996 140.0
105.130569 164.0
105.144852 76.0
105.226501 96.0
105.3041 224.0
105.471649 160.0
105.649559 164.0
105.721176 132.0
105.766792 308.0
105.805099 204.0
105.83786 208.0
105.895203 40.0
105.973045 148.0
106.026321 216.0
106.066185 812.0
106.110367 160.0
106.134972 236.0
106.184189 44.0
106.210854 168.0
106.305229 244.0
106.336014 320.0
106.351952 136.0
106.409622 176.0
106.422859 212.0
106.487953 164.0
106.537727 208.0
106.594391 148.0
106.637939 260.0
106.666718 124.0
106.701668 160.0
106.755127 188.0
106.771576 160.0
106.81768 244.0
106.862679 196.0
106.911476 332.0
106.938232 120.0
106.989693 200.0
107.013756 504.0
107.049866 576.0
107.113251 228.0
107.243065 132.0
107.294601 68.0
107.37915 144.0
107.397713 152.0
107.44722 144.0
107.48436 208.0
107.507065 196.0
107.537384 196.0
107.583504 120.0
107.60614 160.0
107.635048 100.0
107.668091 216.0
107.781708 228.0
107.814774 196.0
107.845482 252.0
107.874718 236.0
107.938812 152.0
107.963623 200.0
108.01947 184.0
108.040154 148.0
108.056992 320.0
108.08213 420.0
108.107071 200.0
108.207794 152.0
108.31134 112.0
108.444557 164.0
108.457993 212.0
108.506142 92.0
108.522728 120.0
108.693634 152.0
108.709419 112.0
108.800751 248.0
108.879654 148.0
109.004303 224.0
109.027328 664.0
109.064819 5624.0
109.10199 116.0
109.155426 80.0
109.20388 216.0
109.274612 148.0
109.37851 216.0
109.57859 176.0
109.659859 200.0
109.680702 128.0
109.807892 76.0
109.855873 160.0
109.916374 160.0
109.930984 152.0
109.951851 216.0
109.966461 144.0
109.987335 96.0
110.03511 340.0
110.071007 532.0
110.104675 180.0
110.129326 84.0
110.260956 152.0
110.31321 212.0
110.378021 192.0
110.437927 180.0
110.443001 116.0
110.449928 188.0
110.534912 164.0
110.656311 220.0
110.694 44.0
110.775688 256.0
110.884644 28.0
110.92218 172.0
110.98317 68.0
111.008713 868.0
111.032738 176.0
111.041847 176.0
111.047791 172.0
111.111115 148.0
111.161476 156.0
111.197151 180.0
111.220238 216.0
111.25061 176.0
111.335716 104.0
111.367218 112.0
111.497482 168.0
111.594185 176.0
111.611 208.0
111.690918 116.0
111.718269 232.0
111.770866 192.0
111.798225 132.0
111.836678 148.0
111.897156 192.0
111.92453 176.0
111.951904 128.0
112.000984 212.0
112.020485 136.0
112.144135 184.0
112.194221 164.0
112.225845 144.0
112.255363 164.0
112.346062 176.0
112.365051 204.0
112.394104 140.0
112.457901 128.0
112.474785 192.0
112.536011 172.0
112.586693 164.0
112.603584 136.0
112.70076 136.0
112.791641 128.0
112.817009 168.0
112.952347 192.0
113.026398 136.0
113.059311 296.0
113.081154 192.0
113.188248 104.0
113.265633 112.0
113.291054 160.0
113.445755 144.0
113.472664 156.0
113.599648 204.0
113.646683 188.0
113.724365 200.0
113.746986 232.0
113.77034 144.0
113.810677 152.0
113.89138 92.0
113.951866 160.0
113.98143 172.0
114.028481 152.0
114.057121 152.0
114.076248 164.0
114.252762 252.0
114.297447 152.0
114.342133 212.0
114.410248 52.0
114.572105 144.0
114.648811 172.0
114.717018 128.0
114.740471 160.0
114.866158 184.0
114.9431 100.0
115.050964 180.0
115.195038 268.0
115.209076 176.0
115.231354 64.0
115.299736 188.0
115.336075 180.0
115.393791 48.0
115.430145 128.0
115.515694 156.0
115.53495 64.0
115.59272 188.0
115.624817 80.0
115.678329 80.0
115.733994 156.0
115.778969 228.0
115.796097 316.0
115.833694 148.0
115.892502 144.0
115.941788 164.0
116.055214 136.0
116.082542 268.0
116.117592 260.0
116.149765 192.0
116.17765 204.0
116.246315 48.0
116.297821 44.0
116.340752 168.0
116.384407 192.0
116.469017 192.0
116.523308 196.0
116.592064 136.0
116.706001 144.0
116.725349 120.0
116.910355 144.0
116.927574 148.0
116.946945 164.0
117.00663 236.0
117.05751 4756.0
117.120468 156.0
117.155823 48.0
117.177368 52.0
117.203224 168.0
117.22477 168.0
117.252785 236.0
117.300369 208.0
117.321762 140.0
117.395073 56.0
117.522346 136.0
117.561188 196.0
117.718773 216.0
117.738213 140.0
117.766289 160.0
117.78141 160.0
117.798691 188.0
117.852699 196.0
117.885117 52.0
117.911049 88.0
117.943657 184.0
117.969414 132.0
118.009674 120.0
118.037415 160.0
118.064537 9180.0
118.094826 200.0
118.166214 188.0
118.192177 152.0
118.209488 80.0
118.257103 168.0
118.289574 28.0
118.339363 68.0
118.421661 200.0
118.465752 56.0
118.54641 144.0
118.579826 156.0
118.608002 72.0
118.625343 116.0
118.709183 72.0
118.752357 132.0
118.77063 168.0
118.790154 76.0
118.876938 152.0
118.905151 52.0
118.92469 156.0
118.998497 168.0
119.046272 156.0
119.071541 2196.0
119.109253 184.0
119.157417 140.0
119.217888 48.0
119.302658 172.0
119.339622 212.0
119.498398 28.0
119.513626 108.0
119.533211 128.0
119.618095 192.0
119.644218 160.0
119.716194 148.0
119.824982 144.0
119.844597 196.0
119.907791 120.0
119.930328 248.0
119.97039 156.0
120.009598 148.0
120.030174 224.0
120.08136 48788.0
120.147652 40.0
120.186928 56.0
120.226204 172.0
120.272835 132.0
120.302399 128.0
120.340858 84.0
120.360573 80.0
120.439514 380.0
120.484489 84.0
120.494179 100.0
120.529747 124.0
120.549416 40.0
120.581055 168.0
120.604057 136.0
120.625328 60.0
120.66745 52.0
120.717743 76.0
120.763672 100.0
120.781166 52.0
120.818359 216.0
120.868904 156.0
120.890915 160.0
120.916824 96.0
120.982491 44.0
121.028847 2572.0
121.050026 224.0
121.08419 3784.0
121.113884 64.0
121.168495 64.0
121.199326 84.0
121.216858 48.0
121.313293 44.0
121.37468 148.0
121.396614 52.0
121.475571 48.0
121.497513 80.0
121.521645 216.0
121.550171 172.0
121.605034 56.0
121.638649 184.0
121.660645 240.0
121.676147 132.0
121.719193 132.0
121.74115 88.0
121.767509 124.0
121.850983 100.0
121.873177 156.0
121.890533 120.0
121.916672 116.0
121.960434 396.0
122.004822 248.0
122.036369 9156.0
122.086563 548.0
122.121368 104.0
122.22477 156.0
122.257782 128.0
122.28215 276.0
122.332619 140.0
122.399536 212.0
122.475586 216.0
122.546242 204.0
122.591904 176.0
122.62558 252.0
122.649567 204.0
122.700523 32.0
122.735802 184.0
122.762268 36.0
122.786522 156.0
122.870346 60.0
122.901237 192.0
122.927719 132.0
122.947578 132.0
122.971855 172.0
123.002762 360.0
123.03978 904.0
123.146011 164.0
123.199295 128.0
123.250114 68.0
123.283264 312.0
123.302849 176.0
123.336304 160.0
123.362511 416.0
123.429161 204.0
123.548599 276.0
123.674736 148.0
123.756706 152.0
123.776573 56.0
123.798424 60.0
123.90947 116.0
123.940491 72.0
124.011406 60.0
124.051727 1388.0
124.072083 148.0
124.17437 40.0
124.197662 160.0
124.222061 164.0
124.25312 220.0
124.268646 116.0
124.333 116.0
124.359634 196.0
124.384048 144.0
124.398697 196.0
124.456062 328.0
124.592796 152.0
124.654091 164.0
124.707596 200.0
124.727547 180.0
124.872887 44.0
124.915146 256.0
125.026512 160.0
125.052673 652.0
125.119888 168.0
125.231255 180.0
125.313652 92.0
125.344849 108.0
125.417671 184.0
125.451836 400.0
125.541023 132.0
125.619087 156.0
125.701637 224.0
125.799843 184.0
125.817703 132.0
125.833336 196.0
125.849831 196.0
125.873528 40.0
125.904793 124.0
126.030632 1516.0
126.114807 40.0
126.143867 40.0
126.210938 72.0
126.325005 200.0
126.380936 240.0
126.418976 164.0
126.445831 128.0
126.528656 152.0
126.571198 64.0
126.707825 112.0
126.848137 212.0
126.918518 152.0
126.966606 216.0
126.999252 192.0
127.01693 168.0
127.025681 148.0
127.057091 204.0
127.077766 160.0
127.095718 188.0
127.264061 132.0
127.302238 132.0
127.441505 144.0
127.470718 168.0
127.558372 296.0
127.632011 212.0
127.668549 208.0
127.742081 208.0
127.758514 108.0
127.781944 204.0
127.958923 172.0
128.036316 180.0
128.063553 164.0
128.109711 132.0
128.199844 144.0
128.251678 164.0
128.312546 128.0
128.479431 108.0
128.605804 76.0
128.621613 96.0
128.637405 256.0
128.669006 144.0
128.806763 68.0
128.901657 136.0
128.940857 140.0
128.980759 80.0
129.069275 708.0
129.159393 92.0
129.215958 128.0
129.233139 148.0
129.320053 48.0
129.455887 80.0
129.4944 204.0
129.526108 100.0
129.618988 160.0
129.657516 148.0
129.741394 136.0
129.803436 248.0
129.891052 92.0
129.936432 120.0
130.038544 36.0
130.065506 5172.0
130.115723 132.0
130.167953 44.0
130.283783 76.0
130.313324 128.0
130.333771 164.0
130.356491 176.0
130.376465 148.0
130.542908 176.0
130.57019 160.0
130.604309 124.0
130.659225 116.0
130.677109 200.0
130.759033 184.0
130.795456 176.0
130.82959 172.0
130.881958 80.0
130.912476 200.0
130.95256 208.0
130.975342 172.0
131.015427 268.0
131.073441 3604.0
131.132553 128.0
131.190567 296.0
131.328644 100.0
131.362854 68.0
131.442719 180.0
131.531723 168.0
131.68927 160.0
131.843246 204.0
131.862915 280.0
131.979507 140.0
132.006943 120.0
132.050003 160.0
132.079803 1632.0
132.123596 40.0
132.153 80.0
132.169968 188.0
132.29982 100.0
132.357056 188.0
132.391403 196.0
132.4189 40.0
132.519684 196.0
132.538025 120.0
132.774139 176.0
132.799438 132.0
132.847534 124.0
132.902603 124.0
132.937027 44.0
132.9944 180.0
133.0327 152.0
133.089371 412.0
133.162018 140.0
133.180389 172.0
133.274582 64.0
133.315933 160.0
133.359604 168.0
133.435471 156.0
133.586884 176.0
133.61026 196.0
133.656281 144.0
133.697693 128.0
133.817398 148.0
133.840424 180.0
133.907211 120.0
133.925629 204.0
134.023605 172.0
134.057846 136.0
134.077576 332.0
134.095764 2348.0
134.153763 80.0
134.19223 128.0
134.206787 236.0
134.259827 36.0
134.28981 136.0
134.347473 156.0
134.393631 200.0
134.435165 276.0
134.479095 184.0
134.552887 96.0
134.589828 148.0
134.675278 64.0
134.692352 240.0
134.772293 104.0
134.802338 144.0
134.953629 168.0
134.978027 108.0
135.045395 588.0
135.065903 124.0
135.093521 124.0
135.099411 116.0
135.130692 196.0
135.15509 156.0
135.283432 80.0
135.364151 200.0
135.387634 168.0
135.427002 208.0
135.480286 172.0
135.503601 240.0
135.572968 132.0
135.658722 268.0
135.705093 48.0
135.790237 184.0
135.8396 148.0
135.865128 188.0
135.908951 180.0
135.939377 192.0
136.021988 1016.0
136.043823 236.0
136.115799 196.0
136.243546 148.0
136.283035 128.0
136.345779 228.0
136.382965 148.0
136.399246 72.0
136.417145 176.0
136.506195 192.0
136.622482 124.0
136.645752 112.0
136.727203 104.0
136.781525 188.0
136.827286 56.0
136.929749 100.0
136.950714 72.0
136.97168 192.0
137.003418 184.0
137.020905 784.0
137.059616 10888.0
137.110382 232.0
137.169647 188.0
137.197723 80.0
137.227158 64.0
137.295181 156.0
137.323639 164.0
137.409958 68.0
137.444946 48.0
137.480499 68.0
137.517303 196.0
137.579498 168.0
137.615692 244.0
137.648727 136.0
137.722763 200.0
137.824478 160.0
138.028854 132.0
138.063477 784.0
138.127151 60.0
138.183304 152.0
138.199677 180.0
138.255844 292.0
138.333084 176.0
138.384583 88.0
138.429077 188.0
138.452499 140.0
138.578995 160.0
138.595398 176.0
138.747742 136.0
138.839188 152.0
138.860306 144.0
138.92363 140.0
138.952225 152.0
138.9776 100.0
139.005463 160.0
139.074966 3292.0
139.108459 168.0
139.151611 140.0
139.172409 96.0
139.199875 144.0
139.261658 76.0
139.291046 72.0
139.30864 68.0
139.334473 236.0
139.409668 116.0
139.529541 144.0
139.578918 100.0
139.671265 144.0
139.701233 164.0
139.785934 172.0
139.83255 256.0
139.873016 184.0
139.938019 176.0
139.953064 212.0
139.993088 136.0
140.030334 184.0
140.078186 624.0
140.225494 220.0
140.351273 120.0
140.374847 124.0
140.396072 200.0
140.476273 168.0
140.562119 124.0
140.646164 160.0
140.669769 88.0
140.70047 128.0
140.796555 196.0
140.891769 172.0
140.9272 196.0
141.019867 192.0
141.054642 1252.0
141.215607 220.0
141.258194 176.0
141.423828 92.0
141.478271 224.0
141.52562 48.0
141.613251 188.0
141.700897 120.0
141.729324 180.0
141.774353 140.0
141.902359 80.0
141.918961 124.0
142.062576 280.0
142.246353 144.0
142.267105 136.0
142.400696 152.0
142.564621 88.0
142.602844 148.0
142.64447 156.0
142.800003 32.0
142.840439 164.0
142.904663 96.0
142.971298 56.0
143.017761 184.0
143.059662 384.0
143.076431 188.0
143.116501 84.0
143.178421 128.0
143.371399 64.0
143.421448 168.0
143.526337 204.0
143.798309 140.0
143.85321 40.0
144.02327 180.0
144.041855 128.0
144.080505 3188.0
144.17804 176.0
144.206726 136.0
144.328644 64.0
144.405182 180.0
144.431488 172.0
144.591797 172.0
144.644455 196.0
144.80249 188.0
144.953415 120.0
145.085526 464.0
145.188339 136.0
145.20993 140.0
145.243515 144.0
145.56694 168.0
145.651581 48.0
145.676987 200.0
145.894287 132.0
145.9133 44.0
145.932144 156.0
145.96698 136.0
146.019165 236.0
146.045792 152.0
146.096909 31828.0
146.13472 60.0
146.170883 56.0
146.200409 184.0
146.234222 148.0
146.272949 188.0
146.312897 104.0
146.361053 108.0
146.40921 348.0
146.433304 32.0
146.503159 244.0
146.527252 60.0
146.575439 148.0
146.594711 176.0
146.621231 28.0
146.681488 180.0
146.771576 140.0
146.82132 108.0
146.864746 212.0
146.910568 128.0
147.014328 88.0
147.060181 44.0
147.099045 2904.0
147.141464 280.0
147.214691 156.0
147.236435 92.0
147.403122 104.0
147.449036 92.0
147.533646 84.0
147.56749 52.0
147.608597 56.0
147.640656 140.0
147.729523 136.0
147.831146 44.0
147.860184 192.0
147.879547 148.0
147.915192 180.0
148.005432 192.0
148.036926 104.0
148.061142 76.0
148.1035 352.0
148.124207 292.0
148.165298 176.0
148.184677 264.0
148.241196 112.0
148.272598 200.0
148.300995 100.0
148.348206 140.0
148.383423 104.0
148.424637 188.0
148.493301 76.0
148.553177 200.0
148.621109 104.0
148.646881 156.0
148.744888 152.0
148.974747 256.0
149.03479 184.0
149.097076 140.0
149.152985 224.0
149.177292 80.0
149.235641 212.0
149.289139 124.0
149.315887 184.0
149.41806 216.0
149.508087 72.0
149.676056 104.0
149.70285 64.0
149.822189 140.0
149.92453 372.0
149.948898 156.0
150.035034 908.0
150.11911 280.0
150.157257 184.0
150.190292 196.0
150.251282 148.0
150.387939 120.0
150.584808 164.0
150.761612 148.0
150.803162 204.0
150.947403 132.0
151.007416 148.0
151.035446 112.0
151.069687 140.0
151.240982 112.0
151.302185 72.0
151.319321 140.0
151.417267 216.0
151.5177 144.0
151.534851 132.0
151.552002 96.0
151.578964 224.0
151.711319 136.0
151.730927 156.0
151.750534 112.0
151.917313 176.0
151.966385 108.0
151.986008 120.0
152.072617 180.0
152.270782 108.0
152.300247 148.0
152.319901 200.0
152.387466 200.0
152.545975 208.0
152.580399 188.0
152.636948 176.0
152.828812 212.0
152.942017 144.0
153.056747 552.0
153.084045 220.0
153.151321 100.0
153.190735 136.0
153.262177 156.0
153.313919 48.0
153.432236 132.0
153.52594 212.0
153.543198 204.0
153.691223 104.0
153.720825 236.0
153.765259 180.0
153.798294 144.0
153.822021 176.0
153.99263 128.0
154.027298 1084.0
154.06778 468.0
154.093674 80.0
154.148041 112.0
154.185425 128.0
154.497726 164.0
154.521408 128.0
154.56842 188.0
154.61792 56.0
154.67485 148.0
154.694641 220.0
154.838257 96.0
154.882843 168.0
154.907623 232.0
154.962112 164.0
155.026901 340.0
155.070221 3740.0
155.123215 152.0
155.145523 84.0
155.239746 40.0
155.257095 76.0
155.311661 48.0
155.46434 172.0
155.60202 160.0
155.800705 56.0
155.840454 244.0
155.890701 196.0
155.919968 156.0
155.967194 28.0
155.999512 168.0
156.025726 140.0
156.080063 172.0
156.125427 156.0
156.156174 168.0
156.188507 220.0
156.213379 196.0
156.292999 184.0
156.387558 80.0
156.489624 260.0
156.529465 220.0
156.589233 160.0
156.609161 64.0
156.641541 200.0
156.691376 192.0
156.955582 188.0
156.975525 64.0
157.075287 432.0
157.125183 200.0
157.259933 204.0
157.29158 136.0
157.424713 112.0
157.489655 84.0
157.51712 204.0
157.557098 164.0
157.599564 116.0
157.649551 48.0
157.78331 148.0
157.974594 36.0
158.087189 172.0
158.112213 44.0
158.257401 124.0
158.294968 184.0
158.355072 124.0
158.417007 160.0
158.462784 132.0
158.520416 136.0
158.751053 124.0
158.878967 124.0
158.961777 128.0
159.062164 52.0
159.089691 340.0
159.177658 160.0
159.278122 180.0
159.456512 108.0
159.529404 164.0
159.609863 172.0
159.814011 124.0
160.087982 196.0
160.11821 176.0
160.145905 180.0
160.285446 208.0
160.322266 140.0
160.357559 128.0
160.385284 92.0
160.48613 152.0
160.546646 124.0
160.564301 120.0
160.597092 128.0
160.715652 140.0
160.932724 192.0
161.106918 4496.0
161.144897 184.0
161.271881 268.0
161.342026 164.0
161.364349 212.0
161.49881 184.0
161.663269 188.0
161.726532 72.0
161.830322 176.0
161.8759 36.0
162.004013 224.0
162.037308 288.0
162.111755 140.0
162.23317 148.0
162.250916 124.0
162.271194 136.0
162.365021 44.0
162.438568 104.0
162.471558 172.0
162.590805 104.0
162.651733 128.0
162.700241 184.0
162.725342 140.0
162.77359 120.0
162.847244 80.0
162.87265 148.0
162.895508 92.0
162.981293 208.0
163.029327 196.0
163.072357 340.0
163.123703 64384.0
163.174774 148.0
163.179047 168.0
163.189392 44.0
163.196991 96.0
163.233536 32.0
163.251953 268.0
163.286942 80.0
163.31131 152.0
163.320969 148.0
163.333405 60.0
163.340424 164.0
163.371994 88.0
163.391235 96.0
163.470901 180.0
163.514221 144.0
163.543976 192.0
163.563568 128.0
163.58107 128.0
163.626846 140.0
163.706863 60.0
163.724686 144.0
163.766479 148.0
163.857834 192.0
163.907394 272.0
163.925949 140.0
163.961624 164.0
163.987854 164.0
164.063751 288.0
164.126068 6280.0
164.218979 76.0
164.251694 84.0
164.321167 88.0
164.364548 92.0
164.407928 80.0
164.456909 64.0
164.493713 212.0
164.524292 340.0
164.558197 164.0
164.575821 300.0
164.612167 184.0
164.632584 176.0
164.672226 152.0
164.696518 216.0
164.734039 156.0
164.755402 48.0
164.787643 252.0
164.808075 292.0
164.830353 240.0
164.852295 148.0
164.877594 200.0
164.898834 208.0
164.910126 200.0
164.943176 340.0
165.000244 452.0
165.055695 163268.0
165.096054 136.0
165.130493 472.0
165.15773 312.0
165.184311 236.0
165.232819 156.0
165.252975 96.0
165.303635 296.0
165.343307 172.0
165.378876 172.0
165.415756 212.0
165.446625 144.0
165.476532 1088.0
165.507278 76.0
165.529709 64.0
165.562729 108.0
165.583313 172.0
165.607971 120.0
165.658188 264.0
165.710663 132.0
165.738785 92.0
165.784363 136.0
165.809677 164.0
165.848663 212.0
165.888901 236.0
165.906845 112.0
165.953552 88.0
165.983887 152.0
166.01239 168.0
166.058502 16356.0
166.114136 192.0
166.153046 140.0
166.171005 88.0
166.216766 180.0
166.263092 108.0
166.307968 60.0
166.324982 68.0
166.365234 148.0
166.411118 148.0
166.435242 160.0
166.465515 76.0
166.490036 112.0
166.5112 68.0
166.519363 68.0
166.531677 48.0
166.541107 92.0
166.579193 80.0
166.595947 48.0
166.622086 52.0
166.631332 96.0
166.659897 108.0
166.687103 84.0
166.728226 52.0
166.748779 68.0
166.792603 104.0
166.821564 116.0
166.899536 136.0
166.95752 148.0
166.983093 180.0
167.008469 80.0
167.060471 1704.0
167.104507 84.0
167.146942 112.0
167.151566 116.0
167.191422 192.0
167.221176 132.0
167.242615 68.0
167.263214 40.0
167.294724 196.0
167.325623 212.0
167.377518 128.0
167.40506 136.0
167.426483 96.0
167.444824 120.0
167.484665 116.0
167.523438 156.0
167.534256 128.0
167.621429 92.0
167.67926 152.0
167.740921 104.0
167.7939 76.0
167.845474 112.0
167.899628 52.0
168.062515 340.0
168.152466 60.0
168.206665 44.0
168.224747 60.0
168.27066 176.0
168.320267 48.0
168.384827 68.0
168.418411 52.0
168.447632 152.0
168.533875 92.0
168.55275 68.0
168.679398 132.0
168.806076 264.0
168.88884 116.0
168.940582 72.0
168.979385 28.0
169.054428 72.0
169.075134 180.0
169.10878 60.0
169.181259 124.0
169.297775 28.0
169.341797 116.0
169.427277 80.0
170.005508 92.0
170.079941 188.0
170.174545 148.0
170.584717 48.0
170.990494 168.0
171.022141 400.0
171.041779 216.0
171.06337 236.0
171.091415 3016.0
171.384323 68.0
171.45668 112.0
171.573975 160.0
171.597443 116.0
171.652191 160.0
171.832169 28.0
171.967865 208.0
172.001801 60.0
172.043579 152.0
172.09935 3632.0
172.171524 48.0
172.294144 372.0
172.323029 92.0
172.351761 44.0
172.516418 44.0
172.587021 56.0
172.783173 104.0
172.972977 144.0
173.032089 188.0
173.071091 144.0
173.101044 704.0
173.147034 152.0
173.278 136.0
173.603043 104.0
173.799774 76.0
173.847015 116.0
173.865387 88.0
173.951996 84.0
174.014999 88.0
174.105164 168.0
174.261902 160.0
174.367004 156.0
174.432724 48.0
174.598373 100.0
174.619415 76.0
174.750946 196.0
174.811462 148.0
174.916733 104.0
174.974655 68.0
175.037521 192.0
175.190613 88.0
175.380341 120.0
175.438339 76.0
175.485794 44.0
175.549072 64.0
175.694138 72.0
175.728439 180.0
176.049866 364.0
176.158768 68.0
176.428329 88.0
176.542023 48.0
177.044785 148.0
177.071335 196.0
177.307129 180.0
177.752655 44.0
177.895981 184.0
177.929779 60.0
177.938705 44.0
178.075455 176.0
178.125458 232.0
178.150925 48.0
178.336929 84.0
178.491119 60.0
178.584213 188.0
178.703918 52.0
178.935471 160.0
178.978073 136.0
179.079269 72.0
179.433701 88.0
179.60704 128.0
179.668396 96.0
180.089523 172.0
180.172974 88.0
180.271835 60.0
180.584641 32.0
180.65686 168.0
181.030304 164.0
181.069077 220.0
181.578293 148.0
181.634628 96.0
181.661453 124.0
181.951294 96.0
182.00499 52.0
182.02916 156.0
182.079895 1004.0
182.297791 136.0
182.329086 204.0
182.717255 160.0
182.752228 88.0
183.08194 168.0
183.100616 180.0
183.174911 156.0
183.20723 36.0
183.576508 72.0
184.221588 52.0
184.610794 112.0
185.000427 88.0
185.230606 72.0
185.282074 212.0
185.41214 60.0
185.64801 124.0
186.101303 452.0
186.136475 152.0
186.870361 196.0
187.032669 156.0
187.111069 368.0
187.349533 176.0
187.398575 52.0
187.578445 132.0
187.608429 96.0
187.870239 188.0
187.946899 124.0
188.055374 172.0
188.119095 18548.0
188.184097 80.0
188.244171 48.0
188.30481 60.0
188.424454 80.0
188.449036 100.0
188.492752 88.0
188.55835 52.0
188.582947 100.0
188.623947 92.0
188.659485 120.0
188.692291 44.0
188.775986 112.0
188.831757 108.0
188.960327 44.0
189.086197 68.0
189.120148 2692.0
189.220337 164.0
189.253189 48.0
189.28331 52.0
189.442169 96.0
189.480515 44.0
189.891708 200.0
190.056305 120.0
190.102951 108.0
190.127029 428.0
190.16333 156.0
190.185287 44.0
190.260834 52.0
190.281372 44.0
190.332718 160.0
190.377472 88.0
190.465363 84.0
190.529877 76.0
190.564957 80.0
190.61647 64.0
190.6577 120.0
190.764893 136.0
190.976624 108.0
191.050888 276.0
191.12793 176.0
191.279297 100.0
191.786133 60.0
192.026016 84.0
193.020218 180.0
193.061691 48.0
193.081055 208.0
193.188934 48.0
193.720444 136.0
193.784164 164.0
194.003113 100.0
194.055786 148.0
194.116791 124.0
194.538528 100.0
196.090668 124.0
196.291382 160.0
196.386215 128.0
196.469894 196.0
196.729431 52.0
196.852295 172.0
197.14003 188.0
197.690948 104.0
198.004501 40.0
198.032501 268.0
198.239822 124.0
198.379959 76.0
198.430435 136.0
198.977524 132.0
199.421371 172.0
199.964203 160.0
201.739014 132.0
202.440155 60.0
202.496796 124.0
202.816971 68.0
202.893509 84.0
202.9729 52.0
203.057358 232.0
203.355896 156.0
203.429703 156.0
204.029129 216.0
204.073242 456.0
204.094513 132.0
204.120117 236.0
204.208267 60.0
204.250946 124.0
204.30896 160.0
204.475723 40.0
204.67215 76.0
204.720032 220.0
204.786057 44.0
204.843033 124.0
204.882584 176.0
204.910553 216.0
204.962692 52.0
204.988342 240.0
205.015808 144.0
205.080444 55716.0
205.129044 292.0
205.192902 52.0
205.220642 88.0
205.249466 112.0
205.258133 92.0
205.332199 52.0
205.34317 60.0
205.442612 160.0
205.468307 72.0
205.507309 116.0
205.54155 32.0
205.574585 104.0
205.622604 128.0
205.644989 204.0
205.732773 84.0
205.752762 40.0
205.780121 48.0
205.812714 188.0
205.900604 160.0
205.932663 96.0
205.991425 112.0
206.038849 68.0
206.082352 6552.0
206.134247 156.0
206.19838 48.0
206.289841 76.0
206.335587 156.0
206.404846 72.0
206.630157 28.0
206.671799 164.0
206.912445 152.0
207.005127 40.0
207.076981 1788.0
207.212677 148.0
207.257202 116.0
207.344498 108.0
207.432037 104.0
207.552444 48.0
207.606934 72.0
207.639572 84.0
207.675858 124.0
207.719955 128.0
207.744156 100.0
207.796249 32.0
207.822083 104.0
207.842163 124.0
207.873718 76.0
207.919647 128.0
207.942596 68.0
208.074677 360.0
208.294067 128.0
208.379089 44.0
208.591751 104.0
208.669373 40.0
209.031799 44.0
209.449265 100.0
210.175781 72.0
211.389435 72.0
212.125107 60.0
212.647217 60.0
214.71875 116.0
214.785828 56.0
215.028015 68.0
216.583511 56.0
217.002579 72.0
217.398575 132.0
217.442596 52.0
219.183563 76.0
219.437042 108.0
219.817551 88.0
219.941513 88.0
220.133423 120.0
220.207245 52.0
221.381363 68.0
221.953293 52.0
222.279587 44.0
222.677399 164.0
224.037476 276.0
224.090408 72.0
224.746384 40.0
225.035904 112.0
226.273697 92.0
227.797195 108.0
229.103867 124.0
229.286606 64.0
229.43129 84.0
230.539047 64.0
232.055573 136.0
232.179901 56.0
237.324387 144.0
238.042404 148.0
251.616318 56.0
252.0522 88.0
262.091248 152.0
262.619965 100.0
264.685059 88.0
264.931213 40.0
266.098785 216.0
266.362396 212.0
269.107239 196.0
271.404175 84.0
271.856873 68.0
272.132599 76.0
273.398163 44.0
277.096466 96.0
277.620209 72.0
281.771027 112.0
283.132446 88.0
284.376312 76.0
285.794464 192.0
287.92157 104.0
289.524628 88.0
294.486847 120.0
296.303284 124.0
299.270782 64.0
302.118164 208.0
303.569427 64.0
306.48938 88.0
307.689209 72.0
308.845917 104.0
311.221985 72.0
312.22702 44.0
315.513397 80.0
317.450195 96.0
317.702026 68.0
320.115417 92.0
321.17038 44.0
323.231781 128.0
326.388428 72.0
327.723816 72.0
327.997711 112.0
328.177979 104.0
333.64505 116.0
334.150604 136.0
334.900513 36.0
335.14093 180.0
335.370544 60.0
336.130402 136.0
337.13147 132.0
337.612244 56.0
340.184418 108.0
341.481506 60.0
342.806885 100.0
352.18338 108.0
353.131775 32.0
353.165436 128.0
357.122559 112.0
358.014557 52.0
359.820709 100.0
366.001038 96.0
367.357849 68.0
367.449402 96.0
367.60202 72.0
368.487885 40.0
369.118744 172.0
370.343231 40.0
371.316772 124.0
375.636292 108.0
377.807343 76.0
378.345306 100.0
382.043762 136.0
385.224823 112.0
386.154297 276.0
386.259491 112.0
387.160797 108.0
387.196198 40.0
387.940674 40.0
388.164154 92.0
388.246521 92.0
388.324951 76.0
390.555939 44.0
393.752441 64.0
394.289734 44.0
398.843842 128.0
399.925751 96.0
403.252228 56.0
406.086914 52.0
406.431946 80.0
406.805176 112.0
407.773224 124.0
413.739227 92.0
416.508942 72.0
417.964417 48.0
422.791992 48.0
427.39212 84.0
436.692047 120.0
442.195312 96.0
446.502533 32.0
452.822235 60.0
452.881531 136.0
458.890533 64.0
463.17691 120.0
465.742004 48.0
467.530579 84.0
469.020782 76.0
469.986847 72.0
479.714935 76.0
481.586884 28.0
490.309204 124.0
502.075623 48.0
504.808685 36.0
509.546509 32.0
525.132629 76.0
526.780457 116.0
527.964233 108.0
528.641296 68.0
530.505493 80.0
532.818481 44.0
532.873596 52.0
536.495605 68.0
540.111328 108.0
545.676331 68.0
547.053406 60.0
579.952576 84.0
581.607422 200.0
582.893616 196.0
591.735901 116.0
609.352905 84.0
613.989868 92.0
645.256042 104.0
650.651733 64.0
671.215759 80.0
682.103638 100.0
690.299622 68.0
704.205627 108.0
709.10498 80.0
713.96814 36.0
736.965393 36.0
738.511475 104.0
746.353333 232.0
748.807678 108.0
748.922058 88.0
761.727295 68.0
775.466675 40.0
781.703369 60.0
783.100769 168.0
786.250793 156.0
805.741394 196.0
815.925781 116.0
816.750305 68.0
824.990295 152.0
841.415344 52.0
842.252747 60.0
854.711548 76.0
862.076477 152.0
863.877319 180.0
865.609741 180.0
874.986633 232.0
878.375183 120.0
880.246094 168.0
882.550598 100.0
884.041199 188.0
896.112976 236.0
897.012878 164.0
900.838013 236.0
910.985901 156.0
913.402405 88.0
915.966736 228.0
916.322144 164.0
919.053467 156.0
921.722351 132.0
922.943359 176.0
927.308044 152.0
928.271973 120.0
928.860291 160.0
937.329346 148.0
941.349304 152.0
941.593567 228.0
943.732361 112.0
945.628723 208.0
946.902222 204.0
948.219421 64.0
952.950623 216.0
954.253662 144.0
955.815918 144.0
956.074402 196.0
957.422607 196.0
957.952332 204.0
958.315796 152.0
962.207581 252.0
964.827087 192.0
966.404175 144.0
967.573975 132.0
971.447205 156.0
973.184937 156.0
975.601746 164.0
976.770813 192.0
979.715271 172.0
982.782715 120.0
982.907532 144.0
987.524231 208.0
989.388977 116.0
991.951111 200.0
992.728577 204.0
992.960632 188.0
996.859192 212.0
997.261414 196.0
998.845947 164.0
999.129028 192.0
1002.214111 172.0
1002.938843 84.0
1006.541138 96.0
1006.768494 172.0
1008.170959 192.0
1010.162598 172.0
1012.460205 100.0
1012.884521 152.0
1013.442017 244.0
1014.189819 160.0
1017.317078 144.0
1017.424988 204.0
1018.993713 156.0
1020.232971 136.0
1020.595398 152.0
1022.102905 160.0
1022.185608 108.0
1024.891846 132.0
1029.657104 32.0
1030.238281 144.0
1032.680176 184.0
1032.987671 200.0
1034.727783 40.0
1034.772705 108.0
1035.694824 128.0
1038.181519 168.0
1039.310547 188.0
1043.575439 36.0
1046.007202 148.0
1047.868408 224.0
1048.300049 200.0
1050.459961 148.0
1053.532715 120.0
1054.282227 108.0
1055.801514 220.0
1055.859741 120.0
1058.130981 140.0
1058.208618 188.0
1059.413208 156.0
1059.95105 160.0
1060.177856 212.0
1063.258301 136.0
1063.738647 208.0
1064.524292 144.0
1064.784058 156.0
1066.967285 164.0
1067.038818 40.0
1067.110352 160.0
1067.942749 148.0
1068.281006 144.0
1069.003174 200.0
1070.363647 204.0
1070.591553 228.0
1071.014893 152.0
1072.533081 132.0
1073.465454 40.0
1074.717773 152.0
1075.383423 164.0
1075.44873 120.0
1076.460693 180.0
1077.616821 128.0
1078.590454 176.0
1079.185425 200.0
1079.558105 152.0
1079.728149 188.0
1083.577148 140.0
1084.887817 128.0
1086.389648 108.0
1086.848877 84.0
1088.516113 156.0
1088.562134 184.0
1090.329224 156.0
1090.973389 196.0
1091.709839 184.0
1092.064941 140.0
1094.684326 188.0
1095.329712 160.0
1096.199341 212.0
1096.278442 96.0
1097.813721 172.0
1098.836914 184.0
1099.31189 68.0
1099.75415 152.0
1102.521484 240.0
1102.845215 136.0
1102.984131 140.0
1103.929565 140.0
1104.352783 200.0
1104.584351 200.0
1108.331421 164.0
1109.265991 152.0
1109.358765 68.0
1109.451538 128.0
1110.578857 168.0
1110.903931 132.0
1111.268799 112.0
1112.450073 188.0
1112.542969 140.0
1113.207031 152.0
1113.432739 148.0
1114.568726 140.0
1116.18396 148.0
1118.299561 144.0
1118.758789 60.0
1119.437988 152.0
1119.597778 96.0
1121.943237 80.0
1122.609985 192.0
1123.370361 152.0
1124.097534 112.0
1125.926758 164.0
1126.120361 168.0
1126.394287 44.0
1129.482422 184.0
1129.696533 76.0
1130.071167 144.0
1131.409668 52.0
1132.635132 200.0
1133.137573 172.0
1133.378784 144.0
1134.04895 240.0
1134.169556 132.0
1134.317017 92.0
1137.187866 200.0
1138.738892 228.0
1139.309814 184.0
1139.880859 108.0
1140.311035 236.0
1143.357666 136.0
1143.6698 120.0
1144.326904 188.0
1145.242798 172.0
1145.512207 168.0
1145.727783 156.0
1147.244141 260.0
1147.513794 180.0
1148.201538 140.0
1148.579346 56.0
1148.984009 136.0
1149.463135 144.0
1149.982788 144.0
1150.711792 228.0
1152.967896 232.0
1153.096313 160.0
1153.691162 148.0
1153.981934 116.0
1155.111206 248.0
1156.755615 152.0
1157.012817 140.0
1157.310791 208.0
1157.47998 168.0
1159.97998 212.0
1160.217285 88.0
1161.844971 164.0
1162.469116 192.0
1164.478638 212.0
1164.892944 176.0
1165.518066 256.0
1165.599609 260.0
1165.715088 180.0
1166.258789 184.0
1167.197021 168.0
1168.378296 208.0
1168.564087 224.0
1168.985962 160.0
1169.149292 144.0
1169.421509 192.0
1170.82019 180.0
1174.599976 128.0
1175.418701 48.0
1177.698853 76.0
1178.142944 168.0
1178.402466 152.0
1178.621216 200.0
1179.092651 232.0
1180.159058 60.0
1180.740356 160.0
1181.691162 132.0
1182.348022 140.0
1182.42334 140.0
1182.710815 172.0
1183.299561 152.0
1183.443359 144.0
1185.368042 240.0
1185.553101 196.0
1186.821289 148.0
1187.239502 120.0
1187.314941 52.0
1188.776245 176.0
1189.249756 228.0
1189.881226 192.0
1189.977417 80.0
1190.519897 152.0
1191.550171 176.0
1191.666992 152.0
1191.921265 164.0
1196.364258 172.0
1196.667236 104.0
1196.942627 248.0
1198.499268 164.0
1198.616455 200.0
1199.38147 156.0
1199.429688 156.0
1201.105225 132.0
1202.167725 36.0
1202.519775 80.0
1202.692261 140.0
1202.927002 104.0
1203.465454 232.0
1203.513794 188.0
1203.796875 148.0
1204.508301 188.0
1205.295898 148.0
1205.385742 184.0
1205.814209 124.0
1206.035278 140.0
1206.533081 220.0
1207.307373 180.0
1207.556396 216.0
1208.393433 212.0
1209.078491 144.0
1209.452271 160.0
1209.736084 172.0
1210.019897 92.0
1210.601562 124.0
1210.954712 120.0
1211.148682 184.0
1211.592041 172.0
1211.647461 116.0
1213.019531 152.0
1213.234497 60.0
1213.463257 92.0
1213.546509 144.0
1214.066528 176.0
1215.058472 136.0
1215.641235 192.0
1218.786865 220.0
1219.627808 184.0
1219.940552 160.0
1220.642822 132.0
1221.164307 288.0
1221.546875 128.0
1221.651245 176.0
1221.832153 152.0
1225.842651 124.0
1226.205078 136.0
1226.504761 56.0
1226.553589 84.0
1226.971802 48.0
1227.271606 212.0
1227.91748 208.0
1228.81311 176.0
1229.3573 220.0
1229.964478 184.0
1230.690552 112.0
1231.081665 180.0
1231.36792 184.0
1231.4823 216.0
1233.338257 60.0
1233.939453 228.0
1234.023315 124.0
1234.848511 164.0
1235.338135 132.0
1235.499023 288.0
1236.072754 172.0
1237.199585 88.0
1237.91626 192.0
1238.067871 160.0
1238.439087 188.0
1239.132568 104.0
1240.239746 148.0
1241.408447 240.0
1241.936646 108.0
1243.234497 144.0
1244.161011 64.0
1244.217285 152.0
1244.975586 136.0
1246.781006 176.0
1249.199707 208.0
1249.839966 148.0
1249.90332 176.0
1251.663086 88.0
1252.529297 128.0
1252.789917 140.0
1253.466309 100.0
1254.812622 132.0
1257.274292 208.0
1257.500122 160.0
1257.909546 112.0
1258.015503 120.0
1258.721436 176.0
1260.303711 200.0
1260.515747 224.0
1260.579346 156.0
1260.793213 252.0
1260.946777 216.0
1261.582886 204.0
1261.653687 176.0
1262.318237 148.0
1262.700195 224.0
1262.827393 128.0
1263.131592 164.0
1264.398071 156.0
1264.546753 168.0
1265.806885 188.0
1267.287231 268.0
1268.3573 200.0
1268.825195 144.0
1269.420776 168.0
1269.725708 336.0
1269.860474 76.0
1270.101685 108.0
1271.272339 180.0
1271.435547 136.0
1271.584595 168.0
1271.69397 192.0
1272.265991 44.0
1273.103882 188.0
1273.274292 176.0
1273.508667 152.0
1274.928467 184.0
1275.078857 192.0
1275.24231 176.0
1275.633301 120.0
1275.746948 156.0
1276.073975 176.0
1276.920288 128.0
1277.38623 252.0
1277.94458 204.0
1278.264771 156.0
1278.96936 48.0
1280.265137 144.0
1280.692505 168.0
1280.792236 176.0
1281.134155 168.0
1281.482422 144.0
1281.768188 120.0
1282.416748 136.0
1282.951294 144.0
1284.320435 204.0
1284.953491 204.0
1287.860718 140.0
1288.353638 112.0
1288.625122 92.0
1288.896606 192.0
1289.046631 168.0
1289.303955 80.0
1290.812256 192.0
1291.527466 160.0
1291.827881 164.0
1292.063965 152.0
1292.371704 44.0
1292.500488 152.0
1292.564819 204.0
1293.108765 208.0
1294.612183 224.0
1295.357056 268.0
1295.722412 140.0
1296.825928 112.0
1297.033813 172.0
1297.177124 64.0
1297.327637 108.0
1297.578613 128.0
1298.704468 144.0
1298.819214 192.0
1299.012939 80.0
1299.285522 160.0
1299.859497 200.0
1300.103516 204.0
1300.727905 204.0
1301.345337 132.0
1301.417114 152.0
1301.560669 164.0
1301.768921 256.0
1302.386597 204.0
1302.609253 160.0
1302.663452 156.0
1303.06189 136.0
1303.629517 92.0
1303.960083 84.0
1304.276367 192.0
1304.391357 216.0
1304.520752 44.0
1305.592285 184.0
1305.714355 184.0
1306.253784 108.0
1306.433594 180.0
1306.570312 204.0
1306.958862 172.0
1309.629639 44.0
1310.256348 224.0
1310.969727 152.0
1311.344482 144.0
1311.835205 192.0
1312.739502 188.0
1313.247925 180.0
1314.070312 196.0
1314.52478 100.0
1315.578613 132.0
1315.968506 240.0
1317.102295 172.0
1317.26123 44.0
1318.814697 168.0
1319.841309 196.0
1320.108765 248.0
1320.455933 56.0
1321.613403 172.0
1321.714722 212.0
1321.968018 144.0
1322.546997 200.0
1322.970825 100.0
1323.430176 192.0
1325.820557 136.0
1326.05249 156.0
1326.621826 164.0
1326.878906 192.0
1327.060181 164.0
1327.226929 172.0
1327.857788 88.0
1328.133423 36.0
1328.665771 252.0
1329.032959 224.0
1329.504639 220.0
1329.751465 192.0
1330.37561 72.0
1330.876587 104.0
1331.060913 128.0
1331.082397 144.0
1331.290527 60.0
1332.154785 228.0
1332.532593 108.0
1333.60083 216.0
1334.760254 236.0
1337.273804 156.0
1338.613403 80.0
1338.846436 108.0
1339.705933 148.0
1340.376221 112.0
1340.551392 200.0
1341.505859 164.0
1342.030762 44.0
1342.752686 228.0
1343.401855 200.0
1343.6427 156.0
1344.467163 148.0
1344.583984 176.0
1345.182495 176.0
1346.07312 180.0
1346.394531 200.0
1346.48938 96.0
1346.635498 140.0
1347.236572 136.0
1348.447388 140.0
1348.578979 164.0
1348.688599 132.0
1349.134521 128.0
1349.266113 144.0
1349.478149 128.0
1349.902222 160.0
1350.092407 144.0
1350.289795 36.0
1350.867676 132.0
1351.123779 72.0
1351.55542 172.0
1352.023682 160.0
1352.110962 188.0
1352.265259 84.0
1352.880127 164.0
1353.429199 112.0
1353.714844 204.0
1354.234741 56.0
1354.73291 156.0
1354.791504 196.0
1355.223755 108.0
1355.414185 164.0
1355.670776 156.0
1356.022461 216.0
1356.498901 140.0
1357.158691 156.0
1357.232056 152.0
1357.496094 108.0
1357.628052 136.0
1358.181885 140.0
1358.596191 172.0
1358.794312 244.0
1359.495117 132.0
1359.557495 136.0
1359.755615 172.0
1360.262085 164.0
1360.651123 56.0
1360.886108 152.0
1361.098999 256.0
1361.407471 92.0
1361.546509 148.0
1362.560669 176.0
1363.199829 128.0
1363.567261 140.0
1363.626099 168.0
1364.412598 204.0
1364.492676 176.0
1365.133179 148.0
1365.258179 192.0
1365.449463 92.0
1365.567139 164.0
1365.66272 88.0
1366.008423 132.0
1366.258911 188.0
1366.582275 256.0
1367.045898 140.0
1367.627319 136.0
1368.017334 192.0
1369.320679 156.0
1369.423828 108.0
1369.585815 144.0
1369.851074 56.0
1370.410889 196.0
1370.514038 128.0
1370.793335 236.0
1371.354126 212.0
1371.685913 168.0
1372.364136 160.0
1372.89502 188.0
1373.167847 116.0
1373.470337 128.0
1374.03833 60.0
1374.901611 52.0
1375.506836 144.0
1376.008911 160.0
1376.78418 196.0
1377.072266 116.0
1377.943848 140.0
1378.187744 180.0
1378.638428 176.0
1379.39978 200.0
1379.525391 152.0
1380.730591 204.0
1380.922974 172.0
1382.084351 160.0
1383.660889 200.0
1384.993774 156.0
1385.408569 144.0
1385.475342 156.0
1386.238403 192.0
1386.631226 40.0
1386.846191 204.0
1387.068481 164.0
1387.654175 148.0
1387.935913 180.0
1388.180664 188.0
1388.425415 232.0
1388.595947 84.0
1390.740112 128.0
1390.889282 196.0
1392.121094 144.0
1392.618652 152.0
1392.782104 204.0
1393.532349 160.0
1394.141724 152.0
1394.669434 144.0
1394.832886 116.0
1395.174805 144.0
1395.360718 136.0
1395.821655 172.0
1396.037354 128.0
1397.450684 204.0
1398.031006 188.0
1398.261719 132.0
1398.663696 200.0
1398.827393 220.0
1398.886963 136.0
1400.376221 136.0
1400.852905 84.0
1400.913452 316.0
1401.143433 188.0
1401.344604 208.0
1401.814087 108.0
1401.880493 196.0
1402.790405 120.0
1402.881348 180.0
1404.132568 96.0
1404.565063 140.0
1405.244019 104.0
1405.303711 276.0
1405.378296 280.0
1405.535034 88.0
1406.273804 212.0
1406.72168 152.0
1407.505615 180.0
1407.640015 80.0
1407.702881 184.0
1408.685547 244.0
1409.036743 128.0
1409.15625 188.0
1409.387817 148.0
1409.93335 184.0
1411.503174 152.0
1411.630371 236.0
1412.296021 200.0
1412.939331 200.0
1413.260986 48.0
1413.612671 152.0
1413.747437 144.0
1415.124634 120.0
1415.296875 148.0
1416.18811 208.0
1417.124512 184.0
1417.274292 192.0
1417.791382 184.0
1417.986206 292.0
1418.406006 208.0
1418.585815 136.0
1419.215576 228.0
1419.298096 136.0
1419.980469 164.0
1420.205566 44.0
1420.498047 156.0
1421.584229 196.0
1421.826172 164.0
1422.636719 112.0
1422.846924 168.0
1423.928223 200.0
1424.401489 136.0
1424.720337 192.0
1425.175293 124.0
1425.611084 160.0
1426.174805 140.0
1426.422852 124.0
1426.550537 112.0
1426.723511 108.0
1427.370117 140.0
1427.670898 60.0
1428.25 200.0
1428.37793 172.0
1428.731445 140.0
1429.22998 168.0
1429.393555 180.0
1429.529053 176.0
1430.01062 116.0
1430.680542 164.0
1431.162476 172.0
1432.051025 80.0
1432.555664 128.0
1433.580444 132.0
1433.881836 172.0
1434.281372 172.0
1434.982422 128.0
1435.088013 280.0
1435.172363 160.0
1435.374512 172.0
1435.887329 64.0
1436.286987 148.0
1436.784912 144.0
1437.162109 180.0
1437.645142 32.0
1438.679199 48.0
1439.260498 336.0
1439.351074 200.0
1439.585205 108.0
1439.765625 140.0
1440.164062 208.0
1440.325317 144.0
1441.345215 152.0
1441.700439 104.0
1442.230957 256.0
1442.622559 104.0
1442.735962 216.0
1443.204712 176.0
1443.50708 116.0
1444.936646 160.0
1445.224121 128.0
1445.481445 172.0
1445.882568 168.0
1445.935547 264.0
1446.33667 140.0
1446.593994 60.0
1447.116333 168.0
1447.790283 68.0
1448.797729 52.0
1449.161377 196.0
1449.214355 136.0
1449.358398 124.0
1449.752441 176.0
1450.699829 124.0
1450.949951 196.0
1451.018188 160.0
1451.681641 204.0
1451.814453 168.0
1452.089233 172.0
1452.10791 40.0
1452.138672 160.0
1453.073608 88.0
1453.339111 148.0
1453.574341 156.0
1454.105591 120.0
1454.573853 152.0
1455.062012 240.0
1455.115112 168.0
1455.388428 64.0
1456.033081 216.0
1456.060669 192.0
1456.269409 220.0
1456.595947 188.0
1456.725098 172.0
1456.907471 172.0
1458.062378 224.0
1458.427246 160.0
1458.495605 144.0
1458.586792 88.0
1458.989746 168.0
1459.087402 132.0
1459.156982 140.0
1460.016235 136.0
1460.206421 144.0
1460.312866 92.0
1461.156738 248.0
1461.296265 292.0
1461.491943 184.0
1462.877075 216.0
1463.09021 140.0
1463.181641 92.0
1463.44812 172.0
1463.577515 100.0
1464.217163 140.0
1464.30481 128.0
1464.689453 204.0
1465.207397 128.0
1465.405518 172.0
1466.182739 204.0
1466.511719 200.0
1466.697266 148.0
1466.98291 136.0
1467.074585 220.0
1467.402344 124.0
1467.821777 148.0
1467.966675 184.0
1469.286133 60.0
1469.667603 116.0
1469.751587 196.0
1469.873657 136.0
1470.575806 96.0
1470.888672 256.0
1471.407837 180.0
1471.843018 52.0
1472.044312 188.0
1472.308838 240.0
1472.965698 172.0
1473.057373 148.0
1473.26355 96.0
1473.553955 100.0
1473.676147 140.0
1474.119385 192.0
1474.363892 88.0
1474.616089 220.0
1475.01355 128.0
1475.533325 40.0
1475.739746 136.0
1475.846802 156.0
1476.886841 96.0
1477.483521 128.0
1478.056519 176.0
1478.428223 164.0
1478.776733 160.0
1478.975708 208.0
1479.289551 212.0
1479.358521 172.0
1479.626465 112.0
1480.116455 252.0
1480.223633 160.0
1480.453369 76.0
1480.660156 216.0
1481.027832 176.0
1481.09668 108.0
1481.456787 152.0
1482.054321 184.0
1482.376221 152.0
1482.498901 216.0
1482.958618 132.0
1483.219238 160.0
1484.353882 148.0
1484.514893 112.0
1484.637573 192.0
1484.883057 108.0
1485.228149 136.0
1485.32019 136.0
1485.535034 204.0
1485.665405 172.0
1486.026001 140.0
1486.962158 168.0
1487.03894 144.0
1487.192383 172.0
1487.606934 144.0
1487.860229 180.0
1488.411133 176.0
1488.512939 192.0
1488.666504 172.0
1489.234741 160.0
1489.918457 120.0
1490.894287 156.0
1491.001831 140.0
1491.124878 132.0
1491.240112 168.0
1491.455322 112.0
1491.708984 148.0
1492.139526 224.0
1492.323975 140.0
1492.963135 172.0
1493.039185 124.0
1493.331421 144.0
1493.485229 152.0
1493.585205 192.0
1493.81604 124.0
1493.885254 40.0
1494.416138 120.0
1494.500732 152.0
1494.800781 172.0
1495.716675 140.0
1495.963013 184.0
1496.217041 132.0
1496.471069 184.0
1496.578857 100.0
1498.011353 152.0
1498.392334 164.0
1498.450439 212.0
1498.643066 160.0
1498.781738 192.0
1498.874268 172.0
1499.922363 148.0
1500.138184 204.0
1500.238403 124.0
1500.400391 116.0
1500.977051 136.0
1501.356445 60.0
1501.418091 196.0
1501.775513 156.0
1502.683228 48.0
1502.876099 44.0
1503.578247 192.0
