>compound MLS001140265-01!(2S)-N-(1,3-benzodioxol-5-yl)-1-(4,5-dimethoxy-3-oxo-1H-2-benzofuran-1-yl)-5-oxopyrrolidine-2-carboxamide
>formula C22H20N2O8
>ionization [M+H]+
>parentmass 441.13
#inchi InChI=1S/C22H20N2O8/c1-28-15-7-4-12-18(19(15)29-2)22(27)32-21(12)24-13(5-8-17(24)25)20(26)23-11-3-6-14-16(9-11)31-10-30-14/h3-4,6-7,9,13,21H,5,8,10H2,1-2H3,(H,23,26)/t13-,21?/m0/s1
#inchikey YUSWJBZWFPEJFF
#Ion_Source LC-ESI
#Instrument qTof
#Compound_Source NIH Natural Product Library
#PI Dorrestein
#Data_Collector VVP/LMS
#Scan -1
#Precursor_MZ 441.13
#ExactMass 440.122
#Charge 1
#CAS_Number N/A
#Pubmed_ID N/A
#Smiles COc1ccc2C(OC(=O)c2c1OC)N3[C@@H](CCC3=O)C(=O)Nc4ccc5OCOc5c4
#INCHI_AUX N/A
#Library_Class 1
#SpectrumID CCMSLIB00000079724
#IonMode Positive
#UpdateWorkflowName UPDATE-SINGLE-ANNOTATED-GOLD
#LibraryQualityString Gold
#TaskID b1d8e8f6646f4e71acdff9ca3d919d08
##Scan# 1537
#SpectrumFile p1-C10_GC10_01_17906.mzXML
#LibraryName NIH_Natural_Products_Library.mgf
#MQScore -1
#Organism NIH_Natural_Products_Library
#TIC_Query 0
#RT_Query -1
#MZErrorPPM -1
#SharedPeaks 0
#MassDiff 0
#LibMZ -1
#SpecMZ 441.13
#SpecCharge 0
#internalFilename spec-00000.mgf

>collision 10
95.069633 192.0
95.087097 80.0
95.619606 144.0
96.992661 132.0
97.12207 144.0
97.195091 180.0
97.459724 120.0
97.754669 148.0
98.164398 152.0
98.482132 180.0
98.675789 56.0
99.131027 228.0
99.261856 148.0
99.42849 148.0
99.680687 200.0
99.758202 172.0
99.943153 160.0
100.548935 212.0
100.680695 164.0
100.758598 128.0
100.953156 164.0
101.070488 160.0
101.400909 192.0
101.759964 196.0
102.153854 168.0
102.214211 184.0
102.238358 196.0
102.314842 156.0
102.347054 72.0
102.371223 212.0
102.530365 104.0
102.770844 140.0
103.016426 164.0
103.331993 184.0
103.40686 152.0
103.664055 188.0
104.738785 204.0
104.861031 176.0
104.954803 232.0
105.018021 128.0
105.03511 132.0
105.06086 132.0
105.450859 108.0
105.638969 156.0
105.800003 272.0
106.095634 148.0
106.387772 264.0
106.49987 28.0
106.586151 116.0
107.016029 160.0
107.052307 520.0
107.298279 164.0
107.393135 188.0
107.630455 176.0
108.021057 40.0
108.057098 208.0
108.294273 172.0
108.56369 164.0
108.717201 76.0
108.821274 144.0
108.908203 176.0
109.028801 1300.0
109.07058 212.0
109.197098 192.0
109.561363 152.0
109.673882 108.0
110.035019 200.0
110.333511 192.0
110.444336 232.0
110.62429 160.0
110.978348 92.0
110.999313 164.0
111.120964 128.0
111.171318 144.0
111.349762 200.0
111.484215 176.0
111.557777 80.0
111.610336 180.0
111.900688 152.0
111.955429 164.0
111.980705 168.0
112.220932 88.0
112.423424 124.0
113.22464 168.0
113.324196 128.0
114.861191 180.0
115.070328 112.0
115.296745 176.0
115.619667 160.0
115.760948 52.0
115.816635 44.0
116.025787 224.0
116.550316 152.0
116.5718 196.0
116.666367 196.0
116.926628 92.0
116.976135 176.0
117.037315 172.0
117.249672 168.0
117.454491 64.0
117.551575 204.0
117.627113 132.0
117.992195 48.0
118.07003 156.0
118.219299 144.0
118.23661 148.0
118.340515 104.0
118.580963 188.0
118.849854 276.0
118.982246 120.0
119.006126 288.0
119.043045 204.0
119.132088 176.0
119.229866 244.0
119.312462 80.0
119.434235 128.0
119.488213 192.0
119.56913 196.0
119.645309 60.0
119.915405 192.0
120.020042 128.0
120.057114 172.0
120.242546 76.0
120.532982 192.0
120.758148 188.0
120.926613 116.0
121.028572 1648.0
121.064537 132.0
121.239792 76.0
121.255135 196.0
121.338425 60.0
121.355965 72.0
121.46508 224.0
121.610428 152.0
121.742149 276.0
122.035423 2224.0
122.070084 120.0
122.223549 180.0
122.274864 196.0
122.344307 152.0
122.44368 56.0
122.470108 144.0
122.574112 172.0
122.803314 112.0
123.00679 180.0
123.043831 480.0
123.222328 52.0
123.472099 108.0
123.901512 104.0
123.954689 32.0
124.014519 140.0
124.038902 132.0
124.132019 112.0
124.211861 128.0
124.67366 228.0
124.702553 128.0
125.062859 136.0
125.120735 296.0
125.885506 76.0
126.294487 128.0
126.332512 148.0
126.630203 236.0
127.053848 196.0
127.529892 168.0
127.547874 208.0
127.833496 148.0
128.723892 216.0
128.859406 184.0
128.918152 136.0
129.019867 216.0
129.34108 164.0
129.655899 192.0
129.714828 120.0
129.92572 168.0
130.061874 96.0
130.120895 168.0
130.13678 92.0
130.157654 104.0
130.23671 212.0
130.252609 216.0
130.459381 196.0
130.584442 160.0
130.816528 160.0
131.041992 112.0
131.258514 132.0
131.756073 232.0
131.998337 176.0
132.01947 176.0
132.181335 48.0
132.669174 136.0
132.997192 196.0
133.025238 272.0
133.967545 96.0
134.038162 196.0
134.20723 156.0
134.620255 88.0
134.664139 112.0
134.701096 144.0
134.775024 140.0
134.862839 212.0
134.973801 200.0
135.010422 368.0
135.045013 3424.0
135.079254 148.0
135.105637 52.0
135.577972 148.0
135.617371 72.0
135.793579 44.0
135.864716 144.0
136.016312 152.0
136.049698 504.0
136.146332 180.0
136.594894 28.0
136.818298 76.0
136.846237 160.0
136.897461 188.0
136.918411 156.0
137.02327 1332.0
137.056305 452.0
137.673996 120.0
137.79599 88.0
138.023621 156.0
138.059586 100.0
138.286514 236.0
138.338013 64.0
138.703888 164.0
139.07402 108.0
139.217239 148.0
140.51416 156.0
141.038391 152.0
141.080948 148.0
141.305618 232.0
141.34111 124.0
141.686768 240.0
142.305771 168.0
142.365128 76.0
143.43576 116.0
143.698074 96.0
143.743408 176.0
144.082443 256.0
144.419495 144.0
144.661163 160.0
144.759323 144.0
144.778473 260.0
145.025238 88.0
145.094757 180.0
145.689911 164.0
145.978333 68.0
145.995163 200.0
146.057693 132.0
146.300735 68.0
146.348877 184.0
146.681335 216.0
146.857346 176.0
147.046188 224.0
147.253174 108.0
147.366699 156.0
147.959229 164.0
148.010071 148.0
148.291077 44.0
148.346832 188.0
148.472916 164.0
148.528687 92.0
148.722809 96.0
148.832047 172.0
148.919464 88.0
148.980194 96.0
149.024185 2320.0
149.057938 144.0
149.087097 104.0
149.113831 112.0
149.412918 192.0
149.490768 56.0
149.909607 116.0
149.972977 48.0
150.031357 3960.0
150.311951 168.0
150.331482 44.0
150.600021 140.0
150.753937 56.0
150.863922 192.0
150.91037 184.0
151.038681 744.0
151.333649 148.0
151.453644 116.0
151.532028 148.0
151.573685 192.0
151.924271 188.0
152.047577 224.0
152.292465 88.0
152.857895 228.0
153.099136 52.0
153.641388 132.0
153.688263 112.0
153.83725 224.0
154.02684 168.0
154.404633 164.0
155.028473 180.0
155.313583 200.0
155.330948 72.0
155.871613 160.0
156.322235 40.0
156.513901 80.0
157.144485 116.0
157.196884 40.0
157.306702 156.0
157.40657 124.0
157.536438 220.0
158.204117 184.0
158.487122 180.0
158.950989 252.0
159.089035 156.0
159.212067 136.0
159.465805 148.0
159.837982 112.0
160.019943 204.0
160.800629 168.0
160.866257 176.0
161.02449 220.0
161.068253 120.0
162.025909 356.0
162.305786 80.0
162.364105 244.0
162.701569 68.0
162.721893 128.0
162.749817 48.0
162.853928 220.0
162.943771 184.0
162.98349 188.0
163.038895 10636.0
163.222412 164.0
163.240768 224.0
163.306335 252.0
163.489517 52.0
163.779755 48.0
163.879105 336.0
163.952988 148.0
164.042587 1072.0
164.509018 44.0
164.572845 60.0
164.733734 48.0
164.970535 120.0
165.016403 988.0
165.053879 456.0
165.103317 100.0
165.229675 108.0
165.285965 32.0
165.352493 116.0
165.393448 60.0
165.475357 56.0
165.593155 132.0
165.851929 112.0
166.053116 148.0
166.344406 104.0
166.606339 152.0
166.634598 160.0
166.655151 176.0
166.783646 136.0
167.334137 160.0
167.480927 124.0
168.102234 156.0
168.49469 188.0
169.01178 112.0
169.048416 128.0
169.356094 224.0
170.089859 164.0
170.269012 68.0
170.593796 212.0
170.911087 136.0
170.970932 96.0
171.179459 196.0
171.755142 56.0
171.864014 240.0
171.966492 168.0
172.507172 192.0
172.873322 168.0
173.106308 136.0
173.145584 204.0
173.192734 128.0
173.232025 160.0
173.593704 148.0
173.837662 132.0
174.052902 172.0
174.147446 28.0
174.284042 204.0
174.765198 168.0
175.034821 320.0
175.170624 184.0
175.333984 160.0
175.65564 132.0
175.766449 116.0
175.874649 176.0
175.969681 180.0
176.001358 52.0
176.030136 116.0
176.044342 144.0
176.405563 184.0
176.482239 184.0
177.018204 460.0
177.096176 128.0
177.318726 160.0
178.026596 2052.0
178.08548 120.0
178.104065 112.0
178.135941 188.0
178.268784 108.0
178.372437 56.0
178.563873 188.0
179.032379 420.0
179.162766 168.0
179.653275 148.0
179.968201 220.0
179.992233 68.0
180.020126 144.0
180.216583 136.0
180.342178 176.0
181.09668 80.0
181.423584 252.0
182.183029 120.0
182.564697 140.0
183.024826 204.0
183.385818 212.0
183.601486 96.0
184.014328 80.0
185.656769 228.0
186.052917 120.0
186.498398 96.0
186.623444 140.0
187.917145 168.0
187.968994 200.0
188.086349 132.0
189.042892 128.0
189.215332 116.0
189.938766 180.0
190.193954 120.0
190.677338 120.0
190.768036 176.0
190.81752 124.0
191.040085 160.0
191.228516 88.0
191.257324 164.0
191.816818 140.0
191.836105 80.0
191.936584 172.0
192.048431 136.0
192.390594 200.0
192.495499 244.0
192.531403 184.0
192.64418 140.0
192.711868 324.0
192.77562 208.0
192.816879 156.0
192.83931 344.0
192.870056 208.0
192.937576 180.0
192.980972 236.0
193.004089 332.0
193.050827 86332.0
193.128876 260.0
193.152084 112.0
193.191177 96.0
193.211136 92.0
193.222107 120.0
193.273911 156.0
193.308197 152.0
193.351273 52.0
193.381851 104.0
193.410339 44.0
193.449341 212.0
193.481461 80.0
193.504715 240.0
193.556091 108.0
193.601624 84.0
193.698563 84.0
193.808792 132.0
193.856476 120.0
193.911911 52.0
193.939987 60.0
193.951477 72.0
193.975967 36.0
194.016678 216.0
194.053314 9916.0
194.108734 120.0
194.134064 60.0
194.156799 108.0
194.208328 104.0
194.251419 80.0
194.273621 44.0
194.336166 56.0
194.383347 56.0
194.414291 104.0
194.432083 64.0
194.531189 88.0
194.624832 64.0
194.68869 40.0
194.730347 64.0
194.938705 76.0
194.970947 60.0
195.010956 68.0
195.055603 916.0
195.094345 72.0
195.180542 152.0
195.258408 136.0
195.286209 184.0
195.339066 84.0
195.40564 116.0
195.416641 108.0
195.424255 64.0
195.447556 120.0
195.456177 84.0
195.514343 92.0
195.547745 48.0
195.593246 140.0
195.632996 108.0
195.672211 112.0
195.711975 72.0
195.781601 64.0
195.968216 76.0
195.996078 72.0
196.029526 44.0
196.050476 164.0
196.082474 48.0
196.216263 56.0
196.313858 108.0
196.391296 104.0
196.459976 144.0
196.71283 40.0
196.802155 128.0
197.075882 84.0
197.127213 108.0
197.51976 128.0
197.763794 72.0
199.696915 68.0
200.068344 172.0
201.179031 36.0
203.585678 60.0
204.239349 52.0
204.546661 68.0
205.084991 184.0
205.107788 120.0
205.238937 96.0
206.486832 52.0
207.474686 92.0
208.06279 124.0
209.042892 412.0
209.944534 160.0
210.48703 64.0
212.25499 132.0
217.650208 36.0
220.05275 192.0
222.254807 80.0
232.08136 168.0
233.067795 52.0
234.065475 124.0
234.123322 96.0
237.070374 96.0
241.077927 176.0
243.041107 196.0
245.694962 52.0
249.012924 236.0
260.977844 164.0
266.514587 76.0
266.595825 96.0
267.41861 56.0
268.05423 156.0
269.064728 156.0
269.711517 120.0
277.570038 72.0
284.41922 68.0
288.035553 204.0
297.059631 140.0
309.768158 136.0
309.803192 68.0
312.084656 672.0
312.232086 144.0
313.059082 136.0
313.094299 148.0
319.476013 184.0
320.073944 140.0
323.229309 136.0
327.969788 88.0
330.085327 112.0
332.748413 116.0
337.075409 144.0
337.287384 48.0
341.393616 40.0
342.106812 128.0
361.108856 148.0
364.307953 80.0
367.090149 120.0
369.462006 84.0
377.253204 48.0
381.488281 20.0
389.630463 100.0
392.558807 28.0
413.736542 60.0
427.002167 72.0
430.542236 192.0
439.099762 156.0
449.803192 80.0
463.206329 80.0
463.647614 116.0
469.330383 44.0
525.093079 64.0
545.955994 28.0
576.773865 108.0
612.366638 40.0
621.760071 48.0
639.301208 48.0
649.354614 152.0
657.234375 52.0
661.588745 84.0
731.113708 52.0
745.699585 32.0
758.213806 128.0
781.951111 56.0
805.415833 84.0
813.22937 224.0
826.135498 72.0
841.987976 68.0
858.912476 124.0
900.860901 68.0
913.166504 164.0
927.96698 76.0
952.726868 156.0
954.650635 152.0
956.730225 160.0
968.679321 288.0
995.171753 196.0
998.043152 180.0
1018.582336 76.0
1022.397095 148.0
1022.753479 112.0
1029.932983 124.0
1036.695312 60.0
1039.305054 132.0
1042.419312 100.0
1066.811401 128.0
1069.758179 124.0
1070.259521 168.0
1077.610107 132.0
1080.015747 148.0
1086.218628 216.0
1109.012939 92.0
1112.296265 156.0
1117.253418 236.0
1119.936035 204.0
1120.009277 212.0
1125.090454 100.0
1137.186035 112.0
1139.630249 96.0
1152.769531 212.0
1153.871338 140.0
1159.963867 144.0
1167.513794 112.0
1182.119019 128.0
1182.338013 108.0
1183.911133 104.0
1191.876465 140.0
1193.072266 120.0
1196.498291 100.0
1201.225586 168.0
1203.93811 168.0
1206.515259 180.0
1206.86792 100.0
1214.693481 64.0
1224.925537 228.0
1231.831177 40.0
1236.914795 68.0
1241.910522 176.0
1252.185913 108.0
1256.542114 152.0
1269.925659 268.0
1283.579712 164.0
1287.268799 140.0
1287.98291 148.0
1290.512695 108.0
1290.605713 232.0
1292.987671 212.0
1293.553101 192.0
1296.066895 144.0
1298.139282 176.0
1305.074707 96.0
1309.003296 152.0
1312.209595 96.0
1312.63501 192.0
1319.197754 168.0
1323.763062 120.0
1325.704468 188.0
1327.345947 176.0
1330.237427 188.0
1332.052734 164.0
1340.550537 272.0
1353.918945 180.0
1356.791138 184.0
1358.294434 164.0
1361.604614 208.0
1362.43457 164.0
1364.220337 164.0
1365.845337 76.0
1369.216187 196.0
1370.800049 132.0
1373.579468 180.0
1384.095947 160.0
1384.606934 212.0
1384.977173 100.0
1385.932861 124.0
1388.608887 180.0
1396.600586 224.0
1397.381592 180.0
1399.614502 220.0
1399.688965 136.0
1400.537842 184.0
1403.548584 160.0
1406.286987 252.0
1411.897095 184.0
1413.879639 180.0
1418.208496 160.0
1420.0979 208.0
1422.378784 140.0
1422.498901 240.0
1422.679077 260.0
1422.926758 176.0
1423.993042 228.0
1424.894409 196.0
1431.249878 204.0
1435.084961 256.0
1440.465698 240.0
1440.563843 148.0
1441.750122 92.0
1458.195557 160.0
1464.898926 144.0
1470.312256 220.0
1471.678589 156.0
1472.732422 132.0
1475.995605 84.0
1480.816772 176.0
1484.196167 200.0
1485.745361 152.0
1487.702271 204.0
1495.396484 136.0
1497.498291 56.0
1498.468872 160.0
1500.610596 192.0
1501.521362 200.0
1501.976318 224.0
1502.238647 204.0
1502.377441 144.0
1503.033325 244.0
1503.95166 240.0
