>compound MLS000575011-01!
>formula C14H16N2O2
>ionization [M+H]+
>parentmass 245.129
#inchi InChI=1S/C14H16N2O2/c1-2-10-13-9(7-12(15-10)14(17)18)8-5-3-4-6-11(8)16-13/h3-6,10,12,15-16H,2,7H2,1H3,(H,17,18)
#inchikey OOJCKCNYTLTQGT
#Ion_Source LC-ESI
#Instrument qTof
#Compound_Source NIH Natural Product Library
#PI Dorrestein
#Data_Collector VVP/LMS
#Scan -1
#Precursor_MZ 245.129
#ExactMass 244.121
#Charge 1
#CAS_Number N/A
#Pubmed_ID N/A
#Smiles CCC1NC(Cc2c1[nH]c3ccccc23)C(=O)O
#INCHI_AUX N/A
#Library_Class 1
#SpectrumID CCMSLIB00000080417
#IonMode Positive
#UpdateWorkflowName UPDATE-SINGLE-ANNOTATED-GOLD
#LibraryQualityString Gold
#TaskID b1d8e8f6646f4e71acdff9ca3d919d08
##Scan# 1374
#SpectrumFile p2-F08_GF8_01_18044.mzXML
#LibraryName NIH_Natural_Products_Library.mgf
#MQScore -1
#Organism NIH_Natural_Products_Library
#TIC_Query 0
#RT_Query -1
#MZErrorPPM -1
#SharedPeaks 0
#MassDiff 0
#LibMZ -1
#SpecMZ 245.129
#SpecCharge 0
#internalFilename spec-00000.mgf

>collision 10
95.312698 180.0
95.635529 188.0
96.003754 144.0
96.130562 112.0
96.91272 180.0
97.444443 240.0
97.619385 168.0
98.174721 248.0
100.114891 132.0
101.782677 100.0
102.424232 200.0
103.017303 116.0
103.049622 140.0
103.904022 160.0
104.064362 196.0
104.180122 92.0
104.200439 164.0
104.361008 176.0
104.446426 112.0
105.772774 60.0
105.996017 120.0
106.685646 196.0
109.100319 208.0
110.198669 168.0
110.67556 172.0
111.252129 176.0
111.586166 188.0
112.946388 184.0
115.052155 324.0
116.045052 164.0
116.062202 192.0
117.056015 172.0
117.091568 152.0
118.066719 700.0
118.162247 56.0
118.445839 160.0
119.085716 140.0
119.448708 184.0
119.513977 224.0
120.960945 160.0
121.9524 164.0
123.00309 176.0
123.199623 140.0
124.140312 108.0
125.55471 104.0
125.981041 156.0
126.166534 208.0
127.134171 184.0
127.47776 160.0
128.057785 268.0
128.608353 124.0
129.068512 160.0
129.171005 164.0
129.61702 200.0
130.009323 196.0
130.064621 2092.0
130.631882 136.0
130.672836 96.0
131.05307 104.0
131.073471 772.0
131.157898 172.0
131.584503 204.0
131.801483 140.0
132.043808 192.0
132.074295 284.0
132.089554 192.0
132.169235 160.0
133.049759 176.0
133.279434 172.0
134.463226 160.0
136.373917 36.0
137.086075 184.0
137.258575 128.0
141.062119 192.0
141.081039 172.0
141.237106 196.0
142.067825 164.0
142.078064 220.0
142.950073 136.0
143.073654 1320.0
143.364441 44.0
143.526535 100.0
143.600464 208.0
143.777008 124.0
143.86055 212.0
144.039536 152.0
144.082458 1676.0
144.168671 84.0
144.2332 68.0
144.615906 176.0
145.056107 160.0
145.080765 176.0
146.055603 344.0
147.064087 164.0
147.125519 120.0
147.485458 220.0
148.199371 256.0
152.064667 160.0
152.278275 104.0
152.772354 172.0
153.072632 200.0
154.01474 184.0
154.064484 728.0
155.070374 548.0
155.492905 136.0
156.079697 1240.0
156.260742 44.0
156.30304 44.0
157.087936 1084.0
157.122787 68.0
158.022217 200.0
158.054306 188.0
158.095032 584.0
158.169861 64.0
158.728561 32.0
158.860123 44.0
159.059738 216.0
159.099701 376.0
160.050278 128.0
161.569702 188.0
164.08403 56.0
165.065308 332.0
165.986343 168.0
166.067169 448.0
166.209518 200.0
166.240311 180.0
166.263412 112.0
166.419998 88.0
166.882477 88.0
167.021164 164.0
167.073242 3500.0
167.121689 168.0
168.079834 4564.0
168.126663 188.0
168.160217 40.0
168.209259 36.0
168.3461 52.0
168.498505 84.0
168.560516 60.0
168.635452 56.0
169.055573 228.0
169.083954 816.0
169.245987 92.0
169.279648 56.0
170.061951 176.0
170.097504 528.0
170.127502 92.0
170.366425 96.0
170.40799 112.0
170.883789 204.0
171.063354 232.0
171.105438 256.0
171.474915 96.0
172.027725 248.0
172.112671 1784.0
173.116257 200.0
173.368515 84.0
173.44046 176.0
174.356461 132.0
174.927231 248.0
175.987061 92.0
177.060684 148.0
178.996643 40.0
179.324326 144.0
180.078079 268.0
180.587219 76.0
180.854797 80.0
181.089264 148.0
181.537979 188.0
181.843826 128.0
182.097168 2936.0
182.784409 96.0
183.099503 744.0
183.247543 80.0
183.770599 52.0
183.889343 56.0
184.040512 180.0
184.104477 156.0
184.351166 104.0
184.548492 48.0
184.935349 64.0
185.355118 192.0
186.05217 136.0
186.091095 356.0
186.554749 132.0
187.090683 148.0
187.651917 32.0
188.074753 140.0
189.442001 36.0
192.082672 172.0
193.075256 124.0
194.846603 184.0
195.013321 212.0
195.093933 124.0
195.358139 144.0
197.106201 152.0
198.10791 104.0
199.67981 60.0
200.104721 100.0
205.065002 148.0
210.094666 148.0
211.082474 132.0
211.180801 72.0
213.082443 136.0
220.038513 128.0
220.851181 164.0
221.061234 176.0
223.081223 168.0
223.589706 88.0
228.094589 124.0
228.11525 192.0
241.073105 124.0
251.073074 204.0
269.080261 216.0
343.240295 96.0
362.068878 96.0
424.075623 80.0
470.812775 44.0
524.117126 48.0
629.548767 52.0
735.3125 88.0
735.361084 64.0
780.895874 124.0
863.858276 168.0
890.905579 104.0
995.449402 184.0
1019.511841 184.0
1029.654053 200.0
1032.466064 176.0
1071.558838 252.0
1078.489014 104.0
1097.711914 144.0
1123.946899 80.0
1148.379639 184.0
1153.281494 144.0
1216.191772 144.0
1232.8302 264.0
1249.244019 168.0
1269.287964 200.0
1280.067505 228.0
1290.478027 60.0
1293.360962 172.0
1300.478394 228.0
1304.982544 204.0
1336.685791 128.0
1355.210327 132.0
1362.56189 124.0
1370.441528 124.0
1377.834229 192.0
1378.609985 164.0
1386.217285 88.0
1390.503662 88.0
1416.98291 140.0
1438.589233 76.0
1444.354858 220.0
1460.351318 112.0
1478.845947 208.0
1479.910034 172.0
1484.254517 212.0
1485.121094 112.0
1497.472412 68.0
1499.714478 180.0
