>compound MLS001076861-01!
>formula C21H20BrN3O2S
>ionization [M+H]+
>parentmass 458.054
#inchi InChI=1S/C21H20BrN3O2S/c22-17-7-4-14(5-8-17)6-9-19(26)23-21(28)24-11-15-10-16(13-24)18-2-1-3-20(27)25(18)12-15/h1-9,15-16H,10-13H2,(H,23,26,28)/b9-6+/t15-,16-/m1/s1
#inchikey SDFDJNSQTCCFRD
#Ion_Source LC-ESI
#Instrument qTof
#Compound_Source NIH Natural Product Library
#PI Dorrestein
#Data_Collector VVP/LMS
#Scan -1
#Precursor_MZ 458.054
#ExactMass 457.046
#Charge 1
#CAS_Number N/A
#Pubmed_ID N/A
#Smiles Brc1ccc(/C=C/C(=O)NC(=S)N2C[C@H]3C[C@H](C2)c4cccc(=O)n4C3)cc1
#INCHI_AUX N/A
#Library_Class 1
#SpectrumID CCMSLIB00000079971
#IonMode Positive
#UpdateWorkflowName UPDATE-SINGLE-ANNOTATED-GOLD
#LibraryQualityString Gold
#TaskID b1d8e8f6646f4e71acdff9ca3d919d08
##Scan# 1790
#SpectrumFile p2-E02_GE2_01_18026.mzXML
#LibraryName NIH_Natural_Products_Library.mgf
#MQScore -1
#Organism NIH_Natural_Products_Library
#TIC_Query 0
#RT_Query -1
#MZErrorPPM -1
#SharedPeaks 0
#MassDiff 0
#LibMZ -1
#SpecMZ 458.054
#SpecCharge 0
#internalFilename spec-00000.mgf

>collision 10
95.89518 164.0
96.441681 48.0
96.919189 148.0
97.191734 152.0
98.668922 164.0
99.023125 68.0
99.667854 148.0
100.057686 160.0
102.047272 760.0
103.048103 140.0
103.442459 208.0
104.414352 176.0
104.55677 172.0
105.916565 180.0
106.119446 128.0
107.023499 148.0
108.045135 204.0
108.451004 120.0
108.951096 188.0
109.046684 364.0
109.946388 60.0
110.121765 216.0
111.246201 152.0
113.022896 176.0
114.404564 60.0
115.185043 144.0
115.27478 120.0
115.347443 164.0
116.019623 208.0
117.055237 280.0
118.073822 160.0
118.714851 168.0
119.901833 176.0
120.661453 160.0
120.748924 200.0
120.816734 104.0
122.723091 152.0
123.040802 212.0
124.111656 276.0
125.356453 56.0
125.405479 152.0
126.656731 140.0
128.098846 144.0
128.116867 152.0
129.033127 180.0
129.27063 188.0
129.932251 200.0
130.044418 444.0
130.497772 200.0
131.073624 212.0
131.276505 140.0
132.04541 344.0
132.080643 172.0
132.105606 144.0
132.531433 144.0
132.636856 168.0
133.053528 344.0
133.116348 188.0
133.56221 196.0
134.883469 152.0
135.34848 136.0
135.617218 140.0
135.719223 180.0
135.81662 140.0
137.172256 176.0
137.258514 192.0
137.975311 196.0
138.066498 136.0
139.623718 156.0
140.007324 132.0
141.25827 160.0
141.717545 180.0
141.907166 144.0
142.348495 104.0
142.728699 172.0
145.046875 112.0
145.080429 164.0
145.125977 160.0
145.178741 88.0
145.769272 164.0
146.059677 872.0
146.095978 344.0
146.216568 124.0
147.043228 200.0
147.06012 168.0
147.09874 108.0
147.637527 132.0
148.075531 1408.0
148.754486 80.0
149.072327 176.0
149.223358 124.0
149.254974 204.0
149.481186 108.0
150.534271 116.0
151.524872 208.0
152.454834 180.0
152.604782 132.0
154.600342 244.0
155.068405 184.0
156.076706 168.0
157.179749 208.0
157.356964 180.0
158.060944 336.0
158.938812 220.0
159.066818 192.0
159.179794 120.0
159.868576 148.0
160.075012 1636.0
160.19841 60.0
160.246277 48.0
160.268951 40.0
160.296661 60.0
160.93988 68.0
161.081207 292.0
162.057831 148.0
162.093842 172.0
163.194916 152.0
163.505264 144.0
164.713806 112.0
165.370926 80.0
165.549332 44.0
166.157608 120.0
166.27565 60.0
166.881882 256.0
166.925598 140.0
167.435486 148.0
168.689102 164.0
169.916626 156.0
171.852341 84.0
172.076614 292.0
172.677811 72.0
173.070755 252.0
173.088364 340.0
174.091675 1744.0
174.329437 140.0
175.094543 96.0
176.768692 132.0
178.126129 112.0
178.945221 84.0
180.808426 136.0
180.963379 1824.0
181.06543 196.0
181.327988 144.0
181.499557 184.0
181.625595 188.0
181.966217 208.0
182.020111 52.0
182.046967 40.0
182.670517 168.0
182.964233 1636.0
183.963989 256.0
184.142212 40.0
185.007477 216.0
185.885635 196.0
186.053909 120.0
187.090149 364.0
187.12236 212.0
188.090118 120.0
188.218445 192.0
188.333145 204.0
188.644638 124.0
189.104843 284.0
189.399887 184.0
189.835648 148.0
190.030396 136.0
190.10997 176.0
190.969879 100.0
191.02681 248.0
191.068909 132.0
191.118439 5020.0
191.203751 44.0
191.318436 156.0
191.344131 68.0
191.594742 52.0
191.627808 36.0
191.859314 64.0
192.035782 48.0
192.121552 908.0
193.337662 152.0
193.910324 88.0
194.126556 116.0
194.584396 120.0
194.62326 56.0
195.229034 40.0
195.56601 160.0
196.803421 100.0
197.384613 136.0
199.082764 156.0
199.329971 160.0
200.213272 196.0
200.788193 168.0
201.751053 152.0
202.311188 140.0
203.124481 44.0
204.049042 160.0
204.519638 108.0
205.351608 104.0
206.740082 112.0
207.998291 112.0
208.916351 188.0
208.960648 3904.0
209.096237 84.0
209.271835 48.0
209.959564 132.0
210.260559 64.0
210.609924 204.0
210.835266 116.0
210.958084 2920.0
211.080994 188.0
211.19957 52.0
211.231384 108.0
211.598907 112.0
211.957169 312.0
212.19574 104.0
212.474152 28.0
212.7034 44.0
213.342484 80.0
213.362839 96.0
213.406448 196.0
215.811874 52.0
216.115845 496.0
216.637192 128.0
216.865158 196.0
217.098206 336.0
217.16481 64.0
217.578568 48.0
217.622604 72.0
217.789993 84.0
217.866364 152.0
218.183762 236.0
218.872223 116.0
219.606033 120.0
219.762375 184.0
221.083221 232.0
222.826736 140.0
226.936569 120.0
227.443558 204.0
231.064316 124.0
232.790466 120.0
233.012207 44.0
233.074554 5744.0
233.18541 52.0
233.269806 52.0
233.3526 88.0
233.425735 76.0
233.857559 88.0
233.9702 32.0
234.078629 668.0
234.152893 68.0
234.232086 144.0
234.454498 120.0
234.573364 44.0
234.731903 56.0
234.902695 132.0
235.076401 464.0
235.10791 292.0
235.618286 128.0
235.711761 80.0
235.748428 148.0
235.873734 80.0
239.451355 92.0
243.509125 44.0
243.745224 52.0
248.437881 48.0
249.920792 168.0
250.101425 1912.0
250.443375 68.0
251.106796 268.0
251.234589 32.0
251.501587 52.0
251.774323 32.0
251.945786 84.0
252.095276 120.0
252.697327 40.0
252.906189 160.0
253.004318 52.0
257.420685 92.0
261.24118 76.0
273.101624 92.0
275.352722 172.0
276.084106 780.0
277.084534 116.0
278.748322 68.0
281.847229 76.0
282.877319 160.0
292.474182 76.0
316.856689 128.0
331.008911 148.0
342.09375 56.0
350.896149 132.0
357.812256 124.0
358.897339 132.0
359.78775 160.0
363.072083 108.0
369.318207 140.0
383.029083 116.0
385.451813 156.0
396.843109 128.0
427.062378 96.0
441.775848 84.0
445.292572 132.0
455.15152 152.0
456.015686 192.0
458.058167 116.0
458.134705 40.0
458.190094 160.0
459.046814 404.0
459.20459 148.0
460.048065 108.0
461.938263 72.0
478.702087 60.0
532.070984 80.0
538.102051 36.0
545.007812 108.0
559.012573 100.0
621.830566 68.0
631.531189 44.0
669.435547 168.0
678.332397 28.0
686.672424 68.0
694.895508 88.0
981.324341 192.0
1142.251221 112.0
1189.190674 104.0
1223.003052 100.0
1240.234253 52.0
1255.998413 212.0
1261.605103 180.0
1287.296875 204.0
1306.361572 140.0
1351.078613 96.0
1358.528809 100.0
1363.337891 232.0
1368.074585 120.0
1386.273315 132.0
1402.519409 56.0
1410.072632 144.0
1419.4375 164.0
1447.407959 148.0
1449.983521 204.0
1463.025146 140.0
1472.296753 72.0
1477.371948 108.0
1481.344849 124.0
