>compound MLS002153308-01!Tetraisopropyl pyrophosphoramide513-00-8
>formula C12H32N4O3P2
>ionization [M+H]+
>parentmass 343.2022405960905
#inchi InChI=1S/C12H32N4O3P2/c1-9(2)13-20(17,14-10(3)4)19-21(18,15-11(5)6)16-12(7)8/h9-12H,1-8H3,(H2,13,14,17)(H2,15,16,18)
#inchikey IOIMDJXKIMCMIG
#Ion_Source LC-ESI
#Instrument qTof
#Compound_Source NIH Pharmacologically Active Library
#PI Dorrestein
#Data_Collector VP/LMS
#Scan -1
#Precursor_MZ 343.208
#ExactMass 342.195
#Charge 1
#CAS_Number N/A
#Pubmed_ID N/A
#Smiles CC(C)NP(=O)(NC(C)C)OP(=O)(NC(C)C)NC(C)C
#INCHI_AUX N/A
#Library_Class 1
#SpectrumID CCMSLIB00000086161
#IonMode Positive
#UpdateWorkflowName UPDATE-SINGLE-ANNOTATED-GOLD
#LibraryQualityString Gold
#TaskID d252d724072548979f1f6f1ced849daf
##Scan# 1695
#SpectrumFile p5-G04_GG4_01_18473.mzXML
#LibraryName Pharm_Active_Library.mgf
#MQScore -1
#Organism Pharm_Active_Library
#TIC_Query 0
#RT_Query -1
#MZErrorPPM -1
#SharedPeaks 0
#MassDiff 0
#LibMZ -1
#SpecMZ 343.208
#SpecCharge 0
#internalFilename spec-00000.mgf

>collision 10
45.096325 76.0
45.546528 132.0
45.597588 120.0
45.887001 156.0
45.965229 168.0
46.028675 168.0
46.231701 168.0
46.535076 156.0
46.544582 68.0
46.559521 108.0
46.792042 192.0
47.063366 68.0
47.242401 52.0
47.347797 128.0
47.402596 92.0
47.439602 128.0
47.451939 188.0
47.558941 184.0
47.762299 148.0
47.868271 176.0
47.933014 196.0
47.988148 160.0
48.050213 140.0
48.409592 236.0
48.445602 164.0
49.14492 112.0
49.175621 40.0
49.375412 136.0
49.441166 208.0
49.864712 176.0
50.043362 104.0
50.225155 232.0
50.250549 156.0
50.331001 128.0
50.419998 196.0
50.432716 168.0
50.463818 200.0
50.659122 164.0
50.793789 176.0
51.015316 208.0
51.042328 144.0
51.079308 208.0
51.294327 140.0
51.495514 152.0
51.67849 96.0
51.765808 176.0
51.825966 180.0
51.901936 224.0
51.930618 84.0
52.148857 148.0
52.173294 116.0
52.273975 176.0
52.35891 168.0
52.455448 68.0
52.475632 152.0
52.54023 172.0
53.090176 152.0
53.10178 28.0
53.30357 116.0
53.390793 144.0
53.540691 176.0
53.610729 160.0
53.664551 136.0
53.70462 136.0
53.845497 72.0
53.860104 96.0
53.890785 100.0
54.006271 152.0
54.042843 192.0
54.372555 144.0
54.638519 220.0
54.807835 180.0
55.156128 144.0
55.354378 224.0
55.544083 164.0
55.621243 80.0
55.631634 156.0
55.704399 164.0
55.720741 108.0
55.832222 236.0
56.007847 152.0
56.162865 180.0
56.551346 88.0
56.699615 160.0
56.936657 152.0
57.211823 184.0
57.329308 168.0
57.357941 72.0
57.45747 124.0
57.680973 124.0
57.777756 192.0
57.870075 224.0
57.906422 88.0
58.037636 188.0
58.070107 136.0
58.103481 108.0
58.234024 108.0
58.297832 120.0
58.37384 60.0
58.433163 176.0
58.455986 208.0
58.547325 192.0
58.580833 176.0
58.804981 108.0
59.029552 140.0
59.295929 172.0
59.341915 280.0
59.492268 212.0
59.561367 184.0
59.573658 152.0
59.65818 236.0
60.253048 112.0
60.271587 48.0
60.498943 164.0
60.534554 140.0
60.577923 128.0
60.886585 204.0
61.146217 224.0
61.255211 92.0
61.300392 172.0
61.428242 156.0
61.44228 124.0
61.829796 228.0
62.342617 124.0
62.411781 156.0
62.525043 216.0
62.550228 144.0
62.561245 132.0
62.829155 104.0
63.308083 52.0
63.698254 152.0
63.776112 160.0
63.966991 184.0
64.021126 56.0
64.284157 156.0
64.459816 184.0
64.471001 160.0
64.570122 164.0
64.643707 176.0
64.661316 168.0
64.763283 192.0
64.936882 128.0
65.050812 220.0
65.143951 164.0
65.253227 208.0
65.301476 232.0
65.319168 140.0
65.389961 48.0
65.46241 116.0
65.526833 180.0
66.138878 208.0
66.261948 212.0
66.299217 188.0
66.46138 212.0
66.732628 172.0
67.164177 204.0
67.356789 148.0
67.454834 192.0
67.469551 152.0
67.495712 152.0
67.751038 128.0
67.898247 192.0
68.01181 156.0
68.238464 132.0
68.37664 184.0
68.599007 84.0
68.717743 80.0
68.853104 148.0
69.130836 144.0
69.142426 216.0
69.346138 196.0
69.483772 184.0
69.629845 216.0
69.673035 136.0
69.761108 228.0
69.962402 224.0
70.703506 256.0
70.730286 176.0
70.755402 108.0
70.849182 136.0
71.033585 48.0
71.201431 148.0
71.221588 232.0
71.248466 248.0
71.658974 172.0
71.99971 220.0
72.107841 156.0
72.244804 188.0
72.402214 132.0
72.468277 148.0
72.571671 124.0
72.917969 344.0
72.982567 132.0
73.110146 108.0
73.178238 144.0
73.2174 128.0
73.348595 180.0
73.408264 144.0
73.57206 112.0
73.946411 104.0
74.006325 216.0
74.22908 124.0
74.378342 156.0
74.70311 236.0
74.938972 144.0
74.951035 192.0
75.051003 156.0
75.235428 224.0
75.430275 192.0
75.83239 140.0
75.89653 140.0
76.050926 120.0
76.175949 56.0
76.318459 220.0
76.448921 76.0
76.598656 192.0
76.902046 172.0
77.325012 180.0
77.361771 192.0
77.438812 128.0
77.685966 132.0
77.821106 216.0
77.859734 112.0
77.900131 224.0
77.944054 216.0
78.112839 160.0
78.278275 120.0
78.378815 104.0
78.879906 132.0
79.001923 180.0
79.318901 156.0
79.34726 144.0
79.595665 104.0
79.668488 136.0
79.801773 128.0
80.164894 220.0
80.480629 72.0
80.543129 168.0
80.598511 104.0
80.981346 180.0
81.067345 240.0
81.194626 228.0
81.426147 40.0
81.55191 208.0
81.737389 180.0
81.751541 124.0
81.809143 204.0
81.872162 96.0
81.971237 132.0
82.032516 176.0
82.661041 152.0
83.097717 112.0
83.208427 192.0
83.22477 172.0
83.244743 132.0
83.322845 132.0
83.535545 208.0
83.606506 136.0
83.925285 148.0
83.958115 168.0
84.147881 148.0
84.500626 160.0
84.780777 192.0
85.583519 124.0
85.719833 164.0
85.745628 168.0
85.848869 148.0
85.965088 136.0
86.025993 128.0
86.508484 140.0
86.777115 168.0
86.836449 148.0
86.975609 40.0
87.525902 116.0
87.553139 352.0
87.619034 116.0
87.717804 224.0
87.865128 188.0
87.993904 172.0
88.16201 56.0
88.277916 272.0
88.309708 120.0
88.69355 152.0
88.89817 196.0
89.377151 180.0
90.235344 152.0
90.398445 176.0
90.490761 200.0
90.740852 232.0
90.953316 192.0
91.027359 192.0
91.091934 160.0
91.418961 160.0
91.546509 180.0
91.677948 184.0
91.771355 184.0
92.019386 124.0
92.363373 112.0
92.443726 96.0
92.813431 204.0
92.909325 168.0
93.076309 192.0
93.36071 108.0
93.453041 128.0
93.788124 184.0
93.932747 204.0
94.324738 144.0
94.346001 124.0
94.405945 68.0
94.552971 184.0
94.794777 204.0
95.062653 196.0
95.099525 172.0
95.587326 172.0
96.004196 92.0
96.138809 200.0
96.259834 176.0
96.308662 56.0
96.77018 188.0
96.80542 384.0
97.016464 2856.0
97.044785 152.0
97.091537 232.0
97.179115 80.0
97.266159 84.0
98.171196 32.0
98.242203 116.0
98.471176 116.0
98.777542 148.0
98.834915 148.0
98.979416 312.0
99.024963 208.0
99.199333 152.0
99.240967 216.0
99.274673 132.0
99.592216 132.0
99.830711 52.0
100.110733 224.0
100.163086 156.0
100.232819 88.0
100.611778 148.0
100.909454 160.0
101.083473 56.0
101.153526 256.0
101.311722 140.0
101.492104 136.0
101.532211 168.0
101.60643 36.0
102.088493 224.0
102.148834 140.0
102.791534 172.0
103.088379 76.0
103.197533 164.0
103.284492 220.0
103.328995 148.0
103.436249 104.0
103.471581 156.0
103.659035 148.0
103.786736 128.0
103.951042 180.0
104.024902 960.0
104.113449 148.0
104.172348 188.0
104.208916 224.0
104.302399 176.0
104.332893 132.0
104.471176 52.0
104.59124 188.0
104.913094 144.0
105.033409 164.0
105.049721 56.0
105.153786 144.0
105.742401 228.0
105.830429 92.0
105.969704 104.0
106.031181 140.0
106.168541 200.0
106.191093 128.0
106.271103 176.0
106.394241 176.0
106.547501 160.0
106.663353 180.0
106.782608 164.0
106.799057 172.0
106.827858 136.0
106.895752 100.0
106.947205 192.0
107.13871 136.0
107.268539 240.0
107.499535 160.0
107.681213 216.0
107.710129 88.0
107.770035 132.0
107.854767 208.0
108.46125 188.0
108.604317 72.0
108.886177 260.0
108.968941 180.0
109.113083 164.0
109.179626 72.0
109.523041 232.0
109.781471 152.0
109.948364 120.0
110.441444 172.0
110.497925 188.0
110.57901 160.0
111.44561 136.0
111.510757 160.0
111.586533 160.0
111.731544 172.0
111.817818 164.0
111.883072 208.0
112.003105 160.0
113.103218 120.0
113.226013 164.0
113.365837 164.0
113.649979 92.0
113.798553 136.0
113.858009 216.0
113.92598 172.0
113.941444 172.0
114.191689 144.0
114.244865 136.0
114.431526 192.0
114.504547 224.0
114.973572 64.0
115.063225 200.0
115.142235 132.0
115.157181 196.0
115.580467 84.0
115.92308 140.0
115.978806 112.0
116.051033 664.0
116.148193 84.0
116.274788 124.0
116.480911 224.0
116.498093 212.0
116.697968 180.0
116.715164 44.0
117.691254 156.0
117.920235 140.0
117.97644 172.0
118.15377 112.0
118.589027 176.0
118.671402 168.0
118.999023 184.0
119.037209 320.0
119.064163 36.0
119.377106 104.0
119.464104 124.0
119.564194 152.0
119.768852 204.0
120.097984 124.0
120.113251 116.0
120.272537 184.0
120.387039 156.0
120.514946 164.0
120.851273 180.0
120.932632 156.0
120.972992 140.0
121.013634 256.0
121.053169 33712.0
121.105606 36.0
121.140015 88.0
121.16256 132.0
121.181435 32.0
121.208572 68.0
121.265091 76.0
121.318748 88.0
121.377357 80.0
121.407181 40.0
121.47522 92.0
121.502373 48.0
121.54187 36.0
121.581367 60.0
121.614288 112.0
121.691124 72.0
121.717468 96.0
121.746017 48.0
121.808769 84.0
121.840919 156.0
121.890221 112.0
121.967926 84.0
122.053391 824.0
122.110046 100.0
122.225235 64.0
122.328674 140.0
122.42115 52.0
122.451981 44.0
122.491623 132.0
122.601318 168.0
122.625259 148.0
122.652481 64.0
122.941406 252.0
122.956856 132.0
123.051773 140.0
123.106979 228.0
123.18428 132.0
123.305809 184.0
123.641968 108.0
124.029572 164.0
124.233582 52.0
124.320114 172.0
124.432114 200.0
124.606552 152.0
124.624321 120.0
124.899994 136.0
124.937805 44.0
125.104713 48.0
125.155922 100.0
125.329659 124.0
125.345253 184.0
125.445549 164.0
125.650719 176.0
125.999001 144.0
126.144257 164.0
126.381325 56.0
126.396988 180.0
126.939072 84.0
127.093849 192.0
127.158928 144.0
127.291374 56.0
127.354263 176.0
127.428391 144.0
127.511536 112.0
127.75663 240.0
128.062759 188.0
128.202438 172.0
128.243011 92.0
128.4888 136.0
128.71225 176.0
128.987885 108.0
129.030838 248.0
129.096405 180.0
129.141632 84.0
129.227219 288.0
129.460754 72.0
129.916336 128.0
130.054749 104.0
130.11377 148.0
130.315903 56.0
130.54776 180.0
131.126022 120.0
131.399658 192.0
131.488647 136.0
131.682709 84.0
132.002655 44.0
132.075836 224.0
132.194809 156.0
132.939575 164.0
133.240372 220.0
133.27713 144.0
133.3116 176.0
133.371353 140.0
133.481705 224.0
133.799225 132.0
134.548492 96.0
134.79332 152.0
134.945877 44.0
135.040695 164.0
135.807343 200.0
136.034729 152.0
136.081161 196.0
136.132248 32.0
136.153152 192.0
136.43663 188.0
136.867065 124.0
136.904312 180.0
136.929276 144.0
136.997482 132.0
137.048233 2224.0
137.755646 56.0
137.935577 192.0
138.040787 176.0
138.076859 292.0
138.647095 152.0
138.675232 232.0
138.874527 140.0
138.89328 56.0
139.003555 176.0
139.062927 7308.0
139.165512 68.0
139.511459 64.0
139.977219 400.0
140.028534 220.0
140.067566 544.0
140.134537 56.0
140.495255 196.0
140.53064 80.0
140.960312 128.0
141.07692 144.0
141.13768 120.0
141.180237 96.0
141.215454 144.0
141.281952 92.0
141.862137 168.0
141.971207 172.0
142.277298 76.0
142.453033 172.0
142.505295 204.0
142.58847 132.0
142.704941 216.0
142.938049 64.0
142.9785 296.0
143.097519 160.0
143.22612 112.0
143.452484 152.0
143.56694 244.0
143.853256 212.0
143.879517 100.0
144.042419 196.0
144.072952 156.0
144.230667 168.0
144.599014 132.0
145.049301 216.0
145.317902 52.0
145.901505 148.0
146.054306 156.0
146.074661 164.0
146.120361 128.0
146.158859 140.0
146.483887 140.0
146.630859 164.0
147.560211 84.0
147.775467 188.0
147.894043 100.0
148.24765 224.0
148.490082 148.0
148.64534 164.0
148.841949 224.0
148.875946 180.0
148.912384 40.0
149.104309 124.0
149.267197 136.0
149.634598 216.0
149.814819 204.0
150.656464 212.0
151.324127 52.0
151.544556 196.0
151.961365 200.0
152.039886 56.0
152.227829 208.0
152.769638 176.0
153.047745 188.0
153.252182 184.0
153.804596 132.0
153.92804 160.0
154.380264 172.0
154.503937 172.0
154.644974 188.0
154.828186 188.0
155.435532 200.0
155.760773 164.0
155.969498 112.0
156.17836 40.0
156.99028 68.0
157.377045 132.0
157.469452 184.0
157.524399 104.0
157.709305 156.0
157.781799 76.0
157.809296 176.0
157.891815 176.0
157.956345 160.0
157.988266 26876.0
158.042938 240.0
158.063141 132.0
158.095535 84.0
158.116974 60.0
158.144516 80.0
158.168854 44.0
158.307495 40.0
158.38739 76.0
158.464569 84.0
158.52681 68.0
158.680588 52.0
158.921371 36.0
158.948975 76.0
158.987503 524.0
159.087006 56.0
159.167358 56.0
159.456253 136.0
159.488922 28.0
159.662399 88.0
159.700134 148.0
159.763016 96.0
159.969376 60.0
159.994553 92.0
160.040344 136.0
160.051498 84.0
160.107849 88.0
160.163269 88.0
160.304352 48.0
160.879425 192.0
160.967789 128.0
161.016907 176.0
161.083084 608.0
161.222931 152.0
161.57692 104.0
161.71611 192.0
162.08078 44.0
162.126389 28.0
162.202423 56.0
162.324127 36.0
162.369766 108.0
162.646332 100.0
162.68187 84.0
162.702179 124.0
162.722488 200.0
162.742798 92.0
162.808823 124.0
163.027298 108.0
163.067276 196.0
163.099823 36272.0
163.137497 56.0
163.14592 172.0
163.167099 216.0
163.201187 88.0
163.240829 68.0
163.265717 56.0
163.366776 132.0
163.422745 108.0
163.45578 104.0
163.491898 52.0
163.519394 40.0
163.546127 60.0
163.596039 184.0
163.933243 140.0
163.96637 88.0
163.998276 100.0
164.042831 36.0
164.101669 2060.0
164.140152 288.0
164.175415 64.0
164.244278 96.0
164.290207 64.0
164.439117 176.0
164.484146 76.0
164.53775 60.0
164.647552 48.0
164.703735 48.0
164.854477 160.0
164.892807 52.0
164.993744 156.0
165.104279 288.0
165.212433 80.0
165.339462 192.0
165.363403 128.0
165.404358 116.0
165.422272 116.0
165.444366 108.0
165.524475 188.0
165.691177 172.0
165.857742 88.0
165.896194 96.0
166.1259 156.0
166.517151 84.0
166.594208 116.0
166.617325 72.0
167.072372 188.0
167.358047 116.0
167.997208 140.0
168.624664 176.0
169.131607 120.0
169.463089 60.0
170.168564 176.0
170.534836 68.0
171.056427 380.0
171.099319 40.0
172.037064 344.0
172.34079 188.0
172.408737 44.0
172.918716 108.0
173.759872 116.0
174.437408 76.0
175.010941 204.0
175.066238 68.0
175.588043 180.0
175.999161 716.0
176.321991 76.0
177.081314 232.0
177.205811 152.0
177.351562 116.0
178.19278 216.0
178.243271 44.0
178.317673 64.0
179.094513 3992.0
179.147873 128.0
179.900848 56.0
180.097488 136.0
180.127884 348.0
180.244431 148.0
180.32193 68.0
180.51976 92.0
181.07373 40.0
181.11055 3028.0
181.231781 60.0
181.313568 100.0
181.419388 36.0
181.599045 100.0
181.848557 44.0
182.071396 164.0
182.09819 280.0
182.107513 152.0
182.113251 124.0
182.154663 52.0
182.237946 92.0
182.30513 192.0
182.781082 40.0
183.007645 524.0
183.110825 164.0
183.562256 100.0
184.393753 112.0
184.593796 132.0
185.070038 220.0
185.500793 112.0
187.057327 72.0
187.454971 184.0
188.155945 188.0
188.751587 196.0
188.809006 44.0
188.992294 76.0
189.021286 268.0
189.062469 180.0
189.153763 112.0
189.249573 188.0
189.624878 216.0
190.049927 36.0
190.082855 80.0
190.992218 120.0
191.016891 136.0
191.286652 112.0
192.477676 196.0
193.005432 132.0
193.68071 80.0
194.956955 208.0
196.546997 144.0
196.611176 104.0
199.766144 108.0
199.960297 76.0
199.985626 124.0
200.035416 11120.0
200.08696 76.0
200.185516 64.0
200.261551 76.0
200.32634 60.0
200.388321 112.0
200.563034 100.0
200.66452 64.0
200.697662 64.0
200.771683 80.0
201.038177 392.0
201.14975 80.0
202.037094 132.0
202.059723 36.0
202.099335 172.0
202.119141 156.0
202.144608 28.0
202.277634 116.0
202.512985 100.0
202.543808 76.0
202.56929 120.0
202.628784 44.0
202.679794 120.0
203.028458 76.0
205.035583 112.0
206.869324 156.0
207.043503 176.0
208.136551 172.0
208.653717 40.0
209.032318 192.0
213.029129 136.0
213.252869 128.0
213.302292 48.0
213.415665 80.0
214.43454 156.0
214.976974 156.0
215.080399 1232.0
215.198822 140.0
216.082291 132.0
217.056839 176.0
217.955048 212.0
218.043823 676.0
218.76973 104.0
219.544647 116.0
221.027557 136.0
222.156082 124.0
222.178146 284.0
222.839203 200.0
223.065063 124.0
223.466537 68.0
224.175217 96.0
225.05545 1268.0
225.978745 140.0
226.056549 148.0
227.115311 220.0
227.716568 72.0
228.050919 180.0
228.099976 160.0
229.098068 152.0
229.122177 148.0
229.25174 104.0
229.381332 36.0
238.950317 60.0
239.544479 52.0
239.587601 196.0
239.895782 164.0
240.000595 132.0
240.750443 112.0
241.306641 100.0
241.563324 216.0
241.73349 56.0
241.959442 60.0
242.081329 4736.0
242.151428 60.0
242.200989 72.0
242.411667 40.0
242.532532 68.0
242.582123 56.0
242.696838 68.0
242.920135 128.0
243.086136 468.0
243.143539 112.0
243.165253 76.0
243.342194 128.0
243.453979 40.0
244.091019 184.0
244.847229 92.0
246.088303 68.0
248.768204 100.0
251.374237 76.0
252.312332 84.0
252.568466 76.0
253.134979 40.0
254.885971 40.0
260.088226 196.0
267.562531 136.0
269.441071 116.0
271.142242 1088.0
271.191742 272.0
272.146301 296.0
272.287598 100.0
272.504395 80.0
273.059937 64.0
273.306641 136.0
277.150055 72.0
280.246796 140.0
281.868408 72.0
282.199341 72.0
282.91864 84.0
283.67572 160.0
283.923859 32.0
283.964081 40.0
284.071442 48.0
284.126801 4192.0
284.326447 64.0
284.368134 76.0
284.658783 84.0
284.722595 64.0
284.766235 76.0
284.937561 60.0
285.130768 412.0
285.461914 96.0
285.801636 36.0
286.006927 112.0
286.064148 104.0
286.165161 84.0
286.454132 84.0
287.081696 68.0
287.143646 192.0
287.537109 64.0
288.743225 92.0
299.081696 48.0
314.668976 64.0
329.733612 92.0
330.500244 72.0
331.644623 68.0
343.211914 72.0
345.183716 192.0
349.553467 68.0
352.895569 84.0
363.817871 192.0
397.440643 120.0
398.480896 40.0
399.482727 40.0
400.708893 56.0
402.995056 108.0
403.970551 52.0
418.170319 92.0
433.012878 88.0
445.148865 28.0
448.759094 144.0
463.187439 96.0
467.71756 92.0
469.475372 68.0
493.095734 72.0
529.750549 72.0
536.045044 52.0
595.922119 60.0
613.59082 124.0
615.031311 48.0
625.465271 116.0
625.59967 32.0
665.380859 156.0
685.03302 68.0
722.314636 32.0
803.261658 120.0
809.053955 140.0
810.571838 36.0
818.313721 108.0
818.56427 172.0
847.028809 148.0
860.89447 216.0
861.057983 56.0
862.080383 204.0
874.755005 204.0
882.938721 124.0
887.652588 148.0
893.1521 112.0
898.835632 188.0
915.590881 184.0
917.416565 68.0
922.735291 44.0
935.603088 168.0
937.710693 208.0
940.60791 232.0
950.927612 188.0
954.865845 212.0
969.912781 164.0
984.521423 172.0
985.170959 156.0
998.591309 180.0
1012.336731 232.0
1020.935608 132.0
1024.92688 148.0
1029.666626 172.0
1034.609375 160.0
1035.550659 48.0
1037.53064 180.0
1039.929688 140.0
1046.808594 152.0
1049.779419 204.0
1057.59021 132.0
1066.249023 148.0
1069.468262 176.0
1072.594727 248.0
1081.366821 196.0
1087.166748 168.0
1092.455933 160.0
1092.600708 212.0
1093.71936 160.0
1095.233887 108.0
1097.52063 104.0
1097.606323 184.0
1104.10437 88.0
1111.291504 180.0
1112.094482 176.0
1112.565796 196.0
1118.408813 156.0
1118.814941 164.0
1119.361816 60.0
1120.053467 108.0
1122.106079 196.0
1126.310181 120.0
1131.104614 76.0
1131.974976 184.0
1137.519531 44.0
1148.33252 72.0
1149.155518 152.0
1151.950439 184.0
1153.220703 188.0
1153.720947 124.0
1156.501099 136.0
1156.616211 192.0
1164.705566 136.0
1165.425659 152.0
1165.615845 132.0
1166.145996 80.0
1170.649658 232.0
1172.175537 112.0
1173.702393 184.0
1178.630615 148.0
1182.87085 40.0
1185.960083 108.0
1189.499512 124.0
1191.154419 108.0
1193.532349 152.0
1196.683594 132.0
1201.149292 144.0
1203.171265 208.0
1207.157959 160.0
1210.866211 132.0
1220.76355 176.0
1226.56311 136.0
1227.044189 44.0
1231.063232 124.0
1231.733765 248.0
1237.370239 60.0
1237.454224 132.0
1238.014404 184.0
1238.896973 168.0
1244.079346 228.0
1244.535645 112.0
1246.586792 228.0
1249.455566 204.0
1251.559937 64.0
1257.37561 132.0
1259.65625 116.0
1260.122559 164.0
1261.041138 192.0
1263.685913 72.0
1267.197632 200.0
1267.353516 148.0
1273.579956 220.0
1273.788208 68.0
1274.55542 200.0
1278.964722 152.0
1282.625854 152.0
1284.372803 100.0
1290.533325 176.0
1295.259155 156.0
1296.957397 140.0
1297.100708 52.0
1299.395508 152.0
1301.491333 144.0
1305.568726 288.0
1309.538452 232.0
1310.647827 164.0
1311.822632 180.0
1318.875 188.0
1320.169067 136.0
1321.825684 196.0
1324.97522 256.0
1327.012451 200.0
1331.496216 148.0
1331.743164 220.0
1332.694824 152.0
1334.112061 212.0
1335.602783 236.0
1336.257446 76.0
1337.37085 172.0
1338.455566 152.0
1338.819702 80.0
1341.296875 168.0
1343.739868 168.0
1343.842041 196.0
1348.281738 148.0
1348.954224 200.0
1350.116699 208.0
1350.182495 44.0
1350.438477 128.0
1352.560425 180.0
1354.390991 156.0
1355.328735 132.0
1358.466553 152.0
1360.271729 264.0
1362.798096 156.0
1363.665283 164.0
1364.782593 120.0
1367.180664 128.0
1369.993286 164.0
1370.332275 148.0
1370.980713 168.0
1374.431763 148.0
1374.992065 156.0
1375.302612 192.0
1377.894531 128.0
1380.097046 120.0
1383.648438 216.0
1384.270386 204.0
1386.389038 140.0
1387.849243 112.0
1388.249756 132.0
1390.876099 152.0
1392.138306 220.0
1392.828979 144.0
1393.274658 180.0
1394.136597 64.0
1394.537964 196.0
1395.340698 168.0
1396.523071 120.0
1397.170288 112.0
1397.743164 68.0
1397.899414 168.0
1398.747925 176.0
1399.172241 188.0
1403.269897 168.0
1404.179565 132.0
1405.791016 168.0
1407.059937 176.0
1407.313721 64.0
1409.435059 208.0
1411.116699 140.0
1411.505615 116.0
1411.714966 248.0
1412.956543 180.0
1414.288574 80.0
1414.370972 152.0
1415.231812 156.0
1417.34668 204.0
1417.546387 144.0
1417.947632 164.0
1418.355835 152.0
1420.485352 112.0
1422.211182 200.0
1424.907104 172.0
1426.507812 124.0
1426.560425 140.0
1429.102417 180.0
1430.095825 196.0
1430.841064 164.0
1431.63916 88.0
1434.683228 180.0
1436.108398 160.0
1437.707764 172.0
1438.276611 144.0
1439.02124 212.0
1439.187256 196.0
1439.844238 136.0
1441.143555 164.0
1441.627197 164.0
1442.980225 216.0
1443.47168 252.0
1443.660645 264.0
1443.925415 140.0
1444.106934 72.0
1445.514038 264.0
1446.868896 200.0
1448.663696 216.0
1449.383423 212.0
1449.875977 96.0
1450.300415 168.0
1450.573242 336.0
1451.073608 140.0
1452.453857 156.0
1453.386963 68.0
1453.834717 104.0
1455.155396 132.0
1456.743408 192.0
1457.289673 228.0
1461.555176 160.0
1461.821533 164.0
1462.026978 184.0
1463.084961 212.0
1467.8927 136.0
1468.022339 76.0
1469.425781 112.0
1469.540283 212.0
1472.395142 132.0
1473.044434 112.0
1473.158936 164.0
1473.563843 144.0
1476.39978 120.0
1477.539429 148.0
1478.457642 152.0
1478.572388 120.0
1478.855591 260.0
1479.567505 104.0
1480.494019 208.0
1482.27124 228.0
1484.141479 192.0
1484.257446 156.0
1484.394531 152.0
1485.176758 132.0
1487.793457 192.0
1487.893311 224.0
1491.811279 204.0
1492.164917 136.0
1492.741577 212.0
1495.441895 124.0
1495.641968 168.0
1500.672485 224.0
1501.150513 164.0
1501.405029 236.0
1502.430908 228.0
1502.832153 64.0
1504.522339 120.0
1504.676758 168.0
