>compound Phenazine-1-carboxylic acid
>formula C13H8N2O2 
>ionization [M+H]+
>parentmass 225.066
#inchi InChI=1S/C13H8N2O2/c16-13(17)8-4-3-7-11-12(8)15-10-6-2-1-5-9(10)14-11/h1-7H,(H,16,17)
#inchikey JGCSKOVQDXEQHI
#Ion_Source DI-ESI
#Instrument LTQ-FT-ICR
#Compound_Source Crude
#PI Dorrestein
#Data_Collector J Watrous
#Scan -1
#Precursor_MZ 225.066
#ExactMass 0.0
#Charge 1
#CAS_Number N/A
#Pubmed_ID N/A
#Smiles N/A
#INCHI_AUX N/A
#Library_Class 3
#SpectrumID CCMSLIB00000072150
#IonMode Positive
#UpdateWorkflowName UPDATE-SINGLE-ANNOTATED-BRONZE
#LibraryQualityString Bronze
#TaskID 3bbf0c46eeeb406782b2f3cd0ad9b2b3
##Scan# 1
#SpectrumFile Phenazine_1_carboxylic_acid_1H_LTQ_225_0655.mzXML
#LibraryName gnps_library.mgf
#MQScore -1
#Organism GNPS_JDW_Batch_Library_Centroid
#TIC_Query 0
#RT_Query -1
#MZErrorPPM -1
#SharedPeaks 0
#MassDiff 0
#LibMZ -1
#SpecMZ 225.066
#SpecCharge 0
#internalFilename spec-00000.mgf

>collision 10
56.818184 0.0
56.909092 0.0
57.0 0.0
57.090908 0.0
57.18182 0.0
57.272728 0.0
57.363636 0.0
57.454544 0.0
57.545456 0.0
57.636364 0.0
57.727272 0.0
57.818184 0.0
57.909092 0.0
58.0 0.0
58.090908 0.0
58.18182 0.0
58.272728 0.0
58.363636 0.0
58.454544 0.0
58.545456 0.0
58.636364 0.0
58.727272 0.0
58.818184 0.0
58.909092 0.0
59.0 0.0
59.090908 0.0
59.18182 0.0
59.272728 0.0
59.363636 0.0
59.454544 0.0
59.545456 0.0
59.636364 0.0
59.727272 0.0
59.818184 0.0
59.909092 0.0
60.0 0.0
60.090908 0.0
60.18182 0.0
60.272728 0.0
60.363636 0.0
60.454544 0.0
60.545456 0.0
60.636364 0.0
60.727272 0.0
60.818184 0.0
60.909092 0.0
61.0 0.0
61.090908 0.0
61.18182 0.0
61.272728 0.0
61.363636 0.0
61.454544 0.0
61.545456 0.0
61.636364 0.0
61.727272 0.0
61.818184 0.0
61.909092 0.0
62.0 0.0
62.090908 0.0
62.18182 0.0
62.272728 0.0
62.363636 0.0
62.454544 0.0
62.545456 0.0
62.636364 0.0
62.727272 0.0
62.818184 0.0
62.909092 0.0
63.0 0.0
63.090908 0.0
63.18182 0.0
63.272728 0.0
63.363636 0.0
63.454544 0.0
63.545456 0.0
63.636364 0.0
63.727272 0.0
63.818184 0.0
63.909092 0.0
64.0 0.0
64.090912 0.0
64.181816 0.0
64.272728 0.0
64.36364 0.0
64.454544 0.0
64.545456 0.0
64.636368 0.0
64.727272 0.0
64.818184 0.0
64.909088 0.0
65.0 0.0
65.090912 0.0
65.181816 0.0
65.272728 0.0
65.36364 0.0
65.454544 0.0
65.545456 0.0
65.636368 0.0
65.727272 0.0
65.818184 0.0
65.909088 0.0
66.0 0.0
66.090912 0.0
66.181816 0.0
66.272728 0.0
66.36364 0.0
66.727272 0.31544
67.181816 0.000604
67.545456 3.0e-06
68.0 0.0
68.36364 0.0
68.818184 0.450047
69.36364 0.000285
69.909088 0.284834
70.272728 0.000636
70.727272 2.0e-06
71.090912 0.0
71.636368 0.372842
72.0 0.003369
72.36364 6.0e-06
72.818184 0.54798
73.272728 0.003093
73.636368 9.0e-06
74.0 0.0
74.36364 0.0
74.818184 0.0
75.181816 0.0
75.545456 0.0
75.909088 0.0
76.272728 0.0
76.636368 0.0
77.090912 0.0
77.454544 0.0
77.818184 0.0
78.181816 0.0
78.545456 0.0
78.818184 0.0
78.909088 0.0
79.0 0.0
79.090912 0.0
79.181816 0.0
79.272728 0.0
79.36364 0.0
79.454544 0.0
79.545456 0.0
79.636368 0.0
79.727272 0.0
79.818184 0.0
79.909088 0.0
80.0 0.0
80.090912 0.0
80.181816 0.0
80.272728 0.0
80.36364 0.0
80.454544 0.0
80.545456 0.0
80.636368 0.0
80.727272 0.0
80.818184 0.0
80.909088 0.0
81.0 0.0
81.090912 0.0
81.181816 0.0
81.272728 0.0
81.36364 0.0
81.454544 0.0
81.545456 0.0
81.636368 0.0
81.727272 0.0
82.090912 0.199647
82.454544 0.000733
82.727272 0.0
82.909088 2.0e-06
83.272728 0.159394
83.636368 2.265882
84.0 1.173182
84.909088 1.894491
85.36364 0.004217
86.0 0.5672
86.636368 0.548401
87.0 0.003368
87.181816 0.0061
87.545456 1.7e-05
87.909096 0.0
88.272728 0.0
88.545456 0.0
88.727272 0.0
89.090912 0.0
89.454544 0.0
89.818184 0.0
90.181816 0.0
90.727272 0.359207
91.272728 0.000326
91.636368 1.0e-06
92.0 0.0
92.727272 0.78945
93.181816 0.000798
93.545456 3.0e-06
93.909096 0.0
94.272728 0.0
94.454544 0.0
94.818184 0.928384
95.36364 0.004697
95.727272 1.5e-05
96.090912 0.0
96.454544 0.0
96.909096 0.220572
97.636368 0.21676
98.0 0.000641
98.36364 0.623571
98.818184 0.000849
99.181816 3.0e-06
99.545456 0.0
99.909096 0.0
100.272728 0.0
100.909096 0.888473
101.36364 0.001614
101.727272 5.0e-06
102.090912 0.0
102.454544 0.0
102.818184 0.0
103.272728 0.0
103.636368 0.0
104.0 0.11939
104.818184 5.347057
105.818184 0.374708
106.090912 0.748505
106.545456 0.001153
106.909096 3.0e-06
107.272728 0.0
107.636368 0.0
108.090912 0.0
108.454544 0.0
108.818184 0.0
109.181824 0.0
109.727272 0.519853
110.181824 0.001377
110.909096 2.588037
111.36364 0.006774
112.0 0.291296
112.454544 0.002406
112.909096 0.163316
113.36364 0.000365
113.909096 0.683388
114.272728 0.005506
114.727272 9.0e-06
115.090912 0.0
115.454544 0.0
115.818184 0.0
116.181824 0.0
116.636368 0.0
117.0 0.0
117.181824 0.0
117.36364 0.0
117.727272 0.0
118.090912 0.0
118.454544 0.0
118.727272 0.0
118.909096 0.0
119.181824 0.0
119.454544 0.406805
119.909096 15.910844
120.818184 1.803346
121.181824 0.567826
122.090912 1.308172
123.0 1.115281
123.909096 0.594132
124.36364 0.000752
125.0 2.005526
125.454544 0.007165
125.818184 0.884044
126.454544 0.002488
126.909096 0.80434
127.454544 0.003904
127.818184 1.3e-05
128.181824 0.0
128.545456 0.0
129.0 3.014157
129.909088 2.664278
130.72728 1.126595
131.181824 0.0
131.363632 0.000237
131.72728 1.0e-06
132.090912 0.0
132.545456 0.637091
132.909088 0.535455
133.545456 0.000299
133.909088 1.0e-06
134.181824 0.0
134.363632 0.0
134.72728 0.0
135.090912 0.693943
135.545456 0.009479
136.090912 0.890041
136.72728 0.827661
137.090912 0.013102
137.454544 3.7e-05
137.818192 0.0
138.090912 1.123758
138.545456 0.003106
138.909088 9.0e-06
139.272736 0.189689
139.818192 3.17438
140.454544 0.002716
141.0 3.072134
141.363632 0.006846
141.818192 1.9e-05
142.181824 0.0
142.545456 0.0
143.090912 0.443022
143.545456 0.000698
143.909088 3.0e-06
144.181824 0.069418
144.545456 0.00075
144.909088 3.0e-06
145.272736 0.0
146.181824 1.592484
146.545456 0.00667
147.0 0.843015
147.454544 0.002773
147.818192 7.0e-06
148.181824 0.0
148.454544 0.0
148.636368 0.0
149.0 0.0
149.363632 0.0
149.72728 0.0
150.181824 0.0
150.545456 0.0
151.090912 0.348583
151.454544 0.000687
152.0 0.384512
152.181824 0.419725
152.818192 0.569263
153.818192 1.970845
154.454544 0.000627
154.818192 0.645141
155.363632 2.245693
156.0 1.820338
156.72728 0.000939
157.090912 2.0e-06
157.818192 2.733358
158.454544 1.071146
159.0 19.538801
160.0 30.024714
160.545456 0.066672
161.090912 0.451056
161.454544 0.003251
161.909088 6.0e-06
162.272736 0.0
162.72728 0.882836
163.181824 1.09667
163.636368 0.611916
164.0 0.845397
164.363632 0.140035
165.090912 4.211311
165.545456 0.983334
166.0 2.302664
166.454544 0.012462
166.909088 2.7e-05
167.272736 0.0
167.818192 0.466186
168.272736 0.002317
168.72728 2.33162
169.0 5.106164
169.454544 0.014377
169.818192 2.4e-05
170.272736 2.821522
170.818192 0.589441
171.090912 0.136675
172.0 21.720692
172.909088 0.001302
173.363647 2.0e-06
173.72728 0.0
174.090912 0.0
174.454544 0.0
175.0 0.35464
175.454544 0.745868
175.909088 0.001507
176.272736 4.0e-06
176.636368 0.0
176.909088 0.881429
178.0 31.931417
179.0 5.240404
179.454544 0.147056
180.090912 2.89795
181.0 2.975899
182.0 15.885349
183.0 19.856119
184.0 50.991901
185.0 7.950841
185.636368 0.009952
186.0 2.9e-05
186.363647 0.0
186.72728 0.0
187.181824 0.0
187.545456 0.0
188.090912 0.535167
188.636368 0.000328
189.0 1.0e-06
189.363647 0.0
190.090912 5.872018
190.72728 0.823294
191.090912 0.007918
191.454544 1.7e-05
191.818192 0.0
192.454544 2.164025
192.909088 0.005011
193.272736 1.5e-05
193.636368 0.0
194.090912 0.225049
195.090912 3.716006
196.090912 44.832661
197.090912 88.471497
198.0 40.666389
198.909088 0.982811
199.636368 1.189795
199.909088 0.659412
200.363647 0.327786
200.909088 9.139515
201.454544 0.009248
201.818192 1.772141
202.818192 1.100688
203.454544 2.146506
203.909088 1.240891
204.363647 0.004568
204.72728 1.1e-05
205.090912 0.426987
205.909088 26.976145
207.0 2043.557007
208.090912 24.146486
209.0 36.822929
210.090912 17.240856
211.0 21.588522
212.0 0.111418
212.454544 0.40347
212.909088 3.208619
213.181824 0.95064
213.545456 2.439797
213.909103 2.040035
214.363647 1.410877
215.090912 3.732408
215.545456 5.321223
216.0 0.712234
216.363647 0.917934
216.72728 0.006849
217.090912 1.4e-05
217.545456 2.50793
218.181824 5.062046
218.545456 5.663398
218.909103 7.109986
219.636368 0.846792
219.818192 1.20427
220.545456 0.001052
221.090912 0.980835
222.0 7.813691
222.818192 6.0e-05
223.818192 1.03288
224.090912 0.418537
225.0 126.886398
226.0 1.101611
226.818192 0.45771
227.272736 0.000574
227.636368 3.0e-06
228.0 0.0
228.363647 0.0
228.72728 0.0
229.181824 0.0
229.545456 0.0
229.909103 0.0
230.272736 0.0
230.636368 0.0
231.090912 0.0
231.454544 0.0
231.818192 0.0
232.181824 0.0
232.454544 0.0
232.545456 0.0
232.636368 0.0
232.72728 0.0
233.0 0.597639
233.545456 0.743813
233.818192 0.0
234.0 0.001977
234.363647 9.0e-06
234.72728 0.0
235.090912 0.0
235.454544 0.0
235.818192 0.0
236.181824 0.634811
236.545456 0.001787
237.0 7.0e-06
237.363647 0.0
237.72728 0.0
238.090912 0.0
238.545456 0.0
238.909103 0.0
239.272736 1.992378
239.636368 0.007675
240.0 2.5e-05
