>compound Vinorelbine (Navelbine)
>formula C45H54N4O8
>ionization [M+H]+
>parentmass 779.400818
#inchi InChI=1S/C45H54N4O8/c1-8-27-19-28-22-44(40(51)55-6,36-30(25-48(23-27)24-28)29-13-10-11-14-33(29)46-36)32-20-31-34(21-35(32)54-5)47(4)38-43(31)16-18-49-17-12-15-42(9-2,37(43)49)39(57-26(3)50)45(38,53)41(52)56-7/h10-15,19-21,28,37-39,46,53H,8-9,16-18,22-25H2,1-7H3/t28-,37+,38+,39+,42+,43-,44-,45-/m0/s1
#inchikey GBABOYUKABKIAF
#Ion_Source LC-ESI
#Instrument qTof
#Compound_Source Commercial
#PI Dorrestein
#Data_Collector Garg_Neha
#Scan -1
#Precursor_MZ 779.401
#ExactMass 778.394
#Charge 1
#CAS_Number 71486-22-1, 1151995-01-5
#Pubmed_ID N/A
#Smiles C1(=C(C=C2C(=C1)[C@]34[C@@](N2C)([C@]([C@@H]([C@]5([C@]3(N(CC=C5)CC4)[H])CC)OC(C)=O)(C(OC)=O)O)[H])OC)[C@]6(C[C@@]7(C=C(C[N@@](C7)CC8=C6NC9=C8C=CC=C9)CC)[H])C(OC)=O
#INCHI_AUX N/A
#Library_Class 1
#SpectrumID CCMSLIB00000078180
#IonMode Positive
#UpdateWorkflowName UPDATE-SINGLE-ANNOTATED-GOLD
#LibraryQualityString Gold
#TaskID 77f51c88eb8b467eb4a01dd2d0cb90d2
##Scan# 1136
#SpectrumFile Plate3_21_40_GG10_01_16499.mzXML
#LibraryName FDALibrary_2_04302014.mgf
#MQScore -1
#Organism FDALibrary_2_04302014
#TIC_Query 0
#RT_Query -1
#MZErrorPPM -1
#SharedPeaks 0
#MassDiff 0
#LibMZ -1
#SpecMZ 779.401
#SpecCharge 0
#internalFilename spec-00000.mgf

>collision 10
46.817745 260.0
47.536808 156.0
47.767628 140.0
48.809052 196.0
49.061054 180.0
52.374538 148.0
53.546291 220.0
55.661083 152.0
55.711582 168.0
56.69487 172.0
57.37125 152.0
57.52663 144.0
58.40247 176.0
58.707069 232.0
59.429066 140.0
59.534981 192.0
60.371784 144.0
61.121029 220.0
63.677288 160.0
64.117989 188.0
65.359055 188.0
69.913757 148.0
74.226952 172.0
74.468925 148.0
76.547714 212.0
76.579063 140.0
79.639603 144.0
82.149246 168.0
83.948494 216.0
84.355644 216.0
86.119652 144.0
89.228012 188.0
92.175438 188.0
95.091156 200.0
97.088959 164.0
98.095642 140.0
101.384033 124.0
101.579681 180.0
105.514641 184.0
105.63121 148.0
106.065315 292.0
107.074738 184.0
108.02774 240.0
108.541374 220.0
109.75779 180.0
110.104332 184.0
111.236938 204.0
113.920952 176.0
114.216423 264.0
121.088303 180.0
122.055634 180.0
122.097488 3284.0
123.099846 948.0
123.240852 156.0
128.048325 164.0
132.081741 148.0
133.067154 160.0
133.085526 216.0
135.06514 176.0
135.113724 152.0
136.110672 324.0
136.987167 180.0
144.081772 180.0
147.112167 164.0
148.101166 180.0
150.132996 176.0
153.56163 148.0
154.066345 140.0
154.428558 176.0
156.083313 480.0
157.193634 180.0
158.099274 344.0
159.146057 180.0
162.093552 204.0
163.092117 200.0
164.110413 204.0
164.809769 148.0
165.060257 180.0
166.37207 200.0
167.071457 520.0
168.073303 216.0
171.082794 172.0
172.726364 180.0
174.097122 160.0
176.059067 168.0
176.109253 180.0
178.808304 212.0
179.071884 144.0
180.098755 164.0
180.141479 188.0
182.059372 152.0
182.432693 180.0
185.786789 144.0
186.096176 144.0
187.102127 184.0
188.108704 1220.0
188.607925 144.0
189.112915 192.0
190.133484 156.0
192.104156 144.0
194.079895 480.0
194.116348 264.0
194.449951 192.0
194.635941 156.0
196.071365 160.0
196.105927 208.0
198.088593 136.0
199.133499 140.0
200.065659 160.0
200.104538 280.0
201.104584 164.0
202.0383 172.0
202.085037 352.0
202.125381 320.0
202.777344 164.0
203.092545 164.0
203.12326 152.0
203.932495 176.0
207.089554 160.0
207.830612 176.0
208.07251 128.0
208.10524 164.0
208.689407 152.0
210.126968 160.0
210.403671 164.0
211.085541 148.0
212.10173 184.0
214.087051 2284.0
215.089539 540.0
215.17955 148.0
216.070953 208.0
219.097778 184.0
222.11203 516.0
223.777222 144.0
224.127441 824.0
225.13118 160.0
226.111557 160.0
226.138489 160.0
226.171417 216.0
226.351044 180.0
226.619354 172.0
226.833389 160.0
227.085266 172.0
228.100143 184.0
229.135361 172.0
230.112534 212.0
230.139709 144.0
232.092102 336.0
232.519028 176.0
233.847183 244.0
234.733704 200.0
236.131836 340.0
237.08757 152.0
237.133545 180.0
238.803772 216.0
239.150986 444.0
240.098709 736.0
241.093033 288.0
241.351028 160.0
242.95224 196.0
246.111725 660.0
246.154968 172.0
247.1185 136.0
247.14476 232.0
248.110489 184.0
248.132935 200.0
248.157516 148.0
249.13356 156.0
250.120956 160.0
251.044083 148.0
251.15741 124.0
251.750961 140.0
252.107285 192.0
252.155334 140.0
254.112289 220.0
254.226532 168.0
255.793442 180.0
256.092743 148.0
258.112457 1256.0
258.736755 160.0
258.848816 168.0
259.116333 324.0
259.139343 208.0
260.127502 788.0
260.654755 168.0
261.135925 376.0
262.11853 440.0
263.153625 544.0
266.148285 148.0
267.251099 172.0
267.784973 180.0
270.112213 160.0
270.684967 180.0
271.930725 152.0
272.129883 272.0
272.176941 180.0
273.112885 180.0
273.192505 168.0
274.140076 236.0
274.971802 312.0
275.150726 156.0
276.40271 244.0
279.788147 140.0
280.120392 156.0
280.164459 148.0
283.140594 176.0
285.139679 144.0
285.18045 140.0
287.136597 144.0
290.132477 196.0
291.150024 1300.0
292.15863 852.0
293.165802 140.0
294.152405 412.0
294.194397 180.0
294.535889 160.0
295.169525 200.0
295.195496 148.0
296.128143 236.0
296.173798 132.0
298.152466 320.0
299.123901 164.0
299.14801 204.0
300.55069 172.0
301.756104 212.0
302.134247 132.0
304.163757 372.0
305.165527 264.0
306.148682 640.0
307.140869 136.0
307.180847 192.0
308.159851 216.0
308.185394 168.0
309.15448 160.0
309.201141 192.0
310.15033 176.0
311.215881 160.0
311.479279 140.0
314.166565 132.0
316.147186 160.0
319.176025 244.0
320.160797 384.0
321.161835 448.0
322.21347 144.0
322.288483 168.0
323.175903 3280.0
323.222931 180.0
324.181 1068.0
325.115143 164.0
325.176697 244.0
325.232239 180.0
325.655914 164.0
327.15683 168.0
328.11203 140.0
328.156464 184.0
329.116669 180.0
329.155945 172.0
329.188904 192.0
329.546478 156.0
330.127136 208.0
330.150146 380.0
330.179321 128.0
331.171112 280.0
332.205536 144.0
332.602966 152.0
333.13678 140.0
333.165833 140.0
334.12561 164.0
335.174194 176.0
335.199707 140.0
337.17395 100.0
340.111359 184.0
340.510529 100.0
341.158264 172.0
341.231781 176.0
342.136322 148.0
343.182526 416.0
344.137665 148.0
344.630005 168.0
346.202087 160.0
347.174408 624.0
348.059906 176.0
348.179474 448.0
349.198364 172.0
350.153412 184.0
350.80191 164.0
351.096466 240.0
351.174774 256.0
351.22699 220.0
353.115936 164.0
354.142456 148.0
354.194885 216.0
355.148346 180.0
357.159485 1264.0
358.159668 616.0
359.168854 316.0
360.177185 120.0
361.149323 128.0
361.192474 160.0
362.180389 148.0
363.173187 124.0
364.169983 152.0
365.180786 128.0
366.190521 156.0
367.19754 316.0
368.143921 144.0
369.194855 188.0
370.12854 148.0
370.162994 208.0
371.169434 184.0
372.153076 172.0
373.159515 204.0
374.164001 100.0
375.167358 168.0
377.19455 324.0
378.187195 248.0
378.260498 144.0
379.20282 2368.0
379.260681 196.0
379.730347 140.0
380.204285 576.0
381.21637 244.0
382.204956 124.0
383.181152 176.0
383.869995 168.0
385.160034 560.0
386.193146 200.0
387.168335 504.0
388.17337 220.0
389.186584 2204.0
390.181732 1204.0
391.19574 164.0
393.167267 168.0
393.214935 136.0
395.178955 248.0
397.213226 428.0
398.209778 408.0
399.232422 180.0
401.145538 204.0
401.188416 260.0
403.155426 152.0
403.200684 448.0
407.198975 368.0
408.190033 144.0
408.214996 128.0
409.218506 228.0
411.173828 148.0
412.221405 148.0
413.964905 168.0
414.203857 180.0
415.213593 184.0
418.199677 144.0
419.241211 120.0
421.22522 168.0
423.204163 152.0
424.149017 200.0
424.240692 192.0
424.593323 144.0
425.190125 136.0
426.169617 208.0
426.605255 176.0
427.199432 408.0
428.202759 164.0
429.196472 240.0
432.168793 148.0
433.154114 148.0
433.222656 248.0
434.240051 216.0
436.191223 192.0
437.248016 152.0
438.170471 120.0
439.182343 120.0
439.2258 384.0
439.531677 148.0
440.223846 116.0
441.19812 144.0
443.248993 140.0
447.20047 148.0
449.19342 296.0
450.219666 172.0
450.250122 248.0
451.180115 236.0
451.237213 116.0
451.262115 400.0
452.197144 152.0
452.223633 164.0
453.188934 160.0
454.244293 308.0
454.291229 176.0
455.21225 216.0
455.266968 212.0
456.223938 140.0
456.257477 144.0
456.693329 108.0
457.233307 3208.0
458.235138 776.0
458.513458 172.0
459.192566 156.0
459.232666 336.0
460.181335 180.0
460.638275 160.0
463.215607 116.0
464.222717 112.0
464.27005 144.0
465.206665 176.0
465.267548 188.0
466.244385 204.0
467.222809 540.0
467.790985 184.0
468.226074 336.0
469.230225 1544.0
469.756012 176.0
470.058014 140.0
470.239929 504.0
471.236938 292.0
472.178009 124.0
476.235443 164.0
477.209503 168.0
477.894745 100.0
478.24646 640.0
479.2435 264.0
480.230896 124.0
481.143463 148.0
481.232544 392.0
481.396698 152.0
482.232361 136.0
483.000671 164.0
484.243164 152.0
485.282288 188.0
486.148499 172.0
486.288971 356.0
487.272766 260.0
488.284485 152.0
489.174683 176.0
489.225769 172.0
491.779724 164.0
494.159454 108.0
495.201874 168.0
495.242249 200.0
498.262482 124.0
500.253235 168.0
502.585815 172.0
506.237701 176.0
508.261841 584.0
508.775604 180.0
510.274506 4436.0
510.901276 140.0
511.000275 140.0
511.277435 2148.0
512.28479 888.0
512.359924 192.0
512.598694 196.0
513.225281 152.0
513.294006 164.0
515.947754 180.0
516.231567 164.0
516.280945 104.0
520.246399 164.0
522.892395 152.0
524.266235 136.0
525.242859 180.0
526.251953 152.0
527.232178 704.0
528.247314 184.0
528.999207 136.0
529.252686 160.0
530.282104 144.0
531.246887 128.0
534.235962 216.0
535.427734 148.0
538.134521 140.0
538.26825 472.0
539.247742 156.0
539.284119 300.0
540.279602 144.0
541.264648 128.0
548.250854 96.0
549.258484 216.0
549.295837 164.0
550.243164 152.0
551.826965 172.0
552.818604 156.0
554.239502 172.0
555.235901 156.0
556.27301 156.0
556.991272 156.0
557.288147 240.0
559.269348 140.0
562.285889 100.0
563.241089 176.0
565.090393 252.0
565.298584 156.0
566.269348 1524.0
567.262817 696.0
568.250488 264.0
568.266907 176.0
569.26355 188.0
570.274414 120.0
571.300598 400.0
573.305115 140.0
576.300903 468.0
576.80835 144.0
577.195618 208.0
577.322205 152.0
578.282715 128.0
580.270996 428.0
582.294495 128.0
584.140198 148.0
585.319336 160.0
586.340637 152.0
587.251831 184.0
588.309631 420.0
589.306213 496.0
590.318542 140.0
591.097351 168.0
591.310242 168.0
591.378052 144.0
594.135193 180.0
594.305176 136.0
595.258301 100.0
596.272278 104.0
597.270569 112.0
598.290405 1544.0
599.288818 784.0
599.688354 144.0
600.298523 124.0
600.517212 152.0
604.278625 156.0
608.272827 416.0
609.248169 176.0
609.308716 268.0
610.313049 124.0
612.300232 164.0
614.063904 200.0
614.309875 152.0
617.1651 144.0
617.344971 1556.0
618.292053 148.0
618.356506 384.0
619.354309 388.0
620.368713 236.0
620.4552 152.0
621.352112 148.0
622.252991 116.0
625.509705 144.0
626.284912 1740.0
627.28595 624.0
628.298096 136.0
630.304626 152.0
631.338013 112.0
636.304871 396.0
637.298828 260.0
638.276489 248.0
640.281677 268.0
640.343323 112.0
641.313171 172.0
642.367004 148.0
646.305359 192.0
648.110229 168.0
648.325989 1328.0
649.322876 688.0
650.318115 120.0
654.325134 156.0
655.936768 152.0
656.296082 248.0
658.196838 148.0
658.310974 2336.0
658.447083 256.0
659.317627 1092.0
660.304443 224.0
661.32373 112.0
663.10791 144.0
665.75 160.0
670.297058 252.0
677.381958 160.0
678.370422 220.0
679.329773 140.0
683.694275 156.0
683.730713 144.0
686.33075 132.0
687.344666 428.0
688.358154 220.0
689.356384 132.0
695.212341 148.0
695.312012 252.0
695.776062 128.0
696.32959 552.0
697.327637 544.0
698.319763 108.0
699.350403 196.0
699.522156 192.0
700.728149 144.0
701.367737 744.0
702.371521 116.0
703.368347 148.0
703.475769 172.0
708.875854 144.0
711.692444 184.0
717.378845 160.0
717.886292 148.0
718.622375 156.0
719.033264 152.0
719.374939 2324.0
719.971436 180.0
720.379211 580.0
720.469604 152.0
721.390564 456.0
722.392944 128.0
726.975098 144.0
728.25824 144.0
730.36853 104.0
737.358032 132.0
737.432678 316.0
737.547363 148.0
738.388428 180.0
739.38324 128.0
750.135315 192.0
755.585449 196.0
756.061523 176.0
758.668701 164.0
761.391418 768.0
761.681335 168.0
762.386536 252.0
765.278931 164.0
773.985413 156.0
774.677673 148.0
775.780457 140.0
775.85675 132.0
776.265991 156.0
776.881165 156.0
777.195801 144.0
777.311218 164.0
777.381226 656.0
777.527649 164.0
777.770264 124.0
777.946106 148.0
777.993896 196.0
778.267639 116.0
778.389099 1176.0
778.463928 156.0
778.710205 184.0
778.770386 196.0
778.934387 100.0
778.974365 188.0
779.039001 164.0
779.250732 156.0
779.400818 33404.0
779.834351 188.0
779.911804 320.0
779.960205 128.0
780.034241 168.0
780.108215 152.0
780.178894 284.0
780.265381 132.0
780.401978 18288.0
780.577759 180.0
780.713501 104.0
780.821533 136.0
781.135803 104.0
781.408081 5852.0
781.581177 160.0
781.751221 144.0
782.051758 144.0
782.172607 124.0
782.22406 108.0
782.41272 712.0
782.537109 172.0
782.69751 184.0
783.406372 168.0
783.458496 180.0
783.576843 96.0
784.043335 184.0
784.161865 184.0
784.568665 120.0
785.448975 108.0
785.540283 116.0
786.691772 108.0
792.371338 156.0
857.31134 164.0
1082.228882 140.0
1091.485107 128.0
1246.366455 140.0
1361.487671 168.0
1441.525879 184.0
1478.178955 172.0
1610.256348 256.0
1751.248047 144.0
1817.028687 160.0
1835.613403 168.0
1848.109985 176.0
1867.033203 168.0
1878.600708 208.0
1895.919312 196.0
1973.585205 184.0
1974.283813 196.0
