>compound MLS001140921-01!4-[[2-(3-benzyl-4,8-dimethyl-2-oxochromen-7-yl)oxypropanoylamino]methyl]cyclohexane-1-carboxylic acid
>formula C29H33NO6
>ionization [M+H]+
>parentmass 492.236328
#inchi InChI=1S/C29H33NO6/c1-17-23-13-14-25(18(2)26(23)36-29(34)24(17)15-20-7-5-4-6-8-20)35-19(3)27(31)30-16-21-9-11-22(12-10-21)28(32)33/h4-8,13-14,19,21-22H,9-12,15-16H2,1-3H3,(H,30,31)(H,32,33)/t19?,21-,22-
#inchikey IDPOBLGKQBGXKZ
#Ion_Source LC-ESI
#Instrument qTof
#Compound_Source NIH Natural Product Library
#PI Dorrestein
#Data_Collector VVP/LMS
#Scan -1
#Precursor_MZ 492.239
#ExactMass 491.231
#Charge 1
#CAS_Number N/A
#Pubmed_ID N/A
#Smiles CC(Oc1ccc2c(C)c(Cc3ccccc3)c(=O)oc2c1C)C(=O)NC[C@H]4CC[C@@H](CC4)C(=O)O
#INCHI_AUX N/A
#Library_Class 1
#SpectrumID CCMSLIB00000080594
#IonMode Positive
#UpdateWorkflowName UPDATE-SINGLE-ANNOTATED-GOLD
#LibraryQualityString Gold
#TaskID b1d8e8f6646f4e71acdff9ca3d919d08
##Scan# 2301
#SpectrumFile p2-C11_GC11_01_18011.mzXML
#LibraryName NIH_Natural_Products_Library.mgf
#MQScore -1
#Organism NIH_Natural_Products_Library
#TIC_Query 0
#RT_Query -1
#MZErrorPPM -1
#SharedPeaks 0
#MassDiff 0
#LibMZ -1
#SpecMZ 492.239
#SpecCharge 0
#internalFilename spec-00000.mgf

>collision 10
94.989868 236.0
95.004303 168.0
95.087105 3500.0
95.204224 40.0
95.225586 116.0
95.254723 116.0
95.415672 160.0
95.420021 132.0
95.426155 168.0
95.476295 108.0
95.491852 84.0
95.557991 92.0
95.583282 240.0
95.702019 140.0
95.828613 132.0
95.929955 80.0
95.951401 144.0
96.029396 120.0
96.090164 468.0
96.175728 60.0
96.197205 132.0
96.242104 56.0
96.322174 216.0
96.449181 80.0
96.515656 80.0
96.576279 204.0
96.617355 156.0
96.633003 112.0
96.670181 88.0
96.818123 112.0
96.831589 116.0
96.881638 120.0
96.912987 132.0
96.987457 128.0
97.024696 144.0
97.044304 168.0
97.088562 176.0
97.326843 80.0
97.383797 100.0
97.637321 32.0
97.710106 60.0
97.839989 68.0
97.908905 36.0
98.05864 216.0
98.133545 144.0
98.21637 180.0
98.459129 52.0
98.617188 52.0
98.740562 172.0
98.856483 140.0
98.925758 216.0
98.949509 236.0
99.032677 172.0
99.078239 224.0
99.169388 108.0
99.351822 264.0
99.373642 160.0
99.459435 156.0
99.560226 200.0
99.727112 164.0
99.748978 132.0
99.782776 76.0
99.816574 220.0
99.872261 168.0
99.908562 112.0
100.019501 168.0
100.093163 184.0
100.138962 72.0
100.497787 116.0
100.543678 68.0
100.571625 152.0
100.617531 116.0
100.695412 152.0
100.725372 144.0
100.843254 152.0
100.871239 36.0
100.969208 116.0
101.337524 232.0
101.369583 148.0
101.411674 188.0
101.425705 196.0
101.463791 132.0
101.584114 168.0
101.612198 176.0
101.720566 180.0
101.748672 96.0
101.780792 156.0
101.802879 124.0
101.993744 84.0
102.317619 216.0
102.345802 152.0
102.736794 236.0
103.0578 164.0
103.108315 144.0
103.187149 140.0
103.255898 112.0
103.332993 144.0
103.352997 160.0
103.413712 220.0
103.456215 148.0
103.474434 120.0
103.492661 156.0
103.861488 56.0
103.881775 164.0
103.930466 184.0
103.979164 152.0
104.053596 168.0
104.078636 108.0
104.141586 152.0
104.165962 188.0
104.210655 144.0
104.300072 140.0
104.333252 100.0
104.377327 60.0
104.481056 132.0
104.603157 44.0
104.678482 192.0
104.719215 160.0
104.743652 52.0
104.780327 236.0
104.859795 56.0
104.931137 128.0
104.971916 120.0
105.032593 176.0
105.069733 188.0
105.137154 132.0
105.184097 184.0
105.517075 128.0
105.797356 148.0
105.85878 204.0
106.067749 124.0
106.196922 96.0
106.239998 136.0
106.338493 196.0
106.404182 164.0
106.451408 52.0
106.70208 128.0
106.798721 168.0
106.887184 280.0
106.903648 208.0
106.963333 156.0
107.047745 152.0
107.084816 60.0
107.161034 128.0
107.208427 200.0
107.250938 236.0
107.284691 92.0
107.336227 84.0
107.375412 180.0
107.71804 140.0
107.854416 52.0
108.065346 204.0
108.096855 140.0
108.175034 148.0
108.243355 68.0
108.326195 116.0
108.369705 220.0
108.47332 56.0
108.637146 128.0
108.749191 100.0
108.894524 200.0
109.031647 200.0
109.056122 160.0
109.101624 380.0
109.227089 136.0
109.304062 112.0
109.466423 176.0
109.518494 188.0
109.551819 184.0
109.824883 120.0
109.872864 160.0
109.912506 212.0
109.935455 120.0
110.060722 368.0
110.096954 912.0
110.231979 148.0
110.254967 148.0
110.290497 192.0
110.326035 168.0
110.388763 144.0
110.428497 152.0
110.629372 104.0
110.679619 100.0
110.910057 188.0
110.964561 132.0
111.046349 200.0
111.067322 144.0
111.105309 1356.0
111.138649 144.0
111.371666 100.0
111.588112 132.0
111.640678 140.0
111.670128 192.0
111.785828 148.0
111.858444 152.0
111.882652 124.0
111.998466 40.0
112.063538 180.0
112.076744 216.0
112.11306 2852.0
112.16703 48.0
112.289322 152.0
112.439117 160.0
112.643921 112.0
112.939842 120.0
113.087433 180.0
113.114784 504.0
113.17263 80.0
113.392937 92.0
113.458649 176.0
113.518013 108.0
113.670746 160.0
113.954338 228.0
114.036018 148.0
114.089157 108.0
114.310356 168.0
114.384842 148.0
114.406128 112.0
114.491302 128.0
114.657471 176.0
114.74913 76.0
114.800751 172.0
114.81736 136.0
114.845085 156.0
115.03286 140.0
115.056152 768.0
115.118263 88.0
115.245888 160.0
115.408867 112.0
115.537857 256.0
115.592812 168.0
115.609932 60.0
115.723381 120.0
115.847595 152.0
115.892586 168.0
116.004028 136.0
116.058861 192.0
116.197037 92.0
116.332039 220.0
116.377319 56.0
116.411674 176.0
116.549149 180.0
116.598572 224.0
116.710358 156.0
116.98143 60.0
117.074394 176.0
117.14502 124.0
117.638908 268.0
117.654022 228.0
117.675613 164.0
117.882965 68.0
117.911064 180.0
117.968094 196.0
118.034279 92.0
118.283073 172.0
118.493134 100.0
118.532135 240.0
118.731956 112.0
119.046242 168.0
119.088577 388.0
119.194832 148.0
119.474419 200.0
119.554924 172.0
119.596275 200.0
119.637634 104.0
119.685532 68.0
119.705132 140.0
119.722549 56.0
119.774826 140.0
119.816216 184.0
120.0401 172.0
120.082146 84.0
120.134491 256.0
120.274147 264.0
120.816078 164.0
120.869133 204.0
120.886093 84.0
120.903595 116.0
121.048073 48.0
121.065819 196.0
121.10704 216.0
121.146637 140.0
121.512749 168.0
121.677345 212.0
121.760788 128.0
121.809105 184.0
121.870621 140.0
121.973907 100.0
122.068504 320.0
122.096512 556.0
122.18502 72.0
122.237823 200.0
122.495415 252.0
122.517448 156.0
122.561508 104.0
122.625412 136.0
122.677246 140.0
122.735641 68.0
122.76651 168.0
123.04541 204.0
123.084816 500.0
123.119278 356.0
123.333908 224.0
123.526283 240.0
123.548401 176.0
123.621414 104.0
123.672318 212.0
123.73867 164.0
123.7808 44.0
123.946922 140.0
124.051094 160.0
124.076561 384.0
124.110893 164.0
124.150864 168.0
124.166389 116.0
124.2174 92.0
124.297272 96.0
124.359406 452.0
124.541473 132.0
124.661446 192.0
124.832611 164.0
124.939369 120.0
124.957169 132.0
125.023918 160.0
125.060242 176.0
125.093063 236.0
125.132988 212.0
125.273293 52.0
125.382469 144.0
125.453796 120.0
125.632195 152.0
125.790634 212.0
125.882172 108.0
126.018425 180.0
126.055443 168.0
126.094398 120.0
126.203934 216.0
126.222229 176.0
126.347076 104.0
126.364967 128.0
126.47686 104.0
126.541779 172.0
127.039223 116.0
127.096886 224.0
127.231918 168.0
127.519814 124.0
127.596245 192.0
127.677193 168.0
128.023758 200.0
128.06424 156.0
128.172424 156.0
128.199463 124.0
128.3302 120.0
128.499359 104.0
128.551254 124.0
128.618958 192.0
128.66185 148.0
128.727325 272.0
128.80864 196.0
128.885452 128.0
129.070984 1676.0
129.120544 104.0
129.143158 252.0
129.168045 112.0
129.493973 132.0
129.541534 180.0
129.747757 76.0
129.770432 200.0
129.886093 168.0
130.019943 172.0
130.071335 180.0
130.169769 236.0
130.256073 32.0
130.356049 56.0
130.617493 140.0
130.662994 192.0
130.681198 164.0
130.790421 168.0
130.940689 44.0
130.968033 164.0
131.04776 172.0
131.086502 268.0
131.248337 156.0
131.540359 56.0
131.720749 168.0
131.950394 160.0
132.00415 80.0
132.056503 164.0
132.087921 184.0
132.230621 96.0
132.268982 84.0
132.551758 244.0
132.594772 236.0
132.617691 116.0
132.7966 120.0
132.846985 64.0
132.977783 160.0
133.003021 40.0
133.065002 212.0
133.083374 112.0
133.253326 124.0
133.798386 268.0
133.938858 212.0
134.05867 172.0
134.22464 144.0
134.305344 180.0
134.358414 120.0
134.402237 232.0
134.589203 176.0
134.656174 212.0
134.882599 184.0
135.049911 368.0
135.083771 128.0
135.298996 68.0
135.403183 192.0
135.688202 168.0
135.740234 152.0
135.827347 196.0
135.985123 60.0
136.029221 136.0
136.145309 144.0
136.247513 80.0
136.379959 136.0
136.435745 44.0
136.721848 96.0
136.824265 224.0
136.875473 184.0
136.926712 136.0
136.947678 244.0
137.061829 168.0
137.120087 204.0
137.528229 136.0
137.558578 184.0
137.759903 204.0
138.030518 160.0
138.092911 1700.0
138.129242 4504.0
138.231674 72.0
138.248062 84.0
138.402557 88.0
138.456406 40.0
138.477493 40.0
138.554794 148.0
138.589935 112.0
138.718826 44.0
138.814957 76.0
138.974457 44.0
139.028427 164.0
139.049545 120.0
139.072845 308.0
139.097824 340.0
139.133362 1208.0
139.169266 80.0
139.253815 148.0
139.345413 184.0
139.373611 64.0
139.439407 52.0
139.465271 196.0
139.48642 128.0
139.726288 140.0
139.848648 124.0
139.886307 244.0
140.034653 148.0
140.051132 172.0
140.108429 6180.0
140.142075 232.0
140.230194 28.0
140.399948 132.0
140.508698 192.0
140.593399 176.0
140.612274 152.0
140.65239 48.0
140.668915 136.0
140.848373 128.0
140.89563 104.0
141.001282 184.0
141.069397 228.0
141.09317 628.0
141.113358 1064.0
141.243118 164.0
141.299896 92.0
141.325912 216.0
141.368515 164.0
141.408737 112.0
141.456085 104.0
141.501053 84.0
141.546051 108.0
141.564987 132.0
141.712082 164.0
141.749756 40.0
141.823227 48.0
141.939392 80.0
141.979706 100.0
142.053223 56.0
142.074585 132.0
142.10553 260.0
142.17186 208.0
142.363632 92.0
142.473404 172.0
142.741974 116.0
142.791916 184.0
142.810944 140.0
142.88707 116.0
142.946548 136.0
143.060791 36.0
143.084412 340.0
143.115555 284.0
143.167938 180.0
143.487228 192.0
143.563522 148.0
143.790161 180.0
143.890106 184.0
143.97876 84.0
144.059784 576.0
144.091156 216.0
144.11731 104.0
144.172272 140.0
144.313293 48.0
144.430481 128.0
144.569244 164.0
144.597961 172.0
144.65062 128.0
144.73201 124.0
144.799072 208.0
144.832596 148.0
144.863739 104.0
144.964371 148.0
144.988327 128.0
145.012299 160.0
145.065765 368.0
145.084213 60.0
145.103378 136.0
145.333633 96.0
145.405624 236.0
145.439224 136.0
145.540054 188.0
145.722595 180.0
145.914856 40.0
146.203506 168.0
146.319031 44.0
146.364777 48.0
146.593628 192.0
146.8564 104.0
147.080383 1192.0
147.24498 196.0
147.271545 116.0
147.319199 164.0
147.755005 192.0
147.861465 76.0
147.892929 132.0
147.960648 180.0
148.080093 148.0
148.103577 184.0
148.139908 116.0
148.435593 84.0
148.522903 192.0
148.629639 156.0
148.75827 72.0
148.792267 200.0
148.811676 204.0
148.884537 244.0
148.916107 64.0
149.064285 140.0
149.089783 168.0
149.239304 188.0
149.275772 112.0
149.433884 204.0
149.497147 228.0
149.601791 156.0
149.621277 36.0
149.704056 176.0
149.786865 48.0
149.832062 168.0
149.958298 156.0
149.993988 184.0
150.106903 228.0
150.184174 92.0
150.445267 120.0
150.469681 216.0
150.502411 228.0
150.523392 172.0
150.672379 140.0
150.863007 184.0
151.070862 72.0
151.391495 160.0
151.611969 160.0
151.67569 172.0
151.722275 184.0
151.839966 116.0
151.984695 184.0
152.106476 1884.0
152.178604 72.0
152.271912 36.0
152.34314 228.0
152.424225 156.0
152.522522 180.0
152.812698 68.0
153.073608 144.0
153.10994 616.0
153.253418 160.0
153.598557 148.0
153.71698 52.0
153.953964 56.0
154.075851 184.0
154.144165 224.0
154.183701 132.0
154.48288 52.0
154.507629 176.0
154.524948 208.0
154.564529 200.0
154.675903 124.0
154.713028 180.0
154.772446 156.0
154.903702 152.0
155.094681 336.0
155.188705 132.0
155.275497 232.0
155.377197 116.0
155.414413 116.0
155.647736 112.0
155.838989 188.0
155.866318 88.0
155.913528 140.0
156.103516 168.0
156.281555 148.0
156.630081 192.0
156.71727 168.0
156.738235 180.0
156.969025 172.0
157.01889 188.0
157.066559 176.0
157.100449 172.0
157.283371 128.0
157.358826 208.0
157.383224 112.0
157.413193 120.0
157.565552 120.0
157.745468 208.0
157.842972 176.0
158.060593 196.0
158.114487 104.0
158.158203 180.0
158.406097 244.0
158.436157 172.0
158.741928 176.0
158.849777 108.0
158.927551 52.0
159.012863 124.0
159.081985 520.0
159.120804 144.0
159.138382 184.0
159.568008 140.0
159.593155 116.0
159.609253 76.0
159.633377 168.0
159.811966 136.0
159.912628 140.0
160.020874 116.0
160.052719 656.0
160.088852 172.0
160.15181 148.0
160.353378 156.0
160.481934 128.0
160.524796 140.0
160.69632 200.0
160.736694 180.0
160.835114 140.0
161.063309 272.0
161.102783 152.0
161.203842 176.0
161.355499 116.0
161.545166 132.0
161.831146 152.0
161.98056 180.0
162.069229 220.0
162.094559 184.0
162.124969 160.0
162.457123 220.0
162.649979 160.0
162.80484 192.0
162.93692 156.0
163.053802 228.0
163.077255 500.0
163.206329 168.0
163.257187 72.0
163.374191 164.0
163.488678 180.0
163.707611 104.0
163.860443 152.0
163.898651 180.0
164.079102 140.0
164.107666 156.0
164.255569 212.0
164.275986 172.0
164.459702 80.0
164.493713 160.0
164.565842 124.0
164.610321 108.0
164.656296 72.0
164.77124 136.0
164.855469 128.0
165.003799 200.0
165.072922 364.0
165.318405 144.0
165.495026 64.0
165.743484 156.0
165.771667 220.0
165.933151 108.0
166.085449 496.0
166.123734 2744.0
166.171661 108.0
166.361572 144.0
166.379547 36.0
166.41806 140.0
166.446304 56.0
166.549026 160.0
166.567001 128.0
166.595261 64.0
166.672333 80.0
166.744293 148.0
166.907089 180.0
166.960236 84.0
166.996246 164.0
167.034821 240.0
167.080032 168.0
167.131912 12736.0
167.172104 112.0
167.237396 44.0
167.255264 96.0
167.335022 104.0
167.369385 172.0
167.400208 128.0
167.444077 144.0
167.510239 64.0
167.665634 52.0
167.722336 104.0
167.840912 64.0
167.90538 108.0
167.975021 208.0
167.996948 56.0
168.034363 76.0
168.134949 1944.0
168.191772 68.0
168.253723 104.0
168.470657 156.0
168.54126 184.0
168.566254 76.0
168.75235 88.0
168.853195 144.0
168.912689 172.0
168.96701 88.0
169.005829 164.0
169.061295 184.0
169.141144 212.0
169.220642 64.0
169.264664 104.0
169.293152 136.0
169.363068 176.0
169.487427 68.0
169.539246 104.0
169.718109 56.0
169.759598 168.0
169.847778 32.0
169.943756 128.0
169.983749 116.0
170.327972 124.0
170.548828 160.0
170.580017 36.0
170.62941 100.0
170.824463 112.0
170.889496 144.0
171.087296 164.0
171.144562 192.0
171.339905 180.0
171.363342 176.0
171.579666 196.0
171.702209 176.0
171.796112 168.0
171.848297 148.0
171.882217 120.0
172.017929 144.0
172.054474 292.0
172.182419 144.0
172.263382 156.0
172.305176 156.0
172.655441 164.0
172.697281 152.0
173.037476 164.0
173.060532 232.0
173.097061 116.0
173.214218 148.0
173.388474 48.0
173.535263 116.0
173.637527 136.0
173.671631 276.0
173.758194 240.0
173.852646 136.0
174.072403 796.0
174.099411 224.0
174.217606 32.0
174.314819 96.0
174.514587 80.0
174.546143 160.0
174.653961 160.0
174.76709 160.0
174.838135 196.0
174.896042 204.0
175.030304 168.0
175.076996 4924.0
175.241013 108.0
175.272629 176.0
175.430756 72.0
175.670731 144.0
175.726135 80.0
175.902939 124.0
176.011185 188.0
176.081177 624.0
176.142441 212.0
176.486801 172.0
176.555542 228.0
176.828049 168.0
176.92598 144.0
177.029236 140.0
177.087708 656.0
177.170563 240.0
177.450546 92.0
177.514175 116.0
177.715759 156.0
178.065536 152.0
178.089859 324.0
178.140533 144.0
178.265411 144.0
178.286667 204.0
178.791946 116.0
178.925034 140.0
178.999588 244.0
179.036865 200.0
179.089127 444.0
179.248871 48.0
179.32193 40.0
179.356583 56.0
179.425888 240.0
179.473877 124.0
179.559219 144.0
179.609894 40.0
179.657898 120.0
179.82547 80.0
179.970154 148.0
180.096588 156.0
180.384247 68.0
180.624908 116.0
180.649185 212.0
180.750641 112.0
180.919266 84.0
181.061172 156.0
181.102539 244.0
181.650833 200.0
181.755463 144.0
181.840988 152.0
181.865494 172.0
181.937973 184.0
182.069687 136.0
182.104446 56.0
182.40538 184.0
182.537125 188.0
182.588379 212.0
182.655457 44.0
182.897629 204.0
182.967377 136.0
183.117783 104.0
183.312363 52.0
183.6185 196.0
183.640564 92.0
183.671417 180.0
183.730286 72.0
183.875992 200.0
183.933792 240.0
183.975861 160.0
184.002853 128.0
184.027161 156.0
184.09848 492.0
184.134766 11876.0
184.232407 112.0
184.290436 44.0
184.313461 132.0
184.338409 68.0
184.364807 76.0
184.397873 220.0
184.462097 156.0
184.50145 208.0
184.548523 224.0
184.575653 140.0
184.724396 48.0
184.851562 192.0
184.927628 72.0
185.061295 148.0
185.095184 180.0
185.137207 1352.0
185.189957 40.0
185.251907 152.0
185.271225 100.0
185.292892 164.0
185.314575 88.0
185.388428 172.0
185.428375 200.0
185.563919 80.0
185.680511 56.0
185.733231 156.0
185.759171 44.0
185.802582 132.0
185.882431 176.0
185.954529 64.0
185.989822 68.0
186.082108 60.0
186.109268 100.0
186.143372 128.0
186.277649 120.0
186.348282 132.0
186.37001 56.0
186.389038 84.0
186.478714 88.0
186.522202 136.0
186.622787 100.0
186.66629 84.0
186.71524 40.0
186.78595 156.0
186.864853 152.0
186.927429 132.0
187.079803 160.0
187.251389 172.0
187.324921 196.0
187.442078 132.0
187.493851 88.0
187.688324 140.0
187.859207 116.0
187.935532 152.0
187.976532 120.0
188.0858 684.0
188.183853 96.0
188.263153 40.0
188.473495 128.0
188.703079 28.0
188.848007 204.0
189.065948 272.0
189.076233 172.0
189.084381 284.0
189.18457 88.0
189.266708 36.0
189.59816 120.0
189.713287 176.0
189.762634 248.0
190.061935 180.0
190.081924 108.0
190.311371 140.0
190.619003 152.0
190.788559 280.0
190.970886 192.0
190.995651 180.0
191.079819 188.0
191.268051 136.0
191.345123 116.0
191.408463 152.0
191.524124 196.0
191.59024 164.0
191.667374 128.0
191.719727 132.0
191.912689 144.0
192.096985 1552.0
192.343048 124.0
192.398254 40.0
192.483841 220.0
192.583267 152.0
192.845749 140.0
193.062653 176.0
193.102936 316.0
193.437668 176.0
193.589951 40.0
193.692413 92.0
193.77829 60.0
193.803223 136.0
193.994461 56.0
194.073853 228.0
194.119614 3364.0
194.194092 196.0
194.293961 176.0
194.313385 160.0
194.457672 336.0
194.590912 124.0
194.651993 120.0
194.785309 136.0
194.843643 156.0
194.957565 60.0
194.979797 108.0
195.078506 296.0
195.121414 832.0
195.243896 156.0
195.449753 180.0
195.566635 128.0
195.605606 164.0
195.730881 184.0
195.854401 124.0
195.978775 132.0
196.09581 156.0
196.119415 128.0
196.477829 88.0
196.675949 184.0
196.804367 108.0
196.89093 168.0
196.969131 60.0
197.262543 68.0
197.296082 56.0
197.365982 96.0
197.628906 148.0
198.065613 108.0
198.113235 124.0
198.387863 116.0
198.522446 148.0
198.640244 164.0
198.758072 172.0
199.092117 124.0
199.117172 200.0
199.20166 124.0
199.33371 68.0
199.496719 88.0
199.896103 260.0
200.084671 220.0
200.200119 96.0
200.473373 40.0
200.797577 220.0
201.094269 1052.0
201.178497 200.0
201.531509 132.0
201.607803 108.0
201.658676 168.0
202.023438 100.0
202.06459 624.0
202.099579 152.0
202.118683 128.0
202.126328 172.0
202.229996 60.0
202.251129 196.0
202.271011 124.0
202.297928 212.0
202.397018 120.0
202.422501 76.0
202.455719 104.0
202.512421 96.0
202.519623 136.0
202.545486 216.0
202.552658 92.0
202.56636 212.0
202.571777 68.0
202.596313 120.0
202.620773 344.0
202.644028 172.0
202.696579 156.0
202.717102 184.0
202.762833 176.0
202.793625 204.0
202.838181 92.0
202.855347 276.0
202.898178 228.0
202.967773 176.0
203.012604 280.0
203.072601 100088.0
203.125717 96.0
203.14566 52.0
203.196289 100.0
203.220688 40.0
203.24736 88.0
203.276001 172.0
203.309296 140.0
203.333527 380.0
203.379013 56.0
203.399277 120.0
203.442841 192.0
203.509659 288.0
203.539261 620.0
203.569351 92.0
203.607681 60.0
203.636566 76.0
203.667725 104.0
203.706329 144.0
203.761261 112.0
203.7892 72.0
203.797302 64.0
203.851883 264.0
203.918518 152.0
203.963684 52.0
204.012573 316.0
204.074585 16552.0
204.163406 100.0
204.190475 68.0
204.220428 60.0
204.281494 152.0
204.315369 84.0
204.322037 112.0
204.363998 148.0
204.398148 32.0
204.44841 72.0
204.477142 268.0
204.506424 80.0
204.592972 124.0
204.635315 196.0
204.679947 32.0
204.70842 48.0
204.74675 52.0
204.768402 60.0
204.872055 96.0
204.907791 84.0
204.953384 84.0
205.038864 60.0
205.076065 1996.0
205.104477 416.0
205.160858 140.0
205.198502 156.0
205.264557 72.0
205.315399 132.0
205.355026 228.0
205.398407 120.0
205.448853 284.0
205.526489 164.0
205.583557 108.0
205.615723 156.0
205.65567 120.0
205.714859 108.0
205.794785 96.0
205.826202 120.0
205.860458 60.0
205.949005 40.0
205.989426 104.0
206.083725 308.0
206.107574 252.0
206.137711 144.0
206.222427 132.0
206.294754 72.0
206.325089 72.0
206.414825 104.0
206.479034 124.0
206.515457 184.0
206.534088 268.0
206.635071 84.0
206.664551 156.0
206.786728 108.0
206.815338 48.0
206.892624 108.0
207.074692 140.0
207.117249 1312.0
207.199066 108.0
207.233444 60.0
207.276413 88.0
207.413986 28.0
207.540115 164.0
207.626144 104.0
207.902176 204.0
208.007751 132.0
208.08699 268.0
208.121201 188.0
208.191498 84.0
208.66272 140.0
208.740356 184.0
209.100342 164.0
209.132095 168.0
209.1604 64.0
209.223724 40.0
209.367691 148.0
209.396484 180.0
209.526108 244.0
209.609665 92.0
209.652893 92.0
209.684586 60.0
209.843124 132.0
210.154617 44.0
210.284485 184.0
210.518326 116.0
211.023972 64.0
211.084702 264.0
211.104935 368.0
211.197479 152.0
211.449203 112.0
211.65184 72.0
211.71843 152.0
211.880951 184.0
212.040009 196.0
212.060303 36.0
212.08638 168.0
212.125305 436.0
212.154236 224.0
212.242935 60.0
212.686783 184.0
213.13623 444.0
213.256073 48.0
213.424683 100.0
213.474106 140.0
213.767914 72.0
214.062851 188.0
214.096863 76.0
214.130737 116.0
214.18132 64.0
214.312424 52.0
214.647614 80.0
214.819687 36.0
215.018097 148.0
215.064453 232.0
215.20784 68.0
215.470703 200.0
216.07634 432.0
216.173477 168.0
216.24852 52.0
216.342178 104.0
216.526657 160.0
216.54715 84.0
216.576447 44.0
216.734634 84.0
216.928055 140.0
216.977905 84.0
217.010147 152.0
217.056381 156.0
217.090775 1280.0
217.38266 68.0
217.548737 48.0
217.570511 56.0
217.690887 100.0
217.749619 164.0
218.002274 184.0
218.040466 92.0
218.095673 148.0
218.352112 172.0
218.390335 240.0
219.078217 180.0
219.115463 176.0
219.149841 152.0
219.235916 188.0
219.379715 136.0
219.4888 44.0
219.825073 176.0
219.919754 192.0
220.089493 492.0
220.120255 112.0
220.285645 124.0
220.365402 84.0
220.483612 144.0
220.516113 52.0
220.640259 140.0
221.102295 452.0
221.152008 104.0
221.294098 144.0
222.100143 108.0
222.281113 132.0
222.810364 188.0
222.869034 52.0
222.970062 52.0
223.06517 148.0
223.117371 316.0
223.148209 436.0
223.541031 64.0
224.076981 160.0
224.12027 184.0
224.169357 132.0
224.568832 120.0
224.738876 160.0
225.100037 176.0
225.336685 160.0
225.887695 184.0
226.121429 212.0
226.439789 96.0
226.547623 116.0
226.859283 176.0
227.642349 108.0
227.762482 124.0
227.792526 208.0
227.86763 104.0
228.09903 188.0
228.273392 124.0
228.820068 128.0
228.881226 128.0
229.016739 124.0
229.08754 6056.0
229.179413 64.0
229.203522 48.0
229.224609 120.0
229.426544 228.0
229.725098 116.0
229.82164 68.0
229.930267 256.0
230.017792 44.0
230.092026 948.0
230.268402 140.0
230.398285 52.0
230.422455 96.0
230.689728 100.0
230.836548 124.0
230.951462 124.0
231.088531 284.0
231.3862 132.0
231.790039 148.0
231.874893 112.0
231.899139 112.0
231.962799 92.0
232.205353 68.0
232.259949 176.0
232.742477 64.0
233.070526 204.0
233.09787 132.0
233.13208 184.0
233.298462 52.0
233.547806 68.0
234.065155 196.0
234.09256 152.0
234.123016 160.0
234.147385 40.0
234.241806 196.0
234.418503 112.0
234.47641 180.0
234.650162 64.0
234.942932 176.0
235.019196 88.0
235.114166 2932.0
235.145889 348.0
235.217575 152.0
235.248093 64.0
235.382431 44.0
235.40686 196.0
235.443497 112.0
235.635941 64.0
235.748993 220.0
236.115494 636.0
236.170898 156.0
236.333023 52.0
237.091461 1100.0
237.227295 160.0
237.871475 116.0
238.0979 272.0
238.132462 124.0
238.522675 64.0
238.639496 52.0
239.094925 172.0
239.214783 108.0
240.142242 52.0
240.413727 240.0
240.561874 72.0
240.827423 96.0
240.867584 140.0
240.994247 204.0
241.093124 152.0
241.27858 88.0
241.355881 144.0
241.628052 96.0
241.795135 104.0
242.148071 128.0
242.557068 144.0
243.067154 156.0
243.114487 216.0
243.919739 96.0
244.072067 96.0
244.118713 252.0
244.175888 344.0
244.551147 112.0
244.731705 156.0
245.102051 436.0
245.133514 44.0
245.155334 100.0
245.248825 72.0
245.357925 108.0
245.448349 60.0
245.782104 92.0
245.869476 132.0
246.107513 292.0
246.156662 136.0
247.108475 140.0
247.447998 92.0
247.863281 136.0
247.974243 176.0
248.204498 188.0
248.507339 128.0
248.814911 80.0
248.990738 148.0
249.086823 176.0
249.238907 144.0
249.84256 148.0
249.877167 156.0
250.075409 76.0
250.099426 380.0
250.3367 80.0
250.409134 76.0
250.623352 164.0
250.92276 56.0
250.960602 188.0
251.061508 60.0
251.106369 1208.0
251.1427 944.0
251.209747 84.0
251.231827 64.0
251.402206 104.0
251.825241 144.0
252.040054 84.0
252.079971 228.0
252.115784 972.0
252.2202 40.0
252.352966 40.0
252.669235 36.0
253.124191 280.0
253.292862 92.0
253.723831 128.0
253.847473 52.0
253.891876 200.0
254.117615 100.0
254.659912 124.0
254.685318 112.0
254.939484 68.0
255.24147 136.0
255.362305 196.0
255.715454 208.0
256.097534 176.0
256.400177 164.0
256.432068 100.0
256.5755 88.0
257.082031 2328.0
257.283722 48.0
257.440186 52.0
257.625427 192.0
257.93219 68.0
258.082916 464.0
258.12793 124.0
258.642303 72.0
258.760742 40.0
259.090942 384.0
260.136017 92.0
260.457123 164.0
260.749512 60.0
261.051697 116.0
261.088318 168.0
261.130035 576.0
261.872345 136.0
262.136505 104.0
262.529785 68.0
262.797516 168.0
262.945953 116.0
263.110748 896.0
263.142456 144.0
263.637054 48.0
263.70816 92.0
263.882721 176.0
264.037933 124.0
264.1138 892.0
264.532959 104.0
265.087006 1024.0
265.123871 492.0
265.537415 64.0
265.796906 164.0
265.865051 120.0
266.092865 552.0
266.391052 68.0
266.494995 80.0
266.673737 212.0
266.781006 44.0
266.976074 132.0
267.104156 308.0
268.271942 220.0
269.13324 108.0
269.162628 188.0
269.205078 120.0
269.525177 140.0
269.557861 128.0
269.937042 196.0
270.159454 84.0
270.359039 108.0
271.12207 188.0
271.377747 192.0
271.896027 136.0
273.141266 120.0
273.289307 108.0
274.023499 156.0
274.107574 836.0
274.188263 136.0
274.35965 80.0
275.112671 160.0
275.418915 152.0
275.590668 144.0
276.122894 92.0
276.228729 96.0
276.52652 232.0
276.857574 148.0
277.089447 164.0
277.328033 208.0
278.01123 164.0
278.087555 156.0
278.273438 148.0
278.432831 68.0
278.88092 124.0
278.93454 136.0
279.067505 276.0
279.103119 2508.0
279.139038 3976.0
279.199677 156.0
279.390106 52.0
279.43335 192.0
279.526215 44.0
279.552216 144.0
279.61969 188.0
279.716217 80.0
279.752838 112.0
279.82608 208.0
280.044067 164.0
280.112488 3392.0
280.143433 1276.0
280.202423 140.0
280.322357 136.0
280.359009 172.0
280.412354 40.0
280.655701 72.0
280.829102 296.0
280.902344 88.0
281.058044 240.0
281.119598 18616.0
281.259521 48.0
281.286224 56.0
281.363007 60.0
281.41748 76.0
281.446472 92.0
281.476532 60.0
281.503235 48.0
281.658264 48.0
281.740356 80.0
281.794495 80.0
281.823883 96.0
281.904083 52.0
281.984283 96.0
282.014374 88.0
282.081238 180.0
282.123047 4560.0
282.261749 80.0
282.348694 60.0
282.412262 88.0
282.533569 60.0
282.636383 116.0
282.711609 64.0
282.872131 128.0
283.007416 80.0
283.078217 48.0
283.128113 716.0
283.163635 168.0
283.228943 48.0
283.349548 48.0
283.661804 108.0
283.87912 72.0
283.956238 68.0
284.079224 120.0
284.734863 88.0
284.778534 40.0
285.131287 72.0
285.521271 56.0
285.662537 32.0
285.71637 156.0
285.881226 148.0
286.009125 72.0
287.289581 160.0
287.552765 128.0
287.633789 68.0
288.109924 144.0
288.610107 216.0
289.125885 516.0
289.530518 192.0
290.011627 60.0
290.120178 128.0
290.391357 180.0
290.672913 52.0
291.111511 168.0
291.141388 128.0
292.702209 108.0
293.118408 308.0
293.168884 44.0
293.260895 52.0
293.332489 88.0
294.117004 180.0
294.612152 56.0
294.93335 36.0
295.001709 36.0
295.124786 60.0
296.100037 220.0
296.171967 148.0
296.230194 212.0
296.720245 64.0
296.857391 68.0
297.148956 124.0
297.413574 108.0
300.658691 60.0
302.999573 156.0
303.03421 124.0
303.110443 112.0
303.564545 100.0
303.866302 128.0
304.821136 120.0
305.116577 96.0
305.439972 48.0
305.547821 92.0
305.760071 60.0
306.095947 124.0
306.655121 112.0
306.714844 180.0
306.740692 128.0
306.787567 32.0
306.843353 216.0
306.899933 208.0
306.958405 96.0
306.984924 100.0
307.007874 184.0
307.056854 412.0
307.134949 27040.0
307.246796 164.0
307.256012 112.0
307.315735 36.0
307.375488 88.0
307.410309 72.0
307.460754 60.0
307.527069 84.0
307.554993 40.0
307.623169 180.0
307.670166 56.0
307.705078 72.0
307.764435 52.0
307.801117 48.0
307.910858 56.0
307.934387 156.0
308.033356 48.0
308.137512 6816.0
308.217438 208.0
308.298889 80.0
308.373016 112.0
308.471649 92.0
308.51004 68.0
308.557526 48.0
308.599487 160.0
308.623962 52.0
308.800171 92.0
308.928223 84.0
309.05069 44.0
309.141113 1168.0
309.279541 80.0
309.365662 56.0
309.421661 68.0
309.60376 60.0
309.660583 52.0
309.792877 48.0
309.901489 148.0
309.936523 48.0
309.971558 64.0
310.003113 84.0
310.048645 68.0
310.143677 104.0
310.202881 56.0
310.389984 120.0
310.651733 60.0
310.683289 96.0
310.794403 96.0
311.072815 88.0
311.216766 116.0
311.332642 64.0
311.487183 84.0
311.778778 92.0
311.936951 80.0
312.408142 112.0
313.954376 60.0
314.031982 96.0
317.120636 152.0
319.127747 76.0
319.664856 128.0
320.654846 60.0
321.129028 80.0
321.300232 84.0
321.603546 52.0
321.892731 108.0
322.057007 248.0
323.147308 68.0
323.687775 76.0
325.494995 64.0
326.184784 176.0
326.346558 84.0
329.348419 152.0
329.966339 72.0
332.305969 136.0
333.017456 68.0
334.348083 56.0
334.974335 128.0
335.129547 1892.0
335.922089 60.0
336.132629 780.0
337.126801 228.0
337.375488 72.0
337.492462 112.0
339.451416 136.0
340.097107 52.0
343.891815 120.0
346.154297 156.0
346.450592 144.0
347.310577 56.0
348.621124 144.0
350.179901 200.0
351.249634 112.0
351.887756 68.0
352.048309 140.0
352.157379 1900.0
352.25 148.0
352.298553 40.0
353.161896 832.0
353.206909 184.0
354.15387 152.0
354.719666 164.0
355.175964 104.0
356.183075 140.0
356.528748 64.0
357.736084 112.0
357.875366 48.0
358.071198 72.0
358.971863 164.0
361.896454 72.0
362.089569 96.0
364.15274 344.0
364.818451 80.0
365.148468 152.0
367.170746 116.0
368.187073 456.0
368.422699 64.0
368.812469 76.0
368.858337 88.0
369.203125 104.0
369.558167 32.0
369.948547 32.0
370.580444 48.0
371.535065 84.0
373.182648 92.0
377.554443 84.0
382.918793 60.0
385.110687 100.0
385.692871 80.0
386.068207 40.0
386.850708 68.0
387.050385 48.0
390.228485 72.0
396.171936 192.0
396.405701 168.0
398.242493 100.0
399.741272 128.0
401.09137 112.0
403.990387 84.0
404.134399 156.0
405.5961 96.0
406.169495 88.0
407.98053 80.0
410.335632 180.0
413.385162 160.0
414.187927 220.0
415.20047 164.0
417.222076 140.0
417.937866 108.0
418.6828 148.0
419.26944 72.0
421.313629 80.0
422.249664 100.0
423.158081 104.0
423.280884 116.0
425.626312 92.0
427.072876 56.0
428.233551 108.0
430.237518 140.0
435.371765 76.0
438.550262 76.0
440.306732 68.0
440.987701 108.0
443.498962 136.0
443.771454 128.0
444.606171 96.0
445.223297 92.0
445.580322 108.0
445.731567 52.0
445.819824 96.0
446.021576 192.0
446.084625 92.0
446.135071 116.0
446.235291 8028.0
446.328461 52.0
446.370514 92.0
446.505066 36.0
446.534515 92.0
446.64386 28.0
446.78653 92.0
446.896271 156.0
446.974976 68.0
447.051971 72.0
447.144531 136.0
447.236053 1968.0
447.3508 68.0
447.477081 52.0
447.519196 68.0
447.557068 60.0
447.632507 48.0
447.800934 88.0
447.968567 68.0
448.242126 336.0
448.433289 52.0
448.64679 80.0
448.788544 88.0
449.365204 80.0
449.432709 52.0
449.643707 60.0
449.804077 56.0
449.909607 68.0
449.994049 100.0
450.226288 84.0
450.262512 88.0
450.914917 80.0
457.076599 120.0
457.131897 44.0
459.193787 68.0
461.901703 56.0
473.098663 120.0
475.22226 36.0
475.929718 64.0
476.264099 160.0
479.392151 96.0
481.189209 176.0
482.735931 84.0
489.898804 68.0
492.236328 180.0
498.228851 112.0
502.779388 100.0
513.124146 84.0
513.921326 40.0
525.673523 124.0
526.490662 84.0
536.023071 60.0
540.645508 92.0
542.289551 52.0
542.850525 48.0
549.217285 196.0
551.308899 52.0
557.565125 52.0
564.967834 104.0
565.980652 60.0
567.515808 96.0
569.727417 84.0
575.561646 56.0
582.784546 76.0
590.202393 68.0
591.102051 52.0
600.1073 92.0
609.544128 52.0
615.000732 116.0
619.044739 116.0
645.911743 160.0
646.265808 88.0
669.141785 100.0
679.618164 52.0
682.152466 36.0
683.171692 88.0
683.234131 56.0
684.176025 44.0
693.012695 116.0
699.593201 72.0
699.677429 76.0
707.172974 136.0
722.829529 28.0
730.248779 56.0
733.44696 88.0
750.671021 196.0
758.779541 76.0
772.265198 36.0
783.483459 76.0
783.951477 72.0
785.668762 188.0
786.267395 68.0
786.38855 76.0
794.131836 152.0
800.482239 148.0
805.880127 120.0
811.619324 84.0
813.922974 96.0
829.922058 180.0
834.446289 44.0
838.233521 124.0
843.652954 52.0
846.910706 48.0
847.229309 92.0
857.898682 200.0
865.51123 204.0
871.282349 52.0
877.685791 112.0
883.828552 148.0
884.154053 132.0
887.210327 72.0
891.727417 64.0
894.255066 212.0
901.554688 132.0
924.64209 252.0
925.453186 156.0
930.303223 88.0
936.18866 52.0
939.083435 212.0
939.717834 164.0
944.513245 160.0
947.43927 88.0
952.113098 156.0
954.755615 152.0
954.995483 136.0
961.19281 208.0
966.642822 292.0
971.680054 156.0
985.182983 148.0
991.52124 144.0
998.766541 176.0
998.854553 176.0
1003.268799 220.0
1003.86145 156.0
1004.290283 80.0
1008.078186 164.0
1013.881104 188.0
1014.280396 132.0
1014.400818 212.0
1014.44519 216.0
1022.040771 136.0
1022.390747 160.0
1023.027222 140.0
1024.409058 160.0
1028.049561 80.0
1029.60083 224.0
1033.935181 156.0
1034.524048 128.0
1034.773682 160.0
1034.829956 96.0
1036.349243 56.0
1037.740112 140.0
1039.446167 56.0
1043.92981 160.0
1044.219238 172.0
1047.482422 152.0
1050.318604 132.0
1058.901733 116.0
1059.821533 220.0
1065.894775 188.0
1066.219727 192.0
1070.265747 32.0
1070.311279 136.0
1072.135254 80.0
1076.701782 148.0
1077.805786 92.0
1080.820068 100.0
1083.451904 108.0
1084.978882 204.0
1087.845581 200.0
1089.152222 160.0
1092.71521 144.0
1093.327148 132.0
1097.608765 140.0
1098.083618 136.0
1110.351685 216.0
1110.66333 152.0
1113.822754 92.0
1117.53894 228.0
1120.68811 204.0
1123.941895 104.0
1125.583862 164.0
1126.438721 120.0
1132.418335 220.0
1132.72644 128.0
1135.849976 96.0
1136.769043 40.0
1144.249878 176.0
1148.778442 156.0
1149.297974 156.0
1154.742676 68.0
1155.019897 168.0
1156.434082 76.0
1157.517212 132.0
1157.578125 132.0
1162.696167 184.0
1164.733032 52.0
1165.086182 172.0
1166.14624 52.0
1166.628784 132.0
1167.308716 164.0
1168.138428 132.0
1170.656616 208.0
1170.786011 32.0
1172.639038 160.0
1173.082031 176.0
1175.721558 156.0
1177.667358 148.0
1181.296753 156.0
1185.096313 40.0
1186.309326 116.0
1192.59668 192.0
1192.981689 176.0
1193.125977 72.0
1193.696655 120.0
1193.854858 152.0
1194.398193 128.0
1196.496948 140.0
1197.998169 216.0
1198.514893 156.0
1204.723999 212.0
1205.269775 192.0
1206.921753 140.0
1221.033203 144.0
1222.786377 136.0
1223.927979 132.0
1225.899292 124.0
1227.021484 168.0
1229.19751 140.0
1230.174683 156.0
1232.297607 192.0
1232.535156 172.0
1233.450684 192.0
1235.303711 200.0
1235.555542 144.0
1235.737427 156.0
1236.024292 176.0
1238.68457 64.0
1238.908691 204.0
1241.701904 168.0
1242.96106 72.0
1243.484619 180.0
1244.694824 188.0
1248.179932 180.0
1248.601929 160.0
1249.417847 116.0
1250.086182 164.0
1250.511353 48.0
1254.255493 156.0
1258.120972 176.0
1259.596802 180.0
1260.487061 212.0
1263.102783 168.0
1263.159424 124.0
1263.987061 180.0
1264.900024 76.0
1265.069946 88.0
1267.435425 52.0
1268.207764 156.0
1269.29248 148.0
1271.924438 160.0
1280.242554 116.0
1286.852417 164.0
1287.602173 144.0
1290.86792 128.0
1293.729858 176.0
1293.894409 160.0
1295.412598 192.0
1296.308228 148.0
1297.606689 120.0
1298.989502 160.0
1300.489136 128.0
1300.604004 172.0
1301.106445 180.0
1301.824463 156.0
1303.390381 56.0
1303.677734 124.0
1304.295898 76.0
1304.950073 160.0
1305.913574 212.0
1306.352295 160.0
1308.043335 196.0
1313.339233 160.0
1314.190552 164.0
1316.760254 172.0
1317.865479 204.0
1322.095459 184.0
1322.83374 28.0
1323.09436 200.0
1323.774902 104.0
1324.071777 56.0
1328.906616 72.0
1329.429077 184.0
1329.501709 188.0
1329.755615 104.0
1330.154907 220.0
1330.641235 104.0
1332.122681 136.0
1332.536743 140.0
1334.084717 172.0
1334.928101 200.0
1335.022583 104.0
1336.673828 108.0
1338.185303 180.0
1341.079712 108.0
1341.152588 152.0
1342.960693 200.0
1343.748535 164.0
1345.222656 184.0
1346.704834 196.0
1347.844482 60.0
1348.385254 116.0
1349.532837 160.0
1349.764404 224.0
1350.359253 160.0
1353.015259 152.0
1353.227661 192.0
1354.46521 148.0
1354.597046 196.0
1356.920044 164.0
1357.484619 212.0
1357.579956 168.0
1357.843994 152.0
1357.90271 236.0
1359.245117 80.0
1359.612061 184.0
1359.66333 180.0
1360.881836 236.0
1361.46936 132.0
1361.594116 160.0
1362.284546 156.0
1362.460815 148.0
1365.172974 156.0
1366.246826 52.0
1368.16748 136.0
1369.883301 192.0
1371.24646 184.0
1374.727173 168.0
1374.80835 148.0
1375.568604 56.0
1376.033691 136.0
1376.986206 168.0
1378.700073 128.0
1380.807007 180.0
1381.258179 152.0
1385.899902 100.0
1388.345947 152.0
1389.11731 240.0
1391.892944 140.0
1392.078613 248.0
1392.145386 184.0
1394.128784 200.0
1395.883057 200.0
1396.381348 136.0
1398.806885 128.0
1403.216919 156.0
1403.366089 144.0
1403.716553 208.0
1404.044678 184.0
1404.917236 152.0
1407.775879 204.0
1410.921387 116.0
1418.954224 156.0
1422.960449 144.0
1424.822998 104.0
1425.243774 200.0
1426.724243 112.0
1426.949829 104.0
1428.220703 204.0
1429.619995 120.0
1429.921021 188.0
1431.456665 208.0
1431.87085 44.0
1431.96875 180.0
1432.857666 84.0
1433.987915 184.0
1434.085815 108.0
1434.31958 140.0
1434.794434 152.0
1435.375 40.0
1436.295044 128.0
1438.437988 156.0
1440.877075 188.0
1441.096191 164.0
1443.106567 164.0
1446.556274 156.0
1447.76001 168.0
1448.252319 132.0
1450.154053 192.0
1450.980225 212.0
1451.351685 180.0
1452.557495 128.0
1453.225098 224.0
1453.581665 168.0
1453.695557 104.0
1456.352661 168.0
1457.074219 220.0
1458.776489 216.0
1459.255371 140.0
1461.050171 196.0
1461.734985 108.0
1462.206787 232.0
1464.704102 216.0
1465.275391 168.0
1465.473511 84.0
1466.829956 108.0
1467.333008 128.0
1467.401733 140.0
1469.92627 184.0
1470.971802 140.0
1473.690552 176.0
1474.148926 96.0
1475.410034 188.0
1475.799927 176.0
1476.151733 80.0
1476.220459 144.0
1476.855225 104.0
1477.444214 196.0
1479.154297 204.0
1479.862549 148.0
1480.965332 184.0
1484.183838 116.0
1484.268188 148.0
1484.705322 80.0
1485.602661 160.0
1485.786743 172.0
1487.590088 188.0
1489.678833 168.0
1492.337769 244.0
1496.546265 132.0
1498.017212 56.0
1499.851074 144.0
1500.290527 72.0
1500.922729 124.0
1501.169434 160.0
1502.75061 164.0
1503.653442 180.0
1503.7229 112.0
