>compound Aerucyclamide B
>formula C24H32N6O4S2 
>ionization [M+H]+
>parentmass 533.1999219560905
#inchi InChI=1S/C24H32N6O4S2/c1-6-11(3)17-23-30-19(13(5)34-23)22(33)25-8-16-26-14(9-35-16)20(31)29-18(12(4)7-2)24-27-15(10-36-24)21(32)28-17/h9-13,17-19H,6-8H2,1-5H3,(H,25,33)(H,28,32)(H,29,31)/t11-,12-,13+,17-,18+,19-/m0/s1
#inchikey JFWABYMXSVHLEW
#Ion_Source LC-ESI
#Instrument LCQ
#Compound_Source Crude
#PI Gerwick
#Data_Collector E Briand
#Scan -1
#Precursor_MZ 533.21
#ExactMass 533.2
#Charge 1
#CAS_Number N/A
#Pubmed_ID 18558743
#Smiles N/A
#INCHI_AUX N/A
#Library_Class 2
#SpectrumID CCMSLIB00000071751
#IonMode Positive
#UpdateWorkflowName UPDATE-SINGLE-ANNOTATED-SILVER
#LibraryQualityString Silver
#TaskID 6e221885dc494bf18708e4b1149ba4da
##Scan# 527
#SpectrumFile AerucyclamideB_MSMS.mzXML
#LibraryName gnps_library.mgf
#MQScore -1
#Organism GNPS_Standard_Enora
#TIC_Query 0
#RT_Query -1
#MZErrorPPM -1
#SharedPeaks 0
#MassDiff 0
#LibMZ -1
#SpecMZ 533.21
#SpecCharge 0
#internalFilename spec-00000.mgf

>collision 10
151.765106 1333.0
168.109009 3300.0
179.95636 12239.0
196.878082 45166.0
197.901031 65471.0
198.81076 17639.0
208.880707 5553.0
210.343933 1918.0
214.34256 1252.0
224.156158 1877.0
225.488068 6833.0
235.935822 691.0
240.907349 4699.0
244.864166 2837.0
246.676056 2783.0
250.598236 737.0
262.879883 1883.0
264.21521 1397.0
264.989441 161844.0
265.916077 25008.0
266.709473 1728.0
281.156738 4460.0
292.908936 27874.0
293.767578 10199.0
304.303711 1261.0
332.074524 4609.0
332.912354 1126.0
336.997559 30764.0
338.112854 13813.0
338.898438 4425.0
348.034058 1247.0
351.061646 5524.0
353.924194 1195.0
357.887329 1802.0
368.55011 1118.0
375.927856 7686.0
377.133057 3292.0
380.387817 3009.0
392.929749 635.0
394.077271 7273.0
402.180359 3909.0
419.97406 13550.0
421.272949 8682.0
421.977234 13069.0
422.879333 1473.0
432.230164 3843.0
433.939087 1274.0
447.315796 1931.0
447.98175 20029.0
449.172729 3915.0
450.081787 9345.0
450.962097 5294.0
461.159729 2644.0
462.085449 1623.0
465.091919 3459.0
471.098633 2622.0
475.771729 2217.0
477.652161 3393.0
487.828308 6769.0
489.146423 44952.0
490.040466 16060.0
504.918945 24236.0
506.397461 1603.0
515.109375 85129.0
516.067627 26626.0
532.183228 9860.0
