>compound Blonanserin (Lonasen)
>formula C23H30FN3
>ionization [M+H]+
>parentmass 368.249451
#inchi InChI=1S/C23H30FN3/c1-2-26-13-15-27(16-14-26)23-17-21(18-9-11-19(24)12-10-18)20-7-5-3-4-6-8-22(20)25-23/h9-12,17H,2-8,13-16H2,1H3
#inchikey XVGOZDAJGBALKS
#Ion_Source LC-ESI
#Instrument qTof
#Compound_Source Commercial
#PI Dorrestein
#Data_Collector Garg_Neha
#Scan -1
#Precursor_MZ 368.25
#ExactMass 367.242
#Charge 1
#CAS_Number 132810-10-7
#Pubmed_ID N/A
#Smiles C1(C2=CC=C(C=C2)F)=C3C(=NC(=C1)N4CCN(CC4)CC)CCCCCC3
#INCHI_AUX N/A
#Library_Class 1
#SpectrumID CCMSLIB00000078443
#IonMode Positive
#UpdateWorkflowName UPDATE-SINGLE-ANNOTATED-GOLD
#LibraryQualityString Gold
#TaskID 77f51c88eb8b467eb4a01dd2d0cb90d2
##Scan# 1141
#SpectrumFile Plate7_1_20_GD2_01_15767.mzXML
#LibraryName FDALibrary_2_04302014.mgf
#MQScore -1
#Organism FDALibrary_2_04302014
#TIC_Query 0
#RT_Query -1
#MZErrorPPM -1
#SharedPeaks 0
#MassDiff 0
#LibMZ -1
#SpecMZ 368.25
#SpecCharge 0
#internalFilename spec-00000.mgf

>collision 10
58.36282 144.0
61.594959 156.0
69.395737 176.0
81.735504 160.0
87.805733 192.0
98.097191 724.0
105.673538 160.0
117.517403 140.0
118.182899 144.0
119.395523 160.0
122.358391 140.0
124.052872 160.0
135.512009 168.0
136.980286 156.0
144.081726 152.0
145.869507 144.0
146.772339 148.0
154.446411 140.0
160.064514 148.0
160.934433 168.0
161.098602 156.0
163.014099 152.0
166.629745 196.0
167.308716 140.0
170.817902 264.0
172.050552 300.0
172.084488 156.0
174.06665 160.0
174.326721 156.0
178.538101 216.0
182.939728 160.0
187.389481 144.0
187.558441 244.0
189.789307 188.0
192.742844 176.0
206.497589 152.0
207.390915 152.0
209.905975 172.0
213.106125 164.0
223.086411 160.0
226.09903 144.0
227.09465 568.0
228.103104 256.0
229.111954 1180.0
230.112488 152.0
231.124619 160.0
231.533295 156.0
232.354752 176.0
233.056122 156.0
234.708939 152.0
240.309891 212.0
241.116745 180.0
242.108948 148.0
250.835968 160.0
253.120239 172.0
254.126984 372.0
255.119553 276.0
256.048248 160.0
264.577057 184.0
266.360657 184.0
268.123901 148.0
269.994873 140.0
270.155151 168.0
271.156952 724.0
272.161041 156.0
272.528839 168.0
272.785187 156.0
278.090118 152.0
281.769836 152.0
283.047516 156.0
283.158936 572.0
284.161072 148.0
285.322388 220.0
294.714508 160.0
295.160553 468.0
295.925323 140.0
296.164337 140.0
296.312347 160.0
296.785339 168.0
296.950226 136.0
296.986572 212.0
297.096375 168.0
297.175446 37244.0
297.243713 120.0
297.308319 96.0
297.364227 124.0
297.762207 156.0
298.178192 5540.0
298.353058 96.0
299.181458 992.0
299.637878 128.0
299.998444 136.0
300.334564 136.0
300.36203 160.0
300.3909 184.0
304.161469 164.0
310.175262 156.0
311.182129 292.0
323.190704 2668.0
323.63501 144.0
324.194427 740.0
325.111908 148.0
325.202026 660.0
325.765381 188.0
326.211243 200.0
327.751373 140.0
333.258545 144.0
334.910156 152.0
337.195984 372.0
339.208679 184.0
350.450165 168.0
352.894928 156.0
357.083679 176.0
363.453033 168.0
366.163513 172.0
366.233154 288.0
367.247772 120.0
368.103271 296.0
368.165771 160.0
368.249451 41220.0
368.525269 144.0
368.8479 112.0
369.251648 7056.0
369.359924 192.0
369.398376 140.0
369.540161 124.0
370.254303 1800.0
371.264191 148.0
371.330841 148.0
371.664581 144.0
371.745178 140.0
372.005585 104.0
372.381012 136.0
605.722229 188.0
1865.778931 152.0
