>compound Fluocinonide
>formula C26H32F2O7 
>ionization [M+H]+
>parentmass 495.2188862560905
#inchi InChI=1S/C26H32F2O7/c1-13(29)33-12-20(32)26-21(34-22(2,3)35-26)10-15-16-9-18(27)17-8-14(30)6-7-23(17,4)25(16,28)19(31)11-24(15,26)5/h6-8,15-16,18-19,21,31H,9-12H2,1-5H3/t15-,16-,18-,19-,21+,23-,24-,25-,26+/m0/s1
#inchikey WJOHZNCJWYWUJD
#Ion_Source LC-ESI
#Instrument qTof
#Compound_Source Isolated
#PI Sirenas
#Data_Collector Ed Esquenazi 
#Scan -1
#Precursor_MZ 495.221
#ExactMass 0.0
#Charge 1
#CAS_Number N/A
#Pubmed_ID N/A
#Smiles N/A
#INCHI_AUX N/A
#Library_Class 3
#SpectrumID CCMSLIB00000005047
#IonMode Positive
#UpdateWorkflowName UPDATE-SINGLE-ANNOTATED-BRONZE
#LibraryQualityString Bronze
#TaskID d19310cd93df49b68e9fcbec27720eb5
##Scan# 3
#SpectrumFile Fluocinonide.mgf
#LibraryName fda_library.mgf
#MQScore -1
#Organism fda_library
#TIC_Query 0
#RT_Query -1
#MZErrorPPM -1
#SharedPeaks 0
#MassDiff 0
#LibMZ -1
#SpecMZ 495.221
#SpecCharge 0
#internalFilename spec-00000.mgf

>collision 10
101.024353 381.343994
101.074921 9.75
103.054756 83.940262
105.068642 223.181702
107.048424 186.782806
108.713669 17.975309
109.063644 42.680561
109.148323 11.01389
109.641785 9.25641
111.039871 12.44983
111.077805 57.097229
113.060936 57.023399
115.037514 11.7037
115.052834 91.171387
116.263245 3.208333
117.070343 68.522331
117.212334 4.037037
119.046539 90.744827
119.167664 9.933333
120.53492 11.42178
120.57695 4.120098
120.642891 5.414216
121.064926 1988.740967
121.112373 17.11002
121.12574 2.958333
121.158333 37.273319
121.192757 8.342949
121.199379 7.558333
121.226776 33.135422
121.265434 2.722222
121.442673 6.818182
121.468689 20.44907
121.786415 6.225
122.409843 5.00641
122.502289 19.97304
122.611755 16.26449
123.044487 191.000397
123.05825 77.630951
123.077255 51.898499
123.092064 5.001984
123.285126 7.009615
123.292854 8.667735
125.061378 51.806499
125.07299 44.09465
125.294762 6.440476
125.449966 16.111771
129.069916 202.0439
129.103043 4.259615
130.279984 7.573412
130.546677 8.680555
132.385925 10.22685
133.045898 33.587399
133.064178 257.343506
133.259552 5.378623
133.444351 4.44079
133.822418 7.242816
134.59288 9.630208
135.041641 54.921589
135.080811 519.929077
135.129471 2.333333
135.207123 10.37255
135.368179 3.727941
135.513931 4.734848
136.788879 6.673611
136.849594 4.684524
136.979965 6.25
137.585724 4.111111
138.077805 29.605551
139.055161 89.14386
139.074677 64.423538
139.446045 16.668699
141.069885 114.174599
142.07962 66.678886
143.084198 51.585419
143.110031 8.818548
143.209488 2.666667
143.338089 4.558333
145.063461 329.329498
145.588211 5.88587
145.764496 6.002193
145.89473 2.0
145.952148 8.027778
146.197433 6.75
147.040588 12.37083
147.078705 179.647202
147.263596 7.880051
147.301682 16.04344
147.331146 9.046875
147.394516 7.415
148.609146 2.669444
149.059326 121.029999
149.076645 46.362999
149.384125 5.458333
149.428772 6.001984
150.283707 2.482143
150.908005 3.722222
151.03717 52.28804
151.055939 112.587601
151.076309 81.818962
151.113144 3.020833
151.20311 4.008333
151.376678 23.00481
153.070114 48.337502
155.051895 30.381781
155.08606 7.703703
156.098373 20.891199
157.064636 45.54855
157.096207 37.632179
158.074585 23.01042
159.058578 30.39333
159.081207 203.605301
159.484085 4.002451
159.958908 8.075618
161.056976 164.210999
161.078552 26.34375
161.092056 69.12841
161.228592 10.04688
161.37059 8.112655
161.542404 4.120098
162.043625 34.843842
163.074112 58.52874
164.464966 14.4
165.068451 109.013802
165.094131 9.506945
166.113083 12.125
167.064285 27.449881
167.589264 7.463542
169.06427 104.998398
169.365845 9.177083
169.586456 10.29643
171.079712 684.734802
171.1754 4.898148
171.352631 2.761364
172.108307 4.926282
172.653015 2.00463
172.703293 3.010417
173.092896 26.89362
173.321777 5.633333
174.252029 5.339285
174.854141 12.1
175.07608 29.39139
175.384537 6.408333
177.070786 218.358398
177.101624 5.336111
177.421234 4.120098
179.04892 64.031548
179.082184 73.376846
180.059402 37.583328
181.061935 82.140823
181.100174 54.973042
182.068878 110.730698
182.24028 14.29167
183.081116 222.6707
183.112427 65.868958
183.227341 10.02222
185.058685 33.24107
185.097183 168.709198
185.234604 10.02564
185.501587 4.013889
187.072922 55.005508
188.079056 40.340401
189.064011 14.3623
189.271545 8.391666
189.436142 8.760417
191.068024 52.5933
191.086487 69.334511
192.095932 47.121689
193.085678 27.35376
194.072662 63.189789
194.466232 5.88587
195.057724 23.775539
195.078949 145.519501
195.350098 11.39054
195.817474 39.710072
196.182724 7.347222
196.343445 7.656609
197.096008 116.877098
198.06694 56.584541
198.100906 92.654953
198.373154 5.160714
199.073242 86.077431
199.085709 14.12247
199.109009 75.539726
199.211166 10.00126
199.304352 20.2838
199.842209 3.760417
201.031143 6.0
201.093292 112.628098
203.07074 117.235603
203.084274 121.847801
203.32637 11.53846
203.435516 4.694444
204.055893 34.435902
205.067108 443.539886
205.09903 204.835495
205.220764 8.031566
205.302872 16.75362
205.352386 5.333333
205.754364 11.68883
206.522079 15.52134
207.058792 26.00231
207.084259 44.006271
207.114197 68.666893
208.084961 130.062103
209.093918 173.127701
209.448944 3.125
209.463654 1.666667
210.072525 20.667431
211.073959 48.40834
211.110489 429.427612
212.333298 6.201666
213.090424 82.551582
213.125198 40.992599
214.074615 44.211109
215.08931 31.0928
215.108582 50.680561
215.891174 4.09375
217.099213 13.68314
219.116196 60.052689
219.190781 5.0
220.088684 78.830421
221.091766 182.714706
221.648666 3.341666
221.792374 41.179859
222.064911 15.81718
222.100861 125.695999
222.70192 4.09375
222.722702 12.33435
223.068924 22.817181
223.110596 354.365509
223.185165 2.700758
223.715454 10.34248
223.799713 5.4
224.085526 43.14613
224.916245 14.50417
225.073181 89.625
225.09053 71.599327
225.124847 107.832901
225.190445 2.0
225.765076 6.366936
226.092834 97.343498
227.101776 37.66806
227.144333 33.384129
227.940094 9.68889
229.106659 9.801667
229.971466 10.04167
230.108566 51.53775
230.75354 11.86404
231.080643 41.234631
231.119125 113.928299
231.416092 6.054487
231.467743 3.555556
231.983765 2.816667
232.013962 15.40789
233.092911 63.764839
233.126312 85.030167
233.185242 17.55147
233.307098 6.022059
233.764359 7.449713
234.019424 24.71558
234.103668 85.809517
235.083694 61.586849
235.108948 512.927979
235.149338 4.675926
235.480209 6.375
235.530624 16.605551
235.662262 5.391026
235.688461 4.017857
236.452789 22.35487
236.645432 13.04598
237.091125 14.29167
237.123077 73.300377
237.749268 3.683333
238.938477 16.639179
239.107803 139.839203
239.139526 19.226851
240.111801 60.0854
240.827469 9.010715
241.08226 78.133049
241.101303 35.30014
241.120193 60.077099
241.162186 4.340278
241.547455 2.893518
241.735489 15.68003
242.005722 9.72
242.124908 34.928379
243.074234 17.40749
243.11087 41.011971
243.648315 6.005952
244.08931 16.856979
244.512756 7.958333
245.092911 116.8666
245.126968 69.995934
245.558243 12.8648
246.103546 252.314697
246.138596 59.45462
246.20723 23.38228
246.540329 6.033602
247.082184 42.291672
247.113159 134.065399
247.267395 2.336539
247.305695 13.41565
247.322067 8.049797
247.485596 9.868333
247.502655 3.691667
247.515991 7.481667
247.562851 4.054824
248.118896 239.074295
248.864304 16.803329
248.974808 7.136111
249.036667 5.354167
249.089966 95.294159
249.12735 379.954987
249.337265 6.802778
249.460388 8.770833
249.757202 7.2
250.072601 14.18702
250.169373 3.458333
251.104218 214.433304
251.140778 232.693604
251.39827 5.355392
251.762451 5.688889
253.117126 388.061188
253.343628 5.121212
255.07724 18.810711
255.130722 34.9394
256.0914 68.364143
256.989502 8.454545
258.101044 214.783798
258.139221 9.357142
258.230896 6.25926
258.503418 9.347222
258.822296 13.78125
259.106171 164.972702
259.148346 19.309259
259.444122 16.728029
259.790985 9.363637
259.841766 8.347222
260.117279 86.860046
261.090698 56.2155
261.127594 305.786713
261.351929 4.017857
261.394867 3.025
261.498199 4.481482
261.531921 5.742284
261.869507 9.819445
262.101318 118.991997
262.291992 10.75725
262.334656 8.840278
263.109253 211.920395
263.143646 328.324799
263.307373 17.13286
264.944977 9.895833
265.119507 145.062195
266.037201 10.27222
267.096039 7.833333
267.871033 5.366667
269.099518 78.442558
269.125916 22.099211
271.017517 10.01235
271.427734 6.469444
271.550415 12.39951
271.755798 7.265351
272.078125 20.42247
272.110748 8.927083
273.100281 9.081667
273.126251 280.576599
273.468506 5.336111
274.097595 32.146671
274.304199 10.29643
274.631866 7.377451
275.103729 117.323997
276.112213 83.754402
277.118011 336.589905
277.186188 2.669444
277.331085 4.5
277.348206 9.007978
277.487274 12.43678
279.083801 61.687119
279.138367 97.264526
279.990601 3.691667
281.111633 15.03409
281.134979 138.5233
281.190674 2.041667
281.226044 1.666667
281.364441 22.74856
283.108643 36.302471
283.153809 42.84639
283.689484 11.66786
283.822327 4.333333
285.109497 63.959309
285.154388 3.700758
287.09668 6.673611
287.137482 5.702587
288.093262 5.121212
288.112 10.92647
288.268463 3.444444
288.784546 4.351191
289.084717 52.60128
289.118958 14.9867
291.101898 17.472219
291.138245 401.732391
291.343414 4.523809
291.416809 4.297619
291.545135 19.121799
292.123474 19.44298
293.124847 134.051895
293.169891 1.666667
293.432129 5.346264
294.095306 11.48761
295.12915 170.298294
297.145599 73.986504
299.121155 26.0
301.125214 132.270203
301.350861 5.481482
301.415375 12.60167
304.108612 110.103996
304.785248 15.21111
305.184174 18.7631
306.313202 9.307693
309.141113 202.943207
309.180145 2.386905
311.145081 72.513962
313.132233 16.790211
313.152679 11.4537
314.14212 11.18382
315.135834 18.061359
317.112885 22.66667
318.398651 8.008721
318.733948 6.742284
319.128235 180.275497
319.815369 9.008333
321.124146 17.256201
323.109772 54.093941
329.16272 12.40167
331.137482 8.708333
331.156403 15.33446
335.317017 3.053571
337.145508 56.313221
339.141022 39.937302
339.217224 14.76006
339.738586 6.88587
341.787567 7.395833
355.151886 8.666667
359.980408 14.89943
379.1474 15.62972
399.678101 4.898148
