>compound MLS002153196-01!N6-CYCLOPENTYLADENOSINE
>formula C15H21N5O4
>ionization [M+H]+
>parentmass 336.165863
#inchi InChI=1S/C15H21N5O4/c21-5-9-11(22)12(23)15(24-9)20-7-18-10-13(16-6-17-14(10)20)19-8-3-1-2-4-8/h6-9,11-12,15,21-23H,1-5H2,(H,16,17,19)/t9-,11-,12-,15-/m1/s1
#inchikey SQMWSBKSHWARHU
#Ion_Source LC-ESI
#Instrument qTof
#Compound_Source NIH Pharmacologically Active Library
#PI Dorrestein
#Data_Collector VP/LMS
#Scan -1
#Precursor_MZ 336.162
#ExactMass 335.159
#Charge 1
#CAS_Number N/A
#Pubmed_ID N/A
#Smiles OC[C@H]1O[C@H]([C@H](O)[C@@H]1O)n2cnc3c(NC4CCCC4)ncnc23
#INCHI_AUX N/A
#Library_Class 1
#SpectrumID CCMSLIB00000085335
#IonMode Positive
#UpdateWorkflowName UPDATE-SINGLE-ANNOTATED-GOLD
#LibraryQualityString Gold
#TaskID d252d724072548979f1f6f1ced849daf
##Scan# 1289
#SpectrumFile p3-H06_GH6_01_18311.mzXML
#LibraryName Pharm_Active_Library.mgf
#MQScore -1
#Organism Pharm_Active_Library
#TIC_Query 0
#RT_Query -1
#MZErrorPPM -1
#SharedPeaks 0
#MassDiff 0
#LibMZ -1
#SpecMZ 336.162
#SpecCharge 0
#internalFilename spec-00000.mgf

>collision 10
44.946007 164.0
44.990055 184.0
45.071529 152.0
45.118313 156.0
45.154419 132.0
45.165119 164.0
45.289608 180.0
45.339184 60.0
45.38879 164.0
45.399487 188.0
45.514385 188.0
45.54179 176.0
45.576721 212.0
45.587471 240.0
45.619732 168.0
45.63884 208.0
45.738113 120.0
45.826817 204.0
45.862041 124.0
45.886311 208.0
45.906536 196.0
45.931961 188.0
45.956448 204.0
45.988838 108.0
46.041496 48.0
46.05991 228.0
46.068909 204.0
46.230774 120.0
46.242954 204.0
46.271385 180.0
46.294403 224.0
46.307949 200.0
46.35537 136.0
46.364853 168.0
46.401455 164.0
46.423153 244.0
46.438377 124.0
46.497772 188.0
46.530148 160.0
46.537575 200.0
46.622723 164.0
46.742401 208.0
46.75465 220.0
46.788681 160.0
46.848606 224.0
46.907207 172.0
46.927658 120.0
46.969936 72.0
46.986309 172.0
47.028614 212.0
47.068207 68.0
47.118748 92.0
47.157009 180.0
47.176147 140.0
47.191189 52.0
47.217171 156.0
47.24453 136.0
47.286949 96.0
47.43626 176.0
47.459568 76.0
47.583061 184.0
47.60503 212.0
47.648987 164.0
47.687466 144.0
47.753468 172.0
47.763096 120.0
47.790298 212.0
47.842915 168.0
47.870453 124.0
47.94347 44.0
48.004131 176.0
48.019302 180.0
48.048271 148.0
48.15733 172.0
48.191868 236.0
48.280342 236.0
48.295555 148.0
48.352287 160.0
48.389664 144.0
48.474163 116.0
48.487698 172.0
48.544865 136.0
48.585091 180.0
48.611454 64.0
48.622559 48.0
48.640701 220.0
48.651237 248.0
48.665253 164.0
48.689201 176.0
48.700314 192.0
48.728096 168.0
48.808716 212.0
48.818451 152.0
48.850445 80.0
48.893581 128.0
48.982697 136.0
49.081654 176.0
49.09856 160.0
49.113731 160.0
49.134655 132.0
49.189087 116.0
49.200253 168.0
49.253323 172.0
49.305019 176.0
49.329525 256.0
49.416897 168.0
49.457481 124.0
49.468136 176.0
49.650742 216.0
49.666271 164.0
49.688717 200.0
49.700687 188.0
49.728012 168.0
49.763107 188.0
49.801998 180.0
49.817883 220.0
49.845985 100.0
49.968319 124.0
50.041512 180.0
50.07531 128.0
50.095028 144.0
50.111935 184.0
50.182411 176.0
50.210617 124.0
50.22049 180.0
50.327747 164.0
50.377182 132.0
50.423248 120.0
50.440777 56.0
50.464813 176.0
50.484608 128.0
50.524216 148.0
50.593567 124.0
50.637463 60.0
50.66013 168.0
50.715294 168.0
50.753674 172.0
50.836147 148.0
50.858662 192.0
50.987919 168.0
51.016346 128.0
51.080345 220.0
51.141533 200.0
51.236576 184.0
51.363827 168.0
51.398975 164.0
51.403259 132.0
51.423759 156.0
51.43438 200.0
51.453739 180.0
51.528008 248.0
51.555161 152.0
51.565163 220.0
51.582794 144.0
51.593754 224.0
51.666695 236.0
51.681004 268.0
51.708195 60.0
51.852856 160.0
51.898731 304.0
52.00346 160.0
52.059452 132.0
52.13847 160.0
52.157158 124.0
52.207481 176.0
52.226181 196.0
52.498398 196.0
52.596512 44.0
52.612392 160.0
52.628277 48.0
52.648251 168.0
52.666553 196.0
52.804588 160.0
52.991333 208.0
53.001476 120.0
53.020317 160.0
53.094673 196.0
53.104412 232.0
53.116016 212.0
53.149387 128.0
53.161331 156.0
53.178413 232.0
53.200188 104.0
53.271347 164.0
53.336742 220.0
53.403633 64.0
53.426907 176.0
53.509869 32.0
53.525887 136.0
53.626411 120.0
53.641628 256.0
53.657024 184.0
53.673962 224.0
53.722656 200.0
53.741623 144.0
53.770809 244.0
53.783352 216.0
53.800007 64.0
53.870106 136.0
53.900791 204.0
53.951603 152.0
53.982655 96.0
54.004593 240.0
54.086536 364.0
54.102638 156.0
54.112888 112.0
54.156822 128.0
54.190517 64.0
54.203705 140.0
54.213966 76.0
54.236195 144.0
54.279346 180.0
54.290199 152.0
54.344479 236.0
54.391441 176.0
54.41787 64.0
54.431236 192.0
54.45752 324.0
54.52364 216.0
54.533928 128.0
54.552723 168.0
54.57362 152.0
54.597149 132.0
54.636868 132.0
54.681011 192.0
54.695732 144.0
54.717815 160.0
54.766125 164.0
54.838615 100.0
54.869572 244.0
54.938892 144.0
54.961021 152.0
55.000874 140.0
55.011204 76.0
55.034828 144.0
55.061035 220.0
55.102772 156.0
55.123463 168.0
55.14563 64.0
55.155975 148.0
55.166325 128.0
55.238789 124.0
55.256348 152.0
55.27874 180.0
55.302418 236.0
55.369049 156.0
55.39423 152.0
55.509842 148.0
55.537018 136.0
55.57066 232.0
55.585499 160.0
55.605469 184.0
55.635761 236.0
55.723595 32.0
55.894592 264.0
55.968571 224.0
56.073307 156.0
56.091194 196.0
56.116539 160.0
56.216225 184.0
56.307556 116.0
56.413651 156.0
56.428829 184.0
56.449535 60.0
56.482441 180.0
56.543259 180.0
56.576721 252.0
56.641117 156.0
56.654602 188.0
56.681572 100.0
56.711544 228.0
56.761021 160.0
56.779018 52.0
56.813519 136.0
56.827023 160.0
56.854633 220.0
56.866982 236.0
56.897564 228.0
56.933292 192.0
56.959137 164.0
56.980171 132.0
57.099003 160.0
57.174156 160.0
57.362438 160.0
57.43935 108.0
57.460468 228.0
57.472542 180.0
57.554974 184.0
57.603893 112.0
57.641666 248.0
57.801964 56.0
57.838287 124.0
57.986729 120.0
58.020081 228.0
58.043835 192.0
58.308502 128.0
58.328262 88.0
58.36475 36.0
58.495598 112.0
58.506252 172.0
58.530617 104.0
58.541275 116.0
58.576309 196.0
58.644878 128.0
58.708916 152.0
58.805038 292.0
58.831421 184.0
58.895126 204.0
58.919567 60.0
58.963531 156.0
59.051037 220.0
59.077042 204.0
59.147434 236.0
59.193367 144.0
59.277622 180.0
59.296013 168.0
59.328205 140.0
59.400284 280.0
59.472931 176.0
59.493896 136.0
59.589123 172.0
59.604416 84.0
59.635223 164.0
59.685959 140.0
59.718258 252.0
59.747486 136.0
59.769028 124.0
59.818279 108.0
59.916843 76.0
60.023197 164.0
60.037079 176.0
60.055588 124.0
60.071011 264.0
60.132736 196.0
60.250095 172.0
60.292534 260.0
60.319641 224.0
60.396713 200.0
60.458851 144.0
60.472778 184.0
60.502193 236.0
60.516129 220.0
60.533161 180.0
60.613716 332.0
60.65202 196.0
60.657776 352.0
60.70673 140.0
60.720688 232.0
60.748608 200.0
60.806023 192.0
60.877441 56.0
60.894524 116.0
60.914719 212.0
60.939259 172.0
60.997082 208.0
61.012592 180.0
61.07172 144.0
61.189037 176.0
61.224251 96.0
61.258522 152.0
61.270985 156.0
61.356705 120.0
61.373856 168.0
61.404892 240.0
61.548626 208.0
61.646973 184.0
61.679863 140.0
61.714634 184.0
61.736153 192.0
61.823765 176.0
61.834721 160.0
61.970963 168.0
62.240761 60.0
62.257202 168.0
62.32716 176.0
62.397083 148.0
62.415188 144.0
62.449787 136.0
62.478104 168.0
62.53318 88.0
62.679646 52.0
62.698559 208.0
62.723778 48.0
62.78054 112.0
62.804199 192.0
62.837326 108.0
62.881512 68.0
62.895718 92.0
62.908348 176.0
62.963615 192.0
62.988888 156.0
63.001526 160.0
63.05051 56.0
63.156448 188.0
63.195999 148.0
63.219734 180.0
63.237144 136.0
63.29414 132.0
63.313145 204.0
63.325813 224.0
63.386017 128.0
63.414288 148.0
63.435154 188.0
63.455761 176.0
63.720825 92.0
63.814148 196.0
63.863903 180.0
63.892536 208.0
63.905266 72.0
64.007141 148.0
64.064484 168.0
64.157112 160.0
64.175674 152.0
64.182098 116.0
64.18486 244.0
64.251015 184.0
64.294098 168.0
64.462929 168.0
64.549706 160.0
64.572098 148.0
64.620094 148.0
64.727921 176.0
64.754562 60.0
64.943405 196.0
64.993439 116.0
65.142754 124.0
65.174889 164.0
65.226318 72.0
65.280983 100.0
65.470886 180.0
65.514381 96.0
65.530495 104.0
65.594955 112.0
65.606239 76.0
65.622368 172.0
65.648163 100.0
65.757874 128.0
65.769173 148.0
65.787575 160.0
65.882217 144.0
65.919807 212.0
65.964638 100.0
66.014763 96.0
66.064903 184.0
66.314697 188.0
66.353188 136.0
66.383995 108.0
66.452126 216.0
66.471596 128.0
66.62748 104.0
66.765648 168.0
66.807938 180.0
66.944672 128.0
66.959328 156.0
67.001678 196.0
67.070129 168.0
67.138603 200.0
67.216911 124.0
67.318123 160.0
67.352425 128.0
67.597672 172.0
67.625496 80.0
67.658234 132.0
67.745033 96.0
67.800751 164.0
67.818779 180.0
67.838448 152.0
67.920441 184.0
67.940132 72.0
67.961258 164.0
68.079651 192.0
68.142075 144.0
68.229187 132.0
68.290031 240.0
68.39534 176.0
68.444733 84.0
68.471085 48.0
68.514748 160.0
68.563347 196.0
68.589714 140.0
68.711754 192.0
68.743111 172.0
68.764565 96.0
68.819038 144.0
68.841331 224.0
68.875816 244.0
68.97599 160.0
69.125252 180.0
69.159027 160.0
69.19603 192.0
69.235771 156.0
69.252335 76.0
69.414757 116.0
69.439629 168.0
69.839935 148.0
69.857841 256.0
69.913139 128.0
69.965965 196.0
69.986389 172.0
70.006371 120.0
70.024689 140.0
70.063187 220.0
70.178009 104.0
70.203705 88.0
70.238052 160.0
70.312004 260.0
70.329826 228.0
70.371162 184.0
70.433357 108.0
70.468437 148.0
70.485146 168.0
70.505203 112.0
70.570396 172.0
70.582848 72.0
70.685822 172.0
70.810715 120.0
70.859962 192.0
70.886772 200.0
70.916939 244.0
70.938736 188.0
70.953819 188.0
71.103119 104.0
71.23745 160.0
71.381996 240.0
71.471153 152.0
71.572151 336.0
71.642891 132.0
71.679962 216.0
71.794601 188.0
71.843513 196.0
71.907639 192.0
71.960846 332.0
71.997124 212.0
72.096802 200.0
72.137367 188.0
72.168617 172.0
72.360687 208.0
72.445374 80.0
72.548752 144.0
72.584358 144.0
72.611374 176.0
72.768593 236.0
72.773506 136.0
72.778091 164.0
72.818565 56.0
72.840645 40.0
73.063347 152.0
73.101456 112.0
73.197815 144.0
73.434715 96.0
73.506371 96.0
73.603668 144.0
73.641243 184.0
73.66687 188.0
73.702744 48.0
73.735214 164.0
73.786499 148.0
73.875435 104.0
73.92334 160.0
73.999588 192.0
74.055176 224.0
74.087723 196.0
74.128845 88.0
74.145981 208.0
74.184494 180.0
74.247139 176.0
74.291733 160.0
74.310608 172.0
74.332916 132.0
74.394707 76.0
74.468544 212.0
74.517334 180.0
74.601768 184.0
74.6129 248.0
74.664482 132.0
74.690285 96.0
74.709206 84.0
74.802139 184.0
74.907181 148.0
75.176163 72.0
75.20816 104.0
75.278015 160.0
75.343658 84.0
75.374756 136.0
75.407593 176.0
75.447884 144.0
75.561501 48.0
75.578804 56.0
75.613419 212.0
75.642838 108.0
75.654961 68.0
75.67054 104.0
75.777931 232.0
75.853661 132.0
75.934273 160.0
75.97905 160.0
76.289925 176.0
76.340553 188.0
76.3647 168.0
76.396011 200.0
76.442993 152.0
76.476059 132.0
76.509132 136.0
76.608406 152.0
76.658936 180.0
76.753067 140.0
76.821091 136.0
76.859474 196.0
76.913574 164.0
77.01136 116.0
77.032326 140.0
77.053291 136.0
77.121445 172.0
77.149414 160.0
77.284088 192.0
77.401367 112.0
77.455666 232.0
77.473183 156.0
77.522247 52.0
77.627426 120.0
77.709869 108.0
77.725662 136.0
77.776566 72.0
77.922325 160.0
77.957466 172.0
78.059433 180.0
78.113953 28.0
78.170258 88.0
78.277641 144.0
78.310616 172.0
78.411537 116.0
78.4944 212.0
78.519089 148.0
78.565056 196.0
78.762672 168.0
78.809898 164.0
78.830116 208.0
78.934105 32.0
78.980995 184.0
78.99955 92.0
79.018593 168.0
79.033165 148.0
79.06002 204.0
79.089798 56.0
79.247421 200.0
79.265137 64.0
79.320084 188.0
79.344902 164.0
79.587982 108.0
79.655472 128.0
79.72477 228.0
79.763878 48.0
79.789673 148.0
79.793526 136.0
79.840332 208.0
79.852783 104.0
80.021317 232.0
80.057457 196.0
80.077049 68.0
80.119797 144.0
80.201775 164.0
80.216034 152.0
80.273087 204.0
80.312325 240.0
80.336494 220.0
80.362282 220.0
80.389046 136.0
80.419388 108.0
80.471161 196.0
80.556885 140.0
80.592621 248.0
80.621208 152.0
80.773193 176.0
80.868027 140.0
80.943222 192.0
80.986206 152.0
81.018242 236.0
81.074867 180.0
81.605354 160.0
81.634712 148.0
81.657501 356.0
81.725868 184.0
81.748642 176.0
81.774452 196.0
81.790657 168.0
81.806854 136.0
81.833862 180.0
81.889687 140.0
81.904099 168.0
81.934723 168.0
81.970764 196.0
82.022736 172.0
82.06089 160.0
82.149261 180.0
82.183548 220.0
82.239494 200.0
82.279205 200.0
82.313766 144.0
82.346024 112.0
82.373619 192.0
82.391182 248.0
82.438164 184.0
82.456238 152.0
82.471992 172.0
82.543015 116.0
82.579185 156.0
82.634415 164.0
82.685936 176.0
82.804001 264.0
82.827164 164.0
82.866554 184.0
82.872139 136.0
82.894203 176.0
82.914139 160.0
82.957642 72.0
82.993904 108.0
83.131767 104.0
83.237061 188.0
83.385246 200.0
83.469826 220.0
83.516953 156.0
83.556969 176.0
83.780907 132.0
83.811882 164.0
83.846512 208.0
83.92672 192.0
83.941307 72.0
84.001495 136.0
84.045288 140.0
84.069008 112.0
84.089088 76.0
84.105515 120.0
84.140198 112.0
84.27536 228.0
84.408798 148.0
84.425026 188.0
84.447205 124.0
84.507576 136.0
84.690651 168.0
84.716293 76.0
84.763931 156.0
84.791618 220.0
84.831749 300.0
84.877586 200.0
85.077583 180.0
85.09594 192.0
85.117973 240.0
85.163887 184.0
85.211655 184.0
85.292519 168.0
85.378937 196.0
85.391808 160.0
85.459877 188.0
85.507721 120.0
85.535561 164.0
85.561104 148.0
85.653183 140.0
85.707207 188.0
85.746239 156.0
85.765594 188.0
85.793243 140.0
85.811676 128.0
85.863312 44.0
85.927376 148.0
85.933342 108.0
85.940002 252.0
85.994705 168.0
86.045021 188.0
86.065269 192.0
86.142036 188.0
86.206703 144.0
86.219643 168.0
86.347214 160.0
86.387909 176.0
86.541527 52.0
86.567451 124.0
86.585968 236.0
86.721222 172.0
86.743469 136.0
86.878639 180.0
86.925232 196.0
87.018044 144.0
87.055588 204.0
87.088615 64.0
87.13134 172.0
87.14901 132.0
87.172325 148.0
87.240997 88.0
87.397224 84.0
87.410255 192.0
87.553604 152.0
87.651909 192.0
87.736214 184.0
87.805206 140.0
87.839737 208.0
87.88916 112.0
87.914146 224.0
87.948875 148.0
88.019821 152.0
88.122559 236.0
88.144981 96.0
88.20105 164.0
88.26088 140.0
88.285187 136.0
88.378441 160.0
88.45546 144.0
88.506012 192.0
88.609032 192.0
88.624016 152.0
88.661499 168.0
88.676491 148.0
88.798363 116.0
88.892166 124.0
88.934761 236.0
88.971001 136.0
88.997292 116.0
89.016304 160.0
89.064903 108.0
89.147568 180.0
89.162346 232.0
89.174103 172.0
89.194557 148.0
89.213356 200.0
89.279167 88.0
89.32431 244.0
89.339363 116.0
89.382637 208.0
89.401451 168.0
89.491814 120.0
89.521942 196.0
89.538895 152.0
89.557465 144.0
89.631203 144.0
89.665123 160.0
89.704712 136.0
89.749954 208.0
89.778244 164.0
89.81974 136.0
89.865189 180.0
89.955612 152.0
89.976379 44.0
90.017914 204.0
90.05191 160.0
90.13504 144.0
90.172836 196.0
90.187958 84.0
90.240891 204.0
90.271149 188.0
90.343025 136.0
90.363831 244.0
90.46225 128.0
90.475502 96.0
90.494431 124.0
90.588768 168.0
90.681984 140.0
90.700935 128.0
90.793846 160.0
90.901978 168.0
90.958923 184.0
91.019676 148.0
91.063354 196.0
91.108948 172.0
91.24157 184.0
91.253799 204.0
91.28952 204.0
91.304733 128.0
91.333267 152.0
91.403664 176.0
91.420792 188.0
91.550247 124.0
91.566696 144.0
91.59024 208.0
91.665321 176.0
91.704575 104.0
91.78846 128.0
91.864746 224.0
91.878105 124.0
91.937256 216.0
92.026093 180.0
92.040344 160.0
92.07663 128.0
92.107193 152.0
92.151131 120.0
92.170235 76.0
92.242867 204.0
92.263893 192.0
92.302139 108.0
92.384384 76.0
92.44944 156.0
92.505722 140.0
92.522179 172.0
92.59877 176.0
92.621758 184.0
92.681152 112.0
92.955772 188.0
93.049423 200.0
93.143524 192.0
93.164658 172.0
93.243439 212.0
93.27227 236.0
93.302147 148.0
93.368408 152.0
93.408806 76.0
93.435738 140.0
93.456902 156.0
93.497795 160.0
93.537735 124.0
93.64312 192.0
93.783737 88.0
93.933632 108.0
94.008026 156.0
94.038368 1808.0
94.073654 168.0
94.100685 180.0
94.224297 36.0
94.243614 128.0
94.2668 144.0
94.357651 132.0
94.388588 180.0
94.425774 176.0
94.456284 120.0
94.469826 76.0
94.538864 200.0
94.595612 172.0
94.617165 184.0
94.663383 152.0
94.719551 236.0
94.863907 144.0
94.988998 52.0
95.041283 76.0
95.047096 72.0
95.052055 144.0
95.097664 180.0
95.164352 80.0
95.237473 220.0
95.254951 156.0
95.279388 176.0
95.326843 176.0
95.342392 192.0
95.357628 176.0
95.480431 96.0
95.562126 144.0
95.604942 212.0
95.645813 96.0
95.727585 188.0
95.790672 216.0
95.805504 128.0
95.834724 196.0
95.869804 156.0
95.88929 108.0
96.046875 132.0
96.094055 172.0
96.1604 168.0
96.226776 88.0
96.250206 212.0
96.265831 128.0
96.328331 136.0
96.400627 148.0
96.443619 120.0
96.53537 160.0
96.574631 192.0
96.631363 88.0
96.714012 104.0
96.744881 224.0
96.834953 188.0
96.848663 108.0
96.952507 144.0
96.972107 140.0
96.989746 192.0
97.02813 480.0
97.11132 164.0
97.384148 168.0
97.464699 188.0
97.543312 188.0
97.928993 172.0
98.07283 136.0
98.210854 200.0
98.272011 188.0
98.319374 152.0
98.42598 140.0
98.455597 176.0
98.479301 156.0
98.532639 196.0
98.546471 52.0
98.602501 192.0
98.64949 224.0
98.720421 76.0
98.74218 172.0
98.839119 148.0
98.904427 224.0
99.043213 196.0
99.092567 164.0
99.152016 48.0
99.192566 184.0
99.213463 132.0
99.24482 152.0
99.268982 176.0
99.308647 180.0
99.384033 300.0
99.401894 128.0
99.431664 240.0
99.509087 148.0
99.803452 108.0
99.914536 216.0
100.016029 140.0
100.135063 200.0
100.175339 156.0
100.207214 140.0
100.261017 128.0
100.274971 240.0
100.292908 168.0
100.361877 236.0
100.397568 152.0
100.46241 164.0
100.51828 188.0
100.54023 152.0
100.636047 100.0
100.656021 164.0
100.859802 192.0
100.89579 92.0
100.976974 140.0
101.005783 84.0
101.139847 140.0
101.161873 156.0
101.176178 136.0
101.197029 220.0
101.204948 132.0
101.368172 92.0
101.386208 120.0
101.501709 192.0
101.623436 148.0
101.693878 100.0
101.756607 176.0
101.774246 120.0
101.817558 140.0
101.881836 152.0
101.956184 168.0
102.004425 192.0
102.042625 104.0
102.072296 132.0
102.078537 116.0
102.090179 448.0
102.110992 212.0
102.374641 204.0
102.410896 172.0
102.541862 176.0
102.638634 112.0
102.660812 80.0
102.707207 36.0
102.771767 164.0
102.800011 132.0
102.834328 184.0
102.901802 132.0
102.959503 196.0
102.973404 148.0
103.119118 172.0
103.151459 208.0
103.185829 156.0
103.236382 116.0
103.355728 144.0
103.388107 176.0
103.43264 204.0
103.526703 232.0
103.568306 156.0
103.62545 156.0
103.685829 180.0
103.708122 156.0
103.787186 120.0
103.85006 164.0
103.904831 144.0
103.941353 180.0
104.02713 228.0
104.17028 260.0
104.197197 240.0
104.255913 196.0
104.302872 232.0
104.321167 32.0
104.414703 152.0
104.469627 256.0
104.561188 204.0
104.775002 160.0
104.858551 144.0
104.933975 188.0
104.976799 188.0
105.044106 184.0
105.111435 204.0
105.358498 120.0
105.43615 168.0
105.474983 40.0
105.536316 208.0
105.640625 140.0
105.661079 132.0
105.708496 188.0
105.771591 112.0
105.814583 272.0
106.095268 64.0
106.19165 188.0
106.238831 152.0
106.290123 72.0
106.370171 144.0
106.427658 180.0
106.589935 216.0
106.723541 132.0
106.776184 268.0
106.811981 128.0
106.836662 180.0
106.861359 292.0
106.904572 224.0
106.974548 228.0
106.99102 68.0
107.061028 156.0
107.106346 224.0
107.228233 180.0
107.252647 172.0
107.316559 144.0
107.378418 224.0
107.43824 220.0
107.59922 204.0
107.698349 168.0
107.733467 208.0
107.793388 304.0
107.818336 168.0
107.985657 176.0
108.012543 192.0
108.076683 212.0
108.093239 132.0
108.115997 60.0
108.163017 168.0
108.188446 232.0
108.323059 132.0
108.360352 196.0
108.509583 232.0
108.623642 268.0
108.677582 172.0
108.870842 124.0
108.901794 48.0
108.964119 52.0
109.049606 644.0
109.070107 76.0
109.084656 176.0
109.103363 204.0
109.149109 36.0
109.206955 128.0
109.375885 244.0
109.423767 132.0
109.438347 52.0
109.51223 176.0
109.663338 108.0
109.684181 224.0
109.740471 76.0
109.765495 172.0
109.788437 88.0
109.934471 88.0
109.958046 176.0
110.050385 140.0
110.180862 144.0
110.225723 184.0
110.437988 208.0
110.536324 120.0
110.622139 236.0
110.688126 168.0
110.716896 204.0
110.761185 232.0
110.791771 160.0
110.814819 144.0
110.867203 208.0
110.972015 132.0
111.022346 264.0
111.074783 152.0
111.167099 208.0
111.213272 136.0
111.227966 224.0
111.293045 164.0
111.322449 200.0
111.356049 240.0
111.431679 204.0
111.498924 184.0
111.517838 92.0
111.690262 180.0
111.795456 104.0
111.831177 136.0
111.858337 156.0
112.067108 68.0
112.130432 160.0
112.242058 124.0
112.332756 140.0
112.39183 76.0
112.427704 180.0
112.507912 220.0
112.533249 168.0
112.598717 108.0
112.689552 144.0
112.744301 220.0
112.771965 164.0
112.793106 168.0
112.839615 256.0
112.897598 172.0
113.015175 72.0
113.108292 204.0
113.190865 208.0
113.373055 72.0
113.390007 192.0
113.417557 136.0
113.451477 152.0
113.49176 136.0
113.508728 164.0
113.567535 192.0
113.657211 200.0
113.718178 176.0
113.754845 192.0
113.778198 276.0
113.830208 172.0
114.271286 160.0
114.292564 140.0
114.309586 148.0
114.40963 152.0
114.426659 244.0
114.445824 192.0
114.558701 220.0
114.580009 208.0
114.669975 184.0
114.78463 180.0
114.859818 192.0
114.910484 220.0
115.015053 128.0
115.039436 280.0
115.284172 112.0
115.348289 124.0
115.391045 44.0
115.510811 156.0
115.609238 132.0
115.660606 184.0
115.731255 140.0
115.814774 204.0
115.842621 76.0
115.893806 180.0
115.924042 100.0
115.979767 96.0
116.04747 152.0
116.084824 156.0
116.116997 92.0
116.134155 160.0
116.195236 288.0
116.226402 132.0
116.267822 120.0
116.299377 164.0
116.337776 180.0
116.453972 212.0
116.54599 144.0
116.757019 180.0
116.778534 184.0
116.853821 204.0
116.929138 120.0
117.05616 128.0
117.154343 192.0
117.16301 112.0
117.168694 148.0
117.189713 212.0
117.265137 160.0
117.510979 144.0
117.608093 76.0
117.642365 192.0
117.721115 228.0
117.778679 152.0
117.806763 180.0
117.841331 104.0
117.884544 152.0
118.020729 104.0
118.113731 176.0
118.163483 116.0
118.18399 140.0
118.21833 212.0
118.362625 136.0
118.469574 200.0
118.503418 184.0
118.542419 140.0
118.637794 228.0
118.750549 132.0
118.769272 152.0
118.837326 40.0
118.872047 156.0
118.896629 208.0
118.991432 240.0
119.00663 160.0
119.034622 8508.0
119.080467 144.0
119.097839 172.0
119.139114 132.0
119.154327 188.0
119.189087 160.0
119.219513 76.0
119.246544 156.0
119.41301 40.0
119.443466 144.0
119.471741 36.0
119.517433 28.0
119.56749 152.0
119.628433 44.0
119.645851 156.0
119.671982 104.0
119.730774 184.0
119.763443 48.0
119.803902 112.0
119.841873 136.0
119.875374 204.0
119.902893 140.0
119.931229 220.0
119.981789 124.0
120.034866 736.0
120.081673 144.0
120.11969 216.0
120.127823 256.0
120.1493 212.0
120.22567 52.0
120.273689 80.0
120.334816 68.0
120.412689 176.0
120.461487 108.0
120.542328 124.0
120.669106 100.0
120.695351 200.0
120.743462 52.0
120.786385 352.0
120.802521 92.0
120.824394 164.0
120.844086 80.0
120.916405 168.0
120.946945 188.0
121.036705 180.0
121.148415 144.0
121.319351 100.0
121.466278 184.0
121.507965 48.0
121.619881 136.0
121.637444 72.0
121.670372 200.0
121.81971 132.0
121.846077 140.0
121.872444 184.0
121.916069 220.0
121.987534 196.0
122.074677 116.0
122.129776 156.0
122.18026 204.0
122.226463 160.0
122.252869 204.0
122.279282 156.0
122.323303 188.0
122.564354 180.0
122.627281 168.0
122.876472 200.0
122.92524 120.0
123.128609 236.0
123.380028 96.0
123.40435 208.0
123.483963 80.0
123.581299 160.0
123.780518 116.0
123.875755 104.0
123.944443 168.0
123.98407 168.0
124.026443 172.0
124.079651 100.0
124.120247 116.0
124.197182 52.0
124.245987 132.0
124.330307 176.0
124.505699 96.0
124.573944 188.0
124.605659 124.0
124.701218 188.0
124.91468 208.0
124.99485 120.0
125.170639 156.0
125.205666 204.0
125.242439 140.0
125.268639 52.0
125.344391 152.0
125.375587 128.0
125.395073 140.0
125.403107 104.0
125.407707 176.0
125.444687 208.0
125.484818 128.0
125.560638 252.0
125.669945 200.0
125.716805 120.0
125.83065 168.0
125.870842 96.0
126.03614 148.0
126.161308 228.0
126.221672 140.0
126.394707 148.0
126.425247 128.0
126.447624 96.0
126.5215 136.0
126.604347 52.0
126.648735 132.0
126.727554 160.0
126.870995 48.0
127.063873 184.0
127.086311 176.0
127.178322 112.0
127.254654 104.0
127.271805 156.0
127.562439 112.0
127.578178 112.0
127.722099 200.0
127.836845 48.0
127.868355 188.0
127.908539 136.0
127.929131 140.0
127.97641 124.0
128.08226 188.0
128.131821 152.0
128.29184 40.0
128.382034 372.0
128.44519 124.0
128.481277 108.0
128.562515 140.0
128.688919 140.0
128.719543 224.0
128.776993 244.0
128.835724 184.0
128.878662 136.0
128.908035 164.0
128.97551 164.0
129.066269 204.0
129.093414 160.0
129.143158 112.0
129.274384 220.0
129.308334 184.0
129.396622 212.0
129.462296 184.0
129.5914 148.0
129.616333 104.0
129.670731 136.0
129.722855 224.0
129.836227 44.0
130.050156 140.0
130.135773 140.0
130.176651 204.0
130.262955 88.0
130.315216 56.0
130.347015 152.0
130.583466 180.0
130.749557 72.0
130.772308 188.0
130.833771 164.0
130.879303 124.0
130.906876 188.0
131.125351 84.0
131.152695 148.0
131.196014 108.0
131.229401 188.0
131.253006 200.0
131.448898 188.0
131.702621 176.0
131.718597 160.0
131.76886 136.0
131.855698 104.0
131.899124 200.0
131.942566 144.0
132.144196 128.0
132.207901 132.0
132.308624 188.0
132.33609 232.0
132.443741 148.0
132.487259 40.0
132.530792 92.0
132.567459 160.0
132.597076 260.0
132.666016 36.0
132.700409 160.0
132.828842 136.0
132.856064 212.0
132.886185 156.0
132.932083 168.0
132.968811 56.0
132.989456 176.0
133.045822 188.0
133.170853 184.0
133.398697 184.0
133.416153 236.0
133.474213 236.0
133.617371 188.0
133.639832 84.0
133.674347 200.0
133.720383 160.0
133.772903 176.0
133.870026 72.0
133.895355 372.0
133.980591 152.0
134.072754 184.0
134.120346 180.0
134.296402 328.0
134.333313 160.0
134.450989 220.0
134.475021 184.0
134.591812 168.0
134.663406 168.0
134.698044 176.0
134.739639 112.0
134.814896 168.0
134.878296 216.0
134.942139 188.0
135.011078 288.0
135.049408 112.0
135.1026 120.0
135.121109 172.0
135.165085 136.0
135.222931 116.0
135.269226 128.0
135.304596 208.0
135.341003 156.0
135.477646 76.0
135.512405 152.0
135.558746 244.0
135.591202 148.0
135.609772 224.0
135.628281 120.0
135.672211 168.0
135.69783 112.0
135.745117 220.0
135.784836 352.0
135.809143 124.0
135.841614 244.0
135.875381 392.0
135.896545 216.0
135.91214 204.0
135.942932 208.0
135.985413 488.0
136.005676 436.0
136.062408 176324.0
136.138443 100.0
136.18074 80.0
136.200897 132.0
136.217529 196.0
136.239029 172.0
136.275803 352.0
136.291641 184.0
136.314926 288.0
136.345108 176.0
136.386002 256.0
136.421112 100.0
136.443878 2116.0
136.46257 164.0
136.497635 72.0
136.538879 56.0
136.565704 112.0
136.6147 72.0
136.636368 76.0
136.667587 156.0
136.695358 84.0
136.741455 48.0
136.775833 180.0
136.802963 124.0
136.837738 164.0
136.952759 44.0
136.990204 188.0
137.015656 128.0
137.063034 12944.0
137.136627 96.0
137.170074 76.0
137.200699 116.0
137.227753 100.0
137.251236 52.0
137.296432 88.0
137.318359 84.0
137.335922 72.0
137.405334 140.0
137.430664 32.0
137.435806 160.0
137.495056 88.0
137.501572 52.0
137.509933 108.0
137.539124 112.0
137.560944 108.0
137.601059 64.0
137.631073 72.0
137.653076 116.0
137.715942 184.0
137.74585 124.0
137.770065 120.0
137.792572 88.0
137.820511 148.0
137.880737 128.0
137.912857 128.0
137.92984 200.0
137.9617 44.0
137.985229 112.0
138.001541 240.0
138.064255 412.0
138.088257 400.0
138.117477 132.0
138.120743 100.0
138.141739 92.0
138.164246 120.0
138.195343 232.0
138.241989 208.0
138.29068 48.0
138.32814 80.0
138.374954 168.0
138.435593 76.0
138.472015 72.0
138.506699 172.0
138.602158 56.0
138.637314 132.0
138.667786 128.0
138.71701 40.0
138.777023 140.0
138.794373 48.0
138.852997 172.0
138.911728 108.0
138.950821 172.0
139.028961 64.0
139.120499 140.0
139.146332 76.0
139.181549 52.0
139.334229 140.0
139.357712 112.0
139.430573 56.0
139.644516 216.0
139.682159 244.0
139.809219 52.0
140.077637 40.0
140.244934 152.0
140.336884 132.0
140.388763 164.0
140.563339 156.0
140.65065 32.0
140.719116 176.0
140.742371 132.0
140.804138 212.0
140.841919 88.0
141.087692 76.0
141.222488 172.0
141.326569 156.0
141.376266 144.0
141.428345 224.0
141.643814 272.0
141.700684 92.0
142.056305 196.0
142.117981 144.0
142.20816 40.0
142.474121 156.0
142.600067 116.0
142.65712 68.0
142.814072 204.0
142.830719 168.0
142.913986 148.0
143.018692 80.0
143.225861 56.0
143.25444 160.0
143.335449 164.0
143.623932 40.0
143.736069 204.0
143.752777 84.0
143.927032 168.0
143.962845 68.0
144.022568 120.0
144.087067 76.0
144.161133 224.0
144.290207 64.0
144.426529 84.0
144.692154 48.0
144.713699 52.0
144.848495 228.0
145.044312 164.0
145.061096 152.0
145.123428 56.0
145.236282 72.0
145.291321 84.0
145.423309 172.0
145.524139 100.0
145.56015 116.0
145.613907 116.0
145.733109 180.0
145.847473 68.0
145.920578 104.0
146.023987 36.0
146.098557 80.0
146.153885 116.0
146.242935 112.0
146.659637 184.0
146.949036 152.0
147.047974 44.0
147.105911 140.0
147.134872 56.0
147.159027 168.0
147.229767 148.0
147.330505 164.0
147.364334 72.0
147.492416 188.0
147.567352 152.0
147.637482 212.0
147.658615 180.0
147.756012 84.0
147.927841 60.0
148.063431 192.0
148.099762 120.0
148.131256 136.0
148.29361 80.0
148.684097 52.0
148.807892 80.0
148.934174 136.0
149.157516 176.0
149.456879 152.0
149.661346 244.0
149.795303 148.0
149.814789 172.0
149.975616 160.0
150.134094 52.0
150.208313 224.0
150.600266 112.0
150.697983 268.0
150.964432 148.0
151.446594 132.0
151.495575 148.0
151.598495 136.0
151.623001 192.0
151.672028 144.0
151.735764 60.0
151.941772 44.0
152.037476 132.0
152.334579 172.0
152.388626 64.0
152.570511 56.0
152.710678 152.0
152.779556 52.0
152.812881 88.0
152.82988 88.0
153.025665 88.0
153.046844 180.0
153.622101 124.0
153.863953 52.0
153.945435 104.0
154.121979 120.0
154.306198 204.0
154.513962 164.0
154.786224 160.0
154.836685 172.0
154.927414 104.0
155.011658 72.0
155.031479 176.0
155.086014 64.0
155.738586 124.0
155.815598 240.0
156.057556 184.0
156.136261 56.0
156.442322 116.0
156.591736 152.0
156.619125 176.0
156.731232 204.0
156.863327 108.0
156.958069 204.0
157.187576 128.0
157.769547 128.0
157.844559 124.0
157.867065 148.0
158.472839 96.0
158.695908 204.0
158.808762 204.0
159.027054 140.0
159.200287 116.0
159.343475 116.0
159.366089 148.0
159.582245 116.0
159.773392 172.0
160.022568 140.0
160.198868 104.0
160.466003 132.0
160.505722 256.0
160.713196 108.0
160.738434 140.0
160.826767 112.0
161.0103 168.0
161.182861 128.0
161.329453 176.0
161.453354 192.0
161.731674 64.0
162.038101 172.0
162.382858 156.0
162.461487 120.0
163.381165 76.0
164.015259 276.0
164.201401 32.0
164.280472 156.0
164.448883 144.0
164.466751 160.0
164.607178 176.0
164.625443 128.0
165.46376 160.0
165.548248 120.0
165.991287 172.0
166.266586 104.0
166.605042 132.0
166.936615 72.0
167.031784 104.0
167.073334 160.0
167.120041 196.0
167.19902 36.0
167.348328 132.0
167.546646 132.0
167.719315 88.0
168.026199 92.0
168.31012 160.0
168.459915 64.0
168.604614 140.0
168.793335 52.0
169.114136 52.0
169.811127 124.0
170.234161 180.0
171.251068 68.0
171.608093 140.0
171.89241 168.0
171.91069 152.0
172.116913 120.0
172.143021 144.0
172.346771 80.0
172.631714 348.0
172.990173 220.0
173.008499 168.0
173.152512 208.0
173.265152 200.0
173.713455 220.0
173.810532 40.0
173.839401 96.0
173.98114 176.0
174.482941 192.0
174.745941 136.0
174.843307 108.0
174.922272 168.0
175.082886 172.0
175.103958 180.0
175.140839 160.0
175.385895 148.0
175.449158 184.0
175.931946 132.0
175.963638 128.0
176.024368 152.0
176.106232 164.0
176.209259 144.0
176.481506 164.0
177.248993 140.0
177.352173 164.0
177.379013 196.0
177.556656 180.0
177.898956 100.0
178.007812 124.0
178.072678 1072.0
178.127335 132.0
178.356384 204.0
178.539322 160.0
179.040405 216.0
179.319412 140.0
179.722092 188.0
179.767456 152.0
179.868881 132.0
179.96582 208.0
179.993408 208.0
180.151947 148.0
180.437912 32.0
181.364166 100.0
181.414154 228.0
181.522354 180.0
181.793304 160.0
181.833557 140.0
182.008057 56.0
182.091309 220.0
182.158463 136.0
182.634247 184.0
182.83873 180.0
183.094498 180.0
183.493317 156.0
183.655121 168.0
183.88446 172.0
183.924957 200.0
183.945633 212.0
183.965439 252.0
184.132858 136.0
184.386826 232.0
184.592285 36.0
184.624741 248.0
184.803284 188.0
184.938599 196.0
185.014389 164.0
185.03334 204.0
185.247299 152.0
185.602341 160.0
185.827469 204.0
186.076691 176.0
186.549896 304.0
186.666809 140.0
186.704895 224.0
187.069504 208.0
187.347275 132.0
187.434464 132.0
187.486237 52.0
187.576187 108.0
187.701599 228.0
188.009872 100.0
188.059006 212.0
188.337509 180.0
188.720123 208.0
188.952606 76.0
189.051117 108.0
189.335831 104.0
191.378937 136.0
191.88591 116.0
192.957169 144.0
193.020767 132.0
193.147995 208.0
193.557602 144.0
193.599136 236.0
194.44751 68.0
194.544662 72.0
194.719299 192.0
195.103058 168.0
195.26712 180.0
195.406219 128.0
195.439606 108.0
195.58989 108.0
195.723526 180.0
196.16095 208.0
196.250168 196.0
196.375656 108.0
196.598862 40.0
196.682587 108.0
196.755173 140.0
196.82666 172.0
196.866867 116.0
196.984177 188.0
197.006516 104.0
197.118286 80.0
197.837112 148.0
198.17601 200.0
198.302109 128.0
198.366577 224.0
198.391815 172.0
198.868683 88.0
199.14386 208.0
199.346146 40.0
199.624451 48.0
199.694763 144.0
199.868866 180.0
200.016266 200.0
200.485901 156.0
200.519714 176.0
200.595825 32.0
200.638107 164.0
201.097916 116.0
201.208008 208.0
201.295547 204.0
201.318588 124.0
201.38028 48.0
201.736313 124.0
201.823959 192.0
201.843765 192.0
201.933273 124.0
201.96521 160.0
202.05307 60.0
202.077316 180.0
202.101166 80.0
202.25116 72.0
202.426697 88.0
202.469177 136.0
202.551315 140.0
202.735489 112.0
202.881516 192.0
202.924225 112.0
202.993454 108.0
203.041672 132.0
203.064362 132.0
203.097351 156.0
203.125351 232.0
203.177307 160.0
203.217545 124.0
203.25444 72.0
203.285873 200.0
203.314026 48.0
203.390671 176.0
203.438919 108.0
203.479919 228.0
203.533432 112.0
203.623138 272.0
203.730301 360.0
203.757263 44.0
203.789902 160.0
203.824051 148.0
203.864136 96.0
203.896133 184.0
203.917023 168.0
203.956345 256.0
204.00061 128.0
204.032379 216.0
204.069962 392.0
204.124878 113440.0
204.214447 180.0
204.261459 128.0
204.293869 124.0
204.365112 96.0
204.401321 136.0
204.432953 240.0
204.465958 140.0
204.499222 160.0
204.524506 120.0
204.556 76.0
204.591156 648.0
204.64476 104.0
204.701523 176.0
204.78717 88.0
204.836273 88.0
204.857101 88.0
204.883652 36.0
204.903595 76.0
204.969269 212.0
205.00502 208.0
205.036667 296.0
205.076843 248.0
205.126495 13552.0
205.222809 48.0
205.268311 84.0
205.314896 124.0
205.428162 92.0
205.471298 68.0
205.496231 56.0
205.54866 52.0
205.596512 68.0
205.634964 84.0
205.704971 152.0
205.728561 112.0
205.801285 120.0
205.846542 88.0
205.896286 100.0
205.941986 96.0
205.971085 64.0
206.016251 48.0
206.035385 92.0
206.129288 1136.0
206.167694 96.0
206.195541 120.0
206.230576 48.0
206.276306 128.0
206.302032 132.0
206.354721 192.0
206.399063 124.0
206.427719 60.0
206.459747 252.0
206.48436 228.0
206.519867 100.0
206.552414 100.0
206.589157 384.0
206.615356 100.0
206.648499 136.0
206.682434 112.0
206.70549 140.0
206.779724 112.0
206.898193 104.0
206.948624 52.0
206.977264 52.0
207.12619 120.0
207.177765 48.0
207.352554 88.0
207.38121 100.0
207.739655 116.0
207.779816 48.0
207.87738 60.0
207.906082 68.0
208.089783 188.0
208.471832 64.0
208.612671 104.0
209.274399 72.0
209.452957 52.0
211.265854 64.0
211.581314 40.0
212.642258 140.0
212.874527 48.0
214.323166 148.0
214.483459 48.0
215.303345 112.0
215.370514 84.0
216.192093 92.0
216.253555 32.0
216.637161 132.0
216.769012 48.0
217.068024 128.0
217.144272 84.0
217.508102 72.0
218.086777 80.0
219.060776 84.0
219.125595 124.0
219.346619 52.0
220.979797 68.0
221.121841 80.0
221.927612 168.0
222.405243 48.0
222.898254 40.0
224.723557 76.0
226.226883 96.0
229.945496 224.0
230.011627 128.0
230.921127 52.0
234.522217 120.0
237.914719 48.0
242.024689 156.0
242.607178 68.0
243.271057 64.0
245.078064 112.0
246.137405 204.0
256.420563 116.0
257.119019 68.0
257.473419 84.0
257.96228 116.0
263.803528 72.0
264.223938 104.0
267.859955 48.0
269.59903 80.0
270.145081 44.0
271.166718 156.0
272.056366 72.0
276.149689 172.0
276.902985 148.0
277.127014 108.0
277.174622 104.0
278.328979 100.0
283.724243 144.0
285.820129 72.0
286.308258 68.0
286.908051 140.0
287.677246 80.0
290.886475 120.0
291.555603 72.0
293.046082 36.0
294.202271 88.0
298.364807 68.0
305.663116 120.0
308.813477 116.0
316.659027 136.0
318.153351 152.0
320.1716 72.0
324.549225 68.0
325.20575 76.0
327.719513 80.0
333.982635 68.0
336.165863 604.0
337.176208 132.0
337.76532 48.0
342.699524 64.0
351.14444 96.0
352.996826 36.0
355.004059 176.0
361.177185 64.0
361.888672 40.0
362.805542 108.0
370.281891 64.0
379.767548 120.0
381.355621 104.0
385.264099 136.0
386.847931 96.0
389.679565 56.0
390.764709 88.0
392.292816 48.0
392.900146 80.0
395.567688 112.0
400.312408 60.0
401.894928 92.0
403.592529 44.0
408.565979 96.0
409.831085 96.0
413.298767 124.0
424.001007 48.0
426.262268 56.0
426.463654 96.0
431.803101 120.0
431.852722 64.0
433.919159 72.0
444.854095 56.0
445.52182 48.0
462.724609 36.0
471.82428 104.0
478.963043 68.0
490.518585 88.0
504.4133 100.0
519.440613 108.0
544.216187 56.0
547.750732 68.0
550.012329 132.0
556.22876 100.0
565.68512 64.0
585.275146 56.0
588.877625 136.0
618.669556 48.0
623.247437 40.0
624.778809 20.0
631.588196 68.0
634.758484 140.0
644.382629 80.0
651.170776 80.0
663.427795 108.0
669.712463 116.0
683.712769 44.0
687.600708 120.0
699.836243 20.0
701.037292 176.0
730.278442 88.0
735.521362 40.0
737.03894 180.0
754.78717 176.0
760.188477 20.0
766.925842 72.0
767.339294 100.0
777.834045 140.0
782.24231 80.0
789.205078 48.0
805.001099 204.0
805.136597 96.0
814.220947 228.0
817.233826 176.0
824.361755 148.0
835.174927 172.0
838.987122 108.0
840.203979 192.0
840.290527 200.0
847.732483 176.0
849.036926 172.0
853.037537 216.0
854.398376 20.0
864.621704 152.0
881.11615 144.0
881.600647 168.0
884.92511 176.0
885.262634 56.0
885.961548 168.0
886.559998 44.0
889.620667 192.0
892.662781 148.0
898.929749 144.0
908.839172 132.0
917.018005 168.0
921.18158 248.0
921.374878 44.0
924.791565 156.0
926.129761 136.0
926.311462 152.0
933.832275 200.0
939.167969 100.0
944.647339 168.0
965.208618 176.0
967.67749 216.0
968.148132 132.0
970.478088 108.0
974.599609 184.0
976.993347 148.0
982.469543 268.0
985.816345 148.0
994.835876 172.0
995.250244 156.0
995.702393 64.0
1000.034424 188.0
1002.402466 144.0
1002.875183 180.0
1006.155457 128.0
1007.980896 88.0
1009.789001 240.0
1010.77594 44.0
1014.886902 160.0
1020.220215 168.0
1021.829285 96.0
1022.223755 168.0
1023.318604 232.0
1025.235962 204.0
1029.018677 48.0
1029.427368 188.0
1030.334351 184.0
1035.503052 76.0
1037.611328 116.0
1039.811646 160.0
1042.579712 136.0
1045.57666 176.0
1047.398926 68.0
1050.351196 204.0
1052.881348 160.0
1052.997681 172.0
1055.026611 256.0
1055.375732 236.0
1056.28772 176.0
1056.598267 164.0
1058.643677 164.0
1060.211426 176.0
1066.317749 204.0
1069.076294 188.0
1070.795044 116.0
1073.297485 176.0
1074.277222 196.0
1075.483032 68.0
1075.535278 124.0
1076.880371 232.0
1077.729614 100.0
1079.13501 228.0
1079.592651 108.0
1083.382568 232.0
1084.771851 188.0
1088.308228 132.0
1090.831055 220.0
1092.554077 220.0
1093.46875 236.0
1093.573975 216.0
1095.483643 184.0
1101.050781 60.0
1101.790649 96.0
1106.598877 152.0
1107.983154 160.0
1108.181885 140.0
1108.493408 204.0
1108.546387 132.0
1108.592773 156.0
1109.46106 56.0
1109.951782 68.0
1110.24353 204.0
1113.236572 172.0
1118.229492 128.0
1118.369263 180.0
1121.693237 64.0
1121.759888 192.0
1122.066528 184.0
1125.643066 184.0
1126.918823 156.0
1128.803833 164.0
1134.501831 172.0
1134.716431 228.0
1135.621704 40.0
1137.467041 232.0
1137.567627 176.0
1138.131592 32.0
1138.239136 208.0
1138.292847 216.0
1140.288086 144.0
1140.462891 44.0
1140.852783 212.0
1141.336792 96.0
1144.068481 140.0
1144.270508 244.0
1145.287354 216.0
1145.934082 160.0
1146.824097 188.0
1148.21936 216.0
1148.799438 96.0
1149.534912 184.0
1152.006104 188.0
1152.600708 92.0
1153.404907 180.0
1155.156372 144.0
1155.271362 28.0
1155.907349 252.0
1156.32019 228.0
1158.087402 156.0
1158.324463 96.0
1160.099976 136.0
1161.273071 64.0
1163.044067 136.0
1163.288452 176.0
1163.526001 52.0
1164.354492 156.0
1164.544678 140.0
1166.148193 112.0
1166.379272 192.0
1166.991211 200.0
1167.752808 128.0
1169.678467 156.0
1170.386475 88.0
1172.936279 224.0
1173.139038 148.0
1173.561768 156.0
1175.765137 204.0
1177.670166 188.0
1179.17334 148.0
1179.412476 236.0
1180.47229 164.0
1181.019409 60.0
1182.476807 164.0
1183.147583 196.0
1183.339355 172.0
1185.401123 188.0
1185.730103 80.0
1186.840698 248.0
1187.855713 160.0
1188.898682 152.0
1190.237305 64.0
1190.649292 120.0
1191.652222 60.0
1192.098877 48.0
1193.061157 148.0
1194.450317 152.0
1194.615479 104.0
1195.833374 196.0
1196.439209 140.0
1196.817871 208.0
1199.084351 200.0
1199.15332 140.0
1199.870239 36.0
1201.566772 144.0
1202.422485 144.0
1202.733154 80.0
1202.822876 192.0
1206.548096 156.0
1206.940552 132.0
1207.168701 196.0
1207.224121 192.0
1208.579956 300.0
1210.026489 228.0
1210.628906 128.0
1213.393677 176.0
1214.073242 212.0
1215.266479 152.0
1215.502319 156.0
1217.772583 120.0
1218.244873 60.0
1218.439453 188.0
1219.182983 116.0
1221.025391 180.0
1221.080933 208.0
1223.008301 228.0
1226.442383 136.0
1226.937256 84.0
1227.746094 176.0
1230.69104 172.0
1231.941162 132.0
1232.670776 236.0
1234.527344 36.0
1234.632324 184.0
1234.877075 136.0
1234.995972 224.0
1236.199341 124.0
1236.255371 208.0
1236.8573 136.0
1237.165283 140.0
1238.397705 216.0
1238.881104 224.0
1239.161377 180.0
1240.366699 44.0
1240.640137 140.0
1241.713013 172.0
1242.309204 160.0
1242.870483 140.0
1244.470947 192.0
1246.915527 104.0
1246.971802 140.0
1249.067139 112.0
1250.284424 160.0
1250.713745 224.0
1250.847534 116.0
1251.143188 152.0
1252.826416 132.0
1253.171631 160.0
1254.496582 180.0
1255.38501 96.0
1255.476685 56.0
1256.436646 220.0
1257.360474 208.0
1257.572144 204.0
1258.334595 176.0
1259.171753 116.0
1259.966064 132.0
1260.255737 192.0
1260.736328 128.0
1260.785767 164.0
1260.877686 56.0
1262.546143 124.0
1263.182739 160.0
1263.352539 236.0
1265.49707 128.0
1266.042236 120.0
1266.268921 168.0
1267.026855 124.0
1267.97644 200.0
1268.6073 124.0
1269.153198 84.0
1269.819824 188.0
1269.92627 140.0
1271.047119 84.0
1273.077393 228.0
1273.17334 136.0
1273.331787 168.0
1273.63855 152.0
1273.872925 152.0
1274.405762 132.0
1275.479004 208.0
1275.756226 176.0
1276.026367 188.0
1276.204834 244.0
1276.595215 144.0
1277.128662 212.0
1277.484375 172.0
1277.591064 156.0
1278.523193 312.0
1278.850586 164.0
1279.434326 184.0
1280.84436 168.0
1281.414307 72.0
1282.233765 208.0
1282.675659 224.0
1282.893311 232.0
1285.014893 152.0
1285.086182 180.0
1286.877808 104.0
1287.27771 180.0
1287.598999 208.0
1289.227905 200.0
1290.886475 160.0
1291.058105 116.0
1291.973755 140.0
1292.524658 208.0
1292.64624 160.0
1293.927612 100.0
1294.693726 152.0
1295.861328 152.0
1296.490601 100.0
1297.203857 136.0
1297.445312 176.0
1298.915405 188.0
1299.087646 196.0
1299.884033 172.0
1300.996582 132.0
1303.762085 152.0
1304.516724 144.0
1304.739624 24.0
1305.444336 152.0
1305.796753 160.0
1307.35791 196.0
1308.452026 124.0
1309.885132 132.0
1310.411133 148.0
1310.951538 144.0
1311.708374 184.0
1312.508667 92.0
1313.128052 176.0
1313.893433 312.0
1314.61499 148.0
1316.239258 208.0
1316.59314 168.0
1317.293823 208.0
1318.377563 172.0
1318.572754 228.0
1319.100342 156.0
1319.548584 176.0
1319.837891 212.0
1321.494263 124.0
1321.602661 148.0
1321.9646 176.0
1322.138306 136.0
1323.846802 212.0
1324.549438 144.0
1325.244873 224.0
1325.353638 72.0
1325.904419 176.0
1326.346558 156.0
1328.864502 156.0
1329.276611 268.0
1330.394409 204.0
1331.018799 160.0
1331.846802 180.0
1332.013794 340.0
1332.282593 168.0
1332.776733 168.0
1333.430786 148.0
1335.364746 164.0
1335.488403 132.0
1336.157715 108.0
1336.630615 188.0
1337.198242 108.0
1337.678711 188.0
1338.246582 120.0
1338.363037 196.0
1338.98938 176.0
1339.280762 164.0
1339.615845 196.0
1340.548462 144.0
1341.678223 144.0
1342.378174 148.0
1343.749512 236.0
1344.544922 180.0
1345.070435 128.0
1345.150757 208.0
1345.201904 88.0
1345.428223 124.0
1346.238647 156.0
1346.289795 152.0
1347.283203 164.0
1348.086914 88.0
1348.752075 192.0
1348.985962 120.0
1349.117554 100.0
1349.636719 172.0
1350.155884 68.0
1350.360718 136.0
1351.004395 148.0
1351.209229 104.0
1351.684937 160.0
1352.775391 200.0
1353.324585 200.0
1353.427002 168.0
1355.126343 212.0
1355.522095 188.0
1355.69751 248.0
1355.837158 64.0
1356.460205 168.0
1356.753418 160.0
1357.457397 200.0
1358.226318 180.0
1358.638306 184.0
1359.122559 132.0
1359.667114 172.0
1359.827026 136.0
1360.069336 144.0
1360.473022 52.0
1360.97229 136.0
1361.53772 168.0
1361.750732 168.0
1362.507324 216.0
1364.013916 172.0
1364.925537 168.0
1365.050537 196.0
1365.109375 124.0
1365.52124 128.0
1366.455566 164.0
1369.363281 280.0
1369.49585 228.0
1369.56958 204.0
1369.694824 128.0
1369.775757 320.0
1371.301147 44.0
1372.104614 76.0
1372.207886 96.0
1372.672363 196.0
1372.746094 216.0
1373.513184 116.0
1374.405884 48.0
1375.084839 128.0
1375.254639 132.0
1375.53418 160.0
1377.336914 136.0
1377.462402 132.0
1378.511597 56.0
1379.384644 176.0
1380.825684 104.0
1381.469238 176.0
1381.691162 208.0
1381.75769 132.0
1382.889893 200.0
1383.741333 148.0
1384.659546 84.0
1385.622559 272.0
1386.163452 164.0
1387.023193 232.0
1387.08252 124.0
1387.898071 100.0
1388.47644 212.0
1389.257446 164.0
1389.670776 148.0
1391.422363 60.0
1392.135254 204.0
1392.261475 244.0
1395.47168 116.0
1395.821167 40.0
1396.304565 92.0
1396.664917 44.0
1397.472534 132.0
1397.881714 200.0
1398.477173 68.0
1398.886597 172.0
1399.094971 128.0
1399.266235 156.0
1399.407715 108.0
1399.735352 164.0
1400.130005 164.0
1400.20459 168.0
1400.622559 160.0
1400.897217 160.0
1401.515625 144.0
1402.693237 176.0
1402.805054 140.0
1403.058472 124.0
1403.177856 152.0
1404.214355 216.0
1404.870728 176.0
1404.952881 160.0
1405.154297 140.0
1405.228882 108.0
1405.325928 132.0
1405.893066 80.0
1407.050049 108.0
1407.139648 148.0
1407.759399 48.0
1408.246338 100.0
1408.595947 160.0
1409.24585 180.0
1409.455078 128.0
1409.716675 128.0
1410.105347 112.0
1411.082153 328.0
1412.094116 176.0
1412.408325 152.0
1412.63269 108.0
1412.999268 116.0
1413.16394 140.0
1413.358154 224.0
1413.829834 168.0
1415.1698 92.0
1415.247559 252.0
1415.334595 180.0
1415.526733 128.0
1415.776367 68.0
1416.165894 160.0
1416.547852 128.0
1417.469482 184.0
1417.574341 176.0
1418.181396 132.0
1418.691162 128.0
1418.908569 120.0
1419.268555 192.0
1419.418457 204.0
1420.063477 176.0
1420.716064 180.0
1422.276978 128.0
1422.960083 132.0
1423.297974 152.0
1424.011475 160.0
1424.279175 160.0
1424.672485 212.0
1424.815186 204.0
1425.318604 180.0
1426.047607 176.0
1426.709106 136.0
1428.243286 160.0
1428.566772 248.0
1428.641968 192.0
1428.920288 136.0
1429.063232 148.0
1429.401855 208.0
1430.425537 64.0
1432.285522 180.0
1432.406006 188.0
1433.076538 148.0
1433.438232 156.0
1433.99231 192.0
1434.855225 236.0
1435.137329 188.0
1435.300171 160.0
1435.714844 140.0
1436.107056 344.0
1436.514404 48.0
1437.359619 164.0
1438.710571 168.0
1438.90686 228.0
1439.080444 144.0
1439.488281 152.0
1440.024414 128.0
1440.115112 56.0
1441.270996 148.0
1441.868042 136.0
1442.313965 144.0
1442.50293 108.0
1442.691895 204.0
1443.213623 188.0
1443.556641 252.0
1443.779785 156.0
1443.87146 168.0
1444.098389 32.0
1444.174072 180.0
1444.567383 220.0
1444.620361 272.0
1444.817017 176.0
1445.210449 168.0
1445.460205 84.0
1447.057373 176.0
1447.859985 104.0
1448.079712 208.0
1448.647827 180.0
1448.799316 160.0
1449.147827 240.0
1449.269043 172.0
1449.74646 84.0
1450.390747 208.0
1450.716675 176.0
1450.769775 180.0
1451.383911 188.0
1453.052612 68.0
1453.629272 164.0
1455.185303 168.0
1455.944702 52.0
1456.066162 140.0
1456.369995 104.0
1456.430786 156.0
1456.605469 140.0
1457.80603 44.0
1458.026367 48.0
1458.132812 160.0
1459.094727 140.0
1459.72168 196.0
1459.828125 80.0
1460.109619 168.0
1460.915894 136.0
1462.407349 176.0
1462.506226 108.0
1462.567139 188.0
1463.244751 108.0
1463.328491 260.0
1463.412231 168.0
1463.846313 168.0
1464.493652 208.0
1464.585083 244.0
1464.821167 180.0
1466.070801 80.0
1466.428955 108.0
1466.703369 128.0
1468.176025 184.0
1468.693604 260.0
1469.845581 176.0
1470.036377 140.0
1470.898804 212.0
1471.448486 152.0
1471.593628 160.0
1471.654663 172.0
1471.853149 204.0
1472.341919 128.0
1472.677979 108.0
1472.991211 216.0
1473.594727 128.0
1473.793457 144.0
1474.053223 200.0
1474.129639 184.0
1475.134766 184.0
1475.612549 148.0
1476.2854 120.0
1476.476685 196.0
1477.945435 140.0
1478.358643 64.0
1478.970947 224.0
1479.070435 172.0
1479.522095 56.0
1480.563477 164.0
1480.702881 164.0
1481.023071 148.0
1481.1073 160.0
1482.678101 164.0
1482.93103 140.0
1483.03833 200.0
1483.421509 176.0
1484.310913 176.0
1484.410645 156.0
1484.517944 120.0
1485.737549 352.0
1486.558594 152.0
1487.533325 176.0
1487.748291 196.0
1487.840454 164.0
1488.301147 144.0
1488.766968 164.0
1489.368652 152.0
1489.552979 108.0
1489.890991 208.0
1490.697876 200.0
1491.074463 236.0
1491.220459 168.0
1491.919922 84.0
1493.042603 164.0
1494.057983 164.0
1494.78894 176.0
1495.196777 136.0
1495.804932 184.0
1495.881836 216.0
1495.989624 172.0
1496.097412 164.0
1496.351562 252.0
1496.674927 196.0
1497.005981 192.0
1497.206299 192.0
1497.260132 188.0
1497.429565 144.0
1497.884033 160.0
1498.384766 56.0
1498.592896 140.0
1499.247803 224.0
1501.537598 176.0
1502.663086 192.0
1503.350708 40.0
1504.091675 112.0
1504.415894 200.0
1504.523926 144.0
1504.948608 188.0
