>compound MLS001162686-01!3-(5-hydroxy-1H-indol-3-yl)-2-[2-(3,4,7-trimethyl-2-oxochromen-5-yl)oxypropanoylamino]propanoic acid
>formula C26H26N2O7
>ionization [M+H]+
>parentmass 479.182
#inchi InChI=1S/C26H26N2O7/c1-12-7-21(23-13(2)14(3)26(33)35-22(23)8-12)34-15(4)24(30)28-20(25(31)32)9-16-11-27-19-6-5-17(29)10-18(16)19/h5-8,10-11,15,20,27,29H,9H2,1-4H3,(H,28,30)(H,31,32)
#inchikey MMKYMEZOBIWZRU
#Ion_Source LC-ESI
#Instrument qTof
#Compound_Source NIH Natural Product Library
#PI Dorrestein
#Data_Collector VVP/LMS
#Scan -1
#Precursor_MZ 479.182
#ExactMass 478.174
#Charge 1
#CAS_Number N/A
#Pubmed_ID N/A
#Smiles CC(Oc1cc(C)cc2oc(=O)c(C)c(C)c12)C(=O)NC(Cc3c[nH]c4ccc(O)cc34)C(=O)O
#INCHI_AUX N/A
#Library_Class 1
#SpectrumID CCMSLIB00000079409
#IonMode Positive
#UpdateWorkflowName UPDATE-SINGLE-ANNOTATED-GOLD
#LibraryQualityString Gold
#TaskID b1d8e8f6646f4e71acdff9ca3d919d08
##Scan# 1874
#SpectrumFile p1-H05_GH5_01_17961.mzXML
#LibraryName NIH_Natural_Products_Library.mgf
#MQScore -1
#Organism NIH_Natural_Products_Library
#TIC_Query 0
#RT_Query -1
#MZErrorPPM -1
#SharedPeaks 0
#MassDiff 0
#LibMZ -1
#SpecMZ 479.182
#SpecCharge 0
#internalFilename spec-00000.mgf

>collision 10
95.016716 152.0
95.062317 256.0
95.124428 168.0
95.252586 180.0
95.52668 216.0
95.768044 176.0
96.529175 60.0
96.55069 132.0
96.609367 224.0
96.626976 188.0
96.640671 148.0
96.699379 176.0
97.104942 40.0
97.254059 104.0
97.342407 164.0
97.428825 216.0
97.658813 176.0
97.737503 88.0
97.920586 140.0
97.956039 156.0
98.155098 132.0
98.287262 92.0
98.472832 148.0
98.526161 100.0
98.595322 164.0
98.668457 204.0
98.717888 164.0
99.191078 208.0
99.224785 176.0
99.268402 96.0
99.389404 152.0
99.466805 164.0
99.929848 156.0
99.995522 176.0
100.19664 108.0
100.350105 148.0
100.465775 152.0
100.667366 112.0
101.011139 192.0
101.059151 136.0
101.485779 164.0
101.664307 172.0
101.887184 176.0
101.951485 200.0
102.04998 116.0
102.341728 56.0
102.410194 136.0
102.779121 164.0
102.849754 160.0
102.924454 180.0
102.944649 136.0
103.053726 416.0
103.15477 40.0
103.385345 96.0
103.506805 152.0
103.608078 108.0
104.00351 188.0
104.021774 140.0
104.05629 88.0
104.151733 276.0
104.196426 232.0
104.855721 152.0
104.996399 248.0
105.069191 864.0
105.106552 180.0
105.243309 172.0
105.453728 52.0
105.533669 188.0
105.815804 164.0
106.000145 164.0
106.066673 568.0
106.104683 128.0
106.225677 156.0
106.508949 124.0
106.523331 192.0
106.757637 132.0
107.045456 180.0
107.081718 272.0
107.365982 180.0
108.04631 220.0
108.293137 188.0
108.4133 148.0
108.434021 132.0
108.888382 216.0
108.940315 148.0
109.058952 340.0
109.210541 80.0
109.810394 132.0
110.058632 176.0
110.217476 196.0
110.42234 52.0
110.864082 208.0
110.891327 164.0
110.975182 224.0
111.056969 124.0
111.130394 224.0
111.231125 152.0
111.258415 60.0
111.495773 164.0
111.567238 208.0
111.916489 64.0
112.072945 228.0
112.10186 40.0
112.367538 184.0
112.451942 156.0
113.132584 160.0
113.172813 152.0
113.367691 200.0
113.405838 180.0
113.590317 212.0
113.653961 120.0
113.959717 200.0
114.087234 164.0
114.583107 140.0
114.779198 140.0
115.052681 364.0
115.229561 252.0
115.725761 144.0
115.912109 148.0
116.04834 160.0
116.469917 136.0
116.600983 68.0
116.790184 176.0
117.035522 180.0
117.056023 512.0
117.460083 32.0
117.576599 224.0
117.822754 168.0
117.878929 188.0
117.950256 196.0
118.064804 444.0
118.203293 152.0
118.551941 92.0
118.810112 120.0
118.946678 184.0
119.029182 60.0
119.047684 200.0
119.068207 132.0
119.085556 1284.0
119.11171 220.0
119.947296 84.0
120.075935 164.0
120.75737 232.0
120.82518 92.0
120.842682 212.0
120.989319 112.0
121.06395 776.0
121.162331 52.0
121.225876 100.0
121.306084 208.0
121.471436 176.0
121.508728 68.0
121.574554 108.0
121.675529 136.0
121.754578 52.0
122.005066 156.0
122.060036 156.0
122.20961 92.0
122.55529 188.0
122.632423 176.0
122.749474 216.0
122.941185 84.0
123.038307 192.0
123.201736 60.0
123.582008 168.0
124.115814 184.0
124.208961 116.0
124.26886 164.0
124.386482 132.0
124.460823 140.0
124.610779 172.0
124.830833 184.0
125.044403 116.0
125.091148 124.0
125.536751 172.0
125.708527 160.0
125.844688 116.0
125.907211 100.0
125.994324 184.0
126.11499 164.0
126.208885 120.0
126.314003 72.0
126.627365 200.0
126.730408 200.0
126.833496 200.0
127.167702 200.0
127.194633 160.0
127.257492 120.0
127.410217 152.0
127.466393 224.0
128.061569 344.0
128.143661 144.0
128.420944 148.0
128.565323 96.0
128.856613 220.0
129.069458 476.0
129.77327 168.0
130.066483 864.0
130.106781 140.0
130.349808 152.0
130.649933 180.0
130.924057 208.0
131.041275 352.0
131.070389 296.0
131.08812 248.0
131.31279 124.0
131.449661 40.0
131.627716 96.0
131.73735 172.0
131.87674 168.0
131.960785 204.0
132.039963 204.0
132.082031 188.0
132.914154 176.0
133.028915 140.0
133.051849 912.0
133.100296 584.0
133.322922 168.0
133.458542 144.0
133.548233 212.0
133.690872 216.0
133.771423 64.0
134.058975 2600.0
134.089294 136.0
134.186111 148.0
134.271423 104.0
134.312943 176.0
134.375229 56.0
134.435226 192.0
134.499847 232.0
134.862488 176.0
135.022018 248.0
135.061142 448.0
135.082382 168.0
135.121185 212.0
135.352951 204.0
135.371475 80.0
135.540573 156.0
135.858215 128.0
135.906937 144.0
135.932449 144.0
135.953339 84.0
136.036896 160.0
136.580643 228.0
136.708618 176.0
136.927155 124.0
137.059174 156.0
137.081207 108.0
137.200073 52.0
137.330658 124.0
137.491653 152.0
137.599014 168.0
137.905045 108.0
138.068085 392.0
138.24884 172.0
138.522766 176.0
139.03392 236.0
139.052689 168.0
139.120758 164.0
139.600082 128.0
139.616547 172.0
140.313522 216.0
140.92009 72.0
141.068039 452.0
141.102081 168.0
141.338593 116.0
141.549271 184.0
141.885727 144.0
141.904694 184.0
141.999542 36.0
142.074707 396.0
142.735733 56.0
142.783295 152.0
143.059677 196.0
143.078354 308.0
143.230759 72.0
143.276016 76.0
143.951019 176.0
144.056549 428.0
144.094086 452.0
144.223389 196.0
144.240112 144.0
144.804794 100.0
144.893433 204.0
145.064056 260.0
145.105728 248.0
145.220016 116.0
145.360977 192.0
145.418579 168.0
145.665894 192.0
145.935059 172.0
145.959106 204.0
146.059708 12972.0
146.102402 180.0
146.150742 236.0
146.206879 44.0
146.238174 80.0
146.362183 68.0
146.416336 48.0
146.459686 228.0
146.476547 60.0
146.662094 156.0
146.678955 184.0
146.698242 116.0
146.734406 132.0
146.770569 176.0
146.903229 64.0
147.062271 1208.0
147.116257 740.0
147.208923 76.0
147.27861 100.0
147.47551 76.0
147.523849 68.0
147.567368 84.0
147.618149 108.0
147.746338 48.0
147.939941 136.0
148.073608 888.0
148.113159 180.0
148.191818 64.0
148.249969 48.0
148.317825 112.0
148.351761 56.0
148.582153 200.0
148.708344 156.0
148.888 144.0
149.095352 500.0
149.174713 176.0
149.313309 200.0
149.361954 60.0
149.651428 76.0
150.026749 200.0
150.103302 216.0
150.485413 172.0
150.524475 152.0
151.147812 152.0
151.872604 132.0
152.029999 124.0
152.071716 200.0
152.547211 156.0
152.646591 216.0
152.769562 204.0
153.136337 144.0
153.703339 156.0
153.920563 120.0
154.070724 140.0
154.199722 136.0
154.657288 180.0
154.845459 148.0
154.877655 184.0
155.076523 292.0
156.05983 276.0
156.081055 348.0
156.106171 136.0
156.357437 144.0
156.569061 160.0
156.845612 168.0
156.940353 148.0
157.061111 268.0
157.097839 456.0
157.146561 136.0
157.237213 104.0
157.257172 156.0
157.349533 224.0
157.434433 144.0
157.774246 160.0
157.854263 144.0
157.989319 144.0
158.059845 2284.0
158.100204 852.0
158.141968 108.0
158.470016 112.0
158.500092 144.0
158.803421 164.0
159.07692 2768.0
159.11499 1020.0
159.147232 40.0
159.594482 32.0
159.929062 104.0
159.954239 148.0
160.049606 168.0
160.078094 2000.0
160.193466 64.0
160.264008 252.0
160.296753 100.0
160.461395 192.0
160.480774 48.0
160.692627 40.0
160.907166 84.0
161.060715 752.0
161.094788 916.0
161.16478 136.0
161.430191 120.0
161.574371 160.0
161.718613 36.0
161.794556 76.0
162.025009 108.0
162.054382 4148.0
162.090271 748.0
162.156784 36.0
162.316498 180.0
162.356018 136.0
162.395111 40.0
162.534637 32.0
162.791016 28.0
162.9104 200.0
163.001862 148.0
163.059769 792.0
163.086502 196.0
163.111679 620.0
163.58429 148.0
163.670853 180.0
163.703964 144.0
163.963806 124.0
164.065765 224.0
164.259583 52.0
164.303589 128.0
164.690964 40.0
165.012939 128.0
165.683487 160.0
165.760345 96.0
166.066162 212.0
166.368225 64.0
167.071121 388.0
167.136688 72.0
167.83989 232.0
168.080261 448.0
168.283691 80.0
168.397324 152.0
168.604004 132.0
169.075821 200.0
169.100571 220.0
169.279205 100.0
169.839005 140.0
169.859756 148.0
169.919434 80.0
170.059219 1104.0
170.095367 172.0
170.155609 124.0
170.24649 184.0
170.433517 152.0
170.485489 72.0
171.063919 1992.0
171.203506 64.0
171.500519 52.0
171.537003 116.0
172.082596 320.0
172.233719 128.0
172.484558 76.0
172.581299 160.0
172.628357 76.0
172.746063 72.0
172.829773 196.0
173.036545 148.0
173.079025 1068.0
173.371841 140.0
173.481918 176.0
173.581558 148.0
173.639252 92.0
173.733673 80.0
173.914734 224.0
174.04863 148.0
174.083389 2156.0
174.151047 100.0
174.188644 64.0
174.461121 132.0
174.514969 68.0
174.960968 176.0
175.08493 3668.0
175.108994 2384.0
175.147934 40.0
175.311279 204.0
175.487885 40.0
175.601288 216.0
176.083481 1836.0
176.110809 424.0
176.184647 68.0
176.467438 116.0
176.938385 172.0
177.060181 52.0
177.086411 636.0
177.203232 28.0
177.224426 92.0
177.425858 60.0
177.523956 32.0
178.089249 196.0
179.683807 52.0
180.05484 152.0
180.300629 196.0
180.477844 180.0
180.848907 108.0
180.953308 80.0
181.282776 180.0
182.334778 160.0
182.426163 84.0
182.813477 208.0
182.861923 180.0
183.064896 176.0
183.344009 120.0
183.929291 216.0
184.074738 4024.0
184.215515 172.0
184.283066 64.0
184.345215 36.0
184.447906 56.0
184.501984 124.0
184.704788 36.0
184.748077 52.0
185.042206 308.0
185.08551 544.0
185.140549 44.0
185.278687 72.0
185.381653 40.0
185.660889 200.0
185.763947 128.0
185.856201 92.0
186.053696 2556.0
186.090729 2452.0
186.121994 104.0
186.131241 184.0
186.168365 172.0
186.532745 72.0
186.877823 56.0
187.058624 676.0
187.094528 708.0
187.134537 228.0
187.190857 160.0
187.348831 148.0
187.460541 72.0
187.632263 64.0
188.000488 120.0
188.08136 928.0
188.117859 136.0
188.243454 116.0
188.360901 68.0
188.382751 60.0
189.055359 160.0
189.084854 356.0
189.498962 104.0
189.646942 84.0
189.890961 176.0
190.094788 124.0
190.244934 60.0
190.819122 96.0
191.061142 212.0
192.116272 176.0
192.831436 92.0
194.496078 156.0
194.682098 124.0
194.923782 144.0
195.318558 120.0
195.51889 124.0
196.078674 332.0
196.59462 164.0
197.019028 88.0
197.455078 148.0
197.541794 168.0
198.054047 160.0
199.053833 156.0
199.819794 36.0
200.019608 140.0
200.072586 324.0
200.112503 188.0
200.802902 208.0
201.066681 748.0
201.097763 1764.0
201.142746 100.0
201.21489 176.0
201.262894 100.0
201.539703 96.0
201.813873 136.0
202.086166 344.0
202.097595 220.0
202.498703 92.0
202.67836 144.0
202.813202 116.0
202.847229 136.0
202.946457 156.0
202.969131 148.0
203.055588 1232.0
203.106796 4492.0
203.178314 64.0
203.252792 56.0
203.303864 92.0
203.374817 44.0
203.42308 52.0
203.587753 64.0
203.73262 164.0
203.871841 100.0
203.979843 188.0
204.064377 6964.0
204.110291 1004.0
204.187408 100.0
204.218689 176.0
204.286957 148.0
204.471909 36.0
204.508911 60.0
204.56015 32.0
204.691116 44.0
204.736679 68.0
204.813583 48.0
204.931778 204.0
205.004471 72.0
205.083862 6748.0
205.243912 52.0
205.292389 92.0
205.343719 104.0
205.403625 40.0
205.594788 80.0
205.657578 44.0
205.708954 32.0
205.817444 48.0
206.088821 1292.0
206.194534 92.0
206.283142 28.0
206.406082 92.0
206.597702 124.0
206.82663 84.0
206.995544 52.0
207.09227 588.0
207.196045 124.0
207.519913 140.0
207.62027 92.0
207.755081 128.0
208.49588 132.0
208.567734 140.0
208.878296 60.0
209.03653 100.0
209.151657 64.0
211.08522 244.0
212.071472 576.0
212.686768 56.0
213.086609 676.0
213.7883 64.0
214.08194 488.0
214.446487 164.0
214.901413 148.0
214.937363 112.0
215.081589 1168.0
215.298401 76.0
215.847794 80.0
216.079224 492.0
217.082275 204.0
218.061157 128.0
218.090546 188.0
218.631714 80.0
219.076324 128.0
220.093842 212.0
220.602005 84.0
222.144852 124.0
222.426758 192.0
222.702911 72.0
225.482727 68.0
226.796661 152.0
227.093506 96.0
228.812363 144.0
229.097763 740.0
229.339539 28.0
229.54454 208.0
229.858261 68.0
230.105072 2236.0
230.141998 48.0
230.206589 132.0
230.302048 180.0
230.655579 148.0
230.885361 132.0
230.93222 128.0
231.100632 8972.0
231.36647 76.0
231.39978 40.0
231.505753 72.0
231.584503 80.0
231.696579 92.0
232.036026 176.0
232.103897 1292.0
232.148209 44.0
232.333237 32.0
233.074051 80.0
233.134827 72.0
233.244247 120.0
233.490524 120.0
233.533112 68.0
233.572647 124.0
233.840408 100.0
234.053513 136.0
234.102234 116.0
234.382477 52.0
234.492188 136.0
234.888565 156.0
235.465439 40.0
236.04303 76.0
236.596817 104.0
237.442535 72.0
238.876953 104.0
239.280106 108.0
240.334198 68.0
240.497757 84.0
241.084564 180.0
242.350174 104.0
243.100586 144.0
246.298065 116.0
247.103592 604.0
247.564743 100.0
248.114761 548.0
248.407852 40.0
250.68103 96.0
251.153946 124.0
251.766235 88.0
254.622879 140.0
255.096313 136.0
256.095459 52.0
256.120941 176.0
257.092377 180.0
257.869446 48.0
258.112396 96.0
258.739532 80.0
259.094879 572.0
259.473175 84.0
259.49884 116.0
260.097931 220.0
261.101196 88.0
262.093109 288.0
268.074585 132.0
270.864777 72.0
273.139587 48.0
275.826996 92.0
276.124512 492.0
276.174194 112.0
277.113251 204.0
277.144165 144.0
278.168976 64.0
285.158661 124.0
287.109467 116.0
292.953033 212.0
295.571716 256.0
300.133331 44.0
301.092682 164.0
308.658112 100.0
312.10849 136.0
314.112427 172.0
316.551117 160.0
318.242493 68.0
321.74765 20.0
322.152985 64.0
323.225586 156.0
328.106781 136.0
334.118713 88.0
335.797974 92.0
346.124023 176.0
348.142181 116.0
351.996429 64.0
357.134552 96.0
362.139465 160.0
366.588287 44.0
367.881287 44.0
371.908234 80.0
372.223053 52.0
377.459808 128.0
378.249054 92.0
383.941193 64.0
384.132294 88.0
385.43631 100.0
388.309753 112.0
398.593872 84.0
405.185364 108.0
415.145538 132.0
416.14975 176.0
419.019226 64.0
425.169189 84.0
427.791565 140.0
431.640961 36.0
433.173798 600.0
433.213745 136.0
434.184937 288.0
434.785217 100.0
435.158783 112.0
435.192017 176.0
439.187103 152.0
445.205597 180.0
450.250885 124.0
461.110291 48.0
461.157318 96.0
477.237579 104.0
478.447113 64.0
479.172272 276.0
480.186829 96.0
485.696838 44.0
495.292908 60.0
504.929169 76.0
524.08374 112.0
528.462463 52.0
601.316406 44.0
661.509521 20.0
672.545776 56.0
699.401184 228.0
701.41864 128.0
729.257996 104.0
744.319946 164.0
774.905762 52.0
779.483398 84.0
827.145691 76.0
863.396423 116.0
926.749329 180.0
930.084778 160.0
943.144226 192.0
951.407898 164.0
966.966125 80.0
974.575073 248.0
978.163513 128.0
978.636658 216.0
984.71051 72.0
990.126648 164.0
998.750427 208.0
1007.045227 280.0
1009.130615 164.0
1027.141235 132.0
1029.496338 232.0
1048.453735 196.0
1070.18689 200.0
1072.968872 208.0
1075.571777 148.0
1081.186157 200.0
1083.615479 180.0
1092.406128 184.0
1095.039062 220.0
1108.456543 172.0
1110.498413 128.0
1111.254639 240.0
1112.389526 60.0
1121.869141 148.0
1126.106323 152.0
1137.912109 184.0
1141.70874 272.0
1144.494629 116.0
1145.922485 116.0
1147.398438 136.0
1151.359375 120.0
1163.595215 80.0
1168.257324 180.0
1168.665527 88.0
1175.90271 48.0
1183.737183 200.0
1183.928955 148.0
1191.013916 172.0
1193.247314 208.0
1196.30188 76.0
1199.663574 212.0
1200.318604 88.0
1202.84375 60.0
1208.427612 144.0
1208.787476 108.0
1209.618042 128.0
1226.936646 172.0
1238.704956 140.0
1239.657837 68.0
1243.732666 164.0
1251.726196 132.0
1257.958862 216.0
1261.660645 168.0
1262.148438 164.0
1264.107178 172.0
1266.026245 212.0
1267.825684 196.0
1282.060425 152.0
1282.366821 216.0
1284.348999 204.0
1285.133789 124.0
1287.468018 116.0
1288.589478 128.0
1290.254639 264.0
1297.098389 208.0
1299.457764 232.0
1303.78772 188.0
1312.952393 104.0
1315.593262 188.0
1316.87854 192.0
1319.552368 120.0
1321.418335 196.0
1323.633179 108.0
1325.907837 140.0
1332.867188 196.0
1337.725464 148.0
1337.914795 124.0
1339.15271 148.0
1340.347412 224.0
1340.515015 180.0
1342.322876 80.0
1355.224243 272.0
1358.384033 184.0
1366.656494 256.0
1377.737671 184.0
1377.981445 212.0
1380.125 236.0
1382.669678 204.0
1386.424438 228.0
1389.101074 208.0
1389.850342 204.0
1396.305908 40.0
1399.788696 160.0
1402.58252 212.0
1404.41687 92.0
1405.140381 136.0
1405.565674 192.0
1409.299072 164.0
1410.352783 144.0
1410.614502 284.0
1412.237061 132.0
1412.753174 160.0
1413.58374 120.0
1414.489258 124.0
1415.97937 100.0
1417.132935 196.0
1418.556885 116.0
1420.176514 176.0
1424.462524 172.0
1425.9729 132.0
1430.711792 88.0
1436.416382 128.0
1436.703125 52.0
1439.216309 84.0
1439.41272 152.0
1445.833984 172.0
1452.263184 192.0
1452.346558 140.0
1452.695557 160.0
1453.454224 152.0
1454.448364 232.0
1455.549194 224.0
1459.143066 160.0
1459.348389 120.0
1463.441895 176.0
1472.195679 196.0
1472.348511 192.0
1473.922119 180.0
1474.113159 200.0
1474.969116 176.0
1475.076172 144.0
1476.383545 132.0
1478.403198 184.0
1487.631592 256.0
1489.105835 212.0
1491.579956 168.0
1495.764526 180.0
1497.674072 144.0
1499.107056 120.0
1500.348022 244.0
1501.774658 156.0
1503.410278 228.0
