>compound MLS002153425-01!Trifluperidol hydrochloride2062-77-3
>formula C22H23F4NO2
>ionization [M+H]+
>parentmass 410.174072
#inchi InChI=1S/C22H23F4NO2/c23-19-8-6-16(7-9-19)20(28)5-2-12-27-13-10-21(29,11-14-27)17-3-1-4-18(15-17)22(24,25)26/h1,3-4,6-9,15,29H,2,5,10-14H2
#inchikey GPMXUUPHFNMNDH
#origInchi InChI=1S/C22H23F4NO2.ClH/c23-19-8-6-16(7-9-19)20(28)5-2-12-27-13-10-21(29,11-14-27)17-3-1-4-18(15-17)22(24,25)26;/h1,3-4,6-9,15,29H,2,5,10-14H2;1H
#Ion_Source LC-ESI
#Instrument qTof
#Compound_Source NIH Pharmacologically Active Library
#PI Dorrestein
#Data_Collector VP/LMS
#Scan -1
#Precursor_MZ 410.182
#ExactMass 409.167
#Charge 1
#CAS_Number N/A
#Pubmed_ID N/A
#Smiles OC1(CCN(CCCC(=O)c2ccc(F)cc2)CC1)c3cccc(c3)C(F)(F)F.Cl
#INCHI_AUX N/A
#Library_Class 1
#SpectrumID CCMSLIB00000085467
#IonMode Positive
#UpdateWorkflowName UPDATE-SINGLE-ANNOTATED-GOLD
#LibraryQualityString Gold
#TaskID d252d724072548979f1f6f1ced849daf
##Scan# 1773
#SpectrumFile p4-B04_GB4_01_18340.mzXML
#LibraryName Pharm_Active_Library.mgf
#MQScore -1
#Organism Pharm_Active_Library
#TIC_Query 0
#RT_Query -1
#MZErrorPPM -1
#SharedPeaks 0
#MassDiff 0
#LibMZ -1
#SpecMZ 410.182
#SpecCharge 0
#internalFilename spec-00000.mgf

>collision 10
44.889713 112.0
44.904278 192.0
44.929291 152.0
44.949741 112.0
44.961285 136.0
44.978519 292.0
44.998215 100.0
45.012955 156.0
45.02631 268.0
45.04501 220.0
45.058006 192.0
45.08371 304.0
45.104942 136.0
45.109463 120.0
45.114857 164.0
45.125858 104.0
45.138271 152.0
45.155098 196.0
45.163971 344.0
45.203732 304.0
45.222561 132.0
45.236488 164.0
45.260822 108.0
45.277737 96.0
45.289516 256.0
45.293991 204.0
45.298569 144.0
45.311222 152.0
45.32328 112.0
45.33802 132.0
45.367195 196.0
45.38448 280.0
45.406765 188.0
45.414776 144.0
45.438587 128.0
45.471031 156.0
45.481529 300.0
45.490925 44.0
45.512211 248.0
45.539963 196.0
45.560753 108.0
45.585258 208.0
45.604076 200.0
45.620243 180.0
45.660946 260.0
45.678696 276.0
45.695316 180.0
45.716927 292.0
45.733631 128.0
45.752186 196.0
45.772705 224.0
45.792461 140.0
45.810623 192.0
45.829426 188.0
45.838303 160.0
45.877018 260.0
45.893112 152.0
45.904675 236.0
45.909824 152.0
45.913265 152.0
45.931458 168.0
45.949036 68.0
45.958824 120.0
45.975849 240.0
45.989491 216.0
45.998943 132.0
46.019253 120.0
46.029556 188.0
46.046146 188.0
46.06469 144.0
46.084015 432.0
46.10511 92.0
46.121868 228.0
46.146297 204.0
46.167297 288.0
46.182098 72.0
46.184616 104.0
46.211811 136.0
46.238636 452.0
46.24794 204.0
46.253361 124.0
46.25687 156.0
46.267895 172.0
46.289181 176.0
46.301273 152.0
46.311558 140.0
46.328732 160.0
46.343266 100.0
46.361393 332.0
46.376408 208.0
46.392384 152.0
46.408108 168.0
46.420528 124.0
46.436249 148.0
46.454144 112.0
46.459736 88.0
46.468388 140.0
46.481186 284.0
46.483589 204.0
46.489349 180.0
46.504639 84.0
46.514141 64.0
46.532425 308.0
46.556229 136.0
46.567093 84.0
46.587166 144.0
46.599178 172.0
46.612034 144.0
46.633602 160.0
46.656563 204.0
46.665775 304.0
46.688229 120.0
46.700882 172.0
46.712811 176.0
46.736057 204.0
46.748505 300.0
46.766956 120.0
46.777847 52.0
46.789818 116.0
46.814484 176.0
46.831688 168.0
46.846199 204.0
46.860409 160.0
46.872356 224.0
46.888603 176.0
46.901672 168.0
46.915085 188.0
46.926338 140.0
46.945431 136.0
46.958481 128.0
46.974804 108.0
46.991806 164.0
47.005703 164.0
47.023346 140.0
47.037716 280.0
47.058044 120.0
47.080387 368.0
47.098286 120.0
47.112049 104.0
47.124096 112.0
47.133877 228.0
47.148243 92.0
47.195248 252.0
47.216793 368.0
47.226925 128.0
47.244549 144.0
47.263557 200.0
47.283909 240.0
47.295818 292.0
47.310322 136.0
47.323929 144.0
47.338989 112.0
47.367752 292.0
47.378708 212.0
47.398788 192.0
47.417744 300.0
47.444489 308.0
47.465397 172.0
47.478371 264.0
47.494709 192.0
47.515804 128.0
47.537758 28.0
47.562462 244.0
47.578644 152.0
47.597862 188.0
47.622997 180.0
47.644463 124.0
47.659542 188.0
47.6847 208.0
47.698627 152.0
47.732731 128.0
47.754105 108.0
47.763714 172.0
47.775597 168.0
47.786999 152.0
47.807766 364.0
47.827744 292.0
47.849266 208.0
47.858475 136.0
47.873989 116.0
47.89024 108.0
47.909069 136.0
47.923889 312.0
47.936287 152.0
47.948792 268.0
47.966312 132.0
47.98011 164.0
47.984371 160.0
47.990269 176.0
48.009529 316.0
48.021633 212.0
48.030773 160.0
48.035809 180.0
48.039085 160.0
48.050777 160.0
48.065792 60.0
48.085373 304.0
48.089161 204.0
48.109348 168.0
48.13728 184.0
48.147533 76.0
48.152439 204.0
48.169792 176.0
48.19043 172.0
48.215302 144.0
48.224976 160.0
48.241287 100.0
48.27969 132.0
48.301273 232.0
48.325924 120.0
48.345978 156.0
48.356369 152.0
48.372978 124.0
48.393547 340.0
48.420052 152.0
48.429749 104.0
48.44342 156.0
48.463524 184.0
48.484753 296.0
48.505363 392.0
48.525963 316.0
48.541824 124.0
48.579449 232.0
48.5961 104.0
48.608452 124.0
48.620892 164.0
48.630112 396.0
48.642944 148.0
48.66827 128.0
48.686615 304.0
48.698158 92.0
48.710796 168.0
48.719711 320.0
48.733551 164.0
48.755817 176.0
48.774632 152.0
48.793316 64.0
48.809044 472.0
48.827293 348.0
48.841984 188.0
48.858646 180.0
48.871372 148.0
48.886284 112.0
48.897034 364.0
48.917126 88.0
48.926868 176.0
48.936615 192.0
48.955616 192.0
48.974216 232.0
48.996998 164.0
49.015556 148.0
49.032204 148.0
49.040382 180.0
49.051563 164.0
49.055904 192.0
49.085941 164.0
49.106445 356.0
49.124756 144.0
49.139454 224.0
49.14399 132.0
49.148746 196.0
49.163368 364.0
49.17778 196.0
49.191738 148.0
49.2043 188.0
49.215237 168.0
49.2346 160.0
49.258064 312.0
49.271191 164.0
49.2761 156.0
49.311405 136.0
49.327801 276.0
49.333176 112.0
49.337223 156.0
49.357216 144.0
49.367516 384.0
49.390858 160.0
49.40974 48.0
49.422333 104.0
49.443321 184.0
49.452698 172.0
49.463177 184.0
49.481117 152.0
49.510941 324.0
49.535221 188.0
49.547005 168.0
49.569355 124.0
49.581783 120.0
49.586819 200.0
49.60342 328.0
49.614208 128.0
49.634857 132.0
49.641548 148.0
49.657497 188.0
49.673103 104.0
49.69099 128.0
49.705372 188.0
49.716568 188.0
49.731133 180.0
49.741863 160.0
49.766876 176.0
49.788452 196.0
49.816681 200.0
49.830803 224.0
49.845753 152.0
49.878662 360.0
49.890766 100.0
49.900608 44.0
49.912701 352.0
49.929096 292.0
49.939873 128.0
49.965237 268.0
49.969631 104.0
49.975807 180.0
49.984306 244.0
50.012489 152.0
50.022575 256.0
50.035995 172.0
50.05928 52.0
50.068554 124.0
50.083054 328.0
50.094337 196.0
50.128098 212.0
50.137554 120.0
50.147961 128.0
50.151665 196.0
50.172173 144.0
50.184799 160.0
50.190319 136.0
50.216339 224.0
50.230431 192.0
50.245541 152.0
50.274826 232.0
50.311317 212.0
50.334457 336.0
50.356297 388.0
50.368992 304.0
50.388798 164.0
50.421371 136.0
50.431526 140.0
50.448967 116.0
50.467178 124.0
50.479649 292.0
50.49588 56.0
50.511429 376.0
50.52821 52.0
50.538113 264.0
50.554173 276.0
50.573071 152.0
50.585693 200.0
50.608017 216.0
50.619125 224.0
50.636581 136.0
50.658058 216.0
50.68615 312.0
50.709461 288.0
50.726337 256.0
50.745899 160.0
50.751965 236.0
50.754982 284.0
50.789295 208.0
50.805344 116.0
50.836296 176.0
50.850628 404.0
50.867077 164.0
50.881443 264.0
50.892986 332.0
50.918015 48.0
50.930798 88.0
50.952694 164.0
50.966415 112.0
50.981945 124.0
51.005878 100.0
51.019634 124.0
51.047764 160.0
51.064404 208.0
51.084496 472.0
51.095371 144.0
51.119884 148.0
51.145908 276.0
51.17144 196.0
51.183788 152.0
51.201332 168.0
51.246769 252.0
51.257854 148.0
51.261738 104.0
51.279438 112.0
51.295231 172.0
51.318279 388.0
51.329079 140.0
51.333702 120.0
51.336712 152.0
51.352097 68.0
51.3671 132.0
51.386116 184.0
51.407738 28.0
51.422104 176.0
51.447304 72.0
51.453018 256.0
51.477684 108.0
51.488564 168.0
51.51339 156.0
51.522945 116.0
51.538513 276.0
51.547817 316.0
51.571434 180.0
51.588497 100.0
51.592163 152.0
51.62344 464.0
51.632687 172.0
51.659199 128.0
51.676018 116.0
51.679535 148.0
51.696396 216.0
51.709278 136.0
51.720726 148.0
51.733868 124.0
51.761444 136.0
51.770145 108.0
51.798622 140.0
51.804073 176.0
51.820969 120.0
51.841881 164.0
51.875427 188.0
51.89801 204.0
51.921902 136.0
51.945572 136.0
51.970081 156.0
51.994511 172.0
52.01524 364.0
52.031509 80.0
52.0704 172.0
52.090984 112.0
52.115097 128.0
52.126591 84.0
52.152786 168.0
52.164837 284.0
52.182648 136.0
52.199596 156.0
52.221474 72.0
52.237297 148.0
52.249771 220.0
52.263145 320.0
52.286873 308.0
52.311703 164.0
52.32235 244.0
52.336597 144.0
52.353916 160.0
52.358704 80.0
52.364788 188.0
52.379803 104.0
52.403904 168.0
52.432686 148.0
52.444077 264.0
52.47924 104.0
52.493336 568.0
52.510342 280.0
52.524185 280.0
52.538143 296.0
52.560902 312.0
52.573837 200.0
52.589287 140.0
52.596725 100.0
52.628162 148.0
52.657345 236.0
52.676723 164.0
52.723515 212.0
52.73764 88.0
52.753922 260.0
52.778534 224.0
52.78857 140.0
52.802353 164.0
52.813534 180.0
52.830021 176.0
52.848488 172.0
52.862507 256.0
52.883846 324.0
52.899479 104.0
52.916523 200.0
52.930782 156.0
52.940186 208.0
52.966404 300.0
52.99992 84.0
53.017044 144.0
53.028214 168.0
53.041603 152.0
53.061058 304.0
53.070957 128.0
53.077686 160.0
53.096699 172.0
53.108299 236.0
53.118179 168.0
53.147469 96.0
53.169235 96.0
53.180847 112.0
53.208462 160.0
53.226757 160.0
53.251991 348.0
53.282551 308.0
53.295403 204.0
53.318707 104.0
53.337715 172.0
53.357307 208.0
53.37167 168.0
53.387161 260.0
53.403069 156.0
53.421791 108.0
53.431458 172.0
53.444809 312.0
53.458637 140.0
53.473629 188.0
53.483597 232.0
53.495144 180.0
53.51762 96.0
53.529682 160.0
53.551601 132.0
53.562759 188.0
53.591228 296.0
53.629211 180.0
53.639023 208.0
53.642315 280.0
53.659691 316.0
53.682251 160.0
53.686913 296.0
53.730896 32.0
53.752781 172.0
53.764454 148.0
53.779171 144.0
53.792187 284.0
53.812626 88.0
53.828503 192.0
53.847672 172.0
53.861179 192.0
53.876617 440.0
53.880211 360.0
53.886333 180.0
53.909149 48.0
53.929066 244.0
53.939102 256.0
53.944618 148.0
53.967499 176.0
53.977734 172.0
53.989101 212.0
54.004868 180.0
54.021244 176.0
54.02739 168.0
54.043552 160.0
54.055317 204.0
54.070477 332.0
54.089584 204.0
54.105656 148.0
54.125519 140.0
54.139172 260.0
54.159416 248.0
54.164108 196.0
54.179047 260.0
54.190823 132.0
54.21154 116.0
54.222202 116.0
54.236675 128.0
54.254452 140.0
54.267963 296.0
54.283382 120.0
54.304939 576.0
54.324047 200.0
54.334408 92.0
54.348244 184.0
54.376831 124.0
54.403576 340.0
54.41853 324.0
54.435673 140.0
54.45406 296.0
54.472492 164.0
54.493092 252.0
54.502991 128.0
54.515034 52.0
54.527634 324.0
54.547626 100.0
54.568092 132.0
54.593525 356.0
54.614212 208.0
54.64212 144.0
54.663967 204.0
54.689651 132.0
54.709492 64.0
54.725971 292.0
54.754032 196.0
54.765522 356.0
54.778481 40.0
54.789349 180.0
54.794468 328.0
54.807014 120.0
54.828892 172.0
54.843246 340.0
54.865532 300.0
54.886658 104.0
54.909939 132.0
54.913582 124.0
54.918739 212.0
54.940884 120.0
54.944778 176.0
54.963955 256.0
54.974518 144.0
54.97847 116.0
55.008583 188.0
55.038635 140.0
55.060787 100.0
55.075294 180.0
55.091267 132.0
55.101284 144.0
55.113968 96.0
55.127132 132.0
55.140301 200.0
55.169426 160.0
55.19479 300.0
55.211529 168.0
55.226177 84.0
55.242588 164.0
55.266724 432.0
55.296314 220.0
55.310658 100.0
55.347382 124.0
55.385414 180.0
55.415451 244.0
55.441803 160.0
55.456417 248.0
55.48101 264.0
55.49435 124.0
55.53336 176.0
55.549786 116.0
55.559238 80.0
55.57296 148.0
55.60165 304.0
55.620136 172.0
55.636776 140.0
55.65173 184.0
55.674801 380.0
55.70018 184.0
55.717327 96.0
55.722687 156.0
55.727489 164.0
55.739258 144.0
55.768383 308.0
55.789925 88.0
55.794613 164.0
55.835621 180.0
55.853733 124.0
55.874557 116.0
55.892864 184.0
55.913509 136.0
55.932236 100.0
55.955917 180.0
55.974281 204.0
55.998108 128.0
56.015793 304.0
56.050159 200.0
56.064251 252.0
56.07856 140.0
56.113014 144.0
56.12925 140.0
56.158051 140.0
56.176811 356.0
56.199402 352.0
56.214458 192.0
56.232075 168.0
56.233982 212.0
56.245613 216.0
56.25761 172.0
56.278561 172.0
56.296375 128.0
56.31044 344.0
56.324486 180.0
56.345181 184.0
56.370979 136.0
56.386398 224.0
56.405235 88.0
56.425892 188.0
56.454781 160.0
56.480846 344.0
56.501823 316.0
56.533527 344.0
56.559036 344.0
56.586269 196.0
56.598835 180.0
56.605846 84.0
56.610092 188.0
56.625603 364.0
56.658024 152.0
56.675034 140.0
56.690571 164.0
56.710506 172.0
56.712799 140.0
56.720154 80.0
56.72641 112.0
56.753532 248.0
56.782413 196.0
56.795124 288.0
56.824356 152.0
56.840569 52.0
56.851395 180.0
56.866119 112.0
56.879124 192.0
56.897984 216.0
56.913502 132.0
56.942104 156.0
56.959862 196.0
56.983307 116.0
57.00293 84.0
57.031982 120.0
57.048218 100.0
57.068062 164.0
57.083099 144.0
57.102612 160.0
57.120129 160.0
57.144268 200.0
57.179379 124.0
57.192738 196.0
57.210617 296.0
57.2314 208.0
57.24818 472.0
57.259495 388.0
57.270287 136.0
57.286282 220.0
57.3172 164.0
57.341896 176.0
57.364639 272.0
57.387722 232.0
57.401932 156.0
57.420429 144.0
57.434002 140.0
57.460827 236.0
57.476246 188.0
57.487858 184.0
57.515675 188.0
57.532085 140.0
57.554733 136.0
57.566814 84.0
57.587921 164.0
57.610386 212.0
57.633274 156.0
57.647236 100.0
57.658543 244.0
57.688679 152.0
57.711872 88.0
57.739784 240.0
57.757633 108.0
57.773926 260.0
57.785339 132.0
57.79174 124.0
57.807167 72.0
57.822247 116.0
57.828083 112.0
57.831444 92.0
57.866196 148.0
57.880142 176.0
57.895576 188.0
57.913475 144.0
57.935356 156.0
57.944729 272.0
57.950348 64.0
57.958717 188.0
57.976234 124.0
57.979454 124.0
57.999504 148.0
58.023506 288.0
58.042694 156.0
58.060432 184.0
58.07373 200.0
58.092377 172.0
58.110943 132.0
58.153454 160.0
58.176632 156.0
58.182621 56.0
58.187 140.0
58.213329 156.0
58.219193 140.0
58.226891 152.0
58.229755 148.0
58.231972 204.0
58.246925 76.0
58.251682 168.0
58.263088 244.0
58.283962 100.0
58.295376 80.0
58.300987 224.0
58.312386 112.0
58.327366 140.0
58.349411 160.0
58.373405 188.0
58.406437 116.0
58.434212 216.0
58.454071 128.0
58.476685 292.0
58.515873 140.0
58.530033 168.0
58.541283 264.0
58.551987 152.0
58.562229 168.0
58.576385 172.0
58.601292 196.0
58.635136 224.0
58.651073 228.0
58.661221 160.0
58.677048 136.0
58.700169 192.0
58.723461 224.0
58.740021 108.0
58.769207 200.0
58.781715 244.0
58.800411 124.0
58.810432 232.0
58.833107 164.0
58.863911 228.0
58.877682 300.0
58.906483 236.0
58.921726 160.0
58.943153 224.0
58.954288 204.0
58.965794 152.0
58.967762 204.0
58.990932 304.0
59.003033 160.0
59.025105 336.0
59.037361 176.0
59.062798 292.0
59.086792 136.0
59.099033 108.0
59.144123 168.0
59.167343 244.0
59.181683 108.0
59.201591 96.0
59.222061 372.0
59.252602 400.0
59.272968 444.0
59.294121 40.0
59.324162 284.0
59.352703 104.0
59.367092 196.0
59.378139 256.0
59.388885 172.0
59.405388 152.0
59.421703 360.0
59.442631 140.0
59.455414 200.0
59.478127 368.0
59.489723 480.0
59.517471 40.0
59.528835 108.0
59.556255 204.0
59.569687 80.0
59.591198 116.0
59.619289 232.0
59.630859 168.0
59.63311 188.0
59.653801 212.0
59.666882 248.0
59.683414 140.0
59.704498 292.0
59.723679 132.0
59.741146 112.0
59.767525 132.0
59.781094 132.0
59.80209 256.0
59.810181 200.0
59.825512 156.0
59.842644 212.0
59.884407 276.0
59.901028 168.0
59.928143 108.0
59.949547 148.0
59.979324 132.0
59.998222 144.0
60.023705 96.0
60.038048 124.0
60.063244 136.0
60.079231 152.0
60.111629 160.0
60.137001 228.0
60.174862 240.0
60.20335 216.0
60.214195 172.0
60.219833 136.0
60.230576 200.0
60.251381 164.0
60.269131 136.0
60.28458 172.0
60.298153 332.0
60.31691 392.0
60.340225 116.0
60.352592 136.0
60.364964 172.0
60.378059 128.0
60.395844 124.0
60.398193 156.0
60.425285 116.0
60.443314 172.0
60.453575 156.0
60.464733 160.0
60.480301 116.0
60.490738 136.0
60.508678 172.0
60.52589 192.0
60.547714 128.0
60.574528 188.0
60.589462 172.0
60.607841 184.0
60.621155 124.0
60.658203 148.0
60.66526 188.0
60.675983 348.0
60.686203 172.0
60.71954 108.0
60.741859 176.0
60.761154 96.0
60.791992 196.0
60.815365 216.0
60.832333 452.0
60.859375 172.0
60.872395 208.0
60.894516 164.0
60.908951 180.0
60.934193 272.0
60.951237 340.0
60.976875 128.0
60.988487 120.0
61.002151 200.0
61.028614 156.0
61.055649 164.0
61.086952 148.0
61.108932 224.0
61.129719 132.0
61.143295 116.0
61.152966 132.0
61.162971 120.0
61.175854 236.0
61.193466 180.0
61.242897 80.0
61.258175 132.0
61.275997 76.0
61.302189 172.0
61.316093 120.0
61.336212 188.0
61.352177 188.0
61.355999 156.0
61.372711 100.0
61.381493 176.0
61.414143 176.0
61.437382 172.0
61.449562 204.0
61.47131 132.0
61.482773 316.0
61.505314 168.0
61.528934 332.0
61.559868 184.0
61.583382 152.0
61.607143 228.0
61.635784 420.0
61.655251 80.0
61.671688 164.0
61.692722 156.0
61.705441 256.0
61.733212 156.0
61.747486 40.0
61.759998 172.0
61.774467 168.0
61.795101 128.0
61.804619 220.0
61.818146 120.0
61.83316 200.0
61.846054 168.0
61.86351 348.0
61.890175 248.0
61.90868 120.0
61.939983 172.0
61.945328 120.0
61.988571 264.0
62.018303 148.0
62.029652 284.0
62.043427 184.0
62.057537 164.0
62.07008 152.0
62.082626 164.0
62.098309 112.0
62.117367 432.0
62.128365 148.0
62.153519 236.0
62.16544 172.0
62.170593 108.0
62.175781 220.0
62.21307 176.0
62.230019 140.0
62.264034 168.0
62.268879 100.0
62.274509 136.0
62.307079 76.0
62.317886 196.0
62.330601 160.0
62.346596 268.0
62.375458 320.0
62.404163 176.0
62.406464 136.0
62.414654 208.0
62.43338 240.0
62.465855 368.0
62.48473 188.0
62.514339 264.0
62.531326 248.0
62.549622 68.0
62.567917 112.0
62.579071 164.0
62.61834 184.0
62.63113 72.0
62.675713 116.0
62.69014 272.0
62.709145 272.0
62.73101 144.0
62.747356 164.0
62.753132 124.0
62.768879 128.0
62.777901 156.0
62.797344 176.0
62.822025 148.0
62.834484 436.0
62.856689 160.0
62.873219 248.0
62.904854 296.0
62.92487 132.0
62.957722 116.0
62.974972 248.0
62.997086 272.0
63.023525 256.0
63.035435 132.0
63.052109 204.0
63.088913 444.0
63.124969 240.0
63.142502 188.0
63.167049 192.0
63.188618 156.0
63.206276 152.0
63.223183 104.0
63.246189 112.0
63.262753 136.0
63.275219 128.0
63.284302 288.0
63.297474 216.0
63.319057 272.0
63.356915 260.0
63.370888 100.0
63.385006 148.0
63.410786 224.0
63.434658 168.0
63.446518 140.0
63.471024 300.0
63.502125 236.0
63.511951 136.0
63.535328 192.0
63.54903 300.0
63.601055 212.0
63.620796 280.0
63.629837 140.0
63.641663 108.0
63.665482 200.0
63.69334 248.0
63.705189 252.0
63.722458 124.0
63.73246 360.0
63.744644 96.0
63.749123 276.0
63.783714 316.0
63.832798 132.0
63.849777 144.0
63.864418 176.0
63.895668 132.0
63.914219 92.0
63.923534 108.0
63.93972 312.0
63.966064 260.0
63.984703 152.0
64.00296 208.0
64.016922 208.0
64.034439 436.0
64.04718 152.0
64.063568 124.0
64.071739 96.0
64.09214 164.0
64.106644 200.0
64.12207 116.0
64.147087 132.0
64.151344 108.0
64.16124 280.0
64.17704 148.0
64.180199 180.0
64.1866 396.0
64.205627 232.0
64.231064 196.0
64.243248 152.0
64.261452 304.0
64.295815 184.0
64.311653 112.0
64.320854 232.0
64.332214 180.0
64.337524 104.0
64.350716 304.0
64.37455 204.0
64.390663 184.0
64.416504 164.0
64.428635 148.0
64.449196 236.0
64.472786 216.0
64.496635 192.0
64.514214 524.0
64.534958 128.0
64.553894 368.0
64.59269 132.0
64.6101 120.0
64.632896 268.0
64.653511 112.0
64.668831 328.0
64.682251 160.0
64.696053 164.0
64.711502 104.0
64.748329 200.0
64.761147 156.0
64.777885 124.0
64.79538 172.0
64.81588 168.0
64.82843 140.0
64.850914 140.0
64.891167 288.0
64.910347 276.0
64.925209 128.0
64.953575 144.0
64.974022 152.0
64.997948 84.0
65.010551 152.0
65.038475 328.0
65.054878 152.0
65.082062 292.0
65.096756 60.0
65.107567 156.0
65.131897 80.0
65.147888 232.0
65.171715 180.0
65.210754 300.0
65.221794 188.0
65.240562 124.0
65.269203 204.0
65.2967 228.0
65.301949 156.0
65.307793 376.0
65.321266 288.0
65.348679 76.0
65.37558 172.0
65.39827 160.0
65.410751 244.0
65.426003 108.0
65.437202 280.0
65.458694 80.0
65.481766 136.0
65.496315 208.0
65.516289 372.0
65.543503 184.0
65.554779 340.0
65.575386 132.0
65.58876 284.0
65.597595 92.0
65.600449 204.0
65.612808 144.0
65.630028 164.0
65.650124 192.0
65.668396 116.0
65.675522 184.0
65.695892 100.0
65.713364 292.0
65.732506 168.0
65.751892 140.0
65.77494 220.0
65.80603 280.0
65.8274 148.0
65.840317 144.0
65.85585 84.0
65.873253 136.0
65.920479 200.0
65.925842 152.0
65.941238 180.0
65.954292 156.0
65.968857 144.0
65.990593 216.0
66.016747 136.0
66.048813 148.0
66.071754 152.0
66.086021 116.0
66.107224 164.0
66.129578 188.0
66.134567 180.0
66.165588 164.0
66.176651 176.0
66.189171 216.0
66.203072 256.0
66.21801 164.0
66.24791 220.0
66.28054 172.0
66.296616 188.0
66.318298 292.0
66.332176 144.0
66.348351 168.0
66.359161 172.0
66.363541 184.0
66.370941 184.0
66.398651 56.0
66.414047 220.0
66.4207 108.0
66.431648 140.0
66.450714 156.0
66.471588 100.0
66.483276 220.0
66.514465 148.0
66.527901 152.0
66.554626 100.0
66.570602 184.0
66.58564 148.0
66.60305 124.0
66.620392 124.0
66.645302 148.0
66.654579 120.0
66.674141 168.0
66.694145 120.0
66.715424 264.0
66.734787 208.0
66.753601 140.0
66.757942 184.0
66.774872 184.0
66.787003 184.0
66.800049 136.0
66.821129 184.0
66.854568 276.0
66.873978 360.0
66.894463 160.0
66.909737 172.0
66.923248 144.0
66.94487 212.0
66.977295 200.0
67.018326 180.0
67.050682 224.0
67.08709 168.0
67.108154 200.0
67.121643 292.0
67.147148 192.0
67.155739 72.0
67.172379 80.0
67.196976 200.0
67.215042 164.0
67.256821 132.0
67.297295 164.0
67.327873 148.0
67.340981 192.0
67.363495 204.0
67.384186 120.0
67.39209 148.0
67.398216 108.0
67.402641 140.0
67.415619 308.0
67.428337 196.0
67.447021 276.0
67.46534 176.0
67.483269 168.0
67.497864 68.0
67.519508 392.0
67.53875 96.0
67.555763 60.0
67.566559 180.0
67.581284 208.0
67.603783 444.0
67.636719 156.0
67.663116 120.0
67.687988 168.0
67.705688 184.0
67.7192 144.0
67.740799 156.0
67.77285 160.0
67.782219 248.0
67.810333 124.0
67.823814 264.0
67.85688 148.0
67.866402 160.0
67.879395 204.0
67.905632 148.0
67.922035 148.0
67.94725 344.0
67.957756 88.0
67.987762 328.0
68.031525 144.0
68.038414 148.0
68.04142 176.0
68.068321 264.0
68.080399 128.0
68.106567 136.0
68.117775 256.0
68.134506 148.0
68.163017 56.0
68.177269 128.0
68.19062 96.0
68.217606 320.0
68.230087 144.0
68.264572 92.0
68.279732 148.0
68.296638 204.0
68.319122 104.0
68.337204 196.0
68.346649 180.0
68.362343 240.0
68.383736 132.0
68.40406 172.0
68.420395 320.0
68.460197 160.0
68.498337 152.0
68.528191 188.0
68.571312 200.0
68.584602 116.0
68.604843 68.0
68.627892 376.0
68.657219 112.0
68.685257 228.0
68.700775 104.0
68.715996 280.0
68.722816 104.0
68.725365 116.0
68.743607 164.0
68.773575 160.0
68.785133 152.0
68.810822 256.0
68.823036 296.0
68.844032 136.0
68.86322 272.0
68.881493 336.0
68.910347 264.0
68.923691 140.0
68.956741 196.0
68.976418 228.0
69.008232 164.0
69.019737 112.0
69.032753 180.0
69.063507 120.0
69.078423 196.0
69.10627 188.0
69.127159 236.0
69.156158 272.0
69.169052 188.0
69.193794 288.0
69.207481 416.0
69.222534 172.0
69.238861 304.0
69.268753 116.0
69.283401 320.0
69.296158 148.0
69.305969 312.0
69.321289 152.0
69.347847 440.0
69.370934 248.0
69.376732 296.0
69.398903 276.0
69.402191 208.0
69.425606 260.0
69.437851 168.0
69.450119 288.0
69.472649 156.0
69.493813 116.0
69.529083 176.0
69.555389 148.0
69.559303 128.0
69.566597 176.0
69.570335 236.0
69.589371 300.0
69.621475 160.0
69.627869 132.0
69.645279 128.0
69.6707 264.0
69.682762 156.0
69.692223 108.0
69.719597 148.0
69.737938 260.0
69.757141 88.0
69.763557 132.0
69.771095 112.0
69.780891 204.0
69.804825 148.0
69.816467 104.0
69.831429 108.0
69.856384 204.0
69.875931 128.0
69.8936 108.0
69.911537 132.0
69.927567 260.0
69.952461 228.0
69.957336 272.0
69.977524 228.0
70.008682 124.0
70.028206 140.0
70.041145 48.0
70.067802 204.0
70.084465 112.0
70.10173 132.0
70.130409 176.0
70.141663 136.0
70.154907 360.0
70.168907 216.0
70.186134 124.0
70.221603 164.0
70.244118 136.0
70.256096 156.0
70.271446 228.0
70.295586 104.0
70.303665 148.0
70.324486 164.0
70.365822 280.0
70.380829 152.0
70.411789 160.0
70.434799 216.0
70.4515 164.0
70.475075 216.0
70.490219 116.0
70.514252 148.0
70.522476 76.0
70.537354 160.0
70.552773 396.0
70.584724 180.0
70.591011 128.0
70.596024 240.0
70.618416 140.0
70.642075 340.0
70.664314 168.0
70.679817 172.0
70.69812 148.0
70.709526 128.0
70.731628 108.0
70.738739 172.0
70.745682 240.0
70.761826 144.0
70.772285 112.0
70.796051 116.0
70.812805 88.0
70.826202 152.0
70.848938 148.0
70.867393 432.0
70.895462 164.0
70.928123 172.0
70.93084 80.0
70.962807 168.0
70.974701 220.0
71.000504 156.0
71.018745 140.0
71.033066 116.0
71.036247 168.0
71.049149 120.0
71.076759 168.0
71.100746 336.0
71.112915 136.0
71.141129 148.0
71.158005 148.0
71.178383 140.0
71.204613 136.0
71.22541 140.0
71.237167 164.0
71.287567 164.0
71.307739 140.0
71.321182 224.0
71.350449 204.0
71.366608 392.0
71.38237 324.0
71.401947 224.0
71.445618 160.0
71.46244 176.0
71.489365 164.0
71.502296 156.0
71.516472 112.0
71.544098 108.0
71.572418 224.0
71.594482 280.0
71.623924 188.0
71.637566 292.0
71.652008 208.0
71.666092 152.0
71.69062 148.0
71.715034 108.0
71.730209 164.0
71.752754 200.0
71.785324 144.0
71.795006 320.0
71.80777 212.0
71.822945 164.0
71.836441 76.0
71.876694 144.0
71.884407 56.0
71.888184 168.0
71.912521 172.0
71.940292 280.0
71.978851 136.0
72.012703 212.0
72.028648 240.0
72.040207 180.0
72.095047 304.0
72.121033 160.0
72.147758 192.0
72.165688 100.0
72.180717 140.0
72.206345 44.0
72.223595 88.0
72.246452 136.0
72.271088 220.0
72.309746 132.0
72.323441 184.0
72.347603 144.0
72.359612 196.0
72.368568 176.0
72.371712 116.0
72.404205 96.0
72.425034 144.0
72.473801 128.0
72.50309 348.0
72.546967 164.0
72.576363 192.0
72.611229 268.0
72.631462 156.0
72.656876 164.0
72.692535 184.0
72.707565 168.0
72.741486 176.0
72.773697 168.0
72.797783 160.0
72.814766 80.0
72.837173 268.0
72.850433 92.0
72.872353 180.0
72.927399 176.0
72.943893 40.0
72.9711 132.0
73.001617 152.0
73.013779 200.0
73.029617 188.0
73.051025 108.0
73.074631 128.0
73.080559 200.0
73.108543 144.0
73.120384 204.0
73.135483 208.0
73.148842 256.0
73.17205 104.0
73.192078 276.0
73.207993 212.0
73.226486 240.0
73.238518 188.0
73.246605 192.0
73.25042 148.0
73.267036 180.0
73.269844 164.0
73.294479 144.0
73.318848 148.0
73.331047 88.0
73.373795 164.0
73.401665 136.0
73.428162 208.0
73.451485 128.0
73.460991 152.0
73.475212 192.0
73.505089 164.0
73.527092 128.0
73.553703 164.0
73.575897 188.0
73.589554 120.0
73.608337 344.0
73.62883 180.0
73.645836 92.0
73.669014 152.0
73.693741 208.0
73.709587 168.0
73.732216 216.0
73.742935 136.0
73.761398 276.0
73.798904 324.0
73.835007 264.0
73.859421 140.0
73.864166 124.0
73.880859 204.0
73.912598 164.0
73.949013 352.0
73.982811 164.0
73.996788 148.0
74.010063 136.0
74.016373 128.0
74.027771 192.0
74.052147 120.0
74.06839 272.0
74.097511 72.0
74.125023 144.0
74.138382 192.0
74.159859 160.0
74.186623 172.0
74.208191 152.0
74.237206 96.0
74.250015 140.0
74.274078 116.0
74.289513 128.0
74.306625 140.0
74.333351 196.0
74.358337 256.0
74.399345 48.0
74.413078 84.0
74.426811 144.0
74.440002 272.0
74.46772 352.0
74.490356 100.0
74.519562 192.0
74.535278 300.0
74.557083 196.0
74.576271 160.0
74.590019 240.0
74.614365 148.0
74.634216 220.0
74.656502 156.0
74.673538 200.0
74.688644 212.0
74.729301 264.0
74.740883 100.0
74.752281 404.0
74.762451 140.0
74.782898 148.0
74.797737 116.0
74.80262 128.0
74.811859 104.0
74.82634 232.0
74.848969 140.0
74.873909 320.0
74.904915 124.0
74.920914 208.0
74.933807 228.0
74.946571 176.0
74.970695 184.0
74.998817 88.0
75.009453 468.0
75.023819 432.0
75.036903 168.0
75.065536 168.0
75.089561 156.0
75.109749 120.0
75.118706 152.0
75.155495 152.0
75.181335 320.0
75.195946 200.0
75.21138 136.0
75.230827 96.0
75.256721 128.0
75.271919 140.0
75.281349 152.0
75.29554 192.0
75.334236 104.0
75.360435 188.0
75.366356 160.0
75.385201 160.0
75.403549 148.0
75.419106 172.0
75.43676 152.0
75.450134 80.0
75.458496 188.0
75.461349 92.0
75.502892 316.0
75.515526 140.0
75.548798 136.0
75.574928 196.0
75.588867 224.0
75.605125 208.0
75.634842 192.0
75.661636 212.0
75.688675 180.0
75.694832 148.0
75.69976 72.0
75.713417 180.0
75.754333 160.0
75.782097 208.0
75.814575 128.0
75.826965 184.0
75.842064 160.0
75.855904 308.0
75.892143 224.0
75.908218 180.0
75.925728 216.0
75.940353 300.0
75.957245 152.0
76.009109 152.0
76.031532 152.0
76.047836 140.0
76.065147 148.0
76.088425 232.0
76.112961 148.0
76.129555 112.0
76.158951 176.0
76.180527 124.0
76.203743 256.0
76.220444 128.0
76.260368 192.0
76.272514 136.0
76.291977 152.0
76.29953 40.0
76.311501 144.0
76.349632 84.0
76.370689 116.0
76.404053 336.0
76.417305 136.0
76.433632 196.0
76.464951 136.0
76.48584 268.0
76.510262 140.0
76.535744 48.0
76.570755 152.0
76.588036 168.0
76.609474 80.0
76.623413 112.0
76.641571 132.0
76.663925 300.0
76.706734 184.0
76.725662 196.0
76.733154 132.0
76.739296 324.0
76.772766 132.0
76.792496 172.0
76.812401 164.0
76.829666 168.0
76.859291 156.0
76.872559 156.0
76.895302 160.0
76.920967 108.0
76.93293 528.0
76.963509 120.0
77.003883 460.0
77.019394 156.0
77.056313 180.0
77.071068 164.0
77.085785 176.0
77.098015 340.0
77.12571 172.0
77.154823 184.0
77.181152 256.0
77.19381 120.0
77.209785 168.0
77.21534 120.0
77.246628 164.0
77.260147 132.0
77.289917 156.0
77.311806 188.0
77.325363 152.0
77.351624 144.0
77.374733 172.0
77.388382 372.0
77.411537 204.0
77.426208 152.0
77.446945 360.0
77.464554 228.0
77.503983 132.0
77.534019 168.0
77.564766 224.0
77.578812 156.0
77.603889 160.0
77.626953 320.0
77.652359 156.0
77.657562 284.0
77.70649 272.0
77.733376 160.0
77.7565 160.0
77.77932 140.0
77.802017 176.0
77.828476 112.0
77.854813 192.0
77.888962 144.0
77.902016 96.0
77.912949 164.0
77.926048 252.0
77.959435 360.0
78.004089 104.0
78.028412 360.0
78.052193 124.0
78.066795 108.0
78.097023 240.0
78.126488 268.0
78.143082 120.0
78.160675 104.0
78.187073 164.0
78.214546 144.0
78.221046 132.0
78.260208 300.0
78.294319 236.0
78.308266 140.0
78.322639 212.0
78.338776 280.0
78.357254 116.0
78.373322 356.0
78.404915 132.0
78.411377 196.0
78.430984 164.0
78.447754 108.0
78.471451 144.0
78.499878 184.0
78.516518 144.0
78.537506 120.0
78.55983 128.0
78.587845 64.0
78.601357 228.0
78.618866 124.0
78.650101 212.0
78.669289 144.0
78.684196 144.0
78.716904 152.0
78.737801 268.0
78.763321 380.0
78.779114 336.0
78.806412 320.0
78.828041 180.0
78.849678 192.0
78.870453 120.0
78.885994 184.0
78.902725 176.0
78.920601 196.0
78.939705 312.0
78.958282 140.0
78.975716 124.0
78.995171 128.0
79.021217 260.0
79.03653 148.0
79.050812 292.0
79.063469 140.0
79.08773 344.0
79.114594 132.0
79.140038 140.0
79.179245 104.0
79.198799 112.0
79.235489 80.0
79.259888 260.0
79.268532 100.0
79.289864 128.0
79.305428 128.0
79.329132 344.0
79.375183 120.0
79.410408 176.0
79.445938 416.0
79.454582 156.0
79.46328 184.0
79.48185 244.0
79.503059 116.0
79.511955 140.0
79.53212 136.0
79.553741 132.0
79.57634 136.0
79.595604 152.0
79.618492 188.0
79.638115 140.0
79.672478 168.0
79.690117 136.0
79.709824 232.0
79.731796 228.0
79.748756 164.0
79.769821 128.0
79.814362 292.0
79.84597 200.0
79.866104 88.0
79.886459 160.0
79.914139 136.0
79.94928 176.0
79.967033 132.0
79.981499 300.0
80.011627 224.0
80.04277 380.0
80.082527 128.0
80.101059 196.0
80.127396 128.0
80.150948 184.0
80.168213 372.0
80.195747 172.0
80.230919 280.0
80.248978 244.0
80.275665 132.0
80.2799 128.0
80.286903 176.0
80.30069 124.0
80.332794 132.0
80.353477 256.0
80.386139 80.0
80.391075 156.0
80.395714 212.0
80.409515 140.0
80.444572 200.0
80.464256 48.0
80.484489 172.0
80.519272 268.0
80.554047 228.0
80.559624 176.0
80.600594 124.0
80.62899 232.0
80.660568 136.0
80.673874 116.0
80.698486 192.0
80.722313 196.0
80.746124 216.0
80.7686 168.0
80.793129 180.0
80.827423 248.0
80.832634 120.0
80.83918 112.0
80.864578 116.0
80.887184 160.0
80.911087 484.0
80.930779 468.0
80.952301 160.0
80.983429 240.0
80.997055 316.0
81.023827 148.0
81.045967 132.0
81.060303 136.0
81.077515 132.0
81.099945 124.0
81.131065 284.0
81.147476 124.0
81.170029 160.0
81.185539 160.0
81.208534 328.0
81.219345 96.0
81.235527 168.0
81.245506 136.0
81.288002 148.0
81.309731 284.0
81.325424 172.0
81.3564 176.0
81.370468 164.0
81.387169 228.0
81.412666 212.0
81.426422 32.0
81.446182 140.0
81.473885 104.0
81.497643 192.0
81.521454 116.0
81.541122 164.0
81.567657 312.0
81.599228 144.0
81.620087 184.0
81.646698 116.0
81.661865 92.0
81.693031 164.0
81.708633 168.0
81.726624 96.0
81.746201 176.0
81.768616 104.0
81.78241 128.0
81.795013 108.0
81.813248 120.0
81.85379 148.0
81.897881 184.0
81.917458 132.0
81.935234 152.0
81.953125 160.0
81.98172 156.0
82.012955 132.0
82.049393 188.0
82.078835 152.0
82.097343 104.0
82.111588 292.0
82.143745 276.0
82.17337 132.0
82.19149 148.0
82.204124 76.0
82.216431 312.0
82.231194 164.0
82.250328 160.0
82.267876 192.0
82.30088 172.0
82.330826 148.0
82.346741 128.0
82.387711 188.0
82.395126 168.0
82.415199 156.0
82.473213 132.0
82.487679 80.0
82.509369 68.0
82.5383 160.0
82.572212 132.0
82.591301 84.0
82.630066 160.0
82.655266 168.0
82.66259 112.0
82.681206 312.0
82.712311 356.0
82.746735 192.0
82.760849 120.0
82.7817 368.0
82.801979 140.0
82.833504 400.0
82.857857 192.0
82.882805 388.0
82.896362 260.0
82.922035 192.0
82.940201 40.0
82.962463 136.0
82.988503 68.0
83.007996 152.0
83.035904 204.0
83.054115 188.0
83.069931 376.0
83.102562 196.0
83.124878 288.0
83.145958 304.0
83.172371 132.0
83.203522 132.0
83.228645 164.0
83.243195 192.0
83.281311 84.0
83.295845 180.0
83.339607 136.0
83.36013 340.0
83.374779 268.0
83.42244 164.0
83.434624 280.0
83.449936 192.0
83.472588 160.0
83.505943 240.0
83.526749 124.0
83.544243 136.0
83.5681 196.0
83.591141 244.0
83.603218 132.0
83.608429 160.0
83.615967 120.0
83.633324 176.0
83.65889 336.0
83.672737 248.0
83.689972 188.0
83.69622 180.0
83.704239 216.0
83.737587 180.0
83.758263 328.0
83.779716 72.0
83.795189 336.0
83.83136 208.0
83.87265 204.0
83.884827 124.0
83.902222 164.0
83.937912 196.0
83.951714 88.0
83.973457 180.0
83.998466 140.0
84.01078 132.0
84.033127 124.0
84.068794 212.0
84.089699 76.0
84.117477 144.0
84.132973 152.0
84.158691 288.0
84.188408 112.0
84.217171 168.0
84.229195 180.0
84.247925 144.0
84.281555 196.0
84.315155 204.0
84.332611 152.0
84.359482 80.0
84.383148 204.0
84.397995 184.0
84.413048 160.0
84.42585 124.0
84.439491 324.0
84.453278 156.0
84.473648 176.0
84.487724 188.0
84.502449 224.0
84.531944 80.0
84.555473 168.0
84.57399 140.0
84.600517 172.0
84.634514 180.0
84.659912 192.0
84.695755 140.0
84.721375 132.0
84.751678 80.0
84.767021 288.0
84.783463 116.0
84.799324 76.0
84.821823 188.0
84.88327 156.0
84.905655 356.0
84.923996 208.0
84.939697 136.0
84.981133 228.0
84.9888 256.0
85.014626 232.0
85.032852 132.0
85.060852 164.0
85.071457 396.0
85.09343 244.0
85.109741 84.0
85.14473 140.0
85.188316 200.0
85.206688 144.0
85.223442 132.0
85.237923 176.0
85.259972 224.0
85.287163 204.0
85.291367 192.0
85.306419 132.0
85.311859 172.0
85.332642 164.0
85.337067 136.0
85.362457 364.0
85.393745 256.0
85.411934 196.0
85.450165 284.0
85.470413 316.0
85.498688 164.0
85.532173 148.0
85.55101 292.0
85.572449 204.0
85.592628 172.0
85.612801 212.0
85.640892 200.0
85.654678 128.0
85.689194 120.0
85.733505 152.0
85.747948 344.0
85.784172 224.0
85.824287 248.0
85.851257 464.0
85.870491 148.0
85.883766 180.0
85.914589 152.0
85.952995 164.0
85.989227 176.0
86.009308 224.0
86.014992 192.0
86.0513 152.0
86.075043 156.0
86.09137 224.0
86.130112 128.0
86.16021 148.0
86.185959 140.0
86.211548 300.0
86.224625 128.0
86.23735 268.0
86.261681 128.0
86.295906 272.0
86.340652 292.0
86.356026 180.0
86.361122 196.0
86.368088 232.0
86.372398 200.0
86.410797 204.0
86.424355 116.0
86.44796 280.0
86.501511 116.0
86.530876 228.0
86.546669 128.0
86.562668 260.0
86.581902 144.0
86.603668 156.0
86.629257 428.0
86.66993 104.0
86.693336 276.0
86.709435 172.0
86.736504 168.0
86.755035 212.0
86.767174 176.0
86.790703 204.0
86.816483 228.0
86.847618 168.0
86.866936 128.0
86.891678 136.0
86.915367 116.0
86.935547 312.0
86.954811 216.0
86.972748 228.0
87.012161 220.0
87.037704 168.0
87.073311 496.0
87.089432 132.0
87.108185 352.0
87.155083 124.0
87.1745 156.0
87.203773 192.0
87.21064 144.0
87.218323 132.0
87.239273 160.0
87.28231 184.0
87.299568 172.0
87.307266 200.0
87.327835 284.0
87.362373 136.0
87.379425 132.0
87.391045 324.0
87.408798 136.0
87.437767 188.0
87.461533 260.0
87.477577 196.0
87.510239 160.0
87.542671 140.0
87.557724 196.0
87.57325 132.0
87.590225 168.0
87.598015 76.0
87.603271 140.0
87.639137 164.0
87.685692 236.0
87.717903 132.0
87.741608 128.0
87.763412 292.0
87.789757 156.0
87.813324 188.0
87.846443 204.0
87.85173 184.0
87.85997 156.0
87.865746 208.0
87.909096 240.0
87.92984 120.0
87.948601 184.0
87.970055 164.0
88.007118 88.0
88.021057 176.0
88.052444 148.0
88.064346 112.0
88.077042 196.0
88.109177 124.0
88.139732 124.0
88.16375 144.0
88.167046 104.0
88.174309 336.0
88.204117 212.0
88.22197 208.0
88.242287 276.0
88.255661 204.0
88.275154 268.0
88.296921 184.0
88.315186 188.0
88.327766 132.0
88.342216 276.0
88.349625 224.0
88.378296 136.0
88.428581 96.0
88.452606 204.0
88.465897 192.0
88.492256 124.0
88.518188 180.0
88.533478 192.0
88.567398 336.0
88.611229 156.0
88.636024 188.0
88.686417 180.0
88.729385 180.0
88.760643 172.0
88.775154 168.0
88.806366 392.0
88.832443 188.0
88.872856 152.0
88.881226 180.0
88.886528 148.0
88.895515 164.0
88.933594 172.0
88.962761 204.0
88.984451 88.0
89.035461 180.0
89.050056 128.0
89.077484 148.0
89.134201 296.0
89.172829 396.0
89.208008 96.0
89.223747 156.0
89.265991 124.0
89.291023 184.0
89.311775 196.0
89.334602 184.0
89.361404 268.0
89.4067 144.0
89.461662 148.0
89.46627 56.0
89.483612 200.0
89.498192 148.0
89.532715 208.0
89.57283 96.0
89.591125 136.0
89.601906 116.0
89.623436 136.0
89.633797 236.0
89.670296 212.0
89.684586 236.0
89.73204 100.0
89.744423 216.0
89.759644 144.0
89.772179 176.0
89.798874 324.0
89.803261 124.0
89.829483 176.0
89.852882 120.0
89.867157 112.0
89.914886 300.0
89.942574 124.0
89.974731 224.0
89.990059 404.0
90.001923 80.0
90.050674 128.0
90.080894 240.0
90.101387 124.0
90.122475 248.0
90.146446 136.0
90.188103 176.0
90.196693 368.0
90.233093 148.0
90.23616 180.0
90.261368 240.0
90.288582 172.0
90.300308 132.0
90.323425 132.0
90.345955 184.0
90.368713 176.0
90.383965 124.0
90.400803 136.0
90.428391 64.0
90.460358 72.0
90.477135 224.0
90.491341 172.0
90.522949 152.0
90.540092 180.0
90.584206 180.0
90.616547 172.0
90.654839 56.0
90.674568 360.0
90.712311 116.0
90.727676 100.0
90.740944 152.0
90.757179 156.0
90.771278 280.0
90.809212 68.0
90.844627 292.0
90.873703 336.0
90.886986 176.0
90.911255 208.0
90.918076 136.0
90.955208 208.0
90.964676 128.0
90.970146 144.0
90.984428 276.0
91.017952 392.0
91.046165 112.0
91.053162 136.0
91.089783 112.0
91.113968 188.0
91.142883 140.0
91.173416 176.0
91.195374 216.0
91.21862 180.0
91.263847 164.0
91.284836 200.0
91.315674 132.0
91.33609 252.0
91.350639 160.0
91.388298 128.0
91.391396 68.0
91.399757 248.0
91.435303 184.0
91.459991 116.0
91.472847 132.0
91.504822 120.0
91.526924 280.0
91.552025 112.0
91.562706 180.0
91.585747 276.0
91.598793 204.0
91.62925 80.0
91.658516 168.0
91.68174 160.0
91.713547 308.0
91.734627 176.0
91.78009 132.0
91.829674 176.0
91.856102 120.0
91.869461 208.0
91.913261 132.0
91.95829 184.0
91.963531 176.0
91.971092 132.0
91.97847 264.0
92.005898 40.0
92.02607 224.0
92.053452 156.0
92.074799 260.0
92.108879 184.0
92.112694 136.0
92.145561 268.0
92.176079 192.0
92.192474 216.0
92.229797 180.0
92.246109 180.0
92.263794 340.0
92.293633 120.0
92.320717 156.0
92.349861 168.0
92.367256 160.0
92.394905 132.0
92.427689 156.0
92.448891 84.0
92.46244 128.0
92.485931 368.0
92.514954 108.0
92.536438 188.0
92.583702 136.0
92.590294 128.0
92.611671 196.0
92.631851 304.0
92.644119 164.0
92.652328 260.0
92.682083 168.0
92.712738 268.0
92.760651 252.0
92.774574 220.0
92.79705 120.0
92.826904 128.0
92.853081 484.0
92.902817 96.0
92.915627 240.0
92.949669 336.0
92.963097 152.0
92.99469 236.0
93.022324 300.0
93.034004 488.0
93.049789 140.0
93.075966 120.0
93.12484 244.0
93.132431 188.0
93.136803 184.0
93.169434 192.0
93.185776 140.0
93.188545 320.0
93.226585 304.0
93.248802 156.0
93.267403 188.0
93.289986 192.0
93.304169 160.0
93.326134 172.0
93.345955 144.0
93.363052 80.0
93.386124 164.0
93.404984 136.0
93.429306 168.0
93.446693 184.0
93.471077 176.0
93.494644 204.0
93.502144 96.0
93.511101 316.0
93.548393 144.0
93.595268 64.0
93.642311 132.0
93.661674 156.0
93.698654 108.0
93.721825 152.0
93.762802 192.0
93.775841 452.0
93.797562 304.0
93.81707 160.0
93.845924 124.0
93.850349 168.0
93.869591 192.0
93.885132 320.0
93.907654 168.0
93.919266 232.0
93.933228 168.0
93.973282 168.0
93.989113 136.0
94.008575 152.0
94.025818 164.0
94.043785 120.0
94.06694 612.0
94.09642 244.0
94.135422 224.0
94.149506 164.0
94.175583 360.0
94.203018 64.0
94.222595 148.0
94.262909 92.0
94.276436 128.0
94.300133 164.0
94.319183 136.0
94.341797 108.0
94.354218 200.0
94.375687 208.0
94.415314 148.0
94.462044 196.0
94.493263 116.0
94.515282 108.0
94.527298 204.0
94.548508 156.0
94.578682 264.0
94.609116 132.0
94.636246 132.0
94.668861 176.0
94.693871 308.0
94.708885 84.0
94.725357 340.0
94.747261 396.0
94.770111 156.0
94.809708 156.0
94.826546 160.0
94.864822 340.0
94.892296 156.0
94.923576 132.0
94.938553 296.0
94.961777 168.0
94.992012 368.0
95.004356 164.0
95.030357 20860.0
95.077904 196.0
95.08123 112.0
95.107048 448.0
95.129166 152.0
95.144745 68.0
95.150452 172.0
95.159241 184.0
95.164284 176.0
95.171745 160.0
95.206848 100.0
95.240044 184.0
95.266518 212.0
95.288177 160.0
95.320641 168.0
95.350441 208.0
95.387863 152.0
95.404778 356.0
95.417091 100.0
95.436417 152.0
95.460274 220.0
95.47982 156.0
95.499146 112.0
95.516914 324.0
95.532143 168.0
95.556816 184.0
95.591278 76.0
95.608894 180.0
95.63356 308.0
95.654457 240.0
95.671753 156.0
95.683388 100.0
95.694916 256.0
95.711891 64.0
95.732254 188.0
95.75473 64.0
95.770966 180.0
95.784698 108.0
95.801765 164.0
95.831642 216.0
95.862724 196.0
95.890404 152.0
95.922676 404.0
95.943741 100.0
95.972427 96.0
96.015884 160.0
96.034332 1916.0
96.057365 164.0
96.077705 184.0
96.089478 340.0
96.097 180.0
96.101959 220.0
96.12381 164.0
96.163704 124.0
96.189369 128.0
96.200951 80.0
96.203751 112.0
96.222717 308.0
96.236664 280.0
96.250923 72.0
96.28476 228.0
96.304909 316.0
96.319443 60.0
96.33963 236.0
96.351959 348.0
96.372917 248.0
96.377747 192.0
96.390297 352.0
96.402992 560.0
96.430664 88.0
96.459549 156.0
96.476685 172.0
96.493233 276.0
96.525299 296.0
96.556061 300.0
96.577934 164.0
96.58358 84.0
96.590393 164.0
96.614418 200.0
96.626945 148.0
96.644913 356.0
96.668144 144.0
96.670914 92.0
96.70433 136.0
96.739914 240.0
96.761429 196.0
96.790375 120.0
96.796738 192.0
96.804016 160.0
96.813942 152.0
96.819679 216.0
96.84185 84.0
96.845047 236.0
96.86956 136.0
96.889893 140.0
96.906822 168.0
96.923576 320.0
96.974724 356.0
97.00396 136.0
97.010948 112.0
97.04425 124.0
97.074867 100.0
97.079582 52.0
97.086517 96.0
97.105225 168.0
97.127975 180.0
97.154907 268.0
97.177803 184.0
97.207649 192.0
97.258812 172.0
97.285744 80.0
97.304344 76.0
97.31871 176.0
97.342804 108.0
97.372139 188.0
97.395241 304.0
97.413155 180.0
97.435417 112.0
97.457886 172.0
97.488045 180.0
97.507698 148.0
97.528069 108.0
97.559776 276.0
97.575752 156.0
97.589973 344.0
97.596397 232.0
97.613518 116.0
97.618973 292.0
97.640877 140.0
97.667419 132.0
97.717621 216.0
97.724594 176.0
97.73069 100.0
97.760773 248.0
97.796608 464.0
97.849762 156.0
97.897713 180.0
97.915924 136.0
97.936607 128.0
97.951126 128.0
97.965851 208.0
98.01268 400.0
98.050385 304.0
98.074333 148.0
98.080376 116.0
98.104332 280.0
98.162086 92.0
98.202408 176.0
98.231613 256.0
98.239624 132.0
98.243584 232.0
98.279907 300.0
98.305115 148.0
98.342552 156.0
98.369507 188.0
98.40522 508.0
98.432823 176.0
98.458366 184.0
98.491623 196.0
98.507355 124.0
98.539932 196.0
98.561974 348.0
98.587303 176.0
98.61747 96.0
98.651901 144.0
98.680222 92.0
98.698357 64.0
98.728989 196.0
98.757683 108.0
98.77327 300.0
98.81414 188.0
98.848473 144.0
98.890007 132.0
98.906212 360.0
98.918442 148.0
98.944481 284.0
98.952271 132.0
98.958611 200.0
98.975708 148.0
98.994301 76.0
99.024796 984.0
99.060013 220.0
99.089371 180.0
99.123482 176.0
99.1483 152.0
99.163162 196.0
99.187347 156.0
99.202415 124.0
99.21048 48.0
99.217438 112.0
99.238892 216.0
99.267349 148.0
99.292435 176.0
99.321632 260.0
99.328461 312.0
99.358467 116.0
99.378426 88.0
99.394859 164.0
99.430885 176.0
99.444237 264.0
99.454689 92.0
99.460297 152.0
99.472191 80.0
99.476463 96.0
99.496811 116.0
99.51429 124.0
99.521271 100.0
99.57238 272.0
99.586639 156.0
99.616653 184.0
99.655197 144.0
99.689667 164.0
99.694084 124.0
99.704536 152.0
99.718399 228.0
99.739159 120.0
99.75705 280.0
99.774895 188.0
99.796806 180.0
99.837952 104.0
99.864571 296.0
99.907089 172.0
99.944954 160.0
99.965179 288.0
100.024559 272.0
100.037659 312.0
100.074661 408.0
100.089088 276.0
100.107864 172.0
100.134125 388.0
100.171082 120.0
100.200386 232.0
100.226028 136.0
100.256622 344.0
100.270569 132.0
100.292137 224.0
100.334358 76.0
100.357033 128.0
100.373581 172.0
100.39946 180.0
100.426712 124.0
100.453888 160.0
100.477745 260.0
100.510757 260.0
100.527946 132.0
100.555229 192.0
100.581116 228.0
100.585304 160.0
100.592064 196.0
100.60804 304.0
100.644722 360.0
100.681221 152.0
100.728729 204.0
100.733704 204.0
100.764076 100.0
100.783417 296.0
100.805473 184.0
100.83342 84.0
100.862091 108.0
100.903801 188.0
100.922203 164.0
100.942734 108.0
100.959702 160.0
100.990334 452.0
101.00367 316.0
101.038628 308.0
101.059311 344.0
101.081345 160.0
101.1008 244.0
101.120499 140.0
101.136902 164.0
101.166237 96.0
101.207672 132.0
101.238815 196.0
101.242058 336.0
101.265518 140.0
101.287552 128.0
101.306915 248.0
101.333626 108.0
101.392822 184.0
101.410454 152.0
101.424072 152.0
101.438774 212.0
101.46994 184.0
101.509209 180.0
101.514847 88.0
101.528748 184.0
101.57653 144.0
101.597275 252.0
101.620026 220.0
101.639992 160.0
101.663269 168.0
101.686996 188.0
101.708626 128.0
101.732201 124.0
101.739182 180.0
101.799866 108.0
101.839874 152.0
101.87368 164.0
101.907333 160.0
101.956154 116.0
101.987701 160.0
101.99469 140.0
102.001678 300.0
102.015762 40.0
102.038185 148.0
102.058685 160.0
102.091469 144.0
102.119362 176.0
102.14933 136.0
102.164772 144.0
102.177948 80.0
102.218925 144.0
102.238861 136.0
102.255211 76.0
102.271156 304.0
102.299881 116.0
102.319733 180.0
102.341881 100.0
102.368393 216.0
102.38855 296.0
102.415024 140.0
102.456917 272.0
102.484489 144.0
102.51712 200.0
102.545334 144.0
102.569687 340.0
102.590981 228.0
102.614288 176.0
102.629356 112.0
102.670189 172.0
102.696312 240.0
102.729836 152.0
102.746979 60.0
102.783012 332.0
102.789375 176.0
102.807297 112.0
102.813339 160.0
102.837852 112.0
102.867722 168.0
102.89151 156.0
102.895142 96.0
102.909401 168.0
102.930649 108.0
102.960617 152.0
102.998627 212.0
103.027641 368.0
103.051353 292.0
103.128624 100.0
103.161659 128.0
103.185226 180.0
103.207565 160.0
103.226608 256.0
103.23069 124.0
103.239113 172.0
103.246239 208.0
103.264084 244.0
103.284317 304.0
103.332863 184.0
103.355263 208.0
103.371307 144.0
103.385475 128.0
103.403687 56.0
103.427864 296.0
103.452538 164.0
103.490822 92.0
103.509483 76.0
103.556946 304.0
103.614952 84.0
103.637733 388.0
103.678635 204.0
103.709511 164.0
103.741318 116.0
103.767899 132.0
103.786774 208.0
103.814018 124.0
103.831627 288.0
103.847069 128.0
103.855064 244.0
103.86171 192.0
103.891289 168.0
103.89682 212.0
103.933006 116.0
103.95491 124.0
103.974449 260.0
103.997528 232.0
104.021629 64.0
104.04834 128.0
104.062355 184.0
104.067787 144.0
104.083412 240.0
104.113251 128.0
104.129494 200.0
104.159355 188.0
104.196434 176.0
104.221024 140.0
104.253418 100.0
104.2854 152.0
104.305923 280.0
104.324554 288.0
104.365959 176.0
104.387787 160.0
104.422478 76.0
104.442261 328.0
104.477074 32.0
104.4944 200.0
104.52092 168.0
104.539787 316.0
104.584404 228.0
104.599174 236.0
104.622482 140.0
104.643005 128.0
104.686211 184.0
104.694214 324.0
104.702141 140.0
104.712097 160.0
104.743591 52.0
104.760612 172.0
104.791748 276.0
104.815758 128.0
104.839767 152.0
104.857841 176.0
104.915916 188.0
104.933266 308.0
104.963852 88.0
104.985367 164.0
105.034996 104.0
105.068047 136.0
105.092285 132.0
105.117256 156.0
105.158546 144.0
105.182762 172.0
105.202202 116.0
105.244766 160.0
105.258629 124.0
105.293015 212.0
105.333221 368.0
105.369026 128.0
105.393593 156.0
105.421097 208.0
105.437218 336.0
105.453003 300.0
105.479385 176.0
105.527451 132.0
105.544327 168.0
105.553871 84.0
105.556564 296.0
105.578568 252.0
105.591599 268.0
105.606659 224.0
105.646004 52.0
105.669838 80.0
105.68602 164.0
105.693054 64.0
105.69986 136.0
105.723755 112.0
105.759392 144.0
105.778625 192.0
105.815948 92.0
105.832222 300.0
105.860298 188.0
105.864075 132.0
105.889206 112.0
105.892601 84.0
105.924858 196.0
105.959511 176.0
105.981461 220.0
105.988777 188.0
105.993752 300.0
106.026062 252.0
106.069885 108.0
106.098579 164.0
106.133804 224.0
106.157913 128.0
106.185921 476.0
106.222046 156.0
106.242134 68.0
106.275246 228.0
106.295479 232.0
106.311287 68.0
106.333237 72.0
106.369858 232.0
106.390137 436.0
106.408737 268.0
106.425453 124.0
106.458572 300.0
106.480644 116.0
106.49897 272.0
106.524033 136.0
106.542297 204.0
106.587563 340.0
106.620285 164.0
106.646843 132.0
106.710007 336.0
106.752136 364.0
106.773651 228.0
106.782089 96.0
106.788033 408.0
106.80497 88.0
106.829437 164.0
106.859581 140.0
106.885155 316.0
106.905785 208.0
106.920189 100.0
106.945221 252.0
106.969498 92.0
107.005638 140.0
107.028229 124.0
107.068466 152.0
107.117783 136.0
107.138397 176.0
107.16288 376.0
107.176071 168.0
107.198196 112.0
107.229324 340.0
107.258896 160.0
107.272392 200.0
107.308403 196.0
107.325752 236.0
107.346306 344.0
107.360191 96.0
107.375587 184.0
107.397133 196.0
107.428169 140.0
107.463829 144.0
107.475769 128.0
107.483826 108.0
107.508179 112.0
107.524986 152.0
107.555801 184.0
107.57692 240.0
107.608795 124.0
107.629303 132.0
107.645828 168.0
107.663483 116.0
107.68174 172.0
107.69606 284.0
107.709801 224.0
107.713264 152.0
107.722862 292.0
107.741623 168.0
107.760986 260.0
107.781761 148.0
107.794922 276.0
107.811859 180.0
107.842926 168.0
107.866234 164.0
107.871613 112.0
107.889122 132.0
107.907341 312.0
107.941353 228.0
107.978767 184.0
108.007492 88.0
108.033195 132.0
108.086517 204.0
108.094917 228.0
108.126144 256.0
108.144051 332.0
108.174835 124.0
108.210297 132.0
108.230034 300.0
108.259018 268.0
108.298325 196.0
108.321396 308.0
108.343094 160.0
108.377724 124.0
108.381409 168.0
108.426537 132.0
108.439728 132.0
108.457497 200.0
108.498055 84.0
108.523811 236.0
108.539734 292.0
108.591576 272.0
108.610245 108.0
108.655594 176.0
108.687004 176.0
108.705673 108.0
108.754257 176.0
108.786163 344.0
108.848907 152.0
108.870224 136.0
108.887405 360.0
108.895782 188.0
108.901184 116.0
108.936028 236.0
108.944099 144.0
108.95079 156.0
108.969376 136.0
109.000275 188.0
109.020065 192.0
109.045639 4808.0
109.079636 124.0
109.089722 88.0
109.096962 132.0
109.116936 140.0
109.147835 88.0
109.166077 164.0
109.200821 132.0
109.215599 152.0
109.235199 196.0
109.245552 104.0
109.251976 180.0
109.291107 196.0
109.321243 136.0
109.336212 124.0
109.364479 152.0
109.381241 76.0
109.403145 332.0
109.428413 176.0
109.478447 140.0
109.500252 188.0
109.523254 156.0
109.530815 144.0
109.562637 172.0
109.58004 216.0
109.619423 124.0
109.635529 136.0
109.650436 160.0
109.665512 112.0
109.6875 152.0
109.713814 168.0
109.758858 296.0
109.782539 288.0
109.798286 184.0
109.805908 128.0
109.815163 168.0
109.8368 112.0
109.885437 140.0
109.921341 136.0
109.953537 224.0
109.976196 268.0
110.012741 216.0
110.047531 312.0
110.076195 148.0
110.11689 276.0
110.138283 164.0
110.165184 172.0
110.195526 136.0
110.223984 224.0
110.232933 172.0
110.241638 168.0
110.247131 204.0
110.268471 176.0
110.275703 76.0
110.283363 124.0
110.303101 144.0
110.324005 168.0
110.361168 108.0
110.436279 184.0
110.482933 212.0
110.533173 248.0
110.551399 144.0
110.568726 160.0
110.613113 212.0
110.631134 220.0
110.661476 116.0
110.681763 152.0
110.702637 124.0
110.705917 120.0
110.733124 228.0
110.763443 136.0
110.790169 100.0
110.828331 296.0
110.857719 148.0
110.881149 196.0
110.898964 192.0
110.937218 144.0
110.958908 188.0
110.976974 256.0
110.996391 160.0
111.02507 1020.0
111.045349 416.0
111.068771 156.0
111.085411 128.0
111.089256 120.0
111.098419 60.0
111.103729 108.0
111.11853 124.0
111.144997 148.0
111.170174 168.0
111.201675 324.0
111.221313 164.0
111.258026 116.0
111.289032 192.0
111.308716 320.0
111.327698 200.0
111.343987 260.0
111.366615 84.0
111.408379 316.0
111.426086 168.0
111.461044 108.0
111.489349 344.0
111.512489 220.0
111.533508 208.0
111.553268 228.0
111.592369 96.0
111.610153 340.0
111.635826 372.0
111.655449 156.0
111.676514 228.0
111.705933 192.0
111.719604 128.0
111.732689 228.0
111.773254 100.0
111.817444 132.0
111.837273 172.0
111.868164 168.0
111.885506 204.0
111.903748 124.0
111.938461 472.0
111.971443 372.0
111.989525 104.0
112.028442 212.0
112.053207 116.0
112.072083 156.0
112.097534 136.0
112.116188 164.0
112.133881 280.0
112.14904 192.0
112.190674 272.0
112.209244 128.0
112.245773 256.0
112.264061 252.0
112.290665 200.0
112.298492 160.0
112.302795 252.0
112.321007 228.0
112.337883 168.0
112.354553 160.0
112.407883 224.0
112.416183 108.0
112.442017 236.0
112.467278 372.0
112.485222 160.0
112.538132 116.0
112.55526 208.0
112.607758 244.0
112.64843 140.0
112.734703 164.0
112.803612 152.0
112.827873 144.0
112.846291 200.0
112.866547 188.0
112.884247 168.0
112.917778 176.0
112.955452 112.0
113.001801 344.0
113.039276 2952.0
113.097313 228.0
113.135269 156.0
113.166138 236.0
113.198082 264.0
113.21714 200.0
113.247673 128.0
113.272202 148.0
113.29512 152.0
113.324234 164.0
113.336929 516.0
113.360207 208.0
113.384499 136.0
113.422653 236.0
113.449982 188.0
113.466087 196.0
113.494728 224.0
113.519402 164.0
113.534531 164.0
113.562553 248.0
113.59314 172.0
113.606781 156.0
113.677963 156.0
113.710442 256.0
113.737686 88.0
113.776283 168.0
113.792961 156.0
113.806175 56.0
113.81057 128.0
113.848083 260.0
113.871078 272.0
113.891815 212.0
113.917442 156.0
113.943687 192.0
113.993546 112.0
114.009079 168.0
114.041512 256.0
114.063683 204.0
114.092606 112.0
114.114037 204.0
114.132126 124.0
114.155106 256.0
114.182426 160.0
114.196243 256.0
114.228607 128.0
114.232368 256.0
114.306931 64.0
114.322235 324.0
114.355942 216.0
114.375496 284.0
114.411766 196.0
114.434647 148.0
114.467911 216.0
114.536446 332.0
114.552818 244.0
114.577522 164.0
114.59259 260.0
114.642227 288.0
114.646576 128.0
114.654411 160.0
114.663948 168.0
114.682777 344.0
114.700485 148.0
114.726044 256.0
114.769501 192.0
114.806694 168.0
114.822968 212.0
114.841736 232.0
114.865128 168.0
114.915901 200.0
114.965324 308.0
115.011322 228.0
115.029121 220.0
115.051567 704.0
115.088394 144.0
115.109749 112.0
115.131104 168.0
115.146049 200.0
115.19014 292.0
115.197975 260.0
115.224739 124.0
115.240631 144.0
115.26902 196.0
115.324348 204.0
115.348763 96.0
115.353493 140.0
115.3675 100.0
115.3778 192.0
115.422089 184.0
115.4431 164.0
115.47477 104.0
115.522415 276.0
115.54393 256.0
115.574013 140.0
115.594978 144.0
115.635773 148.0
115.665947 152.0
115.686363 172.0
115.695007 120.0
115.723404 308.0
115.746056 76.0
115.770142 92.0
115.786522 172.0
115.813347 96.0
115.837868 296.0
115.902573 196.0
115.942085 180.0
116.004929 292.0
116.019585 108.0
116.028389 148.0
116.056664 252.0
116.086212 620.0
116.116798 196.0
116.140785 272.0
116.175438 156.0
116.178169 144.0
116.194916 116.0
116.22451 176.0
116.23304 140.0
116.305969 408.0
116.339394 160.0
116.359138 136.0
116.379906 124.0
116.415573 184.0
116.432289 136.0
116.448105 128.0
116.455177 196.0
116.485512 260.0
116.533203 184.0
116.565239 300.0
116.589355 160.0
116.609337 188.0
116.6399 200.0
116.659393 152.0
116.669464 132.0
116.674461 148.0
116.70034 140.0
116.74424 180.0
116.777412 116.0
116.799217 332.0
116.850174 168.0
116.892509 356.0
116.917526 160.0
116.941048 140.0
117.020203 80.0
117.035271 248.0
117.064369 136.0
117.082642 124.0
117.109428 136.0
117.117516 168.0
117.146469 152.0
117.16111 168.0
117.183144 152.0
117.236649 156.0
117.281555 160.0
117.302162 280.0
117.33326 232.0
117.35614 208.0
117.359207 116.0
117.381989 96.0
117.411369 184.0
117.451515 204.0
117.471489 312.0
117.523224 164.0
117.548889 168.0
117.577271 276.0
117.613022 300.0
117.629524 180.0
117.65937 156.0
117.694595 188.0
117.713097 252.0
117.730309 184.0
117.759705 128.0
117.769974 164.0
117.78051 164.0
117.821381 160.0
117.84314 216.0
117.858131 192.0
117.882339 148.0
117.928429 136.0
117.946045 124.0
117.988701 184.0
118.009293 180.0
118.038857 144.0
118.075378 104.0
118.099167 84.0
118.123444 344.0
118.140808 96.0
118.160141 432.0
118.204971 128.0
118.221748 376.0
118.237633 264.0
118.271179 144.0
118.286774 124.0
118.332306 136.0
118.348732 148.0
118.37896 312.0
118.396042 164.0
118.419495 176.0
118.433586 152.0
118.451813 168.0
118.499336 84.0
118.527985 196.0
118.533302 112.0
118.542801 144.0
118.559105 200.0
118.578812 140.0
118.618835 148.0
118.653877 220.0
118.678848 364.0
118.715096 180.0
118.731064 188.0
118.755432 120.0
118.776993 192.0
118.792854 148.0
118.803055 88.0
118.844231 320.0
118.864792 156.0
118.919487 108.0
118.947678 160.0
119.00322 224.0
119.035385 144.0
119.054214 356.0
119.089447 352.0
119.122261 132.0
119.141815 320.0
119.168587 108.0
119.189613 240.0
119.210365 196.0
119.253426 176.0
119.292839 240.0
119.314217 144.0
119.333191 340.0
119.351418 216.0
119.367752 300.0
119.393478 148.0
119.413521 156.0
119.467552 276.0
119.502708 188.0
119.524261 180.0
119.566376 372.0
119.585831 144.0
119.609581 108.0
119.632652 152.0
119.651588 176.0
119.675804 132.0
119.704346 144.0
119.754326 224.0
119.778191 176.0
119.805138 96.0
119.813744 120.0
119.827209 168.0
119.841858 104.0
119.853249 168.0
119.884262 184.0
119.928902 140.0
119.945244 188.0
119.963936 188.0
119.987289 328.0
120.004295 148.0
120.010941 208.0
120.020226 304.0
120.029411 88.0
120.045624 144.0
120.066017 144.0
120.09227 236.0
120.114861 168.0
120.178123 112.0
120.217346 160.0
120.253746 152.0
120.275146 192.0
120.312447 204.0
120.338593 256.0
120.369598 176.0
120.408493 180.0
120.44561 148.0
120.505226 304.0
120.537918 120.0
120.560944 240.0
120.577736 132.0
120.612091 228.0
120.643311 112.0
120.659813 196.0
120.691765 148.0
120.737892 144.0
120.774368 124.0
120.798569 388.0
120.844856 128.0
120.878464 176.0
120.902298 312.0
120.919464 220.0
120.937515 176.0
120.96582 260.0
120.992241 56.0
121.029587 100.0
121.048073 268.0
121.076538 152.0
121.09967 128.0
121.103249 184.0
121.120132 212.0
121.15731 144.0
121.185776 152.0
121.21064 148.0
121.241905 144.0
121.250664 248.0
121.284348 80.0
121.314217 184.0
121.337929 340.0
121.3564 184.0
121.362 132.0
121.368858 220.0
121.397278 156.0
121.435959 156.0
121.471268 292.0
121.535454 352.0
121.558189 140.0
121.583839 372.0
121.613487 180.0
121.637459 72.0
121.654625 104.0
121.735413 456.0
121.756386 136.0
121.776085 132.0
121.808434 132.0
121.817764 124.0
121.852051 416.0
121.884369 124.0
121.912361 148.0
121.930595 216.0
121.946922 132.0
121.970665 136.0
121.998604 300.0
122.020065 308.0
122.048393 160.0
122.084869 76.0
122.091972 216.0
122.099854 252.0
122.10994 128.0
122.122093 268.0
122.145683 244.0
122.169846 344.0
122.19236 276.0
122.219673 136.0
122.252975 148.0
122.282898 180.0
122.303329 104.0
122.324417 152.0
122.353729 96.0
122.387238 264.0
122.41333 176.0
122.44474 132.0
122.481804 320.0
122.497963 376.0
122.516136 112.0
122.543442 436.0
122.570518 368.0
122.589973 292.0
122.601913 288.0
122.611 208.0
122.62664 360.0
122.670311 244.0
122.693855 332.0
122.706718 236.0
122.727852 220.0
122.747459 192.0
122.772469 484.0
122.805145 284.0
122.811958 476.0
122.819824 320.0
122.828293 324.0
122.853035 352.0
122.879456 600.0
122.902725 644.0
122.939293 984.0
122.961922 832.0
123.026947 240748.0
123.075966 160.0
123.107651 304.0
123.127838 200.0
123.174088 800.0
123.203224 300.0
123.229782 1912.0
123.266914 472.0
123.300529 604.0
123.329353 1208.0
123.363342 2064.0
123.390511 16868.0
123.440857 308.0
123.471298 452.0
123.499802 108.0
123.560883 392.0
123.583565 196.0
123.60701 216.0
123.636406 352.0
123.650772 188.0
123.668427 208.0
123.732376 760.0
123.75515 184.0
123.789337 200.0
123.831497 320.0
123.856895 172.0
123.876419 368.0
123.898575 140.0
123.927078 268.0
123.959518 264.0
123.983047 172.0
124.028595 73708.0
124.088173 96.0
124.112526 136.0
124.129158 116.0
124.15715 64.0
124.172211 76.0
124.196907 192.0
124.20755 56.0
124.222717 156.0
124.247429 112.0
124.262527 272.0
124.292862 320.0
124.323875 208.0
124.343033 316.0
124.361328 116.0
124.396049 128.0
124.42688 332.0
124.445709 188.0
124.45256 160.0
124.476685 124.0
124.512489 104.0
124.519012 112.0
124.530251 164.0
124.598358 116.0
124.618752 152.0
124.659798 344.0
124.698677 244.0
124.715385 284.0
124.772125 148.0
124.787277 308.0
124.808884 348.0
124.852898 464.0
124.871521 424.0
124.892021 296.0
124.922485 372.0
124.940453 272.0
124.962372 532.0
124.977531 316.0
124.995445 452.0
125.030479 4588.0
125.08596 344.0
125.089409 336.0
125.104828 264.0
125.119476 480.0
125.13987 308.0
125.172295 108.0
125.196404 132.0
125.261154 156.0
125.282692 132.0
125.3209 104.0
125.340263 160.0
125.385818 116.0
125.401054 136.0
125.428665 108.0
125.441818 168.0
125.481529 444.0
125.540718 36.0
125.571938 100.0
125.592628 144.0
125.643318 84.0
125.670998 152.0
125.714714 104.0
125.745697 136.0
125.777573 172.0
125.792229 208.0
125.815094 116.0
125.833443 56.0
125.857788 208.0
125.887444 96.0
125.903214 64.0
125.923729 192.0
125.980347 200.0
126.010071 228.0
126.031723 80.0
126.044304 172.0
126.067924 188.0
126.084053 156.0
126.103302 80.0
126.138008 124.0
126.172844 288.0
126.200958 180.0
126.224174 88.0
126.259804 280.0
126.285744 120.0
126.332176 256.0
126.34845 152.0
126.382179 212.0
126.40049 196.0
126.423439 296.0
126.454536 96.0
126.480354 176.0
126.512459 148.0
126.551109 152.0
126.606674 220.0
126.638031 60.0
126.656921 148.0
126.677849 72.0
126.705231 144.0
126.722527 156.0
126.766632 168.0
126.795898 120.0
126.821129 144.0
126.829338 104.0
126.876648 180.0
126.891884 152.0
126.912613 316.0
126.928452 296.0
126.945061 140.0
126.96524 144.0
126.9944 36.0
127.020851 116.0
127.055634 228.0
127.114624 260.0
127.133492 136.0
127.164909 56.0
127.192955 144.0
127.208336 152.0
127.238983 116.0
127.270416 152.0
127.297363 120.0
127.326561 104.0
127.356239 132.0
127.388161 188.0
127.418564 124.0
127.465988 60.0
127.48381 432.0
127.515274 128.0
127.563667 88.0
127.591972 132.0
127.620506 260.0
127.644279 156.0
127.668365 132.0
127.715378 116.0
127.740936 148.0
127.779633 256.0
127.796364 208.0
127.838554 112.0
127.879623 112.0
127.905907 312.0
128.039551 236.0
128.065948 268.0
128.111542 164.0
128.147598 212.0
128.181396 148.0
128.196106 108.0
128.239899 104.0
128.261841 224.0
128.298584 124.0
128.369751 172.0
128.393295 104.0
128.445648 176.0
128.512848 152.0
128.539917 124.0
128.559509 112.0
128.597382 104.0
128.633728 120.0
128.642151 68.0
128.649414 140.0
128.668564 88.0
128.695663 116.0
128.734192 192.0
128.757721 136.0
128.80632 156.0
128.847183 220.0
128.898956 144.0
128.952713 96.0
128.967941 220.0
129.029465 140.0
129.052643 156.0
129.074371 236.0
129.122757 108.0
129.150864 96.0
129.170242 164.0
129.200089 216.0
129.236008 180.0
129.29126 148.0
129.347137 160.0
129.362595 188.0
129.392014 236.0
129.412842 76.0
129.424576 204.0
129.442215 164.0
129.459 144.0
129.543701 128.0
129.564194 324.0
129.610794 320.0
129.633926 160.0
129.665176 168.0
129.693298 108.0
129.714951 80.0
129.746918 164.0
129.815079 84.0
129.835785 208.0
129.879227 144.0
129.898697 96.0
129.920059 180.0
129.934723 128.0
129.950348 108.0
129.974503 80.0
129.992661 112.0
130.016388 156.0
130.033508 60.0
130.073349 180.0
130.10527 168.0
130.124298 92.0
130.192657 164.0
130.204651 124.0
130.230957 120.0
130.24791 296.0
130.267746 220.0
130.299179 192.0
130.32872 196.0
130.361603 152.0
130.410034 148.0
130.426437 156.0
130.465073 136.0
130.533844 200.0
130.54808 208.0
130.585388 180.0
130.631088 32.0
130.678284 176.0
130.710556 304.0
130.758499 128.0
130.805405 164.0
130.824509 136.0
130.867767 72.0
130.885971 208.0
130.925476 144.0
130.956192 120.0
130.99321 96.0
131.032394 252.0
131.061371 208.0
131.084015 96.0
131.12796 188.0
131.145676 88.0
131.166306 140.0
131.194229 148.0
131.21167 312.0
131.236206 152.0
131.273346 228.0
131.295578 192.0
131.321243 92.0
131.355453 44.0
131.396515 100.0
131.431229 148.0
131.44899 152.0
131.490707 116.0
131.524307 164.0
131.549774 156.0
131.612137 320.0
131.665863 220.0
131.697189 128.0
131.722473 304.0
131.766373 44.0
131.833832 76.0
131.863098 148.0
131.878952 144.0
131.895844 168.0
131.917786 124.0
131.946915 140.0
131.964218 84.0
132.001785 48.0
132.030945 80.0
132.055786 160.0
132.072418 68.0
132.090073 140.0
132.11554 168.0
132.149246 128.0
132.184784 196.0
132.209671 64.0
132.241882 116.0
132.27861 108.0
132.306091 164.0
132.330734 152.0
132.380142 244.0
132.417847 124.0
132.456772 224.0
132.490814 180.0
132.528244 52.0
132.553452 64.0
132.596985 64.0
132.616241 100.0
132.639191 144.0
132.658417 120.0
132.691284 136.0
132.741409 56.0
132.770615 152.0
132.784729 220.0
132.799683 136.0
132.834625 56.0
132.9021 148.0
132.923981 116.0
132.943344 140.0
132.964249 200.0
132.996384 176.0
133.044144 776.0
133.165909 164.0
133.191223 192.0
133.211456 76.0
133.255554 156.0
133.322189 128.0
133.368668 144.0
133.398956 236.0
133.440033 164.0
133.474442 68.0
133.503799 176.0
133.540588 100.0
133.580414 132.0
133.600189 156.0
133.622498 152.0
133.657913 76.0
133.685532 104.0
133.706238 188.0
133.743835 108.0
133.764465 108.0
133.795868 156.0
133.803513 116.0
133.812485 176.0
133.854721 160.0
133.915741 36.0
133.93602 120.0
133.939453 96.0
133.948807 148.0
133.99176 160.0
134.026321 96.0
134.042938 188.0
134.059357 84.0
134.068741 68.0
134.087509 116.0
134.102173 48.0
134.126083 84.0
134.151993 128.0
134.183044 72.0
134.228302 160.0
134.284683 316.0
134.323715 156.0
134.359528 160.0
134.437607 200.0
134.476974 152.0
134.521347 212.0
134.565933 180.0
134.606537 232.0
134.669937 112.0
134.70459 180.0
134.730057 148.0
134.747726 160.0
134.785446 80.0
134.802719 236.0
134.921219 340.0
134.951874 156.0
134.979553 236.0
135.009094 32.0
135.035492 196.0
135.060287 1988.0
135.113647 76.0
135.137863 196.0
135.164658 144.0
135.217102 164.0
135.234848 172.0
135.271881 196.0
135.302124 92.0
135.358398 120.0
135.406387 248.0
135.449417 156.0
135.484161 108.0
135.507339 196.0
135.527252 348.0
135.567581 172.0
135.60527 240.0
135.63353 200.0
135.659363 184.0
135.697388 104.0
135.717972 164.0
135.752151 296.0
135.774902 156.0
135.807877 184.0
135.843964 156.0
135.887558 200.0
135.915817 176.0
135.975739 152.0
136.022369 132.0
136.063507 524.0
136.105728 152.0
136.133606 168.0
136.1754 156.0
136.191162 132.0
136.197205 104.0
136.222916 140.0
136.279938 172.0
136.296204 80.0
136.312469 68.0
136.354996 80.0
136.41925 148.0
136.4496 120.0
136.475677 92.0
136.50322 128.0
136.549515 140.0
136.583694 132.0
136.621689 132.0
136.647278 108.0
136.696136 156.0
136.712173 108.0
136.721649 96.0
136.728439 200.0
136.751999 60.0
136.770615 104.0
136.812515 112.0
136.82814 96.0
136.908844 136.0
136.974472 160.0
136.999298 192.0
137.038177 268.0
137.076736 340.0
137.134323 360.0
137.16893 56.0
137.185242 84.0
137.221848 108.0
137.262634 312.0
137.283173 192.0
137.306808 224.0
137.339584 104.0
137.362473 164.0
137.411255 184.0
137.438873 192.0
137.462784 72.0
137.478455 56.0
137.507126 192.0
137.556137 76.0
137.603317 192.0
137.644058 116.0
137.677689 136.0
137.714417 132.0
137.740738 152.0
137.773315 36.0
137.796677 212.0
137.813538 56.0
137.871445 192.0
137.904175 176.0
137.941559 176.0
137.988983 140.0
138.006683 180.0
138.013748 160.0
138.046112 308.0
138.08078 104.0
138.087402 204.0
138.130463 92.0
138.194138 40.0
138.229233 132.0
138.270432 112.0
138.286453 124.0
138.318161 144.0
138.376694 164.0
138.439148 148.0
138.443848 224.0
138.484406 176.0
138.512512 140.0
138.538284 296.0
138.571075 128.0
138.589828 156.0
138.606232 160.0
138.632004 172.0
138.650742 140.0
138.67305 140.0
138.702774 204.0
138.738129 100.0
138.768921 136.0
138.821884 152.0
138.846649 328.0
138.879333 152.0
138.949371 204.0
138.969986 140.0
139.022751 208.0
139.050903 172.0
139.107254 152.0
139.140976 80.0
139.169159 172.0
139.192642 152.0
139.21611 108.0
139.234726 160.0
139.260391 108.0
139.300217 144.0
139.367035 160.0
139.413452 104.0
139.439301 152.0
139.460449 368.0
139.493362 192.0
139.551407 256.0
139.594452 120.0
139.617966 120.0
139.63884 156.0
139.721237 164.0
139.772018 168.0
139.86972 96.0
139.901627 144.0
139.91124 144.0
139.921402 92.0
139.929367 140.0
139.969681 112.0
140.003281 268.0
140.043839 208.0
140.07222 148.0
140.088699 92.0
140.118774 152.0
140.175812 132.0
140.230301 168.0
140.24144 180.0
140.272064 152.0
140.368805 104.0
140.405594 108.0
140.411957 300.0
140.435196 196.0
140.477951 272.0
140.49704 148.0
140.532684 184.0
140.560226 184.0
140.578094 160.0
140.631027 144.0
140.678238 176.0
140.696381 64.0
140.727814 152.0
140.770737 188.0
140.829361 96.0
140.876602 156.0
140.914124 140.0
140.920959 124.0
140.954559 44.0
140.97583 104.0
141.032288 292.0
141.070221 128.0
141.084 120.0
141.157852 64.0
141.210892 160.0
141.248642 124.0
141.280838 216.0
141.310806 108.0
141.343475 84.0
141.363647 60.0
141.402588 220.0
141.458313 144.0
141.477249 148.0
141.545258 116.0
141.596329 84.0
141.619186 132.0
141.6259 124.0
141.650116 284.0
141.690399 48.0
141.719849 84.0
141.756729 72.0
141.773331 140.0
141.811249 112.0
141.848633 140.0
141.889465 56.0
141.9216 228.0
141.96344 80.0
141.991425 208.0
142.025543 208.0
142.116684 80.0
142.178848 144.0
142.233429 160.0
142.250046 172.0
142.276169 72.0
142.330841 136.0
142.352142 168.0
142.372513 172.0
142.397263 172.0
142.452805 124.0
142.478027 132.0
142.537415 172.0
142.567886 136.0
142.603958 48.0
142.625351 176.0
142.648148 156.0
142.674179 196.0
142.768143 128.0
142.796539 156.0
142.82399 96.0
142.851242 212.0
142.925583 164.0
142.960968 176.0
142.982117 108.0
143.003525 84.0
143.020187 184.0
143.03685 120.0
143.072556 156.0
143.142609 104.0
143.16832 236.0
143.246399 208.0
143.288086 308.0
143.320251 160.0
143.355988 124.0
143.410812 200.0
143.444168 176.0
143.467422 48.0
143.503769 264.0
143.586517 132.0
143.639114 160.0
143.661179 228.0
143.699097 200.0
143.720215 144.0
143.754852 212.0
143.773315 136.0
143.804337 92.0
143.821045 124.0
143.842529 164.0
143.86879 160.0
143.885498 180.0
143.905884 148.0
143.947174 168.0
144.001511 220.0
144.021606 36.0
144.064606 108.0
144.094315 176.0
144.123306 176.0
144.164963 76.0
144.191177 152.0
144.236664 152.0
144.277298 132.0
144.315552 168.0
144.332291 124.0
144.352432 112.0
144.371429 148.0
144.39566 160.0
144.473053 140.0
144.508118 156.0
144.549957 232.0
144.585724 80.0
144.614563 124.0
144.632401 168.0
144.650467 104.0
144.723984 284.0
144.774979 192.0
144.791733 120.0
144.812317 128.0
144.896088 184.0
144.910156 172.0
144.954971 140.0
144.976044 124.0
145.005096 132.0
145.024384 372.0
145.046127 320.0
145.076859 204.0
145.110519 108.0
145.141418 272.0
145.167786 100.0
145.207138 216.0
145.249512 284.0
145.297501 296.0
145.339844 148.0
145.374268 164.0
145.4021 200.0
145.435104 92.0
145.46965 136.0
145.511093 128.0
145.527893 164.0
145.559113 308.0
145.581619 140.0
145.622818 68.0
145.642258 284.0
145.664307 180.0
145.703217 156.0
145.737152 160.0
145.758484 120.0
145.782501 56.0
145.825897 132.0
145.847397 36.0
145.871429 140.0
145.893066 328.0
145.931534 92.0
145.960083 156.0
145.97583 200.0
146.008484 88.0
146.052414 704.0
146.072479 240.0
146.10083 204.0
146.127991 140.0
146.151382 148.0
146.181747 144.0
146.205719 184.0
146.229523 100.0
146.253632 116.0
146.263336 104.0
146.271957 212.0
146.299622 212.0
146.339783 140.0
146.409149 148.0
146.42218 188.0
146.436493 128.0
146.446213 164.0
146.505463 144.0
146.567139 160.0
146.609299 140.0
146.657013 264.0
146.690521 132.0
146.709152 76.0
146.726028 128.0
146.769424 132.0
146.815247 108.0
146.849945 164.0
146.882767 188.0
146.952301 132.0
146.980591 132.0
147.010864 220.0
147.03508 244.0
147.061417 3020.0
147.097534 356.0
147.120407 352.0
147.141495 168.0
147.165131 200.0
147.184448 128.0
147.213425 172.0
147.305969 348.0
147.359634 96.0
147.389755 172.0
147.406662 148.0
147.430832 156.0
147.46225 96.0
147.485229 172.0
147.520264 280.0
147.53923 396.0
147.600037 176.0
147.627533 272.0
147.687241 148.0
147.754837 188.0
147.776611 40.0
147.801682 220.0
147.893921 188.0
147.950851 96.0
147.993286 228.0
148.023499 100.0
148.064865 436.0
148.122589 148.0
148.172775 196.0
148.21727 100.0
148.268158 92.0
148.294815 52.0
148.321487 216.0
148.338455 92.0
148.366699 128.0
148.389359 132.0
148.422272 168.0
148.439133 144.0
148.47908 156.0
148.500259 180.0
148.542145 192.0
148.5858 168.0
148.618683 312.0
148.691895 228.0
148.721695 172.0
148.738678 48.0
148.788147 192.0
148.852783 172.0
148.87738 220.0
148.909073 112.0
148.94751 132.0
148.984863 160.0
149.017258 140.0
149.046036 88.0
149.07634 1184.0
149.140335 44.0
149.182404 72.0
149.209946 44.0
149.227493 144.0
149.243988 128.0
149.273438 112.0
149.295883 204.0
149.392349 108.0
149.448135 124.0
149.454926 116.0
149.461548 208.0
149.513214 168.0
149.555817 132.0
149.580948 120.0
149.611588 132.0
149.650314 136.0
149.680405 156.0
149.735535 132.0
149.795547 372.0
149.818359 76.0
149.837845 36.0
149.922348 176.0
149.944366 156.0
149.960754 168.0
149.98288 140.0
150.043945 148.0
150.057892 172.0
150.083008 320.0
150.135223 168.0
150.154663 156.0
150.185867 224.0
150.215698 148.0
150.232773 216.0
150.260101 160.0
150.30191 112.0
150.318176 116.0
150.342575 84.0
150.35965 120.0
150.404114 132.0
150.430435 144.0
150.484146 112.0
150.517105 124.0
150.537445 140.0
150.544601 184.0
150.609192 136.0
150.679276 116.0
150.718628 212.0
150.788696 172.0
150.813934 116.0
150.855484 40.0
150.904373 96.0
150.921494 208.0
150.954666 180.0
150.987518 96.0
151.032776 388.0
151.053619 512.0
151.119354 116.0
151.17099 252.0
151.190567 208.0
151.21051 108.0
151.246292 296.0
151.283569 48.0
151.318176 152.0
151.373779 232.0
151.406006 136.0
151.49115 260.0
151.55014 152.0
151.594635 76.0
151.628937 352.0
151.646088 156.0
151.682861 336.0
151.734344 236.0
151.762009 140.0
151.796478 104.0
151.861847 184.0
151.879013 156.0
151.924286 112.0
151.971008 232.0
151.997177 316.0
152.01886 344.0
152.055328 164.0
152.086472 204.0
152.122986 168.0
152.143127 76.0
152.178406 48.0
152.220154 216.0
152.282776 192.0
152.30365 120.0
152.39946 208.0
152.448593 100.0
152.470718 64.0
152.492126 124.0
152.519135 152.0
152.600998 124.0
152.75798 192.0
152.79187 108.0
152.840866 168.0
152.865509 252.0
152.90181 384.0
152.937866 212.0
153.012833 236.0
153.051575 208.0
153.071228 288.0
153.102966 168.0
153.181442 356.0
153.290176 128.0
153.319748 220.0
153.345108 236.0
153.393692 36.0
153.41095 44.0
153.462723 100.0
153.47998 160.0
153.49971 128.0
153.529297 172.0
153.545593 248.0
153.586029 144.0
153.637833 152.0
153.672363 124.0
153.694565 156.0
153.716782 136.0
153.752716 120.0
153.794983 192.0
153.831177 192.0
153.86853 132.0
153.918182 196.0
153.951294 180.0
153.980621 196.0
153.984085 172.0
154.016342 148.0
154.067368 144.0
154.143967 52.0
154.167969 152.0
154.248718 188.0
154.30957 240.0
154.359024 236.0
154.396805 332.0
154.414642 268.0
154.436874 116.0
154.468658 156.0
154.506592 132.0
154.529678 196.0
154.570053 164.0
154.589066 108.0
154.60968 352.0
154.652222 116.0
154.678162 48.0
154.707077 124.0
154.715179 84.0
154.720993 120.0
154.739044 304.0
154.790649 348.0
154.814331 188.0
154.836624 128.0
154.937408 128.0
154.980301 104.0
155.027374 116.0
155.06427 276.0
155.136429 144.0
155.156265 108.0
155.195496 312.0
155.238754 208.0
155.311905 168.0
155.327209 296.0
155.349579 172.0
155.360413 100.0
155.404999 476.0
155.441498 172.0
155.461349 216.0
155.481201 100.0
155.504303 144.0
155.560623 64.0
155.607788 128.0
155.637863 176.0
155.669495 132.0
155.695984 240.0
155.73259 108.0
155.770569 168.0
155.80249 180.0
155.868591 132.0
155.893188 156.0
155.970474 64.0
155.998016 148.0
156.032623 188.0
156.085571 160.0
156.147858 188.0
156.174362 136.0
156.204208 184.0
156.257034 208.0
156.281342 140.0
156.352036 208.0
156.376556 164.0
156.411484 120.0
156.430649 148.0
156.472839 152.0
156.500366 184.0
156.547836 188.0
156.575958 144.0
156.60495 148.0
156.624878 148.0
156.641556 148.0
156.672409 148.0
156.761902 200.0
156.785233 144.0
156.811752 176.0
156.866577 52.0
156.889023 100.0
156.931808 172.0
156.969666 160.0
156.998718 204.0
157.033646 60.0
157.071045 116.0
157.088516 44.0
157.142242 208.0
157.169876 176.0
157.20079 100.0
157.229172 212.0
157.264069 124.0
157.318085 128.0
157.375214 132.0
157.416901 208.0
157.439789 140.0
157.452072 152.0
157.48381 300.0
157.572556 116.0
157.584747 188.0
157.635284 108.0
157.660172 96.0
157.680267 232.0
157.698624 228.0
157.719223 204.0
157.752747 312.0
157.795242 164.0
157.835785 176.0
157.877548 140.0
157.88324 128.0
157.890808 164.0
157.912048 128.0
157.944229 192.0
157.970367 152.0
157.999542 128.0
158.03035 124.0
158.062866 92.0
158.100403 160.0
158.120193 124.0
158.140457 204.0
158.218048 128.0
158.260605 140.0
158.298035 112.0
158.343246 172.0
158.365784 160.0
158.403351 76.0
158.423401 252.0
158.460983 156.0
158.543671 240.0
158.572113 200.0
158.591278 188.0
158.628128 188.0
158.647079 104.0
158.671494 48.0
158.714127 80.0
158.739197 172.0
158.756744 116.0
158.800095 168.0
158.82486 172.0
158.867645 224.0
158.902222 100.0
158.932343 136.0
158.957428 184.0
158.998367 208.0
159.044174 1648.0
159.126282 180.0
159.157501 96.0
159.173294 128.0
159.19841 144.0
159.218506 160.0
159.265976 200.0
159.313675 144.0
159.351852 140.0
159.385757 100.0
159.408325 184.0
159.462204 164.0
159.509949 68.0
159.528595 128.0
159.590393 84.0
159.620575 132.0
159.644775 128.0
159.691132 200.0
159.727066 128.0
159.794128 164.0
159.819275 192.0
159.842575 256.0
159.872116 72.0
159.931778 132.0
160.008041 88.0
160.025665 108.0
160.046707 440.0
160.089264 156.0
160.140289 152.0
160.167557 208.0
160.211716 188.0
160.277542 152.0
160.353134 144.0
160.373306 136.0
160.412048 128.0
160.43399 148.0
160.501572 104.0
160.544739 144.0
160.588882 184.0
160.613861 176.0
160.65274 224.0
160.692886 152.0
160.73613 344.0
160.758041 188.0
160.769104 140.0
160.772339 180.0
160.797012 64.0
160.847488 56.0
160.869553 204.0
160.924332 128.0
160.976929 192.0
161.067368 252.0
161.105057 124.0
161.14595 184.0
161.173279 100.0
161.190964 124.0
161.213058 236.0
161.288452 160.0
161.30307 144.0
161.324921 156.0
161.350189 168.0
161.393021 132.0
161.436157 132.0
161.461456 240.0
161.487244 160.0
161.543167 156.0
161.57106 300.0
161.605133 320.0
161.619064 284.0
161.663422 148.0
161.677002 156.0
161.696732 200.0
161.716309 268.0
161.739761 132.0
161.787918 172.0
161.877609 124.0
161.899261 164.0
161.98407 124.0
162.009476 148.0
162.030609 180.0
162.062927 288.0
162.083817 220.0
162.129791 120.0
162.147537 124.0
162.19931 112.0
162.220444 188.0
162.267593 180.0
162.306107 144.0
162.313828 232.0
162.35434 160.0
162.414917 120.0
162.45282 240.0
162.467773 144.0
162.503082 320.0
162.541931 328.0
162.606277 340.0
162.632919 492.0
162.648102 144.0
162.657883 184.0
162.693954 236.0
162.770996 176.0
162.80307 164.0
162.824646 152.0
162.858948 160.0
162.879944 180.0
162.916351 144.0
162.934128 140.0
163.007812 128.0
163.025604 208.0
163.056061 3648.0
163.102859 156.0
163.130096 140.0
163.18573 132.0
163.201599 116.0
163.206924 120.0
163.216797 128.0
163.238876 204.0
163.293304 160.0
163.347961 200.0
163.371384 272.0
163.395248 116.0
163.42012 136.0
163.462982 136.0
163.483658 116.0
163.508789 136.0
163.544418 148.0
163.568985 148.0
163.579315 96.0
163.610596 84.0
163.628418 56.0
163.64624 276.0
163.674332 132.0
163.71611 192.0
163.733627 188.0
163.760834 192.0
163.795486 140.0
163.828491 136.0
163.833359 76.0
163.845428 172.0
163.884735 140.0
163.914246 308.0
163.949356 136.0
163.971466 148.0
164.0103 132.0
164.014984 112.0
164.021515 260.0
164.060257 560.0
164.108231 160.0
164.170212 76.0
164.195511 404.0
164.222153 140.0
164.241562 132.0
164.269028 116.0
164.277115 44.0
164.295105 352.0
164.317978 120.0
164.343216 404.0
164.370117 212.0
164.405334 116.0
164.430801 92.0
164.478455 316.0
164.508957 160.0
164.519089 152.0
164.538513 256.0
164.561264 208.0
164.570343 276.0
164.598038 188.0
164.603363 180.0
164.652649 352.0
164.676376 200.0
164.679535 404.0
164.703705 200.0
164.707367 312.0
164.740402 464.0
164.779831 380.0
164.805542 324.0
164.834885 688.0
164.873917 572.0
164.897308 352.0
164.923553 968.0
164.942795 700.0
164.986282 940.0
165.021957 2032.0
165.073425 453980.0
165.167755 428.0
165.214569 312.0
165.244766 648.0
165.283279 412.0
165.311096 1020.0
165.339325 384.0
165.348969 372.0
165.38736 492.0
165.42482 352.0
165.430984 228.0
165.463608 1636.0
165.494415 15776.0
165.52771 584.0
165.556061 288.0
165.585968 204.0
165.623917 184.0
165.646515 280.0
165.665909 252.0
165.699707 412.0
165.714569 268.0
165.722855 316.0
165.750549 280.0
165.802429 284.0
165.830032 260.0
165.85788 172.0
165.865875 156.0
165.894791 264.0
165.921646 164.0
165.950256 128.0
165.980911 156.0
166.020691 188.0
166.028549 100.0
166.039871 204.0
166.07547 105336.0
166.16864 104.0
166.176819 140.0
166.211502 108.0
166.251816 124.0
166.285706 136.0
166.302383 168.0
166.3228 408.0
166.339401 208.0
166.379929 84.0
166.409378 220.0
166.432755 60.0
166.493607 312.0
166.546326 212.0
166.564972 172.0
166.588409 208.0
166.641083 108.0
166.674194 76.0
166.703705 72.0
166.729004 152.0
166.761658 224.0
166.799454 204.0
166.831497 212.0
166.848694 168.0
166.856262 68.0
166.883392 220.0
166.908325 120.0
166.939392 108.0
166.977676 88.0
166.995529 116.0
167.036713 156.0
167.076279 6260.0
167.127014 296.0
167.157776 264.0
167.168488 332.0
167.191986 360.0
167.212418 492.0
167.243546 512.0
167.275818 428.0
167.305374 208.0
167.312729 360.0
167.340622 400.0
167.365875 400.0
167.41983 360.0
167.452011 192.0
167.464645 336.0
167.499725 332.0
167.53627 272.0
167.540909 188.0
167.569458 200.0
167.616394 120.0
167.654404 64.0
167.680817 60.0
167.706802 48.0
167.748352 120.0
167.771881 36.0
167.791916 148.0
167.817825 76.0
167.848373 88.0
167.875656 144.0
167.894791 116.0
167.919205 120.0
167.945297 84.0
167.974167 72.0
168.044861 72.0
168.075699 264.0
168.127258 36.0
168.157944 76.0
168.174637 68.0
168.194626 112.0
168.212585 128.0
168.231628 80.0
168.253906 84.0
168.272736 68.0
168.302429 104.0
168.318253 176.0
168.39917 444.0
168.432922 120.0
168.490265 88.0
168.527206 76.0
168.554642 184.0
168.586426 48.0
168.637222 68.0
168.682266 76.0
168.702942 72.0
168.721039 44.0
168.742249 80.0
168.787918 60.0
168.816711 48.0
168.865845 52.0
168.891708 64.0
168.956375 56.0
168.97966 56.0
169.04953 56.0
169.067642 68.0
169.159149 108.0
169.220352 36.0
169.263077 60.0
169.328125 84.0
169.388687 52.0
169.43013 48.0
169.518219 36.0
169.621887 76.0
169.653 116.0
169.705658 88.0
169.742966 72.0
169.772263 80.0
169.876022 28.0
169.982391 128.0
170.057648 44.0
170.119949 48.0
170.151093 80.0
170.205612 76.0
170.320572 136.0
170.348465 88.0
170.392624 132.0
170.501068 76.0
170.569336 92.0
170.623917 68.0
170.683716 60.0
170.873581 52.0
170.902206 48.0
170.92627 96.0
170.98288 88.0
171.042038 568.0
171.113022 44.0
171.279694 52.0
171.383896 44.0
171.459457 48.0
171.527222 60.0
171.545471 44.0
171.665405 72.0
171.746246 36.0
171.799072 80.0
171.881912 56.0
171.986298 128.0
172.025452 120.0
172.208221 48.0
172.226517 56.0
172.276138 88.0
172.357132 76.0
172.396332 60.0
172.62114 60.0
172.668213 116.0
172.733948 264.0
172.75975 44.0
172.825165 80.0
172.86441 68.0
172.961243 84.0
173.021973 532.0
173.050201 652.0
173.189041 48.0
173.223099 48.0
173.280731 80.0
173.319672 88.0
173.449921 128.0
173.486115 80.0
173.545441 84.0
173.566406 92.0
173.607895 88.0
173.652954 88.0
173.69754 60.0
173.715897 48.0
173.738571 100.0
173.791153 76.0
173.80806 112.0
173.82872 104.0
173.873337 56.0
173.904831 76.0
173.952072 104.0
174.004578 80.0
174.029877 132.0
174.064804 64.0
174.122742 160.0
174.146378 180.0
174.193649 64.0
174.225174 44.0
174.262634 124.0
174.305618 136.0
174.438034 64.0
174.460373 96.0
174.52478 44.0
174.572952 76.0
174.59967 100.0
174.626389 116.0
174.682587 100.0
174.700989 104.0
174.758865 76.0
174.782547 80.0
174.808868 72.0
174.829926 96.0
174.850967 168.0
174.879929 76.0
174.916641 248.0
174.987854 124.0
175.028946 132.0
175.089066 136.0
175.122147 192.0
175.163406 80.0
175.269806 148.0
175.293381 68.0
175.351364 48.0
175.372452 108.0
175.389465 96.0
175.432022 200.0
175.47525 92.0
175.498978 68.0
175.554352 44.0
175.616562 104.0
175.67041 148.0
175.739944 100.0
175.797043 60.0
175.820801 68.0
175.915451 116.0
175.947495 96.0
175.981812 140.0
176.024063 88.0
176.050476 52.0
176.087357 244.0
176.12912 92.0
176.159119 88.0
176.18782 56.0
176.210037 68.0
176.251221 72.0
176.322571 60.0
176.34108 104.0
176.384567 152.0
176.594894 36.0
176.626633 48.0
176.668945 64.0
176.692764 132.0
176.732452 44.0
176.77478 112.0
176.814484 72.0
176.885941 68.0
176.958939 60.0
177.011459 68.0
177.032669 152.0
177.051239 160.0
177.069 288.0
177.110443 148.0
177.135178 220.0
177.182526 168.0
177.410431 76.0
177.444901 72.0
177.51384 116.0
177.590744 84.0
177.613571 80.0
177.664139 48.0
177.682709 96.0
177.710129 100.0
177.793045 48.0
177.919785 84.0
177.957733 96.0
178.015366 28.0
178.065781 140.0
178.104385 292.0
178.126923 76.0
178.161453 52.0
178.237122 100.0
178.312805 112.0
178.360748 92.0
178.384674 48.0
178.41391 128.0
178.464417 92.0
178.530899 36.0
178.603958 68.0
178.681854 144.0
178.757019 68.0
178.829834 132.0
178.855484 84.0
178.888977 96.0
178.93454 172.0
179.067001 700.0
179.111099 152.0
179.148392 128.0
179.331207 68.0
179.372223 76.0
179.52301 72.0
179.671982 108.0
179.798965 52.0
179.830994 88.0
179.895065 40.0
179.969818 68.0
180.073959 96.0
180.16745 132.0
180.228897 36.0
180.341125 120.0
180.360413 116.0
180.498856 56.0
180.795792 136.0
180.822556 80.0
180.996552 32.0
181.079758 148.0
181.220337 188.0
181.264404 68.0
181.29657 60.0
181.454712 96.0
181.69072 68.0
181.729675 180.0
181.854401 116.0
181.948349 76.0
181.98056 32.0
182.109467 36.0
182.136322 104.0
182.179306 64.0
182.372772 76.0
182.671234 128.0
182.803864 108.0
182.986084 140.0
183.037247 108.0
183.239258 104.0
183.376678 164.0
183.406326 80.0
183.487198 136.0
183.51416 32.0
183.627411 52.0
183.69754 104.0
183.789276 168.0
183.832443 80.0
183.891815 76.0
184.06459 72.0
184.121292 40.0
184.253647 88.0
184.291473 40.0
184.34552 220.0
184.41037 124.0
184.58609 156.0
184.859299 76.0
184.970261 100.0
185.057266 200.0
185.124588 64.0
185.235626 100.0
185.525589 68.0
185.601501 104.0
185.623184 36.0
185.891739 172.0
186.063782 280.0
186.402237 136.0
186.717575 56.0
186.744766 148.0
186.785568 80.0
186.848145 108.0
187.011414 140.0
187.067581 212.0
187.291855 96.0
187.468933 92.0
187.501633 224.0
187.565613 68.0
187.697906 180.0
187.741547 76.0
187.965225 60.0
188.014343 152.0
188.041641 244.0
188.087097 244.0
188.26619 220.0
188.325577 36.0
188.369278 132.0
188.430984 96.0
188.538681 144.0
188.820267 132.0
188.943359 132.0
189.074692 160.0
189.101685 88.0
189.151337 60.0
189.4142 104.0
189.531998 28.0
189.718369 92.0
190.080399 68.0
190.105087 264.0
190.176453 44.0
190.267029 140.0
190.775253 176.0
190.830246 148.0
190.930725 96.0
191.048752 124.0
191.072647 172.0
191.110779 52.0
191.275894 136.0
191.308167 100.0
191.38327 156.0
191.738617 72.0
191.933945 140.0
192.081848 236.0
192.115723 508.0
192.139938 272.0
192.300064 124.0
192.729263 120.0
193.027786 92.0
193.07756 140.0
193.123825 132.0
193.174362 128.0
193.193726 72.0
193.527267 124.0
193.614441 72.0
194.048828 152.0
194.09816 3916.0
194.1604 124.0
194.204773 136.0
194.229736 40.0
194.257477 28.0
194.308533 128.0
194.3629 80.0
194.529419 52.0
194.740921 116.0
194.820999 116.0
195.099304 440.0
195.477142 104.0
195.518051 84.0
195.800064 80.0
195.861343 76.0
196.07309 68.0
196.099396 128.0
196.127563 168.0
196.413239 88.0
196.526642 184.0
196.654526 108.0
196.689468 32.0
196.711807 76.0
196.848602 160.0
196.926804 128.0
197.062561 156.0
197.155899 152.0
197.209793 168.0
197.295639 92.0
197.564117 36.0
197.723602 172.0
197.80278 152.0
197.855148 108.0
198.000763 136.0
198.066849 200.0
198.098785 160.0
198.188446 152.0
198.219254 124.0
198.367798 40.0
198.443497 88.0
198.516388 72.0
198.536026 144.0
198.583694 60.0
198.858658 68.0
198.923218 52.0
198.98497 56.0
199.0327 220.0
199.071716 1692.0
199.223679 168.0
199.5047 92.0
199.670593 164.0
199.980072 96.0
200.078598 216.0
200.148972 56.0
200.201431 108.0
200.247543 88.0
200.825317 116.0
201.05545 180.0
201.085526 124.0
201.1978 136.0
201.288147 136.0
201.679306 104.0
201.839142 96.0
202.005997 56.0
202.105347 420.0
202.167267 100.0
202.189911 196.0
202.434555 172.0
202.566483 104.0
202.594803 124.0
202.6203 88.0
202.756317 68.0
203.005783 48.0
203.079514 52.0
203.130569 152.0
203.34053 112.0
203.374588 140.0
203.675568 60.0
203.777832 52.0
203.806244 52.0
204.118896 1260.0
204.296051 56.0
204.377747 136.0
204.454575 240.0
204.491577 72.0
204.898773 148.0
204.918716 56.0
205.044098 108.0
205.115921 188.0
205.292114 132.0
205.437103 48.0
205.500336 72.0
205.594498 128.0
205.620178 104.0
205.720078 144.0
205.768616 80.0
205.904297 60.0
205.945663 192.0
205.994217 80.0
206.025635 144.0
206.054214 136.0
206.097626 13008.0
206.142181 76.0
206.21994 64.0
206.309189 36.0
206.389557 60.0
206.54303 60.0
206.608826 48.0
206.720413 36.0
207.100906 976.0
207.149872 172.0
207.241547 124.0
207.327515 88.0
207.52243 136.0
207.568298 68.0
207.622787 44.0
207.840805 76.0
207.860886 68.0
207.941757 132.0
208.072281 104.0
208.106644 116.0
208.191864 92.0
208.236954 32.0
208.303009 180.0
208.426544 68.0
208.46965 188.0
208.509888 96.0
208.561615 100.0
208.739853 44.0
208.762863 84.0
209.076431 136.0
209.142624 236.0
209.162766 32.0
209.427673 92.0
209.5112 140.0
209.735962 48.0
209.764801 112.0
209.865692 220.0
209.966614 68.0
210.107712 144.0
210.425415 44.0
210.644897 100.0
210.740234 84.0
210.815353 72.0
211.068939 88.0
211.16806 52.0
211.405273 80.0
211.434219 44.0
211.584732 100.0
211.75267 68.0
211.926483 160.0
212.075668 156.0
212.129349 160.0
212.219223 80.0
212.436722 72.0
212.57019 36.0
212.642731 108.0
212.814011 108.0
212.970825 196.0
213.086456 140.0
213.441605 92.0
213.923187 144.0
214.349777 156.0
214.408051 148.0
214.562546 208.0
214.720001 52.0
214.819168 108.0
215.049683 112.0
215.864746 128.0
216.005127 84.0
216.123734 140.0
216.26413 132.0
216.42363 176.0
216.485123 140.0
217.103439 96.0
217.238358 64.0
217.261826 128.0
217.590515 88.0
217.684479 132.0
218.08696 40.0
218.213364 40.0
218.339798 72.0
218.516281 168.0
219.405701 108.0
219.811432 168.0
219.977798 64.0
220.040421 108.0
220.084274 44.0
220.107895 56.0
220.400314 124.0
220.64267 100.0
220.796417 88.0
220.967987 148.0
221.044907 140.0
221.258011 56.0
221.334991 76.0
221.433533 160.0
221.776398 108.0
221.79715 96.0
221.927582 128.0
221.977997 48.0
222.132584 604.0
222.331009 48.0
222.803101 164.0
222.918991 108.0
222.989731 188.0
223.13298 124.0
223.20137 72.0
223.344116 136.0
223.469055 76.0
223.504761 92.0
223.659515 100.0
223.95636 172.0
224.153885 168.0
224.857666 148.0
224.914368 96.0
225.045731 108.0
225.475876 112.0
225.718002 152.0
225.870529 132.0
225.990189 104.0
226.075607 292.0
226.406265 136.0
226.831726 132.0
227.088699 136.0
227.146561 140.0
227.167572 140.0
227.470642 116.0
227.548691 160.0
227.686813 124.0
228.099548 7144.0
228.218689 32.0
228.435226 96.0
228.456284 80.0
228.675934 80.0
228.697006 48.0
228.757202 28.0
228.820419 40.0
229.100311 952.0
229.155518 56.0
229.251144 80.0
229.655121 68.0
229.718475 172.0
229.980988 96.0
230.113922 1152.0
230.331238 76.0
230.486465 104.0
230.59108 40.0
230.678726 164.0
230.742218 64.0
230.820831 108.0
230.88736 92.0
230.917603 44.0
230.944809 152.0
231.11647 320.0
231.29277 108.0
232.332153 52.0
232.553665 92.0
232.699371 88.0
232.990921 104.0
233.033447 36.0
233.203629 156.0
233.939728 36.0
234.049332 68.0
234.110229 112.0
234.137634 28.0
234.171127 108.0
234.350861 96.0
234.521515 220.0
235.128433 168.0
235.317688 104.0
235.430664 200.0
235.485641 120.0
235.699478 156.0
235.971512 72.0
236.102982 92.0
236.222275 136.0
236.764008 116.0
236.828323 68.0
236.895721 92.0
236.950867 124.0
237.060013 96.0
237.107132 68.0
237.272659 68.0
237.379974 124.0
238.094986 124.0
238.266998 148.0
238.331512 164.0
238.386826 220.0
238.663467 72.0
238.783386 108.0
238.847977 56.0
238.912582 96.0
239.090927 108.0
239.919601 56.0
240.100403 1236.0
240.630295 140.0
240.987015 92.0
241.103241 272.0
241.723328 68.0
242.111526 644.0
242.268234 156.0
242.519226 88.0
242.609116 36.0
242.652512 52.0
242.716339 96.0
243.080551 188.0
243.11116 300.0
243.257446 76.0
243.378525 68.0
243.502747 72.0
244.098114 164.0
244.37001 32.0
244.541153 84.0
244.746613 128.0
245.016266 104.0
245.475754 76.0
245.809525 76.0
245.900024 88.0
245.949966 104.0
245.987411 32.0
246.111343 252.0
246.730896 100.0
246.818451 120.0
246.98732 76.0
247.203186 88.0
247.246994 64.0
247.369064 152.0
248.004929 48.0
248.026871 96.0
248.127182 116.0
248.158524 132.0
248.243195 52.0
248.895859 48.0
249.121994 56.0
249.530533 56.0
249.804123 60.0
249.835587 80.0
250.213226 100.0
250.518707 112.0
250.915787 108.0
251.186981 240.0
251.243759 92.0
251.505676 56.0
251.539062 108.0
252.0923 192.0
252.273453 120.0
252.358612 240.0
252.462952 60.0
252.627426 100.0
252.649567 64.0
252.791946 104.0
253.273163 104.0
253.691437 72.0
254.083481 128.0
254.11377 656.0
254.2211 96.0
254.259186 56.0
254.373444 92.0
254.624283 148.0
254.75769 176.0
254.852997 156.0
255.056381 124.0
255.122086 188.0
255.890869 136.0
256.124786 220.0
256.354889 64.0
256.383545 80.0
256.670441 80.0
256.727844 100.0
257.088318 136.0
257.155334 40.0
257.219177 172.0
257.257477 68.0
257.305359 68.0
257.762115 88.0
257.832397 316.0
257.899536 144.0
258.030579 112.0
258.056152 52.0
258.110535 120.0
258.468781 188.0
258.936127 68.0
258.964966 44.0
258.999084 128.0
259.137939 92.0
259.189209 68.0
259.743835 76.0
260.719879 204.0
260.806641 116.0
260.909515 88.0
260.999542 108.0
261.285767 108.0
261.435822 120.0
261.816864 100.0
261.881287 164.0
262.026245 116.0
262.139008 64.0
262.496826 40.0
262.722595 100.0
262.829041 164.0
263.187317 128.0
263.426331 72.0
263.613708 140.0
263.797943 216.0
263.930481 44.0
264.195679 60.0
264.240967 204.0
264.286285 56.0
264.354218 64.0
264.402771 116.0
264.490143 80.0
264.626099 128.0
264.775604 96.0
264.924072 76.0
264.946747 64.0
265.092773 172.0
265.585327 52.0
265.874054 40.0
266.111664 120.0
266.475922 124.0
267.03064 240.0
267.063171 88.0
267.13147 124.0
267.229065 120.0
267.261597 84.0
267.437317 132.0
267.609863 92.0
267.671722 92.0
267.932281 40.0
268.052826 96.0
268.125061 324.0
268.166901 164.0
268.241852 108.0
268.32663 88.0
268.789124 100.0
269.057404 68.0
269.103119 184.0
269.133362 228.0
269.607239 140.0
269.759766 76.0
269.818604 116.0
270.057312 48.0
270.420471 48.0
270.960754 220.0
271.140991 112.0
271.186188 192.0
271.419617 176.0
271.540955 76.0
271.659027 124.0
271.921539 168.0
271.97403 176.0
272.036407 88.0
272.131622 92.0
272.447266 108.0
273.111908 116.0
273.232605 60.0
273.321442 148.0
273.397125 120.0
273.765839 92.0
274.012848 112.0
274.05899 112.0
274.124878 48.0
274.299561 56.0
274.576508 48.0
274.635742 96.0
274.790924 152.0
274.863525 40.0
275.002106 96.0
275.233185 36.0
275.270599 124.0
275.352081 48.0
275.414825 140.0
275.562439 216.0
275.788208 124.0
276.181641 76.0
276.218048 100.0
276.274261 128.0
276.356995 124.0
276.396698 72.0
277.04892 184.0
277.307373 80.0
277.625641 196.0
277.721802 132.0
277.84787 116.0
277.960663 80.0
278.163116 136.0
278.335754 84.0
278.631348 160.0
279.056763 132.0
279.306183 76.0
279.376038 180.0
279.785339 120.0
279.838623 112.0
279.865265 64.0
279.891876 52.0
280.058411 148.0
280.081726 68.0
280.128357 96.0
280.308258 64.0
280.831665 104.0
281.191986 64.0
281.395447 88.0
281.756287 124.0
282.071808 96.0
282.10968 396.0
282.408112 92.0
282.538574 52.0
282.719269 48.0
283.117004 172.0
283.204712 88.0
283.308533 80.0
283.433319 148.0
283.579956 112.0
284.139954 152.0
284.361176 56.0
284.417023 184.0
284.50238 180.0
285.059937 196.0
285.281738 72.0
285.77948 52.0
285.809753 116.0
285.930908 132.0
286.011688 104.0
286.035248 40.0
286.563965 60.0
286.621246 112.0
286.98526 92.0
287.00885 68.0
287.064758 112.0
287.126892 48.0
287.248322 132.0
287.342773 124.0
287.379883 148.0
287.484497 104.0
288.007782 80.0
288.308472 132.0
288.43689 160.0
288.731049 68.0
288.984741 96.0
289.072723 120.0
289.309631 92.0
289.997253 56.0
290.153168 76.0
290.234558 124.0
290.258301 64.0
290.295593 44.0
290.505859 32.0
290.634796 88.0
290.685699 156.0
290.750153 108.0
290.835022 84.0
290.937256 168.0
291.048889 116.0
291.099823 96.0
291.262848 56.0
291.323975 116.0
291.714752 120.0
291.949371 116.0
292.350769 124.0
292.39502 116.0
292.51416 160.0
292.708221 88.0
292.796753 100.0
293.260101 176.0
293.396454 92.0
293.440765 100.0
293.471436 56.0
293.676056 164.0
293.703339 32.0
294.078644 136.0
294.116699 124.0
294.431427 60.0
294.560089 156.0
294.659149 176.0
294.840271 84.0
294.918854 116.0
295.079529 140.0
295.17868 148.0
295.59259 148.0
296.109497 64.0
296.493195 72.0
296.577362 72.0
296.667999 116.0
296.743439 44.0
296.846283 88.0
296.94574 136.0
297.127533 52.0
297.319702 112.0
297.38147 164.0
297.415802 116.0
297.460419 56.0
297.587433 80.0
297.63208 88.0
297.714478 84.0
297.762573 60.0
298.192017 80.0
298.350128 128.0
298.556427 128.0
298.797211 136.0
298.848816 84.0
298.958923 68.0
299.131012 64.0
299.175751 136.0
299.561432 36.0
299.588989 160.0
299.726807 88.0
300.309418 136.0
300.4888 144.0
300.67511 72.0
300.719971 156.0
300.789001 76.0
301.32428 36.0
301.579987 144.0
301.604187 60.0
301.673309 136.0
301.839264 52.0
302.198975 52.0
302.240509 76.0
302.63855 164.0
303.452759 172.0
303.754456 108.0
303.834229 208.0
303.938324 84.0
304.080597 40.0
304.136139 152.0
304.212494 40.0
304.650055 76.0
304.715576 140.0
305.032288 128.0
305.686127 88.0
306.002869 76.0
306.142151 112.0
306.358093 136.0
306.619415 72.0
306.748383 84.0
306.779755 40.0
306.936646 68.0
307.023834 76.0
307.058716 172.0
307.145905 64.0
307.756622 64.0
309.063812 108.0
309.420807 52.0
309.487335 48.0
309.557373 32.0
309.641418 112.0
310.17749 124.0
310.289673 76.0
310.493042 52.0
310.678925 164.0
311.173767 124.0
311.293152 100.0
311.377441 124.0
311.503876 48.0
311.756836 144.0
312.213837 52.0
312.674713 92.0
312.847168 100.0
313.07251 80.0
313.097168 108.0
313.287354 44.0
313.34726 76.0
313.830109 120.0
314.084015 164.0
314.394501 104.0
314.465057 148.0
314.535675 256.0
314.606262 88.0
315.226257 176.0
315.959778 168.0
316.267639 72.0
316.437531 36.0
316.628754 40.0
316.717285 40.0
316.880249 112.0
316.940491 152.0
317.029083 108.0
317.163757 112.0
317.204926 168.0
317.341003 56.0
318.192474 64.0
318.227966 84.0
318.508514 72.0
318.931366 100.0
319.326019 60.0
319.468292 88.0
319.578583 64.0
319.891754 104.0
319.980743 120.0
320.383179 112.0
320.490051 40.0
320.828644 180.0
321.203064 128.0
321.374298 36.0
321.402832 124.0
321.749023 100.0
322.277618 96.0
322.359802 80.0
322.656464 60.0
322.74942 212.0
323.006897 188.0
323.228729 120.0
323.289551 132.0
323.752106 96.0
324.019989 48.0
324.052216 100.0
324.125854 148.0
324.191986 96.0
324.263641 76.0
324.855255 56.0
324.894714 32.0
325.009521 52.0
325.110016 52.0
325.504883 104.0
325.756287 68.0
325.842499 52.0
325.903564 172.0
326.007782 104.0
326.119202 48.0
326.237823 80.0
326.557831 168.0
326.586609 116.0
327.277527 36.0
327.324341 44.0
327.641296 72.0
328.192719 132.0
328.304504 104.0
328.564209 188.0
328.83844 108.0
329.903992 108.0
329.987152 68.0
330.224487 120.0
330.377716 72.0
330.46817 108.0
330.960419 120.0
331.007477 84.0
331.634216 108.0
332.037262 92.0
332.406677 104.0
332.584503 80.0
332.736969 80.0
333.016571 40.0
333.437988 180.0
333.688812 132.0
333.976105 124.0
335.188385 96.0
335.268188 120.0
336.453979 100.0
336.709564 52.0
336.822784 84.0
336.910461 44.0
336.979889 156.0
337.104095 96.0
337.433838 188.0
337.561035 84.0
338.208588 80.0
338.274475 136.0
338.633301 156.0
339.157227 28.0
339.699921 116.0
340.327484 100.0
340.698425 144.0
341.172485 112.0
341.258148 132.0
341.455597 64.0
341.557617 92.0
341.650543 60.0
341.797729 40.0
341.845551 96.0
342.136322 88.0
342.221008 112.0
342.257812 88.0
342.637177 108.0
342.802979 128.0
343.381775 52.0
343.407562 236.0
344.101318 116.0
344.138245 76.0
344.164062 92.0
344.319183 68.0
344.584381 100.0
344.614685 96.0
345.006439 44.0
345.368805 108.0
345.394714 160.0
345.487183 84.0
345.772095 116.0
346.394104 92.0
346.684204 220.0
347.602753 72.0
347.639862 44.0
348.230133 144.0
348.330414 68.0
348.490173 144.0
348.824615 132.0
348.869232 120.0
349.289429 52.0
349.367554 168.0
349.583344 52.0
350.175262 140.0
350.249756 100.0
350.473297 92.0
350.890717 132.0
351.01004 36.0
351.244995 112.0
351.379272 104.0
351.625549 144.0
351.715118 84.0
351.774567 108.0
351.905518 80.0
352.047394 136.0
352.151978 88.0
352.230408 100.0
352.48819 76.0
352.678802 140.0
352.921783 60.0
353.187286 108.0
353.250885 104.0
354.744995 152.0
354.786224 124.0
355.183716 104.0
355.356293 84.0
355.48761 48.0
355.683777 88.0
355.76535 92.0
356.441376 48.0
356.592682 184.0
356.952606 68.0
357.339996 156.0
357.528137 52.0
357.554504 152.0
357.742676 44.0
357.979889 84.0
358.134308 76.0
358.266144 68.0
358.480896 56.0
358.646729 80.0
359.106689 124.0
359.28775 124.0
359.612274 100.0
359.691528 64.0
359.804779 48.0
360.042664 132.0
360.189972 108.0
360.33728 80.0
360.367523 32.0
360.492218 104.0
360.873962 132.0
361.490509 44.0
362.092438 132.0
362.164398 80.0
362.25531 48.0
362.35379 212.0
362.448517 96.0
362.588715 60.0
362.884399 128.0
363.165009 92.0
363.441925 128.0
363.479889 80.0
363.506439 100.0
363.608887 176.0
363.878418 152.0
364.170807 204.0
364.429108 48.0
364.497498 76.0
365.238831 32.0
365.345337 56.0
365.539398 120.0
366.342712 116.0
367.009674 32.0
367.17746 92.0
367.303314 68.0
367.352905 144.0
367.539856 124.0
367.650513 120.0
367.765015 92.0
367.814636 152.0
367.890961 88.0
368.108582 84.0
369.082977 132.0
369.266541 112.0
369.740936 48.0
370.207977 128.0
370.502899 84.0
371.825745 80.0
371.883331 76.0
372.04071 56.0
372.155884 96.0
372.301788 32.0
372.701294 132.0
373.789429 144.0
373.832245 100.0
374.15271 432.0
374.216675 232.0
374.35144 96.0
374.805969 60.0
375.064178 108.0
375.091156 112.0
375.119904 220.0
375.134644 100.0
375.142517 148.0
375.272369 128.0
375.438171 116.0
376.399017 108.0
377.287628 92.0
377.573761 80.0
377.674316 48.0
377.968353 104.0
378.548981 128.0
379.680542 192.0
379.773621 132.0
380.138275 124.0
380.883698 52.0
382.115997 92.0
382.495026 140.0
382.786163 180.0
383.276245 132.0
383.591949 180.0
383.693298 104.0
383.747864 68.0
384.02475 136.0
384.235382 188.0
385.504364 140.0
386.219788 76.0
386.380188 124.0
386.681488 84.0
386.943726 48.0
386.98288 136.0
387.241333 116.0
387.484192 112.0
387.633087 60.0
387.825134 140.0
387.958405 96.0
388.440735 84.0
388.746735 128.0
388.813477 44.0
389.111786 52.0
389.187531 108.0
389.260986 148.0
389.473053 72.0
389.508392 52.0
389.669464 68.0
389.897369 128.0
389.975983 128.0
390.02594 56.0
390.044464 84.0
390.14801 136.0
390.179382 80.0
390.202423 152.0
390.25116 112.0
390.428101 96.0
390.490326 116.0
390.687683 48.0
390.71524 132.0
390.762451 64.0
391.030029 88.0
391.094971 124.0
391.166534 104.0
391.2229 52.0
391.256958 216.0
391.337067 180.0
391.392181 68.0
391.437073 100.0
391.486694 152.0
391.587219 116.0
391.6521 92.0
391.793915 52.0
391.87381 156.0
391.907288 180.0
391.939667 160.0
392.013428 204.0
392.086792 376.0
392.163635 59520.0
392.277496 132.0
392.340851 92.0
392.403442 132.0
392.464081 152.0
392.50412 60.0
392.580566 192.0
392.617401 56.0
392.625244 48.0
392.654663 196.0
392.715546 172.0
392.756622 136.0
392.80542 100.0
392.837677 128.0
392.897888 96.0
392.930908 108.0
392.959656 52.0
392.987457 92.0
393.02771 124.0
393.083099 184.0
393.166077 13912.0
393.243713 176.0
393.274628 268.0
393.361786 108.0
393.394653 52.0
393.447327 228.0
393.498749 96.0
393.526794 120.0
393.575714 36.0
393.649414 144.0
393.695038 60.0
393.753662 180.0
393.785858 44.0
393.837219 56.0
393.902618 100.0
393.953674 60.0
394.003113 92.0
394.04126 116.0
394.070282 80.0
394.169434 1980.0
394.253876 140.0
394.285919 84.0
394.357178 100.0
394.437805 116.0
394.492828 100.0
394.795044 68.0
394.852966 60.0
394.939972 60.0
394.987427 52.0
395.041504 108.0
395.110077 84.0
395.174957 104.0
395.227234 84.0
395.254822 96.0
395.356934 72.0
395.43689 76.0
395.608704 56.0
395.675995 64.0
395.722717 60.0
395.757233 100.0
395.822479 128.0
395.875946 64.0
395.90564 140.0
395.984863 112.0
396.069 80.0
396.139313 136.0
396.223969 68.0
396.274017 112.0
396.408752 116.0
396.484039 72.0
396.515747 40.0
396.753571 112.0
396.813019 76.0
396.86853 128.0
396.943878 168.0
397.165955 84.0
397.221497 40.0
397.400024 84.0
397.725433 36.0
397.800842 80.0
397.856415 60.0
398.067108 124.0
398.126404 128.0
398.213776 160.0
398.75412 148.0
398.881287 64.0
399.09201 76.0
399.139709 92.0
399.186829 156.0
399.334564 64.0
399.553345 120.0
399.668732 48.0
399.776154 44.0
400.130402 80.0
400.516663 48.0
400.795532 60.0
401.437317 132.0
401.583405 176.0
401.947876 68.0
403.229767 120.0
403.525574 108.0
403.953461 36.0
404.113495 140.0
404.569733 52.0
404.890045 84.0
405.09433 104.0
405.378784 104.0
405.458923 72.0
405.563141 96.0
405.607208 40.0
405.9039 60.0
406.100403 80.0
406.256836 64.0
406.292938 92.0
406.321014 56.0
406.437378 80.0
406.481506 72.0
406.698212 44.0
406.814636 132.0
406.963165 64.0
407.188049 144.0
407.216156 44.0
407.368774 88.0
407.421021 68.0
407.469208 48.0
407.774597 84.0
407.806763 184.0
408.139923 128.0
408.183533 100.0
408.285187 112.0
408.313324 64.0
408.465057 72.0
408.514435 64.0
408.590881 420.0
408.693054 152.0
408.723663 76.0
408.977173 72.0
409.02951 124.0
409.108429 152.0
409.158325 104.0
409.226776 104.0
409.323395 44.0
409.484497 92.0
409.600128 152.0
409.624237 92.0
409.673798 116.0
409.787933 108.0
409.871429 212.0
409.931366 224.0
409.982208 96.0
409.990082 120.0
410.044342 116.0
410.174072 44828.0
410.287231 152.0
410.320984 164.0
410.366882 108.0
410.415344 124.0
410.443237 92.0
410.449524 84.0
410.493134 112.0
410.542114 92.0
410.557434 52.0
410.569794 172.0
410.604889 416.0
410.6521 60.0
410.719269 56.0
410.777008 112.0
410.835388 140.0
410.93399 176.0
410.971954 32.0
411.022675 92.0
411.080719 264.0
411.087524 100.0
411.102173 176.0
411.175934 9424.0
411.299347 60.0
411.39035 68.0
411.428802 200.0
411.474457 48.0
411.547852 76.0
411.668518 128.0
411.706604 32.0
411.77124 64.0
411.843933 148.0
411.88028 96.0
411.969147 120.0
412.012634 136.0
412.058014 108.0
412.099792 60.0
412.180634 1304.0
412.247925 120.0
412.494476 36.0
412.526825 36.0
412.62384 48.0
412.769379 60.0
412.817902 92.0
412.84848 60.0
412.906891 80.0
412.997955 132.0
413.040344 92.0
413.145538 132.0
413.189331 200.0
413.230499 132.0
413.323547 64.0
413.448975 40.0
413.477325 164.0
413.570404 112.0
413.663666 152.0
413.756378 72.0
413.809235 112.0
413.931671 152.0
413.985809 92.0
414.060303 108.0
414.133209 44.0
414.197998 72.0
414.369873 132.0
414.509949 64.0
414.554535 60.0
414.603149 60.0
414.63559 108.0
414.716644 52.0
414.79364 60.0
414.834198 100.0
414.894989 68.0
415.257324 56.0
415.499268 88.0
415.59256 108.0
415.690125 88.0
415.823883 52.0
416.018707 40.0
416.274475 88.0
416.408508 36.0
416.871613 72.0
417.477325 32.0
417.607452 52.0
417.880005 52.0
417.930328 68.0
418.364319 80.0
419.916748 68.0
420.549133 60.0
420.577698 36.0
420.973724 44.0
422.17514 80.0
422.514618 64.0
423.603546 72.0
423.771515 112.0
423.89444 56.0
423.968201 60.0
424.726685 132.0
425.247742 84.0
425.522766 48.0
425.617218 88.0
425.658264 96.0
426.184021 40.0
427.487488 48.0
427.540985 56.0
427.993805 92.0
428.586914 96.0
429.988983 132.0
430.864349 32.0
431.831604 72.0
432.054962 52.0
434.291809 52.0
435.578552 112.0
436.617615 88.0
436.829712 92.0
437.632935 120.0
438.057709 32.0
438.19101 76.0
438.236847 132.0
440.848938 100.0
440.899078 28.0
440.936676 48.0
441.735291 112.0
443.137726 88.0
444.248688 92.0
444.638885 28.0
446.449524 56.0
446.714508 60.0
447.316254 100.0
449.617523 128.0
451.797791 64.0
452.517242 76.0
452.737427 68.0
458.873138 60.0
459.111938 96.0
460.054871 80.0
460.644165 32.0
461.020142 36.0
461.161194 68.0
461.862396 36.0
461.943665 52.0
462.076294 68.0
462.482819 60.0
463.587738 52.0
464.762634 44.0
470.434967 68.0
472.206512 36.0
472.595856 40.0
472.989655 140.0
473.899078 124.0
474.566528 44.0
476.636932 88.0
477.42807 72.0
480.320007 88.0
480.389801 36.0
481.773621 64.0
483.815887 68.0
485.950195 56.0
486.011627 60.0
486.920288 120.0
486.999359 44.0
487.227753 56.0
488.378693 68.0
489.47525 56.0
490.691315 44.0
490.744232 96.0
491.802948 76.0
492.588898 60.0
492.823059 40.0
493.357819 92.0
493.627502 76.0
493.662903 100.0
494.295441 68.0
494.437073 56.0
494.671631 80.0
495.371277 64.0
497.082642 68.0
498.756927 72.0
498.836945 88.0
499.953308 56.0
503.135773 64.0
505.401733 64.0
506.574677 84.0
507.278229 144.0
507.614471 92.0
508.103363 80.0
511.257629 56.0
511.289124 92.0
511.631195 48.0
512.324707 120.0
514.06958 116.0
514.119202 92.0
514.430664 32.0
514.471313 120.0
514.520935 88.0
514.552551 96.0
516.834961 84.0
519.780212 108.0
520.138733 104.0
521.037842 32.0
525.873718 84.0
528.771362 144.0
529.306946 104.0
532.622681 96.0
533.633667 136.0
534.889587 28.0
538.019592 64.0
539.044922 68.0
539.618103 88.0
542.483704 60.0
543.736023 44.0
544.130615 56.0
549.529358 88.0
549.702026 56.0
550.948608 80.0
553.783264 48.0
554.050232 52.0
554.842224 116.0
556.258972 52.0
556.845886 44.0
557.160583 104.0
558.288635 64.0
560.3927 68.0
561.429688 40.0
565.601501 48.0
567.302063 68.0
568.592163 32.0
572.233276 68.0
572.304688 56.0
572.528503 56.0
572.804749 76.0
574.115417 60.0
576.602661 40.0
578.468079 60.0
578.764893 72.0
579.727661 68.0
580.470703 68.0
582.203003 68.0
583.630188 36.0
584.828064 160.0
584.895447 56.0
585.405762 112.0
586.822388 216.0
587.246704 44.0
587.314209 52.0
588.56897 36.0
591.537415 104.0
592.510742 56.0
594.925842 60.0
595.440491 96.0
599.702515 36.0
600.497192 76.0
602.630432 80.0
603.021362 76.0
604.571655 148.0
604.664612 36.0
608.26709 128.0
609.042908 72.0
609.588257 220.0
609.62262 100.0
610.625488 56.0
613.471497 76.0
613.703186 60.0
614.08783 88.0
615.045044 168.0
615.736267 220.0
617.258301 128.0
618.356506 168.0
621.860535 188.0
624.210327 52.0
625.135559 140.0
625.215149 128.0
625.658142 76.0
627.346924 132.0
628.144775 188.0
628.963135 68.0
629.82428 60.0
629.886841 112.0
631.661377 128.0
634.445618 132.0
634.565918 28.0
634.881836 40.0
636.527771 68.0
638.130554 92.0
640.722473 148.0
641.115479 84.0
641.443054 28.0
642.441528 236.0
644.203308 48.0
644.789429 64.0
647.51123 104.0
652.001038 188.0
653.048401 160.0
653.287415 136.0
654.549622 120.0
655.894592 184.0
656.180054 36.0
657.256226 96.0
658.292419 176.0
658.695923 72.0
659.319275 76.0
659.365234 32.0
659.861084 176.0
662.547913 48.0
663.055176 140.0
663.844604 92.0
664.357544 96.0
665.106689 96.0
665.342834 48.0
666.16449 116.0
666.221008 68.0
667.115173 84.0
667.176819 140.0
667.464783 180.0
667.727051 116.0
668.575867 44.0
669.487061 100.0
671.419617 112.0
672.554626 52.0
673.138 200.0
675.7948 56.0
678.560486 72.0
678.633057 88.0
678.949402 176.0
679.032349 192.0
680.111572 128.0
681.035767 164.0
681.612427 176.0
682.392029 92.0
684.0672 64.0
684.811768 216.0
685.301453 108.0
688.316223 136.0
690.45874 96.0
690.66272 80.0
691.301025 104.0
693.322388 172.0
694.874451 32.0
697.006165 160.0
697.079712 164.0
698.60968 160.0
699.767517 216.0
700.167664 112.0
701.395264 84.0
703.251892 48.0
703.325806 140.0
703.452454 48.0
703.642517 172.0
703.837891 96.0
704.778076 88.0
704.941895 40.0
706.935486 220.0
707.893616 64.0
709.117371 56.0
709.536133 116.0
710.092896 136.0
710.607422 108.0
710.862122 76.0
711.307922 116.0
711.817566 184.0
713.76239 132.0
713.948486 148.0
714.820923 184.0
715.028442 76.0
716.641907 112.0
716.876404 44.0
717.23877 144.0
720.467163 200.0
720.632812 144.0
722.455872 68.0
723.044434 192.0
723.087219 52.0
723.135376 212.0
723.622498 164.0
724.500793 76.0
724.66687 164.0
724.731201 216.0
726.731079 188.0
729.179749 52.0
729.357117 72.0
730.706848 204.0
732.025574 80.0
732.240967 100.0
732.644958 120.0
733.307739 188.0
735.824158 128.0
736.237183 160.0
736.404602 56.0
736.939392 36.0
737.479797 76.0
737.998779 176.0
740.119751 120.0
740.233459 84.0
741.094666 140.0
743.475159 100.0
744.24054 244.0
744.338257 92.0
744.479431 52.0
744.560913 76.0
744.620667 180.0
748.862854 144.0
749.369446 96.0
751.275085 88.0
751.3703 76.0
751.97052 168.0
752.45636 68.0
754.439453 40.0
754.630798 192.0
754.844055 124.0
758.347717 48.0
758.418945 108.0
759.23584 36.0
759.318115 52.0
759.47168 108.0
759.965393 52.0
760.733765 44.0
761.299255 140.0
761.573853 184.0
762.216614 56.0
762.491394 136.0
763.156494 72.0
763.645935 96.0
763.948486 148.0
764.075012 112.0
764.696777 56.0
765.203186 44.0
767.180969 72.0
767.787476 84.0
768.703247 180.0
768.763916 144.0
769.475952 116.0
773.350952 64.0
773.766113 200.0
773.882385 44.0
774.031921 72.0
774.895935 136.0
776.059814 48.0
777.207947 220.0
777.685242 60.0
777.740723 128.0
778.817871 136.0
780.001404 236.0
781.052307 168.0
781.32489 52.0
782.877808 160.0
783.306641 188.0
784.63855 152.0
785.173828 184.0
785.341125 160.0
789.99408 152.0
790.695129 188.0
791.051697 48.0
791.22522 36.0
792.457336 140.0
792.782349 180.0
793.016052 80.0
793.454956 72.0
794.862732 136.0
795.345398 108.0
796.137024 128.0
796.872864 148.0
797.266174 104.0
798.171204 128.0
798.750488 160.0
798.815857 116.0
798.924866 192.0
800.24176 48.0
801.452698 172.0
801.497803 40.0
802.326294 68.0
803.425964 224.0
803.702454 208.0
803.871704 204.0
804.76355 136.0
805.074097 144.0
806.203918 120.0
806.345215 160.0
806.70697 48.0
806.876587 108.0
808.454651 136.0
809.841675 208.0
810.153259 156.0
810.266541 128.0
810.827515 108.0
812.426453 124.0
812.778259 128.0
814.085083 176.0
814.248474 156.0
814.577942 156.0
815.060852 92.0
815.430176 176.0
821.055054 44.0
822.869568 48.0
823.749023 108.0
824.886169 220.0
824.9776 132.0
826.390198 232.0
828.159058 88.0
828.302246 176.0
828.98407 168.0
829.769287 208.0
830.956482 116.0
831.513062 156.0
831.593445 128.0
832.000977 136.0
834.333374 164.0
834.931396 88.0
835.198425 224.0
835.293701 96.0
836.030151 84.0
836.191284 228.0
837.026001 220.0
837.918762 116.0
838.100586 36.0
838.812012 224.0
839.180969 128.0
839.451965 92.0
840.034485 136.0
840.957642 112.0
841.416687 100.0
841.771667 64.0
841.887146 112.0
842.07196 120.0
842.528259 132.0
844.435791 204.0
844.696045 140.0
845.911255 68.0
846.0849 172.0
846.252808 156.0
846.294922 72.0
846.86084 152.0
847.776184 136.0
848.89502 160.0
849.71283 180.0
849.765015 176.0
850.583313 124.0
850.827087 56.0
851.15802 80.0
851.732971 52.0
853.43573 68.0
853.906738 216.0
854.488464 116.0
854.628052 164.0
855.157227 168.0
855.407898 168.0
855.850342 116.0
856.077454 132.0
856.158997 148.0
856.857971 52.0
857.00946 224.0
857.662109 108.0
857.7146 156.0
857.936096 120.0
859.102417 52.0
860.094421 156.0
860.652039 180.0
861.098633 120.0
861.215454 180.0
861.548401 32.0
861.898987 144.0
862.13269 48.0
862.47168 196.0
862.571045 120.0
863.611816 84.0
863.822388 140.0
864.852234 172.0
865.221008 120.0
865.753845 160.0
866.52301 164.0
866.720337 112.0
867.751953 120.0
868.109619 180.0
868.748901 72.0
868.895569 168.0
869.863831 60.0
870.198486 80.0
870.732788 188.0
870.955994 48.0
871.637451 120.0
872.242798 96.0
872.613159 188.0
873.348206 164.0
874.01886 152.0
875.290283 148.0
875.466919 200.0
875.873291 168.0
876.179626 108.0
877.098938 128.0
877.387756 96.0
878.030457 140.0
879.139526 184.0
881.749817 80.0
881.99707 192.0
882.252258 180.0
882.985413 160.0
883.730774 132.0
883.890503 112.0
884.103577 128.0
884.932251 136.0
885.151306 124.0
885.450989 92.0
885.473267 144.0
886.294495 172.0
887.604431 152.0
887.645935 68.0
887.729004 72.0
888.39917 164.0
889.028137 160.0
889.384216 164.0
890.138184 40.0
890.464783 104.0
890.743958 148.0
890.791504 108.0
891.106323 172.0
891.605469 152.0
891.789734 76.0
892.086914 156.0
892.723083 200.0
892.919312 88.0
893.115601 144.0
893.478455 144.0
893.704529 220.0
894.174622 60.0
894.787781 44.0
894.859192 188.0
896.211182 96.0
896.846802 116.0
897.212463 220.0
897.367493 236.0
898.381287 112.0
898.834717 164.0
899.025696 72.0
899.266479 172.0
899.562866 128.0
899.610596 192.0
900.29126 128.0
901.103638 96.0
901.288818 44.0
901.354553 228.0
901.844604 84.0
902.221191 120.0
902.51416 148.0
902.765259 156.0
903.363403 288.0
904.213013 176.0
905.344482 184.0
906.20105 128.0
906.38678 144.0
906.746338 68.0
906.866211 124.0
908.1073 136.0
908.515198 216.0
908.617188 108.0
908.953186 160.0
909.055176 236.0
909.87146 176.0
910.562012 164.0
911.240784 36.0
911.32489 144.0
911.949829 136.0
912.184265 96.0
912.394653 72.0
912.575012 136.0
912.647156 124.0
912.701294 132.0
913.128235 308.0
913.332764 144.0
913.958374 128.0
914.325439 68.0
914.445862 76.0
914.996338 224.0
915.240479 180.0
917.843445 108.0
918.054504 328.0
919.354187 216.0
919.804138 140.0
920.057678 196.0
920.23877 252.0
920.927185 140.0
921.108398 100.0
921.549438 152.0
921.615906 160.0
921.760925 64.0
922.226257 68.0
922.746094 204.0
922.842834 112.0
923.858887 204.0
924.536499 108.0
924.693848 288.0
924.796753 116.0
925.208374 172.0
925.311279 80.0
925.844116 176.0
925.898621 48.0
925.947083 148.0
926.461975 204.0
926.510437 84.0
926.680054 188.0
927.049683 76.0
927.189026 124.0
927.473877 188.0
927.704224 168.0
927.855774 180.0
928.074036 124.0
928.243835 164.0
928.431824 128.0
928.820007 192.0
929.098999 40.0
929.41449 208.0
929.463074 136.0
929.802856 128.0
930.403809 200.0
930.610229 60.0
931.168884 116.0
931.369324 120.0
931.758057 116.0
932.516968 72.0
932.562683 108.0
932.766846 152.0
933.739685 188.0
934.226257 248.0
934.339722 172.0
934.548706 76.0
934.719055 124.0
934.773865 200.0
934.859009 140.0
935.212036 152.0
935.406799 68.0
935.510254 116.0
935.571167 152.0
936.356628 148.0
936.752563 108.0
937.032776 96.0
937.112 76.0
937.179016 196.0
937.386169 148.0
938.215088 152.0
939.020874 132.0
939.257812 180.0
940.118042 64.0
940.307251 196.0
940.569702 144.0
941.534363 92.0
942.053528 152.0
942.126831 144.0
942.426208 68.0
943.031189 76.0
943.073975 88.0
943.691406 80.0
943.746399 108.0
943.86261 176.0
944.211121 124.0
944.584229 156.0
944.865662 92.0
945.244995 220.0
945.514221 84.0
945.581543 192.0
945.685608 188.0
945.759033 140.0
945.844727 80.0
946.475281 136.0
946.940735 48.0
947.534912 144.0
947.786072 44.0
947.828979 144.0
947.976074 148.0
948.129272 96.0
948.742188 128.0
948.852539 132.0
949.741699 180.0
950.496277 112.0
950.672119 160.0
951.312561 164.0
951.35553 116.0
951.687073 88.0
951.760742 196.0
951.985413 156.0
952.215149 172.0
952.411682 168.0
952.528381 88.0
952.65741 168.0
952.780273 188.0
953.179626 224.0
953.333252 192.0
953.628235 124.0
953.849487 104.0
954.310547 116.0
954.45813 56.0
954.538086 192.0
954.611877 144.0
954.661072 80.0
954.931641 128.0
955.153076 140.0
955.202271 40.0
955.602173 204.0
955.897522 180.0
956.746887 104.0
956.894592 120.0
956.950012 220.0
957.47345 152.0
958.206421 168.0
958.673523 164.0
958.865784 40.0
959.229431 152.0
959.328064 136.0
959.38623 100.0
959.488342 148.0
959.617798 208.0
960.111084 160.0
960.234436 120.0
960.296082 136.0
960.40094 220.0
960.48114 128.0
960.549011 124.0
960.993164 168.0
961.104248 96.0
961.202942 128.0
961.33252 172.0
961.406616 44.0
961.653442 44.0
961.943542 188.0
962.073181 56.0
962.116394 128.0
962.274536 320.0
962.727661 124.0
962.836426 164.0
963.25885 88.0
963.81311 144.0
963.963135 152.0
964.219482 124.0
964.630615 56.0
964.766602 76.0
964.834656 124.0
964.983032 44.0
965.193237 108.0
965.465332 36.0
965.545715 84.0
965.613708 228.0
965.961487 216.0
966.145691 152.0
966.213745 204.0
966.331299 160.0
966.504517 120.0
966.578796 128.0
966.727295 76.0
966.968628 176.0
967.179077 232.0
967.767212 180.0
967.816711 120.0
967.890991 68.0
968.132507 124.0
968.262573 152.0
968.374023 180.0
968.485535 156.0
968.906738 100.0
969.055481 160.0
969.185547 144.0
969.377625 172.0
969.631714 124.0
969.681335 108.0
969.755676 100.0
969.80481 112.0
969.972595 204.0
970.288757 120.0
970.418945 144.0
970.586365 156.0
971.237549 152.0
971.280945 128.0
971.510498 180.0
971.603516 108.0
971.7276 100.0
971.777222 164.0
971.935364 316.0
972.230225 64.0
972.335693 44.0
972.627441 204.0
972.782593 128.0
972.993652 100.0
973.105408 148.0
973.316528 144.0
973.564941 56.0
973.956177 140.0
974.018311 164.0
974.794922 184.0
975.242371 96.0
976.007019 156.0
976.056763 32.0
976.224609 124.0
976.311707 132.0
976.352478 116.0
976.412598 136.0
976.48584 368.0
977.692749 156.0
977.786865 136.0
977.860779 124.0
978.022583 112.0
978.352539 152.0
978.526855 164.0
978.665222 52.0
978.763428 188.0
978.856812 52.0
978.950256 152.0
979.074768 68.0
979.323914 172.0
979.392395 84.0
979.442261 156.0
979.703857 180.0
979.928162 132.0
980.059021 180.0
980.432861 156.0
980.609985 144.0
980.843689 136.0
981.205811 132.0
981.293091 268.0
981.405273 160.0
981.4552 124.0
981.698364 168.0
981.954041 208.0
982.022644 148.0
982.085022 188.0
982.166138 88.0
982.297119 176.0
982.434326 164.0
982.740051 128.0
982.802429 36.0
982.958435 148.0
983.064514 136.0
983.286865 116.0
983.488892 212.0
983.607483 156.0
983.744812 128.0
983.950806 148.0
983.994507 148.0
984.191772 176.0
984.250488 108.0
984.297913 116.0
984.394104 216.0
984.469055 116.0
984.875 160.0
984.918762 68.0
985.058594 376.0
985.424744 96.0
985.71991 236.0
985.78717 80.0
986.030884 164.0
986.074646 148.0
986.207642 128.0
986.393372 104.0
986.63092 92.0
986.712219 200.0
987.209351 180.0
988.313293 240.0
988.845215 148.0
989.258362 152.0
989.577637 124.0
989.688538 128.0
989.790527 172.0
990.178772 168.0
990.6297 64.0
991.024536 204.0
991.118408 136.0
991.337708 132.0
991.588379 72.0
991.878601 144.0
991.923218 76.0
992.064758 148.0
992.337219 268.0
992.610229 48.0
992.923767 148.0
993.237366 168.0
993.375366 128.0
993.435913 140.0
993.695312 132.0
993.90863 196.0
995.603516 116.0
995.854736 96.0
996.187622 208.0
996.379211 112.0
996.658813 104.0
996.734192 120.0
996.801453 176.0
996.88501 56.0
997.042114 120.0
997.1427 84.0
997.243225 220.0
997.375244 212.0
997.425537 44.0
997.469482 164.0
997.625427 204.0
997.695801 152.0
997.953552 108.0
998.047119 136.0
998.683044 112.0
998.727051 164.0
998.833984 224.0
998.883057 196.0
998.947205 196.0
999.357788 224.0
999.494568 52.0
999.960266 128.0
1000.224609 384.0
1000.400879 148.0
1000.444946 168.0
1000.734497 72.0
1000.828979 180.0
1000.913757 188.0
1001.137512 140.0
1001.213074 128.0
1001.263489 108.0
1001.326416 168.0
1001.700256 228.0
1001.994141 152.0
1002.109253 220.0
1002.170532 140.0
1002.315491 136.0
1002.400818 192.0
1002.496704 120.0
1002.554932 124.0
1002.807007 372.0
1003.178894 84.0
1003.55719 92.0
1003.917236 376.0
1003.973328 172.0
1004.15625 388.0
1004.440063 88.0
1004.585144 148.0
1005.058289 156.0
1005.121399 168.0
1005.468506 104.0
1005.550537 200.0
1005.657837 144.0
1005.935547 184.0
1006.172974 156.0
1006.472168 120.0
1006.579529 84.0
1006.630005 148.0
1006.939453 60.0
1007.280518 172.0
1007.457397 144.0
1007.637451 72.0
1007.849121 120.0
1008.41156 112.0
1008.536072 148.0
1008.607483 160.0
1008.99939 68.0
1009.049988 68.0
1009.138489 132.0
1009.358765 176.0
1009.473633 124.0
1009.574768 200.0
1009.777161 196.0
1009.916321 180.0
1009.992188 104.0
1010.308472 120.0
1010.352783 148.0
1010.485657 228.0
1010.712708 108.0
1010.950317 136.0
1011.004517 108.0
1011.108948 104.0
1011.384216 164.0
1011.491821 104.0
1011.656433 196.0
1011.776672 140.0
1011.909668 136.0
1011.966614 184.0
1012.131226 84.0
1012.24231 272.0
1012.536499 116.0
1012.618835 88.0
1012.884888 140.0
1013.130371 144.0
1013.347351 52.0
1013.47406 148.0
1013.588074 88.0
1013.79718 160.0
1013.887451 148.0
1013.993652 168.0
1014.215515 128.0
1014.266174 120.0
1014.494385 176.0
1014.773376 60.0
1014.988953 128.0
1015.077698 144.0
1015.236206 148.0
1015.501282 172.0
1015.56604 296.0
1015.611389 132.0
1015.893066 164.0
1015.971985 288.0
1016.016418 88.0
1016.079834 216.0
1016.174988 124.0
1016.282837 44.0
1016.327271 96.0
1016.378052 148.0
1016.612793 140.0
1016.714355 220.0
1017.095886 144.0
1017.15332 144.0
1017.612549 168.0
1017.866821 156.0
1017.920471 148.0
1018.079224 36.0
1018.212585 176.0
1018.286255 236.0
1018.500061 168.0
1018.663574 52.0
1018.746155 164.0
1018.879517 128.0
1019.082825 168.0
1019.207153 176.0
1019.81366 104.0
1020.309448 140.0
1020.454651 124.0
1020.665527 76.0
1020.926208 72.0
1021.1297 108.0
1021.21875 56.0
1021.268921 204.0
1021.579041 100.0
1021.664001 184.0
1021.761902 156.0
1021.816711 132.0
1021.934143 176.0
1022.141174 148.0
1022.344849 176.0
1022.637573 212.0
1022.729736 220.0
1022.796692 172.0
1022.841248 120.0
1022.930359 212.0
1023.145569 100.0
1023.382385 132.0
1023.541565 84.0
1023.976501 160.0
1024.178345 76.0
1024.242065 212.0
1024.439575 160.0
1024.496948 84.0
1024.564453 152.0
1024.624268 160.0
1024.707153 136.0
1024.834595 144.0
1024.911011 196.0
1024.955566 164.0
1025.197754 188.0
1025.605591 64.0
1025.730469 156.0
1025.822388 136.0
1025.949829 100.0
1026.131714 148.0
1026.28772 220.0
1026.35791 92.0
1026.421631 200.0
1026.494019 136.0
1026.587402 176.0
1026.644897 96.0
1026.806763 156.0
1026.868042 168.0
1026.925415 84.0
1027.013306 128.0
1027.148682 152.0
1027.454956 104.0
1027.557007 128.0
1027.616455 168.0
1027.735596 240.0
1027.850464 152.0
1028.144043 176.0
1028.354614 92.0
1028.603516 120.0
1028.661011 168.0
1028.795044 136.0
1028.922729 92.0
1028.967407 224.0
1029.03125 196.0
1029.10791 96.0
1029.388794 184.0
1029.70813 100.0
1029.848633 68.0
1030.033936 96.0
1030.105835 164.0
1030.423584 68.0
1030.576904 64.0
1030.775024 176.0
1030.845215 152.0
1030.896362 68.0
1030.960327 156.0
1031.005005 48.0
1031.254272 224.0
1031.42688 160.0
1031.516357 120.0
1031.95105 76.0
1031.99585 136.0
1032.206787 172.0
1032.398682 60.0
1032.532959 148.0
1032.584106 232.0
1032.852783 152.0
1032.993408 72.0
1033.07019 200.0
1033.582031 184.0
1034.196411 136.0
1034.264038 128.0
1034.42041 108.0
1034.689331 76.0
1035.092651 64.0
1035.137451 136.0
1035.333984 156.0
1035.483276 88.0
1035.564941 152.0
1035.589233 112.0
1035.733154 164.0
1035.877808 148.0
1036.040527 100.0
1036.303223 40.0
1036.399292 236.0
1036.489014 200.0
1036.55957 200.0
1036.674927 204.0
1036.732544 176.0
1036.835083 200.0
1037.39917 76.0
1037.786987 204.0
1037.924805 144.0
1038.040283 40.0
1038.290405 188.0
1038.380127 84.0
1038.444336 72.0
1038.553345 48.0
1038.745728 116.0
1038.841919 136.0
1039.386841 104.0
1039.644043 108.0
1039.753784 120.0
1040.003418 184.0
1040.384155 176.0
1040.467651 188.0
1040.715942 188.0
1040.855957 168.0
1041.360962 92.0
1041.409546 116.0
1041.486572 152.0
1041.640747 196.0
1041.704956 200.0
1041.756348 76.0
1041.805054 172.0
1041.904175 116.0
1042.184937 168.0
1042.244629 104.0
1042.402954 168.0
1042.482422 68.0
1042.61731 144.0
1042.668213 144.0
1042.848755 92.0
1043.105835 156.0
1043.324341 200.0
1043.369385 100.0
1043.446533 36.0
1043.87085 84.0
1044.063843 64.0
1044.276001 84.0
1044.434814 232.0
1044.507568 164.0
1044.616943 96.0
1044.986694 76.0
1045.071045 192.0
1045.29248 100.0
1045.337524 76.0
1045.401855 192.0
1045.456665 164.0
1045.543457 64.0
1045.74292 104.0
1046.032593 180.0
1046.090576 144.0
1046.144653 192.0
1046.336182 220.0
1046.44458 96.0
1046.811646 148.0
1047.326782 72.0
1047.452393 116.0
1047.558716 176.0
1047.64856 132.0
1047.745605 108.0
1047.861572 188.0
1048.029053 52.0
1048.093506 56.0
1048.157837 108.0
1048.26062 144.0
1048.557739 164.0
1048.705688 184.0
1048.765991 340.0
1048.821655 132.0
1048.90686 244.0
1049.182617 140.0
1049.308838 188.0
1049.408325 136.0
1049.698486 92.0
1049.846802 160.0
1049.900635 132.0
1050.091797 180.0
1050.156372 144.0
1050.201538 220.0
1050.38855 96.0
1050.575684 156.0
1050.749756 136.0
1050.991577 148.0
1051.059448 120.0
1051.337036 144.0
1051.440186 120.0
1051.54541 124.0
1051.614502 64.0
1051.762939 92.0
1051.840454 128.0
1051.88562 212.0
1052.001831 136.0
1052.092163 156.0
1052.201904 264.0
1052.333862 164.0
1052.427612 108.0
1052.531128 168.0
1052.634521 56.0
1052.808838 132.0
1053.018799 140.0
1053.118896 228.0
1053.215698 168.0
1053.280273 176.0
1053.551636 100.0
1053.762695 192.0
1054.391602 144.0
1054.476074 124.0
1054.559692 132.0
1054.656128 176.0
1054.785889 160.0
1055.070312 100.0
1055.12207 136.0
1055.186646 116.0
1055.264282 156.0
1055.387085 192.0
1055.458252 116.0
1055.638306 216.0
1055.69104 40.0
1056.00415 224.0
1056.169556 176.0
1056.374878 228.0
1056.505981 164.0
1056.610107 136.0
1056.654785 324.0
1056.764771 260.0
1056.991211 180.0
1057.172363 180.0
1057.24353 152.0
1057.495605 180.0
1057.603638 212.0
1057.651367 88.0
1057.767822 76.0
1057.910278 120.0
1058.039673 52.0
1058.272827 88.0
1058.350464 160.0
1058.48645 132.0
1058.538208 168.0
1058.687256 124.0
1058.797241 104.0
1058.842651 132.0
1058.929932 128.0
1058.986816 156.0
1059.257202 72.0
1059.30896 36.0
1059.632935 84.0
1059.717163 68.0
1060.173096 184.0
1060.319702 180.0
1060.384521 48.0
1060.960449 156.0
1061.058716 256.0
1061.227295 104.0
1061.440063 172.0
1061.735107 216.0
1062.044312 136.0
1062.115723 160.0
1062.180542 104.0
1062.425415 348.0
1062.608765 192.0
1062.702759 120.0
1062.793945 172.0
1063.328979 116.0
1063.439331 224.0
1063.56543 120.0
1063.744385 192.0
1063.802612 184.0
1063.900146 60.0
1064.172852 228.0
1064.374146 160.0
1064.490112 204.0
1064.512695 176.0
1064.62085 132.0
1064.718262 140.0
1064.796265 132.0
1064.931763 192.0
1065.020508 156.0
1065.166504 120.0
1065.257446 40.0
1065.367798 188.0
1065.562744 84.0
1065.946045 296.0
1066.024048 148.0
1066.088989 160.0
1066.167358 132.0
1066.238525 120.0
1066.316528 144.0
1066.849487 104.0
1067.304565 92.0
1067.532227 168.0
1067.629761 172.0
1067.811768 132.0
1067.961426 196.0
1068.101196 116.0
1068.163086 156.0
1068.397217 272.0
1068.553345 92.0
1068.598877 136.0
1068.82666 72.0
1068.898193 44.0
1069.001953 144.0
1069.151978 108.0
1069.262573 64.0
1069.34729 124.0
1069.457886 152.0
1069.546265 180.0
1069.620605 112.0
1069.737793 160.0
1069.972168 100.0
1070.273804 216.0
1070.460449 48.0
1070.548462 144.0
1070.597168 100.0
1070.714478 164.0
1070.922852 168.0
1071.004761 104.0
1071.079102 64.0
1071.19873 224.0
1071.352783 172.0
1071.567749 84.0
1071.652466 124.0
1071.70459 128.0
1071.834839 96.0
1072.095581 68.0
1072.334717 176.0
1072.519165 152.0
1072.662598 60.0
1072.779907 100.0
1072.884155 140.0
1073.053711 152.0
1073.204468 120.0
1073.340576 80.0
1073.464478 120.0
1073.60144 72.0
1073.809204 216.0
1073.960083 172.0
1074.018799 120.0
1074.084106 144.0
1074.188477 52.0
1074.364502 168.0
1074.650024 176.0
1074.845947 128.0
1074.919067 92.0
1074.997437 72.0
1075.095337 64.0
1075.154053 212.0
1075.251953 128.0
1075.454224 184.0
1075.513062 104.0
1075.689209 40.0
1075.800171 164.0
1075.943848 108.0
1076.009155 136.0
1076.172363 152.0
1076.466187 108.0
1076.59021 72.0
1076.701294 224.0
1077.340576 220.0
1077.456543 224.0
1077.622314 124.0
1077.687622 120.0
1077.785645 112.0
1077.890137 128.0
1078.30188 140.0
1078.419556 136.0
1078.543701 292.0
1078.75293 208.0
1078.864014 168.0
1078.955566 160.0
1079.047119 116.0
1079.173828 108.0
1079.376587 120.0
1079.498169 116.0
1079.559448 212.0
1079.64209 164.0
1079.730103 240.0
1079.832886 284.0
1079.902954 152.0
1079.956055 164.0
1080.181396 152.0
1080.358643 264.0
1080.525146 148.0
1080.610229 76.0
1080.662476 164.0
1080.741089 284.0
1080.793335 144.0
1080.952637 136.0
1081.002808 36.0
1081.081299 164.0
1081.172852 148.0
1081.233032 104.0
1081.295654 204.0
1081.506714 76.0
1081.578735 184.0
1081.631104 44.0
1081.67688 64.0
1081.781616 240.0
1081.906006 56.0
1082.154785 88.0
1082.220215 196.0
1082.324951 140.0
1082.69165 224.0
1082.743408 144.0
1082.901245 92.0
1083.102417 156.0
1083.327026 164.0
1083.418701 152.0
1083.562866 244.0
1083.780884 184.0
1083.835571 160.0
1083.903564 228.0
1083.98877 108.0
1084.110107 152.0
1084.165649 128.0
1084.33606 88.0
1084.467163 284.0
1084.552368 136.0
1084.598267 116.0
1084.680664 156.0
1084.952271 140.0
1085.01123 232.0
1085.371826 124.0
1085.535767 140.0
1085.581665 96.0
1085.686646 116.0
1085.750122 112.0
1085.804688 152.0
1085.857056 104.0
1086.015869 208.0
1086.226196 132.0
1086.309692 164.0
1086.434326 136.0
1086.601562 112.0
1086.716431 144.0
1086.877075 264.0
1087.065186 156.0
1087.156006 84.0
1087.202026 160.0
1087.372681 148.0
1087.643066 100.0
1087.727295 148.0
1087.878052 100.0
1088.022461 132.0
1088.127563 148.0
1088.177612 144.0
1088.252197 120.0
1088.606812 160.0
1088.672485 156.0
1088.914429 196.0
1089.014038 152.0
1089.253174 264.0
1089.322754 100.0
1089.434326 152.0
1089.490112 300.0
1089.664307 160.0
1089.822021 148.0
1089.900391 176.0
1090.098022 164.0
1090.17688 148.0
1090.262207 108.0
1090.446289 160.0
1090.505371 148.0
1090.785522 260.0
1090.893188 200.0
1091.099487 160.0
1091.168823 164.0
1091.327148 88.0
1091.471802 120.0
1091.623047 76.0
1091.783203 140.0
1091.833496 60.0
1091.932129 124.0
1092.023071 140.0
1092.142578 188.0
1092.652832 168.0
1092.69519 240.0
1092.794678 132.0
1092.892578 112.0
1093.017578 96.0
1093.063599 64.0
1093.155762 136.0
1093.228149 120.0
1093.339966 88.0
1093.451904 120.0
1093.504517 100.0
1093.570312 88.0
1093.754639 180.0
1093.971802 192.0
1094.017944 112.0
1094.156128 164.0
1094.319458 116.0
1094.336548 92.0
1094.432007 112.0
1094.444946 112.0
1094.505127 132.0
1094.603882 224.0
1094.979248 144.0
1095.150146 128.0
1095.229492 104.0
1095.380981 152.0
1095.450195 128.0
1095.684082 132.0
1095.736816 160.0
1095.894897 148.0
1095.947632 244.0
1095.997559 160.0
1096.125488 112.0
1096.349609 88.0
1096.441772 112.0
1096.520874 116.0
1096.659302 80.0
1096.941406 328.0
1097.045654 120.0
1097.252563 80.0
1097.377808 184.0
1097.63501 116.0
1097.714111 132.0
1098.03064 124.0
1098.228516 124.0
1098.432983 116.0
1098.66272 180.0
1098.761963 148.0
1099.1521 96.0
1099.204956 180.0
1099.330322 288.0
1099.482056 180.0
1099.548096 104.0
1099.752686 124.0
1099.838501 328.0
1100.015747 208.0
1100.172974 196.0
1100.293945 184.0
1100.650513 172.0
1100.841675 116.0
1100.927856 196.0
1101.158936 164.0
1101.436401 224.0
1101.495239 284.0
1101.591309 156.0
1101.641113 108.0
1101.82605 184.0
1101.965332 104.0
1102.057373 216.0
1102.427368 128.0
1102.572754 160.0
1102.870117 156.0
1102.989136 136.0
1103.180786 80.0
1103.273438 148.0
1103.53125 188.0
1103.706055 156.0
1103.868408 84.0
1103.983887 108.0
1104.053589 140.0
1104.286255 152.0
1104.442627 140.0
1104.556274 60.0
1104.648926 188.0
1104.766357 324.0
1104.853882 184.0
1104.979614 168.0
1105.224487 100.0
1105.343506 140.0
1105.403076 156.0
1105.47583 212.0
1105.522217 144.0
1105.590576 200.0
1105.619507 172.0
1105.720703 180.0
1105.833252 152.0
1105.939209 100.0
1106.026245 120.0
1106.123657 124.0
1106.210571 196.0
1106.356201 228.0
1106.442261 132.0
1107.170532 140.0
1107.350464 184.0
1107.410767 156.0
1107.462036 124.0
1107.640869 176.0
1107.707031 92.0
1107.819702 132.0
1108.031616 152.0
1108.091309 140.0
1108.197266 148.0
1108.244507 164.0
1108.446655 188.0
1108.54187 228.0
1108.588257 188.0
1108.700928 196.0
1109.085327 228.0
1109.191406 172.0
1109.270874 152.0
1109.412109 184.0
1109.522827 208.0
1109.675293 128.0
1109.794678 76.0
1109.99353 132.0
1110.067871 180.0
1110.265381 160.0
1110.358276 204.0
1110.552979 176.0
1110.632446 204.0
1110.776123 148.0
1110.822632 208.0
1111.171997 160.0
1111.28125 224.0
1111.565674 188.0
1111.665161 204.0
1111.850952 204.0
1112.021484 136.0
1112.109863 92.0
1112.38855 164.0
1112.677124 128.0
1112.780273 204.0
1112.932983 152.0
1113.019287 112.0
1113.450928 124.0
1113.673218 136.0
1113.769775 152.0
1113.895996 124.0
1114.015503 100.0
1114.062012 148.0
1114.17041 188.0
1114.327759 68.0
1114.507202 100.0
1114.699829 240.0
1114.819458 68.0
1114.879272 104.0
1114.932373 132.0
1115.025513 60.0
1115.165039 144.0
1115.284668 116.0
1115.464111 124.0
1115.683472 128.0
1115.783203 132.0
1115.863037 160.0
1115.909546 188.0
1115.956055 148.0
1116.106567 204.0
1116.182739 172.0
1116.388306 56.0
1116.465698 228.0
1116.601074 96.0
1116.661011 148.0
1116.714111 168.0
1116.800659 232.0
1116.933716 204.0
1117.020142 128.0
1117.246338 244.0
1117.326172 160.0
1117.379395 132.0
1117.425903 92.0
1117.501709 184.0
1117.55896 80.0
1117.6521 52.0
1117.99585 152.0
1118.131226 128.0
1118.317627 64.0
1118.477417 120.0
1118.557251 136.0
1118.630493 136.0
1118.956665 176.0
1119.129761 104.0
1119.302856 88.0
1119.425781 80.0
1119.880859 156.0
1119.92627 188.0
1120.050293 188.0
1120.115356 132.0
1120.188721 152.0
1120.404541 116.0
1120.488403 204.0
1120.723389 108.0
1120.94812 40.0
1121.194702 192.0
1121.281372 136.0
1121.341309 44.0
1121.394653 340.0
1121.501343 172.0
1121.549438 164.0
1121.644043 196.0
1121.753052 80.0
1121.854614 148.0
1121.947876 148.0
1122.04126 112.0
1122.421265 112.0
1122.518677 128.0
1122.533569 76.0
1122.557007 116.0
1122.642334 160.0
1122.707031 160.0
1122.79126 208.0
1122.932251 280.0
1123.028198 176.0
1123.101562 88.0
1123.328369 128.0
1123.528442 88.0
1123.661865 108.0
1123.708618 188.0
1123.935425 88.0
1124.142334 196.0
1124.315796 164.0
1124.475952 84.0
1124.590454 176.0
1124.649536 160.0
1124.802979 100.0
1125.146729 212.0
1125.32373 100.0
1125.410522 148.0
1125.470581 136.0
1125.544067 140.0
1125.63147 172.0
1125.690918 156.0
1125.984741 80.0
1126.031494 104.0
1126.091675 176.0
1126.185181 28.0
1126.251953 104.0
1126.352173 96.0
1126.879883 152.0
1126.940063 152.0
1127.046631 164.0
1127.27417 236.0
1127.41272 124.0
1127.461182 52.0
1127.514648 124.0
1127.855591 148.0
1128.206055 192.0
1128.259521 92.0
1128.356934 120.0
1128.590942 84.0
1128.731323 140.0
1128.931885 168.0
1129.022705 180.0
1129.105835 136.0
1129.226196 48.0
1129.406738 188.0
1129.707764 152.0
1129.761353 128.0
1129.826294 116.0
1129.958862 184.0
1129.986572 96.0
1130.004639 152.0
1130.135986 164.0
1130.202881 184.0
1130.329956 136.0
1130.570923 144.0
1130.617798 156.0
1130.838623 164.0
1130.954468 128.0
1131.100464 156.0
1131.170776 196.0
1131.354004 108.0
1131.548218 116.0
1131.668701 172.0
1131.769165 112.0
1131.829346 132.0
1131.92981 136.0
1132.043701 396.0
1132.144043 200.0
1132.462036 248.0
1132.525879 92.0
1132.735474 300.0
1132.807129 156.0
1132.874146 120.0
1133.195679 120.0
1133.302979 168.0
1133.443604 224.0
1133.544189 276.0
1133.617798 140.0
1133.764404 60.0
1133.812256 140.0
1133.91272 176.0
1133.98645 160.0
1134.080322 68.0
1134.143188 156.0
1134.190552 116.0
1134.20459 52.0
1134.230713 92.0
1134.2948 160.0
1134.379883 188.0
1134.455688 76.0
1134.643311 108.0
1134.703735 196.0
1134.79541 188.0
1134.918213 192.0
1135.074341 188.0
1135.132812 148.0
1135.206543 64.0
1135.333984 124.0
1135.421143 108.0
1135.64917 200.0
1135.75647 140.0
1136.086426 160.0
1136.179077 200.0
1136.313354 88.0
1136.366943 148.0
1136.429199 184.0
1136.675659 88.0
1137.004395 184.0
1137.158813 120.0
1137.21167 336.0
1137.303589 148.0
1137.507812 144.0
1137.574951 60.0
1137.64209 96.0
1137.783081 164.0
1137.869141 176.0
1137.960938 196.0
1138.095459 140.0
1138.158691 140.0
1138.327393 160.0
1138.491455 104.0
1138.630981 116.0
1138.699341 140.0
1138.924561 140.0
1138.983032 372.0
1139.132812 96.0
1139.28064 56.0
1139.381348 148.0
1139.496094 188.0
1139.562744 256.0
1139.677002 184.0
1139.865112 144.0
1139.952759 180.0
1140.093628 248.0
1140.21106 188.0
1140.28186 120.0
1140.335571 144.0
1140.430542 92.0
1140.480713 260.0
1140.853149 108.0
1140.960693 168.0
1141.02124 128.0
1141.175903 116.0
1141.249756 160.0
1141.411133 116.0
1141.559082 124.0
1141.611206 112.0
1141.666748 124.0
1141.765747 252.0
1141.888672 172.0
1141.942383 112.0
1141.996216 200.0
1142.129517 200.0
1142.305664 64.0
1142.387817 192.0
1142.507446 48.0
1142.561279 108.0
1142.765259 180.0
1142.830444 168.0
1142.931274 308.0
1142.978394 136.0
1143.101318 124.0
1143.204712 400.0
1143.28125 96.0
1143.341797 152.0
1143.44873 164.0
1143.505859 128.0
1143.59082 108.0
1143.779297 372.0
1143.860107 124.0
1143.963623 176.0
1144.068726 76.0
1144.195557 120.0
1144.212402 180.0
1144.30957 204.0
1144.75769 172.0
1144.832886 272.0
1144.923218 184.0
1144.992188 224.0
1145.057373 176.0
1145.139404 116.0
1145.4021 104.0
1145.839966 104.0
1145.907349 180.0
1145.991211 188.0
1146.172241 164.0
1146.352051 112.0
1146.529663 180.0
1146.641724 48.0
1146.763062 172.0
1146.843994 100.0
1146.954712 172.0
1147.032715 128.0
1147.288818 104.0
1147.342773 160.0
1147.43103 92.0
1147.477661 144.0
1147.531616 148.0
1147.686646 108.0
1147.733887 120.0
1147.798218 132.0
1147.851562 112.0
1147.956299 148.0
1148.047119 124.0
1148.138428 120.0
1148.273315 192.0
1148.468018 120.0
1148.597046 136.0
1148.822998 232.0
1148.898682 152.0
1148.968018 184.0
1149.015259 76.0
1149.244629 200.0
1149.378418 300.0
1149.554443 140.0
1149.581177 128.0
1149.68335 168.0
1149.865479 200.0
1150.000488 52.0
1150.067993 120.0
1150.142212 112.0
1150.263672 200.0
1150.338013 48.0
1150.385254 116.0
1150.493286 328.0
1150.642578 132.0
1150.959106 124.0
1151.060425 96.0
1151.208984 112.0
1151.296753 140.0
1151.531616 56.0
1151.654663 176.0
1151.773071 252.0
1151.932007 152.0
1152.061523 112.0
1152.145508 176.0
1152.336914 116.0
1152.384277 96.0
1152.527832 228.0
1152.586914 104.0
1152.634277 192.0
1152.74231 120.0
1152.97876 356.0
1153.046509 252.0
1153.181641 164.0
1153.349976 232.0
1153.463501 220.0
1153.620972 56.0
1153.779175 60.0
1153.844116 172.0
1153.901245 196.0
1153.960449 88.0
1154.202393 136.0
1154.398926 152.0
1154.580322 132.0
1154.696045 124.0
1154.824585 100.0
1154.894653 244.0
1154.993652 184.0
1155.068115 76.0
1155.156006 192.0
1155.365723 212.0
1155.507812 204.0
1155.663452 216.0
1155.717529 88.0
1155.81897 100.0
1155.912476 112.0
1156.055908 188.0
1156.238525 148.0
1156.291992 156.0
1156.463989 132.0
1156.506836 272.0
1156.563477 48.0
1156.834229 152.0
1156.924194 136.0
1157.10498 172.0
1157.172729 132.0
1157.297485 252.0
1157.466919 224.0
1157.545044 144.0
1157.630005 164.0
1157.715942 188.0
1157.863403 336.0
1158.052979 140.0
1158.120728 128.0
1158.262939 132.0
1158.338501 164.0
1158.454712 128.0
1158.642334 132.0
1158.848267 140.0
1158.977173 292.0
1159.238525 116.0
1159.333496 188.0
1159.439819 92.0
1159.555542 108.0
1159.635498 156.0
1159.760376 48.0
1159.842773 136.0
1159.997681 140.0
1160.150391 264.0
1160.241699 128.0
1160.397583 60.0
1160.573853 188.0
1160.913574 88.0
1161.162354 144.0
1161.290283 76.0
1161.397339 224.0
1161.44873 264.0
1161.509766 148.0
1161.720093 124.0
1161.774292 140.0
1161.923584 320.0
1162.045654 160.0
1162.174561 68.0
1162.314941 160.0
1162.378174 144.0
1162.574951 176.0
1162.688965 192.0
1162.786255 172.0
1162.81543 136.0
1162.887085 116.0
1163.09082 120.0
1163.199341 80.0
1163.309082 168.0
1163.373291 180.0
1163.528198 192.0
1163.661011 108.0
1163.708496 192.0
1163.798706 128.0
1163.918945 192.0
1164.04126 88.0
1164.129517 188.0
1164.197388 184.0
1164.29248 124.0
1164.367188 188.0
1164.48291 180.0
1164.55481 192.0
1164.633789 144.0
1164.720337 60.0
1164.869751 100.0
1164.94458 172.0
1165.028564 164.0
1165.168701 108.0
1165.386597 120.0
1165.460815 152.0
1165.515259 168.0
1165.576416 112.0
1165.660278 56.0
1165.768555 156.0
1165.856689 196.0
1165.909302 120.0
1165.991821 144.0
1166.040161 128.0
1166.141235 184.0
1166.219849 124.0
1166.345581 152.0
1166.425903 44.0
1166.487061 44.0
1166.598755 140.0
1166.738525 120.0
1166.860962 144.0
1166.928467 124.0
1167.010498 124.0
1167.084351 148.0
1167.194092 252.0
1167.332031 180.0
1167.439697 104.0
1167.61792 216.0
1167.705078 224.0
1167.948975 140.0
1168.03064 144.0
1168.114136 168.0
1168.202637 152.0
1168.316284 168.0
1168.37561 164.0
1168.459229 76.0
1168.551147 216.0
1168.650879 276.0
1168.744995 116.0
1168.812988 180.0
1168.949097 116.0
1169.08728 508.0
1169.234863 124.0
1169.282471 144.0
1169.425415 140.0
1169.568359 108.0
1169.616089 128.0
1169.704468 124.0
1169.776001 44.0
1169.935913 108.0
1170.029175 140.0
1170.109253 148.0
1170.327881 128.0
1170.398926 164.0
1170.582764 180.0
1170.732544 232.0
1170.821167 152.0
1171.07312 212.0
1171.142822 220.0
1171.195679 148.0
1171.256958 104.0
1171.311523 128.0
1171.40686 164.0
1171.506836 192.0
1171.611694 212.0
1171.733887 176.0
1171.930054 120.0
1171.940674 104.0
1172.210815 300.0
1172.306152 152.0
1172.381226 160.0
1172.592407 84.0
1172.708252 128.0
1172.776489 144.0
1172.85144 136.0
1172.89917 152.0
1173.035522 84.0
1173.149658 204.0
1173.390015 120.0
1173.502441 292.0
1173.587646 116.0
1173.887695 276.0
1173.962769 116.0
1174.03772 120.0
1174.119507 152.0
1174.187012 204.0
1174.251221 188.0
1174.310547 92.0
1174.426514 80.0
1174.487915 152.0
1174.816895 148.0
1174.883545 140.0
1174.93811 148.0
1175.006348 136.0
1175.216919 148.0
1175.388428 120.0
1175.487427 168.0
1175.552124 144.0
1175.640869 148.0
1175.722778 180.0
1175.773682 188.0
1176.057129 88.0
1176.145386 176.0
1176.167847 172.0
1176.241455 76.0
1176.355225 340.0
1176.415649 116.0
1176.595337 176.0
1176.678345 152.0
1177.040283 152.0
1177.176758 104.0
1177.258789 128.0
1177.449951 76.0
1177.677124 168.0
1177.727173 108.0
1177.765381 132.0
1177.844727 240.0
1178.098877 124.0
1178.17395 112.0
1178.276489 220.0
1178.338013 260.0
1178.426758 176.0
1178.535645 128.0
1178.724976 168.0
1178.853882 112.0
1178.942383 164.0
1179.038574 172.0
1179.178711 156.0
1179.253662 140.0
1179.33313 132.0
1179.410767 180.0
1179.520142 128.0
1179.676025 152.0
1179.745728 132.0
1179.800415 260.0
1179.916626 104.0
1179.984985 172.0
1180.053467 220.0
1180.244873 188.0
1180.322998 160.0
1180.468506 176.0
1180.531982 124.0
1180.720947 188.0
1181.03125 180.0
1181.113403 220.0
1181.215942 120.0
1181.349854 132.0
1181.404053 152.0
1181.469116 52.0
1181.660645 208.0
1181.814209 136.0
1181.968506 56.0
1182.023315 248.0
1182.078003 136.0
1182.130981 236.0
1182.217773 144.0
1182.408569 180.0
1182.563965 112.0
1182.649658 144.0
1182.712036 344.0
1182.796631 100.0
1183.001953 188.0
1183.070435 220.0
1183.152588 172.0
1183.326294 200.0
1183.447021 140.0
1183.519775 184.0
1183.54541 172.0
1183.621582 144.0
1183.696899 176.0
1183.87146 52.0
1183.994751 188.0
1184.173584 112.0
1184.268677 184.0
1184.357788 132.0
1184.583862 136.0
1184.713989 112.0
1184.783813 120.0
1185.036011 64.0
1185.302612 180.0
1185.319336 164.0
1185.434448 176.0
1185.577271 112.0
1185.659546 140.0
1185.734863 108.0
1185.792847 132.0
1185.933716 156.0
1186.039795 308.0
1186.152588 128.0
1186.276245 156.0
1186.296021 152.0
1186.392944 336.0
1186.513184 212.0
1186.598633 176.0
1186.646606 60.0
1186.783691 244.0
1186.831665 136.0
1186.900269 124.0
1186.984741 112.0
1187.133423 124.0
1187.253052 236.0
1187.551758 108.0
1187.668335 156.0
1187.805786 116.0
1187.880981 108.0
1187.954468 152.0
1188.196533 208.0
1188.265137 184.0
1188.336304 176.0
1188.386353 180.0
1188.405151 120.0
1188.465576 136.0
1188.628784 164.0
1188.702148 164.0
1188.795776 156.0
1188.903809 116.0
1189.054321 192.0
1189.116089 196.0
1189.249634 148.0
1189.294556 180.0
1189.352539 140.0
1189.486694 56.0
1189.53479 40.0
1189.635132 164.0
1189.726929 160.0
1189.795654 292.0
1189.843628 224.0
1189.987793 160.0
1190.077026 32.0
1190.18689 300.0
1190.260376 188.0
1190.368652 196.0
1190.434082 84.0
1190.482178 124.0
1190.757812 180.0
1190.873657 136.0
1191.010986 180.0
1191.260376 184.0
1191.391357 244.0
1191.654541 180.0
1191.704834 140.0
1191.75293 92.0
1191.878784 244.0
1191.972778 104.0
1192.041504 112.0
1192.165283 60.0
1192.31665 144.0
1192.529541 108.0
1192.584473 140.0
1192.776978 472.0
1192.900635 120.0
1192.96936 120.0
1193.134399 108.0
1193.214722 136.0
1193.31311 156.0
1193.519409 144.0
1193.622559 180.0
1193.705078 76.0
1193.808228 156.0
1193.945801 116.0
1194.241943 112.0
1194.309692 180.0
1194.440918 68.0
1194.606079 168.0
1194.695435 120.0
1194.771118 200.0
1195.031006 232.0
1195.128906 60.0
1195.18396 184.0
1195.287109 104.0
1195.444824 212.0
1195.507324 88.0
1195.637207 128.0
1195.775757 132.0
1195.823975 156.0
1195.927124 192.0
1196.072998 180.0
1196.140503 180.0
1196.243774 56.0
1196.34021 36.0
1196.536621 148.0
1196.601807 128.0
1196.916138 232.0
1196.995972 96.0
1197.152588 364.0
1197.298706 92.0
1197.483154 220.0
1197.59668 212.0
1197.648438 180.0
1197.746826 116.0
1197.902832 168.0
1197.923462 156.0
1198.032837 156.0
1198.123779 96.0
1198.171997 264.0
1198.260254 140.0
1198.337402 36.0
1198.44165 152.0
1198.568237 244.0
1198.661255 164.0
1198.772705 92.0
1198.86792 120.0
1198.943726 120.0
1198.991943 88.0
1199.102295 128.0
1199.226318 260.0
1199.291382 216.0
1199.426147 124.0
1199.612305 260.0
1199.77002 260.0
1199.984619 100.0
1200.074219 160.0
1200.384521 172.0
1200.429321 140.0
1200.520752 156.0
1200.643677 128.0
1200.694824 96.0
1200.860352 244.0
1200.943115 132.0
1201.064209 116.0
1201.177612 144.0
1201.287231 132.0
1201.432129 164.0
1201.550171 96.0
1201.715698 156.0
1201.764038 180.0
1201.837158 160.0
1202.040039 140.0
1202.133667 200.0
1202.284912 148.0
1202.405762 128.0
1202.471802 332.0
1202.637573 140.0
1202.709473 144.0
1202.817505 148.0
1202.918335 152.0
1203.112671 172.0
1203.247925 60.0
1203.388306 192.0
1203.454956 384.0
1203.614624 180.0
1203.66626 204.0
1203.717407 108.0
1203.788452 168.0
1203.80835 156.0
1203.839233 148.0
1203.993652 188.0
1204.100464 120.0
1204.159302 44.0
1204.228149 188.0
1204.340698 152.0
1204.38501 120.0
1204.546143 116.0
1204.612549 176.0
1204.641846 108.0
1204.655884 180.0
1204.773438 192.0
1204.850098 92.0
1205.027222 208.0
1205.084961 104.0
1205.147217 284.0
1205.315186 156.0
1205.451172 60.0
1205.554077 192.0
1205.623901 204.0
1205.730835 144.0
1205.934937 124.0
1206.069214 224.0
1206.245972 56.0
1206.338257 128.0
1206.389282 100.0
1206.436646 280.0
1206.557129 92.0
1206.660767 192.0
1206.737305 300.0
1206.912842 148.0
1207.08252 172.0
1207.182861 144.0
1207.276123 180.0
1207.331543 116.0
1207.519653 160.0
1207.612061 228.0
1207.82251 192.0
1207.905518 180.0
1207.953979 120.0
1208.078491 128.0
1208.182251 180.0
1208.330078 192.0
1208.387695 180.0
1208.49353 132.0
1208.580078 160.0
1208.638428 128.0
1208.797974 128.0
1208.853394 148.0
1208.929565 140.0
1208.994873 164.0
1209.061401 132.0
1209.130249 168.0
1209.199463 152.0
1209.289429 112.0
1209.351685 160.0
1209.437866 132.0
1209.632812 156.0
1209.795898 156.0
1209.912354 96.0
1210.016235 196.0
1210.113159 116.0
1210.184448 136.0
1210.293213 116.0
1210.445435 104.0
1210.757324 156.0
1210.84021 148.0
1210.925293 144.0
1211.073364 204.0
1211.158813 92.0
1211.234985 196.0
1211.366455 144.0
1211.484375 120.0
1211.62793 132.0
1211.768433 168.0
1211.922119 84.0
1212.128662 168.0
1212.212402 164.0
1212.295044 224.0
1212.404785 152.0
1212.485229 176.0
1212.536377 168.0
1212.747192 180.0
1212.925659 176.0
1213.092651 132.0
1213.216797 148.0
1213.268188 188.0
1213.331421 100.0
1213.397095 124.0
1213.522217 192.0
1213.659058 284.0
1213.79541 80.0
1213.861694 340.0
1213.972656 152.0
1214.032837 204.0
1214.194458 188.0
1214.284668 176.0
1214.397705 120.0
1214.464966 172.0
1214.556519 104.0
1214.72168 144.0
1214.92981 288.0
1215.035156 100.0
1215.310425 248.0
1215.452148 204.0
1215.574951 152.0
1215.670166 164.0
1215.802124 104.0
1215.859497 136.0
1216.081665 104.0
1216.255127 200.0
1216.303711 68.0
1216.435669 212.0
1216.484253 60.0
1216.546631 136.0
1216.600464 196.0
1216.710449 152.0
1216.834961 256.0
1216.888062 428.0
1217.018799 128.0
1217.074341 120.0
1217.185425 180.0
1217.331177 124.0
1217.393677 200.0
1217.491455 140.0
1217.581177 116.0
1217.673462 404.0
1217.727051 120.0
1217.794678 108.0
1217.879883 132.0
1218.060425 76.0
1218.129883 208.0
1218.187378 164.0
1218.241089 124.0
1218.387817 212.0
1218.449463 160.0
1218.652954 144.0
1218.726562 68.0
1218.842285 108.0
1218.922729 140.0
1219.046997 156.0
1219.283325 92.0
1219.338867 280.0
1219.387329 128.0
1219.549683 256.0
1219.722778 188.0
1219.827881 180.0
1219.89502 132.0
1220.125488 72.0
1220.172363 172.0
1220.29126 180.0
1220.403076 132.0
1220.576294 148.0
1220.645874 144.0
1220.793579 336.0
1220.862061 84.0
1220.986572 136.0
1221.090332 136.0
1221.1604 156.0
1221.24231 176.0
1221.396973 104.0
1221.463623 92.0
1221.556885 160.0
1221.726318 192.0
1221.849121 152.0
1222.029053 176.0
1222.134399 32.0
1222.238281 204.0
1222.250122 168.0
1222.366821 128.0
1222.440552 84.0
1222.572754 152.0
1222.681152 168.0
1222.816162 140.0
1222.892822 196.0
1223.011841 176.0
1223.095947 172.0
1223.139648 240.0
1223.345337 80.0
1223.434204 124.0
1223.450562 96.0
1223.49585 356.0
1223.578369 160.0
1223.669678 216.0
1223.735107 152.0
1223.785156 152.0
1224.088501 112.0
1224.149292 156.0
1224.229492 204.0
1224.396362 292.0
1224.495117 120.0
1224.563843 80.0
1224.756836 164.0
1224.908325 184.0
1225.060303 176.0
1225.188477 132.0
1225.369873 376.0
1225.506348 172.0
1225.664551 120.0
1225.734131 120.0
1225.866577 44.0
1225.935181 148.0
1225.986938 156.0
1226.039673 200.0
1226.050171 184.0
1226.114502 192.0
1226.180176 192.0
1226.229004 188.0
1226.341919 180.0
1226.403198 108.0
1226.465942 72.0
1226.574951 168.0
1226.635742 224.0
1226.828369 200.0
1226.976074 92.0
1227.181885 196.0
1227.26062 148.0
1227.467896 156.0
1227.748779 136.0
1227.853394 108.0
1227.931396 148.0
1227.99292 152.0
1228.216064 160.0
1228.316528 152.0
1228.40918 312.0
1228.434082 212.0
1228.494141 120.0
1228.725342 104.0
1228.822998 152.0
1228.878784 68.0
1228.927612 188.0
1229.171875 172.0
1229.231567 304.0
1229.257202 168.0
1229.332275 112.0
1229.381226 112.0
1229.449097 284.0
1229.516357 164.0
1229.562622 212.0
1229.65332 80.0
1229.706543 212.0
1229.820801 124.0
1229.901611 212.0
1230.023315 128.0
1230.097412 172.0
1230.155884 88.0
1230.211792 200.0
1230.288574 124.0
1230.372314 188.0
1230.519897 332.0
1230.665405 176.0
1230.901245 112.0
1231.000732 140.0
1231.126099 276.0
1231.268433 144.0
1231.475586 164.0
1231.55127 152.0
1231.674805 132.0
1231.768921 136.0
1231.84021 136.0
1232.034424 124.0
1232.091675 224.0
1232.176758 328.0
1232.274414 112.0
1232.446655 172.0
1232.572388 180.0
1232.83667 160.0
1232.991699 148.0
1233.1604 212.0
1233.226318 196.0
1233.268677 100.0
1233.303589 76.0
1233.323486 148.0
1233.444092 204.0
1233.547607 164.0
1233.599731 176.0
1233.752075 188.0
1233.907349 212.0
1233.966187 288.0
1234.047119 40.0
1234.102295 136.0
1234.227539 140.0
1234.483887 160.0
1234.78479 176.0
1234.886475 172.0
1234.979614 156.0
1235.006836 184.0
1235.146118 188.0
1235.21167 156.0
1235.407349 324.0
1235.524902 260.0
1235.642334 156.0
1235.711792 76.0
1235.82373 116.0
1235.942627 120.0
1236.037842 192.0
1236.207153 216.0
1236.244873 212.0
1236.334473 116.0
1236.390503 152.0
1236.47937 172.0
1236.754395 192.0
1236.859375 116.0
1236.908447 220.0
1236.971436 136.0
1237.027344 144.0
1237.1604 164.0
1237.305542 128.0
1237.355713 168.0
1237.381714 152.0
1237.468384 160.0
1237.60144 208.0
1237.685547 36.0
1237.762573 120.0
1237.846558 232.0
1237.909058 120.0
1238.022949 184.0
1238.10083 448.0
1238.231689 148.0
1238.490845 204.0
1238.567627 92.0
1238.640991 312.0
1238.720947 140.0
1238.841064 88.0
1238.946167 84.0
1239.026123 104.0
1239.259888 156.0
1239.340088 368.0
1239.486206 324.0
1239.562744 140.0
1239.660767 80.0
1239.723877 104.0
1239.824707 136.0
1239.888062 160.0
1240.01123 112.0
1240.130371 168.0
1240.257568 180.0
1240.336182 120.0
1240.424805 52.0
1240.598511 232.0
1240.643921 132.0
1240.765625 116.0
1240.865356 152.0
1240.942017 268.0
1241.049316 136.0
1241.104736 60.0
1241.167847 164.0
1241.237671 92.0
1241.263184 88.0
1241.455444 208.0
1241.595703 124.0
1241.718872 160.0
1241.853027 80.0
1241.866211 196.0
1241.953369 172.0
1242.009399 112.0
1242.14978 108.0
1242.198853 152.0
1242.297974 304.0
1242.612793 140.0
1242.83728 40.0
1242.942505 156.0
1243.061768 248.0
1243.139038 120.0
1243.256104 184.0
1243.370605 160.0
1243.471802 132.0
1243.52356 164.0
1243.609253 80.0
1243.748413 48.0
1243.884033 160.0
1243.966064 180.0
1243.978271 152.0
1244.009521 116.0
1244.032104 156.0
1244.184814 200.0
1244.247925 56.0
1244.297119 136.0
1244.349976 152.0
1244.409424 188.0
1244.533447 108.0
1244.67627 100.0
1244.725464 136.0
1244.978149 144.0
1245.076538 60.0
1245.141357 216.0
1245.202148 208.0
1245.273193 140.0
1245.323975 116.0
1245.462769 208.0
1245.597046 136.0
1245.715698 124.0
1245.771851 244.0
1245.891357 88.0
1245.973389 168.0
1246.088013 176.0
1246.165283 64.0
1246.305786 184.0
1246.365234 140.0
1246.453125 160.0
1246.551758 76.0
1246.629028 188.0
1246.853882 64.0
1246.952271 280.0
1247.064819 156.0
1247.123901 168.0
1247.219727 184.0
1247.335571 376.0
1247.423218 148.0
1247.542114 136.0
1247.619507 136.0
1247.647949 124.0
1247.864502 240.0
1247.95752 172.0
1248.04187 92.0
1248.24585 280.0
1248.346924 160.0
1248.400513 112.0
1248.485474 188.0
1248.574829 152.0
1248.653687 104.0
1248.75293 344.0
1248.834839 188.0
1248.98584 156.0
1249.11792 92.0
1249.364136 220.0
1249.469604 140.0
1249.518921 220.0
1249.626831 216.0
1249.72998 120.0
1249.821411 56.0
1249.94812 120.0
1250.025513 108.0
1250.210815 144.0
1250.290039 316.0
1250.359253 160.0
1250.412598 176.0
1250.481201 144.0
1250.567383 88.0
1250.801758 148.0
1250.886719 212.0
1251.008057 120.0
1251.102295 152.0
1251.158691 244.0
1251.257202 296.0
1251.320557 108.0
1251.428345 128.0
1251.743042 128.0
1252.02478 164.0
1252.122803 120.0
1252.25708 164.0
1252.357544 200.0
1252.419189 96.0
1252.574097 200.0
1252.665649 172.0
1252.720093 192.0
1252.903809 100.0
1252.975586 92.0
1253.092163 112.0
1253.14978 112.0
1253.236328 104.0
1253.351318 188.0
1253.433594 196.0
1253.637695 184.0
1253.719604 216.0
1253.814575 244.0
1253.912842 112.0
1253.969116 128.0
1254.060791 136.0
1254.157959 164.0
1254.314575 208.0
1254.397827 296.0
1254.540161 180.0
1254.638794 144.0
1254.800903 132.0
1254.91272 152.0
1254.955566 104.0
1255.102905 156.0
1255.192383 132.0
1255.428955 136.0
1255.527222 180.0
1255.625977 184.0
1255.695679 140.0
1255.773804 196.0
1255.798218 104.0
1255.810791 152.0
1255.895752 172.0
1255.971558 156.0
1256.092651 248.0
1256.218506 116.0
1256.317261 136.0
1256.366577 44.0
1256.472412 92.0
1256.554077 144.0
1256.613525 172.0
1256.71936 76.0
1256.780884 200.0
1256.839233 168.0
1256.933105 412.0
1257.114502 160.0
1257.188477 132.0
1257.248535 80.0
1257.333252 56.0
1257.577148 164.0
1257.723267 412.0
1257.873291 320.0
1258.003784 416.0
1258.128174 312.0
1258.229736 76.0
1258.283936 224.0
1258.455566 120.0
1258.582642 116.0
1258.682251 132.0
1258.745117 140.0
1258.916992 140.0
1259.017334 144.0
1259.080688 148.0
1259.104126 76.0
1259.129517 136.0
1259.26062 296.0
1259.318481 216.0
1259.443359 176.0
1259.543091 84.0
1259.592651 192.0
1259.861084 120.0
1259.935181 92.0
1260.00061 136.0
1260.058472 68.0
1260.092407 100.0
1260.110474 144.0
1260.270752 108.0
1260.334351 168.0
1260.411743 152.0
1260.645264 180.0
1260.760986 196.0
1260.852905 224.0
1261.001831 152.0
1261.12146 240.0
1261.175293 152.0
1261.224854 156.0
1261.274292 136.0
1261.403076 316.0
1261.528809 144.0
1261.599487 84.0
1261.656006 132.0
1261.747925 164.0
1261.864624 152.0
1261.995361 148.0
1262.095825 176.0
1262.200439 160.0
1262.313599 104.0
1262.433716 132.0
1262.716675 124.0
1262.822754 144.0
1262.938354 148.0
1263.095093 220.0
1263.204712 128.0
1263.310791 60.0
1263.370483 124.0
1263.444702 172.0
1263.53418 112.0
1263.692871 340.0
1263.744385 200.0
1264.015381 144.0
1264.13147 88.0
1264.342896 32.0
1264.454224 144.0
1264.501587 192.0
1264.62793 164.0
1264.811157 132.0
1264.865723 208.0
1264.973755 84.0
1265.058716 140.0
1265.157837 136.0
1265.244995 136.0
1265.356079 72.0
1265.560181 148.0
1265.745483 104.0
1265.865845 104.0
1265.922119 176.0
1266.141968 124.0
1266.21521 132.0
1266.361572 168.0
1266.49353 296.0
1266.595337 124.0
1266.680298 148.0
1266.774414 212.0
1266.904663 136.0
1266.984863 132.0
1267.034546 148.0
1267.115479 176.0
1267.360352 176.0
1267.445435 120.0
1267.504517 120.0
1267.599487 176.0
1267.664917 148.0
1267.730591 144.0
1267.795776 184.0
1267.877686 120.0
1268.050049 220.0
1268.139893 164.0
1268.241577 148.0
1268.38916 152.0
1268.461914 336.0
1268.536865 116.0
1268.678589 188.0
1268.892456 248.0
1268.979858 116.0
1269.054321 32.0
1269.197754 208.0
1269.439087 140.0
1269.486938 212.0
1269.685425 164.0
1269.796021 164.0
1269.862793 108.0
1269.983398 244.0
1270.096802 44.0
1270.333496 132.0
1270.602783 156.0
1270.657227 176.0
1270.759033 200.0
1270.813354 140.0
1270.870117 168.0
1270.94812 300.0
1271.002197 180.0
1271.146851 172.0
1271.240479 140.0
1271.310059 108.0
1271.444824 116.0
1271.501587 188.0
1271.572632 136.0
1271.712769 264.0
1271.743164 104.0
1271.768555 268.0
1271.915039 160.0
1271.998413 224.0
1272.055298 64.0
1272.175903 152.0
1272.265137 232.0
1272.349121 116.0
1272.626831 100.0
1272.772339 68.0
1272.885864 184.0
1272.978271 148.0
1273.024658 148.0
1273.242554 180.0
1273.352417 204.0
1273.460693 84.0
1273.577637 168.0
1273.712036 164.0
1273.766602 108.0
1273.830444 204.0
1273.91687 296.0
1273.981567 192.0
1274.085571 252.0
1274.15918 148.0
1274.249634 72.0
1274.342041 288.0
1274.427246 152.0
1274.522583 124.0
1274.581543 124.0
1274.755371 168.0
1274.854736 336.0
1274.988647 164.0
1275.041382 148.0
1275.17334 148.0
1275.258667 100.0
1275.379517 44.0
1275.466919 180.0
1275.59082 292.0
1275.759644 256.0
1275.912354 120.0
1276.098511 200.0
1276.16394 104.0
1276.228271 112.0
1276.351074 120.0
1276.395142 148.0
1276.660034 104.0
1276.758789 168.0
1276.883301 192.0
1276.944824 148.0
1277.00061 192.0
1277.057495 88.0
1277.1073 124.0
1277.164185 128.0
1277.218628 204.0
1277.395752 336.0
1277.515503 124.0
1277.626587 148.0
1277.697754 212.0
1277.768799 36.0
1277.881836 144.0
1277.985718 172.0
1278.103271 204.0
1278.220703 248.0
1278.375854 140.0
1278.435547 148.0
1278.603394 224.0
1278.8302 220.0
1278.957275 176.0
1279.02124 180.0
1279.110718 156.0
1279.158813 152.0
1279.362915 128.0
1279.576538 128.0
1279.745239 128.0
1279.76355 136.0
1279.904053 164.0
1279.953857 148.0
1280.029541 168.0
1280.084595 204.0
1280.234009 132.0
1280.488037 180.0
1280.566284 268.0
1280.713989 164.0
1280.837524 160.0
1280.965698 184.0
1281.115723 152.0
1281.303955 144.0
1281.437988 200.0
1281.601318 160.0
1281.65625 72.0
1281.709351 128.0
1281.770264 104.0
1281.957764 416.0
1282.055298 168.0
1282.105225 192.0
1282.162231 164.0
1282.239746 144.0
1282.266357 188.0
1282.373413 244.0
1282.440186 144.0
1282.539917 160.0
1282.724854 140.0
1282.936035 120.0
1282.997314 232.0
1283.054077 152.0
1283.171997 148.0
1283.416748 144.0
1283.500122 116.0
1283.609253 140.0
1283.673462 128.0
1283.737671 168.0
1283.824219 176.0
1283.98938 200.0
1284.121826 132.0
1284.188965 144.0
1284.209595 120.0
1284.347656 160.0
1284.366455 192.0
1284.422363 32.0
1284.47229 76.0
1284.560303 172.0
1284.671997 136.0
1284.728882 180.0
1284.900269 96.0
1285.120117 200.0
1285.207031 88.0
1285.335571 152.0
1285.461182 212.0
1285.597412 152.0
1285.717407 296.0
1285.929199 204.0
1285.985229 252.0
1286.056274 48.0
1286.294678 128.0
1286.356079 252.0
1286.40979 196.0
1286.42334 104.0
1286.450562 136.0
1286.982178 200.0
1287.041504 120.0
1287.162842 144.0
1287.306274 168.0
1287.4198 184.0
1287.446533 180.0
1287.548096 156.0
1287.658691 284.0
1287.779663 360.0
1287.876099 192.0
1287.962158 48.0
1288.097412 192.0
1288.205566 172.0
1288.263916 92.0
1288.376953 92.0
1288.445801 184.0
1288.552368 168.0
1288.655518 204.0
1288.817749 164.0
1288.941406 184.0
1289.008301 180.0
1289.091553 188.0
1289.355957 64.0
1289.470215 156.0
1289.695557 208.0
1289.78479 92.0
1289.877686 92.0
1289.989258 132.0
1290.142334 128.0
1290.285156 152.0
1290.366577 100.0
1290.415649 192.0
1290.54834 188.0
1290.706909 156.0
1290.842773 128.0
1290.982788 196.0
1291.085938 100.0
1291.283325 132.0
1291.355225 164.0
1291.550903 48.0
1291.658081 120.0
1291.790527 196.0
1291.814697 100.0
1291.84021 184.0
1291.914062 128.0
1292.001465 144.0
1292.087402 152.0
1292.166016 140.0
1292.241089 132.0
1292.309082 128.0
1292.387817 116.0
1292.445068 32.0
1292.502319 176.0
1292.609619 264.0
1292.65979 160.0
1292.752563 112.0
1293.020752 176.0
1293.381104 176.0
1293.525757 180.0
1293.683228 124.0
1293.770386 232.0
1293.956421 128.0
1294.127808 204.0
1294.316772 156.0
1294.352295 116.0
1294.445068 128.0
1294.520874 124.0
1294.635498 84.0
1294.685669 76.0
1294.957764 128.0
1295.043701 152.0
1295.100952 148.0
1295.251465 96.0
1295.567139 100.0
1295.693237 196.0
1295.80481 192.0
1296.056641 256.0
1296.287476 204.0
1296.52832 212.0
1296.617798 108.0
1296.705933 184.0
1296.78064 160.0
1296.956787 64.0
1297.078003 164.0
1297.24353 120.0
1297.319214 212.0
1297.345947 228.0
1297.415527 124.0
1297.546997 200.0
1297.741821 232.0
1297.845703 200.0
1298.024536 124.0
1298.09668 160.0
1298.211426 132.0
1298.275024 164.0
1298.393677 152.0
1298.498047 172.0
1298.515015 260.0
1298.641724 132.0
1298.726318 204.0
1298.943237 120.0
1299.014648 156.0
1299.102539 200.0
1299.19397 180.0
1299.399048 180.0
1299.455322 180.0
1299.538208 252.0
1299.624512 92.0
1299.717773 156.0
1299.817261 120.0
1299.888916 180.0
1300.015869 124.0
1300.124023 92.0
1300.277466 80.0
1300.334961 168.0
1300.392334 184.0
1300.47937 244.0
1300.636353 184.0
1300.734375 204.0
1300.808594 172.0
1300.90918 212.0
1301.023193 344.0
1301.124512 48.0
1301.321289 244.0
1301.403198 220.0
1301.476318 96.0
1301.536743 260.0
1301.677368 176.0
1301.942993 128.0
1302.000488 60.0
1302.086914 128.0
1302.196777 160.0
1302.234741 124.0
1302.345459 160.0
1302.417114 116.0
1302.589478 80.0
1302.646973 168.0
1302.779175 144.0
1302.934204 148.0
1303.006104 156.0
1303.075317 252.0
1303.233521 200.0
1303.386963 132.0
1303.469604 164.0
1303.490479 116.0
1303.565796 148.0
1303.674316 332.0
1303.731812 204.0
1303.8396 88.0
1303.989624 364.0
1304.105591 220.0
1304.295898 188.0
1304.344727 300.0
1304.423584 212.0
1304.522461 184.0
1304.598022 184.0
1304.709351 208.0
1304.795654 36.0
1304.856934 240.0
1304.971191 148.0
1305.044067 160.0
1305.095459 164.0
1305.196289 180.0
1305.334839 136.0
1305.449951 184.0
1305.514648 92.0
1305.628784 188.0
1305.787964 176.0
1305.8479 140.0
1305.876099 188.0
1306.041016 208.0
1306.125977 40.0
1306.188965 180.0
1306.244873 276.0
1306.358887 192.0
1306.444092 328.0
1306.498169 152.0
1306.567993 248.0
1306.647461 188.0
1306.723633 204.0
1306.784302 216.0
1306.98877 128.0
1307.054077 148.0
1307.147583 152.0
1307.240356 80.0
1307.348999 140.0
1307.507202 148.0
1307.534912 144.0
1307.636353 208.0
1307.69104 140.0
1307.74707 144.0
1307.795654 228.0
1307.839478 216.0
1308.025635 104.0
1308.140747 76.0
1308.253174 144.0
1308.378296 152.0
1308.470459 192.0
1308.522339 144.0
1308.738281 204.0
1308.871582 140.0
1308.97998 148.0
1309.110596 108.0
1309.227905 144.0
1309.335938 120.0
1309.383057 80.0
1309.577637 292.0
1309.64563 148.0
1309.710449 120.0
1309.820923 144.0
1309.883057 200.0
1310.013062 128.0
1310.075439 392.0
1310.24353 196.0
1310.378906 156.0
1310.498901 124.0
1310.588379 244.0
1310.762329 92.0
1310.855957 96.0
1311.01001 228.0
1311.137085 152.0
1311.260742 128.0
1311.305542 104.0
1311.333496 140.0
1311.533447 100.0
1311.583862 244.0
1311.717407 204.0
1311.952393 188.0
1312.038086 116.0
1312.160645 92.0
1312.348022 44.0
1312.405762 204.0
1312.477783 156.0
1312.650879 160.0
1312.708618 136.0
1312.78064 140.0
1312.885254 112.0
1312.955811 164.0
1313.029907 140.0
1313.170532 196.0
1313.328735 160.0
1313.437012 152.0
1313.52356 160.0
1313.588135 148.0
1313.694092 136.0
1313.755737 172.0
1313.83667 176.0
1313.895752 172.0
1314.028564 100.0
1314.100708 204.0
1314.165649 160.0
1314.233398 160.0
1314.297974 156.0
1314.366821 176.0
1314.425415 304.0
1314.511963 120.0
1314.591309 144.0
1314.665527 128.0
1314.793579 216.0
1314.886841 148.0
1315.140869 312.0
1315.19751 128.0
1315.262573 120.0
1315.356201 224.0
1315.538574 144.0
1315.695679 176.0
1315.746216 164.0
1315.895996 152.0
1315.962769 132.0
1316.093506 184.0
1316.213623 172.0
1316.375732 168.0
1316.446289 132.0
1316.511475 328.0
1316.663208 156.0
1316.741211 200.0
1316.845703 180.0
1316.952026 324.0
1317.122803 192.0
1317.176025 84.0
1317.287231 172.0
1317.342163 144.0
1317.502075 172.0
1317.605835 168.0
1317.681641 260.0
1317.750244 412.0
1317.791748 184.0
1317.871704 164.0
1317.933105 172.0
1318.0802 204.0
1318.137695 140.0
1318.157715 100.0
1318.184448 380.0
1318.296387 284.0
1318.389771 212.0
1318.437866 140.0
1318.489502 152.0
1318.518188 140.0
1318.542236 120.0
1318.63501 228.0
1318.796387 196.0
1318.897949 276.0
1318.955933 216.0
1319.022705 104.0
1319.045044 84.0
1319.141479 72.0
1319.237427 176.0
1319.322144 140.0
1319.372803 164.0
1319.52771 160.0
1319.690918 116.0
1319.77771 188.0
1319.883179 168.0
1320.074097 96.0
1320.160889 184.0
1320.211548 236.0
1320.283813 136.0
1320.348877 192.0
1320.414062 136.0
1320.508057 124.0
1320.558716 124.0
1320.616577 168.0
1320.664795 272.0
1320.793335 240.0
1320.848022 120.0
1320.978516 164.0
1321.087891 124.0
1321.165161 160.0
1321.212158 152.0
1321.245605 156.0
1321.375854 140.0
1321.43396 180.0
1321.62207 88.0
1321.709351 120.0
1321.844849 256.0
1321.918701 48.0
1322.156616 152.0
1322.50647 156.0
1322.627197 116.0
1322.816162 192.0
1322.912476 260.0
1322.989868 48.0
1323.110107 184.0
1323.129883 276.0
1323.199829 76.0
1323.315674 164.0
1323.402588 108.0
1323.518433 148.0
1323.597412 140.0
1323.614258 120.0
1323.700195 120.0
1323.751465 184.0
1323.869141 200.0
1324.03479 76.0
1324.15564 184.0
1324.255615 276.0
1324.393921 176.0
1324.473389 144.0
1324.636719 272.0
1324.695435 112.0
1324.771362 208.0
1324.937988 232.0
1325.378296 140.0
1325.556396 168.0
1325.700073 152.0
1325.805176 208.0
1325.900757 132.0
1326.184326 164.0
1326.300903 208.0
1326.385498 168.0
1326.453491 332.0
1326.613159 100.0
1326.698975 104.0
1326.763306 148.0
1326.8125 176.0
1326.861816 188.0
1326.963989 168.0
1327.043579 284.0
1327.15271 76.0
1327.197144 152.0
1327.271729 44.0
1327.409546 220.0
1327.532837 184.0
1327.602905 200.0
1327.791138 168.0
1327.946167 180.0
1328.054932 112.0
1328.144653 156.0
1328.256104 164.0
1328.330566 160.0
1328.439453 168.0
1328.550781 260.0
1328.669189 212.0
1328.75 180.0
1328.840088 124.0
1328.949707 168.0
1329.105103 176.0
1329.177856 116.0
1329.314453 124.0
1329.371094 248.0
1329.442505 228.0
1329.527588 160.0
1329.661621 128.0
1329.752686 136.0
1329.803467 160.0
1329.899536 176.0
1330.029541 268.0
1330.195435 156.0
1330.30835 88.0
1330.404053 120.0
1330.49707 156.0
1330.509033 192.0
1330.565674 140.0
1330.616577 156.0
1330.667358 168.0
1330.722168 140.0
1330.9552 160.0
1331.167725 236.0
1331.222168 156.0
1331.374634 148.0
1331.492188 180.0
1331.523071 108.0
1331.533936 164.0
1331.625854 104.0
1331.734375 136.0
1331.821899 176.0
1331.90918 160.0
1332.010864 160.0
1332.07312 216.0
1332.196899 176.0
1332.289673 236.0
1332.348145 232.0
1332.482788 156.0
1332.61377 172.0
1332.671875 176.0
1332.736084 172.0
1332.821533 84.0
1333.013428 124.0
1333.107666 112.0
1333.194824 204.0
1333.213989 60.0
1333.306274 172.0
1333.384033 188.0
1333.483521 144.0
1333.567749 144.0
1333.673096 124.0
1333.75293 168.0
1333.859741 156.0
1333.929199 128.0
1333.996704 140.0
1334.085938 328.0
1334.298706 116.0
1334.418335 96.0
1334.596191 232.0
1334.717651 220.0
1334.852539 108.0
1334.903442 40.0
1334.994141 164.0
1335.127808 140.0
1335.243774 180.0
1335.266235 144.0
1335.347046 168.0
1335.536133 112.0
1335.645264 140.0
1335.710693 80.0
1335.802612 252.0
1335.892578 120.0
1336.027466 216.0
1336.127563 168.0
1336.201538 256.0
1336.27002 524.0
1336.434937 320.0
1336.73645 168.0
1336.809204 184.0
1336.973145 132.0
1337.082031 152.0
1337.18042 312.0
1337.253174 144.0
1337.477905 92.0
1337.537231 156.0
1337.64624 88.0
1337.708862 124.0
1337.868896 64.0
1338.126709 152.0
1338.182983 132.0
1338.394287 128.0
1338.451904 72.0
1338.466187 192.0
1338.629639 160.0
1338.701904 144.0
1338.964111 148.0
1339.052856 248.0
1339.218994 116.0
1339.306396 96.0
1339.386475 92.0
1339.498779 128.0
1339.619629 76.0
1339.710449 136.0
1339.88916 152.0
1340.058472 212.0
1340.128296 136.0
1340.209717 52.0
1340.286133 188.0
1340.369507 116.0
1340.515747 100.0
1340.609009 216.0
1340.622192 172.0
1340.689697 156.0
1340.756226 188.0
1340.84375 100.0
1340.949097 180.0
1341.098755 148.0
1341.305542 216.0
1341.401611 116.0
1341.488281 284.0
1341.569824 144.0
1341.677246 160.0
1341.769409 192.0
1342.036621 212.0
1342.17041 320.0
1342.248535 184.0
1342.432983 184.0
1342.559692 212.0
1342.625854 164.0
1342.724609 144.0
1342.848633 104.0
1342.965698 144.0
1343.052856 108.0
1343.140381 172.0
1343.213501 136.0
1343.308105 136.0
1343.403931 144.0
1343.50415 152.0
1343.644409 160.0
1343.786377 136.0
1343.916138 156.0
1344.060791 196.0
1344.286987 212.0
1344.387939 148.0
1344.453613 200.0
1344.614258 216.0
1344.675293 160.0
1344.770264 104.0
1344.847778 192.0
1345.19812 92.0
1345.310303 152.0
1345.373291 176.0
1345.454346 164.0
1345.516235 316.0
1345.599609 180.0
1345.712769 292.0
1345.79248 200.0
1345.877075 128.0
1346.015869 144.0
1346.085327 168.0
1346.161865 68.0
1346.233398 180.0
1346.396362 208.0
1346.416748 132.0
1346.441772 196.0
1346.562134 152.0
1346.703857 168.0
1346.806519 120.0
1346.950317 144.0
1346.99585 168.0
1347.137939 244.0
1347.279297 100.0
1347.38916 128.0
1347.542358 152.0
1347.654663 188.0
1347.731079 116.0
1347.850464 116.0
1348.112305 40.0
1348.178101 268.0
1348.236572 164.0
1348.30957 116.0
1348.39502 332.0
1348.49231 60.0
1348.621338 116.0
1348.720337 124.0
1348.830811 168.0
1348.87561 92.0
1349.044189 176.0
1349.131226 124.0
1349.186768 96.0
1349.252563 128.0
1349.371216 136.0
1349.427979 64.0
1349.479126 124.0
1349.547607 208.0
1349.602661 108.0
1349.720459 112.0
1349.805298 108.0
1349.917847 156.0
1350.008423 196.0
1350.130249 160.0
1350.364014 132.0
1350.465698 220.0
1350.567139 204.0
1350.678467 104.0
1350.810181 212.0
1350.971069 172.0
1351.102783 244.0
1351.183228 164.0
1351.259155 176.0
1351.31604 164.0
1351.495117 208.0
1351.592896 88.0
1351.658813 148.0
1351.759033 268.0
1351.827148 236.0
1351.878296 64.0
1351.966187 200.0
1352.031128 124.0
1352.160156 156.0
1352.437378 316.0
1352.551636 84.0
1352.609253 88.0
1352.635132 148.0
1352.736572 76.0
1352.760132 148.0
1352.922119 164.0
1353.000977 228.0
1353.078735 108.0
1353.166626 296.0
1353.387573 292.0
1353.522217 244.0
1353.668335 152.0
1353.754761 124.0
1353.84021 140.0
1353.964722 108.0
1354.099487 196.0
1354.191772 56.0
1354.276001 40.0
1354.352905 128.0
1354.41687 236.0
1354.645874 184.0
1354.741089 140.0
1354.80481 188.0
1354.86499 128.0
1355.080566 228.0
1355.180664 124.0
1355.26123 144.0
1355.389648 168.0
1355.510376 152.0
1355.671631 180.0
1355.823242 236.0
1355.960693 196.0
1356.162598 40.0
1356.213989 196.0
1356.280273 180.0
1356.349854 124.0
1356.525879 176.0
1356.623901 120.0
1356.669922 168.0
1356.752319 124.0
1356.819092 172.0
1356.925659 168.0
1357.010132 176.0
1357.120972 148.0
1357.210938 212.0
1357.308838 140.0
1357.39624 88.0
1357.463013 252.0
1357.52356 152.0
1357.592285 132.0
1357.766602 160.0
1357.871216 108.0
1357.93689 192.0
1358.142334 140.0
1358.230103 124.0
1358.45459 148.0
1358.575439 152.0
1358.685181 144.0
1358.751099 184.0
1358.86853 76.0
1359.022583 172.0
1359.130493 120.0
1359.191406 196.0
1359.284058 164.0
1359.313599 104.0
1359.327515 232.0
1359.418335 200.0
1359.513306 176.0
1359.727051 108.0
1359.848633 128.0
1359.96582 172.0
1360.027954 112.0
1360.218872 72.0
1360.292603 180.0
1360.429321 96.0
1360.468384 140.0
1360.539429 292.0
1360.582153 204.0
1360.666626 116.0
1360.725342 176.0
1360.797852 156.0
1360.80896 284.0
1360.962891 116.0
1361.127563 196.0
1361.212769 180.0
1361.379028 156.0
1361.510986 164.0
1361.639771 204.0
1361.666138 144.0
1361.734375 176.0
1361.80481 72.0
1361.889526 172.0
1362.069214 168.0
1362.226929 256.0
1362.331787 152.0
1362.386719 176.0
1362.479126 116.0
1362.552246 132.0
1362.605469 140.0
1362.656982 204.0
1362.737793 88.0
1362.862671 196.0
1362.915161 52.0
1363.002197 304.0
1363.089844 108.0
1363.154297 184.0
1363.215332 136.0
1363.281982 172.0
1363.384155 144.0
1363.518066 128.0
1363.536865 112.0
1363.601929 132.0
1363.717407 116.0
1363.788574 224.0
1363.9021 176.0
1364.058228 88.0
1364.220825 196.0
1364.33252 92.0
1364.411987 108.0
1364.512695 264.0
1364.700195 80.0
1364.861572 92.0
1364.915283 216.0
1365.081421 172.0
1365.130737 264.0
1365.254761 264.0
1365.436646 216.0
1365.539551 208.0
1365.589966 364.0
1365.641846 196.0
1365.900269 188.0
1365.988647 168.0
1366.044434 168.0
1366.127808 124.0
1366.185791 184.0
1366.281372 224.0
1366.334961 144.0
1366.449585 96.0
1366.486572 40.0
1366.497803 124.0
1366.560913 84.0
1366.678711 164.0
1366.737549 84.0
1366.817505 120.0
1366.884644 324.0
1366.961792 132.0
1367.03186 40.0
1367.160889 120.0
1367.197754 104.0
1367.221313 176.0
1367.313843 160.0
1367.429077 124.0
1367.488159 140.0
1367.569092 176.0
1367.723633 204.0
1367.775146 128.0
1367.906494 144.0
1367.990356 160.0
1368.16687 96.0
1368.264771 168.0
1368.334717 92.0
1368.395874 156.0
1368.630127 96.0
1368.684814 140.0
1368.783813 120.0
1368.869507 120.0
1368.99939 188.0
1369.096558 136.0
1369.296997 236.0
1369.35083 160.0
1369.446533 68.0
1369.542358 184.0
1369.630737 176.0
1369.697021 196.0
1369.851685 112.0
1369.925415 140.0
1370.072754 176.0
1370.149292 92.0
1370.301025 192.0
1370.44104 112.0
1370.514771 172.0
1370.603149 76.0
1370.709961 204.0
1370.772583 120.0
1370.902832 200.0
1371.13147 168.0
1371.370117 52.0
1371.462524 52.0
1371.552124 204.0
1371.656982 48.0
1371.80896 152.0
1371.94873 232.0
1372.00769 176.0
1372.099365 164.0
1372.193115 180.0
1372.357422 104.0
1372.445923 168.0
1372.504883 84.0
1372.585938 116.0
1372.696533 148.0
1372.849854 152.0
1372.971924 132.0
1373.028442 120.0
1373.215088 164.0
1373.328857 264.0
1373.42395 220.0
1373.574219 104.0
1373.699585 128.0
1373.800781 140.0
1373.957764 152.0
1374.061035 180.0
1374.120117 148.0
1374.171753 144.0
1374.310669 140.0
1374.335693 132.0
1374.350464 168.0
1374.47937 236.0
1374.572754 160.0
1374.829834 192.0
1374.994141 224.0
1375.117065 176.0
1375.213989 164.0
1375.396729 96.0
1375.61084 40.0
1375.662476 64.0
1375.721558 84.0
1375.802734 164.0
1375.886841 172.0
1376.021851 136.0
1376.123413 172.0
1376.215576 328.0
1376.23938 180.0
1376.254272 132.0
1376.307617 144.0
1376.356445 172.0
1376.482056 112.0
1376.540649 180.0
1376.635498 124.0
1376.698486 188.0
1376.779907 204.0
1376.891846 136.0
1376.96936 140.0
1377.094971 308.0
1377.207153 84.0
1377.368286 180.0
1377.47168 208.0
1377.59375 256.0
1377.78186 188.0
1377.889526 164.0
1378.059448 212.0
1378.145508 292.0
1378.230103 132.0
1378.245361 160.0
1378.400024 332.0
1378.515259 192.0
1378.646362 168.0
1378.712891 184.0
1378.822876 140.0
1378.997925 208.0
1379.104614 176.0
1379.162354 124.0
1379.267212 128.0
1379.33374 172.0
1379.410156 164.0
1379.475342 272.0
1379.545166 124.0
1379.615601 160.0
1379.729614 172.0
1379.820923 160.0
1379.9104 276.0
1380.023682 132.0
1380.118774 84.0
1380.191284 172.0
1380.277344 152.0
1380.352417 264.0
1380.442749 108.0
1380.563477 160.0
1380.63501 160.0
1380.710938 156.0
1380.75415 168.0
1380.859253 152.0
1380.953003 132.0
1381.012207 36.0
1381.184326 196.0
1381.307739 176.0
1381.335327 264.0
1381.394287 176.0
1381.474976 160.0
1381.550903 164.0
1381.744507 116.0
1381.935791 160.0
1381.951294 136.0
1381.990112 324.0
1382.063721 248.0
1382.144043 136.0
1382.195801 104.0
1382.300049 184.0
1382.403076 172.0
1382.504883 128.0
1382.55481 196.0
1382.660645 164.0
1382.862305 140.0
1382.940186 324.0
1383.154907 328.0
1383.246704 216.0
1383.332642 112.0
1383.394287 112.0
1383.419922 104.0
1383.439209 152.0
1383.488403 292.0
1383.546875 80.0
1383.624268 152.0
1383.712402 164.0
1383.779785 172.0
1383.898193 132.0
1383.950073 168.0
1384.016724 112.0
1384.098145 128.0
1384.176392 136.0
1384.305176 196.0
1384.379517 136.0
1384.498901 208.0
1384.594238 112.0
1384.646118 124.0
1384.760742 92.0
1384.838745 164.0
1384.897339 144.0
1384.92395 132.0
1384.937744 212.0
1385.001587 228.0
1385.14563 136.0
1385.166382 180.0
1385.251953 168.0
1385.318481 144.0
1385.32959 100.0
1385.446045 160.0
1385.579712 172.0
1385.669678 156.0
1385.734985 172.0
1385.809082 108.0
1385.868408 148.0
1385.935059 152.0
1386.001709 260.0
1386.095825 128.0
1386.231812 84.0
1386.349976 132.0
1386.485474 208.0
1386.533569 104.0
1386.70813 184.0
1386.779907 124.0
1386.854004 200.0
1386.900757 184.0
1386.955444 228.0
1387.02417 92.0
1387.049438 152.0
1387.066284 188.0
1387.168579 156.0
1387.217163 172.0
1387.322876 144.0
1387.390259 92.0
1387.414917 112.0
1387.580933 400.0
1387.67627 192.0
1387.736206 180.0
1387.817749 132.0
1387.986694 132.0
1388.072144 176.0
1388.277222 152.0
1388.396118 112.0
1388.543335 188.0
1388.674561 88.0
1388.863403 168.0
1388.942383 176.0
1389.007324 300.0
1389.1604 140.0
1389.259155 244.0
1389.348145 136.0
1389.575684 124.0
1389.689087 144.0
1389.773193 136.0
1389.831177 236.0
1390.005859 128.0
1390.130737 120.0
1390.243286 240.0
1390.332642 256.0
1390.40332 208.0
1390.518921 144.0
1390.603882 168.0
1390.703369 136.0
1390.783569 268.0
1390.90686 160.0
1390.970581 320.0
1391.022583 132.0
1391.104248 100.0
1391.184082 184.0
1391.419067 108.0
1391.466187 184.0
1391.516113 244.0
1391.586792 92.0
1391.711304 324.0
1391.738281 176.0
1391.943237 96.0
1392.022949 120.0
1392.042114 176.0
1392.099121 160.0
1392.174805 172.0
1392.273682 160.0
1392.359619 164.0
1392.440796 108.0
1392.55957 180.0
1392.619019 252.0
1392.683105 188.0
1392.705933 120.0
1392.735352 152.0
1392.755859 124.0
1392.848511 112.0
1392.906128 248.0
1392.987915 172.0
1393.076416 128.0
1393.252075 412.0
1393.307007 248.0
1393.443604 120.0
1393.636719 144.0
1393.705688 204.0
1393.815063 252.0
1393.919067 200.0
1393.991333 380.0
1394.16687 188.0
1394.281372 248.0
1394.398926 348.0
1394.54895 192.0
1394.676147 88.0
1394.773804 128.0
1394.840698 256.0
1394.981567 164.0
1395.123169 124.0
1395.186035 152.0
1395.290039 152.0
1395.367676 116.0
1395.747803 144.0
1395.836426 144.0
1395.940918 144.0
1396.05249 116.0
1396.134644 192.0
1396.235229 56.0
1396.325562 124.0
1396.454102 204.0
1396.506226 180.0
1396.568237 80.0
1396.650146 136.0
1396.759033 124.0
1396.937622 164.0
1397.099854 252.0
1397.254272 216.0
1397.387329 124.0
1397.493286 248.0
1397.552368 112.0
1397.636963 144.0
1397.822998 132.0
1397.880737 192.0
1397.987793 108.0
1398.083008 148.0
1398.455566 96.0
1398.552246 140.0
1398.708618 136.0
1398.857422 136.0
1398.976562 108.0
1399.071899 200.0
1399.116455 404.0
1399.223511 148.0
1399.475342 148.0
1399.617432 136.0
1399.868774 200.0
1400.108276 124.0
1400.205078 200.0
1400.279541 192.0
1400.448853 284.0
1400.52063 156.0
1400.696655 156.0
1400.760498 168.0
1400.952759 164.0
1400.97168 44.0
1401.005005 156.0
1401.195801 32.0
1401.255371 116.0
1401.367188 172.0
1401.456543 76.0
1401.575806 180.0
1401.658081 108.0
1401.814209 132.0
1401.881348 64.0
1402.046875 108.0
1402.119751 232.0
1402.202881 200.0
1402.291138 160.0
1402.359009 224.0
1402.470093 156.0
1402.578857 120.0
1402.793579 244.0
1402.852539 140.0
1402.923584 128.0
1402.98584 144.0
1403.082764 144.0
1403.147949 216.0
1403.208008 136.0
1403.286621 384.0
1403.375854 108.0
1403.544922 184.0
1403.617554 204.0
1403.849243 132.0
1403.956909 160.0
1404.033447 276.0
1404.076782 140.0
1404.207275 116.0
1404.376953 156.0
1404.457275 296.0
1404.677124 268.0
1404.871094 160.0
1404.974121 160.0
1405.110352 112.0
1405.222168 256.0
1405.4729 184.0
1405.553467 232.0
1405.654541 80.0
1405.727417 148.0
1405.841064 188.0
1405.934448 140.0
1406.023926 228.0
1406.201294 176.0
1406.311279 40.0
1406.363525 184.0
1406.435303 160.0
1406.512817 168.0
1406.560669 156.0
1406.619751 172.0
1406.733398 136.0
1406.80542 120.0
1406.953247 64.0
1407.017212 288.0
1407.112549 172.0
1407.217651 156.0
1407.268677 184.0
1407.382568 124.0
1407.505493 164.0
1407.580322 100.0
1407.654175 172.0
1407.76123 140.0
1407.790527 108.0
1407.806641 156.0
1407.871582 196.0
1407.954712 264.0
1408.050781 88.0
1408.13855 112.0
1408.20105 112.0
1408.275269 80.0
1408.401855 240.0
1408.518188 124.0
1408.633423 108.0
1408.730469 144.0
1408.797119 100.0
1408.811401 92.0
1408.888184 204.0
1409.021851 180.0
1409.156372 132.0
1409.242065 152.0
1409.330811 200.0
1409.440308 180.0
1409.552368 204.0
1409.939575 328.0
1410.09668 204.0
1410.215698 188.0
1410.29541 176.0
1410.422852 400.0
1410.487061 112.0
1410.546631 176.0
1410.635986 212.0
1410.764893 312.0
1410.867798 176.0
1411.089355 144.0
1411.166992 216.0
1411.278931 388.0
1411.346313 136.0
1411.421509 124.0
1411.540649 92.0
1411.663696 156.0
1411.746582 116.0
1411.801025 152.0
1411.899658 180.0
1411.981934 164.0
1412.066528 88.0
1412.214233 128.0
1412.310181 212.0
1412.453125 124.0
1412.527832 388.0
1412.637329 180.0
1412.719482 156.0
1412.854492 308.0
1413.01416 144.0
1413.088379 148.0
1413.191528 188.0
1413.255127 248.0
1413.309937 192.0
1413.380737 128.0
1413.461182 112.0
1413.549561 236.0
1413.661865 360.0
1413.788086 208.0
1413.88208 200.0
1413.977783 152.0
1414.112793 132.0
1414.171509 500.0
1414.278809 244.0
1414.401489 368.0
1414.563843 144.0
1414.733521 204.0
1414.803589 144.0
1414.862671 108.0
1414.959961 120.0
1415.08728 108.0
1415.172241 276.0
1415.240601 124.0
1415.364258 48.0
1415.499023 104.0
1415.561523 188.0
1415.645264 236.0
1415.728882 140.0
1415.787842 172.0
1415.85376 320.0
1415.990356 116.0
1416.075684 156.0
1416.19751 184.0
1416.276733 168.0
1416.389648 140.0
1416.450195 164.0
1416.533203 180.0
1416.726074 140.0
1416.956787 116.0
1417.087158 196.0
1417.174438 160.0
1417.235474 152.0
1417.303711 248.0
1417.404297 172.0
1417.509644 156.0
1417.622925 184.0
1417.676147 280.0
1417.783813 132.0
1417.855469 196.0
1418.030884 192.0
1418.171997 184.0
1418.290039 92.0
1418.377808 192.0
1418.555298 116.0
1418.570801 108.0
1418.645752 172.0
1418.878784 196.0
1418.902588 276.0
1419.02063 124.0
1419.128296 188.0
1419.22876 116.0
1419.410522 116.0
1419.526978 248.0
1419.76062 352.0
1419.81189 208.0
1419.874268 148.0
1419.964722 200.0
1420.038208 120.0
1420.159668 220.0
1420.287964 160.0
1420.348022 180.0
1420.490479 172.0
1420.611328 276.0
1420.659424 84.0
1420.672729 120.0
1420.738037 204.0
1420.798096 116.0
1420.876831 136.0
1420.94812 40.0
1421.007935 144.0
1421.08313 248.0
1421.179321 200.0
1421.267578 48.0
1421.297607 116.0
1421.500366 372.0
1421.633423 412.0
1421.780029 164.0
1421.87854 92.0
1421.930176 204.0
1422.003906 272.0
1422.137207 112.0
1422.229248 156.0
1422.327271 144.0
1422.4198 172.0
1422.515381 188.0
1422.636719 68.0
1422.70459 192.0
1422.846802 140.0
1422.914429 108.0
1423.094604 268.0
1423.162231 116.0
1423.22229 124.0
1423.282349 112.0
1423.409912 260.0
1423.459473 196.0
1423.529053 108.0
1423.70813 164.0
1423.802856 236.0
1423.931519 204.0
1424.071411 152.0
1424.148682 136.0
1424.292114 180.0
1424.348511 164.0
1424.446411 168.0
1424.499023 96.0
1424.61499 176.0
1424.683105 204.0
1424.859985 176.0
1424.9729 144.0
1425.05603 168.0
1425.11499 264.0
1425.31604 152.0
1425.400513 236.0
1425.505737 160.0
1425.643677 168.0
1425.745239 184.0
1425.813843 148.0
1425.964111 172.0
1426.024292 144.0
1426.088501 112.0
1426.197144 144.0
1426.249756 208.0
1426.436279 236.0
1426.549561 360.0
1426.65564 108.0
1426.776001 172.0
1426.87854 208.0
1426.944214 128.0
1427.039062 28.0
1427.145386 156.0
1427.212036 168.0
1427.283203 204.0
1427.414307 84.0
1427.489136 288.0
1427.643921 208.0
1427.727173 368.0
1427.781738 116.0
1427.804443 56.0
1427.875854 180.0
1427.924805 136.0
1428.091919 48.0
1428.15686 164.0
1428.271118 148.0
1428.377686 148.0
1428.437866 128.0
1428.490723 144.0
1428.573242 56.0
1428.664185 188.0
1428.712158 104.0
1428.733521 148.0
1428.964478 88.0
1429.041138 212.0
1429.23938 188.0
1429.270874 100.0
1429.296875 108.0
1429.377441 100.0
1429.453613 168.0
1429.587891 300.0
1429.684814 148.0
1429.835327 228.0
1429.890015 164.0
1429.942749 64.0
1430.005249 232.0
1430.153442 164.0
1430.273926 328.0
1430.424438 176.0
1430.480469 168.0
1430.665283 188.0
1430.733032 152.0
1430.811523 76.0
1430.981445 140.0
1431.079346 160.0
1431.158813 160.0
1431.248657 176.0
1431.321533 124.0
1431.414673 244.0
1431.530762 148.0
1431.586914 184.0
1431.696899 128.0
1431.817383 368.0
1431.937866 224.0
1432.094482 188.0
1432.148682 136.0
1432.244263 100.0
1432.332031 168.0
1432.407593 288.0
1432.573242 240.0
1432.638306 60.0
1432.739136 168.0
1432.817017 128.0
1432.911499 152.0
1432.983398 140.0
1432.997437 144.0
1433.082886 96.0
1433.162842 156.0
1433.342163 128.0
1433.421875 124.0
1433.479736 188.0
1433.706665 216.0
1433.813721 312.0
1433.921265 108.0
1434.02478 308.0
1434.113892 116.0
1434.141479 176.0
1434.228271 124.0
1434.337769 132.0
1434.463257 112.0
1434.612671 72.0
1434.762451 204.0
1434.782227 176.0
1434.926147 228.0
1435.054688 188.0
1435.192383 104.0
1435.259888 192.0
1435.401855 196.0
1435.581299 104.0
1435.68335 172.0
1435.856689 152.0
1435.944946 148.0
1436.00769 144.0
1436.188354 156.0
1436.306396 144.0
1436.430054 144.0
1436.514038 144.0
1436.565796 332.0
1436.618652 348.0
1436.666992 128.0
1436.829834 96.0
1436.950195 180.0
1437.009521 164.0
1437.100708 136.0
1437.122925 80.0
1437.181274 132.0
1437.352417 112.0
1437.459351 312.0
1437.516724 104.0
1437.632324 128.0
1437.750366 120.0
1437.839844 192.0
1437.92395 168.0
1438.077515 132.0
1438.192017 116.0
1438.301392 176.0
1438.399536 224.0
1438.481445 112.0
1438.522217 128.0
1438.618408 192.0
1438.678833 148.0
1438.806152 116.0
1438.950562 164.0
1439.010986 132.0
1439.127808 192.0
1439.185913 212.0
1439.28186 136.0
1439.414673 112.0
1439.519653 160.0
1439.601685 124.0
1439.667969 120.0
1439.720825 88.0
1439.803833 48.0
1439.939819 160.0
1440.006836 156.0
1440.067261 136.0
1440.135254 172.0
1440.219238 120.0
1440.388428 84.0
1440.479736 188.0
1440.56665 244.0
1440.677002 204.0
1440.743164 272.0
1440.846313 180.0
1440.957275 228.0
1441.072876 156.0
1441.149536 168.0
1441.219727 220.0
1441.27771 184.0
1441.366577 180.0
1441.435547 40.0
1441.541382 80.0
1441.629761 164.0
1441.771851 508.0
1441.825073 352.0
1441.926758 48.0
1442.032349 144.0
1442.065552 140.0
1442.089722 172.0
1442.168457 164.0
1442.284424 176.0
1442.302002 56.0
1442.332153 156.0
1442.429932 256.0
1442.565796 436.0
1442.70166 156.0
1442.758179 132.0
1442.833862 244.0
1442.932983 136.0
1443.037964 120.0
1443.142822 224.0
1443.21936 52.0
1443.31897 388.0
1443.439819 108.0
1443.547729 84.0
1443.748657 164.0
1443.854248 160.0
1443.951538 112.0
1444.086914 156.0
1444.151123 132.0
1444.18042 160.0
1444.203979 144.0
1444.226929 188.0
1444.315918 172.0
1444.411011 128.0
1444.493164 292.0
1444.555054 176.0
1444.626099 136.0
1444.781372 144.0
1444.837891 236.0
1444.93689 296.0
1445.015747 208.0
1445.117188 140.0
1445.214478 104.0
1445.283081 156.0
1445.302856 124.0
1445.332886 216.0
1445.453735 164.0
1445.508789 60.0
1445.604126 176.0
1445.692871 136.0
1445.787231 128.0
1445.83667 232.0
1445.893188 112.0
1445.955933 180.0
1446.069702 124.0
1446.131836 192.0
1446.199951 164.0
1446.292847 164.0
1446.425293 104.0
1446.602295 160.0
1446.7677 136.0
1446.828247 140.0
1446.911499 96.0
1446.985107 328.0
1447.074951 132.0
1447.131104 112.0
1447.207397 316.0
1447.342896 148.0
1447.456665 208.0
1447.561401 212.0
1447.684082 144.0
1447.715088 128.0
1447.732666 160.0
1447.807983 340.0
1447.890869 168.0
1447.947144 172.0
1448.030029 248.0
1448.203491 104.0
1448.336792 144.0
1448.410889 348.0
1448.481445 180.0
1448.543823 124.0
1448.623047 124.0
1448.683594 160.0
1448.795532 180.0
1448.899292 328.0
1449.032104 100.0
1449.196045 160.0
1449.266968 132.0
1449.335205 108.0
1449.532104 260.0
1449.615479 116.0
1449.668579 184.0
1449.774658 312.0
1449.941406 128.0
1450.039917 92.0
1450.153564 112.0
1450.214233 168.0
1450.307373 184.0
1450.418823 108.0
1450.501343 276.0
1450.510864 132.0
1450.700684 132.0
1450.76001 208.0
1450.829712 140.0
1450.919189 188.0
1451.032837 72.0
1451.143799 144.0
1451.206909 200.0
1451.234863 192.0
1451.261719 132.0
1451.366455 136.0
1451.501831 180.0
1451.670044 220.0
1451.753174 136.0
1451.846802 356.0
1451.957397 196.0
1452.101318 252.0
1452.158081 148.0
1452.331787 136.0
1452.397827 168.0
1452.458496 112.0
1452.516968 392.0
1452.715332 128.0
1452.828857 224.0
1452.890991 156.0
1453.012329 84.0
1453.071167 348.0
1453.136353 128.0
1453.244995 304.0
1453.376465 84.0
1453.475098 148.0
1453.619263 44.0
1453.74707 220.0
1453.815796 176.0
1453.975952 108.0
1454.05188 132.0
1454.112549 140.0
1454.188477 188.0
1454.241577 144.0
1454.334717 236.0
1454.421875 132.0
1454.575562 188.0
1454.639771 168.0
1454.668457 176.0
1454.698242 208.0
1454.828003 172.0
1454.959351 160.0
1455.052246 324.0
1455.251221 88.0
1455.372681 124.0
1455.44104 140.0
1455.507202 192.0
1455.690552 292.0
1455.788452 112.0
1455.842041 212.0
1455.902466 324.0
1456.028198 364.0
1456.124512 80.0
1456.213257 212.0
1456.279175 268.0
1456.378052 228.0
1456.466309 176.0
1456.534668 228.0
1456.680786 120.0
1456.756958 140.0
1456.898315 204.0
1457.066406 140.0
1457.134766 344.0
1457.230591 92.0
1457.375244 108.0
1457.43103 36.0
1457.552124 284.0
1457.608765 136.0
1457.670654 160.0
1457.777832 292.0
1457.968018 168.0
1458.041626 160.0
1458.17334 120.0
1458.193481 308.0
1458.358154 280.0
1458.436157 172.0
1458.514404 212.0
1458.628906 136.0
1458.737061 228.0
1458.764893 240.0
1458.805908 152.0
1458.829712 160.0
1458.914185 140.0
1459.031372 236.0
1459.118408 148.0
1459.210571 124.0
1459.354004 140.0
1459.457153 216.0
1459.534668 176.0
1459.547119 224.0
1459.57959 132.0
1459.665771 192.0
1459.795044 64.0
1459.871094 120.0
1459.970215 228.0
1460.144531 156.0
1460.263916 232.0
1460.357788 140.0
1460.418701 332.0
1460.502319 80.0
1460.567871 200.0
1460.620605 212.0
1460.719238 156.0
1460.859863 160.0
1461.100464 164.0
1461.224976 136.0
1461.290039 132.0
1461.360229 144.0
1461.418823 260.0
1461.613647 168.0
1461.765259 132.0
1461.848999 132.0
1461.928711 200.0
1462.022949 272.0
1462.145752 164.0
1462.320801 116.0
1462.47876 164.0
1462.571899 92.0
1462.632812 136.0
1462.705078 124.0
1462.770996 236.0
1462.856689 128.0
1462.929688 56.0
1463.011475 152.0
1463.040039 112.0
1463.125122 240.0
1463.241821 116.0
1463.488281 140.0
1463.553589 132.0
1463.584229 124.0
1463.683472 144.0
1463.816895 108.0
1463.88147 84.0
1463.96521 64.0
1464.108887 240.0
1464.183838 136.0
1464.269775 124.0
1464.376465 184.0
1464.448608 184.0
1464.521606 136.0
1464.633423 92.0
1464.709717 132.0
1464.786621 132.0
1464.955322 156.0
1465.008667 216.0
1465.122925 92.0
1465.248291 176.0
1465.305786 140.0
1465.412476 156.0
1465.465698 88.0
1465.52478 140.0
1465.589233 160.0
1465.65625 92.0
1465.725342 104.0
1465.781128 124.0
1465.928589 168.0
1466.018188 404.0
1466.062378 164.0
1466.151489 120.0
1466.227783 128.0
1466.288696 164.0
1466.355469 136.0
1466.414917 100.0
1466.429565 192.0
1466.528198 104.0
1466.662964 156.0
1466.747314 168.0
1466.80127 168.0
1466.869873 164.0
1466.987427 188.0
1467.079956 148.0
1467.133423 172.0
1467.194458 208.0
1467.283691 120.0
1467.348022 104.0
1467.362915 100.0
1467.398438 96.0
1467.412231 156.0
1467.52417 160.0
1467.592285 216.0
1467.7052 132.0
1467.793945 348.0
1467.921875 120.0
1468.031616 156.0
1468.050049 96.0
1468.077026 160.0
1468.152222 184.0
1468.23584 128.0
1468.415771 152.0
1468.484497 100.0
1468.567871 192.0
1468.579224 180.0
1468.70105 388.0
1468.757812 208.0
1468.782104 212.0
1468.995483 240.0
1469.12146 140.0
1469.214844 176.0
1469.292969 168.0
1469.418091 160.0
1469.516968 256.0
1469.596191 228.0
1469.720215 132.0
1469.814087 204.0
1469.979736 148.0
1470.050049 128.0
1470.155273 140.0
1470.223877 200.0
1470.333374 128.0
1470.415283 108.0
1470.46814 144.0
1470.524536 220.0
1470.594604 160.0
1470.639282 160.0
1470.766846 156.0
1470.826782 132.0
1470.880249 208.0
1470.999268 212.0
1471.152832 200.0
1471.254272 76.0
1471.307739 136.0
1471.425293 140.0
1471.484741 128.0
1471.559692 92.0
1471.62561 140.0
1471.668701 140.0
1471.821045 104.0
1471.89563 228.0
1472.014526 184.0
1472.086548 220.0
1472.23877 252.0
1472.353882 136.0
1472.428711 160.0
1472.55542 184.0
1472.639526 100.0
1472.702148 220.0
1472.896484 216.0
1473.018311 68.0
1473.151978 224.0
1473.285645 124.0
1473.346802 176.0
1473.476685 240.0
1473.54541 196.0
1473.641235 472.0
1473.707642 128.0
1473.841187 208.0
1473.958008 216.0
1474.051392 208.0
1474.173462 368.0
1474.252319 356.0
1474.317139 168.0
1474.378296 112.0
1474.561279 188.0
1474.722412 188.0
1474.841431 60.0
1475.005005 144.0
1475.068359 268.0
1475.152344 212.0
1475.297607 220.0
1475.361816 144.0
1475.414673 168.0
1475.548462 380.0
1475.647217 84.0
1475.702271 160.0
1475.774658 124.0
1475.845947 164.0
1475.913696 80.0
1475.935669 152.0
1476.038086 108.0
1476.152588 152.0
1476.282227 160.0
1476.358276 108.0
1476.473022 124.0
1476.608276 180.0
1476.743896 124.0
1476.874512 296.0
1477.053833 132.0
1477.14209 196.0
1477.255371 208.0
1477.582153 228.0
1477.685303 184.0
1477.811646 128.0
1477.880493 108.0
1477.982666 104.0
1478.065063 104.0
1478.125366 96.0
1478.27356 256.0
1478.385498 164.0
1478.523071 132.0
1478.653442 132.0
1478.764771 164.0
1478.890625 140.0
1478.964722 100.0
1479.04541 252.0
1479.150879 112.0
1479.232544 240.0
1479.349976 156.0
1479.411133 164.0
1479.598877 156.0
1479.661743 160.0
1479.778687 80.0
1479.847534 164.0
1479.99353 176.0
1480.104736 540.0
1480.161499 196.0
1480.299316 264.0
1480.444824 140.0
1480.508667 184.0
1480.678101 144.0
1480.801392 216.0
1480.863892 324.0
1481.004395 160.0
1481.144287 168.0
1481.310303 244.0
1481.40979 208.0
1481.55542 144.0
1481.631836 144.0
1481.739258 140.0
1481.83728 176.0
1481.924072 100.0
1482.079102 156.0
1482.143921 108.0
1482.179077 208.0
1482.275635 88.0
1482.345215 132.0
1482.405884 116.0
1482.456177 92.0
1482.543823 152.0
1482.597412 136.0
1482.666382 136.0
1482.761719 176.0
1482.778076 140.0
1482.806763 180.0
1482.934448 140.0
1483.049683 80.0
1483.118652 124.0
1483.226318 68.0
1483.261597 92.0
1483.321167 252.0
1483.406616 204.0
1483.500244 148.0
1483.555542 200.0
1483.618408 132.0
1483.923462 184.0
1484.015747 180.0
1484.108032 128.0
1484.187744 192.0
1484.245605 168.0
1484.334839 112.0
1484.414185 100.0
1484.525635 340.0
1484.621948 128.0
1484.744019 116.0
1484.865234 148.0
1484.880493 60.0
1484.98938 208.0
1485.150513 92.0
1485.389038 244.0
1485.599365 92.0
1485.71814 212.0
1485.853271 360.0
1485.971313 420.0
1486.243652 136.0
1486.324829 160.0
1486.408569 88.0
1486.479248 184.0
1486.586182 152.0
1486.691528 172.0
1486.800049 176.0
1486.911133 272.0
1487.017578 136.0
1487.126343 272.0
1487.195801 184.0
1487.383301 100.0
1487.498413 252.0
1487.557251 152.0
1487.646606 148.0
1487.70874 184.0
1487.805542 324.0
1487.870605 92.0
1487.904419 144.0
1487.972412 340.0
1488.064331 328.0
1488.217896 252.0
1488.346436 184.0
1488.403687 184.0
1488.463501 132.0
1488.537598 208.0
1488.634766 152.0
1488.714355 212.0
1488.771729 188.0
1488.849731 220.0
1488.979614 128.0
1489.07251 28.0
1489.140015 120.0
1489.225952 184.0
1489.239746 144.0
1489.266968 400.0
1489.359741 124.0
1489.446655 196.0
1489.556396 156.0
1489.673096 224.0
1489.748901 108.0
1489.839966 144.0
1489.894287 340.0
1489.989746 132.0
1490.10791 100.0
1490.137939 120.0
1490.185913 196.0
1490.251099 136.0
1490.378418 196.0
1490.44751 252.0
1490.52356 148.0
1490.538818 132.0
1490.586304 196.0
1490.719727 144.0
1490.765625 100.0
1490.834106 104.0
1490.931641 148.0
1491.079834 168.0
1491.177979 228.0
1491.235107 140.0
1491.314331 196.0
1491.762329 144.0
1491.900146 152.0
1491.956909 132.0
1492.053833 76.0
1492.159668 312.0
1492.261475 152.0
1492.34375 352.0
1492.515137 200.0
1492.588013 168.0
1492.646118 156.0
1492.74585 184.0
1492.799683 80.0
1492.875 172.0
1493.045776 200.0
1493.229126 228.0
1493.25708 184.0
1493.341675 208.0
1493.39624 196.0
1493.543945 196.0
1493.772827 160.0
1493.883911 124.0
1493.912842 108.0
1493.94165 204.0
1494.007202 168.0
1494.097412 212.0
1494.213501 104.0
1494.28418 144.0
1494.376221 116.0
1494.425049 64.0
1494.538208 176.0
1494.80249 120.0
1494.86731 132.0
1494.884277 164.0
1495.022827 180.0
1495.164307 156.0
1495.222168 112.0
1495.248657 172.0
1495.307617 176.0
1495.376831 216.0
1495.484619 108.0
1495.605347 156.0
1495.715576 120.0
1495.81311 88.0
1495.871704 284.0
1495.984497 392.0
1496.185913 176.0
1496.277466 184.0
1496.567871 344.0
1496.631836 148.0
1496.762573 228.0
1496.843628 164.0
1496.947388 176.0
1497.109009 148.0
1497.252197 172.0
1497.363159 172.0
1497.417114 88.0
1497.555786 184.0
1497.625 212.0
1497.733887 128.0
1497.892212 232.0
1497.949097 124.0
1498.105835 292.0
1498.25415 216.0
1498.356567 276.0
1498.516357 172.0
1498.619873 152.0
1498.749023 204.0
1498.880737 280.0
1498.954712 332.0
1499.044678 256.0
1499.167358 148.0
1499.294067 204.0
1499.341187 296.0
1499.392334 152.0
1499.512695 316.0
1499.643677 164.0
1499.705322 156.0
1499.790161 76.0
1499.879395 296.0
1500.093384 128.0
1500.203857 156.0
1500.347778 84.0
1500.437622 116.0
1500.588623 104.0
1500.713135 144.0
1500.812988 148.0
1500.833496 132.0
1500.925415 240.0
1501.046387 264.0
1501.123901 120.0
1501.185547 152.0
1501.282471 336.0
1501.394897 196.0
1501.548096 196.0
1501.772461 168.0
1501.832764 240.0
1501.849243 156.0
1502.033936 108.0
1502.110107 128.0
1502.203613 152.0
1502.263062 124.0
1502.380249 56.0
1502.482788 152.0
1502.569336 172.0
1502.582886 204.0
1502.641968 224.0
1502.724609 184.0
1502.776855 212.0
1502.897949 120.0
1502.967163 224.0
1503.07251 144.0
1503.178223 148.0
1503.299194 48.0
1503.36792 364.0
1503.433838 264.0
1503.538208 128.0
1503.623413 136.0
1503.706177 60.0
1503.815186 228.0
1503.908936 312.0
1503.962891 240.0
1504.024658 128.0
1504.086426 204.0
1504.190063 296.0
1504.290894 156.0
1504.409058 176.0
1504.580444 168.0
1504.746338 216.0
1504.853149 128.0
1504.963135 216.0
1505.080322 188.0
1505.161621 152.0
1505.249268 328.0
