>compound 5,6-dihydro-6-hydroxy-1-[(2E)-1-oxo-3-(3,4,5-trimethoxyphenyl)-2-propen-1-yl]-2(1H)-Pyridinone
>formula C17H19NO6
>ionization [M+H]+
>parentmass 334.12851378009054
#inchi InChI=1S/C17H19NO6/c1-22-12-9-11(10-13(23-2)17(12)24-3)7-8-16(21)18-14(19)5-4-6-15(18)20/h4-5,7-10,15,20H,6H2,1-3H3/b8-7+
#inchikey SDVHSXZSEQRFSU
#Ion_Source DI-ESI
#Instrument qTof
#Compound_Source Isolated
#PI Norberto Lopes
#Data_Collector Monica Pupo
#Scan -1
#Precursor_MZ 334.11
#ExactMass 333.121
#Charge 1
#CAS_Number 1603829-48-6
#Pubmed_ID N/A
#Smiles O=C(N1C(O)CC=CC1=O)/C=C/C2=CC(OC)=C(OC)C(OC)=C2
#INCHI_AUX N/A
#Library_Class 3
#SpectrumID CCMSLIB00000081552
#IonMode Positive
#UpdateWorkflowName UPDATE-SINGLE-ANNOTATED-BRONZE
#LibraryQualityString Bronze
#TaskID 4a07f16a650f4095b43fe6b0b09ff8bb
##Scan# 1
#SpectrumFile gnps_5_6_dihydro_6_hydroxy_pos_MplusH.mgf
#LibraryName gnps_library.mgf
#MQScore -1
#Organism batch_27_05
#TIC_Query 0
#RT_Query -1
#MZErrorPPM -1
#SharedPeaks 0
#MassDiff 0
#LibMZ -1
#SpecMZ 334.11
#SpecCharge 0
#internalFilename spec-00000.mgf

>collision 10
119.039078 589.0
130.032288 799.0
131.04071 517.0
132.046265 567.0
133.053482 720.0
135.033569 1358.0
147.033081 4560.0
148.039383 1120.0
149.047607 795.0
150.055573 811.0
160.04071 1199.0
161.047195 2099.0
162.055527 9034.0
163.057617 3568.0
165.076065 575.0
174.018677 863.0
175.026413 3748.0
176.035706 2978.0
177.042404 2247.0
178.0504 9019.0
179.191391 1121.0
180.065796 785.0
188.036545 856.0
189.042145 2966.0
190.049683 40253.0
191.050262 10001.0
192.040482 1729.0
193.074524 29532.0
195.086655 908.0
205.060135 2671.0
206.045135 16875.0
207.049332 2468.0
208.049835 359.0
209.865814 369.0
221.067307 111715.0
222.069672 19422.0
223.068985 2687.0
226.065628 1222.0
