>compound Dexamethasone
>formula C22H29FO5 
>ionization [M+H]+
>parentmass 393.20717870009054
#inchi InChI=1S/C22H29FO5/c1-12-8-16-15-5-4-13-9-14(25)6-7-19(13,2)21(15,23)17(26)10-20(16,3)22(12,28)18(27)11-24/h6-7,9,12,15-17,24,26,28H,4-5,8,10-11H2,1-3H3/t12-,15+,16+,17+,19+,20+,21+,22+/m1/s1
#inchikey UREBDLICKHMUKA
#Ion_Source LC-ESI
#Instrument qTof
#Compound_Source Commercial
#PI Dorrestein
#Data_Collector Garg_Neha
#Scan -1
#Precursor_MZ 393.21
#ExactMass 392.2
#Charge 1
#CAS_Number N/A
#Pubmed_ID N/A
#Smiles N/A
#INCHI_AUX N/A
#Library_Class 1
#SpectrumID CCMSLIB00000077114
#IonMode Positive
#UpdateWorkflowName UPDATE-SINGLE-ANNOTATED-GOLD
#LibraryQualityString Gold
#TaskID 48f7f52fc6d249b5abbcc6e7b3df5969
##Scan# 1237
#SpectrumFile NCP003106_G2_H11_BB5_01_15708.mzXML
#LibraryName NIH_Clinical_Collection_2.mgf
#MQScore -1
#Organism NIHcollection2_04212014_2_mgf
#TIC_Query 0
#RT_Query -1
#MZErrorPPM -1
#SharedPeaks 0
#MassDiff 0
#LibMZ -1
#SpecMZ 393.21
#SpecCharge 0
#internalFilename spec-00000.mgf

>collision 10
45.569202 144.0
45.855831 204.0
46.083889 168.0
46.50098 164.0
46.939034 192.0
47.758015 204.0
48.383129 140.0
48.903683 208.0
49.193619 208.0
50.446709 160.0
51.979252 140.0
52.974087 216.0
53.222755 200.0
53.379021 176.0
53.578426 188.0
54.026615 208.0
54.259472 152.0
54.461983 176.0
54.497795 200.0
54.791492 180.0
55.714664 164.0
56.244801 148.0
56.319458 148.0
56.370255 140.0
56.844952 168.0
56.955685 196.0
57.232769 152.0
57.93507 164.0
58.737717 176.0
59.196224 144.0
59.805721 200.0
60.036823 140.0
61.738934 156.0
62.224686 140.0
63.032707 172.0
63.170258 164.0
63.863438 172.0
63.887299 180.0
64.166 176.0
64.496445 228.0
65.298126 144.0
65.586334 196.0
65.602455 168.0
65.910576 220.0
65.936577 208.0
67.801704 204.0
68.397911 168.0
68.811691 200.0
70.155518 152.0
70.190529 192.0
70.519409 156.0
72.557976 160.0
72.902542 152.0
74.103813 196.0
74.213509 252.0
75.021561 148.0
75.23893 192.0
76.033432 144.0
76.144547 148.0
76.346138 212.0
76.966499 172.0
77.235634 140.0
78.195389 164.0
81.352371 148.0
81.494255 184.0
81.566139 184.0
81.593102 180.0
81.951263 152.0
82.1604 164.0
82.726044 152.0
82.812958 196.0
83.101189 184.0
83.288177 196.0
84.191544 148.0
84.390724 140.0
85.21183 164.0
85.312904 156.0
85.401169 152.0
85.506042 156.0
85.673599 168.0
85.95385 152.0
87.079414 204.0
87.308014 176.0
87.332191 144.0
89.508736 196.0
89.59726 148.0
89.849884 192.0
90.325935 144.0
91.054649 328.0
91.858894 164.0
92.659904 168.0
93.075455 176.0
93.135651 252.0
93.239395 148.0
93.414368 228.0
94.601158 140.0
94.876251 144.0
95.088669 368.0
96.668182 180.0
98.834702 148.0
99.042572 200.0
100.875244 144.0
101.157295 196.0
101.269424 196.0
103.051765 156.0
103.266045 200.0
103.381363 148.0
103.940651 164.0
104.672424 208.0
104.721298 164.0
105.068642 812.0
105.680763 144.0
105.901848 140.0
106.078064 168.0
107.086388 884.0
108.05632 152.0
108.088707 344.0
108.436111 164.0
109.064735 180.0
109.103195 288.0
109.558174 164.0
110.069168 316.0
110.108841 208.0
111.081718 144.0
113.061714 620.0
113.380379 144.0
114.059319 180.0
114.973267 236.0
115.009552 164.0
115.054153 288.0
115.076385 664.0
115.312843 144.0
116.182205 140.0
116.321693 168.0
117.054657 152.0
117.07093 432.0
117.367271 148.0
117.658546 144.0
118.086388 144.0
119.086693 1276.0
119.126823 224.0
119.181137 196.0
119.790298 188.0
120.087837 284.0
121.065643 2972.0
121.101501 816.0
122.070061 504.0
122.735901 152.0
122.866035 148.0
123.018303 192.0
123.079704 368.0
124.085365 168.0
124.959686 156.0
125.061546 520.0
125.095703 328.0
126.063423 148.0
127.587578 172.0
128.06279 576.0
128.772827 248.0
129.068359 612.0
129.87056 144.0
130.076691 180.0
130.651978 148.0
131.054352 340.0
131.087097 1396.0
132.05687 160.0
132.093719 200.0
133.064377 904.0
133.100754 460.0
134.068283 164.0
134.102127 180.0
135.044876 180.0
135.080627 2352.0
135.116806 172.0
135.260941 164.0
136.082489 160.0
136.638519 140.0
136.675735 156.0
137.05864 476.0
137.094742 1224.0
137.540359 172.0
138.384277 204.0
138.670654 144.0
139.074387 636.0
139.108093 140.0
139.195572 156.0
140.05162 172.0
141.067627 328.0
141.094193 204.0
142.08017 328.0
143.08725 1424.0
144.012726 140.0
144.057007 368.0
144.086716 292.0
145.062973 1248.0
145.100357 1244.0
145.125504 180.0
146.050079 188.0
146.071548 372.0
146.103317 152.0
146.241455 104.0
146.673721 164.0
147.021027 156.0
147.045166 188.0
147.080719 11152.0
147.136887 164.0
147.656403 196.0
147.830582 172.0
148.083893 1480.0
148.917725 200.0
149.009003 192.0
149.097137 2732.0
149.254486 168.0
150.097183 440.0
150.149353 144.0
150.492264 148.0
150.685211 176.0
150.996475 240.0
151.076416 504.0
151.112656 304.0
151.936264 188.0
152.110489 192.0
152.437149 160.0
153.090775 1624.0
153.266388 152.0
154.094635 316.0
154.765686 152.0
155.087326 884.0
155.49202 152.0
156.095215 128.0
156.892426 144.0
157.062851 292.0
157.100067 848.0
157.241638 156.0
158.011276 140.0
158.070709 776.0
158.104462 480.0
158.535248 168.0
159.080658 3496.0
159.118103 384.0
159.312393 168.0
160.085312 420.0
160.500336 172.0
161.059753 636.0
161.09581 2920.0
161.915466 148.0
162.100021 396.0
163.049515 168.0
163.075806 944.0
163.110458 344.0
163.909637 152.0
164.076294 164.0
165.070847 436.0
165.090988 320.0
165.372971 148.0
165.859619 148.0
166.098083 296.0
167.084351 456.0
167.106201 1000.0
167.365082 192.0
167.926865 140.0
168.058426 240.0
168.093475 308.0
168.489594 180.0
169.065628 520.0
169.103851 412.0
169.239639 176.0
169.833084 176.0
170.075546 736.0
170.107391 296.0
170.937225 216.0
171.080109 5820.0
171.117615 448.0
171.154831 100.0
171.215759 140.0
171.75267 140.0
172.059769 140.0
172.085892 1312.0
172.374023 144.0
173.033142 228.0
173.061646 236.0
173.096878 4700.0
173.727631 220.0
174.098938 808.0
174.131866 168.0
174.234299 156.0
174.63649 148.0
174.797272 176.0
175.073792 300.0
175.109894 600.0
176.059677 196.0
176.392578 172.0
177.003723 224.0
177.092255 2400.0
177.152054 224.0
178.077728 264.0
178.096466 368.0
178.545532 172.0
179.059174 152.0
179.090195 728.0
179.421555 144.0
180.045944 164.0
180.091919 428.0
180.417343 168.0
181.061005 300.0
181.100098 868.0
182.073166 648.0
182.110046 184.0
183.077698 1188.0
183.117554 488.0
183.485931 204.0
183.537155 156.0
184.082397 400.0
184.120041 148.0
184.817459 148.0
185.061935 324.0
185.096481 5372.0
185.19104 152.0
185.619232 144.0
185.829407 136.0
186.099319 1000.0
186.137512 164.0
186.681 156.0
186.795227 164.0
187.076172 2040.0
187.10994 1312.0
187.339661 148.0
187.530396 144.0
187.557663 148.0
188.080704 196.0
188.114502 348.0
189.08696 736.0
189.182983 232.0
190.079178 488.0
190.966553 160.0
191.081467 408.0
192.091461 312.0
193.097916 576.0
193.477631 172.0
194.075378 404.0
194.106079 324.0
194.395065 236.0
195.082382 1112.0
195.104263 1592.0
196.088394 656.0
196.12439 480.0
197.095078 2556.0
197.123474 408.0
197.129852 308.0
197.179947 152.0
197.78688 160.0
198.100998 532.0
198.504105 152.0
198.571396 256.0
199.072876 276.0
199.112747 1052.0
199.357483 160.0
200.124069 196.0
200.939926 148.0
201.092194 384.0
201.126205 180.0
203.107681 900.0
204.093094 1448.0
205.10141 768.0
205.168518 188.0
206.109772 464.0
207.076324 288.0
207.118332 832.0
207.796799 220.0
207.859924 152.0
208.087555 1644.0
208.121887 180.0
208.888458 228.0
209.095993 2112.0
209.130127 540.0
210.100327 1016.0
210.14032 140.0
210.976288 192.0
211.079285 328.0
211.112244 3580.0
211.62146 144.0
212.119263 2076.0
212.17514 192.0
212.290802 192.0
213.093262 544.0
213.127258 2308.0
213.487244 200.0
213.853821 156.0
214.102005 160.0
214.129684 692.0
214.249832 228.0
215.068604 164.0
215.106003 828.0
215.144058 140.0
215.928223 148.0
216.110382 272.0
216.153976 144.0
217.101044 280.0
217.422379 156.0
218.01265 140.0
218.11293 268.0
219.086609 172.0
219.118362 2040.0
219.701309 156.0
220.085358 624.0
220.122177 448.0
221.096313 1792.0
221.131744 1188.0
221.61264 228.0
222.104919 3616.0
222.339142 144.0
222.62413 144.0
222.653625 116.0
223.073563 180.0
223.112228 4772.0
223.150894 300.0
224.082672 160.0
224.116821 2012.0
225.09201 632.0
225.12645 1848.0
225.161453 152.0
226.098343 560.0
226.133255 776.0
226.39357 164.0
227.106918 824.0
227.14119 2000.0
227.190857 152.0
227.700241 176.0
227.728165 164.0
228.061676 240.0
228.111694 156.0
228.147598 432.0
228.368362 172.0
229.087372 168.0
229.126923 148.0
229.971252 176.0
230.111237 520.0
231.113937 600.0
232.088409 256.0
232.121552 124.0
233.097748 740.0
233.131454 264.0
234.102066 572.0
234.17775 160.0
234.606262 208.0
235.112656 4368.0
235.375107 200.0
235.775284 152.0
236.11882 1560.0
236.151245 140.0
236.621613 112.0
236.720566 152.0
237.127853 11884.0
237.483673 140.0
237.515335 148.0
237.762863 196.0
238.131165 2616.0
239.106857 528.0
239.1427 4456.0
239.918228 120.0
240.109314 596.0
240.148087 572.0
241.122055 2376.0
241.155304 544.0
242.099228 148.0
242.126053 592.0
242.163177 212.0
243.113693 324.0
243.697968 188.0
244.085526 328.0
244.124222 276.0
244.518906 192.0
244.602936 180.0
244.708786 180.0
245.098511 496.0
245.134079 252.0
246.102249 540.0
246.141693 352.0
246.908691 188.0
247.027542 184.0
247.112228 972.0
247.148636 448.0
248.118652 2048.0
248.164185 132.0
249.096115 268.0
249.128052 1912.0
249.158813 520.0
250.093811 128.0
250.133102 704.0
250.171921 144.0
250.331329 120.0
251.10788 576.0
251.140213 1648.0
251.175354 176.0
252.115723 604.0
252.146286 524.0
252.668198 224.0
253.025818 168.0
253.122543 2344.0
253.157547 1240.0
253.682663 188.0
254.126434 452.0
254.159363 172.0
254.779602 140.0
255.102264 296.0
255.136627 2064.0
256.140869 392.0
256.609558 152.0
256.82962 176.0
257.132599 224.0
258.096832 320.0
258.144043 584.0
258.423706 208.0
259.113983 544.0
260.116272 476.0
260.674622 160.0
261.128052 1748.0
261.160492 404.0
261.86496 176.0
262.022797 176.0
262.09613 356.0
262.134918 3132.0
262.170349 176.0
263.108582 420.0
263.144348 3672.0
263.316284 160.0
264.117279 236.0
264.150024 1284.0
265.117584 564.0
265.157898 1384.0
266.160797 272.0
266.718353 164.0
267.138031 2380.0
267.175629 996.0
268.140778 572.0
268.175598 320.0
269.148224 300.0
269.194 320.0
270.073547 140.0
270.152069 144.0
271.11261 828.0
271.148895 600.0
271.658966 164.0
272.128143 228.0
272.561829 212.0
273.130554 452.0
273.158844 312.0
274.132233 448.0
274.177612 216.0
274.995483 160.0
275.102295 176.0
275.145386 2376.0
276.150513 1596.0
277.119995 452.0
277.158234 6832.0
278.080139 184.0
278.130737 264.0
278.164673 2596.0
279.001923 104.0
279.140106 792.0
279.175507 8688.0
279.605133 184.0
280.138916 312.0
280.177795 2000.0
280.471588 188.0
281.121155 372.0
281.153687 692.0
281.189056 624.0
282.155945 264.0
282.184143 176.0
283.152039 232.0
285.142883 240.0
285.325562 140.0
286.134277 944.0
287.14917 256.0
288.148712 280.0
289.11734 240.0
289.158112 1952.0
289.712799 152.0
290.131195 148.0
290.166046 288.0
290.803619 208.0
290.906494 156.0
291.103424 140.0
291.135498 540.0
291.17572 6636.0
291.23587 184.0
291.402313 152.0
292.138733 136.0
292.177338 1412.0
293.153015 548.0
294.156647 416.0
295.105286 184.0
295.168976 1800.0
295.661285 152.0
295.890625 164.0
296.135651 152.0
296.170837 1080.0
297.18457 1764.0
297.261658 144.0
298.185547 780.0
299.143188 156.0
299.187103 152.0
299.269043 216.0
301.158691 3516.0
301.455933 156.0
302.165497 840.0
304.146667 568.0
305.45694 228.0
306.15799 412.0
307.169617 3536.0
308.172943 820.0
309.185669 6508.0
310.188629 1212.0
310.360992 212.0
311.166321 516.0
311.45871 140.0
312.177917 292.0
313.176483 352.0
315.182648 180.0
318.189545 280.0
318.533997 164.0
319.170135 11664.0
320.088196 172.0
320.172913 1960.0
320.241333 184.0
321.177124 664.0
321.881805 148.0
322.149658 240.0
325.179535 2396.0
326.183594 756.0
326.227753 216.0
327.19516 1552.0
328.201538 468.0
329.196259 164.0
336.425659 152.0
336.743317 204.0
337.052032 120.0
337.181061 14624.0
337.301147 168.0
337.935028 156.0
338.182983 2448.0
339.181824 728.0
340.186798 136.0
341.239624 156.0
341.46759 152.0
341.839172 188.0
342.193695 100.0
343.191895 396.0
344.185577 160.0
345.184631 144.0
346.185974 152.0
354.905396 128.0
354.941132 148.0
355.002289 140.0
355.072083 116.0
355.13678 176.0
355.191437 28460.0
356.193787 7212.0
356.248962 164.0
356.440887 140.0
356.968842 164.0
357.191864 1428.0
358.208527 244.0
358.593658 96.0
359.194702 160.0
372.160095 104.0
372.664307 140.0
372.787262 144.0
372.833374 140.0
373.106293 140.0
373.20105 16348.0
373.571594 152.0
374.204803 4104.0
375.055054 132.0
375.205322 1376.0
376.201355 260.0
376.719299 156.0
390.221405 172.0
392.177887 232.0
392.335571 200.0
393.209259 2592.0
394.208618 1348.0
395.220001 184.0
410.953857 140.0
419.857788 148.0
451.961273 160.0
1162.807495 164.0
1179.692993 152.0
1258.063232 140.0
1368.221191 228.0
1449.401123 148.0
1478.65918 188.0
1537.80249 284.0
1542.309326 156.0
1558.955811 180.0
1579.272827 220.0
1580.182495 156.0
1607.33252 168.0
1633.024292 172.0
1636.210938 288.0
1643.859985 144.0
1647.921509 172.0
1648.115356 168.0
1648.357788 180.0
1660.744263 168.0
1684.267578 160.0
1698.592163 160.0
1708.75415 168.0
1734.055664 176.0
1763.168213 168.0
1774.158447 160.0
1778.008423 208.0
1789.120483 164.0
1801.77063 172.0
1837.018555 148.0
1855.842163 152.0
1874.761719 164.0
1876.468384 180.0
1885.229614 160.0
1886.119751 164.0
1889.630737 188.0
1902.161987 220.0
1911.252563 172.0
1942.091064 176.0
1943.87207 144.0
1947.014771 196.0
1952.805786 196.0
1956.352661 256.0
1971.797485 152.0
1978.697021 172.0
1980.547852 160.0
1981.229858 160.0
1983.463013 208.0
