>compound MLS002473308-01!
>formula C16H10N2O2
>ionization [M+H]+
>parentmass 263.079712
#inchi InChI=1S/C16H10N2O2/c19-15-10-6-2-4-8-12(10)17-14(15)13-9-5-1-3-7-11(9)18-16(13)20/h1-8,18,20H
#inchikey JNLNPCNGMHKCKO
#Ion_Source LC-ESI
#Instrument qTof
#Compound_Source NIH Pharmacologically Active Library
#PI Dorrestein
#Data_Collector VP/LMS
#Scan -1
#Precursor_MZ 263.084
#ExactMass 262.074
#Charge 1
#CAS_Number N/A
#Pubmed_ID N/A
#Smiles Oc1[nH]c2ccccc2c1C3=Nc4ccccc4C3=O
#INCHI_AUX N/A
#Library_Class 1
#SpectrumID CCMSLIB00000084905
#IonMode Positive
#UpdateWorkflowName UPDATE-SINGLE-ANNOTATED-GOLD
#LibraryQualityString Gold
#TaskID d252d724072548979f1f6f1ced849daf
##Scan# 2257
#SpectrumFile p3-C05_GC5_01_18250.mzXML
#LibraryName Pharm_Active_Library.mgf
#MQScore -1
#Organism Pharm_Active_Library
#TIC_Query 0
#RT_Query -1
#MZErrorPPM -1
#SharedPeaks 0
#MassDiff 0
#LibMZ -1
#SpecMZ 263.084
#SpecCharge 0
#internalFilename spec-00000.mgf

>collision 10
45.212887 148.0
46.022156 144.0
46.304794 172.0
47.781853 200.0
48.054657 144.0
48.48056 124.0
49.497513 184.0
49.77095 120.0
50.387878 196.0
50.544827 148.0
52.015705 248.0
52.162231 128.0
52.714249 128.0
54.647858 176.0
55.054707 144.0
55.443798 116.0
56.710682 180.0
57.427895 184.0
57.63472 152.0
57.67099 104.0
59.935875 164.0
60.716553 148.0
60.733612 84.0
61.996517 136.0
62.308773 132.0
62.338627 92.0
62.396786 156.0
62.410934 180.0
62.591892 100.0
62.992496 40.0
63.058861 104.0
63.885006 56.0
64.260994 56.0
65.81797 112.0
66.369743 212.0
67.293945 104.0
67.771553 180.0
67.807602 216.0
68.098007 172.0
68.578453 124.0
68.75988 80.0
68.875458 168.0
68.946503 168.0
69.478027 160.0
69.733757 172.0
70.179901 168.0
70.249947 192.0
70.9842 120.0
71.60096 72.0
72.081749 32.0
73.409248 160.0
73.762672 124.0
73.825928 208.0
73.923439 188.0
74.15464 92.0
74.33815 188.0
75.084785 144.0
75.127907 40.0
75.200378 92.0
75.679237 252.0
76.712975 128.0
78.087532 120.0
79.728226 200.0
81.07206 112.0
81.824692 220.0
81.891319 84.0
82.248329 108.0
82.479538 220.0
82.51931 60.0
82.56813 112.0
83.01178 164.0
83.062607 132.0
83.387802 208.0
84.518288 224.0
84.600647 192.0
85.117683 180.0
85.842712 96.0
86.348732 100.0
87.034401 172.0
87.091972 156.0
88.215607 68.0
88.488747 160.0
89.083252 52.0
89.175323 136.0
90.268784 204.0
90.57917 160.0
90.814217 112.0
91.05146 188.0
91.504028 144.0
91.704041 152.0
91.894745 64.0
91.927177 104.0
91.992073 128.0
92.602043 180.0
93.673859 188.0
94.036362 156.0
94.620148 168.0
94.713097 160.0
95.378654 156.0
95.896408 168.0
95.911995 224.0
96.062462 124.0
96.335442 156.0
96.525032 144.0
98.452843 180.0
98.583229 144.0
99.15715 228.0
100.541367 176.0
100.868927 188.0
101.577797 148.0
102.897972 192.0
103.039345 172.0
103.178802 64.0
103.22126 112.0
103.498474 120.0
103.832848 200.0
104.050911 184.0
104.10276 88.0
104.37709 216.0
104.527618 172.0
104.592743 184.0
105.030586 196.0
105.308426 212.0
106.02655 248.0
106.998146 160.0
107.16497 228.0
107.521713 164.0
107.602219 144.0
107.82531 128.0
107.845978 136.0
107.918335 164.0
108.473167 136.0
108.576836 136.0
108.632843 184.0
109.201988 208.0
109.824753 136.0
109.860214 220.0
110.679504 152.0
110.893188 140.0
111.027367 208.0
112.831932 156.0
113.859634 208.0
114.035973 132.0
114.072105 196.0
115.05632 148.0
115.218628 164.0
115.622765 204.0
116.051399 532.0
116.072632 196.0
116.094078 204.0
117.056 404.0
117.619507 164.0
117.839783 152.0
118.380547 188.0
118.436859 36.0
119.361389 140.0
119.605049 164.0
119.624641 220.0
120.056053 164.0
120.328804 36.0
120.409599 168.0
121.048172 192.0
121.508461 68.0
121.600624 72.0
122.993889 148.0
123.349525 156.0
123.546333 196.0
123.606071 128.0
124.701614 176.0
124.903954 128.0
125.567696 120.0
125.985107 64.0
128.630493 104.0
129.039398 144.0
129.408188 124.0
129.83873 136.0
129.895432 108.0
130.024765 124.0
130.046616 204.0
130.065613 200.0
130.269989 176.0
130.481339 120.0
131.499573 120.0
132.044235 1000.0
132.246964 32.0
133.044678 184.0
134.059021 136.0
134.150742 196.0
135.005508 192.0
136.598938 192.0
136.983017 100.0
137.783188 108.0
137.839264 124.0
138.421722 184.0
138.930328 112.0
139.054459 288.0
140.04454 172.0
140.065735 108.0
140.324966 152.0
140.546677 192.0
140.78746 212.0
140.905563 60.0
141.059174 224.0
141.513397 148.0
142.025284 88.0
142.053741 236.0
142.205597 240.0
142.759155 116.0
142.951843 128.0
143.24707 32.0
143.564072 112.0
143.740601 180.0
143.941101 168.0
144.003204 164.0
144.041412 244.0
144.588959 200.0
144.730194 144.0
144.919403 148.0
145.041626 192.0
145.684738 100.0
146.098221 172.0
146.779831 92.0
146.900421 160.0
147.023483 188.0
147.366379 44.0
148.138123 76.0
148.475037 120.0
150.331238 228.0
150.48822 176.0
150.585129 112.0
151.049545 160.0
152.061478 336.0
152.164581 176.0
152.471634 116.0
152.877411 224.0
153.020172 136.0
153.111282 84.0
153.821381 164.0
153.870758 140.0
154.065857 208.0
154.758362 128.0
154.810364 220.0
154.835129 192.0
155.320923 124.0
155.437515 148.0
155.983917 144.0
156.075897 148.0
157.045013 192.0
157.506409 168.0
158.457031 152.0
158.966034 164.0
159.058899 180.0
159.408005 144.0
159.566345 52.0
159.860641 132.0
160.038559 336.0
160.66188 124.0
161.02536 120.0
161.25528 160.0
161.341217 72.0
162.050552 148.0
162.247543 76.0
162.36673 104.0
163.003922 152.0
163.049149 168.0
164.05603 328.0
164.465759 180.0
165.069366 3688.0
165.109604 32.0
165.168442 48.0
165.373138 32.0
165.677856 204.0
165.729095 48.0
165.890549 76.0
165.967468 52.0
166.072052 236.0
166.213715 116.0
166.254761 48.0
166.30867 56.0
167.070526 240.0
167.087296 352.0
167.981216 68.0
168.074722 212.0
169.051941 184.0
169.605103 172.0
169.856628 184.0
170.059006 188.0
172.975769 176.0
173.206207 188.0
173.224533 112.0
173.914169 112.0
174.344894 108.0
174.76825 192.0
175.453033 180.0
175.758972 136.0
175.885651 156.0
176.598343 220.0
176.731339 164.0
176.861954 180.0
177.058487 296.0
177.380188 92.0
178.035522 192.0
178.104584 68.0
178.556412 204.0
178.7453 156.0
179.067352 732.0
179.272552 200.0
180.080063 1520.0
180.123657 100.0
180.211823 36.0
180.877716 64.0
181.074585 152.0
181.901703 68.0
182.060104 216.0
182.100388 160.0
184.071716 104.0
185.083008 104.0
186.246445 160.0
186.477402 36.0
186.75473 148.0
187.566147 160.0
187.624695 212.0
188.040726 196.0
188.087128 192.0
189.31543 172.0
189.914932 200.0
190.064804 6852.0
190.131668 108.0
190.266174 40.0
190.296371 44.0
190.318344 108.0
190.417191 72.0
190.452911 192.0
190.518829 196.0
190.708435 76.0
190.876129 96.0
190.972382 92.0
191.069672 1068.0
191.164963 112.0
191.368652 176.0
191.69368 68.0
192.002441 108.0
192.079437 580.0
192.12381 48.0
192.143127 44.0
192.214859 80.0
192.427383 88.0
192.71463 80.0
192.872162 44.0
192.908096 140.0
192.991028 48.0
193.054688 192.0
193.08786 2136.0
193.123764 152.0
193.303589 224.0
193.962936 180.0
194.072617 308.0
194.080444 264.0
194.828552 152.0
194.856339 224.0
195.006393 52.0
195.031403 88.0
195.054855 192.0
195.103683 124.0
195.325836 144.0
195.604401 180.0
196.080688 212.0
199.110641 160.0
200.449707 140.0
200.475067 164.0
201.493668 68.0
202.055145 140.0
203.066467 180.0
203.515915 168.0
203.555679 104.0
204.071686 172.0
204.226379 132.0
204.858307 68.0
205.072617 1056.0
205.288681 108.0
205.340012 80.0
205.656708 96.0
206.084473 2356.0
206.393768 48.0
206.981277 184.0
207.087616 1032.0
207.209488 48.0
207.285614 68.0
207.361359 100.0
207.567764 220.0
207.734116 72.0
208.075119 584.0
208.227814 76.0
209.069427 368.0
209.098938 248.0
210.456696 168.0
210.551987 104.0
211.063477 180.0
212.076721 144.0
212.897781 204.0
213.176651 252.0
214.148346 164.0
214.270691 192.0
214.500916 212.0
215.05983 416.0
215.75618 164.0
215.835129 200.0
216.067429 1084.0
216.458389 148.0
217.076462 3856.0
217.138275 68.0
217.214539 108.0
217.387634 108.0
218.079895 1520.0
218.454178 68.0
218.817627 128.0
218.928055 124.0
219.091873 5892.0
219.246216 60.0
219.335678 68.0
219.48793 68.0
219.720947 72.0
219.957031 116.0
219.977692 184.0
220.042633 212.0
220.08049 3148.0
220.28479 52.0
220.326157 76.0
220.612808 72.0
221.081436 1048.0
221.164062 160.0
221.261078 156.0
221.367294 120.0
221.654633 108.0
221.693146 48.0
221.805771 60.0
222.056229 348.0
222.079437 256.0
222.309967 44.0
222.600891 144.0
222.838516 132.0
223.058426 116.0
223.08815 164.0
224.097046 32.0
227.317413 108.0
228.371918 92.0
228.426056 80.0
228.708908 56.0
228.934708 192.0
231.017319 104.0
231.668182 148.0
232.037903 172.0
233.067139 284.0
234.078705 2996.0
234.302094 144.0
234.399582 108.0
234.994171 156.0
235.0858 3636.0
235.183365 64.0
235.332947 72.0
235.65976 36.0
235.79422 48.0
235.925659 76.0
236.07103 832.0
236.082672 496.0
236.120407 196.0
236.402802 96.0
236.886551 32.0
237.085373 280.0
240.070755 144.0
240.332962 140.0
241.271866 116.0
244.06189 168.0
245.071472 1672.0
245.341873 152.0
245.631882 60.0
245.71611 36.0
245.959518 36.0
246.074356 356.0
246.59671 88.0
246.909348 80.0
247.082565 276.0
247.751343 128.0
247.826538 68.0
248.748566 180.0
249.065704 244.0
250.062424 80.0
251.790131 104.0
251.869095 48.0
254.462708 52.0
260.248169 120.0
260.575775 84.0
261.069458 284.0
262.070129 140.0
262.255554 124.0
262.987732 60.0
263.079712 5572.0
263.252441 80.0
263.287964 92.0
263.449463 80.0
263.737061 68.0
263.834045 76.0
264.085419 1480.0
264.248016 64.0
264.374207 40.0
265.093109 124.0
265.307037 72.0
265.728638 140.0
266.173309 32.0
266.267487 76.0
274.316803 112.0
275.316528 44.0
276.251923 116.0
276.847687 84.0
279.909424 40.0
281.056061 56.0
285.188629 68.0
287.927765 112.0
296.621246 52.0
305.562286 68.0
313.126892 52.0
318.698486 44.0
319.135651 108.0
319.181885 52.0
323.108826 52.0
339.75705 96.0
351.374176 48.0
353.807129 44.0
385.523071 88.0
389.598022 64.0
389.876984 92.0
414.452911 104.0
422.944122 84.0
474.090485 72.0
501.464325 52.0
510.255981 36.0
568.082336 100.0
630.220398 124.0
662.275757 80.0
736.200134 88.0
759.319275 112.0
779.969604 96.0
800.559021 40.0
834.267029 56.0
881.398804 160.0
895.82782 48.0
948.360962 60.0
954.43866 88.0
958.396484 216.0
975.888184 80.0
991.224548 212.0
996.005188 148.0
1055.80835 80.0
1056.047607 36.0
1089.061523 140.0
1089.678955 76.0
1097.907104 156.0
1098.744751 136.0
1121.150269 64.0
1121.803467 64.0
1127.136108 172.0
1131.128784 284.0
1174.873169 68.0
1201.712646 152.0
1243.291138 104.0
1304.578857 144.0
1331.167847 192.0
1333.579834 60.0
1347.973267 136.0
1353.635132 96.0
1355.026733 132.0
1372.84436 208.0
1373.928589 192.0
1380.24353 156.0
1386.521118 180.0
1417.852539 172.0
1429.123901 156.0
1432.293335 76.0
1434.403198 168.0
1445.104492 156.0
1469.943848 136.0
1472.027832 120.0
1476.766113 204.0
1486.956177 48.0
1487.293945 216.0
1490.919067 160.0
