>compound Pyrimethamine
>formula C12H13ClN4 
>ionization [M+H]+
>parentmass 249.090729
#inchi InChI=1S/C12H13ClN4/c1-2-9-10(11(14)17-12(15)16-9)7-3-5-8(13)6-4-7/h3-6H,2H2,1H3,(H4,14,15,16,17)
#inchikey WKSAUQYGYAYLPV
#Ion_Source LC-ESI
#Instrument qTof
#Compound_Source Isolated
#PI Sirenas
#Data_Collector Ed Esquenazi 
#Scan -1
#Precursor_MZ 249.091
#ExactMass 0.0
#Charge 1
#CAS_Number N/A
#Pubmed_ID N/A
#Smiles N/A
#INCHI_AUX N/A
#Library_Class 3
#SpectrumID CCMSLIB00000004580
#IonMode Positive
#UpdateWorkflowName UPDATE-SINGLE-ANNOTATED-BRONZE
#LibraryQualityString Bronze
#TaskID d19310cd93df49b68e9fcbec27720eb5
##Scan# 3
#SpectrumFile Pyrimethamine.mgf
#LibraryName fda_library.mgf
#MQScore -1
#Organism fda_library
#TIC_Query 0
#RT_Query -1
#MZErrorPPM -1
#SharedPeaks 0
#MassDiff 0
#LibMZ -1
#SpecMZ 249.091
#SpecCharge 0
#internalFilename spec-00000.mgf

>collision 10
101.038239 135.503006
101.140404 4.654546
101.736862 3.00625
101.787231 10.01885
102.033844 44.110451
102.046349 378.495209
103.05275 113.3778
103.291817 6.136111
103.521408 8.482843
103.663292 5.473485
104.653915 6.539103
105.453583 7.873684
106.036736 11.76
109.425934 3.409783
109.509651 1.602778
110.072083 23.30678
110.380219 12.95776
110.417984 6.286428
110.432205 13.12656
110.441704 7.0
110.469757 9.232692
110.494804 5.410526
110.511032 6.129
110.522041 30.949789
110.538704 11.60044
110.556969 10.04032
110.627548 16.109751
110.637436 13.00812
110.65937 4.8375
110.665749 2.85
110.78022 6.801923
110.828056 9.811765
110.842445 11.00071
110.999458 9961.036133
111.043419 122.136902
111.058151 40.097019
111.080711 51.424629
111.103943 5.428571
111.115036 8.662037
111.132492 22.92358
111.144249 18.7299
111.161758 20.610001
111.189507 28.14377
111.194656 10.498
111.207176 11.05131
111.22541 8.927439
111.231323 8.8
111.243324 11.79595
111.256485 16.46818
111.272079 10.63333
111.300438 7.784616
111.313293 24.349001
111.334152 17.020929
111.342133 16.30328
111.370522 10.27805
111.382591 26.521429
111.4049 4.978571
111.429665 4.825
111.450089 17.69772
111.473358 5.568421
111.490311 12.39479
111.507935 12.05779
111.588882 12.18782
111.60186 4.201667
111.612968 3.461538
111.679131 4.803333
111.742126 6.778947
112.411942 5.208333
112.460159 6.282692
112.489548 4.593966
112.495407 3.032692
112.673973 5.82647
113.034668 39.441978
113.521553 4.225
113.621384 6.336111
114.034279 261.8573
114.046104 65.442963
114.170792 6.430769
114.427773 3.38
114.479401 12.03125
114.494583 4.813334
114.64122 4.70625
114.751846 2.75625
114.922905 4.878125
115.001236 5.602778
115.022881 4.5
115.054207 3682.412109
115.099823 61.243912
115.111519 1.405
115.118881 11.81
115.14991 3.15625
115.158752 3.867857
115.210526 10.6579
115.221451 3.609783
115.322266 7.65
115.350899 8.403334
115.492729 14.74512
115.516693 5.59527
115.557381 2.425
115.580223 4.426471
115.901604 1.89
116.125702 19.66818
116.138412 2.881667
116.213165 4.613334
116.224411 3.603125
116.387062 8.275
116.412529 3.719118
116.460533 13.06952
116.478699 5.444565
116.504631 4.178571
116.569435 14.41944
116.662094 15.41667
116.885437 5.647093
117.057091 4159.069824
117.102402 18.959869
117.111343 4.418182
117.201286 15.88242
117.216652 5.433108
117.228317 9.372727
117.241806 2.184091
117.25872 10.10637
117.276581 6.8375
117.287216 5.95921
117.294907 2.801667
117.308952 6.944444
117.332359 13.49068
117.357811 6.963333
117.371284 13.605
117.393745 3.029762
117.40506 8.002778
117.427673 6.0
117.495537 5.644444
117.536171 6.467593
117.560371 12.10305
117.56691 11.83971
117.581642 14.315
117.593605 9.416071
117.770988 6.000926
117.847366 10.04464
117.884392 3.839516
118.18589 4.911538
118.425262 2.9
119.916077 68.134064
120.026779 9.31579
120.055046 14.25937
120.969704 3.04
122.29306 2.75
122.487427 8.413889
122.760155 3.2
122.999649 631.763123
123.06179 8.616803
123.239365 2.410714
123.269424 9.496428
123.38578 4.025
123.568184 8.412255
123.693268 8.809999
123.991608 65.923363
124.072166 31.098301
124.296402 6.002857
124.342583 4.781452
124.470177 6.312037
124.594788 5.802778
124.656929 4.239516
125.014992 3147.799072
125.061699 8.983126
125.135368 24.7897
125.172401 12.43316
125.197411 4.800807
125.216866 7.006818
125.228104 7.244444
125.263451 5.442241
125.274284 9.3
125.292023 6.3
125.302536 6.002273
125.316734 7.0
125.328568 5.535
125.341522 19.005251
125.408348 17.496071
125.415489 4.2
125.435364 10.04953
125.442764 5.7225
125.455093 8.944118
125.473648 5.8
125.480034 15.43188
125.528503 7.659314
125.59613 12.40034
125.661049 6.618939
125.685501 4.984615
125.714951 20.9786
125.723473 8.141666
125.742966 4.200714
125.922478 9.506578
126.033539 57.14127
126.044144 283.169312
126.246712 8.428521
126.309547 22.21254
126.327034 4.622222
126.352318 37.04771
126.364006 2.88
126.375732 4.203571
126.39064 7.488043
126.418694 11.83022
126.443665 8.825147
126.454842 11.81286
126.475204 12.82717
126.567871 7.202381
126.58036 13.93633
126.594536 41.169041
126.623428 17.81196
126.678574 7.061765
126.699333 3.778571
126.733841 9.391795
126.881439 7.757432
126.905975 6.403571
126.933647 4.65
126.970078 9.930269
127.054131 13324.320312
127.102356 78.904167
127.134857 30.79616
127.159119 3.649
127.168152 63.457611
127.182701 4.970454
127.191963 25.059919
127.201202 7.889286
127.209267 19.59586
127.216599 85.052094
127.234673 17.04711
127.247536 29.004999
127.261894 128.174698
127.271568 12.53333
127.288612 6.493889
127.296928 5.608333
127.310196 45.032829
127.323425 13.70098
127.354706 12.03712
127.388657 73.93483
127.418327 64.130836
127.430588 70.918839
127.466858 71.821182
127.473785 4.872059
127.483429 20.41333
127.500648 1.96
127.510773 16.085951
127.528122 16.61928
127.540741 7.45
127.555588 17.20285
127.562859 4.201667
127.614662 9.331364
127.658867 22.75972
127.696266 16.80106
127.837891 22.473049
127.921318 2.213235
127.943657 9.141667
127.950638 7.352941
128.023422 14.24865
128.062119 19558.089844
128.125092 65.1054
128.153275 14.1
128.185669 17.707541
128.197479 11.33088
128.23024 19.45455
128.245331 13.40906
128.281494 70.147118
128.310745 4.969
128.319427 8.716304
128.334961 32.507
128.351944 16.83061
128.374954 24.552361
128.397797 10.21731
128.422333 37.916481
128.452789 25.343519
128.489105 19.101761
128.497101 9.828629
128.505188 22.049999
128.523758 14.01389
128.530457 26.47349
128.54483 19.536091
128.579437 22.141029
128.591095 5.835
128.601883 9.115
128.613983 11.90179
128.630966 5.228571
128.638428 8.013888
128.646271 14.60308
128.671341 8.616026
128.694427 10.00461
128.741226 16.247471
128.749847 7.11579
128.794601 7.146637
128.809296 4.977941
128.938141 7.625
129.008224 48.138031
129.136078 3.618182
129.148514 9.919068
129.191422 5.893889
129.217789 6.514131
129.24762 9.916071
129.34549 5.253261
129.355438 16.937361
129.501434 26.30147
129.519806 7.054729
129.570206 9.558516
129.633484 7.089
129.667191 3.867857
129.692429 8.52
129.760986 14.48929
129.813065 5.406428
129.99054 4.938889
130.07663 527.290405
130.111252 3.44
130.134247 9.202084
130.190491 7.046667
130.210022 7.611842
130.249359 5.451923
130.366196 9.522
130.388351 2.001471
130.468063 3.45625
130.484924 3.896053
130.493713 3.55
130.533752 3.784091
130.610901 5.417857
130.651535 7.738461
130.767212 5.29423
130.873566 12.01125
130.941162 9.290741
130.972275 3.056818
131.057709 14.29905
131.110901 10.00044
131.337372 9.602273
131.734512 4.001191
131.99057 17.546431
132.063568 22.86377
132.077332 113.699799
133.593735 1.608333
133.686234 3.004545
134.996719 11.71605
135.494339 5.23141
136.003616 32.35696
136.075531 13.86667
136.326889 3.472222
136.535492 3.16
136.699722 1.6
137.014145 286.998413
137.082016 280.841095
137.136398 6.222727
137.17601 3.432895
137.216782 4.683333
137.245255 13.24286
137.371765 4.781452
137.390625 2.632692
137.466415 7.11579
137.554428 4.559211
137.877747 15.89453
138.010651 671.12793
138.041321 6.785256
138.180923 6.408334
138.229416 10.19516
138.248291 7.439706
138.339737 3.2
138.360184 1.4125
138.457886 1.89
138.47757 6.1375
138.673401 11.31207
139.031113 37.529469
139.044708 17.8263
139.151123 3.721
139.244354 13.7
139.285034 5.496053
139.376892 4.661364
139.475479 3.210714
140.027435 32.904861
140.048813 3366.412109
140.100693 4.4
140.111298 4.96
140.133636 2.001316
140.17897 2.42
140.234787 5.980263
140.302551 5.160714
140.317398 4.232692
140.346268 6.04853
140.397308 7.838095
140.457611 14.95385
140.483322 6.272727
140.570511 2.20119
140.90416 3.9
141.25206 5.14569
141.27243 11.20278
141.599426 30.419889
141.627655 14.33913
142.166824 5.104167
142.175171 3.45625
142.198685 7.187903
142.229355 3.800676
142.313477 9.694231
142.403732 7.803333
142.465942 6.245
142.67366 3.08
143.04248 3.201667
143.062607 415.149689
143.07283 569.918518
143.106537 4.163636
143.118195 15.24959
143.222687 6.059524
143.347626 5.97622
143.389267 7.722458
143.412567 12.64252
143.430939 6.077564
143.522919 18.07291
143.660339 17.38283
144.11499 9.456819
144.219467 3.032895
144.298843 8.606061
144.401398 8.978704
144.428436 5.003125
144.454834 8.338888
144.629181 1.815
144.696838 4.489
144.717133 11.89633
144.804947 5.832
144.849243 5.16
144.88031 9.612888
145.066422 220.511597
145.088135 924.048706
145.142563 3.784091
145.151779 7.993965
145.165207 8.378572
145.207123 7.102273
145.232285 3.666667
145.248505 5.313636
145.303558 4.011111
145.349686 3.803846
145.416809 3.004167
145.605728 4.453261
145.942245 2.977941
146.54422 3.344048
146.568542 3.409
148.003906 21.214081
148.169907 7.736112
148.389801 11.56667
148.404984 4.248529
148.974091 4.081666
148.996048 6.242241
149.015182 1648.991943
149.06691 3.645
149.174469 4.203125
149.199951 3.806428
149.225754 20.089029
149.248825 2.25
149.272263 8.433197
149.28923 7.411765
149.314713 3.605
149.34729 4.805
149.357086 3.245
149.412521 5.400641
149.425232 4.405
149.499298 4.180263
149.514572 3.0
149.540176 6.078125
149.644897 10.73125
149.849533 7.403333
150.010315 2512.916992
150.059692 6.47037
150.110306 3.35921
150.13208 6.845
150.187637 4.813334
150.280334 3.777941
150.294006 4.328571
150.328659 6.224291
150.347427 6.05
150.383621 2.800926
150.520172 3.405556
150.643982 4.465322
150.729385 3.853333
151.058884 10.72308
151.084152 3.225
151.126801 7.426471
151.254974 4.632895
151.452072 8.217308
151.486313 5.698256
151.515762 4.604167
151.638168 8.252631
151.96756 15.66737
151.987701 3.675
152.025543 2684.729004
152.048141 686.821411
152.095078 13.23085
152.124985 7.607272
152.142029 14.68788
152.154999 8.85
152.181351 13.86929
152.215118 15.80026
152.24144 20.82725
152.249435 10.4
152.262497 15.09918
152.287048 13.35312
152.307724 8.178638
152.32283 14.40918
152.34819 7.617754
152.379715 2.7
152.391129 12.15
152.408295 6.3225
152.418045 19.942141
152.483154 25.966141
152.494217 3.810714
152.525742 11.92708
152.561813 6.041087
152.579697 9.522
152.605148 25.95463
152.631821 6.60119
152.67099 5.588462
152.782349 8.494811
152.86879 4.8
152.997635 29.24268
153.031128 161.483597
153.057419 797.497192
153.13179 88.416557
153.162659 9.01
153.224686 67.73027
153.255569 9.856667
153.268478 8.666666
153.28447 7.873485
153.294189 10.4133
153.32782 10.075
153.341705 4.432143
153.357224 26.7075
153.376175 3.4
153.39299 13.69053
153.458054 6.890741
153.518448 12.30125
153.589417 18.86278
153.798813 5.275
153.815964 5.65
153.893814 58.16428
153.948639 11.15312
154.064941 7210.128906
154.116943 59.967918
154.167618 11.62558
154.177399 21.27931
154.201523 85.773941
154.232712 5.2
154.242126 11.52256
154.282181 43.732792
154.291168 7.013158
154.303162 15.46436
154.329819 9.807142
154.343933 7.846429
154.368713 2.2
154.413132 12.475
154.427475 10.24632
154.442215 10.20029
154.455902 4.138889
154.480713 5.8
154.49913 5.204167
154.507751 4.044565
154.554642 20.550911
154.568344 13.21254
154.582977 10.61
154.604279 17.64835
154.642197 6.867593
154.658188 26.08082
154.672348 14.365
154.735931 37.85471
154.754379 3.24
154.834732 8.936111
154.852051 11.00333
155.009094 2.805
155.022095 6.168023
155.072479 6088.729004
155.147049 7.133334
155.179245 40.248951
155.262009 11.13966
155.297638 22.591749
155.304962 18.48167
155.321106 13.86998
155.336807 40.878811
155.363266 11.975
155.381714 4.928571
155.405228 38.762329
155.416504 8.804788
155.42627 6.664286
155.448578 3.755556
155.477386 13.22935
155.493027 13.70514
155.505508 10.8223
155.526184 7.528571
155.597855 6.766453
155.614883 9.315001
155.657135 8.927439
155.688431 11.45294
155.716064 14.67222
155.723236 3.755769
155.819748 6.661539
155.850128 7.018182
155.889191 93.290367
155.941956 5.033065
155.959274 10.13088
156.068817 2848.477051
156.10054 44.219711
156.157349 6.072222
156.217896 24.02976
156.25032 4.0
156.267242 7.627173
156.32515 13.90667
156.354706 6.441327
156.419968 3.657143
156.4422 34.97963
156.463486 8.269231
156.477112 6.356482
156.513199 14.69032
156.53746 4.6
156.588333 3.313636
156.702927 14.05
156.776947 11.4
156.870621 3.3
156.981766 6.600555
157.314056 7.512805
157.422287 4.202941
157.470764 6.981097
157.513977 6.125
157.525406 2.936111
157.605682 3.840909
157.66246 10.22935
158.331497 2.601
158.348679 11.22143
158.379639 8.859314
158.537308 2.236765
158.870392 3.804167
159.07608 31.40027
159.332611 2.445
159.991226 18.38529
160.030914 3.377941
160.085129 10.72704
160.30809 4.628572
160.388885 10.95238
160.509033 2.89
160.690933 4.24537
160.823257 6.007759
160.91626 5.473485
161.003159 2822.850098
161.058487 11.32206
161.080154 45.578121
161.102188 9.339103
161.118988 4.6225
161.131973 9.301786
161.141739 5.046154
161.186356 9.225
161.202881 9.430769
161.217392 9.711364
161.298889 8.955612
161.314087 7.912037
161.32312 10.63269
161.340408 9.074074
161.366592 19.7316
161.375458 15.95364
161.420776 14.58
161.463608 7.24959
161.517288 4.044565
161.534454 4.728571
161.591995 4.593966
161.654617 3.645
161.751083 3.8125
162.092499 65.805847
162.131836 24.93733
162.156174 18.94162
162.171677 3.4
162.183563 11.34412
162.21199 8.776219
162.224838 8.60061
162.238632 13.04143
162.2603 5.008333
162.271637 4.694231
162.280899 23.3605
162.309784 4.138889
162.327454 9.11368
162.335938 7.616666
162.391281 20.60243
162.420105 10.34464
162.561783 5.847093
162.67334 35.518539
162.699738 12.26667
162.752747 3.344048
162.761566 4.375
162.819214 12.80027
162.863541 7.467223
162.987335 6.415
163.002426 9.005
163.030701 11275.05957
163.085449 107.092003
163.101807 48.504509
163.115356 21.782141
163.178192 66.696991
163.199509 29.55827
163.215378 17.554939
163.228745 60.712059
163.240128 22.62273
163.264496 8.490026
163.295242 18.544979
163.311569 9.447093
163.326721 19.54566
163.338913 7.418939
163.352188 10.72273
163.371719 36.5219
163.41452 12.40658
163.429474 3.618182
163.454926 7.423684
163.467529 18.315491
163.47821 12.74286
163.490601 7.370454
163.507919 11.87127
163.540359 29.5723
163.56488 18.869459
163.579132 5.423148
163.588013 4.483333
163.648239 9.078226
163.770508 4.32
163.797195 11.68
163.805725 7.007143
163.84201 10.76571
163.896835 8.328125
164.154114 15.15921
164.253891 3.75
164.273956 6.208695
164.408752 11.00167
164.523361 5.232895
164.566788 12.31619
164.876541 5.606429
165.045059 112.737
165.187454 21.45219
165.257462 20.090179
165.29216 9.482051
165.332413 10.44643
165.403992 5.600926
165.443878 7.85
166.196869 6.067222
166.296738 3.248529
166.309021 3.815385
166.449341 17.562771
166.64566 6.205
167.056061 22.8482
168.055679 17.50618
168.066528 30.23328
168.337677 3.256818
168.36113 7.225
168.388901 22.95565
169.075821 689.398499
169.128952 2.628572
169.192719 4.65473
169.230881 5.778704
169.323975 5.659524
169.373764 3.201087
169.43338 1.911364
169.464813 15.23333
169.491501 3.001316
169.537827 24.561001
169.604446 5.175
169.668182 8.073076
169.763367 2.208333
169.873672 17.87604
170.05574 54.245361
170.079254 361.899902
170.120285 1.84
170.249313 22.753851
170.308929 6.497059
170.41217 4.203571
170.501724 3.425
170.7258 4.375
170.98497 11.16806
171.090912 665.211121
171.148666 2.415
171.430969 7.051271
171.613205 6.030769
171.905518 30.44129
172.023682 4.563334
172.069321 51.000992
172.098282 795.183105
172.433487 5.848077
173.014481 72.012894
173.115921 12.42607
173.75061 3.955556
174.009216 1466.45105
174.064911 7.144118
174.124634 15.35082
174.142761 4.229762
174.154968 33.91853
174.22084 6.438095
174.266708 5.009783
174.335571 4.406428
174.357803 13.66983
174.620972 21.537411
174.712433 5.27378
174.790695 8.008333
175.271042 3.30625
175.342987 3.804546
175.380432 5.691129
175.791473 7.616025
175.876251 6.432143
175.89563 3.822727
175.944733 14.70179
175.967087 23.71764
175.986633 14.94722
175.997696 76.746643
176.026443 48.378941
176.05043 72.907608
176.062683 5.405
176.085388 35.985569
176.106537 29.278481
176.122787 32.633991
176.147949 8.004167
176.158066 5.95921
176.169434 18.449261
176.191772 16.612181
176.22583 56.39687
176.242447 38.764809
176.255569 6.504167
176.263992 42.712021
176.285034 15.81603
176.296112 27.40877
176.327988 27.780531
176.345566 21.395969
176.391953 9.304524
176.401947 9.278226
176.443466 27.395981
176.485596 10.77602
176.588745 7.201471
176.634995 16.025631
176.658356 13.72857
176.746231 5.297581
176.778564 13.77571
176.81369 6.44939
176.8703 5.106579
176.908188 6.001191
176.921997 5.613334
176.951767 18.43214
177.021606 55104.148438
177.273911 28.00523
177.311569 33.825241
177.324341 57.155251
177.36676 36.86174
177.41066 33.008869
177.431061 72.335983
177.463806 73.356987
177.487808 68.556503
177.498398 17.84301
177.518677 33.960529
177.5383 27.01079
177.54985 28.965731
177.572647 53.198502
177.592255 36.72377
177.613068 64.528954
177.638504 30.024
177.657471 50.473339
177.670395 7.44747
177.681564 9.905556
177.690964 7.060866
177.707108 63.02898
177.724335 12.28163
177.745193 29.368959
177.783249 88.861183
177.805984 60.342758
177.845703 25.490761
177.884338 51.242668
177.947601 21.155319
177.997131 26.431219
178.078827 30.230471
178.129318 20.0221
178.164719 4.017308
178.177902 8.070122
178.190048 5.629762
178.264145 3.025
178.394714 5.136111
178.441208 35.721859
178.501389 11.49246
178.525528 2.089286
178.63063 14.615
178.735764 24.40687
178.750427 13.88153
178.861511 3.696154
178.972763 13.34284
179.060013 1472.100952
179.117737 40.63467
179.150146 16.60882
179.178116 9.318519
179.199966 34.38438
179.244995 14.6959
179.271591 12.94819
179.345718 6.202083
179.368668 15.88705
179.395386 13.80082
179.416183 4.241667
179.453033 3.688889
179.536774 2.441667
179.588074 1.815
179.653519 17.39159
179.687149 14.65831
179.73735 20.2075
179.806305 3.535
179.933228 3.409
180.060242 1015.906006
180.132385 11.15743
180.166504 3.002273
180.175964 4.920714
180.214127 4.489
180.231964 17.20034
180.265518 32.899559
180.288055 7.421429
180.316086 8.066667
180.325424 4.008333
180.432892 5.215244
180.48848 14.89444
180.521667 7.451923
180.587128 3.423148
180.765274 7.605
180.785507 4.429762
180.91922 3.0
180.975372 2.405
181.023712 13.06806
181.064697 869.581116
181.101761 4.001316
181.129837 27.21632
181.22229 3.05
181.237549 7.203948
181.293365 26.98517
181.471863 3.938462
181.514069 7.434188
181.607727 15.60738
181.675171 14.72578
181.710892 4.402778
181.731277 13.51229
182.070648 346.390503
182.363327 5.7
182.588882 8.804788
183.106354 5.806818
183.139297 1.801471
183.972977 8.377778
185.079636 65.624321
185.092545 16.43202
186.100372 85.515862
186.155228 1.6125
186.211853 11.08284
187.00412 113.936302
187.220078 4.128572
187.243851 1.6
187.258652 13.31279
187.529587 1.6
187.548645 1.848077
187.844482 9.466666
188.025101 942.807983
188.116379 21.00211
188.167236 20.317499
188.240097 5.633333
188.293427 25.320299
188.312622 1.608333
188.378998 6.312037
188.447067 33.755119
188.469269 4.203846
188.517044 4.200862
188.597244 4.7
188.852722 6.05
188.904892 4.266667
188.97023 28.09556
189.021057 1062.363037
189.082413 3.264286
189.099579 6.715
189.11937 7.603814
189.13765 3.4
189.161118 7.30473
189.195923 3.208333
189.217392 21.57
189.368225 3.253261
189.396957 3.849
189.479431 22.531639
189.552582 6.0
189.62204 14.40025
189.697495 4.445
189.727463 19.794479
189.899994 8.65307
189.947937 5.094737
190.009216 24.64045
190.041824 5749.859863
190.103073 52.973259
190.121979 23.66048
190.134979 7.576961
190.194138 31.7838
190.229736 12.60608
190.245331 27.374649
190.25972 3.813334
190.28302 24.90037
190.322128 17.865589
190.351715 5.555645
190.372025 9.662983
190.396469 15.59634
190.43251 6.302083
190.456879 3.159211
190.483261 13.61429
190.513458 23.89551
190.523758 8.85
190.533981 5.616667
190.562378 3.815
190.652969 8.628236
190.682037 11.4087
190.835968 2.428571
190.84697 24.20351
190.926086 13.10205
191.131821 16.177191
191.297623 5.885198
191.468521 9.412195
191.524567 15.51154
191.615326 6.553723
191.793549 5.403571
191.819351 12.28167
191.909195 7.446296
191.941757 2.832143
191.960999 23.69026
192.106247 8.402857
192.15506 5.2
192.217758 3.401316
192.294937 5.218939
192.363419 11.92654
192.430038 4.225
192.646408 18.97286
192.663361 7.000714
192.72937 5.091667
192.842194 5.489815
193.054077 3.514286
193.261002 3.896154
194.065811 7.339103
194.195526 5.4
194.999908 4.490909
195.02951 10.04091
195.083725 3.805
195.867279 5.07
196.002869 6.388236
196.048828 7.16
196.086136 2547.398926
196.145126 19.728239
196.188217 15.0153
196.202911 9.240323
196.222397 7.004412
196.237885 8.844999
196.27449 18.554939
196.293945 12.87
196.308411 4.848529
196.367157 14.5611
196.40274 2.2
196.433151 10.42315
196.450287 12.245
196.480682 15.4996
196.50029 7.242105
196.549042 8.200641
196.583145 7.425
196.60611 3.533333
196.627075 6.436818
196.645523 17.133579
196.66304 29.338751
196.752182 23.122681
196.833069 5.80061
196.86412 8.335093
196.893661 9.699446
196.915009 5.2125
196.936844 46.258579
196.955414 7.846154
196.968704 6.442105
196.992203 29.289671
197.00795 8.962
197.018524 7.65
197.085464 2059.724121
197.154083 25.497219
197.176971 7.704032
197.192902 22.935659
197.204971 11.89706
197.219528 77.560722
197.243057 41.60091
197.290344 6.688889
197.342087 31.96447
197.355682 17.963511
197.3694 14.06181
197.394669 25.39423
197.418152 6.864286
197.456848 12.52656
197.519867 15.66777
197.539886 21.26302
197.597443 10.27115
197.614258 17.080669
197.62851 16.008909
197.772263 15.61667
197.78717 7.206819
197.819168 18.84215
197.832733 18.314739
197.858246 11.20068
197.882782 4.039516
197.898987 24.480659
197.917053 9.262069
197.94577 5.938462
198.016891 25.001671
198.029694 12.50873
198.054489 212.720001
198.090286 26623.689453
198.152893 107.038399
198.258118 32.984772
198.278427 17.371599
198.305267 63.541698
198.342438 96.564919
198.359314 96.149277
198.378296 31.178961
198.408157 45.345531
198.423035 51.34391
198.465195 50.46347
198.479309 3.45
198.495331 17.216669
198.514969 47.513611
198.534744 18.402269
198.562073 18.33287
198.575317 41.625431
198.584793 14.10613
198.611069 72.680794
198.634659 71.724312
198.673355 15.89399
198.689911 33.21566
198.759521 20.127501
198.791794 18.9112
198.849792 50.438622
198.873672 10.36042
198.941284 8.043207
198.962646 7.804166
199.001434 15.53214
199.168579 39.07769
199.241318 19.214911
199.268738 16.65123
199.289932 16.096149
199.447968 10.00044
199.705521 12.29015
199.732117 9.009523
199.753601 9.699243
199.923843 1.6
199.972961 4.827174
200.076355 2.432895
200.106537 16.627911
200.224838 6.622298
200.435959 2.7
200.657288 14.03205
200.726852 3.963636
200.894043 2.601923
201.108841 7.30625
201.185516 16.10874
201.980606 5.877778
202.029755 4.403571
202.216263 8.988461
202.485336 3.983696
202.886597 7.977778
203.020309 20.76363
203.040329 21.476049
203.109177 3.488044
203.659927 5.59527
204.032852 155.808502
204.082092 2.4
204.322678 2.857143
204.566391 8.356522
205.05484 220.992798
205.171936 5.207759
206.04686 51.433819
206.263992 14.12976
206.71962 4.216667
206.814667 4.000862
207.068039 1871.714966
207.144989 6.600641
207.160019 4.402941
207.215118 3.096428
207.23233 19.91588
207.276352 9.726818
207.385391 5.209091
207.396225 4.222727
207.461716 14.24045
207.638794 5.555556
207.745834 3.925
207.793091 21.86681
207.821487 2.818182
207.951691 5.02
207.98703 8.814062
208.0121 1.81
208.418564 8.56875
209.452103 1.95
210.609192 6.061735
211.048645 4.400758
211.096191 119.339302
211.49054 6.539103
211.766922 4.0
211.924774 11.13081
211.98584 8.712363
212.103821 84.024696
212.182327 3.938462
212.232941 3.288043
212.369812 14.82451
212.48642 5.615244
212.526932 4.205556
213.023788 89.288803
213.076996 15.31804
213.112854 1706.177002
213.151535 28.27022
213.298447 28.857809
213.338638 14.81864
213.382278 5.625
213.435074 4.963334
213.446548 30.095791
213.466019 8.294737
213.484863 16.630251
213.608383 8.503049
213.672562 9.544047
213.715332 7.020162
213.77948 8.816026
213.878189 4.8
213.910309 3.755769
214.060257 2.469445
214.412704 6.826471
214.657318 5.061364
214.693039 3.721
214.71846 3.40625
214.777115 8.678226
214.794968 4.10431
214.815109 11.52812
214.884811 5.157143
215.035156 657.973572
215.188004 11.95978
215.328506 42.941238
215.391922 3.025
215.667847 6.25
215.723907 3.011842
215.744385 7.849528
215.957672 4.535
216.032181 2572.939941
216.091965 2.601
216.108475 6.892568
216.131683 7.469444
216.155212 11.09091
216.220306 3.841667
216.250931 11.06956
216.26709 5.826613
216.286346 5.114189
216.365677 5.875
216.425156 11.64384
216.52005 6.535
216.537109 3.6
216.623993 4.601666
216.639755 22.459669
217.171417 20.561291
217.235367 19.24189
217.257965 6.094231
217.311996 7.11579
217.4133 2.888889
217.463684 5.472059
217.483582 3.184091
217.628876 3.912037
217.705872 8.225
217.958847 20.119221
219.04068 70.200569
219.130051 9.101761
219.233994 5.778125
220.053192 82.205513
222.01416 3.456818
225.55191 3.806428
226.295242 10.21739
227.678146 1.801471
228.871292 3.016667
229.55719 16.055
229.767776 15.42007
230.045425 57.106739
230.369095 8.625
230.437073 3.829762
230.505753 6.876818
230.525024 4.872222
230.632782 4.188462
230.801315 10.05435
230.928467 3.422222
231.061035 333.130188
231.097687 7.118519
231.441208 8.038095
231.535065 12.95161
231.584793 9.86787
231.602661 38.86272
231.624573 62.341599
231.643478 19.095869
231.657333 6.889286
231.671448 43.95298
231.689056 15.73913
231.705902 24.72867
231.727493 52.650791
231.749695 103.133797
231.771698 78.167038
231.807449 104.336601
231.84726 144.583694
231.869217 63.532742
231.891281 31.375561
231.909775 42.379139
231.930069 21.602779
231.942474 12.89
231.963776 35.00745
231.980957 43.771
232.021408 20.617519
232.124817 4.415385
232.151367 25.62775
232.195633 16.201229
232.209625 1.8
232.255768 21.575001
232.283844 7.019566
232.349091 20.29808
232.441544 18.466669
232.499557 20.570499
232.543747 6.703049
232.573975 15.45473
232.613846 9.241667
232.694794 19.514561
232.821533 12.4064
232.927139 9.14888
232.937469 21.243851
232.980042 39.776871
233.011795 102.520599
233.059448 58699.480469
233.09993 3.8
233.233917 5.352027
233.351318 15.33862
233.420975 23.594219
233.433258 13.21676
233.449036 14.3697
233.469101 77.706512
233.494934 40.69659
233.517899 86.753593
233.53009 21.31617
233.548141 32.744999
233.574738 24.22788
233.603683 83.45018
233.636902 40.72847
233.657135 31.86615
233.66861 120.040398
233.698715 75.03373
233.733032 46.03875
233.774902 74.129593
233.791656 16.86731
233.818237 36.609058
233.882584 26.34005
233.911575 19.59288
233.926117 49.490528
233.942963 22.88179
233.954437 18.56638
233.994736 22.48204
234.22316 3.22
234.252884 30.13954
234.2836 18.9921
234.311844 33.21104
234.347916 9.185256
234.361465 3.002273
234.377869 32.689289
234.455612 38.856392
234.589752 19.46159
234.611145 35.311459
234.681473 3.4
234.888199 26.855129
235.05069 11.62227
235.130386 9.89
235.198502 4.602778
235.241425 2.719118
235.264221 11.89659
235.347916 3.623148
235.507904 2.5
235.58609 11.64643
235.651779 3.01
235.694901 8.715276
235.779816 5.188462
235.801788 1.8
235.919327 2.42
236.13324 9.09877
236.502121 5.065322
236.537155 7.479348
236.678146 3.441667
236.764343 6.616666
237.241058 9.903226
237.675232 6.222273
237.802399 3.625
238.453705 3.125
239.922485 14.12347
240.537292 3.938462
244.220886 3.177941
244.334198 1.4
244.638824 1.6
245.859192 2.810714
247.074219 216.102905
247.460632 20.592159
247.489059 8.469444
247.536697 4.8
247.620163 17.80637
247.674469 19.568359
247.706406 11.01678
247.724731 51.02055
247.760742 3.672059
247.804993 14.52598
247.893814 2.25
248.291977 6.336111
248.921844 3.45
248.987595 10.18846
249.05246 29.4
249.090729 5438.126953
249.154572 67.919807
249.178589 28.04637
249.215042 5.41
249.229889 28.924049
249.263977 36.503448
249.291306 24.39543
249.30777 12.88526
249.321732 12.71111
249.346222 5.602778
249.375488 13.715
249.408279 7.780556
249.440659 28.495041
249.463242 9.428261
249.501068 14.95648
249.540359 30.771009
249.574478 25.93091
249.615784 9.751562
249.828705 22.827881
249.854462 21.456829
249.879761 12.645
249.92337 3.223148
249.966431 18.423491
250.201447 7.229762
250.628113 14.86029
251.023544 4.38
251.537476 4.240909
251.817337 7.744048
251.957428 11.25
252.311371 15.73885
253.444 5.553846
253.899368 7.384091
254.648376 14.89091
255.336655 3.400926
270.86969 2.7
295.596008 2.578572
621.754761 3.2
900.983459 6.810594
950.805786 3.6
1274.682495 13.85333
1289.117432 2.355769
1413.143555 3.803333
1650.690796 5.136111
1664.62854 4.375
