>compound Proxymetacaine
>formula C16H26N2O3 
>ionization [M+H]+
>parentmass 295.203125
#inchi InChI=1S/C16H26N2O3/c1-4-10-20-15-8-7-13(12-14(15)17)16(19)21-11-9-18(5-2)6-3/h7-8,12H,4-6,9-11,17H2,1-3H3
#inchikey KCLANYCVBBTKTO
#Ion_Source LC-ESI
#Instrument qTof
#Compound_Source Commercial
#PI Dorrestein
#Data_Collector Garg_Neha
#Scan -1
#Precursor_MZ 295.203
#ExactMass 294.194
#Charge 1
#CAS_Number N/A
#Pubmed_ID N/A
#Smiles N/A
#INCHI_AUX N/A
#Library_Class 1
#SpectrumID CCMSLIB00000077047
#IonMode Positive
#UpdateWorkflowName UPDATE-SINGLE-ANNOTATED-GOLD
#LibraryQualityString Gold
#TaskID 48f7f52fc6d249b5abbcc6e7b3df5969
##Scan# 1091
#SpectrumFile NCP003017_C2_D11_BA7_01_15702.mzXML
#LibraryName NIH_Clinical_Collection_2.mgf
#MQScore -1
#Organism NIHcollection2_04212014_2_mgf
#TIC_Query 0
#RT_Query -1
#MZErrorPPM -1
#SharedPeaks 0
#MassDiff 0
#LibMZ -1
#SpecMZ 295.203
#SpecCharge 0
#internalFilename spec-00000.mgf

>collision 10
45.08606 212.0
46.202126 172.0
47.005131 204.0
47.565079 156.0
47.689899 152.0
47.805424 184.0
48.422543 140.0
49.663036 200.0
49.76408 140.0
50.032616 148.0
50.11853 188.0
50.380955 160.0
50.910702 192.0
51.096909 176.0
51.604656 152.0
51.772076 184.0
52.004337 168.0
52.058891 220.0
52.7794 164.0
53.22134 208.0
53.402996 148.0
53.59444 144.0
53.919125 140.0
54.443203 160.0
54.718578 140.0
55.001625 188.0
55.069546 164.0
56.450226 140.0
56.985348 160.0
57.81773 152.0
57.943413 188.0
57.996452 216.0
58.376007 184.0
61.073772 228.0
61.25745 180.0
62.35746 172.0
64.342346 140.0
64.652443 156.0
64.732483 184.0
65.57753 152.0
66.465378 184.0
67.714127 188.0
68.29351 168.0
68.398819 184.0
70.038132 148.0
70.794716 228.0
71.371971 152.0
71.525063 188.0
71.958321 160.0
73.294891 152.0
74.726326 156.0
74.88987 208.0
76.812195 204.0
77.116013 172.0
77.816719 204.0
78.057442 172.0
80.433975 156.0
80.536903 144.0
81.159683 140.0
82.076721 200.0
82.850281 140.0
83.651138 192.0
84.088593 184.0
84.637024 152.0
85.031158 152.0
85.2883 148.0
85.921776 228.0
86.618713 152.0
87.214348 144.0
88.021034 188.0
91.385735 260.0
91.688507 208.0
92.221001 208.0
92.461983 140.0
92.532486 188.0
92.925713 192.0
93.35598 212.0
93.544533 204.0
93.584961 232.0
93.930885 284.0
94.027565 220.0
95.034599 176.0
95.937019 140.0
97.100456 152.0
97.200508 192.0
98.956741 212.0
99.796013 144.0
99.875565 188.0
100.026787 168.0
100.087021 236.0
100.112625 21960.0
100.163857 112.0
101.115929 1304.0
101.623589 260.0
101.935394 100.0
102.021248 140.0
102.111732 152.0
102.653465 236.0
103.601402 208.0
104.301498 160.0
105.618736 144.0
106.063072 148.0
106.188141 160.0
106.720009 200.0
106.966888 148.0
107.005997 144.0
107.446754 140.0
108.04512 1172.0
108.989548 156.0
109.045883 164.0
110.045563 176.0
110.450989 160.0
111.037453 152.0
111.545578 148.0
111.73484 196.0
111.792389 160.0
112.042213 180.0
112.899185 144.0
113.178513 144.0
114.053154 172.0
114.350334 188.0
115.654449 168.0
116.265274 148.0
118.385406 180.0
119.58503 172.0
120.456215 140.0
121.707756 144.0
122.048332 208.0
122.578819 164.0
123.112663 148.0
123.472893 168.0
123.840294 168.0
123.891243 164.0
124.163879 140.0
124.672272 176.0
125.131882 96.0
125.237381 156.0
126.049446 144.0
126.317734 160.0
126.740242 172.0
128.632278 180.0
128.65712 168.0
129.222122 188.0
130.510422 176.0
131.953674 140.0
134.796982 240.0
135.069794 180.0
135.120682 148.0
136.039291 15296.0
136.314453 164.0
136.414734 144.0
136.719437 140.0
136.852112 140.0
137.041641 1160.0
137.745331 152.0
137.960312 160.0
138.043259 212.0
139.053314 168.0
139.484039 256.0
139.716476 176.0
140.056 164.0
142.703964 180.0
142.891846 232.0
147.718826 176.0
147.992294 220.0
149.811371 140.0
150.089218 164.0
150.653 144.0
151.707748 148.0
152.409668 188.0
153.199432 192.0
153.396576 196.0
153.66539 152.0
154.211121 156.0
154.542496 160.0
154.700897 196.0
156.281815 164.0
157.117523 128.0
157.211273 160.0
157.306122 236.0
158.486572 160.0
158.958435 156.0
159.236633 256.0
159.286865 164.0
160.131744 192.0
160.271927 120.0
161.022308 172.0
161.099884 152.0
161.441833 156.0
162.376343 196.0
162.520935 160.0
164.087677 244.0
164.278946 188.0
164.488205 160.0
164.769104 168.0
164.930099 160.0
165.587662 164.0
166.065491 388.0
166.228561 168.0
166.326096 220.0
166.626556 176.0
166.658188 180.0
166.965851 172.0
167.073074 15684.0
167.128448 176.0
167.328674 140.0
168.075867 1916.0
168.865372 204.0
168.939056 148.0
169.03952 208.0
169.080658 884.0
169.125381 144.0
169.487946 144.0
169.578644 156.0
170.066254 156.0
170.994125 168.0
171.176361 228.0
173.533234 260.0
173.806015 140.0
177.361084 148.0
177.965942 324.0
177.996109 188.0
178.086563 43744.0
178.322006 108.0
179.055695 928.0
179.090454 3320.0
179.169617 96.0
179.273087 128.0
179.784027 148.0
180.01767 168.0
180.037643 204.0
180.066422 6784.0
180.145859 116.0
180.176743 104.0
180.207489 204.0
180.286896 148.0
180.4077 112.0
180.524002 156.0
180.542725 276.0
180.700546 184.0
181.067764 1012.0
182.071152 128.0
183.482971 200.0
183.59082 144.0
185.128494 176.0
185.261215 156.0
188.5345 192.0
189.024002 140.0
189.388123 160.0
192.252945 148.0
193.507874 200.0
194.091187 304.0
195.358978 176.0
198.621704 172.0
202.041107 504.0
202.103821 176.0
202.177399 192.0
203.046692 1176.0
203.67157 180.0
203.878342 164.0
204.004028 264.0
204.039825 39332.0
205.043289 6580.0
205.118912 148.0
205.162674 104.0
205.661865 172.0
206.045013 252.0
206.09227 208.0
208.396744 156.0
212.142838 144.0
212.429932 156.0
216.061905 144.0
216.580856 148.0
217.046829 144.0
217.158264 204.0
218.05838 104.0
219.098343 180.0
219.390091 156.0
221.677795 180.0
221.917892 160.0
222.113281 26664.0
222.667908 112.0
222.95871 96.0
222.989517 144.0
223.115295 2968.0
224.114502 100.0
224.88974 196.0
225.12561 200.0
231.622208 176.0
233.695679 172.0
234.123215 160.0
235.408752 208.0
237.21698 148.0
238.819839 172.0
242.797867 188.0
244.989197 148.0
246.040161 168.0
247.052719 160.0
247.962311 116.0
248.06601 1044.0
249.065765 132.0
251.123688 168.0
252.204254 172.0
253.26033 192.0
253.288834 148.0
253.551819 144.0
255.507812 156.0
258.177612 220.0
258.510315 228.0
261.639801 180.0
262.35498 180.0
262.832306 140.0
262.95816 148.0
263.171234 168.0
264.043732 176.0
265.15094 152.0
271.088776 144.0
272.543549 116.0
273.469788 176.0
276.229553 220.0
276.440033 148.0
276.959686 212.0
278.552002 192.0
278.894257 176.0
279.185699 2176.0
280.188416 544.0
281.750061 160.0
288.396942 148.0
290.041931 152.0
291.02063 140.0
291.314911 144.0
291.865021 160.0
292.128448 412.0
292.627167 172.0
292.673798 168.0
293.07309 112.0
293.123688 9180.0
293.18631 248.0
293.291473 216.0
293.378357 228.0
293.623779 128.0
293.901154 124.0
293.946259 148.0
294.070709 96.0
294.12616 1908.0
294.202271 172.0
294.244476 176.0
294.78183 228.0
294.843689 144.0
294.870911 116.0
294.895813 216.0
294.94165 132.0
295.028992 256.0
295.074799 188.0
295.13205 552.0
295.203125 102376.0
295.310516 136.0
295.527954 156.0
295.620239 116.0
295.683167 96.0
295.765228 1060.0
295.81076 124.0
295.864441 132.0
296.038025 172.0
296.166534 128.0
296.20459 17612.0
296.318573 108.0
296.44046 96.0
296.494354 112.0
296.791351 112.0
296.851196 116.0
296.972687 144.0
297.203156 2636.0
297.282745 196.0
297.474365 96.0
297.714935 140.0
297.85611 184.0
297.940826 144.0
298.07489 160.0
298.202698 708.0
298.365234 116.0
298.804901 152.0
299.028687 116.0
299.069885 176.0
299.204132 148.0
299.414185 168.0
299.570129 116.0
307.394623 156.0
320.135162 164.0
330.299683 180.0
880.30658 256.0
1206.070679 148.0
1330.216919 148.0
1336.525269 148.0
1360.453979 176.0
1371.02356 200.0
1378.7948 192.0
1382.714478 152.0
1384.424683 224.0
1384.52832 152.0
1394.901001 180.0
1421.992432 168.0
1479.612671 144.0
1482.140137 220.0
1489.674194 176.0
1497.689453 156.0
1504.706909 140.0
1519.326294 144.0
1559.400879 200.0
1564.655518 176.0
1580.01355 164.0
1582.387817 184.0
1584.058838 276.0
1597.219849 208.0
1602.314697 188.0
1619.721802 168.0
1635.886353 168.0
1636.973267 144.0
1654.081421 156.0
1656.907715 152.0
1664.637451 164.0
1667.318359 144.0
1683.383301 176.0
1684.853516 184.0
1685.474487 196.0
1692.762817 188.0
1707.427734 164.0
1712.093994 184.0
1713.197754 184.0
1716.931641 196.0
1753.151978 164.0
1753.552002 300.0
1761.211426 148.0
1762.999268 144.0
1764.528931 172.0
1767.088257 164.0
1767.431274 176.0
1772.027954 236.0
1772.706665 208.0
1790.491333 184.0
1795.598633 168.0
1798.914673 164.0
1806.452515 164.0
1812.41272 152.0
1813.183838 168.0
1829.78186 172.0
1838.851807 140.0
1839.295654 168.0
1841.831665 228.0
1846.76355 172.0
1852.070312 160.0
1852.233032 156.0
1870.505859 148.0
1874.683105 152.0
1875.544922 148.0
1890.858521 144.0
1895.500366 168.0
1895.933594 260.0
1901.657715 208.0
1903.36792 184.0
1908.259644 228.0
1912.008789 212.0
1914.028442 220.0
1919.919312 176.0
1920.198364 208.0
1928.291748 264.0
1931.369385 176.0
1936.743774 152.0
1943.985474 224.0
1964.671265 192.0
1973.034546 152.0
1974.14856 152.0
1993.936035 152.0
