>compound Zonisamide
>formula C8H8N2O3S 
>ionization [M+H]+
>parentmass 213.033264
#inchi InChI=1S/C8H8N2O3S/c9-14(11,12)5-7-6-3-1-2-4-8(6)13-10-7/h1-4H,5H2,(H2,9,11,12)
#inchikey UBQNRHZMVUUOMG
#Ion_Source LC-ESI
#Instrument qTof
#Compound_Source Commercial
#PI Dorrestein
#Data_Collector Garg_Neha
#Scan -1
#Precursor_MZ 213.034
#ExactMass 212.026
#Charge 1
#CAS_Number N/A
#Pubmed_ID N/A
#Smiles N/A
#INCHI_AUX N/A
#Library_Class 1
#SpectrumID CCMSLIB00000077113
#IonMode Positive
#UpdateWorkflowName UPDATE-SINGLE-ANNOTATED-GOLD
#LibraryQualityString Gold
#TaskID 48f7f52fc6d249b5abbcc6e7b3df5969
##Scan# 1107
#SpectrumFile NCP003106_G2_H11_BB5_01_15708.mzXML
#LibraryName NIH_Clinical_Collection_2.mgf
#MQScore -1
#Organism NIHcollection2_04212014_2_mgf
#TIC_Query 0
#RT_Query -1
#MZErrorPPM -1
#SharedPeaks 0
#MassDiff 0
#LibMZ -1
#SpecMZ 213.034
#SpecCharge 0
#internalFilename spec-00000.mgf

>collision 10
49.101521 148.0
73.270058 176.0
87.447533 176.0
92.045921 160.0
95.085724 188.0
96.726883 140.0
97.692352 152.0
102.030289 316.0
104.051437 264.0
105.033386 140.0
105.088226 152.0
120.045288 316.0
121.046455 156.0
130.042038 480.0
132.045151 4144.0
133.046158 376.0
135.054306 192.0
147.045135 148.0
148.232544 152.0
148.256775 148.0
149.070587 632.0
150.056091 2636.0
151.057785 256.0
152.058929 140.0
165.101746 148.0
211.164215 176.0
212.728882 144.0
213.033264 3300.0
213.143143 824.0
214.036285 292.0
214.14064 148.0
215.037537 216.0
215.079681 164.0
215.139267 164.0
217.947983 176.0
280.088379 156.0
1294.244873 144.0
1491.982788 152.0
1660.971191 140.0
1665.719849 152.0
1874.270264 144.0
1987.702026 164.0
