>compound MLS001140218-01!3-(3,5-dimethyl-7-oxofuro[3,2-g]chromen-6-yl)-N-(pyridin-2-ylmethyl)propanamide
>formula C22H20N2O4
>ionization [M+H]+
>parentmass 377.15
#inchi InChI=1S/C22H20N2O4/c1-13-12-27-19-10-20-18(9-17(13)19)14(2)16(22(26)28-20)6-7-21(25)24-11-15-5-3-4-8-23-15/h3-5,8-10,12H,6-7,11H2,1-2H3,(H,24,25)
#inchikey IDYLZBMYUOISRS
#Ion_Source LC-ESI
#Instrument qTof
#Compound_Source NIH Natural Product Library
#PI Dorrestein
#Data_Collector VVP/LMS
#Scan -1
#Precursor_MZ 377.15
#ExactMass 376.142
#Charge 1
#CAS_Number N/A
#Pubmed_ID N/A
#Smiles Cc1coc2cc3oc(=O)c(CCC(=O)NCc4ccccn4)c(C)c3cc12
#INCHI_AUX N/A
#Library_Class 1
#SpectrumID CCMSLIB00000079944
#IonMode Positive
#UpdateWorkflowName UPDATE-SINGLE-ANNOTATED-GOLD
#LibraryQualityString Gold
#TaskID b1d8e8f6646f4e71acdff9ca3d919d08
##Scan# 1739
#SpectrumFile p2-B02_GB2_01_17990.mzXML
#LibraryName NIH_Natural_Products_Library.mgf
#MQScore -1
#Organism NIH_Natural_Products_Library
#TIC_Query 0
#RT_Query -1
#MZErrorPPM -1
#SharedPeaks 0
#MassDiff 0
#LibMZ -1
#SpecMZ 377.15
#SpecCharge 0
#internalFilename spec-00000.mgf

>collision 10
94.963348 140.0
94.982742 164.0
95.000198 168.0
95.022247 132.0
95.04435 180.0
95.064232 164.0
95.083633 96.0
95.103043 180.0
95.137985 136.0
95.180702 132.0
95.205299 228.0
95.214546 84.0
95.222519 180.0
95.244789 120.0
95.274345 148.0
95.332458 164.0
95.369141 132.0
95.382751 76.0
95.403732 136.0
95.44072 152.0
95.471642 200.0
95.495293 132.0
95.54805 128.0
95.581451 144.0
95.621994 100.0
95.666763 128.0
95.682335 144.0
95.713402 180.0
95.74659 156.0
95.785545 216.0
95.843994 260.0
95.871277 180.0
95.897621 232.0
96.070152 148.0
96.132591 136.0
96.212616 132.0
96.249718 176.0
96.327835 228.0
96.347374 164.0
96.366905 104.0
96.380585 160.0
96.394264 148.0
96.411499 176.0
96.462646 368.0
96.50959 148.0
96.529144 160.0
96.548698 172.0
96.582642 136.0
96.589615 48.0
96.594933 132.0
96.630577 176.0
96.648468 48.0
96.667091 240.0
96.715004 140.0
96.736267 144.0
96.7659 156.0
96.791504 108.0
96.814133 184.0
96.873611 200.0
96.917976 112.0
97.027618 240.0
97.090073 340.0
97.128448 160.0
97.195152 152.0
97.245293 204.0
97.279694 136.0
97.363274 168.0
97.383614 180.0
97.436653 216.0
97.458267 128.0
97.484703 164.0
97.553497 228.0
97.599525 120.0
97.628998 140.0
97.654846 152.0
97.723701 140.0
97.757149 68.0
97.790611 336.0
97.806358 296.0
97.90345 140.0
97.920555 160.0
97.950592 144.0
98.00132 92.0
98.026939 84.0
98.058151 148.0
98.082703 136.0
98.114204 188.0
98.129433 44.0
98.14521 88.0
98.163269 176.0
98.212257 208.0
98.233955 104.0
98.247765 216.0
98.26355 284.0
98.291237 128.0
98.38591 60.0
98.452156 196.0
98.489845 152.0
98.532059 208.0
98.571266 168.0
98.600754 204.0
98.638367 228.0
98.654587 252.0
98.686218 132.0
98.723457 160.0
98.767967 148.0
98.783127 260.0
98.834564 136.0
98.856331 188.0
98.901711 232.0
98.929825 120.0
98.986984 108.0
99.010742 268.0
99.026588 100.0
99.047203 276.0
99.078094 180.0
99.121849 204.0
99.147446 144.0
99.213768 168.0
99.22982 236.0
99.294151 176.0
99.359612 152.0
99.415169 200.0
99.490593 176.0
99.52037 132.0
99.581932 128.0
99.647621 180.0
99.69915 152.0
99.744865 204.0
99.78463 156.0
99.804512 52.0
99.851089 152.0
99.886047 192.0
99.947723 180.0
99.977188 124.0
100.003448 200.0
100.021362 252.0
100.047241 200.0
100.097015 172.0
100.122185 156.0
100.157524 156.0
100.271713 208.0
100.302223 176.0
100.321487 192.0
100.341217 164.0
100.346947 92.0
100.370003 124.0
100.414223 140.0
100.460648 152.0
100.493668 188.0
100.531586 148.0
100.585472 88.0
100.635384 204.0
100.657135 152.0
100.67942 152.0
100.719261 360.0
100.733238 200.0
100.746735 196.0
100.765205 124.0
100.795174 196.0
100.842293 180.0
100.873123 216.0
100.886063 164.0
100.909103 80.0
100.939102 156.0
100.960587 204.0
101.005096 144.0
101.033104 120.0
101.089127 256.0
101.135162 124.0
101.152214 92.0
101.170692 156.0
101.21524 152.0
101.248962 100.0
101.273315 88.0
101.300041 232.0
101.318794 148.0
101.349442 168.0
101.375137 180.0
101.45433 148.0
101.471313 164.0
101.4786 104.0
101.503784 148.0
101.53186 208.0
101.565956 152.0
101.580589 136.0
101.632004 152.0
101.652275 180.0
101.732513 96.0
101.798767 152.0
101.913101 128.0
101.939384 176.0
101.95546 164.0
101.975563 184.0
102.068039 36.0
102.114288 204.0
102.129417 268.0
102.185448 236.0
102.216888 128.0
102.232986 60.0
102.287231 164.0
102.330948 120.0
102.349739 128.0
102.383972 132.0
102.428284 52.0
102.480667 80.0
102.517746 160.0
102.540749 152.0
102.595001 164.0
102.600655 236.0
102.6399 88.0
102.698235 164.0
102.718559 204.0
102.775047 144.0
102.847694 144.0
102.894127 152.0
102.954704 296.0
103.019341 140.0
103.054733 432.0
103.126434 212.0
103.148666 72.0
103.205276 112.0
103.23156 120.0
103.257851 144.0
103.272011 92.0
103.29583 208.0
103.314491 124.0
103.344841 36.0
103.359001 212.0
103.375191 128.0
103.39138 164.0
103.430634 140.0
103.458656 156.0
103.476395 132.0
103.492149 184.0
103.517166 148.0
103.533096 160.0
103.54882 204.0
103.566444 128.0
103.596954 156.0
103.650589 120.0
103.68351 212.0
103.755981 124.0
103.776253 128.0
103.794502 156.0
103.831009 124.0
103.861816 188.0
103.891861 168.0
103.919037 188.0
103.950012 188.0
103.968964 152.0
104.056885 280.0
104.09462 120.0
104.149658 160.0
104.184196 128.0
104.216888 132.0
104.237022 120.0
104.279701 120.0
104.308151 184.0
104.404793 128.0
104.437386 228.0
104.516388 196.0
104.533913 132.0
104.550194 48.0
104.582756 92.0
104.611252 236.0
104.641792 72.0
104.660622 144.0
104.684547 120.0
104.700157 296.0
104.747688 224.0
104.776207 144.0
104.812881 216.0
104.831673 144.0
104.878098 108.0
104.899689 256.0
104.916832 172.0
104.954849 160.0
104.990234 120.0
105.008591 100.0
105.05159 192.0
105.075172 224.0
105.11467 168.0
105.149361 164.0
105.187218 212.0
105.208557 208.0
105.234795 112.0
105.286148 196.0
105.345001 208.0
105.384842 192.0
105.412811 156.0
105.449303 324.0
105.520737 368.0
105.750427 328.0
105.819855 192.0
105.866951 52.0
105.888916 288.0
105.996002 240.0
106.023766 204.0
106.114883 128.0
106.16478 156.0
106.194862 116.0
106.251732 188.0
106.320625 188.0
106.352852 204.0
106.376282 48.0
106.408981 128.0
106.476387 184.0
106.533554 152.0
106.568481 84.0
106.603409 180.0
106.61985 220.0
106.656845 152.0
106.679459 72.0
106.708237 48.0
106.751419 160.0
106.792549 188.0
106.855415 172.0
106.928345 108.0
106.961273 148.0
106.996269 216.0
107.019257 220.0
107.043053 200.0
107.063759 196.0
107.080299 352.0
107.112434 216.0
107.146614 184.0
107.182381 112.0
107.217773 172.0
107.232559 232.0
107.365112 164.0
107.379547 156.0
107.401222 188.0
107.437881 192.0
107.478569 144.0
107.511581 80.0
107.540474 260.0
107.571838 124.0
107.612732 40.0
107.642822 188.0
107.685005 160.0
107.699463 104.0
107.724251 116.0
107.744484 200.0
107.775902 160.0
107.81723 140.0
107.842033 152.0
107.864769 108.0
107.895775 136.0
107.91449 152.0
107.937126 80.0
107.96608 48.0
107.997101 128.0
108.013649 40.0
108.036407 200.0
108.071579 96.0
108.096405 128.0
108.115562 164.0
108.13987 92.0
108.273926 48.0
108.27739 132.0
108.2855 248.0
108.475426 108.0
108.506523 212.0
108.535545 108.0
108.564583 200.0
108.580261 224.0
108.599274 132.0
108.630951 136.0
108.647545 164.0
108.68074 148.0
108.753098 176.0
108.790741 220.0
108.815659 120.0
108.848877 196.0
108.865486 232.0
108.920525 320.0
108.947182 268.0
108.966713 180.0
108.991318 172.0
109.076561 4408.0
109.17305 40.0
109.200089 108.0
109.273079 136.0
109.322838 76.0
109.351921 156.0
109.383194 160.0
109.423515 196.0
109.445648 148.0
109.493546 144.0
109.51368 136.0
109.531036 48.0
109.607407 152.0
109.612877 212.0
109.631042 160.0
109.659149 140.0
109.696602 124.0
109.74778 304.0
109.77697 168.0
109.801994 140.0
109.847885 132.0
109.861206 128.0
109.881264 104.0
109.906303 280.0
109.950119 184.0
110.004395 232.0
110.059158 464.0
110.080887 684.0
110.122604 196.0
110.141403 176.0
110.186523 56.0
110.204063 112.0
110.252014 144.0
110.299438 160.0
110.329369 164.0
110.358566 152.0
110.397835 204.0
110.422287 200.0
110.449478 136.0
110.46859 144.0
110.490959 164.0
110.602226 124.0
110.648285 160.0
110.673409 172.0
110.688065 116.0
110.704819 168.0
110.73333 208.0
110.78598 180.0
110.840981 80.0
110.870316 68.0
110.89756 120.0
110.952324 184.0
110.967812 196.0
111.004478 200.0
111.044327 116.0
111.065262 200.0
111.082886 192.0
111.103058 148.0
111.119843 144.0
111.138725 96.0
111.156853 176.0
111.183395 112.0
111.207977 100.0
111.22477 56.0
111.282501 40.0
111.306648 184.0
111.333946 132.0
111.394859 212.0
111.417969 152.0
111.448906 204.0
111.482857 204.0
111.54406 364.0
111.558769 160.0
111.584 184.0
111.620132 152.0
111.66053 192.0
111.704819 220.0
111.745178 120.0
111.760674 156.0
111.827553 192.0
111.8638 252.0
111.948021 116.0
111.96344 136.0
111.99646 164.0
112.0112 140.0
112.036484 232.0
112.06176 200.0
112.082832 156.0
112.120766 68.0
112.160812 124.0
112.177673 132.0
112.192635 188.0
112.211403 152.0
112.259903 116.0
112.333725 88.0
112.363731 160.0
112.420738 232.0
112.517326 144.0
112.559555 176.0
112.587006 124.0
112.62291 124.0
112.671494 140.0
112.745453 88.0
112.772926 136.0
112.808861 108.0
112.971695 72.0
112.987183 228.0
113.032227 144.0
113.050018 232.0
113.1549 84.0
113.198036 132.0
113.227806 204.0
113.263817 148.0
113.345154 112.0
113.401543 200.0
113.43055 152.0
113.662903 148.0
113.710373 76.0
113.749405 152.0
113.77655 168.0
113.808846 156.0
113.860199 172.0
113.922112 352.0
113.95417 244.0
113.985153 124.0
114.00853 220.0
114.046783 68.0
114.107597 204.0
114.229652 132.0
114.25518 156.0
114.272202 140.0
114.300835 192.0
114.335098 164.0
114.369987 172.0
114.431824 244.0
114.498199 116.0
114.546822 308.0
114.576653 148.0
114.590881 272.0
114.625298 144.0
114.646965 140.0
114.678932 128.0
114.720932 216.0
114.745369 192.0
114.800453 92.0
114.830315 100.0
114.860176 136.0
114.881508 84.0
114.902161 112.0
114.947441 124.0
114.960686 144.0
114.992462 192.0
115.03273 184.0
115.054787 3648.0
115.091766 128.0
115.112144 328.0
115.132751 196.0
115.154663 140.0
115.186623 240.0
115.224113 164.0
115.255135 200.0
115.275787 208.0
115.302147 128.0
115.396202 176.0
115.446762 160.0
115.471046 172.0
115.504356 160.0
115.531738 128.0
115.576653 196.0
115.597084 188.0
115.680733 164.0
115.755669 88.0
115.77066 204.0
115.88633 152.0
115.920616 52.0
116.030563 108.0
116.059662 424.0
116.11097 116.0
116.129852 168.0
116.175766 192.0
116.19722 176.0
116.267845 192.0
116.298073 168.0
116.321091 244.0
116.355705 156.0
116.413246 192.0
116.508514 148.0
116.56868 76.0
116.615959 108.0
116.643898 204.0
116.667549 152.0
116.693344 180.0
116.714844 168.0
116.729897 176.0
116.749886 136.0
116.799339 196.0
116.826683 216.0
116.848198 72.0
116.893387 108.0
116.921364 144.0
116.949341 116.0
116.98378 196.0
117.068497 188.0
117.091438 164.0
117.120811 132.0
117.166832 164.0
117.185257 152.0
117.240097 200.0
117.272423 168.0
117.293388 160.0
117.35218 116.0
117.38884 124.0
117.457123 164.0
117.483742 164.0
117.525887 228.0
117.606743 108.0
117.629471 136.0
117.656631 180.0
117.695335 220.0
117.732513 392.0
117.766518 108.0
117.788116 104.0
117.820526 108.0
117.916656 196.0
117.965317 80.0
117.98909 80.0
118.025848 144.0
118.059135 92.0
118.065544 212.0
118.090729 112.0
118.141594 124.0
118.175095 176.0
118.193588 168.0
118.257324 44.0
118.304947 224.0
118.336205 124.0
118.376396 40.0
118.395889 144.0
118.418999 248.0
118.448143 160.0
118.502029 168.0
118.521027 292.0
118.569206 92.0
118.721558 204.0
118.74482 160.0
118.761406 160.0
118.794174 148.0
118.829414 136.0
118.846771 124.0
118.874985 124.0
118.911873 52.0
118.967453 192.0
118.998711 100.0
119.037788 256.0
119.085571 68.0
119.114906 188.0
119.163773 120.0
119.338593 120.0
119.354088 136.0
119.380936 168.0
119.389153 152.0
119.455086 136.0
119.507301 164.0
119.589394 144.0
119.805573 176.0
119.82518 320.0
119.844376 148.0
119.866302 156.0
119.889313 260.0
119.937782 180.0
119.962479 136.0
119.984276 144.0
120.010445 124.0
120.070412 224.0
120.117302 128.0
120.17067 156.0
120.197174 164.0
120.215485 184.0
120.250404 124.0
120.269569 144.0
120.307159 148.0
120.398865 168.0
120.418518 168.0
120.443489 204.0
120.477295 208.0
120.512451 148.0
120.537682 132.0
120.545227 180.0
120.560005 100.0
120.563522 108.0
120.612984 224.0
120.645767 160.0
120.73793 188.0
120.798851 196.0
120.818535 152.0
120.963936 200.0
120.971924 88.0
120.979553 208.0
121.031593 128.0
121.081146 160.0
121.132904 304.0
121.172058 176.0
121.201691 96.0
121.301949 172.0
121.310104 120.0
121.317505 204.0
121.363014 168.0
121.473549 192.0
121.496773 184.0
121.521812 96.0
121.556923 172.0
121.589836 88.0
121.62796 184.0
121.725945 88.0
121.749214 212.0
121.826981 156.0
121.898666 172.0
121.932449 168.0
121.974213 132.0
122.015854 144.0
122.022636 136.0
122.03006 148.0
122.038506 196.0
122.095139 156.0
122.150124 252.0
122.229324 104.0
122.268936 148.0
122.286545 68.0
122.312958 112.0
122.342865 192.0
122.385605 176.0
122.431854 124.0
122.47496 168.0
122.511147 168.0
122.539787 160.0
122.614708 128.0
122.630135 168.0
122.680832 200.0
122.740364 196.0
122.857254 112.0
122.873703 72.0
122.898987 164.0
122.933434 132.0
122.96759 136.0
122.98304 152.0
123.043465 180.0
123.07782 124.0
123.130569 112.0
123.159988 228.0
123.274559 140.0
123.346573 156.0
123.387291 200.0
123.418243 92.0
123.446991 164.0
123.579704 216.0
123.644127 144.0
123.671692 152.0
123.721352 164.0
123.75235 192.0
123.792931 232.0
123.827637 160.0
123.883011 88.0
123.911812 228.0
123.94062 124.0
123.96035 168.0
123.96418 152.0
123.987152 156.0
124.004883 88.0
124.082184 156.0
124.104637 172.0
124.146774 156.0
124.211998 244.0
124.28009 196.0
124.326401 132.0
124.368637 144.0
124.390831 156.0
124.413033 60.0
124.45253 152.0
124.457359 120.0
124.467155 148.0
124.473335 176.0
124.495186 120.0
124.548485 104.0
124.566261 132.0
124.5942 164.0
124.63369 160.0
124.657349 80.0
124.706352 168.0
124.766266 172.0
124.824074 76.0
124.852982 184.0
124.878059 160.0
124.948631 156.0
124.964127 116.0
124.994576 104.0
125.091522 172.0
125.113319 184.0
125.1623 92.0
125.244774 124.0
125.283508 232.0
125.310997 228.0
125.328468 240.0
125.350624 184.0
125.444862 116.0
125.465309 148.0
125.48761 116.0
125.512131 96.0
125.538895 124.0
125.601341 100.0
125.625778 172.0
125.668266 300.0
125.720428 212.0
125.750832 64.0
125.811104 180.0
125.828964 152.0
125.873619 104.0
125.964462 172.0
126.025116 136.0
126.060402 176.0
126.110565 132.0
126.170784 156.0
126.22892 44.0
126.301323 128.0
126.336273 148.0
126.374306 172.0
126.432487 264.0
126.527496 120.0
126.551132 104.0
126.566803 32.0
126.602631 128.0
126.644753 144.0
126.68161 184.0
126.710152 184.0
126.739273 100.0
126.777367 188.0
126.827583 148.0
126.929802 40.0
126.962379 220.0
126.992599 128.0
127.05349 1068.0
127.201271 168.0
127.218369 208.0
127.269669 172.0
127.338242 152.0
127.362946 296.0
127.470787 208.0
127.48539 124.0
127.577713 252.0
127.62429 248.0
127.65979 204.0
127.693352 124.0
127.715843 84.0
127.742546 156.0
127.801331 104.0
127.844658 156.0
127.877548 248.0
127.902603 192.0
127.922859 136.0
127.94043 164.0
128.006287 72.0
128.062134 11568.0
128.127136 68.0
128.158585 120.0
128.224121 148.0
128.265259 32.0
128.300873 160.0
128.337402 188.0
128.360703 192.0
128.398285 136.0
128.414078 32.0
128.440536 212.0
128.497528 232.0
128.531967 172.0
128.556137 140.0
128.574249 112.0
128.603592 164.0
128.693893 36.0
128.720993 152.0
128.775192 60.0
128.951416 160.0
129.019241 160.0
129.042633 80.0
129.069305 4796.0
129.100632 148.0
129.154922 48.0
129.189835 212.0
129.214172 212.0
129.243149 188.0
129.278412 224.0
129.316467 180.0
129.363098 176.0
129.401367 164.0
129.467346 184.0
129.539734 136.0
129.573837 148.0
129.614487 352.0
129.657547 104.0
129.685501 168.0
129.748215 112.0
129.770889 120.0
129.801407 164.0
129.871994 180.0
129.92511 156.0
129.9478 148.0
129.96521 196.0
130.018143 36.0
130.04155 152.0
130.075348 1040.0
130.145462 92.0
130.191956 208.0
130.258881 148.0
130.278763 144.0
130.32016 52.0
130.379242 144.0
130.447433 36.0
130.486954 116.0
130.511093 144.0
130.558838 132.0
130.574753 120.0
130.606598 160.0
130.63205 300.0
130.704422 204.0
130.761414 292.0
130.809875 204.0
130.857788 212.0
130.911575 144.0
130.975342 184.0
131.007233 160.0
131.039612 152.0
131.060623 1256.0
131.105209 112.0
131.125732 72.0
131.238144 140.0
131.276184 52.0
131.314957 148.0
131.384766 80.0
131.412735 228.0
131.460968 128.0
131.504333 192.0
131.534668 192.0
131.563675 152.0
131.62468 140.0
131.6436 144.0
131.712112 152.0
131.730392 136.0
131.762375 168.0
131.791885 148.0
131.878906 156.0
131.901764 156.0
131.995499 188.0
132.068008 5284.0
132.142929 188.0
132.180786 184.0
132.200302 160.0
132.260895 52.0
132.286072 120.0
132.350174 184.0
132.40271 132.0
132.444855 188.0
132.471558 136.0
132.489883 172.0
132.522339 120.0
132.592087 192.0
132.613632 148.0
132.635803 172.0
132.702194 208.0
132.735123 164.0
132.774109 108.0
132.801987 156.0
132.842926 44.0
132.879639 176.0
132.916336 84.0
132.932404 164.0
132.948471 116.0
133.012741 224.0
133.047836 216.0
133.07399 516.0
133.171173 128.0
133.221436 140.0
133.242386 116.0
133.309006 128.0
133.334717 208.0
133.347397 120.0
133.35321 172.0
133.4021 192.0
133.43782 104.0
133.473755 204.0
133.506714 144.0
133.525116 164.0
133.575714 96.0
133.603317 64.0
133.630341 172.0
133.651642 208.0
133.671783 180.0
133.724014 220.0
133.755203 148.0
133.792038 124.0
133.82016 128.0
133.84343 148.0
133.868561 168.0
133.923294 168.0
133.939407 52.0
133.99411 124.0
134.054611 144.0
134.09935 240.0
134.142197 44.0
134.178558 176.0
134.254486 216.0
134.402802 164.0
134.478455 220.0
134.521637 180.0
134.590286 176.0
134.626709 76.0
134.697037 280.0
134.757263 104.0
134.813843 328.0
134.869354 184.0
134.89534 152.0
134.938385 172.0
134.961777 200.0
134.982941 132.0
135.044342 280.0
135.070465 68.0
135.227814 220.0
135.248642 172.0
135.27179 208.0
135.287994 92.0
135.319489 152.0
135.34819 136.0
135.378296 168.0
135.39682 76.0
135.440826 164.0
135.491791 112.0
135.571213 72.0
135.635529 164.0
135.654007 172.0
135.756027 180.0
135.823288 184.0
135.841843 180.0
135.921631 176.0
135.974106 208.0
136.023087 152.0
136.099457 88.0
136.118042 132.0
136.166809 180.0
136.238815 160.0
136.271332 188.0
136.354996 40.0
136.37941 472.0
136.410782 148.0
136.441605 216.0
136.456482 164.0
136.48053 36.0
136.522385 96.0
136.565781 200.0
136.654968 128.0
136.673462 216.0
136.710815 424.0
136.768997 252.0
136.861191 20.0
136.913345 176.0
137.162659 204.0
137.189423 240.0
137.272232 184.0
137.290894 76.0
137.321213 184.0
137.344528 160.0
137.393524 200.0
137.42189 148.0
137.493851 156.0
137.533524 128.0
137.577881 236.0
137.596558 148.0
137.624908 172.0
137.685287 108.0
137.740555 192.0
137.759094 140.0
137.775101 380.0
137.851837 232.0
137.895554 224.0
137.959351 152.0
138.042847 132.0
138.063889 224.0
138.134064 160.0
138.15036 140.0
138.190201 56.0
138.214386 132.0
138.231323 216.0
138.27211 292.0
138.332962 108.0
138.361206 124.0
138.450027 92.0
138.483078 184.0
138.526581 120.0
138.583557 160.0
138.656204 112.0
138.679642 196.0
138.710541 196.0
138.728867 100.0
138.780441 172.0
138.836716 192.0
138.864853 48.0
138.890656 192.0
138.917953 176.0
138.937576 240.0
138.999634 192.0
139.05426 308.0
139.13237 76.0
139.199448 216.0
139.219833 128.0
139.246094 216.0
139.28299 172.0
139.313187 228.0
139.32988 156.0
139.350784 152.0
139.426636 172.0
139.480042 168.0
139.555664 48.0
139.607803 200.0
139.635223 240.0
139.668152 148.0
139.738724 172.0
139.778717 108.0
139.798935 208.0
139.82814 120.0
139.908173 152.0
139.964676 136.0
139.98587 132.0
140.021194 52.0
140.066513 396.0
140.091858 120.0
140.113068 188.0
140.150757 160.0
140.249695 188.0
140.33078 96.0
140.348755 136.0
140.402985 128.0
140.459595 112.0
140.579926 168.0
140.596451 68.0
140.629486 188.0
140.648773 140.0
140.693222 48.0
140.723907 124.0
140.761459 160.0
140.804199 264.0
140.84671 172.0
140.891602 168.0
140.929398 188.0
140.957611 192.0
140.971725 224.0
140.980682 160.0
140.998886 216.0
141.021561 176.0
141.042831 212.0
141.070312 1576.0
141.109024 196.0
141.159592 124.0
141.189423 132.0
141.23436 152.0
141.312424 168.0
141.390518 96.0
141.423645 168.0
141.444122 172.0
141.551498 136.0
141.5728 184.0
141.622543 104.0
141.665176 196.0
141.686493 164.0
141.781281 132.0
141.812088 156.0
141.852386 120.0
141.892685 152.0
141.909286 212.0
141.940109 176.0
141.993866 220.0
142.020248 172.0
142.048462 192.0
142.078079 2412.0
142.147873 184.0
142.167297 160.0
142.208649 104.0
142.241409 48.0
142.315536 220.0
142.343506 116.0
142.403656 196.0
142.443253 120.0
142.459885 132.0
142.550171 200.0
142.600082 204.0
142.616714 124.0
142.640488 304.0
142.666641 160.0
142.686768 188.0
142.740189 308.0
142.771255 132.0
142.833099 464.0
142.860107 68.0
142.885193 320.0
142.922531 276.0
142.971085 284.0
143.009338 160.0
143.049469 392.0
143.086365 11448.0
143.14325 200.0
143.216827 188.0
143.261581 108.0
143.28302 188.0
143.303055 144.0
143.329376 140.0
143.337372 220.0
143.386139 188.0
143.406937 152.0
143.455536 164.0
143.52269 108.0
143.549973 160.0
143.589706 164.0
143.671616 36.0
143.690704 144.0
143.758682 188.0
143.805237 116.0
143.833893 28.0
143.888794 236.0
143.913727 72.0
143.938934 200.0
143.955643 140.0
143.977585 192.0
144.016846 180.0
144.051697 496.0
144.088593 1244.0
144.115692 172.0
144.146088 392.0
144.170654 144.0
144.199966 120.0
144.228012 124.0
144.266647 308.0
144.283966 228.0
144.315979 184.0
144.352325 36.0
144.373245 208.0
144.397766 236.0
144.416901 140.0
144.445602 88.0
144.462357 148.0
144.498245 160.0
144.541306 264.0
144.559372 168.0
144.616135 112.0
144.646606 140.0
144.672943 260.0
144.688171 172.0
144.746796 184.0
144.774216 204.0
144.826202 112.0
144.859406 180.0
144.93161 180.0
144.980927 260.0
145.008286 192.0
145.064392 1188.0
145.104172 304.0
145.135345 124.0
145.168915 124.0
145.224075 176.0
145.312836 176.0
145.34642 176.0
145.452026 128.0
145.478226 140.0
145.512512 232.0
145.588882 128.0
145.668137 144.0
145.742615 168.0
145.793076 144.0
145.824326 60.0
145.920471 152.0
145.980591 140.0
146.014572 216.0
146.06575 180.0
146.071869 80.0
146.151382 108.0
146.180878 216.0
146.300598 104.0
146.339111 156.0
146.364532 180.0
146.428207 204.0
146.536621 180.0
146.553482 116.0
146.611313 200.0
146.632996 164.0
146.717361 200.0
146.748718 88.0
146.775238 340.0
146.799011 172.0
146.851425 148.0
146.895828 176.0
146.919952 140.0
146.941666 136.0
146.970612 180.0
146.992859 180.0
147.016998 164.0
147.043015 84.0
147.122665 140.0
147.195099 156.0
147.241425 132.0
147.263016 192.0
147.294113 160.0
147.340012 108.0
147.374878 232.0
147.410904 200.0
147.465668 40.0
147.50676 216.0
147.526108 140.0
147.561325 152.0
147.601044 96.0
147.63974 212.0
147.731598 168.0
147.783493 112.0
147.818756 88.0
147.896194 132.0
147.929657 144.0
147.976089 168.0
148.021042 156.0
148.049164 340.0
148.104431 148.0
148.222427 356.0
148.244949 244.0
148.315247 124.0
148.343063 128.0
148.380692 52.0
148.434036 48.0
148.518921 144.0
148.603973 124.0
148.632935 124.0
148.67662 136.0
148.71788 136.0
148.734863 180.0
148.79538 232.0
148.814758 216.0
148.846542 120.0
148.868408 216.0
148.948547 132.0
148.972839 208.0
149.045731 200.0
149.096756 128.0
149.11377 188.0
149.138077 124.0
149.191422 136.0
149.23999 160.0
149.291245 168.0
149.378815 132.0
149.422592 180.0
149.496445 444.0
149.585648 116.0
149.622162 48.0
149.652771 224.0
149.70314 188.0
149.797501 120.0
149.836487 112.0
149.886124 220.0
149.904709 112.0
149.933182 228.0
149.969299 144.0
149.990005 152.0
150.10704 68.0
150.128983 160.0
150.232544 208.0
150.258255 56.0
150.277771 176.0
150.324142 172.0
150.366486 124.0
150.392471 184.0
150.414444 180.0
150.438202 180.0
150.586624 160.0
150.631775 112.0
150.68454 128.0
150.729492 128.0
150.816528 152.0
150.873703 144.0
150.902023 184.0
150.962128 144.0
151.010635 184.0
151.057327 92.0
151.086456 192.0
151.103592 124.0
151.145187 96.0
151.196579 236.0
151.225937 124.0
151.301819 176.0
151.353241 208.0
151.370377 188.0
151.409561 48.0
151.441406 100.0
151.468353 180.0
151.513428 168.0
151.620255 168.0
151.706497 176.0
151.733017 148.0
151.752625 168.0
151.792465 144.0
151.825989 196.0
151.848267 108.0
151.867889 144.0
151.926758 84.0
151.991821 124.0
152.024902 208.0
152.062576 1464.0
152.144348 192.0
152.20517 284.0
152.236267 164.0
152.302338 48.0
152.329361 148.0
152.376358 240.0
152.442917 180.0
152.484146 132.0
152.516098 140.0
152.557892 88.0
152.596252 156.0
152.648865 152.0
152.730026 108.0
152.850571 56.0
152.889954 36.0
152.909637 44.0
152.963852 152.0
153.010559 124.0
153.070633 9944.0
153.160782 44.0
153.19725 104.0
153.26004 176.0
153.328323 48.0
153.349747 184.0
153.376404 180.0
153.448364 200.0
153.477417 140.0
153.537872 156.0
153.55513 168.0
153.594604 72.0
153.616806 116.0
153.636536 116.0
153.74263 132.0
153.778351 128.0
153.863586 92.0
153.92778 136.0
153.962021 180.0
153.991989 160.0
154.010391 176.0
154.077011 6600.0
154.108093 372.0
154.211884 52.0
154.230728 148.0
154.25885 128.0
154.295929 104.0
154.323135 184.0
154.355148 164.0
154.369934 168.0
154.397308 176.0
154.422043 200.0
154.451721 84.0
154.506149 144.0
154.540787 192.0
154.560577 168.0
154.579361 224.0
154.605118 276.0
154.649673 112.0
154.675827 156.0
154.70166 124.0
154.746216 64.0
154.768494 228.0
154.792923 176.0
154.81308 96.0
154.859573 180.0
154.91214 60.0
154.959213 44.0
154.976562 128.0
155.017242 212.0
155.059601 1996.0
155.085846 6028.0
155.127686 164.0
155.160324 296.0
155.181732 180.0
155.219086 176.0
155.228455 148.0
155.262268 156.0
155.353409 124.0
155.431763 72.0
155.470016 180.0
155.520584 160.0
155.541992 168.0
155.569305 176.0
155.636337 144.0
155.669617 212.0
155.697098 164.0
155.715805 72.0
155.733185 172.0
155.772934 244.0
155.80687 236.0
155.835037 228.0
155.879761 160.0
155.899643 148.0
155.926987 84.0
156.006287 128.0
156.058167 460.0
156.091415 1064.0
156.120987 112.0
156.170929 176.0
156.249512 328.0
156.284424 168.0
156.327377 188.0
156.354752 108.0
156.41449 88.0
156.442703 156.0
156.472855 224.0
156.546448 116.0
156.623428 136.0
156.666 100.0
156.705856 168.0
156.733261 96.0
156.753204 168.0
156.788086 176.0
156.835449 372.0
156.856674 116.0
156.892776 160.0
156.925186 216.0
156.956421 168.0
157.024246 200.0
157.064987 988.0
157.101212 2056.0
157.147171 192.0
157.172577 132.0
157.191895 220.0
157.239502 240.0
157.359314 124.0
157.423126 144.0
157.529144 72.0
157.554123 196.0
157.574799 188.0
157.615189 152.0
157.649063 132.0
157.711548 208.0
157.816071 104.0
157.819885 156.0
157.861755 100.0
157.906311 188.0
157.981094 172.0
158.002243 180.0
158.037537 184.0
158.072266 168.0
158.104324 1252.0
158.154266 96.0
158.215225 216.0
158.23938 156.0
158.339554 124.0
158.364304 208.0
158.409683 72.0
158.438324 156.0
158.447693 188.0
158.4673 168.0
158.48735 168.0
158.529953 144.0
158.574646 144.0
158.626129 180.0
158.650253 152.0
158.680344 156.0
158.765594 196.0
158.79129 180.0
158.850876 152.0
158.868439 184.0
158.930237 132.0
158.99173 176.0
159.018982 148.0
159.051941 156.0
159.081146 264.0
159.122803 116.0
159.165451 224.0
159.232391 168.0
159.270065 156.0
159.295197 104.0
159.373291 228.0
159.395691 32.0
159.425842 216.0
159.478622 148.0
159.540329 168.0
159.611862 128.0
159.642044 92.0
159.73378 252.0
159.821869 172.0
159.857834 184.0
159.88858 184.0
159.923813 184.0
159.956436 392.0
160.009399 120.0
160.049683 156.0
160.097534 152.0
160.152939 88.0
160.19072 160.0
160.261261 116.0
160.396851 100.0
160.54541 188.0
160.578903 128.0
160.61673 160.0
160.635208 168.0
160.66214 168.0
160.712601 196.0
160.783249 136.0
160.805969 344.0
160.824677 184.0
160.894318 100.0
160.952133 196.0
161.020966 156.0
161.053406 160.0
161.141815 112.0
161.23027 176.0
161.255539 48.0
161.367233 192.0
161.43251 100.0
161.52356 100.0
161.548859 124.0
161.576675 168.0
161.594391 160.0
161.64064 200.0
161.66185 164.0
161.781677 172.0
161.869888 128.0
161.898148 128.0
161.920929 188.0
161.966522 192.0
161.989319 124.0
162.079391 188.0
162.217392 132.0
162.273163 68.0
162.301056 160.0
162.402496 152.0
162.443085 144.0
162.473526 176.0
162.49382 184.0
162.534256 132.0
162.557251 172.0
162.663849 104.0
162.704468 112.0
162.76976 196.0
162.849213 184.0
162.874603 232.0
162.900009 160.0
163.067703 160.0
163.128708 148.0
163.154129 136.0
163.197357 116.0
163.236389 196.0
163.329605 108.0
163.363708 144.0
163.386642 132.0
163.41864 160.0
163.474625 112.0
163.51413 292.0
163.561157 132.0
163.605362 196.0
163.716461 100.0
163.734283 136.0
163.782166 176.0
163.866745 116.0
163.935547 72.0
163.961029 172.0
164.001816 204.0
164.116531 136.0
164.199448 140.0
164.284851 48.0
164.32312 172.0
164.357391 204.0
164.593674 120.0
164.620407 232.0
164.655792 208.0
164.696838 212.0
164.721375 168.0
164.767365 116.0
164.793213 164.0
164.818451 204.0
164.836349 160.0
164.872116 60.0
164.901871 100.0
164.960632 140.0
164.9897 188.0
165.030609 176.0
165.069153 1032.0
165.135223 132.0
165.336472 208.0
165.364944 132.0
165.369278 92.0
165.529572 136.0
165.570541 208.0
165.678116 152.0
165.713989 168.0
165.787506 192.0
165.847244 80.0
165.94722 184.0
165.994598 76.0
166.047241 136.0
166.077515 308.0
166.157532 148.0
166.176651 160.0
166.219116 88.0
166.27301 152.0
166.3423 120.0
166.379471 184.0
166.405396 188.0
166.442429 196.0
166.478378 68.0
166.511765 156.0
166.529755 60.0
166.550293 132.0
166.627365 204.0
166.755844 96.0
166.809204 216.0
166.876663 148.0
166.902344 396.0
166.948669 140.0
166.993668 120.0
167.020676 196.0
167.060669 120.0
167.085953 608.0
167.139023 144.0
167.177628 224.0
167.209137 164.0
167.231674 188.0
167.257401 180.0
167.283142 132.0
167.351212 128.0
167.376099 236.0
167.409851 152.0
167.455673 68.0
167.473694 148.0
167.496872 48.0
167.514908 136.0
167.545822 124.0
167.608032 168.0
167.751984 164.0
167.824173 232.0
167.897263 128.0
167.968597 216.0
168.022766 188.0
168.057632 1660.0
168.088852 264.0
168.131149 68.0
168.169861 152.0
168.218903 156.0
168.276749 156.0
168.304092 84.0
168.38501 132.0
168.404816 128.0
168.518478 228.0
168.588242 108.0
168.627563 176.0
168.689041 116.0
168.71489 124.0
168.828659 80.0
168.887497 208.0
168.983871 144.0
169.001984 68.0
169.033035 112.0
169.063507 736.0
169.101471 768.0
169.146912 148.0
169.201263 200.0
169.247345 176.0
169.325562 152.0
169.367004 140.0
169.39032 212.0
169.436951 92.0
169.459824 188.0
169.500397 180.0
169.544815 152.0
169.554626 96.0
169.615753 192.0
169.635193 200.0
169.680405 136.0
169.724213 172.0
169.761581 164.0
169.798279 172.0
169.894333 196.0
169.947708 136.0
170.01973 180.0
170.072083 2644.0
170.101151 236.0
170.176392 340.0
170.29068 204.0
170.378693 232.0
170.418457 92.0
170.480911 216.0
170.489563 48.0
170.496613 124.0
170.635986 104.0
170.659378 152.0
170.698395 112.0
170.73999 104.0
170.802414 132.0
170.820633 64.0
170.870056 156.0
170.890869 176.0
170.940704 160.0
170.962906 152.0
170.987152 160.0
171.006653 136.0
171.051849 84.0
171.080765 17000.0
171.161575 44.0
171.187607 72.0
171.208435 144.0
171.23674 60.0
171.257935 212.0
171.278763 176.0
171.299606 88.0
171.319794 176.0
171.3517 152.0
171.372543 108.0
171.406998 200.0
171.438766 292.0
171.526718 128.0
171.576111 192.0
171.698395 68.0
171.743347 84.0
171.794907 140.0
171.845871 112.0
171.869156 164.0
171.880585 124.0
171.933197 116.0
171.9711 152.0
172.033371 224.0
172.052032 176.0
172.084442 2672.0
172.1577 180.0
172.204712 80.0
172.26741 180.0
172.289368 156.0
172.364014 176.0
172.409866 84.0
172.430496 144.0
172.442123 60.0
172.449158 136.0
172.490311 120.0
172.528732 248.0
172.612396 180.0
172.630707 40.0
172.651627 172.0
172.673996 108.0
172.713898 208.0
172.751022 176.0
172.808578 68.0
172.863525 240.0
172.883057 184.0
172.914398 372.0
172.968216 56.0
172.991776 96.0
173.059036 636.0
173.086853 304.0
173.152679 168.0
173.243164 88.0
173.261505 56.0
173.279846 124.0
173.329636 140.0
173.352676 196.0
173.411758 192.0
173.449081 176.0
173.496185 184.0
173.527496 180.0
173.567444 188.0
173.628479 160.0
173.673325 236.0
173.846222 232.0
173.977463 136.0
174.006332 140.0
174.024719 160.0
174.175034 100.0
174.200668 160.0
174.279495 120.0
174.317535 92.0
174.358322 56.0
174.379349 188.0
174.396164 176.0
174.513412 60.0
174.568634 236.0
174.644913 112.0
174.784332 140.0
174.810654 92.0
174.844864 68.0
175.044327 156.0
175.079163 136.0
175.147644 196.0
175.204727 216.0
175.297821 160.0
175.354279 160.0
175.385483 184.0
175.419067 152.0
175.469147 108.0
175.512344 292.0
175.538681 204.0
175.648468 156.0
175.694031 180.0
175.727615 148.0
175.767197 132.0
175.881622 232.0
175.920349 140.0
175.96405 144.0
176.011902 204.0
176.166595 196.0
176.216064 36.0
176.239838 148.0
176.287399 56.0
176.329269 172.0
176.421829 196.0
176.456573 168.0
176.483017 264.0
176.551971 156.0
176.609955 140.0
176.657562 152.0
176.742218 164.0
176.760742 124.0
176.805252 152.0
176.911942 128.0
176.932785 108.0
176.951324 136.0
176.996338 152.0
177.030762 120.0
177.067764 164.0
177.102264 152.0
177.204025 152.0
177.224121 176.0
177.324829 48.0
177.365189 192.0
177.422897 208.0
177.450653 128.0
177.470627 84.0
177.563446 104.0
177.589966 292.0
177.629745 168.0
177.69342 44.0
177.757095 136.0
177.945557 160.0
177.985382 80.0
178.030746 148.0
178.095306 244.0
178.16864 152.0
178.211151 140.0
178.269714 112.0
178.306824 112.0
178.34668 136.0
178.405167 360.0
178.429092 212.0
178.476242 176.0
178.548752 172.0
178.567368 136.0
178.668442 212.0
178.716339 168.0
178.753586 148.0
178.830276 176.0
178.926605 236.0
178.945236 184.0
179.075302 128.0
179.080673 144.0
179.128998 148.0
179.186066 160.0
179.224899 136.0
179.288864 132.0
179.310181 68.0
179.359467 136.0
179.384811 140.0
179.552795 48.0
179.614136 188.0
179.632812 152.0
179.662964 172.0
179.688828 184.0
179.707504 140.0
179.728851 172.0
179.81691 160.0
179.851608 128.0
179.875641 168.0
179.933517 176.0
179.985092 104.0
180.017136 124.0
180.049973 292.0
180.086578 224.0
180.113281 48.0
180.161377 120.0
180.203247 172.0
180.230835 232.0
180.265579 112.0
180.285736 192.0
180.305664 260.0
180.356445 188.0
180.391632 188.0
180.481827 164.0
180.519531 84.0
180.556961 44.0
180.599762 128.0
180.647903 68.0
180.68306 200.0
180.717987 188.0
180.738876 100.0
180.775925 208.0
180.79454 140.0
180.863358 132.0
180.891418 160.0
180.941742 172.0
180.974411 112.0
181.066116 960.0
181.188019 340.0
181.226196 160.0
181.252136 176.0
181.317307 120.0
181.510315 80.0
181.574677 208.0
181.598816 148.0
181.659531 104.0
181.687332 260.0
181.808075 136.0
181.83223 52.0
181.910065 180.0
181.934235 152.0
181.990616 116.0
182.070984 1792.0
182.104553 244.0
182.22966 100.0
182.273026 124.0
182.299515 196.0
182.342514 224.0
182.401657 132.0
182.444656 136.0
182.514572 52.0
182.611374 140.0
182.657227 168.0
182.813934 164.0
182.833878 160.0
182.853516 196.0
182.875046 156.0
182.94426 152.0
182.977341 228.0
183.080429 1548.0
183.149689 48.0
183.176636 192.0
183.2332 172.0
183.294418 216.0
183.302109 236.0
183.349075 328.0
183.373566 132.0
183.394882 84.0
183.413757 148.0
183.448608 176.0
183.454514 164.0
183.462723 196.0
183.517349 188.0
183.565308 152.0
183.589005 68.0
183.637543 236.0
183.723862 44.0
183.80751 84.0
183.88446 160.0
183.918152 152.0
183.951752 152.0
183.972137 64.0
184.012634 132.0
184.052368 1604.0
184.088638 308.0
184.144455 108.0
184.192261 188.0
184.255707 192.0
184.280029 120.0
184.344177 140.0
184.387695 128.0
184.436768 148.0
184.463791 48.0
184.498474 116.0
184.528214 212.0
184.553009 196.0
184.596283 228.0
184.615204 76.0
184.661179 140.0
184.698776 156.0
184.75856 168.0
184.811554 148.0
184.850555 160.0
184.888443 100.0
184.931473 120.0
184.98317 196.0
185.057434 1436.0
185.095856 4672.0
185.133652 164.0
185.186035 148.0
185.227234 124.0
185.291901 120.0
185.327118 108.0
185.347061 172.0
185.370483 156.0
185.418167 20.0
185.451187 184.0
185.495148 68.0
185.55751 124.0
185.578918 40.0
185.597427 132.0
185.625595 140.0
185.729904 292.0
185.767456 140.0
185.80159 120.0
185.826004 168.0
185.847717 200.0
185.893616 140.0
185.937271 112.0
185.964401 220.0
186.015976 264.0
186.063797 316.0
186.099472 720.0
186.124374 160.0
186.184311 144.0
186.208755 148.0
186.258453 164.0
186.288544 160.0
186.368332 180.0
186.391495 136.0
186.430176 140.0
186.469589 100.0
186.511765 200.0
186.584061 160.0
186.613663 52.0
186.678909 156.0
186.706116 88.0
186.749619 340.0
186.828506 140.0
186.865936 164.0
186.918289 148.0
186.953354 168.0
187.034775 176.0
187.076584 124.0
187.104111 192.0
187.144211 40.0
187.230301 204.0
187.251785 160.0
187.332138 160.0
187.365265 324.0
187.403503 164.0
187.430222 180.0
187.497604 148.0
187.552856 240.0
187.577393 176.0
187.676941 228.0
187.70459 140.0
187.791641 76.0
188.017975 176.0
188.041718 172.0
188.068375 160.0
188.117508 192.0
188.142075 96.0
188.166733 200.0
188.193954 120.0
188.24881 220.0
188.278595 112.0
188.325027 128.0
188.352341 204.0
188.404251 156.0
188.44249 180.0
188.478851 224.0
188.520676 256.0
188.566223 188.0
188.641373 228.0
188.673172 128.0
188.767761 276.0
188.802399 196.0
188.913788 176.0
188.94281 140.0
189.033112 52.0
189.093658 148.0
189.139847 144.0
189.163589 148.0
189.202805 144.0
189.244797 72.0
189.301376 96.0
189.358887 40.0
189.457504 144.0
189.517776 184.0
189.556305 136.0
189.613693 164.0
189.646576 168.0
189.687698 84.0
189.714828 120.0
189.729431 140.0
189.748001 200.0
189.838486 92.0
189.857681 172.0
189.892227 140.0
189.90979 184.0
189.953674 48.0
190.00032 180.0
190.059341 144.0
190.121048 52.0
190.144562 180.0
190.357132 76.0
190.428467 208.0
190.477982 120.0
190.502701 160.0
190.563141 172.0
190.587875 88.0
190.607101 164.0
190.700546 32.0
190.723679 160.0
190.763763 160.0
190.79126 236.0
190.815994 188.0
190.86824 72.0
190.925903 140.0
190.942322 128.0
191.091034 148.0
191.120285 212.0
191.165833 192.0
191.194519 204.0
191.269913 168.0
191.289169 148.0
191.346985 120.0
191.374527 128.0
191.400894 384.0
191.435104 212.0
191.493881 208.0
191.548019 28.0
191.567307 168.0
191.61824 172.0
191.665436 200.0
191.676086 124.0
191.686493 136.0
191.723312 112.0
191.746399 144.0
191.790512 212.0
191.831497 124.0
191.846207 136.0
191.878723 188.0
191.935013 192.0
192.016586 196.0
192.089279 252.0
192.165192 216.0
192.18486 152.0
192.241745 176.0
192.298004 152.0
192.422226 136.0
192.469162 132.0
192.550415 124.0
192.568588 168.0
192.617645 200.0
192.675659 152.0
192.703949 176.0
192.728943 164.0
192.767502 68.0
192.800659 220.0
192.849411 200.0
192.989456 160.0
193.016281 148.0
193.077118 152.0
193.113068 124.0
193.187759 176.0
193.26619 136.0
193.312759 156.0
193.395294 64.0
193.456192 144.0
193.522629 248.0
193.542007 84.0
193.616776 144.0
193.691559 68.0
193.752502 176.0
193.799606 164.0
193.821777 76.0
193.871658 128.0
193.913223 108.0
194.018555 124.0
194.040741 116.0
194.068466 168.0
194.115601 192.0
194.16275 216.0
194.194382 196.0
194.232086 188.0
194.290695 124.0
194.337509 148.0
194.356934 180.0
194.50679 168.0
194.542877 120.0
194.563721 204.0
194.598404 136.0
194.634766 128.0
194.69281 200.0
194.770584 128.0
194.81781 68.0
194.869797 260.0
194.915161 188.0
194.976181 156.0
195.033157 192.0
195.08252 1180.0
195.159653 84.0
195.226395 128.0
195.329773 164.0
195.35434 152.0
195.388596 164.0
195.431396 160.0
195.538055 132.0
195.568588 144.0
195.591339 252.0
195.622849 200.0
195.643753 140.0
195.752335 64.0
195.780182 148.0
195.886032 172.0
195.907974 164.0
195.933594 160.0
196.033691 40.0
196.083542 324.0
196.153534 200.0
196.183762 176.0
196.216721 240.0
196.245972 156.0
196.276215 108.0
196.323608 192.0
196.345917 132.0
196.443542 120.0
196.532822 176.0
196.601135 108.0
196.644455 64.0
196.68074 132.0
196.719116 176.0
196.797226 176.0
196.839874 76.0
196.865005 108.0
196.886734 92.0
196.916367 164.0
196.955383 188.0
197.035385 260.0
197.056686 340.0
197.090286 108.0
197.172302 112.0
197.200256 48.0
197.219818 160.0
197.284103 120.0
197.310165 88.0
197.337234 132.0
197.454681 132.0
197.477051 172.0
197.549774 104.0
197.584503 136.0
197.608521 124.0
197.647705 156.0
197.666626 168.0
197.712067 144.0
197.790436 112.0
197.85202 172.0
197.874405 284.0
197.927612 116.0
197.963531 140.0
197.971115 172.0
198.032013 128.0
198.068054 2172.0
198.17305 376.0
198.228271 132.0
198.234726 44.0
198.245895 116.0
198.272873 144.0
198.315216 224.0
198.395508 132.0
198.430664 148.0
198.457184 136.0
198.494293 188.0
198.545319 84.0
198.577972 196.0
198.593445 88.0
198.641174 216.0
198.681549 208.0
198.715225 152.0
198.742737 144.0
198.768539 168.0
198.8022 48.0
198.865067 140.0
198.927994 148.0
198.958618 224.0
198.987427 288.0
199.008362 216.0
199.037354 452.0
199.076477 77880.0
199.17421 84.0
199.210342 188.0
199.234253 128.0
199.244339 112.0
199.283997 180.0
199.317078 148.0
199.335175 76.0
199.358978 152.0
199.38916 48.0
199.441376 172.0
199.47522 116.0
199.539093 284.0
199.576508 160.0
199.627472 176.0
199.666046 236.0
199.703674 212.0
199.747604 156.0
199.799805 92.0
199.835205 64.0
199.872833 208.0
199.912231 172.0
199.945663 196.0
199.964264 156.0
200.001205 176.0
200.039398 364.0
200.079224 11496.0
200.125504 188.0
200.147217 84.0
200.171661 204.0
200.23317 72.0
200.252884 44.0
200.282028 320.0
200.298294 136.0
200.340546 164.0
200.372101 88.0
200.419098 48.0
200.448105 136.0
200.478271 56.0
200.629639 148.0
200.675583 224.0
200.693375 104.0
200.720703 44.0
200.774277 28.0
200.839142 52.0
200.88063 176.0
200.913895 72.0
200.954803 128.0
200.992661 68.0
201.056198 632.0
201.078583 824.0
201.157684 36.0
201.178314 208.0
201.244904 92.0
201.269348 64.0
201.29007 124.0
201.335892 48.0
201.414078 252.0
201.453873 176.0
201.515625 120.0
201.556091 80.0
201.589401 136.0
201.611176 108.0
201.642609 92.0
201.672089 44.0
201.706848 120.0
201.74176 192.0
201.752151 124.0
201.833237 244.0
201.853027 192.0
201.929382 108.0
202.021317 188.0
202.061401 244.0
202.082703 196.0
202.135895 84.0
202.165222 88.0
202.212311 228.0
202.2491 180.0
202.283066 172.0
202.334625 76.0
202.382156 172.0
202.45578 240.0
202.609024 80.0
202.631409 120.0
202.694641 208.0
202.797745 160.0
202.84111 184.0
202.923325 36.0
202.951675 148.0
202.997055 196.0
203.023407 176.0
203.045258 224.0
203.067947 176.0
203.141693 80.0
203.18425 152.0
203.202118 112.0
203.294983 164.0
203.354706 176.0
203.402756 104.0
203.427109 208.0
203.510635 68.0
203.556076 64.0
203.63559 192.0
203.669479 180.0
203.757736 168.0
203.803192 156.0
203.825928 144.0
203.900955 160.0
203.948135 156.0
204.007828 128.0
204.050873 200.0
204.149994 140.0
204.19516 104.0
204.211243 200.0
204.26944 136.0
204.405258 320.0
204.451538 324.0
204.525543 40.0
204.559692 156.0
204.679276 160.0
204.798889 132.0
204.826874 204.0
204.852097 188.0
204.897964 156.0
205.006668 120.0
205.05246 184.0
205.100922 184.0
205.155075 204.0
205.289444 232.0
205.397461 116.0
205.41806 200.0
205.484756 60.0
205.571564 184.0
205.605118 144.0
205.639999 156.0
205.659973 172.0
205.702789 164.0
205.773956 272.0
205.828415 192.0
205.899811 424.0
205.939789 88.0
205.971207 220.0
205.991211 228.0
206.035843 172.0
206.106369 188.0
206.136917 248.0
206.162628 88.0
206.226288 184.0
206.335373 140.0
206.370422 156.0
206.460205 140.0
206.577225 84.0
206.617264 96.0
206.637299 156.0
206.677353 188.0
206.719131 60.0
206.815262 196.0
207.013153 116.0
207.03804 200.0
207.05809 188.0
207.135422 188.0
207.161194 160.0
207.278671 188.0
207.326584 128.0
207.373932 200.0
207.396164 208.0
207.427704 104.0
207.467834 128.0
207.565308 168.0
207.637009 48.0
207.682892 80.0
207.801056 232.0
208.084656 132.0
208.176529 40.0
208.19664 176.0
208.236847 184.0
208.311523 144.0
208.333603 204.0
208.377594 60.0
208.481049 48.0
208.660538 160.0
208.711014 136.0
208.735107 136.0
208.806152 140.0
208.892197 96.0
208.920959 80.0
209.010162 176.0
209.043381 172.0
209.099365 152.0
209.13176 168.0
209.168442 100.0
209.223145 156.0
209.274963 252.0
209.410309 68.0
209.439117 152.0
209.560104 128.0
209.626373 44.0
209.652313 168.0
209.701309 172.0
209.745804 320.0
209.853043 172.0
209.87381 176.0
209.908752 192.0
209.955017 128.0
210.079041 116.0
210.117477 148.0
210.194458 140.0
210.214645 132.0
210.27002 284.0
210.299805 156.0
210.439789 280.0
210.468338 140.0
210.520645 148.0
210.552414 128.0
210.587067 152.0
210.632721 164.0
210.696472 160.0
210.768997 160.0
210.870224 192.0
210.900528 88.0
210.927505 180.0
211.040771 140.0
211.081924 172.0
211.185364 172.0
211.229645 284.0
211.260574 168.0
211.283722 160.0
211.347366 120.0
211.411102 156.0
211.44838 172.0
211.521347 172.0
211.563644 132.0
211.589157 208.0
211.691833 84.0
211.716049 168.0
211.752655 132.0
211.859818 200.0
211.894592 320.0
211.91777 152.0
211.957367 144.0
212.019196 136.0
212.047729 184.0
212.059464 156.0
212.078461 220.0
212.149994 188.0
212.159882 152.0
212.190216 288.0
212.234528 84.0
212.290817 160.0
212.329391 40.0
212.349701 280.0
212.38826 176.0
212.454117 208.0
212.498886 184.0
212.593399 112.0
212.615433 176.0
212.711914 164.0
212.75531 184.0
212.802383 36.0
212.875519 196.0
212.914108 144.0
212.938873 104.0
212.973526 120.0
212.980545 184.0
213.002777 140.0
213.026016 108.0
213.054047 316.0
213.091537 10080.0
213.17128 160.0
213.310791 176.0
213.369263 192.0
213.482468 164.0
213.534149 236.0
213.560852 248.0
213.65976 84.0
213.680801 156.0
213.7034 152.0
213.776138 44.0
213.825623 40.0
213.878845 236.0
213.940704 112.0
213.962433 88.0
214.065155 284.0
214.094055 1660.0
214.125 212.0
214.132355 124.0
214.145294 184.0
214.177917 148.0
214.227859 140.0
214.265305 292.0
214.323761 136.0
214.348312 132.0
214.384781 124.0
214.413315 252.0
214.457642 108.0
214.490433 160.0
214.548004 108.0
214.650055 180.0
214.670456 216.0
214.717941 100.0
214.857086 180.0
214.938828 172.0
214.979691 108.0
215.020538 176.0
215.061401 292.0
215.096344 180.0
215.230728 188.0
215.327087 192.0
215.346985 128.0
215.437057 192.0
215.489304 220.0
215.563721 164.0
215.601715 168.0
215.67186 96.0
215.721558 124.0
215.744934 36.0
215.780029 104.0
215.800491 184.0
215.952545 152.0
216.034454 128.0
216.072495 116.0
216.110519 140.0
216.155624 252.0
216.198303 104.0
216.228333 124.0
216.265625 176.0
216.294891 156.0
216.332947 208.0
216.435425 40.0
216.470551 164.0
216.501877 184.0
216.619934 156.0
216.723114 112.0
216.742981 180.0
216.775208 180.0
216.860199 104.0
216.892929 120.0
216.921753 140.0
216.986252 68.0
217.118195 188.0
217.153397 244.0
217.217926 112.0
217.292435 260.0
217.329407 104.0
217.380234 300.0
217.43103 152.0
217.620178 272.0
217.658157 96.0
217.684586 56.0
217.707901 132.0
217.749191 100.0
217.825562 92.0
217.954834 100.0
218.019302 140.0
218.084137 132.0
218.148804 188.0
218.176727 144.0
218.272293 152.0
218.302246 64.0
218.3311 120.0
218.381149 204.0
218.415588 160.0
218.466003 208.0
218.510529 40.0
218.537354 168.0
218.563049 132.0
218.62529 192.0
218.716751 152.0
218.796005 100.0
218.848999 140.0
218.891296 140.0
218.910843 192.0
218.934402 112.0
218.955017 112.0
218.999191 60.0
219.052216 120.0
219.096405 116.0
219.124435 168.0
219.170059 60.0
219.240784 76.0
219.282043 108.0
219.329193 108.0
219.388153 236.0
219.472412 124.0
219.50705 172.0
219.535583 168.0
219.668304 140.0
219.765656 240.0
219.804016 192.0
219.903275 196.0
220.025391 160.0
220.119873 152.0
220.161209 96.0
220.18779 68.0
220.208466 144.0
220.231415 140.0
220.342789 144.0
220.379807 52.0
220.418213 248.0
220.468445 124.0
220.500961 80.0
220.548248 148.0
220.598495 164.0
220.675369 136.0
220.704926 204.0
220.749283 156.0
220.876465 184.0
220.941544 144.0
220.966827 192.0
221.021423 104.0
221.05397 176.0
221.080673 168.0
221.133881 132.0
221.192062 116.0
221.210846 160.0
221.261169 268.0
221.361832 176.0
221.432495 176.0
221.4729 304.0
221.507416 52.0
221.530655 152.0
221.578064 136.0
221.625458 192.0
221.691437 196.0
221.735474 144.0
221.823471 192.0
221.864151 132.0
221.889252 140.0
221.960403 76.0
222.007767 124.0
222.087936 204.0
222.118393 148.0
222.144287 104.0
222.176926 196.0
222.257034 192.0
222.331223 180.0
222.375275 156.0
222.44104 168.0
222.461823 204.0
222.49707 160.0
222.565735 88.0
222.619186 92.0
222.655548 212.0
222.755798 128.0
222.830811 224.0
222.862823 164.0
222.874298 240.0
222.916245 64.0
223.03215 148.0
223.072998 156.0
223.098541 228.0
223.177826 104.0
223.251175 192.0
223.256531 128.0
223.269913 124.0
223.394043 300.0
223.487152 196.0
223.528809 228.0
223.591675 64.0
223.612137 188.0
223.647858 68.0
223.668686 116.0
223.757996 76.0
223.808609 260.0
223.880081 168.0
223.943314 208.0
223.971313 152.0
224.033264 208.0
224.064758 164.0
224.142227 208.0
224.175003 120.0
224.202942 180.0
224.28746 156.0
224.307388 144.0
224.374023 228.0
224.410477 140.0
224.449249 132.0
224.48204 168.0
224.505905 148.0
224.528549 188.0
224.583725 176.0
224.636627 140.0
224.655701 180.0
224.695312 136.0
224.724823 224.0
224.765427 232.0
224.867126 200.0
224.899109 176.0
224.965393 84.0
225.050125 116.0
225.092911 444.0
225.213562 180.0
225.249084 144.0
225.293884 156.0
225.318161 128.0
225.364944 148.0
225.387161 148.0
225.417191 160.0
225.469406 276.0
225.518997 84.0
225.541916 188.0
225.570206 96.0
225.601135 148.0
225.627396 152.0
225.70192 216.0
225.748856 232.0
225.767319 112.0
225.836533 172.0
225.913193 176.0
225.953049 196.0
226.000259 272.0
226.059555 152.0
226.114456 284.0
226.15361 124.0
226.177902 216.0
226.20546 224.0
226.249466 320.0
226.308716 180.0
226.329559 380.0
226.360672 256.0
226.386475 208.0
226.417023 252.0
226.467789 248.0
226.515869 224.0
226.556335 244.0
226.597397 236.0
226.624832 160.0
226.6539 160.0
226.675125 344.0
226.737549 568.0
226.791 372.0
226.828156 112.0
226.864944 160.0
226.884689 332.0
226.915741 312.0
226.941177 712.0
226.964981 916.0
227.072525 444256.0
227.16452 320.0
227.194885 188.0
227.230667 88.0
227.260086 540.0
227.282959 400.0
227.305252 244.0
227.363693 428.0
227.386749 340.0
227.394516 280.0
227.420502 196.0
227.474976 276.0
227.505432 172.0
227.530441 568.0
227.566101 7244.0
227.600922 396.0
227.622757 560.0
227.664017 188.0
227.710266 340.0
227.754669 224.0
227.776657 132.0
227.785019 244.0
227.816116 520.0
227.878143 212.0
227.900848 296.0
227.928452 288.0
227.989258 232.0
228.010239 472.0
228.075027 89068.0
228.149887 236.0
228.174652 140.0
228.209381 152.0
228.231018 152.0
228.259964 124.0
228.287659 96.0
228.320007 160.0
228.39093 100.0
228.43103 92.0
228.491226 164.0
228.5168 56.0
228.569138 340.0
228.599762 160.0
228.640274 76.0
228.678238 168.0
228.699661 36.0
228.730087 92.0
228.772766 132.0
228.806229 304.0
228.884842 116.0
228.907257 92.0
228.945068 80.0
228.976486 120.0
229.014297 268.0
229.077454 9276.0
229.134109 144.0
229.178558 104.0
229.212341 136.0
229.235321 84.0
229.260773 280.0
229.298111 52.0
229.339203 164.0
229.351578 124.0
229.389267 204.0
229.420822 244.0
229.454727 140.0
229.47995 380.0
229.537476 452.0
229.546204 216.0
229.556015 312.0
229.616226 276.0
229.623657 248.0
229.643784 164.0
229.669693 396.0
229.714325 192.0
229.747726 320.0
229.75589 236.0
229.768524 424.0
229.803131 308.0
229.830002 156.0
229.856369 468.0
229.923035 152.0
229.956299 176.0
230.029068 164.0
230.077148 1036.0
230.113663 96.0
230.187164 208.0
230.219208 72.0
230.256119 56.0
230.281708 76.0
230.31662 132.0
230.361847 64.0
230.419235 36.0
230.458572 188.0
230.492661 40.0
230.529053 176.0
230.599487 172.0
230.640579 180.0
230.653793 176.0
230.682495 184.0
230.69281 92.0
230.704041 156.0
230.756332 180.0
230.777237 116.0
230.812592 56.0
230.836624 176.0
230.858658 96.0
230.905914 104.0
230.946487 92.0
230.956238 100.0
230.967819 128.0
231.008759 124.0
231.060181 156.0
231.084381 116.0
231.109741 116.0
231.150955 44.0
231.211472 40.0
231.260849 152.0
231.294632 84.0
231.347519 76.0
231.417053 232.0
231.451782 64.0
231.474854 76.0
231.51387 140.0
231.608109 100.0
231.632339 112.0
231.701202 72.0
231.720871 88.0
231.767273 156.0
231.844421 84.0
231.877762 68.0
231.903275 56.0
231.953537 52.0
232.00473 108.0
232.011948 148.0
232.077835 48.0
232.111191 136.0
232.152222 68.0
232.189804 52.0
232.224274 96.0
232.341705 104.0
232.365967 140.0
232.450928 128.0
232.587494 96.0
232.663391 80.0
232.693756 52.0
232.830734 36.0
232.94278 92.0
232.963287 48.0
233.01265 152.0
233.03392 200.0
233.071548 104.0
233.143311 100.0
233.164581 44.0
233.258804 56.0
233.477722 60.0
233.562881 64.0
233.648056 160.0
233.788025 88.0
233.809326 120.0
233.834625 128.0
233.867157 100.0
233.967606 316.0
234.03154 76.0
234.098526 168.0
234.162247 100.0
234.214264 76.0
234.394012 116.0
234.445816 60.0
234.525055 188.0
234.56163 108.0
234.595993 224.0
234.653091 88.0
234.711029 176.0
234.790314 68.0
234.861618 136.0
234.948929 32.0
235.003845 128.0
235.037399 56.0
235.09375 188.0
235.119797 140.0
235.309052 56.0
235.333481 64.0
235.535034 116.0
235.599182 112.0
235.736679 92.0
235.99649 44.0
236.173874 120.0
236.20549 200.0
236.30098 116.0
236.306076 148.0
236.32988 132.0
236.406387 128.0
236.510437 160.0
236.660446 124.0
236.793182 116.0
236.844193 152.0
236.963669 80.0
236.991241 48.0
237.021179 156.0
237.069412 208.0
237.113815 96.0
237.147537 64.0
237.190445 96.0
237.23642 60.0
237.276276 152.0
237.32785 132.0
237.408127 172.0
237.466949 156.0
237.515472 148.0
237.562531 188.0
237.597076 48.0
237.619781 164.0
237.794693 124.0
237.823532 80.0
237.871429 96.0
237.932816 88.0
237.969666 68.0
238.024933 128.0
238.053421 192.0
238.087036 836.0
238.273727 120.0
238.391876 140.0
238.485748 60.0
238.516495 56.0
238.556458 48.0
238.599487 104.0
238.621017 208.0
238.694809 48.0
238.842422 124.0
238.870117 64.0
238.91626 160.0
238.9711 92.0
238.995728 236.0
239.031799 108.0
239.087845 304.0
239.174744 68.0
239.196289 132.0
239.264023 152.0
239.29303 104.0
239.353302 164.0
239.405655 100.0
239.443146 92.0
239.491898 48.0
239.52269 28.0
239.547333 88.0
239.590469 72.0
239.649002 100.0
239.673645 136.0
239.701385 88.0
239.75592 92.0
239.820862 156.0
239.859818 168.0
239.895554 72.0
239.944885 120.0
239.979538 148.0
240.004639 104.0
240.02504 208.0
240.050354 116.0
240.157654 212.0
240.18541 204.0
240.210251 80.0
240.234772 132.0
240.294586 144.0
240.327332 112.0
240.377975 48.0
240.390152 200.0
240.476074 160.0
240.552612 236.0
240.614548 64.0
240.646637 88.0
240.731689 56.0
240.760635 140.0
240.799393 312.0
240.810135 240.0
240.840378 188.0
240.869812 104.0
240.898254 172.0
240.942017 448.0
240.972214 212.0
241.02063 292.0
241.046478 364.0
241.087555 125568.0
241.190399 172.0
241.204041 136.0
241.245697 100.0
241.290817 100.0
241.299255 252.0
241.326859 72.0
241.332199 116.0
241.357483 84.0
241.39299 76.0
241.400482 160.0
241.436035 48.0
241.457611 136.0
241.492889 176.0
241.533676 156.0
241.57547 224.0
241.598343 176.0
241.621872 252.0
241.65451 264.0
241.73613 52.0
241.747269 144.0
241.77829 44.0
241.839157 112.0
241.872314 116.0
241.893173 48.0
241.92186 60.0
241.959213 116.0
242.002563 48.0
242.090347 20520.0
242.170822 156.0
242.271591 60.0
242.287918 60.0
242.315384 72.0
242.349457 112.0
242.370514 120.0
242.402481 72.0
242.434219 88.0
242.473129 44.0
242.516266 80.0
242.546402 80.0
242.56192 36.0
242.571487 100.0
242.609802 88.0
242.647003 84.0
242.683975 52.0
242.70874 96.0
242.719299 88.0
242.732117 80.0
242.744019 68.0
242.783432 68.0
242.81958 116.0
242.872391 156.0
243.011047 72.0
243.033951 148.0
243.091675 2844.0
243.183655 64.0
243.224014 60.0
243.267471 36.0
243.323349 36.0
243.345078 52.0
243.39296 152.0
243.418823 216.0
243.436859 120.0
243.482681 88.0
243.533539 124.0
243.561996 80.0
243.609055 160.0
243.665375 80.0
243.698883 92.0
243.736435 64.0
243.775757 116.0
243.838104 132.0
243.907501 100.0
243.921616 48.0
243.931564 220.0
243.957626 120.0
243.999374 212.0
244.030014 124.0
244.097412 332.0
244.171646 68.0
244.224533 32.0
244.261505 108.0
244.39563 52.0
244.451645 84.0
244.516998 40.0
244.538773 32.0
244.633835 160.0
244.660172 76.0
244.706879 84.0
244.775375 80.0
244.850113 68.0
244.878143 100.0
244.906174 56.0
244.959137 68.0
245.002747 76.0
245.065903 108.0
245.118027 88.0
245.178619 144.0
245.29567 116.0
245.326843 92.0
245.412582 88.0
245.464035 68.0
245.523285 68.0
245.6147 80.0
245.68663 184.0
245.907028 100.0
245.950729 36.0
246.09433 76.0
246.117554 92.0
246.305954 136.0
246.418488 208.0
246.484772 112.0
246.519135 228.0
246.572266 32.0
246.639435 116.0
246.678543 68.0
246.728012 160.0
246.784836 56.0
246.944321 68.0
247.073975 212.0
247.128891 188.0
247.601562 96.0
247.793839 252.0
247.889771 60.0
247.974396 68.0
248.012009 64.0
248.109177 136.0
248.184433 80.0
248.328674 40.0
248.356903 36.0
248.53157 136.0
248.570236 184.0
248.626724 96.0
248.686356 132.0
248.928101 80.0
249.072571 68.0
249.204514 60.0
249.240005 148.0
249.471649 80.0
249.798691 56.0
249.821472 232.0
249.946564 164.0
250.092773 260.0
250.390427 56.0
250.607788 104.0
250.847305 72.0
250.881973 84.0
251.078568 104.0
251.238342 152.0
251.645462 124.0
251.765457 168.0
251.806519 164.0
252.036453 152.0
252.064804 172.0
252.223587 64.0
252.486008 72.0
252.622009 40.0
252.71376 80.0
253.011261 116.0
253.087494 616.0
253.150574 188.0
253.328568 124.0
253.445175 68.0
253.537064 48.0
253.663849 128.0
253.939713 104.0
254.057068 76.0
254.087387 188.0
254.114182 44.0
254.225235 48.0
254.291885 100.0
254.927048 184.0
254.955658 136.0
255.050995 220.0
255.413483 52.0
255.785782 136.0
255.976807 92.0
256.336761 180.0
256.760742 200.0
256.996826 160.0
257.102112 164.0
257.271271 188.0
257.344727 48.0
257.504395 72.0
257.670502 228.0
257.779114 92.0
257.945312 152.0
258.121155 104.0
259.074951 184.0
259.119781 160.0
259.363342 152.0
259.465912 128.0
259.966309 120.0
260.107513 136.0
260.171722 72.0
260.341888 224.0
260.441467 64.0
260.592438 124.0
260.685638 68.0
260.897766 60.0
260.97171 36.0
261.064941 116.0
261.348022 64.0
261.518585 176.0
261.779358 80.0
261.856659 112.0
261.962952 60.0
262.06604 92.0
262.227173 192.0
262.288391 84.0
262.320648 184.0
262.365784 68.0
262.485077 64.0
262.526978 132.0
262.549561 76.0
262.826996 68.0
263.007721 112.0
263.75708 112.0
264.138489 88.0
264.284241 112.0
264.604645 208.0
264.646729 44.0
264.986816 132.0
265.323883 60.0
265.648163 124.0
265.829865 64.0
265.979156 168.0
266.08075 1212.0
266.144745 76.0
266.177216 144.0
266.290863 140.0
266.313599 120.0
266.342834 136.0
266.391571 160.0
266.560516 52.0
266.599487 176.0
266.661255 80.0
266.807526 68.0
266.921326 68.0
267.087921 804.0
267.20105 184.0
267.30191 92.0
267.565552 128.0
267.653473 120.0
267.695801 72.0
267.832581 76.0
267.968658 176.0
268.060638 36.0
268.09729 176.0
268.25946 108.0
268.304077 244.0
268.427643 120.0
268.497101 104.0
268.505981 92.0
268.622864 136.0
268.711273 328.0
268.875916 192.0
268.925262 132.0
268.968475 100.0
269.005768 224.0
269.08252 68932.0
269.146362 80.0
269.159058 76.0
269.165649 112.0
269.225494 48.0
269.290558 72.0
269.311981 64.0
269.319214 36.0
269.334412 56.0
269.347382 60.0
269.390442 76.0
269.428009 100.0
269.502411 56.0
269.546661 100.0
269.618835 156.0
269.676086 60.0
269.735901 92.0
269.771576 76.0
269.814453 120.0
269.872223 116.0
269.900269 76.0
269.964172 68.0
270.002319 56.0
270.085083 8716.0
270.19928 52.0
270.281097 52.0
270.303986 52.0
270.349701 136.0
270.414185 104.0
270.447998 56.0
270.480713 32.0
270.559296 60.0
270.641144 84.0
270.703369 56.0
270.745941 44.0
270.806793 96.0
270.863831 48.0
270.896606 60.0
270.986389 88.0
271.087372 1636.0
271.188232 40.0
271.240662 68.0
271.263611 116.0
271.299683 88.0
271.352142 156.0
271.470184 84.0
271.5271 100.0
271.550873 68.0
271.581665 72.0
271.640717 124.0
271.67334 68.0
271.764374 64.0
271.813324 112.0
271.893372 100.0
271.922913 176.0
271.970978 80.0
272.007355 88.0
272.034515 132.0
272.098785 376.0
272.152679 144.0
272.346436 124.0
272.43515 120.0
272.59613 64.0
272.747314 60.0
272.919189 100.0
273.00412 180.0
273.105713 116.0
273.148468 52.0
273.179169 96.0
273.464355 96.0
273.536774 28.0
273.579559 60.0
273.852875 92.0
274.113129 224.0
274.300995 76.0
274.607635 76.0
275.155396 76.0
275.806183 108.0
275.96817 152.0
276.093262 164.0
276.421326 68.0
276.606659 68.0
276.927856 52.0
277.090179 144.0
277.143188 128.0
278.058441 60.0
278.118164 156.0
278.307404 88.0
279.663757 76.0
279.781921 96.0
280.106598 152.0
280.316498 80.0
280.549805 36.0
280.576477 116.0
281.557495 72.0
281.747864 48.0
282.359558 76.0
282.650604 88.0
282.781128 212.0
282.821289 80.0
285.784546 88.0
286.11438 120.0
286.137939 136.0
286.390503 80.0
286.444397 112.0
286.538727 48.0
286.639801 84.0
286.882477 116.0
287.09491 164.0
287.1185 80.0
287.941986 184.0
288.127777 88.0
288.195343 148.0
289.057587 64.0
289.4841 104.0
289.521362 116.0
289.595856 60.0
289.714417 100.0
289.833008 68.0
290.066833 100.0
290.118164 172.0
291.129089 152.0
291.753998 120.0
291.849213 68.0
292.046448 72.0
292.125885 172.0
292.676025 56.0
292.931458 92.0
294.305847 108.0
294.599579 76.0
294.790924 76.0
295.002808 48.0
295.527435 120.0
296.406067 100.0
296.481445 60.0
296.981995 72.0
298.245575 104.0
299.126129 148.0
299.925293 52.0
300.121094 148.0
300.90155 120.0
301.11322 236.0
301.229614 124.0
302.095978 160.0
303.101318 124.0
303.194885 72.0
303.246887 88.0
304.098755 184.0
304.145203 72.0
305.128326 108.0
305.444763 124.0
305.667419 112.0
306.290619 68.0
306.768005 108.0
306.94931 132.0
306.99115 56.0
307.245789 60.0
307.476074 56.0
308.926117 76.0
309.45459 36.0
310.414673 64.0
311.364471 140.0
311.664276 52.0
312.870636 60.0
313.381317 112.0
313.613892 180.0
314.111816 264.0
314.149872 88.0
314.439209 68.0
314.552155 76.0
314.933502 96.0
315.113678 196.0
315.166656 180.0
315.194946 84.0
315.339813 56.0
315.428192 68.0
315.484741 88.0
315.803009 156.0
316.137207 224.0
317.128876 328.0
317.946472 132.0
318.113739 252.0
318.223358 152.0
318.798798 80.0
319.118073 316.0
319.349854 92.0
320.10788 352.0
320.45694 100.0
321.355438 156.0
322.576813 32.0
323.116821 160.0
323.639343 80.0
324.144409 104.0
325.015747 76.0
325.216705 48.0
327.201019 88.0
327.878204 56.0
328.022369 56.0
328.437042 32.0
328.740112 64.0
328.974701 152.0
329.429718 32.0
330.13089 112.0
330.387726 36.0
330.510712 64.0
331.142609 404.0
331.292755 72.0
331.80011 112.0
332.144623 288.0
332.170715 132.0
332.560852 168.0
333.099274 96.0
334.557526 84.0
334.757751 152.0
334.932587 84.0
334.990875 96.0
335.211853 116.0
335.475525 44.0
335.803711 92.0
336.504333 48.0
336.898773 48.0
336.931641 60.0
337.048553 40.0
337.209351 52.0
337.626129 64.0
337.702942 68.0
338.954956 100.0
339.640533 124.0
340.113861 192.0
340.345154 72.0
340.653656 88.0
340.980682 80.0
341.11853 332.0
341.152374 124.0
341.234314 172.0
342.126648 140.0
342.367645 40.0
342.666016 76.0
342.706543 76.0
343.110901 112.0
344.148682 112.0
344.25946 136.0
344.300079 64.0
344.492157 108.0
345.028015 116.0
345.220276 88.0
345.408905 80.0
345.434784 32.0
345.904755 64.0
346.126892 48.0
346.175018 52.0
347.060638 144.0
348.103333 44.0
348.70517 60.0
350.12262 48.0
350.320038 140.0
351.45343 112.0
352.22995 88.0
352.476532 76.0
352.726929 148.0
353.62088 44.0
353.856689 72.0
354.354828 72.0
354.617126 180.0
355.45343 64.0
355.907623 108.0
356.020264 124.0
356.208069 76.0
356.24939 100.0
357.580475 84.0
357.636932 80.0
358.077423 100.0
358.137695 136.0
358.744385 128.0
358.892578 52.0
359.139954 9360.0
359.283661 48.0
359.37146 44.0
359.442871 80.0
359.581757 76.0
359.632324 40.0
359.698761 72.0
359.872406 36.0
359.932343 64.0
360.025238 160.0
360.144257 2112.0
360.382294 40.0
360.423859 40.0
360.537231 52.0
360.590149 56.0
360.624146 84.0
360.72998 56.0
360.805603 44.0
360.922302 88.0
361.143921 512.0
361.248077 52.0
361.361572 76.0
361.655426 108.0
361.785431 44.0
362.158112 196.0
362.433075 56.0
362.596008 52.0
363.145782 156.0
363.293701 76.0
363.32785 64.0
363.741486 72.0
364.05661 84.0
364.141754 124.0
364.261719 60.0
364.333893 108.0
364.432678 52.0
364.493469 124.0
364.812714 48.0
365.166351 32.0
365.192963 52.0
365.444031 72.0
365.843658 72.0
365.923584 80.0
366.041626 32.0
369.029266 40.0
369.174591 56.0
369.694855 68.0
370.243286 104.0
370.490601 116.0
370.947296 80.0
371.779572 68.0
371.887054 124.0
372.221039 100.0
373.000946 76.0
373.193176 88.0
374.339844 56.0
374.617126 60.0
374.701904 104.0
374.98703 44.0
375.152802 108.0
376.565033 100.0
376.766785 88.0
377.092285 260.0
377.156036 272.0
378.151001 140.0
378.765869 64.0
379.292847 40.0
379.672791 120.0
379.74649 92.0
380.670135 96.0
382.707672 36.0
384.988831 72.0
385.074738 44.0
385.398987 100.0
385.801544 92.0
387.993866 104.0
389.029541 60.0
390.070526 36.0
391.660217 72.0
392.562744 116.0
393.691376 56.0
394.948181 72.0
397.567017 84.0
398.480286 72.0
399.016846 72.0
399.251434 68.0
399.342896 60.0
400.521057 84.0
401.804688 84.0
402.575043 136.0
402.921204 96.0
403.502045 60.0
403.63797 80.0
403.761932 72.0
404.165985 112.0
404.298035 64.0
405.114838 92.0
405.888367 120.0
406.791046 124.0
407.240784 84.0
407.594299 88.0
411.012909 28.0
412.252594 76.0
412.705322 172.0
413.223022 76.0
413.429382 112.0
414.664612 68.0
416.206146 44.0
417.417023 84.0
417.819702 48.0
419.053314 80.0
421.53006 112.0
421.763 64.0
422.063568 84.0
422.695465 88.0
425.170624 36.0
425.457947 68.0
427.685944 108.0
429.536041 80.0
430.222504 68.0
432.502869 100.0
433.844971 80.0
435.417572 112.0
435.662659 92.0
438.029633 100.0
438.642181 76.0
439.009064 96.0
440.039703 52.0
440.185852 48.0
443.490906 52.0
443.81369 76.0
443.843048 36.0
443.981415 64.0
446.248932 120.0
447.039703 84.0
449.293915 48.0
449.758087 72.0
450.47171 80.0
450.725189 76.0
451.037933 120.0
453.242859 44.0
453.450043 112.0
454.256134 52.0
454.480988 108.0
455.48288 36.0
457.779541 44.0
462.14624 84.0
463.289337 44.0
463.653534 48.0
464.223724 112.0
464.631195 96.0
466.658356 48.0
466.817444 80.0
468.056732 112.0
468.409882 60.0
470.0784 48.0
471.646118 60.0
472.251434 32.0
472.787933 76.0
473.359344 48.0
473.87912 56.0
475.856873 64.0
478.839905 84.0
480.958893 112.0
481.552704 36.0
483.795868 88.0
485.276672 96.0
485.614319 28.0
485.895081 128.0
486.434845 72.0
489.728241 68.0
490.217285 48.0
490.746216 68.0
494.837494 48.0
500.292023 52.0
505.077393 84.0
506.567993 52.0
508.460144 80.0
511.444489 68.0
511.511993 92.0
511.602051 108.0
511.70108 72.0
511.80014 132.0
518.014526 124.0
518.857422 60.0
521.113037 76.0
522.008484 56.0
526.8078 76.0
527.018005 44.0
528.760254 44.0
531.078552 56.0
532.092712 112.0
533.241089 56.0
535.403381 40.0
535.435608 36.0
536.292603 80.0
536.905762 104.0
538.414856 52.0
539.491455 76.0
540.347046 48.0
540.842163 76.0
541.587646 52.0
542.421692 68.0
543.595093 36.0
546.094482 88.0
548.380493 68.0
550.907532 68.0
551.540405 52.0
552.068726 116.0
554.4823 116.0
554.915649 56.0
556.064941 68.0
557.910889 60.0
559.350403 68.0
560.537231 68.0
562.277344 112.0
562.409485 52.0
568.998962 80.0
569.279114 64.0
570.48114 84.0
573.53241 128.0
574.328674 48.0
576.209473 56.0
577.571899 128.0
580.296753 40.0
581.236877 56.0
581.817627 104.0
584.61499 72.0
585.703125 112.0
585.756104 92.0
585.789795 72.0
586.363159 144.0
588.823669 80.0
589.243958 60.0
590.147766 116.0
591.80249 124.0
593.493469 44.0
595.099487 40.0
595.667664 64.0
596.795166 84.0
599.701416 120.0
601.149841 168.0
601.5354 68.0
603.21582 92.0
603.73407 60.0
604.673401 88.0
605.084534 92.0
605.726074 44.0
606.250305 96.0
608.104126 84.0
613.485352 48.0
614.22998 64.0
616.51593 100.0
622.683838 100.0
623.588074 108.0
625.657349 64.0
626.932495 40.0
627.286377 60.0
634.354675 48.0
644.495728 44.0
646.057983 84.0
650.806824 68.0
651.964966 52.0
653.424316 76.0
661.943115 64.0
666.862976 116.0
669.1521 68.0
672.85376 108.0
672.988037 156.0
674.96698 84.0
675.784241 116.0
680.116516 84.0
681.393982 80.0
682.83905 72.0
683.588196 76.0
683.775574 88.0
686.01532 132.0
691.321838 64.0
692.028503 88.0
692.966003 36.0
695.955627 128.0
699.551636 60.0
699.767517 48.0
704.841553 52.0
705.391174 52.0
709.79071 64.0
710.596924 68.0
711.355835 92.0
717.228333 180.0
717.745422 52.0
718.252075 76.0
725.465698 108.0
726.307556 76.0
728.304321 92.0
728.465454 124.0
730.260742 48.0
731.186096 116.0
731.794373 96.0
732.171326 44.0
732.332886 200.0
735.087769 100.0
737.037048 56.0
738.074829 124.0
743.356201 48.0
745.870789 88.0
749.097595 144.0
753.800537 52.0
754.084717 48.0
754.489197 80.0
755.396973 72.0
758.096191 56.0
760.520264 36.0
761.953491 40.0
764.361755 48.0
765.473694 56.0
766.764465 64.0
767.65033 84.0
768.245972 60.0
772.228516 56.0
772.422119 204.0
773.910828 168.0
776.121582 136.0
778.546509 104.0
784.327209 36.0
789.922241 88.0
790.727966 84.0
791.769287 36.0
798.211548 76.0
799.834717 108.0
800.304688 36.0
803.641357 100.0
807.471313 96.0
810.188293 136.0
811.888733 84.0
812.143921 200.0
815.323364 36.0
817.142944 92.0
817.592468 72.0
818.577271 136.0
818.890503 92.0
834.363403 88.0
836.163818 64.0
839.124573 128.0
840.399231 96.0
842.28125 140.0
844.327271 100.0
844.454468 80.0
858.299011 36.0
858.471802 32.0
864.566956 192.0
865.673401 176.0
867.63623 208.0
868.592041 100.0
869.507385 108.0
870.340942 44.0
870.828369 144.0
873.467468 44.0
875.386108 68.0
876.322632 76.0
878.621948 92.0
880.198975 80.0
883.690979 72.0
893.634888 136.0
896.457275 164.0
899.033447 212.0
907.455505 192.0
911.717346 56.0
916.115601 44.0
916.471069 76.0
918.713867 64.0
920.995605 128.0
921.5755 128.0
922.518311 80.0
928.852295 40.0
931.280212 172.0
932.367737 76.0
935.427063 44.0
935.615784 176.0
936.005493 84.0
937.278503 64.0
937.436951 116.0
938.265869 196.0
938.485352 68.0
941.218872 100.0
941.433777 132.0
948.695251 104.0
951.419067 184.0
956.281189 36.0
957.069153 104.0
957.752747 124.0
958.892578 68.0
961.45813 220.0
966.130676 92.0
966.259277 228.0
969.528625 144.0
973.1698 100.0
973.244263 92.0
974.989807 148.0
975.97821 124.0
976.257996 48.0
979.967834 132.0
980.391541 168.0
984.065552 140.0
984.134216 104.0
987.721375 100.0
991.058105 116.0
991.195984 128.0
992.913635 64.0
994.387939 128.0
1001.473755 176.0
1002.223389 128.0
1004.921936 64.0
1006.563049 60.0
1007.289307 48.0
1009.602539 164.0
1013.527222 60.0
1017.395996 156.0
1018.380249 132.0
1018.653381 212.0
1018.793152 48.0
1023.041138 192.0
1023.50592 64.0
1025.295898 104.0
1025.378784 80.0
1025.93335 152.0
1026.54541 120.0
1029.116821 200.0
1030.132324 112.0
1031.103516 92.0
1033.936646 112.0
1034.019775 160.0
1034.102417 224.0
1035.005615 264.0
1037.363281 108.0
1037.850586 68.0
1039.02417 96.0
1039.74292 172.0
1041.078125 152.0
1043.320557 148.0
1044.285156 124.0
1045.192139 52.0
1046.022339 228.0
1047.15564 156.0
1049.03064 100.0
1050.894409 208.0
1053.108643 64.0
1053.444458 144.0
1055.855347 92.0
1061.852539 20.0
1066.358276 88.0
1067.014771 92.0
1067.651978 184.0
1071.798584 140.0
1072.248169 168.0
1073.128174 212.0
1074.758789 72.0
1076.593018 104.0
1077.559814 40.0
1078.964844 48.0
1079.180664 148.0
1079.344116 140.0
1079.442139 120.0
1081.110229 192.0
1082.026611 68.0
1083.755737 140.0
1085.014038 272.0
1085.217285 80.0
1086.168213 128.0
1090.836914 152.0
1091.593018 80.0
1092.651978 56.0
1098.726196 68.0
1100.283569 124.0
1100.752441 208.0
1105.286865 184.0
1106.551025 32.0
1106.762939 228.0
1106.809326 28.0
1108.710449 192.0
1108.98877 144.0
1111.289917 212.0
1111.581787 164.0
1112.690308 84.0
1118.586792 176.0
1122.377563 204.0
1125.079712 44.0
1125.680542 60.0
1126.194824 112.0
1127.130127 84.0
1131.323608 184.0
1134.699951 112.0
1134.921265 176.0
1135.927246 160.0
1139.109009 164.0
1139.767456 164.0
1144.078491 136.0
1146.085571 228.0
1147.629028 72.0
1148.613647 152.0
1148.950928 196.0
1149.213989 104.0
1151.44165 180.0
1153.536133 180.0
1154.08374 144.0
1155.964233 228.0
1156.302612 96.0
1158.672485 240.0
1159.871948 180.0
1160.387207 228.0
1161.668945 172.0
1164.743896 140.0
1165.395996 148.0
1166.680542 208.0
1170.776611 88.0
1171.055786 68.0
1171.600708 196.0
1173.815796 64.0
1175.323242 52.0
1179.113281 64.0
1179.222534 180.0
1181.102905 124.0
1181.862183 56.0
1182.149658 136.0
1182.792969 156.0
1183.039307 184.0
1183.299561 256.0
1185.046021 176.0
1185.169312 104.0
1185.847778 156.0
1186.978882 56.0
1187.088623 172.0
1187.232544 108.0
1188.906494 32.0
1189.098633 104.0
1189.229004 48.0
1189.654663 184.0
1189.709473 256.0
1193.797607 236.0
1194.519775 68.0
1195.57251 160.0
1198.250977 188.0
1198.554199 124.0
1198.712646 100.0
1200.098022 172.0
1201.036011 160.0
1203.099243 176.0
1203.713623 88.0
1204.722046 144.0
1211.009644 96.0
1211.265991 164.0
1212.000244 248.0
1212.831909 196.0
1213.615234 36.0
1215.779419 112.0
1220.023315 160.0
1221.761841 188.0
1222.081909 48.0
1225.187012 112.0
1226.782837 136.0
1227.103516 152.0
1227.25 40.0
1227.298706 80.0
1228.205322 120.0
1230.138184 196.0
1230.633911 188.0
1231.751221 156.0
1232.359009 108.0
1235.896851 176.0
1236.288818 88.0
1237.464722 212.0
1237.534668 80.0
1238.424072 188.0
1244.4198 88.0
1244.532104 224.0
1244.939331 88.0
1246.751831 64.0
1249.972534 160.0
1250.486206 72.0
1253.01416 152.0
1253.063477 156.0
1254.360107 172.0
1256.680298 180.0
1257.802368 136.0
1258.02124 56.0
1258.225952 100.0
1258.423584 48.0
1258.536621 120.0
1260.203491 132.0
1261.383667 44.0
1263.073608 192.0
1263.200928 56.0
1263.802246 108.0
1263.901367 228.0
1264.057007 144.0
1264.262207 100.0
1265.104492 172.0
1265.628418 104.0
1268.589722 168.0
1268.653564 60.0
1269.63208 88.0
1271.554565 188.0
1271.61853 168.0
1272.796875 216.0
1275.119873 64.0
1275.304688 208.0
1275.425415 56.0
1275.880371 140.0
1275.97998 200.0
1277.16748 152.0
1282.037231 212.0
1282.293823 124.0
1283.5271 64.0
1283.947754 140.0
1284.375732 136.0
1286.744873 132.0
1286.880493 192.0
1287.408936 128.0
1287.708862 156.0
1288.358887 140.0
1289.223389 120.0
1290.109741 120.0
1291.032104 192.0
1291.189453 180.0
1293.099609 212.0
1293.607788 88.0
1293.793945 204.0
1294.330933 144.0
1294.445435 124.0
1294.789185 220.0
1295.170166 144.0
1295.469604 196.0
1296.745117 108.0
1297.311279 200.0
1297.58374 112.0
1298.530273 164.0
1298.64502 80.0
1298.939087 68.0
1299.771362 172.0
1300.1875 216.0
1300.632446 92.0
1301.443726 232.0
1302.808228 128.0
1303.023804 188.0
1303.074097 112.0
1303.921997 204.0
1305.762451 132.0
1305.971069 132.0
1306.568115 228.0
1306.819946 216.0
1307.316406 96.0
1308.331299 164.0
1311.572754 80.0
1311.882812 200.0
1313.534058 176.0
1314.161743 68.0
1314.717285 156.0
1315.099854 160.0
1315.265869 168.0
1316.175415 140.0
1316.56543 148.0
1316.673706 156.0
1318.349731 160.0
1319.151978 160.0
1320.128052 124.0
1320.569214 156.0
1321.958252 96.0
1322.587891 144.0
1323.217651 116.0
1324.484985 68.0
1324.585449 148.0
1325.694824 84.0
1327.971191 152.0
1328.355713 212.0
1329.037598 212.0
1330.707886 164.0
1330.859497 116.0
1331.549316 168.0
1331.83252 220.0
1332.203003 132.0
1332.667969 156.0
1332.762451 108.0
1334.826782 124.0
1335.699463 164.0
1335.9104 140.0
1336.346924 160.0
1336.87085 180.0
1337.227417 60.0
1337.343872 140.0
1338.406738 36.0
1338.61792 176.0
1338.690674 184.0
1339.361572 176.0
1339.44812 72.0
1339.52832 160.0
1339.579224 132.0
1339.746826 160.0
1340.351562 176.0
1343.078125 136.0
1343.231201 180.0
1343.399048 168.0
1344.026489 148.0
1344.165039 180.0
1344.376709 112.0
1344.705078 128.0
1344.924072 132.0
1344.989746 136.0
1345.997192 124.0
1346.062988 148.0
1348.407959 168.0
1348.64917 44.0
1349.175415 164.0
1349.241211 144.0
1349.584839 200.0
1351.82312 92.0
1351.881714 156.0
1352.56958 132.0
1353.98999 188.0
1354.04126 132.0
1354.656494 148.0
1355.271973 144.0
1356.086548 128.0
1356.884399 228.0
1357.250977 160.0
1359.282715 240.0
1360.86084 172.0
1361.822876 160.0
1362.021118 216.0
1362.241455 188.0
1363.28479 120.0
1363.872803 144.0
1364.909302 144.0
1366.071289 152.0
1366.122803 196.0
1366.203735 88.0
1366.652588 128.0
1367.89624 204.0
1368.607544 252.0
1369.008057 192.0
1369.678223 144.0
1370.311768 168.0
1370.86438 176.0
1370.916016 132.0
1370.99707 172.0
1371.17395 188.0
1371.571899 136.0
1371.726685 192.0
1374.692383 172.0
1374.802246 224.0
1375.924194 100.0
1376.994873 112.0
1379.521851 184.0
1380.305542 120.0
1380.867554 144.0
1380.948975 212.0
1382.347168 160.0
1382.925781 148.0
1383.531372 184.0
1384.886475 168.0
1385.797607 72.0
1386.946289 116.0
1387.428101 236.0
1387.835815 124.0
1388.050903 116.0
1388.206543 148.0
1388.673828 160.0
1390.506348 124.0
1392.250977 176.0
1392.458862 132.0
1392.675171 164.0
1393.157104 164.0
1393.389038 196.0
1393.781128 100.0
1394.316284 184.0
1394.464844 140.0
1396.56897 104.0
1397.201294 132.0
1397.30542 172.0
1397.439331 248.0
1397.811401 156.0
1398.324829 56.0
1401.27356 188.0
1401.597534 144.0
1401.824951 172.0
1402.436035 204.0
1403.144287 76.0
1403.554321 36.0
1405.515991 120.0
1406.385864 104.0
1406.471313 132.0
1406.568237 108.0
1407.329712 160.0
1407.531372 88.0
1408.218384 180.0
1409.294067 164.0
1409.787231 96.0
1409.948853 160.0
1410.452393 68.0
1411.641113 156.0
1412.366577 80.0
1412.598511 172.0
1413.081299 184.0
1414.087402 144.0
1414.222168 80.0
1414.723633 120.0
1415.187866 212.0
1415.42749 112.0
1415.494873 132.0
1415.629639 188.0
1416.034058 120.0
1416.468506 160.0
1417.438599 156.0
1417.952026 108.0
1418.214355 132.0
1419.008911 132.0
1419.436279 44.0
1420.44873 248.0
1420.598755 164.0
1421.604126 172.0
1422.624878 52.0
1423.480835 176.0
1423.721069 180.0
1423.788696 148.0
1424.134155 184.0
1424.19751 184.0
1424.276855 180.0
1424.412109 60.0
1424.494751 144.0
1424.637451 276.0
1424.705078 204.0
1424.93042 52.0
1426.072632 44.0
1426.275513 188.0
1426.452026 212.0
1427.410767 180.0
1427.628784 88.0
1427.884521 216.0
1428.591553 228.0
1429.118164 156.0
1429.434204 180.0
1429.539551 136.0
1429.953491 164.0
1430.784302 216.0
1431.187988 212.0
1432.754517 208.0
1433.018311 188.0
1433.199097 120.0
1433.786865 204.0
1433.892334 56.0
1434.299316 160.0
1438.229126 72.0
1438.357422 120.0
1438.659424 136.0
1439.505005 136.0
1440.781494 92.0
1440.924927 208.0
1441.679688 164.0
1442.784058 56.0
1442.882324 120.0
1443.857788 160.0
1444.122559 104.0
1445.09082 116.0
1445.401001 144.0
1445.491821 156.0
1449.194336 116.0
1450.475098 124.0
1450.528198 64.0
1451.164917 204.0
1452.46936 184.0
1453.296265 172.0
1453.6073 172.0
1454.396606 160.0
1454.806519 68.0
1455.391113 40.0
1455.816284 172.0
1455.915405 480.0
1456.485718 144.0
1457.517822 132.0
1457.616577 128.0
1458.467773 108.0
1458.741455 36.0
1458.91626 144.0
1459.007446 144.0
1460.011108 168.0
1460.208862 172.0
1460.284912 184.0
1460.360962 220.0
1460.475098 120.0
1460.535889 180.0
1460.703247 52.0
1461.616211 120.0
1461.890137 104.0
1461.973877 188.0
1462.696899 120.0
1462.902466 204.0
1463.085083 344.0
1463.46582 192.0
1464.212036 176.0
1465.293701 144.0
1466.139526 112.0
1467.595337 180.0
1468.312134 52.0
1468.663086 116.0
1468.899536 204.0
1469.647095 152.0
1470.341553 184.0
1470.567505 144.0
1470.822388 200.0
1471.165894 112.0
1471.494141 168.0
1471.593384 176.0
1472.58606 168.0
1472.807617 176.0
1473.556274 144.0
1473.754883 252.0
1474.496094 152.0
1475.459229 112.0
1476.36145 140.0
1477.1875 172.0
1477.271606 124.0
1477.381226 204.0
1478.151489 140.0
1478.403931 120.0
1479.108154 156.0
1479.21521 272.0
1479.797119 128.0
1480.570435 132.0
1480.754272 136.0
1481.481934 156.0
1481.803711 48.0
1481.86499 108.0
1483.198364 180.0
1484.808472 64.0
1485.199585 164.0
1485.820923 132.0
1486.443359 136.0
1487.048706 172.0
1487.501587 180.0
1488.177124 204.0
1488.937256 112.0
1489.328979 144.0
1489.951172 64.0
1490.028076 136.0
1490.166382 144.0
1490.319946 176.0
1490.757935 48.0
1490.988525 232.0
1492.149048 160.0
1492.879639 116.0
1493.502563 240.0
1493.594849 164.0
1494.241089 120.0
1494.533447 144.0
1494.664307 140.0
1495.780151 144.0
1496.118896 140.0
1497.050537 132.0
1497.150635 144.0
1497.420166 172.0
1498.5448 128.0
1498.706665 160.0
1498.984009 92.0
1499.847168 92.0
1500.255737 188.0
1501.38916 156.0
1501.458496 164.0
1502.739014 148.0
1503.178833 92.0
1504.205322 108.0
