>compound MLS001162658-01!
>formula C26H28N2O5
>ionization [M+H]+
>parentmass 449.208
#inchi InChI=1S/C26H28N2O5/c1-3-5-18-11-25(31)33-26-16(2)22(9-8-20(18)26)32-15-24(30)27-12-17-10-19(14-27)21-6-4-7-23(29)28(21)13-17/h4,6-9,11,17,19H,3,5,10,12-15H2,1-2H3/t17-,19+/m1/s1
#inchikey KFWLSTWDVTUEHP
#Ion_Source LC-ESI
#Instrument qTof
#Compound_Source NIH Natural Product Library
#PI Dorrestein
#Data_Collector VVP/LMS
#Scan -1
#Precursor_MZ 449.208
#ExactMass 448.2
#Charge 1
#CAS_Number N/A
#Pubmed_ID N/A
#Smiles CCCc1cc(=O)oc2c(C)c(OCC(=O)N3C[C@H]4C[C@@H](C3)c5cccc(=O)n5C4)ccc12
#INCHI_AUX N/A
#Library_Class 1
#SpectrumID CCMSLIB00000079424
#IonMode Positive
#UpdateWorkflowName UPDATE-SINGLE-ANNOTATED-GOLD
#LibraryQualityString Gold
#TaskID b1d8e8f6646f4e71acdff9ca3d919d08
##Scan# 1912
#SpectrumFile p1-B06_GB6_01_17890.mzXML
#LibraryName NIH_Natural_Products_Library.mgf
#MQScore -1
#Organism NIH_Natural_Products_Library
#TIC_Query 0
#RT_Query -1
#MZErrorPPM -1
#SharedPeaks 0
#MassDiff 0
#LibMZ -1
#SpecMZ 449.208
#SpecCharge 0
#internalFilename spec-00000.mgf

>collision 10
95.029198 152.0
95.076088 176.0
95.097992 196.0
95.31855 156.0
95.349648 108.0
95.400192 180.0
95.458534 116.0
95.649223 140.0
95.902481 280.0
96.086494 160.0
96.414848 140.0
96.435402 204.0
96.452995 48.0
96.484276 144.0
96.758217 124.0
96.77388 212.0
96.871819 176.0
96.959999 156.0
97.024696 260.0
97.19928 168.0
97.262093 172.0
97.320999 260.0
97.413315 92.0
97.487991 88.0
97.507645 212.0
97.735794 176.0
97.763344 184.0
97.824371 168.0
98.027267 180.0
98.123863 132.0
98.350754 144.0
98.433685 152.0
98.455414 116.0
98.514671 204.0
98.645119 176.0
98.718285 40.0
98.955765 48.0
99.034866 200.0
99.100372 216.0
99.193527 40.0
99.507019 120.0
99.570572 108.0
99.735504 176.0
99.763336 172.0
99.898582 112.0
100.253624 180.0
100.376656 248.0
100.488373 184.0
100.542259 60.0
100.578186 148.0
100.642082 216.0
100.915855 48.0
101.107918 208.0
101.28614 192.0
101.398361 208.0
101.494598 44.0
101.554771 188.0
101.665131 168.0
101.799652 56.0
101.897064 196.0
102.048851 140.0
102.109184 188.0
102.342651 136.0
102.475601 104.0
102.511879 196.0
102.586464 248.0
102.727943 136.0
102.881035 80.0
103.032524 208.0
103.10363 196.0
103.36821 136.0
103.424889 188.0
103.489677 44.0
103.613243 172.0
103.706467 212.0
103.852478 208.0
103.901169 144.0
103.947838 160.0
104.086388 212.0
104.222008 244.0
104.325676 200.0
104.39888 136.0
104.714378 216.0
104.925949 172.0
104.960999 156.0
105.087479 128.0
105.105507 244.0
105.14666 112.0
105.167076 192.0
105.193619 200.0
105.31002 132.0
105.336578 104.0
105.367226 212.0
105.406052 160.0
105.574821 168.0
105.649391 164.0
105.696457 172.0
105.995461 136.0
106.100998 188.0
106.122566 164.0
106.229225 248.0
106.631729 124.0
106.689293 140.0
106.802406 152.0
107.094734 168.0
107.110985 144.0
107.319389 160.0
107.449348 212.0
107.610352 156.0
107.872765 188.0
107.924454 152.0
108.059608 192.0
108.08168 76.0
108.118935 176.0
108.303574 120.0
108.319801 160.0
108.728317 148.0
108.792679 208.0
108.908363 176.0
108.994171 164.0
109.088051 1524.0
109.118896 196.0
109.660202 192.0
109.739433 188.0
109.783134 176.0
109.814514 48.0
109.908401 60.0
109.97728 180.0
110.093758 200.0
110.096741 196.0
110.232109 208.0
110.581413 192.0
111.102768 156.0
111.117943 152.0
111.145218 104.0
111.214485 48.0
111.260674 164.0
111.365685 204.0
111.414001 124.0
111.569542 112.0
111.607391 132.0
111.659973 208.0
111.755028 200.0
112.000992 176.0
112.108459 44.0
112.321434 176.0
112.361519 152.0
112.452271 136.0
112.473381 128.0
112.524055 140.0
112.667686 160.0
113.188065 136.0
113.291862 172.0
113.400169 188.0
113.609901 192.0
113.677811 180.0
114.245941 192.0
114.274979 44.0
114.289879 172.0
114.3069 216.0
114.658333 68.0
114.875847 156.0
114.931328 152.0
115.084862 176.0
115.132011 48.0
115.258064 188.0
115.414124 32.0
115.441933 212.0
115.589554 44.0
115.743698 76.0
115.880798 132.0
115.925804 68.0
116.086136 148.0
116.105904 152.0
116.241074 176.0
116.26683 156.0
116.299026 172.0
116.389206 84.0
116.453644 100.0
116.584717 196.0
116.819115 44.0
116.844933 44.0
116.956848 136.0
117.012825 64.0
117.101837 512.0
117.144211 180.0
117.2649 56.0
117.519394 140.0
117.597092 172.0
117.629478 248.0
117.648911 68.0
117.672661 172.0
117.759048 168.0
117.968674 132.0
118.070312 140.0
118.100601 436.0
118.115746 192.0
118.195801 168.0
118.312698 188.0
118.351074 52.0
118.670227 144.0
118.730949 68.0
118.78952 208.0
119.117355 156.0
119.175545 184.0
119.310997 188.0
119.345581 48.0
119.606682 36.0
119.780907 132.0
119.807053 52.0
120.094833 208.0
120.31308 164.0
120.354568 52.0
120.391693 164.0
120.474709 128.0
120.581787 144.0
121.093826 140.0
121.11573 192.0
121.201187 136.0
121.269135 160.0
121.380951 136.0
121.470886 172.0
121.718925 116.0
121.965019 152.0
122.015587 240.0
122.101364 1580.0
122.143158 44.0
122.158554 164.0
122.206963 48.0
122.257584 152.0
122.321419 208.0
122.367661 96.0
122.471176 156.0
122.709206 52.0
123.040192 224.0
123.100533 520.0
123.334038 96.0
123.413635 132.0
123.535294 160.0
123.555893 212.0
123.749992 200.0
124.112923 520.0
124.384125 124.0
124.417427 156.0
124.432976 88.0
124.448517 180.0
124.535133 112.0
124.712914 88.0
125.043175 232.0
125.121269 236.0
125.289337 204.0
125.374023 168.0
125.43644 204.0
125.512253 96.0
125.541245 156.0
125.565781 136.0
125.655014 204.0
125.728661 104.0
125.900589 176.0
126.083809 192.0
126.115105 172.0
126.269402 172.0
126.629784 152.0
126.67907 148.0
126.885277 152.0
127.091652 144.0
127.163475 148.0
127.197144 204.0
127.268997 72.0
127.295944 172.0
127.364151 132.0
127.662292 228.0
127.720779 184.0
127.979622 96.0
128.092239 132.0
128.108017 336.0
128.168854 140.0
128.622223 124.0
128.653839 176.0
128.773529 236.0
128.850342 132.0
128.881973 132.0
128.979172 204.0
129.071869 132.0
129.114838 588.0
129.350189 208.0
129.73082 172.0
129.898651 192.0
130.028 88.0
130.052979 168.0
130.084747 164.0
130.119843 376.0
130.155151 136.0
130.211929 88.0
130.261902 92.0
130.320526 200.0
130.377792 124.0
130.771317 120.0
130.812286 100.0
130.894272 164.0
131.087921 332.0
131.121262 464.0
131.14035 68.0
131.179092 108.0
131.404907 204.0
131.566971 48.0
131.619492 76.0
131.69487 140.0
131.740555 180.0
131.811386 236.0
131.889114 128.0
131.953125 196.0
132.089355 852.0
132.122986 492.0
132.181885 176.0
132.261993 132.0
132.424591 100.0
132.442917 100.0
132.495605 68.0
132.589569 144.0
132.894608 100.0
132.93132 76.0
133.028244 212.0
133.097626 1992.0
133.12825 176.0
133.15863 216.0
133.411423 224.0
133.473511 116.0
133.797684 124.0
133.945374 48.0
133.993759 140.0
134.035248 40.0
134.104721 4072.0
134.191513 76.0
134.332703 108.0
134.425003 40.0
134.556595 172.0
134.662827 204.0
134.85463 88.0
134.898544 60.0
134.95636 60.0
135.062744 88.0
135.110504 808.0
135.178452 152.0
135.203903 220.0
135.296509 168.0
135.463272 156.0
135.815659 56.0
135.887573 52.0
136.01059 80.0
136.052383 132.0
136.080246 124.0
136.11705 212.0
136.1987 148.0
136.354385 184.0
136.384613 112.0
136.903519 144.0
136.933792 128.0
137.013 196.0
137.075394 160.0
137.094574 96.0
137.360397 152.0
137.393066 180.0
137.5401 204.0
137.579788 212.0
137.617157 112.0
137.652115 188.0
137.719925 160.0
137.843765 196.0
137.916214 124.0
137.946609 164.0
138.035461 156.0
138.138397 252.0
138.318604 136.0
138.346695 104.0
138.377136 144.0
138.400558 56.0
138.491898 132.0
138.522354 168.0
138.573502 216.0
138.646545 128.0
138.829437 80.0
138.85054 208.0
139.005402 180.0
139.028748 216.0
139.073471 80.0
139.106339 72.0
139.228455 88.0
139.442276 144.0
139.524551 184.0
139.55513 220.0
139.884537 124.0
139.93869 120.0
140.044678 96.0
140.082794 112.0
140.122437 144.0
140.461945 52.0
140.51857 56.0
140.870392 172.0
141.014542 288.0
141.050003 140.0
141.10675 104.0
141.142212 152.0
141.184784 176.0
141.355133 176.0
141.487701 216.0
141.658234 172.0
141.897629 200.0
141.973526 136.0
141.999619 188.0
142.115402 184.0
142.201309 220.0
142.274902 156.0
142.315277 164.0
142.546951 92.0
142.574234 160.0
142.950027 124.0
143.063232 172.0
143.13649 492.0
143.243134 172.0
143.440735 152.0
143.471725 172.0
143.834366 224.0
144.070816 156.0
144.089935 156.0
144.135712 364.0
144.201599 244.0
144.247681 180.0
144.324188 168.0
144.549072 144.0
144.584976 52.0
144.644821 36.0
144.788498 128.0
144.917877 124.0
145.082031 256.0
145.101883 284.0
145.146942 420.0
145.481552 176.0
145.519974 256.0
145.601639 140.0
145.750595 76.0
145.870773 220.0
145.937134 168.0
145.966965 112.0
146.005447 84.0
146.024628 156.0
146.059036 216.0
146.077606 168.0
146.1091 19744.0
146.155762 176.0
146.229218 84.0
146.267746 56.0
146.291809 36.0
146.327927 52.0
146.37851 112.0
146.408875 184.0
146.535095 228.0
146.556778 164.0
146.580872 216.0
146.699814 164.0
146.862991 148.0
146.903992 160.0
146.92572 160.0
147.019836 84.0
147.063278 100.0
147.115829 10764.0
147.163788 336.0
147.191254 96.0
147.248611 80.0
147.268539 116.0
147.338608 156.0
147.372437 120.0
147.46669 140.0
147.543442 196.0
147.587585 84.0
147.608185 56.0
147.667404 180.0
147.689484 136.0
147.715775 80.0
147.782944 124.0
147.845276 164.0
147.957809 160.0
147.989288 88.0
148.02562 180.0
148.124268 3884.0
148.166122 68.0
148.214127 232.0
148.250946 160.0
148.284882 76.0
148.311539 68.0
148.360031 148.0
148.385223 204.0
148.51767 36.0
148.697235 52.0
148.78949 140.0
148.876923 76.0
148.99353 44.0
149.03241 128.0
149.054718 132.0
149.093521 336.0
149.123047 988.0
149.158798 228.0
149.277954 52.0
149.294983 100.0
149.314362 240.0
149.346054 60.0
149.501297 160.0
149.559952 76.0
149.647858 60.0
149.699005 168.0
149.740402 88.0
149.82811 84.0
149.852478 60.0
149.878296 128.0
149.923157 80.0
150.116028 136.0
150.135284 116.0
150.213333 120.0
150.264572 100.0
150.396378 132.0
150.46962 36.0
150.662582 80.0
150.82634 108.0
150.855667 76.0
151.06601 48.0
151.111237 152.0
151.210388 124.0
151.249557 116.0
151.330353 224.0
151.391586 76.0
151.465073 180.0
151.518967 204.0
151.894104 36.0
152.125916 180.0
152.181274 116.0
152.394989 124.0
152.554764 56.0
152.596558 236.0
152.968094 60.0
153.120575 188.0
153.15033 192.0
153.194687 84.0
153.253815 100.0
153.507751 168.0
153.599014 156.0
153.969299 76.0
153.986588 184.0
154.114655 144.0
154.480728 172.0
154.691391 188.0
154.946503 140.0
154.983673 160.0
155.119995 208.0
155.137924 192.0
155.158066 160.0
155.201828 148.0
155.382904 44.0
155.643555 176.0
155.750839 104.0
155.827057 128.0
155.891998 100.0
156.135986 228.0
156.192886 244.0
156.224106 248.0
156.284943 108.0
156.540039 192.0
156.573746 168.0
157.082535 204.0
157.399292 156.0
157.493576 172.0
157.551682 112.0
157.616638 100.0
158.059296 156.0
158.079315 184.0
158.116653 476.0
158.140335 160.0
158.244553 140.0
158.575256 196.0
158.591705 164.0
158.689392 164.0
158.720688 180.0
158.979095 140.0
159.074478 232.0
159.121918 1276.0
159.148651 188.0
159.275406 156.0
159.30806 88.0
159.373398 216.0
159.805923 60.0
160.102997 160.0
160.129517 7876.0
160.167892 248.0
160.334808 72.0
160.51886 68.0
160.624802 40.0
160.649002 196.0
160.748444 36.0
160.882233 48.0
161.074188 60.0
161.131958 940.0
161.200531 36.0
161.223267 84.0
161.334503 48.0
161.61528 172.0
161.686142 64.0
161.719055 168.0
161.822861 124.0
161.923431 124.0
161.97229 40.0
162.091385 84.0
162.121719 324.0
162.144806 1164.0
162.24855 116.0
162.344925 156.0
162.438782 52.0
162.497131 156.0
162.596115 216.0
162.723053 104.0
162.956741 124.0
162.977081 196.0
163.151428 1128.0
163.272003 104.0
163.348312 128.0
163.511185 112.0
163.661392 180.0
164.005356 168.0
164.11499 184.0
164.153244 200.0
164.186401 116.0
164.38797 132.0
164.755707 244.0
164.783813 156.0
164.804245 160.0
164.891144 124.0
165.157089 228.0
165.584579 152.0
165.998093 88.0
166.035721 56.0
166.13063 112.0
166.700714 152.0
166.965546 204.0
167.133484 300.0
167.168808 156.0
167.243454 132.0
167.346436 148.0
167.784485 48.0
167.825745 80.0
168.388397 144.0
168.644211 112.0
168.66748 168.0
168.737289 120.0
169.03479 40.0
169.073608 156.0
169.127975 188.0
169.234131 204.0
170.040451 144.0
170.118896 92.0
170.44043 188.0
170.484604 100.0
170.619781 108.0
171.119385 152.0
171.147461 128.0
171.189697 148.0
171.499771 172.0
171.555557 240.0
171.617096 136.0
171.684906 144.0
171.784042 168.0
171.807526 216.0
172.06395 196.0
172.133759 1640.0
172.220016 132.0
172.298401 136.0
172.421219 172.0
172.470886 236.0
172.601624 184.0
172.701019 48.0
172.732407 56.0
172.852783 152.0
172.907745 124.0
173.028168 200.0
173.101501 172.0
173.142075 11240.0
173.185974 144.0
173.235092 40.0
173.277893 60.0
173.358246 36.0
173.45372 180.0
173.505051 68.0
173.570618 160.0
173.596848 112.0
173.741119 128.0
173.822464 40.0
173.840836 100.0
173.903839 132.0
174.103394 172.0
174.147919 2776.0
174.192719 208.0
174.613327 36.0
174.834351 60.0
174.886993 32.0
175.109528 744.0
175.143127 476.0
175.166336 660.0
175.221481 52.0
175.268906 152.0
175.329529 84.0
175.543091 32.0
175.577377 340.0
175.661804 168.0
175.70929 88.0
175.743591 80.0
175.957413 180.0
176.114426 184.0
176.150757 192.0
176.195145 52.0
176.266495 140.0
176.477982 160.0
176.782211 124.0
176.843094 88.0
177.110565 92.0
177.142349 168.0
177.672623 100.0
177.736313 152.0
177.797348 96.0
177.916824 72.0
177.969925 136.0
178.068192 176.0
178.262161 236.0
178.456223 176.0
178.536011 168.0
178.557297 188.0
178.708939 216.0
178.847336 160.0
179.230896 216.0
179.364166 192.0
179.536453 264.0
179.852371 112.0
179.943146 160.0
180.164841 160.0
180.319855 156.0
180.474915 152.0
180.745117 96.0
180.86824 224.0
180.927139 92.0
181.728607 104.0
182.048965 180.0
182.107178 184.0
182.21196 52.0
182.289886 184.0
182.370529 128.0
182.569504 208.0
182.720154 176.0
182.738998 188.0
182.884338 196.0
183.153625 196.0
183.355728 172.0
183.431213 140.0
183.463577 52.0
183.517502 140.0
183.563339 152.0
183.633469 140.0
183.754883 52.0
183.808853 200.0
183.841232 132.0
184.527435 68.0
184.695114 192.0
185.162231 288.0
185.228439 176.0
186.158859 160.0
186.38707 112.0
186.626297 40.0
186.83847 136.0
187.004486 180.0
187.050766 228.0
187.069824 156.0
187.145203 200.0
187.353088 76.0
187.40213 124.0
187.557495 156.0
187.680191 168.0
187.745651 80.0
187.792023 96.0
187.901138 184.0
187.922974 128.0
187.972092 96.0
188.088364 148.0
188.134964 1512.0
188.256042 72.0
188.368042 112.0
188.507401 56.0
188.53746 156.0
188.567535 116.0
188.649536 100.0
188.678284 180.0
188.686874 92.0
188.697067 148.0
188.728836 108.0
188.750717 84.0
188.829605 152.0
188.859863 168.0
188.91713 220.0
188.966827 184.0
189.005142 196.0
189.023026 96.0
189.043457 44.0
189.072968 128.0
189.121841 608.0
189.16597 80948.0
189.222 132.0
189.247726 164.0
189.307983 52.0
189.332565 128.0
189.394989 72.0
189.443268 56.0
189.468735 108.0
189.518433 140.0
189.587662 104.0
189.616074 188.0
189.659698 144.0
189.738403 212.0
189.779037 44.0
189.830093 104.0
189.876404 88.0
189.940826 68.0
189.976715 184.0
190.01358 68.0
190.067734 60.0
190.13588 896.0
190.169418 13172.0
190.229355 196.0
190.264236 60.0
190.282578 220.0
190.299942 124.0
190.34848 100.0
190.389679 100.0
190.430893 84.0
190.450119 88.0
190.505066 72.0
190.524292 72.0
190.562759 48.0
190.601242 68.0
190.678192 136.0
190.787766 112.0
190.892654 36.0
190.936661 80.0
190.991684 32.0
191.032944 44.0
191.144394 776.0
191.180664 4644.0
191.255875 112.0
191.296997 68.0
191.33847 56.0
191.367844 84.0
191.401794 88.0
191.421082 72.0
191.452927 72.0
191.508926 112.0
191.542282 108.0
191.590103 108.0
191.624741 136.0
191.690765 108.0
191.743439 84.0
191.76825 72.0
191.834412 104.0
191.884048 124.0
191.941956 52.0
191.961258 64.0
192.021942 76.0
192.096436 48.0
192.15062 436.0
192.184814 256.0
192.391754 84.0
192.439606 96.0
192.46907 164.0
192.57402 120.0
192.609512 104.0
192.676239 108.0
192.697845 108.0
192.886307 88.0
193.170242 180.0
193.189163 144.0
193.212662 44.0
193.500534 112.0
193.591919 60.0
193.641785 276.0
193.76091 148.0
194.013138 72.0
194.088013 52.0
194.210052 148.0
194.318253 52.0
194.51532 40.0
194.679153 76.0
194.795822 88.0
194.923645 72.0
196.11702 92.0
196.312927 40.0
198.270126 100.0
198.979904 152.0
199.06134 92.0
199.150696 276.0
199.322632 68.0
199.435059 48.0
199.57283 76.0
199.690948 180.0
200.194794 136.0
200.214508 136.0
200.601517 108.0
200.747208 228.0
201.162018 204.0
201.212845 84.0
202.077805 184.0
202.128754 84.0
202.149506 264.0
202.166931 172.0
202.270279 164.0
202.610153 220.0
203.176422 3136.0
203.217102 412.0
203.341843 44.0
203.651352 100.0
203.819 188.0
203.901413 64.0
203.97818 116.0
204.177856 544.0
204.228439 64.0
204.726562 88.0
205.025742 52.0
205.179199 352.0
205.250977 148.0
205.467773 76.0
206.224609 200.0
207.097412 44.0
207.18335 180.0
207.217743 176.0
207.553131 180.0
207.831406 200.0
208.181656 108.0
210.540588 100.0
211.164948 108.0
211.691727 112.0
213.164093 164.0
213.354538 116.0
213.38652 132.0
213.476669 48.0
214.185654 220.0
214.28598 156.0
215.18663 296.0
216.154968 148.0
216.181305 164.0
216.359879 152.0
216.995728 268.0
217.118561 528.0
217.17131 1188.0
218.129074 136.0
218.169083 152.0
218.179901 168.0
218.188354 200.0
218.240814 76.0
218.434937 72.0
218.829346 120.0
218.966583 152.0
219.115082 116.0
219.171661 388.0
219.216644 224.0
219.333176 48.0
220.186005 180.0
220.298264 132.0
220.744614 48.0
220.916183 80.0
221.001999 128.0
221.289139 76.0
221.813583 32.0
221.97963 76.0
222.178391 180.0
222.466293 180.0
222.754379 136.0
223.176453 60.0
224.967285 36.0
225.03595 188.0
225.059845 80.0
227.293137 68.0
228.065079 152.0
228.197372 148.0
229.223923 60.0
229.251053 104.0
230.418945 176.0
230.860306 204.0
230.993408 44.0
231.11319 116.0
231.179504 8304.0
231.238541 84.0
231.30127 116.0
231.326324 40.0
231.361069 84.0
231.389908 124.0
231.4216 60.0
231.541336 64.0
231.795837 184.0
231.853424 64.0
231.886765 64.0
231.998947 80.0
232.074753 40.0
232.098541 180.0
232.194656 3884.0
232.232468 172.0
232.253693 60.0
232.399338 136.0
232.463074 60.0
232.49646 60.0
232.617874 68.0
232.654312 48.0
232.75148 28.0
232.848679 96.0
233.07959 40.0
233.204056 1328.0
233.274124 124.0
233.328857 48.0
233.395752 64.0
233.480911 160.0
233.62085 52.0
233.79126 68.0
233.843002 68.0
233.873444 48.0
234.165787 168.0
234.205887 120.0
234.229034 84.0
234.332596 80.0
234.510117 76.0
234.653412 68.0
234.735748 68.0
235.862488 68.0
235.993958 132.0
237.543839 152.0
238.044189 64.0
238.197769 212.0
238.35141 56.0
239.024918 120.0
239.369736 112.0
240.084778 44.0
240.723663 196.0
241.171707 160.0
241.292282 136.0
242.134064 176.0
242.161957 164.0
242.76947 36.0
243.174606 176.0
243.756775 144.0
243.822052 116.0
244.188965 148.0
244.534363 96.0
245.132401 64.0
246.215057 184.0
247.106064 144.0
247.519287 120.0
248.33107 212.0
249.79187 100.0
249.911438 120.0
250.29866 116.0
250.752365 64.0
250.831161 52.0
252.194962 196.0
253.981033 84.0
254.87326 44.0
254.905029 108.0
254.965424 156.0
255.191147 148.0
256.110992 92.0
256.193817 112.0
256.216125 140.0
257.20163 120.0
257.779785 180.0
258.681854 140.0
259.181213 1768.0
259.678497 156.0
259.848541 60.0
260.076416 128.0
260.181854 336.0
260.799225 60.0
261.18512 140.0
261.346008 196.0
261.603516 188.0
261.877258 100.0
262.612244 104.0
264.196106 652.0
264.833069 44.0
265.098755 160.0
265.199615 316.0
265.335419 44.0
266.156403 96.0
266.205109 184.0
267.072998 72.0
267.782654 124.0
268.04657 160.0
268.532379 120.0
268.715088 88.0
273.470703 128.0
273.681427 228.0
274.188782 132.0
274.23056 384.0
275.105896 76.0
276.256073 68.0
276.398376 88.0
277.030823 188.0
278.547028 104.0
278.89267 84.0
279.055573 68.0
279.667755 152.0
280.6073 140.0
280.84079 140.0
281.154449 140.0
281.932678 164.0
282.527954 96.0
282.949677 124.0
283.556061 136.0
283.586243 228.0
284.0289 124.0
284.225403 928.0
285.05304 140.0
285.217743 108.0
285.745789 112.0
286.041992 48.0
286.223816 140.0
287.781799 96.0
290.890137 120.0
291.906158 144.0
293.210205 148.0
294.578644 164.0
294.934052 52.0
295.341003 152.0
296.546417 80.0
297.448639 148.0
298.562012 168.0
300.170441 184.0
301.821228 132.0
303.261597 48.0
304.139252 132.0
309.099304 104.0
310.539368 144.0
311.181641 128.0
312.545593 88.0
313.179352 140.0
314.922028 44.0
315.123413 84.0
315.749176 160.0
316.191467 176.0
317.162079 224.0
317.651489 84.0
318.425385 192.0
319.652039 176.0
320.122009 80.0
322.241089 68.0
323.08493 132.0
323.245972 168.0
324.334869 128.0
326.169373 192.0
326.849182 76.0
327.605377 116.0
327.785553 180.0
327.965759 60.0
329.264832 160.0
330.092529 100.0
330.816254 76.0
332.436615 88.0
332.948578 64.0
333.700867 48.0
334.086426 76.0
334.359375 176.0
335.197083 168.0
335.627258 88.0
336.280365 140.0
336.813507 152.0
336.87561 140.0
337.189911 164.0
337.507996 20.0
338.598663 80.0
339.529694 144.0
340.208588 88.0
345.793823 124.0
345.912292 132.0
347.131409 196.0
348.594208 132.0
348.96225 60.0
351.051483 200.0
352.253448 140.0
352.997314 48.0
354.719818 136.0
355.042328 76.0
355.278656 156.0
356.097076 44.0
356.149658 136.0
356.322479 136.0
356.352539 176.0
357.732971 160.0
361.02359 112.0
361.094452 56.0
361.723633 236.0
363.008209 164.0
363.053711 44.0
363.721588 96.0
363.816498 108.0
364.808136 96.0
366.753571 156.0
371.235046 44.0
371.990997 60.0
373.524445 48.0
373.705292 76.0
373.82074 180.0
376.342041 180.0
376.67038 96.0
378.274536 208.0
378.918335 116.0
379.208984 120.0
379.294464 168.0
379.405609 28.0
380.295166 136.0
382.456543 112.0
383.013458 192.0
384.241608 208.0
385.170837 152.0
386.065979 36.0
387.25592 208.0
387.353851 144.0
387.867249 200.0
389.193481 84.0
389.951752 52.0
390.162567 180.0
391.600555 108.0
392.258667 84.0
393.619995 96.0
393.892548 108.0
398.087463 68.0
399.140656 64.0
401.482513 104.0
402.763855 164.0
403.333801 208.0
404.948059 72.0
405.412842 172.0
406.300018 108.0
406.411469 52.0
407.290771 128.0
407.338989 232.0
407.51178 216.0
407.724762 52.0
409.765198 228.0
410.293213 100.0
412.707977 204.0
413.387634 60.0
413.802582 40.0
413.938232 84.0
414.602722 104.0
414.64325 128.0
414.679718 132.0
415.43808 204.0
416.279602 224.0
417.290283 164.0
417.530243 200.0
419.348175 88.0
420.40274 136.0
420.78241 116.0
420.908997 188.0
421.35965 176.0
422.090088 44.0
422.147339 64.0
422.720123 176.0
427.44809 112.0
429.219604 184.0
429.72287 52.0
430.899719 140.0
431.267578 64.0
431.347504 132.0
432.350006 216.0
433.034546 36.0
433.714142 184.0
435.000244 176.0
435.839294 168.0
435.934875 88.0
436.674988 160.0
437.419891 172.0
438.528046 136.0
442.894958 132.0
443.666138 96.0
443.942902 56.0
444.58905 180.0
445.260864 76.0
445.87854 196.0
446.513458 56.0
446.669098 164.0
446.841614 124.0
447.094116 92.0
447.220398 72.0
447.466217 228.0
447.502075 84.0
447.636688 92.0
448.041656 44.0
448.075348 120.0
448.205994 84.0
448.374573 116.0
448.431946 140.0
448.569275 152.0
448.620483 168.0
448.699188 72.0
448.76178 172.0
448.808838 80.0
448.902496 136.0
448.938171 232.0
449.027893 124.0
449.080688 124.0
449.126923 244.0
449.190704 180.0
449.234863 88.0
449.357025 36508.0
449.441132 176.0
449.471741 180.0
449.551819 72.0
449.597504 168.0
449.677979 60.0
449.800873 72.0
449.838409 28.0
449.884857 68.0
450.011322 180.0
450.075653 64.0
450.123962 108.0
450.159332 60.0
450.209106 92.0
450.292297 176.0
450.359344 10260.0
450.473419 160.0
450.51416 48.0
450.598694 44.0
450.708557 64.0
450.750458 96.0
450.789429 172.0
450.826874 32.0
450.881836 108.0
450.957916 76.0
451.080505 60.0
451.211578 60.0
451.245422 64.0
451.275024 92.0
451.362488 1484.0
451.449646 84.0
451.482239 28.0
451.535126 48.0
451.587982 36.0
451.651459 104.0
451.752991 60.0
451.812225 80.0
451.953308 220.0
451.97879 120.0
452.011108 48.0
452.178528 72.0
452.230316 76.0
452.366486 528.0
452.447113 56.0
452.502167 60.0
452.540283 80.0
452.582611 92.0
452.701202 144.0
452.76474 140.0
452.806976 84.0
452.866028 76.0
452.985016 40.0
453.034546 140.0
453.051392 96.0
453.059387 108.0
453.086914 104.0
453.146027 40.0
453.260437 48.0
453.2901 48.0
453.328247 116.0
453.357941 96.0
453.465179 80.0
453.527466 104.0
453.629211 48.0
453.726746 104.0
453.786102 144.0
453.921814 36.0
454.019348 72.0
454.111053 124.0
454.172058 116.0
454.234924 44.0
454.3927 36.0
454.580261 112.0
454.694031 40.0
454.766174 64.0
454.804382 60.0
455.182281 64.0
455.411652 96.0
455.610626 120.0
455.84079 40.0
455.896057 56.0
456.325439 40.0
456.714355 108.0
456.789062 108.0
456.848602 48.0
457.129456 76.0
457.197571 56.0
457.380615 52.0
460.630341 124.0
463.591522 108.0
464.620728 124.0
466.080719 64.0
466.940613 56.0
467.039551 44.0
467.377258 128.0
468.727448 144.0
469.059326 72.0
469.39566 180.0
470.803375 76.0
471.303833 112.0
474.745697 148.0
480.680145 60.0
481.514099 120.0
483.280396 96.0
485.817474 148.0
499.981293 96.0
501.446777 120.0
516.726013 124.0
531.573486 132.0
548.140259 56.0
584.810608 112.0
591.811523 120.0
616.53894 52.0
618.938477 36.0
620.568848 80.0
623.746582 92.0
641.081726 60.0
641.288391 108.0
641.606018 144.0
646.627747 108.0
652.040039 72.0
652.746765 52.0
658.8078 96.0
673.429138 96.0
679.948486 36.0
686.25415 56.0
705.483093 104.0
711.661499 100.0
720.210083 68.0
725.862427 60.0
728.997803 48.0
733.843018 20.0
747.625549 48.0
748.235229 52.0
748.404053 28.0
758.073975 104.0
765.144104 36.0
790.788818 104.0
792.799683 100.0
800.654663 180.0
802.164917 80.0
842.502625 40.0
842.999634 76.0
843.913025 196.0
865.274963 200.0
865.315918 92.0
881.269226 112.0
885.74231 68.0
890.743591 64.0
892.538696 76.0
912.584351 204.0
922.551575 40.0
922.612 64.0
930.908081 164.0
941.096741 64.0
941.463196 68.0
960.097839 72.0
960.949158 124.0
961.628113 56.0
963.46228 128.0
964.803589 168.0
967.377441 44.0
970.115906 48.0
971.263306 156.0
973.355042 88.0
980.653503 156.0
999.619812 200.0
1005.727661 92.0
1024.819092 76.0
1025.507446 120.0
1028.709961 224.0
1038.604126 48.0
1040.048096 180.0
1048.635986 232.0
1048.835815 124.0
1066.034668 184.0
1069.475586 32.0
1069.963867 56.0
1071.963745 168.0
1078.687256 172.0
1084.421997 156.0
1087.984375 208.0
1097.400391 184.0
1100.495361 148.0
1104.203003 40.0
1114.359985 148.0
1116.793457 188.0
1119.80896 96.0
1122.30835 160.0
1124.690308 196.0
1125.130981 64.0
1128.117554 40.0
1145.460083 164.0
1145.608398 128.0
1160.695923 116.0
1166.88916 176.0
1167.596436 104.0
1168.521729 136.0
1174.960938 184.0
1175.281616 180.0
1176.448853 176.0
1178.067627 116.0
1182.410156 72.0
1183.998657 156.0
1185.622559 224.0
1186.020142 124.0
1186.342407 164.0
1186.506958 136.0
1187.830688 140.0
1191.998657 80.0
1196.828125 148.0
1198.329834 216.0
1200.936035 188.0
1201.839844 64.0
1202.557617 156.0
1202.668091 168.0
1202.95813 200.0
1209.698975 208.0
1210.12146 144.0
1211.749268 152.0
1212.747314 140.0
1212.795776 144.0
1213.239502 152.0
1214.654419 92.0
1217.785278 176.0
1224.692993 140.0
1230.216431 156.0
1231.529419 184.0
1233.800415 168.0
1237.985596 168.0
1239.365723 52.0
1240.024536 128.0
1242.633545 192.0
1246.488892 116.0
1247.346436 256.0
1247.430786 120.0
1249.787231 176.0
1253.068726 104.0
1253.773438 176.0
1255.366943 172.0
1255.451538 188.0
1259.044189 144.0
1264.184448 156.0
1264.389648 204.0
1267.505981 188.0
1267.619385 136.0
1270.44873 172.0
1273.423462 180.0
1274.069946 196.0
1274.830322 156.0
1284.757202 216.0
1295.632568 84.0
1296.463867 160.0
1300.401733 220.0
1300.875488 120.0
1302.43396 172.0
1302.62793 60.0
1304.575684 116.0
1308.309814 164.0
1311.054565 184.0
1312.482056 120.0
1317.469971 124.0
1321.215332 244.0
1325.944336 140.0
1328.518799 156.0
1330.391479 112.0
1331.945679 220.0
1332.352539 228.0
1334.991333 156.0
1336.133545 80.0
1336.300903 148.0
1342.551636 100.0
1342.646484 200.0
1344.171265 168.0
1344.251587 192.0
1347.55249 212.0
1349.394531 168.0
1349.796753 100.0
1351.333008 180.0
1356.049561 180.0
1356.342773 168.0
1356.936768 156.0
1357.750732 248.0
1359.210815 164.0
1366.853882 188.0
1367.883911 120.0
1369.018433 192.0
1372.97644 80.0
1373.596069 124.0
1375.374634 136.0
1378.787476 160.0
1380.103394 152.0
1380.517578 220.0
1383.255493 152.0
1385.707153 152.0
1385.848022 88.0
1387.256348 196.0
1388.63562 128.0
1390.201294 180.0
1391.010376 192.0
1392.228271 84.0
1395.029785 168.0
1398.868896 176.0
1400.246582 188.0
1401.781372 112.0
1403.235107 144.0
1405.749146 124.0
1407.824707 172.0
1408.810791 116.0
1414.524902 148.0
1415.041504 116.0
1417.191406 124.0
1419.192871 128.0
1419.770386 200.0
1419.987915 152.0
1420.257935 164.0
1420.84314 192.0
1421.165894 156.0
1422.291748 220.0
1430.245483 84.0
1430.892944 96.0
1431.231812 168.0
1432.715698 120.0
1433.213135 140.0
1433.680298 140.0
1435.22583 56.0
1438.666748 184.0
1438.810181 172.0
1438.885742 128.0
1441.068726 156.0
1441.900146 184.0
1442.09668 152.0
1444.630127 256.0
1445.197632 176.0
1447.552002 108.0
1448.748901 136.0
1449.127808 152.0
1451.66748 164.0
1453.154297 96.0
1454.892578 180.0
1456.039307 184.0
1456.723022 220.0
1456.806519 204.0
1457.923706 188.0
1458.44812 152.0
1459.109619 128.0
1460.714478 244.0
1464.216187 152.0
1466.25061 180.0
1467.409424 128.0
1467.546753 176.0
1468.904419 148.0
1469.209595 204.0
1469.80481 128.0
1470.552856 176.0
1471.174438 212.0
1478.908081 168.0
1480.960327 76.0
1484.486328 144.0
1486.626831 196.0
1487.118164 104.0
1487.924194 100.0
1490.067261 152.0
1490.27478 152.0
1490.712891 64.0
1497.661133 168.0
1497.725708 308.0
1498.030884 196.0
1498.20813 160.0
1499.248413 148.0
1499.841919 56.0
1504.687256 168.0
