>compound MLS001032408-01!
>formula C24H24N2O5
>ionization [M+H]+
>parentmass 421.176147
#inchi InChI=1S/C24H24N2O5/c1-2-16-9-24(29)31-21-10-18(6-7-19(16)21)30-14-23(28)25-11-15-8-17(13-25)20-4-3-5-22(27)26(20)12-15/h3-7,9-10,15,17H,2,8,11-14H2,1H3/t15-,17+/m1/s1
#inchikey IVSUPTAUFOUKSO
#Ion_Source LC-ESI
#Instrument qTof
#Compound_Source NIH Natural Product Library
#PI Dorrestein
#Data_Collector VVP/LMS
#Scan -1
#Precursor_MZ 421.176
#ExactMass 420.169
#Charge 1
#CAS_Number N/A
#Pubmed_ID N/A
#Smiles CCc1cc(=O)oc2cc(OCC(=O)N3C[C@H]4C[C@@H](C3)c5cccc(=O)n5C4)ccc12
#INCHI_AUX N/A
#Library_Class 1
#SpectrumID CCMSLIB00000079644
#IonMode Positive
#UpdateWorkflowName UPDATE-SINGLE-ANNOTATED-GOLD
#LibraryQualityString Gold
#TaskID b1d8e8f6646f4e71acdff9ca3d919d08
##Scan# 1753
#SpectrumFile p1-C09_GC9_01_17905.mzXML
#LibraryName NIH_Natural_Products_Library.mgf
#MQScore -1
#Organism NIH_Natural_Products_Library
#TIC_Query 0
#RT_Query -1
#MZErrorPPM -1
#SharedPeaks 0
#MassDiff 0
#LibMZ -1
#SpecMZ 421.176
#SpecCharge 0
#internalFilename spec-00000.mgf

>collision 10
94.954811 180.0
95.070885 176.0
95.205956 176.0
95.277023 120.0
95.308113 132.0
95.434448 116.0
95.58757 188.0
95.642601 184.0
95.874359 176.0
95.932381 172.0
96.047882 300.0
96.073235 180.0
96.326035 136.0
96.416885 200.0
96.543953 156.0
96.698502 120.0
96.712204 172.0
97.02758 92.0
97.317665 120.0
97.355247 220.0
97.378815 160.0
97.433815 144.0
97.474258 228.0
97.640205 188.0
97.742493 120.0
97.834999 140.0
97.955116 188.0
97.995094 164.0
98.026047 152.0
98.12854 208.0
98.24884 200.0
98.300133 252.0
98.412643 144.0
98.562752 88.0
98.606232 136.0
98.627968 160.0
98.685295 164.0
98.79287 184.0
98.885086 228.0
98.936554 228.0
99.037544 40.0
99.077156 188.0
99.186142 140.0
99.38446 224.0
99.487656 56.0
99.557152 120.0
99.66243 152.0
99.715431 208.0
99.85923 216.0
99.881104 116.0
99.952423 212.0
100.058212 204.0
100.177696 164.0
100.353073 108.0
100.402924 176.0
100.420868 164.0
100.644371 96.0
100.786186 40.0
100.838142 64.0
100.875656 260.0
100.897522 68.0
101.010094 44.0
101.11013 128.0
101.138153 168.0
101.246262 32.0
101.364449 212.0
101.520805 84.0
101.534843 112.0
101.580978 180.0
101.693336 60.0
101.745529 236.0
101.78167 248.0
101.80175 108.0
101.866013 64.0
101.924278 116.0
101.994614 172.0
102.818367 172.0
102.852676 88.0
103.053299 340.0
103.218338 136.0
103.363976 128.0
103.410515 204.0
103.492317 180.0
103.610672 184.0
103.829887 164.0
103.917114 188.0
104.051033 524.0
104.097763 160.0
104.160721 244.0
104.372078 136.0
104.481903 136.0
104.536835 152.0
104.603996 164.0
104.624359 184.0
104.85656 180.0
104.88102 172.0
104.956444 196.0
105.070984 336.0
105.438194 176.0
105.638573 32.0
105.84301 112.0
105.988655 164.0
106.025543 120.0
106.064484 152.0
106.101379 112.0
106.267502 92.0
106.357796 100.0
106.429642 188.0
106.559036 100.0
106.657677 164.0
106.816002 132.0
106.888008 204.0
106.914757 168.0
106.986458 192.0
107.049255 204.0
107.067863 224.0
107.203064 140.0
107.221611 136.0
107.236038 196.0
107.469055 104.0
107.533028 172.0
107.594948 156.0
107.787025 48.0
107.807693 192.0
107.869896 188.0
108.09214 200.0
108.231735 212.0
108.254517 124.0
108.337364 76.0
108.399521 152.0
108.480347 92.0
108.571571 100.0
108.635872 176.0
108.749992 64.0
109.024132 108.0
109.051094 2456.0
109.098961 128.0
109.161331 76.0
109.190445 224.0
109.209167 88.0
109.292374 164.0
109.498459 148.0
109.59034 164.0
109.635956 140.0
109.713074 128.0
109.811073 184.0
109.919556 208.0
109.936249 56.0
109.988174 168.0
110.061104 328.0
110.145027 96.0
110.341454 68.0
110.425095 120.0
110.523415 264.0
110.883598 124.0
111.017761 232.0
111.055511 204.0
111.072296 168.0
111.097466 132.0
111.206573 140.0
111.263252 176.0
111.804047 188.0
111.864471 148.0
111.957115 192.0
112.201019 148.0
112.228935 108.0
112.678482 136.0
112.750137 176.0
112.828529 128.0
112.989258 160.0
113.291985 36.0
113.563301 116.0
113.601486 156.0
113.794601 152.0
113.811592 76.0
113.860428 220.0
113.931953 196.0
113.960266 132.0
114.100533 184.0
114.130302 136.0
114.268547 132.0
114.330254 176.0
114.45153 164.0
114.564461 152.0
114.59642 132.0
114.651817 112.0
114.750572 212.0
114.773323 60.0
114.954628 112.0
115.053619 912.0
115.09124 44.0
115.238609 136.0
115.27066 120.0
115.287758 124.0
115.306992 68.0
115.580711 184.0
115.602104 140.0
115.779785 276.0
115.874031 148.0
115.90403 52.0
115.981178 156.0
116.054977 300.0
116.10553 212.0
116.165581 152.0
116.266426 180.0
116.296471 176.0
116.678825 204.0
116.732574 164.0
116.782043 40.0
116.878845 144.0
116.894737 52.0
117.069336 1980.0
117.145805 148.0
117.216904 132.0
117.36132 112.0
117.43895 152.0
117.474731 204.0
117.626671 204.0
117.674164 116.0
117.900711 152.0
117.922577 164.0
118.002556 88.0
118.06678 544.0
118.13015 136.0
118.197212 140.0
118.288109 116.0
118.333572 188.0
118.424522 192.0
118.452011 224.0
118.476509 176.0
118.491669 260.0
118.546455 112.0
118.567513 196.0
118.658546 128.0
118.717087 244.0
118.760468 168.0
118.95575 180.0
119.051109 204.0
119.05899 188.0
119.08609 524.0
119.149017 44.0
119.315239 128.0
119.385933 180.0
119.555618 224.0
119.912773 136.0
119.936752 232.0
119.962906 196.0
119.986885 200.0
120.045753 148.0
120.078529 148.0
120.303207 52.0
120.377441 136.0
120.401459 128.0
120.512566 176.0
120.552193 164.0
120.663666 176.0
120.786125 176.0
120.818939 148.0
120.891144 136.0
120.954613 120.0
121.020607 136.0
121.055786 208.0
121.081085 248.0
121.099121 136.0
121.123215 60.0
121.270012 208.0
121.295135 208.0
121.340157 172.0
121.40155 180.0
121.467346 52.0
121.750473 92.0
121.794403 148.0
121.836136 140.0
121.948196 208.0
122.03833 244.0
122.060753 1956.0
122.0933 184.0
122.261726 208.0
122.337524 192.0
122.39257 104.0
122.593018 52.0
122.745865 200.0
122.789223 76.0
122.86483 200.0
122.91275 164.0
122.98558 148.0
123.063255 568.0
123.135712 80.0
123.241745 268.0
123.279305 152.0
123.61985 84.0
123.646408 52.0
123.664116 100.0
123.708382 152.0
123.726089 232.0
123.863388 188.0
124.036217 84.0
124.073898 164.0
124.169594 204.0
124.25309 160.0
124.606529 184.0
124.713196 148.0
125.053482 180.0
125.079681 104.0
125.113586 108.0
125.233826 176.0
125.253876 180.0
125.463341 88.0
125.599365 248.0
125.643974 148.0
125.707756 232.0
125.77787 72.0
125.914062 60.0
125.991844 204.0
126.050331 120.0
126.095024 68.0
126.278351 148.0
126.32756 136.0
126.372299 168.0
126.658844 164.0
126.732773 132.0
126.797752 124.0
127.053368 268.0
127.080292 148.0
127.120682 196.0
127.149857 56.0
127.199432 88.0
127.369659 200.0
127.385605 76.0
127.408073 116.0
127.533905 100.0
127.572121 156.0
127.716026 56.0
127.763268 160.0
127.835266 156.0
127.889275 168.0
127.905029 160.0
127.952301 188.0
128.067535 204.0
128.353622 128.0
128.402954 212.0
128.671478 116.0
128.761795 136.0
128.815994 136.0
129.068588 240.0
129.207077 152.0
129.272705 120.0
129.383606 172.0
129.805023 164.0
129.895737 148.0
129.945648 204.0
130.000107 80.0
130.038681 152.0
130.066605 540.0
130.233948 188.0
130.268448 168.0
130.387527 172.0
130.488449 216.0
130.652191 216.0
130.80011 144.0
130.889008 148.0
130.907104 128.0
131.045532 512.0
131.073975 380.0
131.11441 56.0
131.212418 180.0
131.29451 212.0
131.324158 144.0
131.369766 184.0
131.392593 156.0
131.431366 152.0
131.492981 128.0
131.641373 224.0
131.657364 192.0
131.714462 160.0
131.746429 196.0
131.764709 184.0
131.79213 176.0
131.812698 136.0
131.885818 204.0
131.906387 168.0
132.046677 1064.0
132.081863 916.0
132.109665 184.0
132.159363 52.0
132.256348 152.0
132.322739 140.0
132.3983 84.0
132.418915 156.0
132.634277 180.0
132.772064 188.0
132.831482 148.0
132.849823 124.0
133.003571 184.0
133.053162 2068.0
133.089813 184.0
133.141327 172.0
133.16658 124.0
133.299835 132.0
133.328964 120.0
133.407852 36.0
133.467621 128.0
133.518219 36.0
133.605621 144.0
133.788452 180.0
133.833466 40.0
133.865707 108.0
133.909454 136.0
133.990082 156.0
134.029251 156.0
134.060349 3388.0
134.090195 312.0
134.191864 152.0
134.300186 220.0
134.370575 172.0
134.391235 212.0
134.428162 132.0
134.462769 160.0
134.497391 176.0
134.70752 188.0
134.751404 176.0
134.869263 172.0
134.945541 176.0
135.064392 992.0
135.12233 164.0
135.149078 224.0
135.26152 180.0
135.339386 72.0
135.429184 112.0
135.50795 160.0
135.757584 216.0
135.818573 192.0
135.834808 180.0
136.065659 300.0
136.122604 64.0
136.261963 160.0
136.331665 176.0
136.445557 60.0
136.575775 176.0
136.729858 192.0
136.785187 104.0
136.899277 80.0
136.980789 132.0
137.064651 156.0
137.090286 84.0
137.281433 176.0
137.657135 72.0
137.776245 112.0
137.977127 176.0
138.021652 120.0
138.085403 152.0
138.349197 152.0
138.365204 148.0
138.400696 188.0
138.456894 188.0
138.520142 188.0
138.595108 168.0
138.857651 128.0
138.960861 156.0
139.054718 180.0
139.092285 196.0
139.172089 140.0
139.228455 260.0
139.30127 224.0
139.412277 32.0
139.491592 76.0
139.613922 156.0
139.779892 172.0
139.858536 248.0
139.983307 128.0
140.041977 136.0
140.157608 160.0
140.200027 156.0
140.282059 160.0
140.346176 140.0
140.362686 196.0
140.551376 184.0
140.714233 76.0
140.737839 176.0
140.761459 128.0
140.777985 144.0
140.815765 28.0
141.009506 180.0
141.134796 184.0
141.31218 128.0
141.41629 136.0
141.683868 132.0
141.738358 136.0
141.76442 164.0
141.946945 148.0
141.987091 228.0
142.041687 148.0
142.064621 708.0
142.134338 176.0
142.179428 132.0
142.212646 104.0
142.234009 124.0
142.412094 144.0
142.523743 124.0
142.666336 44.0
142.69725 184.0
142.738571 228.0
142.77121 192.0
142.939758 220.0
143.073914 504.0
143.125504 172.0
143.177902 108.0
143.273178 196.0
143.301285 200.0
143.385162 160.0
143.518646 248.0
143.687988 172.0
144.047729 224.0
144.056107 156.0
144.078842 688.0
144.098618 160.0
144.178528 172.0
144.24678 108.0
144.457214 80.0
144.713287 84.0
144.80188 204.0
145.064209 2056.0
145.168533 96.0
145.190445 148.0
145.233292 116.0
145.324448 200.0
145.463638 136.0
145.528458 152.0
145.569275 44.0
145.605835 180.0
145.63652 204.0
145.761444 112.0
145.803711 108.0
145.850357 140.0
145.867188 208.0
145.89566 228.0
145.979462 188.0
146.009445 352.0
146.027634 176.0
146.060181 23196.0
146.100342 228.0
146.203903 44.0
146.235184 96.0
146.264557 92.0
146.308441 184.0
146.395584 128.0
146.413345 72.0
146.460556 60.0
146.521729 56.0
146.577667 168.0
146.639801 56.0
146.673553 212.0
146.712112 148.0
146.789276 92.0
146.854385 184.0
146.890564 76.0
146.966187 160.0
147.0112 84.0
147.066574 9636.0
147.132416 180.0
147.168839 72.0
147.223633 44.0
147.270325 72.0
147.29126 184.0
147.315414 192.0
147.37822 80.0
147.401108 136.0
147.416885 164.0
147.472794 148.0
147.512192 128.0
147.545151 112.0
147.615097 60.0
147.632034 128.0
147.661041 72.0
147.720978 72.0
147.72998 56.0
147.737091 100.0
147.786835 36.0
147.832809 48.0
147.864273 220.0
147.927017 52.0
148.00528 160.0
148.029785 172.0
148.07457 5492.0
148.127518 44.0
148.154831 144.0
148.215393 72.0
148.246902 120.0
148.271133 144.0
148.326874 100.0
148.531677 180.0
148.569366 128.0
148.586349 80.0
148.688263 164.0
148.72467 84.0
148.76593 100.0
148.802338 72.0
148.943192 156.0
148.96019 48.0
148.999069 132.0
149.02092 112.0
149.073242 2032.0
149.13028 32.0
149.169174 96.0
149.341812 40.0
149.478043 120.0
149.536438 76.0
149.619202 52.0
149.79454 156.0
149.878235 196.0
149.948029 132.0
150.011414 132.0
150.032791 52.0
150.055222 164.0
150.062363 180.0
150.071747 148.0
150.133316 152.0
150.172333 116.0
150.243073 144.0
150.274796 132.0
150.402969 244.0
150.433411 212.0
150.543289 192.0
150.699615 132.0
150.755814 72.0
150.77536 104.0
151.051636 52.0
151.120132 128.0
151.137268 64.0
151.193542 164.0
151.2939 172.0
151.377151 40.0
151.445709 148.0
151.578003 72.0
151.823135 168.0
151.857468 196.0
152.053741 188.0
152.12001 132.0
152.147018 64.0
152.252594 176.0
152.272247 184.0
152.478607 64.0
152.665451 180.0
152.70726 160.0
152.867157 224.0
152.932083 176.0
153.404068 156.0
153.455841 184.0
153.613678 96.0
153.672882 148.0
153.798737 160.0
154.067825 144.0
154.250748 176.0
154.606903 164.0
154.641556 156.0
154.748001 196.0
155.053482 172.0
155.141907 360.0
155.24852 180.0
155.317963 152.0
155.342758 132.0
155.563614 68.0
155.600845 140.0
155.787109 68.0
155.901398 148.0
155.995834 40.0
156.061417 224.0
156.079758 200.0
156.117676 56.0
156.331604 112.0
156.450455 160.0
156.635345 208.0
156.827194 200.0
157.062622 188.0
157.103973 132.0
157.475891 108.0
157.649628 136.0
157.858246 80.0
157.923279 68.0
158.032394 168.0
158.059708 524.0
158.135941 156.0
158.278625 140.0
158.296158 256.0
158.38382 200.0
158.433914 144.0
158.525879 164.0
158.559189 140.0
158.682022 172.0
158.714615 196.0
158.779816 144.0
158.967957 196.0
159.018143 152.0
159.067047 2172.0
159.241592 184.0
159.472733 196.0
159.656265 132.0
159.739258 76.0
159.774536 200.0
159.817245 176.0
159.834869 32.0
159.938782 184.0
159.998459 120.0
160.076126 16632.0
160.154587 28.0
160.237701 76.0
160.267944 60.0
160.341019 44.0
160.371262 64.0
160.419159 140.0
160.444366 68.0
160.555298 160.0
160.681427 92.0
160.709167 240.0
160.787399 60.0
160.857162 36.0
160.890884 36.0
161.009567 124.0
161.038986 184.0
161.047607 120.0
161.078339 2144.0
161.332977 76.0
161.370895 292.0
161.549118 68.0
161.575745 52.0
161.821243 72.0
161.88707 180.0
161.930588 196.0
161.958969 216.0
161.983322 92.0
162.0224 168.0
162.090271 1256.0
162.208832 88.0
162.239258 64.0
162.267136 108.0
162.55629 64.0
162.700958 128.0
162.799988 120.0
163.094421 604.0
163.270111 116.0
163.404922 128.0
163.56015 72.0
163.616165 248.0
163.804596 140.0
163.840271 156.0
164.077271 144.0
164.095108 148.0
164.263428 212.0
164.375687 68.0
164.442032 272.0
164.544128 212.0
164.582428 204.0
164.710114 188.0
164.84552 160.0
164.88385 48.0
165.039795 32.0
165.057678 60.0
165.101151 228.0
165.198349 112.0
165.234161 72.0
165.252075 180.0
165.354431 228.0
165.374908 136.0
165.410736 148.0
165.461929 140.0
165.538742 180.0
165.661682 192.0
165.956406 48.0
166.148758 204.0
166.169281 192.0
166.336075 28.0
166.405396 68.0
166.456741 228.0
167.081299 116.0
167.155914 200.0
167.36441 88.0
167.457108 112.0
167.642593 208.0
167.665787 96.0
168.080963 144.0
168.251297 184.0
168.669785 116.0
169.163834 152.0
169.202667 148.0
169.666397 124.0
170.045593 104.0
170.078842 128.0
170.172287 104.0
170.190475 116.0
170.346283 128.0
170.447617 136.0
170.567154 180.0
170.62175 208.0
170.907837 172.0
170.970291 116.0
171.091751 184.0
171.232101 120.0
171.238281 68.0
171.24733 116.0
171.39473 180.0
171.428604 192.0
171.485947 80.0
171.582382 176.0
172.025864 144.0
172.074448 2652.0
172.103699 168.0
172.200806 72.0
172.26088 152.0
172.284393 92.0
172.331421 168.0
172.446396 224.0
172.639862 148.0
172.744476 132.0
172.796799 144.0
172.919785 56.0
172.980713 184.0
173.060013 5228.0
173.083084 10564.0
173.139694 84.0
173.189453 88.0
173.210403 88.0
173.252319 140.0
173.282593 76.0
173.315201 52.0
173.351883 52.0
173.383331 44.0
173.435745 180.0
173.548462 60.0
173.605392 156.0
173.629761 44.0
173.679596 40.0
173.745163 124.0
173.852737 64.0
173.902603 48.0
173.986603 136.0
174.08873 1456.0
174.152039 188.0
174.194061 40.0
174.254486 136.0
174.328049 164.0
174.588303 144.0
174.722443 224.0
175.049622 1140.0
175.076263 2508.0
175.169952 68.0
175.235825 48.0
175.315567 164.0
175.338577 52.0
175.379089 124.0
175.3992 76.0
175.697189 212.0
175.831757 148.0
175.916214 196.0
175.987488 80.0
176.032379 56.0
176.052856 368.0
176.078384 580.0
176.296539 100.0
176.317688 52.0
176.483292 172.0
176.560898 60.0
176.693146 156.0
176.719604 160.0
176.748718 68.0
176.849274 44.0
176.92868 60.0
176.981628 132.0
177.045181 144.0
177.07962 168.0
177.160675 176.0
177.27301 56.0
177.29155 172.0
177.721451 64.0
177.760925 160.0
177.80072 160.0
177.851151 128.0
177.989197 172.0
178.573837 92.0
178.810623 48.0
178.829239 40.0
179.071518 112.0
179.116806 184.0
179.293121 112.0
179.44458 136.0
179.559235 120.0
179.852722 228.0
179.962173 116.0
180.095688 204.0
180.130417 32.0
180.168655 104.0
180.63295 144.0
181.096008 168.0
181.130814 220.0
181.648163 140.0
181.779617 224.0
182.367752 188.0
182.47258 192.0
182.49678 172.0
182.537109 48.0
182.687729 76.0
182.932602 216.0
182.964905 68.0
183.347382 84.0
183.474075 120.0
183.509125 180.0
183.835495 180.0
183.892166 180.0
184.013641 152.0
184.154053 136.0
184.202667 224.0
184.22699 128.0
184.359375 112.0
184.56752 144.0
184.61618 56.0
184.662445 172.0
184.700027 140.0
184.751419 220.0
184.802826 112.0
185.124924 164.0
185.298279 168.0
185.379562 112.0
185.593704 164.0
185.791687 148.0
185.935486 124.0
186.054916 188.0
186.21785 152.0
186.255875 136.0
186.342789 204.0
186.397141 172.0
186.437897 72.0
186.579239 204.0
186.611862 156.0
186.809494 160.0
186.962753 224.0
187.017181 144.0
187.078568 728.0
187.352112 128.0
187.5047 152.0
187.632797 200.0
187.690063 264.0
187.848236 112.0
187.947098 64.0
188.023636 112.0
188.046951 404.0
188.070908 1836.0
188.118958 96.0
188.233047 84.0
188.29718 124.0
188.40239 92.0
188.457031 104.0
188.527145 176.0
188.601868 112.0
188.631927 136.0
188.667465 196.0
188.734299 152.0
188.823318 44.0
188.926559 140.0
188.948654 252.0
188.980179 152.0
189.024094 284.0
189.043365 280.0
189.102936 89008.0
189.166748 308.0
189.187714 160.0
189.235214 260.0
189.256882 64.0
189.297668 260.0
189.338562 88.0
189.375702 132.0
189.398605 156.0
189.42128 108.0
189.439163 212.0
189.458344 188.0
189.477295 52.0
189.513382 44.0
189.549454 220.0
189.584381 136.0
189.638763 52.0
189.675781 92.0
189.708939 116.0
189.741913 44.0
189.77626 200.0
189.806915 200.0
189.841141 60.0
189.865723 108.0
189.913361 244.0
189.980698 96.0
190.071976 1612.0
190.106232 10556.0
190.155624 168.0
190.18367 124.0
190.234406 56.0
190.284164 96.0
190.310959 140.0
190.356277 92.0
190.378769 48.0
190.39856 56.0
190.448318 120.0
190.489777 184.0
190.507797 100.0
190.564255 148.0
190.602417 84.0
190.624298 108.0
190.68486 60.0
190.712341 132.0
190.740479 68.0
190.763306 52.0
190.822296 64.0
190.844299 148.0
190.873688 128.0
190.918533 96.0
190.93779 32.0
191.033142 192.0
191.080872 1384.0
191.116669 6852.0
191.160614 64.0
191.181671 140.0
191.24231 164.0
191.265198 116.0
191.284409 108.0
191.321625 112.0
191.336349 80.0
191.36705 116.0
191.386322 176.0
191.408356 28.0
191.444153 48.0
191.471939 128.0
191.490677 76.0
191.494461 104.0
191.517578 124.0
191.543015 112.0
191.584625 48.0
191.609406 104.0
191.64946 156.0
191.682861 128.0
191.709671 144.0
191.747192 88.0
191.821274 132.0
191.887772 56.0
191.929123 160.0
191.969147 148.0
192.069092 164.0
192.118774 1472.0
192.158035 48.0
192.33136 84.0
192.338654 152.0
192.381577 76.0
192.404816 56.0
192.522385 68.0
192.550003 48.0
192.671539 108.0
192.765488 60.0
192.859451 92.0
192.950668 100.0
193.088913 100.0
193.123138 128.0
193.155304 48.0
193.182968 132.0
193.25766 136.0
193.396027 68.0
193.484604 200.0
193.54274 60.0
193.589813 40.0
193.631348 64.0
193.689514 148.0
193.750458 40.0
194.104233 168.0
194.482513 136.0
196.494415 108.0
196.527893 92.0
196.564163 68.0
196.955002 124.0
197.293121 156.0
197.407761 116.0
197.743454 104.0
198.079453 128.0
198.429733 156.0
198.665314 68.0
198.903824 168.0
199.079208 128.0
199.117203 160.0
199.490906 76.0
199.651169 112.0
199.690536 128.0
199.797424 112.0
199.828369 144.0
200.047882 76.0
200.070404 112.0
200.123886 88.0
200.625366 164.0
200.681747 116.0
200.7043 68.0
200.845306 160.0
200.952499 204.0
201.067078 880.0
201.103638 180.0
201.361801 40.0
201.463486 184.0
202.071304 176.0
202.226944 188.0
202.263733 116.0
202.355606 204.0
202.381927 60.0
202.429718 136.0
202.470413 160.0
202.49649 204.0
202.750793 136.0
202.955338 192.0
203.006012 176.0
203.028183 132.0
203.070511 10416.0
203.116806 1892.0
203.18187 112.0
203.221588 48.0
203.252792 28.0
203.275497 160.0
203.309555 148.0
203.335098 76.0
203.36348 128.0
203.403214 64.0
203.437271 40.0
203.457138 104.0
203.536636 36.0
203.559357 88.0
203.619934 36.0
203.6474 72.0
203.920685 84.0
204.038406 184.0
204.071854 2736.0
204.120941 612.0
204.548721 44.0
204.585968 48.0
204.611359 48.0
204.761292 140.0
204.817612 84.0
205.035767 84.0
205.070145 144.0
205.120895 152.0
205.17543 80.0
205.306595 32.0
205.440643 92.0
205.586151 28.0
205.691757 124.0
205.785965 168.0
206.040146 172.0
206.220154 168.0
206.425995 48.0
206.531815 136.0
206.66626 136.0
206.774994 108.0
207.058426 136.0
207.092789 96.0
207.167267 60.0
207.310516 120.0
207.508301 104.0
208.465393 224.0
208.48996 100.0
209.318436 136.0
209.491241 112.0
209.837051 36.0
210.070648 188.0
210.650864 96.0
211.038116 124.0
211.168243 52.0
211.483597 72.0
211.68335 172.0
211.749954 156.0
211.825272 76.0
212.715469 116.0
213.029083 112.0
213.281891 200.0
213.389435 80.0
213.482483 176.0
213.790848 160.0
213.881058 96.0
214.105698 224.0
215.109634 140.0
215.441116 204.0
215.856125 172.0
216.136932 120.0
216.31839 88.0
216.743042 96.0
217.036148 136.0
217.097778 1640.0
217.197433 116.0
217.305984 124.0
217.449768 76.0
217.763901 120.0
218.066528 104.0
218.100174 364.0
219.609283 96.0
220.187744 136.0
220.305893 212.0
220.61322 104.0
221.155121 100.0
221.388412 112.0
221.607605 160.0
222.200562 172.0
222.378601 104.0
222.432022 176.0
222.737 164.0
224.082474 112.0
224.520645 144.0
224.648895 72.0
225.431137 176.0
225.655304 140.0
225.780899 68.0
225.999252 112.0
226.14888 52.0
226.562103 132.0
227.269653 108.0
227.290649 248.0
227.737946 52.0
227.867126 88.0
228.152618 152.0
228.3992 224.0
228.444321 184.0
228.748245 64.0
228.805435 116.0
229.29039 108.0
229.444107 48.0
230.793671 48.0
230.963013 84.0
230.999313 100.0
231.062683 756.0
231.11351 2076.0
231.259537 68.0
231.650131 180.0
231.87738 88.0
231.959213 116.0
232.07193 564.0
232.120316 2616.0
232.241196 116.0
232.310959 168.0
232.471771 60.0
232.523361 40.0
232.65387 60.0
232.778351 136.0
232.948425 40.0
233.082108 136.0
233.125183 380.0
233.240143 68.0
233.285736 148.0
233.416458 80.0
233.510742 52.0
233.586777 124.0
233.608063 72.0
233.629364 108.0
233.781494 76.0
234.095032 52.0
234.122787 212.0
234.378311 60.0
235.149384 136.0
235.70256 104.0
235.953186 152.0
236.207001 112.0
236.366089 40.0
236.424225 124.0
237.122467 68.0
238.282364 168.0
240.098419 96.0
241.078415 240.0
241.311935 120.0
241.590271 68.0
241.986389 116.0
242.144318 96.0
242.234131 112.0
242.633896 144.0
242.971924 180.0
242.999847 112.0
243.154999 112.0
243.192245 144.0
243.394028 272.0
244.096268 228.0
244.34819 100.0
244.911636 104.0
245.1297 100.0
245.157745 40.0
245.288651 160.0
245.45076 136.0
245.566147 204.0
245.631653 84.0
245.753311 140.0
246.112 388.0
246.296494 100.0
246.571442 80.0
247.117783 176.0
247.16246 88.0
247.324142 84.0
247.738525 36.0
247.910843 156.0
248.268219 128.0
249.294724 168.0
249.433014 232.0
250.206863 136.0
251.467712 92.0
251.86554 208.0
252.251022 100.0
252.639984 56.0
253.073563 188.0
253.105225 112.0
253.402939 92.0
253.967194 52.0
254.119461 160.0
254.252731 84.0
254.300339 44.0
254.427307 88.0
254.528915 96.0
255.148758 216.0
255.1866 36.0
255.504639 88.0
255.749664 160.0
255.813324 52.0
256.042572 108.0
256.09729 1088.0
256.179535 48.0
256.405762 84.0
257.103516 420.0
257.40741 156.0
259.00647 68.0
259.262787 48.0
259.586548 40.0
259.910522 204.0
260.318176 108.0
261.160156 40.0
261.356415 68.0
261.435944 72.0
262.104706 184.0
262.267761 156.0
262.590179 136.0
262.86438 72.0
263.565063 96.0
263.707245 88.0
264.113159 372.0
264.687439 84.0
265.046997 180.0
265.105316 188.0
266.019928 168.0
266.549316 168.0
267.971191 128.0
268.31665 116.0
268.434021 148.0
268.538361 104.0
268.91684 52.0
269.204132 212.0
269.48175 120.0
269.671295 172.0
270.341705 140.0
270.492249 112.0
270.695251 136.0
270.839355 144.0
271.134216 132.0
271.275146 64.0
272.278198 156.0
272.394104 84.0
272.58136 84.0
273.354095 116.0
273.423218 144.0
273.933228 196.0
274.078522 164.0
274.11145 140.0
274.662018 184.0
275.953217 124.0
276.260773 76.0
276.317017 64.0
276.591675 100.0
277.54248 120.0
278.013489 96.0
278.674255 124.0
279.352448 148.0
279.535431 136.0
279.59201 144.0
279.954865 128.0
280.55127 108.0
281.405304 244.0
281.652435 176.0
282.123596 184.0
282.15033 148.0
282.71225 76.0
282.84613 100.0
283.19101 220.0
283.737183 128.0
283.844482 88.0
283.978607 104.0
284.089294 204.0
284.740448 116.0
285.036072 112.0
285.123444 124.0
287.312073 132.0
287.723785 156.0
288.169586 100.0
288.636017 152.0
289.001312 76.0
289.556458 64.0
289.593719 120.0
290.393555 108.0
290.461395 64.0
290.709076 172.0
290.855011 136.0
291.046051 100.0
291.282837 140.0
291.9422 68.0
292.244904 128.0
292.381042 204.0
292.939423 184.0
296.557892 108.0
296.684723 132.0
298.274078 108.0
298.456268 148.0
298.542236 196.0
298.913757 104.0
298.989471 172.0
299.347473 84.0
300.115845 120.0
300.291718 76.0
300.958313 120.0
301.648682 188.0
302.049774 168.0
302.750244 176.0
303.2547 40.0
303.348297 172.0
303.431488 32.0
304.298828 36.0
304.948395 100.0
305.303009 48.0
305.400391 124.0
305.473419 112.0
305.560394 152.0
305.699585 140.0
306.587555 244.0
307.469879 164.0
307.811981 136.0
308.175232 32.0
308.257965 160.0
308.360443 124.0
309.647919 188.0
309.679413 60.0
310.289154 76.0
310.38031 184.0
310.534607 196.0
310.5802 36.0
311.043365 84.0
311.134613 100.0
311.450653 64.0
311.968353 196.0
313.019165 68.0
313.047333 52.0
313.096619 152.0
314.037598 92.0
314.718689 136.0
315.687439 104.0
315.983978 72.0
316.100739 52.0
316.231659 68.0
316.3237 112.0
317.634766 76.0
318.479523 108.0
318.873901 60.0
319.254303 92.0
319.65271 160.0
319.85556 116.0
319.880463 200.0
319.95166 132.0
320.197357 44.0
320.731781 152.0
321.612793 48.0
322.46283 64.0
322.655853 160.0
322.91687 184.0
323.052795 172.0
323.428497 184.0
324.194183 96.0
324.407928 232.0
324.657379 124.0
324.87616 80.0
325.13089 176.0
325.349854 88.0
325.590424 52.0
326.226379 164.0
326.316254 128.0
327.640625 144.0
328.087494 264.0
328.181244 132.0
328.888306 108.0
329.22406 168.0
329.296295 256.0
329.950317 132.0
330.076843 228.0
330.105774 72.0
330.402374 56.0
330.449402 32.0
330.543457 156.0
330.767853 220.0
331.082825 84.0
332.115753 160.0
332.496704 72.0
332.975891 108.0
333.172058 96.0
333.419128 120.0
333.669922 96.0
334.382874 184.0
334.510254 148.0
335.60318 148.0
336.062744 144.0
337.344604 100.0
338.379883 112.0
338.405518 132.0
338.449463 84.0
338.504364 56.0
339.145477 88.0
339.211456 104.0
339.490112 156.0
339.684479 160.0
340.738068 32.0
341.075073 208.0
341.502655 152.0
342.629028 120.0
343.524811 104.0
344.155884 72.0
344.281433 120.0
344.499359 120.0
344.580627 232.0
345.430878 140.0
345.8638 48.0
347.186462 76.0
347.271759 164.0
347.301422 128.0
348.281311 148.0
348.827515 172.0
349.106354 128.0
350.138641 152.0
350.573059 136.0
351.46051 156.0
351.598572 116.0
351.703064 76.0
352.005463 84.0
352.210876 96.0
353.182678 72.0
353.624176 212.0
353.953613 132.0
354.084686 132.0
354.40683 128.0
354.474274 80.0
355.419189 164.0
355.824524 112.0
355.959686 88.0
356.241364 108.0
358.382019 48.0
358.434753 56.0
358.717407 120.0
358.92099 84.0
359.211395 68.0
359.43399 124.0
359.645325 48.0
360.842316 136.0
361.247437 100.0
361.656097 68.0
361.883209 108.0
362.87207 160.0
363.050262 52.0
363.440979 168.0
363.524445 96.0
363.577576 52.0
364.131866 96.0
364.291382 180.0
364.884216 132.0
365.036316 84.0
365.169403 68.0
366.30365 120.0
366.879059 200.0
368.195435 116.0
369.414215 156.0
369.5065 48.0
370.122711 108.0
370.585724 176.0
371.172577 260.0
371.652039 116.0
372.108765 124.0
372.281555 144.0
373.119171 64.0
373.199921 160.0
373.438324 160.0
373.557556 136.0
373.792236 152.0
374.069336 128.0
374.161743 128.0
374.593048 160.0
375.164642 148.0
375.302155 120.0
376.174377 156.0
376.610352 84.0
376.722351 124.0
376.788025 220.0
377.441223 84.0
378.108032 128.0
378.140625 120.0
378.609833 116.0
378.915833 196.0
379.074707 120.0
379.134918 408.0
379.144958 220.0
379.162872 436.0
380.129425 168.0
380.175995 176.0
380.987488 104.0
381.045746 160.0
381.160828 148.0
381.434357 92.0
381.741486 104.0
383.0336 132.0
383.07254 72.0
383.532349 128.0
384.062622 160.0
384.218628 164.0
384.706451 156.0
385.706421 44.0
386.062195 148.0
386.218658 164.0
386.449432 184.0
386.492493 156.0
387.436035 196.0
387.46344 40.0
387.686798 224.0
388.094452 108.0
388.612152 200.0
389.251953 164.0
389.911896 180.0
390.277466 120.0
390.977661 184.0
391.812408 112.0
392.119751 96.0
392.210388 180.0
392.32077 168.0
392.592804 124.0
392.711121 108.0
393.18866 124.0
393.22403 52.0
393.55957 100.0
393.80835 44.0
394.178741 164.0
394.358521 80.0
394.432617 108.0
394.527496 136.0
395.603485 100.0
396.320312 36.0
396.906921 208.0
397.09729 144.0
397.660645 136.0
397.704315 188.0
397.910736 180.0
398.073517 88.0
398.105286 112.0
398.570038 120.0
399.102661 184.0
399.520233 156.0
400.17691 204.0
400.686676 112.0
400.850037 156.0
401.583557 108.0
401.695251 40.0
401.882751 172.0
402.517395 168.0
402.677124 64.0
402.988708 80.0
403.163086 632.0
404.140198 128.0
404.176208 120.0
404.64447 176.0
404.716553 148.0
404.748566 124.0
405.834412 56.0
405.99881 140.0
406.367828 144.0
406.552399 80.0
406.61261 40.0
406.692871 60.0
406.865479 192.0
407.620544 132.0
408.834961 48.0
409.088531 156.0
409.120728 140.0
409.656311 136.0
409.833588 132.0
410.224518 40.0
411.33783 144.0
411.394348 208.0
411.454895 76.0
413.09964 128.0
413.233124 184.0
413.423309 68.0
413.512329 92.0
413.81189 140.0
414.763855 164.0
415.209839 144.0
415.392365 48.0
415.68042 80.0
415.712891 76.0
415.838684 132.0
415.895508 64.0
416.455811 52.0
416.71579 68.0
417.073395 64.0
417.109985 48.0
417.386414 64.0
417.658905 160.0
417.766846 112.0
417.833832 52.0
418.012848 64.0
418.236664 120.0
418.411713 48.0
418.753754 116.0
418.822998 336.0
418.904449 92.0
419.41864 108.0
419.506287 88.0
419.699158 288.0
419.742065 100.0
419.809265 32.0
419.866364 120.0
419.98056 108.0
420.062134 108.0
420.139618 128.0
420.199554 208.0
420.234131 168.0
420.315063 160.0
420.347717 296.0
420.425232 172.0
420.55658 112.0
420.608887 132.0
420.640137 104.0
420.664764 172.0
420.687988 184.0
420.71994 316.0
420.76712 148.0
420.799561 312.0
420.867126 156.0
420.969788 160.0
421.027802 172.0
421.076324 200.0
421.176147 101100.0
421.255859 176.0
421.324951 188.0
421.374908 124.0
421.438873 84.0
421.477448 332.0
421.545715 236.0
421.587738 88.0
421.598969 116.0
421.652252 120.0
421.71524 176.0
421.773621 300.0
421.869263 124.0
421.939819 168.0
422.02063 112.0
422.048553 116.0
422.178436 23460.0
422.307373 52.0
422.339722 100.0
422.377655 32.0
422.401459 92.0
422.44989 104.0
422.465729 108.0
422.51181 100.0
422.577484 72.0
422.619171 48.0
422.647125 148.0
422.741547 96.0
422.789734 100.0
422.804657 132.0
422.851746 80.0
422.953125 148.0
423.017303 60.0
423.032867 76.0
423.045288 80.0
423.077881 52.0
423.179016 4444.0
423.254944 112.0
423.325012 136.0
423.399109 80.0
423.427643 144.0
423.459961 156.0
423.506195 20.0
423.568878 92.0
423.645752 96.0
423.741333 64.0
423.811493 96.0
423.843781 48.0
423.880646 52.0
423.946198 88.0
424.048676 40.0
424.085541 120.0
424.177765 312.0
424.253967 136.0
424.329803 156.0
424.372498 76.0
424.415771 108.0
424.479523 80.0
424.547546 152.0
424.591156 176.0
424.65448 136.0
424.710754 116.0
424.792664 100.0
424.82251 44.0
424.871918 80.0
424.912659 68.0
424.968781 52.0
424.982422 124.0
424.994873 140.0
425.008789 88.0
425.072784 132.0
425.269257 160.0
425.347229 264.0
425.418213 80.0
425.495117 108.0
425.541809 112.0
425.673187 76.0
425.739441 148.0
425.771729 108.0
425.87442 48.0
425.915497 196.0
425.948364 36.0
426.022278 68.0
426.240051 56.0
426.383881 64.0
426.486847 72.0
426.626373 76.0
426.66748 64.0
426.757935 56.0
426.993103 88.0
427.15271 80.0
427.337524 52.0
427.584747 40.0
427.73703 80.0
427.844055 68.0
427.909912 128.0
428.033447 68.0
430.202057 88.0
430.416748 84.0
431.58606 84.0
433.552277 144.0
434.028961 96.0
434.219727 36.0
434.61795 72.0
434.738281 76.0
435.797119 92.0
435.826202 60.0
436.204376 56.0
436.270874 60.0
436.71579 64.0
437.523071 68.0
437.777039 56.0
439.123108 36.0
439.636261 148.0
440.024445 32.0
440.855621 48.0
441.482666 72.0
441.637421 52.0
441.842377 108.0
442.281769 92.0
442.532928 48.0
443.236603 48.0
444.042877 60.0
445.237549 56.0
445.924957 96.0
446.443634 64.0
447.386108 92.0
449.278229 48.0
451.69873 116.0
454.847046 72.0
456.359375 64.0
458.355591 124.0
459.127167 92.0
459.489716 48.0
466.444214 68.0
479.302185 56.0
482.851196 64.0
483.85321 80.0
484.536407 72.0
486.386932 64.0
501.612335 88.0
502.258881 80.0
504.093781 116.0
506.545502 92.0
508.792145 80.0
511.597321 72.0
512.556641 132.0
513.751404 52.0
514.022095 80.0
520.104492 104.0
520.976379 56.0
524.357056 80.0
525.766235 68.0
528.247192 84.0
528.494263 80.0
532.151733 68.0
534.997437 92.0
535.218445 84.0
536.798889 52.0
536.891113 72.0
541.809082 76.0
546.028381 84.0
546.195801 112.0
562.021179 192.0
563.201355 116.0
563.990417 112.0
564.543579 76.0
572.501709 80.0
583.944458 44.0
585.575989 104.0
589.444885 108.0
598.4375 44.0
600.645081 100.0
603.149963 72.0
605.077332 80.0
608.401123 140.0
612.113159 176.0
615.480896 80.0
616.883972 96.0
620.274719 120.0
621.990967 60.0
622.606628 116.0
624.316101 60.0
624.992615 100.0
627.173828 60.0
633.569946 76.0
634.993469 176.0
635.976807 144.0
637.674438 48.0
652.200439 60.0
664.851135 36.0
667.800049 84.0
670.941101 132.0
682.37738 60.0
684.406494 56.0
688.160461 72.0
688.760986 36.0
691.914246 68.0
693.988953 100.0
711.919189 96.0
719.78949 68.0
719.997742 20.0
720.953979 72.0
726.999939 60.0
729.137268 36.0
730.427673 44.0
732.074524 160.0
748.705261 104.0
763.84967 44.0
766.97168 36.0
772.476868 100.0
803.956177 192.0
807.82074 92.0
819.344727 56.0
820.193787 60.0
825.926453 140.0
830.107178 124.0
831.805359 152.0
832.884827 72.0
837.60144 64.0
839.710938 76.0
844.082458 44.0
850.716187 72.0
850.832275 120.0
855.715759 156.0
864.904114 84.0
874.023865 128.0
877.941101 120.0
880.856689 44.0
885.884705 92.0
894.685425 20.0
897.831421 52.0
901.371338 56.0
902.97937 108.0
918.68042 64.0
925.11615 52.0
926.690735 52.0
926.775513 160.0
931.179565 80.0
932.309509 52.0
941.62439 88.0
946.100159 176.0
953.706421 108.0
958.598999 104.0
963.133423 72.0
965.921082 144.0
967.65387 232.0
968.273071 36.0
968.638489 148.0
980.125488 72.0
981.41571 156.0
985.797546 144.0
988.761719 116.0
989.055908 140.0
989.406433 48.0
991.435791 60.0
999.089661 304.0
1005.623901 148.0
1009.218323 160.0
1014.574341 168.0
1015.722107 52.0
1027.146118 20.0
1027.471436 108.0
1030.561523 196.0
1039.750366 176.0
1041.034302 44.0
1043.270142 48.0
1045.810913 188.0
1046.956909 128.0
1048.135742 156.0
1061.872681 40.0
1067.841187 76.0
1073.148315 168.0
1073.226562 132.0
1078.756226 108.0
1080.489136 48.0
1084.345947 108.0
1087.664673 60.0
1087.914062 164.0
1090.022339 176.0
1091.106812 172.0
1092.895752 184.0
1093.902588 100.0
1096.603149 164.0
1109.970093 44.0
1111.628296 96.0
1119.15271 172.0
1120.065063 204.0
1121.077637 120.0
1121.844116 180.0
1125.466797 236.0
1131.564331 124.0
1132.682739 68.0
1133.66748 192.0
1134.77356 172.0
1139.081787 60.0
1140.203857 208.0
1142.005615 216.0
1143.17627 60.0
1144.421509 180.0
1149.294556 216.0
1150.414795 172.0
1152.265259 88.0
1154.015625 228.0
1155.090942 92.0
1156.396729 168.0
1158.21814 160.0
1161.85144 160.0
1163.97583 252.0
1164.030151 156.0
1164.403564 164.0
1164.464722 56.0
1166.421509 252.0
1170.251587 132.0
1178.79126 100.0
1184.99707 112.0
1185.730347 56.0
1187.796753 228.0
1188.281128 180.0
1188.425171 140.0
1190.910156 188.0
1190.985718 132.0
1191.274292 152.0
1196.514404 244.0
1201.172852 176.0
1208.011353 244.0
1208.661621 160.0
1209.090698 144.0
1213.481445 168.0
1216.305664 76.0
1221.266602 164.0
1221.68396 108.0
1223.375 136.0
1228.475952 140.0
1231.114136 76.0
1231.400513 80.0
1231.596069 84.0
1232.441406 200.0
1233.314819 92.0
1236.336182 188.0
1237.197144 132.0
1241.134521 240.0
1243.112549 76.0
1243.302002 200.0
1243.484497 140.0
1245.956177 136.0
1246.110718 132.0
1247.115601 88.0
1248.606079 180.0
1251.941772 140.0
1253.604248 160.0
1256.085938 248.0
1259.156128 44.0
1262.053345 112.0
1263.757935 92.0
1264.118774 160.0
1264.925537 136.0
1267.234253 176.0
1267.935669 156.0
1268.665771 120.0
1268.857178 112.0
1269.388916 156.0
1270.268433 180.0
1272.013916 228.0
1274.620361 268.0
1274.909058 108.0
1277.528198 136.0
1280.111694 112.0
1284.708862 168.0
1285.971802 168.0
1287.720947 144.0
1290.107544 168.0
1290.307617 180.0
1296.262573 164.0
1296.52771 132.0
1299.180664 176.0
1300.766479 68.0
1300.874146 164.0
1301.857788 188.0
1302.81311 68.0
1305.479614 128.0
1306.004639 176.0
1307.004517 192.0
1308.595215 176.0
1314.866333 200.0
1315.205566 176.0
1316.512329 168.0
1320.349609 64.0
1321.044067 80.0
1321.268311 116.0
1321.767456 188.0
1321.977295 156.0
1325.127075 176.0
1325.590698 208.0
1328.113647 168.0
1328.657715 120.0
1331.227051 160.0
1332.977661 136.0
1337.493896 216.0
1337.69043 92.0
1337.94519 228.0
1338.083496 236.0
1338.687866 164.0
1338.877197 64.0
1339.175781 60.0
1339.751221 104.0
1340.159302 232.0
1344.789795 208.0
1345.424805 204.0
1347.601196 184.0
1348.485352 148.0
1349.230957 96.0
1349.881714 104.0
1350.013306 120.0
1352.676392 52.0
1354.756104 88.0
1357.306519 92.0
1357.87854 108.0
1358.773438 176.0
1359.830078 144.0
1360.270508 192.0
1361.401123 172.0
1362.187012 104.0
1365.016479 72.0
1366.995239 200.0
1367.098267 76.0
1367.657593 176.0
1369.557251 144.0
1371.981445 148.0
1376.43042 136.0
1377.058105 128.0
1377.833618 96.0
1379.629517 160.0
1383.1875 224.0
1383.816772 136.0
1384.742432 140.0
1385.371948 136.0
1386.283325 212.0
1388.395996 192.0
1388.662964 128.0
1389.263794 192.0
1389.983521 204.0
1391.170898 208.0
1391.957886 240.0
1394.20874 152.0
1394.818237 196.0
1395.658203 180.0
1395.792114 132.0
1396.044922 144.0
1398.879517 204.0
1399.27417 156.0
1400.01123 172.0
1400.338989 80.0
1401.076416 108.0
1401.530884 148.0
1403.901245 160.0
1404.48291 164.0
1405.027466 56.0
1408.072876 188.0
1411.084229 172.0
1414.473022 144.0
1417.36377 148.0
1417.596069 148.0
1419.717529 148.0
1423.101562 180.0
1424.536011 236.0
1425.595337 116.0
1425.700562 176.0
1427.452026 184.0
1428.158936 148.0
1428.226685 72.0
1428.888672 124.0
1429.031616 116.0
1429.422852 180.0
1429.799072 136.0
1430.107666 164.0
1433.582764 200.0
1433.873413 256.0
1434.574341 104.0
1436.127686 192.0
1436.957397 100.0
1437.115845 200.0
1439.954102 188.0
1440.226074 208.0
1440.304688 192.0
1441.495239 228.0
1442.349243 80.0
1442.916138 196.0
1445.117065 156.0
1445.427246 68.0
1447.963135 164.0
1448.03894 44.0
1448.917603 176.0
1450.546875 196.0
1451.320068 136.0
1451.699219 192.0
1452.412109 200.0
1454.377319 76.0
1454.500366 96.0
1456.062744 180.0
1458.55481 148.0
1458.858887 152.0
1459.353027 108.0
1460.584961 200.0
1460.782837 156.0
1460.919678 92.0
1461.703369 196.0
1462.175171 192.0
1463.53772 44.0
1464.352539 176.0
1464.520142 88.0
1466.219116 176.0
1469.612305 96.0
1470.154053 220.0
1473.276855 152.0
1473.490723 168.0
1474.11731 180.0
1475.126099 168.0
1476.494751 180.0
1476.869507 168.0
1479.739136 220.0
1481.086914 144.0
1481.967773 100.0
1482.113403 248.0
1482.450562 152.0
1484.911377 160.0
1485.724487 240.0
1488.91748 76.0
1490.230957 156.0
1490.423096 192.0
1490.75354 172.0
1490.876465 100.0
1491.591187 144.0
1491.844849 164.0
1494.590454 100.0
1494.651978 28.0
1494.790527 128.0
1495.998901 116.0
1497.022827 148.0
1497.292358 264.0
1497.900879 212.0
1498.863892 252.0
1499.819458 140.0
1500.736816 120.0
1501.546509 148.0
1502.109497 296.0
1504.077148 164.0
