>compound Pyochelin
>formula C14H16N2O3S2 
>ionization [M+H]+
>parentmass 325.068
#inchi InChI=1S/C14H16N2O3S2/c1-16-10(14(18)19)7-21-13(16)9-6-20-12(15-9)8-4-2-3-5-11(8)17/h2-5,9-10,13,15H,6-7H2,1H3,(H,18,19)/b12-8+/t9-,10+,13?/m1/s1
#inchikey VRTHPBIMOLQLGL
#Ion_Source DI-ESI
#Instrument LTQ-FT-ICR
#Compound_Source Crude
#PI Dorrestein
#Data_Collector J Watrous
#Scan -1
#Precursor_MZ 325.068
#ExactMass 0.0
#Charge 1
#CAS_Number N/A
#Pubmed_ID N/A
#Smiles N/A
#INCHI_AUX N/A
#Library_Class 3
#SpectrumID CCMSLIB00000072237
#IonMode Positive
#UpdateWorkflowName UPDATE-SINGLE-ANNOTATED-BRONZE
#LibraryQualityString Bronze
#TaskID 3bbf0c46eeeb406782b2f3cd0ad9b2b3
##Scan# 1
#SpectrumFile Pyochelin_1H_LTQ_325_0675.mzXML
#LibraryName gnps_library.mgf
#MQScore -1
#Organism GNPS_JDW_Batch_Library_Centroid
#TIC_Query 0
#RT_Query -1
#MZErrorPPM -1
#SharedPeaks 0
#MassDiff 0
#LibMZ -1
#SpecMZ 325.068
#SpecCharge 0
#internalFilename spec-00000.mgf

>collision 10
93.909088 67.340767
95.0 141.179184
95.36364 0.470896
95.818184 13.124211
96.272728 6.628729
96.818184 68.402008
97.454544 0.183576
97.727272 10.930562
98.181816 0.139615
98.818184 74.029404
99.909088 248.917725
100.727272 8.262189
101.272728 0.006033
101.636368 10.853023
102.0 8.466759
102.454544 0.012413
102.818184 3.3e-05
103.636368 7.458388
103.818184 5.785821
104.36364 0.00694
104.727272 3.0e-05
105.909088 17.960629
106.36364 0.174444
106.727272 0.000462
107.090912 16.41538
107.545456 0.043251
108.090912 1.332968
108.909088 135.212738
109.909088 23.760546
110.454544 0.025358
111.090912 10.150198
111.545456 0.014029
111.909096 4.7e-05
112.454544 23.867088
112.818184 8.96312
113.272728 0.052668
114.0 40.740665
114.636368 0.076265
115.0 7.305889
115.454544 0.028584
115.818184 0.000125
116.909096 7.721302
117.36364 1.857357
117.727272 20.499437
118.0 22.723551
118.454544 0.02286
119.0 8.226422
119.727272 16.714785
120.090912 9.978816
120.545456 0.0596
120.909096 3.103443
121.272728 0.068083
121.818184 2.52575
122.272728 0.028642
122.818184 40.004704
123.545456 0.010922
123.909096 3.4e-05
124.272728 7.919543
124.727272 0.042373
125.090912 0.000119
125.727272 10.534832
126.090912 10.36969
126.909096 15.930968
127.909096 1981.208374
128.909088 155.043045
129.909088 39.40707
130.181824 20.43866
130.636368 0.087662
131.0 0.0005
132.0 43.973125
133.090912 42.368031
133.909088 12.619515
134.090912 15.204092
134.545456 0.057945
134.909088 0.000169
135.272736 1.0e-06
136.72728 10.606813
137.090912 0.061934
137.454544 0.000103
139.636368 13.941166
140.090912 0.023522
140.454544 7.4e-05
143.818176 59.710983
144.545456 0.094083
145.090912 11.222886
146.0 445.884857
146.636368 4.44435
147.181824 27.66555
147.72728 0.061144
148.272736 12.945393
148.636368 0.038368
149.0 0.000154
151.181824 3.910543
151.545456 0.00449
151.909088 6.833058
152.272736 0.039263
152.72728 5.7e-05
155.72728 6.662334
156.090912 18.758886
156.545456 0.04886
156.909088 0.000122
158.0 105.345222
159.0 1031.028198
160.0 4547.354492
161.090912 486.36673
161.909088 151.313141
162.72728 13.734787
163.0 36.7855
163.72728 12.617835
164.090912 17.031788
164.454544 33.17717
165.090912 104.848969
165.636368 0.101744
166.0 29.910814
166.454544 0.021597
166.909088 9.28165
167.363632 0.021153
167.72728 6.5e-05
169.72728 22.866081
170.181824 9.395658
170.636368 0.011043
172.0 6217.867676
172.909088 455.95575
174.0 72.177811
175.0 21.028664
175.72728 12.890264
176.181824 35.331245
176.818192 3.797189
177.0 4.654894
177.72728 64.272156
178.72728 0.130787
179.090912 6.513611
179.909088 24.197239
180.636368 0.011729
181.0 5.0e-05
182.0 12.891315
182.72728 7.670815
183.181824 39.127068
183.909088 278.166077
185.090912 169.342133
186.0 634.508606
187.181824 38.565624
187.818192 11.034114
188.181824 26.093163
188.818192 0.011655
190.0 351.874176
190.909088 51.205368
191.636368 23.39241
192.0 62.203373
192.272736 45.476021
192.818192 0.060706
193.090912 4.219904
193.545456 0.020107
194.0 17.852484
194.454544 0.061482
195.090912 17.401846
195.545456 0.031571
195.909088 18.374876
196.454544 8.41468
197.0 24.700321
198.090912 378.271973
199.0 101.194099
200.0 368.393829
201.090912 31.277052
202.0 17.098682
202.272736 1.261638
202.636368 0.034647
203.0 0.000106
206.0 305.783997
206.545456 1.597368
207.090912 28.700457
207.818192 9.581605
208.181824 9.951256
208.636368 0.020098
209.0 8.8e-05
209.909088 33.562019
210.181824 2.829883
211.090912 26.492582
212.0 240.80426
212.72728 17.156733
213.181824 42.795528
214.090912 304.008728
214.909088 12.546604
215.181824 24.49004
215.818192 12.319881
216.272736 20.90955
216.909088 0.014809
217.272736 8.3e-05
219.090912 15.77405
219.545456 0.097972
219.909088 22.518246
220.363647 15.775412
220.545456 15.510263
221.090912 78.949974
222.0 38.552959
223.090912 4.637114
224.0 895.661926
224.72728 119.579651
225.0 163.683838
226.090912 132.187653
227.0 16.032629
227.363647 3.54714
228.090912 238.243195
229.090912 29.769888
229.72728 0.02735
230.090912 8.155869
230.545456 0.021686
230.909088 6.1e-05
232.0 9.334383
232.363647 0.043365
233.0 25.687975
233.181824 21.769266
233.72728 0.098438
234.090912 0.000329
235.0 128.03537
236.090912 22.47101
236.636368 0.034918
237.0 0.000144
238.090912 18.362524
238.545456 15.994524
239.090912 59.625004
240.090912 85.309341
241.181824 28.450987
242.181824 191.497131
243.181824 6.923278
243.545456 0.028137
243.909103 22.853487
244.181824 12.914363
244.636368 0.032137
245.0 0.000129
246.636368 13.318715
247.090912 14.636488
247.545456 0.036582
247.909103 0.00016
248.363647 10.223523
248.818192 0.059854
249.181824 0.000247
249.545456 1.0e-06
249.909103 12.008235
250.545456 0.017847
250.909103 6.8e-05
252.181824 21.450321
252.72728 0.012715
253.272736 11.904648
254.0 28.358234
254.636368 17.898481
256.181824 275.218872
256.909088 22.932949
257.636383 0.103934
258.272736 9.186016
258.727264 0.046907
259.090912 0.000211
259.454559 1.0e-06
262.0 10.624183
262.636383 0.002695
263.0 1.0e-05
264.181824 3.452964
264.545471 0.00846
265.0 1.8e-05
266.0 17.528858
266.454559 0.082301
267.0 6.160528
267.363647 0.043885
268.272736 30.405689
268.727264 3.135497
269.636383 25.245102
270.181824 573.991211
271.090912 14.919317
271.454559 0.086226
272.181824 8.122466
272.636383 0.031908
273.0 0.000141
274.090912 4.689051
274.454559 0.061443
274.818176 0.000135
276.181824 5.65246
276.636383 0.007958
277.0 3.3e-05
278.090912 26.786922
278.909088 90.108994
279.818176 24.875944
280.181824 40.963696
281.090912 674.19928
282.090912 200.998291
283.0 21.591282
283.272736 27.939215
284.272736 677.763123
285.272736 0.020085
285.636383 7.4e-05
286.090912 10.831937
286.545471 0.020943
286.909088 9.2e-05
287.454559 4.406159
287.909088 13.050473
288.181824 7.985675
288.636383 0.012471
289.181824 22.781616
289.636383 0.136327
290.0 0.000266
290.454559 1.0e-06
291.272736 9.376599
291.727264 0.054615
292.090912 0.00017
292.454559 1.0e-06
293.0 8.360252
293.636383 11.636038
294.090912 56.890278
294.909088 13.535224
295.363647 0.025988
296.0 45.525154
296.454559 30.51663
296.909088 22.873699
297.272736 9.374401
297.727264 25.008671
298.181824 77.400551
299.0 0.044656
299.363647 0.000196
299.727264 1.0e-06
300.909088 10.776275
301.363647 0.017046
301.727264 5.1e-05
305.909088 13.691533
306.181824 21.504417
306.454559 16.800072
307.090912 69.344864
308.272736 96.121658
309.090912 46.001282
309.545471 1.969727
310.0 0.003395
310.363647 1.3e-05
311.0 15.297105
311.454559 0.037859
311.818176 0.000168
315.090912 21.905466
315.545471 0.115016
315.909088 0.000461
316.272736 2.0e-06
318.545471 0.0
318.909088 0.0
319.363647 0.0
319.727295 0.0
320.090912 0.0
320.454559 0.0
320.818176 0.0
321.090912 0.0
321.181824 0.0
321.272736 0.0
321.363647 0.0
321.454559 0.0
321.545471 0.0
321.636383 0.0
321.727295 0.0
321.818176 0.0
321.909088 0.0
322.0 0.0
322.090912 0.0
322.181824 0.0
322.272736 0.0
322.363647 0.0
322.454559 0.0
322.545471 0.0
322.636383 0.0
322.727295 0.0
322.818176 0.0
322.909088 0.0
323.0 0.0
323.090912 0.0
323.181824 0.0
323.272736 0.0
323.363647 0.0
323.454559 0.0
323.545471 0.0
323.636383 0.0
323.727295 0.0
323.818176 0.0
323.909088 0.0
324.0 0.0
324.090912 0.0
324.181824 0.0
324.272736 0.0
324.363647 0.0
324.454559 0.0
324.545471 0.0
324.636383 0.0
324.727295 0.0
324.818176 0.0
324.909088 0.0
325.0 0.0
325.090912 0.0
325.181824 0.0
325.272736 0.0
325.363647 0.0
325.454559 0.0
325.545471 0.0
325.636383 0.0
325.727295 0.0
325.818176 0.0
325.909088 0.0
326.0 0.0
326.363647 21.916321
326.818176 0.037046
327.181824 0.000162
327.545471 0.0
327.909088 0.0
328.272736 0.0
328.727295 0.0
329.090912 0.0
329.454559 0.0
329.818176 0.0
330.181824 0.0
330.454559 0.0
330.636383 0.0
331.0 0.0
331.363647 0.0
331.727295 0.0
332.090912 0.0
332.363647 0.0
332.454559 0.0
332.545471 0.0
332.636383 0.0
332.727295 0.0
332.818176 0.0
332.909088 0.0
333.0 0.0
333.090912 0.0
333.181824 0.0
333.272736 0.0
333.363647 0.0
333.454559 0.0
333.545471 0.0
333.636383 0.0
333.727295 0.0
333.818176 0.0
333.909088 0.0
334.0 0.0
334.090912 0.0
334.181824 0.0
334.272736 0.0
334.363647 0.0
334.454559 0.0
334.545471 0.0
334.636383 0.0
334.727295 0.0
334.818176 0.0
334.909088 0.0
335.0 0.0
335.090912 0.0
335.181824 0.0
335.272736 0.0
335.363647 0.0
335.454559 0.0
335.545471 0.0
335.636383 0.0
335.727295 0.0
335.818176 0.0
335.909088 0.0
336.0 0.0
336.090912 0.0
336.181824 0.0
336.272736 0.0
336.363647 0.0
336.454559 0.0
336.545471 0.0
336.636383 0.0
336.727295 0.0
336.818176 0.0
336.909088 0.0
337.0 0.0
337.090912 0.0
337.181824 0.0
337.272736 0.0
337.363647 0.0
337.454559 0.0
337.545471 0.0
337.636383 0.0
337.727295 0.0
337.818176 0.0
337.909088 0.0
338.0 0.0
338.090912 0.0
338.181824 0.0
338.272736 0.0
338.363647 0.0
338.454559 0.0
338.545471 0.0
338.636383 0.0
338.727295 0.0
338.818176 0.0
338.909088 0.0
339.0 0.0
339.090912 0.0
339.181824 0.0
339.272736 0.0
339.363647 0.0
339.454559 0.0
339.545471 0.0
339.636383 0.0
339.727295 0.0
339.818176 0.0
339.909088 0.0
