>compound Glipizide (Glucotrol)
>formula C21H27N5O4S
>ionization [M+Na]+
>parentmass 468.167908
#inchi InChI=1S/C21H27N5O4S/c1-15-13-24-19(14-23-15)20(27)22-12-11-16-7-9-18(10-8-16)31(29,30)26-21(28)25-17-5-3-2-4-6-17/h7-10,13-14,17H,2-6,11-12H2,1H3,(H,22,27)(H2,25,26,28)
#inchikey ZJJXGWJIGJFDTL
#Ion_Source LC-ESI
#Instrument qTof
#Compound_Source Commercial
#PI Dorrestein
#Data_Collector Garg_Neha
#Scan -1
#Precursor_MZ 468.168
#ExactMass 445.178
#Charge 1
#CAS_Number 29094-61-9
#Pubmed_ID N/A
#Smiles C1(=CC=C(C=C1)CCNC(C2=CN=C(C=N2)C)=O)S(NC(NC3CCCCC3)=O)(=O)=O
#INCHI_AUX N/A
#Library_Class 1
#SpectrumID CCMSLIB00000078249
#IonMode Positive
#UpdateWorkflowName UPDATE-SINGLE-ANNOTATED-GOLD
#LibraryQualityString Gold
#TaskID 77f51c88eb8b467eb4a01dd2d0cb90d2
##Scan# 1298
#SpectrumFile Plate4_21_40_GH3_01_16504.mzXML
#LibraryName FDALibrary_2_04302014.mgf
#MQScore -1
#Organism FDALibrary_2_04302014
#TIC_Query 0
#RT_Query -1
#MZErrorPPM -1
#SharedPeaks 0
#MassDiff 0
#LibMZ -1
#SpecMZ 468.168
#SpecCharge 0
#internalFilename spec-00000.mgf

>collision 10
52.405441 160.0
52.921074 144.0
53.06451 220.0
60.142254 152.0
67.574562 168.0
69.50235 188.0
70.16597 148.0
72.19944 160.0
78.54113 172.0
78.608177 176.0
80.702423 140.0
92.214378 232.0
93.476265 172.0
97.501945 188.0
100.080719 224.0
101.397942 144.0
103.056091 192.0
114.287346 144.0
115.046066 148.0
116.839813 168.0
121.038902 196.0
123.016289 172.0
123.681641 204.0
128.091827 144.0
130.768188 172.0
134.518188 164.0
135.146805 164.0
135.480194 152.0
136.817856 148.0
137.083374 160.0
137.421478 176.0
140.919861 208.0
143.14476 204.0
144.074951 152.0
148.416885 164.0
149.677963 160.0
150.066849 140.0
150.780594 164.0
152.275085 156.0
152.35614 140.0
154.58754 168.0
156.202698 200.0
157.141891 148.0
157.26915 192.0
160.502899 144.0
165.426758 188.0
167.016495 180.0
168.022324 156.0
171.979675 216.0
173.116943 148.0
177.417038 188.0
177.907822 156.0
178.92868 212.0
180.90152 204.0
181.426575 152.0
184.109192 172.0
184.560471 200.0
184.895905 144.0
185.002472 128.0
185.768356 160.0
186.572189 172.0
187.764816 148.0
187.988525 144.0
188.378952 176.0
190.458008 172.0
192.029617 140.0
192.152664 172.0
193.070816 184.0
193.156555 140.0
193.931839 176.0
196.989868 152.0
198.574112 180.0
199.152298 216.0
200.618332 152.0
202.253876 140.0
202.389755 140.0
205.373703 144.0
207.466873 160.0
207.570084 156.0
208.215759 184.0
212.4879 184.0
214.310867 164.0
216.410904 188.0
220.464355 144.0
221.891052 232.0
222.193558 172.0
223.917618 148.0
224.73439 148.0
224.80899 172.0
226.094009 144.0
235.060471 144.0
235.264969 152.0
237.41597 176.0
239.176437 184.0
240.819839 144.0
242.31395 140.0
244.042694 148.0
244.148422 144.0
245.727676 156.0
245.774475 144.0
245.833771 208.0
246.495773 184.0
247.005386 188.0
250.325912 164.0
251.571289 176.0
253.250351 176.0
253.548157 140.0
254.172867 140.0
254.556961 140.0
254.973114 172.0
255.21788 176.0
256.893097 140.0
257.132385 196.0
259.23349 156.0
259.797791 200.0
260.231049 188.0
260.442993 140.0
262.270599 184.0
262.976959 208.0
263.047974 160.0
263.545319 168.0
263.739197 144.0
264.993164 124.0
265.383728 212.0
267.661469 180.0
269.047119 156.0
272.923004 184.0
273.005219 144.0
273.340759 180.0
274.919189 164.0
277.03717 164.0
277.187683 208.0
278.265656 164.0
278.305481 184.0
278.411743 188.0
279.17276 180.0
279.638519 168.0
279.818268 144.0
280.854645 188.0
282.996704 144.0
284.364441 140.0
284.666595 224.0
286.065948 232.0
289.749634 148.0
290.431 192.0
295.315277 204.0
295.650543 176.0
297.92038 160.0
298.23996 212.0
298.528748 164.0
301.032562 164.0
302.243835 224.0
303.938202 180.0
304.069244 100.0
304.517944 164.0
305.071564 172.0
305.532959 140.0
305.595581 204.0
305.623413 192.0
306.06308 140.0
307.773987 196.0
309.28775 196.0
310.542084 148.0
312.052063 140.0
315.415192 216.0
321.101593 300.0
322.09079 144.0
322.563599 184.0
322.846039 176.0
323.157257 168.0
324.331848 208.0
324.708313 168.0
324.86615 140.0
328.272186 184.0
328.964935 180.0
328.990204 144.0
329.741486 180.0
331.195984 160.0
332.07309 144.0
332.171021 172.0
333.852631 228.0
333.921753 148.0
335.957886 144.0
336.662323 188.0
337.499115 152.0
337.591461 192.0
338.604248 208.0
339.194153 196.0
340.459961 168.0
341.849518 180.0
343.083313 11476.0
343.201385 148.0
343.577576 192.0
344.087769 2544.0
345.084045 536.0
346.542633 172.0
346.85022 196.0
347.080658 672.0
348.085571 516.0
350.380524 184.0
351.495331 152.0
353.055756 156.0
353.562653 260.0
354.31073 196.0
354.576752 188.0
356.049713 180.0
356.78009 144.0
357.114777 156.0
359.040771 276.0
361.040833 172.0
364.864197 108.0
364.93515 196.0
365.159515 160.0
366.054199 380.0
366.480438 232.0
366.557678 652.0
367.053497 220.0
367.090302 180.0
367.536682 192.0
367.975525 148.0
368.580566 128.0
368.92218 208.0
368.97052 192.0
369.063995 40568.0
369.215637 184.0
369.350891 176.0
369.499756 96.0
369.579742 148.0
369.620544 124.0
369.781494 152.0
370.065857 8380.0
370.311554 144.0
370.338684 104.0
370.868164 192.0
371.06076 2508.0
371.548889 124.0
372.064819 564.0
372.275543 144.0
372.389709 104.0
372.544556 96.0
372.625061 208.0
373.055481 268.0
373.369904 108.0
373.619537 196.0
373.824707 192.0
376.700928 140.0
377.055206 300.0
377.319244 212.0
378.061157 428.0
379.059418 148.0
380.847198 124.0
381.037628 144.0
381.288483 144.0
382.708313 212.0
383.035461 164.0
384.962128 152.0
395.071381 152.0
396.976501 228.0
398.679504 180.0
402.054474 152.0
405.041595 128.0
406.237762 148.0
410.517212 212.0
412.467255 204.0
412.73407 148.0
414.628571 156.0
414.82312 220.0
415.607391 336.0
416.105042 156.0
421.730682 172.0
428.621124 184.0
428.758392 168.0
429.895294 144.0
434.658203 176.0
438.763336 148.0
443.248047 160.0
447.401886 164.0
453.624451 144.0
453.836426 188.0
455.05835 172.0
455.703918 188.0
457.605072 148.0
458.158722 176.0
462.557159 144.0
463.143799 140.0
463.769348 168.0
466.207092 144.0
466.318817 184.0
466.445465 96.0
467.157288 172.0
467.483307 164.0
467.548828 160.0
467.77887 188.0
467.887085 220.0
467.972687 180.0
468.013214 164.0
468.0914 240.0
468.167908 34844.0
468.485413 136.0
468.575195 100.0
469.036346 140.0
469.085632 196.0
469.170105 11596.0
469.271484 176.0
469.544739 140.0
469.626923 144.0
469.861877 188.0
470.169067 2688.0
470.560822 112.0
470.721619 156.0
470.770844 100.0
471.166779 792.0
471.287811 100.0
471.412781 204.0
471.600281 124.0
471.871277 100.0
472.048828 168.0
472.234039 132.0
472.325012 156.0
484.126587 460.0
485.137787 252.0
486.118195 152.0
490.142273 156.0
502.143677 1036.0
503.143463 356.0
504.127533 112.0
505.142975 180.0
508.136841 148.0
1045.78833 164.0
1206.384888 160.0
1216.700073 176.0
1380.414062 224.0
2002.553467 176.0
