>compound 3,4,5-Trimethoxy_ cinnamic acid
>formula C12H14O5
>ionization [M+H]+
>parentmass 239.09053
#inchi InChI=1S/C12H14O5/c1-15-9-6-8(4-5-11(13)14)7-10(16-2)12(9)17-3/h4-7H,1-3H3,(H,13,14)/b5-4+
#inchikey YTFVRYKNXDADBI
#Ion_Source DI-ESI
#Instrument qTof
#Compound_Source Isolated
#PI Norberto Lopes
#Data_Collector Monica Pupo
#Scan -1
#Precursor_MZ 239.091
#ExactMass 238.084
#Charge 1
#CAS_Number 90-50-6
#Pubmed_ID N/A
#Smiles O=C(O)/C=C/C1=CC(OC)=C(OC)C(OC)=C1
#INCHI_AUX N/A
#Library_Class 3
#SpectrumID CCMSLIB00000081545
#IonMode Positive
#UpdateWorkflowName UPDATE-SINGLE-ANNOTATED-BRONZE
#LibraryQualityString Bronze
#TaskID 4a07f16a650f4095b43fe6b0b09ff8bb
##Scan# 1
#SpectrumFile gnps_3_4_5_Trimethoxycinnamic_acid_pos_MplusH.mgf
#LibraryName gnps_library.mgf
#MQScore -1
#Organism batch_27_05
#TIC_Query 0
#RT_Query -1
#MZErrorPPM -1
#SharedPeaks 0
#MassDiff 0
#LibMZ -1
#SpecMZ 239.091
#SpecCharge 0
#internalFilename spec-00000.mgf

>collision 10
118.039383 614.0
119.047218 1267.0
121.063049 678.0
130.039459 1708.0
131.046387 1166.0
132.055054 1458.0
133.06105 2208.0
135.040833 3730.0
136.046997 569.0
138.064713 738.0
146.034607 918.0
147.042343 9866.0
148.048309 2700.0
149.056305 3185.0
150.065063 2449.0
151.072784 678.0
154.059433 935.0
158.033554 348.0
159.039917 715.0
160.04982 2971.0
161.056824 4751.0
162.066086 19340.0
163.036957 16072.0
164.04129 1403.0
165.087357 1817.0
169.084244 3066.0
174.028702 1802.0
175.036423 8049.0
176.045456 6992.0
177.052231 8476.0
178.060287 21942.0
179.065048 3322.0
181.039795 1405.0
188.046463 2003.0
189.052475 4824.0
190.060226 72921.0
191.032959 43117.0
192.037506 4817.0
193.085526 51949.0
194.087418 3769.0
205.049469 2333.0
206.056595 50205.0
207.061295 4391.0
208.070984 11128.0
209.076492 1216.0
221.0802 127441.0
222.083557 9662.0
223.082504 1922.0
224.068069 1948.0
239.09053 2844.0
