>compound MLS001076511-01!PARGYLINE HYDROCHLORIDE306-07-0
>formula C11H13N
>ionization [M+H]+
>parentmass 160.11207586809053
#inchi InChI=1S/C11H13N/c1-3-9-12(2)10-11-7-5-4-6-8-11/h1,4-8H,9-10H2,2H3
#inchikey DPWPWRLQFGFJFI
#origInchi InChI=1S/C11H13N.ClH/c1-3-9-12(2)10-11-7-5-4-6-8-11;/h1,4-8H,9-10H2,2H3;1H
#Ion_Source LC-ESI
#Instrument qTof
#Compound_Source NIH Pharmacologically Active Library
#PI Dorrestein
#Data_Collector VP/LMS
#Scan -1
#Precursor_MZ 160.109
#ExactMass 159.105
#Charge 1
#CAS_Number N/A
#Pubmed_ID N/A
#Smiles CN(CC#C)Cc1ccccc1.Cl
#INCHI_AUX N/A
#Library_Class 3
#SpectrumID CCMSLIB00000085375
#IonMode Positive
#UpdateWorkflowName UPDATE-SINGLE-ANNOTATED-BRONZE
#LibraryQualityString Bronze
#TaskID d252d724072548979f1f6f1ced849daf
##Scan# 1091
#SpectrumFile p3-H11_GH11_01_18316.mzXML
#LibraryName Pharm_Active_Library.mgf
#MQScore -1
#Organism Pharm_Active_Library
#TIC_Query 0
#RT_Query -1
#MZErrorPPM -1
#SharedPeaks 0
#MassDiff 0
#LibMZ -1
#SpecMZ 160.109
#SpecCharge 0
#internalFilename spec-00000.mgf

>collision 10
45.884502 192.0
46.352192 140.0
49.948124 140.0
66.300812 204.0
68.401237 184.0
72.021736 204.0
79.741745 172.0
83.823799 152.0
91.053757 1444.0
91.075737 172.0
91.254379 64.0
92.056458 164.0
92.069977 192.0
92.090988 192.0
94.157669 68.0
95.874687 144.0
99.730583 120.0
104.066162 184.0
115.058731 180.0
115.552444 264.0
118.062798 156.0
120.082657 148.0
128.008911 188.0
128.064606 268.0
130.966812 128.0
142.016922 100.0
143.069641 156.0
144.081085 352.0
155.067108 188.0
160.114136 156.0
161.024612 180.0
172.670517 20.0
181.595627 104.0
248.640594 44.0
459.399261 112.0
903.377991 72.0
936.141663 208.0
941.734375 48.0
1000.452454 192.0
1005.331116 168.0
1013.723083 196.0
1039.692139 132.0
1093.122192 168.0
1116.06958 184.0
1157.310547 72.0
1210.554443 176.0
1239.828613 192.0
1248.435791 196.0
1273.746582 44.0
1282.80542 188.0
1307.783813 212.0
1319.282349 184.0
1389.87207 36.0
1406.767212 128.0
1418.661987 192.0
1441.566406 52.0
1462.940796 148.0
1471.105469 244.0
