>compound erysovine
>formula C18H21NO3
>ionization [M+H]+
>parentmass 300.1594199840905
#inchi InChI=1S/C18H21NO3/c1-21-14-4-3-13-6-8-19-7-5-12-9-17(22-2)16(20)10-15(12)18(13,19)11-14/h3-4,6,9-10,14,20H,5,7-8,11H2,1-2H3
#inchikey IHPMURIXWRKEKD
#Ion_Source DI-ESI
#Instrument Ion Trap
#Compound_Source Isolated
#PI Norberto Lopes
#Data_Collector Denise Silva
#Scan -1
#Precursor_MZ 268.1
#ExactMass 299.152
#Charge 1
#CAS_Number 466-72-8
#Pubmed_ID  
#Smiles OC1=C(OC)C=C2C(C3(CC(OC)C=CC3=CC4)N4CC2)=C1
#INCHI_AUX  
#Library_Class 3
#SpectrumID CCMSLIB00000081228
#IonMode Positive
#UpdateWorkflowName UPDATE-SINGLE-ANNOTATED-BRONZE
#LibraryQualityString Bronze
#TaskID c6744b6286a74fceb4411aac871c4f1f
##Scan# 1
#SpectrumFile gnps_erysovine_pos_MplusHminusCH3OH.mgf
#LibraryName gnps_library.mgf
#MQScore -1
#Organism gnps_library
#TIC_Query 0
#RT_Query -1
#MZErrorPPM -1
#SharedPeaks 0
#MassDiff 0
#LibMZ -1
#SpecMZ 268.1
#SpecCharge 0
#internalFilename spec-00000.mgf

>collision 10
151.011993 92795.0
153.044006 23924.0
175.981003 9793.0
177.035995 30046.0
190.102005 14320.0
191.007004 128414.0
191.007004 128414.0
193.166 8017.0
195.018005 140180.0
195.018005 140180.0
205.981003 10585.0
207.070999 79308.0
208.061996 369750.0
208.061996 369750.0
217.983002 11365.0
218.136993 13897.0
219.020996 1039095.0
219.020996 1039095.0
223.080002 29552.0
224.065002 63245.0
224.065002 63245.0
225.985992 30782.0
233.029007 25996.0
236.050003 1967916.0
236.050003 1967916.0
239.057999 169711.0
239.057999 169711.0
251.076004 2564456.0
251.076004 2564456.0
251.763 9949.0
253.070007 1133122.0
253.070007 1133122.0
266.097992 634331.0
266.097992 634331.0
