>compound Ubenimex (Bestatin)
>formula C16H24N2O4
>ionization [M+Na]+
>parentmass 331.1633
#inchi InChI=1S/C16H24N2O4/c1-10(2)8-13(16(21)22)18-15(20)14(19)12(17)9-11-6-4-3-5-7-11/h3-7,10,12-14,19H,8-9,17H2,1-2H3,(H,18,20)(H,21,22)/t12-,13+,14+/m1/s1
#inchikey VGGGPCQERPFHOB
#Ion_Source LC-ESI
#Instrument qTof
#Compound_Source Commercial
#PI Dorrestein
#Data_Collector Garg_Neha
#Scan -1
#Precursor_MZ 331.163
#ExactMass 308.174
#Charge 1
#CAS_Number 58970-76-6, 65391-42-6 (HCl), 223763-80-2 (TFA)
#Pubmed_ID N/A
#Smiles C1=CC=CC(=C1)C[C@H]([C@@H](C(N[C@H](C(O)=O)CC(C)C)=O)O)N
#INCHI_AUX N/A
#Library_Class 1
#SpectrumID CCMSLIB00000078192
#IonMode Positive
#UpdateWorkflowName UPDATE-SINGLE-ANNOTATED-GOLD
#LibraryQualityString Gold
#TaskID 77f51c88eb8b467eb4a01dd2d0cb90d2
##Scan# 1060
#SpectrumFile Plate3_21_40_GG10_01_16499.mzXML
#LibraryName FDALibrary_2_04302014.mgf
#MQScore -1
#Organism FDALibrary_2_04302014
#TIC_Query 0
#RT_Query -1
#MZErrorPPM -1
#SharedPeaks 0
#MassDiff 0
#LibMZ -1
#SpecMZ 331.163
#SpecCharge 0
#internalFilename spec-00000.mgf

>collision 10
49.329105 168.0
52.832161 268.0
72.977104 188.0
77.87162 148.0
84.045212 268.0
84.204025 192.0
84.849968 156.0
85.18396 172.0
86.295242 164.0
96.032883 164.0
102.152229 164.0
103.310158 240.0
103.694878 208.0
127.674797 164.0
132.100388 196.0
132.315216 144.0
137.675278 156.0
139.375946 148.0
139.719208 148.0
142.150513 196.0
146.784119 156.0
149.879547 268.0
152.977722 184.0
155.035187 192.0
156.946762 160.0
157.191208 184.0
159.115997 160.0
173.485855 188.0
176.156876 192.0
178.856293 184.0
180.237747 176.0
181.077744 188.0
184.83046 140.0
189.960709 156.0
190.059479 160.0
193.585083 204.0
195.70932 196.0
196.300049 140.0
198.094376 188.0
203.59166 240.0
206.080917 256.0
206.12413 152.0
207.078217 172.0
208.083282 140.0
208.994385 184.0
211.374908 152.0
216.316864 220.0
217.008255 208.0
218.075577 856.0
219.076126 168.0
219.540009 224.0
220.100677 172.0
221.541016 160.0
224.095047 432.0
224.677383 144.0
225.105087 176.0
226.375092 140.0
231.84285 156.0
233.008026 160.0
235.074326 160.0
235.927612 164.0
236.138611 144.0
237.096451 144.0
242.784866 140.0
243.827988 172.0
248.26738 160.0
249.104935 600.0
249.152512 204.0
250.100754 1224.0
255.185928 156.0
256.08847 276.0
261.697021 220.0
263.119659 552.0
264.117035 144.0
270.334839 212.0
271.609283 188.0
273.426239 140.0
275.123779 140.0
276.104218 260.0
277.133423 352.0
288.683441 184.0
290.129211 252.0
291.127411 508.0
291.894745 204.0
292.128174 648.0
304.102478 256.0
305.129639 140.0
306.278015 180.0
309.361389 180.0
310.072449 164.0
313.162354 172.0
318.130066 180.0
319.119537 3920.0
320.127319 1340.0
330.830536 148.0
330.910187 164.0
331.1633 4212.0
332.124176 196.0
332.168488 584.0
333.182373 172.0
334.146881 188.0
334.409576 144.0
334.803711 160.0
334.944824 176.0
334.982788 256.0
335.065033 140.0
335.149536 17928.0
335.223389 156.0
336.067657 160.0
336.154724 500.0
337.159485 144.0
427.909576 164.0
428.410156 160.0
899.777649 156.0
1802.939575 168.0
1907.272583 196.0
