>compound MLS001333164-01!Aldosterone52-39-1
>formula C21H28O5
>ionization [M+H]+
>parentmass 361.19986
#inchi InChI=1S/C21H28O5/c1-20-7-6-13(24)8-12(20)2-3-14-15-4-5-16(18(26)10-22)21(15,11-23)9-17(25)19(14)20/h8,11,14-17,19,22,25H,2-7,9-10H2,1H3/t14-,15-,16+,17-,19+,20-,21+/m0/s1
#inchikey PQSUYGKTWSAVDQ
#Ion_Source LC-ESI
#Instrument qTof
#Compound_Source NIH Pharmacologically Active Library
#PI Dorrestein
#Data_Collector VP/LMS
#Scan -1
#Precursor_MZ 361.203
#ExactMass 360.194
#Charge 1
#CAS_Number N/A
#Pubmed_ID N/A
#Smiles C[C@@]12CCC(=O)C=C2CC[C@H]3[C@@H]4CC[C@H](C(=O)CO)[C@]4(C[C@H](O)[C@@H]31)C=O
#INCHI_AUX N/A
#Library_Class 1
#SpectrumID CCMSLIB00000084937
#IonMode Positive
#UpdateWorkflowName UPDATE-SINGLE-ANNOTATED-GOLD
#LibraryQualityString Gold
#TaskID d252d724072548979f1f6f1ced849daf
##Scan# 1630
#SpectrumFile p3-C09_GC9_01_18254.mzXML
#LibraryName Pharm_Active_Library.mgf
#MQScore -1
#Organism Pharm_Active_Library
#TIC_Query 0
#RT_Query -1
#MZErrorPPM -1
#SharedPeaks 0
#MassDiff 0
#LibMZ -1
#SpecMZ 361.203
#SpecCharge 0
#internalFilename spec-00000.mgf

>collision 10
45.177322 140.0
45.631981 136.0
46.49247 156.0
47.737057 184.0
47.815475 164.0
48.551872 44.0
48.85051 220.0
48.861637 160.0
49.645275 144.0
49.824944 108.0
49.968353 104.0
50.056885 152.0
50.377205 180.0
51.25832 188.0
51.293949 44.0
51.470863 176.0
51.528 32.0
52.357128 176.0
52.429161 176.0
52.56472 140.0
52.592144 156.0
52.960861 196.0
53.323601 200.0
53.464676 216.0
53.756145 160.0
53.991352 192.0
54.067429 144.0
54.83704 172.0
55.133694 168.0
55.294903 172.0
55.739811 164.0
55.915295 144.0
56.46434 224.0
56.898903 228.0
57.436153 180.0
57.608242 204.0
57.969864 236.0
58.015335 44.0
58.270306 156.0
59.177826 144.0
59.54126 196.0
59.618076 132.0
60.229752 140.0
60.726616 264.0
60.928417 128.0
61.258228 192.0
61.375118 112.0
62.311123 152.0
62.89064 224.0
62.942741 140.0
63.190903 168.0
63.842854 60.0
64.006767 136.0
64.151756 40.0
64.196396 172.0
64.373535 128.0
64.538124 124.0
65.208221 136.0
65.283783 276.0
65.665482 224.0
65.865631 132.0
66.185852 96.0
66.757057 208.0
68.153069 124.0
68.523277 72.0
69.354523 140.0
69.741272 116.0
69.811104 172.0
70.986763 56.0
71.638908 152.0
71.696198 120.0
71.826027 144.0
72.705856 156.0
72.865471 200.0
73.304474 188.0
73.855927 124.0
75.726944 212.0
76.188362 188.0
76.249176 164.0
77.497589 112.0
78.282097 80.0
78.963318 172.0
80.227615 124.0
80.240097 192.0
80.629234 140.0
80.781219 124.0
81.439079 192.0
82.590866 76.0
82.715721 120.0
83.486839 132.0
83.712502 40.0
83.829086 180.0
85.065506 212.0
85.263878 220.0
85.917564 64.0
87.12278 156.0
87.589706 72.0
88.521683 164.0
88.596603 72.0
90.398544 144.0
90.803963 104.0
91.058289 172.0
91.472801 72.0
92.258766 236.0
92.507385 204.0
92.574471 140.0
92.702705 200.0
92.760323 36.0
93.069206 272.0
93.092247 176.0
93.16716 232.0
93.640358 60.0
93.671173 140.0
94.596161 168.0
95.181679 212.0
95.329315 140.0
95.442055 184.0
96.063347 276.0
97.066406 416.0
97.137299 76.0
97.306076 172.0
97.610634 44.0
98.770309 212.0
99.32296 136.0
99.438042 104.0
100.3591 164.0
101.338486 168.0
101.854073 232.0
102.747887 128.0
102.864937 188.0
103.050156 300.0
103.617241 240.0
104.299103 88.0
104.852722 228.0
105.068993 412.0
105.309738 128.0
105.810745 156.0
105.982796 60.0
106.031975 132.0
106.072792 188.0
106.226433 124.0
106.468964 64.0
107.049461 148.0
107.085342 332.0
107.108627 120.0
107.234314 132.0
107.839058 84.0
108.064461 192.0
108.089294 56.0
108.962212 192.0
109.005844 168.0
109.06456 1652.0
109.101456 148.0
109.378128 108.0
109.809441 192.0
109.965919 108.0
110.05986 144.0
110.193535 180.0
110.580399 32.0
110.632729 100.0
110.823318 152.0
110.944878 160.0
111.007782 152.0
111.079086 128.0
111.774513 196.0
111.835541 128.0
112.892548 120.0
113.055435 156.0
113.411255 128.0
114.152199 176.0
115.054138 196.0
115.072701 132.0
115.256386 84.0
115.540756 148.0
115.735519 196.0
116.063354 132.0
116.410988 136.0
116.969986 132.0
117.071808 840.0
118.072556 212.0
118.345215 188.0
119.085915 520.0
119.789459 48.0
120.092896 192.0
120.142616 144.0
120.515961 156.0
121.064339 1648.0
121.100983 276.0
121.797562 164.0
122.071434 272.0
122.847572 72.0
123.079178 1332.0
123.114006 152.0
123.236137 132.0
123.373169 96.0
124.088264 160.0
124.889938 220.0
126.015724 156.0
126.442833 160.0
126.489838 60.0
126.675697 248.0
127.054558 72.0
127.908508 68.0
128.060532 928.0
128.286957 176.0
128.722412 108.0
128.99353 208.0
129.071609 792.0
129.391693 96.0
129.557007 192.0
129.772324 156.0
129.790451 156.0
130.075592 136.0
130.214828 172.0
131.085922 1420.0
131.183548 180.0
131.206955 56.0
132.091675 164.0
132.107483 112.0
132.131912 144.0
132.230301 172.0
132.534882 172.0
132.956818 176.0
133.073166 280.0
133.097977 408.0
133.4254 168.0
133.611694 44.0
134.079132 56.0
134.517365 112.0
134.713654 72.0
135.078262 360.0
135.708832 168.0
135.871185 164.0
135.938477 180.0
136.084702 120.0
136.224045 180.0
137.097351 264.0
137.446365 120.0
138.128555 156.0
139.382858 168.0
139.66568 188.0
140.148727 140.0
140.241852 104.0
140.763245 72.0
141.001846 156.0
141.069595 796.0
141.550674 184.0
141.69754 196.0
142.008072 208.0
142.080032 576.0
142.53273 80.0
142.680084 140.0
143.041687 148.0
143.084244 1208.0
143.341782 92.0
143.632645 120.0
143.735229 28.0
144.09816 160.0
144.289352 204.0
144.983521 148.0
145.045837 152.0
145.062622 164.0
145.103287 948.0
145.30484 76.0
145.578476 132.0
145.854767 164.0
146.027893 196.0
146.071182 648.0
146.103531 384.0
147.037384 128.0
147.079132 540.0
147.116257 124.0
147.290909 164.0
148.060043 152.0
148.095581 196.0
148.137543 152.0
149.095276 256.0
149.127563 240.0
149.299301 144.0
150.052597 136.0
150.09404 164.0
151.048981 104.0
152.07074 124.0
153.064575 312.0
154.076263 740.0
154.638992 160.0
155.058182 156.0
155.087753 464.0
155.121994 76.0
155.427048 180.0
155.933655 40.0
156.035568 80.0
156.093063 176.0
156.600449 192.0
156.705078 272.0
157.065964 168.0
157.100601 1308.0
157.175507 132.0
157.755768 160.0
158.10289 184.0
158.158493 56.0
159.081604 464.0
159.115616 648.0
159.963318 168.0
160.008621 144.0
160.091721 192.0
160.119812 312.0
160.376419 212.0
160.893539 188.0
161.057678 156.0
161.09845 392.0
161.130112 208.0
161.479782 152.0
161.63916 128.0
161.732803 136.0
161.970825 128.0
162.096939 144.0
162.264786 112.0
162.526031 172.0
162.848434 104.0
163.077179 556.0
163.10849 856.0
164.154007 180.0
164.404007 40.0
164.516312 164.0
164.761475 168.0
165.067337 280.0
165.887497 152.0
166.005432 188.0
166.028519 84.0
166.069443 188.0
167.085037 524.0
167.140839 200.0
167.385376 112.0
168.090805 164.0
168.145859 136.0
169.07077 228.0
169.101028 636.0
170.068924 140.0
170.108932 164.0
170.988998 176.0
171.081039 192.0
171.11554 812.0
171.330109 84.0
171.460388 96.0
171.648087 68.0
171.987244 112.0
172.083832 184.0
172.117401 216.0
172.151733 192.0
172.970078 52.0
173.097321 648.0
173.132645 172.0
173.29744 92.0
173.389145 80.0
173.41011 136.0
173.43895 156.0
174.06073 36.0
174.130447 344.0
174.702026 84.0
174.873062 184.0
175.07579 180.0
175.114471 596.0
175.666199 132.0
175.800751 136.0
176.059464 160.0
176.091156 52.0
176.114288 164.0
176.476974 124.0
176.831451 152.0
177.035309 124.0
177.061798 132.0
177.117416 180.0
177.594528 188.0
178.076141 188.0
178.210403 136.0
179.045685 152.0
179.082443 460.0
179.114929 124.0
179.298767 204.0
180.091858 416.0
181.102737 920.0
181.914703 116.0
181.960342 224.0
182.070435 144.0
182.106537 460.0
182.266541 188.0
182.685959 84.0
183.08432 204.0
183.115982 796.0
183.310608 204.0
183.388763 60.0
183.501984 96.0
184.089157 412.0
184.12825 364.0
185.093262 380.0
185.129471 752.0
185.15303 184.0
185.258667 108.0
186.099258 156.0
186.134705 152.0
186.284088 40.0
186.599335 72.0
186.727142 116.0
187.115829 200.0
187.148087 180.0
187.663895 184.0
188.120941 136.0
188.649475 84.0
189.087677 136.0
189.124222 144.0
189.143143 64.0
189.177444 156.0
190.070923 152.0
190.126434 176.0
191.02211 96.0
191.06279 64.0
191.10463 164.0
191.131577 156.0
191.646484 208.0
191.792542 168.0
192.095901 276.0
192.128967 124.0
192.369049 132.0
192.609299 240.0
193.051514 172.0
193.098877 492.0
193.123413 236.0
193.278336 192.0
194.106766 112.0
194.11412 88.0
194.192535 56.0
195.075531 60.0
195.117599 764.0
195.211777 60.0
195.812897 56.0
195.921524 128.0
195.988388 84.0
196.094452 212.0
196.11937 352.0
197.051437 132.0
197.095993 472.0
197.131485 1044.0
197.207932 52.0
198.10054 196.0
198.134521 188.0
198.849213 196.0
199.112411 572.0
199.151199 228.0
200.088852 152.0
200.113632 228.0
200.150803 280.0
200.173325 132.0
200.2043 160.0
201.069794 128.0
201.126404 436.0
201.171417 164.0
202.081436 144.0
202.129745 108.0
202.908447 144.0
203.098572 392.0
203.140991 204.0
203.68602 64.0
204.095032 420.0
205.092743 152.0
205.119125 152.0
205.727783 144.0
206.104294 328.0
207.115906 276.0
208.079849 164.0
208.123016 204.0
208.38266 160.0
208.595322 176.0
209.095703 280.0
209.131729 268.0
209.196533 176.0
210.099258 356.0
210.134171 360.0
211.11235 384.0
211.150604 196.0
212.114853 156.0
212.146271 292.0
213.083435 72.0
213.128723 372.0
213.162064 196.0
213.510727 204.0
213.62999 48.0
214.092773 96.0
214.137451 576.0
214.838943 44.0
215.084076 180.0
215.144592 168.0
216.150314 188.0
216.625107 96.0
217.095093 284.0
217.244583 252.0
218.068771 188.0
218.111145 176.0
218.456909 172.0
219.075104 108.0
219.11261 376.0
219.703033 168.0
220.122147 132.0
220.585999 256.0
220.763397 92.0
221.097107 344.0
221.129303 456.0
221.162811 148.0
221.367096 40.0
221.83522 216.0
222.095917 144.0
222.137695 308.0
223.113235 216.0
223.151321 492.0
223.799011 132.0
224.119507 256.0
224.156219 148.0
224.16156 236.0
224.362122 60.0
225.126663 508.0
225.163254 156.0
225.708679 72.0
226.123383 64.0
226.268188 64.0
227.020264 164.0
227.076874 160.0
227.104248 128.0
227.142181 888.0
227.182236 128.0
227.896774 164.0
228.107147 180.0
228.143188 148.0
228.162018 192.0
229.121994 256.0
229.154984 184.0
229.338272 88.0
230.158752 160.0
231.120956 272.0
232.124146 164.0
232.146927 164.0
233.066696 124.0
233.123291 276.0
233.160904 200.0
234.101944 132.0
234.139053 248.0
235.110611 140.0
235.119919 160.0
235.146378 284.0
236.119644 184.0
236.191574 176.0
237.128342 368.0
237.165665 504.0
237.459625 176.0
237.60994 56.0
238.138062 444.0
238.169739 328.0
238.325317 72.0
239.00177 56.0
239.063309 132.0
239.141296 572.0
239.186951 188.0
240.098434 112.0
240.151611 1128.0
240.261658 48.0
240.326706 68.0
240.366806 236.0
241.126144 312.0
241.156555 736.0
241.417114 88.0
242.122971 140.0
242.163513 160.0
242.370529 96.0
242.851044 36.0
243.135208 196.0
244.116852 152.0
244.144485 164.0
245.114288 136.0
245.140228 136.0
245.257645 48.0
245.360519 168.0
246.144806 208.0
247.103241 176.0
247.14418 292.0
247.475693 56.0
248.127213 156.0
248.156067 160.0
248.293564 72.0
248.641815 208.0
249.128433 708.0
249.15593 132.0
249.164276 144.0
250.148712 104.0
250.994873 40.0
251.137024 664.0
251.177673 460.0
252.102875 132.0
252.148056 176.0
252.814423 148.0
253.156403 424.0
253.517456 104.0
253.767868 72.0
254.128693 100.0
254.168182 136.0
254.488113 44.0
254.618301 64.0
254.789825 132.0
255.137207 512.0
255.170074 1128.0
255.228439 80.0
256.103607 192.0
256.132263 148.0
256.175293 148.0
256.434967 128.0
256.827148 40.0
257.15036 164.0
257.191589 280.0
257.23877 124.0
257.583649 136.0
257.711426 48.0
257.976715 204.0
258.15683 192.0
258.18454 140.0
258.206909 176.0
259.10318 172.0
259.12561 76.0
259.160645 120.0
259.202515 164.0
259.414062 184.0
260.135834 184.0
260.167938 180.0
261.122253 140.0
261.161896 192.0
261.981689 64.0
262.139587 144.0
262.197571 60.0
263.071686 136.0
263.149506 348.0
263.43338 208.0
264.144562 276.0
265.028381 112.0
265.122345 132.0
265.158752 752.0
265.193665 112.0
265.842285 180.0
266.168793 352.0
266.563202 144.0
267.135529 372.0
267.167664 416.0
268.141205 188.0
268.153717 136.0
268.161621 188.0
268.275177 92.0
268.549103 220.0
269.067932 148.0
269.116913 88.0
269.151062 320.0
269.937073 116.0
270.02536 36.0
270.15921 512.0
271.166779 164.0
271.843597 68.0
271.886261 148.0
271.951904 128.0
273.182526 140.0
273.470398 52.0
273.733765 148.0
273.763397 176.0
274.073059 124.0
274.135651 120.0
275.148285 40.0
275.97757 64.0
277.150848 176.0
278.160797 188.0
278.38324 160.0
279.130157 172.0
279.17218 428.0
280.146057 100.0
281.152588 364.0
281.343262 36.0
282.168243 124.0
282.318939 120.0
283.081909 116.0
283.168243 440.0
283.490601 80.0
283.869415 52.0
284.177246 284.0
284.292084 56.0
284.96701 172.0
285.148987 316.0
285.180817 428.0
285.303101 72.0
285.794128 168.0
286.144165 124.0
286.187958 144.0
287.121368 128.0
287.151276 180.0
287.914459 132.0
289.157562 300.0
290.16806 136.0
291.101166 112.0
291.349091 84.0
292.151398 116.0
293.152435 100.0
294.161987 120.0
295.080963 144.0
295.181458 144.0
295.669342 84.0
296.162354 136.0
297.12561 96.0
297.178314 964.0
297.496246 72.0
298.140961 148.0
298.192108 124.0
299.166595 1796.0
299.218628 120.0
299.752502 36.0
300.172668 580.0
300.221344 60.0
301.176544 280.0
301.274078 80.0
302.062256 148.0
303.121674 100.0
303.173645 188.0
304.353088 88.0
306.757111 252.0
307.167603 280.0
308.169525 136.0
310.154816 128.0
313.181763 144.0
314.193451 160.0
314.943695 140.0
315.092072 240.0
315.192719 1176.0
315.668213 40.0
315.876892 44.0
316.096252 96.0
316.138702 68.0
316.199524 368.0
317.191895 144.0
318.066772 84.0
318.226837 88.0
323.227356 128.0
323.735687 112.0
325.17688 896.0
325.223541 152.0
326.173157 260.0
327.225861 64.0
328.168243 288.0
331.339508 48.0
334.378845 132.0
339.343201 124.0
340.359558 188.0
341.634888 60.0
342.227448 140.0
342.75415 200.0
342.879456 88.0
342.993713 144.0
343.189026 1440.0
343.284973 84.0
343.380859 48.0
343.857056 60.0
344.195007 484.0
344.288757 40.0
345.186371 156.0
345.660217 80.0
345.937805 88.0
346.548889 36.0
346.756409 116.0
346.986237 128.0
347.217224 48.0
360.110138 40.0
361.19986 684.0
362.197998 204.0
369.798035 64.0
372.485931 48.0
372.766388 56.0
469.444855 84.0
497.196533 80.0
520.223999 52.0
523.857483 68.0
528.285522 132.0
541.023987 68.0
738.939026 96.0
797.823242 48.0
858.31134 208.0
862.029724 216.0
872.774414 140.0
948.992004 72.0
998.380798 148.0
999.425049 124.0
1005.266357 224.0
1015.667603 204.0
1026.79187 36.0
1027.777466 20.0
1032.782959 120.0
1035.880981 144.0
1057.205933 148.0
1069.908569 192.0
1089.804321 144.0
1094.559937 108.0
1104.578491 132.0
1111.588135 212.0
1116.424316 188.0
1119.598633 172.0
1133.647827 164.0
1159.981201 160.0
1174.076172 196.0
1223.102295 72.0
1249.996704 228.0
1264.67627 124.0
1314.635742 172.0
1316.888184 112.0
1325.66394 176.0
1356.941895 172.0
1362.887085 188.0
1368.86731 156.0
1369.699585 164.0
1373.584351 140.0
1385.241699 204.0
1386.656982 220.0
1389.868042 108.0
1412.591553 164.0
1438.237915 92.0
1448.574829 76.0
1451.833984 176.0
1454.260132 180.0
1457.405762 200.0
1457.626099 180.0
1460.34021 60.0
1463.726807 148.0
1473.978882 248.0
1481.568848 168.0
1484.581177 88.0
1487.005493 228.0
1496.630127 192.0
1497.284668 68.0
1501.554443 124.0
1502.209961 160.0
1503.745483 180.0
