>compound MLS000862193-01!GR 125487 sulfamate salt
>formula C19H26FN3O5S
>ionization [M+H]+
>parentmass 428.16499660409056
#inchi InChI=1S/C19H26FN3O5S/c1-27-18-17(15-11-14(20)3-4-16(15)22-18)19(24)28-12-13-5-8-23(9-6-13)10-7-21-29(2,25)26/h3-4,11,13,21-22H,5-10,12H2,1-2H3
#inchikey SSPCCAYAIDNNJX
#origInchi InChI=1S/C19H26FN3O5S.H3NO3S/c1-27-18-17(15-11-14(20)3-4-16(15)22-18)19(24)28-12-13-5-8-23(9-6-13)10-7-21-29(2,25)26;1-5(2,3)4/h3-4,11,13,21-22H,5-10,12H2,1-2H3;(H3,1,2,3,4)
#Ion_Source LC-ESI
#Instrument qTof
#Compound_Source NIH Pharmacologically Active Library
#PI Dorrestein
#Data_Collector VP/LMS
#Scan -1
#Precursor_MZ 428.169
#ExactMass 427.158
#Charge 1
#CAS_Number N/A
#Pubmed_ID N/A
#Smiles COc1[nH]c2ccc(F)cc2c1C(=O)OCC3CCN(CCNS(=O)(=O)C)CC3.NS(=O)(=O)O
#INCHI_AUX N/A
#Library_Class 1
#SpectrumID CCMSLIB00000085743
#IonMode Positive
#UpdateWorkflowName UPDATE-SINGLE-ANNOTATED-GOLD
#LibraryQualityString Gold
#TaskID d252d724072548979f1f6f1ced849daf
##Scan# 1443
#SpectrumFile p4-E10_GE10_01_18382.mzXML
#LibraryName Pharm_Active_Library.mgf
#MQScore -1
#Organism Pharm_Active_Library
#TIC_Query 0
#RT_Query -1
#MZErrorPPM -1
#SharedPeaks 0
#MassDiff 0
#LibMZ -1
#SpecMZ 428.169
#SpecCharge 0
#internalFilename spec-00000.mgf

>collision 10
44.915607 112.0
45.021049 108.0
45.074486 152.0
45.083839 136.0
45.177437 124.0
45.209049 128.0
45.214237 80.0
45.218281 168.0
45.2631 116.0
45.272472 148.0
45.366268 156.0
45.417225 252.0
45.462841 148.0
45.578327 148.0
45.635094 208.0
45.708763 124.0
45.758568 56.0
45.790886 216.0
45.816479 136.0
45.894653 208.0
45.94051 236.0
46.032291 52.0
46.071461 116.0
46.090378 128.0
46.125515 96.0
46.143093 204.0
46.157967 36.0
46.186367 156.0
46.230713 160.0
46.259441 120.0
46.355606 48.0
46.366447 172.0
46.45594 36.0
46.533298 100.0
46.550949 60.0
46.567249 212.0
46.628387 68.0
46.643341 68.0
46.66917 100.0
46.689568 156.0
46.701809 176.0
46.724937 48.0
46.820553 180.0
46.848827 148.0
46.882893 164.0
46.893795 204.0
46.95068 144.0
47.046921 188.0
47.101196 120.0
47.172256 92.0
47.196865 188.0
47.228321 144.0
47.242001 144.0
47.254837 188.0
47.356983 152.0
47.409046 248.0
47.503197 216.0
47.51326 84.0
47.555798 188.0
47.601105 56.0
47.639565 208.0
47.6996 180.0
47.750904 160.0
47.766472 188.0
47.778416 180.0
47.792175 152.0
47.81144 92.0
47.826752 96.0
47.840347 228.0
47.849983 228.0
47.989143 52.0
48.012585 164.0
48.114227 248.0
48.160267 140.0
48.17408 140.0
48.216915 156.0
48.355221 124.0
48.403675 56.0
48.443844 176.0
48.459084 164.0
48.495113 196.0
48.578312 216.0
48.601864 164.0
48.626881 156.0
48.686581 156.0
48.717136 272.0
48.728252 128.0
48.785347 148.0
48.81443 112.0
48.900688 224.0
48.927135 136.0
48.998165 164.0
49.007919 212.0
49.034397 156.0
49.101318 188.0
49.187828 84.0
49.35828 256.0
49.405834 132.0
49.442215 88.0
49.473011 180.0
49.485611 144.0
49.519218 144.0
49.54023 68.0
49.580864 180.0
49.628529 152.0
49.640606 176.0
49.736553 200.0
49.760418 216.0
49.806763 172.0
49.8461 192.0
49.955769 116.0
50.217773 72.0
50.229057 208.0
50.250217 156.0
50.391411 112.0
50.449356 112.0
50.460667 112.0
50.487534 60.0
50.531384 96.0
50.595074 172.0
50.623394 144.0
50.663052 136.0
50.688557 184.0
50.790634 200.0
50.800526 144.0
50.827522 48.0
50.837456 200.0
50.92548 180.0
50.993435 184.0
51.003632 148.0
51.015877 216.0
51.039173 120.0
51.096069 64.0
51.289745 84.0
51.323959 180.0
51.358189 140.0
51.398136 124.0
51.62384 108.0
51.726856 208.0
51.765202 200.0
51.775539 144.0
51.785564 64.0
51.824245 128.0
51.844307 104.0
51.950413 176.0
51.967628 180.0
52.010681 168.0
52.206081 276.0
52.253551 132.0
52.312557 176.0
52.362953 144.0
52.515736 212.0
52.548916 364.0
52.638409 168.0
52.7174 188.0
52.748215 144.0
52.793034 168.0
52.848976 244.0
52.892292 200.0
52.927227 224.0
53.059467 188.0
53.084118 180.0
53.129082 144.0
53.317848 120.0
53.339653 76.0
53.391994 224.0
53.435635 52.0
53.496761 120.0
53.605999 196.0
53.620575 128.0
53.664307 156.0
53.764961 240.0
53.778095 132.0
53.791233 144.0
53.835819 148.0
53.865707 188.0
53.896389 180.0
54.020664 52.0
54.030903 164.0
54.121651 112.0
54.158264 108.0
54.234455 128.0
54.268173 156.0
54.360588 204.0
54.503029 148.0
54.551529 176.0
54.57505 36.0
54.604465 160.0
54.625057 152.0
54.651539 224.0
54.67067 84.0
54.703049 76.0
54.729553 136.0
54.760479 252.0
54.777779 220.0
54.873947 176.0
54.885742 56.0
54.912289 44.0
55.006725 160.0
55.028755 204.0
55.049541 208.0
55.076126 156.0
55.102718 244.0
55.221146 176.0
55.244648 124.0
55.286076 128.0
55.324562 40.0
55.446766 136.0
55.478634 172.0
55.502357 140.0
55.523647 268.0
55.566135 144.0
55.589878 300.0
55.607689 92.0
55.64183 152.0
55.677467 88.0
55.885586 168.0
55.900463 216.0
55.983829 140.0
56.061298 156.0
56.076202 188.0
56.09856 180.0
56.264156 68.0
56.274609 56.0
56.428276 132.0
56.491318 204.0
56.529697 92.0
56.549675 116.0
56.623039 116.0
56.703945 68.0
56.825256 192.0
57.058208 88.0
57.112347 100.0
57.122875 60.0
57.161995 208.0
57.306549 104.0
57.401512 244.0
57.413578 176.0
57.476936 176.0
57.538822 260.0
57.626423 248.0
57.764 128.0
57.795769 168.0
57.900223 244.0
57.971428 208.0
58.00174 216.0
58.018417 152.0
58.063908 108.0
58.173717 304.0
58.202003 136.0
58.247566 216.0
58.378277 204.0
58.411739 116.0
58.461948 116.0
58.531975 216.0
58.556343 176.0
58.571575 228.0
58.594425 164.0
58.614231 60.0
58.699596 144.0
58.728577 220.0
58.852188 148.0
58.948425 204.0
58.975933 140.0
59.072269 120.0
59.21003 196.0
59.262115 224.0
59.313656 184.0
59.38105 164.0
59.39444 140.0
59.429245 184.0
59.472214 144.0
59.490635 168.0
59.505985 96.0
59.516735 168.0
59.585854 64.0
59.647324 168.0
59.688835 128.0
59.750362 76.0
59.838089 300.0
60.002945 116.0
60.032242 196.0
60.174202 168.0
60.19891 196.0
60.266876 176.0
60.302422 112.0
60.361168 180.0
60.413395 224.0
60.436962 192.0
60.461723 196.0
60.542229 212.0
60.577854 240.0
60.613487 128.0
60.633633 192.0
60.722279 160.0
60.76897 132.0
60.857018 156.0
60.996841 156.0
61.035946 212.0
61.05748 140.0
61.102592 240.0
61.122818 176.0
61.136826 92.0
61.295666 68.0
61.329956 120.0
61.362694 164.0
61.4347 352.0
61.490608 208.0
61.507778 156.0
61.612408 216.0
61.668663 156.0
61.692112 160.0
61.737457 156.0
61.75153 152.0
61.804722 132.0
61.824741 212.0
61.857754 140.0
61.884548 184.0
62.105518 128.0
62.157291 212.0
62.176121 152.0
62.256187 140.0
62.278179 144.0
62.311169 176.0
62.342594 148.0
62.389748 136.0
62.43692 204.0
62.484112 272.0
62.573654 148.0
62.616341 156.0
62.770786 48.0
62.786556 148.0
62.887531 184.0
62.944366 152.0
62.98793 240.0
63.002556 152.0
63.084984 204.0
63.103958 120.0
63.149818 172.0
63.174767 88.0
63.225761 100.0
63.422161 84.0
63.471306 140.0
63.49192 136.0
63.528404 144.0
63.601509 116.0
63.631565 188.0
63.672852 140.0
63.688732 116.0
63.846085 196.0
63.90176 132.0
63.91449 148.0
63.935177 140.0
64.000443 180.0
64.094421 112.0
64.143829 124.0
64.261848 136.0
64.285782 36.0
64.308128 156.0
64.370392 108.0
64.52858 52.0
64.539772 68.0
64.57106 184.0
64.630943 176.0
64.642143 116.0
64.715782 92.0
64.901649 204.0
64.932251 48.0
64.956177 196.0
65.106667 216.0
65.187378 100.0
65.25811 156.0
65.293488 184.0
65.351395 108.0
65.378754 36.0
65.501244 404.0
65.659081 156.0
65.925461 116.0
65.960648 228.0
65.964363 176.0
65.969528 240.0
66.012306 172.0
66.04834 160.0
66.075836 144.0
66.098495 160.0
66.203712 228.0
66.273369 216.0
66.292168 196.0
66.463882 216.0
66.515022 136.0
66.539368 176.0
66.644943 220.0
66.729538 176.0
66.780693 208.0
66.828682 152.0
66.862854 156.0
66.921455 92.0
67.128304 236.0
67.19854 164.0
67.229546 128.0
67.242599 132.0
67.257294 148.0
67.268723 176.0
67.322601 220.0
67.401009 156.0
67.430428 132.0
67.456581 116.0
67.515442 128.0
67.589058 124.0
67.639793 108.0
67.847847 188.0
67.89048 196.0
67.937904 188.0
67.957733 84.0
67.970863 276.0
68.056213 176.0
68.118629 116.0
68.171204 184.0
68.183746 164.0
68.240242 248.0
68.255043 160.0
68.273132 124.0
68.312607 168.0
68.332352 116.0
68.370193 92.0
68.386345 172.0
68.423431 232.0
68.475563 184.0
68.496834 192.0
68.52169 64.0
68.538162 192.0
68.579369 180.0
68.688194 196.0
68.763245 188.0
68.844994 124.0
68.899506 212.0
68.931183 144.0
68.963951 72.0
68.993706 108.0
69.08136 180.0
69.101242 184.0
69.121063 60.0
69.172371 276.0
69.200516 60.0
69.369507 152.0
69.428322 200.0
69.49057 180.0
69.555298 204.0
69.59182 92.0
69.618385 204.0
69.668221 156.0
69.789543 88.0
69.851082 176.0
69.864388 164.0
69.90432 132.0
69.92762 180.0
69.984222 220.0
70.080833 140.0
70.129158 160.0
70.185844 128.0
70.222527 192.0
70.290932 156.0
70.339333 52.0
70.404449 56.0
70.472939 184.0
70.509705 196.0
70.528091 104.0
70.646812 160.0
70.670242 140.0
70.683624 140.0
70.708725 188.0
70.780716 112.0
70.825935 188.0
70.934853 132.0
70.959999 200.0
71.029907 164.0
71.053764 128.0
71.095871 64.0
71.137833 140.0
71.278915 148.0
71.317574 104.0
71.352875 124.0
71.423508 136.0
71.450424 132.0
71.480713 140.0
71.498383 208.0
71.512115 224.0
71.550835 212.0
71.59182 172.0
71.635612 88.0
71.755264 256.0
71.794052 212.0
71.819351 224.0
71.841278 80.0
71.927338 116.0
72.273804 188.0
72.391335 220.0
72.42617 156.0
72.461746 132.0
72.529533 180.0
72.593964 148.0
72.687263 124.0
72.751755 108.0
72.801163 168.0
72.874039 180.0
73.01902 168.0
73.042351 88.0
73.089989 120.0
73.118919 116.0
73.175095 144.0
73.217667 108.0
73.245148 328.0
73.277283 136.0
73.355682 156.0
73.382957 212.0
73.3983 176.0
73.41024 136.0
73.432411 68.0
73.451172 188.0
73.507477 72.0
73.642349 128.0
73.676514 212.0
73.693596 196.0
73.714104 120.0
73.732903 164.0
73.785896 208.0
73.867981 192.0
73.93985 180.0
73.968948 160.0
74.001472 196.0
74.023735 232.0
74.039146 72.0
74.071686 188.0
74.126518 168.0
74.215652 60.0
74.231087 176.0
74.246521 200.0
74.291115 252.0
74.437012 128.0
74.462769 172.0
74.488533 184.0
74.54351 144.0
74.562416 64.0
74.593361 156.0
74.712021 124.0
74.742989 144.0
74.830772 200.0
74.844543 120.0
75.137558 124.0
75.167374 100.0
75.185875 76.0
75.206589 88.0
75.218666 184.0
75.270462 168.0
75.317093 228.0
75.358559 56.0
75.377563 164.0
75.420769 176.0
75.498573 220.0
75.652863 72.0
75.685471 132.0
75.7201 168.0
75.806725 92.0
75.948898 188.0
76.020027 112.0
76.088722 216.0
76.143288 212.0
76.207565 180.0
76.285774 288.0
76.310112 200.0
76.350113 208.0
76.374458 164.0
76.464935 400.0
76.673935 100.0
76.71228 184.0
76.823891 148.0
76.973991 164.0
77.033379 156.0
77.05085 96.0
77.160957 192.0
77.317406 200.0
77.363899 36.0
77.377907 80.0
77.491745 164.0
77.544319 140.0
77.593407 176.0
77.672318 172.0
77.700989 188.0
77.724953 92.0
77.758301 168.0
77.78463 128.0
77.82325 192.0
77.867149 224.0
77.898773 212.0
78.039742 208.0
78.190651 252.0
78.208252 136.0
78.26107 140.0
78.298943 196.0
78.421379 92.0
78.433723 48.0
78.496193 208.0
78.509537 256.0
78.532463 208.0
78.573036 144.0
78.618919 172.0
78.717773 148.0
78.767227 184.0
78.814934 112.0
78.89093 160.0
78.903305 144.0
78.974037 220.0
79.023575 148.0
79.044807 152.0
79.08905 180.0
79.120918 208.0
79.168205 164.0
79.22541 156.0
79.244896 156.0
79.335281 156.0
79.395668 152.0
79.500244 176.0
79.76133 156.0
79.814667 180.0
79.830673 172.0
79.850235 184.0
79.885811 144.0
79.90004 196.0
79.93029 196.0
79.944527 120.0
79.983681 128.0
80.003265 176.0
80.08696 140.0
80.131493 116.0
80.143967 160.0
80.177826 188.0
80.20813 192.0
80.222389 152.0
80.261612 160.0
80.311928 168.0
80.395401 104.0
80.408302 140.0
80.465019 208.0
80.518593 88.0
80.602554 156.0
80.63472 136.0
80.756302 44.0
80.831444 212.0
80.911987 144.0
81.035568 120.0
81.076782 104.0
81.141312 144.0
81.159248 188.0
81.187935 224.0
81.227394 160.0
81.290192 100.0
81.308929 184.0
81.358398 72.0
81.441002 132.0
81.50927 100.0
81.563187 116.0
81.642128 124.0
81.696266 176.0
81.76284 160.0
81.816513 176.0
81.861855 176.0
81.935707 160.0
81.964531 240.0
81.992935 200.0
82.121376 156.0
82.137611 172.0
82.164673 204.0
82.336159 48.0
82.354218 60.0
82.422874 172.0
82.560257 144.0
82.806396 216.0
82.913292 168.0
82.971298 216.0
82.998497 228.0
83.032951 72.0
83.052902 140.0
83.076485 84.0
83.138176 212.0
83.214638 196.0
83.297958 168.0
83.463348 72.0
83.596138 132.0
83.632538 136.0
83.698082 48.0
83.801903 128.0
83.843819 172.0
83.856575 120.0
83.898499 200.0
83.932365 212.0
84.031639 212.0
84.057182 136.0
84.164017 212.0
84.196632 124.0
84.209908 140.0
84.336609 80.0
84.370888 192.0
84.413948 428.0
84.424873 176.0
84.440834 208.0
84.50486 180.0
84.572571 168.0
84.616501 236.0
84.777695 228.0
84.896858 176.0
84.915199 192.0
84.951889 152.0
85.038132 268.0
85.091362 208.0
85.133598 200.0
85.153801 120.0
85.238312 272.0
85.35228 88.0
85.36515 172.0
85.37986 88.0
85.475525 156.0
85.525215 168.0
85.574921 72.0
85.589653 160.0
85.687271 168.0
85.713066 124.0
85.762825 140.0
85.843948 148.0
85.86055 40.0
85.875305 212.0
85.891899 136.0
86.063538 112.0
86.261223 64.0
86.296349 116.0
86.327789 176.0
86.348129 112.0
86.372177 168.0
86.481346 184.0
86.572067 232.0
86.622078 148.0
86.677658 196.0
86.796295 168.0
86.835236 140.0
86.88903 168.0
86.911301 108.0
86.933563 212.0
86.953979 116.0
87.001457 192.0
87.070946 92.0
87.083946 156.0
87.128532 184.0
87.210297 204.0
87.288376 128.0
87.306976 164.0
87.522842 128.0
87.543327 128.0
87.597603 168.0
87.642052 184.0
87.686775 180.0
87.722191 156.0
87.742699 156.0
87.850868 220.0
87.87326 116.0
87.896675 204.0
87.946793 152.0
87.970306 124.0
87.983376 136.0
88.069275 176.0
88.099159 224.0
88.234688 124.0
88.306648 220.0
88.326073 208.0
88.351547 84.0
88.428268 180.0
88.531235 140.0
88.737358 72.0
88.801117 116.0
88.901382 200.0
88.919319 56.0
88.956863 208.0
88.983147 144.0
89.016945 176.0
89.062019 116.0
89.144684 184.0
89.167236 64.0
89.217995 76.0
89.249954 160.0
89.315781 180.0
89.333199 168.0
89.453148 164.0
89.511513 152.0
89.560257 172.0
89.592506 180.0
89.607574 156.0
89.643379 124.0
89.688606 100.0
89.705574 164.0
89.74234 128.0
89.775337 160.0
89.815788 200.0
89.837585 148.0
89.877205 60.0
89.913063 264.0
89.964027 44.0
89.986679 140.0
90.011223 40.0
90.025772 180.0
90.058441 164.0
90.092445 136.0
90.111519 188.0
90.136116 140.0
90.198624 236.0
90.236076 172.0
90.276817 132.0
90.305054 76.0
90.35334 152.0
90.569145 176.0
90.612717 144.0
90.65062 88.0
90.834526 160.0
90.883858 344.0
90.904732 156.0
90.973061 144.0
91.039513 200.0
91.052811 164.0
91.0718 144.0
91.121193 160.0
91.189606 156.0
91.220016 100.0
91.250435 160.0
91.28508 164.0
91.318893 184.0
91.336014 48.0
91.358841 152.0
91.427345 184.0
91.442566 72.0
91.551086 200.0
91.592621 124.0
91.629189 132.0
91.777855 184.0
91.856049 188.0
92.043091 260.0
92.09465 84.0
92.232231 236.0
92.297234 136.0
92.329742 92.0
92.390953 92.0
92.513435 152.0
92.549812 128.0
92.56321 204.0
92.624504 48.0
92.761414 188.0
92.844917 144.0
92.948509 120.0
92.983055 160.0
93.069443 176.0
93.092484 76.0
93.165474 136.0
93.205826 76.0
93.303848 160.0
93.367302 200.0
93.396156 156.0
93.463486 164.0
93.534698 160.0
93.59269 132.0
93.754272 240.0
93.787033 76.0
93.912369 208.0
93.960594 116.0
94.022339 428.0
94.064804 168.0
94.113075 160.0
94.190323 196.0
94.232826 136.0
94.254082 240.0
94.350876 148.0
94.373924 220.0
94.443542 72.0
94.464821 32.0
94.482231 204.0
94.497711 196.0
94.520927 216.0
94.548019 200.0
94.609962 244.0
94.659615 224.0
94.729263 220.0
94.751343 144.0
94.770721 68.0
94.877319 160.0
94.964577 160.0
95.001434 164.0
95.078575 216.0
95.156784 180.0
95.228546 44.0
95.246033 144.0
95.286827 148.0
95.310143 124.0
95.325691 192.0
95.382858 48.0
95.398621 168.0
95.440376 236.0
95.4655 148.0
95.472466 176.0
95.543457 132.0
95.599884 40.0
95.752388 168.0
95.810181 80.0
95.853043 188.0
95.975853 212.0
96.081779 328.0
96.104584 48.0
96.129951 232.0
96.200218 176.0
96.31543 192.0
96.42485 108.0
96.559753 164.0
96.608658 136.0
96.761307 176.0
96.847473 172.0
96.931717 88.0
96.99836 68.0
97.06736 124.0
97.08506 192.0
97.10228 36.0
97.174858 192.0
97.19529 156.0
97.282799 148.0
97.320107 180.0
97.534248 116.0
97.662056 148.0
97.737961 168.0
97.762398 188.0
97.847038 44.0
97.913773 220.0
97.984901 156.0
98.034164 48.0
98.096703 19572.0
98.137093 184.0
98.149918 144.0
98.176102 72.0
98.194389 192.0
98.249084 92.0
98.281563 104.0
98.305504 184.0
98.341835 68.0
98.366066 116.0
98.389214 144.0
98.434624 72.0
98.495071 80.0
98.529434 72.0
98.582779 204.0
98.628242 36.0
98.697876 196.0
98.733429 60.0
98.768631 132.0
98.800285 52.0
98.861626 172.0
98.909126 56.0
98.948723 40.0
98.974457 112.0
99.035851 132.0
99.059624 112.0
99.098755 1340.0
99.136269 164.0
99.234024 144.0
99.265755 96.0
99.293518 188.0
99.394691 116.0
99.42247 244.0
99.573364 140.0
99.605141 80.0
99.688591 108.0
99.706474 156.0
99.73629 112.0
99.760139 124.0
99.783997 160.0
99.83371 60.0
99.891388 164.0
99.915268 196.0
99.992874 180.0
100.097313 200.0
100.277687 180.0
100.401299 120.0
100.802559 132.0
100.82402 76.0
100.952492 64.0
101.074516 160.0
101.144562 156.0
101.204628 124.0
101.326805 180.0
101.342834 168.0
101.356857 120.0
101.727905 136.0
101.792152 88.0
101.827545 128.0
101.839417 172.0
101.924728 200.0
102.003113 252.0
102.061417 68.0
102.079514 132.0
102.113701 112.0
102.178078 148.0
102.27668 156.0
102.304863 144.0
102.343117 200.0
102.431732 168.0
102.451881 200.0
102.482101 188.0
102.510307 156.0
102.554649 212.0
102.615128 140.0
102.637306 56.0
102.665535 280.0
102.73008 204.0
102.929901 196.0
102.985718 200.0
103.02079 136.0
103.045029 136.0
103.089485 160.0
103.182281 132.0
103.223717 280.0
103.293617 204.0
103.360458 116.0
103.425224 212.0
103.50013 160.0
103.556831 44.0
103.824364 108.0
103.858849 168.0
103.875549 136.0
104.080055 184.0
104.303543 168.0
104.380798 72.0
104.435707 140.0
104.472328 92.0
104.681969 112.0
104.753258 84.0
104.767517 160.0
104.957069 164.0
104.997856 176.0
105.077408 160.0
105.32238 180.0
105.340767 184.0
105.375496 192.0
105.543106 176.0
105.563553 136.0
105.577866 80.0
105.647415 144.0
105.682198 136.0
105.741539 156.0
105.782478 52.0
105.802948 152.0
105.82473 176.0
105.956551 112.0
106.04467 72.0
106.071312 236.0
106.129395 256.0
106.198265 180.0
106.264091 136.0
106.286659 64.0
106.317444 192.0
106.385178 264.0
106.41803 164.0
106.500175 120.0
106.617287 148.0
106.650169 264.0
106.693344 188.0
106.806442 72.0
106.847588 92.0
106.896973 200.0
107.131691 156.0
107.150238 168.0
107.177025 116.0
107.379051 172.0
107.521408 116.0
107.558563 156.0
107.589523 108.0
107.694839 160.0
107.823898 180.0
107.899429 104.0
107.984207 156.0
107.998688 188.0
108.032684 212.0
108.080452 460.0
108.108345 48.0
108.165703 172.0
108.201485 168.0
108.309174 172.0
108.337608 160.0
108.367935 176.0
108.59729 92.0
108.68235 140.0
108.699638 168.0
108.757057 160.0
108.802727 140.0
108.987579 120.0
109.085266 248.0
109.101891 200.0
109.293243 156.0
109.320297 216.0
109.339256 144.0
109.434784 136.0
109.528496 140.0
109.57016 100.0
109.597252 136.0
109.646423 208.0
109.668106 104.0
109.686867 140.0
109.732727 212.0
109.77652 152.0
109.817535 156.0
109.857864 96.0
109.903763 32.0
109.991417 152.0
110.046822 216.0
110.07399 148.0
110.096252 10564.0
110.123772 188.0
110.188126 208.0
110.308937 184.0
110.363297 152.0
110.480415 76.0
110.591324 168.0
110.652565 220.0
110.734016 188.0
110.849976 112.0
110.903038 244.0
110.953728 96.0
111.039703 340.0
111.098541 1216.0
111.12571 56.0
111.141327 136.0
111.180267 36.0
111.222244 112.0
111.270531 132.0
111.289429 112.0
111.438553 176.0
111.482681 136.0
111.513031 164.0
111.533127 144.0
111.680313 92.0
111.697144 148.0
111.726593 104.0
111.791824 128.0
111.882332 176.0
111.909698 140.0
111.958138 100.0
111.972878 72.0
112.058456 80.0
112.078209 180.0
112.100281 576.0
112.156189 160.0
112.345451 144.0
112.374016 220.0
112.436707 128.0
112.485252 196.0
112.538033 144.0
112.713356 140.0
112.77253 80.0
112.899925 172.0
112.933289 176.0
112.950142 72.0
112.993515 128.0
113.048531 176.0
113.081329 232.0
113.11412 220.0
113.271904 160.0
113.422348 212.0
113.447792 184.0
113.507156 92.0
113.524124 240.0
113.770256 44.0
113.785118 244.0
113.891296 152.0
113.987526 136.0
114.057037 112.0
114.090195 228.0
114.105934 180.0
114.161217 68.0
114.20163 228.0
114.256935 48.0
114.446251 156.0
114.531548 92.0
114.597588 148.0
114.661522 96.0
114.714806 128.0
114.908882 108.0
114.943024 152.0
114.964363 48.0
114.985703 112.0
115.004913 124.0
115.160782 160.0
115.282562 172.0
115.331718 148.0
115.419373 136.0
115.44503 148.0
115.459999 164.0
115.560539 156.0
115.706085 128.0
115.721786 96.0
115.776749 200.0
115.870995 180.0
115.916054 148.0
116.016731 84.0
116.105217 404.0
116.166847 28.0
116.368584 88.0
116.428711 112.0
116.458778 200.0
116.512482 84.0
116.555458 84.0
116.583397 132.0
116.615631 164.0
116.647873 124.0
116.751083 128.0
116.867241 160.0
116.946869 212.0
116.998535 240.0
117.080353 44.0
117.099739 104.0
117.17083 216.0
117.254868 184.0
117.338936 148.0
117.433823 132.0
117.47049 100.0
117.617226 88.0
117.636658 220.0
117.664719 272.0
117.68631 180.0
117.734161 252.0
117.781334 164.0
117.89801 232.0
117.915298 92.0
117.939072 140.0
117.984741 128.0
118.062309 148.0
118.094757 148.0
118.239716 204.0
118.308983 316.0
118.350121 200.0
118.408592 228.0
118.541275 128.0
118.562416 160.0
118.627441 144.0
118.781403 180.0
118.88707 200.0
119.126564 220.0
119.156975 176.0
119.222168 136.0
119.252594 212.0
119.291718 140.0
119.315636 80.0
119.459167 192.0
119.47657 136.0
119.510292 176.0
119.563606 88.0
119.705116 200.0
119.779167 168.0
119.853241 224.0
120.083176 212.0
120.309082 28.0
120.350563 248.0
120.372406 100.0
120.408928 188.0
120.472878 92.0
120.527496 120.0
120.588058 168.0
120.606171 60.0
120.661552 144.0
120.706741 208.0
120.759232 160.0
120.799805 196.0
120.82048 76.0
120.846733 108.0
120.877365 108.0
120.912384 156.0
120.943756 180.0
121.031822 1412.0
121.073769 84.0
121.258759 160.0
121.409706 124.0
121.454788 204.0
121.479897 196.0
121.504028 188.0
121.578629 184.0
121.644478 188.0
121.69278 112.0
121.740685 196.0
121.760513 156.0
121.795998 224.0
121.903656 64.0
122.026711 19584.0
122.053833 276.0
122.093719 376.0
122.174103 96.0
122.193398 140.0
122.213707 156.0
122.295128 148.0
122.329819 156.0
122.378784 172.0
122.423927 64.0
122.466873 76.0
122.484497 116.0
122.51075 96.0
122.553947 168.0
122.581436 156.0
122.611473 108.0
122.636536 92.0
122.783127 148.0
122.857048 80.0
122.898972 144.0
122.925575 212.0
122.949722 92.0
122.993866 136.0
123.028343 988.0
123.060097 144.0
123.141136 184.0
123.236801 172.0
123.263313 232.0
123.287621 176.0
123.31414 92.0
123.418045 256.0
123.44458 256.0
123.491028 196.0
123.515358 68.0
123.614922 88.0
123.692383 260.0
123.723503 136.0
123.749947 100.0
123.775459 176.0
123.808662 60.0
123.856247 88.0
123.876183 164.0
123.896118 148.0
123.913841 200.0
123.979324 156.0
124.022514 508.0
124.111244 1584.0
124.135506 88.0
124.151024 160.0
124.29744 80.0
124.395096 184.0
124.417297 92.0
124.475914 140.0
124.557198 140.0
124.639404 180.0
124.843918 116.0
124.86393 156.0
124.885849 136.0
125.037468 208.0
125.092262 64.0
125.11734 156.0
125.177727 148.0
125.324745 48.0
125.344795 148.0
125.482994 144.0
125.527588 152.0
125.545425 156.0
125.654732 152.0
125.975304 108.0
126.032066 268.0
126.093063 516.0
126.118904 192.0
126.154793 180.0
126.302582 228.0
126.351799 140.0
126.439064 164.0
126.477119 120.0
126.530846 164.0
126.687454 168.0
126.961075 176.0
126.983498 180.0
127.093422 172.0
127.13382 156.0
127.347107 212.0
127.439209 128.0
127.6595 52.0
127.693237 172.0
127.805717 244.0
127.873909 200.0
127.893486 112.0
127.910011 148.0
127.927254 144.0
128.053345 180.0
128.068848 164.0
128.106186 8508.0
128.170502 180.0
128.19754 36.0
128.213318 52.0
128.260651 212.0
128.298157 144.0
128.306427 92.0
128.445557 152.0
128.496307 152.0
128.556946 216.0
128.576355 72.0
128.601242 44.0
128.781876 44.0
128.912918 56.0
129.005585 192.0
129.089249 196.0
129.107605 548.0
129.145782 108.0
129.187256 192.0
129.345123 84.0
129.52153 140.0
129.580429 172.0
129.784424 68.0
129.823395 196.0
129.8638 52.0
129.897827 164.0
129.925049 160.0
129.99765 96.0
130.027161 88.0
130.051773 228.0
130.081635 176.0
130.113419 160.0
130.140656 100.0
130.190628 180.0
130.547409 124.0
130.611099 48.0
130.645218 96.0
130.825012 120.0
130.994873 148.0
131.048203 92.0
131.078613 164.0
131.148468 208.0
131.371948 176.0
131.442673 92.0
131.497452 220.0
131.536255 180.0
131.559082 80.0
131.629868 56.0
131.742081 120.0
131.776047 132.0
131.904022 128.0
132.02063 144.0
132.059509 196.0
132.139587 204.0
132.308945 128.0
132.341003 140.0
132.433792 100.0
132.443619 124.0
132.450378 168.0
132.503616 108.0
132.528824 188.0
132.565491 180.0
132.769516 164.0
132.904861 184.0
133.027115 168.0
133.043625 192.0
133.070053 144.0
133.181763 156.0
133.190308 96.0
133.19986 188.0
133.384857 92.0
133.653946 88.0
133.769028 160.0
133.82428 64.0
133.962463 232.0
133.985504 164.0
134.036194 176.0
134.425903 140.0
134.451294 64.0
134.511292 156.0
134.527451 204.0
134.564392 404.0
134.730682 44.0
134.788452 180.0
134.841599 160.0
134.922501 108.0
135.026566 144.0
135.086319 192.0
135.438553 148.0
135.468674 176.0
135.545135 132.0
135.594406 128.0
135.637833 132.0
135.73764 176.0
135.814072 152.0
135.881332 64.0
135.987518 180.0
135.995392 136.0
136.002808 200.0
136.046616 376.0
136.10881 120.0
136.150604 64.0
136.271393 136.0
136.307663 112.0
136.36203 120.0
136.387604 212.0
136.455017 108.0
136.475937 224.0
136.575943 36.0
136.634094 232.0
136.69693 116.0
136.794678 88.0
136.953018 116.0
136.991852 220.0
137.03688 120.0
137.076492 160.0
137.123108 164.0
137.286301 184.0
137.360947 132.0
137.391266 188.0
137.505615 44.0
137.542953 160.0
137.74144 140.0
137.848907 164.0
137.907349 96.0
137.98175 164.0
138.06633 124.0
138.113953 176.0
138.136505 128.0
138.24646 172.0
138.276886 124.0
138.316681 112.0
138.344772 128.0
138.384567 124.0
138.496979 36.0
138.555542 184.0
138.639908 152.0
138.785248 124.0
138.825104 252.0
139.012787 124.0
139.047989 164.0
139.098541 216.0
139.122925 2816.0
139.400253 144.0
139.419052 76.0
139.501328 152.0
139.524033 164.0
139.609482 96.0
139.670334 188.0
139.814163 164.0
139.873001 152.0
139.913025 224.0
139.945984 28.0
140.018982 132.0
140.053223 172.0
140.106064 1492.0
140.128922 1036.0
140.195679 120.0
140.480972 88.0
140.594238 192.0
140.641434 48.0
140.69101 136.0
140.764206 52.0
140.842148 168.0
140.863403 208.0
140.960281 148.0
141.042999 180.0
141.061905 184.0
141.112045 564.0
141.134598 372.0
141.18959 168.0
141.255814 100.0
141.2901 196.0
141.314957 148.0
141.535095 152.0
141.658249 224.0
141.686676 208.0
141.923691 132.0
142.0233 52.0
142.121582 4712.0
142.205994 92.0
142.239227 64.0
142.310455 100.0
142.329453 380.0
142.354752 196.0
142.386444 200.0
142.425491 144.0
142.507599 200.0
142.569382 140.0
142.840424 116.0
142.971298 56.0
143.033173 160.0
143.123856 336.0
143.155334 220.0
143.280853 92.0
143.354706 220.0
143.607422 144.0
143.657516 48.0
143.683762 148.0
143.717163 136.0
143.812622 52.0
143.872299 136.0
144.039474 112.0
144.125473 180.0
144.460861 188.0
144.596588 156.0
144.637283 160.0
144.656433 56.0
144.682755 44.0
144.821655 236.0
144.893524 188.0
144.958206 204.0
144.978363 256.0
144.996552 116.0
145.130798 216.0
145.272308 116.0
145.308289 116.0
145.457077 208.0
145.476288 148.0
145.502701 164.0
145.541107 112.0
145.644379 40.0
145.858246 116.0
145.887085 40.0
145.971237 44.0
145.997696 120.0
146.047852 140.0
146.233475 148.0
146.33699 44.0
146.363464 164.0
146.418854 192.0
146.447769 220.0
146.558578 208.0
146.654984 148.0
146.804459 92.0
146.828568 92.0
146.857513 192.0
146.95401 184.0
146.985382 164.0
147.037613 168.0
147.121948 220.0
147.209885 108.0
147.231613 132.0
147.275085 124.0
147.294418 76.0
147.388367 144.0
147.425674 160.0
147.458725 192.0
147.536896 212.0
147.678741 204.0
147.741638 196.0
147.797287 68.0
147.828751 112.0
147.860214 60.0
147.896515 140.0
147.952194 152.0
148.041779 156.0
148.090225 104.0
148.128967 148.0
148.165314 156.0
148.240433 224.0
148.57019 128.0
148.592026 176.0
148.800751 76.0
148.905167 120.0
149.027252 756.0
149.307068 188.0
149.437546 96.0
149.465515 168.0
149.51416 168.0
149.57869 128.0
149.62738 156.0
149.715042 180.0
149.77594 112.0
149.805161 208.0
149.846588 204.0
149.902618 212.0
150.031815 176.0
150.134415 144.0
150.173248 88.0
150.261063 204.0
150.322067 176.0
150.419693 104.0
150.458755 256.0
150.485901 200.0
150.53688 180.0
150.617477 128.0
150.737198 184.0
150.756744 104.0
150.853912 180.0
150.89119 120.0
150.949875 160.0
151.001236 144.0
151.052505 4260.0
151.086838 52.0
151.124619 164.0
151.145569 124.0
151.225494 152.0
151.239868 60.0
151.303848 144.0
151.351181 96.0
151.395264 40.0
151.473633 208.0
151.65741 48.0
151.676712 128.0
151.865829 52.0
151.946777 148.0
151.966415 196.0
152.015488 176.0
152.053619 364.0
152.194687 68.0
152.242462 176.0
152.327301 168.0
152.397461 152.0
152.499313 112.0
152.573059 148.0
152.614853 188.0
152.641327 152.0
152.693542 164.0
152.755035 200.0
152.853455 144.0
152.873047 100.0
152.983902 84.0
153.05101 140.0
153.084854 60.0
153.119324 76.0
153.18338 184.0
153.244965 112.0
153.301636 104.0
153.363251 244.0
153.503784 136.0
153.533371 140.0
153.550644 112.0
153.970215 180.0
154.140671 156.0
154.19751 200.0
154.259308 104.0
154.296387 232.0
154.328247 172.0
154.412613 140.0
154.716965 104.0
154.801163 48.0
154.853165 72.0
154.949768 100.0
154.97374 172.0
155.078629 128.0
155.20755 156.0
155.267685 240.0
155.317703 164.0
155.353882 172.0
155.396057 108.0
155.440247 208.0
155.563034 172.0
155.813171 224.0
155.912567 140.0
155.976532 144.0
156.091553 140.0
156.213425 116.0
156.245758 124.0
156.317917 112.0
156.340317 80.0
156.393829 152.0
156.459793 152.0
156.514572 72.0
156.621658 172.0
156.739822 188.0
156.823486 168.0
156.940659 160.0
157.102783 160.0
157.21257 156.0
157.287445 156.0
157.312408 208.0
157.41478 176.0
157.509689 144.0
157.529663 172.0
157.564636 148.0
157.659592 152.0
157.709579 192.0
157.81958 156.0
157.852081 168.0
157.992157 140.0
158.014679 204.0
158.117264 112.0
158.174835 152.0
158.204681 148.0
158.285004 132.0
158.350113 196.0
158.368317 180.0
158.390182 128.0
158.427216 144.0
158.56308 96.0
158.635773 144.0
158.690201 224.0
158.738571 68.0
158.858017 176.0
158.876511 152.0
158.961823 156.0
159.034607 204.0
159.084808 116.0
159.107407 92.0
159.148941 508.0
159.232956 228.0
159.263107 132.0
159.31723 168.0
159.537003 136.0
159.675308 184.0
159.700455 140.0
159.71994 236.0
159.795502 184.0
159.934464 236.0
160.055313 184.0
160.075455 144.0
160.129822 200.0
160.312256 152.0
160.645081 76.0
160.686737 188.0
161.124344 176.0
161.220764 112.0
161.374954 180.0
161.412888 140.0
161.617783 164.0
161.653214 332.0
161.75444 180.0
161.807617 188.0
162.001312 240.0
162.035553 124.0
162.083694 168.0
162.13945 152.0
162.387909 140.0
162.428497 200.0
162.715271 132.0
162.865097 156.0
162.918442 168.0
163.055847 148.0
163.109039 204.0
163.20076 200.0
163.358246 172.0
163.409119 228.0
163.452377 192.0
163.53891 148.0
163.663651 120.0
163.686569 124.0
163.836853 208.0
163.882706 196.0
163.903091 208.0
164.051727 608.0
164.10701 132.0
164.136581 120.0
164.21666 104.0
164.247269 184.0
164.308502 64.0
164.515213 100.0
164.535645 160.0
164.62088 84.0
164.688858 184.0
164.754333 284.0
164.776566 84.0
164.834488 240.0
164.862595 132.0
164.96994 84.0
165.026199 112.0
165.068817 4092.0
165.229385 144.0
165.261505 64.0
165.305008 208.0
165.337357 156.0
165.406708 152.0
165.435547 96.0
165.476501 60.0
165.510696 304.0
165.648102 140.0
165.71727 124.0
165.781326 180.0
165.909485 92.0
166.06514 1036.0
166.14473 132.0
166.171082 200.0
166.266037 168.0
166.359665 220.0
166.402481 204.0
166.469131 144.0
166.515076 164.0
166.612686 64.0
166.669205 212.0
166.849121 132.0
166.872269 168.0
166.902023 216.0
166.998276 40.0
167.041412 208.0
167.051392 160.0
167.07695 192.0
167.175797 112.0
167.283905 96.0
167.394608 72.0
167.47702 156.0
167.562042 140.0
167.6548 120.0
167.815308 152.0
167.990005 92.0
168.069977 156.0
168.160309 192.0
168.403015 228.0
168.519257 136.0
168.552841 92.0
168.684662 108.0
168.759628 196.0
168.780319 116.0
168.834625 72.0
168.870834 68.0
169.040268 160.0
169.106293 160.0
169.215073 164.0
169.35144 152.0
169.388519 200.0
169.445526 204.0
169.839569 156.0
169.930359 120.0
170.215881 248.0
170.330154 132.0
170.532837 212.0
170.564026 100.0
170.629013 68.0
170.792847 76.0
171.050125 92.0
171.120758 176.0
171.204086 176.0
171.263977 136.0
171.467133 136.0
171.521942 204.0
171.581909 80.0
171.772278 76.0
171.821854 184.0
171.847946 180.0
171.889694 196.0
171.907959 104.0
171.967987 84.0
172.004532 220.0
172.033249 144.0
172.195129 152.0
172.28656 132.0
172.602814 124.0
172.669846 156.0
172.733582 164.0
172.819931 188.0
172.877487 88.0
173.04924 216.0
173.100006 144.0
173.12619 180.0
173.149765 148.0
173.192764 172.0
173.354111 104.0
173.574051 164.0
173.708069 140.0
173.794647 244.0
173.999374 164.0
174.062393 152.0
174.311142 184.0
174.362396 160.0
174.385529 228.0
174.406555 72.0
174.495941 40.0
174.53801 144.0
174.56694 104.0
174.587967 128.0
174.627014 208.0
174.790527 148.0
174.822113 100.0
174.885269 120.0
175.101181 116.0
175.271133 124.0
175.298767 108.0
175.354111 136.0
175.398911 168.0
175.420013 124.0
175.836761 120.0
175.863159 104.0
175.900116 76.0
175.96611 112.0
176.0242 308.0
176.064087 164.0
176.158905 204.0
176.206451 152.0
176.2276 156.0
176.30687 132.0
176.359726 144.0
176.402023 172.0
176.481339 124.0
176.5448 68.0
176.571259 112.0
176.608276 192.0
176.63063 168.0
176.663834 188.0
176.731537 88.0
176.788193 116.0
176.841125 164.0
176.886124 116.0
176.933868 188.0
176.966827 288.0
177.021439 31512.0
177.061401 252.0
177.12709 56.0
177.14563 40.0
177.165848 140.0
177.209213 80.0
177.241013 48.0
177.264862 52.0
177.342682 44.0
177.362534 108.0
177.423904 36.0
177.459366 80.0
177.518829 72.0
177.569748 44.0
177.588303 72.0
177.638702 120.0
177.684479 48.0
177.707397 112.0
177.758102 88.0
177.819977 64.0
177.882843 108.0
177.926071 188.0
178.0242 3352.0
178.061844 156.0
178.108566 72.0
178.129807 96.0
178.15538 212.0
178.201538 100.0
178.332718 88.0
178.359741 144.0
178.442841 76.0
178.493927 124.0
178.61792 220.0
178.642746 172.0
178.717361 40.0
178.741318 188.0
178.78389 204.0
178.87439 108.0
178.944183 56.0
178.967575 44.0
179.021225 368.0
179.071426 80.0
179.175323 140.0
179.203598 196.0
179.249924 180.0
179.273071 208.0
179.354736 184.0
179.388519 144.0
179.439178 168.0
179.521835 208.0
179.639191 72.0
179.70459 148.0
179.825974 40.0
179.938095 84.0
180.023544 240.0
180.130371 160.0
180.16777 160.0
180.304062 72.0
180.419144 144.0
180.486816 196.0
180.761353 156.0
180.788116 108.0
180.838974 192.0
180.860382 180.0
180.943375 208.0
181.010315 188.0
181.034409 144.0
181.063873 216.0
181.125473 124.0
181.235321 140.0
181.299637 344.0
181.329117 160.0
181.355911 108.0
181.420242 72.0
181.479233 160.0
181.650879 164.0
181.712585 88.0
181.84407 64.0
182.015884 192.0
182.139435 128.0
182.257645 188.0
182.285339 172.0
182.381546 152.0
182.410828 208.0
182.475357 156.0
182.685135 204.0
182.773911 132.0
182.986557 112.0
183.051178 204.0
183.110428 216.0
183.207397 108.0
183.25589 40.0
183.358292 180.0
183.544312 216.0
183.573975 160.0
183.596817 232.0
183.708832 28.0
183.795166 100.0
183.878311 84.0
183.889267 152.0
183.898514 216.0
183.951706 64.0
184.065094 52.0
184.20015 64.0
184.410904 136.0
184.429825 144.0
184.455673 184.0
184.483887 188.0
184.813858 164.0
184.838211 212.0
184.988098 220.0
185.252457 172.0
185.591064 184.0
185.650894 76.0
185.786514 116.0
185.964264 176.0
186.041611 148.0
186.108887 204.0
186.302322 200.0
186.511566 140.0
186.576813 204.0
186.614883 200.0
186.671982 196.0
186.797089 72.0
186.818863 160.0
186.976669 208.0
187.031113 116.0
187.218979 200.0
187.314301 112.0
187.36879 144.0
187.914078 28.0
187.971375 44.0
188.009583 140.0
188.064178 172.0
188.285324 144.0
188.400055 108.0
188.509338 128.0
188.536667 160.0
188.564163 136.0
188.599533 124.0
188.618668 68.0
188.771774 104.0
188.89212 104.0
188.971466 96.0
189.04808 40.0
189.116501 48.0
189.239685 176.0
189.423187 168.0
189.540985 104.0
189.584839 124.0
189.631424 160.0
189.658844 128.0
189.721893 172.0
189.752045 100.0
189.861725 212.0
190.119614 124.0
190.243134 140.0
190.262344 136.0
190.28157 80.0
190.303528 148.0
190.328247 188.0
190.38591 144.0
190.657898 120.0
190.734848 108.0
190.85582 156.0
190.888824 152.0
191.04834 176.0
191.080643 452.0
191.161163 112.0
191.301529 124.0
191.345581 140.0
191.373215 60.0
191.422684 304.0
191.461227 192.0
191.510803 124.0
191.611526 188.0
191.640289 140.0
191.666229 192.0
191.687134 88.0
191.713028 172.0
191.778076 64.0
191.813904 132.0
191.838486 164.0
191.866287 104.0
191.902512 228.0
191.953064 220.0
191.979614 160.0
192.011154 276.0
192.045364 73724.0
192.088058 172.0
192.137756 204.0
192.191895 72.0
192.227615 72.0
192.258896 224.0
192.310013 136.0
192.335175 260.0
192.375244 124.0
192.40921 152.0
192.441299 68.0
192.481659 172.0
192.522461 20.0
192.559647 60.0
192.62796 32.0
192.661118 124.0
192.691498 56.0
192.710846 80.0
192.744003 44.0
192.790985 48.0
192.958252 132.0
193.012283 148.0
193.048035 6300.0
193.095688 80.0
193.153183 68.0
193.197449 48.0
193.230957 96.0
193.294281 64.0
193.314835 188.0
193.380081 68.0
193.419983 124.0
193.450974 72.0
193.504654 80.0
193.565567 72.0
193.593262 60.0
193.61264 92.0
193.704041 72.0
193.73175 56.0
193.772202 80.0
193.795471 56.0
193.837036 56.0
193.885071 48.0
193.95343 84.0
194.0466 708.0
194.086517 144.0
194.175476 52.0
194.221176 144.0
194.250153 88.0
194.300079 92.0
194.322281 64.0
194.348083 160.0
194.38887 140.0
194.424789 68.0
194.462097 176.0
194.493164 160.0
194.562042 72.0
194.599838 76.0
194.6353 196.0
194.7043 168.0
194.764938 72.0
194.802567 56.0
194.835907 40.0
194.883133 40.0
194.935928 120.0
195.032028 4788.0
195.141632 160.0
195.219482 152.0
195.291794 156.0
195.386383 36.0
195.458725 104.0
195.564484 36.0
195.615753 60.0
195.712021 204.0
195.770508 140.0
196.035477 704.0
196.166153 120.0
196.205185 168.0
196.23027 68.0
196.286041 64.0
196.311142 168.0
196.374786 176.0
196.56778 80.0
196.618011 120.0
196.774338 188.0
197.050842 180.0
197.232498 108.0
197.33873 148.0
197.39537 172.0
197.481354 36.0
197.593246 160.0
197.640808 148.0
197.775543 56.0
197.882309 172.0
198.055145 168.0
198.136383 188.0
198.439087 196.0
198.570877 180.0
198.655029 168.0
198.857071 144.0
198.930847 184.0
199.168732 100.0
199.455353 36.0
199.764679 152.0
199.843445 100.0
199.896912 132.0
199.939133 140.0
200.189682 116.0
200.29953 200.0
200.561584 140.0
200.618301 164.0
200.651794 144.0
200.708191 164.0
200.755417 160.0
200.812531 176.0
200.849197 140.0
200.928192 160.0
201.34314 148.0
201.393967 196.0
201.639786 192.0
201.668045 56.0
201.693497 184.0
201.820709 128.0
201.950806 140.0
202.104828 152.0
202.22525 108.0
202.361572 200.0
202.556549 192.0
202.624542 172.0
203.040115 232.0
203.188736 44.0
203.912857 112.0
203.961166 120.0
204.015182 116.0
204.049301 176.0
204.071213 164.0
204.083023 116.0
204.086884 148.0
204.339401 116.0
204.467453 136.0
204.589859 96.0
205.048462 132.0
205.076965 180.0
205.219498 112.0
205.344986 188.0
205.481903 96.0
205.707367 168.0
206.075775 52.0
206.15007 136.0
206.184372 132.0
206.221527 60.0
206.561798 152.0
206.896622 168.0
206.922379 120.0
206.968201 164.0
207.0784 208.0
207.086533 100.0
207.10083 140.0
207.14003 148.0
207.283295 228.0
207.317673 156.0
207.366394 144.0
207.501129 100.0
207.612961 104.0
207.713348 76.0
207.819504 148.0
207.908463 152.0
207.977341 40.0
208.008911 180.0
208.040497 268.0
208.07782 100.0
208.14386 140.0
208.399506 144.0
208.494324 124.0
208.695557 128.0
209.109802 136.0
209.273895 60.0
209.311325 132.0
209.345886 236.0
209.366043 68.0
209.420761 116.0
209.602264 56.0
209.65126 200.0
209.783844 148.0
209.977036 200.0
210.008759 192.0
210.05632 960.0
210.173203 180.0
210.490723 64.0
210.551376 168.0
210.742035 148.0
210.90097 120.0
211.181442 172.0
211.230621 52.0
211.346344 156.0
211.464996 140.0
211.50618 192.0
211.632904 124.0
211.690811 144.0
211.725571 168.0
211.80957 88.0
211.850113 56.0
212.08194 156.0
212.226898 120.0
212.25589 108.0
212.386398 176.0
212.430847 112.0
212.714294 160.0
213.086029 56.0
213.335968 64.0
213.388306 104.0
213.542419 136.0
213.74025 104.0
214.259949 180.0
214.468338 128.0
214.945206 152.0
214.990402 48.0
215.206421 172.0
215.294022 152.0
215.431305 144.0
215.667999 128.0
215.697235 156.0
215.735229 96.0
215.834641 172.0
215.858032 136.0
215.980865 120.0
216.084839 156.0
216.197388 96.0
216.364227 136.0
216.421921 148.0
216.452072 48.0
216.484283 168.0
216.551636 224.0
217.020523 132.0
217.075058 240.0
217.097626 576.0
217.140762 164.0
217.187683 52.0
217.258087 156.0
217.422409 64.0
217.442947 52.0
217.557434 92.0
217.604401 132.0
217.726044 132.0
217.765915 100.0
217.839355 116.0
217.886353 200.0
217.996002 140.0
218.104019 176.0
218.116348 152.0
218.162613 112.0
218.255844 152.0
218.335312 180.0
218.417725 236.0
218.469345 228.0
218.491241 124.0
218.547073 200.0
218.571442 180.0
218.592041 164.0
218.651581 188.0
218.680252 160.0
218.701233 176.0
218.729355 116.0
218.766083 152.0
218.777542 156.0
218.803726 100.0
218.816147 148.0
218.882721 188.0
218.921829 144.0
218.953033 180.0
218.978867 180.0
219.028336 364.0
219.116394 179120.0
219.171127 284.0
219.193588 296.0
219.219193 104.0
219.273987 188.0
219.302994 112.0
219.316376 144.0
219.342651 200.0
219.379578 356.0
219.421173 228.0
219.463333 100.0
219.474182 80.0
219.496002 192.0
219.526855 152.0
219.539093 108.0
219.546524 140.0
219.601624 1100.0
219.682571 120.0
219.738251 88.0
219.788254 96.0
219.815155 312.0
219.846725 168.0
219.883926 284.0
219.915604 200.0
219.955429 88.0
220.023514 180.0
220.060059 92.0
220.118622 24960.0
220.183273 232.0
220.227127 72.0
220.251144 60.0
220.300095 52.0
220.336609 92.0
220.371826 96.0
220.415543 136.0
220.470566 96.0
220.507294 112.0
220.583252 268.0
220.628845 176.0
220.707062 40.0
220.732315 148.0
220.757324 152.0
220.799866 96.0
220.833557 88.0
220.894318 116.0
220.974228 124.0
221.039291 76.0
221.112045 9792.0
221.179016 76.0
221.206604 180.0
221.297546 52.0
221.327499 100.0
221.353088 100.0
221.413681 92.0
221.421143 120.0
221.477188 124.0
221.499542 120.0
221.510315 108.0
221.544662 92.0
221.572205 176.0
221.620087 108.0
221.682632 260.0
221.719299 332.0
221.740219 76.0
221.766144 128.0
221.795059 312.0
221.850266 208.0
221.889786 68.0
221.932922 100.0
221.96553 64.0
222.029526 112.0
222.0634 144.0
222.114243 524.0
222.14917 48.0
222.161011 84.0
222.187988 108.0
222.217651 44.0
222.24733 104.0
222.320007 196.0
222.342285 180.0
222.420227 160.0
222.443207 88.0
222.466965 128.0
222.502182 88.0
222.570877 176.0
222.630264 88.0
222.672043 96.0
222.698578 48.0
222.734222 52.0
222.75502 64.0
222.784714 44.0
222.859467 76.0
222.900589 32.0
222.976379 104.0
223.007584 52.0
223.037308 112.0
223.064056 72.0
223.120544 204.0
223.16217 44.0
223.254349 64.0
223.298965 36.0
223.337631 40.0
223.391174 56.0
223.5578 72.0
223.597839 88.0
223.685776 104.0
223.882294 64.0
223.909103 40.0
224.204041 68.0
224.496201 40.0
224.552872 56.0
224.597107 72.0
224.654282 80.0
224.851227 56.0
224.98555 56.0
225.382782 128.0
225.415665 128.0
225.834213 60.0
225.988052 104.0
226.016708 160.0
226.304047 44.0
227.242203 48.0
227.590378 92.0
227.789948 80.0
227.875717 84.0
228.22438 128.0
228.368729 116.0
228.693695 68.0
229.482971 48.0
229.576447 112.0
229.751404 164.0
230.186035 108.0
230.44278 92.0
231.362213 88.0
231.768066 52.0
231.901413 140.0
231.931732 88.0
231.974167 92.0
232.022675 140.0
232.107574 76.0
232.150024 100.0
232.714432 48.0
232.823746 112.0
232.866272 120.0
232.905746 124.0
233.024231 60.0
233.135376 104.0
233.352478 36.0
233.52887 168.0
233.650543 116.0
234.225906 80.0
234.933136 148.0
234.954498 100.0
235.11055 1676.0
235.671997 56.0
235.999054 140.0
236.069382 104.0
236.11557 252.0
236.185608 128.0
236.225372 140.0
236.381409 72.0
236.402832 348.0
236.44873 104.0
236.494644 40.0
236.580353 176.0
236.669144 96.0
236.846771 144.0
236.891357 180.0
236.975449 116.0
237.036728 68.0
237.058182 148.0
237.126328 29940.0
237.193832 124.0
237.242081 40.0
237.28746 40.0
237.298416 32.0
237.352966 96.0
237.402954 60.0
237.426056 120.0
237.486465 144.0
237.591705 96.0
237.636292 32.0
237.665619 88.0
237.699097 72.0
237.757401 28.0
237.812637 80.0
237.858688 108.0
238.006058 88.0
238.082291 92.0
238.090271 160.0
238.12796 4008.0
238.230469 60.0
238.276337 152.0
238.297852 44.0
238.334717 108.0
238.399246 124.0
238.509903 36.0
238.580597 64.0
238.838913 176.0
239.126099 2428.0
239.205093 76.0
239.392914 60.0
239.559235 60.0
239.601196 112.0
239.633179 48.0
239.790329 136.0
239.8293 100.0
239.888977 32.0
239.910553 116.0
239.931808 112.0
240.128769 120.0
240.19426 52.0
240.222031 136.0
240.299149 40.0
240.546051 64.0
240.888824 40.0
240.920532 120.0
241.123657 168.0
241.355499 88.0
241.446823 76.0
242.779984 84.0
242.835815 116.0
243.231003 92.0
243.472061 136.0
243.552811 36.0
243.593201 44.0
246.231461 36.0
248.181061 60.0
248.924744 100.0
249.886597 72.0
249.908615 116.0
251.642166 108.0
252.055939 76.0
253.438736 108.0
255.314835 96.0
255.518417 100.0
257.513947 92.0
260.547516 124.0
260.711395 56.0
265.369446 56.0
265.479706 144.0
267.289124 96.0
267.676483 124.0
268.478149 148.0
271.263947 144.0
272.619507 120.0
273.731415 96.0
274.61795 148.0
277.100586 188.0
278.985687 72.0
279.491241 84.0
280.820465 136.0
283.106506 124.0
283.320862 48.0
284.716278 156.0
284.78009 76.0
285.005157 80.0
285.317749 48.0
285.421967 56.0
288.960236 256.0
289.142975 36.0
290.783356 104.0
292.390961 88.0
294.416046 148.0
295.373077 100.0
298.157227 32.0
298.408173 76.0
298.463165 128.0
298.707367 60.0
298.734894 80.0
302.219513 56.0
304.120087 604.0
304.313049 188.0
304.413727 144.0
305.132507 136.0
305.797424 136.0
306.145569 160.0
306.354584 44.0
308.011566 100.0
316.009705 124.0
316.257416 60.0
317.926758 140.0
318.136017 1472.0
319.027863 40.0
319.139709 648.0
319.500854 80.0
319.838928 120.0
320.084595 92.0
320.284027 104.0
320.626068 100.0
321.132355 104.0
321.239349 36.0
321.292877 112.0
321.724701 64.0
333.162933 1080.0
333.203003 76.0
334.162445 468.0
334.191956 48.0
335.15686 144.0
336.937408 68.0
337.079895 88.0
337.45639 76.0
338.349121 92.0
338.931488 88.0
339.470337 140.0
340.343689 108.0
342.502502 148.0
346.707184 68.0
348.737366 124.0
350.069275 108.0
351.310455 100.0
351.989746 56.0
352.789307 52.0
354.58606 68.0
355.726318 164.0
356.255829 152.0
356.417389 72.0
360.865143 28.0
361.103394 92.0
361.413605 100.0
361.633087 48.0
365.325256 76.0
365.842834 72.0
368.268066 40.0
368.738007 52.0
372.385529 28.0
373.065674 112.0
373.107971 124.0
374.027374 76.0
374.693604 112.0
378.200043 80.0
378.463318 100.0
382.28302 104.0
383.011078 148.0
384.430267 68.0
385.71524 116.0
385.840332 44.0
386.028015 92.0
386.360504 44.0
392.156555 116.0
393.253052 72.0
393.296478 48.0
393.675507 124.0
394.81366 124.0
395.312134 132.0
398.055328 60.0
398.432678 152.0
399.70105 164.0
400.644684 60.0
402.647095 80.0
405.395569 88.0
407.273224 76.0
408.792969 36.0
410.073669 60.0
411.009277 68.0
412.265167 44.0
412.645142 100.0
412.738129 76.0
412.810913 68.0
413.140472 2492.0
413.235657 84.0
413.41272 64.0
413.567474 92.0
413.97641 260.0
414.147949 692.0
414.482758 40.0
414.620544 116.0
414.661072 48.0
414.786743 56.0
414.831329 36.0
414.89212 184.0
415.062408 52.0
415.106689 132.0
415.137939 256.0
415.28952 60.0
415.484253 64.0
416.129578 152.0
416.584442 32.0
416.641296 64.0
416.767242 112.0
417.169617 56.0
417.466431 84.0
417.779633 40.0
418.45929 60.0
421.870026 56.0
422.651215 44.0
423.03183 120.0
423.24472 68.0
426.346008 152.0
426.526855 132.0
426.588531 72.0
427.374054 100.0
428.162903 3240.0
428.280029 68.0
428.580505 36.0
428.92984 84.0
429.017395 72.0
429.079224 72.0
429.168854 1328.0
429.231812 232.0
430.110565 92.0
430.157715 200.0
430.171875 188.0
430.645111 44.0
430.67926 72.0
431.077026 72.0
432.14386 92.0
433.613953 32.0
440.650787 120.0
442.759064 48.0
449.130951 100.0
452.41861 56.0
458.228607 116.0
458.539673 72.0
460.182037 52.0
464.371552 44.0
465.500275 52.0
467.034607 76.0
473.197113 108.0
474.228149 68.0
474.353851 60.0
478.581116 80.0
485.406555 128.0
486.02066 60.0
491.040161 56.0
494.81839 28.0
503.096649 88.0
506.656525 96.0
507.768219 88.0
508.055298 92.0
513.065308 116.0
517.479431 104.0
518.285645 76.0
520.694519 60.0
523.373047 60.0
530.775574 76.0
541.51355 80.0
545.504089 68.0
552.34967 108.0
552.822266 68.0
555.952759 80.0
564.375488 148.0
564.545715 76.0
566.07428 120.0
569.564941 64.0
574.248657 72.0
575.016846 76.0
578.290833 36.0
584.231506 52.0
589.893127 88.0
591.683105 60.0
602.142883 36.0
623.615723 64.0
623.77478 140.0
623.99353 84.0
627.23938 80.0
650.653198 116.0
651.323547 52.0
653.947205 64.0
658.081604 44.0
660.319885 120.0
669.362488 204.0
675.276794 68.0
679.540161 92.0
680.811951 116.0
680.962524 64.0
681.149536 32.0
693.076172 44.0
700.078552 104.0
704.931885 196.0
723.891724 68.0
735.06781 80.0
735.866638 172.0
747.167114 132.0
749.655457 40.0
752.677551 116.0
756.356995 104.0
768.916504 72.0
773.050354 108.0
788.270996 132.0
788.924927 148.0
798.631775 100.0
804.006775 44.0
814.214539 56.0
817.5802 212.0
818.069702 84.0
819.032043 204.0
821.30072 204.0
830.567261 64.0
831.037659 60.0
832.472717 124.0
833.457825 116.0
834.449402 88.0
841.853882 124.0
843.627747 176.0
844.500916 216.0
846.68866 120.0
848.363281 164.0
852.809753 184.0
866.570557 92.0
873.915833 92.0
892.911194 56.0
897.138916 168.0
901.639587 112.0
910.782837 56.0
912.339233 96.0
912.459473 224.0
912.627869 56.0
913.036743 208.0
915.949951 88.0
924.668884 164.0
925.897949 188.0
929.298706 84.0
936.125 120.0
937.806519 196.0
938.489258 172.0
947.933472 160.0
949.68689 164.0
954.188171 176.0
954.593994 212.0
956.150452 36.0
965.664307 148.0
968.499146 148.0
969.124878 76.0
981.662781 100.0
982.848022 104.0
994.023987 208.0
995.806946 232.0
1002.022156 212.0
1002.469482 100.0
1004.045593 276.0
1005.288391 216.0
1007.890076 20.0
1008.532349 244.0
1010.621704 152.0
1011.646973 84.0
1012.159851 148.0
1012.520813 184.0
1017.90332 184.0
1020.828125 140.0
1022.329468 160.0
1022.399475 40.0
1022.50769 232.0
1023.870117 128.0
1026.329956 212.0
1033.535156 224.0
1035.372437 224.0
1037.679321 200.0
1046.346436 112.0
1048.439941 136.0
1050.535522 244.0
1051.852051 64.0
1052.349121 108.0
1052.826904 116.0
1054.59729 220.0
1054.726562 60.0
1056.543701 160.0
1057.747437 96.0
1060.202148 160.0
1061.09668 168.0
1065.951904 92.0
1069.483398 212.0
1071.867065 160.0
1073.294556 180.0
1073.353271 204.0
1073.542358 220.0
1073.607666 128.0
1076.172119 188.0
1077.831299 148.0
1078.164551 44.0
1078.445557 124.0
1078.824707 172.0
1085.509766 136.0
1085.706543 184.0
1085.896729 204.0
1088.672852 216.0
1088.837036 136.0
1091.104126 140.0
1092.577271 236.0
1102.401978 176.0
1103.366943 148.0
1103.63147 164.0
1104.167114 164.0
1105.536621 216.0
1105.927124 228.0
1107.264526 96.0
1109.139648 224.0
1112.137817 256.0
1112.489624 144.0
1116.177124 172.0
1117.201416 244.0
1119.151489 228.0
1120.803467 192.0
1126.020264 84.0
1129.944214 160.0
1133.345581 204.0
1136.939941 144.0
1137.866211 68.0
1139.63269 84.0
1139.982178 112.0
1144.670898 64.0
1148.789062 188.0
1149.963135 176.0
1150.368164 192.0
1150.773315 224.0
1154.354614 152.0
1156.925781 160.0
1159.303223 224.0
1159.757324 200.0
1160.116577 124.0
1160.604736 232.0
1160.665771 276.0
1160.923462 188.0
1161.208252 172.0
1161.669556 128.0
1164.6427 304.0
1164.765015 220.0
1165.988037 92.0
1167.973389 132.0
1168.599365 36.0
1169.531616 144.0
1171.574585 104.0
1173.298828 72.0
1173.782959 88.0
1174.048828 152.0
1174.533081 116.0
1174.962891 180.0
1177.051514 192.0
1177.618408 60.0
1179.100952 52.0
1180.878662 160.0
1181.507935 120.0
1181.651611 104.0
1183.520264 192.0
1183.910522 184.0
1184.691406 140.0
1185.698608 248.0
1186.726929 132.0
1186.81604 212.0
1191.359619 124.0
1193.222168 100.0
1193.724121 172.0
1194.061035 120.0
1194.528809 116.0
1194.714478 136.0
1195.017212 204.0
1195.340698 148.0
1196.159668 176.0
1197.46106 200.0
1199.376587 192.0
1199.907349 180.0
1200.348633 156.0
1200.914185 136.0
1203.020264 188.0
1203.799072 92.0
1204.558838 176.0
1205.927002 124.0
1207.773193 88.0
1210.091431 192.0
1210.818604 144.0
1210.894775 180.0
1211.109497 208.0
1211.261841 100.0
1211.567505 108.0
1212.481323 92.0
1215.505005 176.0
1216.664062 112.0
1216.893188 216.0
1217.441772 144.0
1219.686035 120.0
1221.020996 156.0
1222.363647 192.0
1223.584717 212.0
1224.271118 156.0
1225.747925 164.0
1225.796753 184.0
1226.131226 148.0
1227.016479 96.0
1227.079224 196.0
1227.330322 168.0
1228.179077 192.0
1229.053223 212.0
1229.422974 224.0
1231.922729 80.0
1233.27832 180.0
1234.25708 156.0
1236.187866 204.0
1236.712769 252.0
1236.992676 132.0
1237.321777 148.0
1237.769897 248.0
1237.825928 152.0
1238.000977 156.0
1238.162109 176.0
1238.897583 124.0
1239.829468 128.0
1240.060791 172.0
1241.308716 132.0
1242.858887 112.0
1243.680054 128.0
1244.810425 96.0
1245.899048 160.0
1247.796631 200.0
1248.739014 144.0
1250.223511 124.0
1250.737305 128.0
1251.286377 68.0
1252.680786 120.0
1255.451172 152.0
1258.16748 168.0
1258.372192 132.0
1258.661743 156.0
1259.947144 164.0
1260.081421 184.0
1261.911987 76.0
1262.77478 156.0
1263.241577 136.0
1263.432617 272.0
1263.682983 228.0
1263.899536 196.0
1264.253418 40.0
1265.187744 132.0
1265.272705 224.0
1265.782471 132.0
1266.561523 128.0
1266.986572 184.0
1267.964478 152.0
1268.815063 192.0
1272.412109 52.0
1272.547119 184.0
1273.555542 136.0
1273.99585 160.0
1274.372437 172.0
1274.663818 224.0
1275.310547 148.0
1276.533325 164.0
1278.397217 88.0
1278.866943 112.0
1279.044922 176.0
1280.283813 164.0
1280.639893 156.0
1284.703003 104.0
1285.616333 200.0
1285.744873 84.0
1286.568726 144.0
1286.808472 168.0
1287.622559 48.0
1287.736816 204.0
1287.836792 208.0
1288.479736 108.0
1288.958496 88.0
1290.397095 132.0
1292.140259 168.0
1293.385498 120.0
1294.960815 140.0
1295.348511 184.0
1296.45813 204.0
1297.117554 236.0
1297.253784 204.0
1297.418701 244.0
1300.237671 164.0
1300.39563 64.0
1301.156494 164.0
1301.450928 224.0
1302.327026 208.0
1302.442017 180.0
1302.686157 132.0
1304.310181 112.0
1305.093872 188.0
1306.553955 200.0
1306.877686 208.0
1307.050415 224.0
1308.619507 232.0
1309.454834 136.0
1310.117554 144.0
1310.189697 184.0
1311.234497 112.0
1311.357056 104.0
1312.034668 156.0
1312.524902 180.0
1318.87085 36.0
1319.044434 124.0
1319.702271 160.0
1319.854126 176.0
1321.344116 220.0
1323.030396 140.0
1324.319336 152.0
1325.81189 136.0
1326.979004 156.0
1327.116699 128.0
1327.327026 220.0
1329.046143 120.0
1329.41626 168.0
1329.51062 144.0
1330.889893 128.0
1331.122192 188.0
1333.345215 168.0
1334.217529 104.0
1335.482788 160.0
1335.773804 176.0
1336.064819 184.0
1337.556641 192.0
1338.575928 184.0
1338.867188 36.0
1338.95459 192.0
1339.126831 156.0
1339.391602 172.0
1339.748535 208.0
1341.162231 132.0
1341.380981 160.0
1342.124634 188.0
1342.212158 168.0
1343.14563 140.0
1343.459351 140.0
1344.349487 84.0
1344.444336 184.0
1344.72168 272.0
1345.378662 120.0
1345.670776 132.0
1347.796265 240.0
1349.192261 144.0
1349.49939 188.0
1350.96936 148.0
1351.37915 172.0
1351.862061 168.0
1352.162109 196.0
1353.399292 180.0
1353.511597 244.0
1353.567749 92.0
1354.849487 188.0
1355.377075 124.0
1355.450317 152.0
1355.765381 160.0
1356.249146 180.0
1356.491089 144.0
1356.835571 52.0
1357.004272 176.0
1357.260864 124.0
1357.385498 156.0
1357.642212 148.0
1357.77417 160.0
1358.162964 100.0
1359.615723 112.0
1359.887207 88.0
1360.599365 144.0
1362.398682 140.0
1364.213867 256.0
1364.368164 120.0
1364.831421 116.0
1365.228516 168.0
1365.772827 256.0
1366.044922 136.0
1369.210083 144.0
1370.189697 120.0
1370.418213 144.0
1370.690796 196.0
1370.94873 84.0
1371.309814 100.0
1371.516602 180.0
1371.892212 120.0
1373.344849 212.0
1374.119507 60.0
1374.333496 96.0
1375.233765 164.0
1376.422363 164.0
1377.641113 120.0
1378.032593 32.0
1379.030273 128.0
1379.518188 168.0
1380.398071 192.0
1380.568115 172.0
1381.94397 160.0
1383.328003 80.0
1383.609253 180.0
1384.314575 180.0
1385.571899 208.0
1387.194946 140.0
1387.624878 152.0
1388.284912 156.0
1390.466064 180.0
1390.72583 132.0
1390.792603 104.0
1391.483032 204.0
1391.750366 56.0
1392.099365 100.0
1392.299805 68.0
1393.087158 60.0
1393.168945 160.0
1393.83606 160.0
1394.216553 156.0
1394.320679 180.0
1394.40979 72.0
1394.625366 168.0
1395.658813 56.0
1395.848511 136.0
1396.134644 160.0
1397.421631 112.0
1397.659668 172.0
1398.031738 160.0
1398.299683 172.0
1398.50061 164.0
1398.627197 212.0
1398.694214 172.0
1398.91748 180.0
1399.632202 144.0
1400.30249 100.0
1400.429077 188.0
1402.090576 48.0
1403.074585 112.0
1403.477173 180.0
1403.730713 232.0
1404.56604 152.0
1405.655273 228.0
1405.804565 64.0
1406.797241 192.0
1407.372192 204.0
1408.06665 148.0
1408.328125 120.0
1408.79126 232.0
1408.978027 184.0
1409.196655 180.0
1409.971802 172.0
1410.480103 140.0
1410.99585 152.0
1411.504395 204.0
1412.835693 300.0
1412.985352 208.0
1413.808472 184.0
1414.878906 180.0
1416.024536 172.0
1416.174316 176.0
1416.67627 176.0
1418.047485 72.0
1418.130005 248.0
1419.022095 128.0
1419.771973 196.0
1420.349487 244.0
1420.74707 196.0
1420.844604 176.0
1421.122192 220.0
1421.692505 216.0
1422.998657 144.0
1423.253906 40.0
1423.599365 108.0
1423.681885 216.0
1425.199341 236.0
1425.725342 116.0
1426.251221 192.0
1426.582275 148.0
1428.642822 220.0
1428.883545 132.0
1429.237183 204.0
1429.651123 172.0
1431.427734 192.0
1432.007568 184.0
1433.73291 144.0
1433.913818 192.0
1434.464111 180.0
1434.856079 212.0
1435.534668 220.0
1436.394531 160.0
1436.718994 156.0
1436.952759 144.0
1437.201782 108.0
1437.496094 132.0
1438.077271 204.0
1438.409302 148.0
1439.602295 180.0
1439.813721 80.0
1441.558838 136.0
1441.641968 52.0
1442.418335 204.0
1443.221924 144.0
1444.537842 156.0
1445.809082 152.0
1446.876343 180.0
1447.156494 208.0
1447.966797 184.0
1448.853027 272.0
1448.940063 244.0
1449.489502 144.0
1449.671387 88.0
1449.929077 132.0
1450.095825 228.0
1450.307983 172.0
1450.368652 132.0
1450.85376 168.0
1451.088867 204.0
1451.93811 152.0
1452.347778 116.0
1453.220093 148.0
1454.388916 144.0
1454.586182 156.0
1454.654541 268.0
1455.550415 120.0
1455.671997 36.0
1456.492188 156.0
1457.023926 168.0
1457.115112 72.0
1457.662231 168.0
1458.011841 148.0
1458.729614 164.0
1459.555054 164.0
1459.623413 204.0
1460.155762 64.0
1460.680664 200.0
1461.022949 124.0
1461.152344 184.0
1461.289185 172.0
1461.448975 176.0
1461.585938 136.0
1462.263306 216.0
1463.534668 136.0
1463.839233 160.0
1464.227661 192.0
1464.357056 160.0
1465.103638 180.0
1465.294067 132.0
1466.322754 172.0
1466.68103 136.0
1467.321411 92.0
1468.076294 184.0
1468.366089 256.0
1469.106079 68.0
1469.922363 168.0
1470.372681 96.0
1470.632202 120.0
1470.929932 208.0
1471.151245 140.0
1471.624634 192.0
1473.50354 172.0
1474.626831 204.0
1474.749146 116.0
1475.78125 156.0
1475.857666 192.0
1476.247681 180.0
1476.454102 196.0
1476.522949 136.0
1477.448486 100.0
1478.37439 108.0
1478.473877 172.0
1479.430664 152.0
1480.004883 180.0
1480.150391 136.0
1480.571533 108.0
1481.789551 160.0
1482.014893 52.0
1482.402588 200.0
1483.107666 184.0
1483.195679 192.0
1483.308594 224.0
1483.506226 148.0
1483.766968 208.0
1484.687134 208.0
1485.737915 180.0
1486.229004 148.0
1486.781494 92.0
1486.927368 116.0
1488.862061 112.0
1488.946533 136.0
1489.699341 120.0
1489.768433 180.0
1489.876953 204.0
1490.214111 212.0
1490.306274 132.0
1490.728882 224.0
1490.867188 156.0
1490.974854 160.0
1491.758789 88.0
1492.650757 208.0
1492.873657 128.0
1493.296753 252.0
1493.773682 136.0
1494.073608 188.0
1494.504517 164.0
1494.673828 160.0
1496.729004 204.0
1497.468384 204.0
1498.847412 120.0
1498.901367 100.0
1500.018921 152.0
1500.604736 192.0
1501.12146 176.0
1501.530151 176.0
1501.846436 152.0
1502.571533 164.0
1502.99585 220.0
1503.327759 128.0
1504.006958 140.0
1504.161255 232.0
1504.45459 184.0
1504.917847 168.0
