>compound Epigallocatechin gallate
>formula C22H18O11
>ionization [M+H]+
>parentmass 459.093323
#inchi InChI=1S/C22H18O11/c23-10-5-12(24)11-7-18(33-22(31)9-3-15(27)20(30)16(28)4-9)21(32-17(11)6-10)8-1-13(25)19(29)14(26)2-8/h1-6,18,21,23-30H,7H2/t18-,21-/m1/s1
#inchikey WMBWREPUVVBILR
#Ion_Source LC-ESI
#Instrument qTof
#Compound_Source Commercial
#PI Dorrestein
#Data_Collector Garg_Neha
#Scan -1
#Precursor_MZ 459.092
#ExactMass 458.085
#Charge 1
#CAS_Number N/A
#Pubmed_ID N/A
#Smiles Oc1cc(O)c2C[C@@H](OC(=O)c3cc(O)c(O)c(O)c3)[C@H](Oc2c1)c4cc(O)c(O)c(O)c4
#INCHI_AUX N/A
#Library_Class 1
#SpectrumID CCMSLIB00000079199
#IonMode Positive
#UpdateWorkflowName UPDATE-SINGLE-ANNOTATED-GOLD
#LibraryQualityString Gold
#TaskID 278b19f5865741e282cec7349aa7e7a1
##Scan# 1039
#SpectrumFile NCP003592_G2_H11_BE3_01_15737.mzXML
#LibraryName NIHcollectionI_05062014.mgf
#MQScore -1
#Organism NIHcollectionI_05062014
#TIC_Query 0
#RT_Query -1
#MZErrorPPM -1
#SharedPeaks 0
#MassDiff 0
#LibMZ -1
#SpecMZ 459.092
#SpecCharge 0
#internalFilename spec-00000.mgf

>collision 10
45.813705 152.0
46.459911 168.0
53.422241 184.0
53.45425 180.0
58.438667 200.0
59.422615 176.0
62.53545 156.0
62.983242 144.0
66.181946 176.0
67.266335 188.0
69.254341 180.0
70.58239 180.0
71.098343 156.0
74.087822 140.0
74.393074 172.0
76.361206 148.0
78.674232 176.0
78.987015 168.0
80.94117 240.0
81.515182 164.0
82.781532 140.0
88.290146 196.0
88.801437 168.0
90.772194 152.0
90.950531 160.0
92.622787 244.0
94.986046 228.0
99.841644 152.0
100.602783 184.0
102.964111 172.0
103.079262 152.0
104.128639 140.0
108.04805 196.0
109.309563 176.0
110.473778 192.0
111.044388 384.0
111.875603 184.0
112.573494 156.0
114.991585 176.0
120.981705 224.0
121.030113 176.0
123.0429 512.0
125.020363 132.0
126.852509 148.0
130.269058 208.0
130.416748 248.0
134.450073 264.0
134.505463 232.0
135.042175 240.0
136.037872 236.0
137.959763 264.0
138.68306 160.0
139.012177 156.0
139.039536 32292.0
139.163971 188.0
139.595001 112.0
139.668533 96.0
140.043045 2920.0
140.071732 156.0
141.043716 360.0
141.190369 108.0
147.747177 164.0
149.056442 160.0
150.99205 196.0
151.03894 2680.0
151.222015 176.0
153.019501 3092.0
153.385956 156.0
154.021255 404.0
163.037827 988.0
164.043457 348.0
164.122482 160.0
169.048233 156.0
179.0336 104.0
179.077927 128.0
181.049774 776.0
182.053421 176.0
195.068451 180.0
203.397552 152.0
205.046967 284.0
223.063644 164.0
231.069427 148.0
238.92865 140.0
259.061981 168.0
271.063263 104.0
287.057251 120.0
288.059753 168.0
289.070435 3060.0
290.076385 1500.0
291.053253 264.0
293.070618 156.0
295.200592 156.0
305.07428 144.0
305.124207 200.0
307.079254 1572.0
308.088165 192.0
321.056213 160.0
332.974854 184.0
333.057953 156.0
439.090515 224.0
444.999054 196.0
459.093323 160.0
1125.636841 144.0
1300.902588 176.0
1373.95166 244.0
1385.417725 160.0
1414.834229 148.0
1435.835938 156.0
1535.801025 148.0
1547.397705 212.0
1597.989868 244.0
1618.766846 176.0
1754.290405 204.0
1758.227295 200.0
1792.778931 156.0
1811.942627 176.0
1819.329346 156.0
1820.38208 240.0
1823.177002 152.0
1836.10022 216.0
1868.263794 168.0
1878.670288 160.0
1887.177124 184.0
1903.475586 184.0
1921.98999 140.0
1956.689697 184.0
1971.764526 188.0
1973.523682 176.0
1986.444824 232.0
1988.645386 152.0
