>compound Diclofenac Diethylamine
>formula C14H11Cl2NO2
>ionization [M+H]+
>parentmass 296.023438
#inchi InChI=1S/C14H11Cl2NO2/c15-10-5-3-6-11(16)14(10)17-12-7-2-1-4-9(12)8-13(18)19/h1-7,17H,8H2,(H,18,19)
#inchikey DCOPUUMXTXDBNB
#origInchi InChI=1S/C14H11Cl2NO2.C4H11N/c15-10-5-3-6-11(16)14(10)17-12-7-2-1-4-9(12)8-13(18)19;1-3-5-4-2/h1-7,17H,8H2,(H,18,19);5H,3-4H2,1-2H3
#Ion_Source LC-ESI
#Instrument qTof
#Compound_Source Commercial
#PI Dorrestein
#Data_Collector Garg_Neha
#Scan -1
#Precursor_MZ 296.024
#ExactMass 295.017
#Charge 1
#CAS_Number 78213-16-8, 15307-86-5 (free base)
#Pubmed_ID N/A
#Smiles C1(=CC=C(C(=C1Cl)NC2=CC=CC=C2CC(O)=O)Cl).N(CC)CC
#INCHI_AUX N/A
#Library_Class 1
#SpectrumID CCMSLIB00000078567
#IonMode Positive
#UpdateWorkflowName UPDATE-SINGLE-ANNOTATED-GOLD
#LibraryQualityString Gold
#TaskID 77f51c88eb8b467eb4a01dd2d0cb90d2
##Scan# 1923
#SpectrumFile Plate9_21_40_GC5_01_15753.mzXML
#LibraryName FDALibrary_2_04302014.mgf
#MQScore -1
#Organism FDALibrary_2_04302014
#TIC_Query 0
#RT_Query -1
#MZErrorPPM -1
#SharedPeaks 0
#MassDiff 0
#LibMZ -1
#SpecMZ 296.024
#SpecCharge 0
#internalFilename spec-00000.mgf

>collision 10
46.856327 160.0
47.263206 156.0
50.026787 152.0
59.906368 160.0
60.731819 180.0
63.600269 148.0
65.18087 164.0
65.627251 144.0
69.164459 184.0
70.386414 200.0
73.214539 180.0
78.831009 152.0
84.964767 176.0
87.895622 212.0
88.754189 144.0
89.922424 156.0
93.61541 144.0
96.283966 164.0
98.986053 228.0
100.860191 140.0
103.994385 140.0
107.62619 268.0
107.727394 248.0
110.097343 204.0
116.703033 220.0
117.288597 172.0
118.197823 184.0
123.27124 152.0
124.32534 184.0
124.820724 180.0
125.91938 224.0
126.008736 144.0
130.100967 184.0
130.844376 184.0
132.225372 140.0
134.521606 160.0
137.983154 332.0
138.114105 160.0
139.763351 232.0
140.798218 164.0
141.341934 152.0
143.327011 148.0
144.504135 192.0
148.013519 172.0
160.075974 180.0
160.31781 180.0
162.969711 168.0
163.165405 176.0
177.05304 148.0
177.124557 192.0
178.068802 368.0
179.068924 164.0
179.681931 212.0
180.081741 1012.0
180.250641 212.0
181.084457 324.0
184.035339 180.0
188.15683 200.0
189.746353 272.0
191.3591 224.0
201.509293 148.0
207.282623 160.0
208.080002 160.0
212.684448 208.0
213.570343 140.0
213.899475 164.0
214.002869 132.0
214.041809 21052.0
214.190659 152.0
214.322388 128.0
214.348251 308.0
214.862671 168.0
214.946457 116.0
215.049255 18912.0
215.216812 260.0
215.392548 112.0
215.462555 148.0
215.844513 140.0
216.040771 4252.0
216.11554 128.0
216.638596 148.0
216.686676 108.0
217.046097 2852.0
218.051727 148.0
224.179062 188.0
226.914062 144.0
228.891113 168.0
230.91304 192.0
231.700058 152.0
235.242966 164.0
239.59462 148.0
242.039001 232.0
245.019394 176.0
248.59642 164.0
249.925613 204.0
249.951126 204.0
250.019165 14604.0
251.022446 1956.0
251.914978 144.0
252.016525 8340.0
253.01741 848.0
257.244598 144.0
259.473419 180.0
275.263824 196.0
278.014343 3504.0
278.391479 160.0
279.017395 552.0
279.9245 148.0
279.974457 280.0
280.012451 884.0
281.01767 104.0
291.782288 140.0
295.01416 144.0
296.023438 1440.0
296.321472 168.0
297.026886 376.0
297.892731 156.0
298.019897 1308.0
298.900085 140.0
299.020538 168.0
299.044617 176.0
299.082489 152.0
389.085693 144.0
1637.38562 176.0
1638.255615 272.0
1747.982056 200.0
1771.359253 208.0
