>compound MLS002153146-01!MK-912 hydrate
>formula C20H25N3O2
>ionization [M+H]+
>parentmass 340.203094
#inchi InChI=1S/C20H25N3O2/c1-21-11-8-20(22(2)19(21)24)9-12-23-10-7-15-14-5-3-4-6-17(14)25-18(15)16(23)13-20/h3-6,16H,7-13H2,1-2H3/t16-,20+/m0/s1
#inchikey JRDUBBHIPPPSLP
#origInchi InChI=1S/C20H25N3O2.ClH/c1-21-11-8-20(22(2)19(21)24)9-12-23-10-7-15-14-5-3-4-6-17(14)25-18(15)16(23)13-20;/h3-6,16H,7-13H2,1-2H3;1H/t16-,20+;/m0./s1
#Ion_Source LC-ESI
#Instrument qTof
#Compound_Source NIH Pharmacologically Active Library
#PI Dorrestein
#Data_Collector VP/LMS
#Scan -1
#Precursor_MZ 340.203
#ExactMass 339.195
#Charge 1
#CAS_Number N/A
#Pubmed_ID N/A
#Smiles CN1CC[C@]2(CCN3CCc4c(oc5ccccc45)[C@@H]3C2)N(C)C1=O.Cl
#INCHI_AUX N/A
#Library_Class 1
#SpectrumID CCMSLIB00000085198
#IonMode Positive
#UpdateWorkflowName UPDATE-SINGLE-ANNOTATED-GOLD
#LibraryQualityString Gold
#TaskID d252d724072548979f1f6f1ced849daf
##Scan# 1398
#SpectrumFile p3-F10_GF10_01_18291.mzXML
#LibraryName Pharm_Active_Library.mgf
#MQScore -1
#Organism Pharm_Active_Library
#TIC_Query 0
#RT_Query -1
#MZErrorPPM -1
#SharedPeaks 0
#MassDiff 0
#LibMZ -1
#SpecMZ 340.203
#SpecCharge 0
#internalFilename spec-00000.mgf

>collision 10
44.999447 164.0
45.016804 204.0
45.051537 120.0
45.07024 172.0
45.183899 76.0
45.281624 208.0
45.682995 216.0
45.774525 164.0
46.379833 192.0
46.536961 176.0
46.852768 248.0
47.069653 144.0
47.101067 168.0
47.370564 128.0
47.576283 88.0
47.631218 208.0
47.906361 124.0
47.929783 224.0
47.957348 156.0
48.160191 152.0
48.285973 132.0
48.335781 184.0
48.371765 144.0
48.391254 156.0
48.679585 148.0
48.825512 156.0
48.874207 184.0
49.111053 44.0
49.235279 216.0
49.501003 176.0
49.531818 156.0
49.761826 168.0
49.874218 176.0
49.929058 204.0
50.246014 156.0
50.308113 200.0
50.364601 160.0
50.467773 156.0
50.493233 180.0
50.688606 116.0
50.949696 236.0
51.239944 196.0
51.322617 188.0
51.523876 124.0
51.545307 144.0
51.588188 140.0
51.605347 176.0
51.767052 128.0
51.853561 200.0
51.918968 116.0
52.430805 52.0
52.551945 168.0
52.603901 212.0
52.74403 160.0
52.84251 168.0
53.042236 212.0
53.087067 144.0
53.242744 240.0
53.454739 152.0
54.08234 76.0
54.249344 168.0
54.318268 168.0
54.40926 196.0
54.470943 136.0
54.927299 140.0
54.939102 144.0
54.984848 224.0
55.023228 112.0
55.181324 40.0
55.289314 168.0
55.582752 204.0
55.70599 168.0
55.868038 128.0
55.908215 160.0
55.940964 196.0
56.277924 92.0
56.554504 240.0
56.657837 128.0
56.684811 220.0
56.830265 112.0
56.915222 188.0
56.923702 148.0
57.248177 116.0
57.279808 52.0
57.383801 156.0
57.663086 80.0
57.697853 56.0
57.752781 212.0
58.047638 144.0
58.178131 48.0
58.323971 136.0
58.413692 84.0
58.517185 44.0
58.62077 112.0
58.79921 100.0
58.938187 124.0
59.310097 132.0
59.594025 200.0
59.707783 160.0
60.224072 92.0
60.236076 324.0
60.289032 176.0
60.395721 124.0
60.601631 68.0
60.620224 88.0
60.634174 40.0
61.000507 116.0
61.090706 220.0
61.109379 96.0
61.121826 188.0
61.132721 80.0
61.24015 184.0
61.355469 208.0
61.488068 180.0
61.752125 160.0
61.963463 160.0
62.310215 168.0
62.347931 164.0
62.542969 132.0
63.349937 168.0
63.527496 152.0
63.595734 44.0
63.985222 132.0
64.099907 204.0
64.248199 180.0
64.76136 188.0
64.960129 164.0
65.146362 88.0
65.231895 144.0
65.268517 160.0
65.516388 180.0
65.658249 188.0
65.730843 196.0
65.898781 156.0
65.918175 64.0
66.055603 184.0
66.275803 212.0
66.360092 88.0
66.41523 28.0
66.601906 148.0
66.896248 156.0
66.96627 64.0
67.042847 144.0
67.276108 180.0
67.57357 204.0
67.607933 144.0
68.001289 180.0
68.052185 132.0
68.188538 152.0
68.247719 88.0
68.295418 116.0
68.331612 208.0
68.354645 112.0
68.738617 196.0
69.186562 136.0
69.53302 184.0
69.602745 144.0
69.667526 112.0
69.815468 180.0
69.870361 120.0
69.990204 208.0
70.050163 48.0
70.21685 152.0
70.50737 144.0
70.828629 208.0
70.947617 140.0
70.97612 140.0
71.172455 128.0
71.634987 116.0
71.655205 132.0
71.69059 152.0
71.725983 152.0
71.746216 60.0
71.980759 196.0
72.021294 172.0
72.202148 192.0
72.279968 148.0
72.459457 168.0
72.58828 76.0
72.764755 96.0
72.863266 200.0
72.929543 168.0
72.978844 148.0
73.125153 52.0
73.169411 112.0
73.196655 148.0
73.326141 148.0
73.36364 176.0
73.623009 96.0
73.694756 36.0
74.043747 152.0
74.103699 176.0
74.163681 188.0
74.794106 96.0
74.856087 200.0
75.197456 160.0
75.263062 152.0
75.454857 188.0
75.607079 112.0
75.717888 108.0
75.828781 52.0
75.924141 164.0
76.059479 160.0
76.294006 52.0
76.344429 104.0
76.687431 176.0
76.765884 64.0
76.797279 120.0
77.171013 184.0
77.235725 176.0
77.260216 88.0
77.351219 184.0
77.368729 60.0
78.21666 200.0
78.339935 128.0
78.371651 200.0
78.535606 136.0
78.653839 68.0
78.697975 56.0
78.980751 128.0
79.191391 140.0
79.514091 152.0
79.581551 204.0
79.686348 160.0
79.766319 172.0
79.810768 148.0
79.849899 128.0
80.134727 132.0
80.156113 144.0
80.222061 80.0
80.646919 236.0
80.768517 160.0
80.945709 172.0
80.968987 48.0
81.081863 148.0
81.114128 84.0
81.426353 188.0
81.449699 188.0
81.501801 112.0
81.61145 228.0
81.661812 212.0
81.82872 144.0
81.949852 204.0
82.043579 156.0
82.083244 124.0
82.33049 180.0
82.480453 96.0
82.625137 168.0
82.768127 148.0
82.787323 180.0
82.911247 36.0
83.059929 112.0
83.230537 120.0
83.321358 180.0
83.358002 48.0
83.49041 132.0
83.605026 112.0
83.8181 160.0
83.83815 60.0
84.089844 152.0
84.192085 136.0
84.237747 184.0
84.289421 156.0
84.363846 152.0
84.427849 248.0
84.504677 148.0
84.605347 152.0
84.720726 168.0
84.770203 212.0
84.817856 152.0
85.096718 160.0
85.138954 140.0
85.585831 180.0
85.624504 128.0
85.7332 148.0
85.751633 160.0
86.323975 180.0
86.340614 196.0
86.377609 84.0
86.521965 152.0
87.024429 128.0
87.082001 216.0
87.405495 172.0
87.42337 204.0
87.610306 300.0
87.703484 148.0
87.966515 56.0
88.065483 136.0
88.220581 156.0
88.272942 380.0
88.446945 136.0
88.479691 276.0
88.716705 356.0
88.765457 168.0
88.840485 200.0
88.88176 204.0
89.193535 216.0
89.385376 184.0
89.432434 212.0
89.483261 172.0
89.569893 228.0
89.607574 152.0
89.864006 140.0
89.882874 52.0
90.1614 272.0
90.219086 148.0
90.289047 144.0
90.459343 152.0
90.482063 148.0
90.552132 168.0
90.66581 232.0
90.715096 116.0
90.751122 140.0
90.787148 128.0
90.817497 152.0
90.847847 160.0
91.050957 388.0
91.094643 240.0
91.242882 48.0
91.294228 132.0
91.436966 160.0
91.606392 136.0
91.749329 184.0
91.892372 152.0
92.046989 200.0
92.142494 104.0
92.471413 80.0
92.87764 112.0
92.985085 156.0
93.350121 176.0
93.895157 228.0
93.927948 180.0
94.065071 332.0
94.300621 168.0
94.321884 200.0
94.538513 156.0
94.565613 188.0
94.5821 208.0
94.687592 128.0
94.761208 136.0
94.829033 68.0
94.929848 104.0
95.040421 100.0
95.240395 204.0
95.425018 192.0
95.444466 208.0
95.479469 160.0
95.862999 264.0
95.925369 100.0
96.08036 384.0
96.124321 180.0
96.212158 156.0
96.348869 128.0
96.464172 160.0
96.516968 164.0
96.544342 80.0
96.597153 160.0
96.718483 272.0
96.945686 200.0
97.084877 76.0
97.128029 140.0
97.141762 172.0
97.241837 212.0
97.314476 188.0
97.71727 164.0
97.865036 156.0
98.052185 64.0
98.105408 248.0
98.19809 192.0
98.373711 200.0
98.670059 72.0
98.707634 144.0
98.820381 104.0
98.846107 184.0
98.929237 116.0
98.98468 180.0
99.055984 160.0
99.089165 176.0
99.190735 76.0
99.49427 176.0
99.589592 152.0
99.635536 156.0
99.879807 176.0
100.044983 208.0
100.082809 152.0
100.146538 120.0
100.276054 168.0
100.379723 132.0
100.44754 172.0
100.481453 152.0
100.521362 152.0
100.549301 204.0
100.860901 128.0
101.070084 416.0
101.233055 244.0
101.2631 180.0
101.34523 172.0
101.491562 72.0
101.511612 196.0
101.776505 256.0
101.993484 80.0
102.073906 120.0
102.104073 96.0
102.28315 252.0
102.472466 156.0
102.587341 168.0
102.688171 136.0
103.051613 752.0
103.233482 132.0
103.433792 168.0
103.599846 132.0
103.968895 176.0
104.186172 132.0
104.342667 196.0
104.365036 80.0
104.625473 168.0
104.672302 204.0
104.735435 192.0
104.980019 152.0
105.069275 804.0
105.088135 40.0
105.574318 220.0
105.752327 192.0
105.772797 72.0
105.955063 124.0
106.062088 212.0
106.476868 204.0
106.541832 176.0
106.856407 152.0
106.994301 156.0
107.016953 132.0
107.049423 372.0
107.17762 144.0
107.462173 120.0
107.555046 212.0
108.024139 172.0
108.051033 224.0
108.079071 952.0
108.129669 328.0
108.297386 172.0
108.552307 132.0
108.566826 88.0
108.824142 208.0
109.059349 224.0
109.081772 104.0
109.541672 216.0
109.618767 176.0
109.944107 164.0
110.06031 132.0
110.09404 400.0
110.121574 176.0
110.26783 136.0
110.420464 104.0
110.508324 60.0
110.803551 152.0
110.925102 128.0
110.960747 92.0
111.090775 136.0
111.264969 72.0
111.569611 164.0
111.617973 216.0
111.880981 128.0
111.902039 208.0
112.076866 240.0
112.109749 920.0
112.14431 208.0
112.475479 72.0
112.509254 40.0
112.665543 48.0
112.741615 148.0
112.840965 208.0
113.073662 160.0
113.107529 124.0
113.25576 212.0
113.272705 148.0
113.332031 120.0
113.51857 116.0
113.575836 84.0
113.705269 120.0
113.915489 184.0
113.945229 160.0
114.1259 100.0
114.240753 124.0
114.372688 120.0
114.428047 124.0
114.54731 128.0
114.673027 192.0
114.79882 132.0
114.954552 44.0
115.052574 1488.0
115.123207 112.0
115.176605 148.0
115.240692 172.0
115.328316 256.0
115.364655 192.0
115.606361 172.0
115.807617 108.0
115.899742 172.0
115.919029 200.0
116.006912 180.0
116.036926 164.0
116.056641 244.0
116.393112 168.0
116.41674 188.0
116.825142 52.0
117.069031 3384.0
117.120056 184.0
117.189735 200.0
117.238564 56.0
117.635445 36.0
117.937874 96.0
118.070625 180.0
118.36409 112.0
118.522224 124.0
118.786736 144.0
118.942978 52.0
119.050583 416.0
119.494995 176.0
119.745338 216.0
119.806335 112.0
119.832481 168.0
119.886955 228.0
120.076424 248.0
120.170441 128.0
120.323227 220.0
120.388733 144.0
120.438972 68.0
120.52636 52.0
120.587555 112.0
120.801849 64.0
120.950661 152.0
120.972549 84.0
121.082031 192.0
121.239777 124.0
121.283615 112.0
121.415169 140.0
121.685089 172.0
121.707047 128.0
121.889366 56.0
121.920135 44.0
121.994873 244.0
122.063034 144.0
122.100418 144.0
122.562729 28.0
122.679543 228.0
123.115265 164.0
123.138527 148.0
123.386032 148.0
123.432465 204.0
123.735603 128.0
123.997002 152.0
124.075371 132.0
124.136673 176.0
124.314148 140.0
124.41404 164.0
124.660591 164.0
124.716156 180.0
124.951889 196.0
125.023094 188.0
125.133156 132.0
125.2257 84.0
125.444077 108.0
125.747452 72.0
126.026604 184.0
126.089172 340.0
126.131645 112.0
126.209892 148.0
126.447029 92.0
126.632874 128.0
126.769539 156.0
126.877129 176.0
127.056412 192.0
127.431511 144.0
127.485443 132.0
127.568604 128.0
127.584343 64.0
127.879036 76.0
128.060455 1536.0
128.203354 84.0
128.255203 236.0
128.397247 192.0
128.516815 132.0
128.552917 108.0
128.878098 60.0
128.975281 104.0
129.068588 444.0
129.588593 208.0
129.8629 176.0
130.075256 160.0
130.148849 212.0
130.221527 96.0
130.480591 136.0
130.726257 160.0
130.767227 72.0
131.047455 2168.0
131.08522 1240.0
131.291245 64.0
131.487457 172.0
131.567352 176.0
131.820892 156.0
132.012924 188.0
132.033508 160.0
132.082886 140.0
132.100784 252.0
132.214249 64.0
132.734283 196.0
132.805389 64.0
133.062408 120.0
133.08493 188.0
133.243866 144.0
133.26683 172.0
133.331177 220.0
133.733688 228.0
133.855621 212.0
133.899475 236.0
134.019257 108.0
134.095306 196.0
134.427429 128.0
134.951797 156.0
135.319687 260.0
135.50267 208.0
135.532791 184.0
135.73909 148.0
136.075562 132.0
136.161484 144.0
136.238129 168.0
136.396164 116.0
136.486832 144.0
136.929001 56.0
137.194656 88.0
137.509567 76.0
137.591278 116.0
137.962753 144.0
138.191956 180.0
138.648605 168.0
138.761124 116.0
138.810364 108.0
138.919556 220.0
139.087692 528.0
139.122421 164.0
139.169388 208.0
139.3573 44.0
139.52652 164.0
139.660568 192.0
139.735855 48.0
139.827621 164.0
140.400146 148.0
140.527283 76.0
140.560562 204.0
140.718719 208.0
141.066635 432.0
141.10083 1932.0
141.132217 48.0
141.219727 136.0
141.255203 36.0
141.28833 60.0
141.458725 112.0
141.477661 100.0
141.517914 136.0
141.622116 124.0
141.797455 156.0
141.868561 192.0
141.887527 120.0
142.084381 212.0
142.108109 164.0
142.200668 136.0
142.34549 136.0
142.452362 164.0
142.632965 68.0
142.711426 160.0
142.749481 36.0
143.085358 324.0
143.151657 76.0
143.254074 132.0
143.501938 36.0
143.599716 84.0
143.704681 188.0
143.859818 96.0
143.881302 140.0
143.993546 120.0
144.050873 52.0
144.077896 172.0
144.165558 132.0
144.227707 56.0
144.253998 104.0
144.447708 92.0
144.51947 160.0
144.689423 140.0
144.773224 160.0
144.818726 96.0
144.888199 68.0
144.914566 60.0
144.964874 116.0
145.001526 152.0
145.024933 148.0
145.063416 15080.0
145.103058 308.0
145.199829 64.0
145.235809 116.0
145.36525 80.0
145.38118 184.0
145.559814 60.0
145.601273 92.0
145.682312 228.0
145.718353 92.0
145.783646 140.0
145.884186 276.0
145.906845 132.0
145.985733 172.0
146.016434 48.0
146.066696 1168.0
146.094849 180.0
146.167999 124.0
146.37262 76.0
146.599075 100.0
146.85704 124.0
146.888397 36.0
146.955963 196.0
147.067307 172.0
147.095932 172.0
147.245651 84.0
147.30603 120.0
147.949326 216.0
148.019547 64.0
148.104309 196.0
148.145493 104.0
148.176987 156.0
148.208481 188.0
148.564911 168.0
148.717789 152.0
148.814896 48.0
149.09491 268.0
149.133148 184.0
149.751175 140.0
149.941223 176.0
149.999725 104.0
150.302155 156.0
150.656189 100.0
150.944611 180.0
150.983749 180.0
151.092529 236.0
151.132965 192.0
151.260239 96.0
151.527176 204.0
151.801712 60.0
152.060455 148.0
152.088776 152.0
152.218903 188.0
152.530945 124.0
152.776855 160.0
152.931885 180.0
152.954041 152.0
153.07019 340.0
153.099899 724.0
153.212631 160.0
153.56514 56.0
153.65889 104.0
153.690964 144.0
153.83905 140.0
154.072479 348.0
154.100845 276.0
154.1651 96.0
154.454376 132.0
154.555817 204.0
154.895004 160.0
155.057739 524.0
155.081192 152.0
155.336258 128.0
155.450394 212.0
155.522369 48.0
156.055267 316.0
156.079498 512.0
156.332413 188.0
156.559174 164.0
156.927979 72.0
157.063721 1396.0
157.105057 124.0
157.20488 52.0
157.661896 116.0
157.706894 104.0
157.971481 64.0
158.029495 40.0
158.069321 1044.0
158.139618 48.0
158.242249 44.0
158.367462 44.0
158.555389 172.0
158.763474 184.0
158.793579 52.0
158.883881 76.0
158.903946 92.0
158.936569 104.0
159.015625 112.0
159.079758 1708.0
159.167511 136.0
159.217743 68.0
159.524292 144.0
159.6651 92.0
159.828629 172.0
159.901611 80.0
160.047623 180.0
160.07402 272.0
160.445724 112.0
160.554153 68.0
160.675232 128.0
160.912476 196.0
161.074112 292.0
161.213074 164.0
161.268677 48.0
161.554428 52.0
162.081085 132.0
162.106415 104.0
162.306686 132.0
162.633972 132.0
163.065765 44.0
163.218307 112.0
163.325119 200.0
163.877579 184.0
163.999908 132.0
164.405441 144.0
164.540726 48.0
164.936707 52.0
165.031296 32.0
165.068146 956.0
165.108017 200.0
165.292221 104.0
165.43811 112.0
165.466278 128.0
165.525162 200.0
165.545654 64.0
165.768524 192.0
165.919769 180.0
166.070862 236.0
166.720642 240.0
166.738632 136.0
167.081192 872.0
167.129532 60.0
167.541489 112.0
167.995224 132.0
168.058014 368.0
168.091583 508.0
168.11908 168.0
168.13974 176.0
168.165543 156.0
168.227493 164.0
168.263641 156.0
168.361771 144.0
168.400513 148.0
169.062866 1760.0
169.102859 252.0
169.13118 356.0
169.199585 120.0
169.502014 212.0
169.808563 80.0
169.974594 216.0
169.997955 124.0
170.023895 148.0
170.056808 832.0
170.09523 156.0
170.288727 212.0
170.499191 172.0
170.51738 136.0
170.608353 116.0
170.665558 212.0
170.956909 88.0
171.019379 40.0
171.079956 4332.0
171.152145 84.0
171.303223 132.0
171.410034 136.0
171.579468 116.0
171.696808 40.0
171.759415 188.0
171.991653 192.0
172.030807 296.0
172.074478 12264.0
172.109482 540.0
172.135254 72.0
172.164429 116.0
172.218826 68.0
172.26062 52.0
172.320709 176.0
172.417404 84.0
172.439697 72.0
172.637878 108.0
172.715469 188.0
173.000717 88.0
173.032135 56.0
173.081238 1532.0
173.317642 136.0
173.461792 52.0
173.650589 56.0
173.999603 100.0
174.078949 128.0
174.097748 328.0
174.183441 128.0
174.260147 100.0
174.299042 48.0
174.401535 60.0
174.814468 48.0
174.930283 76.0
175.100357 176.0
175.301666 160.0
175.913589 156.0
176.053177 148.0
176.235809 124.0
176.373245 72.0
176.444611 244.0
177.00293 140.0
177.055893 68.0
177.092972 140.0
178.077026 208.0
178.103577 148.0
178.284256 52.0
178.656525 176.0
179.079697 316.0
179.397522 84.0
179.607559 128.0
179.668915 104.0
180.092865 676.0
180.120087 108.0
180.210922 160.0
180.737686 188.0
180.919693 136.0
180.978592 200.0
181.063583 2164.0
181.098846 832.0
181.133926 168.0
181.1875 76.0
181.415314 164.0
181.742523 56.0
182.069336 744.0
182.094543 324.0
182.118378 156.0
182.376343 172.0
182.787827 72.0
182.855118 116.0
183.038177 116.0
183.074585 964.0
183.115433 456.0
183.213257 108.0
183.3965 68.0
183.447723 108.0
183.882019 44.0
183.952194 124.0
184.076202 3492.0
184.125015 76.0
184.143921 56.0
184.727783 144.0
184.997787 172.0
185.083267 1760.0
185.160873 192.0
185.204224 56.0
185.228592 200.0
185.304611 72.0
185.350525 64.0
185.369492 136.0
185.388458 60.0
185.580917 36.0
185.677383 56.0
186.09024 6864.0
186.666351 72.0
186.985413 76.0
187.095825 688.0
187.502899 132.0
187.764633 28.0
187.857376 96.0
187.906494 48.0
188.005249 208.0
188.067505 136.0
188.089417 148.0
188.107376 132.0
188.168503 108.0
188.2453 100.0
188.602875 168.0
188.810684 136.0
189.013123 124.0
189.070206 168.0
189.259491 52.0
189.317001 68.0
189.560806 40.0
189.599182 84.0
190.013245 164.0
190.074051 200.0
190.658569 244.0
191.0802 204.0
191.544556 128.0
191.613434 180.0
191.872498 208.0
192.087128 280.0
192.33873 60.0
192.51268 156.0
192.578964 180.0
192.67894 124.0
192.905029 132.0
192.943741 196.0
193.069229 84.0
193.099823 260.0
193.472168 180.0
193.555237 72.0
193.95697 48.0
194.070389 364.0
194.09053 324.0
194.147263 196.0
194.514542 264.0
194.767242 60.0
195.078674 1432.0
195.115952 1628.0
195.643219 124.0
195.682205 92.0
196.082199 1252.0
196.120224 172.0
196.264557 100.0
196.549072 112.0
196.643967 188.0
197.009781 164.0
197.046097 64.0
197.072418 216.0
197.091949 580.0
197.297638 156.0
197.434647 92.0
198.091431 556.0
198.176483 164.0
198.453979 96.0
198.616638 124.0
198.653107 68.0
199.091919 400.0
199.188217 252.0
199.324158 96.0
199.349442 156.0
199.574326 156.0
199.871033 192.0
199.996338 76.0
200.045166 92.0
200.053543 124.0
200.105698 9224.0
200.159195 52.0
200.242111 28.0
200.266479 100.0
200.36525 220.0
200.39624 68.0
200.41597 92.0
200.482956 88.0
200.539963 84.0
200.570969 84.0
200.963135 148.0
201.109482 1280.0
201.592697 168.0
201.654877 68.0
201.835815 72.0
202.07782 564.0
202.113403 120.0
202.226974 76.0
202.311157 84.0
202.3508 72.0
202.444244 52.0
202.628357 104.0
202.886276 112.0
203.086319 200.0
203.115982 192.0
203.663834 72.0
203.689392 92.0
203.760422 28.0
203.990616 48.0
204.094376 412.0
205.05806 164.0
205.096344 164.0
205.397385 144.0
205.460144 168.0
206.066956 328.0
206.097198 192.0
206.554306 152.0
206.763184 156.0
207.079987 408.0
207.1082 360.0
207.42485 132.0
208.084915 1676.0
208.167969 76.0
208.314453 184.0
208.682327 84.0
208.949448 156.0
209.059158 72.0
209.092514 916.0
209.620728 48.0
209.932068 44.0
210.098633 592.0
210.125336 220.0
210.419739 36.0
210.468826 92.0
210.598785 80.0
210.668121 228.0
211.110336 1036.0
211.228943 72.0
211.292587 128.0
211.370712 64.0
211.474899 80.0
211.60228 56.0
211.874527 44.0
211.990433 76.0
212.10199 176.0
212.184647 104.0
212.730072 96.0
213.037903 72.0
213.112839 172.0
213.546616 112.0
213.579224 208.0
214.125824 120.0
214.895432 96.0
214.96254 72.0
215.090958 132.0
215.120148 176.0
215.140594 168.0
215.429718 88.0
215.821365 128.0
217.08934 116.0
217.121597 140.0
217.370972 48.0
217.855438 64.0
218.072891 172.0
218.10228 124.0
218.614059 132.0
218.690582 84.0
219.082352 184.0
219.506668 148.0
219.571548 132.0
220.083328 196.0
220.129333 60.0
220.924438 64.0
221.093643 276.0
221.703201 136.0
222.092651 148.0
222.098846 216.0
223.110092 5916.0
223.276718 68.0
223.523636 40.0
223.630783 92.0
223.791534 76.0
223.863007 148.0
223.898743 56.0
224.014908 60.0
224.110565 1956.0
224.292053 64.0
224.351669 92.0
224.473923 200.0
224.524628 180.0
224.718521 248.0
224.933411 96.0
225.115204 276.0
225.423233 44.0
225.77002 92.0
226.078171 164.0
226.116241 184.0
227.715164 116.0
227.778244 72.0
228.129852 176.0
230.070007 128.0
230.918167 148.0
231.170258 120.0
231.951691 212.0
233.093124 196.0
233.19014 184.0
234.093735 128.0
234.697098 152.0
235.111038 1316.0
235.206604 40.0
235.585281 200.0
236.103165 264.0
236.860947 92.0
237.111588 336.0
238.122589 1988.0
238.422714 172.0
238.659424 36.0
238.899338 192.0
239.122009 256.0
239.176285 192.0
239.407211 52.0
239.789246 40.0
240.057465 140.0
240.136871 2852.0
240.188782 56.0
240.22403 32.0
240.304245 68.0
240.332016 76.0
240.511017 144.0
241.141754 432.0
241.298798 40.0
241.383667 80.0
241.413208 192.0
241.632828 72.0
242.149796 168.0
242.496826 100.0
242.701431 40.0
244.332092 80.0
244.649551 80.0
245.306885 68.0
245.802795 132.0
246.830536 80.0
247.115189 104.0
248.105774 160.0
248.142532 140.0
249.115448 208.0
249.325974 148.0
250.119888 528.0
250.238235 64.0
250.609909 136.0
251.092239 248.0
251.120071 168.0
251.53714 184.0
251.559235 164.0
251.676056 72.0
251.742371 96.0
251.860321 140.0
251.893982 208.0
251.966644 112.0
252.01088 176.0
252.067764 168.0
252.137009 13480.0
252.24408 112.0
252.269196 60.0
252.311142 152.0
252.374374 60.0
252.406006 84.0
252.462921 52.0
252.519852 88.0
252.633728 44.0
252.701569 76.0
252.845734 48.0
252.867889 88.0
252.90271 104.0
252.969193 64.0
253.050186 96.0
253.13829 1956.0
253.176132 224.0
253.209839 40.0
253.351639 104.0
253.409424 68.0
253.786606 40.0
253.862717 100.0
253.891251 44.0
254.146286 168.0
254.179947 64.0
254.510071 28.0
254.536331 120.0
254.668869 84.0
254.802292 88.0
254.862656 48.0
255.282272 136.0
255.320435 40.0
255.568573 60.0
256.007874 72.0
256.594177 80.0
256.756805 48.0
257.6474 60.0
258.382751 96.0
259.433228 136.0
263.142822 76.0
265.995056 168.0
266.119873 144.0
266.160645 240.0
266.365265 128.0
266.683716 68.0
267.10318 148.0
267.721588 104.0
268.121033 160.0
270.150085 144.0
273.303131 164.0
275.148895 164.0
275.337128 140.0
278.809265 96.0
280.132263 80.0
281.128784 140.0
282.169403 112.0
282.256348 32.0
283.079559 80.0
283.149811 476.0
283.181396 660.0
283.226929 144.0
284.177399 288.0
285.169739 124.0
286.18573 136.0
286.374298 32.0
291.150055 132.0
293.123199 164.0
296.835693 68.0
296.907715 120.0
298.979401 100.0
301.766693 120.0
302.984985 52.0
303.45636 60.0
309.160919 316.0
310.159576 456.0
311.177948 68.0
311.578339 192.0
312.569885 124.0
313.802734 68.0
315.172272 80.0
318.175873 80.0
328.035919 100.0
334.35675 72.0
338.186676 288.0
338.225769 228.0
338.460083 80.0
339.189178 144.0
339.237579 100.0
339.317505 84.0
339.757599 240.0
340.203094 2796.0
341.083344 96.0
341.201141 336.0
341.278198 36.0
342.194397 148.0
342.220367 68.0
342.769012 52.0
342.905365 92.0
343.041748 60.0
343.097046 80.0
343.430054 132.0
343.521179 100.0
344.13382 92.0
344.285217 124.0
344.913361 72.0
350.525177 60.0
358.83548 156.0
370.132416 80.0
373.813812 108.0
391.863434 56.0
400.734985 76.0
407.276031 80.0
416.741852 136.0
438.44278 100.0
450.434967 52.0
452.575012 116.0
454.024323 172.0
479.186859 68.0
493.841034 72.0
497.394806 52.0
501.380157 52.0
503.436859 36.0
519.760559 80.0
522.88269 48.0
525.868103 52.0
530.061951 124.0
539.520813 56.0
561.97821 108.0
573.945923 112.0
617.970886 116.0
637.182312 64.0
655.112732 124.0
657.36908 244.0
657.458252 92.0
676.710083 72.0
682.220032 64.0
728.295959 60.0
732.658752 184.0
754.799377 152.0
769.47052 100.0
773.307007 164.0
822.662048 160.0
873.579102 160.0
888.686462 140.0
902.918274 172.0
905.084656 160.0
917.01001 76.0
939.544495 168.0
940.179138 60.0
942.945862 64.0
945.71051 80.0
955.043396 208.0
968.933533 80.0
970.799377 140.0
980.335999 152.0
985.727844 40.0
1031.324585 172.0
1031.478027 180.0
1042.997314 128.0
1043.10022 108.0
1050.254395 204.0
1056.345947 164.0
1059.038818 156.0
1059.667236 20.0
1065.922485 144.0
1075.320312 224.0
1077.338013 180.0
1081.909546 164.0
1092.738892 272.0
1100.886475 164.0
1106.454102 196.0
1113.934937 192.0
1115.430176 192.0
1116.321167 192.0
1118.882935 224.0
1122.134277 168.0
1122.694458 120.0
1131.173584 184.0
1131.220459 144.0
1141.371826 208.0
1146.393799 164.0
1155.185059 160.0
1158.820801 124.0
1162.740356 80.0
1163.154419 208.0
1173.740967 140.0
1176.326904 192.0
1182.259888 168.0
1185.321045 200.0
1188.98999 176.0
1192.286743 212.0
1195.959595 120.0
1205.822998 168.0
1215.074707 140.0
1215.720093 100.0
1216.150391 180.0
1219.825073 188.0
1219.894653 232.0
1229.213989 92.0
1230.924316 240.0
1231.853271 120.0
1234.817017 136.0
1243.757935 140.0
1245.843628 188.0
1253.393311 120.0
1259.022827 64.0
1261.283936 120.0
1266.938232 160.0
1268.008301 168.0
1271.611328 112.0
1282.201904 100.0
1282.57959 88.0
1289.596313 160.0
1293.022339 112.0
1298.403076 180.0
1305.275757 156.0
1314.568726 176.0
1319.372192 228.0
1324.713257 124.0
1324.872559 212.0
1324.981323 128.0
1328.192871 48.0
1331.241211 164.0
1335.565796 156.0
1339.321777 144.0
1342.098511 212.0
1343.418701 156.0
1343.469727 176.0
1344.038818 192.0
1345.929443 132.0
1347.667969 148.0
1349.568481 104.0
1351.558105 164.0
1352.560791 140.0
1355.138672 240.0
1359.09082 172.0
1360.338623 208.0
1361.660278 160.0
1361.968872 72.0
1366.335571 64.0
1367.108276 108.0
1372.795654 224.0
1378.35437 148.0
1379.026978 160.0
1388.259521 136.0
1388.54126 112.0
1388.682251 204.0
1396.369751 140.0
1398.661499 148.0
1399.726196 176.0
1407.100708 164.0
1411.344727 52.0
1413.304565 60.0
1414.457153 160.0
1416.890991 56.0
1418.479858 120.0
1420.054565 80.0
1420.759644 164.0
1421.164795 132.0
1424.483276 76.0
1428.75354 168.0
1430.589844 44.0
1432.969849 136.0
1433.866577 152.0
1434.529907 172.0
1434.710815 116.0
1434.891724 180.0
1445.209473 144.0
1445.285156 52.0
1448.336182 176.0
1449.51062 64.0
1450.844604 108.0
1451.208496 156.0
1453.332397 188.0
1457.789917 180.0
1458.633667 144.0
1459.333008 128.0
1459.948975 152.0
1460.13916 112.0
1460.709595 36.0
1460.975952 208.0
1461.29541 108.0
1464.047607 200.0
1466.710327 184.0
1467.091431 208.0
1468.700562 208.0
1469.684692 156.0
1470.409668 160.0
1470.95166 144.0
1471.440186 168.0
1475.023315 240.0
1475.512573 168.0
1480.670288 164.0
1481.19104 228.0
1482.463013 176.0
1483.030151 200.0
1483.704712 84.0
1483.812134 144.0
1491.881226 188.0
1494.973389 76.0
1501.390869 160.0
1501.730225 124.0
1502.401367 156.0
1502.856689 148.0
1503.852173 184.0
1504.068359 132.0
1505.141479 152.0
1505.319092 184.0
