>compound Desferrichrome
>formula C27H45N9O12 
>ionization [M+H]+
>parentmass 688.3260443320905
#inchi InChI=1S/C27H45N9O12/c1-16(37)34(46)10-4-7-19-25(43)30-14-23(41)28-13-22(40)29-15-24(42)31-20(8-5-11-35(47)17(2)38)26(44)33-21(27(45)32-19)9-6-12-36(48)18(3)39/h19-21,46-48H,4-15H2,1-3H3,(H,28,41)(H,29,40)(H,30,43)(H,31,42)(H,32,45)(H,33,44)/t19-,20-,21-/m0/s1
#inchikey ZFDAUYPBCXMSBF
#Ion_Source DI-ESI
#Instrument Hybrid Ft
#Compound_Source Commercial
#PI Dorrestein
#Data_Collector S Mascuch
#Scan -1
#Precursor_MZ 688.39
#ExactMass 687.319
#Charge 1
#CAS_Number 34787-28-5
#Pubmed_ID N/A
#Smiles N/A
#INCHI_AUX N/A
#Library_Class 1
#SpectrumID CCMSLIB00000006879
#IonMode Positive
#UpdateWorkflowName UPDATE-SINGLE-ANNOTATED-GOLD
#LibraryQualityString Gold
#TaskID 0dd853e0cae340a2bb2d3e87d780aa00
##Scan# 1
#SpectrumFile desferrichromeMH.mzXML
#LibraryName gnps_library.mgf
#MQScore -1
#Organism gnps_library
#TIC_Query 0
#RT_Query -1
#MZErrorPPM -1
#SharedPeaks 0
#MassDiff 0
#LibMZ -1
#SpecMZ 688.39
#SpecCharge 0
#internalFilename spec-00000.mgf

>collision 10
194.94455 147.213715
196.147934 66.273537
197.18132 120.587273
197.870773 143.117645
199.001099 95.589203
200.164276 334.100098
201.940781 314.883362
202.928894 203.571487
204.040314 395.163879
205.05072 263.888306
206.098495 199.359222
206.831039 835.523376
207.434296 141.264908
208.002853 2221.083496
208.993652 706.035645
209.835739 1872.469971
210.964584 341.146027
211.484299 54.743267
211.987961 1197.568115
212.806274 166.93425
213.78479 6945.674805
214.423676 239.940643
214.927261 1184.894043
215.800797 49.603729
218.895493 80.610985
220.054626 41.267105
220.965195 546.058167
222.109467 287.002777
223.137802 303.114777
223.903671 257.81073
225.053955 895.4823
225.981247 4637.680176
227.024231 1655.928223
227.914322 937.121399
228.893677 361.867523
229.93988 6815.138672
230.920685 1463.72229
231.937576 65.474548
233.104782 76.039299
234.139496 65.319244
236.912079 188.580566
237.997345 126.646561
239.053101 568.740417
239.821548 295.772675
240.375031 34.65538
242.191147 381.734772
243.218781 114.831711
244.057617 365.714874
244.99762 6036.990234
246.039322 1589.998291
247.080963 480.042175
248.198776 514.760376
248.91008 528.096619
250.100739 938.93396
251.847153 995.617126
253.099075 515.668335
254.279526 30.148247
255.13356 182.753571
255.781723 65.901329
256.933044 787.412903
257.943909 202.880127
261.903564 45.447334
264.145569 159.162628
265.106384 465.762695
266.065887 908.065186
267.043549 8658.74707
267.974335 7381.416016
268.971008 2671.425537
270.119965 1260.111084
270.804688 73.409225
271.956177 1778.719727
272.965759 262.270264
273.917145 221.80188
274.990082 96.409431
279.092438 49.82917
281.247803 438.466614
282.010986 256.860626
283.179108 354.81601
284.074829 4780.068359
285.054657 24370.128906
286.054718 4945.851074
286.988037 21507.369141
287.929138 2906.354248
289.039764 139.214096
289.875641 136.904984
290.401703 28.063423
291.017395 227.952087
291.618134 208.748184
292.366455 20.838898
293.064209 392.412933
295.039825 624.575989
296.348419 135.238632
297.149261 1785.235596
298.076538 640.937439
299.157928 1028.171875
300.222748 232.773605
301.356415 123.92218
302.024841 16243.360352
303.058197 8147.749023
303.968842 594.221008
304.551758 101.346519
305.960419 365.58429
306.914307 1183.075806
307.940796 878.311523
308.985901 2398.23999
309.647125 285.258972
310.238129 1411.693237
311.199158 1489.221313
312.119934 117.082962
313.098846 673.119934
314.138336 122.009697
315.083008 960.392578
316.189301 1727.720581
317.135162 55.702431
318.000793 197.635895
321.98349 160.977203
323.264313 53.459381
324.008118 764.658569
324.985199 3480.76709
326.030914 13166.000977
327.055878 12662.841797
327.995361 2791.552246
329.049194 5398.624512
330.245789 474.377838
331.340912 99.59848
333.007324 245.52626
335.103638 21.406708
336.180573 153.500519
336.955566 145.347229
338.065948 110.129875
339.261078 390.187134
341.256989 605.218994
341.982208 1193.373657
343.028503 1838.414673
344.022919 112650.46875
345.069458 77965.398438
346.08252 10810.293945
347.097565 4.404899
347.881958 155.085861
349.008759 405.322998
350.097839 143.060257
351.019165 644.207703
352.154297 221.253784
352.89859 485.996338
354.046692 1428.570679
354.94165 306.76474
355.885437 311.150635
356.936127 541.596008
357.61499 257.381226
358.199188 674.313965
358.94574 563.523376
360.013702 895.746887
361.057465 5848.791016
362.047394 1361.611816
363.191589 1581.70459
364.030518 331.917908
364.844421 69.494659
366.123047 72.2015
367.076019 998.152771
368.035339 1805.3125
369.009216 688.485168
370.15387 369.678955
371.050659 443.558258
371.942871 819.297546
372.695251 144.772034
374.964355 236.56163
375.973663 176.805069
378.283051 346.150787
379.030945 1041.99707
380.143097 626.950867
381.008423 928.27948
381.592377 409.365234
382.227356 1645.187866
382.956543 209.158722
384.066437 976.227783
385.069977 1312.887207
386.015228 14169.648438
387.051697 7108.397949
387.924988 796.369873
392.512177 228.256744
393.102081 52.663582
396.058899 454.18457
397.105652 754.299194
398.026764 403.256683
399.083099 2760.442139
400.13028 1096.747437
401.05954 7.560536
402.070343 24841.785156
402.993896 5490.229492
404.066223 658.227661
406.121704 120.202057
407.060547 115.743965
409.930725 166.447906
410.83197 454.166931
411.365753 337.235748
412.09552 711.609802
413.138855 41.336906
414.11673 1082.765137
415.012024 262.827911
417.078064 1828.832397
418.267578 244.343765
419.222382 375.28894
420.038055 1170.123169
421.082123 3541.07251
422.136414 993.223022
423.287994 343.41864
424.11615 1212.35791
425.108368 340.147461
426.295959 110.000175
427.274658 720.014404
427.953918 907.031616
428.529022 189.080093
429.385132 140.596909
430.081543 368.416748
431.103119 912.005127
432.075806 223.985291
433.016113 55.500416
437.008057 586.838379
438.062469 6210.42334
439.106628 8665.362305
440.106445 5528.058105
441.151215 4630.061035
442.279694 1629.796387
443.237518 358.404633
444.087738 2806.359863
445.1539 1145.672607
445.727295 1.020434
447.392517 122.286911
452.016724 37.367367
453.023834 356.409119
454.030182 60.848377
455.234467 982.152832
456.110291 25658.648438
457.123718 8027.55127
458.162964 1961.551758
459.096893 36852.304688
460.219208 6505.995117
461.226746 59.901726
462.011627 268.382904
463.150208 447.145294
464.128052 670.678101
464.636383 3.353126
465.19931 219.479736
466.149323 371.425476
469.270721 242.07457
470.1427 1925.923706
471.103058 1086.260254
472.003601 592.674133
473.206726 263.989349
474.149658 23096.974609
475.129822 3870.659912
476.251465 403.104248
477.059998 402.996826
478.49585 99.148209
479.278656 60.413097
480.140076 3016.356445
481.058807 7747.309082
482.018951 2872.252441
483.262695 1141.97644
484.078735 215.413208
487.052124 117.226349
487.718689 185.899216
488.246185 1077.864868
489.232483 145.291122
490.031097 475.573853
491.308807 176.785187
493.188171 365.926544
495.088654 178.083008
496.335358 148.243515
497.254272 1051.187622
498.16217 27127.765625
499.144653 10392.042969
500.205658 1993.125977
501.106476 3452.749268
502.161011 317.950592
503.1138 175.691895
504.376251 101.879616
505.802277 253.759903
508.479065 64.966301
510.033722 36.809029
512.260925 111.260811
513.075439 46.259628
514.247375 827.379639
515.134033 2566.635986
516.105103 437484.25
517.138306 87237.210938
518.117737 2005.361938
521.119751 264.361847
522.351074 202.562119
523.088257 1372.880371
523.719482 661.351624
524.248169 278.24176
525.075867 173.55365
526.002563 2784.854004
527.234497 538.347107
529.089905 244.405365
530.097717 614.512207
531.115295 107.924591
531.652832 43.814537
532.233643 1032.60498
533.143188 18072.3125
534.22168 4009.287109
535.185974 3123.605225
536.10498 2044.857422
536.836914 74.633575
538.138306 507.730377
539.176453 1144.758423
540.118713 4625.066406
541.164734 1655.338623
542.136719 27.280422
543.02533 163.677017
543.636353 1.867949
544.233826 1234.756958
550.163635 1007.644043
551.106689 1904.478638
552.056335 856.950317
553.181091 527.989258
554.198059 1469.432129
554.954224 490.288025
556.022461 485.767944
556.991028 234.488037
558.094055 29779.386719
559.03009 7676.070801
559.777161 12.006611
560.402527 217.286407
564.27179 496.657471
564.796936 88.081604
565.3255 231.599167
565.957764 219.356445
566.483459 225.924179
567.269348 652.490356
568.074524 1019.44812
569.018005 1520.077148
570.215393 848.601135
571.029297 1155.991821
571.912659 144.037048
573.579346 509.570282
574.150696 12764.916992
575.125549 8417.112305
576.187378 1299.333496
577.170593 471.646545
578.162231 7293.322266
579.102966 3080.007324
581.005127 449.841858
582.189514 232.966003
583.011719 201.665527
584.227173 1202.190063
585.058044 1410.099243
585.876221 121.933411
586.396545 409.931549
587.193848 244.321976
589.194214 1670.109009
590.211731 246.667313
592.143738 2906.126709
593.199219 6564.537598
594.242798 670.465454
595.245239 1532.828613
596.228455 1756.874268
597.238953 368.658051
599.292969 298.509094
600.379883 335.490692
601.091492 24.182354
609.324036 391.27179
610.193237 26821.927734
611.206604 16463.748047
612.143677 3892.289795
613.181091 8177.77832
614.205139 3471.188965
615.454163 82.139099
616.763611 233.142761
618.26062 72.992653
624.808838 231.807083
625.4104 843.409973
626.1698 985.402588
627.21759 1164.573364
628.223328 86434.414062
629.225403 23250.578125
629.951477 198.135605
630.730652 20.381441
631.232727 2947.473145
631.999634 1490.614624
634.280579 689.02594
635.179504 2515.362549
636.34198 575.388794
637.34668 39.603348
641.37439 324.087128
642.23822 5643.26123
643.210022 4057.353271
644.171082 923.149292
645.656494 901.189697
646.217224 60231.332031
647.212158 16920.013672
647.876099 156.918976
648.499878 122.130455
651.724182 716.500244
652.269104 9441.448242
653.149597 16805.035156
654.122986 4674.220703
655.545593 44.111263
659.313843 800.054382
660.151367 11103.621094
661.187805 3562.911865
668.750366 21.030493
669.576721 3006.994873
670.194092 359186.875
671.210815 100025.671875
672.313354 883.084656
726.864136 89.974724
727.578186 48.427998
793.424866 150.76532
853.401367 130.601807
1021.595459 202.61882
1044.243164 137.981949
