>compound MLS002473170-01!3-hydroxy-9-methoxy-6-oxo-8-pentanoyl-1-pentylbenzo[b][1,4]benzodioxepine-2-carboxylic acid
>formula C25H28O8
>ionization [M+H]+
>parentmass 457.184814
#inchi InChI=1S/C25H28O8/c1-4-6-8-9-14-22(24(28)29)18(27)12-21-23(14)32-20-13-19(31-3)15(17(26)10-7-5-2)11-16(20)25(30)33-21/h11-13,27H,4-10H2,1-3H3,(H,28,29)
#inchikey RQGOSSYDPQTDRA
#Ion_Source LC-ESI
#Instrument qTof
#Compound_Source NIH Natural Product Library
#PI Dorrestein
#Data_Collector VVP/LMS
#Scan -1
#Precursor_MZ 457.186
#ExactMass 456.178
#Charge 1
#CAS_Number N/A
#Pubmed_ID N/A
#Smiles CCCCCc1c(C(=O)O)c(O)cc2OC(=O)c3cc(C(=O)CCCC)c(OC)cc3Oc12
#INCHI_AUX N/A
#Library_Class 1
#SpectrumID CCMSLIB00000080282
#IonMode Positive
#UpdateWorkflowName UPDATE-SINGLE-ANNOTATED-GOLD
#LibraryQualityString Gold
#TaskID b1d8e8f6646f4e71acdff9ca3d919d08
##Scan# 2740
#SpectrumFile p2-F06_GF6_01_18042.mzXML
#LibraryName NIH_Natural_Products_Library.mgf
#MQScore -1
#Organism NIH_Natural_Products_Library
#TIC_Query 0
#RT_Query -1
#MZErrorPPM -1
#SharedPeaks 0
#MassDiff 0
#LibMZ -1
#SpecMZ 457.186
#SpecCharge 0
#internalFilename spec-00000.mgf

>collision 10
95.046631 184.0
95.087852 196.0
95.203621 148.0
95.374596 104.0
95.4543 136.0
95.569069 116.0
95.627449 168.0
95.674164 144.0
95.744263 144.0
95.952766 240.0
95.97226 100.0
96.197502 196.0
96.282532 152.0
96.304016 176.0
96.378258 208.0
96.695061 144.0
96.888916 72.0
96.904587 76.0
97.330223 160.0
97.569923 160.0
97.689888 136.0
97.84536 64.0
97.953674 156.0
97.998985 164.0
98.036423 124.0
98.054161 140.0
98.073868 176.0
98.113297 152.0
98.342117 128.0
98.540642 144.0
98.644341 152.0
98.665077 220.0
98.784744 212.0
98.899513 204.0
98.917328 56.0
99.003227 172.0
99.055939 60.0
99.268013 156.0
99.394966 104.0
99.496193 132.0
99.514061 196.0
99.541862 60.0
99.591507 104.0
99.617332 188.0
99.686874 100.0
99.748489 144.0
99.770355 172.0
99.905586 232.0
100.299873 224.0
100.519264 96.0
100.543999 172.0
100.611732 164.0
100.654999 160.0
100.754868 168.0
100.862778 132.0
100.928757 152.0
100.944748 168.0
100.992752 112.0
101.112793 136.0
101.270966 48.0
101.32505 188.0
101.353104 176.0
101.427254 88.0
101.477379 48.0
101.627403 176.0
101.991302 116.0
102.168259 176.0
102.26284 196.0
102.61335 164.0
102.747231 168.0
102.990723 112.0
103.054642 156.0
103.10791 116.0
103.144295 128.0
103.196854 244.0
103.50441 176.0
103.666466 184.0
103.757683 144.0
103.786064 164.0
103.962547 92.0
104.155426 44.0
104.19809 192.0
104.4179 176.0
104.56208 108.0
104.788109 72.0
104.877777 128.0
104.904274 140.0
105.032745 156.0
105.068443 176.0
105.277664 80.0
105.639442 212.0
105.76017 136.0
106.012085 116.0
106.034622 160.0
106.077667 60.0
106.157631 52.0
106.297127 148.0
106.426445 212.0
106.449028 128.0
106.541458 256.0
106.576385 160.0
106.705872 136.0
106.76458 124.0
107.049416 192.0
107.068031 168.0
107.088074 164.0
107.426971 204.0
107.787033 300.0
107.90995 196.0
107.932259 196.0
108.052658 156.0
108.14785 208.0
108.483421 176.0
108.526955 132.0
108.67215 176.0
108.775917 116.0
108.985672 160.0
109.029312 120.0
109.08844 204.0
109.104141 136.0
109.127014 172.0
109.24556 176.0
109.401642 180.0
109.530746 144.0
109.668266 132.0
109.872627 180.0
109.949837 128.0
110.008278 152.0
110.104324 104.0
110.183701 176.0
110.238029 148.0
110.417824 100.0
110.842789 100.0
110.989525 192.0
111.006134 156.0
111.060478 24.0
111.224495 148.0
111.287476 144.0
111.381981 128.0
111.708672 164.0
111.762505 48.0
111.975121 40.0
112.12471 88.0
112.168968 160.0
112.219566 204.0
112.268066 244.0
112.369316 92.0
112.504387 52.0
112.677567 140.0
112.719826 68.0
112.755753 132.0
112.787453 204.0
112.825508 112.0
112.929123 104.0
113.044197 152.0
113.405518 140.0
113.433075 176.0
113.52636 212.0
113.710938 164.0
113.942398 180.0
113.991264 96.0
114.06353 136.0
114.489059 68.0
114.629662 216.0
114.685074 152.0
114.721313 156.0
114.870583 196.0
114.896187 140.0
115.015686 128.0
115.054382 932.0
115.165154 172.0
115.644096 88.0
115.890373 128.0
116.061523 184.0
116.209846 120.0
116.405174 128.0
116.757614 148.0
116.826447 180.0
116.880234 104.0
117.069672 684.0
117.087791 180.0
117.295898 220.0
117.408012 220.0
117.496452 192.0
117.612984 124.0
117.761971 140.0
117.828934 84.0
117.863503 184.0
117.962921 168.0
118.003525 184.0
118.045753 192.0
118.066704 128.0
118.109962 176.0
118.138084 72.0
118.192177 168.0
118.313377 76.0
118.540131 116.0
118.552315 116.0
118.594986 136.0
118.709892 148.0
118.731575 180.0
118.874756 148.0
119.007172 224.0
119.046524 160.0
119.0839 168.0
119.104897 228.0
119.191795 152.0
119.805359 144.0
119.842392 188.0
119.892509 156.0
120.086548 140.0
120.106178 152.0
120.197815 168.0
120.379265 160.0
120.656487 196.0
120.673981 184.0
120.955528 172.0
121.00676 160.0
121.029579 484.0
121.065338 364.0
121.177383 112.0
121.300102 148.0
121.453598 144.0
121.519409 244.0
122.077339 144.0
122.148285 172.0
122.343575 112.0
122.389816 156.0
122.691658 96.0
122.812943 260.0
123.014641 216.0
123.046585 292.0
123.08477 188.0
123.130768 148.0
123.221336 152.0
123.258904 100.0
123.292046 156.0
123.42247 128.0
123.592796 384.0
123.663612 116.0
123.685745 148.0
123.929352 136.0
124.044594 132.0
124.07785 144.0
124.106674 196.0
124.179855 60.0
124.287941 168.0
124.368454 60.0
124.488342 100.0
124.534981 72.0
124.583847 172.0
124.634949 108.0
124.71051 132.0
124.881714 196.0
124.975151 148.0
125.024101 156.0
125.110909 68.0
125.148758 172.0
125.367058 112.0
125.508308 140.0
125.748428 136.0
126.047684 168.0
126.101318 120.0
126.179558 180.0
126.215332 140.0
126.593506 164.0
126.978973 164.0
127.055244 132.0
127.221313 132.0
127.259483 136.0
127.495346 128.0
127.596497 148.0
127.632469 80.0
127.729179 184.0
127.778671 124.0
127.942963 224.0
128.021774 160.0
128.062057 328.0
128.10762 68.0
128.161438 116.0
128.19072 216.0
128.307938 168.0
128.567337 52.0
128.786331 164.0
128.858627 136.0
128.951279 160.0
129.066544 840.0
129.105011 160.0
129.14798 168.0
129.383331 100.0
129.482956 140.0
129.627426 188.0
129.727676 208.0
129.875061 132.0
129.999847 180.0
130.076462 468.0
130.092911 196.0
130.204666 180.0
130.331375 220.0
130.408646 108.0
130.490479 108.0
130.508667 144.0
130.929657 144.0
131.051407 116.0
131.087341 428.0
131.335358 112.0
131.597794 84.0
131.68457 176.0
131.819366 224.0
131.883362 40.0
132.057053 124.0
132.096008 112.0
132.118881 128.0
132.221863 80.0
132.30426 180.0
132.35463 156.0
132.409592 148.0
132.45311 180.0
132.606628 192.0
132.68457 132.0
132.769409 160.0
133.068604 504.0
133.088379 224.0
133.111343 60.0
133.320389 236.0
133.336472 200.0
133.405426 48.0
133.5802 152.0
133.628464 184.0
133.713654 100.0
133.941605 48.0
134.036057 148.0
134.070633 136.0
134.328873 172.0
134.523804 268.0
134.573502 72.0
134.755966 140.0
134.883209 196.0
135.010498 144.0
135.045303 192.0
135.078278 440.0
135.227707 172.0
135.348099 176.0
135.47316 92.0
135.568161 132.0
135.788406 404.0
136.032043 148.0
136.048294 148.0
136.078171 160.0
136.129547 164.0
136.192261 100.0
136.218979 152.0
136.323212 164.0
136.422302 148.0
136.485077 152.0
136.796844 72.0
137.00177 176.0
137.020752 660.0
137.058594 316.0
137.241837 188.0
137.382431 128.0
137.787994 160.0
138.010025 208.0
138.025574 312.0
138.064728 188.0
138.145248 132.0
138.363312 192.0
138.398438 108.0
138.456985 160.0
138.558975 128.0
138.740509 168.0
139.049377 212.0
139.144028 112.0
139.162109 132.0
139.228561 156.0
139.306122 200.0
139.578705 252.0
139.619385 104.0
139.642212 144.0
139.9599 180.0
140.054108 152.0
140.122421 144.0
140.24025 176.0
140.379349 148.0
140.674271 232.0
140.719131 164.0
141.040421 56.0
141.070587 360.0
141.137344 120.0
141.35733 132.0
141.376266 168.0
141.414124 160.0
141.525391 116.0
141.674606 168.0
141.700958 160.0
141.736206 196.0
141.762268 120.0
141.84285 216.0
141.930573 164.0
142.035217 200.0
142.076248 192.0
142.096603 164.0
142.144058 204.0
142.457458 176.0
142.49025 100.0
142.512436 144.0
142.687988 168.0
142.73317 188.0
142.759323 140.0
142.783096 92.0
143.086411 328.0
143.140076 108.0
143.385437 128.0
143.614334 196.0
143.69783 136.0
143.900696 180.0
143.931732 104.0
143.953232 80.0
143.972336 208.0
144.023026 88.0
144.053604 316.0
144.096542 124.0
144.464722 176.0
144.524536 152.0
144.543671 148.0
144.567596 180.0
144.591537 124.0
144.682495 104.0
144.704041 216.0
144.719727 144.0
144.804611 116.0
145.029846 116.0
145.064346 752.0
145.097427 184.0
145.132919 64.0
145.22345 112.0
145.274429 144.0
145.371078 152.0
145.413605 120.0
145.61528 176.0
145.706558 136.0
145.817093 172.0
145.970947 136.0
146.073166 196.0
146.156174 200.0
146.177826 156.0
146.329468 120.0
146.384857 192.0
146.727005 76.0
146.787277 196.0
146.813812 140.0
146.917526 136.0
147.001968 172.0
147.038177 232.0
147.076599 156.0
147.163696 160.0
147.625229 192.0
147.88652 124.0
148.017502 188.0
148.054062 280.0
148.11412 140.0
148.198914 128.0
148.230423 140.0
148.254654 152.0
148.543182 156.0
148.958282 148.0
149.026062 240.0
149.062515 244.0
149.145523 132.0
149.171921 200.0
149.198868 136.0
149.335037 108.0
149.529678 100.0
149.575928 168.0
149.602707 228.0
149.673309 164.0
149.809692 180.0
149.855988 116.0
149.916901 112.0
149.968094 160.0
150.026596 168.0
150.050262 232.0
150.153381 80.0
150.316833 84.0
150.648895 44.0
150.678207 136.0
150.783279 184.0
150.995987 124.0
151.040924 516.0
151.070923 100.0
151.086487 156.0
151.233307 220.0
151.593338 232.0
151.616455 88.0
151.929245 148.0
152.067856 180.0
152.115753 136.0
152.414948 160.0
152.518234 132.0
152.867844 180.0
153.072006 128.0
153.123871 364.0
153.324738 220.0
153.454086 160.0
153.48613 156.0
153.523117 120.0
153.604523 136.0
153.698273 128.0
153.793839 132.0
153.895737 112.0
154.004395 204.0
154.070572 208.0
154.323181 176.0
154.377579 140.0
154.402313 68.0
154.852753 96.0
154.956802 128.0
154.989014 64.0
155.057663 216.0
155.089264 268.0
155.137711 56.0
155.222015 112.0
155.303848 72.0
155.343536 136.0
155.364975 132.0
155.504837 240.0
155.594193 172.0
155.651306 160.0
155.748154 108.0
155.951904 132.0
156.009079 108.0
156.060501 152.0
156.101074 44.0
156.208023 112.0
156.227921 172.0
156.324966 120.0
156.681015 140.0
156.773209 164.0
156.850479 148.0
157.000076 76.0
157.065765 420.0
157.089523 172.0
157.259537 188.0
157.386856 168.0
157.424316 112.0
157.516724 152.0
157.594177 44.0
157.63916 112.0
157.851639 136.0
157.871643 208.0
157.906662 72.0
157.942871 84.0
158.041748 212.0
158.073578 1516.0
158.319595 48.0
158.514999 140.0
158.542572 128.0
158.57515 108.0
158.64032 164.0
158.745621 168.0
158.793274 124.0
158.845947 108.0
159.005463 224.0
159.04393 316.0
159.076309 304.0
159.272675 92.0
159.297806 148.0
159.378189 40.0
159.564789 116.0
159.677353 84.0
159.79306 76.0
160.053284 164.0
160.081909 184.0
160.160599 220.0
160.218536 180.0
160.324371 80.0
160.35965 84.0
160.405029 124.0
160.619354 68.0
160.854034 68.0
160.939865 224.0
161.059433 436.0
161.09137 332.0
161.41745 80.0
161.559082 44.0
161.693192 76.0
161.781784 68.0
162.015945 156.0
162.070511 220.0
162.093323 228.0
162.128799 100.0
162.276581 80.0
162.737595 212.0
162.768066 124.0
162.956024 104.0
163.035431 476.0
163.07814 472.0
163.104568 172.0
163.276321 184.0
163.352615 140.0
163.441666 120.0
163.481979 204.0
163.614746 116.0
163.877075 148.0
163.952896 164.0
164.040176 336.0
164.07077 120.0
164.098816 76.0
164.121765 116.0
164.244171 204.0
164.410019 132.0
164.435547 148.0
164.458511 116.0
164.856934 148.0
164.928497 60.0
165.01796 208.0
165.06958 588.0
165.145828 112.0
165.217453 136.0
165.255829 52.0
165.312119 60.0
165.40683 176.0
165.442657 44.0
165.678268 184.0
165.955063 76.0
166.079208 476.0
166.124344 200.0
166.283432 76.0
166.332199 60.0
166.378403 116.0
166.609543 240.0
166.699463 220.0
166.725159 116.0
166.843399 152.0
166.861404 172.0
166.887115 172.0
166.925674 156.0
167.064911 120.0
167.092468 128.0
167.172638 32.0
167.298752 48.0
167.612976 164.0
167.739258 160.0
168.033264 120.0
168.058167 332.0
168.108093 224.0
168.221649 200.0
168.347534 200.0
168.552246 156.0
168.585831 184.0
168.7099 32.0
168.790054 104.0
168.958176 148.0
169.064545 420.0
169.0979 136.0
169.116028 156.0
169.426758 108.0
169.488953 172.0
169.65741 116.0
169.787064 148.0
169.88562 176.0
169.929733 180.0
170.075638 180.0
170.259399 72.0
170.397064 100.0
170.573792 140.0
170.636185 268.0
170.763596 168.0
170.937897 148.0
170.971725 120.0
171.005569 140.0
171.030258 188.0
171.048843 196.0
171.080093 584.0
171.156555 64.0
171.245102 96.0
171.28656 148.0
171.359726 164.0
171.540543 212.0
171.62558 188.0
171.889038 136.0
171.930786 48.0
172.00386 180.0
172.049667 176.0
172.085892 200.0
172.229736 104.0
172.374725 140.0
172.395645 112.0
172.45575 184.0
172.683228 128.0
172.732925 148.0
173.024765 424.0
173.058533 316.0
173.095688 1900.0
173.122894 188.0
173.183136 236.0
173.225052 96.0
173.272202 44.0
173.338394 124.0
173.363907 144.0
173.44516 188.0
173.574295 104.0
173.641815 112.0
173.870056 224.0
173.964554 108.0
174.022308 64.0
174.065002 660.0
174.100937 664.0
174.12735 148.0
174.553085 168.0
174.705643 100.0
174.742462 112.0
174.845093 112.0
175.03833 188.0
175.074799 288.0
175.374481 84.0
175.603867 136.0
175.907318 168.0
176.076752 212.0
176.118561 132.0
176.171387 140.0
176.282364 56.0
176.396011 144.0
176.485901 172.0
176.938339 132.0
177.054306 524.0
177.091309 392.0
177.150192 116.0
177.54248 44.0
177.908646 128.0
177.951126 216.0
178.078934 448.0
178.115768 216.0
178.37619 412.0
179.032913 528.0
179.081741 324.0
179.177216 84.0
179.238495 128.0
179.287491 72.0
179.305115 132.0
179.327896 124.0
179.388931 180.0
179.579727 156.0
179.721115 52.0
179.822525 176.0
179.849213 32.0
179.92215 100.0
179.998337 28.0
180.045456 176.0
180.088013 384.0
180.326477 216.0
180.426224 160.0
180.450165 180.0
180.739151 172.0
181.064072 428.0
181.102173 184.0
181.183609 192.0
181.226471 72.0
181.347076 104.0
181.583008 108.0
181.7547 108.0
182.017761 144.0
182.063354 360.0
182.116226 180.0
182.168167 244.0
182.190353 76.0
182.286377 172.0
182.68161 148.0
183.02739 84.0
183.04718 112.0
183.079681 564.0
183.113525 152.0
183.225418 132.0
183.264709 196.0
183.454498 104.0
183.521896 196.0
183.767349 76.0
184.048141 460.0
184.083206 148.0
184.107468 96.0
184.142578 136.0
184.172287 32.0
184.274933 52.0
184.36264 176.0
184.41275 40.0
184.561447 120.0
184.628677 148.0
184.769699 156.0
184.834641 44.0
185.057709 448.0
185.096283 388.0
185.137833 112.0
185.208252 52.0
185.24617 260.0
185.265137 128.0
185.397903 136.0
185.595795 156.0
185.715118 228.0
185.79921 92.0
185.883316 72.0
185.918594 104.0
185.943024 192.0
186.066406 164.0
186.109695 232.0
186.169601 156.0
186.342194 44.0
186.40741 176.0
186.749969 76.0
186.951294 112.0
187.027496 128.0
187.046555 148.0
187.073883 768.0
187.114548 164.0
187.367889 160.0
187.509583 44.0
187.686783 128.0
187.749496 96.0
187.828598 188.0
187.915894 116.0
188.047913 124.0
188.088547 76.0
188.123306 168.0
188.180649 92.0
188.344498 116.0
188.552155 160.0
188.623215 344.0
188.666962 188.0
189.055923 604.0
189.088715 488.0
189.142944 80.0
189.263397 188.0
190.071838 228.0
190.090225 132.0
190.143372 164.0
190.1763 108.0
190.214737 160.0
190.266891 100.0
190.346512 136.0
190.387711 52.0
190.431656 88.0
190.739395 92.0
190.761383 104.0
190.788879 164.0
191.034988 332.0
191.073181 428.0
191.103745 480.0
191.146439 48.0
191.17395 84.0
191.251022 60.0
191.339111 140.0
191.614334 176.0
191.683411 164.0
191.719223 112.0
191.785751 144.0
191.911087 120.0
192.039978 120.0
192.060043 312.0
192.092621 420.0
192.165939 80.0
192.218369 36.0
192.25148 92.0
192.498093 132.0
192.602112 40.0
193.050613 1276.0
193.099869 424.0
193.356934 152.0
193.387375 96.0
193.572876 136.0
193.680878 104.0
193.866516 96.0
193.910858 68.0
193.957977 96.0
194.073334 536.0
194.113235 164.0
194.293518 64.0
194.559341 72.0
194.598816 120.0
194.818222 156.0
194.837662 136.0
194.873779 156.0
194.937698 64.0
195.040527 220.0
195.077545 472.0
195.110931 332.0
195.146164 72.0
195.235153 184.0
195.304672 76.0
195.457687 164.0
195.541183 40.0
195.616333 128.0
195.683151 168.0
195.950516 44.0
196.050995 112.0
196.085617 352.0
196.298935 172.0
196.332397 116.0
196.469086 200.0
196.508133 52.0
196.583481 164.0
196.773285 124.0
197.056412 276.0
197.096298 360.0
197.211868 52.0
197.298523 136.0
197.329269 40.0
197.511047 132.0
197.628555 132.0
197.715149 148.0
197.774078 156.0
197.810455 132.0
198.066986 308.0
198.102219 152.0
198.15773 136.0
198.194153 48.0
198.281021 88.0
198.656754 124.0
198.889664 208.0
198.940186 32.0
198.959839 64.0
199.037872 216.0
199.076584 1148.0
199.107773 552.0
199.209778 48.0
199.330597 44.0
199.51329 52.0
199.634186 84.0
199.667938 168.0
200.0271 160.0
200.037827 104.0
200.044449 128.0
200.082687 488.0
200.320953 172.0
200.399841 168.0
200.466309 196.0
200.506912 56.0
200.605576 176.0
200.681686 76.0
200.822693 144.0
200.893204 76.0
200.918594 304.0
201.05545 556.0
201.091904 3092.0
201.160461 136.0
201.197998 56.0
201.254471 120.0
201.367416 56.0
201.432297 136.0
201.533676 188.0
201.638657 128.0
201.867645 68.0
201.932693 56.0
202.067062 184.0
202.09494 624.0
202.147705 120.0
202.24675 108.0
202.566727 164.0
202.595062 112.0
202.739563 184.0
202.794952 140.0
202.847275 152.0
202.923813 168.0
202.960678 192.0
203.031998 132.0
203.070541 524.0
203.100464 476.0
203.133682 188.0
203.238647 196.0
203.411774 60.0
203.874725 60.0
203.957153 204.0
204.037125 144.0
204.090164 372.0
204.144806 164.0
204.258423 152.0
204.321152 132.0
204.440659 164.0
204.540268 124.0
204.694016 104.0
204.87915 132.0
205.050369 364.0
205.088943 432.0
205.158432 72.0
205.232559 92.0
205.49852 196.0
205.586288 184.0
205.706161 68.0
205.737564 104.0
205.768967 112.0
205.814651 144.0
205.891754 112.0
205.920303 136.0
206.068924 380.0
206.101852 236.0
206.151718 56.0
206.203156 128.0
206.400421 148.0
206.454742 48.0
206.51767 80.0
206.572021 136.0
207.018509 108.0
207.045532 148.0
207.075424 684.0
207.115158 164.0
207.144531 148.0
207.425354 148.0
207.531433 80.0
207.554367 388.0
207.669083 164.0
207.740799 124.0
208.051743 252.0
208.084213 504.0
208.20578 276.0
208.312057 112.0
208.358032 208.0
208.389633 64.0
208.52182 96.0
209.059509 572.0
209.094604 564.0
209.141556 136.0
209.212173 40.0
209.238083 128.0
209.275513 64.0
209.338852 176.0
209.595566 168.0
209.647095 136.0
209.834457 136.0
209.912308 176.0
210.06897 200.0
210.104935 144.0
210.143066 36.0
210.270035 48.0
210.293121 136.0
210.853439 132.0
210.873672 152.0
210.92569 168.0
210.960388 128.0
211.026886 160.0
211.07576 916.0
211.122498 304.0
211.214859 100.0
211.249573 100.0
211.345261 208.0
211.593948 200.0
211.634491 104.0
211.695297 144.0
211.889374 160.0
212.046509 616.0
212.078064 548.0
212.118301 300.0
212.164688 284.0
212.277771 132.0
212.309662 140.0
212.47963 148.0
212.556244 140.0
212.63298 236.0
212.797165 56.0
212.823288 172.0
212.886993 132.0
213.05159 616.0
213.089249 564.0
213.145706 120.0
213.267776 152.0
213.302658 92.0
213.349167 96.0
213.494553 184.0
213.538177 164.0
213.619614 120.0
213.83493 176.0
213.896057 132.0
214.024155 112.0
214.060028 372.0
214.105698 128.0
214.279297 148.0
214.429092 56.0
214.69487 172.0
214.933594 148.0
214.980286 56.0
215.067291 592.0
215.088577 176.0
215.134979 52.0
215.63269 144.0
215.663696 192.0
215.70755 256.0
215.7397 172.0
215.818634 188.0
215.839111 68.0
215.903442 28.0
216.079315 460.0
216.315994 116.0
216.38942 204.0
216.47995 108.0
216.52681 232.0
216.746521 76.0
216.787552 144.0
216.85495 184.0
216.907715 108.0
216.95755 188.0
217.048233 404.0
217.086456 1320.0
217.130554 168.0
217.200943 52.0
217.288956 52.0
217.374039 164.0
217.70871 224.0
217.819443 176.0
217.952515 148.0
217.987778 156.0
218.059784 120.0
218.090225 716.0
218.12886 44.0
218.161194 188.0
218.389511 192.0
218.49939 92.0
218.561188 84.0
218.829025 144.0
218.882034 160.0
218.982162 128.0
219.082245 976.0
219.184753 176.0
219.651245 40.0
219.719101 204.0
219.760406 48.0
219.795807 92.0
219.899109 164.0
219.96994 124.0
220.005371 224.0
220.052902 128.0
220.089615 660.0
220.11055 152.0
220.15596 128.0
220.30069 88.0
220.371582 136.0
220.392273 144.0
220.507523 172.0
220.52919 204.0
220.620163 184.0
220.645523 192.0
220.687851 44.0
220.764725 124.0
220.788391 108.0
221.059357 740.0
221.094467 748.0
221.205582 88.0
221.248367 140.0
221.380264 176.0
221.560944 172.0
221.584656 48.0
221.682434 184.0
221.726883 80.0
221.883987 144.0
222.069153 648.0
222.106796 508.0
222.149582 108.0
222.284409 44.0
222.322983 140.0
222.539673 216.0
222.616882 144.0
222.656235 176.0
222.759445 104.0
222.783218 172.0
222.815887 144.0
223.031265 404.0
223.075409 1184.0
223.111893 284.0
223.294067 144.0
223.410477 28.0
223.43428 156.0
223.65152 144.0
223.734863 260.0
223.778656 152.0
223.812271 152.0
223.882889 168.0
223.982025 108.0
224.044678 208.0
224.081894 704.0
224.116409 308.0
224.384338 116.0
224.661697 124.0
224.819839 160.0
224.854385 216.0
224.960114 116.0
225.056961 380.0
225.090485 1056.0
225.333435 28.0
225.426056 68.0
225.662201 52.0
226.061249 476.0
226.098587 716.0
226.245605 32.0
226.509125 84.0
226.793777 164.0
227.03064 236.0
227.072128 3136.0
227.107697 488.0
227.22261 168.0
227.318634 48.0
227.393661 108.0
227.423676 128.0
227.513718 268.0
227.675873 88.0
227.969955 76.0
228.032745 180.0
228.073303 800.0
228.102707 332.0
228.168655 160.0
228.189697 60.0
228.264877 40.0
228.37915 128.0
228.520538 168.0
228.622849 156.0
228.710129 132.0
228.941971 216.0
228.966064 108.0
229.041992 428.0
229.084518 324.0
229.105316 232.0
229.312531 56.0
229.384872 256.0
229.641174 48.0
229.698486 116.0
229.731659 132.0
230.059677 284.0
230.088715 304.0
230.244064 200.0
230.284058 156.0
230.329361 104.0
230.525742 96.0
230.731277 84.0
230.852234 232.0
230.915741 176.0
231.063171 980.0
231.103073 108.0
231.107895 172.0
231.163818 124.0
231.245529 52.0
231.275787 140.0
231.504669 208.0
231.567535 112.0
231.612808 176.0
231.742157 176.0
231.908829 48.0
232.048279 116.0
232.083603 148.0
232.118011 76.0
232.448669 160.0
232.496506 204.0
232.600418 56.0
232.727921 156.0
232.894943 148.0
233.046005 408.0
233.067047 136.0
233.09343 644.0
233.124878 164.0
233.147125 208.0
233.369019 220.0
233.442001 132.0
233.463287 56.0
233.587997 148.0
233.718811 44.0
233.803146 84.0
233.98056 80.0
234.061951 424.0
234.101379 548.0
234.202866 60.0
234.288162 36.0
234.339951 92.0
234.436081 168.0
234.623398 68.0
234.760605 52.0
234.803299 48.0
234.83075 92.0
234.983093 132.0
235.100052 1388.0
235.17247 116.0
235.212158 88.0
235.25795 60.0
235.377014 92.0
235.398392 152.0
235.551102 52.0
235.578598 140.0
235.648865 72.0
235.673309 140.0
235.890289 172.0
235.920868 168.0
236.041641 64.0
236.08165 1352.0
236.186905 140.0
236.21138 56.0
236.315399 144.0
236.373535 76.0
236.644623 176.0
236.679626 156.0
236.710251 144.0
236.756195 48.0
236.946106 148.0
237.016571 156.0
237.050217 304.0
237.087723 672.0
237.12767 956.0
237.179001 200.0
237.211319 192.0
237.36908 172.0
237.451706 68.0
237.767883 164.0
237.801651 60.0
237.949738 164.0
238.006805 92.0
238.062164 416.0
238.095032 192.0
238.133926 504.0
238.431259 88.0
238.46199 52.0
238.704865 76.0
238.76329 64.0
238.867874 160.0
239.02478 148.0
239.068329 700.0
239.10318 296.0
239.175583 40.0
239.465012 132.0
239.785431 80.0
239.948807 68.0
239.982727 116.0
240.039764 928.0
240.08075 932.0
240.111435 308.0
240.153275 144.0
240.578171 108.0
240.747986 132.0
240.796829 108.0
240.883881 36.0
241.044815 132.0
241.088516 1128.0
241.124695 128.0
241.15889 28.0
241.245438 76.0
241.452606 172.0
241.523743 156.0
241.573242 152.0
241.64563 100.0
241.727936 48.0
241.944595 148.0
242.018707 300.0
242.058243 504.0
242.09053 980.0
242.142776 168.0
242.170654 32.0
242.337936 68.0
242.393707 172.0
242.455688 200.0
242.533173 164.0
242.666473 68.0
242.746262 180.0
242.840134 200.0
242.868057 220.0
242.920776 120.0
242.9487 156.0
242.973526 148.0
243.056961 708.0
243.068512 208.0
243.099838 1204.0
243.150391 252.0
243.305603 144.0
243.373901 96.0
243.485687 188.0
243.752853 100.0
243.797729 128.0
243.942444 136.0
244.023285 140.0
244.073608 360.0
244.100204 168.0
244.127441 156.0
244.166321 144.0
244.272873 116.0
244.309402 180.0
244.530334 196.0
244.748245 148.0
244.814667 212.0
244.99118 80.0
245.038818 328.0
245.082321 572.0
245.117355 528.0
245.168777 132.0
245.50235 100.0
245.555374 120.0
245.639587 144.0
245.801819 40.0
245.882965 172.0
246.010941 132.0
246.066116 340.0
246.076385 136.0
246.085693 268.0
246.101303 236.0
246.142075 40.0
246.354446 92.0
246.460678 188.0
246.879562 120.0
246.945236 220.0
247.033447 196.0
247.07193 664.0
247.096512 528.0
247.10553 140.0
247.147736 120.0
247.204895 136.0
247.455307 48.0
247.521057 164.0
247.564911 84.0
247.643204 104.0
247.746567 232.0
247.782593 152.0
247.856232 160.0
247.93457 180.0
248.049011 196.0
248.085098 780.0
248.11438 396.0
248.382935 184.0
248.429977 152.0
248.555481 32.0
248.630798 112.0
248.659042 180.0
248.954147 180.0
249.007538 148.0
249.093353 1708.0
249.150696 156.0
249.478882 112.0
249.533325 156.0
249.686401 180.0
249.727295 80.0
249.859406 168.0
249.897156 188.0
249.972672 92.0
250.061646 612.0
250.097641 892.0
250.278015 124.0
250.325241 176.0
250.419724 176.0
250.696976 72.0
250.737946 128.0
250.920761 92.0
251.068665 1588.0
251.102371 1444.0
251.140518 152.0
251.330795 148.0
251.365509 132.0
251.41806 104.0
251.67485 152.0
251.742828 68.0
251.848541 196.0
251.952774 96.0
252.048431 192.0
252.077621 680.0
252.110077 520.0
252.148697 88.0
252.281448 164.0
252.474319 76.0
252.616653 140.0
252.664108 168.0
252.73056 112.0
252.796997 116.0
253.050308 936.0
253.083237 932.0
253.116058 404.0
253.259232 40.0
253.332092 228.0
253.38205 172.0
253.509521 144.0
253.7314 120.0
253.759933 148.0
253.855057 200.0
254.052872 288.0
254.090286 376.0
254.131882 268.0
254.381744 60.0
254.75647 152.0
255.018707 196.0
255.066498 2660.0
255.10173 1268.0
255.136673 136.0
255.197266 132.0
255.230026 136.0
255.295044 180.0
255.392227 60.0
255.43251 120.0
255.555237 148.0
255.656296 56.0
255.802063 120.0
255.879105 52.0
255.996918 52.0
256.037445 704.0
256.070526 1344.0
256.102478 296.0
256.149811 184.0
256.277222 92.0
256.305908 132.0
256.70755 112.0
256.841095 120.0
256.876587 44.0
257.041718 544.0
257.077118 168.0
257.117493 248.0
257.243561 200.0
257.518188 44.0
257.58844 132.0
257.610809 84.0
257.716248 140.0
257.898407 128.0
257.971924 152.0
258.032379 144.0
258.054413 256.0
258.09021 188.0
258.119873 260.0
258.230927 80.0
258.298096 168.0
258.400452 92.0
258.531647 52.0
258.592468 76.0
258.688477 48.0
258.736511 104.0
258.758911 40.0
258.822968 104.0
258.871002 120.0
258.912628 220.0
258.999084 56.0
259.023071 144.0
259.09668 840.0
259.133057 580.0
259.332336 224.0
259.437836 244.0
259.527893 88.0
259.556732 192.0
259.630493 60.0
259.739532 92.0
259.9039 208.0
259.986603 104.0
260.015472 36.0
260.062836 324.0
260.093933 364.0
260.12561 184.0
260.587067 136.0
260.885956 152.0
260.908447 148.0
261.008301 148.0
261.032471 160.0
261.055206 184.0
261.095856 1024.0
261.201111 148.0
261.261475 172.0
261.551849 168.0
261.609772 116.0
261.651642 96.0
261.722473 108.0
261.815857 104.0
261.967224 172.0
262.028442 236.0
262.07666 324.0
262.100128 360.0
262.14444 112.0
262.173431 148.0
262.196014 168.0
262.305603 96.0
262.343597 172.0
262.634491 52.0
262.834503 40.0
262.957153 56.0
263.069702 1108.0
263.11026 1016.0
263.17627 208.0
263.228333 128.0
263.279999 196.0
263.367188 164.0
263.528717 196.0
263.628906 72.0
263.65152 120.0
263.751709 88.0
263.900421 120.0
264.07962 2304.0
264.113159 504.0
264.144531 144.0
264.157562 172.0
264.401825 68.0
264.437408 148.0
264.610596 120.0
264.704071 224.0
264.887482 44.0
264.97821 224.0
265.047668 460.0
265.086273 972.0
265.123016 2380.0
265.227722 120.0
265.302277 72.0
265.386566 196.0
265.611847 200.0
265.707672 184.0
265.749847 100.0
265.775818 112.0
265.873169 112.0
266.056976 804.0
266.097626 1292.0
266.122589 820.0
266.197784 128.0
266.22702 172.0
266.369934 52.0
266.457642 48.0
266.480377 184.0
266.544373 124.0
266.772888 76.0
267.006989 124.0
267.063965 2208.0
267.105499 1736.0
267.138855 392.0
267.195648 84.0
267.263977 132.0
267.442963 148.0
267.586212 212.0
267.814148 72.0
267.871704 48.0
267.928162 28.0
268.009613 100.0
268.071808 552.0
268.108551 1084.0
268.250793 120.0
268.332306 176.0
268.366211 160.0
268.404938 176.0
268.487335 124.0
268.522797 144.0
268.612762 28.0
268.756317 76.0
268.912964 96.0
268.961914 108.0
269.006134 228.0
269.046204 304.0
269.081604 1928.0
269.117493 2468.0
269.598785 72.0
269.74588 124.0
269.794556 176.0
269.847229 124.0
269.873383 104.0
269.989075 136.0
270.018616 148.0
270.085907 428.0
270.118927 952.0
270.213531 76.0
270.452423 120.0
270.52771 68.0
270.62265 196.0
270.648834 152.0
271.012421 192.0
271.060486 852.0
271.09613 1320.0
271.122559 492.0
271.202484 72.0
271.334534 212.0
271.36969 88.0
271.851868 76.0
271.894531 48.0
272.068512 160.0
272.099274 248.0
272.155823 256.0
272.456024 68.0
272.534882 212.0
272.572357 196.0
272.669617 88.0
272.801086 204.0
273.10733 952.0
273.147339 348.0
273.330597 44.0
273.46225 76.0
273.561005 60.0
273.584045 92.0
273.692688 112.0
273.755249 48.0
274.053497 148.0
274.112732 548.0
274.223083 64.0
274.397797 128.0
274.664917 188.0
274.716125 180.0
274.872742 32.0
274.993683 156.0
275.076721 276.0
275.102875 740.0
275.127533 508.0
275.163208 172.0
275.315094 176.0
275.364655 172.0
275.636932 168.0
275.757965 172.0
276.044647 152.0
276.075562 456.0
276.131287 220.0
276.382843 176.0
276.518524 48.0
276.544983 148.0
276.766785 208.0
276.879395 128.0
277.049805 860.0
277.085632 1728.0
277.122528 684.0
277.16098 208.0
277.225067 200.0
277.436066 184.0
277.613434 136.0
277.827393 164.0
278.009888 160.0
278.056396 576.0
278.092285 1468.0
278.131104 432.0
278.215668 172.0
278.275421 72.0
278.338501 212.0
278.452972 84.0
278.517853 60.0
278.677307 52.0
278.730469 128.0
278.760376 68.0
278.929901 116.0
279.026337 712.0
279.066193 884.0
279.102875 992.0
279.280823 56.0
279.448669 128.0
279.641693 208.0
279.671661 152.0
279.718079 72.0
279.910583 68.0
279.963928 192.0
280.00769 112.0
280.072083 1804.0
280.111816 1104.0
280.477722 36.0
280.534393 172.0
280.581055 108.0
280.634399 128.0
280.657745 52.0
280.834503 184.0
280.994385 176.0
281.043396 408.0
281.077393 1556.0
281.117401 1872.0
281.177551 152.0
281.325012 116.0
281.464142 48.0
281.541321 164.0
281.553223 128.0
281.719086 56.0
281.839355 144.0
282.051056 232.0
282.089172 416.0
282.121307 652.0
282.166412 168.0
282.193665 72.0
282.220398 116.0
282.424408 120.0
282.464539 176.0
282.69873 176.0
282.755646 88.0
282.902924 124.0
282.939728 112.0
282.975922 168.0
283.022247 1116.0
283.05896 808.0
283.099548 500.0
283.130096 1060.0
283.16745 116.0
283.241119 52.0
283.499115 208.0
283.529266 96.0
283.676758 44.0
283.790741 104.0
283.894684 124.0
283.955048 176.0
284.030426 984.0
284.067383 296.0
284.138153 336.0
284.23941 136.0
284.270416 120.0
284.36438 172.0
284.438232 120.0
284.726959 100.0
284.753845 60.0
284.844543 188.0
284.918793 232.0
284.975555 152.0
285.039825 1724.0
285.075592 680.0
285.112335 620.0
285.170471 36.0
285.234314 100.0
285.368805 32.0
285.543671 88.0
285.60083 140.0
285.752228 44.0
285.793182 92.0
285.822876 84.0
286.050232 412.0
286.082825 184.0
286.113617 264.0
286.459198 140.0
286.482788 88.0
286.701782 48.0
286.769196 80.0
286.900665 124.0
287.014557 128.0
287.062836 220.0
287.129059 2608.0
287.200775 48.0
287.399811 80.0
287.469513 92.0
287.713715 192.0
288.000732 76.0
288.028534 104.0
288.084381 348.0
288.128235 596.0
288.181458 132.0
288.264252 132.0
288.30481 168.0
288.348755 64.0
288.521149 188.0
288.855927 220.0
288.991241 184.0
289.03186 216.0
289.083801 1036.0
289.133087 488.0
289.231537 108.0
289.302612 104.0
289.3367 56.0
289.421112 168.0
289.793701 100.0
289.817413 144.0
289.936005 188.0
289.96991 236.0
290.056274 376.0
290.089203 368.0
290.116791 316.0
290.123505 140.0
290.180084 88.0
290.237701 60.0
290.268219 124.0
290.604034 196.0
290.648132 128.0
290.858826 108.0
290.885712 136.0
290.997742 156.0
291.06662 1708.0
291.10141 1080.0
291.144684 580.0
291.181122 264.0
291.782562 40.0
292.028534 404.0
292.071533 1556.0
292.108795 648.0
292.144104 1288.0
292.357422 92.0
292.5242 140.0
292.561646 140.0
292.643372 56.0
292.994873 152.0
293.047668 440.0
293.07843 1340.0
293.118103 4388.0
293.181549 80.0
293.214508 60.0
293.245697 220.0
293.372437 132.0
293.720276 108.0
293.877197 104.0
293.965912 152.0
294.006866 156.0
294.053375 292.0
294.098877 992.0
294.120544 1452.0
294.223419 164.0
294.319519 128.0
294.372131 148.0
294.443848 152.0
294.481415 64.0
294.529846 68.0
294.590729 88.0
294.670776 148.0
294.77182 56.0
295.064728 924.0
295.095825 1084.0
295.170593 160.0
295.294861 68.0
295.318817 76.0
295.448792 72.0
295.510376 136.0
295.640411 64.0
295.746521 132.0
295.81839 124.0
295.999847 112.0
296.077576 480.0
296.086578 520.0
296.100189 584.0
296.106628 780.0
296.137115 324.0
296.175476 128.0
296.212189 168.0
296.369781 44.0
296.490326 112.0
296.805115 96.0
296.952576 64.0
297.004028 132.0
297.037628 364.0
297.077393 296.0
297.110748 412.0
297.138733 440.0
297.178986 156.0
297.216705 68.0
297.374573 40.0
297.405487 128.0
297.429504 64.0
297.559937 52.0
297.594299 68.0
297.810638 172.0
297.920563 76.0
298.047943 1036.0
298.08371 668.0
298.155273 164.0
298.298553 136.0
298.413361 152.0
298.583954 124.0
298.759369 200.0
298.927979 144.0
298.958954 36.0
299.054688 1124.0
299.089722 1088.0
299.133118 652.0
299.172333 56.0
299.496033 112.0
299.69928 56.0
299.776367 152.0
299.840576 192.0
300.076782 248.0
300.104523 276.0
300.343964 60.0
300.506104 40.0
300.733856 56.0
301.03421 164.0
301.080902 180.0
301.136627 288.0
301.177704 144.0
301.714905 112.0
301.739105 136.0
301.82901 136.0
301.891235 156.0
301.977692 152.0
302.052277 200.0
302.096771 464.0
302.157593 136.0
302.271759 244.0
302.441345 92.0
302.538269 56.0
302.683685 76.0
302.756409 108.0
302.791046 148.0
303.010559 172.0
303.052917 140.0
303.101776 444.0
303.167206 156.0
303.265717 160.0
303.323334 148.0
303.442505 160.0
303.622803 176.0
303.664581 100.0
303.771973 160.0
303.796234 80.0
303.820526 44.0
303.879517 160.0
304.071808 264.0
304.117676 184.0
304.157928 156.0
304.194427 188.0
304.216156 216.0
304.316833 28.0
304.396698 172.0
304.591187 32.0
304.64328 140.0
304.684967 168.0
304.775299 40.0
304.827423 92.0
304.973389 204.0
305.080627 1288.0
305.113312 520.0
305.168762 40.0
305.22702 156.0
305.518372 156.0
305.58197 44.0
305.609802 72.0
305.648071 52.0
305.79425 40.0
305.856903 200.0
306.084473 832.0
306.164062 192.0
306.212585 52.0
306.288666 72.0
306.337433 80.0
306.393158 68.0
306.455872 76.0
306.529053 48.0
306.685883 100.0
306.745148 56.0
307.028534 336.0
307.095032 1308.0
307.269653 88.0
307.358978 64.0
307.43924 128.0
307.514191 192.0
307.592804 84.0
307.717529 192.0
307.746399 36.0
307.777832 136.0
307.802277 76.0
307.927826 76.0
308.02301 196.0
308.068665 768.0
308.104248 2824.0
308.139923 676.0
308.207458 80.0
308.284332 216.0
308.385681 92.0
308.497559 64.0
308.53949 120.0
308.682861 164.0
309.035858 260.0
309.11319 3428.0
309.31012 44.0
309.414124 152.0
309.459656 52.0
309.540192 32.0
309.578705 96.0
309.613739 132.0
309.718811 44.0
309.967529 208.0
310.044861 148.0
310.088196 592.0
310.115906 916.0
310.209381 60.0
310.25766 124.0
310.314545 48.0
310.339081 156.0
310.40921 120.0
310.538971 88.0
310.668762 92.0
310.889832 100.0
311.0625 560.0
311.128174 1856.0
311.162415 552.0
311.223297 188.0
311.251373 68.0
311.321625 136.0
311.490204 64.0
311.539398 84.0
311.834534 48.0
311.929443 112.0
312.029785 136.0
312.069641 208.0
312.10434 312.0
312.134155 564.0
312.238861 60.0
312.510681 176.0
312.717346 104.0
312.822968 184.0
312.93512 56.0
313.035675 840.0
313.10614 620.0
313.140625 256.0
313.203247 164.0
313.263153 196.0
313.326996 64.0
313.492157 112.0
313.795288 64.0
313.837616 44.0
313.992767 144.0
314.027985 152.0
314.059784 128.0
314.129639 284.0
314.174561 224.0
314.285553 64.0
314.36319 80.0
314.738892 156.0
314.786804 164.0
315.045013 160.0
315.117645 640.0
315.125153 312.0
315.191589 188.0
315.4086 96.0
315.504059 80.0
315.588898 196.0
315.836456 60.0
316.019867 728.0
316.06427 204.0
316.095062 208.0
316.124298 168.0
316.225677 220.0
316.430969 36.0
316.49826 108.0
316.721375 120.0
316.795746 124.0
316.824097 124.0
316.912659 144.0
317.028076 600.0
317.118378 472.0
317.14386 136.0
317.891357 60.0
318.012024 128.0
318.086426 276.0
318.127197 80.0
318.186279 168.0
318.626343 112.0
318.764923 316.0
318.914185 108.0
319.098541 776.0
319.128906 820.0
319.202148 36.0
319.414398 168.0
319.445862 48.0
319.497345 140.0
319.522247 152.0
319.855347 188.0
320.03833 124.0
320.105957 500.0
320.187897 124.0
320.647491 68.0
320.768677 72.0
320.811462 152.0
320.8685 56.0
320.921967 92.0
320.954071 56.0
321.038696 380.0
321.112854 920.0
321.15799 612.0
321.186157 440.0
321.325409 72.0
321.360687 36.0
321.496277 132.0
321.631897 136.0
321.842529 168.0
321.992523 136.0
322.049805 864.0
322.086334 1256.0
322.113037 1084.0
322.15918 176.0
322.189728 136.0
322.280212 128.0
322.371216 64.0
322.497681 52.0
322.574951 36.0
322.732239 56.0
322.803772 96.0
323.091827 1852.0
323.126434 1472.0
323.164276 544.0
323.254486 56.0
323.304596 56.0
323.42627 176.0
323.852356 96.0
323.88916 140.0
323.963409 104.0
324.059875 360.0
324.097504 536.0
324.132782 212.0
324.17276 432.0
324.518921 96.0
324.561951 96.0
324.608551 56.0
324.705383 124.0
324.759186 64.0
324.816559 176.0
324.845276 76.0
324.897736 188.0
324.952057 208.0
325.102936 1172.0
325.177917 892.0
325.897186 100.0
325.955811 200.0
326.048615 176.0
326.077148 256.0
326.112915 808.0
326.152954 300.0
326.184143 132.0
326.274567 84.0
326.438812 104.0
326.54425 72.0
326.61618 108.0
326.641357 96.0
326.677338 104.0
326.774475 176.0
326.817657 52.0
326.882416 48.0
326.983185 132.0
327.052368 696.0
327.113708 912.0
327.141235 308.0
327.202332 164.0
327.267578 60.0
327.60611 44.0
327.825897 48.0
328.053589 280.0
328.123474 144.0
328.212158 156.0
328.622803 56.0
328.944 152.0
328.969269 96.0
329.083038 160.0
329.134888 440.0
329.170013 336.0
329.276184 80.0
329.724182 68.0
329.764862 128.0
329.802856 188.0
329.843445 36.0
329.977203 156.0
330.077972 156.0
330.116577 116.0
330.194183 176.0
330.490814 164.0
330.675354 100.0
331.093414 364.0
331.127686 232.0
331.185883 192.0
331.287292 112.0
331.856293 176.0
332.061005 240.0
332.098541 140.0
332.13623 160.0
332.179077 116.0
332.309692 108.0
333.07663 672.0
333.112946 796.0
333.154175 452.0
333.18103 140.0
333.653473 96.0
333.795288 116.0
333.889832 208.0
334.117645 324.0
334.156616 272.0
334.30722 192.0
334.745026 48.0
334.788727 36.0
334.872498 36.0
334.912567 112.0
335.06076 340.0
335.090912 804.0
335.123322 772.0
335.291473 72.0
335.320648 96.0
335.36438 112.0
335.419067 72.0
335.470093 80.0
335.52478 56.0
335.575806 204.0
335.623199 132.0
335.845673 140.0
335.922272 160.0
335.985687 104.0
336.063477 268.0
336.099243 1432.0
336.328033 140.0
336.714325 120.0
336.98465 184.0
337.108948 2524.0
337.183197 1132.0
337.324524 176.0
337.368378 152.0
337.404938 212.0
337.631073 100.0
337.777954 88.0
337.803558 52.0
337.889313 196.0
337.957214 108.0
337.997467 172.0
338.111328 540.0
338.176422 256.0
338.312225 36.0
338.376221 208.0
338.667419 148.0
338.715057 64.0
338.846924 144.0
339.059448 112.0
339.123962 600.0
339.194855 144.0
339.385712 128.0
339.646088 204.0
339.785492 52.0
340.126923 408.0
340.189178 212.0
340.295654 96.0
340.442535 36.0
340.508636 112.0
340.62616 88.0
340.740051 148.0
340.938477 32.0
341.000946 148.0
341.026672 36.0
341.103271 1192.0
341.175629 1364.0
341.255219 68.0
341.342865 48.0
341.469421 124.0
341.585602 44.0
341.637085 36.0
341.776886 68.0
341.839447 204.0
341.931458 64.0
342.100677 268.0
342.111359 452.0
342.156311 96.0
342.18576 288.0
342.586884 72.0
342.682678 64.0
342.844788 116.0
342.977478 92.0
343.051208 88.0
343.116577 656.0
343.187286 1404.0
343.914368 108.0
344.089966 604.0
344.192139 504.0
344.3685 52.0
344.40448 76.0
344.490417 72.0
344.60495 48.0
344.682526 116.0
345.044739 180.0
345.087921 136.0
345.116516 204.0
345.163361 156.0
345.194489 560.0
345.439484 92.0
345.477448 112.0
346.079254 372.0
346.092651 168.0
346.125 280.0
346.160095 196.0
346.201508 320.0
346.339935 96.0
346.419586 80.0
346.544128 244.0
346.736389 196.0
346.773468 144.0
347.096527 536.0
347.123474 956.0
347.16864 280.0
347.236908 64.0
347.292542 180.0
347.340759 44.0
347.374146 28.0
347.619019 40.0
347.945648 164.0
348.099945 144.0
348.138336 616.0
348.178345 180.0
348.305847 156.0
348.343018 116.0
348.70343 192.0
348.982239 136.0
349.069824 432.0
349.107788 704.0
349.144104 196.0
349.180542 400.0
349.290894 40.0
349.331818 44.0
349.35788 76.0
349.484375 92.0
349.711365 144.0
349.86026 56.0
350.081085 508.0
350.120422 416.0
350.240082 104.0
350.359283 148.0
350.75058 140.0
350.821411 132.0
350.998749 220.0
351.037659 104.0
351.089111 3112.0
351.12851 860.0
351.26889 140.0
351.54126 200.0
351.623352 64.0
351.791321 60.0
351.828674 96.0
351.977997 108.0
352.088684 972.0
352.144745 284.0
352.280548 36.0
352.829895 36.0
352.856049 84.0
352.893463 136.0
352.953278 252.0
353.100983 552.0
353.174408 1220.0
353.286133 84.0
353.346008 164.0
353.394012 260.0
353.420837 40.0
353.58548 156.0
353.922394 56.0
353.997162 136.0
354.045959 80.0
354.114044 188.0
354.179535 256.0
354.360626 188.0
354.39975 136.0
354.525482 116.0
354.607941 148.0
354.904083 120.0
354.949097 160.0
355.115967 1300.0
355.170898 284.0
355.22287 132.0
355.252899 104.0
355.324158 164.0
355.477997 96.0
355.67691 40.0
355.733215 152.0
355.966003 204.0
356.124207 1124.0
356.183838 108.0
357.13504 640.0
357.255188 64.0
357.330444 40.0
357.409454 128.0
357.669128 104.0
357.872406 52.0
357.951477 96.0
358.133759 232.0
358.418579 84.0
358.473694 204.0
358.718628 128.0
358.950073 116.0
359.07959 128.0
359.112244 88.0
359.281982 148.0
359.466858 68.0
359.508362 124.0
359.5914 152.0
359.758698 176.0
360.097321 56.0
360.133759 260.0
360.618713 124.0
360.705658 124.0
360.981659 156.0
361.136475 244.0
361.176239 160.0
361.204803 156.0
361.499908 128.0
361.768646 104.0
361.806702 152.0
362.007172 148.0
362.147369 372.0
363.118958 256.0
363.154419 256.0
363.561462 44.0
363.679108 128.0
363.7854 64.0
363.990417 212.0
364.090515 620.0
364.12915 1304.0
364.818695 52.0
365.058228 128.0
365.102478 776.0
365.17749 2276.0
365.727814 84.0
366.109528 332.0
366.174774 288.0
366.234222 144.0
366.279938 92.0
366.71051 140.0
366.866791 68.0
367.068848 204.0
367.112396 412.0
367.154816 148.0
367.189026 412.0
367.263367 108.0
367.465546 136.0
367.545685 208.0
367.591461 84.0
367.663971 64.0
367.923523 64.0
367.992249 84.0
368.108978 84.0
368.169128 192.0
368.194519 224.0
368.282471 100.0
368.355042 64.0
368.504059 96.0
368.557526 124.0
368.656891 96.0
368.752441 44.0
368.844177 80.0
368.897675 132.0
368.970337 60.0
369.000916 144.0
369.098328 7172.0
369.17688 600.0
369.237976 136.0
369.30014 48.0
369.345093 100.0
369.442932 124.0
369.494263 92.0
369.559326 52.0
369.833801 216.0
369.991791 44.0
370.102417 2300.0
370.175049 408.0
370.285645 108.0
370.382416 52.0
370.4935 40.0
370.535645 120.0
370.593109 160.0
370.746368 76.0
370.778259 128.0
370.91394 84.0
370.999359 124.0
371.037689 136.0
371.100433 292.0
371.185852 1884.0
371.321442 36.0
371.355957 120.0
371.559265 180.0
371.632172 52.0
371.79718 48.0
371.927673 52.0
371.973724 56.0
372.116028 124.0
372.188812 548.0
372.519012 96.0
372.665009 80.0
372.780304 116.0
373.049347 36.0
373.080078 128.0
373.133911 168.0
373.18219 260.0
373.310791 72.0
373.37616 76.0
373.433868 68.0
373.564636 48.0
373.6185 56.0
373.680054 256.0
373.884003 84.0
374.014862 96.0
374.111084 108.0
374.211182 104.0
374.334412 100.0
374.565491 108.0
374.697632 132.0
374.99704 40.0
375.030365 80.0
375.076477 144.0
375.120392 152.0
375.153168 284.0
375.359406 144.0
375.475098 176.0
375.664124 48.0
375.727448 84.0
376.111725 308.0
376.165619 100.0
376.598236 168.0
377.042542 160.0
377.105682 160.0
377.13208 252.0
377.174316 1188.0
377.34021 152.0
377.479401 144.0
377.719177 192.0
377.891205 112.0
378.063538 168.0
378.104858 256.0
378.152954 220.0
378.178497 312.0
378.222198 112.0
378.363403 128.0
378.638977 156.0
378.783691 108.0
378.851624 128.0
379.004517 120.0
379.154266 8724.0
379.252197 44.0
379.3013 124.0
379.341675 64.0
379.384338 96.0
379.522949 32.0
379.632477 60.0
379.857422 220.0
379.973816 52.0
380.000977 160.0
380.089264 64.0
380.160583 3148.0
380.373535 60.0
380.408478 64.0
380.562561 52.0
380.695801 52.0
380.746277 40.0
380.773468 84.0
380.882202 104.0
381.167267 300.0
381.231873 40.0
381.26297 36.0
381.305725 48.0
381.391235 60.0
381.651703 244.0
381.729462 48.0
381.799469 88.0
381.908356 136.0
382.126495 164.0
382.165131 152.0
382.363586 168.0
382.608826 52.0
382.694458 60.0
382.745087 164.0
382.792755 116.0
382.854126 172.0
382.912537 64.0
383.114441 972.0
383.178955 336.0
383.473572 112.0
383.707458 132.0
383.996033 124.0
384.109131 52.0
384.18576 200.0
384.663239 60.0
384.792084 68.0
385.151337 160.0
385.878235 92.0
386.597961 196.0
387.001129 152.0
387.09903 112.0
387.165588 176.0
387.855164 28.0
388.157043 56.0
388.204102 176.0
388.604187 80.0
388.945618 92.0
389.016266 108.0
389.128632 100.0
389.181152 168.0
389.397156 152.0
389.605347 144.0
389.754639 100.0
389.943268 96.0
390.214508 196.0
390.324585 124.0
390.702179 32.0
390.820221 240.0
390.910706 36.0
391.060272 40.0
391.142914 136.0
391.203461 96.0
391.650879 140.0
391.698151 84.0
392.036987 156.0
392.123993 460.0
392.316833 100.0
392.604858 76.0
392.81369 56.0
392.857086 52.0
393.050415 52.0
393.169006 2316.0
393.796539 132.0
393.863708 144.0
394.173431 1168.0
394.306213 84.0
394.386536 120.0
394.575012 48.0
394.760864 60.0
394.824127 172.0
394.873718 164.0
394.978516 120.0
395.10498 196.0
395.185364 1836.0
395.239563 228.0
395.31073 40.0
395.448059 204.0
395.504639 100.0
395.540283 96.0
395.678833 68.0
395.726349 60.0
395.987701 176.0
396.109558 172.0
396.183533 320.0
396.519531 136.0
396.570129 100.0
396.613708 112.0
396.66394 120.0
396.720734 96.0
396.750641 208.0
396.85553 116.0
396.891235 116.0
397.01416 368.0
397.071564 132.0
397.083344 116.0
397.102936 188.0
397.16568 27216.0
397.267578 164.0
397.292419 204.0
397.384949 176.0
397.473419 88.0
397.572571 132.0
397.652893 84.0
397.688629 64.0
397.725281 196.0
397.777618 180.0
397.816956 128.0
397.879456 104.0
397.897675 72.0
397.942688 104.0
397.978424 56.0
398.018127 76.0
398.06366 112.0
398.097534 104.0
398.168182 6524.0
398.30246 208.0
398.37558 112.0
398.419281 160.0
398.460846 120.0
398.506439 88.0
398.579254 120.0
398.642029 64.0
398.691925 84.0
398.772919 64.0
398.855774 128.0
398.914825 100.0
399.052887 104.0
399.083466 228.0
399.172363 1052.0
399.253998 104.0
399.51651 80.0
399.543427 52.0
399.600067 76.0
399.627899 52.0
399.787079 52.0
400.025055 108.0
400.17099 140.0
400.298615 88.0
400.408142 84.0
400.4599 132.0
400.527618 88.0
400.558777 112.0
400.6073 128.0
400.661011 172.0
400.68869 120.0
400.734253 120.0
400.766663 40.0
400.826416 92.0
400.946533 112.0
400.993561 132.0
401.109375 64.0
401.158173 112.0
401.196747 136.0
401.264862 88.0
401.355347 92.0
401.512085 96.0
401.544006 72.0
401.815247 72.0
402.322083 80.0
402.469818 44.0
402.533691 88.0
402.661499 68.0
402.873199 116.0
403.152313 464.0
403.41803 120.0
404.151459 196.0
404.208588 36.0
404.368683 40.0
404.720947 56.0
405.061371 100.0
405.10144 160.0
405.130798 108.0
405.746643 76.0
406.139832 152.0
406.725464 84.0
406.906097 100.0
407.144531 64.0
407.191223 152.0
407.469391 80.0
407.753693 48.0
407.866211 124.0
407.950653 48.0
408.149231 180.0
408.284363 68.0
408.573975 76.0
408.658478 160.0
409.134369 180.0
410.124329 144.0
410.176727 172.0
411.180389 268.0
411.435364 68.0
411.92804 96.0
413.07605 132.0
413.190399 284.0
414.193054 292.0
414.707886 40.0
415.093018 160.0
415.181946 440.0
416.180115 224.0
416.627228 28.0
416.911652 80.0
416.997009 104.0
417.236816 156.0
417.277496 84.0
417.399475 32.0
417.525543 64.0
417.724823 124.0
418.494019 44.0
418.694031 68.0
418.75058 68.0
418.81839 104.0
418.884979 40.0
419.084595 56.0
419.162018 204.0
419.296509 176.0
419.353577 148.0
419.435089 72.0
419.52478 64.0
419.5737 92.0
419.704163 100.0
419.810425 176.0
419.855042 80.0
420.117981 120.0
420.131836 56.0
420.161133 176.0
420.465637 236.0
420.515961 80.0
420.569031 88.0
420.630249 148.0
420.722565 176.0
420.828369 168.0
420.871124 364.0
420.917175 204.0
420.954132 148.0
420.989563 36.0
421.025177 204.0
421.069305 124.0
421.165192 31420.0
421.296234 192.0
421.349609 212.0
421.38681 156.0
421.435242 36.0
421.482727 100.0
421.526367 116.0
421.580017 96.0
421.712677 28.0
421.751892 204.0
421.820801 80.0
421.855469 56.0
421.904816 64.0
421.963074 132.0
422.043823 72.0
422.169128 12656.0
422.276062 152.0
422.3125 100.0
422.354248 84.0
422.403717 64.0
422.432343 84.0
422.469666 52.0
422.542816 108.0
422.612366 52.0
422.640991 44.0
422.720367 48.0
422.78421 36.0
422.849701 32.0
422.930939 136.0
422.960205 76.0
423.003296 92.0
423.07074 140.0
423.169281 1636.0
423.328674 72.0
423.354889 60.0
423.459747 112.0
423.492523 56.0
423.541656 92.0
423.675049 168.0
423.75058 40.0
423.807953 28.0
423.99646 148.0
424.053833 100.0
424.173126 264.0
424.25058 92.0
424.329254 104.0
424.396729 136.0
424.552307 176.0
424.610657 88.0
424.617798 72.0
424.673584 76.0
424.718048 28.0
424.746765 112.0
424.779205 132.0
424.857513 160.0
424.89856 96.0
424.983276 148.0
425.094482 60.0
425.415649 80.0
425.608612 92.0
425.649658 156.0
425.805725 84.0
425.906982 172.0
425.949493 136.0
426.031647 48.0
426.062317 136.0
426.471313 76.0
426.808441 56.0
426.853668 108.0
426.923553 40.0
427.071625 36.0
427.7341 60.0
427.969391 52.0
428.430023 56.0
428.903931 76.0
428.93692 32.0
429.126556 52.0
429.378082 100.0
430.228088 48.0
430.789734 44.0
430.880615 52.0
431.058289 32.0
433.959869 96.0
434.4617 76.0
434.611084 36.0
434.731415 116.0
435.075928 60.0
435.291809 48.0
435.640686 68.0
437.108368 124.0
437.420502 104.0
437.636993 92.0
437.799377 136.0
439.173401 2176.0
439.241486 180.0
439.341614 64.0
439.475098 60.0
439.757477 72.0
440.012024 124.0
440.177582 764.0
440.286194 80.0
440.315948 104.0
440.443634 32.0
440.508148 56.0
440.974548 64.0
441.168976 160.0
442.199738 140.0
442.362976 36.0
442.429962 48.0
442.748199 88.0
442.781708 32.0
443.393372 100.0
443.820953 44.0
444.65155 64.0
445.193115 52.0
446.437042 52.0
446.487518 100.0
449.102997 88.0
449.659943 132.0
451.556915 52.0
453.691071 128.0
453.924255 128.0
455.528564 164.0
455.562561 44.0
456.251007 120.0
456.922943 48.0
457.184814 392.0
457.318695 124.0
457.374054 36.0
457.591156 108.0
457.748688 52.0
458.199219 140.0
458.532562 88.0
459.189789 128.0
459.923004 84.0
460.849701 100.0
463.014221 104.0
463.613983 76.0
463.824005 80.0
467.935211 92.0
475.456604 88.0
476.607361 88.0
479.135223 80.0
484.982117 100.0
488.442169 116.0
489.423584 56.0
501.018921 76.0
504.262939 32.0
504.361298 56.0
506.782379 96.0
508.58963 68.0
509.114929 52.0
514.102966 88.0
514.387329 84.0
514.572388 60.0
521.694214 76.0
523.486877 80.0
525.465088 60.0
530.683716 68.0
539.995056 104.0
540.906555 56.0
542.551086 48.0
542.690186 96.0
543.409058 68.0
545.517517 56.0
549.895996 64.0
550.759766 72.0
551.479309 28.0
560.390869 72.0
565.476746 96.0
568.220398 52.0
570.276611 44.0
573.784912 96.0
574.328552 80.0
576.10907 52.0
578.715576 72.0
579.716675 68.0
587.293701 120.0
588.702942 44.0
588.896118 88.0
589.427551 108.0
592.039734 156.0
594.453918 148.0
596.411133 52.0
597.300964 128.0
598.751404 108.0
604.066772 68.0
607.191711 112.0
609.263123 88.0
613.288391 112.0
614.180847 68.0
615.256592 56.0
616.516113 116.0
616.862122 84.0
617.045044 44.0
620.818115 100.0
622.584778 92.0
625.647705 44.0
627.042419 96.0
627.431213 56.0
629.047546 124.0
632.306458 92.0
640.319275 48.0
644.415344 120.0
646.387329 36.0
647.744141 56.0
648.798218 92.0
650.340271 44.0
651.325317 64.0
652.250122 128.0
658.302795 64.0
660.122009 88.0
664.722046 88.0
667.22345 112.0
677.654053 56.0
682.002747 48.0
688.651184 80.0
689.116089 64.0
689.664795 132.0
690.564148 124.0
701.069458 52.0
705.439758 40.0
715.780273 116.0
718.247864 76.0
722.339539 64.0
726.216187 80.0
726.721802 68.0
727.800659 52.0
728.069153 180.0
736.330627 92.0
739.255371 132.0
746.426636 88.0
750.068909 84.0
753.812866 48.0
756.290344 60.0
759.221497 112.0
774.399719 72.0
774.693298 112.0
785.7453 88.0
788.950928 88.0
789.627563 88.0
790.533813 92.0
800.711975 92.0
802.633606 84.0
808.485901 80.0
811.510742 108.0
815.831177 160.0
816.377014 68.0
819.262756 56.0
824.820801 76.0
835.210876 48.0
840.470703 80.0
849.478699 64.0
851.550842 56.0
858.715454 132.0
860.296753 76.0
868.858521 76.0
869.674194 60.0
878.105408 36.0
879.397522 28.0
881.553162 116.0
893.161682 68.0
895.220947 72.0
895.786743 52.0
900.092834 56.0
903.104797 160.0
905.936157 76.0
908.645874 88.0
908.831909 128.0
916.094482 36.0
932.376892 40.0
940.697021 56.0
944.919922 88.0
948.226562 76.0
958.242798 164.0
960.511414 100.0
960.733459 76.0
979.884216 100.0
992.03949 40.0
992.848328 56.0
1005.405334 164.0
1009.650696 56.0
1010.605896 196.0
1018.12384 192.0
1020.595703 144.0
1025.719238 96.0
1035.650146 112.0
1040.074341 68.0
1043.080566 60.0
1048.164795 208.0
1055.232544 132.0
1055.989136 156.0
1060.197266 288.0
1067.825562 144.0
1070.12915 64.0
1086.441772 64.0
1087.334229 108.0
1094.058472 48.0
1097.682251 132.0
1099.140015 128.0
1105.285156 36.0
1111.931885 148.0
1118.824829 44.0
1120.256592 120.0
1122.969482 168.0
1132.252686 112.0
1137.690552 140.0
1140.216187 204.0
1146.299683 132.0
1149.381226 208.0
1156.470337 52.0
1164.110962 188.0
1175.2948 164.0
1176.188721 160.0
1183.551636 112.0
1186.689697 136.0
1187.203979 136.0
1190.017334 160.0
1190.06543 68.0
1191.940552 80.0
1195.653931 204.0
1200.496948 204.0
1202.276855 164.0
1202.504517 76.0
1214.987549 240.0
1215.618896 180.0
1220.091919 64.0
1220.828979 84.0
1221.058472 96.0
1223.04834 52.0
1228.699829 136.0
1228.818359 100.0
1229.118408 44.0
1248.417236 152.0
1250.330688 188.0
1255.156128 272.0
1256.707886 132.0
1261.467896 192.0
1263.058838 84.0
1267.093994 148.0
1270.681396 200.0
1271.327026 96.0
1271.639282 164.0
1276.974976 216.0
1283.667847 80.0
1287.765625 108.0
1287.901367 188.0
1292.350952 48.0
1293.185181 56.0
1297.260864 56.0
1305.898926 140.0
1308.410278 76.0
1309.346313 292.0
1316.753052 196.0
1320.583618 132.0
1341.627075 104.0
1348.174194 208.0
1356.136841 136.0
1371.786011 204.0
1373.799194 172.0
1375.533325 172.0
1376.500488 120.0
1382.095947 124.0
1382.50293 188.0
1385.064697 240.0
1385.523926 100.0
1386.190796 144.0
1387.539795 132.0
1388.088379 216.0
1389.779541 152.0
1391.04126 204.0
1399.047363 136.0
1405.464355 232.0
1406.695801 152.0
1412.202759 212.0
1415.113647 196.0
1415.839966 64.0
1416.371826 188.0
1416.424194 96.0
1418.507324 196.0
1422.205322 164.0
1422.340454 140.0
1425.795288 140.0
1425.900513 132.0
1427.862793 132.0
1428.391968 56.0
1428.727783 156.0
1430.594116 192.0
1437.143311 144.0
1445.575928 180.0
1448.71814 144.0
1452.295898 208.0
1454.010498 180.0
1457.45813 180.0
1457.93689 220.0
1461.160767 56.0
1463.108276 184.0
1464.936768 52.0
1471.296753 36.0
1472.472778 120.0
1478.657715 108.0
1483.279785 148.0
1489.122925 100.0
1490.006348 96.0
1492.196655 40.0
1503.751343 124.0
