>compound Avobenzone
>formula C20H22O3
>ionization [M+H]+
>parentmass 311.1641710160905
#inchi InChI=1S/C20H22O3/c1-20(2,3)16-9-5-14(6-10-16)18(21)13-19(22)15-7-11-17(23-4)12-8-15/h5-12H,13H2,1-4H3
#inchikey XNEFYCZVKIDDMS
#Ion_Source ESI
#Instrument Q-TOF
#Compound_Source Cosmetic _raw meterial
#PI Dorrestein
#Data_Collector Amina
#Scan -1
#Precursor_MZ 311.165
#ExactMass 310.157
#Charge 1
#CAS_Number N/A
#Pubmed_ID N/A
#Smiles CC(C)(C)C1=CC=C(C=C1)C(=O)CC(=O)C2=CC=C(C=C2)OC
#INCHI_AUX N/A
#Library_Class 2
#SpectrumID CCMSLIB00000077204
#IonMode Positive
#UpdateWorkflowName UPDATE-SINGLE-ANNOTATED-SILVER
#LibraryQualityString Silver
#TaskID 9bb88c04c6204bd4ae13def29ea30c87
##Scan# 2401
#SpectrumFile Avobenzone.mzXML
#LibraryName gnps_library.mgf
#MQScore -1
#Organism Standards_Silver
#TIC_Query 0
#RT_Query -1
#MZErrorPPM -1
#SharedPeaks 0
#MassDiff 0
#LibMZ -1
#SpecMZ 311.165
#SpecCharge 0
#internalFilename spec-00000.mgf

>collision 10
85.234985 92.0
91.05365 328.0
92.026138 568.0
92.056053 116.0
98.579956 160.0
103.055 184.0
105.068764 372.0
107.046921 164.0
115.058823 220.0
116.055206 184.0
117.068542 204.0
118.076553 532.0
119.080978 188.0
125.060188 212.0
125.866692 224.0
129.068924 208.0
130.078735 196.0
131.048203 180.0
131.085632 148.0
132.05069 140.0
134.528442 92.0
134.828522 164.0
134.925537 132.0
135.044739 6112.0
135.11673 160.0
135.489868 96.0
135.707581 224.0
136.048264 932.0
137.043182 176.0
138.670929 208.0
146.071487 540.0
147.040619 128.0
161.096817 4348.0
162.09848 344.0
163.100006 360.0
170.817688 108.0
203.106842 164.0
256.100189 128.0
257.729309 196.0
293.215729 100.0
294.159943 116.0
311.166626 1000.0
312.169891 196.0
