>compound Rimonabant (SR141716)
>formula C22H21Cl3N4O
>ionization [M+H]+
>parentmass 463.08728
#inchi InChI=1S/C22H21Cl3N4O/c1-14-20(22(30)27-28-11-3-2-4-12-28)26-29(19-10-9-17(24)13-18(19)25)21(14)15-5-7-16(23)8-6-15/h5-10,13H,2-4,11-12H2,1H3,(H,27,30)
#inchikey JZCPYUJPEARBJL
#Ion_Source LC-ESI
#Instrument qTof
#Compound_Source Commercial
#PI Dorrestein
#Data_Collector Garg_Neha
#Scan -1
#Precursor_MZ 463.085
#ExactMass 462.078
#Charge 1
#CAS_Number 168273-06-1, 948565-21-7, 158681-13-1 (HCl)
#Pubmed_ID N/A
#Smiles N1(N=C(C(=C1C2C=CC(=CC=2)Cl)C)C(=O)NN3CCCCC3)C4C(=CC(=CC=4)Cl)Cl
#INCHI_AUX N/A
#Library_Class 1
#SpectrumID CCMSLIB00000078538
#IonMode Positive
#UpdateWorkflowName UPDATE-SINGLE-ANNOTATED-GOLD
#LibraryQualityString Gold
#TaskID 77f51c88eb8b467eb4a01dd2d0cb90d2
##Scan# 2906
#SpectrumFile Plate9_1_20_GC4_01_15750.mzXML
#LibraryName FDALibrary_2_04302014.mgf
#MQScore -1
#Organism FDALibrary_2_04302014
#TIC_Query 0
#RT_Query -1
#MZErrorPPM -1
#SharedPeaks 0
#MassDiff 0
#LibMZ -1
#SpecMZ 463.085
#SpecCharge 0
#internalFilename spec-00000.mgf

>collision 10
46.845371 168.0
50.232468 144.0
50.4245 148.0
50.894817 160.0
52.280014 176.0
54.516781 196.0
55.667583 156.0
56.909958 256.0
57.41708 160.0
58.864868 152.0
60.692974 152.0
60.986385 176.0
61.129467 180.0
62.330425 164.0
62.511261 208.0
63.162857 148.0
64.469795 256.0
64.983803 200.0
67.264137 152.0
67.569733 164.0
68.533508 156.0
71.413643 144.0
73.55545 140.0
74.486984 192.0
74.547119 196.0
75.846725 148.0
76.40416 156.0
76.560814 172.0
76.879845 188.0
77.110374 172.0
78.767303 224.0
82.17588 188.0
83.107307 148.0
83.408775 156.0
84.035248 172.0
85.666924 172.0
85.700089 188.0
86.75354 156.0
90.739502 204.0
92.115433 148.0
92.748802 156.0
92.93483 164.0
94.290512 164.0
96.960762 152.0
97.080345 228.0
99.090439 1084.0
99.138977 204.0
100.09137 132.0
100.127823 148.0
100.830086 184.0
101.03804 164.0
102.045761 132.0
103.708275 140.0
108.698288 140.0
109.546913 120.0
111.60807 176.0
111.89843 144.0
115.486961 140.0
115.51049 152.0
116.290436 156.0
116.89003 144.0
117.202255 168.0
117.497635 152.0
117.791222 184.0
118.487808 156.0
118.513809 172.0
118.617836 196.0
119.567001 168.0
119.736816 140.0
120.648903 176.0
122.997223 200.0
123.88839 176.0
124.220909 196.0
125.015518 468.0
125.303566 140.0
127.011482 144.0
127.085518 168.0
127.187454 132.0
127.609932 140.0
127.752777 156.0
128.046494 480.0
129.058609 220.0
129.241821 156.0
129.733292 156.0
130.507477 172.0
130.810059 176.0
131.190491 196.0
132.028458 208.0
132.099365 180.0
132.229782 148.0
133.064178 184.0
133.197372 152.0
136.005142 136.0
136.239746 172.0
136.372192 220.0
136.500061 180.0
137.015106 628.0
138.015121 236.0
138.764954 164.0
139.01355 504.0
139.065231 156.0
139.877151 112.0
141.159607 176.0
142.313568 192.0
143.470963 136.0
144.573349 172.0
144.956497 152.0
147.638245 140.0
150.009232 184.0
150.161606 200.0
150.723083 188.0
150.98465 144.0
151.653046 164.0
151.832016 140.0
153.812668 156.0
154.052185 192.0
154.511627 208.0
156.056717 180.0
157.185516 156.0
158.776535 152.0
158.814163 220.0
159.971481 284.0
160.897751 152.0
161.653488 144.0
161.967941 264.0
162.586075 168.0
162.681503 140.0
163.019455 316.0
163.893127 180.0
164.025803 5580.0
164.952255 156.0
165.029282 504.0
166.021713 1104.0
166.555054 148.0
167.966919 172.0
170.639481 172.0
170.942398 156.0
170.977631 780.0
171.050522 164.0
171.970078 172.0
172.065964 196.0
172.967133 976.0
173.590027 164.0
173.967346 272.0
173.986084 536.0
174.009857 176.0
174.974457 204.0
177.463562 208.0
178.999374 152.0
179.244431 180.0
180.491776 164.0
181.500473 152.0
182.074738 140.0
182.329956 240.0
183.207138 152.0
183.242157 240.0
183.40654 180.0
185.092346 192.0
186.719009 108.0
186.774979 140.0
186.916443 160.0
186.970871 220.0
187.033539 148.0
187.891861 184.0
187.984634 252.0
188.823334 184.0
189.018555 248.0
189.221008 156.0
189.488495 204.0
190.025879 280.0
190.141129 168.0
191.015457 316.0
191.086395 256.0
191.262512 140.0
191.858383 192.0
192.017151 148.0
192.061584 180.0
192.412048 156.0
193.014374 164.0
193.274384 144.0
193.346329 152.0
193.806 144.0
193.950119 140.0
194.40773 172.0
194.621475 192.0
194.932571 168.0
195.202225 140.0
195.942596 144.0
196.023407 168.0
196.444397 184.0
196.969193 252.0
197.393143 144.0
197.989044 284.0
199.083786 192.0
199.55304 156.0
199.989639 160.0
200.930267 168.0
201.7323 168.0
204.264603 180.0
204.702896 172.0
205.113159 152.0
206.057755 180.0
207.924744 172.0
208.030945 184.0
208.062515 228.0
208.381302 168.0
209.252762 204.0
209.293076 180.0
209.390976 264.0
212.341827 140.0
212.478165 164.0
212.884521 196.0
212.961151 248.0
213.494781 188.0
213.849731 172.0
213.977036 120.0
214.219528 148.0
214.490097 108.0
214.925064 148.0
214.957169 168.0
215.234467 152.0
215.978409 172.0
217.776443 184.0
217.855759 176.0
218.864548 188.0
219.097214 148.0
219.132568 148.0
219.585251 120.0
220.596359 156.0
221.901917 172.0
222.317184 176.0
222.977219 424.0
223.01091 172.0
223.991882 136.0
224.08046 176.0
224.247345 200.0
224.566864 144.0
224.922134 136.0
224.978989 384.0
225.450073 148.0
225.605499 164.0
226.724945 148.0
227.084717 180.0
228.08757 164.0
229.076523 208.0
229.403015 196.0
229.457291 144.0
230.03952 160.0
230.082413 900.0
230.682953 144.0
231.039795 152.0
231.969498 140.0
232.315186 180.0
232.488144 212.0
233.551514 220.0
233.755341 168.0
235.703857 212.0
236.033981 148.0
236.15773 120.0
236.817413 168.0
238.042007 476.0
238.978577 152.0
239.000107 180.0
239.05632 196.0
239.086273 196.0
239.397202 140.0
239.606659 140.0
240.043335 320.0
240.424744 164.0
241.254639 184.0
241.630554 168.0
242.75029 136.0
243.407959 168.0
243.836975 196.0
243.932007 148.0
244.405396 176.0
246.192596 164.0
246.960526 180.0
247.110886 164.0
247.959488 212.0
248.010193 136.0
248.60553 144.0
249.025558 152.0
249.447266 236.0
249.995499 160.0
251.232803 160.0
251.58075 172.0
251.867294 144.0
252.116898 196.0
253.491974 136.0
254.356125 196.0
254.648239 232.0
256.633972 140.0
256.981628 148.0
257.588196 168.0
257.954102 296.0
258.08136 188.0
258.253052 148.0
258.30484 164.0
259.67511 176.0
260.876007 152.0
261.432434 152.0
261.664215 212.0
262.013214 164.0
263.013184 224.0
263.041626 216.0
263.321655 204.0
263.648773 160.0
263.758484 208.0
263.874207 176.0
264.017883 132.0
264.044098 104.0
264.631317 200.0
264.913055 204.0
265.051117 2656.0
265.668396 212.0
265.850555 136.0
266.059387 380.0
266.668488 252.0
267.045227 668.0
267.559784 148.0
267.909149 172.0
268.056366 160.0
269.069244 144.0
269.15741 192.0
270.625519 188.0
272.123901 156.0
273.009338 288.0
273.47168 156.0
273.718597 248.0
273.916199 192.0
274.015381 480.0
274.14682 140.0
274.410736 124.0
274.756805 184.0
275.026123 528.0
275.106018 132.0
275.602905 136.0
276.020905 176.0
276.905396 176.0
277.022888 324.0
277.570648 124.0
278.480225 140.0
280.300568 140.0
280.354065 148.0
280.63031 120.0
280.763947 144.0
280.914032 148.0
281.157593 208.0
281.902313 172.0
281.96344 1300.0
282.042664 196.0
282.964417 272.0
283.538757 184.0
283.565582 216.0
283.919067 184.0
283.959351 996.0
284.00354 236.0
284.185944 116.0
284.501434 152.0
284.94754 164.0
285.112762 160.0
285.596893 148.0
285.775177 164.0
285.960205 132.0
286.192535 160.0
286.991089 140.0
287.210297 244.0
288.005981 120.0
288.473206 208.0
288.804565 172.0
289.423889 204.0
289.644012 220.0
289.877777 200.0
290.864716 184.0
291.031067 140.0
291.329926 164.0
292.036957 152.0
293.048096 508.0
293.416687 180.0
293.961823 164.0
294.054474 296.0
295.049042 220.0
295.48233 208.0
295.718445 144.0
295.751495 116.0
295.947784 216.0
296.109863 196.0
296.163544 172.0
296.327972 140.0
296.504028 112.0
296.561005 156.0
296.742676 148.0
296.927856 180.0
297.030762 144.0
298.37149 164.0
298.438812 140.0
298.54538 168.0
298.86087 140.0
299.013275 5616.0
299.305878 140.0
299.96048 192.0
300.021423 6076.0
300.643372 140.0
300.700439 100.0
300.960968 144.0
301.015808 2396.0
301.649597 184.0
301.966553 164.0
302.018707 3408.0
302.869934 184.0
302.901093 148.0
303.020538 708.0
304.021362 188.0
305.202057 148.0
305.690399 152.0
306.008209 132.0
306.235443 160.0
306.80011 180.0
306.950012 144.0
306.99884 148.0
307.647827 172.0
307.975647 280.0
308.647064 140.0
308.975525 96.0
309.462311 168.0
309.69693 212.0
309.942169 144.0
309.979858 384.0
310.986847 132.0
311.127625 156.0
311.985748 164.0
313.23053 144.0
313.473633 244.0
315.499603 208.0
316.079651 156.0
316.299072 168.0
316.348633 148.0
317.14563 160.0
317.262604 172.0
318.239746 140.0
318.64978 164.0
318.692902 156.0
318.820801 152.0
318.856354 140.0
318.93811 140.0
318.967346 124.0
319.741913 140.0
319.777496 184.0
319.962708 224.0
320.557434 140.0
320.885345 140.0
320.968506 320.0
321.777283 260.0
321.905823 144.0
321.964447 656.0
322.384521 172.0
323.10321 192.0
323.181915 148.0
323.317261 160.0
323.960327 124.0
324.084198 184.0
324.734985 152.0
324.941101 140.0
325.066681 176.0
325.534332 108.0
325.648285 176.0
326.704468 208.0
327.006104 424.0
327.468201 156.0
328.015533 2508.0
328.387268 156.0
328.781494 104.0
329.018036 288.0
329.347351 188.0
329.452087 144.0
329.719482 164.0
329.835144 140.0
330.013489 1344.0
330.156921 152.0
330.905945 204.0
331.018951 324.0
331.076141 180.0
331.434662 152.0
331.86972 148.0
332.141693 148.0
332.352112 260.0
333.110901 144.0
333.325745 116.0
333.397919 208.0
333.496704 132.0
333.699615 144.0
333.986115 392.0
334.030029 120.0
334.177002 204.0
334.674713 244.0
334.993958 524.0
335.035278 140.0
335.54187 184.0
335.976318 384.0
336.402832 192.0
337.004913 3580.0
337.756683 120.0
337.860931 204.0
338.008179 724.0
338.296417 144.0
338.323975 176.0
338.679657 208.0
338.893372 268.0
339.001251 2984.0
339.046539 188.0
339.529053 132.0
340.010498 492.0
340.114594 152.0
340.301788 156.0
340.34729 208.0
340.57724 168.0
340.602936 244.0
341.004181 316.0
341.451172 220.0
341.886078 216.0
342.012451 120.0
342.50882 112.0
342.939789 116.0
343.470367 144.0
343.986969 140.0
344.230621 192.0
344.407898 140.0
345.246887 164.0
345.498383 156.0
346.205353 204.0
346.994598 192.0
348.635254 268.0
348.705872 152.0
349.758453 276.0
349.810577 192.0
350.877045 144.0
351.129578 168.0
351.433716 104.0
352.148468 156.0
353.864899 196.0
354.760284 148.0
354.818848 128.0
355.592987 140.0
356.870209 276.0
357.024384 140.0
357.519562 96.0
357.872345 148.0
358.447327 172.0
358.626495 200.0
358.937378 200.0
359.288116 160.0
359.503571 124.0
359.586212 196.0
359.796295 184.0
360.348999 144.0
360.612335 128.0
361.11087 140.0
361.229431 180.0
361.410156 104.0
361.572601 144.0
361.661224 196.0
361.835358 140.0
361.944489 420.0
362.002899 128.0
362.067902 156.0
362.149658 152.0
362.186218 232.0
362.279358 100.0
362.397125 248.0
362.58609 132.0
362.678009 128.0
362.799988 216.0
362.859344 160.0
362.914337 236.0
362.98642 147968.0
363.09314 320.0
363.259735 156.0
363.333618 116.0
363.414398 124.0
363.507446 116.0
363.550262 120.0
363.608398 252.0
363.654266 120.0
363.758514 156.0
363.828339 108.0
363.875549 156.0
363.905273 232.0
363.98822 25896.0
364.13031 108.0
364.206421 224.0
364.335541 144.0
364.431519 192.0
364.539764 128.0
364.677216 248.0
364.739868 204.0
364.83847 188.0
364.876068 112.0
364.934387 112.0
364.983307 116600.0
365.166046 260.0
365.205078 144.0
365.240448 128.0
365.282043 100.0
365.311371 236.0
365.333954 168.0
365.529633 180.0
365.784058 124.0
365.831116 108.0
365.886749 236.0
365.938873 136.0
365.98526 16188.0
366.146484 228.0
366.2565 208.0
366.35437 176.0
366.42923 96.0
366.47995 116.0
366.604065 156.0
366.754517 116.0
366.785187 196.0
366.868835 112.0
366.899689 156.0
366.979645 12360.0
367.044373 208.0
367.153778 104.0
367.432098 116.0
367.688477 188.0
367.86908 128.0
367.977051 316.0
368.04129 220.0
368.151123 112.0
368.206268 156.0
368.254608 168.0
368.283508 140.0
368.329834 176.0
368.437592 140.0
368.772827 132.0
368.845306 108.0
368.913269 120.0
368.996399 208.0
369.132629 148.0
369.240326 176.0
369.668793 180.0
369.744171 132.0
369.792175 116.0
370.0849 96.0
371.143524 144.0
371.477203 164.0
371.713318 140.0
372.493469 96.0
373.878357 132.0
374.229767 120.0
374.396729 164.0
374.882751 160.0
374.950897 120.0
375.323029 124.0
375.531403 168.0
375.689545 188.0
376.14624 196.0
376.575775 208.0
376.82843 144.0
377.379211 144.0
377.999176 404.0
378.776947 112.0
378.958649 116.0
378.995239 180.0
379.036102 120.0
379.302673 104.0
379.390472 212.0
379.994659 152.0
380.104126 212.0
380.434021 140.0
380.577545 112.0
380.758331 156.0
380.812439 184.0
380.850342 248.0
380.907349 108.0
380.996155 68648.0
381.093597 160.0
381.156311 160.0
381.20929 192.0
381.290894 140.0
381.464081 104.0
381.798737 172.0
381.939178 188.0
381.998169 13208.0
382.074005 380.0
382.124573 104.0
382.25412 152.0
382.39682 96.0
382.474823 168.0
382.567078 268.0
382.640656 140.0
382.691681 108.0
382.781281 128.0
382.850281 300.0
382.920105 196.0
382.993225 62572.0
383.120789 144.0
383.155426 128.0
383.253387 104.0
383.328644 160.0
383.376617 96.0
383.493073 160.0
383.663605 116.0
383.736389 148.0
383.793884 236.0
383.88205 100.0
383.927124 216.0
383.995361 8144.0
384.092926 104.0
384.203247 104.0
384.301086 96.0
384.368713 104.0
384.405334 164.0
384.454224 152.0
384.623749 116.0
384.666138 108.0
384.772522 160.0
384.990173 8128.0
385.174683 96.0
385.711914 96.0
385.955444 136.0
386.003326 260.0
386.144379 160.0
386.222229 132.0
386.308929 100.0
386.345703 116.0
386.548798 124.0
386.986542 164.0
387.217255 128.0
387.724121 140.0
387.769379 100.0
387.848969 216.0
387.924438 148.0
388.082642 148.0
388.214172 140.0
388.88504 168.0
389.504333 176.0
389.736664 156.0
390.741241 196.0
390.824036 116.0
391.34198 152.0
392.015533 164.0
393.259094 176.0
393.871246 212.0
394.813202 140.0
395.119019 148.0
395.407745 108.0
396.032562 216.0
397.129547 96.0
397.444733 152.0
397.674927 208.0
398.218872 216.0
399.02951 144.0
400.366486 164.0
400.744904 160.0
401.24707 156.0
402.188507 208.0
402.791443 244.0
404.076569 128.0
405.103577 192.0
405.303894 176.0
405.445862 140.0
409.875916 124.0
409.963379 176.0
411.881653 172.0
412.055359 168.0
413.369446 148.0
414.260193 156.0
414.645111 192.0
414.869843 132.0
414.94101 140.0
417.084442 144.0
417.919983 164.0
419.054077 156.0
419.302643 180.0
419.812225 156.0
422.655304 140.0
423.687073 152.0
423.896637 260.0
425.269897 156.0
425.651703 156.0
425.750244 152.0
427.822571 208.0
428.230499 112.0
429.652832 168.0
432.801727 156.0
433.128906 216.0
433.568085 280.0
434.004761 184.0
434.206512 200.0
434.53421 196.0
434.816406 160.0
435.318726 208.0
436.045715 196.0
436.332001 152.0
436.487 160.0
437.081787 116.0
437.551544 228.0
438.705505 140.0
439.093292 184.0
439.381104 144.0
440.38382 212.0
441.214508 160.0
441.532288 164.0
441.6745 196.0
442.169525 152.0
442.507263 164.0
442.691498 152.0
443.474701 136.0
443.625854 196.0
443.915131 140.0
444.615723 176.0
445.074432 108.0
445.787384 144.0
446.103394 148.0
446.224518 148.0
446.889038 152.0
447.058716 176.0
447.712036 180.0
447.949951 140.0
448.090027 144.0
449.986877 156.0
450.738708 140.0
451.19519 144.0
451.437347 160.0
451.863403 168.0
452.728882 136.0
453.430145 184.0
453.993988 148.0
454.337555 144.0
454.923187 144.0
455.074738 184.0
455.955353 192.0
456.964142 204.0
457.198334 144.0
457.627075 224.0
457.944427 208.0
458.774536 144.0
459.21814 112.0
459.284821 176.0
459.382935 156.0
459.469543 120.0
459.653503 116.0
459.716919 116.0
459.965179 152.0
460.05899 124.0
460.18454 220.0
460.34552 152.0
460.621002 144.0
460.689392 120.0
460.742889 120.0
460.862244 120.0
460.928467 184.0
460.971527 196.0
461.068451 196.0
461.286285 172.0
461.320099 144.0
461.428772 180.0
461.482086 168.0
461.528992 228.0
461.702698 164.0
461.766357 136.0
461.822021 144.0
461.943604 176.0
462.00708 200.0
462.041412 360.0
462.087341 224.0
462.269623 260.0
462.32019 204.0
462.449707 268.0
462.479675 220.0
462.532806 304.0
462.609222 200.0
462.653717 344.0
462.738495 256.0
462.802551 116.0
462.869202 568.0
463.002228 412.0
463.08728 205356.0
463.210632 228.0
463.275513 188.0
463.348694 216.0
463.396545 132.0
463.473419 788.0
463.520996 324.0
463.549896 272.0
463.645447 168.0
463.746613 132.0
463.794586 3760.0
463.854065 268.0
463.927948 164.0
463.996735 252.0
464.089783 95432.0
464.21637 252.0
464.254425 104.0
464.348389 240.0
464.394775 228.0
464.503967 152.0
464.539917 312.0
464.581635 496.0
464.618591 296.0
464.704834 204.0
464.754059 264.0
464.788544 296.0
464.859497 468.0
464.952087 664.0
464.98761 340.0
465.084564 192956.0
465.234863 136.0
465.333618 120.0
465.364014 180.0
465.395386 116.0
465.481323 380.0
465.583038 256.0
465.626099 304.0
465.739014 248.0
465.793457 2824.0
465.839111 288.0
465.983002 124.0
466.086212 67268.0
466.264038 168.0
466.372589 112.0
466.423065 180.0
466.460236 176.0
466.500092 156.0
466.53537 304.0
466.585449 288.0
466.687286 356.0
466.735565 224.0
466.800507 164.0
466.849701 216.0
466.908173 400.0
466.957703 272.0
466.996368 392.0
467.08139 47616.0
467.210205 328.0
467.251068 200.0
467.355988 132.0
467.463989 128.0
467.543549 152.0
467.587646 132.0
467.642395 364.0
467.713104 264.0
467.809479 156.0
467.911346 132.0
467.993805 156.0
468.081451 2880.0
468.214111 148.0
468.285858 124.0
468.433929 164.0
468.477783 184.0
468.524414 240.0
468.585236 132.0
468.628632 268.0
468.676971 176.0
468.728027 152.0
468.777435 152.0
468.842377 240.0
468.954834 252.0
469.001862 196.0
469.07843 920.0
469.145599 128.0
469.210266 244.0
469.477081 132.0
469.558838 208.0
469.619507 116.0
469.697876 112.0
469.926727 132.0
469.998596 140.0
470.083954 200.0
470.165009 148.0
470.329712 156.0
470.381989 140.0
470.61145 164.0
470.732941 128.0
471.045441 224.0
471.129456 144.0
472.045532 104.0
472.908325 124.0
477.330719 192.0
478.981995 96.0
479.095886 100.0
479.988007 112.0
480.43222 136.0
485.420471 124.0
486.520172 124.0
491.30545 144.0
493.18576 120.0
494.30484 100.0
511.418488 168.0
515.796936 120.0
529.25116 152.0
571.778442 96.0
583.040466 104.0
597.117493 160.0
626.916687 108.0
633.693665 104.0
673.826599 156.0
710.524841 140.0
715.188049 120.0
725.752136 184.0
737.491821 108.0
768.645935 148.0
960.253845 156.0
973.212097 140.0
995.297302 148.0
1043.706055 140.0
1077.833496 108.0
1262.892578 140.0
1458.36792 156.0
1589.719604 144.0
1681.8479 272.0
1690.249268 144.0
1810.836182 172.0
1851.118652 180.0
1956.694214 160.0
1982.380127 176.0
