>compound MLS000737546-01!
>formula C19H19NO4
>ionization [M+H]+
>parentmass 326.138641
#inchi InChI=1S/C19H19NO4/c1-22-19-14-9-20-5-4-12-7-17-18(24-10-23-17)8-13(12)15(20)6-11(14)2-3-16(19)21/h2-3,7-8,15,21H,4-6,9-10H2,1H3
#inchikey TUTLRKKYUXPDGN
#Ion_Source LC-ESI
#Instrument qTof
#Compound_Source NIH Natural Product Library
#PI Dorrestein
#Data_Collector VVP/LMS
#Scan -1
#Precursor_MZ 326.139
#ExactMass 325.131
#Charge 1
#CAS_Number N/A
#Pubmed_ID N/A
#Smiles COc1c(O)ccc2CC3N(CCc4cc5OCOc5cc34)Cc12
#INCHI_AUX N/A
#Library_Class 1
#SpectrumID CCMSLIB00000079838
#IonMode Positive
#UpdateWorkflowName UPDATE-SINGLE-ANNOTATED-GOLD
#LibraryQualityString Gold
#TaskID b1d8e8f6646f4e71acdff9ca3d919d08
##Scan# 1563
#SpectrumFile p1-G11_GG11_01_17955.mzXML
#LibraryName NIH_Natural_Products_Library.mgf
#MQScore -1
#Organism NIH_Natural_Products_Library
#TIC_Query 0
#RT_Query -1
#MZErrorPPM -1
#SharedPeaks 0
#MassDiff 0
#LibMZ -1
#SpecMZ 326.139
#SpecCharge 0
#internalFilename spec-00000.mgf

>collision 10
94.959724 172.0
94.974205 192.0
94.997482 140.0
95.013 168.0
95.036285 232.0
95.057228 216.0
95.071213 112.0
95.086739 164.0
95.100319 116.0
95.223312 196.0
95.303986 188.0
95.346985 160.0
95.387802 212.0
95.407242 132.0
95.445641 192.0
95.473351 124.0
95.488907 168.0
95.520027 148.0
95.562828 204.0
95.597855 172.0
95.645737 172.0
95.660133 180.0
95.673759 108.0
95.792549 152.0
95.837364 84.0
95.863853 148.0
96.016701 108.0
96.034256 48.0
96.062538 160.0
96.098633 212.0
96.118141 116.0
96.198853 212.0
96.237213 160.0
96.28212 132.0
96.309464 168.0
96.35244 212.0
96.399338 60.0
96.430458 204.0
96.598763 148.0
96.645714 136.0
96.661964 224.0
96.718124 112.0
96.744003 220.0
96.779404 212.0
96.849312 208.0
96.87674 100.0
96.896332 152.0
96.921799 116.0
96.937477 184.0
96.962082 324.0
97.196465 160.0
97.239487 172.0
97.257492 212.0
97.296417 132.0
97.343536 148.0
97.378891 188.0
97.404419 132.0
97.447639 116.0
97.461395 40.0
97.506592 136.0
97.535751 192.0
97.559662 108.0
97.573425 108.0
97.595055 132.0
97.648415 180.0
97.69339 200.0
97.732742 140.0
97.795715 260.0
97.827209 112.0
97.850746 184.0
97.870522 48.0
97.888245 140.0
97.903999 132.0
97.957924 196.0
98.000519 140.0
98.11483 168.0
98.193703 104.0
98.20948 188.0
98.225266 104.0
98.27887 220.0
98.293945 192.0
98.33773 56.0
98.356194 204.0
98.418671 132.0
98.453476 128.0
98.48156 128.0
98.570763 76.0
98.626106 180.0
98.750671 156.0
98.797905 168.0
98.819908 104.0
98.875313 152.0
98.933113 216.0
98.964394 148.0
99.01786 92.0
99.095116 60.0
99.170418 132.0
99.204109 152.0
99.237816 152.0
99.299294 180.0
99.333008 136.0
99.370705 160.0
99.462082 172.0
99.485809 236.0
99.519562 176.0
99.588669 152.0
99.607567 192.0
99.672508 88.0
99.730202 120.0
99.767906 176.0
99.793755 80.0
99.885231 72.0
99.921043 80.0
99.981415 176.0
100.014572 176.0
100.048409 164.0
100.086243 36.0
100.112129 104.0
100.132042 160.0
100.146111 124.0
100.167892 220.0
100.187813 184.0
100.207741 140.0
100.231651 160.0
100.274925 240.0
100.289444 184.0
100.315353 172.0
100.334946 184.0
100.417046 160.0
100.491776 156.0
100.517723 188.0
100.562698 60.0
100.580658 124.0
100.664642 180.0
100.690353 132.0
100.736412 144.0
100.842316 164.0
100.945107 168.0
100.962273 192.0
100.980026 160.0
101.006271 220.0
101.021629 184.0
101.053413 156.0
101.083504 200.0
101.130333 216.0
101.148346 44.0
101.162361 116.0
101.180374 84.0
101.210548 176.0
101.27813 216.0
101.352623 116.0
101.396935 144.0
101.404243 148.0
101.436798 156.0
101.533134 176.0
101.58519 180.0
101.787903 148.0
101.871895 180.0
101.907074 60.0
102.029114 152.0
102.053131 104.0
102.08329 100.0
102.11145 124.0
102.137596 136.0
102.155701 84.0
102.18071 152.0
102.214043 156.0
102.314682 160.0
102.340858 196.0
102.37307 176.0
102.39724 232.0
102.433495 164.0
102.467979 136.0
102.506027 56.0
102.54129 208.0
102.580597 128.0
102.606804 52.0
102.626534 184.0
102.643097 184.0
102.770172 116.0
102.792374 68.0
102.820625 204.0
102.893127 148.0
102.970024 248.0
102.998299 116.0
103.026283 184.0
103.053391 848.0
103.105385 84.0
103.172089 112.0
103.216568 120.0
103.240662 140.0
103.309601 188.0
103.366257 112.0
103.382446 220.0
103.404709 156.0
103.426971 140.0
103.457336 136.0
103.479607 132.0
103.503899 240.0
103.522125 116.0
103.563431 172.0
103.599091 172.0
103.623405 96.0
103.726006 172.0
103.781494 80.0
103.807854 220.0
103.93116 208.0
103.962029 136.0
103.978264 200.0
104.012772 136.0
104.041061 192.0
104.059189 240.0
104.112259 132.0
104.148819 212.0
104.234146 212.0
104.248367 168.0
104.33577 120.0
104.388634 212.0
104.421173 204.0
104.482193 104.0
104.514748 160.0
104.532806 160.0
104.56636 200.0
104.584938 180.0
104.619629 160.0
104.665375 168.0
104.72036 172.0
104.785545 152.0
104.818146 176.0
104.848846 120.0
104.877251 192.0
104.930252 124.0
104.95562 172.0
105.028542 268.0
105.054375 216.0
105.068787 288.0
105.154633 172.0
105.19342 96.0
105.222 128.0
105.299591 100.0
105.315933 220.0
105.352699 124.0
105.376076 164.0
105.391518 180.0
105.436195 232.0
105.463051 144.0
105.493706 268.0
105.508018 160.0
105.526421 160.0
105.706421 156.0
105.724838 112.0
105.756355 160.0
105.790337 212.0
105.839973 180.0
105.877403 140.0
105.9132 188.0
105.966461 148.0
106.026436 192.0
106.065445 248.0
106.144783 180.0
106.198105 140.0
106.235023 76.0
106.269432 140.0
106.310638 160.0
106.337624 124.0
106.366417 256.0
106.391907 200.0
106.43 272.0
106.485451 204.0
106.508041 200.0
106.522423 156.0
106.5802 160.0
106.704697 160.0
106.732513 232.0
106.748505 164.0
106.77935 92.0
106.794296 264.0
106.816376 112.0
106.831856 156.0
106.860672 180.0
106.911018 180.0
106.933655 196.0
107.046387 372.0
107.072258 332.0
107.093025 228.0
107.111839 200.0
107.2323 184.0
107.265274 164.0
107.351868 348.0
107.403427 124.0
107.477585 224.0
107.500397 120.0
107.550491 176.0
107.642548 200.0
107.664581 316.0
107.760567 148.0
107.804535 144.0
107.824631 132.0
107.841164 208.0
107.857697 124.0
107.89904 140.0
107.934189 56.0
107.966003 332.0
107.974129 128.0
107.982735 244.0
108.010712 164.0
108.05777 580.0
108.091873 188.0
108.146004 176.0
108.192818 136.0
108.226974 20.0
108.277397 208.0
108.317062 152.0
108.404083 184.0
108.474121 136.0
108.508942 68.0
108.604118 140.0
108.647881 212.0
108.669495 108.0
108.710999 132.0
108.733826 168.0
108.764954 164.0
108.904076 236.0
108.920692 136.0
108.976784 176.0
109.001717 192.0
109.024574 120.0
109.049515 172.0
109.066078 124.0
109.124352 192.0
109.278259 140.0
109.319878 164.0
109.351089 112.0
109.593468 216.0
109.638496 144.0
109.663513 140.0
109.711456 44.0
109.876205 184.0
109.905418 152.0
109.955498 52.0
109.979927 148.0
110.001419 216.0
110.070045 184.0
110.097466 180.0
110.132065 92.0
110.154556 104.0
110.18399 152.0
110.245224 104.0
110.300133 92.0
110.318787 160.0
110.354485 144.0
110.387939 180.0
110.423492 48.0
110.46402 168.0
110.513443 160.0
110.57225 196.0
110.58783 240.0
110.620178 100.0
110.716148 144.0
110.754196 140.0
110.904793 160.0
110.940689 128.0
110.967949 152.0
111.056023 176.0
111.076042 144.0
111.12735 140.0
111.177704 140.0
111.255135 144.0
111.335159 228.0
111.389771 68.0
111.414978 232.0
111.456993 76.0
111.566284 156.0
111.606232 116.0
111.62516 156.0
111.68531 260.0
111.715599 116.0
111.74926 168.0
111.854485 136.0
111.890274 148.0
111.930374 168.0
111.985466 192.0
111.999771 264.0
112.041908 128.0
112.119865 128.0
112.168343 124.0
112.341263 92.0
112.366577 232.0
112.423553 120.0
112.46154 132.0
112.50798 140.0
112.571266 152.0
112.58757 176.0
112.607224 180.0
112.705292 180.0
112.718109 148.0
112.740326 196.0
112.765686 200.0
112.811462 140.0
112.816689 92.0
112.823593 152.0
112.871384 164.0
112.888306 120.0
112.91571 200.0
112.941177 164.0
112.977135 180.0
113.042442 180.0
113.068123 104.0
113.186623 168.0
113.25444 208.0
113.343155 160.0
113.368843 128.0
113.417595 168.0
113.45787 148.0
113.49015 212.0
113.538445 124.0
113.559654 204.0
113.714539 192.0
113.737885 180.0
113.814194 148.0
113.846161 236.0
113.892891 196.0
113.977867 184.0
114.054512 184.0
114.099014 200.0
114.245758 44.0
114.273468 156.0
114.358536 140.0
114.388336 128.0
114.424522 156.0
114.440727 204.0
114.462852 136.0
114.535263 112.0
114.588516 196.0
114.629852 120.0
114.66156 72.0
114.684586 152.0
114.727051 84.0
114.741974 164.0
114.805939 116.0
114.878456 116.0
115.034241 112.0
115.053673 720.0
115.083649 192.0
115.177307 136.0
115.247803 132.0
115.329575 124.0
115.348251 200.0
115.380318 108.0
115.401695 260.0
115.4188 124.0
115.463707 52.0
115.479561 156.0
115.504349 160.0
115.52066 160.0
115.583504 172.0
115.603798 124.0
115.619888 184.0
115.7388 240.0
115.76152 176.0
115.784737 36.0
115.819 132.0
115.834 168.0
115.908981 96.0
115.92675 232.0
115.963806 172.0
116.053192 220.0
116.155533 116.0
116.176476 184.0
116.219681 80.0
116.241356 200.0
116.301445 168.0
116.316467 180.0
116.333641 84.0
116.359406 68.0
116.380875 132.0
116.398056 60.0
116.441002 164.0
116.483963 184.0
116.544113 164.0
116.66877 200.0
116.759079 164.0
116.778435 148.0
116.806396 192.0
116.881699 112.0
116.920433 136.0
116.972092 48.0
116.992538 192.0
117.057175 3272.0
117.084053 148.0
117.12928 60.0
117.169319 164.0
117.325386 116.0
117.370659 164.0
117.411629 104.0
117.462288 156.0
117.490105 220.0
117.524063 132.0
117.560486 148.0
117.597176 108.0
117.694321 128.0
117.741829 56.0
117.823967 164.0
117.869286 120.0
117.931953 152.0
117.970863 176.0
117.988159 160.0
118.022751 100.0
118.065056 7316.0
118.102768 180.0
118.187141 180.0
118.209915 176.0
118.282364 144.0
118.297516 272.0
118.329994 184.0
118.348351 152.0
118.397301 140.0
118.414444 136.0
118.434135 200.0
118.45343 96.0
118.576935 68.0
118.60511 220.0
118.627525 212.0
118.680992 156.0
118.700508 60.0
118.717857 128.0
118.737373 256.0
118.76963 156.0
118.841431 132.0
118.882721 196.0
118.921791 56.0
118.939156 176.0
118.962982 180.0
118.9804 204.0
119.023483 204.0
119.04908 23808.0
119.088974 120.0
119.121559 96.0
119.15197 140.0
119.16935 144.0
119.197601 40.0
119.222023 168.0
119.262794 56.0
119.284531 36.0
119.301926 116.0
119.323662 60.0
119.343231 256.0
119.375565 120.0
119.383263 156.0
119.406296 272.0
119.442886 136.0
119.478073 220.0
119.560234 164.0
119.583267 116.0
119.630409 56.0
119.645653 72.0
119.667419 48.0
119.702164 144.0
119.710205 136.0
119.831467 164.0
119.863457 160.0
119.887573 180.0
119.95063 96.0
120.002953 172.0
120.051796 1996.0
120.079994 520.0
120.114807 236.0
120.14035 192.0
120.166534 184.0
120.214539 344.0
120.242912 144.0
120.260368 60.0
120.28656 180.0
120.391167 132.0
120.419754 136.0
120.463135 172.0
120.504951 152.0
120.537727 244.0
120.566132 220.0
120.780128 196.0
120.799423 184.0
120.956589 200.0
120.988289 124.0
121.010178 116.0
121.029884 168.0
121.063171 1144.0
121.141579 120.0
121.165001 180.0
121.205116 148.0
121.236412 156.0
121.294975 32.0
121.334435 172.0
121.355835 184.0
121.389252 160.0
121.403969 296.0
121.436035 144.0
121.512077 124.0
121.558159 48.0
121.597664 40.0
121.615219 188.0
121.701675 168.0
121.72393 180.0
121.749146 112.0
121.764519 92.0
121.839203 112.0
121.871277 200.0
121.920502 144.0
121.938087 80.0
121.997429 72.0
122.036285 612.0
122.069344 280.0
122.089783 40.0
122.127167 132.0
122.179962 68.0
122.230568 112.0
122.334015 152.0
122.36483 228.0
122.400063 184.0
122.438515 104.0
122.466133 132.0
122.545731 120.0
122.576286 124.0
122.651215 128.0
122.666649 180.0
122.69558 192.0
122.746017 140.0
122.816589 196.0
122.834236 160.0
122.887611 164.0
122.929108 60.0
122.964417 160.0
123.040993 428.0
123.084396 388.0
123.104294 144.0
123.142929 212.0
123.200684 180.0
123.280228 124.0
123.37748 176.0
123.392952 172.0
123.457077 52.0
123.52343 52.0
123.54998 176.0
123.616356 48.0
123.635956 196.0
123.72924 108.0
123.800095 180.0
123.932999 140.0
124.052071 248.0
124.065063 436.0
124.083717 88.0
124.103668 136.0
124.141365 60.0
124.190231 116.0
124.250053 184.0
124.308937 144.0
124.378761 212.0
124.486565 144.0
124.530945 148.0
124.59639 124.0
124.614159 68.0
124.647804 140.0
124.722496 144.0
124.767509 164.0
124.894264 108.0
124.950188 144.0
124.989235 176.0
125.02021 100.0
125.055618 168.0
125.098984 188.0
125.136833 80.0
125.15242 92.0
125.17691 200.0
125.265999 76.0
125.323921 176.0
125.361801 176.0
125.386322 320.0
125.455414 196.0
125.533455 152.0
125.553528 136.0
125.600365 192.0
125.647209 192.0
125.668739 80.0
125.698524 124.0
125.776642 184.0
125.944107 96.0
125.973145 168.0
126.028999 196.0
126.145958 168.0
126.203339 192.0
126.257004 100.0
126.297264 184.0
126.352875 228.0
126.373329 136.0
126.503128 152.0
126.532234 108.0
126.550911 184.0
126.588211 200.0
126.639725 132.0
126.69796 208.0
126.752563 176.0
126.868279 68.0
126.91761 324.0
126.948418 240.0
127.03199 152.0
127.373192 184.0
127.528282 164.0
127.578766 176.0
127.667618 72.0
127.748962 196.0
127.813026 156.0
127.881348 124.0
127.897858 144.0
127.98941 144.0
128.01973 112.0
128.048706 120.0
128.07048 156.0
128.103104 116.0
128.219177 88.0
128.264267 120.0
128.29808 216.0
128.315628 188.0
128.401794 192.0
128.505569 104.0
128.581589 168.0
128.631943 140.0
128.648941 152.0
128.792267 148.0
128.823883 140.0
128.8526 208.0
128.923309 148.0
128.953217 236.0
128.990067 172.0
129.006027 228.0
129.033569 184.0
129.077026 128.0
129.09285 200.0
129.119995 56.0
129.178802 152.0
129.233093 128.0
129.291931 160.0
129.355301 216.0
129.620285 256.0
129.68602 136.0
129.748993 220.0
129.778961 160.0
129.817413 96.0
129.849258 56.0
129.967941 212.0
130.03801 204.0
130.064072 596.0
130.112473 172.0
130.291885 116.0
130.3078 152.0
130.333633 128.0
130.371414 164.0
130.411819 216.0
130.473709 224.0
130.522446 112.0
130.712524 132.0
130.741058 140.0
130.792084 204.0
130.839981 128.0
130.90802 168.0
130.91481 148.0
130.988922 160.0
131.006226 144.0
131.048859 1576.0
131.122437 200.0
131.170303 144.0
131.191559 160.0
131.209061 140.0
131.225021 156.0
131.272903 160.0
131.327637 136.0
131.350449 120.0
131.402908 236.0
131.448547 200.0
131.480499 48.0
131.537552 88.0
131.553543 144.0
131.587784 196.0
131.642578 176.0
131.663132 116.0
131.685516 160.0
131.752213 128.0
131.795135 240.0
131.804001 188.0
131.810593 148.0
131.871048 148.0
131.914474 200.0
131.948761 88.0
132.052963 380.0
132.171967 172.0
132.198074 124.0
132.253006 140.0
132.287338 140.0
132.335419 116.0
132.365189 124.0
132.388092 140.0
132.410995 196.0
132.429306 160.0
132.585098 200.0
132.608276 144.0
132.635529 180.0
132.665329 172.0
132.681381 128.0
132.816742 140.0
132.855667 188.0
132.924637 132.0
132.955154 192.0
132.988754 164.0
133.025482 192.0
133.053253 384.0
133.101257 180.0
133.151779 176.0
133.282715 200.0
133.310287 160.0
133.358093 120.0
133.378998 148.0
133.389236 228.0
133.503387 80.0
133.574493 188.0
133.634506 176.0
133.678223 128.0
133.784103 144.0
133.815628 208.0
133.870773 224.0
133.919952 124.0
133.942993 92.0
134.038895 308.0
134.059021 1188.0
134.134247 88.0
134.226471 112.0
134.247223 44.0
134.30719 188.0
134.377197 208.0
134.436386 212.0
134.473312 220.0
134.537949 116.0
134.623383 268.0
134.648773 128.0
134.715759 164.0
134.939941 68.0
134.982025 180.0
135.043625 1600.0
135.127274 248.0
135.157349 200.0
135.175873 96.0
135.209274 156.0
135.269241 204.0
135.289276 176.0
135.317062 148.0
135.342529 68.0
135.393738 172.0
135.430527 72.0
135.548691 184.0
135.638 164.0
135.670334 92.0
135.690079 236.0
135.75267 136.0
135.845459 144.0
135.882568 80.0
135.92897 128.0
135.952179 144.0
136.000259 184.0
136.051544 3396.0
136.11409 48.0
136.144028 188.0
136.17627 132.0
136.202927 104.0
136.240097 176.0
136.361115 152.0
136.398117 132.0
136.423691 124.0
136.570175 152.0
136.609726 68.0
136.628342 176.0
136.657639 108.0
136.748352 172.0
136.826614 184.0
136.857086 168.0
136.889023 116.0
136.968201 116.0
137.003143 116.0
137.058395 3916.0
137.088394 320.0
137.177933 136.0
137.201233 36.0
137.248291 200.0
137.29451 204.0
137.309769 132.0
137.326492 224.0
137.343231 184.0
137.367798 72.0
137.400803 84.0
137.462479 32.0
137.485809 244.0
137.523148 72.0
137.681915 64.0
137.728622 240.0
137.812729 160.0
137.836838 188.0
137.857117 184.0
137.896851 300.0
137.929581 56.0
137.986435 144.0
138.06218 168.0
138.168823 236.0
138.200851 208.0
138.261932 196.0
138.317871 156.0
138.334259 92.0
138.40683 80.0
138.474747 172.0
138.521591 208.0
138.608276 128.0
138.669205 172.0
138.685516 164.0
138.748901 48.0
138.773178 264.0
138.81691 128.0
138.856766 120.0
138.89827 180.0
138.97406 88.0
139.023346 224.0
139.044464 196.0
139.076645 128.0
139.117233 60.0
139.143051 96.0
139.206207 152.0
139.274551 104.0
139.2957 176.0
139.312134 64.0
139.38028 64.0
139.455475 136.0
139.511292 140.0
139.54425 220.0
139.565811 184.0
139.594177 356.0
139.674149 132.0
139.754135 120.0
139.794144 156.0
139.845917 108.0
139.891739 180.0
139.940125 188.0
139.975601 140.0
140.013077 128.0
140.059525 232.0
140.090805 180.0
140.114365 160.0
140.135559 104.0
140.192123 128.0
140.210083 180.0
140.255753 164.0
140.286392 180.0
140.326477 136.0
140.422119 208.0
140.510086 188.0
140.706329 144.0
140.777161 340.0
140.836197 156.0
140.859497 204.0
140.940155 100.0
140.992142 108.0
141.115051 128.0
141.143433 184.0
141.169449 132.0
141.247498 140.0
141.272583 184.0
141.286163 172.0
141.358688 92.0
141.389175 140.0
141.455719 108.0
141.478394 172.0
141.500015 232.0
141.552795 72.0
141.581299 212.0
141.702026 144.0
141.718613 208.0
141.826904 172.0
141.89122 116.0
142.041031 184.0
142.083191 212.0
142.188126 184.0
142.247467 176.0
142.302078 168.0
142.337692 116.0
142.363815 184.0
142.387558 204.0
142.503952 156.0
142.539597 236.0
142.568115 52.0
142.618027 148.0
142.646545 32.0
142.696472 176.0
142.767807 88.0
142.793961 152.0
142.822083 88.0
142.838837 120.0
142.865326 176.0
142.962875 124.0
143.050003 1636.0
143.115219 136.0
143.165237 128.0
143.24144 52.0
143.262894 192.0
143.482132 200.0
143.539368 192.0
143.589447 248.0
143.612427 104.0
143.774963 188.0
143.828217 212.0
143.861023 156.0
143.937851 156.0
143.961731 220.0
144.011887 160.0
144.051682 300.0
144.095505 156.0
144.112976 204.0
144.210205 128.0
144.284302 68.0
144.346466 116.0
144.372772 92.0
144.456497 168.0
144.499557 180.0
144.547409 144.0
144.59288 156.0
144.674255 148.0
144.693405 52.0
144.729324 208.0
144.79158 128.0
144.86116 176.0
144.943848 144.0
144.98085 128.0
145.021591 168.0
145.048721 392.0
145.064163 132.0
145.072861 216.0
145.12468 244.0
145.297363 108.0
145.341629 160.0
145.376541 172.0
145.400543 156.0
145.441345 104.0
145.476807 224.0
145.515762 88.0
145.560303 152.0
145.674255 88.0
145.712708 164.0
145.734329 92.0
145.760757 112.0
145.818436 168.0
145.84967 188.0
145.878693 224.0
145.907364 152.0
146.005951 148.0
146.035248 156.0
146.05928 6640.0
146.118958 192.0
146.183975 144.0
146.23941 116.0
146.260986 188.0
146.30455 124.0
146.324951 148.0
146.359848 228.0
146.381378 136.0
146.424713 80.0
146.519241 180.0
146.581314 136.0
146.598175 176.0
146.617447 156.0
146.665665 144.0
146.728333 116.0
146.752136 224.0
146.778961 64.0
146.827194 96.0
146.885086 188.0
146.945389 228.0
147.008133 192.0
147.042862 992.0
147.062988 608.0
147.172119 192.0
147.25679 196.0
147.340714 108.0
147.360672 84.0
147.558853 104.0
147.580612 48.0
147.626556 180.0
147.65799 188.0
147.694275 232.0
147.752335 180.0
147.78862 36.0
147.810181 220.0
147.862381 208.0
147.912048 128.0
147.938675 136.0
147.999207 148.0
148.045425 280.0
148.077057 652.0
148.141388 164.0
148.20462 144.0
148.213867 116.0
148.260818 152.0
148.317856 128.0
148.332108 196.0
148.403839 208.0
148.420807 168.0
148.460159 176.0
148.486282 132.0
148.51297 124.0
148.532379 116.0
148.556625 128.0
148.588165 152.0
148.613739 156.0
148.643982 288.0
148.67067 112.0
148.711929 100.0
148.732697 208.0
148.754364 124.0
148.780243 196.0
148.800491 308.0
148.822815 160.0
148.85759 148.0
148.919083 200.0
148.952988 260.0
148.980698 204.0
149.001419 148.0
149.059616 48816.0
149.10849 236.0
149.118073 96.0
149.143005 56.0
149.175873 28.0
149.207809 176.0
149.234177 252.0
149.260223 92.0
149.299805 144.0
149.331497 52.0
149.35022 288.0
149.371262 80.0
149.410461 84.0
149.434341 300.0
149.457275 68.0
149.472595 216.0
149.500992 368.0
149.550461 152.0
149.572144 144.0
149.612717 220.0
149.655151 120.0
149.691666 68.0
149.71846 120.0
149.743073 188.0
149.778778 120.0
149.862183 160.0
149.952454 264.0
149.981598 40.0
150.001099 128.0
150.061844 4108.0
150.095428 180.0
150.154831 72.0
150.195251 224.0
150.204941 140.0
150.211212 168.0
150.232758 196.0
150.254715 72.0
150.297363 100.0
150.337097 204.0
150.366104 148.0
150.501221 40.0
150.569595 104.0
150.628937 176.0
150.645752 160.0
150.693863 124.0
150.709396 140.0
150.74794 96.0
150.814087 180.0
150.832855 188.0
150.871536 148.0
150.899475 48.0
150.934479 140.0
150.99118 40.0
151.019302 132.0
151.036423 116.0
151.073639 6340.0
151.125778 352.0
151.167282 108.0
151.19046 88.0
151.20578 184.0
151.223206 144.0
151.292435 136.0
151.33255 184.0
151.353333 104.0
151.371048 144.0
151.523575 168.0
151.641968 192.0
151.707382 72.0
151.73436 144.0
151.76622 140.0
151.819077 144.0
151.928101 120.0
151.97226 124.0
152.005905 196.0
152.078339 572.0
152.114594 36.0
152.208557 180.0
152.257004 208.0
152.311478 180.0
152.365082 60.0
152.424805 244.0
152.458466 152.0
152.488007 172.0
152.605942 124.0
152.672333 44.0
152.692017 156.0
152.731369 124.0
152.778107 52.0
152.797791 172.0
152.827316 120.0
152.861145 96.0
152.870041 152.0
152.918365 392.0
152.974976 124.0
153.003632 188.0
153.01149 120.0
153.017532 168.0
153.046143 216.0
153.076324 160.0
153.128418 240.0
153.196609 76.0
153.218521 152.0
153.256577 188.0
153.287628 140.0
153.326645 196.0
153.344452 136.0
153.376495 96.0
153.415939 152.0
153.46875 320.0
153.548737 168.0
153.620621 96.0
153.674896 92.0
153.700043 224.0
153.736572 180.0
153.771133 60.0
153.788406 208.0
153.810181 112.0
153.869064 208.0
153.939011 156.0
153.995804 104.0
154.036148 228.0
154.109436 88.0
154.129211 172.0
154.146515 164.0
154.208298 176.0
154.42749 176.0
154.480682 172.0
154.500076 212.0
154.556976 68.0
154.574814 96.0
154.722809 44.0
154.766846 208.0
154.789658 88.0
154.826813 156.0
154.980392 132.0
155.059692 40.0
155.079514 132.0
155.110992 112.0
155.173721 152.0
155.20842 180.0
155.265457 140.0
155.344452 156.0
155.391968 152.0
155.439789 204.0
155.490387 108.0
155.516052 84.0
155.627762 292.0
155.679901 96.0
155.746964 168.0
155.779251 80.0
155.833908 180.0
155.878525 168.0
155.908463 160.0
155.988632 184.0
156.043564 228.0
156.077499 132.0
156.097382 128.0
156.149612 140.0
156.433273 240.0
156.453186 60.0
156.48555 176.0
156.536682 128.0
156.561417 264.0
156.630997 168.0
156.674835 332.0
156.70224 196.0
156.816864 124.0
156.941513 176.0
156.969284 144.0
157.021301 128.0
157.043747 164.0
157.070297 168.0
157.230881 164.0
157.368164 92.0
157.410614 108.0
157.47554 200.0
157.508026 156.0
157.620438 132.0
157.647934 116.0
157.700409 168.0
157.726212 136.0
157.845413 176.0
157.866776 192.0
157.88826 236.0
158.010498 128.0
158.029678 200.0
158.058685 192.0
158.093063 112.0
158.180664 120.0
158.200699 140.0
158.224167 140.0
158.28833 176.0
158.315872 208.0
158.375977 164.0
158.412582 176.0
158.496231 156.0
158.513763 124.0
158.541336 96.0
158.649109 204.0
158.667908 168.0
158.704269 256.0
158.77449 40.0
158.822144 100.0
158.857254 160.0
158.930008 204.0
158.955582 168.0
159.043381 3876.0
159.105698 80.0
159.130814 140.0
159.155914 104.0
159.178513 44.0
159.24884 180.0
159.295944 148.0
159.331726 104.0
159.36557 144.0
159.407104 124.0
159.424698 140.0
159.464905 84.0
159.572998 116.0
159.615738 120.0
159.655975 136.0
159.711319 60.0
159.874847 216.0
159.932739 196.0
160.045914 608.0
160.071548 612.0
160.160385 196.0
160.266022 164.0
160.325638 108.0
160.345795 180.0
160.378555 152.0
160.400253 184.0
160.439056 248.0
160.550003 164.0
160.582794 56.0
160.605484 64.0
160.693787 136.0
160.730087 144.0
160.898315 132.0
160.928513 168.0
160.95491 168.0
161.046432 13444.0
161.112885 80.0
161.131561 224.0
161.163406 128.0
161.207703 76.0
161.268585 200.0
161.340332 72.0
161.413651 108.0
161.436401 208.0
161.534515 152.0
161.538162 120.0
161.580582 100.0
161.631195 116.0
161.652527 120.0
161.704575 60.0
161.88179 72.0
161.899521 72.0
161.92485 108.0
161.957764 160.0
162.049515 1276.0
162.119919 332.0
162.142151 140.0
162.195953 164.0
162.233261 196.0
162.28215 72.0
162.335403 140.0
162.368362 168.0
162.47998 100.0
162.515488 180.0
162.57132 184.0
162.606842 104.0
162.647842 188.0
162.693146 68.0
162.769318 144.0
162.815033 120.0
162.852631 124.0
162.858109 100.0
163.013184 172.0
163.032455 216.0
163.061996 836.0
163.135178 176.0
163.180939 72.0
163.203827 212.0
163.237442 216.0
163.264847 56.0
163.329208 144.0
163.364044 88.0
163.409302 376.0
163.464066 156.0
163.510666 104.0
163.565369 152.0
163.745865 128.0
163.781509 84.0
163.939484 168.0
163.982803 128.0
164.054169 180.0
164.076675 280.0
164.125259 104.0
164.214813 160.0
164.25563 124.0
164.27858 44.0
164.312759 176.0
164.406937 144.0
164.574631 156.0
164.860733 184.0
164.886749 156.0
164.934845 96.0
164.993637 72.0
165.069382 428.0
165.126053 148.0
165.193741 120.0
165.226379 120.0
165.466949 56.0
165.487427 180.0
165.518158 176.0
165.541199 172.0
165.561691 144.0
165.643646 44.0
165.712814 136.0
165.733322 184.0
165.787125 200.0
165.907593 168.0
166.025543 72.0
166.077316 152.0
166.13327 184.0
166.171753 148.0
166.207672 160.0
166.31546 140.0
166.338562 360.0
166.361664 160.0
166.420715 80.0
166.462631 164.0
166.618484 188.0
166.654449 112.0
166.718689 144.0
166.738373 212.0
166.811218 52.0
166.834351 156.0
166.858795 168.0
166.933136 240.0
166.952637 192.0
166.985718 148.0
167.022079 224.0
167.084625 588.0
167.140411 208.0
167.156509 140.0
167.221786 168.0
167.35405 40.0
167.463394 232.0
167.601318 116.0
167.699142 196.0
167.768494 176.0
167.797211 148.0
167.835892 192.0
167.864243 52.0
168.060287 108.0
168.095383 208.0
168.202103 156.0
168.228043 176.0
168.310654 164.0
168.364883 160.0
168.395889 172.0
168.429459 84.0
168.537964 120.0
168.579315 176.0
168.606186 180.0
168.637161 320.0
168.708542 140.0
168.830063 184.0
168.947128 204.0
169.011139 172.0
169.066742 132.0
169.097839 124.0
169.146759 160.0
169.187134 120.0
169.25705 52.0
169.316315 244.0
169.405777 132.0
169.433167 124.0
169.466049 180.0
169.49794 216.0
169.54718 164.0
169.598724 212.0
169.990631 64.0
170.062164 164.0
170.130783 140.0
170.198288 140.0
170.232056 180.0
170.33429 264.0
170.374908 120.0
170.497025 108.0
170.686798 156.0
170.731003 168.0
170.849686 108.0
170.874069 200.0
171.015244 80.0
171.043228 152.0
171.131729 156.0
171.186417 172.0
171.220276 200.0
171.264542 228.0
171.303513 160.0
171.350327 284.0
171.495087 108.0
171.637222 220.0
171.692719 156.0
171.727859 148.0
171.733246 112.0
171.743988 128.0
171.776535 172.0
171.817841 144.0
171.838058 124.0
171.898071 176.0
172.05098 332.0
172.074051 172.0
172.130402 236.0
172.250534 156.0
172.318451 128.0
172.381165 104.0
172.535385 180.0
172.626892 152.0
172.694885 40.0
172.782059 160.0
172.823074 208.0
172.867554 204.0
172.891113 148.0
172.92514 248.0
172.948685 172.0
173.058212 1020.0
173.108612 188.0
173.208954 228.0
173.301071 244.0
173.33783 164.0
173.35463 372.0
173.391327 116.0
173.422775 316.0
173.44899 152.0
173.517151 144.0
173.556473 132.0
173.577454 112.0
173.601044 152.0
173.642715 180.0
173.669235 148.0
173.746994 112.0
173.766296 176.0
173.795166 244.0
173.858139 152.0
173.879135 180.0
173.902756 132.0
173.973083 228.0
173.996948 232.0
174.054611 12196.0
174.141327 232.0
174.177139 104.0
174.199478 112.0
174.253799 100.0
174.313919 136.0
174.396545 180.0
174.427795 72.0
174.465683 124.0
174.495941 148.0
174.506348 120.0
174.549652 100.0
174.578079 156.0
174.598984 128.0
174.627914 168.0
174.646332 220.0
174.719116 72.0
174.752609 160.0
174.793533 172.0
174.830597 112.0
174.859451 88.0
174.949356 128.0
175.004227 192.0
175.059738 3976.0
175.129242 144.0
175.156708 232.0
175.193405 116.0
175.225189 116.0
175.243332 36.0
175.268555 216.0
175.300629 160.0
175.380432 204.0
175.412582 120.0
175.437393 116.0
175.460144 200.0
175.503387 128.0
175.539825 76.0
175.574768 164.0
175.592621 284.0
175.621078 212.0
175.658508 400.0
175.689163 344.0
175.699066 136.0
175.71109 360.0
175.74855 204.0
175.785904 176.0
175.808319 236.0
175.843552 268.0
175.877487 112.0
175.903473 416.0
175.922455 336.0
175.940781 228.0
175.961334 520.0
175.991638 356.0
176.071228 299844.0
176.146088 136.0
176.169373 332.0
176.210327 132.0
176.237442 152.0
176.263138 160.0
176.317307 404.0
176.356949 288.0
176.390656 240.0
176.421814 176.0
176.475586 292.0
176.505905 4848.0
176.547592 296.0
176.567215 184.0
176.61264 164.0
176.694199 184.0
176.748184 248.0
176.773361 196.0
176.808624 248.0
176.828339 48.0
176.852875 252.0
176.89679 104.0
176.91774 292.0
176.940643 156.0
176.966888 224.0
176.994583 196.0
177.073868 45968.0
177.139908 72.0
177.160431 48.0
177.194794 72.0
177.233246 148.0
177.276489 48.0
177.313232 148.0
177.332565 80.0
177.359314 128.0
177.38385 176.0
177.430969 76.0
177.464676 132.0
177.485321 88.0
177.511353 44.0
177.530075 64.0
177.550766 136.0
177.590149 212.0
177.61792 56.0
177.653839 156.0
177.692062 72.0
177.711624 300.0
177.737305 40.0
177.768417 72.0
177.801239 176.0
177.851334 60.0
177.860779 84.0
177.871689 76.0
177.901855 32.0
177.949066 116.0
177.974045 224.0
178.010498 108.0
178.078476 3488.0
178.13089 388.0
178.161697 140.0
178.183105 40.0
178.207352 212.0
178.22493 160.0
178.245911 112.0
178.261841 116.0
178.297501 208.0
178.351868 80.0
178.38327 284.0
178.419907 172.0
178.444839 256.0
178.485214 248.0
178.572449 160.0
178.622009 52.0
178.664566 108.0
178.698944 136.0
178.74971 76.0
178.777435 96.0
178.810913 44.0
178.864151 84.0
178.88765 192.0
178.908859 172.0
178.937469 96.0
178.977402 56.0
179.021927 108.0
179.083588 1960.0
179.135757 92.0
179.159744 56.0
179.186386 80.0
179.209579 136.0
179.263657 176.0
179.295624 52.0
179.326859 56.0
179.402298 216.0
179.423386 116.0
179.487564 92.0
179.5569 76.0
179.684937 68.0
179.754318 40.0
179.772995 64.0
179.82103 84.0
179.916824 108.0
180.002563 248.0
180.053299 72.0
180.087738 292.0
180.125427 88.0
180.197556 100.0
180.244446 124.0
180.376602 100.0
180.432739 64.0
180.456802 68.0
180.502258 120.0
180.680359 68.0
180.753708 224.0
180.842133 88.0
180.887527 44.0
180.962479 116.0
181.06282 684.0
181.10173 116.0
181.155304 32.0
181.182098 48.0
181.281235 88.0
181.306763 76.0
181.621719 80.0
181.906158 92.0
181.941055 72.0
181.98938 84.0
182.072632 112.0
182.172012 52.0
182.333221 248.0
182.419235 64.0
182.476562 160.0
182.497208 100.0
182.55098 48.0
182.776932 112.0
182.83345 84.0
182.919586 156.0
183.075989 128.0
183.094589 196.0
183.248138 184.0
183.326279 64.0
183.452957 48.0
183.563492 132.0
183.68486 144.0
183.711838 180.0
183.827866 80.0
183.973602 148.0
184.006012 144.0
184.046509 32.0
184.078903 180.0
184.324722 172.0
184.524734 60.0
184.630188 76.0
184.738388 212.0
184.848007 116.0
184.98465 72.0
185.079407 148.0
185.114609 140.0
185.174179 108.0
185.225647 168.0
185.250031 68.0
185.352982 36.0
185.377365 200.0
185.409882 108.0
185.496628 108.0
185.887955 160.0
185.968597 100.0
185.990311 136.0
186.053223 328.0
186.112473 36.0
186.196655 80.0
186.24826 52.0
186.37323 112.0
186.405838 80.0
186.490082 76.0
186.536285 168.0
186.683105 88.0
187.004135 168.0
187.062027 360.0
187.093964 132.0
187.37175 44.0
187.504593 112.0
187.551605 96.0
187.707001 124.0
187.745178 116.0
187.766998 92.0
187.810638 76.0
188.070328 1948.0
188.181778 52.0
188.222733 168.0
188.416656 80.0
188.577881 84.0
188.692688 128.0
188.761047 92.0
188.7966 68.0
188.963455 76.0
188.989548 164.0
189.07695 4188.0
189.16597 80.0
189.212509 216.0
189.325256 68.0
189.363617 152.0
189.395981 40.0
189.545975 224.0
189.590515 124.0
189.631622 140.0
189.686432 80.0
189.798843 40.0
189.900314 72.0
189.933228 100.0
189.974365 132.0
190.0457 36.0
190.081253 1604.0
190.17865 72.0
190.325668 44.0
190.489365 120.0
190.59761 148.0
190.663559 48.0
190.743271 140.0
190.831238 76.0
191.006485 72.0
191.083908 2308.0
191.3237 180.0
191.495667 116.0
191.626648 172.0
191.838867 108.0
191.871948 96.0
191.924332 164.0
191.954666 72.0
191.990509 100.0
192.054077 84.0
192.088333 288.0
192.233276 36.0
192.307785 84.0
192.39888 68.0
192.448578 68.0
192.586655 48.0
192.611511 40.0
192.675049 88.0
192.763474 84.0
192.788345 132.0
192.956955 92.0
193.067429 176.0
193.093048 128.0
193.15329 100.0
193.34697 140.0
193.773407 152.0
194.072815 148.0
194.916565 36.0
194.941574 160.0
195.002716 204.0
195.038849 156.0
195.080139 252.0
195.277954 68.0
195.458786 52.0
195.592377 172.0
195.689804 164.0
195.75943 152.0
195.948837 104.0
196.056137 160.0
196.091064 516.0
196.291672 76.0
196.34465 124.0
196.419952 72.0
196.472961 148.0
196.640381 80.0
196.752045 76.0
197.162643 104.0
197.215744 108.0
197.369507 128.0
197.4534 96.0
197.517731 44.0
197.598862 204.0
197.666016 120.0
197.878738 116.0
198.086365 168.0
198.770981 156.0
198.792511 124.0
198.995575 220.0
199.02269 52.0
199.064804 132.0
199.115356 128.0
199.292328 144.0
199.477814 104.0
199.519989 56.0
199.773087 116.0
199.944717 148.0
200.060135 100.0
200.107986 128.0
200.161484 152.0
200.234711 152.0
200.843506 76.0
200.939423 44.0
200.96199 192.0
201.068878 368.0
201.13266 160.0
201.504074 44.0
202.077591 216.0
202.154419 100.0
202.500381 60.0
202.528137 88.0
202.564957 100.0
202.695282 84.0
203.029785 132.0
203.082443 396.0
203.475281 124.0
203.770645 100.0
204.062103 188.0
204.125946 136.0
204.595413 120.0
204.682846 68.0
204.771957 48.0
205.067017 864.0
205.10817 148.0
205.775726 88.0
206.077179 192.0
206.110245 168.0
206.887848 184.0
207.039597 100.0
207.079346 2908.0
207.114075 188.0
207.414932 64.0
207.443604 200.0
207.509537 68.0
207.655777 108.0
207.802078 124.0
208.084396 456.0
208.113632 188.0
208.318848 44.0
208.508484 108.0
208.767212 40.0
209.00885 124.0
209.061386 528.0
209.0923 144.0
209.224716 124.0
209.313965 176.0
209.994095 120.0
210.066208 232.0
210.095428 152.0
210.167175 188.0
210.797363 216.0
210.877579 224.0
211.073257 172.0
211.111755 332.0
211.239014 92.0
211.419937 144.0
211.583389 164.0
211.688309 144.0
211.733963 56.0
211.855621 172.0
212.076782 124.0
212.183105 64.0
212.505035 112.0
212.774948 92.0
212.835922 168.0
212.862061 104.0
213.007263 112.0
213.079895 256.0
213.734085 100.0
214.086319 200.0
214.147476 148.0
214.435928 76.0
214.832489 140.0
215.100952 144.0
215.211884 80.0
215.328705 60.0
215.360825 164.0
215.445541 72.0
215.65593 172.0
215.962936 152.0
216.065323 296.0
216.352127 92.0
216.419464 240.0
216.747513 140.0
217.068771 324.0
217.377975 260.0
217.618668 244.0
217.680328 132.0
217.841858 80.0
218.072113 732.0
218.220978 96.0
218.320038 128.0
218.72403 72.0
218.747589 168.0
218.803513 212.0
219.078796 2816.0
219.130432 108.0
219.154007 44.0
219.236511 164.0
219.408936 168.0
219.720078 140.0
219.796799 52.0
220.078552 1292.0
220.28476 116.0
220.573532 144.0
220.73613 80.0
220.955002 112.0
221.053909 400.0
221.085861 480.0
221.688187 124.0
222.069901 336.0
222.095261 192.0
222.125168 148.0
222.231964 72.0
222.463455 76.0
223.001099 208.0
223.07193 288.0
223.714996 188.0
224.082642 544.0
224.212418 44.0
224.477737 92.0
224.665634 92.0
224.710388 32.0
225.048981 180.0
225.091476 548.0
225.158142 64.0
225.190994 48.0
225.223846 104.0
225.319443 48.0
225.358292 48.0
225.558517 80.0
225.615311 56.0
225.663147 64.0
225.743881 120.0
225.992157 156.0
226.088959 340.0
226.120834 124.0
226.650879 44.0
226.821716 60.0
227.091827 276.0
227.21756 72.0
227.721863 48.0
227.778931 36.0
227.854034 176.0
228.097443 128.0
228.542542 80.0
228.59671 108.0
229.065262 276.0
229.572739 44.0
229.865356 148.0
230.239685 140.0
230.411865 60.0
231.001358 40.0
231.067917 132.0
231.170792 156.0
231.225266 132.0
231.364502 68.0
231.524994 148.0
231.646133 56.0
232.044617 156.0
232.080429 148.0
232.765274 168.0
233.059006 224.0
233.090302 132.0
233.236176 160.0
233.570663 124.0
233.780594 196.0
233.993668 152.0
234.072128 256.0
234.103271 180.0
234.231201 136.0
234.38353 72.0
234.42009 76.0
234.441422 184.0
234.584671 48.0
234.6548 76.0
234.700531 132.0
234.727966 180.0
235.039108 148.0
235.074539 1296.0
235.295486 144.0
235.497025 92.0
235.652832 60.0
235.906494 160.0
236.025726 160.0
236.07991 708.0
236.264282 160.0
236.588684 128.0
236.646851 184.0
236.848969 192.0
236.950073 196.0
237.048508 392.0
237.087845 492.0
237.388382 52.0
237.412918 56.0
237.577423 180.0
237.71048 68.0
237.842453 152.0
238.061691 176.0
238.069641 264.0
238.096298 328.0
238.702682 56.0
238.868759 32.0
238.896454 144.0
239.070374 464.0
239.105148 816.0
239.182632 128.0
239.342712 140.0
239.399551 44.0
239.675385 152.0
239.958939 84.0
240.103745 380.0
240.171722 92.0
240.267349 104.0
240.421631 120.0
240.968582 156.0
241.082504 92.0
241.345261 132.0
241.475143 164.0
241.920715 88.0
242.022888 72.0
242.388397 112.0
242.546448 200.0
242.596054 164.0
242.617752 196.0
242.841003 140.0
242.888992 204.0
243.089203 64.0
243.294052 192.0
244.300934 156.0
244.861221 64.0
244.923508 48.0
244.954666 176.0
245.840134 72.0
246.066818 96.0
246.099213 116.0
246.3022 196.0
246.374054 220.0
246.695938 180.0
246.849136 56.0
246.91481 180.0
246.946091 152.0
246.967987 120.0
246.989883 208.0
247.076767 996.0
247.296509 64.0
247.362244 208.0
247.402939 140.0
247.515656 204.0
247.577301 64.0
247.731766 124.0
247.781891 156.0
247.979309 200.0
248.035721 180.0
248.072998 992.0
248.437103 80.0
249.089676 1320.0
249.120743 172.0
249.215714 204.0
250.05127 228.0
250.085236 1704.0
250.162369 136.0
250.319794 136.0
250.48671 52.0
250.513016 184.0
250.526688 64.0
250.53273 164.0
250.849091 172.0
251.072586 560.0
251.10231 828.0
251.180191 48.0
251.536774 44.0
251.584122 96.0
251.622009 72.0
251.745148 88.0
251.877792 104.0
251.906235 112.0
252.081802 892.0
252.219055 72.0
252.279114 208.0
253.04425 160.0
253.107498 556.0
253.184052 52.0
253.599091 160.0
254.111359 468.0
254.281006 52.0
254.480988 48.0
254.776352 92.0
255.048569 164.0
255.08197 256.0
255.116394 152.0
255.450302 92.0
256.05188 152.0
256.096619 152.0
256.278046 136.0
256.737061 156.0
257.148621 132.0
257.733032 100.0
257.803314 168.0
257.828888 172.0
257.953552 140.0
258.059052 176.0
258.174164 144.0
258.369263 88.0
259.044739 144.0
259.070374 136.0
259.233795 144.0
259.307495 152.0
260.038757 88.0
260.122192 72.0
260.192841 104.0
260.709961 132.0
261.053955 112.0
261.098846 108.0
261.436768 192.0
261.523651 68.0
261.591248 104.0
262.062988 320.0
262.092773 292.0
262.538513 128.0
262.728821 160.0
263.065826 344.0
263.393829 28.0
263.432587 148.0
263.552124 72.0
263.587677 56.0
263.681396 96.0
263.923828 56.0
264.077972 724.0
264.099335 736.0
264.379944 88.0
264.609772 52.0
264.710144 108.0
265.017853 164.0
265.046448 136.0
265.084717 656.0
265.34198 56.0
265.60141 92.0
265.815521 116.0
265.942078 136.0
266.056183 680.0
266.099304 340.0
266.113251 284.0
266.516907 60.0
266.666382 92.0
266.854919 28.0
267.061798 700.0
267.099854 1380.0
267.271271 120.0
267.300537 148.0
267.463257 172.0
267.99411 60.0
268.10141 560.0
268.133087 576.0
268.192902 64.0
268.362396 100.0
268.499359 36.0
268.773376 44.0
268.936554 132.0
269.090546 120.0
269.105957 256.0
269.117065 364.0
269.140717 128.0
269.442719 72.0
269.563599 172.0
269.743378 160.0
270.040924 128.0
270.122681 152.0
270.305908 144.0
270.443359 184.0
270.852661 100.0
270.924713 100.0
271.201477 104.0
271.224976 128.0
271.540955 224.0
272.745941 48.0
272.905487 280.0
273.091187 68.0
273.436676 68.0
273.499207 44.0
273.74942 108.0
273.917389 80.0
274.487549 52.0
274.748108 184.0
275.071075 272.0
276.076508 176.0
276.390198 72.0
276.992737 120.0
277.025848 116.0
277.084473 1004.0
277.138489 68.0
277.459991 156.0
277.81485 64.0
277.884521 112.0
278.082062 2468.0
278.239624 116.0
278.697968 180.0
278.836639 208.0
278.973816 276.0
279.017029 132.0
279.088165 2484.0
279.150055 84.0
279.76889 152.0
279.902069 36.0
280.008636 148.0
280.097778 1188.0
280.455109 60.0
280.568451 124.0
280.688477 152.0
280.768524 96.0
281.092743 596.0
281.3591 76.0
281.536072 60.0
281.616241 96.0
281.786621 64.0
281.830048 52.0
281.960358 140.0
282.043915 152.0
282.087341 788.0
282.170959 56.0
282.287994 52.0
282.321411 44.0
282.486237 176.0
282.736267 88.0
283.094238 536.0
283.188232 168.0
283.999359 208.0
284.103333 124.0
284.438934 172.0
284.573212 80.0
285.102753 160.0
285.134186 168.0
285.477081 172.0
285.789917 152.0
286.419464 28.0
286.732819 140.0
287.059814 84.0
287.154236 160.0
287.319519 68.0
288.575897 108.0
289.161133 104.0
289.428558 20.0
290.062103 140.0
290.743835 144.0
290.801544 64.0
291.22934 112.0
291.667664 104.0
292.093872 1040.0
292.201569 116.0
292.279816 64.0
292.592957 56.0
292.727966 172.0
292.780243 28.0
292.821106 184.0
292.855164 148.0
292.96756 132.0
293.027313 172.0
293.079651 816.0
293.087036 584.0
293.141327 160.0
293.32196 72.0
293.523132 112.0
293.639069 140.0
293.871033 160.0
293.927887 176.0
294.031403 128.0
294.111786 13632.0
294.243042 32.0
294.301849 160.0
294.359131 124.0
294.389862 32.0
294.427429 108.0
294.470062 108.0
294.505981 40.0
294.693878 60.0
294.739655 92.0
294.875 240.0
294.922638 188.0
295.008301 160.0
295.039062 64.0
295.115265 2408.0
295.216858 40.0
295.249939 84.0
295.392242 116.0
295.506134 156.0
295.562378 60.0
295.599274 108.0
295.625854 116.0
295.740326 176.0
295.825348 76.0
295.838959 64.0
295.90213 192.0
296.092285 4216.0
296.173279 152.0
296.240265 232.0
296.266205 88.0
296.322479 48.0
296.421844 72.0
296.486969 88.0
296.533173 116.0
296.651489 40.0
296.689178 40.0
296.795471 40.0
296.833191 108.0
297.035553 52.0
297.107117 1444.0
297.231262 84.0
297.267212 48.0
297.292877 76.0
297.399261 148.0
297.735718 100.0
297.9487 68.0
298.031403 164.0
298.072388 208.0
298.116821 292.0
298.251099 108.0
298.381714 68.0
298.519257 116.0
298.560516 76.0
299.066284 60.0
299.111023 164.0
299.176422 96.0
299.455353 36.0
299.510468 44.0
299.624146 140.0
300.296326 104.0
300.385986 48.0
300.420502 152.0
300.658569 88.0
300.936737 184.0
301.269714 48.0
301.518524 204.0
301.649841 44.0
301.694794 72.0
304.001587 76.0
304.157776 140.0
304.511932 176.0
305.513 68.0
305.606934 148.0
305.711334 132.0
305.801819 96.0
306.095612 160.0
306.491852 136.0
307.082886 176.0
307.122345 148.0
307.841309 116.0
308.057861 128.0
308.099976 216.0
309.110443 1556.0
309.236206 136.0
309.316711 80.0
309.411255 100.0
309.645844 140.0
309.712402 80.0
310.032562 156.0
310.105896 4896.0
310.172516 64.0
310.2836 72.0
310.360748 132.0
310.41333 88.0
310.469452 76.0
310.55011 44.0
310.669373 56.0
310.75708 68.0
310.955933 96.0
311.04837 88.0
311.11319 6548.0
311.251984 68.0
311.315186 80.0
311.52243 80.0
311.592682 84.0
311.627808 60.0
311.687561 56.0
311.712158 44.0
311.792664 92.0
311.947632 84.0
312.113007 900.0
312.611053 160.0
312.661652 76.0
312.721466 40.0
312.753143 140.0
312.816498 52.0
313.12085 172.0
313.214417 100.0
313.253174 76.0
313.408173 48.0
313.513885 44.0
313.996887 72.0
314.046265 120.0
314.092102 80.0
314.175995 144.0
316.922546 148.0
317.310211 140.0
318.257538 104.0
318.669556 88.0
320.078064 160.0
320.826294 56.0
320.886902 132.0
321.336273 92.0
321.411194 40.0
321.91452 144.0
322.025238 112.0
322.307465 116.0
323.22641 92.0
323.720398 156.0
324.116272 240.0
324.426239 152.0
324.451355 88.0
324.842224 84.0
324.896057 88.0
324.939087 88.0
324.996521 124.0
325.122772 108.0
325.211823 156.0
325.337463 168.0
325.448761 76.0
325.583466 140.0
325.646271 92.0
325.678589 108.0
325.718109 48.0
325.762482 172.0
325.798065 124.0
325.837189 132.0
325.908508 108.0
325.955231 108.0
326.001953 156.0
326.082062 480.0
326.138641 37940.0
326.234467 208.0
326.281708 284.0
326.375793 172.0
326.410919 52.0
326.435852 96.0
326.519623 92.0
326.607147 72.0
326.632019 164.0
326.667084 44.0
326.736359 32.0
326.748932 112.0
326.761261 116.0
326.879364 36.0
326.944153 32.0
326.998138 232.0
327.03772 44.0
327.07373 56.0
327.140594 6700.0
327.246521 88.0
327.293335 64.0
327.41217 76.0
327.541809 96.0
327.631866 44.0
327.671509 84.0
327.796356 92.0
327.81131 60.0
327.876892 72.0
328.02829 48.0
328.071533 72.0
328.143677 796.0
328.273041 36.0
328.347382 72.0
328.507904 52.0
328.565613 116.0
328.623352 88.0
328.670258 60.0
328.764069 56.0
328.993469 84.0
329.135315 76.0
329.147888 112.0
329.194183 108.0
329.399536 80.0
329.428436 116.0
329.477081 144.0
329.554871 136.0
329.663269 120.0
329.818695 48.0
329.883759 84.0
330.198334 112.0
331.084991 48.0
331.168304 84.0
331.291473 64.0
332.204987 80.0
332.292053 32.0
335.328461 76.0
335.955627 80.0
337.544403 52.0
338.675262 64.0
338.744873 100.0
339.378876 92.0
339.991486 96.0
340.097931 76.0
341.648621 80.0
341.806824 112.0
341.87674 72.0
345.699921 136.0
347.289307 68.0
347.341248 64.0
349.150055 52.0
350.616882 64.0
352.090515 76.0
352.36319 72.0
352.677094 60.0
352.834106 148.0
354.012726 108.0
354.342346 44.0
354.39856 44.0
355.148315 56.0
355.684875 100.0
360.143097 88.0
364.87616 80.0
365.899567 48.0
366.070892 64.0
366.78717 108.0
371.034271 60.0
373.472717 68.0
373.857452 152.0
375.688873 64.0
377.274872 124.0
377.386993 180.0
381.034119 136.0
382.928497 64.0
384.394348 56.0
384.441162 60.0
385.003326 120.0
387.690918 60.0
388.588867 112.0
389.833588 124.0
390.796967 96.0
391.237762 60.0
392.707581 112.0
395.04599 48.0
395.992004 68.0
398.76532 68.0
401.63208 160.0
403.285126 84.0
403.453003 132.0
405.025665 136.0
406.164032 80.0
408.003235 56.0
409.238403 56.0
412.651764 32.0
412.793274 80.0
422.277222 52.0
425.986755 112.0
430.591766 52.0
431.533936 48.0
434.781494 84.0
436.896454 84.0
437.23349 128.0
441.936401 44.0
446.281738 84.0
449.288879 112.0
449.8797 112.0
452.924316 68.0
454.713593 76.0
460.674805 76.0
463.88858 48.0
465.355804 76.0
472.488708 60.0
474.168793 44.0
478.029541 52.0
479.48407 152.0
480.090057 68.0
482.010803 116.0
482.688324 48.0
485.271698 104.0
485.736572 56.0
486.807465 56.0
489.230133 60.0
490.626648 72.0
493.761719 92.0
496.702698 88.0
497.408234 28.0
498.905273 68.0
502.146912 88.0
506.16449 84.0
508.203949 48.0
510.004761 64.0
511.646667 100.0
522.736023 100.0
523.646545 80.0
529.964355 36.0
530.271362 52.0
532.305176 92.0
534.114441 56.0
539.791809 48.0
540.291321 48.0
540.652222 68.0
552.709534 44.0
554.896851 52.0
556.834839 96.0
558.131897 116.0
560.169739 52.0
567.348083 48.0
568.790161 80.0
570.666687 112.0
571.013794 80.0
571.784546 36.0
572.94165 128.0
576.453308 60.0
576.668396 184.0
590.999329 48.0
592.78125 76.0
601.858032 68.0
603.25531 116.0
614.467285 40.0
614.76825 52.0
617.465698 60.0
627.192322 108.0
629.657043 80.0
635.639343 108.0
635.915405 100.0
636.101135 52.0
636.327026 76.0
639.09137 96.0
644.163147 56.0
649.41217 76.0
649.807861 124.0
651.341003 76.0
651.899841 104.0
662.082458 88.0
665.738953 68.0
671.502991 140.0
672.922058 36.0
679.546936 88.0
680.372131 228.0
682.47113 56.0
685.724731 84.0
700.727539 60.0
725.628357 52.0
742.14325 52.0
748.201111 128.0
754.185303 92.0
757.862854 124.0
764.066956 40.0
767.85675 148.0
768.899475 132.0
771.009155 80.0
771.976562 60.0
772.258667 88.0
775.35907 204.0
776.456787 72.0
798.13562 44.0
802.279419 204.0
802.995544 60.0
817.578491 100.0
818.096436 188.0
834.867004 32.0
835.166077 152.0
839.473999 124.0
845.100098 72.0
845.267944 48.0
852.504944 36.0
864.822449 116.0
866.192627 208.0
866.561707 72.0
866.661316 68.0
867.81012 160.0
867.927368 208.0
871.507874 184.0
871.983826 168.0
875.672791 76.0
877.192993 188.0
880.892883 72.0
883.174561 212.0
883.689209 44.0
888.422913 96.0
888.998413 188.0
889.550415 156.0
898.494873 216.0
900.064575 36.0
906.554932 40.0
913.838562 120.0
916.740906 100.0
922.607727 148.0
927.777771 244.0
928.268921 176.0
931.358032 256.0
932.354431 124.0
932.45166 32.0
933.953491 92.0
937.326233 220.0
939.142944 168.0
939.496765 140.0
942.341736 188.0
942.433411 152.0
942.958923 88.0
946.721436 128.0
947.71991 116.0
947.885376 104.0
949.651123 156.0
950.994629 140.0
951.57782 144.0
953.629578 296.0
953.93689 172.0
960.908264 136.0
963.661926 64.0
966.790771 180.0
969.701599 136.0
970.147888 124.0
971.078003 88.0
972.449158 204.0
974.635132 240.0
975.306274 112.0
975.561157 128.0
977.868835 144.0
981.120422 116.0
983.965271 76.0
985.757935 80.0
986.114136 116.0
986.432922 172.0
988.421753 120.0
988.790955 172.0
988.878601 128.0
989.028809 168.0
990.982666 180.0
992.58728 116.0
994.745544 140.0
997.19519 188.0
997.773499 44.0
1000.491333 60.0
1000.806091 180.0
1001.366577 168.0
1010.72229 164.0
1010.810852 84.0
1013.489319 72.0
1013.578003 176.0
1014.059631 244.0
1015.061279 128.0
1018.634521 152.0
1024.219482 140.0
1024.569824 244.0
1025.589355 152.0
1025.863525 72.0
1029.858032 120.0
1029.90271 136.0
1030.298706 168.0
1031.250854 152.0
1032.197021 120.0
1032.900513 176.0
1033.834595 112.0
1034.813965 32.0
1035.736206 84.0
1035.94751 160.0
1038.319092 152.0
1039.749878 164.0
1040.096436 60.0
1041.187866 176.0
1041.277832 148.0
1042.125732 148.0
1043.012573 184.0
1043.128296 156.0
1044.362915 76.0
1045.03833 152.0
1045.27002 180.0
1048.554321 168.0
1048.734741 140.0
1052.48291 192.0
1054.466187 204.0
1055.190186 180.0
1058.205078 200.0
1059.403198 72.0
1060.818237 212.0
1060.926147 64.0
1062.132324 144.0
1062.197144 156.0
1062.265503 176.0
1062.774536 96.0
1064.020752 168.0
1069.865234 192.0
1070.314453 224.0
1070.750854 136.0
1073.344482 144.0
1073.487915 136.0
1073.735718 116.0
1074.59021 188.0
1074.640137 136.0
1074.79248 156.0
1075.562622 148.0
1078.168579 44.0
1080.992676 216.0
1082.859497 232.0
1083.606323 252.0
1083.888062 176.0
1085.238281 168.0
1085.972778 220.0
1087.258667 176.0
1090.378174 148.0
1092.212646 36.0
1093.094238 168.0
1093.370605 124.0
1094.088501 148.0
1095.345825 156.0
1095.609375 160.0
1095.807007 224.0
1097.876831 184.0
1098.727661 68.0
1098.872803 116.0
1099.090576 132.0
1099.30835 124.0
1101.539917 56.0
1102.940796 240.0
1103.906006 32.0
1104.263184 108.0
1106.698364 176.0
1109.07666 144.0
1109.679932 260.0
1110.608398 56.0
1112.419922 96.0
1112.599121 208.0
1113.063843 108.0
1114.824219 80.0
1115.216309 144.0
1115.482178 200.0
1115.608521 244.0
1115.854492 148.0
1116.432983 184.0
1117.297729 244.0
1117.677002 160.0
1118.582031 76.0
1120.993042 192.0
1121.55957 204.0
1123.47998 144.0
1126.036621 236.0
1126.931641 200.0
1127.706909 176.0
1129.124268 180.0
1130.208008 188.0
1130.676392 196.0
1131.760864 220.0
1131.94165 128.0
1133.669922 52.0
1135.393921 144.0
1136.647339 180.0
1136.841919 88.0
1137.721191 92.0
1137.90918 208.0
1138.211304 128.0
1138.258301 140.0
1138.876221 172.0
1139.104614 80.0
1140.670288 188.0
1144.249146 160.0
1149.587646 176.0
1150.269287 124.0
1150.640503 196.0
1151.883179 112.0
1152.065552 256.0
1152.518188 168.0
1152.639771 116.0
1153.275146 176.0
1155.919434 68.0
1156.575928 76.0
1156.84668 216.0
1157.22583 156.0
1158.553223 152.0
1159.69165 128.0
1160.193237 184.0
1160.654297 168.0
1161.169678 180.0
1163.531006 212.0
1163.61853 176.0
1164.277954 156.0
1165.256104 132.0
1166.044312 220.0
1167.553589 104.0
1167.723633 216.0
1168.104614 176.0
1170.629639 56.0
1170.976929 164.0
1172.448486 176.0
1173.730103 124.0
1174.221069 136.0
1174.950928 188.0
1175.885864 144.0
1177.080444 192.0
1178.13916 184.0
1178.412476 80.0
1178.528564 112.0
1178.842896 264.0
1179.25293 92.0
1179.492188 240.0
1181.126465 244.0
1182.077393 48.0
1182.720703 156.0
1183.172485 176.0
1183.56958 64.0
1186.015381 152.0
1186.282715 156.0
1187.146606 216.0
1187.386597 144.0
1188.031372 96.0
1188.532227 172.0
1188.779297 160.0
1192.31604 144.0
1193.188965 88.0
1193.264648 112.0
1193.917847 116.0
1194.11731 140.0
1196.578857 244.0
1196.897461 96.0
1197.813477 144.0
1199.777466 120.0
1200.21875 172.0
1200.83252 96.0
1201.494751 196.0
1201.570557 156.0
1203.116455 188.0
1203.192383 48.0
1203.261475 176.0
1203.585938 104.0
1205.195312 120.0
1205.561646 160.0
1205.893311 120.0
1209.427734 228.0
1209.773804 128.0
1211.373535 188.0
1212.606812 144.0
1213.348511 200.0
1214.118286 124.0
1214.312378 196.0
1214.922852 244.0
1215.769287 164.0
1215.963623 172.0
1216.671631 144.0
1217.567383 252.0
1219.387695 152.0
1219.818604 128.0
1220.082764 112.0
1221.390137 192.0
1221.849243 120.0
1222.934814 172.0
1223.025269 140.0
1223.401123 124.0
1223.589111 228.0
1224.257568 176.0
1224.320312 180.0
1224.508301 180.0
1224.591919 276.0
1224.92627 176.0
1225.135254 192.0
1225.629883 152.0
1226.382568 240.0
1227.916382 108.0
1228.879028 124.0
1229.213989 92.0
1229.767456 140.0
1230.131714 208.0
1230.414551 140.0
1230.526245 84.0
1233.15979 168.0
1233.600098 176.0
1233.73291 184.0
1233.949707 180.0
1234.17334 144.0
1234.467041 164.0
1234.858765 128.0
1235.033569 100.0
1235.460327 172.0
1235.838135 132.0
1237.97998 156.0
1238.246216 80.0
1240.243042 48.0
1240.719727 200.0
1241.259521 172.0
1241.378784 200.0
1241.722412 136.0
1241.771484 252.0
1241.855713 140.0
1242.872925 44.0
1244.880493 120.0
1245.660034 132.0
1246.728027 72.0
1247.669922 132.0
1248.112915 128.0
1248.661377 124.0
1248.787964 196.0
1249.357788 44.0
1249.716553 156.0
1250.054321 124.0
1251.940918 164.0
1252.074707 128.0
1252.307129 148.0
1252.779053 88.0
1252.927002 140.0
1253.38501 120.0
1253.793701 160.0
1254.766479 68.0
1257.129395 236.0
1257.305786 32.0
1257.828125 136.0
1257.927002 264.0
1257.976318 112.0
1258.675293 136.0
1260.794556 104.0
1261.614502 168.0
1261.861938 84.0
1263.410767 204.0
1264.748169 152.0
1265.024292 180.0
1265.448486 156.0
1265.909302 148.0
1266.015503 212.0
1267.063843 124.0
1267.725586 216.0
1268.084229 172.0
1268.389038 124.0
1269.520142 156.0
1270.204346 120.0
1270.268188 104.0
1270.608643 148.0
1270.864014 164.0
1271.744019 148.0
1272.709473 208.0
1272.908325 172.0
1273.689575 140.0
1274.108643 104.0
1274.222412 156.0
1274.314697 184.0
1274.627319 112.0
1274.932861 260.0
1275.032471 56.0
1275.501465 156.0
1276.18396 188.0
1276.976074 216.0
1277.037354 160.0
1278.645264 152.0
1278.858765 156.0
1279.10791 168.0
1279.221802 180.0
1279.798462 168.0
1279.983643 144.0
1280.154541 184.0
1280.254395 160.0
1280.78125 120.0
1281.101807 168.0
1282.020996 136.0
1282.341675 200.0
1282.512695 152.0
1282.819214 184.0
1283.182861 156.0
1283.817383 32.0
1284.01001 176.0
1285.030029 120.0
1285.408203 148.0
1285.622314 236.0
1285.829224 156.0
1286.029053 164.0
1287.328491 212.0
1287.678345 104.0
1287.775146 104.0
1288.085571 76.0
1288.14978 172.0
1288.778564 212.0
1288.857056 112.0
1288.964355 124.0
1289.014282 80.0
1290.386719 180.0
1290.508179 232.0
1291.008789 88.0
1291.380615 164.0
1291.588135 60.0
1292.897339 140.0
1292.990479 48.0
1293.062012 156.0
1293.226562 224.0
1293.419922 112.0
1293.777832 140.0
1294.386353 140.0
1294.758789 148.0
1294.959351 148.0
1295.467896 216.0
1296.29187 116.0
1296.535522 172.0
1297.015625 208.0
1297.524658 132.0
1298.062378 200.0
1299.188477 196.0
1299.389404 148.0
1299.561523 172.0
1299.999268 192.0
1300.709839 192.0
1303.632935 192.0
1304.603271 140.0
1305.437256 220.0
1306.163696 160.0
1306.422607 128.0
1307.026978 144.0
1307.127808 280.0
1307.358032 152.0
1307.847412 160.0
1308.754517 168.0
1309.532227 80.0
1309.640259 92.0
1310.000488 92.0
1310.483154 212.0
1311.25415 180.0
1312.371582 104.0
1312.717651 204.0
1312.869141 192.0
1313.590332 48.0
1314.809692 192.0
1314.881958 208.0
1314.946899 128.0
1314.997437 148.0
1315.257202 180.0
1315.553223 124.0
1315.639771 120.0
1316.145264 220.0
1316.650757 180.0
1316.7229 156.0
1316.889038 212.0
1316.975708 136.0
1318.044922 176.0
1318.15332 60.0
1319.403687 172.0
1320.88623 200.0
1320.994629 72.0
1321.110474 128.0
1321.190063 56.0
1321.653076 64.0
1322.58667 88.0
1323.339478 40.0
1323.426392 164.0
1325.099487 128.0
1325.512451 232.0
1325.613892 84.0
1325.824097 156.0
1326.679443 160.0
1326.838867 40.0
1328.332764 132.0
1330.415527 128.0
1331.388428 132.0
1331.71521 180.0
1331.933105 196.0
1332.216431 128.0
1332.550659 204.0
1333.233643 108.0
1334.214966 144.0
1334.323975 136.0
1334.803955 132.0
1335.32019 112.0
1335.967651 128.0
1336.60791 176.0
1337.321045 136.0
1337.371948 160.0
1338.092651 88.0
1339.272339 212.0
1339.438232 160.0
1340.452637 28.0
1340.685791 124.0
1341.16687 212.0
1342.931274 140.0
1343.077271 196.0
1343.609741 196.0
1343.70459 128.0
1343.755615 204.0
1344.083984 152.0
1344.405029 96.0
1344.711548 216.0
1345.572266 216.0
1345.667847 140.0
1345.967163 148.0
1346.084106 84.0
1346.3396 220.0
1346.478394 164.0
1347.040771 168.0
1347.26001 80.0
1347.632568 152.0
1347.713013 160.0
1348.049072 232.0
1348.513794 160.0
1349.832764 148.0
1350.973755 220.0
1351.427246 68.0
1352.071289 116.0
1352.539673 128.0
1352.605591 60.0
1353.454834 172.0
1354.165161 136.0
1354.326294 148.0
1355.25061 160.0
1355.623047 140.0
1355.73291 160.0
1355.828247 212.0
1357.272339 168.0
1357.947021 136.0
1358.930054 160.0
1360.948486 192.0
1361.308228 164.0
1361.425781 104.0
1361.550537 100.0
1361.822388 140.0
1362.725952 152.0
1363.857666 124.0
1364.078125 220.0
1364.247192 88.0
1365.011841 216.0
1365.210449 188.0
1366.505005 180.0
1366.608032 160.0
1367.351196 80.0
1367.46167 192.0
1367.542603 120.0
1367.60144 112.0
1368.182983 176.0
1368.256592 100.0
1368.38916 184.0
1370.193604 100.0
1370.267212 144.0
1370.370361 100.0
1370.613525 168.0
1370.782959 160.0
1370.908325 172.0
1371.210449 104.0
1371.527344 156.0
1371.608521 188.0
1372.0802 152.0
1372.330933 104.0
1372.389893 64.0
1372.530029 228.0
1373.355957 92.0
1374.374023 196.0
1374.536377 140.0
1375.414673 228.0
1375.975708 164.0
1376.09375 124.0
1376.8396 80.0
1377.201538 156.0
1377.873657 76.0
1378.051025 160.0
1378.257935 100.0
1378.442627 136.0
1378.799072 176.0
1379.366455 100.0
1379.447754 168.0
1379.832275 152.0
1379.994873 44.0
1380.734375 136.0
1380.793457 116.0
1380.897095 248.0
1381.296509 204.0
1381.547974 160.0
1381.762573 68.0
1381.873535 192.0
1382.443237 44.0
1382.813354 148.0
1383.190796 168.0
1383.405518 116.0
1383.849609 184.0
1384.005127 124.0
1384.190308 160.0
1384.501343 140.0
1384.834595 168.0
1384.923462 184.0
1385.012329 208.0
1385.308594 124.0
1385.523438 152.0
1385.84668 152.0
1386.042114 168.0
1386.308838 136.0
1386.694214 240.0
1387.665405 132.0
1388.050903 40.0
1388.213989 128.0
1388.822144 152.0
1388.881592 164.0
1389.156006 120.0
1389.64563 144.0
1389.845947 212.0
1390.001831 40.0
1390.55835 144.0
1391.10022 176.0
1391.26355 140.0
1392.087769 144.0
1392.429321 108.0
1392.659546 48.0
1393.13501 216.0
1393.855713 164.0
1394.338745 120.0
1394.487305 108.0
1395.542969 192.0
1395.594971 196.0
1396.457642 244.0
1397.082397 136.0
1397.134521 224.0
1397.432129 132.0
1397.826538 220.0
1397.893433 120.0
1397.990234 88.0
1398.161377 204.0
1398.364624 252.0
1398.473999 148.0
1398.615356 88.0
1398.801514 44.0
1399.769287 124.0
1399.858643 232.0
1400.059692 188.0
1400.707764 164.0
1400.797119 148.0
1401.467651 72.0
1401.802979 144.0
1402.257568 128.0
1402.548218 156.0
1404.052002 92.0
1404.608765 144.0
1404.897217 184.0
1404.949341 200.0
1405.42688 172.0
1406.082886 128.0
1406.509033 140.0
1407.203247 152.0
1407.479492 208.0
1408.174072 220.0
1408.442993 164.0
1408.629639 204.0
1408.973267 172.0
1409.212402 188.0
1409.26416 156.0
1409.58606 112.0
1410.395874 236.0
1410.453003 140.0
1411.330933 268.0
1411.552002 156.0
1411.656616 148.0
1411.776245 120.0
1412.015625 140.0
1412.112793 132.0
1412.471924 152.0
1413.182617 140.0
1413.466919 144.0
1413.990723 176.0
1414.282593 184.0
1414.394897 152.0
1415.18103 136.0
1415.577881 128.0
1415.657959 80.0
1416.439087 200.0
1416.678833 116.0
1417.233276 212.0
1417.300659 248.0
1417.735352 152.0
1418.22998 180.0
1418.282471 132.0
1419.166992 180.0
1419.62439 180.0
1419.91687 40.0
1420.434448 208.0
1420.832031 196.0
1421.342285 196.0
1421.507324 200.0
1421.882568 224.0
1421.972656 164.0
1422.115234 168.0
1422.340454 148.0
1422.549927 224.0
1422.807129 184.0
1423.376465 120.0
1423.766968 64.0
1423.957031 192.0
1424.082397 272.0
1424.458008 224.0
1424.878662 136.0
1425.054932 184.0
1425.64502 76.0
1425.960693 144.0
1426.501953 200.0
1426.637207 204.0
1426.892822 168.0
1428.344238 164.0
1428.411865 120.0
1428.667725 188.0
1428.720337 152.0
1429.119141 112.0
1429.382446 128.0
1430.210327 128.0
1431.091064 128.0
1432.145386 140.0
1432.469238 204.0
1434.036621 128.0
1434.262695 88.0
1435.001465 132.0
1435.815918 152.0
1436.155273 132.0
1436.660645 136.0
1436.885986 144.0
1437.286865 184.0
1437.437744 168.0
1437.875488 144.0
1438.033936 192.0
1438.328369 292.0
1438.406006 132.0
1439.67981 168.0
1440.132935 140.0
1440.646606 152.0
1440.835815 204.0
1441.643921 188.0
1442.671875 140.0
1442.838257 112.0
1443.065063 92.0
1443.458252 204.0
1443.647217 104.0
1444.078369 236.0
1444.282593 164.0
1444.433838 136.0
1444.509521 96.0
1444.744019 100.0
1444.819702 104.0
1445.447632 100.0
1445.833618 48.0
1447.188599 168.0
1447.461182 196.0
1447.574707 132.0
1447.786743 164.0
1448.3927 152.0
1448.604736 140.0
1449.097168 132.0
1449.453369 128.0
1449.567017 200.0
1449.832275 140.0
1450.43103 156.0
1450.612915 144.0
1450.934937 156.0
1451.033936 168.0
1451.348267 44.0
1451.909424 196.0
1452.281128 140.0
1452.387329 208.0
1453.077637 156.0
1453.722534 256.0
1453.96936 164.0
1454.024658 224.0
1454.33728 120.0
1454.398071 128.0
1454.787109 172.0
1454.914185 92.0
1455.144897 188.0
1455.779785 176.0
1455.939331 188.0
1456.156616 176.0
1456.52417 204.0
1456.881104 188.0
1456.941895 96.0
1457.154663 200.0
1457.435791 112.0
1457.496582 160.0
1457.564941 64.0
1457.800537 172.0
1457.967651 124.0
1458.074097 188.0
1458.598511 180.0
1458.75061 120.0
1458.963379 176.0
1459.237183 80.0
1459.358765 164.0
1459.510864 92.0
1460.184814 152.0
1460.393066 168.0
1460.560303 60.0
1460.773315 136.0
1461.047241 164.0
1461.557007 168.0
1461.655884 124.0
1461.777588 92.0
1461.914551 176.0
1462.140625 160.0
1462.193237 192.0
1462.576782 220.0
1462.858398 160.0
1463.040283 200.0
1463.817749 56.0
1464.198486 268.0
1464.320312 188.0
1465.181152 28.0
1465.539185 144.0
1465.722046 36.0
1465.88208 168.0
1467.079102 156.0
1467.658081 204.0
1467.719116 132.0
1468.062256 144.0
1468.230103 156.0
1468.443604 80.0
1468.527466 132.0
1468.893677 68.0
1469.213989 116.0
1469.34375 172.0
1469.435303 168.0
1469.534424 140.0
1469.755737 200.0
1469.977051 252.0
1470.694458 164.0
1470.938721 144.0
1471.091309 136.0
1472.244263 160.0
1472.335938 208.0
1472.687256 168.0
1472.89502 200.0
1473.351807 188.0
1473.737183 200.0
1474.322266 164.0
1474.429199 72.0
1474.903076 56.0
1475.101807 144.0
1475.208862 128.0
1475.46106 88.0
1475.522217 160.0
1476.19519 120.0
1476.523926 164.0
1477.793823 128.0
1478.696777 148.0
1479.247925 44.0
1479.546387 196.0
1479.638306 148.0
1479.814453 120.0
1480.247559 152.0
1480.365723 164.0
1480.580078 156.0
1480.917114 200.0
1481.24646 180.0
1481.629517 68.0
1481.744385 192.0
1481.867065 48.0
1482.058594 192.0
1482.473999 228.0
1483.10083 32.0
1484.204712 120.0
1484.97168 76.0
1485.036621 96.0
1485.178711 176.0
1485.270752 188.0
1485.592896 236.0
1485.754028 172.0
1485.953491 164.0
1486.98999 104.0
1487.127563 148.0
1487.319458 256.0
1487.442261 132.0
1487.580444 104.0
1488.678467 152.0
1489.177612 176.0
1489.523315 164.0
1489.93042 196.0
1490.998413 136.0
1491.159912 124.0
1491.229004 120.0
1492.605103 88.0
1493.120361 180.0
1493.374146 164.0
1494.074219 176.0
1494.358887 200.0
1494.558838 124.0
1494.73584 172.0
1495.289917 144.0
1495.705566 172.0
1496.090454 244.0
1496.213623 160.0
1498.077271 208.0
1498.185181 136.0
1498.316162 136.0
1498.678223 144.0
1499.009521 120.0
1499.071167 156.0
1499.356323 80.0
1499.464233 152.0
1499.8573 204.0
1500.07312 172.0
1500.181152 164.0
1500.542603 156.0
1500.674561 128.0
1501.183472 116.0
1501.869873 112.0
1501.976685 192.0
1502.340332 184.0
1502.548706 136.0
1502.834106 100.0
1502.949829 260.0
1503.03479 196.0
1503.13501 148.0
1503.273926 180.0
1503.522827 220.0
1503.598145 164.0
1503.798706 140.0
