>compound MLS000028431-01!
>formula C21H29N3O
>ionization [M+H]+
>parentmass 340.23833900009055
#inchi InChI=1S/C21H29N3O/c1-16(2)24(17(3)4)15-13-21(20(22)25,18-10-6-5-7-11-18)19-12-8-9-14-23-19/h5-12,14,16-17H,13,15H2,1-4H3,(H2,22,25)
#inchikey UVTNFZQICZKOEM
#origInchi InChI=1S/C21H29N3O.H3O4P/c1-16(2)24(17(3)4)15-13-21(20(22)25,18-10-6-5-7-11-18)19-12-8-9-14-23-19;1-5(2,3)4/h5-12,14,16-17H,13,15H2,1-4H3,(H2,22,25);(H3,1,2,3,4)
#Ion_Source LC-ESI
#Instrument qTof
#Compound_Source NIH Pharmacologically Active Library
#PI Dorrestein
#Data_Collector VP/LMS
#Scan -1
#Precursor_MZ 340.241
#ExactMass 339.231
#Charge 1
#CAS_Number N/A
#Pubmed_ID N/A
#Smiles CC(C)N(CCC(C(=O)N)(c1ccccc1)c2ccccn2)C(C)C.OP(=O)(O)O
#INCHI_AUX N/A
#Library_Class 1
#SpectrumID CCMSLIB00000085170
#IonMode Positive
#UpdateWorkflowName UPDATE-SINGLE-ANNOTATED-GOLD
#LibraryQualityString Gold
#TaskID d252d724072548979f1f6f1ced849daf
##Scan# 1431
#SpectrumFile p3-F08_GF8_01_18289.mzXML
#LibraryName Pharm_Active_Library.mgf
#MQScore -1
#Organism Pharm_Active_Library
#TIC_Query 0
#RT_Query -1
#MZErrorPPM -1
#SharedPeaks 0
#MassDiff 0
#LibMZ -1
#SpecMZ 340.241
#SpecCharge 0
#internalFilename spec-00000.mgf

>collision 10
44.895184 148.0
44.932533 112.0
44.944542 172.0
45.005947 136.0
45.016632 92.0
45.044682 136.0
45.073082 188.0
45.084766 168.0
45.099468 140.0
45.124817 200.0
45.176182 136.0
45.233242 52.0
45.276188 180.0
45.302879 92.0
45.322979 172.0
45.347103 108.0
45.361065 96.0
45.369617 196.0
45.384796 140.0
45.404758 132.0
45.415489 52.0
45.441978 204.0
45.521523 124.0
45.536297 192.0
45.559132 200.0
45.60751 184.0
45.628132 136.0
45.654572 216.0
45.670628 128.0
45.681473 120.0
45.698967 104.0
45.732613 592.0
45.757587 348.0
45.779785 364.0
45.795898 172.0
45.806675 188.0
45.816105 92.0
45.841305 160.0
45.917946 336.0
45.944187 132.0
45.983322 172.0
45.994122 108.0
46.025375 188.0
46.05439 164.0
46.075153 192.0
46.09407 104.0
46.104729 176.0
46.126511 108.0
46.156204 104.0
46.169308 92.0
46.209011 180.0
46.291584 136.0
46.305523 192.0
46.31461 252.0
46.340351 228.0
46.355255 148.0
46.370163 204.0
46.379673 164.0
46.390499 104.0
46.403137 152.0
46.42033 140.0
46.436604 260.0
46.458309 148.0
46.513359 156.0
46.537033 160.0
46.550369 112.0
46.563183 188.0
46.591541 212.0
46.614414 284.0
46.636208 188.0
46.649803 196.0
46.690598 132.0
46.700119 84.0
46.718121 136.0
46.763977 116.0
46.789696 204.0
46.823528 180.0
46.893471 188.0
46.907101 48.0
46.975288 48.0
46.992588 448.0
47.013775 156.0
47.035336 184.0
47.073566 196.0
47.096069 176.0
47.111546 164.0
47.136406 64.0
47.150074 152.0
47.165112 248.0
47.207497 192.0
47.221172 176.0
47.233482 156.0
47.267689 180.0
47.277271 44.0
47.319706 100.0
47.344357 228.0
47.357452 196.0
47.377232 184.0
47.389874 176.0
47.42931 152.0
47.447132 136.0
47.45673 180.0
47.4869 136.0
47.512966 176.0
47.532173 64.0
47.541782 236.0
47.596695 136.0
47.615921 360.0
47.672813 216.0
47.683224 224.0
47.712116 172.0
47.725471 160.0
47.74728 204.0
47.75304 116.0
47.785358 64.0
47.825542 196.0
47.835178 160.0
47.853836 112.0
47.877533 172.0
47.900661 208.0
47.915817 132.0
47.941654 208.0
47.966812 196.0
47.990601 220.0
48.030247 160.0
48.049561 168.0
48.062988 240.0
48.075005 228.0
48.094856 156.0
48.11581 172.0
48.151428 116.0
48.164146 236.0
48.19178 100.0
48.223564 140.0
48.342621 200.0
48.36821 204.0
48.384869 168.0
48.446171 172.0
48.467148 128.0
48.497639 168.0
48.589169 280.0
48.600269 120.0
48.620338 156.0
48.648849 56.0
48.697453 124.0
48.73774 148.0
48.786388 212.0
48.807247 128.0
48.834873 148.0
48.850365 232.0
48.865665 132.0
48.884571 220.0
48.900459 128.0
48.931087 176.0
48.940834 220.0
48.958935 112.0
48.983288 172.0
49.012146 184.0
49.0509 208.0
49.096916 84.0
49.109467 136.0
49.127602 212.0
49.17086 152.0
49.18203 152.0
49.230896 140.0
49.260231 152.0
49.289574 108.0
49.325912 96.0
49.362907 180.0
49.383244 40.0
49.402828 196.0
49.421021 152.0
49.464066 148.0
49.484009 160.0
49.504498 240.0
49.590252 172.0
49.593712 144.0
49.600136 72.0
49.604012 208.0
49.651516 128.0
49.688648 44.0
49.701275 104.0
49.733555 168.0
49.743382 136.0
49.773823 188.0
49.785507 148.0
49.798145 204.0
49.810791 164.0
49.854347 108.0
49.886677 188.0
49.955589 140.0
49.980915 140.0
50.002338 316.0
50.02877 116.0
50.044262 160.0
50.054119 140.0
50.072426 132.0
50.087921 160.0
50.099651 184.0
50.121735 188.0
50.140057 152.0
50.216194 188.0
50.22607 172.0
50.275455 140.0
50.288509 48.0
50.320625 132.0
50.333336 164.0
50.365822 144.0
50.380817 128.0
50.398315 172.0
50.408207 108.0
50.474651 184.0
50.519192 212.0
50.572273 92.0
50.616844 216.0
50.653282 148.0
50.671406 176.0
50.692661 36.0
50.708252 96.0
50.742275 116.0
50.758469 172.0
50.781982 216.0
50.799007 220.0
50.813194 140.0
50.841465 136.0
50.881321 144.0
50.911453 164.0
50.922329 128.0
50.973717 172.0
51.039043 188.0
51.054688 136.0
51.081715 96.0
51.092079 28.0
51.111591 160.0
51.124401 136.0
51.188465 192.0
51.208305 192.0
51.217297 288.0
51.233284 172.0
51.248295 44.0
51.272522 144.0
51.286774 160.0
51.359501 112.0
51.409439 196.0
51.434387 156.0
51.460831 204.0
51.492249 100.0
51.51796 128.0
51.53595 208.0
51.5583 192.0
51.573692 144.0
51.585129 96.0
51.597996 72.0
51.616169 164.0
51.632317 168.0
51.643761 144.0
51.670586 248.0
51.699562 80.0
51.72007 164.0
51.733154 168.0
51.756824 128.0
51.77401 128.0
51.79071 164.0
51.808388 32.0
51.84708 140.0
51.858547 172.0
51.894466 72.0
51.927372 104.0
51.939205 192.0
51.958931 132.0
51.983948 120.0
52.000549 152.0
52.033566 116.0
52.088142 192.0
52.11544 200.0
52.142658 136.0
52.164307 168.0
52.197376 152.0
52.210739 160.0
52.234772 148.0
52.249161 200.0
52.262413 152.0
52.285137 140.0
52.316803 156.0
52.357124 148.0
52.370087 136.0
52.385933 236.0
52.407497 120.0
52.427719 136.0
52.443577 160.0
52.470966 144.0
52.491394 168.0
52.521442 208.0
52.53154 232.0
52.553181 156.0
52.565285 124.0
52.576881 152.0
52.589264 160.0
52.602253 184.0
52.618057 220.0
52.657127 44.0
52.668682 140.0
52.707691 144.0
52.725033 156.0
52.738682 116.0
52.759727 148.0
52.795879 144.0
52.814682 196.0
52.826256 176.0
52.862514 204.0
52.902958 96.0
52.915989 212.0
52.964958 172.0
52.982613 144.0
52.995655 44.0
53.015186 144.0
53.028988 284.0
53.061348 136.0
53.075321 136.0
53.08041 128.0
53.085903 172.0
53.098583 172.0
53.147373 212.0
53.195808 156.0
53.228786 248.0
53.249294 168.0
53.324844 188.0
53.328335 156.0
53.332802 224.0
53.345444 152.0
53.364342 128.0
53.4007 168.0
53.453117 148.0
53.464718 112.0
53.502567 140.0
53.514214 180.0
53.527367 128.0
53.557907 200.0
53.582672 156.0
53.598904 200.0
53.619106 56.0
53.632221 120.0
53.744766 168.0
53.779552 104.0
53.79707 172.0
53.807941 164.0
53.832111 168.0
53.87009 116.0
53.887623 84.0
53.905022 172.0
53.909241 156.0
53.914345 140.0
53.921204 196.0
53.943161 324.0
53.960865 308.0
54.066032 196.0
54.111412 116.0
54.123127 128.0
54.145092 124.0
54.214725 152.0
54.233009 136.0
54.252064 176.0
54.283573 176.0
54.299618 196.0
54.340401 176.0
54.351807 260.0
54.372429 148.0
54.458981 64.0
54.475903 200.0
54.514812 128.0
54.52951 188.0
54.58979 48.0
54.607437 148.0
54.650959 200.0
54.68269 196.0
54.713322 160.0
54.744316 172.0
54.785561 168.0
54.845871 108.0
54.860725 148.0
54.875427 144.0
54.8801 140.0
54.884388 164.0
54.900238 216.0
54.953644 48.0
54.987587 184.0
55.023014 120.0
55.048969 132.0
55.076183 124.0
55.108685 128.0
55.120922 156.0
55.13287 228.0
55.179634 116.0
55.200336 148.0
55.212166 200.0
55.228867 68.0
55.247906 172.0
55.295021 192.0
55.317226 248.0
55.333511 172.0
55.346321 160.0
55.360165 220.0
55.38039 208.0
55.405006 232.0
55.427399 188.0
55.438324 296.0
55.460918 92.0
55.477226 156.0
55.538025 84.0
55.573635 168.0
55.592247 140.0
55.618156 108.0
55.631405 160.0
55.689434 32.0
55.718491 136.0
55.73103 108.0
55.763725 180.0
55.808025 196.0
55.852943 216.0
55.878235 140.0
55.891628 132.0
55.911739 280.0
55.943722 68.0
55.994354 152.0
56.00478 180.0
56.045288 148.0
56.058857 176.0
56.062431 52.0
56.069595 160.0
56.09568 164.0
56.119537 172.0
56.130413 464.0
56.154903 196.0
56.164379 160.0
56.18367 228.0
56.20166 220.0
56.227928 140.0
56.25531 48.0
56.297119 116.0
56.309067 148.0
56.325497 120.0
56.344917 124.0
56.385796 260.0
56.394718 136.0
56.419739 196.0
56.513878 124.0
56.530338 52.0
56.547176 324.0
56.566227 168.0
56.581234 160.0
56.644135 116.0
56.661251 188.0
56.679073 200.0
56.707069 164.0
56.728058 40.0
56.78204 132.0
56.792542 144.0
56.814117 188.0
56.837551 176.0
56.85387 160.0
56.900593 144.0
56.914791 184.0
56.958294 132.0
56.985672 168.0
57.049568 188.0
57.076107 124.0
57.102264 204.0
57.142582 104.0
57.189236 208.0
57.213913 224.0
57.234402 232.0
57.269043 72.0
57.279587 136.0
57.304375 168.0
57.34589 128.0
57.37001 196.0
57.385086 140.0
57.447525 200.0
57.490681 144.0
57.508793 124.0
57.531437 184.0
57.55611 200.0
57.578251 224.0
57.599396 204.0
57.63456 176.0
57.650768 196.0
57.665695 160.0
57.690071 92.0
57.715775 120.0
57.730896 116.0
57.767368 180.0
57.806889 156.0
57.830757 232.0
57.848133 240.0
57.863331 116.0
57.877293 152.0
57.903435 124.0
57.91404 140.0
57.962521 116.0
57.982224 112.0
57.998764 92.0
58.017086 452.0
58.082645 404.0
58.10664 88.0
58.170315 328.0
58.216221 172.0
58.282261 136.0
58.297905 184.0
58.328304 64.0
58.348068 132.0
58.38913 140.0
58.408901 212.0
58.422592 152.0
58.439331 100.0
58.465961 144.0
58.481945 172.0
58.497166 164.0
58.52914 104.0
58.548939 172.0
58.564503 164.0
58.574558 200.0
58.593113 200.0
58.603779 144.0
58.623257 164.0
58.665127 184.0
58.684566 300.0
58.696766 64.0
58.731846 120.0
58.76083 184.0
58.78067 112.0
58.841724 184.0
58.913509 256.0
58.936283 168.0
58.957787 160.0
58.999096 144.0
59.025089 248.0
59.048031 108.0
59.072506 108.0
59.106167 88.0
59.129288 184.0
59.1628 104.0
59.21714 200.0
59.241459 128.0
59.262299 232.0
59.291473 68.0
59.319065 204.0
59.342987 176.0
59.354328 196.0
59.366371 136.0
59.388447 228.0
59.404945 152.0
59.416466 212.0
59.432564 64.0
59.45985 128.0
59.486282 184.0
59.497028 156.0
59.507778 40.0
59.529896 320.0
59.540817 124.0
59.566193 176.0
59.579964 196.0
59.612232 96.0
59.631817 288.0
59.648312 148.0
59.672348 224.0
59.68515 360.0
59.713707 116.0
59.750656 212.0
59.795254 200.0
59.83374 156.0
59.854416 140.0
59.883018 196.0
59.896881 164.0
59.948833 128.0
59.96468 176.0
59.976978 184.0
60.023266 120.0
60.04636 156.0
60.1119 88.0
60.125904 204.0
60.152702 180.0
60.18684 192.0
60.217728 44.0
60.247078 120.0
60.257893 72.0
60.307346 160.0
60.324352 104.0
60.335175 180.0
60.355274 196.0
60.417145 172.0
60.43726 196.0
60.467278 164.0
60.499172 228.0
60.524666 180.0
60.56892 208.0
60.614082 184.0
60.677605 184.0
60.692848 64.0
60.704567 108.0
60.726971 112.0
60.765755 208.0
60.787476 60.0
60.826797 192.0
60.838192 208.0
60.865097 116.0
60.907032 120.0
60.934032 168.0
60.940502 116.0
60.961411 204.0
60.978508 192.0
61.005756 356.0
61.02969 152.0
61.088593 132.0
61.107586 124.0
61.155956 248.0
61.208843 184.0
61.239246 168.0
61.264839 188.0
61.342659 124.0
61.370823 172.0
61.410072 216.0
61.432064 212.0
61.449764 168.0
61.461002 220.0
61.486267 124.0
61.502502 180.0
61.529976 148.0
61.565067 216.0
61.612755 180.0
61.645569 52.0
61.670578 112.0
61.681519 176.0
61.700985 344.0
61.733116 88.0
61.769093 172.0
61.784954 144.0
61.814468 132.0
61.861423 184.0
61.87434 144.0
61.889362 108.0
61.913097 176.0
61.930706 148.0
61.952579 156.0
61.982029 140.0
62.014938 132.0
62.061974 152.0
62.083927 116.0
62.099613 148.0
62.135693 68.0
62.152954 136.0
62.23209 116.0
62.27227 184.0
62.284836 144.0
62.307384 148.0
62.328831 104.0
62.434158 168.0
62.457752 132.0
62.471912 108.0
62.492996 140.0
62.504955 204.0
62.525414 100.0
62.545876 32.0
62.600983 200.0
62.613583 224.0
62.640362 120.0
62.657692 184.0
62.686298 156.0
62.701817 92.0
62.734917 220.0
62.755413 180.0
62.782223 124.0
62.807655 160.0
62.840977 180.0
62.865837 136.0
62.89267 84.0
62.906189 176.0
62.949509 156.0
62.995316 156.0
63.017437 144.0
63.029961 108.0
63.047302 160.0
63.071171 248.0
63.086807 184.0
63.121765 152.0
63.185036 208.0
63.205605 160.0
63.259655 192.0
63.283169 188.0
63.295837 200.0
63.325928 176.0
63.362206 160.0
63.418465 240.0
63.440025 136.0
63.452709 36.0
63.490768 184.0
63.528835 48.0
63.56057 80.0
63.578026 60.0
63.604439 156.0
63.627235 120.0
63.638351 288.0
63.668522 176.0
63.685696 192.0
63.713001 148.0
63.746372 68.0
63.768559 100.0
63.784515 148.0
63.819569 176.0
63.834728 160.0
63.854481 64.0
63.870388 72.0
63.906979 164.0
63.96587 180.0
63.981789 200.0
63.99387 204.0
63.997658 120.0
64.003128 200.0
64.051865 156.0
64.064606 144.0
64.09169 128.0
64.114006 168.0
64.128349 44.0
64.150063 200.0
64.165016 204.0
64.212852 80.0
64.225616 180.0
64.239975 152.0
64.257523 92.0
64.289436 148.0
64.321976 104.0
64.33535 168.0
64.382034 108.0
64.442741 208.0
64.481094 140.0
64.495148 252.0
64.524025 164.0
64.549843 96.0
64.565834 152.0
64.582146 140.0
64.602623 200.0
64.623428 196.0
64.655434 108.0
64.693848 156.0
64.721069 52.0
64.733879 296.0
64.749893 128.0
64.767426 148.0
64.833878 548.0
64.85881 156.0
64.879692 164.0
64.892517 140.0
64.910156 132.0
64.922989 144.0
64.934319 412.0
64.98613 212.0
65.008018 120.0
65.022461 176.0
65.061806 244.0
65.083839 192.0
65.122658 184.0
65.144997 164.0
65.165665 160.0
65.184669 196.0
65.216545 192.0
65.256424 176.0
65.301109 132.0
65.311684 160.0
65.327774 64.0
65.376724 152.0
65.395363 60.0
65.458153 236.0
65.479622 232.0
65.523666 216.0
65.545265 204.0
65.585434 252.0
65.607803 192.0
65.610901 140.0
65.618149 164.0
65.652504 196.0
65.692558 140.0
65.708 120.0
65.732361 164.0
65.756409 212.0
65.770935 176.0
65.839348 120.0
65.885597 164.0
65.896049 128.0
65.92115 144.0
66.01815 116.0
66.039177 160.0
66.101349 168.0
66.120499 152.0
66.192932 152.0
66.244759 236.0
66.271484 336.0
66.285202 104.0
66.301476 172.0
66.33551 120.0
66.376045 128.0
66.39521 132.0
66.429474 128.0
66.449043 88.0
66.478897 240.0
66.499352 240.0
66.549675 180.0
66.601746 136.0
66.63739 156.0
66.675171 144.0
66.703659 212.0
66.707909 164.0
66.739792 140.0
66.757683 132.0
66.79509 144.0
66.816238 128.0
66.827629 84.0
66.844269 196.0
66.88459 108.0
66.900871 124.0
66.924927 176.0
66.941925 208.0
66.961601 244.0
66.980293 208.0
67.0214 116.0
67.0392 104.0
67.060516 148.0
67.075188 108.0
67.094749 200.0
67.111977 156.0
67.164185 148.0
67.207291 128.0
67.243195 136.0
67.254623 164.0
67.289642 292.0
67.303604 44.0
67.334633 80.0
67.354233 148.0
67.372986 184.0
67.384567 204.0
67.406883 176.0
67.425201 148.0
67.457878 212.0
67.473534 100.0
67.499695 348.0
67.545891 212.0
67.56813 124.0
67.599487 160.0
67.643677 324.0
67.655136 92.0
67.669876 76.0
67.694435 144.0
67.766518 192.0
67.782898 112.0
67.809959 128.0
67.84581 176.0
67.88015 112.0
67.90094 164.0
67.918732 128.0
67.933365 204.0
67.96656 108.0
67.9879 76.0
68.053566 164.0
68.073265 148.0
68.097641 200.0
68.152115 136.0
68.204712 180.0
68.232658 156.0
68.250748 116.0
68.27124 164.0
68.315567 176.0
68.369225 204.0
68.389961 304.0
68.405403 224.0
68.446564 176.0
68.479507 168.0
68.494164 200.0
68.517395 220.0
68.535522 200.0
68.552002 100.0
68.589905 120.0
68.615685 176.0
68.641022 84.0
68.66246 220.0
68.692665 128.0
68.708649 136.0
68.768059 104.0
68.787865 192.0
68.811096 168.0
68.840706 124.0
68.858871 160.0
68.875992 120.0
68.896866 116.0
68.934334 124.0
68.963806 212.0
69.012566 128.0
69.024139 168.0
69.042328 192.0
69.100227 216.0
69.128357 36.0
69.16964 128.0
69.209473 220.0
69.27076 192.0
69.310524 136.0
69.333366 168.0
69.358582 96.0
69.3974 216.0
69.413155 140.0
69.423172 88.0
69.438179 96.0
69.47718 148.0
69.49292 136.0
69.532753 196.0
69.570679 160.0
69.600906 152.0
69.617424 140.0
69.636208 132.0
69.67498 224.0
69.725739 164.0
69.758659 120.0
69.791908 156.0
69.830933 172.0
69.875076 188.0
69.918831 192.0
70.009911 96.0
70.050629 216.0
70.066551 112.0
70.111374 160.0
70.148216 184.0
70.202446 168.0
70.24765 160.0
70.274971 144.0
70.358421 144.0
70.410667 148.0
70.460304 96.0
70.483696 76.0
70.518036 176.0
70.588112 244.0
70.604065 148.0
70.624237 196.0
70.640862 36.0
70.652573 168.0
70.670296 196.0
70.692734 96.0
70.709473 184.0
70.759689 96.0
70.778114 136.0
70.814041 176.0
70.844803 152.0
70.873596 96.0
70.907959 240.0
70.93058 152.0
70.942314 92.0
70.957405 36.0
70.985909 124.0
71.005821 156.0
71.034546 160.0
71.099457 188.0
71.130531 164.0
71.169479 204.0
71.192329 108.0
71.204086 116.0
71.242722 124.0
71.267387 364.0
71.286041 128.0
71.298683 144.0
71.323387 164.0
71.360374 196.0
71.395683 192.0
71.420914 152.0
71.449516 188.0
71.47139 200.0
71.523567 212.0
71.638176 208.0
71.663353 192.0
71.718964 76.0
71.735825 168.0
71.751732 92.0
71.776291 136.0
71.827995 176.0
71.847305 192.0
71.865692 152.0
71.877502 152.0
71.904503 144.0
71.921387 100.0
71.951553 156.0
71.998795 384.0
72.021011 316.0
72.063004 168.0
72.091972 76.0
72.135925 316.0
72.164665 92.0
72.202812 156.0
72.220474 136.0
72.232315 156.0
72.247543 156.0
72.27047 148.0
72.324638 172.0
72.364326 68.0
72.385361 152.0
72.42868 176.0
72.481201 160.0
72.499557 236.0
72.56012 184.0
72.588753 216.0
72.618263 224.0
72.654152 72.0
72.67112 40.0
72.704582 156.0
72.715881 180.0
72.744102 176.0
72.779755 100.0
72.812569 100.0
72.827095 128.0
72.842598 212.0
72.866379 100.0
72.896973 216.0
72.915665 168.0
72.949661 88.0
72.963264 60.0
73.004074 176.0
73.03299 228.0
73.058502 32.0
73.136787 356.0
73.182755 296.0
73.203186 112.0
73.238953 140.0
73.269447 204.0
73.307106 88.0
73.329262 68.0
73.351425 180.0
73.405609 144.0
73.447151 144.0
73.470802 156.0
73.496391 164.0
73.530525 188.0
73.557838 144.0
73.598816 164.0
73.651756 128.0
73.663719 188.0
73.680801 108.0
73.791931 188.0
73.80558 204.0
73.822678 176.0
73.839783 128.0
73.882545 84.0
73.901176 180.0
73.904793 160.0
73.92704 132.0
73.945862 136.0
73.960869 188.0
73.972626 176.0
73.983521 288.0
74.103416 172.0
74.126129 204.0
74.14283 180.0
74.15654 132.0
74.169151 188.0
74.180542 144.0
74.204544 132.0
74.216545 140.0
74.295441 160.0
74.331444 204.0
74.369232 172.0
74.384834 92.0
74.413315 444.0
74.451653 132.0
74.480553 140.0
74.513489 104.0
74.537544 176.0
74.575356 136.0
74.6063 200.0
74.640686 216.0
74.672112 220.0
74.712929 160.0
74.733582 124.0
74.762352 144.0
74.79554 248.0
74.866135 132.0
74.878189 140.0
74.897133 224.0
74.916084 60.0
74.943649 140.0
75.014313 104.0
75.050606 260.0
75.078117 172.0
75.107437 124.0
75.139244 256.0
75.177551 176.0
75.182419 140.0
75.214424 96.0
75.226509 156.0
75.267944 124.0
75.312851 112.0
75.367638 152.0
75.370308 204.0
75.390602 116.0
75.404427 176.0
75.418259 180.0
75.433815 116.0
75.447044 172.0
75.489143 184.0
75.506577 156.0
75.565254 36.0
75.603325 132.0
75.618904 148.0
75.636215 108.0
75.658722 180.0
75.69883 148.0
75.722412 236.0
75.792984 148.0
75.812889 144.0
75.835419 188.0
75.878754 152.0
75.920418 152.0
75.935982 160.0
75.959084 152.0
76.001907 100.0
76.019264 124.0
76.047035 144.0
76.123428 168.0
76.137032 184.0
76.162125 128.0
76.247002 152.0
76.286758 156.0
76.298927 184.0
76.319794 148.0
76.334297 188.0
76.362366 112.0
76.382401 152.0
76.41198 100.0
76.43808 184.0
76.451889 180.0
76.507545 180.0
76.525116 148.0
76.547752 156.0
76.580841 260.0
76.592064 116.0
76.61644 156.0
76.63311 212.0
76.650536 136.0
76.663979 56.0
76.6819 80.0
76.7342 96.0
76.810936 104.0
76.835365 224.0
76.866768 160.0
76.88073 92.0
76.912735 156.0
76.939072 296.0
76.955795 92.0
76.975006 116.0
76.993317 164.0
77.034393 212.0
77.053558 144.0
77.08535 168.0
77.100792 184.0
77.118271 180.0
77.144905 168.0
77.172462 208.0
77.198692 176.0
77.252548 140.0
77.279449 148.0
77.331665 124.0
77.349167 148.0
77.421761 192.0
77.455986 148.0
77.485771 156.0
77.499786 144.0
77.520821 216.0
77.539299 228.0
77.55986 160.0
77.576904 188.0
77.601456 164.0
77.622498 184.0
77.654068 192.0
77.697922 64.0
77.777412 176.0
77.833076 180.0
77.869957 104.0
77.889275 216.0
77.901573 104.0
77.959961 212.0
77.981667 104.0
78.02108 140.0
78.040421 196.0
78.068466 76.0
78.09613 132.0
78.107254 184.0
78.127846 108.0
78.132683 168.0
78.163559 180.0
78.182915 164.0
78.219383 220.0
78.270935 220.0
78.297318 192.0
78.324387 116.0
78.360771 48.0
78.41188 160.0
78.432724 184.0
78.461235 116.0
78.475304 192.0
78.5159 60.0
78.545891 148.0
78.558235 148.0
78.57235 132.0
78.639366 312.0
78.651199 212.0
78.682076 164.0
78.740051 56.0
78.762695 156.0
78.793045 124.0
78.812485 44.0
78.833519 204.0
78.934456 172.0
78.958275 160.0
78.973366 168.0
79.029976 164.0
79.054756 112.0
79.086609 184.0
79.198166 128.0
79.247772 352.0
79.276497 192.0
79.32753 132.0
79.348801 156.0
79.375404 236.0
79.407326 48.0
79.451675 56.0
79.464096 140.0
79.543961 148.0
79.583015 208.0
79.608688 156.0
79.675377 156.0
79.698479 224.0
79.738228 152.0
79.757126 196.0
79.780235 168.0
79.820656 208.0
79.933739 120.0
79.961678 96.0
79.98304 168.0
79.997284 172.0
80.015083 184.0
80.047134 120.0
80.061386 136.0
80.097008 104.0
80.128471 392.0
80.160011 164.0
80.17897 76.0
80.202866 188.0
80.236015 132.0
80.251717 144.0
80.280594 156.0
80.355515 348.0
80.407265 132.0
80.442917 140.0
80.479218 92.0
80.535629 248.0
80.547096 116.0
80.578987 172.0
80.648972 188.0
80.709641 156.0
80.737793 84.0
80.78112 144.0
80.830658 176.0
80.857491 184.0
80.889801 212.0
81.006462 208.0
81.058212 196.0
81.094414 136.0
81.115608 272.0
81.131744 168.0
81.147881 140.0
81.182716 384.0
81.223206 136.0
81.248322 172.0
81.268059 156.0
81.300354 144.0
81.320099 156.0
81.364891 196.0
81.395508 244.0
81.42244 188.0
81.4925 344.0
81.521255 228.0
81.535637 164.0
81.567986 152.0
81.58709 268.0
81.603615 176.0
81.618332 188.0
81.648399 208.0
81.670486 148.0
81.701065 140.0
81.722656 116.0
81.745811 148.0
81.787453 156.0
81.815544 132.0
81.848976 160.0
81.871124 152.0
81.895493 128.0
81.910645 192.0
81.938728 40.0
81.987381 180.0
82.028839 156.0
82.057686 112.0
82.091087 236.0
82.19297 164.0
82.212814 80.0
82.255188 156.0
82.301666 144.0
82.317528 164.0
82.33017 136.0
82.377129 176.0
82.422302 88.0
82.456642 200.0
82.474716 156.0
82.490982 96.0
82.520172 140.0
82.550652 184.0
82.565117 88.0
82.594063 104.0
82.60672 248.0
82.634789 148.0
82.663414 216.0
82.704445 172.0
82.756943 140.0
82.778671 48.0
82.803101 156.0
82.820473 404.0
82.929947 164.0
82.95443 200.0
82.976189 164.0
83.024818 132.0
83.040344 168.0
83.076859 152.0
83.134003 172.0
83.16304 204.0
83.186638 164.0
83.206787 120.0
83.226585 156.0
83.242928 240.0
83.255638 192.0
83.287941 168.0
83.310135 152.0
83.357498 176.0
83.380997 80.0
83.397362 216.0
83.418968 180.0
83.450081 156.0
83.477356 184.0
83.495544 244.0
83.522827 160.0
83.588326 100.0
83.628365 256.0
83.668419 140.0
83.726685 128.0
83.750069 172.0
83.753929 92.0
83.795914 176.0
83.877922 144.0
83.895432 192.0
83.9235 80.0
83.944557 176.0
83.965637 112.0
83.985512 112.0
84.027016 132.0
84.044456 168.0
84.074089 136.0
84.166191 76.0
84.191757 244.0
84.233871 140.0
84.253868 256.0
84.290413 96.0
84.314171 236.0
84.449471 60.0
84.464104 248.0
84.481895 160.0
84.55925 284.0
84.575729 204.0
84.60907 224.0
84.670937 160.0
84.696579 168.0
84.729836 160.0
84.802864 84.0
84.832191 132.0
84.845024 68.0
84.863358 184.0
84.922005 200.0
84.966072 176.0
84.984421 172.0
85.001175 152.0
85.037895 316.0
85.062523 216.0
85.08522 144.0
85.107407 156.0
85.132378 120.0
85.167969 184.0
85.186378 124.0
85.20414 96.0
85.240784 168.0
85.285759 148.0
85.307671 120.0
85.327896 224.0
85.366508 136.0
85.38958 152.0
85.43457 140.0
85.454193 132.0
85.491608 44.0
85.504494 160.0
85.517166 140.0
85.545769 132.0
85.592865 188.0
85.616806 228.0
85.631538 292.0
85.646736 176.0
85.670525 172.0
85.709785 168.0
85.753143 60.0
85.782639 196.0
85.824135 236.0
85.865616 148.0
85.910057 132.0
85.933876 116.0
85.958405 136.0
86.022461 192.0
86.086037 152.0
86.107407 124.0
86.131416 160.0
86.154144 136.0
86.167358 132.0
86.238548 180.0
86.241737 88.0
86.248177 216.0
86.27002 188.0
86.306351 352.0
86.339821 244.0
86.390472 148.0
86.398949 84.0
86.405594 208.0
86.443886 200.0
86.480904 108.0
86.504967 188.0
86.577179 168.0
86.612373 168.0
86.651901 268.0
86.669373 120.0
86.693893 200.0
86.708725 192.0
86.730484 196.0
86.789536 156.0
86.823296 176.0
86.853355 124.0
86.868195 80.0
86.923859 148.0
86.968399 152.0
86.988304 188.0
87.018524 144.0
87.03669 148.0
87.064949 128.0
87.07795 208.0
87.09095 140.0
87.12439 108.0
87.153587 136.0
87.18811 152.0
87.260651 140.0
87.266663 44.0
87.272583 164.0
87.302834 140.0
87.325157 184.0
87.411667 196.0
87.425453 132.0
87.449821 236.0
87.462517 176.0
87.537323 104.0
87.567123 116.0
87.595062 156.0
87.634193 124.0
87.669594 140.0
87.699417 108.0
87.713249 344.0
87.759079 40.0
87.796371 144.0
87.85656 208.0
87.872856 92.0
87.902756 164.0
87.940041 204.0
87.98111 236.0
88.014717 144.0
88.028786 160.0
88.060616 132.0
88.102989 124.0
88.121185 164.0
88.134636 160.0
88.190704 180.0
88.210892 152.0
88.229591 412.0
88.330582 96.0
88.361557 200.0
88.392319 80.0
88.405426 164.0
88.424789 160.0
88.457832 164.0
88.480675 120.0
88.521492 128.0
88.566444 180.0
88.601723 192.0
88.639511 204.0
88.714485 116.0
88.738861 188.0
88.759483 204.0
88.774277 140.0
88.822487 144.0
88.842018 424.0
88.862656 156.0
88.903938 212.0
88.925148 132.0
88.945992 208.0
88.980255 276.0
89.03788 176.0
89.063988 264.0
89.09359 140.0
89.114258 132.0
89.129288 200.0
89.16935 164.0
89.193192 152.0
89.21199 172.0
89.239845 216.0
89.34552 156.0
89.359695 156.0
89.399284 112.0
89.462204 188.0
89.484222 272.0
89.547882 120.0
89.575195 188.0
89.618942 92.0
89.643028 180.0
89.752365 112.0
89.788193 204.0
89.824036 144.0
89.890076 196.0
89.922157 32.0
89.969284 120.0
89.986343 156.0
90.010887 148.0
90.039787 160.0
90.109116 240.0
90.161949 100.0
90.174095 156.0
90.201721 88.0
90.226295 120.0
90.250877 160.0
90.270164 100.0
90.28656 184.0
90.339767 236.0
90.354904 196.0
90.394325 120.0
90.398201 100.0
90.407257 208.0
90.437309 204.0
90.468727 200.0
90.490646 200.0
90.519699 136.0
90.538521 272.0
90.588997 152.0
90.60672 156.0
90.633926 256.0
90.656296 196.0
90.68161 176.0
90.775421 136.0
90.801003 196.0
90.839149 320.0
90.874054 116.0
90.891136 88.0
90.914993 328.0
90.955666 116.0
90.974648 148.0
90.995537 264.0
91.010727 228.0
91.024834 160.0
91.053024 300.0
91.10569 360.0
91.134193 172.0
91.152855 112.0
91.160133 92.0
91.163582 172.0
91.214012 128.0
91.239624 176.0
91.270058 92.0
91.28817 140.0
91.350937 176.0
91.408691 180.0
91.474632 160.0
91.512711 104.0
91.531754 72.0
91.57135 192.0
91.608345 224.0
91.661911 196.0
91.68988 136.0
91.72419 188.0
91.744705 204.0
91.800453 140.0
91.830971 128.0
91.873138 348.0
91.896141 220.0
91.924454 80.0
91.949265 32.0
91.962624 148.0
91.984238 224.0
92.01226 484.0
92.046982 176.0
92.055466 32.0
92.061325 168.0
92.090385 220.0
92.11348 112.0
92.137863 84.0
92.170799 328.0
92.216667 152.0
92.310349 184.0
92.323738 112.0
92.348488 208.0
92.384354 116.0
92.428917 196.0
92.520828 108.0
92.576363 120.0
92.593437 308.0
92.62616 116.0
92.680565 140.0
92.714302 84.0
92.744843 64.0
92.770279 196.0
92.797142 112.0
92.830811 180.0
92.871521 112.0
92.898376 140.0
92.912537 164.0
92.944427 160.0
92.972862 152.0
93.024162 168.0
93.056168 432.0
93.085732 288.0
93.174232 104.0
93.189362 136.0
93.203659 164.0
93.232491 272.0
93.251709 68.0
93.311302 148.0
93.36747 116.0
93.401573 200.0
93.424774 200.0
93.44017 52.0
93.453636 164.0
93.478691 200.0
93.497696 160.0
93.519066 252.0
93.534073 172.0
93.561417 112.0
93.586494 164.0
93.675049 172.0
93.736702 132.0
93.752121 140.0
93.772491 364.0
93.790024 168.0
93.813805 120.0
93.834236 172.0
93.860077 136.0
93.943054 196.0
93.977745 168.0
94.012474 116.0
94.05114 128.0
94.066864 180.0
94.107071 136.0
94.128113 220.0
94.153412 140.0
94.172729 64.0
94.186249 68.0
94.226822 180.0
94.253868 152.0
94.28093 108.0
94.324112 164.0
94.372498 192.0
94.404655 208.0
94.422066 204.0
94.459213 136.0
94.507187 176.0
94.532341 184.0
94.561371 128.0
94.580254 164.0
94.600586 140.0
94.62719 160.0
94.644615 120.0
94.667915 136.0
94.696907 116.0
94.789902 128.0
94.828056 140.0
94.863556 144.0
94.900398 240.0
94.920792 208.0
94.979912 152.0
94.999313 68.0
95.031609 136.0
95.092453 144.0
95.12249 312.0
95.136337 112.0
95.158455 184.0
95.204201 236.0
95.237198 176.0
95.243019 96.0
95.250267 132.0
95.333282 96.0
95.352722 204.0
95.393166 164.0
95.41687 184.0
95.47364 208.0
95.499489 132.0
95.50663 128.0
95.565643 172.0
95.591934 140.0
95.63475 124.0
95.675224 304.0
95.698509 192.0
95.709091 176.0
95.730621 76.0
95.812958 196.0
95.852272 204.0
95.880836 140.0
95.955795 176.0
95.977646 220.0
96.030304 132.0
96.04715 168.0
96.064293 168.0
96.079071 160.0
96.099434 192.0
96.132019 176.0
96.197304 344.0
96.217644 164.0
96.26255 60.0
96.316261 232.0
96.336777 124.0
96.382538 180.0
96.396027 232.0
96.428619 144.0
96.44368 164.0
96.516594 212.0
96.547882 168.0
96.566818 200.0
96.596779 168.0
96.628082 188.0
96.651894 212.0
96.722023 164.0
96.751389 140.0
96.778984 128.0
96.794464 76.0
96.837555 216.0
96.8591 136.0
96.874771 132.0
96.902199 84.0
96.956123 240.0
96.988426 60.0
97.023888 136.0
97.037445 384.0
97.072739 160.0
97.092346 56.0
97.119812 228.0
97.145309 140.0
97.161743 212.0
97.207397 208.0
97.255203 132.0
97.278511 128.0
97.299072 184.0
97.317192 108.0
97.35141 124.0
97.383667 104.0
97.402473 248.0
97.463387 180.0
97.481071 232.0
97.494827 124.0
97.535042 188.0
97.561661 156.0
97.574699 132.0
97.591148 68.0
97.656052 160.0
97.682983 224.0
97.737633 120.0
97.754425 48.0
97.778313 172.0
97.804718 144.0
97.819374 448.0
97.856781 184.0
97.876167 180.0
97.892883 228.0
97.965103 112.0
98.063637 128.0
98.138863 248.0
98.163528 204.0
98.171837 136.0
98.176559 188.0
98.191483 204.0
98.242744 164.0
98.337799 104.0
98.364166 200.0
98.416771 152.0
98.444412 168.0
98.470093 144.0
98.483917 164.0
98.527382 176.0
98.570847 160.0
98.585579 144.0
98.651886 116.0
98.667702 212.0
98.691757 120.0
98.697884 136.0
98.732956 152.0
98.760651 104.0
98.784386 168.0
98.809502 208.0
98.831871 160.0
98.879837 204.0
98.930832 168.0
99.014 236.0
99.044762 196.0
99.075409 220.0
99.109093 164.0
99.122963 172.0
99.14492 200.0
99.162605 172.0
99.273628 84.0
99.295448 144.0
99.323212 140.0
99.347023 116.0
99.390671 56.0
99.416466 336.0
99.446243 132.0
99.47403 176.0
99.549484 128.0
99.622978 112.0
99.636879 180.0
99.67662 164.0
99.704445 192.0
99.724319 124.0
99.744202 212.0
99.843613 56.0
99.907875 312.0
99.953926 160.0
99.986153 412.0
100.009857 240.0
100.05455 124.0
100.086403 148.0
100.130745 76.0
100.179146 72.0
100.211189 136.0
100.231819 204.0
100.247765 152.0
100.269623 132.0
100.309555 200.0
100.386261 224.0
100.426743 208.0
100.452354 112.0
100.483063 176.0
100.501022 176.0
100.516983 180.0
100.547997 340.0
100.577065 232.0
100.67469 112.0
100.698662 144.0
100.745552 228.0
100.80455 176.0
100.847786 196.0
100.853615 124.0
100.862282 140.0
100.922493 88.0
100.936485 112.0
101.01049 204.0
101.112541 144.0
101.186432 140.0
101.203659 124.0
101.242104 140.0
101.313866 148.0
101.358871 200.0
101.39093 84.0
101.42701 192.0
101.465103 124.0
101.509216 164.0
101.549324 192.0
101.567383 192.0
101.583557 184.0
101.609512 204.0
101.631584 228.0
101.709854 208.0
101.723907 76.0
101.74398 148.0
101.758034 168.0
101.788155 228.0
101.804222 176.0
101.836357 280.0
101.906494 160.0
101.932793 160.0
101.963898 192.0
101.985794 140.0
102.009171 124.0
102.061447 156.0
102.075523 148.0
102.0896 60.0
102.115746 136.0
102.130974 180.0
102.152351 160.0
102.178108 168.0
102.203186 148.0
102.238472 180.0
102.291542 352.0
102.371346 168.0
102.429756 140.0
102.466949 156.0
102.508339 124.0
102.531212 192.0
102.599045 124.0
102.643402 180.0
102.684692 124.0
102.739738 236.0
102.767456 160.0
102.790665 144.0
102.877052 148.0
102.889702 160.0
102.940048 192.0
102.964287 36.0
102.996605 184.0
103.014786 180.0
103.035995 184.0
103.053154 584.0
103.107735 144.0
103.140076 68.0
103.154221 108.0
103.181053 172.0
103.194794 60.0
103.214882 112.0
103.255325 148.0
103.269485 292.0
103.302574 324.0
103.319901 52.0
103.409836 176.0
103.445534 112.0
103.469826 120.0
103.517555 112.0
103.553947 156.0
103.573112 172.0
103.613632 204.0
103.641998 120.0
103.674805 168.0
103.721039 160.0
103.74334 248.0
103.779831 108.0
103.808258 232.0
103.865013 64.0
103.8862 200.0
103.920219 188.0
103.968491 140.0
104.006813 164.0
104.0233 144.0
104.041092 136.0
104.062416 104.0
104.094193 144.0
104.120766 124.0
104.1492 144.0
104.169518 180.0
104.183739 100.0
104.212181 52.0
104.234535 204.0
104.269081 280.0
104.290382 232.0
104.298721 176.0
104.314735 148.0
104.350395 72.0
104.386993 60.0
104.410263 168.0
104.45871 140.0
104.478531 192.0
104.500443 156.0
104.521255 120.0
104.601395 172.0
104.618179 168.0
104.633209 104.0
104.659676 160.0
104.704483 88.0
104.788727 168.0
104.814346 112.0
104.864212 232.0
104.924561 128.0
104.940872 116.0
104.961266 240.0
105.006859 380.0
105.024872 128.0
105.043144 164.0
105.089767 140.0
105.124458 132.0
105.169044 152.0
105.185692 236.0
105.208817 172.0
105.232651 196.0
105.248322 184.0
105.305557 196.0
105.379715 200.0
105.419205 220.0
105.443062 52.0
105.495293 156.0
105.51461 204.0
105.547325 76.0
105.581985 128.0
105.612991 188.0
105.657776 172.0
105.676193 180.0
105.691864 152.0
105.705017 276.0
105.746803 248.0
105.823647 212.0
105.852348 184.0
105.884743 128.0
105.924187 152.0
105.962845 88.0
105.979416 412.0
106.00383 100.0
106.023476 204.0
106.06279 260.0
106.066437 336.0
106.101128 188.0
106.151428 36.0
106.166656 132.0
106.20475 112.0
106.219116 164.0
106.25399 204.0
106.293228 228.0
106.313499 348.0
106.348633 204.0
106.401764 212.0
106.420242 136.0
106.444351 216.0
106.473633 92.0
106.518822 144.0
106.541924 164.0
106.561966 84.0
106.58252 104.0
106.679115 64.0
106.694733 276.0
106.718185 128.0
106.761368 40.0
106.794273 28.0
106.81073 116.0
106.840271 340.0
106.87973 236.0
106.908409 164.0
107.026833 68.0
107.051544 188.0
107.066658 172.0
107.092735 144.0
107.140114 112.0
107.160721 132.0
107.178795 192.0
107.248749 128.0
107.300713 160.0
107.319435 216.0
107.344177 216.0
107.362656 196.0
107.384048 96.0
107.399864 72.0
107.422852 168.0
107.455566 152.0
107.476204 152.0
107.511284 136.0
107.57196 188.0
107.588066 204.0
107.625999 240.0
107.663811 224.0
107.700272 232.0
107.718544 144.0
107.756317 200.0
107.793106 120.0
107.816948 116.0
107.843811 188.0
107.868622 148.0
107.891708 96.0
107.920303 148.0
107.957527 252.0
107.985802 180.0
108.006332 168.0
108.038094 104.0
108.064117 160.0
108.096138 188.0
108.142487 232.0
108.182213 228.0
108.212051 344.0
108.228622 208.0
108.243118 84.0
108.272636 156.0
108.299034 124.0
108.344612 140.0
108.365326 172.0
108.38475 148.0
108.403458 140.0
108.441902 156.0
108.466049 168.0
108.54261 328.0
108.580666 196.0
108.673012 192.0
108.707474 148.0
108.734459 260.0
108.759941 188.0
108.780121 116.0
108.805038 104.0
108.819572 76.0
108.8881 176.0
108.913025 228.0
108.932472 220.0
108.988365 136.0
109.087585 312.0
109.133324 40.0
109.185791 224.0
109.206108 124.0
109.249794 188.0
109.278427 184.0
109.291412 44.0
109.385063 72.0
109.407967 120.0
109.460022 308.0
109.478767 276.0
109.510872 160.0
109.541252 84.0
109.572502 184.0
109.5961 160.0
109.641266 136.0
109.670448 188.0
109.697548 128.0
109.719803 172.0
109.751755 140.0
109.82489 180.0
109.864243 176.0
109.885246 84.0
109.905479 184.0
109.919434 136.0
110.014648 168.0
110.058495 200.0
110.080307 180.0
110.158745 120.0
110.176903 116.0
110.23188 176.0
110.267677 156.0
110.284126 156.0
110.334297 48.0
110.363571 116.0
110.409576 224.0
110.426315 144.0
110.451416 152.0
110.480698 164.0
110.503716 128.0
110.528397 176.0
110.576752 160.0
110.610451 184.0
110.627197 140.0
110.647087 232.0
110.731895 112.0
110.786362 116.0
110.815697 136.0
110.83036 196.0
110.859528 48.0
110.882866 172.0
110.941444 92.0
111.013039 140.0
111.063072 172.0
111.088654 168.0
111.24984 152.0
111.27504 132.0
111.296036 148.0
111.31913 76.0
111.390549 216.0
111.415207 200.0
111.453735 160.0
111.475548 176.0
111.546928 192.0
111.577591 224.0
111.634361 44.0
111.663803 228.0
111.72271 200.0
111.770432 188.0
111.794647 128.0
111.849876 140.0
111.866371 152.0
111.900871 160.0
111.920555 148.0
111.952141 48.0
112.005478 200.0
112.027237 160.0
112.049042 128.0
112.07222 80.0
112.097366 120.0
112.117928 168.0
112.156517 96.0
112.177597 140.0
112.216545 188.0
112.236633 156.0
112.26194 112.0
112.300171 160.0
112.31678 224.0
112.365234 200.0
112.415947 256.0
112.432831 160.0
112.466774 144.0
112.487709 216.0
112.519379 164.0
112.570053 144.0
112.589058 184.0
112.609787 192.0
112.705254 316.0
112.730606 48.0
112.802475 56.0
112.823616 160.0
112.910309 84.0
112.961075 256.0
112.98632 136.0
113.090157 136.0
113.1138 212.0
113.140968 224.0
113.176956 112.0
113.232399 200.0
113.256096 372.0
113.279655 336.0
113.328285 168.0
113.371857 196.0
113.393044 128.0
113.409615 252.0
113.439682 324.0
113.479965 184.0
113.52874 180.0
113.579643 116.0
113.611847 176.0
113.654526 188.0
113.679359 112.0
113.710182 148.0
113.738571 152.0
113.759361 116.0
113.777 168.0
113.798233 128.0
113.847076 188.0
113.865128 120.0
113.963913 168.0
113.986328 116.0
114.011711 132.0
114.044724 172.0
114.079994 136.0
114.146721 144.0
114.189819 272.0
114.217255 124.0
114.242859 208.0
114.289131 144.0
114.30941 164.0
114.329681 300.0
114.348831 204.0
114.390099 276.0
114.489273 204.0
114.510315 200.0
114.551125 132.0
114.676186 180.0
114.702431 48.0
114.73867 152.0
114.758652 172.0
114.809036 100.0
114.864494 368.0
114.907166 184.0
114.928497 224.0
114.943344 212.0
114.971184 132.0
114.998215 192.0
115.054886 596.0
115.079002 272.0
115.113487 128.0
115.1847 188.0
115.218208 200.0
115.255203 228.0
115.285759 188.0
115.305618 136.0
115.366302 128.0
115.402718 240.0
115.431892 116.0
115.511772 80.0
115.526749 48.0
115.594017 168.0
115.625084 176.0
115.663704 72.0
115.690887 212.0
115.763298 152.0
115.780869 200.0
115.81369 156.0
115.890724 164.0
115.981163 160.0
116.008606 212.0
116.048843 692.0
116.078926 168.0
116.122704 152.0
116.20163 164.0
116.238106 88.0
116.257027 196.0
116.289612 132.0
116.326591 176.0
116.350822 156.0
116.403404 116.0
116.424881 252.0
116.480614 160.0
116.503639 192.0
116.540878 68.0
116.577888 140.0
116.601051 168.0
116.654793 228.0
116.678383 156.0
116.725746 120.0
116.777245 224.0
116.82917 240.0
116.859108 172.0
116.892365 140.0
116.910759 168.0
116.934525 88.0
116.998268 136.0
117.056488 1248.0
117.10453 52.0
117.134384 368.0
117.166862 316.0
117.211578 112.0
117.242416 76.0
117.263969 28.0
117.281219 88.0
117.300621 152.0
117.341583 148.0
117.360535 172.0
117.397644 140.0
117.455193 172.0
117.494713 112.0
117.522858 176.0
117.57692 84.0
117.60128 188.0
117.628517 176.0
117.643631 172.0
117.660896 124.0
117.697495 152.0
117.740799 228.0
117.773193 128.0
117.7948 108.0
117.838005 144.0
117.892082 156.0
117.921722 200.0
117.947388 120.0
117.961197 180.0
117.995789 144.0
118.029694 100.0
118.064209 24252.0
118.095634 352.0
118.126144 192.0
118.162743 300.0
118.222916 52.0
118.239731 52.0
118.255386 136.0
118.27919 116.0
118.338867 140.0
118.367157 68.0
118.403908 196.0
118.478432 132.0
118.530434 244.0
118.572693 136.0
118.649742 184.0
118.666992 240.0
118.695183 176.0
118.721008 88.0
118.744827 208.0
118.823105 204.0
118.850822 128.0
118.858734 212.0
118.899956 292.0
118.922981 116.0
118.946426 192.0
118.950478 144.0
118.979424 136.0
119.066849 1888.0
119.1119 224.0
119.131325 136.0
119.241638 192.0
119.24662 136.0
119.253777 192.0
119.276283 216.0
119.329224 152.0
119.353142 44.0
119.379051 180.0
119.428123 244.0
119.470596 196.0
119.487999 108.0
119.507584 128.0
119.553284 292.0
119.629471 160.0
119.707924 120.0
119.773193 96.0
119.832771 196.0
119.87133 92.0
119.901039 172.0
119.906181 116.0
119.926529 272.0
119.95842 48.0
119.978043 208.0
119.998756 212.0
120.019234 148.0
120.023041 76.0
120.041328 172.0
120.069962 184.0
120.142174 156.0
120.180885 188.0
120.215469 104.0
120.26091 204.0
120.285645 136.0
120.314026 116.0
120.373741 184.0
120.405739 124.0
120.440689 300.0
120.491982 276.0
120.497833 176.0
120.506844 128.0
120.534637 212.0
120.552475 184.0
120.578827 108.0
120.612785 100.0
120.65303 120.0
120.684441 240.0
120.744911 152.0
120.764198 176.0
120.785797 192.0
120.811241 164.0
120.834198 128.0
120.860458 84.0
120.898453 112.0
120.915833 264.0
120.936737 244.0
120.944695 220.0
120.980835 192.0
121.071663 156.0
121.125374 140.0
121.175758 116.0
121.202057 252.0
121.239311 48.0
121.256844 124.0
121.303955 228.0
121.355492 92.0
121.384003 136.0
121.434441 240.0
121.449226 148.0
121.47831 160.0
121.527145 232.0
121.557449 176.0
121.593376 160.0
121.623146 168.0
121.653877 108.0
121.686813 116.0
121.723869 204.0
121.737236 108.0
121.743996 188.0
121.771973 72.0
121.777321 132.0
121.783821 160.0
121.818588 156.0
121.838356 160.0
121.855934 136.0
121.900063 188.0
121.938377 248.0
121.976814 36.0
122.011986 248.0
122.040565 196.0
122.126343 128.0
122.141739 164.0
122.19014 188.0
122.213776 188.0
122.238411 132.0
122.315582 160.0
122.358414 236.0
122.367599 108.0
122.37381 196.0
122.481522 140.0
122.529198 156.0
122.555641 144.0
122.577858 148.0
122.621758 192.0
122.676865 168.0
122.748283 184.0
122.80072 168.0
122.904037 252.0
122.934937 180.0
122.968559 188.0
122.990112 120.0
123.02063 184.0
123.058044 224.0
123.103325 188.0
123.155724 360.0
123.192146 164.0
123.228622 140.0
123.25956 208.0
123.288292 164.0
123.314812 192.0
123.352386 88.0
123.390579 220.0
123.447166 120.0
123.474007 88.0
123.500206 180.0
123.51416 180.0
123.555855 36.0
123.620018 168.0
123.642151 68.0
123.697487 104.0
123.738571 120.0
123.760895 192.0
123.814842 244.0
123.866898 64.0
123.89753 184.0
123.934311 164.0
123.948524 140.0
123.967224 164.0
123.996521 172.0
124.046516 144.0
124.062943 224.0
124.071793 176.0
124.078957 216.0
124.10659 244.0
124.167244 208.0
124.273727 144.0
124.295914 180.0
124.338081 180.0
124.366936 56.0
124.386917 132.0
124.412956 104.0
124.489052 64.0
124.506363 196.0
124.537041 132.0
124.564568 136.0
124.617889 64.0
124.65789 140.0
124.704559 176.0
124.76104 196.0
124.77066 60.0
124.779404 180.0
124.817688 140.0
124.840187 108.0
124.864174 176.0
124.886887 92.0
124.951401 116.0
124.989227 88.0
125.015938 132.0
125.073418 92.0
125.107193 164.0
125.139313 160.0
125.171768 48.0
125.195107 208.0
125.249718 36.0
125.268654 144.0
125.283134 176.0
125.311806 176.0
125.367813 156.0
125.382965 144.0
125.39901 160.0
125.42807 216.0
125.479263 232.0
125.561775 208.0
125.598129 160.0
125.615311 212.0
125.654465 168.0
125.71125 160.0
125.764076 204.0
125.788666 164.0
125.813927 160.0
125.836029 196.0
125.92112 176.0
126.006004 124.0
126.073044 236.0
126.129425 196.0
126.177231 176.0
126.258781 152.0
126.276497 160.0
126.292152 312.0
126.314522 180.0
126.341431 156.0
126.364746 196.0
126.395828 224.0
126.433113 116.0
126.466393 180.0
126.470306 156.0
126.513695 132.0
126.543495 220.0
126.57505 280.0
126.601028 80.0
126.623421 208.0
126.691711 132.0
126.716148 132.0
126.746635 132.0
126.773529 180.0
126.831802 52.0
126.869591 168.0
126.901306 136.0
126.929352 196.0
126.982483 212.0
127.017921 172.0
127.053818 172.0
127.085228 172.0
127.136841 188.0
127.172752 184.0
127.205788 120.0
127.242348 100.0
127.264801 132.0
127.361374 100.0
127.422028 92.0
127.440002 264.0
127.456352 168.0
127.473709 136.0
127.549599 136.0
127.583298 164.0
127.635567 132.0
127.670815 324.0
127.678368 124.0
127.686234 188.0
127.750275 120.0
127.784019 92.0
127.802017 240.0
127.865036 72.0
127.892044 116.0
127.938454 156.0
127.969452 208.0
128.015869 140.0
128.057983 340.0
128.124283 156.0
128.157791 136.0
128.211868 132.0
128.245682 104.0
128.292175 192.0
128.319229 192.0
128.344406 168.0
128.382019 136.0
128.400986 164.0
128.496002 112.0
128.516357 196.0
128.543716 112.0
128.57724 144.0
128.601303 288.0
128.624191 196.0
128.669479 172.0
128.677246 160.0
128.722672 172.0
128.747437 52.0
128.816589 136.0
128.836441 168.0
128.896957 168.0
128.920532 108.0
128.962906 160.0
128.983826 68.0
129.001907 112.0
129.065735 268.0
129.12175 76.0
129.142715 104.0
129.168549 88.0
129.195206 148.0
129.255753 104.0
129.295959 152.0
129.3367 164.0
129.35556 232.0
129.490677 100.0
129.506531 172.0
129.603943 172.0
129.696869 272.0
129.734436 216.0
129.769409 128.0
129.789825 176.0
129.805695 84.0
129.844254 140.0
129.89978 192.0
129.93425 148.0
129.985855 176.0
130.063782 472.0
130.091583 156.0
130.116562 44.0
130.141541 140.0
130.186951 236.0
130.225555 88.0
130.264175 172.0
130.29599 128.0
130.314163 176.0
130.366425 176.0
130.41777 184.0
130.445984 164.0
130.461899 220.0
130.483551 252.0
130.517883 332.0
130.558319 160.0
130.593781 112.0
130.638382 224.0
130.670059 160.0
130.685379 196.0
130.705261 188.0
130.746231 112.0
130.773544 136.0
130.839554 188.0
130.875992 168.0
130.907867 128.0
130.955704 148.0
130.971649 312.0
131.008087 140.0
131.028595 116.0
131.057098 180.0
131.092392 84.0
131.131149 164.0
131.150558 284.0
131.168015 180.0
131.185852 32.0
131.283905 176.0
131.352646 140.0
131.377426 116.0
131.393387 184.0
131.434464 116.0
131.477814 104.0
131.504776 188.0
131.582825 252.0
131.607941 140.0
131.666885 148.0
131.703857 328.0
131.724365 160.0
131.767822 112.0
131.82309 108.0
131.843384 168.0
131.907242 204.0
131.923248 108.0
131.966675 224.0
131.996246 196.0
132.019928 184.0
132.045898 224.0
132.077087 648.0
132.11763 236.0
132.135941 148.0
132.18399 144.0
132.218323 224.0
132.238922 96.0
132.300003 96.0
132.346512 220.0
132.455399 220.0
132.474304 268.0
132.480576 212.0
132.564133 176.0
132.620911 124.0
132.678741 188.0
132.761292 152.0
132.788818 272.0
132.855347 144.0
132.903442 120.0
132.944824 188.0
132.975372 148.0
132.999786 148.0
133.074829 164.0
133.112595 152.0
133.15213 252.0
133.286118 248.0
133.309982 112.0
133.337555 128.0
133.36055 60.0
133.376633 76.0
133.411118 152.0
133.427216 292.0
133.485229 156.0
133.529114 152.0
133.583603 196.0
133.645721 76.0
133.666428 188.0
133.718933 196.0
133.742615 196.0
133.7677 196.0
133.837372 248.0
133.979568 196.0
134.004913 124.0
134.052124 240.0
134.08078 156.0
134.102936 128.0
134.147751 156.0
134.249268 260.0
134.369949 392.0
134.410172 128.0
134.44075 136.0
134.477676 136.0
134.516724 144.0
134.54924 48.0
134.596161 112.0
134.636826 176.0
134.673935 108.0
134.709778 140.0
134.731689 160.0
134.755402 92.0
134.791763 156.0
134.8246 196.0
134.851852 68.0
134.877289 136.0
134.90094 152.0
134.93277 184.0
134.990601 176.0
135.022949 104.0
135.050003 196.0
135.070221 272.0
135.093796 160.0
135.12146 172.0
135.155533 220.0
135.175644 72.0
135.245087 96.0
135.266876 224.0
135.319168 244.0
135.351532 152.0
135.378174 156.0
135.394913 192.0
135.444214 128.0
135.506775 192.0
135.557755 180.0
135.631836 116.0
135.638123 112.0
135.64447 192.0
135.667999 192.0
135.687561 72.0
135.754807 136.0
135.815109 148.0
135.835983 48.0
135.88826 120.0
135.912552 36.0
135.93808 124.0
135.975204 148.0
136.003326 104.0
136.043594 240.0
136.123596 144.0
136.21669 136.0
136.242249 152.0
136.316605 192.0
136.354477 176.0
136.379364 112.0
136.477005 216.0
136.550018 208.0
136.572281 136.0
136.632843 172.0
136.653778 236.0
136.672394 152.0
136.718933 100.0
136.746872 116.0
136.765488 212.0
136.807388 124.0
136.826019 88.0
136.949432 196.0
136.964157 176.0
136.984375 156.0
137.028641 148.0
137.054276 144.0
137.085342 96.0
137.149292 52.0
137.208115 224.0
137.233765 112.0
137.309402 112.0
137.338699 312.0
137.366699 60.0
137.385147 132.0
137.44603 228.0
137.467026 96.0
137.504364 216.0
137.534714 128.0
137.58374 196.0
137.630432 124.0
137.719177 92.0
137.79628 264.0
137.896255 272.0
137.916534 164.0
137.941177 160.0
137.966888 164.0
138.005554 156.0
138.024078 96.0
138.072922 252.0
138.109543 148.0
138.153992 176.0
138.197098 224.0
138.243652 176.0
138.270981 120.0
138.303253 204.0
138.351715 164.0
138.43721 164.0
138.455261 152.0
138.526215 116.0
138.592361 192.0
138.621628 188.0
138.625793 136.0
138.713699 112.0
138.760345 156.0
138.800446 188.0
138.829193 236.0
138.857437 160.0
138.886536 256.0
138.944717 268.0
138.988098 64.0
139.013916 124.0
139.048172 412.0
139.131287 176.0
139.19812 380.0
139.222855 144.0
139.279236 156.0
139.330612 160.0
139.394348 156.0
139.422363 192.0
139.44751 168.0
139.490463 188.0
139.563599 108.0
139.594177 192.0
139.64592 104.0
139.683548 168.0
139.737656 204.0
139.780273 168.0
139.827087 140.0
139.877197 140.0
139.947144 100.0
139.974228 40.0
140.021332 156.0
140.054916 168.0
140.074051 172.0
140.11673 140.0
140.147369 96.0
140.187424 56.0
140.218063 268.0
140.293488 196.0
140.340652 136.0
140.437347 204.0
140.499741 132.0
140.585983 140.0
140.609589 140.0
140.667542 108.0
140.693542 196.0
140.732346 176.0
140.772476 108.0
140.829163 132.0
140.848068 144.0
140.975647 192.0
141.049683 324.0
141.087341 112.0
141.117477 104.0
141.162415 168.0
141.196915 216.0
141.235733 188.0
141.261749 184.0
141.304337 228.0
141.339645 196.0
141.452744 192.0
141.480042 184.0
141.529205 120.0
141.616653 168.0
141.678162 108.0
141.686447 176.0
141.721069 116.0
141.737656 112.0
141.763718 180.0
141.789795 168.0
141.821609 140.0
141.855408 304.0
141.863724 208.0
141.87471 136.0
141.898834 160.0
142.003174 200.0
142.060318 164.0
142.090958 140.0
142.16069 76.0
142.188538 128.0
142.311172 128.0
142.382935 108.0
142.409058 72.0
142.463287 204.0
142.481033 216.0
142.513596 204.0
142.537354 132.0
142.634796 148.0
142.677414 216.0
142.699478 428.0
142.717758 148.0
142.723541 220.0
142.797501 192.0
142.846436 176.0
142.896408 156.0
142.955887 148.0
142.97731 168.0
142.995193 156.0
143.029785 184.0
143.059616 908.0
143.134949 128.0
143.160751 164.0
143.234467 204.0
143.254288 136.0
143.28688 124.0
143.320236 180.0
143.341675 224.0
143.41069 172.0
143.43576 120.0
143.452362 212.0
143.499008 144.0
143.542664 288.0
143.566589 128.0
143.625397 132.0
143.669067 132.0
143.706512 164.0
143.725327 104.0
143.771896 96.0
143.799591 156.0
143.878357 136.0
143.911453 112.0
143.936691 144.0
143.954773 40.0
143.981049 172.0
144.024033 148.0
144.06749 724.0
144.119598 172.0
144.151352 172.0
144.181732 244.0
144.232666 128.0
144.261978 188.0
144.291687 312.0
144.363434 176.0
144.380585 204.0
144.40596 284.0
144.428879 204.0
144.462402 148.0
144.526093 152.0
144.559601 52.0
144.585373 228.0
144.634995 232.0
144.686462 192.0
144.708008 144.0
144.727173 208.0
144.827759 40.0
144.897232 96.0
144.951675 172.0
145.003601 164.0
145.034378 192.0
145.083771 144.0
145.151306 124.0
145.175644 132.0
145.211258 196.0
145.239716 148.0
145.278427 144.0
145.320816 268.0
145.400803 128.0
145.4272 76.0
145.468964 244.0
145.494431 168.0
145.523239 48.0
145.556854 148.0
145.585007 204.0
145.616898 144.0
145.640915 144.0
145.667343 124.0
145.696167 40.0
145.794678 100.0
145.828339 180.0
145.87468 184.0
145.913177 276.0
145.95575 208.0
146.001144 132.0
146.025497 116.0
146.073608 152.0
146.097198 144.0
146.126221 184.0
146.148193 196.0
146.192184 216.0
146.253433 492.0
146.33107 200.0
146.413574 232.0
146.469299 232.0
146.503845 260.0
146.527023 452.0
146.591263 96.0
146.658752 176.0
146.692307 152.0
146.745544 152.0
146.762421 160.0
146.808243 212.0
146.851654 176.0
146.899902 200.0
146.921082 256.0
147.004898 188.0
147.071228 232.0
147.100189 36.0
147.12381 164.0
147.146072 88.0
147.179871 112.0
147.201599 124.0
147.245071 144.0
147.284805 152.0
147.303131 212.0
147.381332 100.0
147.447586 156.0
147.467194 176.0
147.612427 160.0
147.635635 268.0
147.661224 176.0
147.679703 156.0
147.760803 128.0
147.798157 92.0
147.830139 140.0
147.861603 72.0
147.894257 224.0
147.977646 188.0
148.040771 152.0
148.057724 128.0
148.089203 152.0
148.118271 100.0
148.135223 120.0
148.154617 176.0
148.176422 132.0
148.232498 220.0
148.27092 88.0
148.341217 140.0
148.430923 92.0
148.457596 184.0
148.484283 152.0
148.530365 176.0
148.564331 112.0
148.605576 68.0
148.646423 144.0
148.698318 236.0
148.731766 132.0
148.75647 272.0
148.799744 228.0
148.838593 160.0
148.872589 152.0
148.898514 196.0
148.967331 148.0
149.010101 184.0
149.042648 212.0
149.070297 168.0
149.098541 76.0
149.161728 180.0
149.215225 176.0
149.257996 152.0
149.276016 76.0
149.302689 268.0
149.331482 228.0
149.383835 108.0
149.443848 172.0
149.492477 372.0
149.524719 192.0
149.56369 168.0
149.608063 180.0
149.69458 176.0
149.752655 152.0
149.789566 264.0
149.83342 208.0
149.904083 320.0
149.952835 164.0
149.974762 224.0
150.004013 180.0
150.047897 124.0
150.077164 156.0
150.100906 200.0
150.12294 220.0
150.235703 176.0
150.26741 224.0
150.283112 184.0
150.302856 120.0
150.382111 132.0
150.438446 156.0
150.582199 156.0
150.628738 172.0
150.645844 184.0
150.706924 124.0
150.728912 148.0
150.753342 144.0
150.773041 136.0
150.821777 184.0
150.913925 268.0
150.980713 196.0
151.007614 212.0
151.044998 400.0
151.078552 92.0
151.10791 124.0
151.125046 72.0
151.153381 152.0
151.178879 216.0
151.241455 148.0
151.298813 92.0
151.350235 228.0
151.369827 188.0
151.433502 160.0
151.457993 164.0
151.494934 212.0
151.538849 268.0
151.560898 48.0
151.607452 188.0
151.636871 144.0
151.688599 208.0
151.710403 124.0
151.740997 140.0
151.769257 160.0
151.80603 176.0
151.823196 104.0
151.845276 76.0
151.8965 172.0
151.913208 184.0
151.936783 120.0
151.967941 252.0
151.99913 208.0
152.04155 248.0
152.061157 732.0
152.156921 140.0
152.19809 204.0
152.230591 176.0
152.338669 184.0
152.363235 108.0
152.380432 148.0
152.412369 204.0
152.432037 136.0
152.468903 144.0
152.486099 108.0
152.547562 56.0
152.569687 140.0
152.643448 208.0
152.685257 44.0
152.810715 108.0
152.835846 188.0
152.874695 44.0
152.93869 148.0
153.005157 144.0
153.039825 152.0
153.064804 140.0
153.088867 104.0
153.108582 40.0
153.199539 276.0
153.253922 104.0
153.280563 152.0
153.291168 220.0
153.315781 176.0
153.352493 124.0
153.387009 208.0
153.421524 48.0
153.497955 236.0
153.539886 428.0
153.574631 180.0
153.61142 120.0
153.633621 124.0
153.673096 144.0
153.69339 228.0
153.794022 172.0
153.821167 160.0
153.846451 132.0
153.939682 192.0
153.960251 160.0
153.994888 216.0
154.018723 48.0
154.061401 176.0
154.072418 60.0
154.082245 200.0
154.09108 96.0
154.117538 184.0
154.14473 216.0
154.171906 100.0
154.255951 152.0
154.290558 92.0
154.330124 148.0
154.364365 132.0
154.411728 156.0
154.448837 168.0
154.483398 272.0
154.52388 156.0
154.555222 188.0
154.599869 208.0
154.643784 204.0
154.651489 160.0
154.65715 148.0
154.700989 188.0
154.769516 224.0
154.844864 168.0
154.899368 140.0
154.925964 216.0
154.943954 196.0
154.988556 216.0
155.008591 140.0
155.025726 268.0
155.057938 132.0
155.090164 116.0
155.169693 176.0
155.221573 156.0
155.263733 256.0
155.322159 200.0
155.385284 132.0
155.417542 200.0
155.496552 204.0
155.546585 100.0
155.576385 116.0
155.601212 140.0
155.658325 84.0
155.700546 64.0
155.722885 160.0
155.767609 140.0
155.811752 172.0
155.836517 196.0
155.951492 144.0
155.976822 168.0
155.998718 212.0
156.033524 132.0
156.055893 132.0
156.102692 176.0
156.109711 144.0
156.162842 168.0
156.192688 268.0
156.237137 92.0
156.440872 148.0
156.543625 160.0
156.605896 136.0
156.634109 184.0
156.718002 112.0
156.837631 112.0
156.865387 148.0
156.899948 120.0
156.927368 176.0
156.949814 44.0
157.025894 348.0
157.047073 128.0
157.111343 100.0
157.140961 228.0
157.150406 144.0
157.207611 188.0
157.242233 260.0
157.282806 188.0
157.322388 208.0
157.349045 132.0
157.369019 88.0
157.458923 172.0
157.506378 88.0
157.536346 48.0
157.580811 176.0
157.688675 192.0
157.751968 88.0
157.768768 176.0
157.78627 136.0
157.829803 128.0
157.871292 100.0
157.923264 252.0
157.958481 140.0
158.008865 136.0
158.07991 112.0
158.139816 124.0
158.176788 164.0
158.245697 180.0
158.270706 212.0
158.33429 52.0
158.384384 184.0
158.408524 208.0
158.418549 132.0
158.424911 160.0
158.486023 324.0
158.640732 68.0
158.666321 124.0
158.693359 156.0
158.712708 156.0
158.767883 180.0
158.787949 128.0
158.810516 112.0
158.910858 152.0
158.933395 172.0
158.984741 180.0
159.032578 136.0
159.039749 180.0
159.048447 200.0
159.065094 220.0
159.098312 224.0
159.154343 128.0
159.178833 160.0
159.209595 156.0
159.29248 168.0
159.34523 168.0
159.406219 176.0
159.448257 232.0
159.470886 88.0
159.553848 140.0
159.578979 176.0
159.611496 172.0
159.618652 160.0
159.646881 352.0
159.711838 208.0
159.791336 140.0
159.81543 180.0
159.853165 148.0
159.873306 152.0
159.906021 176.0
159.948883 272.0
159.99617 168.0
160.02182 128.0
160.044479 108.0
160.076462 168.0
160.152649 160.0
160.174088 152.0
160.241562 148.0
160.268661 96.0
160.295273 200.0
160.306381 268.0
160.334183 144.0
160.377396 112.0
160.399826 204.0
160.437531 200.0
160.455185 124.0
160.482925 120.0
160.518219 96.0
160.540924 128.0
160.571182 180.0
160.644333 176.0
160.699844 48.0
160.783112 100.0
160.847656 148.0
160.915359 268.0
160.946915 344.0
161.007812 100.0
161.077698 220.0
161.146759 104.0
161.217514 240.0
161.245316 84.0
161.300919 152.0
161.332703 56.0
161.441589 120.0
161.590363 208.0
161.642365 156.0
161.700577 116.0
161.726761 196.0
161.796768 224.0
161.83728 36.0
161.875259 32.0
161.915955 120.0
162.02977 188.0
162.087875 168.0
162.141281 128.0
162.182999 156.0
162.262802 136.0
162.272705 128.0
162.276596 116.0
162.336487 148.0
162.361847 96.0
162.381668 196.0
162.418625 180.0
162.440475 156.0
162.498489 116.0
162.55719 204.0
162.59491 148.0
162.64856 160.0
162.689178 164.0
162.76535 140.0
162.813599 164.0
162.836472 32.0
162.854248 176.0
162.88623 148.0
162.93808 36.0
162.960938 184.0
162.996979 112.0
163.06514 156.0
163.130127 120.0
163.161728 108.0
163.182068 124.0
163.202423 172.0
163.230392 136.0
163.248184 208.0
163.281708 200.0
163.348465 104.0
163.39827 164.0
163.421173 164.0
163.446609 40.0
163.54332 100.0
163.581512 148.0
163.604416 144.0
163.652298 180.0
163.686066 120.0
163.711365 128.0
163.749573 136.0
163.782455 140.0
163.792694 60.0
163.799393 136.0
163.842194 144.0
163.861588 160.0
163.867386 48.0
163.955933 128.0
164.036377 72.0
164.10379 316.0
164.142044 180.0
164.17775 160.0
164.198151 124.0
164.233856 324.0
164.280167 164.0
164.31813 240.0
164.349548 116.0
164.376129 84.0
164.413849 176.0
164.440536 156.0
164.476273 188.0
164.50946 140.0
164.599854 200.0
164.693314 144.0
164.78331 140.0
164.815781 120.0
164.859009 188.0
164.875183 180.0
164.910172 208.0
164.938278 116.0
164.979843 160.0
165.028229 172.0
165.069931 1184.0
165.112488 120.0
165.165085 128.0
165.184113 120.0
165.208618 276.0
165.230087 148.0
165.258316 164.0
165.309494 56.0
165.370911 196.0
165.40419 136.0
165.424606 160.0
165.460388 132.0
165.511719 180.0
165.565506 212.0
165.650024 156.0
165.685898 64.0
165.747513 216.0
165.767883 120.0
165.833054 244.0
165.908081 332.0
165.968842 152.0
166.013992 140.0
166.03894 176.0
166.068878 488.0
166.102386 224.0
166.129425 124.0
166.159149 224.0
166.188431 168.0
166.211517 160.0
166.238312 144.0
166.309052 192.0
166.328949 232.0
166.352692 220.0
166.393768 292.0
166.419449 320.0
166.45282 204.0
166.496948 220.0
166.519592 204.0
166.537247 176.0
166.578674 160.0
166.614639 132.0
166.637772 228.0
166.673737 164.0
166.799683 136.0
166.834763 204.0
166.874237 96.0
166.902527 120.0
166.946243 164.0
167.006271 152.0
167.032883 180.0
167.039398 184.0
167.072128 12416.0
167.192154 280.0
167.215027 312.0
167.253708 212.0
167.31163 220.0
167.348953 128.0
167.389725 156.0
167.452682 160.0
167.561447 184.0
167.605255 168.0
167.627533 136.0
167.65593 108.0
167.677414 52.0
167.713318 172.0
167.799789 196.0
167.83725 144.0
167.868195 36.0
167.896561 112.0
167.920319 188.0
167.957138 396.0
168.028122 192.0
168.0784 5036.0
168.124298 148.0
168.160568 244.0
168.184601 208.0
168.253952 144.0
168.273315 208.0
168.329559 92.0
168.517746 356.0
168.537552 120.0
168.560028 164.0
168.611725 120.0
168.672775 136.0
168.733215 212.0
168.7901 152.0
168.815689 184.0
168.844406 144.0
168.920135 276.0
168.943161 208.0
168.974396 208.0
169.081955 988.0
169.169098 208.0
169.214325 152.0
169.230194 188.0
169.271866 160.0
169.297318 140.0
169.346527 52.0
169.408051 284.0
169.442871 84.0
169.514938 148.0
169.538254 136.0
169.584869 200.0
169.621201 144.0
169.706757 48.0
169.730835 200.0
169.756027 68.0
169.813843 152.0
169.885712 132.0
169.924637 52.0
170.008148 224.0
170.058289 240.0
170.08728 196.0
170.123062 292.0
170.296204 156.0
170.338989 248.0
170.394577 200.0
170.420563 144.0
170.480331 172.0
170.535736 100.0
170.581696 104.0
170.602493 116.0
170.626465 148.0
170.662292 156.0
170.685699 184.0
170.910126 260.0
170.955368 212.0
170.979675 56.0
171.008301 160.0
171.044022 240.0
171.079102 184.0
171.116241 172.0
171.200974 184.0
171.25116 132.0
171.271286 104.0
171.330124 196.0
171.391129 48.0
171.414581 48.0
171.517334 180.0
171.546371 436.0
171.576202 188.0
171.636169 108.0
171.675278 188.0
171.724838 168.0
171.763962 132.0
171.803101 152.0
171.823959 156.0
171.85788 40.0
171.892395 124.0
171.93277 208.0
171.957047 224.0
172.001846 200.0
172.023758 192.0
172.051697 188.0
172.137192 264.0
172.194656 244.0
172.231293 148.0
172.296524 128.0
172.343567 132.0
172.424576 172.0
172.44809 172.0
172.474228 136.0
172.521286 112.0
172.542206 184.0
172.620651 236.0
172.659271 188.0
172.691177 116.0
172.746201 184.0
172.779556 112.0
172.816833 196.0
172.887497 228.0
172.929367 80.0
172.986877 128.0
173.042084 140.0
173.086456 112.0
173.120499 180.0
173.220032 212.0
173.246216 136.0
173.274887 132.0
173.308792 292.0
173.353653 148.0
173.403168 112.0
173.420624 224.0
173.453323 140.0
173.524872 188.0
173.542389 132.0
173.573654 156.0
173.642685 148.0
173.672653 196.0
173.731232 172.0
173.752213 196.0
173.773209 96.0
173.837418 192.0
173.901794 152.0
173.985794 144.0
174.023575 140.0
174.049881 148.0
174.138107 128.0
174.182617 148.0
174.238144 152.0
174.279968 164.0
174.308884 96.0
174.35881 160.0
174.435699 160.0
174.48761 80.0
174.603317 160.0
174.712326 128.0
174.734848 168.0
174.753265 196.0
174.774323 148.0
174.820694 64.0
174.869064 184.0
174.89801 124.0
174.931396 188.0
174.953293 136.0
174.987518 148.0
175.010468 184.0
175.062683 140.0
175.085358 180.0
175.127426 128.0
175.187683 136.0
175.216812 144.0
175.240372 196.0
175.266724 192.0
175.333862 144.0
175.397049 116.0
175.422226 304.0
175.467041 96.0
175.522415 416.0
175.576492 172.0
175.608658 200.0
175.624512 96.0
175.675262 148.0
175.807877 176.0
175.883881 160.0
175.937683 168.0
175.993729 144.0
176.031082 148.0
176.035873 112.0
176.068817 280.0
176.142654 188.0
176.213806 172.0
176.309128 168.0
176.332901 188.0
176.359344 128.0
176.401627 248.0
176.42453 188.0
176.454514 152.0
176.480957 140.0
176.547058 124.0
176.629059 164.0
176.655502 92.0
176.712387 120.0
176.73024 148.0
176.816925 100.0
176.88942 236.0
176.914856 148.0
176.940414 144.0
176.973114 60.0
177.012833 192.0
177.067001 400.0
177.091171 152.0
177.118774 156.0
177.183578 156.0
177.19368 216.0
177.30159 132.0
177.325455 56.0
177.349304 188.0
177.410278 356.0
177.446167 152.0
177.510498 120.0
177.542175 108.0
177.602478 156.0
177.656631 112.0
177.727707 164.0
177.802994 164.0
177.901077 204.0
177.992813 172.0
178.020554 124.0
178.064468 180.0
178.118835 96.0
178.15213 148.0
178.182587 152.0
178.256989 196.0
178.286224 144.0
178.339386 164.0
178.373047 228.0
178.434769 236.0
178.439774 136.0
178.477829 52.0
178.519913 180.0
178.56665 112.0
178.602631 128.0
178.646362 316.0
178.746292 176.0
178.789688 172.0
178.818161 148.0
178.887146 192.0
178.92511 204.0
178.988541 140.0
179.041946 136.0
179.070145 1564.0
179.1577 156.0
179.273575 124.0
179.307999 136.0
179.364197 160.0
179.387054 128.0
179.438843 152.0
179.482056 164.0
179.52951 272.0
179.55513 172.0
179.583176 200.0
179.673553 116.0
179.702667 168.0
179.742126 224.0
179.79187 124.0
179.820328 168.0
179.858261 284.0
179.9142 144.0
179.951126 108.0
180.079025 2284.0
180.122055 68.0
180.148773 88.0
180.196854 148.0
180.255646 180.0
180.285049 28.0
180.314438 144.0
180.349182 308.0
180.420624 172.0
180.454224 148.0
180.493561 208.0
180.60466 96.0
180.640656 152.0
180.722244 144.0
180.7798 108.0
180.806046 188.0
180.844025 124.0
180.862762 172.0
180.891342 284.0
180.919891 116.0
180.945755 104.0
180.991272 168.0
181.013596 120.0
181.084457 564.0
181.184418 260.0
181.235931 252.0
181.284134 204.0
181.323471 76.0
181.386902 164.0
181.478958 200.0
181.503357 160.0
181.524536 148.0
181.549286 204.0
181.629135 140.0
181.6828 108.0
181.744507 156.0
181.790131 132.0
181.814285 144.0
181.860062 140.0
181.881378 108.0
181.940445 96.0
181.959229 132.0
181.997345 184.0
182.067841 180.0
182.094894 1296.0
182.125015 180.0
182.163345 172.0
182.28157 44.0
182.305756 112.0
182.33905 188.0
182.399826 156.0
182.475098 112.0
182.510056 156.0
182.536942 184.0
182.572266 160.0
182.612244 76.0
182.70874 184.0
182.738693 136.0
182.765594 176.0
182.91362 144.0
182.935165 140.0
183.007858 200.0
183.055008 516.0
183.095474 680.0
183.123657 40.0
183.164062 140.0
183.196381 148.0
183.226013 192.0
183.29068 100.0
183.349976 136.0
183.409271 56.0
183.465881 200.0
183.5112 228.0
183.53447 100.0
183.618393 172.0
183.642441 304.0
183.672363 212.0
183.711304 68.0
183.73558 120.0
183.80574 124.0
183.867813 52.0
183.928802 188.0
184.01088 208.0
184.050537 356.0
184.073074 592.0
184.1297 188.0
184.206299 144.0
184.235046 188.0
184.267471 180.0
184.32309 176.0
184.375992 172.0
184.416107 236.0
184.50531 172.0
184.532349 168.0
184.689194 180.0
184.721664 136.0
184.756744 124.0
184.884003 48.0
184.918777 156.0
184.943558 200.0
184.96521 196.0
185.007294 196.0
185.056107 188.0
185.081635 116.0
185.103287 172.0
185.168289 128.0
185.189957 204.0
185.276642 124.0
185.317291 180.0
185.361374 236.0
185.387741 140.0
185.412125 56.0
185.437607 100.0
185.487122 240.0
185.525986 132.0
185.596481 136.0
185.639648 152.0
185.68248 168.0
185.709366 188.0
185.725845 156.0
185.799301 180.0
185.848221 232.0
185.924728 196.0
186.003433 48.0
186.044159 164.0
186.128952 208.0
186.173386 236.0
186.223389 68.0
186.284836 244.0
186.310303 136.0
186.341278 364.0
186.375519 140.0
186.399979 140.0
186.444504 52.0
186.484222 308.0
186.701294 200.0
186.773148 200.0
186.862045 172.0
186.894882 172.0
186.961334 240.0
187.033676 144.0
187.079956 160.0
187.104462 124.0
187.137131 148.0
187.167084 176.0
187.186157 48.0
187.248795 192.0
187.305984 160.0
187.43132 52.0
187.457932 240.0
187.519913 252.0
187.545776 80.0
187.603851 184.0
187.642227 128.0
187.728455 92.0
187.780273 212.0
187.867569 240.0
187.919403 160.0
187.990356 164.0
188.00946 76.0
188.042206 168.0
188.095612 152.0
188.1241 100.0
188.15686 140.0
188.271774 96.0
188.31839 160.0
188.388031 168.0
188.399124 108.0
188.40419 244.0
188.459427 288.0
188.503754 168.0
188.583023 172.0
188.628036 128.0
188.678696 128.0
188.727905 176.0
188.759537 204.0
188.785339 112.0
188.827927 196.0
188.867386 144.0
189.050705 160.0
189.095627 180.0
189.141022 132.0
189.202515 128.0
189.231369 88.0
189.277924 152.0
189.329956 120.0
189.376511 160.0
189.39711 168.0
189.475128 164.0
189.510391 212.0
189.543945 140.0
189.57251 112.0
189.606674 148.0
189.675186 124.0
189.750961 132.0
189.776627 132.0
189.800232 204.0
189.856155 164.0
189.883591 100.0
189.935699 116.0
189.974106 208.0
190.003494 84.0
190.038345 68.0
190.083511 96.0
190.105804 168.0
190.136002 136.0
190.168701 188.0
190.199127 168.0
190.26207 168.0
190.346268 144.0
190.355164 168.0
190.487473 188.0
190.538208 212.0
190.595047 152.0
190.624847 132.0
190.672409 208.0
190.748825 264.0
190.789917 304.0
190.842407 164.0
190.886063 176.0
190.915146 180.0
190.925629 108.0
190.934494 184.0
190.959213 168.0
190.990509 168.0
191.071625 600.0
191.120209 172.0
191.161102 212.0
191.196869 156.0
191.231735 228.0
191.274841 180.0
191.293213 192.0
191.312485 132.0
191.395081 116.0
191.444656 476.0
191.535843 148.0
191.568329 160.0
191.637482 144.0
191.673309 124.0
191.695343 104.0
191.714645 88.0
191.746994 188.0
191.77356 96.0
191.819382 136.0
191.838684 160.0
191.881546 212.0
191.911285 96.0
191.946213 212.0
191.975113 124.0
192.014648 216.0
192.07515 2004.0
192.116364 116.0
192.155746 116.0
192.206299 208.0
192.227585 216.0
192.253586 276.0
192.303482 64.0
192.329712 176.0
192.349869 236.0
192.38768 92.0
192.42067 76.0
192.466293 208.0
192.502686 160.0
192.558884 136.0
192.630707 40.0
192.65892 204.0
192.692581 140.0
192.738632 188.0
192.78746 164.0
192.813797 304.0
192.87941 164.0
192.898758 200.0
192.929169 204.0
192.97728 80.0
193.024887 224.0
193.086273 14140.0
193.127396 364.0
193.165695 128.0
193.21524 164.0
193.240967 60.0
193.282516 160.0
193.319809 160.0
193.327026 48.0
193.342651 172.0
193.378052 384.0
193.402374 176.0
193.456665 276.0
193.503128 160.0
193.540192 480.0
193.57959 116.0
193.600632 216.0
193.619598 100.0
193.647812 280.0
193.680954 164.0
193.703278 144.0
193.752838 452.0
193.782974 432.0
193.820007 164.0
193.833618 300.0
193.861511 192.0
193.894989 392.0
193.902069 240.0
193.918884 428.0
193.94162 500.0
193.961609 316.0
193.980667 332.0
194.000488 608.0
194.004501 372.0
194.059341 3504.0
194.096344 282408.0
194.187744 204.0
194.232681 176.0
194.237671 220.0
194.293564 372.0
194.318771 400.0
194.328033 208.0
194.359741 424.0
194.39328 240.0
194.416489 388.0
194.419647 356.0
194.440567 172.0
194.468521 180.0
194.514648 344.0
194.553177 3760.0
194.593964 296.0
194.618759 252.0
194.64595 232.0
194.662033 308.0
194.719116 228.0
194.74736 116.0
194.777664 384.0
194.807755 156.0
194.83255 260.0
194.837646 104.0
194.855576 352.0
194.885147 264.0
194.947968 532.0
194.98909 548.0
195.066284 1036.0
195.103729 325268.0
195.168777 232.0
195.207794 136.0
195.28334 308.0
195.306763 236.0
195.353424 280.0
195.374252 412.0
195.3992 444.0
195.437958 152.0
195.482956 84.0
195.514694 120.0
195.532928 200.0
195.561417 3792.0
195.604691 176.0
195.634628 128.0
195.667862 100.0
195.712219 52.0
195.732666 152.0
195.757004 176.0
195.797363 348.0
195.827255 176.0
195.85817 204.0
195.889816 180.0
195.924225 76.0
195.968323 204.0
195.994171 328.0
196.038849 312.0
196.067642 324.0
196.107147 70200.0
196.164444 188.0
196.189545 244.0
196.206299 128.0
196.241364 296.0
196.279892 108.0
196.299271 228.0
196.317413 168.0
196.34314 328.0
196.37233 284.0
196.378586 156.0
196.420563 296.0
196.433365 216.0
196.444672 176.0
196.453491 188.0
196.476593 184.0
196.508545 216.0
196.527664 100.0
196.532272 256.0
196.552505 168.0
196.575058 192.0
196.596817 116.0
196.601883 184.0
196.615814 232.0
196.627686 144.0
196.643051 384.0
196.692078 292.0
196.699966 216.0
196.712006 192.0
196.733994 144.0
196.740509 56.0
196.791473 140.0
196.843048 244.0
196.864532 208.0
196.87175 56.0
196.881973 136.0
196.900909 120.0
196.9543 240.0
196.997345 136.0
197.036255 84.0
197.069931 284.0
197.109879 6132.0
197.172348 176.0
197.180878 196.0
197.223557 152.0
197.284866 188.0
197.323486 116.0
197.328598 80.0
197.33522 220.0
197.374039 60.0
197.408936 92.0
197.450134 376.0
197.483948 236.0
197.506577 304.0
197.534973 220.0
197.565186 152.0
197.590652 452.0
197.629868 268.0
197.653503 328.0
197.686066 288.0
197.734146 208.0
197.838837 100.0
197.878937 88.0
197.904022 64.0
197.934814 60.0
197.961746 52.0
198.007629 84.0
198.052994 268.0
198.081543 104.0
198.11615 476.0
198.155182 184.0
198.183121 136.0
198.26059 152.0
198.329269 76.0
198.347534 92.0
198.374023 124.0
198.40419 124.0
198.443268 132.0
198.479752 112.0
198.545639 108.0
198.554626 148.0
198.576813 104.0
198.618164 88.0
198.682999 112.0
198.714584 108.0
198.768082 88.0
198.833359 84.0
198.875122 92.0
198.924545 76.0
198.951691 120.0
198.995773 76.0
199.057785 88.0
199.096527 96.0
199.171661 76.0
199.199875 52.0
199.236282 24.0
199.281235 80.0
199.341873 72.0
199.385208 60.0
199.425507 148.0
199.473206 184.0
199.534195 36.0
199.595612 76.0
199.635422 68.0
199.691681 128.0
199.716995 56.0
199.764816 52.0
199.844193 56.0
199.856476 76.0
199.888611 64.0
199.930832 28.0
199.968872 100.0
199.99556 44.0
200.105759 164.0
200.163254 164.0
200.222687 48.0
200.263062 184.0
200.30658 80.0
200.372925 32.0
200.527908 108.0
200.587112 72.0
200.615295 120.0
200.651947 72.0
200.840897 184.0
200.877563 96.0
201.08638 84.0
201.120255 112.0
201.348953 52.0
201.399796 180.0
201.422394 128.0
201.580612 108.0
201.721939 108.0
201.840973 40.0
201.871796 116.0
202.205643 116.0
202.224884 60.0
202.256592 108.0
202.34346 64.0
202.415131 88.0
202.565247 72.0
202.638916 108.0
202.660751 124.0
202.73526 124.0
202.840134 36.0
202.871307 88.0
203.000275 108.0
203.052795 60.0
203.085632 76.0
203.208817 96.0
203.256775 40.0
203.299622 132.0
203.328003 60.0
203.362061 68.0
203.438705 76.0
203.518204 140.0
203.588409 116.0
203.781921 104.0
203.830673 120.0
203.854004 132.0
203.961411 160.0
204.007187 76.0
204.081116 412.0
204.152206 112.0
204.226303 76.0
204.274216 116.0
204.335571 148.0
204.388016 64.0
204.501862 144.0
204.521774 64.0
204.569122 108.0
204.615723 112.0
204.655594 44.0
204.732468 56.0
204.860657 96.0
204.898499 112.0
204.991714 68.0
205.014526 68.0
205.070053 444.0
205.111435 48.0
205.131378 56.0
205.1884 92.0
205.276794 100.0
205.316727 44.0
205.398605 48.0
205.433197 120.0
205.469055 100.0
205.492493 104.0
205.64769 44.0
205.673386 84.0
205.69606 76.0
205.7733 80.0
205.830414 36.0
205.85611 120.0
205.897293 124.0
205.952744 72.0
205.990356 68.0
206.027496 132.0
206.081802 476.0
206.228958 112.0
206.247528 176.0
206.297333 76.0
206.325668 96.0
206.367599 40.0
206.436234 68.0
206.572159 204.0
206.589264 120.0
206.639389 152.0
206.799591 80.0
206.848251 156.0
206.930817 76.0
206.988541 64.0
207.028641 48.0
207.090424 300.0
207.252075 68.0
207.277451 136.0
207.358109 108.0
207.406845 84.0
207.42691 84.0
207.541595 48.0
207.600174 92.0
207.639099 64.0
207.725143 40.0
207.885132 84.0
207.963318 124.0
207.993149 184.0
208.034058 168.0
208.082733 248.0
208.195877 96.0
208.259064 44.0
208.335663 112.0
208.35585 116.0
208.405579 36.0
208.467606 192.0
208.503296 124.0
208.523407 108.0
208.624023 132.0
208.654236 164.0
208.710266 56.0
208.767792 44.0
209.032455 220.0
209.10675 344.0
209.197403 180.0
209.254089 180.0
209.337601 88.0
209.464325 100.0
209.646194 100.0
209.677551 120.0
209.775558 160.0
209.807266 64.0
209.896652 56.0
210.020676 132.0
210.099258 256.0
210.248611 76.0
210.369843 104.0
210.53154 176.0
210.595078 80.0
210.628159 88.0
210.768417 92.0
210.817551 132.0
210.915817 84.0
210.990982 76.0
211.084579 216.0
211.124725 252.0
211.181839 52.0
211.233917 40.0
211.491455 60.0
211.806183 180.0
211.831039 104.0
211.920074 120.0
211.980927 40.0
212.10144 368.0
212.46225 128.0
212.53479 92.0
212.645065 108.0
212.66539 136.0
212.720535 48.0
212.99762 96.0
213.11972 100.0
213.191086 128.0
213.231766 96.0
213.66214 148.0
213.935715 168.0
213.959 180.0
213.991028 148.0
214.043442 100.0
214.162857 144.0
214.226944 88.0
214.303436 116.0
214.39595 132.0
214.436752 164.0
214.600601 152.0
214.830414 76.0
215.177719 152.0
215.240189 152.0
215.259476 204.0
215.449326 200.0
215.764969 116.0
215.814682 108.0
215.846848 124.0
216.098404 184.0
216.388168 148.0
216.642975 196.0
216.763107 112.0
216.827576 168.0
216.875671 176.0
216.921371 208.0
216.99173 152.0
217.047455 96.0
217.194092 232.0
217.593216 164.0
217.646057 68.0
217.804657 40.0
218.082581 164.0
218.245499 64.0
218.477859 108.0
218.516098 88.0
218.657349 132.0
219.081909 264.0
219.346603 244.0
219.467484 124.0
219.508774 112.0
219.535309 84.0
219.821472 100.0
220.069427 172.0
220.097778 272.0
220.178696 136.0
220.208221 84.0
220.403214 140.0
220.455872 180.0
220.545074 112.0
220.596756 68.0
220.621933 180.0
220.767044 108.0
220.828537 180.0
220.858505 48.0
220.950211 140.0
220.976837 100.0
221.003479 108.0
221.031006 248.0
221.058548 176.0
221.105713 26480.0
221.174789 36.0
221.180771 84.0
221.200684 44.0
221.229843 124.0
221.263931 68.0
221.355377 168.0
221.397186 68.0
221.426804 92.0
221.474625 220.0
221.500854 156.0
221.524551 40.0
221.637146 144.0
221.776443 112.0
221.800156 84.0
221.892059 88.0
221.99881 200.0
222.040329 80.0
222.106461 3636.0
222.141174 124.0
222.203476 36.0
222.356201 172.0
222.390442 136.0
222.678452 40.0
222.723007 120.0
222.797272 48.0
222.843323 136.0
222.877487 228.0
223.023117 128.0
223.110764 468.0
223.171768 144.0
223.350204 128.0
223.379959 104.0
223.507889 60.0
223.659683 108.0
223.695404 108.0
223.728149 100.0
223.766846 108.0
223.805557 228.0
223.844269 112.0
223.874054 88.0
223.978302 144.0
224.031921 68.0
224.085541 148.0
224.204742 76.0
224.479019 148.0
224.523758 76.0
224.693787 36.0
224.903427 180.0
224.938507 84.0
225.195297 84.0
225.240112 48.0
225.338699 116.0
225.509033 176.0
225.538925 112.0
225.583771 116.0
225.613663 216.0
226.044373 72.0
226.116211 108.0
226.146133 160.0
226.943024 136.0
227.056976 156.0
227.125961 40.0
227.305984 64.0
227.624191 172.0
227.726303 116.0
227.756332 76.0
227.987686 152.0
228.282303 108.0
228.414642 168.0
228.447739 148.0
228.571106 32.0
228.700516 136.0
228.790833 60.0
229.107056 212.0
229.131149 120.0
229.393356 56.0
229.574265 32.0
229.848785 184.0
229.957428 96.0
230.144608 72.0
230.313721 84.0
230.634033 116.0
230.658203 84.0
230.996902 52.0
231.529633 180.0
232.090256 84.0
232.317734 124.0
232.508896 132.0
232.657639 140.0
232.736588 128.0
232.952225 80.0
233.043365 148.0
233.240906 268.0
233.487198 108.0
233.706238 120.0
233.834045 124.0
233.986252 132.0
234.217697 152.0
234.427933 64.0
234.595581 220.0
234.912735 60.0
235.019516 156.0
235.080551 56.0
235.341599 124.0
235.398331 84.0
235.425522 236.0
235.459122 100.0
235.532425 72.0
235.617966 104.0
235.697418 172.0
235.75853 228.0
235.795212 140.0
235.899139 124.0
236.125412 192.0
236.174347 128.0
236.217178 140.0
236.247772 176.0
236.327316 152.0
236.673203 180.0
236.78186 108.0
236.829391 152.0
236.902908 108.0
237.160324 156.0
237.200165 144.0
237.298279 136.0
237.335068 68.0
237.393341 40.0
237.424973 88.0
237.525223 176.0
237.60498 72.0
237.967163 128.0
238.010147 152.0
238.037781 44.0
238.070511 176.0
238.1129 356.0
238.159149 224.0
238.182129 136.0
238.206711 184.0
238.23436 92.0
238.286591 236.0
238.369553 120.0
238.401306 232.0
238.448013 340.0
238.482147 44.0
238.515701 152.0
238.618256 208.0
238.664017 328.0
238.763062 176.0
238.784592 172.0
238.833008 200.0
238.861496 168.0
238.881378 144.0
238.904495 192.0
238.952652 196.0
238.993744 328.0
239.032364 348.0
239.061768 444.0
239.117661 140248.0
239.223618 164.0
239.251251 80.0
239.263321 80.0
239.30159 108.0
239.337906 168.0
239.366257 116.0
239.405838 136.0
239.459122 52.0
239.507233 196.0
239.541534 44.0
239.568405 104.0
239.592758 52.0
239.624023 1292.0
239.670822 156.0
239.721634 100.0
239.770157 76.0
239.804321 76.0
239.84877 80.0
239.879074 72.0
239.913788 104.0
239.950729 112.0
239.986053 120.0
240.008926 164.0
240.120529 20312.0
240.181503 116.0
240.22319 76.0
240.256454 88.0
240.276718 84.0
240.312378 128.0
240.317459 84.0
240.364716 80.0
240.407928 88.0
240.421844 48.0
240.457336 132.0
240.558548 68.0
240.620483 100.0
240.642288 160.0
240.682983 64.0
240.707687 56.0
240.738907 192.0
240.762207 104.0
240.80249 92.0
240.829742 92.0
240.887314 100.0
240.941223 72.0
241.044403 40.0
241.122101 2092.0
241.172134 44.0
241.242203 44.0
241.270035 80.0
241.359161 100.0
241.39769 168.0
241.423264 108.0
241.487091 104.0
241.527176 108.0
241.539566 76.0
241.550522 120.0
241.562988 132.0
241.606873 100.0
241.634995 68.0
241.688202 124.0
241.706924 140.0
241.744659 152.0
241.789978 336.0
241.827271 80.0
241.857651 76.0
241.889191 172.0
241.938293 136.0
241.964706 136.0
242.028625 296.0
242.077637 60.0
242.123123 172.0
242.151962 60.0
242.241791 52.0
242.267349 64.0
242.296829 68.0
242.330048 148.0
242.359528 68.0
242.382309 132.0
242.533081 48.0
242.631088 52.0
242.723007 92.0
242.823044 68.0
242.874176 32.0
242.982758 56.0
243.10997 100.0
243.206192 88.0
243.348999 104.0
243.403976 124.0
243.463898 100.0
243.55217 76.0
243.678238 64.0
243.718628 52.0
243.774567 64.0
243.905106 48.0
244.051224 136.0
244.16629 144.0
244.405823 44.0
244.704636 68.0
244.729553 60.0
244.948807 80.0
245.037903 76.0
245.237503 80.0
245.284103 68.0
245.362045 68.0
245.80809 44.0
245.858017 156.0
246.048431 108.0
246.767044 80.0
246.876495 36.0
247.950348 52.0
248.323456 116.0
248.756485 108.0
249.378448 112.0
249.494751 84.0
249.526199 40.0
249.777786 104.0
250.026352 148.0
250.064133 96.0
250.2845 104.0
250.448273 64.0
250.539627 68.0
250.75705 40.0
250.867386 44.0
251.384674 52.0
251.45726 156.0
251.488815 88.0
251.564575 100.0
251.656143 108.0
252.032349 76.0
252.376572 56.0
252.987198 96.0
253.079025 140.0
253.227859 76.0
253.663483 128.0
254.010803 68.0
254.134537 188.0
254.318604 92.0
254.52179 44.0
255.294006 132.0
255.682144 112.0
255.768082 48.0
257.065277 68.0
257.509064 108.0
258.017151 56.0
258.071503 80.0
258.407349 68.0
258.813873 36.0
259.179016 52.0
259.201447 32.0
259.275177 40.0
259.858795 112.0
260.128387 44.0
260.578003 96.0
260.616577 96.0
260.941193 68.0
261.10199 40.0
261.951752 28.0
262.515808 132.0
262.870667 132.0
263.150452 136.0
265.066437 76.0
265.306274 136.0
265.484619 92.0
266.211578 92.0
269.034637 44.0
271.029785 88.0
271.124817 72.0
271.373962 64.0
273.848572 96.0
273.986908 92.0
274.141785 88.0
276.063141 48.0
278.917877 140.0
280.172638 180.0
280.459076 56.0
281.167175 432.0
281.657013 84.0
282.168304 176.0
282.569672 84.0
283.182281 120.0
283.356476 120.0
283.936401 76.0
285.165283 56.0
285.592285 120.0
285.662933 96.0
286.275543 92.0
287.172028 28.0
288.806854 32.0
289.168915 52.0
290.259796 36.0
290.364929 96.0
290.480255 52.0
290.789032 64.0
291.179504 136.0
292.332031 48.0
292.774597 68.0
293.514099 128.0
294.305756 124.0
294.9664 76.0
295.382324 76.0
296.022369 92.0
296.215088 136.0
296.54657 64.0
297.520782 92.0
297.682526 112.0
298.802734 52.0
299.460266 84.0
299.884064 112.0
299.918518 48.0
300.063324 52.0
300.352997 92.0
302.758667 68.0
303.157074 120.0
303.226379 64.0
304.020599 96.0
304.315674 88.0
304.742889 72.0
305.504303 76.0
305.921936 92.0
306.413818 156.0
307.298584 68.0
307.410248 96.0
308.192474 72.0
308.636383 116.0
308.846222 92.0
308.954681 108.0
309.763367 92.0
310.334656 92.0
311.292603 36.0
311.626312 72.0
313.283447 92.0
313.526581 112.0
314.175385 28.0
314.81073 48.0
314.877838 60.0
318.085876 116.0
320.012817 104.0
320.686127 72.0
321.663513 104.0
323.354218 52.0
324.020294 104.0
324.228119 92.0
325.424713 92.0
327.537354 144.0
327.782349 100.0
328.561188 40.0
330.421844 48.0
333.064667 124.0
333.729736 44.0
334.293579 72.0
334.555664 48.0
334.897949 148.0
335.309692 80.0
335.608612 88.0
335.907684 60.0
338.158569 56.0
339.066925 32.0
339.246521 48.0
339.294189 36.0
339.774628 64.0
340.234253 188.0
341.379822 92.0
341.887512 80.0
343.398102 136.0
343.508759 140.0
344.668091 40.0
345.034027 56.0
345.159729 88.0
346.381104 80.0
348.120636 56.0
348.625885 68.0
348.81543 60.0
348.934418 88.0
349.403046 52.0
349.994843 108.0
350.214569 68.0
350.520081 120.0
350.572266 104.0
350.881653 104.0
351.459778 112.0
352.374573 36.0
354.203979 40.0
355.628906 108.0
356.789673 64.0
357.18454 48.0
358.400604 76.0
359.022614 44.0
359.403625 120.0
359.799957 80.0
360.668823 36.0
361.099213 68.0
361.376038 84.0
361.799927 48.0
362.906281 92.0
364.139648 80.0
365.831787 156.0
366.121155 84.0
366.290894 108.0
366.673615 84.0
366.944244 148.0
367.321808 56.0
367.627075 52.0
367.730103 80.0
368.169189 68.0
369.771118 88.0
370.100342 56.0
371.806274 76.0
371.860016 80.0
373.02005 100.0
373.977661 68.0
375.226044 76.0
375.754425 56.0
376.487854 52.0
377.802094 76.0
378.266479 32.0
379.29303 80.0
379.738953 96.0
380.755829 84.0
380.996674 104.0
381.536896 156.0
382.190308 44.0
382.770325 92.0
382.84433 76.0
385.880219 56.0
387.245972 148.0
390.519501 104.0
390.979828 68.0
391.515259 44.0
391.798889 76.0
392.110168 104.0
392.275726 92.0
392.859375 36.0
392.918579 84.0
393.025116 108.0
395.539978 96.0
397.627625 44.0
397.707001 60.0
397.988861 88.0
399.403717 72.0
400.89679 52.0
401.841858 88.0
401.953583 76.0
403.243561 72.0
403.323486 44.0
403.49939 88.0
403.923309 68.0
404.919983 60.0
405.697388 72.0
407.60791 80.0
407.961609 96.0
408.593048 96.0
411.091309 56.0
411.470734 132.0
411.636292 76.0
414.39502 80.0
414.792175 40.0
415.911774 84.0
417.943848 120.0
418.607361 56.0
418.872101 92.0
419.785095 72.0
420.907318 48.0
422.047363 100.0
422.550476 88.0
422.583221 80.0
422.640503 88.0
425.600006 104.0
425.714996 116.0
426.018951 48.0
426.187408 80.0
426.29834 52.0
427.042511 116.0
427.330475 52.0
428.232025 64.0
429.208771 60.0
429.815857 92.0
429.889435 76.0
432.191132 60.0
437.333191 84.0
437.512177 52.0
437.986908 84.0
439.283356 56.0
441.137543 80.0
441.89035 32.0
442.007507 60.0
443.154846 84.0
444.706512 68.0
450.044678 76.0
450.091125 60.0
450.89801 64.0
451.688721 52.0
451.752167 44.0
452.132996 84.0
453.462921 48.0
454.005585 44.0
454.391602 40.0
456.821747 88.0
456.940857 92.0
460.761047 120.0
460.927673 64.0
462.44165 100.0
462.552917 64.0
464.472687 32.0
465.219391 64.0
465.691742 40.0
467.971008 96.0
468.780853 44.0
470.057312 64.0
471.754791 56.0
472.433746 80.0
472.658752 52.0
478.544739 72.0
479.307007 28.0
482.287842 76.0
482.746918 52.0
485.742828 104.0
486.629364 72.0
490.606689 44.0
491.925751 88.0
493.467651 36.0
493.507446 52.0
494.246155 100.0
494.666626 84.0
495.995575 48.0
497.801361 76.0
500.050964 56.0
500.286896 100.0
501.694702 52.0
506.901947 72.0
507.036377 40.0
510.105865 72.0
510.45282 52.0
514.047668 60.0
514.336548 76.0
514.395203 44.0
517.677795 68.0
517.795593 56.0
523.33136 60.0
523.85968 60.0
526.994019 32.0
527.149414 96.0
530.412781 84.0
531.683289 60.0
532.316833 68.0
534.238892 72.0
534.380798 72.0
534.601624 52.0
535.098816 68.0
538.612976 72.0
538.737671 112.0
539.837769 48.0
540.300354 68.0
541.476135 52.0
542.231323 64.0
542.361084 52.0
543.418457 84.0
543.743347 92.0
544.35614 68.0
550.559387 76.0
558.217041 36.0
558.268738 112.0
558.743835 44.0
560.881897 72.0
561.221313 72.0
563.000427 84.0
563.907532 48.0
565.903931 56.0
566.514893 52.0
567.25415 108.0
567.837402 96.0
576.669739 144.0
577.951416 72.0
581.185791 76.0
583.938538 104.0
585.632812 36.0
589.352417 52.0
591.214172 68.0
591.291626 64.0
592.085632 108.0
593.049805 124.0
594.301025 60.0
594.451477 72.0
594.490295 112.0
595.41272 88.0
596.321289 64.0
600.142883 116.0
601.294189 80.0
602.705505 56.0
603.160034 76.0
604.368042 160.0
609.86084 104.0
611.803955 56.0
612.079712 40.0
613.188171 36.0
614.110168 124.0
614.189087 36.0
615.324158 104.0
617.023743 116.0
617.127625 52.0
617.89917 88.0
618.161438 72.0
618.260437 32.0
621.069763 76.0
622.072144 112.0
623.661743 72.0
626.239197 124.0
627.021423 64.0
629.261292 96.0
637.375793 56.0
638.190125 104.0
645.582764 60.0
647.647827 108.0
648.848877 64.0
650.974915 32.0
651.249207 56.0
652.829834 36.0
653.684509 56.0
653.750671 56.0
657.236267 68.0
663.25592 32.0
663.625 88.0
682.399353 76.0
683.507324 92.0
686.215881 52.0
688.976868 92.0
690.346375 68.0
695.438965 48.0
695.501953 48.0
698.11322 88.0
701.825745 84.0
703.899536 104.0
705.289062 152.0
706.949829 52.0
709.741577 68.0
710.234802 112.0
718.213745 48.0
722.636841 56.0
727.170898 40.0
730.088318 80.0
730.916748 56.0
731.84259 96.0
732.28418 180.0
732.914551 96.0
742.363892 80.0
744.116577 76.0
749.664978 48.0
752.266724 68.0
757.960449 56.0
760.620483 100.0
760.997009 232.0
763.03772 84.0
763.857178 216.0
765.414795 100.0
766.163879 72.0
768.998291 60.0
771.649963 116.0
776.262512 76.0
777.094543 148.0
777.211121 64.0
778.660034 168.0
780.015808 92.0
781.617615 76.0
782.346802 28.0
783.087402 52.0
783.895203 44.0
784.190613 48.0
784.413574 144.0
789.215027 40.0
793.565735 88.0
795.265564 68.0
796.135803 48.0
797.304382 76.0
807.192688 88.0
821.089661 104.0
821.2323 48.0
821.620178 48.0
823.623962 108.0
835.047729 84.0
842.07959 76.0
842.668823 40.0
855.398987 60.0
860.062439 76.0
860.897339 48.0
867.362671 112.0
870.354858 64.0
874.375977 108.0
874.852783 68.0
877.315369 92.0
878.022949 76.0
878.713135 120.0
879.043579 48.0
883.33313 44.0
887.395935 108.0
887.561951 32.0
887.656799 72.0
887.8703 68.0
895.704346 128.0
896.163086 40.0
903.076294 56.0
903.303589 108.0
908.473572 68.0
922.215454 80.0
930.952148 156.0
931.067505 32.0
931.261902 140.0
931.790405 76.0
935.512451 196.0
937.546936 76.0
941.891235 80.0
943.480103 92.0
951.08252 116.0
956.196472 48.0
957.606445 124.0
958.937317 80.0
959.689453 96.0
960.744141 116.0
961.231567 80.0
961.3797 84.0
967.901611 92.0
968.031616 40.0
968.421814 76.0
972.359009 156.0
973.631775 164.0
973.780884 84.0
975.004822 144.0
978.837097 160.0
980.107849 56.0
982.583252 372.0
988.544373 224.0
989.239136 136.0
990.416443 176.0
998.739868 112.0
998.897156 84.0
1003.671204 60.0
1010.252563 96.0
1018.195068 164.0
1018.468201 80.0
1025.333618 92.0
1025.442017 144.0
1026.015625 116.0
1026.774536 160.0
1029.672119 180.0
1030.624023 96.0
1035.428345 64.0
1043.121826 68.0
1043.456177 52.0
1045.96521 104.0
1046.731323 100.0
1047.678223 28.0
1048.213013 96.0
1048.457886 84.0
1049.695679 84.0
1050.366455 64.0
1050.701904 80.0
1051.792603 52.0
1061.134399 160.0
1062.937744 76.0
1063.995728 68.0
1065.703979 96.0
1067.042847 44.0
1067.920776 116.0
1072.811279 84.0
1073.391479 200.0
1074.037231 64.0
1075.146362 160.0
1076.393311 148.0
1077.62793 136.0
1079.765503 108.0
1082.357056 208.0
1082.599365 68.0
1083.726074 76.0
1086.440552 92.0
1089.414551 124.0
1091.484863 164.0
1092.07019 104.0
1092.734741 48.0
1094.413086 68.0
1095.895142 40.0
1098.400513 60.0
1098.908447 48.0
1100.334106 160.0
1100.948242 124.0
1102.817993 132.0
1103.889038 196.0
1104.087524 68.0
1104.907715 112.0
1106.376953 84.0
1106.953125 164.0
1107.463013 192.0
1109.126221 60.0
1110.008057 184.0
1111.129028 172.0
1111.77356 184.0
1113.140259 96.0
1114.581787 88.0
1114.734619 140.0
1117.017456 116.0
1117.347778 152.0
1117.660522 180.0
1118.286133 172.0
1120.310547 236.0
1120.703613 152.0
1121.390015 160.0
1121.803345 156.0
1122.870239 148.0
1124.264648 196.0
1126.775391 68.0
1127.17627 188.0
1127.891357 36.0
1131.644531 152.0
1132.233887 72.0
1133.761475 128.0
1137.007446 68.0
1137.692139 96.0
1137.893555 40.0
1139.122559 128.0
1139.189819 28.0
1139.98938 248.0
1141.333862 88.0
1143.302612 72.0
1143.547241 104.0
1143.901001 64.0
1144.254028 204.0
1145.331543 152.0
1146.665771 180.0
1147.90625 108.0
1148.034302 152.0
1148.290649 180.0
1149.241821 120.0
1150.092163 120.0
1152.624878 220.0
1153.02356 120.0
1155.735352 36.0
1156.527222 168.0
1156.574585 208.0
1156.716797 120.0
1157.224487 188.0
1161.019409 160.0
1161.351685 168.0
1162.932739 232.0
1163.686279 132.0
1163.9375 88.0
1163.984985 220.0
1165.363892 108.0
1168.702515 52.0
1169.199341 156.0
1170.336182 100.0
1170.949097 176.0
1172.802368 152.0
1173.777344 140.0
1175.544189 168.0
1177.510498 132.0
1178.371216 204.0
1178.712891 160.0
1179.040894 228.0
1179.546631 160.0
1184.64502 236.0
1185.802979 88.0
1186.481689 176.0
1187.599487 132.0
1187.736694 196.0
1188.319824 116.0
1190.152466 272.0
1190.413452 132.0
1190.502686 160.0
1191.347534 152.0
1193.540161 192.0
1195.776001 176.0
1196.313965 132.0
1196.787964 164.0
1197.187378 92.0
1198.620239 60.0
1198.785645 164.0
1201.668091 212.0
1201.750854 184.0
1201.895752 176.0
1202.082031 72.0
1202.496216 132.0
1203.365967 112.0
1203.918457 200.0
1204.31897 56.0
1204.802612 140.0
1204.933838 224.0
1205.528076 192.0
1205.804565 176.0
1207.526123 196.0
1207.595337 192.0
1207.747559 192.0
1207.795898 140.0
1211.402588 108.0
1212.490479 152.0
1212.920166 88.0
1214.022583 80.0
1215.639038 104.0
1215.895874 168.0
1217.089844 172.0
1217.506592 240.0
1218.895996 48.0
1219.757812 148.0
1220.293091 196.0
1222.379883 180.0
1222.456421 92.0
1223.166382 48.0
1224.266479 52.0
1224.614746 192.0
1225.374146 52.0
1225.729492 108.0
1227.34668 164.0
1227.402466 144.0
1230.214355 136.0
1230.263184 88.0
1231.268677 128.0
1231.659912 132.0
1232.540161 196.0
1234.399658 148.0
1235.155029 40.0
1236.575439 160.0
1237.393677 164.0
1237.814575 200.0
1238.02478 128.0
1240.379028 196.0
1240.582275 156.0
1240.925781 144.0
1241.374634 32.0
1243.058228 168.0
1244.054932 64.0
1244.588501 56.0
1245.009888 96.0
1245.473511 56.0
1246.89978 156.0
1248.48877 176.0
1251.430176 236.0
1251.521729 224.0
1251.725952 156.0
1252.078613 184.0
1253.839478 140.0
1254.255371 236.0
1254.318726 136.0
1255.023804 92.0
1255.954712 140.0
1256.116943 136.0
1256.723755 184.0
1258.989746 80.0
1260.183594 160.0
1260.946777 72.0
1261.130615 156.0
1261.505249 208.0
1261.964844 188.0
1262.056763 168.0
1262.290039 188.0
1263.400513 112.0
1264.525757 108.0
1265.247803 44.0
1266.281616 100.0
1266.373657 208.0
1267.138794 128.0
1268.676758 160.0
1269.258179 176.0
1269.56311 136.0
1269.818481 184.0
1270.513672 172.0
1271.138062 200.0
1271.613525 128.0
1271.677368 172.0
1272.323364 128.0
1273.594604 164.0
1273.821899 96.0
1273.885864 108.0
1274.596313 184.0
1274.674438 92.0
1275.413696 188.0
1275.807617 160.0
1276.352173 152.0
1276.416138 164.0
1277.226929 160.0
1278.158936 48.0
1278.692749 132.0
1279.959961 232.0
1280.173584 152.0
1280.408569 180.0
1281.826294 196.0
1282.082886 108.0
1283.444458 224.0
1283.772461 152.0
1283.879395 128.0
1285.55603 136.0
1286.726685 120.0
1287.055054 204.0
1287.112183 212.0
1287.162231 120.0
1287.840698 180.0
1288.040649 160.0
1288.558105 140.0
1289.226807 240.0
1290.020142 144.0
1290.878174 136.0
1291.364502 180.0
1292.874146 224.0
1293.046021 124.0
1294.234375 140.0
1294.685547 220.0
1295.201172 140.0
1295.35498 204.0
1297.394043 136.0
1297.530273 168.0
1298.591675 196.0
1298.74939 184.0
1299.603149 132.0
1299.926147 124.0
1301.038696 220.0
1301.088867 248.0
1301.210938 104.0
1301.469482 48.0
1301.692017 236.0
1305.450562 216.0
1305.846069 120.0
1306.630249 164.0
1306.812012 216.0
1306.839844 252.0
1307.241821 28.0
1307.320923 188.0
1307.975952 160.0
1308.811157 176.0
1308.926392 212.0
1309.545776 204.0
1310.453491 208.0
1310.864136 148.0
1312.392334 52.0
1312.731323 100.0
1312.789062 104.0
1313.03418 152.0
1313.661743 140.0
1314.823486 236.0
1315.213257 140.0
1316.63562 60.0
1317.235229 136.0
1317.300171 76.0
1318.427368 120.0
1318.528564 176.0
1319.620117 168.0
1319.829834 164.0
1319.931152 188.0
1320.025146 160.0
1320.343262 180.0
1321.645508 156.0
1321.978394 128.0
1322.163452 204.0
1323.578247 160.0
1324.157593 180.0
1325.048584 168.0
1327.520386 156.0
1327.738037 160.0
1328.332764 236.0
1328.782593 212.0
1328.956665 176.0
1329.283203 112.0
1329.551758 100.0
1329.965454 132.0
1331.490234 80.0
1331.650024 172.0
1331.896973 104.0
1331.962402 136.0
1332.389648 148.0
1332.478149 112.0
1333.124878 120.0
1333.829956 40.0
1334.346069 196.0
1334.724243 152.0
1335.036865 196.0
1335.268921 212.0
1335.364258 116.0
1335.531494 40.0
1335.793335 180.0
1336.186279 44.0
1336.780396 164.0
1337.241455 196.0
1337.292358 116.0
1337.867432 40.0
1338.952393 120.0
1339.629883 160.0
1340.461182 168.0
1340.941528 188.0
1341.182007 32.0
1341.253784 112.0
1341.356934 60.0
1341.597534 128.0
1341.903809 60.0
1343.420776 104.0
1343.661499 64.0
1344.113892 204.0
1344.369385 56.0
1344.668579 120.0
1344.960571 196.0
1345.500732 164.0
1346.128784 124.0
1346.276855 180.0
1346.683838 72.0
1346.734985 224.0
1346.859131 132.0
1347.304688 216.0
1347.911255 92.0
1348.006226 108.0
1348.751709 152.0
1350.426147 52.0
1351.59668 232.0
1352.642212 136.0
1352.66687 116.0
1352.682007 160.0
1353.294922 116.0
1353.624512 132.0
1353.748901 164.0
1353.818115 196.0
1353.953979 176.0
1354.518066 164.0
1355.397217 176.0
1355.62439 76.0
1356.709229 192.0
1356.863159 200.0
1357.090454 140.0
1357.229736 216.0
1357.457153 196.0
1357.757812 104.0
1357.889771 148.0
1358.146484 112.0
1358.762817 124.0
1359.070923 220.0
1359.51123 184.0
1360.707764 120.0
1360.920654 152.0
1361.361328 76.0
1361.618286 124.0
1362.477783 52.0
1362.580688 164.0
1362.852539 208.0
1363.271362 160.0
1363.910767 164.0
1364.462158 56.0
1364.991577 160.0
1365.388794 92.0
1365.778564 92.0
1365.911011 76.0
1366.058105 184.0
1366.234619 100.0
1367.169189 188.0
1367.404663 112.0
1368.133423 76.0
1368.258667 152.0
1368.803467 124.0
1368.936035 128.0
1369.186401 60.0
1369.341064 216.0
1369.43689 168.0
1369.584229 84.0
1369.635742 36.0
1370.107178 264.0
1370.321533 200.0
1370.431396 176.0
1370.608276 136.0
1372.244629 172.0
1372.46582 172.0
1372.664917 192.0
1373.077881 108.0
1373.476196 164.0
1375.608887 212.0
1376.155273 100.0
1376.361938 188.0
1376.745972 256.0
1377.189087 184.0
1377.920532 196.0
1378.097778 100.0
1378.345947 212.0
1378.489502 140.0
1378.674194 184.0
1378.88855 148.0
1379.265869 172.0
1379.435547 200.0
1379.642578 168.0
1379.746094 196.0
1379.982666 124.0
1380.100952 216.0
1380.759155 176.0
1381.232544 220.0
1381.40271 176.0
1381.454468 188.0
1383.563721 144.0
1384.555908 40.0
1384.911499 140.0
1385.037354 60.0
1385.126221 212.0
1385.563354 160.0
1387.089966 164.0
1387.216064 136.0
1387.727661 168.0
1388.246704 156.0
1388.424683 216.0
1388.521118 112.0
1388.877075 88.0
1388.973511 148.0
1389.240601 220.0
1389.530029 64.0
1389.619019 172.0
1389.737793 140.0
1390.108765 160.0
1390.672852 140.0
1392.142822 48.0
1392.439941 108.0
1392.595947 136.0
1392.670166 48.0
1393.25708 184.0
1393.606323 160.0
1393.821777 160.0
1394.542725 80.0
1395.010986 188.0
1395.083252 184.0
1395.561157 192.0
1395.925537 172.0
1396.200684 132.0
1396.37915 216.0
1396.849609 184.0
1396.996582 160.0
1397.190063 72.0
1398.633789 132.0
1398.782593 164.0
1398.871948 96.0
1399.609131 192.0
1399.698486 180.0
1400.666626 168.0
1400.770996 84.0
1401.851318 124.0
1401.978027 60.0
1402.134521 180.0
1402.65625 112.0
1403.976074 80.0
1404.751831 144.0
1405.012939 140.0
1405.557617 160.0
1405.632202 204.0
1407.035645 164.0
1407.102661 156.0
1407.212646 160.0
1407.730835 156.0
1408.377441 168.0
1408.551514 168.0
1410.845825 160.0
1411.15979 152.0
1411.51123 44.0
1411.630859 116.0
1411.713135 36.0
1411.810425 96.0
1411.945068 184.0
1412.378784 144.0
1412.51355 196.0
1413.635864 208.0
1413.882812 168.0
1414.30188 208.0
1414.466553 76.0
1414.593872 224.0
1414.736084 112.0
1414.788574 196.0
1414.92334 112.0
1415.088013 80.0
1415.732056 208.0
1416.188843 200.0
1416.51355 144.0
1417.800415 144.0
1418.556763 148.0
1418.83313 132.0
1419.531494 160.0
1419.854004 148.0
1421.737183 176.0
1422.217529 208.0
1422.427734 136.0
1423.306152 128.0
1423.456299 192.0
1423.726685 52.0
1423.884399 72.0
1423.982056 176.0
1424.244995 212.0
1424.605347 152.0
1424.77832 208.0
1425.702637 52.0
1426.341431 52.0
1426.79248 152.0
1427.544434 168.0
1427.755005 56.0
1427.988159 136.0
1428.116089 104.0
1428.221436 144.0
1428.6427 176.0
1428.86084 168.0
1429.116699 60.0
1429.402588 60.0
1429.80896 160.0
1429.982056 144.0
1430.16272 36.0
1430.245605 176.0
1431.218262 212.0
1431.445435 176.0
1431.856934 168.0
1432.0979 236.0
1432.323853 96.0
1432.489624 124.0
1432.57251 68.0
1432.881348 176.0
1433.42395 160.0
1433.619873 92.0
1434.690186 124.0
1436.734009 160.0
1437.367798 144.0
1437.428223 48.0
1437.564087 128.0
1438.424438 120.0
1438.605713 148.0
1438.953003 188.0
1439.01416 180.0
1439.104004 172.0
1440.325073 76.0
1440.493652 192.0
1440.667358 32.0
1441.211426 60.0
1441.374023 148.0
1441.657227 100.0
1441.763062 244.0
1442.083252 112.0
1442.397949 260.0
1442.549194 176.0
1443.471558 168.0
1443.562378 88.0
1444.016113 148.0
1444.106934 96.0
1444.718262 152.0
1444.870972 160.0
1445.113037 204.0
1445.249268 60.0
1446.831177 104.0
1447.134033 140.0
1447.739868 184.0
1447.82312 196.0
1448.186646 156.0
1448.777588 128.0
1449.262451 176.0
1449.906616 112.0
1450.52063 156.0
1450.854126 136.0
1451.657837 92.0
1451.877808 192.0
1453.061157 180.0
1453.425415 152.0
1453.622681 204.0
1453.774536 104.0
1453.938354 276.0
1455.106323 152.0
1455.793945 108.0
1456.203979 124.0
1456.257202 236.0
1456.454712 180.0
1456.598999 172.0
1457.297974 196.0
1457.592163 72.0
1458.255493 152.0
1458.62793 184.0
1458.878784 240.0
1459.038452 136.0
1459.365479 164.0
1459.547974 140.0
1459.641479 220.0
1460.224731 204.0
1460.780029 160.0
1461.084351 180.0
1461.168091 116.0
1461.472412 132.0
1461.928955 256.0
1461.9823 192.0
1462.134521 184.0
1462.30957 252.0
1462.408447 184.0
1462.667358 92.0
1463.32959 220.0
1463.611328 212.0
1463.801758 116.0
1464.258667 200.0
1464.388184 136.0
1464.784302 128.0
1464.967163 120.0
1465.530884 228.0
1465.637573 124.0
1466.292969 108.0
1466.613159 164.0
1467.009521 188.0
1467.093384 120.0
1467.238281 208.0
1467.871094 164.0
1468.572754 156.0
1468.900757 148.0
1469.23645 224.0
1469.309326 176.0
1469.389038 220.0
1469.556885 116.0
1469.854492 168.0
1471.014648 156.0
1471.42688 48.0
1471.640747 88.0
1471.778076 156.0
1472.228638 224.0
1472.85498 152.0
1472.908447 180.0
1473.206665 200.0
1473.458496 144.0
1473.554199 144.0
1473.695435 176.0
1474.360229 188.0
1474.956421 140.0
1475.155151 60.0
1475.873901 156.0
1475.965576 68.0
1476.921631 216.0
1477.663696 48.0
1477.908569 156.0
1478.069214 140.0
1478.291138 148.0
1478.344727 204.0
1478.398315 180.0
1478.773193 216.0
1479.263184 160.0
1479.569458 152.0
1479.692017 156.0
1479.806763 128.0
1480.174316 136.0
1480.61853 108.0
1481.062744 128.0
1481.399902 132.0
1482.012817 200.0
1482.27478 180.0
1482.357666 108.0
1482.570679 168.0
1483.208374 144.0
1483.262085 156.0
1483.361694 120.0
1483.438354 224.0
1483.583984 112.0
1483.744995 172.0
1484.159058 184.0
1484.964355 128.0
1485.424561 132.0
1486.061279 144.0
1486.245483 120.0
1486.567749 64.0
1486.705933 148.0
1486.951538 148.0
1487.000977 104.0
1487.427368 136.0
1487.588623 212.0
1487.665405 172.0
1487.719116 132.0
1487.82666 180.0
1487.99353 132.0
1488.410156 64.0
1488.494629 188.0
1488.763428 132.0
1488.878662 212.0
1489.178223 124.0
1489.500732 80.0
1489.67749 108.0
1490.215332 144.0
1490.576416 152.0
1490.71582 120.0
1490.945312 92.0
1491.529419 88.0
1492.598145 168.0
1492.890381 140.0
1493.605713 88.0
1494.005737 140.0
1494.082642 160.0
1494.151855 112.0
1494.559692 192.0
1495.10498 140.0
1495.467773 136.0
1495.875854 104.0
1495.952759 180.0
1496.037476 132.0
1496.922974 196.0
1497.546753 164.0
1497.693115 84.0
1499.434448 156.0
1499.781372 120.0
1499.989502 128.0
1500.251587 36.0
1500.822144 248.0
1500.945557 64.0
1501.038086 52.0
1501.215454 136.0
1501.369629 64.0
1501.469971 176.0
1501.932739 88.0
1502.904785 44.0
1503.151733 128.0
1503.406372 76.0
1503.838623 152.0
1503.988647 84.0
1504.595215 136.0
1504.703247 160.0
1504.834473 96.0
1505.282349 124.0
