>compound MLS001143609-01!
>formula C26H30O8
>ionization [M+H]+
>parentmass 471.202
#inchi InChI=1S/C26H30O8/c1-22(2)15-9-16(27)24(4)14(25(15)12-31-18(28)10-17(25)33-22)5-7-23(3)19(13-6-8-30-11-13)32-21(29)20-26(23,24)34-20/h6,8,11,14-15,17,19-20H,5,7,9-10,12H2,1-4H3/t14-,15-,17-,19-,20+,23-,24-,25?,26+/m0/s1
#inchikey KBDSLGBFQAGHBE
#Ion_Source LC-ESI
#Instrument qTof
#Compound_Source NIH Natural Product Library
#PI Dorrestein
#Data_Collector VVP/LMS
#Scan -1
#Precursor_MZ 471.202
#ExactMass 470.194
#Charge 1
#CAS_Number N/A
#Pubmed_ID N/A
#Smiles CC1(C)O[C@H]2CC(=O)OCC23[C@H]1CC(=O)[C@]4(C)[C@@H]3CC[C@@]5(C)[C@@H](OC(=O)[C@H]6O[C@]654)c7ccoc7
#INCHI_AUX N/A
#Library_Class 3
#SpectrumID CCMSLIB00000079920
#IonMode Positive
#UpdateWorkflowName UPDATE-SINGLE-ANNOTATED-BRONZE
#LibraryQualityString Bronze
#TaskID b1d8e8f6646f4e71acdff9ca3d919d08
##Scan# 2020
#SpectrumFile p1-G12_GG12_01_17956.mzXML
#LibraryName NIH_Natural_Products_Library.mgf
#MQScore -1
#Organism NIH_Natural_Products_Library
#TIC_Query 0
#RT_Query -1
#MZErrorPPM -1
#SharedPeaks 0
#MassDiff 0
#LibMZ -1
#SpecMZ 471.202
#SpecCharge 0
#internalFilename spec-00000.mgf

>collision 10
95.012802 964.0
95.038376 172.0
95.086891 204.0
96.019249 196.0
96.08123 32.0
96.137817 108.0
96.598923 100.0
97.029762 188.0
97.220024 108.0
99.045753 196.0
100.052559 176.0
100.27964 204.0
100.714607 180.0
101.168533 168.0
101.639526 164.0
103.536476 284.0
104.201805 164.0
105.034424 184.0
105.07032 1140.0
105.275261 144.0
106.068802 300.0
107.022354 40.0
107.049118 152.0
107.0867 388.0
107.298439 124.0
108.084442 152.0
108.881409 176.0
109.064178 316.0
110.758568 52.0
110.957649 124.0
111.039429 236.0
111.079277 132.0
113.59166 196.0
114.043938 188.0
115.05481 336.0
115.359131 72.0
117.065926 160.0
117.459274 208.0
118.746246 64.0
119.086906 448.0
120.053307 124.0
120.090385 152.0
120.160187 204.0
120.293312 28.0
121.063499 484.0
121.095787 164.0
121.165878 56.0
121.564941 140.0
121.84819 148.0
122.028412 164.0
122.067993 168.0
122.365036 120.0
123.041878 152.0
123.080406 328.0
123.168762 76.0
124.509964 160.0
125.094742 112.0
126.060486 228.0
126.44738 164.0
126.628731 36.0
127.474503 216.0
128.059784 360.0
128.517059 148.0
129.0681 404.0
129.088547 216.0
129.346466 72.0
130.071823 124.0
130.205795 180.0
131.049728 192.0
131.083496 576.0
131.106705 48.0
132.058746 176.0
132.081619 180.0
132.106781 336.0
132.807724 120.0
133.038788 160.0
133.064651 1072.0
133.101288 344.0
134.065887 164.0
134.102203 276.0
135.076599 156.0
135.115936 60.0
136.084717 200.0
136.598328 240.0
136.912537 176.0
137.061356 204.0
137.099106 196.0
137.85968 156.0
138.101654 208.0
139.11644 212.0
139.288605 172.0
140.510666 164.0
140.647537 148.0
141.066818 212.0
141.089279 100.0
141.172043 160.0
142.082245 260.0
142.960739 112.0
143.048798 216.0
143.084488 648.0
144.095734 212.0
144.447159 144.0
144.902008 128.0
145.062378 312.0
145.102356 248.0
145.134506 120.0
145.362381 132.0
146.067719 348.0
146.115128 168.0
146.972183 108.0
147.044571 160.0
147.078354 324.0
147.115524 316.0
149.06189 352.0
149.096985 400.0
149.53125 160.0
150.103745 132.0
152.060852 208.0
153.068298 160.0
153.766449 160.0
154.073761 164.0
154.094879 208.0
154.267868 44.0
155.085663 308.0
155.302917 108.0
156.088959 208.0
156.231003 52.0
157.066086 208.0
157.100754 440.0
157.181229 36.0
157.213669 92.0
158.069046 108.0
158.108337 156.0
158.163406 88.0
158.388763 40.0
158.423828 136.0
158.676956 172.0
159.044327 224.0
159.081497 460.0
159.112396 336.0
159.138596 36.0
159.736725 68.0
160.048798 48.0
160.081131 172.0
160.116791 132.0
160.202438 164.0
160.225113 200.0
161.059906 3872.0
161.093613 568.0
161.307724 180.0
162.028961 156.0
162.064529 332.0
162.099915 108.0
162.135391 132.0
162.267197 200.0
163.076492 284.0
163.117661 192.0
163.145615 192.0
164.100342 44.0
165.055283 132.0
165.077545 176.0
165.123352 188.0
165.44162 76.0
165.487701 144.0
165.843781 144.0
165.892487 56.0
166.077255 152.0
166.282379 256.0
167.085037 328.0
167.18959 180.0
167.836166 244.0
169.068161 232.0
169.097763 168.0
169.174469 60.0
170.099915 108.0
170.123276 56.0
171.073181 516.0
171.115677 244.0
171.470657 236.0
172.084778 248.0
172.11763 196.0
173.019653 136.0
173.051071 152.0
173.094864 288.0
173.137054 240.0
174.065811 172.0
174.13147 176.0
175.071518 304.0
175.114349 136.0
175.481415 184.0
175.943115 68.0
176.072433 172.0
176.117401 192.0
176.151733 156.0
177.054031 348.0
177.096497 192.0
177.127838 200.0
177.164917 196.0
177.86499 164.0
178.075912 152.0
178.763306 152.0
178.885742 224.0
179.07962 356.0
179.650558 32.0
179.914749 168.0
180.090988 148.0
180.914597 44.0
181.072678 412.0
181.101669 252.0
182.064255 208.0
182.104462 448.0
182.967377 124.0
183.038345 164.0
183.07843 388.0
183.113907 344.0
184.049515 204.0
184.079208 132.0
184.11972 184.0
184.587234 136.0
185.041794 44.0
185.090118 252.0
185.128448 308.0
185.920044 212.0
186.069336 188.0
187.037109 136.0
187.074677 628.0
187.112137 128.0
187.832779 44.0
187.851868 116.0
188.072891 288.0
188.111191 132.0
188.14386 144.0
189.05954 208.0
189.090408 340.0
189.136353 176.0
189.158066 128.0
190.092667 140.0
190.133835 128.0
191.037811 112.0
191.098694 308.0
192.057022 204.0
192.090118 164.0
192.330185 116.0
192.586975 144.0
193.094727 144.0
193.128723 172.0
193.474625 100.0
195.08107 208.0
195.113571 124.0
195.123215 224.0
195.225449 60.0
195.531464 164.0
195.815445 116.0
196.083542 280.0
196.121933 192.0
196.903152 144.0
197.056427 212.0
197.095856 516.0
197.133026 140.0
197.403397 68.0
198.057541 360.0
198.110458 160.0
199.072586 272.0
199.103424 172.0
199.147369 200.0
200.079254 488.0
201.091309 448.0
201.12883 392.0
201.679626 112.0
202.016113 124.0
202.092499 148.0
203.078293 224.0
203.103546 212.0
203.137909 160.0
204.066574 148.0
204.092163 124.0
204.114914 136.0
204.738129 152.0
205.051117 728.0
205.102295 152.0
205.121445 156.0
205.730377 52.0
206.109421 208.0
206.899643 32.0
207.051407 216.0
207.077408 200.0
207.115463 196.0
208.089645 164.0
208.118149 176.0
209.055237 104.0
209.096283 196.0
209.142258 148.0
210.097229 176.0
210.138672 120.0
211.070587 180.0
211.116486 284.0
211.146805 108.0
211.198868 72.0
211.268295 164.0
212.119675 152.0
212.145767 152.0
212.177658 116.0
212.633072 200.0
213.054108 180.0
213.093018 792.0
213.122864 144.0
213.131454 148.0
214.095413 184.0
214.168228 80.0
215.066208 148.0
215.110306 144.0
216.100281 164.0
217.079117 132.0
217.111374 140.0
217.134842 164.0
217.155365 132.0
218.162537 220.0
219.081406 188.0
219.112976 160.0
220.080246 176.0
220.123367 160.0
221.094376 328.0
222.093933 312.0
223.074341 184.0
223.107254 316.0
223.143051 204.0
223.191727 96.0
223.21254 96.0
223.420746 88.0
223.765976 36.0
223.908905 112.0
224.11261 156.0
224.156158 120.0
225.080872 328.0
225.126816 272.0
225.289948 156.0
225.397018 124.0
226.093384 136.0
226.133102 148.0
226.525421 56.0
227.105011 160.0
227.13855 176.0
227.436996 96.0
228.148926 172.0
228.527878 140.0
228.763763 244.0
229.05365 192.0
229.117981 168.0
230.091568 136.0
230.690277 84.0
231.073624 320.0
231.112625 184.0
232.076874 132.0
232.122269 128.0
233.100052 252.0
233.129868 188.0
234.10585 268.0
234.137161 124.0
235.100098 140.0
235.137665 172.0
235.815186 88.0
236.102234 148.0
237.085159 96.0
237.12178 140.0
237.201752 40.0
237.89502 188.0
238.100754 132.0
238.303482 88.0
239.108566 296.0
239.143005 112.0
239.97168 144.0
240.064178 152.0
240.142868 144.0
241.083984 480.0
241.116425 204.0
242.096115 300.0
242.162643 128.0
243.089325 88.0
243.099548 136.0
245.093521 172.0
246.065277 132.0
246.097702 200.0
247.106506 112.0
247.146713 112.0
248.084457 172.0
248.130035 180.0
248.66658 144.0
248.789001 44.0
249.093872 288.0
249.128159 176.0
249.753708 148.0
249.775726 68.0
250.09668 136.0
250.124908 128.0
250.187958 116.0
250.405228 56.0
251.057602 164.0
251.09996 112.0
251.136459 208.0
252.070938 120.0
252.116852 216.0
252.153107 204.0
252.769775 64.0
253.113266 136.0
253.165466 200.0
253.767532 96.0
254.097382 140.0
254.119583 176.0
255.101624 180.0
255.133987 172.0
256.084686 168.0
257.095276 320.0
258.07547 96.0
258.145813 180.0
259.107727 160.0
259.134888 156.0
259.16275 188.0
260.129059 152.0
261.091919 184.0
261.122986 308.0
262.090881 144.0
262.135986 140.0
262.161774 164.0
262.326172 40.0
263.108643 532.0
263.1474 292.0
263.387787 80.0
264.111847 172.0
265.121948 324.0
265.152924 176.0
266.085358 160.0
266.127197 136.0
267.104248 144.0
267.135071 168.0
267.597198 132.0
268.105347 204.0
268.937012 148.0
269.083893 160.0
269.108643 136.0
269.143402 200.0
269.188385 160.0
270.11911 192.0
271.072601 192.0
271.125031 172.0
271.170929 208.0
272.13208 136.0
272.171478 140.0
273.124542 128.0
274.085846 208.0
275.141296 72.0
275.174316 176.0
276.10614 136.0
276.152466 104.0
277.066071 56.0
277.118256 272.0
277.155914 100.0
278.077454 132.0
278.121887 172.0
278.163727 108.0
279.096588 184.0
279.123901 160.0
280.09552 132.0
280.14621 244.0
281.08255 120.0
281.116302 176.0
281.142609 420.0
282.08786 196.0
282.124786 160.0
282.161407 148.0
283.111664 160.0
284.125916 148.0
284.154144 128.0
285.101044 124.0
286.130341 120.0
286.184204 124.0
287.104126 140.0
289.119598 236.0
289.791473 88.0
290.129364 360.0
291.151215 140.0
291.176392 164.0
292.147614 136.0
293.12442 152.0
293.169098 132.0
294.13089 104.0
294.157013 184.0
294.19574 104.0
295.087128 136.0
295.127716 180.0
295.162506 264.0
296.155304 148.0
297.114929 136.0
297.159546 96.0
298.10379 108.0
298.148468 164.0
299.094299 152.0
299.134796 184.0
300.110596 80.0
301.125153 100.0
301.166595 364.0
303.10733 144.0
303.13678 160.0
303.171448 156.0
304.470734 72.0
304.571472 152.0
304.866791 60.0
305.144867 140.0
306.126099 96.0
306.46048 44.0
306.714905 60.0
306.753235 192.0
307.132324 152.0
308.145691 116.0
308.170166 128.0
309.121246 140.0
309.688385 76.0
310.119354 168.0
311.04184 112.0
311.083984 68.0
311.11557 116.0
312.211853 128.0
313.095184 68.0
313.126892 120.0
314.12439 176.0
314.862061 176.0
315.153259 148.0
316.109985 116.0
317.158295 124.0
318.346832 72.0
318.737579 84.0
319.068146 80.0
319.165375 148.0
321.108521 128.0
321.140594 136.0
321.886475 120.0
322.123413 236.0
323.129333 136.0
323.138947 108.0
323.153259 180.0
323.212646 48.0
324.157745 176.0
324.459045 60.0
324.52359 60.0
325.128204 152.0
326.14624 192.0
326.192963 148.0
327.153656 148.0
327.538757 92.0
328.739349 60.0
329.147247 96.0
329.205048 204.0
331.118134 120.0
332.147522 112.0
334.152802 156.0
335.175018 156.0
335.200653 148.0
336.167786 108.0
337.139191 240.0
337.194 160.0
339.158112 148.0
339.198944 340.0
340.153534 112.0
340.199188 140.0
340.362823 48.0
341.130676 124.0
345.171509 164.0
346.159546 204.0
346.978394 140.0
347.160065 160.0
347.338104 52.0
348.13501 140.0
348.173218 80.0
348.630157 104.0
349.161774 268.0
349.196503 144.0
350.185272 100.0
351.228912 64.0
352.117249 132.0
353.16748 116.0
359.034088 88.0
363.198273 156.0
364.200348 120.0
365.172272 476.0
367.140411 212.0
367.18692 284.0
367.978027 168.0
368.180389 124.0
369.109009 140.0
371.176758 128.0
374.974945 120.0
375.165344 152.0
376.170654 160.0
379.195068 132.0
380.176605 140.0
381.14743 144.0
383.201813 136.0
389.166473 64.0
390.164398 116.0
390.195862 44.0
391.184235 100.0
392.148346 172.0
393.154022 136.0
398.84549 60.0
407.182526 240.0
409.186737 120.0
410.210968 164.0
411.17804 104.0
412.187622 84.0
419.909058 140.0
423.116791 68.0
425.071899 152.0
425.19342 1724.0
425.445404 68.0
426.197571 644.0
426.48465 44.0
427.205353 76.0
428.167419 132.0
428.200378 184.0
435.180237 136.0
436.181915 256.0
445.878906 108.0
453.170776 120.0
471.2211 184.0
471.25296 120.0
473.264191 148.0
505.359619 56.0
521.236267 64.0
540.458801 64.0
655.435059 56.0
674.865906 52.0
697.839233 116.0
702.115051 128.0
730.801758 56.0
763.045288 80.0
822.544189 184.0
942.599976 176.0
958.80719 112.0
979.215271 120.0
1035.238281 184.0
1045.587036 92.0
1086.282837 192.0
1087.752686 64.0
1095.611206 160.0
1112.488037 132.0
1122.568115 212.0
1147.788452 192.0
1286.937866 216.0
1303.915405 136.0
1311.487061 180.0
1311.969971 204.0
1320.005981 84.0
1344.224854 188.0
1386.703979 144.0
1401.633911 80.0
1403.139404 52.0
1405.257568 180.0
1407.795532 196.0
1413.162476 116.0
1435.380859 120.0
1437.176025 180.0
1453.398682 172.0
1478.622681 108.0
1479.717285 152.0
1490.432251 60.0
