>compound MLS002695974-01!
>formula C17H11NO7
>ionization [M+H]+
>parentmass 342.061
#inchi InChI=1S/C17H11NO7/c1-23-12-4-2-3-8-9(12)5-11(18(21)22)14-10(17(19)20)6-13-16(15(8)14)25-7-24-13/h2-6H,7H2,1H3,(H,19,20)
#inchikey BBFQZRXNYIEMAW
#Ion_Source LC-ESI
#Instrument qTof
#Compound_Source NIH Natural Product Library
#PI Dorrestein
#Data_Collector VVP/LMS
#Scan -1
#Precursor_MZ 342.061
#ExactMass 341.054
#Charge 1
#CAS_Number N/A
#Pubmed_ID N/A
#Smiles COc1cccc2c1cc([N+](=O)[O-])c3c(cc4OCOc4c23)C(=O)O
#INCHI_AUX N/A
#Library_Class 1
#SpectrumID CCMSLIB00000080275
#IonMode Positive
#UpdateWorkflowName UPDATE-SINGLE-ANNOTATED-GOLD
#LibraryQualityString Gold
#TaskID b1d8e8f6646f4e71acdff9ca3d919d08
##Scan# 2241
#SpectrumFile p2-E06_GE6_01_18030.mzXML
#LibraryName NIH_Natural_Products_Library.mgf
#MQScore -1
#Organism NIH_Natural_Products_Library
#TIC_Query 0
#RT_Query -1
#MZErrorPPM -1
#SharedPeaks 0
#MassDiff 0
#LibMZ -1
#SpecMZ 342.061
#SpecCharge 0
#internalFilename spec-00000.mgf

>collision 10
95.749886 112.0
96.018837 252.0
97.522507 144.0
97.581482 160.0
97.695549 184.0
98.584785 152.0
98.802284 188.0
100.062538 164.0
101.092499 248.0
102.043266 140.0
102.584824 140.0
103.107597 184.0
103.230911 104.0
103.412994 144.0
103.749252 188.0
104.645203 104.0
105.222191 184.0
105.702515 96.0
106.130623 60.0
106.175735 264.0
106.426086 244.0
106.79805 176.0
107.01001 160.0
107.833084 136.0
107.986084 144.0
108.393913 132.0
108.412567 32.0
108.611603 204.0
109.732498 212.0
111.341652 176.0
113.121231 168.0
114.237442 264.0
115.052681 440.0
115.986328 140.0
117.53479 212.0
118.97625 188.0
119.478271 88.0
120.402473 128.0
122.013016 52.0
122.116364 168.0
122.962402 120.0
124.248024 140.0
125.03685 208.0
126.046158 256.0
126.890892 216.0
127.054611 188.0
127.355408 116.0
128.126984 148.0
129.071579 180.0
129.767807 120.0
130.044571 116.0
131.175049 204.0
131.720428 128.0
131.843796 160.0
132.20285 220.0
132.65863 152.0
133.351837 140.0
133.567978 164.0
134.053772 148.0
134.314285 112.0
134.745987 120.0
135.081192 136.0
135.831711 156.0
136.340195 116.0
137.49794 168.0
137.824585 188.0
138.048996 136.0
139.050934 428.0
139.199585 188.0
139.503235 164.0
140.048294 384.0
140.102768 184.0
140.862366 160.0
140.978134 220.0
141.067947 284.0
143.902222 164.0
144.055054 144.0
144.877991 108.0
146.960037 168.0
147.907379 232.0
150.042694 176.0
151.040863 772.0
151.276398 160.0
151.587448 152.0
151.808075 164.0
152.048187 220.0
152.066345 424.0
152.392273 136.0
153.029297 156.0
153.057358 936.0
153.125336 52.0
153.615845 68.0
154.043274 228.0
154.112076 180.0
155.034531 304.0
155.039276 200.0
155.111893 180.0
155.588196 156.0
155.923019 100.0
156.520554 140.0
157.548141 236.0
159.869965 20.0
160.076385 100.0
160.361069 128.0
160.926132 116.0
161.203979 88.0
162.033905 164.0
163.056183 120.0
163.315857 56.0
164.021164 144.0
164.051422 968.0
165.068512 1960.0
165.111404 84.0
165.695023 44.0
165.884659 48.0
166.071487 724.0
167.046448 188.0
167.067612 284.0
167.246063 216.0
167.34903 132.0
168.03978 52.0
168.78624 152.0
169.052429 220.0
169.068848 316.0
170.021896 200.0
170.042664 120.0
170.06601 148.0
170.086777 96.0
170.286713 136.0
170.634918 204.0
171.061569 104.0
171.462677 56.0
171.723404 168.0
172.692383 160.0
175.241394 156.0
176.545364 240.0
176.577103 56.0
177.056137 332.0
177.477463 156.0
178.024094 132.0
179.041412 600.0
179.162506 140.0
179.22644 60.0
179.442337 160.0
180.047974 672.0
180.080109 144.0
180.702957 196.0
181.063766 668.0
181.61377 92.0
181.951889 196.0
182.034012 260.0
182.069489 412.0
183.044983 412.0
183.933197 180.0
184.040451 176.0
185.057816 156.0
185.076767 204.0
186.063614 176.0
187.499893 136.0
188.517822 204.0
188.755646 92.0
190.982544 180.0
191.037567 180.0
192.038818 164.0
192.443115 272.0
192.479004 132.0
192.545288 152.0
193.066162 2948.0
193.122925 64.0
193.297211 64.0
193.579559 164.0
194.031204 128.0
194.067947 1080.0
195.016647 192.0
195.080078 528.0
195.50058 108.0
195.879227 48.0
196.042908 160.0
196.074265 152.0
196.163452 84.0
197.009003 60.0
197.059647 192.0
197.089783 176.0
197.778 184.0
198.069199 140.0
199.059677 196.0
201.041031 208.0
202.777481 172.0
203.09787 100.0
205.070358 104.0
205.307755 168.0
205.578781 152.0
206.064194 112.0
206.387161 100.0
207.044449 504.0
207.58519 156.0
207.681595 180.0
207.825027 76.0
207.998428 132.0
208.049194 236.0
208.224045 84.0
209.056061 288.0
209.221832 196.0
209.365372 136.0
209.593369 132.0
209.812408 28.0
210.002731 124.0
210.022919 136.0
210.069534 152.0
210.3461 156.0
211.040466 332.0
211.080399 124.0
212.00177 116.0
212.249771 216.0
212.760406 148.0
213.051147 180.0
213.082779 124.0
214.071732 88.0
215.632507 112.0
217.633301 108.0
218.088654 188.0
218.294449 196.0
218.974579 160.0
219.050842 144.0
219.513565 116.0
219.770187 132.0
220.040222 512.0
220.11554 104.0
220.30751 60.0
220.461151 80.0
220.784286 184.0
220.969742 28.0
221.058441 1128.0
221.32196 80.0
221.701126 80.0
222.064651 1188.0
222.148834 68.0
223.034897 112.0
223.070221 652.0
223.155609 60.0
223.575027 124.0
224.043869 312.0
224.081223 92.0
224.874435 156.0
225.054443 752.0
225.17598 140.0
225.316376 68.0
225.776703 64.0
227.07048 164.0
227.893005 148.0
228.506348 40.0
229.747574 200.0
229.798874 52.0
230.593063 176.0
231.06781 140.0
235.034988 144.0
236.045013 120.0
237.043488 1628.0
237.106201 140.0
237.501724 60.0
237.627487 68.0
238.001953 96.0
238.053879 372.0
238.410492 52.0
238.570328 60.0
238.613373 240.0
239.022446 180.0
239.068283 152.0
239.992706 120.0
240.026627 244.0
240.079391 108.0
240.909332 84.0
241.029816 44.0
241.75032 140.0
242.499786 116.0
243.778412 120.0
244.637192 180.0
246.992813 136.0
247.058502 196.0
248.35849 208.0
248.728745 160.0
249.526672 200.0
250.050995 556.0
250.543213 32.0
251.060684 1452.0
251.381897 104.0
251.776505 52.0
252.069611 484.0
252.604614 56.0
253.051514 972.0
253.655914 144.0
253.842972 200.0
253.988861 220.0
254.058502 416.0
254.315674 180.0
254.706238 120.0
255.051239 340.0
255.08754 256.0
255.500961 80.0
256.061188 144.0
262.077301 156.0
263.067383 140.0
263.291565 140.0
265.039551 2148.0
265.095337 36.0
265.182831 36.0
265.39679 68.0
266.042389 1136.0
266.656342 72.0
267.053284 176.0
267.244904 40.0
267.602936 68.0
268.056854 444.0
268.07663 136.0
268.629517 208.0
269.707092 76.0
271.05545 132.0
274.272888 132.0
274.671875 200.0
276.188019 180.0
277.151367 52.0
279.026947 204.0
279.08316 240.0
279.991608 152.0
280.023346 144.0
280.05777 304.0
280.978241 140.0
281.044159 2272.0
281.395447 88.0
281.699341 56.0
282.049957 592.0
282.085815 128.0
283.050507 216.0
283.191162 28.0
283.356018 136.0
283.750793 136.0
285.685181 180.0
287.180786 176.0
294.048004 140.0
295.046631 192.0
295.38739 56.0
295.551605 172.0
296.06958 1764.0
296.534424 44.0
297.073029 532.0
297.900085 68.0
298.070343 36.0
298.86615 52.0
299.082947 128.0
299.303284 80.0
309.795868 100.0
312.650452 52.0
321.093018 60.0
324.006226 124.0
324.043945 176.0
327.015381 168.0
327.278168 76.0
350.243347 64.0
356.352356 52.0
357.273438 48.0
359.57193 56.0
362.650604 60.0
369.271698 68.0
389.545441 76.0
399.384155 40.0
432.462891 68.0
445.288025 76.0
463.157928 140.0
470.528656 64.0
478.179474 48.0
509.777252 56.0
513.852173 124.0
515.947693 120.0
572.033142 112.0
591.503479 116.0
595.484192 152.0
634.085083 200.0
657.925415 88.0
789.973206 52.0
1079.827759 236.0
1105.87561 192.0
1109.220459 168.0
1159.89856 168.0
1167.026733 104.0
1200.504272 88.0
1222.366455 136.0
1235.679321 192.0
1294.773926 160.0
1301.36377 184.0
1315.993896 84.0
1321.378296 140.0
1359.839355 120.0
1375.000244 72.0
1406.723633 204.0
1413.045898 188.0
1424.568359 164.0
1448.026367 196.0
1462.139771 176.0
1483.395996 252.0
1488.121704 200.0
