>compound MLS000862199-01!U-99194 maleate
>formula C17H27NO2
>ionization [M+H]+
>parentmass 278.209534
#inchi InChI=1S/C17H27NO2/c1-5-7-18(8-6-2)15-9-13-11-16(19-3)17(20-4)12-14(13)10-15/h11-12,15H,5-10H2,1-4H3
#inchikey UOLJKAPABHXFRE
#origInchi InChI=1S/C17H27NO2.C4H4O4/c1-5-7-18(8-6-2)15-9-13-11-16(19-3)17(20-4)12-14(13)10-15;5-3(6)1-2-4(7)8/h11-12,15H,5-10H2,1-4H3;1-2H,(H,5,6)(H,7,8)/b;2-1-
#Ion_Source LC-ESI
#Instrument qTof
#Compound_Source NIH Pharmacologically Active Library
#PI Dorrestein
#Data_Collector VP/LMS
#Scan -1
#Precursor_MZ 278.216
#ExactMass 277.204
#Charge 1
#CAS_Number N/A
#Pubmed_ID N/A
#Smiles CCCN(CCC)C1Cc2cc(OC)c(OC)cc2C1.OC(=O)/C=C\C(=O)O
#INCHI_AUX N/A
#Library_Class 1
#SpectrumID CCMSLIB00000085772
#IonMode Positive
#UpdateWorkflowName UPDATE-SINGLE-ANNOTATED-GOLD
#LibraryQualityString Gold
#TaskID d252d724072548979f1f6f1ced849daf
##Scan# 1386
#SpectrumFile p4-F04_GF4_01_18388.mzXML
#LibraryName Pharm_Active_Library.mgf
#MQScore -1
#Organism Pharm_Active_Library
#TIC_Query 0
#RT_Query -1
#MZErrorPPM -1
#SharedPeaks 0
#MassDiff 0
#LibMZ -1
#SpecMZ 278.216
#SpecCharge 0
#internalFilename spec-00000.mgf

>collision 10
44.892189 144.0
44.907936 136.0
44.917271 140.0
44.929279 136.0
44.951267 476.0
44.994877 132.0
45.00885 156.0
45.018711 128.0
45.029396 144.0
45.044952 204.0
45.066273 324.0
45.08247 184.0
45.124115 156.0
45.140629 364.0
45.164059 176.0
45.172798 328.0
45.202236 112.0
45.216442 160.0
45.233978 136.0
45.248703 84.0
45.279503 168.0
45.311272 152.0
45.337112 68.0
45.37352 248.0
45.393192 184.0
45.404667 172.0
45.409779 140.0
45.414131 108.0
45.42091 188.0
45.432312 60.0
45.468414 124.0
45.478443 144.0
45.495392 156.0
45.50613 128.0
45.52869 116.0
45.541046 144.0
45.557724 116.0
45.57732 148.0
45.596245 204.0
45.631329 176.0
45.644562 200.0
45.657978 112.0
45.670086 152.0
45.683384 140.0
45.710171 216.0
45.731453 164.0
45.754864 156.0
45.779102 76.0
45.789875 88.0
45.807388 136.0
45.83884 128.0
45.855896 48.0
45.868027 80.0
45.884205 120.0
45.905777 100.0
45.917641 168.0
45.932934 208.0
45.944958 88.0
45.965134 144.0
45.975929 136.0
45.988575 336.0
46.003815 152.0
46.028988 144.0
46.051537 60.0
46.079151 172.0
46.093418 80.0
46.106281 184.0
46.121799 144.0
46.133923 120.0
46.154247 188.0
46.169125 160.0
46.192978 44.0
46.220631 204.0
46.252159 260.0
46.271744 180.0
46.285316 116.0
46.3004 84.0
46.313877 160.0
46.341549 128.0
46.353237 148.0
46.368141 92.0
46.378307 144.0
46.397964 156.0
46.438076 352.0
46.460125 192.0
46.475868 188.0
46.503777 140.0
46.51722 168.0
46.533165 164.0
46.543144 156.0
46.557613 116.0
46.567249 112.0
46.583889 132.0
46.593399 148.0
46.608345 116.0
46.621937 160.0
46.634167 104.0
46.644363 112.0
46.655178 188.0
46.674145 188.0
46.689709 188.0
46.710125 244.0
46.725281 100.0
46.753857 136.0
46.767803 196.0
46.781349 208.0
46.797287 116.0
46.806026 136.0
46.818806 96.0
46.823956 188.0
46.841793 144.0
46.853256 384.0
46.868992 328.0
46.88596 332.0
46.910496 148.0
46.924557 140.0
46.934917 92.0
46.938084 120.0
46.948673 224.0
46.968304 204.0
46.983936 160.0
46.988865 112.0
46.994625 356.0
47.019619 176.0
47.039116 140.0
47.080761 204.0
47.085461 160.0
47.088341 240.0
47.108829 168.0
47.131599 84.0
47.1521 128.0
47.166855 196.0
47.193111 204.0
47.205418 96.0
47.219524 152.0
47.250282 80.0
47.264175 264.0
47.278584 124.0
47.308975 344.0
47.336788 224.0
47.397873 108.0
47.412441 144.0
47.429489 200.0
47.451889 132.0
47.460972 160.0
47.480015 180.0
47.489738 180.0
47.506378 192.0
47.526108 108.0
47.540379 228.0
47.592972 172.0
47.600769 324.0
47.617638 148.0
47.63279 152.0
47.649979 124.0
47.700104 180.0
47.728786 188.0
47.746819 160.0
47.765827 168.0
47.783272 216.0
47.809299 316.0
47.821426 116.0
47.83519 68.0
47.858723 132.0
47.887402 176.0
47.909557 76.0
47.928844 104.0
47.944004 244.0
47.975677 188.0
47.997402 136.0
48.00742 188.0
48.035805 148.0
48.051563 152.0
48.063766 336.0
48.073639 236.0
48.09906 252.0
48.108971 240.0
48.139904 132.0
48.169777 128.0
48.186073 188.0
48.205925 76.0
48.222797 116.0
48.258163 152.0
48.276718 224.0
48.30127 112.0
48.311298 204.0
48.342201 336.0
48.352631 184.0
48.386032 108.0
48.403656 176.0
48.42065 88.0
48.437939 224.0
48.48098 252.0
48.501015 216.0
48.516262 116.0
48.527843 136.0
48.541592 388.0
48.55925 72.0
48.569874 164.0
48.574562 108.0
48.578152 168.0
48.585453 72.0
48.59053 160.0
48.611969 152.0
48.626907 176.0
48.636387 196.0
48.661198 216.0
48.692646 256.0
48.698933 88.0
48.703125 160.0
48.716534 196.0
48.735222 332.0
48.762375 188.0
48.785591 160.0
48.802277 296.0
48.812008 296.0
48.847778 204.0
48.861931 288.0
48.865891 408.0
48.880173 220.0
48.89777 260.0
48.916164 128.0
48.943951 132.0
48.955345 196.0
48.964493 216.0
48.982555 120.0
48.991562 224.0
49.009674 172.0
49.025002 148.0
49.045807 196.0
49.059887 140.0
49.074852 168.0
49.087627 212.0
49.111275 276.0
49.123997 184.0
49.135159 180.0
49.173798 168.0
49.197479 104.0
49.207314 192.0
49.221134 148.0
49.239853 116.0
49.254719 168.0
49.265919 176.0
49.287354 224.0
49.313034 148.0
49.354572 152.0
49.399204 180.0
49.411793 124.0
49.423317 156.0
49.436981 156.0
49.447586 180.0
49.459373 72.0
49.471973 68.0
49.482372 176.0
49.494373 48.0
49.514374 128.0
49.52742 188.0
49.544628 132.0
49.554058 216.0
49.589149 160.0
49.613468 212.0
49.631699 108.0
49.646095 120.0
49.656998 188.0
49.669395 100.0
49.674984 148.0
49.688931 208.0
49.696857 44.0
49.727612 380.0
49.743183 236.0
49.757187 188.0
49.773544 232.0
49.790134 180.0
49.815422 84.0
49.835228 232.0
49.845062 144.0
49.8549 44.0
49.886471 164.0
49.909725 140.0
49.92049 304.0
49.935036 216.0
49.949104 196.0
49.965004 132.0
49.984276 116.0
50.005219 188.0
50.026501 252.0
50.038738 168.0
50.061077 80.0
50.082577 112.0
50.120331 84.0
50.136368 164.0
50.146233 356.0
50.157257 156.0
50.173019 60.0
50.195118 208.0
50.21109 132.0
50.247021 128.0
50.264786 64.0
50.298233 164.0
50.314285 160.0
50.323982 140.0
50.349403 120.0
50.36684 116.0
50.38718 140.0
50.425259 116.0
50.433769 276.0
50.451141 132.0
50.499218 112.0
50.521854 324.0
50.544491 112.0
50.556614 120.0
50.575565 92.0
50.618572 280.0
50.634205 140.0
50.644318 164.0
50.665409 172.0
50.677849 264.0
50.684402 184.0
50.687248 280.0
50.699795 160.0
50.724564 184.0
50.74279 220.0
50.755123 172.0
50.771152 152.0
50.782497 76.0
50.808186 184.0
50.839157 124.0
50.854324 148.0
50.883255 120.0
50.893192 152.0
50.904255 96.0
50.93438 168.0
50.951427 180.0
50.980618 228.0
51.014973 208.0
51.031662 188.0
51.053524 116.0
51.074253 180.0
51.087353 72.0
51.094349 216.0
51.10791 200.0
51.119701 220.0
51.134865 124.0
51.154793 112.0
51.186115 140.0
51.204632 200.0
51.236359 176.0
51.262295 136.0
51.273018 140.0
51.282993 64.0
51.292973 68.0
51.316666 136.0
51.327675 212.0
51.333832 256.0
51.354897 236.0
51.401115 204.0
51.432163 180.0
51.450775 244.0
51.47591 228.0
51.488449 236.0
51.516258 248.0
51.525928 152.0
51.544167 160.0
51.559292 144.0
51.577854 224.0
51.594193 196.0
51.62233 236.0
51.682911 136.0
51.707199 200.0
51.720974 64.0
51.748711 80.0
51.758736 208.0
51.786865 380.0
51.803135 100.0
51.813164 76.0
51.833504 140.0
51.846119 76.0
51.866722 204.0
51.896294 164.0
51.910603 124.0
51.960052 132.0
51.995274 120.0
52.01865 196.0
52.031708 72.0
52.070019 164.0
52.098129 172.0
52.111591 160.0
52.126328 140.0
52.148262 132.0
52.181557 260.0
52.206467 112.0
52.225906 116.0
52.242687 132.0
52.278713 128.0
52.308624 96.0
52.337418 132.0
52.356895 228.0
52.380718 124.0
52.401218 208.0
52.421394 160.0
52.454037 148.0
52.472858 80.0
52.492283 136.0
52.503357 292.0
52.525867 228.0
52.55022 176.0
52.581047 108.0
52.598347 428.0
52.62011 132.0
52.641838 184.0
52.655956 172.0
52.685261 188.0
52.699276 312.0
52.728367 52.0
52.752937 128.0
52.763058 56.0
52.778133 188.0
52.807266 140.0
52.821953 248.0
52.83823 168.0
52.863914 212.0
52.887924 152.0
52.902702 88.0
52.912937 296.0
52.956772 204.0
52.96014 212.0
52.975689 300.0
52.990726 268.0
53.003941 164.0
53.027267 176.0
53.037746 200.0
53.052608 100.0
53.071888 152.0
53.081848 192.0
53.103359 156.0
53.130924 112.0
53.14246 164.0
53.152603 140.0
53.172195 236.0
53.194778 108.0
53.218006 328.0
53.238071 132.0
53.270802 200.0
53.303707 148.0
53.323475 176.0
53.343407 128.0
53.361851 148.0
53.389519 144.0
53.406048 112.0
53.422935 104.0
53.45137 172.0
53.470028 252.0
53.487499 152.0
53.50531 272.0
53.521126 164.0
53.541103 216.0
53.569969 116.0
53.584538 44.0
53.608418 216.0
53.617065 124.0
53.632969 240.0
53.664654 136.0
53.69241 80.0
53.706993 96.0
53.723042 132.0
53.751759 88.0
53.754166 252.0
53.790169 32.0
53.802723 240.0
53.826668 92.0
53.847115 228.0
53.882786 396.0
53.909206 88.0
53.912727 44.0
53.924919 192.0
53.952328 156.0
53.96841 128.0
53.981003 176.0
53.998981 172.0
54.019802 160.0
54.043007 116.0
54.073738 180.0
54.08691 196.0
54.11837 172.0
54.134418 188.0
54.160843 92.0
54.182335 200.0
54.193821 80.0
54.218735 160.0
54.247581 252.0
54.267109 180.0
54.27737 144.0
54.288486 132.0
54.302303 136.0
54.325771 108.0
54.357647 184.0
54.379059 140.0
54.390343 148.0
54.42099 96.0
54.443905 164.0
54.475914 160.0
54.492741 176.0
54.508591 140.0
54.529881 52.0
54.548439 224.0
54.567528 92.0
54.591801 172.0
54.613068 296.0
54.623085 260.0
54.6562 176.0
54.68726 204.0
54.700912 256.0
54.760468 300.0
54.764523 220.0
54.777084 84.0
54.792507 172.0
54.811409 364.0
54.831276 144.0
54.896442 224.0
54.910236 84.0
54.925968 148.0
54.942726 212.0
54.959812 196.0
54.977608 112.0
54.997204 188.0
55.007519 272.0
55.042454 160.0
55.082439 124.0
55.110149 180.0
55.11269 76.0
55.163715 172.0
55.197636 164.0
55.21133 172.0
55.224113 180.0
55.250969 160.0
55.288506 240.0
55.305103 200.0
55.332371 188.0
55.363197 128.0
55.397633 120.0
55.40868 176.0
55.422722 68.0
55.439137 156.0
55.469994 152.0
55.472137 176.0
55.513645 244.0
55.536167 192.0
55.562828 172.0
55.575253 132.0
55.599194 244.0
55.617004 100.0
55.649662 88.0
55.665043 204.0
55.681564 108.0
55.695118 132.0
55.712044 108.0
55.72654 172.0
55.777035 136.0
55.796364 212.0
55.826763 44.0
55.84956 212.0
55.859779 200.0
55.896412 96.0
55.910339 192.0
55.922337 172.0
55.936012 132.0
55.945961 372.0
55.964886 208.0
55.991688 192.0
56.008072 108.0
56.032013 116.0
56.048584 208.0
56.07925 104.0
56.084961 80.0
56.090736 152.0
56.105598 156.0
56.118973 252.0
56.148182 72.0
56.160694 176.0
56.193787 140.0
56.225761 112.0
56.251415 128.0
56.266064 168.0
56.277473 156.0
56.294064 132.0
56.309193 68.0
56.323441 152.0
56.341511 124.0
56.362278 212.0
56.379261 192.0
56.398125 156.0
56.437889 104.0
56.449707 248.0
56.454765 224.0
56.46003 156.0
56.494724 92.0
56.510448 128.0
56.529137 156.0
56.561138 212.0
56.593163 140.0
56.623398 104.0
56.633083 128.0
56.647423 108.0
56.673771 300.0
56.692299 160.0
56.711857 136.0
56.723789 200.0
56.727814 192.0
56.741898 184.0
56.76133 140.0
56.779781 184.0
56.795826 124.0
56.813915 376.0
56.845566 156.0
56.876854 116.0
56.893124 192.0
56.921078 184.0
56.953434 52.0
56.994263 188.0
57.040588 80.0
57.059994 128.0
57.086136 136.0
57.13559 164.0
57.14817 120.0
57.169941 64.0
57.182056 160.0
57.202377 232.0
57.235409 180.0
57.263218 176.0
57.275566 136.0
57.299438 68.0
57.333645 336.0
57.350231 172.0
57.360172 320.0
57.379795 320.0
57.396107 148.0
57.405884 168.0
57.424557 192.0
57.443226 308.0
57.469814 120.0
57.49157 164.0
57.502857 152.0
57.531109 144.0
57.554173 376.0
57.567402 204.0
57.586056 156.0
57.613987 180.0
57.637424 120.0
57.655556 164.0
57.67067 256.0
57.687126 176.0
57.706955 156.0
57.730743 176.0
57.750809 236.0
57.777298 212.0
57.781456 108.0
57.78849 132.0
57.818478 188.0
57.831223 252.0
57.845112 100.0
57.879848 212.0
57.907734 236.0
57.975956 136.0
57.999043 128.0
58.013725 192.0
58.037037 88.0
58.053719 148.0
58.090633 184.0
58.109844 220.0
58.137764 140.0
58.151402 104.0
58.170456 128.0
58.201534 196.0
58.228249 136.0
58.253616 200.0
58.273823 152.0
58.295097 164.0
58.31646 140.0
58.326134 180.0
58.358765 104.0
58.361069 160.0
58.390873 112.0
58.409039 140.0
58.424915 116.0
58.447834 208.0
58.465424 92.0
58.477196 136.0
58.479973 100.0
58.485939 192.0
58.509567 112.0
58.520226 176.0
58.541203 232.0
58.562431 224.0
58.589748 148.0
58.603645 104.0
58.625549 152.0
58.654289 100.0
58.681732 64.0
58.696896 580.0
58.709885 172.0
58.730534 132.0
58.751507 144.0
58.802326 124.0
58.817699 212.0
58.837353 104.0
58.850101 184.0
58.863075 140.0
58.878056 144.0
58.920879 116.0
58.94733 196.0
58.959328 108.0
58.970833 148.0
59.011532 144.0
59.03997 244.0
59.052818 124.0
59.068855 156.0
59.097183 116.0
59.120136 304.0
59.147476 172.0
59.161465 72.0
59.191006 164.0
59.220924 164.0
59.2411 164.0
59.267147 96.0
59.293198 188.0
59.305908 164.0
59.347969 176.0
59.351452 128.0
59.356472 176.0
59.369255 188.0
59.380589 232.0
59.393719 136.0
59.408199 40.0
59.426029 216.0
59.448391 104.0
59.467701 160.0
59.497894 144.0
59.51857 312.0
59.529938 192.0
59.540207 316.0
59.564785 60.0
59.587605 192.0
59.598583 196.0
59.617023 148.0
59.632393 244.0
59.654045 140.0
59.686115 148.0
59.730801 160.0
59.764648 184.0
59.778233 140.0
59.802315 128.0
59.821285 200.0
59.838528 232.0
59.858795 148.0
59.870865 76.0
59.88781 128.0
59.906292 152.0
59.94173 176.0
59.963928 284.0
60.014179 80.0
60.07066 148.0
60.085129 100.0
60.116119 140.0
60.141312 204.0
60.168934 240.0
60.18132 136.0
60.204327 172.0
60.225609 172.0
60.252132 188.0
60.268829 168.0
60.288208 224.0
60.299774 148.0
60.311756 212.0
60.331932 144.0
60.354359 180.0
60.372437 172.0
60.388992 284.0
60.399319 160.0
60.437408 108.0
60.449524 140.0
60.477646 148.0
60.495373 204.0
60.52483 268.0
60.545769 120.0
60.569374 184.0
60.576469 140.0
60.581257 176.0
60.586685 300.0
60.6007 104.0
60.620132 196.0
60.641335 100.0
60.670753 208.0
60.698456 128.0
60.724392 112.0
60.73867 96.0
60.751926 188.0
60.774857 180.0
60.801582 180.0
60.830235 148.0
60.845749 132.0
60.87442 196.0
60.903797 148.0
60.925247 156.0
60.935799 176.0
60.958435 240.0
60.978294 200.0
60.990997 168.0
61.015125 220.0
61.031181 236.0
61.036648 140.0
61.042847 200.0
61.054821 168.0
61.068817 164.0
61.100784 112.0
61.118999 172.0
61.151283 160.0
61.169464 288.0
61.200974 148.0
61.227341 372.0
61.24197 196.0
61.266514 228.0
61.28677 168.0
61.297676 176.0
61.31638 104.0
61.3382 108.0
61.35067 176.0
61.367451 152.0
61.395889 196.0
61.411488 180.0
61.445564 180.0
61.451595 152.0
61.454933 160.0
61.464874 164.0
61.479885 184.0
61.497906 204.0
61.517597 136.0
61.539284 148.0
61.560867 140.0
61.590355 128.0
61.61652 152.0
61.626713 120.0
61.646049 200.0
61.661301 68.0
61.674179 252.0
61.687874 36.0
61.700382 120.0
61.720707 160.0
61.733753 140.0
61.756046 112.0
61.803612 164.0
61.826763 160.0
61.845867 64.0
61.861519 220.0
61.889702 160.0
61.905361 176.0
61.92305 68.0
61.926414 308.0
61.953606 100.0
61.979343 216.0
62.005627 220.0
62.022331 256.0
62.045036 340.0
62.096249 180.0
62.12204 132.0
62.13578 124.0
62.149902 360.0
62.165592 196.0
62.179718 232.0
62.197422 208.0
62.212601 156.0
62.234661 192.0
62.253506 152.0
62.278637 128.0
62.294342 192.0
62.313572 100.0
62.335194 152.0
62.356468 392.0
62.376537 128.0
62.388824 132.0
62.40593 120.0
62.423325 196.0
62.451538 216.0
62.483315 180.0
62.496311 208.0
62.509098 232.0
62.527534 332.0
62.53965 220.0
62.553818 152.0
62.57291 220.0
62.58688 140.0
62.610229 92.0
62.61747 104.0
62.629707 200.0
62.642006 176.0
62.652805 260.0
62.679169 136.0
62.691635 136.0
62.731304 216.0
62.755478 148.0
62.775978 192.0
62.79678 148.0
62.829605 140.0
62.840652 124.0
62.856369 172.0
62.895885 192.0
62.914284 116.0
62.926205 124.0
62.936935 172.0
62.94791 164.0
62.953213 156.0
62.960354 212.0
62.982647 284.0
63.00169 160.0
63.015736 136.0
63.045933 128.0
63.082287 84.0
63.100391 204.0
63.117943 172.0
63.136047 284.0
63.156609 52.0
63.175591 128.0
63.188248 112.0
63.204281 152.0
63.229393 148.0
63.242794 164.0
63.255867 176.0
63.286381 196.0
63.335476 132.0
63.351318 112.0
63.379837 148.0
63.400154 112.0
63.41914 348.0
63.432137 172.0
63.446846 216.0
63.459087 124.0
63.487534 128.0
63.507282 164.0
63.52541 172.0
63.54578 196.0
63.565365 88.0
63.584408 96.0
63.66301 204.0
63.667698 104.0
63.67379 148.0
63.694401 88.0
63.706963 156.0
63.725742 132.0
63.740585 116.0
63.769947 176.0
63.794418 180.0
63.806019 108.0
63.822945 52.0
63.858501 172.0
63.886318 108.0
63.915508 160.0
63.927689 100.0
63.948334 148.0
63.970577 148.0
63.983398 340.0
63.997036 192.0
64.062134 128.0
64.085068 96.0
64.119354 196.0
64.130547 108.0
64.151833 160.0
64.170311 120.0
64.180008 204.0
64.208023 116.0
64.22084 140.0
64.247963 68.0
64.279503 172.0
64.302322 120.0
64.31868 176.0
64.346748 200.0
64.37043 148.0
64.37442 192.0
64.391624 48.0
64.405998 200.0
64.425041 348.0
64.443405 384.0
64.458138 176.0
64.485626 192.0
64.49575 192.0
64.530655 136.0
64.545105 104.0
64.57383 104.0
64.586082 272.0
64.61702 124.0
64.644226 124.0
64.666626 292.0
64.717857 104.0
64.737717 140.0
64.743935 196.0
64.759491 376.0
64.773804 120.0
64.798927 384.0
64.82386 216.0
64.846016 168.0
64.870705 200.0
64.906937 164.0
64.920433 164.0
64.955521 188.0
64.961807 152.0
64.968246 196.0
65.02121 304.0
65.035019 236.0
65.072456 196.0
65.087143 212.0
65.127937 140.0
65.132515 116.0
65.152512 140.0
65.182549 496.0
65.197823 160.0
65.210075 180.0
65.230591 168.0
65.25724 148.0
65.276237 360.0
65.30484 184.0
65.346954 204.0
65.360794 280.0
65.389999 116.0
65.419418 112.0
65.43557 256.0
65.458115 188.0
65.469391 96.0
65.499603 216.0
65.526558 180.0
65.543488 72.0
65.566055 228.0
65.576447 160.0
65.603127 108.0
65.619987 236.0
65.632149 212.0
65.656921 176.0
65.719437 308.0
65.751526 144.0
65.775162 112.0
65.781746 72.0
65.786324 164.0
65.800072 104.0
65.814484 152.0
65.84977 132.0
65.877472 164.0
65.904938 128.0
65.930275 124.0
65.960587 252.0
65.977669 124.0
66.006775 128.0
66.022942 272.0
66.059746 272.0
66.074837 248.0
66.095741 92.0
66.107071 92.0
66.12487 176.0
66.144295 92.0
66.164284 220.0
66.19384 360.0
66.222015 284.0
66.253197 292.0
66.26712 176.0
66.278961 188.0
66.309921 140.0
66.332207 224.0
66.352013 272.0
66.369186 252.0
66.399971 176.0
66.417 232.0
66.436249 140.0
66.44735 272.0
66.472359 116.0
66.506752 224.0
66.531746 208.0
66.548775 224.0
66.590202 240.0
66.603195 164.0
66.619438 80.0
66.630814 104.0
66.664627 168.0
66.682816 172.0
66.695816 220.0
66.72345 208.0
66.735832 184.0
66.753616 160.0
66.759575 148.0
66.783623 156.0
66.807838 268.0
66.816963 316.0
66.832947 152.0
66.851547 224.0
66.864525 160.0
66.876724 200.0
66.892647 208.0
66.911621 140.0
66.91452 92.0
66.928001 184.0
66.95182 264.0
66.970802 128.0
66.984024 276.0
67.006645 220.0
67.018051 212.0
67.035431 144.0
67.055969 104.0
67.084869 156.0
67.099365 144.0
67.131218 216.0
67.142288 108.0
67.179977 176.0
67.225792 212.0
67.261948 156.0
67.277374 304.0
67.293701 68.0
67.315109 144.0
67.328461 140.0
67.362297 116.0
67.381447 136.0
67.408043 116.0
67.426857 204.0
67.446342 140.0
67.463402 184.0
67.48896 168.0
67.522484 156.0
67.535088 136.0
67.569847 264.0
67.592285 132.0
67.610832 184.0
67.626961 56.0
67.651749 280.0
67.662621 156.0
67.681343 164.0
67.695961 132.0
67.724747 180.0
67.751251 148.0
67.765633 368.0
67.802971 176.0
67.829636 136.0
67.857903 164.0
67.91394 204.0
67.933998 148.0
67.946747 112.0
67.963554 312.0
67.976288 260.0
67.998581 260.0
68.014359 280.0
68.038696 180.0
68.099068 208.0
68.127075 220.0
68.140137 188.0
68.168465 148.0
68.196358 52.0
68.210297 172.0
68.239098 68.0
68.254448 84.0
68.276566 236.0
68.296921 124.0
68.329559 152.0
68.34108 144.0
68.395523 96.0
68.411949 256.0
68.449715 180.0
68.461243 148.0
68.493309 172.0
68.50901 160.0
68.543343 148.0
68.569984 104.0
68.584816 256.0
68.623611 156.0
68.640488 52.0
68.665611 96.0
68.678566 164.0
68.684471 128.0
68.689178 180.0
68.7052 152.0
68.720047 96.0
68.746445 116.0
68.775017 360.0
68.795013 76.0
68.815506 168.0
68.836037 256.0
68.862015 160.0
68.885139 176.0
68.903313 280.0
68.916092 284.0
68.937187 192.0
68.959023 264.0
68.984627 188.0
69.015709 124.0
69.042458 180.0
69.059212 156.0
69.090134 140.0
69.105026 88.0
69.14624 124.0
69.164604 56.0
69.197823 164.0
69.223709 160.0
69.235237 176.0
69.249847 160.0
69.267273 100.0
69.293243 136.0
69.320396 64.0
69.355797 188.0
69.385612 196.0
69.407745 316.0
69.436028 148.0
69.453339 192.0
69.458237 132.0
69.465317 196.0
69.491081 228.0
69.502693 156.0
69.521507 108.0
69.533684 168.0
69.554146 208.0
69.570038 140.0
69.593491 132.0
69.602951 152.0
69.62336 300.0
69.675423 136.0
69.691994 452.0
69.72303 232.0
69.734055 116.0
69.755798 132.0
69.759346 212.0
69.765808 116.0
69.781342 216.0
69.796707 132.0
69.811676 164.0
69.848267 224.0
69.86438 140.0
69.889862 368.0
69.905922 500.0
69.936989 164.0
69.963097 96.0
69.986732 120.0
70.01371 160.0
70.036919 192.0
70.064857 136.0
70.079681 196.0
70.099678 84.0
70.123009 124.0
70.146263 168.0
70.169685 164.0
70.191895 224.0
70.216377 112.0
70.234138 160.0
70.239082 104.0
70.26255 212.0
70.274345 176.0
70.312248 224.0
70.329559 192.0
70.339638 96.0
70.354874 120.0
70.378288 184.0
70.42482 208.0
70.450775 180.0
70.466293 212.0
70.496933 156.0
70.521461 188.0
70.543091 380.0
70.572075 52.0
70.593811 148.0
70.613808 96.0
70.627167 136.0
70.642715 152.0
70.665741 252.0
70.678391 256.0
70.694824 200.0
70.715172 140.0
70.723854 88.0
70.730141 116.0
70.73761 144.0
70.776482 148.0
70.802628 176.0
70.819756 112.0
70.833992 80.0
70.852959 248.0
70.874687 96.0
70.903435 144.0
70.91758 220.0
70.942078 100.0
70.958847 176.0
70.975616 152.0
70.994057 100.0
71.03096 160.0
71.054443 104.0
71.071136 156.0
71.082619 148.0
71.111336 196.0
71.118645 156.0
71.133324 108.0
71.167717 156.0
71.192085 124.0
71.238495 184.0
71.244858 116.0
71.26432 144.0
71.28112 244.0
71.326439 216.0
71.356529 232.0
71.362175 200.0
71.36705 268.0
71.372375 112.0
71.381203 112.0
71.38575 252.0
71.422348 144.0
71.439682 92.0
71.466095 160.0
71.486282 184.0
71.508194 212.0
71.528358 132.0
71.540146 84.0
71.560349 180.0
71.582237 128.0
71.607498 132.0
71.622276 144.0
71.64624 124.0
71.661911 148.0
71.703537 100.0
71.724327 144.0
71.752419 84.0
71.764221 132.0
71.794197 200.0
71.821564 136.0
71.851341 184.0
71.865868 184.0
71.887573 128.0
71.92112 132.0
71.948212 84.0
71.966042 204.0
71.978966 152.0
71.990341 308.0
72.002205 160.0
72.045998 164.0
72.057625 96.0
72.065918 140.0
72.069733 60.0
72.08889 120.0
72.108604 88.0
72.114845 144.0
72.120461 276.0
72.158134 172.0
72.169792 364.0
72.192024 128.0
72.206665 196.0
72.221886 152.0
72.245331 56.0
72.252899 48.0
72.269257 68.0
72.297783 304.0
72.321274 268.0
72.353012 148.0
72.374199 136.0
72.408165 184.0
72.447029 292.0
72.465668 136.0
72.483879 220.0
72.502945 124.0
72.514809 80.0
72.535149 160.0
72.548714 184.0
72.575043 116.0
72.592461 148.0
72.636642 240.0
72.675919 176.0
72.687798 204.0
72.720528 184.0
72.733498 164.0
72.761963 192.0
72.809875 228.0
72.833122 120.0
72.867783 124.0
72.888168 152.0
72.901764 156.0
72.930023 204.0
72.952034 216.0
72.966362 160.0
72.981659 108.0
73.023788 192.0
73.05262 100.0
73.064537 132.0
73.078339 220.0
73.095627 172.0
73.118935 236.0
73.125992 152.0
73.160217 144.0
73.194359 164.0
73.228065 152.0
73.254631 172.0
73.271858 196.0
73.289963 216.0
73.321365 80.0
73.360565 204.0
73.385201 120.0
73.406143 172.0
73.419304 144.0
73.453766 176.0
73.465584 184.0
73.49437 152.0
73.511391 176.0
73.533615 144.0
73.559639 212.0
73.610565 228.0
73.629753 212.0
73.651024 216.0
73.654556 164.0
73.662079 188.0
73.689369 116.0
73.721481 216.0
73.733444 76.0
73.748726 404.0
73.7649 188.0
73.783615 112.0
73.799522 196.0
73.812088 264.0
73.825768 156.0
73.839447 160.0
73.866547 136.0
73.899216 284.0
73.937668 168.0
73.948952 176.0
73.966187 168.0
73.981697 248.0
74.002693 188.0
74.017426 148.0
74.036263 144.0
74.052734 104.0
74.095062 148.0
74.114647 196.0
74.128777 160.0
74.157196 164.0
74.188766 136.0
74.20591 100.0
74.223686 152.0
74.240402 172.0
74.2565 184.0
74.298248 172.0
74.315681 184.0
74.337814 116.0
74.348007 124.0
74.359207 132.0
74.378342 196.0
74.413513 56.0
74.441833 268.0
74.479866 220.0
74.507019 136.0
74.527893 188.0
74.554375 64.0
74.57637 80.0
74.597343 140.0
74.624023 156.0
74.659027 160.0
74.690498 140.0
74.702583 232.0
74.738373 156.0
74.75386 104.0
74.771866 104.0
74.814102 220.0
74.843376 432.0
74.868141 104.0
74.90889 148.0
74.920044 80.0
74.963959 80.0
74.976021 84.0
74.996033 196.0
75.03479 156.0
75.047806 180.0
75.073112 212.0
75.104233 220.0
75.130684 228.0
75.150192 76.0
75.176071 148.0
75.192085 188.0
75.205795 200.0
75.227524 168.0
75.248573 120.0
75.271019 124.0
75.28656 48.0
75.324562 156.0
75.353928 132.0
75.379845 112.0
75.400581 112.0
75.41787 264.0
75.443306 140.0
75.455902 208.0
75.495689 364.0
75.557281 188.0
75.575241 148.0
75.641014 180.0
75.657593 200.0
75.674728 212.0
75.760864 344.0
75.789352 172.0
75.807739 168.0
75.842941 160.0
75.866486 104.0
75.901566 152.0
75.913139 192.0
75.962311 224.0
75.977211 184.0
75.993454 188.0
76.015381 208.0
76.069183 172.0
76.111557 248.0
76.135399 148.0
76.162956 272.0
76.186081 168.0
76.20134 128.0
76.21859 360.0
76.236176 168.0
76.260147 176.0
76.295204 120.0
76.322464 184.0
76.388939 180.0
76.416946 160.0
76.430695 112.0
76.449837 136.0
76.483269 192.0
76.509018 164.0
76.545578 204.0
76.561256 56.0
76.606453 156.0
76.611107 148.0
76.619019 100.0
76.622902 164.0
76.660553 176.0
76.675507 288.0
76.702965 216.0
76.721565 100.0
76.751564 252.0
76.763756 140.0
76.790245 144.0
76.793686 100.0
76.829178 204.0
76.861099 188.0
76.87793 192.0
76.897026 184.0
76.936264 180.0
77.00013 156.0
77.041252 252.0
77.056656 132.0
77.085732 212.0
77.131805 172.0
77.165588 316.0
77.186516 112.0
77.205238 176.0
77.220978 184.0
77.244308 164.0
77.285118 248.0
77.300766 264.0
77.305283 324.0
77.329231 124.0
77.346962 40.0
77.368813 200.0
77.38723 320.0
77.418747 196.0
77.445023 144.0
77.504639 128.0
77.512993 100.0
77.517822 108.0
77.530754 244.0
77.557159 140.0
77.569427 180.0
77.58593 196.0
77.602745 212.0
77.616943 160.0
77.640656 168.0
77.674416 212.0
77.70195 184.0
77.724487 156.0
77.759575 180.0
77.792419 308.0
77.821106 204.0
77.839317 152.0
77.889679 264.0
77.905884 144.0
77.932846 236.0
77.968994 100.0
77.998123 152.0
78.015953 136.0
78.055809 160.0
78.085335 208.0
78.099472 184.0
78.12114 192.0
78.172081 100.0
78.185951 168.0
78.205399 160.0
78.231255 228.0
78.265419 192.0
78.293343 204.0
78.318001 68.0
78.333855 176.0
78.357903 220.0
78.394974 232.0
78.409058 100.0
78.430176 140.0
78.462799 168.0
78.485428 176.0
78.505638 200.0
78.527794 172.0
78.577118 176.0
78.601845 56.0
78.624786 112.0
78.641602 144.0
78.673615 200.0
78.702484 204.0
78.727539 180.0
78.733391 140.0
78.75721 124.0
78.785103 152.0
78.790833 120.0
78.79789 156.0
78.822578 216.0
78.850853 72.0
78.866394 252.0
78.888985 180.0
78.903885 240.0
78.929184 208.0
78.97551 248.0
78.99585 148.0
79.018845 140.0
79.073708 124.0
79.093491 424.0
79.104416 140.0
79.139473 184.0
79.165764 184.0
79.178162 184.0
79.200836 272.0
79.221413 176.0
79.232224 144.0
79.25193 356.0
79.280922 248.0
79.320801 248.0
79.340248 280.0
79.377655 212.0
79.429512 144.0
79.450256 180.0
79.459602 156.0
79.474266 124.0
79.515884 332.0
79.528732 144.0
79.551926 340.0
79.59005 152.0
79.603172 92.0
79.646416 316.0
79.669052 388.0
79.688126 176.0
79.702843 116.0
79.723999 108.0
79.751945 92.0
79.784294 204.0
79.814941 136.0
79.834404 196.0
79.860374 172.0
79.889954 152.0
79.914825 188.0
79.945114 140.0
79.960403 180.0
79.974701 160.0
80.0056 204.0
80.0158 96.0
80.034119 188.0
80.053711 56.0
80.088806 204.0
80.09964 188.0
80.137428 108.0
80.167229 144.0
80.179359 128.0
80.207489 64.0
80.246155 160.0
80.263275 220.0
80.283752 192.0
80.302345 204.0
80.316338 132.0
80.35495 188.0
80.385475 228.0
80.423523 232.0
80.448235 164.0
80.455589 216.0
80.459213 212.0
80.478111 276.0
80.494598 120.0
80.5299 252.0
80.547272 160.0
80.563393 116.0
80.577324 204.0
80.597786 124.0
80.611099 240.0
80.624588 168.0
80.646042 248.0
80.663864 144.0
80.679443 140.0
80.694305 332.0
80.711205 156.0
80.774055 432.0
80.799828 112.0
80.852486 176.0
80.862938 120.0
80.889313 88.0
80.904915 352.0
80.943024 92.0
80.980667 160.0
81.000824 88.0
81.01825 112.0
81.051842 144.0
81.070213 76.0
81.13549 216.0
81.165222 208.0
81.195068 112.0
81.21183 280.0
81.276474 372.0
81.297966 204.0
81.329178 124.0
81.348648 204.0
81.371323 120.0
81.400291 164.0
81.412865 196.0
81.434181 236.0
81.466751 148.0
81.506279 124.0
81.535034 284.0
81.57637 140.0
81.613152 44.0
81.632111 80.0
81.650093 64.0
81.679039 192.0
81.693268 152.0
81.73465 160.0
81.764244 72.0
81.819954 132.0
81.826035 124.0
81.830574 176.0
81.845604 136.0
81.862457 172.0
81.877884 180.0
81.895493 280.0
81.921898 132.0
81.93631 156.0
81.954765 180.0
81.968742 152.0
81.990768 92.0
82.034363 216.0
82.068535 220.0
82.104492 200.0
82.14724 176.0
82.178551 216.0
82.213211 192.0
82.247559 108.0
82.266342 116.0
82.313286 116.0
82.332169 228.0
82.338013 104.0
82.344872 196.0
82.372009 156.0
82.403236 120.0
82.434319 108.0
82.466347 260.0
82.485321 200.0
82.506187 168.0
82.531067 300.0
82.548592 168.0
82.565712 112.0
82.586731 308.0
82.653984 208.0
82.678123 164.0
82.699333 320.0
82.718285 144.0
82.73513 156.0
82.766411 144.0
82.79071 108.0
82.805199 100.0
82.845047 112.0
82.870415 204.0
82.895042 196.0
82.944336 216.0
82.960625 288.0
82.981567 196.0
83.002487 172.0
83.066208 224.0
83.09642 172.0
83.108574 172.0
83.131531 124.0
83.147865 164.0
83.166016 204.0
83.184166 148.0
83.197655 144.0
83.214951 180.0
83.221954 172.0
83.229454 148.0
83.235954 312.0
83.249527 60.0
83.280769 160.0
83.307884 188.0
83.340576 164.0
83.38607 260.0
83.405556 96.0
83.42746 332.0
83.437538 120.0
83.453682 104.0
83.529434 108.0
83.553787 172.0
83.582954 144.0
83.591568 160.0
83.615639 180.0
83.640434 156.0
83.653175 216.0
83.680489 68.0
83.707115 128.0
83.712166 192.0
83.755531 284.0
83.780655 188.0
83.811584 112.0
83.822906 160.0
83.844429 144.0
83.865875 152.0
83.884766 156.0
83.905655 212.0
83.920784 176.0
83.936493 112.0
83.973122 48.0
84.001465 228.0
84.041382 136.0
84.055977 156.0
84.075493 180.0
84.089241 140.0
84.101784 164.0
84.123505 128.0
84.138115 136.0
84.158577 256.0
84.177109 164.0
84.21373 108.0
84.255394 128.0
84.278748 112.0
84.297028 356.0
84.335938 232.0
84.351555 284.0
84.374619 276.0
84.412285 156.0
84.443283 320.0
84.457916 152.0
84.493126 64.0
84.518234 132.0
84.534103 212.0
84.547791 208.0
84.576508 284.0
84.594124 180.0
84.629944 148.0
84.650085 192.0
84.662811 160.0
84.677345 152.0
84.716026 180.0
84.741081 204.0
84.777382 156.0
84.803329 112.0
84.825974 124.0
84.845085 276.0
84.86998 132.0
84.890152 136.0
84.912155 52.0
84.928665 160.0
84.950676 168.0
84.972694 140.0
84.987373 140.0
85.01712 152.0
85.055275 48.0
85.0718 164.0
85.086487 164.0
85.117737 180.0
85.149445 336.0
85.172798 72.0
85.19072 164.0
85.218727 200.0
85.245255 376.0
85.265472 200.0
85.320282 156.0
85.351067 128.0
85.374977 152.0
85.398529 156.0
85.453674 164.0
85.489799 196.0
85.518776 200.0
85.540703 164.0
85.575554 112.0
85.608696 96.0
85.654053 348.0
85.667336 244.0
85.687904 80.0
85.705345 248.0
85.712303 116.0
85.716049 160.0
85.736397 176.0
85.758224 148.0
85.785408 172.0
85.81488 200.0
85.822456 200.0
85.844398 164.0
85.874092 40.0
85.895805 160.0
85.912827 136.0
85.94104 192.0
85.953941 240.0
85.990158 132.0
86.006882 128.0
86.009132 148.0
86.047554 128.0
86.061485 256.0
86.08522 332.0
86.119576 120.0
86.161377 204.0
86.210106 144.0
86.229385 148.0
86.237076 148.0
86.265434 120.0
86.287743 56.0
86.314369 268.0
86.329376 192.0
86.350616 184.0
86.376015 104.0
86.404259 120.0
86.432579 164.0
86.446701 64.0
86.45475 148.0
86.478485 288.0
86.529388 188.0
86.556038 120.0
86.591225 164.0
86.608261 180.0
86.639381 160.0
86.671402 124.0
86.684242 356.0
86.721664 100.0
86.739456 148.0
86.761414 180.0
86.77359 196.0
86.797043 136.0
86.805923 80.0
86.812065 124.0
86.841476 188.0
86.888771 156.0
86.911018 340.0
86.934151 160.0
86.962944 196.0
87.007629 180.0
87.049545 152.0
87.055984 160.0
87.062454 180.0
87.088684 116.0
87.103165 228.0
87.133682 200.0
87.158012 176.0
87.177483 180.0
87.199341 168.0
87.220978 140.0
87.244858 308.0
87.270691 140.0
87.285301 240.0
87.300629 232.0
87.313194 140.0
87.338539 96.0
87.372261 260.0
87.421638 196.0
87.462143 160.0
87.498276 368.0
87.516037 48.0
87.537331 340.0
87.570045 144.0
87.593636 280.0
87.652489 172.0
87.677284 192.0
87.694878 164.0
87.709793 96.0
87.730179 124.0
87.749771 144.0
87.778015 128.0
87.806747 196.0
87.821671 132.0
87.847786 160.0
87.885101 176.0
87.90683 248.0
87.932816 156.0
87.96804 208.0
87.994286 192.0
88.013145 176.0
88.043289 140.0
88.064316 224.0
88.081131 152.0
88.114754 200.0
88.137177 144.0
88.164337 156.0
88.182457 208.0
88.219574 140.0
88.245819 64.0
88.284203 264.0
88.29982 196.0
88.313095 216.0
88.332794 224.0
88.360161 172.0
88.395584 176.0
88.415985 360.0
88.433281 168.0
88.466354 256.0
88.499306 80.0
88.531891 124.0
88.546875 44.0
88.566574 300.0
88.593056 344.0
88.610565 60.0
88.627426 140.0
88.641724 140.0
88.648552 88.0
88.654526 164.0
88.681068 212.0
88.702255 164.0
88.722343 156.0
88.740631 172.0
88.76239 152.0
88.78167 128.0
88.829712 112.0
88.888283 180.0
88.921852 208.0
88.94062 220.0
88.959198 192.0
89.000702 128.0
89.039047 244.0
89.067581 196.0
89.087097 144.0
89.125847 224.0
89.156784 336.0
89.196472 316.0
89.21489 176.0
89.244972 168.0
89.274658 152.0
89.316437 176.0
89.344368 160.0
89.361588 168.0
89.399223 200.0
89.427452 280.0
89.450584 220.0
89.482201 280.0
89.514648 456.0
89.537781 140.0
89.579979 108.0
89.606354 144.0
89.632011 116.0
89.64592 80.0
89.700577 148.0
89.748344 144.0
89.768456 144.0
89.802803 148.0
89.840134 148.0
89.857765 92.0
89.878166 200.0
89.901123 148.0
89.915611 216.0
89.934898 128.0
89.970352 72.0
90.004875 164.0
90.018845 164.0
90.026863 172.0
90.032059 192.0
90.040016 260.0
90.064774 96.0
90.07988 84.0
90.112434 160.0
90.13662 140.0
90.157349 124.0
90.172066 140.0
90.185883 152.0
90.214241 352.0
90.234619 160.0
90.248085 192.0
90.284019 124.0
90.312569 204.0
90.333893 220.0
90.354004 96.0
90.372925 132.0
90.399414 152.0
90.416451 184.0
90.430733 176.0
90.442993 308.0
90.486488 156.0
90.509758 244.0
90.537872 176.0
90.577232 168.0
90.599419 320.0
90.619659 168.0
90.654831 216.0
90.67971 204.0
90.698601 224.0
90.725647 172.0
90.742233 216.0
90.749496 132.0
90.759605 188.0
90.806511 196.0
90.823814 108.0
90.856064 180.0
90.876152 184.0
90.909195 292.0
90.923775 112.0
90.93705 136.0
90.966103 224.0
90.997765 340.0
91.019974 292.0
91.054062 13604.0
91.104591 44.0
91.115227 428.0
91.128967 152.0
91.176971 104.0
91.203583 136.0
91.238396 140.0
91.256706 72.0
91.262314 112.0
91.301117 172.0
91.324234 148.0
91.346741 168.0
91.371109 124.0
91.390671 212.0
91.416763 136.0
91.435524 180.0
91.452583 268.0
91.472839 116.0
91.514862 148.0
91.544884 176.0
91.586952 276.0
91.607895 136.0
91.639481 156.0
91.659126 188.0
91.692741 96.0
91.7099 172.0
91.738953 416.0
91.756126 128.0
91.773392 52.0
91.787086 148.0
91.825424 196.0
91.859734 208.0
91.887245 120.0
91.911369 180.0
91.939926 416.0
91.989372 172.0
92.001762 212.0
92.024162 224.0
92.057007 2212.0
92.082726 160.0
92.108994 104.0
92.128418 200.0
92.16124 120.0
92.188667 260.0
92.21505 100.0
92.259727 164.0
92.294083 104.0
92.315117 164.0
92.332329 148.0
92.357193 168.0
92.371979 132.0
92.377518 96.0
92.399284 68.0
92.416504 112.0
92.434677 376.0
92.450951 48.0
92.455177 152.0
92.472946 136.0
92.502625 52.0
92.528404 180.0
92.560066 48.0
92.582825 140.0
92.642487 136.0
92.663399 152.0
92.696365 208.0
92.722054 136.0
92.72905 172.0
92.743988 128.0
92.762825 232.0
92.775894 180.0
92.791908 116.0
92.807602 176.0
92.823654 180.0
92.840271 340.0
92.878212 232.0
92.899574 232.0
92.927391 220.0
92.941521 144.0
92.974319 176.0
93.012924 104.0
93.031731 184.0
93.048141 160.0
93.069397 484.0
93.115662 188.0
93.156555 200.0
93.201439 132.0
93.227264 160.0
93.231216 112.0
93.235031 76.0
93.239479 128.0
93.262245 156.0
93.294403 168.0
93.339142 148.0
93.356453 152.0
93.38327 148.0
93.406456 104.0
93.419922 180.0
93.46418 88.0
93.50074 148.0
93.53244 136.0
93.559448 256.0
93.586403 116.0
93.616249 240.0
93.631165 208.0
93.6567 160.0
93.695984 132.0
93.724129 232.0
93.755013 252.0
93.799294 112.0
93.818565 88.0
93.837845 144.0
93.888321 160.0
93.938133 112.0
93.9543 116.0
93.990639 132.0
94.005669 28.0
94.0401 1052.0
94.059067 96.0
94.067032 148.0
94.105835 188.0
94.113213 168.0
94.118507 308.0
94.140137 140.0
94.189087 108.0
94.229652 168.0
94.24511 144.0
94.265381 188.0
94.291176 212.0
94.345612 68.0
94.359146 52.0
94.380417 64.0
94.41716 160.0
94.468346 256.0
94.481964 176.0
94.500427 184.0
94.532127 112.0
94.554527 220.0
94.572899 244.0
94.597717 216.0
94.636452 100.0
94.652977 100.0
94.659363 232.0
94.692253 88.0
94.755913 116.0
94.771416 156.0
94.799385 148.0
94.828613 124.0
94.860565 212.0
94.878014 100.0
94.8965 128.0
94.932304 148.0
94.95752 220.0
94.9701 160.0
94.984673 148.0
95.012329 156.0
95.04641 492.0
95.098671 144.0
95.116631 124.0
95.130074 312.0
95.154938 192.0
95.186523 164.0
95.225517 204.0
95.260262 124.0
95.292061 84.0
95.318619 132.0
95.354385 152.0
95.379463 208.0
95.419693 116.0
95.457741 352.0
95.49942 156.0
95.520294 284.0
95.544159 204.0
95.557785 156.0
95.57682 148.0
95.583649 176.0
95.61438 368.0
95.626808 68.0
95.645355 168.0
95.667839 176.0
95.696732 92.0
95.723465 212.0
95.744461 120.0
95.760193 176.0
95.785774 128.0
95.822571 188.0
95.845955 84.0
95.872314 152.0
95.890778 44.0
95.914413 128.0
95.944656 212.0
95.966805 120.0
96.003853 144.0
96.02253 216.0
96.026695 124.0
96.033714 180.0
96.048714 200.0
96.082855 136.0
96.119499 144.0
96.148224 172.0
96.193115 148.0
96.236069 204.0
96.257545 116.0
96.303101 124.0
96.318504 172.0
96.33329 324.0
96.384842 176.0
96.41188 164.0
96.440117 420.0
96.46048 152.0
96.529175 180.0
96.543564 200.0
96.581238 248.0
96.607193 132.0
96.626976 148.0
96.676697 184.0
96.699051 228.0
96.714302 180.0
96.731155 120.0
96.770775 140.0
96.789436 316.0
96.805405 176.0
96.820084 160.0
96.842308 168.0
96.877571 180.0
96.897163 116.0
96.92337 224.0
96.946152 156.0
96.966347 184.0
97.014915 144.0
97.037544 256.0
97.069328 188.0
97.10965 172.0
97.138687 224.0
97.164963 292.0
97.20108 160.0
97.258728 228.0
97.291367 308.0
97.311005 172.0
97.330635 184.0
97.350273 128.0
97.36599 72.0
97.385628 144.0
97.438614 304.0
97.478012 180.0
97.497581 224.0
97.504478 180.0
97.529274 76.0
97.568237 108.0
97.593941 152.0
97.619507 120.0
97.65097 152.0
97.666824 132.0
97.697899 168.0
97.731628 268.0
97.757706 128.0
97.778862 120.0
97.802475 176.0
97.83004 232.0
97.846626 272.0
97.885078 176.0
97.926529 68.0
97.965919 120.0
97.992615 124.0
98.0662 180.0
98.092804 332.0
98.120079 180.0
98.134705 144.0
98.166969 104.0
98.18866 60.0
98.222412 144.0
98.269539 124.0
98.289268 172.0
98.308113 136.0
98.321342 240.0
98.340584 136.0
98.354401 148.0
98.376114 192.0
98.395859 200.0
98.425476 168.0
98.482597 152.0
98.526749 204.0
98.55584 116.0
98.5756 344.0
98.613152 116.0
98.633072 152.0
98.661034 180.0
98.687431 168.0
98.728569 180.0
98.773315 72.0
98.789856 316.0
98.807541 120.0
98.848495 128.0
98.876534 264.0
98.890915 176.0
98.945305 176.0
98.953957 144.0
98.96199 216.0
98.989052 144.0
99.008408 160.0
99.046089 168.0
99.088089 140.0
99.106613 148.0
99.128197 116.0
99.15966 136.0
99.173302 172.0
99.209557 208.0
99.236938 228.0
99.274055 132.0
99.314079 168.0
99.344086 96.0
99.360077 192.0
99.380699 152.0
99.429161 192.0
99.461174 124.0
99.484741 168.0
99.500618 48.0
99.516502 180.0
99.547615 156.0
99.573349 128.0
99.59127 160.0
99.596878 144.0
99.649582 148.0
99.685349 112.0
99.699257 116.0
99.715515 244.0
99.737724 136.0
99.758888 176.0
99.780609 164.0
99.815536 276.0
99.837685 184.0
99.852348 160.0
99.878204 360.0
99.90406 248.0
99.962364 172.0
99.983658 212.0
100.02018 184.0
100.036087 164.0
100.064507 188.0
100.111992 512.0
100.140945 124.0
100.161934 104.0
100.179382 148.0
100.212662 348.0
100.233742 76.0
100.25441 164.0
100.26963 160.0
100.31369 368.0
100.338226 136.0
100.382294 420.0
100.413177 160.0
100.437935 200.0
100.451897 120.0
100.483818 188.0
100.499779 112.0
100.523201 136.0
100.586647 192.0
100.607559 128.0
100.660568 80.0
100.696236 144.0
100.713341 184.0
100.77301 76.0
100.786575 172.0
100.81929 188.0
100.860939 196.0
100.892342 168.0
100.906631 136.0
100.945236 160.0
100.963234 112.0
100.988655 176.0
101.017235 160.0
101.03727 156.0
101.069069 236.0
101.091057 112.0
101.097435 48.0
101.104088 168.0
101.1353 108.0
101.204224 252.0
101.22139 108.0
101.241417 40.0
101.285477 148.0
101.329697 168.0
101.343575 196.0
101.365677 144.0
101.400635 220.0
101.421738 72.0
101.450897 212.0
101.488976 156.0
101.528 108.0
101.545769 144.0
101.553749 124.0
101.559036 84.0
101.577568 168.0
101.61837 228.0
101.638145 172.0
101.658401 68.0
101.69252 160.0
101.71077 260.0
101.74202 168.0
101.780266 124.0
101.805573 168.0
101.853149 184.0
101.904716 172.0
101.931511 140.0
101.96563 180.0
101.984459 292.0
102.003647 184.0
102.04583 6524.0
102.087929 140.0
102.126404 5512.0
102.152473 204.0
102.16877 148.0
102.173286 196.0
102.19519 64.0
102.257996 92.0
102.273407 320.0
102.286629 204.0
102.31498 148.0
102.332024 272.0
102.351929 48.0
102.373894 132.0
102.394905 140.0
102.401436 48.0
102.409752 168.0
102.433189 196.0
102.448601 244.0
102.466736 292.0
102.488441 160.0
102.508827 180.0
102.554993 124.0
102.615135 228.0
102.636688 252.0
102.670326 212.0
102.693443 104.0
102.726807 276.0
102.742813 284.0
102.763123 176.0
102.779099 152.0
102.831734 92.0
102.860146 104.0
102.867432 152.0
102.872963 160.0
102.890083 84.0
102.902496 220.0
102.921555 140.0
102.939629 72.0
102.955261 204.0
102.9814 96.0
103.016396 124.0
103.053886 49868.0
103.102402 220.0
103.130592 256.0
103.156944 176.0
103.205238 36.0
103.230064 72.0
103.260071 124.0
103.288734 256.0
103.312218 316.0
103.341187 160.0
103.366898 248.0
103.386429 160.0
103.40873 84.0
103.430031 100.0
103.480644 136.0
103.530006 160.0
103.551521 116.0
103.597778 208.0
103.627991 96.0
103.652473 96.0
103.660309 80.0
103.679245 172.0
103.699425 172.0
103.731758 80.0
103.784401 192.0
103.801811 192.0
103.826309 172.0
103.857582 228.0
103.874779 92.0
103.900627 404.0
103.922501 188.0
103.94017 164.0
103.945801 116.0
103.952934 116.0
103.973808 420.0
104.00547 136.0
104.026382 580.0
104.059319 7608.0
104.104439 184.0
104.140625 376.0
104.184082 148.0
104.204025 256.0
104.228836 256.0
104.248672 248.0
104.263657 44.0
104.280396 168.0
104.300171 120.0
104.340897 160.0
104.354568 284.0
104.377495 116.0
104.395798 216.0
104.410286 164.0
104.441505 136.0
104.469025 140.0
104.516533 148.0
104.549042 208.0
104.574837 140.0
104.591537 156.0
104.607407 56.0
104.642014 444.0
104.656265 140.0
104.681602 148.0
104.730659 204.0
104.744659 328.0
104.765434 180.0
104.774223 132.0
104.777298 76.0
104.804726 204.0
104.879219 64.0
104.921043 164.0
104.927155 160.0
104.947502 192.0
105.005592 164.0
105.033554 1180.0
105.068977 7024.0
105.092186 172.0
105.096985 408.0
105.122009 116.0
105.138214 268.0
105.153687 252.0
105.167976 56.0
105.188385 104.0
105.210838 56.0
105.238754 140.0
105.270294 88.0
105.310905 68.0
105.351753 84.0
105.372154 224.0
105.400795 80.0
105.437363 152.0
105.499855 228.0
105.539284 260.0
105.577927 164.0
105.595009 228.0
105.61834 176.0
105.63974 152.0
105.677666 116.0
105.711617 160.0
105.730042 80.0
105.748459 216.0
105.765968 216.0
105.826866 204.0
105.84623 132.0
105.868568 180.0
105.908516 264.0
105.926605 192.0
105.959679 136.0
105.984901 172.0
106.009537 184.0
106.040894 1344.0
106.071251 596.0
106.105736 88.0
106.124435 236.0
106.138672 220.0
106.171059 196.0
106.205383 160.0
106.225891 72.0
106.247757 128.0
106.27771 164.0
106.295227 364.0
106.30941 132.0
106.329086 156.0
106.382904 112.0
106.411194 136.0
106.437149 112.0
106.47393 152.0
106.527122 76.0
106.566696 136.0
106.609291 184.0
106.648193 180.0
106.677925 100.0
106.701927 196.0
106.733192 132.0
106.77021 140.0
106.799377 132.0
106.824333 152.0
106.846481 148.0
106.864594 152.0
106.882339 260.0
106.926567 164.0
106.961792 144.0
107.005028 176.0
107.021263 296.0
107.048393 6712.0
107.079399 52.0
107.103645 112.0
107.149826 192.0
107.165443 68.0
107.189682 100.0
107.251694 188.0
107.273727 148.0
107.288399 400.0
107.324158 148.0
107.357544 128.0
107.382637 180.0
107.416969 108.0
107.432205 156.0
107.470612 48.0
107.514633 156.0
107.535957 60.0
107.55278 152.0
107.584915 156.0
107.605202 192.0
107.62542 156.0
107.647865 124.0
107.664238 132.0
107.693565 236.0
107.725464 164.0
107.741371 256.0
107.782143 96.0
107.785439 120.0
107.824051 172.0
107.908279 320.0
107.929169 172.0
107.947777 240.0
107.966393 232.0
107.990715 184.0
108.013962 268.0
108.055809 2420.0
108.08844 252.0
108.123169 220.0
108.134682 152.0
108.167648 148.0
108.212639 164.0
108.239555 208.0
108.311935 164.0
108.34726 148.0
108.364456 308.0
108.373291 148.0
108.380516 144.0
108.406952 312.0
108.424202 392.0
108.460945 172.0
108.511665 160.0
108.55661 116.0
108.57193 72.0
108.606583 172.0
108.628242 176.0
108.647385 84.0
108.696655 212.0
108.726723 180.0
108.778618 112.0
108.801453 160.0
108.818062 84.0
108.846634 252.0
108.928429 168.0
108.950264 244.0
109.002251 160.0
109.025383 164.0
109.064178 2528.0
109.09964 248.0
109.142799 208.0
109.161606 72.0
109.187241 140.0
109.20137 160.0
109.218277 172.0
109.264915 132.0
109.29557 276.0
109.322548 120.0
109.350235 112.0
109.38385 176.0
109.460571 96.0
109.554298 228.0
109.568886 120.0
109.627838 164.0
109.664742 152.0
109.709007 120.0
109.729416 172.0
109.75856 104.0
109.775063 140.0
109.802597 204.0
109.830063 196.0
109.84726 144.0
109.881622 124.0
109.900398 64.0
109.92012 220.0
109.964859 124.0
110.019363 164.0
110.036545 528.0
110.056465 348.0
110.084091 176.0
110.136307 208.0
110.159286 168.0
110.179314 184.0
110.201073 104.0
110.237244 168.0
110.260376 312.0
110.286926 96.0
110.326843 148.0
110.375977 292.0
110.400429 108.0
110.428932 124.0
110.454033 72.0
110.49247 248.0
110.526154 192.0
110.555305 160.0
110.585518 292.0
110.607391 180.0
110.647499 264.0
110.669205 148.0
110.690536 80.0
110.716362 156.0
110.734924 180.0
110.760834 92.0
110.781685 108.0
110.798576 124.0
110.813255 136.0
110.839264 88.0
110.86441 164.0
110.877495 112.0
110.916862 164.0
110.943878 180.0
110.971321 192.0
110.994965 188.0
111.030037 124.0
111.044716 96.0
111.082474 124.0
111.109741 316.0
111.141212 176.0
111.171852 220.0
111.251862 168.0
111.273453 180.0
111.307045 112.0
111.323845 132.0
111.346985 212.0
111.373016 176.0
111.409096 300.0
111.463112 176.0
111.483505 168.0
111.498917 156.0
111.520699 216.0
111.549408 192.0
111.575951 192.0
111.619095 272.0
111.650017 216.0
111.666412 120.0
111.685341 96.0
111.709007 144.0
111.727943 96.0
111.769615 160.0
111.810463 208.0
111.846375 144.0
111.878944 176.0
111.893684 68.0
111.910522 60.0
111.933289 188.0
111.975807 212.0
112.004135 80.0
112.064186 176.0
112.067886 180.0
112.107651 200.0
112.140152 216.0
112.173714 148.0
112.200943 176.0
112.20755 148.0
112.215118 108.0
112.230225 132.0
112.256699 128.0
112.323189 200.0
112.345276 376.0
112.378166 120.0
112.408104 144.0
112.481728 124.0
112.494888 140.0
112.539856 148.0
112.597992 124.0
112.614479 104.0
112.659447 128.0
112.688828 132.0
112.709908 332.0
112.734558 180.0
112.757439 164.0
112.77227 156.0
112.778992 132.0
112.799347 108.0
112.83255 124.0
112.872719 228.0
112.896744 184.0
112.942513 196.0
112.97213 84.0
112.994484 148.0
113.012894 296.0
113.035606 224.0
113.057266 136.0
113.089951 160.0
113.152023 112.0
113.168495 200.0
113.211311 148.0
113.247314 148.0
113.268494 196.0
113.299103 296.0
113.324974 152.0
113.354515 156.0
113.378677 52.0
113.436874 180.0
113.47728 176.0
113.502029 148.0
113.524323 80.0
113.587097 108.0
113.601311 188.0
113.638222 92.0
113.663513 152.0
113.681946 136.0
113.6968 304.0
113.741371 196.0
113.762657 144.0
113.811859 120.0
113.860802 64.0
113.885818 144.0
113.92952 100.0
113.962242 180.0
113.98481 116.0
114.005989 136.0
114.010689 80.0
114.021034 120.0
114.044556 332.0
114.067413 484.0
114.092873 188.0
114.113693 188.0
114.12738 104.0
114.144112 184.0
114.169189 204.0
114.186234 200.0
114.210678 144.0
114.249466 148.0
114.279053 140.0
114.298203 168.0
114.33651 140.0
114.384857 272.0
114.417397 188.0
114.43869 80.0
114.466003 208.0
114.517479 112.0
114.558693 104.0
114.587158 164.0
114.621872 196.0
114.643181 108.0
114.658104 32.0
114.684158 160.0
114.711388 84.0
114.732475 184.0
114.738037 160.0
114.747208 100.0
114.766518 168.0
114.771973 144.0
114.805954 264.0
114.836937 132.0
114.859863 172.0
114.894478 136.0
114.928642 224.0
114.9524 168.0
114.980385 72.0
115.000816 228.0
115.019295 300.0
115.053749 42236.0
115.1166 196.0
115.135376 172.0
115.183846 180.0
115.197945 220.0
115.223892 156.0
115.238953 224.0
115.261009 224.0
115.281273 160.0
115.30098 108.0
115.324814 60.0
115.347343 136.0
115.381393 152.0
115.403206 268.0
115.423378 160.0
115.446114 312.0
115.495956 116.0
115.516464 212.0
115.559654 300.0
115.584114 388.0
115.608467 124.0
115.625587 68.0
115.646996 132.0
115.709076 124.0
115.724785 248.0
115.770424 184.0
115.807579 28.0
115.854706 424.0
115.911865 124.0
115.936134 52.0
115.976852 244.0
116.006157 376.0
116.026802 232.0
116.060524 14192.0
116.088043 244.0
116.129089 48.0
116.166428 376.0
116.185776 188.0
116.232536 92.0
116.252541 180.0
116.269821 88.0
116.298599 48.0
116.413406 124.0
116.44529 176.0
116.450279 56.0
116.45887 156.0
116.480331 124.0
116.511192 144.0
116.560814 304.0
116.597145 64.0
116.635834 244.0
116.655418 120.0
116.706169 56.0
116.721985 172.0
116.772308 136.0
116.791275 152.0
116.81517 232.0
116.844437 144.0
116.878357 204.0
116.913063 296.0
116.921837 264.0
116.944901 148.0
116.957466 84.0
116.973648 140.0
116.996147 192.0
117.011757 280.0
117.032837 176.0
117.069374 35972.0
117.12632 228.0
117.166504 260.0
117.198486 264.0
117.226135 224.0
117.256943 140.0
117.294395 136.0
117.302269 128.0
117.306122 84.0
117.334602 192.0
117.377235 144.0
117.395485 228.0
117.425438 108.0
117.450836 84.0
117.495262 48.0
117.522568 152.0
117.537903 52.0
117.602806 100.0
117.635025 164.0
117.643051 156.0
117.66629 200.0
117.72168 152.0
117.757805 176.0
117.792999 196.0
117.817444 96.0
117.846092 160.0
117.870781 176.0
117.890671 156.0
117.916054 156.0
117.928207 84.0
117.958313 144.0
117.994194 168.0
118.039726 840.0
118.07222 3932.0
118.097786 188.0
118.138123 148.0
118.176292 208.0
118.196564 152.0
118.213776 544.0
118.267212 132.0
118.29644 144.0
118.3265 196.0
118.360352 260.0
118.398727 88.0
118.437622 108.0
118.470116 84.0
118.487442 108.0
118.503693 200.0
118.537842 92.0
118.563629 204.0
118.621811 100.0
118.649384 204.0
118.667152 200.0
118.680984 300.0
118.706367 132.0
118.727707 124.0
118.766571 116.0
118.773216 180.0
118.806458 164.0
118.828247 192.0
118.865593 120.0
118.888809 84.0
118.898178 144.0
118.911789 64.0
118.939285 204.0
118.955223 220.0
118.971443 352.0
118.991211 184.0
119.04882 22712.0
119.084389 2560.0
119.129936 212.0
119.154144 292.0
119.18074 208.0
119.226799 560.0
119.244774 36.0
119.261375 88.0
119.294769 192.0
119.3283 108.0
119.352158 188.0
119.43792 140.0
119.470451 128.0
119.492683 40.0
119.529739 124.0
119.58477 188.0
119.651512 156.0
119.675514 56.0
119.692932 128.0
119.722893 200.0
119.747375 104.0
119.850632 212.0
119.891167 116.0
119.907837 136.0
119.925476 124.0
119.94532 180.0
119.954262 152.0
119.960663 172.0
119.968407 304.0
120.007812 196.0
120.052414 1512.0
120.091904 340.0
120.128525 364.0
120.143631 192.0
120.21003 124.0
120.22702 268.0
120.276566 128.0
120.319885 140.0
120.358002 168.0
120.39325 228.0
120.419067 104.0
120.424469 184.0
120.461609 164.0
120.482498 96.0
120.509399 148.0
120.52401 180.0
120.554604 160.0
120.576462 72.0
120.591759 176.0
120.607063 148.0
120.634361 156.0
120.670456 148.0
120.703255 180.0
120.743896 268.0
120.796295 388.0
120.811493 112.0
120.827934 176.0
120.872169 144.0
120.919525 372.0
120.939171 212.0
120.95948 72.0
120.982468 72.0
121.024284 220.0
121.030685 164.0
121.064476 52204.0
121.109825 104.0
121.127823 204.0
121.147156 108.0
121.173859 168.0
121.197227 188.0
121.242058 288.0
121.27346 164.0
121.311928 312.0
121.338234 44.0
121.373955 180.0
121.383049 80.0
121.391258 156.0
121.430565 220.0
121.46698 136.0
121.518845 116.0
121.550179 96.0
121.564034 104.0
121.601471 244.0
121.616562 192.0
121.632324 216.0
121.648949 172.0
121.654007 228.0
121.71199 108.0
121.737183 108.0
121.766144 36.0
121.792885 68.0
121.822098 244.0
121.84742 92.0
121.874084 236.0
121.924019 200.0
121.949158 208.0
121.968285 136.0
121.988022 188.0
122.006714 300.0
122.036667 436.0
122.066841 4860.0
122.10791 84.0
122.149612 148.0
122.155937 152.0
122.183121 52.0
122.201942 164.0
122.241013 164.0
122.258614 156.0
122.275162 100.0
122.310989 332.0
122.363937 184.0
122.4049 156.0
122.421524 236.0
122.438675 188.0
122.460648 168.0
122.485397 124.0
122.511833 384.0
122.544502 192.0
122.569939 104.0
122.597771 124.0
122.623924 152.0
122.643227 96.0
122.679321 272.0
122.765312 140.0
122.789574 132.0
122.813103 152.0
122.827072 428.0
122.905113 160.0
122.912964 60.0
122.918884 156.0
122.938179 56.0
122.988152 120.0
123.012436 96.0
123.04306 1004.0
123.076111 160.0
123.10408 124.0
123.140503 96.0
123.195885 152.0
123.235497 176.0
123.282227 164.0
123.330521 240.0
123.349609 172.0
123.389091 320.0
123.437233 180.0
123.484001 180.0
123.487846 212.0
123.510345 160.0
123.536171 68.0
123.569359 236.0
123.597473 204.0
123.627151 176.0
123.644157 100.0
123.669991 76.0
123.703751 188.0
123.743309 132.0
123.764 176.0
123.793587 120.0
123.812454 88.0
123.832596 180.0
123.854332 116.0
123.87458 272.0
123.894814 44.0
123.913399 124.0
123.945778 40.0
123.963501 56.0
123.987885 180.0
124.044487 156.0
124.051003 84.0
124.060081 196.0
124.089851 156.0
124.119934 332.0
124.162239 180.0
124.218102 256.0
124.2351 284.0
124.260231 232.0
124.311371 200.0
124.329422 120.0
124.37159 156.0
124.402672 152.0
124.424873 68.0
124.469276 292.0
124.557571 212.0
124.609215 332.0
124.642082 136.0
124.64608 108.0
124.654678 200.0
124.677834 168.0
124.689857 192.0
124.726166 152.0
124.762566 164.0
124.809258 108.0
124.84343 120.0
124.864853 80.0
124.887756 296.0
124.917198 120.0
124.952774 132.0
125.018921 148.0
125.058258 480.0
125.11586 180.0
125.133858 140.0
125.15493 236.0
125.194748 224.0
125.222153 164.0
125.268677 260.0
125.339531 144.0
125.353561 108.0
125.357857 196.0
125.374687 104.0
125.441109 148.0
125.481232 156.0
125.561966 108.0
125.60186 144.0
125.626648 116.0
125.658333 280.0
125.702507 64.0
125.731522 68.0
125.781418 124.0
125.81411 144.0
125.835777 148.0
125.887794 168.0
125.907898 144.0
125.948822 148.0
126.050026 180.0
126.065117 128.0
126.071945 164.0
126.082939 80.0
126.087189 112.0
126.115685 132.0
126.132355 156.0
126.196953 228.0
126.245361 160.0
126.28157 84.0
126.292709 320.0
126.360764 216.0
126.422653 84.0
126.444473 108.0
126.493713 140.0
126.530045 272.0
126.54882 196.0
126.586578 168.0
126.614471 176.0
126.619545 164.0
126.626297 208.0
126.66156 172.0
126.728012 52.0
126.763412 184.0
126.78714 124.0
126.836311 132.0
126.860588 104.0
126.866608 132.0
126.89846 224.0
126.932854 124.0
126.968735 108.0
127.003998 144.0
127.052658 2400.0
127.086952 292.0
127.121284 168.0
127.146606 128.0
127.166176 184.0
127.205765 232.0
127.229027 208.0
127.264954 100.0
127.306664 160.0
127.335045 168.0
127.349213 200.0
127.379486 164.0
127.395981 124.0
127.42466 260.0
127.474373 156.0
127.527794 96.0
127.552948 188.0
127.593803 232.0
127.634117 244.0
127.66494 184.0
127.689201 152.0
127.739548 160.0
127.747063 164.0
127.76416 292.0
127.803535 124.0
127.82016 216.0
127.839966 80.0
127.89473 148.0
127.945282 136.0
127.970657 176.0
128.004745 168.0
128.061707 1692.0
128.09935 188.0
128.124176 156.0
128.14389 124.0
128.197495 156.0
128.218765 220.0
128.245819 156.0
128.266098 232.0
128.309784 204.0
128.348953 176.0
128.372513 260.0
128.391373 168.0
128.417175 104.0
128.46463 152.0
128.500641 188.0
128.516434 168.0
128.561569 160.0
128.584137 104.0
128.624771 236.0
128.669189 100.0
128.687973 168.0
128.719589 128.0
128.738068 244.0
128.762497 160.0
128.789597 308.0
128.80542 204.0
128.859268 196.0
128.871964 304.0
128.904343 112.0
128.929688 172.0
128.984146 128.0
129.031418 928.0
129.067688 1236.0
129.116028 284.0
129.162994 108.0
129.204636 188.0
129.24176 64.0
129.273438 68.0
129.29744 172.0
129.318695 104.0
129.38208 76.0
129.409256 176.0
129.45433 76.0
129.482941 244.0
129.511154 104.0
129.565521 300.0
129.587585 60.0
129.602707 136.0
129.623489 96.0
129.6577 172.0
129.666061 88.0
129.705109 176.0
129.725555 236.0
129.760132 196.0
129.855682 188.0
129.873825 80.0
129.897766 80.0
129.917206 200.0
129.968094 244.0
129.991379 132.0
130.001938 192.0
130.009521 288.0
130.040436 7984.0
130.064224 160.0
130.067322 472.0
130.115601 244.0
130.164322 140.0
130.199814 168.0
130.225647 84.0
130.265244 148.0
130.30127 196.0
130.332809 140.0
130.418777 184.0
130.461777 156.0
130.496109 184.0
130.525681 180.0
130.552505 132.0
130.571442 168.0
130.59613 88.0
130.624756 308.0
130.645966 240.0
130.71196 88.0
130.718994 116.0
130.753189 164.0
130.788055 196.0
130.837036 248.0
130.88559 296.0
130.913544 196.0
130.932709 160.0
130.952911 124.0
130.967514 232.0
130.984344 168.0
131.001556 500.0
131.048904 136124.0
131.095535 256.0
131.135239 328.0
131.172958 128.0
131.206879 180.0
131.222885 172.0
131.239349 256.0
131.265121 360.0
131.302902 364.0
131.318848 108.0
131.343384 180.0
131.36911 36.0
131.399338 72.0
131.423035 1976.0
131.495621 72.0
131.51944 396.0
131.535294 140.0
131.555862 120.0
131.590439 204.0
131.604263 124.0
131.646286 172.0
131.676224 172.0
131.705383 124.0
131.723831 156.0
131.742065 124.0
131.799561 172.0
131.818283 288.0
131.853516 160.0
131.862534 76.0
131.866928 116.0
131.910751 140.0
131.936905 92.0
131.960724 96.0
131.984009 160.0
132.002258 140.0
132.012009 100.0
132.020721 120.0
132.053635 21508.0
132.088608 176.0
132.093964 152.0
132.13472 156.0
132.174957 108.0
132.195465 120.0
132.224823 68.0
132.263885 144.0
132.300766 188.0
132.315796 92.0
132.350967 108.0
132.374023 148.0
132.403809 40.0
132.429001 176.0
132.470352 200.0
132.487137 160.0
132.495117 204.0
132.545837 104.0
132.567825 228.0
132.584793 188.0
132.606522 116.0
132.647858 148.0
132.684662 156.0
132.702713 252.0
132.724625 272.0
132.753738 260.0
132.770462 264.0
132.786041 180.0
132.808273 208.0
132.846191 172.0
132.872147 248.0
132.888718 136.0
132.908997 80.0
132.937195 132.0
132.943863 120.0
132.962097 112.0
132.981567 248.0
133.027069 992.0
133.063904 32524.0
133.115829 160.0
133.148178 164.0
133.171265 248.0
133.206085 144.0
133.220886 128.0
133.242142 256.0
133.275528 128.0
133.315552 76.0
133.323654 72.0
133.331345 156.0
133.336166 72.0
133.345291 176.0
133.362854 112.0
133.381134 80.0
133.395782 128.0
133.415085 80.0
133.446747 324.0
133.47168 144.0
133.503098 68.0
133.535309 220.0
133.556137 204.0
133.595901 116.0
133.631409 160.0
133.667175 160.0
133.674576 52.0
133.681656 136.0
133.716629 136.0
133.74144 88.0
133.75679 280.0
133.782852 48.0
133.849884 168.0
133.869614 288.0
133.88855 140.0
133.940826 96.0
133.960495 184.0
133.988525 124.0
134.012711 168.0
134.035126 1440.0
134.070908 17068.0
134.122971 88.0
134.148651 88.0
134.167816 72.0
134.185913 136.0
134.204117 152.0
134.219925 156.0
134.247971 84.0
134.332291 116.0
134.364456 72.0
134.401093 156.0
134.450439 140.0
134.471481 276.0
134.5224 248.0
134.570801 140.0
134.634583 120.0
134.662384 260.0
134.682648 124.0
134.7155 140.0
134.745544 128.0
134.764023 252.0
134.784821 44.0
134.8367 160.0
134.868011 120.0
134.909805 52.0
134.948166 128.0
134.963348 276.0
134.994431 136.0
135.012817 204.0
135.043365 2492.0
135.075928 1904.0
135.105804 188.0
135.154785 36.0
135.177933 232.0
135.217743 200.0
135.235199 156.0
135.313904 272.0
135.361237 152.0
135.411758 196.0
135.501526 192.0
135.536865 88.0
135.560425 188.0
135.613342 96.0
135.671295 60.0
135.714783 460.0
135.77034 168.0
135.820663 168.0
135.844101 124.0
135.864731 160.0
135.898575 144.0
135.932953 216.0
135.994308 144.0
136.012848 232.0
136.048294 616.0
136.085358 152.0
136.117569 200.0
136.170197 96.0
136.201981 168.0
136.231537 116.0
136.267014 124.0
136.298264 152.0
136.33049 120.0
136.376419 132.0
136.402542 52.0
136.442474 204.0
136.480789 120.0
136.500198 120.0
136.528992 212.0
136.562363 192.0
136.607193 180.0
136.625793 36.0
136.64209 52.0
136.690338 108.0
136.704712 188.0
136.771332 104.0
136.777878 160.0
136.832428 112.0
136.848831 192.0
136.895798 172.0
136.919098 184.0
136.964844 180.0
136.981979 28.0
137.00061 72.0
137.022842 136.0
137.058701 6188.0
137.09343 156.0
137.139847 128.0
137.161407 184.0
137.208817 240.0
137.25589 184.0
137.326965 116.0
137.364288 144.0
137.463669 276.0
137.487946 184.0
137.508957 156.0
137.529968 168.0
137.554428 92.0
137.583649 128.0
137.613998 68.0
137.65683 152.0
137.685562 112.0
137.722168 148.0
137.760452 108.0
137.77655 188.0
137.807648 124.0
137.835907 188.0
137.859283 64.0
137.886826 208.0
137.941086 348.0
137.969131 108.0
138.006546 148.0
138.023972 124.0
138.061798 836.0
138.100845 196.0
138.180084 144.0
138.203018 364.0
138.273895 140.0
138.315353 220.0
138.335815 132.0
138.376221 184.0
138.39975 168.0
138.436432 220.0
138.474579 96.0
138.544861 96.0
138.622009 220.0
138.680771 108.0
138.710068 212.0
138.739365 168.0
138.759918 164.0
138.787888 100.0
138.812057 144.0
138.884933 208.0
138.9263 124.0
139.002075 76.0
139.02092 128.0
139.065384 184.0
139.091248 136.0
139.128815 148.0
139.158142 96.0
139.173431 168.0
139.239182 48.0
139.293198 88.0
139.337845 112.0
139.354279 128.0
139.370728 128.0
139.512085 200.0
139.563477 92.0
139.58783 144.0
139.609711 216.0
139.681076 168.0
139.724457 216.0
139.742203 160.0
139.819901 84.0
139.862259 132.0
139.919937 144.0
139.954071 196.0
139.972351 84.0
140.015305 112.0
140.031784 44.0
140.088318 52.0
140.109222 156.0
140.116592 136.0
140.188889 120.0
140.210083 248.0
140.246201 200.0
140.264297 172.0
140.292984 104.0
140.316925 68.0
140.345947 116.0
140.378754 236.0
140.411255 168.0
140.474045 148.0
140.49617 132.0
140.512039 88.0
140.516068 64.0
140.543564 208.0
140.574036 76.0
140.611786 152.0
140.687332 204.0
140.718018 132.0
140.764191 116.0
140.780563 128.0
140.824295 92.0
140.847916 100.0
140.864441 160.0
140.88797 100.0
140.957489 116.0
140.980225 116.0
141.107864 192.0
141.126785 56.0
141.166977 140.0
141.217697 124.0
141.250397 196.0
141.280518 208.0
141.344391 88.0
141.397766 196.0
141.427231 156.0
141.468353 68.0
141.533768 176.0
141.576614 168.0
141.63797 176.0
141.68364 116.0
141.706207 192.0
141.732117 108.0
141.777756 256.0
141.801468 44.0
141.844635 176.0
141.919998 132.0
141.953186 32.0
141.996918 132.0
142.056549 184.0
142.074509 136.0
142.090591 268.0
142.117889 176.0
142.152466 176.0
142.189911 200.0
142.199066 156.0
142.203445 300.0
142.268768 340.0
142.309128 404.0
142.364777 120.0
142.402863 152.0
142.473007 108.0
142.537155 128.0
142.576477 176.0
142.610825 92.0
142.644104 144.0
142.689285 128.0
142.705917 116.0
142.735931 232.0
142.786407 204.0
142.794296 172.0
142.82959 108.0
142.846237 240.0
142.871765 164.0
142.907059 192.0
142.940964 152.0
143.05014 796.0
143.138992 204.0
143.179382 100.0
143.193405 216.0
143.242859 72.0
143.286667 80.0
143.310486 152.0
143.373657 204.0
143.405441 176.0
143.491638 244.0
143.544571 164.0
143.696747 108.0
143.756409 164.0
143.777878 148.0
143.839111 160.0
143.874161 136.0
143.966492 120.0
143.985596 168.0
144.05545 4276.0
144.087082 128.0
144.110107 132.0
144.128372 228.0
144.175201 216.0
144.195404 200.0
144.225327 208.0
144.24765 328.0
144.308304 152.0
144.329712 184.0
144.351959 184.0
144.393234 100.0
144.420105 176.0
144.450134 148.0
144.485184 148.0
144.509109 52.0
144.535294 116.0
144.56575 116.0
144.588074 128.0
144.623154 116.0
144.648163 152.0
144.674255 104.0
144.722427 144.0
144.744858 172.0
144.778122 196.0
144.801788 180.0
144.834686 216.0
144.861755 324.0
144.884598 188.0
144.91124 80.0
144.937714 152.0
144.965271 96.0
144.991608 272.0
145.011322 196.0
145.030106 204.0
145.064011 30948.0
145.122284 104.0
145.140976 148.0
145.171143 96.0
145.187592 192.0
145.208603 44.0
145.242935 256.0
145.284424 140.0
145.309464 224.0
145.333359 108.0
145.383789 392.0
145.410141 60.0
145.430252 212.0
145.460495 192.0
145.486954 172.0
145.528091 416.0
145.554123 268.0
145.581741 144.0
145.608963 136.0
145.62825 352.0
145.647034 164.0
145.664841 456.0
145.701828 100.0
145.724731 172.0
145.756912 380.0
145.799377 604.0
145.828629 152.0
145.882584 256.0
145.900787 252.0
145.921555 372.0
145.936142 148.0
145.958923 372.0
145.982224 256.0
145.98967 196.0
145.999786 492.0
146.042358 864.0
146.072525 316980.0
146.149216 96.0
146.167282 192.0
146.182953 100.0
146.215744 224.0
146.236435 168.0
146.25621 60.0
146.297897 448.0
146.339783 388.0
146.369202 328.0
146.440933 564.0
146.469025 4028.0
146.519821 160.0
146.529465 208.0
146.539719 72.0
146.552536 260.0
146.575409 88.0
146.593872 88.0
146.645752 332.0
146.665436 68.0
146.690125 236.0
146.729584 236.0
146.744446 132.0
146.80368 104.0
146.844925 204.0
146.867447 220.0
146.889816 136.0
146.904724 212.0
146.912872 64.0
146.921005 184.0
146.971085 160.0
146.998444 276.0
147.043152 26408.0
147.076965 66828.0
147.135574 344.0
147.157837 68.0
147.174118 184.0
147.190582 68.0
147.227386 440.0
147.270721 248.0
147.306961 156.0
147.351013 120.0
147.375671 224.0
147.439575 56.0
147.476379 140.0
147.484695 156.0
147.514603 180.0
147.534897 120.0
147.580673 108.0
147.608063 112.0
147.630295 136.0
147.675827 92.0
147.694168 112.0
147.702805 68.0
147.708206 88.0
147.732086 84.0
147.752609 176.0
147.782791 92.0
147.803207 84.0
147.838226 180.0
147.859695 268.0
147.907578 224.0
147.928543 196.0
147.968521 192.0
147.9935 308.0
148.016006 156.0
148.049103 5112.0
148.08017 4744.0
148.113113 204.0
148.137711 68.0
148.189819 176.0
148.194336 108.0
148.215668 120.0
148.237808 104.0
148.273422 136.0
148.287613 224.0
148.31015 256.0
148.331573 76.0
148.339157 72.0
148.362335 52.0
148.40126 196.0
148.428177 88.0
148.472473 128.0
148.506332 164.0
148.530045 52.0
148.568848 100.0
148.586685 148.0
148.61998 56.0
148.651352 80.0
148.67804 116.0
148.72113 64.0
148.747147 164.0
148.779984 60.0
148.806839 160.0
148.844604 92.0
148.883301 168.0
148.903976 208.0
148.971848 128.0
148.988846 172.0
149.016083 184.0
149.058014 2044.0
149.094482 8132.0
149.134659 80.0
149.154099 28.0
149.175522 80.0
149.210281 184.0
149.244049 28.0
149.279205 244.0
149.286118 148.0
149.294342 176.0
149.327957 108.0
149.378128 92.0
149.51651 60.0
149.540253 124.0
149.560318 72.0
149.589951 136.0
149.687698 224.0
149.72345 72.0
149.750351 84.0
149.787384 80.0
149.82576 212.0
149.849457 160.0
149.874481 28.0
149.932968 148.0
149.998779 68.0
150.064468 304.0
150.096283 496.0
150.15303 216.0
150.228745 160.0
150.340256 44.0
150.364655 116.0
150.425674 176.0
150.478104 212.0
150.546661 84.0
150.572189 76.0
150.674774 104.0
150.73587 28.0
150.860519 180.0
150.895523 100.0
150.920441 188.0
150.931198 96.0
150.946991 196.0
150.964737 160.0
150.991333 128.0
151.017151 184.0
151.040344 156.0
151.074432 19688.0
151.135208 128.0
151.145203 40.0
151.153336 144.0
151.182053 88.0
151.198074 120.0
151.23764 120.0
151.288635 76.0
151.310669 100.0
151.354736 76.0
151.380768 224.0
151.411789 148.0
151.471512 112.0
151.526199 140.0
151.776215 108.0
151.819412 168.0
151.857132 60.0
151.874313 212.0
151.891479 36.0
151.955261 80.0
152.047104 212.0
152.077499 2336.0
152.146698 36.0
152.163879 80.0
152.228622 132.0
152.259659 68.0
152.30632 152.0
152.348755 136.0
152.399673 96.0
152.446365 132.0
152.510269 52.0
152.607239 140.0
152.665161 172.0
152.689758 48.0
152.715454 124.0
152.73555 148.0
152.766006 100.0
152.79306 124.0
152.84169 184.0
152.864685 112.0
152.901337 196.0
152.946259 200.0
152.975174 168.0
152.992416 48.0
153.017029 184.0
153.051331 224.0
153.080414 504.0
153.167252 148.0
153.184494 92.0
153.216522 80.0
153.292053 104.0
153.320023 64.0
153.359451 52.0
153.381638 52.0
153.398895 48.0
153.429764 84.0
153.549301 68.0
153.573975 132.0
153.596176 160.0
153.707199 64.0
153.729401 120.0
153.798508 128.0
153.855286 148.0
153.889847 88.0
153.909607 124.0
153.983688 132.0
154.000977 104.0
154.030624 176.0
154.050385 160.0
154.067673 184.0
154.176392 148.0
154.203583 84.0
154.235718 32.0
154.280212 160.0
154.309875 92.0
154.342026 176.0
154.362259 144.0
154.401596 140.0
154.478973 76.0
154.507736 184.0
154.55722 152.0
154.628998 180.0
154.734711 164.0
154.791199 216.0
154.811722 184.0
154.881546 92.0
154.901169 104.0
154.942856 180.0
154.975693 60.0
155.010376 184.0
155.032684 68.0
155.05867 1660.0
155.124741 116.0
155.146698 84.0
155.17244 84.0
155.254623 100.0
155.285568 56.0
155.322769 112.0
155.389755 152.0
155.531219 116.0
155.662796 136.0
155.682663 68.0
155.717438 132.0
155.770905 76.0
155.844131 156.0
155.864014 152.0
155.944901 112.0
155.985794 56.0
156.010651 156.0
156.061951 384.0
156.087723 108.0
156.110107 108.0
156.194672 124.0
156.236969 132.0
156.283905 120.0
156.368851 100.0
156.419052 188.0
156.443527 152.0
156.500793 48.0
156.533157 228.0
156.614075 84.0
156.710007 92.0
156.764832 36.0
156.822159 132.0
156.864532 48.0
156.886963 144.0
156.904419 96.0
156.924362 192.0
156.978531 188.0
157.060806 96.0
157.160675 124.0
157.234512 108.0
157.263641 44.0
157.331039 80.0
157.360062 96.0
157.398453 128.0
157.433411 128.0
157.570801 92.0
157.619583 208.0
157.752075 180.0
157.781982 180.0
157.831924 76.0
157.854294 56.0
157.893265 212.0
157.933273 80.0
157.97081 76.0
158.008331 68.0
158.066788 120.0
158.103409 160.0
158.125946 96.0
158.148468 236.0
158.181015 96.0
158.226074 120.0
158.306198 176.0
158.345505 156.0
158.381332 84.0
158.411392 32.0
158.480179 176.0
158.526657 104.0
158.616882 212.0
158.63443 108.0
158.671524 192.0
158.702118 152.0
158.772339 88.0
158.822495 184.0
158.86264 144.0
158.885208 180.0
158.902771 176.0
158.922852 112.0
158.990601 148.0
159.079147 912.0
159.135361 176.0
159.196457 136.0
159.241669 72.0
159.284363 224.0
159.322052 88.0
159.462769 84.0
159.490417 200.0
159.590973 120.0
159.66391 192.0
159.699112 48.0
159.7444 68.0
159.774582 160.0
159.814835 56.0
159.858322 100.0
159.887817 120.0
159.950745 96.0
159.994507 136.0
160.048355 648.0
160.085449 700.0
160.119446 84.0
160.16478 104.0
160.230286 88.0
160.284103 100.0
160.317276 144.0
160.356277 96.0
160.468689 128.0
160.512589 136.0
160.537796 52.0
160.600845 244.0
160.62355 208.0
160.646255 68.0
160.706802 196.0
160.762329 156.0
160.782516 152.0
160.817841 76.0
160.844406 184.0
160.90538 148.0
160.923874 76.0
160.946594 124.0
160.999222 172.0
161.058609 18160.0
161.129776 84.0
161.167236 188.0
161.212296 68.0
161.24469 40.0
161.302826 136.0
161.341537 144.0
161.370193 56.0
161.376282 148.0
161.424194 152.0
161.441895 64.0
161.515244 120.0
161.558243 32.0
161.611374 164.0
161.669067 80.0
161.719131 180.0
161.745758 164.0
161.765762 176.0
161.806274 48.0
161.830872 112.0
161.893997 112.0
161.93541 56.0
161.9673 136.0
162.023743 184.0
162.066513 63364.0
162.145004 40.0
162.176117 60.0
162.227463 172.0
162.244873 100.0
162.29274 156.0
162.322906 100.0
162.350266 88.0
162.3741 96.0
162.40686 92.0
162.475357 44.0
162.505798 88.0
162.526108 72.0
162.546402 32.0
162.564163 164.0
162.601639 156.0
162.699844 88.0
162.740967 104.0
162.777405 76.0
162.853592 92.0
162.87645 132.0
162.924438 72.0
162.945053 232.0
162.963943 64.0
163.016815 132.0
163.033981 176.0
163.070541 6056.0
163.106812 76.0
163.148361 124.0
163.172806 124.0
163.234009 112.0
163.289627 36.0
163.328293 148.0
163.349274 76.0
163.37471 196.0
163.400146 196.0
163.453583 48.0
163.476486 60.0
163.500381 44.0
163.688232 88.0
163.734467 36.0
163.769272 136.0
163.872528 180.0
163.881577 96.0
163.890259 188.0
163.907562 156.0
163.985855 36.0
164.013031 160.0
164.027634 228.0
164.069473 480.0
164.113113 104.0
164.143906 104.0
164.169418 56.0
164.194916 140.0
164.227936 156.0
164.265701 80.0
164.325012 72.0
164.34288 208.0
164.362259 148.0
164.379471 100.0
164.448685 112.0
164.580261 96.0
164.671127 172.0
164.705399 156.0
164.728394 108.0
164.746277 76.0
164.828033 32.0
164.897034 120.0
164.924164 136.0
164.973709 80.0
165.01973 144.0
165.038742 100.0
165.087753 300.0
165.28804 148.0
165.330841 84.0
165.36261 136.0
165.420395 92.0
165.585281 232.0
165.764603 28.0
165.787674 160.0
165.854309 188.0
165.905579 36.0
166.060226 216.0
166.089722 164.0
166.096359 132.0
166.131256 36.0
166.264694 80.0
166.305756 144.0
166.339127 128.0
166.45723 176.0
166.644745 72.0
166.739822 172.0
166.837494 44.0
166.894058 60.0
167.081818 200.0
167.128128 56.0
167.259384 112.0
167.282562 112.0
167.321167 88.0
167.532349 160.0
167.583878 208.0
167.630264 184.0
167.725632 176.0
167.94223 64.0
168.004135 88.0
168.094437 40.0
168.197678 140.0
168.319016 72.0
168.404251 132.0
168.519333 168.0
168.616119 176.0
168.685898 100.0
168.822937 40.0
168.903122 148.0
168.960037 192.0
169.128235 60.0
169.265457 292.0
169.288757 208.0
169.716324 168.0
169.780701 136.0
169.856369 132.0
169.897888 84.0
169.955765 116.0
170.198959 180.0
170.446548 164.0
170.544098 136.0
170.692673 44.0
170.89296 36.0
170.984039 96.0
171.088165 160.0
171.288681 112.0
171.473694 212.0
171.507568 140.0
171.623444 152.0
171.687469 148.0
171.708344 176.0
171.748474 196.0
171.984909 120.0
172.072311 152.0
172.196396 88.0
172.345306 124.0
172.397568 160.0
172.434158 168.0
172.483826 112.0
172.50473 100.0
172.625015 200.0
172.698242 148.0
172.724396 160.0
172.834274 84.0
172.873535 168.0
172.956329 120.0
173.066696 160.0
173.103897 148.0
173.166748 104.0
173.242722 116.0
173.287262 100.0
173.316605 220.0
173.415665 112.0
173.706726 52.0
173.740829 112.0
173.828537 112.0
173.906143 164.0
173.948151 172.0
173.988724 228.0
174.011154 136.0
174.086182 140.0
174.134918 188.0
174.271179 188.0
174.289581 168.0
174.329895 304.0
174.352646 132.0
174.420975 104.0
174.560654 228.0
174.610291 52.0
174.636597 52.0
174.823395 104.0
174.873398 64.0
175.044525 152.0
175.075684 656.0
175.14476 212.0
175.188293 172.0
175.284241 88.0
175.307953 148.0
175.51799 184.0
175.597961 228.0
175.632248 208.0
175.736404 176.0
175.777115 140.0
175.787445 136.0
175.840698 156.0
175.896133 172.0
175.945572 268.0
175.992859 168.0
176.014938 216.0
176.043991 240.0
176.082382 2092.0
176.219727 164.0
176.298889 292.0
176.329315 132.0
176.347809 60.0
176.392227 180.0
176.432892 128.0
176.490265 220.0
176.522308 144.0
176.555679 116.0
176.603653 216.0
176.64299 152.0
176.6633 168.0
176.711472 240.0
176.757462 76.0
176.799271 172.0
176.827484 124.0
176.861694 328.0
176.897934 220.0
176.904892 284.0
176.927628 324.0
176.952225 180.0
176.961441 384.0
177.001587 428.0
177.024857 380.0
177.029831 380.0
177.090851 232252.0
177.176315 196.0
177.213745 56.0
177.259415 228.0
177.284622 116.0
177.315872 164.0
177.341736 96.0
177.369202 144.0
177.39006 156.0
177.409378 88.0
177.418793 76.0
177.429642 120.0
177.478806 92.0
177.526428 2292.0
177.56987 180.0
177.601028 84.0
177.6427 208.0
177.664978 156.0
177.68924 224.0
177.715652 172.0
177.749954 92.0
177.813126 168.0
177.830734 64.0
177.875412 108.0
177.884796 148.0
177.896698 76.0
177.90126 72.0
177.945602 56.0
177.966095 132.0
177.99321 160.0
178.026459 120.0
178.093567 31372.0
178.150681 76.0
178.178116 104.0
178.232422 72.0
178.249435 216.0
178.293625 252.0
178.347412 88.0
178.376266 84.0
178.391235 68.0
178.427002 120.0
178.458313 36.0
178.502304 60.0
178.529816 60.0
178.553741 64.0
178.590988 96.0
178.651077 68.0
178.708435 156.0
178.805817 156.0
178.9021 128.0
178.921936 76.0
178.942383 112.0
178.984726 80.0
179.019485 104.0
179.046249 76.0
179.095215 2480.0
179.156387 160.0
179.191025 100.0
179.232727 76.0
179.279892 88.0
179.283676 164.0
179.308701 68.0
179.319077 184.0
179.368195 272.0
179.393463 188.0
179.412827 136.0
179.423325 100.0
179.452942 60.0
179.48494 96.0
179.516495 208.0
179.542923 204.0
179.571487 132.0
179.593613 212.0
179.66185 212.0
179.711914 84.0
179.733902 48.0
179.82196 60.0
179.894028 140.0
179.923401 116.0
179.954193 60.0
180.063065 92.0
180.090347 124.0
180.214523 84.0
180.249268 68.0
180.275986 92.0
180.377548 44.0
180.471115 84.0
180.564713 124.0
180.65567 60.0
180.695801 28.0
180.837631 112.0
180.920746 80.0
181.049133 60.0
181.121445 68.0
181.188416 76.0
181.207184 56.0
181.225937 76.0
181.373337 72.0
181.539566 52.0
181.577103 48.0
181.614655 40.0
181.771759 76.0
182.299286 64.0
182.576187 44.0
182.613846 80.0
182.950211 56.0
182.971741 144.0
183.238388 84.0
183.462082 52.0
183.575317 40.0
183.750656 96.0
183.963852 164.0
184.231216 60.0
184.409561 96.0
184.849213 64.0
184.888275 92.0
184.928879 88.0
185.001968 80.0
185.145477 60.0
185.313416 72.0
185.524826 88.0
185.866562 88.0
185.888275 28.0
186.192337 84.0
186.227646 48.0
186.273819 76.0
186.357529 64.0
186.662476 60.0
186.926346 128.0
187.070602 32.0
187.149551 160.0
187.174057 84.0
187.391968 52.0
187.781799 76.0
188.09581 140.0
188.223907 108.0
188.286713 56.0
188.311295 64.0
188.393234 68.0
188.412369 84.0
188.436951 76.0
188.532593 112.0
188.59819 36.0
188.781372 96.0
189.076828 132.0
189.228714 100.0
189.298584 96.0
189.399918 56.0
189.603348 148.0
189.923462 140.0
190.131989 120.0
190.189636 40.0
190.329651 60.0
190.755493 60.0
191.13504 184.0
191.179077 36.0
191.212097 188.0
191.399307 40.0
191.435104 64.0
191.727127 36.0
191.994537 104.0
192.044189 84.0
192.095352 176.0
192.135223 260.0
192.471954 52.0
192.529953 88.0
192.582428 48.0
193.116669 348.0
193.932693 44.0
194.057434 52.0
194.394958 124.0
194.856781 108.0
195.468506 172.0
195.666138 40.0
195.696762 40.0
195.866638 64.0
195.946198 172.0
196.106277 80.0
196.929382 32.0
198.348022 124.0
198.606003 96.0
198.939941 216.0
199.330338 52.0
199.5271 108.0
199.628326 168.0
199.754898 120.0
200.219315 44.0
200.250305 168.0
201.432175 104.0
201.73172 56.0
201.926834 116.0
202.136185 96.0
202.430588 40.0
203.096619 48.0
203.13916 32.0
203.556396 68.0
204.136383 120.0
204.210052 112.0
204.284012 92.0
204.531586 28.0
206.119247 148.0
206.39743 36.0
206.560455 76.0
206.680618 136.0
206.941086 84.0
207.081406 148.0
207.107193 60.0
207.130096 48.0
207.353592 60.0
207.998962 36.0
208.849518 160.0
209.629745 120.0
209.802689 104.0
210.714691 76.0
210.812927 64.0
210.966125 120.0
211.023941 140.0
211.073105 88.0
211.776367 76.0
212.335754 60.0
213.872787 84.0
214.825668 72.0
215.132095 64.0
215.25975 104.0
215.733902 100.0
215.774826 52.0
216.073151 68.0
216.928299 120.0
217.107162 56.0
217.409332 80.0
218.237717 52.0
218.26712 48.0
218.664276 56.0
218.870346 64.0
218.94397 172.0
219.011719 68.0
220.156082 84.0
220.560852 84.0
221.105087 180.0
221.14061 132.0
221.182037 72.0
221.347198 92.0
221.412994 108.0
221.896011 56.0
222.207428 44.0
222.516098 80.0
222.804184 88.0
222.854691 84.0
222.99733 48.0
223.645752 40.0
223.967331 180.0
224.190796 80.0
224.721573 160.0
226.314697 100.0
226.728104 56.0
227.078873 56.0
227.264877 116.0
230.009598 76.0
230.98262 156.0
231.061264 80.0
231.273102 40.0
231.340942 88.0
231.457779 32.0
232.185089 144.0
232.342819 112.0
233.077606 148.0
233.17485 72.0
233.463669 32.0
233.758759 72.0
233.843979 96.0
234.041855 112.0
234.145386 288.0
234.64209 68.0
235.162323 88.0
235.597351 116.0
236.156754 168.0
236.312775 56.0
236.640274 52.0
236.670883 40.0
236.698441 64.0
236.830139 104.0
236.955734 60.0
237.15799 164.0
237.317413 68.0
237.41861 28.0
237.44928 132.0
237.771423 52.0
238.145996 68.0
238.434814 56.0
238.55162 60.0
238.776077 68.0
238.819138 60.0
239.853745 76.0
241.945145 48.0
242.843796 56.0
243.085785 96.0
244.138916 124.0
244.34111 124.0
244.91391 168.0
246.345718 124.0
247.690842 36.0
248.044937 48.0
248.11705 92.0
248.17662 124.0
248.763306 52.0
249.124451 100.0
249.621063 156.0
249.935623 224.0
250.27243 120.0
250.773331 36.0
251.334686 68.0
251.906143 96.0
252.791443 144.0
253.130173 108.0
253.903427 52.0
255.723953 44.0
256.478851 76.0
257.525421 216.0
257.825775 96.0
257.975983 100.0
258.062317 56.0
258.900696 156.0
260.366364 88.0
261.578552 152.0
262.11499 52.0
262.187317 144.0
262.335571 84.0
262.429077 84.0
263.179657 272.0
263.287445 44.0
263.35849 52.0
263.604034 84.0
263.911133 84.0
264.176331 144.0
264.312225 68.0
264.561432 56.0
265.24173 80.0
265.374634 68.0
265.400574 148.0
266.663422 60.0
267.85434 76.0
268.300812 148.0
269.263428 108.0
269.302612 60.0
272.105804 84.0
272.802277 104.0
273.802582 60.0
274.337646 84.0
274.405609 92.0
275.213989 88.0
276.188934 76.0
276.585999 152.0
276.943604 52.0
277.099304 44.0
277.374359 240.0
277.480469 52.0
277.616425 88.0
278.094177 152.0
278.209534 5756.0
278.34317 44.0
278.424316 92.0
278.499237 40.0
278.525818 52.0
278.628815 44.0
278.731812 32.0
279.001038 80.0
279.170624 84.0
279.213379 728.0
279.326935 64.0
279.446716 48.0
279.814697 116.0
279.869415 76.0
279.899384 44.0
279.926025 72.0
280.215881 280.0
280.282471 52.0
280.428009 96.0
280.552429 52.0
280.82254 60.0
280.899261 56.0
280.972656 116.0
280.996002 96.0
281.053894 68.0
281.0961 88.0
281.146149 112.0
281.767242 88.0
281.937653 88.0
283.463684 44.0
284.426239 68.0
285.114807 100.0
285.24588 56.0
285.578766 60.0
285.75708 96.0
286.117188 52.0
286.150848 40.0
288.06308 64.0
290.721008 52.0
291.923615 60.0
293.067352 136.0
293.524139 68.0
293.943695 60.0
294.288452 104.0
294.367004 76.0
295.744812 92.0
296.357819 60.0
296.923462 96.0
297.22876 40.0
298.922882 40.0
299.201691 52.0
299.566742 44.0
300.052673 88.0
300.076813 60.0
303.711426 68.0
304.162537 60.0
304.610474 52.0
305.945892 108.0
307.797302 76.0
308.094177 88.0
311.604736 84.0
311.815552 108.0
312.029999 92.0
313.730469 64.0
314.248901 48.0
314.951447 84.0
316.323456 48.0
316.978699 140.0
317.602661 48.0
320.94928 112.0
321.255981 68.0
321.669952 56.0
321.984161 108.0
323.765228 80.0
324.051788 104.0
324.722168 84.0
324.804657 44.0
325.644562 64.0
326.237488 60.0
327.266449 48.0
331.130524 48.0
333.645233 64.0
334.529266 52.0
334.740417 80.0
335.388947 120.0
335.768127 132.0
337.155487 36.0
338.131989 120.0
339.571869 52.0
339.85434 100.0
340.985413 44.0
341.290527 88.0
341.599487 96.0
343.164703 76.0
343.655273 40.0
345.472992 40.0
345.683899 40.0
345.813446 88.0
346.035553 68.0
346.38739 92.0
346.935852 64.0
347.032227 88.0
347.692535 52.0
349.059662 72.0
350.381012 64.0
350.459259 64.0
350.641846 48.0
350.906525 76.0
351.376465 84.0
352.029694 112.0
352.601288 100.0
353.379089 48.0
355.957977 60.0
356.780853 104.0
356.859802 140.0
359.855194 48.0
360.482239 124.0
361.079559 80.0
363.117218 48.0
364.879181 52.0
365.069305 56.0
365.933075 52.0
366.855072 48.0
368.339539 48.0
368.733093 52.0
369.092438 48.0
370.423187 76.0
371.321259 108.0
379.372711 28.0
381.550659 36.0
384.737549 84.0
385.749359 56.0
389.067535 32.0
390.667023 56.0
394.729584 64.0
395.319 60.0
396.384247 124.0
396.467468 40.0
399.059601 116.0
399.660217 64.0
399.703979 76.0
400.520142 96.0
400.623718 68.0
400.675507 44.0
400.743256 92.0
401.723999 76.0
404.54538 104.0
405.442627 68.0
408.812073 76.0
408.944885 60.0
409.988007 132.0
410.141174 72.0
411.932831 40.0
411.973236 80.0
412.745209 56.0
415.162811 52.0
415.824097 116.0
416.20166 108.0
417.05481 84.0
421.051819 96.0
423.444427 132.0
425.2854 72.0
426.045074 92.0
428.987579 80.0
429.416412 60.0
432.258759 84.0
433.070221 60.0
433.165497 104.0
433.385071 84.0
433.79953 40.0
434.716156 68.0
434.911224 44.0
435.251648 44.0
435.64624 108.0
436.149048 80.0
436.910065 152.0
439.443207 48.0
440.420074 76.0
440.74176 64.0
441.97113 88.0
444.472717 64.0
444.653168 48.0
446.998199 52.0
447.882324 44.0
451.161224 56.0
451.875977 48.0
452.714111 44.0
453.256348 72.0
454.278137 76.0
455.674896 80.0
458.104156 32.0
458.756195 88.0
459.553741 76.0
459.976227 72.0
460.471558 64.0
460.642395 52.0
462.241455 72.0
463.071991 156.0
466.092194 112.0
469.786346 44.0
469.94165 132.0
471.677795 44.0
473.347839 40.0
475.47641 108.0
478.2146 76.0
479.185699 56.0
481.427795 72.0
482.931274 44.0
484.643005 72.0
487.328339 48.0
489.135864 72.0
491.20697 84.0
491.304016 48.0
491.76297 84.0
491.90863 68.0
493.008423 64.0
494.649384 64.0
495.402191 56.0
496.310791 120.0
496.70993 88.0
499.357269 88.0
499.762085 48.0
506.073517 60.0
506.861877 28.0
509.607971 84.0
510.223724 52.0
510.264191 68.0
513.50647 40.0
513.948608 92.0
514.860474 48.0
514.932739 48.0
516.365479 88.0
517.677917 76.0
518.339294 44.0
518.538696 80.0
519.931091 48.0
521.407104 44.0
521.707092 72.0
526.774719 52.0
527.085388 60.0
531.935669 44.0
532.399414 52.0
533.166626 88.0
533.414795 124.0
536.725098 108.0
537.25824 76.0
537.569275 68.0
541.624084 36.0
548.725098 152.0
561.569702 68.0
561.796143 68.0
562.461548 72.0
566.907471 124.0
568.467651 48.0
568.814148 36.0
571.285278 84.0
572.345154 64.0
575.126038 44.0
576.014221 56.0
576.611511 80.0
577.132568 76.0
578.223267 36.0
580.844238 56.0
583.802917 84.0
583.918335 76.0
584.187683 124.0
585.18396 100.0
587.400818 76.0
606.340271 208.0
611.280762 40.0
620.453186 44.0
620.805237 104.0
622.254211 36.0
625.983459 48.0
628.416016 92.0
633.190002 48.0
634.989319 172.0
635.340454 84.0
637.348755 60.0
640.624146 116.0
642.171631 80.0
644.160461 52.0
644.979065 36.0
646.111877 44.0
647.893921 120.0
650.434631 92.0
651.932922 68.0
654.445862 164.0
656.805481 120.0
656.943176 84.0
659.450439 136.0
659.777588 56.0
665.105286 240.0
666.373718 40.0
668.106384 52.0
670.933777 84.0
672.38324 204.0
672.956238 68.0
672.997559 56.0
677.217529 56.0
677.958435 196.0
682.755432 212.0
683.665894 152.0
683.832397 100.0
685.884644 144.0
688.467346 176.0
689.308411 56.0
691.944702 40.0
695.819214 48.0
699.009766 88.0
699.830933 96.0
701.095215 100.0
702.339478 72.0
702.967346 204.0
704.223877 96.0
705.698303 44.0
710.210327 76.0
710.390686 144.0
712.902161 208.0
714.683533 164.0
714.811279 188.0
719.800781 148.0
721.008118 84.0
721.804688 84.0
721.997192 88.0
722.077454 92.0
722.960205 152.0
725.794006 176.0
725.858337 276.0
728.192871 44.0
729.998657 164.0
730.068542 132.0
734.690125 44.0
736.012451 100.0
736.428284 172.0
737.963074 148.0
739.169312 116.0
740.295288 48.0
741.454651 96.0
741.720215 80.0
741.834106 112.0
743.379883 64.0
746.296936 156.0
747.988892 116.0
750.375061 176.0
751.176758 112.0
756.351624 108.0
757.211243 176.0
757.304382 44.0
759.195251 72.0
760.210144 88.0
762.154053 72.0
766.661011 164.0
767.818726 168.0
768.43103 156.0
769.89386 112.0
770.136902 100.0
770.429626 52.0
771.518372 116.0
771.877747 152.0
772.170898 68.0
774.202026 204.0
775.154846 180.0
778.289001 148.0
778.960999 88.0
779.299927 84.0
779.594421 44.0
781.223572 160.0
783.366821 56.0
784.16925 184.0
784.576172 140.0
785.925903 104.0
786.422607 136.0
787.08136 72.0
787.941528 104.0
788.600952 136.0
788.640076 208.0
790.306641 64.0
790.541626 208.0
791.493286 112.0
793.549683 100.0
794.548035 136.0
794.671448 112.0
795.608704 128.0
796.799377 108.0
798.086487 72.0
800.072571 88.0
803.081787 220.0
803.837769 68.0
804.103027 116.0
805.534363 128.0
807.657043 52.0
807.990784 196.0
810.189087 192.0
810.657776 56.0
810.907104 232.0
811.689453 76.0
813.947937 72.0
813.999023 148.0
814.476135 148.0
814.941956 164.0
815.411255 152.0
816.465454 184.0
817.091125 156.0
817.273254 128.0
817.762634 160.0
818.013123 52.0
818.861511 96.0
819.28302 72.0
820.861877 180.0
821.523499 44.0
821.803101 212.0
823.287231 148.0
825.447388 208.0
825.627258 116.0
825.836304 188.0
826.797546 164.0
827.375671 84.0
829.145691 140.0
831.766907 80.0
831.95636 148.0
832.386963 64.0
832.628174 100.0
834.30603 140.0
834.465576 268.0
835.513794 112.0
837.138855 112.0
837.649597 168.0
837.701416 48.0
838.594604 52.0
839.240234 136.0
839.28064 72.0
839.528564 92.0
839.580505 160.0
841.028687 72.0
841.097961 108.0
841.184509 52.0
841.60022 32.0
843.090637 164.0
844.113831 164.0
844.767395 168.0
845.033569 156.0
845.288147 172.0
845.670105 156.0
847.175659 176.0
849.569946 120.0
849.674377 148.0
850.190857 88.0
850.498474 96.0
851.22998 168.0
851.917847 120.0
852.066406 132.0
852.188416 172.0
853.083435 32.0
853.153198 112.0
853.43811 132.0
853.990601 176.0
854.46759 172.0
854.915649 88.0
855.340515 148.0
856.487671 184.0
857.944519 112.0
858.57428 56.0
858.84259 100.0
859.151733 140.0
859.204285 128.0
860.990417 188.0
861.825806 180.0
861.884216 136.0
862.649902 76.0
862.714172 80.0
863.404175 80.0
863.497742 264.0
864.80249 148.0
865.856384 108.0
865.909119 172.0
866.061401 140.0
867.620178 84.0
868.13031 112.0
868.45874 176.0
868.892883 180.0
871.893494 160.0
872.687073 76.0
873.116333 148.0
873.533997 96.0
873.718262 196.0
874.98761 196.0
875.181885 100.0
875.488098 120.0
875.870972 140.0
876.477783 184.0
877.479797 188.0
877.521057 104.0
878.034119 136.0
878.222839 200.0
879.397034 72.0
879.73938 156.0
880.737366 84.0
882.567749 184.0
884.362 176.0
885.303345 236.0
885.398132 144.0
886.097839 164.0
886.559326 100.0
887.436646 220.0
887.685669 192.0
887.916931 188.0
888.017761 136.0
888.30249 232.0
888.391479 48.0
888.987793 128.0
889.429993 136.0
889.863342 124.0
890.071167 208.0
890.635376 60.0
891.027466 148.0
891.473083 168.0
892.305298 68.0
892.406372 152.0
892.519348 136.0
892.614502 136.0
893.589966 80.0
895.262634 100.0
895.399658 248.0
895.715332 96.0
896.168091 68.0
896.251526 132.0
897.610596 132.0
898.439697 192.0
898.696228 108.0
898.976685 144.0
900.272156 84.0
900.457275 64.0
900.988953 148.0
901.945068 36.0
902.782166 148.0
903.314453 168.0
904.283813 164.0
905.888611 92.0
906.254089 164.0
906.445801 36.0
906.757446 188.0
906.84137 120.0
907.099121 92.0
907.824585 48.0
909.066406 124.0
909.798706 96.0
910.327087 116.0
910.381104 172.0
911.540527 176.0
912.496277 184.0
912.833008 168.0
913.217896 60.0
913.819458 140.0
914.433289 144.0
914.704285 164.0
914.752319 88.0
914.854675 208.0
915.215881 140.0
915.510986 276.0
915.788025 212.0
915.884399 76.0
915.992798 108.0
916.203674 224.0
916.649536 180.0
917.089478 128.0
917.36676 172.0
917.601929 72.0
917.837097 252.0
918.167969 180.0
919.876343 116.0
920.311035 40.0
920.407654 136.0
920.685425 148.0
921.331726 228.0
921.591553 176.0
921.839294 48.0
921.905762 60.0
922.292603 120.0
922.606934 160.0
922.915283 164.0
923.131165 172.0
923.199524 72.0
923.352417 208.0
923.63501 148.0
923.677307 108.0
923.79364 224.0
923.889038 156.0
924.221802 196.0
924.288391 172.0
924.415466 56.0
925.729126 180.0
925.904724 192.0
926.268188 60.0
926.655884 172.0
926.872742 188.0
927.358887 240.0
927.934753 36.0
928.577576 148.0
928.996094 176.0
929.208435 128.0
929.602844 152.0
929.954834 256.0
930.507263 112.0
930.628723 56.0
930.999146 192.0
931.157043 116.0
931.709839 116.0
932.633484 148.0
932.888794 140.0
932.967834 108.0
933.065125 208.0
933.253601 128.0
933.399536 64.0
933.715759 112.0
934.403137 264.0
934.567444 72.0
934.896057 236.0
935.005615 228.0
936.278015 220.0
936.332825 108.0
936.533813 208.0
936.698303 212.0
937.021179 100.0
937.143066 60.0
937.563538 172.0
937.618347 64.0
938.429138 152.0
938.898682 160.0
939.276855 36.0
939.595154 68.0
940.228699 92.0
940.479736 120.0
940.82074 124.0
940.985596 100.0
941.046692 84.0
941.174866 156.0
941.266479 136.0
942.036072 168.0
942.359863 72.0
943.117676 152.0
943.178772 236.0
943.25824 108.0
943.429382 136.0
943.472229 160.0
943.827271 156.0
944.089783 112.0
944.175415 192.0
944.891113 212.0
945.478516 188.0
945.570312 164.0
945.821289 96.0
946.176331 52.0
946.814819 184.0
946.954041 96.0
947.346069 156.0
947.480896 140.0
947.536011 100.0
947.813293 176.0
948.154907 192.0
948.528809 96.0
949.473083 184.0
949.65094 140.0
949.890137 120.0
950.043518 192.0
950.356445 112.0
950.626404 132.0
950.976257 120.0
951.080566 132.0
951.227905 96.0
951.418213 132.0
951.890625 132.0
952.12439 160.0
952.437622 136.0
952.560486 160.0
952.64032 84.0
952.720215 108.0
952.784912 120.0
953.119568 104.0
953.174866 72.0
953.408386 160.0
953.574341 68.0
953.838623 192.0
954.096863 96.0
954.336609 48.0
954.557983 192.0
955.03772 116.0
955.443726 144.0
955.720581 116.0
955.923645 140.0
956.157532 232.0
956.249817 136.0
956.625305 140.0
956.871582 212.0
956.927002 104.0
957.323853 132.0
957.376526 40.0
958.060242 124.0
958.201904 88.0
958.282043 128.0
958.436035 172.0
958.935242 56.0
958.984558 92.0
959.16333 64.0
960.038818 124.0
960.143677 156.0
960.248535 96.0
960.64447 144.0
960.754333 64.0
961.396057 136.0
961.451599 200.0
961.971436 92.0
962.056519 140.0
962.371399 76.0
962.68634 196.0
962.735718 136.0
962.822205 172.0
962.93335 112.0
963.347229 164.0
963.390442 108.0
963.446045 176.0
963.61908 176.0
964.335876 160.0
964.77478 216.0
964.935547 116.0
965.458191 108.0
965.603394 120.0
965.696167 136.0
965.782776 108.0
965.918823 44.0
966.116821 44.0
966.389038 132.0
966.710815 216.0
966.853149 120.0
967.100708 180.0
967.193542 192.0
967.756958 260.0
968.029419 60.0
968.103699 132.0
968.147034 164.0
968.456726 128.0
968.555847 124.0
968.623962 120.0
969.115051 164.0
969.200134 172.0
969.726929 224.0
969.863281 172.0
969.906677 92.0
970.136047 212.0
970.346863 92.0
971.351501 92.0
971.511536 200.0
971.698914 88.0
971.779602 124.0
971.86731 176.0
972.077454 120.0
972.176697 180.0
972.319458 32.0
973.008484 48.0
973.231995 64.0
973.579773 84.0
974.020752 104.0
974.356201 148.0
974.399719 132.0
974.579895 228.0
974.710388 212.0
974.878174 140.0
975.052185 108.0
975.101929 168.0
975.350525 220.0
975.49353 92.0
975.91626 164.0
976.065491 140.0
976.38269 168.0
976.536865 196.0
976.674988 56.0
976.786987 204.0
977.029602 88.0
977.07312 124.0
977.147766 120.0
977.732727 100.0
978.243103 204.0
978.355164 172.0
978.610474 140.0
978.722534 100.0
979.202026 148.0
979.606934 124.0
979.987 132.0
980.086853 164.0
980.44812 152.0
980.560303 152.0
980.784668 148.0
980.915588 68.0
981.202332 128.0
981.383179 176.0
981.464233 152.0
982.047729 180.0
982.131531 100.0
982.462158 180.0
982.62439 96.0
982.927429 240.0
983.042419 164.0
983.416931 92.0
983.928772 96.0
984.140198 144.0
984.578186 160.0
984.959229 68.0
985.299194 104.0
985.508972 188.0
986.358948 172.0
986.499573 136.0
986.602722 164.0
987.040405 28.0
987.328064 136.0
987.371887 168.0
987.528259 76.0
988.0224 132.0
988.497925 212.0
989.161377 84.0
989.461914 268.0
989.781189 216.0
989.950317 124.0
990.965088 72.0
991.836182 132.0
992.068115 116.0
992.206055 108.0
992.632385 144.0
992.795471 184.0
993.196899 152.0
993.253357 160.0
993.328613 84.0
993.397583 120.0
993.635986 200.0
994.665222 180.0
995.362122 172.0
995.528931 120.0
995.701233 72.0
995.933655 216.0
996.335693 76.0
996.46759 124.0
996.850891 44.0
997.064575 64.0
997.416565 144.0
997.554871 136.0
997.881775 108.0
998.233887 196.0
999.020142 168.0
999.36615 28.0
999.856995 172.0
1000.146545 44.0
1000.769775 72.0
1000.813904 132.0
1001.355469 64.0
1001.456238 156.0
1001.569641 200.0
1002.048401 148.0
1002.325623 100.0
1002.401245 136.0
1002.745667 148.0
1002.974792 148.0
1003.051147 148.0
1003.567383 296.0
1003.983582 156.0
1004.097107 144.0
1004.305237 120.0
1004.85144 232.0
1005.024475 136.0
1005.150635 116.0
1005.371521 204.0
1005.769165 84.0
1006.230042 64.0
1006.349976 56.0
1006.492493 180.0
1006.552063 136.0
1006.899353 88.0
1007.240479 120.0
1007.429993 96.0
1007.70697 168.0
1007.783752 120.0
1008.219788 144.0
1008.28302 116.0
1008.384155 176.0
1008.539917 184.0
1008.832947 180.0
1009.028931 120.0
1009.414612 72.0
1010.002808 164.0
1010.167297 168.0
1010.274841 108.0
1010.489929 140.0
1010.546875 44.0
1010.771606 140.0
1011.065796 128.0
1011.236633 184.0
1011.578491 104.0
1011.819031 100.0
1011.945679 52.0
1012.053284 176.0
1012.129272 184.0
1012.201904 164.0
1012.312927 128.0
1012.437317 220.0
1012.528259 144.0
1012.832275 136.0
1012.971619 144.0
1013.047668 152.0
1013.130005 72.0
1013.592529 136.0
1013.706604 128.0
1013.916992 100.0
1014.365784 168.0
1014.549622 228.0
1014.739807 32.0
1014.974426 84.0
1015.297852 148.0
1015.342224 164.0
1015.393005 120.0
1015.443726 88.0
1015.66571 88.0
1015.836975 176.0
1015.932129 172.0
1016.014648 204.0
1016.090759 72.0
1016.154236 196.0
1016.636475 164.0
1016.966492 116.0
1017.455322 140.0
1017.56958 268.0
1017.620361 96.0
1017.798157 160.0
1018.03064 216.0
1018.109314 136.0
1018.185547 192.0
1018.693665 100.0
1018.808044 56.0
1018.90332 116.0
1019.087585 84.0
1019.494263 108.0
1019.595947 128.0
1019.716736 196.0
1020.244324 128.0
1020.37146 148.0
1020.810242 224.0
1020.87384 136.0
1020.994629 108.0
1021.191833 192.0
1021.299927 184.0
1021.509827 184.0
1021.592529 148.0
1021.815247 140.0
1022.10791 128.0
1022.254272 144.0
1022.343384 184.0
1022.432495 156.0
1022.632507 220.0
1023.102051 208.0
1023.266357 84.0
1023.953491 160.0
1024.189819 164.0
1024.361816 76.0
1024.438232 96.0
1024.482788 44.0
1024.737671 132.0
1024.90332 44.0
1025.2052 168.0
1025.556641 192.0
1026.184448 224.0
1026.248291 124.0
1026.300659 180.0
1026.452271 36.0
1026.720093 200.0
1026.860474 128.0
1026.981689 80.0
1027.147461 92.0
1027.313354 80.0
1027.440918 124.0
1027.67981 128.0
1027.900391 204.0
1027.944946 172.0
1028.276855 144.0
1028.353516 232.0
1028.55127 176.0
1028.65979 228.0
1029.074829 156.0
1029.191895 144.0
1029.381348 104.0
1029.579346 216.0
1030.034302 184.0
1030.333008 240.0
1030.620972 172.0
1030.895386 48.0
1031.067871 132.0
1031.342773 176.0
1031.668701 72.0
1031.890747 164.0
1032.007568 180.0
1032.256958 192.0
1032.649658 148.0
1032.723877 156.0
1032.88562 244.0
1033.069336 72.0
1033.184448 176.0
1033.347778 136.0
1033.657959 140.0
1033.785889 124.0
1033.837158 120.0
1034.099487 164.0
1034.521973 128.0
1034.566772 204.0
1034.912598 152.0
1035.059814 128.0
1035.520874 152.0
1035.789917 172.0
1035.962891 144.0
1036.148682 148.0
1036.475464 68.0
1036.706177 160.0
1036.962524 156.0
1037.052246 128.0
1037.103516 88.0
1037.526611 44.0
1037.590332 156.0
1037.641968 172.0
1037.872803 408.0
1038.013916 100.0
1038.450073 156.0
1038.494873 172.0
1038.655273 116.0
1039.001709 132.0
1039.149292 176.0
1039.277588 180.0
1039.565918 128.0
1039.831909 164.0
1040.086182 152.0
1040.394409 164.0
1040.49707 76.0
1040.67688 128.0
1040.908081 128.0
1041.049316 108.0
1041.209839 136.0
1041.351196 140.0
1042.212036 88.0
1042.494751 164.0
1042.6875 240.0
1042.796875 180.0
1042.879395 108.0
1043.652344 144.0
1043.814575 204.0
1044.063354 120.0
1044.262817 200.0
1044.532959 188.0
1044.880371 116.0
1044.970459 132.0
1045.227783 120.0
1045.401489 152.0
1045.549561 120.0
1045.634155 172.0
1045.768433 112.0
1045.813477 48.0
1045.910034 88.0
1046.057983 100.0
1046.418579 128.0
1046.637451 160.0
1046.755005 164.0
1046.808228 156.0
1046.860474 164.0
1047.172729 176.0
1047.442505 172.0
1047.713135 188.0
1047.764648 208.0
1047.867798 160.0
1048.576538 184.0
1049.085815 160.0
1049.240601 228.0
1049.444092 132.0
1049.666138 96.0
1049.84668 176.0
1049.949829 240.0
1050.246582 72.0
1050.690063 180.0
1050.820679 180.0
1051.640259 44.0
1051.906738 128.0
1052.221313 120.0
1052.305176 92.0
1052.376221 100.0
1052.505371 100.0
1052.597168 188.0
1053.028442 200.0
1053.383789 40.0
1053.454834 176.0
1053.693848 168.0
1053.900635 224.0
1054.00708 208.0
1054.278442 88.0
1054.352905 212.0
1054.456299 164.0
1054.585571 240.0
1054.708374 108.0
1054.83667 148.0
1054.954102 76.0
1055.311401 200.0
1055.501465 164.0
1055.607056 144.0
1055.781738 100.0
1055.898193 88.0
1056.020996 164.0
1056.118042 56.0
1056.234497 132.0
1056.499756 164.0
1056.542847 132.0
1056.677246 72.0
1057.264282 48.0
1057.349609 188.0
1057.729248 208.0
1057.807007 152.0
1057.852295 176.0
1058.370239 116.0
1058.991943 184.0
1059.11499 124.0
1059.192749 64.0
1059.322266 164.0
1059.448364 296.0
1059.503662 104.0
1059.979614 136.0
1061.026733 112.0
1061.091553 136.0
1061.287842 184.0
1061.389771 176.0
1061.45459 36.0
1061.65564 204.0
1061.967041 52.0
1062.057861 168.0
1062.446167 208.0
1062.739014 192.0
1062.907715 128.0
1063.057007 64.0
1063.173706 188.0
1063.673584 132.0
1063.725464 88.0
1063.946167 116.0
1064.387695 124.0
1064.777954 124.0
1065.293457 192.0
1065.459229 144.0
1065.553467 108.0
1065.907715 148.0
1066.050781 44.0
1066.154663 96.0
1066.206665 88.0
1066.284668 132.0
1066.395142 204.0
1066.804688 216.0
1066.869751 108.0
1067.409424 140.0
1067.532959 144.0
1067.76709 136.0
1067.864502 212.0
1068.37854 152.0
1068.450073 300.0
1068.742798 84.0
1068.925049 128.0
1069.074707 124.0
1069.237427 160.0
1069.380615 84.0
1069.46521 48.0
1069.510742 76.0
1069.77124 140.0
1069.842773 176.0
1070.226929 168.0
1070.318115 212.0
1070.389771 188.0
1070.585083 96.0
1070.689331 116.0
1070.828979 224.0
1071.125732 96.0
1071.210327 128.0
1071.418823 164.0
1071.640381 112.0
1071.85791 112.0
1071.933594 140.0
1072.070435 128.0
1072.174683 176.0
1072.324585 96.0
1072.474487 140.0
1072.826538 236.0
1073.169556 164.0
1073.393799 152.0
1073.687256 120.0
1074.039429 100.0
1074.124268 52.0
1074.378662 100.0
1074.483032 104.0
1074.64624 164.0
1074.802734 168.0
1074.952759 152.0
1075.129028 152.0
1075.23999 152.0
1075.768799 52.0
1076.069092 152.0
1076.421631 164.0
1076.545776 80.0
1076.662964 212.0
1076.885376 140.0
1076.970215 152.0
1077.035645 92.0
1077.144165 168.0
1077.26416 188.0
1077.32959 208.0
1077.551636 124.0
1077.630127 72.0
1077.692749 68.0
1077.891479 84.0
1077.976562 176.0
1078.047363 196.0
1078.363892 136.0
1078.404297 100.0
1078.806519 172.0
1078.904541 148.0
1078.97644 100.0
1079.120361 116.0
1079.244507 156.0
1079.421143 116.0
1079.669556 80.0
1079.715332 120.0
1080.042358 140.0
1080.092041 136.0
1080.192871 180.0
1080.245239 228.0
1080.46106 168.0
1080.536987 156.0
1080.919067 164.0
1081.056519 48.0
1081.148193 168.0
1081.409912 216.0
1081.730713 184.0
1082.09729 156.0
1082.264282 128.0
1082.463989 188.0
1082.593018 148.0
1082.784912 108.0
1082.843872 136.0
1082.961792 88.0
1083.07312 160.0
1083.19751 388.0
1083.5448 196.0
1083.645752 144.0
1083.787231 140.0
1083.878906 124.0
1084.160767 36.0
1084.422852 168.0
1084.534302 128.0
1084.822754 108.0
1084.973511 128.0
1085.307861 112.0
1085.629272 200.0
1085.780029 104.0
1085.852173 36.0
1085.98999 168.0
1086.226074 132.0
1086.416382 124.0
1086.475342 64.0
1086.593506 188.0
1086.691895 60.0
1086.901855 188.0
1087.098755 148.0
1087.295654 88.0
1087.411377 360.0
1087.492554 124.0
1087.545044 152.0
1087.702515 164.0
1087.761597 148.0
1088.134399 112.0
1088.759644 72.0
1088.923828 120.0
1089.002686 176.0
1089.180786 160.0
1089.495361 152.0
1089.607056 172.0
1089.666138 184.0
1089.777832 112.0
1089.856689 160.0
1090.180054 116.0
1090.5271 108.0
1090.861816 164.0
1091.000366 156.0
1091.158081 104.0
1091.611816 172.0
1091.664429 72.0
1091.763062 220.0
1091.868286 196.0
1092.137939 96.0
1092.213379 184.0
1092.399536 192.0
1092.442871 172.0
1092.591919 168.0
1092.697144 192.0
1092.94458 164.0
1093.006348 132.0
1093.25647 56.0
1093.598755 120.0
1093.753418 164.0
1093.856934 284.0
1093.947632 164.0
1094.013428 132.0
1094.059448 104.0
1094.131958 176.0
1094.177979 164.0
1094.289917 108.0
1094.416504 196.0
1094.585205 152.0
1094.607666 128.0
1094.621216 184.0
1094.69165 136.0
1094.849609 200.0
1094.928711 108.0
1095.047241 192.0
1095.093384 136.0
1095.192139 128.0
1095.297485 212.0
1095.369995 168.0
1095.564819 92.0
1095.65332 112.0
1095.798218 152.0
1095.882446 208.0
1096.028809 216.0
1096.173828 136.0
1096.380127 228.0
1096.463745 176.0
1096.52771 192.0
1096.545776 136.0
1096.642212 124.0
1096.77356 140.0
1096.929077 160.0
1097.03064 132.0
1097.234985 140.0
1097.449341 220.0
1097.604248 148.0
1097.663574 132.0
1097.835083 60.0
1097.973511 116.0
1098.151611 168.0
1098.257202 128.0
1098.943237 348.0
1099.005127 148.0
1099.444824 172.0
1099.497559 92.0
1099.682373 148.0
1099.91626 168.0
1099.977295 232.0
1100.025635 148.0
1100.355713 48.0
1100.569824 316.0
1100.588623 136.0
1100.609131 216.0
1100.725464 140.0
1100.817993 36.0
1100.899292 176.0
1101.503906 176.0
1101.516846 68.0
1101.828613 84.0
1101.874756 224.0
1101.957764 100.0
1102.396851 288.0
1102.661133 64.0
1102.753662 128.0
1103.123901 52.0
1103.249512 112.0
1103.302368 120.0
1104.049561 216.0
1104.199219 128.0
1104.223022 140.0
1104.390869 372.0
1104.909424 72.0
1104.955811 116.0
1105.068237 84.0
1105.121216 128.0
1105.180786 180.0
1105.280029 84.0
1105.584473 196.0
1105.696899 192.0
1105.743286 92.0
1105.796143 140.0
1105.915283 164.0
1105.975098 112.0
1106.246338 112.0
1106.444946 128.0
1106.5177 116.0
1106.703125 136.0
1106.80249 84.0
1107.175781 180.0
1107.34021 168.0
1107.570679 72.0
1107.662964 204.0
1107.908569 84.0
1108.080811 52.0
1108.226562 136.0
1108.514648 112.0
1108.630859 184.0
1108.816406 128.0
1108.975464 96.0
1109.074829 192.0
1109.141113 144.0
1109.224854 196.0
1109.340088 216.0
1109.78418 148.0
1109.943359 160.0
1110.142334 180.0
1110.414185 152.0
1110.66626 140.0
1110.885986 156.0
1111.01355 112.0
1111.102295 168.0
1111.203613 292.0
1111.369507 92.0
1111.570801 188.0
1111.807495 324.0
1111.898315 156.0
1112.026489 164.0
1112.126099 108.0
1112.199097 60.0
1112.31189 76.0
1112.404907 160.0
1112.570801 144.0
1112.643921 108.0
1112.724731 176.0
1112.792847 200.0
1112.843018 144.0
1113.003052 168.0
1113.090088 152.0
1113.616577 144.0
1113.812622 60.0
1113.872437 92.0
1113.918945 168.0
1114.051758 112.0
1114.144775 128.0
1114.197998 256.0
1114.463745 232.0
1114.563354 200.0
1114.669678 88.0
1115.001953 112.0
1115.061768 52.0
1115.148193 76.0
1115.305054 164.0
1115.367554 192.0
1115.480591 180.0
1115.799683 124.0
1115.98584 148.0
1116.032349 120.0
1116.098877 132.0
1116.205322 188.0
1116.318359 172.0
1116.564453 152.0
1116.757324 104.0
1116.837158 68.0
1117.036621 76.0
1117.14978 112.0
1117.232178 168.0
1117.411499 144.0
1117.582275 92.0
1117.688721 140.0
1118.088013 200.0
1118.194458 168.0
1118.254395 140.0
1118.334229 148.0
1118.533936 36.0
1118.591797 156.0
1118.840088 200.0
1119.676636 224.0
1119.785767 68.0
1119.958862 116.0
1120.005493 124.0
1120.064453 132.0
1120.13208 232.0
1120.19873 188.0
1120.345215 200.0
1120.39856 84.0
1120.471802 108.0
1120.625122 120.0
1120.698364 104.0
1120.805054 144.0
1120.911621 124.0
1121.118164 164.0
1121.184814 124.0
1121.335083 164.0
1121.41626 100.0
1121.478149 132.0
1121.618042 144.0
1121.691406 236.0
1121.984741 176.0
1122.056763 124.0
1122.171387 84.0
1122.289307 212.0
1122.531494 116.0
1123.05835 132.0
1123.118408 84.0
1123.37854 184.0
1123.476807 176.0
1123.865601 80.0
1123.979004 132.0
1124.172607 204.0
1124.486206 192.0
1124.581787 128.0
1124.663452 144.0
1124.753174 172.0
1124.839844 144.0
1125.033569 92.0
1125.494263 132.0
1125.561035 84.0
1125.708008 136.0
1125.81543 132.0
1125.837769 128.0
1125.86377 188.0
1125.987183 128.0
1126.195557 152.0
1126.282349 152.0
1126.366455 176.0
1126.696533 148.0
1126.816772 172.0
1126.890259 108.0
1127.03064 168.0
1127.084106 172.0
1127.197632 100.0
1127.251099 132.0
1127.313477 244.0
1127.398193 184.0
1127.444946 176.0
1127.518433 148.0
1127.7323 148.0
1127.922974 100.0
1128.039795 104.0
1128.16687 148.0
1128.427612 196.0
1128.501099 132.0
1128.695068 172.0
1128.969238 196.0
1129.076172 132.0
1129.290283 124.0
1129.432739 168.0
1129.5177 108.0
1129.583252 120.0
1129.788452 116.0
1129.849121 244.0
1130.072998 108.0
1130.273682 128.0
1130.34729 140.0
1130.414185 108.0
1130.70105 144.0
1130.907959 444.0
1131.317749 152.0
1131.384766 132.0
1131.478516 164.0
1131.565552 228.0
1131.806519 412.0
1131.92041 204.0
1132.056396 428.0
1132.148071 184.0
1132.328857 116.0
1132.703979 156.0
1132.770996 128.0
1132.931763 184.0
1133.139526 128.0
1133.347168 136.0
1133.648682 164.0
1134.285522 132.0
1134.42627 212.0
1134.473145 44.0
1134.776855 124.0
1134.862061 120.0
1134.940918 116.0
1135.146729 284.0
1135.297852 104.0
1135.391846 116.0
1135.485718 176.0
1135.539307 184.0
1135.619873 136.0
1135.697021 220.0
1135.888184 148.0
1136.384644 128.0
1136.431519 260.0
1136.47583 128.0
1136.525513 100.0
1136.67981 156.0
1136.838867 224.0
1137.025391 228.0
1137.122803 124.0
1137.219971 132.0
1137.290527 140.0
1137.391235 100.0
1137.565796 224.0
1137.632935 108.0
1137.713501 168.0
1137.800781 116.0
1137.874634 120.0
1137.975342 292.0
1138.035767 136.0
1138.204102 156.0
1138.378174 344.0
1138.579712 140.0
1138.794678 100.0
1138.848389 184.0
1138.969238 184.0
1139.143921 244.0
1139.187012 132.0
1139.209229 56.0
1139.229004 172.0
1139.368774 204.0
1139.5 68.0
1139.572754 136.0
1139.592407 112.0
1139.681396 108.0
1139.909912 64.0
1140.494629 252.0
1140.790405 148.0
1140.931519 96.0
1141.121094 80.0
1141.180298 212.0
1141.28418 108.0
1141.388794 116.0
1141.536743 120.0
1141.684692 112.0
1141.906616 176.0
1142.12854 96.0
1142.57251 204.0
1142.619629 200.0
1142.99292 248.0
1143.135498 200.0
1143.316284 112.0
1143.790649 80.0
1143.861816 168.0
1143.979126 104.0
1144.032959 144.0
1144.356079 104.0
1144.571533 136.0
1144.85437 100.0
1144.976318 212.0
1145.130493 68.0
1145.21814 124.0
1145.312378 280.0
1145.359619 148.0
1145.433716 132.0
1145.615601 180.0
1145.753662 212.0
1145.945679 88.0
1146.032349 88.0
1146.161255 172.0
1146.255615 108.0
1146.558838 168.0
1146.633057 104.0
1146.713867 332.0
1146.788086 124.0
1146.983521 84.0
1147.276733 188.0
1147.583496 180.0
1147.637451 140.0
1147.758789 76.0
1147.875122 176.0
1148.047729 144.0
1148.284912 84.0
1148.359009 128.0
1148.439941 172.0
1148.569946 160.0
1148.777222 136.0
1148.912231 188.0
1149.033691 116.0
1149.168579 96.0
1149.251221 164.0
1149.492065 220.0
1149.623047 272.0
1149.951416 136.0
1150.035278 248.0
1150.099854 184.0
1150.160645 124.0
1150.241699 136.0
1150.309204 80.0
1150.383423 164.0
1150.471191 92.0
1150.538696 132.0
1150.795288 56.0
1150.889771 148.0
1150.953857 128.0
1151.236084 156.0
1151.348999 120.0
1151.456665 136.0
1152.382568 108.0
1152.670898 172.0
1152.936646 112.0
1153.065063 156.0
1153.132568 168.0
1153.274536 148.0
1153.531372 136.0
1153.744019 180.0
1153.81543 152.0
1154.079102 208.0
1154.180542 144.0
1154.339111 192.0
1154.498291 56.0
1154.755371 184.0
1155.127319 124.0
1155.222046 136.0
1155.279053 156.0
1155.457031 192.0
1155.533325 84.0
1155.722778 116.0
1155.85376 156.0
1155.922974 136.0
1155.993408 36.0
1156.128784 224.0
1156.182861 88.0
1156.230225 160.0
1156.311523 220.0
1156.467163 256.0
1156.54834 132.0
1156.749878 120.0
1156.873291 144.0
1156.989624 156.0
1157.443359 188.0
1157.638428 172.0
1157.692627 104.0
1157.794189 168.0
1157.848145 136.0
1157.956665 128.0
1158.166748 204.0
1158.532471 104.0
1158.681519 148.0
1158.789917 100.0
1159.367065 76.0
1159.487915 228.0
1159.555664 92.0
1159.670898 152.0
1159.738647 140.0
1160.084473 152.0
1160.206421 144.0
1160.329224 108.0
1160.403076 104.0
1160.579346 104.0
1160.718384 184.0
1160.898804 148.0
1160.961426 160.0
1161.138306 144.0
1161.725586 140.0
1161.779785 276.0
1161.953125 216.0
1162.010498 176.0
1162.090698 124.0
1162.109863 80.0
1162.136719 204.0
1162.329468 116.0
1162.560181 148.0
1162.729858 92.0
1162.826782 164.0
1163.04895 152.0
1163.137085 220.0
1163.232056 128.0
1163.410156 124.0
1163.469727 164.0
1163.612305 156.0
1163.761597 136.0
1164.026489 88.0
1164.09436 128.0
1164.141968 132.0
1164.270996 56.0
1164.488281 32.0
1164.535889 100.0
1164.60376 112.0
1164.678467 144.0
1164.810791 152.0
1164.880249 248.0
1165.031738 104.0
1165.310303 100.0
1165.357788 116.0
1165.412231 124.0
1165.575317 136.0
1165.68689 196.0
1165.881104 144.0
1165.942261 188.0
1166.18689 76.0
1166.411255 104.0
1166.52002 156.0
1166.737549 160.0
1166.87793 248.0
1167.063965 104.0
1167.220337 80.0
1167.315552 120.0
1167.36438 148.0
1167.471924 80.0
1167.614746 104.0
1167.662354 156.0
1167.737183 264.0
1168.063599 132.0
1168.165649 72.0
1168.299683 108.0
1168.478638 120.0
1168.526245 184.0
1168.601074 136.0
1168.662354 100.0
1168.762085 412.0
1168.901489 160.0
1169.036621 108.0
1169.125122 116.0
1169.193115 192.0
1169.295288 128.0
1169.376953 228.0
1169.581055 116.0
1169.669556 208.0
1169.721802 112.0
1169.845581 160.0
1170.193848 168.0
1170.398682 232.0
1170.534302 136.0
1170.684082 80.0
1170.779419 128.0
1170.901978 184.0
1171.390991 96.0
1171.501465 200.0
1171.698975 184.0
1171.828491 200.0
1171.971558 116.0
1172.080811 132.0
1172.299805 220.0
1172.571289 172.0
1172.789307 304.0
1172.916626 160.0
1172.973389 136.0
1173.068848 120.0
1173.25293 192.0
1173.539307 32.0
1173.684448 260.0
1173.883301 164.0
1173.962036 212.0
1174.030273 72.0
1174.0802 324.0
1174.200684 168.0
1174.268921 100.0
1174.4104 68.0
1174.469971 200.0
1174.766846 60.0
1174.841919 76.0
1174.944214 180.0
1175.121704 144.0
1175.244507 132.0
1175.466309 108.0
1175.804077 140.0
1175.988281 140.0
1176.040405 228.0
1176.206787 152.0
1176.322754 44.0
1176.561768 152.0
1176.616333 292.0
1176.705078 164.0
1176.766602 112.0
1176.862183 88.0
1177.053345 180.0
1177.114868 100.0
1177.17627 44.0
1177.266357 180.0
1177.367432 112.0
1177.435791 148.0
1177.538208 40.0
1177.934448 160.0
1177.982178 52.0
1178.162109 132.0
1178.323853 180.0
1178.39209 168.0
1178.590332 180.0
1178.651733 32.0
1178.806152 176.0
1178.979858 196.0
1179.181396 100.0
1179.253174 144.0
1179.301025 168.0
1179.424072 96.0
1179.492432 184.0
1179.677002 84.0
1179.745361 188.0
1179.793213 60.0
1179.873291 236.0
1180.121338 144.0
1180.23584 152.0
1180.26001 208.0
1180.319702 136.0
1180.381226 140.0
1180.456421 156.0
1180.814209 144.0
1180.887329 208.0
1180.948853 144.0
1181.010376 136.0
1181.099365 224.0
1181.167725 120.0
1181.222534 172.0
1181.379883 212.0
1181.516602 136.0
1181.810913 168.0
1181.91748 180.0
1182.057251 204.0
1182.114136 172.0
1182.316895 148.0
1182.652588 140.0
1182.700562 164.0
1182.919556 160.0
1183.063354 160.0
1183.203125 204.0
1183.457642 228.0
1183.522095 88.0
1183.700073 188.0
1183.897095 204.0
1184.076782 148.0
1184.332397 188.0
1184.473999 204.0
1184.583618 236.0
1184.703247 192.0
1184.974121 216.0
1185.059937 152.0
1185.145508 176.0
1185.205566 136.0
1185.233521 104.0
1185.35791 152.0
1185.479492 144.0
1185.597778 96.0
1185.688965 128.0
1185.77124 152.0
1185.892456 56.0
1186.084351 168.0
1186.235229 96.0
1186.290039 128.0
1186.495728 136.0
1186.619873 116.0
1186.739502 120.0
1186.783691 176.0
1186.845337 136.0
1187.105957 144.0
1187.153931 100.0
1187.380249 140.0
1187.661499 44.0
1187.833008 120.0
1187.970215 172.0
1188.125244 152.0
1188.211182 196.0
1188.299438 140.0
1188.521729 152.0
1188.573975 104.0
1188.621948 124.0
1188.759277 52.0
1188.882812 248.0
1188.958252 160.0
1189.047485 156.0
1189.273926 104.0
1189.383789 228.0
1189.464233 112.0
1189.63501 148.0
1189.688843 152.0
1189.926147 268.0
1190.022217 100.0
1190.163574 96.0
1190.75708 168.0
1190.908203 84.0
1191.059326 112.0
1191.121094 80.0
1191.200073 112.0
1191.249268 212.0
1191.275391 140.0
1191.574463 416.0
1191.650146 144.0
1191.920288 240.0
1192.110474 128.0
1192.186035 84.0
1192.260986 208.0
1192.297729 132.0
1192.430786 192.0
1192.660278 80.0
1192.832153 96.0
1192.965698 196.0
1193.127808 116.0
1193.196533 176.0
1193.395874 112.0
1193.457764 92.0
1193.567871 60.0
1193.767212 124.0
1193.825439 144.0
1193.904785 180.0
1194.145508 200.0
1194.228027 196.0
1194.289917 172.0
1194.38623 92.0
1194.503174 200.0
1194.578857 48.0
1194.709595 32.0
1194.81958 148.0
1195.177368 208.0
1195.342529 116.0
1195.46228 132.0
1196.01709 60.0
1196.161621 244.0
1196.244263 40.0
1196.432617 152.0
1196.470337 76.0
1196.481445 140.0
1196.615967 132.0
1196.733032 60.0
1196.905151 80.0
1197.098022 120.0
1197.161133 212.0
1197.297729 72.0
1197.352783 132.0
1197.435425 116.0
1197.497437 48.0
1197.566284 120.0
1197.64209 200.0
1197.759155 128.0
1197.924561 128.0
1197.986694 148.0
1198.344727 160.0
1198.503296 124.0
1198.641113 92.0
1198.716919 84.0
1198.945923 180.0
1199.109741 148.0
1199.171753 148.0
1199.338623 128.0
1199.626709 180.0
1199.743896 236.0
1199.792114 88.0
1199.91626 84.0
1200.154053 160.0
1200.313232 320.0
1200.454102 148.0
1200.633423 120.0
1200.695435 152.0
1200.950684 132.0
1200.998901 164.0
1201.136841 208.0
1201.198975 152.0
1201.274902 136.0
1201.32312 104.0
1201.481812 96.0
1201.661133 104.0
1201.881958 180.0
1201.982788 168.0
1202.199463 156.0
1202.306519 180.0
1202.427124 84.0
1202.565186 136.0
1202.806641 148.0
1202.903442 104.0
1202.997925 200.0
1203.172729 216.0
1203.241699 132.0
1203.405762 116.0
1203.71814 200.0
1203.870117 120.0
1203.966797 296.0
1204.053345 220.0
1204.118652 176.0
1204.189331 244.0
1204.360474 96.0
1204.422607 152.0
1204.540039 236.0
1204.705811 116.0
1205.092773 172.0
1205.320801 92.0
1205.403687 92.0
1205.565796 96.0
1205.621582 136.0
1205.721558 144.0
1205.832153 160.0
1205.935791 232.0
1206.074097 188.0
1206.295288 104.0
1206.343628 76.0
1206.433594 88.0
1206.557983 184.0
1206.699097 332.0
1206.768799 156.0
1206.882935 132.0
1206.94751 336.0
1207.089233 96.0
1207.235596 68.0
1207.450073 80.0
1207.560669 128.0
1207.712891 152.0
1207.831543 100.0
1208.018921 236.0
1208.12793 144.0
1208.256714 160.0
1208.439209 160.0
1208.508057 284.0
1208.561279 184.0
1208.674561 180.0
1209.06897 208.0
1209.165894 180.0
1209.241943 116.0
1209.378418 140.0
1209.534668 256.0
1209.618408 332.0
1209.799438 204.0
1209.884033 172.0
1210.003418 80.0
1210.155762 144.0
1210.240479 116.0
1210.328857 32.0
1210.418945 132.0
1210.495117 80.0
1210.557373 96.0
1210.695068 360.0
1210.720337 176.0
1210.733032 164.0
1210.9729 108.0
1211.353882 144.0
1211.5271 156.0
1211.728027 152.0
1211.901245 124.0
1212.331787 116.0
1212.483398 136.0
1212.573486 88.0
1212.649658 184.0
1212.76062 104.0
1212.89917 168.0
1213.113281 176.0
1213.266602 52.0
1213.345337 128.0
1213.439941 108.0
1213.484985 96.0
1213.534912 156.0
1213.696533 92.0
1213.881226 196.0
1214.029419 124.0
1214.216675 212.0
1214.272095 240.0
1214.376099 176.0
1214.599609 208.0
1214.681396 148.0
1214.840942 196.0
1215.270996 164.0
1215.347534 148.0
1215.430664 140.0
1216.046997 264.0
1216.117676 68.0
1216.287598 108.0
1216.59668 52.0
1216.714722 92.0
1216.83606 108.0
1216.905396 120.0
1217.166016 180.0
1217.260864 184.0
1217.509521 148.0
1217.696777 100.0
1217.753052 256.0
1217.968872 108.0
1218.15686 224.0
1218.332886 144.0
1218.446533 176.0
1218.594971 368.0
1218.705566 160.0
1218.805298 176.0
1218.99292 124.0
1219.118042 100.0
1219.173706 120.0
1219.535034 104.0
1219.781738 184.0
1219.861816 104.0
1219.966064 148.0
1220.074463 128.0
1220.153809 208.0
1220.230225 92.0
1220.278931 36.0
1220.355347 148.0
1220.419678 128.0
1220.515381 152.0
1220.69458 184.0
1220.842163 84.0
1221.009033 124.0
1221.151367 196.0
1221.482056 68.0
1221.577637 136.0
1221.683838 124.0
1221.781982 188.0
1221.892456 92.0
1221.983276 164.0
1222.045532 156.0
1222.129028 136.0
1222.324097 132.0
1222.394775 152.0
1222.504517 92.0
1222.515625 88.0
1222.542236 140.0
1222.602295 108.0
1222.714844 140.0
1222.804077 68.0
1222.971191 104.0
1223.1521 200.0
1223.199219 164.0
1223.326172 132.0
1223.383057 112.0
1223.480347 184.0
1223.535034 128.0
1223.58374 68.0
1223.639404 136.0
1223.716064 272.0
1223.778687 196.0
1223.827393 120.0
1223.951538 184.0
1224.168701 120.0
1224.351807 160.0
1224.475098 176.0
1224.879028 88.0
1224.94873 144.0
1225.122925 188.0
1225.276123 204.0
1225.464355 228.0
1225.610596 76.0
1225.680298 96.0
1225.777832 148.0
1225.86792 256.0
1225.911987 112.0
1226.021729 72.0
1226.133301 68.0
1226.216919 136.0
1226.356323 96.0
1226.502686 240.0
1226.557007 176.0
1226.64209 160.0
1226.816406 168.0
1227.178955 152.0
1227.374146 176.0
1227.471802 140.0
1227.729858 84.0
1227.813477 80.0
1227.890259 184.0
1227.959961 168.0
1228.204102 156.0
1228.566895 200.0
1228.730957 184.0
1228.811035 100.0
1228.943604 108.0
1229.006348 156.0
1229.209717 92.0
1229.278564 132.0
1229.525513 184.0
1230.036499 60.0
1230.109131 156.0
1230.171997 276.0
1230.304565 140.0
1230.363403 284.0
1230.432495 272.0
1230.618774 116.0
1230.716553 136.0
1230.772339 96.0
1231.065674 144.0
1231.17041 152.0
1231.240234 192.0
1231.30957 140.0
1231.391968 284.0
1231.547607 84.0
1231.687256 192.0
1231.889893 144.0
1231.966675 76.0
1232.060791 136.0
1232.134399 136.0
1232.197266 160.0
1232.322998 264.0
1232.656738 120.0
1232.763306 136.0
1232.875122 212.0
1232.986938 116.0
1233.035767 152.0
1233.154663 76.0
1233.203613 140.0
1233.259521 132.0
1233.31543 160.0
1233.392334 120.0
1233.453613 368.0
1233.748779 144.0
1233.797729 192.0
1233.874634 116.0
1234.045532 180.0
1234.137451 144.0
1234.259277 132.0
1234.580933 132.0
1234.797729 208.0
1234.916626 172.0
1235.025146 128.0
1235.143066 128.0
1235.433105 280.0
1235.595215 148.0
1235.665405 124.0
1235.749146 144.0
1235.819092 104.0
1235.868042 128.0
1235.96106 164.0
1236.057007 64.0
1236.651855 140.0
1236.751099 176.0
1236.928467 380.0
1237.036865 148.0
1237.246826 180.0
1237.596924 192.0
1237.666748 164.0
1237.940063 68.0
1238.010132 120.0
1238.205811 160.0
1238.311279 32.0
1238.408325 248.0
1238.475586 224.0
1238.840576 200.0
1238.875122 80.0
1238.88916 160.0
1239.027344 164.0
1239.12561 144.0
1239.280151 196.0
1239.426392 132.0
1239.440308 208.0
1239.510864 120.0
1239.656372 124.0
1239.764648 172.0
1239.901611 204.0
1239.96936 152.0
1240.041016 128.0
1240.167969 248.0
1240.228882 208.0
1240.315186 156.0
1240.588623 76.0
1240.651733 100.0
1240.988281 96.0
1241.44397 244.0
1241.671387 136.0
1241.698608 192.0
1241.78772 224.0
1241.845337 164.0
1241.90686 100.0
1241.968384 152.0
1242.032227 144.0
1242.165039 120.0
1242.25354 172.0
1242.43396 156.0
1242.588989 164.0
1242.671631 92.0
1242.74231 192.0
1242.938232 68.0
1243.092651 164.0
1243.183838 156.0
1243.388916 148.0
1243.569824 52.0
1243.858276 140.0
1243.906738 188.0
1244.148926 192.0
1244.334961 164.0
1244.383301 104.0
1244.435303 128.0
1244.526245 104.0
1244.686157 128.0
1244.74231 164.0
1244.840576 108.0
1245.009155 172.0
1245.276001 172.0
1245.453613 220.0
1245.563965 144.0
1245.68811 160.0
1245.821655 100.0
1245.936279 60.0
1246.062744 172.0
1246.2146 140.0
1246.313965 32.0
1246.350342 148.0
1246.428345 156.0
1246.484375 172.0
1246.73291 144.0
1246.800659 236.0
1247.173096 156.0
1247.22229 152.0
1247.299683 148.0
1247.347046 108.0
1247.419189 160.0
1247.511963 136.0
1247.644775 132.0
1247.700439 132.0
1247.77063 164.0
1247.855103 124.0
1247.904297 76.0
1248.05896 156.0
1248.227783 92.0
1248.461548 172.0
1248.574829 280.0
1248.691895 200.0
1248.795166 156.0
1248.841431 148.0
1249.026733 160.0
1249.156128 180.0
1249.261597 156.0
1249.336792 188.0
1249.494019 136.0
1249.690796 148.0
1249.75415 172.0
1249.825928 148.0
1250.02832 120.0
1250.041748 100.0
1250.20752 152.0
1250.314209 168.0
1250.441284 204.0
1250.519531 120.0
1250.626831 100.0
1250.906738 176.0
1251.109497 176.0
1251.22522 156.0
1251.294312 324.0
1251.429321 100.0
1251.505127 156.0
1251.584229 140.0
1251.80957 140.0
1252.006836 180.0
1252.309692 44.0
1252.485718 104.0
1252.773926 144.0
1252.823486 240.0
1253.062378 196.0
1253.167847 168.0
1253.310059 116.0
1253.486206 64.0
1253.634155 100.0
1253.719971 120.0
1253.831543 172.0
1253.887939 96.0
1253.972412 108.0
1254.222656 96.0
1254.430664 148.0
1254.501099 208.0
1254.64209 212.0
1254.691528 208.0
1254.756104 92.0
1254.966431 80.0
1255.111328 124.0
1255.199097 88.0
1255.45166 104.0
1255.713989 76.0
1255.819824 188.0
1256.285278 176.0
1256.406982 116.0
1256.533936 152.0
1256.588745 176.0
1256.835693 204.0
1256.914307 140.0
1257.056519 144.0
1257.154297 132.0
1257.250732 88.0
1257.377563 260.0
1257.399658 52.0
1257.534302 132.0
1257.5979 108.0
1257.710815 60.0
1257.979004 80.0
1258.056641 144.0
1258.113159 76.0
1258.176758 164.0
1258.233154 188.0
1258.317871 136.0
1258.430908 120.0
1258.788696 160.0
1258.903931 360.0
1258.974609 176.0
1259.056641 156.0
1259.193726 212.0
1259.25 104.0
1259.299438 96.0
1259.408203 224.0
1259.560791 180.0
1259.949341 112.0
1260.118896 108.0
1260.274414 120.0
1260.415771 108.0
1260.486328 92.0
1260.571167 92.0
1260.666382 212.0
1260.75647 112.0
1260.792236 140.0
1260.88208 36.0
1260.981079 132.0
1261.080078 112.0
1261.188232 124.0
1261.371948 188.0
1261.468872 104.0
1261.532471 92.0
1261.786987 56.0
1261.850586 144.0
1261.977905 216.0
1262.073853 184.0
1262.151245 228.0
1262.239502 96.0
1262.373779 68.0
1262.486938 196.0
1262.536499 244.0
1262.58606 168.0
1262.663818 152.0
1263.003296 116.0
1263.162842 236.0
1263.371216 40.0
1263.701538 144.0
1263.792358 172.0
1263.901855 136.0
1263.994507 164.0
1264.201416 84.0
1264.262695 124.0
1264.360474 148.0
1264.567383 160.0
1264.8573 128.0
1264.949219 192.0
1265.175171 144.0
1265.338623 136.0
1265.473145 96.0
1265.597534 176.0
1265.756348 96.0
1265.862671 184.0
1265.949341 204.0
1266.067993 160.0
1266.238037 32.0
1266.319336 148.0
1266.415039 112.0
1266.579468 176.0
1266.719604 88.0
1266.833008 132.0
1266.974731 96.0
1267.052612 112.0
1267.158936 100.0
1267.328979 112.0
1267.40686 76.0
1267.690308 116.0
1267.917114 148.0
1268.023438 108.0
1268.165161 168.0
1268.363647 152.0
1268.512451 172.0
1268.677979 112.0
1268.838623 108.0
1269.047974 168.0
1269.108032 140.0
1269.171875 56.0
1269.427124 156.0
1269.483887 128.0
1269.566406 120.0
1269.625732 60.0
1269.685791 196.0
1269.758911 176.0
1269.818237 168.0
1269.963379 160.0
1270.033447 148.0
1270.054077 140.0
1270.14917 116.0
1270.272339 148.0
1270.337891 176.0
1270.540161 208.0
1270.685303 128.0
1270.867554 136.0
1270.938477 88.0
1271.116943 136.0
1271.335449 204.0
1271.605225 136.0
1271.828003 72.0
1272.016846 168.0
1272.137573 28.0
1272.272461 128.0
1272.376709 156.0
1272.485107 308.0
1272.625732 132.0
1272.690308 176.0
1272.899902 168.0
1272.973145 168.0
1273.056885 156.0
1273.129395 168.0
1273.215454 100.0
1273.386963 108.0
1273.652466 176.0
1273.674683 96.0
1273.749512 148.0
1273.870361 68.0
1273.962646 172.0
1274.040771 128.0
1274.133179 200.0
1274.289429 276.0
1274.362061 200.0
1274.436279 124.0
1274.501831 100.0
1274.609253 164.0
1274.716431 96.0
1274.86499 92.0
1275.021362 272.0
1275.11377 28.0
1275.192383 132.0
1275.337891 92.0
1275.454102 132.0
1275.668213 68.0
1275.743164 252.0
1275.88855 152.0
1276.057739 132.0
1276.085815 104.0
1276.105469 208.0
1276.212891 144.0
1276.2771 124.0
1276.359497 224.0
1276.488892 160.0
1276.571167 128.0
1276.733887 176.0
1276.812988 224.0
1277.119507 96.0
1277.310913 80.0
1277.417603 180.0
1277.49585 172.0
1277.609741 192.0
1277.662842 232.0
1277.726074 168.0
1277.82312 96.0
1278.17749 120.0
1278.392334 224.0
1278.566772 212.0
1278.705566 116.0
1278.826294 108.0
1278.893311 192.0
1279.004517 148.0
1279.089844 176.0
1279.168213 276.0
1279.225098 144.0
1279.311035 140.0
1279.509888 136.0
1279.632324 108.0
1279.744873 108.0
1279.823242 248.0
1280.072388 188.0
1280.161865 156.0
1280.255615 236.0
1280.474243 180.0
1280.599487 188.0
1280.654053 144.0
1280.79895 172.0
1281.005493 188.0
1281.221069 224.0
1281.33313 128.0
1281.411621 36.0
1281.546997 112.0
1281.820557 220.0
1281.896118 212.0
1281.950684 180.0
1282.003052 156.0
1282.052856 156.0
1282.35498 200.0
1282.500732 144.0
1282.687866 140.0
1282.790283 204.0
1282.917847 292.0
1282.993774 164.0
1283.086548 256.0
1283.459473 144.0
1283.591309 144.0
1283.77124 144.0
1283.885132 144.0
1284.120483 96.0
1284.255981 124.0
1284.44458 308.0
1284.502808 172.0
1284.674927 252.0
1284.97644 36.0
1285.051514 164.0
1285.161987 156.0
1285.267456 184.0
1285.280151 144.0
1285.312134 120.0
1285.334595 148.0
1285.404663 100.0
1285.537109 288.0
1285.626953 144.0
1285.66687 64.0
1285.714355 216.0
1285.854248 136.0
1285.996948 28.0
1286.121826 192.0
1286.331909 160.0
1286.425293 208.0
1286.560303 204.0
1286.633301 340.0
1286.710815 168.0
1286.772949 196.0
1286.856079 176.0
1287.110718 140.0
1287.38208 104.0
1287.721069 104.0
1287.82312 180.0
1287.939087 180.0
1288.003418 164.0
1288.106445 152.0
1288.467773 152.0
1288.539185 76.0
1288.603516 80.0
1288.67627 204.0
1288.74646 108.0
1288.796387 108.0
1288.960815 164.0
1289.118042 132.0
1289.17981 224.0
1289.271606 136.0
1289.3396 68.0
1289.503906 136.0
1289.568237 124.0
1289.618286 84.0
1289.847046 188.0
1290.068604 180.0
1290.196655 128.0
1290.33313 92.0
1290.385864 260.0
1290.471924 148.0
1290.608398 120.0
1290.69458 88.0
1290.752197 316.0
1290.822998 112.0
1290.883789 108.0
1291.041016 48.0
1291.101929 144.0
1291.150635 172.0
1291.241333 128.0
1291.298584 132.0
1291.504395 88.0
1291.886597 188.0
1291.956665 124.0
1292.006714 120.0
1292.178467 88.0
1292.307251 100.0
1292.3573 472.0
1292.414551 128.0
1292.543335 108.0
1292.62207 112.0
1292.707886 140.0
1292.823608 176.0
1292.914185 128.0
1293.108765 184.0
1293.19458 160.0
1293.251831 136.0
1293.545288 124.0
1293.636841 160.0
1293.65686 124.0
1293.68689 108.0
1293.740234 128.0
1293.874634 76.0
1293.989258 184.0
1294.189697 104.0
1294.347168 144.0
1294.554565 160.0
1294.705078 172.0
1294.819824 128.0
1294.929565 112.0
1295.19812 180.0
1295.407227 40.0
1295.564819 128.0
1295.943481 104.0
1296.084717 108.0
1296.138062 152.0
1296.295654 156.0
1296.36731 92.0
1296.668335 144.0
1296.73999 232.0
1297.091309 200.0
1297.14856 176.0
1297.295776 172.0
1297.394409 124.0
1297.779541 148.0
1297.843994 184.0
1297.95874 80.0
1298.21875 156.0
1298.554688 124.0
1298.9198 172.0
1299.156616 144.0
1299.228271 192.0
1299.292847 180.0
1299.357422 168.0
1299.644409 72.0
1299.719727 136.0
1300.130249 120.0
1300.268433 156.0
1300.656372 52.0
1300.914795 112.0
1300.993774 128.0
1301.209106 52.0
1301.259399 156.0
1301.323975 132.0
1301.374268 144.0
1301.533447 276.0
1301.675293 144.0
1301.805176 100.0
1301.90564 156.0
1302.011353 220.0
1302.092407 124.0
1302.292114 188.0
1302.408691 128.0
1302.55542 184.0
1302.631104 140.0
1302.717285 96.0
1302.810669 112.0
1302.909302 168.0
1302.959595 172.0
1303.155396 180.0
1303.32373 180.0
1303.500732 140.0
1303.780762 184.0
1303.874146 64.0
1303.924561 88.0
1303.974854 188.0
1304.097046 92.0
1304.197632 68.0
1304.355713 172.0
1304.417236 140.0
1304.513916 184.0
1304.886108 212.0
1305.038696 168.0
1305.102295 120.0
1305.218506 140.0
1305.297607 88.0
1305.3479 60.0
1305.470215 128.0
1305.532471 176.0
1305.604248 228.0
1305.714722 168.0
1305.837036 92.0
1305.901733 112.0
1305.988037 120.0
1306.128052 184.0
1306.268555 124.0
1306.347656 180.0
1306.729004 168.0
1306.930786 192.0
1307.005981 148.0
1307.200195 296.0
1307.325562 80.0
1307.463013 200.0
1307.534546 148.0
1307.616699 272.0
1307.690186 148.0
1307.837769 188.0
1308.037109 216.0
1308.096436 176.0
1308.220825 188.0
1308.287354 92.0
1308.400635 252.0
1308.521118 164.0
1308.668579 144.0
1308.734497 128.0
1308.924438 84.0
1308.999146 144.0
1309.125977 84.0
1309.355347 76.0
1309.423584 124.0
1309.633179 96.0
1309.716675 168.0
1309.853516 112.0
1309.961548 124.0
1310.098755 116.0
1310.336182 252.0
1310.46582 252.0
1310.563965 200.0
1310.840576 128.0
1310.977417 164.0
1311.029663 420.0
1311.137695 156.0
1311.258545 244.0
1311.333496 164.0
1311.40271 96.0
1311.49646 196.0
1311.691772 240.0
1311.806396 40.0
1311.95166 204.0
1312.109131 240.0
1312.318237 228.0
1312.370361 228.0
1312.533936 104.0
1312.728638 196.0
1312.844604 136.0
1313.053833 308.0
1313.262939 148.0
1313.356689 136.0
1313.411743 220.0
1313.652954 116.0
1313.75354 152.0
1313.854492 232.0
1313.933838 152.0
1314.114258 168.0
1314.21521 52.0
1314.446167 144.0
1314.561646 228.0
1314.78186 164.0
1315.037964 88.0
1315.170044 372.0
1315.268921 140.0
1315.369629 212.0
1315.449341 156.0
1315.565063 180.0
1315.68811 112.0
1315.803467 176.0
1315.878662 180.0
1316.00354 180.0
1316.171387 128.0
1316.236328 196.0
1316.301392 108.0
1316.402466 124.0
1316.501099 132.0
1316.720215 100.0
1316.893555 100.0
1316.987427 136.0
1317.039917 152.0
1317.241333 192.0
1317.464233 208.0
1317.588745 104.0
1317.72644 204.0
1317.831787 232.0
1317.936768 220.0
1318.056763 116.0
1318.121704 104.0
1318.205933 216.0
1318.266235 144.0
1318.316895 184.0
1318.425293 80.0
1318.577026 44.0
1318.668701 176.0
1318.852783 140.0
1319.049316 152.0
1319.162476 148.0
1319.314331 156.0
1319.398926 172.0
1319.560791 96.0
1319.704712 156.0
1319.787598 184.0
1319.921631 164.0
1320.080811 152.0
1320.21228 208.0
1320.285522 188.0
1320.432251 212.0
1320.529175 56.0
1320.623169 152.0
1320.679199 80.0
1320.854614 136.0
1320.905273 160.0
1320.984863 148.0
1321.266968 160.0
1321.324219 164.0
1321.352905 148.0
1321.367554 144.0
1321.491333 116.0
1321.592651 232.0
1321.650513 144.0
1321.7229 144.0
1321.77356 160.0
1321.838623 136.0
1321.889282 116.0
1322.056396 184.0
1322.236694 188.0
1322.366943 120.0
1322.557373 240.0
1322.845337 176.0
1322.984741 236.0
1323.047363 104.0
1323.127075 144.0
1323.279297 128.0
1323.370728 128.0
1323.481812 164.0
1323.549927 188.0
1323.610107 84.0
1323.695923 76.0
1323.800415 128.0
1323.872803 76.0
1323.97998 192.0
1324.167603 132.0
1324.387085 116.0
1324.437744 172.0
1324.524658 104.0
1324.589966 76.0
1324.800049 136.0
1324.849243 144.0
1324.973877 220.0
1325.075317 156.0
1325.263672 128.0
1325.32605 144.0
1325.350952 88.0
1325.375366 148.0
1325.575317 128.0
1325.761963 212.0
1325.959351 128.0
1326.024536 148.0
1326.098755 180.0
1326.173218 64.0
1326.358032 260.0
1326.452271 108.0
1326.52478 212.0
1326.62085 156.0
1326.756714 164.0
1326.837769 132.0
1326.995972 72.0
1327.049316 428.0
1327.177246 148.0
1327.373047 128.0
1327.445557 120.0
1327.541016 144.0
1327.629883 228.0
1327.74292 100.0
1327.842651 132.0
1328.02832 112.0
1328.185303 140.0
1328.253784 156.0
1328.331665 232.0
1328.395752 320.0
1328.533569 120.0
1328.649658 140.0
1328.858154 240.0
1328.971436 116.0
1329.259155 124.0
1329.505859 148.0
1329.665527 188.0
1329.843384 168.0
1329.955811 64.0
1330.046143 208.0
1330.144531 124.0
1330.248901 216.0
1330.376831 100.0
1330.45752 104.0
1330.609253 148.0
1330.689087 204.0
1330.827515 128.0
1331.015869 92.0
1331.203125 308.0
1331.400757 56.0
1331.495483 176.0
1331.654907 112.0
1331.807373 52.0
1331.989014 140.0
1332.042603 204.0
1332.112549 108.0
1332.177856 100.0
1332.272339 132.0
1332.424927 120.0
1332.592041 108.0
1332.719971 324.0
1332.836914 220.0
1332.904419 96.0
1332.973511 160.0
1333.035278 124.0
1333.120728 184.0
1333.199829 184.0
1333.253296 180.0
1333.372192 168.0
1333.471313 180.0
1333.769287 60.0
1333.827515 120.0
1333.896362 132.0
1333.998291 184.0
1334.161865 72.0
1334.285522 144.0
1334.452759 196.0
1334.531006 176.0
1334.692627 68.0
1334.765381 164.0
1334.859863 152.0
1335.031006 204.0
1335.158081 112.0
1335.228394 148.0
1335.307495 204.0
1335.574219 92.0
1335.667236 140.0
1335.761841 168.0
1335.854858 256.0
1335.968506 136.0
1336.30127 108.0
1336.421631 232.0
1336.542969 240.0
1336.817627 144.0
1336.969604 188.0
1337.113525 144.0
1337.275269 164.0
1337.343018 176.0
1337.471802 184.0
1337.55188 56.0
1337.636475 192.0
1337.939941 180.0
1337.995972 192.0
1338.112427 152.0
1338.505615 116.0
1338.622192 212.0
1338.708496 108.0
1338.945312 224.0
1339.131958 96.0
1339.474365 152.0
1339.535522 148.0
1339.612671 308.0
1339.682617 188.0
1339.743042 140.0
1339.875 132.0
1340.120361 76.0
1340.177612 144.0
1340.272827 92.0
1340.472534 88.0
1340.552612 160.0
1340.685669 184.0
1340.873291 144.0
1340.948364 188.0
1341.062866 76.0
1341.204956 72.0
1341.344849 196.0
1341.482056 248.0
1341.537598 156.0
1341.655151 188.0
1341.769897 100.0
1341.820923 48.0
1342.025146 60.0
1342.178223 92.0
1342.306396 324.0
1342.572021 112.0
1342.72522 76.0
1342.914795 160.0
1342.978271 172.0
1343.089844 108.0
1343.213867 136.0
1343.352539 160.0
1343.600586 120.0
1343.739014 148.0
1343.921509 108.0
1344.082153 120.0
1344.378906 156.0
1344.608154 236.0
1344.702393 124.0
1344.782715 184.0
1344.877563 232.0
1345.220703 116.0
1345.32959 160.0
1345.396729 104.0
1345.413696 152.0
1345.644165 252.0
1345.731689 84.0
1345.903564 132.0
1346.052979 124.0
1346.267944 84.0
1346.351929 128.0
1346.380859 120.0
1346.412109 116.0
1346.487183 240.0
1346.593506 144.0
1346.65918 136.0
1346.795776 260.0
1346.815552 180.0
1346.900269 156.0
1346.995239 164.0
1347.060913 108.0
1347.236328 136.0
1347.477417 172.0
1347.594238 144.0
1347.703735 220.0
1347.783203 172.0
1347.886597 132.0
1348.127686 104.0
1348.215454 176.0
1348.288452 152.0
1348.452393 132.0
1348.541382 160.0
1348.641235 136.0
1348.699219 172.0
1348.786011 184.0
1348.851318 196.0
1348.953613 136.0
1349.031982 124.0
1349.121826 216.0
1349.282593 104.0
1349.380615 88.0
1349.506958 136.0
1349.611694 88.0
1349.75061 80.0
1349.809082 160.0
1349.889526 120.0
1350.040161 148.0
1350.160034 120.0
1350.756348 216.0
1350.882202 176.0
1351.097534 260.0
1351.144897 196.0
1351.286621 136.0
1351.371826 148.0
1351.780396 140.0
1351.908569 132.0
1352.084229 124.0
1352.204712 152.0
1352.246948 168.0
1352.331665 200.0
1352.433472 140.0
1352.485474 220.0
1352.567261 212.0
1352.798462 168.0
1352.896729 152.0
1353.001587 124.0
1353.10376 244.0
1353.224609 92.0
1353.314087 140.0
1353.401978 180.0
1353.571045 120.0
1353.643555 48.0
1353.716797 208.0
1353.848633 160.0
1354.170898 60.0
1354.361328 108.0
1354.480835 136.0
1354.548218 100.0
1354.639648 156.0
1354.703125 176.0
1354.77771 144.0
1354.900879 164.0
1355.008789 192.0
1355.15625 148.0
1355.280029 124.0
1355.423584 92.0
1355.614136 136.0
1355.69165 152.0
1355.723389 136.0
1355.901978 148.0
1356.010986 172.0
1356.102783 156.0
1356.176025 60.0
1356.361816 60.0
1356.523071 48.0
1356.606689 212.0
1356.707764 156.0
1356.772339 160.0
1356.911621 204.0
1357.062744 168.0
1357.158936 240.0
1357.212158 128.0
1357.270874 44.0
1357.32959 116.0
1357.411865 276.0
1357.586182 120.0
1357.721558 104.0
1357.828247 88.0
1357.913086 148.0
1357.992798 168.0
1358.077637 100.0
1358.13623 148.0
1358.219482 436.0
1358.378296 76.0
1358.43689 144.0
1358.596558 140.0
1358.748169 380.0
1358.828247 248.0
1359.008057 148.0
1359.035767 124.0
1359.269775 140.0
1359.398193 96.0
1359.452515 220.0
1359.619995 132.0
1359.80188 220.0
1359.911987 76.0
1360.045654 184.0
1360.078857 224.0
1360.344604 140.0
1360.528564 156.0
1360.631348 112.0
1360.719482 136.0
1360.778198 268.0
1360.927002 164.0
1360.99231 192.0
1361.093872 156.0
1361.160034 144.0
1361.372925 116.0
1361.534546 216.0
1361.666748 316.0
1361.747559 60.0
1361.821045 88.0
1361.947632 144.0
1362.029663 184.0
1362.094849 260.0
1362.249512 108.0
1362.335205 156.0
1362.401245 104.0
1362.46167 152.0
1362.518799 132.0
1362.864136 132.0
1362.915649 152.0
1363.128662 220.0
1363.268311 164.0
1363.453979 344.0
1363.577026 172.0
1363.701904 228.0
1363.915161 392.0
1364.025391 168.0
1364.125732 156.0
1364.240845 244.0
1364.38208 172.0
1364.731689 88.0
1364.812012 124.0
1364.87085 100.0
1365.034668 244.0
1365.12854 168.0
1365.352783 156.0
1365.562134 92.0
1365.782837 148.0
1365.871094 64.0
1366.131592 156.0
1366.393433 216.0
1366.504028 124.0
1366.707886 180.0
1366.760986 188.0
1366.86438 184.0
1366.996826 212.0
1367.070435 132.0
1367.445679 132.0
1367.519287 136.0
1367.651855 164.0
1367.822876 204.0
1367.927734 108.0
1368.224731 112.0
1368.244263 92.0
1368.265869 156.0
1368.321777 112.0
1368.380615 108.0
1368.572021 96.0
1368.71936 80.0
1368.841431 84.0
1369.040161 192.0
1369.11438 136.0
1369.197998 200.0
1369.352661 184.0
1369.415283 128.0
1369.617798 236.0
1369.719482 160.0
1369.870239 152.0
1369.956665 120.0
1370.240356 260.0
1370.361938 172.0
1370.479858 172.0
1370.568359 176.0
1370.675781 196.0
1370.906128 136.0
1370.92749 116.0
1371.07666 176.0
1371.128296 112.0
1371.260986 128.0
1371.393677 188.0
1371.482056 132.0
1371.548462 100.0
1371.683472 128.0
1371.79541 140.0
1371.881836 208.0
1371.946533 52.0
1372.005493 48.0
1372.167725 100.0
1372.270874 140.0
1372.388916 164.0
1372.594849 172.0
1372.651855 140.0
1372.884644 248.0
1372.986206 256.0
1373.148438 180.0
1373.421387 132.0
1373.512085 184.0
1373.662231 136.0
1373.827148 176.0
1373.93042 148.0
1373.988525 128.0
1374.23291 132.0
1374.338379 172.0
1374.483765 140.0
1374.546387 204.0
1374.616577 152.0
1374.697754 144.0
1374.814819 168.0
1374.840698 264.0
1374.963379 196.0
1375.022461 164.0
1375.070312 156.0
1375.12439 144.0
1375.229126 140.0
1375.288208 132.0
1375.391479 140.0
1375.465332 188.0
1375.524414 132.0
1375.952637 100.0
1376.11084 200.0
1376.264526 112.0
1376.288086 152.0
1376.317261 152.0
1376.447266 152.0
1376.509399 180.0
1376.587646 80.0
1376.639282 204.0
1376.735352 112.0
1376.800781 156.0
1376.883057 128.0
1376.958374 156.0
1377.053101 148.0
1377.126709 116.0
1377.215332 36.0
1377.331543 180.0
1377.467529 188.0
1377.769775 100.0
1377.89502 220.0
1377.993286 40.0
1378.059814 116.0
1378.13147 72.0
1378.197998 116.0
1378.295898 140.0
1378.508301 92.0
1378.678467 124.0
1378.896851 140.0
1378.964233 64.0
1379.055176 156.0
1379.121704 64.0
1379.276978 64.0
1379.339355 140.0
1379.46582 328.0
1379.698364 140.0
1380.025024 132.0
1380.100342 184.0
1380.312012 140.0
1380.37854 148.0
1380.459961 152.0
1380.511719 84.0
1380.593018 124.0
1380.671387 108.0
1380.807495 224.0
1380.933228 92.0
1381.303101 212.0
1381.384521 160.0
1381.544312 124.0
1381.69519 324.0
1381.754395 152.0
1381.94165 212.0
1382.068359 332.0
1382.168701 100.0
1382.242798 80.0
1382.356323 116.0
1382.426636 84.0
1382.449097 72.0
1382.50769 164.0
1382.790649 132.0
1382.822876 136.0
1382.851562 184.0
1382.948975 124.0
1382.995605 192.0
1383.05481 172.0
1383.182739 180.0
1383.296387 100.0
1383.317871 136.0
1383.411987 140.0
1383.595947 88.0
1383.791016 160.0
1383.967407 180.0
1384.034058 56.0
1384.204468 180.0
1384.256226 164.0
1384.306274 268.0
1384.445923 168.0
1384.498413 188.0
1384.596924 52.0
1384.772339 164.0
1384.863525 192.0
1384.914795 92.0
1385.04126 156.0
1385.131226 88.0
1385.248779 96.0
1385.441406 148.0
1385.60437 120.0
1385.726074 112.0
1385.833984 104.0
1385.915527 100.0
1385.977905 192.0
1386.174927 208.0
1386.249023 188.0
1386.319336 188.0
1386.47876 204.0
1386.537964 132.0
1386.708496 144.0
1386.818726 336.0
1387.012329 196.0
1387.090332 108.0
1387.354492 180.0
1387.670044 156.0
1387.802612 240.0
1387.892822 160.0
1388.06311 364.0
1388.180908 172.0
1388.261597 116.0
1388.35437 116.0
1388.480469 164.0
1388.742065 160.0
1388.885986 112.0
1388.9552 208.0
1389.110962 164.0
1389.255005 96.0
1389.355835 168.0
1389.414795 104.0
1389.5448 304.0
1389.595215 132.0
1389.734131 216.0
1389.800171 188.0
1389.814697 168.0
1389.852661 164.0
1389.941895 180.0
1390.016113 148.0
1390.275879 108.0
1390.431763 52.0
1390.594971 180.0
1390.736084 148.0
1390.839966 132.0
1390.921631 148.0
1391.091919 288.0
1391.108765 156.0
1391.169678 204.0
1391.315063 160.0
1391.373169 168.0
1391.434448 164.0
1391.567505 76.0
1391.631958 224.0
1391.767944 216.0
1392.057617 172.0
1392.131836 112.0
1392.228394 60.0
1392.320801 188.0
1392.393921 144.0
1392.519043 156.0
1392.588745 116.0
1392.762695 72.0
1392.842529 196.0
1392.963745 464.0
1393.015747 196.0
1393.088257 120.0
1393.116211 92.0
1393.238525 96.0
1393.367188 356.0
1393.431763 72.0
1393.483765 196.0
1393.54126 204.0
1393.638794 184.0
1393.799438 200.0
1393.944458 172.0
1394.091187 180.0
1394.167358 140.0
1394.25 200.0
1394.338013 92.0
1394.442383 132.0
1394.494385 140.0
1394.66333 200.0
1394.743042 168.0
1394.799194 140.0
1394.970093 120.0
1395.127319 172.0
1395.197021 320.0
1395.297241 136.0
1395.442017 160.0
1395.53186 176.0
1395.643188 172.0
1395.936768 228.0
1396.082397 188.0
1396.21106 136.0
1396.390381 84.0
1396.494507 132.0
1396.658203 60.0
1396.83667 176.0
1397.034058 104.0
1397.188477 184.0
1397.310547 132.0
1397.416992 160.0
1397.580688 376.0
1397.645264 200.0
1397.734253 116.0
1397.893188 136.0
1398.026855 104.0
1398.232056 160.0
1398.3573 200.0
1398.436523 128.0
1398.557739 152.0
1398.670288 336.0
1398.761719 180.0
1398.810669 204.0
1398.997314 160.0
1399.065674 180.0
1399.173462 156.0
1399.29541 156.0
1399.424194 188.0
1399.706421 152.0
1399.784058 180.0
1399.873413 76.0
1399.928955 292.0
1400.031128 196.0
1400.210205 172.0
1400.325928 156.0
1400.416138 128.0
1400.505981 120.0
1400.573486 168.0
1400.640503 88.0
1400.845093 176.0
1400.983154 156.0
1401.109863 44.0
1401.191772 140.0
1401.455688 136.0
1401.646362 164.0
1401.772949 132.0
1401.843628 184.0
1401.944458 104.0
1402.013184 108.0
1402.149536 168.0
1402.287231 96.0
1402.41394 204.0
1402.495972 176.0
1402.555542 144.0
1402.622681 136.0
1402.734131 104.0
1402.846313 116.0
1402.898438 168.0
1402.964966 144.0
1403.129639 120.0
1403.226562 184.0
1403.412964 328.0
1403.465088 108.0
1403.593994 196.0
1403.800659 156.0
1403.860352 144.0
1404.000122 216.0
1404.051147 132.0
1404.263062 360.0
1404.3302 120.0
1404.450439 108.0
1404.699707 136.0
1404.762817 128.0
1404.986694 168.0
1405.067383 128.0
1405.284668 144.0
1405.447266 152.0
1405.57605 108.0
1405.635742 148.0
1405.717896 188.0
1405.83728 172.0
1405.904419 144.0
1406.053711 192.0
1406.238403 112.0
1406.390991 164.0
1406.509033 180.0
1406.597656 176.0
1406.645752 152.0
1406.747925 56.0
1406.843872 204.0
1406.970703 128.0
1407.136108 296.0
1407.240601 152.0
1407.377197 152.0
1407.512451 196.0
1407.718506 92.0
1407.814575 120.0
1407.955078 132.0
1407.99353 120.0
1408.018677 220.0
1408.121826 100.0
1408.415771 144.0
1408.485229 152.0
1408.552002 224.0
1408.659668 148.0
1408.75647 92.0
1408.818481 120.0
1409.023315 140.0
1409.092896 104.0
1409.18811 104.0
1409.247192 136.0
1409.395752 160.0
1409.600464 196.0
1409.778442 188.0
1409.937378 72.0
1410.001953 132.0
1410.124146 160.0
1410.213867 184.0
1410.287476 140.0
1410.418335 276.0
1410.497925 100.0
1410.589355 180.0
1410.667969 160.0
1410.82666 160.0
1411.009033 220.0
1411.155884 136.0
1411.230591 164.0
1411.345459 196.0
1411.369507 132.0
1411.522217 128.0
1411.574585 120.0
1411.653809 208.0
1412.023315 144.0
1412.080444 212.0
1412.177368 180.0
1412.262573 172.0
1412.329956 188.0
1412.408691 332.0
1412.479492 212.0
1412.554321 108.0
1412.678467 188.0
1412.793701 92.0
1412.988281 108.0
1413.093018 160.0
1413.459595 160.0
1413.579346 172.0
1413.631714 140.0
1413.920898 208.0
1414.050903 88.0
1414.199097 328.0
1414.267944 124.0
1414.372681 108.0
1414.579346 100.0
1414.702148 164.0
1414.799438 80.0
1414.964111 152.0
1415.021851 152.0
1415.083984 100.0
1415.177124 232.0
1415.308594 100.0
1415.5271 84.0
1415.600586 140.0
1415.8927 92.0
1416.035034 152.0
1416.132324 172.0
1416.217773 224.0
1416.334595 116.0
1416.496094 36.0
1416.519165 168.0
1416.633667 168.0
1416.746582 128.0
1416.836548 160.0
1416.931885 228.0
1417.005859 152.0
1417.091187 128.0
1417.152954 100.0
1417.35376 184.0
1417.480835 216.0
1417.5354 144.0
1417.630737 128.0
1417.88562 40.0
1417.968018 72.0
1418.095459 76.0
1418.200317 188.0
1418.31604 156.0
1418.369385 144.0
1418.496704 320.0
1418.792603 136.0
1419.287476 124.0
1419.384277 188.0
1419.443726 124.0
1419.575073 176.0
1419.759888 124.0
1419.849854 76.0
1419.924805 88.0
1419.977417 112.0
1420.176758 356.0
1420.315796 140.0
1420.418457 148.0
1420.526367 228.0
1420.644897 200.0
1420.780029 140.0
1420.869995 128.0
1420.982544 172.0
1421.042603 144.0
1421.102661 120.0
1421.21521 116.0
1421.282471 252.0
1421.496338 332.0
1421.852051 128.0
1421.905396 252.0
1422.018188 124.0
1422.085693 92.0
1422.182007 284.0
1422.310913 152.0
1422.385986 188.0
1422.468506 176.0
1422.641235 220.0
1422.720337 156.0
1422.981567 168.0
1423.07666 184.0
1423.233154 184.0
1423.339233 120.0
1423.452148 140.0
1423.527222 116.0
1423.579712 144.0
1423.72998 172.0
1423.842651 112.0
1423.992798 164.0
1424.21814 52.0
1424.311279 348.0
1424.436035 172.0
1424.503662 180.0
1424.901733 168.0
1424.984375 136.0
1425.095581 152.0
1425.17981 92.0
1425.416382 164.0
1425.475586 144.0
1425.578003 148.0
1425.642944 120.0
1425.728394 192.0
1425.833618 196.0
1425.897949 164.0
1426.074097 60.0
1426.141724 60.0
1426.231934 156.0
1426.295654 116.0
1426.442383 220.0
1426.51001 172.0
1426.562744 76.0
1426.687256 144.0
1426.777588 272.0
1426.923584 160.0
1427.216797 264.0
1427.291992 104.0
1427.404785 100.0
1427.709351 128.0
1427.854126 196.0
1427.882812 148.0
1427.897217 280.0
1428.044067 84.0
1428.314819 108.0
1428.540527 204.0
1428.59314 120.0
1428.675903 132.0
1428.826416 148.0
1428.886597 84.0
1428.952271 268.0
1429.108398 360.0
1429.172485 224.0
1429.275269 196.0
1429.40918 176.0
1429.591187 88.0
1429.604614 120.0
1429.769531 264.0
1429.837036 168.0
1429.970215 128.0
1430.046631 104.0
1430.143311 120.0
1430.244751 160.0
1430.331543 148.0
1430.426392 140.0
1430.549805 48.0
1430.712891 108.0
1430.991821 136.0
1431.061768 144.0
1431.317749 148.0
1431.378052 196.0
1431.475952 88.0
1431.619019 152.0
1431.724365 160.0
1431.822388 344.0
1431.882568 188.0
1432.070923 64.0
1432.239624 192.0
1432.357056 184.0
1432.58313 128.0
1432.643433 48.0
1432.784424 176.0
1432.944702 132.0
1433.080322 304.0
1433.140625 152.0
1433.247437 72.0
1433.26355 156.0
1433.457153 132.0
1433.547607 116.0
1433.655029 108.0
1433.785034 184.0
1433.962036 188.0
1434.046875 144.0
1434.155396 152.0
1434.275024 216.0
1434.474609 200.0
1434.5802 324.0
1434.648071 212.0
1434.762329 336.0
1434.826416 160.0
1434.987061 152.0
1435.125977 172.0
1435.277222 280.0
1435.447266 164.0
1435.572388 188.0
1435.665894 92.0
1435.777954 376.0
1435.839355 104.0
1435.944946 88.0
1436.074463 204.0
1436.205078 292.0
1436.329712 160.0
1436.425049 176.0
1436.503174 148.0
1436.55603 52.0
1436.685303 112.0
1436.857788 132.0
1437.059448 216.0
1437.129395 100.0
1437.354492 152.0
1437.424683 316.0
1437.521729 152.0
1437.587769 144.0
1437.756226 164.0
1437.876465 400.0
1437.929321 80.0
1438.024414 300.0
1438.211792 232.0
1438.336914 132.0
1438.514526 164.0
1438.570923 116.0
1438.66626 256.0
1438.801147 144.0
1438.991943 136.0
1439.114502 160.0
1439.235352 248.0
1439.288208 140.0
1439.46936 108.0
1439.575073 176.0
1439.650635 112.0
1439.715576 120.0
1439.786621 108.0
1439.883545 148.0
1440.058472 160.0
1440.121094 136.0
1440.275146 164.0
1440.419067 152.0
1440.488159 128.0
1440.539429 132.0
1440.696411 260.0
1440.851685 92.0
1441.112061 196.0
1441.221924 136.0
1441.620239 164.0
1441.77356 64.0
1441.871826 180.0
1442.025757 172.0
1442.095215 72.0
1442.339233 180.0
1442.431152 208.0
1442.589722 132.0
1442.793945 88.0
1442.846924 112.0
1442.912964 216.0
1442.998169 188.0
1443.086792 136.0
1443.170898 152.0
1443.225464 224.0
1443.323242 168.0
1443.425659 168.0
1443.598999 304.0
1443.71167 188.0
1443.776978 156.0
1443.845093 104.0
1443.913086 108.0
1444.006836 92.0
1444.210327 180.0
1444.312012 192.0
1444.533447 160.0
1444.646851 176.0
1444.703491 116.0
1444.913818 96.0
1445.007568 272.0
1445.147827 216.0
1445.240356 64.0
1445.383789 240.0
1445.560059 208.0
1445.92627 112.0
1446.06189 160.0
1446.146851 160.0
1446.235962 200.0
1446.398071 180.0
1446.584229 108.0
1446.702759 176.0
1446.886963 56.0
1446.996948 116.0
1447.085327 160.0
1447.197388 204.0
1447.318604 120.0
1447.47229 148.0
1447.606323 188.0
1447.715576 152.0
1447.785278 140.0
1447.988281 200.0
1448.333374 148.0
1448.397949 128.0
1448.596069 136.0
1448.689453 96.0
1448.75 100.0
1448.942261 236.0
1449.022827 208.0
1449.134644 168.0
1449.178345 68.0
1449.206177 100.0
1449.287964 136.0
1449.348999 108.0
1449.50769 176.0
1449.598633 36.0
1449.674438 168.0
1449.757812 124.0
1449.939697 64.0
1450.000366 192.0
1450.068604 148.0
1450.121582 144.0
1450.314941 152.0
1450.379272 164.0
1450.514404 184.0
1450.528687 152.0
1450.811401 184.0
1451.000977 68.0
1451.122314 168.0
1451.273926 60.0
1451.3573 144.0
1451.425537 124.0
1451.562256 180.0
1451.751587 160.0
1451.857788 160.0
1451.919434 160.0
1452.145996 132.0
1452.207397 136.0
1452.309204 112.0
1452.419067 104.0
1452.510132 208.0
1452.574829 168.0
1452.988037 120.0
1453.099854 124.0
1453.305542 336.0
1453.511597 220.0
1453.60498 200.0
1453.679321 188.0
1453.783325 128.0
1453.90625 152.0
1453.997314 180.0
1454.118774 228.0
1454.323608 136.0
1454.406128 176.0
1454.433472 136.0
1454.570068 144.0
1454.650024 188.0
1454.725952 356.0
1454.859619 208.0
1454.984131 292.0
1455.09314 176.0
1455.115967 160.0
1455.234619 156.0
1455.346436 236.0
1455.45874 132.0
1455.561157 100.0
1455.846558 332.0
1456.151123 180.0
1456.385132 236.0
1456.510498 64.0
1456.616577 136.0
1456.851196 176.0
1457.011841 96.0
1457.194214 152.0
1457.36145 92.0
1457.53894 164.0
1457.589355 200.0
1457.802124 76.0
1458.029419 164.0
1458.151733 108.0
1458.239014 224.0
1458.305908 192.0
1458.417725 120.0
1458.503784 140.0
1458.584351 184.0
1458.649658 180.0
1458.764648 152.0
1458.778687 140.0
1459.025879 336.0
1459.144653 160.0
1459.312134 144.0
1459.413696 224.0
1459.504883 180.0
1459.596191 64.0
1459.655273 140.0
1459.796509 172.0
1459.90979 336.0
1460.021973 208.0
1460.152466 212.0
1460.219727 220.0
1460.267212 168.0
1460.508789 140.0
1460.650879 208.0
1460.730713 156.0
1460.891968 152.0
1461.04126 132.0
1461.138794 216.0
1461.216309 184.0
1461.397095 136.0
1461.507568 124.0
1461.665283 208.0
1461.756592 132.0
1461.809814 168.0
1461.92395 160.0
1461.98938 208.0
1462.106567 192.0
1462.464355 100.0
1462.538208 200.0
1462.709229 192.0
1462.860229 120.0
1462.927734 200.0
1463.042847 152.0
1463.31897 60.0
1463.423584 240.0
1463.636719 140.0
1463.701294 184.0
1463.804321 52.0
1463.948975 136.0
1464.032715 44.0
1464.146973 240.0
1464.245972 160.0
1464.381714 180.0
1464.439941 96.0
1464.547729 144.0
1464.604736 192.0
1464.707153 136.0
1464.840088 244.0
1464.92334 172.0
1465.022949 108.0
1465.259155 104.0
1465.380615 200.0
1465.447144 248.0
1465.556274 92.0
1465.921997 180.0
1466.043945 228.0
1466.16272 172.0
1466.388184 148.0
1466.447876 116.0
1466.592773 264.0
1466.691895 64.0
1466.771362 184.0
1466.851929 56.0
1466.927368 164.0
1467.038574 108.0
1467.058228 120.0
1467.25 184.0
1467.321167 204.0
1467.400879 132.0
1467.532349 144.0
1467.620117 132.0
1467.709473 80.0
1467.801514 196.0
1467.886841 196.0
1468.049194 124.0
1468.186279 48.0
1468.411621 252.0
1468.643921 132.0
1468.703247 268.0
1468.838745 192.0
1468.948975 180.0
1469.002441 224.0
1469.091553 180.0
1469.220581 352.0
1469.372925 384.0
1469.467773 108.0
1469.556885 220.0
1469.706543 148.0
1469.788208 104.0
1469.914551 300.0
1470.070557 184.0
1470.259644 220.0
1470.475098 136.0
1470.5896 200.0
1470.688843 248.0
1470.742188 204.0
1470.925415 136.0
1470.998901 196.0
1471.052368 172.0
1471.21228 548.0
1471.28894 200.0
1471.48877 184.0
1471.604858 360.0
1471.681274 120.0
1471.757568 192.0
1471.849243 128.0
1471.925659 56.0
1472.108887 216.0
1472.276855 200.0
1472.345581 124.0
1472.429688 196.0
1472.50061 192.0
1472.567139 60.0
1472.690674 140.0
1472.857422 140.0
1472.926147 156.0
1473.065063 132.0
1473.278198 228.0
1473.542358 240.0
1473.56189 160.0
1473.715332 220.0
1473.972778 156.0
1474.060181 264.0
1474.240234 212.0
1474.363525 164.0
1474.446655 100.0
1474.561279 84.0
1474.810913 164.0
1474.962158 96.0
1475.18811 284.0
1475.291992 220.0
1475.324951 132.0
1475.34375 208.0
1475.401123 180.0
1475.631836 84.0
1475.715576 168.0
1475.822632 172.0
1475.934814 160.0
1476.036499 236.0
1476.165649 132.0
1476.262817 184.0
1476.36438 156.0
1476.470215 88.0
1476.61792 68.0
1476.787354 196.0
1476.893311 136.0
1476.977417 164.0
1477.14209 216.0
1477.164551 112.0
1477.186157 156.0
1477.283447 168.0
1477.459595 152.0
1477.703857 160.0
1477.864868 240.0
1477.963867 160.0
1478.035767 236.0
1478.098022 196.0
1478.206665 288.0
1478.303833 180.0
1478.337158 136.0
1478.500122 168.0
1478.630127 144.0
1478.728516 156.0
1478.790161 132.0
1478.951294 316.0
1479.165039 128.0
1479.298096 128.0
1479.396362 168.0
1479.598145 176.0
1479.717163 192.0
1479.868652 228.0
1479.981934 148.0
1480.107544 208.0
1480.14917 136.0
1480.277466 192.0
1480.459351 144.0
1480.530396 204.0
1480.628418 124.0
1480.697388 164.0
1480.819946 124.0
1481.142212 212.0
1481.275879 172.0
1481.36377 180.0
1481.547607 112.0
1481.728638 148.0
1481.81311 68.0
1481.839111 160.0
1481.9104 128.0
1481.999634 132.0
1482.099243 76.0
1482.260132 88.0
1482.474731 132.0
1482.543701 108.0
1482.616333 188.0
1482.735718 144.0
1482.853027 132.0
1483.034302 136.0
1483.253174 148.0
1483.310181 132.0
1483.477661 184.0
1483.613892 184.0
1483.734131 164.0
1483.862183 188.0
1483.988037 220.0
1484.057617 196.0
1484.142456 256.0
1484.199585 176.0
1484.391235 168.0
1484.48645 184.0
1484.598999 136.0
1484.812622 136.0
1484.974121 184.0
1485.165894 28.0
1485.406738 184.0
1485.495728 296.0
1485.549438 172.0
1485.61084 160.0
1485.831909 108.0
1486.005371 176.0
1486.071167 168.0
1486.183838 368.0
1486.239258 148.0
1486.343994 128.0
1486.432739 168.0
1486.619629 160.0
1486.677612 104.0
1486.783447 164.0
1486.909058 148.0
1487.087524 116.0
1487.345093 164.0
1487.443604 196.0
1487.471802 164.0
1487.62146 140.0
1487.682861 184.0
1487.831787 260.0
1487.997681 168.0
1488.124023 220.0
1488.189575 48.0
1488.281738 156.0
1488.401489 152.0
1488.558105 164.0
1488.611938 352.0
1488.680786 172.0
1488.796265 148.0
1488.910156 192.0
1488.950928 188.0
1489.115845 148.0
1489.220337 88.0
1489.418335 164.0
1489.500488 196.0
1489.625732 164.0
1489.717896 120.0
1489.835449 120.0
1489.944092 420.0
1489.999268 128.0
1490.136353 204.0
1490.209595 112.0
1490.29834 164.0
1490.3479 212.0
1490.524658 116.0
1490.630371 180.0
1490.861816 88.0
1490.888672 76.0
1490.919312 116.0
1490.98584 76.0
1491.058838 208.0
1491.14502 148.0
1491.279785 296.0
1491.428467 188.0
1491.648193 160.0
1491.762085 132.0
1491.86145 160.0
1491.946655 108.0
1492.271606 164.0
1492.416504 108.0
1492.441284 120.0
1492.531006 168.0
1492.60791 144.0
1492.661743 80.0
1492.753906 172.0
1493.023071 128.0
1493.107788 64.0
1493.218018 168.0
1493.300049 168.0
1493.372437 260.0
1493.769165 232.0
1493.917603 192.0
1494.046143 208.0
1494.169312 144.0
1494.286743 164.0
1494.346191 124.0
1494.472534 136.0
1494.708252 96.0
1494.921631 184.0
1494.989624 144.0
1495.146484 124.0
1495.21582 68.0
1495.300415 420.0
1495.385132 192.0
1495.550049 260.0
1495.784668 168.0
1495.815308 152.0
1495.943604 168.0
1496.113403 144.0
1496.339722 356.0
1496.470581 100.0
1496.539917 156.0
1496.770874 216.0
1496.947998 112.0
1497.025024 180.0
1497.163574 156.0
1497.306274 208.0
1497.425415 32.0
1497.522583 212.0
1497.550049 112.0
1497.676758 192.0
1497.753662 172.0
1498.003174 168.0
1498.074219 108.0
1498.176392 124.0
1498.241943 104.0
1498.419189 84.0
1498.488525 124.0
1498.581055 64.0
1498.704224 96.0
1498.843018 244.0
1499.024414 164.0
1499.060913 44.0
1499.094604 176.0
1499.282104 172.0
1499.648682 168.0
1499.779053 352.0
1499.883423 92.0
1500.041626 184.0
1500.307373 120.0
1500.468384 156.0
1500.646606 200.0
1500.723755 56.0
1500.799316 176.0
1500.92041 288.0
1501.026733 144.0
1501.082031 140.0
1501.471802 136.0
1501.546631 152.0
1501.744507 276.0
1501.907104 72.0
1501.955322 452.0
1502.06311 268.0
1502.115845 48.0
1502.196899 268.0
1502.3396 204.0
1502.550903 120.0
1502.775513 180.0
1502.843018 132.0
1502.962524 180.0
1503.091797 160.0
1503.227051 148.0
1503.316772 84.0
1503.446777 268.0
1503.536987 176.0
1503.710083 176.0
1503.824951 144.0
1503.879028 164.0
1503.948486 132.0
1504.018677 304.0
1504.164673 96.0
1504.251831 192.0
1504.380737 140.0
1504.602661 152.0
1504.688354 168.0
1504.730957 220.0
1504.809326 176.0
1504.898071 188.0
1504.990723 336.0
1505.05249 160.0
1505.114258 92.0
1505.322754 84.0
