>compound Anastrozole
>formula C17H19N5
>ionization [M+H]+
>parentmass 294.171173
#inchi InChI=1S/C17H19N5/c1-16(2,9-18)14-5-13(8-22-12-20-11-21-22)6-15(7-14)17(3,4)10-19/h5-7,11-12H,8H2,1-4H3
#inchikey YBBLVLTVTVSKRW
#Ion_Source LC-ESI
#Instrument qTof
#Compound_Source Commercial
#PI Dorrestein
#Data_Collector Garg_Neha
#Scan -1
#Precursor_MZ 294.171
#ExactMass 293.164
#Charge 1
#CAS_Number 120511-73-1
#Pubmed_ID N/A
#Smiles C1=C(C=C(C=C1CN2C=NC=N2)C(C)(C)C#N)C(C)(C)C#N
#INCHI_AUX N/A
#Library_Class 1
#SpectrumID CCMSLIB00000078034
#IonMode Positive
#UpdateWorkflowName UPDATE-SINGLE-ANNOTATED-GOLD
#LibraryQualityString Gold
#TaskID 77f51c88eb8b467eb4a01dd2d0cb90d2
##Scan# 1291
#SpectrumFile Plate1_21_40_GG2_01_16489.mzXML
#LibraryName FDALibrary_2_04302014.mgf
#MQScore -1
#Organism FDALibrary_2_04302014
#TIC_Query 0
#RT_Query -1
#MZErrorPPM -1
#SharedPeaks 0
#MassDiff 0
#LibMZ -1
#SpecMZ 294.171
#SpecCharge 0
#internalFilename spec-00000.mgf

>collision 10
49.671761 172.0
58.154716 204.0
67.724754 176.0
72.195824 156.0
77.243019 208.0
77.726578 156.0
80.017387 188.0
83.847366 176.0
85.148209 152.0
92.041145 220.0
95.156693 148.0
96.790688 204.0
96.894501 196.0
98.938843 212.0
109.301682 180.0
115.205811 176.0
119.046402 140.0
123.856499 224.0
126.367737 148.0
129.361069 192.0
129.875458 180.0
142.06662 108.0
142.118591 172.0
143.074112 252.0
152.445801 152.0
154.064651 144.0
154.195618 220.0
156.71196 188.0
157.056 232.0
157.090225 352.0
157.75769 156.0
158.085358 188.0
158.102875 160.0
158.967682 148.0
160.132812 204.0
161.072357 168.0
166.238525 144.0
167.00415 176.0
167.114777 196.0
168.747452 156.0
170.102417 216.0
172.972519 156.0
177.186218 160.0
179.075516 168.0
180.077835 176.0
181.214783 148.0
181.458679 188.0
183.103088 180.0
184.541611 160.0
185.706085 212.0
189.177719 220.0
189.489929 144.0
199.124908 168.0
202.532211 196.0
209.110245 372.0
210.021561 140.0
210.114746 608.0
214.108353 156.0
215.123077 156.0
225.138031 4856.0
225.668198 140.0
226.142197 1136.0
231.593887 192.0
236.487061 204.0
239.995438 148.0
245.269043 220.0
257.787384 180.0
258.097473 184.0
264.950104 152.0
290.002197 140.0
291.115173 160.0
291.947632 176.0
292.154175 144.0
293.096558 104.0
293.217133 176.0
293.248199 172.0
293.394775 148.0
294.171173 5648.0
294.412415 192.0
294.652344 144.0
295.175323 1156.0
295.26944 156.0
295.302612 132.0
296.175598 188.0
297.072723 124.0
297.138428 284.0
297.238403 188.0
458.216248 160.0
1679.827393 172.0
1799.782471 172.0
1984.37085 216.0
