>compound MLS000860031-01!BMY 7378 dihydrochloride
>formula C22H31N3O3
>ionization [M+H]+
>parentmass 386.244171
#inchi InChI=1S/C22H31N3O3/c1-28-19-7-3-2-6-18(19)24-13-10-23(11-14-24)12-15-25-20(26)16-22(17-21(25)27)8-4-5-9-22/h2-3,6-7H,4-5,8-17H2,1H3
#inchikey AYYCFGDXLUPJAQ
#origInchi InChI=1S/C22H31N3O3.ClH/c1-28-19-7-3-2-6-18(19)24-13-10-23(11-14-24)12-15-25-20(26)16-22(17-21(25)27)8-4-5-9-22;/h2-3,6-7H,4-5,8-17H2,1H3;1H
#Ion_Source LC-ESI
#Instrument qTof
#Compound_Source NIH Pharmacologically Active Library
#PI Dorrestein
#Data_Collector VP/LMS
#Scan -1
#Precursor_MZ 386.248
#ExactMass 385.237
#Charge 1
#CAS_Number N/A
#Pubmed_ID N/A
#Smiles COc1ccccc1N2CCN(CCN3C(=O)CC4(CCCC4)CC3=O)CC2.Cl
#INCHI_AUX N/A
#Library_Class 1
#SpectrumID CCMSLIB00000084908
#IonMode Positive
#UpdateWorkflowName UPDATE-SINGLE-ANNOTATED-GOLD
#LibraryQualityString Gold
#TaskID d252d724072548979f1f6f1ced849daf
##Scan# 1641
#SpectrumFile p3-C06_GC6_01_18251.mzXML
#LibraryName Pharm_Active_Library.mgf
#MQScore -1
#Organism Pharm_Active_Library
#TIC_Query 0
#RT_Query -1
#MZErrorPPM -1
#SharedPeaks 0
#MassDiff 0
#LibMZ -1
#SpecMZ 386.248
#SpecCharge 0
#internalFilename spec-00000.mgf

>collision 10
44.916389 52.0
44.941021 156.0
44.957752 236.0
44.96843 212.0
44.99913 124.0
45.00848 60.0
45.023331 164.0
45.081951 284.0
45.093979 116.0
45.103336 116.0
45.128471 140.0
45.16217 140.0
45.19482 228.0
45.209 140.0
45.253819 176.0
45.276951 180.0
45.313446 64.0
45.333546 268.0
45.385826 164.0
45.406189 236.0
45.450211 208.0
45.468998 192.0
45.528927 84.0
45.558147 164.0
45.636921 276.0
45.647678 160.0
45.681301 172.0
45.718979 168.0
45.736473 184.0
45.807842 172.0
45.868904 244.0
45.907879 220.0
45.957649 140.0
46.019585 132.0
46.042542 128.0
46.057129 220.0
46.061329 176.0
46.065689 204.0
46.091175 156.0
46.103336 176.0
46.138004 124.0
46.147945 192.0
46.17905 200.0
46.197636 168.0
46.242641 136.0
46.330662 172.0
46.355053 180.0
46.368603 48.0
46.438522 168.0
46.451317 148.0
46.472038 176.0
46.55447 196.0
46.58707 196.0
46.640068 128.0
46.666298 164.0
46.720303 140.0
46.732548 180.0
46.744793 100.0
46.768288 152.0
46.807411 152.0
46.822803 132.0
46.886425 208.0
46.915051 72.0
46.927322 148.0
46.953232 172.0
46.964142 132.0
46.994156 212.0
47.014626 164.0
47.031002 188.0
47.050404 208.0
47.129906 200.0
47.179905 180.0
47.204716 164.0
47.217537 148.0
47.230503 156.0
47.256538 128.0
47.293446 152.0
47.386261 160.0
47.452358 104.0
47.498913 148.0
47.542278 168.0
47.584072 168.0
47.597805 164.0
47.62624 68.0
47.693974 160.0
47.905895 88.0
47.921047 136.0
47.958256 124.0
47.99548 164.0
48.018898 204.0
48.166618 168.0
48.201157 196.0
48.219856 196.0
48.238476 120.0
48.268242 212.0
48.279957 196.0
48.308178 208.0
48.373753 152.0
48.387619 144.0
48.441902 176.0
48.458527 168.0
48.493172 176.0
48.51535 128.0
48.543079 132.0
48.563885 144.0
48.574654 180.0
48.634651 84.0
48.677689 188.0
48.697968 240.0
48.801361 116.0
48.825001 148.0
48.837517 84.0
48.887604 96.0
48.900131 144.0
48.943462 224.0
48.973003 248.0
49.000225 132.0
49.060322 112.0
49.113316 208.0
49.14801 452.0
49.166332 224.0
49.192852 164.0
49.224346 144.0
49.265972 308.0
49.297829 128.0
49.321999 80.0
49.380096 216.0
49.416466 144.0
49.436058 164.0
49.451202 156.0
49.479557 156.0
49.49345 112.0
49.55508 188.0
49.571896 196.0
49.587315 32.0
49.618153 140.0
49.640587 100.0
49.664429 40.0
49.675919 256.0
49.688278 180.0
49.717747 316.0
49.754242 36.0
49.764069 48.0
49.804798 128.0
49.846947 104.0
49.865215 108.0
49.914391 184.0
49.931297 156.0
49.962242 80.0
50.036194 228.0
50.064999 204.0
50.147381 232.0
50.173496 216.0
50.191826 216.0
50.227085 136.0
50.255302 168.0
50.308933 68.0
50.338051 264.0
50.35553 188.0
50.37709 168.0
50.382885 44.0
50.387684 184.0
50.487453 140.0
50.511017 180.0
50.525162 164.0
50.560539 40.0
50.573032 140.0
50.594509 136.0
50.610085 220.0
50.660896 160.0
50.687363 80.0
50.711613 112.0
50.722008 76.0
50.743271 72.0
50.763054 164.0
50.804256 88.0
50.818413 168.0
50.8596 180.0
50.899353 164.0
50.917816 176.0
50.929176 208.0
50.977657 164.0
51.024391 172.0
51.051407 184.0
51.081276 192.0
51.143887 152.0
51.154072 208.0
51.175762 288.0
51.189606 160.0
51.207962 228.0
51.246181 184.0
51.276352 160.0
51.354771 152.0
51.384727 144.0
51.396141 120.0
51.418976 304.0
51.448952 124.0
51.476078 120.0
51.486076 272.0
51.503216 112.0
51.525707 220.0
51.570942 176.0
51.598965 160.0
51.646156 88.0
51.6576 160.0
51.677628 168.0
51.694801 180.0
51.714836 196.0
51.732014 184.0
51.743465 104.0
51.780327 200.0
51.806484 104.0
51.825108 216.0
51.869537 160.0
51.925457 168.0
51.936783 156.0
51.961319 256.0
51.988583 124.0
52.004372 144.0
52.027119 220.0
52.050827 300.0
52.065155 292.0
52.167759 188.0
52.210903 192.0
52.235714 176.0
52.249344 192.0
52.290394 140.0
52.313423 140.0
52.3307 248.0
52.353741 100.0
52.373474 168.0
52.453159 164.0
52.464691 172.0
52.551228 224.0
52.567101 184.0
52.58009 168.0
52.593079 196.0
52.640724 240.0
52.652275 132.0
52.718166 276.0
52.742813 236.0
52.788708 188.0
52.825947 220.0
52.840195 100.0
52.87624 236.0
52.899532 84.0
52.9198 128.0
52.93428 204.0
52.960445 180.0
52.987873 280.0
53.041496 192.0
53.061234 52.0
53.138531 176.0
53.259155 156.0
53.311459 120.0
53.331806 212.0
53.408871 44.0
53.420509 100.0
53.453976 148.0
53.483082 172.0
53.516567 140.0
53.528214 120.0
53.592308 204.0
53.614166 160.0
53.637486 44.0
53.660812 180.0
53.697269 100.0
53.723526 60.0
53.758545 36.0
53.812553 236.0
53.864155 180.0
53.878155 240.0
53.88335 220.0
53.89748 428.0
53.939655 208.0
53.97913 244.0
53.998142 76.0
54.023739 108.0
54.040565 196.0
54.059589 208.0
54.094715 172.0
54.13007 136.0
54.144501 184.0
54.189911 184.0
54.21616 136.0
54.263195 204.0
54.292522 180.0
54.313057 164.0
54.32626 128.0
54.339462 132.0
54.357071 168.0
54.376148 188.0
54.389359 136.0
54.424595 196.0
54.44809 132.0
54.475723 172.0
54.547306 236.0
54.608677 184.0
54.634769 156.0
54.681858 136.0
54.714462 216.0
54.751057 156.0
54.780514 132.0
54.830612 188.0
54.870155 92.0
54.883682 324.0
54.901379 136.0
54.926453 140.0
54.945633 156.0
54.981045 132.0
55.047424 108.0
55.065201 176.0
55.082924 120.0
55.124294 124.0
55.143509 140.0
55.182312 144.0
55.198208 112.0
55.210037 112.0
55.227127 224.0
55.264278 144.0
55.288448 84.0
55.31065 116.0
55.344059 208.0
55.366123 184.0
55.414318 132.0
55.461739 136.0
55.49601 192.0
55.508686 132.0
55.524014 276.0
55.562878 200.0
55.581215 368.0
55.632332 364.0
55.660542 160.0
55.758591 124.0
55.832928 168.0
55.864162 112.0
55.938572 156.0
55.998005 204.0
56.041332 184.0
56.056232 164.0
56.069645 172.0
56.108402 136.0
56.145683 84.0
56.17141 180.0
56.200527 204.0
56.238186 204.0
56.317322 52.0
56.341225 168.0
56.384556 136.0
56.396515 84.0
56.420433 192.0
56.433887 104.0
56.463158 188.0
56.475761 120.0
56.498199 96.0
56.537128 240.0
56.552071 216.0
56.583549 140.0
56.632027 120.0
56.671005 216.0
56.683865 140.0
56.695854 196.0
56.710182 280.0
56.736324 120.0
56.748318 80.0
56.787308 88.0
56.827812 212.0
56.862328 124.0
56.886345 176.0
56.899857 56.0
56.920795 208.0
56.940399 116.0
56.999916 104.0
57.030552 140.0
57.045582 132.0
57.05743 200.0
57.072643 160.0
57.084675 168.0
57.118687 176.0
57.21859 132.0
57.258911 196.0
57.280334 132.0
57.31348 156.0
57.342113 180.0
57.355679 56.0
57.431072 108.0
57.46426 80.0
57.538216 152.0
57.619774 176.0
57.653015 256.0
57.731606 148.0
57.784573 176.0
57.860245 144.0
57.906483 180.0
57.92688 160.0
57.94297 200.0
57.972336 128.0
58.048599 156.0
58.087566 112.0
58.1133 104.0
58.150581 144.0
58.176289 112.0
58.198357 164.0
58.213543 60.0
58.239487 144.0
58.253811 172.0
58.321411 124.0
58.337547 228.0
58.377541 144.0
58.383011 132.0
58.426342 164.0
58.453659 172.0
58.475033 160.0
58.51157 148.0
58.537453 184.0
58.556404 36.0
58.65477 144.0
58.66544 204.0
58.692883 164.0
58.717285 104.0
58.758472 112.0
58.773727 208.0
58.801197 176.0
58.851574 104.0
58.874012 172.0
58.931805 228.0
58.943226 160.0
59.022713 92.0
59.033417 32.0
59.057888 212.0
59.088482 168.0
59.131683 172.0
59.143459 160.0
59.149216 140.0
59.154861 224.0
59.183376 112.0
59.213837 180.0
59.233917 152.0
59.248238 196.0
59.25843 176.0
59.28323 152.0
59.295208 104.0
59.310535 216.0
59.342728 148.0
59.353462 68.0
59.367264 68.0
59.465454 180.0
59.483871 104.0
59.53949 232.0
59.547173 160.0
59.588303 144.0
59.605206 152.0
59.688213 52.0
59.802528 184.0
59.829739 204.0
59.855942 160.0
59.866722 100.0
59.886265 240.0
59.916012 176.0
59.960697 160.0
59.983818 112.0
60.004421 220.0
60.021286 212.0
60.074265 160.0
60.096401 132.0
60.148876 76.0
60.172138 292.0
60.194107 148.0
60.233807 148.0
60.267757 172.0
60.273682 168.0
60.314156 244.0
60.324978 148.0
60.350163 180.0
60.387394 308.0
60.4394 208.0
60.468113 156.0
60.517189 84.0
60.540852 120.0
60.602009 192.0
60.622154 136.0
60.636105 132.0
60.663197 204.0
60.677956 204.0
60.697201 136.0
60.718273 232.0
60.744644 160.0
60.788151 192.0
60.802052 172.0
60.844769 220.0
60.888996 160.0
60.974445 208.0
60.988434 52.0
61.011753 176.0
61.075512 148.0
61.128407 84.0
61.141628 164.0
61.185318 412.0
61.207798 200.0
61.218697 176.0
61.235828 112.0
61.282566 152.0
61.305939 184.0
61.330925 128.0
61.349583 116.0
61.36829 176.0
61.437313 156.0
61.44865 184.0
61.480606 384.0
61.524311 148.0
61.550179 148.0
61.572716 148.0
61.592072 248.0
61.630516 112.0
61.660206 188.0
61.719612 220.0
61.739204 188.0
61.76511 220.0
61.788433 180.0
61.807209 196.0
61.839027 156.0
61.858856 152.0
61.871208 176.0
61.927753 104.0
61.974751 232.0
62.001392 160.0
62.037037 216.0
62.057823 128.0
62.086052 160.0
62.128403 88.0
62.143398 172.0
62.154945 192.0
62.178616 248.0
62.301094 128.0
62.36552 200.0
62.40287 216.0
62.447281 224.0
62.466156 204.0
62.496052 40.0
62.546524 220.0
62.576321 148.0
62.59679 124.0
62.610966 188.0
62.625141 68.0
62.637741 212.0
62.659798 156.0
62.672401 320.0
62.699192 84.0
62.768021 172.0
62.78117 196.0
62.801674 132.0
62.812717 176.0
62.853737 112.0
62.890034 116.0
62.908581 140.0
62.964241 56.0
63.042442 56.0
63.065361 84.0
63.105968 140.0
63.161816 192.0
63.191872 136.0
63.343235 128.0
63.380821 144.0
63.426094 196.0
63.445278 144.0
63.505535 136.0
63.518227 128.0
63.568996 104.0
63.608677 200.0
63.634079 92.0
63.662659 168.0
63.686481 184.0
63.703957 180.0
63.748444 240.0
63.761158 200.0
63.809681 132.0
63.823158 204.0
63.847012 104.0
63.858143 140.0
63.882004 184.0
63.905869 128.0
63.996593 196.0
64.007736 120.0
64.038788 176.0
64.093758 172.0
64.12085 152.0
64.143997 372.0
64.163887 148.0
64.183022 132.0
64.205345 180.0
64.248413 176.0
64.296288 80.0
64.36396 172.0
64.372726 240.0
64.387108 180.0
64.391396 160.0
64.432014 200.0
64.487946 88.0
64.559166 180.0
64.627075 168.0
64.638519 180.0
64.666885 196.0
64.686287 128.0
64.713272 136.0
64.717041 116.0
64.721954 160.0
64.767258 212.0
64.773293 120.0
64.790382 56.0
64.821243 204.0
64.905785 128.0
64.963524 92.0
64.982773 196.0
65.03894 180.0
65.056602 100.0
65.083565 136.0
65.125648 220.0
65.173843 68.0
65.222061 92.0
65.237587 140.0
65.298378 164.0
65.397385 156.0
65.43119 156.0
65.472015 196.0
65.483383 144.0
65.529594 204.0
65.547157 60.0
65.560051 144.0
65.571335 80.0
65.600349 140.0
65.616837 192.0
65.630981 144.0
65.664848 84.0
65.70153 172.0
65.708939 132.0
65.713867 216.0
65.730988 136.0
65.747124 132.0
65.763222 136.0
65.782074 80.0
65.813309 160.0
65.890678 164.0
65.911842 92.0
65.939316 168.0
65.968414 148.0
65.981346 204.0
66.003983 128.0
66.023392 156.0
66.045174 128.0
66.076561 188.0
66.123695 68.0
66.167404 176.0
66.191689 160.0
66.209503 176.0
66.295364 160.0
66.327782 200.0
66.347237 152.0
66.358582 136.0
66.376549 180.0
66.412102 172.0
66.432404 108.0
66.443466 188.0
66.48349 164.0
66.50621 156.0
66.527313 128.0
66.558159 44.0
66.616631 180.0
66.640999 112.0
66.667 192.0
66.68325 108.0
66.725517 184.0
66.741776 204.0
66.805206 168.0
66.833733 156.0
66.870453 164.0
66.896339 160.0
66.989159 160.0
67.023376 108.0
67.064117 160.0
67.081032 264.0
67.098351 180.0
67.129463 148.0
67.155426 104.0
67.188049 200.0
67.21579 144.0
67.245934 144.0
67.277809 136.0
67.29863 160.0
67.338692 252.0
67.361839 188.0
67.403572 188.0
67.459145 60.0
67.472221 172.0
67.503288 160.0
67.522919 104.0
67.558083 40.0
67.585075 112.0
67.605682 196.0
67.644058 108.0
67.675102 140.0
67.693787 156.0
67.759377 168.0
67.775017 148.0
67.791405 124.0
67.811073 48.0
67.940613 244.0
67.979996 76.0
68.016106 160.0
68.091217 168.0
68.141754 156.0
68.205002 200.0
68.236237 140.0
68.328339 124.0
68.379349 184.0
68.435394 192.0
68.516029 212.0
68.542679 92.0
68.583588 204.0
68.625702 164.0
68.638222 152.0
68.71196 176.0
68.776581 100.0
68.86409 140.0
68.887215 220.0
68.903732 140.0
68.986366 216.0
69.024399 144.0
69.047546 156.0
69.075668 116.0
69.08725 152.0
69.098831 60.0
69.125305 216.0
69.259407 208.0
69.282677 328.0
69.302483 132.0
69.332306 96.0
69.352196 204.0
69.378716 272.0
69.433266 228.0
69.478226 128.0
69.54792 164.0
69.584442 188.0
69.631355 192.0
69.650871 144.0
69.675789 112.0
69.722313 160.0
69.776558 184.0
69.7938 152.0
69.822067 160.0
69.858658 168.0
69.873634 180.0
69.925217 124.0
69.94519 192.0
70.026779 68.0
70.088425 132.0
70.101753 172.0
70.211784 124.0
70.24514 144.0
70.267776 240.0
70.291855 176.0
70.335251 172.0
70.37365 168.0
70.398384 208.0
70.415398 76.0
70.435783 192.0
70.463837 160.0
70.49057 156.0
70.542389 144.0
70.555328 280.0
70.590874 104.0
70.604248 88.0
70.62854 192.0
70.686226 232.0
70.709656 152.0
70.811783 132.0
70.86116 336.0
70.904022 160.0
70.922371 188.0
70.954216 208.0
70.968796 104.0
70.987877 168.0
71.00956 160.0
71.029686 156.0
71.090088 160.0
71.108543 144.0
71.15387 152.0
71.167297 80.0
71.182411 148.0
71.259682 120.0
71.298332 124.0
71.342033 176.0
71.368935 132.0
71.390793 160.0
71.439568 216.0
71.452705 168.0
71.474899 92.0
71.505196 156.0
71.528755 200.0
71.604431 136.0
71.63485 192.0
71.658157 308.0
71.754501 124.0
71.814468 200.0
71.838829 212.0
71.887756 56.0
71.913071 132.0
71.933327 132.0
71.965408 192.0
72.070129 172.0
72.134346 200.0
72.176445 156.0
72.188454 184.0
72.24427 144.0
72.408463 180.0
72.427094 164.0
72.442337 140.0
72.463799 164.0
72.487801 144.0
72.50164 164.0
72.528763 32.0
72.555885 208.0
72.596581 168.0
72.666122 140.0
72.701759 76.0
72.723106 184.0
72.748489 316.0
72.764046 144.0
72.807014 136.0
72.843155 260.0
72.991798 168.0
73.043266 144.0
73.067085 96.0
73.176216 132.0
73.211266 176.0
73.250946 52.0
73.280151 196.0
73.319099 256.0
73.334442 172.0
73.358307 220.0
73.371941 48.0
73.391937 176.0
73.412865 148.0
73.435036 164.0
73.470856 124.0
73.515221 124.0
73.554474 180.0
73.579079 184.0
73.633018 108.0
73.662056 184.0
73.677429 216.0
73.696228 136.0
73.726982 160.0
73.741364 184.0
73.753288 144.0
73.793648 300.0
73.84153 164.0
73.886009 160.0
73.899696 192.0
73.915092 236.0
73.9459 148.0
73.986984 124.0
74.028931 160.0
74.077744 176.0
74.089951 116.0
74.1222 148.0
74.165581 136.0
74.182281 108.0
74.214851 176.0
74.228569 128.0
74.293747 60.0
74.341789 140.0
74.444794 164.0
74.478386 228.0
74.50209 156.0
74.5513 92.0
74.630379 80.0
74.645851 88.0
74.683861 200.0
74.766273 160.0
74.785202 132.0
74.823074 92.0
74.847183 140.0
74.869568 56.0
74.900574 124.0
74.916077 224.0
74.931541 188.0
74.94709 176.0
74.982552 188.0
75.01947 156.0
75.056267 124.0
75.112007 188.0
75.124672 156.0
75.164352 180.0
75.204414 168.0
75.260513 88.0
75.288643 176.0
75.316689 64.0
75.348068 240.0
75.414772 176.0
75.471817 140.0
75.483925 212.0
75.511589 236.0
75.53569 236.0
75.56868 400.0
75.605019 144.0
75.618866 64.0
75.651749 176.0
75.701965 176.0
75.736603 128.0
75.763695 156.0
75.779915 180.0
75.798973 184.0
75.863098 200.0
75.897774 220.0
75.913383 176.0
75.935928 224.0
75.9701 140.0
75.987968 176.0
76.003586 160.0
76.095581 76.0
76.122597 164.0
76.160027 140.0
76.196312 128.0
76.222374 136.0
76.335052 288.0
76.371887 152.0
76.404938 200.0
76.498314 116.0
76.531998 188.0
76.573479 112.0
76.579437 148.0
76.636505 212.0
76.653931 220.0
76.686562 176.0
76.702728 144.0
76.742828 172.0
76.774216 148.0
76.812584 136.0
76.887276 208.0
76.908089 208.0
76.973152 120.0
77.056992 172.0
77.080833 112.0
77.097183 140.0
77.135635 144.0
77.174095 152.0
77.261551 124.0
77.297272 192.0
77.388412 172.0
77.406822 176.0
77.434845 152.0
77.478638 168.0
77.492653 132.0
77.527695 60.0
77.55574 64.0
77.667961 148.0
77.689148 204.0
77.711815 132.0
77.743561 176.0
77.818886 184.0
77.833809 152.0
77.854004 164.0
77.869812 116.0
77.887016 156.0
77.920616 156.0
77.959953 232.0
77.975227 144.0
77.987526 172.0
78.01741 44.0
78.072823 176.0
78.10006 128.0
78.129066 172.0
78.155853 196.0
78.177475 112.0
78.23851 168.0
78.25325 172.0
78.269821 156.0
78.30423 156.0
78.34037 392.0
78.355919 152.0
78.424042 176.0
78.441673 156.0
78.458641 128.0
78.491035 176.0
78.514336 164.0
78.540321 144.0
78.572174 112.0
78.609222 172.0
78.668648 84.0
78.716904 164.0
78.742332 232.0
78.75753 168.0
78.785789 208.0
78.828194 48.0
78.861778 176.0
78.907738 136.0
78.959015 136.0
78.996162 100.0
79.020927 220.0
79.036118 164.0
79.05278 100.0
79.07402 132.0
79.097504 224.0
79.120041 188.0
79.160767 132.0
79.238281 304.0
79.279457 192.0
79.313484 140.0
79.340752 352.0
79.380501 188.0
79.494034 188.0
79.534149 140.0
79.549057 116.0
79.570358 216.0
79.59877 204.0
79.614754 100.0
79.657379 164.0
79.70713 196.0
79.726677 52.0
79.815559 148.0
79.832138 148.0
79.854683 168.0
79.918724 156.0
79.97052 76.0
80.005768 128.0
80.032639 180.0
80.057571 148.0
80.082504 48.0
80.106712 284.0
80.139511 160.0
80.1772 184.0
80.201881 160.0
80.239319 152.0
80.260719 200.0
80.321358 240.0
80.392723 88.0
80.42128 124.0
80.483757 148.0
80.537338 56.0
80.556984 80.0
80.598076 112.0
80.621307 176.0
80.74305 168.0
80.760765 128.0
80.777336 76.0
80.786507 144.0
80.819801 92.0
80.877068 132.0
80.907501 224.0
80.937935 168.0
80.970169 160.0
80.991669 220.0
81.047203 184.0
81.086632 164.0
81.139641 168.0
81.154747 172.0
81.174469 108.0
81.237251 136.0
81.254021 176.0
81.331108 236.0
81.35569 168.0
81.37001 164.0
81.438293 164.0
81.45446 184.0
81.477814 188.0
81.499374 140.0
81.522736 232.0
81.561935 172.0
81.660713 240.0
81.66552 180.0
81.684547 164.0
81.700737 316.0
81.77272 384.0
81.805901 212.0
81.85553 140.0
81.90596 120.0
81.932686 196.0
81.967216 244.0
82.061691 56.0
82.140297 176.0
82.158333 152.0
82.192612 168.0
82.212463 164.0
82.241386 156.0
82.279251 360.0
82.292892 160.0
82.449852 224.0
82.46463 176.0
82.521347 304.0
82.571983 76.0
82.591881 44.0
82.611778 208.0
82.651581 116.0
82.689583 220.0
82.718422 180.0
82.805458 176.0
82.827194 164.0
82.850746 176.0
82.88517 152.0
82.950928 156.0
83.029274 152.0
83.048332 224.0
83.085999 120.0
83.120903 216.0
83.174507 372.0
83.267403 200.0
83.308876 192.0
83.338791 200.0
83.389679 128.0
83.430862 200.0
83.464211 160.0
83.490166 132.0
83.562431 156.0
83.631584 108.0
83.647964 240.0
83.666168 136.0
83.680733 172.0
83.776955 220.0
83.815521 212.0
83.842857 208.0
83.85939 172.0
83.955887 104.0
83.997841 284.0
84.016159 180.0
84.089073 168.0
84.144089 144.0
84.222359 188.0
84.242279 168.0
84.266205 156.0
84.350266 128.0
84.498398 128.0
84.536484 172.0
84.573425 28.0
84.637505 112.0
84.661308 200.0
84.743736 160.0
84.767563 172.0
84.782219 128.0
84.898636 136.0
84.930016 164.0
84.961914 52.0
84.982529 204.0
85.012527 164.0
85.040817 132.0
85.066521 204.0
85.134453 152.0
85.160164 56.0
85.200394 200.0
85.231812 196.0
85.296135 148.0
85.329231 88.0
85.389915 88.0
85.437737 140.0
85.465332 200.0
85.502136 80.0
85.575775 172.0
85.605232 148.0
85.62365 92.0
85.66732 164.0
85.734131 128.0
85.756187 64.0
85.795013 172.0
85.830048 256.0
85.854019 136.0
85.893982 40.0
85.909882 200.0
85.935181 140.0
85.975777 188.0
86.058479 252.0
86.093109 152.0
86.116096 128.0
86.195709 168.0
86.258369 156.0
86.324936 128.0
86.337875 196.0
86.375458 240.0
86.404472 212.0
86.419838 108.0
86.44664 228.0
86.480339 136.0
86.506683 196.0
86.540466 108.0
86.606247 136.0
86.643295 164.0
86.71769 192.0
86.789719 88.0
86.819389 196.0
86.832367 188.0
86.863899 212.0
86.899147 156.0
86.91214 196.0
86.928841 116.0
86.947395 100.0
86.975563 136.0
86.993797 176.0
87.060822 232.0
87.079216 136.0
87.097786 184.0
87.129372 176.0
87.159096 148.0
87.181824 140.0
87.200401 160.0
87.227859 188.0
87.253891 144.0
87.274338 92.0
87.307816 180.0
87.326408 196.0
87.352455 56.0
87.392349 180.0
87.462242 204.0
87.565376 204.0
87.598793 192.0
87.637794 196.0
87.750992 140.0
87.818123 120.0
87.842377 220.0
87.961052 308.0
87.987938 152.0
88.010986 140.0
88.027145 112.0
88.058899 204.0
88.128014 200.0
88.148575 96.0
88.172867 160.0
88.206512 108.0
88.238289 216.0
88.263237 188.0
88.322441 164.0
88.344559 168.0
88.363602 52.0
88.391663 168.0
88.417831 200.0
88.440323 160.0
88.54892 96.0
88.588257 172.0
88.60614 144.0
88.676323 124.0
88.716393 240.0
88.760689 132.0
88.781311 168.0
88.826332 180.0
88.854172 152.0
88.89679 180.0
88.916389 168.0
88.931404 124.0
88.95018 56.0
88.981529 188.0
89.008377 140.0
89.039391 160.0
89.053452 196.0
89.072235 132.0
89.09478 40.0
89.141747 136.0
89.164299 232.0
89.184975 188.0
89.203773 144.0
89.239494 144.0
89.2677 96.0
89.365509 172.0
89.378685 180.0
89.391853 100.0
89.421677 308.0
89.459198 128.0
89.542465 140.0
89.572601 28.0
89.608391 116.0
89.623466 192.0
89.723358 208.0
89.80584 168.0
89.922112 176.0
89.941231 208.0
90.027145 212.0
90.045418 172.0
90.115715 176.0
90.146164 152.0
90.172623 192.0
90.191521 368.0
90.214203 120.0
90.233109 180.0
90.27282 68.0
90.303078 196.0
90.327667 56.0
90.345665 372.0
90.439308 180.0
90.494209 212.0
90.522606 156.0
90.657112 148.0
90.744301 148.0
90.76516 32.0
90.805168 164.0
90.828056 172.0
90.852356 140.0
90.90802 168.0
90.959976 164.0
90.986038 160.0
91.015633 128.0
91.03701 240.0
91.053169 312.0
91.089699 148.0
91.123894 72.0
91.139099 140.0
91.233841 160.0
91.247437 244.0
91.300674 120.0
91.371056 220.0
91.496666 252.0
91.536652 196.0
91.557602 144.0
91.660469 128.0
91.721458 160.0
91.740517 164.0
91.763397 92.0
91.78437 176.0
91.799629 168.0
91.849213 156.0
91.900055 172.0
91.938286 280.0
91.977058 148.0
92.011421 124.0
92.034332 108.0
92.07444 196.0
92.102913 164.0
92.184402 164.0
92.206261 40.0
92.227287 120.0
92.277969 172.0
92.2939 216.0
92.332443 64.0
92.383949 164.0
92.500824 92.0
92.514221 172.0
92.593643 152.0
92.619545 320.0
92.634933 224.0
92.66169 148.0
92.717773 208.0
92.730019 164.0
92.74984 152.0
92.792015 104.0
92.918594 208.0
92.943542 168.0
93.047188 148.0
93.064468 340.0
93.10479 188.0
93.129761 176.0
93.150887 160.0
93.235428 152.0
93.345009 40.0
93.383987 60.0
93.420021 228.0
93.433487 148.0
93.450798 136.0
93.512383 184.0
93.528282 336.0
93.550972 160.0
93.614418 204.0
93.738594 200.0
93.770287 128.0
93.798096 184.0
93.830223 216.0
93.849503 148.0
93.878426 176.0
93.905426 152.0
93.947868 92.0
93.98452 148.0
94.065582 180.0
94.131226 228.0
94.238556 184.0
94.254852 192.0
94.337959 140.0
94.363091 184.0
94.43322 152.0
94.481071 216.0
94.50235 216.0
94.541054 160.0
94.56234 48.0
94.577827 128.0
94.649452 156.0
94.666885 180.0
94.688187 208.0
94.715767 132.0
94.83931 76.0
94.928497 144.0
94.955643 104.0
94.994438 200.0
95.039062 256.0
95.081642 340.0
95.198235 128.0
95.233192 148.0
95.258446 148.0
95.337051 176.0
95.365318 208.0
95.384758 136.0
95.485863 152.0
95.499474 84.0
95.540329 168.0
95.561729 92.0
95.637627 172.0
95.662926 136.0
95.679604 220.0
95.685852 124.0
95.692818 192.0
95.760292 116.0
95.805092 76.0
95.836266 144.0
95.898621 160.0
95.937607 128.0
95.974655 136.0
96.00975 200.0
96.044861 200.0
96.062416 172.0
96.076073 164.0
96.111191 140.0
96.150223 164.0
96.166939 204.0
96.187302 148.0
96.218544 68.0
96.249527 152.0
96.271263 200.0
96.294693 96.0
96.318138 164.0
96.351341 104.0
96.40361 176.0
96.494019 60.0
96.509659 96.0
96.529213 160.0
96.548241 192.0
96.590088 160.0
96.730194 116.0
96.750305 136.0
96.795341 144.0
96.809052 180.0
96.84626 156.0
96.865845 88.0
96.881523 124.0
96.929314 172.0
96.991257 136.0
97.02066 140.0
97.04863 220.0
97.088394 128.0
97.108902 156.0
97.126556 152.0
97.152054 220.0
97.17112 212.0
97.236435 200.0
97.254097 200.0
97.307098 116.0
97.346367 212.0
97.383682 92.0
97.489319 172.0
97.516891 176.0
97.662788 128.0
97.692299 176.0
97.728058 180.0
97.742767 184.0
97.80249 216.0
97.853035 184.0
97.883209 84.0
97.934418 208.0
97.96344 212.0
97.988663 164.0
98.062347 176.0
98.119652 128.0
98.192612 128.0
98.21196 148.0
98.217987 120.0
98.33213 224.0
98.352432 168.0
98.374146 112.0
98.407707 172.0
98.429428 128.0
98.443245 272.0
98.494598 172.0
98.526207 116.0
98.585075 136.0
98.684868 172.0
98.713982 196.0
98.7295 212.0
98.766411 196.0
98.781754 120.0
98.846512 48.0
98.911827 140.0
99.042511 156.0
99.08213 40.0
99.108803 188.0
99.135635 172.0
99.207375 264.0
99.230774 156.0
99.248619 124.0
99.266472 192.0
99.308533 208.0
99.348106 176.0
99.462883 184.0
99.524429 48.0
99.548256 36.0
99.566208 196.0
99.592743 120.0
99.606804 92.0
99.625717 200.0
99.715134 92.0
99.758865 144.0
99.790794 136.0
99.858284 240.0
99.879669 208.0
99.921944 180.0
99.941467 64.0
99.965714 128.0
100.01149 136.0
100.027412 184.0
100.081169 56.0
100.118042 192.0
100.152863 156.0
100.192703 140.0
100.23056 52.0
100.25972 284.0
100.275368 180.0
100.290344 104.0
100.358131 192.0
100.39003 148.0
100.414963 160.0
100.448799 224.0
100.470619 284.0
100.497749 144.0
100.529678 104.0
100.565598 176.0
100.593224 200.0
100.631477 200.0
100.653442 136.0
100.710403 184.0
100.731331 164.0
100.749313 144.0
100.763298 192.0
100.813248 148.0
100.888954 160.0
100.911194 124.0
100.933189 116.0
100.969185 100.0
101.006561 140.0
101.065208 172.0
101.089218 68.0
101.143707 160.0
101.165276 180.0
101.207321 168.0
101.257164 192.0
101.299446 156.0
101.32637 224.0
101.35154 64.0
101.397629 88.0
101.451599 216.0
101.498283 208.0
101.572067 156.0
101.606636 172.0
101.624229 144.0
101.670692 180.0
101.722565 144.0
101.742638 168.0
101.821098 164.0
101.875183 120.0
101.897285 108.0
101.923401 92.0
102.023895 220.0
102.083138 164.0
102.101646 228.0
102.116394 172.0
102.130478 200.0
102.172722 180.0
102.188812 168.0
102.235092 152.0
102.30957 104.0
102.337753 152.0
102.426369 144.0
102.464645 156.0
102.51609 196.0
102.577499 268.0
102.619835 236.0
102.659348 208.0
102.675346 264.0
102.734795 120.0
102.769722 148.0
102.930565 180.0
102.964897 152.0
102.989136 176.0
103.009033 160.0
103.043678 128.0
103.086113 172.0
103.160896 100.0
103.241776 104.0
103.259972 172.0
103.377312 44.0
103.401596 128.0
103.476494 172.0
103.492691 116.0
103.516991 300.0
103.618271 144.0
103.646973 144.0
103.677032 56.0
103.822998 152.0
103.869644 132.0
103.887901 188.0
103.930511 148.0
103.969261 164.0
103.995453 328.0
104.009659 160.0
104.049339 168.0
104.075905 140.0
104.094467 224.0
104.1782 176.0
104.240364 228.0
104.405853 176.0
104.436363 164.0
104.460266 244.0
104.503494 152.0
104.542152 176.0
104.566574 204.0
104.608452 168.0
104.626106 172.0
104.662254 192.0
104.694839 200.0
104.762054 84.0
104.846931 152.0
104.89859 216.0
104.921013 144.0
104.937325 208.0
104.96331 176.0
104.988297 152.0
105.031128 160.0
105.065239 172.0
105.084175 108.0
105.100494 152.0
105.151512 180.0
105.167839 188.0
105.220917 164.0
105.249504 92.0
105.282173 120.0
105.32711 48.0
105.356728 168.0
105.409454 128.0
105.42852 188.0
105.476273 168.0
105.490585 108.0
105.526306 184.0
105.54892 240.0
105.583527 272.0
105.605835 132.0
105.623497 60.0
105.637817 304.0
105.703293 92.0
105.768509 120.0
105.822006 56.0
105.848625 140.0
105.865013 72.0
105.889587 56.0
105.936699 196.0
105.983543 148.0
106.008408 176.0
106.066788 116.0
106.102692 148.0
106.126442 112.0
106.168312 176.0
106.192917 148.0
106.309135 316.0
106.359116 184.0
106.373489 76.0
106.401314 188.0
106.433029 200.0
106.511818 88.0
106.525444 116.0
106.586288 204.0
106.679573 112.0
106.7248 196.0
106.743309 160.0
106.802948 148.0
106.817352 176.0
106.86055 240.0
106.905823 152.0
106.920227 52.0
106.981979 120.0
107.025215 124.0
107.058739 176.0
107.074638 192.0
107.163216 44.0
107.185875 108.0
107.20845 168.0
107.266258 172.0
107.29512 208.0
107.367043 136.0
107.374107 196.0
107.395042 180.0
107.431229 196.0
107.447731 156.0
107.470428 52.0
107.484871 164.0
107.506882 204.0
107.538528 132.0
107.581879 164.0
107.612846 244.0
107.627296 92.0
107.649666 260.0
107.720238 120.0
107.735909 228.0
107.753288 128.0
107.776016 180.0
107.84008 224.0
107.891136 120.0
107.933113 212.0
107.970337 96.0
108.017906 76.0
108.070763 212.0
108.098595 52.0
108.143799 176.0
108.189491 144.0
108.192131 168.0
108.233307 328.0
108.255348 144.0
108.315987 180.0
108.365707 144.0
108.396729 208.0
108.421654 192.0
108.452744 152.0
108.490829 204.0
108.521156 148.0
108.552261 128.0
108.568848 128.0
108.594978 180.0
108.62059 220.0
108.684067 140.0
108.724442 136.0
108.761818 432.0
108.817177 196.0
108.843895 236.0
108.850838 176.0
108.859322 440.0
108.872627 180.0
108.892609 116.0
108.912025 196.0
108.933289 164.0
108.956161 404.0
108.99646 204.0
109.01886 356.0
109.065552 142404.0
109.12973 208.0
109.146141 96.0
109.175179 144.0
109.202911 196.0
109.221016 176.0
109.254593 84.0
109.273247 220.0
109.299118 96.0
109.322128 96.0
109.339546 200.0
109.382668 240.0
109.4067 1028.0
109.425903 244.0
109.458862 84.0
109.468262 140.0
109.471481 200.0
109.487915 104.0
109.51326 336.0
109.549393 80.0
109.557823 112.0
109.571754 132.0
109.622833 88.0
109.639503 112.0
109.673637 168.0
109.707199 176.0
109.744797 104.0
109.781265 48.0
109.795868 32.0
109.816223 100.0
109.862411 124.0
109.903839 168.0
109.932144 136.0
109.954422 40.0
109.973846 196.0
109.997253 184.0
110.027481 36.0
110.046272 140.0
110.06813 10640.0
110.127533 92.0
110.157791 40.0
110.175758 52.0
110.226173 80.0
110.257248 112.0
110.309502 72.0
110.332497 80.0
110.353409 32.0
110.369186 88.0
110.399658 204.0
110.443329 140.0
110.495117 164.0
110.541664 188.0
110.575592 188.0
110.613922 312.0
110.679398 136.0
110.684967 96.0
110.706726 84.0
110.713234 96.0
110.720413 156.0
110.748924 148.0
110.768257 368.0
110.784256 256.0
110.813103 232.0
110.836266 124.0
110.864159 48.0
110.89373 36.0
110.929741 216.0
110.95472 116.0
110.974495 88.0
111.002167 120.0
111.06884 364.0
111.11158 468.0
111.132561 80.0
111.163513 112.0
111.182922 132.0
111.210213 164.0
111.237495 128.0
111.271088 68.0
111.299225 304.0
111.361794 144.0
111.386589 248.0
111.426506 140.0
111.442184 224.0
111.505501 108.0
111.554695 92.0
111.600716 108.0
111.638802 232.0
111.66404 80.0
111.689278 132.0
111.711845 192.0
111.802895 160.0
111.834465 164.0
111.909325 228.0
111.925362 112.0
111.973419 168.0
112.039703 2100.0
112.103653 216.0
112.152512 176.0
112.226295 140.0
112.251083 260.0
112.276909 92.0
112.302216 156.0
112.488937 220.0
112.57666 172.0
112.595589 152.0
112.635719 64.0
112.683617 196.0
112.728676 144.0
112.751923 176.0
112.77095 124.0
112.85128 32.0
112.882996 188.0
112.930199 224.0
112.979607 136.0
113.00145 132.0
113.044403 212.0
113.071274 208.0
113.130547 200.0
113.209396 232.0
113.319031 48.0
113.367767 112.0
113.410156 344.0
113.439354 204.0
113.467392 120.0
113.516159 184.0
113.572502 184.0
113.600998 60.0
113.732368 148.0
113.753784 124.0
113.811111 144.0
113.828094 204.0
113.893738 156.0
113.923676 204.0
113.938545 80.0
113.961914 136.0
113.976791 136.0
114.072426 52.0
114.09156 224.0
114.159599 152.0
114.214897 152.0
114.265953 128.0
114.346817 184.0
114.370865 160.0
114.400505 172.0
114.423447 212.0
114.457512 124.0
114.514946 124.0
114.548233 208.0
114.63858 40.0
114.657761 152.0
114.681206 176.0
114.717445 180.0
114.800598 60.0
114.888046 76.0
114.915779 160.0
115.028893 116.0
115.042305 112.0
115.159142 164.0
115.176231 336.0
115.244591 48.0
115.287331 112.0
115.332207 124.0
115.362137 180.0
115.385651 116.0
115.432693 32.0
115.459297 164.0
115.733185 168.0
115.757957 144.0
115.800789 128.0
115.842308 220.0
115.871483 40.0
115.898094 160.0
116.036507 184.0
116.056122 164.0
116.077652 128.0
116.111557 112.0
116.133873 168.0
116.184486 124.0
116.227402 152.0
116.244568 36.0
116.274132 108.0
116.372597 204.0
116.410912 96.0
116.448517 156.0
116.628998 156.0
116.691345 84.0
116.749397 208.0
116.802216 144.0
116.903755 128.0
116.936577 36.0
116.960251 164.0
117.023399 120.0
117.052803 212.0
117.103348 200.0
117.160469 192.0
117.231621 164.0
117.300591 184.0
117.330772 120.0
117.347191 52.0
117.360527 160.0
117.387383 204.0
117.453964 128.0
117.486046 56.0
117.503311 124.0
117.557251 104.0
117.605721 204.0
117.663017 160.0
117.684608 76.0
117.759026 208.0
117.791023 116.0
117.831116 144.0
117.861725 136.0
117.942863 168.0
117.967628 204.0
117.991409 192.0
118.032486 164.0
118.064415 812.0
118.106018 216.0
118.164429 148.0
118.188225 128.0
118.214195 104.0
118.235832 144.0
118.294273 156.0
118.335533 140.0
118.368088 44.0
118.406387 144.0
118.542198 128.0
118.567192 84.0
118.595367 120.0
118.666901 56.0
118.725449 72.0
118.768829 140.0
118.870796 40.0
118.961105 212.0
119.018402 152.0
119.067024 364.0
119.113434 164.0
119.165482 140.0
119.304153 168.0
119.343437 196.0
119.468292 136.0
119.486122 164.0
119.578453 224.0
119.624977 100.0
119.646751 48.0
119.666344 176.0
119.692474 84.0
119.731667 160.0
119.783943 124.0
119.820976 188.0
119.899422 48.0
119.984055 184.0
120.044487 1772.0
120.174179 212.0
120.206909 128.0
120.233101 76.0
120.263657 112.0
120.309494 212.0
120.323822 220.0
120.348793 188.0
120.377014 160.0
120.401199 116.0
120.44912 192.0
120.48819 180.0
120.694221 136.0
120.761818 100.0
120.79158 216.0
120.866829 184.0
120.908409 144.0
120.993774 172.0
121.009102 148.0
121.051331 784.0
121.105225 188.0
121.155258 196.0
121.169655 208.0
121.295013 188.0
121.323601 240.0
121.348701 208.0
121.392555 40.0
121.418869 156.0
121.500031 116.0
121.517586 76.0
121.535133 96.0
121.552689 44.0
121.576828 204.0
121.605362 108.0
121.629501 108.0
121.647064 204.0
121.683655 228.0
121.69149 152.0
121.72171 96.0
121.816154 96.0
121.905357 160.0
121.957451 132.0
121.983162 56.0
122.022736 144.0
122.056656 168.0
122.077705 184.0
122.094543 276.0
122.198685 44.0
122.218483 180.0
122.302116 128.0
122.352745 184.0
122.478264 52.0
122.498093 176.0
122.570625 216.0
122.618034 192.0
122.643143 188.0
122.663361 196.0
122.678787 196.0
122.722885 112.0
122.747086 180.0
122.77581 120.0
122.807114 132.0
122.939056 148.0
122.989822 60.0
123.007477 128.0
123.038383 168.0
123.058258 264.0
123.080467 1308.0
123.118629 164.0
123.146584 60.0
123.181931 40.0
123.239372 172.0
123.325867 200.0
123.363136 160.0
123.416191 128.0
123.451576 136.0
123.482536 96.0
123.503365 240.0
123.557747 176.0
123.618736 212.0
123.638885 208.0
123.677246 188.0
123.781174 144.0
123.842239 176.0
123.878746 156.0
123.936348 108.0
124.040512 172.0
124.079887 248.0
124.11071 284.0
124.146141 112.0
124.182167 140.0
124.189186 164.0
124.264496 268.0
124.280029 64.0
124.357704 168.0
124.377678 176.0
124.406532 164.0
124.444275 188.0
124.490906 164.0
124.535652 108.0
124.561981 164.0
124.628632 196.0
124.655296 96.0
124.699745 60.0
124.730858 156.0
124.746422 152.0
124.769264 160.0
124.857597 184.0
124.904305 40.0
124.922096 56.0
124.986618 188.0
125.004417 80.0
125.033348 240.0
125.055611 160.0
125.100128 96.0
125.163948 208.0
125.268158 228.0
125.345123 280.0
125.371864 208.0
125.390854 176.0
125.41198 144.0
125.583664 76.0
125.623817 172.0
125.70414 44.0
125.735382 116.0
125.806808 164.0
125.853256 312.0
125.903664 192.0
125.924301 200.0
125.964027 188.0
126.056488 208.0
126.101654 144.0
126.141891 136.0
126.275352 180.0
126.308876 384.0
126.405807 236.0
126.466232 132.0
126.493088 172.0
126.531151 156.0
126.555779 224.0
126.645355 56.0
126.721191 164.0
126.741684 168.0
126.855988 148.0
126.87616 324.0
126.945671 108.0
126.974823 192.0
126.990524 220.0
127.071281 116.0
127.136353 56.0
127.365364 128.0
127.396812 236.0
127.430771 176.0
127.518059 188.0
127.535812 168.0
127.583336 52.0
127.682274 108.0
127.707016 204.0
127.772247 56.0
127.792496 164.0
128.010834 200.0
128.073898 464.0
128.149414 92.0
128.204575 96.0
128.231888 196.0
128.283463 44.0
128.317276 128.0
128.486435 136.0
128.515244 156.0
128.54509 136.0
128.587967 44.0
128.646027 380.0
128.666916 144.0
128.739227 128.0
128.881546 188.0
129.098053 184.0
129.209381 208.0
129.314178 168.0
129.37233 144.0
129.413071 128.0
129.435715 116.0
129.600357 176.0
129.659988 160.0
129.934357 136.0
129.975204 180.0
130.009247 132.0
130.025131 208.0
130.05101 120.0
130.077332 136.0
130.093231 132.0
130.136353 184.0
130.213562 164.0
130.236282 180.0
130.308975 184.0
130.327148 164.0
130.358963 168.0
130.374878 276.0
130.419861 116.0
130.439758 204.0
130.50444 184.0
130.540817 176.0
130.652267 152.0
130.731918 316.0
130.78183 176.0
130.80246 176.0
130.863419 160.0
130.882156 168.0
131.027924 48.0
131.055252 184.0
131.082596 196.0
131.123627 288.0
131.155533 204.0
131.176041 136.0
131.246719 144.0
131.34053 236.0
131.404099 148.0
131.422348 132.0
131.4543 172.0
131.488525 172.0
131.50679 172.0
131.563858 236.0
131.588974 108.0
131.657471 108.0
131.691727 80.0
131.710007 176.0
131.725998 64.0
131.745682 208.0
131.879089 148.0
131.963669 180.0
132.020844 72.0
132.039139 56.0
132.06105 172.0
132.082382 132.0
132.14415 172.0
132.179718 168.0
132.203857 240.0
132.281677 124.0
132.370956 164.0
132.396149 212.0
132.47403 152.0
132.490067 72.0
132.538177 208.0
132.60463 184.0
132.641312 144.0
132.698624 64.0
132.74678 188.0
132.822464 140.0
132.856873 208.0
132.927994 112.0
132.976196 40.0
133.008316 108.0
133.056534 156.0
133.113937 160.0
133.134598 172.0
133.173645 32.0
133.194321 152.0
133.245605 156.0
133.270126 172.0
133.304596 184.0
133.355377 168.0
133.564392 180.0
133.644058 212.0
133.7715 164.0
133.797516 176.0
133.838257 44.0
133.879715 96.0
133.923462 160.0
133.962631 120.0
133.999481 64.0
134.060928 468.0
134.149292 168.0
134.359146 164.0
134.529922 156.0
134.707733 152.0
134.726212 164.0
134.759613 208.0
134.781662 112.0
134.890289 120.0
134.922653 68.0
135.019775 168.0
135.07309 192.0
135.101532 224.0
135.128571 220.0
135.138779 152.0
135.226303 140.0
135.281235 144.0
135.34375 128.0
135.403946 128.0
135.44101 132.0
135.459549 52.0
135.487335 140.0
135.542221 180.0
135.562088 168.0
135.598572 164.0
135.63797 128.0
135.706406 184.0
135.890747 152.0
135.906998 152.0
135.958038 140.0
135.985886 100.0
136.027679 132.0
136.04393 136.0
136.075363 284.0
136.141449 180.0
136.178604 48.0
136.262222 108.0
136.287781 168.0
136.359818 156.0
136.398697 172.0
136.440491 112.0
136.627228 160.0
136.664459 180.0
136.720306 144.0
136.869293 168.0
136.943817 112.0
136.983414 124.0
137.04805 204.0
137.066742 188.0
137.085205 376.0
137.155838 116.0
137.19548 164.0
137.22345 124.0
137.298065 132.0
137.330719 112.0
137.452026 116.0
137.480042 108.0
137.512711 172.0
137.596741 112.0
137.622421 100.0
137.644699 192.0
137.72818 212.0
137.765442 236.0
137.790588 144.0
137.823303 168.0
137.914398 204.0
137.963531 68.0
138.089798 40.0
138.106171 168.0
138.127228 144.0
138.230164 192.0
138.279312 40.0
138.302719 128.0
138.506424 188.0
138.540894 208.0
138.58139 200.0
138.623581 140.0
138.703262 160.0
138.738419 136.0
138.834564 72.0
138.897888 208.0
138.975296 180.0
139.073868 236.0
139.156036 220.0
139.224121 188.0
139.301636 148.0
139.320435 140.0
139.476212 164.0
139.506088 148.0
139.550827 116.0
139.640106 212.0
139.668915 200.0
139.737518 176.0
139.799744 244.0
139.845871 184.0
139.862305 184.0
140.030807 272.0
140.061432 204.0
140.110901 120.0
140.236618 160.0
140.294724 156.0
140.320648 112.0
140.384308 112.0
140.400818 96.0
140.450348 108.0
140.473938 152.0
140.511688 184.0
140.5457 116.0
140.566589 192.0
140.598999 176.0
140.67688 188.0
140.698135 172.0
140.794937 148.0
140.844543 188.0
140.903595 168.0
140.960312 160.0
140.983932 172.0
141.017029 196.0
141.033569 228.0
141.052231 188.0
141.111008 232.0
141.409637 172.0
141.506699 228.0
141.599045 372.0
141.698532 188.0
141.768158 208.0
141.831238 100.0
141.857315 168.0
141.876282 172.0
141.982864 160.0
142.030426 60.0
142.153793 196.0
142.181992 172.0
142.239227 184.0
142.303329 184.0
142.327438 180.0
142.391617 156.0
142.410187 80.0
142.59552 112.0
142.621658 72.0
142.650177 104.0
142.692978 180.0
142.722458 220.0
142.754791 244.0
142.802368 96.0
142.865005 156.0
142.937958 136.0
143.035538 168.0
143.113342 124.0
143.168869 208.0
143.361786 176.0
143.399979 52.0
143.440491 196.0
143.464325 64.0
143.545349 176.0
143.566864 140.0
143.729065 100.0
143.841232 160.0
143.877045 48.0
143.908081 140.0
143.994049 128.0
144.058548 348.0
144.075272 52.0
144.120667 168.0
144.160751 160.0
144.29274 204.0
144.342957 284.0
144.409927 100.0
144.488861 136.0
144.514023 100.0
144.551071 168.0
144.620468 192.0
144.80484 144.0
144.946854 256.0
145.07048 176.0
145.128342 152.0
145.269852 120.0
145.305832 28.0
145.373016 120.0
145.389816 124.0
145.467743 220.0
145.485825 92.0
145.563293 164.0
145.595306 236.0
145.605194 140.0
145.61377 196.0
145.808929 136.0
145.829315 156.0
145.887009 236.0
145.903839 168.0
145.949524 216.0
146.002426 72.0
146.024078 140.0
146.063629 148.0
146.086609 132.0
146.137131 60.0
146.202103 236.0
146.271896 144.0
146.344131 148.0
146.471756 56.0
146.548859 132.0
146.567322 168.0
146.631668 196.0
146.669357 48.0
146.688629 160.0
146.758255 100.0
146.788239 216.0
146.816422 88.0
146.840546 116.0
146.90567 200.0
147.062515 180.0
147.110794 108.0
147.207367 108.0
147.279816 228.0
147.301056 212.0
147.322693 160.0
147.439285 128.0
147.483582 208.0
147.632675 68.0
147.731842 124.0
147.782654 156.0
147.862518 188.0
147.896393 156.0
147.964172 120.0
148.036819 140.0
148.074677 988.0
148.113464 160.0
148.161285 176.0
148.218491 88.0
148.35907 120.0
148.438354 228.0
148.604019 48.0
148.625854 136.0
148.65036 200.0
148.669205 148.0
148.68895 140.0
148.713226 180.0
148.766617 172.0
148.792557 200.0
148.839462 176.0
148.929321 196.0
148.960892 132.0
149.066376 180.0
149.09433 204.0
149.152863 252.0
149.237946 148.0
149.262268 148.0
149.293869 196.0
149.447128 96.0
149.495789 140.0
149.544464 112.0
149.57399 156.0
149.59314 160.0
149.712448 124.0
149.773346 156.0
149.831314 120.0
149.890274 240.0
149.917084 180.0
150.012146 152.0
150.029205 160.0
150.091873 3200.0
150.182831 192.0
150.251129 228.0
150.282852 184.0
150.312134 180.0
150.439041 196.0
150.607544 148.0
150.631958 144.0
150.675934 112.0
150.715027 164.0
150.810333 100.0
150.832336 40.0
150.886856 184.0
150.91301 36.0
150.939911 152.0
150.957031 156.0
150.980316 168.0
151.032745 208.0
151.054733 156.0
151.057755 192.0
151.093399 344.0
151.133148 48.0
151.182083 204.0
151.235931 100.0
151.262848 240.0
151.343643 188.0
151.448944 148.0
151.470993 148.0
151.502838 168.0
151.576233 168.0
151.637604 176.0
151.714233 140.0
151.74057 188.0
151.843552 228.0
151.889313 280.0
151.898529 184.0
151.908463 172.0
151.916397 132.0
151.966537 128.0
152.021286 144.0
152.064362 120.0
152.106689 2364.0
152.15123 208.0
152.217957 220.0
152.272568 140.0
152.309891 52.0
152.359451 208.0
152.390961 64.0
152.464691 192.0
152.491714 108.0
152.585129 152.0
152.629395 104.0
152.653976 116.0
152.672363 212.0
152.695786 120.0
152.730759 72.0
152.760605 96.0
152.779419 132.0
152.8237 144.0
152.855698 152.0
152.919678 160.0
152.973831 192.0
152.991058 88.0
153.086838 276.0
153.109421 548.0
153.274902 148.0
153.313721 192.0
153.335907 156.0
153.375336 120.0
153.446838 64.0
153.471497 156.0
153.512329 164.0
153.53067 168.0
153.570282 132.0
153.618958 196.0
153.646606 72.0
153.667358 136.0
153.699219 176.0
153.753159 172.0
153.803131 176.0
153.847763 148.0
153.899185 228.0
153.994659 212.0
154.063828 48.0
154.102249 232.0
154.282684 236.0
154.328278 72.0
154.392563 184.0
154.438263 160.0
154.481613 180.0
154.568207 176.0
154.5979 156.0
154.674622 188.0
154.694427 100.0
154.749832 136.0
154.781082 140.0
154.902985 164.0
154.964371 204.0
154.996582 188.0
155.036224 132.0
155.073212 156.0
155.274231 164.0
155.328796 140.0
155.346161 152.0
155.406128 164.0
155.449173 148.0
155.519852 140.0
155.554611 176.0
155.590347 152.0
155.656403 192.0
155.673782 156.0
155.733383 212.0
155.767258 144.0
155.802948 120.0
155.852173 180.0
155.902328 176.0
155.961975 144.0
156.002304 144.0
156.041946 120.0
156.089111 176.0
156.112701 184.0
156.165176 244.0
156.188248 164.0
156.230042 200.0
156.247955 84.0
156.335037 168.0
156.429626 156.0
156.481903 224.0
156.521744 164.0
156.591461 100.0
156.696091 256.0
156.719177 180.0
156.763367 92.0
156.885498 140.0
156.916245 128.0
156.955307 212.0
157.033493 144.0
157.072525 76.0
157.1241 148.0
157.177307 164.0
157.214737 120.0
157.235382 176.0
157.334549 24.0
157.449417 124.0
157.51181 164.0
157.589294 96.0
157.616776 128.0
157.651764 184.0
157.68425 56.0
157.706757 108.0
157.801743 152.0
157.850693 224.0
157.902802 116.0
157.919281 164.0
157.951797 188.0
157.994324 72.0
158.041855 132.0
158.059372 148.0
158.113037 224.0
158.15947 56.0
158.237076 148.0
158.392349 116.0
158.437439 128.0
158.500076 188.0
158.540161 140.0
158.652954 152.0
158.730331 340.0
158.785858 216.0
158.848557 40.0
158.958954 120.0
158.980347 176.0
159.037354 152.0
159.094498 168.0
159.197433 100.0
159.22757 124.0
159.24968 140.0
159.295181 244.0
159.333069 48.0
159.350662 164.0
159.370758 136.0
159.391678 160.0
159.428558 144.0
159.468765 148.0
159.516525 124.0
159.629669 160.0
159.727753 148.0
159.757935 164.0
159.818314 176.0
159.840958 140.0
159.917068 116.0
159.946671 184.0
160.009598 256.0
160.077972 156.0
160.170776 76.0
160.206497 136.0
160.314377 180.0
160.347137 68.0
160.415955 188.0
160.508484 48.0
160.630341 204.0
160.727936 44.0
160.808685 104.0
160.874313 164.0
160.927338 148.0
160.950058 152.0
161.019653 336.0
161.099075 136.0
161.210236 192.0
161.294876 124.0
161.334091 44.0
161.435226 120.0
161.468109 192.0
161.497452 140.0
161.523758 148.0
161.546524 192.0
161.566757 36.0
161.672684 144.0
161.708466 300.0
161.731247 136.0
161.875549 184.0
161.898346 156.0
161.9655 244.0
162.060455 92.0
162.090866 452.0
162.270828 144.0
162.36972 140.0
162.413376 132.0
162.534607 80.0
162.575211 152.0
162.605667 96.0
162.66658 84.0
162.719894 156.0
162.793533 176.0
162.900208 96.0
162.949265 204.0
162.98912 208.0
163.092072 136.0
163.178909 156.0
163.21875 152.0
163.234665 128.0
163.244278 204.0
163.319626 180.0
163.337433 120.0
163.383224 52.0
163.408661 148.0
163.45192 196.0
163.485001 60.0
163.637726 184.0
163.670685 144.0
163.916565 212.0
164.035141 132.0
164.052994 148.0
164.070831 124.0
164.105637 308.0
164.154968 136.0
164.211075 108.0
164.356491 308.0
164.510239 228.0
164.558121 144.0
164.5811 136.0
164.614304 76.0
164.642395 248.0
164.667938 136.0
164.716461 168.0
164.794495 176.0
164.836456 244.0
164.91066 172.0
164.954102 144.0
165.021011 116.0
165.084503 84.0
165.113571 240.0
165.148438 160.0
165.18425 96.0
165.212387 68.0
165.244339 172.0
165.274811 200.0
165.340332 152.0
165.419678 152.0
165.445267 104.0
165.473434 64.0
165.491348 148.0
165.585068 208.0
165.642639 168.0
165.709061 236.0
165.765427 264.0
165.806442 60.0
165.847443 176.0
165.925507 248.0
165.978195 212.0
166.049988 284.0
166.121506 2996.0
166.178253 120.0
166.202393 144.0
166.269211 156.0
166.329666 144.0
166.360474 32.0
166.455475 212.0
166.785828 172.0
166.804886 60.0
166.855286 92.0
166.940445 204.0
167.036224 132.0
167.122238 480.0
167.242157 104.0
167.280777 164.0
167.309418 156.0
167.339981 148.0
167.38327 288.0
167.593781 296.0
167.670044 180.0
167.752182 152.0
167.88884 40.0
167.948151 236.0
167.984268 96.0
168.01265 144.0
168.098587 196.0
168.131332 152.0
168.172897 156.0
168.203613 108.0
168.296539 92.0
168.575516 160.0
168.632935 224.0
168.678894 124.0
168.746109 132.0
168.774551 124.0
168.821106 104.0
168.898697 188.0
168.919388 96.0
168.9375 40.0
168.999588 176.0
169.038406 64.0
169.092743 160.0
169.11087 192.0
169.306534 264.0
169.359421 204.0
169.537735 200.0
169.625214 188.0
169.662613 236.0
169.685944 164.0
169.776703 152.0
170.041321 140.0
170.087265 200.0
170.191895 140.0
170.308746 168.0
170.326935 192.0
170.384079 48.0
170.420456 188.0
170.477585 152.0
170.516602 124.0
170.538376 96.0
170.558197 172.0
170.643982 152.0
170.792206 108.0
170.885864 136.0
170.908203 248.0
170.937897 168.0
170.98735 44.0
171.047211 156.0
171.068039 196.0
171.089432 148.0
171.187805 196.0
171.265366 148.0
171.287048 156.0
171.359711 180.0
171.380554 124.0
171.417038 192.0
171.490005 124.0
171.570816 36.0
171.672516 172.0
171.771622 124.0
171.826401 244.0
171.852493 320.0
171.950348 152.0
172.032578 132.0
172.097839 128.0
172.159531 192.0
172.2258 176.0
172.31723 168.0
172.348587 160.0
172.393005 140.0
172.462021 196.0
172.513245 180.0
172.536774 128.0
172.609985 136.0
172.645035 108.0
172.676163 116.0
172.730286 276.0
172.827087 204.0
172.855865 164.0
172.882034 108.0
172.947464 96.0
173.010284 160.0
173.080978 164.0
173.109787 140.0
173.146454 208.0
173.204071 176.0
173.251221 172.0
173.274796 160.0
173.300995 80.0
173.411057 228.0
173.492325 96.0
173.69162 192.0
173.762451 240.0
173.877335 184.0
173.919907 104.0
174.056412 232.0
174.190353 148.0
174.256042 84.0
174.287567 164.0
174.310806 156.0
174.3396 140.0
174.384796 184.0
174.455765 168.0
174.536911 180.0
174.629318 196.0
174.652985 176.0
174.697708 148.0
174.992462 112.0
175.053024 44.0
175.084808 556.0
175.125732 152.0
175.172974 52.0
175.218811 140.0
175.263763 184.0
175.298019 148.0
175.390259 136.0
175.490433 144.0
175.535263 188.0
175.553726 148.0
175.574814 224.0
175.762115 140.0
175.785858 400.0
175.803391 160.0
175.863602 192.0
175.923111 192.0
175.960068 72.0
176.028717 188.0
176.07074 180.0
176.079895 116.0
176.105713 464.0
176.150208 144.0
176.17662 180.0
176.218903 132.0
176.303452 164.0
176.354416 200.0
176.395966 240.0
176.417114 168.0
176.525452 188.0
176.549316 268.0
176.615433 96.0
176.858063 140.0
176.889969 184.0
176.930679 132.0
177.054779 372.0
177.097168 184.0
177.219025 144.0
177.299408 236.0
177.347595 176.0
177.375381 232.0
177.46286 84.0
177.5159 152.0
177.698914 132.0
177.759949 144.0
177.814194 184.0
177.858139 132.0
177.903275 108.0
177.966995 136.0
178.041336 128.0
178.107742 128.0
178.139786 120.0
178.16861 232.0
178.232605 172.0
178.279175 152.0
178.330933 216.0
178.482468 156.0
178.535645 168.0
178.55426 184.0
178.596817 104.0
178.646271 196.0
178.671295 76.0
178.689926 164.0
178.737823 76.0
178.820999 172.0
178.858734 160.0
178.886856 168.0
178.985367 152.0
179.006668 72.0
179.056458 264.0
179.111374 228.0
179.141022 152.0
179.230423 176.0
179.26506 128.0
179.413712 140.0
179.438324 148.0
179.488983 396.0
179.539642 140.0
179.570496 176.0
179.713028 148.0
179.753052 52.0
179.822449 184.0
179.843796 108.0
179.883835 208.0
179.987961 176.0
180.028015 180.0
180.07608 84.0
180.140167 188.0
180.225677 184.0
180.28447 68.0
180.317429 180.0
180.353958 216.0
180.379822 172.0
180.420792 172.0
180.495651 100.0
180.514374 124.0
180.582382 164.0
180.610657 88.0
180.645081 188.0
180.800705 108.0
180.831741 152.0
180.856812 104.0
180.886505 128.0
180.921066 196.0
180.963898 168.0
181.00972 176.0
181.068878 156.0
181.097794 136.0
181.119217 160.0
181.188522 152.0
181.229065 120.0
181.274612 112.0
181.363052 36.0
181.40863 204.0
181.680145 128.0
181.72583 188.0
181.748032 116.0
181.859665 132.0
181.899521 112.0
181.942474 64.0
181.972015 120.0
182.041504 132.0
182.079422 104.0
182.160004 144.0
182.181488 152.0
182.235214 184.0
182.380341 292.0
182.405731 108.0
182.520142 176.0
182.549713 156.0
182.673431 384.0
182.715454 92.0
182.875244 208.0
182.903412 184.0
182.943939 160.0
183.061005 144.0
183.106781 172.0
183.556839 136.0
183.583801 64.0
183.648529 136.0
183.691681 160.0
183.73674 228.0
183.867065 120.0
183.915649 180.0
184.012833 160.0
184.078491 152.0
184.10463 100.0
184.157455 136.0
184.170654 208.0
184.304535 88.0
184.385605 192.0
184.404526 136.0
184.498871 252.0
184.52887 120.0
184.588348 48.0
184.691116 164.0
184.731705 140.0
184.858856 128.0
184.877808 272.0
184.904861 196.0
184.949005 144.0
184.956924 188.0
185.021469 160.0
185.072708 60.0
185.145813 132.0
185.327133 184.0
185.554977 152.0
185.598358 32.0
185.681168 192.0
185.72583 208.0
185.76651 180.0
185.815338 48.0
185.837051 172.0
185.902176 72.0
186.054169 72.0
186.078598 200.0
186.100327 304.0
186.200806 132.0
186.230682 204.0
186.274139 112.0
186.298584 112.0
186.333908 184.0
186.374435 148.0
186.438568 148.0
186.483353 124.0
186.571106 244.0
186.638321 136.0
186.711731 152.0
186.904877 128.0
186.92392 96.0
186.983109 128.0
186.991959 96.0
186.998077 128.0
187.079071 124.0
187.231537 208.0
187.294189 140.0
187.327316 124.0
187.412292 288.0
187.495804 228.0
187.574844 228.0
187.59938 132.0
187.659363 156.0
187.694244 336.0
187.741165 256.0
187.806625 136.0
188.011246 80.0
188.071289 124.0
188.093124 112.0
188.131348 176.0
188.205063 244.0
188.357986 168.0
188.551987 216.0
188.674988 192.0
188.702332 156.0
188.808975 220.0
188.833084 196.0
188.865631 140.0
188.925186 156.0
188.973099 196.0
189.059082 136.0
189.100723 320.0
189.157394 208.0
189.315262 52.0
189.348114 176.0
189.397415 76.0
189.422073 152.0
189.468643 156.0
189.550842 156.0
189.579636 144.0
189.638535 132.0
189.662018 220.0
189.701584 132.0
189.720764 172.0
189.745438 72.0
189.824966 60.0
189.84668 204.0
189.906128 160.0
189.931915 148.0
189.964844 116.0
189.997574 120.0
190.024323 216.0
190.035431 148.0
190.047577 176.0
190.109879 4016.0
190.310638 124.0
190.3423 136.0
190.347137 192.0
190.376541 68.0
190.516617 104.0
190.545944 132.0
190.587875 180.0
190.606323 240.0
190.625259 244.0
190.666306 168.0
190.719971 152.0
190.792023 224.0
190.824432 148.0
190.862915 184.0
190.903702 164.0
190.937164 140.0
191.000427 124.0
191.034546 180.0
191.054764 292.0
191.116425 1116.0
191.225601 124.0
191.250824 208.0
191.347855 176.0
191.402237 116.0
191.422302 180.0
191.473831 148.0
191.523422 112.0
191.628098 188.0
191.647385 136.0
191.716278 152.0
191.851334 180.0
191.896851 124.0
191.975403 152.0
192.015686 196.0
192.052628 156.0
192.120804 508.0
192.171249 152.0
192.196091 204.0
192.251266 216.0
192.314758 172.0
192.387695 160.0
192.433456 100.0
192.463821 408.0
192.504684 156.0
192.539978 152.0
192.586884 100.0
192.606537 172.0
192.654388 200.0
192.701599 180.0
192.734512 344.0
192.794113 188.0
192.839355 208.0
192.862854 136.0
192.931625 204.0
192.965668 280.0
193.007339 240.0
193.053101 120.0
193.078873 196.0
193.102188 192.0
193.132202 1720.0
193.177399 188.0
193.242279 156.0
193.303024 376.0
193.352203 256.0
193.373322 180.0
193.40799 292.0
193.44725 232.0
193.47142 312.0
193.508118 312.0
193.577133 160.0
193.593277 168.0
193.598297 340.0
193.649017 448.0
193.693451 208.0
193.730026 268.0
193.793442 248.0
193.840469 276.0
193.885269 804.0
193.914307 156.0
193.947174 372.0
193.971497 496.0
193.97934 416.0
194.001541 408.0
194.010818 312.0
194.04747 596.0
194.084351 1148.0
194.118744 400780.0
194.189697 104.0
194.213104 240.0
194.262436 64.0
194.292999 244.0
194.301086 332.0
194.313828 228.0
194.322296 304.0
194.334106 236.0
194.373123 184.0
194.394012 708.0
194.449646 304.0
194.486465 108.0
194.513443 256.0
194.540054 288.0
194.575226 5732.0
194.607361 468.0
194.63739 248.0
194.660202 516.0
194.681625 188.0
194.704391 220.0
194.75621 388.0
194.776443 332.0
194.809357 232.0
194.872696 212.0
194.895218 108.0
194.925537 208.0
194.962036 104.0
194.988846 120.0
195.021088 336.0
195.045456 164.0
195.121201 56028.0
195.198959 168.0
195.227463 248.0
195.257263 60.0
195.290085 100.0
195.317245 40.0
195.348831 100.0
195.37677 124.0
195.395096 88.0
195.416168 116.0
195.449631 232.0
195.475403 168.0
195.495834 96.0
195.505524 116.0
195.532684 196.0
195.57933 136.0
195.606888 80.0
195.639679 172.0
195.658081 160.0
195.69191 68.0
195.724487 100.0
195.737762 40.0
195.748474 88.0
195.777588 180.0
195.812088 100.0
195.85556 44.0
195.876923 48.0
195.904587 132.0
195.930038 60.0
195.950714 140.0
195.978897 144.0
196.052887 220.0
196.078461 212.0
196.122086 4188.0
196.169418 136.0
196.203842 140.0
196.251541 156.0
196.277466 72.0
196.308258 104.0
196.330261 212.0
196.381851 268.0
196.422333 96.0
196.478897 344.0
196.490112 300.0
196.500946 308.0
196.524826 160.0
196.552948 164.0
196.576218 284.0
196.601135 276.0
196.622604 304.0
196.652695 120.0
196.683014 96.0
196.687576 72.0
196.713516 212.0
196.737122 332.0
196.780136 220.0
196.814392 128.0
196.848419 104.0
196.89032 56.0
196.938049 64.0
196.970505 96.0
197.006668 128.0
197.127441 604.0
197.166901 188.0
197.195862 88.0
197.242355 88.0
197.287079 92.0
197.305496 68.0
197.340546 32.0
197.36467 80.0
197.404892 180.0
197.440872 208.0
197.463913 84.0
197.482758 164.0
197.505066 124.0
197.544678 172.0
197.564835 100.0
197.585083 72.0
197.631561 132.0
197.68425 140.0
197.71431 108.0
197.773819 84.0
197.815796 36.0
197.904221 48.0
197.933395 128.0
197.955795 68.0
198.009003 52.0
198.02861 80.0
198.053818 100.0
198.084625 188.0
198.109833 40.0
198.132248 80.0
198.164474 72.0
198.216309 36.0
198.334656 52.0
198.387268 156.0
198.443344 52.0
198.480438 52.0
198.526306 68.0
198.631241 56.0
198.670517 112.0
198.779938 120.0
198.800919 184.0
198.858521 100.0
198.878159 100.0
198.923065 44.0
199.102768 52.0
199.14209 48.0
199.184219 100.0
199.313461 44.0
199.397766 156.0
199.565018 96.0
199.853317 56.0
200.171387 68.0
200.392563 92.0
200.565811 92.0
201.092133 80.0
201.197708 48.0
201.225937 52.0
201.307816 60.0
201.338882 88.0
201.892792 92.0
202.000275 44.0
202.106171 204.0
202.181351 88.0
202.235123 76.0
202.266266 92.0
202.345535 40.0
202.394913 72.0
202.464447 88.0
202.906494 144.0
202.966034 140.0
203.124847 80.0
203.153214 60.0
203.207718 172.0
203.244003 56.0
203.314941 104.0
203.343323 204.0
203.457153 80.0
203.602493 120.0
203.675522 68.0
203.720978 40.0
203.746552 80.0
203.778656 80.0
203.911362 68.0
203.971039 84.0
204.121719 152.0
204.255402 48.0
204.363495 40.0
204.585495 36.0
204.631042 52.0
204.725006 36.0
204.756332 44.0
204.810455 72.0
204.961441 84.0
205.026978 88.0
205.083984 100.0
205.131393 192.0
205.215729 56.0
205.354858 112.0
205.394791 44.0
205.414749 116.0
205.463242 128.0
205.508896 44.0
205.52887 72.0
205.561813 44.0
205.594498 72.0
205.665848 56.0
205.692062 132.0
205.794312 72.0
205.851425 56.0
205.871414 44.0
206.02565 116.0
206.141418 204.0
206.259979 116.0
206.279984 68.0
206.34288 84.0
206.488724 36.0
206.694687 80.0
206.757645 68.0
207.14418 80.0
207.436462 88.0
207.470871 40.0
207.554459 128.0
207.631439 32.0
207.734695 72.0
208.182449 80.0
208.4496 80.0
208.512817 108.0
208.875107 68.0
208.918259 48.0
209.229065 28.0
209.396072 96.0
209.427765 96.0
209.453674 52.0
209.519943 80.0
209.652481 100.0
209.958069 128.0
209.998444 28.0
210.310059 48.0
210.520813 56.0
210.546799 88.0
210.567017 68.0
210.792358 80.0
210.928192 196.0
211.09877 80.0
211.191315 44.0
211.347534 36.0
211.570389 120.0
211.599335 60.0
211.935318 116.0
212.741592 124.0
212.956467 96.0
213.058136 56.0
213.293518 52.0
213.508667 104.0
213.616287 68.0
214.006256 60.0
214.084885 44.0
214.516098 28.0
214.621048 92.0
214.723114 88.0
214.825211 84.0
215.257172 104.0
215.584335 172.0
215.710022 68.0
215.850357 84.0
215.894226 88.0
216.058014 72.0
216.110687 44.0
216.29213 52.0
217.135635 456.0
217.623077 124.0
218.135391 304.0
218.596024 64.0
218.778503 172.0
218.881546 164.0
219.090668 100.0
219.150604 696.0
219.400101 120.0
219.444321 104.0
219.641907 48.0
219.842545 152.0
219.935638 184.0
220.10231 132.0
220.131836 124.0
220.154465 220.0
221.086685 168.0
221.154755 188.0
221.94278 48.0
222.349182 160.0
223.142517 168.0
223.552765 116.0
223.64801 152.0
223.695633 140.0
223.877258 192.0
224.160263 160.0
224.318222 88.0
224.932709 52.0
227.738358 112.0
227.908844 160.0
228.13501 104.0
229.281799 64.0
229.759308 144.0
230.138504 104.0
230.428452 156.0
230.893967 56.0
231.353882 88.0
231.905182 236.0
231.956711 44.0
232.005219 76.0
232.084045 216.0
232.317566 88.0
232.37825 164.0
232.794098 140.0
233.462662 56.0
234.564819 44.0
236.30249 144.0
236.541199 96.0
236.608536 80.0
236.633041 96.0
236.731018 64.0
237.157318 776.0
237.491074 104.0
237.635254 88.0
238.162857 120.0
238.424423 176.0
238.873322 128.0
239.151459 204.0
239.375 144.0
239.421188 272.0
239.707687 76.0
240.040604 172.0
240.139282 128.0
240.334549 148.0
240.691681 56.0
240.920242 124.0
242.303116 176.0
243.078278 72.0
244.038071 80.0
244.669647 112.0
245.192947 84.0
245.351913 36.0
246.04451 60.0
246.125687 144.0
248.043472 180.0
248.15007 144.0
248.385269 128.0
249.113525 164.0
249.330338 52.0
249.594391 132.0
249.827133 48.0
250.302383 124.0
250.878952 208.0
251.835068 172.0
252.391266 104.0
253.014557 132.0
253.648117 96.0
254.7556 104.0
255.229156 196.0
255.36908 96.0
256.18396 144.0
256.21582 200.0
256.308197 36.0
256.368744 112.0
256.39743 72.0
257.162872 44.0
257.56839 112.0
257.823975 160.0
258.018951 104.0
258.10849 72.0
258.21402 152.0
258.303589 244.0
258.373962 84.0
258.473145 56.0
258.521149 144.0
259.151947 72.0
259.219238 168.0
259.578278 100.0
259.639191 128.0
259.706543 48.0
259.77713 100.0
259.927917 160.0
260.94931 156.0
260.98468 108.0
263.094971 40.0
263.411438 96.0
263.80246 84.0
265.17981 184.0
266.801147 136.0
267.188141 100.0
267.754517 80.0
267.829437 168.0
267.86853 80.0
268.298676 112.0
269.284119 188.0
269.699066 104.0
269.826569 152.0
269.914856 200.0
270.094727 164.0
270.215759 104.0
270.627136 116.0
270.742767 104.0
272.596252 72.0
272.76059 156.0
272.931519 28.0
273.220947 48.0
273.714661 132.0
274.162659 148.0
274.901367 156.0
275.214935 112.0
275.802979 104.0
277.620605 232.0
278.450287 192.0
278.636322 144.0
278.749268 108.0
278.809113 80.0
279.607269 136.0
279.743744 128.0
280.093384 180.0
280.323273 144.0
281.935089 124.0
281.998596 76.0
282.767853 180.0
284.178619 144.0
284.379974 160.0
284.430298 108.0
284.678772 132.0
284.715698 104.0
284.836609 96.0
285.340698 64.0
285.522278 156.0
286.527771 100.0
286.84549 48.0
288.482697 124.0
289.077972 148.0
289.999146 96.0
290.375488 136.0
291.533173 128.0
291.716705 100.0
291.808502 96.0
291.958099 164.0
292.026123 204.0
292.169006 108.0
292.400391 208.0
292.431 204.0
292.512695 76.0
292.706757 32.0
292.873627 88.0
293.302979 88.0
293.838379 60.0
294.01239 64.0
294.654327 176.0
294.797852 84.0
294.914032 280.0
295.275635 152.0
295.974548 80.0
296.879211 112.0
298.610107 52.0
298.77179 120.0
299.319031 44.0
299.58078 180.0
299.611786 48.0
299.856445 168.0
299.904694 60.0
300.028778 92.0
300.149475 52.0
300.501282 216.0
300.601349 72.0
301.215881 48.0
302.869293 200.0
303.808716 32.0
304.374451 100.0
304.930267 208.0
305.104065 120.0
305.6362 88.0
306.02951 72.0
306.618225 168.0
307.186554 100.0
308.22348 68.0
308.898224 104.0
308.996185 128.0
309.227142 156.0
309.346161 100.0
309.839935 84.0
309.906494 136.0
310.278015 88.0
310.327087 180.0
310.516449 164.0
310.835693 132.0
312.019348 72.0
312.269012 80.0
313.21936 196.0
313.656281 208.0
313.811401 116.0
314.298157 80.0
314.351074 116.0
315.166748 92.0
315.661621 168.0
316.379883 152.0
316.610016 152.0
317.16983 152.0
318.184387 164.0
318.255402 132.0
318.638977 152.0
318.901947 64.0
319.542023 164.0
319.794678 72.0
319.855194 128.0
320.140015 52.0
320.514038 108.0
320.638763 140.0
321.487549 144.0
321.566071 196.0
322.165955 80.0
322.487549 124.0
322.912994 228.0
323.632294 124.0
323.972534 116.0
324.015533 136.0
324.173187 128.0
325.001495 76.0
326.078796 132.0
326.208191 128.0
326.301666 104.0
326.614532 140.0
327.285248 76.0
327.388336 76.0
327.424347 100.0
327.734161 84.0
327.842255 36.0
328.047699 60.0
328.249603 136.0
328.722168 36.0
328.873718 140.0
329.975525 124.0
330.000824 128.0
330.608521 112.0
331.053802 132.0
331.321838 156.0
332.609161 180.0
334.466614 180.0
334.528473 164.0
334.932678 56.0
336.000793 48.0
337.838379 120.0
338.131104 124.0
338.643677 196.0
339.079651 120.0
339.189606 124.0
339.512268 124.0
339.963501 104.0
340.242462 96.0
340.536224 144.0
340.771332 108.0
341.181213 112.0
341.230743 112.0
341.436646 44.0
342.006927 128.0
342.139465 92.0
342.717682 92.0
342.975647 128.0
344.056488 72.0
345.061401 184.0
345.53479 72.0
345.830811 124.0
346.001099 80.0
346.052948 72.0
347.446472 188.0
347.479858 40.0
347.631989 124.0
347.680237 40.0
348.203705 236.0
348.233398 100.0
348.861389 88.0
349.140228 120.0
349.441528 80.0
349.739258 56.0
349.903046 64.0
350.007294 44.0
350.141357 112.0
350.707672 44.0
350.838135 124.0
351.140167 60.0
351.33786 160.0
352.794312 148.0
352.906464 164.0
353.665894 180.0
354.291229 100.0
354.336212 160.0
354.467346 72.0
354.842163 64.0
354.98465 68.0
355.070892 80.0
355.562378 116.0
355.870178 164.0
355.930267 116.0
356.148071 124.0
356.486206 140.0
356.862091 76.0
357.196777 148.0
357.354797 64.0
357.475189 96.0
357.565521 124.0
357.866669 144.0
358.1604 84.0
358.386444 28.0
358.578644 40.0
358.921692 152.0
359.370544 156.0
359.40448 76.0
359.581848 108.0
360.204865 124.0
360.752777 160.0
361.22171 116.0
361.395721 124.0
361.724976 92.0
362.414246 104.0
362.622681 36.0
363.612549 108.0
363.684662 120.0
364.386566 48.0
365.562103 172.0
365.897064 108.0
366.072205 220.0
367.238403 96.0
368.773285 148.0
368.87265 172.0
368.933807 100.0
369.105865 176.0
372.105988 36.0
372.674408 84.0
372.782013 60.0
373.008759 148.0
373.058746 92.0
374.243683 160.0
374.424683 128.0
374.528687 152.0
374.590302 160.0
375.168335 80.0
375.619507 120.0
375.727539 140.0
377.879486 240.0
378.874451 68.0
379.32785 64.0
380.095764 148.0
380.320862 212.0
380.876251 108.0
380.98877 72.0
381.287964 124.0
381.571014 108.0
381.868805 92.0
382.120117 128.0
382.295197 68.0
382.618256 60.0
382.953156 140.0
383.054413 124.0
383.167389 100.0
383.397308 128.0
383.623352 124.0
383.654541 48.0
383.92749 92.0
383.993774 124.0
384.087402 152.0
384.229675 420.0
384.28244 144.0
384.309998 64.0
384.438538 80.0
384.532196 120.0
384.624084 252.0
384.72345 80.0
384.977264 156.0
385.015839 100.0
385.076691 208.0
385.133484 48.0
385.164734 164.0
385.223755 152.0
385.278015 84.0
385.465546 108.0
385.556854 132.0
385.594513 48.0
385.672668 64.0
385.711761 180.0
385.760681 164.0
385.776367 84.0
385.793854 124.0
385.881317 120.0
385.929504 144.0
385.945404 100.0
386.039886 160.0
386.087097 180.0
386.115234 216.0
386.18454 360.0
386.244171 72268.0
386.323364 196.0
386.441132 136.0
386.486938 144.0
386.533081 84.0
386.56546 140.0
386.598053 112.0
386.639984 88.0
386.671356 108.0
386.71994 56.0
386.763977 48.0
386.815063 72.0
386.905212 144.0
386.952728 160.0
386.983307 136.0
387.045837 160.0
387.098511 156.0
387.147644 52.0
387.186127 212.0
387.246582 17732.0
387.32782 196.0
387.377472 72.0
387.412323 92.0
387.460999 76.0
387.492249 132.0
387.547211 56.0
387.607849 52.0
387.639679 64.0
387.683136 52.0
387.740387 40.0
387.783752 96.0
387.841675 56.0
387.89209 36.0
387.933228 104.0
387.97406 88.0
388.02536 40.0
388.11554 96.0
388.150848 84.0
388.18222 152.0
388.248291 2640.0
388.366547 64.0
388.393982 36.0
388.470734 120.0
388.55069 72.0
388.625946 60.0
388.794189 84.0
388.849121 60.0
388.878021 100.0
388.930573 80.0
388.961517 76.0
389.000946 112.0
389.104279 136.0
389.13855 128.0
389.16745 132.0
389.212463 152.0
389.247864 516.0
389.323273 124.0
389.349579 76.0
389.392822 140.0
389.492249 100.0
389.548035 36.0
389.591248 136.0
389.629547 76.0
389.644012 84.0
389.688141 176.0
389.743103 184.0
389.771973 68.0
389.82074 188.0
389.921326 40.0
389.968475 80.0
390.041595 80.0
390.078552 40.0
390.217743 88.0
390.259735 136.0
390.298706 64.0
390.38913 52.0
390.475677 64.0
390.585968 84.0
390.681549 68.0
390.884796 120.0
390.969696 104.0
391.024811 124.0
391.083893 136.0
391.325623 104.0
391.609161 88.0
391.644623 36.0
391.810059 64.0
391.916443 80.0
392.137115 44.0
392.215942 108.0
392.424896 36.0
392.484039 36.0
392.511627 56.0
392.795593 36.0
392.890259 68.0
393.190155 68.0
393.667847 56.0
393.893555 52.0
394.347351 52.0
394.48175 72.0
394.896912 80.0
395.146149 76.0
395.347931 56.0
395.890289 92.0
396.559814 104.0
396.615326 56.0
396.833344 40.0
398.210327 72.0
399.438538 76.0
400.509277 80.0
402.195923 76.0
402.299713 156.0
403.542206 60.0
403.826111 76.0
404.910736 92.0
405.812347 52.0
406.361816 56.0
406.775177 96.0
406.815338 48.0
406.891602 68.0
407.44986 32.0
408.044647 40.0
408.426697 96.0
408.78476 64.0
408.973907 64.0
410.178253 48.0
411.477264 68.0
412.442749 84.0
414.786407 72.0
416.080475 28.0
418.328613 72.0
419.823914 52.0
424.010223 108.0
424.514465 36.0
430.741608 88.0
431.956909 60.0
435.048279 56.0
435.189453 100.0
435.35968 96.0
437.122284 56.0
440.640778 108.0
442.230438 116.0
443.83075 68.0
445.631378 100.0
445.816254 72.0
446.102081 100.0
447.789368 68.0
449.365906 68.0
451.63443 84.0
453.05249 36.0
455.508667 64.0
455.759338 92.0
462.758636 68.0
462.818573 96.0
463.186859 196.0
463.486755 56.0
464.562897 52.0
468.487793 84.0
469.349762 52.0
471.745911 48.0
475.987518 56.0
476.500031 32.0
478.148071 96.0
482.833649 92.0
484.085266 76.0
487.383911 96.0
488.764587 88.0
489.310364 48.0
498.892914 88.0
500.824127 80.0
504.746948 120.0
504.943726 44.0
505.364227 64.0
507.985046 76.0
508.483093 36.0
509.183472 80.0
511.490051 104.0
511.796173 76.0
513.269592 72.0
518.640442 60.0
522.800659 88.0
524.950806 112.0
524.987305 76.0
525.781128 40.0
531.372803 64.0
537.367737 52.0
538.009216 96.0
538.960632 52.0
539.353455 88.0
540.713257 44.0
546.458069 104.0
546.560425 80.0
550.279846 60.0
551.723511 32.0
552.205139 52.0
552.481079 76.0
552.518494 40.0
553.117493 52.0
553.833923 92.0
554.363342 32.0
554.869568 60.0
554.986755 48.0
555.413513 92.0
557.671997 88.0
564.588379 76.0
565.156006 48.0
566.311096 128.0
567.922974 60.0
570.106567 136.0
570.653198 36.0
572.261353 68.0
572.437561 84.0
573.838379 48.0
575.818726 88.0
581.607361 80.0
582.039429 60.0
585.131042 104.0
587.188599 44.0
591.827698 96.0
597.321472 40.0
598.080566 60.0
605.105286 56.0
608.286926 56.0
608.556946 136.0
608.979248 84.0
611.39325 72.0
612.840942 76.0
614.630798 80.0
615.030518 52.0
616.013184 104.0
623.624146 212.0
625.419739 36.0
625.822998 52.0
633.854858 64.0
634.817322 104.0
642.064087 148.0
645.594116 48.0
651.14856 88.0
652.225708 108.0
655.635803 68.0
658.431519 36.0
658.57959 72.0
660.153748 48.0
661.530029 60.0
673.707642 80.0
679.199951 124.0
679.531921 200.0
682.830505 56.0
688.652222 48.0
688.761902 52.0
690.701172 44.0
697.17627 84.0
698.154114 108.0
703.396484 44.0
705.329834 36.0
707.826965 68.0
710.190613 72.0
715.845337 64.0
719.390869 112.0
722.442322 72.0
725.216064 68.0
727.018066 52.0
742.121948 36.0
742.995178 64.0
743.478088 88.0
744.165955 72.0
746.650818 80.0
750.735229 92.0
751.755371 80.0
752.552307 40.0
754.409851 52.0
757.961914 136.0
764.155396 56.0
765.999634 44.0
767.283691 116.0
774.982666 92.0
776.030212 44.0
779.121582 64.0
787.108521 220.0
788.186584 68.0
798.186584 152.0
807.746155 124.0
813.917969 28.0
820.210144 116.0
831.816467 48.0
836.60498 96.0
840.097229 60.0
846.848694 32.0
853.109741 96.0
854.284424 60.0
854.796448 64.0
859.796448 192.0
863.336731 88.0
863.775391 88.0
865.496033 204.0
878.502441 60.0
880.24231 152.0
883.979492 120.0
889.752563 52.0
900.560547 88.0
903.944336 72.0
907.484314 172.0
908.293945 144.0
909.193909 192.0
909.692078 72.0
914.320251 196.0
916.04834 72.0
917.572998 84.0
919.913696 180.0
926.444824 84.0
928.093323 172.0
930.065002 116.0
933.607056 180.0
934.05719 220.0
934.598633 68.0
940.204834 136.0
941.126587 128.0
942.427612 92.0
946.342102 252.0
947.665039 104.0
949.295532 76.0
951.639526 40.0
952.376465 196.0
952.671265 64.0
953.666748 180.0
962.883911 60.0
965.924866 180.0
970.749573 140.0
971.14032 148.0
971.586914 184.0
972.15155 224.0
972.890198 140.0
973.821594 84.0
977.066467 136.0
977.657532 184.0
978.236389 168.0
978.715759 140.0
981.307739 44.0
981.64447 152.0
982.835876 72.0
983.072998 104.0
984.102966 76.0
984.184082 176.0
985.145935 36.0
985.651978 64.0
986.47699 36.0
987.308533 40.0
988.59729 200.0
989.097961 140.0
991.390259 152.0
992.844727 116.0
993.170837 168.0
994.95929 92.0
995.920044 200.0
996.252991 168.0
998.905762 124.0
999.893616 100.0
1000.076172 72.0
1000.25238 204.0
1002.387451 204.0
1003.969727 40.0
1005.117798 136.0
1006.310791 156.0
1007.934082 208.0
1009.457458 180.0
1010.558105 204.0
1010.722595 172.0
1011.317444 124.0
1014.649475 84.0
1015.702209 120.0
1015.80365 160.0
1016.628479 176.0
1017.275879 152.0
1019.041382 184.0
1019.943787 132.0
1022.627991 124.0
1022.946228 112.0
1023.786682 116.0
1023.945923 172.0
1025.067139 176.0
1028.166382 216.0
1030.640015 100.0
1031.462158 196.0
1031.97998 112.0
1032.299683 248.0
1032.681396 132.0
1033.265503 140.0
1033.463867 180.0
1033.732544 188.0
1034.204712 168.0
1037.524414 180.0
1037.703857 132.0
1038.10144 232.0
1038.57605 172.0
1038.94812 64.0
1039.191895 80.0
1039.87207 148.0
1040.21228 168.0
1040.353516 168.0
1041.720337 128.0
1044.832886 224.0
1045.849609 56.0
1046.158569 128.0
1048.064941 176.0
1048.322632 104.0
1050.21167 144.0
1050.46521 116.0
1051.179443 100.0
1052.360596 92.0
1054.576416 156.0
1055.397461 208.0
1056.276978 136.0
1057.299194 204.0
1057.635742 168.0
1058.121338 120.0
1059.7146 148.0
1061.620239 148.0
1062.13269 184.0
1062.327271 148.0
1062.781372 52.0
1063.514771 104.0
1063.703613 196.0
1064.060059 188.0
1064.391113 220.0
1064.625 196.0
1065.099121 64.0
1066.184082 176.0
1068.180176 156.0
1068.290771 152.0
1068.921875 204.0
1069.494629 180.0
1069.794067 196.0
1070.471191 144.0
1071.083374 176.0
1071.174561 148.0
1071.760864 192.0
1072.471191 164.0
1072.529907 156.0
1073.405396 220.0
1075.928589 92.0
1076.339844 56.0
1076.738281 184.0
1078.352051 156.0
1078.979492 112.0
1079.10376 184.0
1079.149536 148.0
1079.411011 100.0
1079.456787 152.0
1080.163208 184.0
1080.372559 136.0
1080.555664 200.0
1081.602783 288.0
1082.21814 204.0
1082.303223 176.0
1083.233276 152.0
1084.635498 132.0
1084.858398 136.0
1086.045288 112.0
1086.930908 228.0
1088.361938 124.0
1088.440674 180.0
1089.235352 80.0
1089.432373 60.0
1089.741211 196.0
1090.345703 160.0
1090.799316 168.0
1091.483032 212.0
1091.844727 56.0
1092.338013 200.0
1092.930176 156.0
1094.87207 172.0
1095.774414 164.0
1095.991943 172.0
1096.697021 168.0
1096.855225 144.0
1097.108643 188.0
1097.501343 132.0
1097.811279 124.0
1098.726196 68.0
1099.948975 180.0
1100.417603 212.0
1100.827026 32.0
1101.031738 232.0
1101.388428 112.0
1102.068848 136.0
1102.167969 160.0
1102.55127 164.0
1103.066772 168.0
1103.741089 184.0
1104.270142 188.0
1104.53479 212.0
1104.640625 124.0
1104.964722 148.0
1106.1427 152.0
1106.3479 216.0
1106.500244 192.0
1106.990234 148.0
1107.261719 112.0
1107.314697 184.0
1107.864502 164.0
1111.776489 152.0
1111.929077 184.0
1112.095093 144.0
1114.512329 164.0
1116.100952 76.0
1116.413452 180.0
1116.785889 104.0
1117.052002 160.0
1117.151733 188.0
1117.524292 168.0
1118.030029 212.0
1118.635742 172.0
1119.854248 136.0
1120.760254 104.0
1121.32666 152.0
1121.573364 192.0
1122.286621 172.0
1123.060181 140.0
1123.320435 184.0
1123.782471 188.0
1123.880737 164.0
1124.775024 304.0
1125.482788 156.0
1126.464478 140.0
1126.865356 168.0
1127.87439 80.0
1128.021484 180.0
1128.716797 220.0
1129.318726 172.0
1129.546143 160.0
1129.666504 152.0
1129.900635 132.0
1130.369019 156.0
1132.049194 160.0
1132.919922 92.0
1133.549805 56.0
1133.851318 60.0
1134.434448 140.0
1135.809204 132.0
1135.90979 132.0
1136.667847 48.0
1138.500488 48.0
1138.574463 120.0
1138.991699 140.0
1139.252808 260.0
1139.393921 124.0
1139.803711 192.0
1140.025513 56.0
1140.469116 60.0
1141.154785 208.0
1142.223999 144.0
1142.439331 140.0
1142.702026 168.0
1143.414917 200.0
1144.017212 104.0
1144.593018 108.0
1145.232788 112.0
1145.414673 172.0
1145.549438 188.0
1145.832397 140.0
1146.068237 196.0
1146.627441 84.0
1146.708374 84.0
1147.200439 240.0
1147.247681 196.0
1147.544312 204.0
1147.60498 32.0
1147.874634 184.0
1148.198364 32.0
1148.57605 100.0
1149.372192 132.0
1149.75 48.0
1151.133911 168.0
1151.194702 108.0
1153.329712 128.0
1153.566284 136.0
1153.785645 104.0
1153.85022 140.0
1154.154419 156.0
1154.823975 60.0
1155.033569 156.0
1155.859009 160.0
1157.77478 88.0
1158.919556 212.0
1159.041504 196.0
1159.278687 60.0
1159.468506 148.0
1159.658203 116.0
1160.29541 128.0
1160.511597 164.0
1160.661499 112.0
1161.346558 168.0
1161.611084 92.0
1161.672119 180.0
1161.794189 188.0
1161.855225 120.0
1163.192139 100.0
1163.823486 236.0
1164.027222 124.0
1164.407471 120.0
1165.535156 136.0
1165.637085 180.0
1166.194336 128.0
1167.316162 128.0
1167.370483 164.0
1168.431641 136.0
1168.771851 172.0
1169.615723 124.0
1170.146729 172.0
1170.636963 72.0
1170.807251 148.0
1171.529175 152.0
1172.578491 192.0
1172.851196 88.0
1173.035278 148.0
1173.355591 44.0
1173.580566 164.0
1173.82605 200.0
1173.914795 172.0
1174.037476 108.0
1174.794556 156.0
1175.040161 192.0
1176.814697 104.0
1177.98938 116.0
1178.563232 160.0
1178.630859 200.0
1178.809326 172.0
1181.215942 192.0
1181.325317 160.0
1181.482666 108.0
1181.612671 64.0
1181.671021 156.0
1181.77002 112.0
1181.920532 136.0
1183.419556 148.0
1183.89209 60.0
1184.255005 196.0
1184.761963 172.0
1185.515625 192.0
1186.71521 112.0
1186.797485 252.0
1187.037476 164.0
1187.483276 204.0
1187.929077 180.0
1188.299561 172.0
1188.35437 148.0
1188.498535 244.0
1189.425049 196.0
1189.946777 172.0
1190.228271 172.0
1190.578491 216.0
1190.750122 124.0
1190.901245 188.0
1191.567627 156.0
1192.454102 156.0
1192.701538 168.0
1193.732788 204.0
1194.282959 124.0
1194.413696 136.0
1194.709473 176.0
1195.679688 200.0
1196.863647 120.0
1197.834717 128.0
1198.571899 156.0
1198.964722 160.0
1200.102051 200.0
1200.177979 136.0
1200.30896 196.0
1200.708984 184.0
1201.826416 176.0
1202.040405 128.0
1202.212891 168.0
1202.592529 152.0
1202.723633 192.0
1203.303467 100.0
1203.856934 160.0
1204.484375 168.0
1204.954102 164.0
1205.244385 200.0
1206.917114 192.0
1207.228271 184.0
1207.836914 64.0
1208.750122 196.0
1208.846924 224.0
1208.923096 176.0
1209.352173 160.0
1209.622192 180.0
1209.86438 152.0
1209.926758 300.0
1209.995972 160.0
1210.536011 172.0
1210.951538 156.0
1211.505737 188.0
1211.699707 148.0
1212.129272 196.0
1212.517334 156.0
1214.070312 164.0
1214.347778 40.0
1214.763916 176.0
1215.04834 160.0
1215.733276 180.0
1216.276611 172.0
1216.346069 188.0
1217.047241 104.0
1217.262451 156.0
1217.769409 200.0
1218.484985 156.0
1218.929688 180.0
1219.263184 92.0
1221.696777 152.0
1222.698853 180.0
1222.977173 120.0
1223.422729 124.0
1223.756836 208.0
1223.903076 212.0
1224.021484 252.0
1224.397583 184.0
1224.78064 236.0
1224.989624 200.0
1225.386719 180.0
1225.463257 120.0
1226.250732 60.0
1226.445923 180.0
1226.494751 152.0
1226.817017 204.0
1227.296387 140.0
1227.442871 196.0
1227.700928 144.0
1227.875244 84.0
1228.865723 172.0
1229.068115 172.0
1229.200684 152.0
1229.514771 88.0
1229.856689 260.0
1229.912598 180.0
1230.052124 136.0
1230.624634 200.0
1230.85498 108.0
1231.078491 124.0
1232.433594 224.0
1234.153076 156.0
1234.369873 100.0
1234.53772 184.0
1234.58667 152.0
1234.936279 172.0
1235.19519 160.0
1235.468018 64.0
1235.677856 180.0
1235.887695 168.0
1236.21228 184.0
1236.629517 60.0
1236.727539 104.0
1236.818481 160.0
1236.958496 136.0
1238.106812 60.0
1238.449951 104.0
1239.010376 112.0
1239.157471 176.0
1239.388672 140.0
1240.00415 152.0
1240.524048 168.0
1240.622192 132.0
1240.822998 196.0
1241.982666 88.0
1242.143921 172.0
1242.207031 124.0
1242.557861 156.0
1243.063477 220.0
1243.378784 160.0
1243.456055 168.0
1244.136963 176.0
1244.670532 164.0
1245.140991 56.0
1245.295532 200.0
1245.941772 64.0
1246.110352 64.0
1246.342285 148.0
1246.496826 160.0
1248.204956 184.0
1248.327271 224.0
1248.493286 248.0
1249.027832 156.0
1249.309204 76.0
1249.435913 164.0
1249.668091 140.0
1249.717285 112.0
1249.886108 108.0
1250.695435 104.0
1251.617798 188.0
1251.681152 168.0
1251.73584 212.0
1251.892334 180.0
1254.647339 192.0
1255.042236 308.0
1255.394775 144.0
1255.542847 168.0
1256.100098 172.0
1256.396362 148.0
1256.706787 188.0
1256.989014 124.0
1257.391235 128.0
1257.51123 156.0
1258.259521 160.0
1258.414795 120.0
1258.824341 64.0
1259.18457 104.0
1259.474121 212.0
1259.629517 156.0
1259.855591 60.0
1260.661011 196.0
1261.106323 144.0
1261.438477 184.0
1261.558716 140.0
1263.086182 172.0
1263.1427 212.0
1263.29126 40.0
1263.446899 28.0
1263.637939 140.0
1263.722778 144.0
1263.800659 156.0
1264.06958 184.0
1264.237671 192.0
1265.478149 136.0
1266.377441 156.0
1266.844971 224.0
1267.411743 224.0
1267.872437 136.0
1268.127563 224.0
1268.358032 152.0
1268.545776 192.0
1268.928589 176.0
1269.564087 260.0
1269.892944 84.0
1270.02771 116.0
1270.240479 132.0
1270.311523 320.0
1270.368286 140.0
1271.553223 164.0
1271.744873 132.0
1271.950684 104.0
1272.491455 132.0
1272.61084 224.0
1272.922607 192.0
1273.115112 212.0
1273.25708 140.0
1273.5625 116.0
1273.893311 192.0
1274.294189 204.0
1274.621094 200.0
1275.061646 236.0
1275.175293 72.0
1275.438354 220.0
1275.886475 188.0
1276.156372 64.0
1276.526123 212.0
1276.753662 172.0
1277.080811 168.0
1277.159058 204.0
1277.578735 200.0
1277.813599 136.0
1277.884644 212.0
1277.94873 188.0
1278.019897 160.0
1279.023315 96.0
1279.137207 184.0
1279.286743 168.0
1279.553833 216.0
1279.963135 156.0
1280.027222 140.0
1280.461548 176.0
1280.589722 124.0
1280.639648 140.0
1281.01001 192.0
1281.351929 148.0
1281.629883 108.0
1282.085938 156.0
1283.468872 212.0
1283.625732 200.0
1283.704102 192.0
1285.230713 52.0
1285.744507 28.0
1286.022827 104.0
1286.132935 168.0
1287.022217 100.0
1287.415039 104.0
1287.529297 184.0
1288.593628 184.0
1288.643555 140.0
1288.863037 164.0
1288.936523 192.0
1289.222412 152.0
1289.393921 140.0
1289.529663 144.0
1290.373169 148.0
1291.37439 216.0
1292.578735 160.0
1294.308472 132.0
1296.056274 156.0
1296.120728 164.0
1297.590088 88.0
1298.522217 156.0
1298.766113 120.0
1298.880859 144.0
1299.024292 156.0
1299.274658 196.0
1299.461914 168.0
1299.576782 172.0
1299.684448 144.0
1299.86377 148.0
1299.935547 140.0
1300.129272 224.0
1300.193848 144.0
1300.682007 184.0
1300.990601 212.0
1301.263428 176.0
1301.47168 140.0
1301.625244 144.0
1304.237549 164.0
1304.539429 148.0
1305.251221 192.0
1305.428589 160.0
1305.538818 144.0
1306.186157 76.0
1306.740112 160.0
1306.90564 156.0
1307.016235 108.0
1307.488403 44.0
1307.754761 128.0
1307.812378 92.0
1308.733765 176.0
1308.993042 68.0
1309.144287 176.0
1309.345947 148.0
1309.684448 140.0
1309.980591 132.0
1311.384888 140.0
1311.58667 156.0
1311.702026 144.0
1311.961548 188.0
1312.581543 208.0
1312.754639 84.0
1312.833984 120.0
1313.75 128.0
1313.915894 36.0
1314.175659 96.0
1314.269409 120.0
1314.586914 56.0
1314.767334 148.0
1315.05603 124.0
1315.301514 208.0
1315.474731 100.0
1315.575806 172.0
1315.662354 48.0
1315.765869 200.0
1315.893433 100.0
1316.557739 68.0
1316.745483 56.0
1316.897217 140.0
1317.330566 236.0
1317.65564 268.0
1317.829102 156.0
1318.905884 116.0
1319.354004 136.0
1319.498657 80.0
1319.585449 60.0
1320.373535 156.0
1320.865479 188.0
1321.060791 116.0
1322.108276 140.0
1322.269043 148.0
1322.529663 164.0
1322.65271 44.0
1323.304199 212.0
1324.122559 156.0
1324.260132 152.0
1325.107666 160.0
1325.361328 152.0
1325.890259 212.0
1325.969971 328.0
1326.58606 108.0
1327.195068 152.0
1327.760742 92.0
1327.92749 216.0
1328.065308 96.0
1328.428101 176.0
1329.240601 48.0
1329.632568 192.0
1329.792236 200.0
1330.5979 168.0
1331.382202 136.0
1331.599976 128.0
1331.658081 168.0
1331.919678 216.0
1332.093994 176.0
1332.260986 228.0
1332.529785 176.0
1332.791382 44.0
1333.372803 192.0
1333.438232 168.0
1333.830688 148.0
1335.182983 220.0
1335.299438 56.0
1335.655762 196.0
1335.97583 88.0
1336.150513 156.0
1336.296021 72.0
1336.492432 176.0
1336.671265 152.0
1336.69104 216.0
1336.885376 252.0
1336.97998 176.0
1337.038208 180.0
1337.42395 96.0
1338.865479 80.0
1339.30249 132.0
1339.535645 156.0
1339.899902 148.0
1340.256836 132.0
1340.468262 160.0
1341.692871 164.0
1342.166626 136.0
1342.246826 88.0
1342.399902 180.0
1342.69165 132.0
1342.998047 164.0
1343.428345 168.0
1343.603516 136.0
1343.727539 148.0
1343.844238 184.0
1344.362305 80.0
1344.486328 144.0
1344.661499 136.0
1344.749146 88.0
1345.230835 188.0
1345.347656 164.0
1345.690796 128.0
1346.143555 96.0
1346.238403 160.0
1346.406372 204.0
1346.647461 44.0
1346.873901 176.0
1347.114868 60.0
1347.823608 224.0
1347.874756 112.0
1349.2854 240.0
1350.038574 32.0
1350.10437 168.0
1350.331055 32.0
1350.433472 168.0
1350.601685 136.0
1350.79187 56.0
1351.0625 260.0
1351.194214 92.0
1351.464966 88.0
1351.560059 160.0
1351.764893 132.0
1352.021118 168.0
1352.34314 176.0
1352.74707 132.0
1353.111694 180.0
1353.485107 52.0
1354.180908 92.0
1354.532471 104.0
1354.720825 152.0
1354.840088 128.0
1354.907593 232.0
1354.986572 168.0
1355.045288 132.0
1355.206421 160.0
1355.599731 160.0
1356.672241 152.0
1356.841919 192.0
1357.530029 184.0
1358.037231 208.0
1358.841919 184.0
1359.033813 184.0
1359.518066 160.0
1359.606201 164.0
1359.701538 132.0
1359.796997 132.0
1360.061279 192.0
1360.699341 160.0
1361.141357 168.0
1361.727905 124.0
1361.970337 116.0
1362.197998 176.0
1362.265625 160.0
1362.389404 180.0
1362.477173 180.0
1362.587402 188.0
1363.317627 208.0
1363.373657 192.0
1363.447144 208.0
1364.358521 168.0
1364.674683 52.0
1364.873291 220.0
1365.248291 140.0
1366.042603 88.0
1366.46936 148.0
1366.851929 208.0
1367.470093 176.0
1367.786621 172.0
1368.11792 212.0
1368.228271 160.0
1368.611206 252.0
1369.030884 136.0
1369.612671 132.0
1369.745361 80.0
1370.047363 136.0
1370.120972 108.0
1370.202026 252.0
1370.496826 160.0
1370.769409 88.0
1370.843994 172.0
1370.892822 80.0
1371.027344 88.0
1371.668579 216.0
1372.096191 128.0
1372.162476 196.0
1372.354126 48.0
1372.907227 180.0
1373.430908 152.0
1373.89563 44.0
1373.977417 140.0
1374.301392 116.0
1374.42688 196.0
1374.579102 320.0
1375.120483 184.0
1375.762695 168.0
1375.880859 152.0
1375.947266 148.0
1376.331177 200.0
1377.081787 324.0
1377.424194 208.0
1377.552856 208.0
1377.786255 144.0
1377.961304 200.0
1378.05957 72.0
1378.207397 60.0
1378.86499 212.0
1379.16333 200.0
1379.256714 172.0
1379.84082 176.0
1379.981201 140.0
1380.203125 88.0
1380.497803 124.0
1380.824219 68.0
1380.927856 196.0
1380.994385 132.0
1381.142334 196.0
1381.283936 192.0
1381.504761 196.0
1381.785889 112.0
1381.859863 332.0
1381.985718 56.0
1382.525879 164.0
1382.644287 200.0
1383.406616 144.0
1383.584351 192.0
1383.695312 176.0
1384.124756 176.0
1384.243286 148.0
1384.413574 128.0
1384.650635 220.0
1385.094971 172.0
1385.302368 168.0
1385.484497 228.0
1385.569092 228.0
1385.801147 176.0
1386.203247 132.0
1386.413818 96.0
1386.851074 136.0
1386.902954 116.0
1386.99939 148.0
1387.058594 108.0
1387.471191 188.0
1387.555298 120.0
1387.62207 152.0
1387.73291 164.0
1388.155884 172.0
1388.309448 176.0
1388.446533 148.0
1388.592651 156.0
1388.689941 148.0
1389.196899 212.0
1389.275879 180.0
1389.802612 216.0
1389.943604 172.0
1390.136597 220.0
1390.388916 208.0
1390.529907 56.0
1391.524658 184.0
1391.717651 164.0
1391.90332 124.0
1392.10376 192.0
1392.177979 208.0
1392.419067 196.0
1393.188232 168.0
1393.358398 48.0
1393.641357 196.0
1393.842041 136.0
1393.901489 132.0
1394.33252 184.0
1394.447266 124.0
1394.611816 104.0
1394.76355 152.0
1394.830444 144.0
1395.246826 156.0
1395.298828 144.0
1395.61853 44.0
1395.930786 216.0
1396.012573 100.0
1396.243164 184.0
1396.667114 220.0
1397.0802 176.0
1397.195312 52.0
1397.544922 148.0
1397.701172 176.0
1397.879761 180.0
1397.946777 168.0
1398.110474 232.0
1398.222168 88.0
1398.47522 260.0
1398.810181 216.0
1398.958984 108.0
1399.16748 164.0
1399.256836 188.0
1399.554565 168.0
1399.979126 196.0
1400.209961 132.0
1400.500366 220.0
1401.14856 128.0
1401.319824 148.0
1401.394409 136.0
1401.469482 252.0
1402.437622 144.0
1402.556885 164.0
1402.609131 176.0
1403.197998 124.0
1403.40686 148.0
1403.578247 160.0
1403.839355 140.0
1403.913818 144.0
1404.443359 92.0
1404.540405 180.0
1404.659668 80.0
1405.495361 168.0
1405.584839 132.0
1405.995239 120.0
1406.644653 128.0
1407.025391 184.0
1407.085083 136.0
1407.66748 176.0
1408.175293 160.0
1408.235107 144.0
1408.347168 112.0
1408.615967 148.0
1409.004517 44.0
1409.206177 156.0
1409.803955 144.0
1410.007202 188.0
1410.521484 204.0
1411.343872 136.0
1411.635498 80.0
1412.016846 92.0
1412.473145 140.0
1413.049194 144.0
1413.288574 184.0
1413.355957 124.0
1413.56543 128.0
1413.846802 212.0
1414.418701 192.0
1414.581177 100.0
1414.643188 188.0
1414.703125 36.0
1414.995117 116.0
1415.133789 184.0
1415.646484 168.0
1415.841309 124.0
1415.893677 160.0
1416.073364 184.0
1416.897461 96.0
1417.571777 84.0
1417.841553 68.0
1418.171265 196.0
1418.553589 160.0
1419.34082 176.0
1419.511719 204.0
1420.008301 224.0
1420.308228 144.0
1420.900879 88.0
1422.611938 160.0
1423.122559 180.0
1423.182617 144.0
1423.542969 120.0
1423.610596 188.0
1423.758301 168.0
1423.956055 168.0
1424.375854 196.0
1424.474365 164.0
1424.714722 200.0
1425.037964 156.0
1425.105347 48.0
1425.638916 160.0
1425.879395 144.0
1425.932007 52.0
1426.074829 132.0
1426.210083 48.0
1426.54834 136.0
1426.668701 144.0
1426.796509 92.0
1427.473145 164.0
1427.623535 164.0
1428.157593 388.0
1428.210205 136.0
1428.353149 172.0
1428.473511 164.0
1429.662231 96.0
1429.775146 160.0
1429.970825 228.0
1430.904297 164.0
1431.092529 140.0
1431.145142 152.0
1431.318359 88.0
1432.583618 84.0
1433.126099 140.0
1433.307495 176.0
1433.502808 208.0
1434.256592 160.0
1434.331909 200.0
1434.407349 184.0
1434.475098 152.0
1434.565552 148.0
1434.765259 276.0
1434.987793 92.0
1435.275757 188.0
1435.734253 76.0
1436.609253 128.0
1436.921387 168.0
1436.994019 132.0
1437.152466 232.0
1437.401489 100.0
1437.612793 156.0
1438.661865 188.0
1438.797729 156.0
1439.145142 144.0
1440.015259 152.0
1440.111694 56.0
1440.209961 68.0
1441.781372 128.0
1442.342407 244.0
1442.499512 212.0
1442.817017 184.0
1443.187378 164.0
1443.414307 168.0
1443.520142 112.0
1443.588257 188.0
1443.815063 164.0
1444.117554 168.0
1444.240601 172.0
1444.594116 136.0
1444.768188 136.0
1444.84375 196.0
1445.032959 80.0
1445.23291 228.0
1445.456665 68.0
1445.57019 168.0
1445.933472 216.0
1446.31189 188.0
1446.982422 248.0
1447.311157 164.0
1447.500488 136.0
1447.954834 208.0
1448.136597 116.0
1448.439575 180.0
1448.522949 220.0
1448.795654 112.0
1448.91687 188.0
1449.030518 176.0
1449.636719 108.0
1449.871582 64.0
1450.394531 248.0
1450.629517 152.0
1451.258789 168.0
1451.740601 192.0
1451.910889 168.0
1452.01709 140.0
1452.194824 224.0
1452.320557 144.0
1452.449463 144.0
1452.578369 184.0
1452.661865 176.0
1452.940063 252.0
1453.026001 212.0
1453.079102 28.0
1453.443237 176.0
1454.099731 148.0
1454.323608 40.0
1454.786621 108.0
1455.348511 160.0
1455.500366 196.0
1455.713013 56.0
1456.341919 172.0
1456.47998 172.0
1456.675171 184.0
1457.292847 176.0
1457.786865 108.0
1458.333984 156.0
1458.843262 208.0
1458.995361 128.0
1459.203125 196.0
1459.375488 144.0
1459.580811 172.0
1459.88501 156.0
1459.988525 264.0
1460.539062 72.0
1460.683594 204.0
1460.866089 188.0
1461.018311 180.0
1461.353027 72.0
1461.520386 172.0
1462.098755 152.0
1462.601074 268.0
1462.654419 192.0
1463.408081 116.0
1463.560303 184.0
1463.919189 184.0
1463.979126 216.0
1464.171387 204.0
1464.527466 228.0
1464.729492 124.0
1464.786499 148.0
1465.73877 88.0
1465.822632 64.0
1465.937012 132.0
1466.580933 192.0
1466.813477 192.0
1466.889648 168.0
1466.958252 140.0
1467.110718 232.0
1469.490234 72.0
1469.556519 188.0
1469.642822 180.0
1469.772583 180.0
1469.993774 136.0
1470.146484 136.0
1470.558594 244.0
1470.802856 168.0
1471.047119 204.0
1471.360107 188.0
1471.749512 124.0
1472.054932 152.0
1472.397095 172.0
1472.811035 140.0
1473.139526 140.0
1473.77356 172.0
1473.918823 116.0
1474.071655 152.0
1474.414185 240.0
1474.442139 200.0
1474.598877 160.0
1475.057495 172.0
1475.500977 236.0
1475.577393 64.0
1475.936768 200.0
1476.059082 52.0
1476.14978 216.0
1476.311646 184.0
1476.510254 116.0
1477.826294 184.0
1478.123169 168.0
1478.767212 140.0
1478.91748 140.0
1479.104004 140.0
1479.234131 144.0
1479.547974 284.0
1479.632202 148.0
1479.716431 48.0
1480.061035 88.0
1480.30603 140.0
1480.390259 148.0
1481.13855 240.0
1481.240479 188.0
1481.477905 44.0
1481.723022 156.0
1482.060181 96.0
1482.26709 164.0
1482.359009 120.0
1483.278687 44.0
1483.363037 184.0
1483.937988 148.0
1484.105103 180.0
1484.589844 172.0
1485.080688 148.0
1485.625244 160.0
1485.73291 132.0
1486.829956 172.0
1487.05249 212.0
1487.152222 140.0
1487.735718 104.0
1487.812378 84.0
1488.042725 160.0
1488.388306 160.0
1488.518799 168.0
1489.140869 164.0
1489.225342 152.0
1489.373169 160.0
1489.663208 320.0
1489.778442 168.0
1489.955078 248.0
1490.170288 296.0
1490.531372 152.0
1490.661987 172.0
1491.292236 136.0
1491.345947 140.0
1491.630371 224.0
1492.268433 132.0
1492.676025 68.0
1492.952881 160.0
1493.154541 120.0
1493.283569 188.0
1493.46814 120.0
1494.706787 236.0
1494.953003 156.0
1495.052979 156.0
1495.668823 80.0
1495.938232 168.0
1496.084473 176.0
1496.215332 224.0
1496.85437 164.0
1497.223999 180.0
1497.439697 172.0
1497.501343 148.0
1497.609131 48.0
1497.817139 48.0
1498.368286 208.0
1498.633667 200.0
1498.710815 100.0
1498.803223 204.0
1499.065186 184.0
1499.231201 144.0
1499.342651 144.0
1499.658691 160.0
1500.051758 172.0
1500.58374 160.0
1501.161987 252.0
1501.416504 128.0
1501.786743 136.0
1501.86377 176.0
1501.933228 172.0
1502.056641 156.0
1502.311279 180.0
1502.450073 184.0
1502.511841 156.0
1502.635254 72.0
1502.962402 172.0
1503.073853 104.0
1503.108643 80.0
1503.12439 132.0
1503.222778 204.0
1503.595947 168.0
1504.546143 148.0
1504.75708 160.0
1505.259521 172.0
