>compound IDEBENONE
>formula C19H30O5
>ionization [M+H]+
>parentmass 339.217773
#inchi InChI=1S/C19H30O5/c1-14-15(12-10-8-6-4-5-7-9-11-13-20)17(22)19(24-3)18(23-2)16(14)21/h20H,4-13H2,1-3H3
#inchikey JGPMMRGNQUBGND
#Ion_Source LC-ESI
#Instrument qTof
#Compound_Source Commercial
#PI Dorrestein
#Data_Collector Garg_Neha
#Scan -1
#Precursor_MZ 339.217
#ExactMass 338.209
#Charge 1
#CAS_Number N/A
#Pubmed_ID N/A
#Smiles COC1=C(OC)C(=O)C(=C(C)C1=O)CCCCCCCCCCO
#INCHI_AUX N/A
#Library_Class 1
#SpectrumID CCMSLIB00000079031
#IonMode Positive
#UpdateWorkflowName UPDATE-SINGLE-ANNOTATED-GOLD
#LibraryQualityString Gold
#TaskID 278b19f5865741e282cec7349aa7e7a1
##Scan# 2278
#SpectrumFile NCP003352_G2_H11_BC7_01_15721.mzXML
#LibraryName NIHcollectionI_05062014.mgf
#MQScore -1
#Organism NIHcollectionI_05062014
#TIC_Query 0
#RT_Query -1
#MZErrorPPM -1
#SharedPeaks 0
#MassDiff 0
#LibMZ -1
#SpecMZ 339.217
#SpecCharge 0
#internalFilename spec-00000.mgf

>collision 10
45.135868 188.0
45.617184 180.0
48.334267 152.0
48.561462 164.0
49.035572 164.0
51.080139 144.0
51.307991 152.0
52.192825 164.0
53.372738 200.0
54.021755 216.0
54.216492 180.0
54.782177 140.0
56.927017 140.0
57.229259 168.0
57.244316 168.0
58.389931 164.0
58.406662 164.0
60.291023 148.0
60.729172 164.0
61.754032 160.0
63.294735 144.0
64.438354 172.0
65.213951 168.0
66.753052 220.0
67.434509 200.0
69.999954 216.0
70.93222 208.0
71.474686 248.0
73.099167 140.0
73.21492 208.0
73.323959 260.0
75.393723 216.0
76.780853 164.0
77.755333 184.0
78.305626 228.0
78.547096 172.0
78.889679 184.0
80.060722 140.0
80.626251 156.0
80.703117 192.0
83.631096 148.0
85.720757 180.0
86.352127 160.0
86.394676 200.0
86.941269 196.0
87.4077 232.0
87.968689 156.0
88.754463 164.0
89.51757 184.0
89.943451 200.0
91.053558 180.0
91.094757 180.0
93.025383 172.0
93.550179 156.0
93.941376 188.0
93.972244 176.0
95.049095 264.0
95.08667 164.0
95.1082 172.0
96.508904 160.0
97.488998 156.0
97.969086 148.0
99.799789 188.0
99.996727 172.0
100.842384 180.0
101.060356 204.0
101.356689 232.0
102.48391 220.0
103.111488 180.0
103.180214 208.0
103.269188 156.0
104.055435 176.0
105.068954 152.0
105.19957 148.0
106.810211 184.0
107.051971 200.0
107.593285 148.0
107.913513 184.0
108.056221 148.0
109.065552 172.0
110.066116 160.0
111.044922 360.0
111.08033 192.0
111.230141 140.0
111.454857 180.0
111.486382 172.0
112.052399 144.0
115.053375 148.0
116.06752 196.0
116.61924 224.0
117.072487 456.0
117.211052 180.0
119.045418 168.0
119.081596 156.0
119.488831 196.0
120.087875 140.0
121.065971 576.0
122.067642 292.0
122.554092 152.0
122.642242 188.0
123.044815 160.0
123.080185 1064.0
125.058884 468.0
125.176727 164.0
125.713959 144.0
125.914879 264.0
127.040756 152.0
127.081139 172.0
127.687645 180.0
128.061249 204.0
129.072418 176.0
130.083893 204.0
131.049332 324.0
131.084534 400.0
131.505341 152.0
131.656021 172.0
132.094711 128.0
132.713196 156.0
133.062897 172.0
133.104462 224.0
133.351379 176.0
135.049347 172.0
135.078033 424.0
135.56691 152.0
136.01886 148.0
136.051239 516.0
136.086502 192.0
137.061188 844.0
137.095474 168.0
137.133087 524.0
138.041458 140.0
138.060959 164.0
138.137222 296.0
138.542328 172.0
139.040894 356.0
139.074738 1112.0
139.173218 156.0
140.040649 144.0
140.082153 168.0
141.017761 144.0
141.053207 148.0
141.072128 332.0
141.103485 164.0
141.147781 180.0
142.876816 212.0
143.089188 188.0
143.129105 240.0
144.056305 188.0
144.506302 212.0
145.06485 896.0
145.102463 372.0
146.103546 180.0
146.38092 144.0
147.047058 164.0
147.079788 336.0
147.119583 176.0
148.093185 200.0
148.439743 140.0
148.810745 208.0
149.058868 220.0
149.079956 236.0
150.035126 172.0
150.071289 180.0
151.042816 176.0
151.075592 4108.0
151.148712 628.0
152.04512 160.0
152.077209 416.0
152.48497 184.0
153.055466 668.0
153.096405 156.0
153.506622 252.0
154.063034 4636.0
155.069565 536.0
155.150833 164.0
155.403809 160.0
156.01973 196.0
156.042618 176.0
157.120392 144.0
158.00238 144.0
158.074265 400.0
158.107483 184.0
159.044632 188.0
159.080093 352.0
159.118103 260.0
159.65033 152.0
160.055466 184.0
160.084473 228.0
160.125977 212.0
160.645203 148.0
161.058075 400.0
161.09613 324.0
162.054993 152.0
163.040405 196.0
163.073868 448.0
163.116028 356.0
163.383728 196.0
164.050369 1092.0
165.05336 736.0
165.092438 324.0
166.065796 576.0
166.830719 156.0
167.033524 336.0
167.070587 1512.0
168.078278 148.0
168.098251 204.0
168.299576 176.0
168.594055 164.0
168.899139 156.0
169.049713 120.0
169.087265 2856.0
170.055984 292.0
170.091644 460.0
171.066483 648.0
171.116257 164.0
171.675537 156.0
172.087814 148.0
173.063156 560.0
173.096985 764.0
173.128525 316.0
174.061752 172.0
175.039566 344.0
175.075287 620.0
175.145584 144.0
176.047501 544.0
176.080322 316.0
176.896286 152.0
177.054932 1136.0
177.092026 752.0
177.12648 172.0
178.060486 368.0
178.094376 312.0
178.663666 228.0
179.070023 824.0
179.110886 352.0
180.076416 148.0
181.050415 188.0
181.08699 2008.0
182.058945 4312.0
182.995056 192.0
183.06517 2244.0
183.12056 156.0
183.276794 140.0
184.063507 248.0
184.285904 160.0
185.082489 252.0
185.398041 140.0
186.092529 128.0
187.075378 412.0
187.113983 312.0
188.0849 156.0
189.052689 168.0
189.086716 168.0
189.129395 152.0
189.657959 144.0
189.967804 152.0
190.065659 492.0
190.108307 136.0
190.519592 104.0
191.070572 1600.0
191.106537 708.0
192.078751 412.0
192.111649 188.0
193.049347 408.0
193.084137 1204.0
194.057083 360.0
194.089844 324.0
194.12706 140.0
194.61409 108.0
195.066818 500.0
195.098038 176.0
195.638535 140.0
196.078323 568.0
196.102936 160.0
196.655945 160.0
197.082092 37800.0
197.159378 188.0
197.206177 156.0
198.085297 2968.0
198.121185 204.0
198.336044 116.0
199.086624 156.0
199.184525 128.0
199.213898 108.0
199.566666 104.0
199.639664 144.0
200.092682 144.0
201.089386 372.0
201.165756 864.0
202.136993 180.0
203.074265 184.0
203.108002 140.0
203.181671 152.0
203.715378 196.0
204.075668 176.0
204.116119 140.0
205.08667 980.0
205.120972 408.0
205.165771 108.0
205.349213 172.0
206.093155 328.0
206.15715 168.0
207.070953 280.0
207.101486 876.0
207.161423 180.0
207.361984 160.0
208.072968 144.0
208.10495 144.0
209.079926 692.0
209.116516 260.0
210.087814 236.0
210.128265 224.0
210.650803 152.0
211.09845 508.0
211.149887 160.0
212.100189 124.0
213.090897 184.0
213.124847 120.0
215.10611 272.0
216.106186 160.0
216.1633 144.0
217.088516 360.0
217.124176 176.0
217.155869 136.0
218.094055 220.0
219.10495 548.0
219.167511 144.0
219.190765 176.0
220.109726 132.0
221.080658 188.0
221.117401 616.0
221.153503 176.0
222.091812 96.0
222.122055 304.0
223.020294 244.0
223.095917 1556.0
223.132996 276.0
223.170166 184.0
224.100174 696.0
225.112488 496.0
225.616653 152.0
225.637573 140.0
225.912704 164.0
229.116287 284.0
229.161682 1120.0
231.098236 264.0
231.166016 148.0
233.116165 332.0
233.157288 300.0
233.189316 1020.0
234.132675 148.0
234.192947 192.0
234.70787 216.0
235.098328 224.0
236.296112 244.0
237.111084 300.0
237.153534 268.0
237.184174 196.0
237.453995 152.0
239.141159 448.0
240.13446 172.0
241.147583 124.0
243.172394 456.0
244.146561 224.0
245.183243 140.0
247.13295 252.0
247.171875 256.0
247.66394 176.0
248.174759 140.0
249.175964 236.0
251.1409 156.0
251.19072 172.0
257.153687 848.0
257.194305 208.0
258.81192 164.0
259.17334 152.0
261.150543 452.0
261.186096 3092.0
262.151276 164.0
262.187012 596.0
263.181885 136.0
265.148376 172.0
265.175201 168.0
267.200562 188.0
268.236115 140.0
271.169006 532.0
273.187653 100.0
275.16687 280.0
275.195557 248.0
276.173462 184.0
276.205688 156.0
277.182922 132.0
279.195862 512.0
280.155914 144.0
280.195892 164.0
281.619354 220.0
288.863403 144.0
289.181 4252.0
290.187347 1104.0
291.188232 716.0
292.196838 388.0
293.172424 652.0
293.21283 3316.0
294.217834 556.0
294.708099 148.0
295.223297 160.0
301.166565 200.0
303.196228 776.0
304.197296 460.0
306.180878 152.0
307.191986 2160.0
307.238953 152.0
308.191498 424.0
308.271332 164.0
308.477539 180.0
310.208435 200.0
312.443787 172.0
320.133423 140.0
320.199341 172.0
320.559174 156.0
320.992767 108.0
321.207153 14236.0
321.315063 160.0
321.861389 112.0
322.209595 2648.0
322.298889 188.0
323.213348 584.0
324.19342 112.0
337.977753 128.0
338.316345 152.0
339.217773 8264.0
340.118225 108.0
340.218506 2436.0
340.379242 104.0
340.839691 156.0
341.222656 132.0
341.280762 176.0
342.33609 140.0
349.149841 164.0
491.969788 148.0
1297.773315 220.0
1366.479736 224.0
1453.474731 200.0
1461.501221 164.0
1526.990601 152.0
1529.511597 144.0
1594.100098 156.0
1681.338135 140.0
1692.954956 244.0
1768.714722 148.0
1775.425781 212.0
1777.145386 180.0
1795.280884 240.0
1887.18396 152.0
1895.207397 144.0
1898.579468 172.0
1903.473755 152.0
1920.051514 212.0
1943.179443 176.0
1946.418213 172.0
1951.786987 144.0
1995.190063 152.0
