>compound MLS000863641-01!
>formula C28H32O8
>ionization [M+H]+
>parentmass 497.218
#inchi InChI=1S/C28H32O8/c1-7-9-11-13-16(29)18-20-21(28(6)22(31)15(3)24(33)36-28)19(17(30)14-12-10-8-2)26(4,23(18)32)25(34)27(20,5)35/h7-14,19-21,32-33,35H,1-6H3/b9-7+,10-8+,13-11+,14-12+/t19-,20-,21-,26-,27?,28+/m1/s1
#inchikey WHVXMJOXKCTZQN
#Ion_Source LC-ESI
#Instrument qTof
#Compound_Source NIH Natural Product Library
#PI Dorrestein
#Data_Collector VVP/LMS
#Scan -1
#Precursor_MZ 497.218
#ExactMass 496.21
#Charge 1
#CAS_Number N/A
#Pubmed_ID N/A
#Smiles C/C=C/C=C/C(=O)[C@@H]1[C@H]([C@H]2C(=C(O)[C@]1(C)C(=O)C2(C)O)C(=O)\C=C\C=C\C)[C@]3(C)OC(=C(C)C3=O)O
#INCHI_AUX N/A
#Library_Class 1
#SpectrumID CCMSLIB00000079988
#IonMode Positive
#UpdateWorkflowName UPDATE-SINGLE-ANNOTATED-GOLD
#LibraryQualityString Gold
#TaskID b1d8e8f6646f4e71acdff9ca3d919d08
##Scan# 2054
#SpectrumFile p2-F02_GF2_01_18038.mzXML
#LibraryName NIH_Natural_Products_Library.mgf
#MQScore -1
#Organism NIH_Natural_Products_Library
#TIC_Query 0
#RT_Query -1
#MZErrorPPM -1
#SharedPeaks 0
#MassDiff 0
#LibMZ -1
#SpecMZ 497.218
#SpecCharge 0
#internalFilename spec-00000.mgf

>collision 10
95.045914 416.0
96.05542 168.0
96.285965 180.0
96.491142 116.0
97.598938 124.0
98.635948 192.0
98.655716 168.0
99.237778 148.0
101.334572 148.0
101.50695 136.0
102.598732 116.0
103.842339 164.0
104.406944 188.0
106.007462 84.0
106.025909 212.0
106.337646 120.0
107.779198 152.0
110.74588 204.0
111.389832 192.0
111.505402 156.0
111.801933 148.0
114.450165 160.0
116.398163 268.0
117.004494 116.0
117.038948 148.0
118.33445 180.0
118.442726 136.0
119.513023 244.0
120.042343 148.0
120.251778 204.0
120.339096 192.0
120.973114 140.0
121.163635 76.0
121.503456 68.0
122.638153 152.0
124.094978 176.0
125.725494 104.0
126.14093 120.0
126.541382 96.0
128.248688 160.0
128.650223 136.0
128.815063 96.0
130.683167 180.0
130.944962 180.0
130.963181 136.0
131.035156 452.0
131.16597 144.0
132.041748 200.0
132.21434 164.0
132.683914 144.0
132.718307 36.0
133.041809 120.0
134.854675 232.0
137.472092 232.0
138.568741 116.0
138.678879 160.0
139.552155 40.0
141.29512 152.0
142.361755 212.0
142.818085 80.0
145.936569 156.0
146.025543 148.0
146.054337 272.0
146.304672 128.0
147.063995 124.0
149.059586 236.0
149.419449 44.0
153.712311 200.0
154.191406 128.0
156.040634 168.0
156.847214 48.0
157.049179 164.0
157.278732 56.0
157.480988 208.0
159.485474 148.0
160.835571 240.0
161.007263 108.0
161.343323 152.0
162.713943 36.0
163.021286 184.0
163.084824 128.0
163.723434 128.0
164.580246 128.0
164.80246 216.0
167.988571 156.0
168.042435 640.0
168.151138 32.0
168.9263 92.0
169.041641 360.0
170.276733 136.0
170.448196 204.0
171.066757 192.0
171.254684 176.0
171.434448 184.0
174.060837 188.0
175.13649 200.0
175.265579 112.0
175.803513 208.0
176.289429 120.0
176.313202 32.0
176.516769 208.0
176.831573 140.0
178.051147 116.0
178.35936 144.0
178.609314 200.0
178.896698 128.0
178.987228 188.0
179.336212 264.0
180.299713 172.0
180.572403 60.0
181.308655 164.0
182.05809 128.0
183.062912 104.0
183.583008 172.0
184.066055 252.0
185.080048 172.0
185.275055 160.0
185.958389 156.0
185.988251 244.0
186.007248 120.0
186.354874 180.0
186.545105 252.0
187.034744 164.0
187.715851 76.0
189.032532 144.0
189.100952 132.0
189.287109 156.0
189.832428 128.0
190.046387 164.0
190.175369 176.0
190.639511 76.0
191.517166 136.0
192.112579 156.0
194.922836 80.0
196.086105 64.0
196.94545 184.0
197.068375 148.0
198.308075 80.0
198.397781 92.0
199.804794 96.0
199.90889 124.0
200.911972 188.0
201.335373 196.0
201.795959 36.0
202.242935 144.0
203.067444 208.0
203.919205 132.0
204.175079 168.0
204.98642 152.0
205.439758 152.0
207.613571 52.0
207.705353 220.0
208.009521 60.0
209.084488 116.0
210.584198 212.0
210.664581 132.0
210.988251 68.0
211.020065 168.0
211.083694 9356.0
211.176208 36.0
211.26915 92.0
211.303497 160.0
211.335327 48.0
211.491592 76.0
211.517654 80.0
211.613556 92.0
211.647934 128.0
211.766663 32.0
211.810104 52.0
211.897018 48.0
212.041901 156.0
212.088715 2828.0
212.154953 172.0
212.265121 84.0
212.415939 40.0
212.529617 44.0
212.549393 88.0
212.836761 76.0
212.857086 144.0
212.915176 96.0
213.095474 176.0
213.292877 176.0
213.578278 108.0
213.627289 112.0
213.656387 60.0
213.68985 136.0
213.720398 112.0
213.758224 136.0
213.813507 56.0
213.895004 128.0
214.573776 52.0
214.669998 260.0
215.093048 140.0
215.288666 40.0
215.832199 92.0
217.414062 92.0
220.122391 100.0
220.574417 160.0
222.850449 144.0
223.052536 100.0
224.076263 164.0
224.618835 152.0
226.00206 44.0
226.058914 164.0
226.564926 204.0
228.167542 40.0
229.001068 28.0
229.091446 876.0
229.296341 168.0
229.627975 40.0
229.851227 60.0
230.061279 232.0
230.102417 180.0
230.328232 116.0
230.851089 88.0
231.295837 84.0
232.262451 132.0
233.57164 196.0
234.433258 132.0
235.086166 200.0
236.213272 72.0
237.797409 84.0
239.071014 260.0
239.257523 128.0
240.012375 128.0
240.08638 140.0
241.092804 232.0
242.076553 156.0
242.311966 164.0
242.662186 72.0
242.891678 160.0
243.099548 124.0
243.70816 52.0
244.102921 136.0
245.189392 88.0
245.223679 124.0
245.58223 160.0
245.725723 128.0
247.573257 240.0
247.742218 128.0
247.798615 84.0
248.075684 672.0
248.290756 100.0
248.58107 208.0
249.059708 128.0
249.788971 108.0
250.579147 208.0
251.127655 148.0
251.149734 156.0
252.109528 152.0
253.172485 220.0
253.32135 172.0
253.758698 68.0
254.015564 144.0
254.102036 2604.0
254.358276 36.0
254.745682 52.0
254.828293 60.0
255.057098 48.0
255.105286 668.0
255.817352 44.0
255.986099 140.0
256.103943 112.0
256.148529 132.0
256.288727 48.0
256.438507 60.0
256.604248 52.0
256.811523 84.0
257.050812 156.0
257.079468 200.0
257.086243 196.0
258.009003 156.0
258.088928 72.0
259.068298 176.0
259.103546 36.0
259.228485 204.0
259.465698 104.0
259.590729 184.0
259.770355 84.0
260.373779 148.0
260.588989 164.0
261.092529 204.0
262.404236 200.0
263.498352 152.0
265.087311 272.0
266.094177 520.0
267.07074 60.0
267.096741 108.0
267.122772 136.0
267.588135 200.0
267.715149 92.0
267.819366 196.0
268.089783 120.0
268.653839 152.0
269.094421 192.0
271.083191 108.0
271.479828 96.0
272.737305 152.0
274.096497 180.0
275.023224 144.0
275.102051 468.0
275.165161 136.0
275.604736 460.0
276.225983 112.0
276.601715 188.0
277.096649 200.0
277.520905 76.0
277.749725 36.0
279.104706 200.0
282.085297 184.0
285.111908 48.0
285.461548 192.0
286.09021 736.0
287.094025 500.0
287.118408 124.0
287.368042 68.0
288.114166 156.0
289.087677 192.0
289.362122 124.0
290.073547 140.0
291.621368 196.0
293.197174 172.0
294.507294 120.0
295.878571 128.0
297.105469 188.0
297.871002 132.0
297.932831 160.0
298.341797 92.0
298.623749 164.0
300.397675 52.0
300.76001 160.0
301.23996 52.0
302.591583 188.0
304.263245 112.0
305.291748 112.0
305.966797 152.0
307.089264 168.0
307.374908 188.0
308.094147 112.0
310.600586 148.0
311.64325 44.0
312.592651 80.0
314.107605 84.0
315.110199 156.0
315.621521 152.0
316.613556 212.0
317.116638 148.0
317.343536 140.0
317.623688 152.0
317.925262 60.0
318.244751 168.0
318.38324 124.0
318.759796 164.0
323.141968 136.0
323.61441 208.0
323.750488 124.0
324.117004 192.0
324.434845 104.0
324.615784 348.0
324.642822 156.0
325.112762 172.0
325.324554 132.0
325.407104 104.0
325.963867 108.0
327.323578 68.0
327.899963 184.0
328.127075 224.0
328.870178 112.0
329.614136 216.0
330.116608 176.0
330.618256 228.0
330.974213 112.0
331.169769 256.0
336.122467 196.0
336.628693 184.0
337.180328 92.0
337.575134 172.0
338.142181 200.0
338.277618 200.0
339.09079 192.0
343.444092 136.0
343.783508 232.0
344.208008 188.0
344.562592 144.0
344.621704 168.0
345.497955 80.0
345.634827 144.0
347.135071 116.0
347.487427 152.0
348.633942 152.0
350.663116 72.0
350.87561 80.0
351.126465 192.0
351.18512 104.0
351.468628 156.0
351.60672 144.0
351.655212 148.0
351.714935 132.0
351.972534 68.0
352.152985 224.0
352.387146 72.0
352.626312 144.0
353.647369 160.0
354.077942 128.0
358.122955 40.0
359.261353 156.0
361.199249 124.0
362.702515 80.0
363.836761 164.0
364.752258 136.0
365.029816 44.0
365.360718 84.0
365.627075 48.0
368.295959 152.0
370.3078 184.0
370.660248 128.0
370.890198 152.0
371.323456 56.0
371.453888 108.0
371.626526 212.0
372.202271 124.0
372.632446 156.0
375.330597 84.0
375.492554 116.0
375.997955 144.0
376.353088 44.0
377.187561 136.0
377.353821 160.0
378.108124 196.0
378.641602 156.0
378.801178 124.0
379.126648 336.0
380.620148 156.0
380.697815 180.0
382.946503 100.0
385.2901 60.0
385.391663 124.0
387.390411 176.0
389.658417 176.0
390.133972 144.0
390.637329 192.0
391.357513 96.0
391.515045 132.0
393.135315 140.0
394.608643 156.0
394.640289 80.0
394.849884 116.0
396.263031 84.0
396.754486 140.0
396.996338 48.0
397.821625 180.0
397.9328 128.0
401.290802 120.0
401.585907 184.0
402.032745 88.0
404.815063 28.0
406.237915 128.0
408.829498 180.0
409.12735 36.0
410.154572 236.0
411.271851 224.0
412.697906 148.0
412.863708 180.0
412.985046 132.0
414.13913 304.0
414.175049 184.0
416.836456 136.0
418.610046 132.0
418.658905 108.0
419.159637 244.0
420.522064 56.0
425.394867 88.0
427.102448 136.0
427.132904 112.0
427.896667 100.0
429.103821 156.0
434.152649 40.0
434.220703 116.0
434.625519 152.0
435.231537 144.0
435.584564 136.0
435.78717 104.0
436.661072 80.0
437.65567 76.0
437.876373 192.0
438.1763 36.0
438.759766 124.0
439.210114 48.0
439.656555 104.0
439.765076 96.0
439.873596 76.0
440.658722 56.0
440.792419 152.0
441.043182 116.0
441.093323 204.0
441.135132 148.0
441.461273 96.0
441.900452 136.0
442.067841 120.0
442.150696 10284.0
442.360809 84.0
442.48053 180.0
442.519897 88.0
442.620392 84.0
442.73764 60.0
442.804657 60.0
442.871674 40.0
442.924225 72.0
443.089478 48.0
443.153564 2628.0
443.307373 64.0
443.521118 48.0
443.709747 48.0
443.923615 52.0
444.150177 528.0
444.242371 52.0
444.452148 52.0
444.515076 48.0
444.63678 40.0
445.123749 188.0
445.174133 144.0
445.354736 48.0
445.652985 60.0
446.147614 708.0
446.296082 112.0
446.527374 72.0
446.652618 576.0
446.969086 112.0
447.049042 136.0
447.141937 108.0
447.156647 120.0
447.373138 56.0
447.5289 136.0
447.937408 148.0
448.034302 60.0
448.16333 128.0
449.062836 36.0
449.661926 68.0
450.645844 128.0
450.755707 168.0
451.147247 164.0
451.656219 148.0
451.690063 168.0
451.825439 88.0
452.16629 624.0
452.665344 172.0
452.845581 116.0
453.841461 108.0
454.638947 56.0
454.991241 212.0
455.15683 144.0
455.313965 108.0
455.364929 32.0
455.403137 136.0
455.793976 100.0
456.976196 96.0
457.095154 120.0
458.172363 180.0
458.513245 108.0
459.133789 180.0
459.164093 164.0
459.53241 60.0
459.617737 200.0
459.666016 64.0
459.916473 92.0
460.166077 76.0
460.322052 152.0
460.501404 100.0
461.193604 76.0
462.930573 164.0
463.273224 132.0
463.513153 28.0
466.109222 144.0
466.166656 432.0
466.681915 220.0
467.177704 184.0
467.381989 192.0
467.668762 188.0
468.777161 56.0
469.147827 44.0
469.195251 120.0
469.229736 168.0
469.583344 80.0
469.74292 36.0
470.131226 72.0
470.213226 168.0
472.992432 148.0
475.137512 108.0
476.431244 156.0
476.761475 148.0
478.14444 100.0
478.592804 96.0
479.472748 92.0
481.200134 192.0
482.231049 180.0
483.21933 88.0
487.028809 156.0
487.411041 124.0
487.569214 72.0
488.980988 88.0
489.082214 52.0
489.195129 128.0
489.60614 88.0
490.099518 52.0
490.284576 120.0
490.434448 56.0
490.540222 28.0
490.888519 100.0
491.117859 188.0
491.161987 76.0
491.298737 144.0
491.506073 76.0
491.581116 100.0
491.660522 44.0
492.459656 88.0
492.50824 60.0
492.79538 92.0
492.972137 148.0
493.24173 128.0
494.193726 420.0
494.705109 384.0
495.095581 72.0
495.207733 248.0
495.513428 156.0
495.5784 60.0
495.653717 132.0
495.692047 116.0
495.727295 120.0
495.830994 140.0
495.928497 116.0
495.968384 148.0
496.003845 120.0
496.12796 44.0
496.281738 212.0
496.392059 172.0
496.602417 196.0
496.65567 152.0
496.775421 96.0
497.041626 60.0
497.084167 272.0
497.206238 21404.0
497.353455 72.0
497.396667 136.0
497.43219 104.0
497.463135 100.0
497.512085 92.0
497.578674 44.0
497.618652 44.0
497.649719 64.0
497.689667 88.0
497.750031 264.0
497.856232 288.0
497.933929 164.0
497.975677 80.0
498.008667 56.0
498.050323 76.0
498.102692 60.0
498.208954 7540.0
498.306122 76.0
498.349274 48.0
498.383972 184.0
498.463318 48.0
498.498108 88.0
498.539917 108.0
498.603607 160.0
498.670898 144.0
498.840973 68.0
498.893677 140.0
498.956879 56.0
499.004822 140.0
499.117554 80.0
499.214111 1184.0
499.279633 80.0
499.296082 64.0
499.342804 124.0
499.387268 188.0
499.422852 28.0
499.485138 184.0
499.671967 40.0
499.938934 56.0
499.979004 52.0
500.210358 432.0
500.4375 48.0
500.539886 44.0
500.637878 68.0
500.851654 76.0
500.936279 120.0
500.967468 92.0
501.052094 136.0
501.118927 140.0
501.230316 128.0
501.364014 56.0
501.430878 44.0
501.497009 76.0
501.774109 64.0
502.071991 132.0
502.220032 72.0
502.438599 156.0
502.782196 40.0
503.027679 60.0
503.067841 92.0
503.965546 60.0
504.711975 84.0
505.016083 52.0
505.136505 104.0
506.103546 68.0
506.923248 52.0
507.317688 88.0
510.896851 60.0
512.522156 80.0
513.320007 84.0
513.649231 72.0
514.326111 48.0
515.170532 92.0
515.37384 88.0
516.779968 80.0
517.630981 52.0
522.273743 52.0
523.202026 60.0
528.564941 88.0
552.846924 92.0
588.864258 36.0
589.216858 132.0
597.205627 96.0
618.991455 144.0
623.466003 64.0
629.274109 128.0
658.514038 36.0
678.251831 152.0
683.8927 28.0
686.190002 48.0
687.008789 64.0
692.230164 68.0
701.661682 144.0
701.7724 56.0
712.925476 100.0
721.245178 108.0
723.914856 56.0
732.325134 72.0
737.969788 60.0
750.594055 60.0
766.710876 120.0
769.231506 64.0
784.319458 80.0
794.597839 76.0
818.262085 104.0
852.075256 116.0
854.796387 36.0
856.449768 108.0
861.694153 80.0
868.296997 56.0
872.989319 72.0
888.250916 40.0
924.506714 64.0
958.620117 80.0
973.615601 76.0
1073.805664 128.0
1136.758789 48.0
1157.446289 88.0
1201.456665 68.0
1318.704468 216.0
1330.635132 172.0
1388.05188 168.0
1405.360474 128.0
1411.156372 120.0
1414.709961 116.0
1452.387329 80.0
1458.248901 84.0
1500.897339 140.0
1502.02417 188.0
