>compound Sorafenib (Nexavar)
>formula C21H16ClF3N4O3
>ionization [M+H]+
>parentmass 465.094513
#inchi InChI=1S/C21H16ClF3N4O3/c1-26-19(30)18-11-15(8-9-27-18)32-14-5-2-12(3-6-14)28-20(31)29-13-4-7-17(22)16(10-13)21(23,24)25/h2-11H,1H3,(H,26,30)(H2,28,29,31)
#inchikey MLDQJTXFUGDVEO
#origInchi InChI=1S/C21H16ClF3N4O3.C7H8O3S/c1-26-19(30)18-11-15(8-9-27-18)32-14-5-2-12(3-6-14)28-20(31)29-13-4-7-17(22)16(10-13)21(23,24)25;1-6-2-4-7(5-3-6)11(8,9)10/h2-11H,1H3,(H,26,30)(H2,28,29,31);2-5H,1H3,(H,8,9,10)
#Ion_Source LC-ESI
#Instrument qTof
#Compound_Source Commercial
#PI Dorrestein
#Data_Collector Garg_Neha
#Scan -1
#Precursor_MZ 465.094
#ExactMass 464.086
#Charge 1
#CAS_Number 475207-59-1, 284461-73-0 (free base)
#Pubmed_ID N/A
#Smiles C1(=CC=C(C=C1C(F)(F)F)NC(NC2=CC=C(C=C2)OC3=CC=NC(=C3)C(NC)=O)=O)Cl.C4=CC(=CC=C4S(O)(=O)=O)C
#INCHI_AUX N/A
#Library_Class 1
#SpectrumID CCMSLIB00000078009
#IonMode Positive
#UpdateWorkflowName UPDATE-SINGLE-ANNOTATED-GOLD
#LibraryQualityString Gold
#TaskID 77f51c88eb8b467eb4a01dd2d0cb90d2
##Scan# 2319
#SpectrumFile Plate1_1_20_GG1_01_16488.mzXML
#LibraryName FDALibrary_2_04302014.mgf
#MQScore -1
#Organism FDALibrary_2_04302014
#TIC_Query 0
#RT_Query -1
#MZErrorPPM -1
#SharedPeaks 0
#MassDiff 0
#LibMZ -1
#SpecMZ 465.094
#SpecCharge 0
#internalFilename spec-00000.mgf

>collision 10
45.690014 140.0
45.700775 144.0
46.990711 152.0
47.453011 184.0
48.852097 160.0
49.84341 148.0
49.923538 164.0
50.068497 164.0
50.487656 176.0
50.986706 164.0
51.513916 168.0
52.801857 140.0
52.969761 156.0
54.341671 172.0
54.773899 152.0
55.008366 212.0
55.119137 176.0
56.680149 200.0
58.777599 180.0
59.175018 144.0
59.679825 152.0
59.722885 232.0
60.137371 208.0
60.344379 140.0
63.443024 356.0
63.665169 144.0
63.757313 148.0
64.759293 176.0
66.250977 156.0
66.406593 168.0
67.308205 152.0
69.237274 188.0
69.758286 244.0
71.612381 140.0
73.591499 144.0
74.657372 140.0
75.403893 216.0
75.576828 176.0
77.478165 140.0
77.923805 140.0
77.997612 220.0
78.751778 152.0
78.880775 144.0
79.362335 196.0
79.971687 160.0
80.435143 228.0
80.851608 148.0
81.405571 140.0
81.869553 156.0
82.073181 160.0
84.813057 148.0
86.139816 176.0
86.750504 144.0
89.723145 196.0
90.983177 192.0
91.496498 144.0
91.961632 244.0
92.204201 176.0
93.058578 168.0
93.258369 268.0
93.79541 184.0
94.593216 196.0
94.959442 200.0
95.577232 160.0
97.059853 208.0
97.102997 232.0
97.686386 172.0
100.075256 148.0
100.117073 168.0
100.276459 228.0
102.172836 152.0
104.111343 168.0
104.758171 192.0
106.217766 152.0
107.542931 140.0
108.521461 176.0
108.905388 160.0
108.94693 168.0
109.250465 240.0
111.019669 192.0
113.014587 164.0
113.448769 152.0
114.106926 164.0
114.379234 192.0
115.108398 176.0
115.157516 288.0
115.448189 180.0
117.467224 224.0
118.375 212.0
120.137772 204.0
121.226669 140.0
121.753189 140.0
122.388725 176.0
122.514267 144.0
122.809662 144.0
123.875122 164.0
124.482857 188.0
124.520607 256.0
124.940742 216.0
125.93943 180.0
126.556679 168.0
127.01387 148.0
127.314636 96.0
128.056839 216.0
128.237091 160.0
128.469345 152.0
128.640854 168.0
128.715363 204.0
128.948059 168.0
130.069153 156.0
130.384995 180.0
130.723862 176.0
131.069992 192.0
131.240952 232.0
131.318497 204.0
131.368668 164.0
132.06311 220.0
132.343567 196.0
133.027817 200.0
133.549454 180.0
134.152771 172.0
136.063736 236.0
136.372711 244.0
136.5215 184.0
137.390335 156.0
137.609726 140.0
138.878128 168.0
138.946152 152.0
140.04747 192.0
140.385727 204.0
140.461197 188.0
140.771606 156.0
141.306961 164.0
142.065109 196.0
143.058487 160.0
143.303787 180.0
143.492081 164.0
144.040985 196.0
144.079208 212.0
145.053223 212.0
145.165909 144.0
145.273849 196.0
145.314636 144.0
145.545059 180.0
146.30484 192.0
146.671005 160.0
146.941101 140.0
148.994522 196.0
149.979797 148.0
150.230972 144.0
150.951523 168.0
151.122742 140.0
151.392014 140.0
151.63829 136.0
151.705643 152.0
151.999969 156.0
152.051514 160.0
153.064926 176.0
153.490677 160.0
153.574524 168.0
154.067413 344.0
154.589966 140.0
155.060898 484.0
155.157196 144.0
155.447418 172.0
155.633591 156.0
156.044342 884.0
156.078369 140.0
156.118164 160.0
156.576096 160.0
157.041275 284.0
157.076416 408.0
157.109528 196.0
157.961411 144.0
158.081512 144.0
158.47464 200.0
158.49469 200.0
158.780487 156.0
158.931 216.0
158.986206 144.0
159.021347 196.0
159.056488 176.0
160.03949 156.0
160.644379 168.0
161.048264 144.0
161.078583 208.0
164.032654 128.0
165.167969 232.0
165.457947 192.0
165.598785 204.0
166.042191 156.0
167.036987 136.0
167.198334 144.0
167.790802 156.0
167.912003 264.0
168.004868 156.0
168.045364 404.0
169.038391 144.0
169.134155 188.0
169.214417 152.0
169.652252 160.0
169.911606 220.0
170.061325 348.0
170.844299 144.0
171.059097 180.0
171.359787 192.0
172.071838 140.0
172.484604 192.0
173.070648 192.0
173.094208 156.0
173.204208 228.0
174.356079 184.0
175.211273 192.0
175.36412 196.0
175.474838 184.0
175.936554 184.0
176.007782 1372.0
176.134613 168.0
177.008438 160.0
177.616989 140.0
177.834564 168.0
178.004059 288.0
178.312653 144.0
178.943115 144.0
178.991043 148.0
179.337387 236.0
179.396027 200.0
179.481354 140.0
179.852188 160.0
180.346344 164.0
180.413177 164.0
181.028595 208.0
182.05304 188.0
182.235703 172.0
183.054779 512.0
183.951279 144.0
184.05545 168.0
184.221329 200.0
184.574219 192.0
184.661942 208.0
185.070221 1068.0
186.037781 196.0
186.072647 136.0
186.581863 208.0
186.840225 176.0
187.078918 148.0
189.09697 224.0
189.272186 140.0
189.614624 164.0
189.932693 208.0
190.021805 264.0
190.772995 196.0
191.149811 152.0
193.014801 988.0
193.471115 188.0
193.667725 160.0
194.021286 348.0
195.012695 864.0
195.461227 172.0
196.012161 652.0
196.687531 248.0
197.005035 240.0
198.009521 332.0
198.053925 1256.0
199.005615 144.0
199.058548 160.0
199.087158 380.0
199.129181 196.0
199.157257 248.0
199.834778 152.0
200.093719 140.0
200.4599 188.0
201.05777 140.0
201.902512 160.0
201.986374 8924.0
202.264679 144.0
202.457214 144.0
202.944626 152.0
202.986969 976.0
203.081406 1708.0
203.174362 148.0
203.982758 2768.0
204.073135 648.0
204.401825 208.0
204.98671 548.0
206.092773 192.0
207.01387 184.0
207.584152 176.0
207.68454 160.0
208.320328 124.0
209.08667 160.0
209.137817 172.0
209.187424 160.0
209.236359 180.0
210.349167 196.0
210.404007 164.0
210.993393 152.0
211.049637 5412.0
211.574921 192.0
211.64151 156.0
212.054703 760.0
212.606842 204.0
212.720047 152.0
212.914581 184.0
213.057877 324.0
213.946854 148.0
214.007996 156.0
214.223511 212.0
214.99913 204.0
216.021805 168.0
217.05571 164.0
218.206726 144.0
220.130875 196.0
220.579971 200.0
221.455841 160.0
221.924088 156.0
222.304749 116.0
222.642212 156.0
223.35556 176.0
223.456711 172.0
225.06459 1148.0
225.891159 152.0
226.097763 4420.0
227.053345 140.0
227.098862 632.0
227.454575 172.0
227.800751 148.0
228.098251 160.0
228.763077 144.0
228.981796 120.0
229.06041 8432.0
230.064072 1284.0
230.616333 152.0
231.02504 160.0
231.814514 216.0
232.244247 204.0
232.845215 144.0
232.893814 148.0
233.078491 132.0
234.616211 152.0
236.00705 128.0
236.08493 180.0
236.997162 140.0
237.053116 168.0
238.553223 148.0
239.041275 468.0
239.337784 148.0
240.026123 200.0
240.050781 180.0
240.433426 136.0
240.978745 204.0
241.046722 140.0
241.198166 144.0
241.423874 164.0
242.030396 168.0
243.037811 172.0
243.094162 156.0
243.668121 216.0
244.108307 2428.0
244.153046 160.0
244.534317 132.0
245.062027 176.0
245.114792 272.0
245.601364 156.0
245.729263 172.0
245.832245 164.0
246.110062 180.0
246.350555 188.0
247.226059 160.0
247.263611 152.0
247.288651 148.0
248.002792 180.0
249.519058 152.0
250.768799 152.0
251.039932 248.0
251.409042 140.0
251.541611 156.0
251.705795 172.0
251.989731 168.0
252.02916 300.0
252.077301 23580.0
252.317917 108.0
252.673004 176.0
253.014816 112.0
253.078064 3516.0
254.078873 332.0
254.651474 180.0
255.277191 244.0
257.017426 180.0
257.054138 572.0
257.687012 140.0
258.068848 212.0
258.704071 144.0
259.073303 164.0
259.485779 160.0
260.487091 168.0
260.64325 152.0
261.670593 148.0
262.105438 172.0
264.605469 156.0
265.383087 160.0
266.052124 216.0
266.395691 172.0
266.428192 196.0
266.603668 188.0
267.301788 212.0
267.911713 224.0
269.026123 264.0
269.062988 164.0
269.457245 100.0
269.935394 140.0
270.026978 160.0
270.086945 11060.0
270.155365 160.0
270.471954 188.0
271.011505 268.0
271.091156 2056.0
271.13031 168.0
271.603424 152.0
271.74353 140.0
271.861023 220.0
272.027588 152.0
272.092102 468.0
272.245758 160.0
272.577576 184.0
272.748474 204.0
273.024841 220.0
273.291107 144.0
273.83429 144.0
274.026886 112.0
274.919006 192.0
274.942108 156.0
275.060547 180.0
275.553009 164.0
275.820679 140.0
276.031097 224.0
277.032318 172.0
278.940033 148.0
279.851593 168.0
280.771332 196.0
282.789368 164.0
283.22467 192.0
283.888275 208.0
284.016907 128.0
285.369141 208.0
285.786224 236.0
286.012299 180.0
287.019073 200.0
288.091736 148.0
289.056122 316.0
290.177185 140.0
290.258575 188.0
290.685974 140.0
290.770844 220.0
291.212219 140.0
292.422668 140.0
292.838043 200.0
293.02121 140.0
293.209412 144.0
294.041626 268.0
294.693878 180.0
295.586334 148.0
296.007385 140.0
296.894989 160.0
298.062164 192.0
298.945953 168.0
299.355621 180.0
299.414154 148.0
300.938385 164.0
301.131775 172.0
302.07196 140.0
303.315155 224.0
303.557831 180.0
303.849213 140.0
304.011597 136.0
304.053833 120.0
304.217102 160.0
304.678986 156.0
304.943085 140.0
306.017914 136.0
306.362823 176.0
306.878662 220.0
307.021637 176.0
307.168121 176.0
307.792847 176.0
307.995422 160.0
308.764374 160.0
309.663879 156.0
309.782959 152.0
309.989685 216.0
311.561646 164.0
313.990509 188.0
314.040375 168.0
314.078674 208.0
314.10434 176.0
315.505371 152.0
316.931732 152.0
317.045135 140.0
318.691711 164.0
319.040009 140.0
320.524231 196.0
320.648956 184.0
321.308655 152.0
321.394287 176.0
322.440643 160.0
323.063019 144.0
323.105774 232.0
325.460602 156.0
325.72998 148.0
325.852112 156.0
326.197144 216.0
327.07486 160.0
328.072723 148.0
329.028778 164.0
329.093781 220.0
329.46579 152.0
329.780182 208.0
329.942841 148.0
330.0513 156.0
331.756653 152.0
332.195435 144.0
333.509979 192.0
333.717194 204.0
334.259186 140.0
335.935211 148.0
336.22348 160.0
337.023224 176.0
337.313141 272.0
337.864166 140.0
340.172974 140.0
341.041016 168.0
342.080902 176.0
342.471954 140.0
343.086487 136.0
343.750549 140.0
343.938782 156.0
344.038452 216.0
344.086456 144.0
344.348633 144.0
344.544403 172.0
345.557465 184.0
346.027283 132.0
346.701691 144.0
348.078003 164.0
348.115143 192.0
348.345337 192.0
348.598083 168.0
349.810608 244.0
350.073822 664.0
351.051849 156.0
352.335388 188.0
352.896027 252.0
352.967072 160.0
353.08313 128.0
353.36731 156.0
355.184265 192.0
355.491943 180.0
355.527985 188.0
357.55896 212.0
358.05423 488.0
358.168915 168.0
359.027924 260.0
359.194244 140.0
360.477966 192.0
361.032776 168.0
362.032806 416.0
362.180511 192.0
363.042755 160.0
363.34433 156.0
363.534058 148.0
364.054138 164.0
364.464417 176.0
365.062775 168.0
366.04306 240.0
366.923248 180.0
367.403778 140.0
368.065582 104.0
368.736481 140.0
369.042297 156.0
370.02359 156.0
370.078369 1308.0
371.086639 1320.0
371.148285 232.0
371.799072 188.0
372.042267 148.0
372.087769 468.0
373.086121 136.0
373.225647 148.0
373.52179 164.0
375.682953 236.0
376.119019 144.0
376.991882 168.0
377.985748 148.0
378.062286 572.0
378.407654 180.0
378.655487 200.0
379.06427 168.0
379.461517 140.0
380.055817 332.0
381.06192 192.0
381.923676 140.0
382.040375 172.0
383.851532 172.0
385.244934 152.0
386.049713 3856.0
386.736725 172.0
387.052887 1640.0
388.044159 1500.0
389.045898 344.0
390.048798 184.0
390.363922 212.0
390.652802 108.0
390.839905 156.0
392.033112 156.0
394.788696 144.0
395.057648 156.0
397.26825 180.0
398.27652 172.0
398.924255 216.0
399.039551 220.0
399.194641 160.0
399.707794 208.0
400.064819 172.0
401.679993 172.0
403.641022 152.0
404.33313 176.0
405.770538 168.0
405.907043 164.0
406.055298 11928.0
406.376862 144.0
406.668945 164.0
407.000244 144.0
407.059875 3212.0
407.85141 140.0
408.054047 4056.0
408.445862 276.0
409.050964 728.0
410.059601 308.0
410.267029 120.0
410.378967 160.0
415.058411 152.0
415.686096 148.0
416.880035 172.0
417.457306 184.0
419.423828 160.0
419.635834 144.0
420.917084 200.0
421.889526 180.0
422.763245 204.0
423.534576 144.0
424.079559 144.0
425.082062 988.0
425.996094 144.0
426.028748 200.0
426.080322 272.0
426.5383 168.0
427.079498 692.0
427.467834 180.0
428.055573 160.0
428.732117 140.0
429.074249 192.0
429.202087 156.0
429.829071 160.0
430.035431 184.0
430.208801 204.0
431.642517 144.0
432.00238 152.0
432.192688 204.0
433.066223 144.0
434.591827 156.0
434.708008 172.0
436.864471 212.0
437.355499 152.0
439.001251 176.0
439.531036 200.0
439.892212 104.0
441.281189 156.0
441.791443 224.0
442.130371 152.0
442.653656 140.0
442.682983 176.0
443.055756 172.0
444.804535 160.0
445.081207 620.0
445.673889 232.0
446.087738 124.0
447.083191 4468.0
447.902985 172.0
448.082794 1128.0
449.077881 1456.0
449.862701 140.0
450.07724 416.0
451.074615 264.0
451.330658 168.0
452.072266 168.0
452.430756 140.0
452.5112 188.0
453.176178 156.0
453.748352 160.0
453.913727 140.0
456.227783 196.0
456.572205 208.0
459.720551 200.0
459.955292 168.0
460.715424 156.0
460.817963 180.0
461.223969 140.0
461.745605 168.0
462.222015 300.0
462.447296 196.0
462.81546 176.0
463.045959 180.0
463.206848 424.0
463.355164 148.0
463.407532 176.0
463.470856 148.0
463.532562 120.0
463.63446 160.0
463.828461 108.0
463.965698 164.0
464.031891 172.0
464.096924 128.0
464.184631 148.0
464.232025 240.0
464.276428 152.0
464.340149 160.0
464.429626 108.0
464.509003 304.0
464.569641 184.0
464.658539 232.0
464.733307 196.0
464.785645 116.0
464.816589 268.0
464.873444 240.0
464.930786 224.0
464.963348 304.0
465.00885 176.0
465.094513 116088.0
465.235443 516.0
465.300385 180.0
465.361359 144.0
465.421356 116.0
465.471283 240.0
465.58783 120.0
465.702637 200.0
465.755402 204.0
465.897522 144.0
466.020386 196.0
466.096222 29812.0
466.260132 136.0
466.369354 188.0
466.424194 200.0
466.524933 200.0
466.556488 112.0
466.602081 188.0
466.644012 176.0
466.841064 144.0
467.091827 34188.0
467.191071 188.0
467.255524 164.0
467.481628 216.0
467.524475 124.0
467.590363 168.0
467.716705 260.0
467.910583 164.0
467.993896 184.0
468.093658 7432.0
468.165131 220.0
468.324677 144.0
468.413727 184.0
468.465515 132.0
468.502563 208.0
468.577087 100.0
468.726013 224.0
468.84552 152.0
468.957275 176.0
468.99585 176.0
469.098267 1032.0
469.21286 124.0
469.251862 112.0
470.059509 192.0
470.695831 112.0
470.755768 192.0
470.946716 136.0
471.019318 112.0
471.661682 100.0
471.916809 96.0
479.717987 156.0
483.098114 116.0
486.443481 124.0
576.436157 192.0
609.247009 156.0
869.93396 104.0
1409.991333 208.0
1561.911499 180.0
1571.262573 184.0
1603.665283 196.0
1604.143555 180.0
1608.092041 172.0
1756.905396 196.0
1788.843506 176.0
1845.724609 144.0
1855.622925 140.0
1900.770264 180.0
1913.312744 184.0
1937.355957 140.0
1955.982056 180.0
1956.078979 148.0
1963.665649 152.0
1965.085938 232.0
