>compound NCGC00160247-01!STEPHENANTHRINE
>formula C19H19NO2
>ionization [M+H]+
>parentmass 294.148376
#inchi InChI=1S/C19H19NO2/c1-20(2)10-9-14-11-17-19(22-12-21-17)18-15-6-4-3-5-13(15)7-8-16(14)18/h3-8,11H,9-10,12H2,1-2H3
#inchikey FXTBDJZGDJJCQU
#Ion_Source LC-ESI
#Instrument qTOF
#Compound_Source Prestwick Phytochem Lib
#PI Dorrestein
#Data_Collector VVP/LMS
#Scan -1
#Precursor_MZ 294.149
#ExactMass 293.142
#Charge 1
#CAS_Number N/A
#Pubmed_ID N/A
#Smiles CN(C)CCC1=CC2=C(OCO2)C3=C1C=CC4=C3C=CC=C4
#INCHI_AUX N/A
#Library_Class 1
#SpectrumID CCMSLIB00000078790
#IonMode Positive
#UpdateWorkflowName UPDATE-SINGLE-ANNOTATED-GOLD
#LibraryQualityString Gold
#TaskID 67c915c6594c435cadc1fe2b5358144d
##Scan# 1799
#SpectrumFile p1-B04_GB4_01_17888.mzXML
#LibraryName phytochem_lib.mgf
#MQScore -1
#Organism phytochem_lib
#TIC_Query 0
#RT_Query -1
#MZErrorPPM -1
#SharedPeaks 0
#MassDiff 0
#LibMZ -1
#SpecMZ 294.149
#SpecCharge 0
#internalFilename spec-00000.mgf

>collision 10
94.972443 128.0
94.977028 168.0
95.001785 104.0
95.019241 108.0
95.042526 96.0
95.056107 108.0
95.139565 160.0
95.160919 140.0
95.191696 164.0
95.225006 184.0
95.242485 104.0
95.269676 124.0
95.296875 536.0
95.315041 184.0
95.320801 64.0
95.333214 188.0
95.366837 188.0
95.401825 72.0
95.427094 96.0
95.468834 216.0
95.506828 92.0
95.522385 256.0
95.548058 164.0
95.578804 112.0
95.635246 204.0
95.652359 192.0
95.683357 156.0
95.722847 164.0
95.767639 172.0
95.811241 220.0
95.828026 96.0
95.851021 140.0
95.872849 140.0
95.901138 136.0
95.924294 152.0
95.930405 60.0
95.938477 184.0
95.9757 152.0
96.048454 172.0
96.073677 140.0
96.102936 116.0
96.159531 128.0
96.179047 112.0
96.192711 216.0
96.208168 224.0
96.231445 228.0
96.261459 208.0
96.304008 132.0
96.329773 252.0
96.352486 132.0
96.376801 92.0
96.395828 156.0
96.419281 36.0
96.46228 72.0
96.503334 196.0
96.528 144.0
96.560043 132.0
96.582329 140.0
96.599159 152.0
96.614159 128.0
96.644951 140.0
96.663727 100.0
96.727943 192.0
96.735031 156.0
96.779205 140.0
96.800751 132.0
96.843834 128.0
96.863312 220.0
96.870842 208.0
96.90834 220.0
96.917557 164.0
96.961388 180.0
96.984901 188.0
97.000587 52.0
97.063324 196.0
97.077049 176.0
97.103455 180.0
97.129593 192.0
97.149162 164.0
97.164497 116.0
97.171974 192.0
97.188858 140.0
97.203445 140.0
97.228996 220.0
97.247726 44.0
97.267357 144.0
97.294838 172.0
97.351776 136.0
97.381233 156.0
97.398643 208.0
97.442924 228.0
97.485359 40.0
97.519333 208.0
97.552773 188.0
97.578873 236.0
97.613235 156.0
97.665375 276.0
97.681793 136.0
97.705574 168.0
97.726112 200.0
97.754761 132.0
97.768539 268.0
97.786247 224.0
97.803963 176.0
97.825615 184.0
97.87307 112.0
97.894104 148.0
97.937851 36.0
97.979218 60.0
98.011673 176.0
98.038513 116.0
98.0672 148.0
98.073639 92.0
98.080399 140.0
98.09549 192.0
98.146751 252.0
98.168671 172.0
98.199989 100.0
98.25502 152.0
98.289261 192.0
98.319611 152.0
98.369682 200.0
98.398735 236.0
98.426933 96.0
98.456558 132.0
98.477654 176.0
98.521736 200.0
98.555321 104.0
98.584961 172.0
98.608986 232.0
98.691704 232.0
98.721367 120.0
98.738503 132.0
98.792572 184.0
98.812355 124.0
98.851921 184.0
98.923172 148.0
98.94426 184.0
99.024155 144.0
99.043716 192.0
99.06575 88.0
99.091614 168.0
99.107353 136.0
99.122482 264.0
99.152931 96.0
99.170509 184.0
99.201538 84.0
99.223976 120.0
99.241737 160.0
99.267639 172.0
99.283775 164.0
99.31353 136.0
99.357994 280.0
99.375023 208.0
99.391823 256.0
99.438522 76.0
99.456383 40.0
99.491974 172.0
99.519142 176.0
99.535797 144.0
99.600502 172.0
99.606895 100.0
99.612465 252.0
99.637093 216.0
99.675575 200.0
99.690735 68.0
99.714584 184.0
99.740425 152.0
99.776077 308.0
99.799545 216.0
99.824654 196.0
99.848236 124.0
99.86026 176.0
99.891029 108.0
99.933319 128.0
99.951233 132.0
99.985062 124.0
100.048599 212.0
100.095886 208.0
100.12336 188.0
100.138313 184.0
100.180122 120.0
100.187881 116.0
100.192673 104.0
100.207207 156.0
100.215019 232.0
100.250778 196.0
100.265381 164.0
100.295761 76.0
100.337433 172.0
100.357559 124.0
100.391457 144.0
100.406219 172.0
100.493462 200.0
100.511139 164.0
100.5448 148.0
100.625412 128.0
100.660851 156.0
100.690804 300.0
100.709435 148.0
100.756721 156.0
100.780212 148.0
100.809784 172.0
100.837982 168.0
100.846214 112.0
100.849762 256.0
100.88623 360.0
100.934242 200.0
100.948013 164.0
100.990601 296.0
101.014549 148.0
101.048607 132.0
101.13266 336.0
101.156677 96.0
101.176697 148.0
101.198006 112.0
101.240768 160.0
101.264801 120.0
101.289337 192.0
101.331352 232.0
101.356949 68.0
101.377426 220.0
101.413025 120.0
101.443771 212.0
101.483223 168.0
101.50528 160.0
101.584328 184.0
101.621613 136.0
101.687836 152.0
101.707787 132.0
101.72245 164.0
101.73774 204.0
101.776161 132.0
101.798248 108.0
101.824356 156.0
101.90873 176.0
101.926811 180.0
101.944893 280.0
101.97303 68.0
101.996834 176.0
102.04126 136.0
102.054558 288.0
102.099495 164.0
102.11779 228.0
102.164055 224.0
102.190208 172.0
102.240509 180.0
102.313553 124.0
102.354759 176.0
102.374649 120.0
102.391502 148.0
102.427666 184.0
102.448059 148.0
102.464012 196.0
102.472305 176.0
102.478996 216.0
102.523384 164.0
102.586456 176.0
102.617188 264.0
102.641937 188.0
102.671631 172.0
102.754333 52.0
102.801292 160.0
102.822937 204.0
102.84375 228.0
102.857246 364.0
102.877434 140.0
102.923866 156.0
102.940025 80.0
102.979111 180.0
103.024437 116.0
103.049095 116.0
103.079407 160.0
103.105675 40.0
103.167595 156.0
103.202705 80.0
103.218376 112.0
103.270561 180.0
103.288025 148.0
103.322952 140.0
103.345329 124.0
103.365997 224.0
103.399803 200.0
103.41732 132.0
103.459641 172.0
103.477295 184.0
103.496086 180.0
103.587219 200.0
103.635841 208.0
103.684425 168.0
103.708794 148.0
103.722984 132.0
103.737175 176.0
103.763527 160.0
103.83223 100.0
103.835228 156.0
103.873344 132.0
103.923752 200.0
103.950134 32.0
103.970421 120.0
103.984627 188.0
104.00087 144.0
104.029007 88.0
104.06134 304.0
104.086777 164.0
104.148911 136.0
104.179756 204.0
104.210327 220.0
104.234413 160.0
104.264702 236.0
104.356369 156.0
104.387199 148.0
104.430641 176.0
104.492798 148.0
104.527222 72.0
104.601738 152.0
104.635101 260.0
104.688034 236.0
104.702293 184.0
104.724693 140.0
104.742607 156.0
104.757515 176.0
104.773026 132.0
104.814331 108.0
104.832672 48.0
104.864594 168.0
104.916237 148.0
104.944359 156.0
104.967316 200.0
105.003914 32.0
105.026352 80.0
105.091629 160.0
105.124283 136.0
105.176361 120.0
105.223366 344.0
105.230988 188.0
105.266907 212.0
105.301888 124.0
105.326042 160.0
105.386131 168.0
105.401985 116.0
105.430595 172.0
105.468063 156.0
105.518494 124.0
105.536827 124.0
105.569611 116.0
105.587181 148.0
105.610512 64.0
105.645287 132.0
105.689133 120.0
105.694069 52.0
105.70192 164.0
105.716896 128.0
105.755783 160.0
105.791405 228.0
105.810318 156.0
105.866333 160.0
105.887756 156.0
105.915672 220.0
105.939163 228.0
105.970802 168.0
105.985138 144.0
106.036514 132.0
106.087616 188.0
106.107895 140.0
106.159378 36.0
106.222954 200.0
106.265549 184.0
106.295776 144.0
106.315796 128.0
106.339241 196.0
106.374802 228.0
106.42202 120.0
106.446663 116.0
106.476898 116.0
106.495949 200.0
106.549431 108.0
106.567848 152.0
106.613052 40.0
106.638672 152.0
106.658272 152.0
106.68354 136.0
106.707603 252.0
106.728912 132.0
106.744614 152.0
106.76107 172.0
106.789505 140.0
106.841621 244.0
106.867126 164.0
106.887924 144.0
106.905067 168.0
106.937996 48.0
106.964752 224.0
106.979164 180.0
107.0121 76.0
107.053284 196.0
107.091942 140.0
107.099281 108.0
107.104111 176.0
107.117546 124.0
107.133614 172.0
107.153809 184.0
107.17984 164.0
107.207787 184.0
107.253128 204.0
107.26947 112.0
107.277306 104.0
107.281807 188.0
107.321159 92.0
107.335594 80.0
107.358276 196.0
107.389008 148.0
107.402855 312.0
107.418083 148.0
107.432526 148.0
107.544067 140.0
107.651306 176.0
107.677589 204.0
107.72596 136.0
107.756645 208.0
107.772751 116.0
107.820702 132.0
107.839302 148.0
107.862038 128.0
107.895119 132.0
107.925957 192.0
107.955528 240.0
107.988167 164.0
108.070915 156.0
108.097809 56.0
108.122238 184.0
108.144966 168.0
108.177765 336.0
108.210197 148.0
108.319336 104.0
108.338799 204.0
108.373199 224.0
108.422356 172.0
108.458168 144.0
108.472679 168.0
108.495483 104.0
108.524506 144.0
108.543167 148.0
108.561012 316.0
108.586868 320.0
108.609528 188.0
108.638573 128.0
108.655167 200.0
108.675911 140.0
108.701683 164.0
108.729866 184.0
108.764984 196.0
108.814804 200.0
108.858574 140.0
108.875237 180.0
108.8918 184.0
108.934525 148.0
108.96035 156.0
108.991516 96.0
109.012299 120.0
109.055939 136.0
109.116219 244.0
109.156006 60.0
109.203125 308.0
109.227966 160.0
109.270126 152.0
109.288109 120.0
109.314156 172.0
109.338791 120.0
109.387077 140.0
109.437668 280.0
109.459526 96.0
109.524261 144.0
109.549088 100.0
109.589813 112.0
109.645943 248.0
109.708344 132.0
109.745079 180.0
109.785675 180.0
109.793671 92.0
109.79969 120.0
109.84462 408.0
109.86171 116.0
109.902771 148.0
109.984131 180.0
110.045433 124.0
110.0905 360.0
110.108078 192.0
110.135231 196.0
110.216087 232.0
110.252228 68.0
110.279396 116.0
110.316132 320.0
110.329407 156.0
110.334862 172.0
110.354652 152.0
110.400658 380.0
110.427315 128.0
110.444572 164.0
110.462326 144.0
110.503151 104.0
110.525352 268.0
110.541931 232.0
110.595604 192.0
110.647919 160.0
110.677856 144.0
110.694397 108.0
110.727127 224.0
110.760635 224.0
110.778534 124.0
110.809189 180.0
110.840477 188.0
110.880066 104.0
110.957619 116.0
110.989067 160.0
111.005844 200.0
111.039368 172.0
111.083511 220.0
111.142189 120.0
111.165627 164.0
111.205536 264.0
111.221931 168.0
111.245026 192.0
111.31221 136.0
111.368912 172.0
111.389915 112.0
111.44545 184.0
111.465897 176.0
111.482361 104.0
111.535805 252.0
111.622269 108.0
111.652641 140.0
111.667366 204.0
111.690544 188.0
111.715744 136.0
111.76413 160.0
111.80201 112.0
111.816734 160.0
111.852516 260.0
111.870247 164.0
111.944206 124.0
112.02829 204.0
112.06311 336.0
112.084183 240.0
112.110146 224.0
112.154335 208.0
112.170029 120.0
112.177307 148.0
112.206429 124.0
112.246216 156.0
112.276428 200.0
112.307961 108.0
112.322601 312.0
112.364479 204.0
112.39119 136.0
112.42218 152.0
112.459557 124.0
112.49556 148.0
112.514442 204.0
112.573563 196.0
112.5989 104.0
112.642532 140.0
112.70327 128.0
112.742561 200.0
112.789055 160.0
112.803856 116.0
112.82711 32.0
112.862717 176.0
112.869789 148.0
112.878433 204.0
112.898994 104.0
112.926033 204.0
112.951797 176.0
112.992226 160.0
113.032265 240.0
113.07206 228.0
113.110573 256.0
113.135971 256.0
113.159264 112.0
113.17408 120.0
113.191025 144.0
113.277756 132.0
113.299042 144.0
113.347733 212.0
113.394943 200.0
113.413124 100.0
113.507179 156.0
113.521591 136.0
113.539772 248.0
113.568916 76.0
113.610672 152.0
113.629105 168.0
113.652802 252.0
113.694725 176.0
113.700417 108.0
113.73172 172.0
113.757095 204.0
113.793182 104.0
113.823166 168.0
113.83934 152.0
113.864899 124.0
113.884499 192.0
113.929932 144.0
113.950348 172.0
113.977966 240.0
114.040764 160.0
114.075058 176.0
114.111328 184.0
114.150146 156.0
114.186295 232.0
114.214706 168.0
114.240753 180.0
114.269981 248.0
114.290535 316.0
114.330963 232.0
114.365013 116.0
114.384171 172.0
114.399071 156.0
114.455063 176.0
114.492294 148.0
114.511925 220.0
114.556656 136.0
114.581062 192.0
114.605659 132.0
114.620567 92.0
114.654663 200.0
114.677765 172.0
114.744194 156.0
114.767647 120.0
114.788963 116.0
114.82309 344.0
114.873405 144.0
114.887077 172.0
114.935478 292.0
115.000008 156.0
115.053307 320.0
115.094101 148.0
115.151443 164.0
115.221321 120.0
115.253006 172.0
115.290619 172.0
115.310677 208.0
115.352608 164.0
115.387901 180.0
115.431709 200.0
115.480835 144.0
115.506561 168.0
115.521538 76.0
115.557907 180.0
115.59214 196.0
115.614738 164.0
115.705582 144.0
115.724846 168.0
115.739838 124.0
115.759109 340.0
115.785759 208.0
115.816933 136.0
115.866196 112.0
115.912636 184.0
115.94548 136.0
115.974518 80.0
115.998138 232.0
116.036407 228.0
116.058296 204.0
116.064186 320.0
116.222107 196.0
116.255745 184.0
116.282188 88.0
116.300827 152.0
116.340858 180.0
116.363762 176.0
116.399033 280.0
116.436768 184.0
116.473282 192.0
116.505737 196.0
116.527084 88.0
116.558037 204.0
116.582848 72.0
116.615089 52.0
116.648781 176.0
116.683876 172.0
116.711487 180.0
116.764359 160.0
116.78064 188.0
116.802147 132.0
116.822716 188.0
116.867638 344.0
116.897629 284.0
116.940918 248.0
116.994987 208.0
117.019463 112.0
117.040314 144.0
117.069023 176.0
117.101242 100.0
117.129021 172.0
117.166893 200.0
117.202576 204.0
117.219818 140.0
117.278 44.0
117.293091 188.0
117.314644 148.0
117.329735 140.0
117.362183 160.0
117.390106 176.0
117.419319 272.0
117.450493 136.0
117.476379 156.0
117.493637 128.0
117.541107 220.0
117.563133 172.0
117.582108 152.0
117.610161 80.0
117.628937 332.0
117.659813 112.0
117.674927 144.0
117.69278 152.0
117.715004 236.0
117.736465 128.0
117.761299 180.0
117.778221 132.0
117.80835 256.0
117.823944 176.0
117.873642 132.0
117.888763 120.0
117.924515 296.0
117.942795 220.0
117.984108 108.0
118.063866 232.0
118.107124 140.0
118.165535 132.0
118.189812 180.0
118.22393 188.0
118.247757 88.0
118.275894 208.0
118.291046 116.0
118.334343 176.0
118.355392 172.0
118.41954 256.0
118.444786 124.0
118.459953 136.0
118.516281 116.0
118.533615 112.0
118.564056 204.0
118.579124 196.0
118.605133 132.0
118.628365 228.0
118.652824 360.0
118.678841 152.0
118.698357 72.0
118.725243 20.0
118.748596 168.0
118.767593 220.0
118.775833 204.0
118.822166 144.0
118.845932 192.0
118.863213 192.0
118.902267 164.0
118.923973 168.0
118.95414 116.0
119.006462 136.0
119.043251 140.0
119.0914 288.0
119.149803 228.0
119.17588 148.0
119.19326 208.0
119.238899 60.0
119.261101 252.0
119.316811 156.0
119.406303 88.0
119.463692 276.0
119.49707 44.0
119.534988 108.0
119.556412 320.0
119.571648 136.0
119.62606 216.0
119.65522 212.0
119.670578 152.0
119.736382 180.0
119.742943 412.0
119.769775 196.0
119.793732 144.0
119.841667 96.0
119.874352 140.0
119.895393 128.0
119.951118 160.0
120.000771 148.0
120.018845 192.0
120.061821 168.0
120.077087 132.0
120.124641 120.0
120.151253 176.0
120.171135 176.0
120.221741 136.0
120.279457 160.0
120.326439 148.0
120.347748 120.0
120.426575 184.0
120.461243 100.0
120.485336 132.0
120.5093 240.0
120.531151 148.0
120.546448 152.0
120.563103 164.0
120.579231 132.0
120.616386 184.0
120.630699 212.0
120.666321 160.0
120.68634 60.0
120.716331 140.0
120.743195 176.0
120.760696 128.0
120.807137 292.0
120.849083 108.0
120.87664 160.0
120.896332 92.0
120.910973 196.0
120.93792 152.0
120.953201 128.0
121.022232 372.0
121.044281 184.0
121.071465 160.0
121.088989 120.0
121.107994 124.0
121.179474 208.0
121.228645 160.0
121.295151 128.0
121.374931 140.0
121.381477 68.0
121.387787 104.0
121.423347 128.0
121.441345 168.0
121.458611 204.0
121.490112 172.0
121.525208 136.0
121.556114 200.0
121.588844 116.0
121.610794 172.0
121.634941 172.0
121.650307 192.0
121.670059 92.0
121.69706 188.0
121.713974 144.0
121.738129 160.0
121.782051 288.0
121.852348 68.0
121.874313 176.0
121.907272 68.0
121.924858 156.0
121.972191 172.0
121.978615 236.0
122.023773 140.0
122.055367 324.0
122.072739 148.0
122.083015 144.0
122.10733 180.0
122.14444 136.0
122.172401 268.0
122.179298 156.0
122.186188 224.0
122.215118 64.0
122.237122 112.0
122.269905 208.0
122.338295 204.0
122.375381 216.0
122.408585 148.0
122.432037 324.0
122.473961 60.0
122.521652 176.0
122.538773 164.0
122.560806 140.0
122.598267 180.0
122.637939 40.0
122.657562 168.0
122.686432 104.0
122.72049 168.0
122.754723 164.0
122.81601 152.0
122.834991 184.0
122.890938 176.0
122.926216 128.0
122.951111 308.0
122.981903 156.0
123.017326 148.0
123.055077 164.0
123.084793 108.0
123.103439 304.0
123.129936 168.0
123.18026 184.0
123.224289 260.0
123.271324 128.0
123.315521 172.0
123.344582 132.0
123.414543 208.0
123.441528 92.0
123.468071 144.0
123.505196 224.0
123.512878 200.0
123.550545 180.0
123.586411 112.0
123.595108 56.0
123.599884 136.0
123.620079 112.0
123.653969 148.0
123.700386 124.0
123.729164 108.0
123.746407 264.0
123.761978 292.0
123.836571 164.0
123.901909 176.0
123.978889 156.0
124.009773 168.0
124.045776 164.0
124.072548 180.0
124.110245 268.0
124.159027 128.0
124.181206 144.0
124.215698 160.0
124.320709 336.0
124.347496 172.0
124.397652 124.0
124.460815 84.0
124.494125 304.0
124.522041 224.0
124.554741 136.0
124.567986 204.0
124.596367 128.0
124.669624 168.0
124.751854 228.0
124.7752 200.0
124.84594 152.0
124.867477 72.0
124.886902 180.0
124.900475 220.0
124.91864 156.0
124.93998 316.0
124.969864 160.0
124.985382 188.0
125.029167 112.0
125.052139 244.0
125.086594 200.0
125.107895 84.0
125.128883 204.0
125.154503 436.0
125.162659 236.0
125.209839 168.0
125.21756 240.0
125.248077 232.0
125.277031 180.0
125.301537 72.0
125.318703 104.0
125.332733 144.0
125.352783 164.0
125.377983 196.0
125.447098 172.0
125.506592 148.0
125.556892 136.0
125.563156 76.0
125.570221 164.0
125.602486 108.0
125.635941 184.0
125.669411 108.0
125.693275 184.0
125.76461 180.0
125.834572 136.0
125.869392 248.0
125.883987 208.0
125.911095 176.0
125.941757 204.0
125.965103 124.0
125.981964 316.0
126.005264 364.0
126.043472 244.0
126.067772 128.0
126.117928 156.0
126.121094 152.0
126.13266 64.0
126.137589 180.0
126.157745 212.0
126.201035 164.0
126.228607 272.0
126.253563 140.0
126.279869 160.0
126.310562 164.0
126.384895 160.0
126.41497 288.0
126.423599 192.0
126.48481 144.0
126.557953 280.0
126.582962 100.0
126.608238 136.0
126.64579 240.0
126.68187 128.0
126.701958 176.0
126.752228 172.0
126.776253 300.0
126.812828 100.0
126.851158 124.0
126.896774 220.0
126.912987 120.0
126.934982 172.0
126.986992 264.0
127.004936 136.0
127.025124 96.0
127.058945 208.0
127.096664 144.0
127.100555 128.0
127.111031 224.0
127.116646 156.0
127.125473 192.0
127.18293 316.0
127.202393 60.0
127.228546 120.0
127.253571 196.0
127.27787 168.0
127.312408 144.0
127.332619 128.0
127.357376 176.0
127.378891 200.0
127.41124 140.0
127.436203 176.0
127.451393 160.0
127.476112 452.0
127.530334 208.0
127.560852 192.0
127.590843 200.0
127.631126 164.0
127.682022 348.0
127.713165 164.0
127.743462 204.0
127.781242 152.0
127.800186 152.0
127.827187 176.0
127.863197 224.0
127.883446 160.0
127.922729 184.0
127.941917 160.0
127.97345 220.0
128.027542 176.0
128.064072 524.0
128.091812 148.0
128.128891 188.0
128.16658 132.0
128.189728 136.0
128.20929 236.0
128.252838 40.0
128.268616 244.0
128.297836 124.0
128.327667 184.0
128.35202 124.0
128.374573 228.0
128.408554 216.0
128.458023 208.0
128.505402 168.0
128.55278 112.0
128.59494 124.0
128.670151 156.0
128.710602 228.0
128.746933 232.0
128.796616 124.0
128.812424 156.0
128.865585 212.0
128.899231 124.0
128.925049 132.0
128.930557 112.0
128.937408 164.0
128.961426 200.0
128.999023 180.0
129.019592 172.0
129.050247 120.0
129.058975 160.0
129.12587 212.0
129.190964 148.0
129.226135 176.0
129.264603 152.0
129.31665 204.0
129.364029 188.0
129.391235 136.0
129.417419 116.0
129.457016 172.0
129.472855 136.0
129.500046 120.0
129.518158 48.0
129.588379 220.0
129.604248 172.0
129.618683 136.0
129.645035 340.0
129.685135 104.0
129.718124 208.0
129.778198 176.0
129.798523 168.0
129.848648 320.0
129.893951 168.0
129.914841 96.0
129.942078 128.0
129.957947 64.0
129.976105 100.0
130.080505 172.0
130.112289 224.0
130.159622 380.0
130.192474 116.0
130.220779 184.0
130.271255 236.0
130.286285 200.0
130.310791 116.0
130.330322 136.0
130.345352 172.0
130.374939 244.0
130.391678 180.0
130.412125 208.0
130.44519 124.0
130.451935 204.0
130.48259 140.0
130.505325 96.0
130.523529 104.0
130.559906 180.0
130.60994 176.0
130.631088 160.0
130.674133 148.0
130.697983 292.0
130.731705 168.0
130.751007 84.0
130.773758 176.0
130.788345 128.0
130.805634 236.0
130.835022 180.0
130.860428 164.0
130.896698 196.0
130.916702 176.0
130.942245 104.0
130.96376 128.0
130.983246 148.0
131.003738 128.0
131.042465 132.0
131.098007 172.0
131.119949 168.0
131.181549 128.0
131.204666 144.0
131.228226 180.0
131.246979 116.0
131.265793 132.0
131.285522 184.0
131.345657 132.0
131.43306 144.0
131.48941 156.0
131.535049 208.0
131.580704 208.0
131.681183 188.0
131.715363 220.0
131.743408 184.0
131.765701 144.0
131.783981 184.0
131.814316 116.0
131.831955 36.0
131.847961 48.0
131.874298 152.0
131.893097 128.0
131.921097 152.0
131.937103 272.0
131.980545 164.0
132.017136 144.0
132.034958 212.0
132.058289 64.0
132.104034 100.0
132.12973 176.0
132.163391 276.0
132.204788 132.0
132.224457 140.0
132.269623 156.0
132.285095 228.0
132.352127 108.0
132.390137 176.0
132.408463 212.0
132.433487 164.0
132.470306 100.0
132.488632 96.0
132.504669 160.0
132.52356 124.0
132.54512 180.0
132.584869 128.0
132.603195 412.0
132.630707 208.0
132.676544 156.0
132.693207 264.0
132.717819 276.0
132.759094 92.0
132.832886 264.0
132.857254 156.0
132.872711 164.0
132.915726 168.0
132.940323 124.0
132.976974 140.0
132.982742 156.0
133.053802 172.0
133.075745 168.0
133.096298 168.0
133.133148 116.0
133.152451 172.0
133.169891 152.0
133.268677 112.0
133.303146 248.0
133.334961 248.0
133.394104 124.0
133.401108 128.0
133.434158 368.0
133.47554 180.0
133.494766 164.0
133.510529 168.0
133.533035 120.0
133.562927 152.0
133.579041 176.0
133.637726 188.0
133.668762 96.0
133.735504 148.0
133.767731 136.0
133.795349 132.0
133.820679 124.0
133.860687 340.0
133.880539 184.0
133.931 180.0
133.989273 144.0
134.020477 128.0
134.035553 136.0
134.057693 180.0
134.074051 188.0
134.113937 132.0
134.137253 360.0
134.172211 176.0
134.19101 480.0
134.212357 216.0
134.260468 236.0
134.329697 100.0
134.356445 152.0
134.380737 116.0
134.396881 108.0
134.431503 132.0
134.455429 172.0
134.473038 256.0
134.506302 212.0
134.547226 168.0
134.60463 168.0
134.628204 224.0
134.682571 48.0
134.715485 136.0
134.761688 148.0
134.798325 192.0
134.831009 176.0
134.853806 180.0
134.890228 168.0
134.907471 232.0
134.965088 180.0
134.998962 208.0
135.043716 160.0
135.081284 132.0
135.137741 112.0
135.170944 164.0
135.216232 196.0
135.268158 140.0
135.286026 316.0
135.318039 212.0
135.336761 144.0
135.357483 252.0
135.389725 176.0
135.448761 144.0
135.496597 192.0
135.523712 208.0
135.541656 128.0
135.575516 176.0
135.590729 188.0
135.607147 112.0
135.646469 200.0
135.692993 236.0
135.729187 168.0
135.766296 172.0
135.794113 168.0
135.810349 112.0
135.840515 120.0
135.85936 160.0
135.891541 144.0
135.916382 76.0
135.945221 152.0
135.955124 20.0
135.964691 160.0
135.980804 448.0
136.031158 176.0
136.100433 108.0
136.119019 200.0
136.143143 144.0
136.176392 332.0
136.196121 120.0
136.235626 180.0
136.253723 136.0
136.27655 228.0
136.297867 132.0
136.320328 272.0
136.361694 276.0
136.406677 216.0
136.432678 224.0
136.45491 220.0
136.464096 124.0
136.47464 160.0
136.529037 252.0
136.551254 128.0
136.595444 104.0
136.624359 176.0
136.651031 180.0
136.695496 148.0
136.703094 156.0
136.712326 204.0
136.735046 136.0
136.789169 144.0
136.842133 184.0
136.864258 196.0
136.926392 216.0
136.944595 132.0
137.047928 164.0
137.066742 224.0
137.110138 136.0
137.144958 28.0
137.203247 140.0
137.252945 88.0
137.293823 156.0
137.319824 176.0
137.343155 172.0
137.387527 216.0
137.408325 132.0
137.43689 176.0
137.455139 136.0
137.512955 396.0
137.552963 156.0
137.585175 192.0
137.627289 164.0
137.631409 124.0
137.647141 156.0
137.665298 124.0
137.714355 100.0
137.763321 144.0
137.79837 128.0
137.825714 220.0
137.854446 48.0
137.870804 220.0
137.922211 144.0
137.976669 240.0
138.001694 176.0
138.035583 296.0
138.07756 108.0
138.091415 76.0
138.118622 120.0
138.167755 52.0
138.211746 200.0
138.246323 76.0
138.275192 184.0
138.31517 184.0
138.333908 116.0
138.363358 96.0
138.384628 224.0
138.405136 308.0
138.4496 144.0
138.474396 144.0
138.500153 60.0
138.524918 224.0
138.530319 128.0
138.538544 208.0
138.5634 140.0
138.608582 132.0
138.643066 136.0
138.680573 36.0
138.704254 308.0
138.727905 168.0
138.753967 204.0
138.779022 60.0
138.811859 192.0
138.841476 104.0
138.868134 68.0
138.895569 132.0
138.962112 320.0
138.981216 176.0
139.02533 200.0
139.056122 184.0
139.095093 176.0
139.102783 128.0
139.110458 176.0
139.130035 164.0
139.161514 232.0
139.206085 180.0
139.227219 96.0
139.249466 160.0
139.278885 132.0
139.295334 84.0
139.349365 132.0
139.384018 128.0
139.400269 108.0
139.450409 132.0
139.52092 228.0
139.567947 68.0
139.690231 116.0
139.725525 144.0
139.790039 180.0
139.823715 208.0
139.85965 152.0
139.880188 244.0
139.910614 392.0
139.930283 352.0
140.05806 168.0
140.10759 96.0
140.139893 156.0
140.184662 100.0
140.215302 152.0
140.24292 184.0
140.270996 216.0
140.309586 184.0
140.335251 144.0
140.370453 172.0
140.384186 112.0
140.429245 188.0
140.455643 204.0
140.48645 148.0
140.514755 148.0
140.533539 200.0
140.559235 296.0
140.58725 172.0
140.668152 224.0
140.696487 60.0
140.717163 148.0
140.741348 168.0
140.775345 184.0
140.798264 188.0
140.857056 144.0
140.887177 80.0
140.951569 124.0
140.982285 164.0
141.0009 268.0
141.022629 292.0
141.041077 160.0
141.069305 412.0
141.109772 188.0
141.164032 172.0
141.187378 292.0
141.2258 116.0
141.247391 220.0
141.29422 168.0
141.334183 152.0
141.429276 180.0
141.445847 124.0
141.488449 64.0
141.516098 360.0
141.545273 148.0
141.691681 344.0
141.739517 108.0
141.765579 48.0
141.80983 236.0
141.843964 112.0
141.887146 208.0
141.908005 136.0
141.963943 148.0
142.074432 152.0
142.091064 252.0
142.106308 160.0
142.136826 364.0
142.15448 92.0
142.19603 188.0
142.228058 180.0
142.292465 240.0
142.323013 220.0
142.372879 124.0
142.399002 84.0
142.425552 136.0
142.451263 140.0
142.475006 156.0
142.503525 68.0
142.55983 172.0
142.58194 148.0
142.609268 216.0
142.628708 124.0
142.688904 148.0
142.710297 128.0
142.73407 52.0
142.750717 156.0
142.781631 128.0
142.805756 112.0
142.831589 48.0
142.872025 40.0
142.910095 156.0
142.933884 188.0
142.960052 156.0
143.024323 164.0
143.043365 192.0
143.064789 112.0
143.102875 196.0
143.121918 140.0
143.143356 248.0
143.162399 156.0
143.206818 160.0
143.213379 188.0
143.222015 132.0
143.229752 192.0
143.238998 172.0
143.283875 76.0
143.341919 168.0
143.373215 260.0
143.426865 152.0
143.480743 176.0
143.53244 192.0
143.577591 128.0
143.629532 128.0
143.646225 180.0
143.727341 120.0
143.758362 112.0
143.779846 136.0
143.820038 128.0
143.82959 204.0
143.882477 200.0
143.913513 148.0
143.939636 316.0
143.962845 160.0
143.996368 156.0
144.06398 212.0
144.083084 80.0
144.152374 324.0
144.219299 132.0
144.251709 204.0
144.269501 200.0
144.323792 368.0
144.37709 140.0
144.401001 124.0
144.446487 220.0
144.501465 136.0
144.520615 188.0
144.542145 200.0
144.566071 208.0
144.630554 220.0
144.676178 140.0
144.709244 172.0
144.796829 164.0
144.827637 268.0
144.850006 120.0
144.882309 160.0
144.900558 100.0
144.918488 112.0
144.970245 200.0
145.008057 148.0
145.033096 136.0
145.067978 196.0
145.090622 228.0
145.108658 228.0
145.126175 184.0
145.161224 156.0
145.186539 104.0
145.215317 40.0
145.241699 220.0
145.275284 140.0
145.327118 112.0
145.367371 204.0
145.392227 140.0
145.434631 196.0
145.444931 80.0
145.454132 172.0
145.481659 216.0
145.524063 192.0
145.5849 200.0
145.654556 176.0
145.675934 164.0
145.734161 176.0
145.786682 176.0
145.821457 188.0
145.849182 148.0
145.87381 48.0
145.894852 156.0
145.916489 152.0
145.945343 140.0
145.968933 212.0
145.977325 172.0
145.98465 264.0
146.006439 204.0
146.037201 156.0
146.080948 152.0
146.166626 180.0
146.207535 152.0
146.229202 148.0
146.26683 388.0
146.303818 140.0
146.323074 220.0
146.344742 108.0
146.402527 180.0
146.432755 164.0
146.474792 136.0
146.498047 208.0
146.527725 180.0
146.559341 168.0
146.583206 128.0
146.63652 160.0
146.66243 164.0
146.684418 196.0
146.706116 224.0
146.760605 260.0
146.803497 176.0
146.852951 368.0
146.908691 104.0
146.946884 260.0
146.993301 208.0
147.019501 160.0
147.070358 184.0
147.092575 156.0
147.1138 152.0
147.214569 228.0
147.249954 104.0
147.255539 40.0
147.265198 132.0
147.282837 160.0
147.343231 176.0
147.395813 152.0
147.4133 176.0
147.440247 184.0
147.471115 164.0
147.530548 132.0
147.583817 168.0
147.608368 384.0
147.635696 176.0
147.684067 168.0
147.764847 152.0
147.775665 176.0
147.812286 164.0
147.850311 140.0
147.865799 156.0
147.882462 132.0
147.904251 184.0
147.942978 156.0
148.00592 156.0
148.032562 44.0
148.06665 292.0
148.100372 100.0
148.13913 228.0
148.172485 156.0
148.204956 152.0
148.281189 196.0
148.323288 172.0
148.380264 96.0
148.419632 168.0
148.455093 320.0
148.490585 100.0
148.527283 124.0
148.551056 172.0
148.55777 160.0
148.582764 244.0
148.631287 144.0
148.656067 284.0
148.696808 128.0
148.75264 160.0
148.791473 140.0
148.812622 248.0
148.844742 68.0
148.910461 148.0
148.954178 160.0
149.027054 152.0
149.04892 28.0
149.078079 68.0
149.10968 152.0
149.147812 196.0
149.194611 316.0
149.249451 168.0
149.271347 164.0
149.347946 128.0
149.37471 128.0
149.391739 112.0
149.426956 164.0
149.476089 148.0
149.527771 44.0
149.55899 136.0
149.639328 76.0
149.652924 348.0
149.685516 192.0
149.694321 136.0
149.747101 136.0
149.771469 140.0
149.805573 224.0
149.829514 188.0
149.852859 156.0
149.884338 60.0
149.922104 140.0
149.942734 336.0
149.957809 192.0
149.983444 80.0
150.033218 144.0
150.071213 260.0
150.105591 156.0
150.131485 196.0
150.158554 112.0
150.18425 260.0
150.241928 112.0
150.266327 112.0
150.29007 224.0
150.322449 152.0
150.396835 208.0
150.477631 344.0
150.499603 228.0
150.583664 132.0
150.603195 168.0
150.621582 144.0
150.664261 124.0
150.688004 184.0
150.740005 172.0
150.761993 68.0
150.786438 128.0
150.813324 172.0
150.830429 128.0
150.849991 112.0
150.871033 172.0
150.897949 168.0
150.924255 204.0
150.992264 128.0
151.00264 148.0
151.009476 192.0
151.053238 956.0
151.106766 116.0
151.150803 128.0
151.189362 244.0
151.207642 252.0
151.226379 200.0
151.259262 152.0
151.282715 196.0
151.291702 176.0
151.304352 120.0
151.309113 212.0
151.330994 312.0
151.399567 152.0
151.439682 168.0
151.456833 92.0
151.510712 160.0
151.540939 176.0
151.598373 160.0
151.635681 156.0
151.684708 108.0
151.718323 180.0
151.765411 156.0
151.769012 144.0
151.795029 132.0
151.853256 172.0
151.861176 128.0
151.869186 168.0
151.899582 248.0
151.93483 180.0
151.954468 96.0
151.981445 128.0
152.005981 184.0
152.062592 2156.0
152.112534 164.0
152.181641 184.0
152.212616 68.0
152.252823 172.0
152.291153 128.0
152.33989 96.0
152.385971 148.0
152.404709 376.0
152.447998 144.0
152.475037 124.0
152.499603 128.0
152.526596 184.0
152.569046 108.0
152.622528 208.0
152.690002 196.0
152.724106 160.0
152.743027 116.0
152.80452 180.0
152.829041 112.0
152.855835 340.0
152.885834 164.0
152.907883 104.0
152.931793 172.0
152.971878 540.0
153.039993 180.0
153.068451 1496.0
153.107834 144.0
153.16629 352.0
153.292053 292.0
153.314163 176.0
153.361053 120.0
153.393265 120.0
153.437225 160.0
153.467056 96.0
153.496643 148.0
153.542969 148.0
153.559738 144.0
153.610092 228.0
153.640442 240.0
153.661896 44.0
153.72023 144.0
153.747452 196.0
153.801224 148.0
153.810669 208.0
153.854401 92.0
153.876617 160.0
153.896362 116.0
153.944427 156.0
153.972916 176.0
154.002548 120.0
154.022308 124.0
154.043686 192.0
154.072678 372.0
154.111252 132.0
154.135956 152.0
154.202682 192.0
154.244537 324.0
154.286728 236.0
154.330902 152.0
154.355103 200.0
154.41777 116.0
154.435089 120.0
154.467239 124.0
154.494461 164.0
154.516861 140.0
154.560394 80.0
154.5867 84.0
154.605789 184.0
154.64505 176.0
154.703644 240.0
154.722137 176.0
154.791458 140.0
154.810318 176.0
154.858215 184.0
154.883087 192.0
154.912811 204.0
154.938873 180.0
154.959885 160.0
154.979462 168.0
155.019348 172.0
155.047852 164.0
155.099777 176.0
155.106293 200.0
155.140793 92.0
155.169693 140.0
155.220139 156.0
155.241928 112.0
155.278137 220.0
155.348618 144.0
155.381607 240.0
155.432327 252.0
155.470688 176.0
155.495499 144.0
155.526352 188.0
155.560028 52.0
155.585861 236.0
155.614655 136.0
155.650864 184.0
155.675003 248.0
155.696594 156.0
155.761078 164.0
155.801773 112.0
155.833206 252.0
155.852112 236.0
155.894913 144.0
155.900055 120.0
155.95932 144.0
155.987289 128.0
156.027069 136.0
156.074295 224.0
156.105896 172.0
156.183731 168.0
156.202393 176.0
156.259552 192.0
156.288208 240.0
156.313995 188.0
156.349655 144.0
156.357483 100.0
156.368774 128.0
156.44252 132.0
156.562027 176.0
156.603989 156.0
156.634247 136.0
156.677185 152.0
156.701523 184.0
156.725494 160.0
156.765793 136.0
156.823624 124.0
156.85199 180.0
156.920837 124.0
157.025574 152.0
157.063492 156.0
157.11795 116.0
157.165268 168.0
157.206024 144.0
157.253632 300.0
157.27507 188.0
157.295044 188.0
157.3255 180.0
157.347458 160.0
157.364944 216.0
157.404892 164.0
157.444839 248.0
157.469818 140.0
157.497299 304.0
157.532028 128.0
157.608353 220.0
157.636505 200.0
157.69342 160.0
157.724869 204.0
157.759186 272.0
157.79216 324.0
157.815857 176.0
157.858398 168.0
157.887665 188.0
157.916855 180.0
157.951859 224.0
157.958084 232.0
158.002243 224.0
158.031891 132.0
158.075882 120.0
158.104828 104.0
158.124847 124.0
158.158142 160.0
158.178268 244.0
158.199615 176.0
158.227478 136.0
158.293655 176.0
158.320129 128.0
158.357697 100.0
158.393829 196.0
158.417801 148.0
158.462906 128.0
158.543091 196.0
158.576859 160.0
158.605743 116.0
158.625793 68.0
158.654922 168.0
158.688461 168.0
158.706024 136.0
158.753738 124.0
158.801056 248.0
158.832886 324.0
158.868286 224.0
158.919205 132.0
158.936783 44.0
158.974411 224.0
159.003677 248.0
159.048782 284.0
159.099915 124.0
159.117493 108.0
159.209457 184.0
159.248062 140.0
159.300812 192.0
159.383713 132.0
159.402893 172.0
159.433441 188.0
159.471619 180.0
159.50032 212.0
159.538651 192.0
159.57225 180.0
159.607422 48.0
159.64415 208.0
159.725616 248.0
159.743225 148.0
159.760834 156.0
159.783478 168.0
159.858963 176.0
159.931946 144.0
159.957123 132.0
159.990662 124.0
160.050262 204.0
160.089264 172.0
160.128342 160.0
160.148483 112.0
160.166122 116.0
160.249252 168.0
160.266891 132.0
160.304031 156.0
160.334915 128.0
160.373215 188.0
160.417572 148.0
160.451248 232.0
160.472275 172.0
160.510925 156.0
160.536804 148.0
160.569382 124.0
160.590103 128.0
160.609039 144.0
160.615982 276.0
160.637482 128.0
160.657669 152.0
160.683868 256.0
160.710648 160.0
160.744919 164.0
160.804016 140.0
160.857025 64.0
160.882263 208.0
160.904984 160.0
160.983383 216.0
161.035706 248.0
161.066803 196.0
161.096909 52.0
161.122177 156.0
161.209167 260.0
161.283081 124.0
161.298096 220.0
161.339447 160.0
161.361313 224.0
161.376282 192.0
161.39447 76.0
161.504211 152.0
161.526642 148.0
161.546875 216.0
161.588516 192.0
161.620239 212.0
161.703751 264.0
161.79007 196.0
161.821762 156.0
161.84552 92.0
161.880966 124.0
161.984802 88.0
162.040543 128.0
162.116547 144.0
162.153519 116.0
162.192581 128.0
162.228882 212.0
162.250519 188.0
162.273712 160.0
162.314529 200.0
162.374695 204.0
162.378342 228.0
162.406097 96.0
162.433472 124.0
162.46077 216.0
162.46814 72.0
162.478043 184.0
162.513931 140.0
162.545105 144.0
162.590286 104.0
162.599609 100.0
162.609421 152.0
162.646622 172.0
162.675369 280.0
162.697388 244.0
162.715164 176.0
162.774582 188.0
162.791962 188.0
162.826889 172.0
162.857422 176.0
162.880219 104.0
162.903076 84.0
162.938705 216.0
162.96785 200.0
162.992004 104.0
163.054489 892.0
163.13179 140.0
163.157211 156.0
163.202972 208.0
163.220764 144.0
163.243652 148.0
163.28688 112.0
163.370819 132.0
163.408981 48.0
163.449783 224.0
163.487045 112.0
163.515854 148.0
163.583832 148.0
163.646774 296.0
163.666046 188.0
163.693863 200.0
163.760406 160.0
163.783203 176.0
163.82074 212.0
163.825653 144.0
163.85817 172.0
163.911453 104.0
163.955338 280.0
163.992126 88.0
164.061508 316.0
164.106842 268.0
164.139099 172.0
164.167358 196.0
164.183533 304.0
164.213943 132.0
164.243286 176.0
164.289291 216.0
164.428253 148.0
164.446121 124.0
164.476562 112.0
164.519424 256.0
164.553329 136.0
164.666031 176.0
164.706543 140.0
164.762756 56.0
164.783188 216.0
164.8302 200.0
164.858917 132.0
164.88028 144.0
164.900726 76.0
164.918625 320.0
164.936508 124.0
164.957062 208.0
164.98764 284.0
165.019135 100.0
165.070465 21428.0
165.135437 160.0
165.157211 116.0
165.176376 188.0
165.197342 132.0
165.232132 164.0
165.263855 172.0
165.303894 168.0
165.332825 224.0
165.376297 132.0
165.410034 168.0
165.474075 144.0
165.504456 180.0
165.53006 72.0
165.564407 144.0
165.594086 220.0
165.629944 140.0
165.699097 44.0
165.740097 44.0
165.788788 80.0
165.824661 156.0
165.905243 192.0
165.975906 168.0
165.993866 356.0
166.073212 3356.0
166.119537 132.0
166.178848 392.0
166.244415 136.0
166.269302 160.0
166.294281 348.0
166.317963 276.0
166.337646 32.0
166.401825 180.0
166.434067 136.0
166.465454 172.0
166.544159 188.0
166.552948 80.0
166.559875 176.0
166.599579 148.0
166.634705 172.0
166.661301 160.0
166.712631 224.0
166.73999 148.0
166.769165 92.0
166.793686 140.0
166.819687 152.0
166.857483 180.0
166.897446 164.0
166.950394 196.0
166.978058 176.0
167.082108 360.0
167.145584 172.0
167.180649 144.0
167.217453 336.0
167.262451 140.0
167.30162 164.0
167.342819 44.0
167.370575 128.0
167.391235 164.0
167.432861 124.0
167.486954 216.0
167.504395 232.0
167.522888 344.0
167.548859 176.0
167.584518 172.0
167.621109 88.0
167.660278 176.0
167.698303 148.0
167.721497 120.0
167.76532 104.0
167.809158 120.0
167.858826 152.0
167.882187 184.0
167.974197 120.0
168.005157 184.0
168.055023 316.0
168.092316 260.0
168.144485 116.0
168.172073 116.0
168.190948 156.0
168.209885 212.0
168.237411 192.0
168.255478 116.0
168.277145 328.0
168.322617 192.0
168.383728 120.0
168.401382 140.0
168.438828 196.0
168.485321 148.0
168.512024 84.0
168.54303 156.0
168.630035 324.0
168.684814 200.0
168.724808 120.0
168.787796 152.0
168.841187 148.0
168.860474 148.0
168.899139 200.0
168.928848 116.0
168.950668 112.0
168.977875 116.0
169.020523 200.0
169.061417 248.0
169.168869 124.0
169.177872 124.0
169.184006 212.0
169.215134 188.0
169.240448 252.0
169.276413 140.0
169.299911 176.0
169.333755 344.0
169.388153 144.0
169.408875 240.0
169.429138 160.0
169.46846 140.0
169.508438 144.0
169.558502 128.0
169.59346 168.0
169.616165 68.0
169.661865 264.0
169.719864 164.0
169.761185 180.0
169.804993 184.0
169.912872 336.0
169.953384 256.0
170.051743 176.0
170.093445 140.0
170.123199 148.0
170.171326 176.0
170.212631 208.0
170.222122 156.0
170.233582 332.0
170.30484 292.0
170.341263 228.0
170.382126 144.0
170.38826 160.0
170.397842 204.0
170.44899 124.0
170.457977 112.0
170.463058 164.0
170.495697 320.0
170.54541 128.0
170.57399 140.0
170.642822 236.0
170.691559 192.0
170.7612 28.0
170.770142 156.0
170.78125 96.0
170.785263 128.0
170.809677 132.0
170.860046 172.0
170.891266 64.0
170.909485 148.0
170.927689 184.0
170.96312 216.0
171.021378 180.0
171.042465 120.0
171.071289 184.0
171.109894 76.0
171.1521 204.0
171.172379 188.0
171.210434 124.0
171.271347 164.0
171.297394 148.0
171.323441 116.0
171.349487 148.0
171.385971 144.0
171.4142 180.0
171.465561 152.0
171.484985 112.0
171.528717 176.0
171.570969 244.0
171.602219 188.0
171.633575 104.0
171.662262 132.0
171.68573 76.0
171.743118 204.0
171.787216 128.0
171.803909 168.0
171.860184 160.0
171.927307 348.0
171.993591 184.0
172.018234 128.0
172.051025 88.0
172.120163 448.0
172.164398 200.0
172.194641 300.0
172.21814 160.0
172.310883 40.0
172.382736 128.0
172.420898 184.0
172.471176 144.0
172.500351 232.0
172.523865 168.0
172.544785 184.0
172.565704 120.0
172.584808 144.0
172.625305 148.0
172.654831 188.0
172.692215 212.0
172.746155 108.0
172.769501 112.0
172.816666 172.0
172.837723 176.0
172.866501 76.0
172.897903 132.0
172.936432 172.0
172.944168 124.0
173.049728 168.0
173.136276 152.0
173.19899 120.0
173.233047 124.0
173.267105 124.0
173.301163 104.0
173.323471 144.0
173.369614 168.0
173.434814 128.0
173.478302 208.0
173.512451 200.0
173.53064 108.0
173.581436 108.0
173.629456 232.0
173.669785 272.0
173.707367 208.0
173.744644 104.0
173.792313 172.0
173.825577 140.0
173.883301 108.0
173.993546 192.0
174.021286 164.0
174.047913 292.0
174.075256 100.0
174.101837 184.0
174.110153 168.0
174.177368 156.0
174.211731 164.0
174.244186 148.0
174.30484 160.0
174.32663 188.0
174.360413 152.0
174.392822 176.0
174.449066 132.0
174.521637 344.0
174.573212 228.0
174.608414 156.0
174.629456 128.0
174.669968 140.0
174.736694 176.0
174.76712 168.0
174.793442 156.0
174.855194 140.0
174.907257 96.0
174.937317 352.0
174.968903 140.0
174.995102 168.0
175.032883 200.0
175.053482 344.0
175.089264 124.0
175.095398 200.0
175.150604 40.0
175.183701 128.0
175.226624 200.0
175.255981 180.0
175.290237 108.0
175.312317 200.0
175.332397 104.0
175.353485 156.0
175.410278 204.0
175.469467 152.0
175.519562 180.0
175.5522 192.0
175.58548 168.0
175.619766 144.0
175.658127 140.0
175.692215 172.0
175.745163 128.0
175.770142 156.0
175.799683 168.0
175.854599 152.0
175.903625 272.0
175.946976 100.0
175.986588 104.0
176.062546 2344.0
176.121597 232.0
176.160889 160.0
176.182022 152.0
176.211655 556.0
176.23056 164.0
176.271851 112.0
176.296631 160.0
176.326721 396.0
176.345383 184.0
176.390778 148.0
176.409286 152.0
176.43837 88.0
176.464798 112.0
176.501572 132.0
176.508423 104.0
176.524124 92.0
176.557358 180.0
176.581146 204.0
176.606995 224.0
176.647278 160.0
176.706436 132.0
176.750458 68.0
176.772263 200.0
176.829224 120.0
176.856247 160.0
176.875061 220.0
176.901703 188.0
176.94632 188.0
176.987656 156.0
177.020416 284.0
177.069702 6084.0
177.163483 48.0
177.23494 152.0
177.277405 264.0
177.333496 124.0
177.375473 184.0
177.394028 224.0
177.418869 248.0
177.445511 124.0
177.489471 136.0
177.520004 140.0
177.553116 192.0
177.587585 92.0
177.611465 128.0
177.64595 60.0
177.709839 180.0
177.73349 136.0
177.767029 176.0
177.800278 120.0
177.828705 260.0
177.850266 132.0
177.876556 84.0
177.930237 192.0
177.952881 244.0
177.989838 208.0
177.994568 180.0
178.078125 60548.0
178.130173 312.0
178.19899 112.0
178.227615 344.0
178.248215 180.0
178.299118 176.0
178.338898 180.0
178.376907 104.0
178.451553 344.0
178.508453 72.0
178.551666 172.0
178.587967 360.0
178.622757 116.0
178.646561 196.0
178.704514 136.0
178.776611 256.0
178.828369 100.0
178.85498 120.0
178.890549 200.0
178.928589 92.0
178.94664 216.0
179.012558 168.0
179.048904 592.0
179.083237 10164.0
179.139359 136.0
179.159607 192.0
179.18396 152.0
179.241287 224.0
179.273117 144.0
179.300079 68.0
179.365799 88.0
179.389374 272.0
179.432007 248.0
179.461334 164.0
179.505997 232.0
179.535324 200.0
179.589661 184.0
179.638184 260.0
179.694412 44.0
179.730072 144.0
179.767578 160.0
179.798477 80.0
179.819824 156.0
179.846512 176.0
179.943436 156.0
179.993347 208.0
180.020355 188.0
180.08577 716.0
180.166702 168.0
180.176788 152.0
180.185852 172.0
180.242142 220.0
180.294495 152.0
180.299683 112.0
180.316391 340.0
180.349426 128.0
180.375061 196.0
180.410812 360.0
180.427292 240.0
180.453094 176.0
180.480682 160.0
180.49144 176.0
180.503189 164.0
180.532837 180.0
180.58078 260.0
180.62294 172.0
180.694138 164.0
180.739975 140.0
180.771896 100.0
180.80867 156.0
180.83812 176.0
180.916489 128.0
180.945831 148.0
180.973495 172.0
181.001648 140.0
181.035782 192.0
181.063889 1320.0
181.094528 156.0
181.199615 164.0
181.25856 72.0
181.279526 180.0
181.31752 96.0
181.338959 32.0
181.368713 144.0
181.398163 180.0
181.427414 72.0
181.448853 72.0
181.497604 220.0
181.523666 164.0
181.584305 196.0
181.675232 156.0
181.713257 144.0
181.758347 216.0
181.814529 116.0
181.836899 188.0
181.864639 176.0
181.929062 164.0
181.978714 160.0
182.070572 404.0
182.138519 180.0
182.166992 140.0
182.201767 132.0
182.256943 200.0
182.317291 208.0
182.356918 252.0
182.412598 108.0
182.528198 188.0
182.566406 96.0
182.580276 88.0
182.58551 128.0
182.67421 196.0
182.736313 248.0
182.78389 144.0
182.816269 228.0
182.861786 124.0
182.981094 296.0
183.009842 68.0
183.061722 148.0
183.10704 124.0
183.167892 116.0
183.221741 112.0
183.233093 76.0
183.251083 112.0
183.285629 316.0
183.342957 152.0
183.359802 136.0
183.367432 48.0
183.471985 204.0
183.510788 208.0
183.68364 196.0
183.76181 208.0
183.804977 88.0
183.853348 160.0
183.916702 220.0
183.951736 212.0
183.985809 140.0
184.013382 152.0
184.051346 176.0
184.085434 160.0
184.090881 144.0
184.103149 148.0
184.116257 212.0
184.167404 320.0
184.184601 208.0
184.225891 200.0
184.229813 180.0
184.242493 84.0
184.249237 184.0
184.27594 196.0
184.306961 396.0
184.367462 296.0
184.4142 128.0
184.472061 144.0
184.53389 92.0
184.564499 148.0
184.599136 44.0
184.652283 148.0
184.710022 108.0
184.793564 212.0
184.834473 144.0
184.861526 100.0
184.925171 148.0
184.969788 120.0
185.000412 256.0
185.056427 164.0
185.088181 236.0
185.162033 124.0
185.186401 84.0
185.215271 176.0
185.248703 172.0
185.305191 292.0
185.345093 208.0
185.395004 192.0
185.42482 188.0
185.478928 304.0
185.503418 108.0
185.527466 156.0
185.554932 148.0
185.603729 144.0
185.628143 180.0
185.671524 180.0
185.693222 180.0
185.715149 192.0
185.755951 156.0
185.785446 152.0
185.83429 52.0
185.858704 432.0
185.902298 176.0
185.934677 268.0
185.961823 208.0
186.005707 188.0
186.037476 216.0
186.075104 164.0
186.146133 188.0
186.214325 52.0
186.25235 212.0
186.284943 136.0
186.317535 148.0
186.352859 168.0
186.377319 128.0
186.415359 128.0
186.442535 172.0
186.515915 164.0
186.551254 196.0
186.591019 152.0
186.602112 248.0
186.606949 164.0
186.669846 212.0
186.817795 220.0
186.844788 128.0
186.901962 180.0
186.940186 96.0
186.98735 216.0
187.01947 132.0
187.029358 104.0
187.049637 336.0
187.090622 160.0
187.101349 204.0
187.125275 176.0
187.223663 120.0
187.266876 160.0
187.313171 124.0
187.332245 160.0
187.389542 120.0
187.426849 176.0
187.457581 140.0
187.482101 204.0
187.530579 188.0
187.566589 72.0
187.591125 104.0
187.613297 208.0
187.634735 192.0
187.652466 128.0
187.675629 172.0
187.705399 140.0
187.735626 96.0
187.776993 236.0
187.806717 192.0
187.856293 180.0
187.921112 104.0
187.951569 168.0
188.005493 208.0
188.03952 192.0
188.061371 228.0
188.081131 236.0
188.109406 168.0
188.195206 160.0
188.215881 180.0
188.241791 140.0
188.301331 152.0
188.350861 180.0
188.388794 348.0
188.428925 388.0
188.454208 300.0
188.475372 168.0
188.499969 104.0
188.521515 172.0
188.551514 176.0
188.556854 152.0
188.567627 148.0
188.605637 216.0
188.64209 168.0
188.685425 204.0
188.714676 412.0
188.781891 332.0
188.852631 160.0
188.873306 192.0
188.881805 108.0
188.891968 156.0
188.926895 216.0
188.979996 300.0
189.033585 312.0
189.070419 60028.0
189.148376 464.0
189.166138 104.0
189.230576 120.0
189.272537 428.0
189.291077 152.0
189.343475 196.0
189.391266 128.0
189.41774 104.0
189.465439 156.0
189.513733 56.0
189.533905 180.0
189.592468 104.0
189.629486 108.0
189.669281 264.0
189.705368 376.0
189.734924 116.0
189.76651 180.0
189.801102 176.0
189.813293 124.0
189.819351 172.0
189.84343 180.0
189.869171 124.0
189.919861 192.0
189.966064 180.0
189.99675 452.0
190.040573 500.0
190.078262 114436.0
190.145569 72.0
190.186981 172.0
190.23558 52.0
190.250412 164.0
190.310638 304.0
190.353928 228.0
190.361588 244.0
190.393799 364.0
190.446045 288.0
190.478165 432.0
190.500931 308.0
190.528885 296.0
190.551773 356.0
190.597839 160.0
190.620224 156.0
190.641678 348.0
190.674988 560.0
190.701309 116.0
190.735825 284.0
190.759293 264.0
190.776093 312.0
190.788651 112.0
190.797989 364.0
190.808517 332.0
190.836731 272.0
190.866699 376.0
190.886398 288.0
190.926956 428.0
190.954391 316.0
190.984528 496.0
191.018631 684.0
191.052811 1160.0
191.086761 364264.0
191.167404 60.0
191.178207 100.0
191.185867 260.0
191.205765 168.0
191.251846 316.0
191.274796 220.0
191.283981 200.0
191.293991 380.0
191.324738 368.0
191.335922 196.0
191.346558 372.0
191.376129 312.0
191.391998 248.0
191.444366 496.0
191.47728 260.0
191.509109 296.0
191.539139 4336.0
191.612152 284.0
191.648941 236.0
191.698746 180.0
191.733551 352.0
191.77272 108.0
191.803665 104.0
191.810776 208.0
191.888992 332.0
191.931763 196.0
191.953918 412.0
191.962479 228.0
192.026016 360.0
192.056351 300.0
192.089325 64056.0
192.136612 204.0
192.14711 184.0
192.186676 240.0
192.213638 48.0
192.251114 120.0
192.284683 176.0
192.311325 240.0
192.326645 280.0
192.360611 216.0
192.442734 184.0
192.472809 128.0
192.479233 204.0
192.50444 120.0
192.545013 192.0
192.571259 156.0
192.60704 120.0
192.65976 80.0
192.696762 200.0
192.731735 144.0
192.787216 60.0
192.808533 212.0
192.84169 176.0
192.88121 100.0
192.909073 184.0
192.925995 76.0
192.935226 88.0
192.954819 52.0
192.973587 244.0
193.012863 224.0
193.066986 1540.0
193.100067 21312.0
193.138855 256.0
193.169785 104.0
193.232849 216.0
193.283401 148.0
193.330582 240.0
193.360001 120.0
193.397507 80.0
193.422195 304.0
193.460281 268.0
193.486404 176.0
193.493729 104.0
193.50502 212.0
193.54158 208.0
193.568344 224.0
193.602142 280.0
193.637177 104.0
193.70343 144.0
193.757385 220.0
193.791382 124.0
193.850906 136.0
193.861206 172.0
193.884186 168.0
193.906693 68.0
193.913025 56.0
193.938156 40.0
193.967804 52.0
193.993607 28.0
194.069855 904.0
194.102814 3012.0
194.156677 212.0
194.210602 132.0
194.23494 256.0
194.254257 252.0
194.286438 184.0
194.305695 208.0
194.334717 108.0
194.361938 164.0
194.394745 152.0
194.442474 72.0
194.484528 168.0
194.509125 180.0
194.531204 104.0
194.587906 172.0
194.612198 156.0
194.647369 56.0
194.696579 44.0
194.72905 156.0
194.794052 80.0
194.871552 68.0
194.944595 72.0
194.96907 212.0
195.007996 212.0
195.080963 632.0
195.104843 352.0
195.137375 148.0
195.162399 60.0
195.212448 76.0
195.256348 92.0
195.296875 260.0
195.317978 72.0
195.345963 48.0
195.38063 120.0
195.423538 172.0
195.459854 120.0
195.495926 40.0
195.538528 192.0
195.567108 208.0
195.607529 108.0
195.638153 104.0
195.663208 164.0
195.69046 124.0
195.732803 52.0
195.769516 220.0
195.840256 304.0
195.913834 64.0
195.935745 88.0
196.015732 168.0
196.054306 132.0
196.087067 156.0
196.155884 200.0
196.207947 120.0
196.25386 68.0
196.301254 60.0
196.323563 144.0
196.39743 80.0
196.428131 188.0
196.457443 352.0
196.491577 136.0
196.515381 136.0
196.555099 104.0
196.663925 44.0
196.686264 44.0
196.708588 224.0
196.778381 128.0
196.817474 100.0
196.887192 124.0
196.910004 204.0
196.951523 112.0
196.976654 172.0
197.068848 48.0
197.144287 52.0
197.197388 52.0
197.219757 136.0
197.274261 184.0
197.302917 176.0
197.373505 172.0
197.414291 116.0
197.443954 212.0
197.482574 116.0
197.516144 168.0
197.59726 136.0
197.791962 132.0
197.815552 60.0
197.841843 192.0
197.868729 116.0
197.896729 108.0
197.930328 116.0
198.039551 100.0
198.095306 84.0
198.213242 312.0
198.268753 84.0
198.275665 116.0
198.310181 212.0
198.348526 176.0
198.370193 124.0
198.389816 100.0
198.409439 108.0
198.457825 104.0
198.499161 196.0
198.533798 136.0
198.58699 176.0
198.612625 104.0
198.644989 136.0
198.681458 92.0
198.734772 200.0
198.793701 148.0
198.818954 120.0
198.875076 112.0
198.899628 172.0
199.046219 188.0
199.089737 204.0
199.116531 80.0
199.14743 72.0
199.192368 104.0
199.217651 188.0
199.245743 156.0
199.33284 32.0
199.386246 76.0
199.472275 168.0
199.57457 376.0
199.618622 228.0
199.644257 92.0
199.714401 236.0
199.757385 136.0
199.777069 88.0
199.810822 136.0
199.834915 128.0
199.866852 140.0
199.971222 100.0
200.006546 248.0
200.015091 136.0
200.025513 192.0
200.06192 4272.0
200.115356 236.0
200.154694 136.0
200.244324 72.0
200.295013 68.0
200.325302 160.0
200.387985 132.0
200.416794 196.0
200.46405 80.0
200.526062 192.0
200.584229 312.0
200.614883 148.0
200.64238 124.0
200.675964 112.0
200.70929 76.0
200.734665 76.0
200.781876 108.0
200.818298 244.0
200.858307 124.0
200.909546 200.0
200.939117 140.0
200.984161 212.0
201.02121 152.0
201.069992 47764.0
201.176422 168.0
201.216873 244.0
201.253891 236.0
201.276443 124.0
201.30751 112.0
201.343964 176.0
201.36879 80.0
201.442413 68.0
201.450027 84.0
201.485443 132.0
201.538956 68.0
201.55542 272.0
201.587158 56.0
201.609772 324.0
201.646515 92.0
201.671112 68.0
201.705872 80.0
201.729782 156.0
201.763916 120.0
201.787109 92.0
201.83786 128.0
201.879303 152.0
201.901627 156.0
201.940552 128.0
201.977264 208.0
202.022415 140.0
202.077484 41508.0
202.134338 128.0
202.172394 80.0
202.201416 176.0
202.234329 172.0
202.277252 148.0
202.312637 168.0
202.350555 152.0
202.39679 180.0
202.445297 192.0
202.471466 108.0
202.49437 140.0
202.542694 108.0
202.576508 140.0
202.599411 136.0
202.63974 56.0
202.676086 144.0
202.727448 176.0
202.75592 52.0
202.806931 116.0
202.846619 204.0
202.868301 248.0
202.948486 352.0
203.02742 172.0
203.08493 41420.0
203.155716 232.0
203.19165 352.0
203.243332 88.0
203.271515 272.0
203.288406 52.0
203.318939 76.0
203.344971 148.0
203.390366 52.0
203.440628 100.0
203.446411 64.0
203.492905 152.0
203.558426 148.0
203.607315 112.0
203.647583 56.0
203.682129 80.0
203.703339 144.0
203.754715 140.0
203.790497 228.0
203.845856 180.0
203.869843 100.0
203.903549 84.0
203.949203 132.0
203.999603 160.0
204.089905 7112.0
204.147934 116.0
204.185211 112.0
204.203781 192.0
204.228638 196.0
204.272095 108.0
204.319565 164.0
204.357132 72.0
204.365738 108.0
204.388748 112.0
204.450516 96.0
204.502304 164.0
204.525635 252.0
204.570694 172.0
204.606308 164.0
204.639969 120.0
204.671677 136.0
204.691238 132.0
204.716095 48.0
204.756546 156.0
204.78775 148.0
204.839478 152.0
204.851913 76.0
204.862503 128.0
204.904083 224.0
204.952164 64.0
204.956787 56.0
204.976562 164.0
205.000961 120.0
205.064514 14460.0
205.094574 996.0
205.166748 72.0
205.209045 96.0
205.254227 212.0
205.329376 276.0
205.35025 100.0
205.36348 176.0
205.401077 144.0
205.431488 40.0
205.477127 40.0
205.5271 164.0
205.563675 72.0
205.591263 140.0
205.625717 108.0
205.699829 184.0
205.738205 100.0
205.776794 64.0
205.797867 148.0
205.826141 156.0
205.931 124.0
205.980667 124.0
206.00856 352.0
206.033157 84.0
206.071075 7396.0
206.122284 96.0
206.171219 148.0
206.25766 172.0
206.294693 184.0
206.348206 68.0
206.411102 56.0
206.464844 156.0
206.538742 152.0
206.626053 184.0
206.662811 68.0
206.734344 212.0
206.777267 236.0
206.848831 240.0
206.905289 160.0
206.943298 116.0
207.018372 148.0
207.041763 156.0
207.080475 2936.0
207.135178 132.0
207.181549 192.0
207.239258 384.0
207.27269 176.0
207.321243 72.0
207.325302 180.0
207.355789 176.0
207.422104 88.0
207.442841 136.0
207.499115 136.0
207.561752 160.0
207.623947 172.0
207.651093 204.0
207.696823 144.0
207.725616 188.0
207.783051 68.0
207.811737 84.0
207.860519 44.0
207.992523 60.0
208.081802 556.0
208.150436 136.0
208.179138 72.0
208.279327 148.0
208.344971 224.0
208.394577 96.0
208.422348 60.0
208.540924 108.0
208.581039 252.0
208.587906 176.0
208.621613 84.0
208.648239 308.0
208.669189 160.0
208.696365 108.0
208.739487 148.0
208.883301 140.0
208.909607 216.0
208.952332 208.0
208.972473 84.0
209.030014 148.0
209.05658 156.0
209.142105 156.0
209.19931 264.0
209.260284 152.0
209.362762 156.0
209.401382 84.0
209.423737 168.0
209.493561 148.0
209.583176 112.0
209.605927 64.0
209.680847 124.0
209.732727 36.0
209.773087 112.0
209.807098 176.0
209.873978 100.0
209.917236 168.0
210.012405 224.0
210.058563 144.0
210.098938 156.0
210.122025 36.0
210.165298 136.0
210.194153 84.0
210.247498 116.0
210.274963 168.0
210.369156 112.0
210.393295 60.0
210.53479 196.0
210.606979 220.0
210.696533 132.0
210.754318 28.0
210.780319 180.0
210.809219 76.0
210.92482 180.0
210.985535 120.0
211.040466 228.0
211.092514 136.0
211.146164 116.0
211.213974 160.0
211.237122 108.0
211.271835 228.0
211.306549 60.0
211.329697 112.0
211.358627 224.0
211.378876 104.0
211.425186 160.0
211.485962 180.0
211.532272 152.0
211.557022 124.0
211.611725 152.0
211.789978 52.0
211.856598 108.0
211.966705 112.0
211.989883 136.0
212.051819 32.0
212.243683 144.0
212.331955 68.0
212.418976 108.0
212.483902 84.0
212.558228 176.0
212.601761 116.0
212.62207 64.0
212.659805 120.0
212.807846 152.0
212.871994 136.0
212.892059 188.0
212.919876 208.0
212.985001 108.0
213.016953 124.0
213.037277 44.0
213.072144 132.0
213.110809 116.0
213.215225 176.0
213.234863 96.0
213.261017 60.0
213.320404 196.0
213.366684 252.0
213.423813 56.0
213.489853 180.0
213.516876 144.0
213.549591 144.0
213.67395 168.0
213.705948 140.0
213.755417 160.0
213.784515 96.0
213.822342 140.0
213.927124 60.0
214.074371 164.0
214.174637 44.0
214.247467 68.0
214.291168 208.0
214.320297 108.0
214.378571 180.0
214.425201 204.0
214.484772 156.0
214.515564 160.0
214.568039 208.0
214.614685 108.0
214.707993 128.0
214.802444 104.0
214.824661 84.0
214.951904 124.0
215.083099 148.0
215.144958 116.0
215.206985 128.0
215.317947 120.0
215.408493 144.0
215.446457 116.0
215.502762 236.0
215.528275 104.0
215.563339 128.0
215.642242 152.0
215.674393 200.0
215.697769 184.0
215.744537 112.0
215.803009 108.0
215.923294 180.0
216.055664 280.0
216.139374 64.0
216.187424 140.0
216.230103 104.0
216.249741 84.0
216.254868 60.0
216.266571 112.0
216.314972 192.0
216.394012 292.0
216.55574 344.0
216.599014 104.0
216.644775 192.0
216.689819 48.0
216.748428 84.0
216.803436 140.0
216.96402 92.0
217.066544 1268.0
217.140381 176.0
217.149002 124.0
217.187744 304.0
217.21759 136.0
217.249771 124.0
217.273239 68.0
217.302979 208.0
217.386093 172.0
217.427567 188.0
217.448257 204.0
217.525467 160.0
217.569641 312.0
217.587906 180.0
217.616623 152.0
217.693039 160.0
217.78241 148.0
217.792572 144.0
217.872131 152.0
217.920029 92.0
217.949615 120.0
217.992584 176.0
218.019043 184.0
218.072189 12568.0
218.159073 168.0
218.192459 156.0
218.221115 204.0
218.276932 184.0
218.324768 128.0
218.365952 36.0
218.392426 208.0
218.453125 88.0
218.457962 404.0
218.487549 164.0
218.509613 152.0
218.535217 200.0
218.574814 172.0
218.597031 244.0
218.642502 92.0
218.689041 216.0
218.727844 148.0
218.785248 56.0
218.809586 188.0
218.852036 116.0
218.877029 228.0
218.898087 112.0
218.931458 332.0
218.968735 176.0
218.999207 256.0
219.032623 448.0
219.081161 196532.0
219.19368 96.0
219.230743 96.0
219.237366 124.0
219.270737 212.0
219.329742 128.0
219.380112 252.0
219.409409 160.0
219.468628 148.0
219.487137 76.0
219.53511 44.0
219.566376 592.0
219.610962 172.0
219.630341 184.0
219.644455 56.0
219.652664 112.0
219.707703 132.0
219.74118 172.0
219.781418 196.0
219.813629 80.0
219.833572 160.0
219.853897 128.0
219.882156 336.0
219.95079 168.0
219.972412 316.0
219.999146 292.0
220.084396 27860.0
220.144699 56.0
220.206192 112.0
220.226608 92.0
220.252609 84.0
220.297485 208.0
220.337952 48.0
220.36499 216.0
220.389801 124.0
220.42308 84.0
220.445847 208.0
220.496674 272.0
220.541428 204.0
220.568863 204.0
220.590652 144.0
220.626114 284.0
220.65123 92.0
220.677841 92.0
220.728699 128.0
220.759079 44.0
220.796585 108.0
220.821426 60.0
220.848129 212.0
220.872604 148.0
220.919724 96.0
220.962494 160.0
220.998871 140.0
221.059814 4184.0
221.093414 8856.0
221.149078 48.0
221.224503 92.0
221.256256 260.0
221.295547 304.0
221.379349 48.0
221.413284 52.0
221.448456 220.0
221.4758 80.0
221.489578 120.0
221.520203 228.0
221.549744 172.0
221.629883 252.0
221.653107 120.0
221.676178 56.0
221.698318 220.0
221.731476 228.0
221.740997 228.0
221.795074 40.0
221.83165 192.0
221.876877 224.0
221.899094 96.0
221.951904 236.0
222.002304 188.0
222.066986 3204.0
222.095139 1300.0
222.140808 136.0
222.232986 340.0
222.293518 68.0
222.3396 132.0
222.381149 132.0
222.443481 100.0
222.488098 140.0
222.551926 164.0
222.640045 216.0
222.66153 220.0
222.720825 80.0
222.758255 88.0
222.799835 220.0
222.820633 144.0
222.847382 108.0
222.87709 40.0
222.909775 72.0
222.957321 48.0
222.978119 36.0
223.068604 1264.0
223.101257 428.0
223.153946 68.0
223.204056 272.0
223.242554 76.0
223.272446 80.0
223.400345 44.0
223.421173 188.0
223.507446 84.0
223.574631 152.0
223.62648 152.0
223.668152 96.0
223.736618 176.0
223.846786 92.0
223.888474 88.0
223.914413 180.0
223.953995 124.0
223.992722 92.0
224.094879 68.0
224.135712 88.0
224.183395 52.0
224.216171 132.0
224.254166 220.0
224.293671 80.0
224.344025 228.0
224.587585 160.0
224.632141 148.0
224.893188 44.0
224.929016 44.0
224.949905 56.0
225.090225 56.0
225.21376 252.0
225.302277 196.0
225.326187 208.0
225.368011 124.0
225.412827 80.0
225.451675 112.0
225.53479 104.0
225.607101 60.0
225.717728 140.0
225.762589 160.0
225.89418 92.0
225.927094 192.0
226.031799 68.0
226.112595 56.0
226.139542 100.0
226.318237 184.0
226.375122 144.0
226.443237 184.0
226.627655 36.0
226.735535 92.0
226.756516 108.0
226.799622 188.0
226.918381 76.0
227.041321 116.0
227.068314 84.0
227.0923 164.0
227.191833 156.0
227.235382 160.0
227.257294 180.0
227.323303 44.0
227.428345 108.0
227.551422 128.0
227.605469 40.0
227.683548 136.0
227.704559 88.0
227.805099 76.0
228.026031 128.0
228.126999 176.0
228.164307 168.0
228.188354 100.0
228.22142 188.0
228.287582 124.0
228.308624 172.0
228.383972 156.0
228.433578 128.0
228.567322 104.0
228.600433 168.0
228.687698 128.0
228.714798 92.0
228.753922 108.0
228.787033 188.0
228.829178 84.0
228.858734 152.0
228.91951 132.0
228.99263 188.0
229.016678 244.0
229.075943 32564.0
229.135605 156.0
229.14534 144.0
229.156723 112.0
229.170166 284.0
229.203995 164.0
229.225418 152.0
229.247864 60.0
229.285095 124.0
229.31456 92.0
229.342056 204.0
229.363617 88.0
229.436646 76.0
229.471527 176.0
229.504074 92.0
229.531219 44.0
229.562943 56.0
229.608109 208.0
229.678391 192.0
229.757416 248.0
229.780853 172.0
229.820786 128.0
229.849075 64.0
229.905273 80.0
229.926392 112.0
229.962616 176.0
229.992798 196.0
230.013931 76.0
230.077835 5712.0
230.16893 152.0
230.252441 116.0
230.27359 116.0
230.297745 104.0
230.358154 120.0
230.424622 168.0
230.472961 96.0
230.515274 44.0
230.621048 88.0
230.692673 180.0
230.748001 192.0
230.849396 188.0
230.884079 140.0
231.027664 144.0
231.081085 10656.0
231.141205 52.0
231.183212 172.0
231.240555 132.0
231.302032 184.0
231.328842 76.0
231.365738 216.0
231.42572 116.0
231.471146 224.0
231.503464 84.0
231.54213 180.0
231.641174 84.0
231.673111 76.0
231.780502 152.0
231.86055 176.0
231.882858 44.0
231.891922 96.0
231.943756 32.0
231.980133 256.0
232.028641 128.0
232.04985 140.0
232.087524 3756.0
232.173126 104.0
232.194077 124.0
232.362244 48.0
232.447189 216.0
232.510925 152.0
232.565552 172.0
232.746017 144.0
232.881317 144.0
232.911697 120.0
232.949768 172.0
233.011932 96.0
233.059387 1232.0
233.087357 832.0
233.205521 232.0
233.23378 88.0
233.315842 40.0
233.340164 228.0
233.41922 80.0
233.464844 148.0
233.501328 156.0
233.537827 48.0
233.568619 128.0
233.613449 116.0
233.671265 88.0
233.713104 104.0
233.746719 180.0
233.826859 112.0
233.872513 112.0
233.899918 160.0
233.923401 100.0
234.06778 2272.0
234.167847 104.0
234.225494 108.0
234.273666 92.0
234.33844 120.0
234.426804 76.0
234.454224 124.0
234.496887 196.0
234.547272 160.0
234.643204 52.0
234.79567 108.0
234.893265 124.0
234.938385 96.0
234.981735 116.0
235.07254 520.0
235.195343 40.0
235.231979 36.0
235.280823 44.0
235.417755 52.0
235.476242 100.0
235.604538 124.0
235.644257 64.0
235.671753 116.0
235.693146 68.0
235.71759 120.0
235.763428 64.0
235.797043 104.0
235.86734 88.0
236.017136 52.0
236.073868 260.0
236.13028 56.0
236.298523 44.0
236.347473 96.0
236.384201 136.0
236.619873 92.0
236.665802 148.0
236.693359 76.0
236.788284 76.0
236.843414 136.0
236.910812 176.0
236.949097 152.0
237.085449 160.0
237.195786 136.0
237.217255 72.0
237.269363 88.0
237.490143 168.0
237.572968 112.0
237.918518 100.0
237.988831 152.0
238.001511 76.0
238.006897 124.0
238.20961 160.0
238.251419 52.0
238.272919 220.0
238.355881 192.0
238.478806 148.0
238.777023 128.0
238.863144 144.0
238.94928 132.0
239.177002 88.0
239.561188 68.0
239.642014 156.0
239.669647 128.0
239.829987 140.0
239.866974 40.0
239.959457 152.0
240.021133 68.0
240.088974 160.0
240.184586 76.0
240.27095 52.0
240.483871 192.0
240.564117 96.0
240.761734 140.0
240.990311 112.0
241.157181 72.0
241.311737 140.0
241.348846 216.0
241.518936 52.0
241.933578 124.0
242.051865 136.0
242.091492 116.0
242.289719 144.0
242.339294 88.0
242.435349 192.0
242.636826 40.0
242.689529 140.0
242.791855 124.0
242.915924 172.0
242.99968 128.0
243.052338 144.0
243.092773 120.0
243.126907 76.0
243.272781 132.0
243.452866 112.0
243.639221 52.0
243.803894 168.0
243.909576 28.0
243.956207 60.0
243.9935 108.0
244.043243 172.0
244.133423 340.0
244.181244 132.0
244.307602 124.0
244.378677 128.0
244.437088 136.0
244.575211 124.0
244.610641 84.0
244.903381 200.0
244.958206 168.0
245.120209 232.0
245.260452 176.0
245.47113 180.0
245.569122 60.0
245.631516 176.0
245.693893 52.0
245.890488 92.0
246.080887 104.0
246.1371 164.0
246.162079 196.0
246.268265 128.0
246.293243 48.0
246.598251 232.0
246.81514 180.0
246.883942 176.0
246.924591 104.0
246.978973 176.0
247.075333 4456.0
247.158249 156.0
247.169647 108.0
247.179352 192.0
247.379654 52.0
247.406464 100.0
247.453415 28.0
247.47847 104.0
247.597458 120.0
247.653839 96.0
247.69455 80.0
247.744675 56.0
247.76973 120.0
247.801071 136.0
247.838669 64.0
247.88414 164.0
247.909103 200.0
247.965836 172.0
247.976166 100.0
247.984619 104.0
248.026321 168.0
248.0811 4232.0
248.17807 268.0
248.227341 80.0
248.268112 88.0
248.333405 96.0
248.354141 200.0
248.412613 320.0
248.447708 212.0
248.500031 132.0
248.533997 156.0
248.572388 104.0
248.620483 172.0
248.633591 128.0
248.665955 124.0
248.69577 128.0
248.717361 120.0
248.760086 144.0
248.786346 156.0
248.795898 300.0
248.835815 252.0
248.889374 160.0
248.912766 296.0
248.9375 204.0
248.966614 300.0
248.992126 284.0
249.022888 300.0
249.032135 464.0
249.092331 213236.0
249.1707 160.0
249.209366 80.0
249.242462 96.0
249.289139 296.0
249.319778 116.0
249.358109 92.0
249.382339 64.0
249.394974 112.0
249.42305 296.0
249.455887 288.0
249.496506 332.0
249.538559 108.0
249.571457 204.0
249.609451 2784.0
249.646271 56.0
249.670776 120.0
249.681412 100.0
249.691788 132.0
249.706024 76.0
249.743774 116.0
249.752716 68.0
249.764771 176.0
249.839905 196.0
249.878418 108.0
249.884155 124.0
249.915009 108.0
249.940582 356.0
249.988022 104.0
250.015457 160.0
250.094757 45432.0
250.162033 152.0
250.196136 220.0
250.25676 96.0
250.293121 40.0
250.324844 112.0
250.343491 92.0
250.366074 116.0
250.392029 120.0
250.417755 232.0
250.434616 248.0
250.458496 68.0
250.487045 44.0
250.511261 96.0
250.536423 116.0
250.5784 76.0
250.606598 132.0
250.657745 180.0
250.677277 128.0
250.734039 132.0
250.769516 104.0
250.836548 64.0
250.884293 156.0
250.928925 76.0
250.986694 52.0
251.031021 100.0
251.097794 3944.0
251.214645 44.0
251.251785 124.0
251.261322 52.0
251.294342 152.0
251.363632 96.0
251.397797 208.0
251.47641 164.0
251.501389 52.0
251.526031 88.0
251.588776 160.0
251.62941 164.0
251.694977 228.0
251.720825 60.0
251.75798 116.0
251.778198 120.0
251.805466 152.0
251.830154 168.0
251.860733 152.0
251.934372 220.0
251.964828 128.0
252.016342 164.0
252.065933 116.0
252.098465 448.0
252.156158 112.0
252.183167 68.0
252.23349 128.0
252.275208 96.0
252.348694 44.0
252.393234 96.0
252.442352 96.0
252.492859 72.0
252.58905 96.0
252.639938 36.0
252.665237 48.0
252.690552 104.0
252.719452 60.0
252.817993 72.0
252.840515 112.0
252.886749 68.0
252.929153 148.0
252.962708 76.0
253.032349 136.0
253.06192 124.0
253.132095 72.0
253.235016 76.0
253.320541 84.0
253.398346 64.0
253.492554 68.0
253.570847 56.0
253.602539 52.0
253.653259 60.0
253.688126 84.0
253.710312 32.0
253.814941 48.0
253.892441 100.0
254.113678 64.0
254.154343 32.0
254.218796 128.0
254.33522 60.0
254.389191 76.0
254.515549 80.0
254.566986 64.0
254.724121 76.0
254.812439 88.0
255.056244 52.0
255.129364 40.0
255.202484 56.0
255.227921 28.0
255.256546 88.0
255.36467 80.0
255.482361 104.0
255.695541 44.0
255.803757 28.0
255.82605 76.0
256.04892 108.0
256.08078 52.0
256.673523 92.0
256.931854 44.0
257.053101 120.0
257.244598 80.0
257.340363 44.0
257.646973 88.0
258.020874 48.0
258.660675 28.0
258.705505 48.0
258.884796 40.0
258.923218 40.0
258.964844 60.0
259.195496 72.0
260.252136 76.0
260.605286 32.0
260.642639 88.0
260.885345 100.0
261.144135 76.0
261.266388 76.0
261.362885 132.0
261.649353 96.0
261.677704 100.0
261.775848 48.0
261.890839 108.0
261.9617 108.0
262.135681 44.0
262.180817 132.0
262.203369 36.0
262.248505 80.0
262.33551 68.0
262.499939 104.0
262.545105 36.0
262.625732 80.0
262.70636 52.0
262.819275 52.0
262.880585 84.0
262.951599 52.0
263.048431 44.0
263.313171 52.0
263.49408 80.0
263.607147 72.0
263.856049 100.0
263.949799 40.0
264.370331 76.0
264.422089 44.0
264.791168 76.0
264.836517 52.0
264.938416 124.0
265.345276 132.0
265.626373 108.0
265.747437 40.0
265.905701 172.0
266.331787 96.0
266.471466 96.0
266.607941 72.0
266.73468 48.0
267.072845 124.0
267.72702 88.0
267.753082 40.0
267.79541 88.0
268.088623 120.0
268.388519 124.0
268.538513 116.0
268.678772 76.0
268.952881 44.0
269.808746 72.0
270.875549 68.0
271.229431 44.0
271.390076 52.0
271.85257 96.0
272.371307 56.0
272.976013 32.0
273.43988 140.0
273.999664 80.0
275.081299 76.0
275.530426 112.0
275.711182 48.0
276.393372 104.0
276.502563 116.0
277.038971 104.0
277.096466 100.0
277.310669 108.0
277.396851 104.0
278.106689 48.0
278.980286 40.0
279.21637 40.0
279.971802 56.0
280.098389 156.0
280.13501 104.0
280.821655 84.0
283.92865 96.0
284.814697 108.0
284.969238 68.0
285.113739 68.0
285.365845 60.0
285.591125 72.0
285.88385 52.0
286.260864 56.0
286.392212 36.0
287.366425 96.0
287.693787 48.0
287.720795 120.0
288.197021 120.0
288.227417 104.0
289.076172 56.0
289.157379 68.0
289.462067 88.0
289.939697 100.0
290.862244 72.0
291.50412 96.0
291.558502 96.0
291.636658 60.0
293.100006 44.0
293.253357 72.0
294.148376 396.0
294.730988 60.0
295.161682 60.0
295.322418 36.0
296.205505 204.0
297.323242 64.0
298.030609 100.0
299.200806 116.0
300.830566 72.0
301.276031 112.0
301.884338 112.0
302.095337 88.0
302.742554 96.0
303.819336 60.0
304.032166 92.0
304.108521 68.0
305.022003 60.0
305.752411 96.0
306.372192 60.0
306.410522 88.0
306.776428 44.0
307.187927 88.0
307.467041 60.0
307.634583 56.0
309.315979 80.0
309.47702 156.0
309.666107 72.0
310.622986 64.0
311.286316 68.0
311.356537 136.0
311.433807 128.0
311.679718 112.0
312.249207 44.0
313.016357 92.0
313.565918 44.0
313.69281 72.0
314.461731 56.0
315.613373 32.0
316.381104 40.0
317.553986 64.0
318.075562 88.0
318.469666 132.0
318.789429 108.0
319.564575 48.0
320.048615 36.0
320.44754 64.0
320.778961 68.0
321.21756 104.0
321.592224 120.0
321.69574 60.0
322.545898 72.0
322.581635 100.0
322.899841 108.0
323.912781 108.0
323.995178 116.0
324.034576 64.0
324.643921 64.0
324.812469 88.0
325.162201 68.0
326.043976 76.0
328.08844 68.0
328.611389 48.0
328.701599 112.0
329.788605 120.0
331.062103 64.0
331.290283 32.0
331.348236 108.0
331.953552 88.0
332.015198 76.0
332.504944 48.0
333.47467 92.0
333.758209 48.0
334.514923 52.0
335.119476 56.0
336.52002 124.0
338.750854 232.0
339.073273 48.0
339.82132 96.0
340.728149 76.0
340.80899 56.0
341.62149 88.0
341.882721 40.0
342.843872 140.0
343.334198 72.0
343.562866 104.0
344.05368 84.0
345.084442 80.0
346.053802 120.0
346.561218 44.0
346.629333 52.0
347.707031 104.0
348.178528 80.0
349.048096 76.0
349.252625 76.0
349.472107 56.0
349.836853 44.0
350.056519 40.0
350.533325 140.0
352.152405 36.0
352.365326 68.0
352.832458 48.0
352.955841 64.0
353.04187 48.0
353.404694 100.0
354.014832 148.0
355.278961 104.0
355.810852 60.0
356.404266 68.0
356.892883 76.0
357.050812 36.0
358.018005 52.0
358.443665 52.0
359.239166 116.0
359.92984 76.0
360.927368 60.0
361.313141 68.0
361.596954 84.0
362.479309 68.0
363.013794 64.0
363.783997 96.0
363.817108 72.0
365.405396 80.0
366.000458 96.0
366.861481 60.0
367.368683 96.0
367.525085 172.0
367.685364 64.0
368.265686 164.0
369.423859 80.0
369.473602 84.0
369.772064 76.0
370.020874 64.0
370.047668 36.0
370.940277 128.0
371.810944 104.0
372.022034 64.0
372.486694 64.0
372.694122 56.0
373.013123 132.0
373.089996 136.0
373.647644 60.0
373.851562 36.0
374.182587 156.0
374.968384 44.0
375.727997 112.0
376.117737 108.0
376.276031 64.0
376.530884 108.0
377.187714 56.0
377.350067 32.0
377.860565 48.0
378.044586 84.0
378.10434 60.0
379.072479 108.0
383.117126 52.0
383.191132 52.0
383.61203 120.0
384.134552 100.0
384.212585 88.0
384.540344 52.0
388.229553 76.0
390.475922 64.0
390.845703 48.0
391.117249 32.0
391.227478 64.0
391.735474 72.0
391.98761 104.0
392.590729 88.0
393.845795 84.0
395.075134 120.0
396.920776 56.0
396.960419 56.0
398.703125 40.0
400.373993 64.0
400.848053 48.0
401.123047 144.0
401.721191 44.0
401.872772 64.0
402.15213 136.0
403.290436 96.0
403.354401 64.0
403.64624 76.0
404.09021 80.0
404.6185 36.0
404.722595 44.0
406.177338 124.0
409.505371 44.0
409.823608 52.0
410.238739 36.0
410.367737 64.0
411.396484 144.0
412.612488 104.0
412.640778 48.0
413.211029 88.0
413.818115 88.0
413.976044 28.0
414.608002 72.0
414.989014 92.0
415.560913 60.0
416.263092 44.0
416.575836 96.0
417.144745 116.0
418.475037 108.0
419.073761 112.0
419.134857 76.0
420.117432 104.0
422.580933 84.0
422.977875 108.0
423.15799 64.0
423.293121 84.0
423.753998 92.0
425.745361 32.0
427.406067 44.0
427.801178 80.0
429.004028 72.0
429.300903 52.0
430.766083 96.0
431.406586 52.0
431.613312 96.0
432.415863 52.0
432.867096 64.0
433.509155 104.0
433.71637 96.0
434.325897 88.0
434.773987 96.0
436.102997 124.0
437.90036 104.0
438.137787 84.0
438.237762 80.0
438.737885 100.0
440.194031 48.0
440.632599 68.0
443.197327 68.0
443.285309 52.0
444.853912 72.0
445.412384 64.0
446.421082 108.0
446.95108 52.0
446.997375 80.0
447.123627 76.0
447.254089 92.0
447.435089 48.0
448.23114 60.0
448.808594 128.0
450.133545 88.0
450.631927 96.0
450.716431 52.0
451.302429 100.0
451.832642 56.0
453.6409 56.0
455.673676 76.0
456.881073 80.0
457.102325 76.0
457.157623 72.0
458.196564 88.0
459.057526 64.0
459.582184 96.0
459.654724 60.0
459.812622 60.0
461.149414 64.0
461.405884 108.0
462.094452 72.0
462.530945 44.0
463.083282 32.0
464.622131 92.0
465.463379 52.0
465.742523 68.0
465.974487 64.0
466.649261 100.0
468.034698 40.0
470.54834 84.0
474.207886 32.0
474.251221 132.0
476.125488 88.0
477.564056 76.0
478.377716 120.0
480.517487 68.0
480.591675 64.0
480.993164 32.0
482.963776 48.0
483.15625 92.0
483.230621 60.0
483.895874 112.0
484.636047 92.0
485.389954 108.0
486.816101 76.0
487.035706 64.0
487.804657 92.0
488.226746 48.0
488.363068 64.0
488.407074 104.0
488.79422 80.0
490.939484 48.0
491.724731 96.0
492.722687 68.0
494.535675 40.0
494.841125 60.0
495.430145 92.0
495.793457 80.0
496.329834 108.0
497.896271 92.0
498.758209 96.0
499.945709 128.0
501.968109 40.0
502.249084 32.0
503.369263 124.0
503.882904 84.0
506.629761 52.0
508.163025 72.0
509.137054 76.0
509.181976 48.0
509.527832 40.0
510.386292 68.0
510.552673 84.0
511.240967 72.0
511.276978 92.0
512.087341 68.0
512.348572 108.0
513.083191 128.0
513.903992 140.0
514.829346 60.0
514.915161 36.0
514.964844 140.0
516.248291 124.0
517.130493 60.0
521.052917 72.0
521.675476 60.0
523.363342 44.0
523.436218 80.0
523.499939 44.0
524.265259 112.0
524.661804 92.0
524.835083 44.0
525.464478 84.0
526.244934 76.0
526.57373 116.0
529.285522 100.0
532.086853 48.0
533.653564 104.0
533.699524 84.0
535.729126 52.0
536.415771 68.0
537.688782 36.0
539.032593 100.0
540.045044 64.0
542.160767 52.0
545.441467 56.0
546.17218 96.0
547.628967 108.0
548.658813 96.0
549.698914 80.0
551.800781 100.0
555.552002 168.0
563.49408 56.0
564.770386 44.0
564.827148 48.0
566.588135 76.0
569.016296 32.0
570.626892 60.0
571.135742 56.0
572.120728 80.0
572.401611 68.0
572.977966 120.0
573.678467 84.0
574.169617 76.0
574.579834 136.0
576.136108 56.0
578.005554 92.0
579.38446 84.0
581.825439 52.0
586.134888 112.0
597.221191 68.0
605.728943 72.0
607.542725 56.0
610.543823 88.0
610.937317 32.0
615.046936 40.0
616.691711 88.0
617.94281 88.0
618.195129 100.0
619.26947 48.0
619.774719 100.0
620.552917 96.0
623.968689 80.0
626.063477 72.0
628.765503 80.0
631.998596 88.0
633.515564 96.0
633.550598 116.0
634.046631 44.0
636.404297 80.0
636.710571 40.0
636.916504 80.0
637.85614 116.0
639.198975 112.0
640.079834 76.0
640.175476 112.0
640.487732 36.0
643.962952 124.0
644.599487 68.0
645.418335 36.0
646.855103 68.0
647.477905 88.0
647.89325 76.0
651.00238 80.0
651.13446 56.0
652.247131 72.0
653.920532 88.0
658.800232 128.0
659.173218 72.0
660.625244 112.0
661.776733 40.0
662.370789 40.0
664.298157 116.0
667.662354 68.0
669.793152 112.0
671.390869 120.0
677.546997 80.0
677.629883 68.0
684.022644 100.0
687.744263 64.0
688.292419 60.0
688.469971 48.0
698.101868 72.0
698.733032 108.0
701.476746 44.0
701.69812 64.0
704.268005 120.0
705.250793 68.0
708.203186 80.0
710.371094 68.0
712.478638 104.0
714.046692 64.0
716.564453 116.0
716.95874 124.0
718.318359 40.0
729.026428 128.0
733.013855 80.0
737.666138 92.0
741.400696 164.0
744.107361 68.0
744.780762 64.0
746.155579 60.0
746.264282 84.0
747.44458 156.0
747.814636 104.0
748.930786 80.0
753.414673 64.0
753.578613 72.0
758.986267 32.0
762.032471 36.0
770.450623 52.0
781.533508 56.0
785.73999 28.0
787.386597 36.0
789.258667 124.0
789.946533 32.0
791.496826 48.0
793.782959 88.0
794.730896 100.0
795.471741 76.0
811.074158 68.0
812.401001 56.0
812.809509 56.0
813.252197 64.0
815.188782 48.0
815.228516 40.0
817.08783 60.0
820.915405 52.0
822.838257 48.0
822.878235 48.0
829.978699 88.0
839.875977 180.0
844.352112 128.0
846.047424 88.0
850.696655 48.0
851.753479 128.0
854.660278 136.0
854.834839 204.0
855.457581 72.0
856.10968 200.0
857.57782 76.0
857.863403 52.0
858.878052 48.0
859.980774 148.0
861.802795 84.0
865.920959 64.0
879.66803 92.0
880.181702 96.0
886.860718 76.0
886.931824 28.0
887.779663 108.0
888.473633 56.0
889.749573 48.0
891.19873 124.0
898.336853 84.0
899.082703 148.0
899.536316 80.0
906.036621 80.0
907.433044 28.0
908.986511 96.0
912.500244 80.0
917.563416 88.0
919.041077 124.0
922.991333 240.0
925.102783 68.0
927.283386 76.0
932.618347 100.0
934.302673 124.0
934.783386 72.0
938.791626 172.0
941.818787 64.0
944.11676 288.0
950.168457 36.0
951.868591 60.0
953.097107 68.0
954.228027 88.0
955.624146 56.0
958.172974 36.0
962.891785 60.0
963.589783 84.0
963.775146 68.0
966.031738 76.0
966.402893 252.0
975.009766 64.0
990.182434 100.0
992.501038 188.0
993.899719 92.0
994.169556 148.0
995.161316 188.0
1004.733948 112.0
1007.334778 128.0
1011.590515 120.0
1014.124146 168.0
1015.931335 40.0
1017.60675 232.0
1018.203674 188.0
1024.022949 184.0
1024.24585 168.0
1024.379639 200.0
1026.240601 180.0
1026.419067 88.0
1027.267334 140.0
1027.911743 156.0
1028.990356 168.0
1030.018555 80.0
1031.079102 140.0
1032.108276 52.0
1034.545898 84.0
1035.186157 100.0
1036.883789 52.0
1037.281128 128.0
1037.986328 204.0
1039.474609 84.0
1044.511475 96.0
1045.071167 120.0
1045.959229 68.0
1046.261719 68.0
1048.142456 52.0
1048.973755 48.0
1049.857056 44.0
1050.66333 48.0
1054.028198 120.0
1055.802368 196.0
1057.862305 68.0
1058.658691 44.0
1059.66272 180.0
1059.753418 144.0
1061.678589 124.0
1062.807251 160.0
1064.020996 168.0
1064.183228 76.0
1064.871582 140.0
1068.290527 180.0
1070.002075 72.0
1070.770508 168.0
1075.954346 164.0
1077.123291 72.0
1078.220947 36.0
1079.561035 112.0
1081.354736 112.0
1083.448975 196.0
1084.392456 208.0
1086.044678 228.0
1086.477661 192.0
1087.593262 112.0
1088.118408 44.0
1093.245239 180.0
1095.786865 120.0
1096.154297 180.0
1096.66333 44.0
1097.975342 152.0
1098.50293 200.0
1099.070312 140.0
1099.393677 96.0
1099.868896 236.0
1100.740356 200.0
1101.592285 68.0
1102.682495 64.0
1106.485962 116.0
1107.101807 44.0
1107.585327 136.0
1108.817627 132.0
1109.235229 192.0
1113.381958 228.0
1119.080566 68.0
1120.872314 132.0
1121.952026 124.0
1126.289429 252.0
1130.548218 112.0
1134.406128 76.0
1136.988403 104.0
1141.099365 108.0
1141.69104 96.0
1141.886108 140.0
1144.247925 180.0
1145.022339 144.0
1146.335938 92.0
1149.363525 228.0
1149.697266 36.0
1150.126221 36.0
1150.970093 112.0
1151.219849 180.0
1152.064209 80.0
1153.11145 152.0
1153.733398 48.0
1155.539062 80.0
1156.736816 188.0
1157.231079 192.0
1160.795044 104.0
1161.697144 120.0
1163.325806 164.0
1163.950439 176.0
1164.160889 140.0
1164.996338 80.0
1167.653931 132.0
1168.252563 116.0
1169.817627 100.0
1170.321411 148.0
1171.220337 164.0
1171.465576 120.0
1172.835205 180.0
1174.069214 152.0
1174.382935 48.0
1174.928711 180.0
1175.126587 164.0
1175.181152 136.0
1177.980103 68.0
1178.738525 168.0
1179.066528 180.0
1179.442383 152.0
1181.993286 80.0
1185.177246 200.0
1185.711792 200.0
1186.485352 116.0
1187.300293 212.0
1188.687988 136.0
1191.434326 124.0
1191.935913 136.0
1192.547485 128.0
1195.057495 72.0
1196.509766 108.0
1196.929688 136.0
1197.170654 148.0
1198.644897 196.0
1198.727539 100.0
1198.87915 140.0
1198.96875 104.0
1199.306396 88.0
1200.940552 176.0
1201.312988 148.0
1203.203857 124.0
1205.5177 108.0
1205.801025 172.0
1206.105225 200.0
1211.07312 56.0
1213.623291 92.0
1215.919434 132.0
1216.773193 172.0
1219.489258 132.0
1219.649048 152.0
1219.80896 216.0
1220.330322 124.0
1221.623901 144.0
1222.312622 220.0
1224.589111 120.0
1224.846802 80.0
1225.752563 140.0
1226.344849 52.0
1228.652954 176.0
1230.327026 176.0
1231.549805 164.0
1232.108643 48.0
1232.49292 36.0
1233.324585 156.0
1234.876709 124.0
1235.303345 140.0
1237.094849 40.0
1238.166138 160.0
1238.999634 252.0
1239.693237 132.0
1241.228394 200.0
1241.999878 220.0
1242.399658 124.0
1243.02417 308.0
1243.129395 164.0
1243.206543 228.0
1243.578491 148.0
1243.992676 128.0
1244.779053 128.0
1245.059937 168.0
1245.354858 160.0
1245.404053 124.0
1245.720093 176.0
1246.872437 136.0
1247.578613 124.0
1247.962036 208.0
1248.151855 132.0
1250.536621 136.0
1251.106812 192.0
1254.31897 212.0
1254.459961 132.0
1254.62207 176.0
1254.734863 140.0
1254.946411 84.0
1255.087402 204.0
1256.949585 176.0
1258.135376 68.0
1258.575195 100.0
1259.370483 232.0
1259.582886 160.0
1260.593262 200.0
1261.059692 176.0
1261.490845 44.0
1262.035156 44.0
1262.303955 160.0
1262.480713 56.0
1264.173462 196.0
1264.440308 220.0
1264.81543 136.0
1265.197632 112.0
1267.648315 216.0
1268.052246 132.0
1270.151001 152.0
1270.612061 144.0
1270.867432 184.0
1271.463501 140.0
1271.843506 200.0
1272.755493 140.0
1273.799438 76.0
1274.957642 188.0
1275.085571 152.0
1275.419556 168.0
1275.696777 72.0
1276.670898 152.0
1277.161621 128.0
1277.246948 56.0
1278.335449 108.0
1279.865845 180.0
1280.335815 224.0
1280.834351 168.0
1281.482666 180.0
1281.831787 80.0
1281.888794 196.0
1283.820679 164.0
1284.554565 188.0
1286.067993 216.0
1286.5177 112.0
1286.960327 168.0
1287.017456 148.0
1287.236694 176.0
1287.552979 76.0
1287.631592 120.0
1288.510132 184.0
1288.581543 152.0
1288.824463 124.0
1289.998291 168.0
1290.722412 192.0
1292.063232 228.0
1292.463989 108.0
1293.115112 140.0
1293.304565 244.0
1293.358521 144.0
1293.45874 164.0
1295.506714 220.0
1295.879272 152.0
1297.183472 120.0
1297.749878 120.0
1297.821533 52.0
1298.000854 44.0
1299.435303 76.0
1300.016479 148.0
1300.540405 156.0
1301.050049 56.0
1302.033813 144.0
1302.119995 48.0
1302.838257 212.0
1303.161499 52.0
1303.646606 140.0
1303.698364 140.0
1303.865723 184.0
1304.038208 212.0
1304.620483 148.0
1305.044678 152.0
1305.663086 132.0
1307.929443 92.0
1308.937256 152.0
1309.483765 176.0
1309.895142 164.0
1310.132935 136.0
1310.464233 168.0
1310.543579 196.0
1310.694824 156.0
1310.990234 160.0
1312.835815 236.0
1313.939331 20.0
1314.372192 28.0
1315.194946 168.0
1315.815796 112.0
1316.03418 168.0
1317.028931 52.0
1317.570679 144.0
1317.642944 152.0
1318.401611 72.0
1319.471436 140.0
1320.259521 176.0
1320.63562 60.0
1321.785889 176.0
1321.84375 144.0
1321.981201 184.0
1322.068115 128.0
1322.118774 132.0
1323.819946 104.0
1324.080688 144.0
1324.167603 92.0
1324.312378 152.0
1324.413818 208.0
1324.580444 124.0
1324.681763 124.0
1325.348267 132.0
1326.275879 116.0
1326.536865 112.0
1327.276367 144.0
1327.617188 200.0
1329.648438 208.0
1329.844482 148.0
1330.091187 88.0
1331.268555 128.0
1331.470703 156.0
1331.775757 108.0
1331.862915 148.0
1332.164551 220.0
1332.46582 124.0
1332.887207 180.0
1332.93811 204.0
1333.119751 84.0
1333.577637 224.0
1333.737549 116.0
1334.522705 184.0
1335.089844 200.0
1336.362427 200.0
1336.610107 92.0
1336.828491 192.0
1336.930298 148.0
1337.177734 112.0
1337.541748 96.0
1337.978516 152.0
1338.477661 172.0
1338.815796 176.0
1339.267334 200.0
1339.558716 196.0
1340.112427 168.0
1340.32373 184.0
1340.753662 156.0
1340.997925 180.0
1341.701172 156.0
1342.160522 204.0
1342.459473 112.0
1342.683228 148.0
1342.838745 136.0
1343.425903 136.0
1345.129761 176.0
1345.53125 148.0
1346.072388 188.0
1346.297974 208.0
1347.013672 176.0
1347.079468 124.0
1347.707764 120.0
1348.168091 152.0
1348.562744 164.0
1348.635864 208.0
1349.110962 136.0
1349.264526 52.0
1349.403442 144.0
1349.513062 100.0
1350.310181 172.0
1350.397949 152.0
1350.500244 148.0
1350.800171 108.0
1351.261108 180.0
1351.817139 124.0
1352.380615 108.0
1352.819824 112.0
1353.054077 188.0
1353.207886 132.0
1353.639893 60.0
1353.837524 144.0
1354.101196 112.0
1354.29895 200.0
1354.357544 128.0
1355.177979 140.0
1356.47522 128.0
1357.127686 176.0
1358.682495 96.0
1359.159424 148.0
1359.643677 164.0
1359.981323 152.0
1361.199951 200.0
1362.441162 120.0
1363.903564 140.0
1364.102051 80.0
1364.594604 132.0
1364.734253 116.0
1365.175415 160.0
1365.329834 112.0
1365.58728 136.0
1365.697632 164.0
1365.829956 136.0
1366.123413 176.0
1366.264038 196.0
1366.69812 164.0
1366.779053 200.0
1366.933594 164.0
1367.124878 156.0
1367.559082 136.0
1368.074341 188.0
1368.408203 216.0
1368.538208 124.0
1368.744263 180.0
1369.326416 168.0
1369.421875 112.0
1369.712769 184.0
1370.961182 176.0
1371.182617 224.0
1371.307983 120.0
1371.723389 156.0
1371.912354 212.0
1372.081909 132.0
1372.183105 56.0
1372.242554 192.0
1372.708618 120.0
1373.654785 140.0
1373.770752 180.0
1374.117432 144.0
1375.187378 92.0
1375.253906 140.0
1375.379395 104.0
1375.863159 116.0
1376.2948 168.0
1376.457153 208.0
1376.900269 56.0
1376.996338 176.0
1377.05542 168.0
1377.432007 152.0
1377.483765 60.0
1377.683228 92.0
1378.702881 252.0
1379.050171 60.0
1379.537109 152.0
1380.255249 220.0
1380.307007 112.0
1380.698853 84.0
1380.824585 164.0
1381.157471 176.0
1381.416382 116.0
1381.497681 36.0
1381.741821 188.0
1382.703735 152.0
1382.762939 208.0
1383.636475 136.0
1384.065918 136.0
1384.117676 156.0
1384.287964 168.0
1384.562012 60.0
1384.687866 196.0
1385.502686 116.0
1386.295532 136.0
1386.614136 136.0
1386.747559 136.0
1387.622314 188.0
1387.7854 112.0
1388.022705 220.0
1388.734619 132.0
1389.105469 136.0
1389.535767 172.0
1390.136719 60.0
1390.633911 144.0
1390.916016 128.0
1391.161011 212.0
1391.404297 192.0
1392.16333 128.0
1392.282104 176.0
1392.348999 184.0
1393.188232 160.0
1393.700928 232.0
1394.154175 48.0
1394.228516 108.0
1394.280518 168.0
1394.377197 148.0
1394.533203 216.0
1395.298828 196.0
1396.168823 188.0
1397.009277 84.0
1397.9021 124.0
1398.609131 172.0
1398.862183 104.0
1399.338623 164.0
1399.591797 200.0
1399.681152 108.0
1399.800293 180.0
1400.224731 152.0
1400.470581 228.0
1400.545044 120.0
1400.604614 76.0
1401.006836 140.0
1401.565674 240.0
1402.831055 212.0
1403.235229 204.0
1404.584961 68.0
1405.248901 116.0
1405.383179 164.0
1405.539917 148.0
1406.069702 184.0
1406.398071 168.0
1406.763916 136.0
1407.002808 80.0
1407.323853 80.0
1407.435791 100.0
1407.576538 164.0
1407.868896 60.0
1409.176025 92.0
1409.564575 128.0
1409.811157 160.0
1409.998047 164.0
1410.238647 192.0
1410.31189 176.0
1410.543701 80.0
1410.775391 236.0
1411.029297 132.0
1411.10437 92.0
1411.156616 152.0
1411.485596 124.0
1411.754883 92.0
1411.922363 140.0
1412.480347 68.0
1412.622437 188.0
1413.258301 176.0
1414.53064 148.0
1415.062134 180.0
1415.114502 120.0
1415.608643 124.0
1415.70813 196.0
1415.990601 140.0
1416.357666 116.0
1416.724731 112.0
1417.039307 92.0
1417.196655 200.0
1417.510132 208.0
1417.728638 208.0
1418.275757 168.0
1418.478149 176.0
1420.09021 120.0
1420.262817 192.0
1420.450317 84.0
1420.750366 152.0
1420.900391 168.0
1421.005371 140.0
1421.177979 168.0
1421.247314 216.0
1421.755737 128.0
1421.853394 160.0
1421.943359 32.0
1422.41626 152.0
1423.275879 144.0
1423.534912 44.0
1423.625 132.0
1423.775269 60.0
1423.999023 176.0
1424.148193 140.0
1424.174316 252.0
1424.710693 144.0
1424.977051 140.0
1425.202515 156.0
1425.690918 172.0
1426.840942 172.0
1426.923584 268.0
1427.337158 172.0
1427.532593 140.0
1428.618164 96.0
1428.894043 120.0
1429.330444 140.0
1429.428223 92.0
1429.548706 256.0
1429.642212 216.0
1430.308838 80.0
1430.758057 216.0
1431.724243 196.0
1431.920044 152.0
1432.037842 56.0
1432.168579 208.0
1432.63562 80.0
1432.923706 152.0
1433.223267 160.0
1433.38147 116.0
1435.1604 56.0
1436.20105 148.0
1436.425659 36.0
1436.910156 196.0
1437.038452 440.0
1437.808105 268.0
1437.928833 136.0
1438.072266 160.0
1438.155273 160.0
1438.721436 308.0
1438.976685 156.0
1439.891724 156.0
1440.035278 124.0
1440.722656 160.0
1441.243896 160.0
1441.508423 184.0
1441.908936 204.0
1442.046265 116.0
1443.466187 164.0
1444.018188 180.0
1444.426636 44.0
1444.903198 152.0
1445.092407 152.0
1445.20105 192.0
1445.312256 132.0
1446.734619 216.0
1446.83313 212.0
1447.522095 156.0
1447.797974 156.0
1447.923462 128.0
1447.999146 76.0
1448.680908 184.0
1449.059692 88.0
1449.332397 180.0
1449.514282 132.0
1449.946167 128.0
1450.166016 104.0
1450.603394 180.0
1450.71936 140.0
1451.052856 96.0
1451.727783 176.0
1452.084106 152.0
1452.888184 52.0
1453.123413 56.0
1453.59375 216.0
1454.61084 144.0
1454.937256 144.0
1455.089111 124.0
1455.158569 128.0
1455.886353 184.0
1456.147339 128.0
1456.683838 116.0
1456.835693 160.0
1457.10437 224.0
1457.314331 76.0
1457.453369 176.0
1457.603149 176.0
1458.051392 144.0
1458.644287 220.0
1460.537598 220.0
1460.644165 100.0
1460.819092 168.0
1460.933228 96.0
1461.049316 160.0
1461.633179 44.0
1461.69397 196.0
1462.082153 184.0
1462.317993 148.0
1462.41394 148.0
1462.721436 116.0
1462.972656 116.0
1463.178223 84.0
1463.254272 140.0
1463.315186 160.0
1463.970093 220.0
1464.11438 156.0
1464.358398 120.0
1464.876343 200.0
1464.967773 268.0
1465.121216 148.0
1465.875732 116.0
1466.18689 128.0
1466.293579 140.0
1466.442627 196.0
1466.720459 252.0
1466.773804 136.0
1466.872803 124.0
1467.063477 212.0
1467.139648 152.0
1467.368408 36.0
1467.68103 68.0
1468.245239 236.0
1468.466431 132.0
1468.695312 112.0
1469.130005 128.0
1469.297852 156.0
1470.07373 168.0
1470.175293 160.0
1471.205811 76.0
1471.297363 136.0
1471.579834 96.0
1471.702026 272.0
1471.839478 136.0
1471.923462 164.0
1472.137207 176.0
1472.282349 140.0
1472.374023 164.0
1472.458008 136.0
1472.786377 92.0
1473.298218 72.0
1475.055786 104.0
1476.087891 128.0
1476.393799 160.0
1476.776123 156.0
1476.974976 220.0
1477.143311 116.0
1477.683105 196.0
1477.893066 228.0
1478.099609 100.0
1478.803711 168.0
1478.903198 112.0
1478.964478 112.0
1479.048584 72.0
1479.235107 208.0
1479.530884 224.0
1479.867676 128.0
1480.005615 192.0
1480.181641 172.0
1480.396118 152.0
1480.625854 128.0
1480.855591 184.0
1481.077637 68.0
1481.537354 84.0
1481.621582 184.0
1481.866699 216.0
1481.966309 152.0
1482.265137 196.0
1482.456787 204.0
1482.510376 108.0
1482.736694 200.0
1483.345825 196.0
1483.882446 144.0
1484.136841 152.0
1484.296387 188.0
1484.702881 236.0
1484.787231 116.0
1485.787354 228.0
1486.21106 232.0
1486.283081 152.0
1486.505615 188.0
1487.088867 140.0
1487.234619 208.0
1487.664551 164.0
1487.802734 196.0
1488.109863 164.0
1488.232666 164.0
1488.347778 124.0
1488.532104 88.0
1488.608887 92.0
1488.869995 100.0
1489.336182 148.0
1489.599609 88.0
1490.233398 192.0
1490.36792 136.0
1490.583008 64.0
1490.967285 164.0
1491.712769 152.0
1491.989502 180.0
1492.112549 272.0
1492.612305 188.0
1493.089111 136.0
1493.227539 224.0
1493.281372 116.0
1493.658203 164.0
1493.789062 192.0
1493.858276 132.0
1494.481445 176.0
1495.120117 276.0
1495.412598 136.0
1495.712769 156.0
1496.082275 180.0
1496.259277 80.0
1496.436401 88.0
1496.667358 52.0
1496.93689 156.0
1497.098511 72.0
1497.260254 88.0
1497.491333 196.0
1497.869385 148.0
1498.084473 140.0
1498.16394 148.0
1498.276978 212.0
1499.109131 88.0
1499.463623 192.0
1499.617798 192.0
1499.848999 156.0
1499.995483 80.0
1500.203613 160.0
1500.265259 112.0
1500.380859 180.0
1500.760254 196.0
1500.905151 148.0
1501.110962 168.0
1501.360107 188.0
1501.653198 220.0
1502.054321 128.0
1502.146851 136.0
1502.424561 192.0
1502.625122 212.0
1502.895142 120.0
1503.358154 124.0
1503.66687 160.0
1503.990967 192.0
1504.160889 92.0
