>compound Melatonin
>formula C13H16N2O2
>ionization [M+Na]+
>parentmass 255.11039845209052
#inchi InChI=1S/C13H16N2O2/c1-9(16)14-6-5-10-8-15-13-4-3-11(17-2)7-12(10)13/h3-4,7-8,15H,5-6H2,1-2H3,(H,14,16)
#inchikey DRLFMBDRBRZALE
#Ion_Source DI-ESI
#Instrument qTof
#Compound_Source Commercial
#PI Norberto Lopes
#Data_Collector Norberto Lopes
#Scan -1
#Precursor_MZ 255.105
#ExactMass 232.121
#Charge 1
#CAS_Number 73-31-4
#Pubmed_ID N/A
#Smiles COC1=CC=C2C(C(CCNC(C)=O)=CN2)=C1
#INCHI_AUX N/A
#Library_Class 3
#SpectrumID CCMSLIB00000081599
#IonMode Positive
#UpdateWorkflowName UPDATE-SINGLE-ANNOTATED-BRONZE
#LibraryQualityString Bronze
#TaskID 4a07f16a650f4095b43fe6b0b09ff8bb
##Scan# 1
#SpectrumFile gnps_Melatonin_pos_MplusNa.mgf
#LibraryName gnps_library.mgf
#MQScore -1
#Organism batch_27_05
#TIC_Query 0
#RT_Query -1
#MZErrorPPM -1
#SharedPeaks 0
#MassDiff 0
#LibMZ -1
#SpecMZ 255.105
#SpecCharge 0
#internalFilename spec-00000.mgf

>collision 10
130.058624 1499.0
131.066788 2654.0
142.057693 455.0
143.06636 2899.0
144.072815 1125.0
146.053619 932.0
147.070435 490.0
158.054382 921.0
159.062714 10546.0
160.06749 1726.0
173.080505 1281.0
174.086533 31059.0
175.087479 3366.0
176.091797 319.0
216.096909 403.0
255.105103 162.0
