>compound MLS001159926-01!
>formula C25H26N2O5
>ionization [M+H]+
>parentmass 435.1914483840905
#inchi InChI=1S/C25H26N2O5/c1-2-4-17-10-25(30)32-22-11-19(7-8-20(17)22)31-15-24(29)26-12-16-9-18(14-26)21-5-3-6-23(28)27(21)13-16/h3,5-8,10-11,16,18H,2,4,9,12-15H2,1H3/t16-,18+/m1/s1
#inchikey XRWSZKKTRVKCJW
#Ion_Source LC-ESI
#Instrument qTof
#Compound_Source NIH Natural Product Library
#PI Dorrestein
#Data_Collector VVP/LMS
#Scan -1
#Precursor_MZ 435.192
#ExactMass 434.184
#Charge 1
#CAS_Number N/A
#Pubmed_ID N/A
#Smiles CCCc1cc(=O)oc2cc(OCC(=O)N3C[C@H]4C[C@@H](C3)c5cccc(=O)n5C4)ccc12
#INCHI_AUX N/A
#Library_Class 1
#SpectrumID CCMSLIB00000080196
#IonMode Positive
#UpdateWorkflowName UPDATE-SINGLE-ANNOTATED-GOLD
#LibraryQualityString Gold
#TaskID b1d8e8f6646f4e71acdff9ca3d919d08
##Scan# 1819
#SpectrumFile p2-D05_GD5_01_18017.mzXML
#LibraryName NIH_Natural_Products_Library.mgf
#MQScore -1
#Organism NIH_Natural_Products_Library
#TIC_Query 0
#RT_Query -1
#MZErrorPPM -1
#SharedPeaks 0
#MassDiff 0
#LibMZ -1
#SpecMZ 435.192
#SpecCharge 0
#internalFilename spec-00000.mgf

>collision 10
95.011894 196.0
95.039055 128.0
95.068893 148.0
95.074326 180.0
95.350906 128.0
95.381012 188.0
95.437225 104.0
95.670692 136.0
95.738838 176.0
95.953171 208.0
95.970718 72.0
96.037025 196.0
96.078293 152.0
96.173607 140.0
96.490509 160.0
96.969643 188.0
96.987282 44.0
97.010803 176.0
97.065338 216.0
97.126495 140.0
97.360046 84.0
97.560463 132.0
97.621414 164.0
97.643044 168.0
97.688286 112.0
97.912666 216.0
97.942215 132.0
97.979637 176.0
97.993431 116.0
98.012581 236.0
98.05452 48.0
98.137306 84.0
98.211533 244.0
98.295105 112.0
98.368126 164.0
98.468826 192.0
98.506355 100.0
98.528084 28.0
98.555748 52.0
98.577477 68.0
98.769249 116.0
99.004776 184.0
99.042404 80.0
99.101837 64.0
99.162315 192.0
99.206093 244.0
99.26635 168.0
99.282219 208.0
99.300064 184.0
99.625595 136.0
99.641487 192.0
99.730911 124.0
99.752823 160.0
99.965584 188.0
100.082253 352.0
100.132805 172.0
100.204521 136.0
100.218468 144.0
100.252342 128.0
100.332069 216.0
100.399857 184.0
100.627335 144.0
100.703217 72.0
100.719193 352.0
100.791115 348.0
100.857063 168.0
100.891045 208.0
101.022408 244.0
101.067047 240.0
101.167114 144.0
101.191139 124.0
101.228004 160.0
101.277245 156.0
101.351372 160.0
101.610008 128.0
101.82077 192.0
101.846878 136.0
101.931824 196.0
102.023712 88.0
102.056534 160.0
102.075989 184.0
102.104141 268.0
102.148041 320.0
102.174545 148.0
102.234909 160.0
102.263084 128.0
102.279182 92.0
102.353668 164.0
102.406029 52.0
102.436241 156.0
102.454376 176.0
102.47049 172.0
102.505577 136.0
102.672058 104.0
102.734589 64.0
102.811264 36.0
102.855659 164.0
102.936417 136.0
103.053459 200.0
103.144508 88.0
103.427017 168.0
103.49247 84.0
103.551201 232.0
103.568687 252.0
103.589684 64.0
103.620071 228.0
103.652489 156.0
103.749771 332.0
103.770042 304.0
103.94651 68.0
103.985069 48.0
104.049278 576.0
104.084984 236.0
104.137337 208.0
104.155617 224.0
104.240944 140.0
104.255173 236.0
104.31411 216.0
104.330376 220.0
104.415649 192.0
104.503242 140.0
104.529694 248.0
104.576508 164.0
104.61721 172.0
104.788284 224.0
104.818848 252.0
104.971725 200.0
105.041718 188.0
105.063919 200.0
105.20636 132.0
105.33297 108.0
105.592545 172.0
105.625267 160.0
106.022469 160.0
106.036812 124.0
106.067024 516.0
106.198784 144.0
106.237755 140.0
106.401932 160.0
106.417084 116.0
106.572403 136.0
106.62513 212.0
106.681328 208.0
106.889053 76.0
106.922142 196.0
106.942558 68.0
106.987846 248.0
107.079552 156.0
107.158775 140.0
107.395844 196.0
107.443283 116.0
107.532936 188.0
107.576546 240.0
107.775688 152.0
107.862488 248.0
107.93071 140.0
108.043831 196.0
108.061012 160.0
108.081703 352.0
108.139648 212.0
108.185188 132.0
108.21003 140.0
108.236946 68.0
108.255585 116.0
108.313576 152.0
108.416893 180.0
108.439964 196.0
108.481415 200.0
108.60376 144.0
108.751625 164.0
108.956642 100.0
108.996124 68.0
109.012749 60.0
109.052719 1892.0
109.085487 72.0
109.107864 168.0
109.326752 212.0
109.529991 208.0
109.537819 160.0
109.607315 208.0
109.709999 424.0
109.724594 124.0
109.979881 220.0
110.058296 188.0
110.144035 36.0
110.229691 184.0
110.246414 152.0
110.294479 116.0
110.327927 68.0
110.534988 124.0
110.767372 164.0
110.821846 144.0
110.851181 92.0
110.886803 156.0
110.93058 176.0
111.025169 232.0
111.065758 600.0
111.144737 128.0
111.230782 136.0
111.375206 164.0
111.487015 180.0
111.529053 232.0
111.621552 240.0
111.674126 48.0
111.783524 108.0
111.882446 132.0
112.093063 48.0
112.249054 44.0
112.320755 176.0
112.469482 140.0
112.643715 160.0
112.79586 164.0
112.876198 84.0
112.932419 212.0
112.994644 128.0
113.100449 192.0
113.303734 140.0
113.43512 144.0
113.532654 236.0
113.585678 128.0
113.772415 160.0
113.946564 112.0
114.042183 188.0
114.112335 144.0
114.21228 144.0
114.316391 184.0
114.377853 232.0
114.458183 44.0
114.508133 132.0
114.58419 164.0
114.608253 184.0
114.659393 132.0
114.731865 164.0
114.870476 116.0
114.975021 248.0
115.055534 520.0
115.081757 208.0
115.150085 144.0
115.171448 164.0
115.203484 184.0
115.263306 152.0
115.303909 132.0
115.387276 136.0
115.45356 216.0
115.498474 140.0
115.560432 108.0
115.599022 172.0
115.648247 204.0
115.738159 172.0
115.793839 176.0
115.819542 148.0
115.834534 208.0
115.94809 136.0
116.046349 296.0
116.060196 472.0
116.117455 168.0
116.213989 84.0
116.392136 124.0
116.417908 96.0
116.521004 184.0
116.60051 128.0
116.656395 148.0
116.791862 124.0
116.974762 140.0
117.059776 1108.0
117.175034 184.0
117.233215 156.0
117.328049 160.0
117.558838 212.0
117.573944 132.0
117.632217 172.0
117.658127 156.0
117.694832 76.0
117.733696 160.0
118.06218 312.0
118.323006 148.0
118.382454 216.0
118.50592 56.0
118.64679 172.0
118.661964 184.0
118.798592 108.0
118.829811 164.0
118.898399 116.0
118.956329 128.0
119.071762 160.0
119.086304 312.0
119.163315 196.0
119.274147 176.0
119.376328 220.0
119.495956 144.0
119.515541 172.0
119.604767 148.0
119.650482 184.0
119.726692 168.0
119.807281 132.0
119.92495 72.0
120.012146 124.0
120.081551 304.0
120.191002 48.0
120.228096 196.0
120.455162 144.0
120.667145 248.0
120.809669 140.0
120.833359 120.0
120.918694 88.0
120.960281 140.0
121.039085 452.0
121.102905 148.0
121.128891 76.0
121.185852 132.0
121.350227 304.0
121.372154 200.0
121.464264 136.0
121.497169 136.0
121.532135 188.0
121.637611 40.0
121.67054 176.0
121.714455 292.0
121.751785 156.0
121.905556 216.0
121.925339 140.0
122.002266 104.0
122.060081 3088.0
122.106712 104.0
122.1408 120.0
122.185555 116.0
122.303627 128.0
122.33149 140.0
122.356972 188.0
122.374069 152.0
122.402695 28.0
122.420311 144.0
122.515022 36.0
122.570099 152.0
122.625191 244.0
122.766815 184.0
122.942772 184.0
122.984703 152.0
123.064957 992.0
123.238655 128.0
123.395584 120.0
123.437592 132.0
123.525391 160.0
123.530563 112.0
123.537819 164.0
123.767288 148.0
123.922325 172.0
124.074066 476.0
124.137337 88.0
124.249428 164.0
124.28817 152.0
124.359184 128.0
124.452415 36.0
124.661217 128.0
124.703438 104.0
124.870186 212.0
124.923569 204.0
124.956337 264.0
124.962921 192.0
125.021652 148.0
125.141029 180.0
125.186203 124.0
125.239655 112.0
125.502617 148.0
125.701134 124.0
125.752464 156.0
125.852921 180.0
125.919907 176.0
126.015678 156.0
126.056183 176.0
126.161598 168.0
126.440819 176.0
126.460968 76.0
126.514687 84.0
126.644562 76.0
126.671661 200.0
126.71875 168.0
126.738365 160.0
126.859673 184.0
126.882088 140.0
126.959908 204.0
127.032341 280.0
127.197601 228.0
127.256462 152.0
127.407234 144.0
127.434189 172.0
127.546555 88.0
127.582779 104.0
127.652222 196.0
127.679207 156.0
127.697197 116.0
127.72419 124.0
127.742188 164.0
127.791679 152.0
127.83313 176.0
127.898438 236.0
127.973984 128.0
128.052673 136.0
128.064926 208.0
128.109116 192.0
128.37056 148.0
128.397614 80.0
128.413406 224.0
128.770996 192.0
129.069077 316.0
129.08638 160.0
129.161026 168.0
129.375992 180.0
129.611542 168.0
129.65686 160.0
129.75206 164.0
129.799667 168.0
129.826889 168.0
130.065491 400.0
130.258118 208.0
130.369446 152.0
130.458084 116.0
130.508102 184.0
130.526291 140.0
130.544479 144.0
130.798431 156.0
130.830124 148.0
130.871231 100.0
131.046478 176.0
131.085678 2252.0
131.154633 100.0
131.200333 168.0
131.309662 184.0
131.371246 104.0
131.464798 52.0
131.695389 132.0
131.736496 156.0
131.786758 104.0
131.841599 140.0
131.935318 172.0
132.045898 1636.0
132.08197 884.0
132.109116 136.0
132.151993 216.0
132.189194 44.0
132.23877 168.0
132.387711 100.0
132.40097 148.0
132.434158 128.0
132.564743 180.0
132.612869 136.0
132.7229 216.0
132.979828 124.0
133.00737 232.0
133.029587 176.0
133.053146 2852.0
133.099411 380.0
133.142838 68.0
133.259979 48.0
133.278366 200.0
133.349609 96.0
133.39328 180.0
133.409363 68.0
133.496735 232.0
133.545029 152.0
133.563431 160.0
133.681686 172.0
133.917892 160.0
134.007736 44.0
134.032501 160.0
134.060486 7100.0
134.098587 312.0
134.152924 220.0
134.168839 164.0
134.257629 96.0
134.309723 140.0
134.34201 160.0
134.395996 100.0
134.452759 112.0
134.508163 176.0
134.605118 64.0
134.715988 132.0
134.750641 184.0
134.769775 236.0
135.064911 972.0
135.099808 232.0
135.139053 48.0
135.169128 140.0
135.187653 144.0
135.356628 68.0
135.590607 76.0
135.611465 156.0
135.646225 232.0
135.66246 60.0
135.697235 120.0
135.769104 136.0
135.933807 64.0
135.952377 164.0
136.003433 52.0
136.074875 692.0
136.09433 204.0
136.182617 116.0
136.207764 32.0
136.33873 236.0
136.389008 196.0
136.426193 160.0
136.582001 112.0
136.803055 180.0
136.87291 112.0
136.933456 40.0
137.028961 92.0
137.067535 216.0
137.085754 148.0
137.215408 132.0
137.237381 124.0
137.376312 140.0
137.408981 164.0
137.490646 172.0
137.530319 136.0
137.61203 136.0
137.647049 200.0
137.72879 52.0
137.911041 108.0
137.960129 140.0
138.079376 184.0
138.109772 208.0
138.64592 48.0
138.692795 164.0
138.751404 156.0
138.819397 144.0
138.847534 148.0
138.992981 168.0
139.077469 140.0
139.223022 160.0
139.559052 56.0
139.718979 72.0
139.814987 200.0
140.015549 152.0
140.055023 148.0
140.215805 60.0
140.567184 100.0
140.583694 136.0
140.713516 236.0
140.961517 244.0
141.032425 116.0
141.068283 736.0
141.162445 140.0
141.320923 208.0
141.347275 120.0
141.458191 224.0
141.481857 204.0
141.578934 168.0
141.623932 216.0
141.744766 168.0
141.837189 160.0
141.934387 176.0
142.017105 228.0
142.065216 208.0
142.228561 144.0
142.291489 160.0
142.401886 180.0
142.511154 148.0
142.546799 48.0
142.62999 32.0
143.005783 164.0
143.080521 764.0
143.127197 232.0
143.277664 156.0
143.386856 124.0
143.415451 128.0
143.448822 200.0
143.475052 144.0
143.567581 188.0
143.646744 172.0
143.839432 228.0
143.916412 200.0
144.05423 416.0
144.076431 152.0
144.097931 112.0
144.291519 184.0
144.516342 184.0
144.540268 136.0
144.564194 152.0
144.580948 156.0
144.738937 156.0
144.837128 116.0
144.937744 176.0
145.050095 496.0
145.088531 460.0
145.139084 252.0
145.201431 340.0
145.288788 212.0
145.33461 132.0
145.479767 96.0
145.60463 68.0
145.635849 120.0
145.686295 172.0
145.707916 84.0
145.739151 208.0
145.811234 192.0
145.858459 160.0
145.960419 140.0
146.016251 136.0
146.060623 27140.0
146.155106 76.0
146.238022 44.0
146.352478 136.0
146.381378 84.0
146.446823 184.0
146.480118 64.0
146.509583 192.0
146.542755 32.0
146.574585 192.0
146.602997 168.0
146.619858 108.0
146.676849 168.0
146.731201 228.0
146.757263 120.0
146.81514 44.0
146.892319 152.0
147.003296 116.0
147.06781 14144.0
147.10527 240.0
147.131226 176.0
147.194 44.0
147.215729 120.0
147.244705 80.0
147.288177 88.0
147.333038 76.0
147.360657 236.0
147.394485 120.0
147.413818 64.0
147.435562 176.0
147.476822 108.0
147.579956 152.0
147.611679 140.0
147.741699 72.0
147.834579 64.0
147.873688 328.0
147.921707 124.0
147.955597 52.0
148.023392 184.0
148.075134 8908.0
148.154175 108.0
148.17598 56.0
148.225418 60.0
148.283295 112.0
148.323807 104.0
148.4814 40.0
148.505661 52.0
148.617249 208.0
148.643936 192.0
148.711884 160.0
148.769272 72.0
148.80899 296.0
148.845413 80.0
148.874542 96.0
148.90126 252.0
148.923111 68.0
148.954697 248.0
149.013 160.0
149.050186 664.0
149.074722 2384.0
149.094315 852.0
149.143509 144.0
149.184845 28.0
149.231735 88.0
149.268204 52.0
149.296463 116.0
149.34642 148.0
149.383881 100.0
149.4263 32.0
149.565018 148.0
149.635605 88.0
149.662399 268.0
149.723267 152.0
149.743607 104.0
149.786591 68.0
149.957153 152.0
149.991272 48.0
150.027847 172.0
150.049774 72.0
150.071732 196.0
150.091721 236.0
150.347366 184.0
150.530441 156.0
150.581024 208.0
150.652573 76.0
150.987427 148.0
151.061813 136.0
151.195374 216.0
151.259003 144.0
151.30307 72.0
151.352036 40.0
151.427948 52.0
151.506332 192.0
151.555344 124.0
151.594543 132.0
151.731796 120.0
151.926483 248.0
152.017059 80.0
152.04332 88.0
152.153671 192.0
152.188141 60.0
152.399368 248.0
152.4608 68.0
152.595062 132.0
152.62796 220.0
152.832047 156.0
152.864105 148.0
153.127518 212.0
153.176773 196.0
153.221115 60.0
153.460175 132.0
153.509491 188.0
153.618011 164.0
153.674759 144.0
153.706833 260.0
153.861557 152.0
153.894424 232.0
154.010483 156.0
154.059753 232.0
154.213089 44.0
154.339157 176.0
154.59642 112.0
154.699066 168.0
154.71402 164.0
154.970322 172.0
155.039688 200.0
155.065414 296.0
155.158676 140.0
155.295059 156.0
155.386841 160.0
155.514252 184.0
155.726913 32.0
155.744293 144.0
155.890884 136.0
156.005203 176.0
156.027588 204.0
156.052444 124.0
156.080017 212.0
156.176788 76.0
156.399231 164.0
156.542618 164.0
156.634781 56.0
156.761719 168.0
156.819153 88.0
156.921356 184.0
157.043549 184.0
157.063507 124.0
157.118378 52.0
157.223175 104.0
157.300552 192.0
157.335495 144.0
157.352982 220.0
157.435379 164.0
157.512802 128.0
157.57431 296.0
157.677704 200.0
157.760193 220.0
157.837692 120.0
157.922714 164.0
158.032135 260.0
158.064987 664.0
158.132889 204.0
158.21048 180.0
158.308502 212.0
158.390778 160.0
158.480957 128.0
158.611282 56.0
158.722412 228.0
158.912201 116.0
158.929764 136.0
158.98999 104.0
159.074203 1724.0
159.187195 108.0
159.248581 76.0
159.29129 136.0
159.341522 144.0
159.399307 184.0
159.464661 56.0
159.515366 68.0
159.683136 156.0
159.794067 208.0
159.847839 164.0
159.867035 204.0
159.907303 160.0
159.945053 128.0
160.038208 180.0
160.076752 17996.0
160.114441 308.0
160.136551 76.0
160.164124 80.0
160.227661 156.0
160.249771 124.0
160.305206 108.0
160.338776 148.0
160.364059 56.0
160.403488 160.0
160.438782 160.0
160.456436 144.0
160.484161 140.0
160.713684 64.0
160.751541 204.0
160.799484 136.0
160.824722 96.0
160.973679 52.0
161.019135 180.0
161.080032 3832.0
161.150482 60.0
161.184387 48.0
161.213654 196.0
161.253357 180.0
161.279373 180.0
161.370377 44.0
161.400711 92.0
161.461395 148.0
161.587875 52.0
161.63089 200.0
161.701752 36.0
161.975418 136.0
162.060379 288.0
162.090897 2792.0
162.184082 64.0
162.256485 72.0
162.404327 184.0
162.426392 52.0
162.471146 56.0
162.687759 76.0
162.715683 56.0
162.751221 196.0
163.038269 300.0
163.075592 344.0
163.095139 356.0
163.150101 140.0
163.244171 176.0
163.315384 184.0
163.341736 56.0
163.554565 72.0
163.610565 40.0
163.788818 52.0
163.814285 176.0
163.849945 148.0
163.867783 64.0
164.102264 140.0
164.245071 76.0
164.477264 200.0
164.635559 180.0
164.809265 148.0
165.010193 252.0
165.039291 156.0
165.077911 156.0
165.113449 32.0
165.356506 100.0
165.570374 144.0
165.643265 104.0
165.707306 168.0
165.958481 144.0
166.02002 52.0
166.109787 172.0
166.279129 136.0
166.754272 116.0
166.782532 164.0
166.944504 140.0
167.073547 160.0
167.091125 152.0
167.209488 84.0
167.253235 148.0
167.273834 168.0
167.503006 160.0
167.698822 224.0
167.778732 112.0
167.979874 136.0
168.101135 204.0
168.379944 188.0
168.589203 60.0
168.62796 64.0
168.648651 152.0
168.788239 136.0
168.816696 144.0
169.032898 168.0
169.081818 140.0
169.16597 192.0
169.432709 176.0
169.471573 200.0
169.551895 104.0
169.603729 124.0
169.782623 160.0
170.075806 120.0
170.11261 132.0
170.161469 48.0
170.236771 128.0
170.301697 224.0
170.522537 192.0
170.735718 60.0
170.938629 96.0
171.089081 436.0
171.144257 124.0
171.206757 176.0
171.280197 60.0
171.32135 112.0
171.381271 44.0
171.537643 220.0
171.595001 188.0
171.764496 140.0
171.868851 140.0
171.931488 144.0
172.04744 168.0
172.075806 3676.0
172.139206 84.0
172.416611 188.0
172.443359 132.0
172.490417 100.0
172.665588 88.0
172.752686 168.0
172.778061 104.0
172.798996 156.0
172.859177 156.0
172.984802 124.0
173.008362 148.0
173.049408 100.0
173.055298 148.0
173.084137 13220.0
173.199509 80.0
173.221588 84.0
173.243744 68.0
173.265305 156.0
173.293823 76.0
173.342651 44.0
173.360764 80.0
173.409119 68.0
173.498245 52.0
173.521835 60.0
173.647705 164.0
173.739517 72.0
173.757874 104.0
173.852341 172.0
174.068497 448.0
174.089661 2452.0
174.146378 72.0
174.1884 84.0
174.261963 152.0
174.385468 88.0
174.430634 108.0
174.484634 204.0
174.612228 160.0
174.672058 52.0
174.698364 244.0
174.764145 164.0
174.792633 116.0
174.861496 124.0
174.990494 148.0
175.04863 1128.0
175.089798 364.0
175.13269 140.0
175.160416 152.0
175.196854 56.0
175.261765 48.0
175.293396 144.0
175.311844 60.0
175.361908 96.0
175.448898 220.0
175.475266 96.0
175.567551 44.0
175.717896 220.0
175.736359 108.0
175.995026 144.0
176.016144 188.0
176.039261 176.0
176.059723 160.0
176.084137 1180.0
176.132355 172.0
176.162903 68.0
176.179901 236.0
176.222168 136.0
176.261795 104.0
176.299393 88.0
176.319946 60.0
176.579025 216.0
177.044815 116.0
177.099777 164.0
177.209793 84.0
177.304428 68.0
177.341537 152.0
177.381287 160.0
177.630554 80.0
177.803009 68.0
177.93042 92.0
178.081772 80.0
178.126938 48.0
178.198044 240.0
178.440506 172.0
179.11911 148.0
179.233673 160.0
179.428223 52.0
179.45755 40.0
179.638901 128.0
179.807007 148.0
180.023407 196.0
180.215561 92.0
180.357193 204.0
180.458771 112.0
180.541672 160.0
180.635284 148.0
180.668839 192.0
180.758423 136.0
181.060852 116.0
181.229965 176.0
181.384262 180.0
181.427933 56.0
181.484222 104.0
181.803436 168.0
182.140457 68.0
182.362045 228.0
182.958755 144.0
182.994202 192.0
183.069595 292.0
183.08844 72.0
183.131531 144.0
183.395584 104.0
183.446793 184.0
183.584305 60.0
183.619354 152.0
183.824387 132.0
183.843277 124.0
183.94043 72.0
184.034927 96.0
184.067322 128.0
184.134048 68.0
184.237473 172.0
184.756531 164.0
184.826874 192.0
184.975723 144.0
185.067764 156.0
185.096069 336.0
185.49852 68.0
185.547318 104.0
185.571716 200.0
185.669327 92.0
185.85379 56.0
185.921631 224.0
185.99762 172.0
186.07785 148.0
186.240845 244.0
186.331635 168.0
186.404999 156.0
186.524582 204.0
186.614288 160.0
186.712189 164.0
186.916199 136.0
186.957016 260.0
186.997849 196.0
187.076019 7700.0
187.109451 152.0
187.136673 88.0
187.172073 140.0
187.202026 108.0
187.264664 72.0
187.308243 80.0
187.406311 48.0
187.520767 116.0
187.567108 68.0
187.613449 76.0
187.714325 180.0
187.825363 156.0
187.938995 108.0
187.962555 96.0
188.003479 100.0
188.07309 2192.0
188.13176 64.0
188.15004 128.0
188.310608 112.0
188.32193 56.0
188.332794 148.0
188.383804 148.0
188.571533 136.0
188.601593 112.0
188.621979 148.0
188.661728 112.0
188.765625 104.0
188.812744 244.0
188.850845 168.0
188.889359 168.0
188.924561 36.0
188.960526 152.0
188.992447 264.0
189.103775 84184.0
189.170609 100.0
189.193649 104.0
189.219025 140.0
189.249481 96.0
189.309052 148.0
189.344986 116.0
189.37175 100.0
189.397751 172.0
189.421814 248.0
189.447922 164.0
189.498367 176.0
189.521683 132.0
189.554413 764.0
189.592346 36.0
189.625778 40.0
189.673523 84.0
189.684479 52.0
189.76503 96.0
189.821121 52.0
189.914856 164.0
189.942139 124.0
189.972763 144.0
189.995407 44.0
190.020096 184.0
190.075867 2000.0
190.10643 16096.0
190.179733 112.0
190.236893 36.0
190.256119 100.0
190.27533 60.0
190.307114 76.0
190.361893 136.0
190.3983 56.0
190.41922 80.0
190.497772 52.0
190.540161 96.0
190.593933 64.0
190.630508 64.0
190.688812 68.0
190.736832 68.0
190.794556 140.0
190.877045 36.0
190.91394 96.0
190.940292 60.0
190.965042 44.0
191.010666 136.0
191.026886 232.0
191.053909 172.0
191.081787 2236.0
191.118179 9488.0
191.183472 204.0
191.215408 44.0
191.247925 128.0
191.272705 132.0
191.291321 124.0
191.320602 92.0
191.341507 64.0
191.374435 104.0
191.396484 164.0
191.424637 120.0
191.464981 208.0
191.522629 116.0
191.548569 96.0
191.570602 64.0
191.623352 220.0
191.660095 124.0
191.686325 144.0
191.705612 44.0
191.73317 72.0
191.766235 36.0
191.810333 88.0
191.84494 80.0
191.994553 64.0
192.025406 100.0
192.086258 200.0
192.120743 2244.0
192.2603 56.0
192.307388 108.0
192.34726 80.0
192.392395 92.0
192.511108 60.0
192.530441 56.0
192.574631 124.0
192.668549 68.0
192.78183 80.0
192.831573 196.0
192.87027 112.0
192.92453 172.0
193.12587 408.0
193.329376 76.0
193.406876 76.0
193.448395 52.0
193.485199 108.0
193.51207 32.0
193.658829 148.0
193.838898 124.0
193.933121 132.0
194.091141 136.0
194.360199 124.0
194.396271 40.0
195.379837 128.0
195.485565 48.0
195.556931 100.0
195.841919 104.0
195.914352 196.0
196.167938 124.0
196.695145 68.0
196.924088 124.0
197.005096 92.0
197.220261 64.0
197.259384 212.0
197.553009 104.0
197.583771 72.0
197.886032 76.0
197.970032 108.0
198.054062 220.0
198.547333 112.0
198.656723 108.0
199.060867 132.0
199.086517 120.0
199.147934 96.0
199.296814 56.0
199.617249 64.0
199.802887 120.0
200.08432 252.0
200.106949 132.0
200.185669 52.0
200.284241 96.0
200.37439 52.0
200.453278 72.0
200.594208 80.0
200.8367 168.0
200.924149 44.0
200.983383 56.0
201.091888 476.0
201.288239 100.0
201.341492 140.0
201.655487 120.0
201.712021 104.0
201.754425 52.0
201.898621 40.0
201.938217 88.0
202.0457 108.0
202.091415 260.0
202.289078 44.0
202.697632 152.0
202.787582 76.0
202.813095 188.0
203.034241 160.0
203.081833 424.0
203.118164 3124.0
203.170395 88.0
203.207275 32.0
203.439987 56.0
204.080322 168.0
204.121567 668.0
204.281128 80.0
204.3311 204.0
204.460373 160.0
204.685257 100.0
205.087692 480.0
205.118301 184.0
205.386337 72.0
205.607452 152.0
205.663101 132.0
205.814407 44.0
205.842957 56.0
206.094315 224.0
206.251495 132.0
206.460205 128.0
206.797791 68.0
206.89798 120.0
207.040009 80.0
207.112747 140.0
207.247391 92.0
207.571289 48.0
208.662354 144.0
208.875153 136.0
209.387466 60.0
209.427795 144.0
210.113846 160.0
210.168671 116.0
210.740356 224.0
211.354889 236.0
211.451706 180.0
212.083099 120.0
212.117874 128.0
212.474564 212.0
213.113297 180.0
213.528976 92.0
213.790802 140.0
214.108444 264.0
214.140167 88.0
214.574341 224.0
214.717224 232.0
214.758057 148.0
215.043976 160.0
215.079468 372.0
215.114517 168.0
215.432327 140.0
215.492188 172.0
215.715775 252.0
215.797638 56.0
215.8181 112.0
215.955551 156.0
216.052078 160.0
216.090103 116.0
216.218857 176.0
216.520401 148.0
216.564331 136.0
216.789917 48.0
216.828018 72.0
216.965775 144.0
217.087494 12348.0
217.154907 64.0
217.17984 92.0
217.235565 56.0
217.31427 68.0
217.435089 72.0
217.455627 56.0
217.487915 88.0
217.543686 40.0
217.56424 68.0
217.658188 124.0
217.687561 184.0
217.740417 84.0
217.960739 156.0
218.004807 128.0
218.08963 2104.0
218.222321 108.0
218.445831 124.0
218.607651 148.0
218.645905 48.0
218.757751 64.0
219.055161 44.0
219.095657 364.0
219.488403 72.0
219.557404 100.0
219.771561 64.0
219.886642 124.0
220.066711 132.0
220.140518 164.0
220.335464 64.0
220.48912 140.0
221.048019 112.0
221.077621 160.0
221.88327 104.0
221.984085 116.0
222.233246 84.0
222.289612 112.0
222.809204 220.0
223.626938 72.0
223.790665 124.0
225.090683 188.0
225.12352 176.0
225.769012 128.0
226.679047 60.0
226.92482 36.0
227.062759 152.0
227.101746 196.0
227.25174 232.0
227.518845 120.0
227.699005 128.0
227.804123 124.0
228.107635 152.0
228.197815 136.0
228.435394 64.0
228.507599 116.0
228.630966 116.0
229.067535 92.0
229.09288 288.0
229.221191 124.0
229.317627 152.0
229.35379 140.0
230.30423 68.0
231.047836 220.0
231.112854 2168.0
231.268738 64.0
231.372498 144.0
231.547287 124.0
231.580597 40.0
231.725998 52.0
231.792664 36.0
231.94722 224.0
231.986633 168.0
232.026031 184.0
232.053314 220.0
232.118362 2624.0
232.274704 32.0
232.335373 72.0
232.544739 32.0
232.78154 172.0
232.83197 88.0
232.857452 112.0
233.126755 684.0
233.173416 52.0
233.249405 72.0
234.118103 164.0
234.143906 40.0
234.262695 104.0
234.299255 120.0
234.369324 136.0
234.793045 72.0
235.091583 144.0
235.794403 212.0
236.256119 180.0
236.354019 172.0
237.06749 56.0
237.334167 112.0
237.478302 108.0
240.333069 164.0
240.481186 60.0
241.079651 92.0
241.810181 100.0
242.090408 140.0
242.293228 160.0
243.111786 188.0
243.496735 96.0
243.835373 136.0
244.099625 144.0
244.314224 128.0
244.485352 108.0
244.668991 104.0
245.081833 1484.0
245.257736 80.0
245.279556 120.0
245.363724 144.0
245.659973 60.0
246.083313 444.0
247.102539 272.0
247.409973 76.0
247.798325 108.0
248.613571 56.0
249.82637 184.0
250.188263 128.0
250.522079 112.0
251.303925 176.0
251.989044 120.0
252.026962 96.0
252.513779 160.0
253.387436 104.0
253.929474 56.0
254.037323 176.0
254.170563 152.0
254.77063 40.0
255.08522 192.0
255.110657 220.0
255.664078 124.0
256.536774 72.0
257.110901 124.0
257.14151 168.0
257.267303 124.0
257.682465 68.0
257.906158 172.0
258.110748 116.0
258.357025 128.0
258.760254 168.0
258.795471 44.0
258.827515 168.0
258.96521 208.0
259.054901 84.0
259.080505 104.0
259.500336 48.0
259.622192 104.0
259.772949 44.0
259.901276 160.0
260.122864 1152.0
260.655853 84.0
260.993347 140.0
261.13559 136.0
261.18631 88.0
261.508057 108.0
262.02005 32.0
262.042603 272.0
262.332642 52.0
262.419678 52.0
262.70993 148.0
263.006805 80.0
263.665649 76.0
264.108521 416.0
265.290497 200.0
265.650452 60.0
266.143738 104.0
267.255341 64.0
267.518951 176.0
268.053101 92.0
268.154114 128.0
269.142548 200.0
269.384216 268.0
269.410339 112.0
269.449554 200.0
269.534515 188.0
269.671753 200.0
270.111115 1276.0
271.119019 304.0
271.206787 100.0
271.311676 28.0
271.469055 80.0
271.656006 112.0
272.126282 160.0
272.58844 212.0
273.114441 316.0
273.190094 148.0
273.226288 128.0
273.272339 168.0
273.338165 164.0
273.860138 180.0
273.887939 184.0
273.983459 124.0
274.345978 216.0
274.441589 40.0
274.807678 192.0
275.008972 104.0
275.13443 164.0
275.762024 168.0
275.968018 64.0
276.033112 140.0
276.519409 108.0
276.797485 120.0
277.125397 140.0
277.337463 44.0
278.442291 100.0
278.465546 180.0
278.575134 120.0
278.621643 188.0
278.950653 148.0
279.120209 168.0
279.249908 124.0
279.709045 192.0
279.828888 88.0
279.962097 76.0
280.398499 60.0
281.008728 196.0
281.255676 132.0
281.699768 120.0
282.793152 84.0
282.83667 60.0
283.949036 112.0
285.342529 48.0
285.366058 92.0
285.766296 152.0
286.234253 152.0
287.47464 104.0
287.653503 120.0
287.677155 164.0
288.048584 168.0
288.234406 200.0
288.629883 56.0
289.025635 36.0
289.2659 192.0
289.350555 68.0
289.990753 124.0
290.679169 200.0
291.076324 144.0
292.10611 172.0
292.517822 168.0
293.188812 164.0
294.662872 112.0
294.826874 48.0
295.131104 92.0
295.606537 176.0
296.128906 152.0
297.021484 176.0
298.147614 128.0
298.481049 172.0
299.207031 68.0
300.696106 180.0
300.768585 196.0
301.504242 168.0
301.611389 244.0
302.559204 144.0
302.84314 72.0
303.300507 128.0
303.428772 172.0
303.598663 220.0
303.737396 168.0
303.903931 124.0
304.139893 184.0
305.054688 144.0
305.359406 136.0
305.411591 52.0
305.641205 156.0
306.093689 68.0
306.177277 160.0
306.393219 124.0
307.10434 32.0
307.359009 180.0
308.127106 172.0
308.319305 56.0
308.717804 96.0
308.8927 88.0
309.480621 40.0
310.131287 152.0
310.325012 84.0
310.356567 180.0
310.693268 112.0
311.051178 180.0
311.086304 56.0
311.296936 152.0
311.606049 140.0
311.634155 172.0
311.823914 128.0
311.894196 112.0
311.985596 52.0
312.045349 60.0
312.235229 188.0
312.88266 176.0
313.27005 112.0
313.668243 64.0
314.373596 52.0
315.433167 148.0
315.861023 120.0
316.296234 56.0
316.72467 124.0
316.891174 112.0
317.344818 120.0
317.39093 100.0
317.483124 156.0
318.842804 84.0
319.312073 132.0
319.539734 168.0
319.763916 104.0
320.297974 48.0
320.493927 144.0
321.835022 168.0
323.56546 60.0
323.812531 192.0
323.909241 44.0
324.27829 72.0
324.389404 40.0
324.514862 48.0
324.604492 160.0
325.440552 92.0
325.519531 160.0
326.417877 92.0
326.57251 184.0
326.68042 136.0
328.690765 216.0
329.145569 148.0
329.698273 160.0
330.721771 80.0
331.116394 112.0
331.141754 172.0
331.427948 120.0
332.080444 192.0
332.203766 132.0
332.777191 80.0
333.256592 132.0
333.543701 108.0
334.056396 144.0
335.141296 132.0
335.578674 112.0
335.644287 184.0
335.837585 64.0
335.98349 52.0
336.607605 48.0
336.687958 132.0
336.797516 200.0
337.484558 124.0
337.54306 144.0
338.498077 232.0
338.531036 156.0
338.65921 100.0
339.861633 116.0
340.382843 80.0
340.632568 52.0
341.080872 112.0
341.149384 176.0
341.174561 220.0
341.742828 44.0
341.95993 160.0
342.129242 216.0
342.707458 120.0
343.013336 60.0
343.256653 148.0
343.59967 148.0
345.490112 128.0
346.053711 120.0
346.147217 172.0
346.529602 192.0
348.126434 56.0
349.605957 120.0
349.892548 144.0
350.127136 172.0
350.183014 120.0
350.324554 92.0
350.71579 152.0
350.846252 108.0
351.748993 132.0
351.846069 108.0
352.182129 104.0
352.413727 124.0
352.849243 196.0
352.918304 112.0
353.168854 172.0
353.423248 36.0
354.007172 64.0
355.277771 240.0
355.930817 140.0
356.099792 216.0
356.569427 160.0
357.720367 128.0
358.34552 112.0
359.189941 108.0
359.254089 96.0
360.416901 168.0
360.851562 160.0
361.967712 156.0
362.964264 120.0
363.176636 96.0
363.218353 152.0
363.825531 164.0
363.969788 196.0
364.146393 140.0
364.18457 208.0
364.668793 108.0
365.151611 272.0
365.182556 148.0
365.254303 172.0
365.60434 132.0
366.175385 208.0
367.337921 56.0
367.395142 200.0
367.635498 48.0
368.353271 168.0
368.807983 88.0
369.389191 164.0
369.695251 44.0
370.671722 64.0
371.116364 40.0
371.254395 152.0
371.657166 212.0
371.979523 80.0
372.513275 180.0
373.170441 204.0
373.301178 100.0
373.524231 184.0
373.644318 116.0
373.755066 100.0
373.908997 96.0
373.993652 72.0
375.5271 196.0
375.750854 108.0
376.619385 172.0
376.852905 124.0
378.177551 108.0
378.928802 128.0
379.835907 136.0
380.348083 168.0
380.549957 84.0
381.105377 168.0
383.268707 160.0
383.759796 148.0
385.106079 124.0
385.133423 80.0
385.44986 132.0
386.462555 144.0
386.634735 140.0
386.940063 128.0
387.057495 132.0
387.339478 184.0
387.727356 144.0
387.837097 124.0
389.08844 152.0
389.200928 296.0
389.74826 104.0
390.182648 100.0
390.569885 108.0
391.19162 128.0
391.675934 80.0
392.042358 156.0
392.150452 352.0
393.17627 440.0
393.837433 48.0
394.240417 92.0
394.374786 116.0
394.722656 92.0
395.248749 136.0
397.565247 156.0
398.237823 100.0
398.620819 216.0
398.670837 124.0
398.770203 160.0
400.198273 96.0
400.799713 120.0
401.138489 164.0
401.206238 236.0
401.50528 200.0
402.06778 44.0
402.143616 28.0
403.453796 132.0
403.53775 48.0
403.989655 68.0
404.589935 124.0
405.415039 96.0
406.128662 164.0
406.19339 140.0
406.730499 188.0
407.035614 128.0
407.195557 356.0
407.433228 96.0
408.194641 112.0
408.221008 200.0
409.041748 144.0
409.150452 136.0
409.38382 112.0
410.16156 164.0
411.024597 216.0
411.088562 120.0
411.27478 112.0
411.436249 76.0
411.670441 128.0
411.932953 60.0
412.195557 52.0
412.260223 164.0
412.300629 116.0
412.522919 160.0
412.785736 124.0
413.384399 136.0
413.69162 132.0
414.372345 144.0
414.4534 172.0
415.779388 92.0
416.286835 156.0
416.343689 68.0
417.177612 668.0
417.965607 48.0
418.059204 92.0
418.19397 100.0
418.32373 120.0
418.563934 244.0
418.877533 168.0
419.060852 108.0
419.362396 280.0
419.476532 108.0
419.717072 92.0
420.806458 116.0
421.312866 232.0
421.374146 96.0
421.823669 164.0
421.884979 212.0
422.690704 68.0
424.238831 144.0
425.19043 116.0
425.354584 168.0
425.633759 160.0
425.678925 72.0
425.802124 160.0
426.591003 160.0
426.665009 192.0
427.150269 160.0
428.45108 96.0
428.479919 152.0
428.665314 80.0
429.543488 112.0
429.786865 128.0
429.881775 96.0
429.931305 232.0
430.030365 60.0
430.117035 136.0
430.389496 64.0
430.860321 172.0
430.992523 88.0
431.037994 132.0
431.075165 180.0
431.624939 68.0
431.827576 128.0
432.100586 184.0
432.295044 104.0
432.32666 100.0
432.399658 172.0
432.551636 60.0
432.845581 60.0
432.899414 68.0
432.949127 192.0
433.053436 152.0
433.129028 164.0
433.189331 208.0
433.222473 96.0
433.259766 72.0
433.293549 312.0
433.359192 48.0
433.425476 64.0
433.48349 132.0
433.516663 120.0
433.803802 96.0
433.834778 164.0
433.9104 180.0
433.943573 52.0
433.989807 132.0
434.037811 208.0
434.096222 152.0
434.190857 168.0
434.218964 252.0
434.287079 48.0
434.33783 164.0
434.379028 180.0
434.417267 160.0
434.441071 140.0
434.485199 216.0
434.5242 276.0
434.609222 156.0
434.702637 132.0
434.738525 148.0
434.763123 76.0
434.815887 108.0
434.847076 248.0
434.904053 252.0
435.004974 256.0
435.057617 220.0
435.123627 264.0
435.193573 84028.0
435.314484 248.0
435.420563 168.0
435.447784 80.0
435.478088 124.0
435.52301 112.0
435.581879 168.0
435.626312 84.0
435.672668 140.0
435.717255 196.0
435.763367 152.0
435.836212 232.0
435.866821 76.0
435.89682 140.0
435.929504 212.0
435.991638 260.0
436.046417 212.0
436.108734 152.0
436.195953 22208.0
436.350372 56.0
436.395935 84.0
436.459686 36.0
436.48877 64.0
436.530609 128.0
436.563629 44.0
436.604614 148.0
436.654266 136.0
436.744293 148.0
436.843109 60.0
436.878204 128.0
436.894226 92.0
436.963806 144.0
437.079437 56.0
437.111725 64.0
437.19809 4168.0
437.320801 132.0
437.353638 36.0
437.381287 68.0
437.437347 108.0
437.474823 96.0
437.541138 60.0
437.582367 144.0
437.593323 120.0
437.628265 112.0
437.66217 92.0
437.723877 92.0
437.784027 136.0
437.823181 96.0
437.86203 100.0
437.912018 72.0
437.939789 60.0
437.994568 92.0
438.086945 32.0
438.117554 76.0
438.209351 464.0
438.266113 64.0
438.324432 192.0
438.359528 88.0
438.407776 52.0
438.472168 88.0
438.566132 148.0
438.5979 116.0
438.761597 108.0
438.77597 96.0
438.797699 44.0
438.835724 116.0
438.866516 120.0
438.910248 96.0
438.922729 144.0
438.956726 116.0
439.012238 116.0
439.048584 100.0
439.062042 72.0
439.103973 48.0
439.150909 112.0
439.320862 112.0
439.52179 52.0
439.571198 40.0
439.798737 52.0
439.909271 92.0
439.971893 116.0
440.105835 92.0
440.210327 72.0
440.389435 64.0
440.66098 28.0
441.120667 140.0
441.216827 104.0
441.304596 88.0
441.350616 96.0
441.597321 52.0
441.626617 52.0
441.827393 40.0
441.86087 44.0
442.283508 28.0
442.379791 36.0
442.484436 44.0
442.589111 52.0
442.735657 104.0
442.928314 72.0
443.104279 48.0
443.154541 100.0
443.443665 40.0
444.018036 96.0
444.4711 32.0
444.735474 72.0
445.436676 48.0
445.570679 76.0
445.966125 68.0
446.302429 40.0
446.487427 112.0
446.563141 80.0
446.693542 40.0
447.497314 72.0
447.759308 128.0
448.049042 68.0
449.128143 28.0
449.368622 36.0
450.259247 88.0
450.385956 144.0
450.428192 68.0
450.57605 44.0
451.125427 40.0
451.700531 144.0
451.759735 52.0
452.119385 96.0
452.364868 36.0
452.90686 92.0
453.220337 84.0
453.593292 92.0
455.396576 68.0
455.557983 104.0
456.059357 100.0
458.762299 48.0
459.192963 56.0
459.342255 124.0
460.340942 52.0
461.947937 72.0
463.81488 56.0
464.638214 44.0
464.681091 40.0
468.167053 44.0
469.339111 44.0
472.643372 80.0
476.927032 68.0
478.898987 68.0
479.844604 68.0
482.022552 92.0
484.191772 156.0
485.643005 80.0
487.27597 100.0
488.458496 108.0
490.766113 60.0
491.1586 164.0
492.37674 84.0
494.374939 52.0
500.246857 64.0
500.402679 192.0
503.698212 76.0
505.978851 160.0
528.66571 72.0
534.755676 36.0
538.808899 52.0
552.121277 52.0
558.118774 72.0
562.891968 76.0
566.249573 76.0
567.126038 56.0
571.209473 136.0
574.033691 76.0
576.582886 72.0
581.367004 36.0
582.817139 96.0
583.163147 76.0
589.055969 80.0
595.570801 108.0
596.664124 160.0
596.829468 32.0
600.598755 84.0
601.203674 112.0
602.004272 56.0
602.917786 44.0
603.152405 56.0
605.873108 52.0
606.755249 56.0
612.253479 44.0
617.563904 48.0
630.030579 104.0
633.377075 40.0
638.149475 80.0
638.310364 116.0
644.474792 108.0
646.21405 184.0
653.596436 100.0
655.668945 44.0
658.408508 56.0
661.583679 100.0
662.023987 52.0
668.16272 44.0
668.84198 60.0
670.387024 68.0
671.583069 68.0
673.714905 68.0
674.784668 96.0
677.201233 168.0
678.424072 116.0
682.785583 56.0
690.896362 52.0
699.913025 72.0
701.836243 60.0
704.184509 76.0
704.406372 56.0
726.943542 40.0
729.059326 56.0
739.126892 92.0
741.379517 116.0
753.529724 80.0
755.842529 80.0
762.307434 144.0
771.876648 60.0
779.253906 96.0
779.615051 68.0
783.036438 92.0
788.487061 72.0
794.955078 60.0
797.864502 40.0
806.076416 48.0
814.637085 60.0
814.898438 68.0
815.807678 100.0
817.081543 80.0
819.222046 60.0
821.502197 176.0
827.468384 68.0
831.016052 64.0
835.284363 32.0
844.200684 36.0
848.543274 104.0
851.583923 68.0
855.258484 108.0
855.415649 28.0
863.291992 176.0
863.344604 80.0
863.496643 92.0
871.856567 88.0
877.442444 48.0
878.114624 108.0
889.088928 76.0
890.133728 92.0
890.846375 64.0
907.454895 76.0
909.70459 132.0
915.331909 60.0
916.000427 92.0
917.368286 56.0
918.436707 84.0
922.197021 248.0
928.638977 84.0
930.86615 44.0
935.754639 252.0
953.973022 68.0
954.557129 100.0
957.880493 84.0
959.236084 52.0
963.475464 172.0
971.765137 72.0
977.786316 40.0
989.828125 148.0
1008.101624 108.0
1009.150879 252.0
1010.365173 132.0
1012.605896 116.0
1014.462341 120.0
1016.104858 160.0
1017.012268 120.0
1017.608948 56.0
1018.110596 48.0
1038.802734 220.0
1044.693237 88.0
1047.596436 112.0
1060.033447 116.0
1060.195435 220.0
1062.711304 140.0
1066.69873 188.0
1077.235474 184.0
1081.014404 156.0
1081.263062 168.0
1081.812866 136.0
1082.133667 208.0
1089.465576 184.0
1090.944214 80.0
1092.752686 100.0
1094.319092 208.0
1094.720703 144.0
1095.840454 200.0
1099.572632 104.0
1100.160034 80.0
1101.361816 48.0
1101.582031 216.0
1104.785889 100.0
1105.182861 112.0
1105.652588 148.0
1109.169434 92.0
1109.547363 140.0
1110.634766 124.0
1112.466187 176.0
1117.882935 200.0
1129.344238 144.0
1130.715698 76.0
1136.639526 176.0
1138.035645 244.0
1142.550781 172.0
1145.547485 140.0
1154.862305 168.0
1156.804199 188.0
1163.759766 120.0
1165.770386 216.0
1166.246094 76.0
1167.381348 220.0
1167.734985 132.0
1169.299805 136.0
1169.721802 212.0
1171.274292 132.0
1173.175415 172.0
1178.423462 144.0
1184.217285 152.0
1188.65271 68.0
1190.76709 200.0
1190.883789 196.0
1191.35083 180.0
1193.089478 184.0
1195.427979 176.0
1195.517456 100.0
1195.599976 172.0
1198.237183 144.0
1200.966919 140.0
1201.498047 184.0
1201.801514 192.0
1203.830933 196.0
1206.93335 140.0
1207.811646 172.0
1207.880859 192.0
1211.847534 128.0
1211.999878 108.0
1213.330566 192.0
1213.503906 160.0
1215.133789 100.0
1217.181274 212.0
1218.730103 48.0
1219.008057 172.0
1222.909424 76.0
1223.779541 100.0
1226.210693 120.0
1229.572144 148.0
1230.305054 208.0
1236.581787 136.0
1237.834961 68.0
1242.313354 120.0
1244.615356 48.0
1246.041016 96.0
1246.708618 124.0
1246.849121 184.0
1247.404419 120.0
1247.509766 36.0
1248.381592 164.0
1250.478027 192.0
1252.266235 128.0
1256.354492 180.0
1259.990112 160.0
1261.149048 136.0
1261.799316 80.0
1270.417847 104.0
1272.333862 224.0
1274.535522 196.0
1275.111084 156.0
1277.244019 208.0
1278.304077 192.0
1278.688354 200.0
1280.047974 108.0
1280.852783 120.0
1282.541504 156.0
1284.958862 176.0
1287.435547 180.0
1287.599854 52.0
1288.071289 88.0
1288.806396 164.0
1289.47876 132.0
1289.786133 160.0
1290.522461 88.0
1290.965698 52.0
1291.499512 136.0
1292.525146 160.0
1297.753662 204.0
1300.781006 112.0
1300.903076 160.0
1302.059082 184.0
1304.300659 172.0
1306.036987 164.0
1306.680908 180.0
1306.925537 108.0
1306.990234 72.0
1307.429199 180.0
1308.883301 200.0
1309.473755 180.0
1309.934692 136.0
1310.12207 180.0
1311.592041 188.0
1313.531616 132.0
1316.050171 60.0
1317.660767 248.0
1319.684448 180.0
1321.630005 164.0
1321.970093 140.0
1322.12207 116.0
1325.098022 216.0
1325.887817 148.0
1325.99646 144.0
1327.25061 196.0
1328.193359 124.0
1328.323853 180.0
1328.853516 224.0
1330.304932 200.0
1330.798584 124.0
1332.30188 156.0
1334.889282 96.0
1335.238281 208.0
1336.63501 88.0
1337.224487 224.0
1338.556641 172.0
1339.918579 140.0
1340.355835 176.0
1341.6604 188.0
1343.009399 92.0
1344.227661 96.0
1344.789551 76.0
1346.191284 192.0
1348.587402 156.0
1348.792114 140.0
1348.918701 196.0
1349.647461 104.0
1350.773682 152.0
1350.971191 184.0
1351.271118 124.0
1352.112549 76.0
1354.411499 212.0
1355.511475 132.0
1358.729004 144.0
1359.338013 156.0
1360.886719 164.0
1361.584351 100.0
1363.626709 180.0
1363.906006 180.0
1364.280884 152.0
1366.457642 176.0
1368.562622 84.0
1369.998657 176.0
1370.639648 20.0
1371.479736 116.0
1372.408569 144.0
1372.615112 164.0
1373.57373 108.0
1374.894409 192.0
1375.248657 136.0
1375.898315 164.0
1375.979492 148.0
1376.068115 148.0
1376.791626 152.0
1378.209961 120.0
1378.357666 188.0
1379.806274 60.0
1379.865479 208.0
1384.023438 164.0
1384.201172 36.0
1384.638062 176.0
1386.920044 148.0
1387.579712 148.0
1387.994873 120.0
1388.662354 164.0
1389.55249 148.0
1390.472534 152.0
1391.170288 96.0
1392.595825 180.0
1393.866211 184.0
1394.297241 204.0
1395.835938 88.0
1397.658325 160.0
1397.963379 212.0
1398.067505 124.0
1398.737427 192.0
1402.021851 108.0
1402.126221 144.0
1403.460449 144.0
1404.89978 36.0
1406.996826 124.0
1408.61731 60.0
1408.766602 144.0
1409.229858 96.0
1410.328369 148.0
1410.657227 152.0
1410.724487 136.0
1411.404785 156.0
1411.457153 136.0
1411.885132 120.0
1411.95813 160.0
1412.88562 164.0
1414.000488 176.0
1414.329834 132.0
1414.846313 124.0
1415.085938 156.0
1415.490234 188.0
1416.651123 180.0
1421.847046 172.0
1422.22229 196.0
1422.30481 148.0
1422.9729 120.0
1423.648682 124.0
1424.084229 120.0
1424.842896 164.0
1425.166016 108.0
1427.5 168.0
1427.744263 48.0
1427.796875 160.0
1428.793091 172.0
1431.333618 136.0
1431.936035 232.0
1432.018921 116.0
1433.857178 68.0
1434.316895 96.0
1435.017944 152.0
1436.956299 144.0
1437.58252 152.0
1438.684448 140.0
1439.507446 148.0
1439.779297 112.0
1439.922729 80.0
1440.368286 132.0
1442.400879 136.0
1443.252197 184.0
1444.291138 136.0
1445.017456 160.0
1449.037476 96.0
1450.333252 184.0
1450.879028 136.0
1452.706665 188.0
1452.903809 152.0
1453.655029 88.0
1454.322754 152.0
1454.444214 172.0
1454.573242 176.0
1457.147583 144.0
1457.907471 92.0
1459.549316 124.0
1460.667236 116.0
1461.032349 184.0
1462.120361 180.0
1462.995728 92.0
1463.087036 180.0
1464.960327 140.0
1465.028931 132.0
1466.400513 140.0
1466.62915 196.0
1466.903442 156.0
1467.383789 168.0
1467.947388 168.0
1468.916504 156.0
1469.305664 124.0
1469.84729 168.0
1473.160645 216.0
1473.405151 172.0
1474.291504 160.0
1474.505493 260.0
1474.872314 36.0
1476.30188 144.0
1477.166138 184.0
1478.543335 260.0
1479.331665 124.0
1479.461792 124.0
1480.013062 104.0
1480.817139 272.0
1481.414551 188.0
1481.728638 192.0
1482.465454 140.0
1483.10022 164.0
1483.882202 180.0
1483.958862 192.0
1484.127441 60.0
1485.431274 128.0
1485.661377 144.0
1491.612427 208.0
1491.773926 100.0
1492.312012 184.0
1492.742554 140.0
1493.173218 88.0
1493.280884 232.0
1493.650146 168.0
1493.750122 136.0
1494.111572 160.0
1494.634766 164.0
1494.742554 204.0
1496.043213 156.0
1497.159546 128.0
1497.968262 120.0
1498.784912 212.0
1499.555542 184.0
1499.755859 140.0
1500.118164 132.0
1502.747925 120.0
1503.241699 172.0
1503.866821 140.0
1504.183228 244.0
