>compound Felodipine
>formula C18H19Cl2NO4 
>ionization [M+H]+
>parentmass 384.07638990009053
#inchi InChI=1S/C18H19Cl2NO4/c1-5-25-18(23)14-10(3)21-9(2)13(17(22)24-4)15(14)11-7-6-8-12(19)16(11)20/h6-8,15,21H,5H2,1-4H3
#inchikey RZTAMFZIAATZDJ
#Ion_Source LC-ESI
#Instrument qTof
#Compound_Source Isolated
#PI Sirenas
#Data_Collector Ed Esquenazi 
#Scan -1
#Precursor_MZ 384.078
#ExactMass 0.0
#Charge 1
#CAS_Number N/A
#Pubmed_ID N/A
#Smiles N/A
#INCHI_AUX N/A
#Library_Class 3
#SpectrumID CCMSLIB00000004774
#IonMode Positive
#UpdateWorkflowName UPDATE-SINGLE-ANNOTATED-BRONZE
#LibraryQualityString Bronze
#TaskID d19310cd93df49b68e9fcbec27720eb5
##Scan# 2
#SpectrumFile Felodipine.mgf
#LibraryName fda_library.mgf
#MQScore -1
#Organism fda_library
#TIC_Query 0
#RT_Query -1
#MZErrorPPM -1
#SharedPeaks 0
#MassDiff 0
#LibMZ -1
#SpecMZ 384.078
#SpecCharge 0
#internalFilename spec-00000.mgf

>collision 10
101.024475 56.04129
110.215462 13.625
110.421112 8.335318
113.055557 46.106709
115.303833 9.358974
116.069168 59.183762
125.020531 24.177629
126.032158 14.16964
126.04921 5.884804
127.563759 2.893518
128.035034 64.83136
130.083023 39.18795
130.452179 8.671875
136.927963 12.5
139.037704 23.0385
140.050217 18.380951
140.065155 50.067211
140.072617 354.043304
140.768829 7.011364
140.933975 4.340909
141.554153 2.337963
141.640411 3.483333
141.689133 15.97341
141.914429 2.708333
142.049667 1178.107056
142.333374 10.00102
142.35762 3.449074
142.382919 17.490391
142.441986 5.225
142.495499 5.939394
145.039749 6.005952
145.328979 16.523729
150.054626 24.90151
152.0336 18.48485
152.067047 62.0224
154.087875 64.018753
155.308533 23.58099
155.607788 7.291667
155.787964 15.33929
156.065155 676.778687
156.110916 5.690476
156.398483 7.058333
156.994659 6.906746
157.618896 4.016667
158.977005 62.307968
162.02449 79.11087
163.010757 27.8421
165.171783 14.48316
165.263458 2.083333
165.381943 6.201666
165.423477 6.12037
166.085999 561.410889
166.138763 8.378623
166.242523 3.375
166.848343 22.69253
167.054871 10.125
167.423203 3.15
168.063934 45.73716
168.096115 8.595239
170.973145 47.58596
172.087799 5.720238
172.955536 80.782043
172.992493 76.706734
173.010559 105.6716
174.179703 7.017857
175.034042 74.1064
175.062378 4.333333
176.034286 71.527611
178.048615 14.73336
180.079681 25.37043
180.358551 7.291667
181.086395 15.85819
182.08226 171.969498
182.972488 69.427032
182.998413 5.669445
184.994461 26.002081
186.113815 36.288139
188.738007 16.790119
190.986633 11.57407
196.266571 2.4
196.739594 6.357143
196.992706 359.99939
197.076431 14.33808
197.252289 4.225
197.555344 4.681667
198.970367 200.633194
200.033707 25.81818
201.305008 18.375
202.016785 10.54688
202.045486 49.008438
207.062408 30.520161
207.937164 1.672619
208.102737 13.02541
208.343704 2.020833
208.559677 4.054824
208.915466 45.186989
208.948654 11.3952
208.991852 1599.602051
209.052551 8.523551
209.104889 6.533333
209.155716 10.84375
209.193192 2.4
209.21402 11.05482
209.245209 23.2269
209.268677 9.370833
209.540527 6.391026
209.671524 13.73409
209.79245 2.733333
210.076233 532.511719
210.090164 8.005952
210.140228 6.815476
210.266556 14.58333
210.502029 12.85417
210.534821 8.557099
211.008087 87.229523
211.199997 20.453329
212.983902 6.669445
214.039169 36.483871
215.023666 26.6
215.050552 242.4729
215.279892 4.028846
216.287796 8.777778
219.024475 71.880409
220.9888 88.739594
222.970474 383.0849
223.004028 39.750599
223.144852 3.760417
223.560806 13.48316
223.743271 16.48563
224.331909 22.5522
224.951492 14.39167
225.565781 6.469444
227.002686 82.151672
228.916641 10.17708
230.013977 62.625778
230.030869 19.164949
230.490219 9.666667
232.988235 10.48333
233.028397 33.299431
233.829651 12.0375
234.110062 9.490384
235.006836 49.765259
235.439255 5.939394
236.615128 2.449074
236.786102 4.09375
236.984009 357.1297
237.014084 98.662979
237.108795 49.720169
237.54686 2.020833
237.641068 8.38782
238.106339 1084.504028
238.174606 7.001984
238.357178 5.335526
238.539841 17.528681
240.003662 49.388481
240.192215 8.714148
240.418686 3.388889
240.97789 102.303398
241.466324 6.095238
241.556076 16.08366
242.032135 152.109802
242.219193 5.333333
242.695038 10.40741
242.741104 10.91667
242.955399 30.50139
243.042282 674.020813
243.19371 9.030303
243.318954 3.490385
243.421814 4.017857
243.443512 7.0
243.791031 13.35094
244.051498 792.537109
244.12793 1.666667
244.224792 6.027778
244.245636 12.92708
244.258408 7.880051
244.314316 5.630952
244.634491 6.367424
245.499634 9.363334
246.004395 173.427399
246.02919 89.340813
247.98056 9.361486
248.045532 73.111526
248.781052 12.33418
249.730499 3.115741
250.017105 1011.677002
250.063965 1.791667
250.169907 13.66667
250.242783 3.034091
250.270264 38.67123
250.307693 14.6
250.429977 4.033333
250.45195 4.686404
251.361191 7.728535
252.031067 149.305603
252.078735 3.675
254.223984 11.01389
254.402954 5.066667
254.997055 149.401703
256.157867 12.215
256.971497 54.504509
258.069824 76.215927
258.3815 3.490385
259.043213 12.33889
259.997437 50.118099
260.016296 27.686399
260.046722 168.959702
260.347778 13.50347
260.673462 18.018749
261.034729 18.46032
262.018768 160.302704
262.265228 12.53712
262.361267 37.727409
262.451355 3.047619
262.99353 141.140594
263.02652 187.390106
263.071747 33.82674
263.613251 2.341667
263.841095 7.125
263.997925 727.405518
264.161835 8.053572
264.24115 23.34454
264.425171 42.646919
264.613617 19.7787
264.982758 205.051895
265.126801 26.63636
265.30423 8.888888
265.318329 16.615391
265.446899 4.340278
265.836548 15.95833
265.900543 5.333333
266.046509 127.924004
268.095337 7.921875
268.305573 6.335
268.425262 9.142858
268.642059 11.82315
269.011414 250.508606
269.098267 17.966669
269.412201 7.700269
269.429321 5.333333
269.713715 6.370614
269.860626 6.0
270.029938 212.295395
270.206512 6.016304
270.40097 3.034091
270.784485 1.720238
271.036407 190.259705
271.049927 13.9312
271.103241 16.445511
272.083557 211.359695
272.198761 22.885599
273.021637 5.054824
273.36087 13.33415
274.017578 17.085939
274.061584 45.126781
274.326721 19.880051
275.039764 33.014179
275.069519 59.929958
276.079437 174.042999
276.302002 4.016667
276.38324 9.819445
276.44101 3.714286
276.46344 10.23077
276.522308 22.258551
276.623138 33.757778
276.828674 17.000851
276.973633 22.347601
277.024231 382.831909
277.107178 4.375
277.280365 9.33435
277.454254 5.375
277.742493 32.322231
277.941498 76.482384
278.012817 4707.466797
278.063995 3.347222
278.088287 17.95833
278.161682 14.68778
278.188507 28.915871
278.218262 8.531863
278.282288 21.52006
278.309052 16.4263
278.341492 14.075
278.393097 7.866667
278.440704 5.633333
278.457916 8.135
278.474548 7.069445
278.500916 17.313379
278.527405 11.76894
278.565643 21.27116
278.609222 13.01071
278.686371 24.802931
278.904999 36.62447
278.931244 10.00833
278.984894 27.815001
279.165039 15.10746
279.294312 11.76627
279.550018 5.702587
279.654785 12.26759
279.983459 47.059181
280.029694 1034.883057
280.06131 127.479599
280.102875 3.047619
280.26593 12.19048
280.306152 27.306681
280.36145 36.32164
280.440826 16.13286
280.977814 30.80442
281.427673 8.307693
281.843475 18.08
282.004059 37.758621
282.110657 29.2451
282.185028 9.364899
282.933838 6.075617
283.027191 98.471474
283.111481 79.799133
283.154663 5.083333
286.570251 3.0
286.63797 3.080128
288.006409 14.13333
288.042114 1408.495972
288.116364 5.361111
288.206207 5.157052
288.230804 14.08681
288.283966 8.668011
288.304321 31.39345
288.326874 10.45581
288.360687 27.01145
288.425934 34.312611
288.61441 6.177631
288.774445 14.84087
288.975494 6.520061
289.008881 36.98111
289.087799 9.371913
289.223511 7.083333
289.82251 28.24802
291.062958 5.013889
291.167755 8.523648
291.785461 1.671296
292.137909 39.557041
293.003387 36.003471
294.007965 123.132004
294.043152 23.835711
294.417786 4.136111
295.023285 14.70455
296.022003 352.899994
296.41098 10.54688
297.254211 4.349638
298.268738 3.034091
298.893311 5.531863
300.240295 22.19298
300.264984 8.03728
300.290985 22.00952
300.432587 3.375
300.46817 5.791667
300.507965 12.8179
300.568085 18.31502
300.603546 11.20167
300.658752 9.013888
300.682892 14.48214
301.15976 21.42149
301.44931 9.081667
301.536255 9.523809
302.057312 2774.64502
302.126373 4.09375
302.236267 18.201309
302.25943 8.41565
302.313873 17.061581
302.39856 12.16447
302.428802 9.04537
302.458008 6.802778
302.527771 15.44196
302.580719 32.104691
302.634552 8.675813
302.747223 27.270981
302.895935 29.207769
302.913666 11.35417
302.973541 8.41565
303.191559 3.666667
303.858276 3.335526
303.878021 10.45581
303.97171 15.33333
304.040222 3.336538
304.113037 7.668333
304.347443 8.592949
304.386688 8.380952
304.423157 8.818548
304.531799 4.054824
304.580353 11.13286
304.610718 7.2
304.866394 9.625
304.98877 7.5625
305.056946 29.96454
305.133118 5.720238
305.169586 2.722222
305.32074 15.75
305.442566 10.0496
305.528748 8.081897
305.544434 23.51852
305.744141 2.958333
305.943329 54.85231
305.978027 38.10458
306.00827 7790.50293
306.093964 53.958069
306.124603 19.3515
306.192169 57.395802
306.257385 54.420681
306.275879 17.99329
306.294922 7.363095
306.319977 39.883732
306.355743 45.864079
306.419952 38.108028
306.471954 24.19022
306.490479 29.57095
306.572235 28.95833
306.642059 2.666667
306.717529 15.77525
306.776367 21.2959
306.812653 6.675926
307.157684 21.200001
307.397919 18.00897
307.805817 21.36134
308.026489 2.670455
308.06131 197.606796
308.171265 9.125
308.543274 5.640152
308.594574 6.76923
308.745483 6.222222
309.003571 49.268799
309.048218 7.440476
309.965027 2.336539
310.037537 148.011795
310.337433 3.041667
310.363434 8.333333
310.584534 2.816667
310.813171 10.64651
311.301697 16.33333
313.003235 163.708893
313.219879 4.166667
313.404633 26.923929
314.203918 2.375
314.447937 6.160088
316.026276 16.366871
316.072876 1053.869995
316.182373 35.752689
316.212372 2.816667
316.233215 8.03728
316.460449 10.80474
316.5672 4.380952
316.810364 15.70833
316.875153 2.6875
316.962189 8.422101
317.086456 16.14286
317.656006 7.333333
318.044678 59.97261
318.506134 5.88587
319.618347 7.010714
320.022949 25.3391
320.068848 426.711395
320.408722 24.343651
320.782471 4.335526
321.020203 49.5495
321.910217 3.518939
322.003143 254.342697
322.042328 23.23315
322.098541 9.680555
322.151886 4.833333
322.181244 5.742284
322.286011 3.125
322.385956 3.125
322.46167 2.333333
323.399597 34.298592
323.979736 28.444441
324.018433 4056.381104
324.110107 12.39815
324.142883 30.719641
324.173279 30.42351
324.216919 5.414216
324.253021 22.01852
324.312042 12.11638
324.356445 17.64912
324.414368 3.678571
324.500305 5.013889
324.525848 20.449369
324.583252 3.720238
324.719421 45.406929
324.832733 14.07184
324.914276 10.40741
325.052765 28.017651
325.315826 26.81078
326.446045 10.15278
329.792542 7.486111
330.387268 6.371212
333.854431 6.692308
334.032898 69.786034
335.783234 3.345238
335.805145 9.25641
335.861938 6.166667
335.914246 33.779148
335.980896 7.334459
336.018677 524.372375
336.094055 44.12957
336.148102 10.41026
336.188934 43.35067
336.210541 10.0496
336.234222 15.39412
336.273865 17.515739
336.299927 20.42979
336.366608 115.714996
336.38913 19.1322
336.54892 5.573412
336.637054 14.5
336.675842 6.120098
336.71463 24.344299
336.781036 37.41544
336.836884 23.317341
336.950195 9.222222
337.05957 16.759001
337.468567 28.811359
337.506653 7.333333
337.545227 26.04529
337.607819 3.416667
337.640778 92.64846
337.864624 18.376341
337.930298 11.45581
338.035187 21614.970703
338.113983 91.709877
338.171326 10.00379
338.234955 156.418503
338.277649 86.053802
338.309692 100.437599
338.331635 13.04762
338.399109 79.132233
338.445984 154.273407
338.500763 142.779007
338.545319 48.81818
338.567719 125.3181
338.675385 88.426933
338.712158 25.283951
338.868042 44.369919
338.924194 25.45833
338.982452 11.38537
339.094055 17.815479
339.346802 41.845249
339.7229 25.03266
339.760529 12.10045
339.984894 15.67361
340.011597 6.075
340.289337 7.208333
340.408081 15.33631
340.510803 10.28004
340.533752 7.347222
340.551178 9.115741
341.00528 11.33712
341.033386 24.074869
341.191589 3.333333
341.3078 22.037279
341.487427 5.208333
341.70993 9.897988
341.757324 2.0
342.013123 28.84387
342.056427 10.70833
342.169067 11.68056
342.195129 10.33712
347.485687 12.33969
347.874908 4.336111
348.024384 12.8648
348.097778 752.633972
348.147583 20.84639
348.278137 13.78125
348.349792 3.736111
348.439667 9.240384
348.480011 13.78914
349.668121 13.85799
349.779449 7.779321
349.804871 3.125
349.848755 58.01915
349.895782 6.339285
349.915314 5.375
349.947632 26.880581
349.99646 34.264969
350.035675 50.27779
350.130096 10.66793
350.205688 3.083333
350.294403 29.56963
350.467865 25.18923
350.556244 30.93581
350.592651 13.36232
350.716217 3.380953
350.768616 29.308069
350.895416 7.625
351.211548 71.881973
351.386261 10.25941
351.490326 16.351391
351.511566 16.09091
351.979767 24.57407
352.050568 14067.589844
352.132965 151.869293
352.164825 9.453431
352.261871 100.293602
352.309296 88.134132
352.333679 7.366667
352.352356 77.345123
352.375885 26.22715
352.401398 109.998802
352.445068 28.70219
352.469055 56.645649
352.50708 48.262341
352.535431 7.994444
352.555542 59.261639
352.601624 26.610559
352.660797 26.70562
352.702576 55.746101
352.793396 27.284019
352.884552 37.930031
352.938751 29.33333
353.167175 51.160252
353.585785 17.445629
353.616272 8.080129
353.738434 16.366671
353.978973 1.666667
354.190796 6.344048
354.288849 16.055559
354.416168 10.97348
354.570648 2.722222
355.213928 5.333333
355.640625 2.695513
356.031281 385.622406
356.503601 25.57686
356.558289 6.364899
356.61084 4.675926
356.668243 7.741667
356.796204 6.446428
357.439758 6.008333
358.454529 5.787037
358.933685 11.81649
381.700562 11.26667
381.750458 6.958333
381.835419 6.449713
382.959595 7.5625
383.768494 9.469697
384.052124 199.094406
384.07312 980.267822
384.157013 7.653011
384.433899 7.008333
384.616577 5.136111
384.671265 9.375
384.776642 8.573413
384.852875 2.333333
384.915588 7.740942
384.996185 7.019608
385.093597 46.09343
385.37854 3.675
386.308197 4.531863
630.125732 5.088768
818.057678 3.342592
1027.102539 16.52006
1375.459961 5.011905
