>compound Ramipril (Altace)
>formula C23H32N2O5
>ionization [M+H]+
>parentmass 417.240143
#inchi InChI=1S/C23H32N2O5/c1-3-30-23(29)18(13-12-16-8-5-4-6-9-16)24-15(2)21(26)25-19-11-7-10-17(19)14-20(25)22(27)28/h4-6,8-9,15,17-20,24H,3,7,10-14H2,1-2H3,(H,27,28)/t15-,17-,18-,19-,20+/m0/s1
#inchikey HDACQVRGBOVJII
#Ion_Source LC-ESI
#Instrument qTof
#Compound_Source Commercial
#PI Dorrestein
#Data_Collector Garg_Neha
#Scan -1
#Precursor_MZ 417.238
#ExactMass 416.231
#Charge 1
#CAS_Number 87333-19-5
#Pubmed_ID N/A
#Smiles C1=CC=CC=C1CC[C@@H](C(=O)OCC)N[C@H](C(N2[C@H](C[C@H]3[C@H](CCC3)2)C(O)=O)=O)C
#INCHI_AUX N/A
#Library_Class 1
#SpectrumID CCMSLIB00000078293
#IonMode Positive
#UpdateWorkflowName UPDATE-SINGLE-ANNOTATED-GOLD
#LibraryQualityString Gold
#TaskID 77f51c88eb8b467eb4a01dd2d0cb90d2
##Scan# 1154
#SpectrumFile Plate4_61_88_GH5_01_16506.mzXML
#LibraryName FDALibrary_2_04302014.mgf
#MQScore -1
#Organism FDALibrary_2_04302014
#TIC_Query 0
#RT_Query -1
#MZErrorPPM -1
#SharedPeaks 0
#MassDiff 0
#LibMZ -1
#SpecMZ 417.238
#SpecCharge 0
#internalFilename spec-00000.mgf

>collision 10
44.903439 180.0
44.978443 148.0
45.026222 164.0
45.238819 156.0
45.453262 152.0
45.540524 156.0
45.590233 160.0
45.617115 156.0
45.918724 160.0
45.989365 292.0
46.184799 152.0
46.364872 148.0
46.577885 156.0
46.655342 168.0
46.718472 152.0
46.780624 216.0
46.833061 224.0
46.875835 204.0
46.926239 140.0
46.946724 140.0
46.97673 168.0
47.184307 224.0
47.377274 184.0
47.396454 152.0
47.496532 176.0
47.56377 188.0
47.607197 184.0
47.672268 148.0
47.80291 252.0
47.824928 188.0
47.878929 216.0
47.917191 208.0
47.968182 152.0
48.027473 160.0
48.3148 156.0
48.361847 140.0
48.424152 200.0
48.490654 204.0
48.570396 156.0
48.675159 172.0
48.748531 176.0
48.865582 156.0
48.896194 172.0
48.976952 220.0
49.097435 208.0
49.112152 164.0
49.183311 160.0
49.20565 172.0
49.306221 160.0
49.353748 176.0
49.364937 152.0
49.453075 192.0
49.485271 156.0
49.560905 148.0
49.570713 164.0
49.688492 140.0
49.795174 152.0
49.867264 180.0
49.96526 172.0
50.029999 140.0
50.094776 184.0
50.199074 180.0
50.335949 160.0
50.385384 172.0
50.402836 160.0
50.426365 144.0
50.465946 148.0
50.54657 140.0
50.604603 168.0
50.623009 184.0
50.655586 212.0
50.953465 176.0
51.094246 168.0
51.18391 176.0
51.263683 228.0
51.31559 168.0
51.332108 184.0
51.437206 168.0
51.533367 180.0
51.571949 180.0
51.590534 192.0
51.629139 144.0
51.658737 144.0
51.92416 204.0
51.970604 184.0
51.99469 156.0
52.037567 208.0
52.22002 224.0
52.306168 156.0
52.371147 148.0
52.470577 156.0
52.492355 152.0
52.619175 172.0
52.655277 144.0
52.86924 164.0
52.908321 144.0
52.963348 188.0
53.283943 168.0
53.369694 208.0
53.389408 352.0
53.42205 176.0
53.460773 248.0
53.784889 164.0
53.856434 148.0
53.934948 252.0
54.006447 152.0
54.077213 240.0
54.132847 140.0
54.166206 216.0
54.247955 244.0
54.288181 184.0
54.396751 160.0
54.414368 204.0
54.489491 108.0
54.552464 172.0
54.575989 208.0
54.680431 180.0
54.693508 104.0
54.782028 168.0
54.793816 156.0
54.804127 144.0
54.81739 160.0
55.013554 164.0
55.066711 172.0
55.267757 160.0
55.292912 188.0
55.368416 204.0
55.403965 160.0
55.458794 216.0
55.478977 208.0
55.660557 156.0
55.714024 172.0
55.774948 140.0
55.802238 224.0
55.899879 196.0
55.938576 176.0
55.978775 224.0
56.392826 356.0
56.487717 188.0
56.553551 144.0
56.592476 188.0
56.653877 156.0
56.853298 156.0
56.941059 184.0
57.000462 196.0
57.153664 140.0
57.27879 164.0
57.30378 184.0
57.403072 116.0
57.435715 236.0
57.606129 180.0
57.68082 196.0
57.695774 160.0
57.901073 176.0
57.943485 168.0
58.146679 164.0
58.313744 172.0
58.475719 160.0
58.706524 184.0
58.747707 144.0
58.802639 164.0
58.860649 156.0
58.985218 164.0
59.124561 200.0
59.189148 192.0
59.195492 160.0
59.245071 232.0
59.267525 212.0
59.313499 164.0
59.456139 160.0
59.546867 124.0
59.564713 140.0
59.715782 144.0
59.781933 204.0
59.797153 144.0
59.842125 116.0
59.929756 216.0
59.959167 140.0
59.971367 160.0
60.09782 172.0
60.137943 164.0
60.244957 224.0
60.374321 160.0
60.402161 144.0
60.450123 172.0
60.749149 144.0
60.814857 160.0
60.894855 184.0
60.963413 164.0
60.980511 156.0
61.075356 156.0
61.188953 216.0
61.276794 180.0
61.368271 172.0
61.419849 96.0
61.650658 272.0
61.700722 136.0
61.796661 204.0
61.976768 248.0
62.165871 140.0
62.183136 208.0
62.238079 208.0
62.318184 176.0
62.340179 184.0
62.524178 148.0
62.538342 216.0
62.566845 148.0
62.754158 148.0
62.788078 204.0
62.84668 176.0
62.90403 196.0
62.998447 228.0
63.031361 132.0
63.112354 204.0
63.147362 176.0
63.205894 180.0
63.302452 160.0
63.367397 164.0
63.390339 148.0
63.403839 204.0
63.424446 140.0
63.489449 248.0
63.523174 212.0
63.65131 172.0
63.679897 160.0
63.740265 188.0
63.752975 188.0
63.770908 184.0
63.864059 216.0
63.881763 200.0
64.064835 164.0
64.198227 168.0
64.431755 420.0
64.511665 208.0
64.561226 200.0
64.601212 144.0
64.865433 192.0
65.003365 176.0
65.168747 176.0
65.247505 160.0
65.453369 160.0
65.542038 184.0
65.741997 196.0
65.895248 180.0
65.968117 228.0
66.129868 188.0
66.181671 144.0
66.218918 152.0
66.273994 168.0
66.290199 172.0
66.338821 164.0
66.445854 144.0
66.505898 180.0
66.531868 144.0
66.556007 120.0
66.587677 228.0
66.752838 188.0
66.964401 180.0
66.995346 160.0
67.0149 184.0
67.070305 164.0
67.089867 140.0
67.112694 184.0
67.155708 148.0
67.217087 188.0
67.267113 184.0
67.344421 208.0
67.439186 180.0
67.46534 184.0
67.550377 156.0
67.592918 192.0
67.735352 232.0
67.771362 196.0
67.904175 152.0
68.040367 192.0
68.156982 172.0
68.247383 164.0
68.326332 152.0
68.382278 240.0
68.627731 172.0
68.682152 212.0
68.721992 160.0
68.766296 208.0
68.969452 196.0
68.982681 192.0
69.050468 168.0
69.138565 144.0
69.348488 180.0
69.486122 192.0
69.643829 152.0
69.680321 124.0
69.788406 172.0
69.83287 136.0
69.870239 136.0
69.894859 208.0
70.018044 156.0
70.044693 140.0
70.106339 168.0
70.169678 212.0
70.297722 136.0
70.351524 208.0
70.386971 156.0
70.401611 180.0
70.419983 196.0
70.486809 148.0
70.603821 192.0
70.640625 212.0
70.71759 140.0
70.744377 176.0
70.782883 148.0
70.804649 164.0
70.846527 224.0
70.897484 224.0
70.98732 164.0
71.049377 152.0
71.103073 188.0
71.215561 208.0
71.412209 184.0
71.575447 164.0
71.743927 164.0
71.786079 160.0
71.861984 160.0
71.900795 176.0
71.998711 148.0
72.020668 156.0
72.061211 168.0
72.089935 216.0
72.105148 168.0
72.23365 196.0
72.259407 160.0
72.413063 176.0
72.51133 148.0
72.576965 156.0
72.602882 180.0
72.638496 160.0
72.684303 160.0
72.792946 172.0
73.138062 240.0
73.184029 140.0
73.202759 160.0
73.229645 132.0
73.313484 328.0
73.478882 176.0
73.616844 188.0
73.658134 176.0
73.78801 200.0
73.904312 148.0
73.953072 196.0
74.05838 140.0
74.241768 148.0
74.301804 172.0
74.43158 160.0
74.51812 184.0
74.614601 236.0
74.640892 216.0
74.655632 184.0
74.719276 204.0
74.836716 136.0
74.98101 352.0
75.02755 176.0
75.103737 144.0
75.214043 216.0
75.282913 180.0
75.488556 236.0
75.644264 188.0
75.706596 144.0
75.85907 176.0
75.907616 156.0
76.145363 300.0
76.164467 140.0
76.257568 144.0
76.310448 164.0
76.388702 156.0
76.508736 168.0
76.642227 212.0
76.665543 164.0
76.730034 168.0
76.764908 196.0
76.802437 100.0
77.00399 196.0
77.054649 192.0
77.178268 192.0
77.208473 176.0
77.306435 160.0
77.784912 144.0
77.834068 184.0
77.848122 272.0
77.862167 152.0
77.989426 168.0
78.1549 144.0
78.183891 228.0
78.226875 132.0
78.361732 216.0
78.437515 148.0
78.473053 176.0
78.598 368.0
78.658005 216.0
78.779854 208.0
78.792221 192.0
78.98732 196.0
79.099922 200.0
79.17086 120.0
79.192039 156.0
79.287666 160.0
79.312477 152.0
79.330208 144.0
79.409996 144.0
79.521774 140.0
79.708244 216.0
79.747337 160.0
79.820229 236.0
80.060463 200.0
80.179001 208.0
80.192299 164.0
80.249344 208.0
80.368843 232.0
80.409889 164.0
80.447372 160.0
80.480316 212.0
80.553596 124.0
80.577026 176.0
80.606331 152.0
80.6912 132.0
80.774384 156.0
80.786911 168.0
80.881744 160.0
81.033966 260.0
81.08593 140.0
81.163017 188.0
81.313705 140.0
81.561562 224.0
81.795403 148.0
82.004341 176.0
82.134163 164.0
82.183327 136.0
82.264084 160.0
82.282135 160.0
82.370621 192.0
82.451927 152.0
82.475426 168.0
82.548523 176.0
82.677994 168.0
82.757294 172.0
82.840942 148.0
82.925499 308.0
82.946045 172.0
82.967148 136.0
82.998619 256.0
83.082054 160.0
83.161896 168.0
83.439819 164.0
83.499207 232.0
83.530746 152.0
83.673347 236.0
83.74189 180.0
83.894257 104.0
83.964241 144.0
83.977943 164.0
83.99707 144.0
84.037209 192.0
84.165459 196.0
84.223412 164.0
84.245895 168.0
84.272736 176.0
84.389709 168.0
84.408768 180.0
84.459206 164.0
84.506767 224.0
84.528725 152.0
84.574219 168.0
84.594612 160.0
84.796097 180.0
84.840088 144.0
84.86451 200.0
84.940948 172.0
85.008827 148.0
85.155754 128.0
85.18325 176.0
85.202614 164.0
85.251228 244.0
85.308205 180.0
85.322914 172.0
85.409348 248.0
85.484985 172.0
85.517845 136.0
85.584175 196.0
85.648674 160.0
85.718636 216.0
85.737068 168.0
85.768402 176.0
85.836609 228.0
85.910385 160.0
85.960205 156.0
86.030342 188.0
86.130943 104.0
86.167 160.0
86.223373 132.0
86.342606 224.0
86.42585 288.0
86.490616 160.0
86.831078 196.0
86.872345 160.0
86.944931 168.0
86.96212 260.0
87.09967 160.0
87.286514 248.0
87.548897 168.0
87.589874 164.0
87.626015 220.0
87.683029 164.0
87.800484 180.0
87.932945 204.0
87.959076 152.0
87.981476 184.0
88.324425 168.0
88.371758 228.0
88.458176 144.0
88.597626 128.0
88.61554 140.0
88.771057 156.0
88.802315 128.0
88.846085 152.0
89.005669 144.0
89.108917 204.0
89.189194 156.0
89.219803 172.0
89.257408 188.0
89.330757 180.0
89.396126 208.0
89.466316 116.0
89.503906 220.0
89.550987 196.0
89.573586 188.0
89.618317 172.0
89.670677 364.0
89.696068 192.0
89.828064 168.0
89.867683 204.0
89.892212 256.0
90.099907 148.0
90.229813 200.0
90.294601 172.0
90.445961 244.0
90.461105 152.0
90.551994 176.0
90.568314 168.0
90.603134 200.0
90.618294 152.0
90.631554 164.0
90.693161 212.0
90.737694 160.0
90.82872 148.0
90.864761 272.0
90.89753 164.0
90.938766 168.0
90.972939 180.0
90.999512 200.0
91.012802 172.0
91.052849 1400.0
91.091087 128.0
91.11998 212.0
91.155266 232.0
91.201065 124.0
91.348694 152.0
91.478592 236.0
91.49192 160.0
91.51667 184.0
91.594749 168.0
91.739571 164.0
91.77961 148.0
91.930305 160.0
92.018105 144.0
92.060661 420.0
92.126968 280.0
92.201485 172.0
92.373566 252.0
92.50177 220.0
92.566315 180.0
92.645393 160.0
92.666473 148.0
92.720123 192.0
92.824493 144.0
93.036324 184.0
93.130707 144.0
93.200546 192.0
93.265205 168.0
93.30365 148.0
93.369965 288.0
93.394028 148.0
93.420959 240.0
93.584549 152.0
93.63269 148.0
93.729004 180.0
93.777184 188.0
93.819595 164.0
93.88369 160.0
93.906364 144.0
93.964233 156.0
94.003708 156.0
94.080559 160.0
94.094116 152.0
94.151466 160.0
94.178505 232.0
94.225891 144.0
94.242256 308.0
94.255783 220.0
94.447174 168.0
94.471329 140.0
94.502106 204.0
94.660065 160.0
94.712891 116.0
94.73246 168.0
94.857971 188.0
94.977905 160.0
95.018639 144.0
95.173912 192.0
95.302109 148.0
95.482887 172.0
95.514854 212.0
95.621025 164.0
95.724709 248.0
95.76532 140.0
95.779594 176.0
95.873535 200.0
95.976067 216.0
96.162842 316.0
96.190163 220.0
96.205391 180.0
96.457779 244.0
96.472725 192.0
96.90789 164.0
96.945122 148.0
96.998512 248.0
97.056313 188.0
97.176498 200.0
97.305588 204.0
97.390472 160.0
97.423866 152.0
97.439583 160.0
97.471016 244.0
97.922012 144.0
98.002281 160.0
98.077171 196.0
98.275383 172.0
98.337524 192.0
98.361206 140.0
98.497459 184.0
98.527245 100.0
98.552773 184.0
98.591499 120.0
98.627869 184.0
98.673332 168.0
98.704971 192.0
98.733528 136.0
98.784081 180.0
98.89093 200.0
98.948334 148.0
98.967804 144.0
99.016258 204.0
99.062302 184.0
99.186058 208.0
99.320168 176.0
99.635651 192.0
99.68222 264.0
99.783989 160.0
99.82412 148.0
99.859154 204.0
99.954643 152.0
100.060135 140.0
100.18161 188.0
100.264755 160.0
100.320351 124.0
100.484642 184.0
100.567368 132.0
100.756165 180.0
100.898651 160.0
100.966042 160.0
101.046051 176.0
101.139076 132.0
101.264244 140.0
101.320328 140.0
101.455269 216.0
101.6548 152.0
101.679253 152.0
101.801712 164.0
101.826668 160.0
101.884064 184.0
101.911728 160.0
101.946556 160.0
102.054337 5428.0
102.080612 152.0
102.103157 192.0
102.171547 236.0
102.211792 200.0
102.225876 164.0
102.266731 212.0
102.338081 156.0
102.401024 176.0
102.427742 196.0
102.625694 196.0
102.652931 156.0
102.671082 160.0
102.691788 224.0
102.7901 172.0
102.872849 140.0
103.01017 160.0
103.058174 432.0
103.196091 152.0
103.412544 212.0
103.493523 192.0
103.549118 316.0
103.576553 172.0
103.862358 196.0
104.134918 236.0
104.242004 184.0
104.259346 100.0
104.330147 120.0
104.364471 160.0
104.590919 192.0
104.689545 220.0
104.724167 196.0
104.864746 200.0
105.003387 192.0
105.06752 308.0
105.12188 144.0
105.161224 308.0
105.199211 152.0
105.258476 160.0
105.2789 180.0
105.481171 152.0
105.518631 172.0
105.575562 144.0
105.601807 148.0
105.730698 180.0
105.964127 144.0
106.031754 168.0
106.046097 152.0
106.220383 216.0
106.370178 172.0
106.501595 144.0
106.531647 292.0
106.578117 160.0
106.639252 144.0
106.678848 244.0
106.725594 228.0
106.929245 192.0
106.972473 144.0
107.058945 200.0
107.353638 208.0
107.435059 160.0
107.540268 104.0
107.637848 192.0
107.680771 156.0
107.689369 212.0
107.757645 176.0
107.840866 180.0
107.929756 160.0
107.946083 152.0
107.973183 168.0
108.053047 208.0
108.146973 208.0
108.258255 96.0
108.441086 192.0
108.461807 144.0
108.489433 132.0
108.517044 168.0
108.633919 160.0
108.694084 180.0
108.731438 200.0
108.755051 128.0
108.889229 156.0
108.959145 224.0
109.010956 208.0
109.046211 164.0
109.086617 144.0
109.126122 176.0
109.177528 144.0
109.386276 144.0
109.431961 216.0
109.579842 204.0
109.641335 172.0
109.769119 148.0
109.846222 164.0
109.967705 172.0
109.996925 148.0
110.055145 144.0
110.095215 3020.0
110.149361 140.0
110.263298 256.0
110.289124 180.0
110.323669 164.0
110.3666 152.0
110.416893 200.0
110.54451 164.0
110.598923 140.0
110.705696 148.0
111.03891 192.0
111.072472 172.0
111.096016 148.0
111.143799 140.0
111.267632 168.0
111.375809 288.0
111.49118 160.0
111.528114 188.0
111.772064 208.0
111.87941 188.0
112.000961 192.0
112.062637 216.0
112.081596 144.0
112.096344 188.0
112.161682 144.0
112.210167 176.0
112.302948 172.0
112.376785 244.0
112.395775 168.0
112.421097 156.0
112.452751 144.0
112.469635 144.0
112.530861 180.0
112.600388 108.0
112.625885 192.0
112.661797 144.0
112.722 268.0
112.911217 172.0
112.942589 144.0
112.97467 216.0
113.042374 152.0
113.133385 172.0
113.148209 176.0
113.200508 160.0
113.264679 164.0
113.376472 144.0
113.472359 188.0
113.499916 164.0
113.588989 152.0
113.64415 140.0
113.680222 164.0
113.803337 256.0
113.861946 160.0
114.086113 160.0
114.170952 144.0
114.24752 180.0
114.311356 164.0
114.630768 160.0
114.690445 212.0
114.726677 144.0
114.839691 148.0
114.896095 188.0
114.999718 148.0
115.052467 1520.0
115.290001 152.0
115.448364 148.0
115.540344 148.0
115.645195 184.0
115.745811 196.0
115.947174 164.0
116.057297 192.0
116.08342 152.0
116.157295 224.0
116.271011 152.0
116.286041 188.0
116.320381 236.0
116.457169 216.0
116.565216 148.0
116.635239 204.0
116.709236 164.0
116.782349 148.0
116.799072 160.0
116.861237 364.0
116.893684 208.0
116.994507 148.0
117.069527 39700.0
117.104492 252.0
117.17067 152.0
117.27063 364.0
117.340714 144.0
117.689606 216.0
117.714706 308.0
117.985596 148.0
118.072838 3844.0
118.227112 152.0
118.304871 144.0
118.338249 176.0
118.372894 188.0
118.440033 156.0
118.499123 144.0
118.544022 224.0
118.661072 160.0
118.85228 140.0
118.900627 164.0
118.963936 196.0
119.078949 660.0
119.151413 120.0
119.17939 188.0
119.244995 180.0
119.314552 148.0
119.398476 128.0
119.451904 176.0
119.501595 172.0
119.638702 152.0
119.659767 196.0
119.771408 140.0
119.996933 132.0
120.075272 192.0
120.288322 144.0
120.31015 160.0
120.388756 184.0
120.542778 132.0
120.696869 148.0
120.893738 156.0
120.937759 112.0
120.957207 216.0
121.108292 176.0
121.175507 188.0
121.198112 148.0
121.224411 140.0
121.290161 236.0
121.364693 144.0
121.410744 148.0
121.448929 176.0
121.538269 208.0
121.886192 328.0
122.038765 200.0
122.081551 236.0
122.126724 196.0
122.216248 156.0
122.318161 148.0
122.404808 168.0
122.450264 164.0
122.652969 176.0
122.713104 188.0
122.875359 156.0
122.972794 148.0
123.151634 216.0
123.184769 184.0
123.262093 256.0
123.335022 160.0
123.405769 164.0
123.51413 144.0
123.584923 148.0
123.611473 148.0
123.748703 172.0
123.81514 204.0
124.07621 224.0
124.109863 140.0
124.16433 156.0
124.351662 148.0
124.425095 152.0
124.522621 144.0
124.615913 188.0
124.63591 176.0
124.80484 148.0
125.006836 148.0
125.146698 112.0
125.184692 116.0
125.229889 164.0
125.270744 100.0
125.294487 184.0
125.34462 96.0
125.410103 172.0
125.546356 212.0
125.747093 180.0
125.805176 204.0
125.914215 120.0
126.001701 208.0
126.070412 208.0
126.100021 160.0
126.215157 208.0
126.275246 108.0
126.312439 160.0
126.392975 232.0
126.677315 316.0
126.749054 180.0
126.845612 192.0
126.928329 140.0
126.946266 164.0
127.004875 120.0
127.061531 144.0
127.258873 152.0
127.462563 220.0
127.707603 204.0
127.838089 156.0
127.883766 148.0
127.937683 224.0
128.055405 200.0
128.243118 128.0
128.360703 156.0
128.403671 144.0
128.455429 148.0
128.547928 180.0
128.608856 184.0
128.735291 148.0
128.76239 140.0
129.010056 160.0
129.214478 184.0
129.246155 228.0
129.336685 144.0
129.361526 152.0
129.415909 164.0
129.522354 148.0
129.560867 144.0
129.59938 136.0
129.647766 148.0
129.669815 192.0
129.820068 188.0
129.84346 220.0
129.873688 204.0
130.021317 260.0
130.0858 41056.0
130.165817 184.0
130.307266 192.0
130.373672 176.0
130.412384 108.0
130.453003 96.0
130.549347 136.0
130.781708 132.0
130.870087 184.0
130.909073 124.0
131.039459 132.0
131.064224 272.0
131.087769 1460.0
131.120636 188.0
131.533478 132.0
131.60437 136.0
131.623779 160.0
131.728836 160.0
131.844589 172.0
131.88649 232.0
131.957947 156.0
132.019104 140.0
132.088745 308.0
132.132126 136.0
132.162369 152.0
132.198502 152.0
132.22728 140.0
132.34726 196.0
132.373154 212.0
132.417313 176.0
132.50206 152.0
132.648727 188.0
132.740433 144.0
132.889984 180.0
132.92395 168.0
132.981323 220.0
133.018875 144.0
133.058716 168.0
133.09819 132.0
133.130554 200.0
133.167297 164.0
133.32901 192.0
133.361694 140.0
133.556931 192.0
133.801956 176.0
133.932297 200.0
133.983078 136.0
134.023056 276.0
134.041199 192.0
134.096161 20500.0
134.175446 136.0
134.20665 120.0
134.240616 136.0
134.261917 104.0
134.338913 196.0
134.435822 140.0
134.453888 96.0
134.467499 208.0
134.613571 176.0
134.849213 212.0
134.976349 180.0
135.057983 204.0
135.09938 2512.0
135.18454 164.0
135.284073 200.0
135.483047 160.0
135.528519 172.0
135.603714 140.0
135.881989 140.0
135.94928 180.0
135.988571 188.0
136.10022 156.0
136.167496 156.0
136.192093 116.0
136.235428 148.0
136.281326 144.0
136.36731 192.0
136.397522 148.0
136.432388 252.0
136.452652 160.0
136.476562 140.0
136.781326 156.0
136.865143 188.0
136.928009 192.0
137.002548 152.0
137.056137 160.0
137.445526 236.0
137.492203 184.0
137.555222 172.0
137.599579 140.0
137.67897 156.0
137.723343 160.0
137.866348 180.0
138.064484 108.0
138.088989 852.0
138.145309 116.0
138.242447 112.0
138.398041 204.0
138.546677 148.0
138.743469 144.0
138.860779 140.0
139.078125 152.0
139.09584 196.0
139.334091 112.0
139.523026 172.0
139.75882 140.0
139.817047 140.0
139.873535 184.0
139.906479 144.0
139.939453 196.0
139.986298 148.0
140.014801 160.0
140.278687 164.0
140.297546 184.0
140.43071 168.0
140.460266 164.0
140.65097 160.0
140.688614 156.0
140.741104 140.0
140.866272 172.0
140.900421 220.0
140.941879 172.0
141.019135 288.0
141.073669 188.0
141.447983 184.0
141.783813 176.0
141.890976 184.0
141.934509 144.0
141.986038 132.0
142.047485 164.0
142.075958 212.0
142.163742 192.0
142.194824 160.0
142.4534 144.0
142.527145 104.0
142.712448 140.0
142.888229 156.0
143.084213 544.0
143.174179 108.0
143.236023 144.0
143.290894 116.0
143.365402 284.0
143.402481 128.0
143.600693 172.0
143.655563 196.0
143.677032 156.0
143.758148 184.0
143.867615 148.0
144.078384 656.0
144.156952 152.0
144.202362 140.0
144.305145 164.0
144.350571 200.0
144.390732 152.0
144.470169 148.0
144.604156 216.0
144.661606 164.0
144.781326 148.0
144.879532 264.0
144.898697 144.0
144.995407 188.0
145.06282 264.0
145.084442 364.0
145.299866 144.0
145.36937 200.0
145.39505 148.0
145.43457 172.0
145.572693 164.0
145.632736 148.0
145.729507 184.0
145.766235 184.0
145.871994 160.0
146.041336 144.0
146.137558 312.0
146.162552 176.0
146.452911 144.0
146.633118 96.0
147.118454 156.0
147.170624 184.0
147.205368 160.0
147.244934 160.0
147.300659 144.0
147.381378 180.0
147.500717 124.0
147.554703 160.0
147.572647 160.0
147.635513 212.0
147.671799 180.0
147.704956 180.0
147.780655 160.0
147.848404 156.0
147.889542 144.0
148.018463 112.0
148.092926 144.0
148.216476 192.0
148.284332 184.0
148.302048 168.0
148.379822 236.0
148.407959 192.0
148.750031 336.0
148.784027 164.0
149.026886 256.0
149.0439 168.0
149.102219 148.0
149.141113 188.0
149.17514 168.0
149.266754 340.0
149.734772 196.0
149.846283 144.0
150.105423 200.0
150.210052 228.0
150.485825 188.0
150.638184 128.0
150.659149 136.0
150.702667 148.0
150.791809 168.0
151.481171 160.0
151.544876 152.0
151.804184 172.0
151.973953 144.0
152.192398 140.0
152.228622 164.0
152.291824 180.0
152.335419 152.0
152.374146 208.0
152.450317 224.0
152.519135 256.0
152.536331 152.0
152.674026 152.0
152.941483 204.0
153.180222 144.0
153.207306 176.0
153.402832 168.0
153.491577 168.0
153.526108 156.0
153.553528 168.0
153.580368 216.0
153.691376 164.0
153.735794 156.0
153.845703 204.0
153.908585 152.0
154.089676 152.0
154.160538 228.0
154.432495 216.0
154.818573 188.0
154.847107 180.0
154.97464 144.0
155.021713 160.0
155.091766 172.0
155.150604 172.0
155.440796 236.0
155.463516 100.0
155.526108 128.0
155.591522 132.0
155.669281 168.0
155.803284 140.0
155.820679 200.0
155.877472 112.0
155.913193 188.0
155.975006 160.0
156.064255 212.0
156.101456 24364.0
156.162628 136.0
156.223282 144.0
156.274612 160.0
156.414566 128.0
156.462265 144.0
156.538406 180.0
156.569397 204.0
156.742645 136.0
156.931976 168.0
156.97406 104.0
157.013596 204.0
157.103729 2652.0
157.149063 140.0
157.220062 180.0
157.340546 148.0
157.363037 188.0
157.687088 144.0
157.787079 144.0
157.864594 180.0
157.894592 164.0
158.107315 316.0
158.350098 172.0
158.40007 180.0
158.836349 148.0
158.86644 140.0
158.985916 208.0
159.063141 168.0
159.084778 148.0
159.104858 156.0
159.293198 224.0
159.312546 148.0
159.464737 208.0
159.710403 168.0
159.731659 140.0
159.788803 156.0
159.881546 192.0
159.967117 360.0
159.984741 176.0
160.06958 132.0
160.111664 83868.0
160.164841 208.0
160.211258 148.0
160.237045 284.0
160.260742 196.0
160.286804 120.0
160.422592 148.0
160.467926 252.0
160.512878 108.0
160.812454 124.0
160.873444 156.0
161.014633 152.0
161.074615 240.0
161.114319 8880.0
161.182281 108.0
161.289352 288.0
161.330582 168.0
161.574646 184.0
161.698639 148.0
161.76944 144.0
161.86676 176.0
161.885971 168.0
161.913696 140.0
161.994888 188.0
162.049438 120.0
162.125214 1520.0
162.292953 248.0
162.319794 128.0
162.352264 204.0
162.404022 128.0
162.486694 152.0
162.589325 136.0
162.628799 140.0
162.669418 164.0
162.734238 152.0
162.883942 316.0
163.129425 320.0
163.208008 184.0
163.258621 160.0
163.352264 156.0
163.401321 140.0
163.697845 112.0
163.77565 156.0
163.862137 180.0
164.121094 100.0
164.138062 216.0
164.249054 232.0
164.392487 164.0
164.438431 140.0
164.502243 156.0
165.008072 188.0
165.028519 144.0
165.086212 312.0
165.217773 300.0
165.258713 164.0
165.281738 144.0
165.301193 116.0
165.363632 168.0
165.412262 220.0
165.468582 188.0
165.583817 172.0
165.601746 156.0
165.701645 208.0
165.737961 156.0
166.021011 192.0
166.0811 184.0
166.119522 460.0
166.274124 172.0
166.314636 192.0
166.368439 152.0
166.430832 184.0
166.640671 148.0
166.807175 152.0
166.864273 156.0
166.985123 152.0
167.024796 160.0
167.05069 116.0
167.094284 128.0
167.271469 112.0
167.40976 168.0
167.590073 188.0
167.710175 292.0
167.819473 140.0
167.905457 172.0
168.043167 196.0
168.163269 144.0
168.263229 172.0
168.290573 144.0
168.508591 204.0
168.557785 188.0
168.635208 168.0
168.677994 380.0
168.935303 216.0
168.958435 180.0
169.314606 120.0
169.434784 160.0
169.461731 252.0
169.522888 140.0
169.623962 224.0
169.687653 136.0
169.735443 208.0
169.908691 156.0
170.002625 148.0
170.094467 196.0
170.274078 100.0
170.367401 140.0
170.493454 172.0
170.579224 168.0
170.608017 200.0
170.880966 128.0
171.034058 112.0
171.237518 208.0
171.264648 356.0
171.307846 144.0
171.399033 180.0
171.614777 124.0
172.089447 120.0
172.210358 148.0
172.374939 152.0
172.425491 244.0
172.718201 120.0
172.795898 164.0
172.87178 140.0
172.924118 172.0
173.281937 200.0
173.42276 232.0
173.44928 240.0
173.476807 188.0
173.605286 184.0
173.648956 140.0
173.826691 148.0
173.867615 152.0
173.97261 208.0
174.038239 168.0
174.093048 152.0
174.246674 212.0
174.329819 152.0
174.637405 156.0
174.695282 160.0
174.718964 152.0
175.145401 140.0
175.27449 208.0
175.308746 244.0
175.340378 196.0
175.493271 304.0
175.57428 172.0
175.608231 208.0
175.665604 244.0
175.714813 200.0
175.751755 188.0
176.060593 140.0
176.285141 176.0
176.443741 152.0
176.628845 188.0
176.660583 180.0
176.682526 340.0
176.993073 140.0
177.231125 128.0
177.392456 108.0
177.518723 220.0
177.589355 140.0
178.068924 168.0
178.129898 160.0
178.194489 264.0
178.2603 124.0
178.485291 160.0
178.641296 132.0
178.879044 180.0
179.128143 168.0
179.219925 172.0
179.241241 164.0
179.801254 156.0
179.924042 140.0
179.948914 180.0
180.204468 184.0
180.304626 132.0
180.354172 152.0
180.445007 160.0
180.465057 104.0
180.650925 156.0
180.688385 188.0
180.753906 200.0
180.784286 256.0
180.822174 156.0
180.929245 144.0
181.266724 144.0
181.575012 156.0
181.620605 152.0
181.862091 156.0
182.032013 196.0
182.068817 180.0
182.118149 452.0
182.153473 140.0
182.275665 156.0
182.313293 156.0
182.381653 192.0
182.432449 96.0
182.541794 176.0
182.56868 300.0
182.684982 336.0
182.719315 224.0
182.807892 156.0
182.900543 112.0
182.991135 160.0
183.116791 180.0
183.287415 236.0
183.481186 132.0
183.883972 148.0
184.102249 172.0
184.293854 144.0
184.364105 168.0
184.45871 140.0
184.506119 152.0
184.808182 144.0
184.922485 156.0
185.035934 364.0
185.189056 148.0
185.273254 144.0
185.349106 264.0
185.523026 164.0
185.549683 140.0
185.755783 144.0
186.271088 212.0
186.418243 140.0
186.55925 280.0
186.828812 168.0
187.04808 144.0
187.080124 264.0
187.139069 156.0
187.18808 224.0
187.298416 172.0
187.405991 168.0
187.446854 156.0
187.602219 160.0
187.933075 304.0
187.992249 144.0
188.041367 148.0
188.106766 984.0
188.218811 204.0
188.390869 164.0
188.680557 140.0
188.735229 168.0
188.790131 104.0
188.871979 196.0
189.107346 156.0
189.345474 144.0
189.487915 140.0
189.565704 112.0
189.769348 140.0
189.995102 176.0
190.456268 296.0
190.513962 140.0
190.568909 144.0
190.722794 200.0
190.805969 204.0
190.909744 220.0
190.931747 180.0
191.039017 184.0
191.093124 144.0
191.135315 140.0
191.294067 176.0
191.366516 164.0
191.396805 140.0
191.586853 144.0
191.807297 184.0
191.840164 152.0
192.079315 192.0
192.5495 144.0
192.629608 148.0
192.880875 188.0
193.077362 140.0
193.251633 176.0
193.318039 144.0
193.489243 208.0
193.622559 176.0
194.197647 208.0
194.291016 128.0
194.391815 148.0
194.453842 148.0
194.60141 180.0
194.643066 160.0
194.75032 212.0
195.179352 144.0
195.348999 216.0
195.404633 160.0
195.538635 184.0
195.649002 256.0
195.717606 180.0
195.788773 168.0
195.896118 96.0
195.992111 164.0
196.203934 160.0
196.279221 208.0
196.483902 248.0
196.879181 172.0
196.932251 176.0
196.992508 188.0
197.119415 160.0
197.161346 200.0
197.20047 140.0
197.267548 168.0
197.404556 148.0
197.502441 160.0
197.530411 192.0
197.606247 428.0
197.743057 204.0
197.862274 132.0
197.911011 164.0
198.158981 240.0
198.336838 148.0
198.528137 120.0
198.580276 360.0
198.60321 144.0
198.687363 160.0
198.909058 232.0
198.931519 196.0
199.078445 180.0
199.178619 156.0
199.302231 176.0
199.66629 228.0
199.859512 124.0
199.971832 108.0
200.113266 212.0
200.250259 164.0
200.284058 140.0
200.416458 220.0
200.450272 156.0
200.527878 112.0
200.603958 144.0
200.637375 168.0
200.754715 176.0
200.814255 164.0
200.887283 164.0
201.008606 156.0
201.091583 112.0
201.171143 156.0
201.207825 116.0
201.401016 188.0
201.582077 144.0
201.630402 192.0
201.700531 140.0
201.745758 160.0
201.875824 172.0
201.903473 180.0
202.07666 148.0
202.123993 208.0
202.286072 176.0
202.314377 188.0
202.356857 188.0
202.577744 164.0
202.69957 184.0
202.841278 228.0
203.000046 160.0
203.173752 148.0
203.244003 140.0
203.314941 176.0
203.519318 196.0
203.70961 196.0
204.025772 140.0
204.059158 156.0
204.090439 140.0
204.226929 164.0
204.313004 108.0
204.349258 212.0
204.451691 152.0
204.596863 140.0
204.703339 116.0
204.724991 152.0
204.754044 196.0
204.821213 116.0
204.893036 152.0
204.944321 184.0
205.095367 168.0
205.170654 148.0
205.32312 100.0
205.371948 172.0
205.440399 180.0
205.566895 132.0
205.884308 160.0
206.019913 152.0
206.046631 160.0
206.117126 4252.0
206.152832 984.0
206.238373 212.0
206.336243 180.0
206.413559 176.0
206.462158 132.0
206.563049 224.0
206.686066 152.0
206.894333 136.0
207.049362 308.0
207.122864 552.0
207.15274 312.0
207.207169 176.0
207.230316 152.0
207.293121 148.0
207.360291 128.0
207.439301 216.0
207.473694 228.0
207.716309 220.0
207.805664 120.0
208.125046 164.0
208.15799 100.0
208.22261 204.0
208.661102 260.0
208.682373 140.0
208.935471 176.0
209.131256 168.0
209.220383 140.0
209.415466 204.0
209.479553 400.0
209.52565 176.0
209.579254 168.0
209.88092 180.0
209.918762 164.0
209.946472 160.0
210.106491 184.0
210.211227 232.0
210.66806 152.0
210.90184 128.0
210.938004 208.0
211.048935 224.0
211.207214 104.0
211.267883 196.0
211.327209 244.0
211.553986 112.0
211.680344 180.0
211.799088 160.0
211.888077 128.0
211.92189 144.0
212.294678 152.0
212.384018 160.0
212.490128 172.0
212.610901 152.0
212.680557 148.0
212.730835 212.0
212.804321 164.0
212.915726 168.0
213.042191 156.0
213.084641 160.0
213.267273 164.0
213.334122 164.0
213.441696 196.0
213.70639 188.0
213.920334 164.0
214.195465 148.0
214.236252 296.0
214.411072 324.0
214.613342 144.0
214.676361 156.0
214.812088 192.0
214.900024 160.0
214.953491 200.0
215.043961 188.0
215.195755 156.0
215.219116 196.0
215.272949 128.0
215.391281 172.0
215.440079 152.0
215.475647 228.0
215.587173 180.0
215.799088 168.0
216.128143 216.0
216.224701 156.0
216.387207 148.0
216.588806 180.0
216.838455 220.0
216.942322 320.0
217.075272 176.0
217.109451 148.0
217.134155 132.0
217.55838 156.0
217.609558 148.0
217.913742 156.0
218.076904 304.0
218.121552 140.0
218.167633 196.0
218.196869 180.0
218.326645 260.0
218.39801 168.0
218.417313 120.0
218.622192 124.0
218.698822 176.0
218.778381 192.0
218.825958 208.0
218.928543 168.0
218.951096 140.0
219.034576 180.0
219.090546 148.0
219.17009 164.0
219.195389 164.0
219.290909 188.0
219.358704 152.0
219.683609 156.0
219.702042 224.0
219.765686 156.0
219.868973 144.0
219.95752 152.0
220.001801 148.0
220.120361 176.0
220.174362 152.0
220.374023 108.0
220.610352 168.0
220.651733 180.0
220.745438 116.0
220.770004 140.0
220.796631 176.0
220.817322 204.0
220.914932 208.0
221.190979 180.0
221.252304 200.0
221.344086 204.0
221.564957 168.0
221.659485 236.0
221.691986 144.0
221.767731 204.0
221.869797 136.0
221.915939 192.0
221.942627 244.0
222.023224 144.0
222.17131 192.0
222.56871 228.0
222.877609 308.0
222.975845 216.0
223.076736 200.0
223.123001 128.0
223.240265 180.0
223.338409 168.0
223.588776 108.0
223.667099 120.0
223.999207 152.0
224.216721 192.0
224.295776 220.0
224.398544 252.0
224.493973 160.0
224.702759 144.0
224.780746 200.0
224.869171 132.0
225.048981 192.0
225.111679 176.0
225.261612 208.0
225.324112 168.0
225.553848 172.0
225.669006 108.0
226.235474 232.0
226.358643 156.0
226.560181 152.0
226.647202 120.0
226.708603 272.0
226.793045 176.0
227.005905 224.0
227.077881 180.0
227.11087 168.0
227.137756 108.0
227.200867 140.0
227.341125 160.0
227.848328 108.0
227.954483 140.0
228.059677 220.0
228.084412 132.0
228.18042 144.0
228.221024 196.0
228.270737 156.0
228.292526 164.0
228.489685 200.0
228.543839 160.0
228.628098 152.0
228.824005 192.0
228.932251 116.0
229.007446 160.0
229.23941 148.0
229.954025 136.0
230.008484 160.0
230.148682 164.0
230.182953 180.0
230.34668 184.0
230.482635 164.0
230.558182 148.0
230.648849 240.0
230.672867 144.0
231.017532 152.0
231.069199 212.0
231.154068 160.0
231.184174 168.0
231.352859 148.0
231.670349 140.0
231.771637 156.0
231.856476 140.0
232.029175 140.0
232.079453 216.0
232.196609 168.0
232.242996 140.0
232.293091 152.0
232.495316 280.0
232.669388 156.0
232.715729 152.0
232.770889 148.0
232.860962 176.0
232.946915 124.0
233.0327 204.0
233.078018 236.0
233.11644 180.0
233.167542 164.0
233.213333 176.0
233.241409 236.0
233.282242 136.0
233.360092 292.0
233.391922 244.0
233.429169 132.0
233.473877 272.0
233.494385 292.0
233.556305 208.0
233.582367 140.0
233.629089 96.0
233.661301 132.0
233.685867 228.0
233.724518 228.0
233.761063 208.0
233.807114 132.0
233.855728 200.0
233.887299 288.0
233.934967 340.0
233.975128 232.0
234.033279 316.0
234.083771 336.0
234.113007 524.0
234.149445 277756.0
234.229568 160.0
234.320648 276.0
234.377167 332.0
234.419556 296.0
234.479446 244.0
234.52684 372.0
234.571487 184.0
234.613708 472.0
234.649277 2484.0
234.694427 116.0
234.751022 228.0
234.799286 200.0
234.849075 216.0
234.915924 244.0
234.952347 532.0
235.151779 46848.0
235.216309 232.0
235.289551 136.0
235.335007 120.0
235.371582 200.0
235.412628 188.0
235.548691 204.0
235.62706 100.0
235.695114 160.0
235.746597 288.0
235.838257 140.0
235.915527 156.0
235.985825 188.0
236.107193 104.0
236.155029 4436.0
236.319122 240.0
236.391357 168.0
236.453018 192.0
236.559219 260.0
236.609253 204.0
236.694946 216.0
236.76828 120.0
236.840652 176.0
236.86702 216.0
236.938889 236.0
236.985519 112.0
237.022736 192.0
237.051559 128.0
237.101456 148.0
237.155701 148.0
237.234177 184.0
237.362732 108.0
237.599808 188.0
238.249878 132.0
238.339661 120.0
238.569931 196.0
238.689743 112.0
238.77771 176.0
239.019165 160.0
239.061966 128.0
239.247284 152.0
239.635086 156.0
239.665161 196.0
239.779068 144.0
239.813568 108.0
239.880005 144.0
240.018738 216.0
240.17511 108.0
240.445038 168.0
240.740814 172.0
240.78714 172.0
240.93541 148.0
241.242935 164.0
241.33194 160.0
241.411407 172.0
241.470703 204.0
241.801208 176.0
241.886841 144.0
241.95874 120.0
242.022476 100.0
242.144852 156.0
242.336914 140.0
242.590393 228.0
242.695328 264.0
242.787598 144.0
243.164871 176.0
243.604675 144.0
243.6586 148.0
243.689667 156.0
243.944504 204.0
244.053497 140.0
244.737839 144.0
245.039459 172.0
245.342255 140.0
245.376556 144.0
245.477234 120.0
246.019211 140.0
246.150345 152.0
246.263733 144.0
246.559586 208.0
246.587708 180.0
246.665848 160.0
246.728882 96.0
247.034836 140.0
247.148102 156.0
247.342056 352.0
248.071365 164.0
248.281433 200.0
248.306519 140.0
248.534485 96.0
248.654266 124.0
248.839981 152.0
249.392853 480.0
249.470093 160.0
249.823318 116.0
250.025024 196.0
250.33461 152.0
250.541412 184.0
250.610718 164.0
250.689499 148.0
250.80925 148.0
251.181946 312.0
251.459 160.0
251.616821 184.0
252.055847 148.0
252.106415 160.0
252.420334 156.0
252.452667 196.0
252.78566 156.0
253.095001 184.0
253.164597 304.0
253.281677 196.0
253.47467 196.0
253.99437 204.0
254.202774 172.0
254.421783 176.0
254.755219 168.0
255.1633 196.0
255.203339 172.0
255.268921 140.0
255.314255 100.0
255.363586 152.0
255.658203 244.0
255.808334 144.0
256.033875 140.0
256.059357 160.0
256.156433 200.0
256.440399 132.0
256.519745 228.0
256.615784 124.0
256.705017 224.0
256.849792 180.0
256.958557 136.0
257.152893 156.0
257.247131 140.0
257.299744 180.0
257.413086 104.0
257.481201 140.0
257.805115 144.0
257.847015 120.0
258.039001 132.0
258.359283 216.0
258.536743 160.0
258.595886 108.0
258.895294 180.0
259.330994 172.0
259.52771 172.0
259.855225 144.0
260.283478 156.0
260.422913 148.0
260.553589 160.0
260.627472 172.0
260.67569 192.0
260.916748 152.0
261.035706 180.0
261.089355 428.0
261.116119 160.0
261.276947 168.0
261.363068 160.0
261.695343 184.0
261.750061 172.0
261.776794 120.0
261.827362 140.0
262.032745 244.0
262.101654 188.0
262.160248 184.0
262.199066 148.0
262.262299 168.0
262.300995 140.0
262.68576 136.0
262.804077 144.0
262.862152 324.0
262.907349 140.0
263.012939 164.0
263.084869 144.0
263.118774 184.0
263.217224 156.0
263.382538 164.0
263.42395 240.0
263.491791 172.0
263.575775 188.0
263.831116 140.0
263.94751 228.0
264.008942 160.0
264.056793 136.0
264.12616 200.0
264.566101 148.0
265.025848 128.0
265.065521 184.0
265.250916 140.0
265.295258 144.0
265.377686 148.0
265.459717 188.0
265.728943 156.0
265.797089 148.0
266.108673 280.0
266.184906 160.0
266.298279 200.0
266.528778 160.0
266.599152 152.0
266.784424 188.0
266.916077 144.0
267.187683 196.0
267.883179 180.0
268.098907 140.0
268.438416 176.0
269.005768 156.0
269.051819 180.0
269.515594 172.0
269.538452 188.0
269.682251 176.0
270.068085 160.0
270.696442 288.0
270.769012 124.0
270.935516 152.0
271.325836 128.0
271.374695 184.0
271.518982 152.0
271.667816 96.0
271.751862 164.0
271.826263 108.0
272.163055 900.0
272.365753 184.0
272.559601 172.0
273.165771 116.0
273.253876 200.0
273.658966 164.0
274.040222 180.0
274.099548 292.0
274.164368 244.0
274.263184 212.0
274.351562 128.0
274.620422 144.0
275.010712 124.0
275.067017 388.0
275.408264 132.0
275.554626 164.0
275.617401 180.0
275.847382 108.0
275.875183 188.0
276.12204 152.0
276.219086 180.0
276.318329 256.0
276.541595 120.0
276.937347 152.0
277.08783 176.0
277.218964 144.0
277.808655 108.0
277.85144 128.0
277.920044 120.0
278.041779 140.0
278.314911 156.0
278.372253 168.0
278.625793 184.0
278.655701 408.0
278.687256 152.0
278.746002 200.0
278.908264 164.0
278.949799 216.0
279.194183 140.0
279.32724 140.0
279.556793 164.0
279.796448 140.0
279.924347 136.0
280.150482 496.0
280.208069 148.0
280.272736 144.0
280.319366 144.0
280.434631 144.0
280.968018 108.0
281.1604 200.0
281.199799 308.0
281.32663 144.0
281.363342 156.0
281.650543 140.0
281.690613 160.0
281.887726 196.0
281.991333 156.0
282.035187 328.0
282.248749 180.0
282.300446 148.0
282.53479 120.0
282.60199 156.0
282.653046 148.0
282.746582 132.0
282.943298 176.0
283.638092 160.0
284.09079 428.0
284.25415 164.0
284.362579 140.0
284.510925 124.0
284.540497 156.0
284.881409 128.0
286.202789 104.0
286.252869 128.0
286.349579 156.0
286.608978 156.0
286.64267 144.0
286.757263 160.0
286.949402 164.0
287.104492 148.0
287.172089 100.0
287.246155 160.0
287.485718 140.0
287.65448 140.0
287.816528 140.0
288.049561 180.0
288.123871 156.0
288.167786 148.0
288.277222 208.0
288.695374 100.0
288.728912 228.0
288.885437 176.0
289.015503 172.0
289.0672 144.0
289.171173 172.0
289.605499 164.0
290.09198 164.0
290.128693 716.0
290.296844 208.0
290.534668 136.0
290.631439 176.0
290.686951 148.0
290.740509 144.0
290.904175 156.0
291.043365 216.0
291.140381 204.0
291.169006 156.0
291.218872 124.0
291.719604 196.0
291.797638 232.0
292.056091 144.0
292.229584 160.0
292.685669 148.0
293.080811 200.0
293.152344 160.0
293.176208 144.0
293.415588 220.0
293.598938 188.0
293.868408 180.0
293.916168 164.0
294.138 180.0
294.30899 100.0
294.462372 180.0
294.653656 140.0
294.86554 184.0
295.005676 152.0
295.176605 148.0
295.210815 192.0
295.265533 160.0
295.374969 140.0
295.661621 160.0
295.850647 148.0
295.878418 100.0
296.413666 112.0
296.443176 200.0
296.473999 160.0
296.782532 140.0
296.895691 164.0
297.191772 268.0
297.753662 168.0
297.932251 224.0
298.038757 184.0
298.077393 132.0
298.169342 148.0
298.313934 120.0
298.362915 368.0
298.618622 196.0
299.003113 168.0
299.08078 148.0
299.181335 132.0
299.278625 108.0
299.850037 140.0
299.891022 184.0
300.055664 168.0
300.329681 188.0
300.417694 152.0
300.449829 180.0
300.942352 148.0
301.667847 140.0
302.066162 156.0
302.103577 156.0
302.405792 176.0
302.494598 176.0
302.522308 296.0
302.92746 140.0
303.159607 144.0
303.225861 140.0
303.275421 192.0
303.658813 156.0
303.941254 204.0
303.965332 180.0
304.640411 116.0
304.721802 148.0
304.792145 204.0
305.014923 196.0
305.220215 116.0
306.389404 132.0
306.748749 140.0
306.816467 268.0
306.868439 140.0
306.910278 180.0
307.048065 164.0
307.353271 168.0
307.883881 140.0
308.463867 156.0
308.495331 172.0
308.579224 176.0
308.621185 240.0
309.079803 140.0
309.357452 124.0
309.537933 200.0
309.590454 208.0
309.701263 124.0
310.603363 180.0
310.847443 232.0
311.05249 184.0
311.291229 204.0
311.402039 212.0
311.480896 168.0
312.114716 172.0
312.225006 124.0
312.377258 172.0
312.505524 132.0
312.653625 136.0
312.785187 160.0
312.936829 160.0
313.193909 168.0
313.274902 196.0
313.384125 144.0
313.6026 164.0
313.764771 192.0
314.05188 104.0
314.258118 104.0
314.330627 284.0
314.37851 256.0
314.445435 132.0
314.537323 156.0
314.632843 140.0
314.682068 224.0
314.716125 124.0
314.780914 180.0
315.035217 196.0
315.155334 164.0
315.565338 160.0
315.783936 196.0
315.927612 372.0
316.130249 164.0
316.184601 124.0
316.23111 228.0
316.308258 196.0
316.641083 140.0
316.768585 208.0
316.97052 148.0
317.027893 168.0
317.055573 160.0
317.102844 176.0
317.407562 148.0
317.681549 216.0
317.888947 160.0
318.124481 516.0
318.236786 176.0
318.492615 116.0
318.638123 176.0
318.705627 216.0
318.822906 144.0
318.909027 140.0
319.140045 168.0
319.253052 256.0
319.294464 100.0
319.494934 160.0
320.310699 168.0
320.392059 152.0
320.524231 124.0
320.580902 168.0
320.813934 168.0
320.866028 164.0
321.026489 160.0
321.129913 188.0
321.158447 180.0
321.190552 160.0
321.242279 184.0
321.426025 160.0
321.485535 176.0
321.768677 356.0
322.317413 100.0
322.540283 160.0
322.71991 192.0
322.92572 140.0
323.006744 196.0
323.058777 192.0
323.205475 208.0
323.595612 144.0
323.795837 188.0
324.11377 180.0
324.210602 184.0
324.484131 184.0
324.684937 156.0
324.763824 156.0
324.857086 180.0
325.309235 160.0
325.425232 220.0
325.67392 108.0
325.772491 196.0
325.895935 200.0
326.210907 148.0
326.24942 128.0
326.338135 184.0
326.458984 180.0
326.62442 160.0
327.096039 184.0
327.160797 204.0
327.430634 140.0
327.659668 152.0
327.733246 176.0
327.794495 140.0
327.866577 232.0
328.030884 108.0
328.156342 208.0
328.248688 148.0
328.461456 160.0
328.638245 152.0
328.748108 204.0
328.789795 140.0
328.942505 144.0
329.143555 152.0
329.342194 144.0
329.479462 188.0
329.848785 168.0
330.00351 140.0
330.600342 148.0
330.689117 104.0
330.766846 240.0
330.871094 204.0
331.147003 308.0
331.190491 160.0
331.223083 228.0
331.44574 104.0
331.485657 144.0
332.144745 192.0
332.329834 140.0
332.869629 152.0
333.152924 156.0
333.483582 140.0
333.541565 164.0
334.1604 260.0
334.379822 124.0
334.462006 204.0
334.563934 144.0
334.661102 116.0
334.693665 132.0
334.807861 148.0
335.405396 152.0
335.629913 212.0
336.513489 240.0
336.670349 176.0
336.715393 176.0
336.788574 104.0
336.879486 132.0
337.10614 140.0
337.196686 160.0
337.253448 196.0
337.369385 176.0
337.475311 172.0
337.731293 152.0
337.791595 108.0
337.936157 164.0
337.965424 152.0
338.045929 188.0
338.289459 104.0
338.527191 156.0
338.554779 164.0
338.92215 164.0
339.137299 152.0
339.209503 160.0
339.441589 144.0
339.529602 160.0
340.024872 160.0
340.097992 276.0
340.144196 124.0
340.549896 224.0
340.702942 120.0
340.965057 140.0
341.012726 140.0
341.422607 156.0
341.534943 204.0
341.790833 172.0
342.045258 156.0
342.119171 176.0
342.189636 216.0
342.252563 156.0
342.439545 212.0
342.487579 152.0
342.584137 140.0
342.632568 172.0
342.932892 176.0
342.968018 132.0
343.022552 228.0
343.05423 148.0
343.139496 248.0
343.201233 41664.0
343.385406 204.0
343.444763 188.0
343.51593 180.0
343.567963 124.0
343.667938 124.0
343.841553 160.0
343.968781 236.0
344.015656 144.0
344.045074 228.0
344.135803 172.0
344.203674 8384.0
344.265747 260.0
344.340485 148.0
344.517426 104.0
344.627808 160.0
344.663727 208.0
344.775391 192.0
344.810028 152.0
344.966644 164.0
345.054993 172.0
345.209381 1116.0
345.504944 108.0
345.546295 216.0
346.06604 128.0
346.204895 96.0
346.339203 116.0
346.43396 192.0
346.549561 140.0
346.737762 148.0
346.782867 128.0
346.935699 148.0
347.39389 148.0
347.467651 184.0
347.686188 184.0
347.75708 164.0
347.809052 200.0
348.013245 144.0
348.220093 148.0
348.44696 160.0
348.668579 124.0
349.619049 196.0
349.899384 224.0
349.99527 180.0
350.125366 192.0
350.184967 160.0
350.60968 152.0
350.650665 272.0
350.736389 156.0
350.775238 152.0
350.922791 160.0
351.106537 248.0
351.196472 144.0
351.4263 148.0
351.519409 164.0
351.918976 164.0
351.973114 96.0
352.019806 144.0
352.196136 148.0
352.389587 188.0
352.531555 120.0
352.59137 156.0
352.920319 172.0
352.99884 204.0
353.058685 156.0
353.238892 132.0
353.440216 168.0
353.522552 164.0
353.548737 160.0
353.893646 116.0
353.934326 192.0
354.316345 168.0
354.454956 212.0
354.908508 172.0
355.062256 172.0
355.151031 104.0
355.239716 156.0
355.283569 152.0
355.595398 196.0
355.861542 140.0
356.038025 176.0
356.111969 116.0
356.409912 152.0
356.520386 320.0
356.562439 160.0
356.724548 172.0
356.954956 208.0
357.101624 152.0
357.255829 156.0
357.31601 144.0
357.393982 144.0
357.500397 156.0
357.555084 108.0
357.698273 140.0
357.749084 104.0
358.038727 152.0
358.208221 184.0
358.304626 300.0
358.528473 208.0
358.566162 200.0
358.626465 156.0
358.677094 120.0
358.777252 228.0
358.827789 156.0
358.92337 116.0
359.097748 184.0
359.158112 144.0
359.822266 168.0
359.995972 140.0
360.067719 176.0
360.103973 140.0
360.25174 160.0
360.664154 116.0
360.768005 136.0
360.827209 188.0
360.861237 164.0
361.054108 140.0
361.186462 140.0
361.508667 140.0
361.74649 204.0
361.791931 152.0
361.901733 148.0
362.150208 336.0
362.313995 168.0
362.477478 144.0
362.873474 108.0
362.97403 148.0
363.038513 188.0
363.068848 164.0
363.222931 136.0
363.330566 368.0
363.362732 108.0
363.451965 236.0
363.927307 156.0
364.365234 276.0
364.556519 104.0
364.644379 164.0
364.792603 144.0
365.169037 140.0
365.25 128.0
365.762604 152.0
365.85318 156.0
365.949158 140.0
366.384033 168.0
366.887024 140.0
367.115143 208.0
367.85202 116.0
368.382294 164.0
368.477783 156.0
368.507111 200.0
368.569489 188.0
368.976105 136.0
369.117401 176.0
369.216339 296.0
369.242493 148.0
369.283569 136.0
369.308014 144.0
369.37616 168.0
369.441193 148.0
370.398193 172.0
370.528442 148.0
370.880981 224.0
370.987244 136.0
371.083893 164.0
371.146759 124.0
371.199188 152.0
371.411346 144.0
371.517822 152.0
371.904144 228.0
371.951141 180.0
372.523315 144.0
372.685699 152.0
372.72998 184.0
373.022858 180.0
373.203552 164.0
373.252441 156.0
373.415039 160.0
373.502228 108.0
373.668304 120.0
373.703552 176.0
373.845917 156.0
374.925812 192.0
375.3367 192.0
375.437073 112.0
375.506378 176.0
375.687561 160.0
375.736267 140.0
375.89563 120.0
375.980896 156.0
376.023346 188.0
376.092834 160.0
376.274017 132.0
376.561371 136.0
376.614075 144.0
376.657654 124.0
376.90744 132.0
377.09494 296.0
377.147278 152.0
377.533905 152.0
377.580322 180.0
377.739838 132.0
377.812408 160.0
378.159119 132.0
378.314758 212.0
378.452454 124.0
379.276154 140.0
379.440002 120.0
379.504028 168.0
379.729767 168.0
379.772247 152.0
380.050659 168.0
380.307892 152.0
380.490326 168.0
380.631897 148.0
380.789032 160.0
380.985809 176.0
381.057007 136.0
381.251648 156.0
381.422638 156.0
381.741455 152.0
381.94928 124.0
382.515686 148.0
382.73761 200.0
383.187622 152.0
383.298523 152.0
383.59082 112.0
383.852478 176.0
384.008026 144.0
384.15451 144.0
384.214752 324.0
384.249878 144.0
384.299988 184.0
384.765015 144.0
384.869354 104.0
384.979767 216.0
385.007111 144.0
385.268829 152.0
385.395294 160.0
385.447601 132.0
386.179596 168.0
386.331116 184.0
386.472992 176.0
386.862854 136.0
386.906952 136.0
386.997467 168.0
387.381683 152.0
387.573242 160.0
387.654999 120.0
387.809753 200.0
387.855408 164.0
387.961365 168.0
389.053955 144.0
389.187317 156.0
389.562347 168.0
389.854614 124.0
390.120087 116.0
390.298737 196.0
390.682709 140.0
390.776154 208.0
390.836151 148.0
391.639252 152.0
391.69693 136.0
391.855896 148.0
391.903534 136.0
392.068207 200.0
392.137482 120.0
392.31778 220.0
392.518066 168.0
392.763458 184.0
393.128326 120.0
393.678223 140.0
393.946808 148.0
394.112732 152.0
394.230499 200.0
394.393311 260.0
394.535828 152.0
394.705627 148.0
394.832184 160.0
395.006226 192.0
395.033905 180.0
395.271271 168.0
395.330627 188.0
395.452484 112.0
395.572083 140.0
395.948212 148.0
396.152191 160.0
396.241333 172.0
396.37149 108.0
396.489075 108.0
396.649506 164.0
396.871521 140.0
396.916351 144.0
396.966431 120.0
397.141083 152.0
397.339539 156.0
397.377838 176.0
397.531158 148.0
397.641113 196.0
398.08075 284.0
398.13736 248.0
398.735809 308.0
399.015503 208.0
399.368835 168.0
399.862762 304.0
399.982178 140.0
400.014008 172.0
400.05835 120.0
400.882263 144.0
401.563995 184.0
401.595886 280.0
401.892914 180.0
401.938995 152.0
402.693481 168.0
402.82132 228.0
402.867706 124.0
402.915649 188.0
403.080994 144.0
403.200897 164.0
403.792572 208.0
403.884583 148.0
403.956573 168.0
404.232635 208.0
404.479004 144.0
404.822937 116.0
405.217621 152.0
405.253601 200.0
405.31778 160.0
405.814819 152.0
405.943115 188.0
406.311768 132.0
406.417633 160.0
406.452148 120.0
406.480865 140.0
406.587891 188.0
406.873993 220.0
406.918152 152.0
407.010498 144.0
407.066711 164.0
407.147034 200.0
407.448273 160.0
407.542603 100.0
407.677307 148.0
407.830017 172.0
407.882263 152.0
408.115082 180.0
408.15683 164.0
408.19989 148.0
408.277435 200.0
409.068512 152.0
409.105164 156.0
409.664917 156.0
409.723206 196.0
409.866608 120.0
410.034332 176.0
410.090424 180.0
410.232391 224.0
410.410675 184.0
410.47345 208.0
410.532257 144.0
410.61615 148.0
410.894501 140.0
411.030487 188.0
411.225281 172.0
411.361328 192.0
411.528137 164.0
411.729004 124.0
411.823547 156.0
411.955658 196.0
411.972107 168.0
412.257172 108.0
412.320526 124.0
412.370178 116.0
412.505798 176.0
412.541382 112.0
412.723267 232.0
412.904449 140.0
412.940552 140.0
413.017181 124.0
413.229248 112.0
413.292877 188.0
413.375366 252.0
413.442139 336.0
413.588165 200.0
413.64325 232.0
413.746063 108.0
413.785461 196.0
413.818909 172.0
413.904999 132.0
414.005615 144.0
414.14386 116.0
414.183502 160.0
414.235443 212.0
414.527435 244.0
414.609985 132.0
414.743988 168.0
414.787292 192.0
414.847717 280.0
414.899353 192.0
415.099487 336.0
415.160889 972.0
415.237091 136.0
415.311249 256.0
415.359192 180.0
415.413177 176.0
415.505768 192.0
415.674316 248.0
415.721771 352.0
415.758575 124.0
415.829559 512.0
415.888275 216.0
415.955688 108.0
415.998749 368.0
416.044586 332.0
416.109222 344.0
416.162933 280.0
416.230316 432.0
416.269653 216.0
416.336334 316.0
416.36676 552.0
416.416107 280.0
416.446594 296.0
416.473572 316.0
416.509033 452.0
416.589386 192.0
416.6297 556.0
416.726807 776.0
416.760834 296.0
416.821167 424.0
416.881531 588.0
416.926636 492.0
417.034393 584.0
417.08075 644.0
417.116547 1072.0
417.177094 1716.0
417.240143 237460.0
417.387115 192.0
417.445343 268.0
417.531097 340.0
417.619781 1116.0
417.699646 376.0
417.744232 780.0
417.856354 464.0
417.91571 10908.0
417.969269 696.0
418.161896 720.0
418.24292 150016.0
418.382935 184.0
418.550537 260.0
418.617981 600.0
418.706604 164.0
418.784241 172.0
418.831116 108.0
418.857971 328.0
418.91394 1676.0
418.9599 400.0
419.18692 260.0
419.244263 26216.0
419.448975 212.0
419.521423 136.0
419.567413 180.0
419.63147 136.0
419.699127 168.0
419.835907 248.0
419.901062 288.0
419.97168 140.0
420.04068 124.0
420.077545 196.0
420.163635 284.0
420.17868 304.0
420.245483 3064.0
420.320984 176.0
420.391327 352.0
420.460999 188.0
420.489014 280.0
420.548889 352.0
420.598816 456.0
420.636932 420.0
420.684723 220.0
420.708221 480.0
420.748871 240.0
420.821991 372.0
420.862549 328.0
420.900787 400.0
420.954712 504.0
421.029938 272.0
421.105927 104.0
421.167023 112.0
421.225616 236.0
421.352173 132.0
421.462646 176.0
421.513977 140.0
421.630981 136.0
421.707184 176.0
421.776733 96.0
421.804443 328.0
421.867126 260.0
421.883545 128.0
421.894196 192.0
421.98996 144.0
422.043091 240.0
422.175354 2824.0
422.235992 188.0
422.599854 172.0
422.766785 112.0
423.179474 284.0
423.231812 120.0
423.314453 136.0
423.627716 168.0
424.374786 112.0
425.201202 112.0
426.002441 96.0
429.622192 108.0
431.137482 132.0
432.124725 180.0
432.780334 148.0
433.459259 108.0
433.649292 144.0
433.771423 108.0
434.017303 112.0
434.136566 108.0
434.367828 96.0
434.905334 156.0
436.167725 100.0
436.219879 128.0
436.937347 152.0
443.527008 148.0
479.107971 108.0
481.260284 120.0
482.91449 148.0
483.737091 252.0
514.426514 140.0
514.688354 152.0
541.548401 144.0
544.233459 196.0
560.365295 148.0
566.279541 180.0
568.421387 100.0
582.26178 148.0
585.22876 160.0
605.355164 140.0
614.577698 108.0
628.286133 144.0
637.212585 104.0
647.855835 96.0
663.344238 180.0
681.862671 104.0
703.869263 100.0
778.97113 140.0
909.840027 140.0
979.279297 176.0
1057.119995 188.0
1059.949829 144.0
1079.19043 192.0
1081.087402 212.0
1106.918579 196.0
1112.122803 172.0
1115.523682 160.0
1126.592407 184.0
1126.922241 160.0
1128.04248 180.0
1140.248047 180.0
1146.594482 144.0
1153.174805 180.0
1187.298096 144.0
1200.605225 140.0
1215.561279 200.0
1219.929932 224.0
1222.322388 152.0
1229.576782 164.0
1230.14917 204.0
1239.058594 256.0
1245.484253 172.0
1255.407715 144.0
1264.797241 180.0
1269.473145 140.0
1277.057983 204.0
1277.833374 188.0
1285.799805 236.0
1289.677979 148.0
1290.950562 160.0
1312.536133 168.0
1312.774292 128.0
1314.996094 204.0
1326.112549 388.0
1338.382202 184.0
1352.208374 152.0
1354.968994 184.0
1364.723022 176.0
1365.38269 228.0
1367.614014 236.0
1369.197021 156.0
1375.545166 220.0
1382.248535 204.0
1382.803467 196.0
1391.602539 164.0
1404.789917 192.0
1408.99292 192.0
1412.117432 176.0
1413.172241 200.0
1413.48645 228.0
1414.047729 172.0
1417.387573 224.0
1419.426514 180.0
1421.916992 196.0
1423.15564 192.0
1425.649536 164.0
1427.64917 164.0
1429.785645 168.0
1436.695068 148.0
1437.102539 152.0
1443.212891 216.0
1444.460693 168.0
1445.270142 172.0
1447.904419 148.0
1448.760376 204.0
1455.123169 220.0
1456.862305 196.0
1462.314209 164.0
1463.821533 148.0
1464.979248 156.0
1467.928833 216.0
1471.705811 180.0
1475.357788 208.0
1479.289795 160.0
1480.591431 172.0
1482.468262 140.0
1485.496826 168.0
1485.941772 180.0
1486.164185 164.0
1486.463501 164.0
1492.700806 144.0
1495.670532 172.0
1496.59436 176.0
1502.081421 228.0
1503.038086 184.0
1503.115234 200.0
1503.292725 148.0
1511.963379 148.0
1513.627686 140.0
1516.65686 220.0
1518.401367 204.0
1521.217896 200.0
1524.448853 152.0
1528.427856 180.0
1529.823242 200.0
1531.014526 172.0
1533.850464 144.0
1538.140625 232.0
1540.061401 140.0
1540.342651 160.0
1544.876587 228.0
1545.471069 164.0
1547.733154 164.0
1548.085571 180.0
1549.048828 144.0
1554.325195 192.0
1563.464478 140.0
1563.881348 156.0
1564.400879 152.0
1565.47168 156.0
1565.644897 156.0
1567.346436 156.0
1567.52771 148.0
1573.964233 172.0
1575.907349 204.0
1577.993774 152.0
1578.555176 176.0
1579.393555 212.0
1579.860229 196.0
1580.263672 152.0
1584.103271 236.0
1585.553223 164.0
1587.08313 144.0
1589.81189 164.0
1590.748413 184.0
1593.671021 180.0
1596.484863 180.0
1603.410889 144.0
1604.255859 176.0
1604.463135 144.0
1605.132812 168.0
1607.031128 156.0
1608.619263 180.0
1609.210083 164.0
1609.273926 184.0
1609.51062 132.0
1609.784912 160.0
1616.243652 200.0
1620.927856 152.0
1621.7854 168.0
1622.53894 180.0
1623.966187 144.0
1626.630127 200.0
1626.927124 192.0
1628.348389 164.0
1629.21582 200.0
1630.806885 180.0
1636.397705 172.0
1637.299561 152.0
1638.572144 228.0
1641.449585 148.0
1642.231934 196.0
1643.208008 216.0
1646.355957 156.0
1648.625977 156.0
1649.789917 140.0
1650.020508 176.0
1650.808594 204.0
1654.037476 184.0
1655.963745 256.0
1657.981079 168.0
1658.807739 168.0
1661.07019 192.0
1664.828003 168.0
1668.110352 176.0
1668.638794 156.0
1669.508789 220.0
1670.069946 168.0
1671.114014 212.0
1671.526245 172.0
1674.212524 264.0
1676.330566 188.0
1677.740601 140.0
1678.963623 144.0
1679.151245 160.0
1680.040283 148.0
1689.344849 180.0
1690.629395 164.0
1692.045532 156.0
1692.704224 156.0
1693.462158 172.0
1696.814941 152.0
1698.552124 244.0
1698.995117 160.0
1700.028931 160.0
1700.734741 176.0
1701.867554 152.0
1702.13855 172.0
1703.395142 148.0
1706.657715 184.0
1707.891357 180.0
1710.474976 196.0
1711.010132 204.0
1711.49585 152.0
1713.752686 188.0
1713.958618 148.0
1714.626099 292.0
1714.873413 140.0
1715.532837 144.0
1720.182861 248.0
1721.894409 168.0
1722.786499 180.0
1723.008789 184.0
1723.835815 204.0
1724.125 176.0
1726.439819 192.0
1730.974487 204.0
1731.040771 204.0
1731.545898 180.0
1731.603882 164.0
1733.012207 148.0
1734.379517 152.0
1734.470703 164.0
1734.78186 188.0
1735.042725 176.0
1737.04126 180.0
1737.124634 208.0
1740.601562 180.0
1740.676392 176.0
1741.050049 208.0
1743.991089 140.0
1744.323608 200.0
1745.404297 164.0
1745.520752 216.0
1747.150879 216.0
1748.948364 140.0
1749.847412 180.0
1750.188721 188.0
1750.480225 156.0
1753.37915 144.0
1754.729614 212.0
1755.054688 200.0
1756.756104 184.0
1758.416504 172.0
1758.675293 156.0
1759.576782 184.0
1760.921143 172.0
1761.965332 144.0
1762.349609 164.0
1764.986206 148.0
1767.374756 204.0
1771.937744 144.0
1773.516235 144.0
1777.664551 232.0
1779.099731 176.0
1779.645508 140.0
1779.930908 212.0
1783.022339 180.0
1784.098267 144.0
1788.354492 140.0
1789.28894 236.0
1790.122437 184.0
1791.613281 176.0
1791.680664 176.0
1792.540039 208.0
1793.188965 140.0
1793.534546 152.0
1799.870117 148.0
1800.35144 160.0
1803.477417 180.0
1805.870239 180.0
1806.775269 220.0
1810.321777 144.0
1813.363159 264.0
1814.032715 180.0
1817.976562 280.0
1818.214233 180.0
1818.63855 208.0
1819.563843 184.0
1819.937378 208.0
1825.349976 156.0
1826.081299 200.0
1830.557739 160.0
1832.746826 180.0
1832.985352 180.0
1837.376343 172.0
1838.716064 164.0
1839.219604 156.0
1844.370117 188.0
1844.489746 204.0
1844.814575 172.0
1845.327515 168.0
1849.330933 156.0
1850.897583 188.0
1851.745361 164.0
1853.09021 176.0
1856.31311 184.0
1856.767578 144.0
1857.69397 184.0
1857.762573 192.0
1858.157227 216.0
1858.886475 184.0
1860.615845 176.0
1861.453125 160.0
1862.122925 164.0
1862.243164 160.0
1864.038696 144.0
1864.124634 204.0
1864.700439 172.0
1865.671753 152.0
1865.774902 180.0
1869.920898 184.0
1872.787964 184.0
1873.089355 172.0
1873.313354 152.0
1873.916382 192.0
1874.398926 140.0
1874.924561 180.0
1878.299805 280.0
1881.72168 204.0
1882.662842 180.0
1883.345215 168.0
1883.866699 160.0
1884.114014 212.0
1884.338623 188.0
1884.77063 168.0
1887.398193 160.0
1890.494995 176.0
1891.853882 156.0
1892.572388 144.0
1893.767456 168.0
1894.088013 144.0
1894.408447 180.0
1895.118896 212.0
1895.673462 156.0
1896.410034 256.0
1897.224976 236.0
1897.78894 184.0
1897.927124 160.0
1898.586182 152.0
1898.776978 180.0
1899.785889 160.0
1899.905029 152.0
1900.180176 204.0
1900.650757 152.0
1901.596558 140.0
1901.770142 184.0
1902.959473 196.0
1903.35022 176.0
1903.50647 168.0
1904.418335 216.0
1904.852661 152.0
1905.078491 144.0
1905.686646 232.0
1909.050537 148.0
1909.233154 200.0
1910.937988 180.0
1911.059814 188.0
1912.295532 172.0
1912.591431 144.0
1917.895996 212.0
1919.709351 180.0
1921.130981 200.0
1921.584595 156.0
1926.723877 104.0
1929.152588 192.0
1929.776978 152.0
1931.473511 184.0
1932.418335 148.0
1932.785767 184.0
1933.04834 164.0
1935.043945 236.0
1935.814453 176.0
1935.928345 144.0
1942.49292 156.0
1942.641968 172.0
1943.264893 224.0
1944.818115 188.0
1946.477417 180.0
1946.827515 160.0
1947.083252 152.0
1947.856201 212.0
1949.578247 204.0
1952.039673 152.0
1953.42041 148.0
1953.913086 188.0
1954.916138 172.0
1955.59375 164.0
1956.289185 172.0
1962.976318 172.0
1964.078735 240.0
1967.476074 180.0
1967.546753 232.0
1968.491455 148.0
1969.06543 164.0
1969.215576 160.0
1970.408081 148.0
1970.708496 172.0
1971.963379 148.0
1972.537842 180.0
1972.86499 144.0
1973.837524 140.0
1975.429443 160.0
1976.606079 148.0
1977.65918 180.0
1978.101807 152.0
1978.455933 220.0
1980.448242 148.0
1980.926514 180.0
1982.078247 144.0
1982.858154 188.0
1983.59375 152.0
1984.382812 156.0
1987.877563 172.0
1988.569702 144.0
1988.732788 292.0
1990.327393 148.0
1990.806885 216.0
1990.895752 148.0
1991.401978 164.0
1992.716675 160.0
1993.047852 172.0
1993.80957 160.0
1996.939087 176.0
1998.575928 144.0
1999.19873 144.0
1999.528076 148.0
1999.812866 152.0
2000.177734 148.0
2000.747437 204.0
2000.988159 140.0
2002.26123 144.0
2003.000488 192.0
