>compound MLS001140205-01!(2S)-1-[(2S)-2-[(4,7-dimethoxy-1-methylindole-2-carbonyl)amino]-3-methylbutanoyl]pyrrolidine-2-carboxylic acid
>formula C22H29N3O6
>ionization [M+H]+
>parentmass 432.213
#inchi InChI=1S/C22H29N3O6/c1-12(2)18(21(27)25-10-6-7-14(25)22(28)29)23-20(26)15-11-13-16(30-4)8-9-17(31-5)19(13)24(15)3/h8-9,11-12,14,18H,6-7,10H2,1-5H3,(H,23,26)(H,28,29)/t14-,18-/m0/s1
#inchikey PVEHSUFJPRIBJW
#Ion_Source LC-ESI
#Instrument qTof
#Compound_Source NIH Natural Product Library
#PI Dorrestein
#Data_Collector VVP/LMS
#Scan -1
#Precursor_MZ 432.213
#ExactMass 431.206
#Charge 1
#CAS_Number N/A
#Pubmed_ID N/A
#Smiles COc1ccc(OC)c2n(C)c(cc12)C(=O)N[C@@H](C(C)C)C(=O)N3CCC[C@H]3C(=O)O
#INCHI_AUX N/A
#Library_Class 1
#SpectrumID CCMSLIB00000080384
#IonMode Positive
#UpdateWorkflowName UPDATE-SINGLE-ANNOTATED-GOLD
#LibraryQualityString Gold
#TaskID b1d8e8f6646f4e71acdff9ca3d919d08
##Scan# 2127
#SpectrumFile p2-A08_GA8_01_17977.mzXML
#LibraryName NIH_Natural_Products_Library.mgf
#MQScore -1
#Organism NIH_Natural_Products_Library
#TIC_Query 0
#RT_Query -1
#MZErrorPPM -1
#SharedPeaks 0
#MassDiff 0
#LibMZ -1
#SpecMZ 432.213
#SpecCharge 0
#internalFilename spec-00000.mgf

>collision 10
95.037918 152.0
95.053444 132.0
95.243706 168.0
95.276733 212.0
95.44194 136.0
95.632591 132.0
95.922821 44.0
96.008614 116.0
96.084686 156.0
96.227165 152.0
96.561317 204.0
96.608261 184.0
96.637611 80.0
96.688492 60.0
96.751129 180.0
96.878426 180.0
96.91761 204.0
97.063576 204.0
97.243149 184.0
97.309891 168.0
97.602654 188.0
97.809235 112.0
98.045586 168.0
98.05938 196.0
98.317741 140.0
98.619926 164.0
98.714828 196.0
98.857262 100.0
99.551514 172.0
99.700096 164.0
100.004395 68.0
100.152588 108.0
100.233421 124.0
100.622368 112.0
100.688263 160.0
100.774162 260.0
100.812126 136.0
100.852104 140.0
100.936066 192.0
100.986069 148.0
101.142136 124.0
101.180176 184.0
101.236237 116.0
101.534843 136.0
101.695358 136.0
101.735504 224.0
101.795738 76.0
101.94841 152.0
102.09919 200.0
102.221909 140.0
102.326576 120.0
102.378929 184.0
102.564293 176.0
103.032471 164.0
103.175957 132.0
103.329666 180.0
103.412636 140.0
103.89109 140.0
104.030884 192.0
104.45153 88.0
104.877106 168.0
105.021873 160.0
105.058266 176.0
105.103477 152.0
105.276993 168.0
105.316513 160.0
105.362785 136.0
105.405693 156.0
105.619011 200.0
105.668343 132.0
105.925362 140.0
106.013466 92.0
106.061699 232.0
106.077003 172.0
106.116524 144.0
106.161064 256.0
106.481224 140.0
106.733994 140.0
106.826736 176.0
107.07563 192.0
107.442528 176.0
107.541573 68.0
107.710892 176.0
107.772873 252.0
107.839005 68.0
107.882408 168.0
108.054062 148.0
108.186516 212.0
108.203079 40.0
108.288719 180.0
108.57814 176.0
108.667343 104.0
108.920616 180.0
109.039047 76.0
109.062683 476.0
109.450951 116.0
109.519676 316.0
109.544678 180.0
109.582176 160.0
109.703766 188.0
109.725983 248.0
109.940834 116.0
110.133835 168.0
110.174698 148.0
110.208122 140.0
110.256187 120.0
110.454819 184.0
110.653633 136.0
110.735298 112.0
110.777191 216.0
111.042061 132.0
111.070663 176.0
111.165077 144.0
111.599899 76.0
111.700844 160.0
111.72126 144.0
111.841827 124.0
111.991325 60.0
112.048203 172.0
112.31382 172.0
112.353027 96.0
112.381332 60.0
112.613922 228.0
112.632019 156.0
112.738197 136.0
112.810066 180.0
112.924248 244.0
113.434555 136.0
113.542686 64.0
113.759117 92.0
113.788841 108.0
113.892899 212.0
113.986382 280.0
114.026756 160.0
114.05864 156.0
114.101562 104.0
114.647491 144.0
114.778244 88.0
114.810226 272.0
114.895554 48.0
115.051346 168.0
115.089775 72.0
115.468025 172.0
115.701263 136.0
115.816902 132.0
115.834038 192.0
115.866173 180.0
116.070343 1984.0
116.247841 44.0
116.387367 112.0
116.434616 148.0
116.754837 44.0
117.055321 860.0
117.080887 152.0
117.334076 212.0
117.603722 244.0
117.836952 224.0
118.037971 180.0
118.061508 504.0
118.327911 120.0
118.631218 156.0
118.954445 164.0
119.048531 776.0
119.073753 460.0
119.763351 92.0
119.861389 160.0
119.892578 64.0
119.952927 44.0
120.04747 264.0
120.417694 160.0
120.437347 180.0
120.467934 184.0
120.819901 188.0
120.860916 188.0
121.064377 468.0
121.089149 188.0
121.205254 56.0
121.459572 52.0
121.52758 208.0
121.733917 144.0
121.867912 120.0
121.894279 124.0
121.966805 192.0
122.037155 368.0
122.058357 368.0
122.11412 136.0
122.147118 112.0
122.292343 136.0
122.456459 164.0
122.655785 136.0
122.856461 148.0
122.876312 164.0
123.079338 232.0
123.130165 164.0
123.1633 136.0
123.510338 148.0
123.747131 168.0
123.826851 176.0
124.073662 240.0
124.110512 72.0
124.12825 144.0
124.73214 140.0
124.992355 128.0
125.041313 192.0
125.063568 328.0
125.179344 128.0
125.239471 112.0
125.27066 40.0
125.337502 136.0
125.457855 204.0
125.520287 152.0
125.580826 116.0
125.627342 96.0
125.651886 220.0
125.683121 120.0
125.716591 84.0
125.772392 128.0
125.799179 224.0
126.049324 184.0
126.134254 124.0
126.266174 188.0
126.371658 156.0
126.617554 160.0
126.664589 220.0
126.787819 140.0
127.142166 140.0
127.200523 180.0
127.265633 160.0
127.809303 140.0
127.827591 92.0
127.899605 168.0
127.985977 88.0
128.068481 120.0
128.084259 188.0
128.645752 168.0
128.957474 172.0
129.070618 168.0
129.099915 100.0
129.258881 176.0
129.344269 100.0
129.396881 196.0
129.457474 68.0
129.79512 80.0
130.019699 116.0
130.066681 492.0
130.090057 180.0
130.251297 172.0
130.430801 156.0
130.569504 148.0
130.596802 192.0
130.626373 228.0
130.688766 196.0
131.071594 464.0
131.145538 192.0
131.560699 204.0
132.045975 152.0
132.052841 236.0
132.081314 204.0
132.36322 108.0
132.388412 140.0
132.619812 160.0
132.945496 152.0
133.030426 336.0
133.050522 504.0
133.097 212.0
133.188873 232.0
133.347412 112.0
133.655563 164.0
133.717697 240.0
134.059387 428.0
134.293716 232.0
134.623749 60.0
134.651459 76.0
134.829361 76.0
135.02124 148.0
135.06842 432.0
135.109146 248.0
135.171616 164.0
135.523575 156.0
135.903229 212.0
136.046799 452.0
136.074234 348.0
136.096191 152.0
136.252106 188.0
136.371552 188.0
136.519424 108.0
136.53569 64.0
136.603149 140.0
136.759048 188.0
136.8871 160.0
137.057968 568.0
137.08197 148.0
137.259949 104.0
137.898499 168.0
138.032867 148.0
138.057388 460.0
138.201294 136.0
138.440048 156.0
138.735291 128.0
138.833771 132.0
139.080124 84.0
139.159943 148.0
139.326691 116.0
139.380722 120.0
139.568771 176.0
139.752243 252.0
139.855789 156.0
140.246796 172.0
140.850861 180.0
140.905197 184.0
141.098984 132.0
142.0439 228.0
142.183884 116.0
142.207626 216.0
142.359558 128.0
142.454575 156.0
142.685089 152.0
143.015762 124.0
143.108597 124.0
143.168137 204.0
143.201477 52.0
143.318207 76.0
143.439758 152.0
143.823792 240.0
144.110367 120.0
144.244202 160.0
144.275284 160.0
144.318314 148.0
144.674805 196.0
144.940659 108.0
145.015717 176.0
145.052094 1248.0
145.134811 92.0
145.355499 192.0
145.465912 40.0
145.540329 40.0
145.571548 52.0
145.672424 52.0
145.785355 200.0
146.05867 744.0
146.134018 76.0
146.15567 52.0
146.24231 88.0
146.307312 172.0
146.555374 152.0
146.72374 116.0
146.784378 148.0
146.833694 116.0
146.881668 140.0
147.031265 264.0
147.067932 1352.0
147.211502 52.0
147.602982 144.0
147.673111 84.0
147.865219 140.0
148.009491 216.0
148.038803 1176.0
148.075989 556.0
148.183884 48.0
148.47963 196.0
148.583939 148.0
148.605865 200.0
148.637314 52.0
148.773651 208.0
148.933502 108.0
149.008804 132.0
149.059219 8284.0
149.205673 216.0
149.253845 212.0
149.426407 100.0
150.060974 1464.0
150.091934 112.0
150.109009 168.0
150.135834 124.0
150.172424 56.0
150.209 44.0
150.26268 116.0
150.296829 100.0
150.514084 88.0
150.638641 132.0
150.861023 84.0
151.038406 612.0
151.062164 620.0
151.117813 96.0
151.203461 144.0
151.237732 232.0
151.296478 104.0
151.372391 152.0
151.477707 236.0
151.519348 52.0
151.58551 72.0
151.629623 92.0
151.803452 168.0
151.878159 228.0
152.034286 160.0
152.071091 276.0
152.532883 148.0
152.948593 176.0
153.053345 400.0
153.071686 80.0
153.263824 152.0
153.295868 132.0
153.352539 212.0
153.599121 64.0
153.647614 208.0
153.796524 224.0
153.863174 220.0
154.087921 268.0
154.181824 136.0
154.55275 164.0
154.735916 104.0
154.825058 140.0
154.968231 176.0
154.993515 172.0
155.035629 156.0
155.571396 192.0
155.881866 108.0
156.06955 348.0
156.264786 100.0
156.361847 172.0
156.518677 128.0
156.538589 164.0
156.653168 64.0
156.710464 84.0
156.907364 56.0
156.954742 64.0
157.007111 156.0
157.094406 60.0
157.563751 160.0
157.679932 168.0
157.753693 68.0
157.853699 140.0
157.966248 172.0
158.057709 264.0
158.161423 132.0
158.181458 156.0
158.755219 276.0
158.883148 148.0
159.068848 148.0
159.121567 96.0
159.176804 152.0
159.453156 196.0
159.505936 268.0
159.561249 72.0
159.707092 224.0
159.883209 124.0
159.900833 180.0
160.042496 312.0
160.074905 1284.0
160.124908 144.0
160.175278 60.0
160.291183 108.0
160.326462 132.0
160.42981 144.0
160.853607 88.0
161.047089 1256.0
161.082214 432.0
161.41449 152.0
161.503006 112.0
161.561188 140.0
161.594086 48.0
161.682648 64.0
161.945953 116.0
162.052887 544.0
162.091782 724.0
162.158798 124.0
162.187531 156.0
162.323578 160.0
162.44278 124.0
162.602631 164.0
162.648331 148.0
162.973114 216.0
163.034378 300.0
163.062317 1980.0
163.184357 220.0
163.25267 280.0
163.321686 84.0
163.417389 136.0
163.473068 144.0
163.619415 104.0
163.667801 48.0
163.976044 148.0
164.031708 992.0
164.065384 432.0
164.539795 40.0
164.560211 36.0
164.920425 176.0
164.971542 100.0
165.050217 340.0
165.079575 184.0
165.232315 124.0
165.626633 164.0
165.700928 104.0
165.800858 340.0
165.98288 164.0
166.059814 152.0
166.086838 164.0
166.125412 112.0
166.172684 88.0
166.336761 184.0
166.452469 76.0
167.00502 168.0
167.339554 184.0
167.445145 172.0
167.522415 120.0
167.553329 64.0
167.617737 116.0
167.839417 176.0
168.066406 176.0
168.184174 152.0
168.340027 76.0
168.515686 64.0
168.957794 168.0
169.452286 160.0
169.470428 192.0
169.67778 196.0
169.976059 152.0
170.053909 156.0
170.21228 88.0
170.235641 36.0
170.365524 168.0
170.500641 140.0
170.782822 224.0
170.875076 128.0
170.908905 64.0
171.101517 140.0
171.625214 128.0
171.651291 192.0
171.779083 164.0
172.034821 60.0
172.37175 44.0
172.60701 116.0
172.865997 112.0
172.960205 140.0
173.015182 140.0
173.395004 176.0
173.468399 152.0
173.61261 176.0
173.741135 196.0
173.856583 152.0
174.011459 124.0
174.055038 288.0
174.176895 104.0
174.700027 192.0
174.813156 196.0
174.868423 216.0
174.93161 216.0
175.061752 1108.0
175.123825 188.0
175.176514 48.0
175.213394 120.0
175.392593 112.0
175.434769 60.0
175.540222 200.0
175.624619 156.0
176.041565 180.0
176.066635 516.0
176.305801 64.0
176.922104 188.0
177.033951 152.0
177.075974 368.0
177.420166 168.0
177.57132 176.0
177.89238 76.0
177.94017 128.0
178.017166 120.0
178.048248 700.0
178.087189 332.0
178.6604 228.0
178.688293 216.0
178.740219 100.0
178.774811 96.0
178.833374 32.0
178.921219 80.0
178.993103 44.0
179.057999 9124.0
179.120941 80.0
179.142258 80.0
179.184875 52.0
179.217758 176.0
179.248825 40.0
179.348557 180.0
179.382095 128.0
179.547409 56.0
179.646088 76.0
179.702118 64.0
179.77417 36.0
179.840881 76.0
179.870255 36.0
180.061569 1040.0
180.115921 216.0
180.162979 156.0
180.19339 88.0
180.300278 80.0
180.591705 48.0
180.610428 72.0
180.970367 68.0
181.049225 908.0
181.195648 124.0
181.473022 116.0
181.555878 128.0
181.601471 140.0
181.746338 60.0
181.802689 212.0
182.183975 128.0
182.350571 208.0
182.632889 104.0
183.049805 232.0
183.147003 132.0
183.359848 88.0
183.413757 92.0
183.676926 128.0
183.80751 184.0
183.831802 136.0
183.850693 124.0
184.004547 208.0
184.039658 164.0
184.204391 88.0
184.226013 188.0
184.285446 80.0
184.320572 184.0
184.504364 168.0
184.634155 132.0
185.034637 124.0
185.560257 140.0
185.904739 144.0
186.051086 336.0
186.138199 152.0
186.298447 72.0
186.322891 164.0
186.363647 100.0
186.40712 164.0
186.836731 72.0
187.038101 48.0
187.187851 156.0
187.351273 36.0
188.032654 220.0
188.065536 156.0
188.103928 124.0
188.234985 148.0
188.374268 68.0
188.546417 136.0
188.636612 180.0
188.806137 220.0
189.041977 808.0
189.075439 508.0
189.104355 120.0
189.265869 104.0
189.33989 128.0
189.528824 152.0
189.591858 144.0
189.763947 144.0
189.892746 192.0
189.923615 116.0
189.967499 124.0
190.041687 364.0
190.085983 10228.0
190.141647 60.0
190.168839 128.0
190.195694 76.0
190.230942 164.0
190.329773 72.0
190.359497 148.0
190.409424 96.0
190.453369 80.0
190.516541 140.0
190.563156 124.0
190.623703 44.0
190.686905 48.0
190.708893 68.0
190.730896 96.0
190.832611 80.0
190.982941 168.0
191.053406 128.0
191.090332 2180.0
191.283798 32.0
191.338303 20.0
191.636307 48.0
191.969833 48.0
192.025223 380.0
192.060852 208.0
192.092468 428.0
192.190521 52.0
192.259506 52.0
192.298141 92.0
192.380951 116.0
192.427887 136.0
192.472061 112.0
192.53006 200.0
192.588058 84.0
192.781448 76.0
192.961121 204.0
193.103149 200.0
193.232162 160.0
193.41481 180.0
193.700027 132.0
194.080109 1444.0
194.243347 168.0
194.59024 124.0
194.767975 48.0
194.848541 68.0
194.909668 288.0
194.962463 172.0
195.078979 496.0
195.108521 196.0
195.29332 164.0
195.451889 288.0
195.602188 196.0
195.621674 184.0
195.930786 212.0
196.429794 116.0
196.505127 204.0
197.111038 196.0
197.138977 96.0
197.56958 108.0
197.70108 140.0
197.729065 112.0
198.165909 120.0
198.205139 68.0
198.373306 164.0
198.55275 124.0
199.100021 76.0
199.344437 176.0
199.909668 132.0
200.087006 128.0
200.295395 112.0
200.828125 56.0
201.121582 40.0
201.158279 228.0
201.723251 204.0
201.743042 140.0
202.071106 128.0
202.881104 148.0
202.917953 172.0
203.060242 780.0
203.096619 212.0
203.215759 152.0
203.278183 120.0
203.945602 188.0
204.068085 176.0
204.101578 364.0
204.45755 152.0
204.978699 144.0
205.067047 172.0
205.115494 120.0
205.240936 76.0
205.432037 236.0
206.084229 532.0
206.431702 184.0
206.528946 100.0
206.683426 196.0
207.009766 236.0
207.052994 1420.0
207.084229 184.0
207.167297 168.0
207.195938 120.0
207.780807 60.0
207.806625 136.0
208.052902 364.0
208.714279 212.0
208.777542 252.0
209.058548 200.0
209.450089 196.0
209.481415 124.0
209.938126 40.0
210.43988 208.0
210.587494 204.0
210.645264 40.0
211.023849 80.0
211.18869 108.0
211.304398 124.0
211.674896 192.0
211.96167 188.0
212.051514 204.0
212.077591 136.0
212.300842 156.0
212.350143 40.0
212.631577 108.0
212.721558 212.0
212.794128 176.0
212.991608 212.0
213.075851 112.0
213.177551 152.0
213.221146 136.0
213.407196 116.0
213.500244 220.0
213.674423 132.0
213.919235 148.0
214.067719 116.0
214.294922 252.0
214.493088 244.0
214.557236 56.0
214.697189 144.0
214.755524 44.0
214.863449 184.0
215.06395 176.0
215.102753 156.0
215.135056 168.0
215.164062 168.0
215.216614 176.0
215.581757 160.0
215.920883 160.0
216.099319 172.0
216.128586 320.0
216.191422 164.0
216.219299 232.0
216.245636 176.0
216.409576 124.0
216.450562 124.0
216.580627 236.0
216.837265 188.0
217.024887 136.0
217.080597 112.0
217.111832 160.0
217.236053 144.0
217.374985 176.0
217.39743 56.0
217.429703 68.0
217.46492 96.0
217.495209 88.0
217.529495 204.0
217.564728 72.0
217.620514 132.0
217.654495 180.0
217.684158 184.0
217.707092 240.0
217.802597 220.0
217.826096 96.0
217.854782 156.0
217.895493 128.0
217.921814 176.0
217.933563 48.0
217.941483 188.0
217.973267 336.0
218.008514 316.0
218.082153 112792.0
218.157928 112.0
218.179016 168.0
218.221603 124.0
218.229767 108.0
218.242828 164.0
218.295059 100.0
218.307693 56.0
218.313095 52.0
218.334579 76.0
218.365677 140.0
218.389969 188.0
218.414307 192.0
218.468781 32.0
218.475632 52.0
218.488388 156.0
218.521149 104.0
218.568604 264.0
218.612503 188.0
218.646225 56.0
218.690582 56.0
218.715652 100.0
218.77594 80.0
218.806427 136.0
218.82695 148.0
218.895126 180.0
218.976852 260.0
218.988159 60.0
218.997955 188.0
219.084793 13068.0
219.149979 352.0
219.193085 376.0
219.262115 76.0
219.326813 108.0
219.354736 76.0
219.394608 80.0
219.441772 40.0
219.485565 160.0
219.518448 68.0
219.539093 68.0
219.562683 40.0
219.592178 52.0
219.618713 92.0
219.719009 52.0
219.809357 52.0
219.819336 80.0
219.873932 80.0
219.968231 84.0
219.997314 80.0
220.0849 3520.0
220.117325 148.0
220.169159 48.0
220.203125 92.0
220.232666 84.0
220.268112 48.0
220.303558 228.0
220.364975 188.0
220.407898 72.0
220.461121 84.0
220.499725 256.0
220.554733 100.0
220.60173 112.0
220.670029 112.0
220.69072 148.0
220.735611 96.0
220.755783 148.0
220.785355 68.0
220.806061 140.0
220.854706 132.0
220.894791 136.0
220.921417 80.0
220.96875 116.0
221.092941 164.0
221.255829 108.0
221.298447 68.0
221.340393 136.0
221.371094 56.0
221.433502 84.0
221.574203 112.0
221.631989 52.0
221.655685 160.0
221.697174 120.0
221.717926 112.0
221.759415 96.0
221.863159 92.0
221.899796 56.0
221.966934 52.0
222.014389 52.0
222.201263 56.0
222.450546 140.0
222.548523 52.0
222.599487 24.0
222.637604 72.0
222.899017 68.0
223.06546 48.0
223.228989 132.0
223.642532 40.0
223.841995 188.0
225.515671 80.0
226.425217 64.0
228.592728 68.0
229.113632 28.0
229.285385 112.0
229.689407 40.0
230.061508 144.0
230.111908 68.0
230.256851 112.0
230.516663 48.0
231.062637 196.0
231.123581 500.0
231.445312 44.0
232.03009 164.0
232.133774 164.0
232.239319 100.0
232.98912 116.0
233.013428 108.0
233.037735 64.0
233.670135 64.0
234.151093 152.0
235.102295 184.0
235.123657 136.0
236.998215 152.0
237.310852 148.0
238.520432 68.0
238.59729 100.0
239.034058 104.0
239.988937 88.0
241.217682 144.0
242.657242 156.0
242.948776 168.0
243.277725 184.0
244.076218 196.0
244.172607 64.0
245.087845 164.0
245.450134 88.0
246.070343 176.0
246.148819 4668.0
246.222305 120.0
246.376404 140.0
246.63266 56.0
246.738937 96.0
247.153549 1032.0
247.298889 108.0
247.37088 44.0
248.15448 164.0
248.430084 116.0
248.696808 60.0
248.734482 144.0
248.904022 88.0
249.020218 84.0
249.142715 132.0
251.545532 80.0
252.487106 52.0
252.993378 188.0
258.106354 136.0
260.121582 120.0
261.45224 68.0
265.179321 76.0
266.318176 68.0
273.123993 284.0
274.117889 128.0
275.133789 192.0
276.568451 132.0
277.671783 80.0
280.304749 76.0
280.768127 104.0
284.05603 124.0
288.105835 160.0
288.141266 160.0
288.710876 88.0
289.151794 648.0
290.162811 120.0
293.962921 36.0
295.042267 64.0
300.368591 80.0
301.131409 172.0
310.381714 112.0
311.680481 68.0
314.755585 72.0
315.020477 44.0
316.134247 104.0
317.149567 928.0
317.74292 60.0
318.151062 164.0
320.334564 64.0
320.537628 116.0
322.007446 40.0
324.078705 64.0
327.462708 76.0
329.591156 52.0
331.878754 108.0
349.213623 92.0
350.904266 80.0
356.117126 68.0
362.42099 120.0
364.469971 100.0
364.762634 112.0
365.915314 92.0
370.620941 152.0
374.113831 180.0
375.12912 120.0
375.734589 72.0
376.355988 40.0
383.135681 96.0
387.366486 124.0
392.799103 80.0
394.022888 116.0
396.741791 76.0
397.18988 96.0
405.226898 40.0
411.993988 124.0
413.46582 80.0
416.182465 132.0
417.518768 56.0
418.035431 140.0
429.18573 192.0
429.276459 108.0
430.188293 140.0
431.200287 144.0
432.271393 100.0
432.515564 80.0
433.244385 160.0
435.222748 76.0
443.533264 52.0
448.097107 80.0
450.569458 48.0
515.252075 72.0
521.023926 116.0
523.038452 72.0
530.631042 132.0
532.792664 104.0
533.279724 68.0
546.845642 60.0
561.204163 84.0
581.618713 76.0
589.971741 56.0
599.816528 120.0
601.870483 200.0
602.627563 88.0
605.072998 124.0
605.895752 76.0
609.683838 72.0
654.761963 56.0
659.282043 56.0
678.777283 84.0
686.619446 56.0
689.762695 40.0
703.832214 52.0
704.117432 64.0
717.606567 112.0
749.893372 92.0
787.162109 100.0
811.062134 64.0
811.237854 192.0
822.638062 156.0
845.075195 84.0
848.260376 60.0
857.513977 72.0
884.083862 40.0
914.601013 96.0
929.686584 192.0
942.058899 72.0
955.675476 132.0
979.653992 252.0
997.105286 144.0
1006.857849 152.0
1010.783569 64.0
1021.25769 156.0
1035.401123 144.0
1049.474121 116.0
1052.848999 44.0
1058.287231 92.0
1081.004639 188.0
1083.243774 36.0
1091.118774 144.0
1097.676758 52.0
1113.911743 132.0
1119.858276 176.0
1121.317383 276.0
1121.943848 96.0
1125.854004 60.0
1127.26355 220.0
1137.564453 100.0
1176.408936 140.0
1181.78064 76.0
1185.073975 140.0
1192.842651 152.0
1200.781616 124.0
1207.93042 152.0
1224.902588 140.0
1225.00708 136.0
1229.246094 68.0
1230.341919 196.0
1231.941162 172.0
1241.670532 76.0
1242.680664 56.0
1244.14502 172.0
1244.343994 68.0
1245.938232 164.0
1246.043579 96.0
1258.375854 84.0
1266.685425 160.0
1279.033691 184.0
1283.051514 212.0
1292.357666 52.0
1295.099487 236.0
1297.04126 120.0
1298.245728 152.0
1298.561279 196.0
1299.759277 140.0
1301.510742 192.0
1305.851196 184.0
1305.987915 132.0
1307.138916 208.0
1310.724976 132.0
1311.755493 92.0
1314.207642 28.0
1316.567993 68.0
1316.994141 228.0
1321.476074 216.0
1322.670166 204.0
1328.706665 152.0
1332.285767 180.0
1333.899048 160.0
1339.90271 124.0
1345.124268 120.0
1347.431885 168.0
1354.828247 172.0
1355.055298 140.0
1355.187256 152.0
1356.007935 164.0
1359.410767 172.0
1362.737061 188.0
1363.707031 212.0
1364.714233 44.0
1365.16272 180.0
1365.324463 216.0
1366.619141 100.0
1366.803101 196.0
1369.438599 64.0
1372.725464 76.0
1375.300293 216.0
1378.852905 160.0
1381.625732 204.0
1384.393921 108.0
1385.653076 160.0
1387.335449 168.0
1388.692383 112.0
1389.671631 88.0
1390.710571 152.0
1395.145142 228.0
1395.658081 168.0
1398.135254 68.0
1398.827393 148.0
1400.083496 224.0
1401.94812 52.0
1403.028931 132.0
1405.035034 140.0
1407.311401 76.0
1409.484985 60.0
1409.918457 212.0
1413.066406 228.0
1414.316162 104.0
1416.727417 132.0
1418.038696 156.0
1419.140625 40.0
1421.390869 140.0
1426.475342 184.0
1427.467773 144.0
1428.686279 200.0
1430.063232 176.0
1435.540283 172.0
1437.951294 48.0
1442.274658 180.0
1448.426392 100.0
1456.185669 156.0
1456.314819 192.0
1457.0896 196.0
1457.401123 152.0
1462.184326 128.0
1463.821045 172.0
1465.420532 244.0
1467.41748 132.0
1468.996094 56.0
1472.430786 248.0
1477.284424 180.0
1477.445068 120.0
1481.004639 148.0
1483.019653 168.0
1483.226685 148.0
1484.177246 148.0
1489.034912 120.0
1489.319092 148.0
1489.902832 184.0
1491.408936 160.0
1492.631348 68.0
1492.892822 188.0
1494.800537 244.0
1495.408569 240.0
1495.924194 80.0
1496.66333 168.0
1496.971313 188.0
1499.875854 148.0
1501.302246 292.0
1502.328003 232.0
1504.125977 148.0
