>compound Atazanavir sulfate
>formula C38H52N6O7
>ionization [M+H]+
>parentmass 705.3970244560905
#inchi InChI=1S/C38H52N6O7/c1-37(2,3)31(41-35(48)50-7)33(46)40-29(22-25-14-10-9-11-15-25)30(45)24-44(43-34(47)32(38(4,5)6)42-36(49)51-8)23-26-17-19-27(20-18-26)28-16-12-13-21-39-28/h9-21,29-32,45H,22-24H2,1-8H3,(H,40,46)(H,41,48)(H,42,49)(H,43,47)/t29-,30-,31+,32+/m0/s1
#inchikey AXRYRYVKAWYZBR
#origInchi InChI=1S/C38H52N6O7.H2O4S/c1-37(2,3)31(41-35(48)50-7)33(46)40-29(22-25-14-10-9-11-15-25)30(45)24-44(43-34(47)32(38(4,5)6)42-36(49)51-8)23-26-17-19-27(20-18-26)28-16-12-13-21-39-28;1-5(2,3)4/h9-21,29-32,45H,22-24H2,1-8H3,(H,40,46)(H,41,48)(H,42,49)(H,43,47);(H2,1,2,3,4)/t29-,30-,31+,32+;/m0./s1
#Ion_Source LC-ESI
#Instrument qTof
#Compound_Source Commercial
#PI Dorrestein
#Data_Collector Garg_Neha
#Scan -1
#Precursor_MZ 705.397
#ExactMass 704.39
#Charge 1
#CAS_Number 229975-97-7
#Pubmed_ID N/A
#Smiles O(C(N[C@H](C(N[C@H]([C@H](CN(NC([C@@H](NC(OC)=O)C(C)(C)C)=O)CC1=CC=C(C=C1)C2=NC=CC=C2)O)CC3=CC=CC=C3)=O)C(C)(C)C)=O)C.S(=O)(=O)(O)O
#INCHI_AUX N/A
#Library_Class 1
#SpectrumID CCMSLIB00000078153
#IonMode Positive
#UpdateWorkflowName UPDATE-SINGLE-ANNOTATED-GOLD
#LibraryQualityString Gold
#TaskID 77f51c88eb8b467eb4a01dd2d0cb90d2
##Scan# 1312
#SpectrumFile Plate2_61_88_GG8_01_16496.mzXML
#LibraryName FDALibrary_2_04302014.mgf
#MQScore -1
#Organism FDALibrary_2_04302014
#TIC_Query 0
#RT_Query -1
#MZErrorPPM -1
#SharedPeaks 0
#MassDiff 0
#LibMZ -1
#SpecMZ 705.397
#SpecCharge 0
#internalFilename spec-00000.mgf

>collision 10
44.888699 184.0
44.902035 148.0
44.912704 156.0
44.941292 148.0
44.983452 196.0
45.014133 152.0
45.035503 200.0
45.110329 200.0
45.138409 160.0
45.159805 160.0
45.218674 164.0
45.33519 188.0
45.431957 140.0
45.642288 212.0
45.678905 228.0
45.723309 152.0
45.86338 156.0
46.009712 184.0
46.060383 156.0
46.092808 168.0
46.223972 364.0
46.26458 148.0
46.283047 156.0
46.329582 144.0
46.429886 184.0
46.518082 148.0
46.579185 184.0
46.684563 128.0
46.7505 192.0
46.76683 164.0
46.883961 208.0
46.911221 152.0
46.937122 156.0
46.95076 200.0
46.963322 152.0
47.047638 148.0
47.058559 148.0
47.099529 152.0
47.111824 168.0
47.171951 160.0
47.23011 128.0
47.252254 200.0
47.356674 208.0
47.47382 128.0
47.508217 188.0
47.552738 192.0
47.580193 168.0
47.601215 168.0
47.672222 148.0
47.691463 332.0
47.720329 184.0
47.91135 156.0
47.981922 196.0
48.074314 232.0
48.093658 160.0
48.136456 244.0
48.150265 164.0
48.339661 224.0
48.40472 164.0
48.690395 172.0
48.883633 212.0
48.900127 188.0
48.962986 196.0
49.077251 156.0
49.089802 160.0
49.099564 180.0
49.138622 180.0
49.15427 168.0
49.251072 152.0
49.343929 152.0
49.422813 140.0
49.500641 144.0
49.601963 200.0
49.668823 176.0
49.757233 344.0
49.772675 180.0
49.993374 152.0
50.045456 196.0
50.082069 172.0
50.138428 216.0
50.160587 136.0
50.226791 148.0
50.280869 180.0
50.304672 176.0
50.31757 156.0
50.460266 172.0
50.599533 156.0
50.703735 196.0
50.721893 148.0
50.828529 148.0
50.95842 204.0
51.084267 252.0
51.110531 164.0
51.136913 160.0
51.198135 152.0
51.285042 164.0
51.393425 224.0
51.433285 172.0
51.554787 180.0
51.590519 156.0
51.633415 264.0
51.706379 204.0
51.783691 192.0
51.803413 156.0
51.838131 216.0
51.998753 188.0
52.014637 140.0
52.078445 156.0
52.088902 168.0
52.148121 168.0
52.165371 208.0
52.194126 160.0
52.215694 168.0
52.302025 220.0
52.384102 204.0
52.455673 168.0
52.495083 224.0
52.554222 156.0
52.627834 204.0
52.799423 248.0
52.845512 212.0
52.86924 212.0
52.918453 136.0
52.932934 152.0
52.956104 180.0
52.985077 256.0
53.055206 204.0
53.095238 164.0
53.121349 176.0
53.161972 180.0
53.196808 212.0
53.215679 180.0
53.282879 160.0
53.301376 208.0
53.350796 204.0
53.403141 156.0
53.518108 176.0
53.529758 152.0
53.647774 220.0
53.718002 176.0
53.827232 144.0
53.879814 156.0
54.033321 184.0
54.058197 208.0
54.077778 216.0
54.285255 168.0
54.334362 184.0
54.584003 208.0
54.62159 224.0
54.631886 152.0
54.71283 264.0
54.845406 176.0
54.889633 216.0
54.932407 180.0
54.989952 240.0
55.187904 172.0
55.324017 144.0
55.39658 160.0
55.541847 176.0
55.617523 160.0
55.640522 152.0
55.688793 204.0
55.763546 192.0
55.774975 152.0
55.838909 196.0
55.97731 160.0
56.311554 160.0
56.357677 152.0
56.441383 144.0
56.599991 160.0
56.614876 132.0
56.67189 144.0
56.719845 180.0
56.804508 164.0
56.955425 188.0
57.000496 168.0
57.090649 140.0
57.23967 156.0
57.29546 200.0
57.34362 156.0
57.381306 188.0
57.53368 140.0
57.547268 140.0
57.559349 140.0
57.763378 148.0
57.890514 168.0
57.910828 216.0
57.923836 376.0
57.979897 168.0
58.040531 144.0
58.073895 228.0
58.128513 140.0
58.207726 152.0
58.430878 168.0
58.44746 196.0
58.468964 140.0
58.482616 172.0
58.56636 164.0
58.592258 200.0
58.724876 152.0
58.867424 184.0
58.916916 164.0
58.985981 220.0
59.019615 188.0
59.115982 196.0
59.192524 152.0
59.304359 180.0
59.32122 176.0
59.371819 212.0
59.502247 160.0
59.595608 168.0
59.623596 144.0
59.648186 208.0
59.74353 248.0
59.806622 188.0
59.817394 144.0
59.846645 144.0
59.866665 140.0
59.882771 176.0
59.900837 236.0
59.94677 176.0
60.065487 168.0
60.082455 172.0
60.372845 184.0
60.417915 144.0
60.440907 168.0
60.456383 176.0
60.522945 188.0
60.570953 144.0
60.598839 264.0
60.685635 140.0
60.696487 160.0
60.766285 176.0
60.80201 188.0
60.856308 168.0
60.979031 148.0
61.014782 160.0
61.109863 148.0
61.204597 160.0
61.324554 184.0
61.411865 156.0
61.468071 152.0
61.482075 168.0
61.542042 144.0
61.605427 144.0
61.633549 180.0
61.66571 124.0
61.682777 200.0
61.860325 164.0
62.117317 140.0
62.129528 148.0
62.164387 168.0
62.30431 172.0
62.344456 160.0
62.467621 236.0
62.482471 200.0
62.558891 248.0
62.628178 148.0
62.683319 156.0
62.767849 192.0
62.829952 208.0
62.853619 144.0
62.867821 140.0
62.899387 168.0
62.976612 216.0
63.013092 352.0
63.095272 196.0
63.118992 160.0
63.180096 120.0
63.257217 152.0
63.284992 180.0
63.407108 148.0
63.61013 176.0
63.691113 168.0
63.750355 224.0
64.026711 156.0
64.093613 172.0
64.182877 160.0
64.222748 168.0
64.264694 192.0
64.309425 344.0
64.483002 212.0
64.541145 160.0
64.559738 152.0
64.578926 140.0
64.602921 168.0
64.660522 196.0
64.687737 216.0
64.75499 172.0
64.795036 172.0
64.892799 232.0
65.078918 148.0
65.101151 156.0
65.114243 196.0
65.13031 148.0
65.181717 180.0
65.227654 168.0
65.265305 196.0
65.326416 184.0
65.384346 196.0
65.431023 172.0
65.442291 200.0
65.476891 240.0
65.514771 188.0
65.546425 148.0
65.648544 148.0
65.75341 180.0
65.776833 180.0
65.892067 208.0
65.943993 220.0
65.974701 180.0
66.115082 240.0
66.263023 132.0
66.282219 180.0
66.405426 148.0
66.512894 188.0
66.543358 220.0
66.596947 160.0
66.698639 172.0
66.715569 196.0
66.73671 160.0
66.748093 152.0
66.821281 224.0
66.933594 196.0
67.008514 180.0
67.028069 172.0
67.063919 236.0
67.298836 168.0
67.609421 164.0
67.827255 172.0
67.853485 176.0
68.0438 200.0
68.060219 152.0
68.217941 208.0
68.307663 128.0
68.339638 172.0
68.40876 144.0
68.428139 156.0
68.464745 208.0
68.484505 140.0
68.522392 140.0
68.587746 140.0
68.609741 188.0
68.72596 252.0
68.740402 184.0
68.758995 116.0
68.926636 180.0
68.950737 124.0
69.024162 176.0
69.135002 172.0
69.148239 144.0
69.191277 144.0
69.224396 192.0
69.23764 236.0
69.254204 168.0
69.275734 144.0
69.350304 204.0
69.370102 148.0
69.404259 164.0
69.46727 104.0
69.546593 200.0
69.715477 140.0
69.761963 212.0
69.881706 188.0
69.917747 152.0
69.956635 176.0
70.209221 176.0
70.243225 160.0
70.326653 184.0
70.395103 140.0
70.448753 164.0
70.466927 144.0
70.491989 164.0
70.672577 228.0
70.707718 152.0
70.722786 148.0
70.91951 196.0
71.117935 176.0
71.14521 236.0
71.173752 160.0
71.307907 144.0
71.356895 164.0
71.405655 164.0
71.420799 192.0
71.572258 204.0
71.833488 188.0
71.909416 144.0
71.94149 152.0
71.993446 388.0
72.242294 220.0
72.534302 128.0
72.596291 148.0
72.625923 152.0
72.799927 148.0
72.838158 268.0
72.874458 164.0
72.939247 152.0
73.031067 164.0
73.101807 152.0
73.329834 244.0
73.421089 168.0
73.671997 140.0
73.688728 172.0
73.72155 156.0
73.75573 184.0
74.327744 164.0
74.674767 196.0
74.704521 148.0
74.728096 196.0
74.912949 204.0
75.00164 156.0
75.176102 140.0
75.210617 144.0
75.362595 148.0
75.395424 184.0
75.487045 232.0
75.551041 164.0
75.58046 200.0
75.599487 380.0
75.654877 204.0
75.689133 184.0
75.806015 200.0
75.930382 192.0
76.037949 152.0
76.174477 204.0
76.453751 176.0
76.472458 160.0
76.524681 248.0
76.550797 140.0
76.589554 192.0
76.695404 152.0
76.74247 192.0
76.820953 156.0
76.930893 352.0
76.965813 172.0
77.089836 260.0
77.114304 200.0
77.26709 160.0
77.311928 192.0
77.334686 160.0
77.415215 208.0
77.428429 168.0
77.508057 188.0
77.528351 184.0
77.678116 140.0
77.774437 148.0
77.836075 188.0
77.908089 168.0
77.94725 124.0
77.963005 164.0
78.010887 164.0
78.0821 148.0
78.28331 168.0
78.409569 404.0
78.531219 204.0
78.799545 168.0
78.843719 172.0
78.917961 156.0
78.984818 144.0
79.162148 152.0
79.277298 176.0
79.293251 140.0
79.305656 196.0
79.362381 172.0
79.435822 196.0
79.48056 172.0
79.557541 152.0
79.581474 152.0
79.612587 168.0
79.777824 168.0
79.795502 136.0
79.831169 140.0
79.874397 208.0
79.937904 168.0
80.091011 200.0
80.183662 156.0
80.208618 212.0
80.269234 148.0
80.31382 188.0
80.413734 176.0
80.436935 144.0
80.555656 168.0
80.796532 144.0
80.963448 168.0
81.043152 136.0
81.098763 152.0
81.127441 204.0
81.161659 140.0
81.400162 156.0
81.445061 148.0
81.500748 176.0
81.614838 196.0
81.913078 192.0
82.020859 192.0
82.152496 188.0
82.207397 112.0
82.230736 156.0
82.325768 176.0
82.365501 164.0
82.378151 168.0
82.47934 192.0
82.558891 180.0
82.593956 228.0
82.699593 220.0
82.776047 152.0
82.799591 188.0
82.862991 144.0
82.930038 196.0
83.03701 160.0
83.113205 160.0
83.223923 148.0
83.611259 156.0
83.637604 152.0
83.729454 260.0
83.853683 192.0
84.02475 204.0
84.080811 216.0
84.11235 196.0
84.253777 152.0
84.320572 156.0
84.340675 168.0
84.386757 172.0
84.521729 204.0
84.542648 200.0
84.565651 144.0
84.605919 152.0
84.653526 180.0
84.70298 160.0
85.005493 156.0
85.018333 160.0
85.077072 296.0
85.214813 252.0
85.279373 152.0
85.299347 220.0
85.35083 180.0
85.472229 144.0
85.498695 232.0
85.544006 168.0
85.556892 224.0
85.666077 180.0
85.86277 180.0
85.931129 140.0
86.036217 164.0
86.05468 204.0
86.100845 228.0
86.11377 160.0
86.182121 172.0
86.202454 232.0
86.300415 164.0
86.422493 252.0
86.568726 224.0
86.678017 208.0
86.709518 180.0
86.732216 132.0
86.854874 124.0
86.965469 144.0
87.00631 204.0
87.141891 160.0
87.158607 156.0
87.257118 228.0
87.29245 160.0
87.327782 276.0
87.443756 168.0
87.459885 172.0
87.61631 152.0
87.692711 164.0
87.782196 184.0
87.828819 204.0
87.854935 176.0
88.006111 196.0
88.078949 348.0
88.222832 172.0
88.532555 148.0
88.610237 152.0
88.679565 148.0
88.704971 204.0
88.736794 124.0
88.760101 184.0
88.780807 164.0
88.95311 144.0
89.00515 196.0
89.021011 228.0
89.04512 172.0
89.086754 152.0
89.117645 156.0
89.167549 156.0
89.289757 152.0
89.308563 224.0
89.370644 160.0
89.432747 140.0
89.451569 212.0
89.564552 144.0
89.585274 176.0
89.785065 236.0
89.830338 184.0
89.860771 152.0
90.208008 172.0
90.226913 156.0
90.267769 224.0
90.34417 188.0
90.438927 160.0
90.508827 172.0
90.541138 132.0
90.563751 188.0
90.590271 172.0
90.63195 144.0
90.699661 132.0
90.719131 244.0
90.914497 140.0
90.994217 196.0
91.117668 152.0
91.178474 180.0
91.216484 164.0
91.303947 164.0
91.363991 184.0
91.503746 140.0
91.53231 164.0
91.782433 136.0
91.806091 124.0
91.907814 244.0
91.955528 168.0
92.041435 172.0
92.10955 144.0
92.140755 144.0
92.242035 140.0
92.26252 212.0
92.400764 168.0
92.414154 236.0
92.463905 312.0
92.517502 148.0
92.776131 184.0
92.816391 268.0
92.835953 200.0
92.90078 164.0
92.954506 180.0
93.046349 160.0
93.259865 164.0
93.392532 176.0
93.423309 192.0
93.456017 160.0
93.479111 188.0
93.565254 164.0
93.667885 156.0
93.700539 204.0
93.791107 164.0
93.870155 144.0
93.889442 204.0
93.997467 216.0
94.02063 228.0
94.066948 176.0
94.081062 180.0
94.316132 148.0
94.357681 228.0
94.385727 148.0
94.532692 140.0
94.695641 140.0
94.846497 168.0
94.912415 164.0
94.933746 184.0
95.207375 196.0
95.290901 188.0
95.3181 176.0
95.373726 148.0
95.402145 148.0
95.469727 180.0
95.524185 152.0
95.699341 172.0
95.730499 184.0
95.880501 232.0
95.898041 164.0
96.011124 188.0
96.064064 196.0
96.181831 184.0
96.309738 148.0
96.45433 168.0
96.499298 192.0
96.561874 156.0
96.708611 188.0
96.867218 168.0
96.88681 176.0
96.945587 208.0
97.022034 204.0
97.055367 152.0
97.114197 204.0
97.13884 216.0
97.177017 180.0
97.302582 168.0
97.465363 196.0
97.653496 152.0
97.713341 148.0
97.818298 144.0
97.847168 240.0
97.888565 164.0
97.951546 156.0
98.022469 204.0
98.150597 168.0
98.181282 164.0
98.207787 144.0
98.521652 176.0
98.557213 260.0
98.590805 184.0
98.982491 228.0
99.051811 164.0
99.238098 148.0
99.301552 156.0
99.498001 148.0
99.533745 172.0
99.579819 120.0
99.748245 124.0
99.821877 220.0
100.016678 144.0
100.12812 180.0
100.283226 152.0
100.359505 144.0
100.437279 160.0
100.710732 384.0
100.871483 152.0
100.890579 148.0
100.931808 116.0
101.07058 144.0
101.09642 352.0
101.270775 152.0
101.499237 180.0
101.598373 140.0
101.6838 176.0
101.737991 192.0
101.752045 148.0
101.914734 140.0
101.951866 100.0
101.98909 172.0
102.115761 224.0
102.155991 140.0
102.182983 128.0
102.210312 176.0
102.22641 168.0
102.267792 192.0
102.335106 192.0
102.359268 172.0
102.4076 180.0
102.449905 160.0
102.529831 108.0
102.568794 196.0
102.592987 204.0
102.689774 184.0
102.720032 180.0
102.88147 192.0
103.054825 164.0
103.150146 144.0
103.320015 180.0
103.385681 220.0
103.417145 208.0
103.512299 180.0
103.536598 164.0
103.597359 256.0
103.64801 156.0
103.783821 168.0
104.062012 108.0
104.104431 200.0
104.167397 192.0
104.301506 220.0
104.445877 196.0
104.535393 192.0
104.565918 184.0
104.702774 164.0
104.773621 204.0
104.812332 188.0
104.877548 188.0
104.918312 188.0
104.933624 128.0
105.005859 120.0
105.054955 144.0
105.07943 184.0
105.097794 236.0
105.150856 160.0
105.181473 188.0
105.246155 224.0
105.385689 168.0
105.413147 128.0
105.76812 184.0
105.821342 204.0
105.862297 164.0
105.893013 140.0
105.91893 184.0
106.073837 192.0
106.143036 172.0
106.241486 160.0
106.259949 160.0
106.323555 140.0
106.372192 184.0
106.417984 152.0
106.485748 196.0
106.5597 156.0
106.656288 196.0
106.872223 252.0
106.97924 192.0
107.061607 172.0
107.10556 152.0
107.193893 148.0
107.226418 172.0
107.546104 176.0
107.581718 144.0
107.623871 208.0
107.653198 156.0
107.765007 152.0
108.017227 160.0
108.345688 108.0
108.378159 164.0
108.427185 172.0
108.620018 152.0
108.639404 196.0
108.665657 204.0
108.871155 140.0
109.03112 220.0
109.124664 192.0
109.143372 232.0
109.268166 220.0
109.357651 164.0
109.47007 156.0
109.522141 152.0
109.627525 224.0
109.668846 176.0
109.697762 184.0
109.740952 156.0
109.803513 140.0
109.84523 152.0
109.885345 140.0
109.943291 160.0
110.053925 164.0
110.225204 252.0
110.252373 192.0
110.271187 224.0
110.3162 112.0
110.367775 140.0
110.402893 152.0
110.739845 148.0
111.091927 120.0
111.345978 152.0
111.3974 208.0
111.604446 212.0
111.657188 152.0
111.73275 212.0
111.751686 164.0
111.865326 204.0
111.926788 168.0
111.969452 336.0
112.076607 1104.0
112.185471 140.0
112.227699 212.0
112.252998 160.0
112.272606 388.0
112.353111 164.0
112.385887 168.0
112.423874 188.0
112.438644 144.0
112.455528 152.0
112.510414 148.0
112.601212 148.0
112.714119 152.0
112.882278 164.0
113.044823 172.0
113.076912 184.0
113.201813 156.0
113.442291 360.0
113.533829 232.0
113.562996 180.0
113.600281 224.0
113.617249 172.0
113.636345 140.0
113.674538 156.0
113.806145 148.0
113.988678 188.0
113.995049 176.0
114.058952 280.0
114.07383 224.0
114.156754 228.0
114.201416 156.0
114.386536 152.0
114.521523 192.0
114.629333 168.0
114.71032 220.0
114.725243 172.0
114.797737 204.0
114.887268 180.0
115.015358 176.0
115.055077 360.0
115.096481 208.0
115.226768 180.0
115.297287 180.0
115.314384 144.0
115.590256 180.0
115.654465 200.0
115.695831 160.0
115.814217 420.0
115.922173 140.0
116.03363 152.0
116.117256 272.0
116.207718 164.0
116.230957 144.0
116.245979 140.0
116.46711 284.0
116.748665 160.0
116.800278 168.0
116.856216 212.0
116.873482 160.0
117.031631 184.0
117.055008 268.0
117.391518 204.0
117.416283 200.0
117.476677 172.0
117.721794 184.0
117.781189 120.0
117.880424 192.0
118.04039 152.0
118.057693 168.0
118.085808 172.0
118.293526 148.0
118.358475 176.0
118.475433 156.0
118.501434 140.0
118.516602 172.0
118.594612 192.0
118.629295 148.0
118.668839 168.0
118.709518 168.0
118.93515 164.0
119.102768 124.0
119.160049 128.0
119.20446 176.0
119.264336 152.0
119.313133 160.0
119.378204 164.0
119.393929 180.0
119.463188 220.0
119.50235 148.0
119.617691 176.0
119.713493 156.0
119.781013 144.0
119.931358 140.0
120.081062 4276.0
120.249802 152.0
120.280357 192.0
120.361855 188.0
120.535881 156.0
120.607124 208.0
120.647354 164.0
120.704201 216.0
120.741379 184.0
120.791679 148.0
120.817932 140.0
120.903267 180.0
120.947044 256.0
121.014908 168.0
121.085052 612.0
121.215454 136.0
121.275597 152.0
121.297142 164.0
121.321625 180.0
121.461975 160.0
121.671684 232.0
121.753883 332.0
121.905472 168.0
121.944031 176.0
122.057144 144.0
122.088089 164.0
122.162712 184.0
122.28759 160.0
122.457672 164.0
122.505577 144.0
122.541382 156.0
122.686836 232.0
122.891945 200.0
122.912163 124.0
122.993462 152.0
123.441956 144.0
123.610069 148.0
123.71608 152.0
123.756165 224.0
123.802971 172.0
123.859718 100.0
123.921349 152.0
123.967812 212.0
124.013138 148.0
124.086288 152.0
124.112732 160.0
124.126976 228.0
124.250412 168.0
124.565582 148.0
124.706497 236.0
124.752312 140.0
124.98806 172.0
125.004974 120.0
125.088211 188.0
125.235176 200.0
125.295082 148.0
125.38932 152.0
125.540504 144.0
125.761375 144.0
125.819412 140.0
125.873001 148.0
125.913383 148.0
125.9534 208.0
125.993614 168.0
126.048477 176.0
126.072937 152.0
126.217117 192.0
126.237244 164.0
126.342369 220.0
126.472153 184.0
126.49678 188.0
126.566185 144.0
126.678162 148.0
126.830116 148.0
126.891136 288.0
126.931427 164.0
126.976494 168.0
127.050301 152.0
127.074974 140.0
127.110207 348.0
127.321899 200.0
127.460022 148.0
127.589287 164.0
127.640572 168.0
127.658989 140.0
127.674736 248.0
127.755707 200.0
127.802956 128.0
127.865967 208.0
127.888474 152.0
128.063324 472.0
128.095627 256.0
128.58432 168.0
128.681976 212.0
128.781342 184.0
128.878479 144.0
129.06955 1524.0
129.106796 156.0
129.12262 152.0
129.140717 148.0
129.227463 220.0
129.27562 184.0
129.502075 184.0
129.55835 160.0
129.806824 160.0
129.85643 172.0
130.069183 480.0
130.269547 140.0
130.428619 348.0
130.53775 168.0
130.722778 176.0
130.81076 164.0
130.833527 160.0
131.087524 524.0
131.15802 168.0
131.233994 212.0
131.318893 140.0
131.440842 184.0
131.686356 140.0
131.70462 184.0
131.784576 184.0
131.855423 152.0
132.02002 176.0
132.081665 488.0
132.121155 132.0
132.187027 148.0
132.223633 176.0
132.31749 188.0
132.381592 204.0
132.414871 220.0
132.701019 120.0
132.757431 176.0
132.798309 224.0
132.913956 152.0
132.93042 144.0
133.065582 148.0
133.098434 132.0
133.136078 212.0
133.187576 180.0
133.204651 176.0
133.451828 156.0
133.531372 140.0
133.99176 152.0
134.012497 228.0
134.102371 192.0
134.150772 164.0
134.390106 176.0
134.547562 156.0
134.673111 220.0
134.966217 144.0
134.991196 148.0
135.042068 200.0
135.072144 160.0
135.091812 312.0
135.347549 268.0
135.442505 140.0
135.587143 160.0
135.801315 244.0
135.824966 152.0
136.087204 220.0
136.121689 108.0
136.145264 148.0
136.296936 220.0
136.493835 140.0
136.519409 368.0
136.586853 264.0
136.927902 132.0
137.024521 172.0
137.047806 180.0
137.088425 164.0
137.138702 340.0
137.182983 176.0
137.225555 260.0
137.285583 248.0
137.686981 164.0
138.087158 196.0
138.175522 248.0
138.196579 144.0
138.441101 200.0
138.517303 140.0
138.549789 212.0
138.646179 164.0
138.779785 232.0
138.809372 228.0
139.054581 1104.0
139.098846 340.0
139.145737 132.0
139.171631 192.0
139.213898 312.0
139.274902 160.0
139.289185 200.0
139.51001 140.0
139.641617 228.0
139.665146 168.0
139.728653 140.0
139.825134 176.0
139.941635 188.0
139.9758 168.0
140.015533 172.0
140.031937 196.0
140.051895 488.0
140.150116 148.0
140.338669 180.0
140.390549 196.0
140.778015 168.0
140.796463 188.0
140.879395 180.0
140.980728 240.0
141.069366 1448.0
141.106232 168.0
141.129654 144.0
141.300888 180.0
141.345459 188.0
141.391663 184.0
141.579254 200.0
141.598206 164.0
141.747452 188.0
142.079926 164.0
142.39035 248.0
142.542603 172.0
142.590744 172.0
142.701645 168.0
142.870499 144.0
142.989471 152.0
143.037079 156.0
143.07103 336.0
143.187073 172.0
143.213272 360.0
143.235352 180.0
143.275208 160.0
143.300415 160.0
143.350052 168.0
143.442032 180.0
143.493408 180.0
143.523087 172.0
143.676147 184.0
143.741974 136.0
143.831375 216.0
143.857101 176.0
143.988419 140.0
144.016449 332.0
144.055679 352.0
144.077744 580.0
144.1026 72004.0
144.308258 220.0
144.494781 160.0
144.690811 124.0
144.721481 136.0
144.748077 176.0
144.835114 164.0
144.868652 176.0
144.976471 224.0
145.003433 112.0
145.105133 3304.0
145.131454 288.0
145.173767 188.0
145.42099 144.0
145.71553 164.0
145.746765 144.0
145.998917 308.0
146.067627 292.0
146.096802 4056.0
146.15274 228.0
146.176239 156.0
146.273636 164.0
146.327362 184.0
146.66922 176.0
146.773285 112.0
146.805923 232.0
146.8228 292.0
146.899979 148.0
146.998901 164.0
147.026276 236.0
147.081894 536.0
147.115952 144.0
147.28862 140.0
147.312622 120.0
147.407013 240.0
147.462921 248.0
147.565186 180.0
147.740662 152.0
147.818085 148.0
147.861649 152.0
148.070724 316.0
148.086014 336.0
148.112503 828.0
148.258835 172.0
148.413971 228.0
148.435791 208.0
148.475235 168.0
148.595886 140.0
148.797318 192.0
148.845886 164.0
148.865311 188.0
148.95517 208.0
148.979462 168.0
149.111786 124.0
149.134399 116.0
149.186035 152.0
149.418839 164.0
149.480331 180.0
149.515823 204.0
149.584976 172.0
149.629578 164.0
149.696976 172.0
149.745682 216.0
149.782227 208.0
149.809021 140.0
149.952774 148.0
150.092041 304.0
150.116119 408.0
150.167328 172.0
150.21492 144.0
150.247833 176.0
150.273117 176.0
150.523453 164.0
150.740143 164.0
150.772812 160.0
150.968384 272.0
151.009964 152.0
151.038651 248.0
151.122498 156.0
151.208145 188.0
151.40155 152.0
151.430939 192.0
151.53627 172.0
151.563217 160.0
151.96991 176.0
152.004593 172.0
152.036499 252.0
152.052521 144.0
152.142044 168.0
152.510513 164.0
152.535095 216.0
152.579346 144.0
152.618683 168.0
152.65065 172.0
152.680161 388.0
152.778549 144.0
152.982803 156.0
153.002502 180.0
153.056595 688.0
153.103455 176.0
153.284622 280.0
153.512543 176.0
153.616135 164.0
153.641495 184.0
153.739502 212.0
153.798721 196.0
154.030838 208.0
154.050598 224.0
154.201324 160.0
154.4189 180.0
154.750488 160.0
154.985794 196.0
155.060135 176.0
155.089874 148.0
155.117142 168.0
155.155945 160.0
155.45694 164.0
155.543808 184.0
156.081009 184.0
156.21225 176.0
156.259521 148.0
156.306793 184.0
156.334167 176.0
156.39888 176.0
156.632935 164.0
156.676285 148.0
156.859756 148.0
156.93074 120.0
156.959427 168.0
157.060333 136.0
157.093475 268.0
157.122574 212.0
157.178925 152.0
157.261276 176.0
157.538452 148.0
157.723373 164.0
157.778366 164.0
157.883057 212.0
157.918396 160.0
157.94841 228.0
157.989212 360.0
158.043488 188.0
158.068497 180.0
158.15007 156.0
158.183624 148.0
158.502365 180.0
158.700333 164.0
159.01329 252.0
159.037964 176.0
159.089981 416.0
159.179779 136.0
159.234009 180.0
159.445267 148.0
159.505585 152.0
159.676559 172.0
159.802338 164.0
159.889328 184.0
160.079666 140.0
160.135895 160.0
160.195084 260.0
160.222794 140.0
160.247986 160.0
160.376511 168.0
160.54039 144.0
160.56308 156.0
160.762375 140.0
160.782578 284.0
160.836685 128.0
161.045151 172.0
161.067871 176.0
161.107437 416.0
161.191681 216.0
161.209366 176.0
161.257385 180.0
161.27507 144.0
161.300354 172.0
161.373672 156.0
161.452057 144.0
161.651901 188.0
161.740479 176.0
161.798706 172.0
162.031708 160.0
162.091476 1116.0
162.759644 216.0
162.903702 136.0
162.99794 196.0
163.10553 204.0
163.341629 156.0
163.434174 108.0
163.924667 176.0
164.01387 196.0
164.059753 180.0
164.107559 1072.0
164.156647 156.0
164.177048 196.0
164.199997 220.0
164.312225 224.0
164.392258 184.0
164.559799 216.0
164.667053 184.0
164.705368 176.0
164.891876 140.0
164.959351 172.0
165.035034 288.0
165.058289 172.0
165.112335 312.0
165.148529 228.0
165.219177 176.0
165.396774 348.0
165.562164 164.0
165.679993 148.0
166.006134 180.0
166.064957 2480.0
166.190063 220.0
166.249222 140.0
166.267181 168.0
166.377502 176.0
166.459579 144.0
166.49147 196.0
166.527298 140.0
166.573792 192.0
166.637985 200.0
166.683197 176.0
166.792816 180.0
166.886261 144.0
166.963974 208.0
167.006516 116.0
167.040573 208.0
167.073441 25548.0
167.170807 156.0
167.198181 140.0
167.234512 192.0
167.266495 356.0
167.365494 368.0
167.424149 128.0
167.47496 184.0
167.519653 220.0
167.573471 348.0
167.604401 148.0
167.636749 216.0
167.660965 140.0
167.701401 200.0
167.731873 120.0
167.765625 136.0
167.820908 200.0
167.847153 204.0
167.878204 132.0
167.903427 268.0
167.968567 140.0
167.995911 308.0
168.003128 300.0
168.013702 592.0
168.051956 624.0
168.08287 219584.0
168.155807 148.0
168.241165 124.0
168.307053 228.0
168.336014 164.0
168.362808 200.0
168.392059 216.0
168.438293 108.0
168.47876 228.0
168.506042 5496.0
168.571259 196.0
168.591476 384.0
168.622208 168.0
168.668076 264.0
168.777786 172.0
168.852539 160.0
168.892578 400.0
168.937515 140.0
168.992416 232.0
169.014084 180.0
169.085266 59324.0
169.170807 128.0
169.381851 128.0
169.417542 224.0
169.587921 136.0
169.688293 336.0
169.956421 180.0
169.993408 172.0
170.05217 224.0
170.094528 5464.0
170.148941 136.0
170.176682 116.0
170.217911 132.0
170.252762 256.0
170.293961 240.0
170.325729 172.0
170.383789 296.0
170.416336 232.0
170.448425 152.0
170.486282 148.0
170.540848 136.0
170.754913 376.0
170.773483 228.0
170.915451 112.0
171.100494 1080.0
171.212967 140.0
171.37471 124.0
171.49617 160.0
171.644333 96.0
172.097672 1484.0
172.172684 212.0
172.214478 144.0
172.284592 240.0
172.420868 152.0
173.060989 148.0
173.101181 164.0
173.184845 144.0
173.206421 152.0
174.013519 148.0
174.069336 220.0
174.10437 452.0
174.736282 160.0
174.943329 184.0
175.115341 168.0
175.853592 208.0
175.964462 172.0
176.11499 272.0
176.847382 164.0
177.102341 808.0
177.573349 156.0
178.108246 184.0
178.174469 124.0
178.362747 148.0
178.578857 172.0
179.121277 208.0
179.297287 124.0
179.986023 136.0
181.133926 128.0
181.796646 192.0
182.09465 144.0
182.140305 152.0
183.090195 864.0
183.350082 160.0
183.704285 160.0
183.763641 168.0
184.100006 344.0
184.524307 232.0
185.107407 1016.0
185.291214 140.0
186.093781 340.0
186.475327 140.0
187.056412 184.0
187.090652 268.0
187.475845 188.0
188.119537 152.0
188.168686 168.0
188.247864 256.0
188.871002 144.0
189.101608 100.0
189.124222 592.0
189.330811 156.0
190.043518 152.0
190.137222 136.0
190.45256 140.0
190.680603 220.0
190.9198 192.0
191.116409 136.0
191.404114 168.0
192.101166 1176.0
193.080795 144.0
193.10466 244.0
193.128967 160.0
193.519165 164.0
194.089951 196.0
194.126007 152.0
195.094025 260.0
195.132629 144.0
196.072021 184.0
196.1194 140.0
196.148788 148.0
196.306198 204.0
197.10788 676.0
197.15094 144.0
198.102768 716.0
199.064102 192.0
199.10788 276.0
199.503708 140.0
200.018494 152.0
200.113281 904.0
200.550858 152.0
201.118423 164.0
201.20813 144.0
201.753387 156.0
201.869308 184.0
202.122406 156.0
203.118317 168.0
203.228958 216.0
204.103806 304.0
204.146469 148.0
204.581787 196.0
204.7827 136.0
204.986237 172.0
205.088837 156.0
205.790604 160.0
206.121948 140.0
206.851242 180.0
207.100922 144.0
208.141388 144.0
208.328079 144.0
208.638458 156.0
210.130295 172.0
211.074799 144.0
211.126846 328.0
211.213608 168.0
211.989532 148.0
212.053284 140.0
212.117432 952.0
212.315079 148.0
213.122162 484.0
213.720184 164.0
214.442398 144.0
215.011108 168.0
216.095215 180.0
217.134796 176.0
217.535675 172.0
217.830765 140.0
217.989426 140.0
218.065826 160.0
220.266876 160.0
220.320038 164.0
221.396713 156.0
221.684067 144.0
222.109848 208.0
223.079041 152.0
223.120377 160.0
223.560883 168.0
224.115143 436.0
224.213089 196.0
225.106949 452.0
225.347015 164.0
226.093475 152.0
226.134079 1256.0
227.135513 148.0
228.113342 132.0
228.136749 336.0
229.01889 144.0
230.151001 148.0
230.379318 144.0
230.980881 188.0
231.134491 260.0
231.598373 180.0
232.100098 108.0
233.054535 156.0
233.376724 156.0
235.106949 148.0
236.145538 172.0
238.160156 276.0
239.162338 160.0
239.229523 144.0
239.291092 160.0
239.965836 196.0
240.135437 140.0
240.462479 160.0
241.015259 140.0
242.801422 160.0
243.034073 216.0
243.115646 364.0
243.332535 100.0
244.115051 180.0
244.363892 172.0
244.528824 168.0
244.628433 236.0
245.23584 224.0
247.021912 184.0
247.109787 128.0
247.225525 148.0
247.275543 128.0
247.626007 172.0
247.68866 152.0
247.795166 176.0
248.108566 156.0
248.833298 144.0
249.141068 188.0
249.744614 148.0
250.108368 1144.0
250.868774 188.0
251.107239 324.0
251.982803 208.0
252.115372 164.0
252.844971 220.0
253.086655 180.0
253.115158 152.0
253.172211 564.0
253.25766 208.0
253.29567 204.0
253.523804 156.0
253.961319 140.0
254.137115 116.0
254.175537 160.0
255.044052 152.0
255.145676 124.0
256.118439 232.0
256.166748 272.0
257.16626 196.0
257.548523 168.0
257.839264 144.0
258.128357 132.0
258.170563 392.0
258.347656 196.0
259.102692 168.0
259.140198 316.0
259.510223 144.0
259.71228 172.0
260.146118 256.0
260.179779 104.0
260.877899 160.0
261.150116 196.0
261.216888 172.0
262.187927 208.0
262.312408 168.0
262.529633 224.0
262.586395 100.0
262.787689 148.0
262.810272 176.0
262.846588 128.0
263.084625 160.0
263.1492 160.0
263.9422 184.0
264.146362 408.0
264.403412 164.0
264.458405 164.0
264.636475 220.0
264.740082 180.0
264.82428 168.0
265.146729 208.0
265.258484 164.0
266.218872 184.0
266.32605 180.0
267.148438 176.0
268.082886 188.0
268.105713 164.0
268.480621 180.0
268.503448 228.0
268.759979 364.0
269.09082 160.0
269.235016 168.0
269.734375 196.0
269.885895 164.0
270.121643 260.0
270.306732 180.0
271.545074 160.0
272.145721 232.0
272.444458 180.0
272.480591 312.0
273.156616 144.0
273.388123 144.0
275.116028 188.0
275.637115 160.0
275.818878 160.0
276.715393 180.0
277.092957 276.0
277.123108 156.0
277.872101 168.0
278.134247 148.0
278.64566 152.0
279.129913 820.0
279.5867 140.0
280.13504 224.0
281.006195 152.0
281.662659 132.0
281.806824 196.0
282.15094 308.0
282.238678 156.0
282.640076 164.0
283.148926 168.0
284.069916 144.0
284.140503 820.0
284.253082 132.0
284.600922 144.0
284.838135 152.0
285.132202 296.0
285.572144 216.0
286.30246 208.0
287.155334 1240.0
287.622681 196.0
287.948273 212.0
288.159302 112.0
290.98233 152.0
291.162628 128.0
292.157501 152.0
292.587036 140.0
292.852661 204.0
293.179016 152.0
293.564941 204.0
293.807098 184.0
293.88559 180.0
294.541046 148.0
294.605957 180.0
294.648438 192.0
294.903259 188.0
295.005798 168.0
295.453796 164.0
295.994568 160.0
296.076752 252.0
296.139374 180.0
296.174683 484.0
296.42511 152.0
297.143494 240.0
297.171509 216.0
297.276611 236.0
297.324677 172.0
298.114532 196.0
298.150421 108.0
298.643982 144.0
299.16568 268.0
300.172363 708.0
300.511108 148.0
300.555969 168.0
300.95462 200.0
301.018524 156.0
301.168121 808.0
301.654236 140.0
301.904114 104.0
301.9758 176.0
302.110718 160.0
302.159851 724.0
302.508667 184.0
302.633301 160.0
303.168732 1060.0
304.172028 124.0
304.959259 140.0
305.047943 180.0
305.187012 144.0
305.823639 196.0
306.352936 232.0
306.474854 196.0
307.454742 140.0
308.171967 112.0
308.974854 120.0
309.909546 168.0
310.630707 204.0
310.775574 148.0
310.811554 160.0
310.939606 140.0
311.166595 988.0
312.171295 240.0
313.170563 1264.0
314.151215 360.0
314.176453 356.0
315.176727 308.0
316.18222 120.0
316.340485 160.0
317.188263 480.0
317.860962 188.0
317.885803 256.0
318.937073 160.0
319.197571 552.0
319.274811 160.0
320.202545 268.0
320.859375 208.0
321.174652 172.0
321.719177 156.0
322.191772 1332.0
322.297729 156.0
322.33197 96.0
322.420959 172.0
323.148712 148.0
323.190979 464.0
323.29541 164.0
323.34552 140.0
324.167542 156.0
324.196381 108.0
324.410065 156.0
325.076447 160.0
325.184357 164.0
326.173462 180.0
326.585388 192.0
327.171478 228.0
328.181641 4484.0
328.624359 188.0
328.692902 184.0
328.790344 168.0
328.864685 120.0
329.179138 2304.0
330.109039 152.0
330.264465 140.0
330.405518 140.0
330.619019 152.0
330.771027 140.0
330.962921 148.0
331.180298 276.0
331.286316 144.0
331.686493 128.0
332.179962 280.0
332.944275 112.0
333.088135 180.0
333.172607 144.0
333.353363 148.0
333.402618 172.0
333.56778 144.0
333.70813 252.0
333.920502 264.0
333.978668 160.0
334.174469 152.0
334.209808 268.0
334.269745 148.0
334.506561 116.0
334.593658 144.0
334.641205 148.0
334.678772 144.0
334.733429 176.0
334.822113 168.0
334.862885 116.0
334.913879 112.0
335.030151 356.0
335.066071 208.0
335.095825 216.0
335.19754 130400.0
335.326111 236.0
335.39267 116.0
335.424835 104.0
335.46933 116.0
335.540314 160.0
335.617371 120.0
335.630432 160.0
335.682953 156.0
335.804474 160.0
335.911285 160.0
335.946228 144.0
336.112335 132.0
336.20047 19700.0
336.309418 112.0
336.396301 136.0
336.446869 136.0
336.491486 96.0
336.697113 140.0
337.203247 3216.0
337.316284 152.0
337.413818 156.0
337.655579 116.0
337.780518 116.0
338.11554 144.0
338.162537 160.0
338.199707 108.0
338.322083 136.0
338.421051 164.0
338.506714 188.0
338.53772 208.0
338.567963 180.0
338.677979 124.0
339.173737 416.0
339.330139 124.0
339.669037 116.0
339.812744 184.0
340.418396 148.0
341.189056 112.0
341.767426 280.0
342.07077 112.0
343.187714 120.0
344.176544 252.0
344.547394 148.0
345.005646 184.0
345.20105 620.0
346.056366 172.0
346.190399 1736.0
346.308167 148.0
346.999695 176.0
347.197357 460.0
347.529541 116.0
347.597382 176.0
348.200775 588.0
348.266571 164.0
349.212646 216.0
349.608734 140.0
350.048004 172.0
350.223145 140.0
351.182434 140.0
352.227234 152.0
353.227692 96.0
354.153534 792.0
355.156921 204.0
355.286926 172.0
356.18222 356.0
357.260529 164.0
358.191864 372.0
359.177002 528.0
360.163116 172.0
360.188751 188.0
360.578705 192.0
361.192566 316.0
361.327423 164.0
361.940582 172.0
362.186737 184.0
363.218201 4416.0
363.308807 160.0
363.434021 172.0
364.219238 1132.0
364.957123 168.0
365.213348 400.0
365.295624 212.0
366.201996 108.0
366.800323 132.0
367.158783 144.0
367.490021 200.0
368.135101 160.0
368.170929 168.0
368.21994 172.0
369.06366 148.0
369.664215 144.0
370.999084 148.0
371.20993 1196.0
372.208496 356.0
372.338135 220.0
373.200165 420.0
374.204132 148.0
375.202789 384.0
375.935791 140.0
376.202087 168.0
376.391296 140.0
376.584381 144.0
377.215485 212.0
377.443359 140.0
378.010925 192.0
378.220032 284.0
378.700043 284.0
379.56427 156.0
379.91333 148.0
380.161652 144.0
381.241241 184.0
381.268463 276.0
383.206299 728.0
383.818237 156.0
384.244843 236.0
384.355438 160.0
388.794159 152.0
391.211456 144.0
392.477417 116.0
392.566833 144.0
392.811371 156.0
393.458557 156.0
396.219055 152.0
396.264191 164.0
396.35376 140.0
396.708801 124.0
396.865082 140.0
397.223145 152.0
397.960175 140.0
398.052826 204.0
398.235535 176.0
399.088593 164.0
399.185486 472.0
399.908081 164.0
400.190613 132.0
400.843964 168.0
401.095062 192.0
401.203094 120.0
401.360382 124.0
401.480438 140.0
401.796906 180.0
402.695068 156.0
403.106567 156.0
404.65451 164.0
405.231903 172.0
406.149292 192.0
407.224731 128.0
407.391968 168.0
408.416199 160.0
408.475037 140.0
409.239685 188.0
409.864868 152.0
410.613831 172.0
413.182861 152.0
413.243561 192.0
415.021667 164.0
415.082489 140.0
416.060303 160.0
419.223816 168.0
420.98053 124.0
421.130066 160.0
421.220642 432.0
422.368561 148.0
422.581268 200.0
422.777679 152.0
422.814514 140.0
423.076477 144.0
423.239319 192.0
423.936646 144.0
424.238068 2364.0
425.238678 1080.0
426.252258 276.0
426.333252 204.0
426.703186 140.0
427.274841 156.0
427.678131 148.0
428.382263 144.0
429.309204 152.0
430.254425 160.0
430.427948 156.0
430.572479 168.0
431.010376 168.0
431.20636 280.0
431.2677 180.0
431.365784 168.0
432.219269 156.0
433.194855 140.0
433.28186 140.0
433.592621 224.0
433.774994 152.0
435.294525 164.0
436.141022 148.0
436.951935 156.0
437.006012 156.0
437.34494 184.0
437.538757 148.0
439.209808 196.0
439.418396 144.0
439.635376 152.0
440.231293 204.0
440.299164 168.0
440.39151 104.0
440.633331 144.0
441.265717 920.0
441.60733 160.0
441.65332 188.0
442.260986 380.0
442.369232 140.0
443.319641 160.0
443.583679 180.0
443.694824 132.0
443.805878 156.0
443.898132 200.0
444.267212 164.0
445.136047 152.0
445.288422 356.0
445.858582 160.0
446.21463 108.0
446.286621 156.0
447.050262 144.0
447.32312 232.0
448.029785 184.0
448.830597 128.0
449.176422 252.0
451.086639 164.0
451.469818 172.0
452.083252 148.0
452.260986 152.0
454.242737 216.0
455.139557 176.0
455.279694 160.0
456.132294 140.0
456.266632 116.0
458.15506 156.0
458.284668 340.0
458.406433 144.0
461.313019 168.0
461.625122 144.0
462.189758 172.0
462.313873 240.0
463.785889 148.0
464.82074 156.0
464.966644 192.0
465.218933 160.0
466.444183 160.0
466.851135 184.0
467.003174 152.0
467.237122 488.0
468.246735 268.0
468.48822 176.0
469.256317 620.0
469.777191 156.0
470.253235 652.0
470.437439 176.0
471.254333 464.0
471.326111 116.0
472.250916 484.0
473.057129 152.0
473.262878 144.0
473.41217 140.0
473.711029 156.0
473.802002 168.0
474.135651 224.0
475.291321 116.0
475.401978 168.0
475.994904 116.0
476.216278 248.0
478.884369 144.0
479.362457 152.0
479.41153 184.0
481.012207 140.0
481.245392 136.0
481.409515 184.0
482.899811 144.0
483.499176 140.0
484.138367 156.0
484.27594 156.0
484.313538 140.0
485.107483 108.0
485.26825 176.0
485.325897 148.0
486.265686 104.0
486.49292 156.0
486.87204 112.0
487.274628 188.0
487.705292 188.0
488.017426 172.0
488.279877 240.0
488.894684 148.0
490.312744 200.0
490.447479 144.0
491.753052 140.0
492.335815 144.0
492.640594 148.0
493.375214 120.0
493.564301 212.0
493.621277 140.0
493.847351 144.0
494.408264 168.0
495.542816 184.0
496.034729 152.0
496.893036 192.0
496.934998 188.0
497.094727 144.0
497.527435 196.0
498.222504 152.0
498.266937 164.0
498.298035 196.0
498.619324 252.0
498.657959 156.0
499.018036 208.0
499.266418 1628.0
499.533905 180.0
500.27066 292.0
500.855957 168.0
501.269501 184.0
501.945404 124.0
502.202057 148.0
502.277039 1368.0
503.287903 412.0
503.38028 140.0
503.493469 104.0
504.18219 164.0
504.283325 284.0
505.270935 140.0
505.785583 140.0
505.991486 228.0
506.504303 148.0
507.860168 220.0
507.985748 156.0
508.102386 156.0
509.173859 148.0
509.426056 132.0
509.487579 132.0
509.760956 156.0
510.233093 112.0
510.263245 164.0
510.7966 180.0
511.540283 152.0
511.661835 144.0
512.103149 172.0
512.267639 728.0
512.328369 140.0
513.962219 168.0
515.147888 156.0
515.249023 188.0
515.746521 100.0
516.056274 188.0
516.2948 2288.0
516.675842 188.0
516.987671 136.0
517.296875 1648.0
517.364563 160.0
517.816589 144.0
518.052124 148.0
518.224243 232.0
518.286743 364.0
518.865723 204.0
518.931335 168.0
519.286926 476.0
519.959595 128.0
520.047302 144.0
520.312744 224.0
520.441345 128.0
521.246216 168.0
521.301453 128.0
522.956177 176.0
524.594727 100.0
525.407776 160.0
525.544617 364.0
526.206421 176.0
526.628174 108.0
527.243347 140.0
527.874207 160.0
527.945435 200.0
528.290588 124.0
528.41394 140.0
528.661011 176.0
529.06842 144.0
529.448425 156.0
530.887451 200.0
531.295654 164.0
532.123962 124.0
532.392639 164.0
532.427185 176.0
532.746338 212.0
532.978699 120.0
533.124023 260.0
533.212097 100.0
533.292969 96.0
533.328186 136.0
533.533997 152.0
533.719666 164.0
534.116211 184.0
534.153015 156.0
534.212219 256.0
534.307068 22004.0
534.445129 136.0
534.716492 208.0
535.051636 160.0
535.130432 156.0
535.222046 184.0
535.310059 8984.0
535.463135 156.0
535.692444 168.0
535.956482 168.0
536.145508 100.0
536.240417 100.0
536.313599 2012.0
536.556885 148.0
536.656372 104.0
536.916565 144.0
537.315613 512.0
537.51825 140.0
538.079346 192.0
538.321655 140.0
538.471863 148.0
538.557678 132.0
539.839844 160.0
540.222656 144.0
540.726074 148.0
540.839172 188.0
541.580017 192.0
542.0271 148.0
542.149841 148.0
542.270447 332.0
542.357117 316.0
542.857605 108.0
543.026062 152.0
543.291321 396.0
543.568848 224.0
543.603516 96.0
544.149048 280.0
544.286743 964.0
544.454529 168.0
544.57074 104.0
545.147705 176.0
545.288391 564.0
545.552124 168.0
546.285522 192.0
547.00116 140.0
549.319458 140.0
549.862671 172.0
550.35083 140.0
550.598328 160.0
550.69281 140.0
550.871826 120.0
551.415955 224.0
551.517273 232.0
551.659668 176.0
551.780579 160.0
552.032898 140.0
552.132202 160.0
552.531067 136.0
552.81427 160.0
554.016846 124.0
554.125366 180.0
554.195618 144.0
554.405762 124.0
554.945557 140.0
555.043579 128.0
555.253113 136.0
555.400452 144.0
555.537781 156.0
555.643494 148.0
556.344543 208.0
556.522034 144.0
556.681702 144.0
557.432861 116.0
558.468079 156.0
558.725464 216.0
559.356934 176.0
559.587585 148.0
559.895508 124.0
560.295227 164.0
560.351196 124.0
560.707031 112.0
560.930237 152.0
561.463379 180.0
562.246155 204.0
564.185608 116.0
565.077576 160.0
565.302063 220.0
565.941772 156.0
566.149231 136.0
566.208008 192.0
566.875977 140.0
567.776672 208.0
568.146667 156.0
568.190063 132.0
568.298462 276.0
568.333801 100.0
569.000916 176.0
569.200317 148.0
569.274658 168.0
569.685974 144.0
569.808289 156.0
570.079163 148.0
570.473633 156.0
570.578247 136.0
570.705688 108.0
570.763672 180.0
571.250061 172.0
571.567505 168.0
571.891113 152.0
572.067261 156.0
572.110107 208.0
572.606384 160.0
572.964478 140.0
574.004517 120.0
574.297302 176.0
574.904297 140.0
574.9505 128.0
576.58905 184.0
577.728455 96.0
577.826355 124.0
577.899292 164.0
578.253418 212.0
578.775208 148.0
579.024231 148.0
579.59906 160.0
579.748535 152.0
579.886597 164.0
580.169434 148.0
580.3302 304.0
581.30896 208.0
582.938843 188.0
582.972534 140.0
583.393005 108.0
583.640686 148.0
583.741638 176.0
585.390869 116.0
585.86792 152.0
586.145813 144.0
586.365356 164.0
587.798279 124.0
588.14032 160.0
588.380859 96.0
588.51239 152.0
588.831238 180.0
589.011658 108.0
589.647217 252.0
590.009766 152.0
590.30957 140.0
590.710327 152.0
590.749695 156.0
591.320618 172.0
592.211548 196.0
592.713013 104.0
592.918884 168.0
593.219666 156.0
593.31189 120.0
593.417236 124.0
593.689697 172.0
594.419556 120.0
594.533813 140.0
594.69397 140.0
595.145447 176.0
595.232849 172.0
596.445496 160.0
596.593262 156.0
597.536743 184.0
597.572815 148.0
597.789795 176.0
597.843323 144.0
598.286255 144.0
598.753723 148.0
599.285278 100.0
599.357727 156.0
599.494202 236.0
599.664795 144.0
600.030396 160.0
600.649719 144.0
600.699646 152.0
600.773804 120.0
600.924805 144.0
600.966125 116.0
601.098572 172.0
601.355103 244.0
601.698914 144.0
601.737976 196.0
602.768555 164.0
602.816284 220.0
603.35022 156.0
603.452881 140.0
603.5849 152.0
603.716919 152.0
604.1297 196.0
604.65625 140.0
605.023376 192.0
605.337646 128.0
605.429749 176.0
606.382507 96.0
606.795105 144.0
607.908203 168.0
608.288208 152.0
608.72522 164.0
609.311157 132.0
611.547363 152.0
612.352966 2300.0
612.706238 204.0
613.356079 1352.0
613.497253 112.0
613.594543 212.0
613.990845 188.0
614.355774 264.0
614.530457 144.0
614.696289 152.0
615.266541 112.0
615.52063 168.0
615.85675 136.0
616.008301 212.0
616.177551 168.0
616.320862 184.0
616.562988 192.0
617.321533 144.0
618.078918 216.0
618.2453 172.0
618.580994 184.0
618.813721 244.0
619.006775 148.0
619.363831 120.0
620.275146 140.0
620.896606 104.0
621.338379 112.0
621.395935 148.0
621.445496 168.0
621.882202 140.0
623.662659 112.0
623.870056 124.0
624.127686 148.0
624.291809 156.0
624.51062 140.0
624.553528 196.0
625.172302 240.0
625.331543 160.0
625.802002 108.0
626.330139 192.0
627.363892 156.0
627.531006 168.0
627.737793 164.0
628.601562 132.0
628.824097 220.0
629.025024 152.0
629.372253 552.0
629.709106 180.0
630.118713 180.0
630.377563 212.0
630.733398 144.0
630.911133 108.0
630.988342 148.0
631.378357 208.0
631.683472 176.0
632.143799 144.0
632.226196 152.0
632.464355 136.0
632.619263 204.0
632.857117 164.0
633.069885 204.0
633.831299 156.0
634.369934 112.0
634.61322 200.0
635.255188 152.0
635.325378 192.0
635.490967 144.0
636.078125 140.0
636.652527 168.0
636.730835 144.0
636.850159 128.0
637.494446 208.0
637.542725 132.0
638.429504 188.0
638.729675 212.0
639.036377 168.0
639.204224 148.0
639.269653 188.0
639.716187 148.0
640.843262 184.0
641.035034 96.0
641.289185 184.0
641.480713 232.0
641.611206 144.0
642.168396 160.0
642.791992 164.0
643.019104 164.0
643.891785 136.0
644.463379 144.0
644.525757 140.0
645.768738 148.0
646.297058 128.0
646.574951 176.0
646.784363 140.0
646.854126 180.0
647.083313 228.0
647.486572 148.0
648.010132 288.0
648.263489 144.0
648.496643 324.0
648.682556 100.0
649.622864 120.0
649.733948 160.0
650.165405 120.0
650.28479 152.0
650.383484 184.0
650.786133 188.0
651.043518 156.0
651.145081 156.0
651.861389 140.0
652.430664 168.0
652.552673 188.0
653.575928 108.0
653.771484 124.0
654.181152 128.0
654.307922 180.0
654.725464 144.0
654.949585 184.0
655.016846 136.0
655.066711 156.0
655.117981 192.0
655.349731 464.0
655.45459 176.0
655.499756 144.0
655.819031 116.0
656.249084 164.0
656.359558 252.0
656.450806 156.0
656.759033 172.0
656.998779 156.0
657.321777 144.0
657.417175 204.0
657.536865 204.0
657.847473 144.0
658.239075 140.0
658.329956 164.0
658.596558 240.0
659.000122 172.0
659.245422 208.0
660.275391 260.0
660.585876 116.0
660.666809 152.0
661.301331 156.0
661.552124 196.0
661.982239 164.0
662.385498 120.0
662.426636 112.0
663.237122 116.0
664.170654 172.0
664.427185 192.0
664.497253 180.0
665.93634 144.0
666.248535 144.0
666.328369 188.0
666.570679 116.0
666.758362 148.0
666.80072 156.0
667.436951 148.0
667.644958 112.0
667.932434 128.0
668.419434 160.0
668.562622 144.0
668.874756 176.0
669.163391 124.0
669.266357 176.0
669.456848 284.0
669.788879 144.0
670.31842 168.0
670.405334 136.0
670.597839 148.0
671.25769 184.0
671.688232 100.0
671.763123 144.0
672.195312 132.0
672.397827 140.0
672.679932 128.0
673.082397 156.0
673.372131 1200.0
674.114868 212.0
674.308716 160.0
674.371582 720.0
674.538879 160.0
674.613708 152.0
674.824341 124.0
675.101074 144.0
675.383606 316.0
675.723694 128.0
676.900574 144.0
677.035217 164.0
677.879578 164.0
678.232056 156.0
678.356445 140.0
678.496399 172.0
678.591614 164.0
679.030518 144.0
679.320068 156.0
679.699707 156.0
679.82428 180.0
679.943604 172.0
680.507568 144.0
680.548096 160.0
680.66803 140.0
680.902161 160.0
681.07666 196.0
681.158569 152.0
681.252075 212.0
681.509155 104.0
681.598938 116.0
681.672974 160.0
681.735291 140.0
682.148682 104.0
682.307068 140.0
682.55127 112.0
682.920654 296.0
683.309692 168.0
683.396179 116.0
683.509094 152.0
684.859314 124.0
684.908997 180.0
685.152161 180.0
685.393494 164.0
685.890686 212.0
686.029358 160.0
686.133606 140.0
686.394287 144.0
686.973267 164.0
687.009766 148.0
687.15741 128.0
687.213196 188.0
687.38739 6404.0
687.609802 240.0
687.977234 124.0
688.204895 176.0
688.389771 2324.0
688.609619 128.0
688.768066 96.0
689.178101 224.0
689.396179 476.0
689.770264 184.0
690.139404 132.0
690.392883 284.0
690.78363 172.0
691.096863 148.0
691.385864 152.0
691.50354 164.0
691.544189 136.0
691.653687 240.0
691.880432 144.0
691.952148 148.0
692.514038 156.0
692.906616 152.0
693.219482 128.0
693.492493 112.0
693.918396 180.0
694.175354 196.0
694.258179 140.0
694.619385 108.0
694.825745 256.0
695.061707 128.0
695.325562 156.0
695.564087 172.0
695.611145 128.0
696.00824 160.0
696.739624 172.0
696.87793 128.0
697.00238 140.0
697.150635 104.0
697.298096 144.0
697.430359 172.0
697.494995 116.0
697.583008 112.0
697.664062 220.0
697.730042 196.0
697.765747 144.0
697.809875 104.0
698.045471 156.0
698.31897 180.0
698.450439 196.0
698.701416 164.0
698.797668 280.0
698.873474 108.0
699.073486 160.0
699.511963 144.0
699.585693 208.0
699.650391 180.0
699.774231 204.0
699.964844 212.0
700.059082 112.0
700.138 120.0
700.332458 176.0
700.377808 272.0
700.473816 144.0
700.531128 136.0
700.596497 156.0
700.704163 176.0
700.757812 124.0
700.874695 172.0
700.992737 324.0
701.10083 124.0
701.263123 192.0
701.324341 132.0
701.392395 144.0
701.457703 156.0
701.517273 120.0
701.556519 200.0
701.573608 156.0
701.666443 120.0
701.761353 188.0
701.875 132.0
701.97522 272.0
702.076416 152.0
702.154785 424.0
702.247253 100.0
702.297546 248.0
702.346313 100.0
702.481873 152.0
702.6828 372.0
702.763916 364.0
702.862549 224.0
702.944153 172.0
703.11499 372.0
703.187195 416.0
703.325684 332.0
703.387817 292.0
703.480225 292.0
703.534851 272.0
703.624023 136.0
703.661682 232.0
703.73053 284.0
703.778198 204.0
703.788025 160.0
703.847839 176.0
703.911926 420.0
703.95282 240.0
704.015137 104.0
704.059998 260.0
704.119934 516.0
704.194031 588.0
704.309814 384.0
704.357239 260.0
704.398865 340.0
704.496704 448.0
704.564819 320.0
704.703369 156.0
704.769165 636.0
704.878784 540.0
704.92926 468.0
704.988647 464.0
705.064819 624.0
705.129333 472.0
705.183899 676.0
705.260986 1272.0
705.32489 1192.0
705.399414 237876.0
705.602478 208.0
705.681274 164.0
705.766479 380.0
705.81134 180.0
705.891296 552.0
705.944214 608.0
705.968994 400.0
705.991455 572.0
706.007324 436.0
706.028015 392.0
706.098328 392.0
706.115967 340.0
706.196899 576.0
706.276978 6596.0
706.402466 204780.0
706.73053 412.0
706.767517 340.0
706.876221 476.0
707.026794 260.0
707.087585 256.0
707.10968 236.0
707.201172 680.0
707.274048 1344.0
707.40387 58952.0
707.542908 228.0
707.603394 264.0
707.684082 376.0
707.769043 312.0
707.812195 188.0
707.939819 180.0
707.983948 168.0
708.101807 120.0
708.166931 224.0
708.235046 208.0
708.286926 208.0
708.405151 8024.0
708.516174 440.0
708.553772 212.0
708.608826 164.0
708.645752 276.0
708.75885 232.0
708.839844 236.0
708.926453 116.0
708.976868 136.0
709.024841 132.0
709.097656 212.0
709.294373 220.0
709.404114 1072.0
709.533508 280.0
709.745117 340.0
709.817017 336.0
709.905212 236.0
709.963501 104.0
709.977173 260.0
710.023438 440.0
710.083496 256.0
710.124207 352.0
710.17926 176.0
710.214172 340.0
710.268677 296.0
710.307312 268.0
710.358459 456.0
710.392883 208.0
710.552917 200.0
710.611694 168.0
710.662109 132.0
710.699524 260.0
710.752625 244.0
710.909973 308.0
711.056946 160.0
711.114929 136.0
711.231079 236.0
711.299316 212.0
711.342834 300.0
711.64679 276.0
711.729431 124.0
711.80835 152.0
712.015381 100.0
712.114868 136.0
712.155273 156.0
712.343384 108.0
712.461182 96.0
712.829529 140.0
712.892883 140.0
713.047119 128.0
713.374634 100.0
715.114502 112.0
715.985718 160.0
717.248474 144.0
722.575867 100.0
723.365112 96.0
726.513794 112.0
726.683533 136.0
728.374878 96.0
730.224915 100.0
731.238464 136.0
731.719849 128.0
733.21405 152.0
736.359802 148.0
760.519653 144.0
764.922546 164.0
768.620667 144.0
773.982361 140.0
782.479126 100.0
790.022766 140.0
804.606506 168.0
816.488953 148.0
827.945129 120.0
848.978271 144.0
871.458008 156.0
873.497986 148.0
884.633301 144.0
888.402283 204.0
909.352844 144.0
970.008728 96.0
1009.100342 140.0
1020.407043 116.0
1047.535889 112.0
1048.593384 128.0
1056.856201 168.0
1078.852295 160.0
1113.107788 144.0
1143.189819 144.0
1149.767212 160.0
1163.182251 188.0
1165.516357 116.0
1165.620483 160.0
1170.797363 176.0
1172.473267 212.0
1174.361816 184.0
1200.781738 144.0
1207.27356 148.0
1212.507324 200.0
1213.789795 140.0
1215.57251 164.0
1231.864624 196.0
1239.259399 224.0
1247.182495 172.0
1251.755371 148.0
1257.317505 188.0
1265.425415 168.0
1273.133179 220.0
1274.710205 184.0
1282.888184 144.0
1294.31958 148.0
1301.145264 204.0
1308.154541 184.0
1316.547241 148.0
1318.483398 176.0
1320.326904 164.0
1324.879761 192.0
1330.013916 172.0
1332.039795 180.0
1333.149414 164.0
1338.85498 144.0
1346.198608 232.0
1351.381104 164.0
1353.14502 188.0
1354.572998 164.0
1357.592773 140.0
1358.150146 148.0
1361.203125 196.0
1361.621704 144.0
1372.004272 176.0
1374.947388 156.0
1375.294312 144.0
1375.781494 168.0
1383.00354 172.0
1387.563354 116.0
1391.135132 140.0
1397.787109 224.0
1398.672729 156.0
1407.592285 112.0
1409.636108 204.0
1410.473145 152.0
1413.861328 164.0
1415.021606 168.0
1419.007446 152.0
1419.959717 140.0
1421.054932 164.0
1422.803711 192.0
1424.613525 188.0
1425.049316 200.0
1425.372437 156.0
1425.470093 164.0
1426.442993 128.0
1426.973389 144.0
1427.484619 180.0
1434.132446 144.0
1436.552856 220.0
1442.79834 156.0
1444.008179 156.0
1444.469482 208.0
1448.148193 240.0
1448.216309 180.0
1449.860474 192.0
1452.005981 164.0
1453.303101 208.0
1455.640991 208.0
1456.339722 152.0
1458.794067 168.0
1461.273315 144.0
1461.417847 208.0
1463.01355 212.0
1463.22168 164.0
1463.777588 176.0
1463.830811 208.0
1464.226807 176.0
1470.325928 152.0
1470.71521 196.0
1471.44812 216.0
1473.418457 188.0
1474.343018 180.0
1475.33667 172.0
1478.227905 196.0
1480.547485 156.0
1483.129395 192.0
1484.831543 188.0
1485.061646 156.0
1485.55249 140.0
1485.736694 180.0
1486.296753 196.0
1487.087158 156.0
1489.11792 176.0
1492.011108 168.0
1494.018311 208.0
1495.064697 176.0
1499.793701 204.0
1501.181396 152.0
1501.2948 176.0
1504.182617 164.0
1504.499146 216.0
1504.738525 144.0
1505.981812 188.0
1507.928833 228.0
1510.673828 180.0
1511.199829 184.0
1512.043335 216.0
1513.03418 228.0
1514.877319 140.0
1516.403687 140.0
1517.295166 172.0
1519.09436 156.0
1519.924438 156.0
1529.639282 172.0
1530.480103 184.0
1532.292114 112.0
1533.066284 184.0
1533.40918 192.0
1536.387939 144.0
1537.0979 168.0
1538.47937 228.0
1538.940063 212.0
1543.495361 228.0
1546.241211 220.0
1553.645996 200.0
1553.7323 196.0
1554.140259 216.0
1554.666016 168.0
1554.846558 172.0
1556.259521 160.0
1556.950562 172.0
1559.079468 188.0
1559.378174 156.0
1561.697632 232.0
1562.728149 216.0
1563.0271 184.0
1563.396973 140.0
1566.255005 176.0
1566.696167 184.0
1567.484009 252.0
1567.94104 152.0
1568.689819 176.0
1569.036743 176.0
1569.155029 148.0
1569.285767 156.0
1570.826904 164.0
1571.142456 216.0
1571.237061 144.0
1575.937378 168.0
1585.906006 152.0
1586.215088 184.0
1586.563965 172.0
1589.921875 196.0
1591.895874 176.0
1592.491455 168.0
1593.810181 144.0
1595.443726 176.0
1596.083496 192.0
1597.507202 152.0
1598.589233 152.0
1600.184204 156.0
1601.15271 188.0
1602.522827 184.0
1605.153198 192.0
1606.868042 148.0
1607.275024 148.0
1608.511963 148.0
1609.797485 152.0
1611.163208 140.0
1611.235107 160.0
1611.450928 192.0
1613.04126 156.0
1615.904175 160.0
1618.577515 188.0
1622.431396 204.0
1622.896362 204.0
1625.695923 152.0
1625.792236 168.0
1631.133301 176.0
1636.885742 236.0
1639.407227 192.0
1640.559814 164.0
1643.14856 152.0
1643.99585 196.0
1645.642456 148.0
1647.895874 148.0
1649.682007 152.0
1650.838135 244.0
1651.19397 224.0
1651.671265 144.0
1652.836182 236.0
1653.904541 180.0
1655.424072 160.0
1655.71814 192.0
1657.524536 160.0
1658.780762 148.0
1658.84375 148.0
1659.623657 248.0
1660.207764 192.0
1662.170898 240.0
1663.282837 152.0
1665.072388 188.0
1665.385864 144.0
1665.747192 164.0
1666.276489 168.0
1667.530762 196.0
1667.937134 152.0
1668.205444 164.0
1668.994019 160.0
1672.573608 148.0
1672.996948 160.0
1674.413818 156.0
1675.024658 148.0
1676.346802 172.0
1676.564575 172.0
1677.012817 204.0
1678.961426 168.0
1680.448975 200.0
1681.645508 196.0
1681.833252 180.0
1682.024536 132.0
1684.617798 140.0
1685.05896 168.0
1685.238647 140.0
1685.461914 124.0
1685.83374 136.0
1691.919678 196.0
1693.378174 204.0
1694.762695 148.0
1695.196899 200.0
1696.483765 288.0
1698.312378 160.0
1698.459961 280.0
1699.460815 188.0
1700.724609 196.0
1701.085815 152.0
1702.391235 188.0
1702.958008 164.0
1703.881592 120.0
1703.987793 168.0
1704.296997 140.0
1705.340698 144.0
1705.573364 204.0
1706.483398 228.0
1706.919189 156.0
1707.192139 204.0
1708.893555 168.0
1710.514404 152.0
1712.29834 184.0
1714.723389 176.0
1715.193237 140.0
1715.588867 148.0
1716.339111 176.0
1716.809204 140.0
1717.683472 160.0
1718.879761 228.0
1719.515259 196.0
1722.190308 180.0
1722.486572 216.0
1724.222778 176.0
1725.710693 188.0
1725.768555 352.0
1725.952881 112.0
1726.396973 164.0
1726.612061 140.0
1726.959473 180.0
1729.541016 140.0
1730.170044 156.0
1730.286011 168.0
1730.410156 156.0
1731.03125 180.0
1731.859375 204.0
1732.323242 160.0
1734.328491 164.0
1734.933716 188.0
1735.94519 144.0
1738.060425 160.0
1740.060791 188.0
1740.66687 140.0
1741.168701 192.0
1742.703369 264.0
1742.976196 164.0
1743.657593 192.0
1745.128906 148.0
1745.328491 172.0
1745.636108 224.0
1745.775146 196.0
1746.725708 232.0
1747.316284 164.0
1748.61438 176.0
1749.305298 140.0
1750.795654 168.0
1750.970581 144.0
1751.545288 140.0
1753.186646 156.0
1756.621826 212.0
1756.93042 164.0
1757.965088 188.0
1759.935059 196.0
1760.310791 208.0
1760.452759 152.0
1760.628174 164.0
1760.694946 192.0
1760.962158 140.0
1761.179321 144.0
1762.75 160.0
1762.816895 192.0
1763.023804 100.0
1763.669312 144.0
1763.777954 196.0
1763.970215 196.0
1764.940063 176.0
1767.616821 204.0
1768.319702 192.0
1768.420166 204.0
1769.910278 204.0
1773.906616 156.0
1775.944214 156.0
1777.177368 168.0
1777.479492 172.0
1778.503418 168.0
1778.662842 204.0
1780.039795 184.0
1782.131226 164.0
1782.795044 148.0
1783.551514 172.0
1784.067017 220.0
1784.669678 144.0
1786.452637 152.0
1788.783569 152.0
1789.923096 112.0
1790.265381 232.0
1790.884399 168.0
1791.107666 216.0
1791.250854 172.0
1792.54834 144.0
1793.332153 208.0
1794.158203 216.0
1795.13623 204.0
1796.485718 148.0
1797.304199 208.0
1799.532471 160.0
1799.912354 148.0
1801.010254 200.0
1801.787476 156.0
1802.289795 208.0
1802.843628 184.0
1805.772217 180.0
1806.174805 180.0
1807.088501 168.0
1807.215332 180.0
1808.180054 164.0
1808.603271 160.0
1809.136597 176.0
1809.280518 168.0
1810.321899 176.0
1811.931274 180.0
1812.854858 244.0
1815.745728 144.0
1815.932373 176.0
1816.101929 156.0
1817.527222 148.0
1818.706909 152.0
1819.827393 188.0
1820.302979 200.0
1822.265015 192.0
1824.041138 140.0
1824.321655 188.0
1825.171875 152.0
1826.295288 208.0
1826.958008 200.0
1827.723755 152.0
1828.135498 144.0
1828.566162 196.0
1830.422119 184.0
1830.651978 204.0
1831.478149 176.0
1832.023315 148.0
1835.159546 140.0
1836.225586 244.0
1836.609375 144.0
1836.848145 256.0
1837.377075 160.0
1837.880493 192.0
1839.254517 148.0
1840.116699 160.0
1842.584961 164.0
1842.73877 224.0
1842.858398 172.0
1843.008789 152.0
1843.201538 188.0
1844.140137 148.0
1844.319702 172.0
1845.824341 188.0
1845.909912 164.0
1846.559814 212.0
1847.458008 156.0
1847.543457 148.0
1848.57019 164.0
1849.126465 244.0
1849.473633 152.0
1849.622925 160.0
1850.393433 196.0
1853.039917 168.0
1856.272949 164.0
1856.547363 188.0
1856.640015 152.0
1857.969604 188.0
1858.994751 176.0
1859.74585 184.0
1864.392334 200.0
1864.96814 236.0
1865.497681 208.0
1866.128662 160.0
1867.263794 192.0
1869.856445 204.0
1870.447266 200.0
1870.533447 208.0
1872.642944 188.0
1872.832397 156.0
1873.116699 156.0
1874.064331 180.0
1874.167725 192.0
1874.512451 156.0
1874.92041 140.0
1876.839844 216.0
1878.064331 144.0
1878.284302 188.0
1878.685425 168.0
1879.565552 172.0
1880.747803 148.0
1881.42981 260.0
1881.585205 148.0
1882.060059 220.0
1884.366211 172.0
1884.745483 204.0
1885.100586 152.0
1886.115845 164.0
1887.849609 152.0
1888.304321 160.0
1888.42041 184.0
1889.198975 200.0
1889.441162 144.0
1892.063477 148.0
1892.608887 196.0
1894.15918 156.0
1894.297729 200.0
1894.621094 160.0
1894.990845 200.0
1895.19873 228.0
1895.259399 188.0
1895.931885 160.0
1896.593994 180.0
1897.677612 152.0
1898.067871 172.0
1898.75293 152.0
1900.461792 192.0
1901.104004 160.0
1902.570801 188.0
1904.272827 204.0
1906.123169 204.0
1906.603882 192.0
1907.683594 204.0
1908.974487 144.0
1909.696289 160.0
1910.288818 164.0
1910.531372 152.0
1911.209961 192.0
1912.057129 104.0
1912.367432 196.0
1913.124146 128.0
1913.664429 148.0
1914.474243 144.0
1916.303467 176.0
1916.450195 172.0
1916.643311 144.0
1917.819824 216.0
1918.360229 184.0
1918.491089 156.0
1918.787476 228.0
1919.226196 140.0
1919.310547 168.0
1919.615845 144.0
1920.095459 172.0
1920.208862 144.0
1920.924072 168.0
1921.883667 256.0
1921.944824 180.0
1923.009521 152.0
1923.838745 168.0
1924.264771 156.0
1924.432373 144.0
1925.46582 112.0
1926.912842 176.0
1928.188599 164.0
1928.276001 164.0
1928.494507 188.0
1928.721802 196.0
1928.931519 152.0
1930.671509 188.0
1930.960083 176.0
1932.219727 168.0
1934.039917 220.0
1934.496338 172.0
1935.426025 156.0
1935.843506 184.0
1936.868408 148.0
1937.052124 152.0
1937.271118 188.0
1937.949707 128.0
1938.225586 132.0
1939.523193 164.0
1940.189331 200.0
1940.505005 176.0
1942.136108 180.0
1942.311523 144.0
1942.723877 196.0
1943.592407 176.0
1944.048706 172.0
1945.505737 168.0
1945.602295 188.0
1945.830566 224.0
1946.585693 152.0
1946.743774 168.0
1947.244385 232.0
1947.376099 188.0
1947.815308 172.0
1948.728882 236.0
1949.29126 176.0
1950.143677 144.0
1950.820557 168.0
1951.603027 164.0
1952.218506 208.0
1952.755005 164.0
1953.037109 156.0
1953.529053 152.0
1954.00415 208.0
1954.224121 192.0
1955.060059 216.0
1955.372925 356.0
1955.887329 192.0
1957.058228 172.0
1957.155151 164.0
1957.542603 168.0
1958.044556 212.0
1959.32605 148.0
1961.119385 156.0
1961.516113 172.0
1962.321899 184.0
1963.409546 212.0
1964.930176 192.0
1965.202393 144.0
1965.299438 212.0
1966.711426 164.0
1966.87915 148.0
1967.453003 232.0
1967.54126 360.0
1967.832642 168.0
1968.010986 220.0
1969.360352 184.0
1969.581177 196.0
1969.656494 132.0
1970.252563 204.0
1970.517578 236.0
1971.096802 208.0
1971.542603 140.0
1971.604492 268.0
1971.74585 184.0
1973.319336 144.0
1974.442261 236.0
1975.777954 140.0
1976.180908 236.0
1977.096313 152.0
1977.237915 164.0
1977.48584 172.0
1978.334229 132.0
1978.663086 176.0
1978.831299 200.0
1978.911011 144.0
1979.088135 140.0
1979.291748 144.0
1979.86731 140.0
1980.212769 172.0
1984.116089 160.0
1984.421997 144.0
1984.694824 252.0
1985.698853 152.0
1985.964966 156.0
1986.129272 248.0
1986.830933 148.0
1987.570068 100.0
1987.668335 164.0
1988.041016 180.0
1988.28064 168.0
1988.592041 192.0
1989.789673 148.0
1990.491089 164.0
1990.819702 168.0
1991.094971 168.0
1991.217773 168.0
1991.343628 152.0
1991.423584 196.0
1992.240845 140.0
1992.578369 208.0
1992.697266 148.0
1992.987061 156.0
1993.067017 172.0
1993.289185 168.0
1993.555786 184.0
1994.675659 152.0
1995.066772 188.0
1995.564697 196.0
1995.786987 144.0
1996.350342 168.0
1996.57251 212.0
1997.547852 212.0
1997.681274 216.0
1998.099487 188.0
1998.259644 148.0
1998.900269 144.0
2000.395508 212.0
2000.69812 200.0
2001.04541 140.0
