>compound Mycophenolate mofetil (CellCept)
>formula C23H31NO7
>ionization [M+H]+
>parentmass 434.21732878409057
#inchi InChI=1S/C23H31NO7/c1-15(5-7-19(25)30-13-10-24-8-11-29-12-9-24)4-6-17-21(26)20-18(14-31-23(20)27)16(2)22(17)28-3/h4,26H,5-14H2,1-3H3/b15-4+
#inchikey RTGDFNSFWBGLEC
#Ion_Source LC-ESI
#Instrument qTof
#Compound_Source Commercial
#PI Dorrestein
#Data_Collector Garg_Neha
#Scan -1
#Precursor_MZ 434.217
#ExactMass 433.21
#Charge 1
#CAS_Number 128794-94-5, 116680-01-4 (HCl)
#Pubmed_ID N/A
#Smiles C12=C(C(=C(C(=C1O)C/C=C(/CCC(OCCN3CCOCC3)=O)C)OC)C)COC2=O
#INCHI_AUX N/A
#Library_Class 1
#SpectrumID CCMSLIB00000078167
#IonMode Positive
#UpdateWorkflowName UPDATE-SINGLE-ANNOTATED-GOLD
#LibraryQualityString Gold
#TaskID 77f51c88eb8b467eb4a01dd2d0cb90d2
##Scan# 1133
#SpectrumFile Plate3_1_20_GG9_01_16498.mzXML
#LibraryName FDALibrary_2_04302014.mgf
#MQScore -1
#Organism FDALibrary_2_04302014
#TIC_Query 0
#RT_Query -1
#MZErrorPPM -1
#SharedPeaks 0
#MassDiff 0
#LibMZ -1
#SpecMZ 434.217
#SpecCharge 0
#internalFilename spec-00000.mgf

>collision 10
44.914822 208.0
44.9375 172.0
44.954849 188.0
45.036285 160.0
45.045639 160.0
45.124485 152.0
45.287743 140.0
45.305218 184.0
45.356079 168.0
45.407028 160.0
45.520084 148.0
45.564079 212.0
45.620304 204.0
45.677002 148.0
45.730824 152.0
45.860126 464.0
45.926193 172.0
46.050453 192.0
46.077385 156.0
46.093597 164.0
46.342564 152.0
46.434746 144.0
46.481461 180.0
46.6096 144.0
46.638405 204.0
46.650639 148.0
46.688709 148.0
46.909283 184.0
46.963825 164.0
47.083931 228.0
47.263008 180.0
47.302696 156.0
47.335556 148.0
47.349419 160.0
47.407715 148.0
47.553532 216.0
47.578697 144.0
47.644157 164.0
47.668095 200.0
47.741749 180.0
47.75275 248.0
47.780262 176.0
47.878113 224.0
47.908295 196.0
48.03236 172.0
48.116539 212.0
48.188354 176.0
48.333534 168.0
48.349613 252.0
48.362598 204.0
48.423519 168.0
48.527451 160.0
48.707859 188.0
48.732948 132.0
48.750927 144.0
49.03344 148.0
49.05574 212.0
49.150578 152.0
49.172909 172.0
49.206409 160.0
49.303951 188.0
49.360104 152.0
49.495834 180.0
49.547333 156.0
49.588295 152.0
49.693466 168.0
49.784706 160.0
49.87603 152.0
49.909767 144.0
49.925236 144.0
50.055252 204.0
50.122314 148.0
50.133587 156.0
50.24921 168.0
50.357815 124.0
50.369205 148.0
50.502071 228.0
50.535618 140.0
50.547344 184.0
50.565742 176.0
50.813721 152.0
50.882225 180.0
50.948593 148.0
50.982391 224.0
51.130596 172.0
51.33289 172.0
51.428474 172.0
51.491295 184.0
51.558445 192.0
51.664253 296.0
51.678558 144.0
51.694298 156.0
51.715767 144.0
51.97221 148.0
51.993469 268.0
52.082829 176.0
52.120182 188.0
52.268284 196.0
52.308582 264.0
52.361656 172.0
52.397869 212.0
52.532921 188.0
52.638889 120.0
52.664738 216.0
52.813671 104.0
52.874382 232.0
52.93663 188.0
53.0308 188.0
53.082989 172.0
53.117798 180.0
53.154007 192.0
53.187447 160.0
53.252789 168.0
53.271671 212.0
53.386494 172.0
53.648621 136.0
53.800293 180.0
53.864548 160.0
53.955151 148.0
54.041443 140.0
54.059002 192.0
54.078026 208.0
54.190784 168.0
54.245007 204.0
54.341801 168.0
54.391544 196.0
54.413715 152.0
54.493027 164.0
54.50478 164.0
54.578274 224.0
54.678101 172.0
54.693024 148.0
54.732773 188.0
54.790215 188.0
54.812313 184.0
54.840317 196.0
54.908134 224.0
55.051285 140.0
55.299656 164.0
55.435905 184.0
55.452209 164.0
55.462585 192.0
55.521889 168.0
55.539688 144.0
55.584152 144.0
55.732681 192.0
55.848637 176.0
56.012371 192.0
56.112217 156.0
56.134583 188.0
56.253941 200.0
56.312172 156.0
56.345036 176.0
56.676853 192.0
56.70866 184.0
56.767128 148.0
56.905174 232.0
57.031139 180.0
57.085484 148.0
57.193806 196.0
57.222408 216.0
57.339348 192.0
57.398697 184.0
57.424335 168.0
57.525429 204.0
57.535995 176.0
57.66288 160.0
57.723351 164.0
57.933731 236.0
57.948612 220.0
58.159672 184.0
58.193069 156.0
58.321392 184.0
58.387573 224.0
58.433208 144.0
58.509304 176.0
58.626587 172.0
58.663166 176.0
58.698235 172.0
58.710434 164.0
58.780876 180.0
58.958607 228.0
58.99749 172.0
59.014305 144.0
59.043362 164.0
59.089767 196.0
59.124443 164.0
59.325096 200.0
59.338894 140.0
59.423553 180.0
59.438591 140.0
59.556084 132.0
59.634354 160.0
59.647457 140.0
59.695122 172.0
59.715111 168.0
59.919846 228.0
59.932171 148.0
60.023113 180.0
60.053955 164.0
60.112579 148.0
60.126469 264.0
60.184917 116.0
60.198158 228.0
60.381386 152.0
60.4132 260.0
60.486599 168.0
60.5284 156.0
60.599648 148.0
60.765545 164.0
60.993828 144.0
61.012482 304.0
61.241226 160.0
61.395519 180.0
61.459476 148.0
61.519146 260.0
61.617893 156.0
61.656235 168.0
61.80479 140.0
61.873657 164.0
61.892445 168.0
61.936298 164.0
62.013073 148.0
62.129936 212.0
62.184402 184.0
62.506729 140.0
62.714073 160.0
62.88599 172.0
63.094227 160.0
63.209965 148.0
63.247948 208.0
63.274391 108.0
63.55381 192.0
63.790699 176.0
63.828602 192.0
63.90654 192.0
63.93288 284.0
64.18528 176.0
64.274605 172.0
64.334633 112.0
64.375175 156.0
64.459839 184.0
64.618134 176.0
64.66185 212.0
64.714165 184.0
64.779137 316.0
64.802254 148.0
64.983429 164.0
65.034782 152.0
65.446327 172.0
65.557472 152.0
65.873314 176.0
65.909645 148.0
66.096817 148.0
66.160622 236.0
66.529556 160.0
66.592888 368.0
66.672493 168.0
66.683876 156.0
66.729385 224.0
66.754547 152.0
66.842957 200.0
66.918121 144.0
67.017471 232.0
67.110374 144.0
67.310471 228.0
67.358437 196.0
67.520248 196.0
67.590591 180.0
67.726471 212.0
67.808395 192.0
67.967712 156.0
68.087303 212.0
68.130005 164.0
68.230255 160.0
68.508171 156.0
68.559456 156.0
68.585831 184.0
68.622093 156.0
68.750755 148.0
68.796974 160.0
68.907623 192.0
69.043167 188.0
69.104507 192.0
69.125877 180.0
69.180069 200.0
69.22686 180.0
69.296425 176.0
69.314651 140.0
69.331223 332.0
69.501083 316.0
69.52858 188.0
69.665825 164.0
69.694283 188.0
69.882515 148.0
70.035385 208.0
70.067322 140.0
70.114403 140.0
70.254044 140.0
70.449165 140.0
70.510201 164.0
70.63324 252.0
70.742004 184.0
70.862587 152.0
71.016808 168.0
71.03862 208.0
71.161095 184.0
71.497314 144.0
71.553017 220.0
71.618538 152.0
71.806526 164.0
71.841629 220.0
71.868042 152.0
72.248177 228.0
72.310783 152.0
72.353104 152.0
72.771873 176.0
72.792244 172.0
72.827911 164.0
72.842087 232.0
72.943459 180.0
72.975754 188.0
73.043785 172.0
73.12957 212.0
73.239532 188.0
73.278709 144.0
73.294044 180.0
73.377563 196.0
73.415077 236.0
73.693314 168.0
73.747993 140.0
73.79586 180.0
74.29908 180.0
74.344002 188.0
74.378326 152.0
74.417809 148.0
74.463585 164.0
74.529449 200.0
74.863167 184.0
74.949295 176.0
74.980309 160.0
75.088928 152.0
75.346123 156.0
75.37204 188.0
75.410538 144.0
75.434258 144.0
75.451546 340.0
75.50515 156.0
75.582993 160.0
75.643997 144.0
75.718018 140.0
75.8237 144.0
75.867035 260.0
75.939865 212.0
75.955475 156.0
76.014465 184.0
76.115143 204.0
76.287712 220.0
76.327133 164.0
76.365395 184.0
76.381042 156.0
76.401917 148.0
76.504593 168.0
76.551605 180.0
76.577728 148.0
76.842697 144.0
76.867126 152.0
76.971855 220.0
77.021286 148.0
77.094139 168.0
77.13958 208.0
77.227005 180.0
77.279488 188.0
77.372246 176.0
77.468567 160.0
77.7313 248.0
77.781815 120.0
77.896164 196.0
77.980934 168.0
78.082909 160.0
78.11515 160.0
78.158401 188.0
78.353989 156.0
78.382179 164.0
78.530258 152.0
78.611412 144.0
78.689079 180.0
78.860168 160.0
79.124001 172.0
79.187752 160.0
79.216087 172.0
79.263924 160.0
79.286964 156.0
79.331276 160.0
79.387802 100.0
79.412842 144.0
79.535271 152.0
79.789299 168.0
79.808853 180.0
79.917351 148.0
79.986755 144.0
80.070442 144.0
80.221893 192.0
80.278954 176.0
80.412476 256.0
80.63958 156.0
80.657455 156.0
80.826981 144.0
80.969772 136.0
81.001015 180.0
81.029221 312.0
81.241226 188.0
81.27491 196.0
81.295052 196.0
81.350693 152.0
81.465118 172.0
81.483284 144.0
81.668739 148.0
81.711914 152.0
81.800095 192.0
81.89373 176.0
81.99823 180.0
82.096428 128.0
82.208206 204.0
82.265182 204.0
82.295403 168.0
82.443756 172.0
82.465683 156.0
82.577782 208.0
82.699005 140.0
82.715294 176.0
82.861977 228.0
83.053131 188.0
83.20475 148.0
83.236282 208.0
83.539833 192.0
83.579163 176.0
83.602821 208.0
83.702942 148.0
83.732079 160.0
83.843208 140.0
83.870544 156.0
83.965355 148.0
83.986206 168.0
84.07576 136.0
84.09124 180.0
84.250107 228.0
84.29213 180.0
84.341476 188.0
84.359749 188.0
84.462807 168.0
84.476791 176.0
84.533508 212.0
84.549973 164.0
84.637909 112.0
84.731255 208.0
84.793556 164.0
84.818443 180.0
85.143967 148.0
85.526398 152.0
85.791656 156.0
85.874634 200.0
86.026604 188.0
86.223572 164.0
86.276756 124.0
86.386284 148.0
86.467697 184.0
86.521378 180.0
86.569519 300.0
86.601006 180.0
86.615822 156.0
86.638054 264.0
86.695488 204.0
86.712166 152.0
86.938423 244.0
86.95327 204.0
86.966263 168.0
87.040527 152.0
87.190994 196.0
87.293243 140.0
87.350899 152.0
87.367638 172.0
87.380661 168.0
87.402992 148.0
87.476898 388.0
87.496048 172.0
87.596611 152.0
87.61702 180.0
87.67334 340.0
87.688965 176.0
87.967697 184.0
88.04425 288.0
88.062927 152.0
88.18811 184.0
88.206802 168.0
88.221756 148.0
88.255409 184.0
88.314507 312.0
88.352669 148.0
88.519249 236.0
88.641006 232.0
88.888832 148.0
88.980499 212.0
89.143913 256.0
89.239777 144.0
89.716095 176.0
89.94812 204.0
89.965111 172.0
90.061409 188.0
90.084076 168.0
90.219643 300.0
90.323051 176.0
90.351845 248.0
90.375229 192.0
90.422539 148.0
90.634628 140.0
90.687691 144.0
90.841286 196.0
90.888718 212.0
90.911484 140.0
90.957039 180.0
91.027283 196.0
91.070961 204.0
91.150757 156.0
91.268349 176.0
91.279793 204.0
91.464554 164.0
91.511658 156.0
91.69883 228.0
91.74649 188.0
91.902008 124.0
91.916687 168.0
92.097603 140.0
92.162552 248.0
92.188217 148.0
92.254288 188.0
92.275322 176.0
92.334595 144.0
92.363289 168.0
92.432159 224.0
92.575729 140.0
92.677254 144.0
92.748161 152.0
92.761581 168.0
92.77803 196.0
92.870872 168.0
92.890053 240.0
92.985992 156.0
93.07238 152.0
93.093498 160.0
93.13575 144.0
93.189545 164.0
93.334885 160.0
93.381775 152.0
93.41832 148.0
93.496315 180.0
93.560684 184.0
93.610794 236.0
93.801529 152.0
93.923012 164.0
94.139168 160.0
94.168427 160.0
94.273994 116.0
94.336662 184.0
94.401978 264.0
94.490959 196.0
94.510307 228.0
94.585777 184.0
94.855034 156.0
94.87471 184.0
95.014046 148.0
95.048973 196.0
95.081963 176.0
95.108383 124.0
95.179024 164.0
95.227577 160.0
95.264481 196.0
95.313049 156.0
95.398567 152.0
95.445229 216.0
95.470505 176.0
95.618362 164.0
95.650528 124.0
95.803345 164.0
96.08017 152.0
96.113487 160.0
96.151207 152.0
96.175789 148.0
96.226547 220.0
96.270561 172.0
96.350746 204.0
96.457062 176.0
96.752457 256.0
96.801407 192.0
96.862114 188.0
96.942444 164.0
97.020851 144.0
97.040451 148.0
97.066528 944.0
97.123283 168.0
97.347389 188.0
97.368156 160.0
97.403511 176.0
97.5597 232.0
97.592171 180.0
97.633469 160.0
97.690506 216.0
97.847946 168.0
97.880531 124.0
97.899139 164.0
97.919678 196.0
97.960197 160.0
97.977928 180.0
98.031128 176.0
98.058868 332.0
98.218422 164.0
98.27169 188.0
98.461189 188.0
98.817627 188.0
98.892197 144.0
98.945641 152.0
99.046303 352.0
99.070366 176.0
99.197235 276.0
99.242836 180.0
99.441208 156.0
99.470329 208.0
99.524582 196.0
99.5504 224.0
99.669586 148.0
99.870377 160.0
100.132736 200.0
100.168945 172.0
100.232491 152.0
100.328369 172.0
100.358826 220.0
100.547783 148.0
100.652748 220.0
100.731476 192.0
100.79541 180.0
100.841621 192.0
100.869354 152.0
101.057343 256.0
101.094131 156.0
101.360512 136.0
101.393753 172.0
101.421814 164.0
101.57309 160.0
101.588249 156.0
101.628372 216.0
101.792969 308.0
101.80703 140.0
101.930428 176.0
102.007164 164.0
102.078316 264.0
102.188766 204.0
102.206116 180.0
102.255348 164.0
102.434547 180.0
102.58165 256.0
102.61895 112.0
102.712723 168.0
102.774696 196.0
103.052872 348.0
103.126945 220.0
103.279915 140.0
103.423981 164.0
103.575836 204.0
103.643082 132.0
103.709572 144.0
103.750755 172.0
103.814995 188.0
103.844643 240.0
103.890045 160.0
104.001648 180.0
104.04834 184.0
104.135651 180.0
104.308365 144.0
104.403358 244.0
104.61039 160.0
104.629196 160.0
104.784561 196.0
104.974121 156.0
105.035309 184.0
105.120247 260.0
105.150368 144.0
105.193474 228.0
105.223053 168.0
105.344856 224.0
105.455925 164.0
105.4879 168.0
105.544106 180.0
105.588821 156.0
105.607231 176.0
105.639954 148.0
105.701332 184.0
105.727936 148.0
105.898842 140.0
106.045448 128.0
106.074081 152.0
106.279167 188.0
106.389992 144.0
106.517311 200.0
106.604019 160.0
106.893555 212.0
107.045181 212.0
107.101486 192.0
107.30439 148.0
107.324059 220.0
107.371483 188.0
107.44162 252.0
107.557182 200.0
107.60466 180.0
107.674866 180.0
107.836021 252.0
107.888329 196.0
108.015907 192.0
108.036591 176.0
108.100731 216.0
108.115219 204.0
108.241493 144.0
108.301552 228.0
108.326408 148.0
108.360031 192.0
108.382347 148.0
108.581352 204.0
108.608315 184.0
108.660179 216.0
108.707901 152.0
108.894699 188.0
108.957062 236.0
109.065979 1400.0
109.100456 164.0
109.181549 176.0
109.235626 140.0
109.300125 164.0
109.33342 176.0
109.364639 160.0
109.497887 140.0
109.539551 256.0
109.64164 188.0
109.868919 204.0
110.01709 144.0
110.06929 400.0
110.10479 196.0
110.131943 172.0
110.162109 160.0
110.267746 140.0
110.29248 144.0
110.34964 228.0
110.37854 148.0
110.434189 204.0
110.506134 176.0
110.631706 172.0
110.704987 196.0
110.802666 160.0
110.862099 168.0
110.918694 164.0
111.080803 116.0
111.147285 172.0
111.192299 152.0
111.227036 168.0
111.252228 160.0
111.26902 156.0
111.315216 176.0
111.365692 120.0
111.606956 232.0
111.695618 200.0
111.718758 232.0
111.783981 236.0
111.798714 160.0
111.838699 144.0
111.92186 304.0
112.076004 176.0
112.147102 152.0
112.182053 160.0
112.23687 216.0
112.348648 184.0
112.390846 176.0
112.772141 200.0
112.868713 236.0
113.002396 236.0
113.022629 168.0
113.06208 180.0
113.088226 196.0
113.185608 196.0
113.263969 176.0
113.293625 144.0
113.37738 152.0
113.450447 156.0
113.531021 140.0
113.561035 132.0
113.62011 200.0
113.672195 204.0
113.688171 152.0
113.718384 128.0
113.791557 172.0
113.851845 168.0
113.881203 332.0
113.898682 140.0
113.973686 164.0
113.999878 140.0
114.032242 220.0
114.061058 348.0
114.092903 131092.0
114.188492 156.0
114.254211 144.0
114.312576 236.0
114.44191 1080.0
114.548462 112.0
114.585976 148.0
114.638664 112.0
114.738144 96.0
114.763908 168.0
114.857368 188.0
114.917282 148.0
115.058777 168.0
115.095039 9468.0
115.17086 156.0
115.335548 128.0
115.362411 124.0
115.543243 176.0
115.656898 128.0
115.761024 120.0
115.776512 144.0
115.801262 108.0
115.817207 96.0
115.928154 248.0
115.947342 136.0
115.989616 184.0
116.012512 240.0
116.039131 188.0
116.099495 380.0
116.315384 148.0
116.41629 228.0
116.441055 136.0
116.85479 160.0
116.89859 136.0
116.954712 188.0
116.979874 128.0
117.065727 140.0
117.205742 164.0
117.33075 156.0
117.405197 160.0
117.503288 224.0
117.56366 180.0
117.97625 144.0
118.037704 236.0
118.300743 172.0
118.318062 152.0
118.333214 156.0
118.380852 156.0
118.439331 156.0
118.565536 168.0
118.888123 208.0
118.929489 136.0
118.966263 140.0
119.070068 152.0
119.087547 228.0
119.239944 168.0
119.306023 144.0
119.398651 192.0
119.666161 120.0
119.783905 180.0
119.910446 156.0
120.289398 152.0
120.421631 204.0
120.678673 204.0
120.799507 144.0
120.844902 152.0
121.06662 328.0
121.201797 164.0
121.469261 164.0
121.574577 144.0
121.609695 236.0
122.110634 140.0
122.159019 148.0
122.319664 156.0
122.343872 176.0
122.491417 176.0
122.55751 152.0
122.819855 212.0
122.872246 128.0
122.923004 148.0
123.029488 188.0
123.081833 168.0
123.16198 168.0
123.203949 148.0
123.332115 160.0
123.606354 172.0
123.661674 204.0
123.745796 228.0
123.779007 180.0
123.854309 192.0
123.876457 152.0
124.319321 124.0
124.410896 216.0
124.44059 160.0
124.475288 148.0
124.637436 176.0
124.670769 152.0
124.698586 124.0
124.755234 188.0
124.7901 152.0
124.954689 140.0
125.028099 212.0
125.046623 192.0
125.202461 192.0
125.269287 164.0
125.330864 100.0
125.376236 196.0
125.541199 156.0
125.572426 168.0
125.686195 184.0
125.891937 168.0
125.983139 116.0
126.027824 168.0
126.28714 200.0
126.447723 124.0
126.480774 200.0
126.655258 172.0
126.745644 188.0
126.86438 188.0
127.015739 140.0
127.042015 144.0
127.072868 168.0
127.156456 168.0
127.192368 164.0
127.3181 228.0
127.509056 160.0
127.783821 148.0
127.902664 176.0
128.082794 152.0
128.556259 164.0
128.648804 172.0
128.680405 228.0
128.797836 232.0
128.833984 148.0
129.075821 180.0
129.202484 188.0
129.256775 172.0
129.297516 184.0
129.347305 144.0
129.517975 204.0
129.646271 176.0
129.678009 152.0
129.709732 196.0
129.972809 340.0
130.085953 640.0
130.163483 184.0
130.233887 140.0
130.261139 208.0
130.290634 228.0
130.336121 196.0
130.474762 148.0
130.900238 172.0
131.027786 152.0
131.048981 736.0
131.092957 140.0
131.294479 196.0
131.426788 164.0
131.446106 124.0
131.591125 168.0
131.766983 200.0
131.785263 160.0
131.979538 176.0
131.994583 144.0
132.031937 144.0
132.102448 15888.0
132.162582 152.0
132.195053 160.0
132.217438 232.0
132.242615 156.0
132.359375 196.0
132.393723 204.0
132.519714 140.0
132.670975 140.0
132.863602 140.0
133.040314 196.0
133.066101 208.0
133.105637 1632.0
133.166611 160.0
133.228622 160.0
133.371094 140.0
133.386627 144.0
133.515945 148.0
133.628662 172.0
133.695389 188.0
133.839615 136.0
133.996872 120.0
134.031586 172.0
134.105377 148.0
134.149139 200.0
134.258942 204.0
134.46283 160.0
134.820786 152.0
134.913254 172.0
134.975601 140.0
135.041367 192.0
135.083115 952.0
135.193115 172.0
135.696442 136.0
135.807068 192.0
136.091949 248.0
136.7341 184.0
136.764359 248.0
136.950623 144.0
137.058334 172.0
137.107315 160.0
137.126465 128.0
137.164993 184.0
137.449524 176.0
137.588104 268.0
137.883881 176.0
138.066238 156.0
138.151779 128.0
138.585892 168.0
138.968079 152.0
139.076035 1244.0
139.230988 172.0
139.515289 148.0
139.752625 176.0
139.76001 160.0
139.818726 144.0
139.874557 124.0
139.924652 388.0
139.978806 172.0
140.044739 196.0
140.078842 236.0
140.389084 148.0
140.41713 172.0
140.54924 152.0
140.652054 192.0
140.764038 144.0
140.826889 144.0
140.889221 144.0
141.028641 152.0
141.090912 1612.0
141.206985 204.0
141.248535 140.0
141.274567 176.0
141.490829 208.0
141.580505 188.0
141.629639 144.0
141.665939 196.0
141.717285 164.0
141.750458 172.0
141.816818 176.0
142.080627 228.0
142.170197 148.0
142.222412 188.0
142.445618 200.0
142.703354 144.0
142.749832 204.0
142.830688 140.0
142.921097 160.0
143.116272 196.0
143.136414 148.0
143.188721 104.0
143.229843 188.0
143.328934 128.0
143.354477 196.0
143.371155 168.0
143.602417 180.0
143.61911 156.0
143.666489 144.0
143.848389 140.0
144.412094 184.0
144.4384 192.0
144.459427 152.0
144.515106 164.0
144.725586 144.0
145.063385 188.0
145.264816 228.0
145.322876 180.0
145.636871 144.0
145.785828 148.0
146.05751 156.0
146.182617 164.0
146.354935 144.0
146.428177 164.0
146.736618 176.0
146.761322 292.0
146.922318 184.0
146.992279 176.0
147.044357 568.0
147.084 144.0
147.112274 308.0
147.260895 224.0
147.477707 148.0
147.548584 112.0
147.605835 208.0
147.809021 160.0
147.862259 172.0
147.892014 164.0
148.087112 180.0
148.189178 164.0
148.279678 140.0
148.502991 128.0
148.555252 152.0
148.695984 180.0
148.73967 212.0
148.829498 148.0
148.97522 212.0
149.05954 2348.0
149.09819 164.0
149.188156 224.0
149.444427 148.0
149.507706 184.0
149.599442 108.0
150.064148 184.0
150.387527 152.0
150.424973 128.0
150.670792 148.0
150.702545 172.0
150.917633 192.0
150.966888 112.0
151.030182 176.0
151.080444 224.0
151.132874 172.0
151.571182 152.0
151.680679 188.0
151.905518 108.0
152.060623 144.0
152.157379 180.0
152.184387 228.0
152.252914 136.0
152.432465 192.0
152.53569 152.0
152.642792 128.0
152.967026 208.0
153.056625 188.0
153.087234 428.0
153.180405 140.0
153.207504 196.0
153.518066 144.0
153.65126 200.0
153.685791 164.0
153.796844 156.0
153.956741 168.0
154.090714 204.0
154.129425 228.0
154.214264 144.0
154.570389 268.0
154.72879 140.0
154.81546 172.0
155.001251 204.0
155.038422 148.0
155.06073 164.0
155.132599 188.0
155.186356 176.0
155.42775 192.0
155.502197 160.0
155.534454 172.0
156.090225 204.0
156.382034 200.0
156.422897 168.0
156.5065 196.0
156.576233 196.0
156.62854 144.0
156.660919 148.0
156.685822 204.0
156.738159 180.0
156.907639 176.0
157.022339 164.0
157.097168 176.0
157.163498 120.0
157.871994 148.0
157.960724 160.0
158.119873 160.0
158.140381 116.0
158.174194 152.0
158.254303 172.0
158.317047 204.0
158.361984 172.0
158.55159 124.0
158.674484 164.0
158.700287 144.0
158.727875 160.0
158.765488 188.0
158.825684 156.0
158.878357 144.0
158.967361 128.0
158.988754 180.0
159.044693 19056.0
159.07988 312.0
159.127274 168.0
159.17955 220.0
159.267441 184.0
159.309174 124.0
159.357147 248.0
159.433975 156.0
159.630768 156.0
159.695969 236.0
159.745483 136.0
159.853882 128.0
159.991669 212.0
160.047607 2660.0
160.122604 200.0
160.38324 148.0
160.498123 200.0
160.934586 140.0
161.010345 180.0
161.059174 2512.0
161.400986 152.0
162.018707 216.0
162.064774 280.0
162.144302 184.0
162.404907 148.0
162.558487 144.0
162.681488 252.0
162.72818 164.0
162.790665 144.0
162.894791 152.0
163.044922 144.0
163.077118 380.0
163.319763 148.0
163.410873 156.0
163.495102 156.0
163.530472 208.0
163.58606 176.0
164.073044 424.0
164.208191 148.0
164.243896 212.0
164.419952 148.0
164.458237 164.0
164.670151 156.0
164.723785 196.0
164.741669 208.0
164.765228 180.0
164.953766 184.0
165.052216 180.0
165.630447 124.0
165.752274 160.0
166.029831 180.0
166.201004 240.0
166.227692 288.0
166.396072 208.0
166.457687 220.0
166.525436 124.0
166.606659 184.0
166.709427 156.0
166.848236 192.0
167.070877 312.0
167.097702 172.0
167.218643 168.0
167.427185 168.0
167.601715 260.0
167.793076 164.0
167.816284 212.0
167.848633 124.0
167.960617 120.0
167.99939 228.0
168.031601 124.0
168.426193 140.0
168.518311 140.0
168.542984 160.0
168.667023 176.0
168.947479 168.0
169.042862 144.0
169.097565 180.0
169.20369 208.0
169.372009 164.0
169.759583 140.0
169.826126 140.0
169.861923 184.0
169.983856 156.0
170.079895 184.0
170.108444 160.0
170.155167 292.0
170.432358 144.0
170.498047 164.0
171.123642 136.0
171.370163 156.0
171.447937 172.0
171.711258 196.0
171.737335 184.0
171.909531 188.0
172.018921 192.0
172.085632 160.0
172.110519 236.0
172.170578 176.0
172.212372 208.0
172.256775 160.0
172.324692 216.0
172.46843 328.0
172.507629 172.0
172.57338 164.0
172.68544 156.0
172.886887 248.0
173.049744 240.0
173.096634 184.0
173.168045 144.0
173.294678 180.0
173.510284 168.0
173.756821 236.0
173.91951 144.0
173.998276 164.0
174.104599 512.0
174.147949 184.0
174.313461 176.0
174.41333 160.0
174.497452 176.0
174.637024 212.0
174.73941 352.0
174.780716 212.0
174.826248 172.0
174.853897 156.0
175.036835 156.0
175.075073 348.0
175.112289 148.0
175.197495 140.0
175.287079 164.0
175.397766 192.0
175.629807 148.0
175.951508 172.0
176.260773 140.0
176.533051 156.0
176.744659 156.0
177.022781 176.0
177.054855 7664.0
177.267151 164.0
177.522476 196.0
177.754242 180.0
177.775467 160.0
177.844467 140.0
178.060181 984.0
178.176407 144.0
178.338501 144.0
178.394318 272.0
178.426224 192.0
178.591095 228.0
178.666092 104.0
178.69574 224.0
178.99028 184.0
179.041763 168.0
179.070969 1360.0
179.243484 152.0
179.411255 176.0
179.450211 156.0
179.479416 120.0
179.709961 208.0
179.731293 152.0
179.772186 160.0
180.035614 140.0
180.046631 128.0
180.075714 420.0
180.559418 152.0
180.726532 136.0
180.806534 148.0
180.833176 124.0
181.048828 224.0
181.224411 220.0
181.402847 148.0
181.472549 148.0
181.647369 168.0
181.703201 160.0
181.92836 116.0
181.985016 184.0
182.061172 276.0
182.102982 228.0
182.224045 184.0
182.258987 204.0
182.355728 148.0
182.464615 196.0
182.799469 152.0
182.872131 148.0
182.92865 236.0
182.958267 140.0
182.982803 140.0
183.23027 148.0
183.289551 152.0
183.321884 188.0
183.458099 188.0
183.527649 156.0
183.576385 244.0
183.615738 168.0
183.772186 172.0
183.799179 216.0
183.947601 184.0
183.979996 160.0
184.159897 320.0
184.193329 144.0
184.21225 184.0
184.282486 152.0
184.394211 184.0
184.417603 212.0
184.438583 192.0
184.501404 180.0
184.723145 204.0
184.758316 224.0
185.09935 144.0
185.191422 144.0
185.63588 140.0
185.719955 212.0
185.920731 168.0
185.97023 184.0
186.09639 196.0
186.22644 100.0
186.512817 172.0
186.704224 204.0
186.934372 212.0
187.037476 780.0
187.106842 440.0
187.133591 212.0
187.263779 148.0
187.40271 156.0
187.677994 232.0
187.908554 112.0
188.036835 96.0
188.058273 172.0
188.11998 280.0
188.15274 212.0
188.188232 180.0
188.393051 144.0
188.573074 132.0
188.690948 144.0
188.852722 124.0
188.926132 164.0
188.977982 156.0
189.059143 344.0
189.091888 284.0
189.128296 436.0
189.224442 144.0
189.393021 172.0
189.459976 148.0
189.481888 208.0
189.506546 324.0
189.723053 156.0
189.843704 144.0
189.876617 156.0
190.098816 144.0
190.124405 288.0
190.147446 156.0
190.307434 160.0
190.365952 180.0
190.620575 292.0
190.661041 160.0
190.687424 280.0
191.032028 208.0
191.066071 176.0
191.203583 324.0
191.255875 192.0
191.420944 104.0
191.460358 148.0
191.553253 156.0
191.798492 156.0
192.043289 236.0
192.133987 188.0
192.190109 144.0
192.726364 128.0
192.944107 148.0
192.982819 144.0
193.048798 1984.0
193.137375 108.0
193.173645 240.0
193.556213 172.0
193.689896 136.0
193.774384 156.0
193.851959 172.0
193.928925 124.0
194.052612 284.0
194.156906 216.0
194.189957 96.0
194.450546 148.0
194.586853 124.0
194.718079 180.0
194.750854 160.0
194.821335 156.0
194.86557 108.0
194.892441 128.0
194.9272 224.0
194.948242 160.0
194.971878 252.0
194.989792 216.0
195.013687 176.0
195.065994 103684.0
195.178192 124.0
195.21286 208.0
195.26326 132.0
195.369064 120.0
195.406082 96.0
195.494873 136.0
195.517792 152.0
195.600037 200.0
195.740906 224.0
195.81752 272.0
195.868164 164.0
195.912659 144.0
195.93866 144.0
196.003906 180.0
196.069168 13508.0
196.126053 212.0
196.236664 164.0
196.296951 140.0
196.358536 108.0
196.616882 120.0
196.874054 184.0
196.982697 128.0
197.036194 132.0
197.070694 984.0
197.109604 208.0
197.197159 168.0
197.338516 268.0
197.368317 164.0
197.5569 152.0
197.583817 260.0
197.616928 120.0
197.695892 156.0
197.820175 136.0
197.952499 148.0
197.972107 156.0
198.100555 172.0
198.198547 172.0
198.278046 232.0
198.609055 120.0
198.673004 188.0
198.770615 108.0
198.848206 96.0
198.882217 272.0
199.048233 184.0
199.08989 180.0
199.115112 148.0
199.464722 144.0
199.581512 148.0
199.810623 220.0
200.010422 252.0
200.081787 148.0
200.117859 148.0
200.210327 140.0
200.334259 172.0
200.54277 156.0
200.734802 184.0
200.982712 200.0
201.051819 308.0
201.129807 160.0
201.190094 164.0
201.349686 144.0
201.380753 172.0
201.674591 148.0
202.062012 152.0
202.097626 1792.0
202.15535 180.0
202.283081 100.0
202.524368 120.0
202.82132 180.0
202.97403 180.0
203.066071 176.0
203.095673 412.0
203.200943 160.0
203.261078 104.0
203.297424 140.0
203.32579 168.0
203.357285 172.0
203.55014 308.0
203.817078 144.0
203.851166 160.0
203.908005 228.0
203.927902 160.0
203.948898 124.0
204.078568 144.0
204.106995 316.0
204.245468 140.0
204.297775 156.0
204.406647 176.0
204.49675 152.0
204.533737 156.0
204.884003 224.0
204.940079 220.0
205.011459 224.0
205.051956 1132.0
205.122482 172.0
205.606201 100.0
205.671051 216.0
205.854782 180.0
206.019424 240.0
206.050812 132.0
206.314102 140.0
206.393829 196.0
206.47995 140.0
206.504913 152.0
206.638809 160.0
206.731644 172.0
206.86496 184.0
206.897293 116.0
206.945114 220.0
207.002304 156.0
207.065994 86784.0
207.165497 164.0
207.191269 188.0
207.222122 176.0
207.29364 104.0
207.359604 132.0
207.49118 244.0
207.53299 104.0
207.990952 188.0
208.025452 168.0
208.069061 8372.0
208.328003 168.0
208.368622 156.0
208.753143 108.0
208.891846 260.0
209.071152 1128.0
209.117661 220.0
209.180756 120.0
209.3423 112.0
209.477539 120.0
209.56604 152.0
209.687714 144.0
210.222534 268.0
210.247223 120.0
210.321075 160.0
210.36438 168.0
210.468475 216.0
210.500839 200.0
210.646454 112.0
210.684921 168.0
210.723816 164.0
210.857635 248.0
210.991257 144.0
211.075104 156.0
211.118958 168.0
211.234177 156.0
211.344772 188.0
211.372086 144.0
211.565613 100.0
211.984039 176.0
212.039108 212.0
212.070068 152.0
212.088165 164.0
212.868805 228.0
213.126312 240.0
213.200668 100.0
213.326904 220.0
213.368561 156.0
213.877625 164.0
214.032059 272.0
214.413544 172.0
214.495148 164.0
214.591354 204.0
214.655502 156.0
214.827408 204.0
214.909271 192.0
214.969757 148.0
215.016266 168.0
215.072662 180.0
215.11026 428.0
215.18071 152.0
215.285828 196.0
215.367599 144.0
215.461075 176.0
215.528275 172.0
215.618866 144.0
215.689011 160.0
215.715317 196.0
215.791336 164.0
215.901474 144.0
215.960938 176.0
216.031143 148.0
216.072098 132.0
216.112854 144.0
216.180359 164.0
216.215485 200.0
216.293335 176.0
216.959473 168.0
217.000519 176.0
217.048553 472.0
217.121445 1592.0
217.573257 148.0
217.876053 136.0
217.942688 248.0
218.08374 204.0
218.127075 296.0
218.261063 180.0
218.598404 140.0
218.671982 176.0
218.786774 180.0
218.987015 228.0
219.064774 1800.0
219.112 100.0
219.917633 96.0
220.016998 232.0
220.072861 136.0
220.131271 212.0
220.577408 204.0
220.748886 152.0
220.82074 160.0
220.849442 168.0
220.958893 168.0
221.006226 148.0
221.03743 168.0
221.078354 128.0
221.325897 208.0
221.443756 160.0
221.477325 212.0
221.859192 168.0
221.882904 184.0
222.022278 188.0
222.080414 176.0
222.206177 144.0
222.235855 168.0
222.262558 160.0
222.422821 156.0
222.494705 128.0
222.553604 140.0
222.621735 180.0
222.693008 140.0
222.724426 120.0
222.796982 156.0
222.965012 108.0
223.056656 192.0
223.090057 212.0
223.12117 136.0
223.192276 220.0
223.260666 184.0
223.674728 96.0
223.766418 132.0
223.903061 224.0
223.983902 176.0
224.007736 192.0
224.091156 180.0
224.122482 132.0
224.199188 156.0
224.43988 188.0
224.477463 212.0
224.612457 152.0
224.739136 140.0
224.857513 168.0
224.926163 256.0
224.959 176.0
225.087387 440.0
225.189148 108.0
225.230743 212.0
225.412796 132.0
225.445847 152.0
225.584366 176.0
225.741806 176.0
226.097534 176.0
226.252548 188.0
226.33429 168.0
226.370224 292.0
226.705963 104.0
226.800995 204.0
226.866684 188.0
226.948532 152.0
227.09256 152.0
227.179459 148.0
227.416519 152.0
227.497559 144.0
227.64769 148.0
227.770035 136.0
227.936066 220.0
228.159286 376.0
228.877563 184.0
229.060791 128.0
229.081772 160.0
229.335464 172.0
229.492233 256.0
229.768692 152.0
229.848145 280.0
230.095245 456.0
230.222458 152.0
230.337234 156.0
230.427856 148.0
230.500381 160.0
231.004761 216.0
231.062592 452.0
231.095612 280.0
231.20047 116.0
231.26033 168.0
231.574341 152.0
231.822769 176.0
232.066757 284.0
232.144089 144.0
232.234222 184.0
232.283615 148.0
232.355255 148.0
232.617401 172.0
232.854233 180.0
232.978775 168.0
233.07869 696.0
233.137909 224.0
233.185318 156.0
233.293427 164.0
233.401245 224.0
233.457932 152.0
233.937378 164.0
234.08757 160.0
234.341751 152.0
234.375748 160.0
234.802048 152.0
234.992355 120.0
235.158386 140.0
235.192581 148.0
235.306076 140.0
235.37413 188.0
235.430725 148.0
235.54985 144.0
235.696487 244.0
235.855408 188.0
235.917404 200.0
236.111526 104.0
236.161163 172.0
236.344727 148.0
236.508499 172.0
236.537521 144.0
236.822296 212.0
237.135056 152.0
237.199173 156.0
237.43219 184.0
237.60141 144.0
237.640793 192.0
237.870956 220.0
237.97583 124.0
238.027527 152.0
238.085876 236.0
238.202591 172.0
238.260956 152.0
238.460693 180.0
238.488358 144.0
238.579346 120.0
238.638153 132.0
238.672806 144.0
238.928085 204.0
239.106186 548.0
239.177353 140.0
239.248154 148.0
239.562256 192.0
239.734802 160.0
239.756378 140.0
239.864258 180.0
239.940887 168.0
240.01799 120.0
240.115173 116.0
240.154099 164.0
240.221954 144.0
240.271317 224.0
240.419418 140.0
240.48732 296.0
240.545975 140.0
240.676224 180.0
240.792984 316.0
241.037033 164.0
241.073837 180.0
241.120392 900.0
241.173004 236.0
241.337891 108.0
241.361588 164.0
241.395599 156.0
241.608032 188.0
241.84111 140.0
241.889145 160.0
241.930878 216.0
242.037781 128.0
242.073303 244.0
242.123306 292.0
242.368973 132.0
242.464035 124.0
242.823273 188.0
243.000076 148.0
243.099472 944.0
243.195587 140.0
243.245712 132.0
243.524704 188.0
243.617889 160.0
243.98584 120.0
244.071655 180.0
244.304092 212.0
244.348465 164.0
244.379578 192.0
244.625443 152.0
244.672134 316.0
244.957596 144.0
244.979202 240.0
245.027176 140.0
245.073914 140.0
245.414688 96.0
245.673706 156.0
245.762802 208.0
245.897171 204.0
246.003296 204.0
246.088928 132.0
246.192322 140.0
246.234344 148.0
246.406158 144.0
246.845657 124.0
247.052261 168.0
247.095825 400.0
247.144806 192.0
247.259811 156.0
247.347458 208.0
247.425705 160.0
247.478943 148.0
247.519638 140.0
247.579147 276.0
247.635513 144.0
247.704697 140.0
247.87674 144.0
248.041229 132.0
248.099274 168.0
248.152573 228.0
248.3125 140.0
248.475601 184.0
248.684326 180.0
248.840927 212.0
249.070694 156.0
249.510208 160.0
249.672379 208.0
249.807785 152.0
249.958633 148.0
250.119141 216.0
250.553711 388.0
250.663986 152.0
250.72702 148.0
250.840485 144.0
251.420837 204.0
251.49881 164.0
251.752304 160.0
252.075333 100.0
252.099808 168.0
252.257843 148.0
252.325623 136.0
252.849319 212.0
252.90976 148.0
252.994919 148.0
253.044968 156.0
253.087601 520.0
253.121567 192.0
253.336929 148.0
253.404572 148.0
253.505722 160.0
253.718567 140.0
253.796478 164.0
253.893127 132.0
254.100967 212.0
254.256454 156.0
254.351669 232.0
254.475479 208.0
254.885208 144.0
254.922073 216.0
254.957565 172.0
255.102051 144.0
255.454315 112.0
255.872864 176.0
256.072662 392.0
256.374481 152.0
256.42865 200.0
256.61673 140.0
256.836761 176.0
256.881439 240.0
257.012238 152.0
257.039764 204.0
257.116486 732.0
257.152649 160.0
257.253662 180.0
257.636475 124.0
257.845703 200.0
257.896851 192.0
257.957581 184.0
257.983154 152.0
258.270935 156.0
258.737793 148.0
258.773621 152.0
258.843811 152.0
258.975098 224.0
259.055176 148.0
259.097137 184.0
259.136383 172.0
259.170532 188.0
259.362549 148.0
259.592407 248.0
259.637573 212.0
259.673828 144.0
259.702667 204.0
259.855011 188.0
260.138824 136.0
260.349365 168.0
260.489105 144.0
260.521057 152.0
260.611176 144.0
260.801636 112.0
260.87793 204.0
261.066833 184.0
261.112091 6324.0
261.222015 216.0
261.247406 180.0
261.528625 124.0
261.928741 152.0
262.015564 144.0
262.049377 212.0
262.115082 1268.0
262.204071 180.0
262.343231 156.0
262.429718 148.0
262.599121 120.0
262.719971 156.0
262.885803 120.0
262.916779 288.0
263.05954 160.0
263.118073 268.0
263.200256 108.0
263.858032 200.0
263.978333 216.0
264.261017 268.0
264.406647 208.0
264.762512 164.0
264.879578 120.0
265.033813 148.0
265.347015 156.0
265.374512 232.0
265.615173 216.0
265.694885 144.0
265.978607 172.0
266.059753 152.0
266.112457 152.0
266.207214 156.0
266.527954 128.0
266.662201 112.0
266.738708 268.0
266.823212 240.0
267.103333 444.0
267.17926 192.0
267.357819 96.0
267.616699 200.0
267.669189 148.0
267.729797 124.0
267.819 176.0
268.040527 148.0
268.102386 180.0
268.20163 128.0
268.242584 304.0
268.273132 140.0
268.425171 152.0
268.549103 148.0
268.573425 144.0
268.754608 212.0
268.927582 208.0
268.958038 212.0
269.077576 356.0
269.476196 160.0
270.0914 1204.0
270.431061 220.0
270.796661 240.0
270.90332 156.0
271.057526 148.0
271.089783 344.0
271.194214 172.0
271.259766 184.0
271.302368 144.0
271.3909 152.0
271.440735 160.0
271.629028 132.0
271.712311 168.0
271.919037 344.0
271.9617 164.0
272.103516 144.0
272.200195 136.0
272.247131 176.0
272.621857 152.0
272.763916 192.0
273.071869 100.0
273.093506 124.0
273.15448 140.0
273.262573 112.0
273.446289 152.0
273.687622 240.0
273.830536 216.0
273.869751 172.0
273.941223 156.0
274.158691 148.0
274.415131 180.0
274.438873 144.0
274.620239 192.0
274.801697 176.0
274.966675 152.0
275.041229 224.0
275.093414 132.0
275.127106 1348.0
275.167175 108.0
275.339752 140.0
275.416473 172.0
275.480377 124.0
275.549438 156.0
275.841949 144.0
275.931213 200.0
276.000641 160.0
276.13559 160.0
276.172607 144.0
276.23877 164.0
276.318176 160.0
276.400879 156.0
276.486938 176.0
276.659058 152.0
277.099518 140.0
277.130188 188.0
277.386353 160.0
277.527069 152.0
277.593384 176.0
277.626556 148.0
277.875336 140.0
278.081055 160.0
278.252167 176.0
278.849915 156.0
278.999969 108.0
279.054382 180.0
279.107574 192.0
279.144928 172.0
279.234985 180.0
279.641083 336.0
279.97757 108.0
280.024689 120.0
280.179993 252.0
280.48587 184.0
280.615875 204.0
280.639221 140.0
280.773621 184.0
280.829315 292.0
280.929382 148.0
281.129578 164.0
281.443359 160.0
281.480072 204.0
281.543518 152.0
281.582764 176.0
281.647064 152.0
281.718689 172.0
281.88327 140.0
282.34021 124.0
282.546295 140.0
282.721252 96.0
282.95459 204.0
283.008148 184.0
283.056427 164.0
283.088531 304.0
283.147949 204.0
283.175598 168.0
283.512665 164.0
283.842499 232.0
283.934753 164.0
284.07489 128.0
284.137573 124.0
284.187988 228.0
284.861877 164.0
284.884003 296.0
284.973175 192.0
285.040833 172.0
285.06958 468.0
285.112854 39576.0
285.194885 148.0
285.230896 116.0
285.269104 144.0
285.31189 136.0
285.350922 216.0
285.46936 132.0
285.645996 172.0
285.953461 160.0
286.004517 168.0
286.116821 5876.0
286.263428 124.0
286.334686 164.0
286.391144 172.0
286.435852 136.0
286.532715 112.0
286.590973 104.0
286.617188 128.0
286.659424 164.0
286.710785 164.0
286.78894 260.0
286.894623 168.0
287.021515 240.0
287.115326 1096.0
287.22583 152.0
287.359497 160.0
287.490051 176.0
287.530365 136.0
287.643097 104.0
287.67688 160.0
287.75473 160.0
288.087036 96.0
288.121185 168.0
288.830292 156.0
288.999451 188.0
289.185669 120.0
289.239716 216.0
289.330475 136.0
289.490265 344.0
289.560577 220.0
289.593933 144.0
289.686707 164.0
290.354431 144.0
290.463043 168.0
290.690643 180.0
290.724213 164.0
290.958038 160.0
291.131592 220.0
291.253845 172.0
291.385193 168.0
291.535858 172.0
291.61087 108.0
291.758942 200.0
291.889465 160.0
292.081451 244.0
292.215912 164.0
292.244019 152.0
292.593689 140.0
292.628632 184.0
292.714172 164.0
292.794586 152.0
292.872925 164.0
293.294617 324.0
293.47641 132.0
293.680725 188.0
293.789886 144.0
293.817169 168.0
293.957062 196.0
294.021912 140.0
294.045807 176.0
294.085785 312.0
294.257446 144.0
294.633118 156.0
294.821747 152.0
294.897186 216.0
295.029541 156.0
295.060303 144.0
295.446747 168.0
295.480957 148.0
295.519379 180.0
295.655487 184.0
295.881104 140.0
295.997803 144.0
296.06723 148.0
296.12793 164.0
296.223846 220.0
296.265259 128.0
296.294189 152.0
296.340332 152.0
296.47052 280.0
296.52536 172.0
296.734467 220.0
297.155212 136.0
297.269562 156.0
297.321991 160.0
297.373596 128.0
297.458313 164.0
297.623108 216.0
297.817749 236.0
298.000946 160.0
298.399628 140.0
298.427124 156.0
298.478699 160.0
298.526855 140.0
298.611511 208.0
298.753113 280.0
299.001587 188.0
299.067871 156.0
299.276978 188.0
299.368896 144.0
299.430206 160.0
299.482819 212.0
299.514618 184.0
299.593842 176.0
299.871765 316.0
300.054169 180.0
300.214233 140.0
300.925079 164.0
301.047852 172.0
301.249695 176.0
301.2995 96.0
301.51062 148.0
301.782684 156.0
302.030914 184.0
302.100098 144.0
302.297333 108.0
302.342316 132.0
302.428589 116.0
302.716187 224.0
302.858185 172.0
302.884613 168.0
303.06604 168.0
303.122467 3776.0
303.181213 168.0
303.239288 244.0
303.312531 152.0
303.553986 204.0
303.726471 220.0
303.871124 160.0
304.12442 848.0
304.174072 312.0
304.31958 164.0
304.383667 152.0
304.747589 188.0
304.894775 224.0
305.012939 172.0
305.037109 160.0
305.078979 144.0
305.118866 136.0
305.17981 188.0
305.31781 100.0
305.546539 192.0
306.188965 180.0
306.291016 160.0
306.355347 140.0
306.617493 172.0
306.654358 144.0
306.745026 156.0
306.791748 188.0
306.858002 252.0
307.084656 148.0
307.197113 184.0
307.302399 136.0
307.346313 168.0
307.399353 200.0
307.620087 208.0
307.71286 160.0
307.97818 168.0
308.489532 236.0
308.648682 144.0
308.694244 200.0
308.773529 164.0
308.960449 164.0
309.110901 148.0
309.572144 192.0
309.812805 160.0
309.90332 224.0
310.175598 140.0
310.535187 144.0
310.764771 204.0
310.799866 208.0
310.979309 144.0
311.052551 172.0
311.094666 160.0
311.263184 280.0
311.846344 188.0
311.923676 152.0
312.178772 168.0
312.28241 172.0
312.556732 208.0
313.056549 160.0
313.215088 128.0
313.303925 160.0
313.36087 236.0
313.443451 176.0
313.520416 148.0
313.86084 172.0
313.930542 140.0
314.205658 164.0
314.251526 152.0
314.542725 248.0
314.663544 124.0
315.220917 192.0
315.318695 192.0
315.401184 176.0
315.467407 128.0
315.518036 108.0
315.554779 144.0
315.620331 136.0
315.738678 164.0
316.047333 108.0
316.127808 160.0
316.194305 116.0
316.304779 204.0
316.488861 180.0
316.634064 156.0
316.874939 148.0
316.949341 160.0
317.101715 164.0
317.215149 140.0
317.702148 216.0
317.76001 296.0
317.827271 160.0
317.903229 156.0
318.155212 264.0
318.190735 208.0
318.341614 200.0
318.496124 176.0
318.528076 140.0
318.56134 176.0
318.67691 152.0
318.748352 192.0
319.022034 208.0
319.147827 156.0
319.187805 160.0
319.288696 156.0
319.352722 196.0
319.413208 192.0
319.523468 152.0
319.790558 132.0
319.904266 156.0
320.199799 160.0
320.304962 144.0
320.841187 156.0
321.294098 152.0
321.366241 144.0
321.53479 132.0
321.624664 120.0
321.745056 188.0
322.020935 188.0
322.262573 124.0
322.335175 192.0
322.390289 240.0
322.434204 136.0
322.486755 140.0
322.530151 180.0
322.629761 188.0
322.67514 184.0
322.883636 180.0
323.073212 164.0
323.09967 292.0
323.159332 160.0
323.250122 160.0
323.459686 172.0
323.567078 164.0
323.737518 160.0
323.96817 144.0
324.03949 200.0
324.283508 168.0
324.320984 176.0
324.374756 104.0
324.451965 164.0
324.526581 104.0
324.685059 140.0
324.790527 224.0
324.832428 176.0
325.445801 196.0
325.531281 148.0
325.567871 168.0
325.609253 140.0
325.821655 184.0
325.889526 184.0
326.667725 400.0
326.742004 216.0
326.800842 148.0
327.146332 188.0
327.34436 220.0
327.398376 188.0
327.52243 108.0
327.891937 140.0
327.939087 148.0
327.977539 168.0
328.537354 168.0
328.643646 136.0
328.704529 172.0
328.93457 168.0
328.999298 260.0
329.136505 168.0
329.214172 128.0
329.257416 128.0
329.464294 148.0
329.487518 148.0
329.540039 204.0
329.700012 280.0
329.848206 156.0
329.909668 140.0
330.007263 188.0
330.298645 144.0
330.355286 140.0
330.61499 196.0
330.650452 180.0
330.71756 312.0
330.782806 152.0
330.836792 168.0
331.270325 180.0
331.377838 180.0
331.492371 284.0
331.57428 144.0
331.895355 220.0
331.978455 128.0
332.035126 152.0
332.265381 108.0
332.336945 120.0
332.455963 140.0
332.699127 140.0
333.059509 204.0
333.452423 148.0
333.637604 112.0
333.735901 128.0
333.774597 140.0
334.224121 156.0
334.440338 164.0
334.567139 164.0
334.84082 168.0
335.033875 148.0
335.159698 232.0
335.329041 144.0
335.654968 128.0
335.704529 160.0
335.750092 228.0
335.989594 164.0
336.134979 172.0
336.385651 172.0
336.478088 144.0
336.606476 172.0
336.633331 100.0
336.713715 136.0
336.832306 224.0
336.978455 244.0
337.222229 192.0
337.413361 140.0
337.443024 176.0
337.625427 164.0
337.67395 184.0
337.965637 148.0
338.020508 180.0
338.153961 172.0
338.195923 116.0
338.24942 148.0
338.299011 136.0
338.419495 252.0
338.489075 216.0
338.572906 152.0
338.745453 156.0
338.785858 224.0
339.272644 148.0
340.017761 148.0
340.463715 132.0
340.832458 140.0
340.865753 144.0
340.895447 148.0
340.921173 148.0
340.950562 152.0
340.997162 220.0
341.101257 256.0
341.29068 192.0
341.513092 172.0
341.719086 188.0
342.291199 332.0
342.536377 144.0
342.731628 144.0
342.842163 248.0
342.881042 168.0
343.369354 144.0
343.413635 164.0
343.596832 144.0
343.80838 200.0
343.941254 164.0
344.240997 212.0
344.395416 180.0
344.458221 204.0
344.502533 248.0
344.69281 124.0
344.742706 156.0
344.772278 164.0
344.798126 188.0
344.957062 168.0
345.118622 184.0
345.171509 160.0
345.382324 200.0
345.408203 184.0
345.606781 148.0
345.685699 192.0
345.822632 188.0
345.952179 144.0
346.211365 164.0
346.258301 236.0
346.326721 136.0
346.405151 136.0
346.469269 120.0
346.52182 176.0
346.578094 152.0
346.651031 172.0
346.838043 224.0
346.881989 180.0
346.920593 200.0
347.149078 6616.0
347.235413 220.0
347.521729 236.0
347.591492 124.0
347.653442 352.0
348.154297 1008.0
348.283997 168.0
348.370026 328.0
348.413483 156.0
348.579559 132.0
348.679596 104.0
348.875183 176.0
349.073975 120.0
349.150574 304.0
349.488922 132.0
349.524811 156.0
349.630493 240.0
349.855011 164.0
349.921173 188.0
349.946838 408.0
350.027435 220.0
350.30072 148.0
350.424438 132.0
350.500641 200.0
350.718689 192.0
350.822418 236.0
350.936523 308.0
351.023743 176.0
351.150543 160.0
351.292938 152.0
351.682587 156.0
351.939575 248.0
352.121185 108.0
352.208923 144.0
352.374939 152.0
352.467896 100.0
352.658936 184.0
352.740417 100.0
352.787872 168.0
353.02301 116.0
353.062714 168.0
353.195557 128.0
353.231018 284.0
353.290863 168.0
353.362488 140.0
353.440521 156.0
353.612274 172.0
353.834381 192.0
354.067719 172.0
354.267944 144.0
354.447784 160.0
354.99881 192.0
355.135681 152.0
355.31076 144.0
355.388947 144.0
355.647888 360.0
355.707916 156.0
355.861847 176.0
356.03833 156.0
356.163147 156.0
356.491028 136.0
356.632538 128.0
356.801117 224.0
356.848053 216.0
356.907654 168.0
356.985748 156.0
357.049286 140.0
357.195984 264.0
357.268799 224.0
357.38031 152.0
357.833771 104.0
358.088013 208.0
358.216095 176.0
358.27301 112.0
358.32724 136.0
358.419525 208.0
358.600433 208.0
358.792297 104.0
358.839569 100.0
358.955994 140.0
358.984955 176.0
359.039459 168.0
359.398834 120.0
359.4263 152.0
359.48291 160.0
359.509338 188.0
359.958374 164.0
360.06427 140.0
360.241943 112.0
360.423157 148.0
360.460205 184.0
360.518005 132.0
360.70752 140.0
360.88562 160.0
361.164124 160.0
361.23587 116.0
361.862 164.0
362.015686 324.0
362.048767 168.0
362.083954 156.0
362.215942 124.0
362.253326 216.0
362.332367 128.0
362.485901 144.0
362.731506 180.0
362.813385 148.0
362.974396 148.0
363.24173 320.0
363.296783 140.0
363.395416 276.0
363.499786 152.0
363.687622 148.0
364.34787 124.0
364.508667 224.0
364.735992 144.0
364.813721 160.0
365.13562 216.0
365.222687 172.0
365.373566 128.0
365.747223 168.0
365.833527 196.0
365.98761 192.0
366.182953 176.0
366.218475 148.0
366.284668 152.0
366.513245 276.0
366.571381 188.0
366.690613 216.0
366.869781 140.0
366.923035 112.0
366.960876 100.0
367.07019 108.0
367.248352 176.0
367.470276 144.0
367.527496 152.0
367.555298 132.0
367.639923 144.0
367.68396 148.0
367.725952 148.0
368.185394 104.0
368.226105 144.0
368.638062 120.0
368.829773 180.0
368.880524 188.0
368.928955 224.0
368.967407 188.0
369.14328 236.0
369.170044 152.0
369.307739 156.0
369.354889 144.0
369.510468 168.0
369.5755 164.0
369.665466 204.0
369.808228 148.0
369.848999 176.0
369.954315 164.0
370.077026 136.0
370.245422 148.0
370.281586 120.0
370.449615 128.0
370.494385 140.0
370.609314 216.0
370.874023 452.0
371.088409 148.0
371.138275 228.0
371.257141 148.0
371.381958 300.0
371.435211 148.0
371.480347 164.0
371.56015 144.0
371.828766 148.0
371.959259 212.0
372.143524 156.0
372.412354 160.0
372.598175 148.0
372.71637 172.0
372.746582 164.0
372.822876 136.0
373.077118 100.0
373.267822 252.0
373.346283 172.0
373.496277 316.0
373.865631 156.0
374.150452 228.0
374.28302 140.0
374.342316 136.0
374.493164 140.0
374.755127 240.0
374.831177 136.0
375.027069 136.0
375.067261 148.0
375.175201 172.0
375.236908 136.0
375.321716 156.0
375.475983 140.0
375.726685 144.0
375.768677 136.0
375.881012 156.0
375.923462 208.0
376.47937 164.0
376.533447 204.0
376.602966 184.0
376.827423 116.0
376.881104 148.0
376.976776 116.0
377.105225 144.0
377.203979 124.0
377.360382 172.0
377.626007 100.0
377.770325 164.0
377.832214 220.0
377.886383 152.0
377.944397 144.0
378.122253 152.0
378.591766 140.0
378.619537 128.0
378.656708 156.0
378.908478 204.0
379.020538 144.0
379.140961 152.0
379.402832 324.0
380.288971 164.0
380.385925 164.0
380.498596 340.0
380.667938 152.0
380.954163 128.0
381.093536 176.0
381.552979 200.0
381.598083 224.0
381.636963 168.0
381.680969 148.0
381.726746 136.0
381.796387 156.0
381.935089 236.0
382.415009 152.0
382.520081 196.0
382.580383 132.0
382.844025 184.0
383.040741 204.0
383.238556 136.0
383.766754 152.0
383.98822 136.0
384.159058 136.0
384.294312 124.0
384.363525 148.0
384.398651 160.0
384.450714 224.0
384.510803 108.0
384.650574 172.0
384.704041 212.0
384.781158 216.0
384.964417 184.0
385.288879 144.0
385.407227 136.0
385.503784 204.0
385.738708 144.0
385.931244 100.0
386.101898 160.0
386.50589 132.0
386.861115 112.0
386.915771 176.0
386.974518 296.0
387.047699 116.0
387.088959 104.0
387.147705 224.0
387.297943 172.0
387.385712 148.0
387.424896 248.0
387.522827 144.0
387.556335 132.0
387.593384 164.0
387.72934 144.0
387.761536 116.0
387.925507 156.0
388.004913 224.0
388.058777 248.0
388.212708 188.0
388.374451 152.0
388.423004 176.0
388.608887 256.0
388.71875 196.0
388.848267 204.0
389.070831 108.0
389.166229 152.0
389.217285 140.0
389.5354 172.0
389.629669 192.0
389.668976 140.0
389.775055 156.0
390.018707 232.0
390.061951 176.0
390.314819 224.0
390.380432 152.0
390.435486 152.0
391.159424 148.0
391.249664 152.0
391.353943 128.0
391.466522 148.0
391.706787 208.0
391.809204 148.0
391.947113 184.0
392.105988 144.0
392.219025 264.0
392.274231 140.0
392.519562 140.0
392.60553 136.0
393.149811 244.0
393.224091 116.0
393.366913 152.0
393.481384 180.0
393.787262 192.0
394.214142 124.0
394.537628 156.0
394.669128 156.0
394.722046 164.0
394.832764 196.0
394.994934 192.0
395.144775 132.0
395.421906 136.0
395.544556 140.0
395.619141 216.0
395.960815 144.0
396.193695 180.0
396.392517 148.0
396.481018 148.0
396.660706 180.0
396.805145 136.0
396.894348 140.0
397.279724 212.0
397.431396 188.0
397.574249 144.0
397.605988 196.0
397.685364 140.0
397.838409 152.0
398.026794 212.0
398.054596 144.0
398.136169 228.0
398.413757 140.0
398.566986 176.0
398.77597 176.0
398.80545 304.0
398.912781 160.0
398.956482 168.0
399.058228 164.0
399.39209 280.0
399.485413 164.0
399.883301 140.0
399.943298 108.0
400.062439 208.0
400.223999 96.0
400.2854 164.0
400.77533 160.0
400.934204 240.0
401.034363 160.0
401.233673 216.0
401.425049 152.0
401.500824 276.0
401.640411 164.0
401.692291 148.0
401.824371 144.0
401.881622 156.0
402.027435 164.0
402.08728 172.0
402.270905 144.0
402.317993 160.0
402.456482 196.0
402.542389 184.0
402.687744 152.0
402.758636 192.0
402.814331 132.0
402.909851 148.0
402.953918 116.0
403.495972 172.0
403.582153 148.0
403.733917 120.0
403.815247 152.0
403.861237 140.0
404.017242 252.0
404.116241 124.0
404.517456 188.0
404.803986 100.0
404.943054 96.0
405.012207 116.0
405.108154 180.0
405.211456 108.0
405.716736 120.0
406.016754 188.0
406.142792 180.0
406.36615 164.0
406.427063 176.0
406.677979 212.0
406.73819 316.0
406.775848 176.0
406.987091 172.0
407.43692 212.0
407.554657 144.0
407.919159 228.0
408.070007 152.0
408.156342 184.0
408.236786 148.0
408.396088 156.0
408.499542 156.0
408.812805 104.0
409.021332 188.0
409.16272 144.0
409.269043 188.0
409.869232 152.0
410.180176 184.0
410.702881 216.0
410.969452 244.0
411.153442 288.0
411.203857 204.0
411.492188 172.0
411.601532 140.0
411.641907 220.0
411.760376 108.0
412.050446 216.0
412.183197 160.0
412.377167 280.0
412.482574 108.0
412.611633 180.0
412.688446 188.0
412.825928 444.0
412.947266 172.0
413.071838 140.0
413.129272 156.0
413.337921 176.0
413.368011 164.0
413.554169 164.0
413.857788 164.0
413.930664 212.0
413.968994 120.0
414.053833 108.0
414.104797 204.0
414.149353 252.0
414.323547 180.0
414.388367 148.0
414.619324 152.0
414.925781 116.0
415.085541 188.0
415.176361 140.0
415.215302 180.0
415.389709 164.0
415.506317 172.0
415.564148 172.0
415.804016 148.0
415.85791 216.0
415.888794 200.0
415.934998 128.0
416.00351 184.0
416.135101 184.0
416.272827 108.0
416.936646 188.0
416.981354 196.0
417.011749 152.0
417.165283 236.0
417.402466 280.0
417.473267 196.0
417.55304 164.0
417.664032 124.0
417.786469 168.0
418.128937 120.0
418.380615 208.0
418.487091 132.0
418.586121 144.0
418.62085 164.0
418.84079 184.0
418.889648 176.0
419.05603 196.0
419.351715 168.0
419.468292 236.0
419.89978 172.0
420.055328 108.0
420.123291 200.0
420.167847 140.0
420.236786 128.0
420.337006 216.0
420.471039 180.0
420.657318 148.0
420.870422 152.0
420.938049 112.0
421.208557 304.0
421.300568 152.0
421.479401 160.0
421.607025 148.0
421.958527 160.0
422.011688 144.0
422.109833 140.0
422.206848 176.0
422.351105 144.0
422.510406 132.0
422.608856 284.0
422.705444 132.0
422.92395 172.0
423.000793 140.0
423.387268 100.0
423.556519 152.0
423.611877 192.0
423.673309 172.0
423.75116 148.0
423.886383 292.0
424.023895 156.0
424.07785 384.0
424.105957 144.0
424.148682 144.0
424.332855 108.0
424.406952 148.0
424.557861 140.0
424.581818 312.0
424.67926 168.0
424.800659 256.0
424.900146 128.0
424.968262 164.0
425.022217 160.0
425.079651 164.0
425.137115 192.0
425.200989 184.0
425.312836 128.0
425.421021 140.0
425.538147 180.0
425.955414 156.0
426.157837 124.0
426.184448 276.0
426.31546 132.0
426.369263 120.0
426.496552 204.0
426.569702 140.0
426.607544 196.0
426.927948 176.0
427.008301 248.0
427.039276 160.0
427.088928 116.0
427.240631 112.0
427.454803 260.0
427.544037 216.0
427.683319 152.0
427.768555 356.0
427.907288 104.0
428.036285 120.0
428.071411 192.0
428.162018 156.0
428.192963 192.0
428.307709 124.0
428.348206 164.0
428.394257 196.0
428.535889 252.0
428.628357 156.0
428.657196 200.0
428.702515 260.0
428.754639 176.0
428.804565 148.0
428.855011 140.0
429.06778 208.0
429.21701 208.0
429.318604 120.0
429.51239 168.0
429.596222 208.0
429.664154 200.0
429.727295 160.0
429.830078 144.0
429.909576 124.0
430.015686 108.0
430.199982 360.0
430.251862 96.0
430.307068 96.0
430.338715 132.0
430.369629 132.0
430.434204 124.0
430.477631 196.0
430.569763 124.0
430.61264 172.0
430.647614 104.0
430.694214 188.0
430.738251 168.0
430.874268 120.0
430.918549 168.0
430.970184 160.0
431.006622 220.0
431.062195 132.0
431.090515 176.0
431.134155 148.0
431.185944 156.0
431.243378 116.0
431.288788 112.0
431.397156 228.0
431.423279 140.0
431.466125 252.0
431.50116 144.0
431.598969 192.0
431.640991 148.0
431.699402 104.0
431.740112 232.0
431.785339 164.0
431.813477 292.0
431.883148 264.0
431.930969 168.0
432.007324 220.0
432.057617 308.0
432.134277 272.0
432.197968 212.0
432.257324 148.0
432.31076 236.0
432.341705 252.0
432.38208 108.0
432.414703 120.0
432.45874 148.0
432.51178 236.0
432.565033 112.0
432.600861 264.0
432.607056 476.0
432.648712 280.0
432.680847 272.0
432.746887 144.0
432.78537 376.0
432.85907 292.0
432.92804 392.0
433.031067 364.0
433.041962 420.0
433.072449 468.0
433.150024 360.0
433.213501 420.0
433.260925 256.0
433.306763 284.0
433.340027 372.0
433.357117 444.0
433.368164 488.0
433.38327 264.0
433.403259 316.0
433.47464 780.0
433.507874 448.0
433.553772 372.0
433.609924 280.0
433.658752 468.0
433.702789 252.0
433.753174 536.0
433.815399 496.0
433.875732 556.0
433.92511 672.0
433.991943 924.0
434.082184 748.0
434.130737 1592.0
434.15863 1224.0
434.220398 239364.0
434.367554 356.0
434.507935 416.0
434.606293 2164.0
434.678741 788.0
434.73111 656.0
434.82251 324.0
434.849762 740.0
434.909424 24048.0
434.959442 1144.0
435.050934 336.0
435.108154 316.0
435.166229 540.0
435.222931 200980.0
435.331024 188.0
435.369476 164.0
435.540863 240.0
435.614594 800.0
435.63974 424.0
435.670288 432.0
435.715424 160.0
435.843231 292.0
435.908356 2736.0
435.988129 212.0
436.039001 264.0
436.157227 216.0
436.224792 41936.0
436.343964 140.0
436.48175 212.0
436.541748 164.0
436.599854 288.0
436.659393 192.0
436.850037 160.0
436.914795 300.0
436.978516 232.0
437.025055 140.0
437.158173 192.0
437.226196 4440.0
437.313446 300.0
437.381104 184.0
437.426361 292.0
437.4617 180.0
437.54422 304.0
437.605316 404.0
437.663147 572.0
437.760132 304.0
437.823486 336.0
437.897675 640.0
437.972534 584.0
438.03299 312.0
438.047241 428.0
438.126312 304.0
438.170013 404.0
438.224457 428.0
438.269806 212.0
438.328613 308.0
438.423492 104.0
438.51355 148.0
438.544434 260.0
438.580566 148.0
438.655457 216.0
438.720612 132.0
438.80191 168.0
438.900543 272.0
438.983673 212.0
439.034119 224.0
439.133026 220.0
439.228027 176.0
439.265625 176.0
439.359131 112.0
439.44043 140.0
439.691284 160.0
439.842224 160.0
439.971588 156.0
440.029327 156.0
440.180054 104.0
440.269928 124.0
440.58255 96.0
440.713837 108.0
440.918274 100.0
440.987183 204.0
441.413544 112.0
441.503448 100.0
442.695831 124.0
442.924042 120.0
443.948212 184.0
444.099884 100.0
447.131653 156.0
447.558594 104.0
449.815491 112.0
450.172394 112.0
450.519073 120.0
450.641754 100.0
450.856506 124.0
451.561584 148.0
451.649414 136.0
451.766479 164.0
452.151733 132.0
453.029602 108.0
453.152496 112.0
453.927979 112.0
454.792786 148.0
455.21228 108.0
456.927612 140.0
457.600067 140.0
458.088348 128.0
460.813416 124.0
461.194977 164.0
465.033936 172.0
482.876129 124.0
506.612305 144.0
509.586731 180.0
513.865845 148.0
515.123474 156.0
522.203613 232.0
533.116577 160.0
586.23291 188.0
589.8479 140.0
597.223022 152.0
601.330322 144.0
604.448181 148.0
613.645264 136.0
627.545654 140.0
632.296204 156.0
634.299683 140.0
645.604919 104.0
652.586792 128.0
663.249878 140.0
672.093994 100.0
674.82373 108.0
675.996765 140.0
705.342468 96.0
707.867859 188.0
719.405396 140.0
725.420166 112.0
752.195862 168.0
753.697754 176.0
811.158875 140.0
857.371582 132.0
1023.264343 108.0
1110.406494 160.0
1130.336548 108.0
1219.015869 152.0
1242.588623 176.0
1246.710327 212.0
1249.325928 172.0
1287.117554 164.0
1288.388916 172.0
1290.003906 148.0
1294.976929 208.0
1304.24707 180.0
1309.773193 216.0
1316.264038 188.0
1320.195068 160.0
1324.247925 160.0
1352.067139 144.0
1356.718262 156.0
1359.901855 160.0
1362.677612 180.0
1379.983154 156.0
1381.758179 168.0
1385.452515 156.0
1386.045166 164.0
1387.779663 196.0
1388.921631 156.0
1408.587891 144.0
1410.0 172.0
1410.119629 164.0
1413.709351 160.0
1417.858154 164.0
1419.55249 148.0
1419.642456 208.0
1424.190552 160.0
1430.491821 148.0
1431.523193 220.0
1433.135254 208.0
1436.037476 156.0
1436.467407 140.0
1440.664673 236.0
1443.015015 160.0
1443.665283 184.0
1445.927368 192.0
1446.881104 156.0
1457.180298 232.0
1460.061279 204.0
1463.317993 164.0
1467.142578 188.0
1468.210083 164.0
1469.758545 156.0
1470.346191 152.0
1472.453369 184.0
1472.812256 156.0
1475.234619 184.0
1480.161743 256.0
1483.463867 164.0
1484.345581 148.0
1486.547119 212.0
1487.322266 284.0
1487.399048 152.0
1488.059326 160.0
1488.650513 188.0
1489.264893 180.0
1490.278931 196.0
1492.146606 200.0
1493.130859 156.0
1493.553833 192.0
1494.861816 188.0
1499.274414 176.0
1499.975708 152.0
1507.037231 168.0
1507.923218 104.0
1511.9552 168.0
1512.140991 184.0
1513.023438 152.0
1515.710938 180.0
1517.028564 144.0
1517.227173 180.0
1518.036499 164.0
1519.486938 264.0
1526.135376 148.0
1527.951904 224.0
1528.313232 204.0
1533.943848 208.0
1535.160156 240.0
1535.44873 172.0
1537.258667 156.0
1538.187378 144.0
1542.155396 200.0
1548.187378 144.0
1549.871582 180.0
1556.821533 248.0
1556.876587 208.0
1557.850464 164.0
1558.259033 148.0
1559.280518 184.0
1559.602783 172.0
1562.189819 232.0
1565.420898 160.0
1567.378174 180.0
1570.334473 200.0
1572.50415 192.0
1572.987183 180.0
1574.967529 188.0
1575.796997 184.0
1576.563477 216.0
1578.697998 160.0
1580.509399 144.0
1581.589478 152.0
1581.910278 176.0
1582.139771 164.0
1582.226929 180.0
1582.781128 172.0
1584.951538 248.0
1585.545776 196.0
1588.672363 128.0
1591.042725 168.0
1595.539307 216.0
1596.657471 188.0
1599.660156 180.0
1601.682739 180.0
1604.240601 160.0
1605.2771 180.0
1605.484497 160.0
1605.604004 188.0
1607.13562 144.0
1607.383057 176.0
1609.202881 188.0
1614.540649 216.0
1616.212524 156.0
1618.672485 176.0
1619.142334 168.0
1619.374634 184.0
1619.671021 208.0
1620.247803 216.0
1621.201294 140.0
1621.401611 164.0
1625.134521 196.0
1625.940918 192.0
1626.663208 148.0
1627.739014 200.0
1627.803345 148.0
1630.07666 184.0
1632.608887 168.0
1635.046509 188.0
1637.067139 196.0
1638.452515 184.0
1640.096436 208.0
1640.35437 168.0
1642.031494 144.0
1642.208862 200.0
1642.394409 176.0
1642.596069 140.0
1644.112915 208.0
1644.540649 304.0
1650.726196 240.0
1651.149536 204.0
1652.411499 152.0
1653.908569 164.0
1654.119019 144.0
1654.523804 140.0
1655.365845 152.0
1656.742798 192.0
1657.026367 272.0
1657.536743 140.0
1657.869019 200.0
1658.27417 196.0
1659.595581 172.0
1662.110107 168.0
1666.559692 148.0
1667.876221 168.0
1669.941406 144.0
1670.502686 168.0
1671.421997 176.0
1673.017212 152.0
1673.163818 196.0
1675.533691 256.0
1675.664062 184.0
1676.046997 148.0
1677.057495 168.0
1677.538452 152.0
1677.82373 176.0
1678.924561 156.0
1679.226318 168.0
1679.319214 176.0
1680.328491 164.0
1681.943359 148.0
1687.326782 180.0
1687.825439 144.0
1688.447021 236.0
1689.060425 188.0
1689.706665 176.0
1691.138672 244.0
1691.277832 164.0
1691.842651 160.0
1694.119263 180.0
1694.234009 204.0
1695.56958 240.0
1696.58606 176.0
1697.578125 196.0
1698.074097 204.0
1698.275146 148.0
1699.046265 156.0
1700.071899 240.0
1700.450073 156.0
1701.647949 148.0
1703.342041 188.0
1705.056885 180.0
1705.878784 140.0
1706.133667 148.0
1706.98877 140.0
1708.428101 192.0
1708.707764 168.0
1709.563599 144.0
1710.542969 172.0
1710.641724 160.0
1711.975586 232.0
1712.469727 172.0
1713.219238 244.0
1713.919556 160.0
1714.537598 160.0
1715.584473 192.0
1716.013184 184.0
1717.060425 200.0
1717.266602 204.0
1717.447998 164.0
1717.852173 144.0
1718.206909 156.0
1719.056763 188.0
1720.905762 216.0
1721.541626 168.0
1722.821777 200.0
1724.17688 144.0
1724.466187 172.0
1724.63147 180.0
1724.780273 188.0
1726.19397 224.0
1726.367676 152.0
1726.541382 208.0
1727.318848 172.0
1728.667358 160.0
1728.981812 208.0
1730.380737 152.0
1730.571167 176.0
1731.37439 184.0
1732.036987 180.0
1732.616943 152.0
1734.489746 156.0
1735.194336 184.0
1735.675293 184.0
1736.911011 144.0
1738.415527 292.0
1739.41687 180.0
1739.665894 168.0
1740.349609 260.0
1740.535645 144.0
1740.811768 156.0
1743.154297 216.0
1743.44519 192.0
1745.731201 164.0
1746.305054 176.0
1749.733521 224.0
1751.382324 144.0
1753.748657 148.0
1754.690552 184.0
1757.242676 188.0
1759.437622 176.0
1761.458618 140.0
1761.984863 152.0
1762.720093 192.0
1763.831665 160.0
1763.982178 164.0
1764.22168 152.0
1765.105225 232.0
1766.231445 188.0
1766.348633 148.0
1766.490845 160.0
1766.633057 148.0
1767.001099 292.0
1768.842163 208.0
1769.453369 148.0
1770.952271 164.0
1772.79541 176.0
1774.128052 208.0
1774.974854 156.0
1775.388428 136.0
1775.855469 152.0
1776.04834 232.0
1777.273193 176.0
1778.473267 204.0
1779.094482 168.0
1780.647827 156.0
1780.715088 212.0
1782.328003 140.0
1783.386841 248.0
1785.698975 152.0
1786.281006 140.0
1787.154297 168.0
1789.401489 140.0
1791.439575 164.0
1793.470337 204.0
1795.055298 180.0
1795.381226 224.0
1796.370972 340.0
1797.197876 160.0
1797.743042 220.0
1797.915039 204.0
1798.748657 172.0
1800.219727 144.0
1802.306152 144.0
1803.092041 220.0
1804.004883 164.0
1805.696045 144.0
1807.049438 208.0
1807.878662 208.0
1808.132568 212.0
1808.547363 156.0
1808.995972 200.0
1810.494629 164.0
1810.621704 208.0
1810.689453 188.0
1811.000122 176.0
1811.031006 120.0
1813.137817 156.0
1813.502197 164.0
1813.773438 168.0
1814.146484 196.0
1816.198486 176.0
1816.597168 204.0
1816.962036 172.0
1817.555908 144.0
1818.124512 168.0
1818.445923 132.0
1818.913818 196.0
1820.730835 200.0
1820.832642 180.0
1821.622681 188.0
1822.574097 220.0
1822.710083 180.0
1822.905518 160.0
1825.71936 140.0
1828.194946 152.0
1829.281494 168.0
1829.522705 180.0
1830.273071 224.0
1830.512817 188.0
1831.098022 220.0
1831.83374 216.0
1832.401367 156.0
1832.486572 176.0
1833.247559 200.0
1835.572021 172.0
1836.220215 152.0
1836.621094 168.0
1837.951904 160.0
1839.317383 196.0
1839.76123 240.0
1839.889282 148.0
1839.966187 216.0
1840.16272 216.0
1840.928711 148.0
1841.870483 196.0
1841.990112 244.0
1842.972534 160.0
1843.408325 192.0
1843.596313 180.0
1843.861328 168.0
1849.146729 184.0
1850.156738 160.0
1852.734497 252.0
1853.274292 140.0
1854.405518 188.0
1854.89624 188.0
1854.988281 140.0
1855.194092 192.0
1856.025757 180.0
1858.86499 160.0
1858.993652 212.0
1861.182617 168.0
1861.457397 140.0
1862.616821 148.0
1863.841675 188.0
1864.249268 160.0
1864.821045 208.0
1865.134399 168.0
1865.753418 176.0
1866.183228 196.0
1870.854858 184.0
1870.949585 168.0
1871.419922 256.0
1871.879517 156.0
1872.310059 188.0
1873.82605 200.0
1875.342773 160.0
1876.61853 148.0
1877.35144 172.0
1877.963867 148.0
1879.827271 252.0
1880.491821 156.0
1880.793945 192.0
1881.035645 208.0
1881.380859 148.0
1882.460327 196.0
1882.809082 160.0
1884.878906 164.0
1885.501099 152.0
1889.608398 156.0
1889.81604 176.0
1891.062256 168.0
1892.620483 176.0
1894.716431 212.0
1895.795288 148.0
1896.241455 188.0
1896.700806 148.0
1897.671753 148.0
1898.339478 232.0
1898.695068 152.0
1899.354248 184.0
1899.77063 172.0
1900.62085 200.0
1902.643066 188.0
1903.433228 156.0
1903.74585 152.0
1904.006348 156.0
1906.51709 152.0
1906.795166 208.0
1907.090698 220.0
1907.65564 164.0
1908.064209 160.0
1908.322021 204.0
1908.759766 204.0
1909.725098 144.0
1910.036133 184.0
1910.146118 144.0
1910.473267 180.0
1910.769043 180.0
1910.873413 192.0
1911.630371 140.0
1913.682251 200.0
1913.823975 212.0
1913.966675 184.0
1914.076416 148.0
1915.585205 212.0
1916.637329 160.0
1916.959717 160.0
1917.918457 192.0
1918.718872 196.0
1919.060425 160.0
1920.394653 140.0
1920.464478 184.0
1920.778442 168.0
1920.952881 144.0
1921.057617 164.0
1921.72937 156.0
1922.549561 148.0
1922.837646 168.0
1923.177979 236.0
1923.369995 144.0
1924.854248 176.0
1928.016479 140.0
1929.581177 140.0
1932.143677 184.0
1932.213623 188.0
1932.344849 160.0
1932.772949 156.0
1933.26709 240.0
1933.83252 192.0
1934.165161 160.0
1934.812866 152.0
1937.5979 244.0
1937.685425 164.0
1937.930786 144.0
1938.35144 236.0
1938.41272 224.0
1939.297852 164.0
1939.560791 172.0
1939.928955 160.0
1940.03418 152.0
1940.358521 156.0
1941.296753 164.0
1941.547852 204.0
1942.735229 168.0
1943.191406 148.0
1943.551147 168.0
1944.235596 176.0
1944.349731 148.0
1944.498901 232.0
1945.13855 188.0
1945.561035 140.0
1946.359985 164.0
1947.624634 160.0
1948.327271 196.0
1948.450317 176.0
1949.302612 144.0
1950.374756 220.0
1950.647339 144.0
1950.954956 160.0
1951.157227 180.0
1951.306641 264.0
1951.693481 140.0
1953.619629 180.0
1954.138672 204.0
1954.543335 204.0
1954.96582 200.0
1955.053833 160.0
1955.168213 196.0
1955.80188 160.0
1956.013184 192.0
1957.668335 188.0
1960.725342 180.0
1962.488281 164.0
1962.779297 148.0
1963.528809 144.0
1964.657837 204.0
1965.012329 212.0
1965.09021 184.0
1965.921143 212.0
1966.731567 192.0
1967.124634 152.0
1968.320679 200.0
1968.788696 188.0
1969.707275 172.0
1971.288696 184.0
1972.508423 144.0
1973.321777 140.0
1976.328979 160.0
1979.285278 168.0
1981.72998 192.0
1982.440186 104.0
1982.722412 228.0
1983.484619 152.0
1983.715088 148.0
1984.291382 164.0
1985.133667 152.0
1985.807739 184.0
1986.045288 164.0
1987.658813 224.0
1988.396729 168.0
1988.95752 184.0
1989.481323 148.0
1991.405151 160.0
1991.79895 168.0
1992.136475 156.0
1993.646973 160.0
1994.188843 140.0
1994.5802 188.0
1994.797729 152.0
1994.935791 188.0
1996.180542 156.0
1997.292236 160.0
1997.67688 148.0
1997.870483 200.0
1998.288574 152.0
1999.365234 180.0
2001.394897 192.0
2001.937988 168.0
2002.971191 140.0
2003.060303 156.0
2003.122559 188.0
2003.265137 152.0
2003.425537 204.0
