>compound Maraviroc
>formula C29H41F2N5O
>ionization [M+H]+
>parentmass 514.336548
#inchi InChI=1S/C29H41F2N5O/c1-19(2)27-34-33-20(3)36(27)25-17-23-9-10-24(18-25)35(23)16-13-26(21-7-5-4-6-8-21)32-28(37)22-11-14-29(30,31)15-12-22/h4-8,19,22-26H,9-18H2,1-3H3,(H,32,37)/t23?,24?,25?,26-/m0/s1
#inchikey GSNHKUDZZFZSJB
#Ion_Source LC-ESI
#Instrument qTof
#Compound_Source Commercial
#PI Dorrestein
#Data_Collector Garg_Neha
#Scan -1
#Precursor_MZ 514.335
#ExactMass 513.328
#Charge 1
#CAS_Number 376348-65-1, 674782-29-7
#Pubmed_ID N/A
#Smiles C1=CC=CC(=C1)[C@H](CCN2C3CCC2CC(C3)N4C(=NN=C4C(C)C)C)NC(C5CCC(CC5)(F)F)=O
#INCHI_AUX N/A
#Library_Class 1
#SpectrumID CCMSLIB00000078381
#IonMode Positive
#UpdateWorkflowName UPDATE-SINGLE-ANNOTATED-GOLD
#LibraryQualityString Gold
#TaskID 77f51c88eb8b467eb4a01dd2d0cb90d2
##Scan# 1065
#SpectrumFile Plate6_21_40_GD8_01_15775.mzXML
#LibraryName FDALibrary_2_04302014.mgf
#MQScore -1
#Organism FDALibrary_2_04302014
#TIC_Query 0
#RT_Query -1
#MZErrorPPM -1
#SharedPeaks 0
#MassDiff 0
#LibMZ -1
#SpecMZ 514.335
#SpecCharge 0
#internalFilename spec-00000.mgf

>collision 10
45.809292 180.0
47.799995 164.0
49.163677 160.0
52.571609 168.0
54.735069 172.0
56.256336 192.0
57.358948 168.0
62.020538 160.0
62.83989 172.0
64.630661 160.0
66.612183 156.0
67.945992 148.0
77.302467 244.0
80.750793 140.0
80.979897 156.0
82.800842 144.0
83.581467 152.0
85.271286 188.0
85.794067 184.0
85.832787 216.0
86.662743 180.0
88.345856 168.0
89.063828 148.0
89.745102 148.0
90.954025 176.0
91.050858 156.0
91.151543 160.0
91.340881 116.0
91.766365 156.0
93.532745 152.0
96.450256 140.0
99.060669 172.0
99.953094 148.0
106.063942 4084.0
106.089844 144.0
107.06916 268.0
108.425308 196.0
109.176857 156.0
109.895531 168.0
110.094139 168.0
114.82798 184.0
115.055496 352.0
117.069389 5000.0
117.433998 168.0
118.072578 644.0
119.069328 164.0
119.463715 248.0
120.06926 240.0
120.750687 188.0
122.096443 176.0
124.061394 136.0
124.111313 2332.0
124.263008 96.0
125.111069 300.0
125.525604 172.0
126.101601 168.0
126.477371 180.0
127.390053 216.0
128.024338 236.0
130.506775 164.0
134.096436 144.0
137.368286 164.0
141.620743 164.0
142.310852 152.0
146.041412 176.0
146.335007 144.0
146.380753 184.0
147.061264 168.0
147.079941 248.0
153.028702 204.0
154.380951 188.0
156.082336 184.0
158.992477 148.0
162.919006 184.0
165.213486 184.0
165.769104 188.0
167.088913 148.0
169.681992 140.0
186.705383 164.0
187.743011 164.0
188.119553 156.0
189.163818 168.0
189.358231 200.0
189.558228 164.0
191.123444 140.0
193.3526 196.0
194.981247 160.0
198.330612 140.0
199.993484 160.0
201.064529 180.0
204.215149 196.0
205.144821 708.0
214.59761 140.0
214.641342 180.0
221.993286 148.0
226.161545 244.0
227.162308 152.0
232.112137 156.0
233.621277 180.0
236.973572 160.0
239.927185 188.0
240.991989 152.0
245.028625 156.0
245.162613 140.0
247.188034 704.0
248.19313 136.0
248.270142 196.0
249.089355 168.0
252.118546 1484.0
252.294312 204.0
253.121552 344.0
256.593079 148.0
257.671844 164.0
260.145294 4712.0
261.028473 180.0
261.147461 652.0
262.164215 148.0
263.151276 180.0
268.075348 140.0
268.120972 176.0
273.499146 144.0
279.812286 188.0
279.892212 204.0
280.01709 152.0
280.040314 104.0
280.150665 66200.0
280.211182 284.0
280.335266 212.0
280.795227 124.0
281.048859 176.0
281.090729 160.0
281.153656 10696.0
281.418671 152.0
281.534393 124.0
281.876984 164.0
281.917084 204.0
282.155853 1560.0
282.500977 212.0
282.537933 124.0
282.853607 144.0
283.156647 140.0
284.049896 148.0
288.123383 140.0
288.255157 148.0
288.765625 140.0
289.747314 148.0
289.886261 144.0
294.896027 144.0
296.569794 160.0
300.752441 164.0
307.482605 196.0
310.116669 108.0
317.002991 200.0
318.642334 176.0
326.391571 172.0
328.700592 204.0
341.827118 164.0
343.986938 140.0
355.882385 236.0
362.362366 192.0
371.596985 148.0
378.361084 164.0
380.070343 148.0
387.271057 148.0
387.466919 148.0
388.125397 208.0
388.376404 156.0
388.490143 212.0
388.625122 160.0
388.687469 112.0
388.781464 164.0
388.886475 184.0
388.955933 180.0
388.998627 112.0
389.050049 168.0
389.118591 268.0
389.184082 208.0
389.240326 64540.0
389.409912 232.0
389.658234 228.0
389.776489 148.0
389.899048 316.0
389.933289 108.0
390.098145 140.0
390.135834 164.0
390.243317 17344.0
390.399078 100.0
390.970398 180.0
391.247742 2588.0
391.549744 208.0
391.636749 172.0
391.727966 124.0
391.788544 164.0
392.246552 216.0
392.551514 192.0
392.685577 136.0
392.840637 116.0
392.951752 116.0
393.739319 168.0
401.105438 156.0
407.018707 172.0
412.090637 204.0
415.657257 156.0
417.017761 224.0
425.933716 176.0
430.95163 192.0
431.844574 184.0
432.490051 232.0
432.937225 160.0
442.309662 148.0
445.547119 172.0
462.193909 160.0
462.24527 164.0
496.12854 168.0
500.371399 144.0
506.386536 172.0
506.991394 140.0
507.950897 184.0
511.608917 156.0
512.190186 108.0
512.40863 148.0
512.568298 148.0
513.178345 116.0
513.281006 232.0
513.367188 108.0
513.572632 172.0
513.821167 168.0
513.869263 160.0
513.990051 160.0
514.336548 43324.0
514.482605 224.0
514.517212 224.0
514.706177 192.0
514.828491 104.0
514.923645 164.0
514.973816 256.0
515.05658 140.0
515.249146 160.0
515.338379 15720.0
515.461243 132.0
515.500732 136.0
515.623535 220.0
515.666931 100.0
515.798889 192.0
515.975952 140.0
516.236023 96.0
516.338501 2672.0
517.341919 584.0
517.80426 152.0
518.228516 124.0
518.273682 104.0
518.337402 132.0
518.574524 144.0
518.60907 96.0
1220.987061 140.0
1346.161133 204.0
1425.185669 164.0
1457.792847 172.0
1517.833862 144.0
1545.510132 200.0
1587.140503 156.0
1604.920166 204.0
1616.118774 196.0
1632.869019 180.0
1676.898926 164.0
1680.69104 164.0
1714.873047 196.0
1732.813843 172.0
1736.759888 192.0
1750.631348 188.0
1751.197754 152.0
1780.857544 212.0
1789.13208 156.0
1809.436768 172.0
1849.037476 148.0
1867.18335 208.0
1885.210449 204.0
1919.64917 208.0
1931.92981 180.0
1933.259766 144.0
1944.644653 152.0
1988.69812 224.0
1990.740234 144.0
