>compound Napsamycin C
>formula C39H50N8O12S 
>ionization [M+H]+
>parentmass 855.3341664920905
#inchi InChI=1S/C39H50N8O12S/c1-20(46(2)35(54)28-16-23-15-25(49)8-7-22(23)18-40-28)32(34(53)41-19-26-17-30(50)36(59-26)47-11-9-31(51)44-39(47)58)45-33(52)27(10-12-60-3)42-38(57)43-29(37(55)56)14-21-5-4-6-24(48)13-21/h4-8,13,15,19-20,27-30,32,36,40,48-50H,9-12,14,16-18H2,1-3H3,(H,41,53)(H,45,52)(H,55,56)(H2,42,43,57)(H,44,51,58)/b26-19-
#inchikey MFEPAAMYDYMBSN
#Ion_Source LC-ESI
#Instrument LTQ-FTICR
#Compound_Source Isolated
#PI Dorrestein
#Data_Collector Peng
#Scan -1
#Precursor_MZ 855.0
#ExactMass 854.327
#Charge 1
#CAS_Number N/A
#Pubmed_ID ChemSpider ID:?2301530
#Smiles N/A
#INCHI_AUX N/A
#Library_Class 2
#SpectrumID CCMSLIB00000075017
#IonMode Positive
#UpdateWorkflowName UPDATE-SINGLE-ANNOTATED-SILVER
#LibraryQualityString Silver
#TaskID 57d156df513b468a82f4fc631178998b
##Scan# 1
#SpectrumFile 1904_855.mzXML
#LibraryName gnps_library.mgf
#MQScore -1
#Organism compounds from Streptomyces roseosporus
#TIC_Query 0
#RT_Query -1
#MZErrorPPM -1
#SharedPeaks 0
#MassDiff 0
#LibMZ -1
#SpecMZ 855
#SpecCharge 0
#internalFilename spec-00000.mgf

>collision 10
241.006241 0.566939
247.295624 0.808923
249.436432 3.256078
260.309052 0.783137
261.639771 6.304108
262.278564 2.881037
263.266998 5.597259
265.19458 3.221377
267.285553 1.945141
271.187225 1.754917
272.078857 3.827923
273.25592 1.692819
275.809998 0.756091
277.175812 0.955345
282.039764 0.445584
286.471924 1.69122
289.202759 2.953779
290.325623 4.585117
291.304962 4.397333
292.398621 0.676226
293.294434 1.937977
294.024658 1.498945
300.024292 25.507322
301.462006 8.707386
302.11554 0.989592
302.754578 0.403266
306.051941 1.006121
307.115875 0.831182
308.447998 0.367556
309.080566 2.607571
310.073334 15.862549
311.259247 4.561272
312.223694 5.006075
313.070618 1.222445
314.232483 0.370164
316.334656 1.684725
318.925781 4.141494
321.145233 17.693266
322.178589 4.113037
323.231018 4.135025
324.253784 9.596159
325.16925 0.49198
326.464691 2.142593
328.232758 4.573907
329.213135 3.85478
330.242432 5.703858
331.298737 0.626719
334.110596 3.358139
339.0495 116.665024
340.191132 26.901958
341.227142 9.043762
342.209656 1.867462
346.418213 2.574823
347.311951 0.529399
350.654327 1.689417
352.259491 25.600136
353.4664 4.506164
354.175446 2.112871
355.292542 2.789901
356.246063 1.809371
358.042328 4.137818
359.281219 2.750416
360.127014 2.537911
363.190979 2.480526
368.422058 3.84935
369.259888 0.851135
370.397705 6.565957
371.231384 1.142465
375.232147 4.742391
377.16684 3.548275
378.246704 4.540692
379.8237 6.272937
380.88147 1.183651
384.635986 1.51265
385.332977 8.978574
386.412781 7.662098
387.228516 3.927906
390.33374 1.710992
392.017517 2.158108
393.160828 1.606868
394.41626 2.653859
396.161133 24.94442
397.250702 10.307421
398.1922 8.743198
399.125183 1.095757
400.268738 1.599388
403.312988 20.965775
404.294006 20.844566
405.400116 7.760602
406.390869 6.56572
407.282196 9.137096
409.17572 2.009886
415.310303 1.333521
416.34137 20.886154
417.057983 2.989424
418.173676 1.144876
419.763977 3.318047
421.418579 25.837975
422.273132 96.844872
423.18988 20.051849
424.168701 22.458591
425.033783 3.100809
426.261353 1.899693
429.382324 1.171528
431.311646 1.279073
433.253357 4.979194
434.050171 1.364881
438.264526 5.619668
439.391846 0.409669
440.34198 3.311087
441.138428 4.682838
442.17749 49.730911
443.225586 9.504511
444.070526 4.109523
445.323029 1.635409
447.22644 26.347519
448.25592 14.20961
449.202393 5.442498
450.39856 5.919331
451.409241 5.514553
455.220062 13.834269
456.306915 10.662458
457.6073 1.584606
459.549133 8.066916
460.319214 22.872107
461.254578 4.354336
462.391357 1.612612
463.580261 4.29084
464.239929 8.896749
465.3172 4.078579
467.23584 1.969788
468.332153 4.707757
469.360321 0.546425
471.177979 2.198021
472.414581 7.292739
473.254761 69.826904
474.247559 34.154285
475.245453 43.368954
476.133179 16.861897
477.175903 6.058963
478.342987 1.490125
479.327087 6.446913
480.501221 6.842764
481.264587 29.414679
482.294739 18.878117
483.269043 6.745278
486.279663 3.362544
488.096039 1.997189
489.106842 1.773175
490.602448 1.746519
492.204651 2.589797
492.826111 5.601898
494.407715 1.370562
496.016632 1.699516
497.249573 9.298751
498.264648 31.849356
499.197449 301.186615
500.222168 132.000931
501.157379 55.891121
502.336823 2.593894
503.169678 7.038245
504.427704 2.402869
506.087799 8.249768
507.155426 11.778074
508.0849 4.677969
509.336517 1.165371
511.519226 0.606226
512.261597 0.97359
513.085693 1.735261
514.220093 8.856759
515.236389 21.72945
516.360657 9.373846
517.314331 84.18689
518.283936 35.634872
519.230835 2.905642
521.156494 2.503427
522.696045 1.516799
523.309692 27.357031
525.238281 1.665974
527.21582 1.114395
528.230591 2.54959
530.368286 3.0154
531.237671 3.612511
532.230774 25.772806
533.307983 23.692833
534.312378 118.49218
535.255249 53.916458
536.230591 19.627842
538.182739 2.338377
539.441772 1.765233
540.613647 0.702403
542.286865 33.105171
543.345703 15.184404
544.37738 8.791382
545.854004 6.063327
546.697876 2.008126
547.55249 2.943738
548.236572 3.411536
549.044067 4.747074
550.655762 4.697527
551.487061 0.390847
552.467041 1.482292
557.110413 0.490768
558.223206 9.348292
560.28833 638.804138
561.234131 315.490875
562.259338 131.058319
563.114258 4.155235
564.189575 3.131231
565.809509 3.517408
566.497314 3.678785
567.323608 4.726426
568.240479 5.512432
570.160889 7.972385
571.192078 4.245645
573.253174 2.497329
574.351929 4.860308
575.65802 8.183655
576.259949 7.413684
577.227173 4.172005
578.500488 0.74534
579.434326 1.699291
582.503296 0.356937
583.156372 1.717217
584.193481 1.665524
585.326599 4.51525
587.384827 19.677195
588.376831 5.574858
589.250977 0.333532
590.248352 0.501392
591.38916 5.640958
592.43988 2.101288
593.571899 0.809301
594.563843 8.219497
595.597168 1.676219
596.304443 3.682256
597.145264 3.972935
599.582153 1.454981
600.184631 0.523234
605.088318 12.443247
606.024902 4.333965
607.272522 1.492778
608.876831 0.857572
610.118591 11.999888
611.75 9.852108
612.463257 6.955017
613.344482 3.709359
614.333374 5.445724
615.181885 0.617879
617.084839 1.473447
618.265503 0.617366
619.221558 0.636539
622.091431 1.529952
623.237183 9.017702
624.283142 3.87849
625.239624 6.028645
626.399658 15.075916
627.572021 34.272209
628.287537 175.015594
629.187988 88.613449
630.246216 130.171082
631.365173 50.554855
632.364746 15.505944
633.411133 4.937548
634.251709 2.586241
636.615234 0.612382
637.280884 1.865072
638.257202 5.872023
639.052979 1.722797
640.478882 4.773007
641.481689 1.066805
642.313477 3.353043
643.569397 1.843857
644.242065 6.697558
645.442017 6.089255
646.335022 20.219645
647.223511 42.005531
648.260986 946.947693
649.253418 379.575104
650.244751 121.26535
650.994751 4.517451
653.087524 2.476578
654.480042 7.532933
656.174438 412.20755
657.226562 219.319489
658.230469 87.278984
659.649353 5.848461
660.685181 1.208003
662.178833 42.886135
663.159424 35.24556
664.274475 24.55595
665.332275 6.850533
666.023193 8.46621
666.638306 2.389416
668.379883 7.086433
669.398987 0.672528
670.544434 0.636235
672.194702 65.24469
673.496521 457.940186
674.221191 4869.386719
675.199585 2210.61792
676.203003 696.020142
677.267029 14.075642
678.296143 6.302591
680.200378 484.969543
681.22467 212.659042
682.288635 71.018982
683.328491 3.01486
684.367554 3.42392
685.339417 4.779734
690.186523 119.311508
691.168396 51.837059
692.167542 78.860359
693.634399 9.970817
694.381775 18.761015
695.170105 5.93396
696.13501 13.286369
697.034058 4.108581
698.972412 5.51134
701.83667 1.764168
703.419495 1.536284
704.779663 2.999642
705.531616 12.034198
706.481506 3.24962
708.766235 5.730325
709.89917 16.440054
712.630005 7.900261
713.282593 148.12764
714.289612 94.20829
715.328857 34.308571
716.389526 2.610039
717.923767 3.370453
723.289978 162.028564
724.230591 81.923599
725.223389 30.462738
725.941956 0.439374
727.270142 9.414815
728.150269 3.242824
734.293152 2.224489
735.354736 9.758766
736.528564 9.907902
737.32312 3.825872
737.995239 5.630358
741.21106 2053.137939
742.212646 1056.92627
743.314941 318.084503
744.297729 0.367191
745.169922 5.977243
748.760864 4.310423
749.995972 1.06731
752.304932 3.381558
754.605713 4.68426
756.296997 9.410142
757.182007 6.022857
759.109497 3.924902
760.309692 1.523374
761.92395 4.966337
764.212158 2.615198
765.588867 13.431125
766.210571 7.58938
766.880493 1.100585
768.609253 2.50392
772.393555 1.219963
773.119385 2.992647
774.134888 1.462642
775.210571 4.889825
779.120605 2.492074
780.575195 1.672099
781.390503 0.761424
782.378662 0.950507
784.22998 3.706666
786.212769 2.940718
789.247192 2.166418
791.218384 7.165141
792.203613 3.348256
793.210815 14.383302
794.25 11.593748
795.446899 3.754522
796.105347 5.949311
797.414673 2.533344
798.311401 1.832835
799.302856 0.761651
801.480469 1.726729
803.234131 4.727741
806.054321 4.3097
807.407227 4.670163
808.271729 1.786943
809.358521 1.423769
810.497925 10.372258
811.41687 8.192082
812.266846 10.561459
813.065063 9.842498
814.269043 2.550506
815.167358 2.486254
816.199585 1.201509
818.679932 4.377634
819.318481 18.457077
820.367188 25.443945
821.330078 10.26195
822.206543 2.012105
824.456421 6.388527
825.815674 9.533316
827.407104 1.411811
828.272583 1.35433
830.290283 6.98697
833.543945 6.15995
835.335205 6.154585
837.235352 1164.935669
838.216309 736.952515
839.203857 279.213806
840.080933 5.083298
840.810181 0.312986
841.589111 7.07133
845.106934 0.999977
846.60144 9.8188
855.604858 0.316186
857.588501 0.431393
