>compound MLS001141073-01!1-[(2S)-2-amino-4-methylpentanoyl]-N-[(2S)-3-methyl-1-oxo-1-(1-phenylethylamino)butan-2-yl]piperidine-4-carboxamide
>formula C25H40N4O3
>ionization [M+H]+
>parentmass 445.316406
#inchi InChI=1S/C25H40N4O3/c1-16(2)15-21(26)25(32)29-13-11-20(12-14-29)23(30)28-22(17(3)4)24(31)27-18(5)19-9-7-6-8-10-19/h6-10,16-18,20-22H,11-15,26H2,1-5H3,(H,27,31)(H,28,30)/t18?,21-,22-/m0/s1
#inchikey TVZBMYDJHZPXMZ
#Ion_Source LC-ESI
#Instrument qTof
#Compound_Source NIH Natural Product Library
#PI Dorrestein
#Data_Collector VVP/LMS
#Scan -1
#Precursor_MZ 445.318
#ExactMass 444.31
#Charge 1
#CAS_Number N/A
#Pubmed_ID N/A
#Smiles CC(C)C[C@H](N)C(=O)N1CCC(CC1)C(=O)N[C@@H](C(C)C)C(=O)NC(C)c2ccccc2
#INCHI_AUX N/A
#Library_Class 1
#SpectrumID CCMSLIB00000079888
#IonMode Positive
#UpdateWorkflowName UPDATE-SINGLE-ANNOTATED-GOLD
#LibraryQualityString Gold
#TaskID b1d8e8f6646f4e71acdff9ca3d919d08
##Scan# 1687
#SpectrumFile p1-D12_GD12_01_17920.mzXML
#LibraryName NIH_Natural_Products_Library.mgf
#MQScore -1
#Organism NIH_Natural_Products_Library
#TIC_Query 0
#RT_Query -1
#MZErrorPPM -1
#SharedPeaks 0
#MassDiff 0
#LibMZ -1
#SpecMZ 445.318
#SpecCharge 0
#internalFilename spec-00000.mgf

>collision 10
95.019943 152.0
95.052925 168.0
95.065994 432.0
95.161621 188.0
95.196571 116.0
95.291748 132.0
95.418068 148.0
95.437515 260.0
95.490021 184.0
95.54837 176.0
95.569771 220.0
95.626205 64.0
95.655403 56.0
95.735229 116.0
95.88913 192.0
95.924217 128.0
95.939812 200.0
96.035355 160.0
96.154366 240.0
96.226082 168.0
96.330093 132.0
96.422554 160.0
96.693771 212.0
96.823227 128.0
96.979713 140.0
97.032639 156.0
97.209167 124.0
97.22879 40.0
97.307304 328.0
97.328125 144.0
97.442825 152.0
97.480156 164.0
97.566635 180.0
97.844025 144.0
97.859772 176.0
97.901123 124.0
98.039017 168.0
98.070557 176.0
98.100121 192.0
98.13166 132.0
98.192795 160.0
98.648895 208.0
98.688438 148.0
98.803146 172.0
98.830841 148.0
98.920059 200.0
99.036728 156.0
99.084267 176.0
99.12191 60.0
99.256699 152.0
99.330078 144.0
99.453102 76.0
99.558319 228.0
99.592087 176.0
99.62188 120.0
99.639763 140.0
99.749054 188.0
99.854439 132.0
99.939972 176.0
100.001312 160.0
100.074486 180.0
100.093239 80.0
100.129829 220.0
100.220711 180.0
100.270531 128.0
100.292458 192.0
100.475914 120.0
100.541756 164.0
100.641563 104.0
100.72744 136.0
100.78138 88.0
100.883301 156.0
100.939285 60.0
101.011276 104.0
101.033287 156.0
101.061295 148.0
101.115326 188.0
101.154282 164.0
101.241447 196.0
101.300865 180.0
101.321564 204.0
101.337593 160.0
101.449821 156.0
101.47187 124.0
101.495934 148.0
101.560104 80.0
101.618279 44.0
101.642357 140.0
101.676628 256.0
101.741829 164.0
101.881279 216.0
101.981743 172.0
102.134552 196.0
102.196915 152.0
102.229111 60.0
102.317673 136.0
102.430443 120.0
102.587616 100.0
102.640038 180.0
102.686417 176.0
102.720711 132.0
102.740883 132.0
102.799393 44.0
102.977669 168.0
103.033607 160.0
103.055 844.0
103.0821 48.0
103.126556 80.0
103.413757 204.0
103.452217 92.0
103.508904 116.0
103.541306 40.0
103.875732 152.0
104.011688 212.0
104.025894 160.0
104.059601 192.0
104.176163 144.0
104.357033 176.0
104.513649 216.0
104.629662 100.0
104.643906 144.0
104.772217 160.0
104.802773 364.0
104.89856 156.0
104.985939 140.0
104.994019 112.0
105.002815 232.0
105.070419 24004.0
105.09449 152.0
105.114746 36.0
105.148636 164.0
105.162155 68.0
105.204544 184.0
105.230438 164.0
105.269882 116.0
105.296585 104.0
105.314812 52.0
105.351242 220.0
105.365555 172.0
105.406738 48.0
105.423088 68.0
105.437393 144.0
105.458389 220.0
105.527336 36.0
105.581177 60.0
105.609703 164.0
105.684601 112.0
105.727791 120.0
105.815811 172.0
105.854713 52.0
105.869049 132.0
105.981323 172.0
106.000145 60.0
106.074677 1740.0
106.127228 56.0
106.153885 164.0
106.375465 144.0
106.398048 52.0
106.441162 240.0
106.479912 212.0
106.551201 200.0
106.580833 240.0
106.595222 132.0
106.673317 120.0
106.714432 164.0
106.860909 220.0
106.878975 72.0
106.895439 44.0
106.923775 212.0
106.963356 48.0
107.020996 116.0
107.288826 100.0
107.38987 152.0
107.426994 128.0
107.584084 144.0
107.695335 144.0
107.784164 164.0
107.80896 364.0
107.870964 68.0
107.964005 220.0
108.102608 108.0
108.201958 176.0
108.444313 208.0
108.616409 88.0
108.675049 180.0
108.755424 160.0
108.906998 104.0
109.029572 184.0
109.158455 68.0
109.229172 128.0
109.285339 228.0
109.520576 184.0
109.537239 212.0
109.618492 188.0
109.714363 56.0
109.835312 180.0
109.895805 56.0
109.916672 104.0
110.057365 212.0
110.096199 172.0
110.110817 224.0
110.267502 224.0
110.284225 256.0
110.41803 200.0
110.484962 64.0
110.646111 108.0
110.660767 32.0
110.788513 156.0
110.830414 132.0
111.02536 148.0
111.049316 152.0
111.090378 176.0
111.107162 148.0
111.140732 148.0
111.245667 104.0
111.304451 168.0
111.329651 284.0
111.367455 96.0
111.447281 192.0
111.480904 100.0
111.588814 156.0
111.62384 180.0
111.726898 164.0
111.798203 212.0
111.815277 216.0
111.846848 180.0
111.899475 232.0
111.971069 220.0
111.99205 228.0
112.019135 224.0
112.076561 89280.0
112.150124 248.0
112.16571 120.0
112.181976 84.0
112.206985 56.0
112.236832 120.0
112.245972 124.0
112.277008 84.0
112.307297 180.0
112.328789 72.0
112.35582 60.0
112.385582 64.0
112.422607 608.0
112.476311 76.0
112.493973 68.0
112.529861 172.0
112.57103 48.0
112.597427 68.0
112.627747 136.0
112.665352 224.0
112.70459 128.0
112.773689 168.0
112.813507 152.0
112.832741 44.0
112.86792 128.0
112.903862 68.0
112.926674 56.0
112.952774 64.0
112.992706 132.0
113.0299 172.0
113.078743 8692.0
113.14296 104.0
113.183189 28.0
113.234009 68.0
113.28273 72.0
113.320862 88.0
113.34417 156.0
113.378075 136.0
113.40519 156.0
113.437416 152.0
113.481941 52.0
113.541313 80.0
113.587814 108.0
113.591705 100.0
113.600395 84.0
113.650597 108.0
113.692574 84.0
113.706787 96.0
113.727608 104.0
113.764099 136.0
113.785324 204.0
113.806557 164.0
113.846725 244.0
113.900101 84.0
113.932709 100.0
113.95417 152.0
113.984978 124.0
114.031998 128.0
114.079674 284.0
114.0858 128.0
114.093918 232.0
114.131645 64.0
114.172043 64.0
114.223091 72.0
114.274147 224.0
114.331596 80.0
114.491257 60.0
114.54451 64.0
114.659561 160.0
114.712845 104.0
114.778938 64.0
114.872772 124.0
114.891975 88.0
115.024277 36.0
115.049896 188.0
115.090462 144.0
115.201515 72.0
115.321175 100.0
115.357506 136.0
115.520027 76.0
115.811134 64.0
116.257065 108.0
116.353653 136.0
116.484642 200.0
116.53019 160.0
116.819984 120.0
116.856552 124.0
116.989983 76.0
117.011513 76.0
117.037346 128.0
117.069649 108.0
117.102417 3896.0
117.175186 148.0
117.235519 28.0
117.285088 76.0
117.310959 184.0
117.347603 184.0
117.371323 84.0
117.520149 44.0
117.610786 60.0
117.800804 176.0
117.852654 176.0
117.971512 236.0
117.990974 60.0
118.104668 324.0
118.226738 124.0
118.334961 176.0
118.384766 100.0
118.510399 176.0
118.534233 72.0
118.714149 104.0
118.777046 168.0
118.792229 132.0
118.824768 104.0
118.855148 212.0
119.183014 112.0
119.261246 48.0
119.413437 28.0
119.493919 108.0
119.534569 88.0
119.626671 88.0
119.674568 136.0
119.877136 128.0
119.990479 100.0
120.370125 68.0
120.548569 156.0
120.879433 128.0
121.280205 132.0
121.60701 116.0
121.721161 88.0
121.844162 104.0
121.872719 180.0
121.936447 104.0
121.993599 56.0
122.050758 180.0
122.066147 72.0
122.094032 968.0
122.145325 224.0
122.246529 60.0
122.266335 156.0
122.290543 120.0
122.332985 156.0
122.378593 104.0
122.442451 72.0
122.49752 192.0
122.629723 96.0
123.011307 100.0
123.105217 224.0
123.234352 64.0
123.300644 40.0
123.353691 168.0
123.384644 132.0
123.411171 64.0
123.64122 104.0
123.687698 60.0
124.197327 204.0
124.397026 96.0
124.430328 124.0
124.536911 56.0
124.756897 28.0
124.870293 92.0
124.965942 176.0
125.674461 104.0
125.888741 144.0
126.056282 332.0
126.353653 168.0
126.396164 36.0
126.421402 172.0
126.449867 144.0
126.622261 100.0
127.08403 204.0
127.268074 40.0
127.360947 124.0
127.384857 140.0
127.582611 64.0
128.064697 148.0
128.14975 88.0
128.648148 180.0
128.71814 132.0
129.032196 152.0
129.104401 992.0
129.136215 144.0
129.90181 180.0
130.084747 792.0
130.305893 144.0
130.40361 140.0
130.844894 168.0
130.890427 124.0
130.979248 144.0
131.138794 172.0
131.175217 64.0
131.273239 128.0
131.537903 144.0
132.088593 144.0
132.120621 216.0
132.24646 144.0
132.36322 128.0
133.00972 160.0
134.033127 172.0
134.718338 140.0
134.984131 196.0
135.00032 56.0
135.01651 132.0
135.266388 112.0
135.634674 180.0
135.871216 180.0
136.089371 188.0
136.114914 168.0
136.500641 152.0
136.600647 184.0
136.689056 184.0
136.824051 208.0
137.022003 168.0
137.063217 156.0
137.322693 208.0
137.542023 148.0
137.572372 136.0
137.995224 184.0
138.019501 156.0
138.09343 328.0
138.189346 120.0
138.240814 156.0
138.308685 80.0
138.510056 164.0
138.758453 64.0
138.922623 32.0
139.284103 172.0
139.363983 168.0
139.483841 176.0
139.610397 192.0
139.841354 172.0
139.916672 172.0
140.144043 2428.0
140.262955 144.0
140.369049 212.0
140.555389 212.0
140.635635 192.0
140.706451 80.0
140.739502 60.0
140.807983 68.0
141.004074 128.0
141.151794 380.0
141.188477 144.0
141.252335 152.0
141.358795 144.0
141.440384 144.0
141.609741 176.0
141.645264 168.0
142.165939 156.0
142.295029 124.0
142.382889 176.0
142.416138 168.0
142.679901 96.0
142.727448 124.0
143.799438 152.0
143.842407 176.0
143.887756 160.0
144.062088 140.0
144.604874 144.0
144.657532 48.0
144.920959 164.0
144.959305 60.0
145.023819 152.0
145.063385 160.0
145.146271 216.0
145.167847 124.0
145.390945 172.0
145.796799 116.0
145.984299 172.0
146.00354 96.0
146.029999 192.0
146.111786 240.0
146.924744 168.0
147.300232 180.0
147.662781 124.0
147.798248 148.0
147.885498 148.0
148.108124 156.0
148.510468 48.0
148.554138 108.0
148.602661 68.0
149.00325 148.0
149.058594 116.0
149.586884 72.0
149.657486 196.0
149.742706 160.0
150.052185 164.0
150.457153 160.0
150.87735 124.0
151.01918 156.0
151.053421 164.0
151.107239 200.0
151.849457 76.0
151.930389 100.0
151.950027 124.0
151.99173 116.0
152.079361 68.0
152.254395 136.0
152.276489 92.0
152.51973 152.0
153.0979 216.0
153.267868 192.0
153.418198 176.0
153.714172 132.0
153.748718 144.0
154.043549 136.0
154.193253 140.0
154.700302 160.0
155.047058 276.0
155.203232 236.0
155.3694 168.0
155.580338 196.0
155.726837 176.0
156.398148 208.0
157.03598 140.0
157.068771 140.0
157.200638 240.0
157.457001 208.0
157.607651 196.0
157.62764 72.0
157.702606 196.0
157.970154 184.0
158.045212 180.0
158.723999 144.0
158.894547 124.0
159.077988 288.0
159.308777 88.0
159.507294 164.0
159.592758 156.0
159.691025 240.0
159.791458 156.0
160.675751 140.0
160.854919 92.0
160.968521 112.0
161.03418 160.0
161.099854 124.0
161.339935 128.0
161.671265 112.0
161.747192 172.0
162.025757 232.0
162.233551 192.0
162.324829 160.0
162.702881 40.0
162.819672 128.0
162.988602 148.0
163.165237 120.0
163.437378 168.0
163.669006 160.0
163.865112 52.0
164.071548 128.0
164.110931 160.0
164.158234 96.0
164.267914 136.0
164.44397 136.0
164.54863 188.0
164.632889 164.0
164.942032 192.0
165.074966 200.0
165.110779 168.0
165.142624 172.0
165.878876 152.0
165.953232 68.0
166.050674 184.0
166.087204 568.0
166.127243 188.0
166.191757 164.0
166.360657 168.0
166.427887 144.0
166.587112 104.0
166.954666 100.0
167.119278 200.0
167.1539 240.0
167.32518 188.0
167.665192 104.0
167.685806 180.0
168.077774 192.0
168.100891 184.0
168.457291 156.0
168.511887 184.0
168.687271 172.0
168.940689 88.0
168.987259 220.0
169.018311 168.0
169.145126 192.0
169.445511 72.0
169.792847 224.0
170.080841 136.0
170.583588 112.0
170.797989 236.0
170.938461 100.0
171.042572 204.0
171.112854 156.0
171.292542 64.0
171.334229 104.0
171.949585 172.0
172.210663 92.0
172.239395 160.0
172.68634 168.0
172.845917 152.0
172.913956 60.0
172.94014 208.0
173.466614 140.0
173.860031 192.0
174.056915 192.0
174.11731 32.0
174.185608 124.0
174.451004 112.0
174.537766 48.0
175.145676 100.0
175.48288 100.0
175.604294 176.0
175.738831 152.0
175.949966 152.0
176.139877 152.0
176.327682 144.0
176.840775 156.0
177.065811 76.0
177.381104 216.0
177.444733 140.0
177.640823 212.0
177.704636 244.0
177.850586 172.0
178.070953 160.0
178.147995 168.0
178.278183 124.0
178.541367 172.0
178.578598 152.0
178.610413 116.0
178.738205 168.0
179.150055 168.0
179.806793 96.0
179.92157 140.0
180.071686 204.0
180.138245 176.0
180.429169 100.0
180.600296 104.0
180.787582 96.0
180.894638 144.0
180.929428 116.0
181.047043 160.0
181.132324 412.0
181.162415 28.0
181.414322 148.0
181.470612 68.0
181.808594 72.0
181.881058 148.0
182.098541 136.0
182.134583 212.0
182.337646 216.0
182.439789 164.0
182.516312 216.0
182.630707 168.0
182.665665 176.0
183.028992 76.0
183.080154 192.0
183.098999 172.0
183.149368 30564.0
183.214462 80.0
183.276382 108.0
183.286926 68.0
183.297836 64.0
183.307327 48.0
183.333374 32.0
183.387955 144.0
183.423737 76.0
183.462418 64.0
183.493759 56.0
183.58139 108.0
183.602951 36.0
183.629929 52.0
183.711655 80.0
183.81813 64.0
183.913223 48.0
183.961807 60.0
184.013107 60.0
184.038712 80.0
184.078796 132.0
184.152588 3700.0
184.218338 44.0
184.242661 44.0
184.329117 160.0
184.399384 52.0
184.482773 220.0
184.523727 84.0
184.605637 228.0
184.656219 36.0
184.972778 76.0
185.032349 108.0
185.062119 152.0
185.161209 216.0
185.215103 180.0
185.307236 144.0
185.351608 100.0
185.460342 76.0
185.509125 132.0
185.536392 136.0
185.631653 124.0
185.691422 132.0
185.929535 136.0
185.96376 92.0
186.073395 36.0
186.11412 164.0
186.182007 80.0
186.510757 60.0
186.559677 60.0
186.779938 112.0
187.076981 352.0
187.128265 108.0
187.291656 136.0
187.572311 28.0
188.005966 176.0
188.117874 192.0
188.456512 204.0
189.076019 216.0
189.115555 124.0
189.252426 192.0
189.285278 96.0
189.707214 52.0
189.838806 104.0
189.995148 164.0
190.071976 56.0
190.163849 140.0
190.472794 164.0
190.533234 148.0
190.563446 164.0
190.742081 108.0
190.794312 136.0
190.835541 68.0
191.091324 36.0
191.33902 84.0
191.427124 56.0
191.556564 152.0
191.856934 124.0
192.174103 156.0
192.339676 156.0
192.370041 208.0
192.441818 164.0
192.543991 44.0
193.060776 152.0
193.132675 96.0
193.522873 152.0
193.877426 168.0
194.251724 84.0
194.497787 100.0
194.673584 92.0
194.873581 144.0
195.081284 92.0
195.277359 220.0
195.565994 124.0
195.677353 72.0
195.713547 76.0
195.746948 184.0
195.908493 124.0
196.123047 132.0
197.163345 184.0
197.211578 60.0
197.530334 148.0
197.689819 204.0
197.88295 124.0
198.305923 100.0
198.462906 116.0
198.63118 164.0
198.864059 140.0
199.097076 136.0
199.119553 136.0
199.147629 116.0
200.069809 184.0
200.14032 132.0
200.923843 148.0
201.053421 828.0
201.129837 96.0
201.435104 184.0
201.587357 148.0
201.906799 124.0
201.957703 232.0
202.053879 140.0
202.079346 180.0
202.390686 164.0
203.045273 140.0
203.073639 228.0
203.093491 144.0
203.303436 100.0
203.510635 116.0
203.979385 116.0
204.130615 144.0
204.522675 196.0
205.001129 124.0
205.055283 116.0
205.134781 260.0
205.480148 180.0
205.55719 100.0
205.982574 148.0
206.125427 80.0
206.173996 196.0
206.239731 176.0
206.425568 184.0
206.914825 96.0
207.000717 128.0
207.046539 100.0
207.153015 300.0
208.038605 192.0
208.058014 540.0
208.134903 792.0
208.429199 52.0
208.892075 100.0
209.056061 152.0
209.129776 696.0
209.27771 64.0
209.326645 104.0
209.384247 84.0
209.47641 80.0
209.531143 148.0
209.657928 112.0
209.830872 120.0
210.012543 108.0
210.160049 1272.0
210.28952 128.0
210.315506 168.0
210.335709 124.0
210.387665 104.0
210.441956 184.0
210.52626 188.0
210.725555 104.0
210.78334 188.0
210.832474 88.0
210.910507 156.0
210.942307 64.0
211.007416 84.0
211.046371 60.0
211.071579 356.0
211.100433 144.0
211.143951 35964.0
211.20253 36.0
211.239182 80.0
211.30957 76.0
211.343567 120.0
211.380753 232.0
211.431824 80.0
211.471619 212.0
211.496017 140.0
211.535889 136.0
211.558334 52.0
211.621414 72.0
211.65979 68.0
211.74086 64.0
211.761139 84.0
211.842239 48.0
211.884705 248.0
211.911774 56.0
211.932053 52.0
212.021881 92.0
212.052307 152.0
212.079849 144.0
212.117004 200.0
212.145706 3340.0
212.26828 40.0
212.384293 80.0
212.416199 72.0
212.468414 76.0
212.491623 76.0
212.52063 72.0
212.70636 48.0
212.798828 80.0
212.837006 60.0
212.873901 108.0
212.909027 100.0
212.993835 68.0
213.054047 280.0
213.115845 32.0
213.148239 420.0
213.211731 76.0
213.237885 92.0
213.264053 108.0
213.371597 40.0
213.44429 180.0
213.500839 80.0
213.528625 68.0
213.548981 128.0
213.61879 112.0
213.671143 80.0
213.764252 132.0
213.803772 104.0
213.837006 36.0
213.921417 100.0
213.953445 80.0
214.078644 48.0
214.285446 48.0
214.369949 116.0
214.504013 128.0
214.646866 176.0
214.687683 204.0
214.86853 160.0
214.915207 144.0
215.078629 32.0
215.186646 240.0
215.56636 44.0
215.595581 160.0
215.686188 76.0
215.797272 208.0
215.963959 140.0
216.177521 56.0
216.610825 52.0
216.645981 240.0
217.246933 52.0
217.522766 160.0
217.557205 196.0
218.027939 148.0
218.466034 80.0
218.57196 72.0
219.317032 104.0
219.688568 160.0
220.045654 104.0
220.078125 104.0
220.405991 128.0
220.435532 68.0
220.565567 120.0
220.698608 104.0
220.740005 92.0
220.793228 48.0
220.819839 68.0
220.861252 188.0
220.976624 96.0
221.033356 116.0
221.083145 200.0
221.164581 17652.0
221.247299 260.0
221.318176 80.0
221.388062 100.0
221.43248 68.0
221.572479 152.0
221.636871 132.0
221.692123 112.0
221.71817 84.0
221.776169 52.0
221.871017 32.0
222.068039 80.0
222.16716 2100.0
222.309982 60.0
222.410889 76.0
222.574173 172.0
222.645447 100.0
222.862289 60.0
223.139923 192.0
223.148651 80.0
223.173157 128.0
223.284393 76.0
223.346848 120.0
223.382553 44.0
223.578918 136.0
223.656433 92.0
223.736664 68.0
223.80217 32.0
223.867676 188.0
224.173431 808.0
224.321777 48.0
224.544159 64.0
224.708221 96.0
224.738052 72.0
224.8246 40.0
225.054276 144.0
225.158676 736.0
225.177414 284.0
225.257523 92.0
225.332199 48.0
225.696838 160.0
226.071213 160.0
226.152969 152.0
226.507858 92.0
226.552795 144.0
226.837463 92.0
227.073273 180.0
227.22731 140.0
227.273483 88.0
227.314331 100.0
227.386353 112.0
227.659546 120.0
228.029053 72.0
228.056107 180.0
228.095184 68.0
228.134262 164.0
228.170471 12704.0
228.350754 80.0
228.383835 60.0
228.434967 52.0
228.477997 80.0
228.549301 56.0
228.600571 96.0
228.690735 44.0
228.759964 80.0
228.819717 80.0
228.910492 40.0
229.082169 68.0
229.174988 2168.0
229.238846 52.0
229.344315 84.0
229.452835 112.0
229.522186 92.0
229.663925 32.0
229.872086 72.0
230.045654 116.0
230.097549 132.0
230.173691 376.0
230.527359 152.0
230.714752 44.0
230.8871 100.0
230.929443 44.0
231.09581 160.0
231.138184 68.0
231.201721 40.0
231.816467 56.0
231.958908 60.0
232.993698 120.0
233.054459 64.0
233.309753 52.0
233.416168 140.0
233.5439 116.0
233.741638 48.0
234.411545 116.0
234.618805 60.0
235.015274 132.0
235.074982 152.0
235.476227 208.0
235.995422 212.0
236.047363 188.0
236.19754 60.0
236.950607 128.0
237.057846 144.0
237.160522 268.0
237.284653 72.0
237.499313 180.0
237.747818 100.0
238.103928 164.0
238.125427 144.0
238.958466 124.0
239.071915 244.0
239.135971 152.0
239.61731 60.0
239.663528 96.0
240.074142 136.0
240.160675 140.0
240.610367 48.0
240.736969 148.0
241.05513 140.0
241.998535 136.0
242.060455 152.0
242.134781 188.0
242.345413 88.0
242.751465 56.0
243.169785 580.0
243.611191 96.0
244.173767 76.0
244.512878 148.0
244.761917 80.0
245.07962 88.0
245.110779 100.0
245.353882 140.0
245.590866 88.0
245.806122 80.0
245.962173 112.0
246.012115 124.0
247.500275 156.0
247.757095 124.0
247.810364 240.0
248.073608 92.0
248.114365 100.0
249.980042 136.0
250.773651 168.0
250.852448 92.0
251.072281 160.0
251.353912 152.0
252.067535 104.0
252.099136 108.0
252.228714 168.0
252.946747 128.0
253.051208 140.0
253.215866 160.0
253.272873 72.0
253.716507 140.0
253.792603 60.0
254.065353 140.0
254.141495 144.0
254.859055 136.0
254.884476 116.0
255.064453 280.0
256.032837 68.0
256.906158 188.0
257.043365 188.0
258.442871 60.0
260.070831 112.0
261.05069 220.0
261.188965 132.0
263.059418 116.0
263.296814 196.0
263.513245 192.0
264.114502 124.0
264.15332 156.0
265.040375 52.0
265.072784 136.0
265.144073 164.0
265.166779 52.0
266.055542 104.0
266.117218 152.0
267.030334 152.0
267.054871 136.0
267.081085 264.0
268.038422 156.0
268.189392 176.0
269.501251 156.0
269.524139 96.0
270.04718 192.0
270.35144 36.0
271.062012 148.0
271.18161 172.0
272.71933 64.0
272.781769 144.0
273.080994 132.0
273.49884 44.0
273.679901 84.0
273.742462 192.0
274.949005 152.0
275.368286 148.0
276.201172 72.0
276.581696 104.0
277.012146 108.0
277.469482 68.0
277.658478 132.0
278.006805 140.0
278.920135 136.0
279.067596 148.0
279.205811 1848.0
279.329132 52.0
279.705139 136.0
279.948181 144.0
280.064728 40.0
280.208588 712.0
280.371246 84.0
280.664581 40.0
280.7146 40.0
281.024811 144.0
281.07486 80.0
281.196106 144.0
281.716339 144.0
281.742615 56.0
281.812744 136.0
282.381042 156.0
282.769135 160.0
283.061493 120.0
284.062469 152.0
284.263763 172.0
284.545685 136.0
286.075317 140.0
286.779297 200.0
287.588776 232.0
288.007446 60.0
288.254059 148.0
288.409515 156.0
288.997925 128.0
290.525879 76.0
290.692139 88.0
291.056824 176.0
292.072479 148.0
292.268768 48.0
292.554657 192.0
293.079132 184.0
293.437012 124.0
293.614319 164.0
293.86673 124.0
293.945221 164.0
294.051453 156.0
294.112427 116.0
294.214844 148.0
295.061279 84.0
295.818115 100.0
296.120819 156.0
296.14682 100.0
296.190308 212.0
296.231659 7172.0
296.410614 144.0
296.54425 68.0
296.755737 92.0
296.91452 80.0
297.043701 108.0
297.116882 144.0
297.1409 172.0
297.195801 60.0
297.236237 1660.0
297.408569 68.0
297.453186 92.0
297.71756 68.0
297.796539 116.0
297.861816 40.0
298.234924 284.0
298.941345 128.0
298.979218 84.0
299.258026 84.0
299.722992 200.0
301.085571 116.0
301.393005 88.0
301.818176 168.0
302.579865 132.0
306.21817 124.0
306.6539 56.0
307.055237 268.0
307.207306 424.0
307.424042 212.0
308.06134 208.0
308.164886 172.0
308.217957 168.0
309.080933 188.0
309.59201 144.0
310.13504 96.0
310.320831 56.0
311.366516 60.0
312.262695 64.0
312.399872 68.0
312.899597 40.0
313.769775 176.0
313.801514 156.0
314.226349 152.0
314.990784 92.0
315.215942 192.0
315.443085 40.0
315.786041 140.0
316.412384 204.0
317.053497 152.0
317.581757 164.0
318.106903 84.0
319.119385 116.0
320.017944 164.0
320.236725 104.0
320.454041 44.0
322.030731 252.0
322.159821 120.0
322.241486 148.0
322.745453 48.0
323.171082 68.0
323.239563 472.0
323.489594 80.0
323.532532 40.0
324.033905 232.0
324.10199 276.0
324.228302 5432.0
324.352844 76.0
324.51059 68.0
324.55719 104.0
324.582306 112.0
324.697052 72.0
324.829193 52.0
324.872803 36.0
325.066559 200.0
325.231812 1888.0
325.447021 60.0
325.508057 36.0
326.043304 72.0
326.111603 84.0
326.232025 196.0
326.604187 40.0
326.974182 124.0
327.062347 96.0
327.226715 72.0
327.327545 136.0
327.428375 148.0
327.500397 88.0
327.572021 168.0
328.444763 172.0
328.708099 100.0
328.827209 136.0
329.592773 148.0
329.657806 124.0
330.304962 116.0
330.456909 48.0
330.625031 180.0
330.677643 52.0
330.927399 116.0
331.003448 112.0
331.046906 160.0
331.079498 108.0
331.246094 144.0
331.403259 176.0
331.459595 164.0
331.530273 116.0
331.666412 32.0
331.731659 76.0
331.865814 196.0
331.956451 84.0
332.04834 140.0
332.12326 192.0
332.169159 172.0
332.233215 27728.0
332.333679 64.0
332.38205 24.0
332.455078 44.0
332.511047 100.0
332.547791 80.0
332.629059 120.0
332.678467 56.0
332.734161 92.0
332.759247 128.0
332.812775 36.0
332.889038 92.0
332.937744 232.0
332.982483 104.0
333.05368 72.0
333.114227 132.0
333.146912 52.0
333.175964 96.0
333.236084 4904.0
333.343109 40.0
333.37085 92.0
333.485992 92.0
333.772919 64.0
333.877472 116.0
333.902924 60.0
333.932037 112.0
334.015686 164.0
334.107941 112.0
334.236725 672.0
334.310394 120.0
334.430481 40.0
334.463226 52.0
334.496002 36.0
334.550598 128.0
334.579712 72.0
334.736298 36.0
334.794556 36.0
334.929291 64.0
335.049408 136.0
335.203186 92.0
335.248413 116.0
335.309967 108.0
335.384766 92.0
335.417572 104.0
335.444397 100.0
335.49411 64.0
335.57431 48.0
335.60907 148.0
335.899414 56.0
335.979126 76.0
336.061035 124.0
336.121429 96.0
336.223602 104.0
336.256439 64.0
336.325806 100.0
336.493713 140.0
336.62149 68.0
336.953888 64.0
337.068817 448.0
337.717865 120.0
338.107117 172.0
338.603577 52.0
339.057861 172.0
340.062744 180.0
340.709015 52.0
341.25351 1220.0
341.388977 176.0
341.845123 44.0
342.176392 44.0
342.255524 288.0
342.297882 56.0
342.832031 52.0
343.005249 128.0
343.270691 172.0
344.252258 116.0
344.806396 68.0
345.039276 144.0
348.018005 104.0
348.054718 136.0
350.035339 112.0
350.797058 56.0
350.998383 44.0
351.703491 176.0
353.063538 148.0
354.242401 60.0
355.65979 112.0
356.850616 64.0
357.004791 116.0
358.050964 108.0
359.223175 88.0
360.219696 108.0
361.100372 112.0
363.031799 140.0
363.05835 184.0
363.885529 80.0
364.105743 152.0
364.95694 96.0
365.059387 132.0
367.730164 32.0
371.756195 88.0
372.711395 84.0
373.792786 80.0
379.773102 92.0
379.804138 44.0
381.053528 396.0
382.081238 168.0
383.665497 40.0
384.176331 36.0
384.20755 84.0
384.234863 100.0
385.511658 204.0
385.691437 92.0
386.289673 192.0
391.828827 64.0
392.317505 64.0
394.318695 112.0
395.085785 136.0
400.299164 224.0
400.695374 64.0
402.098969 116.0
402.945496 104.0
403.421051 104.0
409.286591 144.0
410.293823 88.0
413.735779 72.0
414.529633 44.0
418.758667 52.0
423.066498 148.0
423.381775 60.0
424.147919 140.0
425.300507 96.0
426.1185 264.0
426.294373 124.0
426.487518 140.0
427.102722 224.0
427.137177 80.0
427.165985 168.0
427.326416 152.0
427.412415 208.0
427.832611 88.0
428.11673 260.0
428.190857 68.0
428.295654 284.0
429.29953 160.0
429.567505 104.0
429.831543 76.0
430.285553 116.0
430.991821 156.0
435.573761 124.0
437.494904 124.0
438.607117 136.0
440.860809 120.0
442.136292 136.0
442.454407 120.0
444.034119 72.0
445.095795 152.0
445.316406 3184.0
445.410767 36.0
445.92337 64.0
446.081818 240.0
446.318268 1468.0
447.272217 92.0
447.285858 64.0
447.326569 244.0
447.500824 28.0
447.993561 96.0
448.271637 36.0
448.688904 104.0
448.946106 40.0
449.473389 60.0
449.684387 48.0
450.068542 76.0
450.123413 180.0
450.182526 48.0
452.258331 52.0
454.754761 36.0
457.74762 88.0
457.858337 88.0
467.120514 136.0
469.368622 56.0
471.190002 120.0
475.064545 92.0
486.129333 64.0
487.033722 92.0
489.919312 52.0
490.329102 64.0
500.620239 48.0
501.39093 92.0
503.92099 112.0
504.077362 132.0
511.180267 88.0
515.125244 96.0
532.304871 64.0
533.05365 72.0
537.23877 84.0
545.132935 100.0
557.060974 72.0
563.222168 160.0
578.625 48.0
582.355652 48.0
599.257935 64.0
604.839661 156.0
615.122803 56.0
619.845886 92.0
622.410339 40.0
623.424683 80.0
625.527527 72.0
625.642029 84.0
627.909119 136.0
636.551636 92.0
655.353088 76.0
655.852478 168.0
661.240845 72.0
662.4953 56.0
665.551941 64.0
675.141602 136.0
676.321228 56.0
683.534851 84.0
690.525269 64.0
692.362183 56.0
697.256897 96.0
700.139832 84.0
708.909119 104.0
713.67041 112.0
715.383484 68.0
738.667664 60.0
751.12854 60.0
757.080383 192.0
767.537537 88.0
769.617676 104.0
773.321411 52.0
785.673889 44.0
795.135803 68.0
797.612671 96.0
820.608154 212.0
824.832581 76.0
825.284241 100.0
839.536255 220.0
845.226135 164.0
848.23761 48.0
852.631287 228.0
853.799805 240.0
869.204163 116.0
875.123047 212.0
881.274658 148.0
887.48938 128.0
895.476013 40.0
895.767883 100.0
897.770447 164.0
900.85614 68.0
901.381897 96.0
902.762573 232.0
909.394714 140.0
915.045227 164.0
919.759277 136.0
920.719238 144.0
921.764282 184.0
924.515747 80.0
927.525818 204.0
931.755371 132.0
936.439209 132.0
940.603577 264.0
942.722839 224.0
959.39917 144.0
963.249756 160.0
968.971985 196.0
970.831482 76.0
971.377258 132.0
972.010071 184.0
972.792114 160.0
973.543335 144.0
980.261658 160.0
981.296326 140.0
988.472961 152.0
988.641907 160.0
989.004944 104.0
989.530762 144.0
990.939941 196.0
993.629517 160.0
994.884644 120.0
997.378418 212.0
997.529297 100.0
1000.813293 196.0
1001.518555 152.0
1003.440552 136.0
1005.440125 228.0
1005.976562 60.0
1007.195312 132.0
1010.811462 120.0
1011.855835 44.0
1012.590332 180.0
1013.128723 188.0
1014.941345 164.0
1016.749207 256.0
1017.085571 204.0
1019.016113 92.0
1019.924805 36.0
1021.008545 120.0
1023.391846 264.0
1025.959351 148.0
1032.094849 156.0
1032.587158 84.0
1035.864258 236.0
1036.376831 264.0
1037.009766 172.0
1037.748413 164.0
1038.293457 140.0
1039.525146 172.0
1045.404907 196.0
1047.040039 148.0
1048.444458 72.0
1049.594116 160.0
1050.456055 88.0
1051.339966 272.0
1051.456177 148.0
1052.786011 196.0
1058.288696 176.0
1061.989014 92.0
1062.105713 120.0
1064.994019 172.0
1069.584473 216.0
1069.910034 164.0
1070.561035 152.0
1070.964844 44.0
1071.264526 48.0
1072.522095 168.0
1073.200073 132.0
1073.408691 168.0
1074.582764 160.0
1074.922119 244.0
1077.736328 200.0
1078.68396 184.0
1078.945435 212.0
1079.017334 88.0
1079.219971 168.0
1079.802002 124.0
1080.377563 196.0
1080.515015 184.0
1081.018799 48.0
1084.574951 112.0
1085.381348 60.0
1086.338867 80.0
1087.782471 140.0
1090.035156 152.0
1090.90271 132.0
1092.461182 60.0
1093.685059 152.0
1097.618042 124.0
1097.664185 88.0
1098.178589 224.0
1098.67334 188.0
1099.590454 108.0
1099.80835 180.0
1101.901611 156.0
1103.289429 172.0
1103.474609 228.0
1104.55249 220.0
1105.094971 180.0
1107.292603 104.0
1108.332642 112.0
1108.948975 188.0
1109.591919 172.0
1109.658203 128.0
1109.83728 132.0
1109.949951 168.0
1112.066162 140.0
1112.517578 160.0
1112.723267 160.0
1113.606445 164.0
1115.040649 204.0
1115.314087 132.0
1117.262451 172.0
1117.827881 216.0
1118.087402 172.0
1118.134033 68.0
1118.553345 200.0
1121.650757 144.0
1122.03064 168.0
1123.571289 188.0
1126.98291 32.0
1127.123169 104.0
1130.031616 64.0
1130.88147 176.0
1131.095703 172.0
1131.309937 156.0
1134.458374 100.0
1134.813721 156.0
1137.335938 184.0
1137.591064 180.0
1138.497437 216.0
1142.247803 160.0
1142.581421 80.0
1144.690796 176.0
1147.042114 204.0
1147.905029 176.0
1148.235474 164.0
1149.004395 224.0
1150.617432 120.0
1152.677368 100.0
1153.589844 188.0
1153.785889 132.0
1154.083374 212.0
1154.4823 228.0
1155.199219 124.0
1156.525391 132.0
1158.875244 140.0
1158.942993 152.0
1159.006592 208.0
1159.546143 176.0
1159.668091 188.0
1160.569702 60.0
1165.005127 224.0
1165.653687 168.0
1165.748779 124.0
1167.407471 168.0
1168.570557 184.0
1168.917603 104.0
1169.843262 184.0
1170.074707 168.0
1170.646606 116.0
1173.447021 140.0
1175.377319 204.0
1176.175781 172.0
1176.605835 160.0
1176.940308 168.0
1178.818726 76.0
1179.098877 120.0
1179.303955 132.0
1180.883301 168.0
1181.307373 232.0
1182.398193 192.0
1182.566406 176.0
1182.860718 136.0
1184.401367 176.0
1186.649048 224.0
1187.718872 160.0
1188.308838 228.0
1189.303833 48.0
1189.413696 144.0
1190.731934 196.0
1190.965454 160.0
1192.628174 120.0
1192.971802 44.0
1193.783203 116.0
1193.934448 180.0
1194.429688 196.0
1195.427246 184.0
1195.785034 116.0
1196.618042 144.0
1196.693726 100.0
1198.525757 192.0
1199.063354 184.0
1199.208008 148.0
1200.138672 132.0
1201.814697 116.0
1203.146729 168.0
1203.685303 144.0
1204.120361 180.0
1204.589966 132.0
1206.78064 212.0
1210.170898 240.0
1213.981934 152.0
1215.230469 184.0
1215.417725 112.0
1215.480225 192.0
1215.94519 152.0
1217.305786 140.0
1222.067139 240.0
1225.374146 92.0
1225.520508 180.0
1225.884888 188.0
1226.907349 132.0
1227.493042 176.0
1227.771973 52.0
1228.985718 148.0
1231.240356 44.0
1231.5896 168.0
1231.729248 92.0
1234.051147 224.0
1234.447998 96.0
1235.574097 104.0
1236.091797 64.0
1236.273804 172.0
1236.462646 144.0
1238.172852 200.0
1238.570068 116.0
1239.835693 232.0
1240.889648 164.0
1241.029907 152.0
1241.128052 48.0
1242.376465 164.0
1244.116821 192.0
1245.387695 176.0
1245.43689 136.0
1246.188599 128.0
1247.059937 68.0
1247.130249 140.0
1247.481689 164.0
1248.050171 236.0
1248.339478 112.0
1253.139771 192.0
1254.401245 196.0
1254.774902 144.0
1255.134521 184.0
1256.432251 84.0
1256.693237 132.0
1257.067261 236.0
1257.180176 184.0
1257.864746 224.0
1257.991821 128.0
1259.361694 160.0
1259.778442 212.0
1260.258789 236.0
1260.612061 184.0
1260.916016 212.0
1261.255249 172.0
1262.358154 176.0
1262.626831 196.0
1263.503906 176.0
1263.602905 152.0
1264.055786 104.0
1264.282227 228.0
1265.013672 152.0
1265.145752 112.0
1266.243286 168.0
1266.512329 52.0
1267.655884 188.0
1268.099487 196.0
1268.58606 140.0
1269.028076 68.0
1269.205322 212.0
1273.37085 132.0
1276.063965 124.0
1277.223145 160.0
1277.600098 192.0
1278.36853 192.0
1280.518555 220.0
1280.817627 132.0
1282.420776 236.0
1283.076538 204.0
1283.375977 176.0
1283.611328 220.0
1283.739624 176.0
1284.053467 144.0
1284.388672 244.0
1284.631226 104.0
1285.251831 148.0
1286.108276 56.0
1286.836426 156.0
1287.105713 156.0
1287.759521 156.0
1288.097534 172.0
1289.293579 204.0
1289.679443 232.0
1289.815308 76.0
1290.966309 156.0
1291.252441 128.0
1291.674438 208.0
1293.0625 228.0
1295.425293 68.0
1295.668823 140.0
1296.041382 64.0
1297.460449 152.0
1298.500122 176.0
1299.124146 172.0
1300.0354 192.0
1300.107178 212.0
1300.674194 156.0
1300.939697 164.0
1301.298706 176.0
1301.636108 148.0
1302.253784 164.0
1303.661865 164.0
1304.545898 168.0
1304.915894 164.0
1306.169678 268.0
1307.645996 148.0
1308.567383 136.0
1309.215454 188.0
1309.345093 40.0
1309.942871 192.0
1310.144531 232.0
1310.547974 116.0
1310.756958 196.0
1310.914551 148.0
1311.340698 196.0
1311.823608 192.0
1312.08313 172.0
1313.474854 144.0
1313.698486 264.0
1313.842773 176.0
1315.61084 184.0
1315.836548 228.0
1317.315063 156.0
1317.459595 208.0
1318.384399 148.0
1318.507202 148.0
1318.94812 168.0
1319.287842 132.0
1319.345337 164.0
1320.177124 224.0
1320.242188 168.0
1320.611084 176.0
1321.812012 200.0
1323.961914 196.0
1324.266113 160.0
1325.055664 60.0
1325.287476 96.0
1325.867188 212.0
1326.360107 112.0
1328.180054 168.0
1329.304565 204.0
1329.761719 188.0
1333.523804 152.0
1333.814575 208.0
1335.755981 44.0
1336.811035 128.0
1337.320435 168.0
1337.451416 172.0
1337.844482 132.0
1337.953735 124.0
1340.121216 164.0
1340.881836 100.0
1341.275391 144.0
1342.310669 176.0
1343.973755 156.0
1344.491821 112.0
1344.885864 168.0
1345.148682 204.0
1345.426025 112.0
1345.716919 128.0
1345.944458 152.0
1347.213135 180.0
1347.368652 188.0
1348.12854 96.0
1349.144531 200.0
1349.473511 88.0
1350.460693 164.0
1351.199463 156.0
1351.748291 156.0
1352.048218 144.0
1352.260498 176.0
1353.402466 172.0
1354.039551 80.0
1354.69873 164.0
1354.859985 172.0
1355.446045 164.0
1355.673218 160.0
1356.420776 128.0
1357.579224 184.0
1359.068237 184.0
1359.471802 228.0
1361.718262 136.0
1361.769653 32.0
1361.90918 88.0
1362.136963 176.0
1362.24707 64.0
1362.474854 128.0
1363.915039 132.0
1363.988647 116.0
1364.304688 148.0
1365.091431 164.0
1366.040161 76.0
1366.547729 116.0
1367.990234 160.0
1368.586548 164.0
1369.197754 40.0
1369.573364 128.0
1370.332031 160.0
1371.054199 180.0
1371.776489 220.0
1371.857544 128.0
1372.941406 60.0
1373.553589 48.0
1374.040405 108.0
1374.446289 84.0
1374.807861 376.0
1375.354004 196.0
1375.966675 212.0
1376.616455 200.0
1377.037354 160.0
1377.421387 200.0
1377.753906 180.0
1377.8573 160.0
1377.916382 196.0
1378.263672 144.0
1378.522217 148.0
1379.335205 116.0
1379.845337 112.0
1379.972046 248.0
1380.200195 96.0
1380.355469 164.0
1381.191162 180.0
1381.932617 188.0
1383.492432 76.0
1385.284546 172.0
1386.299561 124.0
1386.521851 168.0
1387.114868 148.0
1387.196411 152.0
1388.894409 192.0
1389.688232 112.0
1390.378296 196.0
1392.032715 144.0
1392.286133 136.0
1393.704956 196.0
1394.232544 184.0
1394.388672 176.0
1394.9104 164.0
1395.075195 132.0
1395.65979 152.0
1395.882812 176.0
1395.973999 196.0
1396.224976 152.0
1397.258789 160.0
1397.363037 172.0
1397.988037 128.0
1398.107056 208.0
1400.563965 228.0
1400.697998 156.0
1401.130127 160.0
1401.852783 152.0
1402.218018 152.0
1402.866455 92.0
1404.372681 232.0
1405.051514 68.0
1405.357422 176.0
1406.006592 112.0
1406.103516 76.0
1406.334961 132.0
1407.081421 164.0
1407.506958 152.0
1407.753418 172.0
1408.216431 172.0
1409.180054 212.0
1410.196289 188.0
1411.183105 184.0
1411.766235 112.0
1411.908325 136.0
1412.693726 148.0
1413.209961 204.0
1414.810303 156.0
1415.275635 136.0
1416.224243 216.0
1416.840942 124.0
1417.283081 92.0
1417.605225 108.0
1417.82251 172.0
1418.399658 200.0
1419.509277 232.0
1420.094238 172.0
1420.251709 96.0
1420.889282 204.0
1421.16687 184.0
1421.324463 168.0
1423.193481 152.0
1423.358643 208.0
1423.695068 224.0
1424.057007 180.0
1424.890747 100.0
1425.334106 112.0
1426.987671 224.0
1427.724487 168.0
1428.224609 156.0
1428.867798 120.0
1429.740723 100.0
1430.425537 144.0
1430.854614 196.0
1431.268799 176.0
1431.682983 60.0
1433.400391 188.0
1436.061646 180.0
1436.242554 164.0
1437.019653 100.0
1437.283691 156.0
1437.547729 176.0
1437.608154 192.0
1438.023193 120.0
1438.649658 164.0
1438.936646 236.0
1439.442505 236.0
1440.054199 196.0
1440.371338 184.0
1440.658447 164.0
1440.922852 120.0
1441.081543 200.0
1441.166138 164.0
1441.504639 168.0
1441.927856 128.0
1442.003418 128.0
1443.492676 140.0
1443.651489 52.0
1444.044678 192.0
1444.112793 156.0
1444.468262 116.0
1445.050781 152.0
1445.489624 180.0
1445.883179 196.0
1446.163208 196.0
1446.958008 140.0
1447.283569 204.0
1448.124146 192.0
1448.661865 188.0
1448.851318 176.0
1449.60144 132.0
1449.915771 160.0
1450.268311 192.0
1450.592529 216.0
1452.869141 264.0
1453.195435 152.0
1453.984619 204.0
1454.265381 164.0
1454.386841 216.0
1455.647095 132.0
1455.966064 172.0
1456.246948 164.0
1456.535645 36.0
1456.869873 192.0
1457.918335 40.0
1458.199585 172.0
1458.442749 88.0
1459.50708 164.0
1459.636353 160.0
1459.993774 196.0
1460.092651 152.0
1460.792358 172.0
1461.720581 196.0
1461.81189 156.0
1462.519653 140.0
1463.021973 184.0
1463.615845 100.0
1464.362183 192.0
1464.461182 156.0
1465.428589 152.0
1466.899414 108.0
1467.006104 228.0
1469.095581 212.0
1469.263428 52.0
1469.637207 136.0
1470.171387 116.0
1471.850708 220.0
1472.729004 216.0
1472.996338 212.0
1473.576904 172.0
1474.608521 88.0
1474.998291 172.0
1476.175659 220.0
1476.504517 120.0
1478.019043 108.0
1478.784302 244.0
1479.228271 148.0
1479.34314 192.0
1480.062744 124.0
1481.257446 212.0
1481.357056 184.0
1482.291748 148.0
1483.793945 192.0
1483.901367 180.0
1484.131348 72.0
1484.307739 180.0
1485.158936 180.0
1485.50415 152.0
1485.780273 164.0
1487.253662 116.0
1487.906128 240.0
1488.236206 116.0
1488.650879 120.0
1488.789062 156.0
1489.61084 128.0
1490.294678 200.0
1491.70105 224.0
1492.185303 40.0
1492.462036 148.0
1493.615601 68.0
1493.677124 152.0
1493.846436 188.0
1494.015625 144.0
1494.477295 168.0
1494.56958 148.0
1494.661865 148.0
1495.369873 140.0
1497.294556 156.0
1497.656616 116.0
1498.226562 172.0
1498.342163 128.0
1498.904663 60.0
1499.197388 196.0
1499.490234 172.0
1499.790894 156.0
1499.97583 156.0
1500.045166 256.0
1500.60022 56.0
1501.170898 136.0
1501.57959 176.0
1503.025024 160.0
1503.15332 68.0
1504.233765 244.0
