>compound MLS000069459-01!NARINGIN
>formula C27H32O14
>ionization [M+H]+
>parentmass 581.1864821560905
#inchi InChI=1S/C27H32O14/c1-10-20(32)22(34)24(36)26(37-10)41-25-23(35)21(33)18(9-28)40-27(25)38-13-6-14(30)19-15(31)8-16(39-17(19)7-13)11-2-4-12(29)5-3-11/h2-7,10,16,18,20-30,32-36H,8-9H2,1H3/t10-,16-,18+,20-,21+,22+,23-,24+,25+,26-,27+/m0/s1
#inchikey DFPMSGMNTNDNHN
#Ion_Source LC-ESI
#Instrument qTof
#Compound_Source NIH Pharmacologically Active Library
#PI Dorrestein
#Data_Collector VP/LMS
#Scan -1
#Precursor_MZ 581.194
#ExactMass 580.179
#Charge 1
#CAS_Number N/A
#Pubmed_ID N/A
#Smiles C[C@@H]1O[C@@H](O[C@@H]2[C@@H](O)[C@H](O)[C@@H](CO)O[C@H]2Oc3cc(O)c4C(=O)C[C@H](Oc4c3)c5ccc(O)cc5)[C@H](O)[C@H](O)[C@H]1O
#INCHI_AUX N/A
#Library_Class 1
#SpectrumID CCMSLIB00000085635
#IonMode Positive
#UpdateWorkflowName UPDATE-SINGLE-ANNOTATED-GOLD
#LibraryQualityString Gold
#TaskID d252d724072548979f1f6f1ced849daf
##Scan# 1443
#SpectrumFile p4-D08_GD8_01_18368.mzXML
#LibraryName Pharm_Active_Library.mgf
#MQScore -1
#Organism Pharm_Active_Library
#TIC_Query 0
#RT_Query -1
#MZErrorPPM -1
#SharedPeaks 0
#MassDiff 0
#LibMZ -1
#SpecMZ 581.194
#SpecCharge 0
#internalFilename spec-00000.mgf

>collision 10
45.187431 104.0
45.656918 112.0
45.733608 200.0
46.865776 228.0
47.714363 176.0
48.229931 176.0
48.958336 144.0
49.24424 184.0
49.719383 32.0
49.755352 172.0
49.884598 152.0
50.109772 160.0
50.520603 148.0
50.78833 216.0
50.846504 48.0
51.721645 196.0
51.936581 124.0
52.090168 136.0
52.317383 212.0
52.338978 224.0
52.870205 76.0
53.66333 192.0
53.726044 132.0
53.817989 200.0
55.180027 188.0
56.255634 164.0
56.309387 148.0
56.393059 168.0
56.565071 104.0
57.316006 196.0
57.420021 108.0
57.480366 168.0
57.589062 248.0
57.867313 124.0
58.570438 244.0
59.3008 68.0
59.746113 120.0
60.233246 224.0
61.191647 176.0
61.208771 160.0
61.83791 92.0
63.316299 168.0
64.04213 100.0
65.404755 196.0
66.197472 144.0
66.442223 212.0
66.887489 140.0
67.18734 32.0
68.217422 156.0
68.46093 128.0
68.520226 164.0
68.531761 48.0
69.419411 116.0
70.226013 192.0
70.432991 176.0
72.218079 112.0
72.723 212.0
73.367699 128.0
74.015236 128.0
74.452522 108.0
74.703468 192.0
74.939331 156.0
75.521095 212.0
77.602158 156.0
77.777588 88.0
78.130798 136.0
78.377296 116.0
78.689484 204.0
78.940392 112.0
80.069077 140.0
80.295418 184.0
81.991455 124.0
83.179779 212.0
83.343231 164.0
83.794456 168.0
84.104469 160.0
84.151932 240.0
84.265175 192.0
84.647453 164.0
85.044388 192.0
87.396027 156.0
87.457436 444.0
88.59465 188.0
88.692093 160.0
90.071358 220.0
90.88353 80.0
92.421196 72.0
92.440331 144.0
92.733345 192.0
92.886742 172.0
92.955811 168.0
93.241951 96.0
93.313072 172.0
93.644058 68.0
93.892677 140.0
94.265266 200.0
94.580505 240.0
94.971909 104.0
95.173737 164.0
95.397163 88.0
95.634476 168.0
96.888138 220.0
96.933197 164.0
97.035126 212.0
98.317635 224.0
98.633652 156.0
99.827194 124.0
100.434639 116.0
100.624214 136.0
100.672134 164.0
100.696106 160.0
101.151985 160.0
101.450462 140.0
102.382774 244.0
103.377373 160.0
103.92514 220.0
104.665009 164.0
105.332863 128.0
105.587395 176.0
106.333145 204.0
106.649445 164.0
107.046509 200.0
107.326752 192.0
107.539238 176.0
107.991722 180.0
108.362267 188.0
108.571625 136.0
109.763199 180.0
110.479591 120.0
111.006592 332.0
111.061935 92.0
111.500748 136.0
111.851997 208.0
113.977478 208.0
114.568954 104.0
115.038116 200.0
115.057327 184.0
115.091492 104.0
115.874313 156.0
116.037193 120.0
116.440613 128.0
116.767288 136.0
117.156891 168.0
117.598938 36.0
118.005058 52.0
119.04805 380.0
119.210236 144.0
119.249359 52.0
119.351532 208.0
120.153046 76.0
120.543877 128.0
120.672844 204.0
120.817184 180.0
121.022919 204.0
121.038246 192.0
121.062363 268.0
121.340607 152.0
121.360344 124.0
122.071785 176.0
123.011467 184.0
123.319603 136.0
123.950317 268.0
124.127655 164.0
124.458275 136.0
124.527374 104.0
125.584335 108.0
125.867989 180.0
125.907959 224.0
126.83873 264.0
127.034706 208.0
127.745926 180.0
127.795418 100.0
128.864136 140.0
129.057678 500.0
129.665192 108.0
130.395996 136.0
131.484634 124.0
131.861481 212.0
131.925476 156.0
132.731384 188.0
133.002106 224.0
133.027359 132.0
133.048019 136.0
133.66629 112.0
133.832016 172.0
134.322906 172.0
134.770782 92.0
134.916382 156.0
135.044357 376.0
135.219406 112.0
135.787033 184.0
136.08638 168.0
136.651169 124.0
138.272964 140.0
139.227142 172.0
140.472244 120.0
141.107513 64.0
141.429245 56.0
142.58905 180.0
142.810165 200.0
144.009048 76.0
144.312546 124.0
145.061325 156.0
145.654587 148.0
145.909317 112.0
146.518204 176.0
146.925629 88.0
146.990784 72.0
147.043747 4612.0
147.145248 72.0
147.181473 76.0
147.270828 80.0
147.348129 64.0
147.57048 156.0
148.048386 612.0
149.015015 136.0
149.050766 156.0
149.372375 116.0
151.03801 388.0
151.099564 76.0
151.344315 140.0
152.011047 60.0
152.04541 184.0
152.448151 140.0
152.570114 220.0
152.770248 132.0
152.831757 136.0
152.848984 80.0
152.908051 172.0
153.018082 12908.0
153.09761 88.0
153.126968 100.0
153.198593 100.0
153.252518 72.0
153.412994 56.0
153.472168 172.0
153.523941 40.0
153.78685 140.0
153.889145 68.0
154.020325 1152.0
154.217697 52.0
154.267136 64.0
154.353668 52.0
154.695099 72.0
154.979904 144.0
155.028366 188.0
155.09639 32.0
155.116211 52.0
155.227219 88.0
155.260025 128.0
155.349319 156.0
155.659561 56.0
157.872437 148.0
157.949966 44.0
158.405548 96.0
158.911957 132.0
159.175507 124.0
159.808929 176.0
160.30246 124.0
161.537079 188.0
162.154907 60.0
163.010147 52.0
164.06897 216.0
164.632858 128.0
164.842346 112.0
165.016281 276.0
165.049393 120.0
165.860947 112.0
165.904526 176.0
166.014786 144.0
167.032288 504.0
167.366425 132.0
168.416031 136.0
170.499115 88.0
170.67067 80.0
171.030197 572.0
171.159851 112.0
171.866241 176.0
171.970627 124.0
172.027847 264.0
173.207397 140.0
173.278122 120.0
173.409622 108.0
173.944229 164.0
174.503799 120.0
175.037933 164.0
177.024124 204.0
177.055496 148.0
178.055328 120.0
178.166885 152.0
179.031174 556.0
180.031403 140.0
181.67215 32.0
183.023697 160.0
183.363449 252.0
184.042923 164.0
184.84877 100.0
185.658737 56.0
187.071625 152.0
187.196869 84.0
187.41478 216.0
188.137527 104.0
188.388779 64.0
189.02034 108.0
189.056473 140.0
190.110992 124.0
191.031067 516.0
191.141479 44.0
191.628845 148.0
192.042343 132.0
192.147171 124.0
193.009308 164.0
193.484802 128.0
193.617706 168.0
194.03334 200.0
194.263519 152.0
194.957657 108.0
195.027161 2476.0
196.032303 132.0
196.877106 212.0
197.030258 148.0
197.494766 48.0
197.875351 76.0
199.269257 108.0
200.234116 56.0
200.859833 100.0
202.550201 192.0
202.998001 40.0
203.031021 360.0
203.256134 56.0
203.423584 208.0
203.724594 172.0
204.628372 76.0
206.172165 160.0
206.91626 172.0
207.026047 116.0
207.890427 160.0
208.996719 148.0
210.051163 52.0
211.51619 124.0
213.000839 132.0
214.205109 156.0
214.575211 188.0
215.030273 128.0
215.071136 164.0
215.392319 44.0
216.562317 96.0
217.069321 76.0
217.125046 148.0
218.023392 92.0
218.485031 148.0
219.029053 792.0
219.138626 76.0
220.038177 176.0
220.085419 120.0
220.106079 52.0
220.652695 152.0
221.046082 136.0
221.57312 176.0
224.662003 136.0
225.121643 200.0
226.114182 140.0
226.287796 220.0
228.078751 144.0
228.57196 152.0
229.044632 236.0
230.513916 52.0
231.02771 428.0
231.059235 184.0
231.106567 32.0
232.037003 160.0
232.06369 376.0
233.044052 160.0
233.722092 148.0
236.00058 200.0
237.059677 100.0
240.069244 168.0
240.288254 48.0
242.728668 136.0
243.0215 136.0
244.033646 212.0
244.060745 84.0
245.043869 472.0
246.048553 168.0
247.693451 144.0
248.480316 52.0
249.032257 148.0
249.221283 148.0
249.611053 116.0
250.045181 124.0
250.504883 44.0
250.741211 220.0
250.977631 104.0
254.781967 160.0
255.071243 136.0
256.060699 160.0
256.618347 160.0
256.682129 248.0
257.039368 184.0
257.591705 256.0
257.661987 68.0
258.282166 164.0
260.487518 100.0
261.040924 352.0
261.526123 200.0
261.886749 336.0
263.048828 356.0
264.013611 52.0
264.065369 168.0
264.515106 176.0
264.628418 112.0
265.078674 136.0
265.273132 132.0
266.516144 144.0
266.93869 224.0
268.527954 176.0
269.036987 180.0
269.40274 188.0
269.504028 152.0
270.053223 68.0
271.056976 280.0
271.097595 80.0
271.733734 132.0
272.065186 136.0
272.166962 164.0
272.561127 124.0
272.66629 212.0
272.712311 152.0
272.911102 188.0
272.965454 196.0
272.999451 188.0
273.075623 20856.0
273.212128 168.0
273.277252 204.0
273.317413 68.0
273.361145 196.0
273.50946 164.0
273.574127 132.0
273.653137 76.0
273.699249 48.0
273.791443 40.0
273.837555 36.0
273.878235 168.0
273.931763 60.0
273.979187 168.0
274.078918 3252.0
274.143951 40.0
274.404327 56.0
274.457092 76.0
274.651672 56.0
274.717651 68.0
275.001404 52.0
275.077423 304.0
275.126862 80.0
275.391022 68.0
275.424042 52.0
275.579315 104.0
275.602448 116.0
275.678436 76.0
275.714813 60.0
275.797424 132.0
275.866852 288.0
275.89328 60.0
275.936279 36.0
276.009003 108.0
276.058624 108.0
276.092712 180.0
276.184296 52.0
276.326538 56.0
276.859467 84.0
277.025055 52.0
277.853851 44.0
278.218933 64.0
279.0495 212.0
279.089386 52.0
280.047455 144.0
280.074463 172.0
280.637665 76.0
281.065918 208.0
281.131348 104.0
282.063171 132.0
283.05014 164.0
284.052216 144.0
284.582458 80.0
285.071777 532.0
285.183777 116.0
286.082794 124.0
286.755585 84.0
287.082611 168.0
287.973572 64.0
288.179657 68.0
289.234772 124.0
290.749817 120.0
292.309631 156.0
292.667023 112.0
296.290802 96.0
296.376465 144.0
297.066376 576.0
298.072266 152.0
298.264008 100.0
299.227234 112.0
299.333954 56.0
300.364441 208.0
302.57959 72.0
305.078094 172.0
310.077423 116.0
311.079071 160.0
313.079712 72.0
315.07254 224.0
315.082062 172.0
315.094666 292.0
316.108582 220.0
317.082458 164.0
318.182098 56.0
323.068085 112.0
324.081299 88.0
327.087219 144.0
328.099487 144.0
329.052032 144.0
330.139557 124.0
337.093842 152.0
339.089081 924.0
340.096985 136.0
341.791168 84.0
348.01944 200.0
349.145386 156.0
351.083618 508.0
352.078339 192.0
357.100464 72.0
359.262604 128.0
360.111908 92.0
363.048767 148.0
363.084839 136.0
364.658478 96.0
365.099457 136.0
367.095001 124.0
369.097809 136.0
371.094635 120.0
373.156403 48.0
376.698059 120.0
380.598083 44.0
381.082153 160.0
381.093079 100.0
381.105011 204.0
382.100037 152.0
382.993713 52.0
385.096039 168.0
393.906464 136.0
399.034607 188.0
399.105652 156.0
405.084686 160.0
407.045929 116.0
409.019928 44.0
417.130371 156.0
419.132721 148.0
425.279388 76.0
485.270508 128.0
492.094604 100.0
526.564209 60.0
555.528748 40.0
580.343628 132.0
580.789612 60.0
583.315369 136.0
587.244446 64.0
885.499512 68.0
893.858215 64.0
973.360779 232.0
981.094543 72.0
988.677368 216.0
989.822998 184.0
996.08844 132.0
1000.48407 48.0
1023.893738 48.0
1045.893433 128.0
1073.545898 44.0
1100.588257 80.0
1110.74707 264.0
1122.098877 140.0
1127.416992 68.0
1131.465698 156.0
1148.608765 152.0
1149.931274 156.0
1155.059692 172.0
1185.343384 140.0
1191.731567 172.0
1206.114136 256.0
1209.128174 208.0
1225.322998 196.0
1237.06958 152.0
1258.569336 200.0
1261.890137 128.0
1265.392334 200.0
1267.354492 188.0
1274.733887 32.0
1280.752808 220.0
1283.510742 120.0
1307.689209 192.0
1309.813232 168.0
1348.268555 96.0
1349.474731 192.0
1360.141235 128.0
1362.682129 200.0
1389.282593 192.0
1395.595459 200.0
1396.569702 128.0
1400.641235 160.0
1402.526367 120.0
1409.653809 144.0
1410.558105 180.0
1422.491089 84.0
1434.783447 60.0
1436.548096 136.0
1440.67749 180.0
1440.821045 104.0
1441.735352 156.0
1445.440796 148.0
1461.162109 180.0
1466.446777 168.0
1470.351807 176.0
1475.821289 172.0
1479.294678 188.0
1485.125977 168.0
1485.739624 160.0
1487.804077 100.0
1489.670166 216.0
1491.967896 240.0
1495.952881 28.0
1500.598389 44.0
1502.403076 96.0
