>compound MLS001076079-01!1-[(2-[DIETHYLAMINO]ETHYL)AMINO]-4-[HYDROXYMETHYL]-9H-THIOXANTHEN-9-ONE
>formula C20H24N2O2S
>ionization [M+H]+
>parentmass 357.162
#inchi InChI=1S/C20H24N2O2S/c1-3-22(4-2)12-11-21-16-10-9-14(13-23)20-18(16)19(24)15-7-5-6-8-17(15)25-20/h5-10,21,23H,3-4,11-13H2,1-2H3
#inchikey MFZWMTSUNYWVBU
#Ion_Source LC-ESI
#Instrument qTof
#Compound_Source NIH Pharmacologically Active Library
#PI Dorrestein
#Data_Collector VP/LMS
#Scan -1
#Precursor_MZ 357.162
#ExactMass 356.156
#Charge 1
#CAS_Number N/A
#Pubmed_ID N/A
#Smiles CCN(CC)CCNc1ccc(CO)c2sc3ccccc3c(=O)c12
#INCHI_AUX N/A
#Library_Class 1
#SpectrumID CCMSLIB00000085249
#IonMode Positive
#UpdateWorkflowName UPDATE-SINGLE-ANNOTATED-GOLD
#LibraryQualityString Gold
#TaskID d252d724072548979f1f6f1ced849daf
##Scan# 1575
#SpectrumFile p3-G06_GG6_01_18299.mzXML
#LibraryName Pharm_Active_Library.mgf
#MQScore -1
#Organism Pharm_Active_Library
#TIC_Query 0
#RT_Query -1
#MZErrorPPM -1
#SharedPeaks 0
#MassDiff 0
#LibMZ -1
#SpecMZ 357.162
#SpecCharge 0
#internalFilename spec-00000.mgf

>collision 10
44.899452 160.0
44.928799 176.0
45.027584 116.0
45.056973 184.0
45.107956 188.0
45.121674 108.0
45.151886 164.0
45.228157 180.0
45.295113 160.0
45.327267 144.0
45.392956 52.0
45.44125 152.0
45.545967 180.0
45.601063 260.0
45.680401 52.0
45.696545 176.0
45.871635 120.0
45.913437 112.0
45.952557 128.0
45.974148 64.0
46.018696 92.0
46.034637 144.0
46.122726 48.0
46.36095 104.0
46.395889 212.0
46.405689 176.0
46.500652 212.0
46.632408 100.0
46.647362 116.0
46.871944 152.0
46.882847 144.0
46.919651 56.0
46.963291 216.0
47.075211 176.0
47.117558 124.0
47.127121 212.0
47.157188 132.0
47.428219 160.0
47.509132 96.0
47.715149 172.0
47.771538 168.0
47.817165 128.0
47.84861 212.0
47.997429 192.0
48.045708 208.0
48.111954 152.0
48.275009 148.0
48.355255 212.0
48.387096 152.0
48.399559 212.0
48.40958 168.0
48.461891 136.0
48.493767 176.0
48.558937 164.0
48.653301 156.0
48.665798 152.0
48.739418 208.0
48.754707 220.0
48.924416 68.0
49.003342 72.0
49.106972 176.0
49.127895 160.0
49.176739 204.0
49.268906 124.0
49.287071 124.0
49.342983 204.0
49.366756 104.0
49.382141 188.0
49.42411 160.0
49.443703 192.0
49.464699 140.0
49.537521 196.0
49.598034 200.0
49.670498 164.0
49.717007 136.0
49.822323 228.0
50.038082 196.0
50.05019 172.0
50.083992 140.0
50.106533 144.0
50.124851 64.0
50.142315 212.0
50.157269 76.0
50.21085 168.0
50.226032 152.0
50.301159 208.0
50.360886 108.0
50.402855 208.0
50.441017 152.0
50.497578 148.0
50.507481 344.0
50.532948 84.0
50.702885 168.0
50.738323 252.0
50.768101 96.0
50.793633 224.0
50.955444 144.0
50.960396 140.0
50.964474 208.0
50.979641 220.0
51.036503 60.0
51.070297 168.0
51.084862 168.0
51.217255 128.0
51.231503 128.0
51.252872 132.0
51.426872 224.0
51.436863 60.0
51.451141 420.0
51.486801 144.0
51.584007 148.0
51.601162 216.0
51.732792 168.0
51.742813 168.0
51.765724 136.0
51.788639 180.0
51.868889 128.0
51.952065 132.0
51.970718 148.0
52.006599 216.0
52.089886 132.0
52.145927 152.0
52.158867 120.0
52.253788 108.0
52.360313 188.0
52.392006 248.0
52.517426 200.0
52.528965 164.0
52.575142 120.0
52.625668 180.0
52.648773 184.0
52.692776 160.0
52.74992 160.0
52.864189 136.0
52.89003 164.0
52.991623 184.0
53.023502 124.0
53.036549 176.0
53.313782 72.0
53.599018 132.0
53.629627 188.0
53.680656 136.0
53.730251 140.0
53.756519 184.0
53.768192 92.0
53.952251 184.0
54.02977 44.0
54.070744 220.0
54.095627 144.0
54.155666 144.0
54.16885 156.0
54.355061 128.0
54.450706 164.0
54.557766 104.0
54.621002 148.0
54.650429 76.0
54.728443 176.0
54.808678 168.0
54.8242 160.0
54.86105 100.0
55.138569 196.0
55.18903 180.0
55.326435 160.0
55.356052 96.0
55.443462 144.0
55.484966 184.0
55.56506 152.0
55.587318 160.0
55.656311 160.0
55.682335 188.0
55.777145 144.0
55.978302 208.0
56.020744 276.0
56.042358 204.0
56.140747 176.0
56.212395 156.0
56.312389 176.0
56.379623 148.0
56.409519 140.0
56.437927 164.0
56.517208 168.0
56.541153 196.0
56.635483 232.0
56.650463 52.0
56.752384 152.0
56.782379 148.0
56.833385 112.0
56.920452 196.0
56.948986 152.0
57.003075 52.0
57.153454 72.0
57.212158 140.0
57.222694 284.0
57.242271 196.0
57.264057 172.0
57.313072 224.0
57.358288 176.0
57.368843 108.0
57.515175 176.0
57.56802 192.0
57.584633 176.0
57.607292 180.0
57.661694 100.0
57.672272 148.0
57.684135 112.0
57.879547 208.0
57.921753 148.0
58.052307 168.0
58.15802 232.0
58.185085 40.0
58.278496 208.0
58.289135 168.0
58.323208 124.0
58.387955 156.0
58.413811 204.0
58.521873 216.0
58.604126 108.0
58.694065 124.0
58.732193 184.0
58.7505 124.0
58.771862 32.0
58.863453 164.0
58.964287 152.0
59.213684 248.0
59.336838 132.0
59.463608 140.0
59.534237 88.0
59.5858 148.0
59.60183 104.0
59.623344 88.0
59.656361 148.0
59.800224 160.0
59.83205 148.0
59.891075 200.0
59.983536 164.0
60.003578 108.0
60.074806 160.0
60.13625 148.0
60.164036 144.0
60.286068 64.0
60.457737 88.0
60.575417 180.0
60.763012 36.0
60.891861 168.0
61.125065 204.0
61.154636 208.0
61.192417 164.0
61.213799 92.0
61.321301 132.0
61.417976 148.0
61.449181 120.0
61.460102 116.0
61.552204 208.0
61.566257 56.0
61.606873 168.0
61.663685 168.0
61.72879 48.0
61.857094 88.0
61.877445 208.0
62.012173 96.0
62.041958 92.0
62.087433 172.0
62.200409 124.0
62.286777 152.0
62.407795 72.0
62.481724 68.0
62.620255 100.0
62.664364 196.0
62.747902 160.0
62.768616 148.0
62.785751 148.0
62.907253 280.0
63.141117 256.0
63.179081 112.0
63.223389 232.0
63.28384 172.0
63.335808 68.0
63.405529 164.0
63.482368 188.0
63.50066 192.0
63.668602 212.0
63.74675 160.0
63.85318 144.0
63.896267 140.0
63.943962 128.0
63.967838 200.0
64.122353 192.0
64.179749 120.0
64.237167 192.0
64.320145 224.0
64.34729 144.0
64.388809 176.0
64.409569 72.0
64.460701 212.0
64.490234 184.0
64.510254 124.0
64.671196 220.0
64.703087 140.0
64.841606 148.0
64.966682 136.0
65.024452 216.0
65.089539 228.0
65.138458 224.0
65.151314 200.0
65.202736 152.0
65.233315 176.0
65.265213 176.0
65.291161 140.0
65.341034 164.0
65.361954 148.0
65.378044 84.0
65.405403 184.0
65.548752 172.0
65.564865 260.0
65.597107 212.0
65.637413 108.0
65.700325 152.0
65.808464 136.0
65.850449 80.0
65.940933 28.0
65.9571 184.0
65.978111 140.0
65.994286 100.0
66.050888 168.0
66.227333 168.0
66.371574 184.0
66.528961 256.0
66.797112 156.0
66.831284 180.0
66.901268 96.0
66.93058 192.0
67.034836 156.0
67.077217 152.0
67.10656 200.0
67.370972 164.0
67.394302 200.0
67.442871 252.0
67.47393 208.0
67.534439 96.0
67.5914 260.0
67.739067 104.0
67.991585 80.0
68.076958 140.0
68.21991 152.0
68.382767 92.0
68.440384 200.0
68.48156 148.0
68.493088 116.0
68.567238 192.0
68.66452 168.0
68.803131 120.0
68.851021 144.0
69.087402 184.0
69.100639 196.0
69.125458 116.0
69.150284 124.0
69.188362 104.0
69.293068 184.0
69.445221 216.0
69.536484 144.0
69.734138 184.0
69.880486 268.0
69.903778 116.0
69.935402 124.0
69.982018 164.0
70.120293 116.0
70.150299 272.0
70.170303 140.0
70.197891 132.0
70.21199 148.0
70.228676 176.0
70.345482 316.0
70.367188 180.0
70.408936 212.0
70.502502 144.0
70.688133 172.0
70.73835 204.0
70.770157 208.0
70.837151 164.0
70.924294 136.0
71.024902 132.0
71.256584 140.0
71.300278 152.0
71.340622 196.0
71.36248 88.0
71.40284 180.0
71.451622 108.0
71.517258 168.0
71.540825 140.0
71.569443 184.0
71.586288 220.0
71.683014 172.0
71.724449 180.0
71.739616 112.0
71.996101 140.0
72.087334 196.0
72.264893 104.0
72.32074 192.0
72.349518 120.0
72.43589 160.0
72.459602 208.0
72.487915 136.0
72.605392 196.0
72.803963 28.0
73.019814 148.0
73.032867 176.0
73.104881 188.0
73.128708 148.0
73.353561 200.0
73.380844 64.0
73.411537 172.0
73.496834 208.0
73.60096 220.0
73.665863 204.0
73.693199 208.0
73.70858 152.0
73.770111 168.0
73.908653 244.0
73.942879 192.0
73.956573 256.0
73.98555 164.0
74.086723 84.0
74.15184 232.0
74.259857 148.0
74.395424 204.0
74.410881 124.0
74.501907 28.0
74.556892 192.0
74.687569 128.0
74.723701 108.0
74.802864 180.0
74.820084 208.0
75.004417 60.0
75.082008 132.0
75.102707 176.0
75.168274 132.0
75.252853 156.0
75.292572 160.0
75.323662 132.0
75.396233 160.0
75.467117 212.0
75.527649 212.0
75.600319 80.0
75.619354 136.0
75.640129 152.0
75.792542 212.0
75.838432 192.0
75.955513 152.0
75.969391 108.0
76.037071 180.0
76.071785 196.0
76.085678 100.0
76.165565 64.0
76.276779 204.0
76.344589 148.0
76.361984 184.0
76.579559 108.0
76.635307 128.0
76.694557 180.0
76.844543 184.0
76.924828 88.0
77.038338 200.0
77.200905 124.0
77.351379 128.0
77.419662 160.0
77.438934 188.0
77.472214 228.0
77.614189 152.0
77.629974 200.0
77.762794 204.0
77.779114 156.0
77.801933 124.0
78.044403 84.0
78.074043 192.0
78.104202 88.0
78.190422 128.0
78.317192 44.0
78.590752 172.0
78.79705 168.0
78.897789 184.0
78.921928 172.0
78.942001 92.0
79.083466 184.0
79.182693 136.0
79.445045 164.0
79.459244 200.0
79.572838 116.0
79.658081 76.0
79.770042 152.0
79.80027 144.0
79.841171 156.0
79.955032 144.0
79.976395 172.0
80.32209 120.0
80.361343 144.0
80.40239 156.0
80.568634 244.0
80.622063 224.0
80.922592 112.0
81.126846 136.0
81.146568 216.0
81.173462 164.0
81.266747 156.0
81.329559 56.0
81.399956 208.0
81.438141 188.0
81.473221 32.0
81.485802 132.0
81.520355 212.0
81.536118 160.0
81.629601 144.0
81.656578 164.0
81.699753 172.0
81.744736 152.0
81.888771 216.0
81.904984 168.0
81.955429 120.0
82.016708 276.0
82.054565 64.0
82.124893 200.0
82.193459 228.0
82.533058 100.0
82.601784 188.0
82.824448 200.0
82.844376 224.0
82.857056 92.0
82.878799 172.0
82.902359 92.0
82.935944 144.0
82.963989 152.0
83.014755 164.0
83.167168 132.0
83.190765 148.0
83.352417 156.0
83.392403 228.0
83.432396 148.0
83.490585 32.0
83.514229 228.0
83.559708 44.0
83.627045 152.0
83.718079 260.0
83.801872 164.0
84.006073 188.0
84.037094 128.0
84.068115 148.0
84.137474 160.0
84.172173 156.0
84.188606 40.0
84.217827 156.0
84.290909 96.0
84.537796 176.0
84.587212 172.0
84.609184 212.0
84.660454 112.0
84.69342 144.0
84.738152 152.0
84.887703 68.0
84.937225 204.0
84.955566 112.0
85.091385 100.0
85.10791 128.0
85.172188 188.0
85.196075 152.0
85.229584 168.0
85.403801 176.0
85.446114 84.0
85.466354 256.0
85.523407 156.0
85.541817 208.0
85.569862 224.0
85.602676 152.0
85.694679 212.0
85.746284 152.0
85.803429 84.0
85.895638 136.0
85.930695 192.0
85.969444 260.0
86.046974 128.0
86.109764 132.0
86.264984 92.0
86.34449 156.0
86.420341 248.0
86.461052 200.0
86.575844 132.0
86.620293 176.0
86.762993 48.0
86.785248 196.0
86.955925 132.0
86.996758 184.0
87.017181 136.0
87.334045 92.0
87.463371 184.0
87.489433 160.0
87.530396 124.0
87.662659 60.0
87.69062 156.0
87.707397 152.0
87.731628 196.0
88.082474 188.0
88.101158 120.0
88.144135 184.0
88.192726 108.0
88.226372 204.0
88.24881 144.0
88.261902 200.0
88.276863 176.0
88.383492 40.0
88.456482 100.0
88.484566 212.0
88.688766 144.0
88.713135 152.0
88.850044 148.0
88.880066 120.0
88.93074 164.0
89.105392 180.0
89.203934 116.0
89.30278 144.0
89.34417 132.0
89.404381 204.0
89.447678 104.0
89.522987 292.0
89.575729 132.0
89.752899 184.0
89.784431 172.0
89.817024 100.0
89.845322 156.0
90.05864 60.0
90.154999 124.0
90.338417 56.0
90.385719 180.0
90.419151 180.0
90.548531 168.0
90.60157 180.0
90.669792 184.0
90.758598 156.0
90.815788 128.0
90.912552 104.0
90.946716 88.0
91.013161 160.0
91.241173 112.0
91.260185 152.0
91.374306 264.0
91.454597 128.0
91.720917 92.0
91.810532 76.0
91.827698 152.0
91.907829 164.0
91.947906 164.0
92.087288 184.0
92.108299 192.0
92.123581 124.0
92.138863 172.0
92.178993 208.0
92.232506 232.0
92.295601 164.0
92.438477 276.0
92.461876 144.0
92.634369 48.0
92.946899 140.0
92.975685 116.0
93.014076 120.0
93.067833 48.0
93.194603 184.0
93.259949 196.0
93.313782 84.0
93.436874 164.0
93.587769 164.0
93.619743 136.0
93.64093 152.0
93.731476 180.0
93.77195 172.0
93.784386 136.0
93.847137 184.0
94.018829 180.0
94.07148 72.0
94.266029 164.0
94.347206 48.0
94.38588 80.0
94.571609 180.0
94.587097 144.0
94.62001 256.0
94.724739 156.0
94.819534 136.0
94.893204 164.0
95.011513 132.0
95.038681 68.0
95.089134 64.0
95.188148 108.0
95.438828 184.0
95.471886 80.0
95.504951 144.0
95.551643 152.0
95.610512 220.0
95.756042 180.0
95.96846 128.0
96.007126 228.0
96.19088 124.0
96.292007 152.0
96.380333 144.0
96.554016 128.0
96.683449 168.0
96.890083 148.0
96.945885 120.0
97.042732 148.0
97.096848 88.0
97.202789 148.0
97.221329 232.0
97.336273 192.0
97.377022 188.0
97.426628 192.0
97.564201 192.0
97.597626 412.0
97.626839 192.0
97.678268 84.0
97.717613 144.0
97.737289 156.0
97.778618 212.0
97.794365 184.0
97.829796 96.0
97.896744 200.0
97.918411 112.0
97.944016 184.0
97.995239 48.0
98.047958 144.0
98.094589 344.0
98.127296 220.0
98.218018 124.0
98.294968 200.0
98.308777 84.0
98.338387 168.0
98.484459 200.0
98.619705 320.0
98.715744 124.0
98.731567 112.0
98.790909 148.0
98.834435 120.0
98.958031 188.0
99.010628 200.0
99.030434 264.0
99.099777 220.0
99.117607 300.0
99.198868 48.0
99.379356 120.0
99.406174 284.0
99.483055 160.0
99.522224 184.0
99.585823 28.0
99.630775 184.0
99.647408 184.0
99.716965 248.0
99.732864 140.0
99.776596 184.0
99.800461 160.0
99.825935 204.0
99.851906 184.0
99.870064 140.0
99.895927 404.0
99.919746 204.0
99.923622 200.0
99.930382 188.0
99.971535 156.0
99.99144 192.0
100.021927 340.0
100.029999 108.0
100.038651 380.0
100.054359 304.0
100.092537 300.0
100.111908 76840.0
100.151947 188.0
100.191856 192.0
100.208923 132.0
100.224106 136.0
100.269051 168.0
100.287697 40.0
100.303108 72.0
100.337181 132.0
100.354607 252.0
100.372787 48.0
100.389389 88.0
100.418571 64.0
100.438988 512.0
100.485657 44.0
100.509598 96.0
100.539536 44.0
100.559494 72.0
100.609398 32.0
100.654297 172.0
100.666527 72.0
100.699257 144.0
100.717697 52.0
100.741211 52.0
100.755196 96.0
100.775169 100.0
100.819138 112.0
100.915092 36.0
100.965088 64.0
100.991089 40.0
101.031097 28.0
101.053101 104.0
101.077995 56.0
101.114609 6892.0
101.221245 148.0
101.239273 108.0
101.283333 76.0
101.31739 56.0
101.397545 264.0
101.417595 76.0
101.504517 236.0
101.517555 112.0
101.567986 60.0
101.582024 68.0
101.604553 104.0
101.646286 152.0
101.662285 92.0
101.704437 140.0
101.732376 344.0
101.76683 100.0
101.786751 148.0
101.802818 140.0
101.869102 168.0
101.895134 96.0
101.924706 148.0
101.973595 172.0
101.987663 248.0
102.026405 192.0
102.092667 196.0
102.118362 156.0
102.18866 136.0
102.279335 284.0
102.315575 112.0
102.408211 104.0
102.45253 220.0
102.468643 84.0
102.490807 56.0
102.688286 164.0
102.847786 104.0
102.883453 156.0
102.912392 120.0
103.00206 120.0
103.051765 168.0
103.401619 176.0
103.431976 172.0
103.543343 96.0
103.656799 144.0
103.78653 188.0
103.902145 112.0
103.938667 200.0
103.983315 156.0
104.034065 152.0
104.050308 184.0
104.192482 112.0
104.428291 156.0
104.444565 120.0
104.513741 148.0
104.668442 200.0
104.715286 164.0
104.786583 188.0
104.98024 172.0
105.031082 352.0
105.065491 176.0
105.274117 248.0
105.472305 368.0
105.529549 84.0
105.549538 196.0
105.779152 48.0
105.854912 152.0
105.871292 188.0
106.031097 164.0
106.061096 208.0
106.250404 76.0
106.412659 148.0
106.706482 188.0
106.733208 68.0
106.768173 188.0
106.792854 180.0
106.815475 68.0
107.008934 64.0
107.095428 128.0
107.304504 80.0
107.439697 148.0
107.5532 152.0
107.739059 128.0
107.86631 140.0
107.889931 208.0
107.914742 148.0
108.078156 204.0
108.181641 92.0
108.361824 56.0
108.390839 176.0
108.51313 56.0
108.548012 112.0
108.551628 92.0
108.753784 144.0
108.93029 72.0
109.009766 936.0
109.125656 156.0
109.225479 256.0
109.323273 48.0
109.385712 124.0
109.733643 172.0
109.810799 152.0
109.875473 68.0
109.925552 148.0
109.99025 136.0
110.013214 112.0
110.036179 128.0
110.167755 172.0
110.433243 180.0
110.877701 116.0
110.910133 192.0
110.977745 128.0
111.001678 204.0
111.038353 120.0
111.065834 124.0
111.088905 144.0
111.227409 152.0
111.290642 152.0
111.54882 160.0
111.665604 104.0
111.914902 128.0
112.186699 232.0
112.290024 88.0
112.463043 76.0
112.524269 156.0
112.581284 156.0
112.712257 48.0
112.805168 188.0
112.872459 72.0
112.946938 180.0
113.294121 132.0
113.421272 68.0
113.565468 128.0
113.619812 136.0
113.994339 148.0
114.020119 124.0
114.124008 92.0
114.228226 56.0
114.309074 172.0
114.479385 156.0
114.656212 176.0
114.999611 148.0
115.05938 48.0
115.403381 196.0
115.446152 144.0
115.467537 128.0
115.510315 84.0
115.548828 220.0
115.771446 136.0
116.088631 120.0
116.110077 108.0
116.260254 84.0
116.410538 188.0
116.440605 148.0
116.666229 212.0
116.82753 72.0
116.866257 124.0
117.055458 1016.0
117.124611 180.0
117.365997 240.0
117.637428 248.0
117.897049 120.0
117.948929 92.0
118.065918 576.0
118.093803 112.0
118.251755 244.0
118.483467 104.0
118.613495 48.0
118.650352 184.0
118.685043 68.0
118.725616 180.0
118.85424 196.0
118.912834 164.0
119.01487 124.0
119.064819 184.0
119.099571 152.0
119.138672 148.0
119.179955 132.0
119.25602 188.0
119.327759 196.0
119.397346 152.0
119.887207 156.0
120.273262 124.0
120.312561 56.0
120.342163 152.0
120.439217 144.0
120.463249 192.0
120.491653 180.0
120.526611 144.0
120.876488 128.0
120.910103 200.0
120.929016 160.0
120.99688 92.0
121.061966 168.0
121.21373 144.0
121.424194 228.0
121.447594 144.0
121.606308 64.0
121.749023 188.0
122.49688 200.0
122.573997 96.0
122.609093 212.0
122.684204 92.0
122.770203 88.0
122.787842 136.0
122.920212 148.0
123.023956 104.0
123.114487 140.0
123.158661 204.0
123.271339 68.0
123.322174 172.0
123.351578 212.0
123.388496 172.0
123.403969 112.0
123.636246 220.0
123.71151 164.0
123.769073 272.0
123.88868 164.0
123.91748 156.0
124.020279 124.0
124.096909 164.0
124.205688 60.0
124.221214 116.0
124.292213 180.0
124.340515 68.0
124.365456 200.0
124.625298 100.0
124.81646 144.0
124.860939 152.0
124.914253 120.0
124.996651 212.0
125.210373 76.0
125.404213 176.0
125.428734 136.0
125.477783 112.0
125.640594 80.0
125.788422 184.0
125.926331 172.0
125.997818 204.0
126.144165 132.0
126.188011 164.0
126.395821 192.0
126.687737 212.0
126.819107 168.0
126.881874 172.0
126.897568 152.0
126.960358 136.0
127.03466 160.0
127.094963 204.0
127.164528 136.0
127.265556 176.0
127.438515 88.0
127.528404 128.0
127.647568 180.0
127.798279 184.0
127.886047 96.0
128.030151 152.0
128.090958 200.0
128.334366 236.0
128.508057 120.0
128.555435 160.0
128.941635 52.0
129.18811 148.0
129.303513 108.0
129.389542 40.0
129.502762 108.0
129.552597 148.0
129.604721 112.0
129.681778 140.0
129.718033 32.0
129.742981 120.0
129.84729 152.0
130.035355 176.0
130.064392 176.0
130.192261 156.0
130.915482 160.0
131.045319 148.0
131.068954 176.0
131.325729 232.0
131.476318 140.0
131.537949 176.0
131.743484 136.0
131.782318 176.0
131.940033 152.0
131.958313 192.0
132.00177 128.0
132.106979 120.0
132.159607 132.0
132.196213 148.0
132.322113 184.0
132.340439 160.0
132.374786 180.0
132.402267 168.0
132.619934 180.0
132.814835 164.0
132.915787 144.0
133.028244 344.0
133.087952 160.0
133.138474 192.0
133.280899 120.0
133.365936 204.0
133.791519 164.0
133.83757 276.0
134.017517 128.0
134.178574 68.0
134.27774 136.0
134.390778 144.0
134.516327 192.0
134.566193 192.0
134.7995 180.0
135.026077 172.0
135.044571 132.0
135.093155 120.0
135.132477 128.0
135.151001 160.0
135.375061 252.0
135.442703 68.0
135.760254 44.0
135.906387 160.0
135.931915 132.0
135.996902 160.0
136.027084 172.0
136.106644 196.0
136.257004 164.0
136.328827 132.0
136.549911 160.0
136.673203 104.0
136.88736 180.0
136.922302 40.0
136.957245 160.0
137.004791 8168.0
137.0784 80.0
137.145981 180.0
137.395691 100.0
137.509857 124.0
137.591553 140.0
137.670944 48.0
137.78775 56.0
137.874207 144.0
138.006882 1036.0
138.151825 204.0
138.210953 172.0
138.264786 184.0
138.293961 112.0
138.374802 160.0
138.405243 120.0
138.43335 172.0
138.480194 200.0
138.756714 144.0
138.862244 156.0
139.001175 380.0
139.053558 356.0
139.116135 116.0
139.211945 176.0
139.240128 128.0
139.364639 88.0
139.434875 108.0
139.489197 132.0
139.508011 200.0
139.538574 156.0
139.656158 148.0
139.766724 120.0
140.011566 200.0
140.115204 188.0
140.218887 172.0
140.608063 156.0
140.685959 152.0
140.766235 200.0
140.793091 140.0
140.971756 168.0
141.076385 124.0
141.436615 196.0
141.702957 192.0
141.774048 208.0
142.111481 188.0
142.193832 144.0
142.295914 152.0
142.324402 136.0
142.379028 88.0
142.483551 52.0
142.571472 120.0
143.352066 108.0
143.509399 168.0
143.526077 176.0
143.650101 216.0
143.738388 160.0
143.817154 152.0
143.917419 104.0
143.969955 52.0
144.054352 144.0
144.266251 216.0
144.440826 208.0
144.632263 84.0
144.811844 124.0
144.883713 268.0
144.905273 60.0
144.931625 152.0
145.048279 596.0
145.123398 140.0
145.308075 104.0
145.420868 124.0
145.721054 40.0
145.908524 156.0
145.997498 204.0
146.058975 176.0
146.144241 204.0
146.161087 148.0
146.291061 144.0
146.339203 168.0
146.502991 108.0
147.260437 156.0
147.381241 172.0
147.52626 184.0
147.690689 152.0
147.726974 200.0
147.777786 144.0
147.814087 180.0
147.852798 156.0
147.960342 132.0
148.016708 632.0
148.065857 184.0
148.206375 128.0
148.269379 132.0
148.354218 112.0
148.494858 200.0
148.536102 168.0
148.618591 112.0
148.65741 92.0
148.727798 168.0
148.76178 148.0
149.001953 192.0
149.029068 172.0
149.186935 140.0
149.354721 132.0
149.379059 172.0
149.405807 136.0
149.452042 204.0
149.551819 136.0
149.75148 56.0
149.795334 204.0
149.909851 176.0
150.007339 144.0
150.047516 124.0
150.207321 60.0
150.307343 116.0
150.39032 116.0
150.418915 168.0
150.610092 100.0
150.695602 172.0
151.023193 136.0
151.047653 160.0
151.169983 72.0
151.356033 112.0
151.613266 56.0
151.64267 148.0
151.669632 208.0
151.789764 160.0
151.924667 160.0
152.05925 324.0
152.14064 176.0
152.265884 116.0
152.346939 204.0
152.410828 184.0
152.634521 212.0
152.713211 76.0
152.789474 180.0
153.056198 88.0
153.107025 140.0
153.158752 88.0
153.661667 204.0
154.26181 88.0
154.289001 176.0
154.378021 204.0
154.523972 108.0
154.583359 164.0
154.630707 152.0
154.692261 56.0
154.739578 180.0
154.912674 76.0
155.04895 152.0
155.23114 216.0
155.301849 56.0
155.396118 72.0
155.45816 156.0
155.480499 188.0
155.517731 200.0
155.55162 220.0
155.703949 120.0
155.780945 108.0
155.805786 144.0
156.004608 96.0
156.186157 124.0
156.352859 120.0
156.579422 128.0
156.781235 172.0
156.823593 136.0
157.095413 208.0
157.112061 132.0
157.282578 112.0
157.320023 244.0
157.342484 88.0
157.417389 120.0
157.5298 172.0
157.672226 196.0
157.707214 116.0
158.49556 192.0
158.543182 164.0
158.686066 184.0
158.778854 156.0
158.849091 148.0
158.931885 148.0
158.964508 156.0
159.087494 164.0
159.117615 184.0
159.195465 156.0
159.220581 224.0
159.469315 108.0
159.781143 48.0
159.816376 204.0
160.022766 168.0
160.098312 172.0
160.126022 120.0
160.529266 124.0
160.65538 92.0
160.907761 216.0
160.993622 100.0
161.112335 136.0
161.347382 152.0
161.550781 236.0
161.671158 212.0
161.696472 84.0
161.939545 128.0
162.020599 172.0
162.241104 76.0
162.575928 196.0
162.596222 212.0
162.669846 176.0
162.852676 152.0
162.941589 52.0
162.969528 164.0
163.002228 120.0
163.208466 128.0
163.676682 124.0
163.727615 204.0
163.893204 160.0
164.058868 32.0
164.245041 88.0
164.273102 140.0
164.750488 176.0
164.837372 152.0
164.975388 128.0
165.069626 540.0
165.162079 40.0
165.279755 180.0
165.333496 68.0
165.443573 176.0
165.902161 156.0
166.053452 160.0
166.074219 324.0
166.451248 48.0
166.728699 168.0
166.934372 180.0
166.983231 196.0
167.078415 208.0
167.140167 116.0
167.526382 188.0
167.572754 80.0
168.044601 124.0
168.062653 200.0
168.103439 244.0
168.225266 196.0
168.496002 120.0
168.736801 140.0
169.013565 116.0
169.057556 148.0
169.116714 168.0
169.609253 104.0
169.627396 76.0
170.295654 172.0
170.522934 160.0
170.595718 176.0
170.832367 132.0
170.991104 88.0
171.024612 352.0
171.11438 180.0
171.155106 220.0
171.212402 56.0
171.313995 148.0
171.55896 172.0
171.645874 192.0
171.702377 84.0
171.746719 148.0
171.791077 220.0
171.858902 128.0
171.903259 188.0
171.963287 160.0
172.02977 112.0
172.349808 128.0
172.621674 224.0
172.692291 120.0
172.768143 104.0
173.029877 128.0
173.155563 180.0
173.768997 80.0
173.797852 132.0
173.871338 180.0
173.960587 72.0
174.236343 116.0
174.262619 152.0
174.714844 96.0
174.920105 120.0
174.999084 104.0
175.054398 36.0
175.136032 260.0
175.315201 176.0
175.341553 60.0
175.370544 148.0
175.555115 160.0
175.607849 208.0
176.014221 492.0
176.429123 188.0
176.640686 240.0
176.844437 120.0
177.035065 184.0
177.058899 184.0
177.093338 40.0
177.313248 108.0
177.429886 220.0
177.533295 104.0
177.803909 28.0
177.851685 160.0
177.872925 92.0
177.90744 176.0
177.952576 144.0
178.075333 324.0
178.103943 112.0
178.231476 76.0
178.351074 176.0
178.678177 100.0
178.962967 116.0
179.089554 212.0
179.217941 144.0
179.269318 136.0
179.519913 184.0
179.59726 92.0
179.674622 120.0
179.716095 264.0
180.029648 148.0
180.078232 416.0
180.168533 108.0
180.262054 196.0
180.438477 188.0
180.593582 156.0
180.713974 104.0
180.788895 76.0
180.877228 180.0
180.973602 188.0
181.013779 200.0
181.082596 160.0
181.311142 64.0
181.332581 72.0
181.461258 152.0
181.482712 96.0
181.587311 112.0
181.753632 188.0
181.815353 140.0
181.866348 148.0
181.909302 148.0
182.038193 148.0
182.145615 172.0
182.164429 156.0
182.210098 128.0
182.723633 176.0
182.928162 224.0
183.0224 192.0
183.041245 156.0
183.092422 156.0
183.113968 152.0
183.135513 160.0
183.173233 172.0
183.289078 84.0
183.364532 200.0
183.555954 216.0
183.671921 136.0
183.723114 156.0
183.747467 200.0
183.839203 140.0
183.925323 212.0
183.976624 172.0
184.033203 2232.0
184.079483 120.0
184.155106 96.0
184.384003 72.0
184.449631 76.0
184.54425 112.0
184.687592 248.0
184.710144 224.0
185.033813 1028.0
185.334641 200.0
185.646393 264.0
185.684875 84.0
185.776581 164.0
186.004547 92.0
186.033676 276.0
186.110428 116.0
186.216766 128.0
186.354889 72.0
186.683807 176.0
186.708282 160.0
186.792603 160.0
186.825256 160.0
186.983078 184.0
187.006989 204.0
187.040771 392.0
187.260788 152.0
187.617767 144.0
187.723984 168.0
187.795029 220.0
188.016037 116.0
188.037857 136.0
188.141602 168.0
188.411972 132.0
188.447495 128.0
188.49942 156.0
188.675278 188.0
188.822006 196.0
188.879456 144.0
188.937988 92.0
189.06662 200.0
189.473526 68.0
189.605057 232.0
189.626984 84.0
189.676315 232.0
189.761307 232.0
189.783249 160.0
189.851807 32.0
190.065872 324.0
190.474854 184.0
190.73317 152.0
190.760651 52.0
190.931137 76.0
190.975143 188.0
191.082428 200.0
191.154831 104.0
191.349411 140.0
191.476089 144.0
191.511887 128.0
191.545975 192.0
191.671692 108.0
191.710266 152.0
191.815002 88.0
192.010773 116.0
192.075592 368.0
192.388824 180.0
192.460602 232.0
192.502029 188.0
192.546219 56.0
192.712524 220.0
192.816971 192.0
192.933075 108.0
193.004959 140.0
193.054413 136.0
193.086136 1532.0
193.132187 156.0
193.198578 120.0
193.217941 52.0
193.267746 132.0
193.500259 116.0
193.838181 116.0
194.043304 128.0
194.091461 628.0
194.123718 164.0
194.198608 176.0
194.248535 116.0
194.290146 144.0
194.415024 176.0
194.542694 136.0
194.773193 156.0
194.803757 140.0
195.034393 216.0
195.097015 296.0
195.217896 52.0
195.320816 56.0
195.440445 160.0
195.755005 52.0
195.819061 164.0
195.863632 204.0
196.032745 160.0
196.075394 120.0
196.198044 176.0
196.228714 112.0
196.345901 156.0
196.449036 188.0
196.753235 192.0
196.929169 120.0
197.039551 936.0
197.076172 136.0
197.138718 144.0
197.175049 48.0
197.219772 152.0
197.389877 128.0
197.468613 228.0
197.580521 180.0
197.748413 204.0
197.975204 144.0
198.042236 1168.0
198.274979 36.0
198.457184 168.0
198.480637 204.0
198.580582 52.0
198.656326 240.0
198.692795 72.0
198.85556 116.0
198.884933 148.0
198.990311 64.0
199.046021 332.0
199.304901 128.0
199.948898 140.0
199.999557 172.0
200.049683 656.0
200.160034 128.0
200.224808 212.0
200.30368 96.0
200.350372 216.0
200.400314 140.0
200.472733 168.0
200.667236 104.0
201.014191 108.0
201.039505 128.0
201.381226 164.0
201.427811 192.0
201.456192 148.0
201.624207 116.0
202.040894 100.0
202.107788 204.0
202.470139 92.0
202.489975 168.0
202.608948 232.0
202.72229 128.0
203.072296 180.0
203.110718 184.0
203.272446 152.0
203.334885 88.0
203.439911 72.0
203.522247 128.0
203.703186 68.0
203.746628 156.0
204.079056 1284.0
204.12468 148.0
204.181549 168.0
204.209991 52.0
204.244125 200.0
204.656799 88.0
204.702362 64.0
204.924545 144.0
205.083328 500.0
205.232391 80.0
205.272308 152.0
205.41777 164.0
205.460571 108.0
205.714569 252.0
205.748825 136.0
205.79451 172.0
205.817352 68.0
205.854477 88.0
206.015732 176.0
206.092941 348.0
206.137299 140.0
206.328796 128.0
206.348816 224.0
206.374557 164.0
206.611938 172.0
206.669174 68.0
206.720673 160.0
206.909592 164.0
206.981186 132.0
207.066727 116.0
207.10376 180.0
207.302017 172.0
207.795227 148.0
207.878448 184.0
208.030045 596.0
208.062088 184.0
208.553391 128.0
208.613754 236.0
208.895584 96.0
209.038086 952.0
209.064987 164.0
209.111404 76.0
209.324448 228.0
209.39357 140.0
209.500137 104.0
209.747986 140.0
209.837357 44.0
209.889084 160.0
210.04332 628.0
210.093002 168.0
210.17482 40.0
210.20079 124.0
210.388412 172.0
210.425949 164.0
210.460602 132.0
210.682999 136.0
210.925751 156.0
211.014603 152.0
211.041977 1156.0
211.102112 200.0
211.12236 44.0
211.275665 196.0
211.32486 40.0
211.484024 68.0
211.67511 84.0
211.964798 144.0
211.996674 144.0
212.028641 1532.0
212.049942 1436.0
212.231476 52.0
212.344574 188.0
212.4142 124.0
212.573776 148.0
212.701477 48.0
212.750824 48.0
212.803085 172.0
212.84375 156.0
212.869873 48.0
212.986053 132.0
213.033951 228.0
213.054993 328.0
213.195251 112.0
213.291168 32.0
213.32373 80.0
213.654678 60.0
214.003601 68.0
214.008224 60.0
214.036758 408.0
214.065552 344.0
214.091309 136.0
214.193253 184.0
214.388474 152.0
214.449677 176.0
214.790848 80.0
215.012604 184.0
215.04187 296.0
215.073898 140.0
215.221283 72.0
215.447693 104.0
215.708755 108.0
215.91539 64.0
215.976807 184.0
216.047028 172.0
216.077545 280.0
216.453873 136.0
216.946121 128.0
216.993027 140.0
217.083405 336.0
217.18541 80.0
217.330338 192.0
217.465332 68.0
217.777115 108.0
217.840424 152.0
218.097763 168.0
218.235031 132.0
218.340897 204.0
218.508575 120.0
218.540939 124.0
218.702805 168.0
218.950134 180.0
219.017868 148.0
219.066406 144.0
219.223831 160.0
219.395386 116.0
219.545471 160.0
219.719498 148.0
220.038254 120.0
220.075882 1092.0
220.309967 64.0
220.339508 92.0
220.413391 176.0
220.484314 28.0
220.638016 124.0
220.708984 136.0
220.771088 176.0
220.99295 84.0
221.040619 464.0
221.084091 1032.0
221.155716 132.0
221.241562 200.0
221.454773 176.0
221.588089 148.0
221.691803 172.0
222.044312 572.0
222.092041 744.0
222.214706 240.0
222.878815 164.0
222.935272 168.0
223.005829 152.0
223.042816 1228.0
223.09787 168.0
223.256363 136.0
223.295013 76.0
223.369385 68.0
223.541946 140.0
223.634216 80.0
223.908142 180.0
223.98558 104.0
224.051682 2512.0
224.226944 188.0
224.468414 44.0
224.5728 136.0
224.596664 72.0
224.653351 36.0
224.718979 92.0
224.954758 140.0
225.034973 2004.0
225.05867 2872.0
225.10405 160.0
225.244431 104.0
225.295212 56.0
225.341309 84.0
225.423706 132.0
225.573151 200.0
225.65387 196.0
225.71666 156.0
225.752548 148.0
225.902939 200.0
226.044266 3472.0
226.065567 3552.0
226.157822 44.0
226.255249 44.0
226.324112 44.0
226.52478 76.0
226.578705 76.0
226.77948 84.0
226.866425 120.0
227.0495 1064.0
227.131287 236.0
227.337341 104.0
227.430389 120.0
227.586502 104.0
227.616531 144.0
227.655563 44.0
227.703629 64.0
227.82077 128.0
228.048492 564.0
228.125397 176.0
228.217514 36.0
228.288177 160.0
228.403976 56.0
228.554398 44.0
228.617599 108.0
228.671768 108.0
228.771103 160.0
228.792191 240.0
228.909607 120.0
229.047821 180.0
229.129501 120.0
229.186752 28.0
229.298248 148.0
229.735489 196.0
229.847122 112.0
230.07048 132.0
230.41478 156.0
230.445007 184.0
230.638412 144.0
230.662598 124.0
230.741211 148.0
230.939865 144.0
230.992218 148.0
231.149551 160.0
231.479523 88.0
231.873367 176.0
231.894577 124.0
231.958237 48.0
232.074951 64.0
232.376755 156.0
232.467789 76.0
232.889816 196.0
233.027313 184.0
233.082092 480.0
233.339584 120.0
233.862762 204.0
233.945023 128.0
234.021133 208.0
234.086731 472.0
234.170364 152.0
234.209961 128.0
234.301346 96.0
234.331818 196.0
234.531189 180.0
235.043411 1096.0
235.094162 228.0
235.127731 140.0
235.152145 128.0
235.549103 112.0
235.6763 180.0
235.72937 184.0
235.958618 168.0
236.009125 108.0
236.051132 8936.0
236.092239 616.0
236.120697 52.0
236.187988 48.0
236.221634 84.0
236.264465 64.0
236.334839 76.0
236.362381 136.0
236.616638 60.0
236.760345 88.0
236.907379 332.0
237.048645 1700.0
237.097015 312.0
237.19545 76.0
237.324219 60.0
237.490448 192.0
237.772095 116.0
237.805862 128.0
237.833496 208.0
237.915237 184.0
238.067154 2020.0
238.106766 236.0
238.225235 84.0
238.269562 72.0
238.300293 68.0
238.392761 128.0
238.4702 196.0
238.533859 104.0
238.595352 124.0
238.641464 48.0
238.724503 124.0
238.77063 100.0
238.887512 108.0
238.921356 48.0
239.039505 2548.0
239.076447 740.0
239.21373 84.0
239.771255 140.0
239.965454 48.0
240.045959 1052.0
240.19368 156.0
240.354111 40.0
240.375717 148.0
240.519516 148.0
240.885162 92.0
241.031296 236.0
241.055954 200.0
241.095276 248.0
241.132355 208.0
241.413208 208.0
241.464737 188.0
241.549805 80.0
241.576141 64.0
241.602386 172.0
241.627136 72.0
241.760193 84.0
241.788055 52.0
241.927353 80.0
241.993118 180.0
242.06041 4552.0
242.161545 108.0
242.218445 108.0
242.243225 40.0
242.291031 56.0
242.391953 28.0
242.726746 176.0
242.767059 140.0
242.909729 120.0
243.030045 436.0
243.066055 880.0
243.251099 80.0
243.344238 128.0
243.617538 224.0
243.657928 64.0
243.757355 104.0
243.928314 184.0
244.065567 432.0
244.267273 160.0
244.310822 232.0
244.341934 92.0
244.37616 64.0
244.4664 64.0
244.774597 96.0
245.008209 164.0
245.044449 124.0
245.08609 60.0
245.120377 136.0
245.400909 60.0
245.432098 212.0
245.4664 52.0
245.772095 140.0
246.00618 76.0
246.074875 144.0
246.22789 140.0
246.677841 52.0
246.727859 128.0
246.96553 96.0
247.042709 492.0
247.075027 160.0
247.179871 184.0
247.907944 120.0
248.001968 96.0
248.050964 2144.0
248.095261 84.0
248.103073 112.0
248.299835 56.0
248.337479 84.0
248.379974 128.0
248.406479 140.0
248.522568 76.0
248.575912 196.0
248.65123 148.0
248.714005 96.0
248.776794 184.0
248.886688 100.0
248.951035 140.0
249.059708 4924.0
249.121155 184.0
249.21022 112.0
249.331497 128.0
249.445221 124.0
249.565399 164.0
249.7258 108.0
249.875427 120.0
250.061203 804.0
250.245056 180.0
250.55687 188.0
250.61673 68.0
250.652191 172.0
250.786911 184.0
250.831039 116.0
251.042007 776.0
251.105377 168.0
251.181808 68.0
251.209473 164.0
251.383011 124.0
251.424026 204.0
251.52504 132.0
251.545853 164.0
251.689926 160.0
251.740387 96.0
251.783951 48.0
251.864182 180.0
251.942383 292.0
252.000656 180.0
252.046188 19396.0
252.095001 148.0
252.118835 192.0
252.14624 80.0
252.204178 64.0
252.243698 168.0
252.276886 60.0
252.309998 88.0
252.344681 108.0
252.370544 148.0
252.443085 100.0
252.514053 120.0
252.541046 112.0
252.697098 160.0
252.762253 176.0
252.805115 128.0
252.843094 92.0
252.887405 60.0
252.922928 252.0
252.96022 40.0
253.05394 13556.0
253.140579 228.0
253.19136 40.0
253.248367 88.0
253.302414 204.0
253.371185 52.0
253.430542 136.0
253.513672 196.0
253.521439 204.0
253.56778 228.0
253.615936 104.0
253.680313 156.0
253.717377 308.0
253.739563 36.0
253.778305 256.0
253.83287 264.0
253.896011 128.0
253.917145 296.0
253.939362 240.0
253.976257 436.0
254.062866 92308.0
254.121521 196.0
254.169525 68.0
254.195892 216.0
254.225266 340.0
254.255569 84.0
254.289261 132.0
254.317001 228.0
254.347702 160.0
254.395035 168.0
254.44075 36.0
254.474701 144.0
254.521988 212.0
254.545288 56.0
254.585968 92.0
254.662735 112.0
254.685715 60.0
254.728073 156.0
254.758621 44.0
254.825821 124.0
254.870453 56.0
254.880341 52.0
254.889297 128.0
254.923569 72.0
254.953232 60.0
255.064987 13424.0
255.129013 44.0
255.159149 72.0
255.191696 148.0
255.217834 120.0
255.355942 88.0
255.392456 148.0
255.429108 76.0
255.463089 52.0
255.489548 68.0
255.537155 108.0
255.572281 60.0
255.610458 44.0
255.640701 112.0
255.666397 96.0
255.730026 84.0
255.8078 88.0
255.833267 60.0
255.893753 132.0
255.946976 84.0
255.982925 160.0
256.061737 4008.0
256.146851 80.0
256.181976 24.0
256.24411 104.0
256.271515 72.0
256.347321 88.0
256.375305 116.0
256.409302 48.0
256.452393 112.0
256.47995 124.0
256.583984 44.0
256.602112 156.0
256.676544 132.0
256.735016 92.0
256.760529 120.0
256.786133 204.0
256.845245 176.0
256.872925 84.0
256.926422 136.0
256.951935 160.0
256.983826 172.0
257.02417 44.0
257.06369 716.0
257.108307 116.0
257.229584 112.0
257.520172 32.0
257.552094 76.0
257.615997 56.0
257.692688 32.0
257.740601 80.0
257.788544 64.0
257.817291 36.0
257.999512 88.0
258.056732 156.0
258.105011 88.0
258.32251 64.0
258.34491 68.0
258.36731 80.0
258.396088 80.0
258.437683 76.0
258.575287 92.0
258.805786 48.0
258.962708 88.0
259.055603 128.0
259.148529 64.0
259.206207 40.0
259.401703 40.0
259.433777 204.0
259.469025 48.0
259.911682 64.0
260.126709 156.0
260.380371 48.0
260.827026 144.0
261.200043 68.0
261.354462 132.0
261.573303 136.0
261.708527 156.0
262.03064 164.0
262.45752 180.0
262.998108 68.0
263.020691 136.0
263.29837 132.0
263.492188 108.0
263.705475 36.0
263.999695 208.0
264.048523 912.0
264.320221 76.0
264.523865 132.0
264.611267 124.0
264.747284 60.0
264.857422 172.0
265.051819 984.0
265.087433 88.0
265.123108 36.0
265.204132 44.0
265.246277 148.0
265.317596 76.0
265.382416 148.0
265.492676 136.0
265.528351 300.0
265.576263 208.0
265.697052 108.0
265.761932 192.0
265.782379 148.0
265.804352 100.0
265.885254 132.0
265.924438 160.0
265.955627 184.0
266.011627 128.0
266.0625 42088.0
266.144958 44.0
266.179321 124.0
266.208893 220.0
266.239349 60.0
266.263977 80.0
266.309692 76.0
266.348999 68.0
266.387482 84.0
266.424286 116.0
266.486023 132.0
266.556793 108.0
266.648499 28.0
266.671265 44.0
266.713501 40.0
266.752533 124.0
266.858521 152.0
266.867584 92.0
266.911835 52.0
266.950104 68.0
266.973419 60.0
267.064545 6848.0
267.135162 108.0
267.201904 68.0
267.237122 40.0
267.418488 60.0
267.46167 48.0
267.526794 52.0
267.591888 32.0
267.901306 40.0
267.969727 32.0
268.005554 252.0
268.059174 3096.0
268.240234 80.0
268.295654 36.0
268.341278 96.0
268.383667 132.0
268.41629 68.0
268.442383 56.0
268.494568 120.0
268.589142 68.0
268.678741 112.0
268.810791 124.0
268.935974 132.0
269.006836 104.0
269.059479 300.0
269.101532 96.0
269.143982 68.0
269.16684 124.0
269.196228 76.0
269.333405 72.0
269.41507 32.0
269.437927 88.0
269.61438 40.0
269.7099 108.0
269.97403 92.0
270.054504 296.0
270.104858 48.0
270.18335 36.0
270.24881 80.0
270.333893 96.0
270.5401 68.0
270.585938 124.0
270.625214 120.0
270.710358 120.0
270.834808 64.0
270.90033 48.0
270.92981 96.0
271.146088 64.0
271.7659 56.0
272.402832 100.0
272.744568 56.0
272.784027 68.0
272.869507 48.0
273.073395 48.0
273.369507 136.0
273.537354 72.0
273.665771 108.0
274.189545 160.0
274.578583 112.0
274.763336 104.0
274.796326 88.0
275.529297 80.0
276.015167 140.0
278.175415 68.0
279.851074 48.0
280.424072 56.0
281.548462 64.0
281.615265 100.0
281.698761 112.0
282.056335 116.0
282.437531 44.0
282.752045 176.0
282.825684 156.0
283.284454 92.0
283.599457 152.0
283.639679 48.0
283.71344 228.0
283.894501 32.0
283.998474 184.0
284.073486 11460.0
284.189697 28.0
284.21991 104.0
284.27359 32.0
284.458191 184.0
284.528687 68.0
284.632782 68.0
284.696594 40.0
284.867889 160.0
284.918304 52.0
284.988861 100.0
285.074921 2076.0
285.400116 80.0
285.4729 72.0
285.705017 64.0
285.772308 52.0
285.802582 44.0
285.829498 48.0
286.072388 500.0
286.108856 120.0
286.233459 108.0
286.546722 116.0
286.684875 140.0
286.708466 68.0
286.806213 92.0
286.914978 164.0
287.079315 156.0
287.258057 124.0
287.99057 48.0
288.112183 76.0
296.243347 116.0
298.024017 76.0
299.958221 104.0
307.359741 32.0
312.535339 88.0
312.936615 36.0
314.124329 148.0
316.977631 96.0
318.499695 92.0
320.128662 152.0
321.56189 100.0
323.735657 52.0
327.153992 156.0
328.022186 52.0
328.141144 136.0
329.997009 40.0
330.604736 48.0
330.825531 72.0
331.821869 64.0
332.282501 84.0
334.124542 52.0
335.406433 52.0
337.140167 192.0
339.149261 268.0
340.154877 140.0
340.808411 100.0
342.493378 52.0
344.880798 20.0
350.906097 36.0
351.44693 108.0
353.573303 88.0
354.663269 36.0
355.450867 108.0
357.15918 156.0
357.224274 136.0
358.169159 176.0
359.134125 176.0
359.662415 80.0
363.299072 64.0
364.27475 48.0
364.327942 52.0
365.746399 128.0
367.690308 160.0
369.115295 88.0
369.249146 76.0
371.259857 60.0
372.734009 76.0
377.081207 140.0
383.536224 128.0
387.463745 108.0
392.960358 60.0
396.131104 100.0
398.511566 160.0
400.676025 104.0
404.07373 80.0
408.551208 100.0
410.097565 92.0
413.939728 60.0
418.675018 48.0
418.980499 64.0
423.568268 56.0
428.761963 120.0
429.421631 64.0
430.077698 132.0
431.974426 100.0
432.557922 88.0
433.150085 36.0
436.07962 72.0
441.788361 156.0
442.931244 88.0
442.99408 56.0
446.154205 84.0
448.990234 88.0
450.790802 56.0
451.196594 60.0
456.152527 48.0
458.344452 64.0
462.059235 72.0
467.039917 80.0
483.572327 100.0
484.084564 96.0
487.295471 164.0
493.032959 160.0
496.876587 132.0
506.815308 72.0
515.021423 76.0
533.238892 44.0
536.387329 44.0
537.401978 88.0
553.799194 56.0
558.765991 64.0
565.746277 120.0
567.409241 80.0
569.065125 84.0
570.95166 48.0
577.423828 48.0
578.735046 68.0
582.783447 128.0
598.44104 68.0
599.853943 28.0
604.249329 84.0
609.544983 68.0
619.719971 96.0
631.248779 44.0
633.01532 52.0
639.17981 96.0
644.141052 100.0
644.2724 84.0
649.59314 72.0
676.514709 44.0
678.903442 72.0
679.593384 64.0
689.42511 32.0
699.522217 60.0
739.015137 80.0
740.520142 48.0
746.321594 68.0
750.797913 128.0
753.953552 124.0
763.729675 136.0
770.858521 100.0
772.124573 132.0
778.014954 52.0
781.861572 136.0
786.465454 216.0
790.830933 80.0
811.552063 100.0
815.599976 40.0
818.194092 84.0
821.242859 208.0
821.647888 64.0
834.0177 156.0
838.380554 196.0
840.635437 116.0
845.738892 124.0
846.155701 224.0
849.000916 184.0
852.426086 168.0
853.495728 32.0
854.391479 164.0
855.549622 80.0
856.766846 140.0
859.880737 120.0
860.39447 64.0
861.305481 140.0
862.456604 248.0
866.090393 216.0
869.50293 192.0
869.808167 128.0
870.44812 160.0
883.7229 184.0
883.829407 92.0
883.971436 184.0
884.480469 180.0
886.677979 96.0
895.822876 156.0
896.865723 56.0
904.188538 196.0
910.36969 60.0
911.312805 156.0
912.448792 212.0
913.43512 140.0
915.126282 128.0
916.451416 248.0
919.207153 176.0
921.52594 188.0
922.390137 180.0
923.363647 192.0
925.826965 200.0
927.15979 60.0
929.003174 200.0
930.101562 212.0
931.133789 236.0
932.221252 144.0
935.155762 240.0
935.207581 92.0
936.193909 72.0
938.101074 200.0
938.948669 188.0
940.315308 196.0
943.980408 196.0
948.180847 220.0
948.873535 128.0
949.345703 144.0
950.52356 192.0
951.619934 104.0
952.082825 140.0
955.968262 76.0
956.343689 132.0
957.526672 164.0
958.450012 168.0
959.232727 168.0
960.348877 148.0
960.632629 44.0
960.718994 88.0
961.755737 148.0
963.855591 188.0
966.409363 176.0
968.186035 128.0
971.037048 160.0
972.501343 244.0
973.053833 124.0
973.370544 188.0
974.469971 172.0
974.737183 240.0
978.923828 176.0
979.982788 144.0
982.114929 180.0
982.501709 164.0
983.331665 132.0
983.394104 148.0
984.236877 164.0
987.561707 152.0
988.856934 36.0
989.050964 212.0
990.773132 144.0
991.863586 240.0
993.236877 216.0
994.460449 100.0
995.282898 76.0
996.042847 196.0
998.783569 172.0
999.374939 172.0
1001.175354 124.0
1003.109741 120.0
1004.434021 172.0
1004.667419 128.0
1005.588745 64.0
1005.815979 168.0
1007.93811 84.0
1009.613342 184.0
1009.967529 152.0
1010.302856 120.0
1011.435608 184.0
1013.253174 132.0
1015.078674 184.0
1017.534363 192.0
1017.934387 80.0
1018.814148 244.0
1018.976135 212.0
1022.645508 120.0
1023.797913 188.0
1024.071777 124.0
1024.434814 84.0
1025.403442 60.0
1025.760376 160.0
1026.149292 176.0
1026.793335 160.0
1027.137817 108.0
1027.80127 132.0
1028.662964 96.0
1030.234009 48.0
1030.304199 156.0
1031.329468 184.0
1031.9021 196.0
1032.701538 184.0
1033.449951 40.0
1033.891479 80.0
1035.870117 172.0
1036.47229 152.0
1037.369629 148.0
1037.414551 196.0
1038.870361 196.0
1039.069214 136.0
1039.479858 124.0
1039.730103 164.0
1040.436279 64.0
1040.564697 196.0
1041.19397 160.0
1041.62439 212.0
1042.665283 136.0
1043.115723 244.0
1044.337036 252.0
1044.716553 168.0
1044.780884 176.0
1045.842651 144.0
1049.953491 168.0
1051.198608 180.0
1051.760132 188.0
1055.015991 204.0
1056.341675 232.0
1057.480591 124.0
1057.940186 124.0
1058.199097 164.0
1058.607056 144.0
1058.697754 196.0
1059.274292 80.0
1060.511963 80.0
1060.764771 136.0
1062.321167 92.0
1062.768799 96.0
1063.833252 184.0
1064.170898 176.0
1065.580322 184.0
1067.393799 188.0
1067.588989 56.0
1067.770996 188.0
1068.779419 160.0
1069.762207 200.0
1071.142822 204.0
1072.315674 104.0
1073.410889 76.0
1073.874023 84.0
1073.991455 156.0
1074.161011 148.0
1075.498779 204.0
1075.805542 140.0
1076.295288 120.0
1076.732788 60.0
1076.941772 188.0
1077.268433 168.0
1077.346802 148.0
1077.980591 140.0
1078.026367 196.0
1078.307373 200.0
1079.974731 116.0
1080.118652 56.0
1080.275635 272.0
1080.426147 196.0
1081.486206 168.0
1082.658203 252.0
1082.938965 156.0
1083.627686 240.0
1085.318848 208.0
1085.843506 136.0
1086.151733 132.0
1087.779175 172.0
1088.567139 132.0
1088.803467 128.0
1089.053101 148.0
1089.171387 108.0
1089.421021 180.0
1090.498657 64.0
1091.563721 220.0
1092.807007 200.0
1094.432739 40.0
1095.539307 172.0
1096.072998 168.0
1097.173706 124.0
1098.4729 152.0
1098.736816 156.0
1099.218506 216.0
1100.41333 140.0
1100.459473 200.0
1100.915161 84.0
1102.470215 256.0
1103.141846 156.0
1103.360107 160.0
1103.89563 176.0
1105.913574 160.0
1106.310791 192.0
1106.357056 168.0
1107.131836 252.0
1107.48291 184.0
1108.185059 136.0
1108.244751 204.0
1108.470093 172.0
1109.623413 176.0
1110.691162 168.0
1112.204102 152.0
1113.219971 248.0
1113.512085 144.0
1114.535278 132.0
1114.874146 176.0
1115.026978 176.0
1117.015137 124.0
1117.154907 132.0
1117.567383 124.0
1117.640503 208.0
1118.585693 164.0
1118.891846 44.0
1118.938477 76.0
1119.291382 228.0
1120.8302 156.0
1121.363281 208.0
1123.217041 200.0
1124.364746 188.0
1127.125977 196.0
1128.707031 188.0
1129.516357 216.0
1131.671387 268.0
1134.042969 88.0
1134.425049 212.0
1135.269897 144.0
1135.343628 92.0
1136.893433 140.0
1137.302856 156.0
1138.041382 140.0
1138.175659 80.0
1138.880859 224.0
1138.947998 140.0
1139.142822 64.0
1141.818115 200.0
1142.040039 112.0
1142.510986 208.0
1143.17041 168.0
1143.338623 160.0
1143.735718 100.0
1145.113159 208.0
1145.796509 48.0
1146.463623 204.0
1148.972046 236.0
1149.505127 144.0
1149.896484 200.0
1151.381836 180.0
1152.435791 180.0
1152.8479 136.0
1153.273804 264.0
1153.422485 184.0
1154.166138 164.0
1155.099487 180.0
1157.686646 188.0
1158.071167 124.0
1158.186279 228.0
1158.234375 212.0
1158.674072 156.0
1160.23291 176.0
1161.331421 236.0
1161.636719 176.0
1163.754272 136.0
1164.43335 184.0
1164.494507 196.0
1164.562378 168.0
1166.227173 260.0
1167.063354 136.0
1169.219849 140.0
1169.628296 208.0
1169.77124 172.0
1170.751709 184.0
1172.884399 176.0
1173.470703 208.0
1173.525269 136.0
1174.220825 164.0
1177.517456 76.0
1177.647217 160.0
1178.268921 180.0
1178.467041 80.0
1178.733521 188.0
1179.416992 140.0
1180.025391 36.0
1180.743408 200.0
1181.38562 168.0
1181.516479 108.0
1183.446533 204.0
1184.542358 164.0
1185.111084 180.0
1186.077393 204.0
1186.701294 216.0
1187.72998 108.0
1188.954346 120.0
1189.026855 200.0
1189.51416 164.0
1189.665161 176.0
1189.967285 184.0
1191.024902 120.0
1191.732544 124.0
1191.883667 172.0
1192.07605 164.0
1193.636597 164.0
1193.739746 156.0
1194.083618 152.0
1195.734863 160.0
1195.851929 216.0
1196.01709 124.0
1196.664307 72.0
1197.855713 176.0
1198.110596 124.0
1198.234619 172.0
1199.85437 48.0
1201.033569 164.0
1201.613037 152.0
1202.206543 152.0
1202.807007 160.0
1205.576782 128.0
1205.949951 56.0
1206.046753 136.0
1206.297119 88.0
1206.468872 192.0
1207.678589 132.0
1207.816895 76.0
1208.654053 168.0
1208.799438 120.0
1210.338745 240.0
1210.654785 176.0
1210.855591 196.0
1212.94812 156.0
1214.154663 144.0
1214.362793 108.0
1214.550049 144.0
1214.612427 216.0
1214.674927 64.0
1215.070312 128.0
1215.52832 204.0
1215.70874 192.0
1216.381958 76.0
1216.666626 192.0
1216.71521 124.0
1217.798584 120.0
1218.152832 212.0
1218.451538 120.0
1218.910156 128.0
1219.299316 156.0
1219.605103 176.0
1219.660767 216.0
1219.821289 188.0
1220.620239 240.0
1221.086182 80.0
1221.141846 136.0
1222.644653 212.0
1222.749023 128.0
1222.832642 232.0
1224.057861 172.0
1224.949463 168.0
1225.897095 160.0
1226.182739 152.0
1226.468506 172.0
1226.53833 200.0
1226.698608 76.0
1226.831055 208.0
1227.493408 220.0
1227.612061 208.0
1228.239746 180.0
1228.442017 220.0
1229.062988 180.0
1229.321167 180.0
1229.495117 200.0
1230.696411 208.0
1230.898926 156.0
1231.05957 72.0
1231.338867 104.0
1231.499512 152.0
1231.64624 140.0
1232.020142 160.0
1233.644775 148.0
1234.201782 144.0
1236.160156 208.0
1236.778809 52.0
1237.082886 184.0
1237.240845 48.0
1237.464844 36.0
1238.074097 184.0
1238.130127 180.0
1238.277222 156.0
1239.377075 164.0
1240.309204 136.0
1240.435425 228.0
1242.848022 100.0
1243.276123 236.0
1246.078003 232.0
1247.582031 132.0
1247.891357 172.0
1248.046143 116.0
1248.130493 144.0
1248.235962 196.0
1250.733643 212.0
1251.930542 128.0
1252.698364 140.0
1253.649536 164.0
1254.340332 116.0
1255.355591 208.0
1256.075073 132.0
1256.286743 196.0
1258.220459 72.0
1258.820679 88.0
1258.912476 32.0
1259.428101 136.0
1259.632935 168.0
1259.682373 188.0
1260.304077 204.0
1262.141968 56.0
1262.325806 184.0
1262.573364 264.0
1262.665283 208.0
1262.736084 220.0
1264.0802 144.0
1264.349243 192.0
1264.554443 36.0
1265.078247 164.0
1266.140381 156.0
1266.56543 224.0
1267.11084 152.0
1268.925293 224.0
1269.591919 152.0
1270.521118 148.0
1272.068237 144.0
1272.7854 156.0
1273.762817 128.0
1274.561279 204.0
1274.724731 224.0
1276.388184 196.0
1276.679688 136.0
1276.800659 144.0
1276.935791 160.0
1277.092285 188.0
1278.223511 164.0
1278.280396 208.0
1279.711182 132.0
1280.010254 164.0
1280.266602 136.0
1280.532959 160.0
1280.850708 88.0
1281.494263 128.0
1282.069092 128.0
1282.247314 232.0
1282.389771 124.0
1283.031372 148.0
1283.473511 152.0
1284.336426 184.0
1284.543335 152.0
1285.057007 96.0
1285.649292 148.0
1285.827637 196.0
1285.970459 64.0
1286.748535 168.0
1286.912842 148.0
1288.105469 156.0
1289.413086 168.0
1289.463135 84.0
1291.193359 212.0
1291.540039 184.0
1292.144775 156.0
1292.459595 140.0
1293.218262 324.0
1294.349487 196.0
1294.807739 184.0
1294.886597 132.0
1295.481079 204.0
1295.846558 168.0
1295.961182 172.0
1296.957275 140.0
1298.061401 140.0
1298.326782 188.0
1298.556274 120.0
1299.391968 160.0
1300.163452 224.0
1301.857788 148.0
1301.94397 152.0
1302.080444 188.0
1302.417969 40.0
1302.561646 164.0
1303.603516 120.0
1304.092285 144.0
1306.429321 228.0
1307.134521 176.0
1307.239258 152.0
1307.335938 180.0
1307.796631 156.0
1307.882935 164.0
1310.180176 192.0
1311.506226 76.0
1312.263184 180.0
1313.078125 208.0
1313.236694 148.0
1314.5354 164.0
1314.932373 292.0
1315.296021 160.0
1315.416016 140.0
1316.383545 184.0
1316.828735 168.0
1317.705444 228.0
1318.03772 168.0
1318.623169 148.0
1319.244873 212.0
1320.380737 232.0
1320.517456 188.0
1320.691162 192.0
1321.8125 176.0
1321.89209 140.0
1323.441284 136.0
1323.672974 156.0
1324.447876 172.0
1324.563843 180.0
1325.839111 92.0
1326.411743 156.0
1326.614624 144.0
1326.853882 188.0
1327.172974 128.0
1327.463013 188.0
1327.644287 188.0
1328.123047 220.0
1328.362427 204.0
1328.493042 88.0
1329.189575 152.0
1331.570801 172.0
1332.893066 196.0
1333.510742 156.0
1333.949097 220.0
1334.223145 112.0
1335.699463 132.0
1340.147827 180.0
1340.788208 260.0
1341.532593 188.0
1342.035645 148.0
1343.122314 160.0
1343.312012 48.0
1343.851929 116.0
1344.282471 148.0
1344.479492 208.0
1344.961182 164.0
1345.778931 188.0
1346.021729 180.0
1346.187866 160.0
1346.655273 188.0
1346.910889 160.0
1347.371216 224.0
1347.473511 144.0
1348.255371 136.0
1349.066772 212.0
1349.828857 84.0
1351.626709 132.0
1351.956055 60.0
1352.446411 120.0
1352.724609 196.0
1353.603149 100.0
1354.064575 200.0
1355.163452 176.0
1356.358032 148.0
1356.533936 132.0
1356.783203 200.0
1358.56543 164.0
1360.627686 188.0
1361.354614 212.0
1361.597046 124.0
1361.993652 136.0
1362.131958 168.0
1362.22876 172.0
1362.633789 160.0
1364.859985 132.0
1365.11731 56.0
1365.338013 208.0
1365.418945 208.0
1365.485107 200.0
1366.066162 124.0
1368.171021 160.0
1368.620117 152.0
1369.61438 184.0
1370.240601 152.0
1371.286987 92.0
1371.456543 72.0
1371.640869 132.0
1372.304443 176.0
1372.909058 120.0
1373.373779 168.0
1373.550781 176.0
1375.373413 180.0
1375.46936 268.0
1376.56958 172.0
1377.455811 220.0
1377.640503 256.0
1379.044556 176.0
1380.471558 208.0
1380.696777 92.0
1381.018799 160.0
1381.329468 168.0
1381.551392 144.0
1383.542236 176.0
1383.771851 96.0
1383.860596 56.0
1385.682739 172.0
1385.734619 192.0
1388.188232 140.0
1388.266602 188.0
1391.304688 140.0
1391.571899 184.0
1392.166016 108.0
1392.284058 188.0
1392.648804 208.0
1393.792847 88.0
1394.045532 188.0
1394.35022 76.0
1394.707031 180.0
1395.993286 196.0
1396.112305 108.0
1396.216431 180.0
1396.707275 216.0
1397.250366 224.0
1397.55542 164.0
1398.694214 92.0
1398.85791 200.0
1399.453613 184.0
1399.662109 212.0
1400.004639 188.0
1400.250366 144.0
1400.645142 112.0
1401.844727 216.0
1402.42981 276.0
1403.969482 80.0
1405.177979 148.0
1405.312256 128.0
1405.386841 152.0
1405.998779 156.0
1406.446655 236.0
1406.887085 184.0
1408.007202 108.0
1409.501343 164.0
1409.762817 212.0
1410.973755 84.0
1411.123291 92.0
1411.908569 116.0
1412.506958 128.0
1412.619141 160.0
1412.955811 180.0
1414.025879 152.0
1414.205566 172.0
1414.617432 152.0
1414.706543 180.0
1415.650513 228.0
1416.272217 48.0
1416.549316 152.0
1417.126221 240.0
1417.935547 228.0
1418.505249 152.0
1418.610229 208.0
1419.727417 180.0
1420.034912 116.0
1420.41748 188.0
1420.560059 196.0
1421.505493 192.0
1421.753052 204.0
1423.014282 208.0
1423.134399 160.0
1423.682617 152.0
1423.960449 92.0
1424.816895 156.0
1427.876343 152.0
1428.290039 160.0
1428.673706 168.0
1428.914062 180.0
1429.192871 184.0
1429.8927 120.0
1430.939087 112.0
1431.36084 216.0
1432.671387 164.0
1434.683594 148.0
1435.950439 132.0
1436.487915 200.0
1437.067017 164.0
1437.79895 176.0
1438.168823 172.0
1438.266968 72.0
1438.334839 136.0
1439.838989 136.0
1441.242676 200.0
1441.833496 192.0
1442.376343 80.0
1442.550171 144.0
1443.253296 128.0
1443.646484 144.0
1444.372681 160.0
1445.401611 152.0
1445.681641 184.0
1445.901123 56.0
1445.954102 196.0
1447.347046 204.0
1447.513672 200.0
1447.596924 416.0
1448.225586 248.0
1448.468018 168.0
1448.619507 156.0
1448.770996 176.0
1449.286255 212.0
1449.748535 220.0
1450.468506 312.0
1451.924316 208.0
1452.842163 156.0
1453.479614 136.0
1455.081177 144.0
1455.840454 200.0
1456.327759 148.0
1456.820312 136.0
1459.305664 148.0
1459.381714 120.0
1459.914062 128.0
1462.173584 184.0
1462.242065 68.0
1462.615112 132.0
1463.277466 184.0
1464.450195 160.0
1464.518799 108.0
1464.633057 144.0
1465.204346 148.0
1465.265381 120.0
1465.859619 224.0
1466.438843 180.0
1466.835327 140.0
1467.170654 176.0
1467.231689 232.0
1468.86377 156.0
1470.489014 200.0
1471.916626 44.0
1472.963013 144.0
1473.016479 216.0
1473.681152 176.0
1473.918091 168.0
1474.020874 168.0
1474.888672 180.0
1475.240356 152.0
1475.38562 128.0
1475.691406 164.0
1476.33374 88.0
1476.517334 176.0
1477.442993 200.0
1477.963257 208.0
1478.468262 144.0
1479.371582 208.0
1480.259766 196.0
1480.407837 136.0
1480.731323 152.0
1481.293701 152.0
1482.082886 128.0
1483.102173 164.0
1484.873413 44.0
1486.108521 164.0
1486.292725 220.0
1486.553589 72.0
1486.891235 176.0
1487.835449 244.0
1488.104004 160.0
1489.041016 116.0
1489.747803 148.0
1490.6698 192.0
1490.739014 120.0
1490.800415 188.0
1490.923462 156.0
1491.061768 212.0
1491.31543 160.0
1491.407593 208.0
1491.53833 192.0
1492.234009 288.0
1493.299194 192.0
1493.476074 48.0
1493.545288 68.0
1494.753296 96.0
1495.330444 180.0
1496.993408 136.0
1497.085815 152.0
1497.910034 196.0
1498.372314 208.0
1499.343262 256.0
1499.514893 212.0
1499.628418 128.0
1501.139526 212.0
1501.725708 212.0
1501.964844 200.0
1502.350464 140.0
1503.623779 144.0
1504.279907 176.0
1505.082764 196.0
