>compound MLS001148436-01!
>formula C17H20N2S
>ionization [M+H]+
>parentmass 285.140106
#inchi InChI=1S/C17H20N2S/c1-18(2)12-7-13-19-14-8-3-5-10-16(14)20-17-11-6-4-9-15(17)19/h3-6,8-11H,7,12-13H2,1-2H3
#inchikey ZGUGWUXLJSTTMA
#origInchi InChI=1S/C17H20N2S.ClH/c1-18(2)12-7-13-19-14-8-3-5-10-16(14)20-17-11-6-4-9-15(17)19;/h3-6,8-11H,7,12-13H2,1-2H3;1H
#Ion_Source LC-ESI
#Instrument qTof
#Compound_Source NIH Pharmacologically Active Library
#PI Dorrestein
#Data_Collector VP/LMS
#Scan -1
#Precursor_MZ 285.148
#ExactMass 284.135
#Charge 1
#CAS_Number N/A
#Pubmed_ID N/A
#Smiles CN(C)CCCN1c2ccccc2Sc3ccccc13.Cl
#INCHI_AUX N/A
#Library_Class 1
#SpectrumID CCMSLIB00000085647
#IonMode Positive
#UpdateWorkflowName UPDATE-SINGLE-ANNOTATED-GOLD
#LibraryQualityString Gold
#TaskID d252d724072548979f1f6f1ced849daf
##Scan# 1718
#SpectrumFile p4-D09_GD9_01_18369.mzXML
#LibraryName Pharm_Active_Library.mgf
#MQScore -1
#Organism Pharm_Active_Library
#TIC_Query 0
#RT_Query -1
#MZErrorPPM -1
#SharedPeaks 0
#MassDiff 0
#LibMZ -1
#SpecMZ 285.148
#SpecCharge 0
#internalFilename spec-00000.mgf

>collision 10
44.941879 100.0
45.058037 152.0
45.070061 248.0
45.110157 224.0
45.122189 44.0
45.313576 108.0
45.335018 132.0
45.360481 224.0
45.391319 160.0
45.481209 228.0
45.492634 156.0
45.579029 148.0
45.620911 128.0
45.6357 124.0
45.661251 128.0
45.743816 176.0
45.761765 144.0
45.770252 172.0
45.821438 140.0
45.840302 148.0
45.990002 28.0
46.099766 236.0
46.18187 124.0
46.323997 36.0
46.333481 188.0
46.342964 160.0
46.379555 120.0
46.3904 116.0
46.593964 144.0
46.610271 172.0
46.627937 160.0
46.642887 104.0
46.800701 156.0
46.836109 180.0
46.863354 176.0
46.923325 128.0
46.946507 120.0
46.998341 64.0
47.252476 32.0
47.286686 40.0
47.305851 152.0
47.318172 136.0
47.408577 84.0
47.507298 196.0
47.548462 136.0
47.659695 148.0
47.678932 116.0
47.710548 164.0
47.810959 108.0
47.843994 160.0
47.912853 136.0
47.939034 48.0
48.041065 160.0
48.053482 164.0
48.130775 260.0
48.310452 144.0
48.331871 124.0
48.378365 156.0
48.422569 36.0
48.469669 116.0
48.717377 120.0
48.806973 144.0
48.817448 132.0
48.836178 196.0
48.908531 144.0
48.941944 60.0
48.996262 128.0
49.088257 112.0
49.104992 188.0
49.120335 152.0
49.19569 192.0
49.223614 120.0
49.338184 216.0
49.486488 236.0
49.543911 172.0
49.644829 200.0
49.69252 136.0
49.703747 108.0
49.771122 180.0
49.794399 160.0
49.852596 56.0
49.908825 164.0
49.948204 132.0
49.99041 152.0
50.081924 208.0
50.13969 108.0
50.155193 112.0
50.18903 96.0
50.400757 216.0
50.417713 108.0
50.42902 140.0
50.472847 172.0
50.544769 184.0
50.55582 140.0
50.60585 132.0
50.615761 148.0
50.682335 200.0
50.781197 136.0
50.909302 120.0
50.930607 144.0
50.959019 72.0
50.980331 140.0
51.089817 212.0
51.112579 188.0
51.126812 132.0
51.162395 240.0
51.196568 168.0
51.300583 44.0
51.401848 160.0
51.427536 104.0
51.447521 128.0
51.518925 168.0
51.606106 200.0
51.751789 204.0
51.796444 84.0
51.812202 136.0
52.031628 224.0
52.096256 156.0
52.163795 172.0
52.206928 200.0
52.235695 212.0
52.306206 108.0
52.362362 308.0
52.48341 224.0
52.588722 172.0
52.650803 200.0
52.662586 176.0
52.699917 40.0
52.806892 208.0
52.821358 180.0
52.931351 172.0
52.997982 108.0
53.016819 260.0
53.058857 180.0
53.076256 140.0
53.122665 136.0
53.206837 232.0
53.309963 72.0
53.32159 48.0
53.35648 120.0
53.383003 116.0
53.420467 148.0
53.439381 56.0
53.452477 124.0
53.464115 52.0
53.612663 72.0
53.623199 208.0
53.672428 84.0
53.744633 100.0
53.759953 196.0
53.884068 136.0
54.01125 148.0
54.060997 160.0
54.132725 180.0
54.245544 180.0
54.290997 176.0
54.402508 72.0
54.540588 188.0
54.567051 120.0
54.686207 168.0
54.714176 156.0
54.73975 184.0
54.76424 192.0
54.805492 192.0
54.879791 220.0
55.020828 48.0
55.106487 176.0
55.16708 84.0
55.226231 152.0
55.386089 144.0
55.480927 128.0
55.655415 172.0
55.740669 116.0
55.782284 108.0
55.844734 32.0
55.957832 228.0
55.987614 124.0
56.027832 76.0
56.075516 220.0
56.093403 40.0
56.181385 120.0
56.233612 188.0
56.260609 184.0
56.327679 132.0
56.396416 176.0
56.433788 32.0
56.457714 200.0
56.47551 120.0
56.508572 112.0
56.602871 200.0
56.621521 176.0
56.712234 136.0
56.797703 196.0
56.836708 140.0
56.859253 164.0
56.940292 180.0
56.977844 168.0
57.006393 112.0
57.042465 104.0
57.06802 156.0
57.352547 196.0
57.366116 212.0
57.400452 160.0
57.46867 216.0
57.529037 148.0
57.598503 96.0
57.622673 112.0
57.648361 140.0
57.672543 168.0
57.720921 196.0
57.793526 152.0
57.813198 104.0
57.828331 300.0
57.849522 160.0
57.878288 168.0
57.961601 168.0
58.307598 160.0
58.382782 168.0
58.496689 164.0
58.520565 36.0
58.554066 244.0
58.605862 60.0
58.699421 184.0
58.831585 188.0
58.863125 124.0
58.875862 200.0
58.926941 180.0
58.964474 116.0
58.9767 184.0
59.134178 196.0
59.247555 160.0
59.264408 176.0
59.296589 116.0
59.393185 216.0
59.411594 96.0
59.428471 136.0
59.583538 136.0
59.603512 48.0
59.652695 224.0
59.669605 56.0
59.698818 180.0
59.728043 112.0
59.738811 148.0
59.779541 220.0
59.877342 220.0
59.894283 136.0
59.932796 184.0
59.968243 160.0
60.111668 56.0
60.338722 220.0
60.372742 132.0
60.464016 156.0
60.488781 144.0
60.535229 140.0
60.584793 48.0
60.601837 108.0
60.690186 164.0
60.705692 132.0
60.766186 192.0
60.856209 132.0
60.992916 68.0
61.070663 108.0
61.162121 144.0
61.251221 188.0
61.37746 152.0
61.427368 112.0
61.574089 200.0
61.611576 188.0
61.649078 80.0
61.667831 216.0
61.700623 168.0
61.800755 148.0
61.838314 180.0
61.852402 184.0
61.883713 168.0
61.925991 116.0
62.067036 176.0
62.101536 208.0
62.120361 172.0
62.165859 28.0
62.238068 132.0
62.302464 84.0
62.335457 116.0
62.352745 88.0
62.39204 180.0
62.415627 116.0
62.44236 156.0
62.489552 100.0
62.517876 64.0
62.563522 176.0
62.57769 56.0
62.628086 128.0
62.676922 124.0
62.698982 144.0
62.713169 152.0
62.84248 120.0
62.939949 176.0
62.960873 152.0
63.03986 80.0
63.098343 192.0
63.110992 152.0
63.29454 124.0
63.316711 76.0
63.348389 116.0
63.486286 80.0
63.579884 124.0
63.643284 132.0
63.689438 124.0
63.744957 148.0
63.77047 236.0
63.791134 108.0
63.81657 132.0
64.023438 152.0
64.056885 80.0
64.097099 200.0
64.13018 196.0
64.243393 128.0
64.282051 124.0
64.340744 180.0
64.383858 164.0
64.398232 104.0
64.463737 124.0
64.486107 312.0
64.564445 156.0
64.617233 176.0
64.884697 88.0
64.988953 220.0
65.013016 184.0
65.040306 72.0
65.054749 284.0
65.091682 72.0
65.127014 160.0
65.178421 144.0
65.292557 92.0
65.369774 204.0
65.426109 184.0
65.59848 176.0
65.701691 168.0
65.769882 140.0
65.861504 240.0
65.977852 68.0
66.095924 112.0
66.275658 156.0
66.38913 160.0
66.522179 108.0
66.574272 140.0
66.712242 56.0
66.743134 104.0
66.833397 152.0
66.920486 172.0
66.931885 176.0
66.949799 192.0
66.97097 132.0
67.010063 128.0
67.050804 136.0
67.11869 112.0
67.129059 160.0
67.173096 120.0
67.257942 148.0
67.288963 196.0
67.339584 192.0
67.365715 120.0
67.40493 168.0
67.434349 208.0
67.465408 188.0
67.499741 148.0
67.597885 188.0
67.656815 136.0
67.678093 200.0
67.723953 160.0
67.753433 124.0
67.799316 208.0
67.83046 180.0
68.025665 160.0
68.113579 216.0
68.135696 184.0
68.157051 176.0
68.198135 128.0
68.212929 124.0
68.407043 152.0
68.522324 148.0
68.568459 132.0
68.662437 204.0
68.728424 156.0
68.758125 68.0
68.805992 56.0
68.944748 220.0
69.009216 180.0
69.230949 180.0
69.37178 88.0
69.41655 196.0
69.499489 136.0
69.569191 200.0
69.584137 176.0
69.645576 132.0
69.741951 156.0
69.761894 104.0
69.855019 108.0
69.894951 116.0
70.018143 168.0
70.049789 76.0
70.1231 128.0
70.142189 212.0
70.321579 132.0
70.408432 192.0
70.483566 180.0
70.522247 248.0
70.685898 168.0
70.716942 204.0
70.731201 232.0
70.808105 200.0
70.82151 192.0
70.975685 148.0
71.005875 172.0
71.099823 196.0
71.281189 128.0
71.318169 36.0
71.395508 124.0
71.408958 168.0
71.459869 196.0
71.528427 120.0
71.602509 160.0
71.705276 148.0
71.759262 168.0
71.784515 200.0
71.888885 156.0
71.899414 256.0
71.919487 168.0
72.063026 144.0
72.106888 180.0
72.155983 244.0
72.200165 156.0
72.313301 168.0
72.511459 188.0
72.614883 232.0
72.626755 92.0
72.733658 48.0
72.762512 152.0
72.978287 112.0
73.15863 156.0
73.180763 188.0
73.238663 164.0
73.262733 124.0
73.303406 128.0
73.386925 200.0
73.485855 80.0
73.514862 184.0
73.543877 172.0
73.617287 192.0
73.709534 80.0
74.165749 384.0
74.264214 148.0
74.281372 196.0
74.331123 220.0
74.533745 200.0
74.664391 156.0
74.738815 212.0
74.876083 220.0
75.027718 172.0
75.084618 140.0
75.101868 144.0
75.146713 184.0
75.258904 144.0
75.278069 124.0
75.459328 160.0
75.502563 180.0
75.559639 148.0
75.589058 136.0
75.620209 168.0
75.64444 116.0
75.727554 160.0
75.855774 164.0
75.909523 172.0
75.939011 376.0
75.989311 128.0
76.03096 184.0
76.062958 188.0
76.086502 64.0
76.345406 92.0
76.596039 192.0
76.702332 128.0
76.730225 160.0
76.786018 140.0
76.855797 140.0
76.920372 124.0
77.119499 108.0
77.220909 144.0
77.304886 92.0
77.436188 144.0
77.49575 140.0
77.52729 104.0
77.585129 236.0
77.669304 184.0
77.929123 112.0
77.971298 228.0
78.015884 188.0
78.15715 140.0
78.172974 124.0
78.229858 84.0
78.393661 248.0
78.504723 156.0
78.62822 56.0
78.70607 172.0
78.721779 208.0
78.765938 48.0
78.886101 136.0
78.914383 176.0
78.96299 144.0
79.052353 112.0
79.202843 112.0
79.442154 160.0
79.546852 152.0
79.585907 184.0
79.632477 208.0
79.756454 116.0
79.781342 160.0
79.815125 164.0
79.895157 172.0
79.991257 148.0
80.057137 96.0
80.164017 88.0
80.213921 248.0
80.264053 168.0
80.331619 128.0
80.495819 172.0
80.565475 152.0
80.604782 156.0
80.624443 76.0
80.636948 84.0
80.728127 108.0
80.769264 80.0
80.787155 92.0
80.989075 164.0
81.033844 192.0
81.066467 36.0
81.127403 132.0
81.148918 124.0
81.283447 244.0
81.432716 244.0
81.588783 148.0
81.696686 180.0
81.767151 120.0
81.782089 156.0
81.903702 140.0
81.943336 172.0
81.997391 136.0
82.204788 116.0
82.251709 164.0
82.434128 112.0
82.448586 216.0
82.566093 180.0
82.645691 124.0
82.672829 264.0
82.736183 268.0
82.78688 168.0
82.803185 64.0
82.821243 148.0
82.98439 152.0
82.998901 164.0
83.142204 28.0
83.212997 112.0
83.236603 140.0
83.258392 168.0
83.421921 132.0
83.503746 160.0
83.519707 176.0
83.534813 200.0
83.57962 136.0
83.700287 128.0
83.727608 120.0
83.760391 132.0
83.8442 160.0
83.856964 180.0
83.942642 184.0
83.995766 128.0
84.089897 196.0
84.319107 204.0
84.390007 244.0
84.46682 144.0
84.658997 204.0
84.719437 216.0
84.748749 176.0
84.794563 208.0
84.813614 204.0
84.862389 80.0
84.981613 228.0
84.999962 160.0
85.016472 124.0
85.088058 132.0
85.128456 160.0
85.253372 128.0
85.349091 172.0
85.367355 116.0
85.540298 124.0
85.560547 164.0
85.661835 56.0
85.71711 60.0
85.733696 180.0
85.827705 140.0
85.956825 148.0
85.970856 220.0
85.999275 168.0
86.098869 176.0
86.200577 144.0
86.215363 164.0
86.287453 208.0
86.385468 128.0
86.411369 44.0
86.45948 228.0
86.559441 120.0
86.639084 64.0
86.789215 160.0
86.89122 204.0
86.91349 172.0
86.961739 212.0
86.978447 184.0
87.065704 168.0
87.095421 188.0
87.117714 188.0
87.136292 160.0
87.197617 176.0
87.242226 144.0
87.324043 176.0
87.350082 124.0
87.368683 152.0
87.418922 168.0
87.44165 228.0
87.456146 180.0
87.474762 196.0
87.631195 188.0
87.862381 96.0
88.149925 128.0
88.170479 184.0
88.314125 140.0
88.413605 132.0
88.44857 172.0
88.486855 212.0
88.563385 156.0
88.589607 192.0
88.732414 160.0
88.772232 180.0
88.808922 124.0
89.03067 204.0
89.114914 96.0
89.184448 80.0
89.207008 120.0
89.378151 144.0
89.491089 188.0
89.579605 192.0
89.607864 64.0
89.626701 176.0
89.778656 112.0
89.979408 144.0
90.000793 148.0
90.015282 160.0
90.087051 176.0
90.238777 128.0
90.252739 108.0
90.291191 136.0
90.322311 144.0
90.367577 180.0
90.476631 120.0
90.548584 180.0
90.561844 148.0
90.914482 192.0
90.937256 164.0
91.056084 336.0
91.153755 180.0
91.372414 80.0
91.496124 168.0
91.781914 200.0
91.873466 36.0
91.909714 208.0
91.942154 108.0
92.001328 124.0
92.062424 104.0
92.081528 168.0
92.18087 216.0
92.196152 156.0
92.291733 184.0
92.334496 100.0
92.440933 176.0
92.463898 192.0
92.498352 144.0
92.607498 220.0
92.691788 172.0
92.989037 108.0
93.171463 160.0
93.246399 188.0
93.288689 152.0
93.536842 188.0
93.594597 132.0
93.63504 192.0
93.688972 56.0
93.841225 212.0
93.973846 232.0
94.049568 212.0
94.090111 172.0
94.151901 88.0
94.242691 228.0
94.294868 96.0
94.312263 144.0
94.337257 176.0
94.385765 192.0
94.535172 156.0
94.63533 272.0
94.790291 200.0
94.850372 184.0
95.05278 152.0
95.073418 164.0
95.257874 152.0
95.294785 232.0
95.395844 124.0
95.411392 80.0
95.587349 124.0
95.623421 72.0
95.652618 112.0
95.71244 176.0
95.814247 128.0
95.844879 172.0
95.933128 144.0
96.153542 200.0
96.212097 164.0
96.346855 144.0
96.391792 236.0
96.421104 180.0
96.436737 64.0
96.486061 156.0
96.575562 172.0
96.737976 176.0
96.763428 168.0
96.90052 256.0
96.95343 64.0
97.041641 116.0
97.186783 148.0
97.269211 200.0
97.381126 192.0
97.394875 156.0
97.485252 56.0
97.512764 128.0
97.556961 124.0
97.607132 196.0
97.68187 136.0
97.717278 140.0
97.780243 196.0
97.83252 172.0
97.853081 168.0
97.881851 124.0
97.908218 56.0
97.96534 128.0
97.987007 164.0
98.002769 180.0
98.057945 160.0
98.099342 168.0
98.233437 160.0
98.249214 68.0
98.294594 164.0
98.312355 164.0
98.355782 204.0
98.406868 168.0
98.491905 136.0
98.521652 144.0
98.535484 212.0
98.580933 152.0
98.711395 184.0
98.772713 208.0
98.849869 128.0
98.936958 88.0
98.954773 120.0
98.982933 236.0
99.013641 176.0
99.057755 144.0
99.085495 144.0
99.190521 92.0
99.263878 144.0
99.341232 204.0
99.400749 176.0
99.531761 108.0
99.561546 160.0
99.583397 84.0
99.648949 144.0
99.716515 212.0
99.792053 72.0
99.833809 136.0
99.86364 188.0
99.945206 132.0
99.983017 84.0
100.012337 220.0
100.044724 120.0
100.064827 204.0
100.331596 136.0
100.361504 176.0
100.427048 208.0
100.485161 144.0
100.537041 176.0
100.556999 108.0
100.622879 64.0
100.674789 188.0
100.776665 64.0
100.88459 196.0
101.126335 140.0
101.170662 188.0
101.421059 184.0
101.473183 124.0
101.607552 144.0
101.663734 204.0
101.774139 168.0
101.92881 120.0
101.950912 168.0
102.047905 160.0
102.093651 96.0
102.194229 112.0
102.298882 324.0
102.453941 80.0
102.526482 156.0
102.560745 76.0
102.655502 28.0
102.724075 108.0
102.796707 132.0
102.851204 232.0
102.931961 156.0
103.034966 96.0
103.052597 468.0
103.121857 100.0
103.140053 156.0
103.257317 164.0
103.291702 212.0
103.440674 136.0
103.536613 120.0
103.575089 172.0
103.593323 184.0
103.718956 168.0
103.737206 132.0
103.763557 188.0
103.837563 192.0
103.893356 128.0
103.992783 144.0
104.043533 156.0
104.114601 152.0
104.177567 104.0
104.193817 180.0
104.291359 104.0
104.534546 160.0
104.667725 52.0
104.694199 136.0
104.749191 208.0
104.857178 124.0
104.877563 108.0
104.9795 148.0
105.069733 152.0
105.150871 244.0
105.19986 164.0
105.242523 160.0
105.420448 132.0
105.444969 192.0
105.61058 172.0
105.639221 200.0
105.692413 212.0
105.727203 168.0
105.780418 156.0
105.847977 180.0
105.941254 192.0
105.98317 184.0
106.011856 108.0
106.026207 184.0
106.064217 1268.0
106.282532 160.0
106.405685 112.0
106.446747 116.0
106.461121 180.0
106.547394 176.0
106.611092 160.0
106.633698 180.0
106.697418 128.0
106.728264 116.0
106.851669 116.0
106.979263 152.0
107.066505 280.0
107.182693 228.0
107.364571 124.0
107.383133 92.0
107.486275 56.0
107.502785 96.0
107.524971 224.0
107.583282 144.0
107.608055 200.0
107.694794 168.0
107.718529 144.0
107.740234 168.0
107.798088 260.0
107.874565 184.0
107.992653 144.0
108.217987 148.0
108.273903 160.0
108.468666 128.0
108.501831 180.0
108.543297 52.0
108.572334 176.0
108.644928 144.0
108.664589 216.0
108.688499 232.0
108.707176 172.0
108.84626 168.0
108.864944 100.0
108.929329 132.0
108.98127 184.0
109.011314 828.0
109.033218 168.0
109.079697 156.0
109.101814 196.0
109.141319 80.0
109.418037 100.0
109.457603 116.0
109.491882 172.0
109.542992 92.0
109.607574 148.0
109.634666 64.0
109.670097 136.0
109.78685 136.0
109.828568 120.0
109.874458 164.0
109.897408 176.0
110.01017 140.0
110.035164 96.0
110.104065 144.0
110.166733 164.0
110.223145 172.0
110.250305 64.0
110.302559 196.0
110.340187 148.0
110.392464 80.0
110.407104 148.0
110.469849 136.0
110.732872 128.0
110.775482 144.0
110.82576 48.0
110.880249 176.0
110.926361 72.0
111.224228 176.0
111.388008 136.0
111.448936 152.0
111.472054 188.0
111.499367 116.0
111.850624 128.0
111.896935 132.0
111.936424 164.0
112.160263 168.0
112.187668 180.0
112.307861 180.0
112.436562 216.0
112.457321 172.0
112.501999 140.0
112.558998 128.0
112.573784 128.0
112.607574 180.0
112.629051 168.0
112.686401 216.0
112.73645 136.0
112.903458 184.0
112.92038 184.0
112.98172 36.0
113.00499 212.0
113.146797 256.0
113.271736 112.0
113.333176 80.0
113.379799 156.0
113.576973 160.0
113.606674 32.0
113.755219 228.0
113.810417 136.0
114.039856 156.0
114.125198 136.0
114.139145 68.0
114.195061 184.0
114.324844 108.0
114.396812 256.0
114.42701 164.0
114.584618 124.0
114.605927 200.0
114.659195 148.0
114.678383 144.0
114.70668 144.0
114.738068 140.0
114.759384 184.0
114.876686 200.0
114.908684 132.0
114.930023 160.0
114.949226 44.0
114.989777 132.0
115.013252 204.0
115.027023 180.0
115.05439 1512.0
115.096512 228.0
115.152039 108.0
115.177666 160.0
115.213982 196.0
115.229889 216.0
115.251198 224.0
115.343681 208.0
115.423439 76.0
115.449104 156.0
115.502571 84.0
115.802231 148.0
115.853638 104.0
115.988647 48.0
116.037949 60.0
116.060295 188.0
116.132309 180.0
116.195412 172.0
116.227631 92.0
116.351181 148.0
116.437073 148.0
116.455032 144.0
116.477882 164.0
116.572655 184.0
116.654091 112.0
116.677742 140.0
116.854095 56.0
116.873459 196.0
116.903587 188.0
116.927261 188.0
116.975845 196.0
117.069817 1968.0
117.12104 64.0
117.159813 204.0
117.179199 112.0
117.258934 156.0
117.306351 144.0
117.327911 112.0
117.358093 52.0
117.51339 180.0
117.675262 136.0
117.813484 208.0
117.945297 168.0
117.997978 96.0
118.072807 156.0
118.109634 168.0
118.243782 152.0
118.460304 84.0
118.497139 236.0
118.609825 112.0
118.711723 100.0
118.731247 144.0
118.746422 384.0
118.763168 244.0
118.885269 160.0
118.92762 92.0
118.983131 48.0
118.998146 164.0
119.274048 136.0
119.467583 156.0
119.537201 148.0
119.824615 204.0
119.839874 156.0
119.889992 184.0
119.946655 112.0
119.968452 180.0
120.051308 232.0
120.090569 208.0
120.297859 196.0
120.387383 188.0
120.407036 68.0
120.581818 136.0
120.597115 184.0
120.640839 160.0
120.664886 132.0
120.765472 176.0
120.896034 248.0
120.960213 148.0
120.984299 132.0
121.046059 96.0
121.093781 84.0
121.253716 152.0
121.315094 216.0
121.38311 180.0
121.413765 168.0
121.50808 164.0
121.723183 168.0
121.762711 144.0
121.894524 184.0
121.956062 164.0
122.022011 100.0
122.072578 164.0
122.105568 192.0
122.180359 112.0
122.33567 168.0
122.356422 148.0
122.418076 188.0
122.503967 96.0
122.695702 160.0
122.721535 128.0
122.816986 148.0
122.907433 144.0
123.010963 176.0
123.026817 660.0
123.154694 220.0
123.212128 204.0
123.384514 128.0
123.555603 132.0
123.674301 108.0
123.703072 176.0
123.917892 164.0
123.964424 140.0
124.022369 316.0
124.096359 200.0
124.170601 100.0
124.248138 180.0
124.391693 168.0
124.419121 188.0
124.450203 128.0
124.632339 232.0
124.696785 168.0
124.716789 132.0
124.876877 136.0
124.908463 160.0
125.022438 160.0
125.139465 108.0
125.175087 160.0
125.277397 120.0
125.306503 144.0
125.585159 96.0
125.625305 224.0
125.727943 184.0
125.752495 120.0
125.846252 192.0
125.946747 200.0
125.969086 56.0
126.002594 60.0
126.040581 128.0
126.358078 200.0
126.469963 196.0
126.525932 72.0
126.543839 172.0
126.613258 236.0
126.664772 88.0
126.765594 112.0
126.794724 188.0
126.922508 156.0
126.988091 196.0
127.055252 192.0
127.095222 108.0
127.169594 168.0
127.303978 140.0
127.353386 124.0
127.596085 156.0
127.629807 64.0
127.681534 176.0
127.760254 136.0
127.798721 164.0
127.859261 112.0
127.899773 144.0
128.050568 320.0
128.25116 144.0
128.50148 100.0
128.517273 120.0
128.584961 136.0
128.603027 160.0
128.781387 152.0
129.036743 80.0
129.061646 152.0
129.152084 144.0
129.195053 104.0
129.457611 56.0
129.636581 84.0
129.668304 144.0
129.743103 52.0
129.831543 188.0
129.847412 168.0
129.984665 144.0
130.064392 1492.0
130.103821 96.0
130.26506 160.0
130.344574 48.0
130.403976 176.0
130.533249 56.0
130.555984 44.0
130.631042 160.0
130.767578 32.0
130.792603 172.0
130.822205 52.0
130.860901 68.0
130.929214 168.0
130.982956 236.0
131.040833 144.0
131.07103 1032.0
131.100082 148.0
131.204926 188.0
131.302979 132.0
131.334915 168.0
131.355438 144.0
131.462677 188.0
131.500214 248.0
131.524292 236.0
131.652145 176.0
131.743195 112.0
131.897995 152.0
131.924057 228.0
131.949203 124.0
131.990356 124.0
132.086807 184.0
132.129868 76.0
132.221405 116.0
132.498474 96.0
132.553467 128.0
132.640549 76.0
132.826767 212.0
132.851517 32.0
132.938705 256.0
132.959366 188.0
133.058075 136.0
133.078735 80.0
133.115463 184.0
133.214233 148.0
133.283157 124.0
133.365891 196.0
133.386581 216.0
133.478546 132.0
133.678665 128.0
133.699387 112.0
133.802963 180.0
133.899673 60.0
133.938278 192.0
134.006866 172.0
134.201553 84.0
134.35022 164.0
134.538391 220.0
134.605347 164.0
134.695419 84.0
134.721512 232.0
134.797073 96.0
135.027206 368.0
135.111526 84.0
135.215652 164.0
135.359192 200.0
135.430984 152.0
135.507431 140.0
135.896942 120.0
135.961914 52.0
136.01886 184.0
136.203384 148.0
136.300964 188.0
136.393921 36.0
136.442734 264.0
136.567749 148.0
136.666016 116.0
136.745255 156.0
136.789368 168.0
136.894135 108.0
137.019913 120.0
137.078171 84.0
137.115448 128.0
137.140564 180.0
137.204025 120.0
137.243668 160.0
137.304291 52.0
137.435822 156.0
137.455933 196.0
137.766464 148.0
137.806168 196.0
137.892639 200.0
137.920685 144.0
137.95108 160.0
138.024597 144.0
138.124115 92.0
138.142822 116.0
138.198975 144.0
138.255142 176.0
138.31131 152.0
138.344177 188.0
138.491608 188.0
138.635529 196.0
138.819717 184.0
138.998001 116.0
139.056305 356.0
139.103607 84.0
139.188126 148.0
139.21225 192.0
139.300858 164.0
139.408936 156.0
139.477097 184.0
139.681671 196.0
139.7005 120.0
139.719315 56.0
139.735779 172.0
139.914642 140.0
139.942902 144.0
139.968796 188.0
140.047455 320.0
140.136032 204.0
140.159592 168.0
140.243164 140.0
140.31987 212.0
140.47316 168.0
140.52034 164.0
140.539215 188.0
140.730408 160.0
140.851578 288.0
140.933533 176.0
140.959534 152.0
141.051697 148.0
141.069855 668.0
141.101349 52.0
141.214859 172.0
141.307114 132.0
141.422897 172.0
141.446732 116.0
141.486984 180.0
141.513016 160.0
141.550903 316.0
141.669327 96.0
141.695389 92.0
141.775955 96.0
141.792542 72.0
142.086578 92.0
142.115051 188.0
142.143524 232.0
142.285934 160.0
142.309677 168.0
142.556656 172.0
142.746887 76.0
142.775421 92.0
142.889481 80.0
142.940796 124.0
143.067978 176.0
143.141907 248.0
143.158569 232.0
143.203827 148.0
143.284805 128.0
143.401581 140.0
143.441696 192.0
143.458786 108.0
143.485275 176.0
143.516006 140.0
143.575623 132.0
143.637634 48.0
143.659912 224.0
143.72113 212.0
143.797501 148.0
143.947891 148.0
144.074478 60.0
144.115097 176.0
144.209106 200.0
144.387619 84.0
144.404358 196.0
144.421097 128.0
144.509613 168.0
144.655594 180.0
144.794464 132.0
144.933411 164.0
144.962173 112.0
145.06044 192.0
145.122772 132.0
145.261871 156.0
145.281052 132.0
145.324234 224.0
145.367432 160.0
145.518646 124.0
145.59549 116.0
145.633926 140.0
145.69397 104.0
145.888626 216.0
146.053528 188.0
146.138748 188.0
146.223419 44.0
146.34816 188.0
146.558029 212.0
146.683029 152.0
146.888 132.0
147.027771 644.0
147.052078 144.0
147.112411 396.0
147.131729 124.0
147.206573 160.0
147.228317 152.0
147.460251 212.0
147.489243 96.0
147.569031 40.0
147.635208 228.0
147.72139 136.0
147.764938 140.0
148.01918 152.0
148.040878 164.0
148.069931 156.0
148.183334 172.0
148.222549 128.0
148.285568 108.0
148.351013 176.0
148.49649 56.0
148.588669 180.0
148.642609 208.0
148.697876 68.0
148.756119 44.0
148.777969 352.0
148.821671 72.0
148.94043 176.0
148.979538 112.0
149.029053 508.0
149.149643 116.0
149.229858 184.0
149.40741 144.0
149.582626 248.0
149.606964 180.0
149.704361 92.0
149.792038 192.0
149.863052 80.0
149.904114 152.0
150.028183 204.0
150.044952 184.0
150.111313 120.0
150.249069 236.0
150.313782 136.0
150.445587 140.0
150.538361 132.0
150.560349 64.0
150.582321 228.0
150.748444 196.0
150.782669 96.0
150.880432 52.0
150.958679 184.0
150.978241 172.0
151.01004 88.0
151.029602 112.0
151.054382 1408.0
151.102997 92.0
151.137253 176.0
151.164597 180.0
151.298782 220.0
151.614761 132.0
151.752029 144.0
151.874649 192.0
151.901627 128.0
151.938431 148.0
151.967865 204.0
152.061508 2408.0
152.094696 124.0
152.178955 120.0
152.235428 104.0
152.370529 156.0
152.460953 184.0
152.499191 176.0
152.601547 168.0
152.843063 192.0
152.85144 196.0
152.858871 124.0
153.067368 1484.0
153.23204 236.0
153.256256 48.0
153.300613 128.0
153.598938 144.0
153.635941 56.0
153.701797 180.0
153.754379 152.0
153.835831 76.0
154.016098 80.0
154.062805 936.0
154.10997 28.0
154.161865 280.0
154.211288 60.0
154.567413 52.0
154.594635 84.0
154.625641 180.0
154.661453 168.0
154.762756 156.0
154.795135 132.0
155.008179 156.0
155.071167 328.0
155.186646 204.0
155.33049 100.0
155.598495 132.0
155.682922 212.0
155.772339 132.0
155.794693 156.0
155.864258 56.0
155.97113 188.0
156.003067 236.0
156.052521 296.0
156.05687 220.0
156.068512 184.0
156.078705 252.0
156.115326 148.0
156.227264 108.0
156.346695 184.0
156.476135 208.0
156.597656 144.0
156.616791 224.0
156.854797 72.0
156.886841 248.0
156.944534 160.0
157.054276 188.0
157.071732 160.0
157.161545 180.0
157.184006 228.0
157.211456 220.0
157.3013 172.0
157.318771 188.0
157.361221 196.0
157.381195 68.0
157.426147 312.0
157.456116 212.0
157.496078 184.0
157.531036 120.0
157.626465 168.0
157.688461 140.0
157.798447 144.0
157.853455 164.0
157.873459 84.0
157.9021 152.0
157.940994 92.0
158.043167 100.0
158.076096 72.0
158.186218 160.0
158.291367 228.0
158.328934 120.0
158.581985 68.0
158.692276 156.0
158.847763 100.0
158.9431 68.0
158.988281 132.0
159.008347 144.0
159.174042 124.0
159.432785 144.0
159.452896 208.0
159.588638 96.0
159.671616 132.0
159.772232 188.0
159.792618 192.0
159.81752 188.0
159.857788 156.0
159.877914 192.0
159.913147 168.0
159.945877 132.0
160.040451 148.0
160.091904 100.0
160.163956 196.0
160.220352 124.0
160.265717 148.0
160.328537 208.0
160.358948 108.0
160.37912 80.0
160.417831 144.0
160.437088 96.0
160.50769 52.0
160.694336 116.0
160.780136 160.0
160.893723 156.0
161.022507 156.0
161.040176 188.0
161.060379 160.0
161.121017 116.0
161.158905 140.0
161.206924 172.0
161.363129 180.0
161.732971 36.0
161.983658 156.0
162.036118 328.0
162.112869 100.0
162.28096 156.0
162.406967 180.0
162.503372 180.0
162.625183 224.0
162.744492 100.0
162.777496 108.0
162.838455 184.0
162.912109 128.0
162.945145 200.0
162.978165 148.0
163.0112 100.0
163.168793 124.0
163.24762 236.0
163.313736 220.0
163.374786 168.0
163.453659 288.0
163.522369 144.0
163.595016 188.0
163.61911 116.0
163.743881 128.0
164.019058 188.0
164.057297 160.0
164.519043 128.0
164.62883 156.0
164.728897 224.0
164.761658 84.0
164.817856 160.0
164.876633 168.0
164.917282 208.0
164.963531 204.0
164.983994 64.0
165.001892 208.0
165.048737 160.0
165.09227 172.0
165.434235 156.0
165.554581 200.0
165.605804 108.0
165.723648 180.0
166.002289 192.0
166.064896 4304.0
166.12616 72.0
166.190292 44.0
166.303207 108.0
166.521439 216.0
166.588226 160.0
166.698715 96.0
166.79895 164.0
166.883789 180.0
166.950638 128.0
167.042587 304.0
167.072571 13664.0
167.135849 72.0
167.161911 96.0
167.187317 36.0
167.226212 188.0
167.359787 104.0
167.388107 64.0
167.581299 124.0
167.675644 52.0
168.006699 180.0
168.046829 136.0
168.076385 2532.0
168.140869 100.0
168.177002 172.0
168.220886 200.0
168.325592 104.0
168.407425 212.0
168.461044 40.0
168.592819 168.0
168.688446 224.0
168.737564 148.0
168.79187 88.0
168.8936 260.0
169.065887 344.0
169.080231 192.0
169.120422 96.0
169.148895 48.0
169.218262 232.0
169.299072 100.0
169.3405 196.0
169.368103 184.0
169.392303 108.0
169.433762 84.0
169.46225 68.0
169.488174 120.0
169.561722 104.0
169.628113 128.0
169.866684 120.0
170.029068 164.0
170.061493 364.0
170.099503 100.0
170.162537 168.0
170.419662 176.0
170.492432 100.0
170.588593 184.0
170.976151 156.0
171.026993 1428.0
171.084763 176.0
171.147949 48.0
171.327667 112.0
171.603928 172.0
171.661285 120.0
171.763718 160.0
171.849091 140.0
171.903885 100.0
171.924774 84.0
172.012802 188.0
172.032639 692.0
172.091827 148.0
172.110107 184.0
172.189987 160.0
172.258972 44.0
172.332169 288.0
172.355637 208.0
172.550049 208.0
172.563721 92.0
172.573792 172.0
172.669342 152.0
172.721649 152.0
172.798859 256.0
172.870773 160.0
172.941437 92.0
173.031448 500.0
173.114761 176.0
173.182327 164.0
173.200668 208.0
173.242661 120.0
173.274017 80.0
173.35524 92.0
173.682068 164.0
173.701324 136.0
173.830872 296.0
173.919113 136.0
173.945358 180.0
173.997635 140.0
174.039871 92.0
174.165924 132.0
174.210587 196.0
174.268387 172.0
174.373505 184.0
174.612747 272.0
174.678513 136.0
174.704819 192.0
174.796906 172.0
174.829208 144.0
174.989044 96.0
175.007477 132.0
175.054504 144.0
175.333313 220.0
175.378922 188.0
175.418472 40.0
175.481735 64.0
175.560837 152.0
175.582428 152.0
175.687454 84.0
175.713837 104.0
175.78244 148.0
175.83786 240.0
175.932877 124.0
175.964554 192.0
176.014725 168.0
176.043777 124.0
176.162628 52.0
176.202255 136.0
176.220749 156.0
176.255096 184.0
176.276245 40.0
176.391586 152.0
176.471848 144.0
176.492996 120.0
176.868668 112.0
176.963959 256.0
176.998383 120.0
177.054718 448.0
177.194382 48.0
177.217789 236.0
177.310974 216.0
177.342026 180.0
177.397232 132.0
177.631805 104.0
177.706085 136.0
177.780304 132.0
178.035248 84.0
178.064392 4632.0
178.137665 192.0
178.199936 152.0
178.247986 192.0
178.279648 68.0
178.419998 60.0
178.550812 132.0
178.574753 60.0
178.601349 72.0
178.702438 140.0
178.742355 144.0
178.759979 96.0
178.860504 172.0
178.902054 204.0
178.992233 256.0
179.021866 124.0
179.072784 22524.0
179.162369 160.0
179.238098 92.0
179.293594 168.0
179.314911 128.0
179.339722 164.0
179.403595 192.0
179.470581 92.0
179.592209 52.0
179.662201 132.0
179.700516 80.0
179.749603 48.0
179.794968 108.0
179.819 332.0
179.838684 244.0
179.855057 188.0
179.893021 140.0
179.931107 164.0
179.955139 136.0
179.984207 344.0
180.081329 96000.0
180.166122 128.0
180.184769 316.0
180.202255 84.0
180.230408 64.0
180.257294 32.0
180.284622 260.0
180.322632 120.0
180.362167 52.0
180.386002 216.0
180.426605 60.0
180.451996 108.0
180.47818 100.0
180.495895 84.0
180.520676 724.0
180.547852 168.0
180.575867 112.0
180.620193 56.0
180.674759 108.0
180.73082 160.0
180.784943 140.0
180.816193 72.0
180.845322 120.0
180.886368 56.0
180.912766 124.0
180.950333 148.0
180.981857 40.0
181.002884 108.0
181.018875 180.0
181.050964 144.0
181.083969 16568.0
181.151367 68.0
181.192841 88.0
181.229172 168.0
181.25354 140.0
181.314026 72.0
181.340775 116.0
181.383713 172.0
181.434647 112.0
181.452423 108.0
181.478943 92.0
181.523132 36.0
181.612534 24.0
181.651871 72.0
181.673325 32.0
181.710892 56.0
181.78334 36.0
181.847748 52.0
181.906799 108.0
181.947067 252.0
182.027618 88.0
182.08519 836.0
182.150391 168.0
182.169968 68.0
182.206284 216.0
182.238235 108.0
182.259811 132.0
182.289597 148.0
182.297211 100.0
182.334305 124.0
182.355362 108.0
182.396271 292.0
182.425247 184.0
182.450211 84.0
182.500534 96.0
182.52063 224.0
182.562256 88.0
182.589279 76.0
182.621552 100.0
182.640381 200.0
182.715454 132.0
182.786942 84.0
182.839478 56.0
182.887924 108.0
182.955215 68.0
182.976761 48.0
183.078156 168.0
183.106003 36.0
183.178726 76.0
183.339584 160.0
183.396988 176.0
183.42395 156.0
183.445511 52.0
183.475174 76.0
183.512787 92.0
183.561447 56.0
183.631561 56.0
183.682816 148.0
183.750259 32.0
183.864365 168.0
184.033661 1832.0
184.063354 200.0
184.116486 172.0
184.176788 140.0
184.301056 48.0
184.371307 228.0
184.390228 152.0
184.438873 144.0
184.560532 156.0
184.606506 108.0
184.655182 108.0
184.735825 128.0
184.869888 148.0
184.969055 76.0
185.040024 1864.0
185.082764 48.0
185.115707 340.0
185.185669 164.0
185.261505 216.0
185.318405 40.0
185.340088 188.0
185.378021 240.0
185.421387 192.0
185.518967 64.0
185.613861 112.0
185.703354 156.0
185.760315 172.0
185.795578 208.0
186.040802 764.0
186.096832 144.0
186.129425 104.0
186.31955 48.0
186.343994 188.0
186.477142 96.0
186.538696 112.0
186.575012 48.0
186.640259 184.0
186.781372 180.0
186.844254 96.0
186.914993 176.0
187.007523 108.0
187.035324 304.0
187.195374 36.0
187.266693 208.0
187.505936 136.0
187.563171 196.0
187.655853 168.0
187.704941 144.0
187.794937 200.0
187.925873 144.0
188.094742 164.0
189.147476 76.0
189.300797 124.0
189.500748 124.0
189.654221 108.0
189.815964 164.0
190.010712 164.0
190.046371 144.0
190.071075 172.0
190.142426 120.0
190.403229 112.0
190.463654 36.0
190.644989 176.0
190.908905 96.0
190.983154 92.0
191.043671 200.0
191.074173 444.0
191.186752 160.0
191.245209 100.0
191.384949 120.0
191.478577 152.0
191.594269 204.0
191.698975 36.0
191.728165 128.0
191.773392 128.0
191.847809 236.0
192.004974 64.0
192.078491 348.0
192.164963 80.0
192.233948 172.0
192.399567 32.0
192.54039 144.0
192.71994 108.0
192.780731 128.0
192.849823 240.0
192.907867 144.0
193.086716 416.0
193.126312 144.0
193.469452 152.0
194.055481 412.0
194.096802 168.0
194.189896 124.0
194.22319 64.0
194.248154 68.0
194.406296 52.0
194.50621 184.0
194.789047 120.0
194.992279 116.0
195.026703 172.0
195.069153 208.0
195.097916 136.0
195.234161 40.0
195.28421 44.0
195.317596 128.0
195.403839 144.0
195.428879 228.0
195.556885 124.0
195.648743 148.0
195.787964 168.0
195.85202 48.0
195.909225 172.0
195.982574 116.0
196.029663 184.0
196.075943 648.0
196.122299 164.0
196.225449 84.0
196.91748 204.0
196.967758 100.0
197.033295 532.0
197.070328 324.0
197.311493 204.0
197.398163 244.0
197.51564 160.0
197.560394 132.0
197.689102 84.0
197.763931 152.0
197.831848 152.0
198.036194 3676.0
198.100677 160.0
198.146072 60.0
198.375305 144.0
198.476242 132.0
198.543533 72.0
198.572983 192.0
198.621338 168.0
198.725876 168.0
198.846375 144.0
198.885834 120.0
198.908295 152.0
198.944427 192.0
198.990799 144.0
199.044876 40220.0
199.115662 84.0
199.181839 56.0
199.211563 164.0
199.234039 88.0
199.262131 56.0
199.289856 172.0
199.377335 36.0
199.419495 80.0
199.453232 44.0
199.478531 60.0
199.518402 64.0
199.563965 144.0
199.591278 76.0
199.642166 60.0
199.67688 88.0
199.733047 128.0
199.825455 64.0
199.866638 84.0
199.890106 100.0
199.925735 132.0
199.951065 48.0
199.976395 204.0
200.0466 5632.0
200.139664 96.0
200.173462 96.0
200.20726 100.0
200.229782 28.0
200.286118 48.0
200.33963 32.0
200.36499 164.0
200.391022 100.0
200.482254 104.0
200.514053 40.0
200.560715 132.0
200.582291 36.0
200.722946 32.0
200.787811 64.0
200.852676 64.0
200.976807 64.0
201.042175 1464.0
201.09816 100.0
201.171555 84.0
201.25415 124.0
201.283188 148.0
201.332489 64.0
201.360733 44.0
201.424606 160.0
201.445465 108.0
201.473724 40.0
201.501968 76.0
201.550003 40.0
201.600876 140.0
201.637604 124.0
201.665878 56.0
201.761978 68.0
201.82135 64.0
201.866592 216.0
201.903366 88.0
201.991043 132.0
202.036301 248.0
202.118347 176.0
202.140991 100.0
202.230743 112.0
202.279678 96.0
202.426895 136.0
202.636505 208.0
202.815033 56.0
202.931259 84.0
202.993652 52.0
203.030518 160.0
203.122955 76.0
203.149643 76.0
203.1922 132.0
203.246109 192.0
203.305695 208.0
203.410706 136.0
203.453293 124.0
203.731598 124.0
203.862305 156.0
204.007263 180.0
204.081497 516.0
204.13237 60.0
204.812561 124.0
204.917969 88.0
205.089645 904.0
205.194427 32.0
205.482483 184.0
205.585205 172.0
205.619446 164.0
205.870682 124.0
206.022583 196.0
206.095612 8344.0
206.167786 88.0
206.191925 116.0
206.213516 48.0
206.287827 124.0
206.397385 104.0
206.530884 36.0
206.742599 48.0
206.868546 160.0
206.914352 136.0
206.937256 76.0
207.040344 128.0
207.103195 5628.0
207.166367 92.0
207.349396 64.0
207.387009 32.0
207.647919 76.0
207.76265 72.0
207.890488 152.0
208.003708 152.0
208.035278 216.0
208.108307 812.0
208.138641 176.0
208.173096 124.0
208.204697 128.0
208.474731 80.0
208.63858 76.0
208.67308 204.0
208.704697 64.0
209.101639 164.0
209.28125 116.0
209.314713 28.0
209.545135 136.0
209.945816 228.0
210.034744 1132.0
210.130417 108.0
210.266037 40.0
210.320877 148.0
210.364182 112.0
210.413254 48.0
210.580734 184.0
210.641403 52.0
210.668991 132.0
210.69339 80.0
210.751175 152.0
210.777191 68.0
210.971237 200.0
211.044983 2476.0
211.184814 100.0
211.254242 116.0
211.288956 36.0
211.327545 100.0
211.355499 160.0
211.406738 220.0
211.428284 184.0
211.507645 392.0
211.539963 92.0
211.569672 120.0
211.600357 248.0
211.725967 176.0
211.734512 172.0
211.774261 184.0
211.841431 144.0
211.860046 216.0
211.885345 88.0
211.907135 316.0
211.944901 260.0
211.969498 372.0
212.053009 61600.0
212.095032 176.0
212.121719 92.0
212.143265 40.0
212.166351 156.0
212.171661 96.0
212.182831 80.0
212.218643 140.0
212.284546 160.0
212.318695 104.0
212.349289 144.0
212.388916 84.0
212.407852 132.0
212.449753 76.0
212.482574 140.0
212.520737 40.0
212.555115 120.0
212.601547 60.0
212.624771 92.0
212.650894 52.0
212.711166 104.0
212.766998 48.0
212.8237 136.0
212.82991 72.0
212.840622 112.0
212.891861 92.0
212.93541 88.0
212.993652 220.0
213.055496 7220.0
213.100998 52.0
213.13295 60.0
213.156967 188.0
213.182358 108.0
213.224869 108.0
213.247574 96.0
213.297455 72.0
213.321869 56.0
213.35675 100.0
213.580673 76.0
213.609756 88.0
213.650482 88.0
213.812164 52.0
213.985168 116.0
214.048004 2900.0
214.18782 68.0
214.213776 96.0
214.263626 156.0
214.286224 120.0
214.319931 180.0
214.342285 92.0
214.394638 84.0
214.416565 84.0
214.445435 96.0
214.493317 112.0
214.541092 148.0
214.581177 108.0
214.649506 136.0
214.669388 112.0
214.698608 100.0
214.721481 172.0
214.740524 220.0
214.771988 136.0
214.99025 84.0
215.049896 168.0
215.166367 56.0
215.209747 80.0
215.247696 84.0
215.268143 56.0
215.31778 44.0
215.449234 52.0
215.566101 88.0
215.595322 76.0
215.633316 96.0
215.699081 88.0
215.987106 44.0
216.007584 116.0
216.060242 156.0
216.619385 80.0
216.657471 52.0
216.812759 28.0
217.264313 60.0
217.437439 76.0
217.94548 168.0
219.081131 100.0
219.915634 72.0
220.036652 32.0
220.240417 84.0
220.373352 128.0
221.18663 100.0
221.272476 96.0
222.042908 136.0
222.10817 104.0
222.268372 44.0
222.303986 60.0
222.568161 72.0
222.802811 44.0
223.048141 400.0
223.16243 96.0
223.733658 76.0
223.784271 56.0
223.921249 92.0
223.989761 44.0
224.053009 1152.0
224.517303 128.0
224.633636 40.0
224.672409 72.0
224.785797 120.0
224.806686 56.0
224.905167 60.0
224.97084 44.0
225.06044 1612.0
225.138046 128.0
225.239243 68.0
225.365067 60.0
225.499542 36.0
226.055573 240.0
226.109665 80.0
226.211441 68.0
226.957428 136.0
227.60556 76.0
228.032135 104.0
229.118423 228.0
229.154587 204.0
229.609756 64.0
229.715332 184.0
229.956711 68.0
230.219376 56.0
230.382477 72.0
231.883316 120.0
232.817734 52.0
233.681015 68.0
233.87883 128.0
235.937912 72.0
237.07962 84.0
237.616211 92.0
238.067261 1260.0
238.16571 136.0
238.362335 76.0
238.451462 100.0
239.075195 628.0
239.980209 136.0
240.083374 8940.0
240.124115 128.0
240.376221 40.0
240.403992 36.0
240.561401 88.0
240.678711 184.0
241.086121 1844.0
241.386337 48.0
241.955643 112.0
242.08313 576.0
242.132141 96.0
242.414062 84.0
242.857391 128.0
242.905472 112.0
243.084839 192.0
243.223526 128.0
243.552673 56.0
243.680038 132.0
245.01474 56.0
248.475662 84.0
248.78949 92.0
249.524643 156.0
251.746063 88.0
251.825012 128.0
251.916626 60.0
253.210312 128.0
253.742661 92.0
253.964645 56.0
254.993347 92.0
255.836288 156.0
259.609802 68.0
262.38147 48.0
263.368927 64.0
264.442413 84.0
264.53302 80.0
268.204437 148.0
268.650391 96.0
270.100769 108.0
270.552368 104.0
273.207336 160.0
278.157654 108.0
278.845215 216.0
279.330658 76.0
280.309509 100.0
281.396881 76.0
283.758942 156.0
284.037292 72.0
284.758942 60.0
285.074738 64.0
285.140106 1116.0
285.199097 236.0
285.249512 48.0
285.447876 160.0
285.565582 76.0
286.100616 112.0
286.14328 364.0
287.140656 272.0
287.23288 56.0
289.446564 76.0
296.642303 56.0
298.231567 84.0
299.043274 140.0
299.873352 56.0
301.067047 48.0
301.149933 80.0
304.207489 68.0
307.730713 44.0
309.808136 72.0
311.948792 80.0
312.849365 100.0
313.264893 100.0
318.347504 28.0
320.898773 92.0
321.71579 80.0
322.680389 72.0
323.506805 92.0
328.166504 64.0
330.250214 44.0
330.532379 44.0
332.278809 88.0
333.64798 60.0
334.044373 88.0
334.40097 96.0
336.029846 64.0
341.21228 84.0
343.38855 124.0
343.897705 88.0
350.267975 120.0
354.883423 52.0
355.014648 96.0
360.359802 60.0
369.343079 48.0
373.28186 76.0
377.779053 48.0
379.235016 64.0
379.801117 92.0
390.070923 164.0
392.937897 76.0
397.690521 56.0
398.92984 68.0
399.156464 44.0
403.590515 88.0
404.506683 68.0
409.673523 124.0
410.493134 28.0
410.565735 120.0
412.972839 64.0
422.495667 76.0
423.261047 80.0
426.103455 64.0
428.720459 32.0
432.641357 56.0
448.970093 96.0
451.588623 124.0
452.540771 80.0
454.095978 88.0
456.606018 48.0
457.248444 80.0
474.777679 76.0
479.346558 80.0
486.379211 48.0
486.576752 68.0
491.687286 56.0
495.476776 100.0
495.809113 84.0
502.425537 72.0
504.743622 68.0
510.402496 64.0
519.603027 144.0
520.406372 68.0
529.687073 104.0
535.377808 144.0
542.28479 52.0
547.972656 28.0
554.547668 104.0
557.189514 68.0
569.994202 76.0
571.725159 56.0
585.075073 60.0
586.97821 104.0
587.981628 64.0
602.305115 84.0
603.908325 84.0
607.032898 136.0
609.924622 52.0
613.957031 112.0
616.875061 100.0
618.255066 96.0
647.25116 72.0
663.7099 100.0
663.961182 64.0
664.161194 52.0
677.984131 40.0
678.144775 96.0
687.469788 36.0
701.263062 40.0
704.698425 72.0
720.42981 76.0
727.064026 64.0
736.599548 204.0
738.367004 112.0
742.624023 68.0
782.344971 172.0
792.151184 84.0
809.611938 200.0
811.107727 92.0
830.276917 120.0
831.917908 176.0
833.256042 72.0
835.619019 80.0
842.052185 68.0
848.347717 80.0
871.847351 84.0
879.804993 208.0
899.94989 44.0
907.243042 116.0
911.788086 100.0
923.779846 68.0
933.11322 208.0
944.144043 164.0
946.830688 96.0
952.484009 128.0
962.086182 88.0
967.4646 132.0
968.808411 132.0
974.802063 164.0
987.532654 76.0
996.471863 60.0
1013.540588 104.0
1013.887939 52.0
1018.843567 132.0
1019.752258 160.0
1035.056763 144.0
1036.991577 52.0
1039.319458 204.0
1043.950806 88.0
1044.356079 148.0
1044.471802 220.0
1045.662109 128.0
1048.573242 52.0
1059.169678 172.0
1060.595215 256.0
1065.026978 36.0
1070.262085 100.0
1073.879028 152.0
1076.11731 84.0
1081.615234 156.0
1082.643188 120.0
1083.357178 172.0
1089.175659 180.0
1091.785034 96.0
1092.936157 228.0
1098.114136 76.0
1099.994629 152.0
1102.332642 188.0
1102.947266 100.0
1103.086182 128.0
1105.004028 156.0
1109.8125 204.0
1112.711914 176.0
1113.615112 224.0
1115.62854 200.0
1118.189331 160.0
1118.628662 152.0
1118.988159 36.0
1119.787231 36.0
1129.20459 168.0
1132.189575 188.0
1139.171875 160.0
1139.460815 196.0
1140.273926 188.0
1145.13147 108.0
1145.320068 100.0
1146.283569 168.0
1146.809204 152.0
1151.890137 112.0
1154.62085 156.0
1158.208008 52.0
1163.6604 140.0
1163.777344 88.0
1178.734009 200.0
1180.230957 164.0
1182.967651 152.0
1189.129761 244.0
1189.932983 88.0
1191.169067 204.0
1191.457642 160.0
1193.065796 132.0
1193.560791 200.0
1198.46167 88.0
1198.606323 100.0
1199.798706 156.0
1206.640503 148.0
1206.937866 176.0
1209.234619 92.0
1211.200928 132.0
1214.375488 116.0
1216.436401 152.0
1216.637695 64.0
1216.908447 68.0
1223.798828 140.0
1224.947876 212.0
1226.501831 220.0
1228.6427 144.0
1230.680664 116.0
1231.812012 184.0
1233.936523 40.0
1234.572876 76.0
1235.510132 120.0
1237.00769 184.0
1239.984497 64.0
1242.684326 172.0
1246.918701 176.0
1248.78894 136.0
1255.0354 104.0
1256.050903 212.0
1260.498779 204.0
1260.689575 172.0
1260.788574 112.0
1265.591675 136.0
1268.120728 92.0
1280.212646 104.0
1282.991577 136.0
1285.138306 136.0
1285.673462 176.0
1286.815552 144.0
1286.994141 156.0
1289.251343 176.0
1289.637329 184.0
1289.844604 136.0
1290.616699 180.0
1296.973999 200.0
1297.778809 120.0
1300.474243 208.0
1300.574707 180.0
1301.651611 168.0
1302.542236 180.0
1303.052246 164.0
1304.424927 136.0
1307.640137 204.0
1308.079224 176.0
1309.843384 224.0
1314.428711 120.0
1316.03833 112.0
1316.110596 140.0
1319.665527 144.0
1322.385498 112.0
1323.616211 108.0
1324.246216 92.0
1328.831299 232.0
1329.625854 112.0
1334.420166 144.0
1334.645508 200.0
1335.969238 176.0
1338.210815 152.0
1338.560303 184.0
1341.831909 236.0
1342.028687 172.0
1342.64856 160.0
1342.801758 160.0
1344.10022 72.0
1344.96875 64.0
1348.540405 152.0
1356.071899 172.0
1356.746216 188.0
1360.318848 172.0
1360.590576 204.0
1362.184082 168.0
1362.367798 152.0
1362.617554 248.0
1363.807983 176.0
1366.028687 136.0
1366.418579 144.0
1367.198608 152.0
1367.500366 124.0
1370.836548 136.0
1371.138672 140.0
1371.713623 184.0
1371.802002 124.0
1372.959595 172.0
1374.191528 176.0
1374.848267 148.0
1377.912598 204.0
1378.067749 208.0
1379.021118 132.0
1380.462769 112.0
1382.430542 116.0
1384.244141 180.0
1384.747681 160.0
1387.682251 144.0
1390.05481 120.0
1394.994873 124.0
1395.879639 148.0
1397.389648 64.0
1398.237915 212.0
1398.438843 132.0
1398.967896 268.0
1399.466187 168.0
1399.607666 172.0
1400.2854 116.0
1400.464111 164.0
1400.590698 252.0
1402.736816 124.0
1403.952148 100.0
1404.862061 172.0
1406.138062 212.0
1407.474243 232.0
1407.847656 132.0
1411.71875 108.0
1412.204834 144.0
1413.880737 176.0
1415.355469 136.0
1417.595215 32.0
1418.554565 144.0
1418.959473 184.0
1419.214355 152.0
1419.566772 88.0
1422.170166 200.0
1425.286743 96.0
1425.67749 168.0
1425.963135 172.0
1426.083374 212.0
1428.467041 196.0
1432.102661 80.0
1432.434082 156.0
1433.225098 152.0
1433.2854 84.0
1433.519043 124.0
1434.378174 92.0
1434.506348 116.0
1434.619385 164.0
1435.539307 160.0
1435.720337 124.0
1437.047852 220.0
1437.923218 60.0
1438.557251 200.0
1440.754883 160.0
1441.064697 172.0
1443.18103 180.0
1443.354858 136.0
1444.421265 228.0
1445.631836 184.0
1445.760498 144.0
1446.055664 88.0
1446.873169 228.0
1447.356201 160.0
1448.145264 212.0
1448.342285 160.0
1451.267578 208.0
1452.215454 56.0
1453.171265 116.0
1454.157837 200.0
1454.598022 152.0
1455.144653 124.0
1455.72168 140.0
1457.164917 156.0
1458.236328 196.0
1459.429932 64.0
1462.176025 192.0
1463.371216 60.0
1463.447266 196.0
1463.980347 144.0
1465.701904 60.0
1465.900024 196.0
1466.075317 192.0
1467.256836 104.0
1468.141357 100.0
1468.537842 96.0
1469.499023 120.0
1469.911133 148.0
1470.651367 216.0
1471.872925 120.0
1472.468506 172.0
1473.369873 112.0
1473.99646 148.0
1479.380859 208.0
1480.583008 224.0
1482.145752 128.0
1483.571289 208.0
1484.698486 116.0
1484.989868 160.0
1486.370728 144.0
1487.836792 176.0
1489.10376 244.0
1490.671021 192.0
1490.986084 68.0
1491.57019 164.0
1492.838867 128.0
1493.292603 148.0
1494.284912 108.0
1494.42334 180.0
1496.763306 156.0
1498.165039 140.0
1499.906616 176.0
1501.325317 88.0
1501.92688 196.0
1502.065674 164.0
1502.158325 120.0
1504.434814 44.0
1504.635498 176.0
1504.944336 200.0
