>compound MLS001332513-01!Rufinamide
>formula C10H8F2N4O
>ionization [M+H]+
>parentmass 239.074
#inchi InChI=1S/C10H8F2N4O/c11-7-2-1-3-8(12)6(7)4-16-5-9(10(13)17)14-15-16/h1-3,5H,4H2,(H2,13,17)
#inchikey POGQSBRIGCQNEG
#Ion_Source LC-ESI
#Instrument qTof
#Compound_Source NIH Pharmacologically Active Library
#PI Dorrestein
#Data_Collector VP/LMS
#Scan -1
#Precursor_MZ 239.074
#ExactMass 238.067
#Charge 1
#CAS_Number N/A
#Pubmed_ID N/A
#Smiles NC(=O)c1cn(Cc2c(F)cccc2F)nn1
#INCHI_AUX N/A
#Library_Class 1
#SpectrumID CCMSLIB00000084973
#IonMode Positive
#UpdateWorkflowName UPDATE-SINGLE-ANNOTATED-GOLD
#LibraryQualityString Gold
#TaskID d252d724072548979f1f6f1ced849daf
##Scan# 1466
#SpectrumFile p3-D04_GD4_01_18261.mzXML
#LibraryName Pharm_Active_Library.mgf
#MQScore -1
#Organism Pharm_Active_Library
#TIC_Query 0
#RT_Query -1
#MZErrorPPM -1
#SharedPeaks 0
#MassDiff 0
#LibMZ -1
#SpecMZ 239.074
#SpecCharge 0
#internalFilename spec-00000.mgf

>collision 10
45.073727 208.0
45.232887 196.0
46.097736 184.0
46.873974 56.0
47.174252 180.0
47.30558 180.0
47.598995 212.0
48.126392 124.0
48.477757 40.0
49.938175 56.0
51.587391 152.0
51.618843 200.0
51.637436 168.0
51.657463 80.0
52.327694 200.0
53.646118 256.0
54.583187 96.0
55.497227 88.0
56.102356 72.0
56.138142 228.0
56.949337 56.0
58.668434 56.0
59.339619 124.0
59.874382 172.0
60.64072 128.0
60.887417 212.0
61.218674 48.0
61.904247 184.0
62.729134 196.0
63.769115 212.0
64.62709 208.0
64.796814 184.0
65.249413 72.0
66.689796 184.0
66.875221 176.0
69.496132 204.0
70.698036 48.0
70.741554 148.0
70.796806 184.0
72.415359 52.0
73.670738 88.0
74.367683 220.0
74.594421 100.0
75.114479 76.0
76.704651 152.0
76.8843 132.0
77.592743 176.0
77.952576 132.0
78.103775 180.0
78.228714 184.0
78.558258 148.0
79.668259 192.0
79.857918 156.0
80.255592 76.0
80.580444 184.0
80.600098 184.0
82.145958 184.0
82.205498 84.0
82.644608 132.0
82.794853 204.0
83.999947 212.0
86.125641 232.0
87.018257 120.0
87.166855 52.0
88.00695 244.0
88.077911 196.0
89.623825 80.0
89.746346 204.0
90.210793 148.0
90.534348 208.0
91.739006 124.0
93.210861 164.0
93.562851 100.0
94.193459 192.0
95.204506 128.0
96.342033 56.0
97.425415 20.0
98.053116 220.0
98.479286 76.0
99.050941 156.0
99.419724 164.0
99.622253 148.0
100.037888 148.0
100.231079 112.0
100.264954 180.0
100.827766 216.0
100.901726 200.0
100.931717 52.0
101.020081 1344.0
101.538506 224.0
102.48333 148.0
103.173592 80.0
103.81749 44.0
104.587517 200.0
105.266434 168.0
106.066406 192.0
107.029358 996.0
107.438049 144.0
107.846916 140.0
108.92234 196.0
109.042717 424.0
109.436028 152.0
109.583908 188.0
109.763161 76.0
110.446098 132.0
113.465996 136.0
114.500847 180.0
114.803474 208.0
115.861526 168.0
116.161659 132.0
116.284935 168.0
119.060471 152.0
120.382378 152.0
120.598671 76.0
120.928947 120.0
121.031837 208.0
121.966438 216.0
123.406021 128.0
123.452454 152.0
123.970482 148.0
124.074654 248.0
124.907433 100.0
125.201233 128.0
125.841217 156.0
126.031067 188.0
126.40226 108.0
126.781158 224.0
126.879341 172.0
126.962311 188.0
127.000923 92.0
127.03553 16064.0
127.076706 96.0
127.094208 100.0
127.144028 48.0
127.173203 140.0
127.212196 140.0
127.263 44.0
127.332619 76.0
127.391022 40.0
127.417976 56.0
127.465164 92.0
127.591034 64.0
127.70797 64.0
127.926239 80.0
128.037598 1064.0
128.390396 104.0
128.512207 64.0
128.649887 140.0
128.794403 96.0
128.997086 128.0
129.013596 128.0
129.045258 132.0
129.208099 96.0
129.543152 100.0
131.031204 104.0
131.222656 80.0
131.252289 68.0
131.576294 92.0
135.037033 228.0
135.233704 136.0
136.054962 188.0
136.107697 152.0
137.737976 96.0
138.03479 128.0
139.03511 40.0
139.966019 248.0
140.034317 276.0
141.018188 56.0
141.79213 88.0
142.047134 164.0
146.037354 120.0
147.037231 180.0
148.056381 440.0
156.035492 168.0
156.065475 384.0
163.06691 148.0
165.902863 184.0
166.044083 328.0
167.053848 168.0
168.063293 180.0
169.991089 148.0
178.925949 132.0
202.081726 84.0
223.046814 124.0
291.027527 28.0
334.544159 128.0
688.241272 152.0
699.123779 152.0
705.632935 204.0
714.846497 120.0
744.202393 140.0
762.425903 84.0
831.292053 160.0
838.503784 56.0
853.625305 184.0
855.510437 180.0
869.187134 188.0
907.956787 204.0
923.598694 124.0
929.487488 180.0
938.154541 56.0
959.218201 48.0
992.418091 228.0
995.70636 180.0
1028.326172 200.0
1060.784546 128.0
1079.778198 160.0
1082.539917 172.0
1088.77002 144.0
1107.633911 156.0
1112.594238 116.0
1127.695435 160.0
1132.466064 220.0
1153.250366 224.0
1164.918945 204.0
1169.284302 224.0
1199.256714 108.0
1203.609863 164.0
1203.775513 268.0
1204.770142 156.0
1222.812988 84.0
1228.847778 180.0
1244.273438 124.0
1248.221313 168.0
1248.953613 148.0
1250.966187 180.0
1253.276245 156.0
1253.811768 140.0
1262.092285 200.0
1262.615601 124.0
1266.905029 52.0
1291.413818 144.0
1308.636963 164.0
1309.033081 156.0
1313.689087 220.0
1324.619263 148.0
1334.874756 148.0
1343.848755 144.0
1346.096924 140.0
1357.556763 188.0
1366.974487 184.0
1368.652832 236.0
1370.10376 172.0
1383.966919 152.0
1385.803833 144.0
1389.27356 148.0
1394.203857 136.0
1396.739258 180.0
1398.205078 164.0
1400.535522 144.0
1403.173584 176.0
1405.903687 224.0
1407.456299 128.0
1418.926514 152.0
1425.569458 164.0
1435.453491 136.0
1435.596802 100.0
1437.573364 176.0
1450.885742 160.0
1453.677002 112.0
1453.775635 164.0
1456.106323 140.0
1460.119263 192.0
1460.788574 212.0
1461.085327 216.0
1465.798462 116.0
1467.757446 172.0
1475.041016 156.0
1496.268188 204.0
1498.347656 232.0
1498.486328 132.0
1499.542114 108.0
1500.536499 160.0
