>compound MLS001074199-01!4'-CHLORODIAZEPAM
>formula C16H12Cl2N2O
>ionization [M+H]+
>parentmass 319.039703
#inchi InChI=1S/C16H12Cl2N2O/c1-20-14-7-6-12(18)8-13(14)16(19-9-15(20)21)10-2-4-11(17)5-3-10/h2-8H,9H2,1H3
#inchikey PUMYFTJOWAJIKF
#Ion_Source LC-ESI
#Instrument qTof
#Compound_Source NIH Pharmacologically Active Library
#PI Dorrestein
#Data_Collector VP/LMS
#Scan -1
#Precursor_MZ 319.041
#ExactMass 318.033
#Charge 1
#CAS_Number N/A
#Pubmed_ID N/A
#Smiles CN1C(=O)CN=C(c2ccc(Cl)cc2)c3cc(Cl)ccc13
#INCHI_AUX N/A
#Library_Class 1
#SpectrumID CCMSLIB00000085039
#IonMode Positive
#UpdateWorkflowName UPDATE-SINGLE-ANNOTATED-GOLD
#LibraryQualityString Gold
#TaskID d252d724072548979f1f6f1ced849daf
##Scan# 2320
#SpectrumFile p3-E02_GE2_01_18271.mzXML
#LibraryName Pharm_Active_Library.mgf
#MQScore -1
#Organism Pharm_Active_Library
#TIC_Query 0
#RT_Query -1
#MZErrorPPM -1
#SharedPeaks 0
#MassDiff 0
#LibMZ -1
#SpecMZ 319.041
#SpecCharge 0
#internalFilename spec-00000.mgf

>collision 10
44.914524 552.0
44.977242 220.0
44.986588 192.0
45.064053 104.0
45.085434 216.0
45.150944 128.0
45.189739 152.0
45.244614 180.0
45.258003 120.0
45.275414 328.0
45.311581 132.0
45.323639 112.0
45.343742 108.0
45.447006 132.0
45.48563 144.0
45.510094 176.0
45.519493 120.0
45.539639 64.0
45.555759 156.0
45.57188 96.0
45.595554 228.0
45.603943 56.0
45.607597 132.0
45.632366 140.0
45.645813 232.0
45.665989 128.0
45.675404 84.0
45.692005 164.0
45.710384 156.0
45.726948 196.0
45.741344 412.0
45.795204 288.0
45.811371 88.0
45.824844 132.0
45.843239 184.0
45.906075 184.0
45.959682 136.0
46.003799 88.0
46.02393 188.0
46.028622 112.0
46.031807 196.0
46.046085 152.0
46.061771 176.0
46.074451 128.0
46.092018 92.0
46.104179 124.0
46.132565 200.0
46.149529 132.0
46.167721 172.0
46.210415 136.0
46.247551 88.0
46.278687 208.0
46.301708 128.0
46.327446 96.0
46.345062 244.0
46.368099 144.0
46.407413 120.0
46.428745 164.0
46.453526 120.0
46.509163 176.0
46.525455 116.0
46.537674 96.0
46.55397 164.0
46.568909 112.0
46.591545 172.0
46.603588 160.0
46.61459 264.0
46.661167 144.0
46.665356 128.0
46.692822 120.0
46.723785 164.0
46.748379 264.0
46.807312 192.0
46.873665 184.0
46.911831 192.0
46.922737 156.0
46.955463 180.0
46.980118 248.0
46.989567 244.0
47.016861 120.0
47.046978 128.0
47.070103 120.0
47.090591 152.0
47.168476 92.0
47.237797 220.0
47.26656 148.0
47.298431 220.0
47.31897 200.0
47.342247 208.0
47.473812 124.0
47.510849 128.0
47.523197 100.0
47.546528 108.0
47.565742 208.0
47.580803 236.0
47.60556 176.0
47.61882 220.0
47.670128 228.0
47.69487 100.0
47.734741 76.0
47.769127 180.0
47.81591 216.0
47.847572 180.0
47.894672 160.0
47.915062 192.0
47.949192 208.0
48.019829 132.0
48.066738 140.0
48.127476 144.0
48.167152 236.0
48.170773 172.0
48.190926 124.0
48.227837 124.0
48.2463 68.0
48.26704 56.0
48.296085 152.0
48.323753 224.0
48.338974 172.0
48.354683 164.0
48.419273 88.0
48.435894 192.0
48.466373 240.0
48.481617 188.0
48.492706 108.0
48.509338 144.0
48.52459 112.0
48.573132 164.0
48.592552 144.0
48.610592 168.0
48.627247 184.0
48.637493 136.0
48.646683 172.0
48.661304 180.0
48.673061 156.0
48.705666 160.0
48.727234 104.0
48.748077 160.0
48.760586 168.0
48.856533 152.0
48.866272 152.0
48.88158 120.0
48.972076 128.0
48.986916 172.0
49.012478 136.0
49.079388 128.0
49.122623 156.0
49.215118 148.0
49.312534 184.0
49.328983 156.0
49.395035 72.0
49.467804 112.0
49.483204 144.0
49.516811 280.0
49.578712 200.0
49.599483 128.0
49.660313 348.0
49.682224 164.0
49.721516 228.0
49.755207 184.0
49.784695 140.0
49.801548 208.0
49.826836 128.0
49.852127 272.0
49.898376 200.0
49.946331 200.0
49.991356 152.0
50.001205 124.0
50.047134 128.0
50.144871 108.0
50.181522 136.0
50.195595 204.0
50.228809 144.0
50.247814 152.0
50.321209 164.0
50.331093 152.0
50.342522 172.0
50.357861 172.0
50.377705 232.0
50.399273 180.0
50.461628 232.0
50.489372 156.0
50.506344 180.0
50.519077 132.0
50.538883 84.0
50.564358 112.0
50.587006 132.0
50.628071 64.0
50.657814 180.0
50.671982 116.0
50.698906 148.0
50.71875 128.0
50.764122 116.0
50.785397 120.0
50.812351 176.0
50.854923 40.0
50.867699 192.0
50.904613 156.0
50.937283 156.0
50.979908 216.0
50.996964 296.0
51.006916 136.0
51.03677 120.0
51.046726 212.0
51.060947 192.0
51.105606 204.0
51.119278 104.0
51.130665 144.0
51.170521 40.0
51.188801 192.0
51.254562 176.0
51.288769 216.0
51.303024 140.0
51.315243 224.0
51.340309 160.0
51.361492 172.0
51.372292 196.0
51.383415 348.0
51.402866 188.0
51.421421 112.0
51.434269 84.0
51.472816 300.0
51.514278 152.0
51.551388 108.0
51.584263 156.0
51.604279 100.0
51.662075 144.0
51.672932 160.0
51.701553 180.0
51.715866 216.0
51.735905 156.0
51.79319 188.0
51.820156 204.0
51.839039 172.0
51.856236 172.0
51.872005 140.0
51.940838 244.0
51.958054 124.0
51.98101 224.0
52.024071 168.0
52.04417 184.0
52.115993 172.0
52.143295 76.0
52.154797 100.0
52.18211 128.0
52.195053 196.0
52.213749 120.0
52.243954 132.0
52.308853 188.0
52.323112 188.0
52.346149 164.0
52.357674 132.0
52.376396 296.0
52.45998 124.0
52.474396 136.0
52.501797 192.0
52.516216 196.0
52.552574 80.0
52.598469 116.0
52.612183 224.0
52.628788 172.0
52.680782 220.0
52.708233 176.0
52.723408 168.0
52.773281 144.0
52.807259 152.0
52.836922 164.0
52.881783 104.0
52.896259 148.0
52.956909 172.0
52.977356 148.0
53.032497 152.0
53.057068 64.0
53.109272 160.0
53.123779 176.0
53.146996 180.0
53.177608 180.0
53.223164 160.0
53.242805 120.0
53.258785 128.0
53.271858 176.0
53.284931 124.0
53.312542 148.0
53.331436 96.0
53.357262 152.0
53.372143 220.0
53.433235 44.0
53.468159 60.0
53.511131 224.0
53.543343 188.0
53.558434 144.0
53.583202 256.0
53.679405 156.0
53.696907 148.0
53.731918 164.0
53.752346 184.0
53.803432 152.0
53.877918 156.0
53.975849 156.0
53.990471 144.0
54.008022 124.0
54.043221 140.0
54.085579 136.0
54.144146 172.0
54.200439 92.0
54.28484 76.0
54.336845 88.0
54.350853 212.0
54.364059 152.0
54.37727 92.0
54.393414 156.0
54.406628 288.0
54.435699 240.0
54.570347 204.0
54.602066 92.0
54.618244 184.0
54.64661 352.0
54.713902 132.0
54.731571 132.0
54.747768 84.0
54.763573 104.0
54.806694 184.0
54.828281 228.0
54.878922 84.0
54.893669 144.0
54.915791 128.0
54.951195 180.0
54.973331 40.0
54.988091 148.0
54.999897 144.0
55.047142 160.0
55.066341 112.0
55.084068 160.0
55.100887 240.0
55.137264 224.0
55.165348 116.0
55.180134 140.0
55.190483 124.0
55.200832 180.0
55.305824 216.0
55.386562 140.0
55.419918 128.0
55.461414 160.0
55.476238 184.0
55.497379 184.0
55.51479 96.0
55.529621 192.0
55.542969 132.0
55.554836 188.0
55.605289 164.0
55.620132 128.0
55.639431 208.0
55.655766 176.0
55.673771 160.0
55.717319 208.0
55.756203 276.0
55.759083 168.0
55.764454 200.0
55.775177 192.0
55.779739 72.0
55.785809 152.0
55.808815 48.0
55.854919 204.0
55.881699 168.0
55.926346 164.0
55.942719 84.0
55.969921 148.0
56.012711 160.0
56.064861 168.0
56.151337 228.0
56.16518 212.0
56.197582 144.0
56.278294 108.0
56.293579 168.0
56.308052 172.0
56.338459 196.0
56.348385 300.0
56.3708 64.0
56.402187 164.0
56.418633 212.0
56.446533 200.0
56.518845 124.0
56.52932 128.0
56.569733 172.0
56.584702 144.0
56.603275 168.0
56.644695 204.0
56.66708 124.0
56.686562 144.0
56.709042 108.0
56.734344 132.0
56.772011 224.0
56.877041 168.0
56.902561 204.0
56.947617 196.0
56.961136 228.0
56.97916 228.0
57.004795 136.0
57.015129 184.0
57.045288 188.0
57.065636 160.0
57.185184 272.0
57.212002 196.0
57.237877 144.0
57.250816 304.0
57.264984 140.0
57.277035 112.0
57.308674 128.0
57.354641 88.0
57.370468 172.0
57.402683 204.0
57.432297 172.0
57.456917 188.0
57.498688 176.0
57.568134 136.0
57.605896 132.0
57.643669 108.0
57.676918 152.0
57.708668 84.0
57.723789 96.0
57.811764 184.0
57.835751 92.0
57.859707 320.0
57.885712 176.0
57.940243 160.0
57.960648 60.0
57.991764 132.0
58.026634 148.0
58.076679 136.0
58.132816 176.0
58.204235 256.0
58.220867 28.0
58.254284 188.0
58.283154 204.0
58.295311 112.0
58.327229 156.0
58.354591 196.0
58.383484 104.0
58.397175 92.0
58.410866 144.0
58.448902 148.0
58.473251 144.0
58.502171 56.0
58.534145 120.0
58.556992 212.0
58.577522 92.0
58.715504 128.0
58.735962 184.0
58.776524 208.0
58.839104 68.0
58.858955 92.0
58.871174 56.0
58.887974 304.0
58.916344 224.0
58.938389 164.0
58.970482 188.0
59.003025 208.0
59.013798 152.0
59.033165 64.0
59.129551 156.0
59.199974 180.0
59.226013 260.0
59.278107 192.0
59.310291 156.0
59.342487 132.0
59.39463 88.0
59.44408 156.0
59.477493 212.0
59.597286 148.0
59.624947 300.0
59.6726 124.0
59.723351 124.0
59.747963 132.0
59.771046 176.0
59.783356 160.0
59.815678 132.0
59.84185 152.0
59.86187 176.0
59.900375 212.0
59.915783 168.0
59.952763 176.0
59.963551 156.0
59.99284 112.0
60.02269 156.0
60.045269 184.0
60.074577 188.0
60.096256 152.0
60.176437 132.0
60.222767 160.0
60.236671 108.0
60.259846 228.0
60.297588 160.0
60.332939 204.0
60.403625 88.0
60.414452 144.0
60.447605 172.0
60.462421 160.0
60.579906 220.0
60.691696 204.0
60.705654 156.0
60.741116 176.0
60.769253 232.0
60.797184 132.0
60.836315 96.0
60.841278 148.0
60.907425 108.0
60.993179 172.0
61.051975 168.0
61.104862 60.0
61.196693 152.0
61.214054 136.0
61.242428 164.0
61.28326 120.0
61.310413 124.0
61.346264 140.0
61.458412 168.0
61.462708 152.0
61.497578 112.0
61.556904 80.0
61.591267 148.0
61.614697 48.0
61.63501 172.0
61.653763 84.0
61.670105 144.0
61.722549 104.0
61.744442 172.0
61.793236 208.0
61.827362 220.0
61.844582 132.0
61.871838 68.0
61.961987 144.0
62.030987 172.0
62.056072 180.0
62.082767 164.0
62.099983 48.0
62.117237 208.0
62.14222 208.0
62.167446 156.0
62.18058 120.0
62.193096 208.0
62.227127 200.0
62.27578 196.0
62.288345 168.0
62.316628 128.0
62.349957 76.0
62.363907 140.0
62.388924 208.0
62.409363 176.0
62.42345 192.0
62.444572 188.0
62.514759 56.0
62.544525 172.0
62.568069 152.0
62.636833 256.0
62.676716 260.0
62.730549 148.0
62.74316 364.0
62.760502 116.0
62.774696 204.0
62.904076 172.0
62.916706 48.0
62.932495 144.0
62.960072 164.0
62.98777 176.0
63.025688 128.0
63.036751 116.0
63.054134 136.0
63.076263 116.0
63.095234 172.0
63.155331 272.0
63.165707 184.0
63.177475 64.0
63.202789 180.0
63.246513 236.0
63.270973 156.0
63.291435 176.0
63.318356 104.0
63.340534 76.0
63.391235 232.0
63.41943 152.0
63.465923 136.0
63.482327 200.0
63.520912 132.0
63.557739 84.0
63.579956 180.0
63.614876 148.0
63.638691 76.0
63.702221 192.0
63.714931 80.0
63.745121 124.0
63.802341 124.0
63.827171 208.0
63.948692 164.0
64.006004 128.0
64.02034 128.0
64.051323 156.0
64.077682 388.0
64.088837 68.0
64.125488 132.0
64.187668 140.0
64.228416 108.0
64.266678 136.0
64.27935 136.0
64.29615 244.0
64.30732 180.0
64.412712 32.0
64.442558 176.0
64.459045 84.0
64.510483 88.0
64.550644 212.0
64.592453 328.0
64.625343 204.0
64.636551 156.0
64.700569 196.0
64.735802 144.0
64.755783 128.0
64.849548 204.0
64.870392 92.0
64.883217 112.0
64.952171 184.0
64.991631 260.0
65.014748 128.0
65.093414 248.0
65.154449 160.0
65.207481 128.0
65.22998 200.0
65.282463 156.0
65.297516 224.0
65.316818 128.0
65.343422 240.0
65.369919 180.0
65.405327 288.0
65.419815 188.0
65.442352 132.0
65.496948 120.0
65.51049 156.0
65.537384 152.0
65.568008 180.0
65.617981 156.0
65.65023 204.0
65.663132 116.0
65.687325 292.0
65.724434 124.0
65.761734 144.0
65.78965 164.0
65.825264 140.0
65.843895 164.0
65.878212 196.0
65.891998 216.0
65.908516 200.0
65.932755 144.0
65.955383 40.0
65.986099 180.0
66.003845 152.0
66.008575 80.0
66.057259 120.0
66.076332 152.0
66.100945 152.0
66.112274 176.0
66.192207 32.0
66.211548 176.0
66.280693 156.0
66.305 40.0
66.33226 132.0
66.354446 176.0
66.40715 128.0
66.436348 96.0
66.459061 264.0
66.491516 80.0
66.533722 132.0
66.675049 100.0
66.738747 196.0
66.745766 128.0
66.770973 116.0
66.828186 188.0
66.847435 200.0
66.871849 188.0
66.89138 96.0
66.928452 164.0
66.949997 104.0
67.002121 144.0
67.024933 160.0
67.075455 264.0
67.121109 216.0
67.132523 164.0
67.164619 136.0
67.221954 112.0
67.234413 168.0
67.252357 172.0
67.274483 172.0
67.304596 180.0
67.343063 204.0
67.356133 124.0
67.370834 196.0
67.423126 176.0
67.534668 72.0
67.647217 156.0
67.708969 336.0
67.729095 88.0
67.828522 112.0
67.850365 72.0
67.86676 184.0
67.892998 220.0
67.90612 148.0
67.937286 180.0
67.989792 116.0
68.032471 168.0
68.085014 128.0
68.111298 80.0
68.19017 120.0
68.221397 184.0
68.283882 108.0
68.300331 156.0
68.346397 148.0
68.367195 168.0
68.397667 196.0
68.430046 152.0
68.443153 144.0
68.461632 164.0
68.476456 116.0
68.487984 152.0
68.524231 136.0
68.540703 112.0
68.557182 120.0
68.590149 92.0
68.610558 168.0
68.665581 144.0
68.69899 152.0
68.710541 184.0
68.731987 56.0
68.761696 176.0
68.774895 108.0
68.809563 164.0
68.834976 124.0
68.863739 204.0
68.892143 44.0
68.907013 152.0
68.968163 132.0
69.002876 132.0
69.049179 132.0
69.14183 116.0
69.174934 32.0
69.198112 52.0
69.215599 188.0
69.232887 128.0
69.279266 180.0
69.319595 200.0
69.380798 136.0
69.415184 184.0
69.450562 156.0
69.479874 128.0
69.491486 96.0
69.514717 220.0
69.527992 144.0
69.548599 192.0
69.579453 176.0
69.597595 56.0
69.622627 128.0
69.707268 152.0
69.745575 116.0
69.772179 120.0
69.795456 64.0
69.816864 160.0
69.855331 160.0
69.866974 188.0
69.880287 120.0
69.93853 212.0
69.968498 192.0
69.983482 220.0
70.008461 216.0
70.081436 144.0
70.118462 164.0
70.15509 188.0
70.165604 136.0
70.264259 184.0
70.293533 176.0
70.331917 144.0
70.345276 216.0
70.401276 52.0
70.461731 300.0
70.495598 60.0
70.557442 160.0
70.610954 160.0
70.637718 152.0
70.697472 152.0
70.728081 84.0
70.813477 204.0
70.825134 192.0
70.848656 148.0
70.885521 144.0
70.911324 140.0
70.932449 132.0
70.949211 148.0
71.029709 164.0
71.096054 188.0
71.111931 144.0
71.214348 172.0
71.263588 116.0
71.270554 176.0
71.313286 168.0
71.353828 192.0
71.365601 68.0
71.383369 172.0
71.412689 160.0
71.424896 172.0
71.461479 136.0
71.476624 104.0
71.495132 140.0
71.523743 124.0
71.548996 204.0
71.590675 192.0
71.611305 236.0
71.632324 192.0
71.661842 84.0
71.687119 64.0
71.725883 72.0
71.741058 192.0
71.75222 176.0
71.778511 112.0
71.811882 136.0
71.823685 172.0
71.85743 116.0
71.875992 132.0
71.892868 116.0
72.007668 132.0
72.05835 60.0
72.168213 172.0
72.179497 156.0
72.207008 136.0
72.235504 112.0
72.306931 152.0
72.354332 232.0
72.383118 124.0
72.405128 120.0
72.418678 68.0
72.432228 176.0
72.491531 208.0
72.522041 144.0
72.555984 164.0
72.616989 144.0
72.662796 136.0
72.676369 108.0
72.70182 136.0
72.713699 48.0
72.725586 160.0
72.768028 168.0
72.837654 124.0
72.892021 108.0
72.956612 156.0
73.013664 152.0
73.11821 104.0
73.13295 284.0
73.170982 88.0
73.238991 184.0
73.271652 148.0
73.307899 240.0
73.33963 200.0
73.358383 196.0
73.400566 124.0
73.428444 184.0
73.449699 236.0
73.482887 308.0
73.566513 180.0
73.607491 312.0
73.643356 60.0
73.656624 132.0
73.700432 156.0
73.725067 216.0
73.747581 96.0
73.771515 64.0
73.80571 148.0
73.837425 148.0
73.878082 332.0
73.947662 164.0
74.000771 108.0
74.031593 116.0
74.082985 132.0
74.135323 144.0
74.176941 188.0
74.181374 300.0
74.213242 180.0
74.274979 168.0
74.288704 96.0
74.309288 152.0
74.324738 220.0
74.338463 136.0
74.39167 148.0
74.422577 200.0
74.480965 124.0
74.508629 160.0
74.541763 208.0
74.599541 144.0
74.619728 188.0
74.797371 140.0
74.853821 76.0
74.91964 100.0
74.942383 200.0
74.998909 380.0
75.07132 188.0
75.12957 156.0
75.2715 136.0
75.328499 48.0
75.3535 212.0
75.369965 120.0
75.38546 124.0
75.511726 168.0
75.529022 168.0
75.54113 128.0
75.563622 128.0
75.59304 156.0
75.612076 144.0
75.632843 52.0
75.648422 72.0
75.677856 68.0
75.695801 44.0
75.738472 84.0
75.832008 232.0
75.910011 148.0
75.932602 172.0
75.965561 156.0
75.977707 148.0
76.001991 172.0
76.043648 188.0
76.089104 128.0
76.102669 40.0
76.172142 180.0
76.19899 188.0
76.213837 176.0
76.246857 164.0
76.259026 108.0
76.299004 244.0
76.349434 164.0
76.392914 176.0
76.424232 212.0
76.448593 112.0
76.469482 60.0
76.493851 136.0
76.507584 144.0
76.560013 172.0
76.615753 124.0
76.649864 108.0
76.676743 68.0
76.692429 76.0
76.760284 200.0
76.781357 124.0
76.826706 192.0
76.86908 168.0
76.945847 196.0
76.960724 244.0
76.983803 184.0
77.044937 80.0
77.06765 120.0
77.231033 176.0
77.245323 120.0
77.293221 184.0
77.384705 120.0
77.415756 24.0
77.455925 120.0
77.496338 216.0
77.51561 368.0
77.556358 276.0
77.580467 88.0
77.619041 168.0
77.643997 200.0
77.669899 156.0
77.682182 144.0
77.727798 152.0
77.755875 136.0
77.785713 132.0
77.821228 124.0
77.833122 196.0
77.848923 144.0
77.862976 156.0
77.883934 172.0
77.896393 168.0
77.922699 200.0
77.971611 216.0
78.00882 200.0
78.022675 220.0
78.038704 72.0
78.053894 144.0
78.077934 196.0
78.119606 40.0
78.214638 120.0
78.258652 140.0
78.28154 220.0
78.297226 128.0
78.385475 84.0
78.413673 136.0
78.491241 204.0
78.526512 152.0
78.561798 40.0
78.616493 204.0
78.665916 152.0
78.697693 120.0
78.741844 188.0
78.807205 164.0
78.846085 244.0
78.870003 232.0
78.89566 168.0
78.918564 192.0
78.947388 120.0
78.976921 192.0
79.005226 184.0
79.056541 120.0
79.091942 168.0
79.14151 140.0
79.175156 88.0
79.253105 88.0
79.270821 144.0
79.291382 180.0
79.298523 108.0
79.301361 140.0
79.32045 68.0
79.403786 124.0
79.487167 160.0
79.618935 144.0
79.638077 148.0
79.673607 100.0
79.772247 148.0
79.80513 244.0
79.838921 192.0
79.850075 176.0
79.876266 156.0
79.91185 220.0
79.926086 196.0
79.9599 156.0
80.035698 248.0
80.084991 108.0
80.114815 76.0
80.134415 100.0
80.157578 236.0
80.173615 144.0
80.198784 204.0
80.218178 196.0
80.239418 92.0
80.292328 136.0
80.339447 128.0
80.351936 192.0
80.380486 228.0
80.451881 160.0
80.464378 124.0
80.616211 160.0
80.650169 256.0
80.689499 96.0
80.727837 200.0
80.771759 160.0
80.823647 76.0
80.841537 108.0
80.855858 148.0
80.889236 148.0
80.903564 276.0
80.922783 96.0
80.951767 84.0
80.977608 152.0
81.028801 104.0
81.162193 72.0
81.221382 124.0
81.269615 176.0
81.289558 76.0
81.354172 168.0
81.406242 116.0
81.454742 132.0
81.472702 148.0
81.490669 124.0
81.506844 156.0
81.533752 156.0
81.554466 136.0
81.589523 84.0
81.605705 200.0
81.650139 96.0
81.672249 176.0
81.706429 112.0
81.740616 116.0
81.760406 104.0
81.797295 356.0
81.818008 152.0
81.850418 176.0
81.872032 72.0
81.91346 168.0
81.990936 56.0
82.011292 136.0
82.082878 168.0
82.113609 156.0
82.140594 144.0
82.15863 136.0
82.182091 76.0
82.226303 152.0
82.248863 88.0
82.303024 108.0
82.324699 84.0
82.374443 196.0
82.447548 148.0
82.462006 116.0
82.48008 148.0
82.498154 56.0
82.574104 124.0
82.619194 168.0
82.633888 164.0
82.677231 300.0
82.691711 156.0
82.708 212.0
82.727913 160.0
82.773178 108.0
82.788704 160.0
82.834755 80.0
82.856499 136.0
82.869179 156.0
82.884949 200.0
82.934418 144.0
82.954361 168.0
83.025078 132.0
83.046837 160.0
83.107521 224.0
83.17524 184.0
83.181168 140.0
83.185211 188.0
83.253746 192.0
83.29007 336.0
83.302788 44.0
83.363831 176.0
83.39183 116.0
83.427826 244.0
83.449997 148.0
83.4991 56.0
83.518387 208.0
83.579346 184.0
83.598289 168.0
83.641022 204.0
83.659225 40.0
83.683678 192.0
83.726601 160.0
83.752098 144.0
83.768494 128.0
83.792496 160.0
83.824974 76.0
83.846848 168.0
83.865074 144.0
83.888771 368.0
83.921585 196.0
83.934349 120.0
83.956238 140.0
83.996361 144.0
84.009132 140.0
84.021904 104.0
84.08606 176.0
84.106491 148.0
84.146141 220.0
84.176781 160.0
84.20079 216.0
84.286659 168.0
84.303101 184.0
84.323204 280.0
84.367081 180.0
84.431076 136.0
84.463348 196.0
84.500587 140.0
84.517059 120.0
84.544502 180.0
84.581116 120.0
84.610405 64.0
84.639702 160.0
84.663506 184.0
84.742561 240.0
84.762428 184.0
84.79155 144.0
84.804947 160.0
84.853172 340.0
84.899658 112.0
84.938438 200.0
84.965958 192.0
85.004486 352.0
85.019173 148.0
85.057381 132.0
85.074234 40.0
85.106552 200.0
85.119057 88.0
85.159225 212.0
85.252831 204.0
85.272621 136.0
85.310234 148.0
85.33329 164.0
85.368225 168.0
85.38662 224.0
85.401329 160.0
85.422974 172.0
85.499825 256.0
85.524612 132.0
85.538078 152.0
85.561432 184.0
85.576164 148.0
85.600098 128.0
85.619896 116.0
85.690842 200.0
85.716934 216.0
85.797302 152.0
85.815689 124.0
85.830444 60.0
85.860954 212.0
85.919525 188.0
85.92762 140.0
85.990944 292.0
86.083252 104.0
86.097343 172.0
86.127579 160.0
86.194092 152.0
86.214417 80.0
86.236595 156.0
86.303154 144.0
86.327187 96.0
86.419678 160.0
86.449783 208.0
86.478897 200.0
86.501114 128.0
86.543694 132.0
86.635719 128.0
86.654831 96.0
86.669655 192.0
86.687401 180.0
86.703094 180.0
86.796768 264.0
86.814247 136.0
86.868034 212.0
86.888443 172.0
86.914413 200.0
86.938545 176.0
86.960815 164.0
86.972908 140.0
86.994225 136.0
87.116959 176.0
87.139091 160.0
87.172539 204.0
87.201492 216.0
87.228294 172.0
87.267059 160.0
87.293373 144.0
87.321266 136.0
87.365913 212.0
87.441643 160.0
87.475708 152.0
87.515862 380.0
87.61911 104.0
87.663452 140.0
87.722641 212.0
87.74025 192.0
87.757034 144.0
87.785004 136.0
87.799919 96.0
87.883865 172.0
87.939857 192.0
87.964119 136.0
87.990891 212.0
88.054298 196.0
88.109787 104.0
88.175652 444.0
88.195755 188.0
88.210709 160.0
88.240616 164.0
88.298592 140.0
88.334663 136.0
88.364769 212.0
88.45015 160.0
88.514633 172.0
88.5625 148.0
88.579132 168.0
88.616325 180.0
88.643059 108.0
88.706787 120.0
88.727409 92.0
88.781784 160.0
88.841812 72.0
88.89904 152.0
88.945023 168.0
88.965675 120.0
88.990601 124.0
89.038078 864.0
89.181702 96.0
89.241859 92.0
89.262543 40.0
89.286987 344.0
89.33432 124.0
89.382935 116.0
89.465752 216.0
89.483795 48.0
89.501526 172.0
89.516586 144.0
89.53627 204.0
89.560753 204.0
89.577332 144.0
89.612656 320.0
89.632851 184.0
89.69487 192.0
89.718201 124.0
89.772881 104.0
89.829468 148.0
89.873772 136.0
89.914375 196.0
89.933617 124.0
90.006195 220.0
90.044601 160.0
90.071098 200.0
90.093765 144.0
90.115746 120.0
90.163681 68.0
90.214714 164.0
90.235512 168.0
90.250641 156.0
90.269547 168.0
90.286568 116.0
90.302719 132.0
90.32061 180.0
90.375481 216.0
90.417114 84.0
90.441719 280.0
90.479576 216.0
90.613762 184.0
90.665215 124.0
90.714493 156.0
90.756248 180.0
90.777145 180.0
90.794136 124.0
90.811203 284.0
90.837761 200.0
90.913651 56.0
90.931763 140.0
91.006104 240.0
91.053421 2020.0
91.145332 72.0
91.204247 48.0
91.232765 92.0
91.287903 60.0
91.306923 144.0
91.373505 48.0
91.394432 180.0
91.439125 128.0
91.464851 116.0
91.497215 40.0
91.527679 140.0
91.585495 136.0
91.603859 156.0
91.659111 176.0
91.68441 116.0
91.695358 204.0
91.740311 164.0
91.765854 136.0
91.794456 152.0
91.874565 160.0
91.891739 156.0
91.916542 112.0
91.963425 144.0
92.014816 140.0
92.05468 384.0
92.091103 168.0
92.104797 180.0
92.139946 120.0
92.154633 180.0
92.160652 124.0
92.1698 160.0
92.17437 164.0
92.190872 172.0
92.293884 244.0
92.3311 272.0
92.352867 104.0
92.407616 88.0
92.457603 132.0
92.507133 104.0
92.54734 188.0
92.56266 160.0
92.58564 68.0
92.602882 124.0
92.631615 136.0
92.673759 164.0
92.699753 248.0
92.746277 172.0
92.781944 108.0
92.799248 204.0
92.888664 128.0
92.946045 212.0
92.988113 152.0
93.045853 112.0
93.059296 156.0
93.105377 160.0
93.184135 36.0
93.212959 108.0
93.247551 164.0
93.461021 120.0
93.51683 56.0
93.564957 180.0
93.66124 132.0
93.701698 172.0
93.722778 136.0
93.765289 108.0
93.784561 160.0
93.832756 264.0
93.91375 156.0
93.930092 152.0
94.001915 144.0
94.027588 80.0
94.04882 196.0
94.071983 200.0
94.117386 132.0
94.139565 152.0
94.218758 140.0
94.238777 156.0
94.267067 176.0
94.283813 192.0
94.319252 312.0
94.350182 204.0
94.380264 164.0
94.386978 132.0
94.393135 168.0
94.413994 160.0
94.479759 228.0
94.588127 80.0
94.667511 176.0
94.68882 124.0
94.704315 164.0
94.721748 228.0
94.743057 136.0
94.828316 136.0
94.863853 208.0
94.898277 136.0
94.917679 212.0
94.969864 112.0
94.989258 60.0
95.053955 116.0
95.070755 208.0
95.090157 116.0
95.175575 228.0
95.2425 208.0
95.266861 128.0
95.299889 144.0
95.321266 148.0
95.340958 60.0
95.404846 156.0
95.431183 124.0
95.475891 208.0
95.498184 112.0
95.517639 144.0
95.543396 200.0
95.568222 216.0
95.587677 220.0
95.620766 132.0
95.638283 264.0
95.698631 148.0
95.714211 176.0
95.759003 200.0
95.779556 204.0
95.799904 168.0
95.815491 124.0
95.846664 128.0
95.905136 124.0
95.948021 148.0
95.988968 60.0
96.010422 140.0
96.107956 152.0
96.139183 140.0
96.166504 112.0
96.180168 228.0
96.252403 168.0
96.266075 112.0
96.377419 360.0
96.398918 148.0
96.451691 156.0
96.524025 204.0
96.602264 104.0
96.641388 100.0
96.672699 176.0
96.713799 168.0
96.78624 160.0
96.837158 184.0
96.870453 124.0
96.888084 160.0
96.93119 56.0
96.953171 224.0
96.980186 220.0
97.037041 144.0
97.050766 172.0
97.15033 152.0
97.153389 224.0
97.204353 160.0
97.228699 188.0
97.233803 132.0
97.26265 88.0
97.372604 240.0
97.385582 168.0
97.409927 92.0
97.470833 88.0
97.519966 52.0
97.55928 144.0
97.58091 128.0
97.672432 208.0
97.698914 92.0
97.714653 148.0
97.777618 164.0
97.791397 176.0
97.846519 152.0
97.876656 156.0
97.943535 152.0
98.04744 108.0
98.065178 48.0
98.078979 112.0
98.094749 136.0
98.119949 184.0
98.144035 112.0
98.209114 176.0
98.335396 196.0
98.395058 160.0
98.428185 148.0
98.448944 156.0
98.594124 40.0
98.623962 84.0
98.641563 116.0
98.69297 64.0
98.714806 180.0
98.730537 112.0
98.748337 188.0
98.783943 108.0
98.833405 160.0
98.851219 156.0
98.880905 152.0
98.928406 76.0
98.960083 212.0
98.997314 1560.0
99.03138 224.0
99.094772 156.0
99.113388 192.0
99.17852 196.0
99.196526 128.0
99.228706 236.0
99.26326 156.0
99.306892 128.0
99.348549 128.0
99.370369 192.0
99.388618 164.0
99.43116 172.0
99.491356 96.0
99.504112 204.0
99.519974 168.0
99.574837 112.0
99.600395 180.0
99.61792 116.0
99.656288 96.0
99.696877 216.0
99.743729 184.0
99.867012 188.0
99.910835 164.0
99.936646 216.0
100.000328 152.0
100.018242 132.0
100.115135 144.0
100.165596 76.0
100.211418 144.0
100.236969 180.0
100.312111 176.0
100.318817 144.0
100.412758 56.0
100.432701 132.0
100.456642 240.0
100.550423 136.0
100.57637 156.0
100.652466 208.0
100.689209 288.0
100.747536 196.0
100.948486 160.0
100.97599 228.0
100.995445 372.0
101.015991 128.0
101.038002 200.0
101.15007 108.0
101.17009 196.0
101.200027 168.0
101.229431 264.0
101.254189 140.0
101.27021 140.0
101.346382 184.0
101.414474 116.0
101.471703 232.0
101.558212 156.0
101.598633 168.0
101.603149 140.0
101.610916 180.0
101.656517 164.0
101.691277 288.0
101.720604 144.0
101.813744 180.0
101.932564 136.0
101.967072 164.0
102.00061 156.0
102.031235 68.0
102.047775 116.0
102.091484 180.0
102.117233 280.0
102.1474 176.0
102.187637 56.0
102.201721 140.0
102.221848 120.0
102.294411 76.0
102.311218 140.0
102.324501 180.0
102.342621 264.0
102.469658 172.0
102.48967 144.0
102.515862 156.0
102.558487 108.0
102.576332 212.0
102.612038 180.0
102.64286 96.0
102.667389 196.0
102.743713 172.0
102.761871 188.0
102.793694 332.0
102.868622 148.0
102.937485 144.0
103.027199 96.0
103.099098 124.0
103.125374 320.0
103.155693 128.0
103.177933 132.0
103.232529 236.0
103.290451 176.0
103.309387 96.0
103.341759 116.0
103.386276 72.0
103.414612 216.0
103.440926 92.0
103.459145 148.0
103.483444 184.0
103.499641 104.0
103.543404 216.0
103.591797 232.0
103.625221 296.0
103.681961 200.0
103.736656 212.0
103.761017 112.0
103.777237 40.0
103.795486 116.0
103.837357 232.0
103.867592 240.0
103.886757 132.0
103.941101 184.0
103.980103 128.0
104.006485 128.0
104.04921 1296.0
104.119545 164.0
104.146591 180.0
104.170967 128.0
104.199409 180.0
104.284065 172.0
104.301025 116.0
104.317284 116.0
104.337616 176.0
104.362015 152.0
104.382347 216.0
104.404716 108.0
104.46814 220.0
104.529236 192.0
104.568634 204.0
104.577377 240.0
104.580719 356.0
104.622444 96.0
104.715248 164.0
104.736481 164.0
104.75074 144.0
104.764999 68.0
104.7976 132.0
104.875038 160.0
104.889305 132.0
104.952209 164.0
104.992958 120.0
105.021851 132.0
105.054901 176.0
105.07489 104.0
105.101418 176.0
105.117737 48.0
105.138145 136.0
105.16468 176.0
105.181007 172.0
105.201424 220.0
105.226898 176.0
105.254509 112.0
105.268799 44.0
105.30761 216.0
105.321907 156.0
105.366844 148.0
105.387932 180.0
105.473114 124.0
105.558983 144.0
105.657166 216.0
105.689903 112.0
105.725731 296.0
105.757507 164.0
105.777115 124.0
105.798378 224.0
105.845474 164.0
105.87619 100.0
105.949928 52.0
106.025749 176.0
106.050476 124.0
106.070839 216.0
106.091339 128.0
106.161057 188.0
106.179512 76.0
106.216431 120.0
106.234894 232.0
106.251305 132.0
106.284286 216.0
106.343651 140.0
106.419609 128.0
106.53257 180.0
106.567497 140.0
106.590096 92.0
106.608597 124.0
106.629143 116.0
106.750443 168.0
106.764839 148.0
106.799805 176.0
106.816261 140.0
106.845062 132.0
106.908844 176.0
106.927368 124.0
106.952072 180.0
107.020828 280.0
107.046776 188.0
107.071289 328.0
107.201279 176.0
107.231964 156.0
107.261055 152.0
107.419838 228.0
107.451408 92.0
107.47554 176.0
107.504791 252.0
107.574272 104.0
107.630356 112.0
107.700569 208.0
107.733627 88.0
107.754021 124.0
107.816277 128.0
107.85379 132.0
107.872086 156.0
107.919632 148.0
107.99202 260.0
108.012444 128.0
108.066399 140.0
108.118225 52.0
108.157547 140.0
108.240364 92.0
108.26107 56.0
108.354805 160.0
108.383293 196.0
108.47863 128.0
108.495064 216.0
108.503098 200.0
108.555351 152.0
108.588531 200.0
108.632088 144.0
108.650764 188.0
108.707527 224.0
108.730759 160.0
108.758675 96.0
108.797821 164.0
108.88488 148.0
108.914406 224.0
108.934326 176.0
108.958031 148.0
109.022392 144.0
109.074409 92.0
109.103737 148.0
109.126381 168.0
109.267815 252.0
109.286545 136.0
109.328163 148.0
109.382278 212.0
109.401009 128.0
109.417664 112.0
109.444733 148.0
109.488464 188.0
109.52179 100.0
109.536369 64.0
109.569748 200.0
109.613464 84.0
109.708527 164.0
109.732269 72.0
109.774841 168.0
109.801086 88.0
109.924171 128.0
109.970085 204.0
109.986786 180.0
110.045242 192.0
110.061943 128.0
110.185181 128.0
110.224876 68.0
110.243683 136.0
110.274757 120.0
110.280586 104.0
110.288376 188.0
110.31266 88.0
110.406754 156.0
110.428848 156.0
110.467415 136.0
110.522629 204.0
110.576172 168.0
110.595055 60.0
110.614876 204.0
110.645966 188.0
110.674614 68.0
110.699738 156.0
110.739532 128.0
110.78981 120.0
110.825714 204.0
110.854759 156.0
110.998138 640.0
111.022522 164.0
111.092018 160.0
111.125069 172.0
111.134514 88.0
111.153267 196.0
111.186119 148.0
111.221794 108.0
111.259583 140.0
111.301575 160.0
111.320473 108.0
111.336639 252.0
111.360382 64.0
111.411522 184.0
111.457016 188.0
111.475929 92.0
111.528473 176.0
111.566315 148.0
111.582474 192.0
111.60836 152.0
111.627289 124.0
111.69249 76.0
111.724617 128.0
111.779335 244.0
111.809708 152.0
111.841888 148.0
111.87767 60.0
111.894516 100.0
111.923996 132.0
111.974899 140.0
112.008255 256.0
112.041946 216.0
112.075653 148.0
112.092949 156.0
112.115692 136.0
112.131912 184.0
112.138809 128.0
112.1437 180.0
112.178925 168.0
112.221092 32.0
112.240074 68.0
112.27803 84.0
112.323616 144.0
112.343422 152.0
112.375458 172.0
112.418602 152.0
112.449463 204.0
112.478477 204.0
112.512253 96.0
112.546036 312.0
112.567154 176.0
112.61396 172.0
112.63002 120.0
112.651924 148.0
112.683327 316.0
112.721359 100.0
112.797447 136.0
112.840599 168.0
112.953644 208.0
112.99762 384.0
113.014259 864.0
113.038132 156.0
113.046959 124.0
113.055939 152.0
113.108406 120.0
113.124123 160.0
113.137016 140.0
113.161331 108.0
113.178268 104.0
113.20224 200.0
113.248161 124.0
113.265984 164.0
113.296883 144.0
113.328659 148.0
113.368507 164.0
113.407074 132.0
113.425919 148.0
113.51944 192.0
113.557617 160.0
113.58519 188.0
113.608002 196.0
113.638229 140.0
113.693398 120.0
113.737846 132.0
113.75708 196.0
113.780426 128.0
113.875984 124.0
114.011681 1108.0
114.033897 612.0
114.058723 92.0
114.181168 176.0
114.194809 300.0
114.210854 132.0
114.219147 72.0
114.226456 164.0
114.231483 216.0
114.254372 60.0
114.288414 180.0
114.307564 52.0
114.386314 140.0
114.425941 124.0
114.440788 68.0
114.475739 148.0
114.516205 96.0
114.531113 152.0
114.548157 180.0
114.567696 184.0
114.605522 56.0
114.633743 168.0
114.651093 128.0
114.776199 164.0
114.867332 176.0
114.894104 144.0
114.931915 256.0
114.94899 152.0
114.994652 316.0
115.018105 460.0
115.05571 140.0
115.079056 180.0
115.107407 152.0
115.181709 228.0
115.275719 152.0
115.294952 164.0
115.31205 220.0
115.346642 160.0
115.376175 148.0
115.423218 196.0
115.459572 144.0
115.474541 188.0
115.544205 156.0
115.562248 192.0
115.590065 200.0
115.621117 228.0
115.686882 172.0
115.712074 116.0
115.776169 116.0
115.783852 108.0
115.790237 64.0
115.809654 228.0
115.827721 204.0
115.842712 108.0
115.909134 188.0
115.928421 160.0
116.007149 356.0
116.049774 740.0
116.070274 172.0
116.093491 116.0
116.132095 148.0
116.237045 148.0
116.288681 180.0
116.303802 180.0
116.343796 92.0
116.366013 144.0
116.390587 188.0
116.408958 136.0
116.434723 168.0
116.455162 124.0
116.468102 348.0
116.49057 176.0
116.531395 148.0
116.548584 60.0
116.593712 132.0
116.619499 120.0
116.696892 176.0
116.720543 104.0
116.756195 180.0
116.810875 192.0
116.871117 152.0
116.891273 208.0
116.939987 148.0
117.027588 236.0
117.056633 15728.0
117.09285 116.0
117.110085 228.0
117.137314 184.0
117.174706 148.0
117.257774 168.0
117.286774 184.0
117.339333 84.0
117.360069 144.0
117.397377 212.0
117.429749 160.0
117.47654 232.0
117.500267 96.0
117.53479 28.0
117.57148 140.0
117.603043 120.0
117.666458 160.0
117.702286 316.0
117.73185 56.0
117.761475 76.0
117.79171 188.0
117.863007 92.0
117.893265 152.0
117.958107 140.0
117.992691 108.0
118.025124 196.0
118.063896 9728.0
118.091965 84.0
118.128654 112.0
118.149078 208.0
118.16243 164.0
118.176537 132.0
118.238213 152.0
118.308563 136.0
118.380722 196.0
118.412498 96.0
118.546822 140.0
118.587997 72.0
118.637726 192.0
118.661705 164.0
118.783157 36.0
118.825851 200.0
118.869942 216.0
118.919014 308.0
118.935051 252.0
118.963272 140.0
119.041039 152.0
119.07196 8156.0
119.204361 132.0
119.219574 48.0
119.253601 352.0
119.267769 416.0
119.297188 164.0
119.326088 44.0
119.35128 232.0
119.390732 148.0
119.398651 108.0
119.40789 188.0
119.413651 224.0
119.452225 156.0
119.502266 64.0
119.528374 60.0
119.596809 180.0
119.705978 136.0
119.76255 328.0
119.793999 160.0
119.815788 132.0
119.84436 172.0
119.861542 232.0
119.925934 336.0
119.977608 300.0
120.012634 76.0
120.051193 184.0
120.075203 312.0
120.105721 80.0
120.127533 76.0
120.188629 184.0
120.221359 180.0
120.241005 144.0
120.284653 208.0
120.306488 148.0
120.369804 328.0
120.400375 168.0
120.415665 92.0
120.483383 28.0
120.555168 136.0
120.576012 184.0
120.599205 160.0
120.631989 112.0
120.6968 144.0
120.746056 120.0
120.789436 108.0
120.847076 128.0
120.869125 208.0
120.926056 132.0
120.967491 120.0
121.022652 200.0
121.061302 172.0
121.116028 212.0
121.192276 144.0
121.22953 44.0
121.247063 108.0
121.264481 160.0
121.336937 80.0
121.354477 204.0
121.420326 132.0
121.470711 148.0
121.547501 88.0
121.569443 136.0
121.604561 88.0
121.670418 200.0
121.744301 160.0
121.780212 84.0
121.859299 132.0
121.894455 192.0
121.927422 136.0
121.958191 160.0
121.977974 124.0
121.993362 60.0
122.031532 132.0
122.057121 124.0
122.094505 116.0
122.109901 52.0
122.127502 140.0
122.145096 128.0
122.188622 164.0
122.268852 196.0
122.294724 240.0
122.332146 28.0
122.422424 136.0
122.45105 136.0
122.520149 76.0
122.600868 60.0
122.629517 48.0
122.669197 112.0
122.726517 168.0
122.759598 188.0
122.944908 152.0
122.971985 312.0
123.00132 852.0
123.037613 196.0
123.06411 168.0
123.110481 212.0
123.131157 188.0
123.206673 184.0
123.23391 160.0
123.267326 140.0
123.406586 128.0
123.441971 136.0
123.583534 104.0
123.612549 108.0
123.674271 172.0
123.691978 228.0
123.729614 128.0
123.8116 156.0
123.85363 184.0
123.887878 156.0
123.922531 196.0
123.952309 244.0
123.991867 156.0
124.008728 356.0
124.066368 104.0
124.202652 140.0
124.222237 220.0
124.238815 216.0
124.247253 164.0
124.349533 196.0
124.370277 156.0
124.412453 144.0
124.439095 164.0
124.467964 72.0
124.490166 104.0
124.525703 160.0
124.565689 156.0
124.583046 152.0
124.610115 104.0
124.641228 148.0
124.674126 164.0
124.732346 100.0
124.758911 152.0
124.797836 148.0
124.812386 152.0
124.863533 140.0
124.88578 56.0
124.910133 164.0
124.941391 60.0
124.95919 136.0
125.015007 28092.0
125.058372 176.0
125.085899 184.0
125.121834 152.0
125.179306 180.0
125.187088 104.0
125.270874 112.0
125.310974 80.0
125.337715 200.0
125.374146 80.0
125.417877 124.0
125.458069 328.0
125.492409 156.0
125.533882 68.0
125.568275 152.0
125.677246 104.0
125.714577 28.0
125.748924 144.0
125.808327 128.0
125.831139 184.0
125.845352 96.0
125.895409 160.0
125.913277 152.0
125.984482 284.0
126.019554 4064.0
126.059296 100.0
126.147896 156.0
126.210495 72.0
126.241798 224.0
126.270874 108.0
126.304619 140.0
126.429718 220.0
126.458817 76.0
126.524284 180.0
126.601402 148.0
126.662941 148.0
126.678261 184.0
126.729919 136.0
126.75528 128.0
126.770027 184.0
126.79409 156.0
126.823914 224.0
126.855293 76.0
126.870987 204.0
126.899796 212.0
126.987701 324.0
127.011742 7696.0
127.067139 80.0
127.081818 168.0
127.117714 104.0
127.142403 76.0
127.176071 132.0
127.198517 100.0
127.227699 48.0
127.255836 180.0
127.310783 56.0
127.376465 196.0
127.416351 164.0
127.436577 160.0
127.461807 228.0
127.488258 264.0
127.516876 240.0
127.565308 100.0
127.612961 184.0
127.659111 188.0
127.679352 184.0
127.746834 168.0
127.798576 48.0
127.845833 44.0
127.86795 92.0
127.924614 124.0
127.951241 112.0
128.019394 832.0
128.052139 360.0
128.121292 180.0
128.210678 36.0
128.306091 228.0
128.357208 140.0
128.391037 128.0
128.429367 124.0
128.454071 148.0
128.562485 200.0
128.580551 188.0
128.620163 152.0
128.68483 144.0
128.763428 220.0
128.844086 136.0
128.903488 184.0
128.924408 260.0
128.960831 168.0
129.009277 148.0
129.027908 264.0
129.049744 320.0
129.073029 104.0
129.093384 144.0
129.16124 160.0
129.177063 104.0
129.220047 196.0
129.243027 128.0
129.313995 92.0
129.335464 76.0
129.363098 196.0
129.413666 236.0
129.441879 220.0
129.541534 148.0
129.557388 56.0
129.601395 124.0
129.632172 260.0
129.663895 180.0
129.738205 128.0
129.746063 200.0
129.763641 120.0
129.812912 196.0
129.85434 144.0
130.021561 164.0
130.050064 300.0
130.065781 308.0
130.132538 380.0
130.190231 156.0
130.235657 68.0
130.270172 84.0
130.301544 108.0
130.317444 144.0
130.409119 172.0
130.479095 132.0
130.527527 124.0
130.597076 172.0
130.774551 100.0
130.845108 56.0
130.963531 68.0
130.984039 200.0
131.005814 180.0
131.05896 2368.0
131.170883 124.0
131.196884 200.0
131.251297 196.0
131.275772 120.0
131.291733 92.0
131.347885 136.0
131.473251 120.0
131.531311 120.0
131.579254 116.0
131.629349 132.0
131.657654 144.0
131.700287 168.0
131.756546 128.0
131.794998 136.0
131.876221 228.0
132.013397 136.0
132.04657 532.0
132.064606 716.0
132.126129 280.0
132.15979 160.0
132.285675 280.0
132.328369 228.0
132.363373 192.0
132.471619 160.0
132.488312 160.0
132.53302 156.0
132.567398 172.0
132.592606 72.0
132.622406 152.0
132.640747 156.0
132.661377 176.0
132.714111 120.0
132.737671 236.0
132.757675 180.0
132.810425 92.0
132.874664 84.0
132.890717 216.0
132.928207 144.0
132.971039 212.0
133.035889 168.0
133.046204 140.0
133.104187 236.0
133.185333 180.0
133.27388 128.0
133.320129 56.0
133.355316 364.0
133.442581 220.0
133.467255 204.0
133.508652 112.0
133.531021 176.0
133.577301 184.0
133.731827 44.0
133.761063 324.0
133.865356 176.0
133.911407 52.0
133.962082 148.0
134.024292 172.0
134.058594 412.0
134.077301 112.0
134.110428 172.0
134.132614 256.0
134.207275 200.0
134.254913 100.0
134.296326 200.0
134.36554 44.0
134.409378 132.0
134.440674 108.0
134.465317 140.0
134.485535 220.0
134.511368 104.0
134.587112 164.0
134.66333 184.0
134.682037 200.0
134.764969 204.0
134.806488 120.0
134.885147 144.0
134.907532 100.0
134.989197 80.0
135.065659 268.0
135.119781 140.0
135.14418 116.0
135.171936 188.0
135.202026 124.0
135.255264 228.0
135.329346 156.0
135.375244 204.0
135.383591 168.0
135.392044 108.0
135.399704 176.0
135.440506 136.0
135.49147 196.0
135.560989 160.0
135.604782 156.0
135.648315 212.0
135.665283 180.0
135.683838 160.0
135.774261 160.0
135.81601 176.0
135.845581 140.0
135.872223 160.0
135.898621 104.0
135.932968 156.0
135.95755 124.0
135.997009 272.0
136.02095 176.0
136.047104 144.0
136.102448 192.0
136.140945 156.0
136.222244 192.0
136.340744 108.0
136.380264 132.0
136.398148 144.0
136.416 160.0
136.439575 136.0
136.54007 152.0
136.622101 144.0
136.654892 212.0
136.703537 208.0
136.745438 136.0
136.780884 188.0
136.810608 192.0
136.910736 132.0
136.95343 108.0
136.989578 160.0
136.994522 136.0
137.011215 296.0
137.035767 148.0
137.071533 156.0
137.113419 204.0
137.12973 200.0
137.147537 144.0
137.201996 84.0
137.265137 156.0
137.313858 136.0
137.339584 148.0
137.367584 152.0
137.397903 208.0
137.483124 168.0
137.579163 168.0
137.64299 100.0
137.664001 184.0
137.682678 84.0
137.70137 72.0
137.735733 232.0
137.869843 216.0
137.906982 176.0
138.00946 7248.0
138.060333 128.0
138.131454 164.0
138.14978 180.0
138.185272 124.0
138.242966 212.0
138.272827 192.0
138.312531 84.0
138.328018 340.0
138.360733 144.0
138.39592 160.0
138.42511 128.0
138.478622 112.0
138.505997 120.0
138.716599 324.0
138.740341 116.0
138.756744 164.0
138.793091 184.0
138.888077 148.0
138.906845 36.0
138.943802 148.0
138.993896 9004.0
139.016296 3308.0
139.046265 200.0
139.073059 356.0
139.164261 128.0
139.20726 68.0
139.244843 128.0
139.283203 132.0
139.320007 76.0
139.350555 180.0
139.397552 100.0
139.432007 204.0
139.484512 64.0
139.500961 192.0
139.547989 44.0
139.595016 144.0
139.613831 52.0
139.640564 184.0
139.681366 84.0
139.72908 176.0
139.74556 52.0
139.766739 148.0
139.787918 160.0
139.837341 152.0
139.870285 232.0
139.903244 200.0
140.00621 1004.0
140.025589 2452.0
140.072021 180.0
140.10611 112.0
140.224258 196.0
140.337555 200.0
140.367416 124.0
140.390732 148.0
140.488159 184.0
140.511292 120.0
140.530167 180.0
140.572647 300.0
140.593887 128.0
140.626923 120.0
140.709549 72.0
140.759125 124.0
140.789825 156.0
140.808731 144.0
140.828659 176.0
140.853607 32.0
140.899261 196.0
140.922119 128.0
140.951065 152.0
140.969101 172.0
140.993134 1440.0
141.013306 1004.0
141.03125 724.0
141.054459 80.0
141.087555 172.0
141.120651 104.0
141.16391 124.0
141.228989 144.0
141.240326 100.0
141.244843 204.0
141.269653 116.0
141.326141 160.0
141.334412 140.0
141.357056 136.0
141.456604 116.0
141.518158 128.0
141.567886 212.0
141.694336 220.0
141.762146 224.0
141.78067 196.0
141.789169 160.0
141.840363 84.0
141.941696 156.0
141.973145 332.0
142.000946 144.0
142.024719 464.0
142.046906 452.0
142.084686 152.0
142.192062 244.0
142.233368 180.0
142.281708 192.0
142.321976 284.0
142.370239 148.0
142.426468 184.0
142.478531 96.0
142.498932 176.0
142.616562 40.0
142.72261 264.0
142.740189 160.0
142.772949 108.0
142.799637 576.0
142.816299 184.0
142.832947 176.0
142.866241 192.0
142.90126 112.0
142.935242 68.0
142.954285 152.0
142.975708 120.0
142.991302 140.0
143.028 352.0
143.059616 8748.0
143.132828 176.0
143.154251 100.0
143.197128 156.0
143.213791 220.0
143.230469 84.0
143.249527 224.0
143.281174 84.0
143.373077 164.0
143.381531 140.0
143.418716 164.0
143.458633 128.0
143.523865 188.0
143.573685 164.0
143.624237 164.0
143.688187 180.0
143.719208 60.0
143.745453 88.0
143.828979 332.0
143.862411 52.0
143.919189 184.0
143.957916 160.0
143.993744 148.0
144.015228 132.0
144.065826 3972.0
144.098846 100.0
144.175308 172.0
144.193512 176.0
144.224457 132.0
144.285263 172.0
144.337875 52.0
144.356995 84.0
144.445496 172.0
144.520523 212.0
144.541916 172.0
144.565125 136.0
144.597702 176.0
144.634415 76.0
144.718323 208.0
144.756638 68.0
144.790161 160.0
144.881332 136.0
144.912338 196.0
144.941086 64.0
144.972244 176.0
145.012985 208.0
145.043655 292.0
145.073517 1368.0
145.216782 140.0
145.300095 128.0
145.358337 144.0
145.399124 192.0
145.423401 140.0
145.504745 88.0
145.593323 144.0
145.646439 204.0
145.677658 176.0
145.701691 192.0
145.740128 160.0
145.788193 228.0
145.814621 160.0
145.873383 136.0
145.879303 84.0
145.891541 212.0
145.93483 112.0
145.990128 180.0
146.025192 124.0
146.059677 652.0
146.110397 52.0
146.139267 56.0
146.16333 52.0
146.189453 192.0
146.213318 52.0
146.232559 172.0
146.251465 260.0
146.283676 72.0
146.363602 220.0
146.428146 44.0
146.517273 80.0
146.599808 204.0
146.652222 156.0
146.694733 208.0
146.739212 196.0
146.838623 156.0
146.862 84.0
146.881287 124.0
146.946426 156.0
147.023651 172.0
147.066299 5044.0
147.093597 192.0
147.099045 188.0
147.108627 236.0
147.154007 252.0
147.185394 168.0
147.272339 132.0
147.306152 176.0
147.332718 236.0
147.400375 156.0
147.446289 144.0
147.489471 176.0
147.526901 152.0
147.553146 172.0
147.69278 136.0
147.73645 28.0
147.822296 144.0
147.857437 176.0
147.94458 92.0
147.961533 180.0
147.978485 160.0
148.003326 168.0
148.034164 136.0
148.069458 1060.0
148.153656 208.0
148.194046 36.0
148.215851 124.0
148.232819 144.0
148.252197 392.0
148.290985 188.0
148.341888 176.0
148.369873 148.0
148.40007 224.0
148.426743 160.0
148.470398 124.0
148.536682 192.0
148.586823 152.0
148.615936 76.0
148.635345 100.0
148.659622 120.0
148.693604 176.0
148.715714 140.0
148.776123 60.0
148.798935 152.0
148.834396 180.0
148.918869 148.0
149.078964 368.0
149.116196 60.0
149.172104 48.0
149.252335 84.0
149.277344 100.0
149.293686 148.0
149.365692 236.0
149.383682 168.0
149.463959 176.0
149.498032 32.0
149.540039 168.0
149.555573 100.0
149.566971 196.0
149.592957 168.0
149.610001 72.0
149.640915 316.0
149.722015 196.0
149.790207 88.0
149.836624 164.0
149.858429 180.0
149.890106 124.0
149.93396 168.0
150.009247 8688.0
150.040283 452.0
150.076172 128.0
150.094864 64.0
150.119247 56.0
150.158264 64.0
150.17778 64.0
150.241211 160.0
150.365646 80.0
150.416916 152.0
150.502365 48.0
150.530426 180.0
150.548752 100.0
150.622025 336.0
150.654709 128.0
150.717316 120.0
150.741745 64.0
150.812622 172.0
150.846848 172.0
150.9189 252.0
150.956253 160.0
150.983765 148.0
151.015289 2424.0
151.057144 152.0
151.129639 152.0
151.16037 108.0
151.177048 196.0
151.201508 80.0
151.228439 108.0
151.248016 208.0
151.287186 52.0
151.341049 140.0
151.363083 132.0
151.388016 132.0
151.443909 168.0
151.510101 160.0
151.537003 52.0
151.623749 168.0
151.672318 56.0
151.725723 108.0
151.748337 164.0
151.773758 196.0
151.795532 152.0
151.828705 152.0
151.848328 180.0
151.909653 56.0
151.926819 108.0
151.970978 172.0
152.024429 4160.0
152.060135 784.0
152.117218 116.0
152.173904 100.0
152.206619 40.0
152.230469 284.0
152.265564 120.0
152.287674 140.0
152.408051 152.0
152.440292 160.0
152.5383 108.0
152.588745 160.0
152.609604 144.0
152.646484 116.0
152.713303 140.0
152.730103 208.0
152.789093 176.0
152.872803 216.0
152.937027 216.0
152.963867 144.0
152.986023 168.0
153.03006 1036.0
153.064285 244.0
153.105331 212.0
153.153473 92.0
153.170715 180.0
153.202911 120.0
153.241074 72.0
153.247711 112.0
153.298843 112.0
153.337555 148.0
153.404831 220.0
153.486191 128.0
153.557037 264.0
153.601227 136.0
153.62677 124.0
153.644958 332.0
153.67337 108.0
153.718628 364.0
153.748795 336.0
153.781952 144.0
153.819412 240.0
153.870987 172.0
153.878326 164.0
153.921204 68.0
153.962463 124.0
154.041473 105424.0
154.110413 64.0
154.12471 164.0
154.146576 152.0
154.184204 128.0
154.218277 112.0
154.251099 336.0
154.291946 108.0
154.319733 124.0
154.335617 184.0
154.372314 112.0
154.446945 224.0
154.474777 208.0
154.52359 164.0
154.558319 120.0
154.605255 124.0
154.628754 96.0
154.657227 180.0
154.673813 188.0
154.705536 204.0
154.736008 260.0
154.770645 152.0
154.837967 44.0
154.871323 116.0
154.88768 340.0
154.920395 116.0
154.95192 64.0
154.985992 176.0
155.044449 5904.0
155.108551 216.0
155.183823 148.0
155.221298 136.0
155.246643 136.0
155.261337 228.0
155.297882 264.0
155.332916 176.0
155.359192 128.0
155.405655 40.0
155.457764 148.0
155.490021 48.0
155.507401 36.0
155.560654 176.0
155.647171 160.0
155.678711 88.0
155.703537 196.0
155.728531 128.0
155.790482 100.0
155.834702 160.0
155.884277 224.0
155.939758 120.0
155.961807 168.0
155.99649 356.0
156.038086 18748.0
156.076294 212.0
156.103317 148.0
156.139938 204.0
156.166901 84.0
156.21489 184.0
156.222717 208.0
156.228607 188.0
156.265335 228.0
156.304916 256.0
156.309479 76.0
156.313828 156.0
156.344971 136.0
156.372345 108.0
156.405731 144.0
156.429596 132.0
156.496811 96.0
156.539261 184.0
156.594727 176.0
156.665329 248.0
156.725967 116.0
156.823166 148.0
156.985214 172.0
157.005173 172.0
157.040802 1512.0
157.114929 92.0
157.147354 104.0
157.207245 84.0
157.247177 172.0
157.284622 212.0
157.324554 136.0
157.381989 120.0
157.484375 124.0
157.631775 120.0
157.656769 48.0
157.736755 80.0
157.79425 148.0
157.836761 72.0
157.874268 156.0
157.90155 172.0
157.94429 172.0
158.011841 60.0
158.033905 176.0
158.079407 100.0
158.189529 132.0
158.236511 208.0
158.252838 224.0
158.31723 164.0
158.374832 384.0
158.455154 208.0
158.520142 112.0
158.58725 124.0
158.624054 228.0
158.678055 44.0
158.715668 124.0
158.743454 204.0
158.783371 40.0
158.907181 228.0
158.928879 176.0
158.963013 172.0
158.991608 76.0
159.06189 32.0
159.124649 224.0
159.147247 120.0
159.210037 176.0
159.280365 200.0
159.307983 132.0
159.378342 204.0
159.461273 116.0
159.51947 220.0
159.549255 140.0
159.595184 184.0
159.695099 120.0
159.715225 76.0
159.784149 140.0
159.838501 124.0
159.916519 104.0
160.009293 216.0
160.09024 152.0
160.155716 92.0
160.237259 152.0
160.274124 224.0
160.306274 180.0
160.359818 124.0
160.382965 108.0
160.391495 176.0
160.518646 184.0
160.631042 156.0
160.66745 184.0
160.728012 120.0
160.828964 84.0
160.945084 192.0
160.965286 200.0
160.99054 120.0
161.037064 144.0
161.04657 176.0
161.065292 148.0
161.12117 84.0
161.160568 144.0
161.215378 44.0
161.319016 68.0
161.5112 152.0
161.551682 148.0
161.627579 296.0
161.684509 200.0
161.737259 188.0
161.776901 148.0
161.802216 172.0
161.873123 120.0
161.908569 144.0
161.944473 204.0
162.005997 1084.0
162.075531 212.0
162.179672 116.0
162.212631 112.0
162.271637 188.0
162.314301 132.0
162.407883 160.0
162.489059 140.0
162.566299 156.0
162.593094 176.0
162.646393 100.0
162.714935 128.0
162.742874 112.0
162.874939 164.0
162.976547 92.0
163.003204 1876.0
163.050247 280.0
163.083298 120.0
163.101089 96.0
163.147293 136.0
163.167175 44.0
163.197693 108.0
163.26889 176.0
163.291779 44.0
163.351837 164.0
163.398621 108.0
163.536041 180.0
163.569122 160.0
163.620041 176.0
163.681152 132.0
163.701523 196.0
163.767944 52.0
163.790665 152.0
163.851807 356.0
163.869644 88.0
164.001205 232.0
164.015961 656.0
164.052185 204.0
164.071045 132.0
164.117691 228.0
164.210754 168.0
164.254593 148.0
164.300522 108.0
164.318375 192.0
164.405136 104.0
164.463837 88.0
164.481705 80.0
164.5634 224.0
164.642563 172.0
164.683426 144.0
164.724304 184.0
164.752396 128.0
164.808609 132.0
164.840851 136.0
164.887833 164.0
164.93895 164.0
164.984695 156.0
165.02037 2272.0
165.068558 5688.0
165.146057 84.0
165.2155 28.0
165.252808 132.0
165.284973 172.0
165.340515 60.0
165.376343 52.0
165.446609 152.0
165.468216 252.0
165.47229 84.0
165.477722 208.0
165.70285 168.0
165.727188 84.0
165.753494 152.0
165.804626 204.0
165.886093 132.0
165.924545 128.0
165.985535 168.0
166.025986 1028.0
166.07341 644.0
166.111145 152.0
166.232346 132.0
166.270233 252.0
166.2771 192.0
166.340149 180.0
166.450897 204.0
166.588974 156.0
166.59343 140.0
166.653473 148.0
166.701645 220.0
166.779404 172.0
166.807678 204.0
166.854523 124.0
166.900223 124.0
166.931091 320.0
166.965485 180.0
167.012848 6460.0
167.058731 148.0
167.081512 108.0
167.119888 60.0
167.175339 292.0
167.229523 52.0
167.291306 72.0
167.322189 60.0
167.365967 112.0
167.51001 172.0
167.59552 168.0
167.633865 148.0
167.711182 96.0
167.793671 228.0
167.878296 196.0
167.95517 148.0
167.985077 172.0
168.01857 1212.0
168.068665 312.0
168.118683 200.0
168.136749 156.0
168.15741 168.0
168.196121 172.0
168.219345 192.0
168.249008 164.0
168.278732 56.0
168.332962 176.0
168.353363 200.0
168.401474 68.0
168.451767 68.0
168.506012 88.0
168.560287 224.0
168.609375 136.0
168.664612 120.0
168.685776 120.0
168.71019 68.0
168.759171 144.0
168.829132 152.0
168.931854 140.0
168.942322 100.0
168.956192 232.0
169.007156 1592.0
169.033844 240.0
169.072021 136.0
169.108551 132.0
169.145859 104.0
169.230225 128.0
169.248352 92.0
169.302734 172.0
169.354538 120.0
169.443634 272.0
169.577362 180.0
169.733627 104.0
169.795151 164.0
169.865189 92.0
169.922256 112.0
169.9534 52.0
169.981934 80.0
170.016327 236.0
170.059799 184.0
170.135513 192.0
170.214157 124.0
170.275299 104.0
170.30249 76.0
170.338455 152.0
170.449356 232.0
170.477936 172.0
170.575378 228.0
170.620895 216.0
170.646896 48.0
170.710449 132.0
170.743118 160.0
170.841949 60.0
170.861969 196.0
170.943436 228.0
170.961655 108.0
170.982468 56.0
171.00589 132.0
171.053513 484.0
171.090317 184.0
171.11377 172.0
171.258453 132.0
171.353851 180.0
171.425201 176.0
171.516418 140.0
171.588608 224.0
171.607666 176.0
171.665192 192.0
171.782394 176.0
171.808487 112.0
171.895401 52.0
172.00029 156.0
172.030319 348.0
172.061646 10764.0
172.111252 140.0
172.149185 144.0
172.212128 96.0
172.239136 232.0
172.24556 224.0
172.297485 212.0
172.330658 144.0
172.440414 164.0
172.461319 160.0
172.482239 40.0
172.513611 116.0
172.581589 152.0
172.618195 60.0
172.652191 132.0
172.691422 148.0
172.772507 192.0
172.793442 140.0
172.851013 216.0
172.955688 48.0
173.064575 1048.0
173.094452 196.0
173.162659 192.0
173.335449 144.0
173.528046 160.0
173.659317 204.0
173.689392 184.0
173.77858 160.0
173.799576 48.0
173.823853 168.0
173.938675 244.0
174.001678 96.0
174.06752 164.0
174.125107 144.0
174.176193 144.0
174.196014 144.0
174.257721 124.0
174.277466 112.0
174.379959 136.0
174.422012 184.0
174.511398 84.0
174.569244 124.0
174.661301 180.0
174.682343 212.0
174.713913 168.0
174.798111 136.0
174.849747 148.0
174.871796 152.0
174.91391 128.0
174.934967 196.0
174.982361 128.0
175.016586 192.0
175.05484 256.0
175.136322 172.0
175.156174 124.0
175.174606 96.0
175.31163 112.0
175.612183 188.0
175.662292 148.0
175.699234 116.0
175.807419 144.0
175.883957 144.0
175.905075 112.0
175.979004 116.0
175.997482 152.0
176.065079 184.0
176.118195 180.0
176.16774 104.0
176.211426 80.0
176.27829 172.0
176.324921 156.0
176.356766 120.0
176.411728 152.0
176.514694 136.0
176.618103 192.0
176.62886 160.0
176.684677 148.0
176.727005 180.0
176.779938 88.0
176.81282 140.0
176.901688 68.0
176.9543 156.0
176.985046 136.0
177.02002 2396.0
177.05423 684.0
177.117554 124.0
177.157928 168.0
177.232758 120.0
177.306305 148.0
177.352005 124.0
177.391769 160.0
177.455399 120.0
177.539719 180.0
177.580032 76.0
177.715332 28.0
177.818832 160.0
177.840057 132.0
177.869263 76.0
177.932968 176.0
177.956863 156.0
178.00473 448.0
178.027634 680.0
178.067184 344.0
178.094955 124.0
178.114212 208.0
178.219818 76.0
178.257309 188.0
178.27829 148.0
178.400558 136.0
178.514374 168.0
178.520355 136.0
178.528793 176.0
178.581375 36.0
178.706406 136.0
178.759628 192.0
178.781845 148.0
178.826157 56.0
178.850113 104.0
178.933151 168.0
178.985886 184.0
179.035248 11376.0
179.070129 920.0
179.116394 108.0
179.137405 72.0
179.173325 152.0
179.209641 32.0
179.228287 76.0
179.364502 216.0
179.478851 300.0
179.507004 352.0
179.526855 80.0
179.561523 112.0
179.593521 48.0
179.612198 92.0
179.724258 140.0
179.761612 88.0
179.784897 200.0
179.855026 148.0
179.940445 164.0
179.977295 200.0
180.020126 8192.0
180.079895 1700.0
180.186157 48.0
180.20549 184.0
180.274338 100.0
180.349182 148.0
180.424026 100.0
180.44809 112.0
180.486328 120.0
180.522964 300.0
180.56575 76.0
180.644379 132.0
180.654846 52.0
180.663773 148.0
180.688797 152.0
180.70752 64.0
180.747528 168.0
180.769073 204.0
180.827942 180.0
180.849365 56.0
180.886841 112.0
180.91452 176.0
180.943054 64.0
181.032257 3580.0
181.082642 668.0
181.130127 244.0
181.156219 108.0
181.198547 172.0
181.229645 76.0
181.269836 104.0
181.291275 136.0
181.312714 208.0
181.348282 224.0
181.40921 208.0
181.46283 48.0
181.49501 44.0
181.52182 144.0
181.545502 144.0
181.709579 140.0
181.758987 184.0
181.803497 144.0
181.937714 176.0
181.954895 144.0
181.986038 144.0
182.035294 8448.0
182.120316 56.0
182.16597 164.0
182.209961 184.0
182.246582 120.0
182.335632 200.0
182.37558 48.0
182.402451 220.0
182.420822 96.0
182.436264 188.0
182.481033 140.0
182.547638 104.0
182.574539 144.0
182.604111 100.0
182.679428 156.0
182.703644 100.0
182.937775 64.0
182.95932 184.0
183.037506 624.0
183.067154 172.0
183.134354 180.0
183.188232 132.0
183.267365 64.0
183.301392 156.0
183.336075 96.0
183.359253 160.0
183.384933 96.0
183.429749 140.0
183.590714 200.0
183.622192 144.0
183.683044 108.0
183.733337 180.0
183.800247 140.0
183.852661 292.0
183.934067 172.0
183.962189 156.0
184.030396 1444.0
184.113388 160.0
184.157684 120.0
184.205231 124.0
184.330521 96.0
184.353836 32.0
184.378159 140.0
184.39978 148.0
184.434921 108.0
184.468735 220.0
184.511719 256.0
184.532974 184.0
184.618774 176.0
184.726959 156.0
184.745895 272.0
184.832474 164.0
184.890305 108.0
184.973053 132.0
185.013824 176.0
185.038315 160.0
185.067963 144.0
185.112747 196.0
185.173584 324.0
185.29277 56.0
185.311737 52.0
185.452209 144.0
185.509583 124.0
185.574646 100.0
185.664139 108.0
185.7211 80.0
185.793518 176.0
185.813324 208.0
185.978867 164.0
186.017639 296.0
186.037079 156.0
186.114609 160.0
186.310165 208.0
186.34549 128.0
186.487732 176.0
186.543869 212.0
186.587372 20.0
186.609131 136.0
186.647186 96.0
186.696136 72.0
186.875214 188.0
186.995407 172.0
187.030289 332.0
187.052567 148.0
187.090683 124.0
187.1642 68.0
187.365753 160.0
187.42569 196.0
187.482925 152.0
187.545609 140.0
187.578323 128.0
187.63829 192.0
187.744644 152.0
187.791 156.0
187.867386 60.0
187.8974 88.0
187.932861 80.0
187.976669 216.0
188.016846 180.0
188.029053 124.0
188.098755 204.0
188.108688 160.0
188.116837 272.0
188.137558 228.0
188.29866 88.0
188.380615 160.0
188.416122 176.0
188.459839 180.0
188.503555 136.0
188.52301 172.0
188.577972 140.0
188.621094 160.0
188.692169 80.0
188.746857 112.0
188.867188 172.0
188.916428 148.0
188.973877 80.0
189.009445 168.0
189.031342 104.0
189.07901 144.0
189.097809 308.0
189.138077 164.0
189.176407 144.0
189.206512 180.0
189.352356 124.0
189.551636 172.0
189.642227 140.0
189.699646 124.0
189.875122 168.0
189.904388 120.0
189.954666 112.0
189.987595 176.0
190.064758 948.0
190.100311 144.0
190.174194 184.0
190.212616 156.0
190.232239 136.0
190.278503 140.0
190.32518 32.0
190.440521 140.0
190.478989 296.0
190.498215 112.0
190.522934 132.0
190.605362 148.0
190.638336 84.0
190.682312 188.0
190.803268 204.0
190.9655 84.0
191.031693 180.0
191.072479 2984.0
191.108551 140.0
191.135132 176.0
191.182861 100.0
191.206818 176.0
191.241714 124.0
191.285446 148.0
191.455399 128.0
191.527023 72.0
191.560806 136.0
191.610733 120.0
191.637207 132.0
191.724045 204.0
191.745239 60.0
191.783554 160.0
191.813599 180.0
191.835648 124.0
191.884888 144.0
191.921112 164.0
191.951294 148.0
192.009598 184.0
192.039703 44.0
192.08078 9260.0
192.118088 460.0
192.163834 32.0
192.276978 160.0
192.314697 156.0
192.339447 108.0
192.373581 168.0
192.403961 240.0
192.430527 80.0
192.507858 172.0
192.550308 76.0
192.602783 120.0
192.760269 40.0
192.902313 172.0
193.022278 148.0
193.085434 4480.0
193.117462 120.0
193.161163 144.0
193.241394 36.0
193.260757 68.0
193.328232 84.0
193.354691 144.0
193.429581 56.0
193.454498 168.0
193.581863 224.0
193.604019 116.0
193.625336 80.0
193.662186 88.0
193.703735 140.0
193.736801 328.0
193.833939 112.0
193.85611 284.0
193.875519 192.0
193.917084 200.0
193.939255 80.0
194.09314 1680.0
194.133331 144.0
194.200211 108.0
194.219315 136.0
194.344162 80.0
194.42041 108.0
194.474594 68.0
194.522888 100.0
194.624496 96.0
194.680038 188.0
194.710587 200.0
194.751587 188.0
194.791016 88.0
194.863373 100.0
194.92215 336.0
195.021652 92.0
195.098297 124.0
195.194138 36.0
195.291489 240.0
195.335983 172.0
195.463974 56.0
195.569733 124.0
195.636841 148.0
195.661591 72.0
195.691956 172.0
195.74324 124.0
195.862091 48.0
195.967957 188.0
196.00975 164.0
196.065491 172.0
196.086975 152.0
196.118454 48.0
196.276703 120.0
196.286575 92.0
196.292358 148.0
196.326416 312.0
196.386124 128.0
196.453064 144.0
196.591751 308.0
196.667938 92.0
196.818695 72.0
196.857788 48.0
196.919235 64.0
197.000244 96.0
197.047729 144.0
197.082474 148.0
197.1595 176.0
197.288086 140.0
197.321625 116.0
197.486618 120.0
197.509003 108.0
197.634888 172.0
197.833603 48.0
197.856003 44.0
197.878403 160.0
197.94281 100.0
197.983154 176.0
198.024414 196.0
198.136078 184.0
198.189301 180.0
198.236938 136.0
198.274078 176.0
198.351852 48.0
198.449982 176.0
198.548126 284.0
198.591812 160.0
198.830521 208.0
198.884811 40.0
198.904465 116.0
198.935349 124.0
199.030777 1700.0
199.095398 196.0
199.115051 204.0
199.217773 176.0
199.381958 152.0
199.443787 140.0
199.485947 128.0
199.550613 196.0
199.637787 128.0
199.668716 52.0
199.722153 96.0
199.79248 128.0
199.854385 164.0
199.89241 180.0
199.91629 120.0
199.938812 172.0
199.980042 364.0
200.03241 556.0
200.073914 120.0
200.124603 320.0
200.237244 216.0
200.290756 104.0
200.318924 120.0
200.507706 52.0
200.552811 108.0
200.688385 132.0
200.798111 244.0
200.919403 128.0
200.941971 176.0
200.971893 208.0
201.028107 560.0
201.164932 140.0
201.204453 164.0
201.224213 80.0
201.266571 136.0
201.433197 180.0
201.458618 204.0
201.526428 132.0
201.549026 188.0
201.574463 52.0
201.611206 128.0
201.664902 164.0
201.695999 124.0
201.755356 152.0
201.850342 168.0
201.90239 132.0
201.925171 156.0
201.981598 76.0
202.036484 336.0
202.137436 180.0
202.220322 172.0
202.360809 136.0
202.394791 84.0
202.414612 140.0
202.524078 92.0
202.667709 208.0
202.720551 152.0
202.743225 172.0
202.768738 124.0
202.80275 136.0
202.856613 160.0
202.92749 128.0
202.948639 108.0
202.988098 316.0
203.031738 132.0
203.071243 548.0
203.143021 168.0
203.168549 160.0
203.202606 100.0
203.262558 140.0
203.293396 180.0
203.370026 96.0
203.389908 204.0
203.465652 164.0
203.500626 176.0
203.544205 148.0
203.619888 188.0
203.699417 48.0
203.735657 148.0
203.778961 144.0
203.804535 112.0
203.929581 168.0
203.960846 56.0
204.080048 2168.0
204.243332 232.0
204.344772 172.0
204.511917 180.0
204.563904 164.0
204.585052 84.0
204.740448 64.0
204.840134 128.0
204.884933 64.0
204.933289 132.0
204.961121 128.0
205.005386 152.0
205.035263 192.0
205.075287 3924.0
205.131897 344.0
205.142944 216.0
205.154343 140.0
205.233429 120.0
205.338943 172.0
205.384583 116.0
205.458755 140.0
205.481583 72.0
205.539215 120.0
205.578598 152.0
205.616058 184.0
205.637344 232.0
205.642136 136.0
205.672791 180.0
205.741302 180.0
205.781265 140.0
205.801254 236.0
205.821243 184.0
205.924042 228.0
205.961182 40.0
206.021164 64.0
206.082413 18432.0
206.138245 144.0
206.178329 40.0
206.201187 160.0
206.231415 264.0
206.284546 172.0
206.309814 72.0
206.34021 208.0
206.376205 72.0
206.438477 72.0
206.475662 140.0
206.575775 224.0
206.595795 348.0
206.621552 152.0
206.676865 108.0
206.744827 48.0
206.831451 252.0
206.85463 280.0
206.89769 148.0
206.940491 272.0
206.990784 136.0
207.031082 924.0
207.086853 3672.0
207.174088 144.0
207.230881 204.0
207.268631 36.0
207.351013 156.0
207.429138 168.0
207.57016 148.0
207.604034 236.0
207.632706 80.0
207.709885 212.0
207.79335 168.0
207.833527 28.0
207.862778 124.0
207.908127 152.0
207.942566 68.0
207.97258 24.0
208.046768 364.0
208.083908 284.0
208.140442 160.0
208.209579 100.0
208.246918 172.0
208.287125 64.0
208.344025 204.0
208.401352 284.0
208.45665 152.0
208.488251 128.0
208.529831 120.0
208.573654 128.0
208.751297 148.0
208.79422 160.0
208.81601 168.0
208.991882 208.0
209.025497 332.0
209.080704 80.0
209.135391 96.0
209.222366 240.0
209.264923 164.0
209.28508 116.0
209.319641 136.0
209.377243 104.0
209.480927 128.0
209.527023 160.0
209.613464 128.0
209.653809 188.0
209.682632 76.0
209.720367 264.0
209.779099 120.0
209.858475 132.0
209.911026 160.0
210.027542 160.0
210.149796 144.0
210.227707 192.0
210.343948 144.0
210.377319 144.0
210.449966 68.0
210.499069 76.0
210.59436 140.0
210.66658 124.0
210.7966 160.0
210.837067 156.0
210.990005 236.0
211.027847 32.0
211.061478 160.0
211.317078 160.0
211.348907 164.0
211.398102 180.0
211.537033 168.0
211.586243 200.0
211.635468 92.0
211.707855 112.0
211.733932 184.0
211.826614 120.0
211.881653 140.0
211.988861 112.0
212.039383 548.0
212.145386 144.0
212.174377 112.0
212.264252 108.0
212.339661 60.0
212.528229 64.0
212.557236 80.0
212.621078 212.0
212.69075 208.0
212.738693 216.0
212.760422 140.0
212.792679 216.0
212.848343 80.0
212.879456 260.0
212.914307 184.0
213.030869 1396.0
213.091507 164.0
213.135086 132.0
213.3647 216.0
213.498459 128.0
213.544998 116.0
213.591537 192.0
213.865051 224.0
213.964035 28.0
214.041077 4060.0
214.134293 136.0
214.167526 100.0
214.173172 88.0
214.183868 172.0
214.224716 172.0
214.246536 152.0
214.29567 176.0
214.339767 28.0
214.412628 140.0
214.480576 156.0
214.507782 104.0
214.581696 48.0
214.797501 76.0
214.820847 228.0
214.864594 72.0
214.896698 260.0
214.937546 44.0
214.981323 140.0
215.045563 1008.0
215.130173 144.0
215.153534 112.0
215.197327 96.0
215.279083 32.0
215.303864 64.0
215.428055 88.0
215.448502 148.0
215.501083 200.0
215.579987 128.0
215.632599 160.0
215.658737 196.0
215.796951 124.0
215.895721 128.0
215.922043 148.0
215.957138 96.0
216.037613 1248.0
216.17363 116.0
216.258514 52.0
216.317047 80.0
216.384384 148.0
216.624527 148.0
216.668472 196.0
216.861877 144.0
216.909775 236.0
216.951004 148.0
216.971954 168.0
217.000732 176.0
217.028473 172.0
217.055374 116.0
217.181488 72.0
217.251892 96.0
217.304703 52.0
217.357513 96.0
217.416199 172.0
217.703903 176.0
217.737427 164.0
217.799606 96.0
217.894836 180.0
217.930099 208.0
218.016342 172.0
218.042709 336.0
218.078049 160.0
218.141693 80.0
218.306351 88.0
218.468124 48.0
218.506378 104.0
218.679993 116.0
218.738861 192.0
218.835205 176.0
218.843292 136.0
218.869598 172.0
218.918472 132.0
218.947922 96.0
219.03627 124.0
219.090179 2628.0
219.137909 128.0
219.183594 60.0
219.210114 92.0
219.274948 96.0
219.322098 172.0
219.422333 108.0
219.460663 172.0
219.496048 176.0
219.55954 144.0
219.605164 284.0
219.637619 240.0
219.72612 80.0
219.870697 48.0
220.013794 160.0
220.097885 4292.0
220.214386 128.0
220.358185 116.0
220.425339 168.0
220.551041 124.0
220.663483 116.0
220.691925 104.0
220.751068 100.0
220.782303 128.0
220.822052 220.0
220.845718 64.0
220.87529 120.0
221.002502 44.0
221.032089 156.0
221.104614 2836.0
221.18895 28.0
221.241364 148.0
221.252014 212.0
221.292572 176.0
221.319214 72.0
221.485062 164.0
221.534439 108.0
221.576904 52.0
221.606537 224.0
221.653946 180.0
221.766556 68.0
221.819916 184.0
221.849564 148.0
221.899963 192.0
221.959259 212.0
221.991882 156.0
222.057129 212.0
222.091354 860.0
222.146118 192.0
222.210541 140.0
222.25293 84.0
222.285568 204.0
222.315247 144.0
222.336014 124.0
222.356781 100.0
222.380539 40.0
222.742783 76.0
222.793289 232.0
222.903229 140.0
222.937759 168.0
222.954834 164.0
223.02211 132.0
223.05777 164.0
223.103027 144.0
223.152908 164.0
223.179672 120.0
223.23616 168.0
223.390839 68.0
223.414627 220.0
223.438431 136.0
223.462234 112.0
223.5634 140.0
223.702774 164.0
223.765823 140.0
223.80452 308.0
224.025345 196.0
224.090469 188.0
224.141113 160.0
224.203705 200.0
224.287155 44.0
224.311005 176.0
224.401733 120.0
224.448151 184.0
224.564453 160.0
224.672028 128.0
224.701675 152.0
224.815063 144.0
224.907593 116.0
225.032593 1780.0
225.148331 140.0
225.218124 148.0
225.25293 160.0
225.280045 220.0
225.340683 172.0
225.424271 124.0
225.537842 124.0
225.600616 44.0
225.63208 136.0
225.669495 108.0
225.735168 212.0
225.854797 72.0
225.875977 348.0
225.899673 188.0
225.959503 136.0
225.994339 200.0
226.040085 5024.0
226.08519 140.0
226.153275 160.0
226.227859 228.0
226.266418 148.0
226.287949 136.0
226.304825 160.0
226.347794 160.0
226.358536 116.0
226.417496 352.0
226.450439 120.0
226.483826 220.0
226.531326 196.0
226.560852 140.0
226.590485 208.0
226.621201 268.0
226.650009 124.0
226.702103 132.0
226.726074 428.0
226.753052 36.0
226.800034 196.0
226.884949 180.0
226.918396 160.0
226.956345 192.0
226.961533 204.0
226.98465 172.0
227.049393 121936.0
227.133102 228.0
227.140396 284.0
227.163376 256.0
227.213043 104.0
227.260986 32.0
227.29808 132.0
227.334732 88.0
227.366043 72.0
227.417007 96.0
227.439087 172.0
227.484024 104.0
227.504196 136.0
227.541779 356.0
227.58815 132.0
227.631668 76.0
227.653702 84.0
227.763214 108.0
227.784943 156.0
227.82692 160.0
227.847839 124.0
227.859421 104.0
227.86586 196.0
227.887344 328.0
227.926529 284.0
227.948196 168.0
227.987656 208.0
228.052597 16684.0
228.150574 176.0
228.184372 84.0
228.215012 68.0
228.236603 184.0
228.269135 48.0
228.320267 144.0
228.359848 124.0
228.393005 108.0
228.425735 60.0
228.448593 120.0
228.500748 60.0
228.531937 76.0
228.59317 140.0
228.60878 84.0
228.61618 132.0
228.645187 88.0
228.702042 84.0
228.706696 64.0
228.722656 188.0
228.734634 156.0
228.78064 64.0
228.81398 52.0
228.855911 28.0
228.87999 44.0
228.920532 208.0
228.958298 176.0
228.983002 284.0
229.006531 204.0
229.045898 25584.0
229.126816 228.0
229.154099 104.0
229.17395 88.0
229.194382 128.0
229.224152 64.0
229.268021 104.0
229.286118 108.0
229.317856 188.0
229.40535 108.0
229.453201 116.0
229.494141 80.0
229.513382 252.0
229.551971 84.0
229.589676 104.0
229.619202 224.0
229.640289 172.0
229.669601 88.0
229.705338 236.0
229.747116 240.0
229.802338 124.0
229.851532 144.0
229.910965 160.0
230.00676 184.0
230.049591 3640.0
230.122269 40.0
230.167572 56.0
230.20079 76.0
230.258163 80.0
230.338486 88.0
230.375961 56.0
230.446793 108.0
230.495499 64.0
230.555756 120.0
230.567947 60.0
230.579468 92.0
230.603577 124.0
230.647934 144.0
230.712494 124.0
230.738129 140.0
230.794174 184.0
230.827957 96.0
230.900528 128.0
231.008972 112.0
231.03421 200.0
231.062607 164.0
231.116699 104.0
231.168152 88.0
231.301315 108.0
231.32251 64.0
231.346725 84.0
231.458755 168.0
231.47995 76.0
231.524811 156.0
231.576904 216.0
231.661682 152.0
231.702774 124.0
231.791962 156.0
231.834381 104.0
231.894547 136.0
232.032928 96.0
232.057693 168.0
232.079987 212.0
232.128433 52.0
232.413574 164.0
232.440887 112.0
232.55925 148.0
232.619949 184.0
232.67157 92.0
232.741394 120.0
232.817322 136.0
232.859833 264.0
232.881104 80.0
232.942902 188.0
232.990143 732.0
233.026917 104.0
233.066406 124.0
233.101425 184.0
233.306519 108.0
233.339661 204.0
233.419022 52.0
233.488968 228.0
233.534592 232.0
233.561966 180.0
233.624313 192.0
233.73233 124.0
233.820587 136.0
233.84494 44.0
233.933212 124.0
233.994522 116.0
234.07782 332.0
234.227646 168.0
234.285828 188.0
234.29776 148.0
234.414444 116.0
234.499786 120.0
234.554642 188.0
234.615616 196.0
234.664398 140.0
234.710129 156.0
234.737579 136.0
234.777222 96.0
234.880157 128.0
234.914474 132.0
234.937332 204.0
234.991959 428.0
235.088394 56.0
235.186066 100.0
235.241013 48.0
235.288208 312.0
235.567764 172.0
235.683853 112.0
235.763306 36.0
235.790817 124.0
235.928375 60.0
235.992722 172.0
236.099609 176.0
236.124069 36.0
236.264786 104.0
236.396347 192.0
236.489471 216.0
236.72084 128.0
236.790192 184.0
236.835403 148.0
236.994781 140.0
237.039886 136.0
237.091522 68.0
237.140564 124.0
237.450226 192.0
237.566788 96.0
237.763168 100.0
237.80307 144.0
237.912796 172.0
238.040222 3880.0
238.125458 60.0
238.199875 88.0
238.27597 116.0
238.314133 144.0
238.337433 120.0
238.514618 136.0
238.583313 88.0
238.604828 144.0
238.62912 40.0
238.686615 300.0
238.841629 160.0
238.97084 132.0
239.044266 2772.0
239.106232 172.0
239.149323 144.0
239.204727 268.0
239.227646 100.0
239.284775 40.0
239.30632 68.0
239.383301 64.0
239.426422 188.0
239.491104 204.0
239.67627 112.0
239.749908 96.0
239.870117 136.0
239.907104 168.0
239.971848 140.0
240.046692 3884.0
240.108139 204.0
240.134613 184.0
240.205322 148.0
240.271011 92.0
240.311127 144.0
240.351242 64.0
240.379013 116.0
240.40062 104.0
240.505554 156.0
240.573456 52.0
240.621994 72.0
240.70314 136.0
240.752548 112.0
240.89772 240.0
240.96051 136.0
241.051544 9316.0
241.106506 224.0
241.144913 52.0
241.178253 56.0
241.242065 112.0
241.277832 96.0
241.327301 80.0
241.379868 104.0
241.485016 136.0
241.567032 188.0
241.636597 80.0
241.770538 132.0
241.858139 208.0
242.05394 2004.0
242.144272 124.0
242.20932 120.0
242.261978 44.0
242.306549 124.0
242.350342 116.0
242.378433 48.0
242.399551 96.0
242.454086 100.0
242.642044 76.0
242.71759 168.0
242.91275 156.0
242.981232 148.0
243.050415 1796.0
243.117767 144.0
243.210876 84.0
243.369202 144.0
243.440628 156.0
243.465469 172.0
243.527283 40.0
243.574188 40.0
243.658066 76.0
243.696564 184.0
243.732635 124.0
243.759918 128.0
243.800995 136.0
243.922211 132.0
244.053268 604.0
244.189621 92.0
244.314041 160.0
244.335831 136.0
244.398056 80.0
244.647034 128.0
244.692856 152.0
244.818298 160.0
244.865005 68.0
244.961563 128.0
244.998947 104.0
245.046448 160.0
245.123581 136.0
245.195267 120.0
245.217072 152.0
245.348007 188.0
245.376053 64.0
245.472717 60.0
245.519501 88.0
245.620865 120.0
245.662979 88.0
245.709778 92.0
246.016647 208.0
246.084305 176.0
246.193604 208.0
246.296677 164.0
246.562256 96.0
246.674774 68.0
246.774811 164.0
246.809204 196.0
246.868622 148.0
246.893646 204.0
246.94368 164.0
246.965576 84.0
246.995087 332.0
247.396637 48.0
247.525787 120.0
247.672989 132.0
247.759125 128.0
247.820221 140.0
248.000549 1056.0
248.084915 140.0
248.263702 168.0
248.318665 248.0
248.365723 172.0
248.419037 108.0
248.462967 84.0
248.516296 140.0
248.538269 112.0
248.639389 180.0
248.688904 100.0
248.779938 92.0
248.93692 112.0
248.977859 120.0
248.991943 108.0
249.000946 176.0
249.053131 152.0
249.105499 192.0
249.144226 152.0
249.22113 76.0
249.301331 204.0
249.621994 48.0
249.817001 136.0
250.016663 5000.0
250.106491 112.0
250.248169 168.0
250.456009 128.0
250.525314 36.0
250.764801 144.0
250.827835 148.0
250.900345 120.0
250.925568 144.0
251.016296 812.0
251.114777 204.0
251.155777 100.0
251.20842 180.0
251.307205 84.0
251.363998 172.0
251.430283 68.0
251.464996 196.0
251.5439 180.0
251.648087 80.0
251.947586 144.0
252.014023 3416.0
252.052734 220.0
252.096634 32.0
252.210419 140.0
252.248352 76.0
252.295776 80.0
252.403275 120.0
252.474487 192.0
252.574844 32.0
252.601044 196.0
252.739746 204.0
252.868637 120.0
253.01535 724.0
253.051483 544.0
253.108917 136.0
253.140579 112.0
253.235596 44.0
253.397156 64.0
253.425659 108.0
253.451019 108.0
253.492203 244.0
253.663361 172.0
253.710907 160.0
253.819321 168.0
253.878967 188.0
254.055283 848.0
254.221725 148.0
254.269196 112.0
254.293518 176.0
254.323151 140.0
254.386627 136.0
254.421555 176.0
254.526337 60.0
254.551743 124.0
254.612076 156.0
254.647018 184.0
254.670715 104.0
254.735947 104.0
254.771683 192.0
254.843964 152.0
254.923416 156.0
254.969864 160.0
255.066879 12132.0
255.160034 72.0
255.198853 172.0
255.230286 104.0
255.30043 296.0
255.353378 164.0
255.408264 96.0
255.492157 192.0
255.549683 240.0
255.576157 116.0
255.600739 176.0
255.659302 160.0
255.687851 176.0
255.712128 120.0
255.732483 116.0
255.768448 196.0
255.806702 136.0
255.844955 176.0
255.89592 228.0
255.929001 128.0
255.955017 136.0
255.993988 168.0
256.07547 77852.0
256.188507 80.0
256.231873 136.0
256.27536 152.0
256.283051 128.0
256.320404 48.0
256.375092 144.0
256.406036 124.0
256.412415 92.0
256.471344 224.0
256.529663 184.0
256.564758 84.0
256.619049 104.0
256.689362 64.0
256.711884 64.0
256.790161 112.0
256.825378 92.0
256.896179 156.0
256.93576 116.0
257.000366 188.0
257.076508 8700.0
257.157349 180.0
257.223297 80.0
257.306 64.0
257.392273 152.0
257.424133 40.0
257.462463 68.0
257.496918 148.0
257.558502 60.0
257.606201 72.0
257.641327 136.0
257.676483 56.0
257.769135 40.0
257.840729 40.0
257.848602 60.0
257.983276 160.0
257.990845 144.0
258.003265 212.0
258.071716 13840.0
258.147644 88.0
258.243744 72.0
258.28067 80.0
258.309479 96.0
258.343048 48.0
258.378418 108.0
258.427856 40.0
258.488647 88.0
258.529236 172.0
258.559052 68.0
258.58429 72.0
258.602417 144.0
258.645477 68.0
258.707825 140.0
258.740082 108.0
258.785492 164.0
258.834351 132.0
258.866364 96.0
258.90863 204.0
258.955414 420.0
258.995483 220.0
259.042847 536.0
259.073975 1336.0
259.161072 104.0
259.211975 172.0
259.219513 224.0
259.377472 200.0
259.41748 216.0
259.468781 32.0
259.510437 164.0
259.598785 104.0
259.635498 84.0
259.68042 100.0
259.795898 104.0
259.83725 76.0
259.87796 96.0
259.924225 120.0
260.002625 788.0
260.097534 116.0
260.125763 152.0
260.201172 228.0
260.239685 104.0
260.312653 84.0
260.339417 164.0
260.376892 32.0
260.434692 192.0
260.462616 196.0
260.489288 96.0
260.524628 60.0
260.582458 108.0
260.614594 176.0
260.713287 168.0
260.74762 92.0
260.810638 68.0
260.858856 164.0
260.913513 132.0
260.951233 92.0
261.009888 5024.0
261.083923 116.0
261.132172 60.0
261.175293 188.0
261.214966 108.0
261.280151 180.0
261.334839 164.0
261.355988 144.0
261.379883 60.0
261.515045 76.0
261.563324 168.0
261.659912 232.0
261.695343 168.0
261.723785 116.0
261.785187 208.0
261.828766 192.0
261.877747 124.0
261.917542 200.0
261.959412 136.0
262.016998 24452.0
262.082031 204.0
262.122375 136.0
262.165985 220.0
262.186707 52.0
262.238831 180.0
262.281647 64.0
262.315979 56.0
262.330017 72.0
262.439636 84.0
262.465424 128.0
262.510101 56.0
262.552948 116.0
262.650665 320.0
262.710541 52.0
262.781525 52.0
262.845001 148.0
262.904144 56.0
263.012085 3564.0
263.07608 148.0
263.096802 128.0
263.143005 132.0
263.291565 52.0
263.328278 64.0
263.356476 136.0
263.387329 156.0
263.406281 200.0
263.49231 52.0
263.520905 200.0
263.639557 128.0
263.763275 80.0
263.785919 160.0
263.850677 116.0
263.894989 152.0
263.911835 76.0
263.966003 236.0
264.015778 11748.0
264.128693 52.0
264.173859 96.0
264.24765 72.0
264.283966 172.0
264.31311 28.0
264.338989 72.0
264.394012 76.0
264.45874 60.0
264.516663 160.0
264.61087 120.0
264.662689 116.0
264.715973 88.0
264.779266 44.0
264.844055 60.0
264.928253 108.0
264.951904 120.0
265.023712 1144.0
265.117615 64.0
265.141541 156.0
265.243683 80.0
265.333374 40.0
265.398224 36.0
265.455109 188.0
265.583069 100.0
265.616913 156.0
265.670654 40.0
265.69986 64.0
265.74527 36.0
265.790894 144.0
265.855621 52.0
265.927002 96.0
265.956207 60.0
265.992889 136.0
266.030121 1560.0
266.108795 32.0
266.154266 56.0
266.253021 88.0
266.352356 96.0
266.46283 84.0
266.563538 116.0
266.599304 76.0
266.667542 96.0
266.722809 60.0
266.752075 124.0
266.817078 96.0
266.848358 148.0
266.901611 76.0
266.947144 184.0
266.992676 132.0
267.032135 392.0
267.191101 52.0
267.249664 120.0
267.311493 88.0
267.340759 92.0
267.617462 56.0
267.656525 108.0
267.760742 48.0
267.845428 60.0
267.92688 104.0
268.001801 104.0
268.038269 832.0
268.161499 236.0
268.194092 124.0
268.321228 164.0
268.347321 64.0
268.397186 176.0
268.432098 44.0
268.474487 112.0
268.510345 112.0
268.803955 192.0
268.869232 140.0
269.045349 292.0
269.07489 152.0
269.247955 48.0
269.298584 232.0
269.336121 68.0
269.483154 188.0
269.594238 144.0
269.662872 32.0
269.79364 68.0
270.038971 260.0
270.513336 160.0
270.569 44.0
270.713074 92.0
270.758911 132.0
270.794952 212.0
270.893219 104.0
271.042511 300.0
271.29303 116.0
271.43399 196.0
271.575043 68.0
271.74234 176.0
271.932678 52.0
272.005981 144.0
272.040985 132.0
272.132904 40.0
272.323395 164.0
272.434113 152.0
272.543488 116.0
272.615784 148.0
272.7341 192.0
272.859039 176.0
272.995392 1028.0
273.095795 192.0
273.158295 148.0
273.352417 104.0
273.424805 36.0
273.62561 156.0
273.729614 184.0
273.790253 48.0
273.846252 40.0
273.961548 204.0
274.016754 1436.0
274.085754 272.0
274.113098 116.0
274.279999 168.0
274.314148 180.0
274.340515 96.0
274.406464 196.0
274.488892 64.0
274.533569 160.0
274.597717 80.0
274.634003 144.0
274.704926 96.0
274.785736 108.0
274.812134 100.0
274.861389 112.0
274.906372 252.0
275.012909 16756.0
275.079407 196.0
275.145508 124.0
275.164642 40.0
275.174072 116.0
275.239349 164.0
275.28418 48.0
275.363434 72.0
275.389862 40.0
275.424469 52.0
275.461884 164.0
275.553833 44.0
275.601501 184.0
275.650208 76.0
275.655579 120.0
275.70697 176.0
275.822723 52.0
275.875183 156.0
275.902069 108.0
276.016357 6208.0
276.107666 136.0
276.176514 112.0
276.231689 136.0
276.297272 80.0
276.391571 64.0
276.419769 76.0
276.44043 172.0
276.56366 52.0
276.669586 52.0
276.696075 52.0
276.739105 144.0
276.792084 132.0
276.852692 204.0
276.8815 212.0
277.01059 10592.0
277.077698 124.0
277.141693 176.0
277.192932 44.0
277.222748 80.0
277.265839 40.0
277.333221 60.0
277.363281 108.0
277.449493 80.0
277.529358 80.0
277.557556 124.0
277.613922 92.0
277.659393 112.0
277.801208 164.0
277.85437 140.0
277.878448 64.0
277.917511 92.0
277.958923 52.0
278.015015 2500.0
278.088348 84.0
278.204529 36.0
278.330688 96.0
278.372833 152.0
278.42038 56.0
278.472107 144.0
278.543274 136.0
278.636292 56.0
278.765869 84.0
278.802429 76.0
278.892151 44.0
278.918762 48.0
278.976868 100.0
279.02005 776.0
279.124878 100.0
279.183777 68.0
279.227966 136.0
279.27121 92.0
279.368469 204.0
279.58728 124.0
279.621796 108.0
279.680481 172.0
279.843597 68.0
279.976135 60.0
280.009888 292.0
280.056732 156.0
280.276611 68.0
280.446594 100.0
280.563263 76.0
280.786652 136.0
280.956787 68.0
280.990143 40.0
281.013489 80.0
281.050201 148.0
281.073578 56.0
281.13028 164.0
281.349548 116.0
281.407349 120.0
281.440735 84.0
281.474121 64.0
281.59436 76.0
281.72464 108.0
281.818176 104.0
281.853363 120.0
281.961884 164.0
282.0466 104.0
282.13327 188.0
282.242676 104.0
282.456726 124.0
282.763 140.0
282.925232 100.0
283.0625 1080.0
283.326385 148.0
283.692413 48.0
283.996826 156.0
284.064148 1036.0
284.705719 40.0
284.742676 212.0
285.066071 324.0
285.169464 156.0
285.246674 220.0
285.494904 180.0
285.825165 128.0
285.98877 176.0
286.066895 228.0
286.155029 160.0
286.192078 52.0
286.71759 68.0
286.764771 100.0
286.926575 152.0
286.997711 80.0
287.011292 184.0
287.064819 60.0
287.159241 124.0
287.584381 128.0
287.665375 108.0
287.80719 88.0
287.867981 148.0
287.989563 536.0
288.0466 184.0
288.257935 112.0
288.307129 88.0
288.486298 100.0
288.69931 196.0
288.780487 48.0
288.898865 236.0
289.027679 6832.0
289.100067 204.0
289.206787 72.0
289.309753 156.0
289.440399 140.0
289.56662 192.0
289.693298 60.0
289.724915 132.0
289.758789 128.0
289.94516 100.0
290.030151 1624.0
290.151947 48.0
290.236694 156.0
290.328247 212.0
290.355377 76.0
290.474121 136.0
290.630157 108.0
290.698029 112.0
290.775116 152.0
290.816833 120.0
290.843964 104.0
290.888092 140.0
290.953979 216.0
290.979767 60.0
291.042633 29860.0
291.166534 56.0
291.207275 112.0
291.245605 84.0
291.323273 108.0
291.403564 72.0
291.448669 80.0
291.48468 80.0
291.519287 184.0
291.594604 40.0
291.629822 200.0
291.706787 72.0
291.766815 176.0
291.799683 136.0
291.872223 212.0
291.954987 92.0
292.045563 4244.0
292.181793 128.0
292.213531 192.0
292.308777 40.0
292.332611 40.0
292.372589 188.0
292.454559 212.0
292.523224 64.0
292.557251 56.0
292.584503 112.0
292.628754 176.0
292.676422 68.0
292.741119 76.0
292.801544 160.0
292.854218 76.0
292.968811 144.0
293.040436 15224.0
293.150177 160.0
293.266449 104.0
293.292694 72.0
293.392273 80.0
293.429413 88.0
293.488586 108.0
293.535126 60.0
293.55899 52.0
293.593109 200.0
293.664734 96.0
293.718597 88.0
293.805756 132.0
293.83493 76.0
293.923218 104.0
293.974335 208.0
294.042236 1780.0
294.128784 108.0
294.166718 100.0
294.242279 96.0
294.288757 60.0
294.328979 144.0
294.391663 132.0
294.439484 28.0
294.603424 52.0
294.648621 88.0
294.733276 88.0
294.808441 88.0
294.837341 140.0
294.865845 192.0
294.907562 88.0
295.041626 296.0
295.06366 156.0
295.133179 144.0
295.47522 52.0
295.528076 116.0
295.571014 44.0
295.721619 148.0
295.766113 144.0
295.8414 60.0
295.875641 192.0
295.916565 76.0
295.968109 120.0
296.168121 108.0
296.181366 44.0
296.189453 120.0
296.263397 116.0
296.50592 156.0
296.824738 116.0
296.924194 84.0
297.04425 60.0
297.085419 108.0
297.126587 88.0
297.288818 128.0
297.473206 80.0
297.655182 152.0
297.682648 92.0
297.964294 72.0
298.029572 148.0
298.249542 108.0
298.531464 100.0
298.737823 112.0
299.226532 184.0
299.612274 64.0
300.105133 184.0
300.163757 132.0
300.281006 172.0
300.349976 108.0
300.59494 128.0
301.02298 36.0
301.257874 132.0
301.658722 136.0
301.845428 108.0
302.026794 108.0
302.374725 124.0
302.662079 184.0
302.849091 52.0
302.883728 56.0
302.963379 152.0
303.008209 760.0
303.229309 108.0
303.306458 52.0
303.504059 76.0
303.563019 36.0
303.885406 136.0
304.012482 632.0
304.135468 52.0
304.187561 124.0
304.232666 76.0
304.343781 124.0
304.454895 160.0
304.611206 116.0
305.006927 628.0
305.146393 68.0
305.278534 48.0
305.417664 116.0
305.664673 120.0
306.00412 236.0
306.882965 100.0
307.256989 156.0
307.616455 76.0
307.644379 56.0
307.994324 212.0
308.262604 128.0
308.318512 100.0
308.342987 140.0
308.684631 188.0
308.835968 152.0
308.874451 104.0
308.993408 136.0
309.115875 120.0
309.619965 172.0
309.753082 176.0
309.924744 92.0
309.991333 28.0
310.054413 88.0
310.299774 152.0
310.503174 68.0
310.776794 148.0
311.974426 96.0
312.069366 128.0
312.245178 116.0
313.265961 192.0
314.013245 100.0
314.071228 216.0
314.133179 156.0
314.239014 136.0
314.510742 60.0
314.588409 48.0
315.131226 172.0
315.362 92.0
315.386719 208.0
315.418549 92.0
315.577637 152.0
315.913635 100.0
316.274567 96.0
316.402008 192.0
316.734894 52.0
316.788025 96.0
317.075043 144.0
317.106934 180.0
317.142365 100.0
317.499451 152.0
317.571411 32.0
317.675171 144.0
317.798462 56.0
317.858765 168.0
317.922638 92.0
318.004272 144.0
318.043335 140.0
318.142731 84.0
318.177521 184.0
318.252777 84.0
318.341553 136.0
318.37027 112.0
318.413177 96.0
318.458771 128.0
318.501373 172.0
318.533478 104.0
318.561493 160.0
318.613983 144.0
318.654144 152.0
318.685425 144.0
318.741333 216.0
318.814545 120.0
318.889954 300.0
318.920288 308.0
318.952362 124.0
319.039703 69044.0
319.14032 132.0
319.174561 112.0
319.199646 68.0
319.235626 52.0
319.279694 124.0
319.345947 132.0
319.390442 116.0
319.421234 92.0
319.47171 176.0
319.509308 296.0
319.536438 204.0
319.624847 108.0
319.679901 160.0
319.745941 192.0
319.821716 92.0
319.896545 88.0
319.936066 100.0
319.988922 92.0
320.040771 8212.0
320.119629 32.0
320.214325 48.0
320.276337 48.0
320.333344 40.0
320.38385 44.0
320.4422 108.0
320.507904 28.0
320.559906 140.0
320.644714 184.0
320.682526 64.0
320.716614 144.0
320.7547 196.0
320.79303 124.0
320.820953 208.0
320.881073 196.0
320.926147 132.0
320.962585 180.0
321.036652 31400.0
321.121338 164.0
321.136749 104.0
321.151367 124.0
321.17691 132.0
321.206116 96.0
321.240662 108.0
321.288147 124.0
321.355255 140.0
321.415833 108.0
321.495697 72.0
321.579773 72.0
321.605896 92.0
321.650696 160.0
321.69693 96.0
321.745575 136.0
321.791992 80.0
321.873474 96.0
321.968567 212.0
322.038177 3744.0
322.096954 204.0
322.124268 116.0
322.154388 212.0
322.209473 124.0
322.236053 168.0
322.263458 64.0
322.292023 60.0
322.420685 112.0
322.535065 68.0
322.595825 96.0
322.661255 80.0
322.690765 100.0
322.742401 60.0
322.883179 76.0
322.960571 108.0
323.028259 284.0
323.094513 80.0
323.198517 72.0
323.293304 72.0
323.407837 96.0
323.440033 32.0
323.563324 56.0
323.599487 96.0
323.62619 60.0
323.651276 64.0
323.805786 80.0
323.871521 40.0
323.917023 200.0
323.944946 92.0
324.228027 56.0
324.274597 44.0
324.315918 112.0
324.353455 88.0
324.396484 108.0
324.425171 92.0
324.478943 104.0
324.873444 68.0
324.930847 68.0
325.002594 68.0
325.451263 76.0
325.799652 56.0
325.975708 76.0
326.00769 76.0
326.590515 88.0
326.85672 44.0
326.96109 104.0
327.551605 88.0
327.738922 52.0
328.463593 48.0
329.217926 76.0
329.727325 56.0
330.269684 108.0
330.363739 80.0
330.743683 56.0
330.902985 40.0
331.283234 40.0
331.692749 32.0
332.788361 84.0
332.871887 40.0
332.984467 92.0
333.5513 48.0
334.340576 100.0
335.057892 52.0
335.101624 60.0
335.47702 72.0
336.651886 68.0
336.732239 128.0
337.430206 44.0
338.703735 40.0
339.766846 48.0
340.254974 88.0
342.402435 108.0
342.641876 56.0
344.371979 60.0
344.442169 76.0
344.796875 72.0
345.654816 124.0
345.802856 96.0
347.993744 44.0
348.238831 52.0
349.886169 128.0
350.608826 40.0
351.444122 64.0
352.915771 76.0
354.727814 124.0
355.016541 156.0
355.609314 112.0
357.488434 60.0
359.078278 40.0
359.757507 76.0
361.06488 104.0
364.852997 52.0
365.796448 128.0
366.520081 100.0
366.794495 72.0
367.759521 72.0
368.297913 68.0
369.482971 112.0
369.70108 76.0
370.194916 48.0
370.306 60.0
370.666107 48.0
370.700592 100.0
371.080078 68.0
371.985474 68.0
373.303345 44.0
373.891937 124.0
375.537109 120.0
376.525146 80.0
379.597931 72.0
379.776337 44.0
380.024597 32.0
380.482605 60.0
381.205048 112.0
381.426605 84.0
381.585999 80.0
381.745422 108.0
384.335846 84.0
388.286957 48.0
389.173828 100.0
389.837677 108.0
392.759064 80.0
392.859161 64.0
394.053925 68.0
394.101318 60.0
394.322632 56.0
394.504456 76.0
395.580475 112.0
396.661926 108.0
397.435303 64.0
397.554352 96.0
399.632599 64.0
403.053741 52.0
405.146301 104.0
408.148499 68.0
408.804199 88.0
409.706116 96.0
410.399353 124.0
411.799713 92.0
414.295532 32.0
419.240509 76.0
419.375 108.0
422.241241 60.0
424.108276 80.0
424.382935 136.0
430.431702 56.0
431.807861 40.0
433.252502 124.0
434.5336 56.0
435.982788 72.0
436.552338 52.0
438.313202 40.0
439.230438 124.0
441.795349 52.0
446.274658 100.0
448.484833 48.0
450.721588 100.0
452.07901 48.0
452.722473 80.0
454.11261 40.0
454.341675 56.0
455.149017 56.0
456.031769 116.0
456.784393 52.0
457.36734 60.0
458.363922 60.0
459.097168 80.0
460.945618 72.0
462.378235 36.0
463.25174 92.0
464.881042 28.0
465.400452 56.0
466.199463 76.0
467.468079 104.0
470.934357 44.0
472.754517 80.0
473.993042 52.0
474.821045 48.0
475.116028 48.0
477.18335 88.0
477.352936 100.0
478.919708 68.0
479.804321 116.0
483.79303 108.0
485.668549 52.0
487.754303 64.0
488.81424 80.0
489.66391 116.0
490.66861 64.0
491.061066 64.0
491.921509 84.0
493.542969 120.0
493.963104 64.0
495.760742 44.0
495.880402 68.0
496.146362 84.0
497.326324 68.0
497.361847 64.0
498.138947 36.0
499.245697 88.0
501.23111 88.0
503.555389 100.0
507.116882 84.0
507.574158 68.0
509.320007 108.0
509.886139 76.0
514.557434 108.0
514.733521 104.0
516.37854 104.0
516.514221 132.0
518.50647 64.0
519.19104 80.0
520.166565 52.0
520.643311 48.0
521.211182 88.0
521.861145 68.0
521.933899 128.0
524.756958 48.0
525.003174 32.0
527.445862 52.0
529.243835 76.0
529.564392 32.0
532.430908 152.0
534.6745 120.0
534.738892 92.0
534.900024 84.0
535.544678 72.0
535.618347 72.0
538.385742 88.0
538.505859 128.0
539.573303 136.0
539.711975 80.0
540.489075 40.0
540.711243 96.0
540.938049 104.0
544.573425 76.0
544.791748 76.0
548.169678 80.0
549.549927 40.0
549.890564 100.0
550.796387 80.0
550.861816 96.0
551.623535 96.0
552.703918 104.0
553.953979 80.0
554.263184 84.0
554.38031 48.0
555.411804 28.0
556.125 64.0
557.247375 124.0
557.388367 100.0
559.839233 56.0
559.924011 88.0
561.21051 96.0
564.359863 92.0
570.870544 28.0
571.027527 184.0
571.222534 40.0
572.488586 56.0
577.25116 128.0
580.426025 60.0
587.226196 68.0
588.751282 72.0
589.833618 56.0
591.08136 104.0
591.546021 92.0
591.778381 116.0
595.556213 152.0
597.836426 56.0
600.423401 120.0
603.098999 72.0
604.952942 124.0
605.569885 72.0
608.954163 80.0
609.376648 64.0
609.450378 52.0
611.353394 68.0
613.032715 44.0
613.727783 128.0
614.107483 32.0
615.237488 76.0
617.075378 112.0
618.757568 136.0
620.035583 120.0
621.528259 56.0
623.002869 120.0
623.604126 120.0
627.606689 48.0
628.154968 60.0
628.549438 124.0
628.923767 68.0
633.404053 92.0
635.203613 52.0
635.344116 56.0
635.785645 56.0
636.17218 76.0
637.372559 60.0
638.594177 44.0
638.664612 40.0
640.637878 120.0
640.965393 100.0
641.837402 100.0
642.578857 92.0
644.992859 96.0
648.399231 44.0
651.286194 56.0
652.223389 56.0
652.536377 140.0
654.317078 92.0
660.891052 92.0
667.868164 52.0
670.427002 96.0
670.865173 144.0
673.341919 80.0
674.339111 68.0
676.423645 76.0
676.672119 124.0
677.775391 64.0
691.231079 68.0
696.904663 56.0
705.120239 60.0
712.257385 96.0
712.735535 52.0
713.484924 84.0
713.803955 72.0
717.637817 36.0
718.096436 168.0
718.277771 100.0
722.417786 84.0
724.028931 56.0
732.321594 80.0
732.763367 36.0
740.569397 136.0
742.059692 104.0
742.732178 32.0
743.925964 48.0
744.669922 68.0
744.919739 56.0
745.137085 64.0
745.957703 136.0
746.186035 56.0
750.34021 156.0
753.270813 68.0
754.314514 32.0
755.544983 136.0
760.191467 56.0
763.839661 172.0
765.259521 52.0
767.220947 212.0
774.066772 204.0
777.620422 136.0
780.776184 52.0
785.387939 76.0
787.185059 108.0
787.609497 76.0
788.469971 64.0
789.420349 60.0
790.701477 124.0
791.485229 76.0
792.61676 144.0
792.885742 96.0
793.272522 56.0
794.130432 148.0
797.741028 76.0
798.646362 64.0
801.968445 104.0
802.554749 92.0
806.325745 160.0
807.377319 60.0
809.15979 104.0
810.36615 160.0
810.439819 108.0
822.251221 84.0
822.75354 108.0
826.588806 64.0
833.148132 44.0
835.827454 116.0
840.610352 72.0
845.25061 88.0
846.628357 120.0
849.648315 68.0
855.133911 92.0
858.816284 140.0
861.203613 176.0
863.21991 120.0
863.477234 148.0
868.925049 156.0
871.861084 104.0
875.119934 116.0
875.909119 100.0
879.228699 72.0
879.565125 64.0
879.942932 44.0
881.047363 68.0
882.731934 72.0
884.040161 164.0
886.923645 148.0
887.842651 164.0
888.975769 192.0
889.919556 56.0
895.134399 120.0
900.131592 104.0
907.791321 72.0
909.06311 52.0
910.107605 88.0
914.574402 136.0
915.965393 168.0
916.109985 148.0
916.670288 64.0
917.333313 48.0
923.123535 168.0
926.113342 176.0
926.797913 72.0
927.149353 36.0
928.234497 224.0
933.22583 140.0
938.706116 212.0
938.968323 152.0
941.635498 88.0
945.438293 168.0
947.330261 224.0
949.254822 28.0
949.500122 200.0
949.592163 120.0
950.003113 68.0
952.427856 160.0
952.679749 168.0
956.480103 148.0
959.375427 192.0
963.850159 156.0
964.078796 100.0
964.70929 168.0
965.253357 220.0
965.908997 108.0
966.00177 140.0
966.348206 120.0
967.344604 100.0
969.834778 152.0
972.520569 136.0
973.079285 252.0
973.445618 120.0
973.669189 156.0
973.898987 224.0
975.502197 136.0
977.604492 172.0
978.706299 188.0
979.123535 64.0
981.703613 172.0
986.005066 48.0
987.030334 160.0
987.205444 152.0
989.207642 76.0
989.270203 100.0
991.105286 252.0
991.193054 56.0
991.374756 112.0
992.753967 168.0
994.102722 100.0
994.479309 76.0
996.895691 140.0
998.456421 136.0
1000.016724 204.0
1000.690308 120.0
1000.891785 236.0
1001.231873 76.0
1003.178894 156.0
1006.244995 140.0
1006.775818 180.0
1007.122803 144.0
1008.418091 120.0
1008.569763 84.0
1013.151367 148.0
1013.360413 140.0
1013.95166 200.0
1015.12262 64.0
1015.306519 128.0
1016.124817 84.0
1017.038635 168.0
1018.911987 148.0
1019.210632 168.0
1019.769836 68.0
1020.233887 96.0
1020.462769 144.0
1021.092346 120.0
1021.499451 144.0
1023.6698 92.0
1023.752563 180.0
1024.198364 172.0
1025.479126 132.0
1026.18042 260.0
1026.952026 108.0
1027.034912 212.0
1027.755859 136.0
1029.358032 188.0
1031.79248 148.0
1032.508667 164.0
1033.154663 208.0
1033.321045 204.0
1033.506592 224.0
1033.609009 92.0
1033.95459 36.0
1034.08252 60.0
1035.497559 176.0
1035.548828 36.0
1036.887817 128.0
1039.363281 56.0
1039.530029 68.0
1039.729004 100.0
1040.608398 136.0
1043.519043 184.0
1045.172119 128.0
1045.596802 220.0
1047.006714 124.0
1047.071167 60.0
1048.520752 112.0
1048.765747 68.0
1050.40918 196.0
1050.635742 52.0
1054.167725 204.0
1057.090698 136.0
1058.916382 196.0
1059.557617 140.0
1061.683716 68.0
1062.71521 224.0
1062.80603 72.0
1065.747437 68.0
1069.011719 240.0
1071.570801 204.0
1071.837891 204.0
1072.972046 104.0
1073.402466 72.0
1073.917603 164.0
1075.99939 248.0
1076.769897 36.0
1077.978516 128.0
1078.096069 160.0
1078.220337 56.0
1088.334839 28.0
1088.393921 164.0
1088.630371 68.0
1089.214966 168.0
1090.11499 68.0
1091.357422 128.0
1091.574463 56.0
1092.896606 88.0
1093.574463 172.0
1095.978149 76.0
1097.157959 164.0
1097.329346 68.0
1098.081055 140.0
1099.01123 84.0
1099.902222 204.0
1100.615234 176.0
1100.734131 148.0
1102.729248 60.0
1104.355835 68.0
1104.951172 208.0
1106.221802 204.0
1106.9104 132.0
1107.08252 188.0
1107.446899 184.0
1108.255127 180.0
1108.559937 112.0
1109.593872 164.0
1113.87439 144.0
1114.352783 132.0
1115.389526 196.0
1116.054321 212.0
1116.12085 132.0
1116.380127 44.0
1118.30957 140.0
1118.915283 120.0
1119.987427 188.0
1120.707031 120.0
1123.794189 148.0
1123.894165 80.0
1125.068848 196.0
1125.222412 160.0
1125.395996 144.0
1127.119385 56.0
1129.22522 184.0
1131.299561 152.0
1133.154785 184.0
1133.40271 76.0
1134.039307 244.0
1134.1604 184.0
1135.547974 212.0
1136.191895 136.0
1137.963745 156.0
1139.139038 112.0
1139.434692 176.0
1139.481689 108.0
1139.562256 144.0
1140.126831 196.0
1140.214111 36.0
1140.348511 152.0
1142.224609 84.0
1143.213623 136.0
1143.408813 40.0
1143.953979 144.0
1146.493286 184.0
1148.853271 136.0
1150.344727 124.0
1151.526367 176.0
1153.999756 196.0
1155.907227 180.0
1156.996948 184.0
1157.382935 180.0
1157.443726 224.0
1157.491211 164.0
1158.934082 220.0
1159.388062 44.0
1160.777832 160.0
1161.279663 96.0
1161.422119 212.0
1162.21582 48.0
1163.098145 188.0
1164.408569 232.0
1164.904419 200.0
1165.278076 192.0
1165.352783 64.0
1165.835327 56.0
1165.984741 56.0
1166.732544 112.0
1167.130981 248.0
1168.466797 72.0
1168.6427 240.0
1169.610107 48.0
1169.895996 200.0
1171.959717 248.0
1172.545776 180.0
1172.702515 224.0
1173.254639 68.0
1173.356934 180.0
1174.004639 116.0
1174.966431 60.0
1176.836548 184.0
1177.814697 144.0
1178.195679 36.0
1179.569336 128.0
1179.986328 84.0
1180.088867 36.0
1180.533447 192.0
1181.060059 172.0
1182.359985 108.0
1182.407959 120.0
1182.585938 216.0
1183.188232 184.0
1184.434692 176.0
1185.154053 112.0
1185.955811 120.0
1186.627686 176.0
1186.847046 176.0
1187.15564 72.0
1188.294312 172.0
1188.959961 48.0
1189.769897 112.0
1190.765625 164.0
1191.548706 84.0
1191.754883 192.0
1192.627563 120.0
1196.665894 240.0
1197.42334 208.0
1198.346436 140.0
1198.766724 360.0
1198.821899 188.0
1200.283325 112.0
1200.579834 200.0
1201.676636 168.0
1202.214844 172.0
1203.070801 152.0
1204.762695 144.0
1205.039062 212.0
1205.453735 164.0
1205.564209 108.0
1207.306396 168.0
1209.312866 160.0
1209.887329 172.0
1210.032715 180.0
1210.946899 120.0
1212.561157 208.0
1213.566406 144.0
1213.77124 104.0
1214.474854 52.0
1214.648315 132.0
1215.036743 108.0
1215.348999 140.0
1215.730591 108.0
1215.813965 156.0
1216.070679 36.0
1216.244263 116.0
1216.899414 216.0
1217.994141 128.0
1218.049683 172.0
1218.265015 104.0
1219.453247 172.0
1219.856445 160.0
1219.939819 92.0
1220.134521 256.0
1220.27356 192.0
1220.343018 56.0
1220.398682 164.0
1220.461304 44.0
1221.706299 160.0
1222.026245 152.0
1223.216309 200.0
1223.613159 60.0
1225.828247 112.0
1225.918823 128.0
1226.023315 160.0
1226.232422 232.0
1226.497314 204.0
1226.964355 196.0
1227.38269 248.0
1227.452393 208.0
1228.463745 120.0
1229.691895 100.0
1230.487671 56.0
1231.199951 124.0
1232.052124 192.0
1232.380493 104.0
1232.876587 52.0
1233.128174 140.0
1233.708374 188.0
1234.162842 92.0
1234.67334 148.0
1234.750244 88.0
1235.386841 200.0
1236.198486 184.0
1236.380371 144.0
1236.492432 224.0
1238.179688 148.0
1238.298706 156.0
1238.396851 108.0
1239.146362 152.0
1240.113403 132.0
1240.491943 44.0
1240.779419 48.0
1242.343384 156.0
1242.43457 96.0
1243.150269 184.0
1243.810059 176.0
1244.912354 148.0
1245.523315 136.0
1245.706055 156.0
1246.520996 88.0
1246.591309 148.0
1247.72998 240.0
1247.990112 244.0
1248.862183 168.0
1249.882324 136.0
1250.030029 180.0
1251.867432 140.0
1252.008301 168.0
1252.39563 156.0
1252.458984 100.0
1252.543579 156.0
1253.177612 212.0
1253.6427 80.0
1255.094849 124.0
1255.334595 176.0
1255.43335 196.0
1255.722534 228.0
1255.821289 80.0
1255.934082 96.0
1256.090332 164.0
1256.766602 160.0
1257.091187 144.0
1257.204102 152.0
1257.994629 120.0
1258.93103 164.0
1259.357422 176.0
1259.668213 164.0
1260.798828 112.0
1261.236938 232.0
1261.335938 152.0
1261.498535 160.0
1261.896118 172.0
1262.212646 112.0
1262.431885 172.0
1262.537964 128.0
1263.641479 112.0
1264.370239 124.0
1267.472046 96.0
1270.159058 156.0
1271.265869 168.0
1271.400757 148.0
1271.549805 128.0
1272.472656 136.0
1272.820557 180.0
1272.983887 108.0
1273.104614 164.0
1274.113281 84.0
1274.262451 132.0
1274.582153 168.0
1275.243164 132.0
1275.534546 144.0
1275.841187 172.0
1276.956665 180.0
1277.426147 56.0
1277.853027 188.0
1277.916992 56.0
1278.329712 184.0
1278.450684 72.0
1279.034302 216.0
1279.084106 172.0
1279.48999 212.0
1280.610962 220.0
1281.149292 156.0
1281.313232 112.0
1281.519775 104.0
1282.988037 156.0
1283.929199 108.0
1284.069092 212.0
1284.157471 180.0
1284.298096 152.0
1284.51416 220.0
1285.277588 116.0
1285.455933 220.0
1286.05542 188.0
1287.147705 168.0
1288.18335 252.0
1288.31189 156.0
1289.834106 124.0
1289.934204 148.0
1290.456055 124.0
1291.121094 200.0
1291.335693 200.0
1291.636108 56.0
1292.229858 212.0
1292.959717 172.0
1293.032837 204.0
1294.004883 132.0
1294.054932 112.0
1295.902954 96.0
1296.275513 136.0
1297.085449 252.0
1297.178589 120.0
1297.443848 180.0
1297.565674 192.0
1298.419067 128.0
1298.662964 92.0
1298.86377 132.0
1299.193726 164.0
1299.322876 124.0
1299.487915 160.0
1299.55249 104.0
1299.717529 192.0
1299.968628 104.0
1300.259766 156.0
1300.85144 176.0
1301.741821 208.0
1302.697144 176.0
1303.135376 180.0
1305.543457 188.0
1306.190552 164.0
1306.615234 152.0
1306.759033 132.0
1306.996582 128.0
1307.140503 164.0
1307.305908 68.0
1307.672974 180.0
1307.881714 60.0
1308.378418 152.0
1309.076904 156.0
1310.099731 92.0
1310.452759 240.0
1310.539185 228.0
1311.101318 144.0
1311.187744 84.0
1311.389526 128.0
1311.807617 140.0
1311.886963 208.0
1312.254639 176.0
1312.348389 124.0
1312.564697 116.0
1312.831543 260.0
1313.062256 124.0
1313.588867 212.0
1314.9021 132.0
1315.212402 224.0
1315.833252 140.0
1316.591431 144.0
1317.985718 196.0
1318.925171 148.0
1319.50354 216.0
1320.319824 140.0
1320.37854 204.0
1320.703979 140.0
1320.906494 168.0
1321.203125 168.0
1322.375488 140.0
1322.911133 84.0
1323.070312 148.0
1323.287598 120.0
1324.330322 160.0
1324.453491 204.0
1325.119995 188.0
1325.801147 196.0
1326.069336 160.0
1326.64917 164.0
1326.830444 208.0
1326.939209 128.0
1327.192993 88.0
1327.276611 164.0
1328.208374 128.0
1328.911987 208.0
1328.977295 156.0
1329.223999 92.0
1329.550659 40.0
1330.414429 208.0
1331.815918 164.0
1332.142822 168.0
1332.244507 44.0
1333.080078 160.0
1333.181763 196.0
1333.545166 64.0
1333.661499 140.0
1333.748779 136.0
1333.894165 140.0
1334.163086 180.0
1334.491699 188.0
1335.406616 80.0
1335.893921 132.0
1336.104858 88.0
1336.25769 120.0
1336.475952 108.0
1336.890747 188.0
1336.956299 144.0
1337.305664 136.0
1337.968018 156.0
1338.921997 172.0
1338.978394 224.0
1339.446411 144.0
1339.919922 156.0
1340.772461 168.0
1340.859863 124.0
1341.486816 152.0
1341.596191 200.0
1341.989868 128.0
1342.657471 204.0
1342.765137 124.0
1343.054565 160.0
1343.185913 180.0
1343.904541 168.0
1344.024902 180.0
1344.2146 300.0
1344.528442 208.0
1344.747437 72.0
1345.057739 232.0
1345.86438 396.0
1346.127197 176.0
1346.653076 64.0
1347.266602 196.0
1347.624634 156.0
1348.457764 152.0
1348.750122 116.0
1348.859741 184.0
1349.057129 132.0
1349.137573 204.0
1349.949219 128.0
1350.951172 152.0
1351.302368 156.0
1351.390137 100.0
1351.703247 112.0
1352.341553 124.0
1352.553833 148.0
1353.703247 124.0
1354.163452 172.0
1355.014404 124.0
1355.256226 176.0
1355.358887 176.0
1355.446777 100.0
1355.659302 76.0
1355.732544 184.0
1355.791138 100.0
1356.173584 120.0
1356.428833 108.0
1356.543823 180.0
1356.854004 132.0
1357.059326 160.0
1357.411377 80.0
1357.792725 396.0
1357.880737 200.0
1358.643555 140.0
1358.731567 132.0
1358.922363 64.0
1359.311279 140.0
1360.103882 132.0
1360.471924 156.0
1361.065674 172.0
1361.13916 132.0
1361.96167 120.0
1362.835938 144.0
1362.931396 132.0
1363.04895 136.0
1363.357666 196.0
1363.88208 212.0
1363.953003 176.0
1364.011841 44.0
1364.136719 152.0
1364.188232 128.0
1365.644165 208.0
1365.894287 124.0
1366.10022 148.0
1366.335693 172.0
1367.211304 168.0
1368.293335 172.0
1368.536377 196.0
1368.801392 88.0
1369.118164 120.0
1369.370117 124.0
1369.47168 164.0
1370.444092 140.0
1371.06311 168.0
1371.674805 200.0
1372.043457 232.0
1372.213013 96.0
1372.367798 48.0
1372.839844 108.0
1373.459351 136.0
1374.613525 204.0
1374.684082 120.0
1374.942383 160.0
1375.200684 188.0
1375.820801 144.0
1376.278564 196.0
1376.492676 164.0
1377.726196 180.0
1377.910889 64.0
1377.969971 108.0
1378.317261 124.0
1378.472412 120.0
1378.797607 164.0
1378.945435 168.0
1379.093262 160.0
1379.743774 176.0
1382.221558 204.0
1382.650757 128.0
1382.939453 196.0
1382.991333 160.0
1383.699585 264.0
1384.138794 156.0
1384.523926 120.0
1385.781372 224.0
1385.96106 84.0
1386.035156 108.0
1386.087036 44.0
1386.161133 100.0
1386.576172 148.0
1387.252441 192.0
1387.754761 148.0
1387.824463 204.0
1387.969849 160.0
1388.132935 200.0
1388.830078 176.0
1389.041626 164.0
1389.134277 116.0
1389.727783 184.0
1389.971558 200.0
1390.262085 156.0
1390.61084 60.0
1390.930054 200.0
1391.241821 140.0
1391.434937 156.0
1391.523926 172.0
1391.650146 92.0
1391.709595 140.0
1392.333374 176.0
1392.65271 112.0
1392.719604 148.0
1393.492188 180.0
1393.670532 148.0
1393.833984 156.0
1393.915771 160.0
1394.733276 156.0
1395.461792 124.0
1395.573364 56.0
1395.625366 144.0
1395.766724 104.0
1395.947021 180.0
1396.964111 100.0
1397.328735 56.0
1397.656128 84.0
1398.035645 164.0
1398.191895 156.0
1398.519409 200.0
1399.844604 220.0
1400.187134 200.0
1400.86499 212.0
1401.759033 256.0
1401.841064 40.0
1402.087036 88.0
1403.1604 120.0
1403.607788 192.0
1403.853882 136.0
1404.390869 168.0
1404.599731 112.0
1405.024902 132.0
1405.912842 220.0
1405.965088 148.0
1406.166626 92.0
1407.540283 36.0
1407.95105 152.0
1408.257202 188.0
1408.317017 160.0
1408.406616 168.0
1409.026733 124.0
1409.123779 108.0
1409.336426 312.0
1409.430176 156.0
1409.549683 176.0
1409.721558 104.0
1410.192383 108.0
1410.566162 132.0
1410.713135 172.0
1410.847046 180.0
1411.657837 52.0
1412.734863 152.0
1412.921875 260.0
1413.034058 176.0
1413.228638 136.0
1413.430664 156.0
1414.707275 224.0
1414.792847 44.0
1414.867798 160.0
1415.099854 80.0
1415.245483 184.0
1415.474243 48.0
1415.915527 176.0
1416.118286 104.0
1417.759155 156.0
1417.826538 96.0
1418.516113 264.0
1418.718506 172.0
1418.81604 36.0
1418.890991 264.0
1419.070923 116.0
1419.165894 196.0
1419.505859 188.0
1419.633301 156.0
1420.705933 160.0
1420.923462 140.0
1421.253662 68.0
1421.703857 32.0
1421.884033 240.0
1422.461914 64.0
1422.874878 44.0
1423.468018 128.0
1424.504517 128.0
1424.63501 212.0
1424.699829 228.0
1425.090576 100.0
1425.278442 192.0
1425.36853 164.0
1425.556396 176.0
1425.78186 80.0
1426.05249 144.0
1426.210327 124.0
1426.338135 184.0
1426.668823 176.0
1426.992188 96.0
1427.277832 120.0
1427.736572 132.0
1428.902588 52.0
1429.113159 140.0
1429.278687 152.0
1429.617432 104.0
1430.159302 144.0
1430.35498 176.0
1430.663574 180.0
1430.716309 160.0
1430.814209 96.0
1430.881958 116.0
1431.303589 132.0
1431.845825 84.0
1432.056763 260.0
1432.116943 192.0
1432.320312 104.0
1432.380615 176.0
1432.644287 76.0
1432.742188 152.0
1433.209351 108.0
1433.563477 112.0
1434.264404 128.0
1436.006226 76.0
1436.081665 104.0
1436.795288 184.0
1437.009521 80.0
1437.907593 116.0
1438.10376 128.0
1438.269897 156.0
1438.360474 160.0
1438.473633 132.0
1438.647339 144.0
1439.054932 124.0
1439.160645 200.0
1442.12207 164.0
1442.190063 128.0
1442.258179 76.0
1442.477417 168.0
1443.021729 132.0
1443.203125 124.0
1443.634155 264.0
1443.959351 128.0
1444.360229 204.0
1445.018433 100.0
1445.26062 96.0
1446.426025 152.0
1446.607788 84.0
1447.08374 196.0
1447.156982 168.0
1447.228516 244.0
1447.417847 224.0
1447.508789 100.0
1447.64502 92.0
1448.303955 52.0
1448.553955 108.0
1449.660156 96.0
1449.938477 168.0
1450.592407 156.0
1451.380859 164.0
1451.43396 84.0
1451.729736 228.0
1451.820068 176.0
1452.20752 96.0
1452.488159 216.0
1452.624756 84.0
1452.852295 132.0
1452.928223 76.0
1453.292358 40.0
1453.421387 48.0
1454.263794 164.0
1455.060913 132.0
1455.432861 172.0
1455.668335 232.0
1455.729004 152.0
1455.82019 148.0
1456.070801 40.0
1456.161987 168.0
1456.906372 96.0
1457.065918 204.0
1457.134277 200.0
1457.71936 200.0
1458.099365 136.0
1458.220947 184.0
1458.730225 220.0
1459.300415 176.0
1459.657837 176.0
1460.357544 176.0
1460.463989 160.0
1461.034546 116.0
1461.55188 36.0
1461.932373 124.0
1462.685913 176.0
1463.1427 136.0
1463.30249 168.0
1463.531006 144.0
1463.700806 160.0
1464.109741 108.0
1464.170654 168.0
1464.661499 188.0
1465.084717 200.0
1465.138062 116.0
1465.259888 116.0
1465.640869 224.0
1465.99707 196.0
1466.204224 160.0
1466.814575 52.0
1467.073853 128.0
1467.729492 156.0
1468.016113 116.0
1468.130371 156.0
1468.644653 32.0
1469.239746 280.0
1469.472046 256.0
1469.651733 124.0
1469.842407 212.0
1470.109497 148.0
1470.162964 192.0
1470.460571 152.0
1470.811768 152.0
1470.90332 240.0
1471.216309 160.0
1471.930908 252.0
1472.033325 140.0
1472.125 104.0
1472.231812 104.0
1472.629028 96.0
1473.312378 192.0
1473.94043 120.0
1474.233398 164.0
1474.325073 160.0
1474.669067 160.0
1475.081787 96.0
1475.364624 144.0
1475.571045 72.0
1475.685791 84.0
1475.915161 140.0
1476.16748 132.0
1476.328125 132.0
1477.330078 180.0
1477.414307 156.0
1478.011108 180.0
1478.26355 152.0
1479.947632 216.0
1480.02417 136.0
1480.161987 148.0
1480.430054 80.0
1480.705811 252.0
1481.172974 112.0
1481.372192 176.0
1482.695068 160.0
1482.904663 92.0
1483.111694 140.0
1483.525635 60.0
1483.625244 152.0
1483.885986 136.0
1484.023926 192.0
1484.430298 136.0
1484.58374 140.0
1485.120605 212.0
1485.235718 136.0
1485.642212 280.0
1485.887695 48.0
1486.025879 116.0
1486.179321 52.0
1486.440186 28.0
1486.609009 184.0
1486.747192 28.0
1486.885254 204.0
1487.054199 76.0
1487.414917 200.0
1487.837158 120.0
1488.013672 144.0
1488.290161 140.0
1488.359253 164.0
1489.088867 128.0
1489.419067 208.0
1489.534302 188.0
1489.603394 200.0
1490.01062 72.0
1490.26416 128.0
1490.354248 116.0
1490.494629 84.0
1490.909668 148.0
1491.770508 220.0
1491.893555 148.0
1492.075439 144.0
1492.263794 168.0
1492.800781 136.0
1492.908447 224.0
1493.478149 176.0
1493.800659 192.0
1494.016113 200.0
1494.354614 88.0
1494.462402 228.0
1494.889648 144.0
1495.301147 48.0
1495.809204 56.0
1496.009399 232.0
1496.186401 160.0
1496.44043 164.0
1496.648438 180.0
1497.510864 244.0
1497.626465 112.0
1497.996216 168.0
1498.987671 228.0
1499.333984 220.0
1499.545044 204.0
1499.737671 96.0
1499.799316 120.0
1500.328979 172.0
1500.539429 216.0
1501.449341 144.0
1501.818359 228.0
1502.19751 180.0
1502.390381 88.0
1502.861084 156.0
1503.653076 152.0
1503.848877 256.0
1503.918335 168.0
1504.134399 120.0
1504.188477 168.0
1504.342896 364.0
1504.45874 160.0
1504.643921 156.0
1504.890991 128.0
1505.087646 128.0
1505.169067 112.0
