>compound Indomethacin (Indocid, Indocin)
>formula C19H16ClNO4
>ionization [M+H]+
>parentmass 358.083282
#inchi InChI=1S/C19H16ClNO4/c1-11-15(10-18(22)23)16-9-14(25-2)7-8-17(16)21(11)19(24)12-3-5-13(20)6-4-12/h3-9H,10H2,1-2H3,(H,22,23)
#inchikey CGIGDMFJXJATDK
#Ion_Source LC-ESI
#Instrument qTof
#Compound_Source Commercial
#PI Dorrestein
#Data_Collector Garg_Neha
#Scan -1
#Precursor_MZ 358.084
#ExactMass 357.077
#Charge 1
#CAS_Number 53-86-1
#Pubmed_ID N/A
#Smiles C1=C(C=C2C(=C1)N(C(=C2CC(O)=O)C)C(C3=CC=C(C=C3)Cl)=O)OC
#INCHI_AUX N/A
#Library_Class 1
#SpectrumID CCMSLIB00000078256
#IonMode Positive
#UpdateWorkflowName UPDATE-SINGLE-ANNOTATED-GOLD
#LibraryQualityString Gold
#TaskID 77f51c88eb8b467eb4a01dd2d0cb90d2
##Scan# 1814
#SpectrumFile Plate4_21_40_GH3_01_16504.mzXML
#LibraryName FDALibrary_2_04302014.mgf
#MQScore -1
#Organism FDALibrary_2_04302014
#TIC_Query 0
#RT_Query -1
#MZErrorPPM -1
#SharedPeaks 0
#MassDiff 0
#LibMZ -1
#SpecMZ 358.084
#SpecCharge 0
#internalFilename spec-00000.mgf

>collision 10
45.111496 176.0
45.972439 188.0
46.138577 180.0
46.469032 164.0
47.237389 148.0
47.470993 160.0
47.966545 204.0
50.454365 224.0
50.763027 172.0
51.840733 232.0
52.980446 196.0
53.745197 228.0
54.893749 144.0
55.531147 200.0
56.322987 172.0
56.764484 152.0
58.564476 216.0
58.90004 212.0
59.182961 188.0
59.308582 156.0
59.526436 244.0
60.021919 148.0
60.869884 152.0
60.930458 188.0
61.277401 148.0
61.542545 172.0
62.04163 236.0
62.09494 188.0
63.287865 160.0
63.451054 168.0
63.768528 176.0
64.340378 152.0
64.455376 184.0
64.546494 164.0
64.588074 172.0
64.780159 208.0
65.153938 168.0
65.620667 140.0
66.515274 176.0
66.630577 184.0
67.151474 156.0
67.368561 168.0
67.507492 176.0
67.590919 172.0
68.307869 172.0
68.431297 200.0
68.658691 196.0
68.798943 144.0
69.185783 164.0
69.374634 180.0
69.392876 200.0
71.005386 172.0
72.416061 140.0
72.490608 232.0
72.748405 156.0
72.828217 148.0
73.955254 148.0
73.975792 196.0
74.925468 168.0
75.408623 164.0
75.434555 260.0
79.280151 216.0
79.599457 184.0
80.563019 148.0
80.827621 204.0
80.861626 196.0
80.956512 156.0
81.406616 168.0
82.408119 168.0
83.359398 148.0
89.356613 156.0
89.904938 164.0
90.116425 168.0
90.140991 184.0
90.364105 156.0
90.392487 204.0
90.907913 192.0
92.306129 244.0
93.203209 216.0
93.243561 164.0
93.391602 272.0
95.784058 144.0
95.825287 196.0
97.121048 140.0
99.264824 156.0
99.278709 156.0
101.542282 184.0
102.329994 276.0
102.553596 180.0
102.900566 212.0
103.173302 224.0
107.960197 160.0
108.639557 144.0
108.973808 148.0
109.289848 164.0
110.246964 152.0
110.272041 156.0
110.767937 156.0
112.085213 200.0
112.412056 148.0
112.836601 232.0
112.995277 152.0
113.590508 204.0
113.694466 212.0
114.008774 184.0
114.261803 224.0
114.996964 152.0
116.407784 168.0
116.809685 160.0
116.999062 148.0
119.085754 148.0
119.590172 160.0
119.633705 144.0
120.209106 176.0
120.401215 180.0
121.521965 140.0
121.78978 204.0
123.208405 160.0
123.316681 212.0
124.033821 224.0
124.730804 168.0
126.641724 192.0
128.061752 244.0
128.247284 228.0
129.007874 260.0
129.286194 184.0
130.633942 148.0
130.866074 184.0
131.075623 204.0
132.725967 176.0
134.204422 152.0
135.246307 188.0
135.373642 180.0
137.204559 156.0
138.421875 160.0
138.955551 156.0
138.9944 27764.0
139.156998 168.0
139.997498 2636.0
140.803665 240.0
140.990921 6708.0
141.165375 124.0
141.302856 144.0
141.994965 536.0
150.026352 164.0
151.005508 148.0
154.083115 236.0
159.06839 280.0
162.414795 188.0
166.97908 156.0
173.081558 152.0
174.034683 196.0
174.090103 3676.0
174.22641 148.0
174.26741 152.0
175.094406 652.0
202.08461 144.0
203.091156 320.0
218.071259 152.0
250.029968 152.0
265.166534 140.0
268.280457 160.0
293.072418 172.0
302.492981 164.0
312.069672 280.0
313.081635 132.0
314.079559 220.0
314.186279 160.0
317.036163 168.0
318.139221 184.0
330.211487 168.0
333.449066 188.0
335.487427 160.0
346.3591 196.0
356.231415 172.0
356.290009 260.0
356.93045 152.0
357.074463 148.0
357.517303 144.0
358.083282 5564.0
358.262817 140.0
358.643402 208.0
359.053345 180.0
359.084991 1020.0
359.188232 128.0
359.216522 284.0
360.0802 1164.0
360.31131 120.0
361.086334 324.0
361.324493 140.0
1032.002319 236.0
1055.710571 172.0
1092.702026 192.0
1133.142578 152.0
1233.418701 144.0
1264.287964 168.0
1398.486084 180.0
1461.720459 240.0
1544.915161 208.0
1553.202881 140.0
1555.384155 188.0
1562.063232 212.0
1617.939697 216.0
1664.453613 176.0
1667.207397 168.0
1717.230469 160.0
1722.983765 212.0
1734.536011 200.0
1736.376587 188.0
1736.525879 156.0
1777.101196 212.0
1789.658203 144.0
1795.025513 244.0
1799.109131 140.0
1812.616089 184.0
1818.476074 192.0
1829.406982 208.0
1831.050293 148.0
1833.887451 252.0
1834.773926 168.0
1837.690674 208.0
1838.714722 160.0
1864.681763 144.0
1880.228394 188.0
1889.204346 140.0
1906.51062 160.0
1910.431885 160.0
1911.136597 192.0
1911.406372 148.0
1914.078613 168.0
1914.740479 164.0
1914.95813 208.0
1922.22876 188.0
1922.822144 148.0
1926.567993 188.0
1940.09729 160.0
1948.2323 200.0
1949.857788 160.0
1965.463135 176.0
1966.785889 156.0
1983.272949 160.0
1992.750366 192.0
1997.337524 224.0
2000.122559 148.0
