>compound Budesonide
>formula C25H34O6
>ionization [M+H]+
>parentmass 431.24281526009054
#inchi InChI=1S/C25H34O6/c1-4-5-21-30-20-11-17-16-7-6-14-10-15(27)8-9-23(14,2)22(16)18(28)12-24(17,3)25(20,31-21)19(29)13-26/h8-10,16-18,20-22,26,28H,4-7,11-13H2,1-3H3/t16-,17-,18+,20+,21+,22-,23-,24-,25-/m0/s1
#inchikey VOVIALXJUBGFJZ
#Ion_Source LC-ESI
#Instrument qTof
#Compound_Source Commercial
#PI Dorrestein
#Data_Collector Garg_Neha
#Scan -1
#Precursor_MZ 431.243
#ExactMass 430.236
#Charge 1
#CAS_Number 51333-22-3
#Pubmed_ID N/A
#Smiles C1C(C=C2[C@](C=1)([C@]3([C@@](CC2)([C@]4([C@](C[C@H]3O)([C@@]5([C@@H](C4)O[C@](O5)(CCC)[H])C(CO)=O)C)[H])[H])[H])C)=O
#INCHI_AUX N/A
#Library_Class 1
#SpectrumID CCMSLIB00000078086
#IonMode Positive
#UpdateWorkflowName UPDATE-SINGLE-ANNOTATED-GOLD
#LibraryQualityString Gold
#TaskID 77f51c88eb8b467eb4a01dd2d0cb90d2
##Scan# 1444
#SpectrumFile Plate2_1_20_GG5_01_16493.mzXML
#LibraryName FDALibrary_2_04302014.mgf
#MQScore -1
#Organism FDALibrary_2_04302014
#TIC_Query 0
#RT_Query -1
#MZErrorPPM -1
#SharedPeaks 0
#MassDiff 0
#LibMZ -1
#SpecMZ 431.243
#SpecCharge 0
#internalFilename spec-00000.mgf

>collision 10
45.037888 180.0
45.601978 188.0
46.731174 212.0
47.190823 156.0
48.347706 176.0
48.4571 268.0
48.538879 156.0
48.561066 164.0
49.269608 144.0
49.808945 140.0
50.07056 192.0
50.284863 204.0
50.653908 152.0
50.702084 208.0
51.242062 172.0
51.878036 176.0
52.569878 188.0
53.070374 196.0
53.285183 160.0
53.964378 208.0
54.224945 172.0
55.307541 148.0
55.36084 176.0
55.552044 176.0
55.828308 172.0
55.856567 140.0
55.901203 164.0
56.075451 200.0
56.536942 152.0
57.657372 196.0
57.69516 236.0
58.877342 148.0
59.284283 148.0
59.757229 184.0
59.994408 176.0
62.216061 168.0
62.4156 252.0
62.434471 168.0
62.80302 244.0
62.932426 152.0
64.157265 140.0
64.67804 240.0
64.984131 176.0
65.146278 220.0
65.284508 192.0
65.450256 144.0
65.866348 176.0
66.019897 176.0
67.120911 168.0
67.364929 204.0
68.342873 180.0
68.682251 160.0
68.954689 192.0
68.992706 172.0
70.501984 192.0
71.146866 160.0
71.506584 184.0
72.313354 176.0
72.396309 196.0
73.167206 228.0
73.542229 140.0
73.762581 180.0
73.822418 348.0
74.334625 208.0
74.429039 164.0
75.606445 220.0
75.807327 156.0
76.22728 164.0
76.509056 232.0
76.855888 172.0
77.028732 168.0
77.313728 172.0
77.713264 228.0
77.74485 216.0
77.97316 140.0
78.49601 188.0
78.983467 188.0
80.091095 180.0
80.35672 184.0
80.857063 216.0
81.337425 144.0
82.12915 236.0
82.578903 184.0
82.644028 152.0
82.966751 276.0
83.029877 172.0
84.386513 148.0
84.891899 176.0
86.739342 228.0
87.05661 256.0
87.181084 184.0
87.340973 168.0
88.516769 164.0
89.165871 160.0
90.317894 236.0
90.473068 144.0
90.596169 176.0
91.054321 172.0
91.532532 228.0
91.545868 152.0
92.083679 200.0
92.544548 152.0
92.621155 144.0
92.989296 196.0
94.074928 144.0
94.769249 200.0
95.645111 160.0
96.081627 188.0
96.149925 216.0
96.179199 168.0
96.247536 184.0
97.061546 176.0
97.493416 156.0
97.67627 172.0
97.894737 176.0
98.439011 152.0
99.045235 404.0
99.119499 220.0
99.355438 152.0
100.421661 140.0
101.024918 168.0
101.688171 156.0
101.907059 232.0
104.517479 140.0
104.769943 164.0
105.068504 180.0
105.357498 180.0
107.051743 168.0
107.086754 360.0
107.136192 188.0
107.45575 168.0
107.497017 144.0
108.053436 184.0
109.064369 468.0
109.102249 272.0
109.918724 176.0
110.098251 152.0
110.173447 152.0
111.039665 240.0
111.272972 220.0
111.586021 164.0
111.97953 172.0
112.715797 172.0
112.766518 184.0
113.047798 180.0
113.282822 144.0
115.055191 188.0
115.605789 152.0
116.270142 188.0
116.336685 200.0
116.734177 188.0
117.066086 312.0
117.993408 208.0
118.551865 188.0
118.799042 140.0
118.846771 164.0
118.918388 236.0
119.084396 848.0
119.170296 220.0
119.849159 212.0
119.868767 196.0
120.243477 156.0
121.064857 2396.0
121.842392 232.0
122.069702 180.0
122.100548 204.0
122.601463 140.0
122.762459 180.0
122.784508 144.0
123.043503 164.0
123.078232 144.0
123.225998 192.0
123.462517 156.0
124.02932 164.0
124.752991 144.0
124.848602 156.0
125.058907 168.0
125.605881 180.0
126.78418 184.0
127.085854 212.0
128.06044 224.0
128.630798 144.0
129.069 164.0
129.503616 184.0
129.850388 184.0
130.080429 208.0
130.356644 240.0
130.413467 140.0
130.852509 148.0
131.048904 232.0
131.085342 596.0
132.058899 484.0
133.064438 464.0
133.100143 188.0
133.210388 156.0
133.391922 184.0
133.513779 168.0
134.004089 140.0
134.199661 132.0
134.677704 152.0
135.081314 1624.0
135.353012 212.0
136.030014 196.0
136.08429 264.0
136.315689 196.0
137.059677 444.0
137.091568 192.0
137.30043 160.0
138.869797 156.0
139.076462 280.0
139.238266 152.0
139.468536 164.0
140.573105 164.0
140.858795 152.0
140.986374 144.0
141.080917 192.0
141.192062 224.0
142.073212 156.0
142.092194 196.0
142.20134 144.0
142.533829 184.0
143.085953 528.0
143.332672 224.0
143.442978 144.0
143.466827 148.0
143.519272 188.0
144.058655 176.0
144.615814 164.0
145.065735 796.0
145.099564 524.0
146.070892 376.0
146.499741 144.0
147.08107 10556.0
147.799759 188.0
148.084381 1560.0
149.062271 180.0
149.096344 320.0
149.14003 136.0
149.312317 96.0
149.371887 204.0
149.413239 164.0
149.547089 148.0
149.951401 188.0
150.068405 140.0
150.390427 216.0
150.42215 196.0
150.490509 148.0
151.069275 336.0
151.099091 188.0
152.054871 188.0
152.661575 180.0
153.094711 216.0
153.281921 180.0
153.656708 156.0
153.950439 160.0
154.017136 156.0
154.937378 188.0
155.074692 336.0
156.096497 156.0
157.057007 156.0
157.10173 700.0
158.073013 512.0
158.517929 160.0
158.8564 196.0
158.924133 212.0
158.968521 356.0
159.080292 2388.0
159.210312 184.0
159.474106 176.0
159.813614 192.0
160.087982 152.0
160.571869 180.0
161.09758 1532.0
161.939224 160.0
162.101364 196.0
162.274017 140.0
162.30162 144.0
163.037781 168.0
163.074646 1088.0
163.699219 144.0
163.717041 192.0
163.928482 160.0
163.971802 204.0
164.078873 172.0
164.114563 184.0
164.418121 216.0
164.668335 220.0
165.088501 460.0
165.136047 200.0
165.256287 160.0
166.078629 144.0
166.29158 196.0
167.077988 272.0
168.087921 148.0
168.366409 228.0
168.555298 140.0
168.715546 244.0
168.930191 152.0
169.060806 192.0
169.102112 356.0
169.424652 148.0
169.761612 160.0
170.071716 160.0
170.104095 176.0
170.51709 236.0
171.080429 3444.0
172.088028 396.0
172.278564 228.0
173.039612 168.0
173.096359 7240.0
173.209412 148.0
174.068741 264.0
174.100143 1484.0
174.127869 176.0
175.07309 108.0
175.100128 184.0
175.936874 200.0
176.078308 196.0
176.465271 176.0
176.698029 192.0
177.092316 452.0
177.148071 168.0
178.074677 352.0
178.355469 156.0
179.084152 176.0
179.1129 172.0
180.092743 160.0
180.11145 172.0
180.15686 176.0
180.215637 172.0
180.945801 264.0
181.060959 160.0
181.104736 172.0
182.139175 156.0
183.079086 356.0
183.117447 124.0
183.460464 180.0
183.546738 164.0
183.673492 172.0
183.811096 160.0
184.029724 148.0
184.087646 224.0
184.505249 144.0
184.723038 172.0
185.096603 1944.0
185.155548 148.0
186.102463 348.0
186.342789 188.0
187.074677 276.0
187.115692 500.0
188.080246 152.0
188.116089 300.0
188.454391 140.0
189.061447 164.0
189.08934 132.0
189.146301 160.0
189.565338 176.0
190.253784 196.0
190.753769 188.0
191.069962 112.0
191.098129 168.0
191.876984 168.0
192.098984 208.0
193.105133 796.0
193.401871 172.0
193.695374 148.0
194.107101 180.0
195.078796 448.0
195.138474 168.0
195.848114 200.0
195.878754 168.0
196.089737 476.0
196.126755 160.0
196.252197 168.0
196.402802 212.0
196.757202 160.0
196.807465 180.0
196.84935 192.0
196.988998 144.0
197.09581 1252.0
198.100189 648.0
198.131836 148.0
198.178024 208.0
198.862274 164.0
199.110001 1300.0
199.145752 140.0
199.166245 208.0
199.919022 272.0
200.079041 188.0
200.110428 168.0
201.086975 192.0
201.122345 148.0
202.096512 176.0
204.084961 148.0
205.097794 240.0
206.103745 184.0
206.186752 184.0
206.27536 200.0
207.115677 1344.0
207.8965 144.0
208.086273 648.0
208.119766 404.0
209.017212 144.0
209.095001 1272.0
209.12825 184.0
210.102753 760.0
210.446899 188.0
211.112946 2008.0
212.11731 364.0
213.090195 276.0
213.12471 868.0
213.751343 152.0
213.89978 156.0
214.01915 160.0
214.109207 164.0
214.12886 356.0
214.161087 140.0
215.107513 472.0
216.149994 140.0
217.093643 276.0
218.109116 140.0
218.594391 196.0
219.009506 156.0
219.081406 148.0
219.113663 392.0
219.239319 220.0
219.767166 140.0
220.139313 156.0
221.094162 972.0
221.126709 380.0
222.101608 888.0
223.111496 1820.0
223.162857 108.0
223.759567 152.0
224.084213 140.0
224.119431 508.0
224.143173 276.0
224.975937 168.0
225.045563 164.0
225.127121 4044.0
225.698975 180.0
225.98613 140.0
226.094254 180.0
226.134827 3248.0
226.869644 184.0
227.068649 140.0
227.10524 380.0
227.142303 3548.0
227.751877 148.0
228.037308 188.0
228.096512 224.0
228.145309 524.0
228.659897 152.0
229.100235 176.0
229.159561 156.0
230.088715 204.0
230.653625 184.0
231.114441 288.0
232.078674 204.0
232.11821 264.0
232.649948 196.0
233.096497 560.0
233.140823 164.0
233.391281 180.0
234.102417 268.0
235.111786 1424.0
236.118515 452.0
236.236847 196.0
237.092773 176.0
237.127197 1504.0
238.134644 600.0
238.635162 152.0
239.105377 304.0
239.14238 1608.0
239.296661 172.0
240.105209 332.0
240.148941 260.0
240.211975 176.0
241.115845 324.0
241.162231 944.0
242.160629 188.0
243.110367 180.0
243.249451 156.0
244.08342 156.0
244.118423 316.0
245.093964 168.0
245.127518 248.0
245.247772 160.0
246.068222 200.0
246.104187 180.0
246.138489 188.0
246.236847 156.0
246.511765 144.0
247.109375 624.0
247.144226 276.0
247.932541 140.0
248.120956 744.0
249.086349 180.0
249.125015 568.0
249.158386 156.0
250.099701 164.0
250.132904 544.0
251.103912 248.0
251.141327 1104.0
252.145325 420.0
252.668427 140.0
253.125946 376.0
253.156235 316.0
254.09729 180.0
254.152374 192.0
254.211517 168.0
255.104538 200.0
255.116684 204.0
255.139038 192.0
256.017212 180.0
256.131866 148.0
257.092255 224.0
257.13269 500.0
257.822906 172.0
259.110992 256.0
259.142517 492.0
259.580414 144.0
259.602844 168.0
260.116791 264.0
260.143585 180.0
261.057007 172.0
261.129059 800.0
262.026459 148.0
262.100586 144.0
262.135345 460.0
262.281036 148.0
262.819641 148.0
263.105835 324.0
263.142273 3192.0
263.565521 160.0
263.730347 144.0
264.090729 152.0
264.118134 284.0
264.151184 1552.0
264.536774 156.0
264.657867 124.0
265.120087 272.0
265.158539 3060.0
266.127655 144.0
266.165985 360.0
267.091705 124.0
267.132935 456.0
267.169586 820.0
267.262024 172.0
268.101562 104.0
268.17392 340.0
269.149231 252.0
269.195038 196.0
270.15271 208.0
271.137817 168.0
272.120239 320.0
272.654541 152.0
273.121399 140.0
273.177338 164.0
274.128876 224.0
274.170563 152.0
275.100281 120.0
275.14267 248.0
276.111328 260.0
276.148895 228.0
276.301514 180.0
277.157745 2748.0
278.104218 180.0
278.16275 964.0
278.79837 152.0
278.881592 100.0
279.142395 392.0
279.170563 452.0
279.27713 200.0
279.696381 152.0
280.069305 144.0
280.144745 148.0
280.459167 252.0
280.986053 168.0
281.11203 116.0
281.151672 1048.0
281.19162 132.0
281.557312 120.0
282.124908 164.0
282.157074 580.0
283.171051 1236.0
283.222717 180.0
284.173798 140.0
285.057678 148.0
285.121521 144.0
285.151764 244.0
285.179901 168.0
286.154236 144.0
286.528076 184.0
287.142303 1304.0
287.884033 140.0
288.145874 308.0
289.114594 208.0
289.157715 896.0
290.130127 136.0
291.133881 276.0
291.410278 144.0
292.124939 228.0
293.040009 152.0
293.15683 1300.0
293.766205 160.0
294.157288 384.0
294.797333 144.0
294.923767 156.0
295.125 192.0
295.169434 2588.0
296.173157 436.0
297.151794 392.0
298.179504 140.0
299.152863 144.0
301.255646 180.0
303.527405 204.0
303.853455 160.0
304.660492 112.0
304.856934 152.0
304.888214 176.0
305.151978 3288.0
306.156464 868.0
306.199829 172.0
306.956055 180.0
307.16864 1468.0
307.856384 172.0
307.884338 164.0
308.122894 148.0
308.172485 472.0
309.142883 160.0
309.188782 176.0
309.464905 140.0
310.186615 172.0
310.856506 160.0
311.160034 876.0
312.162201 208.0
312.427094 140.0
313.181488 1072.0
314.189575 508.0
315.544769 148.0
316.468231 144.0
321.148132 492.0
321.555298 140.0
322.148041 328.0
322.223053 200.0
322.700165 136.0
322.934418 152.0
323.036377 156.0
323.063202 160.0
323.163971 7964.0
324.167847 3032.0
325.178986 1940.0
325.483917 112.0
325.839081 108.0
326.184326 704.0
326.369995 144.0
326.571411 152.0
327.194977 232.0
327.341583 148.0
328.197418 168.0
329.827393 152.0
331.187897 184.0
334.041016 176.0
335.191071 128.0
335.829529 176.0
337.042053 176.0
337.194885 196.0
339.163849 280.0
340.161194 180.0
340.676086 180.0
341.17514 4064.0
341.241302 176.0
341.70752 120.0
342.177338 728.0
343.190338 968.0
344.197418 200.0
345.213348 236.0
346.201416 172.0
347.205414 132.0
348.191467 220.0
349.922089 172.0
350.216278 212.0
353.22113 148.0
355.664246 144.0
359.194427 280.0
361.192078 172.0
365.196869 124.0
366.213928 204.0
367.221802 140.0
368.230438 224.0
369.998169 216.0
374.772278 144.0
375.227081 260.0
375.801758 160.0
377.141815 152.0
377.217041 472.0
378.211426 264.0
383.220978 100.0
385.233582 172.0
387.234955 168.0
390.771881 148.0
395.216248 1300.0
396.221405 240.0
398.239502 152.0
400.829407 156.0
404.039581 156.0
411.136658 156.0
411.297211 172.0
412.707153 176.0
413.149658 176.0
413.233276 27404.0
413.677765 132.0
414.017395 188.0
414.235321 7692.0
414.423218 100.0
414.643707 136.0
415.235657 520.0
416.238831 384.0
416.568542 152.0
416.860321 152.0
416.992523 116.0
417.175018 168.0
428.175415 156.0
429.230927 176.0
430.908844 148.0
431.246246 1452.0
431.317963 188.0
432.244385 276.0
432.774841 156.0
433.248962 340.0
433.320923 172.0
433.366516 148.0
433.41803 120.0
519.628296 144.0
656.524414 144.0
841.556458 144.0
893.907043 148.0
1084.134155 196.0
1252.77771 244.0
1336.367432 152.0
1383.968506 160.0
1388.911621 228.0
1410.565796 168.0
1414.320923 192.0
1474.667847 192.0
1490.762207 184.0
1497.41687 156.0
1500.653442 176.0
1503.052246 196.0
1509.974121 196.0
1555.141724 252.0
1558.895752 144.0
1577.188477 200.0
1579.244385 212.0
1583.225342 188.0
1584.009521 252.0
1596.112793 176.0
1604.353394 160.0
1611.160767 212.0
1625.380615 148.0
1653.635376 236.0
1681.048096 176.0
1682.982666 164.0
1698.105835 216.0
1710.439087 176.0
1714.895142 152.0
1719.010498 140.0
1720.496216 148.0
1738.142456 148.0
1740.184326 176.0
1752.085938 220.0
1754.619507 200.0
1781.299072 172.0
1782.702148 200.0
1791.570557 164.0
1803.409668 152.0
1804.914429 144.0
1840.66333 212.0
1849.40918 152.0
1851.090454 204.0
1861.626465 156.0
1881.827515 164.0
1885.248169 204.0
1886.518799 144.0
1889.969727 188.0
1910.184326 140.0
1910.654175 168.0
1917.655273 160.0
1930.349121 172.0
1931.101318 144.0
1935.897339 156.0
1936.23877 200.0
1945.252563 192.0
1945.375488 172.0
1947.14917 168.0
1950.971436 176.0
1986.490234 184.0
1989.747192 152.0
1995.691162 196.0
1998.742065 140.0
1999.035767 172.0
