>compound Rufinamide (Banzel)
>formula C10H8F2N4O
>ionization [M+H]+
>parentmass 239.073837
#inchi InChI=1S/C10H8F2N4O/c11-7-2-1-3-8(12)6(7)4-16-5-9(10(13)17)14-15-16/h1-3,5H,4H2,(H2,13,17)
#inchikey POGQSBRIGCQNEG
#Ion_Source LC-ESI
#Instrument qTof
#Compound_Source Commercial
#PI Dorrestein
#Data_Collector Garg_Neha
#Scan -1
#Precursor_MZ 239.074
#ExactMass 238.067
#Charge 1
#CAS_Number 106308-44-5
#Pubmed_ID N/A
#Smiles C1=CC=C(C(=C1F)CN2N=NC(=C2)C(=O)N)F
#INCHI_AUX N/A
#Library_Class 1
#SpectrumID CCMSLIB00000078070
#IonMode Positive
#UpdateWorkflowName UPDATE-SINGLE-ANNOTATED-GOLD
#LibraryQualityString Gold
#TaskID 77f51c88eb8b467eb4a01dd2d0cb90d2
##Scan# 1119
#SpectrumFile Plate1_61_88_GG4_01_16491.mzXML
#LibraryName FDALibrary_2_04302014.mgf
#MQScore -1
#Organism FDALibrary_2_04302014
#TIC_Query 0
#RT_Query -1
#MZErrorPPM -1
#SharedPeaks 0
#MassDiff 0
#LibMZ -1
#SpecMZ 239.074
#SpecCharge 0
#internalFilename spec-00000.mgf

>collision 10
45.312893 160.0
45.54229 172.0
46.600193 248.0
46.717003 184.0
46.75238 192.0
48.392822 156.0
48.550797 168.0
49.301186 232.0
50.016499 188.0
50.140446 184.0
50.617943 140.0
50.880253 168.0
50.976841 240.0
51.023746 148.0
51.523994 204.0
51.901859 172.0
52.122913 164.0
52.661724 172.0
54.132103 192.0
54.606136 184.0
55.567822 192.0
55.88876 148.0
55.928944 204.0
56.385349 156.0
56.539394 144.0
57.581299 148.0
57.91708 176.0
58.228012 156.0
58.849327 180.0
58.892086 148.0
59.947643 232.0
60.517639 148.0
61.312996 180.0
61.459579 204.0
61.933281 140.0
62.152767 192.0
62.265793 236.0
62.895939 188.0
63.04565 160.0
63.38747 188.0
64.471207 196.0
65.269539 216.0
65.385368 244.0
65.633453 168.0
65.906242 164.0
66.21199 200.0
66.493538 176.0
66.567146 180.0
66.695496 156.0
67.95134 156.0
68.1763 172.0
68.978996 160.0
70.206017 208.0
71.0457 144.0
71.168221 156.0
71.39003 188.0
71.821198 216.0
72.213066 232.0
73.020401 204.0
73.522995 152.0
73.866432 152.0
74.368492 204.0
76.098297 160.0
76.199036 140.0
76.357224 208.0
76.414627 160.0
76.705467 176.0
76.902573 152.0
77.967453 140.0
78.136261 156.0
78.307007 172.0
78.747955 208.0
79.829048 204.0
81.044678 156.0
81.154015 188.0
81.775589 156.0
81.840393 168.0
81.903427 184.0
82.69429 156.0
82.884445 176.0
83.361694 168.0
83.396225 176.0
86.568504 232.0
86.611107 172.0
87.20858 168.0
88.215172 220.0
89.745308 176.0
90.747429 148.0
91.806595 168.0
92.113892 152.0
92.308846 156.0
92.653374 204.0
93.111832 160.0
94.49398 188.0
95.331657 152.0
95.368584 212.0
96.728165 144.0
96.931854 176.0
97.689728 192.0
97.790085 196.0
97.813705 156.0
98.113144 148.0
98.764427 164.0
99.022125 144.0
99.176674 212.0
99.365067 180.0
100.477226 248.0
101.021492 276.0
101.579536 156.0
101.621666 176.0
103.073448 212.0
103.087593 160.0
104.019279 184.0
104.454147 188.0
105.250809 216.0
107.029762 636.0
107.814804 188.0
108.033981 180.0
109.32251 220.0
109.764137 252.0
112.375641 164.0
112.460052 200.0
112.671227 224.0
113.204254 240.0
113.865936 144.0
114.472046 192.0
114.616898 156.0
114.836479 184.0
114.889809 208.0
114.958092 152.0
116.05545 200.0
116.463203 196.0
116.52784 188.0
117.356316 240.0
118.125168 144.0
120.372536 224.0
120.628159 144.0
121.043861 152.0
121.976311 240.0
122.295258 208.0
125.206802 148.0
125.380585 176.0
125.81778 200.0
125.911568 160.0
126.032196 164.0
126.591431 160.0
126.712387 248.0
126.730309 196.0
126.85128 176.0
126.932053 240.0
126.995125 144.0
127.035973 39640.0
127.338249 152.0
127.639397 172.0
128.039719 1996.0
128.704498 112.0
128.727798 144.0
128.909836 236.0
128.998932 176.0
129.063782 136.0
135.04924 344.0
136.056091 268.0
139.031937 224.0
139.98143 212.0
140.037964 336.0
141.050308 420.0
142.046753 972.0
142.070877 144.0
142.802505 164.0
142.9048 160.0
144.062119 868.0
146.036316 172.0
148.032227 140.0
148.05574 660.0
148.980606 244.0
149.060654 156.0
149.559357 216.0
150.06221 216.0
150.537018 204.0
150.996475 176.0
151.030716 148.0
151.949371 232.0
152.054886 308.0
154.048721 104.0
156.0634 808.0
157.270111 144.0
163.069351 400.0
164.048737 184.0
164.071457 184.0
166.045547 1436.0
166.996445 188.0
167.055099 1096.0
168.061279 1348.0
168.550415 176.0
169.07251 220.0
170.073242 144.0
182.040207 160.0
183.073364 792.0
184.043655 168.0
184.085571 236.0
191.064468 536.0
193.017822 168.0
194.08667 164.0
195.053482 188.0
195.976807 160.0
199.472382 168.0
199.739517 236.0
200.491638 164.0
202.579376 148.0
211.067612 640.0
212.071793 140.0
214.214996 164.0
217.387375 140.0
219.390427 196.0
221.97757 208.0
222.047195 4972.0
223.054108 152.0
224.052261 176.0
236.051224 140.0
237.184036 176.0
238.08609 168.0
238.9646 192.0
239.005234 168.0
239.073837 4512.0
239.115097 264.0
239.976669 168.0
240.058395 3104.0
241.058212 408.0
244.04715 220.0
261.042725 196.0
262.005127 184.0
315.164856 152.0
876.311951 180.0
944.418762 156.0
968.480042 228.0
991.270447 192.0
1035.384399 160.0
1051.483276 224.0
1061.990723 264.0
1068.330688 228.0
1119.969604 156.0
1128.665527 144.0
1143.35022 216.0
1154.549438 180.0
1207.494995 216.0
1241.643677 200.0
1271.182495 140.0
1288.527954 168.0
1302.648438 140.0
1363.167969 172.0
1367.094849 172.0
1382.6521 140.0
1397.768921 164.0
1408.602051 228.0
1416.890991 180.0
1469.965454 196.0
1481.196777 156.0
1489.12793 220.0
1499.484009 148.0
1518.302246 172.0
1519.225342 160.0
1526.378662 172.0
1561.493042 236.0
1567.334351 192.0
1577.958374 152.0
1579.199951 164.0
1599.584839 164.0
1603.942139 196.0
1605.967407 212.0
1610.868652 160.0
1614.513428 148.0
1642.609619 200.0
1645.837891 200.0
1689.271729 152.0
1716.292847 180.0
1717.224731 140.0
1727.334961 144.0
1727.467285 176.0
1736.039917 152.0
1736.371704 180.0
1738.155273 180.0
1739.914917 168.0
1740.844971 160.0
1754.432495 140.0
1755.374634 164.0
1759.204346 156.0
1765.395752 160.0
1770.006714 176.0
1770.509155 152.0
1772.821411 168.0
1780.758057 152.0
1783.312256 192.0
1784.993774 148.0
1790.101685 216.0
1804.860474 208.0
1829.269653 188.0
1829.993408 168.0
1834.270142 192.0
1834.593994 180.0
1841.591309 168.0
1848.216797 180.0
1856.66333 224.0
1857.083618 180.0
1860.069702 180.0
1863.272949 160.0
1871.426514 168.0
1886.974487 168.0
1893.871582 160.0
1899.826904 192.0
1911.591431 224.0
1913.515137 168.0
1934.450439 216.0
1944.100586 192.0
1944.855469 168.0
1949.176392 164.0
1949.677246 156.0
1949.896973 180.0
1950.037598 144.0
1954.329102 176.0
1966.711182 152.0
1969.333618 212.0
1970.711792 156.0
1973.195312 152.0
1974.27417 204.0
1989.150635 184.0
1992.774048 212.0
1995.431641 196.0
