>compound MLS000766244-01!
>formula C19H14O7
>ionization [M+H]+
>parentmass 355.081635
#inchi InChI=1S/C19H14O7/c1-22-10-4-3-9(20)14-16(21)15-11(23-2)7-12-13(18(15)26-17(10)14)8-5-6-24-19(8)25-12/h3-8,19-20H,1-2H3
#inchikey VVRUNWFPOWIBDY
#Ion_Source LC-ESI
#Instrument qTof
#Compound_Source NIH Natural Product Library
#PI Dorrestein
#Data_Collector VVP/LMS
#Scan -1
#Precursor_MZ 355.082
#ExactMass 354.074
#Charge 1
#CAS_Number N/A
#Pubmed_ID N/A
#Smiles COc1ccc(O)c2c(=O)c3c(OC)cc4OC5OC=CC5c4c3oc12
#INCHI_AUX N/A
#Library_Class 1
#SpectrumID CCMSLIB00000080000
#IonMode Positive
#UpdateWorkflowName UPDATE-SINGLE-ANNOTATED-GOLD
#LibraryQualityString Gold
#TaskID b1d8e8f6646f4e71acdff9ca3d919d08
##Scan# 2213
#SpectrumFile p2-G02_GG2_01_18050.mzXML
#LibraryName NIH_Natural_Products_Library.mgf
#MQScore -1
#Organism NIH_Natural_Products_Library
#TIC_Query 0
#RT_Query -1
#MZErrorPPM -1
#SharedPeaks 0
#MassDiff 0
#LibMZ -1
#SpecMZ 355.082
#SpecCharge 0
#internalFilename spec-00000.mgf

>collision 10
94.987137 184.0
95.006531 104.0
95.068626 136.0
95.474655 128.0
95.583595 192.0
95.620567 160.0
95.873749 120.0
96.148735 92.0
96.226814 180.0
96.829109 184.0
96.842819 68.0
96.88591 144.0
96.989769 236.0
97.093689 232.0
97.193733 208.0
97.529564 180.0
97.614105 116.0
97.775421 160.0
97.919144 116.0
98.070854 140.0
98.147743 128.0
98.63736 124.0
99.110367 192.0
99.199554 176.0
99.376068 164.0
99.407814 156.0
99.526917 204.0
99.616287 140.0
99.866745 112.0
100.139427 128.0
100.268936 136.0
100.286873 96.0
100.326736 56.0
100.34668 72.0
100.49427 164.0
100.80777 88.0
101.267921 100.0
101.328018 148.0
101.602684 188.0
101.666893 148.0
101.713058 128.0
101.729118 184.0
101.819473 112.0
101.958099 120.0
101.996284 116.0
102.106873 156.0
102.147102 160.0
102.251732 112.0
102.316139 88.0
102.402733 188.0
102.547798 184.0
102.601898 148.0
102.70507 184.0
102.83017 268.0
102.951302 44.0
103.020279 348.0
103.060623 136.0
103.118988 120.0
103.450722 80.0
103.529694 120.0
103.614761 236.0
103.795158 204.0
104.016304 168.0
104.117821 200.0
104.207199 172.0
104.312881 124.0
104.524399 80.0
104.552887 188.0
104.858383 156.0
104.954201 68.0
105.070457 120.0
105.101059 112.0
105.152077 168.0
105.190865 128.0
105.205154 80.0
105.274574 140.0
105.328163 168.0
105.362404 168.0
105.456406 72.0
105.538177 124.0
105.767311 188.0
105.802109 44.0
105.902451 80.0
106.056122 244.0
106.093025 164.0
106.160683 204.0
106.554794 192.0
106.811768 48.0
107.048454 176.0
107.064926 260.0
107.215317 88.0
107.229744 112.0
107.438011 136.0
107.468964 156.0
107.586601 76.0
107.615509 208.0
107.654739 204.0
107.803482 188.0
108.03299 32.0
108.256531 128.0
108.271027 152.0
108.378746 76.0
108.405685 172.0
108.695518 156.0
108.793549 92.0
108.835365 116.0
109.627625 200.0
109.725594 196.0
109.785767 168.0
109.875755 112.0
109.938354 164.0
110.026024 112.0
110.529739 48.0
110.887848 144.0
110.994766 128.0
111.252838 128.0
111.26963 128.0
111.320023 160.0
111.406143 196.0
111.755142 144.0
111.948799 80.0
112.165817 124.0
112.302872 160.0
112.433685 172.0
112.471672 192.0
112.619484 168.0
112.638489 136.0
112.864632 152.0
112.887886 156.0
113.042313 144.0
113.209557 180.0
113.334534 228.0
113.726868 148.0
114.0476 148.0
114.119881 88.0
114.162407 212.0
114.428391 116.0
114.549782 220.0
114.903671 88.0
114.976227 112.0
115.112854 220.0
115.164108 224.0
115.401321 128.0
115.59169 156.0
115.688004 176.0
116.020065 144.0
116.174469 120.0
116.408424 168.0
116.494339 116.0
116.767326 96.0
116.900703 280.0
117.034164 164.0
117.225883 56.0
117.279762 224.0
117.325027 144.0
117.437164 176.0
117.763077 104.0
117.784683 124.0
117.922966 300.0
117.97052 176.0
118.102425 208.0
118.143532 228.0
118.719688 208.0
119.045738 148.0
119.088646 120.0
119.221176 252.0
119.251602 168.0
119.355949 140.0
119.434242 164.0
119.538673 76.0
119.807724 204.0
119.871857 92.0
120.170586 272.0
120.275337 128.0
120.367027 196.0
120.393234 132.0
120.447838 196.0
120.725418 152.0
120.889488 152.0
120.942017 104.0
121.126915 136.0
121.360443 60.0
121.606148 116.0
121.827927 160.0
121.893845 176.0
121.920212 120.0
121.997147 52.0
122.056503 220.0
122.589226 140.0
122.609055 156.0
122.677391 196.0
122.719276 212.0
122.862633 68.0
122.897934 144.0
123.006767 676.0
123.04361 208.0
123.131935 92.0
123.401527 184.0
123.443542 164.0
123.659576 216.0
123.726761 176.0
123.753326 164.0
123.7799 148.0
124.011185 236.0
124.187683 160.0
124.356308 200.0
124.740585 160.0
124.785049 172.0
124.823067 120.0
125.036415 92.0
125.281349 44.0
125.354874 112.0
125.615738 168.0
125.673744 40.0
125.803192 168.0
125.966209 92.0
126.18969 108.0
126.236649 140.0
126.650696 172.0
126.716827 200.0
126.827469 164.0
126.935326 100.0
126.989151 112.0
127.034012 132.0
127.052429 228.0
127.539253 224.0
127.635925 204.0
127.696648 160.0
127.786629 128.0
127.883392 204.0
127.935165 128.0
128.063385 332.0
128.149124 144.0
128.291107 152.0
128.358749 168.0
128.780777 140.0
128.941193 160.0
128.981873 144.0
129.033875 132.0
129.069916 344.0
129.663162 148.0
129.744766 112.0
129.867218 116.0
129.893051 212.0
130.044205 136.0
130.284897 140.0
130.680496 184.0
130.803391 180.0
130.848923 160.0
130.928619 92.0
131.050385 412.0
131.135956 96.0
131.379944 88.0
131.494034 132.0
131.610458 200.0
131.631012 192.0
131.717804 160.0
131.838898 196.0
131.885468 196.0
132.019501 152.0
132.740845 140.0
132.830292 264.0
133.062088 204.0
133.147049 144.0
133.510162 116.0
133.613678 220.0
133.638977 172.0
133.756348 64.0
133.790878 124.0
134.124908 116.0
134.872787 132.0
135.009201 136.0
135.261398 180.0
135.534683 40.0
136.100647 164.0
136.119232 104.0
136.312027 228.0
136.449173 96.0
136.579391 52.0
136.835388 116.0
137.350403 124.0
137.520737 188.0
137.565094 36.0
137.698181 140.0
137.721542 84.0
138.027695 68.0
138.079147 108.0
138.226532 164.0
138.259293 164.0
138.285034 184.0
138.43956 148.0
138.544952 80.0
138.648056 164.0
138.714539 164.0
138.732437 168.0
138.823883 124.0
139.027985 124.0
139.056183 260.0
139.084305 84.0
139.189957 108.0
139.556519 188.0
139.591782 192.0
140.062424 116.0
140.260895 164.0
140.298157 160.0
140.427841 60.0
140.78421 44.0
141.068878 140.0
141.171783 116.0
141.80864 132.0
142.03627 128.0
142.221344 224.0
142.291626 172.0
142.36618 136.0
142.456436 164.0
142.946228 156.0
143.053329 180.0
143.334366 104.0
143.661011 152.0
143.90683 76.0
143.985641 112.0
144.038177 84.0
144.059677 176.0
144.375183 140.0
144.396713 156.0
144.542648 164.0
144.566574 60.0
144.602478 220.0
144.94014 160.0
145.026627 464.0
145.395767 136.0
145.434174 168.0
145.832901 112.0
145.909821 168.0
146.031906 192.0
146.12146 136.0
146.210495 92.0
146.448853 264.0
146.506439 204.0
146.523529 128.0
146.648834 92.0
146.870667 128.0
146.990707 212.0
147.041534 296.0
147.169922 48.0
147.370392 76.0
147.527496 116.0
147.815308 256.0
147.863708 116.0
148.052994 156.0
148.222122 76.0
148.297256 108.0
148.520325 184.0
148.631927 128.0
148.908676 108.0
149.02417 44.0
149.171097 160.0
149.239166 208.0
149.392395 64.0
149.604111 144.0
149.791626 144.0
149.996323 120.0
150.015823 260.0
150.428085 172.0
150.611237 156.0
150.780685 216.0
150.826263 184.0
151.001495 704.0
151.043884 76.0
151.259216 124.0
151.482056 144.0
151.523712 140.0
151.700165 160.0
151.957672 220.0
152.00795 480.0
152.131912 152.0
152.23996 120.0
152.999741 168.0
153.039124 112.0
153.135178 112.0
153.246033 180.0
153.805847 80.0
153.912003 104.0
154.087372 204.0
154.141724 168.0
154.173859 272.0
154.260361 124.0
154.277664 172.0
154.29744 144.0
154.609116 144.0
154.64624 228.0
154.836884 48.0
154.874039 204.0
155.0103 156.0
156.110016 124.0
156.159744 208.0
156.177155 120.0
156.306534 172.0
156.505661 148.0
156.540527 124.0
156.602783 164.0
156.934235 148.0
157.064926 304.0
157.123779 156.0
157.226089 124.0
157.33342 144.0
157.484024 232.0
157.508224 92.0
157.568176 72.0
157.64064 104.0
157.751053 136.0
157.797684 160.0
158.035538 156.0
158.286041 156.0
158.462341 156.0
158.862503 168.0
158.919907 268.0
159.041946 180.0
159.148621 172.0
159.256607 148.0
159.301819 80.0
159.392258 140.0
159.82225 148.0
159.968216 100.0
159.98584 168.0
160.04747 416.0
160.071442 156.0
160.436783 176.0
160.456955 172.0
160.522522 156.0
160.59314 36.0
160.653671 192.0
160.724319 144.0
161.028458 360.0
161.30014 180.0
161.353226 144.0
161.427933 184.0
161.487259 72.0
161.570724 116.0
162.031509 92.0
162.132858 256.0
162.181015 116.0
162.307785 108.0
162.399078 144.0
162.480255 120.0
162.553833 248.0
162.599518 132.0
162.678207 176.0
162.840714 124.0
162.952484 160.0
163.030563 156.0
163.366882 160.0
163.455933 140.0
163.491562 116.0
163.753799 160.0
163.825119 104.0
163.896454 100.0
163.982483 148.0
164.008591 164.0
164.044052 200.0
164.401367 144.0
164.748611 164.0
165.019531 180.0
165.111588 120.0
165.15506 140.0
165.203674 180.0
165.247162 132.0
165.513351 128.0
165.579941 168.0
165.674713 208.0
166.036133 152.0
166.500656 68.0
166.541748 132.0
166.698471 148.0
167.045868 196.0
167.248856 96.0
167.593948 52.0
167.646729 200.0
167.952301 148.0
168.050323 208.0
168.496994 180.0
168.597763 160.0
168.631363 144.0
168.72052 204.0
169.013336 468.0
169.035706 188.0
169.064636 148.0
169.646057 160.0
169.88205 188.0
170.042923 40.0
170.149353 64.0
170.245422 196.0
170.305161 52.0
170.377899 84.0
170.533813 208.0
170.552643 196.0
170.726196 196.0
170.774139 240.0
170.80162 116.0
170.877075 168.0
171.038422 76.0
171.094833 184.0
171.416061 148.0
171.653275 68.0
171.794113 140.0
172.049866 128.0
172.107315 136.0
172.25618 168.0
172.305817 200.0
172.392044 64.0
172.577637 212.0
172.721466 156.0
172.899384 144.0
173.025085 244.0
173.240524 192.0
173.281708 148.0
173.496201 76.0
173.549042 56.0
173.567398 36.0
173.661804 108.0
173.727386 160.0
173.866455 140.0
174.032181 688.0
174.052841 152.0
174.0896 56.0
174.394363 164.0
174.636261 132.0
174.862534 48.0
174.930969 164.0
175.039139 940.0
175.199585 80.0
175.294891 116.0
175.344513 148.0
175.41304 92.0
175.468414 156.0
175.737427 132.0
175.806046 124.0
175.858826 148.0
176.006668 156.0
176.045334 168.0
176.257843 136.0
176.358032 180.0
176.402969 196.0
176.775894 140.0
176.812943 136.0
177.110504 176.0
177.138626 60.0
177.159821 164.0
177.183655 120.0
177.257858 252.0
177.321457 144.0
177.387726 116.0
177.629028 204.0
178.024033 180.0
178.205124 168.0
178.332687 76.0
178.417755 132.0
178.734253 180.0
178.984467 144.0
179.301483 68.0
179.533417 84.0
179.562439 164.0
179.600098 136.0
179.674789 216.0
179.813553 172.0
179.920319 140.0
180.176712 124.0
180.20343 120.0
180.281952 156.0
180.995087 140.0
181.068405 148.0
181.091568 32.0
181.622284 128.0
181.70813 216.0
181.957718 104.0
182.102737 172.0
182.312286 156.0
182.651062 148.0
182.809799 180.0
182.975555 200.0
182.99823 160.0
183.251404 144.0
183.4104 36.0
183.510147 152.0
183.644989 176.0
183.709732 128.0
183.734009 168.0
183.879715 104.0
184.055191 132.0
184.357742 164.0
184.606445 128.0
184.66217 132.0
184.947342 192.0
185.058456 488.0
185.139572 56.0
185.207291 184.0
185.246536 180.0
185.375259 84.0
185.74942 68.0
185.792816 148.0
186.028931 180.0
186.05455 164.0
186.417328 164.0
186.629349 108.0
186.732681 100.0
186.830612 208.0
186.942169 192.0
186.985718 172.0
187.042664 156.0
187.176285 92.0
187.22258 112.0
187.421432 276.0
187.672195 192.0
187.699463 48.0
187.794922 196.0
187.867828 148.0
187.944962 148.0
187.98317 116.0
188.002258 156.0
188.045013 532.0
188.081421 144.0
188.441895 180.0
188.521133 96.0
188.644135 180.0
189.024307 128.0
189.044464 240.0
189.095459 176.0
189.150208 44.0
189.251495 52.0
189.362045 196.0
189.744675 148.0
189.922928 156.0
190.027176 172.0
190.084793 188.0
190.230255 152.0
190.282425 104.0
190.507614 144.0
190.69722 224.0
190.719208 196.0
190.903412 184.0
190.955673 116.0
191.065704 144.0
191.453812 72.0
191.599808 184.0
191.778915 152.0
191.9664 144.0
192.038254 156.0
192.134644 112.0
192.750366 164.0
192.82222 192.0
192.941071 204.0
193.347702 140.0
193.411346 112.0
193.483322 92.0
193.580246 120.0
193.602386 148.0
193.923767 176.0
194.373047 188.0
194.570114 104.0
194.675629 168.0
194.714508 36.0
194.803391 212.0
194.88118 112.0
194.922867 196.0
194.942307 196.0
195.043335 436.0
195.097961 188.0
195.153564 40.0
195.289841 156.0
195.426147 128.0
195.54303 144.0
195.707275 152.0
195.860443 200.0
195.927307 132.0
195.98024 116.0
196.071899 184.0
196.161392 164.0
196.242233 136.0
196.272903 96.0
196.38446 168.0
196.445831 160.0
196.482101 104.0
196.50441 156.0
196.579758 132.0
197.02092 152.0
197.058945 164.0
197.280823 76.0
197.403839 88.0
197.476562 180.0
197.784332 152.0
197.840332 76.0
198.23526 52.0
198.329269 140.0
198.372589 104.0
198.81015 100.0
198.897156 144.0
198.986984 96.0
199.036255 88.0
199.532883 148.0
199.740143 168.0
199.796402 124.0
200.004639 240.0
200.041245 132.0
200.072205 140.0
200.139786 196.0
200.246796 124.0
200.638474 104.0
200.686401 132.0
200.711777 92.0
200.731522 220.0
200.818954 136.0
200.926651 112.0
201.018311 300.0
201.132141 64.0
201.481339 224.0
201.507751 156.0
201.756454 176.0
201.907349 132.0
202.019455 124.0
202.571472 172.0
202.724472 104.0
202.91156 144.0
203.059006 120.0
203.206528 148.0
203.29097 152.0
203.362595 128.0
203.53009 96.0
203.797089 208.0
203.865295 112.0
204.041519 128.0
204.189392 128.0
204.226364 160.0
204.861145 132.0
205.254471 88.0
205.37709 144.0
205.502625 120.0
205.545425 64.0
205.865143 132.0
206.233688 272.0
206.571106 160.0
207.034576 156.0
207.083481 212.0
207.26683 52.0
207.309814 152.0
207.367126 144.0
207.43306 128.0
207.467453 132.0
207.488983 236.0
207.831238 148.0
208.052704 152.0
208.075668 112.0
208.150314 124.0
208.236481 208.0
208.348511 88.0
208.440445 268.0
208.581268 64.0
208.656021 84.0
208.713516 156.0
209.034103 224.0
209.061737 172.0
209.176727 200.0
209.231415 108.0
209.372513 204.0
209.551117 124.0
209.95755 136.0
209.992157 160.0
210.084473 184.0
210.119095 140.0
210.202759 48.0
210.280685 136.0
210.393265 108.0
210.569397 120.0
210.638718 120.0
210.710953 152.0
210.783188 148.0
210.835205 112.0
210.965271 148.0
211.035263 472.0
211.075134 76.0
211.141266 152.0
211.182144 156.0
211.222641 120.0
211.491745 164.0
211.512009 88.0
211.621292 80.0
211.65387 128.0
211.972504 128.0
212.04744 288.0
212.085526 336.0
212.671448 60.0
213.018082 296.0
213.053802 1508.0
213.156448 56.0
213.243637 64.0
213.33374 140.0
213.822403 112.0
213.935928 164.0
214.026474 196.0
214.061447 320.0
214.163055 52.0
214.324356 120.0
214.719757 284.0
214.763504 80.0
214.950211 168.0
214.970642 44.0
215.038651 324.0
215.067841 144.0
215.320969 128.0
215.356018 96.0
215.694962 96.0
215.770981 64.0
216.039459 268.0
216.177551 248.0
216.2686 148.0
216.373657 136.0
216.546432 156.0
216.593292 164.0
216.713409 176.0
216.789597 252.0
216.883392 152.0
217.158997 188.0
217.244064 156.0
217.279266 220.0
217.470016 32.0
217.511108 172.0
217.705627 220.0
217.728378 100.0
217.77243 60.0
217.85762 200.0
217.889938 152.0
217.963394 156.0
218.029678 220.0
218.151489 96.0
218.35144 116.0
218.783997 184.0
219.043137 120.0
219.178665 188.0
219.20224 156.0
219.349594 76.0
219.5383 112.0
219.700531 168.0
220.045822 88.0
220.237778 180.0
220.355942 148.0
220.518478 144.0
220.689926 192.0
220.75499 120.0
220.963959 172.0
221.059677 80.0
221.091644 160.0
221.118866 404.0
221.361633 148.0
221.468246 144.0
221.580811 192.0
222.034348 192.0
222.111465 180.0
222.372574 104.0
222.693237 76.0
222.773438 152.0
223.035568 204.0
223.198456 64.0
223.278748 132.0
223.486969 144.0
223.537552 84.0
223.835236 172.0
223.88884 140.0
223.988327 140.0
224.042572 308.0
224.297028 92.0
224.675751 152.0
224.729462 112.0
225.001053 200.0
225.050735 156.0
225.075699 180.0
225.219055 176.0
225.50589 160.0
225.694229 136.0
225.894608 160.0
225.939484 192.0
226.029251 240.0
226.059174 168.0
226.172897 96.0
226.262711 116.0
226.295639 176.0
226.430389 192.0
226.526245 136.0
226.661072 148.0
226.951813 176.0
227.032867 376.0
227.067093 172.0
227.134766 164.0
227.263763 224.0
227.314774 144.0
227.398804 152.0
227.461838 136.0
227.524887 32.0
227.593933 248.0
227.660004 116.0
227.696045 120.0
227.906326 168.0
228.164795 232.0
228.19487 68.0
228.456512 180.0
228.504654 40.0
228.706284 100.0
228.811646 132.0
229.048248 224.0
229.273788 184.0
229.5513 200.0
229.872635 144.0
230.020523 132.0
230.047684 112.0
230.192612 232.0
231.732239 168.0
231.826172 108.0
231.868591 96.0
231.945038 220.0
232.071701 216.0
232.20816 104.0
232.256683 100.0
232.411407 132.0
232.441757 160.0
232.481201 104.0
232.52977 148.0
232.65036 132.0
232.945755 156.0
233.100708 160.0
233.129868 176.0
233.182755 168.0
233.243546 212.0
233.383392 140.0
233.660172 144.0
233.735336 176.0
233.766663 168.0
233.982773 236.0
234.045776 208.0
234.141129 84.0
234.287323 136.0
234.326935 132.0
234.44577 172.0
234.497589 76.0
234.656189 132.0
234.848221 160.0
235.367035 180.0
235.391464 204.0
235.498352 180.0
235.577774 188.0
235.608322 160.0
235.895584 164.0
236.615692 152.0
237.041412 272.0
237.067276 196.0
237.460266 128.0
238.078827 204.0
238.150848 40.0
238.544174 76.0
238.577988 72.0
238.700974 152.0
238.814758 80.0
239.031876 284.0
239.076279 244.0
239.131668 108.0
239.32254 44.0
239.639786 212.0
239.686005 56.0
239.852432 232.0
239.883255 200.0
240.042633 928.0
240.080582 124.0
240.191971 176.0
240.308853 184.0
240.379822 148.0
240.725555 204.0
240.786911 152.0
240.951477 112.0
241.014984 476.0
241.048569 1720.0
241.370392 92.0
241.427063 56.0
241.467697 144.0
241.563156 52.0
241.597183 64.0
241.643585 96.0
241.782837 168.0
242.02002 212.0
242.058487 468.0
242.169846 168.0
242.219406 140.0
242.938583 112.0
243.033218 252.0
243.057556 296.0
243.084412 52.0
243.280167 232.0
243.345154 208.0
243.397934 60.0
243.447617 88.0
243.525269 156.0
243.652634 152.0
243.733414 108.0
243.762238 160.0
243.876465 128.0
243.926102 180.0
243.963409 204.0
244.050461 124.0
244.156189 132.0
244.190399 236.0
244.398834 140.0
244.532639 112.0
244.931183 88.0
244.965454 120.0
245.046463 136.0
245.169571 188.0
245.26149 120.0
245.300644 192.0
245.32695 176.0
245.420471 80.0
245.495316 156.0
245.601364 116.0
245.644943 152.0
245.694946 88.0
245.776062 96.0
245.801025 136.0
245.825989 164.0
246.007629 204.0
246.028046 152.0
246.384903 236.0
246.478638 64.0
246.609894 96.0
246.709915 196.0
246.788086 136.0
247.021667 168.0
247.213501 196.0
247.279221 56.0
247.316772 144.0
247.442001 144.0
247.467041 56.0
247.720718 196.0
247.820969 216.0
247.893036 152.0
248.175156 164.0
248.504486 196.0
249.082138 184.0
249.144974 76.0
249.581848 148.0
249.842896 176.0
250.05687 172.0
250.289825 208.0
250.554398 76.0
250.869537 104.0
251.03093 312.0
251.658279 96.0
251.699326 48.0
251.917252 224.0
252.040604 296.0
252.539963 44.0
252.6064 80.0
252.62854 172.0
252.79306 84.0
252.81839 128.0
252.995636 84.0
253.057098 400.0
253.188782 148.0
253.255295 428.0
253.584808 164.0
253.638702 128.0
253.698929 180.0
253.95578 204.0
254.022385 84.0
254.052963 268.0
254.584183 204.0
254.679459 132.0
254.844666 180.0
255.031021 684.0
255.063416 192.0
255.130707 184.0
255.302399 248.0
255.410538 76.0
255.699921 164.0
255.747818 256.0
255.824219 204.0
255.869522 140.0
255.903809 128.0
255.942017 148.0
255.983414 120.0
256.031189 152.0
256.067169 312.0
256.17453 204.0
256.324249 164.0
256.525055 184.0
256.621643 148.0
256.78653 104.0
256.97403 180.0
257.048126 128.0
257.080017 100.0
257.23642 136.0
257.293884 168.0
257.383301 160.0
257.447144 228.0
257.757019 140.0
258.01593 144.0
258.070282 176.0
258.09906 164.0
258.258942 148.0
258.668518 92.0
258.726135 164.0
259.027161 176.0
259.059204 132.0
259.110474 216.0
259.139313 144.0
259.180939 160.0
259.386078 180.0
259.530334 136.0
259.854279 104.0
259.989044 104.0
260.019531 144.0
260.04361 168.0
260.082123 132.0
260.104614 92.0
260.510834 88.0
260.779144 212.0
260.817688 132.0
260.947479 228.0
260.998718 156.0
261.04071 176.0
261.155304 32.0
261.953613 68.0
262.743103 156.0
262.801514 68.0
263.037109 208.0
263.385834 80.0
263.479523 232.0
263.534454 208.0
263.670166 200.0
263.86734 112.0
264.054901 44.0
264.303986 36.0
264.381653 144.0
264.504639 144.0
264.572632 116.0
264.673004 88.0
264.919159 140.0
264.983948 148.0
265.006622 92.0
265.049347 408.0
265.20871 180.0
265.535004 132.0
265.690704 152.0
266.063293 308.0
266.125641 152.0
266.398804 180.0
266.736389 128.0
266.791656 136.0
266.824158 112.0
267.015533 148.0
267.028595 120.0
267.087585 108.0
267.233978 64.0
267.39267 156.0
267.575714 172.0
267.714508 112.0
267.914429 196.0
267.97644 196.0
268.036835 3864.0
268.114563 132.0
268.12384 180.0
268.149017 92.0
268.28595 44.0
268.315155 104.0
268.357666 84.0
268.409821 84.0
268.585541 164.0
268.637512 280.0
268.706635 100.0
268.735046 192.0
268.830627 104.0
268.908966 128.0
268.949219 204.0
268.985565 268.0
269.045227 14224.0
269.111359 132.0
269.161591 84.0
269.20932 116.0
269.248505 44.0
269.318176 56.0
269.345459 100.0
269.375885 232.0
269.457581 36.0
269.563141 156.0
269.590363 132.0
269.61441 128.0
269.669312 192.0
269.735352 140.0
269.760986 200.0
269.797455 44.0
269.843231 176.0
269.892273 92.0
270.01001 148.0
270.047607 1948.0
270.157196 80.0
270.258606 136.0
270.363342 56.0
270.608826 68.0
270.716888 60.0
270.75293 84.0
270.867554 56.0
271.023712 424.0
271.208984 164.0
271.401764 88.0
271.441101 56.0
271.792084 68.0
271.943054 144.0
271.969299 136.0
272.015259 156.0
272.042755 204.0
272.107178 60.0
272.297638 60.0
272.343628 48.0
272.442169 128.0
272.613037 88.0
272.688629 232.0
272.987793 216.0
273.073303 92.0
273.165405 140.0
273.201599 208.0
273.300293 184.0
273.359528 212.0
273.553711 160.0
273.672241 192.0
273.926483 176.0
274.07077 208.0
274.103729 180.0
274.139984 92.0
274.163055 132.0
274.461212 224.0
274.769775 60.0
274.825867 188.0
274.951263 80.0
275.070068 108.0
275.132812 148.0
275.251678 168.0
275.37384 52.0
275.704224 96.0
275.730682 88.0
275.869507 80.0
275.912476 172.0
276.213409 156.0
276.368896 132.0
276.620422 92.0
277.044312 88.0
277.097321 128.0
277.173523 104.0
277.266327 96.0
277.36908 128.0
277.735474 200.0
277.830017 160.0
277.91626 88.0
278.049011 152.0
278.530457 124.0
278.640076 124.0
278.716492 152.0
278.769653 36.0
278.80954 108.0
278.956573 172.0
279.024963 388.0
279.062195 124.0
279.112061 188.0
279.434692 176.0
279.527863 200.0
279.670959 128.0
279.720886 200.0
279.76416 120.0
280.035461 792.0
280.077515 144.0
280.107178 128.0
280.223755 84.0
280.347046 160.0
280.557037 124.0
280.720428 40.0
280.78714 116.0
281.015076 84.0
281.044128 1360.0
281.093475 120.0
281.568085 236.0
281.902161 68.0
281.979034 124.0
282.012451 44.0
282.05191 696.0
282.162872 164.0
282.21637 184.0
282.493958 180.0
282.862061 192.0
282.885498 52.0
283.025604 976.0
283.05899 928.0
283.21701 48.0
283.257202 192.0
283.36441 52.0
283.495087 112.0
283.756531 48.0
283.813538 136.0
283.868896 228.0
283.940979 204.0
284.024384 312.0
284.062836 744.0
284.118744 120.0
284.143951 140.0
284.363708 140.0
284.931213 152.0
285.033936 104.0
285.077148 152.0
285.166962 232.0
285.253815 72.0
285.314331 112.0
285.344604 160.0
285.771729 112.0
285.89624 144.0
286.055847 172.0
286.121765 172.0
286.229523 184.0
286.323792 176.0
286.505707 172.0
286.643829 52.0
286.704498 52.0
286.873016 40.0
287.014648 152.0
287.179871 140.0
287.203491 172.0
287.321564 100.0
287.422791 64.0
287.463287 172.0
287.750183 32.0
287.912262 200.0
287.93927 224.0
288.010223 144.0
288.412292 124.0
288.615143 76.0
288.712585 168.0
289.058258 96.0
289.112427 164.0
289.25119 76.0
289.386597 76.0
289.434021 180.0
289.528839 176.0
289.610107 184.0
289.904877 236.0
290.769684 112.0
291.555359 164.0
291.79892 208.0
291.989349 256.0
292.013153 168.0
292.120331 160.0
292.149231 120.0
292.222656 212.0
292.335114 260.0
292.397614 132.0
292.649536 112.0
292.847046 124.0
292.949219 68.0
293.050232 212.0
293.211609 92.0
293.307037 148.0
293.378632 144.0
293.41272 80.0
293.487732 56.0
293.576385 92.0
293.756348 152.0
293.883392 164.0
293.920929 140.0
294.058105 300.0
294.101807 176.0
294.156403 200.0
294.217865 224.0
294.299805 196.0
294.436401 72.0
294.508118 156.0
294.743835 28.0
294.880554 108.0
294.914734 56.0
295.033173 232.0
295.064606 220.0
295.109589 184.0
295.249786 240.0
295.287415 180.0
295.342133 136.0
295.371277 116.0
295.424225 160.0
295.499481 64.0
295.585022 152.0
295.636353 76.0
295.684265 100.0
295.735626 188.0
295.790375 96.0
295.819519 140.0
295.852997 124.0
295.893097 176.0
295.922119 100.0
295.939758 108.0
295.945679 168.0
296.033142 18224.0
296.089447 140.0
296.120178 172.0
296.156769 100.0
296.273529 176.0
296.320343 108.0
296.350372 116.0
296.383881 232.0
296.427429 132.0
296.50351 236.0
296.563599 200.0
296.613922 172.0
296.635834 484.0
296.696167 320.0
296.735901 40.0
296.777344 224.0
296.791534 116.0
296.801514 204.0
296.899353 168.0
296.940826 132.0
296.945557 240.0
297.041626 87632.0
297.139038 116.0
297.147156 88.0
297.15979 240.0
297.186859 100.0
297.197449 104.0
297.247559 176.0
297.280945 288.0
297.317902 48.0
297.34845 216.0
297.373199 108.0
297.407318 172.0
297.450623 56.0
297.482849 72.0
297.534668 64.0
297.540344 60.0
297.560028 60.0
297.607239 516.0
297.662201 96.0
297.701843 64.0
297.7258 72.0
297.757507 56.0
297.814728 140.0
297.842224 100.0
297.894867 60.0
297.902405 40.0
297.927338 96.0
297.985413 204.0
298.044434 15640.0
298.10968 132.0
298.14328 28.0
298.187958 52.0
298.229706 84.0
298.26947 56.0
298.302948 96.0
298.387054 56.0
298.443756 152.0
298.514557 68.0
298.568146 48.0
298.592194 76.0
298.638367 72.0
298.70993 104.0
298.77597 68.0
298.810944 72.0
298.847076 48.0
298.92276 108.0
298.929108 88.0
298.958221 152.0
299.044525 2808.0
299.146912 132.0
299.186798 116.0
299.247467 32.0
299.316345 68.0
299.357666 80.0
299.388641 84.0
299.413513 92.0
299.44278 112.0
299.473267 140.0
299.512634 48.0
299.584045 88.0
299.622864 100.0
299.691559 184.0
299.741425 88.0
299.787964 88.0
299.800812 88.0
299.816956 188.0
299.877563 88.0
299.933533 80.0
299.961334 132.0
300.006104 256.0
300.048798 268.0
300.088257 96.0
300.118011 128.0
300.205383 76.0
300.279114 128.0
300.307526 124.0
300.355988 60.0
300.427002 96.0
300.508942 52.0
300.53656 84.0
300.624878 140.0
300.77121 44.0
300.805756 76.0
300.840271 80.0
300.964539 100.0
300.988739 72.0
301.047424 68.0
301.085419 112.0
301.157959 128.0
301.199097 88.0
301.30304 36.0
301.395721 68.0
301.42395 172.0
301.493073 40.0
301.576019 92.0
301.60022 32.0
301.634796 136.0
301.672821 48.0
301.752319 44.0
301.901001 56.0
301.98056 36.0
302.030487 176.0
302.118439 88.0
302.128754 76.0
302.140228 76.0
302.184662 32.0
302.271149 56.0
302.329987 96.0
302.469604 60.0
302.586151 100.0
302.627686 56.0
302.658844 112.0
302.769653 132.0
302.887421 160.0
303.092834 68.0
303.150726 60.0
303.181915 56.0
303.296295 44.0
303.324036 32.0
303.473114 44.0
303.582153 80.0
303.705444 80.0
303.937897 80.0
304.024658 160.0
304.076721 120.0
304.559326 64.0
304.70871 56.0
304.806 232.0
305.024933 116.0
305.198792 160.0
305.40744 152.0
305.532684 40.0
305.821503 44.0
306.033844 124.0
306.598175 68.0
306.681824 48.0
306.859619 72.0
306.929352 32.0
306.981659 88.0
307.022247 376.0
307.170258 248.0
307.417694 40.0
307.529388 116.0
307.770264 132.0
307.83313 160.0
307.948364 128.0
308.035919 308.0
308.126526 96.0
308.259308 152.0
308.402588 176.0
308.74173 228.0
308.878143 184.0
309.04425 336.0
309.077545 176.0
309.196533 96.0
309.249023 68.0
309.596619 72.0
309.655182 72.0
309.763763 168.0
309.882874 124.0
310.048706 464.0
310.126526 172.0
310.240356 176.0
310.485809 132.0
310.866333 144.0
310.918091 128.0
311.005066 132.0
311.056396 7288.0
311.166534 88.0
311.199738 80.0
311.370209 28.0
311.436951 88.0
311.510712 176.0
311.710968 136.0
311.78479 112.0
311.918335 112.0
311.946472 176.0
312.062744 4548.0
312.1539 100.0
312.424744 76.0
312.554901 156.0
312.607697 48.0
313.064484 792.0
313.192139 76.0
313.230865 56.0
313.371796 120.0
313.399994 32.0
313.703064 60.0
313.78064 52.0
313.86795 204.0
313.918152 84.0
314.035309 576.0
314.059753 216.0
314.182678 108.0
314.256592 80.0
314.500275 72.0
314.592041 52.0
314.669006 80.0
314.743866 164.0
314.821564 36.0
314.984039 144.0
315.050446 100.0
315.118286 164.0
315.337372 124.0
315.697968 84.0
315.807617 56.0
316.111877 64.0
316.235748 92.0
316.274658 196.0
316.327759 84.0
316.4198 52.0
316.504791 48.0
316.628723 112.0
316.869598 68.0
316.93692 84.0
317.897888 60.0
318.142792 88.0
318.753723 128.0
318.927856 176.0
318.995392 148.0
319.230042 176.0
319.656921 136.0
319.696075 56.0
319.749451 124.0
320.29422 68.0
320.568542 120.0
320.675476 96.0
320.932129 64.0
320.985626 92.0
321.039124 132.0
321.064087 136.0
321.224579 96.0
321.456512 308.0
321.567139 124.0
321.602814 108.0
321.988434 88.0
322.049927 848.0
322.119141 228.0
322.195618 100.0
322.234894 56.0
322.395691 88.0
322.670929 96.0
322.794189 128.0
322.95343 64.0
323.00351 156.0
323.05658 480.0
323.260315 72.0
323.393524 104.0
323.518829 124.0
323.547455 124.0
323.651306 48.0
323.789429 104.0
323.826782 40.0
323.969666 108.0
324.017639 336.0
324.05603 348.0
324.134857 172.0
324.159943 144.0
324.33197 68.0
324.362488 204.0
324.400085 104.0
324.432343 100.0
324.470551 268.0
324.529144 100.0
324.694122 148.0
324.744324 112.0
324.787354 48.0
324.861328 136.0
324.900696 108.0
324.968384 196.0
325.036316 59516.0
325.117249 112.0
325.154938 80.0
325.197235 120.0
325.229004 96.0
325.281097 60.0
325.307678 56.0
325.354248 168.0
325.437134 136.0
325.475769 88.0
325.525482 128.0
325.587738 96.0
325.626831 72.0
325.663971 72.0
325.712219 136.0
325.742188 52.0
325.805786 80.0
325.852142 108.0
325.963989 156.0
326.038422 9460.0
326.083832 500.0
326.138214 244.0
326.212585 240.0
326.24939 100.0
326.343018 44.0
326.399902 52.0
326.450775 80.0
326.495422 124.0
326.586914 48.0
326.621246 88.0
326.694824 40.0
326.720001 40.0
326.777863 48.0
326.825653 84.0
326.899078 120.0
327.037292 1888.0
327.085052 2948.0
327.30307 84.0
327.353485 72.0
327.4039 124.0
327.429108 48.0
327.479553 100.0
327.598419 132.0
327.625366 68.0
327.693359 116.0
327.753326 44.0
327.816498 60.0
327.850616 68.0
327.882294 148.0
327.934753 140.0
327.986298 100.0
328.039062 228.0
328.091064 352.0
328.146942 60.0
328.240265 128.0
328.293121 260.0
328.358673 48.0
328.397705 168.0
328.461609 88.0
328.741364 76.0
328.787537 136.0
329.048187 100.0
329.087891 376.0
329.134827 48.0
329.170959 128.0
329.427399 80.0
329.456299 64.0
329.499634 84.0
329.604431 76.0
329.738129 40.0
329.785126 28.0
329.897186 60.0
329.936951 68.0
329.969482 120.0
330.101562 136.0
330.258789 80.0
330.320282 108.0
330.584381 80.0
330.627808 60.0
330.819672 96.0
330.939117 32.0
331.192627 80.0
331.34314 24.0
331.47522 36.0
333.205963 44.0
333.409454 96.0
333.671173 244.0
333.907532 96.0
334.376862 144.0
334.762756 136.0
334.959442 204.0
335.025024 120.0
335.706604 60.0
337.046295 72.0
337.850647 196.0
338.13974 140.0
338.68161 104.0
338.736572 148.0
338.887268 148.0
339.051147 1080.0
339.293579 56.0
339.575958 140.0
339.71167 252.0
339.799713 72.0
339.833221 128.0
339.897125 212.0
339.944672 276.0
339.998901 140.0
340.059509 15036.0
340.130524 204.0
340.225433 44.0
340.286865 176.0
340.328247 84.0
340.563263 40.0
340.608337 208.0
340.65509 64.0
340.754303 108.0
340.952728 192.0
340.996826 216.0
341.061127 2684.0
341.500549 88.0
341.618256 56.0
341.651367 72.0
341.718262 140.0
341.754028 44.0
341.901581 112.0
342.017365 148.0
342.06723 352.0
342.166595 88.0
342.269684 92.0
342.929108 60.0
343.063904 120.0
343.143188 112.0
343.211426 76.0
343.345734 104.0
343.382629 76.0
343.526489 100.0
343.95874 56.0
344.058441 164.0
344.142822 64.0
344.360687 100.0
344.948212 76.0
345.050476 240.0
346.124725 76.0
346.287659 76.0
346.906464 36.0
347.689087 56.0
349.327698 64.0
349.487671 204.0
350.612274 80.0
350.958954 152.0
351.052155 232.0
351.484894 196.0
352.530457 152.0
353.023926 208.0
353.091248 176.0
353.716095 136.0
353.862091 156.0
353.963196 160.0
354.236603 52.0
354.337738 160.0
354.465149 60.0
354.633789 104.0
354.774506 52.0
354.967438 152.0
355.004944 120.0
355.081635 14692.0
355.185272 152.0
355.267517 36.0
355.380066 60.0
355.440094 44.0
355.534882 156.0
355.712494 48.0
355.819183 28.0
355.898041 32.0
356.086487 2568.0
356.142944 148.0
356.186829 80.0
356.438934 52.0
356.491547 56.0
356.76593 56.0
356.864777 116.0
357.087158 284.0
357.420349 68.0
357.503143 116.0
358.105499 72.0
358.151855 120.0
358.285889 104.0
358.35791 132.0
358.391815 120.0
358.486023 32.0
359.22879 84.0
359.338196 36.0
359.504211 40.0
359.723145 88.0
360.542755 60.0
361.038025 88.0
362.048462 120.0
363.557312 112.0
363.610443 52.0
364.723297 48.0
365.381195 100.0
370.328461 92.0
376.134583 84.0
376.296722 100.0
381.149994 116.0
381.612549 68.0
381.900299 124.0
388.968933 84.0
394.531311 116.0
395.037506 124.0
396.799835 64.0
399.651581 148.0
401.643524 92.0
403.784363 44.0
411.503845 76.0
412.796844 64.0
414.213409 72.0
414.651001 92.0
424.463684 96.0
426.997528 88.0
427.816345 104.0
428.223999 72.0
429.369781 48.0
434.22522 68.0
446.735687 156.0
447.905945 48.0
448.028107 36.0
449.238007 44.0
452.962219 64.0
458.579498 20.0
461.71756 76.0
462.384979 84.0
464.853424 52.0
464.93927 60.0
466.459747 104.0
466.747803 72.0
468.947662 60.0
470.483307 48.0
474.823364 92.0
475.955994 64.0
477.333435 36.0
478.978577 60.0
481.154663 76.0
483.825867 88.0
484.246246 112.0
485.499695 104.0
485.710205 52.0
487.519104 84.0
490.908813 108.0
492.745026 44.0
493.049927 96.0
494.429749 148.0
497.545868 68.0
500.631683 32.0
507.087402 68.0
510.877197 76.0
513.205627 116.0
514.450867 36.0
516.687866 104.0
516.936768 92.0
519.777954 28.0
522.399475 76.0
527.022461 44.0
529.78125 32.0
536.320251 64.0
547.942688 136.0
551.359192 88.0
551.489197 108.0
555.774231 76.0
556.529907 88.0
557.887695 84.0
561.933228 64.0
567.092468 108.0
568.382385 52.0
571.49939 84.0
577.481567 116.0
579.707764 144.0
583.48053 36.0
583.663208 88.0
585.593018 76.0
590.622437 60.0
591.067505 68.0
600.755493 64.0
605.922974 64.0
610.586243 100.0
617.154663 72.0
622.441711 108.0
624.936951 36.0
636.784607 120.0
652.7901 140.0
660.118042 32.0
662.995056 48.0
668.114319 132.0
669.93158 28.0
669.993408 36.0
672.385925 104.0
674.358887 56.0
683.595459 72.0
687.550842 108.0
697.286926 44.0
701.69812 92.0
705.261414 100.0
709.119873 104.0
711.80426 116.0
722.073547 108.0
726.24585 68.0
735.684265 80.0
737.612732 108.0
745.808472 32.0
750.452148 92.0
753.809082 124.0
755.99646 28.0
756.127808 48.0
757.524048 128.0
766.484985 92.0
766.655762 48.0
767.752869 56.0
774.994263 100.0
777.067932 60.0
791.610535 48.0
823.040466 36.0
840.674805 68.0
860.707764 80.0
873.013611 112.0
876.440857 88.0
888.963745 48.0
923.588257 72.0
941.157715 60.0
943.97467 32.0
955.850525 100.0
986.796265 52.0
988.316162 116.0
1005.717773 144.0
1007.536438 56.0
1008.907837 104.0
1021.15863 116.0
1028.792236 84.0
1037.332397 80.0
1042.569824 136.0
1044.376343 88.0
1050.921509 112.0
1054.725342 40.0
1054.938599 136.0
1061.438965 44.0
1099.909302 84.0
1107.572998 60.0
1120.207275 100.0
1136.540283 156.0
1158.36377 56.0
1190.09729 56.0
1203.779297 100.0
1225.06543 132.0
1232.446777 108.0
1232.698242 100.0
1270.437988 88.0
1306.436401 236.0
1306.623413 48.0
1316.758301 52.0
1316.823242 132.0
1339.038452 184.0
1354.515747 200.0
1359.083008 60.0
1389.095337 236.0
1390.460571 176.0
1397.304321 140.0
1405.127075 60.0
1415.448975 160.0
1416.87207 100.0
1425.410522 60.0
1426.665649 88.0
1431.112061 212.0
1438.847534 188.0
1443.89502 72.0
1446.134521 152.0
1446.959595 200.0
1453.508301 96.0
1464.074707 44.0
1464.996338 104.0
1477.103271 64.0
1484.685791 144.0
1486.695679 88.0
1487.470825 96.0
1492.149292 208.0
1492.28772 76.0
1493.087402 132.0
1497.458862 140.0
1498.383179 120.0
1502.916748 140.0
