>compound Ifenprodil
>formula C21H27NO2
>ionization [M+H]+
>parentmass 326.2114555560906
#inchi InChI=1S/C21H27NO2/c1-16(21(24)19-7-9-20(23)10-8-19)22-13-11-18(12-14-22)15-17-5-3-2-4-6-17/h2-10,16,18,21,23-24H,11-15H2,1H3
#inchikey UYNVMODNBIQBMV
#Ion_Source LC-ESI
#Instrument qTof
#Compound_Source Commercial
#PI Dorrestein
#Data_Collector Garg_Neha
#Scan -1
#Precursor_MZ 326.211
#ExactMass 325.204
#Charge 1
#CAS_Number N/A
#Pubmed_ID N/A
#Smiles CC(C(O)c1ccc(O)cc1)N2CCC(Cc3ccccc3)CC2
#INCHI_AUX N/A
#Library_Class 1
#SpectrumID CCMSLIB00000079147
#IonMode Positive
#UpdateWorkflowName UPDATE-SINGLE-ANNOTATED-GOLD
#LibraryQualityString Gold
#TaskID 278b19f5865741e282cec7349aa7e7a1
##Scan# 1124
#SpectrumFile NCP003512_G2_H11_BD7_01_15731.mzXML
#LibraryName NIHcollectionI_05062014.mgf
#MQScore -1
#Organism NIHcollectionI_05062014
#TIC_Query 0
#RT_Query -1
#MZErrorPPM -1
#SharedPeaks 0
#MassDiff 0
#LibMZ -1
#SpecMZ 326.211
#SpecCharge 0
#internalFilename spec-00000.mgf

>collision 10
45.058651 108.0
45.482464 140.0
45.764782 172.0
46.348289 144.0
47.067852 156.0
47.085606 140.0
47.153915 172.0
47.193558 152.0
47.531883 188.0
47.575806 164.0
47.904472 168.0
48.252247 180.0
48.389214 196.0
48.92511 156.0
49.135548 164.0
49.449894 176.0
49.562405 148.0
50.893524 140.0
50.970226 212.0
51.824928 196.0
52.022842 232.0
52.172249 140.0
52.205318 156.0
52.576996 148.0
53.440643 144.0
54.716908 188.0
55.152081 144.0
55.627567 156.0
55.776112 212.0
56.242332 160.0
56.451492 156.0
56.545742 176.0
57.314621 172.0
58.038643 228.0
58.573597 168.0
59.224297 180.0
60.466812 156.0
61.047024 224.0
62.004002 192.0
62.295845 164.0
62.427872 140.0
62.555313 172.0
62.640347 180.0
63.310028 160.0
64.608864 164.0
64.86348 156.0
65.961296 156.0
65.996864 176.0
66.294701 152.0
67.44072 152.0
67.548386 152.0
67.667847 204.0
69.083183 144.0
69.195724 184.0
69.333206 160.0
69.618546 172.0
69.834595 172.0
69.912788 144.0
69.932762 152.0
70.239349 180.0
70.262703 156.0
71.065781 188.0
71.258858 180.0
71.391647 200.0
71.790764 148.0
71.891975 200.0
73.046906 116.0
73.239838 196.0
73.292656 168.0
73.398834 212.0
73.488731 140.0
74.471352 164.0
74.906525 144.0
75.543503 156.0
76.186653 212.0
76.466599 140.0
76.548424 148.0
76.611122 176.0
77.327034 140.0
78.220436 164.0
78.548187 144.0
78.560539 148.0
78.86248 180.0
79.335106 144.0
80.09388 180.0
80.125938 164.0
80.305984 160.0
80.63092 188.0
80.870583 184.0
81.071167 192.0
81.194862 140.0
81.315063 180.0
81.573715 144.0
82.353928 180.0
82.881027 272.0
83.076164 200.0
83.101562 172.0
83.139671 172.0
84.117058 204.0
84.237579 164.0
84.627113 184.0
85.261803 152.0
85.84906 220.0
85.865654 176.0
86.055725 232.0
86.290367 188.0
86.52533 220.0
87.371597 192.0
87.928741 144.0
88.221992 188.0
89.074623 164.0
90.795982 160.0
91.017021 108.0
91.05526 676.0
91.183273 164.0
91.333481 200.0
91.540924 152.0
92.061523 204.0
92.126732 224.0
92.625732 160.0
94.510498 164.0
94.651794 252.0
94.897873 212.0
96.711525 140.0
96.748711 184.0
97.887489 196.0
97.968239 148.0
98.045082 184.0
98.094749 736.0
98.171257 180.0
98.384346 172.0
98.704414 148.0
99.544594 144.0
99.816826 148.0
100.899483 140.0
101.231628 212.0
101.313744 144.0
101.742905 168.0
102.398422 168.0
102.432663 148.0
103.029778 176.0
103.053848 920.0
103.841476 228.0
103.890991 176.0
104.060631 144.0
104.286118 168.0
104.594582 220.0
104.721527 172.0
105.070854 6400.0
105.793533 160.0
106.043434 216.0
106.073471 944.0
106.780495 140.0
106.799004 168.0
107.05014 4736.0
107.245804 216.0
107.701797 200.0
108.054436 164.0
108.081619 168.0
108.695526 192.0
109.064941 2420.0
109.096375 164.0
109.914886 164.0
110.075333 324.0
110.097206 340.0
110.523605 160.0
110.679916 148.0
111.09977 164.0
111.214493 168.0
111.24765 176.0
111.28167 148.0
112.49852 188.0
112.718987 168.0
115.054924 892.0
115.266846 136.0
115.351456 224.0
115.717278 156.0
116.061447 268.0
116.096542 224.0
117.022659 180.0
117.070152 3412.0
117.130333 156.0
117.207893 160.0
118.073624 272.0
118.172256 136.0
118.233627 156.0
118.460968 172.0
118.491295 172.0
118.938019 144.0
119.048859 152.0
119.085663 212.0
119.864479 164.0
120.056236 1880.0
121.064011 572.0
121.184219 140.0
121.561356 204.0
121.710625 160.0
122.068787 244.0
122.172165 224.0
122.667641 264.0
122.751419 192.0
123.106697 172.0
124.555153 228.0
124.866318 164.0
125.730728 204.0
126.721313 160.0
127.055367 156.0
127.886787 152.0
128.059998 176.0
128.429794 232.0
128.576447 196.0
129.06868 728.0
129.163422 176.0
129.651382 140.0
129.68013 140.0
130.074997 292.0
130.654266 176.0
131.048843 556.0
131.08551 2824.0
132.054718 164.0
132.086151 632.0
132.416458 296.0
132.526413 148.0
132.66391 164.0
132.700592 168.0
133.065125 12224.0
133.109634 148.0
133.209625 232.0
133.550262 144.0
133.70369 180.0
133.736633 156.0
133.969193 144.0
134.069244 972.0
134.107452 216.0
134.610382 168.0
134.963913 140.0
135.080811 4676.0
135.730331 316.0
136.083267 736.0
137.066879 164.0
137.090179 200.0
137.549637 156.0
137.570648 156.0
137.65004 204.0
137.867279 148.0
138.702835 156.0
138.981903 172.0
140.157562 180.0
140.291901 156.0
141.42572 176.0
141.804672 188.0
142.077362 320.0
142.473831 140.0
143.035034 168.0
143.061325 212.0
143.088715 144.0
143.89801 140.0
144.093399 136.0
144.555313 184.0
145.057953 124.0
145.071976 388.0
145.103012 428.0
146.062195 188.0
146.104126 124.0
146.141373 204.0
146.408569 164.0
147.071991 140.0
147.31546 216.0
148.009567 144.0
148.075043 408.0
148.21788 224.0
148.610672 140.0
149.081741 320.0
149.159409 180.0
150.091766 1552.0
150.694824 180.0
150.984421 176.0
151.029724 140.0
151.075302 4760.0
151.200989 192.0
151.737427 176.0
151.830612 140.0
152.078598 584.0
153.010056 180.0
153.088837 264.0
153.241562 152.0
153.352448 176.0
154.631805 168.0
154.784393 176.0
155.045395 156.0
155.978622 152.0
156.520966 164.0
157.103806 248.0
157.26886 236.0
158.286362 144.0
158.85527 176.0
159.07959 376.0
159.118866 352.0
159.70372 160.0
160.075272 240.0
160.115662 248.0
160.853271 172.0
161.009811 192.0
161.081863 120.0
161.158844 180.0
161.538071 164.0
161.586136 140.0
161.608902 140.0
161.829102 148.0
162.091415 1388.0
162.807877 144.0
162.92218 176.0
163.003479 160.0
163.036514 152.0
163.098312 228.0
163.649551 156.0
164.511246 172.0
165.068222 144.0
165.111694 140.0
165.610779 188.0
165.710678 192.0
166.508438 152.0
169.55014 176.0
169.762711 140.0
172.11438 184.0
172.240402 168.0
173.08963 184.0
173.120361 120.0
173.482574 120.0
174.094589 176.0
174.127914 9676.0
174.192764 132.0
174.516342 156.0
175.01767 172.0
175.09668 404.0
175.131592 576.0
175.186234 224.0
175.465576 152.0
175.518311 148.0
175.915817 164.0
176.03421 172.0
176.107681 612.0
176.144424 61624.0
176.272507 104.0
176.40744 104.0
176.478027 128.0
176.519073 176.0
176.607422 108.0
176.652908 104.0
176.884796 240.0
177.147003 6392.0
178.013611 220.0
178.148499 604.0
178.303665 244.0
178.343033 144.0
178.585907 116.0
179.466446 160.0
180.187057 180.0
180.652222 172.0
181.790924 156.0
182.960114 152.0
183.787521 176.0
184.052032 164.0
185.193253 160.0
186.130539 1080.0
186.487457 160.0
186.547256 160.0
187.100235 308.0
187.133621 284.0
187.35701 100.0
187.483551 140.0
188.110046 120.0
188.146301 332.0
188.769302 144.0
189.11467 568.0
189.147064 148.0
189.785172 244.0
191.756561 140.0
192.990112 224.0
193.970139 184.0
194.175308 144.0
194.647064 156.0
195.069366 156.0
195.550568 176.0
195.897034 148.0
196.08139 164.0
198.200729 164.0
198.853714 132.0
199.050644 168.0
199.711075 152.0
200.11055 200.0
200.143143 408.0
201.113052 276.0
202.032578 144.0
202.120758 1208.0
202.158203 568.0
203.164322 112.0
203.509155 236.0
204.444336 180.0
204.524033 228.0
204.965454 164.0
208.281219 144.0
209.70546 140.0
210.035782 120.0
211.09407 168.0
212.725235 168.0
213.742432 152.0
213.879211 364.0
214.161087 388.0
214.371414 144.0
214.473419 140.0
215.135574 148.0
215.234833 140.0
215.500626 184.0
216.137161 600.0
216.867233 152.0
217.147537 196.0
218.029449 160.0
219.118286 100.0
219.404037 188.0
221.09758 156.0
223.113495 180.0
224.292313 248.0
224.44136 160.0
224.650131 148.0
225.43837 172.0
226.668243 148.0
226.749146 148.0
227.390961 152.0
229.152512 148.0
229.812149 168.0
231.648453 164.0
232.008087 160.0
232.169891 828.0
232.412735 160.0
232.500443 140.0
233.010559 156.0
233.180725 144.0
233.962448 160.0
234.483322 148.0
234.998657 140.0
235.484024 160.0
236.006577 196.0
236.517838 196.0
237.295563 184.0
237.651337 160.0
238.151718 172.0
238.184372 216.0
238.329895 140.0
238.904816 152.0
239.231018 148.0
239.94574 180.0
240.016647 204.0
240.664597 152.0
241.050705 200.0
241.384552 200.0
242.117966 148.0
242.244949 180.0
242.836975 176.0
242.883499 148.0
244.028473 168.0
244.079163 152.0
245.471039 156.0
245.91716 156.0
246.731445 176.0
247.071396 176.0
249.727066 160.0
250.128448 204.0
250.202209 224.0
250.769211 184.0
250.936279 188.0
251.125473 164.0
251.625992 156.0
253.521881 164.0
253.626465 168.0
253.740585 192.0
254.152908 236.0
254.457596 184.0
254.756119 160.0
254.841904 200.0
256.700775 176.0
256.767761 168.0
257.182526 208.0
257.393219 152.0
257.709442 168.0
258.083374 160.0
258.188904 196.0
258.505615 236.0
258.873474 140.0
258.940979 204.0
259.197266 212.0
259.42804 160.0
261.163422 224.0
261.348572 156.0
261.551331 192.0
261.651123 144.0
261.805664 232.0
262.179352 164.0
262.492065 172.0
262.850098 196.0
265.045654 144.0
265.272491 164.0
267.155975 168.0
267.875366 180.0
268.882874 160.0
269.264862 164.0
270.631744 164.0
271.014862 136.0
271.418121 172.0
271.649841 196.0
274.459595 152.0
275.01712 172.0
275.172272 160.0
276.176849 160.0
276.802338 216.0
276.828827 140.0
277.232971 240.0
277.342346 152.0
278.02771 204.0
278.154205 460.0
279.125092 184.0
279.152435 144.0
280.168854 416.0
280.246368 184.0
280.486755 152.0
281.738098 164.0
282.276215 284.0
282.798096 156.0
283.159698 144.0
283.648865 152.0
283.970764 156.0
284.259277 144.0
285.81839 168.0
286.040527 144.0
286.75119 192.0
287.09845 144.0
287.354797 168.0
288.607849 208.0
290.1716 172.0
290.948975 184.0
291.149292 140.0
291.22403 156.0
291.947906 164.0
292.167938 2416.0
293.122345 152.0
293.177979 16984.0
293.245728 108.0
293.288147 232.0
293.859375 96.0
293.957764 160.0
294.049896 204.0
294.131836 168.0
294.180725 2984.0
294.545685 132.0
294.804657 172.0
295.002869 168.0
295.188263 332.0
295.466736 144.0
296.025879 144.0
296.085236 120.0
297.421234 212.0
298.501434 132.0
298.640991 176.0
298.857697 172.0
300.088745 180.0
301.150146 168.0
301.50946 168.0
302.322144 208.0
302.51944 248.0
303.284943 188.0
303.534546 144.0
304.171539 112.0
306.18573 288.0
306.697906 96.0
306.893768 120.0
307.176788 108.0
307.234009 140.0
307.295166 148.0
307.360687 116.0
307.493408 160.0
307.747559 164.0
307.82312 116.0
307.932007 104.0
308.010162 176.0
308.070557 244.0
308.201508 126876.0
308.342468 172.0
308.472595 208.0
308.487305 152.0
308.497528 224.0
308.556519 124.0
308.593292 156.0
308.823029 124.0
308.851379 232.0
308.976074 136.0
309.204407 26656.0
309.287628 224.0
309.537079 100.0
309.573486 152.0
309.630951 108.0
309.712189 132.0
309.800262 220.0
309.843201 148.0
310.14151 152.0
310.207184 2464.0
310.28125 296.0
310.716766 112.0
310.774017 96.0
311.098755 128.0
311.215332 408.0
311.352814 312.0
311.388702 236.0
311.585205 112.0
311.949005 112.0
311.993896 124.0
312.02002 172.0
312.203735 140.0
312.296753 132.0
312.446289 184.0
313.127472 140.0
313.15918 156.0
316.818665 152.0
320.456635 188.0
321.176727 172.0
321.747681 220.0
322.144073 196.0
322.633667 144.0
322.713074 160.0
323.867584 116.0
324.111572 128.0
324.194214 160.0
324.248596 156.0
324.489532 176.0
324.588226 96.0
324.703613 96.0
324.755585 124.0
325.002655 220.0
325.04953 208.0
325.087769 116.0
325.161072 228.0
325.327179 168.0
325.368317 196.0
325.449982 208.0
325.524506 124.0
325.560425 128.0
325.65506 248.0
325.696106 312.0
325.747375 116.0
325.812592 124.0
325.874115 216.0
325.909302 120.0
325.959564 160.0
326.055939 232.0
326.07724 264.0
326.104706 232.0
326.213806 217996.0
326.322388 160.0
326.347382 140.0
326.416046 128.0
326.480469 168.0
326.534393 172.0
326.597046 320.0
326.668976 248.0
326.725189 164.0
326.735718 288.0
326.803558 3152.0
326.855011 296.0
326.923065 188.0
326.955719 116.0
327.016235 124.0
327.14978 180.0
327.215637 52544.0
327.317322 144.0
327.362152 188.0
327.410492 180.0
327.531799 108.0
327.623871 200.0
327.672302 128.0
327.787689 128.0
327.842621 108.0
327.924072 172.0
328.014282 128.0
328.217194 8024.0
328.274445 332.0
328.532562 100.0
328.791138 124.0
328.881012 244.0
328.934387 104.0
329.011902 104.0
329.038025 372.0
329.091125 196.0
329.126129 396.0
329.223175 788.0
329.282532 184.0
329.310974 192.0
329.347504 264.0
329.411346 276.0
329.461029 120.0
329.526428 100.0
329.591858 176.0
329.639496 124.0
329.695435 188.0
329.727814 128.0
329.967957 128.0
330.018463 132.0
330.146454 148.0
330.214783 128.0
330.280609 220.0
330.372162 108.0
330.425476 176.0
330.639069 128.0
330.965851 124.0
333.363251 96.0
334.161438 104.0
334.455078 140.0
338.737274 104.0
400.838318 140.0
435.943207 148.0
443.933228 140.0
460.72876 168.0
610.664429 100.0
1057.75293 104.0
1242.937744 232.0
1283.547607 148.0
1329.065918 152.0
1416.355713 168.0
1418.446289 160.0
1450.406738 148.0
1480.340698 260.0
1492.033936 148.0
1513.513672 188.0
1517.480591 168.0
1531.888916 180.0
1583.511353 236.0
1608.326172 168.0
1611.192871 156.0
1615.325806 144.0
1627.780396 148.0
1633.092529 268.0
1652.25061 164.0
1662.411133 212.0
1667.251099 144.0
1668.006958 220.0
1674.540649 168.0
1698.989258 184.0
1712.156982 204.0
1718.537231 140.0
1720.088623 220.0
1727.128662 216.0
1733.644409 160.0
1737.15979 184.0
1747.918823 144.0
1748.226807 148.0
1752.106812 164.0
1761.625366 208.0
1761.926147 184.0
1762.335449 164.0
1771.161255 204.0
1780.294678 180.0
1781.949341 172.0
1782.403076 180.0
1796.328125 208.0
1797.770874 172.0
1806.168945 204.0
1806.744141 192.0
1814.518555 140.0
1825.982056 160.0
1834.863281 152.0
1842.210938 144.0
1855.75 176.0
1861.610474 208.0
1862.203125 164.0
1863.233887 152.0
1876.858398 156.0
1885.940186 144.0
1895.953735 188.0
1900.098389 144.0
1900.931396 192.0
1901.920776 140.0
1903.552856 180.0
1906.16748 144.0
1921.779663 160.0
1941.013794 172.0
1941.759277 184.0
1946.840576 164.0
1952.394531 164.0
1953.740356 140.0
1975.344238 180.0
1976.627075 176.0
1980.610962 152.0
1982.639893 176.0
1985.804932 140.0
1998.935181 240.0
1999.549194 244.0
1999.869629 220.0
