>compound MLS001032299-01!
>formula C26H28N2O5
>ionization [M+H]+
>parentmass 449.208
#inchi InChI=1S/C26H28N2O5/c1-14-8-21(24-15(2)16(3)26(31)33-22(24)9-14)32-17(4)25(30)27-11-18-10-19(13-27)20-6-5-7-23(29)28(20)12-18/h5-9,17-19H,10-13H2,1-4H3/t17?,18-,19+/m1/s1
#inchikey PTWGDMBYDPBAFW
#Ion_Source LC-ESI
#Instrument qTof
#Compound_Source NIH Natural Product Library
#PI Dorrestein
#Data_Collector VVP/LMS
#Scan -1
#Precursor_MZ 449.208
#ExactMass 448.2
#Charge 1
#CAS_Number N/A
#Pubmed_ID N/A
#Smiles CC(Oc1cc(C)cc2oc(=O)c(C)c(C)c12)C(=O)N3C[C@H]4C[C@@H](C3)c5cccc(=O)n5C4
#INCHI_AUX N/A
#Library_Class 1
#SpectrumID CCMSLIB00000080340
#IonMode Positive
#UpdateWorkflowName UPDATE-SINGLE-ANNOTATED-GOLD
#LibraryQualityString Gold
#TaskID b1d8e8f6646f4e71acdff9ca3d919d08
##Scan# 1800
#SpectrumFile p2-E07_GE7_01_18031.mzXML
#LibraryName NIH_Natural_Products_Library.mgf
#MQScore -1
#Organism NIH_Natural_Products_Library
#TIC_Query 0
#RT_Query -1
#MZErrorPPM -1
#SharedPeaks 0
#MassDiff 0
#LibMZ -1
#SpecMZ 449.208
#SpecCharge 0
#internalFilename spec-00000.mgf

>collision 10
94.985039 52.0
95.043243 204.0
95.068474 156.0
95.204391 212.0
95.233528 140.0
95.26461 112.0
95.278214 172.0
95.375397 92.0
95.505692 160.0
95.647758 196.0
95.684753 212.0
95.706169 108.0
95.725647 252.0
95.752914 176.0
96.176079 132.0
96.361633 116.0
96.555183 112.0
96.576698 128.0
96.686287 184.0
96.745018 172.0
96.790054 136.0
97.078156 168.0
97.119354 140.0
97.148781 112.0
97.197838 240.0
97.22139 164.0
97.237091 120.0
97.33345 156.0
97.4217 144.0
97.681229 136.0
97.830811 196.0
97.866257 196.0
97.915489 212.0
97.950951 152.0
97.984444 124.0
98.163841 44.0
98.278267 136.0
98.657532 208.0
98.794014 152.0
98.829628 172.0
99.180214 176.0
99.612862 152.0
99.723343 208.0
99.753975 176.0
99.781815 284.0
99.932999 132.0
99.986732 184.0
100.028534 136.0
100.070351 180.0
100.197838 144.0
100.33139 172.0
100.794518 212.0
100.972466 28.0
101.024475 192.0
101.046486 196.0
101.142563 184.0
101.160583 144.0
101.254707 176.0
101.437172 156.0
101.934891 132.0
101.967049 148.0
102.148041 144.0
102.176216 92.0
102.366684 228.0
102.653656 140.0
102.683914 212.0
102.72628 156.0
102.748474 196.0
102.932175 156.0
102.974594 128.0
103.089767 152.0
103.326378 188.0
103.476173 136.0
103.506546 180.0
103.534904 28.0
103.863297 64.0
103.907936 216.0
104.084549 112.0
104.175957 80.0
104.218628 100.0
104.306038 96.0
104.348732 164.0
104.615288 144.0
104.727303 52.0
104.810844 168.0
105.073158 244.0
105.102829 252.0
105.396553 104.0
105.447655 124.0
105.750404 108.0
105.854828 228.0
106.102791 152.0
106.117149 160.0
106.201241 192.0
106.609871 144.0
106.65509 224.0
106.706497 180.0
106.739098 136.0
106.786705 180.0
106.918404 84.0
107.08725 184.0
107.206764 212.0
107.247993 144.0
107.363464 164.0
107.419167 204.0
107.474876 120.0
107.536797 124.0
107.619385 136.0
107.842529 160.0
107.857002 276.0
108.077431 288.0
108.254303 76.0
108.399338 96.0
108.480179 148.0
108.565201 180.0
108.731201 208.0
109.088074 1628.0
109.119705 224.0
109.142578 80.0
109.204979 132.0
109.294449 132.0
109.848724 132.0
109.948891 224.0
110.091858 128.0
110.237129 164.0
110.356293 148.0
110.383484 172.0
110.758171 48.0
110.82103 176.0
111.387558 176.0
111.410667 160.0
111.610367 208.0
111.852348 156.0
112.113556 192.0
112.181015 156.0
112.218971 204.0
112.248497 148.0
112.282242 112.0
112.398293 48.0
112.423615 200.0
112.65313 228.0
112.751007 180.0
112.869408 124.0
112.913826 132.0
113.114868 140.0
113.271355 176.0
113.33728 100.0
113.432663 156.0
113.483551 124.0
113.617195 188.0
113.767891 64.0
113.823105 168.0
113.908073 140.0
114.180183 176.0
115.091278 180.0
115.37233 156.0
115.402267 156.0
115.603371 96.0
115.637619 232.0
115.755379 228.0
115.988945 164.0
116.113327 188.0
116.16481 108.0
116.336517 192.0
116.508347 168.0
116.68676 212.0
116.895432 92.0
117.099937 184.0
117.145226 48.0
117.326279 204.0
117.358627 100.0
117.520416 112.0
117.550629 48.0
117.611069 144.0
117.65641 40.0
117.92215 148.0
118.013115 108.0
118.102989 188.0
118.493523 208.0
118.554474 96.0
118.745018 156.0
118.820953 104.0
118.888893 156.0
119.031525 160.0
119.123215 228.0
119.38797 228.0
119.418427 156.0
119.798576 156.0
120.112114 180.0
120.174469 152.0
120.226845 152.0
120.493279 88.0
120.512947 212.0
120.878174 200.0
121.040184 108.0
121.079193 432.0
121.101746 188.0
121.139877 164.0
121.276825 48.0
121.373299 104.0
121.651985 96.0
121.845276 136.0
122.045311 132.0
122.062904 92.0
122.100769 920.0
122.142487 180.0
122.234512 108.0
122.401833 176.0
122.635399 204.0
122.677284 52.0
122.82505 56.0
122.908905 220.0
123.109093 196.0
123.76107 144.0
123.839767 136.0
123.961639 164.0
124.112396 152.0
124.17672 44.0
124.334267 168.0
124.405304 56.0
124.487465 164.0
124.791939 176.0
124.941444 188.0
125.085648 176.0
125.121208 144.0
125.205902 220.0
125.50901 216.0
125.654015 180.0
125.848221 212.0
125.966606 132.0
126.129761 196.0
126.371323 132.0
127.041069 192.0
127.099648 140.0
127.196167 120.0
127.223114 192.0
127.292725 136.0
127.857079 128.0
128.005676 144.0
128.670944 196.0
128.709335 228.0
128.847137 108.0
128.969177 180.0
129.272293 176.0
129.585922 204.0
129.621078 164.0
129.675476 180.0
129.693604 132.0
129.734421 192.0
129.766159 132.0
130.110413 540.0
130.33786 120.0
130.356415 144.0
130.443802 144.0
130.520111 124.0
130.654327 128.0
130.973068 164.0
131.101715 228.0
131.10849 104.0
131.115768 272.0
131.146271 212.0
131.182755 116.0
131.203262 168.0
131.43367 140.0
131.454208 160.0
131.518112 104.0
131.59346 136.0
131.707672 124.0
131.83107 96.0
132.086609 700.0
132.125931 680.0
132.197021 112.0
132.33667 172.0
132.588684 180.0
132.629944 228.0
132.918961 120.0
133.015366 148.0
133.096085 944.0
133.137085 168.0
133.183029 160.0
133.217484 136.0
133.334686 120.0
133.355377 180.0
133.386139 104.0
133.479538 184.0
133.511734 160.0
133.534744 96.0
133.55545 124.0
133.596863 36.0
133.889221 160.0
134.104141 2792.0
134.184219 48.0
134.237259 124.0
134.426453 204.0
134.521866 180.0
134.536301 144.0
134.553421 160.0
134.615784 128.0
135.113022 628.0
135.149826 164.0
135.216949 240.0
135.335037 176.0
135.487366 184.0
135.626984 200.0
135.721558 268.0
135.785431 208.0
135.891388 204.0
136.12587 204.0
136.179291 176.0
136.409363 88.0
136.430283 120.0
136.458191 124.0
136.572159 128.0
136.728073 56.0
136.751343 184.0
136.772293 136.0
136.830505 68.0
136.910095 168.0
136.935318 116.0
137.01918 176.0
137.040161 144.0
137.099823 172.0
137.200989 92.0
137.361923 192.0
137.401596 228.0
137.4646 200.0
137.658386 84.0
137.976212 156.0
138.06041 172.0
138.136581 320.0
138.203125 116.0
138.410553 172.0
138.441925 188.0
138.713745 200.0
138.784103 152.0
138.823959 200.0
138.845367 160.0
138.896683 184.0
138.960037 212.0
138.995239 112.0
139.044525 172.0
139.082092 148.0
139.206543 92.0
139.338089 144.0
139.425049 196.0
139.450912 212.0
139.519089 172.0
139.782562 112.0
140.067474 168.0
140.416382 156.0
140.498947 88.0
140.600433 172.0
140.720825 172.0
141.11348 252.0
141.195877 192.0
141.389908 176.0
141.593552 204.0
141.709641 52.0
141.759399 176.0
141.868454 128.0
142.112183 400.0
142.133286 224.0
142.260269 172.0
142.31456 192.0
142.48558 108.0
142.63533 72.0
143.0112 144.0
143.117203 436.0
143.623657 148.0
143.912476 156.0
144.055786 196.0
144.09465 152.0
144.128342 312.0
144.266129 164.0
144.31633 120.0
144.407227 60.0
144.55249 192.0
144.773453 116.0
144.883652 176.0
144.93158 40.0
144.962738 168.0
145.101227 180.0
145.145187 196.0
145.372864 152.0
145.526291 168.0
145.552109 152.0
145.711487 72.0
145.730713 116.0
145.838867 148.0
145.901382 132.0
145.961502 168.0
145.98555 144.0
146.036057 176.0
146.06012 172.0
146.108856 8152.0
146.136261 148.0
146.18486 76.0
146.30069 148.0
146.365814 132.0
146.405167 140.0
146.454941 36.0
146.599518 112.0
146.826157 96.0
146.922668 188.0
146.948898 192.0
147.069885 136.0
147.11618 8264.0
147.167236 160.0
147.200943 172.0
147.224426 80.0
147.243759 192.0
147.306564 136.0
147.374069 140.0
147.458817 196.0
147.674026 184.0
147.724838 148.0
147.773224 180.0
148.022583 112.0
148.056488 156.0
148.124054 7328.0
148.163757 172.0
148.19606 72.0
148.240631 32.0
148.304291 168.0
148.364258 56.0
148.39093 144.0
148.937042 40.0
148.980774 76.0
149.016357 56.0
149.126083 908.0
149.149948 376.0
149.26033 44.0
149.345459 108.0
149.600998 280.0
149.674057 132.0
149.691101 64.0
149.778793 40.0
149.798294 136.0
149.94754 148.0
150.078598 56.0
150.137131 320.0
150.232285 128.0
150.300598 180.0
150.50943 148.0
150.745102 132.0
150.845322 164.0
150.896667 144.0
151.366531 120.0
151.552719 168.0
151.704697 148.0
152.018692 172.0
152.221558 204.0
152.283554 204.0
152.355133 200.0
152.396912 124.0
152.546844 124.0
152.608322 184.0
152.977417 140.0
153.014343 152.0
153.184296 36.0
153.208939 256.0
153.275467 48.0
153.610825 116.0
153.766296 176.0
153.968781 152.0
154.023132 220.0
154.042892 224.0
154.094788 196.0
154.11702 456.0
154.210938 128.0
154.505249 192.0
154.576172 176.0
155.119507 236.0
155.223648 40.0
155.337753 240.0
155.404755 36.0
155.628174 96.0
155.672882 152.0
155.692749 116.0
155.80455 116.0
155.869156 124.0
156.033218 172.0
156.748703 188.0
156.78009 108.0
156.802521 220.0
156.962097 68.0
157.12674 176.0
157.158707 200.0
157.201614 188.0
157.338913 88.0
157.48877 88.0
157.887726 200.0
157.953766 284.0
158.111221 248.0
158.153976 164.0
158.176498 72.0
158.21907 160.0
158.274155 140.0
158.688385 192.0
158.805527 224.0
159.021347 124.0
159.120667 1336.0
159.167252 312.0
159.370468 208.0
159.511215 128.0
159.561508 204.0
159.644592 112.0
159.775314 192.0
159.805511 156.0
159.999344 220.0
160.067337 144.0
160.129883 5144.0
160.178162 196.0
160.432724 236.0
160.513412 80.0
160.578995 132.0
160.596649 76.0
160.730392 180.0
160.818726 52.0
161.135452 1164.0
161.178787 196.0
161.240585 332.0
161.259079 164.0
161.374573 32.0
161.442871 136.0
161.546585 52.0
161.630081 172.0
161.706024 52.0
162.075806 180.0
162.144119 1316.0
162.194946 64.0
162.331879 204.0
162.875092 176.0
162.971649 44.0
163.152023 488.0
163.218231 68.0
163.30217 176.0
163.421753 92.0
163.493011 136.0
163.554108 116.0
163.872498 64.0
164.061111 60.0
164.168228 228.0
164.61232 144.0
164.755386 164.0
165.092834 72.0
165.348709 148.0
165.556107 204.0
165.761078 160.0
165.981567 164.0
166.127777 104.0
166.212463 120.0
166.425537 68.0
166.505157 176.0
166.574524 172.0
166.690933 172.0
167.204559 144.0
167.22258 208.0
167.335861 164.0
167.361618 132.0
167.567703 188.0
167.639862 44.0
167.737823 156.0
167.81517 148.0
167.897705 156.0
167.964767 176.0
168.03186 192.0
168.091217 88.0
168.153152 96.0
168.181549 124.0
168.351974 144.0
168.643967 164.0
169.098297 228.0
169.138092 120.0
169.319351 120.0
169.59404 116.0
170.029831 160.0
170.131088 72.0
170.160233 180.0
170.198608 108.0
170.219376 216.0
170.668976 144.0
170.718399 96.0
170.793839 48.0
170.981201 196.0
171.059296 200.0
171.146881 296.0
171.225967 248.0
171.278061 124.0
171.322357 204.0
171.603867 136.0
171.825592 164.0
171.984802 124.0
172.016129 140.0
172.097076 240.0
172.133179 1952.0
172.15976 204.0
172.19632 80.0
172.222443 116.0
172.318985 80.0
172.407974 144.0
172.87355 140.0
172.916016 88.0
172.957306 208.0
173.00444 136.0
173.056549 244.0
173.066467 220.0
173.141983 8944.0
173.248779 84.0
173.318771 80.0
173.350235 96.0
173.386917 128.0
173.510147 60.0
173.72522 132.0
173.772461 164.0
173.927307 64.0
174.034973 208.0
174.146805 1900.0
174.210953 80.0
174.274017 36.0
174.318695 40.0
174.502731 88.0
174.663162 64.0
174.694748 128.0
174.771057 36.0
174.82106 76.0
174.873703 56.0
174.955307 176.0
175.111954 236.0
175.142014 520.0
175.165802 564.0
175.25824 196.0
175.321503 96.0
175.469131 168.0
175.590454 60.0
175.624741 152.0
175.711807 152.0
175.746109 104.0
175.764587 188.0
175.859604 92.0
176.137619 512.0
176.173492 216.0
176.499023 60.0
176.57309 56.0
176.813889 120.0
176.970093 112.0
177.057495 148.0
177.113052 172.0
177.158066 188.0
177.589844 116.0
177.749496 148.0
177.778702 272.0
177.845062 160.0
178.086716 152.0
178.190338 156.0
178.44516 148.0
178.653 108.0
178.884552 224.0
179.148239 160.0
179.174881 176.0
179.377441 184.0
179.676178 176.0
179.714844 220.0
180.349213 84.0
180.442795 144.0
180.464188 168.0
180.991379 104.0
181.085129 196.0
181.138702 180.0
181.160141 148.0
181.487167 152.0
181.881592 136.0
182.128662 108.0
182.365158 196.0
182.779373 52.0
183.013596 148.0
183.215622 44.0
183.28569 116.0
183.425842 176.0
183.552582 136.0
183.582245 228.0
183.649689 148.0
183.671265 28.0
184.13559 168.0
184.538284 164.0
184.689758 176.0
185.160721 176.0
185.288116 172.0
185.423615 140.0
185.797882 176.0
185.88472 172.0
186.070175 216.0
186.123627 164.0
186.168015 356.0
187.110764 116.0
187.145035 480.0
187.171097 404.0
187.312317 152.0
187.394058 176.0
187.426758 32.0
187.475815 180.0
188.125076 80.0
188.159286 144.0
188.217926 64.0
188.340836 80.0
188.395477 128.0
188.441925 104.0
188.543427 172.0
188.570389 120.0
188.605484 172.0
188.616623 144.0
188.627182 160.0
188.634598 220.0
188.715286 204.0
188.742645 116.0
188.769989 204.0
188.805542 164.0
188.859055 164.0
188.870117 232.0
188.929565 108.0
188.95549 164.0
189.06427 280.0
189.096283 176.0
189.166092 45312.0
189.212936 200.0
189.249161 44.0
189.276825 152.0
189.312286 124.0
189.337708 76.0
189.361664 68.0
189.417603 68.0
189.46347 160.0
189.500488 72.0
189.516098 60.0
189.566711 132.0
189.615753 224.0
189.656342 132.0
189.698288 104.0
189.708527 60.0
189.715622 88.0
189.771561 72.0
189.81073 52.0
189.855972 76.0
189.903976 68.0
189.940399 188.0
189.987839 148.0
190.041672 216.0
190.118011 156.0
190.1716 13576.0
190.236969 116.0
190.321182 136.0
190.352005 144.0
190.400833 76.0
190.482422 80.0
190.618164 40.0
190.637695 216.0
190.703094 36.0
190.765717 180.0
190.825256 120.0
190.870819 76.0
190.895569 64.0
190.92308 72.0
190.98085 236.0
191.082062 76.0
191.098236 180.0
191.181396 13652.0
191.247559 120.0
191.313858 120.0
191.336731 52.0
191.38269 88.0
191.418503 48.0
191.462753 120.0
191.484604 48.0
191.52951 80.0
191.569107 132.0
191.611343 104.0
191.681686 144.0
191.835236 172.0
191.898026 48.0
191.917328 52.0
191.953171 56.0
191.986267 36.0
192.041443 40.0
192.091095 72.0
192.115936 116.0
192.18425 2368.0
192.267715 88.0
192.289276 208.0
192.369125 76.0
192.483917 92.0
192.535553 112.0
192.557648 44.0
192.596313 132.0
192.712372 52.0
192.82016 120.0
192.972214 48.0
192.999878 40.0
193.024765 124.0
193.18248 272.0
193.331879 100.0
193.37616 56.0
193.437057 60.0
193.495956 216.0
193.532455 80.0
193.885834 56.0
194.132614 60.0
194.324036 100.0
194.754395 44.0
194.865524 108.0
195.38829 156.0
195.560852 200.0
195.847687 108.0
195.934052 92.0
196.44989 116.0
196.544754 76.0
197.268234 136.0
197.825012 64.0
198.315277 104.0
199.41571 188.0
199.789749 204.0
200.240204 148.0
200.262741 168.0
200.459976 44.0
201.026886 60.0
201.072037 80.0
201.653946 72.0
201.727448 128.0
202.000931 184.0
202.012756 128.0
202.016617 168.0
202.083847 148.0
202.152344 676.0
202.263855 60.0
202.548203 88.0
202.610535 124.0
202.644531 40.0
202.704056 140.0
202.962036 144.0
203.079132 184.0
203.16893 860.0
203.173904 508.0
203.521103 64.0
203.572235 120.0
204.162277 328.0
204.196289 148.0
204.356888 136.0
204.604538 44.0
205.014771 60.0
205.158295 1224.0
205.225739 64.0
205.328415 156.0
205.382614 36.0
205.460663 192.0
206.16217 224.0
206.568237 64.0
206.622604 64.0
206.894531 172.0
207.175232 180.0
207.292725 40.0
207.639664 220.0
207.719986 44.0
207.93808 88.0
208.015594 148.0
208.12471 136.0
208.564331 172.0
208.656342 92.0
209.133942 100.0
209.398865 136.0
212.286453 192.0
212.660767 180.0
213.01506 112.0
213.160324 152.0
213.648911 132.0
213.864273 56.0
214.161316 180.0
214.57518 180.0
215.150009 96.0
215.185043 108.0
215.858536 184.0
216.140976 188.0
216.184875 168.0
216.208298 140.0
216.630005 80.0
216.656372 116.0
217.169983 2352.0
217.205338 1652.0
217.47757 56.0
217.718353 48.0
217.994537 104.0
218.094482 76.0
218.173111 332.0
218.21019 340.0
218.482712 60.0
218.52095 68.0
218.609253 144.0
218.682831 180.0
218.70639 180.0
218.95079 132.0
219.171768 180.0
219.201096 160.0
219.991806 108.0
220.698029 180.0
220.724655 88.0
220.928757 84.0
221.26915 148.0
221.306503 236.0
221.372803 44.0
222.176178 144.0
222.380966 44.0
223.653305 60.0
223.820053 76.0
224.162659 36.0
224.890472 192.0
225.24884 168.0
225.909592 136.0
226.116074 164.0
226.196915 136.0
227.134964 140.0
227.15596 148.0
227.705338 152.0
228.159149 136.0
228.724792 176.0
229.149475 80.0
229.737457 172.0
230.169128 148.0
230.688873 148.0
230.860184 156.0
231.000381 128.0
231.079056 136.0
231.136551 204.0
231.178131 1992.0
231.50592 112.0
232.180435 764.0
232.233414 120.0
232.44278 80.0
232.752441 136.0
232.925583 96.0
233.177811 196.0
233.206406 168.0
233.247726 64.0
233.770935 48.0
233.798325 48.0
234.534653 200.0
234.931992 128.0
235.289108 168.0
235.481522 124.0
238.469284 196.0
239.078323 124.0
239.149124 60.0
239.623428 212.0
239.663498 132.0
239.700485 188.0
241.168243 172.0
241.670792 92.0
242.39238 232.0
243.164703 108.0
243.187973 152.0
243.639862 76.0
244.068848 128.0
244.153824 124.0
244.383041 108.0
244.439056 88.0
244.850052 180.0
244.949738 44.0
244.999588 92.0
245.027634 60.0
245.058792 160.0
245.122681 48.0
245.148987 192.0
245.210968 16372.0
245.283218 60.0
245.328247 108.0
245.369324 104.0
245.424698 96.0
245.445358 212.0
245.495255 80.0
245.531204 92.0
245.597748 56.0
245.716766 164.0
245.738602 124.0
245.83223 52.0
245.914062 204.0
246.016403 76.0
246.085098 60.0
246.216202 6280.0
246.328735 96.0
246.365631 152.0
246.509979 72.0
246.572495 44.0
246.702621 128.0
246.805527 60.0
246.956604 64.0
247.076004 88.0
247.220093 600.0
247.266907 80.0
247.313873 44.0
247.392136 36.0
247.702209 108.0
247.727264 48.0
247.802475 136.0
247.918777 108.0
247.990524 92.0
248.150421 140.0
248.224991 180.0
248.344879 144.0
248.366837 88.0
248.551178 48.0
248.768555 68.0
248.806244 72.0
249.05191 108.0
249.249176 52.0
249.359177 92.0
250.044922 108.0
250.12677 128.0
250.161392 88.0
250.444839 60.0
251.15416 136.0
252.196289 56.0
255.949936 40.0
256.24939 36.0
256.48526 80.0
259.187286 524.0
259.388153 92.0
259.866089 80.0
260.068268 40.0
260.183868 144.0
260.758942 104.0
260.829651 132.0
265.213806 92.0
265.784668 80.0
268.573181 88.0
269.186829 112.0
271.382782 96.0
274.830383 40.0
276.109009 264.0
276.204926 76.0
276.416718 92.0
277.065765 80.0
277.8815 132.0
278.22229 480.0
279.21463 136.0
280.792633 40.0
283.2966 44.0
284.608185 100.0
285.64682 92.0
291.364349 48.0
292.228027 120.0
292.265472 132.0
300.714417 140.0
304.551392 72.0
307.88501 92.0
309.910706 140.0
311.686462 92.0
313.11142 132.0
318.250397 120.0
320.167389 132.0
320.851624 80.0
321.272522 112.0
321.668701 100.0
324.35553 184.0
326.039124 48.0
331.148651 44.0
331.612488 168.0
334.875702 76.0
335.47702 48.0
337.496338 96.0
338.392883 168.0
344.812988 44.0
349.10675 108.0
359.096802 68.0
359.243927 160.0
360.834106 124.0
368.688629 32.0
370.744019 80.0
376.809296 96.0
383.052307 128.0
383.274414 192.0
384.608398 68.0
385.944702 68.0
386.324127 76.0
386.484558 132.0
386.782043 52.0
386.813354 92.0
389.963562 64.0
393.489746 44.0
403.307526 96.0
404.083466 48.0
407.311096 76.0
410.220917 192.0
411.819061 88.0
414.355835 76.0
422.949799 88.0
425.298828 116.0
431.280518 72.0
431.338348 296.0
432.346344 188.0
432.376709 228.0
433.988403 188.0
434.477875 128.0
441.422272 68.0
441.81131 72.0
442.024719 76.0
445.379211 84.0
447.441711 732.0
447.975006 92.0
448.278412 180.0
448.417511 144.0
448.448242 328.0
448.497589 76.0
449.360962 5836.0
449.682983 48.0
449.809631 92.0
449.868744 76.0
449.940521 84.0
450.364441 2080.0
450.662872 68.0
450.777618 52.0
450.810791 56.0
451.199707 232.0
451.255219 188.0
451.365723 416.0
451.601501 56.0
451.69455 64.0
451.766479 64.0
452.071167 48.0
452.240479 68.0
452.367493 168.0
452.837585 68.0
453.096008 156.0
453.473206 56.0
454.223816 76.0
465.682129 56.0
469.526093 44.0
476.392059 128.0
495.06308 60.0
526.863159 68.0
564.636963 72.0
567.04718 124.0
574.413574 128.0
608.22168 120.0
609.882141 44.0
638.069336 52.0
639.548462 112.0
640.036865 44.0
687.755127 224.0
755.055847 60.0
759.706909 136.0
824.222473 76.0
834.127441 164.0
838.231628 76.0
865.736938 148.0
871.315979 108.0
910.00592 132.0
911.009033 92.0
915.996643 40.0
932.384094 48.0
939.027344 136.0
944.213379 208.0
963.375549 72.0
963.480591 68.0
967.909729 216.0
988.460876 100.0
999.531555 252.0
1015.155701 80.0
1023.513 180.0
1025.991821 156.0
1027.529053 200.0
1032.755249 96.0
1032.800049 220.0
1040.632324 168.0
1055.305298 124.0
1058.44397 196.0
1063.248291 164.0
1069.163208 180.0
1079.707397 72.0
1080.191528 220.0
1083.884521 108.0
1106.791016 172.0
1109.905762 140.0
1115.736084 124.0
1120.408691 228.0
1122.555176 188.0
1126.139526 192.0
1135.068359 152.0
1138.195801 124.0
1150.08667 100.0
1153.140015 56.0
1156.691528 176.0
1156.865845 76.0
1157.693726 188.0
1162.222534 196.0
1164.089478 288.0
1178.744263 88.0
1183.526245 240.0
1186.973389 172.0
1187.02832 80.0
1189.004272 96.0
1208.079712 180.0
1215.237427 180.0
1220.426636 208.0
1224.581665 112.0
1224.83252 176.0
1231.85791 220.0
1237.803711 176.0
1239.267822 88.0
1241.090454 176.0
1242.619751 180.0
1249.61853 124.0
1254.330566 160.0
1264.15625 56.0
1267.229858 100.0
1275.001099 216.0
1276.487061 228.0
1276.990723 84.0
1282.418213 152.0
1285.007202 124.0
1292.71814 76.0
1293.126099 192.0
1293.799072 260.0
1294.131958 256.0
1296.28479 180.0
1297.740112 60.0
1299.526367 136.0
1302.333618 132.0
1304.899414 140.0
1310.975464 120.0
1311.371948 132.0
1313.246826 196.0
1317.282349 176.0
1324.234497 212.0
1331.19043 64.0
1331.451904 160.0
1333.268311 136.0
1335.733521 216.0
1339.060303 104.0
1340.291626 172.0
1341.98291 144.0
1345.237183 220.0
1345.996582 224.0
1346.208374 112.0
1355.690552 136.0
1357.450195 164.0
1358.359741 164.0
1358.521118 92.0
1358.961426 176.0
1364.772095 96.0
1368.105469 80.0
1368.414673 188.0
1369.040649 68.0
1370.757324 140.0
1374.799072 188.0
1385.003418 120.0
1389.399902 192.0
1390.594727 144.0
1390.95105 92.0
1391.181274 188.0
1394.390503 128.0
1397.536621 152.0
1397.93103 80.0
1398.638184 128.0
1398.906128 180.0
1399.418823 216.0
1399.792236 120.0
1403.458862 156.0
1405.30896 188.0
1407.272217 112.0
1407.682861 200.0
1407.966675 140.0
1409.206909 164.0
1409.513306 220.0
1409.991577 52.0
1411.098145 68.0
1411.494385 52.0
1411.561768 176.0
1413.22998 196.0
1414.300293 36.0
1414.644653 132.0
1415.019043 208.0
1418.855469 160.0
1419.387939 176.0
1420.543091 144.0
1421.075806 188.0
1426.716919 64.0
1428.755249 164.0
1431.405029 244.0
1432.700684 216.0
1433.100098 64.0
1434.011963 164.0
1434.366333 164.0
1434.796021 192.0
1434.856445 224.0
1436.545898 168.0
1436.862793 88.0
1437.149536 212.0
1437.904297 140.0
1441.34082 128.0
1445.568481 152.0
1445.742554 176.0
1447.355103 124.0
1451.250244 80.0
1454.103027 228.0
1457.931152 172.0
1460.303589 196.0
1463.286987 204.0
1465.130249 116.0
1466.13623 140.0
1468.461914 48.0
1468.843262 52.0
1472.881836 256.0
1474.219116 72.0
1477.614502 188.0
1480.875977 140.0
1481.075195 156.0
1484.271362 172.0
1488.384888 56.0
1488.930176 84.0
1489.237427 44.0
1492.119507 160.0
1492.950073 136.0
1494.812012 156.0
1496.297729 108.0
1496.875244 88.0
1498.81665 192.0
1503.382324 152.0
