>compound Glyburide (Diabeta)
>formula C23H28ClN3O5S
>ionization [M+H]+
>parentmass 494.153076
#inchi InChI=1S/C23H28ClN3O5S/c1-32-21-12-9-17(24)15-20(21)22(28)25-14-13-16-7-10-19(11-8-16)33(30,31)27-23(29)26-18-5-3-2-4-6-18/h7-12,15,18H,2-6,13-14H2,1H3,(H,25,28)(H2,26,27,29)
#inchikey ZNNLBTZKUZBEKO
#Ion_Source LC-ESI
#Instrument qTof
#Compound_Source Commercial
#PI Dorrestein
#Data_Collector Garg_Neha
#Scan -1
#Precursor_MZ 494.151
#ExactMass 493.144
#Charge 1
#CAS_Number 10238-21-8
#Pubmed_ID N/A
#Smiles C1CCCC(C1)NC(NS(C2=CC=C(C=C2)CCNC(C3=C(C=CC(=C3)Cl)OC)=O)(=O)=O)=O
#INCHI_AUX N/A
#Library_Class 1
#SpectrumID CCMSLIB00000078252
#IonMode Positive
#UpdateWorkflowName UPDATE-SINGLE-ANNOTATED-GOLD
#LibraryQualityString Gold
#TaskID 77f51c88eb8b467eb4a01dd2d0cb90d2
##Scan# 1870
#SpectrumFile Plate4_21_40_GH3_01_16504.mzXML
#LibraryName FDALibrary_2_04302014.mgf
#MQScore -1
#Organism FDALibrary_2_04302014
#TIC_Query 0
#RT_Query -1
#MZErrorPPM -1
#SharedPeaks 0
#MassDiff 0
#LibMZ -1
#SpecMZ 494.151
#SpecCharge 0
#internalFilename spec-00000.mgf

>collision 10
44.909901 152.0
45.262714 148.0
45.883457 188.0
46.044029 212.0
46.058884 172.0
46.255501 212.0
46.65649 164.0
46.878349 180.0
46.928783 176.0
47.372948 164.0
47.477116 152.0
47.537476 168.0
47.601994 220.0
48.156998 160.0
49.556477 144.0
49.584503 144.0
49.76265 144.0
49.948151 160.0
50.048073 180.0
50.135406 236.0
50.62986 212.0
50.729042 172.0
50.775833 188.0
51.390354 176.0
51.466003 156.0
52.539562 216.0
52.652149 160.0
53.57029 152.0
54.771469 272.0
54.823036 276.0
55.556408 168.0
56.112617 224.0
56.202106 148.0
56.420162 168.0
56.886059 156.0
57.311672 192.0
57.506207 148.0
57.545456 164.0
57.676884 244.0
57.695026 164.0
58.380371 216.0
58.617844 184.0
58.72456 232.0
58.901615 164.0
58.961205 176.0
59.360756 164.0
59.729351 164.0
59.900215 164.0
60.247303 180.0
60.78611 196.0
60.897888 196.0
61.037277 144.0
61.22916 248.0
61.57695 168.0
62.054222 188.0
62.571114 144.0
62.804337 152.0
62.834309 192.0
62.902164 220.0
63.159729 152.0
63.825809 172.0
64.098892 164.0
64.153786 180.0
64.389931 148.0
64.653725 156.0
64.892395 200.0
65.078506 176.0
65.478912 240.0
65.598152 156.0
66.00338 152.0
66.406624 216.0
66.546173 140.0
66.586967 164.0
66.640381 164.0
66.94455 180.0
67.35392 208.0
67.705559 216.0
67.7547 184.0
67.886902 128.0
67.935028 148.0
68.822113 144.0
68.92617 212.0
68.992287 140.0
69.177559 208.0
70.031052 148.0
70.60183 196.0
70.657028 180.0
71.270668 180.0
71.878532 148.0
72.109886 184.0
72.184273 172.0
72.290848 168.0
72.731491 212.0
73.015411 248.0
73.451256 156.0
73.844101 148.0
74.434029 152.0
75.417328 204.0
75.709 212.0
75.759949 172.0
75.906273 216.0
76.285759 160.0
76.369225 140.0
77.082253 220.0
78.216972 160.0
78.282112 188.0
78.599411 144.0
79.439789 180.0
79.508987 172.0
79.651024 224.0
80.140251 204.0
80.742165 148.0
81.456978 152.0
81.573776 176.0
81.613327 180.0
81.845436 160.0
81.964317 164.0
82.363022 196.0
82.545555 180.0
83.35038 208.0
83.364922 160.0
83.508545 140.0
83.870872 144.0
84.08062 212.0
84.186501 176.0
84.206589 164.0
84.299759 156.0
84.709595 200.0
85.258194 212.0
85.351944 140.0
85.488419 188.0
85.548805 160.0
85.602196 144.0
85.655609 152.0
85.675873 188.0
85.985649 180.0
86.013336 148.0
86.482819 308.0
86.582802 156.0
86.756973 156.0
86.972145 144.0
87.516846 140.0
87.889626 180.0
87.95681 168.0
88.09269 208.0
88.39975 196.0
88.455894 216.0
88.866318 192.0
89.876709 208.0
89.916336 180.0
90.322556 148.0
91.054169 204.0
91.073158 256.0
92.053841 120.0
92.071152 164.0
92.533897 216.0
93.036186 188.0
93.161079 116.0
93.722801 164.0
94.006256 140.0
94.102768 144.0
94.35199 172.0
94.768105 204.0
94.905716 188.0
94.965836 192.0
95.466896 228.0
95.605019 176.0
95.632263 192.0
95.684822 208.0
95.85817 172.0
96.207298 156.0
96.269775 152.0
96.345955 192.0
97.146629 160.0
97.179977 156.0
97.244736 176.0
97.337006 240.0
97.566879 168.0
98.145721 224.0
98.483185 200.0
98.765831 232.0
99.189568 152.0
99.25103 168.0
100.041763 172.0
100.111122 488.0
101.113625 192.0
101.155655 208.0
101.241753 184.0
101.40403 212.0
102.741211 176.0
103.053085 760.0
103.110725 164.0
103.636856 156.0
103.699677 140.0
103.920715 184.0
104.06076 200.0
104.426529 156.0
105.070404 640.0
105.358078 168.0
105.830521 224.0
106.23333 176.0
106.638771 180.0
106.758011 168.0
106.836166 176.0
107.045906 384.0
107.223274 140.0
107.83004 172.0
107.865173 244.0
109.456451 164.0
109.66478 152.0
109.743996 148.0
109.764847 172.0
110.021477 180.0
110.334404 208.0
110.694725 184.0
111.002754 164.0
111.590675 180.0
112.285568 184.0
112.955116 180.0
113.015289 244.0
114.361908 176.0
114.625984 288.0
115.963799 164.0
116.523865 144.0
116.803329 148.0
116.958252 152.0
117.046524 192.0
117.676117 196.0
117.881317 160.0
118.06723 156.0
118.10183 200.0
118.23381 152.0
118.40033 192.0
118.990303 144.0
119.047386 780.0
119.072815 220.0
119.235764 224.0
120.056503 168.0
120.156837 224.0
120.431885 208.0
120.464653 160.0
120.486496 164.0
120.508125 196.0
120.823174 152.0
120.910698 296.0
121.064819 180.0
121.088028 172.0
121.773407 208.0
122.238373 212.0
122.26918 152.0
122.436493 192.0
122.6436 164.0
123.003136 176.0
123.064949 176.0
123.646317 196.0
123.819 236.0
123.923111 204.0
124.280083 144.0
124.740288 164.0
125.434311 164.0
125.494499 152.0
125.562416 176.0
125.65062 172.0
125.724251 148.0
125.98835 584.0
126.40583 156.0
126.831345 176.0
126.900841 164.0
127.980728 324.0
128.006332 176.0
128.25415 208.0
128.996796 148.0
129.062363 236.0
129.184479 148.0
129.227463 152.0
129.451553 196.0
129.560272 188.0
129.626266 156.0
129.977448 164.0
130.800156 188.0
131.059952 328.0
131.112183 224.0
131.303696 184.0
131.331055 180.0
131.947617 156.0
133.850235 204.0
134.034515 264.0
134.097214 288.0
134.236816 156.0
134.668381 148.0
134.904068 168.0
135.038177 172.0
135.098328 308.0
135.556747 148.0
137.148727 172.0
137.353027 204.0
137.405243 184.0
137.753082 140.0
138.021698 188.0
138.101364 152.0
138.70546 152.0
138.988708 204.0
139.013626 152.0
139.72229 152.0
140.49736 156.0
140.636581 228.0
140.877441 152.0
141.003708 160.0
141.12323 196.0
141.246201 212.0
142.034973 152.0
142.861633 160.0
142.952042 148.0
143.004044 160.0
143.047913 156.0
143.924591 240.0
143.974731 176.0
145.062164 500.0
145.132919 184.0
146.056992 168.0
146.123505 156.0
146.29187 172.0
146.323059 208.0
146.485977 156.0
146.553436 164.0
147.033295 196.0
147.494614 140.0
147.997818 144.0
148.530975 184.0
148.819763 168.0
149.794983 172.0
149.941162 220.0
149.985046 140.0
150.582825 280.0
150.885818 156.0
151.277237 288.0
151.40094 168.0
151.576035 140.0
152.056686 144.0
152.60939 160.0
152.633987 184.0
152.776642 164.0
153.027664 208.0
153.982788 280.0
154.073364 168.0
154.691605 152.0
154.73616 140.0
154.889694 224.0
154.986511 268.0
155.016205 196.0
155.234192 256.0
155.757858 152.0
155.884567 144.0
155.974686 352.0
156.083435 156.0
156.767975 144.0
156.855209 172.0
156.983887 196.0
157.151978 148.0
157.381607 176.0
157.636383 220.0
157.966415 220.0
158.497177 140.0
158.806854 144.0
158.84314 152.0
158.940994 176.0
159.566391 192.0
159.797775 156.0
160.079681 160.0
160.170349 160.0
160.760315 188.0
161.518265 144.0
161.616928 180.0
161.913101 204.0
162.181656 176.0
162.374344 144.0
162.427612 168.0
162.782928 188.0
163.058426 204.0
163.077621 140.0
163.143707 164.0
163.392944 156.0
163.584198 260.0
163.94548 192.0
164.381531 172.0
164.521912 176.0
165.777756 148.0
166.026031 724.0
166.082855 180.0
166.460114 260.0
166.986252 264.0
167.016327 2200.0
167.083481 176.0
167.172165 164.0
167.217911 176.0
167.365219 156.0
167.560974 156.0
167.581573 168.0
167.955383 164.0
167.996399 120.0
168.02182 448.0
168.178406 256.0
168.288284 156.0
168.412247 228.0
168.450928 204.0
168.479401 152.0
168.679901 136.0
168.715454 152.0
168.892365 212.0
168.934097 180.0
168.961014 176.0
169.004883 74260.0
169.080261 116.0
169.105774 220.0
169.273026 252.0
169.561661 108.0
169.73645 140.0
169.861755 180.0
169.895477 160.0
170.007782 6696.0
170.069336 172.0
170.158676 112.0
170.469284 144.0
170.661636 144.0
170.786469 204.0
170.805435 136.0
170.873154 148.0
170.916534 184.0
170.94931 216.0
170.97084 120.0
171.001663 18276.0
171.043823 260.0
171.118851 104.0
171.209717 100.0
171.273392 104.0
171.291428 136.0
171.318527 100.0
171.799759 248.0
172.003189 2124.0
172.392151 108.0
173.010544 140.0
173.60022 184.0
173.99231 124.0
174.463074 160.0
174.499878 140.0
177.258148 144.0
178.386108 140.0
179.082458 196.0
179.272415 152.0
179.952591 172.0
180.097 212.0
180.537781 192.0
180.98465 144.0
182.307083 160.0
182.836868 216.0
183.36203 200.0
184.039124 204.0
184.274109 144.0
184.498413 176.0
184.84462 164.0
185.020477 172.0
185.237183 152.0
186.027435 256.0
186.162048 184.0
187.465073 180.0
188.028244 140.0
188.116943 204.0
189.325439 184.0
189.613098 152.0
191.886368 268.0
193.355911 148.0
193.458313 160.0
194.07608 220.0
195.075699 224.0
195.994019 180.0
196.085968 276.0
196.353622 176.0
196.378723 204.0
198.029968 1780.0
198.190216 140.0
198.563049 144.0
199.032669 620.0
200.004395 176.0
200.027191 536.0
200.497269 144.0
201.032227 148.0
201.075424 144.0
201.298431 184.0
202.053268 132.0
202.619324 140.0
202.648346 212.0
202.701492 160.0
203.058685 160.0
203.728561 220.0
203.799591 204.0
203.938843 140.0
205.077332 148.0
206.247574 148.0
207.045822 148.0
207.476898 152.0
208.020676 156.0
208.052246 160.0
208.089615 568.0
208.161346 196.0
209.066879 324.0
209.094925 644.0
210.032745 344.0
210.06955 144.0
210.105194 1112.0
211.039917 188.0
211.116196 296.0
212.203827 164.0
212.479355 168.0
212.560593 164.0
213.187836 160.0
213.234329 156.0
214.037231 172.0
214.066345 200.0
215.015701 196.0
215.082489 156.0
216.068634 168.0
216.548706 152.0
217.03891 344.0
219.037445 272.0
219.058899 316.0
219.841415 144.0
221.236496 152.0
221.304581 156.0
221.885284 204.0
221.968307 148.0
223.074112 148.0
223.283859 156.0
224.08403 324.0
225.774078 148.0
226.095291 216.0
226.621201 172.0
227.181824 164.0
228.019562 144.0
229.753952 140.0
230.051407 156.0
230.143738 108.0
230.56015 140.0
230.620605 188.0
230.738495 152.0
231.028809 152.0
231.63121 176.0
233.102661 184.0
234.027344 144.0
234.09433 152.0
234.731201 176.0
234.981323 140.0
235.103943 148.0
235.219345 140.0
236.019775 172.0
236.087051 176.0
236.565338 200.0
238.093094 216.0
239.090424 152.0
239.435226 216.0
239.63237 180.0
239.740219 176.0
240.88797 164.0
242.763565 172.0
242.946564 140.0
243.059372 244.0
243.405914 212.0
244.033783 324.0
244.711823 188.0
244.85817 156.0
245.037903 444.0
245.067902 384.0
245.366074 148.0
245.99617 392.0
246.039948 328.0
246.069321 156.0
246.617844 240.0
247.070221 412.0
247.318466 156.0
247.963669 164.0
247.993378 448.0
248.048294 204.0
248.857681 240.0
249.37915 152.0
250.700958 152.0
251.101334 168.0
251.240128 244.0
252.035736 196.0
252.101044 300.0
253.488144 184.0
253.62442 168.0
253.744873 172.0
253.805115 160.0
254.182571 168.0
254.957413 144.0
256.060181 212.0
256.800781 232.0
257.097473 176.0
257.397552 164.0
258.103729 160.0
258.708405 192.0
258.736267 160.0
259.050537 4880.0
259.243286 148.0
260.055878 1276.0
261.050446 1492.0
261.503113 152.0
261.851929 184.0
262.060577 1460.0
263.062042 988.0
263.086884 180.0
263.222504 168.0
263.299988 144.0
264.061584 404.0
265.061584 152.0
266.529694 180.0
270.068451 140.0
271.051605 168.0
271.845795 140.0
272.056152 184.0
272.551788 212.0
272.62735 156.0
273.054932 136.0
273.360687 240.0
276.310455 152.0
278.498291 208.0
279.801819 164.0
281.333588 240.0
285.176086 180.0
285.254761 140.0
285.408295 168.0
285.591003 160.0
287.916504 180.0
288.027985 160.0
288.078979 2868.0
288.788483 200.0
289.078705 960.0
289.363739 180.0
289.939575 184.0
290.072723 880.0
291.021667 176.0
291.075195 252.0
291.259399 200.0
291.408875 156.0
291.643341 152.0
291.993561 296.0
292.708191 152.0
293.113525 176.0
296.287628 192.0
296.788025 156.0
297.26825 148.0
301.006592 168.0
302.354797 156.0
303.067291 164.0
303.51178 152.0
303.917603 148.0
303.987 220.0
304.07193 6432.0
304.799561 156.0
304.928131 160.0
305.075775 1756.0
305.251434 156.0
305.457458 120.0
305.564484 152.0
306.070465 2280.0
306.138794 144.0
307.071991 460.0
307.721832 192.0
308.228302 176.0
308.378571 156.0
308.850586 168.0
308.990509 160.0
309.564545 264.0
309.673096 144.0
309.750153 156.0
310.931763 168.0
312.361755 144.0
313.315765 140.0
314.108917 204.0
314.528839 144.0
314.853638 240.0
315.115051 204.0
317.321259 200.0
318.476837 188.0
318.666992 152.0
320.394165 176.0
320.586548 208.0
321.067841 140.0
321.403137 360.0
322.778351 204.0
324.952484 156.0
327.220306 188.0
327.727722 200.0
329.282898 200.0
331.446198 180.0
331.841248 168.0
332.352661 188.0
332.780945 168.0
334.205719 144.0
334.467743 184.0
334.675262 176.0
334.718964 172.0
334.886475 156.0
335.290894 152.0
336.509216 176.0
336.600494 168.0
337.68222 156.0
339.86554 172.0
340.239899 180.0
340.777313 144.0
341.132568 168.0
341.548096 196.0
341.81665 168.0
341.879211 152.0
343.297485 188.0
345.587646 204.0
347.147095 148.0
347.306549 144.0
348.152496 180.0
348.587402 152.0
348.69516 184.0
349.643524 192.0
349.740295 196.0
349.770081 164.0
350.250397 204.0
352.041077 780.0
352.522491 156.0
352.888794 168.0
353.038788 312.0
353.154297 156.0
353.779205 156.0
354.037048 424.0
355.039093 156.0
355.563354 264.0
355.687225 172.0
356.029083 160.0
356.434601 160.0
357.344482 208.0
357.897766 160.0
358.315826 140.0
358.719086 164.0
359.150635 116.0
360.118958 228.0
360.273834 160.0
360.595001 204.0
361.415588 180.0
361.714569 188.0
362.701355 132.0
365.178802 144.0
365.799011 188.0
366.400696 144.0
367.10202 180.0
367.390015 180.0
367.775543 176.0
368.071808 140.0
368.191986 168.0
368.49115 116.0
368.551544 168.0
368.590729 448.0
368.743347 180.0
368.84079 168.0
368.868561 156.0
368.921082 212.0
368.986969 260.0
369.068115 105972.0
369.229034 168.0
369.302277 128.0
369.384247 180.0
369.431274 108.0
369.463196 232.0
369.524261 152.0
369.651947 172.0
369.694031 180.0
369.786346 168.0
369.824615 116.0
369.883759 100.0
369.934814 108.0
369.962555 160.0
370.070312 19720.0
370.202209 104.0
370.276703 184.0
370.383728 108.0
370.612549 240.0
370.66571 104.0
370.744904 116.0
370.810913 124.0
371.004456 188.0
371.06488 30724.0
371.173645 268.0
371.215546 144.0
371.39856 316.0
371.541656 192.0
371.648132 116.0
371.882141 132.0
372.06723 4944.0
372.17572 236.0
372.275909 152.0
372.382965 344.0
372.423157 168.0
372.456299 140.0
372.57663 172.0
372.71347 128.0
372.772888 100.0
373.064331 828.0
373.273651 224.0
373.541016 104.0
373.711243 128.0
373.94043 108.0
374.048645 108.0
374.504791 200.0
374.581421 148.0
381.728058 156.0
385.56012 148.0
390.661255 160.0
393.548553 164.0
394.510101 156.0
394.850159 184.0
395.047394 5524.0
396.049164 1980.0
396.251434 160.0
397.044128 3020.0
398.040894 268.0
398.606232 124.0
400.744965 148.0
412.077118 336.0
413.049805 144.0
414.060303 296.0
416.044464 168.0
445.728271 152.0
476.143799 148.0
481.068329 184.0
494.153076 836.0
495.154388 528.0
496.150635 1092.0
497.342377 176.0
497.701965 144.0
575.454712 144.0
647.743103 160.0
670.789612 144.0
1094.651245 160.0
1179.514893 180.0
1288.585938 172.0
1312.08313 196.0
1380.304199 184.0
1382.219971 152.0
1388.079224 156.0
1421.850586 148.0
1426.973389 140.0
1484.30896 264.0
1494.040039 244.0
1501.781494 168.0
1503.30896 168.0
1512.026123 180.0
1534.498413 140.0
1536.268677 164.0
1550.326782 152.0
1560.947754 176.0
1583.296143 192.0
1612.853516 156.0
1624.656738 152.0
1632.91394 172.0
1637.284058 256.0
1659.692017 208.0
1668.257202 156.0
1680.236572 152.0
1690.335327 168.0
1692.791016 164.0
1697.543823 168.0
1703.091675 164.0
1711.743286 220.0
1719.404663 216.0
1734.471069 144.0
1736.593628 204.0
1750.205811 172.0
1776.221802 144.0
1776.901245 248.0
1777.161377 228.0
1780.258789 164.0
1781.38147 148.0
1781.97229 204.0
1787.555298 208.0
1805.963501 168.0
1812.490479 228.0
1836.591797 208.0
1852.07959 192.0
1852.533569 152.0
1858.93811 208.0
1869.766113 164.0
1886.110229 204.0
1904.348877 148.0
1906.181885 144.0
1906.790283 212.0
1914.480713 148.0
1921.558472 208.0
1922.047119 144.0
1926.167725 196.0
1930.310303 200.0
1935.893188 156.0
1939.572876 232.0
1942.141968 188.0
1949.657227 144.0
1952.55835 140.0
1967.687866 184.0
1970.90271 168.0
1975.800781 144.0
1976.614746 152.0
1988.267822 200.0
1988.72937 148.0
1992.449951 208.0
2001.379395 196.0
2003.213989 168.0
