>compound MLS000860020-01!1-Allyl-3,7-dimethyl-8-sulfophenylxanthine
>formula C16H16N4O5S
>ionization [M+H]+
>parentmass 377.090576
#inchi InChI=1S/C16H16N4O5S/c1-4-9-20-15(21)12-14(19(3)16(20)22)17-13(18(12)2)10-5-7-11(8-6-10)26(23,24)25/h4-8H,1,9H2,2-3H3,(H,23,24,25)
#inchikey CDMZOKMMANFJMU
#Ion_Source LC-ESI
#Instrument qTof
#Compound_Source NIH Pharmacologically Active Library
#PI Dorrestein
#Data_Collector VP/LMS
#Scan -1
#Precursor_MZ 377.094
#ExactMass 376.084
#Charge 1
#CAS_Number N/A
#Pubmed_ID N/A
#Smiles Cn1c(nc2n(C)c(=O)n(CC=C)c(=O)c12)c3ccc(cc3)S(=O)(=O)O
#INCHI_AUX N/A
#Library_Class 1
#SpectrumID CCMSLIB00000084867
#IonMode Positive
#UpdateWorkflowName UPDATE-SINGLE-ANNOTATED-GOLD
#LibraryQualityString Gold
#TaskID d252d724072548979f1f6f1ced849daf
##Scan# 1430
#SpectrumFile p3-B10_GB10_01_18243.mzXML
#LibraryName Pharm_Active_Library.mgf
#MQScore -1
#Organism Pharm_Active_Library
#TIC_Query 0
#RT_Query -1
#MZErrorPPM -1
#SharedPeaks 0
#MassDiff 0
#LibMZ -1
#SpecMZ 377.094
#SpecCharge 0
#internalFilename spec-00000.mgf

>collision 10
45.73381 76.0
51.277721 148.0
52.015091 164.0
52.359432 132.0
58.784241 168.0
61.908741 132.0
62.994019 76.0
63.09832 144.0
63.889706 100.0
65.57267 192.0
66.173592 164.0
66.840698 128.0
67.1959 36.0
67.671516 184.0
72.526672 124.0
73.989983 144.0
75.414322 116.0
77.273315 48.0
80.492157 188.0
84.889771 136.0
85.646965 204.0
86.494507 60.0
87.830513 80.0
88.97953 144.0
90.997818 204.0
92.27433 144.0
94.228951 172.0
95.335358 208.0
98.298279 220.0
99.051605 128.0
102.091331 160.0
105.958229 164.0
107.582909 184.0
108.377083 132.0
109.215782 200.0
110.036835 96.0
113.116699 184.0
113.44928 104.0
113.775986 156.0
113.818443 196.0
115.48069 36.0
115.955994 96.0
116.054604 280.0
116.318481 156.0
117.951256 84.0
117.968552 184.0
118.656975 128.0
118.999771 176.0
119.994057 140.0
120.10527 92.0
123.622772 112.0
124.247604 188.0
126.668579 148.0
128.049942 188.0
129.049606 188.0
129.640396 128.0
131.04921 160.0
132.046768 168.0
134.736191 136.0
136.051605 160.0
136.688446 180.0
137.541428 140.0
138.872772 196.0
140.038544 144.0
140.137482 172.0
141.341675 160.0
143.052841 72.0
144.068848 160.0
144.283813 188.0
144.640244 168.0
145.053421 212.0
145.076218 212.0
146.055939 168.0
148.114899 156.0
148.891022 164.0
149.834793 136.0
153.484329 132.0
155.061493 124.0
156.591934 152.0
157.180267 204.0
158.207489 160.0
158.575699 100.0
159.039703 64.0
159.067307 96.0
159.285767 60.0
159.9496 124.0
161.911407 172.0
163.694107 80.0
164.275208 128.0
164.351746 180.0
167.796326 116.0
169.776993 236.0
170.063675 188.0
171.009369 224.0
171.77449 160.0
172.064835 216.0
172.215622 136.0
172.618073 156.0
172.979126 228.0
173.070755 112.0
173.089081 168.0
173.178131 120.0
176.056503 176.0
179.259903 160.0
179.667831 120.0
180.068222 148.0
181.998978 232.0
182.248779 84.0
183.016861 280.0
183.066498 92.0
184.005966 1112.0
184.077728 100.0
184.126343 428.0
185.010651 172.0
185.067368 108.0
185.101013 216.0
185.156738 184.0
185.422226 148.0
185.864258 96.0
185.970093 52.0
185.995758 272.0
186.104446 296.0
186.622055 212.0
187.109055 224.0
187.416824 36.0
187.493118 172.0
189.641296 148.0
190.071854 204.0
191.865097 184.0
194.090775 60.0
195.045792 192.0
195.501907 108.0
197.435181 176.0
198.020432 488.0
199.091415 256.0
200.038925 212.0
200.678436 168.0
201.029922 200.0
202.013977 196.0
202.106369 136.0
202.345352 180.0
202.518097 164.0
202.537918 144.0
203.084961 148.0
204.796005 156.0
206.108292 164.0
206.551407 156.0
207.525101 148.0
208.262604 152.0
208.762665 116.0
210.019608 160.0
212.082794 128.0
213.088989 168.0
213.543228 184.0
213.901108 124.0
214.407898 196.0
215.043686 204.0
215.067047 184.0
215.811966 108.0
215.832443 180.0
217.079849 160.0
217.109177 124.0
217.205963 144.0
220.846588 188.0
221.05368 164.0
221.521469 220.0
222.797073 144.0
223.442184 72.0
223.978027 136.0
224.040573 180.0
224.287903 112.0
224.750153 144.0
225.033783 948.0
225.580399 56.0
225.846527 84.0
226.0224 324.0
226.238525 68.0
226.570938 80.0
226.81366 276.0
226.984543 48.0
227.092499 164.0
227.155487 44.0
227.767838 176.0
228.005203 152.0
228.07132 192.0
228.356949 144.0
230.083557 140.0
232.93924 120.0
236.237549 180.0
236.268143 180.0
236.418076 212.0
237.036636 208.0
237.818665 100.0
238.01944 180.0
238.039703 172.0
239.007965 172.0
239.054123 124.0
240.024429 156.0
240.240326 40.0
240.829895 136.0
241.837845 88.0
242.615341 184.0
243.22023 40.0
243.586639 172.0
243.828995 172.0
245.072266 348.0
245.762772 56.0
245.859497 72.0
246.084244 176.0
247.084351 88.0
247.275223 100.0
250.024353 144.0
250.166092 276.0
253.63765 120.0
256.100128 120.0
257.01825 48.0
257.318268 220.0
258.07547 152.0
258.305725 236.0
258.41449 168.0
261.884644 136.0
261.910431 64.0
263.888611 80.0
263.969452 48.0
264.012756 456.0
264.04129 184.0
264.199066 172.0
265.027893 168.0
265.55954 180.0
265.789856 220.0
265.994324 112.0
266.020294 116.0
266.059265 1004.0
267.001556 132.0
267.040405 540.0
267.064178 188.0
267.388702 48.0
268.029755 144.0
268.057617 156.0
274.322845 116.0
277.294342 116.0
277.811615 144.0
278.021149 256.0
278.060486 40.0
278.150085 212.0
278.259644 120.0
278.41571 232.0
278.588409 36.0
279.031158 3400.0
279.283142 128.0
279.329712 68.0
279.409546 192.0
279.90213 84.0
280.034637 700.0
280.898621 176.0
281.032135 368.0
281.099579 368.0
281.362701 60.0
281.806671 84.0
283.942322 172.0
284.187195 152.0
284.724274 64.0
284.875427 112.0
285.171112 96.0
286.035553 196.0
286.61142 92.0
287.127197 168.0
288.001343 156.0
290.031464 140.0
290.903229 240.0
291.456818 220.0
292.039673 168.0
292.756226 44.0
292.981018 72.0
293.045746 132.0
293.168427 108.0
293.226349 112.0
293.338837 124.0
293.485413 112.0
293.891296 116.0
293.956146 64.0
294.053986 14348.0
294.171143 40.0
294.21524 44.0
294.24823 124.0
294.283813 72.0
294.306213 80.0
294.372589 36.0
294.464813 48.0
294.490112 116.0
294.625336 48.0
294.656097 84.0
294.724426 64.0
294.793304 76.0
294.858032 84.0
294.931274 120.0
295.057404 2440.0
295.120911 160.0
295.288452 72.0
295.466339 104.0
295.527924 80.0
295.606628 64.0
296.052063 1108.0
296.139282 136.0
296.193298 132.0
296.325653 76.0
296.439697 88.0
296.606659 80.0
296.671783 44.0
296.853516 92.0
296.911804 80.0
296.949524 116.0
297.045563 108.0
297.076447 76.0
297.117615 168.0
297.169067 52.0
297.227417 44.0
297.337219 116.0
297.512268 68.0
297.587799 152.0
297.896881 40.0
299.709961 108.0
300.779053 140.0
301.573456 36.0
305.923218 104.0
306.097321 144.0
307.04425 140.0
308.200623 48.0
308.875336 168.0
309.050262 116.0
309.948944 84.0
310.802185 180.0
311.402466 204.0
311.549988 120.0
312.126373 116.0
313.157501 108.0
318.30658 116.0
328.128357 220.0
329.832245 96.0
330.65329 268.0
330.917511 92.0
332.537872 80.0
335.0578 120.0
336.043762 148.0
337.062836 500.0
338.075287 188.0
339.803253 60.0
340.071136 136.0
341.312805 152.0
346.33551 40.0
348.056274 172.0
349.058289 156.0
352.35437 132.0
352.429108 148.0
362.134827 240.0
367.090515 176.0
371.047882 148.0
376.863342 112.0
376.940643 132.0
377.02951 188.0
377.090576 5700.0
377.226624 48.0
377.261414 36.0
377.379028 48.0
377.472229 76.0
377.582336 64.0
377.663574 44.0
377.720032 100.0
377.79895 60.0
377.868591 108.0
378.012726 64.0
378.091888 1328.0
378.344604 56.0
379.088104 296.0
379.169647 52.0
379.320801 36.0
379.894714 52.0
380.071655 228.0
380.10675 160.0
380.212891 92.0
380.348724 40.0
380.449646 88.0
380.923401 124.0
381.230347 56.0
385.048157 60.0
385.724091 72.0
386.850677 52.0
387.418518 72.0
391.412781 60.0
424.145538 120.0
462.467041 68.0
464.214966 40.0
467.109711 112.0
473.090637 92.0
487.945618 120.0
531.46759 20.0
533.060913 128.0
541.155945 60.0
565.560913 108.0
588.793274 48.0
624.143066 56.0
638.847168 144.0
661.838623 56.0
750.326477 92.0
785.740723 112.0
1111.094238 60.0
1166.758911 72.0
1184.734619 120.0
1206.481323 144.0
1355.050171 132.0
1381.70166 160.0
1408.620239 120.0
