>compound MLS001074083-01!60719-84-8
>formula C10H9N3O
>ionization [M+H]+
>parentmass 188.080414
#inchi InChI=1S/C10H9N3O/c11-9-5-8(6-13-10(9)14)7-1-3-12-4-2-7/h1-6H,11H2,(H,13,14)
#inchikey RNLQIBCLLYYYFJ
#Ion_Source LC-ESI
#Instrument qTof
#Compound_Source NIH Pharmacologically Active Library
#PI Dorrestein
#Data_Collector VP/LMS
#Scan -1
#Precursor_MZ 188.082
#ExactMass 187.075
#Charge 1
#CAS_Number N/A
#Pubmed_ID N/A
#Smiles Nc1cc(cnc1O)c2ccncc2
#INCHI_AUX N/A
#Library_Class 3
#SpectrumID CCMSLIB00000085888
#IonMode Positive
#UpdateWorkflowName UPDATE-SINGLE-ANNOTATED-BRONZE
#LibraryQualityString Bronze
#TaskID d252d724072548979f1f6f1ced849daf
##Scan# 134
#SpectrumFile p4-G07_GG7_01_18403.mzXML
#LibraryName Pharm_Active_Library.mgf
#MQScore -1
#Organism Pharm_Active_Library
#TIC_Query 0
#RT_Query -1
#MZErrorPPM -1
#SharedPeaks 0
#MassDiff 0
#LibMZ -1
#SpecMZ 188.082
#SpecCharge 0
#internalFilename spec-00000.mgf

>collision 10
46.709957 156.0
46.719479 52.0
47.339172 68.0
49.495434 228.0
50.607857 184.0
51.438148 64.0
52.007874 124.0
52.437943 156.0
57.401657 180.0
59.581421 48.0
60.452629 196.0
61.155704 64.0
61.542336 144.0
61.743923 256.0
62.94302 144.0
63.341583 120.0
63.601643 188.0
65.979309 116.0
66.055092 140.0
67.365372 224.0
67.399681 36.0
68.635742 36.0
69.441147 220.0
72.716507 168.0
74.707283 216.0
75.175957 140.0
76.857506 184.0
80.019814 144.0
80.472694 200.0
82.057022 84.0
84.101578 148.0
87.773193 208.0
87.831009 212.0
88.331642 140.0
89.529152 204.0
90.045921 208.0
92.55439 152.0
93.062454 200.0
95.062378 176.0
98.882278 180.0
100.955399 80.0
101.654556 136.0
101.933693 252.0
102.032181 180.0
102.211197 140.0
104.049339 748.0
104.905037 120.0
105.045753 164.0
105.211052 104.0
105.826469 156.0
106.064018 508.0
106.893875 152.0
107.060623 300.0
107.646309 72.0
115.035973 48.0
116.047699 400.0
116.067238 64.0
117.058029 860.0
117.407005 88.0
118.051384 540.0
118.07869 232.0
118.936722 176.0
119.056709 516.0
120.035439 152.0
122.39772 148.0
125.328346 156.0
127.663177 48.0
128.934708 136.0
130.742279 40.0
130.956299 180.0
131.013245 144.0
131.059799 480.0
132.066742 784.0
132.095337 152.0
132.842148 152.0
133.025742 172.0
133.074966 2376.0
133.282318 56.0
134.056183 200.0
134.075821 192.0
134.720703 136.0
138.805649 104.0
139.408966 168.0
141.958603 180.0
142.053772 380.0
142.072464 168.0
143.055435 532.0
143.076416 260.0
144.058319 320.0
145.051071 212.0
146.081268 156.0
148.404678 96.0
149.636551 240.0
150.590057 44.0
151.389816 176.0
152.956299 52.0
158.036728 144.0
158.069427 352.0
159.054245 128.0
159.077362 420.0
160.01207 220.0
160.084976 1420.0
160.208511 36.0
160.87178 44.0
161.088242 288.0
161.313873 120.0
162.613327 60.0
163.263748 76.0
164.83667 140.0
169.932663 132.0
171.055389 120.0
171.516464 156.0
186.068695 52.0
187.07309 172.0
187.946777 144.0
188.050476 176.0
188.080414 1576.0
188.211548 56.0
189.082458 200.0
223.397598 120.0
259.887177 136.0
307.929626 88.0
388.373413 60.0
433.659576 152.0
543.968201 56.0
708.121277 156.0
1043.390015 168.0
1048.450806 200.0
1067.568848 240.0
1078.89502 272.0
1094.398926 112.0
1112.534912 216.0
1211.248291 88.0
1229.926025 216.0
1237.483398 148.0
1249.661255 148.0
1250.977417 156.0
1263.263794 144.0
1274.302612 144.0
1276.527466 108.0
1322.163696 160.0
1331.058838 152.0
1360.542969 176.0
1367.371948 152.0
1379.609619 220.0
1385.174683 188.0
1405.248047 44.0
1409.720947 176.0
1412.62207 160.0
1425.360596 240.0
1427.488037 44.0
1429.383667 200.0
1451.97998 56.0
1490.249268 172.0
1491.463501 168.0
1504.853149 144.0
