>compound MLS000736729-01!
>formula C19H21NO4
>ionization [M+H]+
>parentmass 328.155
#inchi InChI=1S/C19H21NO4/c1-20-5-4-10-7-15(22)19(24-3)18-12-9-16(23-2)14(21)8-11(12)6-13(20)17(10)18/h7-9,13,21-22H,4-6H2,1-3H3
#inchikey LZJRNLRASBVRRX
#Ion_Source LC-ESI
#Instrument qTof
#Compound_Source NIH Natural Product Library
#PI Dorrestein
#Data_Collector VVP/LMS
#Scan -1
#Precursor_MZ 328.155
#ExactMass 327.147
#Charge 1
#CAS_Number N/A
#Pubmed_ID N/A
#Smiles COc1cc-2c(CC3N(C)CCc4cc(O)c(OC)c2c34)cc1O
#INCHI_AUX N/A
#Library_Class 1
#SpectrumID CCMSLIB00000079980
#IonMode Positive
#UpdateWorkflowName UPDATE-SINGLE-ANNOTATED-GOLD
#LibraryQualityString Gold
#TaskID b1d8e8f6646f4e71acdff9ca3d919d08
##Scan# 1372
#SpectrumFile p2-E02_GE2_01_18026.mzXML
#LibraryName NIH_Natural_Products_Library.mgf
#MQScore -1
#Organism NIH_Natural_Products_Library
#TIC_Query 0
#RT_Query -1
#MZErrorPPM -1
#SharedPeaks 0
#MassDiff 0
#LibMZ -1
#SpecMZ 328.155
#SpecCharge 0
#internalFilename spec-00000.mgf

>collision 10
94.974892 80.0
95.011162 268.0
95.051041 128.0
95.206337 168.0
95.252953 92.0
95.266548 108.0
95.497864 160.0
95.612648 148.0
95.669098 148.0
95.684669 204.0
95.709984 48.0
95.760612 176.0
96.197388 192.0
96.373154 204.0
96.406372 60.0
96.488472 148.0
96.539307 128.0
96.558701 96.0
96.707558 84.0
96.744751 60.0
96.783989 204.0
96.813278 196.0
96.828949 320.0
96.889671 152.0
96.911652 128.0
96.930817 136.0
96.985687 148.0
97.099403 124.0
97.187683 176.0
97.232819 52.0
97.275993 332.0
97.295631 276.0
97.399704 52.0
97.881546 88.0
97.913048 40.0
98.190933 140.0
98.242218 148.0
98.293518 52.0
98.556137 224.0
98.573921 168.0
98.878471 108.0
98.918053 96.0
98.971504 204.0
99.167625 160.0
99.244942 212.0
99.268738 168.0
99.292534 144.0
99.437019 184.0
99.625999 172.0
99.790955 108.0
99.866058 188.0
100.012115 160.0
100.043617 56.0
100.167084 224.0
100.476074 152.0
100.715057 132.0
100.789536 64.0
100.857491 144.0
100.879478 156.0
100.945457 128.0
100.989449 56.0
101.069473 112.0
101.093483 128.0
101.189011 188.0
101.269661 104.0
101.522186 160.0
101.624489 132.0
101.775024 176.0
101.975914 140.0
102.267548 136.0
102.36821 172.0
102.402451 144.0
102.483025 116.0
102.616051 180.0
102.706795 112.0
102.773369 196.0
102.797585 128.0
103.286507 156.0
103.318878 124.0
103.397789 80.0
103.549637 92.0
103.697533 112.0
103.829315 188.0
103.849602 72.0
103.963211 176.0
104.044403 100.0
104.111404 136.0
104.131714 156.0
104.166245 88.0
104.283104 204.0
104.446762 160.0
104.564766 112.0
104.629906 92.0
104.756165 80.0
104.839706 76.0
105.081482 224.0
105.149696 196.0
105.237473 124.0
105.3069 284.0
105.325287 136.0
105.364098 104.0
105.672813 164.0
105.751457 176.0
106.119308 148.0
106.494843 148.0
106.659218 156.0
106.753792 32.0
106.805214 52.0
106.976006 140.0
107.173714 144.0
107.287071 208.0
107.320061 156.0
107.741089 136.0
107.770012 180.0
108.009827 136.0
108.0243 64.0
108.053268 60.0
108.135727 132.0
108.177437 176.0
108.264397 60.0
108.494392 188.0
108.637482 152.0
108.747459 180.0
108.832573 216.0
109.034065 260.0
109.110977 72.0
109.314812 136.0
109.356438 124.0
109.487602 152.0
109.610504 100.0
109.745995 160.0
109.900337 136.0
110.08403 184.0
110.322212 184.0
110.341934 204.0
110.899948 112.0
110.990089 32.0
111.071884 132.0
111.298538 196.0
111.376244 92.0
111.399345 160.0
111.546448 164.0
111.573776 88.0
111.673737 144.0
111.813568 224.0
111.851456 192.0
112.030441 132.0
112.230713 172.0
112.34877 184.0
112.494377 156.0
112.599953 96.0
112.910629 148.0
112.974083 172.0
113.088348 44.0
113.105278 148.0
113.285271 152.0
113.32341 100.0
113.4086 160.0
113.456924 116.0
113.471771 180.0
113.80912 128.0
113.883446 160.0
114.004547 168.0
114.0513 212.0
114.072556 132.0
114.191628 184.0
114.438477 200.0
114.572655 236.0
114.664276 140.0
114.696251 252.0
114.8647 80.0
114.975647 204.0
115.054893 212.0
115.467026 208.0
115.518356 224.0
115.745224 120.0
115.783768 176.0
115.888733 132.0
116.021492 144.0
116.103088 120.0
116.227509 88.0
116.331596 180.0
116.35199 192.0
116.932373 100.0
116.958199 140.0
117.012016 132.0
117.177849 104.0
117.440842 128.0
117.45594 144.0
117.471046 100.0
117.668922 168.0
117.693336 176.0
117.805641 172.0
118.121246 196.0
118.233757 124.0
118.367973 36.0
118.411285 84.0
118.504433 200.0
118.697342 184.0
118.770439 176.0
118.905602 176.0
118.953354 164.0
119.027168 124.0
119.303093 148.0
119.705612 140.0
119.831947 176.0
119.984627 140.0
120.134979 212.0
120.241898 128.0
120.366333 56.0
120.458061 176.0
120.672226 36.0
120.838448 172.0
120.873459 192.0
120.890961 252.0
120.95224 64.0
121.047554 112.0
121.162468 140.0
121.379456 176.0
121.631752 128.0
121.763977 108.0
121.989807 60.0
122.011795 124.0
122.247139 164.0
122.436462 172.0
122.456284 180.0
122.782471 204.0
123.025185 136.0
123.045052 180.0
123.086998 92.0
123.274765 132.0
123.376434 188.0
123.405174 192.0
123.575485 116.0
123.644081 184.0
123.832268 236.0
123.878784 220.0
123.91201 180.0
124.027245 252.0
124.1381 128.0
124.158058 188.0
124.18911 148.0
124.213509 140.0
124.32666 92.0
124.648659 200.0
124.72422 224.0
124.759789 156.0
124.999992 128.0
125.028923 164.0
125.051178 56.0
125.209251 120.0
125.737625 192.0
125.782265 208.0
125.817986 104.0
125.978775 176.0
126.012283 188.0
126.088264 148.0
126.215683 172.0
126.354355 232.0
126.39447 116.0
126.44162 132.0
126.499817 160.0
126.712563 88.0
126.737213 144.0
126.851509 176.0
126.943436 48.0
127.05558 100.0
127.232101 176.0
127.506912 200.0
127.551865 168.0
127.637299 152.0
127.702888 120.0
127.862251 124.0
127.970306 108.0
128.031097 176.0
128.098679 100.0
128.547333 180.0
128.59021 204.0
128.631134 188.0
128.779877 120.0
128.901871 220.0
129.075912 180.0
129.094131 148.0
129.12793 216.0
129.148285 132.0
129.425934 204.0
130.065964 176.0
130.283966 148.0
130.445297 156.0
130.488495 164.0
130.506683 100.0
130.777405 196.0
130.898056 88.0
131.137268 160.0
131.27861 128.0
131.374405 220.0
131.534149 92.0
131.577515 160.0
131.725952 208.0
131.799057 84.0
131.836319 224.0
132.201523 108.0
132.329697 136.0
132.531372 156.0
132.614212 180.0
132.652405 232.0
132.689407 128.0
132.877472 108.0
132.946304 36.0
133.026642 184.0
133.08403 100.0
133.111588 140.0
133.157776 180.0
133.208359 148.0
133.403381 144.0
133.681671 176.0
133.702393 132.0
133.79216 48.0
133.960266 128.0
134.176895 136.0
134.211472 140.0
134.349854 156.0
134.370621 124.0
134.509079 60.0
134.58989 128.0
134.911026 196.0
135.079834 132.0
135.167755 196.0
135.285797 184.0
135.366241 172.0
135.5336 124.0
135.691208 116.0
135.900391 168.0
136.118134 96.0
136.171555 92.0
136.750473 64.0
136.878525 244.0
137.068771 172.0
137.130112 156.0
137.197723 204.0
137.356293 220.0
137.923691 36.0
137.968109 160.0
138.216034 164.0
138.297943 144.0
138.323685 180.0
138.452469 196.0
138.483643 232.0
138.699265 172.0
138.786835 104.0
139.057327 348.0
139.080811 132.0
139.226364 148.0
139.343811 28.0
139.36261 132.0
139.404907 140.0
139.496567 264.0
139.614136 212.0
139.757614 208.0
139.804688 100.0
139.863525 184.0
139.934143 120.0
140.08252 132.0
140.101364 132.0
140.221527 160.0
140.287521 192.0
140.334686 40.0
140.601227 168.0
140.690933 200.0
140.807129 188.0
140.872772 188.0
140.996719 208.0
141.016907 164.0
141.068481 616.0
141.128006 160.0
141.196579 148.0
141.25209 136.0
141.478165 120.0
141.497101 176.0
141.665237 148.0
141.840591 148.0
141.892746 224.0
142.037399 120.0
142.074341 228.0
142.239105 164.0
142.436188 160.0
142.467072 152.0
142.488449 52.0
142.552597 52.0
142.602509 236.0
142.669861 84.0
142.702347 112.0
142.874359 208.0
142.985428 100.0
143.078247 132.0
143.161011 180.0
143.175949 144.0
143.34169 216.0
143.359314 84.0
143.490417 172.0
143.577484 128.0
143.715408 204.0
143.903168 164.0
144.266296 140.0
144.361938 136.0
144.584427 96.0
144.785522 88.0
144.878937 176.0
144.972382 156.0
145.000885 176.0
145.245697 244.0
145.389648 148.0
145.497665 116.0
145.524078 220.0
145.795517 60.0
145.841171 88.0
145.862808 184.0
146.011887 136.0
146.059982 212.0
146.161026 192.0
146.454956 168.0
146.519775 148.0
146.702927 120.0
146.731857 104.0
146.768021 236.0
146.835541 140.0
146.883789 76.0
147.006821 104.0
147.130676 244.0
147.166138 204.0
147.279648 160.0
147.347275 168.0
147.692963 80.0
147.884338 132.0
147.920425 220.0
147.980942 164.0
148.239868 120.0
148.277924 352.0
148.321777 156.0
148.40979 180.0
148.642883 168.0
148.880554 88.0
148.960709 176.0
149.045731 104.0
149.373947 280.0
149.729294 120.0
149.894958 184.0
149.914444 220.0
150.004623 56.0
150.048584 144.0
150.285095 204.0
150.488068 124.0
150.540131 272.0
150.687943 220.0
150.812576 148.0
150.839462 140.0
151.055527 336.0
151.177261 172.0
151.331192 112.0
151.409546 116.0
151.465881 212.0
151.514603 140.0
151.588379 164.0
151.622696 132.0
151.918091 204.0
152.019974 224.0
152.057571 380.0
152.285355 212.0
152.503784 180.0
152.538193 120.0
152.919449 68.0
153.000687 136.0
153.022842 152.0
153.069702 276.0
153.123795 192.0
153.145966 188.0
153.170593 164.0
153.214935 100.0
153.296249 208.0
153.404694 188.0
153.584702 116.0
153.83754 128.0
153.902802 156.0
153.964783 128.0
154.074951 188.0
154.108063 228.0
154.162674 152.0
154.308258 156.0
154.597656 116.0
154.741226 220.0
154.855133 104.0
154.897232 132.0
154.986069 188.0
155.030136 200.0
155.050919 168.0
155.08728 460.0
155.150009 116.0
155.202072 152.0
155.286377 192.0
155.405792 204.0
155.564285 156.0
155.636292 220.0
155.75798 108.0
155.897919 160.0
156.048737 168.0
156.09227 212.0
156.157059 136.0
156.33728 184.0
156.362167 168.0
156.40448 120.0
156.850342 144.0
157.063797 92.0
157.154587 148.0
157.182037 188.0
157.389221 168.0
157.436661 72.0
157.620972 224.0
157.791473 204.0
157.866486 180.0
158.094131 140.0
158.124161 152.0
158.184814 228.0
158.249329 140.0
158.31694 176.0
158.37204 152.0
158.404602 116.0
158.484772 96.0
158.873367 200.0
158.916031 216.0
159.189621 96.0
159.378021 172.0
159.44838 96.0
159.491104 168.0
159.712372 144.0
159.815521 48.0
160.037018 104.0
160.183075 180.0
160.200714 104.0
160.288895 148.0
160.497345 172.0
160.583847 100.0
160.644379 180.0
160.886642 48.0
160.927048 128.0
161.073517 152.0
161.091202 200.0
161.232697 196.0
161.402054 204.0
161.518402 116.0
161.596817 124.0
161.617065 208.0
161.865112 120.0
162.237564 176.0
162.397308 208.0
162.430283 160.0
162.686584 256.0
162.894821 160.0
162.932922 124.0
162.978973 192.0
163.052353 308.0
163.10318 104.0
163.169281 172.0
163.220123 84.0
163.298965 132.0
163.344742 56.0
163.39563 144.0
163.614487 184.0
163.675598 164.0
163.711243 192.0
164.027176 112.0
164.098557 36.0
164.744232 96.0
164.835037 164.0
165.012573 216.0
165.070404 5532.0
165.137878 148.0
165.22229 160.0
165.286255 92.0
165.352798 176.0
165.467987 224.0
165.534561 128.0
165.813309 168.0
165.934265 96.0
165.954773 52.0
166.077408 2172.0
166.167664 56.0
166.378098 208.0
166.465408 60.0
166.493652 148.0
166.534195 168.0
166.573273 228.0
166.591248 432.0
166.805344 192.0
166.823563 200.0
166.899658 156.0
167.005096 208.0
167.046249 164.0
167.087906 500.0
167.254684 212.0
167.452942 168.0
167.53537 188.0
167.610077 168.0
167.718323 240.0
167.790955 136.0
167.891068 188.0
167.986496 164.0
168.059372 436.0
168.085052 360.0
168.203247 240.0
168.275543 168.0
168.33493 216.0
168.39975 120.0
168.471817 144.0
168.562241 144.0
168.634598 176.0
168.732834 176.0
168.792297 152.0
168.973358 192.0
169.06572 792.0
169.115677 124.0
169.133804 152.0
169.276184 184.0
169.315033 156.0
169.62854 156.0
169.702164 240.0
169.815231 76.0
169.957916 148.0
169.983856 108.0
170.072174 132.0
170.116226 196.0
170.485046 80.0
171.073517 192.0
171.231705 180.0
171.388 212.0
171.419266 152.0
171.452744 156.0
171.578262 180.0
171.672119 124.0
171.880814 68.0
172.160126 128.0
172.42659 68.0
172.575592 136.0
172.810989 156.0
172.879028 172.0
173.057556 216.0
173.282272 156.0
173.376602 128.0
173.599426 104.0
173.738434 128.0
173.908997 88.0
174.066132 244.0
174.453491 208.0
174.560532 236.0
174.597351 144.0
174.657837 104.0
174.773514 116.0
174.902557 184.0
175.166428 152.0
175.297607 256.0
175.339767 140.0
175.526932 132.0
175.550674 104.0
175.584946 204.0
175.629791 168.0
175.651962 176.0
175.70285 192.0
175.727402 216.0
176.012787 188.0
176.063034 1228.0
176.136581 64.0
176.252823 120.0
176.273956 120.0
176.387604 208.0
176.421967 128.0
176.525085 64.0
176.559464 172.0
176.580627 132.0
176.644104 176.0
176.771103 72.0
177.030518 172.0
177.070145 17348.0
177.144409 128.0
177.162109 88.0
177.213287 52.0
177.242432 156.0
177.284836 52.0
177.308685 36.0
177.341644 68.0
177.417358 84.0
177.511887 144.0
177.544632 60.0
177.578278 108.0
177.596924 184.0
177.618896 84.0
177.658691 120.0
177.730331 92.0
177.8405 140.0
177.868332 64.0
177.982483 104.0
178.038254 152.0
178.074539 1940.0
178.192307 64.0
178.242798 108.0
178.302582 72.0
178.357071 80.0
178.449173 168.0
178.591064 120.0
178.615936 160.0
178.696167 164.0
178.729401 164.0
178.777084 52.0
178.800354 144.0
178.878433 60.0
178.898361 168.0
179.022202 180.0
179.045547 256.0
179.084335 688.0
179.122604 144.0
179.179825 184.0
179.240631 76.0
179.259293 100.0
179.277939 76.0
179.315247 48.0
179.472534 112.0
179.629883 152.0
179.765945 200.0
179.928772 60.0
179.976822 72.0
180.056946 400.0
180.093582 624.0
180.123718 120.0
180.17981 176.0
180.203857 120.0
180.249283 52.0
180.292038 88.0
180.372223 132.0
180.516479 148.0
181.035736 180.0
181.065567 1036.0
181.101517 628.0
181.236633 152.0
181.255386 96.0
181.276825 132.0
181.437653 88.0
181.507355 48.0
181.728745 208.0
181.866852 160.0
181.982285 136.0
182.073685 468.0
182.105804 176.0
182.178329 212.0
182.447067 96.0
182.514282 72.0
182.753662 144.0
182.788651 200.0
182.866699 204.0
182.966293 80.0
182.985138 140.0
183.025528 156.0
183.046906 204.0
183.080536 1208.0
183.243683 216.0
183.348785 160.0
183.701996 136.0
183.73436 128.0
183.785629 240.0
183.907059 148.0
184.044922 184.0
184.081558 296.0
184.147369 60.0
184.258118 136.0
184.374054 192.0
184.409439 176.0
184.449982 204.0
184.504044 260.0
184.522964 56.0
184.687927 28.0
185.064087 160.0
185.08989 316.0
185.578888 180.0
185.690063 176.0
185.768723 352.0
185.972229 180.0
186.064529 152.0
186.27092 132.0
186.444809 160.0
186.550812 184.0
186.626938 216.0
186.692184 224.0
186.795547 112.0
186.970673 220.0
187.081268 84.0
187.211975 96.0
187.299118 180.0
187.435333 176.0
187.699738 220.0
187.77211 172.0
187.838837 112.0
188.384781 84.0
188.600662 136.0
188.649857 208.0
188.709381 192.0
189.027298 176.0
189.068237 848.0
189.890244 72.0
190.035629 76.0
190.077255 288.0
190.161865 64.0
190.203033 100.0
190.354034 96.0
190.45015 116.0
190.491364 140.0
190.922882 184.0
190.947632 136.0
190.991638 168.0
191.02739 120.0
191.084747 1624.0
191.162216 100.0
191.302582 92.0
191.338364 140.0
191.368652 144.0
191.473297 232.0
191.69368 108.0
191.839752 204.0
191.883865 260.0
192.053253 168.0
192.087265 256.0
192.126556 140.0
192.974426 104.0
193.064667 2544.0
193.126526 268.0
193.170776 148.0
193.309113 116.0
193.394913 148.0
193.419815 128.0
193.472412 168.0
193.50563 148.0
193.572083 152.0
193.743805 76.0
193.809906 164.0
193.853897 120.0
193.887894 324.0
193.910065 128.0
193.929474 156.0
194.004303 160.0
194.073395 20688.0
194.151947 164.0
194.251114 68.0
194.295502 36.0
194.374969 212.0
194.463867 124.0
194.474686 84.0
194.482834 172.0
194.531387 164.0
194.553589 156.0
194.58136 44.0
194.760513 124.0
194.889648 68.0
194.945221 156.0
195.07724 4020.0
195.15451 192.0
195.192627 40.0
195.270493 136.0
195.29274 56.0
195.320557 68.0
195.342804 48.0
195.37619 56.0
195.4207 44.0
195.665619 84.0
195.707382 48.0
195.749146 60.0
195.778961 68.0
195.974777 224.0
196.049255 324.0
196.077194 948.0
196.222824 208.0
196.255569 140.0
196.292526 44.0
196.334366 84.0
196.411545 148.0
196.4543 32.0
196.519699 180.0
196.585434 88.0
196.839462 44.0
196.909271 144.0
197.029388 196.0
197.059723 440.0
197.096756 292.0
197.141144 48.0
197.25853 136.0
197.459854 48.0
197.792801 204.0
197.834793 208.0
198.065567 472.0
198.10321 184.0
198.144974 164.0
198.252136 92.0
198.35022 132.0
198.552094 328.0
198.605392 172.0
198.647461 200.0
198.71759 40.0
198.939301 204.0
199.16449 164.0
199.2117 244.0
199.321274 176.0
199.38591 148.0
199.450546 100.0
199.619232 160.0
199.861145 88.0
199.897079 208.0
199.97934 160.0
200.007477 220.0
200.111649 40.0
200.176407 148.0
200.314407 200.0
200.345398 212.0
200.365112 144.0
200.687454 196.0
200.993866 116.0
201.058807 520.0
201.374969 152.0
201.623505 132.0
201.846909 156.0
201.885437 128.0
202.054642 136.0
202.075027 220.0
202.149582 156.0
202.203354 92.0
202.313751 144.0
202.434143 184.0
202.444 96.0
202.451004 184.0
202.523285 160.0
202.565781 180.0
202.81514 100.0
202.903015 156.0
202.931503 160.0
202.982407 164.0
203.373901 176.0
203.495972 176.0
203.541397 108.0
203.59819 84.0
203.712677 144.0
203.765778 244.0
204.057663 640.0
204.286026 104.0
204.345779 136.0
204.425446 128.0
204.499786 168.0
204.684479 164.0
204.794678 144.0
204.838608 204.0
204.881012 116.0
204.929733 176.0
204.949387 144.0
204.98468 236.0
205.02005 412.0
205.065262 25744.0
205.111465 284.0
205.166199 32.0
205.236862 84.0
205.262924 48.0
205.325668 180.0
205.34404 136.0
205.356094 60.0
205.365799 68.0
205.434052 40.0
205.454025 48.0
205.485413 80.0
205.513947 168.0
205.573868 180.0
205.633118 68.0
205.68071 156.0
205.782227 40.0
205.8479 68.0
205.930298 108.0
206.00499 80.0
206.03244 180.0
206.070801 4916.0
206.154831 60.0
206.264252 104.0
206.333633 52.0
206.425125 132.0
206.504486 48.0
206.523712 68.0
206.576721 100.0
206.626144 212.0
206.662537 160.0
206.71405 72.0
206.745529 56.0
206.911545 40.0
207.077377 412.0
207.118408 176.0
207.1521 52.0
207.17215 60.0
207.249496 44.0
207.28035 156.0
207.311157 72.0
207.381332 36.0
207.404251 80.0
207.493118 48.0
207.516052 76.0
207.602081 64.0
207.660202 164.0
207.774185 104.0
207.851639 52.0
207.906174 40.0
208.053925 324.0
208.089523 592.0
208.147293 56.0
208.460403 216.0
208.508133 112.0
208.575363 128.0
208.632858 44.0
208.802505 136.0
208.845642 184.0
208.896683 172.0
209.058105 336.0
209.093491 1324.0
209.306107 156.0
209.355057 72.0
209.539413 48.0
209.631607 116.0
209.689255 76.0
209.749771 52.0
209.888153 200.0
209.938766 196.0
210.067474 700.0
210.100937 660.0
210.156403 84.0
210.191833 72.0
210.312241 68.0
210.657425 96.0
210.754089 76.0
210.79454 140.0
210.869675 152.0
210.950607 100.0
211.027695 160.0
211.075348 5628.0
211.147217 96.0
211.251343 48.0
211.317886 224.0
211.494415 216.0
211.560989 152.0
211.600662 228.0
211.946182 96.0
212.00705 184.0
212.080856 1440.0
212.149063 88.0
212.262146 64.0
212.375244 100.0
212.592834 136.0
212.688614 64.0
212.717636 52.0
213.008011 32.0
213.05159 120.0
213.087723 64.0
213.176529 96.0
213.316605 124.0
213.356735 160.0
213.621368 52.0
213.699921 200.0
213.804672 152.0
214.052109 148.0
214.097214 344.0
214.223953 116.0
214.293869 72.0
214.369629 40.0
214.425003 136.0
214.631973 160.0
214.713623 144.0
214.81279 144.0
214.952835 200.0
215.580673 140.0
215.607285 188.0
215.73851 96.0
215.788208 188.0
215.902237 172.0
215.95488 216.0
216.030945 132.0
216.153824 188.0
216.183945 108.0
216.26503 180.0
216.335281 112.0
216.508987 220.0
216.865463 96.0
217.026703 164.0
217.064163 164.0
217.126404 148.0
217.292664 156.0
217.337601 196.0
217.463791 168.0
217.528366 160.0
217.719208 172.0
217.76033 148.0
217.83963 176.0
218.030624 180.0
218.068665 216.0
218.072983 156.0
218.193756 176.0
218.61879 172.0
218.748291 128.0
218.813049 172.0
218.877823 180.0
219.079208 1260.0
219.131134 80.0
219.169434 48.0
219.216583 144.0
219.299103 160.0
219.369843 152.0
219.493668 44.0
219.679474 68.0
219.786163 124.0
219.844711 120.0
220.04686 196.0
220.088562 464.0
220.261002 100.0
220.479736 120.0
220.544662 196.0
220.61264 144.0
220.677689 228.0
220.713165 140.0
220.739777 32.0
220.784134 96.0
220.825546 52.0
221.060272 1952.0
221.092941 156.0
221.099396 64.0
221.13028 224.0
221.441147 168.0
221.524094 128.0
221.60704 184.0
221.639633 52.0
221.721313 220.0
221.764099 44.0
221.805603 104.0
221.841171 88.0
221.894806 132.0
221.930115 160.0
221.977554 212.0
221.997437 164.0
222.019073 176.0
222.068069 26304.0
222.106003 188.0
222.234192 92.0
222.306824 64.0
222.339462 104.0
222.403275 88.0
222.425537 40.0
222.464966 128.0
222.538727 220.0
222.582886 96.0
222.636932 160.0
222.689804 56.0
222.731384 56.0
222.762466 60.0
222.816971 84.0
222.856155 160.0
222.927475 116.0
222.966095 52.0
223.03389 144.0
223.037979 176.0
223.07373 5956.0
223.152969 60.0
223.221756 100.0
223.266373 112.0
223.379395 100.0
223.465668 144.0
223.557907 48.0
223.650162 60.0
223.831772 144.0
223.895798 96.0
224.078857 860.0
224.314407 160.0
224.365097 84.0
224.403854 48.0
224.424713 120.0
224.535049 84.0
224.606628 96.0
224.640884 116.0
224.67099 160.0
224.731079 84.0
224.785645 96.0
224.836365 64.0
224.943817 56.0
225.018448 100.0
225.064041 164.0
225.091476 1800.0
225.283096 52.0
225.481461 156.0
225.609985 168.0
225.666794 52.0
225.699677 192.0
225.732574 52.0
225.768448 148.0
225.906036 144.0
225.986816 184.0
226.061539 168.0
226.101288 1636.0
227.032806 228.0
227.075241 448.0
227.099579 368.0
227.203186 84.0
227.272202 88.0
227.332214 100.0
227.706497 116.0
227.77356 132.0
227.929779 148.0
227.950806 120.0
228.049988 136.0
228.398773 56.0
228.425842 36.0
228.517685 196.0
228.582291 128.0
228.802002 168.0
228.821503 128.0
229.039902 120.0
229.07605 160.0
229.311066 100.0
229.488922 176.0
229.60466 200.0
229.905197 164.0
229.9384 172.0
230.080261 152.0
230.261429 124.0
230.944489 144.0
231.050369 172.0
231.20166 144.0
231.307587 112.0
231.480164 116.0
231.658859 72.0
232.025543 92.0
232.048965 204.0
232.171097 156.0
232.203049 164.0
232.52301 108.0
232.668716 84.0
232.814453 64.0
232.878845 216.0
232.898911 232.0
232.94809 112.0
233.061417 7584.0
233.130386 44.0
233.215485 112.0
233.236771 148.0
233.297562 184.0
233.321884 44.0
233.610794 132.0
233.635117 184.0
233.735519 108.0
233.863342 172.0
233.912048 168.0
234.066193 3036.0
234.164764 80.0
234.201309 88.0
234.225677 128.0
234.323166 88.0
234.484665 56.0
234.53038 52.0
234.551712 128.0
234.642471 192.0
234.774902 128.0
235.072159 1164.0
235.186157 32.0
235.225845 52.0
235.323532 228.0
235.555634 36.0
235.705338 120.0
235.781738 152.0
235.879532 92.0
236.034592 252.0
236.080048 944.0
236.111908 168.0
236.326035 164.0
236.378052 96.0
236.408661 148.0
236.492584 160.0
236.524963 108.0
236.63887 228.0
236.699463 248.0
236.734589 140.0
236.772964 164.0
236.803589 236.0
236.964981 280.0
236.995529 384.0
237.027374 172.0
237.092422 46652.0
237.161301 144.0
237.196365 152.0
237.218613 64.0
237.316223 84.0
237.37973 84.0
237.421799 184.0
237.443726 60.0
237.451416 96.0
237.483322 108.0
237.514679 44.0
237.706146 184.0
237.733307 244.0
237.760132 52.0
237.859619 96.0
237.918427 196.0
237.963364 172.0
238.00264 100.0
238.023102 60.0
238.036102 40.0
238.094696 7048.0
238.159256 48.0
238.180756 56.0
238.273941 60.0
238.306702 88.0
238.334366 92.0
238.37738 64.0
238.464783 76.0
238.521835 48.0
238.647873 124.0
238.686462 128.0
238.740128 88.0
238.829315 60.0
238.942337 108.0
239.032227 260.0
239.071304 11920.0
239.173935 36.0
239.20163 48.0
239.273056 60.0
239.318619 92.0
239.386353 48.0
239.444168 140.0
239.496948 120.0
239.546509 68.0
239.592728 108.0
239.617371 100.0
239.650986 88.0
239.688934 124.0
239.712891 60.0
239.745346 92.0
239.802261 160.0
239.834488 192.0
239.892517 156.0
239.92247 76.0
239.955688 88.0
239.984131 28.0
240.03038 124.0
240.075562 1736.0
240.161072 112.0
240.289474 28.0
240.385132 44.0
240.443756 44.0
240.499313 108.0
240.56665 64.0
240.601624 224.0
240.678375 64.0
240.727768 116.0
240.74939 108.0
240.931625 56.0
240.981064 76.0
241.078781 456.0
241.127701 140.0
241.333405 116.0
241.426178 104.0
241.481842 36.0
241.61795 84.0
241.809799 164.0
241.989334 124.0
242.076035 332.0
242.429184 44.0
242.503555 28.0
242.652359 92.0
242.892838 88.0
243.067978 168.0
244.771393 152.0
245.059509 144.0
245.110916 180.0
245.148315 168.0
245.22934 32.0
245.86557 72.0
246.062225 168.0
246.521378 176.0
246.749557 128.0
246.921539 192.0
247.037262 200.0
247.077896 816.0
247.400269 84.0
247.986023 204.0
248.048706 180.0
248.08017 360.0
248.114548 196.0
248.352859 136.0
248.393646 104.0
248.50972 232.0
248.669754 148.0
248.69487 52.0
248.814148 112.0
248.949173 112.0
249.054749 620.0
249.093719 152.0
249.178467 132.0
249.571335 216.0
249.923615 116.0
250.008575 152.0
250.06485 2416.0
250.392654 64.0
250.467087 124.0
250.562744 64.0
250.603714 68.0
250.657272 36.0
250.748657 48.0
250.944107 92.0
251.070999 2824.0
251.110886 228.0
251.237396 48.0
251.325745 48.0
251.433029 44.0
251.508774 52.0
251.530884 132.0
251.663467 96.0
251.821365 44.0
251.846359 188.0
251.887695 128.0
251.909805 104.0
251.945938 64.0
252.073853 764.0
252.206833 48.0
252.263733 48.0
252.561096 96.0
252.719131 120.0
252.801407 88.0
252.858368 184.0
253.031204 188.0
253.086121 1232.0
253.143295 36.0
253.570969 32.0
253.659714 176.0
253.704102 96.0
253.802383 52.0
253.907028 212.0
254.014862 68.0
254.093933 4680.0
254.205231 48.0
254.303619 96.0
254.32901 96.0
254.63063 48.0
254.849823 116.0
255.097504 848.0
255.374344 48.0
255.826187 112.0
255.918503 40.0
256.02359 188.0
256.099915 304.0
256.230621 128.0
256.275238 64.0
256.303925 48.0
257.01178 100.0
257.075592 64.0
257.206451 116.0
257.516144 160.0
257.602386 128.0
257.794098 128.0
257.873993 36.0
258.09137 332.0
258.459229 92.0
259.029083 128.0
259.121979 184.0
259.272583 68.0
259.400787 124.0
260.475769 120.0
260.856598 200.0
261.337341 136.0
261.65918 252.0
261.913574 172.0
262.506592 56.0
262.532379 32.0
262.606567 40.0
262.909821 180.0
263.064575 316.0
263.697845 100.0
263.804504 120.0
263.992035 52.0
264.079742 672.0
264.315521 136.0
264.389954 60.0
264.428772 156.0
264.50647 64.0
264.558258 28.0
264.616516 112.0
264.69397 188.0
264.703278 172.0
264.913971 132.0
264.969177 144.0
265.014099 228.0
265.087769 35832.0
265.145599 232.0
265.180176 44.0
265.202759 80.0
265.230042 56.0
265.259369 56.0
265.334473 212.0
265.366486 76.0
265.413574 56.0
265.446014 56.0
265.523834 52.0
265.619354 72.0
265.679535 44.0
265.72171 200.0
265.744415 72.0
265.78006 216.0
265.819061 52.0
265.855743 52.0
265.896942 208.0
265.960632 96.0
266.029999 248.0
266.092255 7212.0
266.164673 48.0
266.250793 144.0
266.273529 92.0
266.328766 72.0
266.373505 196.0
266.406708 68.0
266.566986 120.0
266.650421 160.0
266.680908 64.0
266.726257 48.0
266.761505 156.0
266.819427 48.0
266.855194 216.0
266.907227 76.0
266.977203 236.0
267.066681 8192.0
267.171021 76.0
267.196686 56.0
267.286377 64.0
267.330109 72.0
267.35614 60.0
267.4375 44.0
267.473297 60.0
267.528625 60.0
267.610016 96.0
267.668884 104.0
267.720734 60.0
267.753296 172.0
267.774597 84.0
267.80542 60.0
267.854279 48.0
267.965027 48.0
268.002289 128.0
268.071564 1528.0
268.131226 144.0
268.163818 84.0
268.281158 40.0
268.378967 80.0
268.734497 132.0
268.871521 44.0
268.920502 208.0
269.079376 348.0
269.116852 404.0
269.171875 60.0
269.331879 64.0
269.390686 88.0
269.563843 68.0
269.589996 64.0
269.69458 80.0
269.825348 40.0
269.893982 28.0
269.926697 52.0
270.091125 176.0
270.54834 72.0
270.646545 36.0
271.039612 60.0
271.092041 144.0
271.259186 68.0
271.501831 40.0
271.872528 92.0
272.548981 72.0
272.578552 84.0
272.821777 96.0
273.677155 64.0
274.09549 44.0
274.840668 48.0
274.929779 128.0
275.137726 40.0
275.491089 68.0
277.254639 108.0
277.450195 36.0
278.199951 180.0
278.794495 60.0
279.099884 160.0
279.401581 48.0
280.765289 120.0
281.032166 132.0
281.078003 660.0
281.128937 68.0
281.188995 56.0
281.469421 208.0
281.67981 152.0
281.813446 164.0
281.90033 184.0
282.013947 104.0
282.089355 7792.0
282.157684 152.0
282.204498 88.0
282.385071 44.0
282.631744 56.0
282.715271 80.0
282.821442 180.0
282.907074 80.0
283.020905 56.0
283.092072 1776.0
284.09317 564.0
284.274536 52.0
284.845306 84.0
285.101257 156.0
285.191406 76.0
285.23172 64.0
285.312408 48.0
285.500702 60.0
285.551147 76.0
286.113098 76.0
286.783417 44.0
286.810394 72.0
286.948608 140.0
287.046387 64.0
287.99472 132.0
290.282501 92.0
291.15802 108.0
292.266205 180.0
293.100433 128.0
295.285217 80.0
295.398102 176.0
296.099762 108.0
296.517731 88.0
296.627441 36.0
296.695984 176.0
296.812561 148.0
296.843414 68.0
296.898285 60.0
296.949738 56.0
297.035492 152.0
297.114471 8920.0
297.344269 56.0
297.642944 88.0
297.680725 72.0
297.769989 120.0
297.844452 136.0
297.972656 64.0
298.042877 128.0
298.114777 2356.0
298.429962 76.0
298.587952 80.0
298.870026 84.0
298.928528 28.0
299.117584 444.0
299.400146 44.0
299.67572 80.0
299.958313 80.0
300.475586 52.0
300.592896 116.0
300.955322 100.0
301.297241 56.0
301.864105 116.0
302.608032 72.0
302.871216 96.0
303.793274 124.0
303.907745 124.0
305.439789 76.0
306.480713 132.0
308.04718 84.0
308.963074 44.0
313.718079 60.0
314.539978 108.0
316.732269 108.0
320.622772 144.0
321.521484 56.0
328.149506 292.0
329.157959 84.0
329.359344 52.0
331.504761 72.0
339.059387 160.0
340.214783 60.0
343.287018 104.0
344.974335 72.0
347.737549 64.0
348.327911 84.0
353.798523 40.0
360.909363 104.0
362.567383 84.0
363.849457 152.0
365.434265 44.0
369.887848 56.0
373.387054 48.0
373.937225 76.0
374.218231 84.0
374.310638 92.0
376.315643 36.0
377.610168 116.0
381.332153 80.0
386.620544 56.0
386.86322 132.0
390.850739 76.0
392.765381 136.0
394.969452 60.0
396.854492 124.0
398.370514 64.0
401.490997 68.0
406.150452 132.0
407.370728 40.0
408.295166 40.0
416.499878 104.0
423.982605 48.0
426.695831 52.0
433.597504 72.0
433.941559 44.0
438.064148 148.0
441.716675 80.0
447.878662 92.0
456.933563 68.0
461.142334 116.0
464.923981 72.0
465.254486 76.0
470.239044 96.0
473.871399 108.0
482.952209 136.0
483.586639 68.0
484.269653 52.0
490.892548 72.0
493.794006 28.0
496.513275 92.0
503.643311 160.0
512.467407 76.0
516.254517 52.0
520.087341 116.0
523.478882 68.0
525.438843 40.0
532.961243 52.0
539.653748 60.0
544.10144 108.0
551.461304 40.0
555.36145 128.0
560.985229 116.0
561.999207 84.0
565.23114 64.0
568.206604 76.0
569.051392 60.0
569.630798 64.0
575.182983 84.0
579.788818 128.0
596.824341 116.0
603.083801 52.0
637.114441 80.0
646.371277 72.0
656.969604 104.0
657.862671 60.0
661.077515 112.0
662.4599 52.0
663.797546 112.0
670.640198 40.0
673.02356 80.0
675.219727 76.0
692.78186 56.0
697.635986 60.0
707.42157 76.0
720.19928 48.0
738.32782 104.0
743.219299 148.0
753.897583 88.0
755.581604 172.0
756.555725 64.0
773.704468 112.0
799.272888 80.0
806.26532 148.0
815.770447 52.0
824.925354 72.0
830.1297 68.0
845.348999 76.0
858.570801 136.0
859.830933 104.0
869.229126 104.0
887.010681 40.0
912.201355 76.0
920.726929 92.0
930.196411 60.0
932.856995 72.0
935.655334 212.0
947.852417 76.0
953.608704 156.0
975.222534 96.0
981.460205 92.0
984.205627 56.0
984.611511 104.0
1006.264648 60.0
1010.51593 116.0
1014.005005 36.0
1018.071533 52.0
1025.387573 96.0
1026.994263 96.0
1048.749268 48.0
1059.650757 144.0
1062.801758 184.0
1084.930908 76.0
1093.739746 80.0
1124.187012 116.0
1141.678101 68.0
1141.731812 68.0
1154.747925 164.0
1167.457031 180.0
1171.629395 68.0
1173.039917 136.0
1175.925171 196.0
1183.369263 36.0
1190.294312 80.0
1202.782837 172.0
1207.04541 52.0
1214.885498 72.0
1226.539795 72.0
1244.624146 188.0
1249.171143 168.0
1256.935059 160.0
1269.710693 220.0
1276.883545 204.0
1284.233521 196.0
1285.731812 180.0
1287.252319 160.0
1290.553467 120.0
1296.465942 52.0
1299.427246 136.0
1303.749878 80.0
1304.403931 48.0
1314.327881 168.0
1318.841431 176.0
1328.239746 176.0
1338.836426 116.0
1339.491821 204.0
1342.443604 160.0
1354.465942 152.0
1355.733521 248.0
1359.554199 160.0
1363.438965 168.0
1368.242065 136.0
1370.245239 40.0
1373.400269 184.0
1374.056763 108.0
1377.496826 160.0
1380.859863 96.0
1384.54541 144.0
1386.96814 220.0
1389.444824 116.0
1389.845459 212.0
1397.230591 168.0
1401.072021 132.0
1401.988403 124.0
1402.040649 72.0
1402.584717 168.0
1408.561401 168.0
1408.755615 144.0
1414.827881 136.0
1416.033447 184.0
1429.31311 108.0
1433.213379 164.0
1434.230835 188.0
1441.445557 132.0
1442.171021 168.0
1446.346191 32.0
1449.511719 144.0
1450.352905 144.0
1455.686279 108.0
1457.440918 152.0
1457.889282 252.0
1457.942383 128.0
1467.319946 124.0
1471.83667 204.0
1474.846558 200.0
1475.763916 172.0
1477.171021 120.0
1477.683594 48.0
1477.775391 116.0
1484.178467 204.0
1485.390137 188.0
1490.833618 208.0
1492.409424 188.0
1492.73999 156.0
1493.409058 132.0
1495.040039 180.0
1495.401733 244.0
1497.318726 184.0
1497.488159 156.0
1503.470703 172.0
