>compound MLS001160371-01!
>formula C26H26N2O5
>ionization [M+H]+
>parentmass 447.1914483840905
#inchi InChI=1S/C26H26N2O5/c29-24-7-3-6-22-17-10-16(13-28(22)24)12-27(14-17)25(30)15-32-18-8-9-20-19-4-1-2-5-21(19)26(31)33-23(20)11-18/h3,6-9,11,16-17H,1-2,4-5,10,12-15H2/t16-,17+/m1/s1
#inchikey HKBYEHNTKISRIN
#Ion_Source LC-ESI
#Instrument qTof
#Compound_Source NIH Natural Product Library
#PI Dorrestein
#Data_Collector VVP/LMS
#Scan -1
#Precursor_MZ 447.192
#ExactMass 446.184
#Charge 1
#CAS_Number N/A
#Pubmed_ID N/A
#Smiles O=C(COc1ccc2c3CCCCc3c(=O)oc2c1)N4C[C@H]5C[C@@H](C4)c6cccc(=O)n6C5
#INCHI_AUX N/A
#Library_Class 1
#SpectrumID CCMSLIB00000080317
#IonMode Positive
#UpdateWorkflowName UPDATE-SINGLE-ANNOTATED-GOLD
#LibraryQualityString Gold
#TaskID b1d8e8f6646f4e71acdff9ca3d919d08
##Scan# 1855
#SpectrumFile p2-B07_GB7_01_17995.mzXML
#LibraryName NIH_Natural_Products_Library.mgf
#MQScore -1
#Organism NIH_Natural_Products_Library
#TIC_Query 0
#RT_Query -1
#MZErrorPPM -1
#SharedPeaks 0
#MassDiff 0
#LibMZ -1
#SpecMZ 447.192
#SpecCharge 0
#internalFilename spec-00000.mgf

>collision 10
94.956406 68.0
95.032059 76.0
95.049522 212.0
95.074821 348.0
95.148514 116.0
95.202881 44.0
95.369965 132.0
95.404953 144.0
95.447723 212.0
95.513847 244.0
95.62281 196.0
95.677315 152.0
95.710411 52.0
95.825325 112.0
95.874046 64.0
95.928619 64.0
95.950661 172.0
96.042809 356.0
96.072922 196.0
96.164635 64.0
96.256393 196.0
96.275917 128.0
96.381401 120.0
96.412674 108.0
96.450333 164.0
96.5065 52.0
96.57103 132.0
96.851089 244.0
97.056702 116.0
97.142998 184.0
97.172424 180.0
97.197929 168.0
97.227364 192.0
97.258766 212.0
97.288216 196.0
97.40155 184.0
97.607018 168.0
97.692863 208.0
97.752068 164.0
97.783554 236.0
97.875374 224.0
97.909554 136.0
97.980461 140.0
98.057312 168.0
98.112503 132.0
98.197296 156.0
98.244637 164.0
98.361061 104.0
98.479538 168.0
98.532867 124.0
98.620316 80.0
98.649467 144.0
98.783936 224.0
98.831421 124.0
98.918495 88.0
99.130417 144.0
99.170059 164.0
99.205734 140.0
99.241425 164.0
99.267197 132.0
99.313721 236.0
99.449722 128.0
99.478172 132.0
99.630424 128.0
99.646317 144.0
99.785439 172.0
99.821228 212.0
99.837135 180.0
100.012215 144.0
100.069397 116.0
100.137657 216.0
100.169525 108.0
100.191437 116.0
100.390755 232.0
100.422668 208.0
100.586975 116.0
100.902756 220.0
101.001907 172.0
101.131966 116.0
101.161987 152.0
101.204033 180.0
101.238075 224.0
101.284142 200.0
101.334221 140.0
101.360268 116.0
101.566765 124.0
101.580811 192.0
101.600868 60.0
101.624947 120.0
101.663071 160.0
101.677116 128.0
101.701202 172.0
101.954262 156.0
102.088951 148.0
102.243858 92.0
102.324371 176.0
102.417007 188.0
102.433121 180.0
102.596352 192.0
102.703224 120.0
102.79805 184.0
102.856575 152.0
102.905701 168.0
103.052879 332.0
103.188164 144.0
103.210121 176.0
103.260681 100.0
103.347664 148.0
103.447876 124.0
103.475174 140.0
103.535538 84.0
103.574402 144.0
103.712189 216.0
103.758812 180.0
103.783142 192.0
103.884552 176.0
103.947441 96.0
103.977882 212.0
104.048508 632.0
104.178902 164.0
104.239853 200.0
104.27034 188.0
104.396385 120.0
104.410622 168.0
104.459435 84.0
104.53878 184.0
104.654037 148.0
104.789238 108.0
104.848328 140.0
104.889091 136.0
104.921234 188.0
104.958405 176.0
105.05764 296.0
105.090988 60.0
105.109352 152.0
105.170876 164.0
105.193031 140.0
105.26857 216.0
105.431999 164.0
105.474922 240.0
105.552612 128.0
105.701935 196.0
105.841125 232.0
105.90461 80.0
105.943535 140.0
106.015244 116.0
106.066483 128.0
106.089035 232.0
106.109535 112.0
106.138237 160.0
106.25515 180.0
106.30439 204.0
106.364922 332.0
106.496765 184.0
106.54744 108.0
106.56311 52.0
106.587769 176.0
106.676918 180.0
106.717262 176.0
106.739883 124.0
106.925026 148.0
106.93943 52.0
107.032074 184.0
107.049355 464.0
107.071991 300.0
107.104149 224.0
107.332077 160.0
107.388596 236.0
107.413345 148.0
107.469048 172.0
107.495872 212.0
107.618164 160.0
107.648628 148.0
107.671341 172.0
107.718346 164.0
107.826294 156.0
107.857292 128.0
107.877968 124.0
107.898636 172.0
107.920143 140.0
108.047394 228.0
108.078972 164.0
108.105484 276.0
108.134453 136.0
108.402267 100.0
108.426476 100.0
108.507317 84.0
108.646271 128.0
108.707664 196.0
108.787384 188.0
108.941055 164.0
109.052841 1740.0
109.0896 100.0
109.171768 44.0
109.202965 84.0
109.344124 180.0
109.400642 188.0
109.529747 144.0
109.543839 68.0
109.569328 40.0
109.585991 116.0
109.625587 140.0
109.644341 32.0
109.690193 112.0
109.710159 180.0
109.754822 204.0
109.813217 180.0
109.847008 240.0
109.942566 116.0
109.971786 132.0
110.057907 348.0
110.090508 148.0
110.310165 144.0
110.33316 92.0
110.427261 120.0
110.510941 132.0
110.571625 212.0
110.642792 200.0
110.709793 72.0
110.787292 136.0
110.883682 156.0
110.908829 136.0
111.067497 348.0
111.112244 80.0
111.199142 136.0
111.24865 148.0
111.397751 228.0
111.456573 120.0
111.544846 188.0
111.56797 172.0
111.584785 184.0
111.61422 172.0
111.683624 128.0
111.738319 48.0
111.75515 156.0
111.835114 176.0
111.856163 128.0
112.054123 164.0
112.077301 64.0
112.296539 184.0
112.334511 136.0
112.475891 160.0
112.499107 120.0
112.539223 36.0
112.560333 164.0
112.663826 140.0
112.689178 148.0
112.722992 204.0
112.820213 152.0
112.915367 128.0
112.94574 248.0
112.961899 168.0
113.050758 160.0
113.110023 164.0
113.287628 220.0
113.376892 228.0
113.550735 220.0
113.633469 168.0
113.699249 120.0
113.80114 164.0
113.843605 200.0
113.890327 156.0
113.952682 160.0
114.045441 168.0
114.068817 132.0
114.103386 216.0
114.138977 192.0
114.285744 176.0
114.39003 180.0
114.490097 116.0
114.585953 40.0
114.67971 232.0
114.773514 116.0
114.882286 156.0
115.05619 364.0
115.113754 152.0
115.134148 144.0
115.176865 56.0
115.196091 112.0
115.253777 68.0
115.345673 156.0
115.379875 152.0
115.452576 124.0
115.473961 212.0
115.506042 52.0
115.542412 128.0
115.580925 116.0
115.604462 300.0
115.651543 140.0
115.700783 188.0
115.835693 168.0
115.854973 128.0
115.872116 124.0
115.888069 116.0
115.9664 60.0
115.992119 180.0
116.011414 164.0
116.041428 144.0
116.095032 120.0
116.22374 148.0
116.253784 44.0
116.285973 172.0
116.331047 156.0
116.507141 184.0
116.56086 156.0
116.578049 236.0
116.608139 132.0
116.70224 232.0
116.82531 120.0
116.984558 96.0
117.058029 852.0
117.102982 220.0
117.186996 176.0
117.212852 124.0
117.311996 160.0
117.365891 240.0
117.400398 100.0
117.441376 216.0
117.523346 160.0
117.639893 136.0
117.670113 184.0
117.747856 144.0
117.806175 124.0
117.875313 144.0
117.892601 148.0
117.925018 104.0
118.002838 172.0
118.064438 372.0
118.110153 96.0
118.20295 116.0
118.275414 48.0
118.302917 164.0
118.619827 192.0
118.635002 160.0
118.713058 96.0
118.771614 84.0
118.86924 80.0
118.963173 216.0
118.984276 124.0
119.021187 148.0
119.062447 128.0
119.081993 164.0
119.251465 184.0
119.314507 376.0
119.391998 164.0
119.416801 176.0
119.518951 216.0
119.535843 136.0
119.564644 116.0
119.764954 220.0
119.78891 100.0
119.821587 160.0
119.841202 132.0
119.90657 156.0
119.998123 156.0
120.085197 284.0
120.135521 112.0
120.185699 160.0
120.20752 108.0
120.292641 132.0
120.38871 148.0
120.418427 184.0
120.657463 92.0
120.880562 108.0
121.052246 300.0
121.088539 52.0
121.224365 160.0
121.279152 160.0
121.335052 144.0
121.386581 76.0
121.594986 164.0
121.682793 132.0
122.010139 176.0
122.042084 304.0
122.061806 2320.0
122.135483 152.0
122.170006 196.0
122.201485 140.0
122.260895 160.0
122.300514 88.0
122.399582 164.0
122.553764 252.0
122.6838 168.0
122.763176 64.0
122.78302 112.0
122.877045 168.0
122.979378 172.0
123.038498 184.0
123.066727 1172.0
123.100807 92.0
123.160431 28.0
123.301834 60.0
123.370361 96.0
123.461014 152.0
123.509674 244.0
123.527367 116.0
123.62693 324.0
123.784103 148.0
123.888199 64.0
124.075653 184.0
124.132004 172.0
124.225159 172.0
124.253998 168.0
124.282837 120.0
124.318344 260.0
124.629219 76.0
124.699692 224.0
125.029488 176.0
125.069176 144.0
125.145241 172.0
125.31897 84.0
125.372444 136.0
125.600792 124.0
125.642242 116.0
125.660095 212.0
125.680176 116.0
126.003914 180.0
126.057541 132.0
126.124535 164.0
126.236374 168.0
126.491432 192.0
126.567383 160.0
126.603378 112.0
126.717613 176.0
127.051666 140.0
127.067368 176.0
127.102898 192.0
127.219978 168.0
127.485016 112.0
127.644615 100.0
127.698593 156.0
127.757072 152.0
127.77507 140.0
127.817825 132.0
127.867332 156.0
128.061584 624.0
128.142059 136.0
128.184494 120.0
128.241211 188.0
128.275009 200.0
128.329117 32.0
128.373459 248.0
128.509552 236.0
128.568222 84.0
128.642715 168.0
128.692383 80.0
128.748825 152.0
128.825623 128.0
128.868546 36.0
128.909225 180.0
128.995102 160.0
129.070023 420.0
129.25972 84.0
129.28009 160.0
129.307251 40.0
129.391006 120.0
129.694626 236.0
129.801102 188.0
129.905441 128.0
130.065887 396.0
130.168716 188.0
130.23912 196.0
130.302719 160.0
130.379974 136.0
130.52092 152.0
130.573303 204.0
130.649338 224.0
130.702881 140.0
130.721085 156.0
130.789368 152.0
130.960144 88.0
130.99202 136.0
131.010254 76.0
131.072464 468.0
131.09227 144.0
131.122131 120.0
131.242722 224.0
131.361313 40.0
131.646606 60.0
131.692291 104.0
131.843185 168.0
132.044617 868.0
132.083298 1328.0
132.112518 100.0
132.183807 124.0
132.268494 148.0
132.31076 196.0
132.34404 124.0
132.434174 200.0
132.555878 216.0
132.593979 180.0
132.678543 140.0
132.736954 200.0
132.811539 132.0
132.841354 144.0
132.871185 224.0
133.051804 1004.0
133.083206 224.0
133.160416 88.0
133.369492 168.0
133.48674 220.0
133.592545 76.0
133.659271 108.0
133.696091 152.0
133.725998 136.0
133.790451 32.0
133.861832 412.0
133.928619 80.0
133.949356 128.0
133.974686 136.0
134.036896 164.0
134.061691 5556.0
134.207474 92.0
134.299057 112.0
134.338928 148.0
134.426895 156.0
134.511993 96.0
134.537384 136.0
134.66507 68.0
134.726761 180.0
134.827805 60.0
134.965439 132.0
135.045532 608.0
135.064285 416.0
135.111023 240.0
135.17067 164.0
135.364838 128.0
135.42041 252.0
135.545807 156.0
135.626923 92.0
135.666321 128.0
135.697845 132.0
135.735886 136.0
135.793854 92.0
136.069016 144.0
136.088562 240.0
136.111786 120.0
136.130371 128.0
136.189301 200.0
136.285995 80.0
136.355713 108.0
136.425446 152.0
136.471939 188.0
136.500061 164.0
136.790665 168.0
136.80928 192.0
136.849564 140.0
136.983932 144.0
137.002579 160.0
137.025879 180.0
137.058487 96.0
137.114426 152.0
137.195999 164.0
137.275284 76.0
137.324249 196.0
137.387238 116.0
137.781769 148.0
137.807465 172.0
137.826157 168.0
138.024841 160.0
138.045898 112.0
138.13945 180.0
138.209641 212.0
138.364105 140.0
138.482483 152.0
138.491562 84.0
138.498886 188.0
138.535065 180.0
138.682693 168.0
138.774109 180.0
138.844467 116.0
138.919525 168.0
138.982864 160.0
139.030579 132.0
139.079086 124.0
139.194122 208.0
139.304504 180.0
139.75354 68.0
139.871216 128.0
140.094925 84.0
140.257507 252.0
140.365967 236.0
140.400986 136.0
140.467377 192.0
140.500397 160.0
140.771835 112.0
141.029358 208.0
141.051636 168.0
141.116821 148.0
141.258713 180.0
141.339157 248.0
141.440918 212.0
141.54509 188.0
141.582977 228.0
141.619354 288.0
141.718002 192.0
141.784348 148.0
141.817978 128.0
141.864944 92.0
141.98349 160.0
142.069016 532.0
142.096069 184.0
142.168533 80.0
142.237366 236.0
142.291962 96.0
142.37207 288.0
142.408325 132.0
142.550873 176.0
142.593643 188.0
142.928955 136.0
143.012238 76.0
143.086533 1636.0
143.219391 108.0
143.300385 172.0
143.317734 172.0
143.364731 188.0
143.398087 144.0
143.41478 64.0
143.648453 88.0
143.71048 128.0
143.736725 208.0
143.798782 176.0
143.920029 176.0
144.055283 532.0
144.083862 460.0
144.106827 240.0
144.152222 224.0
144.171341 68.0
144.293243 32.0
144.353027 172.0
144.467819 288.0
144.618576 88.0
144.63533 88.0
144.690384 60.0
144.874573 172.0
144.914795 144.0
145.062668 480.0
145.08963 552.0
145.101913 480.0
145.160004 76.0
145.209518 124.0
145.229279 168.0
145.260818 120.0
145.300247 120.0
145.386856 92.0
145.458939 148.0
145.642822 180.0
145.748108 128.0
145.803375 144.0
145.822937 144.0
145.918762 184.0
145.937988 180.0
146.000015 152.0
146.016174 136.0
146.060898 23708.0
146.094757 308.0
146.124725 100.0
146.233643 164.0
146.255539 228.0
146.277786 164.0
146.31572 48.0
146.380737 156.0
146.404816 48.0
146.430466 80.0
146.464615 184.0
146.487915 72.0
146.596191 72.0
146.624039 56.0
146.660202 144.0
146.717926 160.0
146.772034 124.0
146.79039 76.0
146.808517 100.0
146.856232 144.0
146.906158 136.0
146.961639 136.0
146.983353 184.0
147.009094 156.0
147.068039 19824.0
147.118515 76.0
147.148697 144.0
147.188538 72.0
147.224762 56.0
147.250839 40.0
147.275467 28.0
147.292389 40.0
147.311707 128.0
147.335388 200.0
147.367279 348.0
147.396271 132.0
147.488205 92.0
147.538864 60.0
147.642838 272.0
147.679718 240.0
147.742004 68.0
147.763779 200.0
147.821854 128.0
147.88385 148.0
147.920837 192.0
147.96048 140.0
148.023468 320.0
148.07579 8804.0
148.114807 240.0
148.132141 152.0
148.187378 128.0
148.223816 152.0
148.257339 140.0
148.328033 68.0
148.349854 200.0
148.403183 92.0
148.529297 180.0
148.587509 104.0
148.677292 36.0
148.701569 52.0
148.720978 48.0
148.85936 76.0
149.000244 276.0
149.075806 1900.0
149.161087 148.0
149.19371 156.0
149.218979 88.0
149.254013 68.0
149.279755 168.0
149.300461 112.0
149.338135 124.0
149.428131 64.0
149.510864 60.0
149.554672 132.0
149.644745 144.0
149.764069 228.0
149.874237 164.0
150.03212 84.0
150.083191 316.0
150.129654 36.0
150.154037 88.0
150.295532 128.0
150.600677 136.0
150.678848 156.0
150.759491 168.0
150.920822 216.0
150.959946 172.0
151.056671 168.0
151.079788 172.0
151.137589 160.0
151.177658 160.0
151.36615 60.0
151.539612 132.0
151.562103 184.0
151.623367 172.0
151.709167 116.0
151.763092 140.0
151.910248 184.0
152.072189 124.0
152.090622 176.0
152.121292 40.0
152.271072 48.0
152.293167 152.0
152.339844 68.0
152.398804 52.0
152.450409 176.0
152.551178 148.0
152.58313 80.0
152.667252 192.0
152.712784 124.0
152.767578 196.0
152.799484 136.0
152.861359 68.0
153.069489 700.0
153.166367 64.0
153.240265 96.0
153.363205 180.0
153.499069 112.0
153.644592 232.0
153.713684 180.0
154.020142 120.0
154.068436 164.0
154.106277 184.0
154.247147 168.0
154.299622 248.0
154.400436 180.0
154.504333 144.0
154.526596 136.0
154.7444 104.0
154.803818 72.0
154.969772 88.0
155.001984 216.0
155.083191 512.0
155.155655 48.0
155.192856 160.0
155.247131 112.0
155.319321 160.0
155.507904 168.0
155.530243 156.0
155.564026 176.0
155.639465 204.0
155.665207 252.0
155.823273 80.0
155.840652 136.0
156.002197 148.0
156.052612 144.0
156.079758 268.0
156.133987 80.0
156.472397 396.0
156.653915 184.0
156.711487 196.0
156.83609 116.0
156.999878 104.0
157.038055 144.0
157.06369 300.0
157.2052 76.0
157.227661 136.0
157.277573 108.0
157.338776 180.0
157.414886 72.0
157.44986 64.0
157.48732 232.0
157.507294 188.0
157.642212 44.0
157.66214 140.0
157.747192 136.0
157.829697 140.0
157.945328 184.0
158.061554 800.0
158.193573 36.0
158.252228 124.0
158.29306 196.0
158.412827 168.0
158.450989 172.0
158.482971 152.0
158.508026 136.0
158.580704 184.0
158.731125 188.0
158.828934 228.0
158.994522 124.0
159.041779 172.0
159.068039 2608.0
159.109985 156.0
159.23555 112.0
159.29454 140.0
159.328491 104.0
159.418945 220.0
159.501877 116.0
159.64267 156.0
159.745789 100.0
159.831329 124.0
159.848953 204.0
159.920273 176.0
159.969757 180.0
160.048386 992.0
160.076675 13044.0
160.117752 260.0
160.173721 52.0
160.309769 36.0
160.385376 36.0
160.438324 116.0
160.457001 92.0
160.511444 36.0
160.534134 92.0
160.561874 112.0
160.592133 64.0
160.622406 140.0
160.64006 276.0
160.715744 84.0
160.763687 180.0
160.947632 148.0
160.956406 128.0
161.022797 120.0
161.079346 1600.0
161.115616 168.0
161.2966 84.0
161.374969 152.0
161.405319 56.0
161.426849 108.0
161.45842 92.0
161.632965 44.0
161.70636 232.0
161.734192 60.0
161.753769 148.0
162.060883 300.0
162.093262 1276.0
162.321365 152.0
162.388321 120.0
162.417603 264.0
162.512192 148.0
162.595932 64.0
162.626389 32.0
162.679703 72.0
163.050537 132.0
163.096649 848.0
163.154755 40.0
163.258209 204.0
163.294617 48.0
163.349289 72.0
163.370316 152.0
163.513412 56.0
163.538864 144.0
163.582138 236.0
163.621704 176.0
163.708221 200.0
163.897934 96.0
163.943802 116.0
164.054306 228.0
164.102982 268.0
164.147736 172.0
164.242096 172.0
164.275269 112.0
164.399048 140.0
164.425812 116.0
164.484512 40.0
164.538116 196.0
164.561096 120.0
164.724548 44.0
164.847183 96.0
164.980087 164.0
165.000534 188.0
165.064453 192.0
165.181976 152.0
165.246063 136.0
165.507126 116.0
165.539871 244.0
165.583954 196.0
165.686417 160.0
165.901688 160.0
166.022202 80.0
166.124786 180.0
166.262024 132.0
166.401962 172.0
166.496964 172.0
166.53035 88.0
166.81221 144.0
166.926132 152.0
166.987839 28.0
167.080811 232.0
167.149918 136.0
167.319794 140.0
167.417633 148.0
167.435669 76.0
167.466568 192.0
167.502625 128.0
167.835083 112.0
167.930496 128.0
168.173035 104.0
168.284042 116.0
168.41832 192.0
168.438995 148.0
168.826675 176.0
169.370193 44.0
169.396088 272.0
169.460861 160.0
169.580063 232.0
169.6008 136.0
169.66301 160.0
169.691528 60.0
169.771912 196.0
169.969055 212.0
170.067673 132.0
170.161133 132.0
170.33252 244.0
170.478012 156.0
170.497971 240.0
170.631302 148.0
170.805603 180.0
170.93309 124.0
170.951309 136.0
171.02417 112.0
171.081207 2936.0
171.149139 204.0
171.206421 184.0
171.268936 44.0
171.36792 124.0
171.446091 140.0
171.560776 180.0
171.657257 100.0
171.841599 208.0
171.910294 80.0
172.077423 3608.0
172.163513 88.0
172.307175 84.0
172.348969 64.0
172.508408 108.0
172.683212 56.0
172.711761 352.0
172.767288 40.0
172.809341 168.0
172.845779 332.0
172.905975 188.0
172.92691 164.0
172.994965 108.0
173.018524 104.0
173.056686 420.0
173.084808 18088.0
173.162689 152.0
173.185562 56.0
173.218613 108.0
173.279404 72.0
173.324966 68.0
173.352722 88.0
173.411453 40.0
173.435043 60.0
173.453384 64.0
173.629059 52.0
173.681503 104.0
173.81424 200.0
173.854675 112.0
173.883545 144.0
173.999039 108.0
174.019531 164.0
174.050827 260.0
174.089355 2276.0
174.180237 80.0
174.235397 216.0
174.297195 108.0
174.3405 80.0
174.40358 40.0
174.957031 172.0
174.98494 72.0
175.019073 108.0
175.050446 980.0
175.089096 568.0
175.152695 172.0
175.187729 88.0
175.303665 48.0
175.43808 44.0
175.460068 220.0
175.548813 92.0
175.588379 84.0
175.633209 180.0
175.662231 40.0
175.72818 64.0
175.854843 164.0
175.8918 128.0
175.989487 168.0
176.054733 152.0
176.083389 192.0
176.108078 172.0
176.137375 116.0
176.298538 188.0
176.450272 188.0
176.470352 92.0
176.505981 160.0
176.671356 176.0
176.737503 44.0
177.020859 168.0
177.06575 156.0
177.116074 92.0
177.28299 92.0
177.341293 140.0
177.373093 152.0
177.513611 136.0
177.56665 144.0
177.72316 44.0
177.81604 176.0
177.915955 188.0
177.972656 148.0
178.036392 288.0
178.105453 80.0
178.302063 140.0
178.437622 148.0
178.474854 240.0
178.583878 108.0
178.615799 64.0
178.84996 144.0
179.120544 180.0
179.273422 68.0
179.316132 144.0
179.353378 116.0
179.800369 108.0
180.113831 184.0
180.180618 40.0
180.391739 80.0
180.498688 144.0
180.664505 164.0
180.683228 196.0
180.760834 264.0
180.988342 128.0
181.063324 332.0
181.10144 176.0
181.135651 192.0
181.449188 256.0
181.537674 144.0
181.658371 144.0
181.867661 156.0
181.897186 196.0
181.932083 220.0
182.138855 128.0
182.179153 176.0
182.283936 172.0
182.32962 180.0
182.528549 236.0
182.598465 88.0
182.765259 132.0
182.918655 220.0
182.943878 240.0
183.08252 360.0
183.209854 148.0
183.500549 180.0
183.646179 188.0
183.710907 192.0
183.888992 304.0
183.980774 144.0
184.059067 160.0
184.082245 168.0
184.291367 140.0
184.319641 120.0
184.350815 44.0
184.427979 160.0
184.458923 124.0
184.510284 168.0
184.5914 140.0
184.713104 176.0
184.783432 136.0
184.929565 128.0
185.005356 176.0
185.09964 316.0
185.181366 48.0
185.227417 128.0
185.387268 112.0
185.620392 184.0
185.671921 64.0
186.075333 164.0
186.217422 124.0
186.241867 196.0
186.331512 96.0
186.361404 28.0
186.440201 140.0
186.744431 116.0
186.775055 128.0
186.819839 180.0
186.907928 92.0
187.045517 188.0
187.074905 800.0
187.270004 60.0
187.332657 92.0
187.546051 128.0
187.61879 188.0
187.684219 128.0
187.725128 140.0
187.755127 160.0
187.85997 128.0
187.883331 116.0
187.921524 136.0
187.959717 76.0
188.046829 544.0
188.076385 2616.0
188.126205 192.0
188.199921 160.0
188.287308 176.0
188.356232 204.0
188.408508 140.0
188.437546 64.0
188.474304 188.0
188.606979 200.0
188.628845 168.0
188.671463 228.0
188.691711 140.0
188.787415 124.0
188.816788 168.0
188.884888 188.0
188.968246 180.0
189.00267 152.0
189.021698 264.0
189.104034 88204.0
189.202286 100.0
189.230698 40.0
189.255341 152.0
189.314987 108.0
189.338486 120.0
189.362747 124.0
189.403214 180.0
189.435669 132.0
189.472488 88.0
189.50502 176.0
189.555069 596.0
189.612381 156.0
189.638306 92.0
189.658432 60.0
189.679565 280.0
189.706055 116.0
189.746674 96.0
189.775711 104.0
189.793427 168.0
189.840042 84.0
189.858185 268.0
189.894821 124.0
189.901825 44.0
189.912308 164.0
189.934982 72.0
189.971603 92.0
190.014755 364.0
190.043518 100.0
190.075089 2328.0
190.107513 20044.0
190.151733 160.0
190.171326 176.0
190.188904 52.0
190.241089 84.0
190.272522 68.0
190.36676 124.0
190.417099 92.0
190.441833 156.0
190.459412 200.0
190.483978 96.0
190.503204 136.0
190.565292 200.0
190.615707 80.0
190.681808 188.0
190.699493 128.0
190.77771 72.0
190.838486 52.0
190.915482 108.0
190.954498 196.0
190.990738 152.0
191.035049 204.0
191.082016 2076.0
191.117828 12476.0
191.155823 208.0
191.209854 44.0
191.233139 152.0
191.291412 76.0
191.314133 92.0
191.342194 120.0
191.386887 104.0
191.422012 84.0
191.453735 156.0
191.478745 144.0
191.49794 44.0
191.516479 120.0
191.550247 140.0
191.607315 128.0
191.614136 44.0
191.626022 120.0
191.672089 108.0
191.695129 132.0
191.774384 144.0
191.856613 140.0
191.939865 32.0
191.959167 136.0
192.006058 44.0
192.043503 148.0
192.089966 324.0
192.121506 1940.0
192.163284 128.0
192.212402 60.0
192.342667 80.0
192.369995 80.0
192.445236 128.0
192.475189 84.0
192.603119 160.0
192.627075 76.0
192.647446 108.0
192.712723 56.0
192.781799 160.0
192.87854 112.0
192.906174 56.0
192.978058 120.0
193.123291 340.0
193.185471 28.0
193.226974 88.0
193.26796 108.0
193.365326 52.0
193.445602 84.0
193.57019 80.0
193.602112 76.0
193.650497 108.0
193.692047 44.0
193.802856 104.0
193.886002 84.0
193.935883 216.0
194.260315 112.0
194.368515 52.0
194.471191 96.0
194.519211 84.0
194.579453 156.0
194.66275 76.0
194.773849 108.0
194.873856 112.0
195.151794 104.0
195.232437 76.0
195.33812 144.0
195.51062 184.0
195.624741 172.0
195.666504 164.0
195.727753 40.0
196.017456 88.0
196.044952 156.0
196.075974 72.0
197.069382 160.0
197.374054 140.0
197.561996 200.0
197.715332 44.0
197.883286 32.0
198.219391 80.0
198.241806 116.0
198.286652 168.0
198.367935 52.0
198.530548 28.0
198.912125 128.0
199.074997 1312.0
199.14238 44.0
199.277206 92.0
199.398041 84.0
199.485184 96.0
199.521729 64.0
199.561081 68.0
199.915512 36.0
199.977417 72.0
200.0616 172.0
200.085602 332.0
200.146332 72.0
200.247711 96.0
200.284332 156.0
200.411102 196.0
200.473083 148.0
200.554825 156.0
200.636566 128.0
200.738068 92.0
200.952438 68.0
201.056671 964.0
201.091873 6904.0
201.133057 164.0
201.22435 92.0
201.245972 96.0
201.347626 44.0
201.389999 112.0
201.415421 76.0
201.539719 56.0
201.988525 96.0
202.056946 248.0
202.094086 620.0
202.235397 240.0
202.275024 96.0
202.43074 60.0
202.476059 112.0
202.87558 144.0
202.915268 100.0
203.042633 144.0
203.082275 524.0
203.118637 2776.0
203.218735 92.0
203.244278 120.0
203.306702 72.0
203.332245 68.0
203.391846 108.0
203.440109 52.0
203.482697 128.0
203.922989 132.0
203.968475 104.0
204.093765 164.0
204.120941 728.0
204.279602 164.0
204.534515 32.0
204.628464 56.0
204.648392 68.0
204.732193 168.0
204.931747 160.0
205.118454 144.0
205.283813 48.0
205.629868 80.0
205.808853 196.0
206.137344 168.0
206.357437 104.0
206.40033 140.0
206.614838 60.0
206.683502 96.0
206.892426 160.0
206.941101 76.0
207.122375 240.0
207.419525 164.0
207.574341 72.0
207.608749 92.0
207.795197 116.0
207.815277 140.0
207.889877 68.0
208.513077 40.0
208.559067 52.0
208.803452 244.0
209.339905 148.0
209.500015 28.0
209.566284 32.0
209.62439 120.0
209.643356 80.0
209.83432 140.0
210.26123 128.0
210.526825 228.0
210.870621 96.0
210.94577 60.0
211.074234 176.0
211.162628 148.0
211.350662 156.0
211.538788 116.0
211.747253 128.0
212.390701 160.0
212.416809 120.0
213.032211 92.0
213.092163 288.0
213.49144 76.0
214.058121 240.0
214.300659 124.0
214.504669 124.0
214.918793 88.0
214.974228 100.0
215.072693 912.0
215.175629 128.0
215.324554 148.0
215.523193 104.0
215.979263 136.0
216.080261 1816.0
216.201614 60.0
216.48558 132.0
216.588089 44.0
217.004211 112.0
217.092987 1532.0
217.147903 68.0
217.171371 72.0
217.194839 156.0
217.362061 40.0
217.482376 40.0
217.646774 120.0
217.822998 64.0
218.092194 332.0
218.502075 140.0
219.110138 208.0
219.149796 132.0
219.391464 124.0
219.739471 172.0
220.10881 156.0
220.259033 68.0
220.318115 176.0
220.906403 164.0
221.237839 112.0
221.302963 96.0
221.341461 56.0
221.96965 164.0
222.017105 144.0
222.144638 100.0
222.20694 140.0
222.281113 116.0
222.607651 132.0
222.658127 136.0
223.80896 112.0
223.939987 204.0
224.57782 120.0
224.879166 76.0
225.055847 196.0
225.533279 104.0
225.871155 60.0
226.005783 184.0
226.718475 60.0
226.820374 44.0
226.898315 132.0
227.081848 2852.0
227.22821 72.0
227.312225 28.0
227.537338 92.0
227.747543 128.0
227.882721 52.0
227.906769 160.0
227.995087 132.0
228.082199 472.0
228.152908 40.0
228.351669 40.0
228.38475 40.0
228.505081 156.0
228.538177 132.0
228.604385 128.0
229.087021 13200.0
229.300049 128.0
229.366364 60.0
229.435974 140.0
229.464676 124.0
229.532166 60.0
229.580414 92.0
229.688995 68.0
229.860962 76.0
229.882095 68.0
229.923431 160.0
230.011658 56.0
230.089264 1828.0
230.261093 96.0
230.286636 56.0
230.573654 60.0
230.618988 56.0
230.687347 188.0
231.033249 64.0
231.112808 2652.0
231.202698 52.0
231.32074 56.0
231.357071 76.0
231.399445 92.0
231.456985 64.0
231.502396 100.0
231.565994 80.0
231.641724 92.0
231.868973 156.0
232.069031 128.0
232.119888 3212.0
232.323792 64.0
232.37233 80.0
232.447586 184.0
232.666718 76.0
232.80394 104.0
233.00383 112.0
233.037247 48.0
233.076706 152.0
233.126343 620.0
233.180069 64.0
233.517548 100.0
233.602707 172.0
233.627045 140.0
233.763962 72.0
233.928314 56.0
234.010513 116.0
234.117096 148.0
234.141449 56.0
234.327271 36.0
234.711304 92.0
234.790588 136.0
234.827194 88.0
234.869888 144.0
235.08345 148.0
235.113968 68.0
235.162796 148.0
235.349014 112.0
235.975372 56.0
236.060989 136.0
236.431137 124.0
236.826096 104.0
237.236694 104.0
237.294952 152.0
238.230972 88.0
238.722748 128.0
240.318329 72.0
240.352264 104.0
240.559052 104.0
240.852386 200.0
240.883286 60.0
241.028488 128.0
241.089294 112.0
241.241745 176.0
241.390152 76.0
241.50148 204.0
241.612839 188.0
241.653061 144.0
241.786118 44.0
241.810883 228.0
242.092606 88.0
242.75267 160.0
242.814697 124.0
244.063049 120.0
244.420746 148.0
244.965591 104.0
245.052826 160.0
245.174347 96.0
246.506866 124.0
246.875732 40.0
247.104065 156.0
247.661285 104.0
248.962845 204.0
249.305267 228.0
249.390121 148.0
249.459274 208.0
249.60704 76.0
249.689728 68.0
249.956207 48.0
250.352844 80.0
250.582779 160.0
250.828583 72.0
251.109207 120.0
251.708801 240.0
252.195328 120.0
252.351913 172.0
252.596893 236.0
252.843689 128.0
252.875336 200.0
253.085144 160.0
253.686218 172.0
253.730606 92.0
254.088974 52.0
254.111191 64.0
254.82872 132.0
255.092499 148.0
255.114746 192.0
255.346863 132.0
255.369125 176.0
255.391388 108.0
255.591812 148.0
255.757309 180.0
255.980164 48.0
256.289124 80.0
256.518585 68.0
256.598297 100.0
256.65567 148.0
256.968262 192.0
257.082642 1820.0
258.08728 440.0
258.271637 156.0
258.361206 68.0
258.505188 116.0
258.76123 160.0
259.091095 172.0
259.126343 184.0
259.510956 144.0
260.120514 96.0
260.434387 116.0
260.727539 116.0
261.065094 172.0
261.19696 44.0
261.73764 100.0
261.792389 156.0
262.836792 124.0
263.220917 144.0
263.476593 200.0
263.812164 124.0
264.112885 476.0
264.818481 132.0
264.88327 164.0
265.992249 80.0
267.08078 92.0
267.848969 144.0
268.031403 60.0
269.057922 196.0
269.408234 100.0
269.867249 72.0
270.042358 132.0
270.516815 80.0
270.628937 128.0
270.667419 84.0
270.922882 100.0
271.358765 224.0
271.437469 184.0
271.460419 100.0
271.85733 156.0
272.024719 148.0
272.131226 208.0
273.026855 132.0
273.132538 168.0
273.454559 160.0
274.053894 116.0
274.106598 100.0
274.4758 80.0
274.858429 56.0
275.310669 176.0
275.45929 52.0
275.502838 160.0
275.941772 72.0
276.10379 120.0
276.144623 176.0
276.318817 140.0
276.398224 76.0
276.600098 92.0
276.775574 172.0
276.931213 212.0
277.103455 48.0
277.318848 40.0
277.395111 168.0
277.942322 88.0
278.035248 148.0
278.755859 56.0
278.905426 104.0
279.667114 156.0
279.695404 96.0
280.766571 92.0
281.691101 188.0
281.767944 108.0
282.115875 1136.0
282.58371 156.0
282.680756 152.0
282.720886 144.0
282.801208 28.0
283.015472 80.0
283.04895 160.0
283.120636 336.0
283.303497 48.0
284.107422 148.0
284.114441 120.0
284.289246 136.0
284.577911 128.0
284.776489 152.0
285.209473 136.0
285.759583 196.0
286.09082 96.0
286.316406 32.0
286.899323 132.0
286.980225 56.0
288.296692 168.0
288.448792 144.0
289.145538 180.0
289.771973 216.0
290.161743 124.0
291.118591 180.0
291.206879 148.0
291.281616 148.0
291.6633 108.0
291.883148 120.0
292.066803 184.0
292.68573 148.0
292.778137 104.0
293.118774 100.0
293.40509 168.0
293.442596 132.0
293.525177 180.0
294.090729 48.0
294.425323 156.0
294.722504 116.0
294.869446 132.0
295.368652 132.0
295.413116 72.0
295.734772 64.0
296.508789 144.0
296.800171 144.0
296.985352 44.0
297.115723 36.0
297.771332 112.0
298.217987 104.0
298.885132 336.0
298.978058 68.0
299.701202 76.0
300.060303 84.0
300.314819 220.0
300.383789 100.0
301.298065 204.0
301.668396 208.0
301.806671 180.0
302.128326 140.0
302.647461 164.0
302.709808 196.0
303.378479 72.0
303.773804 148.0
304.381165 112.0
305.006531 224.0
305.051727 128.0
305.368134 132.0
306.360168 156.0
306.638916 84.0
307.057281 124.0
308.097473 192.0
308.240723 84.0
308.283966 196.0
308.667175 32.0
309.161224 364.0
309.629517 40.0
309.703064 44.0
309.881744 148.0
310.08847 196.0
310.15506 132.0
310.216248 132.0
310.537262 40.0
310.589874 148.0
310.944244 100.0
311.235596 204.0
311.376068 68.0
312.683929 76.0
313.085266 52.0
313.377625 56.0
313.426941 76.0
313.701843 208.0
314.100311 176.0
314.541382 172.0
314.629639 88.0
315.38205 164.0
315.406799 136.0
316.229095 176.0
316.627441 184.0
316.666412 120.0
316.949799 76.0
317.229797 52.0
317.481537 144.0
317.584381 192.0
317.807892 164.0
318.294159 48.0
318.514343 96.0
319.090057 112.0
319.513275 96.0
319.844788 172.0
319.901154 208.0
320.132599 184.0
320.791718 112.0
320.967072 156.0
321.437286 196.0
323.120148 172.0
324.065338 108.0
324.689056 180.0
324.879181 132.0
325.191345 180.0
325.403137 404.0
325.941895 128.0
326.218658 160.0
326.419983 60.0
326.765289 28.0
327.247559 176.0
327.344788 116.0
327.55368 116.0
328.047333 132.0
329.035797 184.0
329.082733 152.0
329.205505 148.0
330.231903 172.0
331.024445 144.0
331.263489 76.0
332.532562 140.0
333.026337 144.0
333.316986 36.0
333.411469 116.0
333.633179 144.0
334.11322 204.0
334.138702 108.0
334.338806 148.0
334.386139 48.0
334.502594 212.0
334.772034 176.0
335.081635 148.0
335.172729 136.0
336.361633 116.0
336.441406 132.0
336.613556 88.0
338.10141 56.0
338.159943 168.0
338.397888 136.0
338.430847 220.0
338.723816 192.0
338.983948 144.0
339.035248 88.0
340.029114 144.0
340.53656 72.0
340.925201 56.0
341.150391 120.0
341.211914 112.0
341.30014 88.0
341.800385 68.0
342.155304 480.0
342.35257 192.0
342.569855 176.0
342.846191 148.0
342.916229 196.0
343.181641 176.0
343.447174 156.0
343.827179 176.0
344.159393 100.0
344.255402 184.0
344.403137 176.0
344.861298 100.0
345.82666 188.0
346.05246 32.0
346.182068 116.0
346.241302 168.0
346.278351 100.0
346.311676 52.0
346.519135 56.0
347.564697 128.0
347.650055 92.0
347.709412 188.0
347.939575 76.0
348.15863 100.0
348.240356 52.0
349.869019 68.0
350.971832 160.0
351.67691 116.0
351.893433 128.0
352.169769 92.0
352.207123 56.0
352.296753 176.0
352.726501 184.0
353.010651 72.0
353.152771 180.0
353.514343 148.0
353.635406 172.0
353.968597 116.0
354.40686 188.0
354.654175 116.0
354.83786 52.0
355.11911 212.0
355.865875 108.0
355.929718 152.0
356.305298 232.0
356.85025 144.0
357.380585 124.0
357.741882 136.0
357.971527 100.0
358.1297 48.0
358.378357 124.0
358.743927 144.0
358.902252 116.0
359.49826 124.0
359.619019 180.0
359.894592 256.0
360.18161 132.0
361.319458 136.0
362.008331 76.0
362.133331 140.0
362.811584 108.0
363.48291 220.0
363.558807 188.0
363.835907 128.0
364.063721 60.0
364.143463 168.0
364.797852 160.0
364.907257 200.0
365.428314 172.0
366.033508 196.0
367.256836 124.0
367.52005 140.0
368.45929 144.0
368.730591 132.0
369.158752 172.0
369.212311 168.0
369.36911 184.0
369.740234 200.0
369.870361 76.0
370.015839 144.0
370.470062 176.0
370.712952 132.0
370.969757 316.0
371.019592 36.0
371.37619 84.0
371.541138 52.0
372.182098 124.0
372.554626 148.0
372.735199 168.0
374.004333 176.0
374.635834 168.0
374.693634 112.0
374.735992 132.0
374.805359 128.0
375.113678 108.0
375.348846 84.0
375.603394 192.0
376.152435 296.0
376.363647 96.0
376.718964 176.0
377.155609 100.0
377.190399 312.0
377.283173 116.0
377.522919 76.0
377.580902 108.0
378.133911 132.0
378.5755 156.0
378.672302 124.0
378.804016 140.0
379.055847 132.0
379.168213 88.0
379.342651 204.0
379.555878 180.0
379.614044 132.0
379.672211 92.0
380.017426 184.0
380.172638 128.0
380.681183 172.0
380.727783 144.0
381.275574 104.0
381.368835 180.0
381.423248 128.0
381.846558 152.0
383.548523 188.0
384.000824 140.0
384.804657 124.0
385.386627 80.0
385.441315 88.0
385.562469 120.0
386.09024 132.0
386.17627 180.0
386.606628 112.0
386.708374 220.0
386.943268 52.0
387.225189 72.0
387.577759 128.0
387.785461 124.0
388.161804 228.0
389.150574 76.0
389.209473 156.0
389.335144 36.0
389.786896 172.0
390.186707 144.0
390.396179 48.0
390.691193 188.0
390.942993 136.0
391.135834 140.0
391.769836 104.0
392.187531 128.0
392.321533 120.0
392.45166 108.0
392.597565 116.0
393.0354 168.0
393.17746 112.0
393.856567 176.0
394.220032 112.0
394.4216 156.0
394.476929 64.0
394.753693 64.0
395.592468 136.0
395.790436 208.0
395.861694 212.0
396.206299 172.0
396.444031 108.0
396.979187 160.0
397.022797 136.0
397.205261 48.0
397.252869 244.0
397.54248 212.0
398.161804 124.0
398.308746 160.0
399.318329 148.0
401.185364 164.0
401.266693 176.0
401.460907 184.0
401.528687 140.0
401.694122 152.0
401.919647 100.0
402.027374 132.0
402.187775 316.0
402.382629 164.0
403.041656 132.0
403.073608 116.0
403.293396 136.0
403.556793 144.0
403.697205 108.0
403.949188 108.0
403.993164 100.0
404.15152 432.0
404.213226 116.0
404.293274 116.0
404.54541 144.0
404.709564 40.0
404.849701 124.0
405.094025 132.0
405.144745 168.0
405.214233 200.0
405.326416 152.0
405.683105 128.0
406.613678 160.0
407.051239 104.0
407.215912 128.0
408.208527 80.0
408.695251 92.0
409.274841 72.0
409.411774 192.0
410.040222 112.0
410.278046 144.0
410.451416 164.0
410.911224 120.0
411.249146 108.0
411.504517 200.0
411.645844 124.0
412.057831 136.0
412.174988 160.0
412.219452 168.0
412.320465 160.0
412.583221 160.0
413.023987 84.0
413.054596 120.0
413.448792 128.0
413.570221 152.0
413.679504 144.0
413.906219 84.0
414.095856 116.0
414.88266 180.0
415.109711 140.0
415.150269 128.0
415.332764 132.0
415.481628 200.0
415.543701 228.0
415.8237 192.0
416.007477 232.0
416.558624 100.0
416.618378 124.0
417.379578 60.0
417.611389 132.0
418.893555 168.0
418.983185 120.0
419.153839 176.0
419.201508 852.0
419.256165 184.0
419.435516 104.0
419.75351 84.0
419.818756 108.0
419.84729 168.0
419.90033 36.0
420.1987 320.0
420.25174 192.0
420.479645 120.0
420.740875 108.0
420.781708 108.0
420.891937 104.0
420.924622 92.0
421.083893 100.0
421.136963 40.0
421.205078 312.0
421.239105 32.0
421.307922 132.0
421.729431 104.0
422.019653 128.0
422.076904 136.0
422.289551 92.0
422.408173 100.0
422.498169 184.0
422.55954 124.0
422.841888 156.0
423.537933 140.0
424.099274 156.0
424.324738 68.0
424.533844 140.0
424.939911 124.0
425.785522 176.0
426.155212 164.0
426.214539 120.0
426.4552 60.0
426.557953 160.0
427.495697 136.0
427.598572 168.0
428.125549 48.0
428.212036 132.0
428.298523 204.0
428.360291 128.0
428.481873 160.0
428.578644 160.0
428.945435 128.0
429.177948 272.0
429.502106 72.0
429.889923 192.0
430.071503 80.0
430.173462 344.0
430.207733 192.0
430.500885 48.0
430.859314 128.0
431.269318 204.0
431.314789 72.0
431.71994 180.0
432.373596 136.0
432.725433 108.0
433.595306 168.0
433.777679 48.0
433.843292 136.0
433.897919 88.0
434.026428 140.0
434.088654 140.0
434.17572 96.0
434.482666 88.0
435.184052 124.0
435.599365 128.0
436.713318 76.0
436.796509 80.0
437.008667 148.0
438.0578 156.0
438.132782 136.0
438.486969 120.0
438.67868 160.0
438.737061 84.0
439.070618 104.0
439.441864 84.0
439.479431 92.0
439.681213 192.0
439.909302 104.0
440.548218 188.0
440.594147 140.0
440.713531 200.0
440.986938 56.0
441.517914 64.0
441.601562 76.0
441.727051 44.0
442.065918 124.0
442.325409 156.0
442.463562 172.0
442.777618 76.0
443.246796 96.0
443.30127 100.0
443.531769 132.0
443.598846 120.0
443.636566 124.0
443.699463 68.0
443.84201 348.0
443.954163 80.0
444.081238 80.0
444.236237 84.0
444.441803 116.0
444.486328 124.0
444.664215 136.0
444.706177 76.0
444.742157 84.0
444.825073 112.0
444.874084 72.0
444.963715 112.0
445.05899 92.0
445.14093 156.0
445.176727 260.0
445.265686 108.0
445.32135 292.0
445.361176 112.0
445.415802 160.0
445.446777 84.0
445.516602 144.0
445.594452 172.0
445.714081 244.0
445.740448 160.0
445.789856 112.0
445.902435 260.0
445.936798 72.0
445.991425 108.0
446.038666 204.0
446.096527 80.0
446.161377 224.0
446.195831 128.0
446.264374 372.0
446.273651 208.0
446.293915 252.0
446.384949 216.0
446.449707 92.0
446.490326 152.0
446.536316 108.0
446.585052 172.0
446.648987 280.0
446.727783 124.0
446.768402 208.0
446.782654 252.0
446.840881 44.0
446.898804 120.0
446.949951 156.0
446.966309 356.0
447.059174 240.0
447.120789 424.0
447.193787 127208.0
447.298859 148.0
447.336456 132.0
447.406555 232.0
447.428894 56.0
447.481903 68.0
447.513885 112.0
447.534363 200.0
447.587585 224.0
447.621429 120.0
447.644318 100.0
447.675507 284.0
447.717529 268.0
447.750092 212.0
447.777893 184.0
447.842651 308.0
447.888245 512.0
447.967712 140.0
448.006439 200.0
448.065033 288.0
448.103271 192.0
448.196991 40244.0
448.296295 132.0
448.345306 176.0
448.393555 88.0
448.432281 92.0
448.502075 200.0
448.546417 148.0
448.586548 92.0
448.696136 156.0
448.776398 144.0
448.829681 72.0
448.902588 216.0
448.958893 76.0
449.046112 116.0
449.082977 96.0
449.128326 108.0
449.199707 4752.0
449.25589 268.0
449.303619 72.0
449.339233 112.0
449.398163 116.0
449.474243 144.0
449.522949 140.0
449.585785 120.0
449.628265 72.0
449.70517 156.0
449.752777 104.0
449.787903 124.0
449.852386 148.0
449.904755 60.0
449.958893 68.0
449.993011 136.0
450.025146 116.0
450.104187 152.0
450.195923 728.0
450.298706 120.0
450.372955 232.0
450.4664 124.0
450.543732 172.0
450.580444 104.0
450.622711 112.0
450.660736 240.0
450.702972 192.0
450.737457 136.0
450.807556 112.0
450.899872 196.0
450.930908 116.0
450.970825 136.0
451.042297 152.0
451.087585 76.0
451.131287 164.0
451.189026 184.0
451.261017 144.0
451.321686 68.0
451.400421 64.0
451.453857 44.0
451.497681 172.0
451.552673 48.0
451.717621 72.0
451.747253 80.0
451.843079 104.0
451.882629 120.0
451.912231 108.0
451.971466 40.0
452.047638 100.0
452.132996 48.0
452.206635 56.0
452.403168 36.0
452.559814 76.0
452.628815 108.0
452.669891 120.0
452.741882 76.0
452.856232 48.0
452.94519 64.0
452.991791 48.0
453.055328 56.0
453.157227 80.0
453.318024 52.0
453.402954 96.0
453.830902 60.0
454.212585 112.0
454.280457 36.0
454.696289 36.0
454.74295 68.0
454.929718 56.0
455.345856 76.0
455.706909 64.0
455.849091 52.0
456.085114 68.0
456.582581 80.0
456.846283 60.0
457.046234 88.0
457.459076 68.0
457.501648 104.0
457.591034 72.0
458.540955 60.0
458.702911 84.0
458.758331 44.0
459.146332 60.0
459.466248 76.0
459.978333 52.0
460.341248 40.0
460.493073 80.0
461.011932 100.0
461.298279 88.0
461.452179 164.0
461.584747 68.0
462.581573 28.0
462.872711 92.0
463.051941 112.0
463.142517 28.0
463.181061 88.0
464.273987 116.0
464.569946 76.0
464.647156 80.0
464.801636 56.0
464.857391 68.0
464.951813 80.0
465.153534 104.0
465.385376 76.0
466.506683 72.0
467.371124 100.0
468.046906 60.0
468.494812 44.0
469.671631 92.0
470.103058 52.0
470.145264 92.0
470.823975 88.0
471.583008 44.0
471.873993 40.0
472.172363 44.0
474.987671 60.0
475.781799 96.0
478.594757 40.0
481.175842 96.0
482.407806 36.0
483.164368 120.0
484.057251 88.0
485.744568 108.0
486.837433 52.0
488.256897 112.0
489.467072 104.0
496.307068 104.0
498.513184 96.0
502.618774 48.0
511.294434 80.0
516.492004 48.0
520.666321 76.0
525.058044 148.0
533.901428 64.0
538.939758 56.0
546.032227 76.0
552.576721 76.0
557.053772 116.0
558.873169 20.0
560.606018 40.0
561.530029 76.0
565.635986 112.0
569.36261 112.0
570.255798 48.0
572.139465 104.0
577.923889 92.0
578.081787 72.0
579.628479 60.0
582.684814 76.0
592.551025 48.0
592.589783 56.0
593.360413 48.0
593.462219 100.0
593.898682 84.0
597.065308 64.0
598.909912 48.0
602.65155 136.0
611.424194 120.0
628.610596 64.0
629.204529 84.0
630.008606 84.0
630.743164 88.0
630.783142 112.0
635.681335 72.0
637.584595 52.0
639.596375 96.0
641.858398 40.0
644.033508 140.0
660.660889 40.0
661.100952 64.0
663.195618 64.0
664.605835 64.0
666.397766 48.0
669.798218 52.0
671.091736 52.0
676.122925 44.0
678.241272 64.0
680.747131 48.0
682.165466 124.0
684.178711 88.0
684.392151 96.0
685.710083 92.0
686.502502 100.0
687.410217 84.0
689.143738 84.0
696.630188 132.0
697.313232 96.0
698.133362 56.0
699.217102 28.0
699.690796 100.0
703.845459 60.0
707.636475 88.0
714.833923 76.0
725.623352 64.0
730.305908 132.0
730.806213 108.0
733.385681 64.0
736.936523 96.0
743.114136 48.0
750.13501 72.0
753.540344 40.0
758.640869 68.0
765.205872 152.0
770.511414 52.0
772.789185 92.0
779.087219 48.0
783.71051 144.0
791.687134 76.0
803.722168 40.0
820.191284 44.0
823.877625 64.0
829.359497 116.0
836.994385 52.0
839.230042 56.0
839.927795 48.0
840.764404 160.0
844.988281 104.0
868.804749 20.0
868.992493 100.0
870.154541 72.0
875.823364 76.0
876.212158 116.0
884.28418 76.0
887.97522 104.0
892.315918 160.0
898.306885 88.0
902.027039 44.0
915.683228 56.0
918.316956 108.0
919.071045 88.0
923.922485 56.0
931.414978 28.0
944.293823 80.0
946.607117 76.0
955.033264 56.0
955.986877 116.0
959.417542 80.0
962.033203 44.0
964.544495 80.0
970.137024 104.0
971.073608 76.0
971.854919 64.0
971.99762 68.0
972.407227 28.0
976.557434 88.0
978.74176 272.0
979.981201 40.0
990.32605 148.0
990.80835 120.0
991.660522 92.0
992.325012 88.0
993.403687 140.0
994.633545 64.0
1001.43042 68.0
1003.560364 40.0
1006.949036 116.0
1017.04126 128.0
1018.177734 140.0
1024.34082 192.0
1026.17627 172.0
1026.546021 84.0
1027.407104 160.0
1027.49646 120.0
1029.909302 108.0
1030.107422 148.0
1037.158813 168.0
1039.197998 104.0
1052.921875 44.0
1054.271973 224.0
1054.33667 192.0
1056.437988 112.0
1058.004761 176.0
1058.483154 200.0
1059.338135 124.0
1059.798096 172.0
1062.307007 160.0
1062.514648 208.0
1064.007202 196.0
1068.524048 92.0
1069.011963 44.0
1069.30481 92.0
1069.474121 128.0
1070.209717 56.0
1076.227783 56.0
1076.508545 60.0
1080.776855 180.0
1083.539795 124.0
1084.778442 112.0
1085.355347 128.0
1088.445801 168.0
1092.77063 224.0
1094.159302 172.0
1095.173462 172.0
1095.634521 56.0
1103.507935 172.0
1104.056763 140.0
1109.857422 168.0
1113.035645 160.0
1115.646729 100.0
1116.13208 140.0
1117.069824 176.0
1119.878662 164.0
1120.36499 76.0
1120.897949 196.0
1122.591064 184.0
1127.016602 56.0
1128.119263 36.0
1130.875122 160.0
1131.196411 76.0
1131.477539 188.0
1135.806519 248.0
1136.638428 132.0
1143.291016 80.0
1144.317139 44.0
1145.351196 76.0
1145.674561 144.0
1151.279419 244.0
1154.64502 72.0
1156.45813 260.0
1156.579956 156.0
1157.290771 180.0
1158.970459 156.0
1159.255127 160.0
1164.492432 124.0
1165.334717 148.0
1171.021606 172.0
1173.208862 192.0
1175.111572 156.0
1176.585693 144.0
1177.678223 152.0
1181.376221 144.0
1181.554077 124.0
1186.711182 176.0
1191.322998 172.0
1192.504883 60.0
1193.302246 208.0
1194.168701 180.0
1194.897827 212.0
1196.694092 64.0
1196.99707 112.0
1199.766846 160.0
1201.008057 148.0
1202.084229 240.0
1203.96875 108.0
1207.998291 204.0
1208.240356 136.0
1210.282104 176.0
1210.607544 156.0
1213.31665 196.0
1217.195068 176.0
1219.876831 192.0
1220.822388 144.0
1225.869263 156.0
1227.723633 60.0
1229.181519 152.0
1229.663086 132.0
1230.060913 48.0
1230.835815 92.0
1231.240845 76.0
1232.812622 144.0
1235.105835 140.0
1239.873779 216.0
1240.161133 156.0
1241.486084 204.0
1242.636475 164.0
1244.945801 84.0
1246.835449 160.0
1247.692993 148.0
1247.761475 212.0
1248.241455 172.0
1249.408936 124.0
1250.386963 160.0
1250.555908 112.0
1250.99939 112.0
1251.302124 156.0
1252.217529 136.0
1252.99939 48.0
1254.056396 40.0
1254.119751 176.0
1259.588135 32.0
1261.743408 160.0
1262.570679 120.0
1264.742676 172.0
1265.372681 224.0
1266.172852 72.0
1267.412476 168.0
1267.859009 356.0
1269.170288 192.0
1269.390137 140.0
1270.099365 168.0
1271.021606 88.0
1272.299072 40.0
1272.4198 212.0
1273.236328 36.0
1274.358643 128.0
1275.062134 192.0
1277.878052 168.0
1281.074707 156.0
1282.428345 120.0
1286.044434 160.0
1288.079346 196.0
1290.087402 164.0
1295.719482 180.0
1296.863037 204.0
1297.797852 132.0
1299.36853 136.0
1302.232666 116.0
1302.620483 192.0
1307.049194 152.0
1309.88562 168.0
1310.087402 128.0
1310.324463 212.0
1310.483643 48.0
1311.218628 124.0
1312.371948 176.0
1313.713379 124.0
1314.788452 84.0
1315.791748 160.0
1316.037231 148.0
1316.354858 144.0
1317.994629 120.0
1318.355835 40.0
1318.818481 244.0
1319.121948 164.0
1320.141479 96.0
1321.986084 168.0
1322.536133 64.0
1322.73877 176.0
1323.535156 144.0
1326.186523 168.0
1329.453857 224.0
1330.458984 92.0
1332.180054 84.0
1332.80481 168.0
1333.190796 164.0
1333.967651 168.0
1334.134888 176.0
1336.360229 72.0
1336.804077 184.0
1337.44458 180.0
1337.495483 232.0
1337.764771 156.0
1339.97876 188.0
1340.627197 124.0
1342.748657 264.0
1343.492554 132.0
1345.587158 168.0
1349.473877 148.0
1349.64209 168.0
1350.314819 156.0
1350.870728 144.0
1353.073364 60.0
1353.886108 136.0
1354.031738 160.0
1360.176758 164.0
1360.81543 136.0
1361.123779 196.0
1361.630493 136.0
1362.827881 156.0
1363.643555 80.0
1363.805176 136.0
1364.018433 156.0
1365.393311 176.0
1365.753662 252.0
1366.099365 136.0
1367.144165 152.0
1368.108398 204.0
1368.819946 220.0
1371.459961 108.0
1371.527344 136.0
1371.894775 204.0
1372.167603 188.0
1372.742676 96.0
1373.782593 128.0
1376.579834 80.0
1378.167969 180.0
1383.566895 152.0
1384.699829 172.0
1385.070068 188.0
1385.233032 32.0
1386.663086 120.0
1387.367188 176.0
1387.915894 84.0
1389.977905 168.0
1390.252441 72.0
1390.927856 136.0
1391.091187 144.0
1395.563477 224.0
1395.734497 140.0
1397.088013 204.0
1397.326172 136.0
1397.869263 148.0
1398.003174 140.0
1399.067627 144.0
1400.661133 168.0
1402.069214 164.0
1402.128906 140.0
1404.634033 148.0
1404.701172 164.0
1404.798096 104.0
1405.290527 136.0
1405.95459 136.0
1406.880127 120.0
1407.036987 156.0
1408.844116 148.0
1409.733276 192.0
1410.652588 164.0
1411.53479 140.0
1412.589355 176.0
1412.716431 188.0
1413.389771 148.0
1415.72522 236.0
1415.875 48.0
1416.114746 188.0
1419.711426 240.0
1421.692505 164.0
1421.76001 208.0
1422.2854 144.0
1422.412964 140.0
1423.862061 160.0
1423.997192 112.0
1425.379517 96.0
1425.943115 128.0
1427.213501 104.0
1428.394165 172.0
1430.139771 140.0
1430.328003 160.0
1430.40332 152.0
1430.952759 212.0
1432.36853 212.0
1436.778442 152.0
1437.63855 132.0
1438.227295 152.0
1440.567993 72.0
1441.051514 156.0
1441.731567 188.0
1442.38916 76.0
1443.243408 204.0
1444.771118 116.0
1447.457886 160.0
1450.109375 188.0
1453.036255 136.0
1453.370117 172.0
1453.559814 176.0
1456.019409 216.0
1458.009766 228.0
1458.754639 192.0
1459.051147 136.0
1459.241211 136.0
1459.819092 120.0
1461.134888 132.0
1462.57312 220.0
1462.687256 124.0
1462.793823 68.0
1464.430908 200.0
1464.628906 168.0
1466.274658 196.0
1467.814453 124.0
1468.027954 132.0
1468.264404 128.0
1468.615234 40.0
1469.492432 68.0
1470.316528 188.0
1470.858398 208.0
1471.00354 108.0
1471.736328 188.0
1473.615234 128.0
1473.668701 116.0
1474.662109 160.0
1475.632935 176.0
1475.801147 148.0
1477.445435 140.0
1479.588257 132.0
1480.300293 212.0
1482.023682 128.0
1482.238281 168.0
1483.556519 228.0
1484.430542 132.0
1484.721924 224.0
1486.302124 184.0
1488.796875 136.0
1493.185059 144.0
1493.961914 112.0
1494.415771 172.0
1494.569702 136.0
1496.378418 136.0
1497.957031 136.0
1499.035645 236.0
1499.328491 220.0
1499.683105 160.0
1501.394531 212.0
1501.780151 220.0
1501.888184 104.0
1502.204468 180.0
1503.164185 172.0
