>compound MLS001049059-01!methyl 2-benzamidoacetate
>formula C10H11NO3
>ionization [M+H]+
>parentmass 194.082
#inchi InChI=1S/C10H11NO3/c1-14-9(12)7-11-10(13)8-5-3-2-4-6-8/h2-6H,7H2,1H3,(H,11,13)
#inchikey XTKVNQKOTKPCKM
#Ion_Source LC-ESI
#Instrument qTof
#Compound_Source NIH Natural Product Library
#PI Dorrestein
#Data_Collector VVP/LMS
#Scan -1
#Precursor_MZ 194.082
#ExactMass 193.074
#Charge 1
#CAS_Number N/A
#Pubmed_ID N/A
#Smiles COC(=O)CNC(=O)c1ccccc1
#INCHI_AUX N/A
#Library_Class 1
#SpectrumID CCMSLIB00000080241
#IonMode Positive
#UpdateWorkflowName UPDATE-SINGLE-ANNOTATED-GOLD
#LibraryQualityString Gold
#TaskID b1d8e8f6646f4e71acdff9ca3d919d08
##Scan# 1473
#SpectrumFile p2-A06_GA6_01_17983.mzXML
#LibraryName NIH_Natural_Products_Library.mgf
#MQScore -1
#Organism NIH_Natural_Products_Library
#TIC_Query 0
#RT_Query -1
#MZErrorPPM -1
#SharedPeaks 0
#MassDiff 0
#LibMZ -1
#SpecMZ 194.082
#SpecCharge 0
#internalFilename spec-00000.mgf

>collision 10
101.602318 192.0
102.223183 36.0
105.033257 2272.0
105.116661 24.0
105.239479 104.0
106.036057 328.0
106.662292 40.0
106.83812 104.0
169.091125 160.0
172.36528 64.0
177.119446 160.0
197.948807 248.0
488.148163 20.0
920.098145 200.0
1041.769287 164.0
1061.31189 72.0
1077.531372 112.0
1113.432129 196.0
1130.90686 164.0
1229.209351 156.0
1268.525757 116.0
1300.646973 180.0
1303.986816 180.0
1322.494141 156.0
1365.822144 172.0
1377.985718 64.0
1378.052246 108.0
1379.271606 44.0
1391.227539 80.0
1396.421509 172.0
1410.326782 144.0
1440.186401 156.0
1463.422119 192.0
1496.444702 164.0
