>compound MLS001140943-01!(2S)-1-[3-(4,11-dimethyl-2-oxo-6,7,8,9-tetrahydro-[1]benzofuro[3,2-g]chromen-3-yl)propanoyl]pyrrolidine-2-carboxylic acid
>formula C25H27NO6
>ionization [M+H]+
>parentmass 438.192
#inchi InChI=1S/C25H27NO6/c1-13-15(9-10-21(27)26-11-5-7-19(26)24(28)29)25(30)32-22-14(2)23-18(12-17(13)22)16-6-3-4-8-20(16)31-23/h12,19H,3-11H2,1-2H3,(H,28,29)/t19-/m0/s1
#inchikey NFWSBXVVYKGQEX
#Ion_Source LC-ESI
#Instrument qTof
#Compound_Source NIH Natural Product Library
#PI Dorrestein
#Data_Collector VVP/LMS
#Scan -1
#Precursor_MZ 438.192
#ExactMass 437.184
#Charge 1
#CAS_Number N/A
#Pubmed_ID N/A
#Smiles Cc1c(CCC(=O)N2CCC[C@H]2C(=O)O)c(=O)oc3c(C)c4oc5CCCCc5c4cc13
#INCHI_AUX N/A
#Library_Class 1
#SpectrumID CCMSLIB00000080401
#IonMode Positive
#UpdateWorkflowName UPDATE-SINGLE-ANNOTATED-GOLD
#LibraryQualityString Gold
#TaskID b1d8e8f6646f4e71acdff9ca3d919d08
##Scan# 2360
#SpectrumFile p2-D08_GD8_01_18020.mzXML
#LibraryName NIH_Natural_Products_Library.mgf
#MQScore -1
#Organism NIH_Natural_Products_Library
#TIC_Query 0
#RT_Query -1
#MZErrorPPM -1
#SharedPeaks 0
#MassDiff 0
#LibMZ -1
#SpecMZ 438.192
#SpecCharge 0
#internalFilename spec-00000.mgf

>collision 10
95.026222 156.0
95.065025 200.0
95.449646 124.0
95.860374 144.0
95.985954 236.0
96.088501 104.0
96.258308 84.0
96.314949 104.0
96.752975 96.0
97.042938 144.0
97.233208 120.0
97.649719 136.0
97.687088 120.0
97.852402 184.0
98.116394 180.0
98.351135 172.0
98.386673 108.0
98.558495 116.0
98.659294 96.0
98.692902 236.0
98.720589 128.0
98.859062 124.0
99.051216 152.0
99.130356 196.0
99.419884 136.0
99.44767 184.0
99.592613 192.0
99.620422 128.0
99.674065 196.0
100.069878 108.0
100.215271 52.0
100.248787 156.0
100.346817 168.0
100.893837 196.0
101.085854 120.0
101.286057 240.0
101.420303 380.0
101.666992 144.0
101.717171 120.0
101.741257 128.0
101.917999 136.0
101.934074 152.0
102.082825 176.0
102.106956 132.0
102.459213 144.0
102.656738 112.0
102.836288 148.0
102.894829 104.0
103.119049 228.0
103.139259 164.0
103.600624 52.0
103.864548 244.0
103.92704 156.0
103.953415 108.0
104.152374 128.0
104.241768 92.0
104.29258 332.0
104.611931 108.0
104.644508 120.0
104.835976 100.0
105.205147 116.0
105.640419 140.0
105.787758 96.0
105.82666 148.0
106.139496 212.0
106.268097 200.0
106.351456 168.0
106.410988 156.0
106.66983 208.0
106.765099 144.0
107.231743 152.0
107.815804 176.0
107.836472 256.0
107.879875 176.0
107.969109 204.0
108.289574 240.0
108.374504 120.0
108.720795 292.0
108.804039 192.0
108.851578 180.0
108.891037 196.0
108.938805 56.0
109.144562 112.0
109.306808 156.0
109.619156 112.0
109.773415 116.0
110.013351 136.0
110.236832 56.0
110.291168 160.0
110.462631 152.0
110.537949 224.0
110.665634 204.0
110.814339 148.0
110.973625 144.0
111.040726 176.0
111.126732 144.0
111.214867 204.0
111.307243 212.0
111.498405 164.0
111.641357 80.0
111.797035 124.0
111.866486 128.0
112.129776 136.0
112.264702 136.0
112.31321 180.0
112.359619 256.0
112.454575 184.0
112.526344 196.0
112.778725 152.0
112.853828 64.0
113.059013 152.0
113.205078 156.0
113.222023 72.0
113.308868 196.0
113.491142 188.0
113.597176 244.0
113.624756 148.0
113.964455 208.0
114.294029 124.0
114.483475 172.0
114.551636 172.0
114.794601 108.0
114.841522 100.0
114.905518 136.0
114.924713 152.0
115.005806 132.0
115.033562 136.0
115.09761 152.0
115.236443 60.0
115.274902 256.0
115.475853 124.0
115.775475 172.0
116.070351 632.0
116.167709 136.0
116.427414 112.0
116.483261 32.0
116.680962 140.0
116.704613 176.0
116.734718 148.0
117.169563 128.0
117.24276 144.0
117.272934 100.0
117.331131 84.0
117.41954 192.0
117.447578 136.0
117.76918 128.0
117.814545 84.0
118.034996 160.0
118.23185 128.0
118.292458 140.0
118.363899 140.0
118.476524 152.0
118.688919 196.0
118.897171 100.0
119.162086 224.0
119.427292 168.0
119.618774 164.0
119.742882 120.0
119.825653 60.0
120.078514 128.0
120.209404 176.0
120.325089 132.0
120.696518 200.0
120.79493 112.0
120.924026 152.0
121.138611 176.0
121.342415 116.0
121.364342 172.0
121.386269 112.0
121.535423 176.0
121.627594 204.0
121.790077 208.0
121.805832 116.0
121.954872 256.0
121.983696 208.0
122.060394 136.0
122.181358 144.0
122.419075 160.0
122.698906 152.0
122.813568 196.0
122.965805 52.0
123.17115 56.0
123.193237 136.0
123.228584 72.0
123.398766 96.0
123.496063 116.0
123.591187 192.0
123.885643 200.0
124.113922 160.0
124.417877 140.0
124.657753 144.0
124.84893 116.0
125.033585 184.0
125.051384 172.0
125.111488 108.0
125.363174 180.0
125.541512 160.0
125.635193 200.0
125.695435 180.0
125.766846 204.0
125.849442 120.0
126.052704 196.0
126.130585 156.0
126.249428 152.0
126.28968 188.0
126.3993 148.0
126.493301 228.0
126.645561 160.0
126.701561 208.0
126.880844 152.0
126.966057 40.0
127.158997 128.0
127.176949 176.0
127.549812 108.0
127.666718 100.0
127.763435 212.0
127.886856 156.0
128.072174 184.0
128.191238 120.0
128.427948 108.0
128.486603 212.0
128.565567 104.0
128.615234 172.0
128.816193 184.0
129.062531 148.0
129.13942 160.0
129.27063 180.0
129.533264 160.0
129.562714 176.0
129.664673 148.0
129.775757 156.0
129.807495 144.0
129.946228 124.0
130.091095 168.0
130.120621 216.0
130.325027 180.0
130.340927 164.0
130.384109 168.0
130.425018 124.0
130.484116 144.0
130.873703 172.0
131.08757 132.0
131.548004 176.0
131.769516 152.0
131.794647 200.0
132.337418 200.0
132.912033 168.0
133.006134 168.0
133.189819 124.0
133.674911 36.0
133.695633 168.0
133.75087 92.0
133.794601 184.0
133.889008 88.0
134.117096 256.0
134.188553 148.0
134.386902 116.0
134.488449 280.0
134.643127 116.0
134.700882 120.0
134.841812 152.0
134.954575 164.0
135.496674 140.0
135.735397 200.0
135.788742 188.0
135.914001 124.0
136.009155 164.0
136.25531 124.0
136.341278 108.0
136.448196 136.0
136.573776 188.0
136.6203 160.0
136.713364 208.0
136.995087 168.0
137.083633 204.0
137.305099 148.0
137.706512 120.0
137.790604 148.0
138.276978 176.0
138.618896 128.0
138.768906 228.0
138.996414 248.0
139.137238 136.0
139.163071 140.0
139.217072 116.0
139.358017 164.0
139.419113 108.0
139.459061 204.0
139.583664 120.0
139.772232 120.0
139.915405 136.0
139.943665 124.0
140.252258 164.0
140.299408 140.0
140.320633 192.0
140.355988 104.0
140.580093 48.0
140.669769 244.0
140.872849 140.0
140.948456 180.0
141.163559 180.0
141.395401 204.0
141.471146 80.0
142.074463 184.0
142.236801 152.0
142.255798 96.0
142.296158 148.0
142.314362 120.0
142.607346 180.0
142.666763 128.0
142.702423 136.0
142.749985 124.0
142.973602 124.0
143.040237 120.0
143.088455 248.0
143.109283 188.0
143.240265 184.0
143.507172 152.0
143.628799 120.0
143.953369 212.0
143.993973 96.0
144.087128 160.0
144.495941 92.0
144.632355 140.0
144.776001 112.0
144.984421 192.0
145.064651 152.0
145.080292 188.0
145.269745 180.0
145.401703 232.0
145.545746 172.0
145.713867 220.0
145.868088 232.0
145.896515 160.0
145.956619 56.0
146.182739 108.0
146.236938 160.0
146.315109 52.0
146.459595 176.0
146.527039 200.0
146.611374 196.0
146.743958 68.0
146.997223 180.0
147.127548 128.0
147.158936 180.0
147.187912 136.0
147.311081 192.0
147.547913 140.0
147.57692 120.0
147.685745 156.0
147.741379 124.0
147.881729 128.0
148.388 112.0
148.572327 100.0
148.666946 172.0
148.789185 188.0
148.836868 144.0
148.977737 148.0
149.045761 196.0
149.296143 116.0
149.476151 164.0
149.614883 180.0
149.700104 116.0
149.773163 176.0
149.807266 132.0
150.068039 244.0
150.516983 180.0
150.827255 164.0
150.859024 76.0
151.079117 92.0
151.140289 28.0
151.167206 160.0
151.282455 88.0
151.507538 160.0
151.639847 208.0
151.706818 136.0
151.988068 192.0
152.164795 204.0
152.255646 176.0
152.430054 176.0
152.852997 180.0
152.929291 192.0
152.995758 128.0
153.044998 64.0
153.064697 108.0
153.214935 100.0
153.27652 52.0
153.340591 112.0
153.579758 148.0
153.816635 128.0
154.051224 120.0
154.073181 144.0
154.261261 148.0
154.313187 124.0
154.622391 136.0
154.657028 88.0
154.785767 144.0
154.976486 164.0
155.082947 916.0
155.120224 132.0
155.259079 188.0
155.283875 212.0
155.407913 96.0
155.484833 68.0
155.693375 240.0
155.969147 128.0
156.086975 312.0
156.180496 88.0
156.202896 136.0
156.272552 144.0
156.675873 44.0
156.815414 116.0
156.875229 232.0
156.945038 112.0
156.994904 104.0
157.01236 80.0
157.10466 188.0
157.32016 212.0
157.79393 172.0
157.891449 136.0
157.994003 188.0
158.074066 180.0
158.206726 136.0
158.261795 68.0
158.499756 180.0
158.524811 144.0
158.655136 224.0
158.805588 116.0
158.988739 96.0
159.077194 164.0
159.212173 92.0
159.350327 60.0
159.413132 140.0
159.81601 184.0
159.873337 140.0
159.95639 148.0
160.064651 184.0
160.115005 120.0
160.177979 148.0
160.238434 224.0
160.477875 148.0
160.520737 128.0
160.714951 132.0
160.752808 136.0
160.81337 200.0
160.83609 92.0
160.914352 180.0
161.321075 252.0
161.414627 148.0
161.485443 116.0
161.546143 152.0
161.627106 88.0
161.672653 140.0
162.678879 148.0
162.711884 180.0
162.770279 172.0
162.921799 176.0
163.217499 168.0
163.354828 204.0
163.424164 204.0
163.568573 148.0
163.716248 60.0
163.797745 52.0
164.708374 128.0
164.825897 212.0
164.854004 140.0
164.874451 192.0
165.030365 112.0
165.073807 164.0
165.247772 136.0
165.306625 140.0
165.324539 148.0
165.398758 72.0
165.575424 136.0
165.695801 148.0
165.847 56.0
166.070068 204.0
166.275314 272.0
166.4319 100.0
166.552597 44.0
166.660507 144.0
166.692535 192.0
166.83783 172.0
166.863541 160.0
167.05899 136.0
167.087372 156.0
167.192795 208.0
167.347229 148.0
167.853348 132.0
167.957993 96.0
168.022476 220.0
168.050858 200.0
168.096115 140.0
168.120529 148.0
168.166992 128.0
168.187637 48.0
168.221191 148.0
168.247009 136.0
168.296066 180.0
168.432938 112.0
168.730103 172.0
168.986145 140.0
169.006851 176.0
169.024963 116.0
169.102478 172.0
169.175079 108.0
169.276047 132.0
169.770996 88.0
169.887451 192.0
169.999283 124.0
170.085434 184.0
170.155014 100.0
170.243301 116.0
170.310822 100.0
170.417343 148.0
170.690262 172.0
170.861923 216.0
170.932159 120.0
170.955582 128.0
171.083496 784.0
171.153412 104.0
171.257278 168.0
171.281021 128.0
171.322708 32.0
171.533432 148.0
171.612 172.0
171.747604 144.0
171.83107 152.0
171.985031 188.0
172.021576 80.0
172.083069 144.0
172.136459 132.0
172.488922 88.0
172.552307 104.0
172.62413 140.0
172.732346 160.0
172.910263 176.0
172.936432 132.0
173.088272 152.0
173.174683 80.0
173.232315 172.0
173.30162 140.0
173.322739 152.0
173.381668 140.0
173.41835 80.0
173.58876 148.0
173.667435 124.0
173.730392 72.0
173.798599 140.0
173.866821 132.0
173.98494 184.0
174.055832 160.0
174.074219 84.0
174.344788 164.0
174.444672 136.0
174.571869 240.0
174.765518 112.0
175.068222 140.0
175.234177 120.0
175.263153 128.0
175.60585 112.0
175.748306 128.0
175.877609 192.0
176.3134 152.0
176.776184 132.0
177.210434 136.0
177.228973 92.0
177.350891 144.0
177.486084 196.0
177.54834 172.0
177.570938 128.0
177.608078 112.0
177.777878 132.0
177.807602 176.0
178.011475 124.0
178.133652 40.0
178.226639 236.0
178.314331 144.0
179.035294 168.0
179.088181 420.0
179.147156 112.0
179.235077 208.0
179.264389 192.0
179.381668 156.0
179.424316 184.0
179.600311 132.0
179.685669 204.0
179.824432 120.0
179.939209 180.0
180.051361 204.0
180.091995 132.0
180.126144 124.0
180.353271 172.0
180.853439 132.0
180.947128 108.0
181.107071 376.0
181.134583 148.0
181.407913 136.0
181.710953 228.0
181.751205 128.0
181.82634 204.0
181.992767 84.0
182.038422 192.0
182.078705 176.0
182.118988 200.0
182.234497 160.0
182.471008 120.0
182.683456 68.0
182.890656 108.0
182.990265 68.0
183.080429 280.0
183.111435 148.0
183.32695 152.0
183.615417 124.0
183.658569 156.0
184.098343 216.0
184.133591 196.0
184.179504 180.0
184.544327 84.0
184.601105 208.0
184.644379 136.0
185.09285 352.0
185.136917 172.0
185.237518 284.0
185.792862 148.0
185.933945 132.0
186.096817 160.0
186.121262 236.0
186.147736 192.0
186.170731 184.0
186.524841 140.0
186.618484 180.0
186.953049 84.0
186.993881 80.0
187.048309 180.0
187.266144 132.0
187.345139 136.0
187.489548 156.0
187.590393 176.0
187.636734 64.0
187.710342 132.0
187.729431 176.0
187.852173 168.0
188.078659 256.0
188.26976 216.0
188.340775 172.0
188.362625 152.0
188.59761 92.0
188.665955 152.0
188.723373 116.0
188.758911 156.0
188.84642 172.0
188.875366 248.0
188.93396 164.0
189.016998 80.0
189.081711 136.0
189.287033 56.0
189.336319 148.0
189.473282 152.0
189.497925 216.0
189.602066 56.0
189.627792 256.0
189.7117 148.0
189.818619 224.0
190.059128 176.0
190.147812 80.0
190.254868 224.0
190.540482 196.0
190.578949 140.0
190.719101 244.0
190.771957 104.0
191.225174 80.0
191.778778 132.0
191.798065 108.0
191.889038 188.0
191.916611 108.0
191.962723 160.0
192.220032 136.0
192.242096 180.0
192.275223 108.0
192.479492 164.0
192.526443 200.0
192.601013 160.0
192.628632 156.0
192.73085 48.0
192.805466 232.0
192.871796 172.0
193.087448 132.0
193.106812 200.0
193.242355 224.0
193.330902 180.0
193.688049 184.0
194.017807 136.0
194.064941 192.0
194.109467 284.0
194.142578 132.0
194.572662 184.0
194.725388 112.0
194.947632 188.0
195.083115 140.0
195.091339 216.0
195.11763 168.0
195.13942 160.0
195.192261 144.0
195.227417 168.0
195.275681 228.0
195.32019 204.0
195.43425 164.0
195.511108 192.0
195.65007 156.0
195.901962 148.0
196.088837 172.0
196.186203 164.0
196.370239 136.0
196.679947 156.0
196.738556 208.0
196.85582 160.0
196.89772 124.0
196.978714 144.0
197.096817 352.0
197.134293 128.0
197.297287 140.0
197.579163 184.0
197.686066 128.0
197.77562 148.0
198.030411 140.0
198.098343 64.0
198.218109 72.0
198.574142 76.0
198.593765 176.0
198.776123 140.0
198.842636 120.0
198.90802 224.0
199.077209 124.0
199.114731 200.0
199.16745 144.0
199.680695 168.0
199.873749 224.0
200.085892 220.0
200.125305 48.0
200.175995 84.0
200.283005 172.0
200.587326 128.0
200.956757 108.0
201.007553 136.0
201.090378 204.0
201.224884 172.0
201.332184 184.0
201.363251 72.0
201.43103 128.0
201.702301 180.0
201.736221 88.0
201.798416 180.0
201.979401 64.0
202.310486 140.0
202.517197 252.0
202.663589 204.0
203.225891 96.0
203.276978 212.0
203.796585 72.0
203.82785 104.0
204.001221 180.0
204.049545 192.0
204.203094 120.0
204.453445 172.0
204.493301 188.0
204.649994 184.0
204.81218 100.0
204.863464 184.0
205.011612 172.0
205.062912 96.0
205.216843 156.0
205.299545 128.0
205.362427 160.0
205.427887 112.0
205.505539 92.0
205.596222 144.0
205.664719 84.0
205.784622 72.0
205.927399 104.0
205.95311 76.0
206.04451 252.0
206.44754 104.0
206.564804 120.0
206.804596 144.0
206.905334 252.0
206.945419 204.0
207.072388 200.0
207.115128 348.0
207.289139 152.0
207.386581 136.0
207.475433 144.0
207.670425 160.0
207.776566 204.0
207.809128 172.0
207.871246 244.0
207.971695 244.0
208.089386 148.0
208.149689 164.0
208.355255 216.0
208.41394 88.0
208.468536 212.0
208.508774 220.0
208.626617 212.0
209.09491 600.0
209.144394 100.0
209.556198 180.0
209.685867 120.0
209.766571 168.0
209.893417 176.0
210.000122 188.0
210.100464 112.0
210.251129 152.0
210.483261 200.0
210.580246 184.0
210.600464 140.0
210.716019 144.0
210.773804 192.0
210.802689 156.0
210.952988 140.0
210.993454 120.0
211.106354 168.0
211.15538 128.0
211.192978 156.0
211.323166 184.0
211.427322 60.0
211.456268 48.0
211.505478 116.0
211.600616 208.0
211.62706 140.0
212.071304 180.0
212.258713 180.0
212.380524 116.0
212.595215 188.0
212.621323 140.0
212.664856 88.0
212.757751 128.0
212.900024 180.0
213.047592 164.0
213.083527 148.0
213.112076 156.0
213.213776 156.0
213.283524 148.0
213.524841 196.0
213.737213 132.0
213.812866 84.0
213.879807 124.0
213.943848 264.0
214.007904 152.0
214.074356 136.0
214.106903 116.0
214.133118 152.0
214.602264 148.0
214.768494 120.0
214.926025 120.0
214.949371 200.0
215.063187 156.0
215.334717 256.0
215.463242 124.0
215.778122 156.0
215.840271 140.0
216.053787 112.0
216.094742 88.0
216.141556 160.0
216.287888 132.0
216.390335 144.0
216.422546 136.0
216.443039 180.0
216.516251 148.0
216.60997 44.0
216.870758 188.0
216.891281 120.0
217.401596 208.0
217.466156 100.0
217.54541 156.0
217.586502 144.0
218.097641 188.0
218.23085 152.0
218.288727 160.0
218.362259 80.0
218.418137 100.0
218.541702 192.0
218.591721 168.0
218.61232 176.0
218.909637 128.0
218.980316 172.0
219.04805 116.0
219.122574 176.0
219.165894 124.0
219.237976 156.0
219.784485 156.0
219.941498 52.0
220.112732 220.0
220.272217 140.0
220.369705 148.0
220.461304 168.0
220.538147 80.0
220.591354 276.0
220.733261 172.0
220.854767 144.0
221.132324 200.0
221.197754 160.0
221.240631 124.0
221.307281 200.0
221.399078 28.0
221.505707 216.0
221.538284 64.0
221.61235 68.0
221.757553 116.0
221.867233 52.0
221.917633 184.0
222.008453 236.0
222.106018 176.0
222.226089 112.0
222.321045 212.0
222.436798 148.0
222.522888 160.0
222.632751 180.0
222.772339 64.0
222.926849 44.0
223.143829 148.0
223.174881 164.0
223.219116 136.0
223.368484 176.0
223.473953 148.0
223.552261 140.0
223.601913 136.0
223.807312 200.0
223.985992 132.0
224.086807 296.0
224.111115 104.0
224.176682 68.0
224.366562 192.0
224.456879 132.0
224.597046 224.0
224.725327 196.0
224.758148 208.0
224.787979 184.0
224.883484 180.0
224.98497 200.0
225.023773 160.0
225.090134 3320.0
225.126984 960.0
225.223862 96.0
225.256714 120.0
225.307495 172.0
225.510696 204.0
225.56749 92.0
225.594391 100.0
225.618301 112.0
225.815659 140.0
225.851547 184.0
225.893417 124.0
225.953247 180.0
226.060974 56.0
226.095505 528.0
226.128662 444.0
226.186661 36.0
226.222595 108.0
226.303421 36.0
226.369293 208.0
226.420197 136.0
226.507065 100.0
226.668839 124.0
226.713791 120.0
226.737762 160.0
226.785721 144.0
227.09343 304.0
227.352554 164.0
227.376556 80.0
227.502625 76.0
227.82695 76.0
227.959152 180.0
228.262756 116.0
228.401093 152.0
228.431183 216.0
228.473297 116.0
228.53949 96.0
228.614716 136.0
228.882614 124.0
229.083618 124.0
229.132599 168.0
229.162735 148.0
229.253128 76.0
229.455078 180.0
229.527435 144.0
229.874329 244.0
229.926758 248.0
230.04335 236.0
230.085037 192.0
230.133911 148.0
230.303024 144.0
230.384583 188.0
230.529617 220.0
230.571915 168.0
231.052689 196.0
231.210037 156.0
231.416946 192.0
231.606659 168.0
231.706619 120.0
231.803574 164.0
231.952087 72.0
232.043976 256.0
232.191605 140.0
232.640671 100.0
232.683167 144.0
232.877518 120.0
233.100189 160.0
233.789566 56.0
233.850433 68.0
233.883926 124.0
233.941757 96.0
233.990463 144.0
234.099319 180.0
234.130539 100.0
234.32547 144.0
234.432129 172.0
234.508316 164.0
234.758301 336.0
235.122101 188.0
235.30809 108.0
235.380798 160.0
235.414398 176.0
235.472412 220.0
235.667923 180.0
235.725983 156.0
236.110474 124.0
236.128311 244.0
236.279388 116.0
236.398727 168.0
236.582367 152.0
236.818146 140.0
236.86409 140.0
237.047913 172.0
237.09877 140.0
237.12825 636.0
237.234863 192.0
237.378967 136.0
237.823807 40.0
237.949677 168.0
237.99736 284.0
238.063278 176.0
238.100296 148.0
238.133148 344.0
238.164627 192.0
238.27829 200.0
238.365067 196.0
238.401184 44.0
238.723969 160.0
238.831604 188.0
239.072083 172.0
239.106186 444.0
239.141205 148.0
239.228561 180.0
239.404053 68.0
239.59639 144.0
239.644318 136.0
239.675125 188.0
239.847702 52.0
239.890854 224.0
240.004929 172.0
240.109772 324.0
240.149872 204.0
240.362732 256.0
240.763184 200.0
240.819626 112.0
240.958633 148.0
241.17804 60.0
241.434647 148.0
241.564545 88.0
241.904938 108.0
241.991623 236.0
242.050446 80.0
242.112381 164.0
242.137161 180.0
242.192917 116.0
242.360031 152.0
242.422165 36.0
242.484146 140.0
242.524445 156.0
242.660843 140.0
243.2117 212.0
243.455185 176.0
243.902573 116.0
243.968475 120.0
244.129532 60.0
244.297485 200.0
244.825577 180.0
244.907578 188.0
245.103851 128.0
245.178635 72.0
245.262787 148.0
245.390762 156.0
245.496613 104.0
245.627609 192.0
245.796066 80.0
245.883453 180.0
245.911545 88.0
245.958359 236.0
246.080109 172.0
246.205002 144.0
246.389297 156.0
246.773712 144.0
247.271072 128.0
247.646774 80.0
247.784607 104.0
247.888 56.0
248.000824 116.0
248.096268 164.0
248.120514 176.0
248.141891 216.0
248.370819 256.0
248.471191 292.0
248.898041 176.0
249.083344 140.0
249.126816 200.0
249.233032 216.0
249.444702 164.0
249.699387 96.0
249.846527 108.0
250.010834 180.0
250.1147 132.0
250.171356 148.0
250.250061 220.0
250.291 56.0
250.335083 272.0
250.401215 64.0
250.53981 132.0
250.940048 160.0
250.988083 172.0
251.025192 40.0
251.299606 104.0
251.328003 212.0
251.511032 128.0
251.608887 112.0
251.649933 56.0
251.727615 140.0
251.748688 132.0
251.776245 148.0
251.807831 188.0
251.946808 200.0
252.041595 52.0
252.243851 108.0
252.322891 184.0
252.376633 76.0
252.429276 148.0
252.553726 332.0
252.613831 172.0
252.664444 44.0
252.743546 100.0
252.808502 308.0
252.841629 200.0
252.893188 176.0
252.990402 80.0
253.012558 120.0
253.037888 120.0
253.091095 712.0
253.123093 19764.0
253.165024 272.0
253.21579 132.0
253.248032 132.0
253.295746 112.0
253.34787 68.0
253.382431 172.0
253.422653 132.0
253.50499 68.0
253.544693 112.0
253.659744 80.0
253.706345 44.0
253.779938 236.0
253.86171 52.0
253.964706 168.0
254.004425 200.0
254.031555 128.0
254.075485 200.0
254.127502 3036.0
254.191605 124.0
254.333633 112.0
254.388382 44.0
254.474106 44.0
254.512207 84.0
254.567276 152.0
254.648758 48.0
254.777039 196.0
254.805801 156.0
254.839355 204.0
254.883835 80.0
254.960098 272.0
254.982346 124.0
255.023666 48.0
255.091522 200.0
255.132324 360.0
255.214401 84.0
255.309799 60.0
255.408066 120.0
255.541992 116.0
255.592911 56.0
255.7202 184.0
255.774307 112.0
255.933487 176.0
255.955765 144.0
256.025818 164.0
256.054504 72.0
256.076782 124.0
256.134125 128.0
256.165985 40.0
256.202606 208.0
256.23288 52.0
256.290222 156.0
256.577057 144.0
256.672699 48.0
256.742859 60.0
256.77475 140.0
256.800262 64.0
257.014008 72.0
257.049103 112.0
257.103363 152.0
257.256561 164.0
257.290222 88.0
257.473694 64.0
257.588654 72.0
257.626984 216.0
257.83255 180.0
258.096802 152.0
258.579834 76.0
258.720673 144.0
258.803925 244.0
258.989655 144.0
259.329285 204.0
259.569733 136.0
259.595398 164.0
259.723663 208.0
259.797455 92.0
260.436218 172.0
260.516541 116.0
260.9086 120.0
261.011475 40.0
261.033997 212.0
261.095093 128.0
261.400696 96.0
261.55838 184.0
261.606689 112.0
261.822388 92.0
262.041443 164.0
262.076874 220.0
262.134888 132.0
262.167114 140.0
262.20578 152.0
262.276672 104.0
262.373383 120.0
262.815247 196.0
263.054047 136.0
263.101868 124.0
263.254242 196.0
263.367279 204.0
263.561096 128.0
263.593414 260.0
263.716217 124.0
263.790558 52.0
264.007172 192.0
264.440704 80.0
264.508667 176.0
264.621979 116.0
264.667297 200.0
264.981476 28.0
265.081909 156.0
265.227753 144.0
265.299072 148.0
265.506592 96.0
265.626587 84.0
265.688232 128.0
265.782318 156.0
265.947815 128.0
266.032227 172.0
266.131042 160.0
266.54538 132.0
266.600616 108.0
266.672119 284.0
266.834625 176.0
266.855835 156.0
266.94519 248.0
267.004333 344.0
267.100006 344.0
267.137482 1184.0
267.429932 152.0
267.473724 96.0
267.540588 48.0
267.608978 36.0
267.882538 108.0
267.941162 56.0
268.143829 296.0
268.525024 168.0
268.59967 260.0
268.922668 184.0
269.147919 112.0
269.40921 192.0
269.52356 128.0
269.556244 124.0
269.608521 224.0
269.785034 164.0
269.928864 48.0
270.118561 156.0
270.262512 200.0
270.308319 84.0
270.5047 132.0
270.589813 212.0
270.714233 168.0
270.819031 132.0
271.04834 92.0
271.120453 176.0
271.186005 80.0
271.241699 76.0
271.494171 164.0
271.727051 144.0
271.845184 128.0
272.137299 48.0
272.317902 80.0
272.636597 84.0
272.758209 152.0
272.823944 168.0
273.20578 180.0
273.238312 76.0
273.343597 176.0
274.057892 112.0
274.272308 48.0
274.483307 212.0
274.889038 140.0
274.945129 288.0
274.978149 172.0
275.037567 156.0
275.110168 60.0
275.245544 148.0
275.29837 236.0
275.87326 120.0
276.00882 148.0
276.137787 232.0
276.254791 76.0
276.37265 172.0
276.462006 128.0
276.534821 220.0
276.587769 220.0
276.677155 116.0
276.733429 180.0
276.766541 140.0
276.842712 152.0
277.125397 288.0
277.292053 144.0
277.382751 140.0
277.405945 96.0
277.47168 212.0
277.641357 224.0
277.70105 128.0
277.750793 84.0
277.887848 196.0
278.004791 196.0
278.09256 72.0
278.161499 224.0
278.471069 104.0
278.653748 240.0
278.700256 144.0
278.73349 272.0
278.763397 164.0
278.799957 128.0
278.863098 184.0
278.904633 112.0
279.115753 180.0
279.145477 132.0
279.222168 144.0
279.366425 108.0
279.467255 124.0
279.521576 80.0
279.551514 148.0
279.605835 164.0
279.656677 120.0
279.753693 288.0
279.831116 160.0
280.017578 144.0
280.067444 132.0
280.099609 320.0
280.134155 196.0
280.180634 88.0
280.227783 116.0
280.273041 268.0
280.306641 188.0
280.337402 76.0
280.388916 156.0
280.450562 352.0
280.50116 88.0
280.54895 236.0
280.571289 164.0
280.605499 220.0
280.646698 156.0
280.660187 124.0
280.667389 136.0
280.714081 404.0
280.761292 388.0
280.7948 180.0
280.823303 136.0
280.916473 120.0
280.96991 348.0
280.983246 160.0
281.007202 476.0
281.029297 560.0
281.059753 484.0
281.119141 150180.0
281.209595 176.0
281.245819 236.0
281.30249 44.0
281.328217 76.0
281.373993 224.0
281.430023 132.0
281.442139 148.0
281.453094 76.0
281.480103 64.0
281.517822 88.0
281.583649 88.0
281.624542 188.0
281.669678 916.0
281.751678 72.0
281.776398 320.0
281.834106 180.0
281.875732 208.0
281.922852 324.0
281.968109 228.0
282.012756 116.0
282.053284 168.0
282.122314 34760.0
282.221039 208.0
282.285217 236.0
282.317291 44.0
282.373657 108.0
282.417297 100.0
282.455139 128.0
282.487549 68.0
282.510956 96.0
282.571198 56.0
282.629028 116.0
282.677368 104.0
282.714844 96.0
282.776581 220.0
282.80484 92.0
282.809998 132.0
282.842255 76.0
282.867188 80.0
282.912537 92.0
282.999115 116.0
283.081635 192.0
283.125977 4084.0
283.175568 112.0
283.210999 60.0
283.2995 56.0
283.345276 92.0
283.398926 52.0
283.430908 76.0
283.461365 60.0
283.498688 84.0
283.524658 128.0
283.551086 44.0
283.592529 88.0
283.632629 128.0
283.672974 96.0
283.69928 128.0
283.737946 144.0
283.773926 104.0
283.808411 108.0
283.835754 156.0
283.872375 76.0
283.885803 168.0
283.927277 180.0
283.95163 216.0
283.999603 192.0
284.033173 92.0
284.056152 232.0
284.09256 140.0
284.126434 536.0
284.158844 100.0
284.187744 88.0
284.243958 228.0
284.294434 136.0
284.347137 96.0
284.397491 104.0
284.48587 96.0
284.531769 96.0
284.555267 72.0
284.605621 84.0
284.649292 112.0
284.672791 152.0
284.694763 124.0
284.74057 44.0
284.859009 80.0
284.871216 96.0
284.954163 224.0
285.008698 108.0
285.04126 144.0
285.082611 140.0
285.133026 100.0
285.198303 132.0
285.230499 40.0
285.314545 72.0
285.391846 120.0
285.486023 104.0
285.576813 100.0
285.664276 60.0
285.779572 176.0
285.926727 60.0
285.963745 152.0
286.152252 84.0
286.18927 48.0
286.239777 72.0
286.400299 60.0
286.409424 96.0
286.530273 64.0
286.923737 48.0
286.987793 52.0
287.099091 68.0
287.605164 52.0
287.760437 140.0
287.932648 128.0
288.369965 64.0
288.534119 64.0
289.091339 80.0
289.132812 60.0
289.183563 72.0
289.244507 124.0
289.312195 144.0
289.894775 112.0
291.292572 160.0
291.802338 56.0
292.312469 172.0
292.479309 56.0
292.669952 80.0
293.013947 80.0
293.116028 104.0
293.439941 64.0
293.654785 64.0
293.859436 88.0
294.132446 184.0
294.221222 112.0
294.27243 80.0
294.327057 228.0
294.383759 112.0
294.394562 152.0
294.4534 68.0
294.613953 112.0
294.921478 72.0
295.021301 60.0
295.088043 44.0
295.134155 20692.0
295.230377 148.0
295.277039 144.0
295.331757 44.0
295.372803 84.0
295.403046 144.0
295.458344 60.0
295.484009 36.0
295.56546 52.0
295.608887 56.0
295.721802 56.0
295.896393 52.0
295.988831 48.0
296.02652 120.0
296.06308 76.0
296.136047 3712.0
296.222168 32.0
296.266266 164.0
296.434143 244.0
296.591797 88.0
296.630859 100.0
296.814636 72.0
296.927795 88.0
297.010101 76.0
297.099304 156.0
297.139069 964.0
297.274292 48.0
297.342926 76.0
297.370361 140.0
297.562592 144.0
297.637238 136.0
297.768616 72.0
297.830444 104.0
297.892273 72.0
297.950684 100.0
297.984772 52.0
298.033142 124.0
298.079193 72.0
298.35965 48.0
298.465332 156.0
298.5625 136.0
298.682892 60.0
298.841125 68.0
299.240387 200.0
299.539978 44.0
299.564087 44.0
299.629547 64.0
299.729462 136.0
299.812164 48.0
299.860413 44.0
300.032745 80.0
300.270691 84.0
300.584595 152.0
300.632904 136.0
301.496246 100.0
301.786621 36.0
302.122101 168.0
303.025665 48.0
303.11203 200.0
303.587189 104.0
303.781799 76.0
304.312408 48.0
307.081512 84.0
307.263733 128.0
307.330017 88.0
309.073547 172.0
309.525085 140.0
309.931396 68.0
309.959442 60.0
311.738495 56.0
312.209564 172.0
312.607086 164.0
312.631714 92.0
313.720062 84.0
316.734253 168.0
317.180725 164.0
320.74234 140.0
321.352142 132.0
321.823273 100.0
322.398376 116.0
322.659302 176.0
322.795166 48.0
322.844299 152.0
322.913177 160.0
322.938202 168.0
322.986267 164.0
323.066101 164.0
323.128998 22372.0
323.222534 76.0
323.328186 44.0
323.356812 168.0
323.401733 36.0
323.485657 48.0
323.533142 176.0
323.589478 72.0
323.646759 36.0
323.700684 60.0
323.764923 76.0
323.829407 52.0
323.868805 96.0
323.925537 76.0
323.988495 40.0
324.132202 5824.0
324.224091 168.0
324.277252 68.0
324.409882 52.0
324.485168 56.0
324.522308 100.0
324.664429 88.0
324.954987 60.0
325.048279 72.0
325.13443 772.0
325.259125 80.0
325.522095 72.0
325.547241 32.0
325.604706 56.0
325.667725 136.0
325.694489 104.0
325.735779 104.0
325.899261 48.0
325.924408 88.0
326.057373 68.0
326.100494 88.0
326.171936 172.0
326.467194 100.0
326.509979 160.0
326.549896 68.0
326.603851 40.0
326.947601 44.0
327.053619 120.0
327.12561 104.0
327.165192 120.0
327.29483 108.0
327.487732 112.0
327.654968 100.0
327.914429 44.0
328.361481 52.0
336.066406 116.0
342.260803 176.0
351.789093 88.0
352.775299 128.0
353.306305 32.0
354.332092 68.0
356.06131 124.0
357.817322 60.0
358.171295 48.0
358.619659 60.0
360.926239 64.0
365.565369 116.0
368.130859 80.0
368.87204 220.0
371.479767 120.0
372.38562 76.0
374.454773 84.0
378.876221 76.0
379.144897 88.0
380.754883 92.0
380.906372 48.0
385.046631 60.0
387.542328 56.0
388.044006 32.0
388.27536 100.0
388.428314 96.0
392.837921 128.0
395.216248 104.0
414.177124 152.0
415.855713 56.0
421.647156 124.0
422.841339 144.0
423.041901 104.0
425.300476 120.0
427.873779 68.0
428.153778 72.0
429.666504 96.0
430.93396 56.0
431.553925 104.0
433.047791 72.0
434.046509 60.0
435.287201 108.0
436.217834 176.0
437.091217 64.0
437.199829 420.0
437.25766 48.0
438.182068 176.0
438.217682 196.0
439.875153 40.0
440.998749 52.0
443.426208 48.0
451.336151 104.0
453.401886 96.0
454.063263 40.0
455.438385 44.0
456.347778 92.0
458.484619 76.0
458.842651 60.0
459.264832 76.0
465.62912 60.0
471.246216 40.0
474.743652 60.0
475.459442 60.0
476.323456 88.0
480.498199 80.0
485.050507 108.0
489.496582 44.0
490.329193 76.0
490.5672 56.0
501.297455 60.0
506.806946 112.0
508.071228 64.0
509.022736 56.0
513.022461 52.0
513.288513 116.0
519.765869 88.0
520.024536 116.0
522.337219 56.0
523.916809 56.0
524.495544 104.0
525.206848 52.0
527.535583 44.0
534.276733 80.0
536.09082 60.0
540.676514 116.0
545.328247 56.0
545.858215 100.0
550.406006 128.0
554.297729 72.0
561.273193 56.0
568.652954 72.0
569.293884 136.0
569.327148 148.0
572.980103 36.0
577.055847 72.0
582.077209 72.0
584.004333 44.0
585.087036 60.0
597.539368 44.0
597.636719 92.0
605.662354 56.0
607.956848 44.0
619.197021 104.0
625.423035 92.0
626.304321 80.0
626.922119 56.0
632.560913 84.0
635.618042 76.0
638.375732 92.0
641.51239 96.0
643.111389 56.0
643.197205 64.0
652.919922 64.0
658.296204 44.0
662.362122 72.0
667.088074 72.0
673.332825 132.0
683.331909 92.0
687.34906 52.0
688.225952 48.0
689.88208 92.0
693.341797 68.0
711.529175 32.0
715.026733 64.0
720.593628 108.0
725.935425 68.0
734.524414 112.0
754.470215 220.0
764.744202 56.0
766.71582 140.0
771.136475 128.0
777.893921 52.0
784.496887 116.0
786.465881 68.0
788.962769 184.0
797.887695 96.0
797.943909 92.0
809.329529 96.0
809.839172 48.0
818.277466 84.0
835.998596 52.0
858.224548 132.0
873.856812 80.0
877.089783 68.0
914.616699 60.0
918.147278 100.0
929.786865 120.0
931.663086 68.0
933.188477 52.0
960.964233 76.0
961.10614 68.0
970.079773 72.0
971.506042 36.0
975.250305 112.0
986.901367 44.0
996.553528 84.0
1006.119995 64.0
1044.04541 92.0
1064.381348 84.0
1065.797363 64.0
1074.032471 128.0
1078.956055 52.0
1085.910034 80.0
1100.670532 36.0
1107.69397 88.0
1124.808838 172.0
1133.034668 56.0
1135.669067 80.0
1170.513916 68.0
1178.138916 44.0
1209.980225 68.0
1243.768677 60.0
1249.193237 128.0
1252.022583 120.0
1257.472168 96.0
1260.826782 76.0
1297.068604 84.0
1302.67981 36.0
1320.005737 88.0
1335.481567 200.0
1356.275879 132.0
1369.162476 232.0
1375.436646 20.0
1388.391479 144.0
1407.687378 56.0
1410.79541 136.0
1420.575195 128.0
1426.740479 132.0
1442.230835 168.0
1445.149902 156.0
1450.973877 120.0
1458.09375 160.0
1462.558105 112.0
1463.129028 132.0
1484.990356 216.0
1490.794189 116.0
