>compound MLS001074186-01!
>formula C14H22ClN3O2
>ionization [M+H]+
>parentmass 300.1473310760905
#inchi InChI=1S/C14H22ClN3O2/c1-4-18(5-2)7-6-17-14(19)10-8-11(15)12(16)9-13(10)20-3/h8-9H,4-7,16H2,1-3H3,(H,17,19)
#inchikey TTWJBBZEZQICBI
#origInchi InChI=1S/C14H22ClN3O2.ClH/c1-4-18(5-2)7-6-17-14(19)10-8-11(15)12(16)9-13(10)20-3;/h8-9H,4-7,16H2,1-3H3,(H,17,19);1H
#Ion_Source LC-ESI
#Instrument qTof
#Compound_Source NIH Pharmacologically Active Library
#PI Dorrestein
#Data_Collector VP/LMS
#Scan -1
#Precursor_MZ 300.151
#ExactMass 299.14
#Charge 1
#CAS_Number N/A
#Pubmed_ID N/A
#Smiles CCN(CC)CCNC(=O)c1cc(Cl)c(N)cc1OC.Cl
#INCHI_AUX N/A
#Library_Class 1
#SpectrumID CCMSLIB00000084825
#IonMode Positive
#UpdateWorkflowName UPDATE-SINGLE-ANNOTATED-GOLD
#LibraryQualityString Gold
#TaskID d252d724072548979f1f6f1ced849daf
##Scan# 1331
#SpectrumFile p3-B03_GB3_01_18236.mzXML
#LibraryName Pharm_Active_Library.mgf
#MQScore -1
#Organism Pharm_Active_Library
#TIC_Query 0
#RT_Query -1
#MZErrorPPM -1
#SharedPeaks 0
#MassDiff 0
#LibMZ -1
#SpecMZ 300.151
#SpecCharge 0
#internalFilename spec-00000.mgf

>collision 10
44.898403 168.0
44.961227 220.0
45.039883 176.0
45.098675 60.0
45.110703 44.0
45.15023 164.0
45.168205 156.0
45.202991 320.0
45.330204 160.0
45.350307 56.0
45.365055 220.0
45.429424 164.0
45.45089 92.0
45.516663 108.0
45.563675 128.0
45.640789 256.0
45.6618 172.0
45.768112 148.0
45.786037 348.0
45.847591 196.0
45.866463 104.0
45.933884 64.0
46.004055 108.0
46.066174 68.0
46.086441 164.0
46.120228 156.0
46.150513 148.0
46.202717 192.0
46.25478 152.0
46.336746 216.0
46.511688 180.0
46.547771 228.0
46.620342 208.0
46.66946 172.0
46.684238 144.0
46.716881 148.0
46.796032 176.0
46.827137 72.0
46.917072 148.0
46.987991 136.0
47.053501 232.0
47.086273 132.0
47.112225 196.0
47.175476 184.0
47.201065 204.0
47.239361 144.0
47.273567 228.0
47.347492 164.0
47.435757 172.0
47.521927 256.0
47.526028 184.0
47.55452 184.0
47.577854 236.0
47.60257 160.0
47.624546 148.0
47.66301 332.0
47.707127 124.0
47.71846 200.0
47.746868 164.0
47.756496 160.0
47.814281 140.0
47.825291 160.0
47.861088 172.0
47.932713 132.0
48.012669 88.0
48.074463 172.0
48.165874 156.0
48.183834 192.0
48.247406 184.0
48.301167 224.0
48.335926 200.0
48.356686 228.0
48.428684 204.0
48.44392 168.0
48.518757 184.0
48.560356 104.0
48.61227 188.0
48.646385 48.0
48.676929 108.0
48.692207 176.0
48.800598 208.0
48.821457 124.0
48.854839 96.0
48.916069 136.0
48.931381 184.0
48.999626 152.0
49.010773 116.0
49.03307 208.0
49.085243 216.0
49.120911 160.0
49.193478 188.0
49.238159 172.0
49.260506 156.0
49.299629 124.0
49.31081 116.0
49.356941 80.0
49.394703 84.0
49.443672 120.0
49.480331 212.0
49.520676 148.0
49.572514 164.0
49.628582 112.0
49.655228 152.0
49.747837 224.0
49.945972 172.0
50.023365 144.0
50.08955 376.0
50.164234 196.0
50.185383 172.0
50.195251 208.0
50.244621 244.0
50.281307 360.0
50.297283 188.0
50.35331 132.0
50.370262 148.0
50.446568 360.0
50.518688 144.0
50.616756 152.0
50.634758 104.0
50.718353 144.0
50.770813 156.0
50.846004 200.0
50.924091 136.0
51.019299 76.0
51.044891 196.0
51.092888 220.0
51.113171 172.0
51.155865 188.0
51.201431 200.0
51.369621 132.0
51.395302 148.0
51.526657 200.0
51.569527 216.0
51.622425 200.0
51.636726 192.0
51.709694 144.0
51.729733 124.0
51.748344 96.0
51.772686 68.0
51.78701 124.0
51.7999 160.0
51.838585 176.0
51.85865 124.0
51.874416 168.0
51.891621 112.0
51.918865 180.0
51.95042 140.0
51.993465 188.0
52.03653 200.0
52.053761 132.0
52.07243 196.0
52.155811 240.0
52.181057 148.0
52.229095 120.0
52.261883 248.0
52.322636 116.0
52.498425 220.0
52.530155 156.0
52.66584 60.0
52.723633 36.0
52.765553 264.0
52.785797 188.0
52.824783 180.0
52.85957 72.0
52.887066 52.0
52.944542 172.0
52.97105 176.0
53.014248 172.0
53.042057 132.0
53.062351 64.0
53.129066 196.0
53.313469 128.0
53.351261 44.0
53.421062 48.0
53.44434 136.0
53.512749 264.0
53.697819 140.0
53.769638 176.0
53.795582 144.0
53.891972 84.0
53.963589 176.0
54.003075 96.0
54.090866 128.0
54.128933 200.0
54.161152 156.0
54.250538 168.0
54.343925 160.0
54.388428 192.0
54.43132 168.0
54.455971 148.0
54.475063 124.0
54.486816 144.0
54.513264 32.0
54.570332 136.0
54.689751 132.0
54.800198 164.0
54.835564 172.0
54.865044 164.0
54.884212 168.0
54.89896 112.0
54.910755 248.0
54.926983 208.0
54.99633 152.0
55.014614 176.0
55.056866 140.0
55.081974 200.0
55.126297 100.0
55.173595 132.0
55.194294 156.0
55.267685 240.0
55.334858 192.0
55.39854 184.0
55.438545 156.0
55.460777 56.0
55.533428 136.0
55.54678 192.0
55.612068 180.0
55.723442 176.0
55.735329 208.0
55.817081 76.0
55.882526 220.0
55.916756 52.0
55.947388 172.0
55.959923 68.0
56.00013 136.0
56.052273 136.0
56.093353 156.0
56.184971 192.0
56.196907 96.0
56.213539 176.0
56.232719 148.0
56.268547 192.0
56.283478 152.0
56.332764 140.0
56.391037 136.0
56.444859 48.0
56.492718 268.0
56.50618 136.0
56.546585 76.0
56.649902 152.0
56.694851 108.0
56.852318 164.0
56.925877 144.0
56.972435 112.0
57.011501 128.0
57.029537 152.0
57.044571 236.0
57.068623 196.0
57.093735 148.0
57.133297 184.0
57.199509 108.0
57.291367 188.0
57.360687 160.0
57.374256 132.0
57.448151 196.0
57.463238 148.0
57.478325 192.0
57.500961 120.0
57.532661 164.0
57.561256 132.0
57.69582 200.0
57.713963 148.0
57.73967 144.0
57.797153 56.0
57.82288 192.0
57.854668 48.0
57.879303 176.0
57.896721 248.0
57.944019 32.0
57.992512 116.0
58.024345 92.0
58.054672 180.0
58.142662 96.0
58.182125 180.0
58.279476 168.0
58.331001 112.0
58.413116 88.0
58.56501 164.0
58.61713 128.0
58.650658 164.0
58.722321 180.0
58.752827 156.0
58.769611 96.0
58.801659 180.0
58.874939 192.0
58.926872 108.0
59.026226 132.0
59.140965 280.0
59.189957 160.0
59.220585 104.0
59.297192 156.0
59.310986 128.0
59.343178 124.0
59.360046 144.0
59.386116 168.0
59.422935 200.0
59.464367 248.0
59.510418 76.0
59.568779 188.0
59.614872 156.0
59.819431 148.0
59.859463 60.0
59.907207 216.0
59.917992 164.0
59.931858 136.0
60.055187 192.0
60.072155 140.0
60.088318 176.0
60.102535 156.0
60.326954 164.0
60.34087 52.0
60.381073 180.0
60.440697 180.0
60.458427 252.0
60.478546 160.0
60.594688 144.0
60.62413 168.0
60.669079 144.0
60.738861 216.0
60.782272 232.0
60.821239 224.0
60.894077 132.0
60.96088 196.0
61.007507 176.0
61.071262 164.0
61.208214 172.0
61.234688 184.0
61.308167 172.0
61.323177 196.0
61.343758 152.0
61.412369 160.0
61.477894 132.0
61.49194 152.0
61.551262 88.0
61.652321 196.0
61.713764 124.0
61.754421 236.0
61.788837 136.0
61.851433 188.0
61.866543 184.0
61.919712 168.0
61.990822 144.0
62.00806 120.0
62.019032 200.0
62.051952 204.0
62.089584 160.0
62.114681 136.0
62.135075 124.0
62.174305 204.0
62.288921 64.0
62.321728 172.0
62.488575 124.0
62.553097 148.0
62.573563 136.0
62.605057 148.0
62.675941 176.0
62.730255 140.0
62.748444 168.0
62.814678 96.0
62.882526 108.0
62.899887 160.0
62.917255 144.0
63.03513 216.0
63.081547 144.0
63.184341 180.0
63.217567 168.0
63.238144 152.0
63.26347 76.0
63.326805 40.0
63.344231 120.0
63.399731 144.0
63.417118 164.0
63.553501 200.0
63.57254 160.0
63.591587 188.0
63.613808 212.0
63.647148 112.0
63.66938 316.0
63.697971 164.0
63.791725 156.0
63.898277 52.0
63.974667 228.0
63.990585 148.0
64.043137 48.0
64.143524 48.0
64.159462 168.0
64.196136 128.0
64.207298 124.0
64.234413 76.0
64.273651 164.0
64.370071 188.0
64.411598 116.0
64.469116 228.0
64.526657 216.0
64.551476 300.0
64.693039 180.0
64.757088 80.0
64.837196 168.0
64.957451 184.0
65.05114 156.0
65.151695 156.0
65.176834 156.0
65.212753 156.0
65.241684 104.0
65.412163 152.0
65.516876 232.0
65.581337 176.0
65.59584 64.0
65.610352 172.0
65.636147 96.0
65.695824 208.0
65.740997 124.0
65.763596 112.0
65.829788 192.0
65.883087 120.0
65.917015 180.0
65.970284 176.0
66.022095 152.0
66.060913 116.0
66.073853 152.0
66.109451 116.0
66.127251 224.0
66.167725 192.0
66.196869 256.0
66.271378 156.0
66.299545 188.0
66.328102 244.0
66.394577 128.0
66.439995 272.0
66.463173 196.0
66.609528 248.0
66.747765 140.0
66.787621 160.0
66.834801 220.0
66.857582 140.0
66.873856 180.0
66.919434 36.0
67.036713 148.0
67.059532 144.0
67.111694 60.0
67.186722 212.0
67.243828 116.0
67.341057 268.0
67.367928 180.0
67.434921 128.0
67.632828 196.0
67.667206 180.0
67.793335 160.0
67.845779 184.0
67.955666 116.0
68.00573 172.0
68.041008 32.0
68.073853 160.0
68.154335 168.0
68.170769 44.0
68.295715 216.0
68.318748 172.0
68.336433 176.0
68.369751 176.0
68.382919 184.0
68.481346 236.0
68.534424 212.0
68.580566 80.0
68.604645 152.0
68.671249 164.0
68.742188 188.0
68.884178 140.0
68.905655 148.0
68.918869 160.0
69.042847 144.0
69.069313 144.0
69.137146 172.0
69.223228 156.0
69.2547 168.0
69.266289 112.0
69.349136 176.0
69.402184 240.0
69.470184 188.0
69.506683 204.0
69.519958 144.0
69.544853 152.0
69.597977 368.0
69.611 152.0
69.690994 220.0
69.707611 148.0
69.722565 168.0
69.789673 140.0
69.832291 60.0
69.902985 200.0
69.931267 164.0
69.952095 44.0
70.028694 148.0
70.065338 224.0
70.202011 92.0
70.292091 156.0
70.370544 64.0
70.382233 132.0
70.492477 112.0
70.52256 196.0
70.574387 104.0
70.666374 120.0
70.711555 140.0
70.763451 196.0
70.907509 64.0
70.979591 136.0
71.011459 212.0
71.038292 208.0
71.108765 208.0
71.126518 180.0
71.142334 192.0
71.175919 64.0
71.25486 128.0
71.278381 172.0
71.328796 104.0
71.467911 212.0
71.493011 176.0
71.601372 132.0
71.749649 228.0
71.805298 248.0
71.840721 160.0
71.936905 108.0
71.974052 144.0
71.992622 112.0
72.016273 172.0
72.028091 160.0
72.099052 92.0
72.200493 248.0
72.223541 144.0
72.321457 156.0
72.400185 136.0
72.518311 188.0
72.561157 236.0
72.63578 148.0
72.661224 184.0
72.763054 160.0
72.77494 196.0
72.902336 152.0
72.950157 176.0
72.966927 92.0
73.002632 100.0
73.067268 172.0
73.082581 224.0
73.172783 152.0
73.18811 128.0
73.211952 144.0
73.227425 376.0
73.435211 112.0
73.583672 152.0
73.674187 164.0
73.696396 220.0
73.732277 200.0
73.785271 188.0
73.804077 196.0
73.817757 160.0
73.829727 136.0
73.944351 244.0
73.961464 144.0
74.00769 96.0
74.048782 68.0
74.067627 164.0
74.185867 112.0
74.349731 156.0
74.455246 176.0
74.475861 276.0
74.587547 204.0
74.618492 176.0
74.651161 200.0
74.675018 188.0
74.764694 248.0
74.831825 164.0
74.864548 92.0
74.895546 88.0
74.923111 72.0
74.966187 152.0
75.017891 124.0
75.045471 56.0
75.059265 140.0
75.071342 160.0
75.159309 148.0
75.290504 220.0
75.333687 188.0
75.349236 204.0
75.385521 112.0
75.480591 188.0
75.52037 72.0
75.545296 204.0
75.615532 132.0
75.735344 160.0
75.862923 160.0
75.869423 132.0
75.876122 236.0
75.904831 428.0
75.939766 140.0
75.962067 112.0
76.007172 164.0
76.088028 164.0
76.236389 184.0
76.284637 216.0
76.325043 124.0
76.366783 120.0
76.406792 172.0
76.500763 152.0
76.526367 164.0
76.584343 164.0
76.61396 232.0
76.626152 80.0
76.647064 148.0
76.717651 120.0
76.833618 136.0
76.858047 148.0
76.940079 196.0
76.96801 176.0
77.272133 132.0
77.289635 160.0
77.319382 144.0
77.383301 140.0
77.434929 120.0
77.455948 92.0
77.471718 208.0
77.485733 200.0
77.5979 132.0
77.626114 132.0
77.641731 112.0
77.657516 160.0
77.68383 176.0
77.750504 68.0
77.816452 112.0
77.847061 44.0
77.962997 228.0
77.985847 168.0
78.03331 88.0
78.056694 132.0
78.091339 156.0
78.191628 140.0
78.215042 196.0
78.251472 64.0
78.323677 140.0
78.420586 248.0
78.485809 152.0
78.498154 224.0
78.51226 228.0
78.533669 148.0
78.552826 192.0
78.570473 160.0
78.626938 148.0
78.641052 200.0
78.685104 180.0
78.824722 156.0
78.865364 132.0
78.893646 92.0
79.026291 136.0
79.047523 236.0
79.093544 136.0
79.105934 200.0
79.142151 164.0
79.159042 124.0
79.178528 136.0
79.263557 188.0
79.35041 168.0
79.366364 144.0
79.550873 144.0
79.677498 172.0
79.717827 192.0
79.744484 160.0
79.789513 304.0
79.861832 204.0
79.890442 188.0
79.913422 180.0
80.013092 160.0
80.032677 128.0
80.271446 276.0
80.335648 188.0
80.440933 108.0
80.462357 180.0
80.523071 184.0
80.721436 224.0
80.767937 76.0
80.78582 200.0
80.82518 160.0
80.973763 68.0
81.036461 72.0
81.111732 164.0
81.249809 128.0
81.307228 164.0
81.328934 176.0
81.362877 108.0
81.386215 232.0
81.428154 192.0
81.497398 124.0
81.614403 156.0
81.695335 344.0
81.727722 156.0
81.74572 48.0
81.835716 252.0
81.896942 96.0
81.925766 148.0
81.943779 92.0
81.980911 192.0
82.082565 168.0
82.210648 148.0
82.38578 64.0
82.439987 132.0
82.662415 120.0
82.705849 236.0
82.799995 176.0
82.819916 144.0
82.839844 176.0
82.881516 148.0
83.026535 120.0
83.160789 128.0
83.362373 128.0
83.384186 160.0
83.512619 300.0
83.551468 180.0
83.622437 200.0
83.639717 148.0
83.702538 208.0
83.822441 160.0
83.857384 168.0
83.87014 164.0
83.915138 188.0
84.061638 148.0
84.103615 68.0
84.333755 180.0
84.348373 68.0
84.38311 240.0
84.441628 224.0
84.459915 160.0
84.487358 148.0
84.785812 48.0
84.798645 136.0
84.826134 104.0
84.859131 168.0
84.932487 164.0
84.989357 140.0
85.206009 172.0
85.231728 240.0
85.251945 128.0
85.26532 148.0
85.378792 156.0
85.439491 144.0
85.485489 148.0
85.507568 196.0
85.55175 120.0
85.575684 172.0
85.602219 136.0
85.669609 180.0
85.723038 168.0
85.735939 164.0
85.789391 180.0
85.817039 192.0
85.857613 104.0
85.879745 172.0
85.909256 44.0
85.92955 88.0
85.99044 148.0
86.060593 84.0
86.117836 196.0
86.145546 188.0
86.356262 160.0
86.389557 188.0
86.411758 88.0
86.52095 184.0
86.556129 112.0
86.570946 124.0
86.619095 164.0
86.746429 140.0
86.776619 84.0
86.874908 168.0
86.950989 84.0
87.00296 84.0
87.025238 224.0
87.075378 148.0
87.106949 188.0
87.186844 136.0
87.214722 140.0
87.27607 244.0
87.313263 136.0
87.339302 244.0
87.391388 164.0
87.523544 192.0
87.566689 284.0
87.663246 84.0
87.757629 120.0
87.814255 180.0
87.859024 80.0
87.877678 164.0
87.946724 100.0
88.07753 148.0
88.097977 128.0
88.125999 232.0
88.18206 224.0
88.389641 156.0
88.40461 136.0
88.430809 92.0
88.451637 160.0
88.54718 180.0
88.625565 172.0
88.688789 244.0
88.769897 196.0
88.99131 76.0
89.070183 172.0
89.093475 140.0
89.123672 144.0
89.190445 60.0
89.252434 164.0
89.317757 180.0
89.363449 188.0
89.46508 124.0
89.509323 136.0
89.540398 228.0
89.569046 172.0
89.644012 268.0
89.706207 76.0
89.791748 164.0
89.858963 44.0
89.897781 124.0
89.921234 136.0
89.949272 192.0
89.983528 152.0
90.000519 132.0
90.037178 464.0
90.076057 224.0
90.104401 140.0
90.187546 92.0
90.318008 228.0
90.341049 132.0
90.382332 132.0
90.395576 180.0
90.465607 144.0
90.514832 36.0
90.609535 60.0
90.661606 112.0
90.681541 180.0
90.700493 232.0
90.727806 244.0
90.920044 100.0
91.100883 200.0
91.188286 124.0
91.216797 156.0
91.273834 84.0
91.290947 196.0
91.321281 164.0
91.359421 52.0
91.389862 116.0
91.437431 260.0
91.462173 144.0
91.53833 136.0
91.627846 92.0
91.700256 120.0
91.725037 196.0
91.77079 220.0
91.783264 192.0
91.820374 220.0
91.850883 140.0
91.898766 208.0
91.952011 136.0
91.992096 172.0
92.009277 104.0
92.053108 180.0
92.337936 132.0
92.369072 172.0
92.471863 132.0
92.512054 144.0
92.535027 172.0
92.553276 328.0
92.648026 168.0
92.71125 140.0
92.751503 132.0
92.840446 336.0
92.964386 160.0
93.036507 160.0
93.058098 1620.0
93.146782 64.0
93.162148 136.0
93.190964 128.0
93.210182 228.0
93.294746 84.0
93.373581 144.0
93.421669 172.0
93.477463 104.0
93.492821 208.0
93.54483 120.0
93.57563 176.0
93.598732 48.0
93.720085 32.0
93.783676 172.0
93.798538 208.0
93.818375 140.0
93.964943 136.0
93.980377 212.0
94.001602 88.0
94.032478 128.0
94.070084 208.0
94.195412 156.0
94.213989 124.0
94.237167 148.0
94.321365 120.0
94.530968 140.0
94.548492 180.0
94.596878 120.0
94.643349 132.0
94.722748 88.0
94.904144 216.0
94.966972 140.0
95.06398 216.0
95.102379 244.0
95.164909 152.0
95.30864 184.0
95.366943 224.0
95.469986 268.0
95.508881 176.0
95.528336 140.0
95.600319 296.0
95.682076 176.0
95.701538 168.0
95.728798 196.0
95.824242 156.0
95.837883 184.0
95.867111 196.0
96.028015 120.0
96.192825 148.0
96.245537 128.0
96.264893 188.0
96.284592 168.0
96.35955 192.0
96.38031 172.0
96.397896 156.0
96.433075 188.0
96.481903 192.0
96.505402 252.0
96.566025 212.0
96.644272 204.0
96.877251 160.0
96.905243 180.0
96.963463 204.0
97.106583 128.0
97.126198 156.0
97.214485 164.0
97.236069 188.0
97.279251 232.0
97.33226 184.0
97.538544 200.0
97.623085 140.0
97.654549 160.0
97.684052 220.0
97.817863 320.0
97.841484 160.0
97.886772 176.0
97.959229 192.0
97.989197 192.0
98.117294 184.0
98.152786 148.0
98.253372 176.0
98.267181 204.0
98.513962 176.0
98.55011 200.0
98.638451 148.0
98.65229 60.0
98.668106 208.0
98.847153 152.0
98.889648 152.0
98.952995 156.0
99.001076 716.0
99.047272 264.0
99.127296 148.0
99.218468 240.0
99.238297 152.0
99.256142 352.0
99.341423 200.0
99.472389 200.0
99.548576 172.0
99.587555 400.0
99.629272 228.0
99.661514 208.0
99.875763 216.0
99.893661 172.0
99.951363 116.0
99.965286 140.0
99.997032 280.0
100.114494 664.0
100.305855 244.0
100.413528 120.0
100.433472 160.0
100.455414 156.0
100.485336 160.0
100.501297 284.0
100.559166 144.0
100.583122 144.0
100.621048 204.0
100.710907 160.0
100.752861 108.0
100.790817 136.0
100.821701 132.0
100.936737 168.0
100.999763 188.0
101.016609 212.0
101.073753 96.0
101.158813 148.0
101.178833 212.0
101.196854 204.0
101.238899 128.0
101.282959 188.0
101.361313 148.0
101.377121 164.0
101.395157 204.0
101.459122 168.0
101.479347 168.0
101.587646 100.0
101.631783 216.0
101.67794 144.0
101.716072 176.0
101.744179 52.0
101.768272 116.0
101.792366 164.0
101.808426 108.0
101.826508 204.0
101.98925 212.0
102.011818 344.0
102.061623 152.0
102.07972 64.0
102.094788 180.0
102.305061 168.0
102.423866 120.0
102.503502 204.0
102.599182 140.0
102.643539 64.0
102.704041 108.0
102.829132 112.0
102.857391 52.0
102.871521 184.0
102.932091 132.0
102.965027 232.0
103.014893 152.0
103.14624 36.0
103.196777 64.0
103.237221 164.0
103.397041 212.0
103.518501 68.0
103.579262 212.0
103.633957 168.0
103.649864 184.0
103.686646 84.0
103.74543 116.0
103.759621 104.0
103.814362 120.0
103.854927 84.0
103.934044 124.0
103.968071 172.0
104.006546 176.0
104.080185 180.0
104.157356 148.0
104.181732 80.0
104.24472 220.0
104.321953 136.0
104.413452 148.0
104.440674 180.0
104.482613 160.0
104.570107 176.0
104.592499 136.0
104.677368 196.0
104.720772 264.0
104.737061 72.0
104.773727 100.0
104.83078 148.0
104.851158 136.0
104.880135 184.0
104.916382 280.0
104.965691 196.0
104.994133 132.0
105.016304 148.0
105.043365 348.0
105.093819 216.0
105.157082 232.0
105.199944 184.0
105.340843 136.0
105.573845 208.0
105.631119 96.0
105.672028 204.0
105.712952 80.0
105.733421 64.0
105.803009 116.0
105.833725 136.0
105.872627 272.0
105.948418 36.0
106.001686 232.0
106.024223 136.0
106.041542 152.0
106.112366 148.0
106.139023 196.0
106.164062 208.0
106.227211 216.0
106.24157 212.0
106.2826 144.0
106.469406 36.0
106.500206 52.0
106.550301 148.0
106.651573 228.0
106.812637 184.0
106.898972 220.0
106.927856 116.0
107.045204 332.0
107.061676 64.0
107.07962 208.0
107.123466 240.0
107.168793 116.0
107.308945 112.0
107.326485 128.0
107.354301 64.0
107.371902 92.0
107.395554 196.0
107.513153 180.0
107.556175 212.0
107.568054 204.0
107.593651 264.0
107.626686 156.0
107.641136 136.0
107.661789 68.0
107.698959 172.0
107.760933 184.0
107.926285 132.0
107.963509 176.0
107.996597 176.0
108.019348 208.0
108.069 144.0
108.11866 208.0
108.174545 284.0
108.200035 140.0
108.228996 200.0
108.249077 128.0
108.265648 144.0
108.315826 228.0
108.346428 124.0
108.38372 208.0
108.418945 164.0
108.479057 152.0
108.559914 236.0
108.659477 184.0
108.682297 160.0
108.746628 140.0
108.823433 56.0
108.862885 160.0
108.876747 148.0
108.900269 164.0
108.945969 160.0
109.005463 236.0
109.087273 152.0
109.145538 172.0
109.216194 132.0
109.268204 152.0
109.291756 152.0
109.316055 188.0
109.349358 136.0
109.395149 144.0
109.464447 168.0
109.478432 196.0
109.528412 172.0
109.622169 148.0
109.805618 224.0
109.834824 172.0
109.876541 164.0
109.891144 108.0
109.962097 100.0
110.1521 124.0
110.20224 80.0
110.304642 108.0
110.371544 96.0
110.392593 172.0
110.460182 240.0
110.549339 140.0
110.591202 36.0
110.668655 188.0
110.710533 160.0
110.737762 192.0
110.779648 156.0
110.878128 144.0
110.913757 144.0
110.996849 228.0
111.020683 116.0
111.039558 136.0
111.060532 56.0
111.15284 176.0
111.261978 152.0
111.297676 156.0
111.359886 160.0
111.38768 196.0
111.40947 156.0
111.472015 148.0
111.604553 148.0
111.645287 200.0
111.705391 192.0
111.848473 172.0
111.905312 124.0
111.995865 168.0
112.069595 136.0
112.128914 196.0
112.406967 112.0
112.425957 64.0
112.527275 160.0
112.544167 176.0
112.643425 152.0
112.755409 176.0
112.810364 172.0
112.878021 148.0
112.960503 108.0
113.002914 1196.0
113.062057 28.0
113.102539 160.0
113.131905 148.0
113.148842 196.0
113.290733 96.0
113.314034 196.0
113.375488 176.0
113.396675 52.0
113.441193 172.0
113.532364 168.0
113.606598 84.0
113.663879 184.0
113.80835 212.0
113.854935 140.0
113.891037 76.0
113.976013 52.0
114.005791 200.0
114.082275 176.0
114.124329 252.0
114.155632 160.0
114.175835 48.0
114.239639 124.0
114.263046 132.0
114.318367 76.0
114.358803 168.0
114.401375 128.0
114.435432 224.0
114.563675 240.0
114.625 248.0
114.729843 168.0
114.75502 200.0
114.847923 160.0
114.876579 176.0
114.897911 224.0
114.916046 256.0
114.94912 152.0
114.978996 180.0
114.999458 804.0
115.040894 156.0
115.079445 144.0
115.243782 84.0
115.271561 128.0
115.329262 88.0
115.357048 276.0
115.408356 68.0
115.44043 208.0
115.492111 148.0
115.566635 80.0
115.581612 160.0
115.70575 64.0
115.722878 124.0
115.778053 172.0
115.922081 92.0
115.971367 128.0
115.988518 128.0
116.044258 136.0
116.07856 160.0
116.105118 324.0
116.134323 140.0
116.256607 152.0
116.323143 132.0
116.344543 136.0
116.424057 156.0
116.574425 96.0
116.615257 172.0
116.711998 116.0
116.739952 180.0
116.82383 188.0
116.916351 128.0
116.974464 196.0
117.071022 128.0
117.115555 168.0
117.134064 168.0
117.168274 96.0
117.353622 116.0
117.403473 220.0
117.452827 140.0
117.606018 156.0
117.672943 120.0
117.755302 228.0
117.787392 208.0
117.811157 192.0
117.882454 200.0
117.964584 92.0
117.987129 188.0
118.025124 188.0
118.09565 228.0
118.118111 160.0
118.137581 124.0
118.206818 108.0
118.360504 164.0
118.447128 240.0
118.483955 108.0
118.533791 128.0
118.689857 132.0
118.761421 136.0
118.848198 60.0
118.911125 244.0
119.008812 108.0
119.058701 444.0
119.165192 92.0
119.182571 40.0
119.258629 196.0
119.304283 124.0
119.382553 164.0
119.423874 120.0
119.460854 164.0
119.539177 216.0
119.560936 292.0
119.587059 148.0
119.645828 280.0
119.722038 124.0
119.763412 192.0
119.800446 168.0
119.909393 116.0
119.996582 144.0
120.044075 1196.0
120.066139 196.0
120.096893 88.0
120.127083 176.0
120.155792 140.0
120.201614 76.0
120.238708 124.0
120.277992 160.0
120.42865 136.0
120.48645 136.0
120.566292 144.0
120.647163 180.0
120.693077 280.0
120.749931 112.0
120.951225 148.0
121.005951 160.0
121.054764 188.0
121.130783 212.0
121.159256 108.0
121.220604 168.0
121.356506 164.0
121.391586 136.0
121.528725 208.0
121.548241 116.0
121.589027 144.0
121.679024 164.0
121.720795 160.0
121.762459 128.0
121.830551 128.0
121.845932 196.0
121.937233 64.0
121.984375 200.0
122.019554 140.0
122.118507 124.0
122.144897 176.0
122.276909 128.0
122.342949 172.0
122.428818 160.0
122.499298 160.0
122.527931 164.0
122.558777 188.0
122.629295 136.0
122.662361 184.0
122.715271 160.0
122.887299 92.0
122.912964 216.0
122.953499 136.0
123.030754 132.0
123.074905 156.0
123.115219 316.0
123.141159 204.0
123.225098 56.0
123.27813 64.0
123.357697 180.0
123.373169 108.0
123.424019 280.0
123.439499 156.0
123.558601 184.0
123.603188 104.0
123.75148 188.0
123.777916 200.0
123.852158 164.0
123.959694 48.0
124.017311 140.0
124.125938 180.0
124.165855 180.0
124.196907 132.0
124.263458 216.0
124.423347 92.0
124.460991 124.0
124.567596 204.0
124.583145 116.0
124.632027 112.0
124.852089 148.0
124.881004 180.0
124.935913 204.0
125.032288 64.0
125.047867 88.0
125.083481 120.0
125.179214 132.0
125.24157 160.0
125.263847 176.0
125.28167 128.0
125.573669 168.0
125.640587 108.0
125.725372 184.0
125.752151 100.0
125.866005 208.0
125.930763 48.0
125.966507 96.0
126.011292 3052.0
126.038445 160.0
126.134094 144.0
126.172096 36.0
126.225754 36.0
126.40918 92.0
126.492447 176.0
126.570351 36.0
126.603935 260.0
126.702492 144.0
126.789879 180.0
126.816772 92.0
126.917648 116.0
126.949043 176.0
126.96698 88.0
127.018562 756.0
127.057663 236.0
127.11055 160.0
127.276657 152.0
127.330551 176.0
127.359749 140.0
127.42939 156.0
127.452057 88.0
127.47657 184.0
127.629425 48.0
127.683395 228.0
127.709846 84.0
127.762115 216.0
127.813866 144.0
127.852119 164.0
127.883629 184.0
127.933151 48.0
128.008759 1204.0
128.026199 2212.0
128.061493 296.0
128.122314 36.0
128.165115 212.0
128.25 48.0
128.291336 108.0
128.313873 192.0
128.343185 200.0
128.440155 144.0
128.573273 124.0
128.631958 236.0
128.679367 172.0
128.858566 196.0
128.930084 96.0
128.959198 132.0
128.982071 176.0
129.011505 1060.0
129.079285 188.0
129.101898 160.0
129.156174 36.0
129.197739 96.0
129.285141 160.0
129.32135 40.0
129.355301 56.0
129.393784 144.0
129.420959 136.0
129.479828 172.0
129.516068 144.0
129.586288 192.0
129.624817 344.0
129.665604 104.0
129.695068 80.0
129.741013 60.0
129.823303 164.0
129.90773 204.0
129.944519 96.0
130.023895 1148.0
130.080673 32.0
130.11319 288.0
130.134781 188.0
130.162506 152.0
130.225998 180.0
130.241898 184.0
130.27597 184.0
130.321411 108.0
130.364578 120.0
130.480499 108.0
130.562363 96.0
130.615799 184.0
130.712494 168.0
130.789169 52.0
130.85817 128.0
130.969742 152.0
131.011292 384.0
131.032913 324.0
131.097336 108.0
131.12413 168.0
131.300232 144.0
131.437088 176.0
131.464478 128.0
131.491867 144.0
131.510117 52.0
131.643799 152.0
131.70192 140.0
131.880035 92.0
131.941849 56.0
131.976151 176.0
132.050262 136.0
132.328491 28.0
132.349091 180.0
132.394897 196.0
132.54837 160.0
132.566711 188.0
132.642334 132.0
132.763855 164.0
132.80513 136.0
132.851013 176.0
132.93132 156.0
132.977219 212.0
133.002594 212.0
133.034592 52.0
133.172363 160.0
133.302185 196.0
133.318237 220.0
133.353867 40.0
133.492233 108.0
133.514801 196.0
133.579208 152.0
133.63736 188.0
133.66954 152.0
133.956726 148.0
134.196396 168.0
134.323227 156.0
134.346298 136.0
134.383209 140.0
134.415512 136.0
134.513351 144.0
134.608261 288.0
134.674072 248.0
134.738754 180.0
134.824249 160.0
134.875092 148.0
134.956009 116.0
134.997635 116.0
135.150299 160.0
135.235916 112.0
135.263687 212.0
135.28685 160.0
135.337784 88.0
135.372513 196.0
135.441025 176.0
135.472107 136.0
135.490631 136.0
135.516113 72.0
135.662003 160.0
135.689941 148.0
135.752548 176.0
135.81517 128.0
135.910278 184.0
136.014709 140.0
136.043045 176.0
136.075073 156.0
136.095963 36.0
136.112213 164.0
136.198151 228.0
136.428192 148.0
136.449112 156.0
136.467712 192.0
136.486313 156.0
136.521194 120.0
136.618881 156.0
136.774796 224.0
136.840439 100.0
136.860657 176.0
137.041962 192.0
137.068237 240.0
137.095322 96.0
137.135437 172.0
137.247711 172.0
137.266357 200.0
137.292007 120.0
137.338654 144.0
137.373642 212.0
137.434311 380.0
137.464645 164.0
137.480972 184.0
137.63504 248.0
137.766281 184.0
138.008881 228.0
138.057983 140.0
138.081375 36.0
138.195999 136.0
138.284912 184.0
138.322372 92.0
138.345779 180.0
138.362167 196.0
138.413666 160.0
138.455826 236.0
138.549515 100.0
138.598724 168.0
138.715897 80.0
138.762787 248.0
138.837814 172.0
138.861267 132.0
138.997131 188.0
139.002563 172.0
139.020874 244.0
139.122574 308.0
139.24382 220.0
139.262604 124.0
139.516388 192.0
139.542252 60.0
139.617493 160.0
139.652771 212.0
139.704514 192.0
139.985321 144.0
140.013687 324.0
140.052887 144.0
140.088226 156.0
140.111786 212.0
140.153366 140.0
140.312103 164.0
140.347473 184.0
140.529083 156.0
140.613678 136.0
140.658875 220.0
140.68248 176.0
140.71553 52.0
140.821793 176.0
140.858551 180.0
140.917252 156.0
140.921524 200.0
140.958267 192.0
140.998383 16696.0
141.031128 208.0
141.074631 112.0
141.104172 120.0
141.120865 136.0
141.140823 80.0
141.157379 220.0
141.199249 96.0
141.259079 64.0
141.308746 140.0
141.351349 60.0
141.445923 104.0
141.52887 44.0
141.597534 56.0
141.621231 168.0
141.723083 140.0
141.817886 148.0
141.870026 148.0
141.949554 176.0
142.001007 1696.0
142.026535 168.0
142.062103 120.0
142.088211 112.0
142.119415 292.0
142.169434 52.0
142.213974 172.0
142.282806 108.0
142.324875 252.0
142.389664 244.0
142.564423 144.0
142.607315 176.0
142.720947 136.0
142.765152 212.0
142.850769 132.0
142.938416 196.0
142.995071 4068.0
143.024734 168.0
143.090622 192.0
143.113312 160.0
143.129929 164.0
143.166519 188.0
143.198288 184.0
143.213898 148.0
143.240448 236.0
143.288803 168.0
143.31868 188.0
143.367233 144.0
143.424637 60.0
143.443695 60.0
143.496155 112.0
143.539062 208.0
143.570068 60.0
143.601074 132.0
143.624924 108.0
143.646393 76.0
143.744202 176.0
143.851608 144.0
143.877869 28.0
143.896439 144.0
143.939941 36.0
144.020142 1464.0
144.049805 172.0
144.130585 148.0
144.269653 184.0
144.288773 108.0
144.365295 48.0
144.445129 124.0
144.48967 132.0
144.539917 212.0
144.634186 192.0
144.673935 100.0
144.740982 80.0
144.853531 120.0
144.932724 144.0
144.951767 180.0
144.984543 148.0
145.026611 204.0
145.049774 424.0
145.124344 120.0
145.285034 168.0
145.333008 260.0
145.3965 188.0
145.582657 160.0
145.650696 228.0
145.753204 144.0
145.794052 200.0
145.820496 152.0
146.014893 376.0
146.046494 132.0
146.097015 220.0
146.166779 140.0
146.210419 152.0
146.24379 72.0
146.339081 204.0
146.388229 152.0
146.450851 128.0
146.559265 172.0
146.619553 164.0
146.67012 44.0
146.686981 68.0
146.812363 140.0
146.882309 132.0
146.918488 284.0
146.97731 188.0
147.025192 180.0
147.056335 672.0
147.079437 224.0
147.116364 176.0
147.171906 164.0
147.200867 32.0
147.244339 92.0
147.304718 212.0
147.356857 152.0
147.430359 124.0
147.528046 220.0
147.604416 216.0
147.662445 136.0
148.018188 232.0
148.062286 6332.0
148.144119 204.0
148.16835 288.0
148.197418 36.0
148.330704 176.0
148.409668 196.0
148.645996 152.0
148.764923 56.0
148.914185 152.0
148.993195 160.0
149.019913 136.0
149.067215 732.0
149.117111 344.0
149.158432 196.0
149.187607 160.0
149.333496 144.0
149.361221 220.0
149.401611 92.0
149.421188 192.0
149.511093 232.0
149.552475 156.0
149.74968 148.0
149.822769 192.0
149.854431 148.0
149.995773 148.0
150.025024 160.0
150.042099 140.0
150.068481 228.0
150.142059 124.0
150.220108 36.0
150.397644 232.0
150.517868 92.0
150.574036 160.0
150.593567 192.0
150.784134 112.0
150.850128 40.0
150.86969 252.0
150.934708 108.0
151.006622 132.0
151.111801 148.0
151.163177 124.0
151.204788 212.0
151.253738 144.0
151.305145 48.0
151.368805 196.0
151.388397 176.0
151.559647 144.0
151.56958 132.0
151.778 312.0
151.878555 144.0
152.018402 120.0
152.065018 452.0
152.428482 240.0
152.519409 36.0
152.539078 112.0
152.600525 200.0
152.755463 172.0
152.798569 252.0
152.832718 380.0
152.954773 156.0
153.020218 280.0
153.043396 48.0
153.164078 184.0
153.205948 28.0
153.304504 128.0
153.334076 116.0
153.361084 196.0
153.392578 256.0
153.442535 140.0
153.491852 192.0
153.541229 136.0
153.73378 188.0
153.777161 164.0
153.889908 244.0
153.950867 228.0
154.006821 2720.0
154.054413 204.0
154.08667 164.0
154.123734 92.0
154.155853 176.0
154.208649 144.0
154.247299 168.0
154.393173 188.0
154.422852 152.0
154.599777 212.0
154.781677 128.0
154.818832 288.0
154.880737 100.0
154.937714 132.0
154.984787 180.0
155.011368 576.0
155.131012 180.0
155.149673 180.0
155.219482 220.0
155.272339 120.0
155.356674 92.0
155.383957 140.0
155.454712 156.0
155.464859 80.0
155.469208 124.0
155.515488 56.0
155.550232 100.0
155.589951 188.0
155.672897 204.0
155.868118 136.0
155.909454 120.0
156.021545 7616.0
156.084229 208.0
156.116699 108.0
156.143417 264.0
156.254074 216.0
156.295792 28.0
156.362198 304.0
156.442642 144.0
156.475006 148.0
156.654312 40.0
156.671738 216.0
156.691681 160.0
156.758347 132.0
156.826233 120.0
157.02005 740.0
157.337601 56.0
157.509903 52.0
157.552368 108.0
157.597336 212.0
157.614822 148.0
157.662308 64.0
157.704788 132.0
157.761185 228.0
157.782288 140.0
158.018326 2328.0
158.064911 56.0
158.099731 184.0
158.132477 56.0
158.170929 156.0
158.192551 36.0
158.347794 96.0
158.453003 116.0
158.608368 44.0
158.706131 40.0
158.847809 164.0
159.024414 192.0
159.197952 104.0
159.451675 184.0
159.479324 232.0
159.506973 164.0
159.542175 212.0
159.692474 180.0
159.869141 108.0
159.916962 84.0
160.351486 76.0
160.468628 160.0
160.493835 120.0
160.565567 224.0
160.688049 144.0
160.715805 200.0
160.863754 196.0
160.88237 120.0
160.948013 108.0
161.018723 92.0
161.084396 272.0
161.342148 300.0
161.524216 148.0
161.552048 120.0
161.577347 56.0
161.708923 208.0
161.754486 148.0
161.858276 116.0
161.883606 148.0
162.005173 180.0
162.043182 180.0
162.09639 240.0
162.139465 144.0
162.214706 224.0
162.415817 148.0
162.565506 176.0
162.598282 184.0
162.631485 424.0
162.740646 216.0
163.088699 284.0
163.119171 192.0
163.242432 204.0
163.274277 120.0
163.518509 164.0
163.574493 104.0
163.768021 204.0
163.785843 132.0
163.849533 160.0
163.91127 188.0
163.943802 160.0
163.994766 104.0
164.063599 144.0
164.089096 212.0
164.239548 148.0
164.265045 120.0
164.339035 196.0
164.504913 180.0
164.576401 120.0
164.701538 32.0
164.852264 228.0
164.89061 100.0
164.995407 204.0
165.153946 40.0
165.212372 200.0
165.336746 236.0
165.476379 224.0
165.535263 160.0
165.571121 80.0
165.66333 208.0
165.701752 88.0
165.753006 180.0
165.811935 160.0
165.923691 180.0
165.9478 136.0
166.037537 216.0
166.104233 184.0
166.163239 108.0
166.188889 192.0
166.214554 36.0
166.432724 160.0
166.5103 228.0
166.550171 152.0
166.579117 148.0
166.679306 156.0
166.805237 176.0
166.910645 244.0
166.967209 228.0
166.990356 68.0
167.03923 164.0
167.139572 152.0
167.273392 204.0
167.371231 64.0
167.407272 172.0
167.451233 132.0
167.553421 264.0
167.633957 184.0
167.749939 192.0
167.780869 104.0
167.89949 112.0
167.945908 172.0
168.009094 14444.0
168.092667 36.0
168.110031 84.0
168.156769 176.0
168.196869 100.0
168.240067 80.0
168.304611 44.0
168.364014 112.0
168.434799 156.0
168.524155 72.0
168.550003 148.0
168.627518 28.0
168.6474 208.0
168.664719 144.0
168.697311 52.0
168.728333 140.0
168.746429 164.0
168.789337 128.0
168.840912 168.0
168.883484 132.0
168.92897 220.0
168.993179 8608.0
169.069763 76.0
169.093048 160.0
169.177032 108.0
169.235428 176.0
169.253555 88.0
169.296967 84.0
169.36232 188.0
169.394028 188.0
169.455582 96.0
169.481491 156.0
169.528122 108.0
169.621429 92.0
169.64476 140.0
169.694016 140.0
169.720215 156.0
169.776993 132.0
169.815887 52.0
169.951889 188.0
170.003815 6744.0
170.062378 148.0
170.095154 204.0
170.127274 120.0
170.148041 224.0
170.173996 116.0
170.204361 264.0
170.246704 176.0
170.322021 160.0
170.350586 92.0
170.374664 60.0
170.480499 76.0
170.524673 72.0
170.594864 60.0
170.644257 212.0
170.714462 200.0
170.737869 36.0
170.922562 140.0
170.991562 2752.0
171.053925 124.0
171.141205 140.0
171.242752 128.0
171.271408 48.0
171.401093 144.0
171.433746 180.0
171.485062 76.0
171.508514 180.0
171.602356 56.0
171.646683 140.0
171.745789 76.0
171.766647 140.0
171.818832 52.0
171.84491 168.0
171.899704 156.0
171.946686 72.0
171.99614 1164.0
172.103302 232.0
172.207764 92.0
172.283508 164.0
172.403702 172.0
172.454727 152.0
172.484894 180.0
172.50563 120.0
172.529816 80.0
172.548294 228.0
172.594528 204.0
172.615448 168.0
172.795914 116.0
172.819458 100.0
172.966019 148.0
173.003113 164.0
173.068115 68.0
173.288116 164.0
173.459351 236.0
173.529236 176.0
173.58168 232.0
173.613144 88.0
173.762604 184.0
173.817764 48.0
173.857117 260.0
173.891235 124.0
173.954224 160.0
174.017242 96.0
174.054001 184.0
174.08345 184.0
174.208954 176.0
174.264114 160.0
174.333984 156.0
174.392883 184.0
174.509583 92.0
174.742615 104.0
174.903152 184.0
174.934738 144.0
175.079544 144.0
175.148026 200.0
175.366714 176.0
175.527527 140.0
175.548615 144.0
175.819229 124.0
175.883667 152.0
175.917984 40.0
175.936462 160.0
176.02359 144.0
176.145081 172.0
176.475418 76.0
176.541534 116.0
176.647324 108.0
176.668488 96.0
176.806076 80.0
176.851059 184.0
176.991364 112.0
177.015198 164.0
177.068161 184.0
177.099289 96.0
177.264206 160.0
177.298645 188.0
177.375504 204.0
177.466675 144.0
177.494812 140.0
177.545197 56.0
177.850296 64.0
177.932587 172.0
177.972412 116.0
178.017563 208.0
178.132217 208.0
178.259354 160.0
178.402802 84.0
178.424072 124.0
178.445343 64.0
178.474594 116.0
178.543732 184.0
178.62352 180.0
178.668747 48.0
178.8284 204.0
178.894943 156.0
178.93869 232.0
178.980133 216.0
179.038727 80.0
179.081329 84.0
179.131943 92.0
179.169235 72.0
179.214523 204.0
179.23851 220.0
179.374084 156.0
179.513062 184.0
179.563736 124.0
179.646423 172.0
179.722366 180.0
179.779816 140.0
179.798508 104.0
179.972015 160.0
180.001389 76.0
180.028091 144.0
180.092178 136.0
180.124237 148.0
180.164307 220.0
180.204376 196.0
180.265549 172.0
180.442245 104.0
180.515213 164.0
180.570587 236.0
180.624084 176.0
180.682938 96.0
180.757858 60.0
180.779266 136.0
180.822083 192.0
180.959351 172.0
181.019104 1116.0
181.226425 92.0
181.255905 132.0
181.347015 64.0
181.42215 132.0
181.440842 176.0
181.596756 188.0
181.641953 144.0
181.672943 224.0
181.741226 140.0
181.966675 116.0
182.024002 2112.0
182.055283 104.0
182.095566 96.0
182.18689 80.0
182.262115 144.0
182.286301 112.0
182.376251 228.0
182.75415 160.0
182.786453 244.0
182.867172 152.0
182.886017 92.0
182.91832 156.0
182.964218 152.0
183.032715 33756.0
183.098389 204.0
183.106796 184.0
183.113129 204.0
183.151855 60.0
183.182205 244.0
183.252808 140.0
183.326004 240.0
183.419327 184.0
183.446198 128.0
183.503677 140.0
183.541016 172.0
183.560364 344.0
183.582657 256.0
183.629639 132.0
183.685379 196.0
183.695892 156.0
183.753723 88.0
183.786758 164.0
183.819794 180.0
183.868484 144.0
183.897659 164.0
183.927643 380.0
183.966827 164.0
183.975586 304.0
184.017395 161576.0
184.091705 104.0
184.119019 128.0
184.14711 164.0
184.181885 136.0
184.217316 116.0
184.2453 76.0
184.266602 164.0
184.323273 148.0
184.362686 80.0
184.393692 176.0
184.419632 60.0
184.43869 160.0
184.461594 428.0
184.503677 232.0
184.576187 212.0
184.618073 104.0
184.655777 204.0
184.70668 132.0
184.745193 52.0
184.799301 64.0
184.827332 56.0
184.934692 132.0
184.947128 60.0
184.965164 180.0
185.023178 14288.0
185.105347 176.0
185.12587 68.0
185.148483 76.0
185.171783 100.0
185.212173 132.0
185.229782 268.0
185.285507 68.0
185.302887 104.0
185.357071 176.0
185.430344 100.0
185.470642 172.0
185.479507 80.0
185.490509 120.0
185.533829 248.0
185.564362 84.0
185.634064 236.0
185.681076 92.0
185.689377 48.0
185.700272 120.0
185.726562 164.0
185.746109 56.0
185.778015 196.0
185.837448 96.0
185.860458 156.0
185.916351 248.0
185.940933 164.0
185.96817 248.0
186.013779 37080.0
186.111954 236.0
186.150787 160.0
186.170044 160.0
186.194183 116.0
186.218658 180.0
186.227295 96.0
186.237625 176.0
186.271729 184.0
186.306046 176.0
186.336105 72.0
186.355301 104.0
186.365204 112.0
186.373566 76.0
186.384216 72.0
186.395142 96.0
186.406036 84.0
186.414444 112.0
186.459686 208.0
186.482666 88.0
186.508011 84.0
186.540207 128.0
186.570984 152.0
186.618393 120.0
186.643677 60.0
186.748245 80.0
186.768784 72.0
186.826294 112.0
186.928604 128.0
186.945618 44.0
187.012268 2044.0
187.099442 124.0
187.129807 156.0
187.154892 68.0
187.199341 212.0
187.273972 72.0
187.331818 160.0
187.370377 100.0
187.41124 112.0
187.430313 124.0
187.473907 56.0
187.522964 56.0
187.557495 72.0
187.61676 64.0
187.686523 152.0
187.72197 88.0
187.749252 204.0
187.879059 108.0
187.900467 56.0
187.953842 84.0
188.008835 232.0
188.052078 156.0
188.074463 196.0
188.112518 112.0
188.191299 76.0
188.265015 60.0
188.336029 76.0
188.40979 116.0
188.458954 28.0
188.494476 72.0
188.554596 80.0
188.683075 64.0
188.767838 56.0
188.998199 428.0
189.044113 204.0
189.091324 128.0
189.183701 244.0
189.207077 228.0
189.304169 112.0
189.383591 164.0
189.479462 80.0
189.709671 44.0
189.804352 164.0
189.89064 204.0
189.998367 260.0
190.203415 128.0
190.590012 52.0
190.684067 152.0
190.994766 132.0
191.055283 164.0
191.117004 220.0
191.192856 60.0
191.333221 160.0
191.360764 132.0
191.424088 92.0
191.72435 160.0
191.757431 140.0
191.917313 156.0
192.063477 92.0
192.084549 168.0
192.204163 68.0
192.314545 172.0
192.477432 76.0
192.509979 112.0
192.546463 68.0
192.632095 48.0
192.68457 92.0
192.728775 216.0
193.005188 156.0
193.101974 148.0
193.160049 240.0
193.256882 112.0
193.287323 68.0
193.417389 144.0
193.55304 332.0
193.613968 172.0
193.638885 68.0
193.730301 132.0
193.760773 120.0
193.948105 152.0
193.968597 104.0
194.207062 96.0
194.240341 152.0
194.420685 88.0
194.445663 124.0
194.476196 108.0
194.567795 108.0
194.590012 60.0
194.70108 192.0
194.967773 148.0
195.045593 132.0
195.078949 132.0
195.22908 88.0
195.345901 208.0
195.368149 56.0
195.741104 148.0
195.922134 152.0
196.017654 244.0
196.05867 164.0
196.329681 160.0
196.430527 124.0
196.45459 200.0
196.479706 152.0
196.504807 120.0
196.577347 76.0
196.683411 172.0
196.747604 116.0
196.820206 180.0
197.006699 156.0
197.077164 84.0
197.303543 104.0
197.351074 220.0
197.432159 156.0
197.602783 96.0
197.661545 144.0
197.777374 164.0
198.101105 72.0
198.182556 156.0
198.232788 100.0
198.260803 52.0
198.987289 104.0
199.008011 144.0
199.035019 156.0
199.12207 160.0
199.279373 168.0
199.394592 132.0
199.417068 96.0
199.456421 172.0
199.55481 100.0
199.771362 32.0
199.7995 128.0
199.966675 232.0
200.007721 188.0
200.103439 172.0
200.607712 164.0
200.660278 96.0
200.72049 96.0
200.788162 220.0
200.864319 176.0
200.974335 144.0
201.036423 48.0
201.098511 52.0
201.13237 160.0
201.180359 160.0
201.266281 208.0
201.366714 144.0
201.462753 84.0
201.513611 128.0
201.852783 148.0
201.937622 188.0
201.988541 76.0
202.01683 180.0
202.104218 468.0
202.381912 44.0
202.413055 92.0
202.662308 88.0
202.951416 220.0
203.002457 76.0
203.030807 60.0
203.093201 108.0
203.393967 104.0
203.513199 204.0
203.640991 132.0
203.848373 256.0
203.942154 216.0
203.993317 88.0
204.303284 160.0
204.340271 128.0
204.43985 144.0
204.542313 112.0
204.565079 164.0
204.775787 196.0
204.89827 124.0
205.220322 136.0
205.457047 176.0
205.551193 136.0
205.602554 120.0
205.653931 228.0
205.673904 52.0
206.293762 224.0
206.445297 156.0
206.499634 132.0
206.791458 152.0
206.822937 180.0
206.891647 140.0
207.24678 204.0
207.438782 120.0
207.696854 152.0
207.840302 224.0
207.871857 136.0
208.262299 156.0
208.359955 168.0
208.417419 176.0
208.546738 204.0
208.753738 120.0
209.251511 76.0
209.274536 40.0
209.715286 120.0
209.830597 196.0
210.240173 164.0
210.424911 80.0
210.475708 188.0
210.528854 164.0
210.699265 200.0
210.751282 128.0
211.027588 2104.0
211.057663 144.0
211.083344 136.0
211.132843 136.0
211.318466 116.0
211.338211 228.0
211.379929 176.0
211.439499 96.0
211.59581 168.0
211.627655 172.0
211.650818 112.0
211.833267 292.0
211.929581 216.0
212.035599 46688.0
212.094406 164.0
212.141754 72.0
212.168015 84.0
212.207108 80.0
212.244797 140.0
212.265106 100.0
212.298218 172.0
212.337601 64.0
212.360794 52.0
212.421707 36.0
212.442017 52.0
212.562714 80.0
212.589981 148.0
212.615524 192.0
212.714783 44.0
212.76123 88.0
212.80188 136.0
212.828003 48.0
212.864258 108.0
213.037659 3628.0
213.085144 196.0
213.136612 180.0
213.206497 188.0
213.281204 316.0
213.333939 72.0
213.38295 36.0
213.417831 128.0
213.488998 160.0
213.519608 152.0
213.551605 120.0
213.57196 84.0
213.702866 40.0
213.831558 180.0
213.937088 200.0
214.031876 7524.0
214.081375 212.0
214.105362 84.0
214.141388 56.0
214.164536 104.0
214.207962 56.0
214.256027 128.0
214.279327 68.0
214.378403 148.0
214.40361 128.0
214.532867 152.0
214.553284 44.0
214.578918 96.0
214.672821 144.0
214.696152 84.0
214.746368 236.0
214.76442 88.0
214.879913 96.0
214.904816 120.0
214.967453 48.0
214.990799 32.0
215.034988 1108.0
215.075958 184.0
215.125061 56.0
215.16008 176.0
215.215561 60.0
215.424225 64.0
215.481339 108.0
215.516403 60.0
215.756058 160.0
215.946121 124.0
216.124359 540.0
216.153824 152.0
216.177231 124.0
216.215271 64.0
216.288437 56.0
216.431885 156.0
216.472534 152.0
216.666199 180.0
216.794327 148.0
216.814163 216.0
216.903549 60.0
217.023758 168.0
217.067734 68.0
217.114655 160.0
217.457901 44.0
217.54303 232.0
218.124161 148.0
218.174622 160.0
218.601089 156.0
218.686432 60.0
218.9897 116.0
219.116364 112.0
219.856445 160.0
219.939087 172.0
220.244507 168.0
220.727875 156.0
220.824844 112.0
220.988174 116.0
221.023666 76.0
221.192368 100.0
221.239731 128.0
221.808472 188.0
222.374985 120.0
222.535278 112.0
222.968964 232.0
223.187653 184.0
223.266266 168.0
223.406052 152.0
223.709579 88.0
223.813782 176.0
223.950775 120.0
223.995453 68.0
224.373917 96.0
224.451431 60.0
224.585632 96.0
224.928757 44.0
224.98056 124.0
225.297363 108.0
225.579941 152.0
225.654678 224.0
225.744385 144.0
225.881958 60.0
225.945206 388.0
226.085403 164.0
226.169205 140.0
226.193161 188.0
226.264999 188.0
226.285965 36.0
226.34584 108.0
226.377563 228.0
226.421799 164.0
226.548264 368.0
226.583984 168.0
226.639374 184.0
226.684326 152.0
226.708298 60.0
226.75325 176.0
226.79631 144.0
226.831177 144.0
226.865967 192.0
226.8974 368.0
226.944672 168.0
226.967941 212.0
227.059677 97312.0
227.150009 172.0
227.17337 176.0
227.216278 192.0
227.246185 52.0
227.304504 428.0
227.338974 72.0
227.362 224.0
227.450882 60.0
227.507401 112.0
227.554382 444.0
227.586136 164.0
227.623016 156.0
227.65274 48.0
227.706329 112.0
227.757751 108.0
227.806412 36.0
227.83345 40.0
227.879211 76.0
227.951157 92.0
227.982132 68.0
228.007721 156.0
228.060699 8392.0
228.122025 228.0
228.179062 88.0
228.206116 124.0
228.26889 64.0
228.335419 92.0
228.369781 236.0
228.38797 76.0
228.419449 64.0
228.455002 188.0
228.530945 32.0
228.555023 128.0
228.594131 88.0
228.628677 108.0
228.687424 52.0
228.726303 96.0
228.734711 152.0
228.764053 96.0
228.813858 64.0
228.837936 136.0
228.861023 72.0
228.928131 176.0
228.997543 184.0
229.056351 30020.0
229.106827 184.0
229.130081 44.0
229.161209 76.0
229.209824 60.0
229.273483 64.0
229.31015 116.0
229.318405 88.0
229.360825 56.0
229.386993 252.0
229.429886 164.0
229.462479 136.0
229.496857 252.0
229.538101 64.0
229.572876 44.0
229.592819 84.0
229.644196 140.0
229.679657 128.0
229.724289 144.0
229.757141 132.0
229.791077 96.0
229.846146 56.0
229.872803 168.0
229.921371 176.0
229.953278 124.0
229.982452 36.0
229.992401 80.0
230.003159 196.0
230.057968 1612.0
230.159103 88.0
230.394119 48.0
230.418289 56.0
230.472672 76.0
230.557281 72.0
230.670288 72.0
230.705383 48.0
230.799103 148.0
230.826324 72.0
230.855911 56.0
231.09552 44.0
231.171967 96.0
231.325516 176.0
231.455704 56.0
231.607117 52.0
231.658615 128.0
231.688904 56.0
231.719208 84.0
231.776779 48.0
231.810104 48.0
231.936722 72.0
231.97377 64.0
231.998016 56.0
232.104126 88.0
232.186005 60.0
232.380142 60.0
232.935684 200.0
232.990372 96.0
233.218262 60.0
233.786987 68.0
234.106628 28.0
234.505722 52.0
234.584961 52.0
234.816696 60.0
235.292709 48.0
235.347672 132.0
235.595047 72.0
236.671585 60.0
237.054474 44.0
237.131088 56.0
237.965454 76.0
238.033005 76.0
238.161987 180.0
238.380112 128.0
238.662903 60.0
239.447586 88.0
239.746414 100.0
239.922104 68.0
240.850922 72.0
240.934326 84.0
241.076462 48.0
241.35466 60.0
241.382492 52.0
241.462891 92.0
241.722748 68.0
242.044662 60.0
242.760468 60.0
243.138931 76.0
246.205383 68.0
247.913452 72.0
248.719467 96.0
249.812973 32.0
250.518112 72.0
252.37381 64.0
253.168045 140.0
254.118958 144.0
255.58049 56.0
256.220428 128.0
258.996368 56.0
259.13092 76.0
260.263092 56.0
262.235046 88.0
262.857452 60.0
264.871582 88.0
265.720917 80.0
266.662598 52.0
267.732941 96.0
279.781342 56.0
281.976135 68.0
282.280334 76.0
282.56131 52.0
284.213043 68.0
284.871063 92.0
285.375183 100.0
288.328033 48.0
298.208435 208.0
300.0466 64.0
300.141266 156.0
300.843475 108.0
301.130066 120.0
301.68985 84.0
301.786652 124.0
302.208618 80.0
303.604553 60.0
306.374756 48.0
309.413025 100.0
310.934296 84.0
315.379028 108.0
318.63559 100.0
319.773468 128.0
321.259308 44.0
324.220612 88.0
325.033813 128.0
325.565063 92.0
328.221619 112.0
329.353882 84.0
331.122498 68.0
336.770782 80.0
345.615753 96.0
345.752655 64.0
345.893311 52.0
346.148743 40.0
347.909851 56.0
348.816254 120.0
361.213348 56.0
362.834106 72.0
362.89856 140.0
364.147003 56.0
364.70932 48.0
364.868988 128.0
366.745636 52.0
371.272278 60.0
371.836243 32.0
372.519684 112.0
372.973083 84.0
377.568848 112.0
380.311859 136.0
380.544769 112.0
382.445679 64.0
385.546234 96.0
387.784821 116.0
388.34549 128.0
388.714264 100.0
393.003143 28.0
393.713654 44.0
395.263245 48.0
397.101349 128.0
400.045654 76.0
400.78244 80.0
401.36438 72.0
402.417694 84.0
402.876984 44.0
406.841553 116.0
409.632324 128.0
409.700806 52.0
414.995148 56.0
416.382904 72.0
416.415405 56.0
418.868011 32.0
419.809479 36.0
421.184845 64.0
422.803894 40.0
423.33197 48.0
423.999725 124.0
428.186066 32.0
429.884521 76.0
435.149506 76.0
439.59903 84.0
440.718079 80.0
444.259918 60.0
446.469208 96.0
447.34436 112.0
449.970734 56.0
453.541016 48.0
457.785217 80.0
460.702545 84.0
467.601654 64.0
470.40329 76.0
473.953918 108.0
474.695129 36.0
479.172028 88.0
482.842987 64.0
486.527954 80.0
487.731567 148.0
488.136017 116.0
499.75592 128.0
505.364319 84.0
513.92804 92.0
520.318604 104.0
521.363342 116.0
524.768127 32.0
524.859314 48.0
527.429504 108.0
530.991577 80.0
537.588562 60.0
538.798279 60.0
545.64801 96.0
547.499878 48.0
549.396912 68.0
550.292969 104.0
553.256958 76.0
562.328918 44.0
568.201172 36.0
570.30957 104.0
571.446106 100.0
572.693298 96.0
574.986511 48.0
575.783813 80.0
588.098694 64.0
589.531616 56.0
594.06488 40.0
602.833557 148.0
607.553467 80.0
611.947083 124.0
615.472412 32.0
625.377258 108.0
642.313171 124.0
650.99292 40.0
653.778687 76.0
657.851013 104.0
662.765869 44.0
665.24292 56.0
673.832947 116.0
675.761353 84.0
685.877441 64.0
701.972717 36.0
707.165771 108.0
714.781067 80.0
716.665955 120.0
717.598694 48.0
723.234497 96.0
730.892517 132.0
742.018799 64.0
765.271973 76.0
766.241333 108.0
767.900513 44.0
768.049438 228.0
771.262939 156.0
779.615051 40.0
780.39325 188.0
783.047546 96.0
788.570923 92.0
798.381958 224.0
811.113586 96.0
815.336243 88.0
815.631836 72.0
822.506897 44.0
825.883728 140.0
841.370178 56.0
846.116516 52.0
846.52179 104.0
846.973511 80.0
854.473633 84.0
854.723816 112.0
859.175049 80.0
860.949463 76.0
866.676147 228.0
871.698914 76.0
872.122009 176.0
874.945557 112.0
889.030762 76.0
890.942627 188.0
909.772034 132.0
913.744446 36.0
918.907593 160.0
926.864441 116.0
929.841919 56.0
931.377991 112.0
942.007263 100.0
942.337158 112.0
944.690857 292.0
945.449524 68.0
947.941895 228.0
958.911499 156.0
970.111572 160.0
973.871826 232.0
984.434204 188.0
987.734131 192.0
988.797729 132.0
998.012756 128.0
999.578979 168.0
1002.998657 136.0
1007.137817 140.0
1009.273865 48.0
1011.437439 120.0
1011.564026 72.0
1011.89325 84.0
1015.130981 212.0
1020.738037 176.0
1025.920532 92.0
1029.014648 128.0
1030.975586 124.0
1033.053589 252.0
1034.307739 120.0
1042.786987 84.0
1044.277344 124.0
1047.889893 88.0
1049.965454 76.0
1053.26355 108.0
1056.987305 196.0
1057.291504 188.0
1062.896729 180.0
1066.676514 192.0
1067.014526 48.0
1079.657715 260.0
1087.946289 140.0
1089.469849 204.0
1093.513672 144.0
1093.678223 184.0
1095.877686 236.0
1097.934326 112.0
1098.310181 100.0
1100.540771 164.0
1101.267212 112.0
1101.498413 172.0
1109.33313 100.0
1109.498901 168.0
1118.659668 100.0
1119.491943 108.0
1120.997437 136.0
1123.417603 108.0
1125.620117 160.0
1127.95166 188.0
1128.934448 92.0
1130.004761 144.0
1134.625854 116.0
1135.832886 156.0
1138.054199 184.0
1139.740112 156.0
1145.768311 220.0
1145.92334 132.0
1146.731934 200.0
1146.927368 160.0
1148.950439 160.0
1149.807373 136.0
1150.023315 164.0
1150.624023 56.0
1156.816406 172.0
1157.683105 200.0
1158.285889 72.0
1159.796875 184.0
1161.552979 184.0
1163.039062 196.0
1164.172852 160.0
1164.308594 220.0
1165.776001 192.0
1166.183716 168.0
1169.849976 132.0
1172.274658 152.0
1172.738159 136.0
1174.238037 88.0
1174.995239 96.0
1178.033081 216.0
1178.217529 172.0
1182.723877 172.0
1183.887817 188.0
1187.122314 196.0
1189.482422 180.0
1189.880493 76.0
1191.130371 72.0
1196.19812 128.0
1196.28772 160.0
1200.704224 52.0
1203.29187 156.0
1204.403687 152.0
1208.371582 132.0
1211.009033 164.0
1211.64624 136.0
1213.718628 192.0
1217.61853 148.0
1217.96582 52.0
1219.786255 124.0
1221.128296 156.0
1221.809937 84.0
1222.791016 176.0
1223.09729 144.0
1223.563721 96.0
1225.158447 92.0
1225.799438 208.0
1231.338501 216.0
1232.847412 168.0
1233.469482 88.0
1233.986816 160.0
1237.12793 180.0
1239.19397 264.0
1245.247681 164.0
1247.341431 136.0
1247.629639 152.0
1247.981201 156.0
1249.563721 236.0
1250.619263 248.0
1252.0625 52.0
1253.591187 152.0
1256.432617 136.0
1256.496094 48.0
1257.971069 80.0
1258.387573 148.0
1259.277344 136.0
1259.573975 112.0
1260.216797 72.0
1260.322876 36.0
1261.517212 260.0
1262.266602 172.0
1263.072876 196.0
1263.193115 132.0
1264.502075 220.0
1265.493164 96.0
1268.524902 140.0
1269.305176 236.0
1272.611572 176.0
1272.867188 88.0
1273.470825 104.0
1273.54895 152.0
1276.576538 136.0
1276.889404 196.0
1277.799927 236.0
1279.315674 168.0
1280.953491 56.0
1281.409424 112.0
1281.566162 72.0
1281.815552 124.0
1282.578125 144.0
1282.948853 196.0
1284.696045 188.0
1285.44519 196.0
1285.594971 72.0
1287.051147 200.0
1288.115234 48.0
1290.344971 184.0
1290.759644 120.0
1291.203003 192.0
1291.324585 124.0
1291.73938 128.0
1293.055908 164.0
1293.734619 216.0
1294.845825 168.0
1295.275513 184.0
1299.43335 148.0
1299.77063 148.0
1300.150879 120.0
1301.421509 104.0
1304.065063 212.0
1304.481934 120.0
1305.150513 136.0
1306.394775 180.0
1306.91626 220.0
1313.526123 48.0
1313.930176 164.0
1315.185669 120.0
1315.669312 240.0
1316.355225 140.0
1316.579102 188.0
1317.770996 72.0
1318.594727 232.0
1319.426025 180.0
1319.577881 236.0
1321.154419 152.0
1321.552368 180.0
1322.731934 80.0
1325.918823 132.0
1329.232788 188.0
1330.52478 200.0
1332.144165 192.0
1332.972412 172.0
1333.357544 184.0
1333.495605 40.0
1333.96814 168.0
1334.040771 176.0
1337.394287 152.0
1340.532959 128.0
1341.546021 148.0
1342.707397 164.0
1344.397949 188.0
1345.726318 184.0
1346.332397 108.0
1347.530396 104.0
1348.195312 176.0
1348.385254 220.0
1349.22168 244.0
1351.156616 208.0
1351.976074 148.0
1352.488403 184.0
1352.986206 144.0
1353.103271 156.0
1356.436523 144.0
1359.223389 180.0
1359.729736 180.0
1360.008545 88.0
1360.082031 172.0
1360.287476 160.0
1360.647217 180.0
1361.344727 52.0
1361.932251 44.0
1363.908813 192.0
1364.246948 140.0
1364.908691 192.0
1365.460205 108.0
1367.461304 184.0
1368.749634 40.0
1369.986938 72.0
1371.236572 240.0
1372.308472 108.0
1372.994141 204.0
1374.189209 192.0
1374.927002 192.0
1375.333008 184.0
1375.82019 144.0
1379.883423 208.0
1381.147949 200.0
1382.546265 176.0
1382.627686 248.0
1383.745361 168.0
1385.848877 124.0
1387.368164 92.0
1387.827759 52.0
1387.998291 124.0
1388.406128 232.0
1388.643433 48.0
1389.266602 104.0
1390.661499 148.0
1391.022461 212.0
1391.901367 176.0
1393.20105 176.0
1393.520508 152.0
1393.996094 140.0
1394.218994 172.0
1397.795898 148.0
1399.500366 224.0
1399.731201 128.0
1401.012207 156.0
1401.116577 172.0
1403.285278 160.0
1403.586182 204.0
1405.478149 168.0
1405.530273 180.0
1405.627319 52.0
1406.276611 48.0
1406.903564 116.0
1408.105713 224.0
1408.912476 160.0
1409.114136 136.0
1410.930298 232.0
1411.401245 148.0
1411.498535 188.0
1417.936401 144.0
1418.356079 180.0
1419.246826 188.0
1419.353271 180.0
1420.350708 148.0
1421.56604 176.0
1421.993774 200.0
1423.675537 144.0
1424.216187 76.0
1424.561768 132.0
1425.876709 160.0
1426.91394 192.0
1427.793701 188.0
1429.275635 124.0
1429.328369 252.0
1431.594116 228.0
1431.985718 152.0
1432.452759 212.0
1432.980103 48.0
1433.319092 128.0
1433.718506 160.0
1434.660645 144.0
1434.811401 32.0
1435.784058 108.0
1437.126831 204.0
1438.83252 56.0
1439.028809 76.0
1439.995361 184.0
1440.101074 112.0
1441.203979 168.0
1441.551636 148.0
1441.94458 108.0
1443.335449 140.0
1443.501831 156.0
1445.120483 64.0
1445.683838 260.0
1445.899902 136.0
1447.489624 200.0
1448.443848 160.0
1448.73938 224.0
1449.383301 188.0
1451.998657 116.0
1453.136475 132.0
1455.360229 180.0
1455.41333 204.0
1455.785522 96.0
1456.271484 208.0
1456.491821 148.0
1457.654175 228.0
1458.467285 136.0
1458.604126 120.0
1459.128662 208.0
1459.478394 140.0
1459.790161 132.0
1460.55835 164.0
1460.619141 124.0
1460.672363 148.0
1461.128784 100.0
1461.288574 240.0
1461.935425 168.0
1462.110352 216.0
1462.270264 128.0
1462.589844 100.0
1463.480591 188.0
1464.02124 132.0
1464.249634 168.0
1464.836182 192.0
1465.003784 152.0
1465.986572 104.0
1467.000366 200.0
1467.343384 220.0
1467.533936 152.0
1469.669556 72.0
1469.791626 40.0
1471.545532 164.0
1472.234375 148.0
1472.516968 148.0
1472.952271 172.0
1473.609253 208.0
1474.113525 232.0
1476.078125 116.0
1476.804565 128.0
1476.873413 52.0
1476.957642 132.0
1479.720093 192.0
1480.018677 160.0
1480.424561 132.0
1480.49353 140.0
1481.423096 140.0
1481.581177 216.0
1482.186401 156.0
1482.362671 84.0
1482.692139 88.0
1483.343628 144.0
1484.294312 172.0
1485.199219 172.0
1486.204224 128.0
1486.833496 124.0
1487.508911 112.0
1488.852539 228.0
1489.359375 188.0
1490.634644 144.0
1493.071533 200.0
1493.948364 228.0
1494.386963 168.0
1495.171875 128.0
1495.664429 112.0
1496.049316 112.0
1497.312012 172.0
1497.365967 100.0
1497.52002 228.0
1497.613403 180.0
1498.005249 144.0
1499.04541 248.0
1499.515503 216.0
1499.592529 172.0
1500.209106 144.0
1500.895386 124.0
1501.234619 204.0
1501.597046 104.0
1501.951904 76.0
1502.592163 164.0
1503.394653 136.0
1503.803589 160.0
1504.699097 172.0
1504.876587 208.0
