>compound NCGC00160343-01!1-Phenyl-2-(3,4,5,6-tetrahydro-2H-[2,3']bipyridinyl-1-yl)-ethanone
>formula C18H20N2O
>ionization [M+H]+
>parentmass 281.162933
#inchi InChI=1S/C18H20N2O/c21-18(15-7-2-1-3-8-15)14-20-12-5-4-10-17(20)16-9-6-11-19-13-16/h1-3,6-9,11,13,17H,4-5,10,12,14H2
#inchikey WLGJLFCYTIYRST
#Ion_Source LC-ESI
#Instrument qTOF
#Compound_Source Prestwick Phytochem Lib
#PI Dorrestein
#Data_Collector VVP/LMS
#Scan -1
#Precursor_MZ 281.165
#ExactMass 280.158
#Charge 1
#CAS_Number N/A
#Pubmed_ID N/A
#Smiles O=C(CN1CCCCC1C2=CN=CC=C2)C3=CC=CC=C3
#INCHI_AUX N/A
#Library_Class 1
#SpectrumID CCMSLIB00000078775
#IonMode Positive
#UpdateWorkflowName UPDATE-SINGLE-ANNOTATED-GOLD
#LibraryQualityString Gold
#TaskID 67c915c6594c435cadc1fe2b5358144d
##Scan# 1295
#SpectrumFile p1-G03_GG3_01_17947.mzXML
#LibraryName phytochem_lib.mgf
#MQScore -1
#Organism phytochem_lib
#TIC_Query 0
#RT_Query -1
#MZErrorPPM -1
#SharedPeaks 0
#MassDiff 0
#LibMZ -1
#SpecMZ 281.165
#SpecCharge 0
#internalFilename spec-00000.mgf

>collision 10
95.062576 220.0
95.361656 88.0
96.337883 36.0
96.357422 172.0
96.574409 56.0
97.044395 164.0
97.869629 184.0
98.850662 64.0
98.995171 244.0
99.014969 180.0
99.928085 148.0
100.286537 164.0
100.519867 204.0
101.219498 164.0
101.953705 160.0
102.847939 72.0
103.05658 556.0
104.05114 176.0
105.032356 232.0
105.068291 212.0
105.713638 220.0
106.037209 156.0
106.06292 496.0
106.088455 212.0
106.371544 120.0
107.054146 188.0
107.076797 236.0
107.567528 180.0
109.060989 148.0
111.275345 180.0
111.819786 160.0
112.549179 160.0
113.134819 148.0
113.821762 188.0
113.915215 180.0
114.074593 136.0
115.033188 188.0
115.052101 368.0
115.131401 84.0
115.516129 180.0
115.625252 212.0
115.730141 108.0
116.049805 124.0
116.218834 224.0
116.938736 224.0
117.056091 2364.0
117.345871 120.0
117.755875 224.0
118.064552 2364.0
118.155769 76.0
118.222847 40.0
118.305939 236.0
118.457733 140.0
118.772026 168.0
119.068756 464.0
119.455971 176.0
119.557495 136.0
119.622787 128.0
120.080681 1624.0
120.484184 60.0
120.982803 156.0
121.085114 184.0
121.884232 224.0
122.936813 40.0
124.382065 224.0
124.410919 140.0
124.62413 44.0
125.68399 136.0
126.284927 216.0
126.826775 196.0
127.046532 184.0
127.985985 112.0
128.062561 200.0
128.085083 252.0
128.651093 196.0
128.824966 60.0
129.068649 156.0
129.922928 180.0
130.033401 180.0
130.064545 3596.0
130.104477 32.0
130.158966 172.0
130.195297 168.0
130.727264 52.0
130.913925 60.0
131.069489 736.0
131.403992 44.0
131.744156 196.0
131.862976 156.0
132.080276 4284.0
132.137375 56.0
132.297577 56.0
132.406204 100.0
132.526611 76.0
132.767303 48.0
133.088501 316.0
133.548172 80.0
133.578079 184.0
133.748352 260.0
133.992447 184.0
134.057327 176.0
134.095306 368.0
134.179123 40.0
134.548264 96.0
135.093658 52.0
135.967178 148.0
136.055389 84.0
136.506531 120.0
138.082626 140.0
139.701096 132.0
140.216766 56.0
140.464325 228.0
141.970947 108.0
143.042496 160.0
143.069168 340.0
143.705017 100.0
144.081329 828.0
144.122849 132.0
144.156311 124.0
145.058624 152.0
145.089783 136.0
145.951721 204.0
146.033371 172.0
146.069397 112.0
146.094986 1340.0
146.502869 44.0
146.548645 28.0
146.599243 44.0
147.097153 256.0
148.073776 168.0
148.116516 208.0
148.286133 56.0
148.992249 180.0
149.087006 164.0
149.140472 92.0
149.179367 56.0
149.242584 184.0
150.087494 156.0
150.104553 100.0
153.072067 432.0
156.074249 412.0
157.089706 140.0
158.086624 104.0
158.569962 180.0
159.084167 156.0
161.109421 224.0
161.738541 108.0
162.120972 216.0
163.12352 136.0
164.098572 152.0
165.066284 136.0
165.21463 84.0
166.909958 196.0
168.08197 156.0
168.180038 104.0
168.836288 48.0
169.063568 164.0
169.493805 60.0
170.098206 868.0
170.534454 60.0
170.804871 100.0
170.921936 60.0
170.942764 132.0
171.103897 888.0
172.110779 184.0
173.544403 172.0
173.570618 56.0
174.089493 252.0
175.12442 428.0
176.123428 184.0
176.192108 100.0
177.091492 164.0
177.274292 104.0
183.097229 120.0
184.071823 196.0
184.109543 152.0
185.121033 204.0
186.08905 308.0
188.108368 732.0
189.110107 504.0
190.466736 132.0
193.085144 132.0
194.084702 168.0
194.423264 40.0
195.056519 48.0
195.089874 148.0
195.871826 144.0
196.984818 156.0
200.103149 348.0
201.968674 148.0
202.119934 1264.0
203.125916 152.0
204.078583 180.0
204.129776 120.0
204.203705 88.0
206.090881 152.0
208.104416 128.0
208.773941 68.0
211.101151 108.0
214.964737 108.0
216.370636 128.0
216.953629 208.0
219.364197 196.0
220.101761 128.0
222.108307 128.0
231.117233 180.0
235.659836 76.0
246.13443 148.0
250.223038 220.0
250.569489 92.0
261.160919 164.0
262.139618 148.0
263.148041 1264.0
263.255768 32.0
263.36557 40.0
264.157501 188.0
264.193085 172.0
275.818817 164.0
281.162933 816.0
281.39328 64.0
281.553558 56.0
282.170013 348.0
283.168915 140.0
335.456604 120.0
342.875336 20.0
355.036316 92.0
382.847107 124.0
389.295776 76.0
408.019623 96.0
549.494568 160.0
755.430603 76.0
823.083374 160.0
844.670105 264.0
860.307739 84.0
886.102661 100.0
906.588623 52.0
924.98877 188.0
937.080017 220.0
947.067993 172.0
950.587036 108.0
954.807434 156.0
967.17804 136.0
987.536865 92.0
997.707825 156.0
1029.541992 20.0
1030.135986 196.0
1030.717407 112.0
1033.998047 172.0
1059.205688 192.0
1071.236084 136.0
1072.70874 200.0
1073.712891 136.0
1085.9104 200.0
1092.084229 124.0
1114.036621 136.0
1118.192505 176.0
1120.443115 148.0
1124.924561 36.0
1172.887695 260.0
1181.361938 68.0
1185.860596 144.0
1190.409058 152.0
1191.418701 160.0
1199.401123 212.0
1199.925049 72.0
1204.610962 296.0
1216.001099 60.0
1216.424561 64.0
1218.243896 160.0
1221.100708 148.0
1224.754761 152.0
1231.499634 180.0
1237.835693 256.0
1247.398438 72.0
1249.458862 44.0
1259.320557 132.0
1274.338623 220.0
1275.340576 152.0
1287.202393 204.0
1290.38916 112.0
1307.821045 72.0
1314.703857 216.0
1326.949951 212.0
1328.190063 204.0
1335.395264 136.0
1345.903809 140.0
1346.882446 140.0
1357.135254 152.0
1359.14502 164.0
1363.227783 212.0
1367.125366 188.0
1374.250854 160.0
1374.30249 40.0
1376.361816 220.0
1380.381592 196.0
1383.718506 152.0
1387.615601 84.0
1390.404663 184.0
1418.074585 176.0
1422.92041 200.0
1432.094604 204.0
1435.810303 140.0
1437.900024 104.0
1439.206055 212.0
1440.769409 44.0
1440.875244 56.0
1443.074585 140.0
1444.413086 108.0
1451.312256 228.0
1453.208496 132.0
1460.333984 156.0
1473.200806 184.0
1473.31543 104.0
1473.430054 36.0
1478.935791 116.0
1481.853516 168.0
1489.594116 180.0
1491.238525 180.0
1496.400146 176.0
1497.878784 80.0
1500.869019 156.0
1502.249512 188.0
