>compound MLS002153276-01!(-)-Scopolamine hydrobromide trihydrate114-49-8
>formula C17H21NO4
>ionization [M+H]+
>parentmass 304.15433460409054
#inchi InChI=1S/C17H21NO4/c1-18-13-7-11(8-14(18)16-15(13)22-16)21-17(20)12(9-19)10-5-3-2-4-6-10/h2-6,11-16,19H,7-9H2,1H3/t11-,12-,13-,14+,15-,16+/m1/s1
#inchikey STECJAGHUSJQJN
#origInchi InChI=1S/C17H21NO4.BrH.H2O/c1-18-13-7-11(8-14(18)16-15(13)22-16)21-17(20)12(9-19)10-5-3-2-4-6-10;;/h2-6,11-16,19H,7-9H2,1H3;1H;1H2/t11-,12-,13-,14+,15-,16+;;/m1../s1
#Ion_Source LC-ESI
#Instrument qTof
#Compound_Source NIH Pharmacologically Active Library
#PI Dorrestein
#Data_Collector VP/LMS
#Scan -1
#Precursor_MZ 304.154
#ExactMass 303.147
#Charge 1
#CAS_Number N/A
#Pubmed_ID N/A
#Smiles CN1[C@H]2C[C@@H](C[C@@H]1[C@H]3O[C@H]32)OC(=O)[C@H](CO)c4ccccc4.O.Br
#INCHI_AUX N/A
#Library_Class 1
#SpectrumID CCMSLIB00000085224
#IonMode Positive
#UpdateWorkflowName UPDATE-SINGLE-ANNOTATED-GOLD
#LibraryQualityString Gold
#TaskID d252d724072548979f1f6f1ced849daf
##Scan# 1190
#SpectrumFile p3-G03_GG3_01_18296.mzXML
#LibraryName Pharm_Active_Library.mgf
#MQScore -1
#Organism Pharm_Active_Library
#TIC_Query 0
#RT_Query -1
#MZErrorPPM -1
#SharedPeaks 0
#MassDiff 0
#LibMZ -1
#SpecMZ 304.154
#SpecCharge 0
#internalFilename spec-00000.mgf

>collision 10
45.083736 184.0
45.352772 156.0
45.422638 200.0
45.687164 164.0
45.738304 136.0
45.947197 152.0
46.435562 60.0
46.466763 56.0
46.525127 140.0
46.737167 92.0
46.91151 208.0
47.159962 172.0
47.928543 128.0
48.016777 76.0
48.027813 216.0
48.140991 144.0
48.237717 124.0
48.301331 92.0
48.410675 212.0
48.67556 196.0
48.708893 172.0
48.75058 144.0
48.811749 232.0
48.884087 124.0
48.913319 160.0
49.027538 104.0
49.109802 164.0
49.183758 40.0
49.270344 212.0
49.336033 144.0
49.419956 160.0
49.512352 164.0
49.688984 128.0
49.894047 204.0
50.49762 160.0
50.608009 168.0
50.744038 208.0
50.766724 204.0
50.831985 148.0
50.883087 144.0
51.063568 144.0
51.153214 176.0
51.235817 32.0
51.66843 204.0
51.727108 100.0
51.75605 224.0
51.803009 120.0
51.87323 60.0
51.967892 224.0
52.016689 100.0
52.327236 148.0
52.44537 48.0
52.706604 224.0
52.802021 28.0
52.813591 160.0
52.848316 168.0
53.165684 188.0
53.203426 208.0
53.228111 240.0
53.276043 156.0
53.353073 188.0
53.38361 376.0
53.482548 68.0
53.678139 164.0
53.901138 212.0
53.924522 192.0
54.218716 160.0
54.721127 144.0
54.976151 124.0
55.11549 204.0
55.209583 184.0
55.250999 208.0
55.918797 140.0
56.381165 164.0
56.448441 44.0
56.505283 196.0
56.783924 212.0
57.037693 180.0
57.073776 132.0
57.155006 152.0
57.237801 176.0
57.302574 156.0
57.338741 204.0
57.456364 136.0
57.717678 148.0
57.956852 184.0
58.19804 88.0
58.563042 224.0
58.927658 160.0
59.230583 212.0
59.299538 112.0
59.79258 124.0
59.846462 144.0
59.877262 140.0
59.901909 176.0
60.201145 136.0
60.215046 192.0
60.581661 64.0
60.763062 184.0
60.786339 264.0
61.17181 224.0
61.244999 188.0
61.289581 156.0
61.354507 208.0
61.506977 104.0
61.608486 156.0
61.749176 160.0
61.802364 160.0
61.889481 172.0
62.162788 196.0
62.203598 284.0
62.335537 224.0
62.609283 196.0
62.629757 104.0
62.719578 148.0
62.79842 200.0
62.902569 108.0
62.989422 216.0
63.155407 180.0
63.602264 160.0
63.618141 188.0
63.961525 52.0
63.999737 180.0
64.454361 168.0
64.753532 236.0
64.840057 144.0
64.987595 204.0
65.096756 132.0
65.196358 212.0
65.714897 100.0
65.808517 156.0
65.87635 176.0
65.93129 172.0
66.097862 144.0
66.188515 132.0
66.206329 184.0
66.462471 112.0
66.567993 136.0
66.932259 192.0
67.01371 196.0
67.393898 136.0
67.46418 88.0
67.863686 120.0
68.142723 112.0
68.326874 220.0
68.368011 64.0
68.512917 240.0
68.894135 240.0
69.075882 192.0
69.193382 148.0
69.450256 196.0
69.531563 180.0
69.795708 212.0
69.955437 152.0
71.266724 136.0
71.384399 176.0
71.439903 140.0
72.441032 136.0
72.459663 200.0
72.761574 164.0
72.775154 156.0
72.797234 212.0
72.822708 188.0
73.055595 180.0
73.309303 104.0
73.375786 132.0
73.471298 148.0
73.624931 192.0
74.244484 228.0
74.359436 168.0
74.404076 80.0
74.71344 236.0
74.982071 96.0
75.052757 184.0
75.437782 236.0
75.465446 160.0
75.517326 232.0
75.593452 40.0
76.146515 176.0
76.288605 172.0
76.327263 212.0
76.419456 200.0
76.457741 204.0
76.837624 136.0
77.087334 196.0
77.465271 208.0
77.712486 244.0
77.772156 140.0
77.810776 156.0
78.000511 140.0
78.324303 136.0
78.624054 152.0
79.227051 196.0
79.303246 220.0
79.372391 340.0
79.707901 184.0
79.729225 176.0
79.800331 148.0
79.823448 204.0
80.341782 216.0
80.724037 48.0
80.749077 68.0
80.872536 184.0
81.100021 264.0
81.175323 124.0
81.599106 236.0
81.642258 212.0
81.744804 152.0
81.896042 152.0
82.036606 184.0
82.33976 180.0
82.44455 200.0
82.565681 192.0
82.753883 68.0
83.085571 160.0
83.581612 136.0
83.627113 164.0
83.84568 36.0
84.177719 184.0
84.239395 172.0
84.539696 116.0
84.625732 44.0
84.63855 112.0
84.898773 128.0
85.396515 136.0
85.460907 112.0
85.685539 224.0
85.884644 188.0
85.94368 176.0
86.511108 176.0
86.792732 168.0
86.933723 344.0
87.126839 68.0
87.299706 128.0
87.591934 144.0
87.610565 200.0
87.744751 112.0
87.877182 184.0
88.007843 216.0
88.362221 148.0
88.795723 184.0
88.93457 200.0
89.050987 180.0
89.178757 204.0
89.261482 144.0
89.37999 88.0
89.457161 108.0
89.490257 224.0
89.541901 184.0
89.632332 184.0
89.843506 168.0
89.888794 180.0
90.274178 212.0
91.053673 208.0
92.009064 200.0
92.049164 220.0
92.162514 224.0
92.295677 200.0
92.4468 88.0
92.659355 156.0
92.860641 160.0
93.056213 224.0
93.06369 204.0
93.425407 140.0
93.508156 100.0
93.548576 184.0
93.590935 204.0
93.955223 196.0
94.027985 204.0
94.065315 608.0
94.157913 156.0
94.223595 144.0
94.788605 44.0
94.895218 176.0
94.949516 184.0
94.998016 140.0
95.034874 160.0
95.069305 380.0
95.34948 144.0
95.76976 112.0
95.820412 76.0
95.863281 188.0
95.896408 96.0
95.98999 176.0
96.043175 828.0
96.066551 116.0
96.080467 356.0
96.329613 188.0
96.376503 116.0
96.93029 136.0
96.998886 152.0
97.050919 2152.0
97.401169 184.0
97.627205 160.0
97.985474 208.0
98.011086 244.0
98.058899 1680.0
98.164848 56.0
98.210213 224.0
98.2911 204.0
98.524307 188.0
98.60907 144.0
98.747475 144.0
98.915665 120.0
99.062706 516.0
99.431038 120.0
99.5075 116.0
99.605766 248.0
100.15081 112.0
100.172729 176.0
100.186668 196.0
100.356087 148.0
100.98597 140.0
101.091209 132.0
101.217323 180.0
101.231346 152.0
101.319481 224.0
101.600166 60.0
101.618225 164.0
101.758728 156.0
101.957596 152.0
102.046318 588.0
102.349892 104.0
102.843712 204.0
102.991241 192.0
103.027603 216.0
103.053101 17132.0
103.100121 36.0
103.262093 112.0
103.292435 44.0
103.367294 80.0
103.650803 40.0
103.675125 56.0
103.709579 96.0
103.744041 44.0
103.810951 112.0
103.865715 44.0
103.886002 144.0
104.0037 148.0
104.036186 56.0
104.05629 2000.0
104.31044 44.0
104.737778 92.0
104.896729 56.0
105.051445 152.0
105.39064 252.0
105.732162 264.0
105.78743 148.0
105.869331 48.0
107.048454 4400.0
107.0914 144.0
107.231102 60.0
107.80941 96.0
108.052711 508.0
108.078423 896.0
108.326698 232.0
108.486275 212.0
108.521515 240.0
108.901299 36.0
109.001022 160.0
109.061012 148.0
109.088173 716.0
109.159012 48.0
109.383728 176.0
109.731644 68.0
109.787949 204.0
109.9739 164.0
110.058243 1980.0
110.095329 3596.0
110.155319 40.0
110.186653 32.0
110.226357 148.0
110.278603 80.0
110.500275 124.0
110.906563 32.0
111.059631 124.0
111.097198 524.0
111.122566 56.0
111.321983 80.0
111.416512 100.0
112.098267 136.0
112.256371 212.0
112.273247 132.0
113.048592 232.0
113.56768 152.0
114.05262 480.0
114.077332 108.0
114.176132 172.0
114.645653 124.0
114.982628 48.0
115.063446 320.0
116.17881 212.0
116.307571 52.0
117.070862 200.0
117.372559 152.0
117.732956 176.0
117.877701 156.0
118.037666 124.0
118.063622 72.0
118.836128 184.0
118.893402 44.0
119.046608 344.0
119.080124 168.0
119.554092 148.0
119.861153 184.0
119.887306 180.0
120.078133 1100.0
120.1577 208.0
120.303925 184.0
120.491753 44.0
120.721268 112.0
120.800011 136.0
120.841583 44.0
120.915985 208.0
121.021614 176.0
121.064003 6484.0
121.148102 64.0
121.305885 100.0
121.343155 84.0
121.408943 52.0
121.457199 40.0
121.527405 88.0
121.670067 64.0
121.757904 60.0
122.030403 80.0
122.067894 364.0
122.155762 52.0
122.589523 148.0
122.640221 140.0
122.719582 176.0
122.909286 100.0
123.037308 92.0
123.068474 360.0
123.152138 172.0
123.260391 164.0
124.030609 224.0
124.077164 172.0
124.094902 116.0
124.168083 188.0
124.60318 168.0
124.667969 128.0
124.956703 212.0
125.013206 1416.0
125.056847 168.0
125.165932 200.0
125.642929 48.0
126.017326 204.0
126.270645 152.0
126.384735 112.0
126.545898 60.0
126.924583 176.0
126.998596 184.0
127.014297 200.0
127.052437 432.0
128.106842 100.0
128.185699 92.0
128.666153 148.0
128.751953 156.0
129.100006 136.0
129.337952 168.0
129.799774 128.0
130.063446 220.0
130.099274 176.0
131.048172 772.0
131.173065 52.0
131.259705 40.0
131.360062 60.0
132.051086 140.0
132.191742 124.0
132.361145 216.0
132.388626 172.0
132.750732 232.0
133.039841 180.0
133.060501 160.0
133.285599 228.0
133.699554 168.0
134.04039 168.0
135.044632 160.0
135.653702 52.0
135.966843 196.0
136.05365 404.0
136.072342 440.0
137.016708 392.0
137.078506 160.0
137.106476 248.0
137.379288 100.0
137.47496 164.0
137.493622 160.0
137.715439 136.0
137.785522 124.0
137.977173 92.0
137.99588 200.0
138.021606 184.0
138.06369 180.0
138.090103 19044.0
138.171295 32.0
138.211075 232.0
138.241501 72.0
138.264893 40.0
138.302353 56.0
138.332779 68.0
138.410049 76.0
138.520126 204.0
138.550583 84.0
138.585724 88.0
138.951508 104.0
139.007812 156.0
139.028397 188.0
139.093842 1956.0
139.116959 152.0
139.327164 56.0
139.352997 52.0
139.536331 60.0
139.91748 88.0
140.091278 156.0
140.16716 120.0
140.209579 80.0
140.252014 80.0
140.285019 120.0
140.409988 84.0
140.513779 200.0
140.617615 112.0
140.853745 56.0
140.967148 56.0
141.132629 136.0
142.766541 128.0
142.875961 76.0
143.021118 180.0
143.079178 52.0
144.058456 176.0
144.893417 120.0
144.984467 168.0
145.064133 380.0
145.344193 144.0
145.413788 100.0
145.748871 248.0
146.050537 176.0
146.814056 56.0
146.855057 52.0
147.040848 140.0
147.420029 144.0
148.048096 324.0
148.072983 220.0
149.01445 1172.0
149.087402 60.0
150.134262 156.0
150.229401 124.0
150.444153 168.0
150.688385 172.0
151.351257 52.0
151.983688 164.0
152.258636 208.0
152.619888 204.0
152.779755 124.0
152.934799 92.0
153.010437 456.0
153.070206 172.0
153.832092 200.0
153.90863 136.0
154.084076 560.0
155.004471 160.0
155.062851 116.0
155.087448 188.0
155.411148 180.0
155.964966 184.0
155.994797 276.0
156.064423 208.0
156.100479 8056.0
156.201202 96.0
156.237274 64.0
156.261826 176.0
156.295746 112.0
156.313171 76.0
156.666733 68.0
156.768906 84.0
157.003296 1180.0
157.06311 224.0
157.103455 536.0
158.270248 100.0
158.305313 60.0
159.045029 844.0
159.072571 32.0
159.14537 212.0
159.175995 228.0
159.194138 76.0
160.048737 1104.0
160.655518 32.0
161.059845 192.0
162.051147 52.0
165.00621 328.0
165.065674 352.0
165.098267 200.0
165.251755 172.0
166.034988 160.0
166.056152 132.0
167.019379 168.0
168.861069 132.0
170.034775 168.0
170.783081 96.0
171.019135 1384.0
171.277664 116.0
171.660797 60.0
171.999985 136.0
172.026093 184.0
173.491119 60.0
174.057877 168.0
174.728134 136.0
176.071564 688.0
176.953125 56.0
177.009109 1244.0
177.037857 52.0
177.076553 900.0
177.186203 76.0
177.459198 60.0
177.814682 216.0
177.981934 44.0
178.011139 356.0
178.081512 260.0
179.050995 80.0
179.07785 196.0
180.093185 120.0
180.997864 176.0
181.06427 348.0
181.129089 52.0
181.587448 116.0
181.820877 188.0
182.03833 172.0
182.072189 212.0
182.441391 64.0
182.581207 64.0
183.017746 168.0
183.041397 224.0
183.076416 152.0
183.987823 192.0
184.073608 176.0
184.495743 116.0
184.517365 100.0
184.952927 244.0
186.020981 112.0
188.065323 144.0
188.177246 144.0
189.066666 280.0
190.013794 148.0
190.074173 92.0
190.409103 52.0
191.082596 288.0
191.76004 132.0
192.038513 80.0
193.057663 148.0
193.613953 240.0
194.004654 96.0
194.029602 148.0
194.06842 148.0
195.017487 608.0
195.07753 172.0
196.012756 248.0
196.095062 132.0
197.099274 116.0
197.619858 104.0
198.029175 576.0
198.067871 140.0
198.903442 28.0
199.021362 72.0
199.338791 68.0
199.735214 48.0
199.754913 96.0
200.515182 120.0
201.734619 68.0
206.566345 208.0
207.074417 664.0
207.136017 60.0
208.086349 1112.0
208.280579 60.0
208.332291 36.0
208.418488 176.0
209.056885 104.0
209.091019 172.0
209.148987 40.0
209.307343 108.0
210.071136 160.0
210.094208 64.0
210.137497 72.0
210.290436 224.0
210.761185 56.0
211.067596 144.0
211.417633 52.0
212.042648 516.0
213.048706 168.0
216.960953 100.0
218.077698 152.0
219.902649 76.0
221.061951 140.0
221.875763 160.0
222.626495 116.0
225.089478 164.0
225.149033 108.0
226.060226 168.0
226.087799 184.0
226.989548 112.0
227.073517 232.0
227.887054 152.0
228.031311 132.0
228.145538 168.0
230.472382 88.0
231.055939 108.0
232.786743 172.0
234.950943 160.0
235.079926 296.0
236.081329 472.0
237.091202 136.0
238.054749 128.0
239.069016 1040.0
239.152359 104.0
239.186218 68.0
239.555756 60.0
240.069977 292.0
240.129105 120.0
241.070755 124.0
241.092377 140.0
242.097855 140.0
243.049561 168.0
246.687424 196.0
247.898743 48.0
248.481979 128.0
249.02507 200.0
249.691406 256.0
251.051956 52.0
251.074036 152.0
252.071655 112.0
252.742035 84.0
253.080597 452.0
253.971283 200.0
254.090775 1180.0
254.158463 184.0
255.093979 124.0
256.02771 160.0
258.361115 60.0
260.020203 228.0
261.024963 128.0
262.795013 60.0
264.864105 188.0
270.033112 60.0
270.108337 244.0
271.064392 136.0
274.032501 512.0
274.139862 112.0
274.282074 36.0
274.344696 72.0
275.037476 208.0
275.172821 36.0
276.141083 168.0
276.677155 56.0
287.403381 80.0
288.027985 92.0
288.05838 176.0
289.063873 964.0
290.059601 140.0
291.09317 56.0
304.001831 72.0
304.071259 188.0
304.151764 1988.0
304.776215 48.0
305.153015 412.0
305.203766 152.0
306.088501 512.0
306.153809 116.0
306.64798 48.0
306.732208 60.0
307.178558 84.0
315.480682 132.0
319.136108 80.0
348.873566 152.0
392.79892 72.0
395.343506 72.0
403.638062 36.0
407.578522 100.0
422.279236 108.0
444.352814 36.0
453.538025 52.0
469.17627 60.0
474.047699 100.0
506.528992 36.0
585.680115 64.0
641.809814 92.0
659.058533 84.0
662.998962 208.0
699.412292 148.0
708.548462 184.0
762.905457 196.0
774.333557 164.0
791.27948 188.0
795.944641 152.0
799.497559 216.0
806.033691 196.0
818.519287 224.0
824.64093 112.0
883.581665 192.0
889.893982 52.0
889.96521 168.0
891.444336 180.0
892.086304 176.0
894.233704 216.0
909.325806 184.0
940.578613 64.0
946.123413 120.0
946.698975 188.0
950.683899 44.0
956.005981 180.0
964.653687 176.0
967.004272 176.0
969.810181 112.0
970.405273 184.0
970.529297 156.0
973.352722 112.0
981.828857 192.0
982.739624 44.0
998.822144 244.0
1002.480286 152.0
1008.950256 160.0
1009.247437 168.0
1012.77887 220.0
1013.406067 232.0
1013.773621 224.0
1019.745911 140.0
1030.956909 208.0
1033.169312 180.0
1034.462036 128.0
1037.479492 172.0
1049.606079 176.0
1049.799561 128.0
1054.092529 96.0
1058.860596 216.0
1060.875854 252.0
1062.873535 136.0
1063.068237 104.0
1064.678223 164.0
1068.032104 176.0
1069.047119 160.0
1073.672729 124.0
1073.920532 60.0
1076.87085 148.0
1077.556763 164.0
1081.637695 164.0
1083.261719 144.0
1084.041504 164.0
1085.778809 48.0
1087.110596 164.0
1088.633667 172.0
1092.96582 132.0
1097.444946 176.0
1098.473877 140.0
1103.526245 224.0
1103.85022 72.0
1104.028809 168.0
1105.914551 124.0
1106.132935 148.0
1106.477173 196.0
1108.994507 192.0
1110.226196 164.0
1110.917603 168.0
1116.37085 168.0
1116.497314 200.0
1118.879517 140.0
1120.184814 140.0
1122.184204 140.0
1129.597534 64.0
1129.758179 36.0
1132.060669 244.0
1133.152588 140.0
1133.373657 160.0
1135.807373 168.0
1136.63269 148.0
1136.786987 164.0
1139.493164 184.0
1141.953613 152.0
1143.151123 180.0
1148.156738 140.0
1152.348877 68.0
1154.403809 184.0
1154.70813 160.0
1155.35083 264.0
1158.160156 120.0
1162.845581 188.0
1164.733154 184.0
1165.480591 196.0
1167.989258 152.0
1170.153442 124.0
1171.46106 212.0
1176.57605 180.0
1177.962402 200.0
1179.349609 140.0
1179.889648 208.0
1179.944336 160.0
1183.865234 156.0
1184.961304 172.0
1185.187378 224.0
1188.780762 192.0
1188.869995 152.0
1190.586304 160.0
1190.984619 44.0
1191.726685 156.0
1195.013306 180.0
1196.720337 184.0
1198.159912 104.0
1198.676636 44.0
1199.476196 184.0
1202.953003 184.0
1205.356567 128.0
1207.499756 220.0
1208.495972 188.0
1214.263672 188.0
1214.447021 152.0
1216.744019 92.0
1218.466431 224.0
1221.393311 176.0
1222.457764 148.0
1223.125977 184.0
1224.643921 212.0
1226.016479 228.0
1226.427734 164.0
1226.894775 180.0
1227.257446 200.0
1229.817749 200.0
1231.982544 200.0
1232.13623 220.0
1237.129883 180.0
1238.362305 136.0
1241.607422 172.0
1242.028198 168.0
1242.757935 176.0
1246.191406 184.0
1246.584961 76.0
1248.778564 216.0
1249.165161 136.0
1250.424927 200.0
1250.586914 144.0
1252.783936 176.0
1254.425903 160.0
1255.250854 260.0
1255.659912 188.0
1256.2948 204.0
1257.494385 172.0
1259.287842 76.0
1261.026001 148.0
1261.570312 200.0
1263.07666 204.0
1265.744873 124.0
1266.261841 200.0
1270.933716 164.0
1271.406128 252.0
1271.991211 192.0
1272.133179 176.0
1276.438965 168.0
1277.875854 128.0
1280.217773 168.0
1282.262573 224.0
1284.023682 200.0
1286.107178 144.0
1286.771118 216.0
1289.321289 140.0
1291.552124 136.0
1292.38916 60.0
1293.22644 48.0
1294.171509 184.0
1294.859009 228.0
1294.952148 192.0
1295.109741 124.0
1297.481689 88.0
1299.877441 180.0
1300.415771 180.0
1301.076172 48.0
1301.988159 224.0
1304.021484 160.0
1304.107666 160.0
1307.768921 92.0
1308.935181 64.0
1309.345703 168.0
1314.060303 172.0
1315.258301 140.0
1315.626465 156.0
1315.922485 196.0
1319.332642 208.0
1320.699463 212.0
1322.240601 140.0
1324.18103 200.0
1328.334473 96.0
1328.849609 132.0
1329.415649 152.0
1329.698608 136.0
1330.642334 156.0
1334.994995 116.0
1335.947876 164.0
1337.039429 104.0
1339.442261 132.0
1339.573364 88.0
1340.622559 212.0
1342.240967 176.0
1348.219971 140.0
1349.916016 148.0
1351.525391 156.0
1353.421265 224.0
1353.589722 228.0
1358.471191 132.0
1358.977417 92.0
1360.210449 136.0
1363.927368 124.0
1364.61853 232.0
1365.809937 128.0
1366.140869 164.0
1367.683105 284.0
1369.004272 188.0
1369.888062 164.0
1372.961792 112.0
1373.227417 176.0
1373.677368 152.0
1373.883911 212.0
1374.392944 132.0
1375.743652 180.0
1375.822998 184.0
1377.390503 124.0
1377.538208 176.0
1378.41748 208.0
1379.16394 84.0
1383.395386 228.0
1383.9729 44.0
1385.483887 216.0
1386.625 180.0
1387.077148 168.0
1388.31543 220.0
1388.612061 176.0
1388.664062 164.0
1388.767822 224.0
1389.109863 200.0
1389.472656 148.0
1390.415039 148.0
1390.570923 164.0
1391.26123 200.0
1404.060181 160.0
1407.104736 240.0
1408.120361 136.0
1411.154419 168.0
1412.358521 184.0
1412.942017 176.0
1415.239868 48.0
1416.797729 176.0
1422.57251 160.0
1422.638794 200.0
1422.917847 108.0
1423.796387 188.0
1423.984131 208.0
1426.095581 104.0
1427.476074 204.0
1427.57666 196.0
1427.802368 128.0
1429.178955 104.0
1431.715942 200.0
1433.041748 84.0
1434.209839 176.0
1434.979736 180.0
1436.638184 200.0
1437.286987 204.0
1438.932495 80.0
1439.952026 136.0
1440.888672 56.0
1441.984497 72.0
1442.354858 140.0
1443.012573 132.0
1447.181641 240.0
1447.96167 152.0
1448.409912 188.0
1449.848267 196.0
1451.288574 144.0
1453.61731 164.0
1457.64978 208.0
1459.869629 144.0
1462.182495 188.0
1462.532593 80.0
1463.735474 168.0
1466.882202 136.0
1467.164307 268.0
1467.995483 148.0
1468.323364 144.0
1471.26123 108.0
1473.262207 152.0
1473.720581 128.0
1474.056885 168.0
1474.423706 72.0
1476.717407 180.0
1477.329468 148.0
1477.643066 116.0
1478.285889 184.0
1478.523071 140.0
1480.015869 184.0
1480.613281 152.0
1481.302612 180.0
1481.63208 132.0
1481.685669 208.0
1482.229736 164.0
1482.428955 176.0
1483.080444 112.0
1483.195435 148.0
1485.626343 196.0
1486.585571 160.0
1486.685303 172.0
1488.389526 208.0
1488.727417 152.0
1488.988525 172.0
1489.119141 204.0
1489.994873 172.0
1492.585205 184.0
1492.84668 208.0
1493.254272 168.0
1494.839111 188.0
1500.853394 176.0
1503.161987 156.0
1504.929688 156.0
