>compound MLS002172449-01!L-765,314 hydrate
>formula C27H34N6O5
>ionization [M+H]+
>parentmass 523.266357
#inchi InChI=1S/C27H34N6O5/c1-27(2,3)31-24(34)20-15-32(11-12-33(20)26(35)38-16-17-9-7-6-8-10-17)25-29-19-14-22(37-5)21(36-4)13-18(19)23(28)30-25/h6-10,13-14,20H,11-12,15-16H2,1-5H3,(H,31,34)(H2,28,29,30)/t20-/m0/s1
#inchikey CGWOIDCAGBKOQL
#origInchi InChI=1S/C27H34N6O5.H2O/c1-27(2,3)31-24(34)20-15-32(11-12-33(20)26(35)38-16-17-9-7-6-8-10-17)25-29-19-14-22(37-5)21(36-4)13-18(19)23(28)30-25;/h6-10,13-14,20H,11-12,15-16H2,1-5H3,(H,31,34)(H2,28,29,30);1H2/t20-;/m0./s1
#Ion_Source LC-ESI
#Instrument qTof
#Compound_Source NIH Pharmacologically Active Library
#PI Dorrestein
#Data_Collector VP/LMS
#Scan -1
#Precursor_MZ 523.265
#ExactMass 522.259
#Charge 1
#CAS_Number N/A
#Pubmed_ID N/A
#Smiles COc1cc2nc(nc(N)c2cc1OC)N3CCN([C@@H](C3)C(=O)NC(C)(C)C)C(=O)OCc4ccccc4.O
#INCHI_AUX N/A
#Library_Class 1
#SpectrumID CCMSLIB00000085261
#IonMode Positive
#UpdateWorkflowName UPDATE-SINGLE-ANNOTATED-GOLD
#LibraryQualityString Gold
#TaskID d252d724072548979f1f6f1ced849daf
##Scan# 1795
#SpectrumFile p3-G07_GG7_01_18300.mzXML
#LibraryName Pharm_Active_Library.mgf
#MQScore -1
#Organism Pharm_Active_Library
#TIC_Query 0
#RT_Query -1
#MZErrorPPM -1
#SharedPeaks 0
#MassDiff 0
#LibMZ -1
#SpecMZ 523.265
#SpecCharge 0
#internalFilename spec-00000.mgf

>collision 10
44.89669 136.0
44.912697 156.0
44.940716 120.0
44.958065 168.0
44.966679 120.0
44.978085 172.0
44.999447 124.0
45.024818 68.0
45.046192 152.0
45.107666 164.0
45.130394 152.0
45.149693 84.0
45.17186 164.0
45.206646 144.0
45.216015 112.0
45.246807 92.0
45.313591 116.0
45.366047 148.0
45.378113 84.0
45.425056 100.0
45.439816 128.0
45.45055 144.0
45.476162 192.0
45.50827 140.0
45.527069 216.0
45.537266 212.0
45.560654 144.0
45.569386 112.0
45.592903 124.0
45.606346 176.0
45.615753 120.0
45.625168 168.0
45.663509 160.0
45.702782 148.0
45.716637 144.0
45.727406 128.0
45.751637 100.0
45.764709 124.0
45.814938 132.0
45.837845 180.0
45.848625 152.0
45.863312 156.0
45.901203 184.0
45.92548 148.0
45.94302 92.0
45.954117 160.0
45.983414 120.0
46.006451 160.0
46.061821 132.0
46.08741 132.0
46.097202 152.0
46.14156 196.0
46.168606 356.0
46.222721 100.0
46.23394 332.0
46.256557 152.0
46.276867 100.0
46.290409 104.0
46.325356 228.0
46.362862 92.0
46.3717 164.0
46.388691 172.0
46.400169 140.0
46.423222 52.0
46.440174 176.0
46.457134 152.0
46.486984 168.0
46.499859 152.0
46.511417 188.0
46.548435 268.0
46.568447 116.0
46.592873 180.0
46.620079 140.0
46.666298 156.0
46.755909 184.0
46.781948 244.0
46.80101 232.0
46.823345 80.0
46.839146 76.0
46.850044 156.0
46.890926 224.0
46.913208 128.0
46.953648 112.0
46.99321 128.0
47.010948 36.0
47.060093 108.0
47.071018 124.0
47.091503 176.0
47.128319 152.0
47.155674 104.0
47.160866 100.0
47.169785 112.0
47.189316 112.0
47.20768 144.0
47.2323 112.0
47.249409 300.0
47.287033 224.0
47.323608 140.0
47.347279 176.0
47.362347 216.0
47.388378 200.0
47.401394 104.0
47.415054 128.0
47.45417 168.0
47.471996 144.0
47.547455 124.0
47.558437 108.0
47.568047 120.0
47.586502 208.0
47.599628 164.0
47.613361 188.0
47.627098 140.0
47.668316 168.0
47.694431 92.0
47.716114 88.0
47.73568 116.0
47.764561 64.0
47.788666 116.0
47.837502 140.0
47.857586 136.0
47.868217 156.0
47.881916 156.0
47.896717 64.0
47.916798 188.0
47.928329 292.0
47.940807 128.0
47.955418 132.0
47.96917 208.0
47.991814 164.0
48.013069 148.0
48.045078 204.0
48.077347 184.0
48.088242 152.0
48.099575 116.0
48.126427 224.0
48.165718 96.0
48.18782 168.0
48.200302 128.0
48.216843 132.0
48.263847 84.0
48.276295 108.0
48.302574 144.0
48.323326 56.0
48.375919 104.0
48.414692 124.0
48.432354 160.0
48.478176 136.0
48.526196 156.0
48.550514 128.0
48.643379 264.0
48.707546 92.0
48.719868 272.0
48.749092 124.0
48.777607 168.0
48.790749 144.0
48.812241 132.0
48.828297 200.0
48.838032 88.0
48.857056 172.0
48.893864 96.0
48.983486 148.0
49.002415 108.0
49.035759 140.0
49.078976 132.0
49.090668 104.0
49.137924 92.0
49.15543 148.0
49.176636 228.0
49.202366 232.0
49.240868 160.0
49.271599 76.0
49.292561 92.0
49.302341 204.0
49.397427 144.0
49.4618 96.0
49.478333 168.0
49.491688 180.0
49.505207 88.0
49.517811 84.0
49.536022 148.0
49.551453 148.0
49.573051 280.0
49.587868 56.0
49.600487 132.0
49.613102 92.0
49.625721 156.0
49.650272 160.0
49.676212 124.0
49.688839 176.0
49.70845 168.0
49.732052 172.0
49.744087 168.0
49.774464 48.0
49.822224 176.0
49.833462 212.0
49.900932 208.0
49.914993 112.0
49.951317 168.0
49.961086 172.0
49.988148 112.0
49.999405 104.0
50.010666 204.0
50.04023 44.0
50.054638 192.0
50.071213 232.0
50.096569 172.0
50.148663 124.0
50.170887 164.0
50.191387 148.0
50.220154 144.0
50.236141 164.0
50.255894 84.0
50.277195 188.0
50.300285 168.0
50.304108 200.0
50.329296 216.0
50.342869 216.0
50.371666 156.0
50.390034 96.0
50.401043 172.0
50.428192 152.0
50.510204 144.0
50.614407 148.0
50.634769 40.0
50.658852 156.0
50.678398 156.0
50.699944 144.0
50.734573 196.0
50.748146 152.0
50.797787 88.0
50.816231 104.0
50.84951 124.0
50.86927 140.0
50.894299 204.0
50.929272 128.0
50.941963 176.0
50.955379 96.0
50.976692 116.0
50.99659 116.0
51.016766 180.0
51.04493 100.0
51.073376 156.0
51.093296 172.0
51.121754 160.0
51.150223 156.0
51.162724 292.0
51.199322 120.0
51.244663 64.0
51.253647 104.0
51.271297 80.0
51.2827 100.0
51.314064 148.0
51.324383 168.0
51.363422 184.0
51.381847 128.0
51.391087 184.0
51.44862 220.0
51.481022 196.0
51.513874 144.0
51.533878 60.0
51.559601 108.0
51.574352 288.0
51.589058 112.0
51.605904 200.0
51.635925 136.0
51.648254 136.0
51.658268 80.0
51.686298 116.0
51.711643 80.0
51.724094 120.0
51.758457 116.0
51.805725 156.0
51.819256 144.0
51.836002 124.0
51.878498 112.0
51.92614 180.0
51.949089 124.0
51.964603 128.0
51.992138 148.0
52.001308 132.0
52.022282 56.0
52.043819 120.0
52.058365 124.0
52.09409 76.0
52.150135 144.0
52.1717 116.0
52.209084 112.0
52.220592 128.0
52.252239 204.0
52.311481 104.0
52.331406 224.0
52.340736 148.0
52.406307 124.0
52.426483 176.0
52.445221 136.0
52.476936 40.0
52.501453 208.0
52.511551 108.0
52.540882 144.0
52.557716 116.0
52.59943 204.0
52.642887 172.0
52.657333 88.0
52.68478 76.0
52.710918 132.0
52.738277 192.0
52.78307 152.0
52.814537 100.0
52.840717 220.0
52.881088 176.0
52.901081 92.0
52.963436 200.0
52.974129 280.0
52.994411 180.0
53.016148 164.0
53.04369 188.0
53.063988 120.0
53.085739 132.0
53.104874 104.0
53.123451 112.0
53.141663 196.0
53.190208 120.0
53.20182 88.0
53.225052 140.0
53.246838 180.0
53.257004 40.0
53.278797 160.0
53.302135 128.0
53.34108 112.0
53.361645 160.0
53.371822 124.0
53.438732 164.0
53.494633 140.0
53.511513 96.0
53.534809 180.0
53.562138 100.0
53.615604 176.0
53.656506 164.0
53.684475 208.0
53.703247 92.0
53.754948 140.0
53.781219 140.0
53.820641 64.0
53.869431 208.0
53.887833 136.0
53.903908 36.0
53.934158 132.0
53.940319 92.0
53.94521 124.0
53.965595 60.0
53.977001 152.0
54.01503 100.0
54.05307 120.0
54.065765 160.0
54.080879 136.0
54.098614 140.0
54.115494 180.0
54.130974 204.0
54.149696 100.0
54.171673 80.0
54.183392 96.0
54.202122 128.0
54.258141 196.0
54.286003 116.0
54.308002 148.0
54.323788 184.0
54.328037 140.0
54.356419 116.0
54.397102 156.0
54.429817 76.0
54.448029 132.0
54.506207 184.0
54.529724 168.0
54.548832 136.0
54.5741 156.0
54.61742 100.0
54.663559 132.0
54.692726 152.0
54.718616 196.0
54.729366 228.0
54.7598 76.0
54.796089 112.0
54.843468 160.0
54.866753 140.0
54.887478 104.0
54.918179 268.0
54.939102 132.0
54.958286 148.0
54.973042 80.0
54.995182 164.0
55.015179 168.0
55.048767 164.0
55.08083 168.0
55.125153 68.0
55.144367 124.0
55.181194 136.0
55.196114 52.0
55.228653 184.0
55.267067 112.0
55.284878 152.0
55.336689 76.0
55.348534 132.0
55.387043 116.0
55.423298 148.0
55.437122 100.0
55.447441 164.0
55.468548 168.0
55.499683 96.0
55.515995 144.0
55.538242 168.0
55.564945 212.0
55.60281 148.0
55.616268 124.0
55.637672 120.0
55.665493 136.0
55.685024 140.0
55.707478 88.0
55.721645 116.0
55.74218 144.0
55.753963 200.0
55.778809 68.0
55.79995 284.0
55.820442 140.0
55.833279 304.0
55.946918 132.0
55.9767 76.0
56.004997 116.0
56.031425 92.0
56.061615 124.0
56.075031 136.0
56.091541 104.0
56.11375 156.0
56.122028 320.0
56.144844 136.0
56.173042 192.0
56.198975 148.0
56.210751 144.0
56.224602 156.0
56.275448 184.0
56.330608 160.0
56.368732 172.0
56.391731 224.0
56.41769 140.0
56.439034 176.0
56.496864 216.0
56.52158 120.0
56.535263 140.0
56.555706 92.0
56.579269 192.0
56.604946 180.0
56.627876 92.0
56.642857 168.0
56.67432 108.0
56.694408 176.0
56.723782 160.0
56.739212 164.0
56.745644 48.0
56.748768 144.0
56.759155 204.0
56.79726 124.0
56.819458 136.0
56.83276 164.0
56.846241 248.0
56.876968 236.0
56.91433 176.0
56.933853 92.0
56.95488 156.0
56.986431 132.0
57.007469 212.0
57.021568 104.0
57.046547 124.0
57.072109 160.0
57.082714 152.0
57.128639 152.0
57.14732 60.0
57.171398 52.0
57.193058 236.0
57.211357 96.0
57.230705 116.0
57.243031 144.0
57.270771 120.0
57.285835 104.0
57.310116 140.0
57.353199 80.0
57.381142 136.0
57.407276 148.0
57.434986 128.0
57.451672 112.0
57.46426 152.0
57.477325 88.0
57.506622 300.0
57.541454 140.0
57.577526 140.0
57.584084 168.0
57.631329 188.0
57.641926 184.0
57.65855 128.0
57.694534 204.0
57.727268 124.0
57.750786 120.0
57.768936 356.0
57.792755 108.0
57.820385 120.0
57.833157 124.0
57.862774 60.0
57.873894 220.0
57.906689 204.0
57.956383 120.0
57.970886 108.0
58.024303 176.0
58.043091 172.0
58.079952 184.0
58.099842 164.0
58.118938 120.0
58.135754 100.0
58.150806 132.0
58.196621 180.0
58.213058 168.0
58.237358 104.0
58.26926 92.0
58.292053 168.0
58.328533 64.0
58.34103 268.0
58.369331 216.0
58.396389 308.0
58.418194 156.0
58.449753 40.0
58.47456 132.0
58.490582 84.0
58.494728 112.0
58.553265 208.0
58.581154 92.0
58.617722 148.0
58.658157 180.0
58.6689 108.0
58.700043 132.0
58.719872 108.0
58.74192 220.0
58.756485 116.0
58.776318 176.0
58.787003 48.0
58.800503 156.0
58.857224 80.0
58.901516 140.0
58.916756 160.0
58.944717 264.0
58.964169 96.0
59.002384 64.0
59.025318 88.0
59.036392 100.0
59.052849 44.0
59.077888 152.0
59.098747 168.0
59.110989 112.0
59.14772 152.0
59.160805 144.0
59.207439 108.0
59.244152 120.0
59.288639 100.0
59.29937 156.0
59.316685 176.0
59.330029 76.0
59.345539 104.0
59.367355 260.0
59.454281 156.0
59.466259 164.0
59.480373 148.0
59.496315 180.0
59.514149 176.0
59.541794 192.0
59.60939 80.0
59.690334 184.0
59.701385 148.0
59.707375 60.0
59.735474 136.0
59.758553 72.0
59.810879 208.0
59.827812 36.0
59.875549 148.0
59.962891 140.0
59.980328 144.0
60.00037 180.0
60.020416 68.0
60.040466 176.0
60.054348 92.0
60.066689 76.0
60.097069 156.0
60.111431 52.0
60.131496 220.0
60.189327 128.0
60.212006 120.0
60.224594 232.0
60.264309 248.0
60.310673 128.0
60.356415 220.0
60.378067 96.0
60.390251 116.0
60.424412 132.0
60.448967 232.0
60.460709 92.0
60.499405 72.0
60.538685 360.0
60.60783 100.0
60.618675 116.0
60.631077 344.0
60.645023 76.0
60.657425 132.0
60.676514 112.0
60.711697 132.0
60.745819 128.0
60.818756 216.0
60.831173 180.0
60.865334 140.0
60.882416 156.0
60.897713 132.0
60.931725 124.0
60.960094 228.0
61.031605 160.0
61.076706 112.0
61.118839 152.0
61.139278 188.0
61.170078 152.0
61.180977 108.0
61.202812 156.0
61.219902 104.0
61.252613 32.0
61.270161 156.0
61.299355 128.0
61.318058 132.0
61.335205 32.0
61.346119 104.0
61.402885 208.0
61.426018 120.0
61.453735 148.0
61.480042 140.0
61.507725 240.0
61.52293 176.0
61.568424 120.0
61.581173 184.0
61.626488 296.0
61.644909 104.0
61.661438 240.0
61.701019 188.0
61.741734 124.0
61.758381 108.0
61.775589 160.0
61.803753 116.0
61.815216 432.0
61.835052 132.0
61.847576 108.0
61.867928 148.0
61.889847 200.0
61.957199 96.0
61.972866 84.0
61.997314 100.0
62.029289 36.0
62.052807 180.0
62.063782 176.0
62.099045 124.0
62.124954 184.0
62.142212 152.0
62.166565 100.0
62.212593 152.0
62.248955 80.0
62.318802 116.0
62.333786 88.0
62.352646 100.0
62.37151 176.0
62.385658 32.0
62.406097 220.0
62.432831 116.0
62.47163 152.0
62.495754 104.0
62.511494 132.0
62.533527 188.0
62.561863 136.0
62.583904 132.0
62.603344 116.0
62.618553 212.0
62.647461 148.0
62.681118 112.0
62.702061 168.0
62.735161 92.0
62.754082 164.0
62.788776 196.0
62.799816 72.0
62.853458 136.0
62.877132 116.0
62.906158 196.0
62.918175 160.0
62.932384 144.0
62.951336 72.0
62.962391 108.0
63.001881 224.0
63.022423 204.0
63.036644 124.0
63.049286 148.0
63.082115 156.0
63.086212 244.0
63.098969 192.0
63.172001 196.0
63.186726 136.0
63.242252 116.0
63.270748 188.0
63.281834 128.0
63.292915 124.0
63.310337 144.0
63.324593 56.0
63.335678 168.0
63.346767 52.0
63.397354 264.0
63.432346 244.0
63.445026 104.0
63.459297 112.0
63.471985 160.0
63.485176 204.0
63.504669 92.0
63.515469 96.0
63.549786 164.0
63.571926 156.0
63.602085 84.0
63.62849 240.0
63.664642 200.0
63.683136 92.0
63.708485 120.0
63.726532 156.0
63.749092 120.0
63.764172 136.0
63.778202 124.0
63.802254 96.0
63.813381 120.0
63.835644 112.0
63.899273 76.0
63.916901 104.0
63.967709 148.0
64.00592 84.0
64.028336 168.0
64.040962 156.0
64.117439 116.0
64.128601 92.0
64.154106 160.0
64.187157 356.0
64.202469 144.0
64.294479 76.0
64.312714 244.0
64.328995 128.0
64.340767 208.0
64.361526 256.0
64.375763 184.0
64.401451 108.0
64.42382 132.0
64.442993 116.0
64.458969 84.0
64.47332 172.0
64.491333 196.0
64.502953 256.0
64.556488 160.0
64.572128 200.0
64.586021 92.0
64.612274 256.0
64.627014 168.0
64.671921 84.0
64.682892 120.0
64.711876 156.0
64.72509 152.0
64.742142 148.0
64.76136 88.0
64.780342 80.0
64.799347 336.0
64.825447 144.0
64.856926 112.0
64.879944 140.0
64.895981 204.0
64.955322 168.0
64.974083 132.0
64.99543 44.0
65.006668 60.0
65.024323 96.0
65.040375 104.0
65.061241 40.0
65.072479 156.0
65.085327 168.0
65.102989 172.0
65.117447 136.0
65.138329 244.0
65.157608 108.0
65.171944 156.0
65.200996 212.0
65.226585 148.0
65.236214 132.0
65.23951 104.0
65.271736 120.0
65.314041 156.0
65.329353 180.0
65.356987 88.0
65.387566 68.0
65.444557 100.0
65.487396 180.0
65.537338 116.0
65.548622 100.0
65.579239 52.0
65.600075 188.0
65.642708 152.0
65.651733 108.0
65.66954 116.0
65.687073 188.0
65.703354 212.0
65.709618 204.0
65.726006 152.0
65.745369 96.0
65.759895 148.0
65.776062 160.0
65.791435 252.0
65.811554 144.0
65.828194 148.0
65.855019 132.0
65.86071 120.0
65.867035 184.0
65.890701 100.0
65.910095 204.0
65.952118 156.0
66.002235 112.0
66.01902 168.0
66.041046 176.0
66.084732 40.0
66.097679 132.0
66.130043 136.0
66.155029 304.0
66.193184 128.0
66.219101 196.0
66.230438 172.0
66.25042 120.0
66.283905 76.0
66.311455 148.0
66.33091 140.0
66.419128 140.0
66.457413 136.0
66.468918 132.0
66.520996 136.0
66.55191 220.0
66.614906 116.0
66.629524 88.0
66.6604 120.0
66.684776 80.0
66.696152 300.0
66.710136 200.0
66.728668 108.0
66.77282 160.0
66.791939 84.0
66.795914 128.0
66.853928 152.0
66.875084 236.0
66.907356 136.0
66.927185 144.0
66.953239 164.0
66.979057 188.0
67.024918 136.0
67.060776 128.0
67.095009 296.0
67.113609 284.0
67.128914 116.0
67.18264 148.0
67.201714 180.0
67.232475 148.0
67.315292 176.0
67.33979 152.0
67.351913 124.0
67.390434 184.0
67.424759 128.0
67.446007 176.0
67.462349 60.0
67.485245 180.0
67.532867 192.0
67.573456 288.0
67.585785 112.0
67.619392 120.0
67.649994 196.0
67.6567 136.0
67.662018 156.0
67.679962 256.0
67.702888 148.0
67.738228 132.0
67.783852 200.0
67.822502 168.0
67.854828 344.0
67.871689 148.0
67.931801 196.0
67.94873 128.0
67.958061 116.0
67.976677 116.0
67.988159 76.0
68.007858 168.0
68.019348 80.0
68.065323 88.0
68.09436 128.0
68.110237 172.0
68.1297 144.0
68.153633 120.0
68.194351 104.0
68.214836 312.0
68.226349 72.0
68.239502 120.0
68.269104 128.0
68.29377 216.0
68.363022 184.0
68.377831 136.0
68.407318 112.0
68.42643 164.0
68.460007 80.0
68.499863 144.0
68.547134 176.0
68.560509 124.0
68.58358 148.0
68.608307 60.0
68.624794 248.0
68.651184 124.0
68.705551 96.0
68.722115 140.0
68.760071 140.0
68.774925 64.0
68.788132 148.0
68.834145 148.0
68.891273 124.0
68.94175 164.0
68.956627 132.0
68.984726 124.0
68.9963 112.0
69.03389 164.0
69.053055 160.0
69.076897 120.0
69.112083 124.0
69.146835 172.0
69.178749 144.0
69.221901 176.0
69.246178 84.0
69.271027 52.0
69.282623 120.0
69.331627 56.0
69.353882 188.0
69.385384 176.0
69.411911 148.0
69.446129 116.0
69.478256 168.0
69.496513 40.0
69.548042 160.0
69.577843 76.0
69.591125 136.0
69.607727 156.0
69.657555 148.0
69.684143 220.0
69.704079 88.0
69.726326 188.0
69.74482 204.0
69.774811 188.0
69.787193 72.0
69.808815 164.0
69.822121 148.0
69.853722 80.0
69.865372 100.0
69.879211 244.0
69.910034 172.0
69.93779 436.0
69.960236 60.0
69.99353 72.0
70.010185 96.0
70.028511 136.0
70.043503 56.0
70.075157 88.0
70.086815 168.0
70.128487 188.0
70.141823 160.0
70.199112 200.0
70.21624 192.0
70.242859 208.0
70.265228 164.0
70.291931 112.0
70.33783 104.0
70.37471 88.0
70.402191 176.0
70.466515 116.0
70.483612 148.0
70.511932 164.0
70.530769 80.0
70.584274 140.0
70.611031 96.0
70.711418 124.0
70.728096 200.0
70.734573 192.0
70.738922 168.0
70.798485 36.0
70.832893 184.0
70.852089 88.0
70.889465 104.0
70.920799 260.0
70.949295 176.0
70.963829 84.0
70.984505 136.0
71.007988 208.0
71.036507 148.0
71.051605 128.0
71.093597 164.0
71.133835 216.0
71.178558 240.0
71.190308 120.0
71.213768 220.0
71.223915 368.0
71.238724 200.0
71.271561 208.0
71.288368 104.0
71.305176 176.0
71.332069 76.0
71.370743 160.0
71.401009 196.0
71.414726 156.0
71.475037 72.0
71.520477 164.0
71.532806 420.0
71.599792 184.0
71.626564 168.0
71.64341 80.0
71.662506 180.0
71.680351 208.0
71.803352 136.0
71.82885 104.0
71.847412 116.0
71.860909 100.0
71.894661 188.0
71.923874 196.0
71.96711 100.0
72.000153 124.0
72.014534 156.0
72.029739 200.0
72.050728 180.0
72.077049 128.0
72.095634 112.0
72.110847 120.0
72.148514 168.0
72.170021 120.0
72.187904 160.0
72.210609 140.0
72.232597 128.0
72.263046 148.0
72.317726 208.0
72.369446 144.0
72.393394 164.0
72.434044 152.0
72.474709 144.0
72.48996 192.0
72.513687 180.0
72.545891 60.0
72.613724 80.0
72.640862 112.0
72.673103 108.0
72.68837 128.0
72.79702 104.0
72.820801 140.0
72.880257 108.0
72.897255 104.0
72.917648 36.0
72.941444 100.0
72.964355 184.0
72.97715 136.0
72.989052 132.0
73.004356 112.0
73.033272 36.0
73.053688 52.0
73.072403 92.0
73.087021 108.0
73.112267 216.0
73.125153 96.0
73.13707 172.0
73.157791 136.0
73.191551 120.0
73.21965 148.0
73.242645 116.0
73.275017 216.0
73.292465 200.0
73.331291 184.0
73.375366 160.0
73.387131 72.0
73.39196 184.0
73.446938 128.0
73.46804 148.0
73.505211 144.0
73.549591 88.0
73.570686 100.0
73.584648 172.0
73.602364 136.0
73.616699 188.0
73.661301 172.0
73.699883 88.0
73.738564 152.0
73.762672 188.0
73.778511 96.0
73.818054 124.0
73.848618 108.0
73.876984 132.0
73.908501 136.0
73.920479 72.0
73.940178 220.0
73.957458 224.0
74.012146 124.0
74.04203 128.0
74.069443 108.0
74.091713 52.0
74.137741 172.0
74.187683 72.0
74.207817 148.0
74.257866 168.0
74.284599 120.0
74.30088 44.0
74.324814 320.0
74.342064 328.0
74.355797 108.0
74.371239 128.0
74.404549 140.0
74.4729 156.0
74.488014 100.0
74.501755 156.0
74.524277 148.0
74.540794 72.0
74.565338 72.0
74.583801 288.0
74.596275 104.0
74.627136 156.0
74.649895 132.0
74.694298 364.0
74.706345 68.0
74.749359 72.0
74.763542 148.0
74.792389 108.0
74.813042 60.0
74.849205 264.0
74.869438 96.0
74.888817 136.0
74.91465 148.0
74.950836 148.0
75.000816 232.0
75.028854 200.0
75.062889 192.0
75.116356 140.0
75.133606 192.0
75.149139 96.0
75.173294 100.0
75.209198 120.0
75.24234 128.0
75.257332 152.0
75.295723 140.0
75.333878 144.0
75.351151 88.0
75.36412 148.0
75.406456 120.0
75.437065 180.0
75.470421 184.0
75.490135 180.0
75.507042 272.0
75.556351 164.0
75.574203 48.0
75.60334 148.0
75.627853 156.0
75.661713 172.0
75.683258 156.0
75.70562 140.0
75.733482 284.0
75.803001 64.0
75.849579 160.0
75.873848 108.0
75.903259 104.0
75.922409 124.0
75.957443 320.0
75.98008 80.0
75.998734 136.0
76.047325 116.0
76.071632 72.0
76.088989 200.0
76.111565 156.0
76.138565 212.0
76.153099 140.0
76.157257 104.0
76.175827 104.0
76.197968 172.0
76.234695 196.0
76.268364 256.0
76.297485 108.0
76.316109 124.0
76.346634 196.0
76.372261 104.0
76.391396 196.0
76.408836 160.0
76.437103 148.0
76.456284 152.0
76.485367 156.0
76.508331 168.0
76.523575 208.0
76.558502 108.0
76.570694 240.0
76.582886 140.0
76.628181 112.0
76.668259 92.0
76.691353 208.0
76.711838 128.0
76.73101 188.0
76.748451 172.0
76.767632 160.0
76.791542 124.0
76.805222 172.0
76.823448 244.0
76.836243 180.0
76.858345 124.0
76.889755 104.0
76.9011 100.0
76.946129 96.0
76.972504 152.0
77.014923 224.0
77.029404 164.0
77.07328 188.0
77.096664 180.0
77.127243 108.0
77.134102 140.0
77.136734 92.0
77.176262 200.0
77.233978 144.0
77.256721 188.0
77.280205 256.0
77.295326 124.0
77.307465 228.0
77.333717 104.0
77.352417 76.0
77.382736 80.0
77.398491 80.0
77.417755 100.0
77.463295 136.0
77.501793 260.0
77.506653 140.0
77.542152 124.0
77.559273 156.0
77.607018 124.0
77.650246 184.0
77.687698 156.0
77.728973 180.0
77.74736 148.0
77.768303 116.0
77.777695 156.0
77.801773 124.0
77.836426 184.0
77.866745 188.0
77.914177 180.0
78.018837 116.0
78.032845 124.0
78.062302 120.0
78.118301 152.0
78.171806 156.0
78.202583 124.0
78.228989 180.0
78.257156 320.0
78.290619 80.0
78.312523 220.0
78.348747 120.0
78.371651 232.0
78.387512 200.0
78.412865 208.0
78.427361 196.0
78.463303 264.0
78.495049 96.0
78.509155 116.0
78.525024 136.0
78.561211 156.0
78.585007 136.0
78.604019 344.0
78.632805 192.0
78.680321 100.0
78.699738 128.0
78.717239 164.0
78.753029 184.0
78.770386 204.0
78.792305 108.0
78.816322 92.0
78.839302 56.0
78.860512 148.0
78.879951 164.0
78.898415 136.0
78.943604 120.0
78.964828 136.0
78.985298 112.0
79.01046 184.0
79.03524 100.0
79.072525 152.0
79.091675 128.0
79.1241 128.0
79.139221 200.0
79.159637 112.0
79.19606 88.0
79.242767 92.0
79.272888 148.0
79.358833 108.0
79.388123 136.0
79.41555 112.0
79.464401 116.0
79.520866 132.0
79.52816 108.0
79.557732 172.0
79.654366 124.0
79.686348 244.0
79.697746 192.0
79.727219 176.0
79.745857 328.0
79.769882 224.0
79.789436 132.0
79.808998 132.0
79.832115 200.0
79.855232 176.0
79.873024 232.0
79.910179 148.0
79.943581 204.0
79.986977 112.0
80.031418 124.0
80.043884 96.0
80.067039 92.0
80.087212 172.0
80.111572 116.0
80.173935 104.0
80.209328 140.0
80.228516 220.0
80.238655 196.0
80.251183 144.0
80.274811 220.0
80.292847 184.0
80.298294 128.0
80.319374 212.0
80.369904 160.0
80.400436 160.0
80.441498 164.0
80.461136 148.0
80.485184 140.0
80.507561 80.0
80.537926 72.0
80.55043 64.0
80.562935 148.0
80.587944 136.0
80.611176 180.0
80.641563 48.0
80.713074 240.0
80.732437 140.0
80.766083 176.0
80.779251 108.0
80.793564 144.0
80.818939 88.0
80.859772 156.0
80.878342 100.0
80.976952 224.0
80.996758 92.0
81.012207 160.0
81.047516 176.0
81.07428 172.0
81.1064 244.0
81.130264 164.0
81.148193 136.0
81.185516 124.0
81.225311 140.0
81.26194 116.0
81.327599 132.0
81.35685 136.0
81.401207 128.0
81.425934 240.0
81.446129 256.0
81.464951 188.0
81.490738 104.0
81.504692 204.0
81.528763 132.0
81.641609 224.0
81.656967 104.0
81.692368 176.0
81.724777 152.0
81.752197 136.0
81.77697 96.0
81.791367 92.0
81.815804 220.0
81.827095 184.0
81.854385 96.0
81.885002 164.0
81.903015 304.0
81.93364 180.0
81.971481 120.0
82.000313 108.0
82.040977 180.0
82.095871 104.0
82.113014 184.0
82.125 216.0
82.161507 124.0
82.177338 100.0
82.204811 140.0
82.223969 80.0
82.259453 164.0
82.280869 100.0
82.319656 416.0
82.338409 332.0
82.364807 56.0
82.39537 96.0
82.442024 224.0
82.491302 152.0
82.50396 104.0
82.520233 132.0
82.575745 144.0
82.630562 128.0
82.652275 164.0
82.671402 232.0
82.729744 188.0
82.766632 92.0
82.827347 280.0
82.869568 164.0
82.893127 156.0
82.909439 124.0
82.928055 148.0
82.942062 152.0
82.982628 160.0
83.001999 140.0
83.059929 144.0
83.087631 180.0
83.105217 156.0
83.17244 160.0
83.203789 164.0
83.223274 120.0
83.252327 192.0
83.293388 152.0
83.340935 96.0
83.353256 280.0
83.381325 80.0
83.397682 104.0
83.417679 96.0
83.475861 72.0
83.492165 108.0
83.508408 340.0
83.52861 92.0
83.549698 160.0
83.583191 288.0
83.605034 128.0
83.625053 64.0
83.6577 124.0
83.671936 188.0
83.706978 160.0
83.750694 200.0
83.779839 172.0
83.792595 96.0
83.827217 140.0
83.865486 84.0
83.880074 136.0
83.900124 108.0
83.912888 104.0
83.936592 172.0
83.966217 92.0
83.994957 148.0
84.007729 32.0
84.045494 160.0
84.071594 160.0
84.101868 116.0
84.105629 68.0
84.151909 104.0
84.166519 60.0
84.225113 148.0
84.268814 40.0
84.296219 112.0
84.338257 144.0
84.374458 80.0
84.404076 152.0
84.427849 152.0
84.453461 172.0
84.466263 104.0
84.482727 132.0
84.502853 44.0
84.532127 92.0
84.559586 108.0
84.583664 232.0
84.624107 292.0
84.668938 88.0
84.717064 192.0
84.739319 108.0
84.770203 192.0
84.807762 168.0
84.820946 128.0
84.825386 156.0
84.846107 264.0
84.912781 192.0
84.932091 188.0
84.956184 224.0
84.97007 156.0
84.998207 264.0
85.044815 140.0
85.071136 252.0
85.101547 172.0
85.133591 148.0
85.152855 324.0
85.158203 184.0
85.163185 228.0
85.185272 148.0
85.212433 104.0
85.23632 52.0
85.325478 404.0
85.388916 136.0
85.42202 132.0
85.455254 268.0
85.495628 152.0
85.510345 120.0
85.527992 176.0
85.560112 128.0
85.578461 64.0
85.623093 308.0
85.639236 248.0
85.65345 112.0
85.679764 76.0
85.698189 120.0
85.716621 104.0
85.755325 96.0
85.772682 124.0
85.789764 164.0
85.833763 160.0
85.847511 56.0
85.886574 224.0
85.906532 68.0
85.932365 80.0
85.950813 112.0
85.982185 144.0
85.998802 28.0
86.011719 40.0
86.026489 48.0
86.050491 156.0
86.104416 160.0
86.127037 188.0
86.17131 148.0
86.190872 116.0
86.209351 204.0
86.262726 292.0
86.279594 116.0
86.293861 100.0
86.307327 128.0
86.338768 108.0
86.357262 148.0
86.399666 256.0
86.43026 176.0
86.448235 148.0
86.476593 260.0
86.491547 148.0
86.531837 200.0
86.566406 164.0
86.603767 180.0
86.647911 124.0
86.688675 44.0
86.714622 140.0
86.753334 128.0
86.769707 84.0
86.804565 164.0
86.825813 136.0
86.861107 300.0
86.907234 144.0
86.957603 152.0
86.983414 172.0
87.007721 148.0
87.034531 220.0
87.055824 124.0
87.059052 112.0
87.066086 196.0
87.079216 264.0
87.109863 88.0
87.160034 132.0
87.194122 152.0
87.209496 76.0
87.230782 324.0
87.249252 88.0
87.271561 152.0
87.290161 96.0
87.349098 164.0
87.361809 184.0
87.42627 172.0
87.461037 120.0
87.495094 188.0
87.514885 120.0
87.539062 96.0
87.648941 208.0
87.677391 152.0
87.698578 164.0
87.727722 64.0
87.749107 144.0
87.77845 116.0
87.834023 188.0
87.856689 156.0
87.876678 120.0
87.880302 104.0
87.900528 108.0
87.931046 92.0
87.94593 148.0
87.964737 80.0
87.990784 132.0
88.009453 372.0
88.02813 132.0
88.041206 108.0
88.07856 292.0
88.093506 136.0
88.110321 148.0
88.157372 132.0
88.171982 56.0
88.225143 144.0
88.237411 172.0
88.25985 368.0
88.284164 124.0
88.299126 260.0
88.318748 156.0
88.370209 264.0
88.392365 144.0
88.412361 244.0
88.448814 112.0
88.466713 136.0
88.484642 116.0
88.507744 152.0
88.53495 40.0
88.561165 176.0
88.583649 60.0
88.621918 160.0
88.6586 136.0
88.700668 216.0
88.716835 60.0
88.729828 188.0
88.746346 176.0
88.776711 104.0
88.79734 116.0
88.827515 140.0
88.844238 64.0
88.872627 152.0
88.896774 212.0
88.914696 160.0
88.939941 152.0
88.990005 168.0
89.024063 220.0
89.028961 176.0
89.044159 80.0
89.05674 120.0
89.07515 220.0
89.116058 160.0
89.154068 116.0
89.180382 148.0
89.208992 164.0
89.287552 180.0
89.301849 260.0
89.327057 108.0
89.345871 76.0
89.370819 184.0
89.404198 184.0
89.44561 100.0
89.483261 180.0
89.496445 88.0
89.522804 88.0
89.575546 144.0
89.607574 80.0
89.620346 184.0
89.671646 96.0
89.687119 212.0
89.733856 156.0
89.782982 84.0
89.829247 208.0
89.847023 212.0
89.877213 152.0
89.892311 148.0
89.918732 88.0
89.957939 140.0
89.960747 108.0
89.981026 208.0
90.038391 212.0
90.075645 120.0
90.092506 192.0
90.115135 128.0
90.140144 172.0
90.171829 128.0
90.20842 100.0
90.237991 160.0
90.270134 148.0
90.292831 60.0
90.318024 248.0
90.338234 168.0
90.374176 48.0
90.408241 168.0
90.457458 200.0
90.518044 164.0
90.536873 140.0
90.582176 152.0
90.599495 176.0
90.617378 136.0
90.642395 168.0
90.683907 44.0
90.706467 196.0
90.743538 132.0
90.770081 28.0
90.785172 200.0
90.802345 172.0
90.832672 236.0
90.846779 156.0
90.86869 160.0
90.895332 148.0
90.96579 152.0
90.999962 332.0
91.017349 184.0
91.054115 42048.0
91.11824 332.0
91.153549 116.0
91.166855 96.0
91.195679 144.0
91.223396 144.0
91.242889 68.0
91.257706 204.0
91.264221 108.0
91.268036 160.0
91.284721 60.0
91.312805 120.0
91.335739 248.0
91.366989 232.0
91.429581 140.0
91.491508 172.0
91.509262 124.0
91.52449 64.0
91.572807 84.0
91.598007 172.0
91.622742 276.0
91.663551 128.0
91.685005 188.0
91.70047 76.0
91.718826 180.0
91.757645 132.0
91.777931 104.0
91.803772 224.0
91.819016 88.0
91.822449 124.0
91.85231 128.0
91.873299 100.0
91.900009 176.0
91.915276 104.0
91.939148 156.0
92.015678 120.0
92.037445 204.0
92.056435 4568.0
92.080795 120.0
92.087624 156.0
92.12603 136.0
92.192238 124.0
92.24379 36.0
92.276985 164.0
92.298141 112.0
92.369164 228.0
92.397423 40.0
92.436417 152.0
92.457611 56.0
92.481415 108.0
92.52684 80.0
92.546082 124.0
92.576004 124.0
92.645172 120.0
92.665024 124.0
92.699326 124.0
92.723381 196.0
92.745331 68.0
92.775826 44.0
92.813812 144.0
92.834602 164.0
92.875626 252.0
92.903877 124.0
92.958618 116.0
92.973572 100.0
93.010582 172.0
93.033142 260.0
93.062492 340.0
93.100098 120.0
93.105904 108.0
93.13102 92.0
93.161751 172.0
93.180969 164.0
93.198257 144.0
93.223244 108.0
93.238617 192.0
93.268562 228.0
93.290443 104.0
93.31266 124.0
93.330894 124.0
93.369354 184.0
93.407341 144.0
93.427063 92.0
93.477364 112.0
93.506966 184.0
93.546387 180.0
93.57869 200.0
93.598991 228.0
93.621864 100.0
93.658073 64.0
93.671562 160.0
93.688896 104.0
93.735138 120.0
93.783325 60.0
93.800674 80.0
93.814171 148.0
93.82959 120.0
93.862373 68.0
93.926018 152.0
93.954033 100.0
93.970726 160.0
94.002495 144.0
94.028282 88.0
94.072983 108.0
94.097778 116.0
94.143944 128.0
94.204002 184.0
94.238777 184.0
94.252304 72.0
94.281296 168.0
94.297195 88.0
94.344849 132.0
94.364151 116.0
94.383751 124.0
94.404495 160.0
94.457253 112.0
94.476593 104.0
94.496452 168.0
94.548195 92.0
94.565613 136.0
94.593613 164.0
94.622604 100.0
94.677635 168.0
94.714714 80.0
94.73159 140.0
94.75927 144.0
94.77713 424.0
94.792549 132.0
94.828102 100.0
94.850357 148.0
94.898453 124.0
94.938477 152.0
94.976547 264.0
95.006172 208.0
95.028069 368.0
95.055305 168.0
95.069534 120.0
95.083122 108.0
95.135529 72.0
95.168266 212.0
95.232628 192.0
95.265221 140.0
95.287529 168.0
95.372528 60.0
95.405579 120.0
95.446411 104.0
95.481415 144.0
95.51059 52.0
95.535881 64.0
95.551445 140.0
95.567726 180.0
95.594254 104.0
95.617607 180.0
95.674057 92.0
95.691582 148.0
95.734421 140.0
95.751343 180.0
95.80397 108.0
95.839615 104.0
95.894211 176.0
95.937073 160.0
95.989716 116.0
96.003372 96.0
96.029175 172.0
96.045242 188.0
96.065102 148.0
96.097893 212.0
96.122002 128.0
96.183563 148.0
96.242836 388.0
96.264 80.0
96.289085 172.0
96.311752 80.0
96.327217 176.0
96.378181 152.0
96.414856 188.0
96.453461 384.0
96.475906 180.0
96.494553 172.0
96.530655 136.0
96.543793 184.0
96.55999 112.0
96.579552 76.0
96.614769 100.0
96.634331 56.0
96.673134 116.0
96.695 96.0
96.722275 124.0
96.739662 176.0
96.769157 104.0
96.792885 172.0
96.814423 88.0
96.836624 136.0
96.851639 104.0
96.873192 212.0
96.894737 124.0
96.928741 136.0
97.012329 160.0
97.051544 72.0
97.067917 92.0
97.082924 104.0
97.112831 160.0
97.128036 48.0
97.214363 136.0
97.243805 88.0
97.304665 72.0
97.343933 108.0
97.389229 300.0
97.407661 152.0
97.442146 236.0
97.465729 164.0
97.486816 164.0
97.52272 200.0
97.544342 76.0
97.597816 164.0
97.652496 108.0
97.677246 248.0
97.69381 72.0
97.729218 124.0
97.778419 108.0
97.817398 324.0
97.872917 176.0
97.920395 148.0
97.940964 128.0
97.975334 92.0
97.993645 124.0
98.027229 108.0
98.085701 56.0
98.101151 152.0
98.144844 208.0
98.219788 96.0
98.269875 172.0
98.29541 160.0
98.33226 104.0
98.365822 144.0
98.40435 124.0
98.422562 92.0
98.446777 52.0
98.462578 200.0
98.508125 136.0
98.558136 140.0
98.564545 52.0
98.585365 132.0
98.604828 172.0
98.626572 128.0
98.670723 36.0
98.6903 172.0
98.705658 124.0
98.753403 168.0
98.796646 176.0
98.827583 132.0
98.860466 204.0
98.888451 112.0
98.923302 128.0
98.944496 144.0
98.975388 108.0
98.990623 112.0
99.010429 140.0
99.040855 220.0
99.065887 124.0
99.089668 136.0
99.135239 124.0
99.149117 80.0
99.226425 200.0
99.256798 328.0
99.294899 136.0
99.338264 164.0
99.354507 188.0
99.369232 168.0
99.394012 184.0
99.41848 132.0
99.446625 176.0
99.463005 144.0
99.482521 180.0
99.513069 308.0
99.587608 160.0
99.660675 164.0
99.67701 124.0
99.701485 152.0
99.739418 360.0
99.756516 240.0
99.790337 200.0
99.812187 152.0
99.864784 164.0
99.895721 208.0
99.923576 204.0
99.93911 168.0
99.963371 92.0
99.985909 136.0
100.025078 172.0
100.065163 148.0
100.092766 92.0
100.224243 156.0
100.250145 92.0
100.267357 176.0
100.349815 140.0
100.383713 220.0
100.405357 136.0
100.423607 148.0
100.448242 168.0
100.475471 156.0
100.531342 184.0
100.607193 44.0
100.631157 108.0
100.652855 208.0
100.665619 108.0
100.680412 156.0
100.699051 136.0
100.717651 264.0
100.762978 140.0
100.776962 92.0
100.804115 348.0
100.834923 188.0
100.864044 112.0
100.881172 144.0
100.924881 84.0
101.00634 148.0
101.08091 112.0
101.108932 128.0
101.126945 124.0
101.166977 92.0
101.179726 76.0
101.197014 84.0
101.237061 152.0
101.251083 140.0
101.299156 144.0
101.321091 160.0
101.337219 84.0
101.356674 164.0
101.422768 304.0
101.438293 176.0
101.454323 132.0
101.469505 168.0
101.490616 76.0
101.53167 112.0
101.557747 112.0
101.609909 136.0
101.635994 100.0
101.652046 172.0
101.670105 108.0
101.692184 112.0
101.718277 96.0
101.744377 124.0
101.762344 156.0
101.809708 180.0
101.841103 144.0
101.863983 164.0
101.879021 196.0
101.915108 156.0
101.941498 120.0
101.959412 140.0
101.985443 124.0
102.017609 132.0
102.033691 132.0
102.053802 92.0
102.07943 228.0
102.123985 160.0
102.164421 100.0
102.192322 116.0
102.209404 112.0
102.263023 268.0
102.296082 200.0
102.334984 208.0
102.359665 156.0
102.409714 216.0
102.441711 76.0
102.457603 148.0
102.478508 116.0
102.494629 176.0
102.526878 60.0
102.566681 224.0
102.598816 64.0
102.627708 120.0
102.65876 204.0
102.722466 60.0
102.736588 208.0
102.758781 140.0
102.795471 144.0
102.812614 212.0
102.841019 48.0
102.871803 116.0
102.887497 208.0
102.908142 120.0
102.928337 160.0
102.974037 108.0
102.992966 72.0
103.033371 84.0
103.056404 180.0
103.091728 216.0
103.125259 152.0
103.133629 72.0
103.139305 124.0
103.178886 56.0
103.197083 124.0
103.24157 168.0
103.279999 120.0
103.31237 108.0
103.343369 124.0
103.448769 100.0
103.50174 148.0
103.575172 176.0
103.613159 164.0
103.642677 200.0
103.717392 128.0
103.755333 128.0
103.777504 172.0
103.789238 200.0
103.807327 292.0
103.883675 180.0
103.936752 152.0
103.978485 148.0
104.008423 220.0
104.017143 104.0
104.021965 300.0
104.05619 92.0
104.08741 244.0
104.113991 112.0
104.126648 172.0
104.176018 136.0
104.207504 56.0
104.252182 124.0
104.277618 68.0
104.291847 216.0
104.32132 112.0
104.339256 124.0
104.362999 136.0
104.407738 84.0
104.435715 212.0
104.470665 124.0
104.523697 76.0
104.54377 100.0
104.646149 104.0
104.671471 116.0
104.707291 156.0
104.729332 140.0
104.755661 108.0
104.821014 124.0
104.856262 208.0
104.888275 156.0
104.908661 92.0
104.960197 176.0
105.0382 176.0
105.052124 104.0
105.086792 288.0
105.108543 92.0
105.155487 196.0
105.190186 116.0
105.212906 188.0
105.243271 92.0
105.300453 96.0
105.326172 168.0
105.342743 108.0
105.367867 152.0
105.41481 156.0
105.498665 200.0
105.517067 348.0
105.540794 172.0
105.594467 176.0
105.623413 100.0
105.637733 124.0
105.657852 168.0
105.668282 120.0
105.671051 140.0
105.760513 120.0
105.801453 60.0
105.840363 260.0
105.862885 152.0
105.891556 328.0
105.909996 152.0
105.934578 128.0
105.949097 180.0
105.998947 180.0
106.007545 124.0
106.059578 188.0
106.093697 108.0
106.15863 116.0
106.186707 148.0
106.21476 124.0
106.240044 128.0
106.270477 72.0
106.314568 268.0
106.350853 212.0
106.377541 160.0
106.391914 132.0
106.40834 128.0
106.448524 168.0
106.480209 72.0
106.499954 164.0
106.533234 128.0
106.537567 104.0
106.561356 144.0
106.580879 300.0
106.604507 136.0
106.634644 224.0
106.70919 208.0
106.733826 128.0
106.769722 116.0
106.802841 204.0
106.859039 172.0
106.874924 140.0
106.930489 116.0
106.951073 72.0
106.987068 64.0
107.010597 184.0
107.030487 144.0
107.049904 76.0
107.072556 140.0
107.091095 136.0
107.154144 132.0
107.178558 140.0
107.194107 132.0
107.225021 156.0
107.284416 128.0
107.301292 156.0
107.319855 148.0
107.356201 140.0
107.381721 152.0
107.397308 180.0
107.442093 136.0
107.509636 112.0
107.561241 144.0
107.583946 120.0
107.60878 140.0
107.628624 132.0
107.645889 128.0
107.664482 44.0
107.692879 48.0
107.73201 196.0
107.754623 144.0
107.776031 316.0
107.792564 124.0
107.813232 140.0
107.837677 140.0
107.842026 116.0
107.871109 92.0
107.909317 168.0
107.97863 164.0
107.999313 80.0
108.034485 120.0
108.053101 152.0
108.081398 416.0
108.222832 140.0
108.262177 180.0
108.284958 104.0
108.310646 160.0
108.367973 168.0
108.4217 176.0
108.437569 104.0
108.47892 192.0
108.513359 148.0
108.544472 128.0
108.600014 244.0
108.627914 196.0
108.664322 104.0
108.685883 216.0
108.710892 232.0
108.763939 144.0
108.778473 152.0
108.844116 136.0
108.865021 264.0
108.90876 108.0
108.948769 164.0
108.968506 120.0
108.987404 148.0
109.023911 176.0
109.046867 156.0
109.098404 292.0
109.12751 148.0
109.149765 108.0
109.157394 172.0
109.176506 100.0
109.225258 112.0
109.24398 204.0
109.292656 88.0
109.325127 40.0
109.362396 128.0
109.402145 132.0
109.4188 68.0
109.442955 220.0
109.460449 136.0
109.500015 156.0
109.547928 152.0
109.578163 140.0
109.679214 76.0
109.74176 84.0
109.767166 152.0
109.794724 200.0
109.816833 288.0
109.840164 148.0
109.883591 156.0
109.942017 260.0
109.988838 116.0
110.031784 156.0
110.060112 152.0
110.109512 140.0
110.123665 172.0
110.144348 200.0
110.188423 116.0
110.246933 164.0
110.268326 256.0
110.328148 172.0
110.378639 136.0
110.421135 200.0
110.438248 128.0
110.491592 128.0
110.508331 224.0
110.564278 136.0
110.612976 148.0
110.648567 196.0
110.663223 104.0
110.677689 88.0
110.703011 56.0
110.729111 172.0
110.762672 148.0
110.796341 244.0
110.820312 100.0
110.851395 144.0
110.898865 116.0
110.942528 180.0
110.976471 80.0
111.008179 116.0
111.027847 120.0
111.05442 496.0
111.093239 116.0
111.109253 144.0
111.151627 120.0
111.22718 124.0
111.271271 140.0
111.301918 168.0
111.316498 216.0
111.342957 172.0
111.369438 156.0
111.410385 136.0
111.462738 52.0
111.489738 100.0
111.523369 132.0
111.540184 204.0
111.592743 128.0
111.61026 144.0
111.636902 156.0
111.706314 132.0
111.73156 128.0
111.770462 180.0
111.807312 140.0
111.862038 104.0
111.901054 284.0
111.930672 100.0
111.971535 160.0
111.990494 220.0
112.013664 104.0
112.036835 84.0
112.062904 140.0
112.08329 176.0
112.108757 152.0
112.116302 152.0
112.15696 220.0
112.17382 140.0
112.190689 240.0
112.222313 256.0
112.264488 116.0
112.285576 124.0
112.306671 144.0
112.331955 152.0
112.363632 96.0
112.382622 92.0
112.418495 316.0
112.439598 144.0
112.48896 128.0
112.504814 152.0
112.581055 152.0
112.627518 88.0
112.642303 128.0
112.691284 176.0
112.722595 96.0
112.737389 48.0
112.769745 104.0
112.819824 156.0
112.867302 140.0
112.90966 224.0
112.915764 108.0
112.924095 156.0
112.953056 120.0
113.011337 204.0
113.060402 132.0
113.066185 112.0
113.097008 140.0
113.13118 140.0
113.162575 216.0
113.191422 116.0
113.213402 120.0
113.240936 96.0
113.264633 128.0
113.317001 128.0
113.344742 152.0
113.409477 128.0
113.443001 136.0
113.464531 156.0
113.52282 204.0
113.56736 92.0
113.590691 124.0
113.623886 148.0
113.647972 144.0
113.67556 140.0
113.709518 92.0
113.737114 148.0
113.779572 76.0
113.794434 108.0
113.816811 148.0
113.873009 80.0
113.897614 144.0
113.934608 132.0
113.970734 148.0
114.005173 156.0
114.036613 136.0
114.066376 92.0
114.105392 192.0
114.1259 304.0
114.141411 68.0
114.159615 164.0
114.191833 100.0
114.221611 108.0
114.248711 140.0
114.353539 44.0
114.369514 132.0
114.384186 200.0
114.404625 196.0
114.421661 84.0
114.442947 328.0
114.47628 160.0
114.47979 228.0
114.518005 132.0
114.581398 148.0
114.627792 212.0
114.651634 104.0
114.674416 160.0
114.69648 88.0
114.711403 116.0
114.732498 116.0
114.758308 164.0
114.779633 184.0
114.826744 88.0
114.871346 84.0
114.892677 120.0
114.918953 152.0
114.965225 276.0
115.000679 288.0
115.031395 300.0
115.062035 204.0
115.09758 108.0
115.1605 148.0
115.178741 92.0
115.208649 64.0
115.226936 100.0
115.274887 112.0
115.320816 172.0
115.336571 144.0
115.344337 204.0
115.383904 144.0
115.408157 128.0
115.437363 148.0
115.46302 108.0
115.514359 132.0
115.533615 160.0
115.584969 40.0
115.625626 172.0
115.649628 188.0
115.681976 160.0
115.736076 152.0
115.751938 148.0
115.777344 144.0
115.794769 88.0
115.809769 120.0
115.838631 160.0
115.848213 76.0
115.851562 156.0
115.869751 148.0
115.891273 172.0
115.925125 128.0
115.940773 144.0
116.016174 188.0
116.06266 128.0
116.084572 164.0
116.132362 176.0
116.141037 176.0
116.198097 112.0
116.22139 92.0
116.240707 116.0
116.25573 88.0
116.299034 384.0
116.406952 172.0
116.425331 132.0
116.448959 96.0
116.476883 100.0
116.494064 192.0
116.532234 152.0
116.55423 100.0
116.591751 156.0
116.618706 164.0
116.687492 128.0
116.719231 136.0
116.749138 192.0
116.754829 128.0
116.846657 120.0
116.893066 176.0
116.923737 132.0
116.946831 124.0
116.998405 144.0
117.041382 180.0
117.068413 216.0
117.08651 152.0
117.110649 156.0
117.126526 48.0
117.183998 148.0
117.208397 160.0
117.24765 196.0
117.265167 128.0
117.298454 200.0
117.324791 120.0
117.357132 144.0
117.406731 200.0
117.436928 280.0
117.473595 156.0
117.587959 60.0
117.63588 140.0
117.678307 212.0
117.711754 108.0
117.731438 140.0
117.758034 240.0
117.799576 116.0
117.821182 108.0
117.892487 72.0
117.9422 76.0
117.963821 84.0
117.978951 108.0
118.065445 232.0
118.100052 48.0
118.119522 40.0
118.183052 308.0
118.226219 248.0
118.262947 268.0
118.281822 164.0
118.308121 108.0
118.342438 160.0
118.38855 136.0
118.425278 168.0
118.432312 192.0
118.472649 148.0
118.500374 144.0
118.5569 76.0
118.582909 128.0
118.602417 204.0
118.626572 168.0
118.650108 100.0
118.675026 156.0
118.730682 228.0
118.776894 164.0
118.819283 128.0
118.840981 104.0
118.922043 204.0
118.982056 112.0
119.010284 44.0
119.053947 156.0
119.094124 140.0
119.110855 156.0
119.186234 92.0
119.235809 192.0
119.294304 144.0
119.338387 100.0
119.354782 112.0
119.379707 56.0
119.440605 128.0
119.486519 156.0
119.516754 144.0
119.597427 120.0
119.619049 144.0
119.642998 144.0
119.657059 136.0
119.697433 64.0
119.746552 144.0
119.754059 80.0
119.763191 144.0
119.780388 356.0
119.843376 120.0
119.86953 144.0
119.883919 92.0
119.915291 160.0
119.941772 136.0
120.010124 120.0
120.080017 124.0
120.102814 140.0
120.12899 160.0
120.148628 148.0
120.172424 140.0
120.17849 192.0
120.185898 220.0
120.235001 192.0
120.277382 128.0
120.303581 152.0
120.325409 180.0
120.350937 116.0
120.414116 116.0
120.45195 176.0
120.487038 164.0
120.516853 148.0
120.567886 104.0
120.591927 184.0
120.648766 244.0
120.668205 112.0
120.685448 196.0
120.716553 132.0
120.736084 116.0
120.779976 64.0
120.82592 216.0
120.848831 80.0
120.867493 156.0
120.978188 216.0
121.011963 128.0
121.033859 156.0
121.054085 144.0
121.117081 120.0
121.15686 160.0
121.198143 96.0
121.248779 340.0
121.274193 376.0
121.296631 128.0
121.303741 172.0
121.344299 188.0
121.369514 156.0
121.397896 132.0
121.474396 112.0
121.556511 160.0
121.617035 52.0
121.645569 108.0
121.678505 128.0
121.757561 108.0
121.783913 144.0
121.893768 164.0
121.922333 96.0
121.954628 104.0
121.977287 96.0
122.00367 180.0
122.035278 180.0
122.058334 144.0
122.122414 116.0
122.158813 156.0
122.184013 172.0
122.201614 92.0
122.222771 156.0
122.240021 176.0
122.260658 188.0
122.327065 164.0
122.388016 156.0
122.404861 144.0
122.422432 128.0
122.449844 168.0
122.494431 72.0
122.514259 84.0
122.556381 136.0
122.619949 112.0
122.665581 192.0
122.684227 128.0
122.7201 112.0
122.809654 136.0
122.825096 216.0
122.840538 116.0
122.869217 276.0
122.889069 112.0
122.917206 160.0
122.93541 164.0
122.964104 116.0
123.012146 128.0
123.032532 100.0
123.047989 128.0
123.067863 128.0
123.100983 96.0
123.127487 116.0
123.145157 64.0
123.182709 48.0
123.198174 172.0
123.26207 148.0
123.294548 204.0
123.302582 112.0
123.334518 132.0
123.392662 92.0
123.435265 196.0
123.468704 156.0
123.569611 144.0
123.607704 92.0
123.632378 160.0
123.647064 120.0
123.678047 452.0
123.705093 204.0
123.771698 188.0
123.790962 148.0
123.809891 240.0
123.839691 252.0
123.886368 112.0
123.933556 228.0
123.968193 96.0
124.003654 148.0
124.020737 148.0
124.035736 248.0
124.099861 232.0
124.133308 100.0
124.161766 180.0
124.192917 380.0
124.234009 268.0
124.278648 128.0
124.308334 148.0
124.331551 148.0
124.423683 116.0
124.457153 124.0
124.476212 144.0
124.508102 144.0
124.556572 248.0
124.582825 108.0
124.598381 132.0
124.618568 136.0
124.626434 140.0
124.633957 232.0
124.678375 160.0
124.707268 48.0
124.733665 144.0
124.750076 124.0
124.771736 164.0
124.80233 116.0
124.819199 128.0
124.849564 156.0
124.911842 136.0
124.950966 236.0
124.987495 124.0
125.005295 176.0
125.060936 156.0
125.080971 112.0
125.112526 128.0
125.143311 176.0
125.180107 160.0
125.214569 116.0
125.247978 336.0
125.310364 104.0
125.325958 140.0
125.363838 156.0
125.406189 76.0
125.426247 140.0
125.44854 180.0
125.490295 176.0
125.511169 136.0
125.682732 144.0
125.701622 148.0
125.738525 132.0
125.780151 252.0
125.799263 148.0
125.834511 124.0
125.863014 204.0
125.893021 140.0
125.956688 172.0
125.97522 84.0
125.997292 148.0
126.01329 192.0
126.031822 132.0
126.040092 108.0
126.044945 136.0
126.08033 100.0
126.152275 140.0
126.212082 168.0
126.235153 136.0
126.256859 172.0
126.320213 148.0
126.34256 244.0
126.36647 196.0
126.385025 152.0
126.424652 100.0
126.440323 144.0
126.459534 124.0
126.478371 128.0
126.524467 88.0
126.540512 148.0
126.556732 168.0
126.576881 104.0
126.600189 168.0
126.680641 156.0
126.736565 56.0
126.756096 156.0
126.814369 180.0
126.847992 188.0
126.868164 96.0
126.888344 196.0
126.935432 104.0
126.959122 128.0
126.982529 116.0
127.004501 136.0
127.039467 168.0
127.126122 152.0
127.144073 96.0
127.183144 108.0
127.217567 156.0
127.260345 180.0
127.314842 128.0
127.366364 304.0
127.391068 100.0
127.413612 240.0
127.466568 180.0
127.5214 104.0
127.550621 96.0
127.577042 144.0
127.615425 136.0
127.657455 148.0
127.693054 200.0
127.713615 132.0
127.744019 88.0
127.774811 140.0
127.799271 160.0
127.847527 176.0
127.862801 128.0
127.928558 156.0
127.966179 152.0
128.00737 180.0
128.025345 236.0
128.090698 100.0
128.124496 156.0
128.152695 148.0
128.195526 104.0
128.21962 168.0
128.241913 228.0
128.265244 184.0
128.294693 200.0
128.32283 124.0
128.347305 300.0
128.370102 208.0
128.394409 204.0
128.430878 180.0
128.46492 128.0
128.532608 120.0
128.561951 216.0
128.593048 204.0
128.634171 100.0
128.649979 84.0
128.688354 64.0
128.757431 176.0
128.803543 152.0
128.834991 176.0
128.847641 168.0
128.894348 144.0
128.911987 224.0
128.955612 108.0
128.990433 136.0
129.029541 160.0
129.061737 300.0
129.083801 308.0
129.117722 144.0
129.156067 188.0
129.191315 156.0
129.226318 116.0
129.282883 120.0
129.310043 68.0
129.326553 256.0
129.349487 112.0
129.37796 180.0
129.398895 288.0
129.470795 100.0
129.519485 208.0
129.569656 180.0
129.579208 116.0
129.584351 280.0
129.615784 164.0
129.683823 164.0
129.704178 172.0
129.728882 116.0
129.749512 164.0
129.801666 76.0
129.828873 28.0
129.844757 164.0
129.899384 96.0
129.919617 92.0
129.935501 144.0
129.96875 292.0
130.004623 156.0
130.043549 344.0
130.060318 120.0
130.080734 64.0
130.103439 120.0
130.15567 156.0
130.178375 72.0
130.198441 148.0
130.271866 232.0
130.348755 240.0
130.380569 128.0
130.401031 196.0
130.432846 76.0
130.484161 116.0
130.489594 148.0
130.533203 116.0
130.598694 208.0
130.620148 164.0
130.642059 156.0
130.664825 76.0
130.699509 148.0
130.723984 108.0
130.759445 172.0
130.793777 120.0
130.869675 184.0
130.895645 92.0
130.91835 132.0
130.954636 240.0
130.978043 96.0
131.006317 100.0
131.024551 76.0
131.078644 324.0
131.128479 112.0
131.134445 180.0
131.174957 104.0
131.209167 140.0
131.250198 136.0
131.277573 156.0
131.309494 148.0
131.357391 120.0
131.381897 152.0
131.45578 132.0
131.489136 104.0
131.533112 168.0
131.551727 232.0
131.624435 60.0
131.702881 160.0
131.747787 92.0
131.764954 316.0
131.793472 100.0
131.821701 160.0
131.838974 176.0
131.844498 216.0
131.860779 124.0
131.878036 108.0
131.905472 96.0
131.930481 132.0
131.950089 180.0
131.979568 136.0
131.988724 68.0
132.003647 132.0
132.038086 116.0
132.064194 160.0
132.099854 104.0
132.120438 176.0
132.138733 52.0
132.168488 116.0
132.183777 128.0
132.25087 128.0
132.287506 180.0
132.315628 156.0
132.347031 120.0
132.365631 100.0
132.435974 132.0
132.471832 164.0
132.490585 136.0
132.506607 336.0
132.589859 120.0
132.612335 208.0
132.672379 192.0
132.754929 216.0
132.770218 168.0
132.803101 204.0
132.830826 180.0
132.848969 172.0
132.869629 264.0
132.890274 92.0
132.923035 100.0
132.939102 284.0
132.996933 296.0
133.041489 176.0
133.062424 204.0
133.089966 96.0
133.117523 100.0
133.14946 164.0
133.216293 120.0
133.249725 188.0
133.301315 184.0
133.319351 180.0
133.343063 188.0
133.373688 168.0
133.401169 180.0
133.466827 132.0
133.48291 144.0
133.509003 128.0
133.540421 152.0
133.594284 152.0
133.616333 96.0
133.643936 72.0
133.670563 204.0
133.708374 192.0
133.731384 116.0
133.752106 64.0
133.791138 168.0
133.832535 124.0
133.885651 128.0
133.904083 48.0
133.934021 144.0
133.954758 52.0
133.974548 256.0
134.014084 160.0
134.044876 108.0
134.065353 152.0
134.098816 264.0
134.12233 176.0
134.151001 152.0
134.169083 48.0
134.205978 288.0
134.224091 196.0
134.23732 180.0
134.284164 164.0
134.294601 148.0
134.302841 148.0
134.324554 268.0
134.365128 184.0
134.382416 152.0
134.422806 140.0
134.470215 96.0
134.507462 172.0
134.538223 140.0
134.574875 284.0
134.593628 112.0
134.654938 132.0
134.68602 116.0
134.71106 176.0
134.73143 128.0
134.803848 200.0
134.833893 80.0
134.861633 100.0
134.877808 216.0
134.942551 128.0
134.975204 128.0
135.056015 588.0
135.125259 124.0
135.147537 120.0
135.208572 188.0
135.23172 176.0
135.276306 108.0
135.329483 88.0
135.378189 288.0
135.472321 164.0
135.498032 348.0
135.528152 104.0
135.567551 132.0
135.591461 180.0
135.623169 44.0
135.639404 148.0
135.692719 124.0
135.735245 212.0
135.809372 228.0
135.875946 132.0
135.908768 176.0
135.943253 136.0
135.968201 96.0
135.991989 88.0
136.030167 188.0
136.066269 64.0
136.086029 284.0
136.124329 100.0
136.142899 140.0
136.161346 144.0
136.241928 140.0
136.282288 68.0
136.306244 216.0
136.347351 136.0
136.37291 184.0
136.388092 152.0
136.422668 308.0
136.469406 268.0
136.489304 188.0
136.519943 136.0
136.551956 228.0
136.647202 140.0
136.685608 204.0
136.717148 80.0
136.749725 132.0
136.794418 356.0
136.834259 252.0
136.86908 164.0
136.915039 68.0
136.985397 172.0
137.023132 108.0
137.089233 160.0
137.098785 220.0
137.106934 132.0
137.167618 208.0
137.199326 184.0
137.231964 148.0
137.262314 216.0
137.299591 160.0
137.320297 172.0
137.380951 164.0
137.474197 168.0
137.509567 124.0
137.532913 92.0
137.55159 192.0
137.567932 140.0
137.584274 112.0
137.616959 44.0
137.638306 116.0
137.685638 204.0
137.706696 112.0
137.714981 148.0
137.756332 172.0
137.833054 164.0
137.839493 224.0
137.88179 268.0
137.93866 132.0
137.965622 280.0
137.998245 176.0
138.0233 176.0
138.046356 116.0
138.104858 152.0
138.145386 128.0
138.174713 228.0
138.255142 148.0
138.272415 148.0
138.305176 140.0
138.378128 192.0
138.387573 84.0
138.411987 116.0
138.457489 140.0
138.493958 144.0
138.512695 144.0
138.529099 132.0
138.547836 152.0
138.618134 144.0
138.658752 96.0
138.706314 320.0
138.724625 180.0
138.766647 168.0
138.786697 168.0
138.79364 152.0
138.838501 196.0
138.870209 132.0
138.892456 124.0
138.9366 152.0
138.945282 124.0
138.974854 128.0
139.01915 100.0
139.046448 392.0
139.069824 200.0
139.099564 184.0
139.154312 124.0
139.194839 196.0
139.230453 96.0
139.255554 128.0
139.293869 156.0
139.319092 136.0
139.357437 136.0
139.408997 128.0
139.437195 292.0
139.486557 120.0
139.530533 204.0
139.537506 144.0
139.545273 160.0
139.580887 180.0
139.662918 100.0
139.679398 68.0
139.702911 252.0
139.736359 132.0
139.754684 36.0
139.794098 128.0
139.802734 220.0
139.843796 120.0
139.859619 204.0
139.902649 244.0
139.935059 44.0
139.96907 160.0
139.999496 148.0
140.030121 52.0
140.075134 144.0
140.100784 96.0
140.138489 132.0
140.166763 192.0
140.183258 64.0
140.199753 164.0
140.256317 152.0
140.3116 160.0
140.397797 144.0
140.435532 112.0
140.454407 108.0
140.47438 144.0
140.501129 168.0
140.521332 140.0
140.549927 204.0
140.570267 108.0
140.590363 148.0
140.617218 56.0
140.649567 136.0
140.744064 164.0
140.771729 116.0
140.82074 180.0
140.931305 108.0
140.990189 100.0
141.014023 176.0
141.044739 112.0
141.070755 100.0
141.101486 128.0
141.145081 284.0
141.17952 136.0
141.203171 112.0
141.223343 188.0
141.269974 160.0
141.306458 236.0
141.354584 96.0
141.378632 220.0
141.451614 160.0
141.505859 132.0
141.635925 176.0
141.700287 128.0
141.734711 152.0
141.790344 172.0
141.814041 104.0
141.878296 232.0
141.906403 96.0
141.9655 160.0
142.024246 160.0
142.100739 192.0
142.121567 192.0
142.126068 92.0
142.160324 160.0
142.198288 196.0
142.221527 112.0
142.234528 120.0
142.264755 124.0
142.281372 172.0
142.298004 124.0
142.352615 196.0
142.416733 172.0
142.43811 120.0
142.479752 160.0
142.51738 176.0
142.566422 156.0
142.623474 120.0
142.646545 148.0
142.701294 184.0
142.730927 140.0
142.754242 100.0
142.789597 184.0
142.795685 232.0
142.838165 152.0
142.864899 160.0
142.908859 184.0
142.951691 192.0
142.986725 128.0
143.004532 140.0
143.032608 224.0
143.101654 124.0
143.137375 144.0
143.249313 160.0
143.272186 164.0
143.308884 188.0
143.338608 92.0
143.369736 136.0
143.420883 184.0
143.45903 144.0
143.488159 148.0
143.518631 164.0
143.554596 164.0
143.575867 80.0
143.602112 136.0
143.637482 208.0
143.692719 176.0
143.729797 164.0
143.764343 124.0
143.780258 84.0
143.806686 152.0
143.838333 124.0
143.881317 112.0
143.957855 144.0
143.976822 148.0
144.042908 60.0
144.110046 208.0
144.127335 252.0
144.152176 180.0
144.19664 148.0
144.227707 184.0
144.256393 140.0
144.299423 120.0
144.331223 336.0
144.363998 160.0
144.43161 132.0
144.45488 144.0
144.477081 104.0
144.495438 156.0
144.541016 124.0
144.5793 176.0
144.626465 108.0
144.638489 196.0
144.682236 204.0
144.713364 112.0
144.758865 116.0
144.776749 144.0
144.851135 168.0
144.883682 140.0
144.902588 148.0
144.934006 172.0
144.998444 112.0
145.0224 108.0
145.043854 312.0
145.068359 116.0
145.086609 148.0
145.109756 184.0
145.130295 128.0
145.163864 72.0
145.190247 156.0
145.231018 168.0
145.247681 160.0
145.265732 184.0
145.28746 168.0
145.322174 136.0
145.340576 168.0
145.372574 128.0
145.404312 160.0
145.426331 180.0
145.44426 92.0
145.480591 64.0
145.499069 132.0
145.532639 124.0
145.541977 84.0
145.552505 88.0
145.560425 80.0
145.567642 108.0
145.600647 108.0
145.62796 232.0
145.643875 252.0
145.69931 112.0
145.731918 160.0
145.777267 184.0
145.812073 160.0
145.830032 196.0
145.865616 132.0
145.890305 96.0
145.91304 148.0
145.963531 80.0
146.004074 140.0
146.026062 144.0
146.043991 156.0
146.078354 144.0
146.119614 72.0
146.12352 204.0
146.179291 116.0
146.200363 176.0
146.286194 116.0
146.315903 208.0
146.343597 184.0
146.453522 228.0
146.499115 288.0
146.555817 84.0
146.579788 92.0
146.632355 228.0
146.666565 132.0
146.689896 152.0
146.70903 272.0
146.73349 188.0
146.750229 108.0
146.756363 144.0
146.808807 128.0
146.840164 100.0
146.895035 96.0
146.987244 108.0
146.991318 184.0
147.043045 100.0
147.064438 80.0
147.088699 92.0
147.110428 108.0
147.207001 156.0
147.240814 108.0
147.309799 276.0
147.332611 160.0
147.402679 164.0
147.425964 220.0
147.451019 168.0
147.473175 120.0
147.49527 240.0
147.530792 52.0
147.560333 72.0
147.601227 128.0
147.678299 100.0
147.705719 236.0
147.735016 152.0
147.775787 108.0
147.818832 136.0
147.854919 152.0
147.903046 136.0
147.939224 276.0
147.968704 96.0
148.000168 68.0
148.019547 80.0
148.044754 332.0
148.087357 132.0
148.115356 108.0
148.121826 192.0
148.16481 176.0
148.230301 176.0
148.254532 104.0
148.288467 136.0
148.332138 164.0
148.393799 204.0
148.430908 180.0
148.474945 136.0
148.492142 152.0
148.581894 184.0
148.606842 200.0
148.633362 280.0
148.657104 168.0
148.691818 200.0
148.711624 140.0
148.75177 144.0
148.780899 136.0
148.807053 172.0
148.875198 212.0
148.898102 192.0
148.930908 172.0
148.980057 144.0
149.016495 148.0
149.051392 276.0
149.075851 328.0
149.096695 144.0
149.123428 184.0
149.140976 128.0
149.189056 160.0
149.234772 164.0
149.264633 200.0
149.302322 104.0
149.332535 124.0
149.354416 88.0
149.371445 96.0
149.400208 180.0
149.422546 180.0
149.451447 136.0
149.455627 120.0
149.466232 88.0
149.471786 116.0
149.513596 152.0
149.534058 164.0
149.570023 156.0
149.636719 180.0
149.658646 156.0
149.685425 104.0
149.714645 212.0
149.753479 68.0
149.790161 116.0
149.812088 208.0
149.831131 112.0
149.865997 212.0
149.899796 180.0
149.950974 164.0
150.019226 128.0
150.038559 108.0
150.1082 172.0
150.135284 164.0
150.158218 156.0
150.182617 36.0
150.210419 188.0
150.232819 124.0
150.282333 156.0
150.307037 208.0
150.323517 144.0
150.343643 112.0
150.385132 156.0
150.455032 120.0
150.459534 44.0
150.469086 124.0
150.506302 140.0
150.536514 92.0
150.591599 160.0
150.624435 136.0
150.689285 192.0
150.717285 132.0
150.759537 164.0
150.814407 200.0
150.86058 108.0
150.91925 196.0
150.960342 148.0
150.998428 184.0
151.016937 172.0
151.044891 168.0
151.073792 172.0
151.093826 156.0
151.113403 160.0
151.132965 124.0
151.158401 44.0
151.194321 168.0
151.221252 112.0
151.248413 144.0
151.292068 172.0
151.337967 236.0
151.344955 60.0
151.3517 156.0
151.372864 72.0
151.399536 288.0
151.469757 292.0
151.500229 160.0
151.519836 136.0
151.561493 296.0
151.596313 96.0
151.627655 148.0
151.664429 160.0
151.68158 348.0
151.715729 172.0
151.735596 120.0
151.764938 144.0
151.816437 128.0
151.833603 136.0
151.850769 96.0
151.872849 136.0
151.891113 148.0
151.907196 216.0
151.925507 100.0
151.956253 148.0
152.024719 196.0
152.042465 184.0
152.069153 120.0
152.10791 164.0
152.15506 240.0
152.196701 204.0
152.227524 156.0
152.302414 80.0
152.430176 360.0
152.459656 224.0
152.483582 188.0
152.533401 92.0
152.552536 168.0
152.572739 80.0
152.609619 68.0
152.638489 204.0
152.666107 152.0
152.675949 148.0
152.707153 156.0
152.757187 204.0
152.81131 124.0
152.847992 180.0
152.856812 324.0
152.884964 164.0
152.961334 204.0
153.000504 152.0
153.072235 108.0
153.091934 176.0
153.123566 200.0
153.203247 212.0
153.251373 188.0
153.285049 112.0
153.303802 140.0
153.330917 144.0
153.404251 244.0
153.431976 100.0
153.450607 124.0
153.494949 216.0
153.502167 172.0
153.540482 148.0
153.57254 148.0
153.635437 220.0
153.66275 176.0
153.687546 180.0
153.708237 124.0
153.728958 192.0
153.754044 132.0
153.7798 112.0
153.816345 204.0
153.83905 72.0
153.884644 136.0
153.910492 124.0
153.979797 76.0
154.002029 128.0
154.034195 176.0
154.071198 132.0
154.091339 432.0
154.128281 192.0
154.167572 216.0
154.201721 196.0
154.262405 120.0
154.281281 136.0
154.303528 368.0
154.321899 112.0
154.34549 152.0
154.372757 188.0
154.39856 212.0
154.436798 144.0
154.505112 200.0
154.533554 144.0
154.602844 168.0
154.620163 52.0
154.667267 124.0
154.69194 104.0
154.722733 192.0
154.754379 204.0
154.776123 300.0
154.820374 120.0
154.847946 176.0
154.865234 152.0
154.871628 64.0
154.881805 192.0
154.948181 200.0
154.987839 248.0
155.083328 100.0
155.135391 104.0
155.165604 96.0
155.230103 104.0
155.259369 104.0
155.291611 136.0
155.333588 104.0
155.354721 172.0
155.418137 120.0
155.460327 148.0
155.498978 236.0
155.526459 136.0
155.581955 128.0
155.653961 168.0
155.681274 108.0
155.725739 164.0
155.74408 200.0
155.81044 216.0
155.852768 224.0
155.917145 136.0
155.948334 84.0
156.021698 60.0
156.062012 168.0
156.072495 204.0
156.081757 136.0
156.116196 140.0
156.160965 200.0
156.190811 96.0
156.208923 100.0
156.270416 212.0
156.307739 132.0
156.384888 136.0
156.414764 188.0
156.452377 156.0
156.519333 152.0
156.544235 80.0
156.572464 144.0
156.606506 184.0
156.662216 296.0
156.707703 96.0
156.728577 96.0
156.788391 204.0
156.804642 104.0
156.846848 88.0
156.895569 96.0
156.934128 112.0
156.955414 200.0
156.980347 144.0
157.007782 156.0
157.055176 160.0
157.075134 156.0
157.09758 116.0
157.122665 144.0
157.152466 204.0
157.169937 120.0
157.193939 124.0
157.249802 68.0
157.283081 108.0
157.335983 116.0
157.359634 160.0
157.377121 128.0
157.394592 76.0
157.417068 100.0
157.438354 200.0
157.474518 184.0
157.51207 120.0
157.589432 156.0
157.606918 188.0
157.628586 192.0
157.656906 184.0
157.677902 140.0
157.712753 140.0
157.73439 160.0
157.757156 112.0
157.788559 216.0
157.81189 112.0
157.843231 128.0
157.924438 180.0
157.974457 212.0
158.020966 212.0
158.056992 368.0
158.094223 820.0
158.124603 148.0
158.146545 204.0
158.214722 104.0
158.23912 272.0
158.262283 80.0
158.287323 124.0
158.304855 260.0
158.340424 160.0
158.382507 144.0
158.405045 160.0
158.430099 132.0
158.482651 144.0
158.564651 156.0
158.631622 212.0
158.664337 208.0
158.696289 96.0
158.718338 96.0
158.75177 140.0
158.791061 156.0
158.822144 176.0
158.841232 176.0
158.871201 148.0
158.890823 152.0
158.939911 220.0
159.019394 96.0
159.063049 160.0
159.094696 168.0
159.114349 160.0
159.14241 52.0
159.159988 136.0
159.198761 136.0
159.234344 236.0
159.262344 136.0
159.287964 236.0
159.331863 156.0
159.382858 180.0
159.408142 188.0
159.42627 188.0
159.4673 184.0
159.5056 152.0
159.557465 300.0
159.594696 228.0
159.612289 192.0
159.634933 100.0
159.66008 120.0
159.691681 148.0
159.727997 244.0
159.753143 188.0
159.77327 92.0
159.793396 148.0
159.818558 72.0
159.851273 404.0
159.901611 152.0
159.987198 120.0
160.012375 56.0
160.051132 396.0
160.07193 388.0
160.098434 216.0
160.133255 200.0
160.150879 76.0
160.189682 148.0
160.216385 196.0
160.234009 52.0
160.256699 168.0
160.303864 100.0
160.337326 156.0
160.375137 232.0
160.413605 156.0
160.440689 168.0
160.483551 144.0
160.547089 140.0
160.569107 112.0
160.575592 104.0
160.58728 164.0
160.630569 132.0
160.672714 144.0
160.697937 100.0
160.724762 184.0
160.757141 288.0
160.789948 200.0
160.818085 212.0
160.870361 140.0
160.894806 72.0
160.931503 136.0
160.9552 96.0
161.031174 168.0
161.071945 152.0
161.110397 156.0
161.121567 148.0
161.128159 244.0
161.174347 208.0
161.216476 140.0
161.304077 144.0
161.344528 112.0
161.377396 140.0
161.415329 76.0
161.446228 416.0
161.46254 108.0
161.486145 156.0
161.534103 108.0
161.543365 192.0
161.55014 228.0
161.624771 220.0
161.680954 292.0
161.718918 264.0
161.740982 140.0
161.78096 148.0
161.825256 124.0
161.853104 56.0
161.88855 188.0
161.92392 108.0
161.933701 136.0
161.956421 192.0
162.058273 312.0
162.144318 160.0
162.203827 112.0
162.263931 140.0
162.28894 144.0
162.337128 144.0
162.374802 200.0
162.389801 52.0
162.44725 276.0
162.555298 84.0
162.606049 40.0
162.631424 112.0
162.664429 52.0
162.713531 192.0
162.741257 140.0
162.771866 140.0
162.807602 216.0
162.836823 108.0
162.862503 96.0
162.887451 192.0
162.8974 92.0
162.941254 128.0
162.964127 120.0
162.987808 148.0
163.044937 340.0
163.072723 356.0
163.114914 160.0
163.144577 120.0
163.169998 88.0
163.188721 180.0
163.241196 36.0
163.271591 84.0
163.280441 148.0
163.31749 68.0
163.347 180.0
163.398911 108.0
163.495605 168.0
163.526138 72.0
163.554138 180.0
163.592331 68.0
163.64325 72.0
163.678894 100.0
163.708511 140.0
163.762939 96.0
163.834198 136.0
163.89032 100.0
163.929092 112.0
163.976974 116.0
164.027954 180.0
164.044632 88.0
164.068497 128.0
164.091614 144.0
164.13858 440.0
164.16188 140.0
164.223022 144.0
164.267654 112.0
164.303375 132.0
164.327866 136.0
164.356949 128.0
164.382782 136.0
164.472168 140.0
164.525421 84.0
164.544586 172.0
164.616165 104.0
164.662476 148.0
164.693954 268.0
164.716949 140.0
164.771454 156.0
164.791977 152.0
164.821701 180.0
164.84726 156.0
164.882324 116.0
164.918503 264.0
164.934937 132.0
164.981277 276.0
165.023636 276.0
165.056992 176.0
165.092682 40.0
165.11058 136.0
165.138779 168.0
165.170685 104.0
165.191711 184.0
165.260696 188.0
165.325485 76.0
165.368774 172.0
165.397888 140.0
165.468842 36.0
165.509811 104.0
165.573822 120.0
165.597488 152.0
165.62355 164.0
165.633789 68.0
165.642075 192.0
165.770386 160.0
165.814667 164.0
165.832611 140.0
165.868195 140.0
165.906952 36.0
165.94072 180.0
165.96019 120.0
166.005096 144.0
166.053116 216.0
166.099091 204.0
166.122559 160.0
166.14537 124.0
166.192596 140.0
166.237061 184.0
166.319962 88.0
166.370392 92.0
166.405457 172.0
166.425232 156.0
166.489426 96.0
166.516785 172.0
166.545761 120.0
166.615723 120.0
166.645981 136.0
166.673782 152.0
166.699677 76.0
166.756638 140.0
166.787872 208.0
166.813354 148.0
166.869736 104.0
166.900604 172.0
166.96489 148.0
167.000336 128.0
167.029846 156.0
167.059723 160.0
167.069336 152.0
167.109879 176.0
167.1409 140.0
167.160416 112.0
167.199524 164.0
167.259888 172.0
167.301926 160.0
167.36377 156.0
167.404831 144.0
167.459061 152.0
167.513245 120.0
167.545105 264.0
167.573578 88.0
167.594986 152.0
167.602264 116.0
167.613541 104.0
167.642807 256.0
167.67749 160.0
167.729858 212.0
167.775742 188.0
167.855957 64.0
167.907532 168.0
167.943451 180.0
167.963181 168.0
167.986481 112.0
167.991013 176.0
168.009903 128.0
168.018219 88.0
168.027908 120.0
168.075226 128.0
168.118011 308.0
168.168121 80.0
168.238907 136.0
168.244263 204.0
168.296997 96.0
168.323029 120.0
168.367401 112.0
168.424973 188.0
168.543228 164.0
168.591705 68.0
168.614822 216.0
168.649261 148.0
168.72612 124.0
168.744217 168.0
168.788177 172.0
168.815048 132.0
168.850204 196.0
168.87352 204.0
168.901825 132.0
168.945175 172.0
168.951767 128.0
168.991272 176.0
169.026825 120.0
169.061127 96.0
169.111572 268.0
169.138809 148.0
169.19191 120.0
169.224686 196.0
169.247375 132.0
169.276016 100.0
169.306747 156.0
169.322205 160.0
169.37558 188.0
169.38092 180.0
169.414551 112.0
169.448395 120.0
169.471542 136.0
169.568771 264.0
169.586868 168.0
169.61409 128.0
169.655563 84.0
169.678894 164.0
169.716599 136.0
169.787018 92.0
169.796326 128.0
169.836609 172.0
169.922699 104.0
169.962906 124.0
169.979782 256.0
170.016113 140.0
170.11528 140.0
170.155045 192.0
170.182266 148.0
170.214951 136.0
170.256973 104.0
170.342056 160.0
170.361649 120.0
170.373154 64.0
170.378555 152.0
170.414688 180.0
170.479645 116.0
170.51329 224.0
170.560272 136.0
170.577927 96.0
170.600571 76.0
170.665253 132.0
170.686371 148.0
170.729553 112.0
170.749603 164.0
170.771591 156.0
170.779221 120.0
170.815399 124.0
170.890945 124.0
170.916458 124.0
171.006531 128.0
171.022964 160.0
171.073807 164.0
171.111023 120.0
171.152893 176.0
171.198853 120.0
171.242188 160.0
171.259354 188.0
171.279251 120.0
171.297363 32.0
171.30513 120.0
171.331879 140.0
171.370956 132.0
171.407532 148.0
171.4366 280.0
171.474197 136.0
171.493439 84.0
171.527222 132.0
171.578262 156.0
171.631012 240.0
171.682861 332.0
171.71933 164.0
171.756805 116.0
171.796249 100.0
171.816971 132.0
171.838135 136.0
171.861908 112.0
171.941025 200.0
171.959732 140.0
171.966019 112.0
172.002808 176.0
172.048721 168.0
172.077133 248.0
172.174423 172.0
172.20163 184.0
172.219833 124.0
172.243454 216.0
172.285645 152.0
172.302795 180.0
172.391022 172.0
172.459229 156.0
172.478806 180.0
172.520721 152.0
172.549988 144.0
172.567413 100.0
172.626556 192.0
172.712921 160.0
172.766663 92.0
172.822739 120.0
172.881577 132.0
172.936493 120.0
172.981155 220.0
173.028946 148.0
173.0504 296.0
173.090973 212.0
173.113312 112.0
173.14212 76.0
173.162292 200.0
173.1716 140.0
173.252136 144.0
173.278336 140.0
173.329117 148.0
173.3517 160.0
173.382919 312.0
173.423218 168.0
173.506104 252.0
173.561417 80.0
173.579773 164.0
173.613861 180.0
173.64534 116.0
173.668945 120.0
173.708786 128.0
173.793747 180.0
173.835236 204.0
173.866531 144.0
173.888153 192.0
173.924454 140.0
173.965469 68.0
173.985535 72.0
174.028488 64.0
174.055634 228.0
174.085052 332.0
174.111084 132.0
174.143951 124.0
174.201828 92.0
174.239716 276.0
174.258545 164.0
174.311935 124.0
174.316788 144.0
174.364105 148.0
174.393524 156.0
174.439819 172.0
174.468689 148.0
174.496796 136.0
174.546417 188.0
174.592773 148.0
174.619263 140.0
174.66713 136.0
174.706589 204.0
174.756577 88.0
174.78363 156.0
174.818375 116.0
174.864471 72.0
174.898727 164.0
174.922379 112.0
174.973114 216.0
174.996109 180.0
175.017166 156.0
175.056366 484.0
175.076492 312.0
175.098801 196.0
175.117249 160.0
175.138321 128.0
175.156754 112.0
175.189606 204.0
175.218369 76.0
175.291794 120.0
175.411255 132.0
175.447906 192.0
175.475906 196.0
175.502014 160.0
175.552826 164.0
175.578491 156.0
175.631851 120.0
175.719925 104.0
175.798096 152.0
175.82547 72.0
175.849228 124.0
175.876633 148.0
175.896637 160.0
175.976547 232.0
175.995651 156.0
176.03241 156.0
176.071564 296.0
176.109009 144.0
176.12973 128.0
176.153915 172.0
176.183914 112.0
176.22525 100.0
176.246384 68.0
176.280731 136.0
176.346817 168.0
176.367264 156.0
176.404968 108.0
176.469788 184.0
176.495499 356.0
176.542465 256.0
176.568527 168.0
176.578003 100.0
176.604355 144.0
176.626541 96.0
176.650696 116.0
176.734787 136.0
176.741821 176.0
176.81926 124.0
176.86261 112.0
176.884064 116.0
176.915558 128.0
176.98761 184.0
177.024109 168.0
177.074966 1364.0
177.102188 108.0
177.118622 164.0
177.167908 204.0
177.245483 156.0
177.336746 108.0
177.38446 324.0
177.429184 156.0
177.450729 108.0
177.470871 168.0
177.513107 252.0
177.560242 96.0
177.594269 152.0
177.618912 116.0
177.639038 236.0
177.661606 320.0
177.727615 196.0
177.744431 276.0
177.79892 152.0
177.830093 68.0
177.88887 168.0
177.940842 128.0
177.965256 136.0
178.008377 184.0
178.047806 160.0
178.069199 76.0
178.07811 128.0
178.087646 224.0
178.117188 100.0
178.162033 204.0
178.191254 192.0
178.212509 92.0
178.241745 140.0
178.304642 188.0
178.372345 172.0
178.39856 80.0
178.422485 124.0
178.446411 84.0
178.470352 144.0
178.499313 76.0
178.574066 156.0
178.613968 152.0
178.640411 140.0
178.674118 96.0
178.713943 316.0
178.731674 196.0
178.756882 212.0
178.808823 148.0
178.827072 224.0
178.896042 80.0
178.974243 108.0
179.025055 160.0
179.084167 152.0
179.198792 184.0
179.218323 160.0
179.24295 148.0
179.327682 108.0
179.366501 100.0
179.389343 188.0
179.46283 164.0
179.495605 112.0
179.546219 232.0
179.638931 116.0
179.723709 112.0
179.755646 200.0
179.77832 148.0
179.8237 292.0
179.875427 240.0
179.902084 196.0
179.929703 124.0
179.962509 128.0
179.983871 48.0
180.013245 108.0
180.061386 220.0
180.081451 156.0
180.129288 316.0
180.194229 196.0
180.22963 100.0
180.280396 60.0
180.311401 200.0
180.392654 80.0
180.452988 92.0
180.488907 72.0
180.512985 108.0
180.547577 212.0
180.58786 112.0
180.606598 40.0
180.639053 320.0
180.700226 48.0
180.785736 172.0
180.789734 168.0
180.830276 160.0
180.8349 124.0
180.867416 328.0
180.914413 188.0
180.949142 128.0
180.974442 124.0
181.026794 72.0
181.066971 112.0
181.160355 144.0
181.230652 120.0
181.258102 188.0
181.294693 160.0
181.319946 152.0
181.339066 144.0
181.399094 232.0
181.441132 216.0
181.471619 128.0
181.513947 148.0
181.552063 144.0
181.578888 120.0
181.605713 196.0
181.648621 104.0
181.719604 312.0
181.737946 152.0
181.77153 124.0
181.796204 164.0
181.865173 160.0
181.907745 204.0
181.925797 156.0
181.944824 168.0
181.981735 276.0
182.030945 136.0
182.068283 140.0
182.113022 184.0
182.134506 48.0
182.167496 100.0
182.209732 200.0
182.259476 172.0
182.271362 68.0
182.278656 132.0
182.299057 184.0
182.336029 168.0
182.357941 108.0
182.388748 96.0
182.410782 192.0
182.440857 340.0
182.483871 128.0
182.511795 84.0
182.580795 100.0
182.611618 168.0
182.637177 92.0
182.702499 168.0
182.739395 96.0
182.768997 152.0
182.825516 124.0
182.885818 128.0
182.965347 136.0
182.995102 168.0
183.031387 156.0
183.077026 104.0
183.137833 164.0
183.185501 456.0
183.218643 268.0
183.26445 256.0
183.302185 100.0
183.335098 92.0
183.356079 136.0
183.383026 168.0
183.401901 188.0
183.427475 172.0
183.450424 124.0
183.469299 116.0
183.507217 120.0
183.553696 224.0
183.578445 160.0
183.62439 240.0
183.656342 320.0
183.749786 144.0
183.814545 172.0
183.855972 160.0
183.879318 128.0
183.90509 220.0
183.972961 232.0
184.037598 280.0
184.083878 156.0
184.111511 196.0
184.136734 200.0
184.170364 76.0
184.218201 88.0
184.241165 196.0
184.2621 144.0
184.266281 108.0
184.277328 176.0
184.327637 128.0
184.346542 116.0
184.373779 108.0
184.395203 112.0
184.414108 296.0
184.472748 180.0
184.488281 220.0
184.513702 148.0
184.521118 48.0
184.531586 204.0
184.585602 140.0
184.625 208.0
184.679092 36.0
184.698029 184.0
184.715851 236.0
184.735901 180.0
184.768372 104.0
184.80896 136.0
184.858566 360.0
184.925323 140.0
184.952393 108.0
184.994827 232.0
185.076202 192.0
185.094193 204.0
185.190674 168.0
185.228607 84.0
185.250275 72.0
185.277664 144.0
185.304276 132.0
185.330338 160.0
185.391174 160.0
185.410141 88.0
185.431824 316.0
185.480621 44.0
185.523987 100.0
185.553818 108.0
185.578674 256.0
185.614639 316.0
185.645874 160.0
185.675842 116.0
185.716522 108.0
185.801529 108.0
185.841324 160.0
185.875778 132.0
185.896637 156.0
185.963577 164.0
186.000031 176.0
186.050308 96.0
186.099808 224.0
186.121582 156.0
186.150772 140.0
186.175217 172.0
186.194229 184.0
186.218674 116.0
186.256699 132.0
186.278046 140.0
186.302887 132.0
186.335495 84.0
186.369446 104.0
186.395264 80.0
186.424271 108.0
186.444183 96.0
186.481522 136.0
186.505249 188.0
186.525436 112.0
186.640503 112.0
186.681335 140.0
186.73912 104.0
186.827591 132.0
186.852219 152.0
186.905045 160.0
186.936813 140.0
186.988144 188.0
187.069794 112.0
187.091431 352.0
187.121521 80.0
187.156921 84.0
187.184158 148.0
187.245514 272.0
187.27948 136.0
187.298553 108.0
187.336304 172.0
187.429321 256.0
187.449249 132.0
187.467468 160.0
187.501038 152.0
187.524704 36.0
187.587402 312.0
187.6185 200.0
187.645248 148.0
187.718201 148.0
187.811005 96.0
187.860107 116.0
187.883667 144.0
187.913712 272.0
187.941971 112.0
188.010727 100.0
188.042542 328.0
188.07457 152.0
188.113998 160.0
188.141205 120.0
188.176712 148.0
188.198334 200.0
188.241211 168.0
188.2509 184.0
188.277588 148.0
188.329636 92.0
188.394104 120.0
188.437973 280.0
188.488098 44.0
188.526352 48.0
188.575546 172.0
188.605621 128.0
188.63295 172.0
188.668503 104.0
188.687637 136.0
188.714981 220.0
188.742325 200.0
188.764191 92.0
188.78334 136.0
188.808258 140.0
188.836029 212.0
188.872772 120.0
188.925003 160.0
188.943466 244.0
188.972092 188.0
188.996719 204.0
189.025406 140.0
189.073486 388.0
189.122604 200.0
189.19104 136.0
189.225693 128.0
189.249847 92.0
189.281403 148.0
189.306458 344.0
189.336761 148.0
189.410126 64.0
189.434784 96.0
189.471741 116.0
189.532333 160.0
189.575699 112.0
189.610703 280.0
189.637558 184.0
189.680939 140.0
189.719788 200.0
189.738983 132.0
189.833191 172.0
189.878098 192.0
189.900024 116.0
189.921219 168.0
189.96936 156.0
189.994049 108.0
190.031982 172.0
190.060425 984.0
190.13591 224.0
190.169998 104.0
190.217468 124.0
190.232025 56.0
190.245728 108.0
190.300781 276.0
190.337143 144.0
190.367126 144.0
190.392075 196.0
190.442093 168.0
190.47963 160.0
190.499191 124.0
190.547791 140.0
190.59404 108.0
190.614594 172.0
190.647568 104.0
190.69313 104.0
190.755661 148.0
190.767822 48.0
190.776047 184.0
190.794907 172.0
190.816635 168.0
190.90657 328.0
190.930756 44.0
191.003845 188.0
191.034958 136.0
191.07988 1800.0
191.115067 212.0
191.164597 112.0
191.208008 196.0
191.246231 176.0
191.342133 112.0
191.386368 192.0
191.417648 104.0
191.54068 144.0
191.601135 224.0
191.662552 160.0
191.687836 120.0
191.741104 128.0
191.770889 232.0
191.817368 212.0
191.85321 52.0
191.872513 304.0
191.905212 172.0
191.916626 132.0
191.928391 180.0
191.934052 88.0
191.980042 64.0
192.00592 284.0
192.075134 372.0
192.141052 208.0
192.185608 264.0
192.235962 208.0
192.258698 232.0
192.289047 76.0
192.360825 136.0
192.394547 164.0
192.413834 160.0
192.438126 128.0
192.4823 80.0
192.510971 148.0
192.544907 228.0
192.569595 112.0
192.605347 168.0
192.63974 56.0
192.663147 136.0
192.732071 216.0
192.738998 160.0
192.748093 204.0
192.772369 172.0
192.828247 164.0
192.871307 196.0
192.979691 300.0
193.035355 120.0
193.075378 268.0
193.107529 264.0
193.116089 172.0
193.127151 148.0
193.137924 220.0
193.18988 84.0
193.211731 116.0
193.243576 168.0
193.292252 116.0
193.337936 148.0
193.420349 208.0
193.465027 136.0
193.507538 100.0
193.55574 132.0
193.60231 164.0
193.646622 100.0
193.688171 176.0
193.779465 168.0
193.807312 124.0
193.827423 136.0
193.8461 84.0
193.893112 108.0
193.943115 100.0
193.968063 100.0
194.026276 164.0
194.074081 164.0
194.12056 80.0
194.160904 156.0
194.190369 164.0
194.231689 112.0
194.259232 108.0
194.30481 272.0
194.331268 108.0
194.342285 128.0
194.385742 196.0
194.443756 176.0
194.487411 244.0
194.520096 88.0
194.5784 156.0
194.600601 68.0
194.65239 68.0
194.697845 184.0
194.719421 296.0
194.78009 224.0
194.799103 168.0
194.85434 136.0
194.899918 148.0
194.98674 76.0
195.027756 148.0
195.037872 264.0
195.07991 168.0
195.127563 128.0
195.182648 120.0
195.211472 220.0
195.245316 296.0
195.348236 168.0
195.375275 200.0
195.442825 160.0
195.465088 112.0
195.484573 160.0
195.531876 132.0
195.554153 124.0
195.60025 128.0
195.626526 180.0
195.665161 164.0
195.704315 136.0
195.726334 156.0
195.788025 132.0
195.810303 140.0
195.85321 128.0
195.899445 100.0
195.924515 156.0
195.959091 164.0
196.090088 172.0
196.111221 180.0
196.142685 84.0
196.193619 100.0
196.249817 264.0
196.28067 180.0
196.348221 136.0
196.395111 148.0
196.454636 216.0
196.51001 188.0
196.53775 132.0
196.549988 124.0
196.56102 172.0
196.585205 144.0
196.623962 240.0
196.655136 176.0
196.72348 180.0
196.802109 204.0
196.878494 76.0
196.912003 168.0
196.942032 88.0
196.950867 44.0
196.962418 172.0
196.984634 140.0
197.02095 132.0
197.045135 152.0
197.103592 160.0
197.127136 132.0
197.146561 84.0
197.171097 280.0
197.213776 84.0
197.258499 40.0
197.428375 180.0
197.463272 224.0
197.577316 104.0
197.596786 96.0
197.629684 340.0
197.672455 140.0
197.698334 32.0
197.731216 188.0
197.819397 156.0
197.862793 108.0
197.953751 164.0
197.991592 88.0
198.044815 92.0
198.089966 168.0
198.126053 132.0
198.168076 120.0
198.204453 184.0
198.256699 160.0
198.27951 84.0
198.336227 180.0
198.390198 96.0
198.472382 160.0
198.500198 224.0
198.588867 164.0
198.611038 212.0
198.6651 116.0
198.694092 132.0
198.75412 56.0
198.804001 160.0
198.852646 356.0
198.879181 100.0
198.909103 164.0
198.941269 188.0
198.960205 176.0
199.016647 76.0
199.061279 284.0
199.082565 212.0
199.104462 136.0
199.147171 64.0
199.196152 192.0
199.256973 132.0
199.306046 260.0
199.360687 52.0
199.415268 172.0
199.456253 112.0
199.487183 164.0
199.522614 176.0
199.579956 152.0
199.608078 164.0
199.647446 88.0
199.672546 156.0
199.703705 104.0
199.729019 92.0
199.775497 200.0
199.831802 112.0
199.90065 112.0
199.942398 96.0
199.98732 156.0
200.01799 196.0
200.06572 160.0
200.104889 136.0
200.134293 104.0
200.154007 88.0
200.210327 148.0
200.255386 104.0
200.319214 208.0
200.413147 80.0
200.461151 120.0
200.480789 180.0
200.528702 184.0
200.557419 188.0
200.599838 136.0
200.675293 144.0
200.706299 200.0
200.749023 340.0
200.771164 80.0
200.798996 128.0
200.84317 152.0
200.880585 152.0
200.953903 144.0
200.998245 220.0
201.07402 464.0
201.113373 192.0
201.141815 88.0
201.174988 176.0
201.233551 312.0
201.279144 56.0
201.301727 128.0
201.361038 88.0
201.465561 116.0
201.527145 120.0
201.545227 120.0
201.580429 140.0
201.618149 132.0
201.652893 68.0
201.67749 200.0
201.736862 140.0
201.776443 116.0
201.855621 164.0
201.91008 140.0
201.997116 128.0
202.027191 164.0
202.080185 352.0
202.113785 308.0
202.138504 104.0
202.15831 116.0
202.206421 252.0
202.248886 144.0
202.285675 152.0
202.370621 96.0
202.390442 164.0
202.440872 84.0
202.491852 84.0
202.517441 152.0
202.55188 128.0
202.581253 184.0
202.611694 176.0
202.636871 88.0
202.666885 148.0
202.749481 280.0
202.784225 124.0
202.815399 144.0
202.895432 140.0
202.930206 140.0
203.011032 132.0
203.053619 348.0
203.06604 152.0
203.091125 392.0
203.197937 140.0
203.227203 144.0
203.289062 168.0
203.345139 148.0
203.44577 96.0
203.472168 228.0
203.516525 144.0
203.555908 88.0
203.589996 132.0
203.61174 492.0
203.743378 92.0
203.774826 116.0
203.802841 164.0
203.883621 236.0
203.979263 88.0
204.024734 108.0
204.074661 3344.0
204.135788 148.0
204.184601 128.0
204.218964 200.0
204.240875 64.0
204.269318 148.0
204.35466 64.0
204.383408 236.0
204.422958 140.0
204.462311 160.0
204.484955 204.0
204.508255 216.0
204.562332 192.0
204.585205 124.0
204.630753 100.0
204.682007 80.0
204.756897 204.0
204.82518 156.0
204.857742 160.0
204.910599 208.0
204.932678 192.0
204.957138 172.0
205.006027 168.0
205.072098 16536.0
205.152023 132.0
205.194901 108.0
205.234268 124.0
205.257828 184.0
205.306122 72.0
205.331787 68.0
205.358826 124.0
205.398773 140.0
205.41954 176.0
205.465851 80.0
205.490494 56.0
205.509537 168.0
205.529175 252.0
205.568573 140.0
205.590698 176.0
205.642776 296.0
205.659668 188.0
205.694168 124.0
205.719238 56.0
205.751266 48.0
205.77124 316.0
205.791229 184.0
205.8255 140.0
205.874908 184.0
205.894348 108.0
205.928177 168.0
205.963058 256.0
206.023438 160.0
206.07843 3664.0
206.134186 204.0
206.195953 220.0
206.232712 172.0
206.27121 228.0
206.319382 136.0
206.362686 164.0
206.384659 204.0
206.447113 84.0
206.485657 100.0
206.534286 140.0
206.56575 52.0
206.645599 216.0
206.670715 148.0
206.75174 132.0
206.785049 176.0
206.807602 292.0
206.855087 248.0
206.880875 212.0
206.90918 60.0
207.009109 128.0
207.014099 112.0
207.049484 160.0
207.086502 492.0
207.164062 164.0
207.199158 80.0
207.231674 188.0
207.31221 160.0
207.364105 252.0
207.402649 220.0
207.411942 352.0
207.450653 96.0
207.486115 164.0
207.53064 120.0
207.563934 156.0
207.595169 124.0
207.619827 52.0
207.645645 244.0
207.66571 188.0
207.716751 116.0
207.746033 80.0
207.783203 184.0
207.817764 128.0
207.869278 164.0
207.903854 84.0
207.935852 136.0
207.973251 112.0
208.023773 164.0
208.047729 128.0
208.071487 196.0
208.10025 120.0
208.169922 100.0
208.215927 160.0
208.251938 68.0
208.26152 140.0
208.291473 268.0
208.314453 132.0
208.40065 140.0
208.425751 136.0
208.466736 204.0
208.538589 116.0
208.568726 140.0
208.61908 172.0
208.64653 124.0
208.680634 168.0
208.705338 180.0
208.730652 96.0
208.774353 128.0
208.811554 128.0
208.848953 64.0
208.865189 144.0
208.90181 160.0
208.950394 224.0
208.984344 104.0
209.007156 112.0
209.059891 160.0
209.096588 264.0
209.179688 276.0
209.2155 280.0
209.246277 112.0
209.27507 108.0
209.301941 156.0
209.367218 188.0
209.447861 128.0
209.486084 212.0
209.591919 212.0
209.657196 172.0
209.707199 148.0
209.805206 48.0
209.851334 148.0
209.931976 112.0
209.950073 164.0
210.025055 204.0
210.046494 120.0
210.074478 156.0
210.109268 224.0
210.138336 136.0
210.185944 48.0
210.211914 196.0
210.260971 164.0
210.289841 124.0
210.33313 204.0
210.396652 124.0
210.454391 116.0
210.474609 132.0
210.52948 116.0
210.555466 160.0
210.575684 72.0
210.595901 140.0
210.658096 128.0
210.697006 204.0
210.762344 152.0
210.786591 140.0
210.829712 160.0
210.870041 164.0
210.914627 132.0
210.953445 252.0
210.986282 176.0
211.028351 200.0
211.05542 192.0
211.081436 92.0
211.233932 188.0
211.266556 120.0
211.306122 124.0
211.362045 104.0
211.44017 112.0
211.486481 100.0
211.577042 156.0
211.619247 140.0
211.675812 152.0
211.718109 136.0
211.767349 76.0
211.807907 80.0
211.845566 184.0
211.865845 100.0
211.944916 192.0
211.967255 112.0
212.010117 152.0
212.074097 136.0
212.131882 160.0
212.140884 128.0
212.172043 172.0
212.204941 128.0
212.272446 260.0
212.305511 100.0
212.40506 164.0
212.4505 60.0
212.477585 220.0
212.514465 220.0
212.553024 64.0
212.590744 256.0
212.631378 148.0
212.667511 116.0
212.730072 244.0
212.766739 108.0
212.804077 100.0
212.825882 220.0
212.866409 172.0
212.924622 144.0
212.946777 256.0
212.979813 116.0
213.029617 136.0
213.073669 248.0
213.103241 352.0
213.14093 192.0
213.264572 148.0
213.29364 60.0
213.325623 160.0
213.368469 92.0
213.395401 240.0
213.424469 84.0
213.456451 84.0
213.50589 164.0
213.533676 148.0
213.59024 168.0
213.639709 104.0
213.665253 164.0
213.684113 152.0
213.709534 96.0
213.741531 172.0
213.770645 192.0
213.7892 148.0
213.821289 128.0
213.849213 96.0
213.884155 228.0
213.914246 176.0
213.94043 64.0
213.971481 80.0
214.065353 184.0
214.08786 184.0
214.138535 340.0
214.166595 104.0
214.194687 156.0
214.238617 172.0
214.268463 144.0
214.303528 76.0
214.341415 156.0
214.382202 96.0
214.407532 104.0
214.428726 100.0
214.46965 92.0
214.492966 124.0
214.55127 52.0
214.581924 192.0
214.607925 164.0
214.637253 212.0
214.664993 104.0
214.690994 100.0
214.718018 132.0
214.7379 160.0
214.809372 192.0
214.830765 148.0
214.898346 100.0
214.933578 164.0
215.003403 84.0
215.048218 156.0
215.089523 168.0
215.123947 140.0
215.158112 148.0
215.187317 140.0
215.263229 132.0
215.302277 140.0
215.356888 184.0
215.389908 140.0
215.407745 100.0
215.428391 184.0
215.482407 124.0
215.52475 180.0
215.584579 108.0
215.610886 132.0
215.682007 60.0
215.72084 160.0
215.75119 136.0
215.790146 192.0
215.817322 148.0
215.855331 176.0
215.98378 156.0
216.062241 124.0
216.093872 336.0
216.130371 300.0
216.153915 88.0
216.178253 144.0
216.222626 124.0
216.281998 120.0
216.327072 104.0
216.360443 148.0
216.386078 52.0
216.421219 304.0
216.528732 112.0
216.596939 120.0
216.643463 212.0
216.693268 112.0
216.751755 148.0
216.793259 156.0
216.834717 280.0
216.857727 128.0
216.884109 124.0
216.919281 308.0
216.942734 144.0
216.98378 100.0
217.018967 248.0
217.070999 1092.0
217.12294 132.0
217.15094 120.0
217.202942 132.0
217.259476 120.0
217.326965 172.0
217.373199 148.0
217.42894 92.0
217.473541 156.0
217.530685 96.0
217.547836 172.0
217.568436 132.0
217.590759 292.0
217.635345 164.0
217.676483 56.0
217.721848 164.0
217.74382 124.0
217.777802 180.0
217.807083 116.0
217.86998 160.0
217.905197 272.0
217.947144 308.0
217.978851 92.0
218.030487 168.0
218.081314 772.0
218.123032 192.0
218.167221 180.0
218.19931 100.0
218.228714 164.0
218.340454 192.0
218.41153 96.0
218.443481 284.0
218.511078 112.0
218.546387 164.0
218.596405 100.0
218.630386 72.0
218.651398 108.0
218.738235 192.0
218.782547 156.0
218.811279 120.0
218.849442 188.0
218.872559 240.0
218.951187 156.0
218.976334 200.0
219.009811 164.0
219.090866 3448.0
219.146835 160.0
219.180588 244.0
219.261978 108.0
219.304352 180.0
219.326828 136.0
219.420471 152.0
219.440826 108.0
219.494385 200.0
219.533752 176.0
219.592209 124.0
219.630554 152.0
219.651199 148.0
219.69545 148.0
219.722 76.0
219.754456 128.0
219.792313 216.0
219.835556 196.0
219.897095 120.0
219.940933 180.0
219.97876 200.0
220.001068 160.0
220.028534 288.0
220.094131 20436.0
220.184021 140.0
220.243851 104.0
220.253143 144.0
220.27829 168.0
220.31572 124.0
220.369354 124.0
220.395203 188.0
220.415649 160.0
220.51236 56.0
220.552826 148.0
220.590622 120.0
220.620453 184.0
220.647888 320.0
220.687836 204.0
220.728561 220.0
220.774338 160.0
220.798233 168.0
220.826828 184.0
220.854553 144.0
220.896912 156.0
220.947281 276.0
220.954422 336.0
220.966232 192.0
220.999649 280.0
221.032837 296.0
221.102661 51300.0
221.177048 244.0
221.216232 124.0
221.23938 68.0
221.266373 60.0
221.30603 140.0
221.349426 152.0
221.377106 112.0
221.434265 196.0
221.458862 132.0
221.534424 264.0
221.581528 64.0
221.607864 124.0
221.615494 100.0
221.625565 164.0
221.647171 236.0
221.667648 168.0
221.698883 140.0
221.732834 160.0
221.761856 152.0
221.80014 164.0
221.836517 336.0
221.857697 196.0
221.898666 136.0
221.942291 160.0
222.026352 108.0
222.103622 4792.0
222.157471 72.0
222.192291 196.0
222.222977 128.0
222.253342 248.0
222.326721 316.0
222.373596 256.0
222.412079 400.0
222.471054 188.0
222.476547 56.0
222.522171 164.0
222.563492 160.0
222.599442 304.0
222.648026 88.0
222.672516 152.0
222.717926 152.0
222.767166 180.0
222.813141 164.0
222.84465 284.0
222.871429 96.0
222.941452 280.0
222.98436 80.0
223.010742 96.0
223.032913 68.0
223.107559 748.0
223.207047 196.0
223.27478 212.0
223.328323 96.0
223.368927 88.0
223.404007 116.0
223.432327 140.0
223.467361 116.0
223.524231 132.0
223.546875 148.0
223.603928 124.0
223.632401 132.0
223.681564 160.0
223.724228 148.0
223.758789 216.0
223.818344 112.0
223.839188 100.0
223.866562 124.0
223.912827 80.0
223.952362 116.0
223.993683 160.0
224.035767 132.0
224.061966 92.0
224.089722 148.0
224.127869 176.0
224.166946 192.0
224.202271 288.0
224.224075 188.0
224.266769 120.0
224.321869 124.0
224.363983 288.0
224.405121 104.0
224.453049 176.0
224.481995 136.0
224.569183 128.0
224.631943 188.0
224.683243 92.0
224.70755 216.0
224.74501 128.0
224.788574 76.0
224.876694 128.0
224.936386 144.0
224.980804 132.0
225.035751 316.0
225.08075 172.0
225.112549 144.0
225.154358 120.0
225.193192 112.0
225.232681 144.0
225.275253 180.0
225.300735 84.0
225.323349 84.0
225.35321 156.0
225.394455 184.0
225.416428 124.0
225.477036 188.0
225.500946 152.0
225.533829 184.0
225.596603 144.0
225.620514 72.0
225.659393 88.0
225.694153 96.0
225.728165 132.0
225.754578 276.0
225.784103 164.0
225.809891 256.0
225.848236 164.0
225.871719 120.0
225.897583 208.0
225.9272 192.0
225.967453 100.0
225.994385 124.0
226.047974 168.0
226.124817 192.0
226.175354 152.0
226.272751 228.0
226.33403 232.0
226.358353 108.0
226.438309 168.0
226.464401 116.0
226.503342 256.0
226.564194 128.0
226.6082 144.0
226.693542 100.0
226.722076 280.0
226.773026 120.0
226.806396 300.0
226.847458 188.0
226.889313 212.0
226.937912 144.0
226.966248 244.0
227.006882 40.0
227.054398 228.0
227.088776 372.0
227.150177 88.0
227.212906 152.0
227.244751 120.0
227.295486 116.0
227.334686 228.0
227.402908 124.0
227.491882 112.0
227.551636 144.0
227.616516 180.0
227.649094 160.0
227.721176 324.0
227.742203 216.0
227.797272 204.0
227.804764 68.0
227.821548 396.0
227.856354 108.0
227.92836 112.0
227.985565 204.0
228.065506 136.0
228.1539 68.0
228.184433 128.0
228.24556 124.0
228.322296 136.0
228.373428 152.0
228.443634 200.0
228.466675 108.0
228.514816 164.0
228.544907 156.0
228.650238 140.0
228.681961 220.0
228.738876 116.0
228.759048 296.0
228.780121 136.0
228.807861 120.0
228.832108 328.0
228.860962 180.0
228.895554 156.0
228.952957 200.0
228.984756 116.0
229.008011 136.0
229.070663 2036.0
229.108627 180.0
229.16217 96.0
229.212967 140.0
229.246735 136.0
229.288086 184.0
229.329544 268.0
229.375351 396.0
229.411728 220.0
229.451523 40.0
229.489639 144.0
229.495697 92.0
229.523102 152.0
229.563095 120.0
229.62175 204.0
229.664703 180.0
229.77034 68.0
229.812958 164.0
229.867783 96.0
229.888901 128.0
229.958328 256.0
230.019989 168.0
230.078949 3228.0
230.141998 152.0
230.170776 156.0
230.214951 104.0
230.249176 204.0
230.285583 124.0
230.347855 256.0
230.408173 120.0
230.447556 64.0
230.479828 88.0
230.511002 92.0
230.532166 80.0
230.565399 136.0
230.645004 324.0
230.707474 76.0
230.728638 148.0
230.805466 264.0
230.849457 208.0
230.903015 140.0
230.937302 56.0
230.996292 160.0
231.020935 284.0
231.086716 3084.0
231.149078 156.0
231.204071 116.0
231.254562 192.0
231.338455 148.0
231.406372 184.0
231.433624 180.0
231.472992 72.0
231.494186 244.0
231.546814 180.0
231.587387 88.0
231.606247 168.0
231.634323 208.0
231.672226 164.0
231.680084 128.0
231.71698 116.0
231.765808 132.0
231.825943 244.0
231.84642 268.0
231.906784 196.0
231.983215 252.0
232.095947 3320.0
232.185181 120.0
232.241486 184.0
232.31192 260.0
232.343262 348.0
232.389496 200.0
232.456619 140.0
232.493271 80.0
232.536758 144.0
232.556366 312.0
232.584229 108.0
232.605927 48.0
232.632141 132.0
232.660263 148.0
232.665436 120.0
232.701019 268.0
232.737488 68.0
232.800262 196.0
232.808624 132.0
232.836426 280.0
232.880234 104.0
232.928299 116.0
232.93338 184.0
232.967407 216.0
233.000519 104.0
233.023956 292.0
233.052963 252.0
233.103027 67064.0
233.174957 276.0
233.201843 140.0
233.287872 104.0
233.333023 108.0
233.389542 120.0
233.42334 148.0
233.475357 148.0
233.493362 128.0
233.499023 116.0
233.521912 180.0
233.551987 48.0
233.602661 252.0
233.622665 256.0
233.642471 120.0
233.686569 188.0
233.717789 72.0
233.739853 96.0
233.746536 72.0
233.758743 92.0
233.798355 108.0
233.844086 44.0
233.939651 156.0
233.95961 180.0
233.999893 156.0
234.044708 244.0
234.107605 17276.0
234.180618 148.0
234.236603 200.0
234.292084 208.0
234.343155 144.0
234.37059 68.0
234.413895 424.0
234.455811 224.0
234.492844 124.0
234.517883 208.0
234.562958 104.0
234.593079 136.0
234.637711 48.0
234.650604 148.0
234.678574 96.0
234.714432 172.0
234.779724 132.0
234.800797 108.0
234.82341 144.0
234.863373 116.0
234.895493 148.0
234.914536 152.0
234.936203 132.0
234.993851 196.0
235.03157 100.0
235.061356 88.0
235.109711 1736.0
235.180069 92.0
235.213211 124.0
235.28598 224.0
235.309799 192.0
235.36232 116.0
235.474472 176.0
235.510818 180.0
235.552826 40.0
235.584991 84.0
235.6315 216.0
235.695267 68.0
235.731949 152.0
235.782349 332.0
235.833511 104.0
235.860306 88.0
235.899277 252.0
235.93222 184.0
235.953644 136.0
235.987595 152.0
236.030106 232.0
236.056747 128.0
236.10321 272.0
236.183136 136.0
236.219315 200.0
236.274918 140.0
236.331772 256.0
236.366394 144.0
236.397507 144.0
236.453323 104.0
236.480042 152.0
236.51799 352.0
236.615952 160.0
236.645477 192.0
236.671066 124.0
236.742371 240.0
236.852936 160.0
236.908813 244.0
236.941605 172.0
236.977127 160.0
237.072433 3648.0
237.188828 96.0
237.239212 268.0
237.268539 140.0
237.295456 156.0
237.310593 84.0
237.321777 132.0
237.348267 132.0
237.382233 100.0
237.446396 152.0
237.496353 208.0
237.530289 120.0
237.584442 140.0
237.612045 176.0
237.645798 180.0
237.694809 152.0
237.762405 212.0
237.805374 176.0
237.854156 184.0
237.944061 204.0
237.983444 112.0
238.020996 180.0
238.073959 552.0
238.16275 220.0
238.186142 92.0
238.222595 180.0
238.26503 132.0
238.292831 88.0
238.314255 188.0
238.365356 132.0
238.400192 120.0
238.43457 148.0
238.483536 148.0
238.552475 136.0
238.585648 216.0
238.613312 104.0
238.637741 364.0
238.644485 156.0
238.7939 316.0
238.956161 76.0
238.982407 164.0
239.013184 80.0
239.040085 184.0
239.08226 224.0
239.109772 96.0
239.173218 92.0
239.200119 76.0
239.295563 204.0
239.354874 68.0
239.405533 168.0
239.439209 280.0
239.575378 176.0
239.62355 156.0
239.662903 180.0
239.708939 164.0
239.746002 196.0
239.836288 124.0
239.848404 148.0
239.868362 48.0
239.915634 164.0
239.942581 184.0
239.968048 132.0
239.992722 136.0
240.035141 164.0
240.047226 124.0
240.106827 96.0
240.27063 116.0
240.307938 132.0
240.366058 128.0
240.409164 112.0
240.464722 92.0
240.49173 300.0
240.515289 324.0
240.554245 92.0
240.587677 184.0
240.649155 108.0
240.712021 124.0
240.753342 116.0
240.776566 120.0
240.820892 208.0
240.878494 212.0
240.899933 236.0
240.949554 140.0
240.974258 100.0
241.036072 140.0
241.073608 272.0
241.097046 208.0
241.1875 104.0
241.271027 112.0
241.30896 124.0
241.364777 272.0
241.427704 128.0
241.439545 140.0
241.446869 68.0
241.483673 128.0
241.507507 188.0
241.533218 180.0
241.560165 188.0
241.592285 152.0
241.615219 292.0
241.653763 152.0
241.686615 188.0
241.727295 204.0
241.767395 132.0
241.787689 188.0
241.839691 232.0
241.913849 204.0
241.985062 140.0
242.047302 372.0
242.105927 1144.0
242.133575 88.0
242.166275 164.0
242.279907 120.0
242.310898 200.0
242.362885 432.0
242.390945 168.0
242.434082 176.0
242.493347 132.0
242.504486 144.0
242.560242 280.0
242.642532 140.0
242.695129 120.0
242.716736 120.0
242.744858 172.0
242.81929 188.0
242.870758 168.0
242.881165 164.0
242.960602 224.0
242.980927 112.0
243.040787 160.0
243.086395 2716.0
243.163681 148.0
243.215057 152.0
243.241287 132.0
243.289322 44.0
243.320755 108.0
243.391617 204.0
243.43689 52.0
243.484985 140.0
243.520752 208.0
243.550293 204.0
243.572678 192.0
243.610168 188.0
243.633774 260.0
243.678329 120.0
243.729187 172.0
243.806961 132.0
243.852051 248.0
243.884293 368.0
243.922485 140.0
243.993881 172.0
244.03537 148.0
244.043884 148.0
244.092957 3208.0
244.172226 168.0
244.231155 168.0
244.254333 60.0
244.277847 208.0
244.304108 132.0
244.373627 508.0
244.399048 132.0
244.442352 148.0
244.454041 64.0
244.461548 160.0
244.483078 100.0
244.520767 144.0
244.574677 76.0
244.582169 124.0
244.602051 108.0
244.624649 204.0
244.64772 224.0
244.671341 172.0
244.709015 152.0
244.74205 164.0
244.77005 300.0
244.792145 260.0
244.86322 104.0
244.918396 156.0
244.952927 144.0
244.999588 312.0
245.030273 164.0
245.054138 396.0
245.102539 75712.0
245.178284 344.0
245.223282 200.0
245.279785 52.0
245.341873 116.0
245.370056 92.0
245.39856 160.0
245.420105 200.0
245.450546 116.0
245.473297 140.0
245.492249 180.0
245.514374 168.0
245.560822 172.0
245.613342 288.0
245.662292 284.0
245.67569 56.0
245.684998 200.0
245.728439 276.0
245.752884 48.0
245.80545 156.0
245.828918 156.0
245.903793 72.0
245.927643 256.0
245.983719 128.0
245.994232 156.0
246.00351 224.0
246.033386 264.0
246.050507 168.0
246.105988 15736.0
246.20079 284.0
246.223785 172.0
246.249283 220.0
246.309921 60.0
246.33046 188.0
246.38623 112.0
246.426941 136.0
246.450745 160.0
246.463028 156.0
246.471924 144.0
246.522995 84.0
246.540329 108.0
246.576981 152.0
246.654724 120.0
246.709152 100.0
246.739304 272.0
246.796692 224.0
246.834991 208.0
246.876083 64.0
246.926804 144.0
246.953339 168.0
247.005661 316.0
247.010132 100.0
247.033478 336.0
247.077438 656.0
247.117126 28524.0
247.165878 292.0
247.210724 96.0
247.255234 80.0
247.27417 40.0
247.324265 200.0
247.362366 208.0
247.403564 104.0
247.453827 188.0
247.514313 164.0
247.560638 136.0
247.592224 248.0
247.634384 204.0
247.672455 188.0
247.711334 136.0
247.764496 124.0
247.794632 240.0
247.816559 152.0
247.853592 216.0
247.88533 72.0
247.912323 152.0
247.94368 164.0
247.962234 228.0
248.02478 208.0
248.120285 3392.0
248.180161 40.0
248.239929 136.0
248.286789 192.0
248.3685 368.0
248.399704 84.0
248.440491 148.0
248.471268 220.0
248.509506 136.0
248.532181 176.0
248.600327 264.0
248.648865 108.0
248.670029 248.0
248.726059 148.0
248.762665 152.0
248.807678 72.0
248.861847 272.0
248.890945 208.0
248.916718 176.0
249.007965 164.0
249.062836 192.0
249.12381 932.0
249.180252 160.0
249.215363 80.0
249.224426 88.0
249.237183 140.0
249.241867 224.0
249.269409 64.0
249.335876 80.0
249.363693 124.0
249.385696 132.0
249.431412 184.0
249.492584 56.0
249.521744 116.0
249.54985 56.0
249.617508 168.0
249.642807 72.0
249.658905 148.0
249.680695 68.0
249.685181 128.0
249.711502 84.0
249.781097 140.0
249.82428 156.0
249.850433 148.0
249.908447 292.0
249.9366 148.0
250.004959 144.0
250.076019 60.0
250.118698 152.0
250.166336 224.0
250.236908 180.0
250.277206 96.0
250.312378 128.0
250.339005 112.0
250.367355 84.0
250.411453 80.0
250.448441 220.0
250.515396 80.0
250.543747 104.0
250.57608 168.0
250.694336 204.0
250.736923 200.0
250.766266 268.0
250.801666 180.0
250.813354 152.0
250.840347 212.0
250.874664 188.0
250.905289 332.0
250.955811 152.0
250.993454 132.0
251.074646 240.0
251.130951 148.0
251.177414 204.0
251.246811 116.0
251.29512 192.0
251.335159 40.0
251.360397 80.0
251.385651 128.0
251.410889 72.0
251.465759 52.0
251.511459 336.0
251.544342 180.0
251.652786 160.0
251.707169 80.0
251.742996 200.0
251.818176 56.0
251.891525 108.0
251.901993 112.0
251.910843 168.0
251.968765 156.0
252.075897 132.0
252.089218 76.0
252.09729 116.0
252.127808 120.0
252.159409 168.0
252.191025 136.0
252.2258 112.0
252.266891 184.0
252.323792 236.0
252.354752 132.0
252.393356 148.0
252.472412 104.0
252.514313 212.0
252.545166 244.0
252.589539 152.0
252.684784 112.0
252.759201 116.0
252.81041 168.0
252.880554 148.0
252.912109 224.0
252.94722 212.0
252.991348 80.0
253.022675 156.0
253.074722 120.0
253.140884 124.0
253.189194 172.0
253.228958 228.0
253.287216 152.0
253.314133 152.0
253.336945 160.0
253.387238 144.0
253.43161 132.0
253.452347 88.0
253.486694 120.0
253.517166 152.0
253.546799 88.0
253.574203 52.0
253.637726 304.0
253.673676 152.0
253.734802 224.0
253.767593 144.0
253.792953 88.0
253.85582 184.0
253.910294 328.0
253.945175 64.0
254.036972 64.0
254.085098 152.0
254.14505 104.0
254.20842 152.0
254.237076 180.0
254.262466 128.0
254.300552 44.0
254.344986 280.0
254.40213 36.0
254.456192 148.0
254.481232 132.0
254.585068 268.0
254.621231 52.0
254.69429 84.0
254.744003 140.0
254.894821 188.0
254.948013 84.0
254.980255 180.0
255.005676 160.0
255.085754 1412.0
255.141098 140.0
255.168289 52.0
255.21048 160.0
255.247299 148.0
255.290665 140.0
255.347687 148.0
255.375198 104.0
255.495789 168.0
255.51767 228.0
255.552658 108.0
255.606552 124.0
255.651306 100.0
255.705414 312.0
255.75441 160.0
255.800903 52.0
255.834213 148.0
255.913101 208.0
255.950546 180.0
255.974579 132.0
256.013214 220.0
256.054321 124.0
256.093964 964.0
256.16394 72.0
256.221283 76.0
256.259521 204.0
256.285004 120.0
256.343689 164.0
256.373566 96.0
256.425232 276.0
256.473053 164.0
256.559204 140.0
256.582886 72.0
256.624786 156.0
256.67392 52.0
256.724915 124.0
256.820618 156.0
256.843872 88.0
256.888428 160.0
256.927582 252.0
256.996094 48.0
257.103058 720.0
257.135468 184.0
257.145569 312.0
257.184387 184.0
257.211273 172.0
257.276947 48.0
257.30249 140.0
257.334412 76.0
257.368286 196.0
257.391907 88.0
257.434906 136.0
257.488617 124.0
257.520172 196.0
257.53537 228.0
257.618866 124.0
257.646698 160.0
257.682556 232.0
257.727295 104.0
257.765656 120.0
257.797607 128.0
257.829895 120.0
257.861511 212.0
257.887726 140.0
257.956055 188.0
257.986481 224.0
258.014954 184.0
258.108429 9188.0
258.186646 184.0
258.208069 56.0
258.254791 128.0
258.284485 128.0
258.345612 136.0
258.401581 228.0
258.435944 296.0
258.491669 112.0
258.536346 144.0
258.561676 192.0
258.591034 288.0
258.635925 148.0
258.664398 160.0
258.705994 264.0
258.74762 80.0
258.77005 44.0
258.79245 84.0
258.870209 252.0
258.91391 168.0
258.93515 128.0
258.943909 108.0
259.001862 144.0
259.041595 228.0
259.117554 54820.0
259.199463 400.0
259.260162 108.0
259.308228 212.0
259.382141 104.0
259.439209 56.0
259.481323 48.0
259.510956 280.0
259.534576 172.0
259.588898 332.0
259.651184 128.0
259.711273 80.0
259.750488 104.0
259.791443 120.0
259.847931 136.0
259.86142 40.0
259.884216 204.0
259.926758 176.0
259.983765 216.0
260.006042 68.0
260.015381 216.0
260.04361 88.0
260.118591 15328.0
260.189972 184.0
260.233917 44.0
260.256958 80.0
260.311035 188.0
260.347748 48.0
260.373444 128.0
260.40686 108.0
260.47702 192.0
260.576782 116.0
260.607727 64.0
260.655121 164.0
260.679657 300.0
260.723633 68.0
260.75415 100.0
260.839325 92.0
260.870728 204.0
260.919403 120.0
260.970856 108.0
260.992981 268.0
261.019379 92.0
261.067627 120.0
261.12323 3392.0
261.170563 96.0
261.208344 112.0
261.270996 136.0
261.310638 176.0
261.347076 128.0
261.379669 160.0
261.413391 80.0
261.437256 140.0
261.506256 84.0
261.556366 124.0
261.60498 48.0
261.651611 60.0
261.708649 144.0
261.736969 64.0
261.785278 160.0
261.835022 164.0
261.855011 228.0
261.868225 140.0
261.876038 208.0
261.906921 68.0
261.92453 68.0
261.984375 208.0
262.036407 184.0
262.056976 156.0
262.132141 368.0
262.221649 208.0
262.319366 224.0
262.366699 380.0
262.428253 180.0
262.462555 140.0
262.547852 116.0
262.597473 188.0
262.636169 120.0
262.665192 80.0
262.714447 120.0
262.745758 148.0
262.77005 220.0
262.796051 108.0
262.803711 60.0
262.814972 104.0
262.869629 184.0
262.928986 64.0
262.968872 140.0
263.022491 80.0
263.062134 256.0
263.091187 124.0
263.139252 312.0
263.209625 188.0
263.265076 164.0
263.287872 176.0
263.350525 296.0
263.38504 140.0
263.41629 96.0
263.494659 160.0
263.543365 60.0
263.569611 64.0
263.606201 208.0
263.655945 172.0
263.715546 116.0
263.754791 92.0
263.789001 96.0
263.818085 192.0
263.849274 124.0
263.884338 144.0
263.926056 296.0
263.977142 180.0
264.02002 132.0
264.030121 84.0
264.068359 120.0
264.111237 136.0
264.179047 124.0
264.201843 164.0
264.264404 176.0
264.296783 188.0
264.332367 48.0
264.419739 104.0
264.44101 112.0
264.563019 108.0
264.604279 124.0
264.662079 84.0
264.673401 180.0
264.720825 160.0
264.766876 236.0
264.814758 180.0
264.840668 88.0
264.872314 192.0
264.915192 132.0
264.970734 192.0
264.996185 132.0
265.041534 132.0
265.10202 592.0
265.158203 156.0
265.190613 64.0
265.219788 156.0
265.254242 128.0
265.321289 104.0
265.390533 144.0
265.427277 56.0
265.475922 116.0
265.535065 188.0
265.621887 104.0
265.760498 204.0
265.793854 136.0
265.845032 160.0
265.940857 132.0
265.982086 100.0
266.045929 84.0
266.097992 548.0
266.147675 132.0
266.220825 120.0
266.257202 164.0
266.319794 160.0
266.399811 196.0
266.427521 148.0
266.485474 176.0
266.546692 224.0
266.571167 128.0
266.60083 184.0
266.639008 116.0
266.65387 132.0
266.665558 224.0
266.693451 76.0
266.746552 292.0
266.788605 120.0
266.846252 168.0
266.950317 92.0
266.986084 68.0
267.023712 132.0
267.081177 152.0
267.105347 304.0
267.164978 188.0
267.225311 164.0
267.275604 48.0
267.301636 164.0
267.330933 112.0
267.467651 40.0
267.492584 144.0
267.58548 144.0
267.610901 44.0
267.645996 188.0
267.728119 68.0
267.783356 156.0
267.887726 184.0
267.944183 144.0
267.988922 328.0
268.020813 136.0
268.047363 92.0
268.076691 148.0
268.099518 60.0
268.12558 44.0
268.148407 172.0
268.189392 140.0
268.213593 196.0
268.252716 136.0
268.308136 128.0
268.334229 80.0
268.360291 344.0
268.383118 60.0
268.421844 184.0
268.471191 88.0
268.50705 164.0
268.539673 36.0
268.585327 84.0
268.624054 208.0
268.678345 132.0
268.749176 192.0
268.797394 196.0
268.826782 140.0
268.881927 152.0
268.927795 272.0
268.963867 100.0
269.00946 152.0
269.019012 200.0
269.069336 192.0
269.101562 796.0
269.16629 76.0
269.217499 152.0
269.335297 112.0
269.443909 280.0
269.47995 132.0
269.519073 60.0
269.600769 108.0
269.646515 144.0
269.675934 140.0
269.708618 104.0
269.758942 184.0
269.772614 104.0
269.781982 260.0
269.809967 156.0
269.852478 68.0
269.90271 120.0
269.923065 116.0
269.945984 160.0
269.980011 144.0
270.055237 248.0
270.10022 3780.0
270.144409 324.0
270.178711 144.0
270.201752 132.0
270.210358 104.0
270.250061 196.0
270.285492 216.0
270.334503 176.0
270.36438 180.0
270.415161 180.0
270.439209 172.0
270.453979 60.0
270.46817 164.0
270.505157 72.0
270.547302 324.0
270.594543 80.0
270.719513 112.0
270.773987 128.0
270.820007 228.0
270.861053 136.0
270.903046 104.0
270.93573 164.0
270.945312 160.0
270.983459 140.0
271.005096 252.0
271.024902 128.0
271.117828 29412.0
271.172272 236.0
271.217529 228.0
271.256989 28.0
271.279938 28.0
271.329834 172.0
271.358398 248.0
271.381561 128.0
271.435822 216.0
271.47995 116.0
271.489136 80.0
271.501434 180.0
271.559021 140.0
271.613953 84.0
271.66214 264.0
271.695862 224.0
271.729004 56.0
271.763428 44.0
271.769592 108.0
271.815369 212.0
271.881439 176.0
271.907959 260.0
271.960205 128.0
272.02298 88.0
272.114685 15192.0
272.2052 108.0
272.25119 108.0
272.306427 168.0
272.358948 84.0
272.411072 136.0
272.449249 92.0
272.48111 184.0
272.54953 124.0
272.592834 52.0
272.620361 148.0
272.70459 128.0
272.74234 172.0
272.794556 116.0
272.831024 192.0
272.868408 292.0
272.926758 196.0
272.972534 376.0
272.995056 204.0
273.045624 44.0
273.101471 8120.0
273.112274 4880.0
273.189728 60.0
273.230621 108.0
273.2901 100.0
273.338226 192.0
273.401428 96.0
273.421509 140.0
273.449615 220.0
273.525269 176.0
273.576813 168.0
273.628998 112.0
273.668884 112.0
273.708008 148.0
273.762115 68.0
273.81369 128.0
273.84259 184.0
273.872955 152.0
273.94458 108.0
274.004822 164.0
274.065033 132.0
274.127533 2036.0
274.205475 248.0
274.231842 136.0
274.303253 300.0
274.359741 204.0
274.370789 116.0
274.436188 132.0
274.497955 156.0
274.54834 52.0
274.591217 72.0
274.624756 48.0
274.683594 56.0
274.7146 80.0
274.740875 152.0
274.785614 56.0
274.905853 120.0
274.947571 68.0
274.989136 96.0
275.012207 96.0
275.036682 200.0
275.115448 372.0
275.124695 440.0
275.188049 108.0
275.228149 156.0
275.267792 160.0
275.304962 264.0
275.35257 160.0
275.428772 184.0
275.498993 96.0
275.551849 124.0
275.591522 264.0
275.630524 164.0
275.677429 176.0
275.708984 64.0
275.744293 68.0
275.766663 108.0
275.822845 72.0
275.846008 88.0
275.888062 128.0
275.931946 148.0
275.975861 116.0
276.044373 68.0
276.098938 208.0
276.162354 148.0
276.198914 200.0
276.226288 144.0
276.259064 224.0
276.291687 152.0
276.325531 232.0
276.350769 140.0
276.401642 132.0
276.424286 76.0
276.503143 196.0
276.54007 176.0
276.600128 132.0
276.604675 128.0
276.621185 176.0
276.635437 144.0
276.688263 188.0
276.771057 200.0
276.835785 248.0
276.865112 160.0
276.894928 96.0
276.921417 152.0
276.947906 80.0
276.986542 152.0
276.996887 164.0
277.011993 116.0
277.022888 140.0
277.077118 120.0
277.131073 228.0
277.24585 148.0
277.278564 76.0
277.377167 148.0
277.435059 124.0
277.476593 220.0
277.517944 184.0
277.589325 172.0
277.62738 244.0
277.663605 84.0
277.675568 68.0
277.685944 200.0
277.74292 144.0
277.808289 160.0
277.842987 136.0
277.907776 200.0
277.975708 144.0
278.0979 180.0
278.156708 172.0
278.209625 168.0
278.242676 188.0
278.274445 220.0
278.304321 116.0
278.357452 148.0
278.384033 204.0
278.428253 128.0
278.483521 248.0
278.536804 180.0
278.560059 108.0
278.586639 152.0
278.624878 276.0
278.65564 120.0
278.679688 120.0
278.757599 124.0
278.781799 400.0
278.820343 196.0
278.895691 112.0
278.936554 164.0
278.990784 264.0
279.026306 212.0
279.074158 164.0
279.114471 208.0
279.170563 184.0
279.218231 104.0
279.261444 168.0
279.301361 88.0
279.345276 136.0
279.385376 112.0
279.41449 104.0
279.49765 244.0
279.537598 56.0
279.587738 128.0
279.624115 48.0
279.710358 132.0
279.762299 188.0
279.865448 156.0
279.897125 148.0
279.921875 148.0
280.012787 120.0
280.050323 76.0
280.083618 76.0
280.116943 88.0
280.140259 60.0
280.206879 148.0
280.244843 160.0
280.266876 256.0
280.385101 100.0
280.453491 108.0
280.480042 208.0
280.533508 100.0
280.628998 272.0
280.670197 48.0
280.719055 184.0
280.749725 188.0
280.790253 204.0
280.884399 336.0
280.960388 60.0
280.998444 144.0
281.081818 212.0
281.094635 84.0
281.105408 176.0
281.145386 172.0
281.181488 100.0
281.231628 100.0
281.27536 124.0
281.350464 136.0
281.411896 128.0
281.464386 128.0
281.487762 100.0
281.537262 180.0
281.574493 128.0
281.585815 124.0
281.598907 172.0
281.811768 196.0
281.887482 160.0
281.923523 256.0
282.029022 80.0
282.092377 176.0
282.134186 436.0
282.157471 148.0
282.226105 84.0
282.274689 140.0
282.324127 168.0
282.378357 300.0
282.505096 204.0
282.545868 144.0
282.576477 160.0
282.675446 144.0
282.711304 92.0
282.781586 92.0
282.851898 160.0
282.921234 124.0
282.969055 128.0
283.042725 196.0
283.079529 340.0
283.10434 196.0
283.156586 48.0
283.2164 188.0
283.262451 100.0
283.292938 188.0
283.319946 136.0
283.364288 144.0
283.469482 144.0
283.501678 168.0
283.565369 140.0
283.604767 228.0
283.66394 212.0
283.702789 180.0
283.77655 424.0
283.803375 136.0
283.845856 120.0
283.911987 164.0
283.942291 172.0
284.025269 100.0
284.106506 392.0
284.141205 400.0
284.195831 176.0
284.256226 104.0
284.295319 296.0
284.395508 192.0
284.487823 52.0
284.532867 116.0
284.569031 172.0
284.598633 128.0
284.64563 56.0
284.719513 184.0
284.803497 128.0
284.885773 228.0
284.922363 72.0
284.972137 100.0
285.014709 248.0
285.054535 100.0
285.096222 344.0
285.136353 120.0
285.187012 116.0
285.223511 184.0
285.294128 100.0
285.332672 180.0
285.396088 140.0
285.462341 76.0
285.534637 68.0
285.565674 144.0
285.593414 168.0
285.647217 112.0
285.670776 216.0
285.700317 128.0
285.723358 196.0
285.789246 172.0
285.828918 80.0
285.872345 124.0
285.891083 280.0
285.918182 212.0
285.9823 104.0
285.988007 160.0
286.019714 280.0
286.129059 42296.0
286.186493 308.0
286.21225 72.0
286.260834 320.0
286.297455 204.0
286.33667 212.0
286.370056 276.0
286.401276 300.0
286.432434 244.0
286.456268 176.0
286.507477 184.0
286.541718 128.0
286.61377 204.0
286.649628 56.0
286.743896 196.0
286.818665 156.0
286.865051 176.0
286.871307 156.0
286.902618 112.0
286.918976 136.0
286.969116 88.0
286.979828 196.0
287.005157 336.0
287.051575 328.0
287.13678 77248.0
287.251129 284.0
287.30423 236.0
287.320221 100.0
287.332886 200.0
287.368744 224.0
287.401642 252.0
287.431091 112.0
287.471405 160.0
287.513977 368.0
287.568329 168.0
287.610718 284.0
287.649384 104.0
287.686523 200.0
287.728729 528.0
287.737854 252.0
287.761719 260.0
287.800659 296.0
287.863434 172.0
287.903564 284.0
287.93457 168.0
287.975494 308.0
288.008514 460.0
288.053253 260.0
288.145538 300620.0
288.249817 164.0
288.276459 188.0
288.314636 116.0
288.349548 200.0
288.385193 120.0
288.428528 180.0
288.454193 324.0
288.481171 208.0
288.505493 328.0
288.528992 292.0
288.550201 280.0
288.555298 188.0
288.591248 248.0
288.650879 176.0
288.703003 2424.0
288.746857 312.0
288.773376 192.0
288.808441 120.0
288.846558 256.0
288.891296 136.0
288.929565 204.0
288.971497 264.0
289.015991 172.0
289.037048 620.0
289.078522 276.0
289.147308 62212.0
289.20874 120.0
289.238495 80.0
289.283356 152.0
289.30603 128.0
289.362579 108.0
289.392609 128.0
289.430511 188.0
289.48407 132.0
289.507111 156.0
289.544952 100.0
289.578552 68.0
289.622803 336.0
289.699066 208.0
289.729187 256.0
289.75647 112.0
289.784515 292.0
289.830597 256.0
289.864502 132.0
289.903748 68.0
289.913971 160.0
289.947571 136.0
290.002045 272.0
290.041626 260.0
290.084564 192.0
290.148834 6032.0
290.251801 160.0
290.311523 192.0
290.335571 320.0
290.394501 120.0
290.446472 152.0
290.491791 192.0
290.532013 180.0
290.568329 148.0
290.589691 204.0
290.631805 168.0
290.693634 104.0
290.729645 128.0
290.762421 132.0
290.811249 96.0
290.84375 128.0
290.899902 212.0
290.964691 228.0
291.01355 144.0
291.028503 172.0
291.082153 312.0
291.136292 308.0
291.151154 404.0
291.237854 192.0
291.288422 196.0
291.342072 68.0
291.417877 260.0
291.434814 236.0
291.485352 148.0
291.537201 136.0
291.550079 76.0
291.581543 112.0
291.608795 128.0
291.663116 84.0
291.690796 56.0
291.766205 112.0
291.79129 132.0
291.830627 60.0
291.880707 112.0
291.916534 196.0
291.952972 148.0
291.988739 128.0
292.040009 132.0
292.116486 2536.0
292.209839 148.0
292.252838 140.0
292.284302 180.0
292.310486 136.0
292.355286 112.0
292.381622 116.0
292.422485 144.0
292.480408 120.0
292.535675 56.0
292.608887 192.0
292.653137 40.0
292.687927 56.0
292.717163 316.0
292.755463 268.0
292.841003 196.0
292.918793 184.0
292.956268 56.0
293.080414 236.0
293.122864 588.0
293.208405 84.0
293.233978 80.0
293.279999 256.0
293.414185 100.0
293.450226 132.0
293.477875 124.0
293.511841 68.0
293.55957 168.0
293.626556 100.0
293.665314 52.0
293.738434 156.0
293.777863 132.0
293.801758 104.0
293.844086 148.0
293.876801 68.0
293.92392 144.0
294.0065 100.0
294.061981 172.0
294.113586 168.0
294.194214 176.0
294.234802 68.0
294.271729 144.0
294.327271 116.0
294.35553 164.0
294.382965 44.0
294.436676 56.0
294.484467 120.0
294.527496 108.0
294.587128 76.0
294.619781 236.0
294.681183 124.0
294.727051 104.0
294.798798 40.0
294.829559 116.0
294.862122 152.0
294.895691 104.0
294.9552 228.0
295.003876 60.0
295.075684 152.0
295.120697 344.0
295.267181 96.0
295.30481 156.0
295.349274 128.0
295.393738 124.0
295.467682 96.0
295.520325 92.0
295.564819 136.0
295.59903 136.0
295.659241 104.0
295.698273 52.0
295.722229 76.0
295.763306 92.0
295.804382 88.0
295.8797 224.0
295.929138 64.0
295.960083 44.0
296.030365 64.0
296.064606 120.0
296.136963 336.0
296.211914 176.0
296.246155 148.0
296.270142 68.0
296.331818 80.0
296.383209 40.0
296.431946 36.0
296.482086 120.0
296.547699 164.0
296.595703 40.0
296.636841 72.0
296.708557 112.0
296.766846 176.0
296.808258 32.0
296.832275 108.0
296.862091 156.0
296.913757 176.0
296.95813 176.0
297.011139 160.0
297.093475 280.0
297.139618 160.0
297.162506 160.0
297.233612 136.0
297.295502 116.0
297.322845 152.0
297.457672 144.0
297.511658 204.0
297.579224 192.0
297.654999 196.0
297.762329 112.0
297.807312 120.0
297.838318 120.0
297.916901 68.0
297.954681 60.0
297.995911 48.0
298.093292 800.0
298.203583 188.0
298.290222 144.0
298.336182 104.0
298.385498 92.0
298.413971 68.0
298.453064 120.0
298.54248 164.0
298.599396 132.0
298.649719 44.0
298.776398 64.0
298.812958 160.0
298.924347 92.0
298.989716 116.0
299.037109 172.0
299.0961 1320.0
299.179047 108.0
299.22168 104.0
299.251343 84.0
299.285797 68.0
299.330536 84.0
299.363647 52.0
299.415405 44.0
299.443146 92.0
299.482086 68.0
299.551331 120.0
299.575104 276.0
299.605072 124.0
299.697235 80.0
299.747375 68.0
299.799072 244.0
299.82663 64.0
299.856354 180.0
299.89032 152.0
299.926605 84.0
300.057587 116.0
300.105438 160.0
300.136047 140.0
300.188629 188.0
300.216217 128.0
300.243805 164.0
300.352844 188.0
300.405853 180.0
300.487793 88.0
300.527771 64.0
300.572083 156.0
300.635193 72.0
300.708008 48.0
300.733734 68.0
300.780701 164.0
300.832458 140.0
300.872162 296.0
300.92868 188.0
300.944122 68.0
300.957703 184.0
301.013397 64.0
301.052338 136.0
301.07901 136.0
301.106659 52.0
301.131744 228.0
301.167023 256.0
301.246399 164.0
301.34845 72.0
301.398682 172.0
301.445221 96.0
301.483215 140.0
301.557312 92.0
301.590118 52.0
301.631866 196.0
301.69754 284.0
301.725189 92.0
301.77359 128.0
301.828918 136.0
301.898102 104.0
301.925751 64.0
302.001221 92.0
302.027802 80.0
302.05719 164.0
302.089111 192.0
302.120117 204.0
302.175323 84.0
302.226715 116.0
302.261322 120.0
302.29248 128.0
302.32016 176.0
302.399689 164.0
302.489746 80.0
302.513977 40.0
302.568329 144.0
302.604004 96.0
302.673035 116.0
302.780212 304.0
302.818726 260.0
302.86618 184.0
302.919159 128.0
302.964203 96.0
303.011078 180.0
303.043884 84.0
303.125305 240.0
303.154266 80.0
303.343475 72.0
303.394348 140.0
303.428619 156.0
303.491028 176.0
303.515137 80.0
303.570801 180.0
303.629761 100.0
303.737274 152.0
303.782379 64.0
303.811523 108.0
303.945831 180.0
303.99054 164.0
304.063446 152.0
304.10379 180.0
304.133728 308.0
304.186707 296.0
304.275177 120.0
304.39325 52.0
304.441864 96.0
304.547424 164.0
304.577332 188.0
304.620453 68.0
304.674591 68.0
304.702393 84.0
304.777618 116.0
304.813568 76.0
304.852539 112.0
304.896973 80.0
304.925598 136.0
304.955719 152.0
305.005859 76.0
305.076477 216.0
305.114807 404.0
305.14859 128.0
305.202911 96.0
305.297791 28.0
305.370331 140.0
305.546234 96.0
305.602905 152.0
305.639832 132.0
305.672516 52.0
305.806 156.0
305.856964 136.0
305.930084 268.0
305.968384 116.0
306.058899 168.0
306.108002 124.0
306.151489 164.0
306.225952 124.0
306.260895 40.0
306.292236 104.0
306.339417 104.0
306.445557 144.0
306.483856 120.0
306.50827 120.0
306.568481 228.0
306.601257 196.0
306.686005 76.0
306.713898 80.0
306.741791 104.0
306.777069 144.0
306.811493 244.0
306.842896 184.0
306.870789 236.0
306.910553 180.0
306.935791 148.0
306.96048 168.0
307.006775 36.0
307.108582 352.0
307.156738 52.0
307.216919 112.0
307.254272 160.0
307.299805 116.0
307.387024 192.0
307.421936 80.0
307.460327 96.0
307.520569 136.0
307.530731 164.0
307.592957 196.0
307.659271 112.0
307.791565 108.0
307.89325 108.0
307.942139 88.0
307.987549 140.0
308.011993 112.0
308.078369 96.0
308.10965 80.0
308.22171 164.0
308.322968 196.0
308.390991 164.0
308.427826 40.0
308.494232 120.0
308.564178 260.0
308.599121 156.0
308.648071 108.0
308.676056 216.0
308.70752 136.0
308.794983 100.0
308.822937 108.0
308.900848 160.0
308.968628 68.0
309.007141 116.0
309.016663 76.0
309.057343 128.0
309.127197 116.0
309.17807 104.0
309.249146 172.0
309.362518 124.0
309.413025 100.0
309.452881 152.0
309.514099 148.0
309.603455 148.0
309.645477 76.0
309.684021 40.0
309.735962 144.0
309.787323 180.0
309.834656 36.0
309.886627 148.0
310.010193 160.0
310.044891 108.0
310.072937 124.0
310.111481 140.0
310.145905 168.0
310.168427 148.0
310.211273 208.0
310.251709 124.0
310.332336 60.0
310.451569 100.0
310.528503 188.0
310.567322 96.0
310.695129 212.0
310.728699 96.0
310.777557 116.0
310.816406 156.0
310.859161 132.0
310.911163 72.0
310.93573 36.0
311.048035 132.0
311.082092 200.0
311.107727 104.0
311.146332 3228.0
311.27655 144.0
311.325439 132.0
311.454681 204.0
311.502655 184.0
311.594025 172.0
311.631592 176.0
311.673218 68.0
311.785675 144.0
311.813782 128.0
311.905182 116.0
311.936798 148.0
312.015717 108.0
312.029602 92.0
312.044189 200.0
312.150818 1028.0
312.291962 164.0
312.331421 164.0
312.365845 128.0
312.406677 112.0
312.451263 224.0
312.478424 84.0
312.506561 168.0
312.571198 164.0
312.626221 128.0
312.668427 148.0
312.701965 160.0
312.74588 108.0
312.784607 104.0
312.85437 156.0
312.880981 108.0
312.973785 180.0
313.142609 388.0
313.180847 104.0
313.255737 116.0
313.319153 172.0
313.356842 164.0
313.381836 212.0
313.419586 176.0
313.474915 100.0
313.501648 48.0
313.587708 72.0
313.668793 100.0
313.737091 148.0
313.792175 144.0
313.889404 168.0
313.926178 84.0
314.000641 168.0
314.036285 248.0
314.123566 25500.0
314.219818 112.0
314.278564 40.0
314.291473 36.0
314.338898 60.0
314.367981 136.0
314.413513 228.0
314.453949 60.0
314.497742 152.0
314.54361 68.0
314.596466 76.0
314.663422 64.0
314.702637 220.0
314.776642 152.0
314.83786 116.0
314.874023 196.0
314.924988 144.0
314.98288 72.0
315.005981 56.0
315.071503 76.0
315.126282 5892.0
315.211609 252.0
315.264374 92.0
315.313629 64.0
315.370209 72.0
315.398468 140.0
315.425385 104.0
315.44931 104.0
315.532806 92.0
315.596466 72.0
315.697601 80.0
315.70462 48.0
315.725403 60.0
315.750244 148.0
315.783875 72.0
315.822784 88.0
315.865234 92.0
315.897095 80.0
315.939545 72.0
315.964294 92.0
316.102264 3240.0
316.199249 144.0
316.236786 148.0
316.282806 52.0
316.315826 120.0
316.349091 172.0
316.382568 176.0
316.452728 56.0
316.484619 168.0
316.558197 168.0
316.668762 160.0
316.717316 96.0
316.750458 120.0
316.78714 180.0
316.835266 76.0
316.877777 48.0
316.922607 128.0
316.97345 144.0
317.007446 208.0
317.033691 124.0
317.062042 144.0
317.11026 1272.0
317.190125 376.0
317.224335 168.0
317.28891 68.0
317.340668 80.0
317.377533 84.0
317.454559 184.0
317.516785 112.0
317.54422 224.0
317.567474 152.0
317.718475 268.0
317.769562 92.0
317.828552 140.0
317.856018 180.0
317.888367 100.0
317.9487 132.0
317.977081 140.0
318.023224 72.0
318.069 148.0
318.113403 272.0
318.170197 116.0
318.295013 188.0
318.390625 92.0
318.424438 80.0
318.470642 156.0
318.502594 268.0
318.55246 244.0
318.67572 44.0
318.72998 76.0
318.765411 164.0
318.865021 80.0
318.950317 72.0
319.003662 92.0
319.039215 60.0
319.124756 692.0
319.277435 68.0
319.344849 240.0
319.412598 116.0
319.494415 120.0
319.569153 100.0
319.672333 116.0
319.74353 44.0
319.807587 172.0
319.8479 124.0
319.888336 128.0
319.949982 52.0
319.978455 100.0
320.014984 124.0
320.071655 136.0
320.124817 464.0
320.210327 112.0
320.274048 52.0
320.319061 320.0
320.37735 120.0
320.405853 168.0
320.434357 104.0
320.45929 172.0
320.487793 168.0
320.54483 124.0
320.575317 168.0
320.698059 96.0
320.746765 268.0
320.805023 176.0
320.828125 100.0
320.906311 136.0
320.927521 88.0
320.967072 116.0
321.02066 84.0
321.049713 108.0
321.084991 136.0
321.131927 448.0
321.167633 168.0
321.257935 136.0
321.322144 28.0
321.357819 164.0
321.406494 188.0
321.544617 260.0
321.586212 60.0
321.750427 80.0
321.828979 40.0
321.88974 160.0
321.945923 140.0
321.957367 148.0
322.036133 148.0
322.071259 48.0
322.137512 372.0
322.246704 152.0
322.350525 116.0
322.386261 36.0
322.414856 120.0
322.446472 180.0
322.466461 128.0
322.557831 56.0
322.630951 124.0
322.748505 132.0
322.822418 64.0
322.89035 184.0
322.927856 100.0
322.981171 196.0
323.04776 56.0
323.072784 168.0
323.14679 1748.0
323.203827 132.0
323.215546 40.0
323.224518 100.0
323.274628 168.0
323.391266 124.0
323.416321 156.0
323.466431 44.0
323.495087 60.0
323.584595 60.0
323.636383 96.0
323.699158 104.0
323.738556 208.0
323.774384 108.0
323.864685 144.0
323.910492 152.0
323.94989 208.0
324.051483 56.0
324.078888 148.0
324.153137 280.0
324.329742 100.0
324.365601 128.0
324.394257 184.0
324.448151 140.0
324.483887 136.0
324.537689 124.0
324.577118 252.0
324.691895 36.0
324.727753 140.0
324.824585 100.0
324.860168 100.0
324.903534 176.0
324.993225 164.0
325.039856 104.0
325.071136 128.0
325.100891 116.0
325.163574 120.0
325.239532 204.0
325.265991 72.0
325.334198 108.0
325.440216 152.0
325.467224 140.0
325.548065 192.0
325.563202 108.0
325.571686 168.0
325.588165 132.0
325.627197 168.0
325.696899 52.0
325.725616 188.0
325.808258 72.0
325.841797 96.0
325.868011 176.0
325.949127 172.0
325.980865 116.0
326.021912 268.0
326.093689 148.0
326.134979 148.0
326.234772 228.0
326.279083 96.0
326.333008 148.0
326.361755 88.0
326.401337 136.0
326.484039 104.0
326.537994 132.0
326.573944 104.0
326.606323 120.0
326.646332 164.0
326.721436 120.0
326.746613 84.0
326.861725 164.0
326.931152 216.0
326.973328 76.0
327.002136 80.0
327.069031 144.0
327.098572 464.0
327.13446 240.0
327.216003 144.0
327.268524 144.0
327.301758 188.0
327.365753 100.0
327.39621 132.0
327.45578 164.0
327.481018 68.0
327.52597 144.0
327.643097 44.0
327.668335 120.0
327.705841 184.0
327.746368 104.0
327.831451 108.0
327.880585 216.0
327.915131 156.0
327.949432 100.0
327.981598 168.0
328.039551 96.0
328.100006 176.0
328.126068 84.0
328.165741 128.0
328.216492 52.0
328.346313 152.0
328.400848 100.0
328.435822 144.0
328.515564 184.0
328.602173 76.0
328.699585 188.0
328.750092 100.0
328.836731 108.0
328.901703 276.0
328.934174 60.0
328.976074 152.0
329.029236 88.0
329.060547 184.0
329.117554 96.0
329.142059 228.0
329.180603 64.0
329.220032 304.0
329.271362 244.0
329.301605 152.0
329.338623 176.0
329.39386 192.0
329.441284 196.0
329.479492 80.0
329.504791 152.0
329.536957 80.0
329.559052 128.0
329.595123 80.0
329.721191 152.0
329.768585 104.0
329.815582 100.0
329.842743 216.0
329.938507 44.0
329.963806 244.0
329.998962 148.0
330.077606 276.0
330.118591 5268.0
330.208282 112.0
330.245544 172.0
330.281799 324.0
330.309692 220.0
330.37677 112.0
330.414764 152.0
330.45755 248.0
330.509491 208.0
330.573059 148.0
330.649353 228.0
330.663849 132.0
330.69342 304.0
330.719818 200.0
330.756592 132.0
330.799255 224.0
330.808105 236.0
330.822205 348.0
330.911224 260.0
330.938904 436.0
330.993652 148.0
330.999908 336.0
331.072357 264.0
331.126587 75436.0
331.227661 484.0
331.276794 200.0
331.328491 164.0
331.356506 184.0
331.370209 360.0
331.423889 288.0
331.452911 320.0
331.484711 96.0
331.535004 432.0
331.597382 324.0
331.622742 216.0
331.650818 244.0
331.696869 416.0
331.722687 184.0
331.730316 116.0
331.743469 464.0
331.780762 148.0
331.831665 276.0
331.872528 540.0
331.914581 532.0
332.01123 460.0
332.088013 1132.0
332.13504 312692.0
332.218811 172.0
332.276489 408.0
332.348358 312.0
332.364349 172.0
332.372955 356.0
332.460419 448.0
332.491577 400.0
332.568878 344.0
332.648254 136.0
332.682556 308.0
332.73407 1932.0
332.781372 316.0
332.846741 108.0
332.871429 260.0
332.907196 244.0
332.943542 100.0
333.001678 168.0
333.058563 232.0
333.137115 69196.0
333.27179 212.0
333.304474 104.0
333.314056 192.0
333.347015 184.0
333.380157 260.0
333.409637 176.0
333.452789 112.0
333.507599 64.0
333.54538 144.0
333.603058 156.0
333.640015 216.0
333.682404 164.0
333.724884 136.0
333.750549 64.0
333.765472 136.0
333.774689 156.0
333.791046 96.0
333.810883 184.0
333.835449 232.0
333.874573 216.0
333.924316 84.0
333.9729 100.0
334.009766 192.0
334.06073 140.0
334.075684 260.0
334.088928 200.0
334.139526 6324.0
334.215881 232.0
334.254517 116.0
334.286377 236.0
334.296631 108.0
334.310608 108.0
334.329803 100.0
334.345245 168.0
334.384674 144.0
334.423737 68.0
334.487335 196.0
334.526581 400.0
334.603485 152.0
334.63739 88.0
334.667389 36.0
334.675049 52.0
334.738953 160.0
334.823395 260.0
334.840729 212.0
334.852509 260.0
334.887817 88.0
334.973694 68.0
334.999817 108.0
335.033691 120.0
335.065216 180.0
335.088104 148.0
335.146027 1216.0
335.185364 236.0
335.24646 356.0
335.347229 264.0
335.392609 268.0
335.418762 384.0
335.458282 176.0
335.486389 236.0
335.519714 140.0
335.561066 140.0
335.591644 152.0
335.630798 152.0
335.71759 100.0
335.786743 164.0
335.829163 72.0
335.864258 120.0
335.900269 72.0
335.938446 52.0
335.962006 120.0
335.996429 124.0
336.010284 120.0
336.062805 132.0
336.088867 152.0
336.143311 176.0
336.18631 44.0
336.25116 92.0
336.289856 56.0
336.323761 184.0
336.372437 52.0
336.417633 224.0
336.451935 36.0
336.507446 168.0
336.578186 96.0
336.607513 112.0
336.667419 144.0
336.699554 96.0
336.745026 112.0
336.798767 100.0
336.852264 212.0
336.895111 136.0
336.939575 152.0
336.965149 140.0
336.996979 160.0
337.031677 128.0
337.069122 112.0
337.117554 88.0
337.164093 2780.0
337.235229 236.0
337.298035 96.0
337.358795 96.0
337.413086 108.0
337.551117 120.0
337.65863 64.0
337.687897 88.0
337.761047 36.0
337.804962 164.0
337.852509 152.0
337.919952 148.0
337.961823 160.0
338.028137 72.0
338.16983 800.0
338.240417 68.0
338.284363 176.0
338.357574 68.0
338.396606 180.0
338.445251 68.0
338.508331 68.0
338.741638 60.0
338.791382 116.0
338.877686 160.0
338.976624 212.0
339.027924 104.0
339.064575 56.0
339.173462 300.0
339.236847 76.0
339.324829 76.0
339.356537 124.0
339.467834 64.0
339.546051 136.0
339.664825 124.0
339.768494 252.0
339.805328 40.0
339.838348 84.0
339.963104 76.0
340.007141 48.0
340.084229 64.0
340.131073 96.0
340.175995 144.0
340.576263 56.0
340.620331 80.0
340.672729 92.0
340.707642 220.0
340.796692 92.0
340.903259 84.0
340.93634 112.0
340.962067 212.0
341.017181 108.0
341.130951 432.0
341.23407 104.0
341.267181 112.0
341.465759 76.0
341.51358 232.0
341.578918 120.0
341.592743 92.0
341.607208 168.0
341.715912 64.0
341.756378 88.0
341.91095 108.0
341.995605 76.0
342.03241 164.0
342.116516 4844.0
342.173645 228.0
342.225555 104.0
342.284149 116.0
342.313385 64.0
342.341675 76.0
342.370148 76.0
342.39566 176.0
342.433746 116.0
342.599518 116.0
342.651093 48.0
342.713287 96.0
342.725952 140.0
342.761658 132.0
342.792725 120.0
342.835358 192.0
342.894318 200.0
342.923798 48.0
342.962128 36.0
343.069733 96.0
343.11554 1408.0
343.23349 52.0
343.349457 60.0
343.399445 64.0
343.428955 80.0
343.462158 140.0
343.506409 48.0
343.527771 56.0
343.537384 92.0
343.575317 172.0
343.620789 52.0
343.676117 148.0
343.786835 88.0
343.816376 40.0
343.849579 88.0
343.912842 92.0
343.97876 204.0
344.117584 680.0
344.163483 140.0
344.266785 224.0
344.314453 132.0
344.432983 40.0
344.484711 56.0
344.553467 132.0
344.62442 176.0
344.654663 104.0
344.702698 40.0
344.729523 76.0
344.828339 116.0
344.990997 68.0
345.020569 36.0
345.125092 372.0
345.175293 384.0
345.260925 104.0
345.301605 184.0
345.331207 92.0
345.390381 120.0
345.423676 96.0
345.460663 60.0
345.490265 92.0
345.52356 48.0
345.549469 200.0
345.606293 132.0
345.653534 160.0
345.730774 40.0
345.770264 48.0
345.802277 88.0
345.878357 128.0
345.941772 96.0
346.144653 216.0
346.180756 708.0
346.267609 64.0
346.386139 80.0
346.418457 100.0
346.501007 44.0
346.560272 92.0
346.600372 44.0
346.675171 124.0
346.767181 92.0
346.79657 84.0
346.874725 76.0
346.932037 144.0
347.019897 80.0
347.084839 124.0
347.125916 136.0
347.184418 228.0
347.223846 76.0
347.381958 148.0
347.452881 100.0
347.513214 60.0
347.542908 156.0
347.643097 188.0
347.724731 176.0
347.776703 124.0
347.817535 60.0
347.888062 52.0
347.917755 128.0
347.966034 56.0
348.086823 68.0
348.155365 280.0
348.167877 244.0
348.267822 164.0
348.299744 316.0
348.41391 136.0
348.51947 68.0
348.597504 192.0
348.627228 164.0
348.738739 72.0
348.796234 204.0
348.979431 124.0
349.021393 124.0
349.054749 160.0
349.088226 48.0
349.15036 272.0
349.203003 116.0
349.270477 148.0
349.415558 136.0
349.475098 248.0
349.601624 100.0
349.631378 108.0
349.709534 136.0
349.750488 152.0
349.78772 40.0
349.869629 88.0
349.910583 92.0
349.966431 72.0
350.019745 148.0
350.100494 132.0
350.156677 384.0
350.200928 148.0
350.27182 56.0
350.387299 104.0
350.484192 184.0
350.547516 52.0
350.597137 52.0
350.629517 80.0
350.663055 144.0
350.723938 156.0
350.763702 60.0
350.789795 44.0
350.830811 72.0
351.006042 200.0
351.065735 116.0
351.161163 148.0
351.231384 84.0
351.330566 76.0
351.381348 104.0
351.532043 52.0
351.571228 148.0
351.632812 204.0
351.695312 164.0
351.785858 136.0
351.839478 132.0
351.897858 64.0
352.061615 180.0
352.15448 156.0
352.169403 112.0
352.183258 124.0
352.19754 164.0
352.233978 84.0
352.301361 64.0
352.346069 136.0
352.46344 164.0
352.506409 180.0
352.518585 164.0
352.572662 112.0
352.846893 172.0
352.926178 140.0
352.951569 108.0
353.000183 196.0
353.089935 68.0
353.187195 92.0
353.25827 72.0
353.407928 36.0
353.508972 132.0
353.643707 76.0
353.899353 92.0
353.93988 152.0
354.130463 164.0
354.182892 120.0
354.319489 156.0
354.386719 124.0
354.446533 152.0
354.625092 184.0
354.658783 88.0
354.744995 128.0
354.821045 224.0
354.902466 144.0
355.018707 104.0
355.095245 140.0
355.1315 280.0
355.248291 144.0
355.348816 164.0
355.468903 128.0
355.645294 168.0
355.701599 44.0
355.741974 144.0
355.829254 128.0
356.020752 52.0
356.080841 96.0
356.155975 56.0
356.187714 152.0
356.261169 72.0
356.381378 104.0
356.452789 140.0
356.505402 72.0
356.569275 68.0
356.636627 96.0
356.646027 164.0
356.730927 200.0
356.85498 112.0
356.956512 212.0
357.127991 732.0
357.188965 228.0
357.237213 156.0
357.29129 120.0
357.385345 140.0
357.456848 208.0
357.558441 84.0
357.654419 144.0
357.709015 100.0
357.788086 60.0
357.818176 84.0
357.874664 108.0
357.901031 288.0
357.991394 32.0
358.021545 324.0
358.05011 136.0
358.112762 7088.0
358.190399 388.0
358.214325 236.0
358.330414 156.0
358.370483 88.0
358.458649 144.0
358.488678 168.0
358.590454 44.0
358.677124 64.0
358.734375 44.0
358.77359 144.0
358.81662 72.0
358.850555 36.0
358.888275 68.0
358.967133 136.0
359.018158 144.0
359.046936 152.0
359.135406 11136.0
359.274414 188.0
359.299927 172.0
359.35849 48.0
359.4328 112.0
359.47522 80.0
359.506927 152.0
359.543396 60.0
359.612122 152.0
359.714508 80.0
359.745636 116.0
359.797577 92.0
359.839111 36.0
359.93161 152.0
360.01474 128.0
360.051331 80.0
360.134552 2820.0
360.217407 216.0
360.281006 100.0
360.319641 52.0
360.364105 60.0
360.409454 48.0
360.496368 76.0
360.5802 136.0
360.666443 92.0
360.703705 56.0
360.767578 60.0
360.801178 144.0
360.870605 44.0
360.927307 132.0
360.980255 124.0
361.044556 172.0
361.078949 132.0
361.130554 488.0
361.246246 124.0
361.271515 240.0
361.350952 120.0
361.40918 180.0
361.531555 72.0
361.556305 180.0
361.619659 48.0
361.691559 112.0
361.762695 116.0
361.795502 168.0
361.865723 84.0
361.930084 112.0
361.971741 120.0
362.077789 96.0
362.160309 936.0
362.220123 124.0
362.275665 144.0
362.312622 176.0
362.374054 132.0
362.418732 52.0
362.502075 144.0
362.5448 148.0
362.609802 168.0
362.680237 132.0
362.763611 120.0
362.843231 80.0
362.891174 124.0
362.934235 120.0
362.977631 136.0
363.051788 76.0
363.154785 444.0
363.245239 96.0
363.317322 72.0
363.397003 140.0
363.516144 120.0
363.638153 132.0
363.719025 136.0
363.806885 64.0
363.840057 144.0
363.996735 84.0
364.175293 3460.0
364.273987 48.0
364.349976 308.0
364.410767 36.0
364.509583 104.0
364.650177 184.0
364.685303 64.0
364.733124 204.0
364.794647 240.0
364.927704 100.0
364.977142 80.0
365.039825 68.0
365.079803 68.0
365.175995 1364.0
365.300415 120.0
365.337067 152.0
365.385498 192.0
365.483032 120.0
365.658112 60.0
365.696167 116.0
365.907166 84.0
365.945343 88.0
366.008331 160.0
366.177856 260.0
366.240662 64.0
366.488312 88.0
366.518768 92.0
366.55307 148.0
366.640717 68.0
366.671234 124.0
367.18808 128.0
367.258392 108.0
367.351257 224.0
367.381592 108.0
367.441528 156.0
367.479675 80.0
367.54071 184.0
367.586517 72.0
367.762085 96.0
367.825439 120.0
367.891876 56.0
367.956757 132.0
368.174438 152.0
368.275177 84.0
368.353943 40.0
368.467926 168.0
368.636688 156.0
368.744232 124.0
368.904236 132.0
369.286652 72.0
369.466431 72.0
369.718994 68.0
369.772552 104.0
369.87973 104.0
369.948639 148.0
369.994598 72.0
370.025208 128.0
370.066193 176.0
370.187805 188.0
370.25116 56.0
370.381378 52.0
370.412018 104.0
370.526947 104.0
370.707062 36.0
370.967682 48.0
371.101868 72.0
371.176849 72.0
371.220764 180.0
371.470062 112.0
371.512268 96.0
371.669586 132.0
371.723846 136.0
371.903687 184.0
371.976624 104.0
372.063232 136.0
372.129974 152.0
372.194641 592.0
372.283783 196.0
372.345245 96.0
372.537292 128.0
372.694824 160.0
372.779358 44.0
372.813934 68.0
372.886963 172.0
373.044586 108.0
373.119873 164.0
373.200653 176.0
373.341919 36.0
373.38681 180.0
373.417572 80.0
373.506042 112.0
373.582977 76.0
373.663239 200.0
373.856171 180.0
373.983185 104.0
374.025513 172.0
374.056305 60.0
374.094818 40.0
374.167969 48.0
374.198151 180.0
374.449066 100.0
374.474945 84.0
374.815063 76.0
374.903687 88.0
374.973053 116.0
375.054016 116.0
375.137329 1368.0
375.347015 56.0
375.46756 156.0
375.52829 48.0
375.609283 64.0
375.6633 88.0
375.809906 88.0
375.921814 76.0
375.952698 108.0
376.143799 1244.0
376.30011 92.0
376.408234 56.0
376.506927 136.0
376.551117 92.0
376.809937 156.0
376.918121 168.0
376.97995 224.0
377.010864 416.0
377.078369 172.0
377.155884 840.0
377.206635 124.0
377.246674 56.0
377.315399 92.0
377.378113 104.0
377.478638 148.0
377.520508 160.0
377.553558 76.0
377.679779 52.0
377.743378 156.0
377.795807 136.0
377.946716 84.0
378.063019 148.0
378.106079 180.0
378.191132 23900.0
378.33847 220.0
378.407318 108.0
378.459229 128.0
378.492523 60.0
378.523499 52.0
378.560333 64.0
378.628052 152.0
378.666779 104.0
378.705505 76.0
378.861389 220.0
378.927368 164.0
379.005249 40.0
379.061951 140.0
379.110321 160.0
379.193604 5996.0
379.256836 172.0
379.29953 40.0
379.337158 124.0
379.418549 40.0
379.508118 148.0
379.55426 40.0
379.660675 64.0
379.732666 36.0
379.817993 88.0
379.845154 80.0
379.903351 40.0
379.965424 152.0
379.999786 56.0
380.087921 84.0
380.11673 112.0
380.196838 1148.0
380.359772 168.0
380.42337 84.0
380.532074 56.0
380.621399 64.0
380.765076 40.0
380.858307 56.0
380.932098 48.0
380.978729 120.0
381.056946 92.0
381.159302 152.0
381.182495 144.0
381.231293 112.0
381.353882 104.0
381.386749 96.0
381.417847 112.0
381.701691 136.0
381.732788 72.0
381.767792 108.0
381.973938 80.0
382.005066 80.0
382.032288 72.0
382.13208 180.0
382.217407 200.0
382.257965 72.0
382.316345 112.0
382.387848 156.0
382.479797 80.0
382.748444 96.0
382.90033 120.0
382.98761 156.0
383.063934 60.0
383.153534 112.0
383.186096 100.0
383.321075 112.0
383.418518 164.0
383.462128 124.0
383.539337 72.0
383.70697 120.0
383.937042 192.0
384.042358 196.0
384.099915 164.0
384.31543 88.0
384.346649 80.0
384.518372 144.0
384.717682 72.0
384.815063 124.0
384.885345 180.0
384.920471 204.0
385.094421 104.0
385.182159 36.0
385.365784 104.0
385.493225 164.0
385.710602 104.0
386.147644 148.0
386.23761 148.0
386.335419 72.0
386.609314 92.0
386.67923 124.0
386.722809 148.0
386.758057 140.0
386.812836 96.0
386.934204 184.0
386.973358 44.0
387.051849 292.0
387.094757 44.0
387.211151 9060.0
387.455109 148.0
387.529541 108.0
387.562225 132.0
387.633331 108.0
387.725037 104.0
387.799957 132.0
387.890106 152.0
387.917572 128.0
388.031433 184.0
388.113586 108.0
388.141052 72.0
388.216156 3860.0
388.32312 168.0
388.36676 60.0
388.467621 180.0
388.548981 44.0
388.655151 68.0
388.81189 80.0
388.849701 44.0
388.909729 56.0
388.952087 124.0
388.996368 108.0
389.035614 64.0
389.126373 136.0
389.17807 168.0
389.216522 324.0
389.249298 144.0
389.323975 176.0
389.367035 100.0
389.54715 128.0
389.597229 144.0
389.64212 104.0
389.793701 276.0
389.903717 40.0
389.990204 152.0
390.022522 72.0
390.106537 168.0
390.158783 104.0
390.223358 116.0
390.400391 108.0
390.485626 40.0
390.623291 156.0
390.668823 172.0
390.734314 128.0
390.847565 112.0
390.902649 100.0
391.117432 280.0
391.289276 72.0
391.426208 60.0
391.481354 88.0
391.516785 112.0
391.579803 36.0
391.615265 128.0
391.642822 88.0
391.697388 80.0
391.910736 56.0
392.00531 72.0
392.052582 96.0
392.09201 140.0
392.119598 152.0
392.154236 116.0
392.197327 256.0
392.239594 152.0
392.395538 136.0
392.896423 104.0
392.939819 28.0
392.979279 84.0
393.006897 92.0
393.160797 156.0
393.220001 108.0
393.543732 40.0
393.598999 96.0
393.72934 72.0
393.756958 112.0
394.049286 76.0
394.144135 116.0
394.179688 160.0
394.24292 60.0
394.586823 116.0
394.828033 80.0
394.85968 132.0
395.021851 92.0
395.097015 128.0
395.124725 132.0
395.243439 132.0
395.297333 80.0
395.413605 124.0
395.51651 144.0
395.583801 80.0
395.662994 172.0
395.872864 36.0
396.011475 176.0
396.049683 124.0
396.195251 212.0
396.22934 104.0
396.352173 112.0
396.389465 192.0
396.419556 124.0
396.546356 88.0
396.584564 148.0
396.621674 216.0
396.690826 140.0
396.893738 92.0
397.006378 176.0
397.069183 116.0
397.145111 144.0
397.195374 144.0
397.363281 144.0
397.557739 60.0
397.839539 168.0
397.990417 104.0
398.057922 64.0
398.160492 132.0
398.185974 148.0
398.510773 80.0
398.913757 132.0
399.06723 48.0
399.174591 116.0
399.23822 76.0
399.516663 72.0
399.560425 104.0
400.09375 64.0
400.169403 84.0
400.217163 160.0
400.276611 112.0
400.527069 140.0
400.595551 108.0
400.715057 60.0
400.790771 112.0
400.954834 120.0
400.990021 40.0
401.021912 104.0
401.077728 104.0
401.201294 176.0
401.24118 68.0
401.380737 148.0
401.703796 56.0
401.891296 144.0
402.034973 148.0
402.086853 120.0
402.254486 120.0
402.393555 96.0
402.733673 148.0
402.801575 84.0
402.907135 124.0
403.125214 112.0
403.196991 184.0
403.453003 88.0
403.608917 196.0
403.664917 68.0
403.908875 60.0
403.959351 176.0
404.0849 100.0
404.160034 124.0
404.365051 124.0
404.40506 180.0
404.573181 124.0
404.737366 140.0
404.905548 80.0
404.953613 92.0
404.981659 28.0
405.033722 136.0
405.157898 76.0
405.199158 136.0
405.256165 172.0
405.322205 68.0
405.416687 112.0
405.490509 112.0
405.526581 152.0
405.68692 108.0
405.739044 168.0
405.771118 108.0
405.823242 180.0
405.895416 60.0
405.983643 40.0
406.015747 44.0
406.043793 160.0
406.079895 132.0
406.185883 2036.0
406.246826 100.0
406.324615 28.0
406.477081 36.0
406.605499 104.0
406.673737 84.0
406.722565 124.0
406.83432 96.0
406.923645 128.0
406.954773 140.0
407.190308 580.0
407.236542 116.0
407.308167 152.0
407.336304 112.0
407.505035 128.0
407.554321 164.0
407.657745 112.0
407.68988 76.0
407.722046 176.0
407.77829 36.0
408.027527 156.0
408.164886 368.0
408.215973 144.0
408.412933 192.0
408.510162 200.0
408.550385 60.0
408.727417 136.0
408.840088 68.0
408.892426 108.0
408.960846 172.0
408.987427 116.0
409.057434 152.0
409.127594 220.0
409.178223 372.0
409.218475 72.0
409.379547 128.0
409.431915 156.0
409.528595 220.0
409.738068 216.0
409.842834 140.0
409.95163 80.0
410.213623 176.0
410.241821 116.0
410.471649 112.0
410.511993 88.0
410.59668 144.0
410.755341 88.0
410.788422 164.0
410.826599 84.0
410.947632 52.0
411.157471 92.0
411.234161 96.0
411.306824 92.0
411.415833 140.0
411.524841 172.0
411.63385 32.0
411.698486 112.0
411.792969 268.0
412.037781 80.0
412.078186 108.0
412.126923 100.0
412.227692 136.0
412.346436 84.0
412.805786 140.0
413.003967 56.0
413.188965 320.0
413.349213 84.0
413.651428 252.0
413.760742 76.0
413.833618 92.0
413.942932 204.0
414.023956 100.0
414.117615 128.0
414.376373 148.0
414.450684 128.0
414.554657 120.0
414.696503 192.0
414.826233 168.0
414.903259 264.0
415.004608 164.0
415.050598 176.0
415.09787 28.0
415.204773 3100.0
415.284454 156.0
415.369629 172.0
415.402069 116.0
415.438599 124.0
415.46698 140.0
415.515686 164.0
415.649567 100.0
415.698273 48.0
415.759155 104.0
415.998627 176.0
416.028748 76.0
416.10257 100.0
416.210022 576.0
416.415588 76.0
416.536621 176.0
416.603729 128.0
416.847534 60.0
416.880035 100.0
416.908478 96.0
416.939209 108.0
417.125641 108.0
417.19162 392.0
417.271179 88.0
417.347534 196.0
417.420715 112.0
417.534576 148.0
417.632202 100.0
417.750183 120.0
417.815277 56.0
417.84375 120.0
417.96582 52.0
418.055328 204.0
418.083832 92.0
418.124512 96.0
418.182312 180.0
418.214081 92.0
418.421692 112.0
418.462402 104.0
418.523468 44.0
418.604919 188.0
418.718964 64.0
418.79425 248.0
418.839111 184.0
418.930389 168.0
418.991882 80.0
419.101898 116.0
419.130402 44.0
419.281189 56.0
419.350494 176.0
419.403473 132.0
419.485016 132.0
419.558014 88.0
419.591095 164.0
419.638794 144.0
419.729645 152.0
419.79895 80.0
419.900909 72.0
420.027374 56.0
420.123596 204.0
420.176544 108.0
420.210236 112.0
420.293365 128.0
420.394592 88.0
420.582336 48.0
420.641602 116.0
420.728485 100.0
420.757874 84.0
420.847687 76.0
420.916077 140.0
420.926544 104.0
420.939148 172.0
421.02301 112.0
421.141754 88.0
421.198914 224.0
421.27655 60.0
421.305145 148.0
421.378693 128.0
421.470276 108.0
421.502869 92.0
421.553284 252.0
421.612915 284.0
421.674194 252.0
421.723328 96.0
421.794495 188.0
421.868408 180.0
421.898804 108.0
421.954224 172.0
421.971222 140.0
421.988281 168.0
422.042297 176.0
422.055725 188.0
422.110443 188.0
422.180481 38960.0
422.3302 96.0
422.363922 28.0
422.398407 72.0
422.441406 148.0
422.513458 116.0
422.55069 108.0
422.593872 104.0
422.659454 52.0
422.740204 60.0
422.7836 28.0
422.792725 56.0
422.819244 72.0
422.855316 92.0
422.936096 212.0
422.963806 232.0
423.017426 100.0
423.045685 148.0
423.084045 188.0
423.184631 13348.0
423.345306 132.0
423.437408 104.0
423.523132 272.0
423.571503 68.0
423.629883 48.0
423.665741 44.0
423.696869 108.0
423.739471 76.0
423.789825 184.0
423.873474 160.0
423.900269 68.0
423.92746 64.0
424.005859 40.0
424.059143 56.0
424.189453 2320.0
424.321503 36.0
424.419891 36.0
424.485016 132.0
424.552002 68.0
424.700684 60.0
424.794189 124.0
424.879272 52.0
425.079376 68.0
425.128143 260.0
425.184479 116.0
425.246887 192.0
425.292206 168.0
425.381531 116.0
425.413971 80.0
425.543091 120.0
425.604309 100.0
425.639648 148.0
425.704315 160.0
425.753601 88.0
425.807007 100.0
425.866516 156.0
425.912445 172.0
425.950775 144.0
426.018463 52.0
426.050781 140.0
426.098663 60.0
426.145844 100.0
426.154663 108.0
426.175781 120.0
426.230286 124.0
426.283112 72.0
426.341095 64.0
426.443848 68.0
426.521942 88.0
426.577911 104.0
426.671631 108.0
426.733704 160.0
426.777374 156.0
426.80896 104.0
426.90271 112.0
426.937225 68.0
426.994812 80.0
427.167206 92.0
427.229279 100.0
427.447357 48.0
427.640778 184.0
427.722382 112.0
427.75412 196.0
427.830139 68.0
428.015442 36.0
428.131805 200.0
428.409973 208.0
428.612732 72.0
428.724884 180.0
428.781677 60.0
428.847626 44.0
429.052368 80.0
429.195465 108.0
429.259918 180.0
429.402557 180.0
429.445526 68.0
429.598145 68.0
429.651764 156.0
429.697144 36.0
429.833313 76.0
429.902008 112.0
429.953003 148.0
429.983124 176.0
430.254333 184.0
430.345184 52.0
430.411224 136.0
430.564026 92.0
430.601196 144.0
430.679688 48.0
430.84906 120.0
431.033386 144.0
431.202606 3016.0
431.432587 124.0
431.6716 160.0
431.769562 88.0
431.806213 44.0
431.994232 40.0
432.122498 152.0
432.206024 1268.0
432.271454 40.0
432.379974 180.0
432.643982 68.0
432.672974 84.0
432.745941 64.0
432.838593 212.0
432.946259 80.0
433.008392 140.0
433.09201 64.0
433.161652 88.0
433.205353 140.0
433.310791 120.0
433.509674 80.0
433.600861 108.0
433.716919 176.0
433.758362 40.0
433.816406 80.0
434.007141 48.0
434.085907 40.0
434.131531 72.0
434.187805 180.0
434.23938 48.0
434.280853 156.0
434.309875 64.0
434.720642 132.0
434.865906 224.0
435.011169 112.0
435.110809 116.0
435.168945 136.0
435.227081 52.0
435.31842 56.0
435.617493 124.0
435.733826 104.0
435.767059 36.0
435.891724 144.0
435.94574 124.0
435.982422 116.0
436.02887 48.0
436.066254 56.0
436.242096 148.0
436.36557 104.0
436.473694 132.0
436.615082 60.0
437.043854 188.0
437.239166 112.0
437.572174 80.0
437.622131 200.0
437.709595 96.0
437.759552 152.0
437.830353 108.0
437.917816 56.0
437.951141 136.0
437.986542 120.0
438.084442 108.0
438.19693 124.0
438.246918 36.0
438.405273 168.0
438.476135 112.0
438.697052 68.0
438.730408 64.0
438.788788 200.0
438.851318 88.0
438.997284 132.0
439.047302 160.0
439.180786 220.0
439.233063 240.0
439.369354 180.0
439.456116 48.0
439.681458 104.0
439.731384 100.0
439.802521 156.0
439.90686 120.0
439.962128 84.0
440.06134 76.0
440.173676 80.0
440.458099 52.0
440.487335 152.0
440.662811 56.0
440.892639 88.0
440.984589 116.0
441.103729 68.0
441.193604 120.0
441.373413 84.0
441.402679 136.0
441.503052 108.0
441.624329 120.0
441.691254 108.0
441.728912 160.0
441.774933 128.0
441.829315 104.0
441.93811 104.0
442.042297 124.0
442.189178 148.0
442.236938 128.0
442.281281 128.0
442.57016 168.0
442.607849 156.0
442.641327 144.0
442.804657 100.0
442.892639 132.0
442.963837 144.0
443.081146 176.0
443.265503 96.0
443.542145 156.0
443.640778 144.0
443.67627 128.0
443.775116 132.0
443.835602 144.0
443.877533 100.0
444.011749 184.0
444.104004 120.0
444.171143 84.0
444.259216 44.0
444.34314 68.0
444.376709 312.0
444.502594 60.0
444.607513 172.0
444.672974 260.0
444.747101 124.0
444.759644 32.0
444.774384 132.0
444.859344 128.0
444.941681 76.0
445.1521 124.0
445.211945 144.0
445.30722 228.0
445.354401 112.0
445.716187 64.0
445.791809 124.0
445.89267 144.0
445.922119 52.0
446.018768 60.0
446.178528 108.0
446.224792 180.0
446.359344 92.0
446.548584 124.0
446.607483 100.0
446.763123 120.0
446.84726 132.0
446.906158 160.0
446.960876 160.0
447.230225 152.0
447.289154 160.0
447.423859 204.0
447.470184 104.0
447.536407 132.0
447.613342 156.0
447.752319 152.0
447.816101 224.0
447.861847 72.0
447.916595 180.0
447.952301 132.0
448.153442 148.0
448.300018 72.0
448.371674 36.0
448.426453 164.0
448.498108 72.0
448.539001 172.0
448.586639 68.0
448.662506 40.0
448.710602 228.0
448.749115 112.0
448.945282 136.0
449.014191 152.0
449.077118 100.0
449.190704 2436.0
449.446564 144.0
449.645996 136.0
449.712921 128.0
449.752289 124.0
449.832581 184.0
449.908752 164.0
449.957764 128.0
449.995758 100.0
450.02774 196.0
450.174896 20312.0
450.299896 184.0
450.380066 88.0
450.410278 80.0
450.554474 192.0
450.677673 140.0
450.785675 68.0
450.846252 76.0
450.908234 64.0
450.966064 112.0
451.043488 52.0
451.11026 176.0
451.178314 4508.0
451.251648 236.0
451.31604 96.0
451.358948 72.0
451.436218 68.0
451.489838 128.0
451.546661 40.0
451.593811 108.0
451.632751 44.0
451.712677 64.0
451.766632 172.0
451.885101 100.0
451.966309 104.0
452.050446 144.0
452.177582 980.0
452.291382 92.0
452.355164 56.0
452.40567 44.0
452.439545 48.0
452.514526 112.0
452.596191 108.0
452.82489 124.0
452.875702 92.0
452.990082 40.0
453.112946 40.0
453.181854 340.0
453.299377 40.0
453.348511 108.0
453.384644 72.0
453.435181 92.0
453.498596 80.0
453.545197 172.0
453.693573 88.0
453.727509 116.0
453.761414 104.0
453.82077 72.0
453.86319 48.0
454.022034 104.0
454.037476 120.0
454.193176 168.0
454.304291 40.0
454.359436 120.0
454.466736 124.0
454.656464 44.0
454.79071 108.0
454.804291 68.0
454.819 96.0
454.911163 180.0
454.957855 144.0
455.102203 204.0
455.139648 44.0
455.149872 96.0
455.229614 96.0
455.475952 64.0
455.737885 232.0
455.956085 132.0
456.160126 104.0
456.398193 124.0
456.453491 80.0
456.576813 80.0
456.657623 120.0
456.706177 48.0
456.800964 80.0
456.840546 104.0
456.891602 152.0
457.014984 44.0
457.220215 188.0
457.406525 60.0
457.44342 88.0
457.568298 84.0
457.708832 68.0
457.97937 108.0
458.075104 60.0
458.157471 144.0
458.234772 160.0
458.283875 108.0
458.450073 132.0
458.940277 172.0
458.978668 132.0
459.166321 56.0
459.238831 220.0
459.298523 144.0
459.417969 120.0
459.558777 168.0
459.78067 152.0
459.998383 124.0
460.036804 40.0
460.229675 132.0
460.391205 48.0
460.501129 76.0
460.553497 188.0
460.705994 132.0
460.717499 92.0
460.747162 168.0
460.872864 128.0
461.123901 140.0
461.780243 60.0
462.173828 132.0
462.23642 140.0
462.349274 104.0
462.396362 48.0
462.571503 96.0
462.689148 100.0
462.760223 180.0
463.229492 204.0
463.304169 192.0
463.394135 104.0
463.668396 40.0
463.70697 124.0
463.782196 88.0
463.911865 40.0
464.047791 72.0
464.200928 224.0
464.247192 120.0
464.304352 72.0
464.513123 80.0
464.586029 148.0
464.663269 148.0
464.704407 124.0
464.75766 92.0
464.787689 180.0
464.822021 152.0
464.899292 112.0
465.036621 120.0
465.105286 92.0
465.165405 80.0
465.246307 128.0
465.358582 140.0
465.388641 84.0
465.504578 72.0
465.575287 148.0
465.607666 108.0
465.654907 124.0
465.710754 80.0
465.757996 60.0
465.86969 160.0
465.98999 88.0
466.030426 88.0
466.179047 140.0
466.316589 136.0
466.462738 92.0
466.492828 88.0
466.636047 140.0
466.65152 44.0
466.672394 136.0
466.748749 92.0
466.811005 72.0
466.86261 144.0
466.92926 40.0
466.970123 124.0
467.047546 120.0
467.133606 124.0
467.201752 14080.0
467.359375 168.0
467.460602 40.0
467.519043 88.0
467.558289 80.0
467.602631 60.0
467.64035 156.0
467.690582 64.0
467.852295 32.0
467.88855 180.0
467.981445 32.0
468.037415 104.0
468.085114 52.0
468.203888 4560.0
468.341766 136.0
468.396912 60.0
468.480164 188.0
468.531219 200.0
468.605988 68.0
468.812836 112.0
468.851624 100.0
468.950745 120.0
469.091278 80.0
469.140442 168.0
469.206177 792.0
469.274078 144.0
469.37326 188.0
469.429321 56.0
469.49881 88.0
469.569183 120.0
469.653595 80.0
469.800262 164.0
469.886566 76.0
469.925385 64.0
470.088409 92.0
470.136841 60.0
470.200073 296.0
470.325073 52.0
470.397095 200.0
470.438965 140.0
470.473511 68.0
470.503723 96.0
470.564178 52.0
470.628937 76.0
470.762817 64.0
470.840546 100.0
470.875122 64.0
470.913971 44.0
471.003082 80.0
471.034943 132.0
471.086182 136.0
471.102966 112.0
471.114441 148.0
471.199097 144.0
471.367615 124.0
471.428101 172.0
471.687439 92.0
471.756622 124.0
471.791199 76.0
471.870483 188.0
471.995972 56.0
472.314453 72.0
472.378174 88.0
472.474518 108.0
472.677887 144.0
472.738464 36.0
472.838013 124.0
472.88562 164.0
472.933258 48.0
473.106415 124.0
473.392181 52.0
473.500977 228.0
473.567505 68.0
473.669373 156.0
473.777679 120.0
473.885986 76.0
473.920654 148.0
474.002991 160.0
474.033325 120.0
474.202362 136.0
474.23703 36.0
474.354065 92.0
474.445099 140.0
474.475464 112.0
474.757294 88.0
474.922119 84.0
475.030579 144.0
475.073944 100.0
475.173737 32.0
475.364075 116.0
475.603363 32.0
475.731293 180.0
475.868195 156.0
475.963715 68.0
476.159149 140.0
476.235107 80.0
476.453217 132.0
476.710815 176.0
476.75824 160.0
476.841278 104.0
476.954285 60.0
477.265167 152.0
477.36734 140.0
477.432587 152.0
477.541321 28.0
477.581909 176.0
477.615265 156.0
477.706604 144.0
477.79361 84.0
477.858887 68.0
477.967651 144.0
478.286469 108.0
478.498688 144.0
478.585785 204.0
478.633667 112.0
478.751251 92.0
478.821869 148.0
478.876282 124.0
478.985443 124.0
479.021301 44.0
479.086639 112.0
479.153046 84.0
479.274963 8432.0
479.343719 160.0
479.439606 40.0
479.523102 124.0
479.641754 124.0
479.701141 112.0
479.762177 116.0
479.823212 88.0
479.9758 92.0
480.02298 152.0
480.276672 3160.0
480.425049 32.0
480.595215 92.0
480.669403 84.0
480.788574 92.0
480.830872 60.0
480.86908 96.0
480.918182 132.0
480.973267 60.0
481.27475 532.0
481.450836 64.0
481.590607 108.0
481.629913 88.0
481.734772 56.0
481.78717 68.0
481.900787 92.0
481.945862 140.0
482.044983 148.0
482.110535 92.0
482.253632 108.0
482.282166 104.0
482.317383 116.0
482.399017 108.0
482.447113 76.0
482.525818 32.0
482.700714 88.0
482.766296 144.0
482.845032 112.0
482.963135 100.0
482.993744 84.0
483.103119 84.0
483.173096 48.0
483.284485 88.0
483.365631 64.0
483.536316 116.0
483.593201 160.0
483.676392 68.0
483.783966 188.0
483.908417 88.0
484.044159 132.0
484.184296 68.0
484.359497 152.0
484.740662 156.0
484.937897 112.0
485.021179 136.0
485.086945 40.0
485.122009 48.0
485.170227 36.0
485.314911 88.0
485.39386 68.0
485.455231 104.0
485.512268 64.0
485.696472 72.0
486.047455 96.0
486.179474 196.0
486.35907 64.0
486.389801 168.0
486.587341 52.0
486.903534 120.0
486.947449 116.0
487.022125 40.0
487.070435 56.0
487.329651 76.0
487.580109 52.0
487.654846 60.0
487.71405 144.0
487.931793 120.0
488.076904 100.0
488.217621 244.0
488.644318 156.0
488.771912 196.0
488.895142 136.0
489.013947 172.0
489.273682 128.0
489.418976 112.0
489.521332 116.0
489.810944 124.0
490.538055 96.0
490.635071 92.0
490.84671 52.0
490.943726 168.0
491.007446 124.0
491.578979 92.0
491.70697 56.0
491.812897 92.0
492.096832 152.0
492.24118 56.0
492.276489 84.0
492.453156 172.0
493.058472 104.0
493.180786 124.0
493.240234 96.0
493.306 152.0
493.415344 120.0
493.513794 128.0
493.938385 68.0
493.96933 80.0
494.048981 48.0
494.230377 72.0
494.425079 120.0
494.535736 120.0
494.770355 64.0
494.810211 108.0
494.960754 160.0
495.295288 128.0
495.3638 112.0
495.399231 156.0
495.452393 32.0
495.545441 64.0
495.629639 100.0
495.775879 56.0
495.882233 44.0
496.16153 76.0
496.241333 168.0
496.387665 140.0
496.649323 64.0
496.715881 128.0
496.786865 56.0
496.897766 44.0
496.986511 84.0
497.235016 136.0
497.505798 124.0
497.541321 160.0
497.789978 136.0
497.927643 168.0
498.442993 56.0
498.545197 148.0
498.700745 32.0
498.749969 172.0
498.883026 132.0
499.047516 76.0
499.74585 124.0
499.830383 128.0
499.94165 72.0
499.996887 136.0
500.190918 76.0
500.542633 92.0
500.84549 96.0
500.939026 120.0
500.996948 116.0
501.050415 64.0
501.108337 200.0
501.179626 100.0
501.233093 120.0
501.264282 64.0
501.518341 84.0
501.674347 96.0
501.990936 144.0
502.053375 60.0
502.151489 56.0
502.646698 72.0
502.72702 92.0
502.762726 92.0
502.874298 120.0
503.422577 164.0
503.548523 140.0
503.758453 196.0
503.800781 76.0
504.044403 56.0
504.258942 92.0
504.469025 124.0
504.531616 160.0
504.612091 176.0
504.884857 88.0
505.05484 64.0
505.258179 132.0
505.383392 100.0
505.550659 88.0
505.775269 136.0
505.837921 92.0
505.909546 108.0
505.940887 128.0
506.097595 112.0
506.284119 196.0
506.44693 104.0
506.782928 104.0
506.954865 76.0
507.135132 108.0
507.226044 324.0
507.302826 148.0
507.347656 220.0
507.419403 88.0
507.482147 164.0
507.518036 128.0
507.787109 160.0
507.948578 160.0
508.020538 124.0
508.065216 140.0
508.195343 92.0
508.237549 580.0
508.372589 136.0
508.590271 92.0
508.648621 112.0
508.724945 80.0
508.783325 164.0
508.837189 76.0
508.948639 144.0
509.230194 180.0
509.313232 116.0
509.369812 84.0
509.654663 176.0
509.771515 56.0
510.124817 132.0
510.212006 44.0
510.243469 176.0
510.351379 88.0
510.471252 164.0
510.648193 56.0
510.706665 52.0
510.882111 120.0
511.003601 164.0
511.048584 76.0
511.093567 180.0
511.237579 92.0
511.291595 52.0
511.512146 124.0
511.84082 168.0
511.917358 92.0
511.969116 104.0
512.106506 52.0
512.205627 128.0
512.327271 88.0
512.420349 60.0
512.561584 96.0
512.813965 48.0
512.985229 124.0
513.057373 76.0
513.143005 68.0
513.197144 108.0
513.327881 104.0
513.386536 72.0
513.530884 120.0
513.589478 52.0
513.777832 192.0
513.871826 104.0
513.977478 64.0
514.063232 176.0
514.204102 112.0
514.426575 128.0
514.604919 72.0
514.668152 136.0
514.753906 84.0
514.808105 152.0
514.85437 64.0
514.925537 140.0
514.96167 232.0
515.137817 80.0
515.196594 112.0
515.22821 176.0
515.300476 64.0
515.389282 140.0
515.671082 104.0
515.716064 100.0
515.865417 116.0
516.001038 92.0
516.265747 148.0
516.322144 224.0
516.598022 116.0
516.67041 172.0
516.741882 152.0
516.807434 140.0
516.883118 196.0
516.927124 104.0
517.113892 124.0
517.344788 100.0
517.391052 124.0
517.630005 148.0
517.759216 172.0
517.847412 72.0
517.8927 140.0
517.992371 100.0
518.055786 60.0
518.087463 132.0
518.182617 128.0
518.345764 136.0
518.382019 152.0
518.499817 236.0
518.555054 88.0
518.694763 196.0
518.781677 116.0
518.973328 136.0
518.989441 60.0
519.005554 136.0
519.097656 84.0
519.14801 128.0
519.279663 80.0
519.358643 108.0
519.429382 108.0
519.501343 116.0
519.581177 164.0
519.615356 80.0
519.660767 44.0
519.737915 84.0
519.831543 132.0
519.890015 76.0
519.921204 100.0
520.010193 108.0
520.041931 100.0
520.110046 128.0
520.192017 220.0
520.261047 124.0
520.307129 96.0
520.317078 92.0
520.418457 88.0
520.46936 108.0
520.551697 132.0
520.606262 68.0
520.641296 132.0
520.754395 92.0
520.836609 84.0
520.89563 136.0
520.942932 224.0
521.021301 128.0
521.035278 60.0
521.101624 140.0
521.138184 100.0
521.188477 80.0
521.227722 92.0
521.257996 96.0
521.324402 148.0
521.396423 116.0
521.446472 104.0
521.497742 372.0
521.550171 108.0
521.634949 64.0
521.667419 120.0
521.72821 152.0
521.77478 180.0
521.842041 164.0
521.877808 172.0
521.920776 160.0
521.962769 112.0
521.995117 172.0
522.039001 184.0
522.125671 204.0
522.201782 152.0
522.245544 108.0
522.282471 312.0
522.31781 128.0
522.359314 144.0
522.395752 332.0
522.402954 292.0
522.44104 232.0
522.470703 152.0
522.500183 196.0
522.597534 536.0
522.626526 128.0
522.636292 332.0
522.674866 160.0
522.725586 316.0
522.795837 188.0
522.857971 448.0
522.890137 464.0
522.937012 200.0
522.986938 204.0
523.019226 368.0
523.067566 420.0
523.122986 436.0
523.266357 225488.0
523.371948 124.0
523.414795 204.0
523.487 164.0
523.504761 112.0
523.568604 176.0
523.600708 624.0
523.630737 160.0
523.67749 368.0
523.773987 228.0
523.792664 228.0
523.827087 256.0
523.94574 72.0
523.974915 260.0
524.018066 1160.0
524.056458 376.0
524.0625 700.0
524.109802 272.0
524.160767 152.0
524.174805 180.0
524.268311 87068.0
524.42572 112.0
524.436646 220.0
524.493713 196.0
524.550537 60.0
524.55957 192.0
524.598511 148.0
524.645569 188.0
524.679749 84.0
524.716675 284.0
524.766785 328.0
524.813538 184.0
524.83252 316.0
524.870544 160.0
524.935059 176.0
524.970398 200.0
525.010376 76.0
525.049011 132.0
525.128601 332.0
525.269592 12668.0
525.37146 116.0
525.457031 200.0
525.496399 200.0
525.568359 124.0
525.655029 96.0
525.703796 188.0
525.748779 172.0
525.815125 72.0
525.850464 196.0
525.934143 92.0
525.970215 52.0
526.037415 68.0
526.084839 152.0
526.188171 68.0
526.272278 1940.0
526.346924 136.0
526.358704 100.0
526.440552 100.0
526.503296 296.0
526.543823 120.0
526.647583 288.0
526.748657 128.0
526.822205 120.0
526.888123 232.0
526.963013 272.0
527.010864 220.0
527.0401 108.0
527.054321 196.0
527.11554 148.0
527.149536 220.0
527.210754 208.0
527.294128 356.0
527.364807 204.0
527.401733 288.0
527.464905 196.0
527.502075 108.0
527.511597 156.0
527.527039 192.0
527.54834 68.0
527.619263 60.0
527.66571 88.0
527.693909 132.0
527.743408 72.0
527.765381 80.0
527.777039 52.0
527.857605 284.0
527.943359 180.0
527.983093 160.0
528.04071 84.0
528.089844 60.0
528.153015 84.0
528.194275 348.0
528.258911 236.0
528.326599 92.0
528.381104 120.0
528.392822 100.0
528.41156 120.0
528.449463 160.0
528.49585 104.0
528.518555 96.0
528.530701 120.0
528.583496 212.0
528.619446 112.0
528.663879 112.0
528.748169 92.0
528.791565 52.0
528.838257 64.0
528.868774 100.0
528.903198 80.0
528.970032 92.0
529.10199 124.0
529.141602 52.0
529.202332 72.0
529.254272 100.0
529.301514 40.0
529.365601 156.0
529.477722 108.0
529.547241 152.0
529.585449 60.0
529.646973 84.0
529.753601 96.0
529.796997 88.0
529.869629 128.0
529.929077 84.0
530.032471 56.0
530.176514 96.0
530.224121 112.0
530.268188 116.0
530.339294 124.0
530.463562 72.0
530.505798 52.0
530.568909 72.0
530.602783 100.0
530.648682 40.0
530.818298 48.0
530.868774 112.0
530.937561 88.0
531.04303 32.0
531.189819 52.0
531.298889 144.0
531.364197 100.0
531.432983 128.0
531.472168 96.0
531.556885 108.0
531.905701 56.0
532.080139 56.0
532.126099 48.0
532.181152 160.0
532.268433 56.0
532.360291 56.0
532.672607 144.0
532.7323 72.0
532.84259 44.0
532.998779 60.0
533.053955 92.0
533.187195 100.0
533.380249 72.0
533.435425 48.0
533.623901 36.0
533.711304 52.0
533.757263 28.0
533.826233 84.0
533.858459 36.0
533.987244 112.0
534.152588 140.0
534.447266 44.0
535.183777 56.0
535.282349 116.0
535.427795 56.0
535.469299 92.0
535.534241 72.0
535.598267 72.0
535.676575 128.0
535.83783 40.0
535.88385 52.0
535.939148 72.0
536.068176 88.0
536.169617 68.0
536.367798 116.0
536.945129 76.0
537.048706 108.0
537.124023 80.0
537.465454 132.0
537.673096 60.0
537.737732 120.0
537.806946 28.0
537.862366 76.0
538.365662 56.0
538.434937 28.0
538.541138 76.0
538.578125 100.0
538.628906 104.0
538.664307 96.0
538.961548 36.0
539.03833 104.0
539.432983 56.0
539.553162 48.0
539.594788 108.0
539.641052 128.0
540.283203 128.0
540.413452 72.0
540.459778 128.0
540.626343 132.0
540.686523 56.0
540.731384 104.0
540.853149 112.0
540.894775 64.0
540.965759 108.0
541.033691 88.0
541.075317 84.0
541.217957 116.0
541.316101 80.0
541.496765 104.0
541.538452 88.0
541.5755 68.0
541.867371 48.0
541.955383 64.0
542.302979 88.0
542.344666 60.0
542.497681 76.0
542.585083 148.0
542.910339 72.0
542.947449 68.0
543.072693 52.0
543.457703 108.0
543.680481 124.0
543.787231 64.0
543.852173 76.0
544.088928 92.0
544.140015 116.0
544.246826 60.0
544.618347 64.0
544.753052 84.0
544.835815 64.0
544.911011 72.0
545.116821 116.0
545.152649 64.0
545.278137 124.0
545.324646 72.0
545.500916 112.0
545.62677 52.0
545.877869 44.0
545.952454 120.0
546.08252 84.0
546.301147 44.0
546.341248 104.0
546.501221 76.0
546.971252 88.0
547.264587 40.0
547.409546 60.0
547.47876 52.0
547.832764 52.0
547.930603 68.0
548.158936 152.0
548.28009 136.0
548.443237 140.0
548.489868 92.0
548.6297 72.0
548.671692 76.0
548.872192 44.0
549.077393 92.0
549.716492 76.0
550.271973 52.0
550.318665 96.0
550.720337 64.0
550.781067 72.0
550.963257 80.0
551.150146 60.0
551.304321 72.0
551.748413 120.0
552.085083 52.0
552.421875 68.0
552.964661 84.0
553.671631 124.0
553.802795 104.0
554.585266 48.0
554.946289 40.0
555.035339 60.0
555.096313 88.0
555.242615 80.0
555.376343 68.0
555.753052 80.0
556.769165 124.0
556.997192 48.0
557.532837 32.0
557.617432 32.0
559.075439 76.0
559.428467 96.0
559.555542 44.0
559.776855 52.0
560.813354 132.0
560.983093 56.0
561.199951 64.0
561.48761 48.0
561.78009 52.0
561.960327 144.0
562.728699 40.0
562.7854 68.0
563.314331 76.0
563.541138 92.0
564.051514 140.0
564.165588 64.0
564.339905 68.0
564.415588 36.0
565.962952 152.0
566.153198 160.0
566.251831 40.0
566.533264 136.0
566.639771 80.0
566.995667 116.0
567.346436 152.0
567.920227 112.0
568.076782 92.0
568.603455 52.0
569.37262 64.0
569.405884 64.0
570.218323 64.0
570.983826 72.0
571.093201 64.0
571.530884 64.0
571.787903 48.0
571.821167 36.0
571.935425 40.0
572.89093 68.0
573.507324 68.0
574.027039 76.0
574.160522 120.0
574.456299 56.0
574.542175 88.0
574.690063 92.0
574.752075 84.0
576.036438 56.0
576.131958 88.0
576.217957 40.0
576.385193 28.0
576.687256 80.0
577.374146 144.0
577.929688 60.0
579.567322 44.0
579.788574 92.0
580.823425 124.0
581.384827 40.0
581.932068 76.0
584.455566 64.0
584.645935 108.0
584.720276 68.0
585.688049 56.0
587.17749 84.0
587.346252 84.0
587.597168 60.0
587.693665 52.0
587.83844 84.0
588.159607 88.0
588.2052 108.0
588.605957 116.0
588.683228 96.0
589.229065 80.0
589.436829 100.0
589.518982 116.0
589.557678 56.0
589.627625 160.0
590.244141 44.0
590.355347 48.0
590.853577 44.0
591.037415 72.0
591.313293 44.0
592.131531 52.0
592.238098 144.0
592.291382 48.0
592.499695 92.0
592.727417 80.0
593.032776 40.0
593.187866 80.0
595.084839 64.0
598.191528 80.0
598.342407 88.0
598.76123 92.0
598.8927 104.0
599.282471 68.0
599.326294 100.0
599.596619 80.0
599.842957 64.0
599.998962 64.0
601.03302 112.0
601.184265 68.0
601.818848 48.0
602.649231 96.0
603.157532 168.0
603.48999 52.0
603.646423 48.0
603.949707 40.0
604.213867 152.0
605.496399 40.0
605.961731 84.0
607.314819 88.0
607.53064 100.0
608.080261 84.0
608.448425 44.0
608.644836 104.0
608.693909 72.0
608.939453 48.0
609.710876 68.0
610.345032 84.0
611.16156 72.0
612.091919 104.0
612.589355 48.0
612.96875 88.0
613.013123 104.0
613.491211 100.0
613.767334 84.0
613.836365 64.0
614.561523 92.0
615.128906 104.0
615.859924 88.0
616.032776 152.0
616.235352 40.0
616.288818 88.0
616.655396 56.0
617.055847 64.0
617.599854 72.0
617.65918 84.0
618.183655 84.0
621.101929 92.0
621.811462 44.0
622.005066 36.0
622.854187 52.0
624.116577 68.0
624.191162 76.0
624.365234 100.0
625.89801 112.0
626.869385 48.0
627.342896 72.0
627.911377 28.0
628.325378 80.0
629.054016 116.0
629.368591 104.0
629.843018 108.0
630.012878 144.0
631.212463 52.0
631.482544 72.0
633.104126 116.0
633.630127 72.0
633.675232 88.0
634.041016 104.0
634.281616 52.0
634.459839 116.0
634.597473 68.0
634.632568 112.0
634.772949 132.0
634.888306 96.0
636.1026 100.0
636.137695 44.0
636.403809 120.0
636.574524 100.0
637.408447 60.0
638.957153 100.0
639.56604 80.0
639.601318 108.0
639.737244 132.0
639.863098 104.0
640.281067 84.0
640.432129 100.0
640.588318 52.0
641.303833 80.0
641.455078 44.0
641.873535 28.0
644.316528 40.0
645.170654 108.0
646.318848 100.0
646.450378 72.0
646.971741 100.0
648.400208 32.0
648.937561 112.0
649.439636 60.0
650.515442 104.0
652.990051 56.0
653.625977 56.0
654.038208 64.0
654.089111 104.0
654.384399 64.0
655.143311 60.0
655.3573 44.0
656.254395 44.0
656.320679 68.0
656.703186 112.0
657.448059 96.0
657.672668 124.0
657.963623 204.0
658.198486 96.0
658.27002 68.0
658.566223 68.0
659.496155 104.0
659.577942 96.0
659.920532 64.0
660.176208 60.0
660.263123 44.0
660.493286 56.0
660.743958 72.0
660.846313 84.0
661.834229 120.0
662.662476 120.0
663.032959 80.0
663.355896 56.0
663.412292 112.0
663.560974 76.0
663.986572 100.0
664.540588 108.0
665.782898 88.0
667.026306 76.0
668.389282 88.0
668.682617 76.0
669.87207 92.0
672.099426 64.0
672.166504 48.0
672.264526 72.0
672.316162 60.0
673.529541 56.0
675.328369 76.0
677.409302 56.0
677.844482 44.0
677.934143 68.0
678.005127 140.0
678.212463 40.0
678.845032 60.0
679.109497 116.0
679.374084 48.0
680.012329 64.0
681.175476 108.0
682.989685 104.0
683.457947 60.0
684.004395 64.0
684.38446 28.0
684.545898 72.0
684.764648 124.0
685.723328 60.0
686.114319 76.0
686.47406 72.0
687.131348 40.0
687.444397 32.0
687.788879 96.0
688.263977 52.0
689.899353 80.0
690.336121 80.0
690.547791 72.0
693.631958 84.0
693.904602 60.0
694.654541 92.0
694.785706 68.0
694.901123 64.0
695.158264 56.0
695.436401 172.0
695.562378 88.0
695.725159 72.0
696.129456 76.0
696.817566 108.0
697.243225 124.0
697.916138 100.0
699.089172 68.0
699.183899 64.0
700.057861 128.0
700.136841 80.0
701.343445 40.0
701.92865 108.0
702.361145 84.0
703.801941 68.0
704.007874 36.0
704.44104 76.0
704.509705 92.0
706.174866 44.0
706.926147 60.0
707.132507 64.0
707.169556 40.0
707.365417 56.0
707.746643 76.0
707.900208 112.0
708.011414 96.0
708.567627 108.0
708.869629 64.0
710.593018 52.0
710.858337 92.0
711.113037 96.0
711.341309 68.0
711.56427 44.0
711.925354 100.0
713.4823 60.0
714.31189 124.0
714.476807 60.0
715.227173 88.0
715.796875 124.0
715.945984 64.0
717.294067 68.0
717.33667 140.0
717.549927 84.0
717.741882 76.0
719.187683 112.0
719.438599 84.0
719.598755 140.0
722.409973 68.0
723.378601 68.0
724.069397 68.0
725.441101 96.0
726.17041 92.0
726.384949 160.0
726.694153 76.0
728.473206 216.0
728.725769 108.0
728.8573 148.0
729.230896 96.0
730.575256 68.0
730.866882 60.0
731.27478 48.0
731.44165 48.0
732.378601 200.0
732.831177 92.0
733.100586 44.0
733.337769 88.0
733.564148 72.0
733.639587 132.0
733.682739 56.0
733.98468 104.0
734.853149 64.0
735.311829 84.0
735.570923 104.0
737.029175 84.0
737.975098 48.0
738.018372 48.0
738.061646 40.0
738.488892 128.0
738.825195 116.0
738.883789 92.0
738.992004 80.0
739.127258 68.0
739.338318 120.0
740.372375 72.0
740.96283 88.0
741.960083 108.0
742.236633 88.0
742.800659 80.0
742.865784 96.0
743.09906 104.0
743.267273 56.0
743.663452 100.0
744.374695 64.0
745.080811 96.0
745.417664 56.0
746.086243 148.0
746.211304 208.0
746.254822 48.0
746.624573 100.0
747.674622 56.0
747.854248 28.0
747.892334 112.0
749.918579 108.0
750.529175 68.0
751.287354 44.0
752.187805 116.0
752.32428 136.0
753.482117 68.0
753.766235 108.0
754.526001 72.0
754.668152 116.0
755.313477 132.0
755.636292 68.0
756.380554 56.0
758.160706 60.0
758.237427 104.0
758.363464 52.0
758.965027 72.0
760.691772 180.0
761.359192 44.0
761.567932 120.0
761.870056 44.0
762.106323 128.0
762.66687 124.0
762.798828 100.0
764.01416 188.0
765.026794 60.0
765.153442 92.0
765.996033 48.0
766.188904 104.0
766.850159 80.0
767.649597 68.0
768.576355 84.0
769.023376 84.0
769.238647 160.0
769.583923 140.0
769.989624 96.0
770.188416 140.0
771.697205 40.0
772.172791 100.0
772.272339 144.0
772.604248 60.0
772.786804 72.0
773.755432 104.0
773.860657 228.0
774.996155 92.0
775.095886 152.0
775.505981 108.0
775.810852 204.0
776.620483 52.0
776.709229 104.0
777.019897 160.0
777.436096 56.0
778.807495 68.0
779.154907 96.0
779.172852 52.0
779.187378 84.0
779.279724 228.0
779.807678 108.0
780.191223 96.0
780.324646 52.0
780.919678 144.0
782.088196 48.0
782.317383 92.0
782.450012 108.0
782.689453 100.0
782.945618 76.0
783.034729 76.0
783.44696 100.0
783.898254 56.0
784.039246 152.0
784.176941 132.0
784.215942 60.0
784.901733 92.0
785.342285 40.0
785.509644 136.0
785.816467 108.0
785.967163 40.0
786.056458 152.0
786.759705 48.0
787.53595 92.0
787.636475 80.0
787.843201 108.0
788.021973 80.0
788.161682 156.0
788.569641 200.0
789.106323 128.0
790.510315 396.0
790.695007 72.0
792.072449 124.0
792.31897 80.0
792.559875 92.0
792.840088 80.0
793.484741 152.0
794.550354 92.0
795.672852 188.0
796.127686 92.0
797.419922 56.0
797.549194 64.0
797.661621 176.0
797.959595 48.0
798.465698 64.0
798.696289 48.0
798.94043 120.0
800.272095 100.0
800.418518 96.0
800.70575 48.0
801.066223 120.0
802.215881 52.0
802.830505 76.0
803.022217 116.0
803.230957 156.0
803.490479 112.0
804.399048 60.0
804.444214 32.0
804.703918 36.0
805.189575 80.0
806.161316 196.0
806.715271 68.0
807.34436 152.0
807.427734 52.0
809.799255 92.0
811.113831 44.0
811.210205 196.0
811.346252 148.0
811.414307 48.0
811.91333 64.0
812.49762 52.0
813.783142 168.0
814.3255 96.0
814.444763 56.0
816.036011 140.0
816.206604 216.0
816.447388 152.0
816.741211 36.0
816.85498 96.0
816.991516 52.0
817.173584 196.0
817.970398 68.0
818.215149 88.0
818.465698 88.0
818.602356 60.0
818.716248 152.0
819.154846 148.0
819.434021 48.0
819.718933 52.0
820.568237 44.0
821.218384 128.0
821.355286 240.0
822.171204 60.0
822.781982 96.0
823.34729 72.0
823.667175 160.0
823.747131 92.0
823.838562 144.0
824.832886 112.0
825.347473 140.0
825.393188 64.0
825.518982 108.0
826.296936 208.0
827.619141 112.0
827.939819 92.0
828.535583 96.0
829.028381 80.0
829.251892 64.0
830.433044 124.0
830.742798 68.0
830.995239 36.0
831.138672 68.0
832.44751 68.0
832.93573 88.0
832.975952 132.0
833.142517 92.0
833.372375 96.0
833.590698 40.0
833.728638 68.0
833.889587 192.0
834.533447 128.0
834.820984 52.0
835.304138 136.0
835.603271 148.0
835.925476 148.0
836.391724 48.0
836.775696 120.0
837.238098 68.0
837.785339 76.0
837.95813 92.0
837.998474 108.0
838.491699 164.0
838.891846 116.0
839.526062 40.0
839.722168 76.0
839.999023 228.0
841.910645 108.0
842.585449 128.0
842.729858 36.0
844.527832 48.0
845.106384 136.0
845.934021 68.0
846.078735 80.0
846.518799 176.0
846.680969 112.0
847.227539 196.0
847.77594 200.0
848.233826 180.0
848.488892 68.0
850.072449 76.0
850.223328 76.0
850.496155 52.0
852.180298 176.0
852.435974 120.0
852.755676 96.0
853.325378 76.0
854.861023 112.0
854.977417 52.0
855.107117 100.0
855.285889 176.0
855.937988 136.0
856.106873 184.0
856.84082 108.0
857.534302 44.0
857.615906 96.0
858.233887 88.0
858.292175 44.0
858.63623 100.0
858.712097 84.0
859.814819 56.0
860.013245 68.0
860.059937 104.0
860.223389 104.0
860.491943 92.0
860.665222 196.0
861.30957 180.0
861.790222 88.0
862.665283 80.0
863.03363 148.0
863.649292 156.0
863.714294 128.0
864.051392 112.0
864.548767 92.0
864.788757 204.0
864.929199 72.0
865.672791 168.0
866.076904 96.0
866.563171 148.0
866.604187 76.0
866.996826 180.0
867.4599 52.0
867.518494 108.0
867.952393 180.0
869.419006 80.0
870.369995 164.0
870.522705 144.0
870.89856 72.0
870.945557 144.0
871.356812 212.0
871.668213 96.0
872.097229 76.0
872.47345 120.0
872.908569 156.0
873.13208 32.0
873.190918 88.0
873.408508 80.0
873.802673 128.0
873.967407 168.0
874.055725 116.0
874.114563 32.0
874.550049 136.0
874.785522 84.0
875.998657 176.0
876.305054 80.0
876.741089 80.0
876.929688 100.0
877.100647 76.0
877.336426 96.0
877.566406 92.0
878.45697 160.0
878.551331 112.0
878.598572 56.0
879.18866 48.0
879.347961 136.0
879.395203 212.0
879.873352 144.0
880.88916 68.0
881.72229 244.0
881.893738 152.0
881.95874 88.0
883.00293 100.0
883.236023 100.0
883.301086 32.0
883.981506 92.0
885.01532 124.0
885.313477 100.0
885.562256 136.0
885.965088 136.0
886.35614 56.0
886.516113 124.0
887.423096 40.0
887.719604 64.0
888.045776 84.0
888.235596 80.0
888.348328 68.0
888.674622 116.0
889.006958 44.0
889.773865 100.0
889.858643 184.0
890.984253 96.0
891.088074 152.0
891.64978 60.0
891.768677 88.0
892.048035 172.0
892.089661 156.0
892.161011 112.0
892.357239 140.0
892.399658 116.0
892.571289 64.0
892.642639 48.0
892.85675 200.0
893.418701 128.0
895.171814 80.0
895.255554 64.0
896.112976 64.0
896.321533 80.0
896.482422 88.0
897.239441 100.0
897.49585 108.0
897.901367 84.0
898.104126 184.0
899.530334 52.0
899.673584 252.0
900.037842 80.0
900.428284 208.0
901.298218 120.0
901.519348 56.0
901.591064 72.0
901.632874 148.0
901.734497 92.0
902.003479 116.0
902.152893 120.0
902.643188 64.0
902.864502 84.0
903.797729 192.0
903.995178 92.0
905.372131 140.0
906.330627 76.0
907.691345 204.0
908.081177 44.0
908.684082 152.0
908.951111 84.0
909.203186 64.0
909.245178 76.0
910.181702 136.0
910.385864 196.0
910.6922 116.0
910.848389 88.0
911.797729 240.0
912.212463 60.0
912.855835 152.0
913.270813 196.0
913.43927 148.0
915.674072 236.0
915.829041 108.0
916.009766 92.0
916.991943 124.0
917.076294 36.0
917.534485 72.0
918.05304 44.0
918.701904 68.0
918.855347 80.0
918.976013 64.0
919.700195 236.0
920.24353 72.0
920.448853 152.0
920.901794 52.0
921.055542 124.0
921.300476 136.0
921.916809 36.0
922.430603 136.0
922.841736 184.0
922.908203 100.0
923.283142 72.0
923.996948 176.0
924.366089 60.0
925.043945 60.0
925.111267 100.0
925.30426 144.0
925.660889 116.0
926.024902 140.0
926.109314 172.0
927.861084 72.0
929.571594 104.0
930.014648 156.0
930.901123 124.0
931.180481 156.0
931.654297 72.0
932.116089 40.0
932.176819 192.0
933.17981 136.0
933.538574 172.0
933.733215 136.0
933.854858 172.0
934.747864 148.0
935.217834 128.0
935.692688 100.0
935.820557 60.0
936.350342 76.0
936.490417 116.0
936.593994 52.0
936.947327 100.0
938.282043 32.0
938.48938 184.0
939.172424 156.0
940.157715 188.0
940.429382 144.0
940.484314 52.0
940.795654 104.0
941.842712 156.0
943.581604 176.0
943.671082 196.0
944.125854 328.0
944.31543 232.0
944.731445 140.0
945.251526 164.0
946.053345 96.0
946.132935 144.0
946.469666 256.0
946.616638 204.0
947.063721 168.0
947.198486 180.0
947.615112 148.0
947.933716 60.0
948.09845 64.0
948.246277 120.0
948.319885 124.0
948.534424 80.0
949.172058 52.0
949.25177 116.0
949.58905 148.0
950.067566 88.0
950.435669 112.0
950.582947 160.0
951.121033 72.0
951.675598 124.0
951.884399 128.0
952.01947 100.0
952.154602 96.0
952.320435 100.0
952.443298 56.0
953.008484 108.0
953.321899 88.0
953.672241 152.0
953.789001 228.0
953.93042 140.0
954.114868 40.0
955.24646 60.0
955.412537 192.0
955.744812 84.0
956.834229 208.0
957.049744 96.0
957.240662 148.0
957.382324 124.0
957.517761 160.0
958.027466 124.0
958.43573 112.0
958.651367 76.0
958.897949 172.0
959.181458 48.0
959.483521 128.0
960.032349 160.0
960.265503 100.0
960.309875 152.0
961.938965 84.0
962.506958 68.0
962.655151 160.0
963.260498 148.0
963.507568 40.0
964.057556 92.0
964.366577 60.0
964.644714 96.0
965.355774 244.0
966.258911 104.0
966.32074 140.0
966.945801 84.0
968.840637 152.0
969.664795 48.0
970.817993 172.0
970.880005 48.0
970.923401 144.0
971.163025 132.0
971.90979 128.0
972.282104 172.0
972.902893 100.0
973.132568 52.0
973.269226 164.0
973.418213 204.0
974.200867 196.0
975.854065 180.0
976.003296 212.0
976.127686 124.0
976.43866 140.0
976.662537 148.0
976.716675 200.0
976.858521 52.0
977.577148 80.0
977.882141 156.0
978.081299 200.0
978.697632 56.0
978.853333 68.0
979.202087 88.0
979.388977 68.0
979.594543 72.0
979.675537 128.0
979.80011 84.0
980.572815 96.0
981.408203 92.0
982.243958 132.0
982.76178 80.0
982.924011 92.0
983.423279 192.0
983.641785 168.0
984.403503 212.0
984.497192 124.0
984.628296 172.0
985.071838 72.0
985.721619 64.0
986.102844 160.0
986.727966 92.0
987.234497 32.0
987.296997 144.0
987.365845 164.0
987.415833 128.0
987.572205 128.0
988.441833 140.0
988.717224 124.0
988.77356 152.0
988.842407 88.0
989.437073 100.0
989.568542 128.0
989.643738 104.0
990.038208 160.0
990.213562 120.0
990.269958 136.0
990.677124 108.0
991.247314 192.0
991.454102 108.0
991.769897 116.0
991.836487 176.0
992.707947 136.0
993.328918 116.0
993.912415 64.0
993.95636 128.0
994.866455 120.0
995.1427 116.0
995.324768 136.0
995.946594 116.0
996.932983 84.0
997.083801 184.0
997.247253 52.0
997.71875 284.0
997.794189 68.0
998.133728 128.0
998.322388 220.0
999.070862 180.0
999.253357 116.0
1000.197327 36.0
1000.93396 148.0
1001.255188 140.0
1001.374817 112.0
1002.565613 176.0
1003.145508 208.0
1003.612061 136.0
1003.845398 172.0
1004.009338 144.0
1004.640137 68.0
1004.722168 88.0
1005.037659 80.0
1005.719238 96.0
1007.430542 152.0
1007.727539 80.0
1007.853882 160.0
1007.961304 52.0
1008.44165 40.0
1008.865173 72.0
1009.623962 164.0
1010.49939 132.0
1012.351624 144.0
1012.85199 168.0
1013.677368 148.0
1013.789734 120.0
1013.853088 116.0
1014.112976 144.0
1014.918091 92.0
1015.178101 116.0
1015.450806 128.0
1016.821289 156.0
1016.95459 76.0
1017.075195 72.0
1017.621704 204.0
1017.786255 60.0
1017.868835 172.0
1017.984436 132.0
1018.758057 188.0
1019.901917 108.0
1020.69458 92.0
1021.440735 92.0
1022.503357 116.0
1022.624329 116.0
1023.050781 72.0
1023.148926 180.0
1023.630249 300.0
1024.598389 108.0
1025.273926 116.0
1026.51062 40.0
1026.944336 96.0
1027.792847 200.0
1028.200684 116.0
1028.271484 136.0
1028.411865 108.0
1028.605103 136.0
1029.190796 44.0
1029.427002 108.0
1031.075317 192.0
1032.187744 100.0
1032.622559 52.0
1032.893188 148.0
1033.211182 120.0
1033.524658 128.0
1033.73584 44.0
1034.203003 176.0
1034.279907 120.0
1034.721558 80.0
1034.843262 96.0
1034.958496 144.0
1035.150635 108.0
1035.400391 148.0
1035.776001 208.0
1035.835938 108.0
1036.470215 156.0
1037.976685 72.0
1038.098511 172.0
1039.060669 104.0
1039.285278 96.0
1039.751709 168.0
1040.081055 260.0
1040.954224 100.0
1041.03772 184.0
1041.930542 224.0
1041.975586 104.0
1042.380371 36.0
1042.57959 208.0
1042.849243 176.0
1042.933105 152.0
1043.10022 152.0
1043.267334 92.0
1043.595337 72.0
1043.690552 132.0
1044.154785 76.0
1044.270508 128.0
1044.566406 220.0
1044.740112 72.0
1044.946045 108.0
1046.555176 140.0
1046.993042 216.0
1047.231323 52.0
1047.276489 80.0
1047.901367 128.0
1048.223511 116.0
1048.971191 160.0
1050.080322 164.0
1050.422119 148.0
1051.189941 108.0
1051.423096 144.0
1051.706299 148.0
1052.351929 92.0
1052.532715 76.0
1052.60376 156.0
1053.449829 116.0
1053.708252 40.0
1053.856934 80.0
1053.921509 120.0
1054.244629 88.0
1054.690552 136.0
1055.039673 136.0
1056.09375 140.0
1056.436646 132.0
1057.912109 68.0
1058.248779 84.0
1058.773315 128.0
1059.025879 72.0
1059.123047 56.0
1059.401611 260.0
1059.719116 56.0
1059.777466 28.0
1060.082031 208.0
1060.807983 56.0
1061.054321 232.0
1061.23584 112.0
1061.722168 92.0
1061.812988 128.0
1062.001099 216.0
1062.179443 144.0
1062.506348 160.0
1063.214478 84.0
1063.389648 64.0
1063.535645 64.0
1063.818115 188.0
1064.253052 128.0
1064.681641 72.0
1065.40271 168.0
1065.565186 92.0
1065.727539 156.0
1065.844482 132.0
1066.299438 144.0
1066.715454 136.0
1066.904053 224.0
1067.742798 116.0
1068.100586 140.0
1068.204712 164.0
1069.297852 188.0
1069.382446 188.0
1069.688354 164.0
1070.013916 100.0
1070.137573 104.0
1070.398071 176.0
1071.564087 184.0
1071.961548 40.0
1072.437378 164.0
1072.548096 172.0
1072.893677 132.0
1073.050171 64.0
1074.158813 128.0
1074.458862 120.0
1074.90918 116.0
1076.456299 96.0
1076.541138 80.0
1077.684326 116.0
1078.135254 200.0
1078.18103 100.0
1078.400024 124.0
1078.900024 128.0
1079.723999 144.0
1079.822021 92.0
1079.900513 88.0
1080.378052 124.0
1080.659424 40.0
1080.77063 144.0
1080.901611 60.0
1081.150269 68.0
1081.544067 204.0
1082.671021 196.0
1083.428955 176.0
1083.92041 200.0
1083.985962 180.0
1084.621704 136.0
1085.119873 76.0
1085.992065 112.0
1086.261108 212.0
1086.425049 136.0
1086.726929 192.0
1087.087769 172.0
1087.23877 124.0
1087.442261 132.0
1087.599731 140.0
1087.671997 152.0
1088.164307 204.0
1088.518921 92.0
1088.696167 120.0
1089.492676 164.0
1089.865601 184.0
1090.378174 172.0
1090.463623 120.0
1090.608154 164.0
1091.081543 60.0
1091.278809 108.0
1091.54834 172.0
1091.811401 136.0
1092.265259 188.0
1092.60083 52.0
1092.673096 116.0
1092.956055 168.0
1093.54834 188.0
1094.22644 196.0
1095.00354 168.0
1095.128662 112.0
1095.319702 116.0
1095.780884 108.0
1096.136719 80.0
1096.182739 104.0
1096.374512 168.0
1096.743042 36.0
1096.841919 184.0
1096.974365 140.0
1097.112183 136.0
1097.705566 116.0
1098.200195 68.0
1098.8927 116.0
1099.777222 152.0
1100.721436 68.0
1101.256348 64.0
1101.494141 188.0
1101.632812 220.0
1101.679077 100.0
1101.751831 68.0
1102.088745 140.0
1102.161499 156.0
1102.462036 228.0
1103.156006 176.0
1104.025635 120.0
1104.270386 140.0
1104.61438 72.0
1105.143677 76.0
1105.712769 244.0
1105.812012 104.0
1106.771973 80.0
1106.970581 48.0
1107.262085 84.0
1107.496704 176.0
1107.708008 112.0
1108.123169 172.0
1108.381592 120.0
1108.891968 60.0
1109.30957 44.0
1109.568115 76.0
1110.403687 156.0
1110.861328 116.0
1111.067017 64.0
1112.058838 132.0
1112.14209 28.0
1112.546997 148.0
1112.786011 160.0
1112.985229 84.0
1113.666382 264.0
1113.71582 92.0
1113.842041 152.0
1114.147583 116.0
1114.380127 60.0
1114.426636 156.0
1114.911743 60.0
1116.20813 156.0
1116.361084 164.0
1117.119263 224.0
1118.077515 52.0
1118.876343 120.0
1119.195923 44.0
1119.375732 52.0
1119.468872 88.0
1119.62793 60.0
1119.748657 168.0
1120.046387 80.0
1120.374756 164.0
1120.528076 172.0
1121.127808 304.0
1121.934326 44.0
1122.821167 172.0
1123.134644 192.0
1123.875244 72.0
1124.0354 64.0
1124.268921 188.0
1124.709473 180.0
1126.2052 120.0
1126.733032 128.0
1127.514771 48.0
1127.568237 68.0
1128.865234 52.0
1129.868652 88.0
1130.279419 32.0
1130.865723 200.0
1131.033081 48.0
1131.247314 56.0
1132.760742 48.0
1133.759155 128.0
1134.469604 124.0
1135.321289 80.0
1135.840332 120.0
1135.970337 180.0
1136.193237 60.0
1136.293945 272.0
1136.723389 96.0
1136.917969 192.0
1137.092407 96.0
1137.260254 132.0
1137.716797 64.0
1138.274048 144.0
1138.388184 96.0
1138.683716 100.0
1139.51001 44.0
1140.235718 192.0
1140.316406 172.0
1140.397095 116.0
1140.471069 116.0
1140.780273 124.0
1141.230713 128.0
1141.297974 172.0
1142.010864 76.0
1142.212646 120.0
1142.327026 120.0
1142.602783 128.0
1142.757568 152.0
1143.026733 212.0
1143.100708 116.0
1143.194946 160.0
1143.995972 148.0
1144.864502 92.0
1144.931885 224.0
1145.100342 60.0
1147.472412 80.0
1147.573486 116.0
1147.755615 76.0
1148.153442 168.0
1148.322021 80.0
1148.659302 64.0
1150.08313 144.0
1151.082397 76.0
1151.170166 72.0
1151.278198 120.0
1151.406616 104.0
1151.744263 144.0
1152.352295 116.0
1152.622559 212.0
1152.892944 108.0
1152.953735 88.0
1153.203857 64.0
1154.126831 168.0
1154.745361 232.0
1154.901001 176.0
1155.103882 152.0
1155.273071 100.0
1155.415161 68.0
1155.536865 172.0
1155.658691 156.0
1155.983521 96.0
1156.254272 52.0
1156.782227 160.0
1156.944702 176.0
1157.648926 116.0
1158.021362 96.0
1159.423828 124.0
1160.020386 80.0
1160.128784 104.0
1160.332275 176.0
1160.7052 152.0
1161.654663 72.0
1161.776855 184.0
1161.844727 168.0
1162.129639 52.0
1162.231445 184.0
1162.353516 72.0
1162.577515 28.0
1162.645386 96.0
1162.726807 96.0
1164.172974 88.0
1164.227295 124.0
1164.315552 76.0
1164.675537 200.0
1165.164673 220.0
1165.52478 104.0
1166.109253 144.0
1166.190796 96.0
1166.367554 172.0
1167.081421 188.0
1167.360229 112.0
1167.639038 172.0
1167.809082 116.0
1168.244385 200.0
1168.292114 100.0
1168.400879 148.0
1168.727539 136.0
1169.666748 112.0
1170.129639 160.0
1170.265869 52.0
1170.817505 160.0
1171.042236 104.0
1171.341919 208.0
1172.030029 172.0
1172.241333 264.0
1172.316284 156.0
1172.466187 56.0
1172.513916 100.0
1172.697876 56.0
1173.181885 52.0
1173.642944 144.0
1173.850098 156.0
1174.075195 240.0
1174.491211 132.0
1174.736816 76.0
1174.934692 44.0
1175.398682 160.0
1175.466919 104.0
1175.589722 148.0
1176.418457 188.0
1176.975464 152.0
1177.099854 60.0
1177.255493 124.0
1178.16394 160.0
1178.485107 312.0
1178.587646 168.0
1178.778931 76.0
1179.236816 180.0
1179.790527 124.0
1179.899902 92.0
1180.364868 96.0
1180.501709 80.0
1181.007812 56.0
1181.083008 172.0
1181.329346 160.0
1181.514038 92.0
1181.938232 128.0
1182.081909 76.0
1182.157227 148.0
1182.88269 64.0
1183.18396 112.0
1183.252441 276.0
1183.464722 76.0
1184.546875 188.0
1184.601685 168.0
1184.937378 148.0
1185.567749 188.0
1186.356079 64.0
1186.787964 112.0
1187.398315 140.0
1187.57666 128.0
1187.748169 68.0
1188.729248 140.0
1189.175415 148.0
1189.353882 44.0
1189.85498 48.0
1189.96936 176.0
1190.59668 56.0
1191.118652 76.0
1191.455322 120.0
1191.85376 156.0
1191.984375 204.0
1192.080566 104.0
1192.630371 112.0
1192.802246 156.0
1192.974121 64.0
1193.661621 128.0
1194.143066 92.0
1194.445801 216.0
1194.727783 40.0
1195.126831 168.0
1196.170288 192.0
1196.778931 120.0
1197.997925 80.0
1198.521606 108.0
1198.755859 176.0
1199.700195 52.0
1199.796753 112.0
1200.762085 120.0
1200.91394 140.0
1201.810791 104.0
1202.06604 152.0
1202.180664 156.0
1202.314453 120.0
1202.648193 208.0
1202.818359 164.0
1203.626221 108.0
1204.199341 32.0
1204.289185 196.0
1205.339355 188.0
1206.680298 116.0
1207.026001 72.0
1207.696899 112.0
1208.700073 144.0
1209.842163 164.0
1210.25061 128.0
1210.409912 184.0
1210.957031 48.0
1211.386475 136.0
1212.155518 180.0
1212.23877 104.0
1212.363525 100.0
1212.779297 104.0
1214.117554 168.0
1214.429565 72.0
1215.234375 152.0
1216.129639 116.0
1216.323975 72.0
1216.629395 104.0
1217.219604 56.0
1218.080811 72.0
1218.247559 72.0
1218.337891 136.0
1218.469971 228.0
1218.539429 80.0
1218.622803 104.0
1219.109253 120.0
1219.185669 136.0
1219.598633 144.0
1219.665283 104.0
1219.776489 172.0
1219.936401 32.0
1220.263062 100.0
1220.617798 156.0
1220.70813 40.0
1220.808594 100.0
1220.986328 180.0
1221.494141 48.0
1221.626221 252.0
1222.203735 136.0
1223.157227 212.0
1223.567993 136.0
1223.762939 60.0
1224.292236 184.0
1224.354858 96.0
1225.267456 80.0
1226.40332 156.0
1226.473022 92.0
1226.626343 72.0
1226.954102 48.0
1227.728027 88.0
1227.776855 124.0
1229.112671 140.0
1229.374512 84.0
1230.023682 64.0
1230.28894 164.0
1230.658936 104.0
1230.784668 168.0
1230.980225 156.0
1231.196655 124.0
1231.294434 60.0
1231.392212 132.0
1232.013916 144.0
1232.691772 116.0
1233.062134 72.0
1233.418579 92.0
1234.334473 60.0
1234.621216 104.0
1234.726196 168.0
1234.803101 152.0
1235.026855 40.0
1235.544556 124.0
1236.041382 40.0
1236.615234 96.0
1236.944214 164.0
1237.735474 104.0
1238.015503 172.0
1238.954224 72.0
1239.991211 228.0
1240.334717 76.0
1241.028809 128.0
1241.112915 116.0
1241.358398 84.0
1241.989624 120.0
1242.663086 124.0
1242.915771 208.0
1243.71582 136.0
1245.25354 124.0
1245.590698 52.0
1245.857666 76.0
1246.012207 200.0
1246.293335 36.0
1246.595459 124.0
1246.854004 176.0
1247.502197 140.0
1247.604248 208.0
1247.902954 224.0
1247.992065 112.0
1248.003662 168.0
1248.240479 104.0
1248.472534 232.0
1248.943726 196.0
1249.295532 52.0
1249.565674 244.0
1249.73877 140.0
1249.893555 60.0
1250.139893 160.0
1250.189087 32.0
1250.653687 140.0
1251.160522 40.0
1251.294312 68.0
1252.223877 156.0
1253.026978 164.0
1253.703369 48.0
1253.807617 76.0
1254.274292 144.0
1254.373047 36.0
1254.563354 148.0
1255.15564 156.0
1255.959595 136.0
1256.404053 64.0
1256.651001 176.0
1257.716675 148.0
1257.928467 308.0
1258.182617 92.0
1258.394409 64.0
1258.832275 124.0
1259.142944 112.0
1259.538574 204.0
1259.750488 132.0
1261.121338 152.0
1261.262695 88.0
1261.559692 124.0
1262.450562 56.0
1262.84668 136.0
1263.299316 132.0
1263.773438 140.0
1263.865356 72.0
1263.936157 196.0
1265.026123 124.0
1266.109497 56.0
1266.463623 132.0
1267.25708 160.0
1267.547607 188.0
1268.270508 64.0
1268.60376 176.0
1268.781006 136.0
1269.064575 216.0
1269.170898 128.0
1270.114258 80.0
1270.518555 88.0
1271.824341 144.0
1272.008911 144.0
1272.102173 140.0
1272.789917 64.0
1273.144897 116.0
1273.356567 160.0
1273.663452 72.0
1273.791382 144.0
1274.91394 88.0
1275.262207 72.0
1276.26355 124.0
1276.854858 36.0
1277.018555 132.0
1277.594727 124.0
1277.786743 168.0
1278.220825 136.0
1278.86853 80.0
1279.288452 60.0
1279.359741 40.0
1280.09314 164.0
1280.620117 188.0
1280.698486 160.0
1280.755493 36.0
1282.658081 40.0
1282.893311 84.0
1283.584961 128.0
1284.041382 144.0
1284.547852 56.0
1284.883057 72.0
1285.211304 132.0
1286.217651 152.0
1287.481445 172.0
1288.360107 52.0
1288.74585 68.0
1289.1604 72.0
1289.338989 208.0
1289.524902 196.0
1290.053833 108.0
1290.268311 176.0
1290.346924 36.0
1290.876099 76.0
1291.376709 220.0
1291.81311 136.0
1291.956177 28.0
1292.600098 52.0
1292.800537 120.0
1293.380249 124.0
1294.454224 92.0
1295.256348 192.0
1295.922729 52.0
1296.366943 64.0
1297.463867 136.0
1297.922607 88.0
1298.740112 92.0
1299.428833 132.0
1299.601074 144.0
1300.333008 148.0
1301.036499 140.0
1301.697144 92.0
1301.905396 180.0
1302.314819 152.0
1302.810425 104.0
1305.045776 96.0
1305.362183 136.0
1306.081421 92.0
1306.707275 92.0
1307.052612 240.0
1307.124634 108.0
1307.966675 136.0
1308.564209 128.0
1308.895508 100.0
1308.989136 160.0
1309.061035 56.0
1309.140259 168.0
1309.305908 140.0
1309.37793 132.0
1309.658936 120.0
1310.782837 124.0
1310.905273 36.0
1311.900024 72.0
1311.950439 92.0
1312.772461 112.0
1313.652466 72.0
1314.294556 196.0
1314.402832 72.0
1314.492188 152.0
1314.69873 84.0
1314.857544 196.0
1315.391602 152.0
1315.896973 256.0
1316.561401 68.0
1316.883667 148.0
1317.103027 112.0
1317.439453 140.0
1318.114624 124.0
1318.439819 184.0
1318.844482 76.0
1319.126465 88.0
1319.769897 92.0
1320.015747 216.0
1320.23999 120.0
1320.695679 84.0
1320.746338 76.0
1322.540771 60.0
1323.025879 120.0
1323.112671 148.0
1324.061279 52.0
1324.726807 164.0
1325.611694 60.0
1325.930542 144.0
1326.27124 112.0
1326.793213 160.0
1327.373901 216.0
1327.721436 216.0
1328.519287 112.0
1328.744263 136.0
1329.027222 204.0
1329.128784 156.0
1332.606934 28.0
1332.84668 32.0
1332.984741 68.0
1333.185303 160.0
1333.49353 92.0
1333.820557 80.0
1335.114868 120.0
1335.172974 88.0
1335.340332 164.0
1335.48584 152.0
1336.824463 44.0
1337.00647 192.0
1337.756226 140.0
1338.010986 80.0
1338.549805 152.0
1338.921265 176.0
1339.401978 108.0
1339.904663 44.0
1340.174194 92.0
1340.327271 80.0
1340.582275 156.0
1341.216431 80.0
1342.754883 92.0
1343.396851 184.0
1345.374634 160.0
1346.002563 176.0
1346.594116 116.0
1348.083252 180.0
1348.603394 136.0
1349.180908 92.0
1349.560425 208.0
1349.809814 200.0
1350.160767 112.0
1350.709351 132.0
1350.855713 140.0
1351.821533 160.0
1352.248901 140.0
1352.890137 176.0
1353.622437 72.0
1354.069092 32.0
1354.357056 64.0
1354.713745 244.0
1355.893555 96.0
1356.113403 132.0
1356.238037 80.0
1356.333252 136.0
1357.301025 152.0
1357.572388 340.0
1357.880493 52.0
1358.276489 124.0
1358.371948 136.0
1358.933716 208.0
1359.611938 120.0
1360.052368 180.0
1360.272583 216.0
1361.983521 200.0
1363.107666 148.0
1363.842651 164.0
1364.136719 112.0
1364.445435 152.0
1364.680786 40.0
1364.783691 128.0
1365.835327 76.0
1366.357666 136.0
1366.630005 176.0
1366.850708 72.0
1367.255493 72.0
1367.351196 140.0
1367.468872 116.0
1368.109375 152.0
1368.322876 124.0
1368.879517 168.0
1369.213867 88.0
1369.670532 128.0
1371.217896 72.0
1371.660156 208.0
1372.356934 156.0
1372.585938 120.0
1372.736694 176.0
1373.474243 88.0
1374.020142 72.0
1374.20459 172.0
1374.256226 148.0
1374.787598 136.0
1375.16394 104.0
1375.296875 104.0
1375.584717 188.0
1376.44397 96.0
1376.721802 96.0
1376.9729 176.0
1377.371826 144.0
1377.630371 312.0
1377.933228 44.0
1377.984985 76.0
1378.87915 156.0
1379.078735 72.0
1379.928833 56.0
1380.313354 108.0
1380.993774 48.0
1381.252686 144.0
1381.425903 144.0
1381.526367 180.0
1381.600464 128.0
1382.581787 216.0
1383.761597 140.0
1384.361328 108.0
1384.479858 144.0
1384.783569 184.0
1386.265259 188.0
1387.473511 56.0
1388.311401 136.0
1388.415283 40.0
1388.615479 100.0
1388.852905 76.0
1389.364746 140.0
1389.602173 80.0
1389.891602 64.0
1390.114136 80.0
1390.27002 176.0
1390.477783 36.0
1390.618896 72.0
1392.512207 216.0
1392.631104 48.0
1392.876221 156.0
1392.950439 152.0
1393.217896 128.0
1393.738037 112.0
1393.849487 88.0
1394.347412 76.0
1394.994141 72.0
1395.105591 28.0
1395.346802 120.0
1395.425293 72.0
1396.176392 128.0
1396.354858 60.0
1396.466431 80.0
1396.533447 184.0
1396.669434 184.0
1396.947998 132.0
1397.195435 128.0
1397.28479 188.0
1397.500488 160.0
1397.582397 124.0
1397.746094 100.0
1397.835449 128.0
1398.879761 100.0
1399.644287 172.0
1402.005859 68.0
1402.825806 80.0
1403.630981 152.0
1403.735474 168.0
1403.795044 144.0
1403.966553 128.0
1404.466309 160.0
1404.637939 64.0
1405.100464 100.0
1405.175049 108.0
1405.660034 68.0
1405.973511 144.0
1407.533813 124.0
1407.623413 120.0
1408.59436 152.0
1408.661621 52.0
1408.773682 196.0
1408.863281 92.0
1409.543213 96.0
1410.133667 44.0
1410.208374 68.0
1412.369385 108.0
1412.623779 104.0
1414.382324 92.0
1414.457153 40.0
1414.512695 132.0
1415.853271 152.0
1416.482056 108.0
1417.400635 152.0
1418.32251 132.0
1418.644775 36.0
1418.779785 52.0
1419.492065 136.0
1419.552124 188.0
1419.735596 176.0
1420.549683 216.0
1421.367432 136.0
1422.403198 80.0
1422.981323 164.0
1423.364258 160.0
1423.454346 72.0
1424.040161 124.0
1424.536011 124.0
1425.579468 172.0
1426.083984 60.0
1427.278931 216.0
1427.557495 180.0
1428.016357 80.0
1428.174316 164.0
1428.339722 172.0
1428.588013 52.0
1428.963989 176.0
1429.031982 112.0
1429.15979 124.0
1429.235107 132.0
1429.520996 132.0
1430.21814 180.0
1430.582397 124.0
1431.237427 112.0
1431.749512 116.0
1431.900146 60.0
1431.98291 144.0
1432.050781 192.0
1432.578003 164.0
1432.743774 124.0
1433.346558 48.0
1433.421997 164.0
1434.183105 36.0
1434.439453 36.0
1434.650513 144.0
1435.163208 116.0
1435.547852 128.0
1435.721313 140.0
1436.098389 184.0
1436.558594 208.0
1437.713013 168.0
1438.550903 236.0
1438.981201 184.0
1439.064331 84.0
1439.124634 108.0
1439.555054 152.0
1440.786377 156.0
1441.164062 108.0
1442.690918 116.0
1443.174805 152.0
1443.469604 124.0
1443.772217 124.0
1444.437744 92.0
1444.914429 244.0
1445.572754 100.0
1445.883057 40.0
1446.480957 140.0
1446.692993 76.0
1447.587891 104.0
1447.980225 176.0
1448.199951 84.0
1448.313477 108.0
1448.904419 132.0
1449.275635 76.0
1449.768311 80.0
1450.313965 144.0
1450.594482 176.0
1451.90625 124.0
1451.959351 116.0
1452.740601 40.0
1452.907471 156.0
1453.818115 108.0
1454.007812 84.0
1454.182373 160.0
1454.873169 156.0
1455.040161 112.0
1455.374268 240.0
1455.541382 80.0
1455.746338 196.0
1456.84021 260.0
1457.098511 128.0
1457.250488 88.0
1457.706421 140.0
1457.805176 172.0
1458.101562 140.0
1459.158203 52.0
1460.702026 108.0
1460.793335 196.0
1461.295532 52.0
1461.554199 168.0
1462.718628 152.0
1463.426758 60.0
1463.807495 76.0
1464.477661 96.0
1464.972778 188.0
1465.213745 188.0
1465.55188 60.0
1467.331421 168.0
1468.898926 120.0
1469.98999 188.0
1471.09668 44.0
1471.195923 60.0
1471.277222 144.0
1471.791504 152.0
1472.356567 180.0
1472.960083 124.0
1473.433716 200.0
1473.540649 88.0
1473.594116 164.0
1473.953247 160.0
1474.022095 52.0
1475.069214 64.0
1475.634888 140.0
1475.894897 156.0
1476.177856 160.0
1476.315552 100.0
1476.376709 100.0
1476.460815 180.0
1476.674927 172.0
1476.843262 232.0
1477.508789 88.0
1477.592896 72.0
1477.868408 128.0
1478.296875 216.0
1478.549438 160.0
1479.138916 120.0
1479.422119 148.0
1479.475708 132.0
1480.271973 132.0
1480.52478 56.0
1480.677979 156.0
1481.29834 116.0
1481.375 204.0
1481.445068 188.0
1481.597168 204.0
1482.056885 164.0
1482.118164 164.0
1482.654663 96.0
1483.045532 152.0
1483.531494 192.0
1483.732666 176.0
1484.180176 88.0
1484.509888 88.0
1484.65564 88.0
1484.77063 160.0
1485.361328 56.0
1485.448853 196.0
1485.859985 156.0
1485.959717 128.0
1486.044067 60.0
1486.15918 84.0
1486.367676 192.0
1487.020386 160.0
1487.54834 116.0
1487.609741 104.0
1488.280884 208.0
1488.500488 96.0
1489.783203 220.0
1490.018311 120.0
1490.420898 180.0
1491.043335 168.0
1491.758179 104.0
1493.111572 88.0
1493.75 104.0
1494.103882 232.0
1494.981079 160.0
1495.173462 132.0
1495.696899 48.0
1496.297363 108.0
1496.836426 108.0
1497.922363 144.0
1498.11499 160.0
1498.307617 136.0
1498.927979 100.0
1499.216797 156.0
1499.563721 116.0
1499.764038 40.0
1500.357666 84.0
1500.519531 44.0
1500.828003 56.0
1501.415771 188.0
1501.923096 116.0
1502.077393 96.0
1502.262573 184.0
1502.424561 156.0
1502.563477 108.0
1503.018677 148.0
1503.165283 160.0
1503.859985 164.0
1504.144043 144.0
1504.685913 160.0
1505.296021 124.0
1505.404053 132.0
