>compound MLS002154028-01!Trimeprazine tartrate4330-99-8
>formula C18H22N2S
>ionization [M+H]+
>parentmass 299.156982
#inchi InChI=1S/C18H22N2S/c1-14(12-19(2)3)13-20-15-8-4-6-10-17(15)21-18-11-7-5-9-16(18)20/h4-11,14H,12-13H2,1-3H3
#inchikey ZZHLYYDVIOPZBE
#origInchi InChI=1S/C18H22N2S.C4H6O6/c1-14(12-19(2)3)13-20-15-8-4-6-10-17(15)21-18-11-7-5-9-16(18)20;5-1(3(7)8)2(6)4(9)10/h4-11,14H,12-13H2,1-3H3;1-2,5-6H,(H,7,8)(H,9,10)
#Ion_Source LC-ESI
#Instrument qTof
#Compound_Source NIH Pharmacologically Active Library
#PI Dorrestein
#Data_Collector VP/LMS
#Scan -1
#Precursor_MZ 299.164
#ExactMass 298.15
#Charge 1
#CAS_Number N/A
#Pubmed_ID N/A
#Smiles CC(CN(C)C)CN1c2ccccc2Sc3ccccc13.OC(C(O)C(=O)O)C(=O)O
#INCHI_AUX N/A
#Library_Class 1
#SpectrumID CCMSLIB00000085654
#IonMode Positive
#UpdateWorkflowName UPDATE-SINGLE-ANNOTATED-GOLD
#LibraryQualityString Gold
#TaskID d252d724072548979f1f6f1ced849daf
##Scan# 1761
#SpectrumFile p4-D10_GD10_01_18370.mzXML
#LibraryName Pharm_Active_Library.mgf
#MQScore -1
#Organism Pharm_Active_Library
#TIC_Query 0
#RT_Query -1
#MZErrorPPM -1
#SharedPeaks 0
#MassDiff 0
#LibMZ -1
#SpecMZ 299.164
#SpecCharge 0
#internalFilename spec-00000.mgf

>collision 10
44.90464 36.0
44.923923 176.0
44.99538 108.0
45.010067 228.0
45.026093 120.0
45.060825 160.0
45.102253 160.0
45.26815 152.0
45.281544 76.0
45.455822 132.0
45.505489 60.0
45.600864 64.0
45.61834 168.0
45.637161 180.0
45.65464 44.0
45.746136 168.0
45.77037 180.0
45.848503 200.0
45.883549 128.0
45.924004 144.0
45.967175 136.0
46.009182 164.0
46.013878 20.0
46.019081 176.0
46.035152 116.0
46.04953 196.0
46.096813 144.0
46.169815 100.0
46.220448 212.0
46.295456 224.0
46.333801 160.0
46.467819 104.0
46.507175 80.0
46.532906 176.0
46.629414 124.0
46.679714 160.0
46.7178 148.0
46.817162 240.0
46.972542 152.0
47.09539 216.0
47.105679 180.0
47.148674 108.0
47.248493 64.0
47.290913 140.0
47.318295 232.0
47.34705 152.0
47.394993 184.0
47.447079 40.0
47.479988 40.0
47.517021 248.0
47.534859 184.0
47.588394 188.0
47.598003 164.0
47.65432 196.0
47.674931 140.0
47.70517 204.0
47.748184 240.0
47.875786 228.0
47.889557 204.0
47.973614 120.0
48.00119 196.0
48.024635 140.0
48.072922 144.0
48.112949 124.0
48.145382 164.0
48.281525 192.0
48.314724 132.0
48.421307 132.0
48.446239 184.0
48.467022 176.0
48.559906 156.0
48.598202 172.0
48.676479 168.0
48.691757 132.0
48.705647 144.0
48.748341 184.0
48.779293 148.0
48.797367 176.0
48.827957 156.0
48.840477 184.0
48.871082 120.0
48.972706 144.0
49.080013 120.0
49.146969 164.0
49.209778 156.0
49.285202 152.0
49.301971 200.0
49.324333 148.0
49.346699 172.0
49.38306 116.0
49.430626 208.0
49.441822 204.0
49.472614 172.0
49.524426 224.0
49.60009 144.0
49.623924 164.0
49.646465 228.0
49.663189 148.0
49.775463 144.0
49.785294 140.0
49.796528 124.0
49.823215 176.0
49.837265 148.0
49.85413 164.0
49.887863 196.0
49.979282 84.0
50.042622 160.0
50.053886 156.0
50.080643 148.0
50.127136 136.0
50.155323 204.0
50.199028 112.0
50.255375 220.0
50.350029 52.0
50.379097 276.0
50.395233 44.0
50.417313 128.0
50.447525 196.0
50.463078 64.0
50.497017 128.0
50.515404 176.0
50.53804 188.0
50.622971 208.0
50.682465 168.0
50.70089 128.0
50.767517 172.0
50.812908 128.0
50.852501 160.0
50.925053 152.0
50.944939 220.0
51.006046 160.0
51.072876 124.0
51.082832 228.0
51.101326 176.0
51.142597 92.0
51.162151 204.0
51.235157 116.0
51.367737 200.0
51.420528 164.0
51.433376 164.0
51.457645 220.0
51.491917 148.0
51.510487 228.0
51.556206 96.0
51.594799 116.0
51.63913 148.0
51.692062 124.0
51.762203 112.0
51.812275 188.0
51.845291 64.0
51.88081 164.0
51.934181 168.0
51.978657 140.0
51.995876 144.0
52.015972 176.0
52.050426 216.0
52.070534 156.0
52.232952 140.0
52.277554 136.0
52.289066 148.0
52.317856 176.0
52.394184 172.0
52.408592 84.0
52.423 232.0
52.473198 220.0
52.489311 212.0
52.571537 232.0
52.78389 216.0
52.798351 236.0
52.812813 140.0
52.837406 120.0
52.889503 164.0
52.973488 240.0
52.989426 180.0
53.0242 180.0
53.066242 140.0
53.089443 128.0
53.117001 176.0
53.254894 192.0
53.272324 132.0
53.299931 248.0
53.310101 88.0
53.323181 68.0
53.340622 232.0
53.408966 188.0
53.422058 72.0
53.461342 128.0
53.537045 128.0
53.557434 188.0
53.633202 176.0
53.644863 68.0
53.700275 144.0
53.725071 152.0
53.744038 132.0
53.798038 120.0
53.928043 40.0
53.957283 212.0
53.967514 204.0
54.059669 104.0
54.169868 212.0
54.286736 172.0
54.321934 156.0
54.341007 100.0
54.512806 116.0
54.584835 140.0
54.598072 224.0
54.631901 200.0
54.783855 128.0
54.795151 248.0
54.815945 152.0
54.82626 120.0
54.891403 232.0
54.976685 100.0
55.025394 152.0
55.049023 176.0
55.061806 152.0
55.130836 200.0
55.186443 180.0
55.198273 144.0
55.210102 120.0
55.254513 164.0
55.289989 372.0
55.306953 208.0
55.406242 192.0
55.43512 140.0
55.45155 140.0
55.488483 168.0
55.567089 160.0
55.629421 164.0
55.644264 104.0
55.720009 52.0
55.748241 120.0
55.7854 140.0
55.859753 116.0
55.877605 124.0
55.895462 192.0
55.968399 96.0
55.984779 120.0
56.07864 200.0
56.101505 164.0
56.136505 172.0
56.173428 196.0
56.266594 148.0
56.33828 84.0
56.386097 168.0
56.429447 136.0
56.519188 192.0
56.600021 156.0
56.671917 140.0
56.712379 32.0
56.749859 84.0
56.811348 192.0
56.854862 84.0
56.879448 168.0
56.962967 148.0
57.033592 128.0
57.044113 168.0
57.061356 68.0
57.138855 76.0
57.203568 156.0
57.218624 140.0
57.247231 152.0
57.283379 32.0
57.302963 128.0
57.321045 236.0
57.339375 148.0
57.406147 132.0
57.415634 236.0
57.447693 228.0
57.533714 132.0
57.622822 104.0
57.681759 188.0
57.692341 192.0
57.72863 172.0
57.770977 216.0
57.819397 208.0
57.855728 60.0
57.907211 148.0
57.934475 140.0
58.039055 132.0
58.117928 176.0
58.136139 144.0
58.158901 188.0
58.183193 100.0
58.309269 148.0
58.347271 184.0
58.359432 160.0
58.37616 68.0
58.391369 120.0
58.41114 136.0
58.432438 148.0
58.452221 148.0
58.532898 164.0
58.570972 156.0
58.607536 228.0
58.633442 96.0
58.645634 100.0
58.686794 200.0
58.714241 188.0
58.731022 172.0
58.747799 136.0
58.785946 148.0
58.817825 180.0
58.821964 160.0
58.887001 164.0
59.019413 224.0
59.03801 140.0
59.056362 136.0
59.18338 40.0
59.198692 184.0
59.233921 132.0
59.249237 164.0
59.453175 156.0
59.483295 160.0
59.513039 92.0
59.624901 176.0
59.728195 116.0
59.752808 160.0
59.845158 252.0
59.880573 64.0
59.908302 104.0
59.959148 140.0
60.007137 184.0
60.026981 152.0
60.067078 188.0
60.12571 140.0
60.230701 52.0
60.29998 196.0
60.33424 116.0
60.368256 128.0
60.389908 140.0
60.444054 336.0
60.462624 208.0
60.518353 152.0
60.544678 136.0
60.649563 184.0
60.693443 56.0
60.729111 148.0
60.861019 152.0
60.968204 200.0
60.978481 176.0
61.017948 84.0
61.04438 188.0
61.064598 192.0
61.083263 180.0
61.097263 160.0
61.108154 204.0
61.232689 104.0
61.254494 168.0
61.315262 188.0
61.33371 224.0
61.360466 180.0
61.399448 180.0
61.418163 192.0
61.440006 268.0
61.499302 152.0
61.543015 192.0
61.597675 244.0
61.63361 160.0
61.650799 184.0
61.751453 188.0
61.83847 228.0
61.863518 168.0
61.907356 140.0
61.970013 196.0
62.038971 160.0
62.082874 184.0
62.14719 120.0
62.264923 184.0
62.348347 208.0
62.385914 204.0
62.42522 200.0
62.496006 156.0
62.546368 140.0
62.56683 196.0
62.654324 160.0
62.665195 192.0
62.684959 236.0
62.711502 176.0
62.78743 88.0
62.863155 168.0
62.888405 212.0
62.910507 120.0
62.938923 168.0
63.000523 104.0
63.090599 124.0
63.111153 144.0
63.132107 112.0
63.161762 68.0
63.187275 220.0
63.221886 132.0
63.400841 196.0
63.411934 156.0
63.424614 124.0
63.459492 48.0
63.480103 176.0
63.497547 112.0
63.519753 172.0
63.637192 124.0
63.661011 192.0
63.674152 208.0
63.726139 244.0
63.850128 80.0
63.878757 196.0
63.9249 216.0
63.972649 200.0
63.994938 164.0
64.026787 188.0
64.044304 188.0
64.106438 184.0
64.179436 136.0
64.197136 180.0
64.216446 212.0
64.235588 192.0
64.296219 116.0
64.32814 192.0
64.345703 92.0
64.380951 160.0
64.436737 164.0
64.471886 196.0
64.53743 176.0
64.582207 68.0
64.603004 128.0
64.643005 124.0
64.677643 168.0
64.740654 144.0
64.761475 168.0
64.815941 208.0
64.830368 52.0
64.909447 144.0
64.96505 180.0
65.091843 56.0
65.117538 116.0
65.144844 156.0
65.185013 156.0
65.258957 120.0
65.338547 180.0
65.389252 100.0
65.427139 216.0
65.509399 172.0
65.568024 44.0
65.606712 232.0
65.638954 188.0
65.674438 172.0
65.714767 216.0
65.780937 204.0
65.822914 164.0
65.852776 180.0
65.877831 64.0
65.927917 132.0
66.10257 48.0
66.115517 204.0
66.193214 172.0
66.256386 196.0
66.337418 152.0
66.367249 140.0
66.473656 140.0
66.541824 60.0
66.558067 116.0
66.579605 180.0
66.618156 164.0
66.6409 152.0
66.683151 192.0
66.697784 124.0
66.71241 140.0
66.728668 232.0
66.753059 128.0
66.836021 152.0
66.888268 156.0
66.913437 120.0
67.00209 196.0
67.096619 164.0
67.125 216.0
67.243423 108.0
67.35936 116.0
67.395302 108.0
67.413277 280.0
67.455772 152.0
67.596428 176.0
67.71669 200.0
67.838829 152.0
67.865059 144.0
67.901329 204.0
67.996292 176.0
68.03405 132.0
68.065239 140.0
68.101372 252.0
68.163803 156.0
68.188454 44.0
68.203247 124.0
68.234482 160.0
68.246758 196.0
68.263283 116.0
68.288742 176.0
68.315941 180.0
68.347969 168.0
68.384171 104.0
68.466492 192.0
68.590065 128.0
68.606552 196.0
68.632927 128.0
68.647766 200.0
68.808739 216.0
68.887093 116.0
68.931702 176.0
68.968063 92.0
68.991203 84.0
69.04081 220.0
69.216217 160.0
69.277504 116.0
69.317268 224.0
69.385223 180.0
69.413406 128.0
69.438942 236.0
69.464821 192.0
69.493027 204.0
69.527878 172.0
69.592613 188.0
69.707413 180.0
69.803345 136.0
69.841896 204.0
69.888474 96.0
69.921753 160.0
69.946724 168.0
70.028313 180.0
70.140892 148.0
70.173294 144.0
70.200333 164.0
70.255013 184.0
70.308403 116.0
70.371841 148.0
70.455345 112.0
70.483139 252.0
70.497856 144.0
70.517174 104.0
70.53389 160.0
70.582367 184.0
70.629036 164.0
70.641205 180.0
70.706161 224.0
70.748009 168.0
70.824577 188.0
70.840111 152.0
70.856865 152.0
70.897079 100.0
70.949043 192.0
70.987999 188.0
71.014442 56.0
71.069801 36.0
71.098328 156.0
71.203087 280.0
71.314369 208.0
71.349876 248.0
71.385597 260.0
71.437737 216.0
71.454559 140.0
71.499992 132.0
71.552177 220.0
71.580795 136.0
71.624588 140.0
71.639748 196.0
71.683556 116.0
71.73243 52.0
71.799347 128.0
71.894348 152.0
71.909302 140.0
71.933014 172.0
72.066589 188.0
72.117798 180.0
72.1325 124.0
72.156914 264.0
72.181534 164.0
72.239037 176.0
72.263847 204.0
72.316872 232.0
72.361542 236.0
72.379509 88.0
72.404915 132.0
72.428627 72.0
72.440483 352.0
72.472 172.0
72.51165 176.0
72.543854 176.0
72.677834 164.0
72.706688 48.0
72.744026 148.0
72.779861 260.0
72.888924 148.0
72.90538 96.0
72.958076 228.0
72.986977 216.0
73.020988 144.0
73.078827 144.0
73.133286 192.0
73.433159 196.0
73.523582 68.0
73.590065 148.0
73.622597 192.0
73.644569 148.0
73.74276 180.0
73.755867 192.0
73.784927 36.0
73.84478 208.0
73.865303 168.0
73.948563 484.0
73.962837 120.0
74.007347 156.0
74.075851 152.0
74.101555 156.0
74.151245 64.0
74.286705 188.0
74.302147 220.0
74.455429 160.0
74.511597 80.0
74.525345 124.0
74.544243 208.0
74.617981 212.0
74.728233 156.0
74.752319 176.0
74.771248 164.0
74.946899 108.0
74.969299 308.0
75.074463 164.0
75.13311 172.0
75.200401 216.0
75.317215 160.0
75.362732 196.0
75.378288 192.0
75.454338 188.0
75.476814 164.0
75.49411 204.0
75.539078 156.0
75.579185 152.0
75.623863 124.0
75.637711 140.0
75.786652 184.0
75.824768 204.0
75.861176 68.0
75.904518 140.0
76.223915 108.0
76.342125 164.0
76.375168 136.0
76.441277 232.0
76.465485 176.0
76.515831 216.0
76.540497 132.0
76.645012 88.0
76.706009 208.0
76.796684 144.0
76.818069 184.0
76.850761 152.0
76.90316 144.0
76.939774 104.0
76.981682 160.0
77.119698 36.0
77.166901 40.0
77.18438 136.0
77.210617 184.0
77.2351 228.0
77.249092 108.0
77.511719 48.0
77.727394 152.0
77.817314 192.0
77.834473 216.0
77.862572 116.0
77.883644 252.0
77.895943 124.0
77.953926 164.0
78.00489 140.0
78.071709 144.0
78.089294 168.0
78.16494 164.0
78.254707 204.0
78.296974 176.0
78.326073 180.0
78.363907 88.0
78.455551 164.0
78.582535 152.0
78.601944 184.0
78.628418 172.0
78.710999 180.0
78.724289 164.0
78.744942 240.0
78.785568 204.0
78.805733 160.0
78.819138 128.0
78.852486 212.0
78.895142 252.0
78.915344 156.0
78.959862 292.0
79.041939 160.0
79.12159 52.0
79.160538 140.0
79.335953 152.0
79.364319 132.0
79.406219 172.0
79.438805 132.0
79.461868 184.0
79.5364 180.0
79.567947 192.0
79.591438 168.0
79.614525 228.0
79.644714 124.0
79.774437 192.0
79.904259 144.0
79.927391 148.0
80.133934 152.0
80.265831 116.0
80.309692 216.0
80.412117 204.0
80.424614 168.0
80.655029 192.0
80.678268 116.0
80.737274 108.0
80.755157 60.0
80.803459 44.0
80.905472 52.0
80.943069 204.0
80.962769 340.0
81.000381 156.0
81.070259 164.0
81.120445 120.0
81.18499 204.0
81.197548 164.0
81.215477 108.0
81.247772 160.0
81.28186 180.0
81.398537 200.0
81.438049 144.0
81.500092 176.0
81.594383 172.0
81.697426 164.0
81.740074 100.0
81.77607 120.0
81.831879 136.0
82.044472 160.0
82.077522 216.0
82.12381 124.0
82.136436 116.0
82.156281 360.0
82.203575 188.0
82.315109 192.0
82.371101 188.0
82.443375 160.0
82.457832 148.0
82.49398 76.0
82.571732 164.0
82.660286 156.0
82.696571 132.0
82.749069 108.0
82.787094 136.0
82.832375 240.0
82.875854 188.0
82.901222 132.0
82.966309 132.0
83.037292 72.0
83.060776 172.0
83.077095 112.0
83.089798 104.0
83.122459 120.0
83.184166 92.0
83.223343 172.0
83.294937 184.0
83.327637 180.0
83.38942 184.0
83.409416 100.0
83.463951 48.0
83.476685 220.0
83.496689 132.0
83.529427 136.0
83.580368 228.0
83.627686 208.0
83.664093 184.0
83.678658 152.0
83.756966 112.0
83.795219 152.0
83.930099 88.0
83.997574 160.0
84.147224 156.0
84.258629 200.0
84.322586 164.0
84.37925 168.0
84.413155 184.0
84.490135 204.0
84.618927 204.0
84.6409 128.0
84.686684 172.0
84.739807 168.0
84.802116 160.0
84.879112 96.0
84.904785 172.0
84.987335 212.0
85.126839 100.0
85.20031 136.0
85.244408 124.0
85.286674 152.0
85.306892 96.0
85.518433 208.0
85.567749 152.0
85.612328 136.0
85.647316 140.0
85.748657 164.0
85.846367 172.0
85.861122 112.0
85.925682 152.0
86.02092 152.0
86.115814 104.0
86.178627 80.0
86.210037 160.0
86.23037 140.0
86.258995 280.0
86.276581 192.0
86.376442 136.0
86.438538 172.0
86.47821 48.0
86.507828 192.0
86.564842 156.0
86.591148 72.0
86.700455 40.0
86.733818 184.0
86.841362 128.0
86.87104 88.0
86.967529 188.0
87.017654 72.0
87.065933 136.0
87.140236 184.0
87.182968 132.0
87.218285 112.0
87.238731 164.0
87.304947 188.0
87.337288 156.0
87.415428 132.0
87.476845 184.0
87.517807 156.0
87.536423 160.0
87.549461 176.0
87.566223 228.0
87.610924 52.0
87.67614 196.0
87.700371 160.0
87.806648 188.0
87.829025 164.0
87.905518 152.0
87.933517 148.0
87.996986 200.0
88.04184 172.0
88.066078 156.0
88.133331 160.0
88.211823 132.0
88.333374 156.0
88.350212 180.0
88.365181 92.0
88.488701 224.0
88.54863 164.0
88.627304 140.0
88.683525 156.0
88.739769 156.0
88.757118 172.0
88.790398 112.0
88.854172 176.0
88.917969 112.0
89.047516 192.0
89.085083 152.0
89.226036 92.0
89.442368 308.0
89.493202 192.0
89.549698 208.0
89.591133 120.0
89.624077 348.0
89.775856 92.0
89.811691 164.0
89.851303 192.0
89.883377 116.0
89.896584 164.0
89.953209 76.0
90.030624 124.0
90.079727 140.0
90.191216 168.0
90.244148 200.0
90.266838 148.0
90.281967 180.0
90.329254 180.0
90.378441 224.0
90.420998 152.0
90.503578 180.0
90.547775 172.0
90.565865 68.0
90.613258 196.0
90.69471 160.0
90.707977 144.0
90.743996 172.0
90.827438 212.0
90.899536 136.0
90.935593 172.0
90.97953 108.0
91.010475 188.0
91.026718 168.0
91.046547 220.0
91.070396 112.0
91.093193 124.0
91.136887 152.0
91.150185 124.0
91.16349 148.0
91.205299 124.0
91.283249 136.0
91.35553 92.0
91.404991 248.0
91.468605 180.0
91.542053 216.0
91.650627 120.0
91.694458 140.0
91.732582 188.0
91.766899 56.0
91.78685 144.0
91.873703 56.0
91.929031 180.0
91.976746 136.0
92.16964 140.0
92.219627 168.0
92.246086 168.0
92.278587 164.0
92.348579 180.0
92.42012 156.0
92.450005 156.0
92.477531 132.0
92.548363 184.0
92.567513 128.0
92.640297 184.0
92.692024 212.0
92.726524 144.0
92.778275 124.0
92.807037 160.0
92.843468 168.0
93.007202 224.0
93.056465 136.0
93.076729 144.0
93.096924 168.0
93.141861 136.0
93.175545 160.0
93.269707 88.0
93.28508 128.0
93.302383 148.0
93.348534 104.0
93.381226 116.0
93.412003 164.0
93.487038 188.0
93.623718 132.0
93.664169 180.0
93.754723 72.0
93.814476 132.0
93.864601 124.0
93.878105 184.0
93.954529 160.0
94.215881 220.0
94.244865 192.0
94.353096 128.0
94.397568 176.0
94.529114 132.0
94.616211 160.0
94.660744 124.0
94.716911 152.0
94.798286 44.0
94.816696 168.0
94.842857 124.0
94.85643 148.0
94.92041 76.0
94.94368 232.0
95.020523 156.0
95.091125 200.0
95.133827 188.0
95.161011 144.0
95.182365 140.0
95.254227 144.0
95.363037 152.0
95.541275 188.0
95.70153 180.0
95.726845 140.0
95.758003 120.0
95.855637 176.0
95.871002 44.0
95.966515 144.0
95.999664 224.0
96.021988 140.0
96.083542 108.0
96.123604 120.0
96.16745 168.0
96.259209 152.0
96.329521 148.0
96.489769 200.0
96.521049 108.0
96.536697 116.0
96.58168 160.0
96.791084 140.0
96.812622 136.0
96.904594 172.0
97.072044 208.0
97.22039 136.0
97.273384 108.0
97.300865 112.0
97.658508 136.0
97.68605 164.0
97.711464 196.0
97.752945 152.0
97.768684 176.0
97.792305 236.0
97.834007 152.0
97.851364 176.0
97.92028 144.0
97.959679 88.0
97.981346 248.0
98.012871 124.0
98.097618 168.0
98.115364 76.0
98.14888 232.0
98.210014 200.0
98.239601 232.0
98.27906 60.0
98.419205 140.0
98.46312 100.0
98.493958 188.0
98.551544 116.0
98.589088 176.0
98.608849 180.0
98.747246 144.0
98.769005 268.0
98.857422 168.0
98.881783 192.0
98.960968 228.0
98.994629 164.0
99.010475 204.0
99.121758 204.0
99.228439 72.0
99.25219 172.0
99.341484 172.0
99.413414 268.0
99.436729 168.0
99.510178 116.0
99.579681 200.0
99.62735 172.0
99.710808 124.0
99.812195 128.0
99.909653 216.0
99.96138 188.0
99.986435 260.0
100.022026 184.0
100.062897 216.0
100.092148 196.0
100.11248 49496.0
100.194847 116.0
100.232803 132.0
100.280022 76.0
100.295418 60.0
100.313484 188.0
100.352013 72.0
100.385689 60.0
100.404053 212.0
100.419121 188.0
100.440079 248.0
100.455643 212.0
100.474899 204.0
100.491409 124.0
100.541634 164.0
100.613152 48.0
100.637108 148.0
100.663994 112.0
100.727554 344.0
100.745941 252.0
100.776924 68.0
100.838875 116.0
100.866852 84.0
100.921516 152.0
100.964828 204.0
101.024834 160.0
101.047607 156.0
101.079758 124.0
101.095749 176.0
101.114868 2724.0
101.156906 48.0
101.170921 140.0
101.214966 272.0
101.28511 180.0
101.421318 128.0
101.505524 160.0
101.55365 44.0
101.567696 248.0
101.637909 148.0
101.653961 80.0
101.708542 164.0
101.740273 92.0
101.756332 128.0
101.780426 32.0
101.847946 240.0
101.907555 192.0
101.929726 172.0
101.959213 180.0
102.009354 224.0
102.067764 196.0
102.128098 88.0
102.272972 140.0
102.337395 40.0
102.468307 60.0
102.490471 120.0
102.55294 164.0
102.623505 96.0
102.664749 176.0
102.728371 100.0
102.746529 148.0
102.776794 100.0
102.851463 156.0
102.895874 156.0
102.93222 120.0
102.958473 156.0
102.98877 36.0
103.035233 232.0
103.057228 144.0
103.095848 76.0
103.247475 92.0
103.285904 220.0
103.302086 216.0
103.378967 136.0
103.417419 152.0
103.585487 104.0
103.606041 372.0
103.644478 68.0
103.705032 168.0
103.739494 88.0
103.796265 176.0
103.86319 88.0
103.905792 220.0
103.934196 124.0
104.04583 168.0
104.194084 56.0
104.273193 120.0
104.318047 168.0
104.348541 96.0
104.366844 160.0
104.472603 152.0
104.488876 140.0
104.517365 120.0
104.531609 140.0
104.574348 56.0
104.623199 168.0
104.644806 152.0
104.743347 216.0
104.782051 204.0
104.832993 112.0
104.985886 176.0
105.004242 168.0
105.069519 232.0
105.095047 172.0
105.138893 88.0
105.15522 72.0
105.212372 176.0
105.249123 144.0
105.58017 132.0
105.606758 132.0
105.645622 140.0
105.732407 116.0
105.89415 164.0
105.960899 48.0
106.063568 568.0
106.094116 168.0
106.116669 120.0
106.202507 200.0
106.264343 196.0
106.311531 164.0
106.393639 56.0
106.456367 148.0
106.486038 192.0
106.531227 176.0
106.574135 208.0
106.605194 144.0
106.687416 36.0
106.744987 112.0
106.769661 152.0
106.827492 104.0
106.893089 196.0
106.969246 32.0
106.98365 180.0
107.010414 124.0
107.066017 108.0
107.097389 120.0
107.117508 200.0
107.243202 168.0
107.35041 192.0
107.372391 212.0
107.408157 132.0
107.42466 112.0
107.457664 128.0
107.604202 88.0
107.635178 84.0
107.701263 152.0
107.738449 256.0
107.761169 56.0
107.954498 260.0
107.978226 168.0
108.007179 176.0
108.072701 220.0
108.09407 148.0
108.135521 148.0
108.294891 180.0
108.309387 100.0
108.340462 100.0
108.373611 188.0
108.42749 160.0
108.452362 212.0
108.548347 160.0
108.58651 216.0
108.64106 116.0
108.757263 144.0
108.842384 132.0
108.919228 204.0
108.959496 228.0
108.99147 208.0
109.009514 296.0
109.066757 144.0
109.110413 176.0
109.12912 176.0
109.264313 196.0
109.35379 84.0
109.397499 164.0
109.528687 124.0
109.545357 76.0
109.655792 192.0
109.693306 136.0
109.724579 180.0
110.002037 176.0
110.016655 184.0
110.066757 176.0
110.100906 352.0
110.260345 252.0
110.447121 268.0
110.48896 160.0
110.514069 156.0
110.641739 68.0
110.715591 132.0
110.749916 164.0
110.867958 116.0
110.916161 148.0
110.941315 192.0
110.955994 168.0
111.111191 148.0
111.125877 112.0
111.14476 100.0
111.161545 148.0
111.218208 40.0
111.300087 160.0
111.499657 212.0
111.569023 108.0
111.730957 116.0
111.796181 108.0
111.916168 200.0
112.008835 56.0
112.162659 152.0
112.265968 156.0
112.409416 144.0
112.438957 192.0
112.498062 136.0
112.529732 196.0
112.559288 152.0
112.631683 216.0
112.658554 144.0
112.68602 164.0
112.721939 88.0
112.848763 232.0
112.95874 220.0
113.037018 188.0
113.115326 144.0
113.373726 200.0
113.399162 68.0
113.475517 192.0
113.587875 104.0
113.723671 172.0
113.776741 136.0
113.806465 188.0
113.831947 176.0
113.87442 144.0
113.88929 136.0
113.982765 68.0
114.02739 168.0
114.161331 216.0
114.363441 116.0
114.477768 212.0
114.529526 124.0
114.572128 96.0
114.714912 180.0
114.729836 120.0
114.77034 148.0
114.830055 176.0
114.891983 240.0
114.940987 104.0
114.958054 96.0
114.996468 232.0
115.017815 144.0
115.034889 156.0
115.054169 216.0
115.137383 144.0
115.171555 184.0
115.342499 136.0
115.682617 280.0
115.909645 172.0
115.965363 200.0
116.046822 220.0
116.188377 116.0
116.220558 172.0
116.279007 168.0
116.29567 160.0
116.35363 188.0
116.445961 204.0
116.521629 124.0
116.544785 200.0
116.643639 196.0
116.693085 176.0
116.742546 144.0
116.7686 172.0
116.828438 184.0
116.92971 200.0
116.996437 124.0
117.022278 176.0
117.046906 200.0
117.065338 196.0
117.252769 80.0
117.34977 136.0
117.37133 132.0
117.412308 136.0
117.436028 124.0
117.567635 196.0
117.646797 248.0
117.716591 184.0
117.738182 88.0
117.76194 140.0
117.813782 296.0
117.846191 40.0
117.865639 216.0
117.913177 68.0
117.988602 184.0
118.006134 132.0
118.045052 72.0
118.066681 92.0
118.200798 128.0
118.230148 180.0
118.27655 140.0
118.308334 180.0
118.328506 192.0
118.419456 156.0
118.458443 168.0
118.635963 148.0
118.82048 176.0
118.97023 192.0
118.993675 180.0
119.083847 184.0
119.130928 212.0
119.152657 48.0
119.222183 156.0
119.380882 124.0
119.413506 148.0
119.44178 184.0
119.485291 212.0
119.641983 268.0
119.731262 116.0
120.064705 64.0
120.11705 188.0
120.199951 172.0
120.274155 104.0
120.304718 220.0
120.387688 188.0
120.402977 96.0
120.451027 116.0
120.466316 148.0
120.492531 160.0
120.529678 136.0
120.566826 72.0
120.593056 104.0
120.673935 152.0
120.748283 228.0
120.844536 160.0
120.875168 124.0
121.039345 160.0
121.06781 216.0
121.113808 144.0
121.14447 124.0
121.251839 196.0
121.348289 116.0
121.389946 172.0
121.657631 172.0
121.72789 148.0
121.809151 172.0
121.855286 160.0
121.900291 116.0
122.006927 76.0
122.228432 164.0
122.257683 208.0
122.284088 200.0
122.2995 132.0
122.354973 180.0
122.484459 84.0
122.684898 200.0
122.755547 32.0
122.773186 148.0
122.885689 160.0
122.929817 144.0
123.023674 252.0
123.046799 200.0
123.117462 224.0
123.243561 232.0
123.378197 120.0
123.486542 136.0
123.504242 184.0
123.601585 32.0
123.725525 112.0
123.798599 88.0
123.825172 108.0
123.842003 180.0
123.909348 52.0
123.933716 36.0
124.021782 564.0
124.18644 188.0
124.301804 112.0
124.359505 192.0
124.479393 60.0
124.559341 116.0
124.694885 140.0
124.730446 152.0
124.772682 148.0
124.826042 108.0
124.883865 180.0
124.923904 96.0
125.021805 144.0
125.19545 184.0
125.213272 304.0
125.3759 136.0
125.476212 48.0
125.566765 200.0
125.627861 164.0
125.654633 236.0
125.717667 112.0
125.734962 132.0
125.757278 320.0
125.788528 208.0
125.895699 148.0
126.030983 180.0
126.042061 116.0
126.071152 196.0
126.170532 100.0
126.351685 160.0
126.53923 196.0
126.6539 160.0
126.734543 160.0
126.797295 220.0
126.920586 156.0
127.005806 96.0
127.030479 208.0
127.053848 356.0
127.113495 140.0
127.171844 144.0
127.187561 168.0
127.249046 164.0
127.285507 256.0
127.308319 208.0
127.312576 164.0
127.354347 144.0
127.53466 164.0
127.585167 176.0
127.634636 96.0
127.654869 140.0
127.749336 176.0
127.821335 60.0
127.878731 160.0
127.895599 176.0
127.99691 104.0
128.049606 196.0
128.066162 244.0
128.084747 212.0
128.13205 196.0
128.204163 156.0
128.29657 124.0
128.418335 204.0
128.472473 128.0
128.571747 128.0
128.752365 140.0
128.877792 168.0
128.948914 32.0
128.996384 108.0
129.012207 60.0
129.070251 1116.0
129.414917 100.0
129.491913 204.0
129.568939 124.0
129.648239 128.0
129.682236 160.0
129.700363 64.0
129.849655 176.0
129.922607 44.0
129.954361 192.0
129.972519 48.0
130.036057 232.0
130.066483 360.0
130.147293 88.0
130.185898 64.0
130.240402 92.0
130.322006 148.0
130.326874 136.0
130.378998 188.0
130.408859 176.0
130.440369 112.0
130.472198 68.0
130.494934 196.0
130.523819 108.0
130.640488 132.0
130.914993 256.0
130.921326 156.0
130.981934 132.0
131.085236 1536.0
131.111801 72.0
131.130035 52.0
131.168793 96.0
131.212097 200.0
131.241745 180.0
131.326126 144.0
131.427124 160.0
131.506378 136.0
131.535034 200.0
131.590836 176.0
131.611389 120.0
131.66391 192.0
131.707306 164.0
131.794113 196.0
131.826111 132.0
131.880951 32.0
131.899246 180.0
131.926666 56.0
132.044479 252.0
132.093567 228.0
132.210297 160.0
132.251495 168.0
132.313309 152.0
132.44841 128.0
132.496521 92.0
132.594681 176.0
132.675278 132.0
132.69133 136.0
132.783051 156.0
132.945358 208.0
132.95459 156.0
132.964142 172.0
133.02626 240.0
133.108917 108.0
133.131882 176.0
133.251328 244.0
133.26741 208.0
133.336349 124.0
133.382324 84.0
133.409912 92.0
133.44899 124.0
133.50647 144.0
133.547867 140.0
133.607681 184.0
133.690521 160.0
133.743454 132.0
133.837845 148.0
133.893112 144.0
133.932266 124.0
134.005219 324.0
134.077774 180.0
134.224945 176.0
134.291824 128.0
134.340271 140.0
134.377182 152.0
134.455643 60.0
134.501801 168.0
134.537659 180.0
134.546524 96.0
134.556183 216.0
134.617233 168.0
134.702698 160.0
134.735031 116.0
134.755829 108.0
134.83902 116.0
134.982346 220.0
135.023972 396.0
135.183609 136.0
135.216003 172.0
135.338425 168.0
135.419754 108.0
135.442902 184.0
135.549484 304.0
135.6306 144.0
135.839294 196.0
135.85553 140.0
135.959946 104.0
135.985474 352.0
136.020294 964.0
136.074249 116.0
136.11264 160.0
136.178177 72.0
136.203735 172.0
136.243225 32.0
136.292007 168.0
136.324539 172.0
136.429138 48.0
136.470993 172.0
136.554703 184.0
136.634628 112.0
136.69429 44.0
136.799026 132.0
136.836273 184.0
136.910782 148.0
136.938736 356.0
136.964355 164.0
136.999298 88.0
137.020004 144.0
137.035492 276.0
137.134445 196.0
137.169418 120.0
137.348969 168.0
137.437607 84.0
137.491287 128.0
137.507629 116.0
137.593994 104.0
137.780823 96.0
137.80278 212.0
137.96312 124.0
138.086258 180.0
138.115112 176.0
138.206345 204.0
138.384232 180.0
138.449799 200.0
138.518585 152.0
138.548172 164.0
138.564575 136.0
138.599731 172.0
138.927963 196.0
138.981918 108.0
139.050888 176.0
139.141525 200.0
139.258026 144.0
139.359726 172.0
139.392853 160.0
139.470398 128.0
139.486862 104.0
139.540054 216.0
139.578552 56.0
139.62088 120.0
139.649094 224.0
139.691437 108.0
139.738495 124.0
139.794968 76.0
139.851456 132.0
139.88205 148.0
139.922073 80.0
139.959747 68.0
140.057129 180.0
140.440506 44.0
140.497116 120.0
140.643417 120.0
140.690628 52.0
140.744934 96.0
140.964615 144.0
140.988251 88.0
141.072479 452.0
141.156082 132.0
141.629425 92.0
141.796692 180.0
141.82608 60.0
141.880615 180.0
142.053726 160.0
142.262558 188.0
142.409775 104.0
142.478668 272.0
142.654526 172.0
142.699692 196.0
142.786118 152.0
142.806702 80.0
142.840012 204.0
142.870926 96.0
142.894928 144.0
142.928207 212.0
143.828888 132.0
143.926773 56.0
143.958267 168.0
144.082123 920.0
144.129807 228.0
144.148926 232.0
144.227051 156.0
144.270813 96.0
144.352112 192.0
144.433075 136.0
144.545303 184.0
144.581772 148.0
144.632034 208.0
144.65358 156.0
144.718216 100.0
144.809204 96.0
144.895447 240.0
145.061523 360.0
145.088058 448.0
145.14711 52.0
145.418198 88.0
145.516617 88.0
145.535828 176.0
145.569443 136.0
145.588654 160.0
145.707703 172.0
145.727982 80.0
145.91304 156.0
146.026062 152.0
146.064545 144.0
146.093796 180.0
146.141846 188.0
146.194168 160.0
146.293152 48.0
146.408737 132.0
146.497849 48.0
146.712326 240.0
146.881134 120.0
146.902847 188.0
146.92215 88.0
147.023849 160.0
147.062393 164.0
147.088654 112.0
147.23111 156.0
147.329712 180.0
147.429199 44.0
147.470291 180.0
147.571823 40.0
147.60083 116.0
147.729019 144.0
147.759689 172.0
147.828217 132.0
147.963776 132.0
147.995239 116.0
148.021561 1324.0
148.12117 152.0
148.15509 176.0
148.213242 176.0
148.237473 76.0
148.290787 124.0
148.313782 164.0
148.349655 168.0
148.368362 172.0
148.426544 324.0
148.52356 144.0
148.601181 136.0
148.62059 208.0
148.644867 204.0
148.66185 64.0
148.902191 144.0
148.933762 156.0
149.10141 144.0
149.2108 180.0
149.276443 120.0
149.394989 200.0
149.42482 144.0
149.471054 176.0
149.631699 180.0
149.715332 208.0
149.853333 212.0
149.914246 152.0
149.97879 224.0
150.039581 492.0
150.111694 136.0
150.172668 108.0
150.221451 236.0
150.243408 108.0
150.32637 156.0
150.399582 160.0
150.612015 124.0
150.636444 100.0
150.695084 176.0
150.770828 136.0
151.053055 1428.0
151.083191 164.0
151.137634 84.0
151.181686 112.0
151.307312 208.0
151.387314 180.0
151.420853 168.0
151.438751 228.0
151.465698 52.0
151.502441 228.0
151.532318 348.0
151.624954 100.0
151.656815 172.0
151.747513 216.0
151.840698 76.0
151.862778 184.0
151.919189 124.0
151.978073 196.0
152.017334 104.0
152.060974 2616.0
152.106781 160.0
152.14006 136.0
152.179337 160.0
152.415131 148.0
152.474121 72.0
152.610367 160.0
152.668335 168.0
152.695389 128.0
152.734589 132.0
152.928833 208.0
153.007889 136.0
153.070663 804.0
153.162384 60.0
153.190125 208.0
153.249252 136.0
153.303467 96.0
153.360153 128.0
153.399597 132.0
153.501892 192.0
153.535202 176.0
153.554932 92.0
153.579269 148.0
153.716476 152.0
153.766693 164.0
153.915237 128.0
154.011551 168.0
154.065109 532.0
154.117783 112.0
154.135071 72.0
154.196854 52.0
154.226517 92.0
154.285843 88.0
154.38269 216.0
154.557907 192.0
154.6371 164.0
154.654419 96.0
154.679169 152.0
154.825256 120.0
155.020432 148.0
155.046997 444.0
155.064133 340.0
155.092834 176.0
155.125061 140.0
155.211838 204.0
155.422668 208.0
155.534348 104.0
155.566971 284.0
155.641113 132.0
155.806625 216.0
155.876282 160.0
155.976639 204.0
156.067322 272.0
156.093353 240.0
156.187851 180.0
156.249237 264.0
156.386917 72.0
156.414291 132.0
156.541275 160.0
156.561188 168.0
156.588593 68.0
156.610535 384.0
156.715637 196.0
156.787903 40.0
156.81282 180.0
156.852707 192.0
156.90007 112.0
156.947433 140.0
156.967453 140.0
157.062088 180.0
157.129517 160.0
157.256775 132.0
157.359131 168.0
157.516464 208.0
157.581406 92.0
157.643875 240.0
157.781357 236.0
157.901382 228.0
158.006439 192.0
158.081497 152.0
158.251709 124.0
158.274246 204.0
158.299286 160.0
158.379425 176.0
158.602432 156.0
158.622498 168.0
158.677643 60.0
158.720261 176.0
158.918427 168.0
159.036362 160.0
159.151855 208.0
159.171936 120.0
159.199554 180.0
159.28746 144.0
159.365952 168.0
159.379837 52.0
159.384613 156.0
159.405548 188.0
159.458328 36.0
159.777679 176.0
159.803238 176.0
159.858322 80.0
159.951309 140.0
160.020508 148.0
160.084747 172.0
160.14772 76.0
160.319031 172.0
160.39212 148.0
160.445068 220.0
160.518188 180.0
160.538361 132.0
160.565521 172.0
160.69223 160.0
160.787796 192.0
160.995132 152.0
161.0383 176.0
161.058273 224.0
161.075958 140.0
161.156799 48.0
161.189178 176.0
161.284973 216.0
161.312286 160.0
161.384277 144.0
161.422211 172.0
161.470261 180.0
161.54866 276.0
161.687836 144.0
161.743515 72.0
161.870102 160.0
161.918213 176.0
162.036224 412.0
162.085419 184.0
162.105682 144.0
162.181717 156.0
162.204529 108.0
162.275513 340.0
162.354126 128.0
162.422607 192.0
162.557068 136.0
162.590057 156.0
162.653519 228.0
162.760147 200.0
162.790619 124.0
162.889664 168.0
162.940475 152.0
162.965881 180.0
162.986206 156.0
163.045258 308.0
163.09549 204.0
163.115829 128.0
163.204803 164.0
163.232773 192.0
163.268372 200.0
163.459839 168.0
163.619522 120.0
163.647537 160.0
163.80542 148.0
163.903519 128.0
163.988892 216.0
164.047516 176.0
164.07045 188.0
164.312744 104.0
164.376526 48.0
164.483719 176.0
164.519455 152.0
164.550095 148.0
164.567963 184.0
164.608826 160.0
164.744186 28.0
164.795288 108.0
164.843842 64.0
164.958649 200.0
165.062103 196.0
165.127609 136.0
165.15062 228.0
165.219696 204.0
165.286209 112.0
165.375793 136.0
165.460266 232.0
165.496109 156.0
165.703568 40.0
165.721497 176.0
165.772751 196.0
165.842667 172.0
165.936295 192.0
166.019989 136.0
166.066376 976.0
166.111191 48.0
166.134277 132.0
166.162491 184.0
166.211243 176.0
166.244598 264.0
166.265137 160.0
166.350449 220.0
166.650314 156.0
166.686462 184.0
166.847198 272.0
166.884216 48.0
166.99736 44.0
167.033371 64.0
167.072418 6116.0
167.123413 184.0
167.181717 176.0
167.203186 184.0
167.239212 108.0
167.343079 116.0
167.367935 156.0
167.398834 300.0
167.702835 144.0
167.779709 132.0
167.933121 180.0
167.99939 180.0
168.078964 1352.0
168.114349 264.0
168.177719 144.0
168.410828 164.0
168.474396 112.0
168.577744 160.0
168.769028 260.0
168.82074 212.0
168.926788 168.0
168.962234 176.0
169.034073 188.0
169.0392 160.0
169.062851 384.0
169.073425 160.0
169.077179 408.0
169.21405 244.0
169.234482 124.0
169.286545 128.0
169.346436 200.0
169.366455 164.0
169.455887 96.0
169.510452 92.0
169.719299 176.0
169.900848 148.0
169.990829 212.0
170.06456 304.0
170.098068 164.0
170.1474 164.0
170.18634 156.0
170.310989 88.0
170.349258 120.0
170.396713 208.0
170.573441 132.0
170.620224 136.0
170.836075 152.0
170.914124 140.0
171.025467 1332.0
171.072891 180.0
171.096832 144.0
171.221313 204.0
171.383575 192.0
171.617401 36.0
171.695633 156.0
171.823441 196.0
171.886063 124.0
172.032043 804.0
172.079208 68.0
172.121567 168.0
172.149719 136.0
172.175827 96.0
172.20195 188.0
172.222839 64.0
172.709015 192.0
172.865982 212.0
172.999466 104.0
173.02951 152.0
173.036789 204.0
173.059021 176.0
173.085876 172.0
173.29541 180.0
173.371399 32.0
173.478867 100.0
173.526062 164.0
173.573257 128.0
173.788345 60.0
173.811951 156.0
173.885437 80.0
173.933105 124.0
174.003555 212.0
174.040115 204.0
174.133774 212.0
174.190018 88.0
174.255692 188.0
174.437027 208.0
174.534302 200.0
174.567169 144.0
174.805237 148.0
174.82518 224.0
174.876297 96.0
174.902161 116.0
174.92749 156.0
175.010559 108.0
175.04216 76.0
175.071121 188.0
175.102722 80.0
175.1633 148.0
175.197556 100.0
175.221268 168.0
175.384644 116.0
175.424179 176.0
175.457275 188.0
175.482193 168.0
175.582397 196.0
175.603485 68.0
175.643051 144.0
175.666794 184.0
175.716919 144.0
175.769684 144.0
176.058167 184.0
176.226486 64.0
176.327576 236.0
176.361267 188.0
176.781769 240.0
176.858521 264.0
176.993546 208.0
177.05513 392.0
177.095016 212.0
177.131256 192.0
177.152451 148.0
177.1922 100.0
177.300827 164.0
177.409515 88.0
177.43602 164.0
177.459885 220.0
177.597778 156.0
177.887009 172.0
177.926834 72.0
177.953384 140.0
178.06369 6904.0
178.102097 152.0
178.164017 168.0
178.370468 136.0
178.407684 204.0
178.463089 124.0
178.518936 188.0
178.540085 116.0
178.577179 216.0
178.609787 128.0
178.643112 220.0
178.721527 132.0
178.869415 168.0
178.890625 208.0
178.93399 92.0
178.968552 196.0
179.003677 128.0
179.037933 148.0
179.072296 23972.0
179.11554 200.0
179.138184 184.0
179.172729 176.0
179.217865 88.0
179.245255 116.0
179.263916 168.0
179.311874 200.0
179.381973 248.0
179.424667 140.0
179.443329 140.0
179.469131 100.0
179.557739 168.0
179.589676 168.0
179.626343 216.0
179.64444 292.0
179.704712 120.0
179.744736 160.0
179.776749 152.0
179.805145 144.0
179.834274 288.0
179.900803 360.0
179.927109 316.0
179.957596 340.0
179.973862 196.0
179.983749 176.0
179.991608 308.0
180.010498 292.0
180.081009 147880.0
180.152451 132.0
180.170609 248.0
180.196335 140.0
180.213364 276.0
180.241898 60.0
180.272644 224.0
180.294724 248.0
180.318558 156.0
180.323654 92.0
180.36084 120.0
180.379227 56.0
180.404434 84.0
180.42392 92.0
180.460571 80.0
180.493393 96.0
180.520355 844.0
180.545242 300.0
180.570465 164.0
180.590164 216.0
180.642563 80.0
180.679413 144.0
180.703964 92.0
180.726593 96.0
180.754028 180.0
180.786911 48.0
180.830246 56.0
180.86467 136.0
180.890228 232.0
180.910385 212.0
180.935989 104.0
180.960907 48.0
181.084229 19700.0
181.190018 88.0
181.235886 60.0
181.25766 116.0
181.289093 100.0
181.314499 120.0
181.392227 208.0
181.435608 76.0
181.486053 76.0
181.515732 116.0
181.551636 52.0
181.614609 64.0
181.648758 48.0
181.671356 92.0
181.719406 88.0
181.74086 76.0
181.784012 52.0
181.805679 72.0
181.826736 136.0
181.863266 156.0
181.906845 52.0
181.931183 136.0
181.940811 176.0
181.985123 120.0
182.058823 324.0
182.086823 1772.0
182.133606 152.0
182.158249 88.0
182.220581 156.0
182.25885 340.0
182.285965 172.0
182.321014 340.0
182.341156 104.0
182.407974 52.0
182.436646 348.0
182.453888 184.0
182.479599 104.0
182.505142 140.0
182.538162 68.0
182.566208 64.0
182.643539 80.0
182.710785 136.0
182.740372 132.0
182.802261 60.0
182.936844 148.0
182.99527 112.0
183.028381 156.0
183.069839 280.0
183.114563 72.0
183.147385 208.0
183.168427 92.0
183.211533 176.0
183.230392 140.0
183.270798 96.0
183.296295 112.0
183.327393 104.0
183.359726 108.0
183.440598 156.0
183.478333 40.0
183.518768 80.0
183.545059 48.0
183.607758 68.0
183.706482 308.0
183.766907 184.0
183.802231 92.0
183.885056 36.0
183.989334 88.0
184.032257 1236.0
184.069229 180.0
184.115616 180.0
184.374481 92.0
184.547485 172.0
184.720581 104.0
184.763855 104.0
184.836914 208.0
184.950577 52.0
184.996597 48.0
185.03949 2288.0
185.086929 208.0
185.199677 256.0
185.291794 84.0
185.345139 156.0
185.446243 76.0
185.511307 160.0
185.587219 36.0
185.698395 44.0
185.836746 52.0
185.929016 180.0
186.030258 132.0
186.049728 300.0
186.072876 72.0
186.138046 120.0
186.344467 180.0
186.387939 140.0
186.572769 28.0
186.594513 128.0
186.757675 48.0
186.88826 100.0
186.991669 100.0
187.039032 120.0
187.144104 104.0
187.21727 180.0
187.291168 152.0
187.323853 120.0
187.421936 128.0
187.953644 76.0
187.980927 64.0
188.133774 164.0
188.43692 172.0
188.685638 156.0
188.898941 68.0
188.959137 56.0
189.07132 104.0
189.090485 84.0
189.126053 144.0
189.323181 180.0
189.361526 124.0
189.388916 148.0
189.465622 160.0
189.630035 48.0
189.660187 48.0
189.789032 128.0
189.835648 96.0
189.906952 92.0
190.057831 168.0
190.313095 148.0
190.346054 40.0
190.464142 168.0
190.637238 288.0
190.681213 48.0
190.823105 200.0
191.071671 116.0
191.209259 116.0
191.239532 128.0
191.59201 148.0
191.636093 264.0
191.809708 36.0
192.083115 160.0
192.261444 168.0
192.416611 100.0
192.883484 164.0
192.933243 56.0
193.087128 736.0
193.314941 84.0
193.350922 192.0
193.42012 208.0
193.602844 92.0
193.663193 104.0
193.778687 108.0
193.827225 148.0
193.888199 112.0
193.929764 224.0
194.057312 644.0
194.093475 680.0
194.387375 148.0
194.43454 164.0
194.473404 80.0
194.573334 184.0
194.638062 64.0
194.739944 116.0
194.931641 168.0
194.984436 188.0
195.026215 168.0
195.065048 320.0
195.154007 76.0
195.195724 44.0
195.237427 152.0
195.27359 116.0
195.343124 116.0
195.38208 52.0
195.629761 48.0
195.819107 192.0
196.030823 192.0
196.07486 1488.0
196.103287 136.0
196.224136 104.0
196.476944 144.0
196.513214 60.0
196.679337 152.0
196.77211 200.0
196.965469 176.0
197.026169 344.0
197.078262 140.0
197.119141 44.0
197.351135 36.0
197.384689 128.0
197.627563 212.0
197.656021 36.0
197.689606 92.0
197.846344 176.0
197.958344 144.0
198.035477 5088.0
198.087173 116.0
198.11084 240.0
198.171234 60.0
198.196442 100.0
198.288925 96.0
198.403854 32.0
198.518814 112.0
198.605743 112.0
198.828461 180.0
198.863892 44.0
198.889145 152.0
198.960068 316.0
199.044174 21872.0
199.088852 352.0
199.126328 384.0
199.213531 192.0
199.235672 140.0
199.276688 60.0
199.338501 104.0
199.390747 88.0
199.433273 72.0
199.439255 52.0
199.476227 60.0
199.540878 60.0
199.560562 68.0
199.658493 68.0
199.777115 88.0
199.802444 76.0
199.836197 92.0
199.960022 168.0
200.045731 3424.0
200.095139 44.0
200.241562 144.0
200.289444 68.0
200.331696 60.0
200.37677 184.0
200.411987 64.0
200.442657 172.0
200.494492 112.0
200.63887 40.0
200.68399 52.0
200.734741 224.0
200.771408 88.0
200.920898 28.0
200.946289 112.0
200.974503 64.0
201.043869 1344.0
201.10997 152.0
201.166412 100.0
201.221512 116.0
201.25676 144.0
201.36972 140.0
201.40361 104.0
201.42453 100.0
201.45163 64.0
201.492706 112.0
201.553818 144.0
201.578613 136.0
201.6353 76.0
201.738083 180.0
201.797958 200.0
201.929337 88.0
201.971756 176.0
202.017014 68.0
202.041382 484.0
202.316986 112.0
202.69487 164.0
202.770203 100.0
202.815552 148.0
203.091599 112.0
203.201233 232.0
204.078445 328.0
204.307205 152.0
204.499878 144.0
204.531189 68.0
204.654526 100.0
204.915649 188.0
205.018219 144.0
205.088638 852.0
205.125168 176.0
205.235306 184.0
205.502975 132.0
205.522949 116.0
205.580032 168.0
205.822662 60.0
205.882629 168.0
206.096298 5000.0
206.145447 128.0
206.195938 48.0
206.234055 220.0
206.397003 60.0
206.502808 124.0
206.725967 128.0
206.932053 228.0
207.097626 1068.0
207.186951 176.0
207.253113 84.0
207.436264 48.0
207.513672 224.0
207.588226 80.0
207.628372 144.0
207.688599 136.0
208.038681 100.0
208.105988 272.0
208.170761 84.0
208.515503 168.0
208.676483 36.0
208.77713 144.0
208.826019 68.0
208.846146 148.0
209.033157 136.0
209.136765 212.0
209.286453 84.0
209.40741 152.0
209.450607 136.0
209.505341 216.0
209.580261 96.0
209.712814 48.0
209.805054 212.0
209.848312 168.0
209.888672 176.0
209.956818 108.0
210.037872 652.0
210.092957 164.0
210.139618 104.0
210.159805 32.0
210.243484 140.0
210.330078 168.0
210.540848 164.0
210.613052 44.0
210.724716 84.0
210.806625 100.0
210.891907 120.0
210.925125 132.0
210.945358 48.0
210.971375 152.0
211.008652 272.0
211.044525 2060.0
211.182465 136.0
211.309738 120.0
211.330002 64.0
211.396545 116.0
211.416809 112.0
211.456985 152.0
211.551575 200.0
211.59436 176.0
211.643646 244.0
211.681152 104.0
211.713165 140.0
211.796082 180.0
211.838577 164.0
211.876511 504.0
211.945923 172.0
211.991241 316.0
212.013062 660.0
212.052795 125424.0
212.162277 292.0
212.182266 256.0
212.218964 192.0
212.284912 80.0
212.342651 56.0
212.421478 92.0
212.445908 200.0
212.454773 160.0
212.47612 96.0
212.501572 64.0
212.531357 332.0
212.587585 56.0
212.615372 136.0
212.655991 56.0
212.680374 116.0
212.731979 96.0
212.751785 112.0
212.827591 88.0
212.835648 44.0
212.864807 96.0
212.93306 36.0
212.986099 124.0
213.009262 84.0
213.055161 15004.0
213.135757 1712.0
213.179565 104.0
213.206146 36.0
213.222229 60.0
213.233765 68.0
213.285477 68.0
213.312943 76.0
213.383011 76.0
213.391281 64.0
213.405685 120.0
213.437881 56.0
213.470688 76.0
213.493958 52.0
213.531189 40.0
213.563278 48.0
213.618332 68.0
213.63765 760.0
213.666901 96.0
213.704849 56.0
213.735397 32.0
213.762451 148.0
213.822708 124.0
213.851807 56.0
213.901291 140.0
213.950775 120.0
213.97699 40.0
214.050812 5252.0
214.109665 156.0
214.118576 128.0
214.128036 96.0
214.182358 48.0
214.248215 92.0
214.281464 76.0
214.308121 92.0
214.335236 156.0
214.372971 152.0
214.404709 100.0
214.450684 104.0
214.499115 180.0
214.57132 140.0
214.597687 104.0
214.632553 148.0
214.651428 136.0
214.702545 128.0
214.72818 324.0
214.751358 116.0
214.778381 104.0
214.81575 64.0
214.831909 80.0
214.951599 148.0
215.010406 76.0
215.053741 184.0
215.140213 56.0
215.198608 52.0
215.259933 152.0
215.285004 116.0
215.357849 80.0
215.469589 176.0
215.499451 44.0
215.595871 104.0
215.619263 88.0
215.666016 60.0
215.704025 104.0
215.750793 116.0
215.87944 48.0
216.038177 164.0
216.080505 92.0
216.171112 68.0
216.233429 48.0
216.277344 48.0
216.748856 64.0
216.786942 132.0
216.863144 72.0
217.027313 112.0
217.047836 148.0
217.35289 92.0
217.981293 100.0
218.104721 104.0
218.425232 52.0
218.681229 100.0
218.899078 92.0
219.052231 100.0
219.096527 316.0
219.255539 48.0
219.600494 124.0
219.750931 68.0
219.901428 48.0
219.972275 52.0
220.010651 180.0
220.060837 88.0
220.110977 4508.0
220.223267 84.0
220.351593 40.0
220.57193 208.0
220.654694 320.0
220.77002 120.0
220.980042 148.0
221.065842 184.0
221.117462 5468.0
221.296722 72.0
221.518845 44.0
221.87149 68.0
222.001968 144.0
222.054703 184.0
222.082031 160.0
222.125565 1092.0
222.265976 76.0
222.435135 40.0
222.533112 44.0
222.634064 100.0
223.043747 560.0
223.133606 168.0
223.177856 112.0
223.421738 60.0
223.469345 44.0
223.502075 80.0
223.558609 92.0
223.636002 88.0
223.906937 152.0
223.967712 164.0
224.050934 2748.0
224.093018 144.0
224.139297 156.0
224.335999 76.0
224.555328 108.0
224.884857 56.0
224.917679 56.0
225.059235 2408.0
225.104034 56.0
225.165497 48.0
225.550934 172.0
225.586807 164.0
225.885849 192.0
225.996536 60.0
226.063644 1176.0
226.185074 80.0
226.24794 76.0
226.277878 152.0
226.463547 68.0
227.051392 176.0
227.978622 84.0
228.038742 148.0
228.222107 80.0
228.330368 72.0
229.131058 128.0
229.345016 164.0
229.408905 208.0
230.942291 88.0
231.063293 148.0
231.368958 80.0
232.566345 76.0
233.672485 168.0
234.397156 128.0
235.068024 188.0
235.914062 112.0
236.047012 264.0
237.009735 84.0
237.057419 168.0
237.659775 220.0
237.891129 168.0
238.017319 208.0
238.06781 3436.0
238.150345 60.0
238.34758 108.0
238.559647 108.0
239.074432 1192.0
239.298004 52.0
239.384232 68.0
239.544388 96.0
239.615234 72.0
240.082993 424.0
240.197891 100.0
240.333633 96.0
240.432373 32.0
240.734909 128.0
240.895523 92.0
241.06546 112.0
241.115829 172.0
241.755066 68.0
242.070831 172.0
242.253571 84.0
242.510757 32.0
242.675049 160.0
243.047256 92.0
243.429062 28.0
243.457016 28.0
243.56572 64.0
243.829819 100.0
245.171158 120.0
245.442368 92.0
248.241043 112.0
248.956543 56.0
250.428421 160.0
251.178604 132.0
251.26062 64.0
251.314255 48.0
251.771973 52.0
252.080246 720.0
252.318619 52.0
252.59375 108.0
253.091614 584.0
253.220459 120.0
253.286972 100.0
254.098572 6980.0
254.266708 148.0
254.304794 36.0
254.358749 56.0
254.492096 44.0
254.568298 68.0
254.593704 80.0
254.825592 36.0
254.927261 36.0
255.101547 1384.0
255.203812 120.0
255.238785 52.0
255.84166 116.0
255.967484 36.0
256.099945 532.0
256.19043 44.0
256.212738 60.0
256.59198 64.0
256.703583 48.0
256.891754 116.0
257.162994 60.0
257.236389 44.0
257.926361 140.0
258.26532 40.0
260.550934 60.0
262.440186 88.0
263.266266 100.0
265.940491 116.0
266.109314 160.0
267.067963 168.0
267.503998 112.0
268.090271 64.0
269.784271 56.0
276.302582 48.0
276.441528 160.0
277.203186 44.0
280.067017 144.0
280.116974 156.0
281.093842 128.0
281.788361 48.0
282.088287 140.0
282.142639 164.0
283.096222 100.0
284.133331 188.0
284.585052 132.0
285.135956 220.0
285.805176 92.0
287.274109 140.0
287.982941 60.0
288.256592 60.0
288.452637 96.0
288.696075 100.0
289.261108 156.0
289.928345 64.0
290.294464 60.0
290.630463 80.0
290.711731 120.0
290.990051 68.0
291.417999 108.0
292.104736 116.0
292.564148 92.0
294.134827 472.0
295.027252 140.0
295.09967 152.0
295.140076 200.0
296.106415 168.0
296.910492 44.0
297.116302 40.0
297.246674 84.0
297.325623 128.0
297.998657 56.0
298.12619 660.0
298.218597 156.0
298.923615 112.0
299.044067 140.0
299.156982 3280.0
299.223053 172.0
299.295349 92.0
299.636353 36.0
299.784515 76.0
300.008545 48.0
300.155365 1104.0
300.367188 100.0
301.11618 44.0
301.149536 408.0
301.175903 244.0
301.876465 120.0
302.170502 164.0
302.336578 108.0
302.838593 76.0
302.945984 56.0
303.018738 80.0
303.847351 100.0
304.109589 132.0
305.111511 124.0
305.636688 96.0
306.608276 84.0
308.101715 88.0
308.593536 88.0
310.129547 156.0
312.076141 60.0
312.670654 128.0
317.393768 96.0
318.962952 72.0
320.347198 64.0
322.126862 172.0
323.121124 112.0
323.815552 44.0
324.144318 140.0
324.217621 144.0
325.147766 212.0
328.787781 100.0
330.352325 108.0
331.239227 96.0
332.475586 112.0
335.994232 36.0
337.137115 124.0
338.157471 160.0
338.508942 56.0
342.501129 96.0
342.784821 100.0
343.005951 116.0
343.367279 48.0
345.787231 148.0
347.547485 88.0
349.248962 116.0
351.159698 140.0
352.180511 192.0
353.160034 168.0
353.210297 212.0
354.194763 112.0
355.431946 88.0
355.461975 44.0
357.103699 40.0
358.602203 52.0
359.292267 100.0
360.081177 60.0
365.639252 40.0
365.871429 100.0
368.453339 68.0
368.751404 144.0
370.703186 52.0
376.790344 116.0
382.109619 100.0
382.405334 84.0
387.141052 76.0
388.544281 80.0
390.484772 80.0
394.083862 88.0
394.364441 60.0
397.230713 176.0
399.718384 44.0
401.654633 136.0
401.862061 44.0
402.428833 88.0
403.499603 48.0
406.262939 116.0
407.443237 116.0
407.853119 56.0
408.062164 92.0
410.607117 92.0
410.861237 68.0
411.002441 92.0
412.407837 88.0
414.641968 108.0
417.276459 44.0
427.280396 44.0
430.198181 60.0
431.449921 108.0
434.195221 56.0
436.628937 52.0
443.895416 92.0
444.486877 40.0
445.011566 48.0
448.503265 84.0
451.002045 60.0
453.914795 44.0
454.453461 44.0
458.825684 112.0
459.776917 84.0
464.371857 52.0
464.556305 52.0
464.79657 68.0
464.890991 100.0
464.946777 80.0
467.069275 108.0
467.447876 40.0
467.503815 44.0
467.809418 36.0
467.947174 68.0
469.977234 96.0
472.128479 72.0
472.638916 152.0
474.293274 92.0
482.862091 40.0
485.099548 64.0
486.082001 80.0
489.673706 72.0
490.347778 40.0
491.909241 92.0
491.993103 72.0
494.397644 68.0
497.229584 48.0
500.372284 68.0
504.440887 48.0
522.43927 112.0
524.214966 76.0
534.104248 56.0
547.298706 80.0
565.783813 64.0
566.59845 80.0
568.423889 92.0
580.71814 60.0
581.821838 76.0
593.987732 84.0
599.087097 28.0
599.647461 104.0
613.164856 80.0
637.341064 88.0
638.713562 108.0
644.576965 100.0
662.117859 68.0
662.968323 92.0
668.98291 48.0
674.952332 56.0
680.875549 84.0
681.187195 52.0
687.116699 80.0
700.569336 52.0
701.101501 92.0
710.34375 76.0
715.18457 60.0
716.617065 80.0
719.102112 56.0
725.681885 56.0
727.758362 48.0
750.369568 152.0
759.94104 60.0
774.843994 148.0
776.806519 216.0
782.102051 140.0
782.619812 120.0
784.274353 148.0
791.290771 184.0
795.989502 72.0
807.774536 32.0
816.213684 248.0
824.994019 36.0
832.677979 84.0
837.929871 148.0
838.033569 172.0
842.591553 132.0
843.146301 80.0
849.428467 108.0
855.343933 64.0
861.899231 56.0
863.939697 148.0
873.442932 136.0
877.559448 152.0
878.155029 200.0
881.632446 28.0
884.690369 168.0
895.96814 176.0
896.391174 56.0
897.98291 152.0
899.33136 136.0
900.56134 156.0
906.484131 140.0
908.696716 92.0
914.152649 204.0
917.513611 176.0
923.733826 140.0
924.102844 184.0
930.278503 160.0
932.696167 252.0
932.927124 100.0
937.266663 148.0
939.528625 132.0
939.705566 64.0
945.884094 136.0
950.934753 196.0
952.776917 184.0
953.520447 184.0
954.288818 168.0
955.494324 192.0
955.568115 160.0
960.10791 96.0
966.11792 60.0
975.40741 152.0
977.360229 80.0
977.447388 144.0
981.15332 208.0
987.347534 100.0
989.975952 160.0
990.439453 180.0
990.796509 40.0
992.006042 252.0
993.002991 208.0
994.320557 216.0
997.605652 192.0
998.039429 156.0
998.215515 212.0
998.995422 136.0
999.20929 52.0
1009.016479 212.0
1009.971375 156.0
1010.559692 96.0
1013.668701 152.0
1015.329651 204.0
1019.373047 168.0
1019.996399 52.0
1020.498596 184.0
1022.489685 112.0
1022.6297 48.0
1022.680603 140.0
1023.769287 136.0
1025.03064 248.0
1029.7771 84.0
1032.135254 172.0
1032.614868 148.0
1032.915405 128.0
1033.561646 188.0
1033.619263 180.0
1034.342407 136.0
1034.976196 140.0
1039.578735 148.0
1039.790527 96.0
1039.925293 268.0
1040.535156 224.0
1041.999512 92.0
1042.250122 140.0
1042.661377 172.0
1044.931274 196.0
1046.65625 156.0
1047.14563 140.0
1047.551392 212.0
1051.052246 100.0
1053.363647 88.0
1053.654297 128.0
1056.602417 172.0
1058.168579 168.0
1059.094727 228.0
1059.91748 164.0
1060.351685 200.0
1062.167114 108.0
1064.4646 40.0
1065.737793 72.0
1065.984741 216.0
1067.206787 220.0
1067.297729 200.0
1067.452271 152.0
1068.592163 144.0
1069.861206 140.0
1070.056519 204.0
1071.476318 216.0
1072.466797 248.0
1072.981812 68.0
1074.925537 204.0
1076.407349 156.0
1078.759399 164.0
1079.956055 132.0
1081.415161 124.0
1081.971558 76.0
1082.456055 176.0
1086.624756 164.0
1087.950439 36.0
1088.692505 176.0
1091.754883 176.0
1092.044312 184.0
1094.755737 152.0
1097.200684 164.0
1100.400146 156.0
1100.512451 68.0
1100.578369 136.0
1104.814941 232.0
1106.880005 196.0
1108.36377 108.0
1108.801147 192.0
1109.835205 132.0
1110.054077 76.0
1111.88501 132.0
1115.744385 104.0
1116.183228 132.0
1116.761719 152.0
1117.926025 168.0
1118.964478 124.0
1119.024292 176.0
1119.58374 44.0
1122.642578 164.0
1124.624023 160.0
1125.785767 184.0
1126.934692 148.0
1127.355591 188.0
1129.080444 220.0
1129.475098 188.0
1129.682373 160.0
1130.063721 112.0
1130.73291 172.0
1132.138916 156.0
1135.972778 52.0
1136.160522 168.0
1136.314819 64.0
1138.301636 156.0
1139.047241 240.0
1141.466675 76.0
1143.442017 180.0
1143.99646 224.0
1144.952637 156.0
1145.430786 128.0
1145.828247 124.0
1147.897583 160.0
1148.160522 156.0
1149.752686 128.0
1149.94165 156.0
1150.900269 160.0
1151.616211 76.0
1154.874023 204.0
1155.922607 220.0
1156.775391 164.0
1157.046265 168.0
1157.459229 228.0
1158.339722 148.0
1158.996826 160.0
1161.57312 208.0
1161.959839 228.0
1164.104736 204.0
1164.498657 200.0
1166.278809 184.0
1166.550659 188.0
1171.068848 72.0
1171.35498 144.0
1172.465576 212.0
1174.34729 136.0
1176.599121 220.0
1178.067505 100.0
1179.235962 84.0
1179.905762 184.0
1180.247681 152.0
1180.302368 116.0
1180.897339 196.0
1181.191406 164.0
1183.203369 40.0
1185.984619 164.0
1186.09436 188.0
1186.272583 212.0
1186.533081 188.0
1189.050537 248.0
1189.125977 132.0
1192.120361 40.0
1194.987671 176.0
1196.625732 200.0
1197.045776 128.0
1198.638062 160.0
1199.333008 140.0
1204.418457 144.0
1207.57019 144.0
1210.82312 48.0
1211.529663 144.0
1212.180908 128.0
1212.48584 168.0
1212.700684 180.0
1212.860107 104.0
1213.705933 160.0
1216.592163 124.0
1217.793457 128.0
1218.779907 56.0
1218.828613 120.0
1219.933716 208.0
1220.642822 176.0
1222.020142 160.0
1223.001343 188.0
1223.112671 104.0
1224.818726 52.0
1225.445679 180.0
1227.592529 52.0
1229.148193 156.0
1229.434204 148.0
1231.88501 204.0
1233.10083 124.0
1233.967651 92.0
1234.226318 124.0
1234.450073 64.0
1234.743774 192.0
1234.862671 116.0
1235.604248 72.0
1237.906982 180.0
1238.012085 124.0
1238.194214 136.0
1240.415283 164.0
1240.807861 176.0
1240.962158 132.0
1241.453003 200.0
1241.6073 144.0
1242.112305 60.0
1242.224487 76.0
1242.926025 148.0
1243.150635 68.0
1243.796387 176.0
1244.442261 124.0
1244.512451 100.0
1245.123413 68.0
1248.25769 152.0
1248.595215 196.0
1252.762207 164.0
1254.488647 224.0
1258.051147 208.0
1258.361816 196.0
1259.569458 144.0
1260.191162 160.0
1261.017944 184.0
1261.357178 112.0
1263.188721 172.0
1263.2948 60.0
1263.811279 196.0
1264.667603 36.0
1266.380981 148.0
1267.769653 176.0
1268.457153 156.0
1269.442627 220.0
1269.605713 200.0
1269.960327 192.0
1270.570435 56.0
1270.69812 140.0
1271.067139 188.0
1272.74939 120.0
1273.67981 104.0
1274.603394 152.0
1274.795166 92.0
1275.292725 152.0
1275.605469 228.0
1275.911133 120.0
1276.856812 208.0
1277.290771 36.0
1277.347656 180.0
1277.703369 76.0
1277.987915 164.0
1278.329468 180.0
1278.913086 192.0
1280.358398 140.0
1280.515137 176.0
1280.963867 64.0
1281.149048 224.0
1282.731079 172.0
1282.923584 192.0
1283.422607 220.0
1284.071533 104.0
1284.221313 236.0
1284.435303 188.0
1284.485229 200.0
1285.434204 196.0
1286.726074 120.0
1286.975952 64.0
1287.382935 196.0
1287.868652 148.0
1288.140137 148.0
1289.026001 72.0
1289.783569 208.0
1290.283936 160.0
1291.950317 176.0
1294.476929 200.0
1294.634521 212.0
1295.472534 56.0
1296.72644 156.0
1299.451416 164.0
1299.960815 148.0
1300.456055 212.0
1303.824463 152.0
1304.600708 156.0
1305.925659 128.0
1306.722412 176.0
1307.715454 212.0
1307.967407 164.0
1308.629639 160.0
1308.687256 208.0
1308.788086 128.0
1309.37854 224.0
1309.810791 140.0
1310.73291 188.0
1312.700806 100.0
1313.220093 164.0
1314.150635 200.0
1314.612549 92.0
1314.807373 152.0
1316.30896 164.0
1316.785522 128.0
1317.970337 176.0
1319.921875 96.0
1320.247314 136.0
1321.354004 212.0
1321.68689 68.0
1321.860596 128.0
1322.699951 172.0
1323.518188 128.0
1324.539307 104.0
1324.662476 140.0
1325.075439 156.0
1325.437744 152.0
1325.495728 152.0
1326.546631 224.0
1327.213623 352.0
1327.344116 168.0
1329.520386 68.0
1329.883301 104.0
1330.224487 176.0
1330.391357 188.0
1330.681763 108.0
1331.008545 92.0
1331.495117 120.0
1331.749268 44.0
1332.512085 216.0
1333.347778 196.0
1337.129639 172.0
1337.202393 196.0
1337.675537 192.0
1338.855103 192.0
1339.568848 128.0
1341.157349 160.0
1342.345703 180.0
1342.469727 168.0
1343.797241 152.0
1344.227783 236.0
1344.426636 108.0
1344.738647 116.0
1345.570801 220.0
1346.476318 32.0
1346.59314 104.0
1346.651489 176.0
1348.931274 192.0
1349.004395 184.0
1349.998779 172.0
1350.664307 156.0
1351.981323 140.0
1352.178955 192.0
1352.259399 184.0
1352.361938 176.0
1352.68396 104.0
1353.152466 212.0
1353.870117 168.0
1354.888306 32.0
1355.217896 200.0
1355.862793 104.0
1357.182251 80.0
1357.629639 172.0
1357.739624 228.0
1358.120972 228.0
1360.373779 404.0
1360.873047 152.0
1360.939087 44.0
1361.056519 176.0
1361.188721 36.0
1361.6073 228.0
1361.871704 136.0
1362.319824 184.0
1365.840942 148.0
1366.091064 48.0
1367.157959 256.0
1367.614258 140.0
1368.033813 108.0
1368.335693 208.0
1368.917358 212.0
1369.410767 200.0
1369.536011 192.0
1369.62439 172.0
1370.935791 216.0
1371.112671 196.0
1371.252686 224.0
1372.070923 108.0
1372.616577 144.0
1373.258179 200.0
1375.265137 176.0
1375.892578 96.0
1375.95166 112.0
1376.254272 180.0
1378.891602 200.0
1378.965454 224.0
1381.738525 192.0
1382.404419 232.0
1383.314819 132.0
1383.485107 192.0
1384.625366 196.0
1385.395752 128.0
1385.817993 180.0
1386.23291 156.0
1387.226074 152.0
1387.278076 68.0
1387.448486 108.0
1387.715454 128.0
1388.071411 120.0
1388.145508 124.0
1388.909424 184.0
1388.990967 156.0
1389.532593 140.0
1389.799683 44.0
1390.393311 148.0
1390.682739 196.0
1390.860962 164.0
1391.536499 204.0
1393.638428 136.0
1394.01001 164.0
1394.292358 176.0
1394.961304 44.0
1395.199219 224.0
1396.515381 208.0
1396.701294 156.0
1397.095581 192.0
1398.226562 160.0
1398.509399 116.0
1398.650879 208.0
1399.312744 136.0
1399.40271 180.0
1400.410645 200.0
1402.211182 184.0
1402.352783 228.0
1402.934204 124.0
1403.314453 100.0
1403.709595 72.0
1403.985474 180.0
1404.209229 92.0
1404.403198 184.0
1404.544922 180.0
1404.686646 124.0
1404.880615 216.0
1405.074585 216.0
1406.268555 72.0
1407.276245 180.0
1407.724365 56.0
1407.84375 116.0
1408.254517 160.0
1409.210815 88.0
1409.405029 188.0
1409.629272 56.0
1410.869995 128.0
1411.04187 204.0
1412.253296 152.0
1412.896729 148.0
1413.113403 152.0
1413.457886 168.0
1413.562622 76.0
1413.622437 140.0
1414.445679 260.0
1414.580444 152.0
1415.044678 192.0
1415.898315 212.0
1416.295288 52.0
1416.759644 236.0
1417.081787 188.0
1417.456543 196.0
1417.651367 88.0
1418.603271 128.0
1419.030518 108.0
1419.135498 32.0
1419.287476 260.0
1419.6604 136.0
1420.54126 244.0
1420.672974 148.0
1420.928101 120.0
1421.06311 100.0
1421.380493 172.0
1423.622803 104.0
1424.020752 168.0
1424.253662 216.0
1424.877197 200.0
1425.944214 204.0
1426.229858 148.0
1426.357666 200.0
1426.447754 172.0
1426.500488 156.0
1426.951538 156.0
1427.100098 176.0
1427.812012 236.0
1428.075073 188.0
1428.952148 144.0
1429.155273 84.0
1430.410889 220.0
1430.51001 184.0
1431.021851 188.0
1431.458618 216.0
1431.609253 112.0
1432.708984 224.0
1432.806885 184.0
1433.507568 132.0
1435.158447 48.0
1435.723999 200.0
1436.138794 160.0
1436.319824 204.0
1438.17041 184.0
1438.394897 156.0
1439.119629 92.0
1439.655762 168.0
1439.874756 28.0
1439.988037 180.0
1441.045654 192.0
1441.559448 140.0
1441.627563 144.0
1442.133911 200.0
1442.443726 148.0
1443.751831 32.0
1445.416016 116.0
1445.597656 148.0
1445.771729 96.0
1445.897217 244.0
1446.22583 328.0
1446.430176 192.0
1447.793091 72.0
1447.967285 168.0
1448.262695 120.0
1449.184814 196.0
1450.179565 76.0
1450.55481 248.0
1451.066528 156.0
1453.630249 232.0
1454.487915 80.0
1455.140747 224.0
1455.740601 200.0
1456.910278 152.0
1456.993896 140.0
1457.130615 232.0
1458.095703 76.0
1458.293335 140.0
1458.665771 180.0
1458.817749 192.0
1458.939453 164.0
1459.418457 180.0
1459.570435 184.0
1460.727051 176.0
1460.88623 160.0
1461.144897 124.0
1462.468994 60.0
1462.598389 140.0
1462.692383 140.0
1462.743042 204.0
1463.154175 140.0
1463.352051 224.0
1463.603394 168.0
1463.885132 136.0
1464.364868 40.0
1465.49231 92.0
1465.682861 232.0
1465.759033 172.0
1466.223877 196.0
1466.361084 164.0
1466.612549 132.0
1466.864136 124.0
1466.993774 84.0
1467.100464 208.0
1467.260498 68.0
1467.702759 316.0
1467.794312 196.0
1469.647827 128.0
1469.846191 52.0
1470.075073 148.0
1470.525391 84.0
1470.952881 92.0
1471.838501 100.0
1472.189697 184.0
1472.907715 160.0
1474.718628 164.0
1475.39978 180.0
1475.804077 184.0
1476.545898 144.0
1476.660645 144.0
1477.257202 124.0
1478.427856 152.0
1479.109131 36.0
1479.208618 112.0
1479.331055 120.0
1479.484131 172.0
1480.173218 128.0
1481.283813 88.0
1482.026978 172.0
1482.540405 172.0
1483.237793 196.0
1483.452393 172.0
1485.338867 200.0
1487.364624 104.0
1487.832886 196.0
1487.917358 140.0
1488.331909 220.0
1488.63147 148.0
1488.715942 100.0
1488.785034 140.0
1488.99231 212.0
1489.176758 180.0
1490.744019 108.0
1491.543335 120.0
1492.258179 216.0
1492.335083 68.0
1493.327148 224.0
1493.596313 132.0
1493.657837 140.0
1493.71167 60.0
1494.088623 184.0
1494.665771 208.0
1495.603149 180.0
1495.750854 196.0
1496.682495 48.0
1496.936523 256.0
1497.621948 144.0
1498.199707 180.0
1498.800659 188.0
1499.155151 144.0
1499.317017 116.0
1499.656128 96.0
1499.902832 124.0
1500.488647 148.0
1500.612061 72.0
1500.666016 216.0
1501.082397 128.0
1503.24231 180.0
1503.574097 196.0
1504.392334 176.0
1504.577637 236.0
1504.840088 132.0
