>compound MLS001158367-01!
>formula C24H23ClN2O5
>ionization [M+H]+
>parentmass 455.137512
#inchi InChI=1S/C24H23ClN2O5/c1-13-14(2)24(30)32-20-8-21(18(25)7-17(13)20)31-12-23(29)26-9-15-6-16(11-26)19-4-3-5-22(28)27(19)10-15/h3-5,7-8,15-16H,6,9-12H2,1-2H3/t15-,16+/m1/s1
#inchikey PMQXLCHLRAWBHW
#Ion_Source LC-ESI
#Instrument qTof
#Compound_Source NIH Natural Product Library
#PI Dorrestein
#Data_Collector VVP/LMS
#Scan -1
#Precursor_MZ 455.137
#ExactMass 454.13
#Charge 1
#CAS_Number N/A
#Pubmed_ID N/A
#Smiles Cc1c(C)c2cc(Cl)c(OCC(=O)N3C[C@H]4C[C@@H](C3)c5cccc(=O)n5C4)cc2oc1=O
#INCHI_AUX N/A
#Library_Class 1
#SpectrumID CCMSLIB00000079549
#IonMode Positive
#UpdateWorkflowName UPDATE-SINGLE-ANNOTATED-GOLD
#LibraryQualityString Gold
#TaskID b1d8e8f6646f4e71acdff9ca3d919d08
##Scan# 1927
#SpectrumFile p1-A08_GA8_01_17873.mzXML
#LibraryName NIH_Natural_Products_Library.mgf
#MQScore -1
#Organism NIH_Natural_Products_Library
#TIC_Query 0
#RT_Query -1
#MZErrorPPM -1
#SharedPeaks 0
#MassDiff 0
#LibMZ -1
#SpecMZ 455.137
#SpecCharge 0
#internalFilename spec-00000.mgf

>collision 10
94.950287 108.0
94.982079 164.0
95.003082 128.0
95.066467 200.0
95.109009 172.0
95.216255 196.0
95.334274 188.0
95.355652 200.0
95.386124 200.0
95.470337 112.0
95.528687 192.0
95.588989 144.0
95.606499 140.0
95.630241 304.0
95.678513 196.0
95.803139 192.0
95.835258 196.0
95.927841 204.0
95.965675 184.0
96.042877 264.0
96.062378 132.0
96.080894 168.0
96.173592 140.0
96.300484 84.0
96.394249 48.0
96.499786 148.0
96.666031 188.0
96.736481 208.0
96.797165 176.0
96.81675 248.0
96.846992 136.0
96.885292 112.0
96.936234 192.0
96.957787 144.0
96.996979 136.0
97.046944 376.0
97.089119 336.0
97.246056 180.0
97.282784 180.0
97.338318 148.0
97.548973 240.0
97.601433 244.0
97.678284 136.0
97.697289 224.0
97.713692 116.0
97.74408 192.0
97.85144 96.0
97.885384 236.0
97.930199 148.0
98.016876 164.0
98.048401 148.0
98.129211 152.0
98.23175 120.0
98.301231 200.0
98.405396 144.0
98.614769 92.0
98.632149 216.0
98.723488 120.0
98.761063 76.0
98.856018 196.0
98.907471 160.0
98.938126 188.0
99.091614 148.0
99.143127 152.0
99.174034 240.0
99.233795 116.0
99.316017 172.0
99.379074 112.0
99.406853 148.0
99.438599 184.0
99.555717 188.0
99.601395 192.0
99.706688 64.0
99.899536 144.0
99.91346 228.0
99.995033 88.0
100.048767 40.0
100.098541 144.0
100.151382 276.0
100.1782 176.0
100.19413 176.0
100.233978 128.0
100.391441 120.0
100.414925 180.0
100.441292 180.0
100.517097 136.0
100.582954 164.0
100.662804 220.0
100.720711 152.0
100.819389 152.0
100.951889 212.0
101.008522 180.0
101.278717 348.0
101.298744 180.0
101.396912 56.0
101.414948 72.0
101.428978 180.0
101.453026 100.0
101.520538 208.0
101.541245 168.0
101.625214 204.0
101.671638 200.0
101.800835 220.0
101.816162 176.0
101.913567 136.0
101.948738 124.0
101.962807 152.0
102.057541 120.0
102.081406 148.0
102.151787 184.0
102.173912 184.0
102.2061 176.0
102.312759 164.0
102.566551 148.0
102.586708 192.0
102.616943 404.0
102.645172 136.0
102.69075 172.0
102.741974 164.0
102.786354 184.0
102.907448 120.0
102.998314 100.0
103.052849 120.0
103.212509 124.0
103.228683 128.0
103.250931 120.0
103.345055 144.0
103.380386 192.0
103.414261 184.0
103.42646 228.0
103.698311 136.0
103.732765 156.0
103.777359 108.0
103.795609 128.0
103.846306 164.0
103.860497 168.0
103.894981 44.0
103.927437 168.0
103.980019 188.0
104.047768 940.0
104.099953 40.0
104.162125 196.0
104.372215 228.0
104.482033 172.0
104.801643 164.0
104.819984 160.0
104.901497 52.0
104.956535 144.0
104.972847 76.0
105.067795 612.0
105.09726 72.0
105.180923 208.0
105.207458 140.0
105.274834 208.0
105.411682 264.0
105.436203 160.0
105.470947 152.0
105.51387 120.0
105.554756 132.0
105.7062 188.0
105.875999 172.0
105.914703 156.0
105.937447 140.0
106.02964 172.0
106.065971 320.0
106.193634 96.0
106.238762 56.0
106.271584 168.0
106.298248 200.0
106.35463 144.0
106.374184 132.0
106.394707 84.0
106.513802 176.0
106.614464 116.0
106.632957 124.0
106.721344 56.0
106.880325 184.0
106.924973 180.0
107.005241 96.0
107.270966 192.0
107.3769 220.0
107.404984 216.0
107.528763 192.0
107.625778 132.0
107.667961 176.0
107.910873 384.0
107.96463 88.0
108.016335 124.0
108.044586 204.0
108.183929 176.0
108.252068 136.0
108.287453 72.0
108.336098 164.0
108.554764 188.0
108.57135 132.0
108.60453 148.0
108.619049 144.0
108.844467 188.0
108.884689 140.0
109.005043 200.0
109.051735 4356.0
109.082062 156.0
109.254639 144.0
109.301491 192.0
109.325378 80.0
109.373238 212.0
109.389893 80.0
109.410706 164.0
109.529388 172.0
109.556465 172.0
109.610634 168.0
109.769035 140.0
109.828003 188.0
109.898346 136.0
109.972786 184.0
110.059586 768.0
110.155273 196.0
110.178085 152.0
110.209297 208.0
110.318085 152.0
110.382889 168.0
110.424713 132.0
110.474907 40.0
110.520927 172.0
110.612999 124.0
110.692551 216.0
110.709305 112.0
110.818214 156.0
110.845711 160.0
110.88945 172.0
110.93766 220.0
110.95652 144.0
111.032005 192.0
111.066719 396.0
111.176743 96.0
111.279587 136.0
111.317375 124.0
111.361473 200.0
111.472801 196.0
111.49382 120.0
111.55056 136.0
111.569481 96.0
111.605217 180.0
111.626244 168.0
111.710358 236.0
111.769264 216.0
111.805031 44.0
111.935532 176.0
111.998711 76.0
112.072128 164.0
112.083504 188.0
112.268448 64.0
112.376015 120.0
112.656769 160.0
112.682121 148.0
112.730713 132.0
112.872322 172.0
112.962204 56.0
113.011826 100.0
113.017464 164.0
113.145233 156.0
113.268044 128.0
113.395157 92.0
113.448143 112.0
113.471458 48.0
113.54567 184.0
113.577484 188.0
113.677284 168.0
113.774811 180.0
113.83213 124.0
113.849113 208.0
113.868225 220.0
113.893715 124.0
114.066711 188.0
114.121078 212.0
114.186989 284.0
114.241264 208.0
114.272072 32.0
114.325256 156.0
114.406128 168.0
114.448212 256.0
114.527496 172.0
114.702202 148.0
114.793861 168.0
114.868507 76.0
114.900497 224.0
114.953835 112.0
114.992249 192.0
115.024261 180.0
115.054497 296.0
115.124596 116.0
115.213333 196.0
115.264336 188.0
115.302063 152.0
115.333946 36.0
115.351044 176.0
115.389519 236.0
115.688995 188.0
115.708267 60.0
115.731812 212.0
115.785339 112.0
115.903145 164.0
116.025299 320.0
116.040306 176.0
116.063889 124.0
116.085327 180.0
116.123932 204.0
116.1754 232.0
116.248344 132.0
116.353508 148.0
116.480194 236.0
116.6091 212.0
116.671425 200.0
116.709869 168.0
116.724045 428.0
116.774582 180.0
116.804741 180.0
116.841309 144.0
116.88588 200.0
116.925217 164.0
116.972565 196.0
117.060555 984.0
117.129738 72.0
117.146965 48.0
117.239601 124.0
117.281509 160.0
117.345215 172.0
117.386177 36.0
117.457344 132.0
117.483223 44.0
117.696869 92.0
117.720619 160.0
117.891258 208.0
117.93232 104.0
117.990677 92.0
118.064148 556.0
118.124741 176.0
118.176651 180.0
118.196678 172.0
118.23632 180.0
118.267532 196.0
118.332741 160.0
118.421608 168.0
118.577225 124.0
118.616234 184.0
118.65168 124.0
118.680679 140.0
118.726799 136.0
118.813545 156.0
118.833069 116.0
118.891655 76.0
118.91552 96.0
119.005356 144.0
119.073509 196.0
119.160873 176.0
119.254311 180.0
119.388428 176.0
119.410835 164.0
119.430405 156.0
119.5914 160.0
119.679367 192.0
119.703583 120.0
119.719833 68.0
119.865768 228.0
119.933319 100.0
119.969322 176.0
119.988708 176.0
120.081116 328.0
120.131729 76.0
120.160088 184.0
120.234268 164.0
120.277916 108.0
120.420181 148.0
120.478798 156.0
120.570557 180.0
120.594597 320.0
120.671707 172.0
120.826927 200.0
120.913879 408.0
120.942322 132.0
120.995201 228.0
121.038994 424.0
121.097763 128.0
121.20948 108.0
121.232437 176.0
121.268188 212.0
121.354126 188.0
121.391396 132.0
121.44622 180.0
121.490082 124.0
121.645874 124.0
121.751251 200.0
121.768822 240.0
121.90062 64.0
121.951164 192.0
121.995117 136.0
122.012703 124.0
122.060249 3844.0
122.135834 56.0
122.330498 168.0
122.373482 156.0
122.457146 176.0
122.479172 32.0
122.529831 188.0
122.591522 168.0
122.631187 108.0
122.736992 208.0
122.752426 44.0
122.77668 124.0
122.801422 164.0
122.825195 220.0
122.893578 80.0
123.001701 176.0
123.063461 948.0
123.13858 84.0
123.16288 108.0
123.193802 160.0
123.244606 252.0
123.317528 196.0
123.536407 164.0
123.664734 152.0
123.744415 148.0
123.788696 204.0
123.82412 128.0
123.861771 92.0
123.879494 168.0
123.985832 92.0
124.016861 220.0
124.072021 180.0
124.169823 216.0
124.2164 200.0
124.298477 120.0
124.467155 172.0
124.509346 232.0
124.575104 236.0
124.604851 148.0
124.62484 216.0
124.658173 188.0
124.758179 140.0
124.815979 132.0
124.862671 148.0
125.015396 364.0
125.06871 240.0
125.098503 240.0
125.120758 228.0
125.145248 200.0
125.198685 148.0
125.234314 56.0
125.263268 40.0
125.28331 128.0
125.314499 168.0
125.352379 112.0
125.550758 136.0
125.651123 188.0
125.686813 68.0
125.709129 112.0
125.831879 104.0
125.91362 124.0
125.930122 124.0
126.001595 152.0
126.017235 72.0
126.052979 76.0
126.191544 196.0
126.238495 136.0
126.404015 140.0
126.43882 208.0
126.462189 148.0
126.508385 144.0
126.540535 132.0
126.583069 152.0
126.663689 228.0
126.798103 76.0
126.941566 204.0
127.008842 208.0
127.053703 136.0
127.190575 140.0
127.219749 212.0
127.280365 120.0
127.314041 60.0
127.491501 108.0
127.536446 184.0
127.66008 192.0
127.815277 124.0
127.891785 168.0
127.986328 164.0
128.008835 88.0
128.049377 168.0
128.080902 156.0
128.101166 112.0
128.294952 104.0
128.372971 216.0
128.441513 164.0
128.556564 220.0
128.599442 108.0
128.664886 132.0
128.761978 144.0
128.803726 116.0
128.897507 116.0
128.96727 136.0
128.989471 184.0
129.0233 156.0
129.039886 72.0
129.074997 368.0
129.157471 260.0
129.20723 96.0
129.411499 164.0
129.433533 172.0
129.601135 224.0
129.718979 192.0
129.759766 68.0
129.775635 140.0
129.895828 84.0
129.976028 132.0
130.016068 68.0
130.06839 484.0
130.181763 152.0
130.240814 124.0
130.329407 92.0
130.355469 236.0
130.372574 88.0
130.480667 292.0
130.498337 132.0
130.507492 208.0
130.674179 152.0
130.747772 116.0
130.827423 112.0
130.92305 176.0
130.952652 152.0
131.025528 140.0
131.072296 592.0
131.137024 188.0
131.191879 152.0
131.226074 32.0
131.264832 168.0
131.438171 156.0
131.463089 204.0
131.528961 164.0
131.58194 152.0
131.602493 216.0
131.620758 96.0
131.734238 272.0
131.785187 188.0
131.817184 172.0
132.044159 2440.0
132.080536 308.0
132.148697 164.0
132.329483 64.0
132.40274 48.0
132.469986 188.0
132.579132 172.0
132.691437 148.0
132.753342 204.0
132.792313 36.0
132.838776 220.0
132.856537 228.0
132.890945 164.0
132.973557 120.0
133.001083 156.0
133.052643 3972.0
133.081314 224.0
133.138824 176.0
133.161789 192.0
133.230698 212.0
133.430618 144.0
133.446701 60.0
133.469696 184.0
133.545578 72.0
133.6698 144.0
133.777954 160.0
133.812485 136.0
133.876953 176.0
134.010544 124.0
134.035873 140.0
134.060028 7576.0
134.095795 188.0
134.171844 52.0
134.243317 72.0
134.288055 180.0
134.330948 188.0
134.478561 180.0
134.589401 60.0
134.642517 56.0
134.660385 152.0
134.83461 176.0
134.929001 164.0
134.96022 112.0
134.991425 164.0
135.014191 204.0
135.021149 160.0
135.065536 1340.0
135.103348 132.0
135.17189 176.0
135.188034 204.0
135.252838 44.0
135.282928 184.0
135.30838 160.0
135.326904 208.0
135.421844 120.0
135.468414 200.0
135.473404 136.0
135.519119 72.0
135.602539 124.0
135.639618 164.0
135.668594 152.0
135.787994 172.0
135.846817 252.0
135.968933 168.0
136.038559 184.0
136.070023 404.0
136.163925 204.0
136.194122 128.0
136.226639 152.0
136.352097 132.0
136.370682 136.0
136.463669 108.0
136.565964 144.0
136.586899 144.0
136.60318 72.0
136.703537 204.0
136.870804 156.0
137.085083 180.0
137.308853 184.0
137.549149 108.0
137.574829 176.0
137.602844 196.0
137.700897 128.0
137.728928 120.0
137.754623 160.0
137.878448 140.0
137.917938 208.0
138.03038 84.0
138.121582 112.0
138.222168 80.0
138.285339 116.0
138.388336 184.0
138.446869 172.0
138.547577 72.0
138.582718 156.0
138.617859 148.0
138.674088 52.0
138.79364 136.0
138.854599 128.0
138.880402 112.0
139.011765 144.0
139.072784 148.0
139.180756 160.0
139.237106 132.0
139.315536 284.0
139.396835 52.0
139.415634 264.0
139.436783 172.0
139.457932 120.0
139.547256 160.0
139.615433 160.0
139.834213 220.0
140.060211 208.0
140.163864 120.0
140.207504 208.0
140.227478 44.0
140.345337 244.0
140.385422 60.0
140.480865 156.0
140.510422 136.0
140.701553 156.0
140.838501 144.0
140.902634 132.0
140.961349 116.0
140.98497 152.0
141.014252 164.0
141.044525 140.0
141.065323 256.0
141.202454 68.0
141.315979 44.0
141.422455 124.0
141.495834 196.0
141.533707 184.0
141.645004 152.0
141.666321 216.0
141.753983 176.0
141.89856 56.0
141.963638 80.0
142.043198 72.0
142.064697 440.0
142.11911 120.0
142.157059 156.0
142.273621 144.0
142.501328 116.0
142.672424 96.0
142.783478 152.0
142.855515 184.0
142.898331 132.0
142.936401 248.0
142.974472 216.0
143.073792 328.0
143.188705 196.0
143.251709 192.0
143.272064 144.0
143.312561 188.0
143.362595 96.0
143.405121 152.0
143.457932 84.0
143.536606 172.0
143.5755 256.0
143.605743 120.0
143.775955 196.0
143.798981 192.0
143.861038 136.0
143.894455 132.0
144.008057 132.0
144.029892 128.0
144.047958 328.0
144.082535 664.0
144.133286 164.0
144.181061 60.0
144.257553 140.0
144.294128 232.0
144.314835 112.0
144.401001 60.0
144.432083 176.0
144.499054 76.0
144.539734 300.0
144.561264 148.0
144.635452 204.0
144.695282 148.0
144.753418 196.0
144.896439 236.0
144.962097 168.0
145.052185 904.0
145.086105 544.0
145.277573 300.0
145.378784 176.0
145.404251 196.0
145.657806 224.0
145.720245 188.0
145.790543 192.0
145.87767 204.0
145.940369 192.0
145.971085 348.0
145.99086 152.0
146.059921 41048.0
146.141052 72.0
146.163559 72.0
146.190506 204.0
146.207169 56.0
146.235016 152.0
146.295074 220.0
146.32019 76.0
146.336121 72.0
146.385468 40.0
146.404724 140.0
146.426407 80.0
146.450699 224.0
146.466919 112.0
146.515518 136.0
146.568512 84.0
146.595016 156.0
146.640808 112.0
146.681778 72.0
146.710709 100.0
146.754089 76.0
146.780609 192.0
146.804718 56.0
146.868942 76.0
146.910843 40.0
146.944611 76.0
147.000397 132.0
147.01944 228.0
147.066803 22728.0
147.122803 452.0
147.142487 48.0
147.171616 60.0
147.21553 140.0
147.280533 120.0
147.306686 72.0
147.33606 108.0
147.380081 72.0
147.411057 160.0
147.434738 56.0
147.697556 72.0
147.712753 144.0
147.732101 72.0
147.767822 144.0
147.797409 52.0
147.816864 212.0
147.958862 152.0
148.032196 108.0
148.074371 10380.0
148.121796 60.0
148.174088 148.0
148.211426 88.0
148.241547 168.0
148.281693 144.0
148.313187 120.0
148.34227 112.0
148.382019 232.0
148.42955 164.0
148.460052 144.0
148.585312 192.0
148.759476 72.0
148.81044 124.0
148.861435 96.0
148.982864 116.0
149.001328 152.0
149.072647 1912.0
149.125565 60.0
149.142883 324.0
149.182114 64.0
149.269623 116.0
149.291504 52.0
149.357162 72.0
149.405823 96.0
149.435013 236.0
149.452042 108.0
149.510437 148.0
149.64917 204.0
149.685684 40.0
149.744125 36.0
149.824493 88.0
149.955185 88.0
150.01944 160.0
150.07785 312.0
150.151276 52.0
150.192551 104.0
150.211685 52.0
150.251083 192.0
150.282806 96.0
150.334045 132.0
150.651413 188.0
150.673401 108.0
150.707596 148.0
150.732025 120.0
150.788223 184.0
150.939774 200.0
150.988678 164.0
151.030289 1124.0
151.078903 180.0
151.136993 88.0
151.358154 72.0
151.561432 140.0
151.605545 56.0
151.752594 36.0
151.772217 160.0
151.804092 108.0
151.926712 228.0
151.976486 152.0
151.997849 216.0
152.066559 212.0
152.108276 136.0
152.142639 152.0
152.267853 188.0
152.328278 120.0
152.373474 156.0
152.498779 160.0
152.614304 164.0
152.754181 164.0
153.028305 360.0
153.047134 1036.0
153.091629 136.0
153.118713 180.0
153.153198 136.0
153.248001 180.0
153.379852 184.0
153.71373 132.0
153.794189 244.0
153.850967 116.0
153.897873 44.0
154.06163 548.0
154.127548 112.0
154.214035 156.0
154.325272 56.0
154.435944 152.0
154.505798 184.0
154.661667 48.0
154.681473 140.0
154.706223 80.0
154.742035 180.0
154.879547 112.0
154.904312 196.0
155.003403 124.0
155.044601 216.0
155.219025 44.0
155.610794 216.0
155.710342 176.0
155.77739 164.0
155.824585 176.0
155.950134 228.0
155.985458 200.0
156.06604 176.0
156.088028 132.0
156.155167 216.0
156.172577 104.0
156.199936 148.0
156.247192 44.0
156.311874 108.0
156.493561 152.0
156.650436 88.0
156.991867 108.0
157.050644 320.0
157.076645 160.0
157.307999 184.0
157.353622 232.0
157.39357 148.0
157.470978 196.0
157.543411 160.0
157.770798 144.0
157.880798 272.0
157.98584 76.0
158.025864 156.0
158.060333 1420.0
158.095917 48.0
158.183517 156.0
158.291153 132.0
158.311188 228.0
158.337433 216.0
158.875336 180.0
158.987976 88.0
159.06665 3312.0
159.158661 148.0
159.208878 108.0
159.349518 380.0
159.55307 124.0
159.588272 128.0
159.741653 224.0
159.960556 88.0
160.020966 124.0
160.075317 15236.0
160.139313 32.0
160.213928 64.0
160.260223 48.0
160.345886 180.0
160.43158 112.0
160.492081 132.0
160.60051 48.0
160.645905 92.0
160.754379 44.0
160.779617 136.0
160.807373 148.0
160.835144 208.0
160.900757 112.0
161.026657 164.0
161.079437 1968.0
161.122986 376.0
161.158356 176.0
161.19519 228.0
161.337769 80.0
161.403503 168.0
161.547638 60.0
161.595703 176.0
161.618469 160.0
161.896896 192.0
161.981201 136.0
162.052094 488.0
162.090851 1580.0
162.218643 44.0
162.249054 160.0
162.320129 120.0
162.482346 88.0
162.553391 144.0
162.588913 36.0
162.634583 44.0
162.842758 156.0
163.068863 52.0
163.096558 772.0
163.15274 280.0
163.226456 160.0
163.475723 112.0
163.638611 172.0
163.697159 60.0
163.722626 164.0
163.758286 184.0
163.816864 148.0
163.847427 56.0
163.895828 128.0
163.913666 108.0
163.9366 160.0
164.018143 124.0
164.03598 192.0
164.102982 344.0
164.153244 232.0
164.260361 124.0
164.454254 136.0
164.528275 68.0
164.740219 116.0
164.768311 148.0
164.890945 92.0
165.062561 148.0
165.090332 108.0
165.138916 96.0
165.233566 56.0
165.404999 212.0
165.522751 116.0
165.543243 108.0
165.566284 180.0
165.827576 240.0
165.914719 120.0
165.963425 80.0
166.207077 208.0
166.255829 160.0
166.407257 132.0
166.689758 204.0
166.915939 96.0
166.949371 144.0
167.023941 212.0
167.084564 356.0
167.15329 184.0
167.216888 116.0
167.371338 108.0
167.531006 208.0
167.565643 156.0
167.644348 212.0
167.698471 144.0
167.731979 176.0
167.79126 156.0
167.956284 156.0
167.987228 176.0
168.01561 132.0
168.049149 176.0
168.097488 200.0
168.123962 192.0
168.167831 144.0
168.250427 136.0
168.552582 128.0
168.570663 176.0
168.614594 52.0
168.748734 180.0
168.821396 84.0
168.842072 136.0
168.883453 276.0
169.043839 104.0
169.174179 176.0
169.206894 164.0
169.294907 44.0
169.318222 192.0
169.336349 252.0
169.369461 132.0
169.389511 220.0
169.421051 148.0
169.478302 204.0
169.520264 72.0
169.572083 176.0
169.699677 68.0
169.883209 124.0
169.927307 116.0
170.068085 236.0
170.090775 72.0
170.199799 188.0
170.225769 108.0
170.359009 128.0
170.42836 52.0
170.493988 112.0
170.521896 140.0
170.547165 240.0
170.631058 196.0
170.650848 216.0
171.06424 340.0
171.090302 620.0
171.232086 224.0
171.323242 180.0
171.383163 160.0
171.487122 204.0
171.549942 168.0
171.604675 64.0
171.794678 200.0
171.886353 180.0
171.987305 244.0
172.07515 6796.0
172.134293 180.0
172.212631 156.0
172.267487 64.0
172.468414 136.0
172.527328 36.0
172.615051 168.0
172.777206 148.0
172.824295 132.0
172.871384 80.0
172.934189 112.0
173.02095 136.0
173.08345 29736.0
173.136337 64.0
173.172638 224.0
173.222183 48.0
173.270203 72.0
173.30455 108.0
173.323029 104.0
173.341888 172.0
173.37413 72.0
173.395096 124.0
173.429169 52.0
173.455368 32.0
173.499237 100.0
173.529144 164.0
173.568085 208.0
173.586441 48.0
173.637009 128.0
173.665115 148.0
173.696579 140.0
173.736893 124.0
173.806763 144.0
173.828781 204.0
173.914352 56.0
173.943222 88.0
173.995712 80.0
174.047562 176.0
174.08757 6648.0
174.150879 68.0
174.203156 112.0
174.318741 88.0
174.347656 44.0
174.40184 168.0
174.421234 156.0
174.515869 48.0
174.557922 96.0
174.618408 120.0
174.652603 68.0
174.707825 72.0
174.794174 112.0
174.938599 160.0
174.970978 136.0
175.01828 124.0
175.051254 1744.0
175.090622 1084.0
175.128952 60.0
175.176361 52.0
175.300186 176.0
175.400406 124.0
175.43985 144.0
175.458313 52.0
175.477722 140.0
175.508392 68.0
175.543671 236.0
175.566406 100.0
175.653427 108.0
175.67981 52.0
175.988556 120.0
176.007034 144.0
176.070404 184.0
176.088684 148.0
176.202469 180.0
176.239456 80.0
176.358353 132.0
176.535477 136.0
176.5672 256.0
176.585709 116.0
176.604233 72.0
176.649185 164.0
176.717972 140.0
176.776169 204.0
176.998505 76.0
177.067352 228.0
177.096481 56.0
177.199783 152.0
177.234222 216.0
177.32431 72.0
177.353455 132.0
177.470093 148.0
177.549637 136.0
177.797333 240.0
177.833481 176.0
177.894531 160.0
177.990097 152.0
178.035233 164.0
178.075073 196.0
178.133499 164.0
178.154739 120.0
178.258362 176.0
178.306183 132.0
178.36731 200.0
178.417816 144.0
178.486938 160.0
178.53479 148.0
178.617233 88.0
178.681076 192.0
178.731613 108.0
178.77951 164.0
178.811447 220.0
178.939209 140.0
179.02655 400.0
179.112274 92.0
179.555481 144.0
179.618683 124.0
179.704041 132.0
179.800095 160.0
180.109772 152.0
180.133804 172.0
180.376938 168.0
180.483871 128.0
180.569443 152.0
180.593506 140.0
180.732605 204.0
180.799484 224.0
180.901184 192.0
180.997559 124.0
181.039749 784.0
181.166275 44.0
181.273438 108.0
181.338318 204.0
181.388672 36.0
181.564758 228.0
181.710434 56.0
181.737259 72.0
181.844589 160.0
181.890213 216.0
181.94754 212.0
182.045914 156.0
182.070084 160.0
182.091568 116.0
182.121109 48.0
182.262878 144.0
182.577957 68.0
182.616608 216.0
182.682846 204.0
182.852341 32.0
183.000381 180.0
183.036789 376.0
183.113464 104.0
183.172714 132.0
183.253525 156.0
183.323578 192.0
183.486908 144.0
183.526688 212.0
183.549988 184.0
183.703705 176.0
183.84668 80.0
183.876373 88.0
184.044815 168.0
184.119324 168.0
184.397568 116.0
184.425598 128.0
185.062943 92.0
185.106262 136.0
185.149582 72.0
185.220001 112.0
185.418518 124.0
185.736374 184.0
185.831711 204.0
185.837631 136.0
185.846878 184.0
185.908569 224.0
185.938431 140.0
186.049698 260.0
186.074127 136.0
186.647369 36.0
186.723495 256.0
186.9776 176.0
187.033966 164.0
187.084641 500.0
187.41214 172.0
187.436661 128.0
187.510223 144.0
187.712601 164.0
187.782837 180.0
187.918594 124.0
187.990158 144.0
188.036545 248.0
188.07016 2168.0
188.10643 144.0
188.133102 144.0
188.152939 148.0
188.236603 136.0
188.26857 164.0
188.307724 188.0
188.327362 136.0
188.389084 96.0
188.418777 156.0
188.465225 124.0
188.53627 176.0
188.583832 148.0
188.649948 200.0
188.67157 128.0
188.698257 464.0
188.747513 288.0
188.798676 80.0
188.821472 228.0
188.840805 128.0
188.861572 40.0
188.891663 200.0
188.910812 212.0
188.939499 164.0
188.959564 332.0
188.969849 192.0
188.974503 196.0
189.007141 168.0
189.1026 172668.0
189.169525 132.0
189.219849 196.0
189.230286 48.0
189.257431 76.0
189.291321 56.0
189.317673 60.0
189.336044 152.0
189.368195 144.0
189.395264 52.0
189.43045 208.0
189.456436 188.0
189.491196 140.0
189.529739 72.0
189.552948 880.0
189.591049 188.0
189.621445 144.0
189.643417 104.0
189.667648 132.0
189.693054 192.0
189.715836 72.0
189.736115 100.0
189.767136 64.0
189.795822 112.0
189.825638 192.0
189.847015 212.0
189.865417 64.0
189.885818 44.0
189.934555 80.0
189.957123 160.0
190.004974 188.0
190.03006 88.0
190.07225 1948.0
190.105957 21604.0
190.157394 48.0
190.198837 176.0
190.237 88.0
190.261703 52.0
190.278168 52.0
190.298813 52.0
190.321732 60.0
190.341949 360.0
190.367142 68.0
190.387985 132.0
190.422089 48.0
190.473129 148.0
190.514618 76.0
190.533554 144.0
190.564926 104.0
190.615967 60.0
190.65097 124.0
190.701157 76.0
190.781845 100.0
190.839844 96.0
190.857056 156.0
190.88533 60.0
190.91861 116.0
190.97934 200.0
191.003571 120.0
191.040359 244.0
191.080444 2488.0
191.117249 15676.0
191.161301 216.0
191.203369 116.0
191.229172 60.0
191.2603 64.0
191.283585 104.0
191.332626 164.0
191.354355 136.0
191.400299 96.0
191.435623 152.0
191.461395 120.0
191.508224 196.0
191.54924 332.0
191.570572 372.0
191.621902 236.0
191.634888 104.0
191.642395 168.0
191.673355 256.0
191.696381 132.0
191.716583 72.0
191.749557 76.0
191.788239 76.0
191.824066 80.0
191.843353 68.0
191.865967 80.0
191.957718 124.0
192.081451 424.0
192.121704 1764.0
192.158066 64.0
192.213593 176.0
192.252609 112.0
192.30925 96.0
192.331558 68.0
192.378479 84.0
192.407059 152.0
192.505463 92.0
192.591248 184.0
192.672775 128.0
192.698792 56.0
192.823135 52.0
192.875641 64.0
193.030167 120.0
193.088516 188.0
193.125916 160.0
193.229034 184.0
193.262772 112.0
193.343002 108.0
193.378983 72.0
193.426422 56.0
193.506302 60.0
193.561676 124.0
193.88298 56.0
193.959457 148.0
193.993835 60.0
194.029877 236.0
194.149094 96.0
194.445908 68.0
194.470886 88.0
194.537491 148.0
194.717957 92.0
194.776276 124.0
195.024811 212.0
195.048553 72.0
195.140289 56.0
195.332153 76.0
195.68277 96.0
195.718948 132.0
195.997467 48.0
196.029007 396.0
196.186966 80.0
196.602509 40.0
196.736481 60.0
196.839767 104.0
197.021301 140.0
197.127808 128.0
197.275574 112.0
197.781815 84.0
197.994583 56.0
198.02562 328.0
198.050598 192.0
198.179443 104.0
198.355972 168.0
198.49614 68.0
198.843964 168.0
198.995529 40.0
199.090775 200.0
199.121887 136.0
199.279175 120.0
199.70079 128.0
199.748611 76.0
199.841431 92.0
199.96524 112.0
200.069382 256.0
200.10463 120.0
200.184799 104.0
200.458023 164.0
200.491837 68.0
200.567917 44.0
200.872421 212.0
200.962692 64.0
201.052765 156.0
201.140457 180.0
201.191116 72.0
201.487762 160.0
201.55275 64.0
201.874954 176.0
202.055084 204.0
202.092743 168.0
202.474838 80.0
202.636292 68.0
202.701447 116.0
202.721283 64.0
202.928177 120.0
203.030243 80.0
203.084061 976.0
203.116196 2344.0
203.228333 148.0
203.254318 92.0
203.580734 84.0
203.6716 220.0
203.700012 128.0
203.788071 44.0
204.085587 460.0
204.121124 352.0
204.854813 64.0
205.096359 220.0
205.764435 112.0
206.378647 116.0
206.473007 96.0
206.5159 144.0
206.67894 68.0
206.992371 260.0
207.016052 496.0
207.225754 136.0
207.406281 48.0
207.850754 184.0
208.147964 116.0
208.370377 96.0
208.427841 168.0
208.603134 72.0
208.979843 132.0
209.036438 2496.0
209.189911 140.0
209.212936 84.0
209.250351 168.0
209.469193 36.0
209.524261 168.0
209.67662 140.0
210.038239 408.0
210.322617 260.0
210.565125 76.0
210.683533 184.0
210.804871 76.0
211.034348 504.0
211.377365 80.0
211.520218 132.0
211.695755 140.0
212.049149 152.0
212.269455 164.0
212.301346 68.0
212.533386 208.0
213.106415 168.0
213.256409 140.0
213.422089 104.0
213.442444 240.0
213.960281 60.0
214.107742 340.0
214.563278 152.0
214.90448 68.0
215.032852 56.0
215.091232 196.0
215.400711 44.0
216.070084 200.0
216.093491 140.0
216.116898 108.0
216.717056 224.0
216.758072 80.0
217.097534 1352.0
217.142059 200.0
217.570419 32.0
217.664368 116.0
217.737778 116.0
218.022705 52.0
218.098785 380.0
218.152023 108.0
218.496063 96.0
218.734406 108.0
218.878647 164.0
219.067474 168.0
219.105408 124.0
220.119919 164.0
220.68718 176.0
220.826157 72.0
221.041031 404.0
221.72905 172.0
222.449722 132.0
223.037811 152.0
224.02507 556.0
224.073288 156.0
224.499481 148.0
224.967865 80.0
225.026184 156.0
225.15596 224.0
225.684814 112.0
226.082611 184.0
226.142471 172.0
227.149124 204.0
228.028778 76.0
228.08287 124.0
228.458725 92.0
229.050461 612.0
229.084091 68.0
229.154083 136.0
229.530807 168.0
229.678574 56.0
229.870651 124.0
230.010452 172.0
230.055344 364.0
230.200638 176.0
230.251968 168.0
230.297272 132.0
230.493607 200.0
230.535919 60.0
230.832123 108.0
231.058945 132.0
231.112564 3556.0
231.15274 208.0
231.216278 44.0
231.399796 152.0
231.451279 128.0
231.546234 144.0
232.119324 6744.0
232.171906 108.0
232.246292 76.0
232.343353 72.0
232.45256 124.0
232.48291 72.0
232.853577 112.0
232.90184 44.0
232.951889 176.0
233.059784 144.0
233.124161 1024.0
233.239075 56.0
233.285034 100.0
233.488358 248.0
233.509644 160.0
233.751358 104.0
233.889938 68.0
234.132629 152.0
234.40686 64.0
234.657532 96.0
235.01413 304.0
235.108932 144.0
235.872406 148.0
236.017548 180.0
236.376984 144.0
236.520798 36.0
236.566711 116.0
236.836151 188.0
237.029495 4184.0
237.719009 124.0
237.921555 68.0
238.032135 1356.0
238.643478 28.0
238.892548 44.0
239.029007 1480.0
239.434219 80.0
239.865524 64.0
240.03508 296.0
240.871353 148.0
241.081436 88.0
241.177231 68.0
241.257584 196.0
241.811218 144.0
241.972153 80.0
242.260147 84.0
242.721893 116.0
242.762192 180.0
242.855225 116.0
243.848663 148.0
243.906769 172.0
245.523438 124.0
245.997635 164.0
246.653549 124.0
246.900528 192.0
247.023956 188.0
247.222717 100.0
247.679764 132.0
247.961716 60.0
248.014999 140.0
248.457092 140.0
249.009491 172.0
249.044037 144.0
249.634811 36.0
249.770035 68.0
249.895859 192.0
249.974518 84.0
250.021713 56.0
251.102203 84.0
252.352554 52.0
252.823822 160.0
253.058029 164.0
253.416809 192.0
255.193085 96.0
255.654251 80.0
255.724274 100.0
256.440796 60.0
256.552368 188.0
256.57785 136.0
257.100922 180.0
257.369019 104.0
257.408722 120.0
257.723541 112.0
257.92804 72.0
258.113434 36.0
258.337311 152.0
258.414062 68.0
258.519653 108.0
258.71167 40.0
258.948608 80.0
259.101135 292.0
259.92627 196.0
261.031128 64.0
261.629517 160.0
262.251129 188.0
262.560608 164.0
262.647705 68.0
262.825104 96.0
262.886414 64.0
263.18335 48.0
263.302826 80.0
264.109253 1128.0
264.146332 164.0
264.534576 124.0
264.790344 152.0
264.916656 92.0
265.024841 624.0
265.111115 164.0
265.143463 176.0
265.474091 132.0
265.908752 96.0
265.960693 100.0
266.024384 204.0
266.301575 104.0
266.464844 148.0
266.970978 132.0
267.020477 184.0
268.211304 148.0
268.263458 48.0
268.5047 112.0
268.592743 72.0
269.062622 28.0
269.572083 88.0
270.255432 48.0
271.345947 56.0
273.820038 148.0
274.680206 100.0
274.838531 100.0
275.016724 128.0
275.313843 156.0
275.462433 180.0
275.918427 164.0
276.728912 72.0
276.927582 52.0
277.023834 128.0
277.917816 212.0
278.034821 68.0
278.21402 152.0
279.120972 92.0
280.067871 128.0
280.765839 168.0
281.092712 204.0
281.20285 204.0
281.636841 80.0
281.67691 204.0
282.275085 120.0
282.405518 144.0
282.83374 52.0
284.314972 32.0
284.506287 88.0
285.070496 124.0
285.214996 96.0
285.895142 80.0
286.203949 116.0
287.491486 64.0
288.011353 108.0
288.281616 132.0
288.376221 156.0
288.514801 72.0
288.545227 80.0
288.572266 104.0
288.768372 60.0
289.492554 120.0
290.054413 868.0
290.346436 76.0
290.519409 128.0
290.838348 124.0
291.057343 592.0
292.065948 160.0
293.09964 116.0
293.174622 132.0
293.460907 108.0
294.07489 108.0
295.397095 132.0
296.163727 152.0
296.376129 72.0
296.842255 144.0
296.956909 156.0
297.013702 32.0
297.586731 52.0
298.180939 192.0
298.586578 152.0
298.641602 140.0
299.536438 140.0
300.298126 168.0
300.888123 148.0
301.44986 140.0
301.637665 124.0
301.938446 128.0
302.661621 40.0
303.427216 120.0
303.656067 76.0
304.072357 96.0
304.679932 88.0
304.707733 80.0
304.909241 156.0
305.190796 164.0
305.302063 156.0
306.091888 136.0
307.064087 156.0
307.098938 56.0
307.706055 144.0
308.142578 56.0
308.278839 112.0
309.905762 132.0
310.03891 212.0
311.382446 76.0
311.705597 132.0
312.134399 68.0
312.180084 104.0
312.602173 164.0
312.947113 88.0
313.415497 116.0
313.739716 48.0
314.120514 188.0
314.166382 92.0
314.957001 108.0
314.99234 68.0
315.582458 148.0
315.727417 132.0
316.074036 148.0
316.431488 104.0
316.813934 176.0
317.196594 104.0
317.689453 104.0
317.891663 108.0
318.303406 72.0
319.62912 140.0
320.772217 136.0
321.057434 100.0
321.118042 140.0
321.643158 204.0
321.831665 156.0
322.36026 112.0
322.550629 148.0
322.678345 188.0
322.703369 104.0
322.846405 168.0
323.572693 140.0
323.991638 68.0
324.109863 116.0
324.672607 108.0
324.805298 112.0
325.013367 132.0
325.271729 276.0
325.372223 144.0
325.501465 60.0
325.594818 108.0
326.166046 128.0
326.259491 108.0
326.726959 168.0
326.94281 108.0
327.205566 128.0
328.066467 104.0
328.690369 176.0
329.174011 128.0
330.431702 84.0
331.025238 132.0
331.423645 112.0
331.615692 152.0
331.840424 40.0
332.003571 112.0
332.395996 108.0
332.584015 92.0
333.150421 128.0
333.70639 128.0
334.553986 124.0
335.399017 104.0
335.625 148.0
335.942261 52.0
336.617401 144.0
336.862091 108.0
337.026459 112.0
337.12146 32.0
338.976562 36.0
339.167114 124.0
339.398071 132.0
339.757446 144.0
340.414368 164.0
340.513519 180.0
340.998444 124.0
342.050262 212.0
342.186462 148.0
342.234314 52.0
342.359497 112.0
342.812561 76.0
343.269623 120.0
343.347046 132.0
344.048035 48.0
344.132935 152.0
344.432037 116.0
344.690643 152.0
344.890167 108.0
346.029419 104.0
346.573822 104.0
346.74057 164.0
347.109467 144.0
347.181671 112.0
347.430176 132.0
348.161316 180.0
348.205872 128.0
349.610992 136.0
350.024139 76.0
351.160645 120.0
352.414795 172.0
352.491882 156.0
352.57547 56.0
353.360626 116.0
353.431702 56.0
353.480347 184.0
354.165375 108.0
354.285248 68.0
354.828583 68.0
354.989807 124.0
355.151062 72.0
355.21106 96.0
355.278564 136.0
355.30484 152.0
355.417389 80.0
355.59375 32.0
355.725098 108.0
355.781403 104.0
355.811432 52.0
355.927795 200.0
356.370972 64.0
356.626495 44.0
358.383728 92.0
358.80957 68.0
359.72995 104.0
360.118835 108.0
360.17926 72.0
360.700653 36.0
360.965271 84.0
361.108612 132.0
361.869476 120.0
361.941406 84.0
362.373138 100.0
363.396729 208.0
363.453644 52.0
364.30777 172.0
364.520508 176.0
365.257996 48.0
365.516693 120.0
365.798279 152.0
366.194244 60.0
366.2742 208.0
366.300873 92.0
366.377045 176.0
366.826691 56.0
367.043976 196.0
367.303284 132.0
367.364288 176.0
367.822174 192.0
367.879425 68.0
369.075104 156.0
369.189819 196.0
369.388672 28.0
369.564636 56.0
370.087708 160.0
370.625122 120.0
371.207703 160.0
372.973541 64.0
373.40799 248.0
374.393097 44.0
374.562531 144.0
375.024872 128.0
375.051849 144.0
375.209869 88.0
376.270721 56.0
376.506226 260.0
376.730225 104.0
377.553406 88.0
378.102722 164.0
378.640778 84.0
379.163757 108.0
379.636658 176.0
379.939148 108.0
379.989594 144.0
380.33493 168.0
380.447479 44.0
381.846161 132.0
382.083435 156.0
382.705902 164.0
383.076019 132.0
384.101624 244.0
384.452209 88.0
384.631714 152.0
384.873749 128.0
385.10022 108.0
385.381439 88.0
385.666687 48.0
385.912933 212.0
386.875275 212.0
387.157166 180.0
387.709473 172.0
388.450439 160.0
389.808716 60.0
390.217438 76.0
390.819153 124.0
391.153625 188.0
391.18512 128.0
391.834839 96.0
392.102753 112.0
392.315582 180.0
392.630981 96.0
393.925476 72.0
393.992615 136.0
394.083466 124.0
394.245453 136.0
394.763275 120.0
395.087555 156.0
395.427826 160.0
395.653412 128.0
395.689056 224.0
395.777557 212.0
395.970154 68.0
396.837891 48.0
396.889435 96.0
397.317719 124.0
398.389496 116.0
398.532501 164.0
399.303589 164.0
399.530304 212.0
399.633728 172.0
402.395477 156.0
402.694946 72.0
402.906616 168.0
403.11438 148.0
403.877899 144.0
403.933868 76.0
404.329956 112.0
404.85434 128.0
405.491272 128.0
406.05249 172.0
406.180817 144.0
406.509766 160.0
406.622131 92.0
407.786713 88.0
407.818878 88.0
407.887207 136.0
408.10025 108.0
408.172607 100.0
409.113983 100.0
409.649506 124.0
409.895233 132.0
410.765991 140.0
411.125031 160.0
411.157318 184.0
411.20575 112.0
411.799164 140.0
412.037476 100.0
412.090973 296.0
412.136139 124.0
412.635559 124.0
413.113281 144.0
413.748016 140.0
414.10025 288.0
414.967346 132.0
415.409332 100.0
416.342773 180.0
416.432098 200.0
416.679382 172.0
416.728607 124.0
417.159363 160.0
417.269104 120.0
417.704193 140.0
417.91571 120.0
418.432556 44.0
419.164581 340.0
419.507935 92.0
419.560944 216.0
419.699524 96.0
419.744385 156.0
422.16156 132.0
423.282684 68.0
423.31134 160.0
423.491516 88.0
423.76593 88.0
424.167511 152.0
424.216705 176.0
424.696411 36.0
424.749725 88.0
425.213318 148.0
425.356934 108.0
425.525238 108.0
425.755157 160.0
426.133026 212.0
426.252167 124.0
426.568604 124.0
426.852264 160.0
427.142029 180.0
427.181244 176.0
427.588531 88.0
427.934296 164.0
428.098969 108.0
428.976471 192.0
429.153717 148.0
429.545471 112.0
429.995148 152.0
430.094208 132.0
430.717621 88.0
430.825012 140.0
431.581268 80.0
432.164398 64.0
433.02533 252.0
433.128876 80.0
434.691711 120.0
434.878448 176.0
434.961426 44.0
435.50116 204.0
435.754547 132.0
436.228241 72.0
436.664795 136.0
436.747955 144.0
437.129364 308.0
437.188934 88.0
437.542694 56.0
437.817474 72.0
437.971558 68.0
438.143372 208.0
438.225647 40.0
439.111877 232.0
439.689117 80.0
439.818512 116.0
440.098175 124.0
440.332001 152.0
440.657776 116.0
440.741333 68.0
441.083984 108.0
441.380798 104.0
441.518768 116.0
443.683319 136.0
443.851013 104.0
444.119385 180.0
444.887207 228.0
445.269257 104.0
446.689758 68.0
446.761292 144.0
446.794922 80.0
448.053558 84.0
448.213654 156.0
448.449615 84.0
448.66037 204.0
448.871155 128.0
449.32663 204.0
449.803436 96.0
450.060944 104.0
450.267822 136.0
450.331177 68.0
450.419861 108.0
450.605713 120.0
450.825409 112.0
450.859222 56.0
451.133942 160.0
451.332611 132.0
451.417175 84.0
451.679382 92.0
451.835876 56.0
451.890869 96.0
452.01355 140.0
452.322479 68.0
452.483337 124.0
452.586151 124.0
452.623047 140.0
452.77124 88.0
452.826294 128.0
453.075256 148.0
453.206146 88.0
453.351562 160.0
453.413208 104.0
453.584747 104.0
453.717957 140.0
453.749939 64.0
453.800812 68.0
453.855927 72.0
453.913818 140.0
453.953461 84.0
454.01825 204.0
454.075287 104.0
454.15274 80.0
454.224548 140.0
454.286163 124.0
454.320679 108.0
454.350281 148.0
454.404053 268.0
454.558716 80.0
454.649078 176.0
454.686523 88.0
454.756439 220.0
454.800873 136.0
454.885254 124.0
454.950897 244.0
455.019775 160.0
455.066559 260.0
455.137512 98916.0
455.247681 112.0
455.30014 196.0
455.34671 188.0
455.373688 100.0
455.414276 112.0
455.469269 168.0
455.504913 160.0
455.572357 60.0
455.621338 224.0
455.710541 28.0
455.763184 36.0
455.799072 152.0
455.838593 440.0
455.90863 180.0
455.97287 160.0
456.039398 272.0
456.140259 24024.0
456.274475 80.0
456.306946 188.0
456.355652 80.0
456.405334 100.0
456.467041 52.0
456.543579 168.0
456.617188 280.0
456.665314 156.0
456.732635 88.0
456.786011 168.0
456.820374 248.0
456.922943 124.0
456.99231 112.0
457.069733 148.0
457.134369 30524.0
457.249023 124.0
457.309845 56.0
457.409088 60.0
457.529572 64.0
457.553833 88.0
457.616974 144.0
457.739227 44.0
457.793365 196.0
457.826935 60.0
457.83963 104.0
457.922333 48.0
457.971375 124.0
458.028809 36.0
458.137512 5328.0
458.263 132.0
458.385529 200.0
458.425964 52.0
458.499847 92.0
458.547882 208.0
458.603973 160.0
458.676422 72.0
458.749115 124.0
458.801453 156.0
458.850677 68.0
458.864777 92.0
458.9021 76.0
458.907257 100.0
458.942474 160.0
458.972931 172.0
459.033508 104.0
459.108948 248.0
459.146912 716.0
459.188477 96.0
459.303162 36.0
459.35257 80.0
459.396179 64.0
459.479095 96.0
459.610291 56.0
459.695618 104.0
459.737091 72.0
459.849243 184.0
459.918518 68.0
459.972046 76.0
460.066925 72.0
460.101074 52.0
460.251678 112.0
460.280365 152.0
460.391388 32.0
460.451172 136.0
460.485321 48.0
460.684692 100.0
460.727112 132.0
460.799347 208.0
460.832275 140.0
460.895386 64.0
460.993652 108.0
461.177399 48.0
461.207306 80.0
461.485168 40.0
461.669006 80.0
461.728882 60.0
461.780182 72.0
461.951263 148.0
462.064575 140.0
462.344849 108.0
462.421875 68.0
462.588806 80.0
462.627319 92.0
463.266907 68.0
463.355286 100.0
463.646637 72.0
463.865204 52.0
463.998077 32.0
464.225311 32.0
464.667053 36.0
464.776276 96.0
465.074677 96.0
465.868988 52.0
467.760864 64.0
468.462708 92.0
468.772858 44.0
468.876282 44.0
469.225403 76.0
470.653381 124.0
470.830414 56.0
472.148376 64.0
472.676086 108.0
472.710693 44.0
472.879456 120.0
473.385925 104.0
474.152618 36.0
474.412659 72.0
474.893921 80.0
476.386932 136.0
477.064789 48.0
477.934509 40.0
479.600922 116.0
480.208252 164.0
480.273682 48.0
480.378357 60.0
480.740448 40.0
482.098419 84.0
484.842041 88.0
485.824097 52.0
486.100464 84.0
488.353943 80.0
491.662292 56.0
492.408325 64.0
494.07016 96.0
494.884399 100.0
501.137421 48.0
504.055237 120.0
504.229492 100.0
504.739075 128.0
511.899994 172.0
513.937195 128.0
520.118408 116.0
522.158264 124.0
525.54248 40.0
527.062805 88.0
527.108521 124.0
527.300415 68.0
531.967346 96.0
532.623901 108.0
535.935852 128.0
538.020325 52.0
545.417358 56.0
555.713623 72.0
564.927734 44.0
565.003418 92.0
569.937805 144.0
574.21283 112.0
583.097778 48.0
585.81604 56.0
586.832825 124.0
593.504517 72.0
598.260376 116.0
601.936218 92.0
601.994812 52.0
609.355957 60.0
614.594116 104.0
615.196167 52.0
616.663025 64.0
621.040344 64.0
623.18866 156.0
626.212891 104.0
627.074707 96.0
629.968445 148.0
632.293213 36.0
640.531677 92.0
641.090881 52.0
642.865784 72.0
643.991455 52.0
645.214172 80.0
648.037964 88.0
650.365356 108.0
652.829163 76.0
653.149536 52.0
654.879944 52.0
658.138245 108.0
660.580872 240.0
668.769348 216.0
669.340759 76.0
672.123901 108.0
676.489502 92.0
679.241943 112.0
680.632629 60.0
687.86853 60.0
690.778809 88.0
691.160706 52.0
693.249756 48.0
695.530945 112.0
703.605347 132.0
704.730164 64.0
705.04187 56.0
705.344788 64.0
707.162476 60.0
709.577698 136.0
709.853394 68.0
712.512268 136.0
718.266235 176.0
719.829773 60.0
722.18103 108.0
723.438354 40.0
724.102234 156.0
724.57605 60.0
731.198975 136.0
733.999939 44.0
736.007019 48.0
737.308716 96.0
743.677246 64.0
746.105103 188.0
749.184998 168.0
750.531006 56.0
758.13385 80.0
759.855408 112.0
760.453491 68.0
766.634399 140.0
771.92218 88.0
773.819885 196.0
775.924927 92.0
776.263123 48.0
777.011841 76.0
782.11261 52.0
782.274048 100.0
788.291382 68.0
796.161255 80.0
796.458923 84.0
799.674683 60.0
803.308655 92.0
806.515564 168.0
809.213684 108.0
812.750061 112.0
816.072449 160.0
819.128174 76.0
821.47644 184.0
822.366516 64.0
826.520691 40.0
834.595947 28.0
835.861206 44.0
837.069885 124.0
857.984314 72.0
862.776794 68.0
864.548889 196.0
866.510193 44.0
868.075012 120.0
870.468933 116.0
871.872803 40.0
872.078491 108.0
872.548706 124.0
873.930664 96.0
889.424316 124.0
895.559814 140.0
896.667908 192.0
898.205994 36.0
900.688843 220.0
901.567017 96.0
907.438477 68.0
912.956116 100.0
913.707886 108.0
914.357666 88.0
915.308716 184.0
916.977234 92.0
917.067627 224.0
919.558289 136.0
924.047607 200.0
930.574341 128.0
939.568604 212.0
944.173645 192.0
944.925964 68.0
947.907471 220.0
949.090393 92.0
951.298828 164.0
953.153381 116.0
956.092468 80.0
957.545227 52.0
959.436707 156.0
971.8172 164.0
972.1026 124.0
972.977661 88.0
977.57666 124.0
978.068298 60.0
978.174072 180.0
981.28241 172.0
982.847778 236.0
983.540405 176.0
985.476135 56.0
986.282166 88.0
997.934875 200.0
998.004028 68.0
998.198975 56.0
998.43158 152.0
998.551086 88.0
1003.128113 40.0
1006.16217 148.0
1008.195862 232.0
1008.296936 132.0
1009.301941 152.0
1010.187256 148.0
1013.624756 52.0
1015.843506 168.0
1017.944092 92.0
1019.455811 120.0
1022.005371 164.0
1022.826294 208.0
1027.31189 36.0
1034.679443 160.0
1035.889648 236.0
1036.63916 244.0
1040.243286 108.0
1045.809204 136.0
1050.080444 64.0
1051.751343 140.0
1054.760986 88.0
1056.267456 128.0
1056.493896 128.0
1057.535522 108.0
1060.715576 132.0
1063.783447 220.0
1065.634155 28.0
1071.899414 136.0
1072.49231 120.0
1073.215942 152.0
1073.959229 164.0
1074.174438 76.0
1074.337524 184.0
1074.513672 156.0
1075.799194 68.0
1078.77771 212.0
1079.261475 124.0
1081.367676 256.0
1082.356079 176.0
1082.513184 224.0
1084.39978 108.0
1084.911011 152.0
1085.848511 176.0
1086.327271 64.0
1088.118652 68.0
1091.337769 188.0
1093.46228 120.0
1096.689209 228.0
1099.815186 232.0
1101.723389 220.0
1101.881958 88.0
1102.053711 132.0
1106.994263 80.0
1110.72522 208.0
1113.725098 216.0
1114.15686 136.0
1115.020508 136.0
1121.182495 128.0
1121.315796 188.0
1125.357788 248.0
1126.760254 140.0
1128.484375 184.0
1129.995728 192.0
1132.00354 68.0
1132.921021 76.0
1134.830811 180.0
1137.379761 148.0
1138.769531 180.0
1139.226196 80.0
1139.515137 196.0
1139.830811 176.0
1139.891357 68.0
1140.570068 108.0
1140.771606 228.0
1143.791626 180.0
1145.178467 140.0
1146.882935 204.0
1147.543579 228.0
1148.710083 204.0
1150.295776 80.0
1154.193481 144.0
1154.42334 212.0
1155.762573 152.0
1156.506958 96.0
1160.374512 148.0
1160.421997 204.0
1161.825684 148.0
1163.033447 176.0
1165.681763 128.0
1165.88562 136.0
1166.449707 260.0
1168.462402 172.0
1170.86499 148.0
1173.078491 196.0
1173.161011 172.0
1173.713135 136.0
1173.808594 148.0
1174.611572 80.0
1175.268188 200.0
1177.677734 132.0
1177.752808 136.0
1178.900513 188.0
1180.821289 152.0
1180.875977 48.0
1181.394775 128.0
1189.398682 132.0
1190.126221 220.0
1194.709961 212.0
1194.81311 184.0
1198.771729 232.0
1200.412231 148.0
1201.170776 184.0
1201.522583 176.0
1202.067505 132.0
1204.815186 128.0
1205.27124 176.0
1205.52478 200.0
1206.480591 104.0
1206.83313 160.0
1208.423706 208.0
1208.845703 180.0
1210.008423 236.0
1210.866943 128.0
1211.337891 152.0
1211.9198 180.0
1213.55542 156.0
1214.970093 200.0
1215.51123 128.0
1216.468872 192.0
1216.795044 240.0
1217.08667 156.0
1217.371338 188.0
1217.968506 164.0
1219.477783 152.0
1221.70105 92.0
1222.132324 52.0
1223.52417 144.0
1224.115845 112.0
1227.174438 136.0
1228.707275 176.0
1230.2229 160.0
1232.226929 64.0
1233.386841 136.0
1233.834229 104.0
1234.449463 68.0
1234.561279 100.0
1236.310059 180.0
1236.890869 168.0
1237.331909 168.0
1239.313721 200.0
1239.776123 188.0
1240.7854 112.0
1240.897583 172.0
1241.002686 140.0
1244.187622 116.0
1246.167847 156.0
1246.891602 100.0
1247.439819 128.0
1250.288086 168.0
1251.364868 112.0
1251.533813 72.0
1254.492554 64.0
1254.584229 48.0
1255.839233 72.0
1257.024292 40.0
1257.454712 148.0
1257.553467 60.0
1259.756348 140.0
1260.540527 140.0
1261.551025 196.0
1263.990845 220.0
1264.387085 100.0
1265.25769 176.0
1266.085938 168.0
1266.730469 140.0
1267.155518 184.0
1267.686768 228.0
1267.835571 116.0
1268.197021 128.0
1269.217773 148.0
1269.288696 204.0
1269.39502 144.0
1270.352417 168.0
1270.799316 96.0
1270.905762 160.0
1272.679932 192.0
1273.844604 160.0
1274.753906 136.0
1281.555664 92.0
1281.94751 132.0
1285.06311 228.0
1286.490356 108.0
1286.875854 136.0
1287.189941 128.0
1288.389771 108.0
1288.453979 128.0
1290.512085 168.0
1290.791016 184.0
1292.435913 80.0
1292.621948 180.0
1294.454224 76.0
1295.557129 136.0
1299.872925 204.0
1302.115112 228.0
1302.873779 156.0
1303.017456 124.0
1303.089233 140.0
1303.743042 104.0
1303.856812 96.0
1304.023315 80.0
1304.712769 168.0
1306.115479 140.0
1306.180176 272.0
1306.683716 84.0
1307.287964 132.0
1307.475098 176.0
1309.713989 132.0
1310.174927 120.0
1310.520752 104.0
1311.241333 128.0
1312.365723 108.0
1312.459473 152.0
1314.392334 184.0
1314.904663 184.0
1314.9552 232.0
1315.655273 144.0
1316.352173 88.0
1318.233521 184.0
1320.734619 104.0
1320.821411 96.0
1320.893799 80.0
1321.19751 120.0
1321.761841 160.0
1324.027466 152.0
1327.802856 60.0
1330.734131 164.0
1331.452881 140.0
1331.641724 176.0
1332.942017 140.0
1333.661377 184.0
1334.475464 140.0
1336.577271 192.0
1339.168579 164.0
1339.489136 200.0
1339.78772 176.0
1340.428833 136.0
1340.516235 76.0
1341.048218 204.0
1341.172119 208.0
1342.360352 236.0
1342.834229 140.0
1343.016602 132.0
1343.155151 204.0
1343.271851 104.0
1343.651123 156.0
1345.081299 156.0
1345.555786 116.0
1345.896118 192.0
1345.925659 120.0
1345.944214 152.0
1346.285889 160.0
1346.658325 232.0
1346.826294 108.0
1348.192383 228.0
1348.703857 144.0
1348.776978 56.0
1349.983154 180.0
1350.999756 136.0
1351.416748 244.0
1352.287476 168.0
1353.627075 128.0
1354.359253 248.0
1354.80603 56.0
1355.143066 168.0
1356.432739 396.0
1357.12915 268.0
1358.03833 164.0
1358.140991 44.0
1358.595825 120.0
1359.644897 168.0
1360.1073 240.0
1360.760498 140.0
1361.223022 184.0
1364.771729 180.0
1365.624634 160.0
1365.690918 164.0
1369.444214 160.0
1369.569336 144.0
1371.13855 176.0
1371.934448 184.0
1374.028687 96.0
1374.272095 204.0
1374.390137 104.0
1374.655762 212.0
1374.847656 116.0
1375.032104 88.0
1375.748047 124.0
1376.198364 100.0
1376.289795 208.0
1376.759521 152.0
1376.929321 152.0
1379.773804 188.0
1380.527954 132.0
1384.086914 224.0
1384.345947 136.0
1384.612549 228.0
1385.256958 244.0
1386.271851 168.0
1386.338501 192.0
1386.553345 48.0
1386.97583 188.0
1387.287109 260.0
1388.614258 180.0
1389.096313 172.0
1389.202881 280.0
1389.233765 104.0
1389.26355 232.0
1389.526489 196.0
1391.161499 168.0
1392.168701 116.0
1392.488037 52.0
1393.676514 72.0
1394.159424 124.0
1394.575562 196.0
1396.739014 124.0
1396.962158 112.0
1397.653931 56.0
1400.043213 204.0
1400.750732 148.0
1400.840088 116.0
1402.553711 104.0
1402.978638 192.0
1403.619751 440.0
1404.193848 192.0
1404.753296 148.0
1404.939697 128.0
1406.648438 64.0
1406.797729 196.0
1407.626343 76.0
1408.171509 160.0
1410.293091 176.0
1410.36792 140.0
1410.569702 152.0
1411.668579 136.0
1412.622314 216.0
1412.790405 192.0
1413.059692 196.0
1414.945435 152.0
1415.042847 268.0
1415.45459 164.0
1415.866455 76.0
1416.368164 164.0
1416.577881 160.0
1417.918945 248.0
1418.660889 136.0
1419.620483 116.0
1420.422974 192.0
1422.171021 116.0
1423.501465 184.0
1423.980225 188.0
1424.077881 56.0
1424.51355 132.0
1425.783203 108.0
1426.925659 196.0
1427.060913 136.0
1427.341797 220.0
1427.537476 228.0
1428.203857 164.0
1429.189209 180.0
1429.369873 132.0
1429.452637 168.0
1429.670776 100.0
1430.799683 180.0
1430.875 76.0
1431.394409 160.0
1431.467163 244.0
1431.831177 200.0
1431.944092 204.0
1433.15686 176.0
1433.849976 160.0
1434.159058 156.0
1434.249512 192.0
1434.920288 192.0
1435.040894 108.0
1435.742065 140.0
1437.054443 184.0
1437.280762 132.0
1438.057983 212.0
1439.620605 168.0
1440.534424 136.0
1440.594849 156.0
1441.584473 208.0
1441.637329 128.0
1442.430908 112.0
1444.608521 168.0
1445.576782 156.0
1447.824951 196.0
1448.067261 40.0
1449.188232 112.0
1449.385254 52.0
1450.393066 136.0
1451.219238 104.0
1453.320068 172.0
1453.972534 152.0
1454.625244 160.0
1455.529297 160.0
1456.027344 156.0
1457.2146 172.0
1457.556519 180.0
1457.685669 120.0
1457.913574 180.0
1458.544312 172.0
1458.658325 48.0
1459.859497 140.0
1460.011597 176.0
1460.35376 196.0
1460.787231 108.0
1460.893799 156.0
1461.137207 144.0
1461.342529 168.0
1461.913208 164.0
1462.331665 156.0
1462.978638 192.0
1463.229858 216.0
1463.709473 160.0
1464.745117 148.0
1465.834473 144.0
1465.979248 156.0
1466.268799 244.0
1466.329834 176.0
1466.611694 52.0
1467.069092 164.0
1467.274902 164.0
1468.128784 52.0
1468.494751 156.0
1468.862305 188.0
1469.360962 152.0
1469.570312 172.0
1470.130859 144.0
1471.081177 72.0
1471.203369 132.0
1472.241577 140.0
1472.745605 176.0
1472.967163 168.0
1473.646973 220.0
1473.730957 76.0
1473.807373 152.0
1474.258179 200.0
1475.289917 172.0
1475.358765 168.0
1476.237915 128.0
1478.433228 36.0
1478.532715 180.0
1478.625244 172.0
1478.800537 88.0
1478.961182 100.0
1479.220215 180.0
1480.002319 156.0
1480.46936 168.0
1480.744995 140.0
1481.365356 152.0
1482.284668 172.0
1482.706055 188.0
1482.836304 200.0
1483.809692 184.0
1484.300415 168.0
1484.722046 176.0
1485.266602 96.0
1485.895508 188.0
1486.647461 152.0
1487.859985 140.0
1488.174805 156.0
1488.289917 36.0
1488.927246 160.0
1489.0271 128.0
1489.234375 188.0
1490.048584 176.0
1491.254883 216.0
1493.20752 232.0
1493.638184 132.0
1494.353516 188.0
1495.130615 128.0
1496.20813 120.0
1496.485352 160.0
1496.993408 164.0
1497.139771 236.0
1497.578735 68.0
1497.76355 176.0
1498.056152 188.0
1498.609863 152.0
1499.042236 160.0
1499.281128 192.0
1499.389038 60.0
1499.674194 176.0
1501.331543 104.0
1501.902222 200.0
1502.071899 184.0
1502.226196 208.0
1502.927856 128.0
1503.638062 184.0
