>compound Pemetrexed
>formula C20H21N5O6
>ionization [M+H]+
>parentmass 428.156982
#inchi InChI=1S/C20H21N5O6/c21-20-24-16-15(18(29)25-20)12(9-22-16)6-3-10-1-4-11(5-2-10)17(28)23-13(19(30)31)7-8-14(26)27/h1-2,4-5,9,13H,3,6-8H2,(H,23,28)(H,26,27)(H,30,31)(H4,21,22,24,25,29)/p-2/t13-/m1/s1
#inchikey WBXPDJSOTKVWSJ
#origInchi InChI=1S/C20H21N5O6.2Na/c21-20-24-16-15(18(29)25-20)12(9-22-16)6-3-10-1-4-11(5-2-10)17(28)23-13(19(30)31)7-8-14(26)27;;/h1-2,4-5,9,13H,3,6-8H2,(H,23,28)(H,26,27)(H,30,31)(H4,21,22,24,25,29);;/q;2*+1/p-2/t13-;;/m1../s1
#Ion_Source LC-ESI
#Instrument qTof
#Compound_Source Commercial
#PI Dorrestein
#Data_Collector Garg_Neha
#Scan -1
#Precursor_MZ 428.156
#ExactMass 427.149
#Charge 1
#CAS_Number 150399-23-8, 137281-23-3 (free base)
#Pubmed_ID N/A
#Smiles C([C@H](NC(C1C=CC(=CC=1)CCC2=CNC3NC(=NC(C=32)=O)N)=O)CCC(=O)O[Na])(=O)O[Na]
#INCHI_AUX N/A
#Library_Class 1
#SpectrumID CCMSLIB00000078020
#IonMode Positive
#UpdateWorkflowName UPDATE-SINGLE-ANNOTATED-GOLD
#LibraryQualityString Gold
#TaskID 77f51c88eb8b467eb4a01dd2d0cb90d2
##Scan# 1060
#SpectrumFile Plate1_21_40_GG2_01_16489.mzXML
#LibraryName FDALibrary_2_04302014.mgf
#MQScore -1
#Organism FDALibrary_2_04302014
#TIC_Query 0
#RT_Query -1
#MZErrorPPM -1
#SharedPeaks 0
#MassDiff 0
#LibMZ -1
#SpecMZ 428.156
#SpecCharge 0
#internalFilename spec-00000.mgf

>collision 10
45.513638 148.0
45.633224 220.0
45.755661 140.0
45.885002 228.0
46.711121 196.0
46.879951 164.0
47.117378 164.0
47.650341 152.0
48.006859 208.0
48.389618 188.0
48.707203 144.0
49.088558 156.0
49.317528 184.0
51.33659 152.0
51.356556 160.0
52.215946 144.0
52.518417 176.0
53.091167 148.0
53.391796 232.0
53.745792 148.0
53.916649 152.0
55.123211 204.0
55.539242 200.0
55.915157 176.0
55.953857 148.0
57.91367 248.0
58.289925 160.0
58.335522 256.0
58.623196 236.0
58.84285 240.0
58.862698 168.0
58.89019 200.0
59.13789 140.0
59.425995 156.0
60.33007 200.0
60.594723 156.0
60.625713 152.0
60.68927 156.0
61.068199 248.0
61.100864 196.0
61.462349 164.0
61.571625 176.0
62.824249 156.0
63.119606 216.0
63.319012 144.0
63.507622 236.0
63.973537 224.0
64.427734 184.0
64.515633 236.0
64.622787 192.0
65.396309 204.0
65.733139 216.0
65.760574 248.0
68.205582 196.0
69.015068 148.0
69.840973 140.0
70.532982 140.0
70.668442 180.0
71.260323 164.0
71.340988 268.0
72.619293 148.0
72.870537 208.0
73.295921 232.0
73.708878 156.0
74.227554 156.0
74.524513 152.0
74.867241 224.0
75.62825 220.0
76.539711 156.0
77.369072 208.0
79.517929 240.0
79.713287 168.0
81.069565 164.0
81.793396 160.0
82.173653 160.0
82.296387 152.0
82.38308 152.0
83.067375 200.0
84.552414 144.0
84.668869 216.0
84.775841 232.0
85.102364 148.0
86.000755 140.0
86.438766 212.0
86.72213 152.0
86.950264 220.0
87.560089 184.0
87.755753 144.0
89.178528 192.0
89.221764 276.0
90.296616 168.0
91.896149 224.0
92.668602 236.0
92.693512 200.0
93.812149 156.0
94.23481 228.0
94.412651 140.0
94.45327 196.0
94.708786 188.0
95.174232 248.0
95.477394 196.0
95.582443 208.0
95.843369 152.0
96.458153 168.0
96.630257 188.0
96.712448 160.0
97.276993 200.0
97.620842 152.0
98.026367 180.0
98.984459 180.0
99.967102 140.0
99.998947 228.0
100.335602 164.0
101.437149 140.0
101.659782 156.0
102.313049 240.0
102.441933 156.0
102.504395 196.0
102.572922 176.0
102.806892 180.0
103.310013 152.0
103.629906 196.0
103.881302 180.0
104.348412 140.0
104.669907 228.0
104.847137 148.0
104.910324 180.0
105.04084 168.0
106.444893 176.0
106.705849 148.0
107.278191 212.0
108.003006 200.0
108.086037 152.0
108.224449 200.0
108.460625 152.0
108.626518 152.0
109.135353 220.0
109.424568 156.0
111.008461 148.0
111.125923 176.0
111.453484 152.0
111.90361 228.0
112.944031 144.0
113.885162 140.0
115.003029 144.0
115.020111 160.0
115.644264 192.0
116.484825 204.0
116.553581 176.0
116.882576 212.0
117.520386 164.0
117.600975 176.0
117.935036 184.0
117.976105 160.0
118.456535 212.0
119.018265 168.0
119.050323 1552.0
119.272453 236.0
119.287666 148.0
119.960342 192.0
120.051918 364.0
120.610855 176.0
120.658951 160.0
120.99369 184.0
121.038513 768.0
121.616264 172.0
121.820488 200.0
122.824295 208.0
123.778145 228.0
126.0168 156.0
126.285057 172.0
126.432724 224.0
126.63871 148.0
127.729614 212.0
127.997444 176.0
128.218216 232.0
128.310638 144.0
128.556442 152.0
128.761948 256.0
129.121307 188.0
129.467575 140.0
129.825653 188.0
130.049759 180.0
130.791275 144.0
131.046936 324.0
131.115402 224.0
131.367813 164.0
132.884659 148.0
132.978745 172.0
133.737244 168.0
133.972137 236.0
134.269485 184.0
134.463287 144.0
136.054001 216.0
137.063004 192.0
137.26088 148.0
137.361435 164.0
138.781067 204.0
138.938202 204.0
140.087814 180.0
140.205627 184.0
141.585373 152.0
141.651688 216.0
142.517654 184.0
144.8414 200.0
145.124191 232.0
145.606537 204.0
145.940582 156.0
146.033875 1620.0
147.036667 152.0
147.070465 140.0
147.923752 152.0
147.974854 228.0
148.018188 188.0
148.042404 216.0
148.12233 180.0
148.369522 248.0
148.66301 148.0
149.652374 176.0
150.681656 176.0
150.911407 144.0
152.748337 188.0
152.999359 160.0
153.213623 144.0
153.262894 160.0
153.452682 180.0
153.605591 264.0
154.554321 152.0
154.618652 228.0
154.747375 148.0
155.627594 172.0
157.937866 172.0
158.163071 164.0
158.686661 168.0
158.965149 328.0
160.015793 196.0
161.133102 208.0
161.193741 192.0
161.679306 168.0
161.810928 164.0
161.973007 244.0
162.211212 176.0
162.228958 248.0
162.269516 160.0
162.665283 208.0
162.685593 200.0
162.703369 148.0
162.77446 160.0
162.801727 196.0
162.897858 156.0
162.916702 252.0
162.989319 132.0
163.026825 140.0
163.061905 55040.0
163.134476 168.0
163.364136 172.0
163.44046 152.0
163.686249 188.0
163.771423 180.0
163.990555 188.0
164.063629 4888.0
164.975891 156.0
165.061615 372.0
165.197235 144.0
165.291763 112.0
165.39798 216.0
167.694321 180.0
170.307678 144.0
170.832764 156.0
171.619324 172.0
171.963684 188.0
172.339737 176.0
172.512222 140.0
173.043335 140.0
173.942551 144.0
174.625732 144.0
178.040497 176.0
179.17099 236.0
179.530838 200.0
179.55484 176.0
181.014023 224.0
185.529968 220.0
186.781876 148.0
187.062164 192.0
187.329041 204.0
188.100784 144.0
189.495544 280.0
190.538147 160.0
191.704834 144.0
193.788361 168.0
194.237473 164.0
199.853165 160.0
201.694794 192.0
202.229401 192.0
202.676849 184.0
203.022705 172.0
203.598816 224.0
204.090439 144.0
206.002853 140.0
206.620377 168.0
206.726242 188.0
208.087814 172.0
208.194061 180.0
208.377899 180.0
209.076675 168.0
210.09671 148.0
211.200226 152.0
214.143463 148.0
218.537659 204.0
219.170731 140.0
221.075424 192.0
221.569931 148.0
221.812927 140.0
223.357071 168.0
223.461197 172.0
225.273056 148.0
228.095947 148.0
229.888855 172.0
229.937149 176.0
234.681747 252.0
236.364822 188.0
238.084625 140.0
240.652847 196.0
240.807251 184.0
242.344757 192.0
242.543106 236.0
242.567902 164.0
242.974167 192.0
243.023804 168.0
243.259674 140.0
243.486359 148.0
243.51741 196.0
244.254089 180.0
246.155289 188.0
246.286469 160.0
246.989777 152.0
249.121429 156.0
249.253387 152.0
251.786255 148.0
253.109009 684.0
253.269669 232.0
253.772446 172.0
253.878204 164.0
254.107758 144.0
254.639908 164.0
255.12291 172.0
255.355042 184.0
256.017029 260.0
256.794678 188.0
257.004761 140.0
257.209503 236.0
258.468719 148.0
259.096283 208.0
261.35025 180.0
262.058624 172.0
262.419617 224.0
263.009979 196.0
264.415985 212.0
265.060455 168.0
268.066376 244.0
268.095703 160.0
269.054688 144.0
269.835541 164.0
272.368805 148.0
272.565918 176.0
276.38443 200.0
276.712097 204.0
276.741913 284.0
277.756012 264.0
278.11438 212.0
278.280396 172.0
279.426422 148.0
279.979767 96.0
280.099548 184.0
280.539886 116.0
280.636108 152.0
280.729492 188.0
280.813354 164.0
280.879608 176.0
280.949493 104.0
281.011658 196.0
281.061066 320.0
281.103973 40416.0
281.186554 156.0
281.266663 164.0
281.510376 204.0
281.651215 172.0
281.947021 132.0
282.105133 6112.0
282.164062 172.0
282.709229 164.0
283.106079 796.0
283.581329 144.0
283.617279 128.0
283.970276 176.0
284.079193 120.0
284.111786 188.0
284.198395 180.0
285.101135 360.0
289.108246 180.0
292.986023 168.0
296.968475 180.0
298.679077 204.0
298.735992 256.0
298.782257 164.0
298.823547 140.0
299.071075 224.0
299.114349 35264.0
299.199036 144.0
299.555847 96.0
299.966949 188.0
300.117279 4460.0
300.184174 228.0
300.263489 168.0
300.612946 176.0
301.111786 336.0
301.559021 104.0
302.070557 96.0
302.108032 148.0
302.147034 140.0
302.261444 120.0
302.302582 144.0
302.371033 176.0
302.41452 176.0
302.551025 148.0
303.294525 148.0
305.250488 168.0
308.814819 204.0
313.128479 180.0
331.120331 148.0
338.621277 188.0
339.121643 180.0
339.627655 148.0
342.811615 172.0
345.94751 192.0
353.263611 168.0
362.18692 124.0
363.414032 188.0
366.074921 152.0
366.215851 168.0
374.628021 196.0
376.518097 172.0
378.002625 160.0
382.152618 332.0
383.350037 248.0
384.53833 232.0
389.987885 144.0
393.295258 96.0
396.127899 188.0
396.2146 172.0
396.88092 164.0
401.402161 192.0
406.687225 160.0
407.281494 192.0
408.579956 160.0
409.538055 140.0
409.868408 164.0
410.077972 176.0
410.148438 908.0
411.053955 144.0
411.151489 124.0
412.156342 164.0
412.904236 144.0
416.162384 224.0
418.252014 148.0
421.116364 136.0
422.201599 140.0
423.204193 152.0
423.908752 172.0
425.224335 252.0
425.389404 144.0
425.763062 156.0
426.220612 168.0
426.338226 140.0
426.959015 160.0
427.13916 228.0
427.165131 304.0
427.249573 252.0
427.377655 120.0
427.757263 228.0
427.876648 160.0
428.156982 29120.0
428.283295 188.0
428.344513 112.0
428.430481 160.0
428.4888 216.0
428.689453 124.0
428.733429 152.0
428.867004 160.0
429.1604 8232.0
429.338623 124.0
430.102783 164.0
430.161194 1328.0
431.162079 496.0
432.750488 104.0
459.153839 96.0
484.132324 176.0
486.315735 188.0
577.211609 172.0
768.407349 164.0
787.046265 152.0
989.229248 164.0
1309.579468 140.0
1335.019653 252.0
1375.05188 168.0
1385.396729 160.0
1399.83606 172.0
1433.577637 196.0
1469.071045 180.0
1473.827637 148.0
1487.160889 180.0
1516.835571 164.0
1522.895752 180.0
1534.880981 156.0
1573.825439 164.0
1575.744751 156.0
1585.454102 208.0
1613.689453 140.0
1639.368408 144.0
1652.951416 144.0
1657.956055 184.0
1671.200806 148.0
1680.611816 140.0
1683.240234 196.0
1725.797485 140.0
1726.103516 224.0
1728.022461 156.0
1733.669922 260.0
1746.156494 260.0
1786.483887 232.0
1800.307251 204.0
1808.550781 184.0
1832.55896 176.0
1852.799561 188.0
1860.449585 144.0
1863.189209 172.0
1872.410522 156.0
1883.165894 148.0
1905.255493 168.0
1906.237305 232.0
1931.784302 152.0
1931.906738 176.0
1944.814575 216.0
1967.023438 176.0
1969.654907 152.0
1976.064331 152.0
1990.74353 140.0
1992.342285 184.0
2003.0354 176.0
