>compound Imatinib Mesylate
>formula C29H31N7O
>ionization [M+H]+
>parentmass 494.265717
#inchi InChI=1S/C29H31N7O/c1-21-5-10-25(18-27(21)34-29-31-13-11-26(33-29)24-4-3-12-30-19-24)32-28(37)23-8-6-22(7-9-23)20-36-16-14-35(2)15-17-36/h3-13,18-19H,14-17,20H2,1-2H3,(H,32,37)(H,31,33,34)
#inchikey KTUFNOKKBVMGRW
#origInchi InChI=1S/C29H31N7O.CH4O3S/c1-21-5-10-25(18-27(21)34-29-31-13-11-26(33-29)24-4-3-12-30-19-24)32-28(37)23-8-6-22(7-9-23)20-36-16-14-35(2)15-17-36;1-5(2,3)4/h3-13,18-19H,14-17,20H2,1-2H3,(H,32,37)(H,31,33,34);1H3,(H,2,3,4)
#Ion_Source LC-ESI
#Instrument qTof
#Compound_Source Commercial
#PI Dorrestein
#Data_Collector Garg_Neha
#Scan -1
#Precursor_MZ 494.266
#ExactMass 493.259
#Charge 1
#CAS_Number 220127-57-1, 152459-95-5 (free base), 862366-25-4 (HCL)
#Pubmed_ID N/A
#Smiles C1(=CC=C(C(=C1)NC2=NC=CC(=N2)C3=CC=CN=C3)C)NC(=O)C4(=CC=C(C=C4)CN5CCN(CC5)C).OS(C)(=O)=O
#INCHI_AUX N/A
#Library_Class 1
#SpectrumID CCMSLIB00000078005
#IonMode Positive
#UpdateWorkflowName UPDATE-SINGLE-ANNOTATED-GOLD
#LibraryQualityString Gold
#TaskID 77f51c88eb8b467eb4a01dd2d0cb90d2
##Scan# 1092
#SpectrumFile Plate1_1_20_GG1_01_16488.mzXML
#LibraryName FDALibrary_2_04302014.mgf
#MQScore -1
#Organism FDALibrary_2_04302014
#TIC_Query 0
#RT_Query -1
#MZErrorPPM -1
#SharedPeaks 0
#MassDiff 0
#LibMZ -1
#SpecMZ 494.266
#SpecCharge 0
#internalFilename spec-00000.mgf

>collision 10
49.659519 144.0
49.798473 152.0
52.741154 144.0
52.827919 188.0
57.44698 160.0
64.732094 216.0
65.44828 164.0
67.389908 144.0
70.757645 172.0
70.85479 140.0
73.49424 152.0
78.314377 172.0
83.715485 204.0
85.879578 220.0
87.341064 160.0
89.936356 208.0
93.20076 172.0
94.019196 164.0
97.073624 184.0
97.08931 172.0
97.105003 212.0
98.08194 180.0
99.091667 472.0
105.037498 180.0
111.088936 148.0
112.083435 168.0
112.414505 144.0
119.049835 156.0
121.075104 192.0
122.483482 152.0
128.440079 184.0
131.059738 472.0
132.159241 220.0
134.212769 140.0
134.882309 176.0
136.516907 160.0
137.50473 164.0
141.087082 168.0
146.958069 172.0
150.946686 200.0
152.289734 140.0
155.085388 200.0
156.051086 164.0
158.056549 140.0
162.083084 180.0
165.703888 140.0
167.164948 188.0
168.960846 164.0
169.092819 140.0
172.116302 184.0
172.210312 212.0
173.086853 152.0
175.095459 148.0
177.073685 188.0
177.842606 160.0
178.121429 176.0
181.157242 180.0
186.087448 140.0
187.439331 148.0
188.126663 176.0
189.097061 148.0
189.138596 320.0
189.84227 176.0
194.097931 184.0
194.880157 144.0
199.050629 148.0
201.83757 188.0
202.987259 140.0
203.750793 176.0
204.07196 156.0
204.091873 196.0
205.082672 164.0
205.544617 172.0
206.090149 156.0
207.997406 176.0
209.081009 164.0
210.077988 188.0
210.106842 160.0
212.096466 204.0
213.967331 176.0
215.136414 176.0
215.317459 160.0
217.017685 152.0
217.132111 880.0
218.132141 524.0
219.133957 144.0
221.110718 464.0
221.547775 140.0
222.019073 144.0
222.091766 2096.0
222.829453 188.0
223.094467 556.0
224.097046 468.0
225.081299 236.0
225.560135 184.0
226.26236 160.0
230.131958 156.0
232.420319 160.0
233.067093 184.0
233.790848 196.0
234.302399 144.0
236.124786 192.0
237.129517 220.0
237.803818 180.0
238.014267 204.0
238.059479 192.0
238.105911 488.0
238.565628 140.0
239.061493 376.0
239.561249 268.0
241.819992 144.0
242.594406 176.0
247.084473 428.0
247.640869 864.0
248.088104 148.0
248.118759 176.0
248.341537 180.0
248.645889 220.0
250.268005 148.0
250.610535 156.0
253.414001 148.0
257.335785 180.0
258.105865 220.0
260.105072 140.0
260.146698 328.0
261.111816 304.0
264.113678 1504.0
265.097412 820.0
266.097137 140.0
267.104492 188.0
267.25415 220.0
271.215668 236.0
272.889954 152.0
274.100128 184.0
276.128906 124.0
277.11322 136.0
277.138 172.0
278.079834 176.0
278.870331 168.0
279.572113 176.0
280.824829 176.0
284.955872 172.0
288.345947 200.0
288.727966 168.0
289.110291 196.0
289.611359 144.0
290.128784 532.0
291.132233 304.0
292.085938 156.0
295.514618 212.0
296.418579 196.0
299.424622 208.0
300.727936 148.0
301.087006 168.0
301.220978 176.0
304.689545 148.0
306.401276 152.0
306.899719 144.0
311.54422 172.0
312.736298 144.0
316.152832 176.0
322.183502 176.0
323.191772 176.0
327.586365 212.0
327.824158 168.0
334.124695 156.0
334.983887 184.0
335.112579 220.0
340.187805 312.0
343.606812 168.0
345.228394 140.0
346.109131 248.0
348.977386 140.0
349.76239 148.0
350.477448 156.0
351.130859 468.0
351.158051 184.0
352.137238 136.0
352.161438 180.0
359.533997 172.0
361.134766 164.0
362.002655 156.0
363.989746 164.0
364.147339 300.0
365.323853 144.0
366.170624 580.0
366.245056 164.0
366.885284 152.0
367.172913 396.0
368.168396 160.0
369.918579 212.0
371.075592 168.0
372.004028 152.0
372.8414 152.0
374.122284 184.0
374.411102 144.0
375.147064 152.0
375.767975 140.0
376.152924 420.0
377.138031 840.0
377.59906 172.0
378.131317 1324.0
378.535187 108.0
378.978668 220.0
379.139221 1428.0
380.14978 376.0
380.322937 148.0
381.146271 140.0
391.324219 144.0
393.262787 168.0
393.370392 152.0
394.002258 220.0
394.055756 184.0
394.165192 12108.0
394.295502 132.0
394.519989 164.0
394.701324 144.0
395.077606 180.0
395.169586 4696.0
395.433044 180.0
395.84549 144.0
396.007416 240.0
396.170502 540.0
396.225739 196.0
397.171906 232.0
397.562042 140.0
399.124115 232.0
404.216431 120.0
407.493256 148.0
409.150299 192.0
412.165314 132.0
414.060608 172.0
417.730011 180.0
418.169464 188.0
420.823364 164.0
420.974426 208.0
421.693481 188.0
431.204498 192.0
433.98642 200.0
434.554688 188.0
438.213593 212.0
439.74408 184.0
441.381744 156.0
444.397644 168.0
448.270447 192.0
448.835297 164.0
450.126495 136.0
452.121948 180.0
455.012909 156.0
457.116943 140.0
457.406372 168.0
459.571381 200.0
461.03183 148.0
461.395172 152.0
464.096863 244.0
465.349762 192.0
465.843658 168.0
467.14624 184.0
468.403259 212.0
468.450623 148.0
476.262543 240.0
477.254852 208.0
478.259918 120.0
485.84082 156.0
486.41571 196.0
490.943237 172.0
491.379944 312.0
492.240692 140.0
492.360565 108.0
492.607269 176.0
493.237274 128.0
493.36673 288.0
493.515259 100.0
493.678314 140.0
493.840851 184.0
494.090637 148.0
494.192688 164.0
494.265717 22636.0
494.421967 140.0
494.535248 184.0
494.6409 144.0
494.75946 224.0
494.902679 232.0
494.984894 220.0
495.13739 156.0
495.204102 316.0
495.267822 10412.0
495.403412 244.0
495.438599 156.0
496.270325 1524.0
497.003723 200.0
497.258667 180.0
498.171112 116.0
498.391815 112.0
498.643402 144.0
499.224792 172.0
499.976685 164.0
560.303284 200.0
569.290649 200.0
592.851929 156.0
727.535706 160.0
746.43634 168.0
965.533142 136.0
966.555603 168.0
1418.180176 200.0
1418.952393 192.0
1803.665771 148.0
1810.459961 160.0
1960.994995 236.0
1998.544556 188.0
