>compound NCGC00160193-01!ANABASAMINE
>formula C16H19N3
>ionization [M+H]+
>parentmass 254.166
#inchi InChI=1S/C16H19N3/c1-19-10-3-2-6-16(19)14-7-8-15(18-12-14)13-5-4-9-17-11-13/h4-5,7-9,11-12,16H,2-3,6,10H2,1H3
#inchikey TZRDBHMKTWECOV
#Ion_Source LC-ESI
#Instrument qTOF
#Compound_Source Prestwick Phytochem Lib
#PI Dorrestein
#Data_Collector VVP/LMS
#Scan -1
#Precursor_MZ 254.166
#ExactMass 253.158
#Charge 1
#CAS_Number N/A
#Pubmed_ID N/A
#Smiles CN1CCCCC1C2=CN=C(C=C2)C3=CN=CC=C3
#INCHI_AUX N/A
#Library_Class 1
#SpectrumID CCMSLIB00000078753
#IonMode Positive
#UpdateWorkflowName UPDATE-SINGLE-ANNOTATED-GOLD
#LibraryQualityString Gold
#TaskID 67c915c6594c435cadc1fe2b5358144d
##Scan# 834
#SpectrumFile p1-D03_GD3_01_17911.mzXML
#LibraryName phytochem_lib.mgf
#MQScore -1
#Organism phytochem_lib
#TIC_Query 0
#RT_Query -1
#MZErrorPPM -1
#SharedPeaks 0
#MassDiff 0
#LibMZ -1
#SpecMZ 254.166
#SpecCharge 0
#internalFilename spec-00000.mgf

>collision 10
96.495155 220.0
98.101028 156.0
103.509811 140.0
104.067398 152.0
106.548859 80.0
107.661118 152.0
108.675392 92.0
109.617302 136.0
112.518082 140.0
113.19043 228.0
113.769234 52.0
115.052917 356.0
116.401772 216.0
117.055458 180.0
119.340385 184.0
124.047417 204.0
126.506691 240.0
127.057976 180.0
129.069244 84.0
130.064514 228.0
130.243149 176.0
131.068954 180.0
131.940796 112.0
133.067963 188.0
136.215622 92.0
136.806259 48.0
138.199539 196.0
141.056122 244.0
141.189301 56.0
141.961304 144.0
142.066498 308.0
143.073318 356.0
143.969772 100.0
144.07869 172.0
153.959351 152.0
154.063263 172.0
155.062729 200.0
156.074524 128.0
156.272034 96.0
157.077454 564.0
158.068512 244.0
158.396484 156.0
158.902863 84.0
159.055939 140.0
160.084213 208.0
164.02388 212.0
165.89502 164.0
166.065964 144.0
167.077057 396.0
167.462418 188.0
168.063049 432.0
168.082504 440.0
169.076675 1136.0
169.827316 112.0
170.082199 1064.0
170.195816 40.0
170.86792 80.0
171.058929 180.0
171.092026 1400.0
171.363632 104.0
171.41835 40.0
172.095871 172.0
173.056061 184.0
179.061035 60.0
180.075043 296.0
181.076157 144.0
182.080444 88.0
183.032379 140.0
183.091202 964.0
183.245163 48.0
183.908249 156.0
184.095932 160.0
185.100723 172.0
185.34993 88.0
185.688782 128.0
189.869659 200.0
191.171799 88.0
193.078033 132.0
193.462631 84.0
193.501389 148.0
194.081879 1320.0
195.089523 1260.0
195.282867 48.0
195.886871 92.0
196.101105 356.0
196.346756 60.0
196.835098 84.0
196.921677 188.0
196.991501 84.0
197.108398 360.0
198.112167 236.0
198.932068 128.0
199.013489 56.0
200.896271 92.0
201.616257 64.0
205.455093 192.0
207.021393 204.0
207.091522 520.0
208.094864 244.0
209.106171 492.0
210.111572 164.0
211.117859 312.0
211.732773 220.0
212.129715 144.0
213.13121 140.0
213.959854 156.0
214.606628 152.0
219.863205 172.0
221.105331 288.0
222.105835 132.0
222.782623 76.0
223.12233 532.0
225.272995 84.0
225.822968 56.0
225.861862 136.0
228.947159 104.0
230.679001 132.0
234.924255 68.0
237.144135 184.0
237.944748 148.0
238.128983 204.0
253.821548 208.0
254.162628 1024.0
254.221237 72.0
255.159409 160.0
256.163818 124.0
257.963562 120.0
369.52597 84.0
396.843872 40.0
624.953369 68.0
1057.578125 144.0
1189.675293 36.0
1259.983765 96.0
1287.307983 164.0
1297.432007 144.0
1319.128906 148.0
1329.994019 276.0
1330.865234 192.0
1346.119751 140.0
1360.279053 132.0
1367.599976 128.0
1397.742188 188.0
1488.389038 216.0
