>compound XL-184 free base (Cabozantinib)
>formula C28H24FN3O5
>ionization [M+H]+
>parentmass 502.178619
#inchi InChI=1S/C28H24FN3O5/c1-35-24-15-21-22(16-25(24)36-2)30-14-11-23(21)37-20-9-7-19(8-10-20)32-27(34)28(12-13-28)26(33)31-18-5-3-17(29)4-6-18/h3-11,14-16H,12-13H2,1-2H3,(H,31,33)(H,32,34)
#inchikey ONIQOQHATWINJY
#Ion_Source LC-ESI
#Instrument qTof
#Compound_Source Commercial
#PI Dorrestein
#Data_Collector Garg_Neha
#Scan -1
#Precursor_MZ 502.177
#ExactMass 501.17
#Charge 1
#CAS_Number 849217-68-1,1140909-48-3 (L-(-)-Apple Acid)
#Pubmed_ID N/A
#Smiles C12=C(C(=CC=N1)OC3=CC=C(C=C3)NC(C4(C(NC5=CC=C(C=C5)F)=O)CC4)=O)C=C(C(=C2)OC)OC
#INCHI_AUX N/A
#Library_Class 1
#SpectrumID CCMSLIB00000078017
#IonMode Positive
#UpdateWorkflowName UPDATE-SINGLE-ANNOTATED-GOLD
#LibraryQualityString Gold
#TaskID 77f51c88eb8b467eb4a01dd2d0cb90d2
##Scan# 1285
#SpectrumFile Plate1_1_20_GG1_01_16488.mzXML
#LibraryName FDALibrary_2_04302014.mgf
#MQScore -1
#Organism FDALibrary_2_04302014
#TIC_Query 0
#RT_Query -1
#MZErrorPPM -1
#SharedPeaks 0
#MassDiff 0
#LibMZ -1
#SpecMZ 502.177
#SpecCharge 0
#internalFilename spec-00000.mgf

>collision 10
44.898399 176.0
45.043888 140.0
45.280643 208.0
45.29538 156.0
45.689648 180.0
46.058094 196.0
46.129715 140.0
46.252815 180.0
46.296143 172.0
46.56332 148.0
46.685638 160.0
46.895306 176.0
47.024883 152.0
47.071301 148.0
47.236679 200.0
47.248993 148.0
47.264042 140.0
47.403721 148.0
47.895588 152.0
47.909363 212.0
48.005848 204.0
48.102432 200.0
48.859108 168.0
49.079178 152.0
49.188 160.0
49.197773 164.0
49.470383 176.0
49.653946 144.0
49.676388 156.0
49.718483 196.0
50.376053 192.0
50.455193 188.0
50.492626 144.0
50.582516 184.0
50.644821 180.0
50.65757 176.0
51.110485 156.0
51.207294 144.0
51.358379 200.0
51.658363 140.0
51.698425 152.0
51.712738 180.0
51.898975 152.0
52.028107 180.0
52.042305 144.0
52.099155 204.0
52.246559 284.0
52.453236 136.0
52.520264 148.0
52.531807 164.0
52.553448 144.0
52.595299 208.0
52.66172 160.0
52.803368 192.0
52.826511 224.0
52.949547 216.0
52.97707 364.0
53.280281 180.0
53.297718 172.0
53.318741 192.0
53.460587 212.0
53.545029 224.0
53.594559 180.0
53.715569 228.0
54.198845 196.0
54.48856 192.0
54.606472 188.0
54.695919 176.0
55.080791 148.0
55.443295 168.0
55.48925 184.0
55.524837 156.0
55.544121 160.0
55.600506 184.0
56.370453 200.0
56.791157 168.0
56.811394 172.0
56.889278 124.0
56.900539 216.0
57.076508 144.0
57.447021 152.0
57.478703 176.0
57.591934 144.0
57.638771 148.0
57.674492 252.0
57.700741 144.0
57.799057 180.0
58.012615 168.0
58.181015 192.0
58.265621 164.0
58.313171 196.0
58.325333 192.0
58.350098 124.0
58.454609 188.0
58.715122 148.0
58.75478 192.0
58.968567 152.0
59.017895 120.0
59.040428 176.0
59.289978 204.0
59.39817 128.0
59.464821 208.0
59.753143 180.0
59.852547 176.0
59.940037 192.0
60.053722 248.0
60.194565 176.0
60.579697 144.0
60.676685 124.0
60.830193 176.0
61.023571 140.0
61.04845 220.0
61.219639 156.0
61.238327 148.0
61.327141 212.0
61.367676 168.0
61.397305 148.0
61.416019 184.0
61.636154 168.0
61.653343 288.0
61.906784 276.0
62.019588 152.0
62.038403 216.0
62.050644 188.0
62.085442 148.0
62.188992 184.0
62.261215 152.0
62.300484 156.0
62.317768 160.0
62.451393 168.0
62.559975 168.0
62.725384 160.0
62.780567 212.0
62.998394 160.0
63.074245 168.0
63.481152 192.0
63.539841 156.0
63.795536 140.0
63.87505 148.0
63.918007 220.0
63.937016 148.0
63.981674 176.0
64.008743 160.0
64.18029 140.0
64.274948 204.0
64.584892 172.0
64.619392 160.0
64.740143 208.0
64.756165 152.0
64.793007 172.0
65.038368 216.0
65.19313 144.0
65.247208 188.0
65.354965 236.0
65.440277 240.0
65.462822 176.0
65.479881 188.0
65.541756 160.0
65.583656 168.0
65.620735 176.0
65.76754 212.0
65.950066 148.0
66.003418 148.0
66.1287 136.0
66.172615 164.0
66.314255 180.0
66.348297 144.0
66.411537 156.0
66.509628 132.0
66.529999 148.0
66.598206 220.0
66.832306 144.0
67.048897 144.0
67.373619 208.0
67.420731 96.0
67.528915 240.0
67.67292 232.0
67.966324 192.0
68.037468 244.0
68.183098 140.0
68.556686 160.0
68.601196 140.0
68.616638 152.0
68.853653 156.0
68.893723 128.0
68.977577 176.0
69.745071 168.0
69.789955 180.0
70.13311 204.0
70.465004 184.0
70.541885 160.0
70.598732 212.0
70.622566 176.0
70.704132 224.0
70.923851 156.0
70.942924 240.0
71.138306 328.0
71.192001 176.0
71.360039 180.0
71.415535 204.0
71.508072 156.0
71.545105 180.0
71.715248 152.0
71.755707 224.0
71.775612 116.0
71.922722 200.0
72.289482 184.0
72.361641 216.0
72.457802 168.0
72.6436 160.0
72.675835 148.0
72.730148 148.0
72.836311 176.0
72.998589 188.0
73.06913 144.0
73.153419 208.0
73.433914 164.0
73.573433 120.0
73.67527 152.0
73.690651 164.0
73.866425 216.0
74.149269 140.0
74.269478 224.0
74.511467 112.0
74.611031 200.0
74.717659 152.0
74.855362 140.0
74.908752 188.0
74.931152 148.0
75.041458 184.0
75.125969 204.0
75.261269 204.0
75.296089 144.0
75.40052 164.0
75.462753 140.0
75.619965 164.0
75.851257 108.0
76.107323 212.0
76.148071 148.0
76.209808 184.0
76.26194 152.0
76.351959 136.0
76.493294 412.0
76.587326 232.0
76.737198 220.0
76.768585 188.0
76.979752 156.0
77.033981 156.0
77.06884 368.0
77.43734 168.0
77.464241 180.0
77.80423 156.0
77.872948 336.0
77.92038 152.0
77.953995 184.0
78.120804 164.0
78.266884 140.0
78.288017 196.0
78.351433 164.0
78.395485 156.0
78.513603 172.0
78.534767 156.0
78.577103 140.0
78.679474 224.0
78.697128 140.0
78.859657 144.0
79.09845 152.0
79.197609 148.0
79.210014 144.0
79.245445 148.0
79.31456 176.0
79.328743 204.0
79.607315 200.0
79.76722 148.0
79.781441 164.0
80.703224 152.0
80.771187 152.0
80.821281 216.0
81.280006 148.0
81.34462 168.0
81.693253 212.0
81.797623 148.0
81.939896 152.0
81.975937 152.0
82.049843 176.0
82.244667 160.0
82.51815 168.0
82.555435 156.0
82.625977 172.0
82.644928 128.0
82.76535 164.0
82.784515 140.0
83.009979 220.0
83.056374 188.0
83.444214 140.0
83.461273 176.0
83.491234 180.0
83.549446 196.0
83.828033 144.0
83.891617 140.0
83.995773 180.0
84.061455 240.0
84.076057 184.0
84.097954 172.0
84.225777 176.0
84.317131 208.0
84.542084 152.0
84.82782 144.0
85.090164 164.0
85.200363 188.0
85.231171 120.0
85.371307 164.0
85.508255 184.0
85.818779 188.0
85.864883 156.0
86.034012 128.0
86.422691 164.0
86.472748 180.0
86.619637 160.0
86.937943 184.0
87.127342 228.0
87.354149 196.0
87.499313 188.0
87.540276 144.0
87.584976 148.0
87.614784 176.0
87.747108 168.0
87.838867 300.0
87.875801 140.0
88.113503 168.0
88.338219 156.0
88.463364 232.0
88.554337 108.0
88.67057 164.0
88.73243 112.0
88.804359 180.0
88.980675 116.0
89.048317 104.0
89.155914 120.0
89.177338 148.0
89.190498 148.0
89.238892 188.0
89.284508 292.0
89.333412 176.0
89.370872 176.0
89.399269 140.0
89.482094 148.0
89.538582 140.0
89.557419 144.0
89.570602 140.0
89.621475 156.0
89.857162 172.0
89.894897 152.0
89.978439 156.0
90.034607 144.0
90.051605 176.0
90.076157 260.0
90.111565 248.0
90.157402 168.0
90.185753 168.0
90.206551 144.0
90.253815 140.0
90.404709 224.0
90.473289 156.0
90.656174 196.0
91.006966 160.0
91.254974 164.0
91.998009 180.0
92.064034 180.0
92.122147 144.0
92.194168 156.0
92.249001 188.0
92.284775 128.0
92.448914 116.0
92.675072 144.0
92.78624 164.0
93.010689 192.0
93.024132 160.0
93.13166 200.0
93.153465 148.0
93.185455 144.0
93.202568 128.0
93.267296 184.0
93.381538 188.0
93.701088 148.0
93.73175 136.0
93.785141 156.0
93.915077 144.0
94.001892 148.0
94.030846 176.0
94.111923 172.0
94.419189 164.0
94.486893 152.0
94.554276 112.0
94.573975 164.0
94.643669 140.0
94.78701 160.0
94.854851 144.0
95.065269 156.0
95.234276 224.0
95.340096 180.0
95.513138 152.0
95.752548 184.0
95.889847 132.0
95.960548 152.0
96.050774 164.0
96.06443 152.0
96.183464 156.0
96.501907 184.0
96.525375 228.0
96.65448 156.0
96.699493 160.0
96.71711 144.0
96.734131 136.0
96.811089 168.0
97.122162 168.0
97.444679 152.0
97.586197 180.0
97.649124 140.0
97.742989 124.0
97.775047 200.0
97.966049 152.0
97.984779 204.0
98.131599 164.0
98.155258 260.0
98.237709 160.0
98.509438 108.0
98.809059 204.0
99.024559 144.0
99.102097 204.0
99.224983 180.0
99.486862 172.0
99.57869 164.0
99.679527 168.0
99.953949 140.0
100.000732 112.0
100.126381 156.0
100.615692 164.0
100.763489 192.0
100.935387 180.0
101.005386 236.0
101.031395 204.0
101.069412 296.0
101.249146 184.0
101.351746 148.0
101.458221 396.0
101.585793 164.0
101.699478 176.0
101.77298 148.0
101.845284 176.0
101.895332 140.0
102.010056 168.0
102.042847 180.0
102.138756 152.0
102.168015 120.0
102.288414 252.0
102.412514 224.0
102.65638 148.0
102.92186 208.0
103.072227 152.0
103.173576 140.0
103.312836 192.0
103.397827 188.0
103.514839 160.0
103.530182 128.0
103.727982 144.0
103.742172 156.0
103.80072 160.0
104.150063 228.0
104.249619 148.0
104.29026 148.0
104.32637 148.0
104.446838 172.0
104.518044 304.0
104.750145 196.0
105.053894 148.0
105.298843 172.0
105.377197 192.0
105.421257 144.0
105.44101 152.0
105.490921 192.0
105.546989 104.0
105.564529 184.0
105.827011 132.0
105.867409 152.0
105.984344 144.0
106.090752 172.0
106.206459 236.0
106.281288 120.0
106.396431 156.0
106.853241 152.0
106.882378 104.0
106.982361 160.0
107.034157 204.0
107.164772 120.0
107.267426 212.0
107.32383 200.0
107.41925 156.0
107.462204 112.0
107.48391 212.0
107.784637 156.0
107.813622 188.0
107.877701 252.0
108.020393 168.0
108.044388 200.0
108.361992 148.0
108.500854 140.0
108.554764 216.0
108.577354 148.0
108.780922 204.0
109.204826 204.0
109.232582 140.0
109.277634 144.0
109.429581 184.0
109.542809 152.0
109.569122 152.0
109.702721 272.0
109.85643 232.0
109.877693 148.0
110.026634 176.0
110.334854 148.0
110.431274 148.0
110.454285 152.0
110.642632 148.0
110.886055 232.0
111.20443 196.0
111.382912 228.0
111.641434 168.0
111.664574 176.0
112.159447 144.0
112.193481 184.0
112.262695 172.0
112.293716 136.0
112.349182 164.0
112.414589 144.0
112.471573 164.0
112.604599 148.0
112.703888 196.0
113.002022 156.0
113.162704 140.0
113.356209 180.0
113.39167 152.0
113.406799 144.0
113.438301 164.0
113.571899 164.0
113.734352 100.0
113.784111 172.0
113.814896 144.0
113.866928 192.0
114.290619 292.0
114.353821 208.0
114.542915 164.0
114.654129 200.0
114.67971 168.0
114.718079 180.0
114.81279 124.0
115.008263 120.0
115.134163 200.0
115.525322 156.0
115.752983 104.0
115.871902 136.0
115.92469 172.0
116.26886 256.0
116.441757 180.0
116.582413 168.0
116.621101 168.0
116.886246 168.0
116.915764 176.0
116.954506 148.0
116.989471 124.0
117.008324 160.0
117.087997 220.0
117.230186 140.0
117.275444 180.0
117.419907 192.0
117.892715 188.0
117.91217 164.0
117.931625 152.0
117.983505 156.0
118.210617 148.0
118.258232 148.0
118.273384 200.0
118.70887 168.0
118.971413 180.0
118.988785 204.0
119.013321 120.0
119.096046 184.0
119.242943 140.0
119.664299 324.0
119.682579 184.0
119.778214 184.0
120.5326 208.0
120.565208 180.0
120.584274 136.0
120.69487 216.0
120.729858 220.0
120.974922 152.0
121.09536 228.0
121.139168 160.0
121.334213 140.0
121.435089 176.0
121.454826 140.0
121.472382 156.0
121.487732 184.0
121.799919 192.0
121.819229 140.0
121.887337 164.0
121.919029 152.0
121.964264 148.0
121.984047 188.0
122.032417 196.0
122.091789 168.0
122.124779 156.0
122.149956 144.0
122.321587 112.0
122.496788 172.0
122.529839 144.0
122.591431 176.0
122.668678 192.0
122.692924 180.0
122.785545 164.0
123.44883 336.0
123.474625 152.0
123.57682 144.0
123.627281 184.0
123.644989 148.0
123.949692 176.0
123.986061 152.0
124.534081 164.0
124.55407 144.0
124.744057 144.0
124.788162 156.0
124.935867 156.0
124.989838 204.0
125.043083 160.0
125.114479 140.0
125.266289 216.0
125.319389 184.0
125.365067 168.0
125.424133 216.0
125.445122 144.0
125.505157 176.0
125.548996 164.0
125.56591 152.0
125.586906 172.0
125.629295 176.0
125.726654 188.0
125.743095 184.0
126.028946 140.0
126.1474 216.0
126.1978 144.0
126.230125 176.0
126.286034 184.0
126.341377 200.0
126.428772 176.0
126.529961 148.0
126.761536 124.0
126.778236 296.0
127.09037 124.0
127.24424 236.0
127.328262 160.0
127.42485 152.0
127.651878 196.0
127.951149 184.0
128.010941 228.0
128.122314 228.0
128.2733 264.0
128.492065 256.0
128.88945 176.0
128.907532 152.0
129.036377 184.0
129.245132 124.0
129.364426 152.0
129.550766 328.0
129.66658 192.0
129.81955 148.0
130.130783 164.0
130.443375 176.0
130.846924 200.0
130.972183 148.0
130.994965 144.0
131.01091 160.0
131.071655 192.0
131.13327 160.0
131.407608 180.0
131.546829 148.0
131.569809 128.0
131.645004 192.0
131.729523 140.0
131.826172 172.0
132.540665 112.0
132.945343 228.0
133.000031 136.0
133.048538 288.0
133.122116 144.0
133.413925 168.0
133.432327 160.0
133.476669 280.0
133.723495 184.0
133.904449 236.0
133.934174 168.0
134.028473 148.0
134.064636 196.0
134.157532 152.0
134.217484 148.0
134.33786 252.0
134.419083 152.0
134.438934 140.0
134.489716 152.0
134.555405 140.0
134.598221 156.0
134.676758 148.0
134.743744 140.0
134.804626 160.0
134.875473 152.0
134.926331 212.0
135.039642 356.0
135.122925 180.0
135.164566 160.0
135.215485 172.0
135.394241 172.0
135.435059 168.0
135.502625 200.0
135.528122 252.0
135.560562 164.0
135.688583 156.0
135.744247 100.0
136.016556 152.0
136.128922 160.0
136.152145 164.0
136.23111 260.0
136.324051 132.0
136.354263 164.0
136.547241 160.0
136.605392 224.0
136.806641 168.0
136.858185 132.0
136.97554 152.0
137.002457 136.0
137.367172 148.0
137.70816 148.0
137.740662 144.0
137.811676 112.0
138.03476 396.0
138.068207 152.0
138.154449 168.0
138.257126 104.0
138.404877 152.0
138.537003 204.0
138.683746 120.0
138.72821 180.0
138.792267 112.0
138.852493 180.0
138.879822 116.0
138.958054 168.0
139.019058 148.0
139.32431 140.0
139.437103 168.0
139.514862 200.0
139.785172 140.0
139.924042 168.0
139.949951 120.0
139.969589 164.0
140.051208 168.0
140.069473 180.0
140.153625 204.0
140.260071 180.0
140.444855 208.0
140.606537 136.0
140.628906 176.0
140.668518 128.0
140.728058 224.0
140.82251 144.0
140.885178 144.0
140.995453 244.0
141.097244 140.0
141.224335 160.0
141.340256 192.0
141.540787 108.0
141.650406 216.0
141.816284 176.0
142.014221 192.0
142.229019 160.0
142.480743 176.0
142.497375 172.0
142.521133 144.0
142.547272 180.0
142.590042 160.0
142.615082 324.0
142.685135 176.0
142.742889 152.0
143.068176 176.0
143.111023 152.0
143.272995 212.0
143.489868 208.0
143.597183 184.0
143.637726 168.0
143.831024 192.0
143.986221 152.0
144.027374 156.0
144.063629 384.0
144.141495 168.0
144.294479 192.0
144.320786 180.0
144.347565 100.0
144.380569 168.0
144.428406 192.0
144.849701 152.0
145.061691 292.0
145.096542 168.0
145.204453 164.0
145.27179 172.0
145.314072 184.0
145.45639 168.0
145.492401 176.0
145.63649 268.0
145.694138 164.0
145.759018 176.0
145.809479 188.0
145.831116 140.0
146.025879 144.0
146.059357 224.0
146.345947 152.0
146.375092 148.0
146.562729 164.0
146.647079 200.0
146.666351 200.0
146.873734 132.0
146.99437 164.0
147.020905 160.0
147.259933 152.0
147.310654 148.0
147.354141 168.0
147.444275 120.0
147.503983 204.0
147.63588 152.0
147.663574 164.0
147.740982 164.0
147.794205 156.0
147.830505 172.0
147.886169 140.0
147.993698 172.0
148.015945 276.0
148.230072 216.0
148.256729 144.0
148.3246 216.0
148.370667 160.0
148.446136 188.0
148.761642 176.0
148.957962 208.0
149.029007 156.0
149.081879 208.0
149.150742 220.0
149.181534 208.0
149.205841 160.0
149.361481 148.0
149.415009 264.0
149.622818 216.0
149.818481 108.0
149.89711 144.0
149.97023 236.0
150.063553 212.0
150.250671 212.0
150.299469 140.0
150.367798 160.0
150.397095 148.0
150.416611 176.0
150.519165 156.0
150.655182 196.0
150.682068 260.0
150.736572 156.0
151.044632 176.0
151.095734 180.0
151.181656 228.0
151.30159 224.0
151.480316 176.0
151.653397 176.0
152.060532 304.0
152.376602 140.0
152.535568 156.0
152.653595 184.0
153.167999 160.0
153.187698 144.0
153.224655 164.0
153.388245 236.0
153.952332 144.0
153.971207 212.0
154.280304 164.0
154.326843 108.0
154.347717 156.0
154.736191 192.0
154.770859 156.0
155.011139 236.0
155.153244 208.0
155.189621 164.0
155.220703 204.0
155.363235 164.0
155.383087 140.0
155.55928 192.0
155.586594 188.0
155.603973 184.0
155.947266 192.0
155.975235 144.0
156.045303 172.0
156.202515 224.0
156.304916 152.0
156.34285 436.0
156.364655 160.0
156.576279 256.0
156.593704 160.0
156.726929 168.0
156.753159 196.0
156.810471 164.0
156.845367 180.0
156.947586 204.0
156.997467 156.0
157.024811 108.0
157.044693 192.0
157.174576 148.0
157.314346 140.0
157.401733 200.0
157.42421 228.0
157.474167 220.0
157.579269 160.0
157.705154 152.0
157.734726 144.0
157.966599 156.0
158.021637 140.0
158.061981 164.0
158.146759 148.0
158.249405 156.0
158.282623 152.0
158.337051 188.0
158.570633 156.0
158.63295 180.0
158.751541 156.0
158.818283 188.0
158.845215 144.0
159.019745 192.0
159.059189 156.0
159.162125 144.0
159.214676 168.0
159.476608 112.0
159.521408 212.0
159.628555 200.0
159.7276 156.0
159.782959 180.0
159.825729 144.0
159.905884 132.0
159.971344 168.0
160.034653 152.0
160.058777 200.0
160.148392 168.0
160.257538 136.0
160.485672 156.0
160.545929 148.0
160.695023 208.0
160.918503 208.0
160.934616 256.0
161.047409 428.0
161.154556 216.0
161.194992 156.0
161.256531 160.0
161.278397 164.0
161.352951 140.0
161.663788 144.0
161.821945 156.0
161.933304 188.0
162.004654 172.0
162.053925 528.0
162.078796 184.0
162.169373 172.0
162.313339 180.0
162.382355 140.0
162.430542 148.0
162.456604 132.0
162.689835 140.0
162.763031 168.0
163.058426 200.0
163.11618 188.0
163.296722 160.0
163.351578 120.0
163.584991 152.0
163.763138 176.0
163.83638 144.0
163.861069 104.0
163.897522 140.0
164.083588 224.0
164.144791 176.0
164.285065 172.0
164.463699 140.0
164.491776 148.0
164.540283 204.0
164.609222 176.0
164.634705 156.0
164.69606 180.0
164.76503 172.0
164.915802 168.0
164.936264 172.0
164.975998 344.0
165.074326 148.0
165.181747 172.0
165.50679 152.0
165.586166 160.0
165.685074 124.0
166.001358 180.0
166.019302 332.0
166.173218 160.0
166.41449 140.0
166.478683 176.0
166.521393 140.0
166.602722 136.0
166.810974 184.0
167.018845 244.0
167.141922 148.0
167.485565 100.0
167.525543 188.0
167.579651 164.0
167.716904 184.0
167.846619 224.0
167.888992 152.0
167.919937 144.0
168.154724 152.0
168.286972 160.0
168.402588 188.0
168.507446 160.0
168.642899 176.0
168.852249 132.0
169.13176 144.0
169.238419 204.0
169.277908 296.0
169.351868 192.0
169.48288 196.0
169.588791 136.0
169.663803 128.0
169.732834 144.0
169.7621 180.0
169.872559 128.0
169.942932 168.0
170.46228 156.0
170.506454 172.0
170.574905 168.0
170.602631 164.0
170.67804 160.0
170.76474 176.0
170.80098 176.0
170.885742 136.0
171.152435 152.0
171.177658 172.0
171.208252 188.0
171.271423 156.0
171.329651 428.0
171.376205 180.0
171.401688 152.0
171.508545 168.0
171.558075 224.0
171.629456 148.0
171.714523 240.0
171.756256 152.0
171.801437 188.0
171.868439 204.0
172.505722 208.0
172.637131 208.0
172.769852 164.0
172.79863 140.0
172.832657 184.0
172.886459 200.0
172.908539 228.0
172.932602 164.0
172.99231 160.0
173.225372 160.0
173.644775 168.0
173.677643 140.0
173.925522 176.0
173.98732 96.0
174.015778 180.0
174.050674 320.0
174.138214 200.0
174.163116 132.0
174.293213 156.0
174.383972 212.0
174.480499 156.0
174.645081 148.0
174.688934 108.0
174.711273 172.0
174.866516 156.0
175.060242 372.0
175.082413 152.0
175.124557 212.0
175.299759 192.0
175.460342 104.0
175.491119 124.0
175.533524 136.0
175.79158 144.0
175.924286 172.0
175.95787 140.0
175.980103 180.0
176.021149 316.0
176.070267 1004.0
176.111038 200.0
176.207657 196.0
176.257874 132.0
176.29335 216.0
176.41684 172.0
176.442688 168.0
176.464386 148.0
176.549591 112.0
176.597397 232.0
176.65419 152.0
176.752151 120.0
176.896408 188.0
177.045883 164.0
177.079117 184.0
177.198318 144.0
177.418259 132.0
177.508453 140.0
177.542923 172.0
177.624283 148.0
177.700516 176.0
177.933945 268.0
178.055832 188.0
178.062241 356.0
178.16507 220.0
178.255295 212.0
178.286285 152.0
178.419113 128.0
178.557907 188.0
178.741302 116.0
178.836838 180.0
178.865799 168.0
179.058487 340.0
179.193695 144.0
179.283783 212.0
179.316269 184.0
179.337601 168.0
179.438904 156.0
179.547913 204.0
179.614914 144.0
179.667618 184.0
179.920792 312.0
180.115479 184.0
180.190018 152.0
180.32785 196.0
180.36795 160.0
180.410721 144.0
180.501617 240.0
180.575638 172.0
180.715622 212.0
180.811951 156.0
180.985962 240.0
181.078812 172.0
181.300552 184.0
181.500443 144.0
181.586258 164.0
181.735428 152.0
181.978058 176.0
182.105148 180.0
182.154282 116.0
182.199615 172.0
182.252029 204.0
182.374634 148.0
182.40123 148.0
182.488571 180.0
182.582687 192.0
182.61496 164.0
182.639175 152.0
182.800598 144.0
182.829834 172.0
183.248856 128.0
183.296097 140.0
183.358078 148.0
183.382339 212.0
183.450806 156.0
183.554871 156.0
183.671234 160.0
183.770676 184.0
183.819244 272.0
184.124298 188.0
184.219284 124.0
184.246216 120.0
184.275574 180.0
184.297195 180.0
184.464767 180.0
184.511017 144.0
184.63504 156.0
184.835297 164.0
184.989746 196.0
185.116837 184.0
185.149323 208.0
185.387238 152.0
185.528687 152.0
185.570206 192.0
185.602066 312.0
186.060242 168.0
186.148621 152.0
186.466995 132.0
186.490845 100.0
186.523544 180.0
186.58226 196.0
186.735825 192.0
186.758835 172.0
186.81868 168.0
186.872452 136.0
187.063858 1772.0
187.267838 200.0
187.308685 192.0
187.422516 108.0
187.728439 160.0
188.042084 312.0
188.048965 280.0
188.059158 396.0
188.109512 156.0
188.381393 160.0
188.479645 192.0
188.716934 192.0
188.763428 188.0
188.850952 144.0
188.957901 120.0
189.0439 476.0
189.078369 1300.0
189.140991 152.0
189.279114 152.0
189.31694 184.0
189.384125 172.0
189.46962 164.0
189.509232 184.0
189.560043 172.0
190.050003 1772.0
190.085373 468.0
190.191391 184.0
190.618378 104.0
190.648285 132.0
190.688095 120.0
190.762405 120.0
190.932709 160.0
191.053299 128.0
191.109955 184.0
191.210587 188.0
191.272934 104.0
191.383423 132.0
191.548203 160.0
191.601608 228.0
191.687027 188.0
191.772461 180.0
191.842834 204.0
191.907547 184.0
191.983612 144.0
192.038132 144.0
192.089142 104.0
192.249664 168.0
192.321365 168.0
192.411163 128.0
192.526321 136.0
193.07518 188.0
193.125427 296.0
193.181519 116.0
193.23056 188.0
193.356934 204.0
193.424286 168.0
193.538818 260.0
193.570251 164.0
193.63472 148.0
193.692886 204.0
193.845276 256.0
193.873062 148.0
193.900696 148.0
193.996918 152.0
194.035675 144.0
194.172638 140.0
194.205688 140.0
194.322205 132.0
194.418365 172.0
194.525253 148.0
194.553833 236.0
194.643738 124.0
194.809021 380.0
194.860855 296.0
194.924759 184.0
195.004532 380.0
195.07019 220.0
195.106949 212.0
195.174942 140.0
195.271378 188.0
195.353439 176.0
195.400406 128.0
195.511536 168.0
195.563675 172.0
195.631226 140.0
195.675781 216.0
195.742599 140.0
195.94873 200.0
196.012817 216.0
196.054611 172.0
196.196198 116.0
196.241379 152.0
196.336197 224.0
196.383881 212.0
196.497986 140.0
196.569855 148.0
196.626358 192.0
196.761703 156.0
197.102341 100.0
197.171234 168.0
197.355469 224.0
197.635193 184.0
197.67717 168.0
197.718887 176.0
197.797516 152.0
197.84288 172.0
197.900726 120.0
197.993515 196.0
198.277924 140.0
198.354965 188.0
198.455887 140.0
198.504883 144.0
198.535034 144.0
198.5849 144.0
198.629776 164.0
199.015823 252.0
199.059204 152.0
199.119461 108.0
199.217896 132.0
199.474243 144.0
199.590302 152.0
199.744446 124.0
199.908173 172.0
200.006516 128.0
200.133377 140.0
200.234756 176.0
200.313232 144.0
200.378418 168.0
200.570053 144.0
200.594803 144.0
200.630432 192.0
200.763153 160.0
200.868698 116.0
200.956421 196.0
201.133392 220.0
201.172653 124.0
201.256851 236.0
201.297974 264.0
201.515472 140.0
201.622864 148.0
201.659607 180.0
201.679382 188.0
201.977448 176.0
202.047623 272.0
202.120575 156.0
202.163025 160.0
202.268631 172.0
202.386658 176.0
202.443298 288.0
202.610413 176.0
202.641586 176.0
202.732269 148.0
202.780441 168.0
202.826782 164.0
202.879654 184.0
202.967545 152.0
203.015762 140.0
203.055206 264.0
203.246414 152.0
203.351822 116.0
203.387436 168.0
203.41832 192.0
203.52597 156.0
203.571991 156.0
203.655838 200.0
203.720993 156.0
203.928162 216.0
203.983978 192.0
204.025558 156.0
204.067413 772.0
204.151733 164.0
204.239899 180.0
204.35939 140.0
204.398285 156.0
204.483215 188.0
204.726608 144.0
204.856613 124.0
204.914612 156.0
205.03064 252.0
205.069153 460.0
205.112595 196.0
205.139755 176.0
205.293732 220.0
205.450607 152.0
205.763672 104.0
205.809006 140.0
205.835938 148.0
205.871964 148.0
206.024445 140.0
206.059875 1880.0
206.157211 120.0
206.383224 148.0
206.474365 140.0
206.527466 108.0
206.653442 232.0
206.894913 208.0
206.979752 176.0
207.063522 424.0
207.332123 152.0
207.362869 192.0
207.668808 168.0
207.733292 176.0
208.091553 172.0
208.137115 144.0
208.247086 280.0
208.330673 152.0
208.425491 172.0
208.472977 152.0
208.621796 160.0
208.945923 176.0
209.198792 120.0
209.231323 136.0
209.359573 188.0
209.518845 164.0
209.564957 152.0
209.596497 160.0
209.737869 256.0
209.873367 156.0
209.928162 140.0
209.991608 220.0
210.019516 172.0
210.040649 152.0
210.069489 156.0
210.104111 152.0
210.22908 168.0
210.376678 116.0
210.453339 228.0
210.548645 184.0
210.713196 116.0
210.833511 180.0
211.068817 364.0
211.09259 196.0
211.439117 168.0
211.468063 148.0
211.643906 140.0
211.740128 120.0
211.798782 128.0
211.880356 148.0
212.008423 112.0
212.096619 164.0
212.128357 156.0
212.222733 100.0
212.29512 128.0
212.375748 180.0
212.434021 180.0
212.702881 200.0
212.72934 236.0
212.789963 156.0
212.929352 176.0
213.097839 208.0
213.275116 400.0
213.3479 116.0
213.40303 152.0
213.452469 144.0
213.492264 164.0
213.726059 144.0
213.813202 120.0
213.906189 140.0
213.999512 164.0
214.040283 208.0
214.07222 128.0
214.164337 160.0
214.240952 160.0
214.302429 192.0
214.439407 140.0
214.533157 220.0
214.66713 108.0
214.692108 236.0
214.872559 148.0
214.933914 100.0
215.026978 140.0
215.059067 172.0
215.212479 288.0
215.282562 292.0
215.333893 176.0
215.469635 180.0
215.492889 148.0
215.543381 240.0
215.61412 156.0
215.668228 168.0
215.896286 188.0
215.960632 188.0
216.197617 168.0
216.291275 180.0
216.373245 180.0
216.649231 208.0
216.823883 136.0
216.874191 200.0
216.900406 136.0
217.023712 160.0
217.063156 148.0
217.091156 168.0
217.208466 152.0
217.3078 140.0
217.431473 160.0
217.562912 164.0
217.746597 156.0
217.839615 168.0
217.880753 144.0
217.911942 156.0
217.983582 216.0
218.024734 152.0
218.074692 208.0
218.222412 192.0
218.255295 136.0
218.304489 152.0
218.389313 160.0
218.435547 128.0
218.469696 220.0
218.520111 104.0
218.763031 240.0
219.053955 1616.0
219.089264 144.0
219.21199 112.0
219.354401 188.0
219.591049 144.0
219.615555 156.0
219.688385 140.0
219.813995 144.0
219.967285 132.0
220.002792 180.0
220.050415 144.0
220.078125 280.0
220.572845 232.0
220.621613 164.0
220.812103 192.0
221.067627 844.0
221.106842 100.0
221.180725 180.0
221.211197 136.0
221.263626 188.0
221.358368 192.0
221.502686 160.0
221.550903 356.0
221.57756 200.0
221.766312 184.0
221.811691 156.0
221.909515 160.0
221.968475 128.0
222.090424 280.0
222.307007 196.0
222.363388 176.0
222.425735 140.0
222.467285 152.0
222.554047 128.0
222.796631 152.0
222.832596 104.0
222.948486 164.0
223.051712 148.0
223.084396 348.0
223.15657 280.0
223.278152 148.0
223.42424 304.0
223.66333 200.0
223.724823 148.0
223.820114 140.0
223.870331 120.0
223.924347 192.0
224.007812 172.0
224.043488 140.0
224.079147 228.0
224.383255 192.0
224.475693 180.0
224.696411 380.0
224.725662 220.0
224.884415 140.0
225.060562 156.0
225.174042 168.0
225.221191 168.0
225.251785 136.0
225.28009 104.0
225.341324 196.0
225.466843 160.0
225.570145 176.0
225.60733 164.0
225.665878 256.0
225.864502 156.0
225.924332 144.0
225.984177 140.0
226.064575 216.0
226.225784 132.0
226.354523 160.0
226.401199 152.0
226.438492 152.0
226.484131 148.0
226.68486 140.0
226.878723 124.0
227.000885 200.0
227.077606 168.0
227.125595 152.0
227.188599 160.0
227.399048 152.0
227.602798 152.0
227.687607 124.0
227.877609 128.0
227.969772 148.0
228.056442 196.0
228.447281 156.0
228.493317 204.0
228.561691 172.0
228.775391 148.0
228.826035 136.0
229.091965 204.0
229.218155 160.0
229.243439 212.0
229.367432 196.0
229.403442 184.0
229.510544 176.0
229.643921 124.0
229.754318 156.0
229.929871 152.0
230.035522 180.0
230.056656 148.0
230.17543 188.0
230.213654 152.0
230.292191 140.0
230.441727 144.0
230.470428 212.0
230.627243 176.0
230.724075 148.0
230.77269 156.0
230.797379 172.0
230.893661 152.0
230.975327 164.0
231.159882 156.0
231.250671 148.0
231.286148 172.0
231.39296 144.0
231.624969 196.0
231.771576 176.0
231.868546 240.0
232.021729 112.0
232.053467 144.0
232.083786 172.0
232.153534 252.0
232.221451 152.0
232.299179 184.0
232.36586 160.0
232.419388 120.0
232.517593 164.0
232.541611 184.0
232.621338 156.0
232.717941 296.0
232.807098 112.0
232.865082 204.0
233.368179 148.0
233.438522 212.0
233.532135 136.0
233.705811 216.0
233.783722 152.0
233.949295 220.0
234.050354 124.0
234.078781 204.0
234.108978 260.0
234.228714 164.0
234.278198 144.0
234.375702 152.0
234.406174 160.0
234.63652 140.0
234.712753 112.0
234.800095 168.0
234.933868 224.0
235.00383 160.0
235.055984 132.0
235.088898 340.0
235.283264 144.0
235.409821 224.0
235.615707 208.0
235.804993 416.0
235.917923 124.0
236.043655 204.0
236.066864 176.0
236.090866 204.0
236.333923 156.0
236.425201 136.0
236.478851 248.0
236.533173 156.0
236.617844 200.0
236.683533 108.0
236.833344 156.0
236.954544 204.0
237.025726 160.0
237.077118 276.0
237.098648 160.0
237.171799 116.0
237.408218 148.0
237.661301 192.0
237.7733 220.0
237.831726 188.0
237.911438 156.0
238.028107 172.0
238.089233 208.0
238.098541 184.0
238.292267 164.0
238.476654 192.0
238.524704 196.0
238.734909 160.0
238.832489 144.0
238.909302 196.0
239.075058 128.0
239.307266 148.0
239.450607 132.0
239.558197 144.0
239.590775 140.0
239.633759 232.0
239.760101 164.0
239.84024 176.0
239.897644 116.0
239.931458 252.0
240.201019 252.0
240.27507 136.0
240.318909 340.0
240.453857 200.0
240.59581 212.0
240.722641 140.0
240.7621 144.0
240.809326 112.0
240.854355 192.0
240.909058 168.0
240.93576 204.0
240.957397 192.0
241.35495 232.0
241.696793 172.0
241.797836 168.0
241.946365 136.0
241.99353 184.0
242.225128 144.0
242.33284 212.0
242.380356 172.0
242.422165 160.0
242.445801 232.0
242.489182 160.0
242.535339 112.0
242.569778 168.0
242.611313 168.0
242.659393 128.0
242.782837 100.0
242.88147 132.0
242.992249 108.0
243.03508 152.0
243.10524 148.0
243.217102 148.0
243.585648 176.0
243.624908 172.0
243.715012 188.0
243.795807 148.0
243.873505 140.0
243.911087 132.0
243.938095 236.0
244.060043 144.0
244.175095 216.0
244.201736 184.0
244.275314 184.0
244.346191 220.0
244.508011 232.0
244.554688 140.0
244.91449 152.0
245.031158 160.0
245.210617 176.0
245.580765 136.0
245.695236 156.0
245.715576 148.0
245.791962 156.0
245.88559 148.0
246.032547 148.0
246.0728 140.0
246.151718 144.0
246.241516 188.0
246.266495 148.0
246.38208 152.0
246.416458 188.0
246.436722 160.0
246.491882 224.0
246.722534 120.0
247.052521 196.0
247.084503 312.0
247.131516 268.0
247.154373 148.0
247.195053 152.0
247.405212 248.0
247.494217 132.0
247.680344 232.0
247.761551 156.0
247.829681 132.0
247.877716 180.0
247.902786 188.0
247.944946 232.0
248.065216 112.0
248.100266 140.0
248.185287 236.0
248.219406 148.0
248.247635 180.0
248.374542 208.0
248.421799 152.0
248.44838 184.0
248.539368 172.0
248.651215 204.0
248.712952 104.0
248.745728 192.0
248.774536 212.0
248.809296 144.0
248.897659 200.0
248.99234 220.0
249.08345 296.0
249.177002 156.0
249.233322 160.0
249.45961 204.0
249.544495 188.0
249.623825 124.0
249.684647 148.0
249.814972 264.0
249.892563 236.0
249.950623 180.0
250.083679 344.0
250.119659 180.0
250.186325 140.0
250.258743 152.0
250.457153 156.0
250.479202 240.0
250.665726 120.0
250.689316 216.0
250.731583 124.0
250.772736 156.0
250.818527 152.0
250.939331 152.0
251.029572 168.0
251.071396 712.0
251.160645 136.0
251.235794 144.0
251.320724 144.0
251.504028 144.0
251.538757 176.0
251.593719 132.0
251.760406 160.0
251.870316 160.0
251.942978 172.0
251.971405 296.0
252.023331 232.0
252.089432 444.0
252.231232 228.0
252.28508 96.0
252.657486 160.0
252.68219 192.0
252.764709 320.0
252.815689 192.0
253.021439 372.0
253.095779 1164.0
253.160767 184.0
253.350006 156.0
253.363159 116.0
253.371582 260.0
253.592361 160.0
253.622101 284.0
253.685852 128.0
253.879471 184.0
254.102707 752.0
254.164307 112.0
254.25116 132.0
254.270035 176.0
254.403717 436.0
254.429108 172.0
254.540237 140.0
254.738785 120.0
254.870605 164.0
255.011047 148.0
255.110123 168.0
255.319229 132.0
255.527496 128.0
255.634033 164.0
255.724884 148.0
255.886505 168.0
255.922653 216.0
256.068787 120.0
256.106995 224.0
256.164551 172.0
256.275696 104.0
256.393402 148.0
256.453644 152.0
256.547943 172.0
256.596588 184.0
256.712494 152.0
256.766266 128.0
257.007233 160.0
257.058289 152.0
257.087006 152.0
257.467804 200.0
257.589539 224.0
257.652191 156.0
257.688965 152.0
257.815216 96.0
257.912811 100.0
258.038147 168.0
258.211578 212.0
258.404114 108.0
258.62442 148.0
258.686523 132.0
258.73111 244.0
258.758789 252.0
258.835632 176.0
258.931702 164.0
258.960541 160.0
258.997375 96.0
259.091064 432.0
259.12384 160.0
259.246552 212.0
259.286713 140.0
259.541046 116.0
259.590942 132.0
259.792786 184.0
260.208832 224.0
260.272614 128.0
260.317169 96.0
260.371765 160.0
260.402588 236.0
260.440521 148.0
260.468079 240.0
260.680176 152.0
260.747589 132.0
260.795624 200.0
260.851044 180.0
260.883423 220.0
261.061707 332.0
261.09491 164.0
261.12384 180.0
261.165649 156.0
261.327667 180.0
261.383209 200.0
261.439148 184.0
261.500305 252.0
261.576508 320.0
261.682587 96.0
261.72052 108.0
261.764282 144.0
261.870575 152.0
261.978363 104.0
262.018738 144.0
262.079895 276.0
262.144409 156.0
262.173431 212.0
262.212097 184.0
262.247284 256.0
262.409271 168.0
262.523773 176.0
262.71582 132.0
262.819122 156.0
263.034607 244.0
263.078674 1200.0
263.114166 112.0
263.291382 228.0
263.451202 172.0
263.515808 184.0
263.881042 168.0
264.010376 160.0
264.089539 960.0
264.363007 164.0
264.427734 208.0
264.461029 168.0
264.662537 236.0
264.724701 204.0
264.745117 136.0
264.978271 220.0
265.071899 428.0
265.097595 436.0
265.169159 132.0
265.193939 296.0
265.234833 164.0
265.313812 176.0
265.342407 168.0
265.500153 176.0
265.566437 220.0
265.837128 276.0
265.906525 140.0
266.02832 156.0
266.080139 1332.0
266.219513 164.0
266.256348 160.0
266.308319 148.0
266.33905 192.0
266.454498 160.0
266.538971 140.0
266.693085 180.0
267.023376 232.0
267.078003 872.0
267.215302 152.0
267.334351 144.0
267.374847 128.0
267.609772 168.0
267.67099 144.0
267.93158 220.0
268.007599 120.0
268.05368 136.0
268.079468 164.0
268.143402 232.0
268.190125 168.0
268.267242 180.0
268.316162 172.0
268.372681 164.0
268.479187 148.0
268.570526 144.0
268.828369 136.0
268.873962 140.0
269.065613 152.0
269.099213 172.0
269.130219 308.0
269.182739 152.0
269.229828 156.0
269.275543 172.0
269.353943 144.0
269.499603 168.0
269.539459 180.0
269.626831 168.0
269.707581 272.0
269.886658 200.0
269.930939 236.0
270.133209 240.0
270.208679 120.0
270.367554 188.0
270.443756 184.0
270.519958 248.0
270.773529 236.0
270.920135 148.0
270.974152 132.0
271.093628 216.0
271.143738 164.0
271.16571 180.0
271.201385 136.0
271.268311 152.0
271.301086 256.0
271.359985 124.0
271.475037 152.0
271.566742 188.0
271.605194 184.0
271.661469 144.0
271.770111 144.0
271.81131 128.0
271.881683 148.0
271.927612 148.0
272.016327 300.0
272.177307 228.0
272.323761 220.0
272.364319 164.0
272.445496 136.0
272.645325 216.0
272.707764 136.0
272.900024 172.0
273.01181 148.0
273.048004 196.0
273.07785 168.0
273.166412 176.0
273.266724 180.0
273.361938 172.0
273.471008 148.0
273.52417 140.0
273.557434 172.0
273.599518 148.0
273.734039 112.0
273.784454 140.0
273.963104 176.0
274.075104 192.0
274.159454 148.0
274.265228 152.0
274.361877 164.0
274.394836 176.0
274.625671 164.0
274.692749 288.0
274.779846 284.0
274.850006 156.0
274.987122 204.0
275.222412 184.0
275.286682 188.0
275.335297 152.0
275.361725 180.0
275.423248 140.0
275.510376 172.0
275.546722 188.0
275.690155 232.0
275.783875 152.0
275.946167 140.0
275.990387 132.0
276.08374 172.0
276.275024 124.0
276.363403 184.0
276.532166 160.0
276.647308 236.0
276.677826 140.0
276.790405 152.0
276.813568 272.0
277.012695 136.0
277.068878 140.0
277.113556 272.0
277.136841 292.0
277.180817 116.0
277.280701 236.0
277.327423 120.0
277.45639 208.0
277.582397 192.0
277.633972 140.0
277.745087 148.0
277.924042 140.0
277.995392 152.0
278.066864 512.0
278.10611 168.0
278.144562 128.0
278.291992 128.0
278.564819 164.0
278.657135 200.0
278.73761 160.0
278.854645 148.0
279.076324 5396.0
279.160461 140.0
279.31366 120.0
279.397095 188.0
279.42923 148.0
279.525482 144.0
279.560577 188.0
279.637604 148.0
279.667938 164.0
279.689941 284.0
279.733063 188.0
279.791992 180.0
279.904175 176.0
279.989746 152.0
280.088715 1120.0
280.304962 140.0
280.45343 160.0
280.63678 124.0
280.661621 232.0
280.724976 176.0
280.777466 152.0
280.848572 144.0
280.991943 132.0
281.049744 136.0
281.09259 9844.0
281.209229 112.0
281.326813 128.0
281.403107 144.0
281.469788 160.0
281.507568 260.0
281.576508 276.0
281.641296 168.0
281.713684 184.0
281.790192 204.0
281.906769 104.0
281.940826 276.0
282.033783 200.0
282.097839 3912.0
282.162292 108.0
282.345642 124.0
282.382935 168.0
282.483948 124.0
282.518982 204.0
282.553467 160.0
282.591797 144.0
282.673737 228.0
282.845062 200.0
282.914886 112.0
282.962097 192.0
283.039581 232.0
283.101593 496.0
283.213959 96.0
283.251404 132.0
283.302032 172.0
283.328857 152.0
283.36795 116.0
283.413757 208.0
283.561066 136.0
283.594635 112.0
283.739258 300.0
283.775909 148.0
283.838318 288.0
283.874664 168.0
283.900726 232.0
283.972473 152.0
284.004059 164.0
284.044586 128.0
284.090698 160.0
284.312317 152.0
284.400879 180.0
284.520294 128.0
284.610107 144.0
284.7229 184.0
284.799408 132.0
285.023621 156.0
285.142487 152.0
285.369354 116.0
285.405823 148.0
285.460266 280.0
285.607971 160.0
285.756287 304.0
285.903503 164.0
285.955688 124.0
286.000153 112.0
286.104553 200.0
286.160187 148.0
286.444336 148.0
286.473389 232.0
286.550873 176.0
286.581207 172.0
286.745728 244.0
286.837341 148.0
286.872437 116.0
286.945923 212.0
287.089813 308.0
287.131256 328.0
287.226776 140.0
287.337616 140.0
287.410431 108.0
287.53894 156.0
287.599701 152.0
287.640656 176.0
287.783661 220.0
287.914062 108.0
288.059998 176.0
288.113617 128.0
288.248657 212.0
288.30896 256.0
288.467834 156.0
288.491486 164.0
288.586151 220.0
288.61322 204.0
288.663788 260.0
288.758118 104.0
288.900696 272.0
288.939911 108.0
288.984802 272.0
289.025879 200.0
289.068542 660.0
289.250671 172.0
289.341919 140.0
289.385468 140.0
289.422546 108.0
289.577698 156.0
289.630676 124.0
289.777588 308.0
290.001251 240.0
290.031738 160.0
290.069183 508.0
290.12265 416.0
290.150757 152.0
290.209442 184.0
290.275208 352.0
290.37262 120.0
290.499725 160.0
290.543823 160.0
290.588684 196.0
290.741516 104.0
290.801727 164.0
290.909637 96.0
290.940887 164.0
290.968048 140.0
291.076538 1200.0
291.179413 116.0
291.21524 112.0
291.385162 212.0
291.443237 116.0
291.750458 180.0
291.785461 128.0
291.972626 300.0
292.088013 844.0
292.177979 156.0
292.252838 144.0
292.294708 144.0
292.44342 188.0
292.487671 312.0
292.695343 148.0
292.737793 136.0
292.794128 228.0
292.82373 156.0
292.873047 164.0
292.915924 264.0
293.009613 232.0
293.055847 704.0
293.088654 472.0
293.125 292.0
293.193726 164.0
293.258728 164.0
293.55069 144.0
293.749847 164.0
293.7724 160.0
293.851562 140.0
293.959595 160.0
294.064789 340.0
294.103638 236.0
294.198608 176.0
294.229706 272.0
294.373108 164.0
294.466858 140.0
294.650208 96.0
294.759125 152.0
294.866089 160.0
294.92392 244.0
295.032562 144.0
295.073364 184.0
295.106934 376.0
295.206421 232.0
295.416382 196.0
295.492859 96.0
295.566132 152.0
295.634583 136.0
295.769409 160.0
295.823608 216.0
295.901184 156.0
295.965057 104.0
296.051544 152.0
296.115021 1800.0
296.246338 212.0
296.360565 168.0
296.407013 180.0
296.461761 180.0
296.500519 176.0
296.647034 136.0
296.675049 172.0
296.794617 208.0
296.818939 132.0
296.896362 248.0
296.969269 292.0
297.00473 164.0
297.062988 668.0
297.123901 116936.0
297.283447 116.0
297.396454 124.0
297.434998 156.0
297.495911 196.0
297.533051 224.0
297.575592 176.0
297.655975 220.0
297.687744 204.0
297.717194 204.0
297.780884 116.0
297.960114 124.0
298.007446 168.0
298.049133 184.0
298.071777 272.0
298.125671 21176.0
298.241241 148.0
298.332336 132.0
298.402588 124.0
298.554108 156.0
298.584473 140.0
298.639679 164.0
298.737885 96.0
298.965057 240.0
299.001038 172.0
299.047577 188.0
299.127838 2124.0
299.229462 120.0
299.403107 192.0
299.528076 224.0
299.64093 160.0
299.698578 156.0
299.802856 116.0
299.85556 232.0
299.915192 320.0
300.059204 328.0
300.133942 204.0
300.224945 128.0
300.295624 148.0
300.367035 184.0
300.395294 208.0
300.685669 424.0
300.763519 144.0
300.805542 172.0
300.877075 172.0
300.934235 144.0
301.005188 148.0
301.062561 148.0
301.075775 128.0
301.099274 172.0
301.164734 216.0
301.50116 204.0
301.53714 124.0
301.659607 152.0
301.80719 140.0
301.85611 172.0
301.915527 144.0
301.972015 272.0
302.019592 164.0
302.100006 144.0
302.209717 156.0
302.239075 148.0
302.297333 140.0
302.373352 200.0
302.440094 172.0
302.546875 128.0
302.581055 288.0
302.609863 164.0
302.704102 224.0
302.768036 184.0
302.920471 168.0
302.946259 312.0
303.082275 316.0
303.11142 396.0
303.159546 148.0
303.276642 168.0
303.585938 104.0
303.724609 144.0
303.83136 180.0
303.941589 116.0
303.974487 144.0
304.005707 180.0
304.051941 284.0
304.091949 340.0
304.120758 292.0
304.177368 188.0
304.311188 152.0
304.340363 188.0
304.393219 172.0
304.582062 176.0
304.676453 144.0
304.825287 160.0
304.856567 180.0
305.015289 156.0
305.054413 156.0
305.100586 1072.0
305.266785 212.0
305.323792 176.0
305.376587 244.0
305.454193 212.0
305.492859 196.0
305.518311 164.0
305.705414 140.0
305.808075 156.0
305.870392 284.0
305.898285 168.0
305.964661 184.0
306.064026 112.0
306.109619 444.0
306.178589 192.0
306.284851 132.0
306.342285 164.0
306.377289 192.0
306.5047 176.0
306.568756 148.0
306.663788 136.0
306.715546 144.0
306.819489 232.0
306.878448 200.0
306.995575 152.0
307.070923 11496.0
307.107178 23136.0
307.194763 128.0
307.255707 144.0
307.309906 208.0
307.376801 196.0
307.438477 208.0
307.558563 112.0
307.592529 140.0
307.659393 184.0
307.863068 128.0
307.94339 164.0
307.970093 168.0
308.023743 148.0
308.078857 9284.0
308.106995 4692.0
308.198517 148.0
308.224213 260.0
308.249908 284.0
308.297272 108.0
308.380829 136.0
308.423828 160.0
308.474762 112.0
308.509491 268.0
308.58194 176.0
308.662231 160.0
308.703125 112.0
308.800598 112.0
308.940796 236.0
308.973846 200.0
309.013123 232.0
309.083801 2804.0
309.471832 132.0
309.512817 204.0
309.583679 212.0
309.647522 164.0
309.713287 104.0
309.785675 204.0
309.873718 136.0
309.957825 184.0
310.002228 252.0
310.047882 188.0
310.093353 404.0
310.132751 304.0
310.180786 112.0
310.25293 152.0
310.325378 152.0
310.426544 140.0
310.469421 136.0
310.547516 160.0
310.625641 160.0
310.658905 132.0
310.80011 176.0
310.914032 172.0
311.085571 212.0
311.134308 236.0
311.428619 124.0
311.464294 372.0
311.544434 316.0
311.574097 200.0
311.702118 128.0
311.758789 216.0
311.817047 156.0
311.852081 128.0
311.934509 160.0
311.971802 220.0
312.095154 336.0
312.199219 200.0
312.338928 196.0
312.393097 140.0
312.46347 152.0
312.594818 152.0
312.753296 120.0
312.848175 140.0
312.884399 164.0
312.935089 140.0
313.014679 176.0
313.09201 1772.0
313.289398 196.0
313.347748 312.0
313.672455 140.0
313.719971 252.0
313.772247 164.0
313.808411 152.0
313.916809 140.0
313.941498 204.0
313.969696 160.0
314.097412 668.0
314.306 204.0
314.444031 172.0
314.611633 160.0
314.792358 148.0
314.836609 228.0
315.027161 164.0
315.092224 204.0
315.283051 224.0
315.34314 156.0
315.601196 168.0
315.732788 112.0
315.911713 204.0
316.032745 160.0
316.305054 228.0
316.334564 244.0
316.368408 176.0
316.436249 144.0
316.541595 228.0
316.883728 212.0
316.965546 212.0
317.055237 104.0
317.094788 684.0
317.265289 184.0
317.2901 236.0
317.318695 180.0
317.361023 220.0
317.417755 228.0
317.528687 200.0
317.627014 248.0
317.774689 292.0
317.872223 172.0
317.983063 272.0
318.097656 280.0
318.140594 208.0
318.285583 128.0
318.389008 124.0
318.457611 160.0
318.497375 272.0
318.619995 112.0
318.707977 184.0
318.804169 116.0
318.885468 128.0
319.021057 104.0
319.064941 652.0
319.108734 564.0
319.28006 196.0
319.517151 144.0
319.562683 136.0
319.585968 100.0
319.742035 160.0
319.784302 156.0
319.825531 180.0
319.922668 152.0
319.96579 296.0
320.018799 160.0
320.078674 3616.0
320.244507 140.0
320.288788 168.0
320.519318 140.0
320.587189 208.0
320.667053 144.0
320.867584 164.0
320.932281 168.0
321.079346 828.0
321.126434 540.0
321.246552 256.0
321.32019 132.0
321.461456 196.0
321.558472 156.0
321.60321 160.0
321.638519 136.0
321.666138 140.0
321.733765 204.0
321.763855 272.0
321.797974 288.0
321.937134 248.0
322.02478 152.0
322.087189 124.0
322.14856 132.0
322.192688 192.0
322.32309 252.0
322.361542 276.0
322.440063 192.0
322.572357 376.0
322.5867 264.0
322.595551 320.0
322.621063 368.0
322.666656 180.0
322.732147 260.0
322.824219 284.0
322.859192 228.0
322.897461 648.0
322.991608 696.0
323.000153 832.0
323.060944 1132.0
323.10498 221444.0
323.218719 284.0
323.41391 236.0
323.430542 404.0
323.441803 220.0
323.48822 168.0
323.516998 320.0
323.53009 392.0
323.582855 216.0
323.643219 212.0
323.692291 6920.0
323.736145 272.0
323.814209 140.0
323.874847 252.0
323.939697 340.0
323.97818 212.0
324.106476 99932.0
324.239563 144.0
324.251831 144.0
324.309875 144.0
324.337738 412.0
324.366455 104.0
324.415131 184.0
324.457611 260.0
324.53598 240.0
324.630737 280.0
324.689087 120.0
324.736328 140.0
324.824799 280.0
324.862366 188.0
324.899933 248.0
324.958984 132.0
325.01181 148.0
325.025452 164.0
325.108704 11216.0
325.277649 108.0
325.359619 148.0
325.403442 208.0
325.451172 144.0
325.556305 200.0
325.717957 252.0
325.763824 176.0
325.82251 216.0
325.852448 212.0
325.930145 112.0
325.960571 208.0
326.003082 128.0
326.109833 1400.0
326.171509 224.0
326.208618 464.0
326.246002 236.0
326.288574 296.0
326.376099 312.0
326.400818 288.0
326.432831 228.0
326.539825 144.0
326.587555 164.0
326.701904 176.0
326.792664 172.0
326.853424 124.0
327.005737 192.0
327.055389 108.0
327.10788 128.0
327.159668 120.0
327.233643 228.0
327.275452 296.0
327.319763 220.0
327.354919 112.0
327.554169 148.0
327.582214 252.0
327.696167 148.0
327.977264 164.0
328.037048 200.0
328.120972 160.0
328.338257 172.0
328.464417 120.0
328.540619 120.0
328.658508 196.0
328.691559 112.0
328.814484 128.0
328.949066 176.0
328.996674 188.0
329.05127 316.0
329.0961 148.0
329.137482 188.0
329.164917 200.0
329.198059 204.0
329.258881 196.0
329.343536 148.0
329.46347 156.0
329.555908 172.0
329.668518 140.0
329.727753 204.0
329.811127 176.0
329.931274 156.0
329.974915 160.0
330.020081 140.0
330.068512 128.0
330.097168 164.0
330.203583 148.0
330.563385 128.0
330.588928 156.0
330.967407 192.0
331.107025 432.0
331.20401 144.0
331.39679 184.0
331.462433 184.0
331.519653 152.0
331.564117 128.0
331.666412 176.0
332.117798 152.0
332.184967 160.0
332.303925 96.0
332.473724 116.0
332.775635 160.0
332.844482 184.0
333.086243 560.0
333.124359 464.0
333.223267 156.0
333.688507 144.0
333.713959 160.0
333.73941 236.0
333.99823 96.0
334.094635 268.0
334.109528 132.0
334.394226 156.0
334.56955 172.0
334.606018 160.0
334.667267 172.0
334.978882 172.0
335.067047 2212.0
335.136292 804.0
335.245453 156.0
335.293854 180.0
335.405518 144.0
335.446838 140.0
335.532166 116.0
335.726227 160.0
335.937164 176.0
335.975739 144.0
336.026825 164.0
336.066193 960.0
336.112244 336.0
336.186157 96.0
336.239563 224.0
336.342712 172.0
336.670319 164.0
336.719269 192.0
336.784027 124.0
336.884857 136.0
336.939636 140.0
337.032227 124.0
337.089081 348.0
337.154358 852.0
337.388184 172.0
337.866516 260.0
337.981628 168.0
338.039185 168.0
338.15918 304.0
338.213043 140.0
338.249817 128.0
338.411469 120.0
338.470642 156.0
338.571014 168.0
338.620026 180.0
338.66214 160.0
338.945953 172.0
338.999664 164.0
339.168243 168.0
339.342896 200.0
339.417542 240.0
339.618286 304.0
339.702118 140.0
339.770355 204.0
339.939819 208.0
339.9935 144.0
340.057983 112.0
340.197845 132.0
340.30661 164.0
340.446716 216.0
340.479248 168.0
340.567871 152.0
340.630981 188.0
340.775665 172.0
341.018066 104.0
341.115448 108.0
341.21582 156.0
341.393219 144.0
341.503571 180.0
341.739014 164.0
341.781891 128.0
341.919159 168.0
342.099823 120.0
342.17923 196.0
342.248993 176.0
342.44751 132.0
342.47876 104.0
342.571075 156.0
342.605652 136.0
342.706238 216.0
342.753967 144.0
342.827209 172.0
342.976562 108.0
343.208069 140.0
343.279816 112.0
343.387146 124.0
343.569458 108.0
343.620758 112.0
343.697144 212.0
343.732178 180.0
343.827209 176.0
343.931732 120.0
344.024078 176.0
344.123779 164.0
344.24765 204.0
344.328583 156.0
344.454895 176.0
344.522644 252.0
344.810883 176.0
344.980927 200.0
345.089752 416.0
345.323456 196.0
345.351776 164.0
345.382904 424.0
345.454712 208.0
345.835419 168.0
345.94104 204.0
345.971924 132.0
346.053833 156.0
346.100342 280.0
346.200989 152.0
346.296234 204.0
346.513184 180.0
346.621368 148.0
346.813171 132.0
346.875183 156.0
346.972046 204.0
347.101257 5352.0
347.138245 26128.0
347.241486 140.0
347.303894 140.0
347.332825 148.0
347.433868 128.0
347.485992 104.0
347.637817 180.0
347.779327 128.0
347.821472 156.0
347.848572 220.0
348.073059 3732.0
348.140778 5556.0
348.314941 152.0
348.387177 128.0
348.44754 144.0
348.483978 168.0
348.529846 316.0
348.605072 124.0
348.657471 160.0
348.87973 104.0
349.005707 160.0
349.079224 1416.0
349.119751 2756.0
349.211487 184.0
349.277771 172.0
349.305054 184.0
349.340698 124.0
349.459717 132.0
349.515076 100.0
349.69873 160.0
349.739594 140.0
349.839447 152.0
349.900604 132.0
349.949188 452.0
350.010529 260.0
350.081207 332.0
350.123688 756.0
350.185791 112.0
350.223206 128.0
350.357574 100.0
350.406921 180.0
350.493622 116.0
350.587463 100.0
350.692596 208.0
350.836945 148.0
350.862701 192.0
350.924988 140.0
351.094574 160.0
351.121704 412.0
351.339142 264.0
351.456696 124.0
351.525543 244.0
351.849579 148.0
351.900726 124.0
352.005249 172.0
352.128967 200.0
352.216278 204.0
352.247437 140.0
352.366852 144.0
352.500214 284.0
352.776794 188.0
352.902039 188.0
352.957672 212.0
353.012512 108.0
353.042267 140.0
353.072205 140.0
353.126343 128.0
353.195404 148.0
353.240509 192.0
353.365997 164.0
353.619232 96.0
353.657349 200.0
353.694946 248.0
353.760681 188.0
353.843506 100.0
353.964966 108.0
353.996307 112.0
354.142792 100.0
354.191345 156.0
354.382416 172.0
354.478455 176.0
354.508148 172.0
354.680969 156.0
354.749695 152.0
354.778107 200.0
354.86145 248.0
355.15094 172.0
355.203125 96.0
355.278473 200.0
355.334747 168.0
355.410553 276.0
355.444214 136.0
355.477356 148.0
355.734955 324.0
355.811401 180.0
355.856476 140.0
355.965363 144.0
356.032959 320.0
356.072296 144.0
356.141876 160.0
356.201965 184.0
356.265747 164.0
356.52887 176.0
356.573975 164.0
356.64856 100.0
356.748108 160.0
356.782593 192.0
357.025146 164.0
357.084351 444.0
357.125366 148.0
357.374969 164.0
357.487854 152.0
357.647736 172.0
357.699738 136.0
357.947144 144.0
357.978485 136.0
358.095428 412.0
358.158051 160.0
358.259766 156.0
358.402924 208.0
358.44577 140.0
358.679932 140.0
358.715271 156.0
358.807495 132.0
359.108673 340.0
359.189209 116.0
359.308868 164.0
359.544586 136.0
359.863342 176.0
360.088074 220.0
360.113068 172.0
360.165924 116.0
360.286865 232.0
360.399139 124.0
360.431396 192.0
360.758087 164.0
360.803436 244.0
360.939575 152.0
361.08078 3176.0
361.179596 188.0
361.274933 120.0
361.357422 124.0
361.457794 164.0
361.58136 112.0
361.841309 112.0
361.919067 108.0
362.08493 660.0
362.22818 136.0
362.290649 96.0
362.328674 224.0
362.465088 228.0
362.710541 196.0
362.756134 228.0
362.813782 204.0
362.969238 180.0
363.018555 216.0
363.133148 2648.0
363.232788 156.0
363.339539 108.0
363.597565 116.0
363.807526 124.0
363.84729 172.0
364.01062 176.0
364.038177 160.0
364.091644 116.0
364.13559 796.0
364.369843 172.0
364.48465 152.0
364.569702 144.0
364.617279 128.0
364.70047 148.0
364.767578 104.0
364.804077 300.0
364.928558 172.0
364.979584 116.0
365.035034 248.0
365.064667 132.0
365.112793 2708.0
365.148773 15384.0
365.501465 144.0
365.57782 136.0
365.752136 160.0
365.794952 104.0
365.979431 200.0
366.073364 156.0
366.152496 2588.0
366.207489 252.0
366.256775 280.0
366.31839 112.0
366.370178 124.0
366.4776 116.0
366.556335 108.0
366.636963 204.0
366.721252 240.0
366.8237 124.0
366.964508 152.0
367.020691 200.0
367.077637 200.0
367.113251 248.0
367.156464 620.0
367.331085 188.0
367.381042 112.0
367.42865 120.0
367.547668 248.0
367.647217 200.0
367.684326 148.0
367.848999 116.0
368.017731 140.0
368.109192 128.0
368.149719 212.0
368.316589 160.0
368.428497 136.0
368.574249 152.0
368.825287 164.0
368.890076 116.0
368.930145 196.0
369.142212 188.0
369.333374 184.0
369.360168 156.0
369.497894 140.0
369.615051 96.0
369.699646 116.0
369.723663 276.0
369.750427 188.0
369.790588 204.0
369.882294 196.0
370.033722 148.0
370.141174 120.0
370.250031 172.0
370.296539 152.0
370.377563 152.0
370.420532 172.0
370.512451 228.0
370.585083 148.0
370.742371 204.0
370.91333 272.0
370.978302 140.0
371.020935 140.0
371.079651 156.0
371.121582 120.0
371.17215 176.0
371.531891 168.0
371.978363 164.0
372.129761 172.0
372.155731 164.0
372.36911 176.0
372.54718 100.0
372.712616 124.0
372.776337 168.0
372.953125 232.0
373.114838 176.0
373.388367 308.0
373.44339 168.0
373.793274 180.0
373.849396 244.0
374.103821 120.0
374.152496 124.0
374.20343 216.0
374.240326 144.0
374.265717 124.0
374.41925 260.0
374.513519 176.0
374.775391 136.0
375.097443 7532.0
375.186829 264.0
375.239868 164.0
375.343964 192.0
375.370972 208.0
375.472656 312.0
375.694824 200.0
375.820221 112.0
375.991333 148.0
376.101135 2164.0
376.327911 148.0
376.44931 148.0
376.541046 108.0
377.007782 160.0
377.112915 2516.0
377.247009 104.0
377.395477 96.0
377.53714 160.0
377.690613 120.0
377.769409 144.0
377.846893 144.0
377.889465 132.0
377.953278 260.0
378.062866 172.0
378.109589 1160.0
378.279846 192.0
378.531128 104.0
378.680145 244.0
378.773224 184.0
378.85556 120.0
378.982971 164.0
379.070465 172.0
379.108612 476.0
379.172089 148.0
379.272003 152.0
379.522675 116.0
379.710144 156.0
379.785461 96.0
379.81488 156.0
379.923492 144.0
380.047272 176.0
380.104034 144.0
380.17572 152.0
380.237823 140.0
380.487122 144.0
380.549347 144.0
380.739746 172.0
380.824097 144.0
381.146454 552.0
381.238525 120.0
381.621094 144.0
381.682983 184.0
381.784088 152.0
381.896881 168.0
382.086151 232.0
382.144012 304.0
382.218811 160.0
382.294556 208.0
382.721924 144.0
382.766022 100.0
382.920563 140.0
383.017914 180.0
383.081543 168.0
383.11142 180.0
383.229858 200.0
383.265533 116.0
383.395874 188.0
383.845245 104.0
383.989777 252.0
384.214996 96.0
384.437134 156.0
384.487885 152.0
384.539948 156.0
384.795441 120.0
384.844421 96.0
384.869415 332.0
385.151154 160.0
385.218048 176.0
385.370941 152.0
385.459778 124.0
385.624451 152.0
385.666138 160.0
385.720612 132.0
385.855072 144.0
386.121002 148.0
386.26181 276.0
386.289185 272.0
386.423218 304.0
386.528107 116.0
386.56842 120.0
386.689697 192.0
386.739197 160.0
386.852722 160.0
386.891846 128.0
386.95639 200.0
387.010162 164.0
387.172424 116.0
387.224701 160.0
387.317017 280.0
387.497101 128.0
387.573364 184.0
387.6008 160.0
387.723999 164.0
387.834717 192.0
387.91156 124.0
387.985474 112.0
388.016266 156.0
388.123047 156.0
388.333923 176.0
388.397888 220.0
388.549683 172.0
388.653046 140.0
388.826202 136.0
388.898926 144.0
389.00885 140.0
389.123779 196.0
389.173737 192.0
389.202728 128.0
389.228699 228.0
389.326904 136.0
389.432861 192.0
389.467773 120.0
389.544098 108.0
389.587189 148.0
389.641144 164.0
389.670624 152.0
389.702667 124.0
389.744385 180.0
389.799805 116.0
389.893829 156.0
390.003815 164.0
390.042328 96.0
390.121552 484.0
390.183502 140.0
390.284485 236.0
390.344421 124.0
390.437714 228.0
390.525635 188.0
390.593811 352.0
390.784363 216.0
390.83197 588.0
390.882568 264.0
390.917145 312.0
390.957611 112.0
391.014099 308.0
391.044403 288.0
391.1297 130500.0
391.223358 96.0
391.295654 120.0
391.378662 124.0
391.442841 228.0
391.48996 368.0
391.590851 244.0
391.632446 148.0
391.681763 184.0
391.723175 296.0
391.778381 292.0
391.919281 292.0
391.965698 200.0
392.009308 132.0
392.051697 160.0
392.132477 30904.0
392.220886 160.0
392.297424 104.0
392.3349 224.0
392.36792 168.0
392.432587 148.0
392.523193 96.0
392.587585 272.0
392.65448 200.0
392.735138 288.0
392.925598 268.0
393.014984 240.0
393.134033 4108.0
393.256927 196.0
393.427673 228.0
393.60553 140.0
393.683624 108.0
393.751709 192.0
394.075836 160.0
394.14267 372.0
394.276123 124.0
394.327271 160.0
394.463287 388.0
394.527222 128.0
394.643097 128.0
394.678314 136.0
394.730194 124.0
394.808838 168.0
394.904083 140.0
394.979462 140.0
395.061066 312.0
395.129333 148.0
395.246521 188.0
395.404846 180.0
395.439484 256.0
395.473633 140.0
395.512085 156.0
395.609314 156.0
395.82428 204.0
396.007843 104.0
396.081238 168.0
396.187439 140.0
396.267914 268.0
396.325073 148.0
396.455933 140.0
396.721436 216.0
396.750916 120.0
396.806396 176.0
397.010895 176.0
397.097717 148.0
397.167938 188.0
397.225067 144.0
397.751587 140.0
397.820343 148.0
397.881287 124.0
397.9086 240.0
398.057892 120.0
398.319427 176.0
398.400146 160.0
398.51004 212.0
398.559082 144.0
398.586884 180.0
398.769714 152.0
398.801514 144.0
398.830353 280.0
398.887451 116.0
399.059906 220.0
399.117126 196.0
399.221741 100.0
399.283295 112.0
399.402527 420.0
399.549103 184.0
399.883392 140.0
400.063171 144.0
400.140808 120.0
400.215454 96.0
400.309753 188.0
400.480621 156.0
400.739594 152.0
400.780243 136.0
401.058411 168.0
401.263763 172.0
401.470886 120.0
401.744293 168.0
401.840027 176.0
401.916382 124.0
402.050171 124.0
402.113953 176.0
402.251099 160.0
402.31897 144.0
402.433594 180.0
402.58252 144.0
402.624481 132.0
402.699341 160.0
402.900818 116.0
403.116699 112.0
403.169769 140.0
403.373627 212.0
403.411377 108.0
403.548126 136.0
403.639069 124.0
403.687622 96.0
403.935181 196.0
403.975555 256.0
404.045502 160.0
404.144592 156.0
404.182037 152.0
404.409637 228.0
404.54129 140.0
404.570557 152.0
404.760162 152.0
405.007233 184.0
405.078186 164.0
405.119965 184.0
405.294556 392.0
405.479065 140.0
405.672729 164.0
405.70755 140.0
405.757385 112.0
405.964172 148.0
406.102875 116.0
406.1427 128.0
406.183197 100.0
406.22171 300.0
406.252472 160.0
406.317139 152.0
406.528137 172.0
406.569946 220.0
406.620789 144.0
406.69632 164.0
406.80899 204.0
406.996399 176.0
407.093597 220.0
407.168152 184.0
407.252502 200.0
407.532013 160.0
407.579315 104.0
407.622253 120.0
407.758759 180.0
407.923584 180.0
407.985626 184.0
408.311005 136.0
408.417725 232.0
408.599213 144.0
408.844666 152.0
408.901855 208.0
408.981506 152.0
409.063019 204.0
409.180817 172.0
409.219116 268.0
409.260193 340.0
409.370453 260.0
409.538757 176.0
409.710388 204.0
409.834259 168.0
409.999359 136.0
410.037292 224.0
410.136444 152.0
410.177612 136.0
410.339142 164.0
410.427704 204.0
410.507751 108.0
410.595245 116.0
410.621429 288.0
410.944946 172.0
411.012726 172.0
411.183746 128.0
411.218567 176.0
411.299286 164.0
411.464813 236.0
411.664459 176.0
411.770081 124.0
411.926819 188.0
411.969757 136.0
412.195892 200.0
412.466675 144.0
412.555634 200.0
412.648621 148.0
412.798218 144.0
412.834442 264.0
412.887207 196.0
412.975159 144.0
413.122131 148.0
413.155945 164.0
413.257599 204.0
413.29361 176.0
413.339172 116.0
413.441132 152.0
413.526459 152.0
413.754395 156.0
413.785553 264.0
414.093292 144.0
414.409271 172.0
414.459869 148.0
414.484924 216.0
414.577362 184.0
414.778076 156.0
414.825439 112.0
414.991791 140.0
415.070221 144.0
415.157867 108.0
415.488739 152.0
415.566345 228.0
415.597321 180.0
415.632782 152.0
415.970703 196.0
416.145447 284.0
416.222443 148.0
416.380829 160.0
416.667572 196.0
417.056946 156.0
417.141235 116.0
417.184143 132.0
417.517944 112.0
417.55542 140.0
417.954071 160.0
418.002289 208.0
418.153809 104.0
418.667694 208.0
418.825043 232.0
418.895874 172.0
419.036194 132.0
419.160278 168.0
419.757385 116.0
419.84021 164.0
420.17215 180.0
420.464325 100.0
420.978821 140.0
421.123535 196.0
421.249084 120.0
421.266663 128.0
421.343933 124.0
421.500488 120.0
421.726501 164.0
421.856812 104.0
422.051361 112.0
422.182465 100.0
422.30304 144.0
422.667847 208.0
422.737061 140.0
422.905823 160.0
423.068237 144.0
423.151611 164.0
423.377563 184.0
423.531097 164.0
423.760406 164.0
423.987427 228.0
424.045959 224.0
424.097809 132.0
424.183807 180.0
424.323456 96.0
424.380615 176.0
424.471985 160.0
424.539246 144.0
424.57782 152.0
424.644958 140.0
424.748413 176.0
424.799347 156.0
424.963348 156.0
425.203796 140.0
425.310608 176.0
425.399811 120.0
425.472992 152.0
425.755341 180.0
425.95697 136.0
426.029236 324.0
426.058807 164.0
426.168915 188.0
426.386658 136.0
426.659576 160.0
427.024017 148.0
427.2724 168.0
427.431305 192.0
427.670013 156.0
427.764679 460.0
427.944855 204.0
428.047394 108.0
428.172333 160.0
428.411224 176.0
428.707916 140.0
428.828613 108.0
428.864532 148.0
428.92395 96.0
429.028717 140.0
429.176758 148.0
429.684113 108.0
429.932739 148.0
430.025299 164.0
430.100281 308.0
430.125641 132.0
430.179382 132.0
430.25473 184.0
430.344666 128.0
430.441376 116.0
430.634308 124.0
430.783356 248.0
431.066833 176.0
431.200775 172.0
431.275085 152.0
431.344177 168.0
431.4487 160.0
431.723236 112.0
431.866364 148.0
431.899475 160.0
432.108612 108.0
432.298309 100.0
432.462372 96.0
432.619507 268.0
432.665039 180.0
432.776398 116.0
432.860443 416.0
433.015167 304.0
433.087433 208.0
433.132996 156.0
433.23111 112.0
433.589813 176.0
433.668365 144.0
433.731232 116.0
434.039734 196.0
434.106995 240.0
434.227264 228.0
434.301483 108.0
434.424347 100.0
434.538391 184.0
434.850586 140.0
435.038971 196.0
435.166809 168.0
435.293854 168.0
435.628448 112.0
435.830963 108.0
435.889587 176.0
436.025024 144.0
436.054138 176.0
436.104492 100.0
436.136597 128.0
436.191284 152.0
436.302551 240.0
436.384399 116.0
436.486481 176.0
436.65097 160.0
436.719391 148.0
437.023071 156.0
437.129211 320.0
437.175415 224.0
437.231171 176.0
437.446747 264.0
437.55423 152.0
437.655762 248.0
437.713043 144.0
437.909515 108.0
437.957977 124.0
438.091187 124.0
438.127075 152.0
438.726562 184.0
438.759918 172.0
438.858124 272.0
438.972565 224.0
439.038483 252.0
439.122711 272.0
439.195312 128.0
439.24115 152.0
439.347961 144.0
439.645081 196.0
439.752441 168.0
439.823212 136.0
439.961456 264.0
440.134949 232.0
440.230072 156.0
440.3638 240.0
440.508545 144.0
440.541962 192.0
440.6297 140.0
440.800873 136.0
440.844299 216.0
440.897125 144.0
440.983765 132.0
441.139557 120.0
441.252655 136.0
441.302399 168.0
441.395355 132.0
441.524231 228.0
441.566071 176.0
441.681702 112.0
442.009521 248.0
442.075439 100.0
442.112701 140.0
442.248077 164.0
442.327484 296.0
442.557861 184.0
442.611145 116.0
442.653503 168.0
442.817505 180.0
442.913971 144.0
443.282562 156.0
443.482361 196.0
443.653564 248.0
443.742249 120.0
444.045288 176.0
444.123291 160.0
444.228943 112.0
444.324677 156.0
444.372528 140.0
444.486084 156.0
444.522064 228.0
444.553223 176.0
444.641357 264.0
444.832062 192.0
444.922607 188.0
445.001831 120.0
445.151428 136.0
445.371918 160.0
445.45575 168.0
445.514771 148.0
445.597809 188.0
445.746796 180.0
445.780304 164.0
445.908234 156.0
446.080292 156.0
446.12088 160.0
446.220825 148.0
446.375061 124.0
446.42688 160.0
446.690277 160.0
446.74234 140.0
446.961121 140.0
447.188385 212.0
447.310455 188.0
447.416992 184.0
447.639435 208.0
447.700439 116.0
447.801117 228.0
448.127502 148.0
448.253906 152.0
448.586884 272.0
448.66449 228.0
448.855713 152.0
448.970581 160.0
449.094604 148.0
449.590759 204.0
449.94632 136.0
450.531128 176.0
450.657959 388.0
450.746399 128.0
450.834442 236.0
450.940857 144.0
450.956757 224.0
451.018005 144.0
451.104523 312.0
451.383789 148.0
451.447632 188.0
451.880219 216.0
451.970795 156.0
452.130737 240.0
452.16037 300.0
452.283936 188.0
452.465149 176.0
452.681091 188.0
452.77002 172.0
452.926758 184.0
452.979858 156.0
453.132141 116.0
453.267395 168.0
453.369202 128.0
453.481812 144.0
453.549652 144.0
453.785431 104.0
454.118469 292.0
454.403198 120.0
454.735291 144.0
454.844055 160.0
454.884491 108.0
454.964752 144.0
455.076904 172.0
455.133118 360.0
455.249054 148.0
455.287231 152.0
455.347992 144.0
455.471893 152.0
455.549713 176.0
455.667297 144.0
455.768921 124.0
455.922272 172.0
456.134918 228.0
456.194305 144.0
456.262329 140.0
456.339417 136.0
456.466431 320.0
456.624908 180.0
456.959839 172.0
457.036438 152.0
457.07193 136.0
457.142914 476.0
457.212402 136.0
457.293549 132.0
457.340729 144.0
457.390839 144.0
457.436493 168.0
457.863525 192.0
457.940094 108.0
457.977295 140.0
458.036194 160.0
458.14505 1284.0
458.339417 164.0
458.441681 152.0
458.553375 136.0
458.697418 164.0
458.897797 152.0
459.115295 240.0
459.152405 384.0
459.25177 180.0
459.349884 144.0
459.439453 124.0
459.528717 144.0
459.584534 144.0
459.806427 200.0
459.938385 140.0
460.102966 124.0
460.544708 128.0
460.648438 144.0
460.751495 172.0
460.822784 164.0
460.861237 160.0
461.023621 204.0
461.197052 160.0
461.258698 204.0
461.332306 112.0
461.574402 100.0
461.613586 140.0
461.790192 160.0
462.096924 244.0
462.148285 148.0
462.5802 140.0
462.656555 180.0
462.706665 152.0
462.817932 160.0
462.975586 212.0
463.319611 180.0
463.533417 176.0
463.629944 152.0
463.715668 232.0
463.972504 148.0
464.040985 188.0
464.292877 152.0
464.474609 148.0
464.976624 152.0
465.024841 156.0
465.205719 172.0
465.304138 136.0
465.355652 180.0
465.44162 168.0
465.609802 160.0
465.751892 180.0
465.838135 120.0
465.891266 152.0
465.921326 204.0
466.3013 124.0
466.346771 148.0
466.401703 148.0
466.664886 160.0
466.780243 160.0
466.84549 152.0
467.187408 140.0
467.249847 156.0
467.336334 112.0
467.543152 96.0
467.637817 148.0
467.687256 124.0
467.749054 248.0
467.88681 160.0
467.940247 156.0
468.067657 140.0
468.137207 224.0
468.360504 140.0
468.602509 116.0
468.68222 156.0
468.741791 128.0
469.054291 156.0
469.197052 104.0
469.390564 368.0
469.450958 160.0
469.576019 184.0
469.725555 156.0
469.882294 256.0
470.082031 152.0
470.143677 248.0
470.199127 144.0
470.654327 336.0
470.797424 176.0
470.848572 108.0
470.911957 116.0
471.0177 200.0
471.052521 128.0
471.121368 156.0
471.160126 116.0
471.38797 132.0
471.43454 120.0
471.557831 128.0
471.600586 132.0
471.688934 156.0
471.912292 200.0
471.994934 108.0
472.054993 172.0
472.131348 2692.0
472.18045 296.0
472.23764 148.0
472.290192 336.0
472.767822 160.0
472.803436 152.0
472.866943 136.0
472.955597 104.0
473.045837 160.0
473.131287 1048.0
473.173553 352.0
473.318604 140.0
473.35083 204.0
473.472046 120.0
473.543793 164.0
473.770294 180.0
473.843933 112.0
473.886017 148.0
474.033356 204.0
474.075562 152.0
474.185669 560.0
474.292542 120.0
474.356995 132.0
474.518829 168.0
474.813721 168.0
474.9133 104.0
475.125366 184.0
475.176544 312.0
475.23764 188.0
475.384003 168.0
475.502106 120.0
475.603394 160.0
475.723633 120.0
475.774017 352.0
475.914673 188.0
476.017578 212.0
476.191406 312.0
476.284149 152.0
476.679535 164.0
476.887848 140.0
476.942291 284.0
476.997528 136.0
477.026337 156.0
477.34433 144.0
477.692322 128.0
478.024231 140.0
478.443542 212.0
478.626465 120.0
478.901764 136.0
479.096649 120.0
479.17572 152.0
479.321014 192.0
479.387421 132.0
479.56955 180.0
479.742462 228.0
479.858063 208.0
479.987579 204.0
480.128418 144.0
480.429169 148.0
480.51001 272.0
480.855896 148.0
480.937225 160.0
481.010895 140.0
481.150085 180.0
481.226715 164.0
481.442078 148.0
481.570648 164.0
481.608032 140.0
481.704437 204.0
481.765747 152.0
481.93927 224.0
482.01944 96.0
482.144196 124.0
482.212738 292.0
482.289215 112.0
482.409332 216.0
482.470215 228.0
482.592377 120.0
482.704254 160.0
482.795288 100.0
482.845917 208.0
482.889587 160.0
482.947571 280.0
483.025574 152.0
483.124939 156.0
483.182281 112.0
483.248077 108.0
483.357666 148.0
483.391754 236.0
483.523132 180.0
483.577911 108.0
483.672546 172.0
483.720093 220.0
483.842072 132.0
484.092255 160.0
484.165039 1636.0
484.251953 148.0
484.317535 128.0
484.428467 192.0
484.567657 148.0
484.618469 128.0
484.780975 248.0
485.166443 712.0
485.398926 252.0
485.58197 176.0
485.645203 172.0
485.729645 120.0
485.822296 188.0
485.930206 136.0
485.99472 156.0
486.046234 300.0
486.144989 1528.0
486.348297 240.0
486.628326 252.0
486.812286 148.0
486.896973 108.0
486.943573 108.0
487.04837 176.0
487.149384 1184.0
487.254181 360.0
487.343597 180.0
487.480591 160.0
487.744476 176.0
487.808594 156.0
488.059204 256.0
488.149994 300.0
488.375854 184.0
488.524567 144.0
488.605621 140.0
488.641602 152.0
488.704773 120.0
488.777771 144.0
488.881958 140.0
489.060822 108.0
489.327789 268.0
489.411621 148.0
489.444977 160.0
489.542175 148.0
489.706879 152.0
489.90744 260.0
490.08194 180.0
490.136414 304.0
490.184296 168.0
490.277893 180.0
490.376617 220.0
490.505951 184.0
490.548401 188.0
490.590851 148.0
490.714294 188.0
490.789246 160.0
490.907013 148.0
490.956818 144.0
491.237762 248.0
491.336182 156.0
491.374634 168.0
491.525909 164.0
491.594788 292.0
491.724518 176.0
491.941803 176.0
492.14389 140.0
492.238464 144.0
492.439789 208.0
492.539551 116.0
492.574677 132.0
492.625305 276.0
492.779938 172.0
492.957825 172.0
493.097229 144.0
493.269684 172.0
493.429443 168.0
493.579987 144.0
493.665619 188.0
493.791229 172.0
493.850952 148.0
493.978912 144.0
494.216003 128.0
494.274475 252.0
494.358551 168.0
494.409576 152.0
494.523926 332.0
494.577209 304.0
494.636749 112.0
494.723328 224.0
494.765869 204.0
494.950256 148.0
495.044312 124.0
495.147339 236.0
495.193359 188.0
495.25589 180.0
495.376038 160.0
495.548065 140.0
495.615082 160.0
495.708649 176.0
495.833344 164.0
495.927124 328.0
496.039856 148.0
496.097717 128.0
496.286682 136.0
496.337799 344.0
496.465668 260.0
496.510742 132.0
496.56488 152.0
496.636505 108.0
496.78064 160.0
496.817749 232.0
496.929932 124.0
496.98819 160.0
497.062286 124.0
497.105225 100.0
497.267395 156.0
497.303406 260.0
497.361267 128.0
497.45047 148.0
497.519684 96.0
497.563324 164.0
497.600891 108.0
497.812012 256.0
497.923523 244.0
498.14447 212.0
498.233551 212.0
498.275665 208.0
498.31369 200.0
498.443268 112.0
498.515411 152.0
498.572784 188.0
498.642517 180.0
498.67395 368.0
498.719604 128.0
498.783569 208.0
498.861755 176.0
498.941956 228.0
499.078064 112.0
499.113098 96.0
499.166473 168.0
499.223663 148.0
499.271271 208.0
499.324738 144.0
499.418091 108.0
499.472076 300.0
499.525055 332.0
499.667969 320.0
499.736267 180.0
499.79657 168.0
499.865662 128.0
499.90744 232.0
499.932159 244.0
500.008118 192.0
500.03363 188.0
500.081604 272.0
500.12735 324.0
500.16391 308.0
500.232056 504.0
500.328613 456.0
500.410309 216.0
500.456238 304.0
500.502289 352.0
500.5448 160.0
500.604431 284.0
500.615967 200.0
500.683777 404.0
500.697784 228.0
500.711487 380.0
500.78775 484.0
500.867126 500.0
500.907166 412.0
500.923248 516.0
500.978516 536.0
501.051636 256.0
501.102509 740.0
501.150269 636.0
501.190582 644.0
501.242981 512.0
501.30658 504.0
501.356537 744.0
501.430847 440.0
501.509766 676.0
501.546051 544.0
501.628601 572.0
501.692566 596.0
501.757385 972.0
501.799164 728.0
501.841064 860.0
501.914673 708.0
501.961548 1432.0
502.07431 2788.0
502.178619 387524.0
502.328888 300.0
502.493591 444.0
502.597229 1908.0
502.655609 864.0
502.689819 868.0
502.852295 832.0
502.921539 21904.0
502.972229 1636.0
503.182098 266132.0
503.314911 328.0
503.35257 260.0
503.454407 244.0
503.494598 160.0
503.532806 256.0
503.602112 608.0
503.660828 700.0
503.710388 872.0
503.785553 376.0
503.86377 156.0
503.921387 840.0
503.972076 664.0
504.067169 456.0
504.183624 56160.0
504.348175 428.0
504.394104 316.0
504.450073 300.0
504.574097 144.0
504.671417 252.0
504.735382 248.0
504.782745 264.0
504.816406 384.0
504.916412 200.0
505.001892 224.0
505.083282 296.0
505.117523 320.0
505.184052 5984.0
505.339508 212.0
505.376801 280.0
505.420837 316.0
505.485046 124.0
505.577667 284.0
505.63031 244.0
505.706543 208.0
505.777435 596.0
505.828339 388.0
505.8927 464.0
506.022217 412.0
506.107697 336.0
506.193817 908.0
506.265625 488.0
506.326324 360.0
506.404968 316.0
506.456085 444.0
506.551666 348.0
506.606903 172.0
506.661682 116.0
506.75293 156.0
506.800537 260.0
506.86792 260.0
506.983582 244.0
507.026123 208.0
507.076782 124.0
507.158691 268.0
507.209595 360.0
507.291016 248.0
507.337128 216.0
507.386047 212.0
507.442657 208.0
507.515106 116.0
507.606445 136.0
507.664124 196.0
507.784302 100.0
507.897705 140.0
508.21994 124.0
508.289581 104.0
508.376709 120.0
508.458588 136.0
509.0466 100.0
509.404755 224.0
509.532043 104.0
509.831543 100.0
511.069946 108.0
511.368805 124.0
512.041687 168.0
512.648315 136.0
512.928223 132.0
513.244263 108.0
513.38855 140.0
513.735474 104.0
514.474976 136.0
515.098328 108.0
516.528564 120.0
518.490417 192.0
518.596924 108.0
518.879944 124.0
518.984253 116.0
519.537048 100.0
520.270935 100.0
520.327576 128.0
520.552368 152.0
521.676514 112.0
521.715515 96.0
522.675537 108.0
522.795837 144.0
524.012939 96.0
524.082397 188.0
524.61731 108.0
524.929749 96.0
525.902893 192.0
526.168945 168.0
526.211548 96.0
526.3927 148.0
526.644958 100.0
527.248962 132.0
527.548889 96.0
527.804688 140.0
527.900757 184.0
529.627014 112.0
533.34552 104.0
541.899231 148.0
545.037903 96.0
547.327576 200.0
553.536621 104.0
564.077515 144.0
565.406067 112.0
571.011475 152.0
576.145386 148.0
579.020264 152.0
597.119873 168.0
606.617249 148.0
623.898071 144.0
630.201294 176.0
632.31665 140.0
632.361694 176.0
632.809875 120.0
633.159363 100.0
638.299194 112.0
642.830444 160.0
678.516357 152.0
681.446411 128.0
694.569275 104.0
699.389099 120.0
716.396301 144.0
721.4021 180.0
725.133057 168.0
726.973389 116.0
727.796692 164.0
739.57489 120.0
747.124878 108.0
747.881958 112.0
750.271484 96.0
757.062073 144.0
768.867737 108.0
783.346497 108.0
832.860657 112.0
843.496887 136.0
847.515442 164.0
866.429932 164.0
920.555054 112.0
933.493652 100.0
951.768311 144.0
958.85321 120.0
959.62262 116.0
969.522644 160.0
998.457214 120.0
1000.954346 104.0
1030.776245 112.0
1034.183472 220.0
1074.548096 132.0
1124.00708 144.0
1132.598267 176.0
1136.037231 176.0
1145.291016 112.0
1150.540283 140.0
1159.953735 108.0
1183.743042 152.0
1208.320435 104.0
1210.573242 160.0
1259.443115 144.0
1312.804077 140.0
1319.427246 100.0
1337.740723 96.0
1354.119263 124.0
1372.428833 148.0
1453.644165 216.0
1472.44104 144.0
1489.39917 140.0
1525.083252 160.0
1533.40271 116.0
1562.369629 156.0
1562.880981 148.0
1585.228516 148.0
1619.439819 196.0
1648.985107 160.0
1707.174316 188.0
1713.405518 172.0
1743.742188 144.0
1749.132202 148.0
1753.091553 120.0
1800.529175 96.0
1806.728394 148.0
1808.319214 148.0
1835.556519 156.0
1841.86377 156.0
1856.962891 184.0
1865.375488 116.0
1897.47644 168.0
1898.259766 180.0
1929.700195 160.0
1974.328125 160.0
1975.743408 232.0
1976.415894 140.0
1988.131104 184.0
