>compound Paclitaxel (Taxol)
>formula C47H51NO14
>ionization [M+Na]+
>parentmass 876.3201760120904
#inchi InChI=1S/C47H51NO14/c1-25-31(60-43(56)36(52)35(28-16-10-7-11-17-28)48-41(54)29-18-12-8-13-19-29)23-47(57)40(61-42(55)30-20-14-9-15-21-30)38-45(6,32(51)22-33-46(38,24-58-33)62-27(3)50)39(53)37(59-26(2)49)34(25)44(47,4)5/h7-21,31-33,35-38,40,51-52,57H,22-24H2,1-6H3,(H,48,54)/t31-,32+,33+,35-,36+,37+,38?,40-,45+,46-,47+/m0/s1
#inchikey RCINICONZNJXQF
#Ion_Source LC-ESI
#Instrument qTof
#Compound_Source Commercial
#PI Dorrestein
#Data_Collector Garg_Neha
#Scan -1
#Precursor_MZ 876.32
#ExactMass 853.331
#Charge 1
#CAS_Number 33069-62-4, 157069-30-2, 1203669-79-7
#Pubmed_ID N/A
#Smiles C1=CC=CC(=C1)C(=O)N[C@H]([C@H](C(O[C@H]2C[C@@]3(C(C(=C2C)[C@H](C(=O)[C@]4(C([C@]5([C@@H](C[C@H]4O)OC5)OC(C)=O)[C@@H]3OC(C6=CC=CC=C6)=O)C)OC(C)=O)(C)C)O)=O)O)C7=CC=CC=C7
#INCHI_AUX N/A
#Library_Class 1
#SpectrumID CCMSLIB00000078026
#IonMode Positive
#UpdateWorkflowName UPDATE-SINGLE-ANNOTATED-GOLD
#LibraryQualityString Gold
#TaskID 77f51c88eb8b467eb4a01dd2d0cb90d2
##Scan# 1874
#SpectrumFile Plate1_21_40_GG2_01_16489.mzXML
#LibraryName FDALibrary_2_04302014.mgf
#MQScore -1
#Organism FDALibrary_2_04302014
#TIC_Query 0
#RT_Query -1
#MZErrorPPM -1
#SharedPeaks 0
#MassDiff 0
#LibMZ -1
#SpecMZ 876.32
#SpecCharge 0
#internalFilename spec-00000.mgf

>collision 10
56.277332 180.0
57.896935 156.0
65.489609 156.0
66.320137 144.0
86.599724 164.0
95.592049 176.0
98.152405 164.0
105.034088 360.0
107.29248 168.0
110.706543 152.0
117.72747 148.0
119.084358 192.0
121.069382 260.0
122.064293 216.0
123.044823 152.0
125.79776 184.0
126.101555 148.0
129.069122 160.0
133.065857 364.0
134.670914 168.0
142.092453 184.0
143.920441 148.0
144.043793 320.0
145.068863 328.0
149.092957 172.0
150.032257 168.0
150.100525 188.0
152.551407 184.0
155.08905 188.0
155.324615 200.0
155.686996 148.0
157.103302 164.0
157.153198 156.0
160.680954 212.0
161.057114 148.0
161.084396 184.0
163.1147 160.0
164.120361 188.0
165.054688 172.0
165.09584 212.0
166.079361 168.0
167.084213 176.0
169.105911 120.0
170.10231 248.0
171.115005 144.0
173.053574 152.0
174.097244 160.0
175.079758 196.0
175.130875 216.0
176.113937 236.0
177.088104 200.0
179.088181 180.0
182.108002 148.0
183.060623 344.0
183.125397 156.0
184.103745 144.0
185.096054 144.0
185.139526 172.0
187.106705 180.0
190.304428 156.0
191.063019 180.0
192.606796 140.0
194.106873 156.0
195.119186 536.0
196.126709 192.0
197.106308 168.0
198.14299 224.0
201.098526 188.0
203.110367 192.0
207.120117 188.0
209.135071 176.0
210.113754 224.0
211.115219 148.0
211.145386 364.0
213.130814 384.0
215.114624 220.0
216.116653 208.0
217.770096 176.0
219.096786 144.0
220.613708 164.0
221.078094 156.0
221.13739 224.0
222.100281 156.0
222.129944 160.0
223.108673 268.0
225.084549 168.0
225.124832 292.0
225.160065 140.0
229.125687 156.0
230.045517 168.0
231.191086 140.0
232.051361 172.0
234.104782 168.0
235.105148 156.0
235.151337 136.0
237.12561 168.0
238.12117 148.0
239.148438 224.0
240.151962 136.0
240.927414 164.0
241.162262 176.0
243.178665 168.0
245.072571 180.0
245.122421 176.0
246.526718 144.0
247.070786 288.0
248.119965 156.0
251.100235 324.0
251.148361 172.0
252.117645 248.0
252.146103 140.0
252.225113 164.0
253.114151 160.0
254.141159 152.0
255.080566 132.0
255.141647 168.0
260.025879 160.0
261.063599 164.0
262.087677 208.0
263.087128 148.0
263.140381 96.0
264.885162 176.0
265.069824 192.0
273.13031 156.0
273.677368 144.0
277.129089 152.0
279.12915 148.0
281.155579 252.0
283.138702 200.0
284.144348 164.0
288.117126 180.0
290.081635 164.0
291.080872 220.0
291.135864 148.0
297.15686 160.0
299.120331 208.0
299.155701 260.0
300.152649 140.0
300.194122 184.0
307.130829 152.0
307.493713 188.0
307.800903 140.0
308.087677 9828.0
309.091675 1704.0
309.148865 176.0
310.088318 444.0
310.144989 176.0
317.801514 144.0
323.167633 196.0
326.939117 140.0
327.155243 296.0
328.15097 212.0
344.160065 96.0
345.162659 152.0
349.143921 488.0
350.10202 276.0
351.10675 156.0
355.136475 144.0
360.063324 140.0
366.184906 224.0
369.169403 236.0
381.158539 132.0
381.193634 224.0
387.179871 252.0
407.18457 144.0
409.161469 620.0
410.168518 148.0
411.169952 112.0
412.112671 148.0
418.288116 208.0
424.625641 208.0
425.194733 404.0
427.16922 140.0
432.512115 176.0
435.480988 172.0
449.186218 192.0
449.873718 140.0
452.990448 232.0
453.147186 160.0
454.156158 148.0
459.179382 176.0
469.185913 1100.0
470.1875 340.0
471.179077 416.0
472.184906 196.0
489.186279 160.0
492.788727 172.0
503.201385 452.0
509.217682 176.0
510.206787 192.0
511.208496 144.0
513.178284 136.0
515.191589 156.0
531.196289 2624.0
532.207825 844.0
533.219482 368.0
538.600403 152.0
548.232605 120.0
560.882996 144.0
569.240662 160.0
591.217957 1592.0
592.224365 636.0
593.209045 144.0
594.237061 108.0
596.326843 140.0
609.242065 132.0
636.245422 200.0
681.323181 152.0
694.249573 404.0
695.260193 116.0
743.344666 192.0
745.277771 148.0
770.233643 144.0
774.609253 156.0
777.753357 140.0
816.241089 152.0
816.295837 124.0
819.27478 140.0
832.240906 180.0
872.041809 576.0
872.908081 224.0
874.961609 172.0
876.201477 176.0
876.315674 13312.0
876.563721 168.0
877.319031 5420.0
877.842957 180.0
878.32196 2672.0
878.49762 200.0
879.326111 612.0
880.320618 164.0
881.027344 104.0
1374.688477 160.0
1746.220825 164.0
1779.707397 140.0
1789.35144 184.0
1816.437378 140.0
1871.95166 140.0
1930.679688 184.0
1950.161255 188.0
