>compound Betapar
>formula C22H28O5 
>ionization [M+H]+
>parentmass 373.2009504480905
#inchi InChI=1S/C22H28O5/c1-12-8-16-15-5-4-13-9-14(24)6-7-20(13,2)19(15)17(25)10-21(16,3)22(12,27)18(26)11-23/h6-7,9,12,15-16,19,23,27H,4-5,8,10-11H2,1-3H3/t12-,15-,16?,19?,20-,21-,22-/m0/s1
#inchikey PIDANAQULIKBQS
#Ion_Source LC-ESI
#Instrument qTof
#Compound_Source Isolated
#PI Sirenas
#Data_Collector Ed Esquenazi 
#Scan -1
#Precursor_MZ 373.164
#ExactMass 0.0
#Charge 1
#CAS_Number N/A
#Pubmed_ID N/A
#Smiles N/A
#INCHI_AUX N/A
#Library_Class 3
#SpectrumID CCMSLIB00000005655
#IonMode Positive
#UpdateWorkflowName UPDATE-SINGLE-ANNOTATED-BRONZE
#LibraryQualityString Bronze
#TaskID d19310cd93df49b68e9fcbec27720eb5
##Scan# 1
#SpectrumFile Betapar.mgf
#LibraryName fda_library.mgf
#MQScore -1
#Organism fda_library
#TIC_Query 0
#RT_Query -1
#MZErrorPPM -1
#SharedPeaks 0
#MassDiff 0
#LibMZ -1
#SpecMZ 373.164
#SpecCharge 0
#internalFilename spec-00000.mgf

>collision 10
106.82946 12.5
147.078247 272.704193
148.255951 15.68371
151.077118 53.564449
167.066437 172.878693
171.079788 128.914703
201.127518 91.718002
211.070068 17.405001
223.106384 36.662849
225.131882 34.185181
229.121704 87.630676
235.11615 130.819504
235.142227 104.425598
235.169434 11.67361
237.127426 36.76593
247.108246 52.325981
260.113068 15.11773
263.139771 122.727303
265.154022 63.04076
276.939728 16.001329
277.119019 47.61557
281.144714 35.082851
283.132996 52.46944
284.417328 12.0504
291.138275 131.155197
291.952942 21.4375
293.160828 20.617729
294.158142 112.242897
299.16156 30.68182
311.164185 83.982857
319.12854 257.9776
325.191345 14.22917
326.893738 11.575
327.155853 498.056702
327.266571 19.347759
327.409546 10.8025
327.549835 11.14205
331.559204 12.675
337.13858 102.252899
355.151825 658.620117
355.315979 24.133329
370.786163 25.1875
373.164642 463.556702
373.305847 18.148279
374.06546 34.98011
