>compound MLS002154116-01!Levocabastine hydrochloride79547-78-7
>formula C26H29FN2O2
>ionization [M+H]+
>parentmass 421.229614
#inchi InChI=1S/C26H29FN2O2/c1-19-17-29(16-15-26(19,24(30)31)21-5-3-2-4-6-21)23-11-13-25(18-28,14-12-23)20-7-9-22(27)10-8-20/h2-10,19,23H,11-17H2,1H3,(H,30,31)/t19-,23-,25-,26-/m1/s1
#inchikey ZCGOMHNNNFPNMX
#origInchi InChI=1S/C26H29FN2O2.ClH/c1-19-17-29(16-15-26(19,24(30)31)21-5-3-2-4-6-21)23-11-13-25(18-28,14-12-23)20-7-9-22(27)10-8-20;/h2-10,19,23H,11-17H2,1H3,(H,30,31);1H/t19-,23-,25-,26-;/m1./s1
#Ion_Source LC-ESI
#Instrument qTof
#Compound_Source NIH Pharmacologically Active Library
#PI Dorrestein
#Data_Collector VP/LMS
#Scan -1
#Precursor_MZ 421.235
#ExactMass 420.221
#Charge 1
#CAS_Number N/A
#Pubmed_ID N/A
#Smiles C[C@@H]1CN(CC[C@]1(C(=O)O)c2ccccc2)[C@H]3CC[C@](CC3)(C#N)c4ccc(F)cc4.Cl
#INCHI_AUX N/A
#Library_Class 1
#SpectrumID CCMSLIB00000086153
#IonMode Positive
#UpdateWorkflowName UPDATE-SINGLE-ANNOTATED-GOLD
#LibraryQualityString Gold
#TaskID d252d724072548979f1f6f1ced849daf
##Scan# 1702
#SpectrumFile p5-G03_GG3_01_18472.mzXML
#LibraryName Pharm_Active_Library.mgf
#MQScore -1
#Organism Pharm_Active_Library
#TIC_Query 0
#RT_Query -1
#MZErrorPPM -1
#SharedPeaks 0
#MassDiff 0
#LibMZ -1
#SpecMZ 421.235
#SpecCharge 0
#internalFilename spec-00000.mgf

>collision 10
44.899963 212.0
44.933308 36.0
44.94265 196.0
45.118946 124.0
45.128864 196.0
45.139725 148.0
45.247383 124.0
45.338467 164.0
45.527626 104.0
45.620255 136.0
45.675468 160.0
45.688919 160.0
45.706505 172.0
45.75621 184.0
45.903076 224.0
45.950287 112.0
45.969177 112.0
46.005424 140.0
46.015068 176.0
46.076965 188.0
46.132603 128.0
46.148827 168.0
46.179928 128.0
46.219162 148.0
46.23946 112.0
46.286842 68.0
46.384388 72.0
46.431843 176.0
46.551266 124.0
46.600166 212.0
46.721165 40.0
46.831425 132.0
46.945908 84.0
47.026402 116.0
47.094669 176.0
47.104229 128.0
47.128441 144.0
47.167088 156.0
47.208103 168.0
47.228619 84.0
47.459103 132.0
47.517666 120.0
47.571949 144.0
47.631607 184.0
47.697563 140.0
47.724541 232.0
47.758064 180.0
47.879181 128.0
47.943932 164.0
47.993153 164.0
48.03907 136.0
48.048725 112.0
48.1343 44.0
48.161922 216.0
48.179878 204.0
48.23101 228.0
48.262806 192.0
48.280781 180.0
48.308445 152.0
48.528648 112.0
48.591061 136.0
48.654697 164.0
48.681282 76.0
48.743793 108.0
48.7841 120.0
48.803562 108.0
48.849667 188.0
48.895374 124.0
48.954945 172.0
48.968956 188.0
49.03186 136.0
49.059738 172.0
49.104359 164.0
49.209015 140.0
49.227169 124.0
49.270466 48.0
49.333355 168.0
49.382294 204.0
49.469048 164.0
49.504051 120.0
49.663822 156.0
49.759247 176.0
49.895523 32.0
50.013687 124.0
50.127476 196.0
50.156708 164.0
50.182739 212.0
50.267368 140.0
50.28854 188.0
50.359135 204.0
50.460876 168.0
50.476433 164.0
50.499058 172.0
50.516033 96.0
50.575462 128.0
50.588203 188.0
50.61652 204.0
50.681679 160.0
50.749714 164.0
50.78091 156.0
50.80928 60.0
50.846172 156.0
50.86171 76.0
50.873142 132.0
50.890179 88.0
50.934204 136.0
50.95409 164.0
50.975403 148.0
51.057858 124.0
51.094841 156.0
51.120453 136.0
51.143223 192.0
51.168846 148.0
51.25573 152.0
51.275681 28.0
51.375492 52.0
51.531109 180.0
51.569695 188.0
51.749245 148.0
51.78001 172.0
51.805634 180.0
51.853081 28.0
51.893215 132.0
51.904686 188.0
51.9305 160.0
52.043869 136.0
52.094135 148.0
52.121433 172.0
52.140118 164.0
52.197617 200.0
52.224945 144.0
52.249397 212.0
52.279613 296.0
52.305519 112.0
52.315598 212.0
52.337193 132.0
52.357353 116.0
52.373196 92.0
52.394806 140.0
52.425064 144.0
52.491375 252.0
52.625565 72.0
52.642895 168.0
52.695236 252.0
52.777279 112.0
52.787399 104.0
52.808002 228.0
52.845257 76.0
52.92197 148.0
52.948032 168.0
53.003773 136.0
53.019024 168.0
53.05526 140.0
53.10601 116.0
53.211945 140.0
53.303452 180.0
53.460503 216.0
53.477966 56.0
53.491066 168.0
53.51358 172.0
53.540573 212.0
53.635277 156.0
53.646938 216.0
53.664433 192.0
53.719852 196.0
53.77092 64.0
53.794273 116.0
53.849762 92.0
53.912891 192.0
53.925735 40.0
53.950584 172.0
54.006149 196.0
54.019318 60.0
54.042725 84.0
54.092484 148.0
54.178883 96.0
54.337215 128.0
54.373901 148.0
54.43298 148.0
54.457588 196.0
54.475216 260.0
54.504601 184.0
54.519295 104.0
54.56633 184.0
54.608974 132.0
54.661938 180.0
54.695786 200.0
54.724854 280.0
54.807713 120.0
54.845093 176.0
54.86372 144.0
54.944832 60.0
55.006813 124.0
55.055538 112.0
55.217674 152.0
55.268402 112.0
55.283199 144.0
55.332275 180.0
55.378056 164.0
55.407574 132.0
55.432762 84.0
55.509846 128.0
55.55434 192.0
55.593525 216.0
55.683479 124.0
55.814255 112.0
55.89904 156.0
55.939224 196.0
55.976448 104.0
56.030067 140.0
56.195557 156.0
56.211971 108.0
56.261227 124.0
56.376236 140.0
56.435986 144.0
56.561695 164.0
56.642555 244.0
56.657536 204.0
56.694996 152.0
56.723473 136.0
56.748959 144.0
56.766953 132.0
56.865967 140.0
56.889984 208.0
56.945541 148.0
57.017658 140.0
57.067295 184.0
57.110874 120.0
57.300549 148.0
57.357815 200.0
57.436222 128.0
57.501102 132.0
57.517704 172.0
57.592396 172.0
57.606796 164.0
57.647591 120.0
57.780651 184.0
57.798809 184.0
57.886604 204.0
58.01236 168.0
58.04723 200.0
58.068462 148.0
58.212635 148.0
58.341782 140.0
58.419338 176.0
58.443684 192.0
58.496948 180.0
58.611176 176.0
58.628246 196.0
58.649273 180.0
58.681286 200.0
58.765171 100.0
58.817059 56.0
58.850647 132.0
58.891876 160.0
58.905624 180.0
58.954517 204.0
59.06065 184.0
59.072247 172.0
59.122738 236.0
59.193157 176.0
59.277409 152.0
59.352043 168.0
59.377052 80.0
59.393925 180.0
59.415401 172.0
59.558163 140.0
59.587353 148.0
59.601181 164.0
59.739548 64.0
59.781487 188.0
59.805717 204.0
59.881382 196.0
59.91967 188.0
59.939217 204.0
60.016769 168.0
60.063038 120.0
60.156864 144.0
60.198853 144.0
60.274544 232.0
60.306999 152.0
60.336369 168.0
60.361107 80.0
60.422382 188.0
60.444637 80.0
60.46785 168.0
60.505001 128.0
60.522034 192.0
60.57159 84.0
60.672318 184.0
60.697308 172.0
60.742104 80.0
60.776234 176.0
60.811924 188.0
60.856945 56.0
60.895767 200.0
60.942371 248.0
60.98122 104.0
61.01231 192.0
61.023193 176.0
61.076065 208.0
61.091339 176.0
61.170986 192.0
61.181881 152.0
61.242611 68.0
61.294708 200.0
61.334545 120.0
61.382874 160.0
61.403149 128.0
61.462036 192.0
61.521736 96.0
61.537346 184.0
61.612312 168.0
61.648251 164.0
61.660751 184.0
61.75769 144.0
61.785847 68.0
61.867035 132.0
61.884445 104.0
61.896973 52.0
61.932991 104.0
61.95649 124.0
62.063065 80.0
62.33305 260.0
62.345619 152.0
62.373703 212.0
62.388062 160.0
62.413216 152.0
62.551662 160.0
62.575275 184.0
62.795891 92.0
62.982136 228.0
63.080105 164.0
63.11805 176.0
63.144936 176.0
63.165497 104.0
63.179733 88.0
63.193974 228.0
63.23037 156.0
63.260441 180.0
63.390968 224.0
63.445789 324.0
63.515881 160.0
63.537773 176.0
63.575855 168.0
63.617123 156.0
63.639351 108.0
63.666344 40.0
63.698109 192.0
63.767227 132.0
63.78233 56.0
63.801403 52.0
63.849106 108.0
63.939789 148.0
63.99971 112.0
64.075134 100.0
64.091072 164.0
64.157249 132.0
64.189896 228.0
64.251106 128.0
64.280334 184.0
64.382217 144.0
64.504417 136.0
64.524513 204.0
64.571579 192.0
64.657967 180.0
64.677177 156.0
64.70919 160.0
64.723602 92.0
64.792473 156.0
64.879013 164.0
65.042641 108.0
65.136551 164.0
65.169823 164.0
65.242477 148.0
65.261124 160.0
65.280418 172.0
65.381767 268.0
65.434891 208.0
65.461502 176.0
65.492859 156.0
65.570198 192.0
65.586311 148.0
65.670158 152.0
65.712097 88.0
65.750832 204.0
65.850929 196.0
65.867081 180.0
66.177582 172.0
66.31852 144.0
66.347694 168.0
66.480705 128.0
66.501801 156.0
66.547256 164.0
66.621307 208.0
66.763374 148.0
66.795898 192.0
66.83374 184.0
66.882141 116.0
66.939995 60.0
66.963554 164.0
66.992874 136.0
67.009163 168.0
67.080872 240.0
67.361542 168.0
67.372978 204.0
67.412193 204.0
67.444878 144.0
67.47757 84.0
67.579887 72.0
67.60025 72.0
67.613342 68.0
67.64444 184.0
67.790207 140.0
67.821342 60.0
67.851654 232.0
67.878723 144.0
67.99028 168.0
68.159416 164.0
68.17585 144.0
68.287643 236.0
68.340286 164.0
68.399536 116.0
68.436798 164.0
68.516457 108.0
68.544434 216.0
68.570831 156.0
68.612038 196.0
68.658211 136.0
68.704391 44.0
68.775383 188.0
68.86451 128.0
68.884331 164.0
69.010109 188.0
69.079025 180.0
69.114136 92.0
69.234978 144.0
69.266899 132.0
69.314171 228.0
69.377556 172.0
69.418922 192.0
69.506844 180.0
69.631348 80.0
69.657928 148.0
69.739342 96.0
69.84742 176.0
69.865723 132.0
69.956154 212.0
70.027184 180.0
70.048233 176.0
70.067085 172.0
70.345665 172.0
70.363258 136.0
70.391388 104.0
70.435059 120.0
70.455879 128.0
70.474258 200.0
70.524391 108.0
70.552811 208.0
70.609665 168.0
70.658173 156.0
70.678253 200.0
70.701675 212.0
70.756912 108.0
70.795425 148.0
70.829811 176.0
70.874161 128.0
70.954605 28.0
71.009827 168.0
71.016441 156.0
71.053558 52.0
71.066978 184.0
71.1744 88.0
71.213028 64.0
71.244942 116.0
71.265106 184.0
71.340927 176.0
71.418083 152.0
71.456772 164.0
71.483696 156.0
71.510986 132.0
71.532509 168.0
71.618385 184.0
71.724533 136.0
71.755211 164.0
71.822334 168.0
71.857758 184.0
71.938766 152.0
72.16684 116.0
72.183754 188.0
72.244637 152.0
72.273399 168.0
72.473198 92.0
72.585075 212.0
72.666489 148.0
72.700424 172.0
72.737762 44.0
72.810776 180.0
72.958603 132.0
72.975601 156.0
73.050369 108.0
73.065742 224.0
73.115089 64.0
73.207016 116.0
73.253006 196.0
73.305824 100.0
73.321159 48.0
73.423447 132.0
73.464386 164.0
73.495094 216.0
73.510452 132.0
73.529228 160.0
73.63166 88.0
73.811096 172.0
73.999306 88.0
74.023285 144.0
74.045547 112.0
74.060959 168.0
74.079803 100.0
74.176918 184.0
74.196335 176.0
74.213478 168.0
74.251205 168.0
74.306099 148.0
74.412506 160.0
74.435539 232.0
74.463043 168.0
74.568825 188.0
74.64447 184.0
74.6651 52.0
74.72187 124.0
74.780373 212.0
74.814804 188.0
74.864731 128.0
74.916405 48.0
74.932755 236.0
74.968094 168.0
75.000839 144.0
75.085327 160.0
75.121544 232.0
75.190567 184.0
75.242348 136.0
75.320061 136.0
75.515373 188.0
75.572464 180.0
75.586304 168.0
75.650345 84.0
75.664192 44.0
75.679771 104.0
75.702286 132.0
75.75251 128.0
75.778984 184.0
75.872086 160.0
75.884224 116.0
75.967468 192.0
76.002167 140.0
76.073326 84.0
76.094154 328.0
76.125412 152.0
76.139305 164.0
76.175781 208.0
76.267876 164.0
76.32003 232.0
76.389595 164.0
76.408562 168.0
76.452538 180.0
76.544495 116.0
76.577896 132.0
76.616592 192.0
76.66861 176.0
76.699547 216.0
76.800682 144.0
76.821609 160.0
76.844292 128.0
76.855736 132.0
76.931549 120.0
76.957741 48.0
77.242599 160.0
77.296837 156.0
77.376839 164.0
77.422882 104.0
77.464912 196.0
77.480682 208.0
77.505211 236.0
77.538506 120.0
77.55603 200.0
77.584084 156.0
77.596352 116.0
77.608627 120.0
77.634926 156.0
77.757736 208.0
77.782471 176.0
77.922798 228.0
78.030006 204.0
78.073563 192.0
78.158401 132.0
78.37146 132.0
78.396126 144.0
78.480736 220.0
78.514244 76.0
78.669518 168.0
78.722481 156.0
78.777061 160.0
78.793137 216.0
78.844376 56.0
78.948685 156.0
78.989365 188.0
79.01944 112.0
79.060631 176.0
79.076065 212.0
79.341766 120.0
79.412697 148.0
79.453964 152.0
79.483658 64.0
79.504951 44.0
79.522697 148.0
79.551102 116.0
79.668304 136.0
79.742935 196.0
79.881302 196.0
79.913651 212.0
80.024002 64.0
80.038246 172.0
80.05397 180.0
80.084549 192.0
80.104454 184.0
80.155807 68.0
80.205711 172.0
80.230667 156.0
80.25206 52.0
80.306122 164.0
80.376915 96.0
80.455452 164.0
80.53698 328.0
80.55188 72.0
80.578682 180.0
80.63765 76.0
80.71022 228.0
80.807526 164.0
80.850471 104.0
80.936401 216.0
80.948929 156.0
81.13707 92.0
81.321831 136.0
81.340019 208.0
81.415184 248.0
81.443924 176.0
81.562515 152.0
81.609253 192.0
81.646156 192.0
81.690186 112.0
81.702782 212.0
81.736961 128.0
81.751358 164.0
81.816154 180.0
81.841362 136.0
81.917007 176.0
81.943382 208.0
81.965652 144.0
82.044952 184.0
82.254211 200.0
82.268654 140.0
82.552322 224.0
82.590302 124.0
82.635529 192.0
82.678047 144.0
82.780334 164.0
82.816551 248.0
82.840103 188.0
82.852783 92.0
82.872711 156.0
82.936981 120.0
82.990524 144.0
83.04493 232.0
83.149635 180.0
83.168304 152.0
83.288147 116.0
83.339012 116.0
83.408073 172.0
83.482613 160.0
83.520409 164.0
83.580849 116.0
83.644547 116.0
83.741043 188.0
83.757439 172.0
83.846718 180.0
83.948807 120.0
84.063736 120.0
84.102058 200.0
84.246315 128.0
84.326714 68.0
84.474823 120.0
84.489456 192.0
84.535202 208.0
84.689072 176.0
84.729706 192.0
84.758598 208.0
84.809914 160.0
84.84108 172.0
84.875916 244.0
84.92543 200.0
84.940102 84.0
85.022667 212.0
85.074059 160.0
85.114456 128.0
85.189758 208.0
85.255898 132.0
85.294495 116.0
85.327583 140.0
85.392044 156.0
85.454491 160.0
85.47657 48.0
85.494972 184.0
85.594376 172.0
85.626076 132.0
85.668053 184.0
85.780457 160.0
85.802582 48.0
85.82679 372.0
85.844986 176.0
85.869316 168.0
86.029495 148.0
86.047913 160.0
86.070114 160.0
86.089615 148.0
86.20681 200.0
86.2715 176.0
86.29287 168.0
86.367653 92.0
86.445358 48.0
86.662048 180.0
86.854805 108.0
86.871498 112.0
87.045967 200.0
87.090538 152.0
87.122116 180.0
87.172279 192.0
87.321007 160.0
87.404716 220.0
87.549919 180.0
87.585304 184.0
87.616241 112.0
87.646782 72.0
87.659828 232.0
87.704559 152.0
87.775398 160.0
87.797775 144.0
87.818291 52.0
87.877991 76.0
87.941437 184.0
87.965706 148.0
88.025444 160.0
88.044121 156.0
88.090813 136.0
88.146866 172.0
88.257149 172.0
88.316994 160.0
88.388084 64.0
88.519119 128.0
88.611626 164.0
88.618156 64.0
88.626366 156.0
88.749596 84.0
88.807732 176.0
88.830238 180.0
88.905289 136.0
88.95784 232.0
89.019798 256.0
89.035637 240.0
89.102448 64.0
89.151299 148.0
89.175636 160.0
89.352493 220.0
89.442818 52.0
89.486122 220.0
89.521896 152.0
89.540726 188.0
89.693344 92.0
89.755562 92.0
89.792564 160.0
89.816612 160.0
89.859299 132.0
89.878166 140.0
89.915909 156.0
89.995193 332.0
90.076401 116.0
90.125519 204.0
90.140633 192.0
90.174652 88.0
90.191666 196.0
90.325912 112.0
90.342941 116.0
90.383163 184.0
90.447014 36.0
90.500023 212.0
90.538414 116.0
90.643013 164.0
90.714104 116.0
90.831673 112.0
90.898079 128.0
90.941727 208.0
90.960709 76.0
91.030952 184.0
91.054771 1364.0
91.112381 152.0
91.125931 40.0
91.156334 128.0
91.186737 144.0
91.217148 84.0
91.373093 172.0
91.388313 164.0
91.409241 132.0
91.429314 176.0
91.536781 204.0
91.553917 172.0
91.569153 156.0
91.65593 152.0
91.689178 164.0
91.723488 144.0
91.740646 68.0
91.934937 204.0
92.003906 192.0
92.040184 160.0
92.055862 192.0
92.225494 80.0
92.252258 180.0
92.305794 84.0
92.380379 204.0
92.449265 144.0
92.554871 188.0
92.623489 148.0
92.692459 140.0
92.778564 160.0
92.832397 200.0
92.857384 128.0
92.993546 140.0
93.030022 76.0
93.120911 180.0
93.210556 200.0
93.235542 144.0
93.275902 92.0
93.318199 144.0
93.479767 180.0
93.664597 148.0
93.759003 156.0
93.799484 196.0
93.834183 100.0
93.868889 128.0
93.915176 168.0
94.044449 224.0
94.064621 332.0
94.160294 168.0
94.191193 128.0
94.225967 136.0
94.26075 156.0
94.289734 160.0
94.309441 204.0
94.339989 92.0
94.407661 192.0
94.486969 188.0
94.668915 144.0
94.692154 148.0
94.714149 168.0
94.789017 124.0
94.810333 148.0
94.913994 144.0
94.961555 256.0
95.077965 152.0
95.198326 124.0
95.254654 72.0
95.279907 104.0
95.341972 144.0
95.396507 164.0
95.430771 224.0
95.450943 56.0
95.484001 172.0
95.587112 124.0
95.612404 256.0
95.694405 192.0
95.768166 76.0
95.828552 164.0
95.846092 196.0
95.873367 116.0
95.894806 68.0
95.943985 148.0
96.045929 172.0
96.083961 732.0
96.20105 264.0
96.244003 156.0
96.362404 200.0
96.498001 88.0
96.621216 92.0
96.7034 172.0
96.721016 156.0
96.76017 172.0
96.791496 140.0
96.828705 156.0
96.94429 148.0
96.98259 244.0
97.040245 164.0
97.173706 196.0
97.224724 92.0
97.242393 168.0
97.364113 164.0
97.442329 156.0
97.476089 168.0
97.548805 128.0
97.584198 240.0
97.605827 96.0
97.619591 152.0
97.74987 192.0
97.84613 180.0
97.900993 124.0
98.029045 188.0
98.058487 136.0
98.096252 344.0
98.151093 140.0
98.194641 152.0
98.230148 132.0
98.243958 148.0
98.263687 112.0
98.289337 184.0
98.318939 204.0
98.348541 156.0
98.388023 136.0
98.587517 132.0
98.777321 196.0
98.797104 144.0
98.822823 120.0
98.967316 124.0
98.981171 172.0
99.048508 196.0
99.135681 180.0
99.2229 148.0
99.337921 208.0
99.444649 208.0
99.470871 148.0
99.496681 124.0
99.52845 176.0
99.599945 136.0
99.617821 52.0
99.70723 192.0
99.748383 148.0
99.812592 172.0
99.868279 152.0
99.975708 152.0
100.05732 240.0
100.07325 224.0
100.161705 192.0
100.198723 180.0
100.344215 184.0
100.387177 228.0
100.507767 120.0
100.531708 216.0
100.559647 108.0
100.573624 208.0
100.60556 84.0
100.633514 156.0
100.781311 64.0
100.818535 64.0
100.839264 144.0
100.880135 188.0
101.029228 220.0
101.06601 156.0
101.136154 340.0
101.163307 76.0
101.196342 152.0
101.241394 132.0
101.289459 160.0
101.306519 156.0
101.35218 184.0
101.467819 88.0
101.505913 196.0
101.547165 204.0
101.590149 136.0
101.698097 176.0
101.714432 240.0
101.841064 152.0
101.899323 224.0
102.027946 136.0
102.09832 92.0
102.150612 92.0
102.337776 216.0
102.388123 168.0
102.462654 180.0
102.508591 160.0
102.545914 288.0
102.623886 200.0
102.654137 136.0
102.688416 232.0
102.783234 216.0
102.977036 124.0
103.053528 520.0
103.247856 52.0
103.294373 164.0
103.316628 148.0
103.387444 144.0
103.405663 36.0
103.448166 36.0
103.482582 124.0
103.525299 228.0
103.585922 144.0
103.667641 164.0
103.754066 108.0
103.796646 120.0
103.839233 92.0
103.908203 128.0
103.942696 228.0
104.04303 156.0
104.149773 200.0
104.168053 108.0
104.182274 164.0
104.20665 168.0
104.306229 232.0
104.334694 108.0
104.355019 176.0
104.373322 160.0
104.497391 120.0
104.586937 200.0
104.607292 72.0
104.641899 188.0
104.723351 164.0
104.743721 180.0
104.825218 164.0
104.971985 152.0
105.013794 192.0
105.034271 980.0
105.069603 3372.0
105.206627 180.0
105.227036 156.0
105.24337 52.0
105.300552 180.0
105.35775 56.0
105.427216 172.0
105.443565 100.0
105.50489 112.0
105.576454 132.0
105.617355 116.0
105.680779 132.0
105.738075 128.0
105.763176 76.0
105.79129 128.0
105.877289 168.0
105.911972 152.0
105.98381 156.0
106.065842 1064.0
106.131386 208.0
106.148056 188.0
106.1642 76.0
106.229836 100.0
106.288979 232.0
106.3078 236.0
106.36116 88.0
106.50489 144.0
106.529541 108.0
106.556252 164.0
106.808441 260.0
106.835846 40.0
106.854362 48.0
106.95108 120.0
106.986076 224.0
107.00975 196.0
107.028831 808.0
107.047562 340.0
107.072304 160.0
107.095215 144.0
107.165565 188.0
107.330147 84.0
107.443588 100.0
107.462158 136.0
107.488976 76.0
107.511681 148.0
107.594246 172.0
107.645859 128.0
107.804924 116.0
107.850891 232.0
107.895935 128.0
107.962036 132.0
107.9972 96.0
108.023384 160.0
108.055122 124.0
108.162727 144.0
108.245544 168.0
108.390488 152.0
108.456863 44.0
108.478195 288.0
108.54808 168.0
108.575043 192.0
108.606148 172.0
108.652679 160.0
108.672539 184.0
108.705734 144.0
108.724358 148.0
108.778374 184.0
108.828201 240.0
108.927246 168.0
108.932472 212.0
108.950737 184.0
109.023369 352.0
109.045715 36184.0
109.081001 176.0
109.122818 92.0
109.165634 144.0
109.205132 168.0
109.227219 92.0
109.25135 60.0
109.264664 156.0
109.306274 72.0
109.327087 40.0
109.354141 64.0
109.388695 88.0
109.408264 60.0
109.428268 164.0
109.46656 52.0
109.483086 60.0
109.496796 116.0
109.512383 48.0
109.528664 88.0
109.583206 128.0
109.606125 132.0
109.656143 64.0
109.685318 104.0
109.72493 232.0
109.767166 188.0
109.93351 64.0
109.96064 48.0
110.014915 32.0
110.048347 2732.0
110.069199 44.0
110.098434 152.0
110.123497 160.0
110.22377 128.0
110.265572 84.0
110.315735 184.0
110.330368 188.0
110.349823 144.0
110.432831 128.0
110.463158 208.0
110.498375 156.0
110.51651 84.0
110.555862 188.0
110.591843 232.0
110.624939 148.0
110.65995 120.0
110.693459 224.0
110.711182 184.0
110.746109 112.0
110.768311 144.0
110.783325 72.0
110.818008 100.0
110.857903 104.0
110.915176 148.0
110.931183 148.0
110.975204 96.0
111.00145 140.0
111.051071 164.0
111.080902 120.0
111.101044 112.0
111.134613 132.0
111.390739 204.0
111.441162 336.0
111.527321 128.0
111.552544 56.0
111.567261 116.0
111.581978 60.0
111.616158 196.0
111.640854 252.0
111.716568 244.0
111.809151 140.0
111.840721 60.0
111.880714 168.0
111.916512 192.0
111.981789 164.0
112.044983 168.0
112.109718 244.0
112.112984 148.0
112.1651 188.0
112.184074 112.0
112.228348 248.0
112.342239 180.0
112.378105 128.0
112.532181 148.0
112.578629 172.0
112.66523 128.0
112.739182 132.0
112.796303 168.0
112.948494 168.0
113.04937 224.0
113.184479 172.0
113.229996 136.0
113.295662 140.0
113.407974 148.0
113.613663 140.0
113.665215 160.0
113.768578 68.0
113.800423 144.0
113.919357 136.0
114.021347 164.0
114.042603 172.0
114.129761 200.0
114.370155 180.0
114.440407 212.0
114.553482 168.0
114.587479 148.0
114.619324 168.0
114.806915 248.0
114.883705 160.0
114.922104 160.0
114.991364 176.0
115.054268 1376.0
115.092857 164.0
115.154793 120.0
115.223145 132.0
115.248787 132.0
115.291519 60.0
115.355644 124.0
115.424057 100.0
115.47966 76.0
115.511749 144.0
115.550255 136.0
115.578072 172.0
115.646545 108.0
115.687218 192.0
115.766441 180.0
115.802849 84.0
115.832832 108.0
115.890678 116.0
115.939964 192.0
115.982826 88.0
116.058968 612.0
116.081451 56.0
116.113617 256.0
116.169388 144.0
116.206024 104.0
116.291695 224.0
116.311012 36.0
116.39045 156.0
116.497833 160.0
116.534355 216.0
116.58593 116.0
116.620316 120.0
116.699165 144.0
116.827705 152.0
116.888199 248.0
117.022591 64.0
117.069817 7024.0
117.158272 40.0
117.225067 132.0
117.32637 212.0
117.391052 84.0
117.427711 88.0
117.45575 56.0
117.470856 108.0
117.492424 56.0
117.604637 52.0
117.6586 156.0
117.786011 172.0
117.969688 164.0
118.010765 140.0
118.072891 920.0
118.161636 132.0
118.257378 32.0
118.2985 132.0
118.406769 220.0
118.484749 160.0
118.651627 200.0
118.760048 84.0
118.794754 56.0
118.862015 60.0
118.88588 80.0
118.905411 104.0
119.077316 180.0
119.25679 148.0
119.274651 180.0
119.30291 192.0
119.344223 92.0
119.370316 32.0
119.387711 148.0
119.545319 284.0
119.587868 164.0
119.603104 108.0
119.683655 40.0
119.727203 132.0
119.744629 156.0
119.829582 68.0
119.881874 152.0
120.02224 164.0
120.027107 64.0
120.035652 140.0
120.065002 184.0
120.087357 240.0
120.178429 132.0
120.217712 132.0
120.259178 140.0
120.291916 120.0
120.370514 168.0
120.527786 148.0
120.783577 160.0
120.803261 144.0
120.831703 80.0
120.917046 108.0
121.046471 1200.0
121.092194 128.0
121.109718 160.0
121.131622 120.0
121.304733 176.0
121.495522 236.0
121.622795 144.0
121.842392 200.0
121.917099 148.0
122.00502 156.0
122.020409 76.0
122.038284 184.0
122.095169 36.0
122.123764 108.0
122.458313 172.0
122.484741 128.0
122.570663 144.0
122.754593 200.0
122.795525 188.0
123.001053 216.0
123.061958 552.0
123.137619 168.0
123.172958 176.0
123.325424 140.0
123.424904 100.0
123.458076 220.0
123.527817 240.0
123.55761 176.0
123.714737 132.0
123.809952 152.0
123.876396 92.0
123.916275 140.0
123.942863 80.0
124.056755 140.0
124.072769 608.0
124.140144 212.0
124.20446 216.0
124.233299 232.0
124.290985 100.0
124.337585 92.0
124.353127 112.0
124.615158 208.0
124.684044 100.0
124.815201 208.0
124.844109 60.0
124.937531 148.0
125.0065 28.0
125.062141 92.0
125.171227 224.0
125.186813 52.0
125.311554 168.0
125.347206 96.0
125.385086 116.0
125.563797 228.0
125.648209 256.0
125.677216 148.0
125.719276 160.0
125.764244 228.0
125.864708 104.0
125.893738 204.0
125.92054 128.0
125.949326 36.0
125.989784 224.0
126.058769 160.0
126.126091 144.0
126.179749 52.0
126.218933 196.0
126.325111 128.0
126.363136 172.0
126.398941 180.0
126.544426 128.0
126.651924 156.0
126.74601 112.0
126.839966 204.0
126.869286 164.0
126.89843 148.0
126.9814 136.0
127.056679 532.0
127.217003 120.0
127.234962 180.0
127.259659 204.0
127.358467 120.0
127.430351 164.0
127.53373 172.0
127.785591 204.0
127.810341 172.0
127.859848 164.0
127.886856 84.0
127.99942 112.0
128.061829 992.0
128.186539 60.0
128.23822 168.0
128.426682 120.0
128.454681 100.0
128.51062 176.0
128.549438 144.0
128.601349 168.0
128.680359 216.0
128.734543 180.0
128.750351 132.0
128.806824 164.0
128.863297 148.0
128.883636 136.0
129.070526 1368.0
129.126617 116.0
129.237305 164.0
129.306519 164.0
129.357239 176.0
129.57637 160.0
129.594101 140.0
129.641693 152.0
129.67569 160.0
129.7845 208.0
129.812576 188.0
129.832123 136.0
129.866135 116.0
130.036301 104.0
130.075363 1496.0
130.165131 112.0
130.245193 32.0
130.32016 60.0
130.399704 164.0
130.433792 168.0
130.506546 172.0
130.681671 44.0
130.867889 172.0
130.957123 128.0
131.050522 152.0
131.084824 1996.0
131.107498 156.0
131.132553 132.0
131.155762 148.0
131.178711 160.0
131.237762 160.0
131.344604 152.0
131.376602 184.0
131.535843 184.0
131.878906 168.0
132.043869 160.0
132.082077 2884.0
132.146469 128.0
132.251724 256.0
132.286057 32.0
132.306671 128.0
132.63208 148.0
132.7397 48.0
132.758057 136.0
132.785187 140.0
132.951584 176.0
132.980072 160.0
132.98822 124.0
133.018112 116.0
133.044769 11096.0
133.083176 432.0
133.119461 236.0
133.15271 128.0
133.228592 76.0
133.249268 124.0
133.279129 188.0
133.368759 76.0
133.492386 140.0
133.531998 124.0
133.5504 168.0
133.595734 176.0
133.626312 40.0
133.683838 108.0
133.704544 176.0
133.773605 212.0
133.83577 148.0
133.851883 176.0
133.897934 116.0
133.925583 156.0
133.993484 196.0
134.040344 20216.0
134.105621 140.0
134.123734 40.0
134.152405 200.0
134.190582 88.0
134.321274 96.0
134.33902 100.0
134.424286 100.0
134.446625 208.0
134.567917 88.0
134.661346 172.0
134.69252 56.0
134.721405 204.0
134.827682 60.0
134.865585 96.0
134.947891 140.0
135.060013 4112.0
135.08757 192.0
135.131531 100.0
135.176392 96.0
135.197708 36.0
135.216217 128.0
135.266281 160.0
135.286942 64.0
135.325012 224.0
135.393433 280.0
135.540436 200.0
135.55574 112.0
135.724152 76.0
135.779205 140.0
135.889236 164.0
135.936951 128.0
135.969376 128.0
136.006577 220.0
136.057983 920.0
136.113373 272.0
136.23436 176.0
136.33638 80.0
136.3573 84.0
136.445618 116.0
136.479935 164.0
136.536316 88.0
136.652618 52.0
136.804733 88.0
136.841141 140.0
136.897018 120.0
136.936615 212.0
136.976212 100.0
137.025131 196.0
137.060089 168.0
137.081055 164.0
137.106689 116.0
137.139313 200.0
137.221603 168.0
137.358505 100.0
137.505493 124.0
137.521835 92.0
137.678253 128.0
137.841782 60.0
137.886185 164.0
137.98436 132.0
138.103622 40.0
138.176559 180.0
138.248672 196.0
138.290802 96.0
138.440628 180.0
138.489822 172.0
138.50621 76.0
138.59993 168.0
138.761642 172.0
138.801514 80.0
138.883591 104.0
139.049057 168.0
139.12999 152.0
139.324905 176.0
139.637543 124.0
139.771622 80.0
139.871384 156.0
139.936386 136.0
139.957581 192.0
139.97641 60.0
140.049103 1116.0
140.096542 116.0
140.13385 124.0
140.2332 164.0
140.426544 100.0
140.454849 196.0
140.527969 144.0
140.749847 116.0
140.794708 232.0
140.820694 144.0
141.054642 344.0
141.073654 220.0
141.202438 136.0
141.286362 120.0
141.577499 160.0
141.733841 144.0
141.752808 176.0
141.835754 136.0
142.004089 224.0
142.051529 204.0
142.079254 680.0
142.269852 48.0
142.314972 152.0
142.419098 184.0
142.507919 184.0
142.526367 112.0
142.559631 132.0
142.646698 120.0
142.760422 128.0
142.816391 128.0
143.032745 160.0
143.04187 148.0
143.085556 1688.0
143.175781 120.0
143.303314 236.0
143.406876 48.0
143.429794 140.0
143.59285 228.0
143.662018 152.0
143.745529 148.0
143.793259 172.0
144.012909 156.0
144.055908 184.0
144.081161 1196.0
144.171417 152.0
144.264374 136.0
144.323578 44.0
144.388153 144.0
144.435989 168.0
144.467087 140.0
144.596298 180.0
144.694443 76.0
144.783035 184.0
144.862076 144.0
144.893997 160.0
144.93634 148.0
145.064468 844.0
145.101364 10244.0
145.149673 48.0
145.179672 188.0
145.214432 60.0
145.268753 216.0
145.291855 72.0
145.317337 276.0
145.351166 128.0
145.483398 224.0
145.5504 144.0
145.567215 72.0
145.696915 176.0
145.764191 40.0
145.781006 244.0
145.802628 64.0
145.821854 80.0
145.884354 68.0
145.903595 164.0
146.002167 68.0
146.051392 888.0
146.103378 2548.0
146.132065 68.0
146.165558 148.0
146.269241 228.0
146.322205 104.0
146.39444 136.0
146.476334 64.0
146.649811 140.0
146.78241 104.0
146.799286 300.0
146.86441 180.0
146.886108 148.0
146.965729 240.0
146.989853 252.0
147.061172 9456.0
147.112411 164.0
147.132263 136.0
147.170883 128.0
147.217606 160.0
147.294693 196.0
147.344788 124.0
147.393112 152.0
147.485748 144.0
147.57402 184.0
147.697723 208.0
147.729172 44.0
147.750946 108.0
147.778458 364.0
147.835632 188.0
147.939713 172.0
148.056335 1888.0
148.293365 184.0
148.43396 168.0
148.480042 184.0
148.601334 136.0
148.761505 52.0
148.843491 164.0
148.943619 244.0
148.978714 208.0
149.074142 856.0
149.162323 68.0
149.283875 200.0
149.305771 104.0
149.383606 160.0
149.422531 172.0
149.527161 44.0
149.700012 84.0
149.765762 108.0
150.053314 64.0
150.080475 180.0
150.128906 144.0
150.189362 76.0
150.22403 184.0
150.258179 112.0
150.454208 188.0
150.516907 68.0
150.563309 244.0
150.751404 148.0
150.775848 112.0
150.812515 84.0
150.942078 48.0
151.001541 148.0
151.08638 100.0
151.120636 192.0
151.169571 52.0
151.247894 76.0
151.282166 120.0
151.33847 148.0
151.459778 188.0
151.522171 144.0
151.54422 52.0
151.603027 168.0
151.683899 180.0
151.728027 188.0
151.752548 72.0
151.781967 176.0
151.865356 140.0
151.93158 212.0
152.049362 128.0
152.216293 180.0
152.280151 156.0
152.572556 160.0
152.791443 144.0
152.958878 208.0
153.040024 204.0
153.070816 496.0
153.116364 160.0
153.177933 176.0
153.335632 196.0
153.370132 148.0
153.764755 104.0
153.920822 128.0
154.031418 208.0
154.07045 160.0
154.238983 160.0
154.306488 72.0
154.381989 176.0
154.436798 136.0
154.582764 140.0
154.716415 100.0
154.736221 128.0
154.954178 196.0
155.059891 280.0
155.083878 988.0
155.169785 92.0
155.204498 132.0
155.395493 52.0
155.445114 184.0
155.531982 132.0
155.651138 152.0
155.723785 80.0
155.75296 168.0
155.899551 180.0
155.934341 144.0
156.026321 180.0
156.08786 160.0
156.091568 328.0
156.327286 144.0
156.429321 240.0
156.593658 164.0
156.67337 108.0
156.731583 148.0
156.780518 64.0
156.802948 84.0
157.002396 132.0
157.09877 868.0
157.289322 144.0
157.381683 184.0
157.411652 124.0
157.43663 96.0
157.480804 180.0
157.511551 52.0
157.561523 168.0
157.74144 176.0
157.778946 64.0
157.853958 144.0
157.87944 144.0
157.973999 108.0
158.016541 112.0
158.039612 376.0
158.09642 512.0
158.284088 148.0
158.330658 228.0
158.424606 100.0
158.464691 152.0
158.514801 160.0
158.532349 180.0
158.587479 120.0
158.617569 140.0
158.6521 180.0
158.722855 132.0
158.863312 320.0
158.926041 140.0
159.059525 2752.0
159.117065 452.0
159.182068 160.0
159.238861 52.0
159.287552 152.0
159.307648 144.0
159.488571 120.0
159.525818 220.0
159.55896 64.0
159.697266 248.0
159.848206 172.0
159.893158 176.0
159.95015 144.0
160.006363 72.0
160.01149 156.0
160.056244 13368.0
160.120651 188.0
160.161743 60.0
160.232071 184.0
160.258301 88.0
160.282684 52.0
160.310349 92.0
160.318954 124.0
160.354401 36.0
160.37204 76.0
160.395828 100.0
160.482727 68.0
160.5233 136.0
160.581314 180.0
160.63176 68.0
160.709961 64.0
160.757904 168.0
160.827438 124.0
160.901779 128.0
160.952271 48.0
161.074356 3464.0
161.145111 172.0
161.174561 92.0
161.194183 104.0
161.267303 160.0
161.432388 144.0
161.503204 164.0
161.577072 80.0
161.884094 96.0
161.941086 68.0
162.006943 44.0
162.030014 152.0
162.079361 996.0
162.110825 60.0
162.136169 144.0
162.351089 196.0
162.45311 80.0
162.529221 32.0
162.577438 116.0
162.729736 132.0
162.775436 188.0
162.95578 132.0
162.991348 172.0
163.08284 368.0
163.10318 172.0
163.209946 180.0
163.273529 132.0
163.298965 160.0
163.388687 176.0
163.461777 164.0
163.741806 36.0
163.986389 176.0
164.055222 164.0
164.190353 184.0
164.249023 104.0
164.346024 172.0
164.48378 136.0
164.525238 112.0
164.598663 168.0
164.624191 136.0
164.654846 284.0
164.861572 104.0
164.889633 200.0
164.948669 140.0
165.035599 160.0
165.068024 1524.0
165.152756 196.0
165.255554 60.0
165.347687 108.0
165.59848 124.0
166.070312 536.0
166.108658 144.0
166.213852 136.0
166.43248 116.0
166.448929 48.0
166.470551 188.0
166.496231 120.0
166.953674 152.0
166.992249 128.0
167.065369 488.0
167.083511 408.0
167.246979 100.0
167.396301 128.0
167.483871 136.0
167.553421 116.0
167.584335 124.0
167.635864 68.0
167.653915 120.0
167.731232 36.0
167.759583 148.0
167.85498 120.0
167.909943 140.0
167.950409 144.0
167.994247 168.0
168.035538 164.0
168.077301 348.0
168.474426 200.0
168.57518 40.0
168.621704 148.0
168.828522 228.0
168.851807 156.0
168.955276 188.0
169.085571 296.0
169.113113 232.0
169.392761 140.0
169.48085 84.0
169.501587 100.0
169.548218 112.0
169.740967 136.0
169.926804 88.0
169.986481 96.0
170.033203 124.0
170.053223 796.0
170.105881 352.0
170.152603 112.0
170.248672 112.0
170.516266 124.0
170.690445 100.0
170.719055 176.0
170.737259 124.0
170.810074 104.0
170.914139 164.0
171.03125 164.0
171.0849 144.0
171.229126 64.0
171.260391 180.0
171.372406 228.0
171.518341 152.0
171.599152 44.0
171.69043 240.0
171.716507 108.0
171.753021 160.0
171.847504 184.0
171.899124 56.0
172.053635 528.0
172.111435 3292.0
172.189545 48.0
172.215012 56.0
172.288147 84.0
172.363922 132.0
172.405731 72.0
172.437103 164.0
172.573029 136.0
172.639755 64.0
172.756104 140.0
172.806763 120.0
172.861481 72.0
172.884308 48.0
172.902634 156.0
173.038742 192.0
173.069839 268.0
173.073685 284.0
173.100494 416.0
173.108582 832.0
173.142365 176.0
173.161819 32.0
173.18277 240.0
173.220123 76.0
173.25235 164.0
173.372467 128.0
173.473221 52.0
173.478149 44.0
173.537918 160.0
173.568008 68.0
173.688644 276.0
173.719589 236.0
173.759033 164.0
173.781509 212.0
173.803665 176.0
173.866776 180.0
173.940552 160.0
173.964172 144.0
173.983948 212.0
174.005768 204.0
174.041977 176.0
174.071579 1692.0
174.128143 91180.0
174.205078 80.0
174.226166 48.0
174.235779 76.0
174.284592 140.0
174.316788 160.0
174.335434 176.0
174.357758 76.0
174.424973 120.0
174.455429 36.0
174.47908 48.0
174.506683 88.0
174.527283 40.0
174.559219 356.0
174.582123 148.0
174.689468 44.0
174.707886 208.0
174.751724 48.0
174.77774 188.0
174.895432 44.0
174.933685 300.0
174.959305 52.0
175.00528 200.0
175.025986 116.0
175.092453 8344.0
175.13063 11616.0
175.184372 40.0
175.20343 220.0
175.255508 100.0
175.296082 80.0
175.33667 40.0
175.356522 48.0
175.379639 224.0
175.401413 76.0
175.432297 48.0
175.455551 84.0
175.491028 128.0
175.535995 80.0
175.585724 60.0
175.619293 60.0
175.688644 80.0
175.732742 76.0
175.759125 144.0
175.777588 124.0
175.830368 72.0
175.895035 56.0
175.916946 180.0
175.983475 220.0
176.051819 68.0
176.095856 776.0
176.140564 2004.0
176.193283 64.0
176.204132 124.0
176.214294 132.0
176.256409 112.0
176.286362 72.0
176.354019 100.0
176.376862 44.0
176.403152 168.0
176.409409 144.0
176.424301 200.0
176.450211 128.0
176.472366 108.0
176.511932 88.0
176.5392 192.0
176.604446 288.0
176.64418 132.0
176.662689 80.0
176.710312 188.0
176.734131 124.0
176.762985 128.0
176.769714 116.0
176.816162 40.0
176.845276 120.0
176.900864 160.0
176.940567 44.0
177.00676 68.0
177.050507 92.0
177.09726 156.0
177.139908 612.0
177.205414 80.0
177.283768 120.0
177.32843 104.0
177.396225 80.0
177.502274 60.0
177.536758 124.0
177.595108 104.0
177.613663 80.0
177.693253 60.0
177.804703 56.0
178.003799 48.0
178.05426 160.0
178.109024 148.0
178.147232 152.0
178.232239 184.0
178.27211 108.0
178.415634 116.0
178.846573 88.0
179.027618 96.0
179.187424 96.0
179.240723 92.0
179.286026 132.0
179.40596 116.0
179.453949 92.0
179.624634 92.0
179.74469 132.0
179.763367 208.0
180.041 132.0
180.310837 104.0
180.471222 96.0
180.912659 172.0
181.088257 188.0
181.17511 88.0
181.212616 76.0
181.234055 184.0
181.319809 92.0
181.437744 116.0
181.547684 40.0
181.762283 108.0
181.90184 96.0
181.929626 160.0
182.097412 336.0
182.302032 124.0
182.568161 136.0
182.643478 124.0
182.985245 196.0
183.061951 320.0
183.101028 140.0
183.122574 200.0
183.173752 132.0
183.200684 164.0
183.257263 144.0
183.45401 88.0
183.578033 156.0
184.028656 44.0
184.061752 300.0
184.110382 1552.0
184.344696 68.0
184.501465 144.0
184.579865 116.0
184.964035 76.0
184.999237 112.0
185.07283 1588.0
185.11525 304.0
185.215866 88.0
185.280884 88.0
185.396698 256.0
185.619675 104.0
185.717316 200.0
185.787842 116.0
185.869232 88.0
185.994064 48.0
186.073669 736.0
186.128586 480.0
186.214005 120.0
186.314499 144.0
186.455795 200.0
186.542786 140.0
186.580841 68.0
186.611832 200.0
186.831039 76.0
187.037857 152.0
187.078857 1504.0
187.209381 64.0
187.261124 124.0
187.353729 88.0
187.489975 128.0
187.754425 56.0
188.038147 72.0
188.080475 836.0
188.136414 120.0
188.21286 212.0
188.464157 144.0
188.524277 72.0
188.554337 76.0
189.082169 164.0
189.265579 28.0
189.520309 156.0
189.621597 96.0
189.739578 168.0
190.228836 204.0
190.249847 28.0
190.285538 44.0
190.499207 100.0
190.631638 136.0
191.121094 36.0
191.283463 116.0
191.492722 256.0
192.609802 120.0
192.797684 48.0
193.038193 172.0
193.569489 124.0
193.742249 32.0
194.054382 84.0
194.137573 120.0
194.229095 144.0
195.073257 116.0
195.103836 104.0
195.148315 132.0
195.345764 204.0
195.40419 220.0
195.448715 188.0
196.142166 40.0
196.460068 188.0
196.677719 176.0
196.800552 116.0
196.970917 92.0
197.077072 172.0
197.278305 84.0
197.412506 44.0
197.499207 116.0
197.636292 92.0
197.846191 96.0
197.994598 200.0
198.042206 52.0
198.089828 120.0
198.165466 168.0
198.221512 64.0
198.330811 180.0
198.790756 164.0
198.945404 160.0
199.001282 116.0
199.079895 196.0
199.102371 88.0
199.147583 124.0
199.349579 76.0
199.453568 128.0
199.740387 176.0
199.861359 104.0
200.085022 376.0
200.104263 308.0
200.148468 160.0
200.193512 176.0
200.47522 152.0
200.554138 172.0
200.59642 116.0
200.844559 204.0
201.027939 108.0
201.056168 76.0
201.094528 148.0
201.155487 292.0
201.40062 132.0
201.564468 40.0
201.683167 176.0
201.864105 68.0
201.895218 244.0
202.050781 196.0
202.103668 2852.0
202.11969 2312.0
202.189438 40.0
202.214905 40.0
202.336624 76.0
202.387589 28.0
202.427231 64.0
203.118683 412.0
203.29184 48.0
203.655243 76.0
203.731934 84.0
204.027481 136.0
204.113083 176.0
204.508224 264.0
204.559464 268.0
204.664795 176.0
204.684738 164.0
204.721756 160.0
204.747375 128.0
204.884109 136.0
204.926834 76.0
205.015167 140.0
205.112076 116.0
205.143433 64.0
205.174789 40.0
205.248993 176.0
205.417191 136.0
205.554138 48.0
205.965256 140.0
206.939301 216.0
207.103668 168.0
207.851913 40.0
208.093018 164.0
208.179153 160.0
208.610138 52.0
208.797028 76.0
209.220016 120.0
209.732758 168.0
209.833664 80.0
209.960526 136.0
210.253601 116.0
210.280777 172.0
210.315414 124.0
210.490234 108.0
211.049194 160.0
211.532333 120.0
211.587341 144.0
211.636566 112.0
211.778458 108.0
212.146469 88.0
212.192856 120.0
212.407455 76.0
212.630859 48.0
213.287277 164.0
213.854462 100.0
214.122314 184.0
214.160065 164.0
214.550659 180.0
215.049469 204.0
215.16185 272.0
215.280106 96.0
215.551773 96.0
215.630676 76.0
215.99324 140.0
216.139511 140.0
216.189255 112.0
216.306335 60.0
216.405869 108.0
216.517151 148.0
216.70462 144.0
216.848206 136.0
217.113708 208.0
217.299805 60.0
217.643204 44.0
218.115738 1016.0
218.319061 180.0
218.533798 72.0
218.563217 84.0
218.677994 172.0
218.83696 112.0
218.904678 160.0
219.013641 124.0
219.048996 156.0
219.124527 300.0
219.181564 68.0
219.352509 128.0
219.550049 224.0
219.629684 164.0
219.765381 108.0
219.865723 312.0
220.066437 188.0
220.133026 26480.0
220.231339 148.0
220.270081 88.0
220.327393 108.0
220.433807 108.0
220.469879 76.0
220.560852 108.0
220.627777 80.0
220.698746 44.0
220.725357 136.0
220.78746 184.0
220.86731 72.0
220.899857 72.0
220.973816 76.0
221.003403 60.0
221.047775 80.0
221.101044 172.0
221.136307 3276.0
221.373398 72.0
221.394135 72.0
221.53038 48.0
221.557037 112.0
221.684448 124.0
221.816269 92.0
222.137589 548.0
222.21521 96.0
222.284439 84.0
222.356934 152.0
222.393265 44.0
222.500122 64.0
222.52388 28.0
222.673416 100.0
222.722855 100.0
222.822861 108.0
222.927277 84.0
223.106186 108.0
223.144699 260.0
223.317307 200.0
223.367874 120.0
223.391663 68.0
223.531509 120.0
223.602921 124.0
223.820236 64.0
224.225388 84.0
224.282013 160.0
224.37442 100.0
224.526489 104.0
224.618027 64.0
224.783051 72.0
224.915375 188.0
225.673172 124.0
225.879517 172.0
225.963287 136.0
226.050049 112.0
226.160782 84.0
226.374847 136.0
226.436234 176.0
227.963242 116.0
228.167633 140.0
228.399185 60.0
228.507492 112.0
228.886734 88.0
228.913834 124.0
229.004181 132.0
229.118652 332.0
229.32959 192.0
229.552673 92.0
229.830185 72.0
229.893555 60.0
230.400818 80.0
230.77861 184.0
230.887466 140.0
230.911667 148.0
231.005432 160.0
231.081055 96.0
231.129837 1948.0
231.168808 120.0
231.211182 92.0
231.301971 44.0
231.323166 40.0
231.404907 140.0
231.977493 40.0
232.023834 112.0
232.130981 532.0
232.335327 44.0
232.757217 76.0
232.802765 108.0
233.1035 120.0
233.751205 48.0
233.942947 160.0
234.146957 152.0
234.472946 116.0
235.201904 140.0
235.296524 44.0
235.690536 56.0
236.28981 92.0
236.70607 180.0
236.779572 144.0
237.515167 224.0
237.631744 60.0
237.947861 152.0
238.052261 52.0
238.073761 128.0
238.162827 144.0
238.273407 192.0
238.826736 60.0
239.054398 116.0
239.177505 160.0
240.043228 36.0
240.382553 152.0
240.740646 124.0
240.799316 148.0
241.278275 176.0
241.454529 96.0
241.671066 108.0
242.188049 204.0
242.470001 136.0
242.758316 128.0
242.987839 172.0
243.015762 68.0
243.366501 216.0
243.40065 148.0
243.485886 192.0
243.543503 132.0
243.683304 116.0
243.787674 88.0
244.078033 152.0
244.286423 252.0
244.575806 140.0
244.690994 72.0
244.84668 76.0
245.144348 264.0
245.167007 68.0
245.208084 56.0
245.432526 216.0
245.881729 216.0
246.315735 148.0
246.562561 100.0
246.605576 84.0
246.696976 176.0
246.73761 72.0
246.809525 68.0
247.485382 96.0
247.748459 220.0
248.290726 156.0
248.538544 112.0
248.582474 48.0
248.62326 184.0
248.723694 40.0
248.971741 92.0
249.040833 96.0
249.097366 136.0
249.31102 52.0
249.417877 140.0
249.59079 168.0
250.02066 184.0
250.056381 176.0
250.412155 84.0
250.919479 44.0
251.47467 100.0
251.534637 160.0
251.8125 88.0
251.907257 56.0
252.846329 96.0
253.223083 160.0
254.018677 104.0
254.856812 172.0
255.645401 128.0
255.721786 76.0
256.228088 140.0
256.285431 48.0
256.377869 100.0
256.400177 252.0
256.604156 196.0
257.092194 192.0
257.14328 372.0
257.785187 184.0
257.829926 56.0
257.890656 108.0
258.008911 128.0
258.11441 124.0
258.148407 172.0
258.271118 44.0
258.399078 140.0
258.869629 104.0
258.920868 56.0
259.132202 160.0
259.156219 300.0
259.302094 248.0
259.574585 108.0
259.882538 112.0
260.06546 136.0
260.159943 196.0
260.232361 128.0
260.293396 108.0
260.810638 180.0
261.019592 152.0
261.238312 52.0
261.51825 68.0
261.936829 132.0
262.20105 200.0
262.294495 72.0
262.381561 120.0
262.910553 84.0
263.7341 60.0
264.089783 112.0
264.274689 128.0
264.384186 184.0
264.497467 204.0
264.610779 120.0
265.514832 192.0
265.722443 108.0
265.771118 64.0
265.91391 48.0
266.128143 132.0
266.219055 148.0
266.358734 32.0
266.82019 144.0
267.360138 156.0
267.477295 132.0
267.9039 124.0
268.138397 148.0
268.26236 136.0
268.467773 84.0
269.042023 136.0
269.352264 212.0
269.515594 104.0
269.558075 108.0
269.878418 144.0
269.992859 96.0
270.045197 80.0
270.156403 104.0
270.509827 108.0
270.781616 152.0
270.932281 152.0
271.014191 100.0
271.160126 3224.0
271.23703 104.0
271.486206 56.0
271.607574 120.0
271.675598 124.0
272.060425 80.0
272.162476 716.0
272.20816 140.0
272.23114 184.0
272.88504 128.0
273.125092 92.0
273.164673 152.0
273.240234 176.0
273.394897 72.0
274.043579 128.0
274.099579 128.0
274.191864 36.0
274.297333 52.0
274.350067 52.0
274.755707 180.0
274.940491 56.0
275.316833 176.0
275.409332 112.0
275.458862 68.0
276.239014 112.0
276.566589 132.0
276.944061 72.0
277.006989 164.0
277.159393 192.0
277.351593 120.0
277.447723 132.0
277.543884 96.0
277.762756 212.0
278.330292 88.0
278.406647 36.0
278.85849 156.0
279.207581 132.0
279.536926 160.0
279.726624 64.0
279.909729 128.0
280.092926 44.0
280.419434 124.0
280.632782 32.0
281.303375 148.0
281.617249 160.0
282.83432 104.0
282.907959 100.0
283.005066 184.0
284.15802 148.0
284.181519 136.0
284.55069 52.0
284.930206 112.0
285.283081 64.0
285.955811 160.0
286.31604 136.0
286.663025 56.0
286.851776 96.0
287.033844 144.0
287.070923 184.0
287.539856 116.0
288.482239 176.0
288.654663 40.0
288.825531 92.0
288.908325 128.0
288.969238 176.0
289.971558 180.0
290.015625 96.0
290.215637 128.0
290.744812 172.0
291.226929 104.0
291.91684 140.0
292.335266 132.0
292.510254 124.0
292.879974 144.0
293.145721 68.0
293.169586 136.0
293.643463 108.0
293.837891 112.0
293.950378 128.0
294.069946 108.0
294.09726 156.0
294.346466 128.0
294.729034 60.0
295.163147 132.0
295.679688 104.0
295.830292 28.0
296.02887 156.0
296.258362 160.0
296.300385 180.0
296.522217 164.0
296.60788 192.0
297.177551 72.0
297.352173 208.0
297.49292 108.0
297.915314 164.0
298.227997 92.0
298.637146 132.0
298.723145 52.0
298.798828 192.0
298.970886 84.0
299.129211 80.0
299.185486 260.0
299.904236 200.0
300.131744 168.0
300.191162 128.0
300.228302 128.0
300.331787 104.0
300.997833 132.0
301.764923 136.0
302.508728 136.0
302.716461 228.0
303.010864 116.0
303.076691 216.0
303.170258 108.0
303.225708 36.0
303.395569 116.0
304.019897 136.0
304.314941 132.0
304.926331 88.0
305.340057 160.0
305.46875 152.0
305.566162 104.0
305.705322 136.0
305.743622 152.0
305.767975 116.0
306.049957 120.0
306.15155 200.0
307.161682 104.0
307.458252 156.0
307.723541 160.0
308.121704 52.0
308.687927 124.0
308.87677 116.0
309.734375 104.0
309.997131 100.0
310.87735 136.0
311.305603 124.0
311.49527 148.0
311.57254 52.0
312.257996 136.0
312.328339 108.0
312.374084 164.0
312.500732 140.0
312.52887 60.0
312.979401 68.0
313.240021 136.0
313.39856 128.0
313.423218 100.0
313.817993 88.0
314.449432 124.0
314.954315 176.0
315.265228 112.0
315.295349 184.0
315.473785 60.0
315.742493 316.0
315.841522 196.0
316.191803 140.0
317.194183 136.0
317.534546 176.0
317.938995 48.0
318.062073 116.0
318.19101 88.0
318.581665 64.0
318.617188 180.0
318.826843 140.0
319.047211 104.0
319.15387 100.0
319.281891 112.0
319.513092 164.0
319.918793 140.0
320.210785 176.0
320.321198 112.0
320.869995 168.0
321.137238 160.0
321.362183 136.0
321.626282 152.0
322.245819 196.0
322.905396 172.0
322.949524 140.0
323.191559 212.0
323.284607 124.0
323.631836 56.0
323.739258 100.0
323.809357 140.0
323.89325 104.0
323.968475 68.0
324.0867 40.0
324.613403 196.0
324.778595 112.0
325.313263 156.0
325.481995 140.0
325.600525 68.0
325.999268 100.0
326.966675 156.0
326.999054 88.0
327.179047 60.0
327.329712 160.0
327.413086 84.0
327.845398 132.0
327.939087 148.0
328.166199 180.0
328.205872 152.0
328.797485 124.0
328.916565 124.0
329.754547 172.0
329.877441 128.0
330.002655 176.0
330.043762 168.0
330.28244 152.0
330.546539 76.0
330.702148 72.0
330.99176 124.0
331.201813 152.0
331.227173 76.0
331.408325 184.0
331.738129 144.0
331.825134 84.0
331.991913 228.0
332.22406 164.0
332.329254 76.0
332.430878 84.0
332.496185 152.0
332.539734 120.0
332.826538 56.0
333.062592 156.0
333.091644 136.0
333.173523 348.0
333.469543 156.0
333.654907 116.0
333.851257 112.0
333.934906 188.0
333.967651 164.0
334.171356 144.0
334.20047 120.0
334.509827 56.0
334.608124 56.0
334.699127 144.0
335.045135 152.0
335.467865 56.0
335.748627 232.0
336.146271 52.0
337.015289 88.0
337.373474 132.0
338.438141 100.0
338.67984 224.0
338.767731 156.0
339.790558 204.0
340.069458 72.0
340.12085 60.0
340.451294 60.0
340.774536 204.0
340.836975 192.0
340.947235 140.0
341.131012 120.0
341.23761 88.0
341.414124 104.0
341.540558 160.0
341.97702 100.0
342.14267 228.0
342.470398 40.0
343.041534 156.0
343.170135 132.0
343.180481 116.0
343.222198 144.0
343.299622 84.0
343.484039 64.0
343.550446 44.0
344.155701 136.0
344.28125 216.0
344.495483 124.0
344.613708 184.0
345.005463 176.0
345.438141 104.0
345.519531 64.0
345.771149 268.0
346.045074 56.0
346.152435 152.0
346.189484 348.0
346.274658 136.0
346.433929 152.0
346.860077 112.0
347.175232 128.0
347.702026 124.0
347.865356 160.0
347.987854 168.0
348.204193 412.0
348.299805 124.0
348.652771 120.0
348.994751 116.0
349.162079 156.0
349.221588 188.0
349.444794 68.0
349.705292 128.0
349.835571 128.0
349.950989 112.0
350.211639 236.0
350.245178 476.0
350.390472 128.0
350.73407 192.0
351.035278 204.0
351.232941 112.0
351.397095 152.0
351.591125 136.0
351.88974 52.0
352.207184 144.0
352.233307 160.0
352.479889 136.0
352.666748 132.0
353.018188 48.0
353.096161 156.0
353.403473 108.0
353.470825 92.0
353.620514 132.0
353.729065 124.0
354.013611 44.0
355.212952 76.0
355.610687 188.0
355.636963 188.0
356.672821 144.0
356.801453 84.0
356.895447 76.0
357.023315 140.0
357.132385 136.0
357.617737 96.0
357.764557 176.0
357.809723 72.0
358.355835 108.0
358.781708 48.0
358.981537 192.0
359.185211 36.0
359.415344 176.0
359.456848 44.0
360.276154 136.0
360.669159 60.0
360.994293 168.0
361.111542 84.0
361.175507 164.0
361.947876 136.0
362.027405 192.0
362.17511 148.0
362.254669 68.0
362.7435 164.0
362.792786 120.0
362.993713 104.0
363.160583 52.0
363.687988 144.0
363.809479 120.0
364.504517 72.0
364.641327 40.0
364.690735 160.0
365.158264 140.0
365.561646 172.0
365.614929 44.0
365.683441 140.0
365.778595 164.0
365.968933 120.0
366.479309 152.0
367.459198 76.0
367.722504 124.0
367.825562 164.0
367.871368 80.0
367.922974 216.0
368.173004 152.0
368.24939 56.0
368.509125 96.0
368.681091 112.0
369.067169 64.0
369.679199 92.0
369.748077 36.0
369.878235 160.0
370.343231 160.0
370.460266 120.0
370.85495 188.0
370.90094 156.0
371.318878 124.0
371.656464 88.0
371.848328 188.0
371.967316 104.0
372.182312 148.0
372.220703 168.0
372.527954 144.0
372.755402 180.0
373.131317 168.0
373.20752 220.0
373.635132 104.0
373.90448 160.0
374.123871 148.0
374.17392 204.0
374.206512 120.0
374.274048 80.0
374.690216 148.0
374.845551 216.0
374.89035 112.0
375.075348 220.0
375.222656 4608.0
375.283539 76.0
375.325958 92.0
375.700073 100.0
375.730927 72.0
375.76178 40.0
375.858246 48.0
375.912262 124.0
375.966309 160.0
376.047363 56.0
376.132263 172.0
376.225189 1344.0
376.317566 156.0
376.394806 36.0
376.576294 76.0
376.696045 152.0
377.009003 140.0
377.070831 168.0
377.232788 1392.0
377.292603 140.0
377.320465 124.0
377.623718 88.0
378.103455 52.0
378.240662 424.0
378.281494 232.0
378.428619 172.0
378.695801 92.0
378.757782 184.0
378.866241 52.0
378.897247 68.0
379.249878 28.0
379.583282 56.0
380.394165 72.0
380.456268 164.0
380.658173 112.0
380.961121 88.0
381.260284 84.0
381.382446 124.0
381.485718 144.0
382.789124 48.0
382.921539 52.0
383.178619 72.0
383.361755 148.0
383.580017 160.0
384.250763 160.0
385.5159 168.0
385.613586 96.0
385.949799 68.0
385.977142 88.0
386.031891 104.0
386.059265 164.0
386.172699 116.0
386.229187 144.0
386.270477 96.0
386.883362 136.0
387.064972 176.0
387.108032 128.0
387.209167 160.0
387.354767 48.0
387.985687 176.0
388.279785 172.0
388.307251 172.0
388.366058 260.0
388.982117 132.0
389.382599 84.0
389.799042 164.0
389.928711 168.0
390.565674 100.0
391.860809 136.0
392.278564 76.0
393.055511 180.0
393.13443 244.0
393.300201 148.0
393.477844 124.0
393.50943 180.0
393.738464 64.0
393.821411 100.0
394.214813 540.0
394.366638 136.0
394.421997 204.0
394.560333 28.0
394.742218 68.0
395.023041 160.0
395.125885 172.0
395.209656 196.0
395.238861 128.0
395.830414 72.0
396.536194 156.0
396.991486 44.0
397.098572 156.0
397.134277 128.0
397.376251 60.0
397.733429 168.0
397.86441 152.0
397.979553 120.0
398.368774 124.0
398.535614 196.0
398.615082 188.0
399.350555 112.0
399.571228 160.0
400.007111 208.0
400.484924 112.0
400.943115 148.0
401.014832 148.0
401.05072 96.0
401.198212 48.0
401.242065 104.0
401.465332 200.0
401.588989 116.0
401.812378 144.0
401.995911 148.0
402.179504 144.0
402.514862 56.0
402.766449 224.0
402.954224 116.0
402.990173 124.0
403.215149 652.0
403.365814 188.0
403.581726 112.0
403.865662 212.0
404.221497 200.0
404.88623 156.0
404.962341 88.0
405.046448 68.0
405.587402 204.0
405.719666 60.0
405.988312 168.0
406.036438 84.0
406.184845 140.0
406.27713 36.0
406.469696 148.0
406.525879 128.0
406.570038 108.0
406.770721 120.0
406.963409 76.0
407.022583 184.0
407.56189 60.0
407.594025 132.0
407.891418 144.0
408.080383 96.0
408.398071 108.0
408.599213 108.0
408.647491 140.0
409.021729 124.0
409.086151 156.0
409.311829 144.0
409.408264 40.0
409.51297 112.0
409.605621 152.0
410.020599 276.0
410.133453 104.0
410.435822 104.0
411.194244 152.0
411.509094 64.0
412.256378 144.0
412.36145 136.0
412.38974 84.0
412.539276 100.0
413.044769 124.0
413.469604 148.0
413.696259 152.0
413.858215 104.0
413.99588 124.0
414.133575 60.0
414.168335 88.0
414.194336 224.0
414.311829 188.0
414.652191 120.0
414.854858 160.0
415.025146 116.0
415.321167 48.0
415.459625 156.0
415.551086 196.0
415.96228 132.0
416.136871 136.0
416.323639 144.0
416.386047 148.0
416.491943 164.0
416.847687 124.0
416.96698 116.0
417.191223 92.0
417.396454 136.0
417.433044 100.0
417.493225 40.0
417.538788 144.0
417.717743 52.0
417.750275 68.0
417.872345 108.0
418.161255 56.0
418.258942 36.0
418.295563 212.0
418.499115 124.0
418.613129 180.0
418.678284 120.0
418.714935 176.0
418.806427 156.0
418.853424 76.0
418.920929 140.0
418.936523 80.0
418.994568 124.0
419.044891 140.0
419.121521 140.0
419.171204 140.0
419.210266 240.0
419.252472 128.0
419.343018 124.0
419.378571 68.0
419.460571 88.0
419.501343 172.0
419.534607 152.0
419.593262 168.0
419.623657 96.0
419.660339 176.0
419.741882 140.0
419.773651 168.0
419.847168 152.0
419.894165 248.0
419.926819 104.0
419.949158 92.0
420.033081 124.0
420.115295 196.0
420.162872 132.0
420.203461 120.0
420.243591 180.0
420.29187 144.0
420.339783 180.0
420.379669 172.0
420.4198 140.0
420.484344 104.0
420.52771 184.0
420.594543 156.0
420.638245 120.0
420.667511 64.0
420.675781 40.0
420.7211 160.0
420.760864 128.0
420.787415 100.0
420.856903 168.0
420.905609 276.0
420.948273 132.0
421.042084 424.0
421.077637 204.0
421.096161 148.0
421.16333 676.0
421.229614 152168.0
421.37088 184.0
421.432098 152.0
421.495819 136.0
421.59964 388.0
421.653961 88.0
421.683655 144.0
421.720062 276.0
421.74762 136.0
421.796265 144.0
421.842468 108.0
421.862213 148.0
421.90332 604.0
421.966919 204.0
421.999084 64.0
422.038788 92.0
422.071625 372.0
422.100891 136.0
422.111237 180.0
422.128296 188.0
422.159088 300.0
422.164001 392.0
422.232452 40608.0
422.351227 108.0
422.422272 236.0
422.452179 140.0
422.532043 152.0
422.566833 212.0
422.634338 128.0
422.669891 108.0
422.71637 76.0
422.756592 128.0
422.793427 100.0
422.848297 88.0
422.906708 116.0
422.96756 96.0
422.993286 60.0
423.027008 184.0
423.071625 156.0
423.077057 80.0
423.1539 120.0
423.235443 6064.0
423.294403 356.0
423.34314 72.0
423.41571 40.0
423.47345 40.0
423.5383 112.0
423.598938 76.0
423.660004 80.0
423.719513 76.0
423.762878 76.0
423.819336 68.0
423.981201 64.0
424.095398 156.0
424.236084 800.0
424.30011 120.0
424.358551 140.0
424.403961 48.0
424.453735 100.0
424.524414 104.0
424.585785 120.0
424.616058 204.0
424.679962 88.0
424.727722 168.0
424.821503 160.0
424.847107 168.0
424.888672 148.0
424.934296 60.0
424.972565 192.0
425.064545 204.0
425.16629 76.0
425.251831 128.0
425.295898 124.0
425.402649 104.0
425.453613 72.0
425.494659 76.0
425.527679 104.0
425.566589 208.0
425.579803 108.0
425.591644 116.0
425.704803 44.0
425.814941 116.0
425.861359 160.0
425.900299 92.0
425.930542 120.0
425.968445 172.0
426.014374 108.0
426.047852 120.0
426.059631 84.0
426.107239 128.0
426.191681 128.0
426.273376 88.0
426.360107 52.0
426.376892 36.0
426.38623 80.0
426.513428 76.0
426.602844 112.0
426.834839 68.0
426.867004 76.0
426.89328 56.0
426.991272 72.0
427.031494 56.0
427.204254 92.0
427.270081 68.0
427.646698 100.0
427.722748 48.0
427.776276 44.0
428.14682 84.0
428.290985 84.0
428.328064 84.0
428.538147 48.0
428.566986 52.0
428.665894 28.0
428.81012 88.0
428.929657 40.0
429.065704 60.0
429.098663 68.0
429.131653 84.0
429.222382 108.0
429.416199 40.0
429.519318 52.0
429.605927 36.0
429.76593 100.0
429.894745 80.0
429.985535 56.0
430.414886 68.0
430.592438 56.0
430.633759 52.0
431.336182 72.0
431.541046 72.0
431.658661 80.0
431.737213 44.0
431.862732 92.0
432.138458 116.0
432.506775 56.0
433.521484 64.0
433.60022 88.0
433.981598 92.0
434.93988 116.0
435.218048 84.0
435.349548 72.0
436.06134 120.0
436.198517 96.0
437.134277 60.0
437.22168 68.0
437.783691 60.0
438.03775 64.0
438.371063 44.0
438.408569 40.0
438.487762 116.0
438.875427 124.0
439.100616 92.0
439.338379 44.0
439.434326 28.0
439.663849 100.0
439.797394 72.0
440.03952 36.0
440.198181 88.0
440.887451 60.0
441.088074 76.0
442.192322 72.0
442.35556 80.0
442.456024 28.0
442.493713 64.0
443.868011 76.0
444.169983 52.0
444.786804 112.0
445.404053 60.0
445.593079 80.0
446.530487 64.0
448.4841 104.0
450.370148 136.0
450.670105 60.0
450.813751 48.0
451.329468 132.0
452.505707 156.0
452.552277 84.0
455.142975 44.0
455.733368 88.0
457.132324 64.0
461.444672 128.0
463.010803 108.0
467.182922 52.0
467.273254 44.0
469.159576 136.0
471.157715 52.0
473.996002 60.0
477.390625 72.0
477.538483 48.0
479.179596 68.0
480.840973 72.0
481.792877 60.0
487.291168 52.0
487.343872 60.0
495.360046 64.0
499.51944 76.0
500.587616 80.0
502.441803 40.0
505.256348 112.0
505.556122 84.0
507.791687 92.0
511.309509 120.0
511.908264 72.0
512.047852 120.0
516.475586 100.0
517.575317 64.0
519.555908 40.0
521.744873 80.0
523.054993 176.0
524.193604 104.0
526.501892 152.0
527.50708 76.0
533.4021 60.0
534.588684 60.0
544.704895 92.0
547.327881 52.0
547.826233 28.0
548.226929 72.0
552.789368 152.0
561.277527 52.0
562.296509 148.0
564.540527 120.0
565.368408 44.0
565.756531 40.0
569.55011 108.0
571.02832 96.0
571.965637 64.0
573.456482 100.0
578.246887 136.0
581.731567 80.0
584.620239 100.0
587.337524 76.0
587.834473 72.0
589.273376 124.0
590.182007 100.0
594.119568 56.0
594.745544 56.0
595.328125 72.0
595.561279 104.0
597.802551 44.0
598.639832 36.0
602.888855 108.0
604.292236 64.0
607.800415 116.0
612.259033 96.0
614.17627 40.0
615.335999 100.0
616.061951 144.0
616.452271 52.0
618.024719 68.0
620.625061 72.0
621.507996 84.0
629.587158 84.0
629.851868 168.0
632.832397 44.0
634.149902 56.0
635.835083 52.0
637.236023 56.0
641.781006 76.0
643.966064 124.0
644.784546 164.0
647.835632 64.0
648.697144 32.0
659.743958 64.0
662.671387 48.0
663.040344 128.0
664.450439 104.0
667.27002 88.0
668.993408 88.0
670.569641 104.0
671.327454 80.0
675.030029 148.0
677.037903 96.0
678.830933 104.0
682.718994 96.0
690.083313 28.0
691.684082 44.0
693.915771 64.0
697.306824 60.0
698.063904 80.0
703.216248 40.0
704.119019 96.0
710.773315 60.0
713.450134 64.0
713.593689 76.0
714.939453 76.0
717.858765 92.0
719.267212 64.0
726.673767 72.0
727.822388 28.0
728.735474 44.0
733.72998 56.0
734.39325 32.0
744.340271 92.0
748.614441 132.0
750.368958 96.0
750.559753 108.0
751.645264 40.0
752.120056 96.0
752.332947 72.0
755.677612 32.0
756.580688 56.0
763.516296 28.0
763.55481 92.0
764.902832 64.0
766.37323 48.0
772.257996 76.0
773.541687 44.0
777.660095 88.0
780.204163 84.0
787.107422 64.0
791.87207 144.0
796.184875 48.0
808.406921 220.0
811.885193 72.0
818.824402 100.0
819.19458 56.0
820.499634 64.0
822.393494 220.0
832.670654 120.0
838.763855 40.0
838.87915 48.0
845.556213 64.0
862.037537 36.0
862.966919 96.0
869.750732 92.0
871.24231 136.0
875.730469 64.0
876.413818 68.0
880.714478 156.0
887.371887 208.0
889.804443 72.0
890.44574 92.0
890.505127 188.0
918.198425 184.0
922.654663 40.0
923.495178 184.0
923.688721 48.0
925.673889 68.0
926.067505 144.0
927.382263 108.0
930.014648 180.0
931.733154 88.0
931.921509 208.0
933.240417 96.0
933.580933 68.0
935.479248 160.0
937.3125 52.0
944.333008 36.0
946.836182 164.0
946.928101 132.0
949.502136 164.0
950.305725 156.0
961.437256 212.0
961.943359 116.0
964.735596 56.0
965.885742 64.0
967.30896 56.0
968.373962 48.0
971.249939 144.0
974.173645 208.0
978.172058 80.0
978.906738 84.0
979.243042 44.0
979.809875 176.0
979.890869 120.0
980.283447 144.0
981.710938 60.0
982.733948 136.0
982.846252 172.0
983.052185 180.0
984.544189 196.0
985.25 156.0
985.449951 160.0
989.271118 140.0
991.244019 152.0
999.338013 76.0
1001.213501 168.0
1004.629761 208.0
1007.255798 148.0
1007.401062 120.0
1010.473572 60.0
1013.360596 124.0
1017.356079 140.0
1017.946533 112.0
1022.371033 68.0
1025.52356 44.0
1026.180176 196.0
1027.041138 216.0
1028.49585 192.0
1030.411621 144.0
1031.651489 180.0
1033.052002 184.0
1033.998901 128.0
1034.479004 124.0
1034.690186 180.0
1035.817261 40.0
1038.323486 244.0
1042.605591 204.0
1042.997559 184.0
1044.463623 176.0
1045.988647 208.0
1046.349121 196.0
1047.379517 128.0
1050.94458 196.0
1051.706055 160.0
1052.945679 128.0
1053.184692 168.0
1056.13208 100.0
1056.520142 168.0
1057.374268 180.0
1057.930908 172.0
1059.329712 132.0
1059.562988 104.0
1059.763794 136.0
1061.296265 180.0
1061.805786 156.0
1063.596436 232.0
1064.239136 132.0
1068.268555 140.0
1068.626343 188.0
1069.303101 144.0
1070.071289 128.0
1072.1427 172.0
1072.761841 88.0
1075.449341 156.0
1077.04248 92.0
1079.486816 240.0
1080.382812 116.0
1084.737549 140.0
1085.439087 120.0
1087.17749 180.0
1087.47937 80.0
1087.840454 156.0
1088.273682 152.0
1088.549438 208.0
1088.93042 168.0
1089.377075 116.0
1093.414185 84.0
1095.78479 120.0
1096.674316 120.0
1099.873413 100.0
1100.144043 128.0
1102.376465 140.0
1103.420776 212.0
1103.916748 160.0
1105.451416 196.0
1105.769043 76.0
1107.828369 128.0
1108.424683 180.0
1108.656616 84.0
1109.067505 112.0
1109.160278 160.0
1109.339233 132.0
1110.06189 128.0
1110.453247 168.0
1110.784912 132.0
1111.395264 136.0
1114.037598 96.0
1114.223633 180.0
1115.512817 208.0
1115.569214 180.0
1115.851929 168.0
1117.388184 136.0
1119.884521 148.0
1121.383545 128.0
1122.84375 120.0
1123.477417 104.0
1124.017822 132.0
1125.286011 168.0
1126.708496 120.0
1129.181763 180.0
1131.336304 188.0
1132.186646 232.0
1132.890015 248.0
1134.022461 136.0
1134.391113 64.0
1134.779907 200.0
1135.242554 140.0
1137.006958 140.0
1137.167969 32.0
1137.449951 148.0
1137.785522 124.0
1137.986938 148.0
1139.746704 56.0
1140.559937 220.0
1141.151489 92.0
1142.079468 372.0
1143.479004 116.0
1145.269897 152.0
1145.55957 132.0
1145.916626 184.0
1146.03125 180.0
1146.482666 148.0
1147.251099 160.0
1148.168091 124.0
1149.793945 164.0
1150.522949 60.0
1151.934326 140.0
1152.535645 144.0
1153.934692 124.0
1154.049683 168.0
1155.321167 148.0
1155.402344 220.0
1157.290649 68.0
1158.211548 148.0
1158.550293 60.0
1159.783569 136.0
1160.997192 116.0
1161.526245 184.0
1161.933228 72.0
1163.297241 168.0
1163.371948 148.0
1164.084839 56.0
1164.193481 104.0
1164.580688 108.0
1165.246338 160.0
1165.409424 208.0
1165.783203 196.0
1167.938354 196.0
1168.48938 176.0
1169.455688 172.0
1170.524536 212.0
1170.796875 164.0
1171.573364 156.0
1171.852661 124.0
1174.293091 192.0
1174.449951 164.0
1175.125366 160.0
1175.637085 140.0
1176.357666 176.0
1177.057007 88.0
1177.75354 116.0
1178.204468 44.0
1179.180176 136.0
1179.338745 96.0
1179.509644 112.0
1182.183838 120.0
1182.580811 244.0
1182.697144 176.0
1183.566528 348.0
1186.45105 168.0
1187.472656 208.0
1187.692139 220.0
1188.014648 136.0
1189.064453 168.0
1190.519897 116.0
1192.340332 84.0
1193.172119 116.0
1193.832153 124.0
1197.610596 112.0
1199.574341 236.0
1200.601685 172.0
1201.001709 168.0
1201.236206 128.0
1201.670898 96.0
1201.726074 188.0
1202.561035 124.0
1202.920044 224.0
1203.748535 212.0
1204.549683 212.0
1204.763794 124.0
1205.212891 168.0
1205.959229 156.0
1206.989258 76.0
1207.632446 176.0
1208.73938 168.0
1209.960693 140.0
1210.047485 84.0
1210.691406 124.0
1211.855225 196.0
1212.104614 108.0
1213.102661 36.0
1215.564819 164.0
1216.029785 192.0
1216.286621 144.0
1216.966919 136.0
1217.321045 124.0
1217.411377 72.0
1219.280151 188.0
1220.447998 112.0
1220.795654 156.0
1221.720703 128.0
1221.832031 128.0
1222.367798 156.0
1225.243286 92.0
1225.403564 172.0
1227.25061 192.0
1228.122314 136.0
1228.205933 260.0
1229.46875 144.0
1230.760254 172.0
1230.843994 196.0
1230.983643 172.0
1231.99646 164.0
1232.660156 64.0
1232.855835 172.0
1238.557861 128.0
1238.975342 212.0
1239.622803 56.0
1239.706909 176.0
1239.854614 104.0
1240.029297 128.0
1240.597046 112.0
1240.737305 112.0
1241.543579 112.0
1242.020508 156.0
1242.995728 172.0
1243.220215 120.0
1244.659302 120.0
1244.764648 148.0
1245.171997 148.0
1246.478638 196.0
1246.7323 196.0
1247.300903 152.0
1248.587524 108.0
1249.248779 164.0
1250.367432 116.0
1250.592651 204.0
1252.1698 204.0
1252.95874 184.0
1253.120728 48.0
1253.910034 136.0
1254.4104 92.0
1256.942383 132.0
1257.012939 52.0
1257.768066 188.0
1258.156372 140.0
1258.805908 140.0
1260.656738 180.0
1260.995972 164.0
1261.05249 112.0
1261.158447 192.0
1261.222168 180.0
1261.582642 44.0
1262.409912 168.0
1262.882935 176.0
1263.442505 124.0
1263.541626 104.0
1263.817505 92.0
1264.298706 84.0
1264.610107 176.0
1264.680908 192.0
1265.452515 64.0
1265.94812 164.0
1267.995483 200.0
1268.087646 212.0
1268.172729 180.0
1268.22937 136.0
1268.718506 192.0
1269.002075 100.0
1269.292847 176.0
1270.427612 132.0
1270.668823 192.0
1271.073242 96.0
1271.279053 140.0
1271.818481 152.0
1272.073975 140.0
1272.201782 256.0
1272.400513 40.0
1272.890503 180.0
1272.947266 640.0
1273.685913 132.0
1273.799561 156.0
1273.906128 144.0
1274.296875 176.0
1275.149536 120.0
1275.640015 152.0
1276.32251 108.0
1276.713623 104.0
1277.211426 176.0
1277.36084 104.0
1277.673828 144.0
1278.029541 96.0
1278.570435 136.0
1281.639526 180.0
1282.694336 152.0
1283.015137 124.0
1283.086426 132.0
1284.790894 36.0
1285.711304 156.0
1286.125244 144.0
1286.653564 148.0
1286.839111 72.0
1286.996216 176.0
1288.231812 112.0
1289.117676 188.0
1289.210571 172.0
1289.360718 164.0
1289.517944 196.0
1290.232788 156.0
1290.869141 180.0
1291.169434 172.0
1291.240967 116.0
1292.907837 212.0
1293.573486 160.0
1293.79541 156.0
1294.568726 112.0
1295.628784 176.0
1295.764893 148.0
1296.481445 128.0
1297.176758 120.0
1297.484985 208.0
1298.331055 152.0
1299.629395 136.0
1300.002563 176.0
1300.619751 228.0
1300.720215 132.0
1301.596191 104.0
1302.716553 92.0
1303.815918 176.0
1303.894897 160.0
1304.088989 188.0
1304.419678 120.0
1304.685547 204.0
1304.771851 136.0
1304.829346 144.0
1306.483521 152.0
1309.153809 144.0
1309.52832 128.0
1310.183838 204.0
1310.255859 220.0
1312.208984 80.0
1313.810059 64.0
1314.012085 96.0
1314.264526 148.0
1314.704712 176.0
1315.231567 176.0
1315.960693 156.0
1316.285645 176.0
1316.97168 148.0
1317.968628 72.0
1318.488892 184.0
1319.580444 68.0
1321.178711 220.0
1321.258301 224.0
1321.323486 204.0
1321.837158 72.0
1321.938477 192.0
1322.318481 204.0
1322.589844 176.0
1323.813354 104.0
1324.443481 180.0
1324.675293 168.0
1326.334595 172.0
1327.2771 172.0
1327.92981 176.0
1328.851074 164.0
1329.387939 176.0
1329.475098 188.0
1329.717407 140.0
1331.304443 160.0
1331.79834 168.0
1331.943604 140.0
1332.038086 168.0
1332.582886 92.0
1332.829956 184.0
1332.946167 40.0
1333.345825 60.0
1333.440308 176.0
1334.501709 168.0
1334.828857 140.0
1334.887085 156.0
1335.046997 132.0
1335.308838 224.0
1335.548828 224.0
1335.636108 156.0
1336.756592 244.0
1337.950195 88.0
1338.81665 168.0
1339.610596 212.0
1339.843018 212.0
1340.288208 188.0
1340.448486 224.0
1340.594238 120.0
1340.907593 72.0
1341.009644 172.0
1341.191772 176.0
1341.709351 240.0
1342.409302 136.0
1342.861572 108.0
1343.175171 124.0
1343.299194 152.0
1344.160034 48.0
1344.371704 172.0
1345.057739 164.0
1346.532593 152.0
1347.109619 84.0
1347.884155 132.0
1348.205688 36.0
1348.54187 140.0
1348.614868 172.0
1349.426392 160.0
1351.927979 176.0
1352.981934 152.0
1353.216187 176.0
1353.977783 100.0
1354.549072 156.0
1357.972046 172.0
1358.316772 176.0
1359.454346 192.0
1359.923706 192.0
1360.782593 224.0
1361.384766 144.0
1361.942871 200.0
1362.574585 152.0
1362.758301 152.0
1362.861206 168.0
1364.411987 172.0
1364.661987 128.0
1364.735474 120.0
1365.514893 140.0
1365.919434 168.0
1366.096069 148.0
1366.184326 172.0
1366.243164 64.0
1366.463867 40.0
1366.566895 196.0
1367.545654 92.0
1367.766357 112.0
1368.605713 148.0
1369.467285 80.0
1369.703003 88.0
1370.572266 148.0
1371.921021 64.0
1372.326538 96.0
1372.496094 160.0
1372.614136 188.0
1372.990234 220.0
1373.971191 132.0
1374.258911 160.0
1374.406494 168.0
1374.731201 172.0
1374.864014 192.0
1375.720215 180.0
1376.281372 124.0
1376.849976 60.0
1377.189697 36.0
1377.706787 196.0
1378.113037 140.0
1378.807739 152.0
1378.955566 168.0
1379.975708 152.0
1380.641113 116.0
1380.959106 128.0
1381.070068 188.0
1381.218018 184.0
1381.728516 164.0
1381.78772 184.0
1381.935669 200.0
1382.483154 168.0
1383.734131 416.0
1384.119141 156.0
1385.422729 192.0
1385.833862 308.0
1386.141357 208.0
1386.385864 148.0
1387.505127 140.0
1388.001953 224.0
1388.958618 84.0
1389.581787 216.0
1389.974976 124.0
1390.783936 184.0
1391.311035 52.0
1391.600586 76.0
1392.409912 156.0
1392.684692 192.0
1393.397827 76.0
1394.021973 204.0
1394.348999 52.0
1396.311768 120.0
1397.241577 92.0
1397.501953 104.0
1398.328003 60.0
1398.558716 196.0
1398.992432 316.0
1399.355225 124.0
1399.489258 56.0
1400.718018 224.0
1400.79248 164.0
1401.857422 236.0
1402.334961 144.0
1402.439209 196.0
1402.603271 128.0
1402.826904 120.0
1403.311401 116.0
1403.714111 144.0
1404.303223 156.0
1404.362915 132.0
1404.549438 360.0
1405.347656 124.0
1405.869995 184.0
1405.974487 144.0
1406.101318 160.0
1407.474854 152.0
1407.654053 212.0
1408.677368 232.0
1408.82666 104.0
1410.052124 156.0
1410.665039 180.0
1411.547241 192.0
1412.09314 160.0
1412.743896 160.0
1413.252686 160.0
1413.387329 84.0
1413.843872 156.0
1414.487549 144.0
1414.771973 140.0
1414.981567 180.0
1415.32605 124.0
1415.483276 180.0
1415.771851 156.0
1415.910156 192.0
1415.987305 136.0
1416.831421 136.0
1416.97644 180.0
1417.123657 124.0
1417.183594 180.0
1417.9104 120.0
1418.135254 116.0
1418.51001 248.0
1419.08728 52.0
1419.694702 164.0
1419.874634 144.0
1420.009644 168.0
1420.58728 104.0
1420.714722 176.0
1420.842285 220.0
1420.90979 136.0
1421.149902 108.0
1421.420044 128.0
1421.607666 56.0
1421.967896 164.0
1423.04126 168.0
1423.18396 180.0
1423.349121 172.0
1423.822388 192.0
1424.520752 76.0
1425.692871 140.0
1427.143677 176.0
1427.309082 156.0
1427.760254 168.0
1428.384521 140.0
1428.527466 108.0
1428.738159 164.0
1428.918701 136.0
1429.054077 236.0
1429.979736 176.0
1430.265747 148.0
1430.371094 124.0
1430.423828 140.0
1430.755005 200.0
1430.882935 136.0
1431.281982 176.0
1431.620728 140.0
1431.786621 144.0
1431.974854 128.0
1432.027588 72.0
1433.421265 144.0
1433.729858 136.0
1434.358154 132.0
1434.612061 204.0
1434.755371 280.0
1435.019287 184.0
1435.328369 144.0
1435.599854 136.0
1435.856201 72.0
1436.074951 152.0
1436.127808 136.0
1436.934937 124.0
1437.651733 172.0
1438.074341 172.0
1438.368774 136.0
1439.221802 144.0
1439.591797 164.0
1439.78064 152.0
1439.882935 148.0
1439.961914 156.0
1440.445312 112.0
1440.505737 144.0
1440.679443 196.0
1441.185669 100.0
1441.454224 112.0
1441.92627 168.0
1441.986694 180.0
1442.035156 160.0
1443.763306 244.0
1444.5802 148.0
1444.844971 164.0
1444.897949 272.0
1445.20813 132.0
1445.578857 164.0
1446.199463 176.0
1446.525024 44.0
1446.59314 32.0
1446.676392 192.0
1448.372559 168.0
1448.455933 196.0
1448.508911 148.0
1449.509033 184.0
1449.615112 156.0
1451.279053 132.0
1451.611694 232.0
1452.018188 160.0
1452.116821 196.0
1452.245728 208.0
1452.829834 128.0
1453.512695 148.0
1454.393066 216.0
1455.106567 180.0
1455.157715 144.0
1455.364746 184.0
1455.630493 120.0
1455.72168 200.0
1455.797607 128.0
1456.382324 112.0
1456.625488 140.0
1456.982544 148.0
1457.909424 176.0
1458.623901 188.0
1459.262451 184.0
1459.657837 176.0
1459.756714 176.0
1461.597534 168.0
1462.359863 120.0
1462.472778 252.0
1463.424316 148.0
1464.856079 88.0
1465.168335 140.0
1465.51123 192.0
1466.067505 176.0
1466.151367 188.0
1466.32666 144.0
1467.111694 296.0
1467.965698 144.0
1468.522339 180.0
1468.903809 184.0
1468.987671 136.0
1470.292358 152.0
1470.460327 116.0
1471.116699 248.0
1471.349731 136.0
1472.200928 184.0
1472.407104 140.0
1472.903564 180.0
1473.102173 172.0
1473.287598 204.0
1473.407837 28.0
1473.655029 132.0
1474.0802 136.0
1474.638062 104.0
1475.723511 100.0
1475.815308 156.0
1476.773315 172.0
1477.02356 92.0
1477.082642 156.0
1477.566772 76.0
1478.025757 156.0
1478.454346 164.0
1478.913574 128.0
1479.06665 156.0
1479.365112 108.0
1479.464722 196.0
1479.801514 56.0
1479.969971 156.0
1480.429443 232.0
1480.858276 188.0
1480.927246 152.0
1481.501709 72.0
1481.624268 228.0
1481.823486 80.0
1482.352173 116.0
1482.754883 124.0
1483.0802 204.0
1483.716553 228.0
1484.582886 160.0
1484.759277 136.0
1485.418945 256.0
1485.488037 52.0
1485.664429 188.0
1487.377441 172.0
1487.805542 168.0
1488.258545 172.0
1488.46582 128.0
1489.218384 240.0
1489.37207 164.0
1489.441162 120.0
1489.571777 144.0
1490.658081 132.0
1490.924072 204.0
1491.108521 184.0
1491.592651 108.0
1491.684937 224.0
1492.030884 144.0
1493.576538 140.0
1493.907349 144.0
1494.692017 92.0
1495.215332 164.0
1495.954712 152.0
1496.139038 140.0
1496.635254 196.0
1496.721313 212.0
1497.733032 228.0
1497.925659 164.0
1498.154419 228.0
1498.565063 116.0
1498.827026 172.0
1498.919434 132.0
1500.036987 204.0
1500.661499 244.0
1501.363159 156.0
1501.517334 112.0
1502.157593 136.0
1502.281006 176.0
1503.129639 172.0
1503.546387 216.0
1504.130005 164.0
1504.827759 168.0
1504.928101 204.0
1505.107666 192.0
