>compound Nelarabine
>formula C11H15N5O5 
>ionization [M+H]+
>parentmass 298.1145950320905
#inchi InChI=1S/C11H15N5O5/c1-20-9-5-8(14-11(12)15-9)16(3-13-5)10-7(19)6(18)4(2-17)21-10/h3-4,6-7,10,17-19H,2H2,1H3,(H2,12,14,15)/t4-,6-,7+,10-/m1/s1
#inchikey IXOXBSCIXZEQEQ
#Ion_Source LC-ESI
#Instrument qTof
#Compound_Source Isolated
#PI Sirenas
#Data_Collector Ed Esquenazi 
#Scan -1
#Precursor_MZ 298.115
#ExactMass 0.0
#Charge 1
#CAS_Number N/A
#Pubmed_ID N/A
#Smiles N/A
#INCHI_AUX N/A
#Library_Class 3
#SpectrumID CCMSLIB00000005883
#IonMode Positive
#UpdateWorkflowName UPDATE-SINGLE-ANNOTATED-BRONZE
#LibraryQualityString Bronze
#TaskID d19310cd93df49b68e9fcbec27720eb5
##Scan# 1
#SpectrumFile Nelarabine.mgf
#LibraryName fda_library.mgf
#MQScore -1
#Organism fda_library
#TIC_Query 0
#RT_Query -1
#MZErrorPPM -1
#SharedPeaks 0
#MassDiff 0
#LibMZ -1
#SpecMZ 298.115
#SpecCharge 0
#internalFilename spec-00000.mgf

>collision 10
164.778397 6.740942
165.397186 15.1405
165.633514 7.226851
165.698975 3.002451
166.071777 1166.687988
166.120193 2.700758
166.151428 5.047619
166.160583 20.76948
166.188278 3.926282
166.219193 4.005952
166.24437 3.148809
166.271561 9.928572
166.281448 22.04018
166.357925 5.007576
166.401718 29.13611
166.442429 6.865196
166.452164 3.727941
166.470123 9.773936
166.788589 13.70525
166.86412 28.54023
167.702454 11.08333
169.088043 22.136749
175.960617 30.670879
178.945175 56.838711
179.934265 42.259289
216.977448 34.1875
219.908829 2.14881
219.94545 71.500847
220.955627 55.00116
226.971008 15.85468
252.975113 13.86786
253.972931 26.160549
297.994324 31.83688
298.112122 328.104797
298.190979 9.392857
298.338165 27.728451
298.405762 9.666667
298.463165 18.09091
298.700287 9.537499
299.357178 3.816667
299.904114 7.605556
302.041473 5.333333
438.096802 5.333333
