>compound MLS000563057-01!
>formula C26H38O9
>ionization [M+H]+
>parentmass 495.2588592480905
#inchi InChI=1S/C26H38O9/c1-24-6-5-16-14(8-19(29)33-16)15(24)4-7-25-9-13(2-3-18(24)25)26(11-25,12-28)35-23-22(32)21(31)20(30)17(10-27)34-23/h8,13,15-18,20-23,27-28,30-32H,2-7,9-12H2,1H3/t13?,15?,16-,17-,18?,20-,21+,22-,23-,24-,25+,26+/m1/s1
#inchikey GPPWDBNOAOQQHD
#Ion_Source LC-ESI
#Instrument qTof
#Compound_Source NIH Natural Product Library
#PI Dorrestein
#Data_Collector VVP/LMS
#Scan -1
#Precursor_MZ 495.259
#ExactMass 494.252
#Charge 1
#CAS_Number N/A
#Pubmed_ID N/A
#Smiles C[C@]12CC[C@H]3OC(=O)C=C3C2CC[C@]4(CC5CCC41)C[C@@]5(CO)O[C@H]6O[C@H](CO)[C@@H](O)[C@H](O)[C@H]6O
#INCHI_AUX N/A
#Library_Class 3
#SpectrumID CCMSLIB00000079445
#IonMode Positive
#UpdateWorkflowName UPDATE-SINGLE-ANNOTATED-BRONZE
#LibraryQualityString Bronze
#TaskID b1d8e8f6646f4e71acdff9ca3d919d08
##Scan# 1613
#SpectrumFile p1-E06_GE6_01_17926.mzXML
#LibraryName NIH_Natural_Products_Library.mgf
#MQScore -1
#Organism NIH_Natural_Products_Library
#TIC_Query 0
#RT_Query -1
#MZErrorPPM -1
#SharedPeaks 0
#MassDiff 0
#LibMZ -1
#SpecMZ 495.259
#SpecCharge 0
#internalFilename spec-00000.mgf

>collision 10
95.053772 232.0
95.083771 488.0
95.868546 268.0
95.911423 156.0
97.031548 168.0
97.060959 184.0
97.628456 144.0
97.652054 244.0
97.852768 220.0
98.104935 184.0
98.239037 216.0
99.463913 180.0
100.884201 48.0
101.060196 184.0
101.172272 200.0
102.338722 200.0
102.485748 176.0
103.056747 112.0
104.203499 172.0
104.439308 160.0
104.667236 128.0
104.760925 192.0
104.795555 120.0
105.069839 604.0
105.978554 156.0
106.005188 220.0
106.071922 168.0
106.255333 148.0
106.538643 156.0
106.972542 92.0
107.047623 184.0
107.083649 316.0
107.471275 184.0
108.091156 172.0
109.027435 240.0
109.098595 292.0
109.140717 176.0
109.369553 160.0
109.953133 208.0
110.038712 168.0
110.07003 128.0
111.083954 232.0
112.765335 128.0
112.928139 200.0
113.061424 160.0
113.131271 140.0
113.646263 48.0
114.181572 128.0
114.368797 180.0
114.430534 216.0
114.907936 48.0
114.971947 72.0
115.04966 360.0
115.072266 148.0
116.062897 292.0
116.206604 220.0
116.26239 136.0
116.526497 168.0
117.031929 136.0
117.071136 1668.0
117.146072 44.0
117.301224 176.0
118.071754 224.0
118.600304 128.0
118.940842 164.0
119.021172 156.0
119.085617 1288.0
119.114555 140.0
120.088196 336.0
120.554688 92.0
120.928658 164.0
121.064392 344.0
121.101158 824.0
121.390907 124.0
121.452316 200.0
122.899849 80.0
123.052139 128.0
123.078636 208.0
123.567093 188.0
123.945702 108.0
125.060524 180.0
125.098366 152.0
125.83181 112.0
126.450996 212.0
127.035843 408.0
128.036011 152.0
128.060913 484.0
128.198212 48.0
128.500351 36.0
128.972321 164.0
129.071533 680.0
129.476852 236.0
129.633163 144.0
130.075653 244.0
130.109467 132.0
130.17305 176.0
130.445679 72.0
130.959915 60.0
131.014587 140.0
131.051041 152.0
131.083603 1392.0
131.831406 84.0
132.053177 180.0
132.087479 356.0
132.137802 144.0
133.065125 304.0
133.09903 228.0
134.066574 124.0
134.103638 192.0
134.837387 104.0
135.079498 412.0
135.115723 492.0
135.142624 248.0
135.339355 112.0
135.55014 204.0
135.890976 128.0
136.116119 148.0
137.060501 164.0
137.088455 144.0
137.952026 212.0
138.773758 172.0
139.379318 200.0
139.670837 140.0
139.708481 56.0
139.84024 104.0
140.778534 164.0
140.984055 152.0
141.026596 248.0
141.070908 980.0
141.551788 20.0
142.079544 476.0
142.305801 172.0
143.087326 1000.0
143.159424 68.0
144.084885 96.0
144.264114 192.0
144.620514 176.0
145.01091 100.0
145.052139 284.0
145.101562 888.0
145.173935 88.0
145.202713 80.0
145.6035 76.0
146.103241 132.0
146.127518 56.0
146.230988 64.0
146.515121 200.0
146.69104 232.0
147.079727 348.0
147.113205 696.0
147.289474 68.0
147.906052 60.0
148.036789 52.0
148.061005 132.0
148.116714 108.0
148.329941 48.0
148.756866 84.0
149.059982 336.0
149.095016 332.0
149.700211 160.0
149.865845 136.0
150.097397 96.0
150.385269 48.0
150.641647 152.0
151.076202 612.0
151.108582 156.0
151.662018 92.0
151.691422 128.0
152.073517 160.0
152.373657 120.0
152.998306 212.0
153.091873 148.0
154.058167 176.0
154.073624 124.0
154.969147 108.0
155.084534 928.0
156.08609 184.0
156.4319 60.0
156.685913 176.0
156.857864 164.0
156.957581 52.0
157.066315 244.0
157.09993 964.0
157.134674 48.0
157.37677 120.0
157.799011 116.0
158.064133 152.0
158.105148 212.0
158.62262 304.0
159.079453 340.0
159.116989 1092.0
159.986664 96.0
160.107513 188.0
160.331726 140.0
161.065933 120.0
161.093597 384.0
161.134201 156.0
163.069885 140.0
163.112656 156.0
163.248062 324.0
163.443924 144.0
164.797836 56.0
165.071335 172.0
165.089935 468.0
165.565216 216.0
165.583145 84.0
165.629242 60.0
166.088058 352.0
166.395996 116.0
166.987015 136.0
167.087341 736.0
167.403915 128.0
168.08847 456.0
169.065063 296.0
169.100189 848.0
169.786591 136.0
170.092743 152.0
170.116104 132.0
170.458939 88.0
170.992035 108.0
171.077942 180.0
171.115555 432.0
171.325333 160.0
171.400879 72.0
171.825867 120.0
172.086624 216.0
172.256607 128.0
172.612854 208.0
172.899796 176.0
173.100159 224.0
173.131134 284.0
173.591385 104.0
173.879959 180.0
174.139877 136.0
174.407867 160.0
175.075546 164.0
175.104752 180.0
175.149872 272.0
176.11525 120.0
176.152222 180.0
176.604218 104.0
177.085861 188.0
178.588165 92.0
179.10463 308.0
179.522949 28.0
179.989929 108.0
180.092514 320.0
180.190247 116.0
181.099625 1152.0
181.308716 64.0
182.089417 104.0
182.113586 164.0
183.117706 828.0
184.083725 152.0
184.121643 388.0
184.576736 32.0
185.057007 128.0
185.091827 456.0
185.133377 600.0
185.210007 36.0
186.091354 164.0
186.136719 284.0
186.501541 184.0
187.074738 352.0
187.119049 380.0
187.143555 76.0
188.078598 136.0
188.123169 256.0
188.149582 112.0
188.663162 80.0
189.088821 188.0
189.122711 144.0
189.144608 148.0
190.381119 108.0
190.875732 108.0
191.079269 172.0
191.104034 116.0
191.57756 168.0
192.106842 192.0
193.0979 200.0
193.123337 168.0
194.113159 336.0
194.525391 32.0
195.078415 164.0
195.113724 744.0
195.142136 148.0
195.334015 80.0
195.926956 48.0
196.091354 140.0
196.121948 228.0
196.763611 176.0
197.096451 160.0
197.130203 1032.0
197.590851 120.0
198.128632 296.0
199.087616 320.0
199.113235 168.0
199.146042 184.0
199.984467 156.0
200.0858 236.0
200.158997 100.0
201.0905 212.0
201.125031 308.0
202.050018 152.0
202.08963 36.0
202.471771 132.0
202.959167 52.0
203.107285 500.0
204.111984 172.0
204.735184 184.0
205.097 360.0
205.129456 176.0
207.118439 604.0
208.087265 172.0
208.11647 160.0
209.130859 1028.0
209.282455 164.0
209.527252 32.0
210.063446 40.0
210.134979 624.0
210.375107 44.0
210.854584 72.0
210.9384 156.0
211.001999 160.0
211.147751 484.0
211.725372 156.0
212.147369 100.0
212.34848 64.0
212.957962 96.0
213.089371 328.0
213.131821 304.0
213.164841 388.0
213.952438 188.0
214.100937 160.0
214.133408 132.0
215.057205 216.0
215.104416 184.0
215.609192 172.0
216.107529 240.0
217.099274 140.0
217.123352 308.0
217.263535 116.0
218.120743 180.0
219.433945 140.0
220.118225 144.0
220.55571 108.0
221.131363 140.0
222.14093 276.0
222.225922 68.0
223.108383 352.0
223.147186 1440.0
223.262589 56.0
223.298279 56.0
223.866699 156.0
223.908386 52.0
224.113922 176.0
224.151047 368.0
225.127609 96.0
225.164993 380.0
225.220688 44.0
225.280441 32.0
225.399948 136.0
225.450745 120.0
226.161209 140.0
226.357132 92.0
227.09436 132.0
227.135773 288.0
227.186249 164.0
227.22934 128.0
228.142303 52.0
229.114853 164.0
230.490128 68.0
230.816589 144.0
231.034348 204.0
231.146286 140.0
231.179581 160.0
233.132507 240.0
233.497314 160.0
234.136765 176.0
235.069244 172.0
235.111969 176.0
235.133331 172.0
235.15303 120.0
235.417236 156.0
236.118851 224.0
236.159363 164.0
236.508682 140.0
236.974152 144.0
237.123947 344.0
237.160446 1044.0
237.529037 52.0
237.832809 148.0
238.161194 332.0
238.991364 88.0
239.074448 184.0
239.137863 496.0
239.179474 368.0
239.961548 128.0
240.142227 304.0
240.159363 212.0
240.189743 140.0
241.121582 184.0
241.156738 892.0
241.198944 384.0
241.292191 52.0
242.167038 172.0
242.200226 220.0
242.952133 104.0
243.140137 168.0
244.057785 68.0
245.145905 280.0
247.142532 156.0
248.329803 148.0
249.16629 180.0
249.796646 136.0
250.14592 92.0
251.081696 92.0
251.143616 336.0
251.177551 1296.0
251.469757 148.0
251.700211 76.0
252.142456 300.0
252.179321 324.0
253.157257 364.0
253.191101 380.0
253.5793 108.0
254.162796 196.0
254.753311 96.0
255.125122 104.0
255.17128 420.0
255.404953 152.0
256.135895 176.0
256.171448 200.0
256.5513 36.0
257.151001 244.0
257.78009 72.0
258.054962 84.0
258.157288 152.0
258.330017 104.0
259.170013 168.0
260.387787 52.0
261.158661 332.0
261.197723 148.0
262.989227 108.0
264.142731 100.0
266.19101 144.0
267.166077 136.0
268.152679 92.0
269.111725 204.0
269.15509 800.0
269.189392 1108.0
269.886078 148.0
270.161163 376.0
270.191895 140.0
270.808899 48.0
271.159485 136.0
271.192261 100.0
271.759552 184.0
272.176422 172.0
272.997894 88.0
276.452087 184.0
279.172546 996.0
279.421448 120.0
280.185364 216.0
280.397064 116.0
280.89386 44.0
281.180817 124.0
282.092651 244.0
282.132782 48.0
285.152863 144.0
285.186096 376.0
286.225983 160.0
287.166199 128.0
287.193207 180.0
288.15863 40.0
297.182709 2236.0
297.311707 68.0
298.036224 72.0
298.067169 124.0
298.191193 648.0
299.187622 300.0
300.400513 124.0
303.83313 56.0
313.022095 172.0
313.233429 40.0
313.82193 20.0
315.195099 396.0
315.481232 72.0
315.69339 68.0
315.912659 100.0
316.200836 204.0
316.22406 216.0
317.20163 116.0
330.036682 120.0
338.346619 52.0
339.038879 56.0
348.957397 152.0
357.530884 40.0
362.159576 88.0
367.355713 84.0
372.162537 148.0
375.402435 240.0
424.073822 84.0
447.134369 76.0
466.496857 32.0
468.622833 136.0
495.255768 828.0
495.490082 48.0
496.270935 348.0
497.246033 208.0
497.281525 104.0
497.561188 44.0
505.472534 80.0
508.380768 96.0
522.36908 56.0
537.275879 112.0
546.272217 104.0
552.317505 168.0
570.277527 76.0
576.69281 80.0
592.263062 84.0
632.161072 120.0
672.652161 84.0
683.848022 76.0
692.394592 172.0
696.905762 64.0
804.322754 120.0
806.361694 60.0
831.472412 164.0
834.269653 176.0
924.11853 164.0
948.496521 176.0
948.796875 176.0
960.455994 88.0
999.204651 112.0
1008.625977 124.0
1127.387085 248.0
1192.102783 184.0
1221.46582 124.0
1248.456055 104.0
1253.933228 184.0
1265.263184 164.0
1274.227539 172.0
1305.02478 56.0
1311.597412 168.0
1320.941162 160.0
1322.229004 196.0
1329.439697 176.0
1347.292969 192.0
1348.323242 188.0
1355.135742 108.0
1358.933594 168.0
1362.340088 176.0
1362.486938 76.0
1375.801758 192.0
1383.712158 172.0
1415.468018 208.0
1420.076782 196.0
1422.860718 264.0
1424.400146 188.0
1425.038696 204.0
1427.767334 176.0
1428.338989 68.0
1431.221313 220.0
1438.655029 44.0
1454.072632 184.0
1462.251099 136.0
1468.917969 208.0
1473.697021 44.0
1480.627319 172.0
1485.386963 132.0
1491.660522 176.0
1502.225464 268.0
