>compound NCGC00095709-02!TANSHINONE IIA
>formula C19H18O3
>ionization [M+H]+
>parentmass 295.133
#inchi InChI=1S/C19H18O3/c1-10-9-22-18-12-6-7-13-11(5-4-8-19(13,2)3)15(12)17(21)16(20)14(10)18/h6-7,9H,4-5,8H2,1-3H3
#inchikey HYXITZLLTYIPOF
#Ion_Source LC-ESI
#Instrument qTOF
#Compound_Source Prestwick Phytochem Lib
#PI Dorrestein
#Data_Collector VVP/LMS
#Scan -1
#Precursor_MZ 295.133
#ExactMass 294.126
#Charge 1
#CAS_Number N/A
#Pubmed_ID N/A
#Smiles CC1=COC2=C1C(=O)C(=O)C3=C2C=CC4=C3CCCC4(C)C
#INCHI_AUX N/A
#Library_Class 1
#SpectrumID CCMSLIB00000078792
#IonMode Positive
#UpdateWorkflowName UPDATE-SINGLE-ANNOTATED-GOLD
#LibraryQualityString Gold
#TaskID 67c915c6594c435cadc1fe2b5358144d
##Scan# 2791
#SpectrumFile p1-B04_GB4_01_17888.mzXML
#LibraryName phytochem_lib.mgf
#MQScore -1
#Organism phytochem_lib
#TIC_Query 0
#RT_Query -1
#MZErrorPPM -1
#SharedPeaks 0
#MassDiff 0
#LibMZ -1
#SpecMZ 295.133
#SpecCharge 0
#internalFilename spec-00000.mgf

>collision 10
95.497154 148.0
95.578857 156.0
95.697586 272.0
96.47406 160.0
96.528801 172.0
97.362396 136.0
97.489342 164.0
97.621048 164.0
97.894577 196.0
98.537598 76.0
98.905754 208.0
98.960838 128.0
99.470329 152.0
99.574394 204.0
100.142395 84.0
100.55909 168.0
100.603004 144.0
100.859673 220.0
101.683876 176.0
102.546684 208.0
103.285675 116.0
103.390877 156.0
103.775749 56.0
104.366592 76.0
104.588333 216.0
104.912216 224.0
105.667847 176.0
105.766068 100.0
107.176933 100.0
107.633102 128.0
107.669952 108.0
108.999886 140.0
109.255615 120.0
110.168709 108.0
110.258553 228.0
110.907364 164.0
111.096458 68.0
111.354271 128.0
112.343567 204.0
112.751076 152.0
113.725319 164.0
115.053238 168.0
115.102699 140.0
115.43605 112.0
115.720627 236.0
116.074165 124.0
116.580765 148.0
116.774254 236.0
116.881813 140.0
117.08416 112.0
118.20887 160.0
118.418861 124.0
118.720215 156.0
119.852623 168.0
120.197136 72.0
121.43972 180.0
121.700867 144.0
122.182182 96.0
122.541039 244.0
123.242661 96.0
123.45929 128.0
124.341011 216.0
125.245918 168.0
127.404564 132.0
128.060394 180.0
129.070129 156.0
129.500107 72.0
130.080566 180.0
130.23497 128.0
130.439468 216.0
130.537231 156.0
131.026596 172.0
131.829742 108.0
131.912033 156.0
131.94632 172.0
132.092667 92.0
132.168167 176.0
133.080414 68.0
133.592911 192.0
134.604691 144.0
135.316833 156.0
136.040146 160.0
136.193405 208.0
136.642044 96.0
136.760727 76.0
137.126389 56.0
137.2173 184.0
137.480881 64.0
137.997101 124.0
139.168579 72.0
139.388306 200.0
139.591537 148.0
140.015121 144.0
140.059875 196.0
141.065079 140.0
141.542984 188.0
141.753799 132.0
142.035934 76.0
142.076324 144.0
142.389572 132.0
143.052963 156.0
143.088669 220.0
143.141052 220.0
143.353058 140.0
143.877777 168.0
143.915985 172.0
144.040161 188.0
145.109879 108.0
145.325729 112.0
147.068024 140.0
147.889526 172.0
148.49794 188.0
148.968826 220.0
149.000412 96.0
149.221573 136.0
150.293243 136.0
150.473846 120.0
151.049072 388.0
152.055237 328.0
153.069672 816.0
153.449875 160.0
154.079742 204.0
154.257141 136.0
154.746964 140.0
155.039124 140.0
155.059082 176.0
155.081284 140.0
155.237579 44.0
155.490616 108.0
155.711578 84.0
155.863113 112.0
156.059464 176.0
156.081848 64.0
157.09549 144.0
157.180313 144.0
157.413925 48.0
157.479889 140.0
158.102417 128.0
158.172485 40.0
158.520615 232.0
159.195404 124.0
160.161163 120.0
160.186356 224.0
160.473648 148.0
160.685501 96.0
160.86972 192.0
161.595032 164.0
161.673477 152.0
163.951431 96.0
164.157928 228.0
165.072205 884.0
165.699188 124.0
166.076416 400.0
166.253036 220.0
166.399353 124.0
166.445557 132.0
167.013519 168.0
167.083862 360.0
167.229645 196.0
167.350632 152.0
167.4897 56.0
167.729324 160.0
167.979446 220.0
168.095444 208.0
168.327866 32.0
168.454422 216.0
168.491943 40.0
168.583603 120.0
169.072144 188.0
169.743301 140.0
170.002701 212.0
170.081467 172.0
170.106522 136.0
171.078735 156.0
171.099564 180.0
171.698868 112.0
172.435089 68.0
172.644241 136.0
173.128372 144.0
173.146698 52.0
173.275055 216.0
174.077667 136.0
175.126999 164.0
175.519653 168.0
175.949722 136.0
176.065903 156.0
176.353867 52.0
177.069092 356.0
177.768082 128.0
178.077103 1784.0
178.301758 104.0
178.493271 48.0
178.703384 216.0
178.852417 184.0
179.086029 1240.0
180.022812 212.0
180.049118 236.0
180.092621 892.0
181.061829 388.0
181.098907 228.0
181.282776 56.0
181.499893 92.0
182.072632 152.0
182.108154 328.0
183.080734 456.0
183.373596 48.0
183.743027 192.0
184.084747 224.0
184.218155 116.0
185.102554 220.0
185.300278 180.0
185.397812 180.0
186.187256 104.0
187.046417 140.0
187.156967 224.0
187.264252 112.0
187.874832 216.0
188.314301 220.0
188.59845 152.0
188.866409 116.0
189.075256 288.0
189.161926 152.0
189.367279 112.0
189.972534 128.0
190.078506 536.0
190.105179 204.0
190.25296 200.0
190.607254 88.0
190.882141 44.0
190.948135 148.0
191.08519 2656.0
191.41597 48.0
191.528885 72.0
192.024994 160.0
192.091385 1492.0
192.176712 36.0
192.209824 36.0
192.668137 96.0
192.922394 84.0
193.008087 60.0
193.063446 204.0
193.097458 432.0
193.431381 44.0
193.658432 128.0
194.029739 68.0
194.071487 144.0
194.110489 164.0
194.137878 120.0
194.190567 104.0
194.39032 116.0
195.078476 760.0
195.120804 196.0
195.184753 168.0
195.610413 96.0
195.83316 56.0
196.049622 164.0
196.088837 160.0
196.123383 176.0
196.53009 60.0
197.054733 224.0
197.085083 364.0
198.064865 156.0
198.134064 152.0
198.524506 68.0
198.987473 124.0
199.074524 148.0
199.302048 184.0
200.078293 132.0
201.55336 168.0
202.078568 172.0
202.147171 112.0
202.872238 224.0
203.078873 192.0
203.817337 188.0
204.094116 196.0
205.032425 148.0
205.062225 740.0
205.099442 1880.0
205.223404 136.0
205.260468 88.0
205.297546 184.0
205.35173 36.0
205.417328 180.0
205.665573 196.0
205.688416 192.0
206.070999 736.0
206.108154 2864.0
206.288284 48.0
206.345459 112.0
206.379761 36.0
206.400864 92.0
206.548492 44.0
206.582809 52.0
206.634308 36.0
206.851807 184.0
206.937683 60.0
207.032181 92.0
207.079086 1636.0
207.114151 348.0
207.462952 116.0
208.050049 112.0
208.087448 316.0
208.222336 64.0
208.420547 144.0
208.446411 84.0
208.503876 44.0
208.667725 216.0
208.859436 80.0
209.061981 280.0
209.098541 352.0
209.222977 156.0
209.485031 60.0
209.516724 56.0
210.063431 148.0
210.10141 344.0
210.217346 220.0
210.301041 56.0
210.477142 188.0
210.786209 112.0
211.074707 208.0
211.107086 184.0
211.162033 116.0
211.471603 92.0
211.807465 232.0
212.082733 164.0
212.37558 104.0
212.627991 52.0
212.732483 120.0
212.758606 68.0
212.888382 224.0
213.909775 56.0
214.058289 192.0
214.673111 84.0
214.728531 84.0
214.915222 180.0
215.085052 316.0
216.091354 596.0
216.297531 92.0
216.394135 80.0
216.481979 180.0
217.099396 428.0
217.420059 64.0
217.725388 96.0
218.069275 152.0
218.104385 164.0
219.078308 2560.0
219.112244 364.0
219.370117 216.0
220.086517 2312.0
220.680908 44.0
221.09523 332.0
221.131226 1380.0
222.067093 492.0
222.087219 188.0
222.09581 152.0
222.130264 308.0
222.488129 112.0
222.589081 104.0
222.687088 84.0
222.710846 176.0
223.0466 176.0
223.075134 792.0
223.119965 124.0
223.326096 60.0
223.433182 36.0
224.078308 576.0
224.301743 168.0
225.057495 164.0
225.087799 200.0
225.113632 176.0
225.12085 172.0
225.185913 192.0
226.052872 160.0
226.130676 148.0
226.693695 112.0
227.068436 176.0
227.275421 188.0
227.362442 52.0
227.563553 36.0
228.486221 236.0
228.65773 44.0
229.061005 196.0
229.778671 160.0
230.370361 192.0
230.65744 112.0
230.72554 136.0
230.811615 60.0
231.074753 148.0
231.117569 688.0
231.220001 96.0
231.277512 56.0
231.601486 168.0
231.704483 192.0
231.740829 188.0
232.086777 144.0
232.11972 32.0
232.562637 92.0
232.857147 80.0
233.057632 40.0
233.095535 792.0
233.492325 52.0
233.86087 128.0
234.017914 172.0
234.068222 936.0
234.102264 1772.0
234.460449 136.0
234.847641 80.0
234.89035 88.0
235.075317 1804.0
235.104416 788.0
235.430557 52.0
235.965286 120.0
236.07811 492.0
237.008972 68.0
237.091156 992.0
237.138657 100.0
237.303207 72.0
237.806305 112.0
237.895309 80.0
237.959778 92.0
237.981277 152.0
238.05867 308.0
238.097198 324.0
238.814056 60.0
239.05896 232.0
239.070023 140.0
239.094254 212.0
239.457306 48.0
239.719177 164.0
240.045532 156.0
240.104355 160.0
241.08313 248.0
241.117126 52.0
243.082108 176.0
243.626923 44.0
244.086212 72.0
244.97702 96.0
245.093948 416.0
246.099762 156.0
246.440201 108.0
247.075165 560.0
247.84819 64.0
248.084244 920.0
248.864441 152.0
248.936661 212.0
249.012024 68.0
249.049713 132.0
249.086838 628.0
249.126419 4892.0
249.284546 176.0
249.307343 132.0
249.345047 96.0
249.659424 76.0
249.782089 72.0
249.807251 64.0
250.043228 136.0
250.068405 136.0
250.096558 208.0
250.129395 424.0
250.178574 44.0
250.26358 48.0
250.915756 80.0
250.940979 56.0
251.071304 2168.0
251.221664 248.0
251.815079 108.0
251.991974 132.0
252.07695 4092.0
252.112869 300.0
252.156281 60.0
252.542007 112.0
252.905869 112.0
253.080688 1232.0
253.472748 92.0
253.751663 48.0
253.84996 60.0
254.002197 116.0
254.089035 152.0
254.713211 88.0
254.894302 80.0
254.999176 96.0
255.073868 120.0
255.612946 56.0
255.803894 64.0
256.237 124.0
256.635406 76.0
257.755737 220.0
257.931519 60.0
258.06897 96.0
258.286438 40.0
259.109314 268.0
259.891449 132.0
260.112335 136.0
260.806671 60.0
261.086029 148.0
261.591522 168.0
262.039948 180.0
262.097778 2924.0
262.1745 156.0
262.374359 64.0
262.961426 196.0
262.987244 36.0
263.102844 600.0
263.991974 96.0
264.079285 104.0
264.312225 64.0
264.367218 60.0
264.46756 156.0
264.529053 64.0
265.08725 1352.0
265.397308 72.0
265.481598 80.0
266.036041 164.0
266.094788 2580.0
266.16629 48.0
266.220459 88.0
266.35141 36.0
266.520355 76.0
267.001434 68.0
267.09137 716.0
267.126343 272.0
267.352783 40.0
267.603424 208.0
268.094543 124.0
268.31366 40.0
268.541931 88.0
268.845337 132.0
269.18808 76.0
269.39386 68.0
271.026398 76.0
272.11203 88.0
276.102417 144.0
277.078857 176.0
277.121246 3980.0
277.725281 100.0
278.01059 52.0
278.127441 740.0
279.093536 188.0
279.12146 220.0
279.189911 84.0
280.108032 1988.0
280.278412 60.0
280.445038 52.0
280.801788 192.0
280.918549 60.0
281.115448 240.0
281.158783 68.0
282.32135 40.0
282.789703 96.0
286.887695 60.0
287.602814 100.0
287.980957 128.0
290.974396 124.0
295.129425 980.0
295.264435 48.0
295.68866 144.0
296.132324 400.0
296.829407 68.0
297.131439 144.0
297.56366 60.0
298.25415 180.0
327.241974 48.0
349.007385 80.0
355.31189 100.0
369.286377 88.0
388.457245 64.0
406.642975 92.0
420.799194 44.0
430.782837 120.0
454.977448 72.0
461.474548 20.0
485.925323 112.0
511.709351 112.0
531.261108 112.0
549.442566 108.0
574.398865 20.0
582.296326 108.0
644.478516 60.0
651.800232 96.0
703.497498 128.0
823.209839 76.0
842.179443 40.0
877.15564 60.0
964.387451 268.0
1072.634521 104.0
1083.148193 44.0
1126.383545 60.0
1137.499146 156.0
1147.900391 192.0
1149.161743 168.0
1149.235962 44.0
1179.78479 92.0
1208.533203 92.0
1229.469971 68.0
1258.55249 212.0
1279.717041 108.0
1287.010986 60.0
1320.158936 112.0
1326.697021 168.0
1342.168579 156.0
1387.14856 168.0
1395.894409 208.0
1414.149658 124.0
1426.270386 136.0
1439.280884 136.0
1445.963379 144.0
1485.194458 72.0
1487.580933 220.0
