>compound Cefditoren pivoxil
>formula C25H28N6O7S3
>ionization [M+H]+
>parentmass 621.126404
#inchi InChI=1S/C25H28N6O7S3/c1-12-15(41-10-27-12)7-6-13-8-39-21-17(29-19(32)16(30-36-5)14-9-40-24(26)28-14)20(33)31(21)18(13)22(34)37-11-38-23(35)25(2,3)4/h6-7,9-10,17,21H,8,11H2,1-5H3,(H2,26,28)(H,29,32)/b7-6-,30-16-/t17-,21+/m0/s1
#inchikey AFZFFLVORLEPPO
#Ion_Source LC-ESI
#Instrument qTof
#Compound_Source Commercial
#PI Dorrestein
#Data_Collector Garg_Neha
#Scan -1
#Precursor_MZ 621.125
#ExactMass 620.118
#Charge 1
#CAS_Number 117467-28-4
#Pubmed_ID N/A
#Smiles N12[C@](SCC(=C1C(=O)OCOC(C(C)(C)C)=O)\C=C/C3SC=NC=3C)([C@H](C2=O)NC(=O)/C(=N\OC)C4=CSC(=N4)N)[H]
#INCHI_AUX N/A
#Library_Class 1
#SpectrumID CCMSLIB00000078282
#IonMode Positive
#UpdateWorkflowName UPDATE-SINGLE-ANNOTATED-GOLD
#LibraryQualityString Gold
#TaskID 77f51c88eb8b467eb4a01dd2d0cb90d2
##Scan# 1319
#SpectrumFile Plate4_61_88_GH5_01_16506.mzXML
#LibraryName FDALibrary_2_04302014.mgf
#MQScore -1
#Organism FDALibrary_2_04302014
#TIC_Query 0
#RT_Query -1
#MZErrorPPM -1
#SharedPeaks 0
#MassDiff 0
#LibMZ -1
#SpecMZ 621.125
#SpecCharge 0
#internalFilename spec-00000.mgf

>collision 10
45.086342 140.0
46.096928 268.0
46.534431 184.0
47.200718 184.0
47.234909 164.0
47.504768 168.0
48.050926 164.0
48.269161 172.0
48.37199 148.0
48.546112 184.0
49.753052 152.0
49.944164 148.0
50.750542 228.0
51.586246 144.0
51.666332 140.0
51.829548 164.0
53.027103 176.0
53.595306 244.0
53.684223 204.0
54.182652 152.0
55.054897 140.0
55.504757 208.0
55.838886 228.0
55.937153 184.0
56.719818 148.0
56.913345 164.0
56.929863 160.0
57.840515 196.0
58.163376 180.0
58.292469 144.0
58.304626 156.0
58.376076 176.0
58.433876 152.0
59.086861 216.0
59.30584 312.0
59.543652 220.0
59.882008 168.0
60.289299 164.0
60.405258 248.0
60.888851 168.0
61.260597 156.0
61.2715 192.0
61.308895 180.0
61.55537 164.0
61.577236 228.0
61.721004 140.0
61.746025 204.0
61.946373 216.0
62.289909 168.0
62.921402 156.0
63.101509 156.0
64.399811 144.0
64.433357 144.0
64.522858 156.0
65.056335 184.0
65.241074 152.0
65.64521 208.0
66.055649 124.0
66.564346 144.0
66.60495 156.0
66.790245 192.0
67.511131 184.0
67.656754 160.0
67.741905 180.0
67.858261 144.0
68.231834 260.0
68.574982 152.0
69.633865 220.0
70.384918 144.0
70.45507 172.0
70.888275 140.0
71.494652 176.0
71.958191 140.0
72.809929 168.0
73.495949 176.0
73.769211 164.0
73.964218 164.0
75.111298 156.0
75.257019 148.0
75.37793 160.0
76.077652 208.0
76.693428 168.0
76.818977 160.0
76.993523 152.0
77.411476 220.0
78.398743 188.0
79.154808 208.0
79.202629 156.0
79.964333 164.0
80.156662 152.0
81.983902 140.0
82.815338 172.0
84.283707 140.0
84.684341 144.0
86.045113 144.0
86.42955 164.0
87.558212 188.0
87.996422 148.0
88.241173 140.0
88.308487 176.0
88.751732 168.0
89.095772 188.0
89.39473 172.0
89.705498 172.0
90.105576 168.0
90.145256 224.0
90.268127 140.0
90.483826 140.0
91.861626 200.0
91.922676 184.0
92.023842 160.0
92.486465 172.0
92.781464 176.0
93.028938 160.0
93.513329 144.0
93.663513 156.0
93.79261 168.0
94.222946 160.0
96.176506 220.0
96.929451 216.0
96.970604 140.0
97.787643 156.0
98.043671 152.0
98.861252 220.0
100.494621 160.0
100.962044 180.0
101.002045 184.0
101.042969 140.0
101.178085 128.0
101.41452 176.0
101.942337 164.0
102.347549 172.0
103.090988 140.0
103.181946 196.0
103.594788 224.0
103.892792 152.0
104.673256 164.0
105.240105 168.0
105.767548 168.0
105.831009 220.0
106.472847 144.0
106.587883 172.0
106.678314 188.0
106.758499 172.0
106.861351 140.0
107.452652 188.0
108.271202 240.0
109.838348 236.0
110.038689 164.0
110.186966 252.0
110.657547 156.0
110.917313 148.0
111.8731 156.0
111.969955 172.0
112.44854 168.0
112.727303 228.0
112.816071 172.0
113.059311 184.0
113.230797 208.0
113.642036 200.0
114.003014 188.0
114.051895 148.0
114.19648 160.0
114.662743 252.0
114.792786 180.0
115.542488 172.0
115.93647 148.0
116.281754 140.0
116.399826 152.0
118.418381 208.0
119.019249 156.0
119.11898 148.0
120.120308 204.0
120.144302 196.0
121.406364 160.0
121.658691 152.0
121.854149 196.0
122.135536 152.0
122.714706 180.0
123.027985 156.0
123.045647 156.0
123.461052 208.0
123.775284 168.0
123.999176 124.0
124.08152 168.0
124.116524 224.0
124.214104 140.0
124.260689 168.0
124.282875 140.0
124.66703 168.0
124.97834 164.0
125.004478 1108.0
125.544136 188.0
125.831528 220.0
126.010521 2472.0
126.290077 156.0
127.017128 1148.0
127.258171 148.0
127.386177 216.0
127.881607 192.0
127.977188 172.0
128.008636 220.0
128.658539 220.0
128.748856 140.0
129.008804 168.0
129.896378 172.0
130.911026 224.0
131.276932 156.0
132.917068 200.0
132.995102 184.0
133.55574 200.0
133.884857 148.0
134.066681 108.0
134.433517 168.0
134.925491 160.0
135.133652 160.0
135.733551 172.0
136.017288 172.0
137.025864 140.0
137.181992 212.0
137.842499 204.0
137.926636 156.0
138.011002 184.0
138.035507 240.0
138.350037 212.0
138.994858 208.0
139.016205 296.0
139.278641 144.0
139.572403 144.0
139.802933 196.0
140.026672 320.0
140.606552 140.0
140.999191 792.0
141.973969 148.0
141.999084 200.0
142.028519 160.0
142.071213 180.0
142.974121 144.0
142.998917 184.0
143.024597 212.0
143.090759 160.0
143.145523 152.0
143.817825 180.0
143.968231 248.0
144.023163 160.0
144.06694 160.0
144.745407 204.0
144.951416 140.0
145.072922 644.0
145.440659 176.0
146.019699 148.0
146.063828 204.0
146.085144 284.0
146.689072 196.0
147.000198 212.0
147.531555 164.0
147.621017 292.0
147.957336 148.0
148.019455 288.0
148.066299 204.0
150.035812 604.0
150.307648 208.0
150.327179 156.0
150.739868 156.0
150.979431 140.0
151.040573 176.0
151.628204 228.0
151.728699 148.0
151.858658 188.0
151.893005 144.0
152.011917 196.0
152.052475 164.0
152.089294 180.0
153.018829 184.0
153.363403 160.0
154.002441 220.0
154.96225 172.0
154.979599 148.0
155.020004 156.0
155.689041 212.0
155.974762 152.0
156.021423 2408.0
157.028915 296.0
158.078079 248.0
159.411285 164.0
159.612396 196.0
159.680283 144.0
159.944473 196.0
160.241638 180.0
160.501236 168.0
161.020081 212.0
161.099396 316.0
161.195404 176.0
161.865723 188.0
162.035477 1832.0
162.254272 184.0
162.580597 200.0
163.039581 452.0
163.622742 160.0
163.696579 192.0
163.806091 192.0
164.048386 152.0
164.2789 152.0
164.466522 184.0
165.021774 256.0
165.952332 204.0
166.02948 3732.0
166.196487 168.0
166.682678 140.0
167.034973 680.0
167.06488 152.0
167.188385 144.0
168.022018 204.0
170.040817 164.0
170.246658 160.0
170.535049 220.0
170.987595 140.0
171.044846 140.0
171.372986 184.0
171.500671 144.0
171.683182 152.0
171.784897 140.0
172.014526 140.0
172.845627 164.0
173.077393 176.0
173.324814 140.0
174.034821 336.0
174.072388 148.0
174.50856 192.0
174.992676 212.0
175.036987 184.0
176.040588 276.0
176.713516 172.0
177.04747 944.0
177.116974 128.0
177.844788 192.0
177.999039 176.0
178.048691 172.0
178.408203 172.0
179.001892 304.0
179.039993 160.0
179.060852 216.0
179.171982 196.0
180.006729 112.0
180.439667 188.0
180.886429 248.0
180.993515 148.0
181.016968 940.0
181.886261 148.0
182.026581 1632.0
182.52298 152.0
182.773132 172.0
182.843094 168.0
182.977692 140.0
183.031174 640.0
183.104248 160.0
184.018967 396.0
184.886063 236.0
185.021088 140.0
185.043243 116.0
185.362671 156.0
185.710663 264.0
185.981003 160.0
186.478043 196.0
187.024094 168.0
187.686737 232.0
187.861282 232.0
188.014954 208.0
188.899338 164.0
189.018982 296.0
189.046295 472.0
190.031952 156.0
190.053848 284.0
190.365646 168.0
190.996948 200.0
191.019028 300.0
191.308716 156.0
191.988174 216.0
192.036896 196.0
192.969528 140.0
193.017853 200.0
193.409378 232.0
193.578262 148.0
193.957825 144.0
194.006195 160.0
194.943085 144.0
194.965317 188.0
195.014526 168.0
195.134872 152.0
195.791565 140.0
196.034973 416.0
196.616776 228.0
196.996506 140.0
197.047928 7124.0
197.591965 244.0
197.977921 304.0
198.048767 1092.0
198.66391 272.0
198.796814 168.0
198.845856 176.0
198.993881 172.0
199.038544 168.0
199.995316 156.0
200.774475 156.0
200.994888 204.0
201.045166 912.0
201.807983 208.0
201.997452 140.0
202.02298 332.0
202.0513 220.0
202.126816 160.0
202.461639 184.0
203.027328 124.0
203.24968 156.0
203.306442 168.0
203.655655 172.0
203.996628 164.0
204.05632 188.0
204.454559 160.0
204.574097 216.0
205.004181 136.0
205.038315 760.0
205.346283 156.0
205.617325 204.0
205.994217 172.0
206.022095 164.0
206.505859 244.0
206.725464 168.0
206.992371 252.0
207.01622 316.0
207.053543 208.0
207.218643 168.0
207.803528 180.0
207.837952 172.0
207.988373 14968.0
208.058945 140.0
208.10202 232.0
209.009827 3880.0
209.064957 160.0
209.204926 140.0
209.491089 212.0
209.677444 148.0
209.729477 208.0
209.883057 140.0
209.91188 252.0
209.98317 1064.0
210.018951 6944.0
210.065765 272.0
210.990982 464.0
211.019714 852.0
211.069321 292.0
211.50087 176.0
211.529816 192.0
211.992767 252.0
212.014496 796.0
212.995636 180.0
213.043991 1248.0
213.927582 164.0
213.994019 132.0
214.043808 368.0
214.993561 176.0
215.027893 448.0
216.000137 196.0
216.035324 240.0
216.056534 284.0
216.455994 212.0
217.008591 308.0
217.04126 924.0
217.937256 172.0
217.992798 360.0
218.043045 356.0
218.069504 224.0
219.120026 236.0
219.332199 256.0
219.715546 280.0
219.886688 176.0
219.990036 388.0
220.580795 276.0
220.6754 144.0
221.020767 508.0
222.004105 292.0
222.197723 188.0
223.050232 636.0
223.638947 188.0
224.01506 712.0
224.041336 260.0
224.994217 188.0
225.039795 712.0
225.46904 240.0
225.742218 160.0
225.996796 1072.0
226.047699 168.0
226.930954 152.0
227.003738 1692.0
227.04184 184.0
227.627075 152.0
228.00856 400.0
228.062698 496.0
228.264114 160.0
229.000717 380.0
229.044983 164.0
229.993408 168.0
230.037796 180.0
230.168503 168.0
231.015854 336.0
231.049377 296.0
231.720139 168.0
232.043884 112.0
233.016281 516.0
233.039322 556.0
233.200989 148.0
233.644943 164.0
234.00267 192.0
234.616425 148.0
234.979095 140.0
235.002808 512.0
235.034164 736.0
235.226547 188.0
236.032028 204.0
236.238022 168.0
236.99382 156.0
237.012726 228.0
237.119858 196.0
237.227127 164.0
238.009476 148.0
240.021851 192.0
240.077438 128.0
240.62851 260.0
240.946243 192.0
241.038391 35084.0
241.247543 228.0
241.9879 196.0
242.041077 4088.0
242.674774 236.0
242.741745 120.0
243.033585 2668.0
243.771439 128.0
243.882355 144.0
244.049149 612.0
245.005356 252.0
245.035187 344.0
245.88501 148.0
246.052826 152.0
246.074478 380.0
246.1129 140.0
246.984802 156.0
247.016083 256.0
248.029892 172.0
249.015869 6024.0
249.219879 176.0
250.024551 972.0
250.475266 156.0
251.010468 724.0
251.946503 120.0
252.023102 196.0
252.983887 288.0
253.992783 580.0
254.104431 152.0
254.995422 184.0
255.985474 160.0
257.015259 988.0
258.020813 684.0
258.997437 368.0
259.019623 168.0
260.040649 176.0
260.759247 152.0
261.014771 800.0
262.013489 144.0
262.55249 196.0
262.993622 2912.0
263.997498 576.0
264.990692 428.0
266.021027 160.0
266.439972 244.0
267.023529 1716.0
268.023895 360.0
268.061951 196.0
268.73526 168.0
269.016022 128.0
269.224884 168.0
270.015747 176.0
271.042877 284.0
271.991455 212.0
272.99353 168.0
274.005005 120.0
274.052002 176.0
274.125916 172.0
274.950348 144.0
275.005005 180.0
275.041107 132.0
275.363037 192.0
276.024963 852.0
277.013458 264.0
278.030243 312.0
279.038391 172.0
280.029541 140.0
281.026276 156.0
281.998047 160.0
282.349091 172.0
284.014679 148.0
284.412964 148.0
284.906586 168.0
285.011078 2312.0
285.381714 96.0
285.656219 172.0
286.013519 560.0
287.01181 372.0
287.094421 348.0
287.958374 144.0
288.019165 188.0
290.05954 176.0
290.988922 292.0
291.964294 168.0
291.992828 204.0
292.053131 356.0
292.900269 228.0
292.968384 172.0
293.016083 180.0
293.042633 136.0
293.072235 144.0
294.078613 476.0
294.783539 164.0
295.056976 140.0
295.768494 148.0
296.073029 288.0
296.833984 172.0
299.042938 144.0
299.153839 132.0
301.049408 164.0
302.110504 156.0
303.031403 152.0
304.019958 844.0
304.252197 212.0
305.023804 528.0
306.028229 224.0
306.545197 160.0
307.032349 288.0
307.088348 268.0
309.026917 184.0
309.117889 164.0
310.480621 164.0
311.027954 172.0
311.062805 164.0
311.688202 156.0
312.021393 304.0
312.074829 164.0
312.201874 128.0
313.084747 192.0
314.0383 220.0
314.274048 112.0
315.012451 96.0
315.038788 188.0
316.028687 152.0
316.059021 148.0
316.587982 156.0
318.084167 140.0
319.000641 144.0
320.060852 188.0
320.117828 192.0
321.012238 168.0
321.10141 192.0
322.032928 172.0
322.1008 144.0
324.028992 144.0
325.035034 216.0
325.091675 968.0
326.029663 156.0
326.394287 220.0
327.040375 148.0
327.675598 244.0
328.030609 104.0
330.054138 148.0
331.302795 140.0
333.018524 140.0
335.022797 172.0
337.07486 148.0
337.116608 384.0
337.628906 140.0
338.055481 132.0
338.115021 156.0
339.052277 96.0
339.991699 164.0
340.050598 172.0
341.070557 148.0
342.040894 160.0
342.083221 332.0
343.017761 164.0
343.10556 116.0
344.004089 96.0
344.057404 316.0
345.030792 164.0
346.017761 164.0
347.000366 164.0
347.360107 144.0
348.908661 160.0
349.140198 192.0
349.972717 144.0
350.023163 716.0
350.932007 164.0
351.028351 264.0
351.085724 792.0
352.017273 100.0
352.081909 304.0
352.153168 164.0
353.023987 244.0
353.07486 148.0
353.996307 284.0
354.057587 184.0
354.095367 160.0
355.046204 140.0
355.103546 200.0
355.133545 144.0
356.038025 152.0
357.015503 200.0
358.022736 188.0
358.095245 164.0
359.006805 128.0
360.04245 500.0
361.034302 152.0
362.197144 172.0
364.093536 152.0
366.086243 148.0
366.355347 104.0
366.871124 160.0
367.321106 200.0
367.991455 172.0
368.053864 144.0
368.986115 160.0
369.056671 500.0
369.269104 140.0
370.007599 180.0
370.062531 304.0
370.551453 152.0
371.032257 212.0
371.070282 168.0
372.07019 240.0
372.99939 212.0
373.042419 188.0
373.745911 168.0
374.001556 112.0
374.040771 104.0
374.97821 140.0
375.048248 140.0
377.023621 180.0
377.089325 152.0
377.124115 180.0
380.044037 296.0
380.307922 160.0
380.622375 156.0
381.093109 2612.0
381.177826 248.0
382.04248 228.0
382.101318 656.0
383.08606 260.0
384.05484 248.0
384.08728 120.0
385.019958 112.0
385.08197 152.0
386.014099 344.0
387.021088 132.0
388.023743 264.0
388.09848 220.0
389.032288 256.0
390.079895 196.0
391.036865 260.0
392.024658 228.0
393.113739 172.0
395.016418 132.0
396.273071 152.0
398.995636 188.0
399.055298 252.0
399.277954 212.0
400.056213 148.0
401.088806 152.0
402.028381 252.0
402.074677 436.0
403.041077 164.0
403.08902 156.0
405.029358 180.0
405.834869 152.0
406.119598 144.0
410.023529 148.0
413.018707 100.0
414.01413 564.0
415.018097 496.0
416.0177 120.0
417.036163 132.0
417.826416 140.0
418.042053 196.0
418.074615 148.0
418.567169 180.0
419.239288 176.0
421.038391 212.0
421.786072 144.0
423.508698 160.0
426.355988 204.0
427.067078 264.0
428.085449 180.0
429.037567 204.0
429.105652 164.0
430.040466 308.0
431.33075 152.0
432.026123 292.0
433.064636 156.0
433.648621 144.0
434.028961 156.0
434.062714 112.0
435.058014 140.0
436.08078 172.0
436.937378 148.0
440.840118 140.0
442.090485 152.0
443.031494 204.0
444.040375 228.0
444.147583 188.0
445.054108 440.0
445.784943 188.0
448.0177 852.0
448.335144 148.0
449.025238 460.0
450.011536 576.0
450.571472 200.0
451.839752 168.0
452.021698 152.0
453.499695 140.0
455.059387 168.0
456.073303 196.0
456.411926 152.0
460.021271 156.0
461.051483 1248.0
461.490112 172.0
462.04599 296.0
463.039185 244.0
464.037628 140.0
464.096222 208.0
464.89978 144.0
465.082184 184.0
465.122955 172.0
468.429657 160.0
468.692474 268.0
470.823456 192.0
472.106964 140.0
472.241028 176.0
472.729889 164.0
474.022278 152.0
476.315399 160.0
478.768402 172.0
479.060394 104.0
482.27179 160.0
484.932892 140.0
487.104858 144.0
487.931 160.0
488.964722 160.0
489.048767 2024.0
489.139893 140.0
490.04068 508.0
491.050323 568.0
493.185577 212.0
494.955139 140.0
496.040588 164.0
503.957825 160.0
504.936798 156.0
506.382385 148.0
506.857239 152.0
507.055054 6020.0
507.334412 128.0
507.856964 188.0
508.056885 1680.0
508.844208 200.0
509.056915 1156.0
510.060455 440.0
510.760681 112.0
511.01947 156.0
511.050995 204.0
513.745117 164.0
515.505981 164.0
516.079468 144.0
517.663757 144.0
519.041321 196.0
519.966736 148.0
529.147217 156.0
529.403687 216.0
531.443481 140.0
532.503845 164.0
534.650879 236.0
536.673096 196.0
538.398865 152.0
539.174988 232.0
544.099487 112.0
546.093628 1308.0
547.091736 420.0
547.130432 196.0
547.707397 172.0
548.0849 156.0
548.135864 244.0
549.819458 168.0
550.209351 164.0
553.725647 176.0
557.133301 172.0
558.143738 224.0
559.597656 184.0
563.117371 128.0
563.332764 156.0
563.498108 164.0
563.819397 180.0
564.145874 120.0
564.542725 156.0
568.830505 160.0
569.542786 184.0
569.99884 164.0
571.648865 144.0
571.734558 208.0
571.839233 156.0
572.982056 156.0
573.692139 200.0
574.078186 116.0
575.094543 176.0
578.703735 164.0
581.025513 100.0
582.098572 164.0
586.269226 140.0
586.876587 220.0
588.13092 160.0
588.599182 204.0
589.444519 152.0
590.179199 148.0
591.115112 7424.0
591.216125 152.0
591.382446 104.0
591.61969 216.0
592.112732 2192.0
593.0354 144.0
593.117615 2092.0
593.298645 152.0
593.398926 168.0
594.115723 452.0
595.096985 264.0
595.128113 260.0
596.10144 128.0
597.130554 112.0
598.227966 148.0
598.315552 164.0
599.991455 176.0
600.776611 164.0
601.967529 196.0
602.924988 176.0
603.100952 152.0
603.677856 240.0
606.282776 160.0
606.718384 192.0
607.495239 148.0
608.511902 152.0
610.162903 172.0
610.661438 164.0
610.82373 168.0
614.78009 140.0
617.103638 108.0
617.772888 120.0
618.071106 172.0
618.518677 128.0
618.624023 176.0
618.662415 180.0
618.713623 148.0
618.811951 372.0
618.923828 128.0
618.973877 112.0
619.16687 176.0
619.224487 204.0
619.55603 116.0
619.769409 108.0
619.862183 100.0
619.908081 104.0
619.994568 204.0
620.053955 188.0
620.144287 172.0
620.20105 228.0
620.36731 164.0
620.402832 216.0
620.580688 160.0
620.660889 128.0
620.752014 212.0
620.802734 196.0
620.852051 156.0
620.961304 416.0
621.023193 308.0
621.126404 85872.0
621.285706 276.0
621.323853 196.0
621.42511 216.0
621.544312 124.0
621.6073 152.0
621.661255 236.0
621.723633 240.0
621.836365 148.0
621.938843 216.0
621.991638 172.0
622.127869 23768.0
622.2854 140.0
622.376343 192.0
622.707214 148.0
622.759399 272.0
622.861816 144.0
623.123108 13936.0
623.295654 236.0
623.417725 124.0
623.826904 116.0
623.92572 176.0
624.126221 3028.0
624.354614 164.0
624.40094 168.0
624.903259 132.0
624.944336 168.0
625.125061 812.0
625.245789 152.0
625.310974 156.0
625.330566 120.0
625.494507 96.0
625.561462 292.0
625.622986 224.0
625.717285 188.0
625.803589 112.0
626.126099 364.0
626.334778 148.0
626.453735 112.0
626.858459 116.0
627.047852 188.0
627.331299 120.0
627.530457 108.0
627.835266 132.0
627.94342 96.0
631.143005 152.0
654.989624 144.0
661.144836 96.0
826.342529 176.0
854.585632 184.0
1100.835083 188.0
1143.476318 140.0
1177.21106 192.0
1199.192017 176.0
1227.428345 156.0
1313.993164 220.0
1469.378174 188.0
1488.758789 156.0
1544.164795 180.0
1561.01001 200.0
1582.274048 144.0
1599.579956 212.0
1618.581055 244.0
1705.704224 164.0
1719.591064 172.0
1727.986694 168.0
1729.203125 152.0
1739.381348 168.0
1748.831909 220.0
1752.054443 176.0
1767.943848 200.0
1784.36731 156.0
1799.262329 148.0
1829.391357 200.0
1838.59668 168.0
1852.542114 140.0
1890.927856 184.0
1891.97522 184.0
1894.43457 220.0
1926.82312 176.0
1928.028931 140.0
1935.315552 196.0
1963.461426 188.0
1965.499268 156.0
1973.607666 164.0
1975.049194 152.0
1992.254761 140.0
1992.521362 196.0
1992.672363 144.0
1998.905273 212.0
2000.907837 148.0
