>compound NCGC00160212-01!THALICSINE
>formula C21H19NO5
>ionization [M+H]+
>parentmass 366.133911
#inchi InChI=1S/C21H19NO5/c1-22(2)7-6-12-13-5-4-11-8-16-20(26-10-25-16)19-17(11)18(13)15(27-21(19)23)9-14(12)24-3/h4-5,8-9H,6-7,10H2,1-3H3
#inchikey ZAVZMGKHLUNLAR
#Ion_Source LC-ESI
#Instrument qTOF
#Compound_Source Prestwick Phytochem Lib
#PI Dorrestein
#Data_Collector VVP/LMS
#Scan -1
#Precursor_MZ 366.134
#ExactMass 365.126
#Charge 1
#CAS_Number N/A
#Pubmed_ID N/A
#Smiles COC1=C(CCN(C)C)C2=C3C(OC(=O)C4=C5OCOC5=CC(C=C2)=C34)=C1
#INCHI_AUX N/A
#Library_Class 1
#SpectrumID CCMSLIB00000078762
#IonMode Positive
#UpdateWorkflowName UPDATE-SINGLE-ANNOTATED-GOLD
#LibraryQualityString Gold
#TaskID 67c915c6594c435cadc1fe2b5358144d
##Scan# 1617
#SpectrumFile p1-E03_GE3_01_17923.mzXML
#LibraryName phytochem_lib.mgf
#MQScore -1
#Organism phytochem_lib
#TIC_Query 0
#RT_Query -1
#MZErrorPPM -1
#SharedPeaks 0
#MassDiff 0
#LibMZ -1
#SpecMZ 366.134
#SpecCharge 0
#internalFilename spec-00000.mgf

>collision 10
94.964035 204.0
95.239647 152.0
95.692741 188.0
95.710266 128.0
95.844666 240.0
96.004509 144.0
96.217186 148.0
96.297249 152.0
96.314827 96.0
96.73719 172.0
96.997711 136.0
97.062408 140.0
97.10276 216.0
97.272331 176.0
97.35479 192.0
97.435326 212.0
97.519821 140.0
97.850288 148.0
97.988152 168.0
98.035439 192.0
98.354942 236.0
98.489212 144.0
98.63147 132.0
98.692757 140.0
98.738235 144.0
98.81736 244.0
99.330444 296.0
99.820633 196.0
99.988098 220.0
100.109535 184.0
100.131447 140.0
100.462318 160.0
101.063713 168.0
101.17775 120.0
101.257843 112.0
101.295898 152.0
101.380043 116.0
101.513771 192.0
101.534409 224.0
101.578537 68.0
101.708961 104.0
101.933891 160.0
102.126884 132.0
102.140968 124.0
102.165108 112.0
102.464203 196.0
102.537605 136.0
102.711006 180.0
103.007477 128.0
103.286674 128.0
103.302856 192.0
103.497139 128.0
103.628792 100.0
103.689583 116.0
103.740257 160.0
103.803108 172.0
103.965393 156.0
104.099373 104.0
104.215149 116.0
104.355392 164.0
104.644295 248.0
104.713531 208.0
104.758339 168.0
105.37648 100.0
105.464355 156.0
105.685211 160.0
105.715904 104.0
105.781395 60.0
105.988243 244.0
106.211929 184.0
106.332756 204.0
106.511383 144.0
106.537628 108.0
106.657272 204.0
106.815598 84.0
107.114067 148.0
107.264091 208.0
107.363457 148.0
107.443893 160.0
107.559456 104.0
107.892036 92.0
107.974747 164.0
107.999565 184.0
108.156815 144.0
108.504829 160.0
108.676971 140.0
108.888702 116.0
109.044525 196.0
109.250374 364.0
109.305305 220.0
109.443924 164.0
109.648071 176.0
109.668915 140.0
109.729362 88.0
109.796089 208.0
109.971336 40.0
110.011002 88.0
110.194778 32.0
110.240746 128.0
110.274185 176.0
110.472824 156.0
110.598373 156.0
110.667458 204.0
110.811966 160.0
111.092888 172.0
111.237679 148.0
111.880943 200.0
111.897781 76.0
111.963058 156.0
112.205376 120.0
112.253868 228.0
112.494385 152.0
112.678688 132.0
112.781662 196.0
112.804909 148.0
112.897942 52.0
113.444199 104.0
113.588394 116.0
113.702965 160.0
113.806976 244.0
114.083168 176.0
114.166084 156.0
114.291588 196.0
114.332016 144.0
114.530022 140.0
114.547058 236.0
114.971344 184.0
115.033241 76.0
115.056725 184.0
115.204079 120.0
115.404968 52.0
115.58036 204.0
115.646698 168.0
115.700211 220.0
115.730186 164.0
115.862968 184.0
115.948677 176.0
116.06015 136.0
116.30471 128.0
116.397018 132.0
116.480782 160.0
116.547379 128.0
116.652687 120.0
116.689232 176.0
116.734383 132.0
117.104538 236.0
117.272591 64.0
117.401947 196.0
117.427826 124.0
117.747238 92.0
117.768837 228.0
117.81852 128.0
118.242325 220.0
118.339729 144.0
118.560677 144.0
118.621361 176.0
118.827202 220.0
119.244301 116.0
119.294289 80.0
119.379082 132.0
119.529175 180.0
119.716385 92.0
119.803505 112.0
119.849258 164.0
119.921165 196.0
120.580284 88.0
120.628372 184.0
120.844872 152.0
120.938972 124.0
121.028725 84.0
121.278465 128.0
121.549744 268.0
121.666725 160.0
121.719421 180.0
121.807266 156.0
121.965469 116.0
122.051208 108.0
122.11718 176.0
122.152374 232.0
122.253578 124.0
122.471535 228.0
122.566269 108.0
122.658829 236.0
122.766861 152.0
122.986229 168.0
123.320992 128.0
123.349731 136.0
123.427109 56.0
123.482391 176.0
123.756783 160.0
123.925117 232.0
124.022621 128.0
124.435226 172.0
125.160049 48.0
125.36721 136.0
125.431839 128.0
125.460823 148.0
125.579002 88.0
126.526443 44.0
126.584656 56.0
126.630936 180.0
126.67424 216.0
126.779549 76.0
126.961128 168.0
126.990288 168.0
127.095718 248.0
127.124893 192.0
127.205437 176.0
127.286514 192.0
127.389824 176.0
127.452728 168.0
127.567345 60.0
127.720253 108.0
127.758492 120.0
127.785492 52.0
127.80574 164.0
127.943024 196.0
128.533524 144.0
128.565125 176.0
128.673462 164.0
128.784119 268.0
128.824768 176.0
128.84285 112.0
129.14122 156.0
129.175156 76.0
129.224915 208.0
129.283752 328.0
129.496567 196.0
129.644592 140.0
129.705017 140.0
129.904556 188.0
129.977158 144.0
130.092896 192.0
130.133759 228.0
130.156464 132.0
130.517746 136.0
130.551865 128.0
130.674683 136.0
130.724747 116.0
130.774811 32.0
131.04808 180.0
131.084534 180.0
131.321625 180.0
131.419708 144.0
131.627533 208.0
131.727905 148.0
131.874146 196.0
131.929001 176.0
131.949585 56.0
132.075348 188.0
132.5905 156.0
132.739502 156.0
132.87941 32.0
133.230667 156.0
133.386932 156.0
133.872375 60.0
134.040527 68.0
134.063583 76.0
134.135025 144.0
134.151154 136.0
134.289505 180.0
134.307968 152.0
134.4487 184.0
134.506393 60.0
134.723465 44.0
134.875977 228.0
134.906021 192.0
134.986938 64.0
135.093338 156.0
135.17662 160.0
135.278458 244.0
135.329391 52.0
135.540161 172.0
135.563339 120.0
135.725601 224.0
135.776611 240.0
135.797485 120.0
135.911148 196.0
135.983093 220.0
136.154892 144.0
136.454636 148.0
136.482544 80.0
136.577881 204.0
136.666595 152.0
136.782654 140.0
137.071442 124.0
137.146011 88.0
137.232269 104.0
137.309219 104.0
137.463181 156.0
137.542526 124.0
137.628906 172.0
137.771851 156.0
137.916245 192.0
138.035477 196.0
138.084595 100.0
138.131363 168.0
138.638168 180.0
138.791794 128.0
138.902023 144.0
138.941895 220.0
139.049835 152.0
139.18364 140.0
139.254089 152.0
139.39505 148.0
139.693634 232.0
139.717163 148.0
139.783035 156.0
139.853638 44.0
140.059402 336.0
140.16214 76.0
140.239914 160.0
140.426163 184.0
140.456833 140.0
140.496933 156.0
140.92897 128.0
141.061325 160.0
141.162979 132.0
141.285965 144.0
141.326187 64.0
141.345123 128.0
141.859055 220.0
141.892242 140.0
141.968109 100.0
141.994202 76.0
142.034729 192.0
142.22197 180.0
142.335678 136.0
142.616257 44.0
142.632889 124.0
142.675674 252.0
142.815979 56.0
142.86116 208.0
143.261093 196.0
143.306366 148.0
143.394531 100.0
143.47081 232.0
143.58287 88.0
143.639664 108.0
143.876358 160.0
144.072189 188.0
144.092865 152.0
144.165359 236.0
144.28009 176.0
144.382904 112.0
144.449875 192.0
144.502502 132.0
144.79454 148.0
145.022141 168.0
145.103653 104.0
145.355484 96.0
145.775711 92.0
145.869446 108.0
145.965607 180.0
145.984848 164.0
146.18692 196.0
146.34819 152.0
146.403564 128.0
146.456329 212.0
146.50827 220.0
146.579422 176.0
146.666183 208.0
146.933838 124.0
146.960388 52.0
146.979691 176.0
147.097946 164.0
147.131592 136.0
147.349091 48.0
147.66333 180.0
147.806061 72.0
148.009384 112.0
148.207993 212.0
148.22496 140.0
148.490601 208.0
148.595932 236.0
148.969788 116.0
148.989212 120.0
149.098557 56.0
149.178772 184.0
149.268723 176.0
149.475479 104.0
149.565536 152.0
149.721344 140.0
149.772491 220.0
150.037399 164.0
150.067368 64.0
150.123444 188.0
150.174652 140.0
150.247833 168.0
150.435745 216.0
150.51387 184.0
150.697052 28.0
150.855911 156.0
150.880356 48.0
150.9048 180.0
150.926804 164.0
151.05397 232.0
151.340302 232.0
151.452957 52.0
151.519104 108.0
151.702896 100.0
151.727402 40.0
151.837753 172.0
152.066605 584.0
152.326187 180.0
152.680099 52.0
152.712082 256.0
152.860947 188.0
152.90152 76.0
152.945816 128.0
153.022217 124.0
153.073837 148.0
153.157578 136.0
153.224091 156.0
153.263504 424.0
153.364548 168.0
153.560776 156.0
153.729538 148.0
153.96167 140.0
154.06781 84.0
154.263031 176.0
154.302582 172.0
154.329773 144.0
154.406433 216.0
154.495483 144.0
154.695923 124.0
154.958435 168.0
155.047638 172.0
155.069275 180.0
155.15918 140.0
155.183975 124.0
155.329117 128.0
155.754745 184.0
156.050461 148.0
156.234497 184.0
156.334015 212.0
156.44104 276.0
156.590439 128.0
156.876984 76.0
156.914383 220.0
157.088943 196.0
157.261108 312.0
157.27858 232.0
157.393417 172.0
157.513306 172.0
157.535782 92.0
158.017639 172.0
158.118362 92.0
158.225998 144.0
158.271057 152.0
158.479492 184.0
158.546616 212.0
158.789795 196.0
158.998016 160.0
159.068298 176.0
159.153656 140.0
159.429962 140.0
159.681366 112.0
159.8172 100.0
160.121796 96.0
160.38887 184.0
160.545181 124.0
160.64859 72.0
160.72702 204.0
161.070145 136.0
161.105499 236.0
161.214157 140.0
161.23436 184.0
161.633911 156.0
162.236694 172.0
162.543579 140.0
162.647629 68.0
162.706009 140.0
162.802917 148.0
162.95491 132.0
163.0746 176.0
163.244659 68.0
163.473602 192.0
163.575409 92.0
163.733276 64.0
163.868271 168.0
163.960007 108.0
164.062439 336.0
164.235352 124.0
164.299133 256.0
164.316986 164.0
164.551788 56.0
164.602844 132.0
164.832748 144.0
164.888962 152.0
165.068832 672.0
165.287888 108.0
165.538742 104.0
165.653992 108.0
165.720612 168.0
165.828232 136.0
165.85643 148.0
165.882065 244.0
166.055588 160.0
166.077682 1124.0
166.161591 156.0
166.241119 164.0
166.500412 176.0
166.61351 116.0
166.837265 192.0
167.075775 188.0
167.158493 220.0
167.343826 160.0
167.498337 128.0
167.833359 216.0
167.89267 116.0
168.056198 524.0
168.124847 116.0
168.23584 48.0
168.269394 228.0
168.53801 172.0
168.615524 112.0
168.868896 140.0
168.899933 152.0
169.061035 428.0
169.62236 200.0
169.733841 156.0
169.780518 144.0
169.912796 180.0
170.042542 136.0
170.125595 176.0
170.143768 40.0
170.250229 224.0
170.369705 60.0
170.517807 216.0
170.538605 196.0
170.574997 160.0
170.707581 152.0
170.827225 216.0
171.277542 128.0
171.360916 248.0
171.397385 144.0
171.558975 60.0
171.668472 224.0
171.884979 140.0
171.921524 228.0
172.112076 144.0
172.153854 212.0
172.647751 136.0
172.700058 192.0
172.723602 208.0
172.83609 144.0
173.05072 48.0
173.171173 104.0
173.450256 192.0
173.729492 144.0
173.905304 196.0
173.968292 160.0
174.068054 88.0
174.362289 120.0
174.39119 164.0
174.446396 180.0
174.556808 152.0
174.601517 180.0
174.627823 152.0
174.904083 56.0
175.056778 228.0
175.106827 72.0
175.167404 172.0
175.209549 152.0
175.259613 56.0
175.301773 48.0
175.739471 132.0
175.813354 160.0
176.062393 268.0
176.151306 160.0
176.375916 48.0
176.46843 120.0
176.584793 40.0
176.64827 72.0
176.693237 104.0
176.801727 140.0
176.828186 184.0
176.852005 192.0
176.891708 164.0
177.010849 296.0
177.064438 788.0
177.155029 200.0
177.267792 252.0
177.408401 76.0
177.437424 144.0
177.481842 192.0
177.63797 132.0
177.771637 140.0
177.830017 120.0
177.912308 168.0
177.960083 140.0
178.077408 1068.0
178.191147 44.0
178.216782 192.0
178.387802 164.0
178.498611 84.0
178.648407 188.0
178.768143 128.0
178.837341 64.0
178.877258 136.0
179.026352 148.0
179.051743 184.0
179.085403 3380.0
179.162201 212.0
179.311417 128.0
179.388702 64.0
179.423355 252.0
179.476685 108.0
179.495346 100.0
179.535355 184.0
179.682053 76.0
179.781754 120.0
179.892868 84.0
180.058487 288.0
180.090729 484.0
180.150314 128.0
180.258774 136.0
180.310043 128.0
180.938141 48.0
181.002396 128.0
181.069565 144.0
181.230072 68.0
181.262222 172.0
181.455887 108.0
181.557098 96.0
181.715347 104.0
182.174423 212.0
182.531876 84.0
182.752426 112.0
182.827774 124.0
182.924667 92.0
183.107758 40.0
183.296326 112.0
183.382568 92.0
183.514648 160.0
183.614426 32.0
184.013779 52.0
184.078583 168.0
184.138 216.0
184.497375 184.0
184.705582 164.0
184.79216 140.0
185.084473 156.0
185.141327 196.0
185.192795 168.0
185.287598 192.0
185.404114 212.0
185.564041 148.0
185.759293 216.0
186.103958 204.0
186.245163 216.0
186.378281 136.0
186.439743 220.0
186.658249 164.0
186.775192 128.0
187.033936 172.0
187.172531 140.0
187.210648 140.0
187.288727 168.0
187.335938 132.0
187.436737 148.0
187.548477 40.0
187.652069 148.0
187.818405 124.0
187.935715 116.0
188.031219 232.0
188.061249 160.0
188.110382 128.0
188.132217 136.0
188.566513 116.0
188.831711 196.0
188.908295 200.0
188.979431 44.0
189.001312 212.0
189.069458 2640.0
189.124466 104.0
189.149094 76.0
189.261337 156.0
189.462372 100.0
189.850479 64.0
190.004089 220.0
190.075089 512.0
190.165985 188.0
190.231857 148.0
190.459763 116.0
190.789505 116.0
191.039764 176.0
191.08194 788.0
191.221359 148.0
191.375793 196.0
191.430588 108.0
191.604111 88.0
191.639923 148.0
191.929337 152.0
192.056335 732.0
192.082596 352.0
192.470139 116.0
192.492233 116.0
192.829254 168.0
192.865189 160.0
192.898361 140.0
192.953644 64.0
193.059036 292.0
193.094666 136.0
193.354736 224.0
193.970276 200.0
194.011185 192.0
194.070007 820.0
194.219162 156.0
194.269089 40.0
194.579895 112.0
194.707626 164.0
194.849289 124.0
194.971558 144.0
195.038254 216.0
195.073303 164.0
195.210617 92.0
195.230087 140.0
195.346909 160.0
195.377502 208.0
195.480453 52.0
195.57579 172.0
195.836792 124.0
195.886932 152.0
196.023453 152.0
196.076401 128.0
196.112625 160.0
196.132141 220.0
196.238068 148.0
196.268738 116.0
196.318375 100.0
196.475128 96.0
196.589706 124.0
196.787704 120.0
196.893814 140.0
197.053024 112.0
197.083771 120.0
197.254242 36.0
197.296173 156.0
197.452759 164.0
197.729721 184.0
197.771698 116.0
198.340302 36.0
198.556183 156.0
198.87883 208.0
199.165222 176.0
199.196121 176.0
199.249496 168.0
199.269165 148.0
199.308502 80.0
199.367508 160.0
199.389984 44.0
200.061691 168.0
200.63974 152.0
200.837128 196.0
200.902008 100.0
201.051559 68.0
201.097839 240.0
201.195511 48.0
201.218094 184.0
201.523117 160.0
201.60788 92.0
201.839676 128.0
201.947144 156.0
202.040482 144.0
202.082916 148.0
202.170639 212.0
202.49054 160.0
202.558517 296.0
202.728516 92.0
203.074448 232.0
203.352432 192.0
203.480164 176.0
203.511398 200.0
203.923294 140.0
203.951721 156.0
204.055862 1180.0
204.11377 132.0
204.164948 36.0
204.221832 124.0
204.255432 108.0
204.295792 160.0
204.616364 160.0
204.937531 68.0
204.959152 68.0
205.01329 128.0
205.064697 3252.0
205.386765 100.0
205.789139 164.0
205.854813 180.0
205.971909 100.0
206.023331 152.0
206.070099 924.0
206.111542 256.0
206.231918 124.0
206.280518 156.0
206.337692 184.0
206.414886 176.0
206.55217 148.0
206.68663 108.0
206.743851 124.0
206.915588 132.0
206.990036 184.0
207.079819 7740.0
207.254944 132.0
207.350983 124.0
207.389465 132.0
207.416901 72.0
207.560257 220.0
207.597534 76.0
207.709381 68.0
207.864304 52.0
207.93605 44.0
208.004929 148.0
208.057297 472.0
208.084915 848.0
208.194427 104.0
208.343781 216.0
208.406982 228.0
208.509308 164.0
208.536301 152.0
208.68866 84.0
208.915848 64.0
209.002823 140.0
209.097122 240.0
209.140305 144.0
209.215134 120.0
209.292877 96.0
209.396545 124.0
209.462784 236.0
209.613876 80.0
209.681274 140.0
209.71524 208.0
209.938339 136.0
210.076141 164.0
210.296066 124.0
210.654114 52.0
210.960419 40.0
211.070282 112.0
211.128128 128.0
211.405838 104.0
211.448608 144.0
211.45575 112.0
211.467621 172.0
211.533188 148.0
211.620026 28.0
211.721375 224.0
211.874893 108.0
212.376373 232.0
212.445984 64.0
212.652008 168.0
212.932144 180.0
213.00914 148.0
213.075958 80.0
213.157303 216.0
213.183456 44.0
213.418915 100.0
213.593399 180.0
213.671936 160.0
213.747238 260.0
213.968796 204.0
214.149323 160.0
214.216324 108.0
214.277496 164.0
214.315369 128.0
214.536865 140.0
214.7789 164.0
215.041489 160.0
215.085266 164.0
215.105698 196.0
215.143646 124.0
215.371414 100.0
215.490326 244.0
215.640213 120.0
215.712143 184.0
215.748367 204.0
215.803909 40.0
215.845596 188.0
215.929657 52.0
216.0737 244.0
216.207581 136.0
216.444687 180.0
216.731735 228.0
216.763626 148.0
216.825516 116.0
216.928101 28.0
217.030701 192.0
217.063873 1176.0
217.197861 120.0
217.250671 72.0
217.282928 180.0
217.38269 168.0
217.555862 60.0
217.582275 44.0
217.890656 36.0
218.064682 280.0
218.113983 192.0
218.246277 60.0
218.2845 108.0
218.322723 120.0
218.405075 68.0
218.611023 184.0
218.843552 188.0
218.878891 140.0
219.042557 236.0
219.08194 724.0
219.153519 132.0
219.285416 56.0
219.32753 252.0
219.415115 188.0
219.438705 116.0
219.777878 88.0
219.813293 108.0
219.981522 160.0
220.002182 168.0
220.050613 1608.0
220.13504 52.0
220.200012 120.0
220.340103 104.0
220.383163 180.0
220.40976 84.0
220.498413 48.0
220.519089 152.0
220.5457 140.0
220.706863 124.0
220.808838 44.0
220.903488 212.0
221.0159 80.0
221.057831 1840.0
221.169785 140.0
221.199387 48.0
221.240829 208.0
221.31485 160.0
221.560669 36.0
221.649551 52.0
221.791809 84.0
221.902542 180.0
222.066162 1840.0
222.107452 132.0
222.115784 180.0
222.262772 84.0
222.399841 88.0
222.56015 152.0
222.595779 156.0
222.702698 124.0
223.02655 160.0
223.071457 620.0
223.33313 164.0
223.369232 212.0
223.401215 188.0
223.475601 68.0
223.514282 128.0
223.764297 44.0
224.0466 136.0
224.109772 48.0
224.187256 148.0
224.306473 168.0
224.92392 112.0
224.956757 212.0
225.08812 100.0
225.389801 112.0
225.413712 104.0
225.649826 60.0
225.799347 128.0
225.901031 124.0
225.933945 208.0
226.49971 160.0
226.739395 84.0
226.784821 128.0
226.997208 140.0
227.063187 76.0
227.243164 200.0
227.604935 148.0
228.038925 144.0
228.073303 100.0
228.246796 132.0
228.541107 124.0
228.649445 80.0
228.745758 144.0
228.784897 124.0
228.857147 172.0
228.971573 68.0
229.064941 144.0
229.086029 128.0
229.384354 128.0
229.707001 116.0
229.797501 76.0
230.155945 216.0
230.238205 76.0
230.359024 164.0
230.836548 128.0
230.912155 132.0
231.044189 964.0
231.12088 204.0
231.344833 208.0
231.420517 132.0
231.638565 156.0
231.750031 172.0
232.050476 628.0
232.205353 104.0
232.526947 160.0
232.603592 60.0
232.642288 236.0
232.742477 48.0
232.900391 156.0
232.964188 168.0
233.058594 1772.0
233.146484 96.0
233.243744 76.0
233.514343 152.0
233.572144 172.0
233.648346 148.0
233.760757 136.0
233.915985 272.0
234.067139 1300.0
234.205246 220.0
234.308823 104.0
234.427643 52.0
234.448975 140.0
234.576996 52.0
234.604431 168.0
234.753815 168.0
234.912415 112.0
234.945969 180.0
235.039658 548.0
235.075745 4988.0
235.129044 124.0
235.163498 140.0
235.245041 56.0
235.27861 120.0
235.43129 56.0
235.547348 140.0
235.629822 44.0
235.672592 148.0
235.697037 76.0
235.7276 116.0
235.755096 156.0
235.779541 240.0
236.050842 228.0
236.078873 668.0
236.30661 272.0
236.376877 80.0
236.764633 52.0
236.801376 140.0
236.848343 120.0
237.012756 56.0
237.052292 324.0
237.078903 256.0
237.512451 140.0
237.899094 224.0
237.951279 176.0
238.074097 92.0
238.147812 212.0
238.273758 96.0
238.436615 100.0
238.461197 92.0
238.82399 168.0
238.940887 104.0
239.023956 180.0
239.128586 204.0
239.153214 132.0
239.368713 80.0
239.528854 176.0
239.649002 168.0
239.895554 100.0
239.947556 152.0
239.981873 220.0
240.083633 140.0
240.139145 28.0
240.266434 208.0
240.302643 44.0
240.385941 200.0
240.580383 136.0
240.774918 104.0
241.188919 104.0
241.408432 144.0
241.9375 132.0
242.216202 128.0
242.684158 104.0
243.093582 176.0
243.301544 128.0
243.597687 164.0
243.627625 144.0
243.866882 124.0
244.050888 208.0
244.075165 84.0
244.264877 152.0
244.364426 76.0
244.404861 368.0
244.697433 160.0
244.759705 220.0
244.884277 160.0
244.991058 256.0
245.055557 768.0
245.136612 124.0
245.242569 156.0
245.835129 168.0
245.919388 32.0
245.963242 152.0
246.064148 332.0
246.09108 128.0
246.34404 156.0
246.556503 200.0
246.656509 140.0
246.730194 164.0
246.934784 304.0
247.039261 300.0
247.072235 384.0
247.532501 132.0
247.613922 132.0
247.638992 104.0
247.667175 96.0
247.814407 148.0
247.870804 48.0
247.892746 108.0
248.047455 876.0
248.11528 120.0
248.209335 120.0
248.397507 220.0
248.733261 148.0
248.802322 56.0
248.953766 120.0
249.009552 148.0
249.05275 2476.0
249.132065 152.0
249.207458 116.0
249.248306 44.0
249.386581 260.0
249.443161 104.0
249.519119 120.0
249.590912 100.0
249.619217 112.0
249.823654 164.0
250.018723 128.0
250.061096 1492.0
250.342972 224.0
250.481552 28.0
251.036346 700.0
251.061935 268.0
251.313812 140.0
251.342209 128.0
251.49054 144.0
252.034485 276.0
252.069229 208.0
252.273895 44.0
252.43515 188.0
252.504715 84.0
252.602768 88.0
252.653381 136.0
252.709351 156.0
252.748291 132.0
252.821075 140.0
252.966675 136.0
253.041107 124.0
253.124969 188.0
253.147141 232.0
253.270645 56.0
253.415924 144.0
253.616013 144.0
253.685745 96.0
254.055191 208.0
254.202728 156.0
254.310623 200.0
254.755157 40.0
254.891785 156.0
255.050674 144.0
255.095184 136.0
255.27005 64.0
255.400436 140.0
255.634506 236.0
255.798172 156.0
255.906418 164.0
256.046539 132.0
256.368286 128.0
256.663513 232.0
256.769958 136.0
256.792297 104.0
256.891174 56.0
256.999634 160.0
257.117706 128.0
257.274109 100.0
257.296448 156.0
257.38858 196.0
257.40625 188.0
257.673309 140.0
258.196777 120.0
258.30307 192.0
258.562225 124.0
258.69986 160.0
258.786316 160.0
258.936981 144.0
258.978455 104.0
259.038025 2592.0
259.092499 144.0
259.481537 280.0
259.603394 200.0
259.981903 160.0
260.044006 2268.0
260.08783 192.0
260.190552 40.0
260.222656 48.0
260.360718 104.0
260.392853 136.0
260.673523 216.0
260.961609 160.0
261.006622 200.0
261.055267 2056.0
261.144897 168.0
261.241394 124.0
261.283234 112.0
261.608246 64.0
261.646881 208.0
261.691956 140.0
261.811096 204.0
261.849731 68.0
261.968933 224.0
261.991486 148.0
262.061157 2768.0
262.284698 120.0
262.407196 228.0
262.433014 120.0
262.478149 60.0
262.62326 168.0
262.752289 160.0
262.80069 128.0
262.881348 200.0
262.929749 112.0
263.000763 100.0
263.029236 136.0
263.069702 10436.0
263.169403 84.0
263.330078 56.0
263.506592 132.0
263.542633 60.0
263.656403 104.0
263.766266 68.0
263.798615 88.0
263.885895 192.0
263.947327 156.0
263.986115 116.0
264.039398 716.0
264.073761 1912.0
264.296661 224.0
264.332245 152.0
264.364594 128.0
264.442291 96.0
264.581451 180.0
264.610596 64.0
264.869659 68.0
265.052551 352.0
265.065887 440.0
265.077576 692.0
265.16452 100.0
265.25528 96.0
265.363159 156.0
265.482208 40.0
265.553558 144.0
265.589233 108.0
265.689789 44.0
265.803345 60.0
265.881226 88.0
265.903961 140.0
265.946136 64.0
266.05484 160.0
266.593689 188.0
266.754944 184.0
266.91098 76.0
266.933746 92.0
267.138641 60.0
267.18338 144.0
267.301331 152.0
267.402222 172.0
267.496765 76.0
267.636597 192.0
267.665894 144.0
267.773346 116.0
267.998138 176.0
268.128479 124.0
268.159027 116.0
268.353394 160.0
268.447937 132.0
268.516418 156.0
268.810028 212.0
268.852448 96.0
269.09726 88.0
269.404236 148.0
269.518585 144.0
269.881561 164.0
270.679779 188.0
270.843536 160.0
270.905762 96.0
270.997498 168.0
271.23999 128.0
271.32196 128.0
271.538361 196.0
271.635712 124.0
271.669556 132.0
271.74176 204.0
272.312927 148.0
272.487 168.0
272.529724 208.0
272.578156 152.0
272.749908 80.0
272.930573 164.0
273.054077 168.0
273.226715 84.0
273.671021 92.0
273.703949 156.0
273.786285 140.0
273.845551 76.0
274.033325 40.0
274.062378 448.0
274.501373 44.0
274.547546 148.0
275.03183 932.0
275.144745 200.0
275.194275 28.0
275.553375 204.0
275.617065 48.0
275.765747 212.0
275.88797 152.0
276.040405 1300.0
276.086456 128.0
276.195587 112.0
276.374237 212.0
276.423859 116.0
276.552917 136.0
276.592651 60.0
277.048798 3064.0
277.165924 152.0
277.228546 80.0
277.315094 68.0
277.374359 28.0
277.550079 172.0
277.72583 60.0
277.762329 128.0
277.822021 196.0
277.888397 56.0
277.914917 100.0
278.055725 3520.0
278.329834 56.0
278.366333 192.0
278.52243 188.0
278.575592 56.0
278.70517 148.0
278.738861 112.0
278.864655 88.0
279.030914 340.0
279.05777 1096.0
279.127289 148.0
279.166138 76.0
279.222015 116.0
279.449921 160.0
279.476532 116.0
279.503174 84.0
279.563049 220.0
280.032562 456.0
280.077148 168.0
280.123322 200.0
280.278992 100.0
280.525604 108.0
280.585602 44.0
280.821228 164.0
281.047821 152.0
281.226074 148.0
281.419678 56.0
281.499817 148.0
281.569946 132.0
282.054413 136.0
282.248322 120.0
282.375397 88.0
282.542633 196.0
282.80365 104.0
283.0513 156.0
283.238922 60.0
283.423187 60.0
283.449982 108.0
283.530396 176.0
283.604126 148.0
283.882385 124.0
283.915924 168.0
283.989716 160.0
284.056793 140.0
284.190979 148.0
284.227905 104.0
284.321869 176.0
284.435974 112.0
284.516541 212.0
284.597107 116.0
284.620605 152.0
284.681061 72.0
284.717346 124.0
284.761658 244.0
284.875854 124.0
285.121124 104.0
285.252228 196.0
285.918488 176.0
286.005676 148.0
286.355835 120.0
286.564697 88.0
286.598389 104.0
286.628693 144.0
287.016663 156.0
287.175842 160.0
287.211945 100.0
287.35025 144.0
287.630341 104.0
287.822754 84.0
287.991608 144.0
288.285553 116.0
288.444397 148.0
288.495087 172.0
288.806183 84.0
288.901703 116.0
288.975311 112.0
289.049438 6448.0
289.163849 196.0
289.193146 260.0
289.285614 76.0
289.347595 40.0
289.394806 132.0
289.422089 216.0
289.462738 108.0
289.489807 160.0
289.622284 176.0
289.745911 112.0
289.770935 208.0
289.821777 128.0
289.879364 160.0
289.903107 148.0
289.940369 176.0
289.994598 144.0
290.057281 42488.0
290.18103 156.0
290.219757 48.0
290.253204 136.0
290.302277 132.0
290.330231 168.0
290.353973 176.0
290.39975 96.0
290.430634 92.0
290.492767 100.0
290.520172 48.0
290.554108 40.0
290.598206 56.0
290.687225 80.0
290.748016 52.0
290.808594 152.0
290.848419 184.0
290.928955 164.0
291.012268 316.0
291.063416 12136.0
291.117157 224.0
291.151031 60.0
291.268372 156.0
291.316223 48.0
291.355286 108.0
291.401245 180.0
291.472931 96.0
291.562561 88.0
291.599945 56.0
291.688293 140.0
291.782166 164.0
291.885498 140.0
291.939911 76.0
292.065399 2832.0
292.147369 144.0
292.286865 92.0
292.36853 32.0
292.395752 40.0
292.470642 56.0
292.508789 76.0
292.586365 88.0
292.626648 116.0
292.683685 124.0
292.748199 144.0
292.782532 112.0
292.863861 228.0
292.92691 212.0
292.971039 84.0
293.028473 216.0
293.076111 508.0
293.124512 80.0
293.188965 176.0
293.319397 196.0
293.461945 76.0
293.489227 56.0
293.651886 132.0
293.905365 184.0
293.99408 104.0
294.052124 552.0
294.110107 92.0
294.218231 160.0
294.410553 144.0
294.666718 144.0
294.745331 180.0
294.837585 128.0
294.919617 184.0
295.055908 128.0
295.169159 92.0
295.193115 164.0
295.367523 56.0
295.524902 64.0
295.57962 224.0
295.692566 120.0
295.815796 164.0
295.923615 40.0
296.004089 76.0
296.049438 136.0
296.696167 156.0
296.836761 160.0
296.877899 124.0
297.054871 112.0
297.190033 188.0
297.313568 52.0
297.361633 32.0
297.431702 140.0
297.746124 64.0
297.983154 84.0
298.357758 184.0
298.966553 316.0
299.000977 84.0
299.107666 32.0
299.317657 148.0
299.695007 136.0
300.479187 96.0
301.055603 152.0
301.390686 208.0
301.477051 152.0
302.189362 112.0
302.937134 60.0
303.046997 172.0
303.179688 88.0
303.339111 84.0
303.366852 172.0
303.526337 156.0
303.689301 44.0
303.730927 148.0
303.762146 36.0
303.789917 92.0
303.821136 52.0
303.956451 136.0
304.059662 288.0
304.26535 132.0
304.372955 72.0
304.407684 128.0
304.90097 100.0
304.980927 376.0
305.041779 1916.0
305.151245 256.0
305.2034 160.0
305.277893 104.0
305.33902 52.0
305.380768 60.0
305.409546 136.0
305.516418 220.0
305.573273 116.0
305.657166 156.0
305.68689 132.0
305.725189 208.0
305.769196 192.0
305.799957 152.0
305.843506 124.0
305.871368 244.0
305.93924 88.0
305.94693 136.0
305.993896 228.0
306.052185 83780.0
306.137695 52.0
306.169312 160.0
306.177216 52.0
306.190979 80.0
306.203217 156.0
306.261139 108.0
306.311829 64.0
306.3927 56.0
306.39975 60.0
306.461884 56.0
306.519135 56.0
306.546997 36.0
306.592316 48.0
306.626129 188.0
306.690582 68.0
306.734039 80.0
306.763092 40.0
306.799194 72.0
306.832825 80.0
306.896179 168.0
306.9487 84.0
306.999176 112.0
307.055634 13596.0
307.131805 124.0
307.208588 208.0
307.235779 68.0
307.326385 64.0
307.355988 120.0
307.389587 76.0
307.452606 104.0
307.506042 80.0
307.564514 64.0
307.617218 80.0
307.62796 88.0
307.636322 160.0
307.725037 92.0
307.755402 152.0
307.8078 60.0
307.855133 60.0
307.879578 48.0
307.973877 52.0
308.057281 2384.0
308.253387 64.0
308.295319 52.0
308.368683 52.0
308.393158 144.0
308.44043 76.0
308.512024 56.0
308.543457 52.0
308.609894 60.0
308.642273 96.0
308.658081 36.0
308.672577 100.0
308.72879 128.0
308.821014 64.0
308.923492 128.0
308.971527 220.0
309.019867 92.0
309.061096 288.0
309.103088 56.0
309.112061 128.0
309.141571 80.0
309.207336 228.0
309.235657 136.0
309.291107 44.0
309.344574 76.0
309.463593 96.0
309.509125 116.0
309.652679 76.0
309.71225 36.0
309.747253 116.0
309.813812 48.0
309.943451 52.0
310.003021 144.0
310.034546 216.0
310.062195 140.0
310.099915 80.0
310.139709 44.0
310.19928 80.0
310.451141 48.0
310.602539 140.0
310.639526 168.0
310.946381 52.0
311.279877 68.0
311.33606 28.0
311.378204 176.0
311.617065 56.0
311.690857 52.0
311.740051 48.0
311.943909 56.0
311.968506 76.0
312.256836 40.0
312.51712 72.0
312.615662 56.0
313.062714 164.0
313.38678 180.0
313.880249 80.0
313.961365 72.0
314.095367 116.0
314.141235 80.0
314.180023 56.0
314.377625 32.0
315.271057 96.0
315.762482 120.0
315.854431 88.0
316.002991 124.0
316.264862 96.0
316.314423 80.0
316.703918 72.0
316.877502 48.0
317.033386 104.0
317.195587 116.0
317.469421 180.0
317.597107 196.0
317.990936 136.0
318.186157 136.0
318.495117 112.0
318.519958 32.0
319.057556 428.0
319.088562 144.0
319.291229 240.0
319.483307 116.0
319.610626 248.0
319.682556 312.0
319.956604 88.0
320.061829 260.0
320.069092 108.0
320.109711 120.0
320.156006 120.0
320.198761 112.0
320.245056 140.0
320.323395 164.0
320.405334 112.0
320.458771 184.0
320.501526 308.0
320.53717 124.0
320.562103 68.0
320.607361 184.0
320.654755 164.0
320.686859 136.0
320.726135 136.0
320.780457 120.0
320.838684 128.0
320.872192 52.0
320.900726 52.0
320.938293 216.0
320.979279 184.0
321.022675 432.0
321.076355 49796.0
321.230408 184.0
321.260925 52.0
321.315002 92.0
321.362854 148.0
321.387268 280.0
321.437836 96.0
321.46402 52.0
321.517822 44.0
321.569458 128.0
321.606873 76.0
321.666382 196.0
321.74295 112.0
321.781952 72.0
321.897156 76.0
321.967651 52.0
322.023895 196.0
322.078278 9696.0
322.185303 68.0
322.223206 48.0
322.256989 88.0
322.299835 32.0
322.378296 92.0
322.449921 116.0
322.499817 52.0
322.582184 88.0
322.659546 56.0
322.687744 76.0
322.73233 56.0
322.846771 92.0
322.943329 92.0
323.017609 192.0
323.079254 1196.0
323.193726 48.0
323.241394 76.0
323.275208 68.0
323.373627 148.0
323.415619 60.0
323.447815 28.0
323.515839 100.0
323.559113 44.0
323.586243 76.0
323.644714 108.0
323.77005 76.0
323.845276 36.0
323.870331 76.0
323.922699 88.0
324.021515 220.0
324.078125 76.0
324.14978 84.0
324.221436 172.0
324.246307 132.0
324.289551 172.0
324.38205 84.0
324.454437 36.0
324.501709 292.0
324.544067 256.0
324.603638 52.0
324.630127 68.0
324.760712 116.0
324.791504 104.0
324.920654 88.0
325.024689 36.0
325.095215 160.0
325.186188 44.0
325.22583 80.0
325.333344 96.0
325.482025 84.0
325.656494 48.0
325.681641 48.0
325.807373 76.0
325.857666 68.0
325.925934 108.0
326.515472 32.0
326.540649 148.0
326.947174 108.0
327.238739 44.0
327.47641 88.0
327.775421 108.0
327.876312 100.0
327.970032 120.0
328.907837 76.0
329.113586 56.0
329.312225 48.0
329.615662 64.0
330.002411 100.0
330.823639 96.0
331.656769 72.0
332.324036 40.0
333.057343 80.0
333.54422 44.0
334.067841 124.0
334.763 64.0
335.757874 52.0
335.867279 64.0
336.122681 80.0
337.335175 52.0
338.121582 112.0
338.725708 48.0
339.42569 52.0
340.530273 40.0
341.029968 88.0
341.861115 92.0
342.936493 80.0
345.769226 84.0
348.115845 152.0
349.085724 172.0
353.674561 128.0
354.082672 80.0
357.905426 136.0
363.249329 176.0
365.357635 72.0
365.464172 132.0
366.133911 1612.0
366.328369 176.0
366.583649 64.0
366.663666 48.0
367.13324 860.0
367.17453 208.0
367.536926 36.0
367.567444 48.0
367.605591 52.0
368.128571 148.0
368.155304 124.0
368.239319 168.0
368.380646 124.0
369.240631 112.0
373.171082 76.0
375.770782 108.0
376.260925 36.0
377.416107 120.0
381.611298 100.0
384.614807 40.0
386.119019 108.0
394.02774 128.0
398.711304 96.0
398.755035 88.0
403.271301 128.0
417.868744 52.0
420.456238 76.0
420.876678 88.0
424.223267 84.0
425.593536 140.0
427.504913 108.0
429.218536 124.0
430.10965 120.0
431.249603 40.0
431.770538 68.0
432.780212 172.0
435.59198 56.0
452.488617 44.0
453.746887 44.0
457.212921 136.0
474.832092 80.0
474.923157 48.0
477.607422 72.0
480.495544 52.0
484.23288 80.0
485.091675 40.0
489.18573 128.0
491.243591 56.0
495.731201 96.0
496.263092 48.0
500.399475 60.0
501.664673 136.0
509.374817 48.0
511.960938 140.0
519.980957 80.0
524.720703 68.0
525.409363 104.0
526.792603 136.0
527.299744 68.0
529.02417 68.0
530.976074 48.0
531.265015 72.0
537.30072 60.0
539.103577 44.0
542.568237 48.0
544.335938 56.0
546.041443 68.0
548.052429 60.0
554.894897 104.0
563.162842 88.0
563.970764 68.0
573.139343 32.0
574.479004 72.0
578.95752 88.0
580.203308 100.0
581.925598 84.0
585.960754 56.0
586.230591 40.0
588.381775 92.0
596.048828 92.0
597.050232 64.0
602.46051 84.0
603.095764 120.0
603.266846 116.0
603.72644 60.0
605.081787 84.0
619.506348 108.0
621.276123 56.0
624.410339 140.0
631.652466 64.0
641.071228 68.0
643.143982 88.0
645.245422 104.0
646.196228 36.0
648.165833 88.0
655.406433 76.0
668.839478 92.0
671.131897 64.0
684.052673 80.0
684.411865 140.0
689.816711 100.0
699.605347 64.0
701.354187 80.0
708.207153 60.0
708.535522 136.0
720.831543 100.0
724.04657 60.0
724.753662 104.0
724.791199 88.0
730.632629 52.0
734.548889 76.0
759.829285 76.0
763.102539 56.0
777.680664 76.0
779.352173 40.0
780.547241 100.0
785.135803 124.0
790.213257 88.0
793.321411 60.0
799.589783 68.0
813.551086 60.0
830.13147 56.0
833.121765 52.0
844.529236 76.0
847.20929 116.0
848.374084 76.0
848.432068 48.0
879.352844 96.0
900.692261 76.0
904.962097 80.0
938.624329 80.0
1000.357361 72.0
1001.131836 60.0
1006.592712 60.0
1019.375671 36.0
1032.539917 96.0
1064.549927 60.0
1093.419312 64.0
1099.568115 124.0
1110.743286 168.0
1111.9375 80.0
1137.031494 88.0
1143.294922 156.0
1172.074585 160.0
1179.950928 48.0
1214.458008 48.0
1218.025635 36.0
1230.442017 160.0
1276.37439 44.0
1284.486206 84.0
1286.876831 188.0
1314.056885 44.0
1322.142456 156.0
1333.4198 36.0
1346.336426 44.0
1376.540283 196.0
1384.571289 44.0
1396.059082 72.0
1397.911377 188.0
1399.504272 156.0
1415.116211 132.0
1439.530884 140.0
1445.502563 60.0
1467.995117 132.0
1471.085083 68.0
1492.321533 184.0
1500.914185 196.0
1503.243774 148.0
