>compound Sparfloxacin
>formula C19H22F2N4O3
>ionization [M+H]+
>parentmass 393.1732734560905
#inchi InChI=1S/C19H22F2N4O3/c1-8-5-24(6-9(2)23-8)17-13(20)15(22)12-16(14(17)21)25(10-3-4-10)7-11(18(12)26)19(27)28/h7-10,23H,3-6,22H2,1-2H3,(H,27,28)/t8-,9+
#inchikey DZZWHBIBMUVIIW
#Ion_Source LC-ESI
#Instrument qTof
#Compound_Source Commercial
#PI Dorrestein
#Data_Collector Garg_Neha
#Scan -1
#Precursor_MZ 393.173
#ExactMass 392.166
#Charge 1
#CAS_Number 110871-86-8
#Pubmed_ID N/A
#Smiles [C@@H]1(N[C@H](CN(C1)C2=C(C3=C(C(=C2F)N)C(C(=CN3C4CC4)C(O)=O)=O)F)C)C
#INCHI_AUX N/A
#Library_Class 1
#SpectrumID CCMSLIB00000078326
#IonMode Positive
#UpdateWorkflowName UPDATE-SINGLE-ANNOTATED-GOLD
#LibraryQualityString Gold
#TaskID 77f51c88eb8b467eb4a01dd2d0cb90d2
##Scan# 1055
#SpectrumFile Plate5_41_60_GH8_01_16510.mzXML
#LibraryName FDALibrary_2_04302014.mgf
#MQScore -1
#Organism FDALibrary_2_04302014
#TIC_Query 0
#RT_Query -1
#MZErrorPPM -1
#SharedPeaks 0
#MassDiff 0
#LibMZ -1
#SpecMZ 393.173
#SpecCharge 0
#internalFilename spec-00000.mgf

>collision 10
44.988506 148.0
45.223766 188.0
45.50259 168.0
45.657116 204.0
45.725731 172.0
46.349625 192.0
46.474369 188.0
46.527657 168.0
46.559891 156.0
46.848957 144.0
46.970463 152.0
47.028236 172.0
47.103336 180.0
47.693913 272.0
48.079552 148.0
48.354572 168.0
48.42144 216.0
48.471199 184.0
48.500004 176.0
48.554073 224.0
48.626217 140.0
48.691471 164.0
49.20808 156.0
49.241596 168.0
49.487709 220.0
49.693741 160.0
49.745667 172.0
49.964897 256.0
50.069057 176.0
50.102863 164.0
50.115543 140.0
50.217041 188.0
50.442959 208.0
50.692051 180.0
50.707642 192.0
50.893475 208.0
50.987228 144.0
51.029873 224.0
51.236721 188.0
51.344566 156.0
51.695999 188.0
52.038902 124.0
52.067295 200.0
52.441364 180.0
52.46587 236.0
52.617348 212.0
52.961514 148.0
53.015118 212.0
53.50898 152.0
53.597824 176.0
53.790337 164.0
53.828175 148.0
53.943832 200.0
54.30685 196.0
54.421314 192.0
54.643246 188.0
54.696224 160.0
55.016102 240.0
55.28511 140.0
55.333958 200.0
55.362091 160.0
55.425785 160.0
55.577026 168.0
55.587414 160.0
55.673512 184.0
55.691334 200.0
55.774544 160.0
56.090103 240.0
56.263145 176.0
56.470848 156.0
56.508247 156.0
56.620514 172.0
56.960983 160.0
57.057159 180.0
57.111935 184.0
57.127842 148.0
57.172512 180.0
57.19405 144.0
57.403465 160.0
57.56702 208.0
57.691841 184.0
57.746277 216.0
57.847832 152.0
57.908222 148.0
58.000648 160.0
58.020355 160.0
58.120457 172.0
58.194828 208.0
58.637493 172.0
59.00687 212.0
59.095604 140.0
59.114742 168.0
59.17366 228.0
59.398933 140.0
59.659988 156.0
59.864624 212.0
59.986343 152.0
60.128242 200.0
60.191536 176.0
60.462063 192.0
60.609173 252.0
60.663418 184.0
60.793701 144.0
60.806118 180.0
60.935001 148.0
61.246124 160.0
61.528374 204.0
62.539459 148.0
62.835499 148.0
63.086815 224.0
63.159554 220.0
63.45821 176.0
63.623856 180.0
63.728676 160.0
63.965122 124.0
64.26078 140.0
64.460045 176.0
64.498405 308.0
64.527176 184.0
64.779312 160.0
65.184341 196.0
65.493233 200.0
65.676979 208.0
65.777023 196.0
65.831917 140.0
65.846451 152.0
65.927223 176.0
66.058189 156.0
66.075981 180.0
66.158127 164.0
66.783249 228.0
67.024185 152.0
67.066559 148.0
67.446869 168.0
67.482834 176.0
67.512268 156.0
67.53923 140.0
67.713562 148.0
68.008247 180.0
68.353806 152.0
68.5168 216.0
68.577774 176.0
68.766525 172.0
68.802109 144.0
69.07869 240.0
69.127716 176.0
69.139305 180.0
69.222076 180.0
69.354004 228.0
69.379478 196.0
69.802856 200.0
69.864395 172.0
69.890488 180.0
70.020866 196.0
70.095825 140.0
70.130829 160.0
70.367706 168.0
70.41613 156.0
70.469177 180.0
70.499664 160.0
70.757248 168.0
70.926445 256.0
71.293999 204.0
71.642296 188.0
71.741722 164.0
71.778809 140.0
72.003258 148.0
72.025482 148.0
72.660019 156.0
72.727898 148.0
73.160461 196.0
73.217552 176.0
73.314659 224.0
73.415237 152.0
73.428879 160.0
73.507248 128.0
73.583275 156.0
73.628555 156.0
73.707138 204.0
73.747635 212.0
73.799438 140.0
73.90377 216.0
73.956825 148.0
74.03215 168.0
74.064697 204.0
74.254944 152.0
74.342438 168.0
74.356163 140.0
74.551949 164.0
74.612106 280.0
74.730774 144.0
74.758308 176.0
74.896042 188.0
74.920158 164.0
75.032173 168.0
75.079788 248.0
75.123573 152.0
75.386009 164.0
75.489731 140.0
75.518608 172.0
75.603905 196.0
75.797852 236.0
76.002464 172.0
76.132652 156.0
76.148277 152.0
76.299454 188.0
76.315102 144.0
76.771317 216.0
76.816666 164.0
76.848068 140.0
77.041855 172.0
77.122238 144.0
77.36013 140.0
77.410904 188.0
77.94416 188.0
78.199158 200.0
78.398903 220.0
78.518044 140.0
78.560379 160.0
78.613312 148.0
78.963104 140.0
78.980789 148.0
78.994942 140.0
79.095802 164.0
79.1436 188.0
79.2481 168.0
79.265572 196.0
79.400551 244.0
79.422928 168.0
79.544266 160.0
79.595757 164.0
80.084274 160.0
80.211319 164.0
80.675446 152.0
80.751579 180.0
80.784531 140.0
80.890404 216.0
80.93486 204.0
80.97068 156.0
81.292549 184.0
81.820007 140.0
81.870422 144.0
81.913651 192.0
81.962296 224.0
82.048805 140.0
82.07946 180.0
82.124542 232.0
82.247238 236.0
82.295975 148.0
82.357376 144.0
82.648438 160.0
82.965378 188.0
83.124237 176.0
83.397408 204.0
83.779533 180.0
83.902573 148.0
83.923813 120.0
83.983688 156.0
84.356186 140.0
84.524445 164.0
84.585144 196.0
84.866966 220.0
85.124847 160.0
85.155075 240.0
85.483879 200.0
85.6959 184.0
85.828613 140.0
85.904228 224.0
86.005714 212.0
86.105415 160.0
86.343826 196.0
86.514053 164.0
86.662216 160.0
86.806793 240.0
86.843887 152.0
86.86985 200.0
86.903427 124.0
87.063019 112.0
87.181778 288.0
87.257988 144.0
87.389069 268.0
87.576195 160.0
87.662552 248.0
87.753609 116.0
87.799843 244.0
87.831551 300.0
87.953705 172.0
88.061127 200.0
88.191917 156.0
88.289139 180.0
88.330284 204.0
88.47625 200.0
88.530548 176.0
88.961784 224.0
89.557861 188.0
89.710495 156.0
89.923637 228.0
89.948174 168.0
89.993484 244.0
90.146484 164.0
90.308167 144.0
90.511559 204.0
90.820992 156.0
90.930069 172.0
91.397995 168.0
91.493156 172.0
91.52552 140.0
91.839966 204.0
92.026817 228.0
92.078545 228.0
92.093819 148.0
92.229477 284.0
92.972595 232.0
93.058975 184.0
93.074333 212.0
93.176125 240.0
93.333733 188.0
93.948112 188.0
94.017921 224.0
94.042664 148.0
94.058105 160.0
94.172028 152.0
94.311142 152.0
94.385086 224.0
94.531609 140.0
94.769783 140.0
94.889946 148.0
95.130508 192.0
95.196518 172.0
95.478302 152.0
95.591133 156.0
95.899544 132.0
96.054825 144.0
96.179703 140.0
96.369133 148.0
96.402351 180.0
96.756378 160.0
97.075752 152.0
97.546959 172.0
97.626976 200.0
97.706245 248.0
97.812508 196.0
97.863693 248.0
97.980553 168.0
98.09465 976.0
98.255898 140.0
98.553619 156.0
98.625168 300.0
98.674591 160.0
98.90802 188.0
98.98127 192.0
99.060493 160.0
99.102097 216.0
99.308266 156.0
99.367775 180.0
99.447151 160.0
99.47097 192.0
99.64167 196.0
99.683479 148.0
99.818649 168.0
100.077324 164.0
100.096375 164.0
100.220726 144.0
100.288483 176.0
100.443565 180.0
100.631599 140.0
100.648994 216.0
100.67614 196.0
100.723465 232.0
100.773468 252.0
100.825363 192.0
101.211433 156.0
101.736725 156.0
101.839127 176.0
102.07225 164.0
102.494957 212.0
102.553398 172.0
102.567505 168.0
102.607826 140.0
102.648148 156.0
102.666298 176.0
103.112465 164.0
103.434059 248.0
103.567696 156.0
103.585045 148.0
103.788589 184.0
103.950867 176.0
104.342873 156.0
104.499474 200.0
104.766174 152.0
104.802208 96.0
104.861351 132.0
105.19442 188.0
105.247498 216.0
105.272003 196.0
105.323059 180.0
105.447693 180.0
105.5355 168.0
105.648079 180.0
105.713554 140.0
105.87323 200.0
105.981796 172.0
106.047371 200.0
106.813248 152.0
106.827644 152.0
107.024391 160.0
107.082878 148.0
107.144676 144.0
107.167336 228.0
107.499313 144.0
107.590424 156.0
107.670662 164.0
107.699577 224.0
108.011841 168.0
108.075012 204.0
108.291115 152.0
108.3284 236.0
108.355331 140.0
108.629684 152.0
108.975677 176.0
109.073349 200.0
109.174248 196.0
109.202599 248.0
109.41333 148.0
109.493637 140.0
109.561913 164.0
109.584854 152.0
109.685318 188.0
109.804169 212.0
109.854225 140.0
109.868828 220.0
109.885521 188.0
110.104691 224.0
110.234215 144.0
110.357536 156.0
110.497665 160.0
110.9123 200.0
111.047424 180.0
111.089622 144.0
111.518951 136.0
111.563034 176.0
111.804489 156.0
112.188263 164.0
112.335884 176.0
112.391586 100.0
112.416054 164.0
112.561707 148.0
112.613716 172.0
112.967499 200.0
113.045784 144.0
113.065659 164.0
113.560593 208.0
113.656052 140.0
113.711227 168.0
113.856796 148.0
114.002174 176.0
114.355209 152.0
114.813263 144.0
114.898582 152.0
115.201729 188.0
115.841339 180.0
115.888474 160.0
116.210083 224.0
116.285187 156.0
116.379181 112.0
116.471985 160.0
116.492538 200.0
116.577263 160.0
116.654633 176.0
116.796555 224.0
116.979713 104.0
117.065582 200.0
117.93502 164.0
118.064743 148.0
118.179848 168.0
118.601677 200.0
118.703568 168.0
119.063805 204.0
119.198486 144.0
119.226738 168.0
119.369217 160.0
119.441986 188.0
119.483315 176.0
119.589943 236.0
119.753235 144.0
120.217606 144.0
120.280899 200.0
120.342018 152.0
120.39006 160.0
120.820648 204.0
120.844719 176.0
121.035004 128.0
121.131508 156.0
121.310501 156.0
121.385811 116.0
121.627068 172.0
121.85984 244.0
121.886208 160.0
121.98291 160.0
122.052116 148.0
122.216034 156.0
122.255638 140.0
122.522064 144.0
122.621361 184.0
122.64106 164.0
122.674118 232.0
122.715141 184.0
122.779953 252.0
122.959305 244.0
123.028511 184.0
123.071968 204.0
123.208168 160.0
123.246834 144.0
123.371704 220.0
123.471474 144.0
123.679176 384.0
124.020279 156.0
124.053528 164.0
124.148865 140.0
124.304153 160.0
124.628334 160.0
124.668335 300.0
124.712784 176.0
124.966293 148.0
124.991096 164.0
125.315849 156.0
125.422813 180.0
126.011955 172.0
126.032066 164.0
126.163925 140.0
126.226532 160.0
126.24218 156.0
126.376396 140.0
126.421143 180.0
126.468147 148.0
126.676384 148.0
126.760475 120.0
126.985703 172.0
127.102356 160.0
127.13826 156.0
127.216965 128.0
127.275726 152.0
127.297646 244.0
127.474556 212.0
127.636803 116.0
127.708916 184.0
127.724663 324.0
127.767403 140.0
127.84166 164.0
127.954201 144.0
128.090973 196.0
128.366531 172.0
128.411636 172.0
128.51088 148.0
128.553757 188.0
128.601746 136.0
128.628235 188.0
128.689194 156.0
128.824692 144.0
129.100449 204.0
129.464783 148.0
129.820572 168.0
129.974823 148.0
130.004318 164.0
130.036087 160.0
130.05777 156.0
130.14505 336.0
130.233627 188.0
130.554077 156.0
131.102936 124.0
131.132339 160.0
131.253159 180.0
131.444763 196.0
131.71312 264.0
132.029572 312.0
132.08017 380.0
132.620255 148.0
132.659225 140.0
132.75 152.0
133.035431 236.0
133.189285 160.0
133.267395 140.0
133.506454 148.0
133.536346 156.0
133.600754 180.0
133.701996 160.0
133.780258 156.0
133.864029 240.0
133.918411 180.0
134.076096 200.0
134.107346 156.0
134.229538 228.0
134.326401 164.0
134.626434 172.0
134.781204 188.0
134.802002 148.0
134.838547 232.0
134.901382 172.0
134.936066 156.0
135.023926 160.0
135.049377 236.0
135.077133 144.0
135.313171 156.0
136.147934 140.0
136.231537 148.0
136.259415 168.0
136.360092 124.0
136.519745 180.0
136.595505 156.0
136.619766 168.0
136.714462 172.0
136.819901 144.0
136.973602 152.0
137.108734 160.0
137.309235 176.0
137.449203 180.0
137.589233 164.0
137.751068 188.0
138.056549 160.0
138.236679 236.0
138.30455 148.0
138.501221 224.0
138.59494 172.0
138.612747 120.0
138.712112 140.0
138.808243 156.0
138.878174 168.0
139.012314 144.0
139.085068 184.0
139.444427 144.0
139.604294 152.0
139.95961 180.0
140.006714 212.0
140.050659 212.0
140.124481 148.0
140.197937 188.0
140.388474 264.0
140.47171 140.0
140.716461 176.0
140.747269 160.0
140.786911 172.0
140.815643 236.0
140.981018 180.0
141.056519 216.0
141.127563 192.0
141.399612 168.0
141.6577 196.0
141.721664 168.0
141.740616 168.0
141.855072 232.0
142.043732 108.0
142.127106 204.0
142.172195 216.0
142.193558 196.0
142.276382 188.0
142.379272 160.0
142.400116 196.0
142.659103 260.0
142.973068 196.0
143.030197 148.0
143.061142 176.0
143.135956 104.0
143.282608 144.0
143.361237 168.0
143.699829 204.0
144.041107 184.0
144.270615 152.0
144.428436 180.0
144.646194 164.0
144.809006 176.0
144.907486 180.0
144.931076 184.0
145.074982 192.0
145.22554 192.0
145.331589 224.0
145.391586 212.0
145.509201 160.0
145.586426 244.0
145.646088 168.0
146.033051 140.0
146.095596 204.0
146.379593 216.0
146.459076 184.0
147.011169 204.0
147.095642 148.0
147.124619 148.0
147.725433 200.0
147.767471 160.0
147.900574 376.0
147.999832 176.0
148.028885 176.0
148.047089 200.0
148.123337 212.0
148.152405 140.0
148.191162 152.0
148.234787 200.0
148.319611 148.0
148.411728 188.0
148.46022 216.0
148.822769 148.0
149.050598 1100.0
149.103561 148.0
149.157028 188.0
149.176483 164.0
149.434265 140.0
149.490234 176.0
149.670364 216.0
149.767014 172.0
149.999252 160.0
150.057373 300.0
150.560425 140.0
150.579758 144.0
150.704544 548.0
150.892731 188.0
151.002777 148.0
151.079254 208.0
151.161789 164.0
151.948303 192.0
151.965469 160.0
152.086517 124.0
152.181458 156.0
152.225662 164.0
152.269867 140.0
152.616348 148.0
152.87709 156.0
152.945999 208.0
153.005081 196.0
153.052795 212.0
153.381989 196.0
153.796295 128.0
153.866348 156.0
153.974136 144.0
154.053177 176.0
154.227859 184.0
154.278061 196.0
154.396744 144.0
154.545166 148.0
154.723358 144.0
155.040176 568.0
155.05809 276.0
155.102371 144.0
155.211456 156.0
155.318085 140.0
155.373856 308.0
155.62085 156.0
155.687897 212.0
155.710251 168.0
155.869232 180.0
156.057343 200.0
156.078766 148.0
156.209839 168.0
156.362717 132.0
156.391617 152.0
156.423843 168.0
156.882202 148.0
157.041412 136.0
157.074951 160.0
157.11412 172.0
157.16153 444.0
157.284393 204.0
157.463577 248.0
157.625961 152.0
157.649872 140.0
157.707397 312.0
157.81842 140.0
158.049942 208.0
158.167847 108.0
159.033524 180.0
159.053391 196.0
159.090714 140.0
159.173996 140.0
159.565948 148.0
159.646423 140.0
159.67157 184.0
159.765091 156.0
160.011398 144.0
160.056931 148.0
160.096878 144.0
160.399216 148.0
160.691742 160.0
161.048523 408.0
161.072769 180.0
161.159988 184.0
161.190308 140.0
161.259918 152.0
161.568405 164.0
161.765793 192.0
161.902527 164.0
161.943039 144.0
162.036774 180.0
162.058167 324.0
162.244583 176.0
162.333328 172.0
162.386581 144.0
162.462677 164.0
162.587006 168.0
162.683456 148.0
162.812958 232.0
162.924713 144.0
162.9552 200.0
163.067703 352.0
163.209625 156.0
163.267181 184.0
163.487228 196.0
163.840561 144.0
163.975601 144.0
164.003647 240.0
164.047485 200.0
164.073532 372.0
164.146408 156.0
164.50061 196.0
164.700211 160.0
164.785583 200.0
164.835617 164.0
164.854141 144.0
164.907166 200.0
164.996643 172.0
165.0401 204.0
165.077805 188.0
165.146667 124.0
165.260071 168.0
165.277985 224.0
165.342758 164.0
165.354675 152.0
166.047638 188.0
166.167053 256.0
166.245575 132.0
166.321014 228.0
166.353882 196.0
166.485336 196.0
166.600922 168.0
166.625259 168.0
166.688431 132.0
166.73291 152.0
166.863052 176.0
167.037384 180.0
167.061066 200.0
167.212891 156.0
167.328842 160.0
167.565659 160.0
167.674118 180.0
167.885284 152.0
167.903336 152.0
167.988449 164.0
168.047089 176.0
168.068832 232.0
168.117462 140.0
168.760651 152.0
169.028564 200.0
169.052933 196.0
169.079468 324.0
169.109879 188.0
169.135757 156.0
169.309219 140.0
169.386932 200.0
169.464645 172.0
169.629974 176.0
169.913177 164.0
169.989502 152.0
170.057449 312.0
170.254791 196.0
170.273972 160.0
170.385666 184.0
170.47142 376.0
170.494797 180.0
170.827606 184.0
170.849884 236.0
171.057663 304.0
171.215424 180.0
171.406006 128.0
171.44989 184.0
171.595871 256.0
171.801895 164.0
171.843628 172.0
171.882767 148.0
171.916702 152.0
172.088974 248.0
172.26918 216.0
172.441498 164.0
172.486053 160.0
172.538345 140.0
172.614166 148.0
173.028793 136.0
173.062424 384.0
173.1035 240.0
173.19194 216.0
173.345367 168.0
173.67482 156.0
173.729904 228.0
173.785004 196.0
173.847519 184.0
174.052322 196.0
174.057404 328.0
174.149887 184.0
174.26976 284.0
174.354828 220.0
174.428421 192.0
174.523056 144.0
174.94664 188.0
174.98085 180.0
175.033524 160.0
175.185501 164.0
175.226715 200.0
175.347 164.0
175.559082 148.0
175.594833 140.0
175.652847 204.0
175.718994 112.0
175.813797 176.0
176.00914 188.0
176.035141 248.0
176.062088 300.0
176.130615 140.0
176.261658 100.0
176.598801 152.0
176.658051 152.0
176.976486 160.0
177.046539 540.0
177.073166 220.0
177.114594 252.0
177.150848 192.0
177.225861 148.0
177.26825 148.0
177.314255 144.0
177.331161 200.0
177.37793 148.0
177.448486 176.0
177.485611 200.0
177.581085 228.0
177.645096 148.0
177.949936 164.0
178.050003 752.0
178.076401 168.0
178.126434 112.0
178.167709 156.0
178.20491 236.0
178.228821 140.0
178.313858 164.0
178.37764 196.0
178.422836 212.0
178.532852 188.0
178.586288 140.0
178.614304 148.0
178.64357 168.0
178.981567 160.0
179.013519 196.0
179.066422 460.0
179.118988 168.0
179.178665 216.0
179.346542 144.0
179.4505 140.0
179.530502 200.0
179.550644 152.0
179.909378 160.0
179.946762 180.0
180.069046 276.0
180.131027 152.0
180.262329 136.0
180.350128 156.0
180.547974 176.0
180.733627 188.0
180.794983 216.0
180.917221 140.0
180.948669 192.0
181.04364 136.0
181.333496 108.0
181.495926 188.0
181.557602 216.0
181.623978 128.0
181.718536 152.0
181.922501 176.0
181.965454 196.0
182.005737 204.0
182.064621 148.0
182.099075 116.0
182.21254 176.0
182.30658 152.0
182.346893 200.0
182.509125 180.0
182.675995 132.0
182.908112 176.0
182.967514 168.0
183.001984 144.0
183.027496 160.0
183.07547 396.0
183.191788 152.0
183.305679 116.0
183.420212 176.0
183.562363 112.0
183.584732 176.0
183.833984 228.0
183.990021 184.0
184.062469 244.0
184.08786 332.0
184.133133 172.0
184.251984 228.0
184.35466 160.0
184.606064 212.0
184.660156 140.0
184.8414 264.0
184.863052 168.0
184.984848 164.0
185.030869 172.0
185.071152 596.0
185.237808 164.0
185.307114 320.0
185.431763 156.0
185.529343 216.0
185.612747 216.0
185.892792 188.0
185.933212 188.0
186.05896 436.0
186.103149 176.0
186.229431 184.0
186.346237 188.0
186.381561 164.0
186.644547 160.0
186.692337 148.0
186.714279 160.0
186.750534 160.0
186.954391 164.0
187.067764 488.0
187.126633 124.0
187.301102 152.0
187.459122 184.0
187.617203 188.0
187.673187 188.0
188.004517 140.0
188.062836 1104.0
188.105453 260.0
188.619034 148.0
188.755737 200.0
188.873337 152.0
189.045425 188.0
189.103165 196.0
189.157684 152.0
189.431732 176.0
189.470093 188.0
189.661911 184.0
189.727707 200.0
189.848343 148.0
189.922394 196.0
190.049789 428.0
190.074295 348.0
190.295609 212.0
190.39592 160.0
190.449387 152.0
190.616974 176.0
190.828613 152.0
190.880859 164.0
190.942596 328.0
191.05957 524.0
191.090317 156.0
191.226151 152.0
191.498978 124.0
191.519333 164.0
191.583145 244.0
191.616272 192.0
191.74382 168.0
191.946503 188.0
192.071472 296.0
192.231094 164.0
192.313416 204.0
192.343781 156.0
192.537048 164.0
192.616425 152.0
192.708313 176.0
192.863068 156.0
193.03447 176.0
193.056519 160.0
193.085648 224.0
193.125732 180.0
193.485474 180.0
193.821289 144.0
193.945312 200.0
194.020157 160.0
194.049911 164.0
194.071716 120.0
194.097778 280.0
194.205948 168.0
194.247147 164.0
194.270081 180.0
194.402924 144.0
194.59166 144.0
194.635132 128.0
194.727737 188.0
195.03688 492.0
195.066544 380.0
195.072037 236.0
195.261353 172.0
195.380142 152.0
195.71405 176.0
195.932175 200.0
195.952667 192.0
196.043015 1256.0
196.080368 352.0
196.168106 188.0
196.210861 160.0
196.420013 148.0
196.503632 136.0
196.553925 144.0
196.584625 152.0
197.054977 256.0
197.067719 524.0
197.096527 248.0
197.541626 124.0
197.999176 196.0
198.07547 496.0
198.095978 416.0
198.183975 132.0
198.439117 152.0
198.463547 224.0
198.491531 184.0
198.615784 160.0
198.683105 152.0
198.879532 192.0
198.9048 176.0
198.974976 164.0
199.045731 136.0
199.081131 368.0
199.191208 156.0
199.334503 156.0
199.356979 172.0
199.405319 200.0
199.685547 136.0
199.826584 184.0
200.10495 148.0
200.17276 160.0
200.293869 228.0
200.519272 168.0
200.688812 140.0
200.725052 156.0
200.779831 180.0
200.836746 152.0
201.009964 148.0
201.072769 368.0
201.417313 180.0
201.812149 168.0
201.950714 140.0
202.050491 740.0
202.079163 804.0
202.14592 140.0
202.168549 196.0
202.239304 156.0
202.27327 152.0
202.536606 208.0
202.571533 184.0
202.644257 164.0
202.740601 156.0
202.766113 168.0
202.936188 308.0
203.062424 752.0
203.08728 440.0
203.222656 156.0
203.418472 188.0
203.466736 204.0
203.557587 200.0
203.62291 152.0
203.770706 128.0
203.800964 164.0
204.066727 980.0
204.089951 1024.0
204.276642 172.0
204.362 152.0
204.383759 160.0
204.456848 212.0
204.711594 224.0
204.962769 220.0
205.066742 740.0
205.122375 156.0
205.289093 344.0
205.551514 196.0
205.797302 152.0
205.838654 124.0
205.872742 148.0
206.025009 128.0
206.077072 428.0
206.193451 108.0
206.215576 212.0
206.301315 236.0
206.435593 128.0
206.590149 152.0
206.67598 156.0
206.753235 212.0
206.925751 164.0
206.956482 224.0
207.011368 168.0
207.07016 304.0
207.092087 808.0
207.385544 184.0
207.440643 156.0
207.472183 172.0
207.764694 164.0
207.875046 224.0
208.0672 452.0
208.09494 264.0
208.157013 168.0
208.383469 116.0
208.913803 200.0
208.958969 188.0
209.020248 140.0
209.052216 1320.0
209.095734 528.0
209.152634 140.0
209.27153 108.0
209.464554 160.0
209.509705 152.0
209.584625 172.0
209.645126 156.0
209.748886 144.0
209.8815 148.0
209.991089 352.0
210.017044 140.0
210.059921 2764.0
210.143127 144.0
210.320007 144.0
210.446472 168.0
210.504196 160.0
210.680954 200.0
211.07045 2020.0
211.243927 156.0
211.430878 156.0
211.681702 208.0
211.939499 140.0
212.079605 1912.0
212.359833 156.0
212.396805 188.0
212.578827 156.0
212.621658 164.0
212.665253 136.0
212.711334 196.0
212.962158 204.0
213.03035 204.0
213.050293 156.0
213.085358 440.0
213.134933 196.0
213.460495 172.0
213.509933 164.0
213.600098 148.0
213.623367 196.0
213.686279 228.0
213.715866 176.0
213.734512 176.0
213.763016 184.0
213.960938 164.0
214.052994 1160.0
214.09079 176.0
214.165924 172.0
214.323547 184.0
214.466675 176.0
214.563995 184.0
214.782288 132.0
214.80896 156.0
214.940079 140.0
214.958374 168.0
215.060211 1360.0
215.107422 228.0
215.196014 108.0
215.235519 180.0
215.305145 140.0
215.413208 152.0
215.774902 204.0
215.854523 212.0
215.894363 228.0
216.003693 208.0
216.059494 2248.0
216.21434 144.0
216.426056 160.0
216.668518 164.0
216.873322 176.0
216.93103 152.0
216.993515 212.0
217.022827 180.0
217.07312 3140.0
217.103821 300.0
217.272125 176.0
217.382996 208.0
217.539261 152.0
217.570724 204.0
217.628754 140.0
217.826721 156.0
217.959152 216.0
218.074799 1024.0
218.254471 196.0
218.291901 192.0
218.376602 160.0
218.414841 248.0
218.458969 140.0
218.585617 168.0
218.729111 144.0
219.034943 168.0
219.086349 976.0
219.336288 184.0
219.421967 172.0
219.557602 156.0
219.613632 164.0
219.663788 156.0
219.722778 140.0
219.876221 144.0
220.03833 268.0
220.092529 192.0
220.121246 184.0
220.186371 152.0
220.240982 140.0
220.376617 148.0
220.552567 196.0
220.721802 164.0
220.931076 160.0
220.960663 156.0
221.050797 1152.0
221.07814 536.0
221.15892 168.0
221.437241 152.0
221.543869 160.0
221.730774 140.0
221.834274 140.0
221.902466 140.0
221.970581 200.0
222.0495 912.0
222.08432 612.0
222.121918 232.0
222.252457 172.0
222.277618 108.0
222.351593 176.0
222.465225 104.0
222.614594 156.0
222.913101 172.0
222.962158 200.0
222.993225 168.0
223.062317 1004.0
223.109177 500.0
223.23497 188.0
223.411148 200.0
223.455688 148.0
223.55098 196.0
223.637299 216.0
223.920532 180.0
223.975235 112.0
224.020096 208.0
224.073959 2828.0
224.116577 748.0
224.241196 156.0
224.340271 220.0
224.405853 180.0
224.523529 172.0
224.548996 196.0
224.64444 144.0
224.891754 176.0
225.014496 156.0
225.088806 920.0
225.233154 212.0
225.329758 172.0
225.396805 140.0
225.537781 116.0
225.629929 168.0
225.6987 200.0
225.820404 160.0
225.863174 180.0
226.005722 160.0
226.086823 460.0
226.291122 152.0
226.659531 196.0
226.925552 164.0
226.962265 236.0
227.058228 180.0
227.101227 436.0
227.553345 180.0
227.851578 212.0
227.897934 256.0
227.988876 184.0
228.031799 660.0
228.061188 388.0
228.113159 424.0
228.229355 204.0
228.277466 200.0
228.418823 248.0
228.550964 152.0
228.584305 140.0
228.805527 200.0
228.869171 188.0
228.957581 204.0
229.071991 1136.0
229.209 132.0
229.23172 160.0
229.290482 128.0
229.360031 196.0
229.441193 152.0
229.560287 220.0
229.615662 144.0
229.751129 176.0
229.952484 172.0
230.024246 144.0
230.071716 16288.0
230.200027 152.0
230.253815 168.0
230.321838 144.0
230.407684 192.0
230.482346 140.0
230.57872 180.0
230.61058 152.0
230.745056 252.0
230.826187 188.0
230.924042 180.0
230.991882 300.0
231.078201 10648.0
231.774399 204.0
231.845688 148.0
231.86908 224.0
232.003311 192.0
232.083206 1876.0
232.369308 176.0
232.444946 120.0
232.518341 160.0
232.633255 256.0
232.860321 128.0
232.913666 168.0
232.955246 168.0
233.007828 176.0
233.052704 472.0
233.088684 840.0
233.144562 176.0
233.348221 140.0
233.497223 156.0
233.58847 220.0
233.727097 184.0
233.806473 196.0
233.951508 200.0
234.062363 620.0
234.107254 500.0
234.184219 160.0
234.294708 152.0
234.418076 140.0
234.466049 140.0
234.68483 180.0
234.742752 144.0
234.771057 144.0
234.928802 140.0
235.068085 3124.0
235.207413 120.0
235.803787 144.0
236.069733 2448.0
236.133545 192.0
236.178391 156.0
236.406082 120.0
236.438217 184.0
236.55632 136.0
236.592041 204.0
236.774765 176.0
236.869919 172.0
237.036224 220.0
237.082687 5972.0
237.16481 220.0
237.219025 164.0
237.302032 372.0
237.430817 136.0
237.601715 132.0
237.921753 192.0
237.975815 132.0
238.081146 3244.0
238.259567 188.0
238.348679 148.0
238.98822 168.0
239.03746 240.0
239.087982 1088.0
239.159012 244.0
239.368607 104.0
239.610275 184.0
239.773468 188.0
239.995117 172.0
240.056808 120.0
240.105591 352.0
240.115005 112.0
240.384064 208.0
240.588547 132.0
240.976379 144.0
241.075867 288.0
241.126022 136.0
241.241226 168.0
241.338516 180.0
241.533356 200.0
241.565002 172.0
241.759201 216.0
241.800491 156.0
241.944916 204.0
242.072021 940.0
242.103088 240.0
242.146744 156.0
242.657471 160.0
242.850708 192.0
243.004837 152.0
243.041428 152.0
243.086945 688.0
243.526352 168.0
243.591583 200.0
243.88678 156.0
244.035477 196.0
244.087265 2624.0
244.12587 104.0
244.490921 128.0
244.72049 156.0
244.785873 160.0
245.016357 144.0
245.095612 1916.0
245.248428 184.0
245.636719 148.0
245.708466 148.0
245.786469 164.0
245.876953 240.0
246.043808 1396.0
246.100586 1776.0
246.208817 176.0
246.232864 140.0
246.282837 160.0
246.48703 200.0
246.672897 216.0
246.779709 156.0
246.83609 128.0
247.044144 192.0
247.111511 496.0
247.236404 144.0
247.295868 212.0
247.551727 180.0
247.73111 288.0
247.840759 148.0
247.950912 212.0
248.028381 148.0
248.051758 308.0
248.094208 336.0
248.19577 168.0
248.66362 180.0
248.897812 176.0
249.037872 332.0
249.099579 596.0
249.277328 200.0
249.38475 156.0
249.626816 148.0
249.758911 144.0
249.848145 228.0
249.921585 124.0
249.957108 172.0
250.004684 240.0
250.042984 276.0
250.08461 1852.0
250.161682 156.0
250.185593 188.0
250.248352 144.0
250.334854 192.0
250.375793 144.0
250.400238 204.0
250.578033 176.0
250.643555 148.0
250.675522 188.0
250.714615 152.0
250.739136 144.0
250.772751 148.0
250.8358 152.0
250.886322 148.0
250.943954 156.0
251.013275 168.0
251.04332 680.0
251.086197 66516.0
251.159927 100.0
251.255661 196.0
251.320312 120.0
251.458313 208.0
251.790756 120.0
251.830154 152.0
251.872726 160.0
251.95369 96.0
252.090897 9708.0
252.453445 128.0
252.512115 180.0
252.646576 160.0
252.744476 132.0
252.862656 104.0
252.993484 180.0
253.103317 1236.0
253.232529 172.0
253.40506 156.0
253.461243 164.0
253.515839 104.0
253.576904 104.0
253.694595 144.0
253.836258 100.0
253.87645 284.0
254.038727 164.0
254.103638 344.0
254.28978 160.0
254.319061 196.0
254.559616 148.0
254.614792 112.0
254.805191 284.0
254.858856 176.0
254.880951 240.0
255.023453 148.0
255.054001 188.0
255.09346 280.0
255.649979 140.0
255.688171 144.0
256.050201 252.0
256.086029 1148.0
256.423859 156.0
256.890686 224.0
257.055359 728.0
257.09494 1088.0
257.174683 160.0
257.515015 144.0
257.571655 136.0
257.684296 156.0
257.752228 108.0
258.054474 608.0
258.105499 516.0
258.202148 176.0
258.390869 184.0
258.54126 156.0
258.758728 204.0
258.967072 148.0
259.061462 144.0
259.096863 356.0
259.364349 264.0
259.415649 188.0
259.585571 176.0
259.826141 172.0
259.896973 148.0
260.072662 140.0
260.113953 692.0
260.148224 188.0
260.53241 168.0
260.725189 156.0
260.812073 124.0
261.048126 484.0
261.116089 152.0
261.397308 196.0
261.748169 180.0
261.976837 156.0
262.077271 488.0
262.109924 632.0
262.837646 152.0
262.865112 132.0
263.059631 352.0
263.096008 384.0
263.15509 128.0
263.210236 156.0
263.291046 272.0
263.580322 200.0
263.681122 212.0
263.948425 136.0
264.056488 3628.0
264.096039 2072.0
264.527924 184.0
264.576477 180.0
264.612091 184.0
264.731903 196.0
264.825836 392.0
264.978058 160.0
265.061371 1548.0
265.102539 3480.0
265.185944 132.0
265.318634 140.0
265.748322 136.0
266.036591 120.0
266.124481 1792.0
266.165161 184.0
266.473724 188.0
266.560913 248.0
266.845917 116.0
266.943329 152.0
267.059814 152.0
267.120941 1044.0
267.211761 180.0
267.481873 152.0
267.6362 176.0
267.660919 152.0
267.977936 232.0
268.028076 156.0
268.065247 1452.0
268.128906 1052.0
268.199829 152.0
268.469055 184.0
268.844208 148.0
268.948395 152.0
268.955353 140.0
269.066406 264.0
269.104248 420.0
269.117279 220.0
269.132751 344.0
269.495087 196.0
269.66394 156.0
270.043213 164.0
270.103516 1268.0
270.238525 124.0
270.326477 116.0
270.409637 172.0
270.635498 120.0
270.858215 200.0
270.907349 148.0
270.967102 100.0
271.011353 188.0
271.106537 1472.0
271.166199 200.0
271.444855 184.0
271.567566 160.0
271.621948 148.0
271.822845 136.0
271.851624 224.0
271.925842 136.0
272.0672 164.0
272.118103 2768.0
272.353912 204.0
272.390045 196.0
272.639587 152.0
272.767944 144.0
272.794037 212.0
272.83551 176.0
272.88739 212.0
272.92865 168.0
273.076965 268.0
273.114777 1732.0
273.187958 128.0
273.359924 172.0
273.600128 156.0
273.613281 152.0
273.830688 180.0
274.13089 916.0
274.19751 144.0
274.249146 200.0
274.293213 160.0
274.390869 148.0
274.53595 156.0
274.681091 176.0
274.819244 228.0
274.909973 200.0
275.024231 152.0
275.087006 284.0
275.134277 332.0
275.174805 144.0
275.197052 168.0
275.355835 180.0
275.56012 132.0
275.597168 176.0
275.668243 164.0
275.694672 156.0
275.79715 184.0
275.859955 140.0
275.886383 184.0
275.982269 148.0
276.090393 376.0
276.263397 168.0
276.491699 152.0
276.514862 188.0
276.544647 164.0
277.063995 9200.0
277.119934 144.0
277.201965 156.0
277.26001 140.0
277.33548 160.0
277.432373 212.0
277.468842 144.0
277.494446 172.0
277.575134 192.0
277.624695 156.0
277.671112 172.0
277.787201 140.0
278.070587 1220.0
278.10968 292.0
278.167694 132.0
278.411194 152.0
278.497528 160.0
278.587097 196.0
278.665955 184.0
278.906738 176.0
278.97934 156.0
279.07373 448.0
279.108032 740.0
279.291931 140.0
279.524658 188.0
279.717834 176.0
280.050354 172.0
280.117798 356.0
280.244965 168.0
280.508331 260.0
280.967499 224.0
281.071747 956.0
281.117645 152.0
281.384674 160.0
281.514893 156.0
281.630493 124.0
282.068329 156.0
282.126312 188.0
282.193176 152.0
282.310211 168.0
282.838837 144.0
283.064819 120.0
283.159607 164.0
283.421539 152.0
283.606934 188.0
283.802887 144.0
284.116913 344.0
284.267639 160.0
284.501495 256.0
284.719757 212.0
284.773926 212.0
284.954865 188.0
284.998566 224.0
285.119354 276.0
285.489319 156.0
285.534424 156.0
285.575073 144.0
285.744965 156.0
285.926666 240.0
286.027649 140.0
286.065247 188.0
286.129242 2228.0
286.27005 164.0
286.448547 164.0
286.603516 172.0
286.630463 196.0
286.733185 160.0
286.842804 296.0
286.88324 160.0
286.931488 220.0
287.004608 140.0
287.03833 184.0
287.131805 1572.0
287.279541 160.0
287.743103 236.0
287.897705 180.0
287.927917 156.0
288.052826 208.0
288.07489 160.0
288.141388 1168.0
288.3414 160.0
288.621979 192.0
288.987274 168.0
289.014343 184.0
289.079437 164.0
289.146301 224.0
289.575897 172.0
289.906677 152.0
290.033691 228.0
290.067169 328.0
290.114655 596.0
290.155731 180.0
290.311615 204.0
290.517517 152.0
290.640717 156.0
290.800232 188.0
290.84436 152.0
290.933807 180.0
291.065033 156.0
291.117584 1048.0
291.222382 132.0
291.37149 148.0
291.425049 180.0
291.651337 144.0
291.746033 208.0
291.781921 360.0
291.815918 124.0
291.870117 196.0
291.945129 164.0
291.98291 356.0
292.019135 172.0
292.056885 296.0
292.125153 56540.0
292.210114 148.0
292.307983 132.0
292.385132 204.0
292.412506 144.0
292.661774 152.0
292.742249 96.0
292.792511 140.0
292.933197 128.0
293.000488 176.0
293.046997 256.0
293.074371 156.0
293.127533 11396.0
293.20578 144.0
293.236633 144.0
293.297668 152.0
293.554535 152.0
293.67926 196.0
293.861786 116.0
293.891602 104.0
293.99588 204.0
294.132904 1636.0
294.360931 104.0
294.463654 160.0
294.540497 136.0
294.7435 108.0
294.863983 180.0
294.937714 112.0
295.077911 416.0
295.145813 200.0
295.208649 180.0
295.286926 136.0
295.332642 112.0
295.494202 132.0
295.563751 104.0
295.629425 180.0
295.655701 172.0
295.691803 176.0
295.722443 156.0
296.077972 268.0
296.318665 176.0
296.653503 232.0
296.814636 180.0
296.896851 136.0
296.971924 120.0
297.028656 128.0
297.092163 632.0
297.16748 120.0
297.226532 100.0
297.500824 220.0
297.712921 144.0
298.132019 120.0
298.455933 272.0
298.50647 120.0
298.60379 184.0
298.956421 128.0
299.099915 532.0
299.128235 996.0
299.171906 196.0
299.264496 196.0
299.363403 172.0
299.473877 164.0
299.577789 144.0
300.089722 196.0
300.146942 208.0
300.322449 180.0
300.353485 156.0
300.427765 144.0
300.626038 148.0
300.902191 220.0
301.08194 140.0
301.301178 120.0
301.396088 216.0
301.472107 156.0
302.112671 396.0
302.360291 140.0
302.505432 200.0
302.731293 140.0
303.09198 160.0
303.171265 188.0
303.2995 184.0
303.44162 152.0
303.941071 164.0
303.975769 168.0
304.085724 292.0
304.128021 404.0
304.486603 136.0
304.618073 144.0
304.812439 368.0
304.860046 168.0
304.929382 120.0
305.003754 160.0
305.038757 116.0
305.084167 456.0
305.134399 196.0
305.539673 144.0
305.597748 100.0
305.752838 140.0
305.996124 168.0
306.090424 396.0
306.139618 4896.0
306.580383 180.0
306.702362 148.0
306.782623 152.0
307.146179 1348.0
307.232391 168.0
307.275665 168.0
307.745453 144.0
307.790833 144.0
307.906067 184.0
308.084076 100.0
308.141418 1044.0
308.274567 148.0
308.307831 240.0
308.332275 144.0
308.378998 96.0
308.702759 152.0
308.801819 132.0
308.886749 200.0
309.007172 216.0
309.077026 208.0
309.173248 416.0
309.543732 268.0
309.610107 120.0
309.672272 140.0
310.101196 160.0
310.138489 312.0
310.170532 328.0
311.081818 152.0
311.120178 140.0
311.152039 156.0
311.387299 140.0
311.416077 144.0
311.551971 164.0
311.704376 204.0
311.854584 176.0
311.98114 172.0
312.019806 172.0
312.092438 184.0
312.136475 1308.0
312.304626 176.0
312.747955 172.0
312.960815 180.0
313.103119 192.0
313.153107 572.0
313.188019 200.0
313.279663 156.0
313.33252 232.0
313.628204 136.0
314.153473 1208.0
314.573517 164.0
314.679749 208.0
314.919891 208.0
315.016479 176.0
315.043518 180.0
315.156982 316.0
315.322113 208.0
315.541809 140.0
315.594849 204.0
316.114807 176.0
316.165894 176.0
316.493561 188.0
316.521912 152.0
316.741699 216.0
316.805237 172.0
316.912628 180.0
317.157196 184.0
317.666656 168.0
317.702118 160.0
317.829834 180.0
317.964691 220.0
318.017517 104.0
318.104218 8360.0
318.330353 240.0
318.813477 232.0
319.106812 1504.0
319.197388 188.0
319.263306 148.0
319.311188 156.0
319.394897 112.0
319.620667 148.0
319.817444 152.0
320.097534 156.0
320.120361 280.0
320.169464 200.0
320.443146 184.0
320.728241 160.0
320.978699 176.0
321.087463 260.0
321.155273 204.0
321.528839 172.0
321.78772 152.0
322.374481 164.0
322.652313 164.0
322.759583 180.0
322.974152 148.0
323.131592 408.0
323.38562 156.0
324.321442 156.0
324.490204 168.0
324.52478 204.0
324.553467 140.0
324.768646 176.0
325.15799 216.0
325.486389 164.0
326.140228 328.0
326.611237 192.0
326.837891 144.0
326.943787 204.0
327.104218 212.0
327.160034 1668.0
327.226593 156.0
327.574738 156.0
327.742798 100.0
327.820435 144.0
327.862366 184.0
327.928772 164.0
327.991821 136.0
328.078674 188.0
328.116486 276.0
328.165833 584.0
328.231873 160.0
328.494476 152.0
328.906494 168.0
329.022522 176.0
329.056976 212.0
329.097839 156.0
329.176056 1136.0
329.529816 120.0
329.592682 156.0
329.695251 196.0
330.073425 220.0
330.130981 188.0
330.181824 340.0
330.248718 152.0
330.338745 188.0
330.746063 116.0
331.582977 168.0
331.77478 144.0
332.056061 120.0
332.1539 1372.0
332.349762 152.0
332.544098 212.0
332.823608 232.0
333.045135 176.0
333.125244 140.0
333.404205 168.0
334.118683 444.0
334.313965 272.0
334.348175 220.0
334.827271 192.0
334.856415 172.0
335.155762 384.0
335.342682 96.0
335.373779 160.0
335.503052 112.0
335.895203 204.0
336.113373 2092.0
336.417023 172.0
336.452271 172.0
336.763916 148.0
336.968475 164.0
337.115906 744.0
337.275452 168.0
337.407043 180.0
337.728821 176.0
338.106049 120.0
338.134949 164.0
338.193512 156.0
338.29599 200.0
338.81189 160.0
338.911285 160.0
339.065186 168.0
339.15683 204.0
339.347443 160.0
339.417114 156.0
339.525085 108.0
340.187561 180.0
340.311798 148.0
340.39682 172.0
340.547394 176.0
340.639221 192.0
340.988281 164.0
341.027893 144.0
341.742126 172.0
341.767883 140.0
341.826752 152.0
341.856201 168.0
341.996033 192.0
342.169067 184.0
342.306091 148.0
342.496796 200.0
342.773102 272.0
342.820465 136.0
343.096497 172.0
343.440399 252.0
343.676483 320.0
343.927429 176.0
344.019714 160.0
344.268372 116.0
344.547821 176.0
344.820465 172.0
345.13916 168.0
345.231598 220.0
345.404419 176.0
346.008636 184.0
346.112305 140.0
346.234497 172.0
346.33078 144.0
346.716095 188.0
346.753174 148.0
346.856934 168.0
346.953339 164.0
347.168732 628.0
347.249115 208.0
347.643219 196.0
347.707733 156.0
347.772095 144.0
347.808105 204.0
348.172577 148.0
348.240387 164.0
348.294556 196.0
348.36734 144.0
348.447144 188.0
348.519043 144.0
348.668182 200.0
348.694794 152.0
348.731354 172.0
348.772247 140.0
348.843048 204.0
348.900238 140.0
348.970398 184.0
349.014374 128.0
349.083405 348.0
349.183075 65784.0
349.328125 144.0
349.384827 228.0
349.512207 128.0
349.588654 144.0
349.822876 172.0
349.890472 128.0
349.918884 112.0
350.091675 276.0
350.185547 15064.0
350.337341 128.0
350.433319 116.0
350.530182 136.0
350.61319 108.0
351.011139 136.0
351.093842 192.0
351.188934 1464.0
351.71109 172.0
352.188263 240.0
352.265778 160.0
352.301422 224.0
352.351105 96.0
352.527588 192.0
352.573273 104.0
352.98877 156.0
353.104279 100.0
353.144836 140.0
353.322845 108.0
353.592621 164.0
353.976654 104.0
354.10025 176.0
354.192871 128.0
355.122955 176.0
355.163666 252.0
355.236877 148.0
355.277344 116.0
355.78009 168.0
356.153015 596.0
356.685394 144.0
356.906006 112.0
357.228973 192.0
357.727386 164.0
357.803955 188.0
358.00705 116.0
358.132294 268.0
358.162903 132.0
358.2948 200.0
358.352539 264.0
358.669067 144.0
359.129089 208.0
359.232452 216.0
359.32901 292.0
359.419556 176.0
359.759247 160.0
360.624237 184.0
360.869965 160.0
361.335144 148.0
361.450745 124.0
361.663269 136.0
362.012665 192.0
362.18689 152.0
362.72876 184.0
363.028259 212.0
363.261261 204.0
363.5159 168.0
364.387115 204.0
365.223419 156.0
366.03595 104.0
366.136871 188.0
366.321503 152.0
366.591644 168.0
366.658783 168.0
366.749146 116.0
366.778687 176.0
366.818878 152.0
366.940857 200.0
367.367981 172.0
367.593109 172.0
367.666229 144.0
367.831116 144.0
368.494202 160.0
368.685272 220.0
368.962494 228.0
369.22049 204.0
369.277832 160.0
369.364685 160.0
369.560913 152.0
369.66153 164.0
370.330383 152.0
370.445282 148.0
370.529572 196.0
370.770966 184.0
371.147675 160.0
371.461121 152.0
372.493683 204.0
372.820282 184.0
372.862549 152.0
372.909698 148.0
372.95929 140.0
373.17218 300.0
373.27005 188.0
373.839355 156.0
374.17807 140.0
374.278168 176.0
374.389862 316.0
374.634094 112.0
375.061401 172.0
375.101074 216.0
375.161407 8148.0
375.279602 132.0
375.345032 156.0
375.542206 148.0
375.601837 104.0
375.916412 184.0
375.953705 96.0
376.166107 1468.0
376.252197 192.0
376.545959 104.0
377.040588 112.0
377.168915 264.0
377.233429 208.0
377.344971 136.0
377.596893 216.0
377.821228 176.0
378.382416 316.0
378.43158 148.0
378.486938 156.0
378.604279 184.0
378.661194 232.0
378.725983 144.0
378.820007 148.0
378.895172 168.0
379.132721 268.0
379.257233 124.0
379.31601 140.0
379.563019 140.0
379.715363 144.0
379.905426 148.0
380.243011 152.0
380.270172 252.0
380.298401 192.0
380.421387 252.0
380.510834 156.0
380.570831 180.0
380.732178 232.0
380.868744 200.0
381.141876 280.0
381.244965 140.0
381.510651 160.0
381.680328 184.0
381.761993 212.0
381.96814 232.0
382.010925 184.0
382.038147 296.0
382.083069 136.0
382.419495 252.0
382.598541 160.0
383.017029 120.0
383.050262 160.0
383.077545 212.0
383.112579 192.0
383.24115 160.0
383.486664 160.0
383.966217 168.0
384.063721 176.0
384.184631 176.0
384.223663 140.0
384.473389 160.0
384.559235 188.0
384.976959 204.0
385.276886 188.0
385.387115 168.0
385.61377 164.0
385.844391 152.0
386.037201 128.0
386.208069 184.0
386.364532 316.0
386.564087 184.0
386.902283 136.0
386.947113 172.0
387.210022 140.0
387.253082 160.0
387.413696 404.0
387.456635 204.0
387.639404 236.0
387.970154 144.0
388.083862 188.0
388.376862 196.0
388.425049 176.0
388.495667 200.0
388.611847 168.0
388.727142 140.0
388.768097 148.0
388.826233 160.0
388.866028 112.0
389.000641 228.0
389.097778 116.0
389.386658 140.0
389.414154 96.0
389.50705 192.0
389.565826 208.0
389.694519 192.0
389.99173 148.0
390.03299 136.0
390.309296 128.0
390.395721 248.0
390.443115 128.0
390.473145 140.0
390.525574 140.0
390.564209 140.0
390.613831 140.0
390.671844 208.0
390.826233 156.0
390.859741 100.0
390.89624 108.0
390.995605 176.0
391.156647 332.0
391.278351 196.0
391.326477 120.0
391.401917 156.0
391.463257 104.0
391.50708 120.0
391.588959 100.0
391.60144 148.0
391.663879 208.0
391.716583 276.0
391.768921 144.0
391.800018 336.0
391.852325 176.0
391.895325 204.0
391.97818 152.0
392.009583 216.0
392.02356 260.0
392.03952 136.0
392.119843 196.0
392.170898 340.0
392.230988 264.0
392.2435 208.0
392.321808 348.0
392.374573 456.0
392.413208 136.0
392.456787 156.0
392.504974 388.0
392.561737 236.0
392.605743 300.0
392.681732 208.0
392.712219 200.0
392.744324 332.0
392.790009 324.0
392.837982 276.0
392.880768 308.0
392.932983 436.0
392.990509 628.0
393.01947 556.0
393.062531 536.0
393.10257 1288.0
393.175446 210380.0
393.28656 312.0
393.314758 176.0
393.44278 200.0
393.484528 336.0
393.543121 628.0
393.595703 396.0
393.637848 552.0
393.702362 284.0
393.740326 284.0
393.777039 312.0
393.826874 7372.0
393.86911 492.0
393.910614 200.0
393.967896 284.0
394.036407 288.0
394.17749 115912.0
394.308716 148.0
394.390137 212.0
394.435608 160.0
394.480652 164.0
394.591156 208.0
394.667847 116.0
394.770355 268.0
394.829895 496.0
394.925201 192.0
394.975983 368.0
395.177277 14436.0
395.27066 152.0
395.406891 136.0
395.451721 108.0
395.492188 172.0
395.531311 148.0
395.67038 248.0
395.797791 120.0
395.846252 152.0
395.954346 156.0
396.026215 136.0
396.094208 188.0
396.132721 460.0
396.180878 552.0
396.259735 216.0
396.327606 224.0
396.360291 232.0
396.418671 296.0
396.453979 468.0
396.542114 336.0
396.627167 192.0
396.688751 324.0
396.716248 304.0
396.753052 312.0
396.800903 248.0
396.886688 328.0
396.94223 256.0
397.11499 128.0
397.16687 124.0
397.208588 188.0
397.520599 248.0
397.584686 156.0
397.644196 108.0
397.677734 220.0
397.783478 120.0
397.894287 124.0
397.9664 176.0
398.072815 160.0
398.224213 140.0
398.345367 140.0
398.448578 120.0
398.635162 100.0
398.78418 104.0
398.893341 112.0
399.152161 116.0
399.364044 104.0
399.739471 160.0
400.122559 140.0
401.123383 104.0
404.564331 104.0
406.375488 108.0
406.549744 96.0
406.82428 144.0
407.485474 172.0
408.202667 116.0
408.33963 108.0
410.376617 152.0
410.708252 132.0
414.033203 96.0
434.221741 148.0
444.135925 148.0
450.496307 140.0
504.298187 160.0
521.138977 148.0
526.294922 148.0
555.310791 108.0
571.501953 144.0
573.554443 144.0
614.458008 124.0
632.73938 144.0
645.190918 144.0
652.289917 100.0
697.786621 144.0
709.268433 164.0
736.726135 148.0
746.854187 136.0
750.206177 140.0
764.837402 184.0
820.550964 152.0
830.764893 152.0
928.684509 168.0
1005.40979 192.0
1041.510376 140.0
1113.947266 140.0
1326.965454 172.0
1332.771851 148.0
1443.610596 160.0
1485.790039 136.0
1543.731201 168.0
1567.862915 208.0
1642.590942 212.0
1679.807739 168.0
1686.07019 148.0
1752.924683 144.0
1759.06311 140.0
1773.860718 200.0
1778.029175 160.0
1799.485474 164.0
1811.036865 148.0
1821.750122 196.0
1823.245483 140.0
1826.067993 204.0
1832.14563 216.0
1839.146362 192.0
1854.773438 148.0
1856.11084 204.0
1856.291016 204.0
1860.512207 212.0
1862.616089 204.0
1867.60144 224.0
1867.919678 140.0
1874.445557 168.0
1889.330444 196.0
1898.320801 176.0
1901.287598 152.0
1906.046387 180.0
1907.315186 148.0
1941.601685 144.0
1943.426147 168.0
1951.875854 176.0
1954.435547 220.0
1956.239624 144.0
1985.849121 164.0
1988.013794 172.0
1989.300781 148.0
1990.51709 200.0
1994.159424 164.0
1994.523804 168.0
1995.28833 172.0
