>compound MLS001240224-01!sildenafil
>formula C22H30N6O4S
>ionization [M+H]+
>parentmass 475.211151
#inchi InChI=1S/C22H30N6O4S/c1-5-7-17-19-20(27(4)25-17)22(29)24-21(23-19)16-14-15(8-9-18(16)32-6-2)33(30,31)28-12-10-26(3)11-13-28/h8-9,14H,5-7,10-13H2,1-4H3,(H,23,24,29)
#inchikey BNRNXUUZRGQAQC
#Ion_Source LC-ESI
#Instrument qTof
#Compound_Source NIH Pharmacologically Active Library
#PI Dorrestein
#Data_Collector VP/LMS
#Scan -1
#Precursor_MZ 475.215
#ExactMass 474.205
#Charge 1
#CAS_Number N/A
#Pubmed_ID N/A
#Smiles CCCc1nn(C)c2c(O)nc(nc12)c3cc(ccc3OCC)S(=O)(=O)N4CCN(C)CC4
#INCHI_AUX N/A
#Library_Class 1
#SpectrumID CCMSLIB00000085187
#IonMode Positive
#UpdateWorkflowName UPDATE-SINGLE-ANNOTATED-GOLD
#LibraryQualityString Gold
#TaskID d252d724072548979f1f6f1ced849daf
##Scan# 1652
#SpectrumFile p3-F09_GF9_01_18290.mzXML
#LibraryName Pharm_Active_Library.mgf
#MQScore -1
#Organism Pharm_Active_Library
#TIC_Query 0
#RT_Query -1
#MZErrorPPM -1
#SharedPeaks 0
#MassDiff 0
#LibMZ -1
#SpecMZ 475.215
#SpecCharge 0
#internalFilename spec-00000.mgf

>collision 10
45.297611 160.0
45.508183 204.0
45.53101 160.0
45.748856 180.0
45.847187 236.0
45.866058 168.0
46.340439 184.0
46.819984 80.0
46.901741 168.0
46.929008 176.0
46.948101 48.0
47.484249 132.0
47.495224 200.0
48.00827 152.0
48.104858 176.0
49.04821 208.0
49.491104 232.0
49.706985 172.0
49.886776 56.0
50.425266 148.0
50.820389 200.0
51.144428 180.0
51.362453 176.0
51.416676 180.0
51.540924 196.0
51.666752 80.0
52.437912 80.0
52.72369 104.0
52.842274 164.0
53.432808 108.0
53.699402 112.0
54.099804 204.0
54.420902 156.0
54.497284 112.0
54.531086 232.0
54.728226 128.0
54.801876 212.0
54.813663 44.0
55.151653 84.0
55.734112 188.0
55.772755 216.0
56.203178 176.0
56.224072 144.0
56.774651 136.0
57.542118 156.0
57.661461 76.0
57.705303 184.0
57.929298 80.0
58.082413 164.0
58.363388 204.0
58.629803 156.0
59.042027 144.0
59.198135 208.0
59.463371 104.0
60.023384 96.0
60.058857 96.0
60.222477 172.0
60.411892 136.0
60.45285 64.0
60.745701 96.0
60.959976 120.0
61.05637 208.0
61.321056 204.0
62.413837 140.0
62.530258 96.0
62.70509 112.0
62.869118 136.0
63.235798 188.0
63.40369 112.0
63.608311 132.0
63.954849 180.0
64.276794 116.0
64.297546 184.0
64.495605 212.0
64.883026 212.0
65.183189 164.0
65.603294 196.0
65.779137 180.0
66.027985 224.0
66.445923 100.0
66.923798 52.0
67.297203 128.0
67.517815 64.0
67.678192 148.0
67.73439 232.0
67.773201 176.0
68.426941 60.0
68.451637 180.0
68.662598 208.0
68.736832 204.0
69.446602 116.0
69.507988 44.0
69.877502 128.0
70.841896 116.0
71.118591 160.0
71.321846 168.0
71.431152 176.0
71.547272 196.0
71.744392 224.0
71.956978 164.0
71.990753 112.0
72.394951 156.0
72.689926 180.0
72.971909 156.0
72.99231 100.0
73.239098 128.0
73.293617 168.0
73.694611 156.0
74.017914 140.0
74.077858 228.0
74.117271 224.0
74.163544 140.0
74.465538 112.0
74.948967 132.0
75.397667 136.0
75.418404 132.0
75.828636 152.0
76.259094 212.0
76.891357 92.0
77.069481 120.0
77.267067 188.0
77.534256 192.0
77.619141 116.0
77.662987 132.0
77.677017 132.0
79.249702 128.0
79.631119 140.0
79.648888 192.0
79.709297 116.0
79.846184 140.0
80.232605 184.0
80.430626 236.0
80.730797 80.0
80.952713 40.0
81.219772 124.0
81.616692 100.0
81.67424 128.0
81.94249 172.0
82.454994 168.0
82.47126 188.0
82.574326 224.0
82.925591 124.0
82.985413 184.0
83.09243 164.0
83.279411 176.0
84.292267 220.0
84.356377 180.0
84.442322 76.0
84.482559 84.0
85.911903 132.0
86.048477 176.0
86.061401 184.0
87.035408 124.0
87.327187 136.0
87.375557 148.0
87.794678 148.0
88.0429 160.0
88.108276 136.0
88.312042 152.0
88.401855 148.0
88.516045 160.0
88.795296 64.0
88.958542 160.0
89.043045 136.0
89.144501 128.0
89.332527 160.0
89.835533 188.0
90.090393 184.0
90.49704 216.0
90.667534 196.0
90.750946 176.0
91.223694 132.0
91.244614 176.0
91.861671 72.0
92.260811 268.0
92.75473 172.0
92.933098 172.0
93.009865 92.0
93.180786 248.0
93.232666 76.0
93.259575 164.0
93.378792 212.0
93.756157 124.0
94.273384 108.0
94.362305 204.0
94.402908 48.0
94.720337 172.0
94.755211 216.0
94.85405 236.0
95.529861 208.0
95.568497 140.0
95.730339 112.0
95.855019 172.0
96.005135 108.0
96.254929 96.0
96.327194 92.0
96.720253 128.0
97.074768 528.0
97.642471 172.0
97.849098 192.0
97.933777 60.0
98.081993 632.0
98.405113 180.0
98.559181 124.0
98.669876 144.0
98.737106 148.0
99.014198 160.0
99.028061 120.0
99.063141 248.0
99.090317 7820.0
99.149086 48.0
99.170723 128.0
99.226234 200.0
99.45636 76.0
99.486137 48.0
99.613235 172.0
99.666878 52.0
99.708611 148.0
99.746384 56.0
99.766258 44.0
99.895531 188.0
100.044785 164.0
100.097992 5456.0
100.216072 132.0
100.473282 156.0
100.682877 200.0
100.884697 56.0
100.902695 228.0
101.101822 756.0
101.513428 236.0
101.599678 124.0
101.818481 80.0
101.874725 140.0
102.109909 168.0
102.268867 92.0
102.313156 96.0
102.331276 64.0
102.569 40.0
102.766953 132.0
103.842903 96.0
104.433983 44.0
104.792282 160.0
105.437141 228.0
105.713234 184.0
106.182396 188.0
106.254196 200.0
106.342438 204.0
106.365021 148.0
106.570396 128.0
107.05175 212.0
107.127853 144.0
107.156807 132.0
107.329956 208.0
108.100487 168.0
109.066727 156.0
110.483009 144.0
111.050705 144.0
111.57991 284.0
111.657715 188.0
111.73555 156.0
112.669548 136.0
112.758301 168.0
112.969757 60.0
113.00573 116.0
114.183098 152.0
114.234154 120.0
114.257553 120.0
115.045708 232.0
115.208427 76.0
115.452103 92.0
115.511993 220.0
115.533386 152.0
115.850243 68.0
115.87381 208.0
115.98954 144.0
116.064575 244.0
116.225456 176.0
116.956184 124.0
117.065987 116.0
118.026291 196.0
118.648331 140.0
118.875465 200.0
118.997025 100.0
119.031769 156.0
119.562225 180.0
119.771248 72.0
119.843147 64.0
119.989182 172.0
120.03933 340.0
120.314262 132.0
121.075233 192.0
121.12999 220.0
121.206673 212.0
121.952866 188.0
122.071594 184.0
122.445732 140.0
123.083076 136.0
123.118416 136.0
123.994545 176.0
124.662575 216.0
125.04734 156.0
125.120796 48.0
125.218781 156.0
125.907959 60.0
126.386368 156.0
127.056313 164.0
127.548126 184.0
127.824776 112.0
128.232407 124.0
129.314316 64.0
129.366379 136.0
129.436569 132.0
129.490921 160.0
129.588333 184.0
129.690323 160.0
130.057785 80.0
130.205368 172.0
130.562195 172.0
130.766968 48.0
130.999237 68.0
131.050735 212.0
131.284149 176.0
131.679001 100.0
131.802368 108.0
132.053848 180.0
132.214005 132.0
132.596481 140.0
132.961151 160.0
133.023132 124.0
133.087418 132.0
133.324036 208.0
133.379196 148.0
133.694305 224.0
134.072006 164.0
134.725021 56.0
134.745819 132.0
135.074112 132.0
135.414368 188.0
135.822327 220.0
136.048096 248.0
136.074188 176.0
136.27272 128.0
136.456345 60.0
136.630783 164.0
136.912445 204.0
137.042892 140.0
137.063858 224.0
137.217697 68.0
138.065369 340.0
138.095779 176.0
138.812439 128.0
139.133896 36.0
139.21373 180.0
139.352325 88.0
139.413422 80.0
139.690887 104.0
140.025131 164.0
140.171204 188.0
140.227768 168.0
140.421097 176.0
140.834167 156.0
141.037384 48.0
141.115402 144.0
141.645523 72.0
141.984482 76.0
142.143433 48.0
142.575653 184.0
143.00853 112.0
143.089478 120.0
143.125183 48.0
143.606598 44.0
143.689255 136.0
144.382843 108.0
144.830429 132.0
145.036499 48.0
145.077255 160.0
145.7397 108.0
146.059448 332.0
146.088318 240.0
146.220673 88.0
146.345856 140.0
147.045792 220.0
147.112549 88.0
147.586105 168.0
148.060074 164.0
148.26152 184.0
148.690796 124.0
148.870453 188.0
149.084137 180.0
149.312775 72.0
149.47821 156.0
149.536621 96.0
149.755768 124.0
149.948242 180.0
150.072571 172.0
150.089645 164.0
150.10672 124.0
150.289673 192.0
150.516678 112.0
150.802521 176.0
151.007904 300.0
151.032364 120.0
151.086197 164.0
151.455841 148.0
151.66658 40.0
151.791626 124.0
151.941238 124.0
152.270187 136.0
152.81839 100.0
153.047302 112.0
153.160599 100.0
153.256683 168.0
153.466202 192.0
153.493317 72.0
153.652496 104.0
153.769638 188.0
153.796783 188.0
154.056 140.0
154.211761 104.0
154.58522 132.0
154.959122 128.0
155.522079 156.0
156.018906 184.0
156.043777 160.0
156.068634 148.0
156.120865 68.0
156.17807 108.0
156.247726 44.0
156.419434 192.0
156.469238 168.0
156.88031 192.0
157.052383 152.0
157.081177 132.0
157.289429 188.0
158.067856 328.0
158.32959 32.0
158.913681 108.0
159.101929 188.0
159.715103 200.0
160.080048 128.0
160.110275 80.0
160.143021 120.0
160.828857 156.0
160.909653 104.0
160.937424 112.0
161.071564 176.0
161.531357 184.0
161.56424 128.0
162.172012 148.0
162.265808 288.0
162.298767 92.0
162.539749 76.0
162.603195 244.0
162.758057 104.0
163.019714 184.0
163.049973 564.0
163.06868 180.0
163.469833 156.0
163.961349 100.0
164.022537 176.0
164.059921 204.0
164.077957 568.0
164.28009 116.0
164.489349 104.0
164.685974 84.0
165.04747 216.0
165.207458 84.0
165.289337 180.0
165.634979 108.0
165.652908 120.0
165.880981 112.0
166.095032 1440.0
166.230133 160.0
166.252914 216.0
166.504517 128.0
166.535339 200.0
166.684341 184.0
167.099426 168.0
167.713821 136.0
168.095535 140.0
168.149734 84.0
168.462173 148.0
168.506104 48.0
168.733551 192.0
168.800781 96.0
169.0336 208.0
169.217377 184.0
169.62413 212.0
169.79007 196.0
170.028763 164.0
170.061127 220.0
170.08847 224.0
170.241653 228.0
170.491058 240.0
170.582031 184.0
170.985214 160.0
171.039871 148.0
171.071106 148.0
171.091141 220.0
171.222137 156.0
171.75386 152.0
171.816467 176.0
171.91452 108.0
172.137527 144.0
172.20282 208.0
172.289032 160.0
172.404007 120.0
172.707291 184.0
172.738678 108.0
173.032776 280.0
173.065842 140.0
173.450974 168.0
173.574188 160.0
173.786667 136.0
173.894257 152.0
174.051788 208.0
174.099045 136.0
174.122696 160.0
174.267181 216.0
174.490585 108.0
174.540543 176.0
174.719406 32.0
175.114273 136.0
175.538589 100.0
176.079834 144.0
176.489227 152.0
176.772278 292.0
177.07016 164.0
177.132355 204.0
177.230392 68.0
177.35495 160.0
177.741592 204.0
177.760742 188.0
178.188248 88.0
178.297211 108.0
178.496597 128.0
179.058136 168.0
179.78331 204.0
179.820679 164.0
180.114395 152.0
180.325485 204.0
180.464493 112.0
180.657074 96.0
181.018402 192.0
181.449814 160.0
181.554398 48.0
181.59462 92.0
182.076813 92.0
182.521164 128.0
183.129395 168.0
183.466248 116.0
183.625336 152.0
183.67659 104.0
183.986938 200.0
184.005844 148.0
184.053009 180.0
184.072403 160.0
184.097641 180.0
184.446198 112.0
184.662506 188.0
184.746368 152.0
184.862717 160.0
184.897903 212.0
185.038666 124.0
185.071091 148.0
185.078308 144.0
185.085785 240.0
185.469406 84.0
185.613113 164.0
185.697174 120.0
185.915939 172.0
186.061951 520.0
186.096115 64.0
186.17215 160.0
186.283508 88.0
186.566147 136.0
186.696655 132.0
186.745621 44.0
186.851715 124.0
186.944229 140.0
187.03949 84.0
187.069443 184.0
187.088486 160.0
187.51889 164.0
188.043854 176.0
188.072601 152.0
188.252792 152.0
188.389374 176.0
189.078445 48.0
189.114029 156.0
189.412491 148.0
189.448105 124.0
189.58786 140.0
189.705719 108.0
190.04306 116.0
190.078735 196.0
190.671936 188.0
190.787384 232.0
190.933121 112.0
190.957886 140.0
191.043152 132.0
191.08992 224.0
191.266068 88.0
191.398819 92.0
191.735123 148.0
192.051392 180.0
192.094971 160.0
192.114838 224.0
192.680801 132.0
193.078857 200.0
193.111252 320.0
193.482864 116.0
193.707199 140.0
193.790955 136.0
193.998169 80.0
194.109085 164.0
194.555801 108.0
194.597458 188.0
195.078094 124.0
195.314468 140.0
195.372894 164.0
196.056641 188.0
196.094223 112.0
196.219559 172.0
196.395248 72.0
197.064575 196.0
197.090149 160.0
197.210602 156.0
197.476227 132.0
197.680466 60.0
197.772827 72.0
198.066833 188.0
198.089478 216.0
198.305008 84.0
198.344254 132.0
198.62468 152.0
199.078217 200.0
199.382782 80.0
199.453064 116.0
199.669571 172.0
200.046616 124.0
200.076721 328.0
200.117004 180.0
200.308517 264.0
200.373322 184.0
200.517029 160.0
200.581863 148.0
201.044434 152.0
201.067017 184.0
201.120636 160.0
201.242035 136.0
201.516022 176.0
202.086838 168.0
202.149429 160.0
202.888718 200.0
202.91423 140.0
203.04184 212.0
203.146271 176.0
203.257446 136.0
203.331238 76.0
203.500534 100.0
203.555511 136.0
203.583908 164.0
203.805496 156.0
204.075516 112.0
204.411179 220.0
205.111832 152.0
205.796539 196.0
205.890778 144.0
206.070755 160.0
206.307968 140.0
206.854385 152.0
207.034775 244.0
207.11496 52.0
207.671051 160.0
207.972336 144.0
209.069275 220.0
209.080185 144.0
210.071167 220.0
211.026093 200.0
211.064987 196.0
211.083923 456.0
211.107056 144.0
211.604767 148.0
211.695343 144.0
211.99292 168.0
212.061569 308.0
212.091476 160.0
212.114197 196.0
212.381439 180.0
212.520691 148.0
212.958282 180.0
213.075424 456.0
213.102905 164.0
213.429871 136.0
213.482224 180.0
213.546204 52.0
213.932526 200.0
214.06813 216.0
214.081238 172.0
214.46048 68.0
215.075958 80.0
215.110977 60.0
215.438065 148.0
215.861893 92.0
216.079132 192.0
216.113449 140.0
217.084274 280.0
217.728714 140.0
217.758087 152.0
217.849152 132.0
218.116562 136.0
218.604813 80.0
219.078873 96.0
219.126755 320.0
219.385361 156.0
219.550491 124.0
220.043289 160.0
220.087509 176.0
220.107513 112.0
220.12735 272.0
220.480484 48.0
221.074249 196.0
221.708694 296.0
221.850983 144.0
221.93103 200.0
222.011093 136.0
222.515549 104.0
222.64325 68.0
222.738297 52.0
223.072433 144.0
223.505356 232.0
224.079041 180.0
224.105957 244.0
224.20816 120.0
224.750916 124.0
224.947891 124.0
224.992676 40.0
225.040451 236.0
225.08876 156.0
225.372009 200.0
225.467636 156.0
225.539368 128.0
225.608124 152.0
225.706787 112.0
226.084229 576.0
226.115738 232.0
226.200455 48.0
226.39209 148.0
226.422043 164.0
226.61676 148.0
226.949463 108.0
227.089401 604.0
227.12616 344.0
227.543564 216.0
227.591599 148.0
227.705719 132.0
227.798843 136.0
227.834885 72.0
228.085037 380.0
228.141434 184.0
228.259155 184.0
228.391037 100.0
229.067627 188.0
229.108841 384.0
229.466156 120.0
229.514404 200.0
229.68631 208.0
230.043732 236.0
230.066544 152.0
230.25679 140.0
230.398758 164.0
230.431992 96.0
230.82193 40.0
231.082062 164.0
231.121399 124.0
231.142578 156.0
231.754257 188.0
231.939117 164.0
232.042191 144.0
233.022552 60.0
233.055984 144.0
233.147141 148.0
233.64888 112.0
233.801025 100.0
234.053696 56.0
234.205978 224.0
234.355255 156.0
234.440582 88.0
234.751541 92.0
234.803391 68.0
234.849136 32.0
235.019989 296.0
235.077957 84.0
235.114395 144.0
235.279419 212.0
235.447372 108.0
236.090103 156.0
236.174805 188.0
236.661423 152.0
236.731842 132.0
236.89418 132.0
236.979965 140.0
237.088409 556.0
237.151581 308.0
237.43367 52.0
237.832535 52.0
238.022888 136.0
238.096603 168.0
238.397675 132.0
238.48024 180.0
238.532913 112.0
238.763535 120.0
239.003479 112.0
239.062912 288.0
239.092834 388.0
239.545364 100.0
239.576172 128.0
239.909012 168.0
240.061996 280.0
240.067261 172.0
240.101105 400.0
240.155701 172.0
240.643311 156.0
240.776093 156.0
240.881119 244.0
241.01088 52.0
241.068832 404.0
241.105743 524.0
241.149948 72.0
241.335434 44.0
241.524094 112.0
241.704254 156.0
241.746857 72.0
241.855179 212.0
242.044037 160.0
242.07637 280.0
242.123611 144.0
242.494751 200.0
242.673065 208.0
243.007507 116.0
243.118835 176.0
243.197357 204.0
243.234604 184.0
243.272797 92.0
243.588608 140.0
243.771927 80.0
243.812332 192.0
243.88382 152.0
244.017502 136.0
244.131958 168.0
244.350296 132.0
244.515228 132.0
244.904419 200.0
245.134979 136.0
245.230606 172.0
245.303284 120.0
245.583939 188.0
245.744751 140.0
245.789841 72.0
246.164444 140.0
246.361221 144.0
246.426834 180.0
246.717499 180.0
246.751892 76.0
247.055267 136.0
247.380737 188.0
247.678238 176.0
247.838013 152.0
248.126373 168.0
248.333344 168.0
248.873138 196.0
249.033295 212.0
249.073822 120.0
249.275223 352.0
249.441803 168.0
249.652466 48.0
249.831757 144.0
249.989075 92.0
250.077209 180.0
250.146454 172.0
250.366867 112.0
250.555862 152.0
250.807983 48.0
250.858414 108.0
250.964706 168.0
251.066528 144.0
251.096741 124.0
251.135117 156.0
251.236862 92.0
251.388321 84.0
251.755661 156.0
252.064575 136.0
252.099503 140.0
252.175537 220.0
252.298019 184.0
252.380219 152.0
252.615677 212.0
253.070877 1148.0
253.307556 248.0
253.440613 176.0
253.597168 212.0
253.789291 108.0
253.954208 140.0
253.995438 204.0
254.078857 4140.0
254.354019 112.0
254.392105 60.0
254.433868 176.0
254.506409 80.0
254.953247 188.0
254.992462 116.0
255.083008 1240.0
255.122314 4048.0
255.178864 132.0
255.326309 120.0
255.367661 112.0
255.514908 108.0
255.577621 120.0
255.609451 40.0
255.682648 72.0
255.835434 76.0
255.950058 48.0
255.981903 176.0
256.036041 136.0
256.094269 1228.0
256.121552 992.0
256.204865 80.0
256.431122 172.0
256.501251 216.0
256.660645 128.0
256.692535 52.0
256.823303 112.0
257.061096 276.0
257.093903 308.0
257.132965 316.0
257.193451 52.0
257.289215 76.0
257.426514 92.0
257.908966 168.0
258.024048 132.0
258.068817 132.0
258.097595 276.0
258.478241 176.0
258.667084 148.0
259.03537 72.0
259.551361 56.0
259.730988 144.0
259.756653 208.0
260.542664 196.0
261.15802 108.0
261.536865 88.0
262.690491 200.0
262.761475 108.0
262.887329 144.0
263.084747 196.0
263.110046 156.0
263.277954 80.0
263.339325 156.0
263.772308 56.0
264.037445 120.0
264.08902 132.0
264.105591 132.0
265.07666 164.0
265.1026 136.0
265.222504 100.0
265.297089 148.0
265.864716 64.0
265.942627 124.0
266.096954 268.0
266.221832 116.0
266.264069 52.0
266.426483 160.0
266.585693 140.0
266.907532 124.0
267.083466 728.0
267.113312 468.0
267.210022 188.0
267.447601 124.0
267.581055 112.0
267.724335 76.0
267.835083 124.0
267.919769 68.0
268.004486 72.0
268.096252 436.0
268.12323 496.0
268.365051 108.0
269.054749 132.0
269.10141 608.0
269.138458 2012.0
269.182098 156.0
269.404205 100.0
269.47934 56.0
269.904266 152.0
270.072235 184.0
270.102875 116.0
270.143219 396.0
270.368805 52.0
270.483368 40.0
270.882874 164.0
271.078369 420.0
271.114258 300.0
271.141724 112.0
271.177795 48.0
271.445312 192.0
271.640137 68.0
271.927979 116.0
272.05365 136.0
272.079895 188.0
272.123779 300.0
272.809235 116.0
273.127991 160.0
273.174286 228.0
273.651489 148.0
273.875458 76.0
273.994049 188.0
274.099487 160.0
274.138428 148.0
274.960236 156.0
275.138489 152.0
275.207825 116.0
276.371338 104.0
278.115906 244.0
278.38681 108.0
278.80542 216.0
279.081329 136.0
279.123474 628.0
279.174438 168.0
279.51709 132.0
279.693481 152.0
279.856628 72.0
280.096405 128.0
280.127258 172.0
280.719666 120.0
280.829742 84.0
280.966522 152.0
281.029907 64.0
281.095703 392.0
281.138245 340.0
281.236816 76.0
281.279724 164.0
281.537323 180.0
281.721039 184.0
281.821259 64.0
282.11026 3444.0
282.194244 148.0
282.279205 168.0
282.302612 52.0
282.335999 240.0
282.369507 80.0
282.586945 80.0
282.666199 164.0
282.726288 132.0
282.761719 68.0
282.855072 144.0
282.888153 212.0
282.981903 200.0
283.03476 260.0
283.118164 38368.0
283.22702 84.0
283.261627 124.0
283.349487 48.0
283.421326 64.0
283.436157 52.0
283.516388 108.0
283.559448 80.0
283.615082 52.0
283.675415 52.0
283.705597 60.0
283.7724 52.0
283.856476 100.0
284.007507 144.0
284.051025 248.0
284.120758 7092.0
284.166199 348.0
284.20871 36.0
284.285889 100.0
284.333649 136.0
284.362122 112.0
284.469147 80.0
284.581299 56.0
284.74585 52.0
284.801147 128.0
284.812347 60.0
284.826691 176.0
284.89267 96.0
284.940674 80.0
285.014587 160.0
285.048187 240.0
285.130096 2316.0
285.177826 292.0
285.266663 92.0
285.40451 88.0
285.56839 160.0
285.717316 76.0
285.816162 32.0
285.89566 60.0
285.939178 76.0
286.067749 384.0
286.13739 568.0
286.201996 36.0
286.286194 72.0
286.414185 32.0
286.498413 28.0
286.532104 132.0
286.562408 36.0
286.812988 148.0
287.014099 192.0
287.071472 248.0
287.11026 548.0
287.321014 68.0
287.382935 68.0
287.442505 68.0
288.0401 172.0
288.077271 168.0
288.111053 120.0
288.151581 220.0
288.225922 84.0
288.25296 140.0
288.44223 52.0
288.570709 40.0
288.59436 64.0
288.645081 168.0
288.733032 72.0
289.087372 152.0
289.34549 208.0
289.585938 64.0
290.046783 88.0
290.416382 64.0
290.915192 52.0
291.302338 80.0
291.343109 36.0
291.971954 28.0
292.070618 68.0
292.135956 212.0
292.635559 72.0
292.686615 136.0
292.788788 36.0
293.134613 428.0
293.214661 148.0
294.093018 268.0
294.147339 324.0
294.28241 132.0
294.442932 120.0
294.733307 96.0
295.094696 176.0
295.119324 172.0
295.148804 180.0
295.482117 48.0
295.536865 224.0
296.127289 188.0
296.199585 112.0
296.355225 228.0
296.703308 208.0
296.982605 148.0
297.054626 144.0
297.134399 1520.0
297.281097 116.0
297.644958 132.0
297.960968 100.0
298.080536 176.0
298.140289 632.0
298.541901 160.0
298.974548 148.0
299.013245 116.0
299.112549 8536.0
299.202576 28.0
299.340302 88.0
299.608978 40.0
300.117523 2352.0
300.191498 224.0
300.234955 152.0
300.74411 116.0
300.788391 72.0
301.118835 580.0
301.159607 80.0
301.434265 72.0
301.842163 64.0
301.959503 108.0
302.094666 108.0
302.121368 156.0
302.561859 48.0
302.676147 180.0
302.953217 60.0
303.00174 60.0
303.071014 236.0
303.223511 92.0
303.386414 104.0
303.497375 60.0
304.250305 112.0
305.044678 236.0
305.223175 52.0
307.23291 100.0
307.536499 120.0
307.588867 96.0
308.112701 204.0
308.329346 176.0
309.053253 52.0
309.109222 172.0
309.151245 168.0
309.483795 104.0
309.539825 140.0
309.592346 84.0
309.662384 100.0
309.725433 104.0
310.102234 560.0
310.144653 144.0
310.150024 336.0
310.279144 144.0
310.391357 120.0
310.50708 160.0
310.619324 56.0
310.685974 224.0
311.065002 180.0
311.103333 412.0
311.148743 15536.0
311.203522 168.0
311.258087 28.0
311.284393 80.0
311.381012 56.0
311.417419 164.0
311.515381 64.0
311.556671 172.0
311.581238 144.0
311.746399 32.0
311.844818 44.0
311.950256 188.0
312.01355 140.0
312.079407 60.0
312.153381 4456.0
312.298401 44.0
312.337097 140.0
312.41449 56.0
312.495392 100.0
312.564362 120.0
312.620148 180.0
312.674286 96.0
312.713593 104.0
312.74176 68.0
312.815674 52.0
312.872009 156.0
312.973511 120.0
313.030457 68.0
313.161102 1868.0
313.215363 48.0
313.277008 72.0
313.356903 136.0
313.449646 40.0
313.54425 52.0
313.760529 164.0
313.855042 132.0
313.932617 88.0
314.102356 288.0
314.15979 500.0
314.264191 192.0
314.317139 100.0
314.366547 40.0
314.423004 88.0
314.553589 100.0
314.585358 40.0
314.751312 52.0
315.044464 200.0
315.104919 1028.0
315.142975 468.0
315.179443 200.0
315.24234 100.0
315.29184 64.0
315.472107 80.0
315.663025 96.0
315.850494 64.0
316.006134 68.0
316.034454 144.0
316.066284 132.0
316.116425 1164.0
316.181366 164.0
316.229095 52.0
316.462738 60.0
317.116028 336.0
317.674866 52.0
317.820312 152.0
318.715149 208.0
319.141693 172.0
321.382172 188.0
322.525024 52.0
322.596527 140.0
323.047119 108.0
323.125824 156.0
323.226013 156.0
324.085419 128.0
324.146332 152.0
324.323914 184.0
324.992584 112.0
325.165436 296.0
325.286896 52.0
325.437683 200.0
325.552582 92.0
326.112122 196.0
326.154541 476.0
326.164551 164.0
326.1745 196.0
326.34314 76.0
326.558929 192.0
326.889923 196.0
326.965485 76.0
327.037476 44.0
327.142883 1268.0
327.512787 60.0
327.610046 124.0
327.642487 120.0
327.797424 144.0
327.996185 136.0
328.120605 924.0
328.637604 68.0
328.749481 136.0
328.857727 72.0
329.077942 124.0
329.111664 144.0
329.155426 388.0
329.327148 88.0
329.55835 112.0
329.963165 72.0
330.082672 160.0
330.115051 144.0
330.154358 132.0
330.209076 80.0
330.234375 112.0
330.375458 48.0
331.080444 472.0
331.155212 140.0
331.41098 44.0
331.447205 176.0
331.624786 72.0
332.096161 156.0
332.930939 116.0
333.093414 168.0
334.081818 168.0
334.323364 176.0
334.414337 48.0
334.487152 144.0
335.625732 180.0
335.901031 100.0
336.269592 124.0
336.34259 60.0
336.77713 68.0
336.817291 172.0
336.853821 128.0
337.069397 48.0
337.150726 116.0
337.248474 176.0
337.354492 32.0
337.815277 116.0
338.170227 216.0
338.202026 140.0
339.162292 408.0
339.16925 168.0
340.171204 228.0
340.987122 52.0
341.112091 92.0
341.148865 168.0
342.126923 204.0
342.315247 116.0
342.370483 36.0
343.10376 76.0
343.138611 176.0
343.181183 168.0
343.291809 92.0
343.33609 68.0
343.431976 176.0
344.029785 148.0
344.090546 188.0
344.14563 3800.0
344.513428 96.0
344.735291 36.0
344.768555 40.0
344.894196 48.0
345.110748 176.0
345.149017 1016.0
345.704559 84.0
346.129181 140.0
346.17807 188.0
346.248444 68.0
346.704132 48.0
346.763428 56.0
346.819031 96.0
347.076202 328.0
347.101715 388.0
347.649841 80.0
348.092041 168.0
348.42218 144.0
348.883026 140.0
349.092468 728.0
350.110962 168.0
350.159393 92.0
350.662384 56.0
351.497772 204.0
352.165924 108.0
352.816284 68.0
353.164398 196.0
353.950012 56.0
354.193787 220.0
354.224091 180.0
354.823029 124.0
355.378143 68.0
356.418274 216.0
356.824219 40.0
357.234161 132.0
357.474945 36.0
358.171112 400.0
359.204376 116.0
359.668518 124.0
360.125427 184.0
360.62796 152.0
361.128235 252.0
361.210266 48.0
361.660583 180.0
362.118744 108.0
362.884247 136.0
362.956268 60.0
363.544281 168.0
365.645966 92.0
366.176605 188.0
367.032684 164.0
367.07843 48.0
367.176758 236.0
367.414093 84.0
368.201324 124.0
368.872955 176.0
369.098541 76.0
369.205597 64.0
369.603455 156.0
369.875183 192.0
370.706329 100.0
372.286896 92.0
372.352203 36.0
374.486847 232.0
374.702576 92.0
374.825897 160.0
375.10672 392.0
376.11084 144.0
376.345703 136.0
376.604462 96.0
376.92511 100.0
377.124878 2472.0
377.350311 92.0
377.663574 140.0
377.978027 52.0
378.062073 120.0
378.122772 452.0
378.855865 184.0
379.111908 96.0
379.169739 168.0
379.700897 80.0
380.201752 84.0
380.632294 44.0
380.682617 96.0
381.222778 136.0
382.213593 244.0
382.868439 84.0
383.207977 124.0
383.343719 120.0
386.213379 184.0
386.24469 100.0
389.133026 100.0
391.140045 320.0
391.693268 160.0
392.141815 120.0
392.181885 56.0
392.979767 152.0
393.145844 120.0
395.22287 112.0
396.240479 176.0
396.811218 148.0
398.446411 152.0
400.403564 72.0
401.69104 76.0
402.589111 84.0
402.916656 96.0
403.172394 128.0
403.536163 96.0
404.148132 172.0
404.292206 172.0
404.848694 168.0
405.177155 164.0
405.545837 116.0
408.388672 160.0
409.060669 144.0
409.201599 56.0
409.232117 128.0
409.970978 224.0
410.120117 168.0
410.216858 116.0
410.817749 108.0
411.104218 108.0
411.249268 132.0
411.725952 60.0
412.324982 60.0
412.412811 124.0
412.760498 36.0
413.01532 84.0
414.69165 104.0
415.263367 68.0
415.449951 52.0
415.811096 100.0
415.884155 148.0
418.154602 464.0
418.807739 116.0
420.263184 92.0
421.247131 84.0
421.892822 72.0
425.444824 96.0
425.531036 116.0
426.023895 56.0
428.339966 196.0
428.599518 100.0
430.513641 80.0
432.220398 152.0
433.181519 136.0
434.1763 116.0
434.52475 52.0
434.898254 228.0
434.993713 136.0
435.338348 92.0
435.408966 84.0
436.181793 200.0
436.597595 88.0
437.034393 144.0
437.583801 108.0
438.0336 112.0
440.047668 108.0
441.00882 112.0
442.665588 108.0
443.239502 120.0
444.270966 96.0
444.375854 128.0
444.949005 164.0
446.064148 112.0
446.181854 84.0
447.132538 108.0
447.1763 344.0
447.423004 148.0
448.750183 84.0
449.108643 132.0
449.18457 156.0
449.471497 132.0
450.767883 92.0
451.778442 160.0
454.350067 76.0
454.642853 156.0
454.965454 160.0
455.190491 104.0
455.916962 60.0
456.954529 104.0
457.73349 148.0
458.956451 96.0
459.417084 128.0
459.980408 168.0
460.535522 120.0
460.719208 180.0
460.920013 168.0
461.826385 144.0
462.474335 84.0
463.718933 132.0
467.524231 116.0
467.89444 136.0
468.389679 144.0
469.389587 44.0
470.541687 100.0
470.951935 164.0
470.986481 84.0
471.042664 92.0
471.142029 188.0
472.153503 120.0
472.304901 32.0
472.473602 76.0
472.625061 92.0
472.80249 72.0
473.185547 152.0
473.27002 136.0
473.326294 76.0
473.378265 124.0
473.495209 308.0
473.599152 100.0
473.744659 132.0
473.81369 192.0
473.90863 108.0
473.980408 72.0
474.071411 68.0
474.114746 144.0
474.153748 152.0
474.205719 164.0
474.331482 48.0
474.5177 240.0
474.574249 100.0
474.630615 52.0
474.669647 112.0
474.756378 112.0
474.795013 132.0
474.877838 140.0
474.940216 188.0
475.012299 140.0
475.063629 332.0
475.128845 120.0
475.211151 43124.0
475.34021 160.0
475.348541 128.0
475.394562 152.0
475.404755 80.0
475.423218 188.0
475.523224 48.0
475.541199 36.0
475.556213 44.0
475.574554 28.0
475.590149 96.0
475.630432 36.0
475.67688 92.0
475.724976 40.0
475.841217 216.0
475.875458 140.0
475.890656 124.0
475.95639 92.0
475.970398 48.0
475.981903 80.0
476.063629 328.0
476.135193 160.0
476.153259 112.0
476.213684 14108.0
476.308594 52.0
476.44043 120.0
476.524475 72.0
476.554535 124.0
476.596985 172.0
476.627411 52.0
476.722229 88.0
476.760345 136.0
476.844696 64.0
476.885315 220.0
477.046844 84.0
477.099792 88.0
477.14032 48.0
477.212585 3144.0
477.291138 208.0
477.297791 232.0
477.392273 76.0
477.440338 40.0
477.558502 96.0
477.596924 56.0
477.63327 112.0
477.675232 108.0
477.731354 296.0
477.815887 48.0
477.905823 44.0
477.966736 28.0
478.031586 140.0
478.13031 88.0
478.214111 1340.0
478.301849 40.0
478.378235 96.0
478.467834 64.0
478.515167 76.0
478.621735 40.0
478.658264 88.0
478.687988 84.0
478.737274 108.0
478.776459 44.0
478.912262 88.0
478.994232 180.0
479.042145 100.0
479.086792 136.0
479.202789 120.0
479.294861 148.0
479.355865 28.0
479.459991 36.0
479.552002 64.0
479.704559 32.0
479.909485 48.0
479.95694 172.0
480.040283 48.0
480.233643 108.0
480.26709 76.0
480.480835 76.0
480.568115 32.0
480.716461 136.0
481.144226 44.0
481.541626 128.0
481.64209 88.0
482.096497 64.0
482.179535 156.0
482.216339 108.0
482.612305 76.0
482.861572 76.0
483.140167 84.0
483.93811 40.0
484.165833 56.0
484.945709 48.0
486.292267 76.0
486.485413 128.0
487.315521 44.0
487.785767 92.0
488.207855 68.0
488.278229 68.0
488.678558 52.0
490.321136 120.0
491.075073 44.0
492.332947 60.0
492.814453 64.0
492.885162 76.0
493.296204 44.0
494.946503 44.0
497.77124 80.0
498.757568 44.0
501.027161 64.0
501.437134 40.0
508.45462 60.0
509.08316 100.0
512.416382 68.0
515.552551 96.0
516.294006 92.0
517.466003 116.0
519.27417 40.0
533.29187 56.0
535.178101 96.0
540.296753 148.0
551.508911 68.0
552.11676 112.0
559.389709 32.0
562.416016 40.0
575.357178 44.0
600.495178 48.0
621.641541 36.0
634.601257 60.0
634.656372 64.0
639.026306 52.0
641.665588 132.0
649.3927 28.0
650.260376 92.0
669.530823 92.0
671.442932 76.0
672.624512 80.0
675.761597 124.0
676.015137 96.0
677.889832 148.0
680.83136 72.0
686.900452 76.0
695.041443 96.0
705.639343 116.0
707.099426 104.0
707.427612 88.0
727.247498 60.0
731.079651 76.0
737.806091 88.0
752.028015 28.0
759.354431 112.0
790.917358 84.0
804.662842 84.0
816.278931 116.0
817.092346 88.0
817.615906 80.0
818.914001 108.0
821.028564 64.0
834.497314 108.0
844.69397 144.0
850.889221 112.0
853.719116 136.0
859.673035 76.0
868.455078 80.0
871.92511 132.0
873.912781 100.0
874.083435 140.0
880.757507 92.0
881.507874 40.0
884.50061 112.0
885.252563 60.0
890.738953 124.0
895.485718 184.0
900.458557 236.0
904.029358 68.0
906.766357 104.0
908.445374 168.0
910.918701 180.0
925.841431 104.0
950.525879 208.0
951.004578 76.0
951.47113 64.0
955.705994 72.0
958.729675 104.0
970.034851 40.0
972.584351 164.0
980.159607 176.0
996.516296 196.0
997.572205 44.0
1001.001282 80.0
1004.518311 124.0
1008.509216 144.0
1011.374634 136.0
1016.78125 192.0
1024.481689 244.0
1025.233643 60.0
1025.291016 28.0
1030.798584 108.0
1033.817017 188.0
1039.321777 216.0
1046.063843 132.0
1051.097534 168.0
1051.336304 60.0
1056.893921 84.0
1061.752563 60.0
1064.178955 212.0
1068.046509 184.0
1069.816528 140.0
1070.773682 92.0
1075.89917 204.0
1083.282715 76.0
1083.37439 96.0
1093.978149 224.0
1097.907959 132.0
1100.904175 128.0
1109.584717 124.0
1113.00293 144.0
1114.171997 168.0
1115.76709 136.0
1120.512573 232.0
1121.05896 164.0
1124.213379 216.0
1139.225586 112.0
1143.435059 164.0
1143.785034 180.0
1144.963379 116.0
1148.2052 120.0
1150.060669 164.0
1151.58667 80.0
1152.329834 72.0
1156.75293 228.0
1156.800293 132.0
1158.357788 140.0
1163.274414 188.0
1164.061279 192.0
1172.300415 124.0
1173.336426 172.0
1183.010498 168.0
1188.795654 180.0
1197.974976 60.0
1208.683838 132.0
1212.846313 48.0
1219.078979 96.0
1221.401245 176.0
1226.150024 232.0
1226.547363 208.0
1238.14624 52.0
1246.157349 168.0
1251.52417 88.0
1252.777954 148.0
1256.853149 188.0
1262.730957 152.0
1263.098877 236.0
1264.117676 172.0
1268.253906 132.0
1269.530151 192.0
1273.057251 92.0
1273.916748 172.0
1281.736206 88.0
1285.280151 176.0
1297.031006 232.0
1302.499023 48.0
1311.486572 44.0
1313.130493 216.0
1321.206665 164.0
1327.769531 220.0
1334.545044 168.0
1335.461426 156.0
1336.428955 252.0
1340.14978 172.0
1344.291748 152.0
1346.861694 144.0
1348.286499 156.0
1351.306641 184.0
1351.4823 208.0
1353.055908 156.0
1355.150757 200.0
1357.078491 224.0
1357.371704 136.0
1357.753174 128.0
1363.876709 116.0
1372.438965 212.0
1373.486328 32.0
1378.203979 240.0
1378.263062 92.0
1381.923218 160.0
1394.604858 172.0
1397.177856 172.0
1404.500854 144.0
1409.114624 152.0
1410.400024 152.0
1414.147461 188.0
1423.81958 144.0
1423.984863 176.0
1424.705933 144.0
1425.036621 156.0
1429.856934 116.0
1432.515015 84.0
1432.914307 152.0
1433.635132 60.0
1434.700562 148.0
1439.42395 160.0
1443.776978 188.0
1444.752686 136.0
1445.638062 156.0
1450.189819 104.0
1454.39209 180.0
1459.48999 144.0
1459.740845 100.0
1470.590088 52.0
1473.01062 156.0
1476.740967 96.0
1479.181885 216.0
1480.368652 276.0
1481.180542 72.0
1487.407349 92.0
1489.088867 164.0
1490.640869 152.0
1491.978271 176.0
1494.778076 104.0
1496.925903 216.0
1497.303223 148.0
1498.073486 200.0
1499.160034 88.0
1500.215942 108.0
1502.768921 196.0
1503.949585 168.0
