>compound MLS000766899-01!
>formula C9H9N5
>ionization [M+H]+
>parentmass 188.09462
#inchi InChI=1S/C9H9N5/c10-8-11-6-12-9(14-8)13-7-4-2-1-3-5-7/h1-6H,(H3,10,11,12,13,14)
#inchikey YMFGJWGABDOFID
#Ion_Source LC-ESI
#Instrument qTof
#Compound_Source NIH Pharmacologically Active Library
#PI Dorrestein
#Data_Collector VP/LMS
#Scan -1
#Precursor_MZ 188.094
#ExactMass 187.086
#Charge 1
#CAS_Number N/A
#Pubmed_ID N/A
#Smiles Nc1ncnc(Nc2ccccc2)n1
#INCHI_AUX N/A
#Library_Class 1
#SpectrumID CCMSLIB00000085382
#IonMode Positive
#UpdateWorkflowName UPDATE-SINGLE-ANNOTATED-GOLD
#LibraryQualityString Gold
#TaskID d252d724072548979f1f6f1ced849daf
##Scan# 1179
#SpectrumFile p4-A02_GA2_01_18326.mzXML
#LibraryName Pharm_Active_Library.mgf
#MQScore -1
#Organism Pharm_Active_Library
#TIC_Query 0
#RT_Query -1
#MZErrorPPM -1
#SharedPeaks 0
#MassDiff 0
#LibMZ -1
#SpecMZ 188.094
#SpecCharge 0
#internalFilename spec-00000.mgf

>collision 10
45.012329 212.0
45.3106 148.0
45.93438 48.0
46.003201 184.0
46.414501 168.0
46.603172 180.0
46.792225 136.0
47.164646 132.0
48.097328 232.0
48.451344 136.0
49.07399 132.0
49.535183 208.0
49.770798 108.0
49.826981 132.0
50.471104 164.0
50.835152 148.0
50.927433 144.0
51.051079 204.0
51.574318 116.0
51.938011 160.0
51.986794 136.0
52.006886 136.0
52.523449 196.0
52.649017 104.0
52.818119 148.0
52.838371 148.0
52.878891 220.0
52.906391 92.0
53.090408 152.0
53.222462 204.0
53.692493 92.0
53.977261 228.0
54.314106 164.0
54.459419 188.0
54.855366 236.0
54.940773 216.0
55.369434 48.0
55.780434 196.0
56.122852 148.0
56.542618 188.0
56.738846 248.0
56.785332 224.0
58.049141 48.0
58.643578 68.0
58.709133 172.0
60.359974 156.0
60.719254 156.0
61.267242 108.0
61.353672 128.0
61.561192 196.0
62.412075 152.0
62.933617 116.0
63.139046 156.0
63.716026 148.0
63.747803 228.0
64.035759 168.0
64.311592 136.0
65.825546 104.0
65.97419 76.0
66.531479 116.0
66.638672 136.0
66.768257 268.0
67.223236 96.0
67.277092 200.0
67.376717 76.0
67.599083 196.0
67.751358 228.0
67.902161 152.0
67.928406 160.0
67.974342 212.0
68.089256 204.0
68.418121 100.0
69.283501 108.0
69.333206 196.0
69.977715 184.0
69.989372 168.0
70.124313 140.0
70.844498 248.0
70.901466 152.0
70.918228 68.0
71.102715 124.0
71.292488 132.0
71.612144 108.0
71.868385 184.0
71.892014 108.0
72.375267 172.0
72.473709 144.0
73.088371 204.0
74.284317 228.0
74.313477 156.0
74.848038 228.0
75.134148 196.0
75.534927 212.0
75.597214 64.0
76.118996 196.0
76.188469 180.0
76.539803 172.0
76.745415 212.0
77.437431 88.0
78.034073 180.0
78.171272 136.0
78.36496 100.0
79.089005 164.0
79.230667 72.0
79.683075 36.0
80.028122 172.0
81.49839 144.0
81.944603 152.0
82.168159 192.0
82.343262 140.0
82.782722 108.0
82.873291 164.0
83.034622 192.0
83.058205 136.0
83.168892 152.0
83.608727 140.0
83.892868 180.0
84.18663 120.0
84.282471 204.0
84.64196 148.0
84.777519 176.0
84.896675 140.0
84.964546 124.0
85.12606 196.0
85.442207 104.0
86.194473 64.0
86.224037 212.0
86.575546 168.0
86.705231 160.0
87.204483 116.0
87.237938 188.0
87.321609 208.0
87.492805 140.0
87.966316 212.0
89.057976 60.0
89.197021 212.0
89.539467 156.0
89.920303 156.0
90.318977 164.0
90.61808 160.0
90.635132 132.0
90.688194 168.0
91.082863 228.0
91.274818 88.0
92.051262 548.0
92.413544 120.0
92.6931 144.0
93.052292 196.0
93.149719 204.0
93.563179 204.0
93.611191 184.0
93.640205 80.0
94.220825 204.0
94.334839 124.0
94.597931 148.0
94.717987 232.0
95.084442 176.0
96.205612 108.0
96.440018 96.0
96.533859 180.0
96.557327 44.0
96.584709 156.0
96.614052 136.0
97.880005 168.0
98.47953 256.0
99.358437 196.0
100.143631 140.0
100.919914 180.0
100.979912 224.0
101.382317 132.0
101.534683 164.0
102.02932 188.0
102.101028 144.0
102.4291 196.0
102.735512 152.0
103.868332 116.0
104.264252 128.0
104.38826 152.0
104.54287 120.0
105.011444 180.0
105.160385 88.0
105.207336 196.0
105.242043 180.0
105.274712 44.0
105.472893 184.0
105.755165 192.0
106.043953 168.0
106.091103 116.0
106.569298 200.0
108.151039 72.0
108.401634 200.0
109.10318 184.0
109.596443 112.0
109.781967 136.0
109.890434 204.0
110.975952 260.0
111.317978 184.0
111.353676 112.0
111.483932 36.0
112.111053 172.0
112.1511 168.0
112.317673 156.0
113.042343 164.0
113.752357 172.0
113.996605 108.0
114.660583 80.0
114.726654 168.0
115.681564 156.0
116.907127 180.0
116.932953 44.0
117.043297 216.0
117.914268 196.0
118.028847 208.0
118.05204 364.0
118.104538 60.0
118.124001 88.0
118.184578 148.0
118.656746 164.0
118.689262 136.0
118.789032 184.0
118.817535 224.0
118.862793 136.0
118.925735 184.0
118.995506 196.0
119.025398 132.0
119.061127 18540.0
119.110298 64.0
119.147903 64.0
119.177643 124.0
119.258049 104.0
119.277611 28.0
119.323265 80.0
119.379799 32.0
119.427643 48.0
119.542953 80.0
119.560364 64.0
119.667023 116.0
119.786804 72.0
119.908821 52.0
119.945877 104.0
120.064163 2052.0
120.094147 180.0
120.515472 40.0
120.620377 68.0
120.688148 60.0
120.73188 140.0
120.758125 128.0
120.889389 152.0
120.92878 76.0
121.039101 164.0
121.071053 232.0
121.101753 60.0
124.316208 132.0
124.351715 192.0
124.453835 192.0
125.205391 152.0
125.834267 172.0
126.601234 164.0
126.910461 84.0
127.10112 124.0
127.26947 160.0
128.656357 52.0
128.780548 124.0
129.040421 232.0
129.894196 176.0
130.009918 180.0
131.975769 52.0
132.037521 76.0
135.191635 216.0
137.999268 220.0
141.064957 144.0
141.275436 220.0
142.672241 136.0
142.902939 192.0
143.033829 136.0
143.64624 120.0
143.720184 180.0
143.744049 68.0
143.784622 216.0
143.870544 148.0
143.922653 204.0
143.982208 236.0
144.056 17220.0
144.092285 204.0
144.185852 84.0
144.511063 60.0
144.566101 56.0
144.616348 60.0
144.68338 60.0
144.719284 28.0
145.058167 1720.0
145.090652 52.0
145.380875 76.0
145.414474 104.0
145.481689 204.0
145.56572 216.0
145.813171 80.0
145.861237 104.0
145.921341 40.0
145.942978 80.0
145.976639 108.0
145.99913 208.0
146.07106 4728.0
146.097687 148.0
146.193146 148.0
146.330353 80.0
147.01973 60.0
147.073639 584.0
147.57048 40.0
147.831711 96.0
148.083496 76.0
148.747864 76.0
150.908798 188.0
151.545166 76.0
151.863846 88.0
153.501755 76.0
155.993851 160.0
156.614563 56.0
157.053238 88.0
157.133072 68.0
157.525024 48.0
158.065048 148.0
159.26593 92.0
160.930542 116.0
161.085846 164.0
171.068542 220.0
172.069824 168.0
174.091263 136.0
185.650604 128.0
187.67099 116.0
188.09462 2756.0
188.156647 64.0
189.096451 324.0
196.288284 72.0
209.990585 108.0
229.940125 64.0
239.779465 132.0
274.98822 76.0
288.078278 120.0
295.116882 52.0
357.311096 76.0
396.846924 100.0
399.694855 44.0
585.971863 76.0
672.239441 84.0
722.675903 224.0
826.685242 32.0
832.004333 64.0
907.009338 36.0
909.126465 188.0
919.423462 236.0
947.59021 108.0
950.643799 260.0
959.760071 212.0
973.230347 164.0
994.160889 76.0
1006.795776 180.0
1021.144348 180.0
1023.683594 276.0
1030.342651 116.0
1033.494629 196.0
1039.858154 116.0
1065.689087 264.0
1072.880859 180.0
1080.593872 200.0
1084.221558 144.0
1093.758301 124.0
1100.231689 124.0
1103.647461 196.0
1111.052124 76.0
1119.380371 184.0
1121.272339 188.0
1121.632324 120.0
1123.659546 40.0
1129.050171 96.0
1134.614502 280.0
1136.049561 204.0
1136.942017 100.0
1137.089722 200.0
1145.023071 204.0
1157.482544 184.0
1158.85083 64.0
1167.4104 48.0
1172.829712 116.0
1175.284912 68.0
1178.11145 124.0
1179.744629 152.0
1183.103638 184.0
1186.501709 204.0
1187.708618 128.0
1188.202515 160.0
1204.214111 224.0
1226.152222 172.0
1228.076538 132.0
1233.739746 200.0
1245.224365 136.0
1251.884399 188.0
1255.845215 160.0
1261.239746 172.0
1263.262085 164.0
1265.91626 76.0
1281.073242 180.0
1282.612427 140.0
1293.004761 176.0
1295.016602 164.0
1297.259399 180.0
1299.296143 48.0
1301.966309 152.0
1304.33728 88.0
1307.106201 192.0
1309.280273 100.0
1312.155273 184.0
1312.948486 96.0
1313.965576 104.0
1316.484741 176.0
1323.136963 200.0
1328.02832 212.0
1330.408325 168.0
1337.408569 208.0
1339.185181 128.0
1340.256104 124.0
1341.939819 172.0
1342.989868 176.0
1345.668091 120.0
1347.939697 148.0
1353.191406 124.0
1359.326538 152.0
1363.167114 208.0
1363.98291 92.0
1364.137207 96.0
1365.416626 188.0
1366.549438 136.0
1366.851196 188.0
1372.434448 204.0
1374.130859 172.0
1375.09021 96.0
1383.161621 164.0
1388.095825 208.0
1390.254517 188.0
1393.440063 156.0
1393.744629 256.0
1394.391113 156.0
1399.017822 160.0
1399.851685 204.0
1406.375122 100.0
1407.942993 108.0
1408.473267 188.0
1409.01123 156.0
1410.901978 180.0
1412.203125 172.0
1417.293701 192.0
1420.937622 172.0
1421.282837 160.0
1421.733032 100.0
1424.120483 152.0
1426.531738 172.0
1432.153564 84.0
1434.821167 216.0
1435.364014 136.0
1439.348267 80.0
1440.292236 228.0
1441.304565 168.0
1442.967407 28.0
1443.912598 124.0
1445.713135 176.0
1448.453979 136.0
1451.788818 236.0
1452.077026 172.0
1453.283203 152.0
1454.041992 196.0
1458.758911 216.0
1459.62561 104.0
1463.597656 188.0
1465.0448 184.0
1469.420776 156.0
1470.56543 156.0
1472.535278 152.0
1488.963501 216.0
1496.838257 160.0
1497.924194 124.0
1503.105225 212.0
1503.900024 200.0
1504.463623 212.0
