>compound MLS000563039-01!
>formula C25H31NO10
>ionization [M+H]+
>parentmass 506.20207264409055
#inchi InChI=1S/C25H31NO10/c1-3-12-14-7-16-13-8-17(28)18(33-2)6-11(13)4-5-26(16)23(32)15(14)10-34-24(12)36-25-22(31)21(30)20(29)19(9-27)35-25/h3,6,8,10,12,14,16,19-22,24-25,27-31H,1,4-5,7,9H2,2H3/t12-,14+,16-,19-,20-,21+,22-,24?,25+/m1/s1
#inchikey BCYNGTTVQNJTCV
#Ion_Source LC-ESI
#Instrument qTof
#Compound_Source NIH Natural Product Library
#PI Dorrestein
#Data_Collector VVP/LMS
#Scan -1
#Precursor_MZ 506.203
#ExactMass 505.195
#Charge 1
#CAS_Number N/A
#Pubmed_ID N/A
#Smiles COc1cc2CCN3[C@H](C[C@H]4[C@@H](C=C)C(O[C@@H]5O[C@H](CO)[C@@H](O)[C@H](O)[C@H]5O)OC=C4C3=O)c2cc1O
#INCHI_AUX N/A
#Library_Class 1
#SpectrumID CCMSLIB00000079476
#IonMode Positive
#UpdateWorkflowName UPDATE-SINGLE-ANNOTATED-GOLD
#LibraryQualityString Gold
#TaskID b1d8e8f6646f4e71acdff9ca3d919d08
##Scan# 1545
#SpectrumFile p1-H06_GH6_01_17962.mzXML
#LibraryName NIH_Natural_Products_Library.mgf
#MQScore -1
#Organism NIH_Natural_Products_Library
#TIC_Query 0
#RT_Query -1
#MZErrorPPM -1
#SharedPeaks 0
#MassDiff 0
#LibMZ -1
#SpecMZ 506.203
#SpecCharge 0
#internalFilename spec-00000.mgf

>collision 10
94.959541 128.0
95.062363 108.0
95.565628 92.0
95.857712 56.0
95.939568 208.0
96.000015 132.0
96.539001 32.0
96.61528 204.0
96.646584 128.0
96.697464 184.0
96.869774 168.0
97.02755 204.0
97.142258 168.0
97.505501 76.0
97.711975 64.0
97.920631 100.0
98.113739 188.0
98.366249 120.0
98.611176 192.0
98.630943 208.0
98.69223 200.0
98.80101 164.0
99.048454 200.0
99.330597 144.0
99.655518 116.0
99.812157 224.0
99.906021 124.0
100.152863 204.0
100.370087 160.0
100.425926 140.0
100.441887 68.0
100.5177 104.0
100.54364 140.0
100.55761 260.0
100.835228 196.0
101.057198 176.0
101.529938 104.0
101.60817 172.0
102.051666 192.0
102.08622 172.0
102.825584 208.0
102.985085 208.0
103.057068 380.0
103.502808 208.0
103.576035 176.0
103.784454 204.0
104.375336 176.0
104.413971 208.0
104.47686 192.0
104.570633 144.0
104.774261 72.0
104.861885 100.0
104.916924 100.0
104.963814 232.0
105.03112 180.0
105.175995 64.0
105.323006 188.0
105.389061 252.0
105.88752 188.0
106.472031 184.0
106.597343 136.0
107.04821 360.0
107.152893 52.0
107.631409 40.0
107.964111 100.0
108.231056 132.0
108.355331 180.0
108.373978 92.0
108.842751 124.0
108.882202 188.0
109.025551 372.0
109.452003 44.0
109.760391 180.0
110.040268 208.0
110.32621 128.0
110.476776 116.0
110.520714 208.0
110.564659 64.0
111.533653 176.0
112.125092 124.0
112.289536 176.0
112.319069 52.0
112.333832 72.0
112.384468 172.0
112.399239 28.0
112.728653 68.0
112.823769 72.0
113.359268 132.0
113.488571 196.0
113.514015 48.0
113.587341 140.0
113.919403 28.0
114.002266 108.0
114.061775 176.0
114.185097 184.0
114.270187 228.0
114.28508 52.0
114.434067 48.0
114.734474 228.0
114.824028 76.0
114.911491 172.0
115.189018 212.0
115.229614 204.0
115.404869 128.0
115.439087 80.0
115.552452 48.0
115.575989 96.0
115.601662 176.0
116.126549 180.0
116.212357 152.0
116.474266 156.0
116.86338 68.0
116.958076 196.0
117.070099 516.0
117.088593 84.0
118.025978 100.0
118.058411 148.0
118.075714 132.0
118.545494 156.0
118.627853 200.0
118.7341 132.0
118.85775 156.0
119.047653 316.0
119.326912 176.0
119.971329 196.0
120.324753 200.0
120.429573 200.0
120.501663 152.0
120.57814 108.0
120.645905 56.0
120.781487 124.0
120.844925 80.0
120.954346 72.0
121.062675 820.0
121.101936 188.0
121.147049 28.0
121.168961 48.0
121.197441 164.0
121.403496 188.0
121.650421 140.0
122.068169 208.0
122.205261 180.0
122.266876 216.0
122.553146 216.0
122.639824 48.0
122.95813 264.0
123.128899 220.0
123.615257 136.0
123.980652 172.0
124.040497 164.0
124.115875 140.0
124.501991 120.0
124.781975 164.0
124.906509 176.0
125.035561 116.0
125.055588 112.0
125.160225 280.0
125.478836 120.0
125.534584 192.0
125.900566 200.0
126.764076 124.0
126.842522 160.0
127.911758 184.0
128.044601 156.0
128.157242 164.0
128.829559 176.0
128.877014 152.0
129.385529 124.0
129.493225 180.0
129.746109 96.0
129.970657 228.0
130.043274 148.0
130.161331 204.0
130.229355 180.0
130.443054 224.0
130.772873 120.0
131.052979 156.0
131.342499 140.0
132.05513 60.0
132.398438 32.0
132.742188 220.0
132.918808 168.0
132.969299 132.0
133.102127 120.0
133.486191 136.0
134.029434 112.0
134.059174 308.0
134.082443 132.0
134.368378 184.0
134.479141 188.0
134.499908 100.0
134.978149 200.0
135.004547 172.0
135.049835 156.0
135.067703 288.0
135.093781 164.0
135.276611 136.0
135.735352 172.0
135.981247 144.0
136.058029 208.0
136.113571 144.0
136.141449 172.0
136.183243 124.0
136.464432 196.0
136.731949 116.0
136.960129 192.0
137.062454 216.0
137.144196 156.0
137.375046 180.0
137.449707 208.0
138.047714 228.0
138.064087 196.0
138.785324 100.0
138.890854 136.0
139.050674 172.0
139.125519 200.0
139.186569 196.0
139.908371 180.0
140.417343 240.0
140.966156 220.0
141.028854 212.0
141.087952 136.0
141.568283 148.0
141.750687 104.0
142.16568 152.0
142.329468 128.0
143.1427 196.0
143.333267 232.0
143.485809 176.0
144.143387 136.0
144.97496 144.0
145.044464 88.0
145.065369 228.0
145.932724 176.0
146.06514 388.0
146.175385 176.0
146.197327 120.0
146.218979 180.0
146.269531 204.0
146.589859 160.0
146.642868 204.0
146.700729 188.0
146.888809 140.0
146.927414 180.0
147.087143 192.0
147.623047 124.0
147.756088 120.0
148.485199 232.0
148.543411 180.0
149.031387 188.0
149.059799 848.0
149.437943 212.0
149.520172 132.0
149.646759 144.0
149.807495 72.0
150.060944 148.0
150.092651 196.0
150.500137 160.0
150.534317 128.0
150.949738 140.0
151.07431 2968.0
151.125854 44.0
151.14299 200.0
151.324112 68.0
151.512695 76.0
151.566589 76.0
151.653275 108.0
151.674423 216.0
151.794556 164.0
151.873047 140.0
152.015335 164.0
152.080643 348.0
152.513901 208.0
152.754883 132.0
152.865601 160.0
153.077301 168.0
153.276825 212.0
153.602264 176.0
153.646667 208.0
153.817978 220.0
153.846558 52.0
154.37532 128.0
154.47673 88.0
154.61528 164.0
154.791046 216.0
155.061081 184.0
155.140396 168.0
155.192459 160.0
155.356155 88.0
155.567093 92.0
156.054031 188.0
156.424713 168.0
156.441849 148.0
156.49913 144.0
156.576599 44.0
156.803314 188.0
157.035187 44.0
157.65184 128.0
157.756821 172.0
158.034424 156.0
158.109497 188.0
158.207123 144.0
158.252182 188.0
158.53775 196.0
158.565308 140.0
158.685638 184.0
158.730774 144.0
158.911362 204.0
159.004211 104.0
159.863708 236.0
159.964371 180.0
160.120483 184.0
160.887039 68.0
160.988037 176.0
161.051529 144.0
161.081482 168.0
161.116852 108.0
161.180023 116.0
161.44545 160.0
161.792099 180.0
161.832596 100.0
162.047897 184.0
162.286148 200.0
162.33432 200.0
162.352066 96.0
162.501724 132.0
162.57785 208.0
162.727615 180.0
163.061325 2452.0
163.388412 200.0
163.74733 160.0
163.794724 172.0
163.928207 140.0
163.95369 136.0
163.994476 184.0
164.064987 148.0
164.101532 148.0
164.549408 220.0
164.61348 184.0
164.652725 84.0
164.86319 232.0
164.923553 192.0
164.961899 144.0
165.072433 188.0
165.133209 80.0
165.222748 100.0
165.540131 204.0
165.59903 140.0
166.100723 148.0
166.450455 192.0
166.748459 204.0
167.062164 172.0
167.301498 124.0
167.507507 192.0
167.5616 144.0
167.729111 140.0
167.865753 192.0
168.412888 120.0
168.885895 188.0
169.015244 156.0
169.255981 84.0
169.642014 132.0
169.712021 128.0
170.431 228.0
170.480362 144.0
170.823578 216.0
171.000504 148.0
171.091614 80.0
171.240036 120.0
172.252075 84.0
172.500336 88.0
172.986893 56.0
173.172806 232.0
173.329987 240.0
173.478241 120.0
173.586884 188.0
173.788849 180.0
174.090729 88.0
174.99791 188.0
175.053207 144.0
175.074265 156.0
175.451065 160.0
175.651489 100.0
175.688416 176.0
175.74678 112.0
176.074005 1080.0
176.475449 196.0
176.671158 200.0
176.798172 120.0
176.885513 92.0
176.962296 200.0
176.98082 164.0
177.023193 116.0
177.087143 608.0
177.264252 216.0
177.351715 140.0
177.447144 144.0
177.489563 136.0
177.564117 180.0
177.611923 148.0
177.696457 176.0
177.717682 204.0
177.768097 168.0
177.796448 140.0
177.80304 240.0
177.811584 156.0
177.85051 228.0
177.877487 168.0
177.903839 148.0
177.975571 444.0
178.023209 172.0
178.086136 70628.0
178.182434 184.0
178.202682 72.0
178.221054 76.0
178.243423 356.0
178.267334 76.0
178.29126 96.0
178.322952 56.0
178.346512 76.0
178.366196 156.0
178.421509 56.0
178.479431 92.0
178.50499 156.0
178.523987 236.0
178.557022 136.0
178.580292 76.0
178.607651 40.0
178.635376 76.0
178.654282 68.0
178.870667 104.0
178.931183 104.0
178.974915 52.0
179.010422 108.0
179.08876 7192.0
179.158691 100.0
179.21257 176.0
179.243942 64.0
179.305237 44.0
179.363876 72.0
179.390533 40.0
179.430527 32.0
179.494507 52.0
179.531845 120.0
179.571854 72.0
179.590515 132.0
179.654541 76.0
179.806641 52.0
180.030884 84.0
180.052246 72.0
180.093201 680.0
180.169785 112.0
180.236572 76.0
180.281998 104.0
180.338135 32.0
180.382111 120.0
180.41832 96.0
180.502777 116.0
180.54921 80.0
180.616211 112.0
180.723221 56.0
180.757996 52.0
180.835617 72.0
181.079254 92.0
181.11676 216.0
181.215881 56.0
181.286942 176.0
181.430283 40.0
181.52948 80.0
181.617996 92.0
182.066208 152.0
182.093063 136.0
182.654831 212.0
182.921219 136.0
183.082764 40.0
183.457306 104.0
183.770142 132.0
183.794434 136.0
184.4561 64.0
185.368195 152.0
185.88884 136.0
186.038116 132.0
186.646713 144.0
186.872467 68.0
186.891525 140.0
187.082031 160.0
187.787781 48.0
188.098831 164.0
188.265381 108.0
189.014404 92.0
189.071869 148.0
189.091034 228.0
189.638809 40.0
189.965103 60.0
190.201096 68.0
191.066727 132.0
191.176788 80.0
191.242844 112.0
191.677979 88.0
192.074982 168.0
192.09877 416.0
193.092163 220.0
193.61171 116.0
194.041214 136.0
194.079163 316.0
194.110535 136.0
194.501724 168.0
194.585007 96.0
194.718292 180.0
195.094803 156.0
195.427155 144.0
195.663727 176.0
196.078766 132.0
197.091766 100.0
197.648193 164.0
198.040131 132.0
198.065338 128.0
198.087753 44.0
198.138184 164.0
199.111526 196.0
200.081635 148.0
200.278748 116.0
202.110962 124.0
202.549789 180.0
202.901184 68.0
203.570816 48.0
203.763962 172.0
204.002686 92.0
204.100571 304.0
204.907684 132.0
205.107162 144.0
205.229752 136.0
205.252563 64.0
205.326706 104.0
206.080017 860.0
206.105286 184.0
206.672195 88.0
207.086243 264.0
207.499939 96.0
209.895035 108.0
211.423203 116.0
212.257492 68.0
212.762344 112.0
213.09343 296.0
213.154449 64.0
214.621506 40.0
214.959869 52.0
215.097046 192.0
216.061401 48.0
216.166748 204.0
216.318939 52.0
217.873199 168.0
218.108292 160.0
218.475861 140.0
219.312164 172.0
220.095917 432.0
221.069427 148.0
221.093109 144.0
223.003098 184.0
223.098221 172.0
223.696167 136.0
224.062454 192.0
226.536072 60.0
227.024628 148.0
228.093231 140.0
228.126556 124.0
229.075851 148.0
229.194992 180.0
230.078369 192.0
230.117004 228.0
230.646622 160.0
230.924789 132.0
231.124451 248.0
232.092361 360.0
232.31514 100.0
232.463806 48.0
233.109039 192.0
233.156219 136.0
233.420685 20.0
234.800217 176.0
235.102249 100.0
235.795517 104.0
237.298523 104.0
237.467178 192.0
237.49173 112.0
238.646408 160.0
238.889359 212.0
240.587387 116.0
240.985794 136.0
241.131027 148.0
242.068405 316.0
242.396759 88.0
243.703094 108.0
244.044998 88.0
244.093765 480.0
244.69838 156.0
245.100769 292.0
245.758087 200.0
245.995285 60.0
246.114059 192.0
246.188858 172.0
246.663773 72.0
247.123138 152.0
248.110046 132.0
248.360916 48.0
249.607727 80.0
249.90654 180.0
250.908096 180.0
252.09491 136.0
253.132492 128.0
253.183167 212.0
255.118683 128.0
255.557587 88.0
255.738968 164.0
255.815369 176.0
256.095581 208.0
256.131104 52.0
256.273987 132.0
257.105377 132.0
257.134979 136.0
257.78009 52.0
258.077362 92.0
258.103455 164.0
259.117554 112.0
259.143188 132.0
260.092712 136.0
260.243317 44.0
260.676971 140.0
262.937714 108.0
263.070038 152.0
263.686981 120.0
263.990875 124.0
264.22052 148.0
264.430878 40.0
264.586243 124.0
264.68338 144.0
265.425415 128.0
267.33548 152.0
267.801056 180.0
268.131409 192.0
268.935699 152.0
269.981201 272.0
270.110718 200.0
270.144379 356.0
270.491608 184.0
270.927155 80.0
271.110626 104.0
271.153259 112.0
271.181427 108.0
272.098389 144.0
272.128479 216.0
272.242432 144.0
273.088196 164.0
273.491791 176.0
273.639923 80.0
273.916565 180.0
273.982422 112.0
274.056671 68.0
274.106384 17688.0
274.206116 136.0
274.270325 44.0
274.321869 48.0
274.355347 52.0
274.406433 80.0
274.430664 84.0
274.515686 56.0
274.704407 108.0
274.773682 56.0
274.93866 40.0
275.02887 120.0
275.10965 3072.0
275.154449 96.0
275.281982 60.0
275.311707 64.0
275.397583 56.0
275.424011 72.0
275.546234 52.0
275.605713 56.0
275.876709 52.0
275.952759 84.0
276.117523 948.0
276.270264 68.0
276.296722 52.0
276.425751 148.0
276.458252 108.0
276.488647 72.0
276.51181 76.0
276.557312 80.0
276.7005 44.0
276.756775 40.0
276.849487 148.0
276.962097 76.0
277.064789 100.0
277.127747 340.0
277.734406 100.0
277.800751 64.0
278.093506 104.0
278.125946 76.0
278.351715 120.0
278.378265 96.0
278.481232 208.0
278.52771 72.0
278.66394 84.0
279.099335 36.0
280.128113 148.0
281.351624 68.0
282.097443 128.0
282.130035 120.0
283.119965 136.0
285.264465 52.0
285.590637 176.0
286.088654 100.0
286.887085 60.0
287.254639 76.0
289.22464 108.0
290.87204 56.0
290.926361 88.0
291.636292 44.0
292.768585 152.0
293.297333 168.0
294.075012 80.0
294.109161 128.0
294.266174 80.0
294.464233 132.0
296.092194 164.0
296.119598 128.0
297.134277 176.0
298.14505 440.0
299.661285 228.0
300.130035 136.0
300.157623 140.0
301.134277 164.0
301.158447 112.0
302.08136 152.0
302.144745 124.0
305.098419 168.0
308.133972 224.0
308.948578 48.0
309.113007 112.0
310.009491 172.0
310.219788 144.0
311.121368 192.0
311.609528 116.0
313.118622 116.0
314.070251 128.0
314.139221 144.0
316.160034 632.0
316.976349 96.0
317.160614 100.0
317.550659 124.0
317.987061 136.0
318.15033 44.0
318.935394 120.0
320.7258 64.0
321.018127 56.0
321.871002 116.0
322.085266 68.0
322.417542 164.0
323.028961 200.0
324.174683 28.0
325.139374 172.0
325.940186 168.0
326.13916 420.0
326.270844 72.0
326.357147 48.0
326.490204 72.0
327.145782 120.0
327.587982 56.0
328.130981 156.0
328.139526 104.0
328.151459 160.0
331.511841 84.0
335.324188 288.0
335.364258 48.0
337.152618 196.0
338.30481 112.0
339.077667 132.0
339.341614 120.0
339.660645 224.0
341.177277 64.0
341.791504 132.0
341.916626 64.0
342.163239 188.0
342.47644 168.0
343.239136 72.0
343.585846 132.0
343.637482 132.0
343.762939 136.0
343.858887 128.0
343.958557 260.0
344.064728 232.0
344.074493 176.0
344.090179 128.0
344.148682 9420.0
344.196503 292.0
344.279755 44.0
344.330444 100.0
344.401245 76.0
344.46701 144.0
344.693512 152.0
344.748932 112.0
344.863495 44.0
344.98465 164.0
345.148956 1920.0
345.529144 40.0
345.630524 72.0
345.694763 84.0
345.92511 72.0
346.093719 84.0
346.154083 840.0
346.947571 124.0
347.157898 324.0
347.362915 92.0
347.611481 96.0
347.897278 76.0
348.060638 112.0
348.361481 48.0
348.443207 32.0
354.802765 60.0
355.995941 120.0
358.870789 116.0
361.632263 116.0
361.851837 160.0
363.819458 216.0
364.332153 28.0
365.118988 96.0
368.01889 80.0
375.656311 92.0
377.394257 40.0
379.248596 112.0
380.059113 76.0
385.858612 52.0
389.031921 80.0
391.642944 88.0
397.04187 112.0
401.835175 68.0
403.928528 180.0
406.637146 68.0
408.252167 88.0
416.911652 88.0
416.964478 52.0
420.120178 108.0
426.820801 136.0
435.973145 100.0
438.891235 124.0
439.112244 64.0
459.291626 104.0
486.680115 80.0
492.510895 128.0
499.821533 128.0
501.188507 124.0
506.204834 108.0
509.263458 104.0
511.543213 88.0
526.236816 96.0
527.461182 72.0
544.240417 88.0
548.156982 120.0
599.66333 104.0
620.714905 88.0
658.34491 84.0
662.119141 88.0
696.646118 68.0
743.419189 204.0
842.725586 156.0
857.867371 52.0
874.149963 64.0
880.983521 108.0
894.879272 76.0
926.810303 104.0
953.797974 76.0
959.257996 148.0
963.49762 132.0
986.660583 216.0
1001.199219 232.0
1026.433716 108.0
1054.889282 176.0
1058.777954 176.0
1059.587646 224.0
1061.441406 168.0
1069.510376 56.0
1072.708618 56.0
1074.404175 60.0
1075.128418 72.0
1098.598999 208.0
1100.631836 176.0
1112.084717 40.0
1115.425781 60.0
1124.964966 192.0
1128.158203 116.0
1143.357422 144.0
1152.893433 168.0
1155.124634 196.0
1171.348511 132.0
1199.505615 52.0
1201.967773 180.0
1203.762573 172.0
1208.400513 148.0
1229.881104 240.0
1236.367065 200.0
1250.790527 148.0
1251.022827 148.0
1253.896606 128.0
1266.558105 208.0
1274.041992 120.0
1279.453979 104.0
1291.084717 128.0
1291.327881 140.0
1301.597412 168.0
1308.708618 116.0
1308.795044 184.0
1313.941284 48.0
1316.14978 156.0
1318.324097 76.0
1326.77832 160.0
1330.529053 156.0
1346.183838 164.0
1350.10083 40.0
1351.073608 80.0
1359.213745 164.0
1369.852295 40.0
1374.150269 188.0
1375.050537 196.0
1385.595215 64.0
1387.759399 168.0
1393.385254 140.0
1404.462158 172.0
1406.230591 140.0
1414.789429 176.0
1416.946289 136.0
1420.072144 140.0
1429.989868 204.0
1432.904053 228.0
1438.258179 140.0
1444.303101 104.0
1449.072388 252.0
1464.592407 124.0
1467.678955 64.0
1475.688477 120.0
1478.679443 84.0
1479.720459 120.0
1480.141602 144.0
1483.505127 168.0
1484.593872 168.0
1485.836426 52.0
1491.342407 180.0
1494.950684 120.0
1498.737915 148.0
1501.181519 196.0
1501.543945 160.0
