>compound Oxytetracycline
>formula C22H24N2O9 
>ionization [M+H]+
>parentmass 461.155
#inchi InChI=1S/C22H24N2O9/c1-21(32)7-5-4-6-8(25)9(7)15(26)10-12(21)17(28)13-14(24(2)3)16(27)11(20(23)31)19(30)22(13,33)18(10)29/h4-6,12-14,17,25-26,28,30,32-33H,1-3H3,(H2,23,31)/t12-,13-,14+,17+,21-,22+/m1/s1
#inchikey OWFJMIVZYSDULZ
#Ion_Source LC-ESI
#Instrument qTof
#Compound_Source Isolated
#PI Sirenas
#Data_Collector Ed Esquenazi 
#Scan -1
#Precursor_MZ 461.155
#ExactMass 0.0
#Charge 1
#CAS_Number N/A
#Pubmed_ID N/A
#Smiles N/A
#INCHI_AUX N/A
#Library_Class 3
#SpectrumID CCMSLIB00000004459
#IonMode Positive
#UpdateWorkflowName UPDATE-SINGLE-ANNOTATED-BRONZE
#LibraryQualityString Bronze
#TaskID d19310cd93df49b68e9fcbec27720eb5
##Scan# 3
#SpectrumFile Oxytetracycline.mgf
#LibraryName fda_library.mgf
#MQScore -1
#Organism fda_library
#TIC_Query 0
#RT_Query -1
#MZErrorPPM -1
#SharedPeaks 0
#MassDiff 0
#LibMZ -1
#SpecMZ 461.155
#SpecCharge 0
#internalFilename spec-00000.mgf

>collision 10
102.938347 91.93943
104.06813 63.61731
104.344215 6.25
117.07193 49.56403
121.024796 144.183807
152.068573 172.355698
154.045959 39.117649
170.406998 56.07267
180.058899 50.484852
180.413986 29.219589
187.072205 32.25
210.074417 203.0
213.054779 228.223206
217.043655 33.84211
225.264221 19.30769
225.4888 13.025
247.072845 47.375
251.070129 124.5037
253.084229 39.028851
255.064011 220.002106
265.519806 21.02083
267.064667 410.856415
267.177704 20.007351
267.638458 29.761909
269.58844 34.003052
289.051544 40.011909
291.064941 21.9
308.123291 61.042809
309.055908 60.25
324.123505 166.364899
341.946472 36.901321
342.125427 84.304779
349.929413 38.485291
353.058105 44.06377
398.1297 38.594391
408.103638 52.0
426.117188 103.320801
426.171234 7.017857
545.854797 24.0
