>compound MLS001141331-01!(2S)-2-[[2-(3-benzyl-4,8-dimethyl-2-oxochromen-7-yl)oxyacetyl]amino]-3-phenylpropanoic acid
>formula C29H27NO6
>ionization [M+H]+
>parentmass 486.192993
#inchi InChI=1S/C29H27NO6/c1-18-22-13-14-25(19(2)27(22)36-29(34)23(18)15-20-9-5-3-6-10-20)35-17-26(31)30-24(28(32)33)16-21-11-7-4-8-12-21/h3-14,24H,15-17H2,1-2H3,(H,30,31)(H,32,33)/t24-/m0/s1
#inchikey XKWILXCQJFNUJH
#Ion_Source LC-ESI
#Instrument qTof
#Compound_Source NIH Natural Product Library
#PI Dorrestein
#Data_Collector VVP/LMS
#Scan -1
#Precursor_MZ 486.192
#ExactMass 485.184
#Charge 1
#CAS_Number N/A
#Pubmed_ID N/A
#Smiles Cc1c(Cc2ccccc2)c(=O)oc3c(C)c(OCC(=O)N[C@@H](Cc4ccccc4)C(=O)O)ccc13
#INCHI_AUX N/A
#Library_Class 1
#SpectrumID CCMSLIB00000079356
#IonMode Positive
#UpdateWorkflowName UPDATE-SINGLE-ANNOTATED-GOLD
#LibraryQualityString Gold
#TaskID b1d8e8f6646f4e71acdff9ca3d919d08
##Scan# 2437
#SpectrumFile p1-A05_GA5_01_17878.mzXML
#LibraryName NIH_Natural_Products_Library.mgf
#MQScore -1
#Organism NIH_Natural_Products_Library
#TIC_Query 0
#RT_Query -1
#MZErrorPPM -1
#SharedPeaks 0
#MassDiff 0
#LibMZ -1
#SpecMZ 486.192
#SpecCharge 0
#internalFilename spec-00000.mgf

>collision 10
94.972427 136.0
95.017044 236.0
95.044975 172.0
95.236397 172.0
95.314102 148.0
95.406281 176.0
95.477386 168.0
95.543518 200.0
95.596046 124.0
95.77253 160.0
96.024628 104.0
96.104607 180.0
96.159248 116.0
96.231468 168.0
96.375999 152.0
96.432938 144.0
96.481537 200.0
96.538239 220.0
96.575394 208.0
96.686913 120.0
96.763245 188.0
96.776955 188.0
96.829826 196.0
96.968925 204.0
97.005547 140.0
97.021118 260.0
97.241531 120.0
97.365211 152.0
97.591187 108.0
97.768219 160.0
97.8312 232.0
97.874512 164.0
97.95723 180.0
97.988747 172.0
98.124733 56.0
98.18586 48.0
98.219383 180.0
98.264755 128.0
98.395012 204.0
98.582649 152.0
98.615036 196.0
98.671593 124.0
98.754639 184.0
98.895119 32.0
98.932724 84.0
99.027763 180.0
99.146637 224.0
99.202133 164.0
99.229881 136.0
99.368713 148.0
99.501678 120.0
99.515579 164.0
99.559265 172.0
99.650635 148.0
99.682419 144.0
99.79174 72.0
99.82753 132.0
99.909073 184.0
99.92897 152.0
100.016533 216.0
100.060326 152.0
100.155907 244.0
100.209694 216.0
100.24157 204.0
100.291389 132.0
100.357178 136.0
100.468857 164.0
100.528717 136.0
100.598572 244.0
100.632507 60.0
100.70639 148.0
100.804283 132.0
100.968201 84.0
101.100235 180.0
101.376579 156.0
101.635246 120.0
101.705482 76.0
101.739609 144.0
101.79583 188.0
101.836243 160.0
101.910316 168.0
102.048996 372.0
102.103287 176.0
102.129433 180.0
102.19783 140.0
102.215935 216.0
102.340729 72.0
102.459557 196.0
102.47567 188.0
102.503876 112.0
102.530075 192.0
102.65506 180.0
102.701447 204.0
102.741783 124.0
102.850754 164.0
102.919388 136.0
102.973907 180.0
103.032486 128.0
103.054131 2656.0
103.095123 140.0
103.11129 116.0
103.214386 160.0
103.254829 132.0
103.329666 196.0
103.406563 188.0
103.609047 224.0
103.636696 228.0
103.694145 152.0
103.817474 244.0
103.91111 216.0
103.937492 124.0
103.986191 132.0
104.02002 168.0
104.061531 584.0
104.195335 44.0
104.227844 84.0
104.274582 152.0
104.502327 100.0
104.56134 188.0
104.783279 148.0
104.811806 132.0
104.985069 136.0
105.035179 352.0
105.069862 7148.0
105.095444 180.0
105.140106 152.0
105.16256 148.0
105.182968 164.0
105.203773 84.0
105.245338 232.0
105.252571 128.0
105.259476 244.0
105.402313 248.0
105.421921 100.0
105.466881 144.0
105.485275 168.0
105.532295 164.0
105.637947 224.0
105.673416 156.0
105.687737 148.0
105.722527 196.0
105.7696 108.0
105.857628 40.0
105.884254 144.0
106.001724 116.0
106.025604 168.0
106.073059 1204.0
106.146553 180.0
106.19577 136.0
106.277824 76.0
106.415337 304.0
106.655678 52.0
106.723518 204.0
106.799606 56.0
106.814003 148.0
106.911324 212.0
107.032646 200.0
107.050117 544.0
107.083633 220.0
107.157791 152.0
107.231972 172.0
107.384537 216.0
107.398582 192.0
107.6894 84.0
107.85321 128.0
107.875946 68.0
107.89167 152.0
107.90696 172.0
108.008286 160.0
108.037247 140.0
108.055862 208.0
108.227646 140.0
108.503197 220.0
108.523926 228.0
108.552956 292.0
108.581985 128.0
108.637993 124.0
108.698158 76.0
108.731361 160.0
108.839302 160.0
108.893295 136.0
108.941063 172.0
109.038719 148.0
109.064278 188.0
109.121864 144.0
109.142654 64.0
109.211281 116.0
109.363167 176.0
109.38398 156.0
109.515152 128.0
109.542236 192.0
109.750633 96.0
109.82988 88.0
109.863251 184.0
109.970612 180.0
110.009331 152.0
110.076134 160.0
110.115814 144.0
110.145058 128.0
110.176392 136.0
110.209816 76.0
110.285042 84.0
110.32058 128.0
110.377029 100.0
110.485786 148.0
110.512978 72.0
110.540184 140.0
110.565292 160.0
110.579941 160.0
110.713928 144.0
110.808182 200.0
110.915054 148.0
111.080704 132.0
111.101685 172.0
111.314552 160.0
111.443886 192.0
111.538452 144.0
111.553169 164.0
111.670914 132.0
111.712982 164.0
111.904488 120.0
112.045593 172.0
112.488434 188.0
112.545433 72.0
112.775696 160.0
112.934265 360.0
112.995605 304.0
113.02523 172.0
113.200912 132.0
113.222687 212.0
113.321648 180.0
113.43396 40.0
113.578148 184.0
113.832817 160.0
113.849808 140.0
113.92202 188.0
113.958138 116.0
114.038887 100.0
114.100525 220.0
114.119659 184.0
114.168564 96.0
114.340881 100.0
114.47287 180.0
114.560188 236.0
114.743462 140.0
114.764778 144.0
114.8908 176.0
114.924744 84.0
114.950348 124.0
115.00399 176.0
115.03112 184.0
115.054428 4868.0
115.099762 204.0
115.168098 136.0
115.195869 44.0
115.242332 112.0
115.40316 124.0
115.437378 64.0
115.495117 140.0
115.531479 44.0
115.580688 136.0
115.64917 152.0
115.66629 108.0
115.867043 144.0
116.058807 464.0
116.274979 100.0
116.315758 128.0
116.339371 172.0
116.383194 232.0
116.518059 136.0
116.549843 112.0
116.635803 176.0
116.831482 144.0
116.874512 148.0
116.917542 184.0
117.010612 168.0
117.057625 6100.0
117.102272 260.0
117.137154 68.0
117.193161 160.0
117.264275 216.0
117.316475 92.0
117.331093 156.0
117.57267 156.0
117.629646 100.0
117.645126 196.0
117.6698 148.0
117.795052 68.0
117.890114 232.0
117.935501 52.0
118.011162 180.0
118.064034 1016.0
118.132729 224.0
118.160385 40.0
118.229912 96.0
118.277237 124.0
118.316208 184.0
118.373016 168.0
118.411476 196.0
118.435303 204.0
118.593468 64.0
118.722687 212.0
118.799454 56.0
118.834167 88.0
118.871056 92.0
118.938332 192.0
118.957863 252.0
119.00235 196.0
119.048653 740.0
119.084785 896.0
119.166344 168.0
119.194588 116.0
119.272827 148.0
119.457649 172.0
119.480469 176.0
119.512039 160.0
119.566437 212.0
119.637299 200.0
119.655678 184.0
119.688339 112.0
119.71447 256.0
119.736244 148.0
119.803764 60.0
119.842979 184.0
119.877846 188.0
119.947586 132.0
119.96199 112.0
120.059364 252.0
120.080009 7712.0
120.117661 56.0
120.167839 160.0
120.215843 136.0
120.268219 140.0
120.327156 240.0
120.390472 52.0
120.431969 64.0
120.542351 220.0
120.555954 64.0
120.559471 100.0
120.659225 168.0
120.689835 96.0
120.766373 240.0
120.81012 136.0
120.915291 180.0
121.031158 84.0
121.063591 340.0
121.084351 1344.0
121.182289 184.0
121.245827 60.0
121.302818 124.0
121.552834 140.0
121.568192 232.0
121.796516 132.0
121.978889 132.0
122.02066 104.0
122.047043 112.0
122.071228 108.0
122.096146 216.0
122.115211 84.0
122.165802 136.0
122.211998 144.0
122.253807 184.0
122.346245 64.0
122.366058 180.0
122.392479 188.0
122.584114 156.0
122.648026 168.0
122.695084 232.0
122.800156 168.0
122.815598 152.0
122.857887 184.0
123.044006 1096.0
123.064957 44.0
123.121361 44.0
123.215134 160.0
123.41626 204.0
123.458267 120.0
123.621964 116.0
123.708282 160.0
123.737061 272.0
123.883217 180.0
123.925308 156.0
123.958549 156.0
123.985138 180.0
124.043816 244.0
124.109268 128.0
124.13588 84.0
124.248993 192.0
124.268959 52.0
124.375481 200.0
124.468719 248.0
124.51535 196.0
124.713303 124.0
124.74691 92.0
124.83091 128.0
125.026848 200.0
125.07563 132.0
125.104568 224.0
125.280487 152.0
125.362923 184.0
125.414185 212.0
125.521194 168.0
125.632706 36.0
125.715256 160.0
125.987648 92.0
126.157486 200.0
126.39679 140.0
126.573616 172.0
126.676636 252.0
126.724571 128.0
126.766251 240.0
126.824516 124.0
126.952309 192.0
126.967064 124.0
127.051346 164.0
127.138496 168.0
127.205833 200.0
127.259712 116.0
127.354027 84.0
127.401199 156.0
127.448372 36.0
127.571983 168.0
127.668663 72.0
127.704643 136.0
127.778877 124.0
127.866203 212.0
127.967918 256.0
128.062088 500.0
128.244125 228.0
128.267532 196.0
128.357712 144.0
128.387024 180.0
128.486267 144.0
128.506256 168.0
128.63295 132.0
128.709702 80.0
128.736801 116.0
128.818115 212.0
128.847473 108.0
128.897186 188.0
129.068878 1752.0
129.10289 220.0
129.120071 60.0
129.281601 52.0
129.464676 160.0
129.48761 96.0
129.654221 124.0
129.691513 188.0
129.730042 164.0
129.775391 160.0
129.822998 68.0
129.857025 48.0
129.926437 192.0
129.954559 120.0
130.064911 13780.0
130.113434 80.0
130.188354 48.0
130.260376 68.0
130.34404 200.0
130.483734 92.0
130.537903 228.0
130.574692 96.0
130.66568 220.0
130.95787 120.0
131.048691 1376.0
131.069962 2236.0
131.196945 176.0
131.248734 68.0
131.278366 60.0
131.30687 208.0
131.354462 120.0
131.431198 204.0
131.499649 172.0
131.554443 88.0
131.620651 44.0
131.65947 220.0
131.689148 132.0
131.73027 260.0
131.755386 140.0
131.778244 160.0
131.800079 108.0
131.842224 216.0
131.894791 188.0
131.915359 248.0
131.953079 64.0
131.994904 176.0
132.028656 188.0
132.055817 820.0
132.081116 59496.0
132.114075 104.0
132.162399 240.0
132.188232 124.0
132.230316 216.0
132.269897 56.0
132.289886 88.0
132.318039 84.0
132.347733 212.0
132.385651 80.0
132.413467 144.0
132.436127 20.0
132.456299 172.0
132.517868 184.0
132.583679 28.0
132.611176 48.0
132.656296 176.0
132.693695 188.0
132.738174 140.0
132.79538 164.0
132.826706 44.0
132.886536 140.0
132.964355 48.0
133.033218 104.0
133.08342 6756.0
133.118164 40.0
133.166397 112.0
133.189362 148.0
133.22612 68.0
133.278961 76.0
133.326065 88.0
133.424454 80.0
133.493622 80.0
133.559418 28.0
133.593918 164.0
133.656036 160.0
133.736588 48.0
133.7603 172.0
133.780319 92.0
133.819168 64.0
133.879318 104.0
133.909256 72.0
133.941498 124.0
133.99292 160.0
134.025711 116.0
134.053116 240.0
134.084549 360.0
134.121048 104.0
134.167328 100.0
134.184647 124.0
134.206512 116.0
134.233078 92.0
134.351807 160.0
134.695755 80.0
134.797409 92.0
134.843628 88.0
135.036438 152.0
135.081772 100.0
135.158127 172.0
135.296982 128.0
135.507736 184.0
135.540161 160.0
135.658356 60.0
135.883316 28.0
135.935104 136.0
136.02951 188.0
136.057358 196.0
136.287292 128.0
136.370941 36.0
136.636032 136.0
136.808243 164.0
137.05542 144.0
137.132004 176.0
137.945587 184.0
138.050522 168.0
138.313843 156.0
138.355972 172.0
138.402802 140.0
138.639374 224.0
138.658127 192.0
138.782364 44.0
138.977036 208.0
139.122543 76.0
139.157761 136.0
139.249329 224.0
139.498398 124.0
139.553421 128.0
139.623001 128.0
139.775909 92.0
140.020721 44.0
140.160904 204.0
140.258682 40.0
140.284607 152.0
140.544037 108.0
140.588867 160.0
140.8069 156.0
140.846207 224.0
141.013962 120.0
141.071075 912.0
141.11087 32.0
141.21965 132.0
141.252762 172.0
141.385254 156.0
141.446793 140.0
141.683594 124.0
141.823395 40.0
141.927704 140.0
141.989349 204.0
142.067245 1140.0
142.119812 44.0
142.19101 44.0
142.247971 160.0
142.37233 168.0
142.518707 136.0
142.606628 120.0
142.62326 108.0
142.649414 96.0
142.825363 68.0
142.849152 68.0
142.93718 64.0
143.045624 412.0
143.078751 280.0
143.108551 92.0
143.156174 156.0
143.256195 132.0
143.382477 224.0
143.56842 80.0
144.057312 1152.0
144.083313 332.0
144.126984 116.0
144.354065 172.0
144.48082 80.0
144.5215 88.0
144.590164 144.0
144.801575 112.0
144.866241 204.0
144.918945 132.0
144.993225 136.0
145.063934 392.0
145.086273 200.0
145.326523 104.0
145.489731 48.0
145.633789 224.0
145.665024 108.0
145.929367 48.0
146.067337 176.0
146.100113 196.0
146.290222 164.0
146.338364 184.0
146.627426 172.0
146.866104 180.0
146.923996 144.0
147.044571 432.0
147.078094 1212.0
147.211212 108.0
147.293335 100.0
147.496292 108.0
147.692154 156.0
147.859085 32.0
148.056244 276.0
148.074814 300.0
148.285324 196.0
148.3181 176.0
148.384705 40.0
148.452591 132.0
148.496246 164.0
148.581146 104.0
148.942841 172.0
148.969559 116.0
149.058044 1636.0
149.127487 168.0
149.30983 244.0
149.362793 196.0
149.499573 152.0
149.582321 104.0
149.872131 80.0
150.060883 280.0
150.090836 532.0
150.1427 156.0
150.586868 48.0
150.674805 212.0
150.767654 228.0
150.916763 156.0
150.948547 56.0
151.034134 148.0
151.063492 100.0
151.090897 176.0
151.35228 112.0
151.548218 72.0
151.58252 136.0
151.611496 92.0
151.682999 116.0
151.768814 72.0
151.866898 80.0
151.888977 108.0
152.05336 156.0
152.264481 196.0
152.357819 148.0
152.453644 196.0
153.068604 164.0
153.460373 200.0
153.502289 280.0
153.600937 164.0
153.689743 180.0
154.082306 132.0
154.11937 164.0
154.207611 224.0
154.564423 116.0
154.643616 80.0
154.849106 64.0
155.044815 224.0
155.062164 188.0
155.09108 204.0
155.129089 160.0
155.426697 164.0
155.530914 176.0
155.796616 272.0
155.982986 124.0
156.069992 184.0
156.107285 128.0
156.256531 216.0
156.336151 100.0
156.358551 124.0
156.664795 152.0
156.6922 224.0
156.776917 152.0
157.006256 144.0
157.028702 144.0
157.063675 668.0
157.607849 188.0
157.69281 96.0
157.795288 172.0
157.875305 180.0
158.065674 312.0
158.085052 156.0
158.697617 208.0
158.779343 164.0
158.809448 148.0
158.862122 108.0
159.042023 128.0
159.081329 820.0
159.303925 192.0
159.756393 156.0
159.784073 212.0
160.051559 624.0
160.07576 1212.0
160.136475 32.0
160.250458 144.0
160.403549 124.0
160.516998 88.0
161.059921 560.0
161.081223 1212.0
161.135376 48.0
161.208649 56.0
161.252869 96.0
161.299622 56.0
161.329956 136.0
161.450256 196.0
161.506958 172.0
161.542374 240.0
161.744797 168.0
162.06514 204.0
162.087357 228.0
162.198196 112.0
162.431473 120.0
162.799484 184.0
162.929016 168.0
163.047028 144.0
163.082626 232.0
163.147568 200.0
163.170441 128.0
163.368805 84.0
163.605469 144.0
163.763336 204.0
163.786255 184.0
163.872864 148.0
163.931473 132.0
164.046158 184.0
164.066559 116.0
164.38179 208.0
164.4823 196.0
164.742798 168.0
165.067963 912.0
165.266891 176.0
165.306808 180.0
165.326614 164.0
165.589432 148.0
165.62529 80.0
165.758499 180.0
165.779007 188.0
165.927658 168.0
166.074585 584.0
166.153336 48.0
166.320129 60.0
166.535812 140.0
166.651413 96.0
167.037018 152.0
167.08699 204.0
167.327805 156.0
167.508072 52.0
167.54155 88.0
167.572479 152.0
167.814743 168.0
168.088058 352.0
168.152649 76.0
168.421158 92.0
168.653702 204.0
168.865707 136.0
168.930374 132.0
169.079285 144.0
169.10289 312.0
169.158081 64.0
169.44812 156.0
169.673599 152.0
169.728043 176.0
169.756561 136.0
169.81102 156.0
170.010773 184.0
170.060593 160.0
170.135361 36.0
170.467697 188.0
170.522385 204.0
170.732956 168.0
171.066315 132.0
171.733032 244.0
171.819305 108.0
171.884338 144.0
171.973053 136.0
172.409195 164.0
172.534653 136.0
172.581726 260.0
172.64447 148.0
172.70462 164.0
172.827576 116.0
172.968887 160.0
173.057037 500.0
173.076813 192.0
173.393188 36.0
173.422012 140.0
173.746857 104.0
173.86261 232.0
174.066483 620.0
174.117264 168.0
174.193436 176.0
174.319534 156.0
174.466721 260.0
174.558746 64.0
174.611618 180.0
174.687607 92.0
174.811264 84.0
174.856003 144.0
174.887589 140.0
174.966553 104.0
175.074951 5244.0
175.102402 236.0
175.148239 164.0
175.282608 36.0
175.359024 76.0
175.422287 60.0
175.559387 248.0
175.617004 132.0
175.68335 56.0
175.730835 108.0
175.788879 108.0
175.812622 228.0
176.029083 148.0
176.077286 1200.0
176.190201 152.0
176.354034 64.0
176.486206 160.0
176.80098 108.0
176.867142 188.0
176.890961 244.0
176.951843 108.0
177.054626 268.0
177.080261 200.0
177.116028 108.0
177.23259 140.0
177.5056 36.0
177.52417 36.0
177.585052 204.0
178.038986 172.0
178.083954 2140.0
178.307297 52.0
178.488052 88.0
178.546555 76.0
178.703491 152.0
178.855179 108.0
179.044205 200.0
179.085892 1904.0
179.209351 124.0
179.291962 132.0
180.04158 128.0
180.093048 148.0
180.156433 176.0
180.209869 128.0
180.282013 52.0
180.655762 192.0
180.736588 40.0
180.926605 188.0
181.014954 124.0
181.064072 200.0
181.098923 476.0
181.140823 152.0
181.159576 120.0
181.309616 104.0
181.357864 52.0
181.733292 184.0
181.950668 144.0
182.065659 340.0
182.097961 136.0
182.141327 228.0
182.485306 84.0
182.845749 204.0
183.075317 244.0
183.098816 136.0
183.117661 108.0
183.239014 148.0
183.327789 124.0
183.546127 156.0
183.729523 148.0
183.805069 156.0
183.918411 140.0
184.115509 184.0
184.241257 204.0
184.261795 196.0
184.369446 216.0
184.498383 68.0
184.7155 148.0
184.821014 240.0
185.058975 204.0
185.311356 156.0
185.796356 116.0
185.831619 44.0
186.05687 164.0
186.467026 104.0
186.7117 216.0
186.796005 36.0
186.902115 248.0
186.978302 144.0
187.075394 384.0
187.253265 124.0
187.517532 236.0
187.610214 124.0
188.078232 160.0
188.112137 60.0
188.786972 96.0
188.932968 144.0
189.06781 380.0
189.285004 120.0
189.441101 180.0
189.775452 104.0
190.079895 284.0
190.112823 116.0
190.206146 200.0
190.513687 188.0
190.876465 264.0
190.991974 112.0
191.03598 80.0
191.081375 876.0
191.236847 132.0
191.53421 32.0
191.710526 160.0
191.754623 156.0
191.895203 144.0
191.925964 128.0
192.017761 144.0
192.051498 136.0
192.092697 3920.0
192.397308 104.0
192.433197 152.0
192.504761 96.0
192.601639 36.0
192.651367 68.0
192.736237 72.0
192.779846 88.0
192.850311 76.0
192.933228 136.0
193.064957 324.0
193.099228 1444.0
193.47821 160.0
193.541885 40.0
193.807785 208.0
194.063461 192.0
194.069931 48.0
194.082764 172.0
194.105087 200.0
194.137634 124.0
194.162598 88.0
194.292969 96.0
194.38501 92.0
194.403946 124.0
194.462219 60.0
194.681534 96.0
194.801483 152.0
194.837082 168.0
194.903763 88.0
195.077789 412.0
195.111679 172.0
195.165024 92.0
195.192825 92.0
195.220963 156.0
195.368042 160.0
195.537781 76.0
195.63736 144.0
195.963821 80.0
196.078064 196.0
196.727936 80.0
197.05188 68.0
197.094589 184.0
197.137665 132.0
197.812531 192.0
198.412003 168.0
199.121902 140.0
199.512466 160.0
200.108887 136.0
200.458145 136.0
200.852844 240.0
200.917709 116.0
200.974136 144.0
201.054443 144.0
201.237274 172.0
201.321335 136.0
201.341095 208.0
201.544479 144.0
201.653488 236.0
201.945892 208.0
202.005295 228.0
202.06456 1324.0
202.114319 52.0
202.122849 116.0
202.143921 108.0
202.183548 48.0
202.259964 44.0
202.282608 104.0
202.327896 196.0
202.401306 172.0
202.441147 100.0
202.496033 232.0
202.574265 84.0
202.605423 108.0
202.630432 184.0
202.698074 188.0
202.717255 128.0
202.741425 172.0
202.800934 260.0
202.835373 212.0
202.85762 160.0
202.881592 192.0
202.902985 88.0
202.951187 80.0
202.985886 144.0
203.004944 252.0
203.07045 82784.0
203.139862 88.0
203.217789 72.0
203.254837 72.0
203.3022 244.0
203.330246 76.0
203.379974 232.0
203.429321 204.0
203.460617 104.0
203.504379 156.0
203.535965 132.0
203.576309 264.0
203.608749 132.0
203.629379 140.0
203.651901 88.0
203.68335 164.0
203.76857 100.0
203.856659 40.0
203.888321 84.0
203.913483 84.0
203.934921 96.0
203.975189 164.0
204.00444 136.0
204.072754 10592.0
204.140915 40.0
204.167221 96.0
204.186646 64.0
204.215775 112.0
204.238113 92.0
204.260162 104.0
204.302002 100.0
204.337173 36.0
204.35907 56.0
204.385529 136.0
204.421402 68.0
204.471558 104.0
204.501724 96.0
204.521927 56.0
204.565002 260.0
204.60405 72.0
204.681549 100.0
204.732239 80.0
204.766983 52.0
204.801163 56.0
204.963547 188.0
205.023376 164.0
205.075729 1024.0
205.099731 852.0
205.154495 128.0
205.225647 104.0
205.299896 52.0
205.326813 92.0
205.373474 100.0
205.435944 84.0
205.508118 48.0
205.533325 164.0
205.565186 132.0
205.610855 136.0
205.660629 136.0
205.683533 120.0
205.736435 136.0
205.844925 152.0
205.97525 76.0
206.041763 48.0
206.07608 408.0
206.102173 292.0
206.187042 152.0
206.302048 100.0
206.543427 68.0
206.579437 72.0
206.825516 40.0
206.991562 112.0
207.078735 836.0
207.115829 4384.0
207.192047 48.0
207.289459 144.0
207.624847 80.0
207.957642 40.0
208.089737 244.0
208.120758 600.0
208.330917 52.0
208.55217 68.0
208.813797 64.0
209.091705 140.0
209.126343 196.0
209.314514 132.0
209.446991 128.0
209.608322 216.0
209.642899 112.0
209.769714 196.0
209.824478 60.0
210.096634 292.0
210.13884 188.0
210.375488 196.0
210.970566 48.0
211.110245 328.0
211.248169 56.0
211.856064 120.0
212.87117 68.0
213.071579 56.0
213.344757 56.0
213.39418 76.0
213.466858 192.0
213.530838 72.0
214.002243 160.0
214.051743 160.0
214.080856 104.0
214.923248 32.0
214.952438 68.0
215.067749 1088.0
215.492584 104.0
215.603622 60.0
215.673767 40.0
216.068115 464.0
216.090805 368.0
216.32019 204.0
216.364105 136.0
216.539795 96.0
217.067276 204.0
217.100327 1284.0
217.190445 148.0
217.425156 132.0
218.069 248.0
218.099228 472.0
218.291748 36.0
218.36821 48.0
218.506454 96.0
218.550583 84.0
219.084854 160.0
219.111938 144.0
219.272034 76.0
219.590439 136.0
219.730713 80.0
219.938583 68.0
220.087982 1772.0
220.213165 36.0
220.762848 104.0
220.913681 72.0
220.993561 140.0
221.053497 204.0
221.092911 540.0
221.128815 316.0
221.136688 260.0
221.707169 32.0
222.100922 412.0
222.490204 140.0
223.072433 140.0
223.110992 344.0
223.164597 72.0
223.488785 72.0
223.521515 180.0
223.884674 100.0
224.036575 120.0
224.114044 60.0
224.14682 108.0
224.531357 80.0
225.669037 192.0
225.944168 140.0
226.027954 124.0
226.066849 64.0
226.177582 136.0
226.357208 104.0
226.638763 120.0
227.065643 108.0
227.091415 200.0
227.394424 160.0
228.046158 56.0
229.103104 288.0
229.937515 180.0
230.109558 136.0
230.254501 164.0
230.402512 140.0
230.964752 92.0
231.040375 168.0
231.066284 240.0
232.003372 116.0
232.088165 684.0
232.437073 204.0
232.774002 188.0
233.095673 424.0
234.048035 84.0
234.092621 272.0
234.105026 176.0
234.110153 168.0
235.079163 156.0
235.111755 5268.0
235.530136 128.0
236.082031 140.0
236.11702 1276.0
236.171997 168.0
236.38002 44.0
236.652435 60.0
236.679993 88.0
236.952576 68.0
237.089798 552.0
237.125549 1348.0
237.765121 144.0
237.817307 104.0
238.094559 208.0
238.126373 340.0
238.960419 184.0
239.109055 156.0
239.135818 180.0
239.801056 144.0
239.942856 56.0
240.646255 80.0
241.332153 40.0
241.789963 144.0
241.916855 164.0
242.076553 268.0
242.682068 168.0
243.064636 1656.0
243.116318 136.0
243.426743 84.0
243.69075 32.0
244.06662 120.0
244.074921 168.0
244.336105 192.0
245.097351 860.0
245.948441 156.0
246.094803 176.0
247.069885 176.0
247.109985 652.0
247.308044 52.0
247.730759 60.0
248.082245 180.0
248.113022 160.0
248.213394 92.0
248.909988 124.0
249.107086 324.0
249.739624 156.0
250.098724 1260.0
250.863724 68.0
251.10733 788.0
251.182205 40.0
251.245285 100.0
251.491409 164.0
251.63031 104.0
252.111908 460.0
252.356964 160.0
252.451813 56.0
252.543533 96.0
252.945358 148.0
253.118118 480.0
254.098846 72.0
254.15596 60.0
254.670227 208.0
255.053513 164.0
255.169113 148.0
256.879211 100.0
257.124878 160.0
258.33902 192.0
258.502197 128.0
258.992004 116.0
259.594513 192.0
259.892822 140.0
260.089783 128.0
260.512421 72.0
261.077423 760.0
261.118958 204.0
261.328979 144.0
262.069519 244.0
262.669128 80.0
262.807831 60.0
262.984222 208.0
263.10495 800.0
263.272644 68.0
263.4729 156.0
264.114471 244.0
264.54007 104.0
264.867096 160.0
265.009644 156.0
265.035553 160.0
265.084839 776.0
265.121429 5460.0
265.29483 84.0
265.437469 52.0
265.774811 124.0
266.037689 32.0
266.084839 128.0
266.124542 1480.0
266.349426 52.0
266.414368 140.0
266.541077 44.0
266.599579 76.0
267.022186 132.0
267.120758 288.0
267.18808 140.0
267.435394 124.0
267.529785 48.0
267.6763 140.0
267.835876 132.0
267.982452 136.0
268.148651 120.0
268.595306 52.0
268.820435 156.0
270.091278 92.0
270.173065 156.0
270.359558 80.0
272.464569 128.0
273.309509 180.0
274.175537 100.0
274.389771 180.0
275.108765 340.0
275.161774 168.0
275.321808 204.0
275.567993 140.0
276.109314 156.0
277.130585 200.0
277.40799 144.0
277.696442 88.0
277.898804 188.0
278.088074 288.0
279.098846 1852.0
279.16098 96.0
279.227478 68.0
279.430389 84.0
279.93631 204.0
280.066193 164.0
280.105408 1804.0
280.261902 160.0
280.589355 80.0
281.114288 1764.0
281.223145 52.0
281.329956 36.0
281.405029 132.0
281.476837 64.0
281.921112 56.0
281.974579 200.0
282.120911 516.0
282.17514 68.0
282.201904 52.0
282.225311 68.0
282.298859 80.0
282.345673 64.0
282.440186 204.0
282.783936 216.0
282.807373 92.0
283.127838 180.0
283.869751 152.0
284.083984 176.0
284.181274 140.0
284.60083 84.0
284.953461 52.0
285.299622 120.0
285.770447 48.0
288.093231 68.0
289.418976 88.0
289.581512 116.0
289.842377 216.0
290.740967 184.0
291.100983 140.0
291.12796 136.0
291.28418 152.0
291.868713 88.0
291.906128 48.0
292.014954 32.0
292.038757 92.0
292.124725 72.0
292.161194 108.0
292.188416 100.0
292.368744 212.0
292.423218 196.0
292.491272 136.0
292.559357 148.0
292.742523 60.0
292.781311 148.0
292.896454 140.0
292.923706 96.0
292.991852 244.0
293.043335 216.0
293.117126 27508.0
293.219147 68.0
293.311615 76.0
293.321747 64.0
293.365509 80.0
293.434875 84.0
293.462158 36.0
293.489441 48.0
293.536072 148.0
293.595154 44.0
293.646301 32.0
293.714508 60.0
293.779327 64.0
293.804321 136.0
293.871429 92.0
293.936249 44.0
293.987457 48.0
294.011322 224.0
294.119568 4888.0
294.168335 68.0
294.2659 96.0
294.397095 68.0
294.472198 64.0
294.581512 52.0
294.685577 80.0
294.722168 92.0
294.803589 48.0
294.889038 96.0
294.974457 148.0
295.036011 100.0
295.123535 1072.0
295.179596 40.0
295.388214 96.0
295.42926 112.0
295.590057 64.0
295.634552 124.0
295.690765 108.0
295.809113 84.0
295.952881 100.0
295.987122 152.0
296.045349 68.0
296.103271 144.0
296.16864 88.0
296.219025 88.0
296.343323 152.0
296.415283 112.0
297.094116 76.0
297.289703 36.0
297.382355 92.0
297.437256 176.0
298.131012 88.0
298.254761 152.0
298.653595 60.0
302.667053 32.0
303.100006 168.0
305.114136 480.0
305.387726 56.0
306.114502 168.0
308.117065 124.0
308.322449 92.0
308.721741 100.0
309.110016 144.0
309.200989 68.0
311.125305 196.0
311.971893 36.0
313.689728 104.0
314.666901 132.0
315.907318 52.0
318.043945 100.0
318.103088 188.0
319.11676 212.0
320.118195 296.0
320.139465 196.0
321.111176 908.0
321.795959 144.0
322.117889 356.0
322.943024 72.0
325.121246 132.0
325.706451 108.0
326.569061 116.0
327.180756 176.0
327.375183 52.0
330.812347 32.0
333.165833 60.0
334.142181 160.0
335.618774 96.0
336.078339 116.0
337.148224 180.0
337.495483 100.0
338.139648 168.0
339.125824 188.0
339.432434 116.0
343.80249 196.0
343.846771 56.0
345.6427 72.0
347.191101 124.0
347.447021 108.0
347.550903 32.0
348.133667 76.0
349.125854 40.0
350.126923 140.0
351.021271 184.0
352.271515 92.0
353.131195 48.0
353.172333 184.0
354.167938 140.0
355.746552 160.0
361.615265 204.0
362.136383 968.0
362.21347 208.0
363.138763 436.0
364.136444 264.0
365.147369 84.0
366.178741 148.0
366.830261 88.0
372.05191 96.0
377.681671 108.0
379.00174 68.0
379.897308 40.0
380.758942 92.0
381.153168 132.0
381.99881 136.0
382.146637 136.0
383.161835 424.0
383.349792 40.0
383.848724 44.0
384.156799 276.0
384.169708 228.0
385.167816 160.0
386.270081 60.0
386.704407 84.0
387.154602 132.0
387.883331 204.0
389.075836 76.0
389.476379 40.0
390.423523 64.0
393.37851 68.0
395.162354 136.0
396.164062 128.0
398.240814 148.0
399.659973 48.0
400.264984 48.0
400.448151 64.0
401.253082 116.0
401.883209 112.0
404.144623 156.0
405.16153 132.0
406.504669 160.0
407.829956 132.0
408.143524 4728.0
408.317322 96.0
408.437073 96.0
408.698547 68.0
408.811218 76.0
408.851471 68.0
408.92392 60.0
409.145966 1700.0
409.362701 76.0
409.596283 136.0
409.725189 32.0
410.15097 476.0
410.430511 84.0
410.7854 56.0
411.152557 176.0
411.229218 80.0
411.576385 44.0
411.677673 144.0
414.188843 100.0
416.829895 36.0
419.096252 84.0
420.482666 100.0
422.181488 132.0
422.247559 56.0
422.90625 144.0
423.151855 176.0
423.181335 300.0
423.848145 68.0
424.040741 52.0
424.180084 140.0
429.620422 124.0
430.280701 176.0
432.214935 192.0
433.494415 140.0
435.182587 48.0
436.034119 84.0
437.402496 60.0
438.747986 200.0
440.185394 1832.0
440.250214 172.0
440.336731 84.0
441.185333 800.0
441.336426 44.0
441.365692 64.0
441.562256 60.0
442.018219 124.0
442.18634 136.0
443.077484 52.0
443.877991 88.0
444.087677 108.0
445.346802 72.0
445.733276 104.0
445.918182 88.0
447.373535 64.0
450.189941 140.0
454.002747 60.0
460.134094 84.0
465.378693 104.0
468.186554 68.0
469.186615 160.0
474.594696 96.0
474.703094 52.0
475.050079 100.0
486.192993 792.0
487.189514 264.0
487.269257 156.0
488.195526 120.0
491.425354 92.0
497.967865 64.0
500.50705 52.0
503.861511 164.0
505.604767 172.0
506.173279 68.0
514.45929 80.0
518.774841 48.0
536.383179 36.0
545.892578 64.0
561.68988 96.0
565.223633 108.0
566.421326 68.0
574.688354 52.0
579.766479 84.0
591.973389 60.0
594.571716 56.0
605.810364 60.0
606.055298 44.0
607.280823 96.0
610.514526 108.0
611.520813 64.0
615.104065 196.0
630.84082 100.0
633.312622 64.0
634.901367 68.0
639.133362 20.0
640.998901 76.0
642.445862 60.0
657.37262 108.0
675.845215 80.0
677.854248 144.0
696.74176 80.0
714.207031 116.0
714.318726 224.0
714.590027 216.0
715.329773 72.0
718.580444 76.0
726.288879 60.0
730.618408 76.0
736.121277 188.0
742.783447 132.0
745.25354 36.0
762.109192 36.0
762.191589 76.0
762.268555 108.0
763.015991 36.0
764.418518 80.0
765.932495 200.0
769.958679 76.0
773.618896 92.0
774.216858 156.0
781.527283 96.0
782.039246 212.0
784.233704 164.0
789.755554 160.0
791.260803 112.0
791.943909 232.0
792.722656 100.0
795.802002 36.0
797.127563 172.0
802.615601 52.0
809.90564 136.0
812.955688 180.0
813.43811 144.0
818.509277 96.0
825.590759 172.0
828.78479 72.0
829.013977 140.0
832.375366 128.0
834.190857 124.0
839.171143 176.0
840.890869 192.0
841.790039 232.0
852.064941 128.0
860.176819 148.0
865.227478 100.0
872.648926 160.0
877.529602 176.0
882.873352 72.0
887.0177 148.0
887.717285 184.0
888.245117 144.0
893.068115 132.0
894.442505 176.0
899.377747 112.0
904.751587 188.0
907.705261 40.0
907.855225 180.0
913.713623 152.0
915.288269 68.0
922.600464 88.0
925.631592 184.0
928.455444 160.0
931.860657 56.0
932.121948 168.0
934.627075 108.0
942.034302 128.0
942.565796 200.0
945.886597 188.0
955.133484 196.0
957.903381 184.0
959.308289 172.0
960.263977 180.0
961.855835 116.0
962.16449 200.0
963.18335 220.0
965.569092 164.0
970.925964 132.0
971.564819 160.0
974.774658 140.0
975.856201 192.0
980.923584 184.0
980.97345 116.0
984.560974 156.0
985.722839 160.0
986.091553 112.0
987.11676 76.0
987.740601 172.0
990.490051 172.0
992.520508 144.0
992.765015 192.0
994.653442 180.0
996.606506 20.0
998.221924 156.0
998.410522 124.0
1000.379883 144.0
1003.422607 192.0
1005.024536 188.0
1014.891418 120.0
1017.041931 212.0
1018.051331 80.0
1018.184692 248.0
1020.287842 168.0
1027.126953 180.0
1027.675537 184.0
1031.130127 180.0
1033.924805 152.0
1034.302368 112.0
1034.590454 96.0
1039.769409 216.0
1042.074585 216.0
1043.925781 168.0
1046.67334 88.0
1050.89502 164.0
1051.33374 244.0
1053.096191 228.0
1053.948975 184.0
1055.97229 144.0
1057.214355 180.0
1062.644165 200.0
1063.111328 184.0
1065.240967 176.0
1065.988037 204.0
1068.699463 184.0
1068.796997 200.0
1070.828003 172.0
1071.192749 248.0
1072.8479 164.0
1077.788452 180.0
1078.834106 116.0
1082.995605 112.0
1086.325439 264.0
1088.254761 176.0
1089.949341 184.0
1090.606567 156.0
1093.217407 256.0
1093.724121 172.0
1096.16748 184.0
1096.259766 288.0
1096.740845 148.0
1099.391968 172.0
1100.831055 92.0
1100.98291 152.0
1102.69397 240.0
1103.526855 120.0
1107.65625 156.0
1107.974243 168.0
1110.13501 188.0
1110.241089 196.0
1115.200317 204.0
1117.281616 172.0
1119.298218 36.0
1119.491333 220.0
1119.877563 224.0
1120.703613 172.0
1121.896484 100.0
1123.096802 156.0
1124.424438 176.0
1128.044556 116.0
1128.786621 156.0
1128.94043 144.0
1132.098877 184.0
1132.32666 152.0
1136.247803 124.0
1136.811401 204.0
1138.583618 120.0
1142.360962 176.0
1145.821167 96.0
1148.005005 172.0
1148.052124 100.0
1150.049072 156.0
1150.501343 124.0
1150.753906 264.0
1151.372314 196.0
1151.588501 164.0
1152.838257 208.0
1153.027466 208.0
1155.360229 132.0
1157.038452 136.0
1159.036499 184.0
1159.97168 136.0
1160.595337 144.0
1161.741577 96.0
1165.108643 228.0
1165.577393 136.0
1166.936768 100.0
1168.589478 104.0
1168.671021 176.0
1170.052612 180.0
1172.586548 84.0
1173.963623 128.0
1174.481934 152.0
1176.153564 204.0
1176.808838 152.0
1177.000122 180.0
1177.095703 44.0
1179.541504 148.0
1179.602905 160.0
1181.079956 160.0
1183.543457 196.0
1185.358643 160.0
1187.051758 208.0
1187.483765 160.0
1189.796143 56.0
1190.365967 160.0
1190.633789 208.0
1190.894775 200.0
1191.12146 188.0
1191.650391 204.0
1192.976807 216.0
1193.643677 236.0
1194.757812 132.0
1196.113403 184.0
1197.077271 48.0
1200.439941 184.0
1200.522217 108.0
1200.598633 228.0
1200.936523 112.0
1204.622314 124.0
1212.627808 220.0
1212.925781 224.0
1215.949707 96.0
1218.171631 132.0
1218.963623 208.0
1219.457031 224.0
1220.166016 112.0
1220.308105 124.0
1221.848999 196.0
1222.078613 136.0
1224.055298 148.0
1225.079102 44.0
1225.608521 200.0
1226.159058 252.0
1226.786377 192.0
1228.348389 168.0
1229.450684 44.0
1229.71582 160.0
1229.778687 208.0
1231.398438 100.0
1233.557373 144.0
1234.40332 184.0
1235.354492 36.0
1236.956909 104.0
1237.054932 140.0
1237.341919 188.0
1238.973755 80.0
1242.56311 172.0
1242.801636 176.0
1243.524414 140.0
1245.188232 96.0
1245.258545 132.0
1247.464722 60.0
1248.252197 160.0
1248.378784 144.0
1248.519409 164.0
1249.074951 196.0
1249.70105 168.0
1250.067017 204.0
1250.939697 132.0
1250.989014 96.0
1251.826782 120.0
1253.904907 40.0
1254.313721 84.0
1254.447632 108.0
1255.166748 104.0
1256.429199 108.0
1257.064209 112.0
1257.572388 140.0
1260.12146 104.0
1260.722046 148.0
1260.941162 136.0
1262.015625 224.0
1262.418701 128.0
1263.670654 140.0
1267.472656 152.0
1268.025391 172.0
1268.266357 136.0
1271.912109 224.0
1272.45166 176.0
1272.707153 104.0
1274.319458 124.0
1274.418945 128.0
1274.468628 76.0
1275.577271 200.0
1276.55896 224.0
1276.885498 172.0
1277.056152 196.0
1277.404663 188.0
1279.062622 68.0
1279.119629 192.0
1279.169434 132.0
1279.439941 184.0
1280.18042 156.0
1281.092041 200.0
1281.490967 120.0
1281.947021 120.0
1283.529419 76.0
1286.368896 152.0
1288.682617 104.0
1288.782715 116.0
1289.754517 124.0
1290.519409 160.0
1290.569458 184.0
1291.41333 232.0
1291.613647 160.0
1293.445312 176.0
1293.838989 140.0
1297.960327 212.0
1298.539551 272.0
1299.077515 148.0
1299.622681 152.0
1300.361816 176.0
1301.115479 100.0
1301.223145 164.0
1303.356323 144.0
1304.06189 84.0
1304.477417 124.0
1304.52771 164.0
1305.778809 116.0
1307.498169 148.0
1308.527466 124.0
1310.025391 60.0
1310.299194 152.0
1311.127808 168.0
1311.516968 60.0
1311.704346 204.0
1312.216187 204.0
1312.879517 192.0
1313.348389 44.0
1313.42041 232.0
1314.235596 180.0
1314.567505 84.0
1314.625244 188.0
1314.832275 136.0
1316.10498 212.0
1317.072632 180.0
1317.80957 84.0
1318.611572 76.0
1318.756104 176.0
1320.570801 100.0
1320.744385 200.0
1321.532959 176.0
1321.887451 152.0
1322.350586 124.0
1322.806641 104.0
1323.769531 72.0
1324.508179 136.0
1325.087769 96.0
1325.515259 220.0
1326.522583 192.0
1327.363647 156.0
1329.489014 176.0
1330.200195 172.0
1330.265625 136.0
1332.589478 72.0
1334.035645 168.0
1334.595459 144.0
1335.584473 272.0
1335.977173 152.0
1336.537476 132.0
1337.942017 128.0
1340.039429 160.0
1341.774048 172.0
1342.685425 216.0
1342.838623 184.0
1343.604492 180.0
1344.859497 192.0
1346.633667 144.0
1348.226318 148.0
1348.949951 140.0
1350.236694 176.0
1351.129028 216.0
1351.297363 88.0
1354.943237 60.0
1355.214233 204.0
1355.580688 132.0
1356.936646 224.0
1356.987915 168.0
1357.229858 172.0
1358.990112 64.0
1359.401001 212.0
1359.525757 208.0
1359.782593 148.0
1360.369873 76.0
1361.280273 136.0
1361.390381 152.0
1361.63269 164.0
1361.911743 124.0
1362.102783 180.0
1364.123413 48.0
1364.343994 76.0
1365.013062 212.0
1365.123291 188.0
1365.498413 164.0
1365.763184 212.0
1366.278076 156.0
1366.505127 140.0
1366.859253 212.0
1368.036865 164.0
1368.640503 160.0
1368.90564 148.0
1370.098755 172.0
1370.732422 244.0
1372.589844 168.0
1372.663574 188.0
1373.275757 136.0
1373.629761 260.0
1373.784668 64.0
1374.182983 160.0
1374.699585 44.0
1375.518799 168.0
1375.910034 140.0
1376.663086 236.0
1376.796021 196.0
1377.251831 196.0
1377.46814 224.0
1379.448486 176.0
1379.72937 88.0
1380.564819 244.0
1380.74231 220.0
1381.282227 184.0
1381.592896 204.0
1383.924927 184.0
1385.086792 204.0
1385.168335 52.0
1385.58313 76.0
1385.63501 188.0
1386.509277 156.0
1387.575562 212.0
1387.917725 160.0
1389.371338 156.0
1390.224609 208.0
1391.879883 192.0
1392.756226 188.0
1394.078613 124.0
1396.740234 224.0
1396.94104 224.0
1397.030273 172.0
1398.838501 76.0
1399.94043 136.0
1400.714966 148.0
1401.765381 192.0
1403.107056 156.0
1403.420166 40.0
1403.994263 144.0
1404.605835 148.0
1404.747559 84.0
1406.366699 152.0
1406.73999 160.0
1406.934082 76.0
1407.202759 148.0
1409.495728 160.0
1410.235596 152.0
1410.661621 52.0
1411.057861 400.0
1412.321533 220.0
1412.673096 216.0
1413.226685 164.0
1413.570923 136.0
1413.974976 172.0
1414.064819 228.0
1414.574585 160.0
1414.783447 212.0
1418.693726 120.0
1420.343384 168.0
1420.973511 132.0
1421.528809 296.0
1422.009033 76.0
1422.587036 172.0
1422.894775 160.0
1423.946045 168.0
1424.148804 216.0
1424.213623 180.0
1424.314087 192.0
1424.599487 176.0
1425.944458 120.0
1426.530762 160.0
1426.752563 168.0
1428.004395 60.0
1428.214966 192.0
1428.726562 156.0
1430.878784 152.0
1431.082153 176.0
1431.149902 176.0
1432.219238 180.0
1433.530029 192.0
1433.997314 164.0
1434.163086 108.0
1434.524902 252.0
1435.316528 120.0
1435.716187 192.0
1437.088989 108.0
1437.694214 96.0
1438.522827 152.0
1440.032959 40.0
1440.380371 180.0
1441.415405 156.0
1442.254272 160.0
1443.131104 224.0
1443.947754 164.0
1445.665039 156.0
1447.307617 172.0
1447.466675 148.0
1448.329956 132.0
1448.640503 180.0
1448.829834 144.0
1448.981445 192.0
1449.229614 220.0
1449.360229 184.0
1449.542114 120.0
1450.292358 36.0
1450.598877 76.0
1451.338501 52.0
1451.812012 220.0
1452.589844 84.0
1453.189087 76.0
1453.265015 164.0
1453.360107 72.0
1453.614014 60.0
1453.667114 48.0
1453.818848 64.0
1456.55957 208.0
1457.342041 184.0
1457.600464 148.0
1458.454712 136.0
1458.580811 152.0
1460.055786 88.0
1461.447754 264.0
1461.759766 36.0
1461.828247 156.0
1462.551147 212.0
1463.007935 192.0
1464.226196 116.0
1466.054443 200.0
1467.23584 124.0
1467.388306 80.0
1468.432983 176.0
1468.616089 128.0
1468.966919 120.0
1469.630615 160.0
1470.431885 140.0
1471.04248 140.0
1472.355713 144.0
1472.90564 116.0
1473.256958 152.0
1473.554932 184.0
1474.808105 140.0
1475.35083 172.0
1476.023682 100.0
1477.476807 64.0
1477.729248 184.0
1477.805786 148.0
1479.022461 52.0
1479.144897 148.0
1479.466431 160.0
1479.665527 272.0
1480.316284 144.0
1480.498169 188.0
1480.61499 212.0
1480.890625 100.0
1481.886475 192.0
1482.338501 156.0
1482.560791 164.0
1482.69104 188.0
1485.451172 184.0
1485.520264 180.0
1486.172363 136.0
1487.292725 200.0
1489.603882 156.0
1489.899292 152.0
1490.763672 156.0
1491.04834 144.0
1491.547974 184.0
1493.670166 168.0
1494.162476 136.0
1496.140259 160.0
1496.263428 228.0
1498.219482 236.0
1498.372559 236.0
1498.754028 200.0
1499.159424 220.0
1500.145996 104.0
1500.60083 100.0
1500.755005 112.0
1502.420898 132.0
1503.099854 212.0
1503.25415 196.0
1503.331299 252.0
1504.002686 100.0
