>compound MLS002667896-01!
>formula C16H14O6
>ionization [M+H]+
>parentmass 303.087677
#inchi InChI=1S/C16H14O6/c1-21-13-3-2-8(4-10(13)18)14-7-12(20)16-11(19)5-9(17)6-15(16)22-14/h2-6,14,17-19H,7H2,1H3
#inchikey AIONOLUJZLIMTK
#Ion_Source LC-ESI
#Instrument qTof
#Compound_Source NIH Natural Product Library
#PI Dorrestein
#Data_Collector VVP/LMS
#Scan -1
#Precursor_MZ 303.087
#ExactMass 302.079
#Charge 1
#CAS_Number N/A
#Pubmed_ID N/A
#Smiles COc1ccc(cc1O)C2CC(=O)c3c(O)cc(O)cc3O2
#INCHI_AUX N/A
#Library_Class 1
#SpectrumID CCMSLIB00000079951
#IonMode Positive
#UpdateWorkflowName UPDATE-SINGLE-ANNOTATED-GOLD
#LibraryQualityString Gold
#TaskID b1d8e8f6646f4e71acdff9ca3d919d08
##Scan# 1915
#SpectrumFile p2-B02_GB2_01_17990.mzXML
#LibraryName NIH_Natural_Products_Library.mgf
#MQScore -1
#Organism NIH_Natural_Products_Library
#TIC_Query 0
#RT_Query -1
#MZErrorPPM -1
#SharedPeaks 0
#MassDiff 0
#LibMZ -1
#SpecMZ 303.087
#SpecCharge 0
#internalFilename spec-00000.mgf

>collision 10
95.050766 192.0
95.392593 124.0
95.659096 112.0
97.028137 188.0
97.110916 140.0
97.448563 124.0
98.031006 124.0
98.074364 52.0
98.141388 136.0
99.020775 52.0
99.63768 92.0
99.750954 52.0
99.991631 188.0
101.169319 136.0
101.720596 148.0
101.881248 208.0
102.047264 176.0
102.132523 48.0
103.051796 192.0
103.32782 172.0
103.642616 64.0
104.056381 156.0
105.03524 136.0
105.582619 132.0
106.040321 368.0
106.675484 52.0
106.689873 156.0
106.823891 188.0
106.947006 180.0
107.006706 152.0
107.691338 152.0
108.084129 168.0
108.309792 176.0
108.527397 180.0
109.025589 148.0
109.75209 140.0
110.370148 140.0
110.742653 184.0
111.013008 156.0
111.866051 204.0
111.913986 140.0
112.007133 124.0
112.049263 136.0
113.825981 144.0
113.887573 208.0
114.719582 216.0
114.900856 48.0
115.642357 108.0
115.775093 180.0
116.051521 104.0
116.732201 132.0
117.034027 1588.0
117.070053 144.0
118.037903 364.0
118.300766 180.0
119.046631 180.0
120.220001 132.0
120.654671 184.0
121.061378 160.0
121.177742 140.0
121.46273 140.0
121.498199 216.0
122.037315 308.0
122.403381 156.0
122.674377 184.0
122.824326 148.0
123.043388 480.0
123.686089 160.0
124.013908 164.0
124.042725 212.0
125.021225 288.0
125.0439 172.0
125.059334 396.0
125.507835 180.0
125.909508 140.0
126.045784 124.0
128.06488 124.0
128.46611 228.0
129.333832 40.0
130.358948 172.0
130.989182 212.0
131.447449 116.0
131.543304 216.0
133.003723 52.0
133.608093 208.0
134.036194 1440.0
134.719269 132.0
135.041992 508.0
135.804901 168.0
136.013733 132.0
136.052338 316.0
136.180908 164.0
136.506271 200.0
136.794785 272.0
137.016022 184.0
137.060013 888.0
137.305054 56.0
138.977646 224.0
139.038651 128.0
139.080902 204.0
139.623642 80.0
139.684784 136.0
140.306488 172.0
140.381943 40.0
140.403168 176.0
140.953201 132.0
140.993378 148.0
141.069016 136.0
141.835968 196.0
142.493332 60.0
142.643051 144.0
142.745285 96.0
143.917633 68.0
144.235367 208.0
144.48407 112.0
144.859924 164.0
144.886276 100.0
144.958145 92.0
145.027802 1236.0
145.073364 164.0
145.423401 64.0
145.6371 68.0
146.032379 160.0
146.5103 112.0
147.044693 164.0
147.146988 92.0
148.494858 192.0
148.98761 240.0
149.060684 2080.0
149.890274 88.0
149.997513 56.0
150.060425 348.0
150.974136 248.0
151.039474 308.0
151.074417 116.0
151.53714 52.0
151.718491 152.0
152.015274 124.0
152.106094 184.0
152.587585 136.0
152.656433 160.0
152.753769 112.0
152.907364 148.0
152.951141 220.0
152.97821 304.0
153.018951 15224.0
153.084625 72.0
153.113525 184.0
153.141266 52.0
153.232407 80.0
153.29155 104.0
153.445602 108.0
153.725555 44.0
153.774918 104.0
153.816879 60.0
153.908218 120.0
153.967484 212.0
154.023041 672.0
154.288712 56.0
155.022583 376.0
155.058533 132.0
155.219666 92.0
156.066391 40.0
156.121094 48.0
156.240494 76.0
156.561584 56.0
156.703568 220.0
157.102463 120.0
158.074387 188.0
160.042343 156.0
161.061188 208.0
161.673035 116.0
162.026749 476.0
163.036606 488.0
163.175064 136.0
163.914978 112.0
164.154984 260.0
164.213638 36.0
165.511856 112.0
166.022324 196.0
166.050003 140.0
167.024796 232.0
168.025558 156.0
168.065338 236.0
168.260422 164.0
169.058197 196.0
170.077682 176.0
171.023651 176.0
172.06131 172.0
173.05719 168.0
173.259109 136.0
175.074478 208.0
175.949539 104.0
176.599594 228.0
176.6763 84.0
176.880066 112.0
177.055176 4528.0
177.099838 52.0
177.22171 64.0
177.306503 60.0
177.370117 64.0
177.449646 88.0
178.056839 468.0
178.610153 128.0
178.745834 152.0
179.036926 772.0
179.419693 44.0
180.041412 224.0
180.228394 80.0
180.827423 36.0
180.977325 148.0
181.060333 172.0
181.312164 56.0
182.015015 136.0
183.044891 240.0
185.064636 232.0
186.040649 188.0
186.059647 88.0
187.030121 180.0
187.065506 152.0
187.765762 36.0
190.431534 156.0
191.080276 460.0
192.063721 184.0
192.903168 140.0
193.085663 164.0
196.056244 188.0
197.066071 188.0
200.0504 132.0
201.056366 272.0
202.059769 144.0
202.314468 40.0
202.368256 64.0
204.041794 252.0
206.946671 132.0
208.541656 56.0
212.051346 132.0
214.06752 356.0
215.067993 196.0
218.472565 144.0
219.064743 176.0
224.056107 196.0
225.046295 168.0
227.984863 176.0
228.041962 208.0
230.04808 164.0
231.060471 132.0
242.053543 308.0
243.062943 132.0
244.937637 112.0
245.043564 268.0
253.05275 192.0
258.052429 504.0
258.972778 172.0
260.056488 160.0
261.071716 148.0
267.071259 132.0
268.990509 140.0
269.049255 80.0
270.059662 208.0
271.058746 120.0
273.389008 104.0
274.120056 108.0
285.075684 168.0
286.042358 276.0
287.058777 736.0
287.145844 52.0
287.503448 52.0
288.052795 172.0
299.780914 64.0
301.073578 168.0
303.087677 424.0
306.245728 136.0
317.925598 108.0
371.96814 184.0
380.546387 164.0
421.706329 108.0
442.984436 108.0
469.755402 116.0
529.026428 52.0
772.130005 108.0
823.916931 156.0
850.910889 228.0
851.526367 152.0
933.226013 128.0
959.701355 124.0
982.768555 148.0
1004.128418 228.0
1005.926636 216.0
1021.947815 224.0
1023.405334 176.0
1042.434937 40.0
1054.104858 168.0
1066.801636 188.0
1066.89917 68.0
1117.776367 180.0
1127.900146 212.0
1128.421509 212.0
1132.891968 228.0
1182.2948 152.0
1200.113403 188.0
1208.705933 152.0
1211.496094 184.0
1218.780884 160.0
1231.843628 208.0
1243.908813 156.0
1249.3479 136.0
1250.262573 136.0
1275.384399 176.0
1281.974731 84.0
1284.755371 148.0
1301.129517 188.0
1306.281982 188.0
1315.505737 168.0
1319.38501 272.0
1322.785034 132.0
1329.66333 148.0
1334.988403 40.0
1337.294678 116.0
1344.96228 192.0
1350.932251 128.0
1362.309326 228.0
1377.255127 236.0
1391.134155 152.0
1393.730957 168.0
1401.148682 172.0
1404.093018 184.0
1404.309326 272.0
1405.279053 200.0
1406.525269 188.0
1414.036865 144.0
1414.253906 240.0
1422.243896 124.0
1424.368774 140.0
1426.720825 140.0
1429.759644 136.0
1430.738159 204.0
1432.507812 124.0
1438.646118 192.0
1441.161011 152.0
1441.49353 92.0
1444.321045 200.0
1451.591431 172.0
1452.076782 48.0
1458.880127 184.0
1461.838745 120.0
1477.818604 128.0
1485.960938 212.0
1493.20459 148.0
1498.924316 84.0
