>compound MLS001141235-01!1-[2-(3-benzyl-4,8-dimethyl-2-oxochromen-7-yl)oxyacetyl]piperidine-4-carboxylic acid
>formula C26H27NO6
>ionization [M+H]+
>parentmass 450.192
#inchi InChI=1S/C26H27NO6/c1-16-20-8-9-22(32-15-23(28)27-12-10-19(11-13-27)25(29)30)17(2)24(20)33-26(31)21(16)14-18-6-4-3-5-7-18/h3-9,19H,10-15H2,1-2H3,(H,29,30)
#inchikey VEZJYLMJOIHBAD
#Ion_Source LC-ESI
#Instrument qTof
#Compound_Source NIH Natural Product Library
#PI Dorrestein
#Data_Collector VVP/LMS
#Scan -1
#Precursor_MZ 450.192
#ExactMass 449.184
#Charge 1
#CAS_Number N/A
#Pubmed_ID N/A
#Smiles Cc1c(Cc2ccccc2)c(=O)oc3c(C)c(OCC(=O)N4CCC(CC4)C(=O)O)ccc13
#INCHI_AUX N/A
#Library_Class 1
#SpectrumID CCMSLIB00000079677
#IonMode Positive
#UpdateWorkflowName UPDATE-SINGLE-ANNOTATED-GOLD
#LibraryQualityString Gold
#TaskID b1d8e8f6646f4e71acdff9ca3d919d08
##Scan# 2211
#SpectrumFile p1-F09_GF9_01_17941.mzXML
#LibraryName NIH_Natural_Products_Library.mgf
#MQScore -1
#Organism NIH_Natural_Products_Library
#TIC_Query 0
#RT_Query -1
#MZErrorPPM -1
#SharedPeaks 0
#MassDiff 0
#LibMZ -1
#SpecMZ 450.192
#SpecCharge 0
#internalFilename spec-00000.mgf

>collision 10
95.081879 148.0
95.107117 116.0
95.173134 196.0
95.241112 96.0
95.631996 72.0
95.75663 204.0
95.803383 200.0
95.920326 128.0
95.937874 180.0
96.082077 176.0
96.113609 180.0
96.392715 124.0
96.588257 80.0
96.930923 100.0
97.191765 204.0
97.395973 248.0
97.437233 120.0
97.490295 180.0
97.610222 148.0
97.67514 36.0
97.862129 128.0
98.412323 196.0
98.439972 160.0
98.572342 124.0
98.857147 136.0
99.07814 1244.0
99.100746 144.0
99.396233 236.0
100.088081 176.0
100.251564 144.0
100.636505 160.0
100.764351 184.0
100.786331 60.0
100.984276 148.0
101.020592 132.0
101.080322 180.0
101.462944 136.0
102.043259 132.0
102.433746 208.0
102.544586 84.0
102.629265 220.0
102.915833 116.0
103.091599 220.0
103.12394 120.0
103.192856 232.0
103.674522 168.0
103.757637 136.0
103.907745 192.0
103.952713 152.0
104.163574 160.0
104.374977 160.0
105.106361 188.0
105.207367 184.0
105.296249 192.0
105.392273 136.0
105.674484 188.0
105.787064 160.0
105.877167 132.0
105.993958 196.0
106.451469 124.0
106.554192 164.0
106.959381 196.0
107.344711 180.0
107.418976 208.0
107.472626 160.0
107.598541 188.0
107.625389 88.0
107.639847 120.0
107.705948 192.0
107.989159 40.0
108.136086 160.0
108.233398 168.0
108.264465 148.0
108.857658 104.0
109.104958 156.0
109.396255 96.0
109.767174 120.0
109.969574 100.0
110.096565 260.0
110.351921 136.0
110.439766 216.0
110.471146 148.0
110.774734 196.0
110.850174 168.0
110.881615 208.0
110.906769 292.0
111.083786 168.0
111.313843 112.0
111.484032 128.0
111.704834 88.0
111.839523 152.0
111.940598 204.0
111.986938 104.0
112.11412 2332.0
112.237755 176.0
112.275726 168.0
112.987679 192.0
113.09877 184.0
113.12117 176.0
113.290466 164.0
113.370995 92.0
113.418594 172.0
113.495453 228.0
113.725235 148.0
113.825035 76.0
113.982254 176.0
114.094864 508.0
114.131989 148.0
114.194878 84.0
114.443901 204.0
114.891548 244.0
115.004662 220.0
115.097092 456.0
115.139191 76.0
115.267387 80.0
115.562515 176.0
115.654549 160.0
115.729485 164.0
115.77018 160.0
115.798027 140.0
115.834442 212.0
116.098114 136.0
116.267624 240.0
116.495262 224.0
116.880173 120.0
116.918915 148.0
116.973091 192.0
117.104103 160.0
117.363586 184.0
117.431763 152.0
117.533173 240.0
117.688606 184.0
117.725327 96.0
118.291893 80.0
118.476616 196.0
118.495499 96.0
118.532089 176.0
119.120392 176.0
119.270355 232.0
119.76001 180.0
119.947426 124.0
120.447205 64.0
120.47998 168.0
120.674522 168.0
120.733574 176.0
120.825455 140.0
120.969917 124.0
121.000572 176.0
121.105698 576.0
121.515701 144.0
121.557396 208.0
121.594711 148.0
121.634224 204.0
121.662766 164.0
121.825302 188.0
121.858269 172.0
122.505173 136.0
122.584511 156.0
122.990379 244.0
123.090508 424.0
123.160431 136.0
123.399132 212.0
123.675705 60.0
123.806526 204.0
123.937065 132.0
123.972527 200.0
124.117859 568.0
124.331856 160.0
124.927429 120.0
125.120697 244.0
125.40403 200.0
126.134979 2260.0
126.15863 296.0
126.256615 88.0
126.507675 48.0
126.583809 52.0
126.610687 48.0
126.64653 224.0
126.743866 172.0
126.84375 156.0
126.973816 228.0
127.011055 180.0
127.068039 160.0
127.09301 160.0
127.140511 360.0
127.35318 124.0
127.586922 124.0
127.636398 96.0
127.789368 188.0
127.852386 136.0
127.991982 184.0
128.08429 344.0
128.11615 24544.0
128.210526 160.0
128.258118 72.0
128.289429 220.0
128.330017 100.0
128.354675 64.0
128.413467 40.0
128.446503 124.0
128.483398 52.0
128.560135 88.0
128.591736 64.0
128.785934 112.0
128.826614 44.0
128.903442 80.0
129.07074 176.0
129.11853 1172.0
129.158951 84.0
129.183838 56.0
129.263046 240.0
129.34227 72.0
129.675369 100.0
129.841812 56.0
129.871262 180.0
129.925064 116.0
129.983765 68.0
130.020081 40.0
130.131592 1832.0
130.168915 72.0
130.213089 68.0
130.265335 88.0
130.281235 60.0
130.328964 52.0
130.594986 68.0
130.670059 116.0
130.84079 76.0
130.868118 120.0
130.954666 244.0
131.096863 128.0
131.133545 312.0
131.302551 52.0
131.597839 176.0
131.938324 180.0
132.089279 136.0
132.132492 216.0
132.187668 68.0
132.405197 124.0
133.070297 104.0
133.120819 216.0
134.237076 128.0
134.31781 180.0
134.361649 176.0
134.731094 224.0
134.802734 104.0
134.846649 212.0
134.941452 44.0
134.966888 176.0
135.261139 192.0
135.585068 128.0
136.462662 196.0
136.53244 136.0
136.802383 48.0
137.067947 188.0
137.478424 108.0
138.851929 96.0
138.971588 60.0
139.603561 180.0
139.737671 80.0
139.92598 168.0
140.187485 216.0
140.288849 60.0
140.418564 184.0
140.449219 148.0
140.888367 100.0
140.999435 112.0
141.1194 152.0
141.240646 124.0
141.361328 212.0
141.472595 180.0
141.512848 132.0
141.546005 112.0
141.593369 88.0
141.609955 216.0
141.654968 60.0
141.991592 96.0
142.088867 228.0
142.105484 188.0
142.136414 24208.0
142.215256 88.0
142.249496 84.0
142.269257 120.0
142.326248 80.0
142.416519 80.0
142.553284 100.0
142.639038 104.0
142.685089 64.0
142.72551 56.0
142.99913 80.0
143.084839 112.0
143.109909 136.0
143.140305 2024.0
143.208694 44.0
143.280167 156.0
143.320679 60.0
143.361191 76.0
143.382645 64.0
143.418396 60.0
143.697449 48.0
143.843048 36.0
143.859772 60.0
143.918091 124.0
143.987778 160.0
144.098633 72.0
144.117752 104.0
144.14476 164.0
144.225311 72.0
144.301819 132.0
144.749329 104.0
144.919418 136.0
145.020096 88.0
145.113052 196.0
145.175949 168.0
145.28714 80.0
145.6008 136.0
145.708908 140.0
146.140182 196.0
147.156631 236.0
147.698059 124.0
147.72467 188.0
148.058746 156.0
148.102341 204.0
149.110886 660.0
149.520508 64.0
149.544846 168.0
149.829803 36.0
150.118515 168.0
150.210159 136.0
151.785461 148.0
152.11673 196.0
152.775421 92.0
152.886169 164.0
153.435547 172.0
153.810577 164.0
153.946396 188.0
154.141571 188.0
154.233032 116.0
154.794739 160.0
155.15654 208.0
156.120163 608.0
156.942001 176.0
157.11911 212.0
158.119049 184.0
158.903229 156.0
159.135284 168.0
159.1819 248.0
159.340164 92.0
160.107483 196.0
160.334259 96.0
160.412415 48.0
161.015549 136.0
161.078705 36.0
161.116745 432.0
161.462952 192.0
161.647659 156.0
162.357101 56.0
163.124023 208.0
163.253708 160.0
163.363098 160.0
163.793365 168.0
164.14003 84.0
164.34668 80.0
165.100372 172.0
165.127289 184.0
166.833984 156.0
167.088623 192.0
167.139038 280.0
168.098831 164.0
168.499115 160.0
168.871414 220.0
169.327011 104.0
169.381409 184.0
169.82991 200.0
169.944077 176.0
169.977814 156.0
170.024521 152.0
170.042694 180.0
170.063461 200.0
170.140564 10844.0
170.216492 60.0
170.332138 88.0
170.462082 164.0
170.519211 108.0
170.553192 68.0
170.720871 152.0
170.944641 156.0
171.080002 112.0
171.144638 1864.0
171.190048 124.0
171.213776 76.0
171.35759 112.0
171.455139 60.0
171.898544 52.0
171.949646 180.0
172.056732 108.0
172.117859 92.0
172.153229 460.0
172.337296 120.0
172.366043 48.0
172.520279 88.0
173.119553 80.0
173.16217 500.0
173.405167 48.0
173.465454 124.0
173.507401 44.0
174.126816 868.0
174.176697 200.0
174.210846 32.0
174.439514 148.0
174.739365 132.0
175.132751 288.0
175.592987 80.0
176.139435 220.0
176.607376 92.0
177.113022 140.0
177.582245 40.0
178.130173 232.0
178.14772 340.0
178.394897 80.0
178.631622 80.0
178.775314 204.0
178.825882 164.0
179.049561 116.0
179.150208 272.0
179.220078 72.0
179.526688 76.0
180.160507 188.0
180.817261 72.0
181.125229 116.0
181.166153 216.0
182.175568 196.0
182.389267 28.0
182.523712 32.0
183.051208 176.0
183.179779 204.0
183.379929 188.0
183.517441 84.0
183.598358 120.0
185.176956 64.0
186.134415 152.0
186.397949 64.0
186.982727 120.0
187.118851 164.0
187.141754 364.0
187.195114 156.0
187.470291 108.0
188.026733 136.0
188.140839 256.0
188.496521 92.0
189.13385 88.0
190.139908 196.0
191.143127 160.0
191.160873 124.0
191.322052 88.0
192.156921 616.0
192.654282 72.0
193.139404 160.0
193.171387 148.0
193.486847 176.0
194.005005 56.0
194.179749 360.0
194.229645 192.0
195.144928 312.0
195.176834 192.0
196.148636 144.0
196.194519 236.0
196.321518 116.0
197.189331 172.0
200.01207 56.0
201.088959 144.0
201.114365 140.0
202.130386 720.0
202.182877 48.0
202.267807 144.0
202.361252 64.0
203.143158 1024.0
203.768234 268.0
203.898972 124.0
204.157135 364.0
204.240219 148.0
204.49173 84.0
205.171432 288.0
206.173492 196.0
206.388031 116.0
206.493866 100.0
206.880219 60.0
207.190628 428.0
207.226807 48.0
208.161133 200.0
208.193649 124.0
208.27121 100.0
208.480972 104.0
208.892197 28.0
209.165878 340.0
209.209763 296.0
209.280792 160.0
210.007126 104.0
210.173264 196.0
210.558472 168.0
210.945724 44.0
211.183167 244.0
211.275452 48.0
212.184372 136.0
214.108902 132.0
214.68895 92.0
215.144821 452.0
216.142609 160.0
216.173218 144.0
217.178284 124.0
218.176849 128.0
218.659332 68.0
218.847763 148.0
219.142349 120.0
219.162979 120.0
219.192978 412.0
219.484314 140.0
220.165497 364.0
220.201553 188.0
220.508865 36.0
221.169037 144.0
222.075378 176.0
222.131744 172.0
222.175827 312.0
222.306824 220.0
222.452271 108.0
223.147568 188.0
223.182846 304.0
223.980972 76.0
224.153442 168.0
224.187866 204.0
225.177216 104.0
225.210083 152.0
225.739151 96.0
229.191757 140.0
230.128738 156.0
230.362549 140.0
230.589203 52.0
231.118515 112.0
231.149734 100.0
231.218643 144.0
231.65448 48.0
231.855301 148.0
231.880814 128.0
231.906021 48.0
232.166534 300.0
233.17186 476.0
233.749756 100.0
234.176041 168.0
235.157303 152.0
235.193542 488.0
235.591629 48.0
236.195541 336.0
236.481598 76.0
236.91037 188.0
237.171295 1136.0
237.204956 324.0
237.480606 204.0
237.643219 108.0
238.175949 120.0
238.214249 284.0
238.297318 48.0
238.334183 60.0
239.374054 40.0
239.518829 188.0
240.888657 168.0
243.147812 720.0
243.279739 164.0
243.885574 104.0
244.153 200.0
244.395676 52.0
245.16272 140.0
245.184937 308.0
247.168488 188.0
247.19754 488.0
247.354767 64.0
247.689865 164.0
248.186005 184.0
248.294891 164.0
249.164536 200.0
250.186249 848.0
251.193024 844.0
252.01004 92.0
252.204315 576.0
252.462143 52.0
252.572845 56.0
252.59816 52.0
252.955795 104.0
253.570389 96.0
253.796509 120.0
254.039749 64.0
254.090515 212.0
254.211884 180.0
254.595291 96.0
255.186523 120.0
257.126709 76.0
257.263977 160.0
257.538635 64.0
257.58017 212.0
258.165161 164.0
259.166779 132.0
259.738007 104.0
260.190552 156.0
261.164398 120.0
261.196564 236.0
261.692261 212.0
262.19162 100.0
263.200348 316.0
264.167999 84.0
264.206909 180.0
264.271545 112.0
264.724792 132.0
265.177399 1056.0
265.21347 2456.0
265.416687 120.0
265.587036 56.0
265.833649 56.0
266.008942 40.0
266.18103 376.0
266.214142 392.0
267.175781 112.0
267.216766 180.0
268.322357 100.0
268.661591 60.0
269.425629 128.0
270.812836 20.0
271.533997 176.0
271.970459 140.0
275.201813 364.0
275.259949 124.0
276.196869 168.0
276.294647 96.0
276.671997 96.0
277.132416 152.0
277.187134 204.0
277.915039 84.0
278.195129 196.0
278.416382 160.0
278.56192 104.0
279.19809 916.0
279.323914 88.0
279.57016 40.0
279.650055 112.0
279.709961 56.0
279.913086 192.0
279.943054 68.0
280.139618 64.0
280.206146 1908.0
280.392883 168.0
281.212891 456.0
281.874847 164.0
282.13559 148.0
282.213196 172.0
282.540314 92.0
282.888397 112.0
283.843414 136.0
284.682495 88.0
290.4888 104.0
291.171173 52.0
291.208527 180.0
291.575531 96.0
292.245544 180.0
292.84137 108.0
292.899292 76.0
293.039001 148.0
293.160217 140.0
293.219452 7932.0
293.291199 144.0
293.321899 36.0
293.386658 28.0
293.482147 36.0
293.55719 136.0
293.676575 84.0
293.734558 88.0
293.813049 68.0
293.894928 72.0
294.034882 64.0
294.062164 64.0
294.147522 164.0
294.222168 1912.0
295.228821 152.0
295.586609 48.0
296.048828 32.0
296.225555 132.0
296.950317 136.0
297.193939 44.0
297.784485 80.0
299.683685 140.0
300.746033 84.0
301.257172 196.0
303.199982 112.0
305.365387 60.0
306.256561 104.0
307.201385 60.0
307.473572 112.0
308.395782 144.0
310.566986 44.0
312.499451 88.0
312.893707 52.0
313.619507 60.0
314.64267 40.0
319.883179 76.0
320.641998 60.0
321.219391 792.0
322.222168 292.0
326.259155 112.0
327.828735 108.0
330.248047 124.0
331.696655 192.0
333.242889 36.0
334.267151 112.0
334.30484 48.0
336.338898 68.0
337.080383 184.0
339.240173 204.0
345.918182 20.0
346.279266 148.0
350.269104 176.0
357.650757 96.0
358.136536 160.0
361.213409 84.0
361.26886 168.0
362.261993 284.0
363.168243 128.0
364.147644 140.0
365.455566 116.0
366.076111 88.0
367.170044 44.0
368.288513 48.0
371.094055 40.0
371.842224 96.0
372.276062 3168.0
372.349091 200.0
373.272461 488.0
373.814026 60.0
374.291626 160.0
374.545654 80.0
376.324432 360.0
376.663666 136.0
377.319183 156.0
377.974518 36.0
383.283478 140.0
383.384827 104.0
386.298035 112.0
388.162659 156.0
403.225067 76.0
404.323181 312.0
405.335693 272.0
406.334991 476.0
412.402557 64.0
414.325012 56.0
421.879578 240.0
432.3349 324.0
433.333405 108.0
435.268433 80.0
440.358307 168.0
442.914368 128.0
447.47998 112.0
448.921265 64.0
449.760986 168.0
450.349823 2572.0
450.986115 72.0
451.352844 1244.0
451.451263 60.0
452.351715 512.0
452.424591 68.0
453.361267 168.0
453.449829 68.0
453.835663 76.0
455.159729 112.0
455.852264 92.0
459.847626 148.0
515.599915 80.0
525.601257 48.0
544.35376 84.0
548.313416 28.0
569.689453 84.0
574.131042 48.0
577.359985 140.0
590.279114 48.0
595.373108 36.0
620.625793 88.0
627.22406 88.0
655.590942 124.0
674.60083 192.0
711.719177 224.0
721.743591 44.0
727.724243 52.0
728.384888 152.0
735.779968 136.0
745.482605 136.0
766.560364 224.0
769.843201 124.0
775.653503 288.0
776.718323 212.0
776.945801 196.0
798.674438 176.0
798.713867 132.0
809.172607 176.0
809.370789 80.0
820.429077 180.0
841.263 156.0
848.484131 180.0
850.52063 68.0
862.223755 68.0
862.527771 152.0
894.827209 88.0
895.714722 240.0
920.211182 164.0
936.764404 232.0
957.914429 48.0
966.12616 92.0
966.336548 120.0
971.951111 72.0
982.118286 100.0
992.11261 132.0
996.82074 156.0
1000.658264 208.0
1005.115234 64.0
1034.285278 188.0
1039.990845 164.0
1046.50415 40.0
1050.177979 200.0
1050.855469 132.0
1056.658325 192.0
1060.349854 40.0
1063.366211 108.0
1066.594849 132.0
1074.710693 160.0
1084.305542 224.0
1090.311646 72.0
1099.698364 128.0
1100.437866 48.0
1102.9552 144.0
1103.477539 104.0
1107.733643 160.0
1111.865112 216.0
1117.268066 156.0
1122.510864 128.0
1131.827271 128.0
1132.430054 172.0
1137.89624 92.0
1144.311279 68.0
1151.413086 192.0
1154.820068 176.0
1158.618164 136.0
1162.999512 160.0
1163.216797 100.0
1164.527466 160.0
1167.70874 204.0
1174.88269 88.0
1175.223877 80.0
1175.48999 168.0
1177.408691 204.0
1179.096436 208.0
1179.294678 148.0
1182.94104 184.0
1186.346313 164.0
1198.706177 180.0
1202.05127 148.0
1207.21228 68.0
1209.724243 212.0
1210.340576 256.0
1211.123291 164.0
1214.166504 156.0
1216.137207 172.0
1218.985107 200.0
1231.303833 188.0
1231.750977 240.0
1236.947388 136.0
1238.291992 192.0
1240.106934 196.0
1249.201538 116.0
1250.961182 236.0
1251.292114 212.0
1251.834351 52.0
1253.94812 112.0
1256.973999 64.0
1261.007202 84.0
1263.616943 72.0
1265.329956 140.0
1265.861084 56.0
1267.313477 120.0
1268.355347 128.0
1271.065063 228.0
1272.371216 164.0
1273.202148 92.0
1273.315796 208.0
1274.843384 152.0
1279.068848 188.0
1279.887695 176.0
1281.890625 144.0
1282.638184 180.0
1283.101562 176.0
1283.22998 208.0
1283.693481 164.0
1292.617065 168.0
1293.189697 96.0
1293.490356 228.0
1293.848389 184.0
1298.836792 152.0
1299.604492 188.0
1299.934692 116.0
1303.180786 152.0
1304.10791 176.0
1305.32312 184.0
1308.611938 164.0
1311.140747 284.0
1314.025635 60.0
1323.575195 200.0
1326.306885 64.0
1327.249512 244.0
1329.578491 176.0
1330.49353 200.0
1331.459106 220.0
1333.028564 196.0
1339.140625 60.0
1341.181152 176.0
1347.246094 112.0
1348.305786 144.0
1352.438843 112.0
1354.364868 84.0
1354.928955 192.0
1355.991699 68.0
1357.465454 180.0
1358.228394 128.0
1359.967651 184.0
1360.672485 324.0
1361.450928 136.0
1363.699463 192.0
1363.780273 212.0
1364.089111 184.0
1364.647827 128.0
1371.251343 208.0
1372.1073 132.0
1372.409668 132.0
1374.047241 148.0
1375.604736 164.0
1375.671143 160.0
1380.896118 60.0
1383.323486 152.0
1386.167969 184.0
1388.926392 192.0
1392.162964 132.0
1393.960938 132.0
1402.946045 112.0
1403.050415 180.0
1403.356201 52.0
1404.169189 184.0
1406.034668 160.0
1406.982788 200.0
1407.602539 112.0
1408.342041 220.0
1409.029419 164.0
1410.337402 232.0
1415.582764 148.0
1419.255005 212.0
1419.540039 136.0
1420.162598 160.0
1420.672729 148.0
1428.486694 204.0
1429.194702 212.0
1430.9104 220.0
1431.068481 132.0
1436.495605 100.0
1438.399658 172.0
1439.205444 188.0
1439.288574 152.0
1441.335938 208.0
1442.356323 156.0
1445.086792 160.0
1446.865723 180.0
1447.441284 168.0
1449.843018 140.0
1450.767944 136.0
1452.231567 264.0
1454.986572 168.0
1455.419434 184.0
1456.315796 228.0
1458.68689 228.0
1459.64502 108.0
1460.930542 228.0
1464.554565 184.0
1466.009888 212.0
1467.870239 196.0
1468.21167 196.0
1469.640259 176.0
1473.045776 96.0
1473.572998 60.0
1474.910522 168.0
1476.75354 164.0
1477.862915 116.0
1478.89624 168.0
1479.41687 236.0
1480.00647 136.0
1480.642212 152.0
1481.339355 156.0
1484.643311 52.0
1486.768677 176.0
1488.150635 172.0
1488.703613 152.0
1491.185547 120.0
1495.285522 188.0
1499.437378 136.0
1499.923096 184.0
