>compound MLS000069473-01!
>formula C10H10N2
>ionization [M+H]+
>parentmass 159.093
#inchi InChI=1S/C10H10N2/c1-2-4-10(5-3-1)8-12-7-6-11-9-12/h1-7,9H,8H2
#inchikey KKKDZZRICRFGSD
#Ion_Source LC-ESI
#Instrument qTof
#Compound_Source NIH Pharmacologically Active Library
#PI Dorrestein
#Data_Collector VP/LMS
#Scan -1
#Precursor_MZ 159.093
#ExactMass 158.084
#Charge 1
#CAS_Number N/A
#Pubmed_ID N/A
#Smiles C(c1ccccc1)n2ccnc2
#INCHI_AUX N/A
#Library_Class 3
#SpectrumID CCMSLIB00000085725
#IonMode Positive
#UpdateWorkflowName UPDATE-SINGLE-ANNOTATED-BRONZE
#LibraryQualityString Bronze
#TaskID d252d724072548979f1f6f1ced849daf
##Scan# 881
#SpectrumFile p4-E07_GE7_01_18379.mzXML
#LibraryName Pharm_Active_Library.mgf
#MQScore -1
#Organism Pharm_Active_Library
#TIC_Query 0
#RT_Query -1
#MZErrorPPM -1
#SharedPeaks 0
#MassDiff 0
#LibMZ -1
#SpecMZ 159.093
#SpecCharge 0
#internalFilename spec-00000.mgf

>collision 10
60.729084 160.0
63.171257 96.0
69.072311 216.0
77.904922 124.0
90.949265 184.0
91.052986 828.0
91.78064 72.0
101.003365 176.0
127.053864 176.0
852.236511 216.0
857.823669 252.0
908.095642 172.0
993.272583 168.0
1093.729858 176.0
1107.960938 224.0
1118.43335 188.0
1136.786255 196.0
1189.348022 120.0
1288.243896 112.0
1312.71936 120.0
1416.203491 52.0
1435.458374 128.0
