>compound Topotecan Hydrochloride
>formula C23H23N3O5
>ionization [M+H]+
>parentmass 422.172699
#inchi InChI=1S/C23H23N3O5/c1-4-23(30)16-8-18-20-12(9-26(18)21(28)15(16)11-31-22(23)29)7-13-14(10-25(2)3)19(27)6-5-17(13)24-20/h5-8,27,30H,4,9-11H2,1-3H3/t23-/m0/s1
#inchikey UCFGDBYHRUNTLO
#Ion_Source LC-ESI
#Instrument qTof
#Compound_Source Commercial
#PI Dorrestein
#Data_Collector Garg_Neha
#Scan -1
#Precursor_MZ 422.171
#ExactMass 421.164
#Charge 1
#CAS_Number N/A
#Pubmed_ID N/A
#Smiles CC[C@@]1(O)C(=O)OCc2c1cc3-c4nc5ccc(O)c(CN(C)C)c5cc4Cn3c2=O
#INCHI_AUX N/A
#Library_Class 1
#SpectrumID CCMSLIB00000078901
#IonMode Positive
#UpdateWorkflowName UPDATE-SINGLE-ANNOTATED-GOLD
#LibraryQualityString Gold
#TaskID 278b19f5865741e282cec7349aa7e7a1
##Scan# 1032
#SpectrumFile NCP003272_A2_B11_BB8_01_15713.mzXML
#LibraryName NIHcollectionI_05062014.mgf
#MQScore -1
#Organism NIHcollectionI_05062014
#TIC_Query 0
#RT_Query -1
#MZErrorPPM -1
#SharedPeaks 0
#MassDiff 0
#LibMZ -1
#SpecMZ 422.171
#SpecCharge 0
#internalFilename spec-00000.mgf

>collision 10
45.193447 164.0
46.287796 164.0
46.726208 148.0
47.50629 196.0
54.077431 156.0
54.648277 140.0
55.009346 140.0
58.048317 156.0
58.787628 176.0
66.577637 172.0
71.565674 148.0
72.55574 208.0
78.376198 140.0
84.198235 160.0
84.256683 196.0
87.446899 148.0
90.599754 152.0
91.616119 156.0
92.9142 148.0
94.61982 140.0
99.125046 208.0
100.596832 148.0
102.302788 184.0
104.700165 192.0
107.168564 164.0
109.782471 176.0
111.282776 152.0
115.883347 220.0
118.126617 200.0
121.848007 140.0
122.083199 180.0
126.288292 152.0
132.720261 140.0
132.772995 212.0
137.735474 148.0
138.973907 172.0
139.079498 144.0
140.500824 176.0
141.36087 196.0
142.784241 204.0
143.493851 160.0
144.286469 172.0
145.866257 144.0
147.121323 152.0
153.651428 204.0
154.980042 188.0
156.126862 172.0
157.905045 184.0
160.035538 144.0
160.083374 204.0
160.791779 196.0
161.71933 144.0
161.838303 160.0
163.254227 148.0
164.410797 188.0
167.593079 156.0
167.850845 148.0
169.072723 168.0
173.786697 144.0
178.209274 176.0
178.932693 156.0
181.071579 164.0
182.088028 176.0
182.612564 120.0
183.092438 180.0
183.255493 172.0
187.439087 156.0
187.940796 176.0
189.25824 172.0
191.40271 140.0
191.446381 140.0
192.596848 184.0
193.808548 148.0
194.726761 152.0
196.068619 240.0
198.446548 152.0
199.890289 168.0
200.371765 160.0
200.411209 220.0
201.240433 148.0
204.087967 140.0
204.474838 156.0
205.078629 144.0
205.880325 176.0
206.077423 180.0
207.090088 180.0
207.507996 124.0
208.274673 184.0
209.068039 156.0
209.474152 140.0
211.952988 140.0
215.006363 152.0
216.064117 164.0
216.239761 140.0
217.074615 172.0
217.623306 184.0
218.079376 272.0
219.091263 788.0
220.09848 836.0
220.462906 164.0
221.107803 284.0
221.217117 144.0
222.081009 176.0
222.103897 120.0
223.085983 168.0
224.568848 144.0
227.180176 172.0
227.906723 172.0
227.983658 140.0
228.357651 192.0
228.680588 144.0
231.662872 244.0
231.90831 148.0
232.020462 196.0
232.091721 144.0
232.263062 160.0
232.733459 156.0
233.81868 180.0
234.090836 704.0
234.378998 172.0
234.915573 188.0
235.100861 204.0
236.054794 156.0
236.085373 148.0
237.113998 196.0
238.710358 160.0
239.572144 172.0
240.666992 172.0
242.41156 140.0
243.59053 208.0
244.053604 156.0
244.893829 156.0
245.071396 152.0
246.077499 412.0
246.935013 152.0
247.085022 1088.0
247.125992 156.0
248.094315 4856.0
249.098648 844.0
250.078705 200.0
250.108444 104.0
251.307785 168.0
251.872314 228.0
251.925369 116.0
253.901657 156.0
255.327606 176.0
259.22229 160.0
259.744873 180.0
259.831482 164.0
260.102448 172.0
260.990936 140.0
262.049866 140.0
262.110504 116.0
263.079315 328.0
263.149658 148.0
264.086182 284.0
264.416809 148.0
265.098175 352.0
266.067108 156.0
271.413391 124.0
271.470001 216.0
271.706146 188.0
271.87677 156.0
273.329224 200.0
273.75058 196.0
274.07309 1912.0
274.940643 204.0
275.080872 1236.0
275.115051 140.0
275.260864 164.0
275.568024 208.0
276.019806 140.0
276.0896 6416.0
276.36795 120.0
276.785217 220.0
277.094513 2208.0
277.134155 856.0
277.186005 176.0
278.062836 168.0
278.097931 248.0
278.135559 360.0
278.862854 212.0
279.075195 148.0
279.105072 188.0
279.526917 108.0
280.084137 276.0
280.845398 104.0
280.864929 184.0
281.093353 348.0
281.61731 168.0
282.369324 148.0
282.409454 160.0
282.938171 152.0
284.382904 148.0
285.562195 152.0
285.858246 188.0
287.114807 164.0
288.091644 252.0
289.21579 228.0
289.991913 144.0
290.106628 368.0
290.41571 144.0
291.078186 100.0
291.114655 492.0
292.084412 1484.0
292.119934 1132.0
292.226349 164.0
292.842499 164.0
293.089813 492.0
293.121735 384.0
294.001648 140.0
294.517426 156.0
294.855408 172.0
295.115204 164.0
295.799438 208.0
296.43988 160.0
297.238861 152.0
297.461945 96.0
298.712738 152.0
298.957031 168.0
299.607635 100.0
300.038574 148.0
301.095612 264.0
302.068237 3708.0
302.678223 232.0
303.076019 848.0
303.112427 760.0
303.150635 280.0
303.222107 188.0
303.652008 152.0
303.780365 164.0
304.08374 3592.0
305.053986 120.0
305.090271 1240.0
305.128387 13668.0
305.513824 196.0
305.562531 160.0
306.064331 132.0
306.095856 896.0
306.131622 2244.0
306.267578 96.0
307.066162 156.0
307.135071 392.0
307.189423 200.0
308.779633 128.0
308.939545 180.0
309.166992 220.0
309.415497 144.0
309.639618 168.0
310.091553 148.0
310.200226 180.0
310.733276 204.0
312.613098 180.0
312.947479 180.0
314.424469 156.0
314.805756 228.0
315.110901 348.0
315.546326 140.0
315.607849 152.0
316.085266 144.0
317.090363 152.0
317.427887 140.0
318.0961 124.0
319.061127 308.0
319.109314 392.0
319.562592 376.0
319.630219 192.0
319.793915 168.0
319.982574 148.0
320.080048 12908.0
320.114868 10064.0
320.201416 164.0
320.47583 172.0
320.514893 96.0
320.858978 148.0
321.019714 104.0
321.08371 3124.0
321.119751 2712.0
321.291504 160.0
321.3797 160.0
321.710205 100.0
322.086792 360.0
322.123779 680.0
322.37027 108.0
322.463318 152.0
322.644836 120.0
323.092377 152.0
323.13678 148.0
323.313751 136.0
324.416077 200.0
324.756714 144.0
327.455933 156.0
330.966003 192.0
331.107208 1492.0
332.112793 428.0
332.513885 168.0
333.122589 8624.0
333.336334 220.0
334.128113 1988.0
334.775146 168.0
335.062897 140.0
335.12854 420.0
336.215881 156.0
336.547302 276.0
337.062317 184.0
337.226776 140.0
338.163086 196.0
338.210663 164.0
339.140991 176.0
340.399353 152.0
340.726227 164.0
341.092957 588.0
342.110474 188.0
342.963593 160.0
343.48349 152.0
344.764648 244.0
346.114838 176.0
346.852081 224.0
347.041138 240.0
347.111328 160.0
347.263641 184.0
347.289612 152.0
347.549286 184.0
347.631958 144.0
347.694 216.0
347.827637 160.0
347.938995 164.0
348.074799 26944.0
348.201111 148.0
348.262054 140.0
348.353485 120.0
348.53656 124.0
348.918732 156.0
349.077728 6520.0
349.11853 8804.0
349.185547 144.0
349.632629 124.0
349.698151 96.0
350.020203 124.0
350.083527 940.0
350.121643 1992.0
350.602234 140.0
351.123993 260.0
351.325562 168.0
351.382202 176.0
351.4263 140.0
351.455414 100.0
352.100311 184.0
353.930573 160.0
354.451202 196.0
355.993042 148.0
356.26712 140.0
356.898529 196.0
359.096252 260.0
359.40329 148.0
359.833588 192.0
360.102112 144.0
361.616241 128.0
362.534271 168.0
362.822357 144.0
363.092621 228.0
363.303955 180.0
365.169006 188.0
365.226074 148.0
365.965271 148.0
366.025269 156.0
366.474701 220.0
368.17218 160.0
369.223114 184.0
370.049988 148.0
370.252594 192.0
371.609558 148.0
372.173767 184.0
372.619293 208.0
373.034332 184.0
373.27655 204.0
373.68811 152.0
374.019073 184.0
374.063812 100.0
374.371552 116.0
374.705231 172.0
375.081085 144.0
375.427124 204.0
375.574646 152.0
375.892151 176.0
375.966492 128.0
376.000122 280.0
376.070068 132.0
376.156586 280.0
376.276764 108.0
376.335968 160.0
376.381195 112.0
376.438538 204.0
376.495758 104.0
376.543518 236.0
376.675812 152.0
376.784332 260.0
376.905609 236.0
377.011963 248.0
377.114777 171484.0
377.308411 108.0
377.35733 248.0
377.414032 272.0
377.457275 144.0
377.494324 176.0
377.572357 160.0
377.635742 268.0
377.676727 144.0
377.751831 780.0
377.808044 296.0
377.844116 184.0
377.881744 232.0
377.932922 188.0
378.008484 148.0
378.05191 292.0
378.117462 44164.0
378.296417 216.0
378.826569 160.0
379.009583 140.0
379.119873 5996.0
379.23291 216.0
379.351501 120.0
379.658386 124.0
379.816589 132.0
379.888641 204.0
379.978333 96.0
380.032288 168.0
380.067993 208.0
380.121582 600.0
380.211365 192.0
380.323669 204.0
380.463959 128.0
380.539551 240.0
380.613892 288.0
380.715912 264.0
380.773926 136.0
380.863129 160.0
381.050262 124.0
381.114929 140.0
381.284515 116.0
381.390381 240.0
381.419617 112.0
381.453461 100.0
381.665649 160.0
381.822906 112.0
384.790161 104.0
385.792389 144.0
386.081726 148.0
386.359436 148.0
386.480713 168.0
390.13205 140.0
391.131195 148.0
392.239594 196.0
393.10968 140.0
393.615875 140.0
395.111237 244.0
395.136658 252.0
399.333496 148.0
402.805206 160.0
414.756226 148.0
415.482086 144.0
417.407288 144.0
418.141296 452.0
418.428528 276.0
418.96463 120.0
419.141296 200.0
419.222046 108.0
419.266724 108.0
419.631134 112.0
420.056885 152.0
420.156128 356.0
420.636017 96.0
420.744202 144.0
420.976929 144.0
421.02594 216.0
421.134216 140.0
421.175171 236.0
421.216797 316.0
421.273041 112.0
421.535248 108.0
421.589142 116.0
421.622528 140.0
421.709869 136.0
421.876343 244.0
421.911743 140.0
421.989655 244.0
422.042633 104.0
422.083862 108.0
422.172699 134708.0
422.273438 224.0
422.387634 112.0
422.459015 188.0
422.497314 196.0
422.549408 216.0
422.607208 204.0
422.654419 176.0
422.731323 180.0
422.846161 812.0
423.060455 168.0
423.174927 38572.0
423.296661 148.0
423.336182 120.0
423.441498 108.0
423.586304 144.0
423.800781 204.0
424.047119 148.0
424.176483 3808.0
424.459381 116.0
424.754242 104.0
425.175049 592.0
425.38501 204.0
425.474976 136.0
425.506653 188.0
425.609528 160.0
425.727234 108.0
425.798248 176.0
425.984314 116.0
426.184662 112.0
426.225464 128.0
426.292633 132.0
426.589661 160.0
426.706085 116.0
426.8573 104.0
426.958374 104.0
432.041779 164.0
437.969513 144.0
504.203186 196.0
669.766724 140.0
681.61322 124.0
757.013367 140.0
803.434509 148.0
1940.314209 144.0
