>compound MLS001055341-01!CAFFEINE58-08-2
>formula C8H10N4O2
>ionization [M+H]+
>parentmass 195.08699
#inchi InChI=1S/C8H10N4O2/c1-10-4-9-6-5(10)7(13)12(3)8(14)11(6)2/h4H,1-3H3
#inchikey RYYVLZVUVIJVGH
#Ion_Source LC-ESI
#Instrument qTof
#Compound_Source NIH Pharmacologically Active Library
#PI Dorrestein
#Data_Collector VP/LMS
#Scan -1
#Precursor_MZ 195.085
#ExactMass 194.08
#Charge 1
#CAS_Number N/A
#Pubmed_ID N/A
#Smiles Cn1cnc2n(C)c(=O)n(C)c(=O)c12
#INCHI_AUX N/A
#Library_Class 1
#SpectrumID CCMSLIB00000085276
#IonMode Positive
#UpdateWorkflowName UPDATE-SINGLE-ANNOTATED-GOLD
#LibraryQualityString Gold
#TaskID d252d724072548979f1f6f1ced849daf
##Scan# 1245
#SpectrumFile p3-G09_GG9_01_18302.mzXML
#LibraryName Pharm_Active_Library.mgf
#MQScore -1
#Organism Pharm_Active_Library
#TIC_Query 0
#RT_Query -1
#MZErrorPPM -1
#SharedPeaks 0
#MassDiff 0
#LibMZ -1
#SpecMZ 195.085
#SpecCharge 0
#internalFilename spec-00000.mgf

>collision 10
45.142334 212.0
45.604904 140.0
45.676174 48.0
45.76231 140.0
46.5602 180.0
48.067585 148.0
48.486637 192.0
50.306599 164.0
55.474358 172.0
56.56337 152.0
56.830147 128.0
57.144188 136.0
58.832668 172.0
60.980171 216.0
62.835968 188.0
63.73695 192.0
63.991455 180.0
66.465385 196.0
67.480194 188.0
74.202957 112.0
74.735435 172.0
78.756088 156.0
82.218376 140.0
82.89476 172.0
84.687576 164.0
87.707031 224.0
88.508537 208.0
90.481873 156.0
91.509064 208.0
92.27227 172.0
95.06739 192.0
96.061684 204.0
97.038483 360.0
105.412598 152.0
106.004013 68.0
108.063217 120.0
109.039108 312.0
109.05867 184.0
110.037811 168.0
110.069344 1120.0
110.135963 48.0
110.979385 192.0
111.064842 160.0
114.089516 128.0
115.46064 60.0
120.948212 84.0
121.994614 152.0
122.593323 124.0
123.042168 1184.0
124.045509 128.0
124.085411 104.0
125.584305 152.0
132.00351 260.0
134.406372 132.0
135.068237 220.0
136.070633 280.0
136.384247 172.0
137.059174 196.0
137.918045 92.0
138.016235 192.0
138.065887 3616.0
138.428085 20.0
139.067612 396.0
146.410843 20.0
151.089951 156.0
151.867615 104.0
156.957581 140.0
156.977524 44.0
164.55571 216.0
165.089767 196.0
170.116989 176.0
171.764267 64.0
174.97467 192.0
193.106491 200.0
194.691833 36.0
195.08699 1112.0
196.255768 120.0
351.647003 20.0
375.573761 40.0
591.186218 20.0
592.0625 20.0
656.45697 68.0
829.525269 20.0
839.639648 80.0
921.564392 136.0
966.516724 192.0
1050.55542 160.0
1158.859009 188.0
1203.181763 156.0
1208.932739 204.0
1239.617188 56.0
1250.348389 204.0
1274.641235 184.0
1342.518677 60.0
1359.014648 220.0
1359.073364 108.0
1382.433594 80.0
1387.233276 228.0
1392.583496 232.0
1443.70105 148.0
1484.966919 148.0
