>compound ARIPIPRAZOLE
>formula C23H27Cl2N3O2
>ionization [M+H]+
>parentmass 448.1553089160906
#inchi InChI=1S/C23H27Cl2N3O2/c24-19-4-3-5-21(23(19)25)28-13-11-27(12-14-28)10-1-2-15-30-18-8-6-17-7-9-22(29)26-20(17)16-18/h3-6,8,16H,1-2,7,9-15H2,(H,26,29)
#inchikey CEUORZQYGODEFX
#Ion_Source LC-ESI
#Instrument qTof
#Compound_Source Commercial
#PI Dorrestein
#Data_Collector Garg_Neha
#Scan -1
#Precursor_MZ 448.155
#ExactMass 447.148
#Charge 1
#CAS_Number N/A
#Pubmed_ID N/A
#Smiles Clc1cccc(N2CCN(CCCCOc3ccc4CCC(=O)Nc4c3)CC2)c1Cl
#INCHI_AUX N/A
#Library_Class 1
#SpectrumID CCMSLIB00000079010
#IonMode Positive
#UpdateWorkflowName UPDATE-SINGLE-ANNOTATED-GOLD
#LibraryQualityString Gold
#TaskID 278b19f5865741e282cec7349aa7e7a1
##Scan# 1208
#SpectrumFile NCP003352_E2_F11_BC6_01_15720.mzXML
#LibraryName NIHcollectionI_05062014.mgf
#MQScore -1
#Organism NIHcollectionI_05062014
#TIC_Query 0
#RT_Query -1
#MZErrorPPM -1
#SharedPeaks 0
#MassDiff 0
#LibMZ -1
#SpecMZ 448.155
#SpecCharge 0
#internalFilename spec-00000.mgf

>collision 10
45.031487 180.0
45.921349 164.0
46.721912 164.0
46.832176 144.0
46.934383 168.0
46.971207 168.0
47.09132 176.0
47.154171 152.0
47.67128 184.0
47.929531 144.0
47.958473 168.0
48.092262 172.0
48.404705 200.0
48.885006 176.0
48.951828 168.0
48.994965 144.0
49.025658 176.0
49.213974 160.0
49.768444 164.0
50.603138 156.0
50.688126 156.0
50.760452 168.0
51.003189 140.0
51.129772 156.0
51.895439 148.0
52.000156 176.0
53.048809 164.0
54.172359 168.0
54.195801 176.0
54.474552 140.0
54.975151 208.0
56.318787 200.0
56.371075 204.0
56.481709 160.0
56.668839 244.0
56.848774 140.0
57.714924 216.0
57.95256 176.0
58.28941 144.0
58.338047 160.0
58.490166 144.0
58.814835 156.0
58.857578 204.0
59.094494 196.0
59.213894 140.0
59.327282 148.0
59.399357 188.0
59.752159 176.0
60.368126 232.0
60.482616 172.0
60.867096 172.0
61.176491 196.0
61.471066 144.0
61.510082 156.0
61.872761 140.0
62.488827 216.0
62.924549 180.0
63.122055 140.0
63.575111 188.0
63.668777 172.0
63.951775 188.0
64.160454 236.0
64.31678 164.0
65.182327 160.0
65.428635 204.0
65.532578 128.0
65.766937 184.0
66.227013 208.0
66.762596 188.0
66.798378 192.0
66.861832 232.0
67.084984 248.0
67.804169 208.0
67.914017 240.0
68.117554 144.0
68.176704 164.0
68.527191 172.0
69.100098 188.0
69.167953 172.0
69.325294 160.0
69.429733 160.0
70.268082 148.0
70.32148 204.0
70.935593 136.0
71.384415 196.0
71.578819 172.0
71.834724 148.0
72.172775 180.0
72.240059 204.0
72.347038 168.0
72.457115 144.0
72.506256 208.0
72.777672 164.0
72.81163 180.0
73.012169 164.0
73.07341 176.0
73.359512 184.0
73.617149 156.0
73.687134 144.0
73.745285 220.0
73.948814 140.0
74.301811 224.0
74.684883 152.0
74.905205 156.0
75.113785 152.0
75.198326 176.0
75.263924 176.0
75.33474 144.0
75.514503 148.0
75.756836 200.0
75.846939 140.0
75.91803 160.0
76.669037 156.0
76.927177 184.0
77.016228 264.0
77.378212 160.0
77.451759 152.0
77.667664 160.0
77.707703 156.0
77.82003 152.0
77.928925 212.0
77.967583 208.0
78.379364 140.0
78.783394 208.0
79.816681 164.0
79.9412 144.0
79.955437 184.0
80.372421 224.0
80.490227 164.0
80.538445 140.0
80.570602 144.0
81.844017 144.0
81.980919 200.0
82.251076 172.0
82.36702 168.0
82.772125 196.0
82.804726 144.0
82.922195 124.0
83.024017 176.0
83.162148 144.0
83.68544 188.0
83.80201 148.0
83.960594 164.0
83.975189 148.0
84.163155 168.0
84.185066 180.0
84.238029 156.0
84.470184 168.0
84.666023 176.0
84.695328 184.0
84.829094 144.0
85.728378 168.0
86.252228 136.0
86.315346 124.0
86.405495 192.0
86.742538 168.0
86.755516 172.0
86.811134 176.0
87.601051 204.0
88.681068 148.0
89.039413 156.0
89.144615 196.0
89.398483 164.0
89.630104 196.0
89.802704 180.0
89.950714 172.0
90.073456 148.0
90.242043 120.0
90.599342 192.0
90.633446 144.0
91.055496 128.0
91.168564 144.0
91.63475 148.0
92.000916 152.0
92.046738 140.0
92.308533 176.0
92.402252 144.0
92.499847 156.0
92.543884 176.0
92.589836 200.0
93.619194 192.0
94.064735 304.0
94.385277 200.0
94.522614 168.0
95.109833 204.0
95.399269 176.0
96.006477 116.0
96.079132 144.0
96.131599 208.0
96.237007 148.0
96.453995 160.0
96.639633 144.0
96.66835 184.0
97.066635 176.0
97.198059 172.0
97.274605 140.0
97.402237 164.0
97.484756 200.0
97.6735 184.0
97.742355 220.0
97.785645 156.0
98.047585 212.0
98.096947 15604.0
98.336227 136.0
98.357239 252.0
98.599281 132.0
98.736588 156.0
99.099174 948.0
99.294739 232.0
99.620605 140.0
99.663086 104.0
99.797684 120.0
99.908859 168.0
100.291183 204.0
100.644287 140.0
100.718178 164.0
100.756134 332.0
100.774117 272.0
100.832062 148.0
100.850052 148.0
101.198128 184.0
101.550568 160.0
101.695282 148.0
101.717361 164.0
101.739441 204.0
101.88002 192.0
101.908142 184.0
102.075256 144.0
102.278168 164.0
102.602493 160.0
102.781998 144.0
103.288216 112.0
103.349831 148.0
103.372032 160.0
103.787285 148.0
104.048721 312.0
104.801537 140.0
105.074333 200.0
105.693825 148.0
105.853485 156.0
106.065201 300.0
106.49128 144.0
106.619743 136.0
107.011543 144.0
107.051399 248.0
107.172195 156.0
107.950386 220.0
108.046219 144.0
108.138649 184.0
108.313286 236.0
108.517731 160.0
108.608978 152.0
108.667061 176.0
108.725616 200.0
108.841408 148.0
108.858025 148.0
109.096962 252.0
109.771545 176.0
109.884178 172.0
110.324837 180.0
110.366653 192.0
110.588402 180.0
110.804085 144.0
110.952881 208.0
111.019981 152.0
111.103882 164.0
111.194107 180.0
111.899712 184.0
111.969116 160.0
112.016228 280.0
112.111496 856.0
112.237511 156.0
112.593254 200.0
113.567711 156.0
114.127403 152.0
114.467697 104.0
114.57946 168.0
115.206764 192.0
115.741455 172.0
115.914955 172.0
116.049408 300.0
116.185112 220.0
116.230362 176.0
116.76722 148.0
117.056435 732.0
117.434883 204.0
117.467232 152.0
117.63987 156.0
117.864479 152.0
118.066162 1472.0
118.706062 192.0
118.762901 188.0
119.070709 156.0
119.597252 140.0
119.701752 248.0
120.008987 160.0
120.045578 348.0
120.081665 620.0
120.125198 108.0
120.915527 180.0
120.996521 164.0
121.053825 252.0
121.564209 144.0
121.599319 292.0
121.869423 188.0
121.926193 120.0
122.005684 172.0
122.059761 1136.0
122.195618 144.0
122.249832 156.0
122.412727 180.0
122.780746 140.0
123.379128 172.0
123.877045 160.0
124.107536 144.0
124.538055 148.0
124.804726 176.0
124.853645 184.0
125.588615 148.0
126.019463 148.0
126.131203 224.0
126.215233 212.0
126.473427 188.0
126.562119 168.0
126.625671 180.0
127.150291 144.0
127.315315 220.0
127.540192 160.0
127.68499 148.0
127.74572 144.0
128.387634 148.0
128.442337 152.0
129.004028 148.0
129.250549 168.0
129.420303 164.0
129.619644 220.0
129.655899 308.0
129.853134 148.0
130.061874 168.0
130.179932 156.0
130.223083 188.0
130.687912 200.0
130.806442 212.0
130.903061 236.0
130.969116 252.0
131.053131 160.0
131.144547 204.0
131.406799 192.0
131.608536 144.0
131.785797 140.0
131.973221 152.0
132.047668 188.0
132.100601 160.0
132.316406 148.0
132.848083 148.0
132.949036 164.0
133.061264 264.0
133.191864 152.0
133.286606 196.0
134.060196 1060.0
134.322617 148.0
134.523361 180.0
135.006256 176.0
135.133484 148.0
135.960709 212.0
136.021057 168.0
136.038681 284.0
136.079742 172.0
136.111603 164.0
136.177399 144.0
136.436874 188.0
136.589493 172.0
136.774185 168.0
136.902237 168.0
137.00705 164.0
137.077316 192.0
137.571396 148.0
138.00827 396.0
138.052704 164.0
138.624603 148.0
138.722321 140.0
139.027237 140.0
139.548706 148.0
139.595734 292.0
139.718033 144.0
140.132401 144.0
140.238434 188.0
140.297104 176.0
140.44754 204.0
140.663971 104.0
141.047104 172.0
141.081131 168.0
141.561798 128.0
141.765152 160.0
141.952423 172.0
142.128494 176.0
142.192032 156.0
142.648071 200.0
143.050079 168.0
143.810455 176.0
144.036148 128.0
144.078781 108.0
144.651825 188.0
144.843384 256.0
144.880722 204.0
145.344452 152.0
145.968979 184.0
146.060333 11236.0
146.099854 144.0
146.126816 128.0
146.206192 144.0
146.230911 104.0
146.510513 188.0
146.679199 168.0
146.720184 184.0
146.957657 188.0
147.031342 156.0
147.063873 1296.0
147.24379 168.0
147.415314 144.0
147.43364 144.0
147.541 316.0
147.818634 116.0
148.00795 288.0
148.033646 176.0
148.075546 14872.0
148.653656 260.0
148.683823 156.0
148.713638 120.0
148.910065 208.0
149.020294 148.0
149.047882 312.0
149.079163 1680.0
149.114151 196.0
149.264862 164.0
150.009262 144.0
150.046432 164.0
150.08667 144.0
150.27124 148.0
150.424561 140.0
150.578644 184.0
150.629669 144.0
150.932724 164.0
151.015869 160.0
151.057449 176.0
151.133286 152.0
151.375626 144.0
151.441742 152.0
151.799545 236.0
152.026184 3008.0
152.065628 192.0
152.224075 156.0
152.241257 144.0
152.731491 224.0
152.825668 128.0
152.922256 188.0
153.034988 6272.0
153.422302 184.0
153.703461 188.0
153.752823 212.0
153.853271 160.0
154.025742 644.0
154.311066 152.0
154.415955 144.0
154.523468 164.0
154.815842 204.0
155.031113 1452.0
155.205994 116.0
155.671387 144.0
156.031662 156.0
156.479492 204.0
156.723572 200.0
156.910492 208.0
157.071381 164.0
157.643738 136.0
158.001877 152.0
158.060669 144.0
158.093048 128.0
158.711731 212.0
158.943939 152.0
158.971542 144.0
158.991623 184.0
159.014954 120.0
159.04631 116.0
159.081985 296.0
159.302963 212.0
159.708771 236.0
160.073715 280.0
160.397568 208.0
160.680008 208.0
160.904633 160.0
160.978683 220.0
161.05159 176.0
161.129395 160.0
161.361908 200.0
161.657852 140.0
161.92366 148.0
162.053925 1016.0
162.092621 508.0
162.250534 172.0
162.453415 140.0
162.473709 188.0
162.539673 184.0
162.689423 180.0
162.811295 168.0
163.060608 444.0
163.103088 180.0
163.563873 180.0
163.627518 196.0
163.861816 156.0
163.938263 164.0
164.019531 164.0
164.071274 24192.0
164.106812 952.0
164.202469 120.0
164.248062 140.0
164.415146 160.0
164.895798 120.0
165.021393 96.0
165.073807 1808.0
165.281418 248.0
165.332611 140.0
165.573257 172.0
165.896088 180.0
165.949936 152.0
166.039047 528.0
166.076447 144.0
166.139709 156.0
166.278275 148.0
166.373245 152.0
166.400192 132.0
166.488785 144.0
166.962891 100.0
167.038071 152.0
167.12114 96.0
167.149124 192.0
167.254883 140.0
167.566559 156.0
167.667053 228.0
168.032303 300.0
168.34552 164.0
168.593521 184.0
169.545868 152.0
169.927032 140.0
170.732361 124.0
171.641083 180.0
171.763657 152.0
171.805405 164.0
171.938477 180.0
171.972 1124.0
172.077316 148.0
172.975693 148.0
173.220825 176.0
173.646866 164.0
173.764908 148.0
173.841003 152.0
173.967911 588.0
174.06604 2628.0
174.211212 168.0
174.455597 156.0
174.504135 180.0
174.560776 216.0
174.640396 136.0
174.827194 116.0
174.863312 140.0
175.06636 272.0
175.24263 164.0
175.68277 196.0
175.817337 216.0
175.838455 308.0
175.873108 152.0
175.988693 264.0
176.018265 180.0
176.071533 106888.0
176.103409 728.0
176.135986 160.0
176.338577 192.0
176.430634 104.0
176.506454 96.0
176.630264 200.0
176.774796 204.0
176.865768 140.0
176.886703 148.0
177.074341 7820.0
177.116013 128.0
177.262482 108.0
177.405273 192.0
178.011459 152.0
178.044815 216.0
178.076157 1392.0
178.230881 112.0
178.297394 112.0
178.428436 152.0
178.442352 168.0
178.504715 148.0
179.025085 164.0
179.045166 140.0
179.188278 104.0
179.44342 244.0
179.519821 100.0
179.998825 124.0
180.065781 340.0
180.2388 160.0
180.482025 156.0
180.8405 176.0
181.014511 176.0
181.03862 176.0
181.073532 232.0
181.151108 148.0
181.180573 148.0
181.398346 180.0
181.419083 168.0
181.665802 156.0
181.720612 104.0
181.821411 204.0
182.042175 256.0
182.073776 168.0
182.415009 144.0
182.912643 144.0
183.080002 144.0
185.179474 96.0
185.592621 156.0
185.625153 256.0
185.907272 152.0
186.100433 108.0
186.1353 216.0
186.564575 164.0
186.801163 212.0
186.992813 236.0
187.413712 184.0
187.607208 144.0
187.636383 160.0
187.727173 140.0
187.936386 144.0
188.003174 12276.0
188.072144 220.0
188.092773 284.0
188.669159 152.0
189.005249 1620.0
189.080002 176.0
189.52507 120.0
189.904114 152.0
189.999634 11000.0
190.086411 1492.0
190.120056 288.0
190.41185 148.0
190.583542 152.0
191.004303 260.0
191.087738 312.0
191.281738 96.0
191.729645 144.0
191.997147 392.0
192.445145 172.0
193.051025 180.0
193.225372 140.0
193.406113 176.0
193.721786 144.0
193.946228 140.0
193.979492 160.0
194.058975 776.0
194.401062 144.0
195.066086 896.0
195.212219 144.0
195.635117 164.0
195.821686 232.0
195.852325 140.0
196.064209 324.0
196.411423 164.0
196.759186 96.0
197.092743 264.0
198.072922 144.0
198.5522 144.0
198.979675 140.0
199.020828 208.0
199.117508 140.0
199.259567 144.0
199.307327 180.0
199.585602 144.0
199.947617 144.0
200.003372 6312.0
200.108932 144.0
200.790848 200.0
201.007919 964.0
201.091141 144.0
201.191528 160.0
201.281876 144.0
201.749542 128.0
201.968613 148.0
202.000946 3320.0
202.078934 152.0
203.010193 212.0
203.112 128.0
203.18396 124.0
204.010559 304.0
204.069977 144.0
205.947922 192.0
206.608246 144.0
206.966003 164.0
207.069916 548.0
207.564865 192.0
207.705383 160.0
207.731201 208.0
207.765625 192.0
207.810898 144.0
208.076599 548.0
208.110031 164.0
208.355713 264.0
208.81694 208.0
209.082047 204.0
209.270782 212.0
209.775772 140.0
209.813248 160.0
210.029465 132.0
210.080597 172.0
211.085754 164.0
211.543655 184.0
211.786896 160.0
211.998535 240.0
212.586014 200.0
212.618988 180.0
212.685745 164.0
212.856033 140.0
212.999252 156.0
213.57486 160.0
213.872452 164.0
214.022324 400.0
214.084167 184.0
214.116211 152.0
214.576599 172.0
215.015015 916.0
215.186356 148.0
215.250595 156.0
215.595306 152.0
216.032806 2288.0
216.104691 256.0
216.270889 344.0
216.644699 128.0
216.736526 160.0
216.972824 148.0
217.008408 516.0
217.039795 120.0
217.127441 124.0
217.369888 160.0
217.830826 180.0
218.000641 188.0
218.031403 1164.0
218.117706 24824.0
218.201263 156.0
218.238144 148.0
218.325424 100.0
218.367859 164.0
218.603973 196.0
218.727676 144.0
218.787979 116.0
218.934174 148.0
219.027771 96.0
219.121902 4596.0
219.172379 220.0
219.273163 180.0
219.317841 156.0
219.476852 108.0
220.030655 124.0
220.120331 192.0
220.495621 136.0
220.654861 300.0
220.84317 108.0
221.082031 120.0
221.340454 148.0
222.164001 152.0
222.615921 124.0
222.695724 180.0
222.814545 148.0
223.281204 172.0
224.284012 128.0
224.379959 164.0
226.127426 148.0
226.459747 176.0
226.720398 148.0
227.013702 420.0
227.20015 180.0
227.263535 124.0
227.488235 168.0
227.767502 156.0
228.021896 5116.0
228.092453 136.0
228.952499 172.0
229.020813 704.0
229.075989 144.0
229.208359 120.0
229.365265 148.0
229.546158 160.0
229.775391 164.0
229.83168 160.0
229.908508 168.0
230.019089 3560.0
230.063538 184.0
231.044418 1448.0
231.096649 164.0
231.164825 136.0
231.316605 196.0
231.349899 160.0
231.658783 148.0
231.999176 136.0
232.995239 96.0
233.042252 656.0
233.282181 116.0
233.4039 168.0
233.4702 164.0
233.565079 168.0
233.790222 144.0
233.820648 140.0
233.905869 212.0
234.043091 144.0
235.035202 184.0
235.097565 148.0
235.262833 108.0
235.431717 152.0
235.606506 120.0
235.696075 220.0
235.867218 160.0
236.072067 164.0
236.158478 156.0
236.408554 144.0
236.775925 164.0
237.201813 152.0
237.571655 264.0
237.646484 156.0
237.680237 140.0
237.778442 156.0
237.974899 244.0
238.303452 148.0
238.342102 188.0
238.85997 176.0
239.417038 144.0
239.453995 156.0
239.641907 160.0
240.184158 116.0
240.367004 140.0
240.690598 176.0
241.030518 140.0
241.145386 168.0
241.448608 164.0
241.661133 172.0
242.032059 228.0
242.083572 160.0
242.196686 164.0
242.426727 160.0
242.559052 148.0
242.773148 176.0
243.045578 19676.0
243.144867 184.0
243.274719 116.0
243.302139 188.0
244.047211 2152.0
244.088821 148.0
244.131256 120.0
244.537872 116.0
244.93631 196.0
244.97142 204.0
245.041702 9572.0
245.353882 156.0
245.623016 100.0
245.704926 196.0
245.924728 176.0
246.043991 940.0
246.279282 172.0
247.039444 488.0
247.099411 176.0
247.828064 100.0
247.920059 148.0
248.795151 188.0
249.117004 304.0
249.130875 204.0
250.123367 160.0
250.294861 216.0
250.417679 152.0
250.571274 100.0
251.09967 144.0
251.129211 460.0
251.398148 156.0
251.888397 116.0
252.134048 232.0
252.197174 240.0
252.247742 192.0
252.513336 240.0
253.128143 160.0
253.162109 252.0
253.808548 160.0
254.043228 260.0
254.134918 160.0
254.271683 148.0
254.3871 168.0
254.879242 100.0
255.049957 304.0
255.126129 184.0
255.876923 176.0
255.937424 152.0
256.054077 176.0
256.095154 128.0
256.141235 152.0
256.423553 132.0
257.059143 372.0
257.231781 200.0
257.279663 184.0
257.61496 156.0
257.864197 192.0
257.979279 176.0
258.059204 140.0
258.416656 136.0
258.529419 184.0
258.903961 176.0
259.173035 160.0
259.2211 156.0
259.796143 224.0
259.977905 140.0
260.06134 164.0
260.083801 148.0
260.237885 144.0
260.290619 168.0
260.331024 144.0
260.632965 176.0
260.763 120.0
261.158844 1276.0
261.485138 192.0
261.607117 196.0
261.742676 168.0
261.96167 140.0
262.163025 392.0
262.206543 144.0
262.33548 248.0
262.64505 152.0
262.68689 132.0
262.764404 152.0
263.277618 172.0
263.594208 160.0
263.691162 156.0
263.862457 176.0
264.105957 192.0
264.275696 132.0
264.341156 200.0
264.567719 172.0
264.674561 144.0
265.822052 196.0
266.28952 168.0
266.344757 164.0
266.85495 144.0
267.144379 160.0
267.640625 160.0
267.830414 148.0
267.951752 184.0
268.367249 100.0
269.135681 192.0
269.194458 260.0
269.560333 140.0
269.707397 212.0
269.831879 100.0
270.430237 164.0
271.126648 100.0
272.092163 152.0
272.804779 144.0
272.847778 156.0
273.33786 140.0
273.400391 148.0
273.653839 204.0
273.706512 140.0
275.054901 144.0
275.173889 140.0
275.566772 152.0
275.890656 204.0
276.177917 148.0
276.254425 164.0
276.313965 228.0
276.381378 160.0
277.146332 140.0
277.831268 176.0
278.329132 160.0
279.386017 168.0
279.81073 228.0
279.925201 144.0
280.931763 148.0
282.070068 108.0
282.111603 140.0
282.150696 148.0
283.027252 140.0
283.077515 704.0
283.386688 180.0
283.427612 284.0
283.466064 180.0
283.975647 152.0
284.074097 308.0
284.166748 132.0
284.371948 100.0
284.630768 180.0
284.683044 168.0
284.718903 304.0
284.876984 176.0
284.910004 112.0
284.960785 268.0
285.017029 172.0
285.093201 159172.0
285.196777 212.0
285.312347 188.0
285.390442 108.0
285.552917 176.0
285.645569 388.0
285.720581 116.0
285.8013 200.0
285.854462 176.0
285.95697 260.0
286.019348 132.0
286.095581 25796.0
286.21402 104.0
286.385803 228.0
286.437378 176.0
286.512756 124.0
286.607697 176.0
286.662476 140.0
286.764435 112.0
286.808472 176.0
286.856445 140.0
286.974304 176.0
287.019836 176.0
287.089996 85564.0
287.181976 504.0
287.208649 268.0
287.341217 156.0
287.39856 148.0
287.472076 108.0
287.700043 120.0
287.822845 132.0
287.858307 168.0
287.998138 276.0
288.092621 10200.0
288.202576 104.0
288.246246 152.0
288.365631 120.0
288.594391 144.0
288.632446 168.0
288.689362 148.0
288.808411 180.0
288.841827 116.0
289.086731 4852.0
289.495605 112.0
289.597321 100.0
289.723816 204.0
289.779327 116.0
289.866302 160.0
289.979828 160.0
290.107819 116.0
290.392914 120.0
290.42569 156.0
290.598755 228.0
290.640106 132.0
290.870575 144.0
290.939362 96.0
291.004852 180.0
291.322235 116.0
291.551758 144.0
291.731171 96.0
292.320374 136.0
292.358948 156.0
292.59259 144.0
292.851379 140.0
294.003723 176.0
294.576782 152.0
294.9617 128.0
295.113861 208.0
295.555084 144.0
297.645966 144.0
299.003845 152.0
299.179382 200.0
299.639832 104.0
299.720123 168.0
300.05838 140.0
300.79071 168.0
300.972198 200.0
301.081665 120.0
301.536835 168.0
301.652802 144.0
302.249176 136.0
303.278717 176.0
303.473785 140.0
303.569397 104.0
304.737152 140.0
305.380249 164.0
305.46582 140.0
306.191162 204.0
306.53952 160.0
306.603516 112.0
307.131256 164.0
307.891815 136.0
308.63736 156.0
309.683716 144.0
310.034058 160.0
310.6539 164.0
311.089813 148.0
311.405823 224.0
311.911774 140.0
312.720764 160.0
313.329956 176.0
315.944794 156.0
316.129944 148.0
316.972717 144.0
318.272003 148.0
318.583496 160.0
319.017029 156.0
319.11142 180.0
320.376434 144.0
320.461914 160.0
320.818329 156.0
321.349701 184.0
321.760132 152.0
323.081787 160.0
323.347198 152.0
323.907227 176.0
324.152954 188.0
324.615387 168.0
324.690704 140.0
324.871552 132.0
324.908569 124.0
325.160675 208.0
325.537628 176.0
325.727966 172.0
326.123199 144.0
326.16449 112.0
326.425201 160.0
327.243622 152.0
327.612915 176.0
328.569366 248.0
329.510529 140.0
330.345642 192.0
330.567383 136.0
330.935516 164.0
331.059174 140.0
331.942841 240.0
332.336853 176.0
332.608765 172.0
332.80896 148.0
333.354797 152.0
333.46756 140.0
333.740204 196.0
334.153198 292.0
334.75177 168.0
334.955719 140.0
335.012634 128.0
335.086456 144.0
335.578888 148.0
336.848877 148.0
338.004181 136.0
338.176178 172.0
338.403137 152.0
339.051483 148.0
339.213562 144.0
339.630768 148.0
339.78186 128.0
339.847198 156.0
340.658569 196.0
341.184082 164.0
341.250244 160.0
341.305389 140.0
342.228943 156.0
342.793579 124.0
342.928864 160.0
343.762817 148.0
344.424042 136.0
345.362 140.0
345.806 152.0
346.159882 176.0
346.365082 160.0
346.580292 220.0
346.813416 164.0
347.418427 132.0
347.621918 164.0
347.819153 136.0
347.95224 176.0
348.02652 148.0
348.20105 184.0
348.379333 144.0
348.895874 176.0
350.418427 236.0
350.549255 144.0
350.827972 152.0
351.936707 112.0
352.231598 144.0
353.268982 132.0
354.201263 168.0
354.251038 160.0
355.064392 184.0
355.194611 172.0
355.363068 140.0
355.46579 176.0
355.919983 204.0
356.76532 168.0
357.131958 140.0
357.60788 164.0
357.890228 168.0
358.300751 160.0
358.900024 148.0
360.311584 172.0
360.542053 192.0
360.882263 144.0
361.266785 236.0
361.415558 164.0
361.506531 116.0
361.725891 168.0
362.195435 144.0
362.365906 196.0
362.979919 152.0
363.268158 296.0
363.332672 148.0
363.719727 148.0
364.068329 132.0
364.384277 156.0
365.635315 148.0
365.787537 156.0
365.903473 124.0
366.282562 140.0
367.090546 168.0
367.361328 164.0
367.746704 180.0
368.090302 148.0
368.208679 176.0
368.476074 144.0
368.605988 168.0
368.911743 152.0
369.129669 168.0
370.230988 160.0
371.408386 132.0
371.692261 152.0
371.849609 176.0
372.772064 104.0
373.447906 164.0
373.932678 172.0
374.128998 196.0
374.864655 164.0
374.903168 236.0
375.392487 116.0
375.574005 164.0
375.92688 148.0
376.013855 172.0
376.44693 108.0
376.674103 140.0
376.886139 104.0
377.775787 168.0
378.693146 176.0
378.794342 160.0
378.844208 176.0
379.57431 160.0
379.94519 144.0
380.003387 152.0
380.236206 192.0
380.342316 108.0
380.582825 164.0
381.510254 184.0
382.763031 156.0
384.054535 120.0
384.419708 176.0
384.570465 152.0
384.657776 140.0
385.595184 180.0
385.774994 228.0
385.907898 156.0
386.335266 116.0
386.917297 172.0
387.758118 244.0
388.504486 180.0
388.845856 140.0
389.04361 104.0
389.11145 132.0
390.109589 124.0
390.29541 140.0
390.34259 148.0
391.141235 168.0
391.775208 172.0
392.571381 192.0
392.598999 140.0
393.10788 164.0
393.589447 160.0
393.952789 140.0
394.061951 256.0
394.228821 168.0
394.54953 160.0
394.806549 156.0
395.162537 196.0
395.751221 136.0
395.917114 108.0
396.44342 124.0
397.167633 132.0
397.464569 144.0
397.520111 140.0
397.714569 200.0
398.311676 144.0
398.687622 160.0
398.862488 248.0
398.96994 140.0
399.421722 144.0
401.047699 160.0
401.562042 184.0
401.637817 152.0
401.858246 288.0
402.019623 160.0
402.200409 112.0
403.868713 308.0
404.064117 160.0
405.748657 140.0
405.947235 152.0
406.197815 172.0
406.659241 160.0
407.570831 192.0
407.617554 184.0
409.131317 188.0
409.630676 160.0
409.868378 148.0
410.117767 104.0
410.165253 168.0
410.371613 168.0
410.803711 160.0
411.172913 224.0
411.707245 220.0
412.171936 156.0
412.287842 236.0
412.38205 104.0
412.447174 180.0
412.600769 184.0
413.257416 100.0
413.583771 144.0
413.769714 128.0
414.000763 164.0
414.069611 152.0
414.178986 360.0
414.247375 140.0
414.547638 160.0
414.626129 120.0
415.163208 132.0
415.628662 156.0
415.694031 120.0
415.853516 160.0
416.028046 232.0
417.006989 180.0
417.23056 148.0
417.50058 208.0
419.114716 244.0
419.979858 172.0
420.060791 200.0
420.127258 148.0
420.753082 180.0
421.126099 168.0
421.18576 120.0
421.947449 140.0
422.06604 188.0
422.278107 140.0
422.695953 216.0
422.773712 144.0
422.890533 212.0
422.986542 140.0
423.457397 156.0
423.533173 148.0
425.10437 124.0
426.690887 152.0
426.760773 172.0
426.789581 240.0
426.954041 140.0
427.567047 140.0
428.291656 140.0
428.458954 104.0
429.066376 172.0
429.4086 156.0
429.68396 128.0
429.832428 152.0
429.992035 164.0
430.491516 220.0
430.949524 168.0
432.139099 164.0
432.33606 136.0
432.38739 148.0
432.420502 152.0
432.884155 184.0
432.954559 176.0
433.462097 176.0
435.295502 124.0
435.359375 188.0
436.215729 156.0
436.30719 104.0
436.361237 228.0
437.216187 140.0
438.250793 144.0
438.546661 148.0
438.609192 176.0
438.705078 168.0
439.015991 132.0
439.810455 152.0
439.901825 208.0
440.107941 244.0
440.932709 120.0
441.020691 128.0
441.083649 168.0
441.159393 120.0
441.216644 140.0
441.286804 188.0
441.369446 136.0
441.402191 172.0
441.946167 156.0
442.27655 212.0
442.35849 132.0
442.518738 112.0
442.70697 144.0
442.960724 264.0
443.057159 96.0
443.290039 184.0
443.399017 168.0
443.428345 168.0
443.486969 300.0
443.780457 200.0
443.851654 96.0
443.916504 120.0
444.017853 176.0
444.048584 156.0
444.236572 180.0
444.311554 184.0
444.372375 160.0
444.707794 132.0
444.864288 116.0
445.036285 192.0
445.205841 244.0
445.256561 112.0
445.287292 200.0
445.36908 164.0
445.407379 348.0
445.48349 228.0
445.584839 256.0
445.669983 208.0
445.776276 104.0
445.848541 216.0
445.926788 268.0
445.958649 448.0
445.994507 220.0
446.024963 148.0
446.137634 404.0
446.19693 212.0
446.256317 240.0
446.313812 252.0
446.376862 292.0
446.413391 304.0
446.462616 204.0
446.57251 312.0
446.636261 252.0
446.683105 232.0
446.739594 140.0
446.819489 152.0
446.874084 160.0
446.913513 168.0
447.023773 220.0
447.072723 124.0
447.139526 396.0
447.225983 116.0
447.294952 308.0
447.353851 132.0
447.393372 292.0
447.421661 204.0
447.497406 276.0
447.559937 316.0
447.615082 132.0
447.679749 256.0
447.744385 436.0
447.788269 488.0
447.807404 420.0
447.860321 584.0
447.929993 388.0
447.968658 460.0
448.019196 732.0
448.052216 968.0
448.158173 236768.0
448.302185 252.0
448.454071 396.0
448.550568 1248.0
448.612671 768.0
448.671692 276.0
448.766144 256.0
448.797638 620.0
448.856445 11596.0
448.90448 588.0
448.915466 516.0
448.996857 384.0
449.036682 360.0
449.161041 164540.0
449.312469 204.0
449.463898 572.0
449.57016 480.0
449.699646 184.0
449.733582 428.0
449.792725 176.0
449.861053 1136.0
449.908997 532.0
449.937439 464.0
449.980316 420.0
450.028534 456.0
450.091827 688.0
450.155884 219068.0
450.29834 204.0
450.389526 132.0
450.469269 212.0
450.547577 516.0
450.612579 380.0
450.69397 224.0
450.762848 140.0
450.787903 344.0
450.853119 3596.0
450.901733 672.0
451.02597 232.0
451.067841 228.0
451.157715 78364.0
451.299866 484.0
451.345367 100.0
451.423279 188.0
451.478943 384.0
451.543823 260.0
451.578186 332.0
451.593048 432.0
451.656738 280.0
451.71524 152.0
451.805481 272.0
451.866821 436.0
451.905304 624.0
451.993286 388.0
452.082397 176.0
452.152649 19092.0
452.258789 168.0
452.324036 196.0
452.44397 156.0
452.539764 140.0
452.613617 136.0
452.654999 320.0
452.782257 152.0
452.845398 148.0
452.883636 312.0
452.917267 188.0
452.982483 144.0
453.050842 112.0
453.098633 124.0
453.145508 164.0
453.196045 328.0
453.260956 280.0
453.305237 216.0
453.35025 132.0
453.386383 152.0
453.441376 196.0
453.494873 208.0
453.554443 156.0
453.615448 204.0
453.648254 268.0
453.733337 100.0
453.763306 316.0
453.808899 124.0
453.876129 240.0
453.954681 104.0
453.973022 124.0
454.018127 208.0
454.051697 172.0
454.099915 244.0
454.134491 304.0
454.198303 192.0
454.25174 152.0
454.486938 104.0
454.544861 224.0
454.659698 140.0
454.90625 108.0
455.037537 188.0
455.157166 108.0
455.189819 140.0
455.272797 140.0
455.607605 152.0
455.714081 184.0
455.881012 128.0
456.10144 276.0
456.245697 96.0
457.013855 104.0
457.409332 192.0
457.721954 120.0
459.986359 104.0
460.354553 96.0
462.161285 108.0
463.093781 128.0
463.249725 112.0
464.043091 100.0
464.204285 120.0
464.818451 176.0
465.073303 156.0
465.926056 124.0
466.435181 128.0
467.043732 136.0
468.087769 132.0
468.259247 152.0
468.865082 128.0
469.405548 164.0
469.830322 100.0
479.236328 140.0
491.306244 148.0
496.816895 104.0
501.948792 112.0
510.162262 164.0
531.051331 140.0
569.062561 144.0
599.122742 104.0
608.864197 168.0
617.765869 156.0
621.129333 188.0
639.460876 96.0
642.00354 184.0
659.365845 100.0
684.041565 112.0
689.662659 164.0
705.621277 96.0
711.506042 108.0
721.388306 112.0
739.371582 148.0
766.2724 132.0
770.562988 232.0
775.260681 176.0
814.963562 144.0
925.320374 96.0
943.552612 96.0
952.645264 260.0
965.838623 100.0
1146.521851 160.0
1235.664673 176.0
1247.988647 144.0
1287.207886 192.0
1295.368286 188.0
1301.493042 200.0
1301.880737 172.0
1330.836792 140.0
1346.189453 168.0
1349.101685 156.0
1360.346313 172.0
1369.49231 116.0
1392.718506 232.0
1410.340088 148.0
1418.116699 152.0
1430.781372 148.0
1467.366943 160.0
1474.87854 216.0
1480.04248 184.0
1482.187134 200.0
1484.126343 172.0
1487.586426 180.0
1489.375488 320.0
1490.374268 156.0
1511.431885 208.0
1512.035522 176.0
1512.724365 164.0
1514.489868 192.0
1528.409302 188.0
1534.609253 168.0
1540.009399 148.0
1540.26709 144.0
1542.759888 148.0
1545.998047 188.0
1549.740967 208.0
1552.900024 188.0
1553.407715 224.0
1568.586426 204.0
1568.68103 180.0
1579.39624 160.0
1593.284546 152.0
1603.06311 188.0
1603.915894 156.0
1604.633423 188.0
1624.843506 180.0
1625.838501 152.0
1633.439209 184.0
1660.975952 180.0
1665.674805 176.0
1672.448975 168.0
1677.213989 152.0
1678.534668 188.0
1688.244019 172.0
1689.757202 140.0
1692.744751 176.0
1719.198364 164.0
1733.587402 144.0
1737.650391 180.0
1738.969727 180.0
1740.646729 140.0
1742.515503 160.0
1744.958984 224.0
1745.042114 180.0
1757.727539 144.0
1765.0448 152.0
1776.331299 188.0
1780.321045 140.0
1781.888428 152.0
1788.206909 184.0
1788.829712 172.0
1789.317993 216.0
1793.470947 236.0
1799.519409 168.0
1800.346924 160.0
1804.588745 192.0
1805.036377 112.0
1812.756958 156.0
1820.637695 176.0
1822.531982 192.0
1825.838745 196.0
1829.029297 160.0
1830.808472 136.0
1831.984131 168.0
1839.522461 144.0
1844.251343 164.0
1844.638184 164.0
1852.272095 148.0
1855.288452 160.0
1856.411621 192.0
1865.057129 172.0
1869.159302 152.0
1869.727295 156.0
1870.579346 148.0
1873.033447 152.0
1874.420532 176.0
1875.756348 168.0
1885.708374 192.0
1897.775635 160.0
1898.451904 180.0
1899.952515 160.0
1904.075562 176.0
1906.881714 196.0
1912.326294 184.0
1913.571045 148.0
1921.2229 152.0
1922.374634 164.0
1922.531738 148.0
1923.139771 144.0
1924.810059 180.0
1928.828857 148.0
1934.908691 208.0
1943.989258 192.0
1945.522827 192.0
1950.769653 196.0
1952.026978 140.0
1957.200928 140.0
1961.359131 204.0
1961.5354 172.0
1963.087158 144.0
1966.871948 152.0
1971.659058 208.0
1972.781616 180.0
1975.186768 144.0
1975.469849 140.0
1977.451904 160.0
1978.62915 160.0
1980.231934 184.0
1990.083984 152.0
1993.859253 192.0
1996.997681 164.0
2001.037598 212.0
2002.275391 184.0
