>compound MLS002473215-01!(2E,4E,12E)-13-(1,3-benzodioxol-5-yl)-N-(2-methylpropyl)trideca-2,4,12-trienamide
>formula C24H33NO3
>ionization [M+H]+
>parentmass 384.25354
#inchi InChI=1S/C24H33NO3/c1-20(2)18-25-24(26)14-12-10-8-6-4-3-5-7-9-11-13-21-15-16-22-23(17-21)28-19-27-22/h8,10-17,20H,3-7,9,18-19H2,1-2H3,(H,25,26)/b10-8+,13-11+,14-12+
#inchikey FPMPOFBEYSSYDQ
#Ion_Source LC-ESI
#Instrument qTof
#Compound_Source NIH Natural Product Library
#PI Dorrestein
#Data_Collector VVP/LMS
#Scan -1
#Precursor_MZ 384.254
#ExactMass 383.246
#Charge 1
#CAS_Number N/A
#Pubmed_ID N/A
#Smiles CC(C)CNC(=O)/C=C/C=C/CCCCCC\C=C\c1ccc2OCOc2c1
#INCHI_AUX N/A
#Library_Class 1
#SpectrumID CCMSLIB00000080432
#IonMode Positive
#UpdateWorkflowName UPDATE-SINGLE-ANNOTATED-GOLD
#LibraryQualityString Gold
#TaskID b1d8e8f6646f4e71acdff9ca3d919d08
##Scan# 2867
#SpectrumFile p2-G08_GG8_01_18056.mzXML
#LibraryName NIH_Natural_Products_Library.mgf
#MQScore -1
#Organism NIH_Natural_Products_Library
#TIC_Query 0
#RT_Query -1
#MZErrorPPM -1
#SharedPeaks 0
#MassDiff 0
#LibMZ -1
#SpecMZ 384.254
#SpecCharge 0
#internalFilename spec-00000.mgf

>collision 10
95.003029 152.0
95.016609 176.0
95.046806 944.0
95.084816 1128.0
95.109245 60.0
95.114777 144.0
95.133057 176.0
95.181595 124.0
95.23597 176.0
95.26107 148.0
95.313683 180.0
95.340889 148.0
95.364212 296.0
95.383652 112.0
95.453644 244.0
95.482162 180.0
95.498375 196.0
95.533386 248.0
95.578133 172.0
95.598862 80.0
95.617058 112.0
95.692978 156.0
95.741653 124.0
95.84211 188.0
95.864388 148.0
95.892372 100.0
95.915543 228.0
95.947281 196.0
95.991096 184.0
96.004753 144.0
96.044022 520.0
96.086197 324.0
96.108139 168.0
96.139359 308.0
96.199234 172.0
96.272705 172.0
96.281273 52.0
96.285133 156.0
96.299454 52.0
96.313126 48.0
96.41082 172.0
96.4245 68.0
96.471413 172.0
96.487053 140.0
96.507179 244.0
96.551575 168.0
96.594612 40.0
96.647034 156.0
96.670914 156.0
96.688049 280.0
96.737251 184.0
96.786995 120.0
96.800629 208.0
96.82753 156.0
96.886299 128.0
96.900009 140.0
96.952919 76.0
96.990204 164.0
97.028282 312.0
97.04483 144.0
97.064659 124.0
97.101334 156.0
97.115059 120.0
97.119987 152.0
97.148941 136.0
97.155479 132.0
97.159294 176.0
97.177666 216.0
97.213364 144.0
97.239258 128.0
97.278244 144.0
97.357452 180.0
97.390442 176.0
97.423836 128.0
97.44545 76.0
97.500473 156.0
97.545677 152.0
97.575165 240.0
97.596527 148.0
97.624329 224.0
97.644646 168.0
97.668739 248.0
97.695427 108.0
97.726669 148.0
97.744324 88.0
97.765968 200.0
97.789589 112.0
97.809273 120.0
97.848869 216.0
97.869377 168.0
97.90181 64.0
97.917564 216.0
97.929649 180.0
97.94873 160.0
97.966278 148.0
98.019089 160.0
98.041435 188.0
98.058617 2052.0
98.102783 168.0
98.146164 144.0
98.218369 280.0
98.221657 172.0
98.266479 176.0
98.279205 172.0
98.306389 124.0
98.325676 140.0
98.35331 144.0
98.394768 132.0
98.420433 192.0
98.43821 188.0
98.457954 184.0
98.479683 140.0
98.499435 108.0
98.640137 200.0
98.681007 232.0
98.74057 168.0
98.756393 116.0
98.784088 136.0
98.827614 140.0
98.867195 176.0
98.894897 160.0
98.910736 32.0
98.930534 140.0
98.997528 172.0
99.078957 216.0
99.146431 220.0
99.172203 152.0
99.197968 116.0
99.230331 136.0
99.263397 52.0
99.314964 128.0
99.330833 156.0
99.34655 156.0
99.370506 136.0
99.388367 176.0
99.414597 180.0
99.435989 204.0
99.511429 52.0
99.527313 172.0
99.555115 104.0
99.582916 212.0
99.6026 200.0
99.632576 100.0
99.664368 168.0
99.730415 196.0
99.743866 176.0
99.761215 148.0
99.777756 160.0
99.853226 232.0
99.876411 200.0
99.996254 184.0
100.002754 104.0
100.009369 200.0
100.030312 96.0
100.052208 264.0
100.07679 200.0
100.106766 168.0
100.139824 160.0
100.155495 128.0
100.213539 136.0
100.239197 156.0
100.418869 324.0
100.479706 288.0
100.542564 180.0
100.578751 124.0
100.644371 80.0
100.684029 280.0
100.718262 144.0
100.736374 120.0
100.810013 364.0
100.844147 244.0
100.922211 160.0
100.960106 128.0
100.989098 196.0
101.073082 172.0
101.14753 196.0
101.203339 176.0
101.285629 256.0
101.320404 168.0
101.373657 208.0
101.40593 336.0
101.441017 152.0
101.454681 196.0
101.48275 208.0
101.558952 56.0
101.595062 180.0
101.611725 236.0
101.710594 244.0
101.750267 132.0
101.765045 144.0
101.805618 244.0
101.877335 192.0
101.898216 184.0
102.003723 128.0
102.044693 1132.0
102.110168 292.0
102.147507 136.0
102.163597 172.0
102.203835 192.0
102.248108 148.0
102.294876 256.0
102.335968 56.0
102.348763 172.0
102.389603 200.0
102.405151 348.0
102.437729 184.0
102.484787 128.0
102.505684 160.0
102.536118 160.0
102.56823 180.0
102.572716 176.0
102.596588 168.0
102.6698 284.0
102.711395 180.0
102.75473 116.0
102.79911 196.0
102.84269 132.0
102.883064 128.0
102.908615 152.0
102.942535 352.0
102.9729 196.0
102.986534 264.0
103.0019 348.0
103.054771 50708.0
103.113251 168.0
103.119949 136.0
103.126259 204.0
103.15493 152.0
103.19622 32.0
103.219513 108.0
103.253952 116.0
103.275795 112.0
103.310669 204.0
103.325661 92.0
103.360626 72.0
103.386635 280.0
103.430893 48.0
103.453392 176.0
103.5047 184.0
103.548332 144.0
103.562508 164.0
103.583572 84.0
103.605049 64.0
103.624428 168.0
103.642693 172.0
103.650269 100.0
103.680023 64.0
103.710419 28.0
103.742851 128.0
103.775291 156.0
103.799629 128.0
103.82193 156.0
103.838158 184.0
103.866554 72.0
103.89698 196.0
103.919304 112.0
103.935532 36.0
103.973595 160.0
104.002502 148.0
104.020775 96.0
104.057968 3616.0
104.092972 228.0
104.128387 192.0
104.147293 164.0
104.169014 184.0
104.190552 196.0
104.216385 148.0
104.247726 184.0
104.272644 44.0
104.308792 196.0
104.316467 164.0
104.351746 136.0
104.41864 168.0
104.46785 64.0
104.490753 232.0
104.557411 260.0
104.62455 84.0
104.659164 72.0
104.673416 144.0
104.691742 44.0
104.716179 144.0
104.758606 92.0
104.773918 140.0
104.808929 176.0
104.817322 124.0
104.825539 224.0
104.847771 184.0
104.879181 76.0
104.895042 200.0
104.91655 196.0
104.935585 132.0
104.956657 280.0
105.033432 6916.0
105.06971 4096.0
105.101479 116.0
105.132446 300.0
105.147659 184.0
105.173904 84.0
105.195129 196.0
105.237411 168.0
105.2826 232.0
105.303329 64.0
105.357796 52.0
105.42617 132.0
105.482407 132.0
105.563133 112.0
105.583588 124.0
105.608643 224.0
105.650085 180.0
105.761948 160.0
105.7882 140.0
105.805794 128.0
105.82505 168.0
105.846085 224.0
105.876244 96.0
105.919258 144.0
105.939743 92.0
105.971672 96.0
106.008659 148.0
106.037346 340.0
106.070496 512.0
106.086937 228.0
106.134453 48.0
106.151627 200.0
106.173164 200.0
106.25341 188.0
106.29187 156.0
106.310867 100.0
106.356018 104.0
106.430443 240.0
106.507965 168.0
106.540619 192.0
106.583984 32.0
106.631248 148.0
106.668831 132.0
106.749817 244.0
106.768997 140.0
106.83429 156.0
106.857452 140.0
106.871849 124.0
106.919182 72.0
106.970642 88.0
107.022354 236.0
107.048737 7220.0
107.085739 992.0
107.153931 124.0
107.212471 224.0
107.22905 132.0
107.241745 156.0
107.275246 208.0
107.364182 212.0
107.388931 212.0
107.405434 180.0
107.425758 164.0
107.446693 132.0
107.481766 104.0
107.510658 164.0
107.545746 112.0
107.5858 208.0
107.630386 156.0
107.661362 172.0
107.682014 140.0
107.723923 196.0
107.758095 92.0
107.843178 204.0
107.909332 80.0
107.959358 352.0
107.983772 164.0
108.031349 40.0
108.054047 328.0
108.084282 288.0
108.122391 136.0
108.1493 152.0
108.163788 52.0
108.182419 192.0
108.209335 176.0
108.229095 176.0
108.273529 224.0
108.362236 68.0
108.402725 212.0
108.480728 144.0
108.495239 64.0
108.511826 108.0
108.574036 116.0
108.602425 244.0
108.671089 204.0
108.737938 296.0
108.764923 64.0
108.781525 192.0
108.799156 120.0
108.829277 104.0
108.850044 76.0
109.016235 164.0
109.03286 128.0
109.048813 200.0
109.064751 352.0
109.100616 328.0
109.184624 232.0
109.224144 280.0
109.240784 52.0
109.271996 136.0
109.311523 128.0
109.348984 188.0
109.396866 236.0
109.434334 48.0
109.545654 204.0
109.567635 156.0
109.584305 100.0
109.609306 36.0
109.673912 80.0
109.698555 112.0
109.728111 220.0
109.754173 40.0
109.811859 176.0
109.844162 124.0
109.886627 32.0
109.915833 168.0
109.995148 92.0
110.023056 184.0
110.059525 2684.0
110.093399 200.0
110.119064 92.0
110.137138 180.0
110.212349 156.0
110.24369 140.0
110.282463 132.0
110.312363 208.0
110.338013 140.0
110.421394 172.0
110.43679 188.0
110.467415 140.0
110.505074 116.0
110.559624 176.0
110.605522 148.0
110.62368 160.0
110.658531 112.0
110.678802 228.0
110.714401 160.0
110.743721 440.0
110.767609 128.0
110.820602 200.0
110.884972 112.0
110.900864 76.0
110.942787 88.0
110.957466 56.0
110.983025 168.0
111.06131 156.0
111.104271 148.0
111.135742 160.0
111.207672 176.0
111.276375 136.0
111.31292 216.0
111.339371 140.0
111.369217 152.0
111.408684 176.0
111.441154 184.0
111.451424 140.0
111.511345 112.0
111.525688 300.0
111.54528 160.0
111.578918 208.0
111.652016 208.0
111.732445 136.0
111.760666 136.0
111.799675 168.0
111.804459 128.0
111.857468 216.0
111.890289 44.0
111.915436 216.0
111.935699 120.0
111.957672 152.0
112.004837 152.0
112.031395 156.0
112.048248 192.0
112.073845 448.0
112.106804 228.0
112.124107 76.0
112.147293 120.0
112.210533 124.0
112.302231 256.0
112.345512 172.0
112.478455 64.0
112.502083 208.0
112.577988 200.0
112.649498 60.0
112.708473 224.0
112.744583 76.0
112.8414 60.0
112.877762 68.0
112.895592 196.0
112.958138 100.0
113.040131 196.0
113.082085 164.0
113.161819 180.0
113.233299 152.0
113.260834 152.0
113.307693 200.0
113.423996 56.0
113.447319 160.0
113.468513 132.0
113.499641 100.0
113.556656 192.0
113.565277 108.0
113.573044 152.0
113.60849 60.0
113.634071 140.0
113.708221 136.0
113.81012 116.0
113.846214 172.0
113.86586 128.0
113.888695 124.0
113.918434 116.0
113.943924 196.0
114.011925 152.0
114.042831 192.0
114.071434 100.0
114.116577 172.0
114.188385 108.0
114.227646 160.0
114.245819 140.0
114.300102 136.0
114.336823 312.0
114.378235 196.0
114.411812 140.0
114.452271 156.0
114.501251 100.0
114.516159 136.0
114.577934 40.0
114.601372 132.0
114.633331 176.0
114.673828 156.0
114.721001 192.0
114.791504 200.0
114.812309 172.0
114.856308 172.0
114.880661 72.0
114.912926 132.0
114.953209 220.0
114.972412 48.0
115.023636 176.0
115.053703 6500.0
115.120377 104.0
115.16803 116.0
115.198746 116.0
115.222244 56.0
115.255432 128.0
115.288483 132.0
115.307716 132.0
115.326958 128.0
115.372925 156.0
115.437416 132.0
115.461655 80.0
115.482834 248.0
115.519653 208.0
115.540794 196.0
115.561928 160.0
115.592148 124.0
115.612411 172.0
115.627167 144.0
115.717163 168.0
115.786964 136.0
115.844795 112.0
115.870506 180.0
115.897362 216.0
115.919785 116.0
115.934784 220.0
115.971222 148.0
116.029099 144.0
116.059761 1592.0
116.086998 76.0
116.125595 160.0
116.165047 172.0
116.196083 140.0
116.269348 156.0
116.3638 152.0
116.385658 176.0
116.430367 112.0
116.496948 132.0
116.518433 220.0
116.551994 124.0
116.620224 284.0
116.668221 144.0
116.701126 36.0
116.733376 56.0
116.763489 104.0
116.791733 152.0
116.817261 132.0
116.901169 72.0
117.032051 644.0
117.0494 112.0
117.07003 10816.0
117.116165 168.0
117.150932 128.0
117.172478 160.0
117.217361 260.0
117.3255 148.0
117.458 180.0
117.476295 160.0
117.481644 148.0
117.507568 124.0
117.572197 108.0
117.608086 256.0
117.633095 180.0
117.649475 188.0
117.726776 160.0
117.746269 144.0
117.80027 164.0
117.837166 156.0
117.865089 96.0
117.910469 36.0
117.945053 104.0
117.979027 172.0
118.036827 180.0
118.072128 1184.0
118.115372 120.0
118.142876 100.0
118.16996 164.0
118.254356 92.0
118.304146 344.0
118.336617 188.0
118.399117 144.0
118.407501 60.0
118.413887 188.0
118.442734 32.0
118.479561 216.0
118.59008 84.0
118.619209 200.0
118.639931 152.0
118.743324 188.0
118.761368 212.0
118.785233 76.0
118.826698 240.0
118.858994 136.0
118.878525 156.0
118.937126 140.0
118.956276 136.0
119.003815 184.0
119.049095 2436.0
119.085052 2108.0
119.11232 164.0
119.132561 180.0
119.174217 116.0
119.205414 212.0
119.341209 112.0
119.384941 216.0
119.419495 148.0
119.484756 76.0
119.499985 204.0
119.533264 176.0
119.559616 124.0
119.578323 136.0
119.613152 172.0
119.64798 180.0
119.688248 228.0
119.711128 132.0
119.761856 204.0
119.808556 148.0
119.889763 148.0
119.942078 168.0
120.053337 504.0
120.067505 152.0
120.090408 640.0
120.128487 140.0
120.214706 96.0
120.243073 172.0
120.270233 108.0
120.308556 128.0
120.330391 36.0
120.36969 88.0
120.387161 204.0
120.402451 208.0
120.426476 60.0
120.481087 120.0
120.522598 228.0
120.568489 112.0
120.623131 140.0
120.649368 128.0
120.722847 172.0
120.732201 200.0
120.767448 160.0
120.785835 188.0
120.806824 56.0
120.861519 120.0
120.881218 84.0
120.900909 136.0
120.918358 144.0
120.967934 132.0
121.004929 160.0
121.02993 212.0
121.063499 1936.0
121.100502 1376.0
121.118874 160.0
121.183388 68.0
121.216255 104.0
121.240364 172.0
121.262665 136.0
121.290771 204.0
121.365311 92.0
121.417946 96.0
121.484879 152.0
121.510078 124.0
121.527626 168.0
121.542984 128.0
121.617607 152.0
121.639557 52.0
121.669373 208.0
121.696632 108.0
121.725182 216.0
121.876747 168.0
121.896523 40.0
121.91745 168.0
121.986641 180.0
122.032234 456.0
122.061394 112.0
122.099457 220.0
122.134811 236.0
122.179085 236.0
122.281387 208.0
122.30114 156.0
122.329811 248.0
122.345222 124.0
122.380447 220.0
122.400269 60.0
122.475143 132.0
122.498039 236.0
122.608734 228.0
122.615913 144.0
122.621506 212.0
122.643356 164.0
122.653442 48.0
122.661781 160.0
122.688622 96.0
122.711128 196.0
122.769043 220.0
122.792534 68.0
122.810829 268.0
122.876129 192.0
122.899437 140.0
122.918289 128.0
122.933731 188.0
122.951385 192.0
122.977875 148.0
122.993324 112.0
123.043694 14244.0
123.075844 312.0
123.101303 176.0
123.121384 108.0
123.141258 152.0
123.167343 136.0
123.181023 208.0
123.218575 172.0
123.245087 76.0
123.270622 216.0
123.28566 236.0
123.315804 52.0
123.333488 116.0
123.373276 68.0
123.399811 164.0
123.426155 188.0
123.448456 172.0
123.561264 44.0
123.636368 204.0
123.656418 172.0
123.694046 220.0
123.74054 132.0
123.768387 212.0
123.809181 152.0
123.835762 108.0
123.869469 292.0
123.913033 172.0
123.955391 52.0
123.983391 132.0
124.006363 164.0
124.046257 1528.0
124.076523 348.0
124.113388 356.0
124.129105 176.0
124.186798 200.0
124.223 280.0
124.305763 168.0
124.325111 164.0
124.345703 172.0
124.439583 152.0
124.46563 212.0
124.531601 288.0
124.616623 144.0
124.667732 88.0
124.689957 64.0
124.751785 216.0
124.794441 64.0
124.83474 160.0
124.850876 116.0
124.868896 124.0
124.885612 188.0
124.930107 188.0
125.040604 176.0
125.076736 148.0
125.100929 100.0
125.190521 108.0
125.235069 188.0
125.252884 104.0
125.324181 180.0
125.413322 204.0
125.560829 176.0
125.646332 172.0
125.672012 176.0
125.790298 128.0
125.893005 68.0
125.951073 212.0
126.039062 208.0
126.064087 268.0
126.091064 492.0
126.126091 172.0
126.15567 296.0
126.202759 200.0
126.227623 200.0
126.246094 124.0
126.288589 120.0
126.325455 160.0
126.401718 212.0
126.485497 164.0
126.552284 188.0
126.598824 172.0
126.683784 176.0
126.715012 124.0
126.740814 144.0
126.781151 172.0
126.800537 172.0
126.80764 112.0
126.815353 152.0
126.853516 196.0
126.870804 120.0
126.886093 164.0
126.90361 152.0
126.93988 208.0
126.982925 160.0
126.998627 176.0
127.054962 1624.0
127.097336 140.0
127.144142 196.0
127.189354 164.0
127.207306 56.0
127.258949 108.0
127.283646 136.0
127.301613 208.0
127.319572 152.0
127.371239 168.0
127.413918 172.0
127.457703 148.0
127.484764 112.0
127.519531 192.0
127.551003 140.0
127.649925 172.0
127.67292 212.0
127.764641 188.0
127.783089 180.0
127.820885 96.0
127.873833 152.0
127.895157 152.0
127.925941 248.0
127.958961 140.0
127.982956 116.0
128.013138 248.0
128.061432 2436.0
128.106201 972.0
128.144424 192.0
128.183441 100.0
128.23436 80.0
128.27652 212.0
128.327789 192.0
128.370529 164.0
128.390839 160.0
128.478806 124.0
128.496857 72.0
128.517151 132.0
128.53746 72.0
128.592041 248.0
128.654831 148.0
128.689819 148.0
128.713531 132.0
128.765472 264.0
128.783554 168.0
128.806137 160.0
128.845093 212.0
128.92363 172.0
128.951828 168.0
128.972549 124.0
128.989166 232.0
129.031967 140.0
129.069473 6568.0
129.112427 144.0
129.131073 152.0
129.150909 204.0
129.189774 136.0
129.214569 84.0
129.249268 296.0
129.265717 176.0
129.320892 116.0
129.38324 204.0
129.428085 48.0
129.477249 140.0
129.509613 208.0
129.547195 220.0
129.629684 160.0
129.652344 96.0
129.704483 264.0
129.741852 148.0
129.77153 160.0
129.804916 196.0
129.822922 152.0
129.87944 148.0
129.947144 156.0
129.963013 32.0
130.042679 432.0
130.073486 1624.0
130.11055 128.0
130.130981 108.0
130.153687 184.0
130.175476 148.0
130.220734 168.0
130.236679 192.0
130.25589 148.0
130.308136 116.0
130.33847 216.0
130.366013 204.0
130.409027 176.0
130.426315 132.0
130.451309 336.0
130.476318 116.0
130.503601 208.0
130.525406 160.0
130.539993 292.0
130.565002 116.0
130.598373 220.0
130.658264 60.0
130.692276 144.0
130.700256 148.0
130.733353 200.0
130.787979 120.0
130.825043 156.0
130.866638 148.0
130.892883 208.0
130.920029 88.0
130.963226 620.0
131.002716 476.0
131.049759 74136.0
131.084061 1656.0
131.119202 312.0
131.152756 28.0
131.184967 132.0
131.228439 68.0
131.275543 88.0
131.294922 40.0
131.312134 92.0
131.330276 156.0
131.360779 88.0
131.399658 144.0
131.424286 868.0
131.440735 112.0
131.474014 188.0
131.512817 136.0
131.551392 120.0
131.616089 64.0
131.636093 56.0
131.688629 56.0
131.712814 80.0
131.772125 160.0
131.854355 60.0
131.878403 216.0
131.897232 68.0
131.943649 156.0
131.973282 220.0
132.01973 312.0
132.052887 9696.0
132.091339 284.0
132.125824 172.0
132.257156 148.0
132.286575 60.0
132.303329 180.0
132.33667 116.0
132.357697 92.0
132.390488 104.0
132.407791 164.0
132.427399 172.0
132.452606 200.0
132.488129 156.0
132.519043 88.0
132.541946 100.0
132.557983 48.0
132.58934 168.0
132.609909 196.0
132.649673 136.0
132.670044 184.0
132.683899 112.0
132.711563 32.0
132.727615 92.0
132.758194 72.0
132.775452 56.0
132.791519 124.0
132.807037 152.0
132.828094 172.0
132.848038 300.0
132.865234 184.0
132.921432 232.0
132.947845 184.0
132.965668 208.0
132.980499 140.0
133.026962 336.0
133.064255 9396.0
133.100342 924.0
133.12616 136.0
133.150162 184.0
133.172836 200.0
133.206512 152.0
133.277283 208.0
133.301498 52.0
133.355667 32.0
133.39006 64.0
133.411819 52.0
133.427917 132.0
133.460602 56.0
133.483093 132.0
133.515289 116.0
133.566544 132.0
133.648712 120.0
133.729263 80.0
133.783707 208.0
133.789658 220.0
133.816742 68.0
133.839767 104.0
133.865097 136.0
133.888229 232.0
133.945709 156.0
133.968735 136.0
133.987167 56.0
134.015381 200.0
134.036392 192.0
134.068619 1016.0
134.085831 212.0
134.109985 164.0
134.136963 228.0
134.171539 220.0
134.238419 120.0
134.275314 316.0
134.291458 56.0
134.320755 120.0
134.346817 148.0
134.394104 200.0
134.422226 188.0
134.470291 324.0
134.483643 308.0
134.520981 256.0
134.56842 256.0
134.614044 196.0
134.653503 168.0
134.687286 180.0
134.696762 204.0
134.705124 240.0
134.730774 488.0
134.78833 208.0
134.815536 188.0
134.833115 212.0
134.860397 432.0
134.893158 420.0
134.922943 540.0
134.959427 360.0
134.979355 520.0
135.016708 560.0
135.044815 280640.0
135.115479 840.0
135.150314 52.0
135.182373 196.0
135.22287 332.0
135.251404 228.0
135.297775 216.0
135.310974 180.0
135.35994 156.0
135.377319 148.0
135.400314 596.0
135.425552 3668.0
135.455475 336.0
135.490768 128.0
135.508698 72.0
135.524506 128.0
135.552216 48.0
135.590958 80.0
135.61824 124.0
135.640762 100.0
135.657471 112.0
135.679077 68.0
135.708481 144.0
135.744354 164.0
135.768738 76.0
135.789337 52.0
135.80661 160.0
135.826477 76.0
135.853256 96.0
135.881439 152.0
135.909607 92.0
135.949142 176.0
135.9729 136.0
135.98175 132.0
135.998306 208.0
136.018204 192.0
136.047409 33028.0
136.081329 156.0
136.103989 156.0
136.123596 148.0
136.142868 76.0
136.203033 212.0
136.21344 48.0
136.219055 96.0
136.244797 116.0
136.27327 52.0
136.304764 160.0
136.324188 128.0
136.344986 144.0
136.371353 188.0
136.3965 64.0
136.435287 192.0
136.464691 72.0
136.484222 72.0
136.50383 144.0
136.556946 220.0
136.592789 84.0
136.627121 268.0
136.66864 48.0
136.713745 120.0
136.737289 268.0
136.754974 216.0
136.780746 68.0
136.80159 76.0
136.820404 480.0
136.854309 112.0
136.872314 188.0
136.901871 76.0
136.911743 52.0
136.92894 132.0
136.94606 312.0
136.97496 172.0
136.97937 100.0
137.006165 176.0
137.054092 2060.0
137.098083 96.0
137.12355 152.0
137.128143 276.0
137.16011 164.0
137.180588 232.0
137.229355 104.0
137.251648 120.0
137.262177 60.0
137.272186 196.0
137.323395 236.0
137.366608 108.0
137.411606 68.0
137.448944 36.0
137.533813 164.0
137.560806 56.0
137.631012 56.0
137.679825 244.0
137.708084 96.0
137.729095 52.0
137.756409 128.0
137.778152 200.0
137.815292 112.0
137.892654 80.0
137.94165 96.0
137.969803 112.0
137.995514 56.0
138.06749 200.0
138.093338 428.0
138.124695 504.0
138.159225 108.0
138.199005 32.0
138.227646 164.0
138.337082 72.0
138.374542 44.0
138.423721 64.0
138.444794 196.0
138.468216 44.0
138.498657 152.0
138.517395 80.0
138.538483 48.0
138.676743 168.0
138.69783 40.0
138.765823 56.0
138.800995 80.0
138.822098 132.0
138.843201 148.0
139.002716 76.0
139.036713 116.0
139.099289 164.0
139.127121 180.0
139.159988 56.0
139.176422 160.0
139.242767 96.0
139.268021 68.0
139.305603 60.0
139.345535 32.0
139.549072 268.0
139.598785 132.0
139.653488 220.0
139.691132 140.0
139.735825 92.0
139.754654 76.0
139.792297 132.0
139.856689 144.0
139.907639 128.0
140.030075 212.0
140.065414 88.0
140.104507 688.0
140.14444 88.0
140.374161 204.0
140.595917 168.0
140.621872 148.0
140.692688 96.0
140.926514 148.0
141.011154 156.0
141.069595 2784.0
141.109512 348.0
141.179443 216.0
141.30954 148.0
141.347397 160.0
141.387634 112.0
141.40419 44.0
141.527298 184.0
141.643341 96.0
141.664658 100.0
141.799728 152.0
141.840027 72.0
141.863724 84.0
141.916641 200.0
141.965683 52.0
142.077347 708.0
142.121109 148.0
142.176819 88.0
142.226669 68.0
142.290756 132.0
142.499771 80.0
142.516403 164.0
142.554977 84.0
142.611465 112.0
142.713684 140.0
142.735077 136.0
142.761246 176.0
142.959976 104.0
143.007263 156.0
143.049988 2176.0
143.084625 1228.0
143.124344 156.0
143.174454 108.0
143.222961 60.0
143.24202 140.0
143.440933 128.0
143.487991 188.0
143.508942 40.0
143.559021 144.0
143.649658 56.0
143.783279 164.0
143.802368 208.0
143.87529 140.0
143.990982 176.0
144.02681 124.0
144.056213 1244.0
144.086655 760.0
144.139099 148.0
144.198853 68.0
144.215576 124.0
144.25383 44.0
144.284897 28.0
144.408264 68.0
144.452301 112.0
144.492981 140.0
144.580536 168.0
144.648529 108.0
144.68074 196.0
144.713165 156.0
144.772018 160.0
144.823334 60.0
144.871231 180.0
144.909561 152.0
144.937424 96.0
144.959885 48.0
144.986252 112.0
145.03418 108.0
145.064606 13308.0
145.099762 1308.0
145.124786 76.0
145.161255 152.0
145.194824 56.0
145.21402 76.0
145.284393 268.0
145.307571 68.0
145.374756 76.0
145.396347 40.0
145.511581 68.0
145.552399 56.0
145.667679 48.0
145.706116 92.0
145.742157 68.0
145.826263 84.0
145.939804 88.0
145.999619 116.0
146.032684 136.0
146.07077 1248.0
146.100754 296.0
146.19664 64.0
146.214798 52.0
146.237839 200.0
146.278473 72.0
146.297638 200.0
146.402802 112.0
146.437393 172.0
146.504623 44.0
146.550613 44.0
146.579529 164.0
146.779602 136.0
146.811172 92.0
146.841049 104.0
146.886368 228.0
146.909851 36.0
146.997238 148.0
147.016022 76.0
147.043121 2716.0
147.079941 2440.0
147.116348 692.0
147.205719 168.0
147.254318 68.0
147.284012 116.0
147.308167 124.0
147.350708 204.0
147.428177 180.0
147.463013 48.0
147.479736 112.0
147.578857 120.0
147.600616 88.0
147.733643 72.0
147.794128 56.0
147.913589 132.0
147.92421 48.0
147.92897 168.0
148.051498 596.0
148.081802 292.0
148.119797 92.0
148.292999 104.0
148.348755 96.0
148.511215 96.0
148.542755 136.0
148.717453 176.0
148.770859 116.0
148.850983 152.0
148.923843 60.0
148.974854 36.0
149.022263 548.0
149.058762 10120.0
149.097473 216.0
149.129883 212.0
149.200867 156.0
149.262985 164.0
149.320023 56.0
149.616882 44.0
149.655838 44.0
149.680191 44.0
149.843384 180.0
149.87262 76.0
149.992035 72.0
150.031097 212.0
150.064209 800.0
150.139542 148.0
150.209061 200.0
150.370102 40.0
150.396957 204.0
150.41893 36.0
150.460419 28.0
150.549088 128.0
150.602066 80.0
150.677795 80.0
150.726654 36.0
150.934433 76.0
151.038986 180.0
151.060242 352.0
151.076675 156.0
151.130112 40.0
151.160248 64.0
151.313675 112.0
151.362656 92.0
151.590469 48.0
151.632126 156.0
151.828262 60.0
151.933731 108.0
151.963181 80.0
152.024521 148.0
152.060715 572.0
152.106766 1352.0
152.138855 152.0
152.208633 64.0
152.252991 128.0
152.282303 52.0
152.352982 104.0
152.432175 28.0
152.601776 108.0
152.639648 136.0
152.724731 168.0
152.79361 40.0
153.069672 1624.0
153.110596 584.0
153.323029 120.0
153.355072 84.0
153.576981 164.0
153.705261 252.0
153.744751 96.0
153.789169 192.0
153.907669 128.0
153.929901 156.0
154.075485 372.0
154.122986 1016.0
154.162109 44.0
154.189392 196.0
154.241196 44.0
154.293106 228.0
154.364822 60.0
154.456329 40.0
154.483536 68.0
154.572617 232.0
154.728546 124.0
154.800354 116.0
154.872177 128.0
155.018341 96.0
155.055161 712.0
155.084503 2176.0
155.128403 188.0
155.174515 48.0
155.375397 40.0
155.591324 64.0
155.669708 140.0
155.717957 144.0
155.86702 120.0
155.899323 168.0
155.973892 84.0
156.008682 68.0
156.0522 176.0
156.090805 612.0
156.13765 208.0
156.200165 148.0
156.28418 224.0
156.332031 60.0
156.389282 132.0
156.60556 208.0
156.655716 80.0
156.715515 108.0
156.795258 232.0
156.981339 180.0
157.032104 96.0
157.064804 12748.0
157.099716 724.0
157.141602 36.0
157.179306 108.0
157.226715 36.0
157.339035 44.0
157.376495 36.0
157.447815 156.0
157.491364 76.0
157.663757 160.0
157.768753 116.0
157.803741 72.0
157.848755 132.0
157.908783 68.0
157.953796 244.0
157.998825 48.0
158.026352 156.0
158.067734 1308.0
158.098007 176.0
158.424423 68.0
158.474533 112.0
158.527161 128.0
158.544693 60.0
158.611038 68.0
158.705719 84.0
158.740234 160.0
158.777847 148.0
158.80043 172.0
158.879974 168.0
158.905777 192.0
158.925858 120.0
159.04303 5112.0
159.079865 3380.0
159.114334 812.0
159.174362 100.0
159.201981 44.0
159.219559 52.0
159.281296 76.0
159.288193 112.0
159.355789 172.0
159.402954 60.0
159.435623 76.0
159.467499 140.0
159.508514 128.0
159.533646 136.0
159.599014 96.0
159.717224 76.0
159.765015 52.0
159.88327 40.0
159.951233 140.0
160.049942 1316.0
160.086227 644.0
160.134384 200.0
160.386337 120.0
160.508026 148.0
160.543335 216.0
160.601334 88.0
160.624039 204.0
160.737579 124.0
160.755234 144.0
160.809326 148.0
160.942429 128.0
160.964478 180.0
161.059967 29104.0
161.09494 968.0
161.130661 348.0
161.182541 148.0
161.258606 132.0
161.280563 60.0
161.326569 128.0
161.346283 48.0
161.39888 60.0
161.460083 72.0
161.513519 92.0
161.541016 88.0
161.700424 140.0
161.814346 36.0
161.880173 64.0
161.940964 56.0
162.062439 2520.0
162.127823 180.0
162.20314 108.0
162.348999 112.0
162.389572 204.0
162.41748 184.0
162.965836 96.0
163.0065 156.0
163.039017 176.0
163.073578 3628.0
163.105423 152.0
163.146286 236.0
163.204376 156.0
163.225113 72.0
163.250656 88.0
163.281052 116.0
163.337006 64.0
163.378586 116.0
163.410782 56.0
163.494766 188.0
163.581299 36.0
163.678055 32.0
163.767181 84.0
163.830872 68.0
163.894562 176.0
164.077896 640.0
164.100739 168.0
164.141815 124.0
164.23082 40.0
164.245667 128.0
164.276993 176.0
164.335678 44.0
164.366287 68.0
164.741608 152.0
164.877029 104.0
165.069702 1788.0
165.10968 104.0
165.199203 132.0
165.626709 104.0
165.685623 136.0
166.026535 148.0
166.072769 180.0
166.122147 2184.0
166.149658 56.0
166.270874 184.0
166.303619 128.0
166.429413 108.0
166.650314 96.0
166.786514 180.0
167.048813 136.0
167.085007 380.0
167.128571 744.0
167.218628 92.0
167.293289 32.0
167.347351 48.0
167.429749 72.0
167.548233 204.0
167.635849 64.0
168.054108 376.0
168.092072 628.0
168.136078 460.0
168.172287 332.0
168.195511 220.0
168.595856 120.0
168.634613 72.0
168.673386 100.0
168.758713 56.0
168.802658 108.0
168.944916 160.0
168.968201 208.0
169.064026 2020.0
169.099808 1008.0
169.170059 32.0
169.20372 168.0
169.293365 116.0
169.34874 116.0
169.371124 100.0
169.442001 104.0
169.487335 48.0
169.659698 112.0
169.740067 188.0
170.069931 780.0
170.111313 360.0
170.151367 140.0
170.238312 72.0
170.513702 232.0
170.581284 48.0
170.680069 44.0
170.708679 136.0
170.7659 148.0
170.791901 136.0
170.979233 216.0
171.038589 244.0
171.080246 5304.0
171.11525 992.0
171.247406 32.0
171.280609 80.0
171.307312 148.0
171.338577 72.0
171.380264 48.0
171.474075 180.0
171.505356 104.0
171.588776 68.0
171.734802 140.0
171.802628 168.0
171.826111 112.0
171.857422 160.0
171.964417 60.0
172.05014 512.0
172.084579 896.0
172.123627 308.0
172.18895 120.0
172.235962 136.0
172.256866 244.0
172.345688 40.0
172.421478 60.0
172.546951 56.0
173.058578 6920.0
173.09343 1532.0
173.248749 76.0
173.329559 52.0
173.478943 104.0
173.681656 160.0
173.750763 260.0
174.027283 76.0
174.064804 1356.0
174.099564 424.0
174.234772 136.0
174.303085 96.0
174.363525 40.0
174.452896 92.0
174.494949 148.0
174.689575 88.0
174.7323 164.0
174.892181 64.0
174.934311 100.0
175.037109 464.0
175.075592 7208.0
175.111252 196.0
175.168671 40.0
175.220398 120.0
175.276688 140.0
175.374207 204.0
175.391022 136.0
175.491669 108.0
175.540298 40.0
175.571945 52.0
175.67482 124.0
175.95192 192.0
176.025848 64.0
176.078217 1152.0
176.114273 444.0
176.147339 52.0
176.316437 140.0
176.34816 132.0
176.366653 92.0
176.435394 60.0
176.546448 40.0
176.59935 44.0
176.817047 84.0
177.059814 304.0
177.090515 880.0
177.128738 168.0
177.149933 284.0
177.273987 112.0
177.293015 144.0
177.393723 64.0
177.534256 36.0
177.826096 84.0
177.868561 124.0
177.926956 80.0
178.048065 172.0
178.072296 204.0
178.099289 184.0
178.12117 140.0
178.288208 132.0
178.333389 96.0
178.466324 32.0
178.737625 80.0
179.022461 52.0
179.084961 436.0
179.128998 176.0
179.160965 120.0
179.262222 64.0
179.336838 212.0
179.379486 236.0
179.966431 120.0
180.046539 92.0
180.092438 176.0
180.139511 724.0
180.567703 36.0
180.685394 132.0
180.862015 40.0
181.065338 1336.0
181.097855 352.0
181.140503 140.0
181.174179 140.0
181.378998 72.0
181.7491 48.0
182.073334 740.0
182.103683 144.0
182.155289 544.0
182.278076 84.0
182.337204 40.0
182.482361 92.0
182.635651 44.0
183.047104 168.0
183.079636 2288.0
183.116196 556.0
183.169174 216.0
183.634933 120.0
183.842667 72.0
184.055389 200.0
184.086395 680.0
184.114578 128.0
184.215164 92.0
184.561218 36.0
184.731598 148.0
184.926437 208.0
185.010834 268.0
185.059448 3336.0
185.095795 2064.0
185.242783 96.0
185.335358 48.0
185.492554 36.0
185.655228 48.0
185.782715 68.0
186.064056 1252.0
186.099136 632.0
186.159988 36.0
186.344696 88.0
186.374588 116.0
186.431656 224.0
186.450684 80.0
186.486008 196.0
186.684479 64.0
186.717117 36.0
186.830399 160.0
186.943405 156.0
186.964691 112.0
186.991898 116.0
187.075317 10556.0
187.109833 684.0
187.144348 60.0
187.190643 80.0
187.245102 64.0
187.355072 120.0
187.424896 52.0
187.460327 100.0
187.501205 44.0
187.572067 112.0
187.649887 44.0
187.674698 56.0
187.752029 100.0
187.833847 40.0
187.956619 52.0
187.978455 40.0
188.016663 64.0
188.046051 120.0
188.077072 924.0
188.116943 284.0
188.603882 100.0
188.743317 140.0
188.877319 112.0
189.008636 88.0
189.061127 220.0
189.090591 2224.0
189.124634 260.0
189.157394 148.0
189.359558 108.0
189.389191 40.0
189.41658 64.0
189.709793 152.0
189.855118 36.0
189.899002 44.0
190.022446 52.0
190.063599 160.0
190.092224 752.0
190.134247 220.0
190.324356 92.0
190.807938 152.0
191.082169 248.0
191.106659 268.0
191.149002 216.0
191.473846 176.0
191.619843 76.0
191.741089 36.0
191.771408 80.0
192.086288 456.0
192.139862 320.0
192.160248 124.0
192.751129 148.0
193.071198 164.0
193.09729 376.0
193.13266 208.0
193.478561 52.0
193.556091 32.0
193.88298 120.0
193.949493 132.0
194.074203 612.0
194.107101 368.0
194.153885 624.0
194.46817 44.0
194.515366 124.0
194.626419 112.0
194.992279 212.0
195.080795 964.0
195.120987 212.0
195.151566 164.0
195.184937 112.0
195.799942 68.0
196.025604 100.0
196.086441 144.0
196.125031 320.0
196.17131 228.0
196.215134 80.0
196.273697 240.0
196.999344 68.0
197.062927 116.0
197.095444 2172.0
197.137085 136.0
197.435394 40.0
197.86351 204.0
198.096756 276.0
198.275284 100.0
199.0327 140.0
199.075684 1212.0
199.111618 744.0
199.142227 128.0
199.38385 120.0
199.645309 76.0
199.72406 44.0
200.019516 136.0
200.07872 620.0
200.111557 312.0
200.188446 112.0
200.596985 168.0
200.68721 48.0
200.926636 188.0
201.05397 908.0
201.089767 2800.0
201.125824 168.0
201.395554 76.0
201.48877 52.0
201.997635 72.0
202.057495 176.0
202.093628 308.0
202.129196 144.0
202.178711 184.0
202.475983 56.0
202.801804 176.0
202.84433 92.0
203.058105 404.0
203.103851 664.0
203.137695 184.0
203.184631 148.0
203.812119 100.0
203.911575 168.0
204.08931 268.0
204.11058 308.0
204.728088 88.0
204.99588 136.0
205.06427 300.0
205.087082 124.0
205.107025 164.0
205.135529 116.0
205.209656 88.0
205.514847 80.0
205.640411 108.0
205.688934 100.0
206.083054 132.0
206.106735 252.0
206.138 172.0
206.191635 68.0
206.265961 156.0
206.534744 60.0
206.64917 156.0
206.935394 56.0
207.083374 356.0
207.11644 148.0
207.158783 144.0
207.210342 112.0
207.281982 64.0
207.892792 40.0
208.082245 140.0
208.102341 180.0
208.133926 132.0
208.174728 356.0
208.202835 284.0
208.501633 152.0
208.613724 68.0
208.70285 136.0
208.91568 76.0
209.060608 176.0
209.098419 240.0
209.125168 220.0
209.387741 84.0
209.413666 136.0
209.531784 176.0
209.64415 104.0
209.961273 152.0
210.105362 252.0
210.437408 160.0
210.827362 40.0
210.888062 196.0
211.072418 452.0
211.110672 500.0
211.152542 628.0
211.466537 40.0
212.019714 64.0
212.079254 288.0
212.158844 32.0
212.182037 184.0
212.347321 76.0
212.521378 60.0
212.762283 160.0
212.869705 64.0
212.971359 160.0
213.08847 1216.0
213.128464 528.0
213.584671 48.0
213.654495 76.0
213.706863 164.0
213.750504 108.0
214.098328 452.0
214.14061 188.0
214.265869 100.0
214.501923 116.0
214.927734 104.0
215.060516 332.0
215.105133 1184.0
215.152466 44.0
215.283859 140.0
215.605667 104.0
215.698746 72.0
215.847855 60.0
215.88295 64.0
215.941437 120.0
216.073898 260.0
216.1129 540.0
216.160858 208.0
216.872528 40.0
217.094009 320.0
217.123749 640.0
217.268402 44.0
217.55307 152.0
217.787994 168.0
218.087692 160.0
218.146484 176.0
218.455261 52.0
218.834915 76.0
218.944305 136.0
219.079361 156.0
219.114716 120.0
219.135345 172.0
219.568665 108.0
219.60701 64.0
220.13205 124.0
220.158905 116.0
220.741074 48.0
221.099655 392.0
221.129776 320.0
221.700226 108.0
222.097519 144.0
222.136078 276.0
222.174652 140.0
222.599091 212.0
222.703033 148.0
222.8694 104.0
222.946655 76.0
223.012909 96.0
223.080215 488.0
223.110092 352.0
223.15152 176.0
223.189011 104.0
223.351013 52.0
223.452164 52.0
223.589035 32.0
223.970154 72.0
224.026749 72.0
224.114609 180.0
224.154861 172.0
224.19957 128.0
224.476807 96.0
225.090424 584.0
225.124298 180.0
225.161148 504.0
225.190079 48.0
225.390244 56.0
225.623367 56.0
226.09404 260.0
226.131989 136.0
226.170807 176.0
227.062042 140.0
227.107117 520.0
227.147659 124.0
227.651901 156.0
227.862152 76.0
228.112335 604.0
228.192764 68.0
228.665054 196.0
228.845673 168.0
229.08905 316.0
229.123871 640.0
229.16066 200.0
229.189041 224.0
229.426071 168.0
229.617111 172.0
230.076309 112.0
230.131912 164.0
230.16333 136.0
231.094299 208.0
231.123825 200.0
231.330353 136.0
232.23941 64.0
232.615677 44.0
233.007446 104.0
233.096542 136.0
233.139526 152.0
233.55159 48.0
233.712585 52.0
234.104141 348.0
234.593018 52.0
235.107315 200.0
235.148254 144.0
235.215317 64.0
235.884293 104.0
236.040222 140.0
236.110565 132.0
236.147263 168.0
236.201584 336.0
236.768555 168.0
237.091141 504.0
237.126602 176.0
237.252701 76.0
238.044312 64.0
238.096512 96.0
238.142578 76.0
238.16716 88.0
239.104111 212.0
239.144501 496.0
239.187973 204.0
239.837967 180.0
239.896545 44.0
240.09079 104.0
240.13942 308.0
241.007614 232.0
241.050873 56.0
241.087952 92.0
241.120712 276.0
241.171402 156.0
241.369263 48.0
242.084091 184.0
242.121262 156.0
242.87442 120.0
243.10701 124.0
243.138229 144.0
243.9384 144.0
244.104294 184.0
244.144714 116.0
244.206924 116.0
244.636337 88.0
245.119659 156.0
245.365326 140.0
245.876907 68.0
246.114151 156.0
246.329651 100.0
247.97551 80.0
248.130615 208.0
248.19809 176.0
248.753418 52.0
249.101913 192.0
249.306213 128.0
250.129074 132.0
250.219772 304.0
250.40419 152.0
251.107773 120.0
251.141434 160.0
251.889832 36.0
252.145752 124.0
252.177368 68.0
253.157883 724.0
253.383026 68.0
254.086853 136.0
254.123657 120.0
254.159088 104.0
254.623306 160.0
254.874268 64.0
255.106277 220.0
255.136902 352.0
255.175919 160.0
255.24617 36.0
256.137238 168.0
256.17511 152.0
256.210571 64.0
256.978943 76.0
257.152618 908.0
257.237457 44.0
257.406677 64.0
258.148041 140.0
258.301575 124.0
259.149933 108.0
259.783142 112.0
259.816833 72.0
260.128113 76.0
260.170532 204.0
260.462067 36.0
260.487762 68.0
261.330078 72.0
262.00296 120.0
262.213959 496.0
262.315552 48.0
263.141785 280.0
263.238312 48.0
263.428864 80.0
264.106506 164.0
264.848938 212.0
265.124725 136.0
265.151947 124.0
266.135712 180.0
266.487213 100.0
266.825226 152.0
267.137482 220.0
268.141388 316.0
269.15567 236.0
269.187531 192.0
269.73642 96.0
270.053589 80.0
270.151733 88.0
270.190857 192.0
270.472412 80.0
271.17099 624.0
272.032776 56.0
272.131989 176.0
272.175018 160.0
272.439972 44.0
273.13031 112.0
273.159912 132.0
273.245453 144.0
274.437744 76.0
275.153717 128.0
276.135132 108.0
276.237671 36.0
276.63147 168.0
278.126465 148.0
278.807343 72.0
279.086578 180.0
279.322693 80.0
280.134949 180.0
280.173309 256.0
280.22821 76.0
280.39151 68.0
281.148041 204.0
281.61264 40.0
282.155701 240.0
282.180725 136.0
282.558655 76.0
283.121002 176.0
283.169739 3736.0
283.764374 48.0
283.858246 212.0
283.905212 92.0
284.093048 152.0
284.174957 800.0
284.232941 92.0
284.415192 48.0
284.52597 68.0
284.858429 92.0
285.180908 628.0
286.182678 256.0
287.120331 36.0
287.187775 184.0
288.160004 124.0
289.550293 64.0
290.336578 160.0
290.950745 44.0
291.402435 56.0
292.177612 96.0
293.158966 188.0
294.15274 172.0
296.456024 72.0
298.189148 76.0
299.128174 188.0
299.162109 292.0
299.906647 180.0
300.171722 140.0
300.202515 152.0
300.82074 68.0
301.183319 56.0
301.207489 148.0
302.196228 176.0
303.023743 104.0
303.08609 96.0
304.223694 80.0
304.536224 44.0
305.224335 180.0
305.443451 60.0
306.94101 68.0
306.968933 60.0
309.148773 160.0
309.884094 140.0
310.188995 156.0
310.273132 244.0
311.027374 172.0
311.163269 1784.0
311.385498 136.0
311.511963 76.0
311.932861 128.0
312.042633 36.0
312.168884 408.0
312.278229 84.0
312.316925 76.0
312.992645 64.0
313.175507 156.0
313.210999 72.0
313.556274 96.0
314.16983 124.0
316.226715 256.0
316.810638 108.0
317.232361 176.0
317.689819 220.0
318.669708 68.0
318.8367 80.0
322.586426 144.0
324.326111 160.0
325.463348 60.0
326.189087 136.0
326.243011 120.0
326.282532 96.0
326.703308 48.0
326.793274 140.0
327.369202 92.0
327.801483 64.0
328.191681 604.0
328.858185 164.0
328.966461 44.0
329.190308 108.0
329.223694 252.0
330.241577 424.0
331.233795 120.0
332.256104 104.0
333.727051 68.0
335.022705 52.0
335.755341 56.0
337.584991 80.0
337.830048 88.0
338.071533 52.0
338.174011 64.0
339.69101 84.0
341.512939 84.0
342.134827 80.0
342.233459 356.0
343.240173 44.0
344.240173 64.0
344.631744 48.0
344.742584 44.0
344.827606 108.0
345.974304 68.0
346.511292 132.0
347.683075 144.0
348.091431 76.0
348.366272 124.0
348.574341 84.0
350.643463 72.0
353.092651 60.0
353.608948 84.0
353.762421 36.0
354.243774 120.0
355.021362 80.0
355.227661 172.0
356.257233 120.0
357.265564 124.0
357.737915 52.0
358.257599 212.0
359.766083 192.0
360.400604 152.0
363.513214 88.0
365.209198 88.0
365.325562 80.0
366.25058 360.0
367.237793 84.0
367.417084 112.0
368.230133 92.0
369.453339 36.0
369.617859 168.0
373.469635 156.0
377.008972 92.0
377.295013 72.0
378.444092 72.0
380.53006 40.0
381.318634 104.0
382.240295 52.0
382.341492 120.0
383.322845 52.0
383.665833 80.0
384.143616 148.0
384.25354 7676.0
384.303894 60.0
384.363983 136.0
384.395203 36.0
384.422516 96.0
385.252808 2232.0
385.371399 60.0
385.437805 56.0
385.652771 88.0
385.73877 68.0
385.848206 108.0
386.241364 232.0
386.258331 264.0
386.271149 216.0
387.029816 112.0
387.261719 92.0
387.311798 56.0
387.781982 60.0
387.919159 100.0
388.852722 132.0
388.92337 64.0
389.414154 52.0
392.310272 36.0
396.298035 64.0
396.841064 108.0
403.40213 56.0
405.519592 100.0
407.160553 108.0
407.787292 60.0
410.246735 48.0
410.55722 76.0
410.645935 108.0
411.283447 76.0
411.392426 76.0
420.635925 120.0
420.721649 40.0
425.363892 92.0
426.403076 72.0
428.575867 136.0
432.006775 68.0
435.31842 132.0
439.147278 96.0
442.055023 44.0
443.625671 52.0
444.808624 96.0
447.713989 48.0
449.57312 76.0
451.161285 56.0
453.213989 80.0
453.7565 72.0
455.666382 40.0
467.87262 44.0
470.403137 56.0
476.400879 96.0
480.453918 48.0
480.907745 60.0
481.885956 48.0
481.93399 88.0
485.611267 52.0
500.696045 128.0
500.727203 44.0
504.721252 44.0
509.656342 108.0
514.552246 68.0
517.817078 104.0
526.480957 60.0
536.055054 40.0
536.174866 76.0
537.876831 36.0
539.017578 72.0
550.528992 36.0
557.640808 40.0
560.610474 100.0
561.525085 72.0
563.120361 40.0
563.696716 100.0
563.871582 192.0
565.588501 92.0
574.398254 60.0
577.943176 52.0
580.237366 80.0
581.930969 92.0
591.452209 100.0
591.50061 56.0
593.574219 128.0
600.982361 96.0
607.283264 184.0
608.387329 72.0
610.450928 124.0
612.572266 128.0
614.480164 28.0
614.652832 28.0
618.433472 204.0
618.547302 44.0
625.317627 80.0
627.090698 100.0
631.35437 208.0
632.329956 52.0
634.288391 136.0
641.320435 40.0
646.41626 104.0
659.03186 44.0
659.946777 40.0
662.946411 112.0
664.536011 140.0
680.489807 104.0
681.206482 128.0
682.032715 184.0
682.313416 88.0
685.467651 204.0
689.355286 88.0
697.31073 76.0
701.811646 196.0
708.417969 68.0
713.874207 160.0
715.885742 108.0
718.401489 184.0
718.481567 32.0
719.698425 52.0
719.805237 48.0
720.157715 40.0
721.461548 56.0
723.023376 84.0
725.294312 232.0
728.245422 184.0
728.395813 160.0
730.621399 212.0
731.170227 164.0
735.930115 64.0
739.221985 184.0
740.228882 168.0
743.237305 136.0
745.35498 120.0
745.947388 112.0
746.692261 168.0
747.764099 172.0
752.64856 144.0
756.371643 64.0
757.444885 132.0
758.195557 196.0
758.902649 144.0
765.03949 240.0
765.73877 204.0
766.168457 180.0
768.456421 168.0
769.841919 192.0
770.278259 124.0
770.974426 68.0
771.532715 148.0
771.842346 48.0
772.107727 180.0
773.419006 128.0
776.97113 172.0
777.542664 140.0
778.019348 168.0
778.247681 104.0
781.699524 140.0
784.149902 148.0
786.302734 100.0
788.112 200.0
789.285828 208.0
789.431213 224.0
793.328186 68.0
793.698181 156.0
793.911255 136.0
794.370544 164.0
794.601196 212.0
796.65033 40.0
799.793701 152.0
801.060669 76.0
801.759338 68.0
803.163269 140.0
805.398438 68.0
805.607483 164.0
806.799866 72.0
811.19281 92.0
811.759827 200.0
813.473267 224.0
813.609497 228.0
814.063721 164.0
814.211365 140.0
816.001343 200.0
817.656616 200.0
817.861023 212.0
818.066467 52.0
819.074402 136.0
820.852539 132.0
820.989441 136.0
821.816528 104.0
822.998047 112.0
823.306396 44.0
824.477539 244.0
824.574707 72.0
825.386475 128.0
828.007446 112.0
829.864075 224.0
830.98822 96.0
831.607971 132.0
832.101685 148.0
833.962891 272.0
834.164062 240.0
835.141602 176.0
836.033325 44.0
836.873779 36.0
836.983154 208.0
839.316833 260.0
841.463196 172.0
842.80896 152.0
843.016968 188.0
843.225037 92.0
843.277039 68.0
844.173157 160.0
846.250427 232.0
846.736877 144.0
847.356689 88.0
847.42041 140.0
849.014465 112.0
849.321838 56.0
850.215393 76.0
850.255981 156.0
850.598083 236.0
851.27771 120.0
851.417114 84.0
852.015381 132.0
852.671997 56.0
853.421875 40.0
854.125549 144.0
854.28009 176.0
854.68988 168.0
854.806274 108.0
858.791138 148.0
858.948669 172.0
859.362854 76.0
859.888062 88.0
861.265991 112.0
861.52887 144.0
861.658691 264.0
861.756714 132.0
862.925659 164.0
865.002441 204.0
865.529358 224.0
865.693298 116.0
868.209778 188.0
868.641418 116.0
868.694214 180.0
869.552612 244.0
869.644775 148.0
870.807312 200.0
872.029419 168.0
872.740723 160.0
872.78772 80.0
873.758179 176.0
875.223755 120.0
875.577087 100.0
875.730225 224.0
875.97168 100.0
876.920349 196.0
877.498047 192.0
880.011475 52.0
880.306702 152.0
880.560669 196.0
881.807312 164.0
882.540344 144.0
884.634644 128.0
884.676086 160.0
885.505066 96.0
885.795349 208.0
886.684082 264.0
886.814453 48.0
888.855469 160.0
890.148621 228.0
891.063293 108.0
892.210327 160.0
892.281677 20.0
893.001221 144.0
894.48877 188.0
895.125793 216.0
895.506958 200.0
896.644897 160.0
896.841553 164.0
897.163452 148.0
897.270752 136.0
897.336365 212.0
897.658325 80.0
898.254761 168.0
898.779785 168.0
901.030701 180.0
901.144226 124.0
902.016724 112.0
902.136292 216.0
902.734192 128.0
902.889648 132.0
903.91864 160.0
904.187927 296.0
905.409241 204.0
906.367676 116.0
908.670105 168.0
909.006104 172.0
910.032532 180.0
910.74115 120.0
911.059509 112.0
912.051025 120.0
912.572998 212.0
912.67627 100.0
913.596436 176.0
914.065735 136.0
914.625427 184.0
915.546021 164.0
916.112793 124.0
916.516479 136.0
917.161316 188.0
917.601379 200.0
918.065674 164.0
918.71106 212.0
918.94635 232.0
919.073059 132.0
923.186707 176.0
924.136414 156.0
924.608398 120.0
925.189453 212.0
925.40741 52.0
927.206543 220.0
927.303528 108.0
928.237122 32.0
928.285583 156.0
929.638367 88.0
930.763367 224.0
931.307983 164.0
931.878967 144.0
933.100647 148.0
933.745178 128.0
933.823303 156.0
934.085815 232.0
935.333191 208.0
935.868958 96.0
936.715454 240.0
938.568237 128.0
938.610901 172.0
938.78772 112.0
939.306152 32.0
940.453308 128.0
941.100403 124.0
941.424011 124.0
942.358582 172.0
943.397583 224.0
943.477051 140.0
943.947815 172.0
944.167969 140.0
944.223022 164.0
944.755188 156.0
945.52002 220.0
946.321899 136.0
946.413757 128.0
947.050659 108.0
948.306702 168.0
948.901306 52.0
949.195618 64.0
949.833496 184.0
950.55127 116.0
951.165039 172.0
951.410583 180.0
952.816956 160.0
953.191711 152.0
953.707947 212.0
954.69165 184.0
955.245239 172.0
955.343628 168.0
956.106628 200.0
956.69751 148.0
956.777527 216.0
957.245483 188.0
957.898315 68.0
958.341919 84.0
958.662354 136.0
958.773254 144.0
959.346497 148.0
959.741089 140.0
959.956909 172.0
960.456421 156.0
961.030151 180.0
961.499146 200.0
961.776917 88.0
962.159607 72.0
962.443665 176.0
962.573303 104.0
962.678284 180.0
963.407104 304.0
963.462708 148.0
963.759277 220.0
964.037354 164.0
964.618347 184.0
965.10675 168.0
965.545776 200.0
965.688049 88.0
966.114868 124.0
967.538208 56.0
967.711609 168.0
968.411316 72.0
968.93335 136.0
969.191895 200.0
969.8302 92.0
970.908997 112.0
971.354248 148.0
971.690613 224.0
971.882935 156.0
973.031128 156.0
973.18634 56.0
973.490662 180.0
974.068237 100.0
974.385071 52.0
975.068604 124.0
975.590698 128.0
975.758545 188.0
976.517212 164.0
977.108154 168.0
977.35083 216.0
978.166077 132.0
978.377747 88.0
978.664124 108.0
979.355408 72.0
980.906921 192.0
981.006653 44.0
982.0979 184.0
982.154053 168.0
982.253845 180.0
982.391052 164.0
983.058716 184.0
983.358276 176.0
983.626648 140.0
983.857605 60.0
984.213501 128.0
984.744324 180.0
985.250305 120.0
986.481384 164.0
986.522522 196.0
987.444336 136.0
987.857117 156.0
987.969727 124.0
988.30896 164.0
989.246338 92.0
989.409119 112.0
989.684631 184.0
990.062073 144.0
990.605225 148.0
991.131531 120.0
991.212952 176.0
991.413513 124.0
991.6203 192.0
991.965088 160.0
992.491699 112.0
992.717407 148.0
993.344604 192.0
993.702209 72.0
994.254822 116.0
994.536865 104.0
995.164612 88.0
995.315308 160.0
996.018677 148.0
996.263672 228.0
996.986267 156.0
997.872559 220.0
998.41333 52.0
998.966858 108.0
999.042297 188.0
999.482727 148.0
999.753296 156.0
1000.023926 120.0
1001.383911 56.0
1003.93634 36.0
1004.157043 164.0
1004.548157 168.0
1004.844666 184.0
1005.955322 144.0
1006.580383 104.0
1008.330322 136.0
1008.798035 148.0
1008.911804 196.0
1009.006653 88.0
1009.101501 64.0
1009.171021 48.0
1009.215332 184.0
1009.455566 112.0
1009.714844 84.0
1010.429626 96.0
1010.98645 160.0
1011.834656 160.0
1011.980286 148.0
1012.448853 152.0
1013.322998 48.0
1013.557434 72.0
1013.617615 152.0
1013.722168 136.0
1013.810913 140.0
1014.153137 144.0
1015.104126 204.0
1015.376831 172.0
1015.548035 156.0
1016.138 92.0
1016.24585 188.0
1016.518677 104.0
1016.77887 96.0
1017.096252 148.0
1017.283447 172.0
1017.445374 216.0
1017.604126 152.0
1017.712036 132.0
1017.97876 112.0
1019.109375 252.0
1019.592346 112.0
1019.732178 36.0
1019.922852 156.0
1020.609436 112.0
1020.914673 96.0
1021.13092 140.0
1021.277161 108.0
1021.805176 152.0
1021.900574 172.0
1022.880676 152.0
1023.027039 76.0
1023.351746 144.0
1023.536377 188.0
1023.988525 136.0
1024.453491 28.0
1024.638306 112.0
1025.68335 124.0
1026.461182 144.0
1027.086182 160.0
1027.283936 108.0
1027.347778 232.0
1027.456177 136.0
1027.921997 172.0
1028.592041 100.0
1029.396606 152.0
1029.556885 148.0
1030.552734 156.0
1030.968018 192.0
1031.792603 56.0
1032.182617 112.0
1032.988403 200.0
1033.084473 64.0
1033.487427 124.0
1034.114624 220.0
1034.281006 112.0
1034.35144 124.0
1034.735596 80.0
1034.819336 172.0
1035.145386 152.0
1036.657104 144.0
1037.015991 180.0
1038.150757 84.0
1038.484253 196.0
1038.766479 140.0
1038.843506 192.0
1039.106567 172.0
1039.517212 168.0
1039.808838 148.0
1040.223145 168.0
1040.300171 248.0
1040.518433 184.0
1040.685425 232.0
1040.762451 120.0
1041.070679 172.0
1041.565186 176.0
1042.490356 116.0
1042.599609 152.0
1042.676758 164.0
1043.139526 160.0
1043.538086 136.0
1043.621704 124.0
1043.750366 224.0
1044.470581 84.0
1044.856567 128.0
1045.229736 124.0
1045.521973 224.0
1045.699585 120.0
1045.783203 128.0
1046.008545 164.0
1046.517822 200.0
1046.793945 184.0
1046.838989 104.0
1046.980713 192.0
1047.238281 120.0
1047.373657 164.0
1047.605469 92.0
1047.764526 180.0
1047.927612 180.0
1048.127319 188.0
1048.1698 180.0
1048.277344 148.0
1048.675171 60.0
1049.883545 164.0
1049.996826 60.0
1050.177368 132.0
1050.622559 160.0
1050.848267 188.0
1051.132202 228.0
1051.693726 164.0
1051.777588 216.0
1052.242432 164.0
1052.410278 136.0
1052.571655 152.0
1052.726685 156.0
1053.010864 136.0
1054.005493 136.0
1054.671387 144.0
1054.716553 144.0
1055.330688 192.0
1056.578979 144.0
1056.928345 188.0
1057.439575 52.0
1057.569092 244.0
1058.158081 52.0
1058.578979 164.0
1058.747437 144.0
1058.99353 44.0
1059.220215 136.0
1059.304443 156.0
1059.38208 144.0
1059.874512 164.0
1060.101318 172.0
1060.172607 168.0
1060.302246 204.0
1060.671631 156.0
1061.358887 148.0
1061.635864 140.0
1061.715576 260.0
1061.910156 144.0
1062.137085 128.0
1062.811768 148.0
1063.24646 164.0
1063.746338 152.0
1063.941162 120.0
1064.337158 104.0
1064.467041 136.0
1064.583984 212.0
1064.863159 144.0
1065.135986 132.0
1065.239868 216.0
1065.558228 144.0
1065.655762 148.0
1065.779175 136.0
1066.143066 148.0
1066.24707 112.0
1068.243164 180.0
1068.412354 148.0
1068.672607 248.0
1069.765869 104.0
1069.883057 116.0
1070.091431 100.0
1070.156494 148.0
1070.508179 156.0
1070.566772 264.0
1070.742554 232.0
1070.827271 200.0
1071.257202 136.0
1071.37439 32.0
1071.576416 172.0
1071.661133 140.0
1072.775513 136.0
1072.84729 160.0
1073.134155 324.0
1073.525391 128.0
1074.340698 152.0
1075.025757 144.0
1076.357422 232.0
1076.697021 192.0
1077.768311 188.0
1077.814087 224.0
1077.944702 48.0
1078.121216 208.0
1078.415283 68.0
1078.637451 168.0
1078.696289 104.0
1078.885864 176.0
1078.938232 152.0
1079.337036 140.0
1079.494019 184.0
1079.611694 216.0
1079.742432 124.0
1080.083496 120.0
1080.560181 100.0
1081.057373 156.0
1081.338867 92.0
1082.6875 136.0
1083.139404 188.0
1083.539062 216.0
1084.141846 160.0
1084.423706 172.0
1085.531616 140.0
1085.885254 108.0
1085.957886 176.0
1086.65979 244.0
1086.978027 260.0
1087.453857 136.0
1087.552246 156.0
1088.123413 144.0
1088.950806 152.0
1089.042725 96.0
1089.161011 128.0
1089.325195 56.0
1089.423706 156.0
1089.798218 156.0
1090.44873 132.0
1090.692017 156.0
1090.777466 144.0
1091.599243 260.0
1091.874268 160.0
1092.197754 140.0
1092.432739 120.0
1092.710815 168.0
1092.901611 112.0
1093.072754 276.0
1093.342529 124.0
1093.509277 244.0
1093.651855 204.0
1093.836182 156.0
1094.119263 72.0
1095.192627 212.0
1095.489014 200.0
1096.391724 128.0
1096.530151 136.0
1096.635498 72.0
1096.892578 188.0
1097.110107 212.0
1097.571655 172.0
1097.907959 200.0
1098.01355 132.0
1098.363037 204.0
1098.633545 92.0
1098.692871 140.0
1098.983154 60.0
1099.326294 224.0
1099.781738 152.0
1099.847778 116.0
1100.369263 152.0
1100.554077 148.0
1101.102051 196.0
1101.478638 104.0
1101.577759 108.0
1101.868408 128.0
1102.007202 200.0
1102.053467 136.0
1102.22522 104.0
1102.370605 160.0
1102.431396 104.0
1102.608521 188.0
1102.727539 180.0
1102.938965 128.0
1103.124023 40.0
1103.295898 44.0
1103.434814 152.0
1103.824951 116.0
1104.049683 180.0
1104.331543 332.0
1104.955933 156.0
1105.121338 168.0
1105.375244 132.0
1105.670532 140.0
1106.133911 68.0
1106.312622 176.0
1107.001221 116.0
1107.405151 124.0
1107.589355 168.0
1107.762939 184.0
1108.127197 116.0
1108.292847 88.0
1109.039551 184.0
1109.094727 204.0
1109.180908 56.0
1109.280396 40.0
1109.446045 60.0
1109.605225 152.0
1109.651611 144.0
1109.828735 168.0
1109.91687 104.0
1110.042847 136.0
1110.480469 124.0
1110.652954 228.0
1110.918335 204.0
1111.522095 124.0
1113.042114 116.0
1113.135132 156.0
1113.188232 208.0
1113.274536 32.0
1113.420654 84.0
1114.33728 220.0
1114.438599 172.0
1114.662964 224.0
1115.294312 128.0
1115.433105 164.0
1115.560181 176.0
1115.713013 92.0
1116.052124 224.0
1116.13855 156.0
1116.338013 124.0
1116.530884 140.0
1116.677246 104.0
1116.730469 200.0
1116.976562 164.0
1117.242676 116.0
1117.541992 104.0
1118.038086 400.0
1118.706665 152.0
1119.066162 140.0
1119.199341 108.0
1119.279297 152.0
1119.440918 192.0
1119.73877 136.0
1119.861572 332.0
1119.931885 96.0
1120.324951 156.0
1120.538696 136.0
1120.658081 124.0
1121.584351 136.0
1121.904297 156.0
1122.464355 188.0
1122.584473 152.0
1122.924561 40.0
1123.218018 180.0
1123.358154 156.0
1123.43811 128.0
1123.598267 168.0
1123.744995 140.0
1123.885132 128.0
1124.105347 180.0
1124.345581 140.0
1124.669067 216.0
1125.199951 108.0
1125.360229 360.0
1125.487061 156.0
1125.640747 152.0
1125.834351 188.0
1126.043457 176.0
1127.043457 176.0
1127.404297 168.0
1127.517822 176.0
1127.598022 180.0
1127.704956 192.0
1128.447021 180.0
1128.553955 164.0
1128.734497 164.0
1128.808105 128.0
1129.262817 48.0
1130.09314 180.0
1130.14502 160.0
1130.500488 164.0
1130.761475 172.0
1130.855225 216.0
1130.915527 156.0
1130.975708 188.0
1131.122925 44.0
1131.250122 336.0
1131.45105 112.0
1132.006714 172.0
1132.107178 108.0
1132.314819 116.0
1133.065063 140.0
1133.245972 156.0
1133.634521 184.0
1135.008667 116.0
1135.256836 196.0
1135.428101 164.0
1135.498291 160.0
1135.610718 104.0
1136.242798 44.0
1136.531372 164.0
1136.611816 128.0
1136.766235 192.0
1137.034668 192.0
1137.266479 204.0
1137.363525 196.0
1137.746094 100.0
1138.175781 152.0
1138.424316 140.0
1138.488037 148.0
1138.60498 176.0
1138.86084 204.0
1139.142944 120.0
1139.243774 152.0
1139.411621 136.0
1139.57959 152.0
1139.653564 160.0
1139.922363 180.0
1140.10376 164.0
1140.197876 64.0
1140.379272 196.0
1140.787109 144.0
1140.917114 172.0
1141.541138 172.0
1142.127686 152.0
1142.187988 104.0
1142.389771 176.0
1142.578247 336.0
1142.84729 204.0
1142.996582 136.0
1143.069336 132.0
1143.601685 180.0
1144.280884 60.0
1144.583862 92.0
1144.711914 328.0
1144.91394 116.0
1145.257324 140.0
1145.600952 176.0
1145.654785 148.0
1146.342041 208.0
1146.833984 108.0
1147.083374 100.0
1147.130615 228.0
1147.694092 168.0
1148.311279 144.0
1148.634399 72.0
1148.74231 160.0
1149.559082 180.0
1149.862305 136.0
1149.950073 152.0
1150.186279 112.0
1150.415894 200.0
1150.557617 148.0
1150.72644 176.0
1151.347656 40.0
1151.719116 196.0
1151.773071 140.0
1151.914917 176.0
1152.151367 140.0
1152.291504 200.0
1152.455444 176.0
1152.516235 180.0
1152.658203 204.0
1152.786499 200.0
1152.867676 124.0
1153.151489 120.0
1153.23938 188.0
1153.448853 88.0
1153.658447 136.0
1153.868042 128.0
1153.968384 176.0
1154.050537 136.0
1154.226318 132.0
1154.353394 224.0
1154.544189 152.0
1154.665894 96.0
1154.801147 144.0
1154.970337 144.0
1155.017578 208.0
1155.687378 92.0
1155.78894 88.0
1155.843018 216.0
1156.020996 132.0
1156.235474 204.0
1156.416016 196.0
1156.506226 180.0
1156.715576 172.0
1156.804077 48.0
1156.898804 200.0
1157.041016 168.0
1157.474365 184.0
1157.806152 120.0
1157.921265 172.0
1158.158325 232.0
1158.280273 124.0
1158.368286 56.0
1158.415771 104.0
1158.469971 160.0
1158.58313 152.0
1159.052612 176.0
1159.342651 152.0
1159.533691 160.0
1159.635376 188.0
1159.818359 116.0
1159.95752 132.0
1160.04834 276.0
1160.516724 116.0
1160.767578 84.0
1161.357544 128.0
1161.5271 168.0
1161.696777 164.0
1162.09021 208.0
1162.775635 128.0
1162.857056 144.0
1163.562988 184.0
1163.624146 104.0
1163.970337 128.0
1164.262329 60.0
1164.398193 152.0
1164.896118 168.0
1165.546265 220.0
1165.750122 264.0
1165.845215 172.0
1166.117065 180.0
1166.286987 108.0
1166.402588 152.0
1166.497803 136.0
1166.55896 120.0
1167.075684 192.0
1167.504028 96.0
1167.558472 116.0
1167.694458 48.0
1168.503906 388.0
1169.075439 220.0
1169.22522 168.0
1169.817383 168.0
1170.0625 188.0
1170.675293 132.0
1170.797852 76.0
1171.946533 196.0
1172.323853 108.0
1172.453369 128.0
1172.555542 172.0
1173.012207 184.0
1173.162231 144.0
1173.230347 224.0
1173.325806 152.0
1173.393921 44.0
1173.509888 156.0
1173.891724 104.0
1174.05542 188.0
1174.628296 120.0
1174.698242 176.0
1175.999756 152.0
1176.20459 120.0
1176.6073 132.0
1176.661987 188.0
1176.750732 188.0
1176.851807 180.0
1177.085327 128.0
1177.174072 176.0
1177.276489 92.0
1177.39563 180.0
1178.009521 112.0
1178.114868 212.0
1178.342041 96.0
1178.4104 124.0
1179.121094 168.0
1179.209839 164.0
1179.531128 60.0
1179.768311 172.0
1180.139526 140.0
1180.317383 128.0
1180.454102 192.0
1180.939697 124.0
1180.994385 184.0
1181.049072 168.0
1181.192749 184.0
1181.616943 220.0
1182.876099 160.0
1182.958252 128.0
1183.286377 256.0
1184.067505 192.0
1184.368774 116.0
1184.655273 108.0
1184.678345 88.0
1184.692749 124.0
1185.574707 152.0
1185.787109 204.0
1186.253174 200.0
1186.465698 256.0
1187.439453 152.0
1187.665771 164.0
1187.926392 52.0
1188.125366 176.0
1188.49585 184.0
1188.571289 244.0
1188.807617 204.0
1188.921265 116.0
1189.271362 120.0
1189.360596 156.0
1189.607666 176.0
1189.820801 160.0
1189.971558 144.0
1190.067627 148.0
1190.136353 76.0
1190.294189 160.0
1190.362915 124.0
1190.534546 36.0
1190.610107 148.0
1190.795532 220.0
1190.862305 180.0
1191.667969 160.0
1191.908447 196.0
1192.107788 92.0
1192.155884 140.0
1192.224609 224.0
1192.664429 156.0
1192.78125 232.0
1193.008179 128.0
1193.344971 96.0
1193.521606 180.0
1193.688843 140.0
1193.936401 160.0
1194.053345 164.0
1194.218384 160.0
1194.610474 124.0
1194.878418 152.0
1195.126465 220.0
1195.284668 172.0
1195.601196 180.0
1195.65625 172.0
1196.840332 136.0
1196.895386 132.0
1197.028076 288.0
1197.246704 156.0
1197.384277 120.0
1197.604736 200.0
1197.742432 216.0
1198.150391 236.0
1198.203979 156.0
1198.321167 140.0
1198.707031 196.0
1198.796631 120.0
1199.01709 160.0
1199.065308 160.0
1199.120483 156.0
1199.258301 116.0
1199.320435 436.0
1199.4375 112.0
1199.623657 120.0
1199.809814 128.0
1199.88562 224.0
1200.120117 228.0
1200.299316 28.0
1200.502075 280.0
1200.749756 180.0
1201.271851 184.0
1201.628174 180.0
1201.98938 144.0
1202.223999 124.0
1202.334351 156.0
1203.38855 168.0
1204.29126 200.0
1204.536865 176.0
1204.806274 128.0
1204.958252 108.0
1205.193237 180.0
1205.524902 164.0
1205.621582 152.0
1205.75354 228.0
1205.884277 132.0
1206.008667 60.0
1206.077759 368.0
1206.133057 108.0
1206.637695 184.0
1206.686157 164.0
1206.769043 184.0
1206.831299 244.0
1206.907349 188.0
1206.983398 100.0
1207.426025 156.0
1207.654297 108.0
1207.96875 164.0
1208.05542 160.0
1208.262939 136.0
1208.325195 108.0
1208.498169 144.0
1208.567383 156.0
1208.86499 164.0
1209.044922 164.0
1209.141724 320.0
1209.460205 132.0
1209.653931 116.0
1210.270142 196.0
1210.332397 136.0
1210.391846 164.0
1210.498657 112.0
1210.644043 56.0
1210.872559 172.0
1211.045776 76.0
1211.288208 144.0
1211.50293 144.0
1211.842407 148.0
1211.977539 156.0
1212.006226 80.0
1212.018188 128.0
1212.722534 104.0
1212.90271 48.0
1213.020508 184.0
1213.15918 116.0
1213.346313 168.0
1213.408813 132.0
1213.561279 172.0
1213.783936 164.0
1213.866333 152.0
1214.233887 124.0
1214.289429 80.0
1214.428101 108.0
1214.608521 176.0
1214.80957 212.0
1215.045532 128.0
1215.121826 128.0
1215.82959 184.0
1215.899048 64.0
1216.121094 156.0
1216.218262 124.0
1216.301514 124.0
1216.74585 144.0
1216.919434 128.0
1216.968018 84.0
1217.030518 136.0
1217.450317 212.0
1217.584717 108.0
1217.73877 164.0
1217.884644 204.0
1217.955566 160.0
1218.12085 128.0
1218.377075 136.0
1218.572388 164.0
1218.704468 128.0
1218.940674 136.0
1219.01709 104.0
1219.163086 180.0
1219.34375 164.0
1219.597046 160.0
1220.010986 100.0
1220.448975 160.0
1220.894043 184.0
1221.033203 212.0
1221.318359 108.0
1221.568726 160.0
1221.860962 148.0
1222.020996 324.0
1222.081665 188.0
1222.173706 196.0
1222.27832 152.0
1222.417603 168.0
1222.570679 136.0
1222.709839 220.0
1222.786377 124.0
1222.953369 176.0
1223.429932 164.0
1223.56604 144.0
1224.457275 216.0
1224.547852 128.0
1224.869507 184.0
1224.930908 164.0
1225.536987 184.0
1225.892456 140.0
1225.996948 80.0
1226.575439 148.0
1226.631226 176.0
1226.742676 152.0
1226.92395 224.0
1227.356201 144.0
1227.746704 96.0
1228.025757 136.0
1228.109375 180.0
1228.248901 44.0
1228.346558 148.0
1228.458252 192.0
1228.50708 108.0
1228.702393 144.0
1228.885376 136.0
1228.986938 164.0
1229.009766 128.0
1229.025146 172.0
1229.239624 136.0
1229.442017 260.0
1229.592529 184.0
1229.707153 152.0
1230.063232 248.0
1230.364502 124.0
1230.440186 152.0
1230.984741 124.0
1231.089478 192.0
1231.669189 224.0
1231.786621 152.0
1231.864746 204.0
1231.969604 220.0
1232.381836 124.0
1232.647339 64.0
1232.898926 168.0
1233.262329 144.0
1233.332153 212.0
1233.611816 156.0
1233.690552 176.0
1233.772095 180.0
1233.989258 196.0
1234.234009 140.0
1234.317993 44.0
1234.800415 188.0
1235.207275 212.0
1235.290039 132.0
1235.380981 184.0
1235.490479 56.0
1235.516479 88.0
1235.9198 184.0
1236.052734 60.0
1236.101685 108.0
1236.374634 232.0
1236.430542 180.0
1237.046509 88.0
1237.144531 188.0
1237.36853 104.0
1237.627563 96.0
1237.739624 148.0
1238.587036 144.0
1238.638794 224.0
1238.887939 172.0
1239.154541 204.0
1239.308594 164.0
1239.75708 172.0
1239.932251 152.0
1240.05249 212.0
1240.205688 144.0
1240.260742 204.0
1240.376831 76.0
1240.88562 188.0
1241.095947 132.0
1241.229248 184.0
1241.530762 180.0
1242.049683 88.0
1242.105835 152.0
1242.33728 180.0
1242.610962 220.0
1242.660034 52.0
1242.877563 128.0
1242.996826 124.0
1243.446899 148.0
1243.558228 184.0
1243.874146 176.0
1244.007568 180.0
1244.344482 172.0
1244.878174 124.0
1245.306519 180.0
1245.559448 116.0
1245.608521 96.0
1245.685791 196.0
1245.938721 180.0
1246.135498 188.0
1246.486816 128.0
1246.648438 156.0
1246.936523 328.0
1247.020874 136.0
1247.175537 128.0
1247.344238 216.0
1247.604248 276.0
1247.920654 160.0
1248.012085 240.0
1248.089478 144.0
1248.187866 144.0
1248.251099 156.0
1248.328491 120.0
1248.405884 168.0
1248.455078 56.0
1248.869995 108.0
1249.200684 264.0
1249.517212 124.0
1249.805664 180.0
1250.115234 172.0
1250.185669 136.0
1250.460083 104.0
1250.558716 132.0
1250.84729 128.0
1251.055908 168.0
1251.290771 112.0
1251.431519 128.0
1251.825928 148.0
1251.966675 140.0
1252.114624 148.0
1252.269531 196.0
1252.4104 180.0
1252.473877 144.0
1252.755615 160.0
1252.910522 152.0
1253.051514 176.0
1253.36145 120.0
1253.579956 176.0
1253.678589 36.0
1253.840698 148.0
1253.99939 148.0
1254.221313 96.0
1254.307129 112.0
1254.468018 148.0
1254.658325 140.0
1254.75 192.0
1254.827515 220.0
1254.919189 132.0
1254.983643 168.0
1255.786621 124.0
1256.287354 144.0
1256.449707 240.0
1256.5625 164.0
1256.640137 188.0
1257.00708 144.0
1257.345825 140.0
1257.637695 152.0
1258.099976 208.0
1258.228149 128.0
1258.715332 160.0
1258.800049 192.0
1258.863525 160.0
1259.068359 176.0
1259.139038 124.0
1259.35083 176.0
1259.831177 176.0
1260.590942 108.0
1260.813354 88.0
1261.046021 144.0
1261.156128 128.0
1261.817139 148.0
1262.029175 184.0
1262.271484 212.0
1262.54541 104.0
1262.651489 200.0
1262.722168 116.0
1262.792969 180.0
1262.941528 148.0
1263.606445 212.0
1263.719604 228.0
1264.002686 76.0
1264.094604 164.0
1264.200806 196.0
1264.342285 192.0
1264.410156 160.0
1264.507812 168.0
1264.92981 136.0
1265.085571 208.0
1265.213013 184.0
1265.467896 116.0
1265.673218 152.0
1265.928101 192.0
1266.161743 152.0
1266.246826 180.0
1266.303467 156.0
1266.498901 180.0
1266.608032 152.0
1266.863525 164.0
1266.947998 128.0
1267.096802 168.0
1267.174683 164.0
1267.266846 172.0
1267.415649 164.0
1267.85498 224.0
1268.085327 144.0
1268.097412 180.0
1268.16687 160.0
1268.437378 160.0
1268.50708 188.0
1268.613403 184.0
1268.889893 140.0
1269.031616 144.0
1269.145142 144.0
1269.436157 160.0
1269.669922 140.0
1270.010254 120.0
1270.067017 208.0
1270.130859 164.0
1270.216064 76.0
1270.268433 220.0
1270.702271 164.0
1270.897095 80.0
1270.989258 140.0
1271.308594 172.0
1271.535767 80.0
1271.81958 216.0
1271.911865 204.0
1271.961548 120.0
1272.628906 112.0
1272.678589 128.0
1272.895142 172.0
1273.125977 136.0
1273.324829 152.0
1273.608887 92.0
1273.844971 192.0
1273.957031 152.0
1274.425903 160.0
1274.553833 52.0
1274.695923 156.0
1274.862183 132.0
1274.958862 120.0
1275.022827 168.0
1275.107422 176.0
1275.236084 176.0
1275.449219 248.0
1275.897095 148.0
1276.259766 144.0
1276.624023 156.0
1276.778809 196.0
1277.184204 148.0
1277.411865 156.0
1277.710571 348.0
1277.760376 220.0
1277.881348 96.0
1277.97876 180.0
1278.173096 128.0
1278.31543 140.0
1278.422119 108.0
1278.728149 144.0
1279.126831 100.0
1279.276245 204.0
1279.32605 164.0
1279.575317 32.0
1279.625122 80.0
1279.973999 76.0
1280.322876 164.0
1280.62207 216.0
1280.914062 152.0
1281.227539 172.0
1281.291626 132.0
1281.369019 200.0
1281.646851 172.0
1281.769043 164.0
1281.861694 144.0
1282.196655 132.0
1282.282104 216.0
1282.658447 144.0
1283.249756 388.0
1283.372803 152.0
1283.700806 256.0
1283.765015 136.0
1283.95752 72.0
1284.007446 40.0
1284.192871 124.0
1284.371216 100.0
1284.511719 148.0
1284.631958 152.0
1284.870605 276.0
1285.020386 80.0
1285.141724 136.0
1285.448486 72.0
1285.612671 136.0
1285.705444 168.0
1285.926636 228.0
1286.105103 96.0
1286.183594 236.0
1286.336792 184.0
1286.483398 228.0
1286.619019 172.0
1286.861816 248.0
1286.918945 172.0
1287.08313 152.0
1287.21167 80.0
1287.268799 164.0
1287.490112 244.0
1287.961548 200.0
1288.168701 52.0
1288.311523 176.0
1288.640137 192.0
1288.872925 188.0
1288.97522 192.0
1289.061768 132.0
1289.43335 180.0
1289.719238 156.0
1290.105225 132.0
1290.231079 220.0
1290.319214 160.0
1290.356689 176.0
1290.41272 176.0
1290.612915 172.0
1290.670044 72.0
1291.127808 160.0
1291.234497 164.0
1291.428101 196.0
1291.542603 116.0
1291.764282 84.0
1291.842773 208.0
1292.029053 208.0
1292.197754 176.0
1292.722046 116.0
1292.765991 164.0
1293.080933 156.0
1293.166748 116.0
1293.216919 164.0
1293.437988 144.0
1293.618042 180.0
1293.932739 192.0
1294.31897 156.0
1294.340088 148.0
1294.43396 108.0
1294.562866 200.0
1294.641602 192.0
1294.706055 192.0
1294.87793 160.0
1295.02832 184.0
1295.12146 168.0
1295.22168 40.0
1295.708862 132.0
1295.766113 168.0
1295.969482 176.0
1296.064453 216.0
1296.222046 168.0
1296.446899 96.0
1296.884033 252.0
1297.127808 104.0
1297.256836 156.0
1297.322876 176.0
1297.519653 300.0
1297.787354 132.0
1297.849487 184.0
1297.952271 132.0
1298.640747 164.0
1298.741089 136.0
1298.941895 144.0
1299.163208 176.0
1299.286255 120.0
1299.544922 148.0
1299.680908 140.0
1300.068359 136.0
1300.226318 20.0
1300.434448 108.0
1300.721558 204.0
1300.893799 120.0
1301.38916 140.0
1301.446655 164.0
1301.618896 420.0
1301.776855 104.0
1302.085693 216.0
1302.135986 104.0
1302.22937 148.0
1302.437622 56.0
1302.487915 128.0
1302.638794 236.0
1302.73938 236.0
1302.798096 136.0
1303.235107 188.0
1304.449585 172.0
1304.643677 132.0
1304.844971 168.0
1305.039185 148.0
1305.132568 128.0
1305.333984 164.0
1305.493408 160.0
1305.556885 96.0
1305.671997 176.0
1306.089111 164.0
1306.175415 116.0
1306.391235 292.0
1306.520752 120.0
1306.786865 172.0
1306.919067 184.0
1307.044067 188.0
1307.412964 180.0
1307.535278 144.0
1307.686401 224.0
1307.780029 132.0
1307.859131 160.0
1308.03186 92.0
1308.139893 144.0
1308.316895 224.0
1308.643799 188.0
1308.931885 164.0
1309.327881 164.0
1309.3927 140.0
1309.628296 180.0
1309.738403 180.0
1309.968994 144.0
1310.05249 240.0
1310.203735 280.0
1310.732666 160.0
1311.04248 124.0
1311.107422 168.0
1311.352417 136.0
1311.460571 172.0
1311.510986 64.0
1311.620972 188.0
1311.782837 168.0
1311.957886 188.0
1312.239014 56.0
1312.303955 184.0
1312.592407 156.0
1312.830322 232.0
1313.190918 248.0
1313.342407 68.0
1313.486694 172.0
1313.820801 212.0
1314.438965 176.0
1314.669922 136.0
1314.763672 196.0
1314.850342 144.0
1315.073608 188.0
1315.343994 192.0
1315.420532 128.0
1315.528809 120.0
1315.716553 112.0
1315.774292 156.0
1315.839233 132.0
1315.93042 192.0
1315.998047 176.0
1316.156982 140.0
1316.322998 140.0
1316.395264 172.0
1316.525269 164.0
1316.87915 116.0
1316.929688 160.0
1317.010376 160.0
1317.095825 148.0
1317.259033 204.0
1317.464233 32.0
1317.558105 168.0
1317.621948 208.0
1317.861572 132.0
1318.032837 204.0
1318.230103 228.0
1318.439575 140.0
1318.519165 204.0
1318.605835 72.0
1318.837158 156.0
1318.901489 128.0
1318.974487 400.0
1319.104614 140.0
1319.198608 200.0
1319.437134 196.0
1319.494995 104.0
1319.818726 164.0
1320.102295 152.0
1320.513306 184.0
1320.782104 144.0
1320.991943 148.0
1321.433228 76.0
1321.606934 124.0
1321.82251 236.0
1321.968628 144.0
1322.108276 136.0
1322.359497 148.0
1322.670776 136.0
1322.849487 108.0
1322.878418 76.0
1323.170166 152.0
1323.525024 124.0
1323.648071 176.0
1324.213623 128.0
1324.350586 112.0
1324.444702 128.0
1324.727295 160.0
1325.428955 232.0
1325.538696 76.0
1325.763306 196.0
1325.821289 220.0
1325.937256 228.0
1326.335938 124.0
1326.430176 180.0
1326.915894 200.0
1327.642822 60.0
1327.793213 132.0
1327.873047 116.0
1328.010864 124.0
1328.15686 200.0
1328.242798 212.0
1328.431519 176.0
1328.511353 284.0
1328.585571 184.0
1328.657837 168.0
1329.178833 240.0
1329.376953 196.0
1329.490845 140.0
1329.563477 52.0
1329.846436 140.0
1330.075195 156.0
1330.165894 104.0
1330.25293 124.0
1330.499756 172.0
1330.652222 84.0
1330.884521 192.0
1330.949951 64.0
1331.189575 164.0
1331.305786 180.0
1331.728027 204.0
1331.959351 120.0
1332.082886 152.0
1332.220947 152.0
1332.300781 64.0
1332.482422 172.0
1332.533325 112.0
1332.772217 168.0
1333.034668 176.0
1333.100098 196.0
1333.332642 156.0
1333.594238 152.0
1333.674805 200.0
1334.008545 28.0
1334.073975 120.0
1334.168457 132.0
1334.28479 124.0
1334.49646 188.0
1334.9646 124.0
1335.019165 152.0
1335.11377 140.0
1335.719849 188.0
1335.797485 104.0
1335.996948 172.0
1336.612305 296.0
1336.808716 108.0
1337.230835 164.0
1337.376465 56.0
1337.631226 132.0
1337.762207 76.0
1337.856812 172.0
1338.002441 116.0
1338.148071 208.0
1338.359253 160.0
1338.410156 148.0
1338.585449 160.0
1338.679565 144.0
1338.876221 256.0
1338.992798 132.0
1339.189453 108.0
1339.342407 172.0
1339.903076 136.0
1340.012573 92.0
1340.311279 152.0
1340.566406 124.0
1340.930786 228.0
1341.137695 164.0
1341.265991 76.0
1341.389893 64.0
1341.531738 216.0
1341.64502 212.0
1341.761719 32.0
1341.994995 184.0
1342.29895 192.0
1342.490845 128.0
1342.585693 80.0
1342.695068 160.0
1342.767944 128.0
1343.008667 184.0
1343.212891 176.0
1343.409912 76.0
1343.460938 148.0
1343.66333 188.0
1343.747192 184.0
1343.891357 148.0
1344.124878 172.0
1344.438721 80.0
1344.630493 128.0
1344.913086 176.0
1345.278076 176.0
1345.570068 108.0
1345.650391 128.0
1345.957031 180.0
1346.117676 72.0
1346.205322 112.0
1346.25647 200.0
1346.357056 244.0
1346.774902 100.0
1346.869873 120.0
1347.220581 68.0
1347.527344 180.0
1347.658936 124.0
1347.766602 136.0
1348.048706 192.0
1348.258057 156.0
1348.418823 384.0
1348.55127 172.0
1349.05481 180.0
1349.135254 156.0
1349.288696 164.0
1349.361816 124.0
1349.668945 152.0
1350.172607 188.0
1350.488037 176.0
1350.621704 160.0
1350.742432 152.0
1350.85376 148.0
1351.279663 108.0
1351.526855 52.0
1351.68042 112.0
1352.039062 120.0
1352.156128 236.0
1352.448853 100.0
1352.646484 152.0
1353.202881 48.0
1353.258545 212.0
1353.393311 188.0
1353.525024 188.0
1353.805542 188.0
1354.023071 52.0
1354.286743 68.0
1354.345337 216.0
1354.440552 260.0
1354.577148 212.0
1354.982666 192.0
1355.334351 160.0
1355.451538 416.0
1355.550171 164.0
1355.686035 148.0
1355.773926 64.0
1355.861938 152.0
1355.913208 184.0
1355.979126 132.0
1356.155029 184.0
1356.20874 112.0
1356.323608 152.0
1356.624146 160.0
1357.044067 160.0
1357.137451 168.0
1357.430664 172.0
1358.068726 128.0
1358.325439 140.0
1358.428223 200.0
1358.692261 108.0
1358.772949 108.0
1358.875854 152.0
1359.022461 188.0
1359.359985 136.0
1359.528687 156.0
1359.800293 184.0
1359.938965 148.0
1359.998413 40.0
1360.049805 52.0
1360.207397 172.0
1360.313843 140.0
1360.447998 192.0
1360.563721 104.0
1360.780151 240.0
1360.849976 44.0
1360.93811 88.0
1361.011475 28.0
1361.202393 148.0
1361.879272 168.0
1361.96106 220.0
1362.059692 184.0
1362.208618 204.0
1362.443726 112.0
1362.575928 192.0
1362.789062 160.0
1362.972656 132.0
1363.031494 160.0
1363.10498 104.0
1363.215332 192.0
1363.301758 108.0
1363.674194 184.0
1363.869263 176.0
1363.994263 148.0
1364.244141 200.0
1364.699951 200.0
1364.780884 116.0
1364.963135 200.0
1365.214478 124.0
1365.543091 200.0
1365.648682 112.0
1365.826538 228.0
1365.906128 120.0
1366.376953 124.0
1366.59021 128.0
1366.781616 160.0
1366.877197 164.0
1367.318726 216.0
1367.421753 200.0
1367.841309 136.0
1368.037476 160.0
1368.209473 172.0
1368.361084 200.0
1368.479248 140.0
1368.571045 144.0
1369.019409 168.0
1369.445435 168.0
1369.615967 108.0
1369.755859 164.0
1369.917969 164.0
1370.109497 196.0
1370.197876 32.0
1370.669434 116.0
1370.779907 156.0
1370.897827 200.0
1371.074707 116.0
1371.166992 196.0
1371.2052 120.0
1371.223999 160.0
1371.414795 144.0
1371.649658 196.0
1371.929688 132.0
1372.497437 172.0
1372.622803 192.0
1373.195679 176.0
1373.456177 84.0
1373.633179 176.0
1373.758667 216.0
1374.112671 152.0
1374.284668 156.0
1375.040771 140.0
1375.559204 188.0
1375.78064 120.0
1375.876587 188.0
1375.950439 232.0
1376.054321 272.0
1376.230957 92.0
1376.282715 220.0
1376.421753 164.0
1376.541138 156.0
1376.666626 136.0
1376.718384 140.0
1376.773682 96.0
1376.873413 172.0
1376.976807 152.0
1377.050659 60.0
1377.316528 172.0
1377.37561 176.0
1377.464355 136.0
1377.656372 176.0
1377.730225 152.0
1377.787598 200.0
1377.973999 136.0
1378.033203 160.0
1378.158813 320.0
1378.284424 40.0
1378.434692 212.0
1378.565186 112.0
1378.661255 60.0
1378.749878 132.0
1378.801636 160.0
1379.054932 144.0
1379.149048 184.0
1379.2229 160.0
1379.459473 196.0
1379.51123 116.0
1379.744019 140.0
1380.590698 108.0
1381.126465 120.0
1381.20459 116.0
1381.278564 228.0
1381.419067 48.0
1381.530029 100.0
1381.733398 208.0
1381.828125 220.0
1382.029175 400.0
1382.196533 216.0
1382.275635 264.0
1382.551147 120.0
1382.696655 228.0
1382.884155 64.0
1383.154663 160.0
1383.313477 216.0
1383.424561 32.0
1383.772461 136.0
1383.824341 56.0
1383.987183 192.0
1384.112061 148.0
1384.201904 140.0
1384.927734 184.0
1385.075806 168.0
1385.135132 176.0
1385.298096 168.0
1385.52771 160.0
1385.705566 176.0
1385.86853 152.0
1386.068604 180.0
1386.179688 200.0
1386.387207 112.0
1386.528076 136.0
1386.68103 280.0
1386.928223 128.0
1387.098755 168.0
1387.35083 128.0
1387.513916 180.0
1387.643066 236.0
1387.721436 148.0
1387.847534 276.0
1388.129272 176.0
1388.489014 236.0
1388.628174 168.0
1388.759644 76.0
1389.093506 136.0
1389.203613 160.0
1389.828003 124.0
1390.144531 176.0
1390.206421 176.0
1390.369629 192.0
1390.718506 124.0
1391.009399 188.0
1391.163818 100.0
1391.445923 120.0
1391.544189 324.0
1391.817139 140.0
1392.500366 204.0
1392.671265 144.0
1392.849487 48.0
1392.931152 80.0
1393.844971 116.0
1393.919312 160.0
1394.082764 152.0
1394.20166 96.0
1395.153076 108.0
1395.212646 132.0
1395.361328 172.0
1395.852051 204.0
1395.939087 176.0
1396.008179 164.0
1396.151611 220.0
1396.246094 140.0
1396.469238 172.0
1396.603149 156.0
1396.960205 60.0
1397.228027 144.0
1397.458618 216.0
1397.536011 112.0
1398.247437 356.0
1398.329346 148.0
1398.470703 152.0
1398.522827 192.0
1398.747803 160.0
1398.880127 124.0
1399.123657 304.0
1399.192749 176.0
1399.334229 140.0
1399.475708 140.0
1399.699097 176.0
1399.907593 128.0
1400.011841 184.0
1400.063965 128.0
1400.123535 212.0
1400.2948 100.0
1400.451172 136.0
1400.533203 196.0
1400.65979 220.0
1401.271973 228.0
1401.505737 172.0
1401.760376 184.0
1401.845337 144.0
1402.366089 216.0
1402.44397 152.0
1402.649292 180.0
1402.985718 152.0
1403.659302 152.0
1403.745239 192.0
1403.849731 48.0
1404.150635 172.0
1404.546753 220.0
1404.905884 192.0
1405.087891 160.0
1405.341553 136.0
1405.416138 60.0
1405.494507 168.0
1405.602661 172.0
1405.662354 164.0
1405.833984 100.0
1405.88623 200.0
1406.028687 144.0
1406.130249 168.0
1406.289307 132.0
1406.371338 116.0
1406.446045 180.0
1406.495605 144.0
1406.682251 176.0
1406.739746 180.0
1406.811768 172.0
1406.908813 196.0
1407.264648 168.0
1407.341797 132.0
1407.394043 152.0
1407.640503 172.0
1407.72583 176.0
1407.946655 96.0
1408.033447 220.0
1408.297729 136.0
1408.469482 168.0
1408.596436 80.0
1408.887817 124.0
1408.969971 200.0
1409.0896 120.0
1409.395874 112.0
1409.724609 76.0
1410.180542 164.0
1410.27124 156.0
1410.890625 124.0
1411.047607 140.0
1411.355835 164.0
1411.503784 180.0
1411.57019 244.0
1411.668213 52.0
1411.84021 220.0
1411.938477 216.0
1412.034668 112.0
1412.364258 192.0
1412.489868 160.0
1412.947998 164.0
1413.216675 200.0
1413.321411 92.0
1413.499023 368.0
1413.575806 144.0
1413.755371 212.0
1413.926636 212.0
1414.084717 188.0
1414.264282 212.0
1414.330811 172.0
1414.384033 180.0
1414.451416 128.0
1414.650269 216.0
1414.731079 212.0
1414.911865 172.0
1414.975464 56.0
1415.080322 160.0
1415.162598 216.0
1415.222534 152.0
1416.016357 104.0
1416.219482 168.0
1416.419678 160.0
1416.492676 208.0
1416.58252 132.0
1417.207397 192.0
1417.355591 212.0
1417.377441 92.0
1417.797607 192.0
1418.061646 196.0
1418.358154 160.0
1418.421509 144.0
1418.573975 196.0
1418.721313 224.0
1418.938721 132.0
1419.109985 124.0
1419.253662 168.0
1419.38855 88.0
1419.448608 104.0
1419.52356 128.0
1419.606079 228.0
1419.748535 164.0
1419.808594 316.0
1420.026001 80.0
1420.116089 52.0
1420.24353 188.0
1420.350098 136.0
1420.403931 84.0
1420.521118 152.0
1420.731079 156.0
1420.963745 352.0
1421.181274 140.0
1421.421387 164.0
1421.49646 152.0
1421.87915 100.0
1421.991699 196.0
1422.216919 44.0
1422.487183 200.0
1422.562134 320.0
1422.71228 84.0
1423.019409 132.0
1423.658447 408.0
1423.891235 196.0
1423.981323 176.0
1424.236694 184.0
1424.289307 180.0
1424.588867 260.0
1424.636353 152.0
1424.875244 184.0
1424.998535 216.0
1425.100586 156.0
1425.281006 204.0
1425.371094 208.0
1426.081787 184.0
1426.205322 148.0
1426.283813 144.0
1426.548706 212.0
1426.645752 108.0
1426.701416 188.0
1426.853027 200.0
1426.919434 260.0
1427.438232 200.0
1427.859375 140.0
1427.920532 216.0
1428.232788 36.0
1428.288086 264.0
1428.348267 88.0
1428.724365 56.0
1428.987671 148.0
1429.071411 348.0
1429.401611 160.0
1429.461792 184.0
1429.800415 180.0
1429.950928 176.0
1430.809082 216.0
1430.959595 128.0
1431.546997 196.0
1431.644897 108.0
1431.976196 164.0
1432.066528 180.0
1432.556152 224.0
1432.729492 180.0
1432.827393 108.0
1432.955444 188.0
1433.332031 168.0
1433.48291 100.0
1433.665771 184.0
1433.736572 168.0
1433.843628 144.0
1433.980347 116.0
1434.13855 128.0
1434.319458 128.0
1434.485352 172.0
1434.538086 72.0
1434.59082 88.0
1434.711426 212.0
1434.884888 168.0
1434.94519 448.0
1435.276978 180.0
1435.382446 112.0
1435.789673 144.0
1436.20459 136.0
1436.400635 180.0
1436.64209 168.0
1436.7854 140.0
1437.019287 124.0
1437.177734 184.0
1437.400391 136.0
1437.464478 168.0
1437.615112 152.0
1437.811523 132.0
1438.361328 224.0
1438.47998 168.0
1438.656982 148.0
1438.724854 140.0
1438.800415 160.0
1438.892212 152.0
1439.067871 204.0
1439.215698 112.0
1439.43457 40.0
1439.510132 204.0
1439.67627 96.0
1439.902832 108.0
1440.023682 172.0
1440.091675 168.0
1440.253418 124.0
1440.378662 184.0
1440.446655 168.0
1440.697266 200.0
1440.756348 172.0
1440.816772 144.0
1440.945312 144.0
1441.34314 188.0
1441.524292 148.0
1441.579224 196.0
1441.647949 84.0
1442.010742 144.0
1442.121948 184.0
1442.381104 96.0
1442.796875 228.0
1442.972168 184.0
1443.06897 160.0
1443.152222 136.0
1443.469727 128.0
1443.846191 148.0
1443.968872 92.0
1444.052124 112.0
1444.224731 164.0
1444.250854 228.0
1444.422729 204.0
1444.664795 72.0
1444.77063 168.0
1444.911865 216.0
1444.923462 144.0
1445.327637 200.0
1445.49707 244.0
1445.754272 132.0
1446.064575 132.0
1446.139404 168.0
1446.329468 152.0
1446.473389 220.0
1446.602051 144.0
1446.662598 88.0
1446.742065 168.0
1446.814941 196.0
1446.904785 208.0
1447.291016 172.0
1447.511108 188.0
1447.775757 216.0
1447.866455 120.0
1448.101929 144.0
1448.267944 176.0
1448.320923 248.0
1448.601196 152.0
1448.692139 132.0
1448.851196 180.0
1448.995117 252.0
1449.063354 208.0
1449.222412 120.0
1449.408447 80.0
1449.677002 160.0
1449.752808 144.0
1449.904419 288.0
1450.010498 136.0
1450.094971 116.0
1450.154541 180.0
1450.230347 108.0
1450.499634 152.0
1450.601685 196.0
1451.102051 156.0
1451.268921 136.0
1451.428101 180.0
1451.527222 164.0
1451.605347 168.0
1451.981689 152.0
1452.080322 136.0
1452.383667 192.0
1452.442749 132.0
1452.529663 232.0
1452.80127 144.0
1452.952637 192.0
1453.384277 152.0
1453.567139 176.0
1453.655884 180.0
1453.817627 204.0
1454.03772 212.0
1454.192139 228.0
1454.257812 132.0
1454.430786 232.0
1454.576538 176.0
1454.728394 132.0
1454.81189 440.0
1454.93335 116.0
1455.282227 184.0
1455.369751 204.0
1455.540771 200.0
1455.6698 128.0
1455.791382 136.0
1455.905273 36.0
1456.102661 176.0
1456.163452 148.0
1456.520264 148.0
1456.710327 164.0
1456.839478 148.0
1457.067383 300.0
1457.120605 120.0
1457.280151 80.0
1457.774048 136.0
1458.009644 132.0
1458.154053 112.0
1458.37439 120.0
1458.449585 156.0
1458.509155 164.0
1458.625244 88.0
1458.807739 148.0
1458.86853 192.0
1458.94458 184.0
1459.035767 140.0
1459.210571 192.0
1459.32373 164.0
1459.345215 144.0
1459.537598 156.0
1459.750488 112.0
1459.968018 196.0
1460.145874 104.0
1460.206787 80.0
1460.389282 136.0
1460.454224 256.0
1460.563599 176.0
1460.763794 224.0
1460.822876 128.0
1460.891357 96.0
1461.058716 128.0
1461.431519 148.0
1461.507568 140.0
1462.496338 148.0
1462.679565 84.0
1462.748047 112.0
1462.953857 252.0
1463.209106 76.0
1463.509399 132.0
1463.585571 132.0
1463.682373 180.0
1463.896973 120.0
1463.981567 220.0
1464.215698 172.0
1464.309937 152.0
1464.468994 76.0
1464.584839 204.0
1464.710449 136.0
1464.880249 176.0
1464.986938 192.0
1465.357544 136.0
1465.393555 108.0
1465.438477 240.0
1465.771606 112.0
1465.878296 140.0
1465.962158 204.0
1466.4104 168.0
1466.510864 184.0
1466.737305 120.0
1466.815796 148.0
1467.08252 164.0
1467.143555 208.0
1467.212158 92.0
1467.364624 120.0
1467.730591 92.0
1467.977905 192.0
1468.115234 256.0
1468.226685 160.0
1468.378784 164.0
1468.432251 168.0
1468.714478 176.0
1468.836426 160.0
1468.927979 180.0
1469.019531 176.0
1469.072998 184.0
1469.483765 240.0
1469.6604 152.0
1469.874023 132.0
1469.934326 144.0
1470.179321 176.0
1470.263184 140.0
1470.469238 160.0
1470.682983 136.0
1470.911987 88.0
1471.286011 112.0
1471.481812 136.0
1471.560913 212.0
1471.621948 64.0
1471.759399 168.0
1471.809937 144.0
1471.88916 88.0
1472.125977 104.0
1472.278687 152.0
1472.35498 132.0
1472.446655 44.0
1472.725952 132.0
1472.98938 164.0
1473.416748 236.0
1473.518921 364.0
1473.914185 152.0
1473.989868 132.0
1474.13501 96.0
1474.242798 196.0
1474.310791 176.0
1474.471191 176.0
1474.593506 260.0
1474.71582 64.0
1474.854614 148.0
1475.205078 136.0
1475.273804 132.0
1475.449707 184.0
1475.717285 156.0
1475.801392 120.0
1475.893066 112.0
1476.030762 244.0
1476.114868 196.0
1476.168335 128.0
1476.657837 108.0
1476.749634 180.0
1476.82605 208.0
1476.993652 140.0
1477.011597 128.0
1477.03479 152.0
1477.468628 44.0
1477.774658 120.0
1477.920044 52.0
1478.00415 224.0
1478.103882 160.0
1478.266113 172.0
1478.383911 148.0
1478.73291 140.0
1478.800049 116.0
1478.907227 52.0
1479.006714 104.0
1479.083252 184.0
1479.312866 160.0
1479.458374 120.0
1479.581543 184.0
1479.948364 208.0
1480.040283 204.0
1480.277588 160.0
1480.346558 164.0
1480.545654 208.0
1480.614624 112.0
1480.706421 160.0
1480.982178 80.0
1481.150757 180.0
1481.587402 72.0
1481.90918 128.0
1482.031738 144.0
1482.187012 176.0
1482.391846 176.0
1482.583496 176.0
1482.951294 152.0
1483.027954 60.0
1483.541504 148.0
1483.648804 108.0
1483.848511 160.0
1484.039917 180.0
1484.254517 156.0
1484.354248 156.0
1484.661011 200.0
1484.802246 344.0
1484.929443 136.0
1485.058472 164.0
1485.263916 260.0
1485.412598 160.0
1485.463989 176.0
1485.60437 164.0
1485.742432 236.0
1486.034058 136.0
1486.181885 204.0
1486.357666 152.0
1486.670898 172.0
1486.77832 132.0
1486.839233 128.0
1486.859741 120.0
1486.888794 200.0
1486.954834 124.0
1487.131348 140.0
1487.515137 200.0
1487.750732 192.0
1487.945068 132.0
1488.252197 176.0
1488.418579 144.0
1488.567017 172.0
1489.22168 148.0
1489.350342 232.0
1489.596191 140.0
1489.719116 128.0
1489.942017 176.0
1490.149292 132.0
1490.29834 108.0
1490.321411 128.0
1490.342896 160.0
1490.407471 204.0
1490.675293 164.0
1491.248169 120.0
1491.397339 168.0
1491.570923 152.0
1491.70166 52.0
1491.863037 268.0
1492.178345 236.0
1492.278198 148.0
1492.362793 188.0
1492.508911 164.0
1492.608887 208.0
1492.716553 124.0
1492.901123 56.0
1493.03186 212.0
1493.108765 44.0
1493.401001 192.0
1493.57019 152.0
1493.686523 136.0
1493.992676 188.0
1494.131714 116.0
1494.412109 152.0
1494.680786 188.0
1494.778076 136.0
1494.893433 140.0
1495.089844 140.0
1495.301392 152.0
1495.455322 168.0
1495.688965 168.0
1495.743286 136.0
1495.848389 188.0
1496.055664 92.0
1496.371338 48.0
1496.471436 136.0
1496.602295 168.0
1496.706665 152.0
1496.833374 148.0
1496.979614 128.0
1497.319458 148.0
1497.372437 236.0
1497.810669 176.0
1498.073364 68.0
1498.134888 120.0
1498.227417 160.0
1498.304443 104.0
1498.443115 164.0
1498.504761 164.0
1499.107422 204.0
1499.209106 216.0
1499.375488 168.0
1499.451294 168.0
1499.575806 124.0
1499.72168 116.0
1499.8302 188.0
1500.068359 176.0
1500.130859 216.0
1500.457886 188.0
1500.5625 128.0
1500.770752 216.0
1500.971191 128.0
1501.040649 200.0
1501.094604 176.0
1501.241089 160.0
1501.410767 112.0
1501.627441 172.0
1501.726929 44.0
1501.931885 216.0
1502.058105 64.0
1502.343994 292.0
1502.502075 184.0
1502.621826 168.0
1502.776123 180.0
1502.868652 216.0
1502.953613 124.0
1503.138794 148.0
1503.192749 128.0
1503.339355 116.0
1503.482788 164.0
1503.679443 264.0
1503.97998 188.0
1504.157104 160.0
1504.265503 108.0
