>compound NCGC00160304-01!4-(4-Methyl-pent-3-enyl)-cyclohex-4-ene-1,2-dicarboxylic acid
>formula C14H20O4
>ionization [M+H]+
>parentmass 253.144
#inchi InChI=1S/C14H20O4/c1-9(2)4-3-5-10-6-7-11(13(15)16)12(8-10)14(17)18/h4,6,11-12H,3,5,7-8H2,1-2H3,(H,15,16)(H,17,18)/t11-,12+/m0/s1
#inchikey IOFGDWLJZRGXRM
#Ion_Source LC-ESI
#Instrument qTOF
#Compound_Source Prestwick Phytochem Lib
#PI Dorrestein
#Data_Collector VVP/LMS
#Scan -1
#Precursor_MZ 253.144
#ExactMass 252.136
#Charge 1
#CAS_Number N/A
#Pubmed_ID N/A
#Smiles C\C(C)=C\CCC1=CC[C@@H]([C@@H](C1)C(O)=O)C(O)=O
#INCHI_AUX N/A
#Library_Class 1
#SpectrumID CCMSLIB00000078730
#IonMode Positive
#UpdateWorkflowName UPDATE-SINGLE-ANNOTATED-GOLD
#LibraryQualityString Gold
#TaskID 67c915c6594c435cadc1fe2b5358144d
##Scan# 2116
#SpectrumFile p1-H02_GH2_01_17958.mzXML
#LibraryName phytochem_lib.mgf
#MQScore -1
#Organism phytochem_lib
#TIC_Query 0
#RT_Query -1
#MZErrorPPM -1
#SharedPeaks 0
#MassDiff 0
#LibMZ -1
#SpecMZ 253.144
#SpecCharge 0
#internalFilename spec-00000.mgf

>collision 10
95.078827 148.0
96.089256 124.0
96.126328 148.0
96.718506 228.0
97.063759 420.0
97.672134 216.0
98.1231 148.0
98.559296 140.0
101.465263 76.0
102.355354 228.0
102.375488 196.0
102.389587 120.0
102.861397 204.0
103.053535 144.0
103.073456 144.0
103.87925 148.0
104.059875 132.0
104.206108 120.0
105.069786 2456.0
105.134644 48.0
105.443024 68.0
106.072945 648.0
106.329254 156.0
106.49408 64.0
106.837364 164.0
106.956718 52.0
107.047684 176.0
107.085884 540.0
107.346107 40.0
108.050446 160.0
108.087685 172.0
109.065872 292.0
109.366096 56.0
110.06424 204.0
110.524345 168.0
111.044853 224.0
111.082642 232.0
112.048668 160.0
112.202515 108.0
112.808403 160.0
112.854912 160.0
113.64283 88.0
114.3377 168.0
114.580452 96.0
115.045364 148.0
115.06031 132.0
115.566841 172.0
117.03714 96.0
117.069847 332.0
117.72934 180.0
118.06813 172.0
119.050354 200.0
119.084946 3176.0
119.452446 52.0
119.482903 48.0
119.65184 128.0
119.72451 76.0
120.053581 188.0
120.084114 140.0
120.763374 36.0
121.034744 160.0
121.083885 200.0
121.101196 560.0
123.076286 184.0
124.64576 132.0
125.058998 604.0
126.057358 176.0
126.300003 204.0
126.82843 96.0
128.064224 176.0
128.082245 180.0
129.066544 324.0
130.074402 308.0
130.326492 192.0
131.085007 456.0
132.052185 164.0
132.092239 156.0
132.285583 64.0
132.450455 60.0
132.959442 80.0
133.063538 368.0
133.100632 2048.0
133.223511 44.0
133.267151 40.0
134.107117 96.0
134.520004 36.0
135.123184 128.0
135.971283 180.0
137.058304 828.0
137.094559 180.0
137.458344 48.0
137.509689 184.0
138.077423 136.0
139.074051 280.0
141.065964 180.0
141.586502 176.0
143.085159 360.0
143.117294 152.0
144.088898 132.0
145.072495 152.0
145.099335 684.0
146.105316 356.0
146.129211 164.0
147.078094 240.0
147.114822 440.0
148.637283 84.0
149.091385 188.0
150.328506 164.0
150.428574 56.0
151.074402 692.0
151.433548 192.0
151.950775 80.0
152.075928 148.0
152.387802 60.0
153.007584 52.0
153.157791 80.0
153.280975 108.0
153.436264 116.0
155.620926 68.0
155.638306 132.0
156.093842 208.0
157.089279 180.0
159.076981 132.0
159.115372 604.0
160.114639 156.0
160.795349 216.0
161.057938 96.0
161.097519 284.0
161.1315 6160.0
161.272705 52.0
161.368774 72.0
161.391525 64.0
162.135437 660.0
162.163635 72.0
162.945221 40.0
163.135818 148.0
163.390137 40.0
163.457306 80.0
164.404251 52.0
165.047989 88.0
165.088028 192.0
165.110611 220.0
165.521362 72.0
166.187805 100.0
167.063889 164.0
167.316101 168.0
169.10498 188.0
171.118408 524.0
172.118011 248.0
173.137878 196.0
177.907867 72.0
179.144455 172.0
180.166199 32.0
188.917694 124.0
189.126862 944.0
190.132339 40.0
190.331909 56.0
191.627411 88.0
192.416199 84.0
199.096481 60.0
203.087311 164.0
204.078415 240.0
207.135498 916.0
208.140762 152.0
209.150696 172.0
214.579605 76.0
217.129578 228.0
217.384705 52.0
217.466873 76.0
220.033783 68.0
221.124542 168.0
224.126877 132.0
226.78064 84.0
235.128525 168.0
235.156006 212.0
244.927597 180.0
260.142487 48.0
273.023224 136.0
286.96991 52.0
297.009277 184.0
307.127045 120.0
310.986389 72.0
568.194458 72.0
726.05481 128.0
779.685425 60.0
828.56781 44.0
904.216858 156.0
940.330322 144.0
948.680603 140.0
949.458435 204.0
974.005249 176.0
985.380676 252.0
995.615906 96.0
1005.424377 208.0
1025.950439 228.0
1030.769165 192.0
1031.22937 212.0
1045.949951 248.0
1053.507568 140.0
1064.063843 96.0
1065.141846 176.0
1078.38855 244.0
1078.77417 128.0
1102.297485 152.0
1111.043945 292.0
1117.741211 172.0
1138.679199 152.0
1141.00415 132.0
1143.129639 112.0
1154.685913 40.0
1159.757202 176.0
1160.997925 64.0
1171.240356 140.0
1176.58667 196.0
1193.950073 88.0
1201.113159 140.0
1212.036499 156.0
1224.248535 144.0
1231.487793 196.0
1236.78772 144.0
1239.526001 168.0
1244.85022 108.0
1249.243042 220.0
1249.468262 252.0
1283.202148 172.0
1298.225342 156.0
1302.718384 100.0
1312.888672 196.0
1322.859619 100.0
1325.901733 208.0
1344.986938 156.0
1346.724731 160.0
1347.718262 104.0
1351.615601 208.0
1354.478149 204.0
1357.314331 204.0
1373.368774 184.0
1383.751465 172.0
1389.17627 184.0
1393.207275 56.0
1398.613403 148.0
1407.970459 116.0
1418.557861 244.0
1424.253296 188.0
1430.795532 212.0
1431.262329 148.0
1439.104004 124.0
1442.02002 144.0
1448.587769 172.0
1470.883423 232.0
1471.119995 60.0
1478.128662 124.0
1493.480103 196.0
