>compound MLS001142727-01!
>formula C29H33N5O3
>ionization [M+H]+
>parentmass 500.266
#inchi InChI=1S/C29H33N5O3/c1-19(26(35)30-21-12-15-32(16-13-21)18-20-8-4-3-5-9-20)34-27(36)29(2)25-23(14-17-33(29)28(34)37)22-10-6-7-11-24(22)31-25/h3-11,19,21,31H,12-18H2,1-2H3,(H,30,35)/t19-,29-/m0/s1
#inchikey OYWCMRLTNOLTBE
#Ion_Source LC-ESI
#Instrument qTof
#Compound_Source NIH Natural Product Library
#PI Dorrestein
#Data_Collector VVP/LMS
#Scan -1
#Precursor_MZ 500.266
#ExactMass 499.258
#Charge 1
#CAS_Number N/A
#Pubmed_ID N/A
#Smiles C[C@H](N1C(=O)N2CCc3c([nH]c4ccccc34)[C@@]2(C)C1=O)C(=O)NC5CCN(Cc6ccccc6)CC5
#INCHI_AUX N/A
#Library_Class 1
#SpectrumID CCMSLIB00000079715
#IonMode Positive
#UpdateWorkflowName UPDATE-SINGLE-ANNOTATED-GOLD
#LibraryQualityString Gold
#TaskID b1d8e8f6646f4e71acdff9ca3d919d08
##Scan# 1839
#SpectrumFile p1-B10_GB10_01_17894.mzXML
#LibraryName NIH_Natural_Products_Library.mgf
#MQScore -1
#Organism NIH_Natural_Products_Library
#TIC_Query 0
#RT_Query -1
#MZErrorPPM -1
#SharedPeaks 0
#MassDiff 0
#LibMZ -1
#SpecMZ 500.266
#SpecCharge 0
#internalFilename spec-00000.mgf

>collision 10
94.944725 180.0
95.028122 184.0
95.14843 156.0
95.233864 176.0
95.457321 124.0
95.64212 124.0
96.043449 124.0
96.172211 180.0
96.204872 168.0
96.355743 136.0
96.388954 204.0
96.445618 184.0
96.474937 104.0
96.541405 176.0
96.558998 96.0
96.672455 128.0
96.713547 204.0
96.810921 140.0
96.860374 120.0
97.205383 84.0
97.411499 168.0
97.499908 176.0
97.513664 88.0
97.539207 132.0
97.560829 96.0
97.788971 140.0
98.00753 60.0
98.163223 176.0
98.200691 48.0
98.248024 60.0
98.405884 192.0
98.431549 148.0
98.563881 176.0
98.579681 180.0
98.59549 172.0
98.805054 60.0
98.93763 168.0
98.967323 156.0
98.999001 176.0
99.065628 112.0
99.177284 160.0
99.290276 64.0
99.358757 76.0
99.377548 236.0
99.421196 92.0
99.852242 204.0
99.899971 36.0
99.949699 76.0
99.989494 112.0
100.150742 124.0
100.216476 88.0
100.292191 144.0
100.387871 104.0
100.429749 200.0
100.529488 172.0
100.569397 84.0
100.601326 160.0
100.753082 140.0
100.779144 176.0
100.848984 44.0
100.980919 136.0
101.081406 424.0
101.289116 204.0
101.305138 204.0
101.425354 164.0
101.445396 100.0
101.495506 100.0
101.575722 160.0
101.738235 180.0
101.945091 112.0
101.973221 160.0
102.109917 160.0
102.128014 132.0
102.156174 88.0
102.260788 144.0
102.301041 148.0
102.366196 196.0
102.383575 140.0
102.407745 148.0
102.609222 132.0
102.633415 156.0
102.724159 104.0
102.752396 124.0
102.766518 108.0
102.952194 212.0
102.966331 164.0
103.032982 184.0
103.117836 196.0
103.226982 188.0
103.490456 176.0
103.682404 172.0
103.71888 184.0
103.799965 104.0
103.903389 148.0
104.067764 164.0
104.098213 156.0
104.258675 100.0
104.285095 184.0
104.553513 100.0
104.698036 168.0
104.824318 156.0
104.875259 176.0
104.932335 148.0
105.042046 324.0
105.142403 220.0
105.156685 184.0
105.289368 176.0
105.559082 100.0
105.579529 96.0
105.716568 156.0
105.853706 136.0
105.874176 152.0
105.992973 124.0
106.038834 348.0
106.15992 132.0
106.219658 204.0
106.479088 148.0
106.520164 84.0
106.539291 280.0
106.709641 168.0
106.764709 72.0
106.785271 172.0
106.836693 144.0
106.960136 144.0
107.087776 108.0
107.306175 188.0
107.334755 144.0
107.400139 168.0
107.448463 104.0
107.535118 140.0
107.555756 60.0
107.621811 76.0
107.987526 136.0
108.006134 148.0
108.130264 116.0
108.256523 180.0
108.627472 140.0
108.652359 152.0
108.681404 244.0
109.107109 76.0
109.256821 132.0
109.369171 112.0
109.460762 124.0
109.681564 80.0
109.983971 152.0
110.048676 100.0
110.082085 96.0
110.18441 124.0
110.211571 164.0
110.273399 156.0
110.680031 88.0
111.176765 348.0
111.304802 140.0
111.365692 104.0
111.428703 112.0
111.45269 172.0
111.880753 180.0
111.91983 236.0
111.945892 152.0
111.993553 124.0
112.053467 60.0
112.137741 124.0
112.348572 228.0
112.392876 124.0
112.561714 112.0
112.629288 144.0
112.673645 128.0
112.873756 104.0
113.001289 140.0
113.090157 28.0
113.119789 112.0
113.231995 140.0
113.265877 156.0
113.316711 120.0
113.45298 156.0
113.511681 164.0
113.615593 44.0
113.744759 160.0
113.897888 164.0
113.95948 184.0
114.120995 200.0
114.397522 168.0
114.487503 284.0
114.851334 124.0
115.024536 652.0
115.066833 40.0
115.314583 172.0
115.368011 204.0
115.402214 168.0
115.464218 180.0
115.564743 156.0
115.693138 132.0
115.746651 108.0
115.845161 180.0
115.870865 172.0
115.965622 88.0
116.128059 196.0
116.211708 408.0
116.31041 56.0
116.570335 184.0
116.589577 184.0
116.645454 108.0
116.86908 128.0
117.013268 56.0
117.038811 824.0
117.073547 116.0
117.10154 44.0
117.254486 124.0
117.291122 252.0
117.362251 176.0
117.388123 128.0
117.493797 248.0
117.547729 100.0
117.616783 172.0
117.657791 136.0
117.709602 196.0
117.756577 148.0
117.891029 144.0
118.035301 380.0
118.055298 208.0
118.219688 84.0
118.362534 76.0
118.379852 176.0
118.434906 104.0
118.52063 88.0
118.546631 164.0
118.669884 156.0
118.694016 132.0
119.112816 144.0
119.336624 128.0
119.508423 108.0
119.638985 104.0
119.778336 264.0
119.841499 296.0
120.047974 560.0
120.122688 164.0
120.227402 176.0
120.412949 108.0
120.567207 168.0
120.642342 120.0
120.670761 108.0
120.812233 132.0
121.052536 164.0
121.222267 196.0
121.298965 52.0
121.38665 164.0
121.581856 156.0
121.717941 128.0
121.90683 196.0
122.045288 172.0
122.307472 164.0
122.34446 176.0
122.388489 120.0
122.406097 172.0
122.540436 96.0
122.573486 160.0
122.599922 192.0
122.718941 164.0
122.919632 132.0
122.972588 152.0
123.05204 152.0
123.290565 180.0
123.4589 180.0
123.480667 136.0
123.741745 60.0
123.819237 180.0
123.874596 128.0
123.910042 84.0
124.138306 144.0
124.326843 160.0
124.551048 52.0
124.6399 148.0
124.791023 104.0
124.908875 64.0
125.022324 44.0
125.071281 124.0
125.091309 36.0
125.151413 140.0
125.267204 176.0
125.39196 100.0
125.432076 116.0
125.50341 84.0
125.702431 64.0
125.771072 52.0
125.846962 96.0
125.913948 56.0
126.052429 188.0
126.329628 196.0
126.377029 188.0
126.404648 112.0
126.613846 44.0
126.687752 152.0
126.786324 116.0
127.050873 196.0
127.089478 152.0
127.201202 92.0
127.221397 40.0
127.565056 52.0
127.708939 160.0
127.753922 120.0
128.03006 176.0
128.251495 200.0
128.287552 156.0
128.395767 176.0
128.69133 76.0
128.716156 176.0
128.786163 120.0
128.932999 164.0
129.010818 136.0
129.039291 120.0
129.251801 92.0
129.310623 204.0
129.389847 148.0
129.632172 120.0
129.668411 108.0
129.833893 192.0
130.00174 116.0
130.030289 332.0
130.067551 220.0
130.183319 132.0
130.308228 136.0
130.64238 156.0
130.888153 96.0
130.99559 264.0
131.049881 268.0
131.321075 132.0
131.391785 260.0
131.59259 212.0
131.631393 156.0
131.951233 172.0
132.046417 464.0
132.095291 116.0
132.136459 140.0
132.264587 152.0
132.301208 240.0
132.351578 28.0
132.400436 164.0
132.429428 212.0
132.619568 140.0
132.713547 156.0
132.773163 176.0
132.869476 116.0
132.910767 148.0
132.952072 112.0
132.995667 144.0
133.040649 168.0
133.057648 132.0
133.112747 188.0
133.138 120.0
133.310272 144.0
133.46933 136.0
133.641327 192.0
133.694244 176.0
133.767899 184.0
133.850769 144.0
134.039612 128.0
134.217087 132.0
134.338593 184.0
134.664719 184.0
134.736313 168.0
134.935043 124.0
134.997452 208.0
135.055267 116.0
135.131592 204.0
135.173233 56.0
135.240341 104.0
135.71286 144.0
135.865906 208.0
136.032974 128.0
136.327896 232.0
136.569656 92.0
136.720856 156.0
136.801682 224.0
137.153992 52.0
137.179626 168.0
137.218063 148.0
137.354492 188.0
137.429138 160.0
137.506134 168.0
137.543472 136.0
137.840027 172.0
138.356857 108.0
139.010696 140.0
139.055267 64.0
139.077667 140.0
139.196106 172.0
139.217239 204.0
139.292389 192.0
139.315872 156.0
139.463882 168.0
139.508392 188.0
139.616684 132.0
139.666077 164.0
139.81427 172.0
139.879272 216.0
139.94136 156.0
140.000229 140.0
140.181595 220.0
140.437286 216.0
140.462112 156.0
140.480972 160.0
140.594208 212.0
140.700409 208.0
140.849167 184.0
140.875153 176.0
140.974365 116.0
141.028717 172.0
141.366867 68.0
141.487549 220.0
141.624878 148.0
141.891434 144.0
142.019501 280.0
142.035782 136.0
142.096542 140.0
142.255524 80.0
142.293503 180.0
142.435974 116.0
142.495346 148.0
142.633163 148.0
142.723495 204.0
142.83287 96.0
143.03688 588.0
143.070801 184.0
143.182693 168.0
143.258911 196.0
143.31369 80.0
143.533325 180.0
143.604477 124.0
143.895126 132.0
143.993454 152.0
144.042313 4404.0
144.082932 164.0
144.155884 44.0
144.189331 104.0
144.359039 128.0
144.378174 172.0
144.547989 192.0
144.59346 68.0
144.725098 120.0
144.933456 132.0
145.061127 1328.0
145.408188 148.0
145.46579 216.0
145.504196 60.0
145.645859 172.0
145.686691 140.0
145.710709 164.0
145.838043 120.0
145.861252 104.0
145.989487 124.0
146.015945 68.0
146.057144 1196.0
146.079285 164.0
146.307053 60.0
146.343155 108.0
146.574356 128.0
146.714127 100.0
146.897736 204.0
146.921494 144.0
147.057938 184.0
147.095215 88.0
147.138657 156.0
147.215912 108.0
147.387405 100.0
147.54689 156.0
147.6436 56.0
147.684708 232.0
147.706467 92.0
147.764526 184.0
148.006531 112.0
148.146973 160.0
148.476578 120.0
148.952225 156.0
148.991089 220.0
149.017807 148.0
149.107697 196.0
149.158737 164.0
149.348358 108.0
149.423767 224.0
149.487015 140.0
149.508911 200.0
149.737732 140.0
149.762085 44.0
149.878998 204.0
149.908234 216.0
150.069092 132.0
150.115402 164.0
150.164185 216.0
150.247101 164.0
150.378845 180.0
150.498444 152.0
150.652283 156.0
150.691376 128.0
150.759781 204.0
150.889313 180.0
151.415329 168.0
151.503494 232.0
151.557388 212.0
151.748535 156.0
152.107117 148.0
152.428329 136.0
152.57579 136.0
152.612656 184.0
152.728226 228.0
152.937332 168.0
153.026901 216.0
153.134277 164.0
153.195847 140.0
153.230331 136.0
153.459518 168.0
153.50882 272.0
153.637054 136.0
153.683929 252.0
153.701202 84.0
153.770279 108.0
153.999863 184.0
154.112869 144.0
154.36557 88.0
154.692108 128.0
154.758942 128.0
154.870361 192.0
154.909988 204.0
154.976669 236.0
155.018997 104.0
155.080933 200.0
155.128021 44.0
155.373505 236.0
155.54718 84.0
155.788025 160.0
155.852615 176.0
155.912247 104.0
156.006683 180.0
156.038528 312.0
156.088715 420.0
156.203094 144.0
156.245377 164.0
156.439468 100.0
156.467422 188.0
156.608765 180.0
156.671036 156.0
156.774307 228.0
156.832977 144.0
156.910248 92.0
156.967575 108.0
157.054413 176.0
157.139664 64.0
157.204529 68.0
157.256927 96.0
157.44165 172.0
157.614777 216.0
157.769669 176.0
157.811417 184.0
157.836426 72.0
157.983963 96.0
158.066513 208.0
158.296158 148.0
158.421982 80.0
158.577316 120.0
158.772842 132.0
158.938385 144.0
159.026199 144.0
159.25856 72.0
159.420441 48.0
159.560623 144.0
159.592529 312.0
159.664261 188.0
159.681625 128.0
159.737183 64.0
159.953552 136.0
160.336334 176.0
160.52034 168.0
160.989639 188.0
161.297836 188.0
161.323105 128.0
161.446976 156.0
161.525375 192.0
161.679688 180.0
161.829269 116.0
161.866989 160.0
161.897369 232.0
161.920166 140.0
162.059464 120.0
162.214478 116.0
162.330643 96.0
162.388962 208.0
162.414322 180.0
162.483261 200.0
162.558914 156.0
162.632507 172.0
162.827972 160.0
162.931229 184.0
163.082001 152.0
163.326065 192.0
163.473602 160.0
163.519394 100.0
163.572845 84.0
163.633926 128.0
163.845291 188.0
164.046585 164.0
164.084808 232.0
164.151093 172.0
164.260742 176.0
164.32196 144.0
164.602692 168.0
164.681854 144.0
164.91687 72.0
165.016556 120.0
165.047241 112.0
165.180206 60.0
165.231354 220.0
165.361847 168.0
165.446304 164.0
165.638336 84.0
165.684433 128.0
165.843292 136.0
165.878418 192.0
166.215088 92.0
166.612991 152.0
166.94194 96.0
167.030136 336.0
167.142563 128.0
167.23262 148.0
167.253204 180.0
167.855972 152.0
167.972015 136.0
168.036514 932.0
168.220139 116.0
168.379761 216.0
168.511749 192.0
168.529266 168.0
168.550232 124.0
168.873337 192.0
168.963852 168.0
169.023041 160.0
169.040604 936.0
169.186386 136.0
169.307587 192.0
169.341736 152.0
169.455841 216.0
169.564514 140.0
169.58783 156.0
169.745956 196.0
169.808182 68.0
169.836716 164.0
170.050964 420.0
170.148621 204.0
170.197388 68.0
170.293457 172.0
170.545441 132.0
170.57663 140.0
170.654617 124.0
170.880859 76.0
170.990128 88.0
171.023956 160.0
171.050415 168.0
171.070816 176.0
171.206177 48.0
171.271423 156.0
171.312958 176.0
171.336395 72.0
171.35463 128.0
171.393707 68.0
171.443207 156.0
171.477081 92.0
171.565704 56.0
171.638687 40.0
171.763855 108.0
171.784714 188.0
171.909943 180.0
171.941254 160.0
171.972565 144.0
172.066879 4728.0
172.121353 32.0
172.157364 156.0
172.197067 160.0
172.215347 124.0
172.284805 108.0
172.319824 56.0
172.379913 208.0
172.416489 184.0
172.45047 52.0
172.510574 136.0
172.568085 48.0
172.617752 76.0
172.687912 164.0
172.719742 68.0
172.755447 244.0
172.832214 120.0
173.071472 496.0
173.252365 216.0
173.400391 80.0
173.49736 40.0
173.529556 240.0
173.596985 172.0
173.62735 172.0
173.682816 120.0
173.725479 112.0
173.882019 288.0
173.899246 240.0
173.924881 184.0
173.948502 200.0
173.980515 140.0
174.020355 500.0
174.082367 102732.0
174.195831 84.0
174.24614 140.0
174.283813 92.0
174.327087 48.0
174.335541 144.0
174.374954 84.0
174.410736 92.0
174.431763 96.0
174.460297 56.0
174.513748 192.0
174.567261 220.0
174.637451 68.0
174.674042 60.0
174.726379 232.0
174.779892 68.0
174.824844 84.0
174.878616 44.0
174.894836 104.0
174.923584 60.0
174.971832 108.0
175.010452 128.0
175.04274 204.0
175.084427 10936.0
175.126526 144.0
175.153488 128.0
175.175293 156.0
175.214951 152.0
175.257706 208.0
175.313339 72.0
175.332306 80.0
175.353607 164.0
175.393707 104.0
175.42485 64.0
175.480301 116.0
175.499802 80.0
175.521561 68.0
175.545288 44.0
175.577103 60.0
175.613846 76.0
175.656036 68.0
175.6745 96.0
175.695602 80.0
175.758911 48.0
175.778641 92.0
175.813538 160.0
175.885574 72.0
175.925156 112.0
175.977951 124.0
176.005936 100.0
176.045273 88.0
176.082993 724.0
176.140091 140.0
176.180817 136.0
176.226196 128.0
176.264832 112.0
176.318665 208.0
176.382965 204.0
176.421524 104.0
176.448669 128.0
176.47171 128.0
176.498398 64.0
176.519547 80.0
176.588303 184.0
176.614746 52.0
176.699387 52.0
176.72319 104.0
176.850189 80.0
176.873657 60.0
176.911072 84.0
176.929596 124.0
177.07785 76.0
177.165253 164.0
177.25798 152.0
177.337463 36.0
177.356018 116.0
177.387817 112.0
177.457397 144.0
177.639694 88.0
177.934235 136.0
177.974045 136.0
177.995285 56.0
178.141342 80.0
178.348572 80.0
178.446915 204.0
178.505402 96.0
178.606461 140.0
178.649002 116.0
178.752762 60.0
179.202682 216.0
179.498505 260.0
179.55983 152.0
179.691406 96.0
180.053482 156.0
180.074844 168.0
180.333969 84.0
180.855453 56.0
180.970551 160.0
181.044312 212.0
181.176743 120.0
181.235687 148.0
181.691406 100.0
182.037476 172.0
182.043549 108.0
182.054474 180.0
182.096664 132.0
182.131577 76.0
182.174545 136.0
182.279312 44.0
182.413681 124.0
182.45668 160.0
182.499695 152.0
182.526581 192.0
182.67717 168.0
182.84935 108.0
183.003448 376.0
183.042938 1472.0
183.838242 104.0
184.027481 324.0
184.051254 464.0
184.318832 156.0
184.532333 128.0
184.621552 256.0
184.708084 132.0
184.732437 92.0
184.826553 136.0
184.856873 156.0
185.027893 272.0
185.058014 4000.0
185.223465 216.0
185.248001 132.0
185.264893 144.0
185.293137 80.0
185.607101 184.0
185.653183 88.0
185.720978 96.0
185.992279 156.0
186.019424 84.0
186.040085 196.0
186.061111 616.0
186.133423 144.0
186.30722 52.0
186.358841 116.0
186.410461 64.0
186.437637 92.0
186.641479 44.0
186.674103 220.0
186.731201 180.0
186.845428 244.0
186.974213 96.0
187.035004 280.0
187.065826 228.0
187.332657 144.0
187.427597 140.0
187.471588 76.0
187.62149 56.0
187.864166 116.0
187.951019 76.0
188.04422 144.0
188.098801 136.0
188.123367 60.0
188.205261 188.0
188.309021 244.0
188.590393 156.0
188.983261 156.0
189.219467 132.0
189.276962 180.0
189.301605 80.0
189.53714 68.0
189.611115 172.0
189.635788 108.0
190.036087 132.0
190.181519 108.0
190.200729 80.0
190.233658 60.0
190.434082 96.0
190.949417 104.0
191.102585 896.0
191.330383 132.0
191.972 164.0
192.099121 196.0
192.264648 164.0
192.395325 216.0
192.419205 168.0
192.67601 128.0
193.007629 64.0
193.055222 204.0
193.297592 152.0
193.383804 208.0
193.422546 152.0
193.524963 200.0
193.87117 208.0
193.950089 92.0
194.040222 128.0
194.262054 148.0
194.309204 128.0
194.436829 72.0
194.628342 168.0
194.669983 92.0
194.711639 108.0
194.872726 172.0
194.992203 172.0
195.037582 204.0
195.108932 204.0
195.41481 40.0
195.949295 52.0
196.063522 108.0
196.110886 172.0
196.529129 76.0
197.058121 420.0
197.227188 128.0
197.280289 136.0
197.587875 140.0
197.671799 116.0
197.708176 192.0
197.749252 176.0
198.074158 580.0
198.525024 192.0
198.814972 192.0
198.837418 104.0
199.03537 176.0
199.078949 256.0
199.373749 144.0
199.413086 212.0
199.792648 152.0
200.505875 248.0
200.558456 44.0
200.885513 168.0
200.944748 132.0
201.04631 108.0
201.378143 80.0
201.458481 68.0
201.602554 116.0
201.64212 164.0
201.735382 184.0
201.89653 92.0
202.230316 124.0
202.411469 152.0
202.921417 184.0
203.335495 192.0
203.409286 144.0
203.460373 80.0
203.525665 116.0
203.960266 120.0
204.025635 124.0
204.150726 160.0
204.36972 188.0
204.463608 140.0
204.523376 168.0
204.930542 176.0
205.055908 188.0
205.423676 116.0
205.566315 52.0
205.85173 80.0
205.977371 168.0
206.043701 180.0
206.07222 200.0
206.986786 152.0
207.072693 120.0
207.1987 184.0
207.473785 188.0
207.792084 124.0
208.027756 148.0
208.060486 140.0
208.271408 184.0
208.403534 204.0
208.45697 180.0
208.564453 84.0
208.969864 172.0
209.059052 128.0
209.357483 160.0
209.508163 184.0
210.017471 196.0
210.041367 152.0
210.072983 388.0
210.534836 144.0
210.566605 96.0
210.7659 128.0
210.852585 56.0
210.942169 124.0
211.031479 5856.0
211.064041 904.0
211.118515 68.0
211.168884 124.0
211.193695 84.0
211.275375 100.0
211.309387 124.0
211.335419 136.0
211.399078 176.0
211.445374 64.0
211.670288 136.0
211.882538 140.0
212.034851 476.0
212.07666 312.0
212.114349 140.0
212.143326 48.0
212.175217 64.0
212.421677 76.0
212.44487 64.0
212.465179 180.0
212.508698 108.0
212.534424 152.0
212.749542 204.0
212.830826 92.0
212.862762 112.0
212.961487 48.0
212.999237 140.0
213.045074 1036.0
213.222931 180.0
213.286865 124.0
213.394409 132.0
213.458359 212.0
213.525238 140.0
213.559937 164.0
213.606674 108.0
213.961655 44.0
214.052078 184.0
214.19458 144.0
214.239471 136.0
214.477173 100.0
214.605438 64.0
214.672485 176.0
214.692902 132.0
214.86496 192.0
215.005005 220.0
215.03418 132.0
215.060455 96.0
215.115906 144.0
215.142166 56.0
215.448761 176.0
215.539322 112.0
215.656204 164.0
215.705887 200.0
216.001175 240.0
216.097702 56.0
216.387405 116.0
216.448883 148.0
216.618729 208.0
216.735901 148.0
216.798477 72.0
216.861893 112.0
217.022964 172.0
217.038086 184.0
217.061218 44.0
217.175583 152.0
217.612762 64.0
217.924042 136.0
218.038635 176.0
218.229675 144.0
218.714996 152.0
218.885727 144.0
219.045792 560.0
219.413055 48.0
219.480515 136.0
219.572006 184.0
219.797928 120.0
219.899689 172.0
219.967575 128.0
220.049622 736.0
220.097458 176.0
220.307114 116.0
220.369156 40.0
220.437103 160.0
220.484375 156.0
220.738571 132.0
220.895294 96.0
221.061111 148.0
221.158615 136.0
221.56424 188.0
221.703476 80.0
222.050354 164.0
222.112564 92.0
222.323181 148.0
222.385498 68.0
222.435959 160.0
222.593277 104.0
222.628906 40.0
222.747696 152.0
223.027405 164.0
223.35994 184.0
223.618759 92.0
223.702774 140.0
223.967072 176.0
224.238174 256.0
224.325333 96.0
224.45874 132.0
224.607834 100.0
224.807693 56.0
224.83754 140.0
224.989746 100.0
225.031769 116.0
225.164444 132.0
225.46759 36.0
225.694733 196.0
226.317001 140.0
226.337967 220.0
226.381851 164.0
226.490677 176.0
226.7603 216.0
227.030136 176.0
227.861404 152.0
228.017639 192.0
228.050735 140.0
228.074738 68.0
228.300186 164.0
228.730362 116.0
228.998306 164.0
229.040466 120.0
229.12178 164.0
229.402008 120.0
229.558762 216.0
229.664307 112.0
230.053314 188.0
230.159164 172.0
230.708954 124.0
230.751266 100.0
230.793594 116.0
230.966629 144.0
231.023422 132.0
231.353226 148.0
231.462204 164.0
231.537903 80.0
231.652985 128.0
231.934753 144.0
231.974152 220.0
232.05127 432.0
232.362259 128.0
232.459351 104.0
232.492722 76.0
232.69606 140.0
232.78714 132.0
233.048721 124.0
233.08783 64.0
233.172897 72.0
233.194168 104.0
233.513367 68.0
233.613724 136.0
233.7202 184.0
233.86734 112.0
233.992188 160.0
234.065552 6908.0
234.146317 48.0
234.191986 68.0
234.288559 164.0
234.393021 48.0
234.530151 84.0
234.642929 116.0
234.673401 96.0
234.700836 116.0
234.767914 88.0
234.825851 56.0
234.935654 192.0
234.9814 128.0
235.064453 584.0
235.14473 272.0
235.204147 40.0
235.277039 168.0
235.295715 228.0
235.549133 212.0
235.579681 160.0
235.784363 160.0
235.989151 188.0
236.070099 144.0
236.16539 156.0
236.310242 40.0
236.457108 156.0
236.490768 92.0
236.585648 64.0
236.827515 144.0
236.913269 132.0
237.035812 228.0
237.087891 152.0
237.155319 128.0
237.566147 84.0
237.637512 164.0
237.74408 144.0
237.948654 152.0
237.977325 124.0
238.003387 104.0
238.030594 172.0
238.072876 452.0
238.133926 100.0
238.686996 160.0
238.7854 136.0
238.840744 96.0
238.960098 100.0
239.016418 1568.0
239.055923 592.0
239.517822 168.0
239.915283 100.0
239.961517 132.0
240.013107 300.0
240.054413 200.0
240.236862 204.0
240.3069 172.0
240.433395 80.0
240.667969 144.0
240.754425 100.0
240.915009 136.0
240.970612 172.0
241.016953 468.0
242.037537 112.0
242.502151 184.0
242.805267 128.0
243.047272 184.0
243.106827 180.0
243.159576 40.0
243.283707 84.0
243.442032 132.0
243.55072 188.0
244.312195 192.0
244.421066 136.0
244.694931 212.0
244.754074 128.0
245.012558 188.0
245.043701 124.0
245.292969 172.0
245.476898 152.0
245.520554 124.0
245.673355 100.0
245.707672 124.0
246.000977 76.0
246.04155 176.0
246.066528 140.0
246.225357 156.0
246.463135 368.0
246.767807 152.0
246.969055 140.0
247.141541 156.0
247.194717 164.0
247.688828 128.0
247.758224 76.0
248.240829 128.0
248.4039 100.0
248.472916 204.0
248.610947 200.0
248.682175 132.0
249.194901 132.0
249.333145 116.0
249.581451 156.0
249.770111 164.0
250.034363 88.0
250.07843 152.0
250.135071 96.0
250.191727 84.0
250.701904 112.0
250.81221 124.0
250.856323 168.0
250.995026 136.0
251.140076 100.0
251.203156 308.0
251.405045 48.0
251.512344 148.0
251.58493 92.0
251.799377 108.0
251.922791 164.0
252.04776 1192.0
252.153412 52.0
252.194489 100.0
252.441055 164.0
252.526428 80.0
252.871246 40.0
252.993484 128.0
253.048477 148.0
253.102295 104.0
253.147858 248.0
253.26062 108.0
253.330307 76.0
253.441177 156.0
253.574249 172.0
253.602768 176.0
253.647141 92.0
253.710526 152.0
253.7771 184.0
253.805634 80.0
253.8405 168.0
253.87056 108.0
253.897583 124.0
253.941971 464.0
253.980804 196.0
254.018082 444.0
254.061935 53476.0
254.134186 180.0
254.165924 60.0
254.221771 192.0
254.273758 52.0
254.318359 132.0
254.394623 196.0
254.416992 72.0
254.451859 68.0
254.476593 72.0
254.519455 76.0
254.574493 60.0
254.599701 188.0
254.635254 136.0
254.67363 72.0
254.681076 40.0
254.69223 68.0
254.789383 120.0
254.810318 108.0
254.865494 152.0
254.886795 144.0
254.969086 64.0
255.003342 152.0
255.064255 8412.0
255.145264 176.0
255.189377 64.0
255.220963 156.0
255.27562 72.0
255.339203 44.0
255.362854 64.0
255.42189 84.0
255.475967 52.0
255.49823 136.0
255.539581 56.0
255.587296 192.0
255.612747 88.0
255.641388 92.0
255.704453 44.0
255.832321 108.0
255.892807 144.0
255.931015 68.0
255.956482 100.0
256.04068 2816.0
256.094391 180.0
256.150726 44.0
256.220795 32.0
256.303619 104.0
256.429932 144.0
256.46933 80.0
256.559814 92.0
256.676514 64.0
256.70694 88.0
256.756866 100.0
256.826385 128.0
256.949951 172.0
257.008179 120.0
257.042603 1240.0
257.071503 212.0
257.158142 60.0
257.212402 136.0
257.269867 48.0
257.308167 144.0
257.340088 32.0
257.431061 84.0
257.729706 52.0
257.84906 156.0
257.924622 136.0
258.052185 512.0
258.292267 48.0
258.327454 108.0
258.378632 100.0
258.423431 72.0
258.487396 108.0
258.549103 140.0
258.656677 80.0
258.778442 140.0
258.82666 68.0
258.999573 84.0
259.05304 392.0
259.084137 196.0
259.121277 84.0
259.236603 92.0
259.438507 136.0
259.496216 188.0
259.557129 60.0
259.687347 72.0
260.058197 212.0
260.080688 328.0
260.115265 88.0
260.902191 52.0
260.992218 108.0
261.069366 140.0
261.178711 200.0
261.32666 132.0
261.458588 188.0
261.539032 36.0
261.986542 80.0
262.131531 200.0
262.247528 224.0
262.579559 36.0
262.740814 132.0
262.763397 88.0
263.1474 72.0
263.845154 76.0
263.919495 132.0
264.039124 224.0
264.174957 124.0
264.307587 120.0
264.479095 132.0
265.013031 332.0
265.314697 92.0
265.943909 156.0
266.0224 404.0
266.06015 128.0
266.158142 104.0
266.236053 88.0
266.294525 116.0
266.323761 260.0
266.599854 56.0
266.924896 52.0
267.031342 1500.0
267.075989 352.0
267.152527 96.0
267.337952 152.0
267.516937 180.0
267.946747 68.0
267.97934 108.0
268.029785 616.0
268.067291 188.0
268.464935 104.0
268.683441 124.0
268.742157 260.0
268.9216 100.0
269.037598 180.0
269.072205 148.0
269.362335 88.0
269.483215 224.0
269.814453 76.0
270.068268 228.0
270.215454 40.0
270.310333 144.0
270.585236 48.0
270.739105 156.0
271.046997 40.0
271.069916 120.0
271.725586 80.0
271.751831 160.0
271.885956 144.0
272.099182 156.0
272.276978 136.0
272.414917 44.0
273.061401 612.0
273.157715 64.0
273.358368 184.0
273.411011 104.0
273.480133 88.0
273.812592 76.0
274.073425 128.0
274.379272 112.0
274.593567 144.0
274.711823 116.0
274.972931 76.0
275.081635 1968.0
275.157776 156.0
275.472961 88.0
275.636627 244.0
275.666351 96.0
275.74234 144.0
275.891083 152.0
276.078369 236.0
276.390411 76.0
276.481049 192.0
276.512848 176.0
276.794189 124.0
276.85379 100.0
277.059113 116.0
277.198242 176.0
277.28772 136.0
277.569458 136.0
277.745178 52.0
277.81485 52.0
277.871246 220.0
278.003937 168.0
278.405579 72.0
278.528442 52.0
278.601501 32.0
278.65921 164.0
278.82077 96.0
278.917145 184.0
279.106598 120.0
279.183075 36.0
279.286163 80.0
279.855133 48.0
279.968353 96.0
280.032166 2328.0
280.194824 124.0
280.27478 36.0
280.324738 56.0
280.374725 180.0
280.681366 144.0
280.808075 88.0
280.838074 132.0
280.911438 88.0
280.984833 128.0
281.038879 404.0
281.088257 108.0
281.148315 124.0
281.200592 108.0
281.295135 180.0
281.522156 148.0
281.582245 76.0
281.622314 120.0
281.784454 184.0
281.859497 116.0
281.945587 124.0
281.973083 216.0
282.049011 23728.0
282.095001 92.0
282.140198 300.0
282.183655 164.0
282.222992 52.0
282.253845 120.0
282.290619 52.0
282.33606 68.0
282.37088 64.0
282.402252 52.0
282.470367 220.0
282.507996 144.0
282.562378 92.0
282.58493 224.0
282.608368 68.0
282.658539 36.0
282.685303 172.0
282.722107 116.0
282.876038 52.0
282.92627 68.0
282.982544 108.0
283.050934 3184.0
283.13916 188.0
283.255341 112.0
283.281189 44.0
283.318024 112.0
283.418518 116.0
283.602814 176.0
283.632965 56.0
283.67157 108.0
283.726807 48.0
283.854218 40.0
283.917908 192.0
283.957581 48.0
284.0495 768.0
284.129211 52.0
284.172821 68.0
284.221008 76.0
284.320435 164.0
284.345276 84.0
284.380829 180.0
284.471436 96.0
284.505005 76.0
284.538574 228.0
284.572144 44.0
284.662811 88.0
284.795959 116.0
284.823975 116.0
284.850861 144.0
284.9953 184.0
285.026672 152.0
285.052155 156.0
285.097412 104.0
285.119598 136.0
285.334686 100.0
285.418732 52.0
285.473663 64.0
285.533051 64.0
286.000671 252.0
286.046448 152.0
286.205994 92.0
286.613495 136.0
286.731415 140.0
286.893188 172.0
287.054993 116.0
287.125824 52.0
287.186523 132.0
287.22699 48.0
287.284302 100.0
287.513733 32.0
287.628448 100.0
287.658844 60.0
288.094849 860.0
288.209259 60.0
288.729767 104.0
288.885315 48.0
289.09613 516.0
289.657013 184.0
289.850098 164.0
289.948334 100.0
290.246613 68.0
290.287292 116.0
290.41275 104.0
290.562012 116.0
290.870758 84.0
291.026917 88.0
291.246124 164.0
291.380066 92.0
291.437836 48.0
291.614502 124.0
292.274139 132.0
292.505554 52.0
292.539581 164.0
292.989044 116.0
293.029755 136.0
293.057159 148.0
293.363831 144.0
293.537689 136.0
293.871918 96.0
294.043976 684.0
294.431671 68.0
294.534119 156.0
294.609253 212.0
294.715149 176.0
294.897949 56.0
294.995331 152.0
295.049744 316.0
295.128662 160.0
295.57666 92.0
295.706696 304.0
296.144867 204.0
296.361725 120.0
296.405212 48.0
296.511414 132.0
296.812408 64.0
297.011932 84.0
297.065033 172.0
297.27951 132.0
297.399597 136.0
297.557495 148.0
297.923828 132.0
298.002563 92.0
298.026886 180.0
298.082916 60.0
298.45755 164.0
298.571014 140.0
298.935608 180.0
298.987213 100.0
299.076691 148.0
299.569031 176.0
299.78949 68.0
300.357697 100.0
300.699829 152.0
301.053284 1204.0
301.086884 428.0
301.131592 260.0
301.286743 108.0
301.397278 116.0
301.746307 36.0
301.988342 124.0
302.057861 392.0
302.098907 292.0
302.103485 284.0
302.659607 44.0
302.784241 136.0
303.068329 804.0
303.432129 132.0
303.83783 156.0
303.891602 176.0
304.066284 232.0
304.07486 292.0
304.150116 68.0
304.406982 188.0
304.584076 148.0
304.823761 140.0
305.146973 140.0
305.219971 112.0
305.270599 192.0
305.304962 56.0
305.428619 136.0
305.863495 140.0
306.035675 140.0
306.103699 124.0
307.04303 552.0
307.075836 100.0
307.299072 112.0
307.651489 80.0
307.857483 176.0
307.91684 160.0
308.032867 172.0
308.468811 184.0
308.500275 56.0
308.535217 108.0
309.052643 1456.0
309.427216 44.0
309.507721 136.0
309.724823 216.0
309.85791 180.0
309.952515 44.0
310.038147 964.0
310.127716 112.0
310.330994 44.0
310.709717 60.0
310.8255 124.0
311.03299 316.0
311.06189 144.0
311.450317 100.0
312.050903 408.0
312.13324 180.0
312.395752 256.0
312.888367 104.0
313.060852 152.0
313.08551 80.0
313.575134 92.0
314.007568 200.0
314.051056 196.0
314.110107 128.0
314.393219 188.0
314.537903 136.0
315.367828 152.0
316.375824 136.0
316.836151 76.0
317.038086 116.0
317.140839 48.0
318.023895 148.0
318.084229 96.0
318.187134 100.0
318.719818 84.0
319.036102 248.0
319.060974 28.0
319.121399 60.0
319.181854 72.0
319.206726 132.0
319.669098 64.0
319.91684 104.0
319.98941 224.0
320.049927 100.0
320.088776 136.0
320.185211 136.0
320.398895 108.0
320.473724 180.0
320.994049 160.0
321.047699 432.0
321.090332 240.0
321.186615 84.0
321.277374 212.0
321.604004 164.0
322.050262 408.0
322.428925 160.0
323.018921 112.0
323.061707 68.0
323.172607 156.0
323.233429 104.0
323.508972 276.0
323.666473 144.0
324.526276 156.0
324.684021 124.0
324.838226 56.0
325.042725 88.0
325.118073 264.0
325.39801 212.0
325.624176 84.0
325.915131 128.0
327.052979 340.0
327.641846 168.0
327.976929 56.0
328.056213 168.0
328.093079 208.0
328.409546 128.0
328.589874 224.0
328.770172 180.0
329.038055 632.0
329.115326 188.0
329.243103 60.0
329.485077 112.0
329.759674 136.0
329.835571 140.0
330.046112 128.0
330.211548 104.0
330.663727 72.0
331.03656 144.0
331.703094 132.0
331.906067 120.0
332.711426 116.0
332.849365 120.0
332.884735 200.0
333.125336 80.0
333.230682 136.0
333.365112 136.0
333.452332 60.0
334.798218 80.0
334.830994 116.0
335.093201 128.0
335.118713 84.0
335.275391 136.0
335.836761 48.0
335.949829 52.0
336.139526 148.0
336.70163 60.0
336.741791 56.0
337.044952 44.0
337.205719 76.0
337.666321 148.0
338.182129 64.0
338.354126 84.0
338.687317 176.0
338.89978 156.0
339.086975 172.0
339.572266 244.0
339.874939 96.0
340.058411 96.0
340.355713 176.0
340.557678 36.0
340.667847 104.0
340.844177 76.0
340.869904 220.0
341.042603 52.0
341.14917 148.0
341.174896 124.0
341.27417 40.0
341.53891 120.0
341.61615 128.0
342.07605 156.0
342.120239 72.0
343.269592 120.0
343.30423 164.0
343.406036 136.0
343.54248 88.0
343.752777 112.0
343.785553 204.0
343.848694 144.0
343.954498 272.0
344.015106 140.0
344.084381 13952.0
344.210419 168.0
344.280579 48.0
344.347046 72.0
344.390289 224.0
344.420898 144.0
344.501892 116.0
344.627747 84.0
344.668396 36.0
344.705322 124.0
344.759369 148.0
344.808807 96.0
345.086853 4672.0
345.177795 140.0
345.259766 64.0
345.307831 48.0
345.396576 120.0
345.544556 68.0
345.961578 148.0
345.990204 184.0
346.040405 48.0
346.091003 644.0
346.162567 40.0
346.240326 84.0
346.269958 176.0
346.314392 136.0
346.355133 52.0
346.381073 104.0
346.603302 88.0
346.71817 64.0
346.870117 40.0
346.933136 108.0
347.048035 120.0
347.106445 112.0
347.31131 80.0
347.519012 60.0
347.544983 156.0
347.652588 36.0
347.856689 200.0
347.893799 104.0
347.930908 64.0
347.994019 136.0
348.042297 124.0
348.074432 184.0
348.198242 60.0
348.246521 144.0
348.302216 40.0
348.335632 208.0
348.614258 148.0
348.878113 40.0
348.955353 168.0
349.071747 508.0
349.290802 60.0
349.733551 36.0
350.082062 260.0
350.3255 80.0
350.819336 216.0
351.063263 176.0
351.279694 72.0
351.992432 168.0
352.055908 164.0
352.205261 160.0
352.358398 188.0
353.528595 32.0
354.048859 160.0
354.734436 36.0
355.051575 184.0
356.089508 160.0
356.547058 144.0
356.81012 152.0
357.050018 188.0
357.113251 232.0
357.336578 104.0
357.411835 64.0
357.487061 76.0
357.513397 100.0
357.622528 84.0
357.870941 116.0
357.923645 80.0
358.062958 144.0
358.673248 204.0
359.069092 244.0
359.103027 112.0
359.393463 204.0
359.457611 92.0
359.650055 104.0
359.823669 224.0
359.906708 152.0
359.989777 160.0
360.371216 64.0
360.412781 136.0
360.533691 172.0
360.665955 128.0
360.957001 128.0
361.46759 112.0
361.717346 204.0
362.861237 100.0
362.956024 200.0
363.505951 108.0
363.695679 40.0
363.938599 84.0
364.094269 184.0
364.569397 196.0
365.062164 132.0
365.511993 76.0
366.166687 72.0
366.319031 116.0
366.559021 44.0
366.993469 152.0
367.07547 240.0
367.306152 136.0
367.550293 136.0
368.034973 148.0
368.48941 152.0
368.99765 200.0
370.038147 152.0
370.325287 172.0
370.407867 136.0
370.455505 216.0
370.555115 60.0
370.662384 60.0
370.727509 108.0
371.068604 104.0
371.198944 188.0
371.501892 100.0
371.639984 100.0
371.681244 96.0
371.724396 220.0
371.774261 124.0
371.877869 152.0
371.943115 60.0
372.072144 15568.0
372.188782 28.0
372.219513 72.0
372.254059 72.0
372.294922 168.0
372.321564 96.0
372.372162 184.0
372.480621 120.0
372.580475 60.0
372.675842 176.0
372.818665 92.0
372.939148 172.0
372.999298 40.0
373.076111 4036.0
373.165558 124.0
373.203705 44.0
373.277985 56.0
373.331146 124.0
373.395264 120.0
373.622162 100.0
373.656799 64.0
373.821014 168.0
374.072388 648.0
374.195862 72.0
374.257111 80.0
374.289459 60.0
374.330261 168.0
374.388031 48.0
374.472046 136.0
374.518951 76.0
374.56131 96.0
374.991425 112.0
375.081238 192.0
375.154663 180.0
375.270294 76.0
375.335846 48.0
375.385956 112.0
375.47464 52.0
375.628906 48.0
375.725342 96.0
375.962219 168.0
376.105103 92.0
376.180634 176.0
376.223083 148.0
376.280243 124.0
376.365936 52.0
376.39682 220.0
376.605316 84.0
376.63623 136.0
377.049561 100.0
377.211884 68.0
377.250519 136.0
377.43222 108.0
377.755554 84.0
377.849884 72.0
377.934967 136.0
378.057953 312.0
378.47876 148.0
378.530975 48.0
379.068756 156.0
379.484039 132.0
379.79422 72.0
380.011444 68.0
380.275269 212.0
380.546967 68.0
380.60907 256.0
380.702271 132.0
380.764374 116.0
380.935272 192.0
381.063446 68.0
381.089752 152.0
381.164459 144.0
381.389832 200.0
381.479218 128.0
381.899109 104.0
382.249176 344.0
382.552734 72.0
383.288696 48.0
384.064392 172.0
385.516541 36.0
385.997284 80.0
386.85791 124.0
387.46875 144.0
387.688141 68.0
388.311401 88.0
389.052887 112.0
389.080383 44.0
389.520142 196.0
389.779388 96.0
389.814758 56.0
389.846191 76.0
390.848755 80.0
391.082092 80.0
391.261963 72.0
391.467163 164.0
391.569061 132.0
391.951111 52.0
392.10083 152.0
392.191467 96.0
392.400391 136.0
392.597504 188.0
392.625092 84.0
392.684265 152.0
392.972168 140.0
393.088165 1812.0
393.220734 88.0
393.947174 156.0
394.084991 1060.0
394.29483 60.0
394.340393 136.0
394.567535 64.0
394.729614 116.0
394.796844 96.0
395.061462 192.0
395.08902 120.0
395.267487 44.0
395.374329 68.0
395.95224 64.0
395.97998 132.0
396.047302 124.0
396.094818 108.0
396.407776 76.0
396.653442 128.0
396.723053 200.0
396.764435 160.0
396.808044 80.0
397.049896 108.0
397.236267 144.0
397.851288 96.0
398.057709 144.0
398.379364 84.0
399.071564 264.0
399.158264 96.0
399.264374 116.0
399.547974 148.0
399.969727 232.0
400.062622 364.0
400.094788 176.0
400.515167 68.0
400.582855 124.0
401.067657 264.0
401.587189 148.0
401.95813 108.0
402.069855 140.0
402.373169 136.0
403.033997 96.0
403.084045 144.0
403.115997 112.0
403.403717 88.0
403.683563 152.0
404.171478 192.0
405.484802 144.0
405.769348 60.0
406.158264 180.0
406.342773 88.0
406.419006 76.0
406.912598 228.0
407.209717 92.0
407.663605 120.0
407.768097 160.0
407.840424 136.0
408.092682 576.0
408.342926 48.0
408.745178 76.0
408.789429 60.0
409.09848 320.0
409.93692 84.0
410.102722 136.0
410.174683 124.0
410.710876 188.0
411.009369 88.0
411.941864 84.0
412.297363 100.0
412.786438 68.0
412.907745 184.0
413.073547 108.0
413.320282 52.0
413.478088 112.0
413.927368 108.0
414.040741 116.0
414.089325 160.0
414.178436 104.0
414.737518 192.0
416.067841 160.0
416.144989 76.0
416.295197 120.0
416.567291 172.0
416.900391 228.0
417.083832 252.0
417.493835 48.0
417.628937 196.0
417.843597 96.0
417.884277 100.0
418.077362 140.0
418.828583 108.0
419.044464 232.0
419.602722 84.0
419.684265 144.0
419.994171 104.0
420.149139 36.0
420.24704 80.0
420.928589 148.0
421.173615 52.0
421.296143 64.0
421.332886 136.0
421.471771 96.0
421.880432 56.0
422.232025 100.0
422.551025 48.0
423.005219 112.0
423.443268 44.0
423.852875 152.0
424.38562 148.0
424.557831 92.0
426.142059 72.0
426.339264 96.0
427.109406 148.0
427.219025 52.0
427.498779 128.0
427.832092 148.0
428.112061 136.0
428.495056 88.0
428.919464 116.0
429.603882 168.0
430.173279 80.0
430.276459 172.0
430.49527 104.0
431.412384 124.0
431.565338 104.0
431.834076 100.0
431.919342 168.0
432.338745 172.0
433.274384 148.0
433.750885 96.0
433.82132 36.0
434.845703 104.0
434.883057 104.0
434.937012 88.0
434.995117 160.0
435.958557 136.0
436.083221 128.0
436.602814 88.0
437.260071 156.0
437.988586 40.0
439.206635 164.0
439.547577 36.0
440.094269 132.0
440.353149 140.0
440.921265 116.0
440.9505 104.0
441.084259 148.0
441.146942 104.0
441.401947 120.0
441.481384 220.0
442.142273 84.0
443.335632 64.0
443.478119 128.0
443.922424 124.0
444.236938 88.0
444.526398 104.0
444.627106 192.0
444.711029 164.0
444.786591 112.0
444.878906 164.0
445.336548 120.0
445.676758 120.0
445.945679 120.0
445.979309 172.0
446.521576 52.0
447.261993 68.0
447.329346 156.0
447.619781 104.0
447.70401 100.0
448.243134 148.0
448.466461 32.0
448.730011 180.0
448.854248 124.0
448.896393 152.0
450.039734 112.0
450.255066 72.0
450.29306 112.0
450.373322 76.0
450.897125 44.0
451.007019 108.0
451.55658 156.0
452.123413 104.0
452.229187 76.0
452.364624 120.0
452.508545 152.0
453.012421 104.0
453.131042 88.0
453.266602 180.0
454.228851 172.0
454.911926 132.0
455.277039 168.0
455.795197 52.0
455.990662 108.0
456.156403 144.0
456.377441 116.0
456.487976 112.0
456.798401 120.0
456.921753 120.0
457.181274 88.0
457.487701 84.0
457.589844 60.0
459.780518 68.0
460.463501 76.0
460.766724 216.0
460.809448 40.0
460.933319 176.0
461.078461 128.0
461.112793 148.0
461.608612 152.0
461.63855 216.0
463.161957 96.0
463.341827 176.0
463.748871 116.0
463.79599 72.0
464.216095 212.0
464.627808 108.0
464.692139 132.0
465.099762 176.0
465.559082 140.0
465.778076 104.0
465.94989 36.0
466.0401 112.0
468.225037 148.0
468.826691 148.0
469.32373 80.0
469.435822 212.0
469.608307 120.0
469.750641 176.0
469.849823 136.0
470.017029 148.0
470.027161 112.0
470.040955 160.0
470.125946 60.0
470.743164 148.0
471.067047 136.0
471.455841 140.0
472.052307 232.0
472.117157 168.0
472.217926 172.0
472.415558 84.0
472.519379 124.0
472.636169 184.0
472.93042 152.0
473.047272 96.0
473.319977 104.0
473.579773 112.0
473.640411 64.0
474.246948 228.0
474.376953 204.0
474.663055 124.0
475.239868 40.0
475.309296 208.0
475.374359 132.0
475.443787 44.0
475.573975 176.0
475.908173 116.0
476.099213 132.0
476.672546 80.0
477.054962 156.0
477.489716 188.0
478.394623 96.0
478.438141 156.0
480.185211 136.0
480.320404 168.0
481.118866 92.0
482.038666 140.0
482.134247 252.0
482.236938 120.0
482.752747 96.0
482.936401 80.0
483.103729 272.0
483.758911 100.0
483.802673 120.0
484.109253 116.0
484.472595 100.0
484.595245 108.0
484.672729 212.0
485.112213 1012.0
485.189911 68.0
485.564423 156.0
485.765594 160.0
486.109039 532.0
486.99884 92.0
487.113861 404.0
487.209656 52.0
487.284332 52.0
487.345856 128.0
488.035797 184.0
488.253296 120.0
488.523895 180.0
488.572296 156.0
489.04306 120.0
489.320343 172.0
489.377563 192.0
489.515656 176.0
490.103058 136.0
490.148285 36.0
490.381805 56.0
490.538269 168.0
492.057434 216.0
492.322693 128.0
492.587677 84.0
492.627411 64.0
493.245972 48.0
493.57309 124.0
493.754364 96.0
493.785309 64.0
493.878174 76.0
494.121429 92.0
494.727661 108.0
494.904724 128.0
494.993256 72.0
495.134949 212.0
495.267792 148.0
495.458252 152.0
495.635468 52.0
495.941193 76.0
496.00766 136.0
496.145081 88.0
496.238007 112.0
496.313538 108.0
496.450958 56.0
496.796875 112.0
497.014252 172.0
497.283203 188.0
497.318451 64.0
497.4245 356.0
497.466858 92.0
497.515686 96.0
497.573547 120.0
497.613342 112.0
497.657745 112.0
497.695312 136.0
497.759399 80.0
497.808685 84.0
497.846497 164.0
497.94635 184.0
498.006287 132.0
498.070679 120.0
498.10672 152.0
498.178009 292.0
498.261688 100.0
498.318054 100.0
498.384491 136.0
498.438232 212.0
498.51474 120.0
498.559784 116.0
498.605927 144.0
498.732635 128.0
498.763763 52.0
498.830414 56.0
498.890076 124.0
498.945984 116.0
498.997986 80.0
499.060547 124.0
499.098663 56.0
499.139832 372.0
499.249176 132.0
499.28717 304.0
499.324738 176.0
499.41626 88.0
499.480133 164.0
499.57959 192.0
499.615479 64.0
499.630676 180.0
499.672821 228.0
499.754944 48.0
499.820557 180.0
499.866547 192.0
499.905701 272.0
499.952118 208.0
500.008392 144.0
500.019257 272.0
500.134369 118756.0
500.283051 216.0
500.330536 156.0
500.381958 44.0
500.400574 84.0
500.421143 52.0
500.462158 292.0
500.469238 168.0
500.56958 144.0
500.678772 132.0
500.720642 100.0
500.774506 296.0
500.833771 136.0
500.870087 472.0
500.969482 288.0
501.035828 236.0
501.135986 35448.0
501.233612 228.0
501.301422 148.0
501.347107 76.0
501.387329 36.0
501.432678 60.0
501.530487 116.0
501.597351 160.0
501.627197 152.0
501.654816 68.0
501.685486 96.0
501.714172 36.0
501.729523 140.0
501.792786 136.0
501.87027 96.0
501.921417 188.0
502.011292 148.0
502.057678 208.0
502.075012 152.0
502.13736 6656.0
502.218994 208.0
502.343353 92.0
502.392883 188.0
502.444 92.0
502.489227 116.0
502.538971 56.0
502.579773 52.0
502.651947 88.0
502.686829 32.0
502.724792 172.0
502.764862 160.0
502.820801 92.0
502.869659 84.0
502.92218 76.0
502.965973 160.0
503.017059 36.0
503.07196 108.0
503.141663 840.0
503.249176 64.0
503.325073 52.0
503.360413 192.0
503.414368 136.0
503.453339 88.0
503.521545 124.0
503.560822 80.0
503.624237 120.0
503.707306 60.0
503.767242 200.0
503.834808 156.0
503.889069 212.0
503.936462 40.0
503.986389 148.0
504.053558 352.0
504.111206 308.0
504.139893 92.0
504.2211 108.0
504.268799 128.0
504.309662 84.0
504.366852 88.0
504.384949 44.0
504.400543 100.0
504.41452 120.0
504.517822 52.0
504.584869 76.0
504.676941 80.0
504.710022 80.0
504.769562 112.0
504.835236 92.0
504.901489 180.0
504.987244 68.0
505.110992 92.0
505.124176 52.0
505.185028 128.0
505.219818 76.0
505.255615 96.0
505.327179 132.0
505.398743 56.0
505.466156 60.0
505.518066 60.0
505.568787 92.0
505.617981 64.0
505.711456 76.0
505.753204 112.0
505.922333 44.0
506.007355 100.0
506.038696 92.0
506.081665 96.0
506.181976 52.0
506.255219 100.0
506.338684 48.0
506.481995 52.0
506.629791 36.0
506.665619 92.0
506.755219 40.0
506.80896 108.0
506.889618 56.0
506.952332 76.0
507.015076 76.0
507.049377 116.0
507.149506 100.0
507.203278 60.0
507.34671 32.0
507.468445 120.0
507.482513 108.0
507.557404 100.0
507.593262 44.0
507.687408 72.0
507.808502 72.0
507.951996 76.0
508.11795 32.0
508.18158 44.0
508.544189 64.0
509.622314 72.0
509.698181 112.0
509.927338 28.0
510.87146 68.0
511.195343 88.0
511.384338 68.0
511.784943 36.0
512.460449 52.0
512.719849 84.0
513.06427 36.0
514.652161 84.0
514.765015 56.0
516.807861 56.0
517.19696 60.0
517.251282 92.0
517.282959 132.0
517.85791 128.0
518.424133 100.0
518.868286 96.0
519.067749 64.0
519.444153 128.0
519.856934 56.0
520.487793 96.0
521.418945 108.0
522.191711 64.0
522.6875 108.0
523.484009 76.0
523.770874 96.0
523.866516 96.0
523.971313 88.0
526.118958 52.0
526.41571 52.0
526.534424 80.0
529.447205 68.0
529.59375 60.0
530.8172 96.0
534.933167 116.0
535.135681 28.0
535.55011 40.0
536.775818 100.0
538.238342 68.0
540.535339 76.0
540.725037 68.0
543.583923 96.0
544.548645 116.0
547.702454 56.0
548.503784 44.0
550.53302 48.0
554.785522 116.0
559.39325 40.0
560.203064 80.0
561.070068 76.0
562.301025 76.0
565.358276 20.0
565.897827 80.0
569.971558 68.0
576.747437 136.0
577.928467 68.0
580.994324 32.0
585.921265 80.0
592.887939 48.0
595.82312 64.0
602.315735 116.0
603.082764 68.0
605.88623 92.0
607.19342 52.0
609.285522 80.0
613.438354 36.0
614.202576 72.0
614.3703 64.0
614.778381 72.0
617.056519 88.0
617.570679 144.0
617.753723 56.0
619.580139 60.0
622.858643 44.0
623.136841 64.0
628.169189 88.0
628.408569 44.0
630.360657 96.0
633.907959 76.0
636.500977 140.0
637.495422 52.0
641.440735 88.0
641.970032 124.0
642.080933 88.0
651.09314 96.0
653.303833 60.0
655.243164 80.0
659.217407 68.0
659.74884 60.0
660.745972 60.0
661.421387 76.0
666.677612 96.0
667.006531 120.0
669.748657 52.0
671.361572 44.0
672.935181 64.0
673.735535 92.0
677.185242 32.0
678.490845 92.0
683.481384 148.0
692.207703 120.0
692.380493 56.0
693.323364 56.0
698.252319 96.0
698.289185 112.0
699.851868 56.0
700.309937 76.0
700.852478 60.0
704.10675 68.0
704.698242 168.0
705.120972 44.0
707.405579 96.0
712.681763 96.0
717.321838 48.0
718.5802 56.0
720.827759 84.0
721.105652 40.0
721.415588 48.0
722.126648 52.0
723.592651 56.0
725.789062 48.0
733.006958 172.0
733.567383 100.0
733.726746 120.0
735.91925 124.0
736.286377 120.0
738.393799 36.0
743.127502 160.0
743.653809 132.0
750.196533 180.0
756.226013 124.0
762.070862 136.0
762.75769 40.0
764.055298 84.0
766.389404 124.0
766.472046 112.0
767.789307 52.0
768.054016 172.0
768.379456 20.0
769.505188 104.0
771.582153 76.0
775.705811 60.0
776.664978 92.0
780.462952 116.0
781.54187 92.0
781.781128 176.0
783.846741 224.0
784.420715 144.0
786.015564 96.0
788.584045 72.0
789.83075 76.0
792.623962 64.0
794.96759 36.0
795.483826 40.0
798.095886 116.0
798.630066 28.0
801.900818 180.0
803.225647 80.0
803.620483 108.0
805.110474 192.0
807.189697 92.0
807.353699 72.0
808.473633 196.0
809.277344 176.0
810.466614 112.0
811.050232 80.0
814.976746 128.0
815.65863 108.0
815.885986 156.0
817.045959 112.0
818.815918 172.0
821.637085 76.0
824.006042 104.0
824.685974 156.0
826.189636 72.0
826.332642 108.0
826.389832 96.0
827.162292 56.0
828.502075 148.0
830.381958 100.0
831.804688 188.0
831.856323 64.0
833.176941 140.0
834.19397 56.0
835.637268 116.0
836.949341 196.0
841.082275 60.0
841.780762 36.0
842.583496 80.0
843.461731 156.0
844.08606 176.0
845.705627 156.0
848.051086 60.0
849.059692 184.0
849.21051 96.0
852.002136 124.0
853.088684 56.0
853.1875 176.0
856.259399 216.0
859.144226 116.0
862.419617 28.0
866.655884 68.0
869.047791 124.0
869.681458 180.0
872.430115 184.0
872.92981 80.0
873.065063 232.0
873.217957 68.0
882.18512 164.0
882.794006 132.0
885.142883 196.0
887.832825 136.0
889.286194 80.0
891.156494 120.0
891.43573 88.0
891.988342 56.0
892.541199 124.0
893.641357 184.0
894.712524 212.0
896.088074 152.0
896.362061 164.0
899.206299 172.0
902.515259 144.0
902.98761 96.0
903.567749 104.0
904.267761 64.0
904.405396 48.0
907.66394 236.0
908.275574 88.0
908.821411 176.0
913.627075 104.0
914.066223 120.0
915.294006 112.0
915.516785 80.0
916.685303 176.0
920.189209 192.0
921.288208 148.0
922.96814 152.0
927.417053 184.0
930.194763 100.0
932.113647 116.0
932.690918 176.0
934.800964 128.0
935.36084 56.0
938.790466 136.0
939.06488 160.0
939.534485 104.0
941.963745 48.0
942.018738 124.0
945.172974 180.0
945.625732 136.0
945.699219 216.0
946.213318 80.0
949.484924 136.0
949.662781 40.0
949.797729 20.0
950.006226 64.0
951.77356 128.0
953.100098 80.0
953.321289 76.0
956.814453 168.0
956.919067 212.0
958.421692 76.0
959.40155 148.0
959.862061 68.0
960.079651 268.0
960.474365 172.0
961.708191 200.0
963.097229 176.0
966.441223 156.0
967.078491 208.0
968.607666 104.0
969.382019 164.0
969.766174 120.0
970.200012 196.0
970.76416 272.0
974.674255 212.0
975.127869 44.0
975.208618 288.0
975.751709 172.0
975.948303 176.0
976.769104 192.0
976.912109 96.0
983.185608 172.0
983.984436 176.0
984.933533 180.0
988.684265 156.0
989.679443 96.0
990.549805 116.0
991.802856 172.0
992.341858 176.0
994.392822 220.0
997.105591 164.0
997.350708 240.0
998.010681 104.0
998.652039 52.0
999.929016 112.0
999.973083 72.0
1000.143005 164.0
1000.476562 136.0
1001.691772 164.0
1003.676697 68.0
1004.029785 108.0
1004.275696 192.0
1005.196655 136.0
1005.420593 152.0
1005.688843 176.0
1007.829346 40.0
1009.213379 196.0
1009.282898 188.0
1010.421204 196.0
1011.788025 264.0
1013.415466 88.0
1013.50415 92.0
1015.957397 144.0
1016.90271 40.0
1018.623169 188.0
1021.585022 136.0
1021.966675 104.0
1023.513123 184.0
1029.436157 148.0
1029.563843 160.0
1031.410034 108.0
1031.537842 32.0
1032.995605 144.0
1033.35376 140.0
1035.760498 192.0
1036.55481 124.0
1036.663696 208.0
1037.516113 200.0
1042.207031 100.0
1044.810425 52.0
1044.939087 80.0
1051.162476 76.0
1051.239868 124.0
1053.583252 64.0
1058.621094 112.0
1060.89502 100.0
1061.763672 140.0
1064.125366 96.0
1067.419067 152.0
1068.394531 88.0
1071.642822 164.0
1072.620239 148.0
1073.767578 132.0
1074.302368 52.0
1077.350586 88.0
1079.735962 76.0
1081.31897 176.0
1081.561157 164.0
1086.606323 100.0
1087.229614 140.0
1087.839844 164.0
1088.877197 112.0
1089.185791 64.0
1092.39978 68.0
1098.914307 44.0
1100.531128 140.0
1101.052734 200.0
1101.264038 56.0
1101.825439 164.0
1103.127075 128.0
1104.40979 20.0
1107.928833 68.0
1109.487915 176.0
1110.886963 184.0
1114.019897 160.0
1114.119507 200.0
1114.531372 108.0
1118.594238 156.0
1119.046875 52.0
1119.892456 44.0
1120.931641 188.0
1121.118164 56.0
1127.744385 144.0
1129.308716 80.0
1130.639893 60.0
1131.496582 264.0
1132.500854 96.0
1133.813843 52.0
1133.981445 128.0
1137.918457 168.0
1138.341431 144.0
1139.395752 144.0
1139.758545 164.0
1140.363281 104.0
1142.655884 212.0
1144.614258 176.0
1145.287598 56.0
1147.55835 176.0
1147.821289 148.0
1148.090942 80.0
1149.102539 188.0
1149.453369 120.0
1151.026001 60.0
1151.194702 72.0
1151.876831 188.0
1155.093872 164.0
1155.707275 196.0
1156.704102 196.0
1156.893677 200.0
1157.089966 112.0
1157.299805 156.0
1158.017212 176.0
1158.620239 88.0
1159.528198 208.0
1159.67041 120.0
1160.090698 92.0
1161.514404 136.0
1163.991211 120.0
1165.335938 228.0
1165.532959 144.0
1165.655273 128.0
1166.74939 152.0
1168.003418 208.0
1168.633057 84.0
1169.680908 76.0
1170.03479 180.0
1171.335327 240.0
1172.377563 64.0
1172.445679 156.0
1173.331665 224.0
1176.414795 80.0
1178.449707 96.0
1178.9552 64.0
1179.269531 252.0
1180.089722 40.0
1180.814575 140.0
1185.133423 160.0
1185.400635 180.0
1186.305176 80.0
1187.978149 144.0
1188.760254 124.0
1189.954346 100.0
1190.016113 48.0
1190.606567 144.0
1190.85376 204.0
1190.908691 120.0
1191.437622 196.0
1192.564331 152.0
1193.017944 112.0
1193.595337 164.0
1199.2948 60.0
1200.466675 184.0
1201.949463 160.0
1202.439453 92.0
1202.832764 72.0
1203.081299 176.0
1203.529907 212.0
1204.765991 160.0
1206.652466 100.0
1208.372681 200.0
1209.633667 204.0
1210.02124 188.0
1210.734375 116.0
1211.184448 176.0
1212.133423 180.0
1213.228394 184.0
1213.949341 220.0
1215.26709 104.0
1215.704224 108.0
1215.80127 48.0
1219.829102 160.0
1221.936035 180.0
1223.049316 132.0
1223.265015 228.0
1224.775146 204.0
1225.242432 48.0
1225.500244 84.0
1227.765381 172.0
1229.334717 204.0
1231.002197 204.0
1233.384888 104.0
1234.209717 136.0
1236.461914 144.0
1237.056763 140.0
1239.591797 132.0
1239.879028 200.0
1242.416992 220.0
1243.806152 108.0
1243.995728 72.0
1244.276489 136.0
1244.831055 192.0
1246.481567 268.0
1247.950439 172.0
1248.780029 188.0
1249.195068 192.0
1249.961792 444.0
1250.151733 168.0
1254.630737 96.0
1255.850464 40.0
1255.970337 148.0
1258.559937 248.0
1261.611694 244.0
1262.191284 144.0
1262.396362 228.0
1262.884277 176.0
1263.853271 128.0
1271.895752 204.0
1272.08728 156.0
1275.233521 96.0
1276.633911 188.0
1276.768921 168.0
1277.096069 248.0
1278.283936 52.0
1281.017578 152.0
1281.30957 228.0
1283.768311 132.0
1286.600464 148.0
1288.0 56.0
1289.264404 148.0
1289.800293 192.0
1290.086182 200.0
1291.5448 228.0
1292.131226 168.0
1292.195679 136.0
1294.213745 180.0
1294.621826 136.0
1294.807983 180.0
1295.237671 208.0
1295.703247 32.0
1296.254883 48.0
1296.957031 160.0
1298.5271 68.0
1303.400757 184.0
1303.745605 92.0
1304.327637 128.0
1304.854004 72.0
1306.117798 192.0
1306.434326 180.0
1307.766846 180.0
1308.002808 120.0
1310.602295 96.0
1310.875977 164.0
1311.69751 192.0
1312.331787 176.0
1312.742798 224.0
1317.007446 204.0
1317.62854 196.0
1318.040405 168.0
1319.890503 192.0
1320.994751 172.0
1321.394775 140.0
1321.763672 172.0
1322.284668 152.0
1322.537964 68.0
1325.724121 156.0
1326.274902 164.0
1327.978516 152.0
1328.877808 176.0
1328.993896 132.0
1329.596191 180.0
1329.763062 120.0
1329.944458 80.0
1330.452515 164.0
1331.047729 184.0
1331.548828 56.0
1332.892578 112.0
1332.96521 152.0
1333.299438 184.0
1334.018921 164.0
1334.760376 168.0
1335.632935 216.0
1335.916626 228.0
1336.389404 76.0
1336.527588 48.0
1337.022339 188.0
1337.146118 36.0
1338.944092 168.0
1339.220825 136.0
1339.56311 36.0
1340.626709 52.0
1342.813477 164.0
1343.841919 172.0
1344.863403 208.0
1345.32312 180.0
1345.870605 168.0
1346.075073 80.0
1346.370728 232.0
1346.907471 56.0
1348.105591 128.0
1348.850952 140.0
1349.3479 88.0
1349.421021 176.0
1350.430054 188.0
1351.285767 88.0
1353.49585 208.0
1353.691772 216.0
1354.147583 244.0
1355.64917 68.0
1356.359985 192.0
1357.173584 140.0
1358.478882 216.0
1358.977661 136.0
1359.447266 156.0
1359.674683 196.0
1361.039917 176.0
1362.089966 80.0
1363.302002 152.0
1363.809082 144.0
1364.992554 100.0
1365.352783 220.0
1365.404297 84.0
1366.728149 168.0
1366.970947 116.0
1367.103394 104.0
1368.936157 108.0
1372.5979 200.0
1373.069824 240.0
1376.596802 144.0
1378.701904 296.0
1380.320557 120.0
1380.845581 140.0
1381.074829 188.0
1381.681274 156.0
1382.694824 56.0
1383.272095 144.0
1383.383179 152.0
1386.278687 172.0
1388.828613 212.0
1389.373169 188.0
1390.149048 124.0
1391.366089 180.0
1391.536865 252.0
1391.603638 140.0
1392.605957 176.0
1392.763428 120.0
1397.987793 108.0
1398.21106 92.0
1398.322632 148.0
1398.650024 164.0
1399.245483 84.0
1399.357178 240.0
1400.39209 68.0
1403.15625 136.0
1403.238281 44.0
1403.723877 148.0
1404.334351 204.0
1405.565063 88.0
1405.990356 156.0
1406.781372 64.0
1408.125244 88.0
1412.175537 120.0
1412.265259 156.0
1412.347534 100.0
1412.73645 116.0
1413.911011 148.0
1414.255249 116.0
1414.375 200.0
1415.273193 180.0
1417.332764 160.0
1418.464233 196.0
1418.546631 168.0
1420.158569 204.0
1420.661255 152.0
1421.456177 68.0
1422.019043 108.0
1422.19165 116.0
1424.977173 176.0
1425.818726 128.0
1426.720459 136.0
1426.84082 148.0
1428.4198 164.0
1429.299927 168.0
1429.947021 48.0
1430.082397 176.0
1430.390991 56.0
1430.571655 208.0
1431.316895 144.0
1432.883301 204.0
1433.372925 220.0
1434.030884 120.0
1437.421631 240.0
1437.587646 172.0
1437.708374 180.0
1437.829102 108.0
1438.183716 164.0
1438.727173 196.0
1439.504761 204.0
1440.170532 168.0
1440.947144 72.0
1441.113403 200.0
1443.977905 60.0
1444.212402 228.0
1445.104858 196.0
1445.604248 92.0
1446.118774 168.0
1446.466919 36.0
1447.284424 140.0
1449.624634 52.0
1452.482544 136.0
1453.135864 140.0
1453.233398 132.0
1454.568848 96.0
1455.661987 144.0
1457.606323 144.0
1457.917847 192.0
1458.198975 160.0
1458.852539 196.0
1458.98938 132.0
1459.582397 56.0
1460.684937 64.0
1462.685913 96.0
1463.782104 112.0
1467.400757 160.0
1467.515137 160.0
1468.780884 92.0
1469.185059 188.0
1471.458984 164.0
1471.802612 120.0
1473.620117 144.0
1474.025024 220.0
1475.5 140.0
1475.629883 140.0
1477.067383 160.0
1477.273926 180.0
1477.388672 276.0
1482.470093 84.0
1483.10791 264.0
1483.491089 140.0
1485.49231 140.0
1485.668701 144.0
1488.120117 244.0
1488.27771 100.0
1489.199097 236.0
1490.589478 100.0
1492.541626 148.0
1493.095215 124.0
1494.564209 160.0
1496.303467 68.0
1496.980835 216.0
1497.643066 140.0
1497.820312 148.0
1498.459595 188.0
1499.977539 188.0
1502.059204 60.0
1502.467896 168.0
1503.325439 192.0
