>compound MLS001049015-01!4,8-dimethoxy-9H-furo[2,3-b]quinolin-7-one
>formula C13H11NO4
>ionization [M+H]+
>parentmass 246.075516
#inchi InChI=1S/C13H11NO4/c1-16-11-7-3-4-9(15)12(17-2)10(7)14-13-8(11)5-6-18-13/h3-6,15H,1-2H3
#inchikey LJKPBWHZRNQEMO
#Ion_Source LC-ESI
#Instrument qTof
#Compound_Source NIH Natural Product Library
#PI Dorrestein
#Data_Collector VVP/LMS
#Scan -1
#Precursor_MZ 246.077
#ExactMass 245.069
#Charge 1
#CAS_Number N/A
#Pubmed_ID N/A
#Smiles COc1c(O)ccc2c(OC)c3ccoc3nc12
#INCHI_AUX N/A
#Library_Class 1
#SpectrumID CCMSLIB00000079785
#IonMode Positive
#UpdateWorkflowName UPDATE-SINGLE-ANNOTATED-GOLD
#LibraryQualityString Gold
#TaskID b1d8e8f6646f4e71acdff9ca3d919d08
##Scan# 1714
#SpectrumFile p1-A11_GA11_01_17883.mzXML
#LibraryName NIH_Natural_Products_Library.mgf
#MQScore -1
#Organism NIH_Natural_Products_Library
#TIC_Query 0
#RT_Query -1
#MZErrorPPM -1
#SharedPeaks 0
#MassDiff 0
#LibMZ -1
#SpecMZ 246.077
#SpecCharge 0
#internalFilename spec-00000.mgf

>collision 10
94.988838 44.0
95.006081 144.0
95.048981 164.0
95.095551 216.0
95.161552 144.0
95.17514 180.0
95.223946 152.0
95.245056 148.0
95.274193 68.0
95.289734 84.0
95.369408 204.0
95.491943 176.0
95.61412 176.0
95.714546 160.0
95.729317 160.0
95.815018 208.0
95.852043 96.0
95.928047 40.0
95.945595 344.0
96.233002 176.0
96.251907 140.0
96.281197 212.0
96.310631 172.0
96.341751 48.0
96.371056 180.0
96.40818 84.0
96.515694 48.0
96.65065 116.0
96.693703 84.0
96.775917 148.0
96.836624 128.0
96.890358 176.0
96.943207 216.0
96.996284 140.0
97.083557 208.0
97.097282 132.0
97.298508 152.0
97.328842 152.0
97.470261 164.0
97.525291 88.0
97.609825 48.0
97.631454 172.0
97.670784 124.0
97.694389 72.0
97.719254 212.0
97.875458 164.0
97.971962 68.0
98.044868 128.0
98.064575 148.0
98.133568 224.0
98.165115 192.0
98.209801 164.0
98.25782 248.0
98.299255 112.0
98.390045 96.0
98.459152 176.0
98.480873 204.0
98.516434 208.0
98.53421 156.0
98.644875 172.0
98.955467 168.0
99.01487 128.0
99.068352 200.0
99.166435 156.0
99.246719 192.0
99.288361 144.0
99.309181 128.0
99.381592 36.0
99.490746 176.0
99.590034 144.0
99.606117 204.0
99.639694 164.0
99.886192 132.0
99.921997 276.0
99.938255 116.0
100.003586 180.0
100.028358 188.0
100.089523 164.0
100.204704 104.0
100.244553 152.0
100.396057 200.0
100.503777 240.0
100.543686 156.0
100.601318 196.0
100.673447 104.0
100.731361 176.0
100.775314 188.0
100.871155 184.0
100.901222 168.0
100.97654 144.0
101.035812 280.0
101.065224 72.0
101.11525 136.0
101.221352 196.0
101.239372 116.0
101.285439 176.0
101.333786 208.0
101.353554 148.0
101.369583 120.0
101.397011 256.0
101.413673 240.0
101.431709 224.0
101.481827 168.0
101.53196 196.0
101.560249 192.0
101.620216 132.0
101.720558 156.0
101.774765 152.0
101.871162 44.0
102.016922 156.0
102.031929 120.0
102.047394 492.0
102.225014 152.0
102.262833 284.0
102.305527 76.0
102.356552 268.0
102.406204 108.0
102.521034 56.0
102.543205 136.0
102.575455 220.0
102.633919 176.0
102.702484 260.0
102.782661 140.0
102.805252 192.0
102.916397 132.0
102.954765 96.0
103.003235 180.0
103.043045 320.0
103.08075 132.0
103.207352 164.0
103.245766 148.0
103.263969 112.0
103.294312 120.0
103.33477 52.0
103.389404 120.0
103.502762 196.0
103.516937 216.0
103.645958 224.0
103.700958 148.0
103.721558 180.0
103.74588 172.0
103.806709 148.0
103.921997 176.0
104.005363 200.0
104.049751 7400.0
104.113335 40.0
104.159843 124.0
104.224136 216.0
104.301323 108.0
104.367134 232.0
104.397629 52.0
104.417969 212.0
104.440338 160.0
104.467056 60.0
104.486588 180.0
104.563095 192.0
104.625511 152.0
104.732063 136.0
104.759918 136.0
104.83123 196.0
104.857719 188.0
104.99839 176.0
105.012672 128.0
105.034164 848.0
105.052635 816.0
105.073868 44.0
105.094635 132.0
105.13916 156.0
105.153442 104.0
105.241219 164.0
105.269806 88.0
105.333122 136.0
105.40667 164.0
105.447731 168.0
105.559975 72.0
105.643829 124.0
105.710205 172.0
105.727722 136.0
105.754326 68.0
105.828018 128.0
105.848495 108.0
105.950905 244.0
106.01442 168.0
106.034477 280.0
106.073853 160.0
106.233269 184.0
106.270729 64.0
106.336395 220.0
106.355675 152.0
106.373337 72.0
106.404129 188.0
106.453407 204.0
106.484215 216.0
106.568436 136.0
106.593094 164.0
106.617752 156.0
106.634193 140.0
106.767822 60.0
106.85833 188.0
106.936523 136.0
107.013634 368.0
107.138313 44.0
107.340302 128.0
107.437233 184.0
107.476433 216.0
107.528023 136.0
107.558983 88.0
107.608528 192.0
107.763428 88.0
107.837822 100.0
107.879158 104.0
107.901901 116.0
107.984612 220.0
108.018265 104.0
108.046906 320.0
108.274353 212.0
108.295067 196.0
108.334419 200.0
108.398643 180.0
108.415222 144.0
108.597664 140.0
108.842545 60.0
108.958855 296.0
109.021484 168.0
109.110565 156.0
109.150253 176.0
109.199974 56.0
109.220772 248.0
109.237411 228.0
109.28817 192.0
109.380989 352.0
109.399727 160.0
109.468437 44.0
109.493423 168.0
109.601746 84.0
109.65593 140.0
109.6726 176.0
109.733055 96.0
109.808121 216.0
109.843712 192.0
110.023041 144.0
110.143631 176.0
110.147766 132.0
110.196381 124.0
110.248619 76.0
110.355225 152.0
110.370972 236.0
110.562309 136.0
110.606262 144.0
110.750732 48.0
110.807289 128.0
110.874344 72.0
110.939323 100.0
110.962379 136.0
111.06723 84.0
111.140656 212.0
111.291779 200.0
111.348473 160.0
111.414627 188.0
111.512344 228.0
111.556488 196.0
111.596436 188.0
111.626358 224.0
111.726822 204.0
111.773109 160.0
111.868874 188.0
111.90361 128.0
111.945717 104.0
112.08596 196.0
112.124786 108.0
112.143753 188.0
112.166939 132.0
112.299774 140.0
112.34407 104.0
112.363052 236.0
112.392014 176.0
112.415802 176.0
112.439018 92.0
112.519226 152.0
112.61425 164.0
112.705086 236.0
112.726219 228.0
112.787506 204.0
112.813972 184.0
112.829781 232.0
112.87841 176.0
112.927048 140.0
113.119598 136.0
113.294724 160.0
113.348328 220.0
113.386475 112.0
113.411903 188.0
113.494583 72.0
113.536995 100.0
113.653664 184.0
113.696098 184.0
113.716698 204.0
113.764542 244.0
113.821342 136.0
113.861687 168.0
113.885056 156.0
114.010399 56.0
114.034187 188.0
114.140068 196.0
114.233932 208.0
114.442757 108.0
114.467758 96.0
114.508217 128.0
114.633911 180.0
114.657349 136.0
114.855629 212.0
114.945236 188.0
114.972977 76.0
114.990051 188.0
115.040367 332.0
115.056976 200.0
115.110619 184.0
115.121902 84.0
115.127472 176.0
115.148033 160.0
115.165123 88.0
115.220657 132.0
115.247482 188.0
115.316818 176.0
115.451508 156.0
115.54776 140.0
115.629066 48.0
115.770363 132.0
115.911743 60.0
115.958885 168.0
115.993179 136.0
116.012138 128.0
116.058083 116.0
116.156143 124.0
116.229088 152.0
116.29776 52.0
116.314934 300.0
116.370743 180.0
116.400803 176.0
116.501747 152.0
116.521935 212.0
116.596291 100.0
116.725273 148.0
116.787636 132.0
116.839264 84.0
116.874939 72.0
117.045586 140.0
117.106178 220.0
117.152786 232.0
117.168648 208.0
117.250526 84.0
117.336746 164.0
117.431625 100.0
117.500603 176.0
117.627975 136.0
117.645241 136.0
117.710014 204.0
117.735924 164.0
117.762474 136.0
117.785889 180.0
117.805038 196.0
117.833122 172.0
117.897949 44.0
117.915237 88.0
117.990891 116.0
118.008186 100.0
118.044945 168.0
118.068474 168.0
118.088196 120.0
118.148766 204.0
118.285095 232.0
118.311066 56.0
118.365196 176.0
118.389015 100.0
118.64035 168.0
118.755272 116.0
118.774796 132.0
118.902802 148.0
118.920166 92.0
118.97226 160.0
119.035767 384.0
119.052505 192.0
119.189445 92.0
119.330727 164.0
119.348122 60.0
119.393784 124.0
119.485138 156.0
119.539536 40.0
119.583054 212.0
119.774658 84.0
119.817177 232.0
119.866493 132.0
119.929359 200.0
119.968597 100.0
119.999115 120.0
120.040741 180.0
120.057991 160.0
120.079796 192.0
120.110336 200.0
120.134331 188.0
120.260887 176.0
120.322006 52.0
120.391876 136.0
120.481621 224.0
120.522942 52.0
120.542603 140.0
120.573196 172.0
120.625656 100.0
120.729004 208.0
120.899048 96.0
121.01506 188.0
121.09362 160.0
121.100212 140.0
121.212189 84.0
121.2341 108.0
121.315025 152.0
121.376587 188.0
121.403938 156.0
121.422638 116.0
121.459923 252.0
121.492821 92.0
121.512566 164.0
121.565231 124.0
121.642044 196.0
121.701317 148.0
121.722282 212.0
121.991318 144.0
122.020638 156.0
122.066063 224.0
122.096855 124.0
122.176033 128.0
122.212143 160.0
122.312386 208.0
122.365837 228.0
122.453217 216.0
122.5028 192.0
122.594376 208.0
122.616409 252.0
122.682541 180.0
122.733246 112.0
122.75309 168.0
122.774895 216.0
122.79805 184.0
122.903084 196.0
122.953835 136.0
123.000183 112.0
123.040443 168.0
123.073036 164.0
123.11499 204.0
123.139282 44.0
123.223221 136.0
123.265205 200.0
123.437622 64.0
123.54821 92.0
123.767311 104.0
123.893555 180.0
123.942299 44.0
123.984398 56.0
124.004349 164.0
124.081924 144.0
124.201675 212.0
124.219421 180.0
124.28154 140.0
124.310387 132.0
124.490189 180.0
124.583473 172.0
124.670082 216.0
124.714577 180.0
124.742561 224.0
124.775719 136.0
124.805717 188.0
124.938446 212.0
124.988113 164.0
125.079353 120.0
125.181961 180.0
125.253479 180.0
125.286606 172.0
125.333237 124.0
125.450974 164.0
125.513779 148.0
125.634216 180.0
125.656525 116.0
125.712303 244.0
125.792656 72.0
125.844002 88.0
125.883286 128.0
126.058426 136.0
126.156479 216.0
126.194206 188.0
126.369225 124.0
126.409447 172.0
126.43412 212.0
126.489433 140.0
126.548279 116.0
126.570663 64.0
126.591072 144.0
126.696091 128.0
126.925308 220.0
126.9673 44.0
126.985245 132.0
127.021133 136.0
127.040962 1252.0
127.186371 56.0
127.2388 148.0
127.272484 92.0
127.408478 232.0
127.449921 120.0
127.51284 160.0
127.578026 156.0
127.629738 168.0
127.679207 180.0
127.697197 112.0
127.825432 124.0
127.901947 132.0
128.016769 100.0
128.049927 848.0
128.075546 196.0
128.149658 80.0
128.218826 208.0
128.248932 152.0
128.316071 120.0
128.354767 132.0
128.375061 84.0
128.393112 88.0
128.428894 156.0
128.558716 256.0
128.592957 180.0
128.627747 132.0
128.727081 180.0
128.834396 236.0
128.910065 308.0
128.932663 144.0
129.056427 1432.0
129.133987 160.0
129.323914 144.0
129.42009 256.0
129.475601 124.0
129.523178 160.0
129.559418 160.0
129.622849 268.0
129.652313 88.0
129.704437 132.0
129.774719 144.0
129.834396 240.0
129.851822 136.0
129.885834 120.0
129.938019 188.0
129.960709 176.0
130.008347 124.0
130.029739 340.0
130.063568 300.0
130.131927 108.0
130.19223 108.0
130.226303 116.0
130.373962 196.0
130.426239 248.0
130.47171 56.0
130.542191 76.0
130.573929 192.0
130.628616 192.0
130.648727 148.0
130.76741 160.0
130.810654 176.0
130.876678 224.0
130.940445 100.0
131.040558 468.0
131.072571 144.0
131.295959 172.0
131.359818 204.0
131.380356 212.0
131.428268 164.0
131.471619 100.0
131.53096 212.0
131.651321 244.0
131.686218 144.0
131.72049 172.0
131.775314 152.0
131.825577 148.0
131.97644 140.0
132.00502 120.0
132.044968 13604.0
132.122238 48.0
132.173218 132.0
132.212051 156.0
132.232651 228.0
132.25325 232.0
132.296738 80.0
132.390381 196.0
132.45932 56.0
132.48909 188.0
132.557831 180.0
132.596786 460.0
132.633469 108.0
132.663254 72.0
132.768051 208.0
132.810074 144.0
132.858185 132.0
132.881119 152.0
132.950317 132.0
132.977509 120.0
133.028397 1276.0
133.047028 1660.0
133.096878 60.0
133.193329 180.0
133.243942 116.0
133.282928 136.0
133.33577 196.0
133.416229 216.0
133.512802 196.0
133.604797 212.0
133.677765 168.0
133.752075 188.0
133.793503 180.0
133.823441 128.0
133.897125 148.0
133.943665 96.0
134.02504 216.0
134.053558 168.0
134.057419 124.0
134.132401 200.0
134.17363 84.0
134.21051 236.0
134.254959 260.0
134.298141 196.0
134.332748 116.0
134.381195 160.0
134.429642 156.0
134.468323 148.0
134.47644 204.0
134.508118 80.0
134.692841 76.0
134.713623 148.0
134.776001 96.0
134.84996 48.0
134.930862 120.0
134.953979 140.0
135.004852 284.0
135.023346 176.0
135.051102 72.0
135.0858 172.0
135.133896 228.0
135.252396 60.0
135.313919 160.0
135.351944 200.0
135.673996 148.0
135.808487 176.0
135.845596 72.0
135.893723 140.0
136.040253 1116.0
136.068375 116.0
136.161255 180.0
136.188812 228.0
136.254166 120.0
136.29599 52.0
136.391281 60.0
136.420135 232.0
136.451721 156.0
136.470322 140.0
136.619156 116.0
136.672668 96.0
136.68895 248.0
136.716888 128.0
136.737823 168.0
136.772736 44.0
136.833267 156.0
136.869278 188.0
136.893799 212.0
136.937042 208.0
136.996277 180.0
137.022354 168.0
137.044006 280.0
137.084808 116.0
137.194366 180.0
137.247482 168.0
137.33194 208.0
137.369247 120.0
137.415909 160.0
137.461624 216.0
137.488251 176.0
137.644653 204.0
137.707703 224.0
137.731064 60.0
137.77095 156.0
137.843201 144.0
137.885254 244.0
137.90863 140.0
137.981094 208.0
138.098022 208.0
138.254761 112.0
138.306259 176.0
138.324982 124.0
138.50293 224.0
138.559158 144.0
138.63414 168.0
138.718506 180.0
138.77243 156.0
138.802902 152.0
138.962402 192.0
139.002289 204.0
139.075043 212.0
139.161896 304.0
139.222702 188.0
139.24408 136.0
139.284012 152.0
139.312195 172.0
139.392288 180.0
139.514191 176.0
139.588303 184.0
139.641266 80.0
139.711838 132.0
139.73407 168.0
139.787125 132.0
139.820068 76.0
139.871857 180.0
139.907166 136.0
139.945709 216.0
139.980148 132.0
140.029053 136.0
140.04335 144.0
140.069641 172.0
140.173462 184.0
140.211014 244.0
140.371307 64.0
140.486877 172.0
140.538788 40.0
140.703995 96.0
140.73941 100.0
140.973251 148.0
141.055969 172.0
141.152176 208.0
141.186005 192.0
141.254593 128.0
141.377625 64.0
141.403656 56.0
141.422318 152.0
141.467575 184.0
141.503082 148.0
141.522232 184.0
141.552795 84.0
141.709122 56.0
141.772125 188.0
141.882141 124.0
141.955643 96.0
142.028244 280.0
142.066238 448.0
142.119308 40.0
142.261703 104.0
142.378036 172.0
142.401794 96.0
142.442169 116.0
142.496811 184.0
142.596603 76.0
142.617126 120.0
142.658417 68.0
142.703766 228.0
142.789185 100.0
142.851028 124.0
142.881958 204.0
143.180603 172.0
143.222351 352.0
143.262848 88.0
143.408203 148.0
143.42868 192.0
143.463028 188.0
143.515472 116.0
143.577133 200.0
143.658569 76.0
143.701508 160.0
143.737305 192.0
143.875732 112.0
143.93541 184.0
143.956909 160.0
144.052048 172.0
144.232407 240.0
144.255554 60.0
144.351196 80.0
144.69873 188.0
144.825043 292.0
144.860962 140.0
144.985565 48.0
145.04985 288.0
145.110199 184.0
145.167755 128.0
145.266083 76.0
145.396667 132.0
145.518066 88.0
145.539673 188.0
145.566086 44.0
145.640533 196.0
145.724609 44.0
145.880829 196.0
145.904861 128.0
145.940918 96.0
146.05983 528.0
146.102066 208.0
146.176651 164.0
146.199295 232.0
146.270737 168.0
146.289764 248.0
146.369217 148.0
146.410202 196.0
146.487228 176.0
146.578781 52.0
146.660706 120.0
146.689636 168.0
146.726456 204.0
146.79277 196.0
146.899429 132.0
146.974213 148.0
147.032135 152.0
147.062805 248.0
147.128677 112.0
147.176971 40.0
147.259888 200.0
147.336365 84.0
147.512772 100.0
147.544205 136.0
147.706223 172.0
147.962723 140.0
148.049896 156.0
148.069275 164.0
148.117706 172.0
148.234009 128.0
148.265503 140.0
148.297012 104.0
148.326096 172.0
148.372162 132.0
148.522507 176.0
148.549179 204.0
148.600128 80.0
148.623489 184.0
148.711746 120.0
148.731171 44.0
148.906403 272.0
149.048569 884.0
149.078461 264.0
149.105194 176.0
149.139221 196.0
149.258347 152.0
149.302109 88.0
149.336166 144.0
149.418869 196.0
149.4505 128.0
149.482132 112.0
149.574615 136.0
149.643082 188.0
149.662247 204.0
149.832733 124.0
149.886337 132.0
149.998444 140.0
150.020386 96.0
150.043716 336.0
150.060699 284.0
150.093689 120.0
150.186188 76.0
150.210587 180.0
150.271576 156.0
150.444565 172.0
150.474136 136.0
150.505402 20.0
150.671967 188.0
150.71106 140.0
150.777039 160.0
150.857697 132.0
150.928589 156.0
150.960373 156.0
150.979935 136.0
151.085114 140.0
151.222137 112.0
151.271103 208.0
151.346985 176.0
151.371475 164.0
151.588608 128.0
151.643402 80.0
151.695465 100.0
151.729202 88.0
151.829727 136.0
151.930298 132.0
151.984268 164.0
152.045609 72.0
152.099609 48.0
152.201447 188.0
152.273926 184.0
152.291122 56.0
152.495895 244.0
152.515808 152.0
152.605667 120.0
152.758148 144.0
152.841797 280.0
152.859009 56.0
152.95253 152.0
153.009155 132.0
153.206161 160.0
153.30719 148.0
153.398132 200.0
153.469879 144.0
153.587402 164.0
153.701721 60.0
153.756012 156.0
153.79303 220.0
153.874496 180.0
153.894241 148.0
153.91153 228.0
153.993835 224.0
154.015259 112.0
154.062119 144.0
154.094299 164.0
154.15361 148.0
154.220337 164.0
154.247513 32.0
154.272232 128.0
154.311798 136.0
154.366196 112.0
154.393387 220.0
154.460175 136.0
154.52449 152.0
154.588821 180.0
154.753738 172.0
154.775192 152.0
154.894821 260.0
154.952393 196.0
154.991028 176.0
155.036026 1208.0
155.061829 192.0
155.09404 184.0
155.258453 228.0
155.37674 104.0
155.400162 172.0
155.458618 256.0
155.483429 188.0
155.515701 140.0
155.580231 232.0
155.610031 176.0
155.637329 100.0
155.664642 72.0
155.749084 148.0
155.826096 188.0
155.865845 68.0
155.900635 104.0
155.925491 196.0
155.945374 48.0
156.009995 100.0
156.044693 9648.0
156.141785 108.0
156.189041 40.0
156.208939 152.0
156.231323 128.0
156.294495 124.0
156.328354 140.0
156.361313 140.0
156.390579 200.0
156.408005 152.0
156.485168 48.0
156.56485 52.0
156.602203 28.0
156.644058 164.0
156.686905 128.0
156.73175 172.0
156.781586 172.0
156.886276 164.0
156.943619 232.0
157.051239 3056.0
157.098236 72.0
157.14064 100.0
157.190552 140.0
157.208023 120.0
157.237961 256.0
157.289444 88.0
157.340302 200.0
157.49263 168.0
157.620041 156.0
157.792496 208.0
157.88501 176.0
157.972549 188.0
158.005554 144.0
158.024002 152.0
158.058044 308.0
158.089493 152.0
158.110168 36.0
158.150208 56.0
158.227814 120.0
158.29541 132.0
158.340485 188.0
158.373047 140.0
158.405609 168.0
158.490784 88.0
158.628632 116.0
158.647232 132.0
158.774048 204.0
158.819183 36.0
158.846893 168.0
158.869354 184.0
158.89946 176.0
159.031342 740.0
159.124481 360.0
159.228287 240.0
159.305801 84.0
159.50946 88.0
159.549911 128.0
159.582596 176.0
159.624863 148.0
159.635071 120.0
159.675644 152.0
159.741898 164.0
159.810913 156.0
159.85173 116.0
159.899353 204.0
159.934784 36.0
159.954254 120.0
160.005264 200.0
160.039291 23804.0
160.080429 160.0
160.122574 156.0
160.145447 72.0
160.179031 72.0
160.209259 76.0
160.242004 128.0
160.269714 148.0
160.299957 172.0
160.335236 44.0
160.366074 140.0
160.405807 52.0
160.450378 76.0
160.488998 76.0
160.507248 68.0
160.589874 128.0
160.635269 48.0
160.697098 204.0
160.794235 208.0
160.893143 172.0
160.945694 176.0
160.978882 56.0
161.043564 1520.0
161.078491 132.0
161.165436 64.0
161.188171 92.0
161.208389 216.0
161.233658 112.0
161.305603 112.0
161.399277 140.0
161.445312 144.0
161.468781 164.0
161.496597 164.0
161.62561 120.0
161.719254 164.0
161.757217 208.0
161.823029 216.0
161.868835 132.0
161.91925 188.0
161.949646 212.0
161.972443 184.0
161.990173 148.0
162.018555 2524.0
162.081375 48.0
162.121918 40.0
162.180222 96.0
162.203033 168.0
162.304428 96.0
162.322189 108.0
162.362762 136.0
162.456604 68.0
162.474365 128.0
162.529434 136.0
162.646912 72.0
162.916077 196.0
162.983932 204.0
163.022308 340.0
163.129547 36.0
163.189941 232.0
163.251587 88.0
163.292267 104.0
163.615433 172.0
163.65361 216.0
163.692825 140.0
163.735092 148.0
163.795059 152.0
163.842072 84.0
163.914368 160.0
163.984772 120.0
164.034027 820.0
164.139603 196.0
164.173431 220.0
164.221878 48.0
164.323914 396.0
164.357086 168.0
164.380646 120.0
164.415634 144.0
164.492355 132.0
164.513977 168.0
164.558716 44.0
164.694061 44.0
164.908691 160.0
164.980255 180.0
165.041611 96.0
165.115768 36.0
165.18483 120.0
165.236099 188.0
165.292282 96.0
165.494492 204.0
165.686569 152.0
165.742279 148.0
165.766006 220.0
166.004395 180.0
166.086472 156.0
166.178818 108.0
166.196777 164.0
166.23526 132.0
166.263489 72.0
166.319839 168.0
166.517288 196.0
166.545898 164.0
166.646088 180.0
166.712906 204.0
166.730896 120.0
166.748871 164.0
166.80542 104.0
166.977692 60.0
167.000839 140.0
167.026566 240.0
167.119171 196.0
167.283875 160.0
167.358536 112.0
167.381714 148.0
167.451248 136.0
167.543976 156.0
167.600647 132.0
167.644455 176.0
167.738281 208.0
167.809418 196.0
167.858414 124.0
167.889359 116.0
168.045837 120.0
168.087982 136.0
168.133453 180.0
168.30481 116.0
168.400345 84.0
168.599487 148.0
168.630524 180.0
168.687164 160.0
168.738861 144.0
168.767303 120.0
168.787979 152.0
168.883667 180.0
168.992325 144.0
169.037796 188.0
169.067352 92.0
169.199371 156.0
169.233017 124.0
169.269272 96.0
169.544983 212.0
169.563904 240.0
169.595688 160.0
169.652725 140.0
169.733093 148.0
169.751236 120.0
169.873138 108.0
169.953568 112.0
170.024796 212.0
170.063263 320.0
170.093704 332.0
170.130051 124.0
170.189758 172.0
170.420914 176.0
170.569931 188.0
170.615845 156.0
170.719849 144.0
170.83168 172.0
170.868103 140.0
170.927948 212.0
171.011215 156.0
171.051224 216.0
171.094513 128.0
171.129669 144.0
171.255157 168.0
171.302841 48.0
171.472198 132.0
171.503479 152.0
171.571259 52.0
171.64183 120.0
171.685974 148.0
171.795532 136.0
172.04216 592.0
172.124374 68.0
172.153091 152.0
172.189651 72.0
172.262787 92.0
172.297363 104.0
172.320267 100.0
172.402069 104.0
172.432632 208.0
172.497971 80.0
172.647324 96.0
172.667923 204.0
172.743774 188.0
172.806564 132.0
172.837952 160.0
172.856277 112.0
172.900757 240.0
172.924316 136.0
172.976654 84.0
173.046295 516.0
173.141617 108.0
173.319351 160.0
173.419327 204.0
173.642166 160.0
173.71579 116.0
173.951782 172.0
174.021286 204.0
174.055023 2600.0
174.098816 164.0
174.117188 80.0
174.180222 48.0
174.287933 48.0
174.516602 212.0
174.577087 100.0
174.690186 160.0
174.734909 160.0
174.782257 72.0
174.911209 204.0
174.963867 168.0
175.003357 120.0
175.030212 160.0
175.059906 700.0
175.110352 152.0
175.303635 172.0
175.506592 32.0
175.672806 236.0
175.712326 136.0
175.741348 148.0
175.766449 132.0
175.820511 120.0
175.923447 100.0
175.949844 168.0
175.968323 124.0
176.034454 328.0
176.05545 368.0
176.084503 172.0
176.155823 188.0
176.19545 96.0
176.361923 148.0
176.425369 180.0
176.446518 176.0
176.57872 68.0
176.697754 184.0
176.811539 88.0
176.835358 140.0
176.862167 152.0
176.88829 108.0
176.935944 152.0
177.060394 160.0
177.162811 228.0
177.420746 120.0
177.58931 224.0
177.624939 120.0
177.741669 152.0
177.760239 156.0
177.781952 196.0
178.049805 280.0
178.115997 156.0
178.159851 172.0
178.23674 168.0
178.270081 180.0
178.41095 152.0
178.517303 96.0
178.535919 124.0
178.607727 152.0
178.631668 68.0
178.743408 180.0
178.77002 76.0
178.863174 104.0
178.894562 96.0
179.022903 152.0
179.060196 188.0
179.081497 40.0
179.135605 128.0
179.246674 208.0
179.371933 124.0
179.435913 100.0
179.558975 128.0
179.62085 136.0
179.675934 128.0
179.782654 176.0
179.822693 132.0
179.84938 156.0
179.876068 180.0
179.926788 132.0
180.036331 384.0
180.169815 116.0
180.284698 180.0
180.351517 212.0
180.434036 184.0
180.584137 48.0
180.637619 136.0
180.859711 348.0
181.01181 128.0
181.065735 156.0
181.098007 156.0
181.183731 252.0
181.221237 200.0
181.365936 148.0
181.465134 204.0
181.5858 36.0
181.652847 156.0
181.789688 40.0
181.880936 76.0
182.044693 164.0
182.10289 240.0
182.15213 36.0
182.307953 108.0
182.337524 64.0
182.377838 176.0
182.396652 160.0
182.447723 192.0
182.509567 92.0
182.536453 104.0
182.557968 168.0
182.58754 152.0
182.616196 256.0
182.730759 212.0
182.789291 116.0
182.821594 156.0
182.864655 188.0
182.913101 60.0
182.975006 164.0
183.033066 1040.0
183.162064 156.0
183.166992 220.0
183.190033 128.0
183.25798 180.0
183.288971 176.0
183.387146 128.0
183.532715 124.0
183.619019 244.0
183.640594 140.0
183.856415 352.0
183.967087 164.0
184.038788 8800.0
184.134491 168.0
184.19931 56.0
184.223618 196.0
184.28035 116.0
184.36142 188.0
184.491989 88.0
184.537109 152.0
184.612823 80.0
184.683136 100.0
184.727631 116.0
184.75618 180.0
184.78746 144.0
184.831924 224.0
184.877075 180.0
184.941757 144.0
184.965866 180.0
185.046738 4072.0
185.21907 36.0
185.278656 76.0
185.319305 48.0
185.338257 144.0
185.377975 196.0
185.471054 152.0
185.522552 144.0
185.546951 96.0
185.715073 136.0
185.82901 168.0
185.862579 184.0
185.908386 156.0
185.937546 32.0
185.98912 40.0
186.01355 156.0
186.053329 1460.0
186.127579 104.0
186.154724 140.0
186.213013 208.0
186.253159 148.0
186.312256 92.0
186.377472 156.0
186.396744 204.0
186.450836 116.0
186.605774 204.0
186.654709 108.0
186.678833 248.0
186.755341 60.0
186.7771 236.0
186.847824 72.0
186.903458 156.0
186.940338 64.0
186.970261 148.0
187.023605 700.0
187.059753 132.0
187.144943 184.0
187.171707 128.0
187.226166 116.0
187.25415 188.0
187.300751 124.0
187.407547 184.0
187.42775 136.0
187.454987 48.0
187.51767 152.0
187.588547 172.0
187.613495 204.0
187.634888 180.0
187.668549 104.0
187.69487 176.0
187.713226 136.0
187.763046 160.0
187.798584 132.0
187.844864 80.0
187.883057 156.0
187.919693 112.0
187.952728 168.0
187.993988 188.0
188.004745 188.0
188.034851 97392.0
188.102417 112.0
188.138687 236.0
188.149597 60.0
188.154678 256.0
188.187775 464.0
188.223511 108.0
188.264786 112.0
188.298492 60.0
188.345581 100.0
188.410355 80.0
188.419571 84.0
188.483856 336.0
188.516495 104.0
188.565063 200.0
188.595749 60.0
188.619614 44.0
188.65239 232.0
188.691422 52.0
188.730453 64.0
188.768631 168.0
188.817215 36.0
188.860977 72.0
188.880112 128.0
188.899261 108.0
188.956009 108.0
188.979492 128.0
189.037994 8160.0
189.126373 48.0
189.152039 160.0
189.203476 140.0
189.213425 60.0
189.223633 128.0
189.2742 32.0
189.331711 128.0
189.350876 188.0
189.378265 108.0
189.474136 220.0
189.496063 48.0
189.517242 180.0
189.56839 220.0
189.608643 236.0
189.682404 56.0
189.743774 52.0
189.83046 100.0
189.877075 136.0
189.937408 92.0
189.964844 40.0
190.037064 1288.0
190.121017 100.0
190.127563 144.0
190.173386 108.0
190.255569 284.0
190.332596 112.0
190.399551 136.0
190.463562 140.0
190.487198 192.0
190.519363 88.0
190.596283 132.0
190.640259 132.0
190.686981 204.0
190.717209 132.0
190.791428 120.0
190.87941 116.0
191.03067 160.0
191.055313 100.0
191.159988 48.0
191.25177 68.0
191.289337 104.0
191.316864 36.0
191.358154 84.0
191.527939 180.0
191.575729 44.0
191.628067 136.0
191.650101 48.0
192.025925 336.0
192.173965 68.0
192.212601 112.0
192.258957 128.0
192.374191 152.0
192.466537 200.0
192.532883 160.0
192.599091 88.0
192.709595 124.0
192.979935 216.0
193.008102 208.0
193.127014 176.0
193.146378 112.0
193.168503 196.0
193.198929 224.0
193.384323 172.0
193.533813 104.0
193.589188 140.0
193.699966 176.0
193.76091 56.0
193.841263 136.0
193.860672 52.0
193.896698 108.0
193.993118 228.0
194.096222 192.0
194.156693 56.0
194.232178 128.0
194.271011 164.0
194.333969 196.0
194.522278 152.0
194.77066 172.0
194.913528 96.0
194.992935 60.0
195.051163 164.0
195.09021 168.0
195.123581 148.0
195.16806 80.0
195.204208 144.0
195.284851 180.0
195.410034 324.0
195.515762 156.0
195.576996 156.0
195.718979 84.0
195.785812 56.0
195.904907 100.0
195.936218 132.0
196.125702 168.0
196.175873 196.0
196.273453 168.0
196.371063 228.0
196.429642 144.0
196.677979 156.0
196.711472 148.0
196.892944 72.0
197.057755 156.0
197.124817 60.0
197.186295 60.0
197.214249 108.0
197.440704 244.0
197.591751 240.0
197.742844 152.0
197.770844 144.0
197.906036 228.0
198.021454 156.0
198.238541 192.0
198.513245 136.0
198.776932 160.0
198.851318 192.0
198.948135 60.0
198.973404 184.0
199.029556 216.0
199.206482 108.0
199.338531 120.0
199.372253 156.0
199.509979 172.0
199.684311 152.0
199.743378 160.0
199.765884 116.0
199.796829 140.0
199.855911 180.0
199.914993 208.0
199.965576 140.0
200.048126 336.0
200.070282 1332.0
200.107269 180.0
200.311981 104.0
200.35141 136.0
200.506393 172.0
200.54303 224.0
200.621948 100.0
200.844711 160.0
200.909592 128.0
200.991409 56.0
201.040756 1008.0
201.076065 196.0
201.126877 32.0
201.157928 200.0
201.197449 72.0
201.222855 100.0
201.332977 176.0
201.35556 92.0
201.467407 232.0
201.785065 180.0
201.807693 128.0
201.932114 212.0
201.97171 172.0
202.048798 6680.0
202.196121 168.0
202.285797 72.0
202.350906 160.0
202.455673 72.0
202.534973 140.0
202.56897 44.0
202.656784 136.0
202.730453 148.0
202.775803 100.0
202.937378 232.0
203.013931 104.0
203.055237 1292.0
203.101898 164.0
203.215332 140.0
203.39978 36.0
203.578644 180.0
203.695099 48.0
203.734863 32.0
203.797363 108.0
203.854202 216.0
203.899673 156.0
203.950821 84.0
204.030762 168.0
204.057617 472.0
204.141312 52.0
204.166367 148.0
204.217987 116.0
204.272141 120.0
204.506287 136.0
204.582306 68.0
204.699036 160.0
204.718979 176.0
204.861374 48.0
204.90126 128.0
204.952545 52.0
205.040894 176.0
205.095032 204.0
205.32312 156.0
205.351639 188.0
205.385864 140.0
205.442917 132.0
205.482864 220.0
205.539917 152.0
205.57988 148.0
205.825363 144.0
206.044022 1676.0
206.116714 68.0
206.148148 128.0
206.200073 212.0
206.302475 144.0
206.388702 124.0
206.428284 248.0
206.682861 120.0
206.78302 164.0
206.911819 172.0
207.067184 216.0
207.139008 156.0
207.169556 104.0
207.390198 92.0
207.557129 176.0
207.619553 164.0
207.760101 176.0
207.823227 224.0
207.880615 176.0
207.906433 168.0
208.113113 152.0
208.176285 200.0
208.272537 132.0
208.328506 128.0
208.348618 52.0
208.586273 176.0
208.617569 176.0
208.762497 204.0
208.831528 156.0
208.894806 92.0
208.923569 132.0
209.317871 148.0
209.361069 164.0
209.384109 128.0
209.438828 52.0
209.48204 148.0
209.755783 188.0
209.980667 80.0
210.044128 108.0
210.090286 136.0
210.206497 124.0
210.26918 108.0
210.292267 96.0
210.373093 120.0
210.453918 144.0
210.531891 120.0
210.916138 156.0
211.049118 148.0
211.156113 164.0
211.286285 136.0
211.347031 180.0
211.37886 64.0
211.41069 268.0
211.433853 172.0
211.468582 148.0
211.702682 148.0
211.798645 192.0
212.00145 204.0
212.034439 1908.0
212.107819 140.0
212.156662 152.0
212.201447 44.0
212.366745 164.0
212.40155 124.0
212.442154 164.0
212.526291 148.0
212.555313 228.0
212.630753 152.0
212.764282 184.0
212.813629 164.0
212.857773 256.0
212.883316 92.0
212.947205 144.0
212.977478 208.0
213.039917 644.0
213.141846 124.0
213.403442 168.0
213.551743 160.0
213.612823 136.0
213.659363 132.0
213.713623 148.0
213.825226 228.0
213.927094 152.0
213.976593 144.0
214.016281 120.0
214.049133 2816.0
214.128006 36.0
214.148392 164.0
214.256165 64.0
214.285294 220.0
214.389297 168.0
214.498032 72.0
214.521347 100.0
214.597153 120.0
214.624817 148.0
214.675873 72.0
214.696289 76.0
214.737122 104.0
214.77504 160.0
214.836288 132.0
214.903397 96.0
214.926743 84.0
215.006805 208.0
215.013733 192.0
215.04715 544.0
215.125443 96.0
215.172272 160.0
215.23613 224.0
215.274094 152.0
215.309143 212.0
215.355865 312.0
215.399612 184.0
215.434738 44.0
215.466873 108.0
215.497391 168.0
215.519455 180.0
215.563736 256.0
215.602081 220.0
215.663071 156.0
215.703568 104.0
215.772186 324.0
215.81366 316.0
215.858871 216.0
215.905304 64.0
215.939209 192.0
215.952652 424.0
215.96579 528.0
216.029755 157236.0
216.096497 472.0
216.117661 172.0
216.140823 116.0
216.169937 52.0
216.201477 128.0
216.244522 196.0
216.271606 220.0
216.29361 92.0
216.373642 76.0
216.382751 144.0
216.442947 120.0
216.469269 268.0
216.511139 672.0
216.538315 264.0
216.558289 232.0
216.614578 72.0
216.653717 92.0
216.692703 100.0
216.75032 144.0
216.777679 168.0
216.824005 120.0
216.862167 48.0
216.896561 296.0
216.934082 296.0
216.962326 88.0
216.998383 356.0
217.032043 17628.0
217.135788 228.0
217.182251 44.0
217.222778 88.0
217.264725 68.0
217.317184 120.0
217.364136 48.0
217.395782 92.0
217.422012 72.0
217.468719 88.0
217.503326 292.0
217.542221 124.0
217.63092 116.0
217.663864 156.0
217.719955 56.0
217.779205 104.0
217.806076 180.0
217.833878 100.0
217.860321 64.0
217.937729 240.0
217.960205 120.0
217.987976 80.0
218.034241 1384.0
218.115967 140.0
218.151245 92.0
218.192825 164.0
218.267471 60.0
218.307068 112.0
218.357178 120.0
218.390305 144.0
218.431961 120.0
218.482666 160.0
218.53125 120.0
218.567001 152.0
218.640656 264.0
218.684097 116.0
218.718948 268.0
218.766052 48.0
218.824097 184.0
218.966263 40.0
219.035721 420.0
219.092926 68.0
219.128281 136.0
219.179733 56.0
219.238617 116.0
219.284454 180.0
219.337509 128.0
219.384674 72.0
219.409073 116.0
219.472916 60.0
219.58223 104.0
219.62352 88.0
219.660614 104.0
219.689606 204.0
219.739365 204.0
219.788727 44.0
219.835938 140.0
219.906769 108.0
219.99826 52.0
220.134079 44.0
220.237442 40.0
220.287659 52.0
220.413071 124.0
220.46936 80.0
220.730972 60.0
220.891693 116.0
221.006058 244.0
221.168823 172.0
221.245789 44.0
221.379028 80.0
221.435287 56.0
221.530075 52.0
221.715363 104.0
221.773041 96.0
221.817505 68.0
221.97168 96.0
222.048782 76.0
222.105133 80.0
222.481979 116.0
222.538391 108.0
222.654205 68.0
222.844315 188.0
222.989914 148.0
223.102859 124.0
223.302078 104.0
224.141571 152.0
224.204147 176.0
224.311447 168.0
224.442627 124.0
224.544006 56.0
224.752823 84.0
224.803558 184.0
224.881149 36.0
224.961731 72.0
225.000549 116.0
225.242432 144.0
225.430649 200.0
225.478455 184.0
225.526276 68.0
225.592041 112.0
225.657806 60.0
225.717606 60.0
225.90303 156.0
226.034683 68.0
226.154388 56.0
226.552628 132.0
226.618546 128.0
227.03598 212.0
227.06218 152.0
227.164169 184.0
227.269165 144.0
227.464233 80.0
227.515259 92.0
227.581314 288.0
227.746475 68.0
227.935745 136.0
228.059982 128.0
228.107056 196.0
228.173187 176.0
228.206253 104.0
228.299469 76.0
228.576218 84.0
228.744751 88.0
228.8983 132.0
228.919373 108.0
228.94046 96.0
229.060928 184.0
229.208557 80.0
229.389374 92.0
229.416504 68.0
229.504272 144.0
229.591385 104.0
229.633606 200.0
229.687897 96.0
229.749527 164.0
229.775375 68.0
229.885406 164.0
229.935303 132.0
229.994064 208.0
230.043533 1388.0
230.102692 124.0
230.140564 192.0
230.237198 124.0
230.258331 176.0
230.309677 116.0
230.458771 96.0
230.478851 200.0
230.5 160.0
230.529495 216.0
230.575562 48.0
230.625748 160.0
230.650803 152.0
230.658859 136.0
230.671249 188.0
230.719833 268.0
230.750458 88.0
230.794846 128.0
230.83284 212.0
230.86142 196.0
230.883621 156.0
230.901535 116.0
230.9272 116.0
230.95697 332.0
231.053101 139600.0
231.11911 48.0
231.153397 96.0
231.19249 56.0
231.214539 272.0
231.254364 164.0
231.276321 40.0
231.285172 64.0
231.33754 52.0
231.393204 256.0
231.446426 60.0
231.456818 112.0
231.509399 160.0
231.55098 936.0
231.584198 184.0
231.646988 132.0
231.706375 108.0
231.760071 308.0
231.782654 112.0
231.823456 128.0
231.873886 188.0
231.913284 84.0
231.969559 216.0
232.001419 208.0
232.055832 15556.0
232.117584 112.0
232.167328 112.0
232.200012 84.0
232.246796 144.0
232.273529 64.0
232.298691 92.0
232.342102 144.0
232.362488 88.0
232.439438 128.0
232.466721 100.0
232.492554 60.0
232.519867 76.0
232.54863 100.0
232.589676 68.0
232.629135 36.0
232.656143 80.0
232.747528 128.0
232.834854 112.0
232.886063 84.0
232.965851 100.0
232.977844 128.0
233.058945 1884.0
233.109863 88.0
233.139389 72.0
233.194763 124.0
233.239685 52.0
233.275208 64.0
233.310059 132.0
233.34285 132.0
233.354523 72.0
233.388275 132.0
233.45726 116.0
233.509842 56.0
233.519409 88.0
233.53833 136.0
233.5634 284.0
233.61058 160.0
233.667557 148.0
233.695847 212.0
233.731537 164.0
233.776108 116.0
233.827835 132.0
233.894958 84.0
233.945389 92.0
234.006287 96.0
234.040833 452.0
234.092209 156.0
234.13562 92.0
234.192032 64.0
234.249527 32.0
234.282272 64.0
234.387009 104.0
234.436554 108.0
234.496719 44.0
234.521088 96.0
234.565033 192.0
234.58815 68.0
234.63208 108.0
234.749741 148.0
234.81073 44.0
234.850388 120.0
234.871735 84.0
234.917496 56.0
234.95488 124.0
235.158539 48.0
235.213486 60.0
235.244003 120.0
235.353912 36.0
235.586014 68.0
235.622681 120.0
235.726562 144.0
235.946625 84.0
235.968033 88.0
236.469696 40.0
236.763596 84.0
236.895294 36.0
237.520615 60.0
237.566635 60.0
238.629211 148.0
238.964447 72.0
239.109085 92.0
239.413849 36.0
240.369461 40.0
240.428101 40.0
240.576248 96.0
240.900497 112.0
241.05806 64.0
241.113678 88.0
241.15387 76.0
241.296051 88.0
241.695038 76.0
242.230621 116.0
242.893967 68.0
244.176712 128.0
244.204697 104.0
244.497147 52.0
244.733719 140.0
245.004684 156.0
245.06076 72.0
245.203613 128.0
245.428543 60.0
245.52832 44.0
245.896454 92.0
246.029053 176.0
246.075516 5668.0
246.119247 132.0
246.258621 32.0
246.305466 44.0
246.38356 88.0
246.417938 76.0
246.686691 56.0
246.936829 52.0
247.079758 868.0
247.199615 124.0
247.515762 60.0
247.816452 32.0
248.085968 296.0
248.456024 84.0
248.477982 44.0
248.56897 128.0
248.681946 88.0
249.476639 40.0
249.828842 120.0
249.98616 104.0
250.143524 52.0
250.33873 100.0
250.401703 96.0
250.675781 44.0
252.187454 136.0
252.626968 104.0
254.6651 76.0
255.313446 148.0
255.434311 104.0
255.562012 84.0
258.974091 112.0
259.297699 84.0
259.390656 32.0
260.85437 64.0
262.822113 40.0
265.377289 80.0
268.01474 44.0
271.019257 88.0
273.724945 56.0
273.847656 68.0
273.949768 100.0
274.859711 48.0
277.412933 64.0
277.999969 84.0
279.02301 132.0
284.179688 40.0
284.387726 56.0
285.466125 44.0
286.310791 68.0
293.423157 136.0
295.544128 104.0
296.269928 172.0
298.02652 60.0
299.788269 76.0
301.510315 124.0
301.607086 120.0
302.869995 64.0
303.80246 124.0
304.264008 124.0
305.410736 60.0
305.581177 68.0
307.183685 124.0
308.670013 48.0
309.812469 72.0
310.516998 108.0
312.740997 80.0
315.662079 64.0
318.923645 44.0
320.824463 28.0
323.643311 56.0
323.843842 60.0
324.976624 48.0
326.650726 60.0
327.316528 72.0
328.314697 48.0
328.902771 48.0
329.141052 124.0
330.366241 104.0
331.148071 124.0
331.198792 124.0
332.279022 92.0
333.411926 148.0
337.58963 56.0
339.658905 56.0
340.422302 64.0
342.017853 100.0
342.238739 40.0
342.7323 132.0
344.702698 48.0
345.394012 88.0
353.085602 56.0
355.803436 72.0
357.185059 92.0
359.309692 60.0
359.532318 84.0
359.687042 108.0
360.880798 112.0
363.407074 84.0
364.728607 32.0
367.08139 112.0
367.779541 68.0
369.036346 108.0
372.811951 104.0
373.01181 124.0
376.166626 108.0
378.50174 92.0
378.687622 88.0
378.989777 104.0
379.439362 92.0
380.517883 96.0
381.776825 104.0
382.652313 64.0
383.115753 80.0
386.211182 92.0
386.919464 48.0
392.198975 92.0
393.800873 92.0
393.832458 84.0
401.133453 84.0
402.302277 96.0
402.953217 68.0
404.905212 80.0
405.317841 88.0
406.488678 96.0
408.529694 100.0
408.851562 64.0
412.845367 100.0
413.646454 64.0
416.16803 168.0
416.391388 60.0
416.97641 100.0
417.907623 64.0
420.462555 104.0
422.967957 80.0
425.082703 160.0
425.439758 92.0
425.624512 108.0
426.195465 60.0
427.280853 36.0
428.301758 40.0
428.375885 48.0
429.134186 68.0
431.334534 188.0
431.950623 92.0
432.972931 244.0
438.23175 52.0
441.203247 48.0
442.366211 72.0
443.824127 124.0
445.910461 96.0
448.574768 96.0
450.46521 108.0
454.860565 44.0
462.11377 88.0
464.276886 128.0
468.467529 92.0
469.937622 96.0
471.989258 92.0
481.90799 104.0
485.746521 68.0
485.984192 108.0
494.940582 44.0
495.702454 60.0
497.196869 48.0
499.37381 28.0
502.862335 80.0
506.672058 32.0
508.313049 120.0
512.454163 116.0
514.953247 80.0
516.774963 48.0
518.622559 96.0
523.551941 40.0
524.489319 76.0
526.621277 88.0
532.557129 80.0
533.333618 84.0
536.154846 60.0
536.777222 80.0
541.95874 44.0
545.04425 116.0
548.697876 60.0
549.0802 72.0
556.48291 60.0
558.672974 84.0
563.070618 40.0
563.859619 104.0
565.78949 104.0
580.406921 76.0
581.063965 116.0
587.814453 96.0
593.488281 100.0
596.930908 108.0
601.920654 20.0
609.011841 124.0
619.047974 116.0
622.787354 64.0
627.843872 92.0
635.42688 36.0
644.802856 168.0
648.639343 80.0
652.497437 48.0
655.632874 68.0
660.196716 132.0
660.61615 96.0
669.835449 132.0
673.270447 120.0
674.045288 160.0
679.139404 68.0
687.406006 64.0
692.728394 64.0
693.116089 60.0
696.930603 96.0
703.318481 208.0
708.707275 52.0
718.084473 80.0
721.036804 64.0
724.864136 96.0
731.151306 56.0
732.389648 80.0
742.919495 64.0
743.81488 44.0
749.339966 56.0
756.882751 52.0
765.261414 80.0
765.327515 96.0
765.801086 72.0
768.673279 120.0
771.108643 72.0
774.223328 44.0
775.032043 120.0
776.295898 60.0
777.582886 152.0
778.476685 68.0
781.617371 104.0
782.057007 200.0
792.695801 40.0
808.29364 156.0
823.763489 72.0
839.616455 224.0
849.907288 124.0
857.280457 152.0
859.36792 124.0
862.223328 128.0
862.837036 172.0
863.983276 28.0
872.257507 92.0
877.956726 28.0
879.289978 52.0
881.427673 144.0
882.213745 56.0
892.178955 44.0
908.122131 76.0
910.264526 144.0
912.962646 64.0
918.968079 60.0
920.531433 76.0
924.394043 140.0
924.533264 164.0
928.889465 60.0
929.811707 52.0
936.006165 84.0
937.431519 200.0
942.184509 68.0
947.219055 120.0
948.595703 192.0
950.25354 168.0
951.775696 188.0
956.404846 40.0
956.675659 228.0
958.190613 128.0
966.024597 144.0
969.243958 136.0
970.093018 208.0
975.450073 112.0
981.520081 124.0
982.193665 124.0
987.058655 96.0
989.110657 108.0
989.173279 216.0
990.312805 72.0
996.190125 144.0
999.226562 152.0
1010.741211 196.0
1012.545349 188.0
1016.247253 204.0
1017.751465 64.0
1018.9328 248.0
1021.997253 196.0
1024.282715 72.0
1025.321289 168.0
1026.111694 204.0
1032.771973 164.0
1033.597168 152.0
1034.851685 172.0
1035.408813 112.0
1035.543335 192.0
1041.55957 104.0
1041.810059 144.0
1051.158569 148.0
1053.75415 172.0
1056.812378 140.0
1057.317017 272.0
1057.698853 128.0
1058.249146 224.0
1058.670044 160.0
1068.30835 156.0
1069.004517 168.0
1071.719849 216.0
1072.834229 60.0
1074.099365 36.0
1074.843018 208.0
1075.286743 188.0
1077.879272 116.0
1082.746216 224.0
1082.805176 176.0
1083.067139 300.0
1083.355347 160.0
1089.029297 156.0
1090.132935 124.0
1092.513062 168.0
1095.534668 168.0
1096.219849 152.0
1102.792969 212.0
1105.96106 160.0
1106.358276 176.0
1107.146118 172.0
1109.816528 136.0
1114.901245 72.0
1117.088623 168.0
1118.739014 72.0
1119.165039 116.0
1119.904297 156.0
1120.064087 140.0
1121.303345 144.0
1121.530029 116.0
1122.103271 48.0
1124.711548 144.0
1128.526001 148.0
1131.724243 48.0
1131.931763 172.0
1131.985352 168.0
1132.105835 48.0
1132.407227 172.0
1134.336914 160.0
1142.973633 148.0
1145.201904 184.0
1147.328247 192.0
1148.686646 148.0
1151.41333 76.0
1154.657349 176.0
1155.516357 208.0
1156.436646 44.0
1163.194336 136.0
1163.3573 148.0
1163.513428 188.0
1165.353882 188.0
1167.610718 220.0
1167.869141 36.0
1169.481689 236.0
1170.400635 236.0
1171.721924 56.0
1172.423828 180.0
1173.289429 28.0
1174.080322 196.0
1178.332886 184.0
1179.310059 200.0
1180.704712 224.0
1182.06604 168.0
1182.271362 88.0
1183.304932 124.0
1184.140259 204.0
1184.188232 96.0
1184.544434 76.0
1187.011597 196.0
1189.049072 200.0
1190.291626 180.0
1192.689209 120.0
1194.27063 28.0
1194.607666 204.0
1195.137451 140.0
1197.422852 192.0
1197.787842 196.0
1198.931519 136.0
1203.415161 68.0
1207.491333 172.0
1209.512451 68.0
1211.319702 140.0
1216.02063 160.0
1218.666382 168.0
1219.833862 140.0
1220.091064 36.0
1221.127197 188.0
1222.121948 140.0
1224.314575 152.0
1225.018066 188.0
1225.651978 132.0
1225.854126 156.0
1226.662598 148.0
1227.575928 44.0
1229.040649 184.0
1229.864136 196.0
1230.276001 132.0
1230.338867 80.0
1231.721436 184.0
1233.04895 140.0
1233.538208 132.0
1233.796875 188.0
1233.97168 128.0
1234.978638 180.0
1235.985962 84.0
1236.930786 68.0
1237.602905 160.0
1238.506226 196.0
1239.690186 36.0
1240.377075 180.0
1240.433105 160.0
1242.480103 192.0
1242.642212 228.0
1243.049072 144.0
1245.576538 60.0
1245.723999 136.0
1246.180664 132.0
1247.550293 164.0
1250.329468 196.0
1252.462646 148.0
1254.259399 144.0
1256.424316 148.0
1257.2146 144.0
1259.205444 132.0
1260.342773 160.0
1261.141235 92.0
1261.197754 128.0
1262.512817 40.0
1264.578613 44.0
1265.024536 68.0
1265.520142 216.0
1265.775024 52.0
1266.051147 148.0
1266.143188 136.0
1266.242432 52.0
1266.695679 64.0
1266.872803 112.0
1267.021484 172.0
1267.524536 140.0
1267.914307 200.0
1268.00647 208.0
1268.240356 148.0
1269.332153 72.0
1269.438477 184.0
1270.644287 220.0
1270.885498 28.0
1274.385864 92.0
1277.257812 196.0
1281.073242 184.0
1281.429443 188.0
1282.690796 180.0
1283.681763 96.0
1284.024048 168.0
1284.901367 192.0
1286.485718 148.0
1287.649536 140.0
1289.907349 148.0
1290.629395 160.0
1290.886841 40.0
1293.669922 148.0
1294.50769 204.0
1295.023315 144.0
1295.38855 200.0
1295.72522 100.0
1296.499146 196.0
1296.685425 172.0
1297.688965 156.0
1299.295532 164.0
1301.312134 84.0
1301.405518 176.0
1303.50293 244.0
1303.574707 104.0
1303.977173 184.0
1304.638428 164.0
1304.811035 164.0
1308.616821 164.0
1310.107666 172.0
1311.159668 152.0
1313.798584 220.0
1313.950073 184.0
1314.779907 172.0
1314.90979 144.0
1315.465576 252.0
1316.953003 208.0
1318.520752 156.0
1319.142334 184.0
1319.277344 180.0
1320.154541 164.0
1322.4552 128.0
1322.61438 64.0
1323.171753 164.0
1323.519287 228.0
1325.576416 120.0
1327.055054 136.0
1327.2146 168.0
1327.635132 272.0
1328.599854 112.0
1329.564819 36.0
1330.392334 140.0
1330.559326 68.0
1331.445068 128.0
1331.495972 168.0
1332.059814 176.0
1332.614624 124.0
1333.624634 120.0
1334.017212 96.0
1334.198975 184.0
1334.875122 212.0
1335.064209 184.0
1336.380737 196.0
1337.304932 112.0
1338.753662 64.0
1338.957642 80.0
1340.341675 92.0
1340.727905 48.0
1341.267212 140.0
1342.346191 180.0
1344.958008 124.0
1345.264526 212.0
1345.972778 328.0
1346.622681 224.0
1349.552979 252.0
1349.728516 180.0
1350.452393 212.0
1350.723022 124.0
1357.651611 140.0
1357.88623 156.0
1359.250732 176.0
1359.977295 136.0
1360.32959 128.0
1362.194702 168.0
1363.201294 140.0
1363.693726 68.0
1364.303711 240.0
1367.312134 164.0
1368.158569 188.0
1368.375854 156.0
1369.35144 144.0
1369.75647 136.0
1370.154297 196.0
1371.185913 128.0
1371.414429 180.0
1372.29895 148.0
1372.638184 140.0
1373.117432 152.0
1374.187012 160.0
1375.729492 164.0
1376.54895 188.0
1376.770508 252.0
1377.080688 204.0
1379.282593 44.0
1379.711304 216.0
1379.888672 172.0
1380.236206 84.0
1380.465454 140.0
1382.32959 136.0
1382.625488 172.0
1385.431763 168.0
1386.469116 116.0
1386.861938 140.0
1388.463257 132.0
1390.77063 156.0
1390.919189 136.0
1391.557495 104.0
1391.780273 160.0
1392.344604 200.0
1393.020508 120.0
1393.265625 132.0
1393.919556 208.0
1394.521484 132.0
1394.826172 124.0
1395.19043 168.0
1396.097534 124.0
1396.238892 136.0
1396.528931 168.0
1396.737183 172.0
1398.344238 160.0
1399.483154 116.0
1400.510864 176.0
1401.322876 124.0
1403.290405 156.0
1403.529053 172.0
1403.879517 180.0
1404.416504 160.0
1404.849121 172.0
1405.311646 124.0
1405.371338 160.0
1408.043701 184.0
1408.237915 208.0
1409.888916 44.0
1410.285034 176.0
1412.745117 248.0
1413.994629 120.0
1414.204224 200.0
1415.491821 168.0
1415.551758 184.0
1415.604248 92.0
1417.229614 212.0
1417.371948 72.0
1418.413696 136.0
1419.418335 156.0
1419.530762 184.0
1419.605713 172.0
1420.070679 108.0
1421.983887 184.0
1422.456787 216.0
1424.446655 172.0
1424.544312 96.0
1424.777344 164.0
1426.167236 176.0
1426.843872 196.0
1426.949097 196.0
1428.204956 180.0
1429.777344 108.0
1429.995605 164.0
1430.846191 164.0
1431.636719 180.0
1433.52002 204.0
1434.137939 116.0
1434.228394 284.0
1434.296265 88.0
1434.733521 228.0
1435.170776 172.0
1435.841919 160.0
1436.332153 180.0
1436.460327 156.0
1437.411011 212.0
1437.999634 188.0
1438.233521 176.0
1438.769531 108.0
1439.645386 128.0
1440.853882 112.0
1441.582153 168.0
1442.115845 236.0
1442.864136 184.0
1442.917114 144.0
1443.181641 140.0
1444.217651 116.0
1444.792603 180.0
1445.231445 52.0
1445.314575 168.0
1445.443237 224.0
1446.078979 148.0
1447.108398 124.0
1447.161377 160.0
1448.880615 32.0
1449.085205 200.0
1450.547729 196.0
1451.920044 120.0
1455.061401 220.0
1455.236084 192.0
1456.45105 124.0
1457.119507 192.0
1457.339844 160.0
1460.890259 120.0
1461.369507 96.0
1461.940186 192.0
1462.077148 260.0
1462.282715 180.0
1462.777466 232.0
1463.576782 136.0
1464.178345 156.0
1465.366699 76.0
1465.991455 120.0
1466.906006 160.0
1468.225098 132.0
1468.835205 88.0
1469.552368 136.0
1469.865112 248.0
1470.078857 132.0
1470.842041 172.0
1470.929199 172.0
1473.34668 128.0
1474.26355 108.0
1474.974365 196.0
1475.983521 184.0
1476.46521 124.0
1477.061768 188.0
1477.957886 152.0
1478.515503 188.0
1479.012939 136.0
1479.166016 124.0
1481.601196 136.0
1484.084351 96.0
1484.337402 216.0
1484.398682 52.0
1486.976318 192.0
1487.444458 140.0
1488.404175 156.0
1491.261841 220.0
1491.415527 168.0
1492.061279 120.0
1493.391602 148.0
1493.760742 116.0
1494.245361 120.0
1494.383911 204.0
1495.207275 180.0
1495.599731 196.0
1497.493774 84.0
1498.109131 176.0
1499.011475 140.0
1499.103882 156.0
1499.73584 72.0
1499.997925 88.0
1503.800537 224.0
