>compound MLS001076681-01!Paroxetine  maleate
>formula C19H20FNO3
>ionization [M+H]+
>parentmass 330.150055
#inchi InChI=1S/C19H20FNO3/c20-15-3-1-13(2-4-15)17-7-8-21-10-14(17)11-22-16-5-6-18-19(9-16)24-12-23-18/h1-6,9,14,17,21H,7-8,10-12H2/t14-,17-/m0/s1
#inchikey AHOUBRCZNHFOSL
#origInchi InChI=1S/C19H20FNO3.C4H4O4/c20-15-3-1-13(2-4-15)17-7-8-21-10-14(17)11-22-16-5-6-18-19(9-16)24-12-23-18;5-3(6)1-2-4(7)8/h1-6,9,14,17,21H,7-8,10-12H2;1-2H,(H,5,6)(H,7,8)/b;2-1-/t14-,17-;/m0./s1
#Ion_Source LC-ESI
#Instrument qTof
#Compound_Source NIH Pharmacologically Active Library
#PI Dorrestein
#Data_Collector VP/LMS
#Scan -1
#Precursor_MZ 330.159
#ExactMass 329.143
#Charge 1
#CAS_Number N/A
#Pubmed_ID N/A
#Smiles Fc1ccc(cc1)[C@@H]2CCNC[C@H]2COc3ccc4OCOc4c3.OC(=O)/C=C\C(=O)O
#INCHI_AUX N/A
#Library_Class 1
#SpectrumID CCMSLIB00000085582
#IonMode Positive
#UpdateWorkflowName UPDATE-SINGLE-ANNOTATED-GOLD
#LibraryQualityString Gold
#TaskID d252d724072548979f1f6f1ced849daf
##Scan# 1729
#SpectrumFile p4-C10_GC10_01_18358.mzXML
#LibraryName Pharm_Active_Library.mgf
#MQScore -1
#Organism Pharm_Active_Library
#TIC_Query 0
#RT_Query -1
#MZErrorPPM -1
#SharedPeaks 0
#MassDiff 0
#LibMZ -1
#SpecMZ 330.159
#SpecCharge 0
#internalFilename spec-00000.mgf

>collision 10
44.914993 156.0
44.980377 188.0
44.99239 200.0
45.003071 140.0
45.132675 232.0
45.143375 140.0
45.287609 140.0
45.334805 200.0
45.43671 56.0
45.486362 92.0
45.498444 32.0
45.601875 172.0
45.636826 156.0
45.651497 224.0
45.729649 160.0
45.743107 64.0
45.767342 220.0
45.786194 168.0
45.904781 144.0
45.919617 220.0
45.931755 80.0
45.985039 212.0
46.068096 84.0
46.087009 160.0
46.105007 188.0
46.128906 216.0
46.147831 172.0
46.243954 140.0
46.269596 124.0
46.387455 160.0
46.432198 112.0
46.474251 112.0
46.516323 208.0
46.55162 32.0
46.592369 192.0
46.601879 148.0
46.707916 152.0
46.717442 144.0
46.756901 200.0
46.770508 156.0
46.788208 176.0
46.846764 60.0
46.898544 136.0
46.923733 92.0
46.947624 144.0
46.958534 140.0
47.015835 124.0
47.138741 148.0
47.152405 156.0
47.18111 376.0
47.202988 148.0
47.280964 100.0
47.33709 36.0
47.430252 80.0
47.471382 152.0
47.482353 148.0
47.598999 240.0
47.639084 172.0
47.685547 180.0
47.736412 168.0
47.868515 184.0
47.883663 108.0
47.960823 136.0
48.03804 220.0
48.084953 216.0
48.094616 100.0
48.149841 152.0
48.170559 164.0
48.281132 176.0
48.308796 76.0
48.330933 152.0
48.340618 148.0
48.388023 224.0
48.396679 112.0
48.418095 116.0
48.440304 76.0
48.481792 220.0
48.614998 200.0
48.626102 204.0
48.776108 64.0
48.819206 164.0
48.851196 100.0
48.880417 168.0
49.008518 124.0
49.021057 172.0
49.054508 148.0
49.08239 160.0
49.138184 196.0
49.15559 172.0
49.202381 188.0
49.265224 256.0
49.354671 196.0
49.448292 156.0
49.460995 164.0
49.484795 168.0
49.514198 244.0
49.615086 160.0
49.657154 136.0
49.715134 208.0
49.783459 144.0
49.938053 120.0
49.981663 132.0
50.004181 212.0
50.018253 164.0
50.03178 92.0
50.070351 164.0
50.097111 164.0
50.146427 108.0
50.223976 212.0
50.246548 228.0
50.257835 88.0
50.332645 144.0
50.369362 172.0
50.393379 120.0
50.411747 128.0
50.437187 80.0
50.455093 192.0
50.479603 188.0
50.502228 216.0
50.605534 192.0
50.635269 252.0
50.656517 244.0
50.670685 144.0
50.687687 184.0
50.789761 200.0
50.900459 204.0
50.911819 200.0
50.962955 92.0
51.089489 108.0
51.120792 64.0
51.157795 180.0
51.240395 176.0
51.303101 120.0
51.32021 132.0
51.330193 152.0
51.448612 192.0
51.50359 200.0
51.563828 176.0
51.587181 72.0
51.645809 200.0
51.69445 140.0
51.71735 176.0
51.76173 116.0
51.935139 348.0
51.970394 236.0
52.004009 152.0
52.051384 68.0
52.081543 132.0
52.102692 188.0
52.143326 136.0
52.17926 188.0
52.223839 92.0
52.255486 124.0
52.344727 68.0
52.45134 160.0
52.496033 136.0
52.550846 224.0
52.594139 140.0
52.607128 132.0
52.659111 152.0
52.792068 356.0
52.809425 148.0
52.911396 208.0
53.015003 212.0
53.122295 116.0
53.142609 236.0
53.186146 164.0
53.299419 204.0
53.328487 112.0
53.45792 396.0
53.555462 204.0
53.576881 176.0
53.628315 128.0
53.691006 128.0
53.817959 164.0
53.838402 152.0
53.898296 164.0
53.950909 44.0
53.972839 132.0
54.06646 168.0
54.081127 184.0
54.14259 180.0
54.185066 188.0
54.237984 216.0
54.262745 212.0
54.314068 168.0
54.324337 136.0
54.344875 116.0
54.391838 192.0
54.555325 176.0
54.587238 136.0
54.613708 128.0
54.626949 176.0
54.741749 220.0
54.765579 200.0
54.818348 80.0
54.831612 180.0
54.884682 176.0
54.911224 160.0
54.959908 156.0
55.033707 68.0
55.072102 160.0
55.104599 192.0
55.141514 196.0
55.18737 176.0
55.211029 132.0
55.255402 196.0
55.310158 124.0
55.409374 180.0
55.538342 220.0
55.568012 60.0
55.594028 156.0
55.619949 132.0
55.634796 140.0
55.761051 196.0
55.811596 192.0
55.829437 136.0
55.872574 120.0
55.909771 136.0
56.009068 208.0
56.024422 76.0
56.066143 212.0
56.104973 156.0
56.166035 128.0
56.190777 164.0
56.224491 200.0
56.306335 148.0
56.367584 208.0
56.409431 112.0
56.540428 144.0
56.563503 200.0
56.617405 96.0
56.696804 208.0
56.732777 164.0
56.756763 144.0
56.788258 148.0
56.912811 236.0
56.993923 196.0
57.017963 148.0
57.074043 184.0
57.126225 160.0
57.147106 168.0
57.16835 128.0
57.187916 160.0
57.227055 44.0
57.368671 188.0
57.395126 192.0
57.518013 124.0
57.568672 184.0
57.64941 128.0
57.724991 148.0
57.770367 208.0
57.900536 136.0
57.939919 124.0
57.969292 216.0
58.0354 156.0
58.047531 200.0
58.074829 176.0
58.089111 164.0
58.108204 176.0
58.187122 148.0
58.325722 152.0
58.339043 92.0
58.355366 168.0
58.413555 152.0
58.471375 220.0
58.482029 136.0
58.547493 168.0
58.623665 132.0
58.669388 184.0
58.769878 144.0
58.806671 176.0
58.872322 208.0
58.893703 112.0
58.931892 148.0
58.979267 164.0
59.023602 188.0
59.04348 144.0
59.067955 232.0
59.100082 188.0
59.113853 112.0
59.296093 204.0
59.355186 160.0
59.427967 188.0
59.530811 240.0
59.541561 140.0
59.561527 120.0
59.58918 140.0
59.719845 248.0
59.829098 92.0
59.91996 48.0
59.939991 172.0
60.030937 136.0
60.064869 128.0
60.129673 200.0
60.18679 176.0
60.264019 176.0
60.318108 156.0
60.412434 200.0
60.449566 60.0
60.465042 228.0
60.519222 148.0
60.573425 140.0
60.700512 152.0
60.712917 164.0
60.745491 72.0
60.930225 176.0
60.942654 152.0
60.993938 136.0
61.14325 168.0
61.205517 136.0
61.269375 212.0
61.298981 168.0
61.32885 168.0
61.366005 244.0
61.380035 44.0
61.409668 172.0
61.503284 148.0
61.561047 192.0
61.573544 132.0
61.662594 296.0
61.676662 156.0
61.695419 168.0
61.773609 64.0
61.901947 120.0
62.010044 148.0
62.03669 152.0
62.093136 152.0
62.148041 148.0
62.160595 148.0
62.188843 104.0
62.202969 144.0
62.245358 192.0
62.322323 176.0
62.344322 216.0
62.422924 180.0
62.52203 132.0
62.550362 200.0
62.562954 200.0
62.647991 224.0
62.731514 56.0
62.758312 168.0
62.839417 148.0
62.875046 48.0
62.893986 180.0
62.926411 160.0
62.947662 104.0
62.999783 176.0
63.028664 184.0
63.157856 172.0
63.229053 188.0
63.542801 68.0
63.638027 164.0
63.655495 56.0
63.696785 144.0
63.773056 180.0
63.836647 44.0
63.863682 212.0
63.88118 108.0
63.892315 244.0
64.000542 164.0
64.033981 156.0
64.061066 160.0
64.198349 208.0
64.399223 28.0
64.464233 156.0
64.495087 72.0
64.536652 280.0
64.547844 176.0
64.571831 36.0
64.60862 140.0
64.624619 72.0
64.643921 136.0
64.683838 184.0
64.72892 124.0
64.778313 244.0
64.837593 108.0
64.87767 196.0
64.946617 40.0
64.977097 140.0
64.997955 196.0
65.044495 368.0
65.070183 96.0
65.083031 228.0
65.100693 100.0
65.131203 128.0
65.193863 164.0
65.256554 164.0
65.320877 140.0
65.348228 128.0
65.390068 188.0
65.448021 168.0
65.462509 96.0
65.512444 56.0
65.524231 164.0
65.575279 120.0
65.673637 184.0
65.738167 200.0
65.810806 152.0
65.843102 132.0
65.87056 52.0
65.959427 232.0
65.977211 208.0
66.033806 180.0
66.072632 184.0
66.108223 204.0
66.262047 212.0
66.323624 180.0
66.351181 176.0
66.412804 132.0
66.432274 40.0
66.497986 120.0
66.618958 144.0
66.635201 148.0
66.662827 140.0
66.724586 180.0
66.747353 160.0
66.770119 272.0
66.794518 48.0
66.810783 176.0
66.939621 152.0
66.965416 268.0
66.996368 200.0
67.094147 168.0
67.116974 120.0
67.14846 160.0
67.24585 40.0
67.307884 108.0
67.389549 172.0
67.434441 200.0
67.484344 172.0
67.544449 192.0
67.585754 148.0
67.662682 124.0
67.697067 184.0
67.71991 160.0
67.752754 140.0
67.766357 236.0
67.792076 204.0
67.805191 172.0
67.849449 152.0
67.862564 124.0
67.908478 132.0
67.923241 168.0
67.960968 264.0
68.00692 152.0
68.148552 212.0
68.166222 168.0
68.197449 132.0
68.241829 172.0
68.268143 140.0
68.302681 240.0
68.370132 176.0
68.396469 132.0
68.409637 148.0
68.43927 144.0
68.534805 144.0
68.613914 124.0
68.656784 128.0
68.764023 92.0
68.784019 172.0
68.801987 152.0
68.840805 196.0
68.881256 120.0
68.990974 172.0
69.079613 164.0
69.132561 148.0
69.170631 188.0
69.187141 152.0
69.24514 160.0
69.389297 164.0
69.414169 128.0
69.425781 116.0
69.566811 188.0
69.581749 136.0
69.69635 192.0
69.717957 152.0
69.762833 152.0
69.807724 184.0
69.884239 184.0
69.905869 156.0
69.974113 192.0
70.004082 176.0
70.042389 112.0
70.127365 64.0
70.159035 108.0
70.235748 184.0
70.462776 32.0
70.476143 264.0
70.614189 228.0
70.668419 164.0
70.802338 160.0
70.845886 148.0
70.871017 172.0
70.884422 148.0
70.936371 136.0
70.961525 76.0
70.991707 260.0
71.12928 132.0
71.172928 140.0
71.215065 172.0
71.240112 172.0
71.266991 176.0
71.285469 196.0
71.327492 216.0
71.381287 44.0
71.455292 148.0
71.472122 180.0
71.542809 56.0
71.595001 176.0
71.628693 124.0
71.739166 144.0
71.761826 212.0
71.805664 64.0
71.839401 208.0
71.873146 132.0
71.942345 48.0
71.96019 140.0
71.991302 148.0
72.087593 60.0
72.102806 72.0
72.17527 140.0
72.296852 156.0
72.349754 172.0
72.363304 180.0
72.397163 196.0
72.446289 124.0
72.607307 160.0
72.676369 152.0
72.802475 120.0
72.817757 148.0
72.853424 156.0
72.9095 224.0
72.974091 200.0
73.076141 40.0
73.28215 212.0
73.324753 176.0
73.413269 156.0
73.469688 136.0
73.840347 188.0
73.884819 180.0
73.907066 180.0
73.937866 188.0
74.00634 156.0
74.069702 76.0
74.450615 176.0
74.479652 180.0
74.510574 44.0
74.579315 36.0
74.613693 144.0
74.660118 164.0
75.014801 180.0
75.101021 416.0
75.133789 212.0
75.171463 144.0
75.218353 172.0
75.330589 180.0
75.470581 152.0
75.574356 48.0
75.641853 228.0
75.81678 160.0
75.879181 140.0
76.019676 264.0
76.033562 204.0
76.070015 180.0
76.162041 120.0
76.235008 128.0
76.290627 132.0
76.565544 108.0
76.746513 188.0
76.776413 200.0
76.968369 244.0
77.045219 140.0
77.067932 148.0
77.116859 168.0
77.167557 204.0
77.211273 320.0
77.230507 156.0
77.246254 72.0
77.363495 220.0
77.386253 168.0
77.413269 204.0
77.447548 260.0
77.47908 188.0
77.515869 120.0
77.536903 220.0
77.629814 112.0
77.650856 156.0
77.668396 208.0
77.703484 124.0
77.819321 160.0
77.880783 176.0
78.054764 172.0
78.091698 124.0
78.167343 208.0
78.221901 156.0
78.272957 64.0
78.292328 148.0
78.309937 164.0
78.327553 332.0
78.378647 204.0
78.438568 152.0
78.516144 248.0
78.614937 188.0
78.627289 88.0
78.682007 160.0
78.796806 172.0
78.832146 156.0
78.871025 156.0
78.981941 104.0
79.019569 64.0
79.049393 140.0
79.093895 68.0
79.108055 212.0
79.141693 216.0
79.299355 112.0
79.395088 184.0
79.473869 224.0
79.593834 148.0
79.648895 224.0
79.675537 156.0
79.792831 68.0
79.842621 128.0
79.85685 96.0
79.897758 128.0
80.080231 140.0
80.113167 148.0
80.234352 164.0
80.277145 192.0
80.397423 180.0
80.455566 72.0
80.481354 152.0
80.532349 136.0
80.566292 180.0
80.619896 144.0
80.686028 140.0
80.786171 120.0
80.800484 156.0
80.841637 96.0
81.017105 148.0
81.042191 60.0
81.137405 160.0
81.162277 148.0
81.21608 136.0
81.230431 164.0
81.286049 388.0
81.331306 184.0
81.363228 176.0
81.39016 132.0
81.444031 152.0
81.530273 120.0
81.605766 116.0
81.620148 204.0
81.652519 200.0
81.740669 108.0
81.777039 192.0
81.864876 200.0
81.95314 144.0
82.12841 152.0
82.174904 156.0
82.280067 180.0
82.539757 184.0
82.554222 176.0
82.729729 40.0
82.747833 212.0
83.051537 236.0
83.084564 160.0
83.124725 192.0
83.395439 180.0
83.424522 332.0
83.44088 48.0
83.460838 172.0
83.54454 88.0
83.635811 156.0
83.739632 136.0
83.773918 180.0
83.859558 156.0
83.880051 180.0
84.151428 144.0
84.489532 68.0
84.520882 148.0
84.536125 216.0
84.733025 152.0
84.789825 148.0
84.826485 128.0
84.866821 168.0
84.931007 208.0
85.029312 172.0
85.074135 88.0
85.112686 208.0
85.405273 152.0
85.491356 44.0
85.522644 144.0
85.66259 124.0
85.835831 160.0
85.868103 192.0
86.035095 160.0
86.108955 116.0
86.262314 164.0
86.447266 260.0
86.521301 160.0
86.534264 180.0
86.63176 180.0
86.723213 156.0
86.751015 216.0
86.821472 164.0
86.858566 144.0
86.908653 132.0
86.927216 260.0
86.939178 160.0
87.027443 132.0
87.089676 164.0
87.166756 132.0
87.213219 128.0
87.242958 180.0
87.389877 180.0
87.432678 192.0
87.484795 204.0
87.57682 180.0
87.659874 124.0
87.769852 120.0
87.782898 104.0
87.820198 168.0
87.866837 132.0
87.89109 164.0
87.915405 140.0
87.971611 248.0
87.977409 160.0
88.163719 152.0
88.204842 156.0
88.244102 156.0
88.274017 88.0
88.296455 184.0
88.450058 168.0
88.511658 176.0
88.571587 160.0
88.659645 164.0
88.712128 192.0
88.775879 172.0
88.887657 176.0
89.294205 120.0
89.393684 132.0
89.425903 136.0
89.46167 128.0
89.51815 164.0
89.555817 192.0
89.636826 124.0
89.678284 128.0
89.69902 132.0
89.73484 136.0
89.802727 168.0
89.821587 120.0
89.874413 112.0
89.944237 128.0
89.983879 128.0
90.004646 140.0
90.031082 176.0
90.082001 188.0
90.095421 192.0
90.14254 196.0
90.240829 212.0
90.378899 48.0
90.439461 184.0
90.460281 164.0
90.579575 188.0
90.594734 80.0
90.645889 28.0
90.742554 224.0
90.761513 136.0
90.77858 156.0
90.858284 164.0
90.92086 52.0
90.947189 160.0
91.055649 156.0
91.215256 128.0
91.306519 104.0
91.346458 156.0
91.373093 188.0
91.451111 108.0
91.52916 152.0
91.673935 172.0
91.719673 132.0
91.834076 228.0
91.849335 212.0
91.950455 168.0
91.99025 212.0
92.11084 120.0
92.337639 176.0
92.391853 204.0
92.41098 188.0
92.443512 76.0
92.500931 128.0
92.633057 156.0
92.690529 180.0
92.784935 188.0
92.803619 184.0
92.905266 152.0
93.032974 688.0
93.066483 176.0
93.079918 216.0
93.124092 128.0
93.324631 180.0
93.435493 136.0
93.470131 140.0
93.62413 160.0
93.73008 140.0
93.768616 68.0
93.934441 120.0
93.991379 148.0
94.017403 212.0
94.040321 160.0
94.065651 224.0
94.154472 132.0
94.19696 188.0
94.368706 172.0
94.472504 164.0
94.500481 132.0
94.575951 164.0
94.647583 84.0
94.798668 92.0
94.875046 148.0
94.934364 176.0
94.969276 184.0
95.115799 164.0
95.138092 140.0
95.170837 240.0
95.197975 176.0
95.285355 184.0
95.289215 152.0
95.365364 216.0
95.412018 228.0
95.526749 212.0
95.555931 184.0
95.674644 108.0
95.853836 152.0
95.867477 124.0
95.92205 112.0
95.959084 168.0
96.015633 192.0
96.054642 56.0
96.080574 1536.0
96.128784 136.0
96.223915 184.0
96.26152 56.0
96.340645 176.0
96.380676 212.0
96.413895 204.0
96.446144 416.0
96.4608 280.0
96.529228 208.0
96.550743 164.0
96.596672 176.0
96.615288 252.0
96.701385 148.0
96.825432 152.0
96.920715 76.0
96.944229 140.0
96.969704 272.0
97.089279 188.0
97.259987 192.0
97.289436 192.0
97.43869 212.0
97.497635 32.0
97.59832 164.0
97.620056 176.0
97.686386 164.0
97.769028 108.0
97.843826 152.0
97.902893 80.0
97.94622 92.0
97.973801 220.0
98.019119 132.0
98.094009 192.0
98.265579 216.0
98.287285 80.0
98.342545 184.0
98.501427 196.0
98.672432 176.0
98.705849 204.0
98.854401 52.0
99.157669 144.0
99.254532 144.0
99.304108 108.0
99.492615 148.0
99.625671 124.0
99.850281 152.0
99.98954 128.0
100.005463 164.0
100.051247 200.0
100.110985 116.0
100.124924 116.0
100.158783 140.0
100.172722 96.0
100.360062 268.0
100.378006 168.0
100.39994 100.0
100.417892 124.0
100.457787 184.0
100.501671 56.0
100.555557 208.0
100.577507 140.0
100.609222 176.0
100.647385 124.0
100.697304 120.0
100.724335 204.0
100.83316 44.0
100.875137 144.0
100.973106 132.0
101.039116 120.0
101.06913 168.0
101.099144 64.0
101.147545 196.0
101.193222 144.0
101.234161 180.0
101.369484 204.0
101.487747 176.0
101.594048 180.0
101.748573 60.0
101.782707 144.0
101.826881 192.0
101.89518 76.0
101.957474 168.0
101.995659 120.0
102.045914 332.0
102.090149 180.0
102.106239 72.0
102.124344 172.0
102.156525 160.0
102.197792 188.0
102.239021 212.0
102.418205 168.0
102.441406 208.0
102.46051 224.0
102.476624 164.0
102.537079 136.0
102.555214 92.0
102.617706 204.0
102.660049 180.0
102.770996 64.0
102.785919 248.0
102.841621 124.0
102.906219 100.0
102.948624 176.0
102.978027 176.0
103.031441 132.0
103.054962 4296.0
103.102158 124.0
103.119743 84.0
103.148643 28.0
103.217857 156.0
103.342789 60.0
103.411591 172.0
103.454102 140.0
103.482445 128.0
103.630295 128.0
103.828949 52.0
103.871986 128.0
103.891823 224.0
103.968201 156.0
103.993279 124.0
104.058456 788.0
104.083733 324.0
104.199081 172.0
104.387405 216.0
104.424011 132.0
104.497238 52.0
104.525726 168.0
104.568459 136.0
104.596954 32.0
104.645813 108.0
104.702827 60.0
104.916779 408.0
104.982025 188.0
105.028931 160.0
105.071686 196.0
105.139107 156.0
105.165634 148.0
105.190132 144.0
105.220749 224.0
105.296303 160.0
105.322853 200.0
105.398445 132.0
105.568108 176.0
105.594696 92.0
105.690842 188.0
105.770653 160.0
105.817741 156.0
105.942665 208.0
106.000031 232.0
106.051262 236.0
106.084648 224.0
106.133263 144.0
106.20504 200.0
106.305573 180.0
106.406143 64.0
106.49855 188.0
106.523201 124.0
106.617714 68.0
106.644432 68.0
106.745171 108.0
106.895836 196.0
106.928261 100.0
107.004417 164.0
107.024803 160.0
107.052505 248.0
107.082672 204.0
107.113564 92.0
107.200096 156.0
107.261925 128.0
107.315529 136.0
107.472282 176.0
107.515617 180.0
107.581665 164.0
107.668388 188.0
107.868797 168.0
107.924622 196.0
107.990791 124.0
108.075607 196.0
108.108719 148.0
108.355118 140.0
108.393669 192.0
108.491898 120.0
108.54995 128.0
108.58728 68.0
108.683243 216.0
108.747032 76.0
108.786476 196.0
108.809311 160.0
108.840454 160.0
108.87368 188.0
108.942223 156.0
108.956764 132.0
108.98127 156.0
109.003334 220.0
109.045059 23260.0
109.112411 56.0
109.14077 112.0
109.18409 196.0
109.216606 140.0
109.233246 144.0
109.258209 84.0
109.274857 56.0
109.29982 44.0
109.333115 108.0
109.35601 96.0
109.372658 68.0
109.398109 204.0
109.437195 220.0
109.48925 152.0
109.526741 36.0
109.541321 68.0
109.591324 204.0
109.649673 200.0
109.720543 156.0
109.771088 180.0
109.851921 140.0
109.8853 248.0
109.960419 244.0
109.975029 36.0
110.049423 2488.0
110.083733 60.0
110.114914 76.0
110.229813 48.0
110.269524 176.0
110.374046 124.0
110.397049 128.0
110.434692 172.0
110.468163 32.0
110.526741 160.0
110.541389 144.0
110.597893 56.0
110.618828 28.0
110.664482 84.0
110.690506 168.0
110.747986 140.0
110.868065 136.0
110.901604 132.0
110.922562 36.0
110.9561 96.0
111.058853 164.0
111.077728 92.0
111.132278 128.0
111.146965 164.0
111.239311 176.0
111.373695 88.0
111.415703 180.0
111.453522 76.0
111.472435 48.0
111.495552 220.0
111.615372 56.0
111.644814 88.0
111.720535 80.0
112.02578 144.0
112.101624 196.0
112.170555 176.0
112.194366 200.0
112.376991 236.0
112.491814 148.0
112.607941 100.0
112.622726 176.0
112.662865 144.0
112.681877 148.0
112.711456 124.0
112.77697 152.0
112.842499 236.0
113.104813 188.0
113.172562 124.0
113.446808 224.0
113.65522 168.0
113.68129 120.0
113.708878 204.0
113.815018 168.0
114.004066 140.0
114.352852 208.0
114.376259 80.0
114.409256 140.0
114.457161 244.0
114.501228 52.0
114.5317 188.0
114.57856 40.0
114.770386 112.0
114.851418 192.0
114.883064 144.0
114.911148 56.0
115.055145 5040.0
115.177994 208.0
115.355354 64.0
115.387421 216.0
115.460121 56.0
115.492203 40.0
115.528564 176.0
115.57991 204.0
115.620567 44.0
115.676216 140.0
115.757469 160.0
115.798264 60.0
115.982529 104.0
116.06102 1200.0
116.132622 204.0
116.196976 124.0
116.229156 136.0
116.542641 200.0
116.577019 152.0
116.661148 172.0
116.718895 104.0
116.811371 192.0
116.847946 136.0
116.863007 152.0
116.890976 104.0
116.953384 136.0
117.065948 428.0
117.162262 132.0
117.23983 232.0
117.272156 208.0
117.388573 120.0
117.42308 144.0
117.457588 112.0
117.498581 108.0
117.584892 72.0
117.662598 172.0
117.703621 208.0
117.802971 72.0
117.850494 60.0
117.880745 204.0
118.038795 156.0
118.068825 252.0
118.151016 172.0
118.226746 256.0
118.311165 120.0
118.347969 108.0
118.380447 176.0
118.434593 84.0
118.48658 148.0
118.562416 184.0
118.668633 216.0
118.694649 148.0
118.761879 164.0
118.868179 212.0
118.887711 152.0
118.941971 92.0
118.972359 168.0
119.000587 148.0
119.052521 160.0
119.088913 196.0
119.128716 76.0
119.217796 88.0
119.245224 168.0
119.333 164.0
119.396065 148.0
119.437386 200.0
119.474365 164.0
119.56575 144.0
119.608345 212.0
119.689835 128.0
119.822609 196.0
119.912033 140.0
120.029564 180.0
120.037895 164.0
120.07119 156.0
120.090172 152.0
120.15844 216.0
120.206444 112.0
120.365479 168.0
120.512131 148.0
120.52961 108.0
120.665123 132.0
120.700104 216.0
120.756966 180.0
120.947319 180.0
120.993286 68.0
121.0289 2004.0
121.045273 1448.0
121.083069 128.0
121.164108 112.0
121.18821 224.0
121.214508 28.0
121.265533 168.0
121.306557 200.0
121.328476 156.0
121.403023 56.0
121.453468 148.0
121.508507 132.0
121.534027 156.0
121.65535 152.0
121.675102 64.0
121.703384 232.0
121.747566 160.0
121.872772 60.0
121.993645 176.0
122.049034 208.0
122.078468 152.0
122.08709 88.0
122.149773 208.0
122.264183 148.0
122.475548 136.0
122.577065 152.0
122.611504 164.0
122.669456 144.0
122.713547 208.0
122.735596 244.0
122.791267 196.0
122.861565 136.0
122.903091 128.0
122.93396 168.0
122.965752 180.0
123.002701 160.0
123.060944 21752.0
123.110725 48.0
123.225105 56.0
123.274193 156.0
123.316139 308.0
123.364967 56.0
123.529633 32.0
123.550575 192.0
123.566612 80.0
123.590393 136.0
123.670059 84.0
123.687767 92.0
123.703262 180.0
123.728302 180.0
123.760826 168.0
123.853836 160.0
123.953529 292.0
123.977905 220.0
124.02002 84.0
124.062912 2456.0
124.177437 148.0
124.270607 132.0
124.292793 140.0
124.419304 176.0
124.448166 104.0
124.472588 144.0
124.559135 136.0
124.623627 188.0
124.712517 76.0
124.728081 136.0
124.890396 160.0
124.921532 100.0
124.970482 112.0
125.002708 132.0
125.055824 216.0
125.124725 184.0
125.176483 196.0
125.198639 160.0
125.31781 136.0
125.40918 184.0
125.449303 168.0
125.507263 168.0
125.527336 64.0
125.663391 72.0
125.777206 140.0
125.809395 220.0
125.975945 188.0
126.07872 140.0
126.099899 140.0
126.152481 124.0
126.217316 228.0
126.317955 164.0
126.494736 168.0
126.595482 184.0
126.624596 192.0
126.689774 204.0
126.732124 216.0
126.819519 192.0
126.906334 204.0
127.024948 220.0
127.05471 136.0
127.123657 172.0
127.182877 136.0
127.292885 188.0
127.346786 216.0
127.468094 148.0
127.593964 88.0
127.647926 196.0
127.696922 152.0
127.746887 196.0
127.861633 168.0
127.92691 132.0
128.03273 80.0
128.061615 552.0
128.131836 72.0
128.217468 136.0
128.298615 60.0
128.393311 144.0
128.42038 184.0
128.474518 116.0
128.49707 164.0
128.576797 168.0
128.632477 120.0
128.903488 72.0
129.039108 132.0
129.069992 164.0
129.358093 196.0
129.423752 168.0
129.501862 356.0
129.566925 184.0
129.623077 180.0
129.638931 164.0
129.781738 168.0
129.827087 84.0
129.849777 164.0
129.926895 168.0
129.949356 184.0
129.994324 256.0
130.063934 576.0
130.147049 204.0
130.203812 128.0
130.278778 64.0
130.337845 160.0
130.390106 196.0
130.528778 136.0
130.583359 188.0
130.694229 152.0
130.822281 80.0
130.913345 132.0
131.049957 148.0
131.085693 220.0
131.198151 188.0
131.304642 172.0
131.378311 76.0
131.396561 208.0
131.576859 200.0
131.661392 168.0
131.743576 160.0
131.793839 160.0
131.841827 32.0
131.869247 104.0
131.887527 152.0
132.033859 152.0
132.052109 232.0
132.168823 240.0
132.436661 124.0
132.464157 196.0
132.51265 120.0
132.718536 128.0
132.771286 228.0
132.823822 128.0
132.846451 124.0
133.044601 4076.0
133.126984 184.0
133.147659 48.0
133.177505 136.0
133.206863 144.0
133.214844 112.0
133.262512 120.0
133.352127 152.0
133.422607 152.0
133.448669 140.0
133.467072 188.0
133.547028 192.0
133.579758 156.0
133.62117 44.0
133.706314 168.0
133.743134 188.0
133.866791 180.0
133.925034 164.0
133.966492 180.0
134.051346 2512.0
134.127792 124.0
134.150848 168.0
134.187729 104.0
134.224625 172.0
134.330719 68.0
134.358398 72.0
134.613541 152.0
134.772461 152.0
134.866409 148.0
134.906906 256.0
134.991257 176.0
135.016418 168.0
135.061066 43336.0
135.104935 152.0
135.148544 52.0
135.164749 96.0
135.188858 256.0
135.244736 64.0
135.28714 188.0
135.344421 224.0
135.399048 324.0
135.415405 176.0
135.432907 48.0
135.472672 32.0
135.535233 68.0
135.553757 80.0
135.575058 220.0
135.59726 80.0
135.651108 108.0
135.673355 84.0
135.700912 156.0
135.720657 176.0
135.784256 160.0
135.816803 184.0
135.843567 36.0
135.917816 124.0
135.940033 104.0
135.963409 236.0
136.001358 132.0
136.019928 184.0
136.066864 10040.0
136.139114 188.0
136.212662 72.0
136.242859 68.0
136.27771 68.0
136.312561 164.0
136.445038 168.0
136.496597 96.0
136.521774 132.0
136.556656 56.0
136.653336 128.0
136.704391 152.0
136.832855 108.0
136.877808 240.0
136.894531 108.0
136.925385 176.0
136.953888 120.0
137.025024 704.0
137.074112 1828.0
137.111542 108.0
137.12027 144.0
137.155045 88.0
137.192337 76.0
137.217987 52.0
137.24765 160.0
137.280945 136.0
137.362564 196.0
137.385895 108.0
137.402222 36.0
137.54924 180.0
137.563934 76.0
137.600601 68.0
137.650452 216.0
137.730408 136.0
137.764084 68.0
137.78978 72.0
137.857529 52.0
137.892593 120.0
137.939972 340.0
137.960373 72.0
138.030762 924.0
138.072464 1812.0
138.11705 280.0
138.173187 64.0
138.19191 84.0
138.215302 136.0
138.239914 108.0
138.404892 80.0
138.538391 128.0
138.573532 108.0
138.618057 80.0
138.73056 196.0
138.793854 72.0
138.929886 72.0
139.039291 1632.0
139.074356 324.0
139.124664 72.0
139.166931 48.0
139.190414 44.0
139.218582 132.0
139.338379 36.0
139.364227 64.0
139.455872 152.0
139.582825 168.0
139.634552 164.0
139.674545 164.0
139.820419 184.0
139.947525 56.0
140.004044 136.0
140.041779 644.0
140.114746 128.0
140.19957 48.0
140.378738 220.0
140.574524 212.0
140.602844 132.0
140.64769 172.0
140.723221 100.0
140.75766 200.0
141.025604 140.0
141.069916 752.0
141.108337 216.0
141.139069 140.0
141.288071 168.0
141.318832 64.0
141.377991 172.0
141.593414 48.0
141.638428 152.0
141.80191 184.0
141.846939 140.0
141.877762 108.0
141.908585 144.0
141.986832 116.0
142.071976 192.0
142.582718 136.0
142.71347 156.0
142.856155 36.0
142.887085 92.0
142.944183 108.0
142.965607 116.0
143.033035 144.0
143.084595 1036.0
143.122711 144.0
143.351379 112.0
143.599319 88.0
143.735291 148.0
143.857681 200.0
143.935806 100.0
143.988342 200.0
144.056335 368.0
144.089752 208.0
144.11734 180.0
144.162735 212.0
144.181854 196.0
144.284637 52.0
144.34201 188.0
144.468781 188.0
144.50705 72.0
144.595596 172.0
144.88533 128.0
144.909286 108.0
145.063416 396.0
145.103409 152.0
145.443192 56.0
145.477661 168.0
145.520874 120.0
145.628937 132.0
145.645752 64.0
145.813934 176.0
145.919693 100.0
145.955765 156.0
145.991837 140.0
146.051987 2428.0
146.080078 288.0
146.136154 76.0
146.201126 184.0
146.222778 164.0
146.239639 172.0
146.268509 48.0
146.316666 52.0
146.37204 184.0
146.425018 236.0
146.446701 176.0
146.478012 68.0
146.658722 188.0
146.716568 208.0
146.820251 136.0
146.837143 92.0
146.861252 48.0
146.928802 260.0
146.957748 192.0
146.981873 232.0
147.006744 132.0
147.060074 9508.0
147.098587 168.0
147.108826 100.0
147.113739 44.0
147.252258 72.0
147.305389 48.0
147.324722 192.0
147.370621 116.0
147.440689 52.0
147.505951 68.0
147.52771 136.0
147.566391 36.0
147.595398 148.0
147.676788 188.0
147.7547 128.0
147.805847 148.0
147.912323 204.0
147.968002 44.0
148.023697 40.0
148.067688 9780.0
148.09729 240.0
148.125412 184.0
148.14238 192.0
148.185974 124.0
148.297455 60.0
148.345932 68.0
148.457458 100.0
148.537491 68.0
148.567825 168.0
148.833572 32.0
149.017136 104.0
149.024704 156.0
149.075333 5384.0
149.115372 64.0
149.146957 28.0
149.215027 144.0
149.25267 116.0
149.34877 200.0
149.392563 56.0
149.453384 88.0
149.536118 92.0
149.562897 160.0
149.594543 172.0
149.6642 176.0
149.743073 128.0
149.796646 92.0
149.845383 108.0
149.894104 72.0
149.916031 108.0
149.962341 216.0
149.984283 128.0
150.03569 172.0
150.072159 6444.0
150.130936 180.0
150.254959 92.0
150.279358 208.0
150.315964 152.0
150.381851 188.0
150.450897 208.0
150.499023 132.0
150.545425 132.0
150.599152 208.0
150.669983 196.0
150.735962 48.0
150.843491 156.0
150.960846 224.0
150.990189 160.0
151.011353 236.0
151.0392 27352.0
151.078003 500.0
151.127182 84.0
151.151642 156.0
151.228561 204.0
151.289154 128.0
151.316711 172.0
151.352356 68.0
151.482162 48.0
151.509109 88.0
151.538513 116.0
151.558105 80.0
151.589966 40.0
151.633591 204.0
151.761551 120.0
151.83757 132.0
151.895813 188.0
152.042877 1544.0
152.070145 300.0
152.080185 396.0
152.142502 116.0
152.160843 128.0
152.294067 48.0
152.456223 60.0
152.493088 60.0
152.647964 120.0
152.729111 80.0
152.775848 104.0
152.846588 172.0
152.901047 200.0
152.999802 156.0
153.046295 408.0
153.07309 220.0
153.094559 128.0
153.140152 116.0
153.269485 96.0
153.334793 132.0
153.356979 104.0
153.406281 144.0
153.425995 44.0
153.474747 88.0
153.66275 64.0
153.699768 88.0
153.961426 136.0
154.060226 132.0
154.099747 44.0
154.388962 136.0
154.458206 176.0
154.747757 48.0
154.772507 260.0
155.025177 152.0
155.058975 176.0
155.228439 248.0
155.340042 180.0
155.36734 80.0
155.528625 228.0
155.659439 128.0
155.799301 144.0
155.844025 156.0
155.911102 200.0
156.068954 168.0
156.097549 140.0
156.460815 68.0
156.807053 180.0
156.856903 140.0
156.929199 72.0
157.063858 216.0
157.13121 32.0
157.163651 80.0
157.228531 180.0
157.293427 196.0
157.355743 228.0
157.438232 84.0
157.66806 168.0
158.060669 108.0
158.096954 176.0
158.228363 204.0
158.684341 188.0
159.005417 140.0
159.03302 156.0
159.061996 372.0
159.158554 100.0
159.201233 80.0
159.537918 156.0
159.570602 248.0
159.658615 76.0
159.779343 156.0
159.80954 116.0
160.008362 160.0
160.064682 1152.0
160.187164 120.0
160.426559 260.0
160.449249 176.0
160.513412 160.0
160.681274 160.0
160.857925 156.0
160.947052 92.0
160.971527 88.0
160.99173 128.0
161.076523 12716.0
161.177841 112.0
161.279755 64.0
161.345474 52.0
161.378342 60.0
161.469376 52.0
161.616089 76.0
161.692001 108.0
161.74263 164.0
161.772995 72.0
161.895645 172.0
161.947723 96.0
162.081024 1624.0
162.109863 72.0
162.130127 132.0
162.440048 240.0
162.510498 132.0
162.779053 184.0
162.821793 120.0
162.838989 128.0
162.903152 156.0
162.959885 48.0
162.980209 168.0
163.035355 320.0
163.092072 28288.0
163.162445 188.0
163.231934 128.0
163.290344 64.0
163.318161 196.0
163.346298 128.0
163.394043 136.0
163.432404 76.0
163.460785 56.0
163.513336 44.0
163.552414 36.0
163.575317 48.0
163.603317 64.0
163.651688 264.0
163.682251 84.0
163.710678 96.0
163.732925 40.0
163.794312 48.0
163.822327 76.0
163.851517 156.0
163.921692 192.0
163.959915 108.0
163.987946 156.0
164.021088 168.0
164.056335 164.0
164.089432 5180.0
164.168304 156.0
164.232712 28.0
164.255066 84.0
164.324554 92.0
164.352615 68.0
164.37558 68.0
164.470016 188.0
164.535034 164.0
164.651291 56.0
164.68959 128.0
164.761551 236.0
164.868439 136.0
164.932327 72.0
164.955338 52.0
164.993683 72.0
165.052002 188.0
165.089859 436.0
165.153717 96.0
165.228958 40.0
165.277573 128.0
165.351791 156.0
165.374359 156.0
165.477219 76.0
165.520737 128.0
165.610947 124.0
166.061462 216.0
166.097382 96.0
166.436142 136.0
166.58252 152.0
166.698135 188.0
166.754684 84.0
166.842072 120.0
167.256226 80.0
167.951935 76.0
167.995773 140.0
168.062851 76.0
168.323563 228.0
168.703354 184.0
168.749893 144.0
168.96196 164.0
169.153458 184.0
169.218185 60.0
169.360611 52.0
169.477188 136.0
169.52095 184.0
169.866058 212.0
170.338486 84.0
170.385254 60.0
170.406036 144.0
170.595749 132.0
170.684143 252.0
170.92865 128.0
171.014542 64.0
171.319199 120.0
171.381714 188.0
171.454681 92.0
171.566757 208.0
171.691925 128.0
171.832779 256.0
172.075485 220.0
172.117844 200.0
172.422897 32.0
172.530075 192.0
172.650345 124.0
172.862244 304.0
173.055313 648.0
173.071945 384.0
173.118774 144.0
173.315247 52.0
173.509186 128.0
173.575409 188.0
173.889542 148.0
174.065094 160.0
174.115326 152.0
174.14537 108.0
174.265045 32.0
174.32811 184.0
174.362274 44.0
174.590988 128.0
174.662003 44.0
174.833023 80.0
174.896179 116.0
174.996216 124.0
175.037994 812.0
175.091263 1484.0
175.396637 192.0
175.433548 76.0
175.539017 92.0
175.591751 164.0
175.615494 152.0
175.734192 176.0
175.829193 172.0
175.98494 176.0
176.011337 68.0
176.042694 436.0
176.068588 136.0
176.097946 3136.0
176.201508 40.0
176.220001 92.0
176.371643 64.0
176.449936 116.0
176.947311 136.0
176.98439 160.0
177.052429 212.0
177.097382 768.0
177.172424 76.0
177.217468 40.0
177.238663 148.0
177.320816 248.0
177.34201 84.0
177.395035 80.0
177.644302 276.0
177.692047 88.0
177.723892 56.0
177.779617 168.0
177.856583 184.0
178.050339 184.0
178.102448 9356.0
178.151321 184.0
178.18541 188.0
178.238998 52.0
178.28656 80.0
178.321106 152.0
178.348724 56.0
178.414413 60.0
178.475571 140.0
178.522217 140.0
178.557999 104.0
178.60321 136.0
178.786789 44.0
178.850662 36.0
178.893265 180.0
178.965134 36.0
179.068161 312.0
179.104675 1760.0
179.140915 156.0
179.162231 168.0
179.234161 56.0
179.487381 148.0
179.711426 40.0
179.922272 200.0
179.976669 216.0
179.99704 148.0
180.029083 160.0
180.112091 360.0
180.520782 108.0
180.560333 200.0
180.595657 40.0
180.745468 168.0
180.959595 96.0
181.575912 148.0
181.962311 148.0
182.220139 124.0
182.319565 188.0
182.397507 96.0
182.556122 104.0
182.755173 160.0
182.811691 52.0
183.088959 172.0
183.118591 220.0
183.369156 196.0
183.455399 240.0
183.522812 156.0
183.676529 248.0
183.862686 152.0
184.065155 244.0
184.31636 128.0
184.419052 144.0
184.502853 108.0
184.605591 120.0
184.667801 116.0
185.049347 68.0
185.078857 196.0
185.252457 152.0
185.409607 144.0
185.604782 64.0
185.873322 200.0
185.952026 52.0
186.085526 224.0
186.362061 204.0
186.622986 172.0
186.856888 168.0
187.068924 364.0
187.259766 72.0
188.042236 164.0
188.084885 160.0
188.307068 136.0
188.752518 116.0
189.056808 416.0
189.086258 176.0
189.121841 212.0
189.280624 56.0
189.346344 44.0
189.439468 128.0
189.634018 188.0
189.856079 172.0
190.028885 136.0
190.101959 1628.0
190.182571 48.0
190.212753 44.0
190.262177 144.0
190.306107 200.0
190.707169 96.0
190.742905 156.0
190.785706 112.0
190.830872 84.0
190.913361 88.0
191.065491 272.0
191.108597 152.0
191.149933 44.0
191.243515 192.0
191.29306 108.0
191.546387 172.0
191.684143 160.0
191.758545 168.0
191.816437 152.0
191.865875 120.0
191.921188 160.0
191.959793 192.0
192.005112 276.0
192.034256 240.0
192.069641 212.0
192.119003 63980.0
192.188156 216.0
192.197525 60.0
192.292603 44.0
192.320511 32.0
192.368134 64.0
192.408615 72.0
192.450699 44.0
192.507278 40.0
192.544846 68.0
192.574371 168.0
192.623398 72.0
192.647888 116.0
192.670715 84.0
192.740967 176.0
192.778397 96.0
192.833664 76.0
192.869827 172.0
192.906799 92.0
192.929123 96.0
192.953476 36.0
193.039505 104.0
193.122498 10256.0
193.176498 204.0
193.203171 116.0
193.254272 68.0
193.293716 40.0
193.30014 36.0
193.328217 132.0
193.361328 72.0
193.407852 56.0
193.441025 160.0
193.477661 64.0
193.500397 84.0
193.548645 60.0
193.577179 92.0
193.595718 128.0
193.700974 76.0
193.748062 76.0
193.810623 76.0
193.911545 48.0
193.944809 96.0
194.014114 52.0
194.058472 80.0
194.094513 164.0
194.127136 764.0
194.220688 72.0
194.36911 44.0
194.443268 100.0
194.515579 124.0
194.568954 52.0
194.634705 200.0
194.657806 128.0
194.723068 104.0
194.868896 40.0
194.946701 68.0
194.993942 108.0
195.066208 60.0
195.191315 100.0
195.230255 140.0
195.33316 68.0
195.413834 116.0
195.438873 120.0
195.47226 84.0
195.54184 48.0
195.650391 52.0
195.884308 124.0
196.068893 192.0
196.180161 72.0
196.461349 100.0
196.486465 156.0
196.564575 80.0
196.589691 168.0
196.631561 120.0
196.826965 112.0
197.097916 52.0
197.743896 188.0
198.416168 36.0
198.550766 176.0
199.089584 112.0
199.213165 48.0
199.530731 136.0
200.504654 124.0
201.10257 48.0
201.257828 76.0
201.938873 132.0
202.071823 176.0
202.148224 92.0
202.397308 92.0
202.898804 156.0
203.068298 176.0
203.137009 136.0
203.346985 92.0
204.068512 276.0
204.088409 184.0
204.529358 144.0
205.609558 200.0
206.166443 104.0
207.06189 160.0
207.970749 56.0
208.113007 632.0
208.507828 180.0
209.057114 160.0
209.083008 156.0
209.114395 168.0
209.612885 164.0
209.981873 92.0
211.085342 188.0
212.336075 52.0
212.75972 40.0
213.07135 144.0
214.108871 132.0
214.694641 180.0
215.070999 80.0
215.120621 140.0
215.514893 156.0
216.058701 168.0
216.770172 264.0
216.998795 124.0
217.087799 160.0
217.33316 104.0
217.438797 112.0
217.565018 64.0
217.75882 104.0
217.949768 204.0
219.041229 100.0
219.433167 108.0
220.268326 52.0
222.078049 312.0
223.050262 176.0
223.19046 160.0
225.067627 168.0
225.114914 216.0
225.163193 128.0
225.90744 92.0
226.077988 248.0
226.590012 128.0
227.085526 368.0
227.663834 128.0
227.792969 176.0
228.300919 72.0
228.577667 68.0
228.649887 76.0
229.137695 108.0
229.372757 48.0
229.719528 100.0
230.129501 124.0
230.930771 88.0
231.248444 160.0
232.108795 168.0
232.284698 164.0
232.354477 76.0
232.503159 124.0
232.879623 116.0
233.168243 188.0
234.116486 308.0
235.199753 48.0
236.621231 188.0
237.092407 168.0
238.062347 144.0
238.919891 156.0
239.054169 168.0
239.077255 280.0
239.510925 232.0
240.145859 96.0
240.846497 152.0
240.936081 176.0
241.065125 372.0
241.106033 160.0
242.123856 180.0
243.159332 76.0
244.103729 148.0
244.259247 200.0
245.068665 184.0
245.296158 96.0
246.172867 96.0
246.282166 116.0
246.394623 188.0
246.794678 48.0
247.073029 120.0
247.31398 168.0
249.082428 128.0
249.280365 152.0
249.591553 184.0
249.739365 88.0
250.069717 156.0
250.10434 152.0
250.164154 216.0
250.258606 72.0
251.043198 108.0
251.098831 92.0
253.046478 40.0
253.071808 240.0
253.10347 136.0
253.125641 116.0
253.9496 124.0
254.069946 152.0
254.298615 116.0
255.075821 156.0
255.122681 184.0
255.168991 40.0
255.942139 104.0
256.089996 204.0
256.987579 124.0
257.089691 308.0
257.121613 156.0
257.278015 108.0
257.907288 72.0
257.968018 164.0
258.056213 144.0
259.222656 68.0
260.322937 104.0
260.419281 136.0
260.506012 52.0
261.480255 56.0
263.091919 148.0
263.508514 208.0
265.107697 176.0
265.366272 68.0
266.589996 60.0
267.088165 220.0
267.692749 124.0
268.092285 136.0
268.88916 128.0
269.006683 168.0
269.052368 128.0
269.111145 132.0
269.356079 72.0
269.731842 172.0
269.983612 188.0
270.068634 152.0
270.104614 64.0
270.17984 96.0
270.366364 104.0
271.074036 148.0
272.001831 148.0
272.089874 132.0
272.147308 564.0
272.579865 44.0
273.023651 100.0
273.076263 284.0
273.150177 148.0
273.741028 192.0
273.846436 100.0
275.72699 76.0
277.116791 136.0
277.587463 68.0
277.700195 40.0
278.44696 44.0
278.679474 152.0
279.028473 164.0
279.730377 116.0
280.066711 120.0
281.390564 136.0
281.520813 96.0
281.564209 120.0
281.935028 228.0
281.988525 96.0
282.132233 408.0
282.232544 28.0
282.734314 156.0
282.781158 120.0
283.114502 352.0
283.340363 124.0
283.464355 40.0
283.910736 100.0
284.098022 116.0
285.081787 400.0
285.663452 152.0
286.084076 168.0
286.626312 52.0
286.933044 112.0
287.894684 144.0
288.428497 96.0
288.472443 144.0
289.142151 176.0
289.47052 124.0
289.863464 44.0
290.595825 44.0
290.871613 200.0
290.948792 92.0
292.403625 76.0
293.108521 100.0
293.476654 144.0
293.596008 108.0
294.353577 100.0
294.64389 144.0
295.926422 84.0
298.995178 108.0
299.814819 84.0
300.136688 564.0
300.176788 52.0
301.149994 176.0
301.315796 116.0
302.153381 240.0
303.094208 136.0
303.413055 52.0
304.989044 124.0
305.420197 96.0
308.286041 52.0
308.551666 220.0
308.611115 60.0
310.330231 168.0
311.323242 104.0
312.075226 96.0
312.142029 144.0
312.201813 52.0
313.121918 668.0
314.043732 64.0
314.134064 288.0
315.128479 152.0
315.869843 72.0
316.418365 188.0
317.119751 156.0
320.823639 152.0
321.098175 100.0
322.083282 224.0
322.126129 104.0
323.438446 200.0
324.893311 148.0
325.521423 180.0
327.074554 116.0
327.647095 168.0
328.234589 108.0
328.321136 60.0
328.894806 172.0
329.164093 176.0
329.219727 124.0
329.252228 164.0
329.295868 100.0
329.367676 108.0
329.648193 144.0
329.685242 84.0
329.732727 256.0
329.844788 116.0
329.882141 156.0
330.012878 176.0
330.059875 136.0
330.100098 200.0
330.150055 30664.0
330.272797 64.0
330.30191 160.0
330.34549 76.0
330.370331 92.0
330.422913 64.0
330.43631 172.0
330.481262 108.0
330.524689 168.0
330.553619 84.0
330.581543 76.0
330.628876 76.0
330.670685 164.0
330.720093 76.0
330.768646 88.0
330.799744 104.0
330.84552 112.0
330.890228 64.0
330.928741 76.0
330.988007 72.0
331.021973 168.0
331.153381 4860.0
331.222076 96.0
331.248749 28.0
331.294037 120.0
331.338074 60.0
331.458893 48.0
331.498749 92.0
331.542236 60.0
331.654602 60.0
331.937378 60.0
331.99176 56.0
332.066101 88.0
332.156067 600.0
332.227509 128.0
332.281952 84.0
332.321838 52.0
332.394409 44.0
332.579498 76.0
332.728333 92.0
332.81546 48.0
332.977051 128.0
333.262207 44.0
333.338531 72.0
333.374542 224.0
333.438171 124.0
333.485718 116.0
333.520233 48.0
333.614746 64.0
333.647461 48.0
333.701996 56.0
333.756531 120.0
334.538757 68.0
334.651611 36.0
334.724426 52.0
334.906525 60.0
335.106873 52.0
335.212555 88.0
335.420288 40.0
336.313934 68.0
336.507416 56.0
337.139313 60.0
337.910858 92.0
341.634552 120.0
341.774353 48.0
342.742737 48.0
344.251404 64.0
345.500702 104.0
345.5784 120.0
348.39975 88.0
349.917084 56.0
350.583832 104.0
352.139557 56.0
353.51532 120.0
354.957489 36.0
356.462738 80.0
361.879211 72.0
362.523132 68.0
368.944244 96.0
378.381439 64.0
384.378754 48.0
386.187531 44.0
397.200775 32.0
409.024689 44.0
416.801819 196.0
419.157776 52.0
423.127838 80.0
427.07132 100.0
430.830688 112.0
432.704102 64.0
436.558807 116.0
459.184052 44.0
466.153534 44.0
471.298431 76.0
472.288422 100.0
476.28479 72.0
493.463837 52.0
498.916931 96.0
511.608765 60.0
515.08551 72.0
522.324524 92.0
537.249207 92.0
539.743225 80.0
553.404358 144.0
565.114624 72.0
576.660706 44.0
586.230225 44.0
593.190002 52.0
594.960632 88.0
598.724121 104.0
599.391479 68.0
599.990967 92.0
621.563843 48.0
624.768494 64.0
638.081543 124.0
641.48468 60.0
665.282776 56.0
665.400818 36.0
667.132141 116.0
696.34082 184.0
701.138916 156.0
714.902771 44.0
724.695801 92.0
726.615234 32.0
738.10376 160.0
740.040833 164.0
744.742493 208.0
745.92157 172.0
747.346436 92.0
748.522156 60.0
756.591858 156.0
759.205444 200.0
761.977417 72.0
763.038086 48.0
763.565979 56.0
764.116028 68.0
764.666321 172.0
770.875977 84.0
777.010925 220.0
779.037231 64.0
780.43219 160.0
806.630798 80.0
807.269714 88.0
809.606873 48.0
813.530457 148.0
818.584961 72.0
823.232483 92.0
823.386658 172.0
833.221741 172.0
833.704407 60.0
842.601013 168.0
863.340576 164.0
863.580322 168.0
871.453186 64.0
873.210815 96.0
882.137817 168.0
887.768433 104.0
890.504333 160.0
895.214478 160.0
895.416931 188.0
905.168945 164.0
908.543274 92.0
911.449219 288.0
912.410828 236.0
912.561157 176.0
913.745972 252.0
914.763 232.0
916.328796 56.0
918.191406 176.0
919.325562 208.0
922.80481 128.0
931.264343 144.0
936.50116 80.0
936.970154 180.0
937.762329 132.0
941.502197 136.0
941.880859 180.0
943.591919 124.0
949.666565 100.0
954.598022 144.0
955.545288 140.0
956.129822 140.0
957.699829 132.0
959.098511 176.0
963.708374 156.0
966.626831 40.0
966.73822 204.0
967.320007 196.0
968.093933 52.0
968.638977 152.0
974.625793 44.0
975.34668 76.0
977.199829 136.0
979.609131 168.0
988.061829 188.0
989.977112 248.0
990.9104 204.0
992.464783 220.0
994.45343 232.0
995.005798 80.0
998.606384 68.0
1000.972656 144.0
1003.013855 96.0
1006.433167 236.0
1006.673157 252.0
1008.227173 184.0
1008.378845 48.0
1009.757141 224.0
1010.022766 124.0
1011.6427 192.0
1014.810364 44.0
1016.269165 160.0
1016.630859 136.0
1017.214783 144.0
1020.200378 72.0
1022.617554 144.0
1022.738464 164.0
1026.848022 196.0
1027.938843 172.0
1028.660034 80.0
1031.611328 108.0
1033.581177 160.0
1035.162231 120.0
1037.469849 164.0
1038.866821 80.0
1039.129883 124.0
1040.856445 68.0
1042.507324 208.0
1043.066406 180.0
1047.76416 48.0
1047.899414 136.0
1052.618408 228.0
1055.06958 200.0
1056.4729 216.0
1056.751099 180.0
1056.938721 196.0
1057.320557 152.0
1059.28894 132.0
1060.442261 116.0
1061.434082 92.0
1062.166992 72.0
1063.438721 200.0
1065.503662 220.0
1068.83252 88.0
1069.053833 88.0
1069.613525 252.0
1069.867432 192.0
1069.926025 108.0
1070.088745 64.0
1072.042847 44.0
1073.137939 196.0
1074.474976 80.0
1077.883179 60.0
1078.026978 192.0
1080.53125 204.0
1080.662109 120.0
1081.054688 152.0
1081.466919 160.0
1082.593018 48.0
1084.26355 240.0
1086.105957 176.0
1088.685181 28.0
1090.058105 224.0
1090.485352 100.0
1090.728516 168.0
1096.210815 168.0
1097.83252 204.0
1099.884399 216.0
1101.290771 152.0
1103.074829 172.0
1103.127686 180.0
1104.304688 168.0
1104.529541 96.0
1104.9198 128.0
1105.105103 120.0
1107.011475 160.0
1107.302856 184.0
1107.501465 172.0
1109.343628 264.0
1110.404541 188.0
1111.737915 124.0
1112.341919 228.0
1112.700439 188.0
1114.639893 168.0
1115.091797 88.0
1115.430786 132.0
1117.139771 192.0
1118.270874 224.0
1118.67688 164.0
1119.895508 168.0
1121.527832 204.0
1122.941406 76.0
1124.329102 104.0
1125.283569 72.0
1125.958008 148.0
1127.401001 116.0
1128.236572 168.0
1128.497314 200.0
1128.751343 192.0
1132.901001 148.0
1134.006592 92.0
1134.757324 156.0
1139.75769 160.0
1141.068359 232.0
1141.760986 148.0
1142.278809 124.0
1143.247681 128.0
1143.806274 84.0
1144.546875 136.0
1145.301147 168.0
1145.685059 216.0
1146.264526 208.0
1147.444092 216.0
1150.047852 196.0
1150.625488 168.0
1150.965942 156.0
1151.013306 120.0
1151.992554 196.0
1152.519531 108.0
1152.742554 68.0
1152.830322 204.0
1154.730103 132.0
1155.589111 144.0
1157.890625 200.0
1158.47998 244.0
1163.566162 132.0
1165.332031 172.0
1165.583496 132.0
1165.671753 184.0
1166.786499 244.0
1169.71167 152.0
1170.133667 28.0
1170.331177 156.0
1171.223267 208.0
1171.298218 208.0
1171.78186 348.0
1172.054443 184.0
1172.115723 112.0
1172.429199 152.0
1173.301636 164.0
1173.660156 112.0
1175.068115 236.0
1177.82605 132.0
1178.051392 204.0
1178.167603 92.0
1179.192505 44.0
1179.903442 136.0
1180.423096 116.0
1180.977051 84.0
1181.558472 136.0
1183.022949 196.0
1184.639038 104.0
1184.687012 148.0
1188.999878 128.0
1189.356812 124.0
1189.638184 124.0
1189.809814 180.0
1189.981445 172.0
1190.427734 144.0
1190.956543 224.0
1191.746582 144.0
1192.921753 192.0
1194.138916 136.0
1194.393311 124.0
1195.5354 204.0
1196.134277 184.0
1197.297852 208.0
1197.848877 96.0
1201.116089 112.0
1202.930908 208.0
1203.740967 160.0
1204.31189 40.0
1205.70752 124.0
1206.778931 228.0
1207.830078 152.0
1207.90625 116.0
1209.497681 192.0
1211.221802 136.0
1211.547485 172.0
1213.196777 156.0
1213.418579 168.0
1213.897095 176.0
1215.11084 176.0
1215.554932 236.0
1216.693237 180.0
1218.366943 152.0
1219.08252 160.0
1219.548218 164.0
1220.291992 152.0
1221.550781 72.0
1221.849854 168.0
1222.392578 184.0
1222.775391 148.0
1223.464478 132.0
1223.896118 52.0
1224.042358 176.0
1224.174683 116.0
1224.55542 204.0
1225.10791 240.0
1226.034668 188.0
1227.700806 244.0
1229.019165 136.0
1229.577393 60.0
1230.261475 200.0
1232.461426 124.0
1233.132324 252.0
1233.600586 128.0
1234.677368 208.0
1234.992188 172.0
1235.950562 184.0
1236.076538 236.0
1236.216431 196.0
1236.902344 144.0
1237.259399 56.0
1237.392334 108.0
1238.001587 200.0
1238.645874 80.0
1238.856079 152.0
1238.947144 208.0
1239.213379 84.0
1239.50061 156.0
1240.250488 176.0
1243.31543 192.0
1243.666382 200.0
1244.136597 108.0
1246.573853 72.0
1247.074951 184.0
1247.508667 216.0
1248.387451 188.0
1249.780273 72.0
1251.504761 84.0
1251.983521 168.0
1252.22998 148.0
1252.568115 140.0
1253.420532 144.0
1255.52124 100.0
1255.873901 136.0
1256.226562 200.0
1256.459473 132.0
1256.706299 152.0
1256.833374 120.0
1257.397949 156.0
1258.223755 204.0
1258.477905 208.0
1258.935669 244.0
1260.286133 168.0
1260.575806 264.0
1261.664307 88.0
1262.519775 108.0
1263.75061 148.0
1264.146851 192.0
1265.123657 176.0
1265.378418 144.0
1265.704224 196.0
1265.817505 128.0
1266.433594 208.0
1267.949829 148.0
1268.02771 180.0
1268.119873 180.0
1268.453003 56.0
1268.764893 200.0
1270.502441 148.0
1270.68689 72.0
1270.793335 132.0
1271.133911 48.0
1272.858765 116.0
1272.979492 208.0
1273.41272 156.0
1273.56189 176.0
1274.947266 224.0
1275.25293 200.0
1275.658081 76.0
1275.984985 128.0
1276.070312 196.0
1276.63208 240.0
1276.73877 128.0
1276.994751 104.0
1277.656372 132.0
1278.38916 180.0
1278.759277 92.0
1279.015503 148.0
1279.67749 120.0
1280.318359 172.0
1280.723877 188.0
1280.752563 176.0
1280.980835 124.0
1281.037842 196.0
1282.085205 40.0
1282.434326 188.0
1284.01001 208.0
1285.037231 128.0
1285.343994 44.0
1287.871216 148.0
1288.099854 124.0
1288.942871 56.0
1290.57251 116.0
1290.715576 216.0
1291.78833 152.0
1292.890137 164.0
1293.291016 120.0
1293.355347 192.0
1293.827881 188.0
1294.300415 160.0
1294.508057 188.0
1295.088135 200.0
1295.217041 184.0
1295.603882 188.0
1295.997925 180.0
1297.409912 160.0
1297.732422 48.0
1297.789795 136.0
1297.840088 188.0
1298.241577 236.0
1298.872681 188.0
1299.482544 244.0
1299.999146 96.0
1300.156982 180.0
1301.025513 184.0
1301.17627 172.0
1301.233765 56.0
1301.642944 60.0
1302.059448 168.0
1302.411377 60.0
1302.885498 160.0
1303.58252 184.0
1303.833984 228.0
1303.920288 160.0
1305.940552 96.0
1306.882935 64.0
1307.811279 140.0
1308.367188 224.0
1308.421021 180.0
1308.487915 164.0
1308.631958 184.0
1309.01355 136.0
1309.596924 180.0
1311.427002 260.0
1312.140625 148.0
1312.645264 240.0
1314.925537 148.0
1317.300537 132.0
1317.517212 72.0
1318.463745 208.0
1319.801025 148.0
1319.887817 172.0
1320.083008 52.0
1321.667236 240.0
1322.004639 244.0
1322.173706 60.0
1322.231689 200.0
1322.289551 88.0
1322.354614 148.0
1323.628784 176.0
1324.0271 160.0
1324.497803 212.0
1324.584717 180.0
1324.874512 120.0
1326.193359 256.0
1326.737061 48.0
1327.382324 200.0
1328.426636 212.0
1329.144897 216.0
1329.703735 176.0
1330.190063 208.0
1330.342407 184.0
1332.49939 56.0
1333.574829 164.0
1333.836548 68.0
1334.374512 56.0
1334.927002 148.0
1335.057983 112.0
1335.370728 164.0
1335.756226 128.0
1335.967163 116.0
1336.330933 68.0
1336.463867 200.0
1336.702026 112.0
1336.75293 76.0
1336.873779 224.0
1338.594604 252.0
1338.915039 52.0
1339.352295 188.0
1339.424805 164.0
1339.519531 124.0
1340.284546 144.0
1340.96228 160.0
1341.30481 200.0
1341.392334 120.0
1341.443359 148.0
1342.165039 152.0
1342.412964 140.0
1342.500488 168.0
1342.573486 144.0
1342.930786 128.0
1343.113159 212.0
1343.791626 144.0
1344.594238 168.0
1344.73291 96.0
1345.032227 180.0
1345.251221 248.0
1345.316895 208.0
1346.616577 136.0
1346.711548 132.0
1348.260376 256.0
1348.465088 192.0
1349.554321 272.0
1349.839478 140.0
1350.424438 52.0
1350.512207 188.0
1350.819458 108.0
1350.885254 144.0
1352.217041 196.0
1352.553711 60.0
1354.625977 40.0
1355.204712 140.0
1356.003418 188.0
1356.620361 192.0
1357.564941 80.0
1357.983032 56.0
1359.156738 208.0
1359.787842 180.0
1359.956665 188.0
1360.066772 200.0
1361.101929 104.0
1361.623291 172.0
1361.733521 80.0
1362.108032 208.0
1362.813354 184.0
1364.547852 196.0
1365.172852 136.0
1365.385376 160.0
1365.570068 132.0
1365.88623 148.0
1367.034058 64.0
1367.173828 36.0
1367.254761 136.0
1368.285278 172.0
1368.476685 52.0
1369.49292 176.0
1370.0896 152.0
1370.288574 188.0
1370.944336 164.0
1371.833984 152.0
1372.063354 200.0
1372.44812 164.0
1372.772583 140.0
1373.068115 108.0
1373.251953 228.0
1373.73877 156.0
1375.015259 176.0
1375.155396 168.0
1375.908325 84.0
1377.459106 200.0
1378.072266 176.0
1378.279175 92.0
1378.441772 128.0
1378.789062 180.0
1379.764771 88.0
1380.181885 136.0
1380.385864 164.0
1380.703857 240.0
1380.977539 148.0
1382.716187 164.0
1382.893799 68.0
1383.130615 176.0
1383.263916 100.0
1383.567383 220.0
1383.98938 176.0
1384.152344 192.0
1384.848389 136.0
1385.42627 184.0
1386.152344 68.0
1386.241211 220.0
1386.574707 108.0
1386.960083 152.0
1387.938721 88.0
1388.02771 40.0
1388.620972 100.0
1390.728149 184.0
1390.973022 136.0
1391.990112 160.0
1393.081909 156.0
1393.327148 124.0
1393.386597 88.0
1394.337646 68.0
1394.768799 144.0
1395.860107 192.0
1398.361206 172.0
1398.934326 156.0
1399.217285 140.0
1399.321533 96.0
1399.705078 204.0
1399.854858 140.0
1399.969238 152.0
1400.046021 168.0
1400.490601 148.0
1400.818359 164.0
1401.116333 148.0
1401.28772 128.0
1401.399414 116.0
1401.719849 232.0
1402.435303 140.0
1403.73999 200.0
1404.209839 200.0
1404.343994 164.0
1404.605103 148.0
1406.594116 116.0
1408.001099 176.0
1408.134521 196.0
1408.606079 140.0
1409.151489 84.0
1409.390503 148.0
1410.391968 132.0
1411.058105 184.0
1411.418213 104.0
1411.947144 32.0
1412.350952 188.0
1412.653687 52.0
1412.874634 200.0
1413.328247 216.0
1413.503052 212.0
1413.94458 204.0
1415.089844 208.0
1416.317993 156.0
1416.700073 192.0
1416.969727 164.0
1417.157104 208.0
1417.644165 152.0
1418.568604 196.0
1419.045776 176.0
1419.308228 188.0
1419.473145 264.0
1419.690674 68.0
1420.350708 152.0
1421.731201 112.0
1422.849609 164.0
1423.60791 56.0
1424.126099 156.0
1424.261353 132.0
1424.802246 72.0
1424.907349 172.0
1425.192871 176.0
1425.485962 128.0
1426.26001 188.0
1426.508057 180.0
1427.147095 144.0
1427.267456 136.0
1427.395264 60.0
1427.80127 140.0
1427.951782 188.0
1428.937134 60.0
1430.073486 136.0
1430.397095 204.0
1430.856323 192.0
1431.292969 72.0
1432.648682 176.0
1434.050171 224.0
1436.62146 224.0
1437.88916 52.0
1438.711914 108.0
1439.263062 196.0
1440.388306 172.0
1440.541626 172.0
1440.675293 172.0
1440.969971 140.0
1441.370483 104.0
1441.46106 136.0
1442.254639 92.0
1442.549316 236.0
1443.335693 212.0
1443.539917 192.0
1445.151001 184.0
1445.620117 116.0
1445.741211 208.0
1446.006104 216.0
1446.248291 192.0
1446.316406 200.0
1446.408569 164.0
1447.156738 140.0
1448.338135 152.0
1448.663818 128.0
1449.959473 56.0
1451.763794 184.0
1452.105103 164.0
1452.17334 212.0
1452.34021 96.0
1453.182251 56.0
1453.690674 196.0
1453.956177 144.0
1454.259766 188.0
1454.616577 140.0
1454.738037 188.0
1455.527588 84.0
1455.983276 148.0
1456.294678 48.0
1456.355347 100.0
1457.130249 164.0
1457.798828 148.0
1458.202637 148.0
1458.467651 140.0
1458.733765 184.0
1458.824951 144.0
1459.060547 224.0
1459.212646 112.0
1459.265869 132.0
1459.319092 152.0
1460.056641 164.0
1460.109985 56.0
1460.657593 164.0
1460.718384 144.0
1460.794434 200.0
1460.862915 100.0
1460.969482 132.0
1461.52478 180.0
1462.910034 152.0
1463.37439 112.0
1463.62561 168.0
1464.204346 168.0
1464.318604 160.0
1464.798462 180.0
1465.088013 116.0
1465.19458 140.0
1465.765991 56.0
1466.947388 112.0
1467.054077 180.0
1467.298096 160.0
1467.374268 188.0
1469.181763 160.0
1470.845337 52.0
1471.440674 116.0
1471.547607 180.0
1472.517456 164.0
1473.052124 100.0
1473.166626 116.0
1473.27356 148.0
1473.647949 144.0
1474.38916 108.0
1474.664307 88.0
1474.83252 152.0
1475.153442 40.0
1476.002197 144.0
1476.529785 144.0
1476.828125 164.0
1476.981079 100.0
1477.455322 156.0
1479.177124 120.0
1479.345581 160.0
1479.766602 172.0
1480.593628 136.0
1480.723755 172.0
1480.831055 128.0
1480.953491 124.0
1481.551025 184.0
1482.33252 152.0
1482.582397 216.0
1483.413208 84.0
1483.727539 52.0
1483.857788 116.0
1484.803223 188.0
1485.399292 168.0
1485.583374 176.0
1486.634521 216.0
1487.509521 156.0
1489.237061 180.0
1489.333984 200.0
1489.47522 120.0
1489.713379 428.0
1490.773682 124.0
1491.115112 168.0
1491.644531 188.0
1492.495483 148.0
1493.126099 108.0
1493.195312 108.0
1494.035156 168.0
1494.272217 164.0
1494.726196 204.0
1494.841553 184.0
1494.995483 224.0
1495.449585 176.0
1495.68811 128.0
1495.95752 36.0
1496.442627 144.0
1496.673584 144.0
1497.451416 48.0
1498.522095 40.0
1498.645386 156.0
1499.007568 148.0
1501.127319 112.0
1501.327759 188.0
1502.238037 132.0
1502.330566 176.0
1502.870605 180.0
1502.932373 216.0
1503.25647 148.0
1503.418457 220.0
1503.549683 44.0
1504.12854 220.0
1504.313843 216.0
1504.553101 144.0
1504.614868 180.0
