>compound AdefovirDipivoxil
>formula C20H32N5O8P 
>ionization [M+H]+
>parentmass 502.205414
#inchi InChI=1S/C20H32N5O8P/c1-19(2,3)17(26)30-11-32-34(28,33-12-31-18(27)20(4,5)6)13-29-8-7-25-10-24-14-15(21)22-9-23-16(14)25/h9-10H,7-8,11-13H2,1-6H3,(H2,21,22,23)
#inchikey WOZSCQDILHKSGG
#Ion_Source LC-ESI
#Instrument qTof
#Compound_Source Isolated
#PI Sirenas
#Data_Collector Ed Esquenazi 
#Scan -1
#Precursor_MZ 502.207
#ExactMass 0.0
#Charge 1
#CAS_Number N/A
#Pubmed_ID N/A
#Smiles N/A
#INCHI_AUX N/A
#Library_Class 3
#SpectrumID CCMSLIB00000006093
#IonMode Positive
#UpdateWorkflowName UPDATE-SINGLE-ANNOTATED-BRONZE
#LibraryQualityString Bronze
#TaskID d19310cd93df49b68e9fcbec27720eb5
##Scan# 2
#SpectrumFile AdefovirDipivoxil.mgf
#LibraryName fda_library.mgf
#MQScore -1
#Organism fda_library
#TIC_Query 0
#RT_Query -1
#MZErrorPPM -1
#SharedPeaks 0
#MassDiff 0
#LibMZ -1
#SpecMZ 502.207
#SpecCharge 0
#internalFilename spec-00000.mgf

>collision 10
162.078003 351.864014
192.087402 911.591614
226.047928 504.755005
238.049774 164.9617
256.059448 38716.300781
268.060486 243.805099
274.069336 1707.339966
286.069458 1073.646973
340.116791 6226.041992
358.052216 116.935799
358.127625 35635.101562
370.127106 4597.123047
388.137878 496.634308
438.368744 148.901901
439.491486 131.615494
439.554108 134.036499
439.698639 134.514297
440.992767 114.328003
441.861176 164.241806
442.185547 112704.203125
442.907227 127.897598
442.950012 180.885193
443.082733 121.100998
443.277222 152.276596
472.195557 19142.089844
502.205414 7797.650879
