>compound Flutamide (Eulexin)
>formula C11H11F3N2O3
>ionization [M+H]+
>parentmass 277.079651
#inchi InChI=1S/C11H11F3N2O3/c1-6(2)10(17)15-7-3-4-9(16(18)19)8(5-7)11(12,13)14/h3-6H,1-2H3,(H,15,17)
#inchikey MKXKFYHWDHIYRV
#Ion_Source LC-ESI
#Instrument qTof
#Compound_Source Commercial
#PI Dorrestein
#Data_Collector Garg_Neha
#Scan -1
#Precursor_MZ 277.079
#ExactMass 276.072
#Charge 1
#CAS_Number 13311-84-7
#Pubmed_ID N/A
#Smiles C1(=C(C=C(C=C1)NC(C(C)C)=O)C(F)(F)F)[N+](=O)[O-]
#INCHI_AUX N/A
#Library_Class 1
#SpectrumID CCMSLIB00000078339
#IonMode Positive
#UpdateWorkflowName UPDATE-SINGLE-ANNOTATED-GOLD
#LibraryQualityString Gold
#TaskID 77f51c88eb8b467eb4a01dd2d0cb90d2
##Scan# 1704
#SpectrumFile Plate5_41_60_GH8_01_16510.mzXML
#LibraryName FDALibrary_2_04302014.mgf
#MQScore -1
#Organism FDALibrary_2_04302014
#TIC_Query 0
#RT_Query -1
#MZErrorPPM -1
#SharedPeaks 0
#MassDiff 0
#LibMZ -1
#SpecMZ 277.079
#SpecCharge 0
#internalFilename spec-00000.mgf

>collision 10
45.455692 204.0
45.95084 152.0
46.852413 180.0
48.527813 220.0
51.074043 140.0
52.653538 160.0
57.194149 148.0
58.912247 164.0
60.725544 160.0
61.900604 264.0
62.256573 144.0
63.007908 152.0
71.2202 236.0
72.28569 228.0
75.555588 200.0
76.094582 176.0
79.326218 184.0
80.227501 224.0
80.969025 140.0
81.284538 180.0
81.521568 176.0
85.041389 184.0
85.186447 200.0
89.057701 204.0
90.282745 140.0
90.341385 172.0
93.233932 144.0
96.987694 168.0
97.036705 168.0
97.350647 188.0
97.865829 168.0
97.987946 196.0
98.443581 144.0
99.149826 152.0
99.28067 196.0
100.831528 228.0
101.361839 180.0
101.556305 208.0
101.833282 192.0
103.561798 148.0
106.994522 168.0
109.464668 168.0
110.301285 192.0
111.048782 192.0
118.214211 268.0
120.021492 144.0
122.134842 156.0
124.895325 184.0
125.594719 176.0
126.969078 196.0
127.679901 152.0
128.651031 236.0
133.884094 184.0
134.027664 160.0
135.116684 144.0
136.066895 192.0
137.974945 164.0
138.117599 256.0
139.910416 188.0
139.943375 144.0
140.266129 152.0
141.039383 164.0
142.045288 204.0
143.85759 208.0
144.976166 208.0
145.024887 248.0
145.588684 184.0
145.84816 204.0
148.425232 188.0
150.204346 160.0
150.470337 148.0
152.562531 184.0
153.739868 180.0
158.65741 164.0
160.034439 164.0
160.394455 152.0
160.914124 156.0
161.044785 2060.0
162.046448 372.0
162.199234 192.0
163.0495 172.0
165.329437 140.0
165.64949 164.0
167.030487 212.0
167.403671 176.0
168.078445 172.0
168.257126 144.0
168.435318 148.0
169.363907 188.0
170.591263 144.0
172.653687 196.0
175.400024 144.0
176.033203 144.0
176.913651 148.0
177.040741 140.0
177.71933 140.0
182.199417 156.0
182.333771 144.0
183.890457 164.0
185.936539 188.0
187.029617 864.0
187.527573 144.0
187.816589 144.0
188.03479 180.0
189.700607 140.0
190.603561 236.0
193.036377 372.0
194.572571 176.0
195.915802 208.0
196.350632 204.0
197.610428 160.0
198.055542 280.0
200.677475 156.0
200.970795 148.0
201.696579 184.0
202.129288 184.0
202.347229 176.0
202.996078 176.0
203.296783 176.0
207.036392 1248.0
208.038864 160.0
211.085953 148.0
211.960144 192.0
212.069946 180.0
213.649918 208.0
216.703735 224.0
222.490265 148.0
223.155762 180.0
224.08107 156.0
227.45166 140.0
228.933884 168.0
229.36171 164.0
229.491333 144.0
229.557678 192.0
230.00116 192.0
230.071579 192.0
231.086166 568.0
232.06131 152.0
232.086792 184.0
233.093307 200.0
233.163193 240.0
233.871857 144.0
234.663879 192.0
234.953613 180.0
235.082428 224.0
235.579437 212.0
236.084183 200.0
237.127716 160.0
238.09938 344.0
238.66568 148.0
239.10434 156.0
243.890305 212.0
245.568512 160.0
245.755692 236.0
246.373856 176.0
246.458206 224.0
247.073975 160.0
249.0961 140.0
250.149521 228.0
252.737427 176.0
254.147415 196.0
254.944443 140.0
255.102295 204.0
255.59314 196.0
257.79657 176.0
258.407318 164.0
259.057556 128.0
261.48465 140.0
261.925751 148.0
262.101288 168.0
262.357544 244.0
262.818756 152.0
263.01239 184.0
263.041443 168.0
263.076477 2160.0
263.302948 176.0
263.693878 140.0
264.08075 376.0
264.124542 196.0
264.169189 204.0
265.120209 144.0
266.092529 136.0
266.155884 144.0
267.215454 140.0
268.378204 156.0
271.002808 160.0
273.057739 184.0
273.936584 160.0
275.125275 164.0
275.160278 180.0
276.614624 176.0
276.723877 228.0
276.886139 208.0
276.910248 132.0
276.950531 144.0
277.012115 220.0
277.079651 42900.0
277.137543 192.0
277.179871 280.0
277.430634 120.0
277.949707 128.0
278.007843 168.0
278.081421 5080.0
278.217712 164.0
278.24231 184.0
278.770447 156.0
279.082642 560.0
279.164398 156.0
279.192627 164.0
279.90625 152.0
279.980347 120.0
280.049133 112.0
280.076355 128.0
290.139282 164.0
291.136841 140.0
295.095764 340.0
306.161255 296.0
306.215118 176.0
307.163177 160.0
308.147614 160.0
311.173645 220.0
314.165039 160.0
324.188385 188.0
352.178406 184.0
353.169281 116.0
361.036957 168.0
410.186462 148.0
1094.347168 148.0
1324.243042 216.0
1519.921021 172.0
1618.507812 164.0
1771.735229 224.0
1999.944092 212.0
