>compound MLS001157801-01!tert-butyl (2S)-2-[4-[[(2S)-1-[(2-methoxyphenyl)methylamino]-3-methyl-1-oxobutan-2-yl]carbamoyl]piperidine-1-carbonyl]pyrrolidine-1-carboxylate
>formula C29H44N4O6
>ionization [M+H]+
>parentmass 545.334
#inchi InChI=1S/C29H44N4O6/c1-19(2)24(26(35)30-18-21-10-7-8-12-23(21)38-6)31-25(34)20-13-16-32(17-14-20)27(36)22-11-9-15-33(22)28(37)39-29(3,4)5/h7-8,10,12,19-20,22,24H,9,11,13-18H2,1-6H3,(H,30,35)(H,31,34)/t22-,24-/m0/s1
#inchikey TZDNQXHJIUCEPM
#Ion_Source LC-ESI
#Instrument qTof
#Compound_Source NIH Natural Product Library
#PI Dorrestein
#Data_Collector VVP/LMS
#Scan -1
#Precursor_MZ 545.334
#ExactMass 544.326
#Charge 1
#CAS_Number N/A
#Pubmed_ID N/A
#Smiles COc1ccccc1CNC(=O)[C@@H](NC(=O)C2CCN(CC2)C(=O)[C@@H]3CCCN3C(=O)OC(C)(C)C)C(C)C
#INCHI_AUX N/A
#Library_Class 1
#SpectrumID CCMSLIB00000079511
#IonMode Positive
#UpdateWorkflowName UPDATE-SINGLE-ANNOTATED-GOLD
#LibraryQualityString Gold
#TaskID b1d8e8f6646f4e71acdff9ca3d919d08
##Scan# 2066
#SpectrumFile p1-D07_GD7_01_17915.mzXML
#LibraryName NIH_Natural_Products_Library.mgf
#MQScore -1
#Organism NIH_Natural_Products_Library
#TIC_Query 0
#RT_Query -1
#MZErrorPPM -1
#SharedPeaks 0
#MassDiff 0
#LibMZ -1
#SpecMZ 545.334
#SpecCharge 0
#internalFilename spec-00000.mgf

>collision 10
95.079285 256.0
95.182167 60.0
95.800636 128.0
96.339043 120.0
96.421104 128.0
96.469971 164.0
96.779076 160.0
97.300591 180.0
97.611023 204.0
97.937706 176.0
98.07563 164.0
98.596672 140.0
99.531662 232.0
99.585281 280.0
99.607124 144.0
99.658783 232.0
99.744232 212.0
99.865517 172.0
100.285622 116.0
100.329475 200.0
100.716591 88.0
100.754547 200.0
100.796501 176.0
101.093781 196.0
101.110458 148.0
101.186119 180.0
101.346748 112.0
101.99897 192.0
102.067322 192.0
102.204094 176.0
102.218178 152.0
102.373177 248.0
102.572639 176.0
102.806587 192.0
103.775482 160.0
103.984413 196.0
104.140747 184.0
104.264679 184.0
104.61248 192.0
105.683922 164.0
105.91935 88.0
106.036133 156.0
106.257591 208.0
106.335564 192.0
106.518295 136.0
106.766991 172.0
107.067451 116.0
107.110703 136.0
107.230202 96.0
107.713005 188.0
107.799774 112.0
107.834908 136.0
107.859398 132.0
107.937241 180.0
107.97963 280.0
107.99411 80.0
108.230019 204.0
108.331497 196.0
108.470337 120.0
109.032799 184.0
109.459251 120.0
109.688416 80.0
109.807259 168.0
109.871925 168.0
110.034706 164.0
110.705887 36.0
110.762436 80.0
110.82872 156.0
111.137688 180.0
111.223732 172.0
111.543007 180.0
111.622894 132.0
111.669159 124.0
111.713326 120.0
111.728058 152.0
111.810112 104.0
111.829056 52.0
111.915367 92.0
111.985847 212.0
112.026985 144.0
112.076225 20560.0
112.131882 160.0
112.166061 92.0
112.199783 40.0
112.214546 36.0
112.244064 76.0
112.265152 92.0
112.332642 128.0
112.391708 72.0
112.424629 20.0
112.449165 88.0
112.600693 124.0
112.666176 180.0
112.748581 36.0
113.055222 100.0
113.079636 1316.0
113.478851 144.0
113.504295 208.0
113.591248 44.0
113.636551 188.0
113.701576 140.0
113.862923 144.0
114.076881 212.0
114.498802 140.0
114.564835 172.0
114.618095 48.0
114.865402 48.0
114.912331 196.0
114.959274 224.0
115.130051 48.0
115.249672 152.0
115.720207 104.0
115.769455 120.0
115.848701 76.0
115.930122 80.0
116.303291 36.0
116.967461 76.0
117.475998 100.0
117.944572 176.0
118.576019 100.0
118.663269 80.0
118.769524 188.0
118.784714 156.0
118.845451 188.0
119.114647 160.0
119.318924 180.0
119.438522 92.0
119.468971 84.0
120.024345 224.0
120.198067 340.0
120.255577 128.0
120.723961 252.0
120.922173 144.0
120.987839 60.0
121.007065 184.0
121.065155 21656.0
121.112656 68.0
121.138649 60.0
121.167419 124.0
121.240746 112.0
121.285622 136.0
121.349327 80.0
121.385925 52.0
121.41291 96.0
121.513809 104.0
121.551109 52.0
121.579124 240.0
121.595001 28.0
121.649872 268.0
121.746483 116.0
121.781616 72.0
121.803581 88.0
121.82518 24.0
121.845322 60.0
121.869484 64.0
121.893654 56.0
121.963982 120.0
122.068199 2172.0
122.249886 44.0
122.31591 112.0
122.432602 96.0
122.49427 48.0
122.752129 136.0
122.772331 100.0
122.84697 68.0
123.001427 92.0
123.07489 188.0
123.567154 108.0
123.722069 188.0
123.992294 76.0
124.112968 456.0
124.287224 252.0
124.53363 132.0
124.753609 88.0
125.31443 48.0
125.7024 140.0
125.758186 208.0
125.894371 84.0
126.53833 188.0
126.562958 144.0
127.060516 100.0
127.080704 124.0
127.502853 64.0
128.004501 152.0
128.383087 48.0
129.098938 136.0
129.155472 92.0
129.243698 188.0
129.497238 120.0
129.6241 152.0
129.649033 204.0
129.717026 100.0
129.855331 144.0
130.091309 204.0
130.213928 180.0
130.268433 192.0
130.675369 100.0
130.846054 28.0
130.998642 180.0
131.929688 76.0
132.181259 184.0
132.25679 112.0
132.387283 140.0
133.123383 140.0
133.277283 216.0
134.262497 44.0
134.297089 80.0
134.680237 180.0
135.332367 172.0
135.64743 104.0
135.684525 128.0
135.860779 128.0
136.079254 172.0
136.236847 160.0
136.294922 232.0
136.540848 192.0
136.96492 148.0
137.645905 120.0
138.091034 5424.0
138.230286 40.0
138.736176 76.0
138.762192 164.0
138.921432 160.0
139.003555 52.0
139.097107 572.0
139.142029 184.0
139.475601 80.0
139.50795 84.0
139.922546 96.0
140.0746 324.0
140.103882 124.0
140.242905 196.0
140.313629 180.0
140.363144 52.0
140.391434 56.0
140.650955 44.0
140.854019 56.0
142.571732 184.0
142.588364 132.0
142.657288 156.0
142.959351 172.0
143.114075 56.0
143.14978 188.0
143.242676 168.0
143.352264 56.0
143.588272 152.0
144.912537 152.0
145.303329 108.0
145.392105 136.0
145.468918 208.0
146.334366 132.0
146.411743 204.0
146.796982 196.0
147.161331 116.0
147.562393 160.0
148.048737 176.0
148.620804 136.0
148.958252 76.0
149.371475 84.0
149.393372 64.0
149.624557 140.0
149.734131 148.0
150.15332 120.0
150.368011 148.0
150.768524 96.0
150.966537 144.0
151.164673 256.0
151.296844 104.0
151.485397 176.0
152.179428 152.0
152.461914 192.0
152.57251 124.0
153.244385 96.0
153.473602 164.0
153.606781 100.0
153.912796 176.0
153.947372 180.0
154.243835 172.0
155.030869 128.0
155.105225 164.0
155.611282 140.0
157.121948 152.0
157.334076 100.0
157.359039 104.0
157.843765 164.0
158.284149 168.0
158.474518 184.0
158.772797 160.0
159.601456 100.0
160.255859 76.0
161.735703 128.0
162.014236 192.0
162.539062 64.0
163.110474 196.0
164.001328 148.0
164.026825 184.0
164.174698 176.0
164.317535 124.0
164.41449 200.0
164.485962 136.0
164.605942 196.0
164.930405 164.0
165.314026 216.0
165.533798 140.0
165.803146 176.0
166.136475 64.0
166.426468 232.0
167.153885 332.0
167.205353 188.0
167.228516 172.0
167.30574 20.0
167.38298 144.0
168.171829 152.0
168.202805 192.0
168.887527 116.0
169.436295 192.0
169.488113 132.0
169.622879 128.0
169.736954 52.0
169.838089 156.0
169.905533 160.0
170.071609 164.0
170.193619 132.0
170.357239 236.0
170.726303 120.0
170.994263 180.0
171.142639 132.0
171.595978 168.0
171.796295 104.0
172.096924 128.0
172.561981 224.0
172.679642 164.0
173.323624 124.0
173.48349 84.0
173.646057 116.0
173.764099 140.0
173.850693 132.0
174.00029 160.0
174.181488 120.0
174.236664 52.0
174.780899 108.0
174.822998 168.0
175.742599 136.0
175.940536 56.0
176.429276 136.0
176.60643 120.0
176.942505 60.0
177.130508 120.0
177.183502 168.0
177.278885 192.0
177.384888 152.0
177.66864 52.0
177.957916 180.0
178.130539 240.0
178.420197 120.0
178.454758 96.0
178.593033 112.0
179.000198 124.0
179.106735 108.0
179.599838 160.0
179.912033 152.0
180.016159 140.0
180.184433 124.0
180.227173 208.0
180.909149 184.0
181.000183 44.0
181.13356 440.0
181.957809 164.0
182.129211 148.0
182.154968 136.0
182.610321 72.0
182.75827 120.0
182.987045 128.0
183.14888 9016.0
183.251984 84.0
183.275223 68.0
183.296783 132.0
183.353378 168.0
183.403229 72.0
183.488144 148.0
183.531281 324.0
183.612183 84.0
183.660736 96.0
183.690399 56.0
183.736252 92.0
183.819901 60.0
183.935944 80.0
183.987244 44.0
184.151138 860.0
184.538376 144.0
184.587036 84.0
184.925201 136.0
185.038895 124.0
185.157379 284.0
185.407272 96.0
185.447922 120.0
185.477737 80.0
185.496704 152.0
185.710907 144.0
186.003952 136.0
186.166855 108.0
186.411057 156.0
186.775635 224.0
186.80011 80.0
187.039566 144.0
187.277817 40.0
187.573441 112.0
188.523224 116.0
189.481567 112.0
189.675446 64.0
190.120209 960.0
190.482162 68.0
190.506882 60.0
190.67923 204.0
190.844925 92.0
191.125778 416.0
192.109009 64.0
192.140106 220.0
192.235931 168.0
192.445709 116.0
192.691513 136.0
192.799271 64.0
192.882187 100.0
193.028717 184.0
193.144867 132.0
193.391113 48.0
193.759399 108.0
194.410995 96.0
194.4776 120.0
195.052551 240.0
195.363998 184.0
195.491974 48.0
195.572693 136.0
195.812119 104.0
196.121384 180.0
196.238464 124.0
196.511795 116.0
197.056213 92.0
197.408401 124.0
197.660141 164.0
198.124908 116.0
198.665955 152.0
199.663055 152.0
199.685562 68.0
199.769943 124.0
200.085571 128.0
200.318863 172.0
200.776871 128.0
201.082962 196.0
201.543259 76.0
201.585632 92.0
201.791977 168.0
201.911652 136.0
202.683807 212.0
203.009506 124.0
204.563629 236.0
204.70314 156.0
205.013641 160.0
205.572556 180.0
206.466705 48.0
207.033325 136.0
207.116379 180.0
207.147888 148.0
207.368515 148.0
207.922028 36.0
208.051193 180.0
208.071289 156.0
208.111847 156.0
208.144608 840.0
208.182648 148.0
208.249313 84.0
208.671738 92.0
209.129379 612.0
209.17804 84.0
209.581223 140.0
210.054016 112.0
210.088638 184.0
210.131714 240.0
210.541794 92.0
210.69487 92.0
210.726654 124.0
210.793106 116.0
210.850906 104.0
211.014114 328.0
211.050369 208.0
211.072769 132.0
211.096619 172.0
211.143524 19008.0
211.22966 40.0
211.288757 84.0
211.359848 40.0
211.404648 172.0
211.455353 76.0
211.475601 108.0
211.534988 60.0
211.573059 72.0
211.652191 44.0
211.686935 52.0
211.758209 72.0
211.846237 88.0
211.875198 124.0
212.047562 116.0
212.065567 184.0
212.146683 2164.0
212.191101 32.0
212.312881 68.0
212.539139 44.0
212.629089 112.0
212.692947 164.0
212.811966 164.0
212.864227 56.0
212.917358 108.0
213.108215 56.0
213.144318 524.0
213.333359 188.0
213.34256 88.0
213.353607 156.0
213.393051 128.0
213.459259 88.0
213.587875 128.0
213.6577 132.0
213.70578 144.0
213.747894 40.0
213.792801 220.0
213.88176 108.0
213.928024 76.0
214.018585 64.0
214.143799 132.0
214.86087 208.0
215.214005 88.0
215.544067 108.0
216.837524 100.0
217.042725 80.0
217.233353 160.0
217.368301 136.0
217.485687 88.0
217.57962 116.0
217.835114 52.0
218.07605 152.0
220.244583 28.0
220.634644 168.0
220.95108 76.0
221.528336 52.0
222.038147 100.0
222.299194 60.0
223.449066 104.0
223.72583 120.0
224.190475 168.0
224.419998 180.0
224.545242 100.0
225.186905 64.0
225.336258 88.0
226.155197 116.0
227.141251 436.0
227.291397 84.0
227.513489 84.0
230.863968 108.0
231.929657 220.0
232.130402 152.0
232.269257 80.0
232.727493 144.0
232.909698 128.0
233.584488 184.0
234.348618 124.0
234.790604 128.0
234.976669 116.0
235.248276 40.0
235.614731 100.0
235.694168 200.0
236.220001 48.0
236.446411 248.0
236.53212 96.0
236.773987 100.0
236.930206 224.0
236.954712 152.0
237.046631 144.0
237.104858 156.0
237.158295 14288.0
237.261169 36.0
237.294907 56.0
237.570908 72.0
237.632263 100.0
237.715103 208.0
237.772156 132.0
237.908463 76.0
237.94838 48.0
238.05278 112.0
238.162537 3336.0
238.47673 56.0
238.599686 56.0
238.793396 92.0
238.8703 44.0
239.01796 56.0
239.144135 180.0
239.168381 352.0
239.32576 32.0
239.562897 136.0
239.679977 84.0
239.793991 164.0
239.861801 124.0
239.901871 116.0
241.170517 156.0
241.216888 112.0
241.730286 172.0
242.06459 76.0
242.272095 100.0
243.016159 80.0
243.09993 192.0
243.671249 68.0
244.179337 324.0
244.61351 100.0
244.653976 112.0
245.171021 200.0
245.28009 40.0
245.339325 188.0
246.300415 116.0
248.378784 116.0
248.862076 108.0
249.056763 164.0
249.440109 172.0
250.431244 100.0
251.112015 168.0
251.771606 64.0
253.036392 104.0
253.083878 92.0
253.232712 112.0
253.619263 172.0
253.860199 120.0
254.259918 204.0
255.289185 132.0
255.909668 124.0
257.162445 96.0
257.385895 44.0
257.436981 116.0
257.804352 144.0
259.116211 160.0
259.603424 44.0
260.229126 40.0
260.457123 120.0
261.363678 180.0
261.691986 144.0
261.807892 140.0
262.194489 152.0
264.642975 128.0
265.676819 68.0
267.923187 40.0
272.927399 132.0
273.888336 80.0
274.002625 160.0
274.326569 184.0
274.455139 72.0
274.560669 156.0
275.739258 136.0
277.185394 108.0
277.238403 148.0
277.261597 216.0
278.379547 164.0
278.442657 132.0
278.695099 156.0
278.75824 52.0
279.077332 144.0
279.197052 164.0
279.236938 40.0
279.619537 140.0
279.712738 148.0
280.055695 164.0
280.200592 7444.0
280.362183 40.0
280.435516 104.0
280.548859 60.0
280.622711 76.0
280.802246 52.0
281.203186 1096.0
281.3862 100.0
281.484528 36.0
281.556305 68.0
281.938751 76.0
282.192719 128.0
282.218109 212.0
282.686401 60.0
282.826965 84.0
283.141693 68.0
283.272308 144.0
283.406311 164.0
283.490082 160.0
283.721344 164.0
284.227783 52.0
284.459351 104.0
284.623871 76.0
285.366394 48.0
286.254669 64.0
287.326477 180.0
287.836121 136.0
288.12323 156.0
288.170502 136.0
288.669495 128.0
289.374542 100.0
290.014771 88.0
290.187653 100.0
290.224945 164.0
290.269043 60.0
290.747345 136.0
290.984955 116.0
291.093597 100.0
291.117371 152.0
293.642517 104.0
294.775879 104.0
294.84082 196.0
295.394714 196.0
295.760834 220.0
297.574249 128.0
299.34845 40.0
299.458649 36.0
299.834167 36.0
300.013397 64.0
300.109924 20.0
300.140961 104.0
300.813721 40.0
301.000153 140.0
301.138275 104.0
302.137238 176.0
302.947296 128.0
303.208069 124.0
303.276489 204.0
303.66275 108.0
303.734161 80.0
304.852081 52.0
305.182312 28.0
305.4953 172.0
305.683167 64.0
305.846741 224.0
306.18631 168.0
306.856964 112.0
307.073151 128.0
307.177795 116.0
307.341766 156.0
307.380737 116.0
307.610474 140.0
307.715424 128.0
308.085388 332.0
308.194641 6968.0
308.26709 132.0
308.305511 88.0
308.413879 76.0
308.445312 112.0
308.644592 216.0
308.755249 68.0
308.871918 212.0
309.022339 52.0
309.197021 2392.0
309.28479 52.0
309.76947 124.0
310.048309 84.0
310.200775 256.0
310.261078 164.0
310.430389 52.0
310.588226 152.0
310.665405 64.0
310.69696 88.0
311.188293 116.0
312.045563 44.0
312.228394 108.0
312.386658 80.0
313.654327 128.0
317.930267 168.0
318.065125 156.0
318.576477 160.0
319.753387 128.0
320.187714 128.0
320.832642 92.0
321.460358 140.0
321.558533 204.0
322.078003 128.0
322.156586 148.0
322.835663 184.0
323.443878 64.0
323.50473 132.0
323.9086 132.0
325.803406 176.0
325.900391 160.0
327.850677 148.0
328.892975 52.0
329.181793 132.0
330.211731 168.0
330.334717 140.0
331.221558 176.0
332.163971 156.0
332.236511 144.0
332.733704 144.0
333.078674 88.0
333.954651 52.0
336.151398 204.0
339.43988 216.0
340.144257 128.0
341.275757 144.0
342.593292 56.0
343.175598 132.0
343.426361 136.0
343.865387 180.0
344.201324 152.0
344.844116 304.0
344.940216 140.0
345.5578 160.0
345.727997 68.0
346.112976 128.0
346.217346 192.0
346.253571 124.0
346.613007 196.0
346.83432 168.0
346.942871 216.0
347.150513 144.0
347.199707 164.0
347.315399 148.0
347.396729 176.0
347.476898 76.0
347.565948 172.0
347.591919 92.0
347.721802 156.0
347.855438 32.0
347.892548 148.0
348.136536 180.0
348.170441 384.0
348.226807 21084.0
348.298584 104.0
348.338165 48.0
348.367859 72.0
348.464447 188.0
348.525848 100.0
348.669891 208.0
348.75058 76.0
348.795197 80.0
348.833893 108.0
348.998993 44.0
349.10379 68.0
349.142944 68.0
349.228607 5252.0
349.308319 156.0
349.390167 76.0
349.498077 104.0
349.529785 92.0
349.610413 124.0
349.836731 116.0
349.974487 44.0
350.13089 152.0
350.164734 44.0
350.197906 116.0
350.234314 1080.0
350.52948 120.0
350.575714 128.0
350.668396 100.0
350.71582 68.0
351.017792 56.0
351.107269 96.0
351.25647 92.0
351.487396 116.0
351.603455 56.0
351.707947 116.0
351.819946 60.0
352.742615 132.0
353.101562 64.0
353.146423 32.0
353.404541 52.0
353.524292 120.0
355.003967 144.0
355.465363 56.0
355.731842 40.0
356.798706 68.0
356.847595 56.0
357.415527 60.0
357.637543 176.0
358.665802 76.0
358.876923 152.0
358.997589 116.0
359.461578 48.0
366.987 176.0
367.845367 112.0
368.166473 116.0
374.105225 132.0
374.72525 96.0
375.214691 140.0
376.329681 112.0
378.886078 56.0
380.17334 152.0
384.169189 116.0
384.793579 140.0
386.21991 88.0
386.654175 156.0
386.86554 68.0
390.530426 76.0
390.605164 236.0
391.061584 80.0
391.254456 76.0
396.052216 172.0
397.939819 220.0
400.030914 168.0
400.484833 68.0
405.595184 84.0
407.216125 60.0
408.160492 156.0
409.754333 136.0
409.847015 132.0
412.664215 100.0
414.03595 88.0
417.359314 136.0
418.909882 120.0
419.480377 108.0
422.342712 52.0
423.775482 136.0
425.834747 288.0
425.863495 100.0
426.04422 152.0
426.315399 84.0
426.43045 180.0
426.742859 164.0
427.272034 372.0
427.664337 148.0
427.833099 152.0
428.166595 132.0
428.260773 60.0
429.361755 176.0
430.793976 72.0
432.427216 132.0
434.698212 128.0
435.848389 156.0
437.853424 84.0
438.178314 116.0
438.815979 52.0
439.333099 148.0
439.812958 180.0
439.92984 100.0
440.18454 116.0
441.521759 148.0
442.613922 72.0
442.948975 112.0
443.300903 100.0
443.359558 120.0
443.40567 164.0
443.548157 100.0
443.594269 140.0
443.816467 112.0
443.940216 156.0
443.996765 76.0
444.227478 32.0
444.265228 60.0
444.389343 300.0
444.466614 132.0
444.588165 140.0
444.697418 116.0
444.772949 72.0
444.903076 128.0
444.970245 172.0
445.167603 156.0
445.201202 252.0
445.279572 32256.0
445.375 108.0
445.423798 116.0
445.465454 104.0
445.480316 96.0
445.56662 64.0
445.663971 48.0
445.72052 140.0
445.89743 176.0
445.957397 48.0
446.138153 48.0
446.217529 100.0
446.283539 8060.0
446.366119 136.0
446.466095 56.0
446.497925 92.0
446.583862 112.0
446.703644 88.0
446.768951 52.0
446.809204 84.0
446.864532 116.0
446.934296 76.0
446.972656 76.0
447.000336 224.0
447.059265 120.0
447.118164 96.0
447.186981 120.0
447.288788 1324.0
447.362305 232.0
447.446503 36.0
447.495209 64.0
447.564392 72.0
447.627258 56.0
447.682281 32.0
447.715973 48.0
447.859161 84.0
447.926544 76.0
447.998322 100.0
448.166687 56.0
448.274902 312.0
448.29007 244.0
448.394226 52.0
448.465881 100.0
448.535095 124.0
448.587036 104.0
448.634491 40.0
448.701935 164.0
448.731445 80.0
448.803131 160.0
448.889679 136.0
448.950714 48.0
448.984436 84.0
449.10675 144.0
449.136292 112.0
449.29657 52.0
449.326111 92.0
449.633575 152.0
449.719727 144.0
449.900055 64.0
449.976044 56.0
450.052032 40.0
450.136475 96.0
450.879974 88.0
453.991486 76.0
455.200897 72.0
455.778564 108.0
456.713837 124.0
458.067383 20.0
458.161102 104.0
459.478424 76.0
460.485779 120.0
460.7677 96.0
461.203583 120.0
461.477173 44.0
463.480255 88.0
463.84024 48.0
469.381866 64.0
470.723846 52.0
474.340668 116.0
475.594208 96.0
483.246429 76.0
489.637665 52.0
489.893127 168.0
499.187561 104.0
513.198364 96.0
516.205505 120.0
518.645691 80.0
520.964417 104.0
526.996277 60.0
528.834595 80.0
535.100464 72.0
543.141235 64.0
544.01825 120.0
544.287537 72.0
551.662598 104.0
552.583923 132.0
567.068726 60.0
576.329163 48.0
579.386292 104.0
581.932922 84.0
583.705872 88.0
584.133911 96.0
590.747314 52.0
594.419739 80.0
598.736511 104.0
613.322144 76.0
613.410889 76.0
627.05127 100.0
631.344666 84.0
633.071106 80.0
638.335083 60.0
642.747559 80.0
644.919067 96.0
646.577942 88.0
656.723877 152.0
675.384155 104.0
679.102966 108.0
710.011047 108.0
743.445374 128.0
743.977295 56.0
752.666565 132.0
771.312622 68.0
780.671143 60.0
802.909546 132.0
811.272034 60.0
823.677063 56.0
848.671021 68.0
853.943726 52.0
855.904846 48.0
875.539551 124.0
878.781555 80.0
882.809937 168.0
902.521851 132.0
904.460144 148.0
912.041687 108.0
920.500061 96.0
938.649414 164.0
943.546082 72.0
946.433899 136.0
954.896118 184.0
977.270813 44.0
990.568176 32.0
1009.133057 96.0
1009.373352 196.0
1013.240479 152.0
1028.342651 200.0
1037.45105 200.0
1039.272461 220.0
1040.645996 52.0
1054.501953 128.0
1055.148438 84.0
1058.169678 80.0
1062.077271 204.0
1069.581909 176.0
1073.87561 212.0
1074.234375 132.0
1079.622803 148.0
1083.222412 176.0
1091.110352 148.0
1100.518433 112.0
1105.026001 212.0
1107.965454 204.0
1109.277588 228.0
1114.055298 188.0
1115.676758 228.0
1123.281494 224.0
1136.641846 68.0
1139.690186 208.0
1143.220337 188.0
1143.361694 124.0
1154.810547 160.0
1159.509155 172.0
1167.016724 136.0
1167.111938 184.0
1178.877075 252.0
1183.384644 160.0
1188.511353 88.0
1191.442993 136.0
1191.92395 160.0
1193.738647 164.0
1193.972412 108.0
1198.522461 164.0
1201.706665 96.0
1202.246094 196.0
1204.821533 112.0
1206.238159 108.0
1206.639038 168.0
1207.337402 212.0
1212.605835 188.0
1219.358643 172.0
1219.727051 188.0
1224.312012 224.0
1224.994507 144.0
1225.781738 128.0
1226.875977 180.0
1229.373047 200.0
1232.019165 156.0
1240.521606 108.0
1243.032349 208.0
1244.057129 192.0
1244.169434 188.0
1249.172729 164.0
1250.129639 168.0
1251.320801 204.0
1255.032104 144.0
1255.278931 144.0
1261.986694 156.0
1262.326172 152.0
1262.37561 128.0
1266.62207 132.0
1268.237549 116.0
1268.712402 88.0
1270.435669 144.0
1276.913574 200.0
1277.290527 188.0
1277.451782 184.0
1278.713501 64.0
1279.382568 176.0
1279.610352 124.0
1285.811768 160.0
1288.325195 208.0
1289.611328 128.0
1291.598999 44.0
1294.483154 88.0
1296.811523 156.0
1297.599976 240.0
1298.166382 268.0
1301.108154 156.0
1301.603516 180.0
1301.854858 96.0
1303.607666 148.0
1306.217407 172.0
1308.64978 48.0
1309.089111 48.0
1311.070068 52.0
1313.023804 68.0
1316.552734 164.0
1317.657837 148.0
1319.546875 164.0
1328.879639 172.0
1331.449219 100.0
1335.068237 44.0
1337.076172 104.0
1337.723877 192.0
1339.238403 144.0
1341.205688 140.0
1342.189819 160.0
1344.480347 180.0
1344.58252 32.0
1347.532593 128.0
1350.610107 148.0
1356.585205 200.0
1357.560303 36.0
1361.2146 172.0
1361.29541 176.0
1369.075562 92.0
1377.261963 172.0
1378.650879 120.0
1379.774414 116.0
1380.647827 164.0
1381.749023 108.0
1382.508789 188.0
1382.895996 64.0
1384.613525 80.0
1386.999268 144.0
1389.906372 136.0
1391.89563 88.0
1394.41394 208.0
1395.001099 168.0
1395.112671 40.0
1395.291016 84.0
1397.990967 232.0
1398.578979 212.0
1398.973511 260.0
1400.879761 260.0
1404.42041 132.0
1411.200928 164.0
1412.217896 128.0
1415.772827 56.0
1415.885132 172.0
1417.061157 160.0
1422.88855 160.0
1425.742798 160.0
1429.502808 208.0
1443.692139 140.0
1444.312256 160.0
1444.43335 176.0
1445.189819 80.0
1446.00708 188.0
1448.323853 100.0
1448.907104 124.0
1449.157104 116.0
1452.265137 156.0
1453.471313 44.0
1455.703003 220.0
1455.930786 168.0
1458.361938 180.0
1461.342896 200.0
1463.504395 48.0
1463.694824 224.0
1468.556641 184.0
1470.525146 112.0
1474.901611 160.0
1478.366211 152.0
1482.953491 104.0
1483.566772 120.0
1484.870239 176.0
1484.985229 88.0
1487.41748 144.0
1490.005371 200.0
1490.996582 212.0
1491.711304 212.0
1492.856934 128.0
1495.272461 80.0
1495.657349 148.0
1497.674683 160.0
1499.824341 180.0
1500.664551 160.0
1501.296875 180.0
