>compound NCGC00160291-01!Tropan-3-yl-carboxylic acid (2-hydroxy-1-phenyl)-ethyl ester
>formula C17H23NO3
>ionization [M+H]+
>parentmass 290.175018
#inchi InChI=1S/C17H23NO3/c1-18-14-7-8-15(18)10-13(9-14)17(20)21-16(11-19)12-5-3-2-4-6-12/h2-6,13-16,19H,7-11H2,1H3/t13?,14-,15+,16?
#inchikey YUQDHODIJULBAQ
#Ion_Source LC-ESI
#Instrument qTOF
#Compound_Source Prestwick Phytochem Lib
#PI Dorrestein
#Data_Collector VVP/LMS
#Scan -1
#Precursor_MZ 290.176
#ExactMass 289.168
#Charge 1
#CAS_Number N/A
#Pubmed_ID N/A
#Smiles CN1[C@H]2CC[C@@H]1CC(C2)C(=O)OC(CO)C3=CC=CC=C3
#INCHI_AUX N/A
#Library_Class 1
#SpectrumID CCMSLIB00000078759
#IonMode Positive
#UpdateWorkflowName UPDATE-SINGLE-ANNOTATED-GOLD
#LibraryQualityString Gold
#TaskID 67c915c6594c435cadc1fe2b5358144d
##Scan# 1366
#SpectrumFile p1-D03_GD3_01_17911.mzXML
#LibraryName phytochem_lib.mgf
#MQScore -1
#Organism phytochem_lib
#TIC_Query 0
#RT_Query -1
#MZErrorPPM -1
#SharedPeaks 0
#MassDiff 0
#LibMZ -1
#SpecMZ 290.176
#SpecCharge 0
#internalFilename spec-00000.mgf

>collision 10
95.085281 880.0
95.108353 84.0
95.16465 220.0
95.234558 192.0
95.769424 204.0
95.820068 144.0
95.987694 64.0
96.057899 144.0
96.081696 1540.0
96.106674 208.0
96.243301 116.0
96.368301 204.0
96.43335 220.0
96.503159 84.0
96.649849 224.0
96.847572 116.0
97.087433 360.0
97.114128 200.0
97.172981 148.0
97.319122 276.0
97.457664 128.0
97.788033 176.0
97.931755 160.0
97.990852 44.0
98.094337 984.0
98.144585 64.0
98.553154 192.0
98.764679 64.0
98.851723 68.0
98.96257 176.0
99.096725 244.0
99.146782 116.0
99.190384 132.0
99.388702 108.0
99.41053 124.0
99.636879 160.0
99.660721 192.0
100.112251 176.0
100.160049 112.0
100.42514 156.0
100.938377 32.0
101.016373 148.0
101.051613 52.0
101.647469 228.0
101.677567 196.0
101.697639 112.0
101.926575 148.0
102.043144 300.0
102.538322 252.0
102.608871 168.0
102.822685 72.0
102.925636 148.0
103.008438 248.0
103.054527 5916.0
103.144501 108.0
103.210541 176.0
103.53228 128.0
103.858574 136.0
103.919434 44.0
103.990456 120.0
104.05706 540.0
104.116325 136.0
104.337807 48.0
104.417107 144.0
104.48423 128.0
104.704056 136.0
105.034233 88.0
105.06279 156.0
105.297523 36.0
105.477325 136.0
105.714569 108.0
106.191902 56.0
106.697029 192.0
106.964455 156.0
107.084564 168.0
107.374466 200.0
107.739807 156.0
107.882401 124.0
107.936157 140.0
108.081345 320.0
108.159584 80.0
108.261032 172.0
108.478577 180.0
108.650696 48.0
108.955872 128.0
109.087883 1012.0
109.405067 20.0
109.659187 264.0
110.065971 108.0
110.090775 160.0
110.337585 80.0
110.456779 64.0
110.548836 100.0
110.860855 168.0
110.8881 128.0
111.20269 76.0
111.627045 112.0
111.70697 180.0
111.982697 56.0
112.075386 148.0
112.197624 88.0
112.731621 80.0
112.919769 72.0
113.196999 196.0
113.220291 76.0
113.86924 232.0
114.25827 188.0
114.360367 236.0
114.545609 184.0
114.570656 164.0
115.050995 148.0
115.080887 76.0
115.097969 128.0
115.70945 72.0
115.885071 160.0
116.434196 232.0
116.479301 60.0
116.896385 188.0
117.163368 188.0
117.49968 156.0
117.659378 224.0
117.711197 96.0
117.963974 60.0
118.046127 224.0
118.145622 124.0
118.470337 284.0
118.511505 148.0
118.559174 148.0
118.710915 160.0
118.765137 196.0
119.21888 140.0
119.386269 216.0
119.627777 148.0
119.73011 220.0
120.430191 160.0
120.469505 192.0
120.764595 140.0
120.779907 180.0
120.828026 116.0
120.969948 80.0
121.064018 2924.0
121.114792 48.0
121.143265 112.0
121.241859 52.0
121.542282 176.0
121.631248 96.0
121.6586 80.0
121.847466 136.0
121.946342 196.0
122.072487 220.0
122.098572 544.0
122.260834 132.0
122.463379 160.0
122.489807 224.0
122.816032 144.0
123.030067 116.0
123.37027 152.0
123.748573 192.0
123.764076 248.0
123.792862 184.0
123.821648 60.0
123.846008 172.0
123.874809 196.0
123.903603 200.0
123.933815 112.0
123.959 184.0
124.007751 100.0
124.06321 192.0
124.113113 43896.0
124.154358 92.0
124.20005 104.0
124.228531 56.0
124.261238 152.0
124.287163 76.0
124.311577 36.0
124.364838 32.0
124.406807 88.0
124.428162 68.0
124.444748 76.0
124.478523 92.0
124.540237 68.0
124.563095 80.0
124.659927 60.0
124.706879 112.0
124.762444 32.0
124.821823 96.0
124.90921 52.0
124.947029 48.0
124.973724 36.0
125.029686 80.0
125.056732 196.0
125.080544 160.0
125.11692 3600.0
125.16069 88.0
125.202995 92.0
125.309914 32.0
125.403511 60.0
125.546188 64.0
125.616142 56.0
125.800537 84.0
125.923347 56.0
125.969505 108.0
126.049278 128.0
126.119919 320.0
126.180313 104.0
126.218323 68.0
126.403976 64.0
126.614403 40.0
126.665916 136.0
126.739845 156.0
126.988678 56.0
128.324402 76.0
129.074005 228.0
130.186615 52.0
130.459259 120.0
131.005402 96.0
131.169479 144.0
131.276627 140.0
131.561829 200.0
132.119431 52.0
133.164658 84.0
133.458801 100.0
134.110275 48.0
135.034729 128.0
135.709961 60.0
135.97905 48.0
136.041718 164.0
136.146194 148.0
136.35994 124.0
137.835052 152.0
138.066467 152.0
139.372131 168.0
139.682449 196.0
140.10878 1840.0
140.190994 60.0
140.299423 148.0
140.554138 52.0
141.07135 124.0
141.106674 392.0
141.184845 220.0
141.54689 128.0
141.658203 168.0
141.712692 108.0
141.833557 124.0
141.907043 112.0
142.075424 140.0
142.12262 7672.0
142.172302 196.0
142.56691 96.0
142.657227 180.0
142.921219 96.0
142.968811 56.0
143.126068 568.0
143.2164 56.0
143.504745 196.0
144.108582 60.0
144.130325 200.0
144.204163 68.0
144.840607 196.0
146.064774 104.0
146.163406 108.0
149.06192 228.0
149.89241 144.0
153.660599 132.0
154.001633 196.0
154.496002 76.0
154.958939 156.0
155.881958 240.0
156.187744 84.0
157.111908 116.0
157.304047 68.0
158.196457 104.0
159.463135 208.0
159.920868 48.0
162.092712 192.0
162.287872 72.0
162.5466 172.0
163.041779 40.0
163.67009 92.0
164.03949 200.0
164.266434 68.0
165.400955 104.0
165.838943 148.0
166.762924 176.0
168.045303 160.0
168.678009 124.0
169.141022 144.0
170.15979 164.0
170.614426 96.0
174.983475 108.0
175.104599 256.0
176.423904 36.0
177.862274 52.0
179.976028 140.0
182.822769 140.0
182.941193 116.0
184.938644 112.0
185.095657 156.0
189.508194 136.0
190.704636 88.0
191.051102 132.0
192.716293 112.0
194.086349 188.0
194.377594 112.0
194.584702 168.0
194.674622 180.0
195.005219 180.0
196.177048 168.0
200.206116 28.0
201.393448 160.0
202.462494 140.0
204.253372 192.0
205.310013 156.0
208.58252 104.0
208.677383 92.0
209.14917 144.0
211.727386 172.0
212.324387 128.0
212.925125 184.0
213.30574 164.0
214.158798 716.0
214.414642 88.0
215.397903 184.0
216.017593 124.0
217.617691 116.0
217.644119 156.0
218.73848 80.0
218.81723 176.0
219.315063 232.0
219.462463 112.0
219.940353 176.0
220.427643 152.0
220.791245 192.0
220.959854 188.0
221.451233 208.0
222.094391 92.0
222.818695 52.0
223.133713 128.0
224.241043 56.0
224.730072 176.0
225.787506 172.0
226.152512 192.0
226.538773 88.0
226.58371 180.0
227.087296 76.0
229.230759 84.0
229.339249 176.0
231.278336 236.0
231.975021 148.0
232.357117 180.0
235.32753 152.0
237.791718 116.0
237.945206 204.0
239.803131 172.0
240.068253 156.0
241.24411 128.0
242.153854 200.0
243.168091 240.0
244.277328 156.0
244.529358 128.0
244.703674 152.0
245.149094 80.0
245.414032 48.0
245.491989 60.0
246.019272 156.0
246.222229 148.0
246.28157 60.0
246.987961 220.0
247.864532 160.0
247.961685 64.0
250.201263 140.0
250.251633 104.0
251.610458 216.0
251.853607 176.0
252.416138 172.0
254.120178 164.0
254.910797 120.0
254.967987 172.0
255.549896 156.0
256.304504 96.0
257.114441 128.0
257.337891 96.0
257.446472 40.0
258.408569 48.0
258.750641 172.0
259.103302 188.0
259.165649 196.0
259.683472 48.0
260.161407 1256.0
260.222565 192.0
260.293213 164.0
261.164764 372.0
261.187469 156.0
261.276703 128.0
263.546417 60.0
268.187012 160.0
268.682648 228.0
269.119965 80.0
269.678589 100.0
269.969543 56.0
270.01532 236.0
271.377533 176.0
272.178101 64.0
272.204376 108.0
272.36203 212.0
273.164062 136.0
273.595123 20.0
273.954071 124.0
275.481415 168.0
276.347565 196.0
276.430298 196.0
277.689148 108.0
279.929016 92.0
280.135498 128.0
281.010498 148.0
281.109039 172.0
281.563049 140.0
283.75473 152.0
286.372406 92.0
286.88797 104.0
287.201538 92.0
287.825867 156.0
288.271759 172.0
288.403564 36.0
288.444122 88.0
288.511719 136.0
288.981812 100.0
289.076538 228.0
289.157776 160.0
289.526794 64.0
289.635162 124.0
289.689362 152.0
289.757111 124.0
289.78421 216.0
289.896027 56.0
289.959412 108.0
290.048553 40.0
290.079681 196.0
290.117279 156.0
290.128357 228.0
290.175018 29156.0
290.262115 32.0
290.312592 132.0
290.364471 128.0
290.40329 96.0
290.441864 84.0
290.478516 208.0
290.513092 52.0
290.547028 52.0
290.638641 100.0
290.755127 48.0
290.852417 48.0
290.932526 80.0
291.032349 56.0
291.071716 88.0
291.096863 44.0
291.178345 3592.0
291.35498 36.0
291.4841 80.0
291.580872 52.0
291.654022 56.0
291.732971 108.0
291.834198 72.0
291.902191 52.0
291.994812 68.0
292.181427 716.0
292.392059 40.0
292.514587 76.0
292.545227 76.0
292.701843 60.0
292.732483 84.0
292.817627 92.0
292.892548 48.0
293.001556 116.0
293.069702 132.0
293.096954 32.0
293.175323 124.0
293.526428 76.0
293.628723 116.0
293.995514 168.0
294.06543 60.0
294.283905 184.0
295.29538 32.0
295.986633 172.0
296.09964 100.0
299.035034 160.0
304.396881 64.0
306.992798 144.0
307.784912 32.0
308.420715 104.0
308.980225 128.0
338.355225 72.0
370.893768 40.0
411.993164 76.0
412.866211 20.0
440.677185 36.0
445.310181 96.0
450.343201 116.0
450.685394 64.0
454.882263 52.0
461.271759 88.0
462.717682 84.0
464.912262 40.0
470.576813 52.0
552.976685 48.0
555.619507 160.0
598.156799 76.0
606.872192 104.0
620.013794 80.0
670.74707 156.0
705.954224 180.0
716.644592 60.0
718.782654 48.0
729.117798 244.0
754.092041 48.0
764.803711 140.0
786.263916 144.0
794.337524 184.0
795.459778 192.0
806.098633 120.0
809.351074 184.0
824.379456 208.0
824.510864 172.0
826.472229 44.0
835.577454 164.0
838.179871 84.0
839.765198 76.0
842.241272 172.0
849.343323 52.0
853.576965 136.0
854.606506 140.0
856.277161 20.0
859.973511 40.0
871.245422 124.0
881.125 148.0
881.562195 132.0
882.697144 164.0
909.0625 140.0
915.199585 124.0
916.693359 208.0
919.563904 184.0
924.198853 192.0
926.238953 104.0
927.311401 180.0
928.269226 144.0
937.765076 148.0
946.690613 112.0
947.365967 112.0
950.227295 116.0
952.044128 184.0
952.467896 188.0
953.27887 132.0
957.529785 60.0
961.921143 240.0
970.041626 168.0
970.44458 104.0
973.298645 204.0
975.622253 168.0
983.02771 236.0
983.670593 116.0
989.402954 168.0
993.181519 80.0
995.654297 164.0
998.715027 136.0
999.356689 152.0
1007.015747 188.0
1018.022461 120.0
1018.416199 168.0
1024.745605 204.0
1025.280884 160.0
1025.497559 192.0
1028.125122 156.0
1030.455811 128.0
1036.964233 176.0
1037.219849 116.0
1042.212646 204.0
1045.099609 188.0
1049.331055 180.0
1050.685303 180.0
1051.814575 48.0
1052.137329 104.0
1058.039673 152.0
1060.935425 200.0
1061.078125 120.0
1061.525513 52.0
1064.633789 180.0
1065.432739 156.0
1067.323975 116.0
1072.395142 72.0
1073.197021 180.0
1073.718628 132.0
1074.312134 240.0
1075.884888 176.0
1075.956665 216.0
1077.040649 160.0
1080.92395 92.0
1081.081055 100.0
1082.377197 200.0
1082.488403 240.0
1086.348755 156.0
1087.273926 68.0
1089.703369 152.0
1090.189697 120.0
1094.188721 92.0
1095.62439 164.0
1097.449951 204.0
1099.38269 152.0
1105.11145 232.0
1106.494751 176.0
1111.31958 184.0
1111.372681 68.0
1111.949951 132.0
1114.978394 196.0
1115.104614 144.0
1116.181641 156.0
1118.729736 180.0
1118.956055 112.0
1121.067505 108.0
1122.26062 140.0
1123.287598 80.0
1129.158569 164.0
1130.228882 112.0
1132.819824 96.0
1139.985352 128.0
1140.986816 204.0
1141.262451 192.0
1141.34314 220.0
1142.94397 268.0
1144.963379 120.0
1148.191528 148.0
1148.683838 152.0
1150.83667 184.0
1151.869873 228.0
1151.964478 64.0
1153.674072 172.0
1154.120361 204.0
1156.339111 52.0
1157.679565 168.0
1157.726929 224.0
1158.939453 160.0
1159.739014 192.0
1162.533203 144.0
1164.807617 228.0
1164.90332 204.0
1165.799561 188.0
1167.057007 268.0
1169.764648 156.0
1170.009399 192.0
1171.521484 148.0
1175.496338 192.0
1179.156738 196.0
1180.011108 192.0
1183.192383 156.0
1184.774292 116.0
1186.425903 120.0
1186.501343 156.0
1187.173218 124.0
1189.341187 164.0
1189.732422 232.0
1190.631958 208.0
1191.153931 236.0
1191.215698 164.0
1192.528076 164.0
1192.713745 184.0
1193.607422 204.0
1194.013184 124.0
1194.357056 204.0
1194.817871 200.0
1195.155029 196.0
1196.421387 176.0
1196.765625 196.0
1202.148926 88.0
1202.65271 144.0
1203.432739 172.0
1205.567139 56.0
1208.132324 228.0
1208.658081 48.0
1210.485474 192.0
1210.956421 152.0
1212.487427 196.0
1212.681519 92.0
1213.263794 204.0
1217.771606 56.0
1218.704956 48.0
1219.358154 136.0
1220.699829 152.0
1224.805908 184.0
1225.195923 156.0
1225.300537 204.0
1230.056396 152.0
1238.089722 136.0
1241.888306 48.0
1241.972534 180.0
1242.077637 224.0
1243.916138 188.0
1246.739502 192.0
1246.866089 168.0
1248.97522 196.0
1250.009399 168.0
1251.163696 120.0
1251.741089 132.0
1251.818481 192.0
1252.501587 160.0
1253.981201 196.0
1254.129272 136.0
1254.446411 196.0
1254.982178 48.0
1255.412354 164.0
1256.096436 160.0
1257.359375 76.0
1257.415894 92.0
1257.585205 148.0
1259.111084 256.0
1259.661133 152.0
1260.897583 188.0
1261.123779 132.0
1264.546875 148.0
1265.15564 76.0
1269.895996 176.0
1271.201294 144.0
1271.293579 176.0
1272.083618 44.0
1272.691895 196.0
1273.301392 252.0
1274.353882 108.0
1274.623901 124.0
1275.036133 128.0
1275.092896 52.0
1275.654419 172.0
1276.76355 48.0
1276.877441 84.0
1277.524658 168.0
1278.264526 88.0
1278.40686 164.0
1278.734253 248.0
1279.49585 148.0
1280.065552 224.0
1280.549805 152.0
1280.841797 128.0
1281.832031 176.0
1281.960327 148.0
1282.238281 176.0
1282.416382 204.0
1282.672974 136.0
1284.662476 192.0
1286.460693 168.0
1288.288818 92.0
1293.372925 144.0
1296.481201 72.0
1297.133423 140.0
1299.987915 184.0
1300.698364 140.0
1300.863525 176.0
1306.130493 388.0
1309.261353 144.0
1312.626587 80.0
1313.239502 144.0
1314.776245 212.0
1314.91333 188.0
1315.223633 128.0
1317.888428 100.0
1318.076294 172.0
1318.329224 40.0
1321.597534 100.0
1322.769897 60.0
1324.964111 52.0
1329.503052 192.0
1330.15625 196.0
1330.845947 168.0
1331.274292 140.0
1331.412354 112.0
1331.579346 64.0
1331.65918 128.0
1332.618042 228.0
1333.439209 200.0
1335.242188 48.0
1336.289673 176.0
1337.301147 176.0
1339.572876 168.0
1340.243164 156.0
1341.393921 228.0
1341.926758 188.0
1342.612183 160.0
1345.33374 148.0
1347.875366 232.0
1352.4021 48.0
1353.2146 72.0
1353.280518 156.0
1354.210571 96.0
1355.961548 152.0
1356.10083 156.0
1357.01709 164.0
1357.178345 172.0
1357.640381 132.0
1358.689209 192.0
1358.872681 164.0
1362.455322 124.0
1362.925415 136.0
1364.064575 180.0
1367.175659 164.0
1367.668823 164.0
1370.585083 96.0
1371.063965 156.0
1371.388306 196.0
1371.506226 172.0
1371.790283 212.0
1372.958618 184.0
1374.43396 220.0
1375.326904 144.0
1376.360352 136.0
1377.859741 120.0
1382.310669 76.0
1384.235229 124.0
1384.864746 128.0
1385.190674 116.0
1385.294312 232.0
1386.613281 108.0
1387.018188 56.0
1388.499268 208.0
1392.385132 120.0
1392.801025 108.0
1394.591675 160.0
1395.773682 216.0
1396.584229 104.0
1399.077026 56.0
1400.305664 172.0
1400.864258 180.0
1402.324707 112.0
1402.593018 184.0
1403.323608 176.0
1403.532349 168.0
1405.643188 128.0
1405.717896 144.0
1407.03894 116.0
1408.211304 120.0
1408.300903 104.0
1408.651978 200.0
1409.14502 212.0
1410.064087 108.0
1410.265869 164.0
1410.833984 212.0
1411.080688 104.0
1411.230225 104.0
1411.551758 184.0
1412.206421 220.0
1413.571411 192.0
1414.506836 160.0
1415.233032 160.0
1415.532593 220.0
1416.086792 212.0
1417.38269 264.0
1417.749878 168.0
1418.574341 180.0
1420.426514 164.0
1422.21228 116.0
1423.480957 108.0
1424.532471 212.0
1425.125977 100.0
1425.471558 152.0
1428.839966 128.0
1429.246216 108.0
1429.74292 176.0
1432.069214 184.0
1432.219849 248.0
1432.310303 244.0
1433.003296 80.0
1433.146484 148.0
1433.734253 172.0
1434.759277 120.0
1435.377563 136.0
1437.195312 188.0
1437.270752 128.0
1437.731079 132.0
1438.445801 192.0
1442.632935 116.0
1443.994019 248.0
1445.181641 192.0
1446.165405 148.0
1447.891479 116.0
1450.573608 196.0
1451.657837 204.0
1454.024658 172.0
1454.981079 216.0
1455.436646 160.0
1456.499756 180.0
1458.156128 208.0
1458.498169 228.0
1460.999878 240.0
1463.123047 184.0
1463.450439 184.0
1464.417603 220.0
1464.828857 92.0
1465.270752 196.0
1465.712646 208.0
1466.695679 188.0
1468.502686 208.0
1469.204468 148.0
1470.036133 176.0
1471.875732 44.0
1472.39502 200.0
1473.112915 92.0
1474.419434 220.0
1475.910034 120.0
1477.233154 216.0
1477.745728 144.0
1479.555298 172.0
1479.720215 140.0
1482.960449 156.0
1483.16748 152.0
1483.328369 232.0
1485.015259 212.0
1485.83606 132.0
1485.901367 168.0
1486.388428 168.0
1488.153809 64.0
1488.522339 184.0
1488.837158 148.0
1489.582153 168.0
1490.104614 160.0
1490.949829 200.0
1493.302246 196.0
1496.141602 184.0
1497.458374 132.0
1498.344116 172.0
1498.544434 180.0
1499.754272 164.0
1500.1521 164.0
1500.64856 196.0
1500.710205 172.0
1500.941528 120.0
1502.95459 208.0
1503.572021 184.0
1504.127686 156.0
