>compound Lisinopril (Zestril)
>formula C21H31N3O5
>ionization [M+H]+
>parentmass 406.232971
#inchi InChI=1S/C21H31N3O5/c22-13-5-4-9-16(19(25)24-14-6-10-18(24)21(28)29)23-17(20(26)27)12-11-15-7-2-1-3-8-15/h1-3,7-8,16-18,23H,4-6,9-14,22H2,(H,26,27)(H,28,29)/t16-,17-,18-/m0/s1
#inchikey RLAWWYSOJDYHDC
#Ion_Source LC-ESI
#Instrument qTof
#Compound_Source Commercial
#PI Dorrestein
#Data_Collector Garg_Neha
#Scan -1
#Precursor_MZ 406.234
#ExactMass 405.226
#Charge 1
#CAS_Number 83915-83-7
#Pubmed_ID N/A
#Smiles C1=CC=CC(=C1)CC[C@H](N[C@H](C(N2[C@@H](CCC2)C(=O)O)=O)CCCCN)C(O)=O
#INCHI_AUX N/A
#Library_Class 1
#SpectrumID CCMSLIB00000078420
#IonMode Positive
#UpdateWorkflowName UPDATE-SINGLE-ANNOTATED-GOLD
#LibraryQualityString Gold
#TaskID 77f51c88eb8b467eb4a01dd2d0cb90d2
##Scan# 987
#SpectrumFile Plate6_61_80_GD10_01_15777.mzXML
#LibraryName FDALibrary_2_04302014.mgf
#MQScore -1
#Organism FDALibrary_2_04302014
#TIC_Query 0
#RT_Query -1
#MZErrorPPM -1
#SharedPeaks 0
#MassDiff 0
#LibMZ -1
#SpecMZ 406.234
#SpecCharge 0
#internalFilename spec-00000.mgf

>collision 10
81.033791 152.0
116.068581 160.0
132.884781 160.0
134.092072 188.0
135.050278 140.0
142.087387 196.0
149.04924 220.0
160.141785 160.0
165.147293 152.0
199.144714 184.0
200.142899 292.0
217.620529 200.0
221.341766 168.0
228.13446 132.0
245.15892 128.0
245.188019 152.0
246.148163 1256.0
247.150711 296.0
248.15773 120.0
263.174042 1020.0
264.1763 376.0
264.535522 224.0
280.575775 196.0
290.45639 152.0
291.168274 520.0
308.524139 252.0
309.175659 520.0
310.183197 236.0
312.469727 156.0
319.083649 144.0
319.375244 200.0
342.210571 172.0
343.202118 120.0
352.070953 212.0
358.226166 192.0
360.22583 112.0
361.026825 140.0
362.889893 156.0
388.247711 172.0
389.208527 516.0
390.211212 124.0
404.070831 140.0
405.174469 180.0
405.249115 164.0
406.232971 11592.0
406.477661 180.0
407.171814 116.0
407.236145 3668.0
408.240753 632.0
409.18042 148.0
409.229279 164.0
409.284119 196.0
409.595612 100.0
415.179352 152.0
429.977875 196.0
444.20459 164.0
