>compound MLS001048867-01!1H-indole-3-carboxamide
>formula C9H8N2O
>ionization [M+H]+
>parentmass 161.071
#inchi InChI=1S/C9H8N2O/c10-9(12)7-5-11-8-4-2-1-3-6(7)8/h1-5,11H,(H2,10,12)
#inchikey LSGKMZLPZFPAIN
#Ion_Source LC-ESI
#Instrument qTof
#Compound_Source NIH Natural Product Library
#PI Dorrestein
#Data_Collector VVP/LMS
#Scan -1
#Precursor_MZ 161.071
#ExactMass 160.064
#Charge 1
#CAS_Number N/A
#Pubmed_ID N/A
#Smiles NC(=O)c1c[nH]c2ccccc12
#INCHI_AUX N/A
#Library_Class 1
#SpectrumID CCMSLIB00000080564
#IonMode Positive
#UpdateWorkflowName UPDATE-SINGLE-ANNOTATED-GOLD
#LibraryQualityString Gold
#TaskID b1d8e8f6646f4e71acdff9ca3d919d08
##Scan# 1333
#SpectrumFile p2-F10_GF10_01_18046.mzXML
#LibraryName NIH_Natural_Products_Library.mgf
#MQScore -1
#Organism NIH_Natural_Products_Library
#TIC_Query 0
#RT_Query -1
#MZErrorPPM -1
#SharedPeaks 0
#MassDiff 0
#LibMZ -1
#SpecMZ 161.071
#SpecCharge 0
#internalFilename spec-00000.mgf

>collision 10
95.536522 172.0
96.24987 148.0
98.569778 116.0
99.461014 160.0
105.137383 168.0
108.338959 196.0
110.602562 164.0
111.653732 112.0
111.697906 152.0
115.552727 164.0
115.790337 152.0
116.049316 2876.0
116.480995 64.0
116.844307 60.0
117.025101 216.0
117.056938 1176.0
118.064369 2216.0
118.173355 68.0
118.383324 56.0
118.463463 84.0
118.519798 28.0
118.554466 76.0
119.064018 152.0
119.829987 140.0
120.043602 160.0
126.695007 68.0
128.976852 88.0
132.044174 308.0
134.055237 116.0
137.347534 140.0
141.142853 76.0
142.306259 152.0
143.058701 188.0
143.181351 208.0
143.946869 160.0
144.043671 2480.0
144.070602 204.0
145.050674 384.0
156.303436 84.0
367.456146 88.0
369.329926 20.0
582.834167 80.0
743.323669 140.0
781.387329 224.0
953.792664 264.0
1008.050598 112.0
1050.15625 40.0
1052.944458 52.0
1055.923828 68.0
1067.59082 140.0
1091.367065 140.0
1138.408569 192.0
1143.551636 100.0
1144.574951 180.0
1155.908325 188.0
1155.996338 36.0
1157.289185 64.0
1161.056763 208.0
1189.817993 112.0
1194.862427 200.0
1219.382812 108.0
1264.480957 204.0
1265.401245 104.0
1269.681152 256.0
1272.718262 200.0
1274.643188 164.0
1277.544067 172.0
1282.264893 176.0
1283.911743 168.0
1325.520996 200.0
1328.450073 148.0
1337.118408 224.0
1341.845947 192.0
1364.777466 168.0
1368.353271 60.0
1369.170532 176.0
1378.266113 172.0
1447.484009 128.0
1455.331909 156.0
1464.43457 92.0
1468.908813 216.0
1472.893311 176.0
1477.632935 140.0
1477.870117 84.0
1479.033325 168.0
