>compound Nepafenac
>formula C15H14N2O2
>ionization [M+H]+
>parentmass 255.11377
#inchi InChI=1S/C15H14N2O2/c16-13(18)9-11-7-4-8-12(14(11)17)15(19)10-5-2-1-3-6-10/h1-8H,9,17H2,(H2,16,18)
#inchikey QEFAQIPZVLVERP
#Ion_Source LC-ESI
#Instrument qTof
#Compound_Source Commercial
#PI Dorrestein
#Data_Collector Garg_Neha
#Scan -1
#Precursor_MZ 255.113
#ExactMass 254.106
#Charge 1
#CAS_Number 78281-72-8
#Pubmed_ID N/A
#Smiles C(CC1C(=C(C=CC=1)C(C2C=CC=CC=2)=O)N)(=O)N
#INCHI_AUX N/A
#Library_Class 1
#SpectrumID CCMSLIB00000078069
#IonMode Positive
#UpdateWorkflowName UPDATE-SINGLE-ANNOTATED-GOLD
#LibraryQualityString Gold
#TaskID 77f51c88eb8b467eb4a01dd2d0cb90d2
##Scan# 1229
#SpectrumFile Plate1_61_88_GG4_01_16491.mzXML
#LibraryName FDALibrary_2_04302014.mgf
#MQScore -1
#Organism FDALibrary_2_04302014
#TIC_Query 0
#RT_Query -1
#MZErrorPPM -1
#SharedPeaks 0
#MassDiff 0
#LibMZ -1
#SpecMZ 255.113
#SpecCharge 0
#internalFilename spec-00000.mgf

>collision 10
44.909172 336.0
44.942741 148.0
44.954536 200.0
45.014606 140.0
45.195847 356.0
45.345051 148.0
45.355358 116.0
45.428188 160.0
45.438095 156.0
45.456993 324.0
45.491261 140.0
45.566998 172.0
45.613506 152.0
45.686123 184.0
45.813103 236.0
45.857136 152.0
45.954231 196.0
45.985271 152.0
46.009567 156.0
46.041977 176.0
46.194714 236.0
46.340927 168.0
46.497135 208.0
46.540314 156.0
46.595291 168.0
46.693878 176.0
46.809761 156.0
46.876305 180.0
46.895828 172.0
47.062469 176.0
47.078426 148.0
47.105522 196.0
47.170143 180.0
47.181404 144.0
47.214867 164.0
47.229912 232.0
47.251133 244.0
47.26115 216.0
47.316128 144.0
47.44326 196.0
47.470963 152.0
47.481743 116.0
47.48954 220.0
47.51897 140.0
47.551907 184.0
47.630169 204.0
47.689724 212.0
47.71125 216.0
47.825428 148.0
47.863976 192.0
47.931473 184.0
47.957455 256.0
48.00938 240.0
48.120441 148.0
48.139771 152.0
48.170158 188.0
48.300098 216.0
48.385899 224.0
48.431595 184.0
48.496719 152.0
48.524445 140.0
48.588795 152.0
48.631264 152.0
48.65559 132.0
48.704853 192.0
48.746536 184.0
48.830296 196.0
48.931534 180.0
48.963558 176.0
48.994205 220.0
49.066677 176.0
49.130829 188.0
49.169903 196.0
49.268276 156.0
49.336124 160.0
49.406391 148.0
49.494228 204.0
49.53854 204.0
49.663868 180.0
49.693565 112.0
49.708698 176.0
49.737179 192.0
49.788719 196.0
49.812595 176.0
49.86311 156.0
49.96302 196.0
49.993191 208.0
50.012272 192.0
50.060577 180.0
50.210934 192.0
50.294182 168.0
50.326252 156.0
50.438553 160.0
50.490574 208.0
50.508961 140.0
50.521694 164.0
50.56839 168.0
50.617939 168.0
50.657597 156.0
50.768005 228.0
50.839088 196.0
50.871735 164.0
50.979683 212.0
51.030853 172.0
51.066406 152.0
51.076363 196.0
51.099079 256.0
51.136124 204.0
51.279976 144.0
51.325596 212.0
51.503994 204.0
51.545425 188.0
51.701328 208.0
51.752316 220.0
51.800507 160.0
51.825886 200.0
51.934841 184.0
52.120037 164.0
52.141594 160.0
52.311325 240.0
52.387154 140.0
52.456821 296.0
52.559261 136.0
52.583755 204.0
52.610481 256.0
52.629948 156.0
52.66172 176.0
52.700726 208.0
52.710842 204.0
52.726738 192.0
52.790348 256.0
52.816383 148.0
52.868469 192.0
52.881493 188.0
52.891624 216.0
52.920582 172.0
52.934635 136.0
52.974167 220.0
52.997349 400.0
53.075619 208.0
53.103176 176.0
53.113327 276.0
53.130943 196.0
53.225357 188.0
53.271557 180.0
53.338402 244.0
53.377655 184.0
53.505699 192.0
53.52026 172.0
53.620777 152.0
53.663052 140.0
53.724304 348.0
53.758392 244.0
53.936386 296.0
53.964081 208.0
54.019402 188.0
54.050125 144.0
54.120388 148.0
54.151138 168.0
54.234657 168.0
54.26984 184.0
54.329975 168.0
54.393829 180.0
54.44416 192.0
54.460625 196.0
54.551727 192.0
54.584076 156.0
54.619373 164.0
54.64291 240.0
54.706196 192.0
54.754784 332.0
54.764561 220.0
54.838131 176.0
54.875622 140.0
54.919426 156.0
55.011353 172.0
55.123604 144.0
55.148727 276.0
55.2197 176.0
55.312916 152.0
55.327721 168.0
55.362579 132.0
55.425476 172.0
55.671726 164.0
55.707371 160.0
55.752663 224.0
55.793568 212.0
55.870903 180.0
55.943825 192.0
56.034885 140.0
56.128761 192.0
56.209126 172.0
56.256889 208.0
56.271816 128.0
56.339024 180.0
56.361923 160.0
56.387909 168.0
56.428699 252.0
56.43869 156.0
56.479546 172.0
56.720627 172.0
56.738647 184.0
56.757076 184.0
56.935184 208.0
56.980247 148.0
56.996777 224.0
57.043369 208.0
57.111034 180.0
57.145638 196.0
57.187771 160.0
57.198311 148.0
57.371548 176.0
57.416786 196.0
57.514343 208.0
57.552601 172.0
57.609993 216.0
57.694626 212.0
57.71579 164.0
57.806866 212.0
57.873158 148.0
57.931099 140.0
58.12326 256.0
58.14299 148.0
58.202908 172.0
58.232567 216.0
58.256042 176.0
58.316936 144.0
58.330742 216.0
58.399757 208.0
58.417221 152.0
58.451485 204.0
58.467823 212.0
58.57024 212.0
58.599182 196.0
58.838634 180.0
58.878338 160.0
58.947083 220.0
59.023514 144.0
59.070927 152.0
59.271492 164.0
59.338936 152.0
59.466259 200.0
59.523064 144.0
59.613441 192.0
59.649048 140.0
59.661346 160.0
59.68354 220.0
59.702171 116.0
59.820312 180.0
59.898335 160.0
59.909119 144.0
60.006214 176.0
60.021965 148.0
60.0895 156.0
60.1003 172.0
60.214535 172.0
60.30724 184.0
60.372177 188.0
60.4356 164.0
60.463455 192.0
60.627617 172.0
60.708233 164.0
60.735886 140.0
60.756317 168.0
60.835464 204.0
61.045242 160.0
61.060806 184.0
61.073215 144.0
61.220329 176.0
61.351959 188.0
61.404976 144.0
61.447094 168.0
61.503277 192.0
61.537621 200.0
61.562603 156.0
61.584469 164.0
61.677113 180.0
61.777985 196.0
61.788036 200.0
61.815643 148.0
62.021023 172.0
62.30238 136.0
62.35498 172.0
62.459122 164.0
62.492065 204.0
62.533073 208.0
62.557865 128.0
62.607071 164.0
62.620712 164.0
62.723133 212.0
62.79697 220.0
62.96981 148.0
62.980869 164.0
62.999825 144.0
63.044067 208.0
63.075771 136.0
63.195068 136.0
63.252846 192.0
63.332016 204.0
63.360821 176.0
63.397385 312.0
63.41441 140.0
63.522339 124.0
63.552578 96.0
63.603165 168.0
63.629139 340.0
63.757229 184.0
63.781841 132.0
63.87648 176.0
63.987881 168.0
64.01973 144.0
64.038643 164.0
64.159943 152.0
64.191803 216.0
64.367546 144.0
64.400909 156.0
64.46241 164.0
64.62632 196.0
64.738373 196.0
64.784821 184.0
64.906532 188.0
65.023743 168.0
65.077888 208.0
65.124893 208.0
65.284004 144.0
65.311348 148.0
65.38858 216.0
65.406288 140.0
65.475014 140.0
65.49324 232.0
65.523842 164.0
65.630226 156.0
65.844849 164.0
65.867462 148.0
65.885239 192.0
65.926888 208.0
66.020302 100.0
66.038986 144.0
66.101898 144.0
66.138527 228.0
66.259628 136.0
66.314056 240.0
66.335129 160.0
66.362686 140.0
66.385078 188.0
66.412964 140.0
66.574623 160.0
66.606125 208.0
66.701996 152.0
66.741013 164.0
66.771912 216.0
66.954193 156.0
67.037941 108.0
67.062813 204.0
67.136726 176.0
67.17028 192.0
67.344002 152.0
67.378426 108.0
67.432228 236.0
67.446938 220.0
67.697395 152.0
67.726006 220.0
67.8283 176.0
67.908684 208.0
67.982658 184.0
68.094154 192.0
68.113861 196.0
68.142906 112.0
68.172462 176.0
68.226303 124.0
68.245338 144.0
68.332512 168.0
68.352257 224.0
68.381882 164.0
68.418098 208.0
68.462555 156.0
68.550179 168.0
68.658669 148.0
68.73951 152.0
68.803894 188.0
68.850113 148.0
68.902969 200.0
69.002136 188.0
69.01371 196.0
69.055054 144.0
69.141663 208.0
69.179161 184.0
69.242081 148.0
69.25367 152.0
69.296883 196.0
69.339867 188.0
69.4207 108.0
69.454071 156.0
69.537201 192.0
69.583679 192.0
69.605263 224.0
69.635155 224.0
69.697701 192.0
69.777657 160.0
69.959412 156.0
70.046989 172.0
70.090988 176.0
70.117607 148.0
70.145592 168.0
70.234367 180.0
70.275787 208.0
70.321129 292.0
70.337425 168.0
70.444695 176.0
70.605164 164.0
70.757431 156.0
70.800598 340.0
70.945076 180.0
71.116173 168.0
71.127922 236.0
71.174934 160.0
71.195084 228.0
71.206741 200.0
71.263908 132.0
71.325706 232.0
71.348831 200.0
71.386665 156.0
71.465729 216.0
71.503151 184.0
71.54483 224.0
71.620605 232.0
71.704857 184.0
71.782402 180.0
71.949448 204.0
71.988129 204.0
72.094711 232.0
72.218132 172.0
72.375107 196.0
72.413597 116.0
72.499184 288.0
72.541557 204.0
72.600899 192.0
72.808426 100.0
72.838524 156.0
72.920082 152.0
72.976181 192.0
73.00679 176.0
73.032303 252.0
73.085037 180.0
73.17614 160.0
73.350723 140.0
73.368813 252.0
73.463875 148.0
73.48204 156.0
73.550301 156.0
73.592979 164.0
73.61689 172.0
73.630547 188.0
73.649338 220.0
73.693443 152.0
73.736481 180.0
73.765533 196.0
73.787758 160.0
73.840927 128.0
73.887955 220.0
73.909203 200.0
73.924599 180.0
74.003342 188.0
74.049576 208.0
74.12738 116.0
74.202087 144.0
74.22438 164.0
74.253342 144.0
74.313576 176.0
74.387375 140.0
74.435448 240.0
74.468079 168.0
74.54882 172.0
74.56945 184.0
74.590073 180.0
74.639931 216.0
74.73571 176.0
74.791328 148.0
74.807594 192.0
74.9067 176.0
74.929962 152.0
74.979073 188.0
75.011421 200.0
75.084236 176.0
75.188393 204.0
75.206741 240.0
75.279251 168.0
75.311516 144.0
75.50219 152.0
75.62455 148.0
75.72242 176.0
75.739311 192.0
75.756973 164.0
75.853676 204.0
76.117828 320.0
76.306786 180.0
76.350258 200.0
76.404182 252.0
76.475533 204.0
76.661888 220.0
76.7033 184.0
76.736839 176.0
76.808342 168.0
76.862427 160.0
76.888603 156.0
76.92675 164.0
76.98555 172.0
77.038773 160.0
77.099922 148.0
77.205589 216.0
77.291458 144.0
77.309387 140.0
77.327286 308.0
77.456863 176.0
77.477882 172.0
77.682999 188.0
77.781105 176.0
77.79882 164.0
77.861092 244.0
77.948112 160.0
78.059311 124.0
78.11866 160.0
78.231163 216.0
78.252419 140.0
78.30172 152.0
78.462547 240.0
78.539665 248.0
78.627892 164.0
78.721458 224.0
78.757172 304.0
79.007797 144.0
79.03434 172.0
79.152939 176.0
79.177727 188.0
79.247299 160.0
79.29821 144.0
79.312386 176.0
79.344299 172.0
79.413452 188.0
79.454102 140.0
79.500389 172.0
79.540306 228.0
79.55719 208.0
79.57782 180.0
79.669075 160.0
79.745483 240.0
79.795258 196.0
79.82193 144.0
79.845047 164.0
79.862831 200.0
80.119171 160.0
80.163719 184.0
80.295639 232.0
80.365211 200.0
80.384384 124.0
80.427673 212.0
80.490166 208.0
80.634865 152.0
80.940376 232.0
80.992096 196.0
81.028549 220.0
81.116364 156.0
81.356415 108.0
81.423187 196.0
81.626259 152.0
81.647842 164.0
81.694611 200.0
81.83139 160.0
81.877258 192.0
81.890816 168.0
81.917831 160.0
82.063812 168.0
82.085457 144.0
82.170227 176.0
82.197296 164.0
82.368813 152.0
82.428436 192.0
82.455544 224.0
82.509773 196.0
82.591148 216.0
82.648392 144.0
82.697906 156.0
82.741348 180.0
82.788795 180.0
82.890373 204.0
82.957603 152.0
82.996826 224.0
83.012047 112.0
83.102028 176.0
83.116547 156.0
83.163727 172.0
83.243614 176.0
83.256325 168.0
83.385315 184.0
83.441666 272.0
83.519783 180.0
83.585365 208.0
83.686821 224.0
83.751854 148.0
83.791115 160.0
83.82209 140.0
83.849426 168.0
83.864006 276.0
83.927223 112.0
83.975227 180.0
84.062798 176.0
84.156136 152.0
84.234428 140.0
84.277786 196.0
84.347717 160.0
84.537933 188.0
84.558067 148.0
84.62397 148.0
84.716904 204.0
84.867661 172.0
85.019043 168.0
85.059189 152.0
85.114632 176.0
85.130066 172.0
85.181496 180.0
85.310127 196.0
85.334419 188.0
85.391357 208.0
85.498482 200.0
85.582428 148.0
85.860466 132.0
86.011986 184.0
86.050751 276.0
86.098763 260.0
86.172653 180.0
86.207764 200.0
86.262115 148.0
86.31498 144.0
86.376015 180.0
86.575905 152.0
86.687057 148.0
86.80925 140.0
86.822067 184.0
86.863197 164.0
86.883606 336.0
86.966125 196.0
87.054367 184.0
87.07666 176.0
87.089661 156.0
87.165833 216.0
87.219727 168.0
87.246674 208.0
87.303398 180.0
87.370407 216.0
87.441071 156.0
87.483879 168.0
87.554634 156.0
87.583862 168.0
87.660828 164.0
87.685051 184.0
87.742836 168.0
87.770393 216.0
87.818413 236.0
88.02459 152.0
88.058205 164.0
88.084351 140.0
88.140404 168.0
88.168503 224.0
88.263481 236.0
88.381615 168.0
88.532822 176.0
88.621292 156.0
88.686882 240.0
88.869247 336.0
88.885681 172.0
88.977005 384.0
89.075157 156.0
89.094093 200.0
89.146698 160.0
89.199326 164.0
89.253853 156.0
89.275734 144.0
89.289864 124.0
89.387527 184.0
89.492462 320.0
89.818855 148.0
89.881111 140.0
89.98304 144.0
90.032135 256.0
90.096359 212.0
90.113358 236.0
90.153046 172.0
90.19651 160.0
90.366722 164.0
90.408669 192.0
90.443642 240.0
90.466591 156.0
90.523827 164.0
90.595802 168.0
90.700813 152.0
90.716469 256.0
90.830872 220.0
90.925735 212.0
91.066238 212.0
91.134628 148.0
91.149826 180.0
91.203041 232.0
91.271484 160.0
91.358978 200.0
91.485458 148.0
91.532181 244.0
91.750824 212.0
91.879074 248.0
92.03257 236.0
92.077599 200.0
92.092873 212.0
92.155914 148.0
92.175026 208.0
92.314575 212.0
92.452316 200.0
92.618889 180.0
92.754936 148.0
92.787529 140.0
92.869987 224.0
92.900681 172.0
92.914108 224.0
92.948647 148.0
92.969757 172.0
93.240829 244.0
93.265663 176.0
93.305901 188.0
93.377808 184.0
93.407158 172.0
93.521301 144.0
93.594513 148.0
93.690819 204.0
93.785973 116.0
93.844757 124.0
93.896355 260.0
93.917084 244.0
93.931137 196.0
93.983879 220.0
94.024406 144.0
94.061081 152.0
94.088219 140.0
94.319923 220.0
94.526871 172.0
94.581604 240.0
94.683678 220.0
94.866425 140.0
94.887146 176.0
95.010452 188.0
95.03688 200.0
95.129646 160.0
95.2481 160.0
95.354973 176.0
95.452171 256.0
95.502739 156.0
95.633102 260.0
95.679825 176.0
95.735161 172.0
95.750847 212.0
95.96003 200.0
95.987747 120.0
96.062057 208.0
96.102768 200.0
96.117371 208.0
96.276497 168.0
96.350723 160.0
96.391869 212.0
96.44133 132.0
96.464073 236.0
96.47776 144.0
96.514908 164.0
96.585312 156.0
96.635384 128.0
96.677269 156.0
96.730118 180.0
96.780411 180.0
96.817482 248.0
96.831932 176.0
96.894623 180.0
96.915184 324.0
97.004364 200.0
97.022675 212.0
97.040962 180.0
97.057671 184.0
97.106331 192.0
97.154152 204.0
97.19281 148.0
97.23748 180.0
97.408615 144.0
97.463623 192.0
97.70153 152.0
97.721642 144.0
97.778221 168.0
97.813698 180.0
97.866852 140.0
98.053375 176.0
98.132851 144.0
98.213509 160.0
98.27092 172.0
98.426857 152.0
98.517708 220.0
98.540665 164.0
98.55722 192.0
98.584885 156.0
98.636276 184.0
98.819244 108.0
98.89875 144.0
98.978218 120.0
99.045616 176.0
99.231651 212.0
99.264969 140.0
99.286263 188.0
99.367043 156.0
99.539726 184.0
99.615204 168.0
99.65979 216.0
99.73642 180.0
99.758286 184.0
99.86261 224.0
99.876717 136.0
99.935287 144.0
99.979065 184.0
100.136353 168.0
100.191429 172.0
100.321327 164.0
100.337105 172.0
100.369514 168.0
100.439323 152.0
100.539078 220.0
100.722771 164.0
100.738754 160.0
100.75473 152.0
100.848656 140.0
100.956619 172.0
101.002113 252.0
101.026627 152.0
101.128677 144.0
101.14669 164.0
101.190735 152.0
101.210762 160.0
101.274841 312.0
101.328171 220.0
101.477249 184.0
101.537407 152.0
101.577522 168.0
101.661797 156.0
101.731773 180.0
101.918877 160.0
102.068932 196.0
102.105789 348.0
102.119865 184.0
102.175758 168.0
102.274796 180.0
102.510895 284.0
102.798813 164.0
102.898392 196.0
103.039093 144.0
103.058357 156.0
103.100204 100.0
103.206856 192.0
103.240601 180.0
103.429398 188.0
103.503647 208.0
103.534683 256.0
103.771767 160.0
103.940125 184.0
103.983826 192.0
104.011154 216.0
104.049728 3396.0
104.179703 160.0
104.232529 208.0
104.281303 208.0
104.317108 248.0
104.356522 172.0
104.397461 180.0
104.571648 192.0
104.730492 152.0
104.779617 164.0
104.849945 200.0
104.874275 268.0
104.908264 200.0
104.953117 236.0
105.034225 32704.0
105.112923 152.0
105.189484 164.0
105.305679 184.0
105.383881 188.0
105.402184 156.0
105.419441 208.0
105.456718 180.0
105.614807 204.0
105.661079 136.0
105.720757 148.0
105.747803 176.0
105.78714 204.0
105.854263 164.0
105.897217 148.0
105.923897 216.0
106.013245 132.0
106.036804 1768.0
106.206779 176.0
106.236382 180.0
106.35041 188.0
106.426369 232.0
106.475655 124.0
106.496193 244.0
106.632401 108.0
106.655281 236.0
106.808197 152.0
106.832024 172.0
106.861809 188.0
106.963905 200.0
107.044029 232.0
107.168907 264.0
107.294632 140.0
107.418365 160.0
107.496773 168.0
107.54142 164.0
107.557228 164.0
107.73835 180.0
107.815056 288.0
107.927536 164.0
107.997665 180.0
108.060875 180.0
108.087242 188.0
108.187119 172.0
108.210457 220.0
108.240952 188.0
108.274086 228.0
108.303085 188.0
108.392174 204.0
108.437767 220.0
108.460564 248.0
108.522758 164.0
108.556526 212.0
108.648376 184.0
108.750954 156.0
108.792473 212.0
108.902809 176.0
109.120728 144.0
109.178955 200.0
109.330826 220.0
109.414085 208.0
109.43074 172.0
109.472389 196.0
109.576538 156.0
109.599457 284.0
109.635277 232.0
109.671036 232.0
109.728119 192.0
109.76413 164.0
109.986267 152.0
110.012421 216.0
110.129913 164.0
110.231728 148.0
110.274918 108.0
110.322395 216.0
110.342506 160.0
110.394783 224.0
110.459076 200.0
110.54026 156.0
110.645874 148.0
110.729637 156.0
111.184593 164.0
111.314751 160.0
111.358315 140.0
111.564781 160.0
111.798264 160.0
111.829826 140.0
111.855087 176.0
111.957932 152.0
112.000381 204.0
112.063583 228.0
112.078331 168.0
112.115868 212.0
112.122589 172.0
112.131096 212.0
112.14006 180.0
112.436829 180.0
112.464272 204.0
112.485382 144.0
112.510712 184.0
112.527603 180.0
112.559273 208.0
112.899506 180.0
112.996811 240.0
113.108971 144.0
113.149681 192.0
113.235962 156.0
113.39492 172.0
113.596359 180.0
113.674866 172.0
113.691841 148.0
113.818085 172.0
113.870178 188.0
114.046532 192.0
114.095421 168.0
114.21376 176.0
114.244179 152.0
114.376228 192.0
114.493332 144.0
114.564392 128.0
114.615494 256.0
114.951683 196.0
114.990097 172.0
115.116051 168.0
115.376732 208.0
115.415588 232.0
115.449432 176.0
115.591805 196.0
115.624863 184.0
115.671951 184.0
115.701927 176.0
115.766159 156.0
115.831329 172.0
115.864693 160.0
115.896645 140.0
115.941833 356.0
116.086166 172.0
116.147667 160.0
116.169945 196.0
116.340797 152.0
116.407356 172.0
116.470909 184.0
116.496353 188.0
116.637703 152.0
116.682503 156.0
116.703896 160.0
116.854355 168.0
116.887001 128.0
116.955597 208.0
116.992195 144.0
117.039566 160.0
117.054634 152.0
117.194649 160.0
117.240097 180.0
117.373558 204.0
117.408058 184.0
117.453354 172.0
117.47023 204.0
117.513763 340.0
117.578499 172.0
117.623825 152.0
117.647568 244.0
117.898132 168.0
117.913261 240.0
117.95433 148.0
118.140396 188.0
118.199402 204.0
118.278801 168.0
118.335083 148.0
118.393555 220.0
118.566872 156.0
118.588547 180.0
118.607758 236.0
118.649239 160.0
118.748993 164.0
118.805389 208.0
118.846611 168.0
118.968155 164.0
118.996376 192.0
119.094887 188.0
119.113647 156.0
119.297226 244.0
119.324455 148.0
119.367943 144.0
119.436897 136.0
119.647293 144.0
119.849007 168.0
119.867943 208.0
119.931084 180.0
120.054901 124.0
120.101898 140.0
120.228447 164.0
120.475182 396.0
120.490471 216.0
120.548302 224.0
120.58326 148.0
120.759354 148.0
120.842476 156.0
120.901566 192.0
121.052612 220.0
121.09861 164.0
121.197189 160.0
121.348427 144.0
121.405441 160.0
121.440529 160.0
121.486595 148.0
121.613869 220.0
121.851868 308.0
121.952126 148.0
122.121429 144.0
122.218231 148.0
122.270805 188.0
122.381111 144.0
122.526054 228.0
122.573502 128.0
122.657928 160.0
122.742477 168.0
122.772514 168.0
122.841827 180.0
122.982956 160.0
123.007233 196.0
123.095551 152.0
123.250175 148.0
123.393845 176.0
123.4823 200.0
123.650452 212.0
123.763351 164.0
123.787712 200.0
123.851936 168.0
123.878517 264.0
123.940552 144.0
124.009254 200.0
124.090736 132.0
124.117882 180.0
124.155586 188.0
124.206596 180.0
124.24305 260.0
124.344162 216.0
124.492912 204.0
124.578903 144.0
124.678261 148.0
124.71064 240.0
124.755951 188.0
124.79512 188.0
124.811584 276.0
124.912987 160.0
125.036537 176.0
125.131088 148.0
125.240204 176.0
125.320404 168.0
125.380302 164.0
125.461952 212.0
125.563393 156.0
125.764198 200.0
126.070183 144.0
126.235611 180.0
126.363106 156.0
126.46032 208.0
126.477242 148.0
126.522247 188.0
126.658615 160.0
126.743752 160.0
126.853882 144.0
126.889549 160.0
127.010536 204.0
127.070107 168.0
127.10701 200.0
127.174278 156.0
127.309044 188.0
127.468544 220.0
127.500008 192.0
127.78109 196.0
127.904518 104.0
128.0242 192.0
128.066666 216.0
128.089981 176.0
128.134567 196.0
128.1633 160.0
128.435486 132.0
128.475006 140.0
128.4953 264.0
128.734436 132.0
128.805252 204.0
128.973404 180.0
129.065018 136.0
129.110764 156.0
129.144501 212.0
129.203796 204.0
129.304291 156.0
129.433334 196.0
129.480881 212.0
129.623611 208.0
129.691605 164.0
129.713287 140.0
129.775482 208.0
129.813965 164.0
129.933594 168.0
130.026031 132.0
130.047714 152.0
130.145325 408.0
130.206635 248.0
130.256607 192.0
130.333862 156.0
130.370209 256.0
130.406677 184.0
130.529343 236.0
130.558197 204.0
130.690842 336.0
130.740906 140.0
130.94809 200.0
131.048325 152.0
131.103012 176.0
131.148346 148.0
131.324173 288.0
131.342407 168.0
131.408569 176.0
131.570618 172.0
131.721344 176.0
131.778458 188.0
131.817307 224.0
131.89119 156.0
131.936432 168.0
132.00238 224.0
132.04483 41072.0
132.09935 212.0
132.127792 156.0
132.242371 156.0
132.293869 112.0
132.323135 280.0
132.353668 100.0
132.374191 184.0
132.57019 188.0
132.746704 168.0
132.898102 168.0
132.918747 176.0
132.965912 196.0
133.047256 3824.0
133.302246 236.0
133.437866 140.0
133.897873 124.0
133.932632 216.0
134.001007 164.0
134.049179 444.0
134.077789 156.0
134.116058 100.0
134.223022 204.0
134.243774 192.0
134.322067 144.0
134.35994 224.0
134.662598 144.0
134.881653 168.0
135.12616 168.0
135.151611 192.0
135.322891 152.0
135.496597 164.0
135.566116 348.0
135.582336 248.0
135.619415 164.0
136.043915 192.0
136.181778 164.0
136.23645 164.0
136.420258 228.0
136.512131 172.0
136.580719 272.0
136.645859 188.0
136.724976 208.0
136.793381 144.0
136.81575 232.0
136.864655 184.0
136.967117 160.0
137.004395 192.0
137.102264 200.0
137.208084 200.0
137.524399 244.0
137.582977 188.0
137.763565 216.0
137.781281 168.0
137.937851 140.0
138.006866 300.0
138.058365 184.0
138.099197 152.0
138.143646 184.0
138.321487 180.0
138.347244 156.0
138.370651 140.0
138.408112 196.0
138.445587 212.0
138.543961 156.0
138.743164 160.0
138.78302 144.0
138.881119 188.0
138.921402 152.0
138.963623 140.0
139.052048 320.0
139.080963 208.0
139.266464 208.0
139.597855 144.0
139.661346 292.0
139.739243 176.0
139.762512 216.0
139.814285 172.0
139.979065 140.0
140.059479 256.0
140.127472 272.0
140.153381 152.0
140.188736 204.0
140.221725 148.0
140.284912 184.0
140.34903 196.0
140.412018 180.0
140.471664 140.0
140.495255 188.0
140.669891 184.0
140.917862 188.0
141.026031 140.0
141.070129 452.0
141.253571 144.0
141.284332 168.0
141.329285 184.0
141.350586 180.0
141.433411 192.0
141.460983 260.0
141.561264 184.0
141.63942 164.0
141.719971 164.0
141.843216 148.0
141.866913 148.0
142.028717 120.0
142.087479 264.0
142.227493 148.0
142.279709 168.0
142.422195 132.0
142.510101 204.0
142.550491 188.0
142.595642 176.0
142.724014 192.0
142.823898 172.0
142.880997 148.0
142.96904 148.0
143.073486 176.0
143.211884 180.0
143.300034 168.0
143.463867 200.0
143.493088 148.0
143.530624 108.0
143.836395 128.0
143.991821 228.0
144.057739 936.0
144.084991 220.0
144.154282 168.0
144.201447 256.0
144.26712 152.0
144.477066 168.0
144.629761 228.0
144.860107 152.0
144.955948 152.0
144.977509 168.0
145.030487 156.0
145.06514 172.0
145.094955 168.0
145.309586 132.0
145.389999 220.0
145.43541 176.0
145.534027 152.0
145.593063 192.0
145.889618 152.0
145.931534 196.0
146.067566 236.0
146.115234 208.0
146.221558 144.0
146.522568 180.0
146.647873 176.0
146.684036 296.0
146.746719 196.0
146.785294 156.0
146.884171 164.0
146.962112 252.0
147.006104 232.0
147.033615 264.0
147.11116 128.0
147.210007 276.0
147.229324 160.0
147.289703 140.0
147.451599 276.0
147.521698 204.0
147.560867 124.0
147.582138 148.0
147.652267 200.0
147.669189 208.0
147.686127 160.0
147.807587 136.0
148.020111 140.0
148.129105 140.0
148.281754 168.0
148.308411 144.0
148.327805 164.0
148.540527 188.0
148.724915 156.0
148.769318 148.0
149.041336 144.0
149.114243 172.0
149.194458 188.0
149.240646 172.0
149.306305 148.0
149.469299 160.0
149.516495 204.0
149.6129 256.0
149.693253 164.0
149.710297 144.0
149.739517 168.0
149.758011 224.0
149.802856 192.0
149.844269 280.0
149.873459 188.0
149.947876 172.0
149.96611 164.0
150.002686 184.0
150.054596 1552.0
150.079437 148.0
150.102463 108.0
150.212402 204.0
150.397842 160.0
150.742218 160.0
150.795975 152.0
150.845062 152.0
150.932877 188.0
151.00737 260.0
151.044983 240.0
151.054672 200.0
151.16037 140.0
151.213486 176.0
151.250931 152.0
151.287643 144.0
151.307236 184.0
151.32341 272.0
151.645294 236.0
152.062531 1656.0
152.280136 140.0
152.342178 232.0
152.379028 180.0
152.590393 216.0
152.678925 156.0
152.895416 208.0
153.04483 156.0
153.070068 952.0
153.119461 176.0
153.203217 172.0
153.272202 172.0
153.291916 296.0
153.388031 296.0
153.450958 184.0
153.508469 184.0
153.691391 168.0
153.775284 140.0
153.813507 168.0
153.840363 148.0
153.869095 204.0
153.92836 216.0
153.995041 168.0
154.064224 736.0
154.118195 108.0
154.134109 196.0
154.170456 164.0
154.234116 168.0
154.291565 140.0
154.308868 196.0
154.365753 152.0
154.405319 160.0
154.564743 152.0
154.59581 148.0
154.675018 240.0
154.692337 172.0
154.754242 160.0
154.803757 148.0
154.880539 164.0
154.923965 164.0
155.06044 176.0
155.085175 1488.0
155.242401 248.0
155.341614 160.0
155.381729 164.0
155.406113 168.0
155.425964 160.0
155.564209 252.0
155.895294 192.0
156.086365 656.0
156.114059 196.0
156.218521 140.0
156.317642 148.0
156.466446 208.0
156.495651 220.0
156.524658 148.0
156.574478 152.0
156.649017 108.0
156.748856 152.0
156.766296 204.0
156.815506 164.0
156.843567 216.0
156.919693 104.0
157.369095 128.0
157.431183 176.0
157.479843 140.0
157.755615 176.0
157.802216 172.0
157.86972 192.0
157.930588 192.0
158.112396 160.0
158.137421 164.0
158.167465 144.0
158.210022 144.0
158.37529 160.0
158.811752 184.0
158.874146 160.0
158.910477 272.0
159.240631 140.0
159.443863 108.0
159.519547 180.0
159.660355 176.0
159.677948 140.0
159.70813 168.0
159.808762 204.0
159.82637 160.0
159.861603 172.0
159.937119 372.0
159.975723 296.0
160.039658 41644.0
160.086288 268.0
160.108322 180.0
160.173492 96.0
160.31929 168.0
160.485947 108.0
160.509018 168.0
160.533173 148.0
160.672592 112.0
160.754517 208.0
160.953125 156.0
161.04277 4344.0
161.38623 168.0
161.493958 156.0
161.633102 164.0
161.692352 96.0
161.751251 128.0
161.779175 212.0
161.798325 212.0
161.980865 212.0
162.040939 368.0
162.164917 152.0
162.21553 120.0
162.242737 128.0
162.319565 184.0
162.351318 108.0
162.507278 140.0
162.528503 176.0
162.634445 204.0
162.677322 368.0
162.728088 196.0
162.801727 164.0
162.91095 168.0
163.03038 156.0
163.056244 180.0
163.200684 148.0
163.247391 180.0
163.322754 172.0
163.442337 168.0
163.498322 140.0
163.676514 180.0
163.803864 144.0
163.843613 132.0
163.879135 272.0
164.06012 252.0
164.099136 176.0
164.188736 140.0
164.53833 180.0
164.628998 164.0
164.659943 160.0
164.755417 208.0
164.821838 284.0
164.971359 112.0
164.998199 152.0
165.023453 160.0
165.039719 184.0
165.06987 6516.0
165.105591 400.0
165.126053 148.0
165.199234 236.0
165.256531 176.0
165.31073 304.0
165.435684 168.0
165.689224 176.0
165.807388 104.0
165.87117 208.0
165.899368 216.0
166.073074 1464.0
166.373795 168.0
166.515213 140.0
166.543457 320.0
166.589691 152.0
166.697617 144.0
166.71907 292.0
166.769577 196.0
166.838974 160.0
166.915527 176.0
167.023819 456.0
167.073593 5780.0
167.144379 152.0
167.179718 144.0
167.282364 160.0
167.366425 148.0
167.448822 152.0
167.98111 216.0
168.077194 840.0
168.153687 180.0
168.271774 124.0
168.292099 224.0
168.341156 152.0
168.38765 204.0
168.581406 172.0
168.783035 140.0
168.985687 220.0
169.033951 212.0
169.062241 228.0
169.126312 152.0
169.158188 160.0
169.208405 152.0
169.282471 144.0
169.476746 216.0
169.520798 180.0
169.53894 156.0
169.979797 180.0
170.068039 148.0
170.153702 192.0
170.179672 144.0
170.268738 160.0
170.40036 124.0
170.439407 216.0
170.503159 112.0
170.527771 184.0
170.621811 204.0
170.884033 156.0
170.917862 268.0
171.343033 256.0
171.559143 188.0
171.613327 164.0
171.691559 156.0
172.07515 180.0
172.213562 192.0
172.31282 192.0
172.385986 144.0
172.480591 224.0
172.545441 144.0
172.574188 144.0
172.758987 104.0
172.791275 180.0
172.882858 200.0
172.963303 144.0
173.060608 200.0
173.202454 128.0
173.364731 216.0
173.66362 168.0
173.708206 168.0
173.760681 204.0
173.842026 236.0
173.939133 168.0
174.020508 196.0
174.196472 228.0
174.454865 196.0
174.540771 140.0
174.665192 252.0
174.827515 156.0
174.890564 164.0
174.964386 192.0
175.01442 184.0
175.070908 228.0
175.114487 152.0
175.33316 188.0
175.391144 196.0
175.541428 188.0
175.586258 164.0
175.603439 168.0
175.66539 164.0
175.757736 260.0
176.050751 160.0
176.10112 224.0
176.203949 208.0
176.299088 192.0
176.473541 212.0
176.497345 168.0
176.542297 176.0
176.566101 144.0
176.629578 168.0
176.706299 296.0
176.780396 168.0
176.896851 164.0
176.965683 160.0
177.064316 216.0
177.113983 168.0
177.217316 160.0
177.317184 180.0
177.450546 168.0
177.484131 128.0
177.583145 152.0
177.70517 164.0
178.050156 2500.0
178.103394 184.0
178.135269 176.0
178.214966 160.0
178.25885 156.0
178.443542 140.0
178.547256 200.0
178.653656 168.0
179.052231 780.0
179.076447 272.0
179.216721 272.0
179.316696 176.0
179.559311 200.0
179.731766 124.0
180.045044 204.0
180.081497 2000.0
180.170593 260.0
180.218964 112.0
180.290833 204.0
180.641098 176.0
180.716003 204.0
180.740097 156.0
180.785583 188.0
180.895325 196.0
180.986908 176.0
181.087234 1672.0
181.152145 124.0
181.251541 164.0
181.3909 184.0
181.487411 148.0
181.64566 172.0
181.908234 212.0
182.024078 180.0
182.063766 680.0
182.096893 5124.0
182.190033 220.0
182.274963 112.0
182.376038 288.0
182.638382 196.0
183.005539 276.0
183.079636 2636.0
183.180603 164.0
183.229095 208.0
183.330429 152.0
183.422256 108.0
183.518478 120.0
183.722458 184.0
183.7966 156.0
183.90213 144.0
183.965958 228.0
184.08548 480.0
184.194885 168.0
184.295853 216.0
184.501678 160.0
184.63205 124.0
185.095734 140.0
185.202362 204.0
185.331161 160.0
185.380478 204.0
185.427338 172.0
185.830887 196.0
185.854492 196.0
185.884338 176.0
185.911469 204.0
186.009186 168.0
186.053528 264.0
186.110397 156.0
186.136795 148.0
186.187424 180.0
186.304413 196.0
186.623184 168.0
186.748276 144.0
186.838043 240.0
186.88974 192.0
187.107483 180.0
187.172821 180.0
187.319901 176.0
187.398911 144.0
187.477936 200.0
187.674194 188.0
187.738281 144.0
187.764191 172.0
187.832382 272.0
187.967712 160.0
188.064316 140.0
188.247238 188.0
188.27182 140.0
188.419327 160.0
188.61882 184.0
188.66803 184.0
188.780121 228.0
188.809387 224.0
188.963394 140.0
189.108429 168.0
189.308289 160.0
189.374023 188.0
189.540512 156.0
189.639801 144.0
189.66922 120.0
189.730255 168.0
189.823486 244.0
189.870026 128.0
189.903015 204.0
189.922211 144.0
190.064377 556.0
190.237793 196.0
190.287506 180.0
190.36409 224.0
190.493179 212.0
190.630554 148.0
190.80098 156.0
190.872467 144.0
190.966461 128.0
190.985229 168.0
191.013748 152.0
191.037949 220.0
191.074158 444.0
191.128281 184.0
191.175064 156.0
191.265884 196.0
191.532822 128.0
191.738907 136.0
191.827835 184.0
191.949158 148.0
191.982254 360.0
192.079575 2840.0
192.20018 156.0
192.342667 204.0
192.385101 152.0
192.695404 180.0
192.719284 144.0
192.74968 172.0
192.861359 156.0
193.065079 1248.0
193.085983 1428.0
193.125671 152.0
193.147797 172.0
193.247391 216.0
193.283371 152.0
193.596497 172.0
193.853058 208.0
194.020111 148.0
194.070801 500.0
194.35849 148.0
194.536133 184.0
194.611084 140.0
194.737152 188.0
194.802032 228.0
194.881851 224.0
194.949982 156.0
194.988892 180.0
195.06842 20040.0
195.255798 160.0
195.399475 140.0
195.603592 172.0
195.671051 156.0
195.701752 248.0
195.737244 296.0
195.853668 244.0
196.07193 2872.0
196.235031 252.0
196.261093 180.0
196.41449 140.0
196.447968 176.0
196.493225 160.0
196.526077 176.0
196.566071 156.0
196.618164 164.0
196.640503 148.0
197.072479 500.0
197.17395 160.0
197.210281 164.0
197.320969 168.0
197.509109 208.0
197.543045 144.0
197.565414 208.0
197.652161 248.0
197.797684 160.0
197.825684 160.0
197.937057 128.0
198.044098 160.0
198.199661 260.0
198.279449 172.0
198.4897 184.0
198.568237 140.0
198.730942 164.0
198.778641 168.0
198.834763 188.0
198.94165 156.0
199.062164 156.0
199.101135 132.0
199.152039 212.0
199.216522 180.0
199.306549 212.0
199.943726 188.0
200.009644 224.0
200.063126 148.0
200.151108 196.0
200.299683 196.0
200.42131 116.0
200.463089 232.0
200.522278 152.0
200.550461 172.0
200.664337 192.0
200.860641 220.0
201.156937 176.0
201.267044 176.0
201.340469 176.0
201.439331 172.0
201.50148 204.0
201.784103 164.0
201.806732 168.0
202.185791 192.0
202.282028 156.0
202.391815 164.0
202.483063 152.0
202.502884 184.0
202.633194 228.0
202.658691 152.0
202.7267 148.0
202.752213 148.0
202.811722 164.0
202.919449 144.0
202.939301 140.0
203.04097 160.0
203.10379 180.0
203.131882 340.0
203.322266 148.0
203.353485 136.0
203.594803 360.0
203.744492 184.0
203.988419 128.0
204.061188 192.0
204.103485 220.0
204.168884 156.0
204.325333 160.0
204.413544 156.0
204.459152 160.0
204.690353 212.0
204.743774 184.0
204.924255 172.0
205.058945 128.0
205.322327 180.0
205.416733 160.0
205.776031 172.0
206.127365 148.0
206.330307 184.0
206.719315 164.0
207.005585 152.0
207.034225 204.0
207.107788 180.0
207.208954 200.0
207.266251 148.0
207.301407 136.0
207.566452 160.0
207.733597 180.0
207.842621 184.0
207.937317 180.0
207.988113 128.0
208.076233 1368.0
208.184219 180.0
208.259628 184.0
208.304855 172.0
208.343735 112.0
208.471497 168.0
208.514603 204.0
208.612335 152.0
208.638214 244.0
208.694397 140.0
208.786621 228.0
208.839508 300.0
208.921997 252.0
208.951691 220.0
208.991013 180.0
209.083542 11060.0
209.252899 196.0
209.299576 288.0
209.447632 224.0
209.49469 164.0
209.532852 108.0
209.58168 120.0
209.678528 176.0
209.707703 104.0
209.757996 184.0
209.781036 280.0
209.808487 140.0
209.842606 276.0
209.877304 552.0
209.912964 276.0
209.954636 204.0
209.998749 236.0
210.051758 624.0
210.092606 264800.0
210.173859 336.0
210.202698 196.0
210.233246 180.0
210.258362 352.0
210.281937 204.0
210.316086 132.0
210.353928 272.0
210.402145 256.0
210.458282 148.0
210.498047 192.0
210.534149 220.0
210.566803 1468.0
210.665253 152.0
210.787918 324.0
210.851395 200.0
210.901413 164.0
210.957901 232.0
211.013443 224.0
211.046585 252.0
211.09465 30484.0
211.176407 156.0
211.210999 124.0
211.284668 128.0
211.316498 108.0
211.357483 156.0
211.483688 180.0
211.593292 148.0
211.623932 244.0
211.647171 96.0
211.76387 240.0
211.898407 164.0
212.020828 140.0
212.054291 188.0
212.098282 4368.0
212.18335 116.0
212.252838 256.0
212.363876 132.0
212.406067 196.0
212.465347 152.0
212.555801 204.0
212.594757 372.0
212.620483 116.0
212.646393 392.0
212.741074 172.0
212.793457 204.0
212.813263 232.0
212.843063 128.0
212.922592 100.0
213.002655 140.0
213.097397 380.0
213.251831 188.0
213.275513 192.0
213.61203 248.0
213.78418 100.0
213.823303 172.0
213.86264 192.0
214.269363 144.0
214.43277 172.0
214.85051 156.0
215.013916 152.0
215.113159 140.0
215.402252 148.0
215.668167 236.0
215.706161 164.0
216.314621 160.0
216.349747 196.0
216.579926 160.0
217.012375 192.0
217.099869 204.0
217.161453 200.0
217.366821 164.0
217.419632 140.0
217.460724 208.0
217.779388 116.0
217.921783 196.0
218.015808 152.0
218.420197 116.0
218.603973 160.0
218.648117 172.0
218.711548 116.0
218.789413 140.0
218.810013 148.0
219.213562 144.0
219.237381 96.0
219.549637 172.0
219.570282 160.0
219.909576 220.0
220.07785 184.0
220.187119 200.0
220.425156 196.0
220.518021 148.0
220.713135 188.0
220.807053 192.0
220.866425 260.0
220.943832 144.0
221.304916 140.0
221.390793 160.0
221.438187 164.0
221.56926 112.0
221.615936 184.0
221.636673 180.0
221.66037 140.0
221.72261 188.0
222.066162 192.0
222.140686 160.0
223.028564 240.0
223.070175 200.0
223.254517 164.0
223.314011 148.0
223.461166 136.0
223.644272 152.0
223.671768 104.0
223.714355 200.0
223.776581 140.0
224.082047 184.0
224.10289 184.0
224.360672 172.0
224.548965 200.0
224.991684 176.0
225.033493 228.0
225.431366 100.0
225.738678 184.0
225.798492 172.0
226.124039 168.0
226.172501 204.0
226.207245 184.0
226.32518 220.0
226.360748 132.0
226.450958 148.0
226.594757 156.0
226.810516 184.0
226.909454 172.0
227.407425 140.0
227.70166 152.0
227.752716 148.0
228.311752 212.0
228.389954 172.0
228.600555 196.0
228.663757 168.0
229.067642 152.0
229.181732 224.0
229.449982 144.0
229.816895 104.0
230.819595 188.0
231.265518 140.0
231.341202 208.0
231.496796 164.0
231.562241 188.0
231.613739 144.0
231.837936 196.0
232.094727 136.0
232.24118 272.0
232.304886 228.0
232.556747 172.0
232.702454 196.0
233.112518 212.0
233.2341 180.0
233.373947 96.0
233.954071 172.0
234.658829 156.0
235.046204 380.0
235.433899 204.0
235.482025 180.0
235.592743 224.0
235.638565 172.0
235.757736 276.0
235.956421 164.0
236.190384 144.0
236.219421 144.0
236.253082 168.0
236.338745 152.0
236.435135 120.0
236.528488 176.0
236.636993 96.0
236.770386 156.0
236.828568 144.0
236.892899 224.0
236.935791 148.0
236.973221 240.0
237.076782 140.0
237.102356 100.0
237.169739 200.0
237.188812 392.0
237.232315 148.0
237.305862 420.0
237.345551 132.0
237.39711 120.0
237.423172 296.0
237.458817 276.0
237.486298 156.0
237.515137 424.0
237.545639 184.0
237.597061 292.0
237.636215 336.0
237.681046 232.0
237.799896 216.0
237.837982 240.0
237.874771 320.0
237.900467 456.0
237.95607 424.0
237.980057 352.0
237.993179 468.0
238.014862 352.0
238.051666 692.0
238.088318 224540.0
238.25209 172.0
238.297119 152.0
238.371826 312.0
238.403625 320.0
238.450378 256.0
238.492905 232.0
238.557724 232.0
238.592743 6084.0
238.63385 144.0
238.704407 140.0
238.736053 244.0
238.844971 296.0
238.889023 220.0
238.921204 204.0
238.981216 328.0
239.024368 340.0
239.089966 53660.0
239.265625 100.0
239.301865 200.0
239.404541 100.0
239.455536 204.0
239.596695 180.0
239.746597 128.0
239.778549 172.0
239.833771 176.0
240.092865 4696.0
240.177994 160.0
240.249802 176.0
240.323776 112.0
240.35672 248.0
240.386063 236.0
240.435364 144.0
240.471634 224.0
240.526428 232.0
240.546295 132.0
240.619751 184.0
240.632782 144.0
240.657196 140.0
240.733231 276.0
240.760269 172.0
240.78157 380.0
240.81311 188.0
240.866028 168.0
240.910706 164.0
240.950943 152.0
240.986053 96.0
241.028717 268.0
241.095154 256.0
241.748947 124.0
241.79361 148.0
241.846558 96.0
242.344772 96.0
242.514511 172.0
242.854248 104.0
243.180389 200.0
244.881134 204.0
248.57962 152.0
249.95285 140.0
250.33493 100.0
251.850784 140.0
252.029266 128.0
252.980606 136.0
253.139404 152.0
253.432587 148.0
254.107941 172.0
254.149185 140.0
254.542786 156.0
254.705338 176.0
254.781006 144.0
254.867325 192.0
254.903702 104.0
254.99054 128.0
255.070419 336.0
255.11377 75140.0
255.191376 168.0
255.352463 176.0
255.396851 148.0
255.45755 104.0
255.494034 100.0
255.771729 140.0
255.906906 168.0
256.116455 6200.0
256.219788 100.0
256.512573 144.0
256.651611 116.0
256.844208 112.0
257.115265 1040.0
257.245575 392.0
257.59082 188.0
257.835022 120.0
257.956665 116.0
258.115479 220.0
258.262085 196.0
258.868286 104.0
279.109222 140.0
303.431976 144.0
344.443024 164.0
357.575928 148.0
364.200317 180.0
369.911163 100.0
373.285065 156.0
385.263977 140.0
400.59314 140.0
423.101685 144.0
456.540527 152.0
558.245483 164.0
586.17865 144.0
604.910583 148.0
696.82251 140.0
777.322815 144.0
925.273743 140.0
1096.415161 176.0
1111.174438 188.0
1119.24353 152.0
1134.792114 176.0
1162.882812 156.0
1172.377197 144.0
1221.638428 196.0
1227.405396 184.0
1236.648071 156.0
1240.788086 140.0
1253.785278 156.0
1256.239014 148.0
1262.935669 188.0
1270.721191 152.0
1277.356567 180.0
1279.71936 148.0
1282.640259 192.0
1297.144287 192.0
1302.102417 176.0
1308.012817 200.0
1310.230835 144.0
1323.658325 140.0
1326.556396 152.0
1328.97876 176.0
1343.676025 232.0
1346.41333 164.0
1348.137451 228.0
1351.011108 220.0
1353.79248 164.0
1358.212036 240.0
1361.309326 176.0
1362.168579 204.0
1366.189819 196.0
1369.03833 140.0
1370.135864 148.0
1371.337036 180.0
1378.362793 208.0
1380.417847 160.0
1383.118286 160.0
1388.949951 148.0
1396.920654 144.0
1399.071411 168.0
1399.547852 208.0
1402.11792 216.0
1417.610229 160.0
1417.857544 236.0
1418.996948 152.0
1424.453003 208.0
1426.895386 140.0
1427.690552 196.0
1435.237915 176.0
1441.412598 160.0
1442.962158 200.0
1445.140381 148.0
1448.373047 172.0
1452.762207 140.0
1453.186035 124.0
1464.780762 188.0
1472.194458 164.0
1473.607544 180.0
1475.610107 160.0
1478.907227 144.0
1481.196655 188.0
1482.414917 160.0
1483.610596 148.0
1483.994019 204.0
1484.615112 212.0
1486.671143 196.0
1489.309814 164.0
1490.810425 168.0
1491.570923 204.0
1492.132568 148.0
1495.078613 188.0
1499.830811 176.0
1499.907837 184.0
1499.984985 204.0
1500.301025 188.0
1501.573364 188.0
1502.113281 176.0
1502.861694 140.0
1504.922485 192.0
1505.185059 160.0
1508.05127 164.0
1509.574341 144.0
1509.674805 260.0
1513.180054 172.0
1514.008667 168.0
1515.774902 156.0
1522.825195 208.0
1522.966797 144.0
1526.24646 216.0
1536.317017 176.0
1537.690308 160.0
1542.032959 144.0
1546.240723 160.0
1551.975098 204.0
1555.387817 160.0
1557.828735 180.0
1557.947876 172.0
1558.301392 204.0
1559.692383 212.0
1561.642334 152.0
1562.263794 244.0
1562.641479 208.0
1563.200073 212.0
1569.170776 244.0
1574.165527 168.0
1586.897217 168.0
1587.206543 168.0
1588.737305 148.0
1592.611084 172.0
1594.422607 164.0
1596.561157 196.0
1598.494385 160.0
1598.924072 204.0
1602.01355 148.0
1613.99353 164.0
1616.348145 208.0
1618.962891 164.0
1619.123047 176.0
1622.737061 140.0
1624.395996 136.0
1625.941528 128.0
1626.050171 164.0
1626.96521 180.0
1632.618164 144.0
1633.193115 140.0
1633.83667 184.0
1634.013672 184.0
1634.078003 184.0
1636.3396 212.0
1637.998657 204.0
1644.005371 176.0
1645.555176 172.0
1647.663208 188.0
1648.834839 168.0
1649.723999 200.0
1652.700317 204.0
1652.845947 216.0
1653.380127 160.0
1654.958618 164.0
1656.635132 164.0
1657.090942 124.0
1658.288208 152.0
1660.907227 192.0
1661.158691 192.0
1661.337158 164.0
1664.957275 220.0
1665.66394 168.0
1667.18335 168.0
1667.78479 212.0
1669.784912 168.0
1670.42749 164.0
1673.406128 196.0
1676.70166 208.0
1676.942017 192.0
1681.296875 152.0
1686.242188 180.0
1688.99353 140.0
1692.348877 172.0
1694.543945 184.0
1695.30603 232.0
1695.55188 140.0
1695.879761 152.0
1697.298096 172.0
1699.840942 172.0
1702.837524 168.0
1704.636719 164.0
1705.031128 208.0
1706.075073 164.0
1706.223022 164.0
1706.8479 176.0
1708.418945 168.0
1708.920776 160.0
1710.435059 156.0
1712.650024 140.0
1712.847778 176.0
1714.446167 192.0
1714.759399 188.0
1716.671997 204.0
1718.651733 196.0
1719.518311 180.0
1721.962158 152.0
1722.441284 180.0
1722.910767 176.0
1723.325195 148.0
1725.565063 224.0
1733.262817 200.0
1734.06665 208.0
1735.799316 224.0
1737.026855 140.0
1737.889648 148.0
1739.923096 224.0
1740.902954 144.0
1743.223999 228.0
1749.617065 164.0
1749.775269 192.0
1751.057617 192.0
1751.657349 172.0
1751.873901 164.0
1753.990601 140.0
1758.48645 164.0
1762.52002 228.0
1762.754028 156.0
1763.330688 176.0
1767.512085 180.0
1767.888672 164.0
1772.661987 168.0
1774.380371 184.0
1776.418213 184.0
1778.121582 204.0
1779.179321 192.0
1780.631958 180.0
1780.91748 144.0
1781.799561 188.0
1783.328979 168.0
1787.003906 164.0
1787.189087 192.0
1787.710815 148.0
1789.545776 236.0
1790.590088 176.0
1791.71875 180.0
1792.890015 156.0
1793.033325 164.0
1793.345215 168.0
1794.618164 184.0
1795.59729 208.0
1796.229004 160.0
1798.144287 140.0
1801.505005 168.0
1801.85144 172.0
1802.578125 160.0
1807.110352 212.0
1807.804199 152.0
1810.208374 160.0
1810.369263 212.0
1811.250122 144.0
1814.78418 188.0
1817.532349 184.0
1818.359497 120.0
1820.826172 188.0
1821.293335 184.0
1823.901978 200.0
1824.037964 160.0
1824.335571 192.0
1824.76062 148.0
1826.980347 160.0
1827.805664 144.0
1828.784424 172.0
1829.431274 172.0
1830.529663 172.0
1830.929932 180.0
1831.917969 168.0
1833.662476 144.0
1840.11377 152.0
1842.308716 144.0
1842.522339 140.0
1843.282715 140.0
1844.667358 196.0
1846.539917 176.0
1847.113037 208.0
1847.30127 148.0
1851.786499 168.0
1853.191528 144.0
1853.577026 172.0
1855.711426 176.0
1859.666138 172.0
1860.198364 204.0
1860.610352 148.0
1863.496216 148.0
1864.553101 332.0
1866.926025 164.0
1866.994751 200.0
1868.052734 248.0
1868.439819 164.0
1870.066284 156.0
1870.24707 192.0
1871.047607 140.0
1871.641724 188.0
1873.217773 180.0
1873.390137 152.0
1875.841431 176.0
1876.560669 164.0
1878.424561 188.0
1879.140625 192.0
1881.591675 212.0
1882.662476 176.0
1883.690308 152.0
1884.109131 104.0
1885.58252 180.0
1888.920166 180.0
1889.292114 160.0
1889.923706 192.0
1890.001587 176.0
1890.520874 152.0
1890.728516 188.0
1892.07019 228.0
1892.174072 256.0
1893.750244 160.0
1895.898804 228.0
1896.210815 140.0
1897.172974 228.0
1898.196167 196.0
1898.959351 176.0
1901.553589 336.0
1902.36084 180.0
1903.02063 244.0
1903.619751 144.0
1904.384033 144.0
1905.383057 156.0
1908.990234 176.0
1911.451416 160.0
1913.750122 144.0
1913.94165 260.0
1914.882202 188.0
1915.221924 208.0
1916.537354 168.0
1917.373901 232.0
1917.687744 164.0
1917.942261 216.0
1919.379028 200.0
1919.719116 284.0
1919.95459 164.0
1921.990112 184.0
1922.641602 212.0
1923.593018 172.0
1923.950928 188.0
1924.981201 188.0
1926.369995 164.0
1927.59314 156.0
1932.778687 144.0
1932.839844 140.0
1933.119873 156.0
1933.592529 152.0
1935.430908 172.0
1937.646851 168.0
1937.883423 148.0
1938.27771 156.0
1939.513428 164.0
1940.10083 144.0
1940.942505 168.0
1941.328369 324.0
1942.293091 160.0
1944.258423 232.0
1944.688599 172.0
1945.540039 164.0
1946.216064 188.0
1946.988892 152.0
1948.63147 180.0
1950.793457 152.0
1951.136353 188.0
1951.8573 144.0
1953.361328 188.0
1954.188232 184.0
1955.684326 188.0
1955.948364 140.0
1957.260132 156.0
1961.824097 164.0
1962.423584 160.0
1962.952271 156.0
1964.760864 160.0
1965.052002 160.0
1967.002319 248.0
1967.126221 148.0
1967.849854 212.0
1968.647705 232.0
1970.305176 192.0
1970.738159 244.0
1971.816284 168.0
1972.293579 176.0
1972.399658 172.0
1972.656006 160.0
1976.830688 200.0
1976.910278 220.0
1977.05188 148.0
1977.264282 284.0
1978.680664 140.0
1979.415527 172.0
1980.434082 156.0
1981.550293 200.0
1982.480713 212.0
1982.941528 152.0
1983.358154 196.0
1983.845703 144.0
1983.987549 184.0
1984.076172 156.0
1985.344116 164.0
1986.328613 164.0
1986.479492 212.0
1987.224731 180.0
1990.05603 156.0
1990.78418 184.0
1992.649536 180.0
1996.018311 228.0
1996.615845 220.0
1998.108521 188.0
1998.713623 232.0
1999.105103 140.0
1999.336548 164.0
2000.021851 176.0
2000.173218 180.0
2000.564819 152.0
2000.929932 212.0
2002.889038 244.0
2002.960327 176.0
