>compound MLS001140666-01!
>formula C31H25ClN4O5
>ionization [M+H]+
>parentmass 569.159
#inchi InChI=1S/C31H25ClN4O5/c32-18-8-5-7-17(15-18)27-26-21(19-9-1-3-11-22(19)33-26)16-25-29(38)36(31(41)35(25)27)23-12-4-2-10-20(23)28(37)34-14-6-13-24(34)30(39)40/h1-5,7-12,15,24-25,27,33H,6,13-14,16H2,(H,39,40)/t24-,25-,27?/m0/s1
#inchikey OPUJUXSZNVCDHY
#Ion_Source LC-ESI
#Instrument qTof
#Compound_Source NIH Natural Product Library
#PI Dorrestein
#Data_Collector VVP/LMS
#Scan -1
#Precursor_MZ 569.159
#ExactMass 568.151
#Charge 1
#CAS_Number N/A
#Pubmed_ID N/A
#Smiles OC(=O)[C@@H]1CCCN1C(=O)c2ccccc2N3C(=O)[C@@H]4Cc5c([nH]c6ccccc56)C(N4C3=O)c7cccc(Cl)c7
#INCHI_AUX N/A
#Library_Class 1
#SpectrumID CCMSLIB00000079834
#IonMode Positive
#UpdateWorkflowName UPDATE-SINGLE-ANNOTATED-GOLD
#LibraryQualityString Gold
#TaskID b1d8e8f6646f4e71acdff9ca3d919d08
##Scan# 2289
#SpectrumFile p1-G11_GG11_01_17955.mzXML
#LibraryName NIH_Natural_Products_Library.mgf
#MQScore -1
#Organism NIH_Natural_Products_Library
#TIC_Query 0
#RT_Query -1
#MZErrorPPM -1
#SharedPeaks 0
#MassDiff 0
#LibMZ -1
#SpecMZ 569.159
#SpecCharge 0
#internalFilename spec-00000.mgf

>collision 10
95.189651 208.0
95.216843 108.0
95.485046 148.0
95.652374 140.0
95.788681 256.0
95.834541 192.0
95.851028 168.0
95.911446 212.0
95.940681 216.0
96.047935 132.0
96.073296 168.0
96.090858 140.0
96.23333 160.0
96.293869 108.0
96.647697 176.0
96.937508 176.0
96.986504 48.0
97.112717 140.0
97.365166 180.0
97.471252 216.0
97.583282 148.0
97.772125 116.0
97.819359 220.0
98.030106 124.0
98.09317 236.0
98.179924 156.0
98.316887 132.0
98.432518 172.0
98.493744 220.0
98.527328 136.0
98.602417 76.0
98.628105 272.0
98.653809 160.0
98.687416 188.0
98.711143 116.0
98.839722 88.0
98.857529 160.0
99.000061 284.0
99.095139 168.0
99.396523 200.0
99.587112 56.0
99.606972 184.0
99.646706 120.0
100.06636 192.0
100.106186 236.0
100.211754 124.0
100.325356 36.0
100.409096 92.0
100.576698 180.0
100.601288 212.0
100.650566 160.0
100.992302 140.0
101.050316 124.0
101.216446 52.0
101.234467 44.0
101.370689 168.0
101.596939 176.0
101.733719 172.0
101.81604 144.0
102.037079 108.0
102.051147 152.0
102.073265 144.0
102.097397 84.0
102.350952 128.0
102.423454 208.0
102.691528 144.0
102.721786 144.0
103.046814 152.0
103.073082 204.0
103.143814 192.0
103.335938 148.0
103.40271 136.0
103.471535 140.0
103.633568 184.0
103.662193 156.0
103.824112 144.0
103.958 112.0
104.320045 132.0
104.592117 196.0
104.645042 132.0
104.812065 148.0
104.964943 108.0
105.062843 188.0
105.09549 164.0
105.144463 136.0
105.183243 172.0
106.015671 180.0
106.206337 160.0
106.299652 112.0
106.386055 176.0
106.487534 296.0
106.596413 160.0
106.672462 212.0
106.7033 52.0
106.771156 132.0
106.952209 168.0
106.989265 60.0
107.051033 176.0
107.141663 152.0
107.327156 284.0
107.347847 232.0
107.413773 156.0
107.43853 124.0
107.576797 104.0
107.694496 184.0
107.952835 132.0
108.035568 140.0
108.060394 204.0
108.279327 136.0
108.312958 140.0
108.431053 156.0
108.499458 192.0
108.555161 148.0
108.655739 236.0
108.789902 192.0
108.814812 140.0
108.84803 208.0
108.945648 120.0
109.230446 92.0
109.353203 100.0
109.396919 108.0
109.536438 100.0
109.838692 108.0
109.884583 128.0
110.036942 128.0
110.061996 144.0
110.116295 80.0
110.208206 80.0
110.461174 168.0
110.60556 68.0
110.858978 164.0
111.1064 156.0
111.146263 184.0
111.226013 56.0
111.385597 188.0
111.618881 148.0
111.751396 188.0
111.921883 84.0
111.964005 232.0
112.18103 192.0
112.438354 136.0
112.617821 56.0
112.77417 212.0
112.820679 172.0
112.917946 124.0
112.980141 228.0
113.03006 92.0
113.068153 164.0
113.171883 128.0
113.383713 248.0
113.466385 52.0
113.59449 304.0
113.656654 124.0
113.801949 196.0
114.047226 212.0
114.23941 176.0
114.705765 136.0
114.724945 116.0
114.89769 172.0
114.972374 124.0
115.170929 168.0
115.453049 104.0
115.468018 172.0
115.48941 224.0
115.619919 32.0
115.876877 36.0
116.273575 224.0
116.45607 76.0
116.477554 136.0
116.77417 136.0
116.840851 184.0
116.939835 104.0
117.056602 252.0
117.196098 156.0
117.305527 176.0
117.418137 64.0
117.750504 128.0
117.826103 36.0
117.872696 220.0
117.972008 164.0
118.030632 184.0
118.167702 116.0
118.189339 160.0
118.239113 184.0
118.269409 128.0
118.423759 168.0
118.483795 196.0
118.611649 236.0
118.91748 144.0
118.973923 180.0
119.030373 148.0
119.102043 216.0
119.262833 148.0
119.317032 176.0
119.415031 136.0
119.441132 92.0
119.554268 128.0
119.60215 196.0
119.77417 164.0
119.964676 168.0
119.981186 100.0
120.044868 1060.0
120.258224 144.0
120.370224 184.0
120.495552 176.0
120.54213 264.0
120.579285 144.0
120.633926 64.0
120.70826 140.0
120.747627 128.0
120.804497 140.0
120.9533 156.0
121.001457 200.0
121.025543 140.0
121.08905 144.0
121.185432 128.0
121.290627 172.0
121.435341 128.0
121.450691 204.0
121.509926 76.0
121.63501 184.0
121.744789 136.0
121.826057 164.0
121.973289 148.0
122.028244 128.0
122.129402 88.0
122.191353 124.0
122.268013 156.0
122.283424 124.0
122.298828 116.0
122.446342 196.0
122.653458 148.0
122.728226 144.0
122.735794 92.0
123.116783 112.0
123.266479 152.0
123.271271 116.0
123.278481 144.0
123.39299 100.0
123.561073 160.0
123.746986 64.0
123.844421 144.0
123.879868 160.0
124.256744 124.0
124.463158 180.0
124.550392 172.0
124.625305 156.0
124.660858 216.0
124.76088 112.0
124.896523 92.0
124.958817 136.0
125.016197 2324.0
125.036697 200.0
125.054504 120.0
125.087891 144.0
125.194763 148.0
125.229073 168.0
125.283859 152.0
125.372986 40.0
125.411324 188.0
125.433159 204.0
125.527046 180.0
125.627167 152.0
125.642784 56.0
125.769981 88.0
125.785606 100.0
125.924042 112.0
126.01783 196.0
126.122894 108.0
126.23468 168.0
126.326385 164.0
126.527794 188.0
126.752434 136.0
126.872803 132.0
127.011269 372.0
127.132988 152.0
127.193588 120.0
127.301353 144.0
127.353012 256.0
127.449608 72.0
127.584465 104.0
127.694641 156.0
127.978188 104.0
128.018723 228.0
128.049393 136.0
128.159805 208.0
128.334183 160.0
128.415375 148.0
128.46048 180.0
128.792297 112.0
128.871368 116.0
128.927856 136.0
129.057755 288.0
129.092896 160.0
129.156219 152.0
129.280655 160.0
129.312332 180.0
129.59314 128.0
129.683777 184.0
129.756317 116.0
130.069382 228.0
130.19426 136.0
130.348724 124.0
130.366913 76.0
130.423737 136.0
130.614731 192.0
130.830917 144.0
130.903778 164.0
131.27066 96.0
131.331818 220.0
131.631195 96.0
131.701996 196.0
131.763672 128.0
132.005478 168.0
132.043991 152.0
132.124893 204.0
132.145493 156.0
132.459122 168.0
132.585144 160.0
132.738739 112.0
132.917664 108.0
133.000275 160.0
133.023224 272.0
133.048477 188.0
133.445953 180.0
133.540222 124.0
133.567825 84.0
133.636063 140.0
133.678268 120.0
133.898926 164.0
133.902405 256.0
133.986282 176.0
134.189621 152.0
134.231125 128.0
134.340988 252.0
134.367203 184.0
134.697327 212.0
134.829025 184.0
134.863693 112.0
135.04866 36.0
135.748077 188.0
135.919739 140.0
136.214584 192.0
136.347015 132.0
136.400482 128.0
136.565567 116.0
136.684219 48.0
136.737747 132.0
136.758682 48.0
136.858795 152.0
136.975235 248.0
137.129013 124.0
137.22226 132.0
137.280563 140.0
137.298218 216.0
137.387848 80.0
137.763702 232.0
137.880524 156.0
138.102646 120.0
138.264084 56.0
138.444336 132.0
138.72551 200.0
138.753632 176.0
138.835709 56.0
138.955338 148.0
138.992752 696.0
139.03981 144.0
139.086746 144.0
139.117264 164.0
139.175964 100.0
139.194748 148.0
139.222931 28.0
139.678894 160.0
139.716537 160.0
139.966019 48.0
139.998291 312.0
140.11441 172.0
140.220444 108.0
140.269943 132.0
140.326523 152.0
140.439713 396.0
140.491608 68.0
140.623749 140.0
140.752472 168.0
140.789017 40.0
140.93074 168.0
140.98793 628.0
141.039444 132.0
141.126923 116.0
141.264084 152.0
141.318497 92.0
141.460495 172.0
141.507843 216.0
141.52916 164.0
141.841888 84.0
141.910629 76.0
141.989456 184.0
142.098007 168.0
142.209534 132.0
142.292618 116.0
142.608551 176.0
142.653717 92.0
142.763092 204.0
142.858231 80.0
142.986725 76.0
143.029556 216.0
143.05336 104.0
143.2939 172.0
143.367767 132.0
143.479797 132.0
143.828644 136.0
143.863892 152.0
143.957001 116.0
143.995209 112.0
144.042999 720.0
144.121826 236.0
144.222198 136.0
144.241318 120.0
144.535477 188.0
144.576172 108.0
144.707825 68.0
144.817978 68.0
144.923386 108.0
144.949738 60.0
145.040802 152.0
145.067169 148.0
145.112732 180.0
145.201447 152.0
145.378983 80.0
145.477386 172.0
145.494186 124.0
145.645477 124.0
145.746384 140.0
145.775223 124.0
145.816071 148.0
145.843628 124.0
145.960312 376.0
145.978394 192.0
146.023438 17552.0
146.061615 132.0
146.143112 76.0
146.171982 100.0
146.330856 56.0
146.408478 100.0
146.509064 48.0
146.586166 60.0
146.665695 120.0
146.692215 84.0
146.856186 152.0
146.9189 72.0
146.996109 156.0
147.02861 1084.0
147.080582 108.0
147.148178 56.0
147.196457 88.0
147.213364 60.0
147.254425 188.0
147.322052 196.0
147.410217 152.0
147.568573 68.0
147.60968 88.0
147.762054 156.0
147.82254 224.0
147.883041 92.0
148.036179 400.0
148.113068 128.0
148.171219 104.0
148.195435 128.0
148.52272 152.0
148.600342 252.0
148.704697 216.0
148.736237 196.0
148.758087 116.0
148.981506 108.0
149.154037 68.0
149.185638 168.0
149.243027 132.0
149.677475 208.0
149.703888 156.0
149.767212 144.0
150.660019 124.0
150.870193 124.0
150.963104 128.0
151.026688 132.0
151.075607 216.0
151.361969 96.0
151.648605 88.0
151.73439 136.0
152.144104 52.0
152.220215 140.0
152.433929 232.0
152.56665 116.0
152.586914 148.0
152.721573 116.0
152.778152 156.0
152.896255 68.0
153.010254 180.0
153.130142 144.0
153.194183 116.0
153.736618 160.0
153.815598 148.0
154.008209 148.0
154.040314 128.0
154.062546 84.0
154.28743 152.0
154.309692 148.0
154.361618 224.0
154.431229 160.0
154.514969 136.0
154.755035 180.0
154.844193 84.0
154.896194 140.0
155.063934 144.0
155.101868 164.0
155.198547 368.0
155.362244 164.0
155.431717 80.0
155.704788 124.0
155.787598 220.0
155.896072 232.0
155.994995 80.0
156.067596 1944.0
156.099915 316.0
156.141235 176.0
156.36113 108.0
156.465683 208.0
156.483109 80.0
156.51796 156.0
156.610107 76.0
156.854294 160.0
157.049988 176.0
157.069244 160.0
157.116135 160.0
157.29834 204.0
157.358231 160.0
157.787949 116.0
157.847961 52.0
157.937988 236.0
158.05307 156.0
158.306671 204.0
158.38855 176.0
158.408585 128.0
158.43364 116.0
158.538879 64.0
158.578979 172.0
158.701813 128.0
158.864822 176.0
158.945114 132.0
159.045502 156.0
159.366943 124.0
159.701294 160.0
159.72142 180.0
159.766693 140.0
159.975571 40.0
160.275284 184.0
160.597977 156.0
160.686264 172.0
160.81749 92.0
160.885635 204.0
161.198837 156.0
161.474869 168.0
161.555328 112.0
161.97049 136.0
162.011017 128.0
162.064224 156.0
162.241623 180.0
162.368408 136.0
162.624664 264.0
162.754135 52.0
162.970032 176.0
163.050095 1704.0
163.122513 36.0
163.170822 96.0
163.206421 100.0
163.544769 176.0
163.598221 144.0
163.730621 164.0
163.768829 172.0
164.054962 180.0
164.109726 156.0
164.197006 120.0
164.618561 220.0
164.99881 68.0
165.251999 84.0
165.405548 164.0
165.505402 192.0
165.745071 128.0
166.004227 168.0
166.038422 200.0
166.341187 176.0
166.484955 128.0
166.613388 176.0
166.764999 168.0
166.942398 184.0
167.081284 164.0
167.318054 164.0
167.351532 220.0
167.446808 160.0
167.954559 248.0
167.995834 148.0
168.10936 100.0
168.284897 116.0
168.36235 144.0
168.388184 204.0
168.499252 108.0
168.571609 132.0
168.757721 188.0
168.788742 232.0
168.819778 76.0
169.622391 148.0
169.684616 164.0
169.733871 76.0
169.754623 124.0
169.777954 132.0
169.798706 188.0
169.842804 132.0
170.056778 148.0
170.250275 160.0
170.271057 48.0
170.291824 212.0
170.310013 144.0
170.634842 180.0
170.778641 188.0
170.868149 108.0
171.05368 112.0
171.368805 152.0
171.639877 124.0
171.658127 192.0
171.694641 132.0
171.94249 180.0
172.76033 164.0
172.794342 168.0
172.938263 116.0
172.974915 64.0
173.133011 216.0
173.375656 164.0
173.695526 224.0
173.915924 168.0
174.002808 208.0
174.246811 48.0
174.37294 212.0
174.646057 228.0
174.759506 124.0
174.927933 116.0
175.053162 200.0
175.367828 104.0
175.718552 92.0
175.858398 124.0
175.892715 56.0
175.969269 44.0
176.030014 180.0
176.082825 164.0
176.135651 112.0
176.434265 108.0
176.540024 132.0
176.60614 168.0
176.637878 264.0
176.672272 148.0
176.81633 188.0
177.07991 124.0
177.151428 40.0
177.27066 180.0
177.450897 76.0
177.514542 176.0
177.607361 72.0
177.66954 176.0
177.809006 112.0
177.992188 220.0
178.065262 132.0
178.117004 140.0
178.13826 164.0
178.433243 216.0
178.50769 132.0
178.568863 144.0
178.624985 160.0
178.73114 56.0
178.810974 112.0
179.029282 112.0
179.072113 184.0
179.261032 108.0
179.54628 68.0
179.943878 108.0
180.403381 108.0
180.459534 164.0
180.697571 80.0
180.772491 156.0
180.820663 200.0
180.908997 104.0
181.018768 100.0
181.117859 116.0
181.160721 144.0
181.466232 96.0
181.704941 192.0
181.769623 152.0
181.852524 148.0
181.949158 120.0
182.002869 124.0
182.035675 180.0
182.067307 76.0
182.34671 52.0
182.400467 208.0
182.419296 52.0
182.564484 116.0
183.007095 148.0
183.046173 144.0
183.070648 188.0
183.110809 136.0
183.13504 76.0
183.194305 152.0
183.299118 200.0
183.388321 132.0
183.655243 144.0
183.703796 168.0
183.765854 164.0
183.846802 136.0
183.868393 120.0
183.919678 112.0
183.970963 180.0
184.011749 148.0
184.062546 16096.0
184.122894 148.0
184.12973 40.0
184.140472 180.0
184.178894 168.0
184.364395 124.0
184.400452 64.0
184.442307 140.0
184.484238 188.0
184.527496 56.0
184.595245 140.0
184.69516 112.0
184.857483 60.0
184.991165 204.0
185.019882 160.0
185.065689 1872.0
185.098404 180.0
185.163406 168.0
185.233826 28.0
185.33136 156.0
185.567154 44.0
185.653931 164.0
185.694611 140.0
185.716309 156.0
185.735291 160.0
185.889938 80.0
185.941498 132.0
185.963211 64.0
185.993073 192.0
186.028763 80.0
186.068893 148.0
186.153259 84.0
186.210281 180.0
186.24559 224.0
186.503723 56.0
186.619431 152.0
186.635117 152.0
186.68045 104.0
186.938873 88.0
186.960648 136.0
187.137573 188.0
187.159363 128.0
187.267731 116.0
187.303696 128.0
187.333664 216.0
187.429031 236.0
187.49025 120.0
187.660706 144.0
187.88707 192.0
187.988037 184.0
188.031693 116.0
188.24736 72.0
188.323837 128.0
188.364807 76.0
188.474091 116.0
188.531479 156.0
188.679077 100.0
188.729614 156.0
188.813065 120.0
189.029297 188.0
189.111282 120.0
189.226257 116.0
189.428909 56.0
189.694717 116.0
189.755035 144.0
190.000732 300.0
190.053986 44.0
190.111618 100.0
190.467728 164.0
190.621262 320.0
190.660858 200.0
190.90004 80.0
190.977036 136.0
191.015549 184.0
191.061874 176.0
191.172379 96.0
191.379272 196.0
191.428391 72.0
191.698349 184.0
191.996979 160.0
192.109177 128.0
192.327164 208.0
192.501099 176.0
193.004013 192.0
193.421753 116.0
193.828873 120.0
193.862137 220.0
194.058929 152.0
194.083893 144.0
194.150436 192.0
194.172623 104.0
194.222549 196.0
194.261383 144.0
194.402893 192.0
194.491699 100.0
194.911057 224.0
194.963852 164.0
195.061142 136.0
195.247421 80.0
195.392075 148.0
195.561218 188.0
195.623047 132.0
195.673157 148.0
195.896622 84.0
196.079849 44.0
196.301865 188.0
196.453491 164.0
196.606094 156.0
196.785599 64.0
197.104019 124.0
197.141464 140.0
197.213013 216.0
197.554153 92.0
197.607315 108.0
197.719238 204.0
197.985199 132.0
198.024414 116.0
198.492416 148.0
198.512039 148.0
198.613007 252.0
198.840271 132.0
199.028366 204.0
199.298004 48.0
199.340164 204.0
199.435715 196.0
199.494736 244.0
199.781586 136.0
199.927902 248.0
200.057373 124.0
200.203781 92.0
200.372787 116.0
200.392517 116.0
200.54187 236.0
200.623611 148.0
200.967697 112.0
201.027283 244.0
201.238647 44.0
202.023392 128.0
202.029129 92.0
202.039948 192.0
202.072418 244.0
202.31311 88.0
202.378098 164.0
202.420578 96.0
202.576355 124.0
202.661346 64.0
202.684006 100.0
202.867844 172.0
202.998657 124.0
203.04686 144.0
203.07283 104.0
203.137634 144.0
203.67128 128.0
204.023651 128.0
204.085556 196.0
204.125504 156.0
204.263489 176.0
204.512924 72.0
204.666656 128.0
204.899048 168.0
205.005219 136.0
205.102539 152.0
205.256485 192.0
205.336334 244.0
205.478958 208.0
205.932846 164.0
205.961411 188.0
206.062729 304.0
206.209976 132.0
206.297867 156.0
206.358627 128.0
206.495895 132.0
206.88504 180.0
207.031067 184.0
207.063812 440.0
207.101639 212.0
207.157089 144.0
207.262207 128.0
207.423599 140.0
207.79689 100.0
207.879608 152.0
208.066711 192.0
208.287308 88.0
208.678146 128.0
208.736649 160.0
208.813293 124.0
208.833435 148.0
208.913971 120.0
209.092361 60.0
209.486832 172.0
209.524292 92.0
209.579025 204.0
209.602081 140.0
209.812485 204.0
210.109528 140.0
210.297104 144.0
210.649368 184.0
210.915222 144.0
211.03952 104.0
211.074219 112.0
211.178329 140.0
211.603714 172.0
212.142578 200.0
212.345551 220.0
212.580536 220.0
212.653091 68.0
212.673416 124.0
212.805527 204.0
212.876633 172.0
213.033478 52.0
213.056717 144.0
213.120636 120.0
213.312454 148.0
213.879669 244.0
213.937881 112.0
213.990295 108.0
214.040527 176.0
214.063721 204.0
214.106766 96.0
214.686707 172.0
214.80629 92.0
214.847137 176.0
214.896729 160.0
215.276199 152.0
215.390091 116.0
215.620926 132.0
215.787537 56.0
215.927902 116.0
216.037613 304.0
216.083542 388.0
216.112198 132.0
216.200989 232.0
216.232178 52.0
216.261444 96.0
216.442947 152.0
216.478088 124.0
216.50737 180.0
216.633316 112.0
216.653824 204.0
216.809128 208.0
216.897049 44.0
216.97438 204.0
216.996719 200.0
217.02742 164.0
217.087311 7744.0
217.137482 196.0
217.184402 84.0
217.212326 92.0
217.248932 116.0
217.389771 136.0
217.482193 164.0
217.508606 156.0
217.659836 224.0
217.786118 148.0
217.904449 132.0
217.94162 172.0
217.977081 68.0
218.00647 152.0
218.052017 208.0
218.09613 38076.0
218.215164 204.0
218.253387 104.0
218.350784 168.0
218.388657 92.0
218.457947 36.0
218.569885 20.0
218.609802 220.0
218.688782 44.0
218.759415 36.0
218.782974 64.0
218.803574 40.0
218.944916 116.0
219.055161 84.0
219.099808 7740.0
219.292572 48.0
219.322052 72.0
219.407532 44.0
219.45105 84.0
219.479507 68.0
219.519577 36.0
219.563812 168.0
219.60437 64.0
219.646393 44.0
219.669998 68.0
219.696548 100.0
219.776199 132.0
219.926712 256.0
219.947372 116.0
220.004761 136.0
220.05069 72.0
220.103958 920.0
220.189484 56.0
220.272858 140.0
220.346039 80.0
220.372635 140.0
220.396271 80.0
220.449463 32.0
220.501663 128.0
220.538116 136.0
220.665237 160.0
220.721405 92.0
220.75441 152.0
221.008331 76.0
221.233261 92.0
221.268784 168.0
221.402039 136.0
221.60939 148.0
221.683472 76.0
221.72496 76.0
221.775345 68.0
221.885025 92.0
221.932465 128.0
221.953217 92.0
222.148956 56.0
222.255768 124.0
222.338852 196.0
222.359634 96.0
222.66246 124.0
222.732346 76.0
223.048721 120.0
223.220337 160.0
223.700165 108.0
223.920975 180.0
224.009872 132.0
224.132019 76.0
224.16777 52.0
224.331711 144.0
224.400269 144.0
224.516571 144.0
224.597092 148.0
224.63588 184.0
224.686584 140.0
224.78804 220.0
224.859726 168.0
224.88652 188.0
225.0746 172.0
225.418106 128.0
225.923401 208.0
226.192734 208.0
226.216675 84.0
226.390335 72.0
226.411301 152.0
226.435257 96.0
226.489166 164.0
226.513138 212.0
226.585037 172.0
226.650955 112.0
226.686905 156.0
226.929703 176.0
227.046646 120.0
227.121628 156.0
227.301636 172.0
227.325638 68.0
227.481705 236.0
227.789505 148.0
227.869125 136.0
227.911179 132.0
227.982346 136.0
228.077148 180.0
228.368134 132.0
228.515533 96.0
228.672928 196.0
228.717163 152.0
228.882736 212.0
229.08934 624.0
229.121262 208.0
229.189987 92.0
229.223129 136.0
229.289429 152.0
229.431091 40.0
229.823181 80.0
229.952942 164.0
230.09668 556.0
230.164978 64.0
230.285049 168.0
230.572083 88.0
230.925812 80.0
230.968155 60.0
231.007477 108.0
231.093628 160.0
231.222305 52.0
231.688614 140.0
231.809814 216.0
231.870422 108.0
231.894669 40.0
231.949234 192.0
231.991669 32.0
232.082626 196.0
232.18573 144.0
232.267624 180.0
232.452682 104.0
232.507309 144.0
232.750168 188.0
232.868607 124.0
233.047836 168.0
233.087326 132.0
233.376099 104.0
233.430832 212.0
233.464279 44.0
233.5616 48.0
233.689377 132.0
233.85675 96.0
233.960236 152.0
234.066803 152.0
234.231262 92.0
234.502441 80.0
234.606079 144.0
234.638168 160.0
234.886627 128.0
234.987305 120.0
235.059891 1276.0
235.335251 84.0
235.396317 152.0
235.567352 220.0
235.616241 108.0
235.649841 80.0
236.056076 312.0
236.374512 64.0
236.42041 144.0
236.616302 112.0
236.711227 160.0
237.063507 132.0
237.161575 96.0
237.195297 80.0
237.357788 100.0
237.410858 144.0
237.462051 124.0
237.508057 212.0
237.673721 120.0
237.722824 116.0
237.790344 132.0
237.926239 176.0
238.038345 296.0
238.06665 100.0
238.192566 88.0
238.226364 156.0
238.361542 140.0
238.435303 224.0
238.536728 196.0
238.665848 140.0
239.065338 152.0
239.191925 60.0
239.287369 192.0
239.336624 172.0
239.472122 64.0
239.610748 132.0
239.780228 76.0
239.869614 156.0
240.005264 148.0
240.053299 684.0
240.196472 188.0
240.224243 168.0
240.267426 132.0
240.378494 144.0
240.418625 140.0
240.477264 128.0
240.742767 168.0
240.826157 72.0
240.986786 180.0
241.053787 304.0
241.153656 116.0
241.187668 56.0
241.246399 88.0
241.400986 148.0
241.462845 40.0
241.493774 100.0
241.849594 200.0
241.891235 132.0
241.939362 116.0
241.962723 88.0
242.036163 14332.0
242.175323 160.0
242.309158 88.0
242.350296 76.0
242.380234 76.0
242.416351 36.0
242.458267 76.0
242.573807 244.0
242.703323 284.0
242.735641 48.0
242.906219 92.0
242.986877 100.0
243.039749 2148.0
243.09198 244.0
243.163757 48.0
243.256866 64.0
243.474213 108.0
243.634277 120.0
243.682343 180.0
243.827988 160.0
243.899872 224.0
243.952713 176.0
244.033432 3276.0
244.099884 168.0
244.182816 80.0
244.207687 68.0
244.434799 100.0
244.469025 40.0
244.500153 56.0
244.521927 36.0
244.618317 68.0
244.774094 156.0
244.823914 52.0
244.879974 76.0
244.954727 40.0
244.998337 176.0
245.037399 408.0
245.066879 112.0
245.200882 204.0
245.568787 188.0
245.730988 128.0
245.818359 164.0
245.852692 96.0
245.974411 52.0
246.028824 124.0
246.091782 208.0
246.34288 60.0
246.449112 40.0
246.555359 100.0
246.689758 136.0
246.849213 192.0
247.087631 812.0
247.356064 112.0
247.396759 120.0
247.440582 28.0
247.84462 76.0
247.963699 164.0
248.069412 232.0
248.078354 132.0
248.594055 88.0
248.616028 100.0
248.936234 48.0
249.046158 108.0
249.08699 100.0
249.115265 136.0
249.240936 136.0
249.464081 100.0
250.039978 1028.0
250.351349 96.0
250.543488 184.0
250.568695 144.0
250.72377 168.0
250.776672 172.0
250.90332 112.0
251.04805 2660.0
251.139267 124.0
251.167648 176.0
251.192886 48.0
251.432678 72.0
251.514313 144.0
251.543152 52.0
251.577881 84.0
251.634705 120.0
251.666275 232.0
251.71048 148.0
251.78627 184.0
251.827332 204.0
251.912613 132.0
251.934738 116.0
251.963165 48.0
251.985275 164.0
252.056778 20732.0
252.228622 44.0
252.260223 84.0
252.310806 44.0
252.352264 72.0
252.398346 128.0
252.424637 60.0
252.452194 240.0
252.575455 64.0
252.651352 100.0
252.788422 168.0
252.829559 104.0
252.88652 36.0
252.98465 136.0
253.00972 192.0
253.063217 11480.0
253.161713 52.0
253.247467 104.0
253.301315 160.0
253.346588 184.0
253.428436 128.0
253.469238 112.0
253.564301 40.0
253.608673 36.0
253.699371 164.0
253.748154 60.0
253.770355 84.0
253.884506 96.0
253.932831 152.0
254.007996 184.0
254.055832 5240.0
254.115433 100.0
254.195389 196.0
254.238892 136.0
254.261398 60.0
254.286163 152.0
254.369949 40.0
254.416153 108.0
254.450104 144.0
254.476456 80.0
254.53186 152.0
254.608078 56.0
254.643021 140.0
254.672867 100.0
254.744659 52.0
254.766891 88.0
254.847351 148.0
254.944824 36.0
254.980362 88.0
255.061783 2972.0
255.164154 32.0
255.2341 64.0
255.262726 40.0
255.32489 80.0
255.44249 100.0
255.603088 128.0
255.663544 84.0
255.779602 112.0
255.873627 112.0
255.908646 96.0
256.062988 648.0
256.147491 112.0
256.208038 84.0
256.31955 148.0
256.437469 60.0
256.555389 72.0
256.692505 108.0
256.746704 232.0
256.887054 92.0
256.92215 152.0
256.967316 200.0
257.080139 996.0
257.235779 52.0
257.257233 200.0
257.461578 48.0
257.602112 172.0
257.640442 72.0
257.729919 108.0
257.924866 48.0
258.032867 116.0
258.082245 308.0
258.346954 168.0
258.385345 136.0
258.478149 136.0
258.548523 112.0
258.60614 88.0
258.660553 156.0
259.058929 324.0
259.084229 332.0
259.41333 192.0
259.673065 132.0
259.69873 196.0
259.762878 180.0
260.062897 128.0
260.11908 200.0
260.160797 132.0
260.208954 124.0
260.420898 140.0
260.612091 116.0
260.92218 108.0
261.018646 88.0
261.065369 212.0
261.140869 164.0
261.46579 64.0
261.599518 148.0
261.837616 132.0
262.132416 148.0
262.270996 60.0
262.309692 108.0
262.354828 212.0
262.384247 156.0
262.593414 140.0
262.69342 116.0
262.770844 108.0
262.861206 136.0
262.890228 144.0
263.038696 156.0
263.457825 204.0
263.574829 128.0
263.631256 164.0
263.700867 128.0
263.807526 112.0
263.835999 148.0
263.953003 188.0
263.99704 136.0
264.056793 23712.0
264.136292 60.0
264.166473 188.0
264.253815 152.0
264.277985 60.0
264.331482 92.0
264.366119 96.0
264.422485 64.0
264.447998 92.0
264.499786 32.0
264.54715 88.0
264.557343 56.0
264.588837 104.0
264.648682 68.0
264.758789 192.0
264.800903 52.0
264.846252 48.0
264.960052 148.0
265.060211 3848.0
265.102234 160.0
265.141205 108.0
265.251282 88.0
265.280457 40.0
265.523621 128.0
265.565796 136.0
265.724762 220.0
265.958405 176.0
265.98111 60.0
266.053497 6648.0
266.11145 136.0
266.182404 64.0
266.255341 88.0
266.292816 52.0
266.344788 56.0
266.372772 228.0
266.425995 48.0
266.57547 72.0
266.601471 32.0
266.624207 44.0
266.653473 56.0
266.734711 152.0
266.812744 68.0
266.858246 100.0
266.881012 136.0
266.929657 176.0
266.968811 112.0
267.056335 1568.0
267.108673 216.0
267.157471 36.0
267.281097 204.0
267.32016 88.0
267.434052 44.0
267.756378 80.0
267.942047 108.0
267.968109 52.0
268.039673 384.0
268.157104 84.0
268.261414 60.0
268.403259 128.0
268.525543 96.0
268.760406 40.0
268.86673 112.0
269.044922 168.0
269.188019 136.0
269.269684 64.0
269.338257 196.0
269.361115 224.0
269.416656 64.0
269.661743 160.0
269.815369 112.0
269.884033 140.0
269.906921 152.0
270.031586 5772.0
270.076965 144.0
270.143768 60.0
270.201294 56.0
270.405792 44.0
270.607117 200.0
270.630035 92.0
270.882202 172.0
270.943604 76.0
271.033142 1460.0
271.086151 2272.0
271.124664 112.0
271.285278 68.0
271.368439 152.0
271.433289 168.0
271.489594 180.0
271.552277 84.0
271.655853 40.0
271.85434 88.0
271.888794 176.0
271.941315 116.0
271.976013 188.0
272.028168 2048.0
272.093872 2044.0
272.154694 76.0
272.380554 72.0
272.412872 104.0
272.45047 68.0
272.515991 52.0
272.60141 236.0
272.652771 64.0
272.723022 28.0
272.897247 140.0
273.027435 252.0
273.095703 880.0
273.124847 156.0
273.505859 160.0
273.548645 72.0
273.680328 44.0
273.713257 132.0
274.032776 200.0
274.068115 132.0
274.091125 152.0
274.111847 212.0
274.518311 144.0
274.540405 188.0
274.599762 72.0
274.628235 152.0
274.741608 64.0
274.774597 76.0
274.949463 76.0
275.002289 124.0
275.081299 276.0
275.121124 52.0
275.500885 48.0
275.894165 84.0
275.930511 88.0
276.003265 200.0
276.076019 180.0
276.099152 48.0
276.615326 148.0
277.307587 108.0
277.605957 120.0
277.788391 344.0
278.041779 232.0
278.485443 136.0
278.595062 48.0
278.638245 80.0
278.694733 124.0
278.744568 164.0
278.937347 156.0
279.064911 2288.0
279.306427 168.0
279.40625 80.0
280.018707 92.0
280.054871 348.0
280.111969 68.0
280.238403 148.0
280.321869 52.0
281.063995 712.0
281.138885 92.0
281.696472 44.0
281.960449 144.0
281.983856 100.0
282.023956 292.0
282.060089 520.0
282.35495 80.0
282.589111 120.0
282.625916 36.0
283.07251 172.0
283.24527 60.0
283.553528 184.0
284.076599 64.0
284.261139 128.0
284.450195 60.0
284.563202 140.0
285.092377 184.0
285.23175 204.0
286.01886 76.0
286.078857 136.0
286.143402 80.0
286.412811 132.0
286.759857 184.0
286.884583 188.0
286.908173 284.0
287.056519 180.0
287.085907 512.0
287.221802 60.0
287.71109 132.0
287.778625 72.0
288.417114 40.0
288.792419 72.0
289.042755 128.0
289.076599 92.0
289.21875 136.0
289.421875 120.0
289.506531 168.0
289.635223 200.0
289.787689 176.0
290.041229 132.0
290.089294 128.0
290.194397 92.0
290.564087 152.0
290.821106 76.0
290.927216 128.0
291.039368 332.0
291.222626 168.0
291.266785 140.0
291.406067 76.0
291.44635 140.0
291.623566 236.0
291.705139 64.0
291.728943 112.0
291.871735 104.0
291.931 148.0
292.050903 9612.0
292.100311 168.0
292.15744 120.0
292.552185 80.0
292.657745 44.0
292.882507 52.0
293.001709 120.0
293.054535 1740.0
293.15506 44.0
293.209595 144.0
293.250488 68.0
293.359558 176.0
293.506165 44.0
293.589203 216.0
293.700562 84.0
293.744904 128.0
293.804016 108.0
293.976898 160.0
294.049438 3220.0
294.15097 68.0
294.188507 64.0
294.260223 60.0
294.547058 120.0
294.59491 112.0
294.77597 64.0
294.83194 128.0
294.946869 88.0
295.04837 568.0
295.120483 56.0
295.257996 72.0
295.360596 56.0
295.425598 56.0
295.672546 152.0
295.733551 120.0
295.942383 48.0
296.007446 192.0
296.052704 332.0
296.127319 100.0
296.535034 68.0
296.709839 60.0
296.822998 180.0
296.877869 132.0
296.994476 28.0
297.052765 128.0
297.231171 220.0
297.399353 48.0
297.674011 100.0
297.794189 68.0
297.890381 196.0
298.027802 104.0
298.075897 116.0
299.031952 136.0
299.081512 448.0
299.276367 80.0
299.703461 56.0
300.048126 148.0
300.085907 436.0
301.083954 592.0
301.109619 212.0
301.183472 96.0
302.071808 336.0
302.099182 132.0
302.653259 52.0
302.999603 156.0
303.09314 112.0
303.141663 144.0
303.186707 76.0
303.61972 188.0
303.800415 44.0
304.105408 144.0
305.054199 104.0
305.186157 40.0
305.321777 172.0
305.930695 180.0
306.02121 124.0
306.052551 100.0
306.09433 36.0
306.278931 92.0
306.418274 76.0
306.453094 124.0
306.78421 212.0
306.894653 140.0
306.958527 92.0
307.062744 9020.0
307.12561 196.0
307.421814 64.0
307.501068 148.0
307.607452 104.0
307.698242 80.0
307.761078 80.0
307.797729 140.0
307.830902 156.0
307.9776 152.0
308.016022 124.0
308.064758 1888.0
308.148773 88.0
308.193604 168.0
308.323486 48.0
308.445831 64.0
308.564667 96.0
308.718536 92.0
308.952881 32.0
309.001862 40.0
309.058655 3528.0
309.166321 64.0
309.271301 52.0
309.512878 60.0
309.593414 64.0
309.631927 28.0
309.761536 68.0
310.010284 96.0
310.065582 560.0
310.238129 40.0
310.298767 120.0
310.451996 108.0
310.476532 28.0
310.644897 64.0
310.729095 156.0
310.974731 76.0
311.051575 156.0
311.164307 136.0
311.322296 52.0
311.45929 124.0
311.680603 128.0
311.810638 88.0
311.856323 104.0
312.060211 184.0
312.309906 132.0
312.436523 112.0
312.461151 76.0
312.710999 220.0
312.950378 28.0
313.408264 240.0
313.503418 184.0
313.612671 40.0
313.845337 76.0
314.099274 144.0
314.293304 224.0
314.515625 172.0
314.642731 156.0
314.879303 104.0
315.00647 156.0
315.034729 108.0
315.105377 124.0
316.03656 108.0
316.594543 176.0
316.654755 164.0
317.052795 160.0
317.203949 164.0
317.970093 136.0
318.036865 132.0
318.047424 132.0
318.119171 132.0
318.222137 196.0
318.307343 164.0
318.747803 132.0
318.776245 156.0
319.045013 184.0
319.11319 308.0
319.466003 104.0
320.02475 84.0
320.124451 164.0
320.238434 156.0
320.445038 120.0
320.516296 152.0
321.036743 168.0
321.147308 120.0
321.297119 128.0
321.461243 144.0
321.682556 136.0
322.025696 120.0
322.21109 156.0
322.690002 60.0
323.029724 152.0
323.094116 172.0
323.394714 176.0
323.426941 116.0
323.627411 116.0
324.060791 164.0
324.412018 116.0
324.86026 32.0
325.069275 144.0
325.749603 180.0
326.24646 104.0
326.602448 140.0
326.663605 176.0
326.778717 144.0
327.117004 80.0
327.603149 104.0
327.858978 32.0
327.931061 104.0
328.062225 144.0
328.091827 164.0
328.320435 56.0
328.46109 108.0
329.079224 4036.0
329.193756 52.0
329.315582 56.0
329.370728 148.0
329.796814 100.0
330.084717 848.0
330.144165 68.0
330.202026 68.0
330.636169 88.0
331.114929 496.0
331.168396 84.0
331.414734 60.0
331.653931 40.0
331.70105 80.0
331.769928 60.0
331.970276 164.0
332.020111 132.0
332.12912 320.0
332.186951 128.0
332.361115 96.0
332.542542 128.0
332.621094 112.0
332.88382 132.0
333.036346 124.0
333.111115 96.0
333.142731 124.0
333.250671 164.0
333.64682 160.0
334.100586 228.0
335.002594 140.0
335.056366 588.0
335.153625 148.0
335.328552 168.0
335.871826 136.0
336.06015 184.0
336.22937 72.0
336.484894 40.0
337.036743 176.0
337.179901 60.0
337.899292 156.0
338.040283 164.0
338.078583 68.0
338.115173 48.0
338.664368 72.0
338.935486 116.0
339.028229 280.0
339.463318 180.0
339.536652 104.0
339.617371 172.0
340.08963 200.0
340.560669 88.0
341.091614 264.0
341.787659 84.0
341.902618 88.0
341.994629 104.0
342.088226 572.0
342.256012 148.0
342.337006 160.0
343.044434 76.0
343.077606 92.0
343.501678 56.0
343.560699 116.0
343.807922 88.0
344.081085 96.0
344.465149 136.0
344.845734 264.0
345.08493 164.0
345.137787 148.0
345.344879 156.0
346.104034 188.0
346.229431 80.0
346.485016 76.0
346.573914 196.0
347.055786 60.0
347.114197 576.0
347.1633 136.0
348.129242 576.0
348.443909 32.0
348.986542 88.0
349.027435 64.0
349.127838 108.0
349.432861 76.0
349.559357 112.0
349.927856 96.0
350.013489 272.0
350.12149 136.0
350.322632 152.0
350.654236 172.0
351.575409 100.0
352.187714 80.0
352.400665 56.0
352.908966 176.0
353.084717 88.0
353.167023 116.0
353.215637 88.0
353.656189 168.0
353.687103 68.0
354.117706 168.0
354.226318 124.0
354.522308 96.0
354.683472 116.0
354.979645 44.0
355.099854 560.0
355.200928 176.0
355.290955 112.0
355.328491 112.0
356.079987 184.0
356.488739 116.0
356.597717 168.0
357.09903 712.0
357.191803 140.0
357.545471 188.0
358.027374 236.0
358.108063 1960.0
358.185547 64.0
358.215698 40.0
358.464355 48.0
358.652802 32.0
358.860138 40.0
359.113281 1132.0
359.173126 156.0
359.471191 36.0
359.501373 128.0
359.576843 116.0
360.114838 164.0
360.585266 104.0
360.638184 132.0
360.694855 136.0
360.895233 128.0
360.925476 128.0
360.997345 128.0
361.109924 160.0
361.231842 144.0
361.307495 56.0
361.5383 60.0
362.261475 80.0
362.579773 52.0
362.651764 180.0
362.867859 136.0
363.311584 148.0
363.546814 84.0
363.789734 144.0
364.082092 84.0
364.937073 128.0
365.080017 560.0
365.134827 132.0
365.781647 148.0
365.861603 32.0
365.918701 60.0
366.025299 148.0
366.093445 396.0
366.470947 136.0
367.084137 696.0
367.46228 40.0
367.519501 72.0
367.675964 48.0
367.80191 144.0
367.878265 104.0
367.96225 112.0
368.087433 132.0
368.118378 228.0
368.313568 84.0
368.347961 132.0
369.082367 196.0
369.119965 152.0
369.188812 72.0
369.865997 88.0
370.083191 208.0
370.268036 64.0
370.34845 96.0
370.582153 104.0
371.080383 180.0
371.126404 108.0
371.444733 176.0
371.483093 92.0
371.621185 128.0
371.885986 104.0
372.108612 120.0
372.49649 124.0
373.097961 136.0
373.125885 144.0
373.131653 288.0
373.269012 172.0
373.376678 144.0
373.549774 80.0
373.672302 132.0
373.792145 100.0
373.915314 160.0
374.099792 580.0
374.161652 288.0
374.323364 164.0
374.354187 28.0
374.512085 148.0
374.646912 76.0
374.696991 108.0
374.762482 76.0
375.032257 168.0
375.111267 5904.0
375.174866 52.0
375.209564 144.0
375.267395 76.0
375.317535 128.0
375.502625 80.0
375.668488 104.0
375.818939 172.0
375.930023 92.0
376.071594 224.0
376.119598 5256.0
376.341797 96.0
376.461151 108.0
376.540833 92.0
376.675995 44.0
376.757141 168.0
376.900085 56.0
377.023743 64.0
377.07132 208.0
377.125305 952.0
377.232452 176.0
377.259521 44.0
377.530182 100.0
377.723572 120.0
377.93634 52.0
378.013733 156.0
378.060181 152.0
378.121307 96.0
378.269165 64.0
378.30014 148.0
378.478973 64.0
378.544067 116.0
378.606018 40.0
379.008881 76.0
379.059265 104.0
379.131531 220.0
379.266724 152.0
379.411987 88.0
380.044159 216.0
380.152802 156.0
380.40509 108.0
380.603088 84.0
380.746765 100.0
380.890503 148.0
380.937103 76.0
381.068573 268.0
381.453918 144.0
381.541718 172.0
381.659973 88.0
381.889435 88.0
381.994446 108.0
382.025574 220.0
382.096741 128.0
382.200653 128.0
382.547028 188.0
383.034729 180.0
383.094543 3948.0
383.232483 128.0
383.271423 64.0
383.318207 68.0
383.536438 172.0
383.832733 44.0
384.004333 88.0
384.031616 104.0
384.100281 1364.0
384.172058 76.0
384.234467 44.0
384.632507 116.0
384.826782 68.0
384.905792 176.0
384.987823 36.0
385.04248 108.0
385.093475 960.0
385.171387 144.0
385.312012 232.0
385.386261 60.0
385.835724 96.0
385.968658 76.0
386.09906 148.0
386.191559 56.0
386.308899 76.0
386.664978 160.0
386.692383 44.0
387.013367 68.0
387.134766 160.0
387.295349 104.0
387.843903 124.0
389.06781 128.0
389.118835 148.0
389.782623 60.0
389.841583 52.0
389.931976 48.0
390.011536 148.0
390.057739 108.0
390.325073 208.0
390.439117 136.0
391.120941 204.0
391.395386 120.0
391.879028 76.0
392.119019 144.0
392.59726 88.0
392.770782 140.0
392.995667 108.0
393.076599 1528.0
393.252167 52.0
393.453491 96.0
393.599579 104.0
394.084259 772.0
394.199982 136.0
394.417358 144.0
394.567596 148.0
394.682251 128.0
394.943268 140.0
395.081726 532.0
395.152924 92.0
395.358673 40.0
395.402222 124.0
395.714935 160.0
395.904022 144.0
395.918488 108.0
396.073395 224.0
396.875854 44.0
397.072388 124.0
397.812134 104.0
398.110535 236.0
398.256866 64.0
398.856873 36.0
399.071533 120.0
399.159027 52.0
399.556763 100.0
399.783569 116.0
400.099457 164.0
400.743225 76.0
401.111664 204.0
401.708008 216.0
401.847626 76.0
402.115417 112.0
402.697906 216.0
403.093414 172.0
403.557068 44.0
403.761017 144.0
403.925018 120.0
403.953003 96.0
404.065033 104.0
404.169037 124.0
405.398376 124.0
405.835297 80.0
406.52124 84.0
406.902557 96.0
407.223816 44.0
407.324219 48.0
408.083405 456.0
408.140045 68.0
408.76355 120.0
408.827911 156.0
408.99295 20.0
409.065552 164.0
409.075897 132.0
409.278778 96.0
409.399567 56.0
409.435822 156.0
409.717773 144.0
409.762085 32.0
410.079895 728.0
410.193298 88.0
410.503754 184.0
410.548126 52.0
410.584412 52.0
410.616669 112.0
410.677185 60.0
410.782043 64.0
410.86676 148.0
410.910004 84.0
410.934082 200.0
410.984589 188.0
411.089111 30112.0
411.26828 48.0
411.309875 144.0
411.35434 44.0
411.448853 344.0
411.508911 64.0
411.537964 104.0
411.611237 152.0
411.660797 144.0
411.736053 92.0
411.807312 68.0
411.884033 216.0
411.92041 228.0
411.967987 184.0
412.092499 6936.0
412.211304 48.0
412.243622 64.0
412.325989 156.0
412.409332 48.0
412.440796 76.0
412.4711 84.0
412.502289 148.0
412.538666 80.0
412.595276 84.0
412.637726 88.0
412.704559 116.0
412.84967 92.0
412.891235 104.0
412.941254 136.0
413.005615 84.0
413.085571 11092.0
413.250458 56.0
413.307098 64.0
413.384003 52.0
413.502228 228.0
413.581299 80.0
413.605133 168.0
413.643036 116.0
413.752319 48.0
413.935242 160.0
414.088928 2776.0
414.219391 64.0
414.250427 88.0
414.282837 84.0
414.468414 140.0
414.534058 60.0
414.627258 48.0
414.68399 160.0
414.789398 68.0
414.842957 112.0
415.01236 84.0
415.08847 352.0
415.247559 96.0
415.296234 52.0
415.373932 76.0
415.444885 192.0
415.503937 60.0
415.551788 128.0
415.608612 48.0
415.693817 144.0
415.78717 72.0
416.075348 60.0
416.310852 76.0
416.57486 56.0
416.8349 128.0
416.90802 56.0
416.944611 48.0
417.115326 84.0
417.23172 88.0
417.306396 68.0
417.611389 60.0
418.108826 164.0
418.372314 136.0
418.555542 76.0
418.58905 140.0
418.673615 32.0
418.751007 68.0
418.844696 88.0
419.056519 72.0
419.488525 96.0
419.637085 144.0
419.757599 48.0
420.177704 80.0
420.280334 132.0
420.859314 120.0
421.052643 200.0
421.202362 80.0
421.586426 68.0
421.749908 44.0
422.297791 100.0
422.330505 76.0
422.592346 84.0
423.304565 148.0
423.64859 36.0
423.699615 44.0
423.980499 68.0
424.14444 76.0
424.67337 52.0
425.227264 44.0
425.329865 136.0
425.506378 76.0
425.892395 64.0
426.011536 28.0
426.099152 5348.0
426.202026 120.0
426.545746 160.0
426.599182 32.0
426.644409 92.0
426.862305 36.0
427.010345 68.0
427.102875 1480.0
427.257172 160.0
427.331207 104.0
427.397064 84.0
427.557556 88.0
427.915649 48.0
427.969177 112.0
428.098022 1184.0
428.227539 60.0
428.319244 136.0
428.35614 104.0
428.504608 104.0
428.681793 84.0
428.772461 60.0
428.854889 48.0
429.101593 276.0
429.34964 108.0
429.605377 68.0
429.720886 116.0
429.786896 80.0
429.894196 52.0
429.964355 40.0
430.117065 68.0
430.451477 92.0
430.587769 48.0
431.223999 52.0
431.451355 124.0
431.732544 52.0
431.782166 48.0
431.922791 48.0
432.183411 220.0
433.14389 60.0
433.29718 140.0
433.678406 72.0
434.321075 96.0
434.686188 88.0
435.047272 112.0
435.080475 120.0
436.08493 620.0
436.364258 48.0
436.426605 44.0
437.081696 436.0
438.084717 336.0
438.658112 68.0
439.054199 100.0
439.087585 104.0
440.122498 36.0
444.937408 36.0
445.62619 112.0
446.731873 92.0
447.539917 152.0
447.640991 32.0
448.610046 128.0
450.221832 60.0
450.572418 92.0
451.730743 144.0
452.08316 224.0
452.149628 120.0
452.212433 72.0
452.285065 100.0
453.076965 140.0
453.153229 92.0
453.187103 160.0
453.331177 88.0
453.6745 172.0
453.704193 96.0
453.8797 160.0
453.958588 108.0
454.094574 22160.0
454.219299 136.0
454.340302 60.0
454.408203 140.0
454.487976 100.0
454.548218 52.0
454.611877 196.0
454.650543 176.0
454.688263 80.0
454.798615 124.0
454.858276 208.0
454.91748 112.0
454.969788 100.0
455.097656 6152.0
455.175171 40.0
455.360016 72.0
455.387177 136.0
455.592987 56.0
455.771118 188.0
455.822113 44.0
455.996368 76.0
456.090149 6324.0
456.174896 128.0
456.217407 88.0
456.323364 56.0
456.591583 72.0
456.663513 48.0
456.704071 88.0
456.9021 36.0
456.98291 88.0
457.095154 1964.0
457.182922 56.0
457.399994 60.0
457.519165 104.0
457.830017 180.0
457.868317 124.0
457.95462 148.0
458.082916 220.0
458.118896 108.0
458.175018 104.0
458.42215 64.0
458.481812 60.0
458.801483 48.0
458.927826 120.0
459.078644 80.0
459.117035 164.0
459.193787 92.0
459.774017 48.0
459.833771 40.0
460.623688 160.0
460.918457 72.0
461.003937 84.0
462.552185 120.0
462.809082 40.0
463.108826 68.0
463.610107 72.0
465.008209 140.0
466.124786 56.0
466.35257 72.0
466.666382 76.0
467.380371 96.0
467.470734 56.0
468.163818 56.0
468.387787 128.0
469.103088 48.0
469.551514 48.0
471.54184 96.0
472.203339 60.0
473.008148 44.0
473.917603 80.0
474.264282 96.0
475.539459 40.0
480.609283 52.0
480.9104 76.0
481.971619 84.0
494.098022 56.0
499.719299 44.0
501.669952 76.0
502.026642 36.0
504.916077 64.0
506.325836 48.0
506.648346 104.0
511.426239 88.0
515.580078 72.0
516.149658 64.0
519.605591 72.0
519.855103 132.0
520.368042 44.0
520.608704 92.0
521.71283 64.0
526.0177 76.0
526.223145 100.0
532.855042 52.0
533.107727 128.0
534.744995 96.0
534.892273 44.0
535.707336 56.0
536.435425 100.0
537.099426 116.0
541.217163 80.0
543.033752 32.0
545.471436 44.0
547.956543 56.0
549.149902 80.0
552.363464 80.0
554.203369 148.0
560.79657 96.0
564.483704 80.0
565.614441 144.0
566.140015 120.0
566.751038 104.0
567.130188 164.0
567.940979 116.0
568.994446 96.0
569.350586 120.0
571.375488 104.0
572.49884 108.0
573.127625 96.0
585.689087 48.0
591.362427 60.0
592.098328 44.0
597.004761 96.0
599.960327 36.0
605.81488 56.0
607.437439 104.0
609.130981 48.0
612.544861 76.0
622.059021 52.0
629.27771 120.0
629.452515 84.0
632.532227 96.0
633.328369 52.0
636.061157 88.0
638.352112 64.0
640.279541 44.0
642.240173 124.0
642.921265 32.0
645.634155 100.0
655.161499 72.0
668.404114 112.0
672.034546 68.0
675.454529 60.0
679.272217 36.0
683.417969 56.0
683.813477 72.0
684.422546 72.0
689.691711 92.0
693.465454 120.0
695.726257 20.0
706.884399 64.0
715.301941 144.0
716.638672 84.0
717.630066 88.0
718.638123 132.0
720.212952 92.0
724.958557 84.0
726.754883 88.0
732.162659 64.0
733.41803 96.0
736.508545 88.0
737.666138 116.0
738.455627 52.0
739.17511 84.0
745.807861 88.0
747.232605 104.0
755.169678 84.0
757.107117 88.0
757.715149 64.0
762.137329 52.0
772.352905 116.0
775.514526 88.0
796.646484 140.0
804.0 96.0
805.326782 100.0
805.564026 44.0
816.56604 92.0
821.436035 112.0
825.37677 96.0
832.746521 60.0
841.1474 92.0
854.848694 84.0
856.100342 56.0
859.539612 68.0
890.370056 56.0
896.157959 100.0
908.581848 80.0
910.760925 108.0
915.060608 56.0
916.813477 68.0
929.682617 68.0
940.326904 76.0
941.309753 72.0
951.621094 64.0
956.883972 68.0
965.009583 68.0
975.928223 152.0
993.315125 48.0
1020.407837 132.0
1023.391846 104.0
1038.800537 80.0
1048.606201 148.0
1059.695068 76.0
1060.330078 92.0
1070.03479 120.0
1074.492676 140.0
1096.354248 224.0
1098.490479 76.0
1101.627441 84.0
1105.818237 104.0
1108.454102 76.0
1109.342163 156.0
1133.033691 136.0
1142.696411 152.0
1180.258179 144.0
1184.864502 72.0
1186.379028 68.0
1192.343872 100.0
1202.081543 140.0
1215.915405 108.0
1230.247314 48.0
1234.845093 124.0
1237.917358 236.0
1259.572632 48.0
1267.687744 120.0
1270.445801 104.0
1271.04187 116.0
1273.029419 196.0
1274.123291 184.0
1276.426147 36.0
1276.490112 200.0
1276.682129 52.0
1278.546021 60.0
1281.615112 76.0
1283.19751 108.0
1285.779663 84.0
1287.807373 196.0
1297.962402 192.0
1300.85376 100.0
1303.130371 172.0
1311.715942 96.0
1312.588257 176.0
1316.391113 44.0
1319.801758 56.0
1326.136108 60.0
1328.115601 176.0
1333.197754 216.0
1338.012939 208.0
1340.350952 184.0
1348.743774 156.0
1356.327026 188.0
1361.161743 52.0
1362.07251 116.0
1363.622803 68.0
1369.147949 176.0
1372.55249 116.0
1377.807617 116.0
1389.942871 180.0
1391.286255 156.0
1391.516357 108.0
1391.657471 168.0
1391.843018 164.0
1393.395386 144.0
1397.648315 92.0
1406.427368 80.0
1408.899048 164.0
1408.951294 128.0
1410.894409 108.0
1411.096313 156.0
1415.12146 140.0
1415.94519 56.0
1420.254883 96.0
1438.925171 148.0
1439.665161 188.0
1441.463013 56.0
1448.128052 128.0
1451.826538 164.0
1454.679321 180.0
1457.656616 200.0
1457.937744 108.0
1460.248901 136.0
1465.097778 60.0
1473.566162 212.0
1477.182251 184.0
1477.373413 144.0
1479.416748 84.0
1485.286499 108.0
1485.846558 40.0
1488.010864 156.0
1488.195068 36.0
1491.344727 192.0
1493.259277 172.0
1496.144775 216.0
1496.237183 96.0
1499.387573 144.0
1500.435913 156.0
1501.075928 72.0
