>compound MLS002154036-01!(+) -Levobunolol hydrochloride47141-41-3
>formula C17H25NO3
>ionization [M+H]+
>parentmass 292.1907201120905
#inchi InChI=1S/C17H25NO3/c1-17(2,3)18-10-12(19)11-21-16-9-5-6-13-14(16)7-4-8-15(13)20/h5-6,9,12,18-19H,4,7-8,10-11H2,1-3H3/t12-/m1/s1
#inchikey IXHBTMCLRNMKHZ
#origInchi InChI=1S/C17H25NO3.ClH/c1-17(2,3)18-10-12(19)11-21-16-9-5-6-13-14(16)7-4-8-15(13)20;/h5-6,9,12,18-19H,4,7-8,10-11H2,1-3H3;1H/t12-;/m1./s1
#Ion_Source LC-ESI
#Instrument qTof
#Compound_Source NIH Pharmacologically Active Library
#PI Dorrestein
#Data_Collector VP/LMS
#Scan -1
#Precursor_MZ 292.197
#ExactMass 291.183
#Charge 1
#CAS_Number N/A
#Pubmed_ID N/A
#Smiles CC(C)(C)NC[C@@H](O)COc1cccc2C(=O)CCCc12.Cl
#INCHI_AUX N/A
#Library_Class 1
#SpectrumID CCMSLIB00000086059
#IonMode Positive
#UpdateWorkflowName UPDATE-SINGLE-ANNOTATED-GOLD
#LibraryQualityString Gold
#TaskID d252d724072548979f1f6f1ced849daf
##Scan# 1353
#SpectrumFile p5-C05_GC5_01_18450.mzXML
#LibraryName Pharm_Active_Library.mgf
#MQScore -1
#Organism Pharm_Active_Library
#TIC_Query 0
#RT_Query -1
#MZErrorPPM -1
#SharedPeaks 0
#MassDiff 0
#LibMZ -1
#SpecMZ 292.197
#SpecCharge 0
#internalFilename spec-00000.mgf

>collision 10
44.933708 160.0
45.027145 104.0
45.413933 148.0
45.436737 168.0
45.666435 124.0
45.69334 176.0
45.979 204.0
46.170837 116.0
46.211414 160.0
46.23983 192.0
46.761627 256.0
46.849495 96.0
46.887646 176.0
46.898548 84.0
46.958538 184.0
47.189312 204.0
47.468632 40.0
47.911198 200.0
47.962185 172.0
48.216133 84.0
48.238251 112.0
48.431965 172.0
48.569187 164.0
48.694099 140.0
48.728828 260.0
48.908524 144.0
48.993156 200.0
49.023808 96.0
49.05447 116.0
49.086536 188.0
49.184196 140.0
49.198154 128.0
49.219097 100.0
49.658508 128.0
49.907063 156.0
50.056213 232.0
50.173153 204.0
50.499336 152.0
50.530457 156.0
50.613964 260.0
50.689037 272.0
50.940155 136.0
51.014046 168.0
51.0695 256.0
51.103455 152.0
51.340096 184.0
51.352932 80.0
51.498508 224.0
51.515652 148.0
51.622845 128.0
51.673027 188.0
51.712971 48.0
51.866226 172.0
52.090069 132.0
52.238129 160.0
52.312954 184.0
52.335991 196.0
52.347511 188.0
52.36623 196.0
52.455563 164.0
52.513237 160.0
52.878765 196.0
52.952602 164.0
53.051132 256.0
53.074326 100.0
53.112034 232.0
53.158459 60.0
53.367619 104.0
53.693802 204.0
53.705467 180.0
53.787178 156.0
53.858727 204.0
53.961018 32.0
54.088287 256.0
54.443089 224.0
54.493031 52.0
54.63858 156.0
54.747498 180.0
54.841785 56.0
54.884537 68.0
54.902233 188.0
55.045372 108.0
55.15913 132.0
55.172436 72.0
55.203484 144.0
55.26857 236.0
55.336651 176.0
55.364784 192.0
55.384041 172.0
55.479874 148.0
55.845638 200.0
55.908123 116.0
55.987022 48.0
56.097279 68.0
56.144989 160.0
56.216595 248.0
56.473553 184.0
56.527412 148.0
56.644188 196.0
56.690632 164.0
56.987732 52.0
57.13055 152.0
57.199772 140.0
57.243431 128.0
57.266022 168.0
57.376022 132.0
57.484619 116.0
57.523857 144.0
57.628059 160.0
57.641659 168.0
57.929146 208.0
58.103451 180.0
58.279564 128.0
58.440731 136.0
58.468121 156.0
58.486385 168.0
58.618881 200.0
59.128933 156.0
59.762688 160.0
59.932053 144.0
60.06926 240.0
60.279228 132.0
60.663052 152.0
60.915989 128.0
61.010784 156.0
61.029438 164.0
61.178791 164.0
61.265999 140.0
61.39069 176.0
61.448402 176.0
61.501457 124.0
62.210541 128.0
62.221531 196.0
62.276489 212.0
62.311047 244.0
62.334614 72.0
62.472973 108.0
62.562672 188.0
62.600456 148.0
62.797451 168.0
63.402962 148.0
63.618671 180.0
63.725079 216.0
63.740593 144.0
63.877693 264.0
64.149986 188.0
64.202606 136.0
64.248856 232.0
64.426056 220.0
64.800415 124.0
64.834068 168.0
64.97998 236.0
65.318939 176.0
65.365593 220.0
65.463783 160.0
65.592674 128.0
65.782097 176.0
65.854065 160.0
66.104637 152.0
66.143486 160.0
66.188812 160.0
66.333 176.0
66.446518 180.0
66.487083 88.0
66.673843 176.0
66.85923 132.0
67.064438 44.0
67.384277 128.0
67.470894 188.0
67.62397 384.0
68.124763 160.0
68.177338 196.0
68.325317 248.0
68.486641 252.0
68.527824 124.0
68.606926 160.0
68.650757 168.0
68.773529 84.0
68.948593 208.0
69.067635 136.0
69.079216 192.0
69.166916 176.0
69.206642 212.0
69.276199 212.0
69.359055 240.0
69.55146 164.0
69.56308 156.0
69.857399 172.0
70.208633 168.0
70.28537 152.0
70.333069 172.0
70.400551 132.0
70.494095 188.0
70.607773 96.0
70.720741 128.0
70.748322 124.0
70.803574 196.0
71.042046 204.0
71.101982 156.0
71.135551 116.0
71.154022 180.0
71.232948 216.0
71.279991 72.0
71.337128 208.0
71.449806 104.0
71.507011 108.0
71.544044 188.0
71.555832 120.0
71.631607 36.0
71.645088 156.0
71.771484 148.0
71.795097 164.0
71.931755 172.0
71.990852 188.0
72.094261 204.0
72.124321 212.0
72.322212 176.0
72.488182 196.0
72.537331 232.0
72.851257 180.0
72.936218 184.0
72.978722 180.0
73.094376 244.0
73.16246 188.0
73.28849 208.0
73.409508 112.0
73.44191 88.0
73.494797 168.0
73.638191 144.0
73.82618 172.0
74.18219 184.0
74.367554 220.0
74.755951 152.0
74.883339 176.0
75.005676 196.0
75.041878 148.0
75.155708 136.0
75.452934 208.0
75.679413 224.0
75.734833 176.0
75.850922 232.0
75.890793 156.0
75.922005 216.0
76.07122 188.0
76.272713 168.0
76.713104 164.0
77.205475 176.0
77.320801 156.0
77.571396 220.0
77.590683 192.0
77.645035 156.0
77.680115 136.0
77.723976 160.0
77.889 240.0
77.901299 184.0
77.94873 176.0
78.015518 156.0
78.316414 56.0
78.432701 64.0
78.494408 132.0
78.720276 188.0
78.808594 136.0
78.852768 112.0
79.598572 80.0
79.619881 132.0
79.78157 228.0
79.964775 436.0
80.044884 160.0
80.116127 144.0
80.290497 188.0
80.340744 156.0
80.549599 84.0
80.978867 128.0
81.093536 196.0
81.150894 152.0
81.271065 144.0
81.443405 204.0
81.565582 256.0
81.696854 184.0
81.722038 212.0
81.765228 216.0
81.803024 108.0
82.04261 152.0
82.057037 224.0
82.246445 156.0
82.307823 72.0
82.61145 260.0
82.913826 220.0
82.935577 136.0
82.951889 144.0
82.997215 160.0
83.129623 144.0
83.204147 144.0
83.549332 72.0
83.702217 136.0
84.079559 144.0
84.254845 60.0
84.291389 172.0
84.465073 152.0
84.734169 160.0
84.976173 172.0
85.109802 188.0
85.132187 160.0
85.194641 188.0
85.424423 232.0
85.584534 140.0
85.73558 152.0
85.870163 152.0
86.17289 216.0
86.666893 168.0
86.681717 76.0
86.69622 232.0
86.833725 244.0
86.852272 180.0
87.182747 168.0
87.22921 184.0
87.270111 144.0
87.306664 164.0
87.402168 172.0
87.448692 168.0
87.592056 188.0
88.471588 184.0
88.615791 128.0
88.795952 180.0
88.825752 96.0
88.838882 168.0
88.904549 168.0
89.058502 152.0
89.364914 144.0
89.378082 156.0
89.39502 64.0
89.421364 156.0
89.45713 220.0
89.470306 160.0
89.64547 112.0
89.698242 256.0
89.737831 96.0
89.852875 168.0
89.888718 208.0
89.951004 176.0
89.966103 168.0
89.996307 116.0
90.107742 76.0
90.19278 160.0
90.211678 104.0
90.247597 172.0
90.404602 208.0
90.679199 208.0
90.720901 132.0
90.902977 148.0
90.937134 140.0
90.999779 152.0
91.054222 2948.0
91.197334 52.0
91.280983 128.0
91.423653 68.0
91.49408 128.0
91.636917 176.0
91.694077 88.0
91.722672 144.0
91.736015 312.0
91.787491 152.0
91.89048 168.0
92.066048 184.0
92.072983 144.0
92.184525 232.0
92.205551 192.0
92.496269 104.0
92.524979 160.0
92.572845 156.0
92.700554 200.0
92.835381 156.0
93.068375 208.0
93.394249 140.0
93.64061 160.0
93.681053 96.0
93.694542 144.0
93.729218 188.0
94.356491 140.0
94.426102 148.0
94.472527 156.0
94.60994 252.0
94.714485 164.0
95.047935 200.0
95.339211 160.0
95.488907 52.0
95.86853 168.0
95.932846 176.0
96.045944 184.0
96.178627 212.0
96.375862 160.0
96.465759 176.0
96.949196 148.0
96.969872 168.0
97.127609 172.0
97.266922 208.0
97.400444 160.0
97.545845 152.0
97.559608 104.0
97.602859 144.0
98.142357 108.0
98.311996 200.0
98.440308 200.0
98.724174 164.0
98.819809 140.0
98.910843 176.0
99.007858 36.0
99.023705 148.0
99.049446 256.0
99.211937 184.0
99.592926 136.0
99.710144 188.0
99.785683 204.0
99.910973 248.0
99.976631 176.0
100.0662 108.0
100.12793 124.0
100.381012 212.0
100.434212 184.0
100.530624 172.0
100.592316 176.0
100.686333 196.0
100.742264 156.0
101.190231 168.0
101.304375 88.0
101.384521 176.0
101.51683 232.0
101.561073 192.0
101.655243 84.0
101.793747 128.0
102.047806 172.0
102.125343 164.0
102.324554 128.0
102.378922 148.0
102.568306 136.0
102.628784 104.0
102.653679 244.0
102.695335 224.0
102.721558 204.0
103.056343 612.0
103.307365 76.0
103.657623 136.0
104.010506 204.0
104.058182 156.0
104.073433 136.0
104.164825 148.0
104.455498 240.0
104.758804 184.0
104.974838 168.0
105.036743 352.0
105.071014 2572.0
105.272774 80.0
105.381027 68.0
105.632477 212.0
105.648842 140.0
105.716362 92.0
105.781853 72.0
105.808472 144.0
105.902664 132.0
105.957199 160.0
106.046082 140.0
106.07225 172.0
106.121925 144.0
106.24498 136.0
106.505676 148.0
106.55703 36.0
106.573471 168.0
106.612511 208.0
106.838684 152.0
107.02346 204.0
107.051201 4476.0
107.118645 72.0
107.149544 244.0
107.337097 88.0
107.394844 132.0
107.444351 64.0
107.508316 36.0
107.570229 180.0
107.937973 228.0
108.053162 152.0
108.095184 160.0
108.12001 168.0
108.140709 256.0
108.242149 160.0
108.431656 176.0
108.598595 200.0
108.847153 228.0
108.988869 128.0
109.055367 180.0
109.096939 184.0
109.21962 176.0
109.323647 120.0
109.367348 160.0
109.384003 124.0
109.473526 148.0
109.627678 196.0
109.74649 192.0
109.915443 164.0
110.697212 212.0
111.05558 140.0
111.181458 160.0
111.320007 220.0
111.469147 196.0
111.942444 232.0
112.049858 92.0
112.281723 228.0
112.530716 188.0
112.575058 144.0
112.644753 224.0
112.830719 156.0
112.856087 192.0
113.071854 188.0
113.516724 160.0
113.610046 196.0
113.697037 200.0
114.275002 108.0
114.33033 92.0
114.400566 152.0
114.47934 172.0
114.811783 300.0
115.055588 2912.0
115.497925 180.0
115.694221 248.0
116.059433 768.0
116.208572 140.0
116.404335 176.0
116.620872 164.0
116.736961 84.0
116.975777 152.0
117.034813 468.0
117.070801 6716.0
117.169586 28.0
117.193291 64.0
117.238541 52.0
117.618126 120.0
117.942116 192.0
118.017776 124.0
118.073837 580.0
118.240585 64.0
118.270882 80.0
118.4571 44.0
118.595772 184.0
118.758385 72.0
118.832146 168.0
118.923279 72.0
118.953667 184.0
119.05014 2492.0
119.084312 960.0
119.279381 148.0
119.319626 112.0
119.370811 444.0
119.533951 136.0
119.810463 128.0
120.053474 296.0
120.085106 136.0
120.144005 36.0
120.294571 176.0
120.340416 64.0
120.65065 180.0
120.668137 144.0
120.786224 84.0
120.801537 88.0
120.943764 192.0
121.0327 160.0
121.065155 740.0
121.138649 152.0
121.353416 168.0
121.390686 156.0
121.658363 44.0
121.691292 180.0
121.845024 128.0
121.895561 160.0
122.071411 108.0
122.35965 168.0
122.679077 68.0
122.698921 164.0
122.864319 44.0
123.113731 104.0
123.248482 64.0
123.370033 168.0
123.504921 52.0
123.646515 128.0
123.686356 136.0
123.8293 216.0
124.17823 112.0
124.278053 216.0
124.864494 144.0
124.913422 124.0
125.044701 220.0
125.579407 128.0
125.657829 228.0
125.847191 212.0
126.092903 192.0
126.249039 176.0
126.361237 116.0
126.632088 160.0
127.054733 568.0
127.105095 208.0
127.13427 212.0
127.534027 224.0
127.55201 180.0
127.648682 120.0
128.017731 172.0
128.06218 1600.0
128.14386 116.0
128.454956 184.0
128.639999 128.0
129.003677 176.0
129.06839 1616.0
129.192749 192.0
129.41037 224.0
129.44487 80.0
129.490158 244.0
129.79155 128.0
129.889069 136.0
129.918549 108.0
129.945786 188.0
130.074783 516.0
130.483749 144.0
130.647781 128.0
130.939117 200.0
130.986954 124.0
131.002899 156.0
131.050171 1420.0
131.085739 1164.0
131.16925 68.0
131.217117 168.0
131.233078 40.0
131.301483 224.0
131.319733 44.0
131.490845 68.0
131.570724 64.0
131.831116 148.0
131.853958 52.0
132.057495 3272.0
132.080627 276.0
132.155807 36.0
132.283966 92.0
132.299988 76.0
132.325165 224.0
132.487762 80.0
132.542755 72.0
132.579071 80.0
132.691803 148.0
132.728424 52.0
132.957809 48.0
133.065109 4048.0
133.099915 304.0
133.329849 28.0
133.350525 40.0
133.52066 124.0
133.536758 28.0
133.61496 196.0
133.762238 164.0
133.923416 40.0
134.068329 552.0
134.241455 60.0
134.340637 232.0
134.525238 160.0
134.966507 44.0
135.005814 196.0
135.079544 356.0
135.126099 128.0
135.359863 48.0
135.399231 80.0
135.904556 120.0
136.002029 112.0
136.043808 176.0
136.085602 176.0
136.289993 140.0
136.578262 156.0
136.843536 116.0
137.152115 200.0
137.472885 164.0
137.549896 176.0
137.589584 156.0
137.668976 212.0
137.827805 116.0
137.949341 224.0
138.145767 208.0
138.628067 172.0
138.665573 64.0
138.700729 88.0
138.986832 152.0
139.212173 152.0
139.33197 188.0
139.482361 124.0
139.543488 244.0
139.651657 192.0
140.138931 104.0
140.176636 92.0
140.24498 208.0
140.570419 188.0
140.643585 76.0
140.766342 188.0
140.782883 188.0
140.823029 200.0
140.908066 124.0
140.990768 220.0
141.069473 364.0
141.203537 152.0
141.537201 180.0
141.615341 56.0
142.032501 148.0
142.065704 156.0
142.082321 156.0
142.158249 156.0
142.350525 52.0
142.471649 56.0
142.55481 164.0
142.859131 124.0
142.882919 212.0
142.990005 164.0
143.049377 228.0
143.0858 1836.0
143.161407 176.0
143.189987 160.0
143.261444 84.0
143.437775 120.0
143.974594 216.0
144.013199 248.0
144.057892 1396.0
144.093231 516.0
144.177658 32.0
144.380859 84.0
144.840393 176.0
144.869125 148.0
144.885895 120.0
144.936218 364.0
144.955383 184.0
145.010498 184.0
145.065613 19428.0
145.103348 936.0
145.128403 124.0
145.215988 68.0
145.234619 92.0
145.271851 72.0
145.319839 84.0
145.353424 48.0
145.383545 108.0
145.535843 156.0
145.573181 132.0
145.619888 84.0
145.665527 120.0
145.730392 124.0
146.038086 132.0
146.070633 2756.0
146.106918 196.0
146.201691 76.0
146.579758 56.0
146.608673 32.0
146.639999 36.0
146.787048 216.0
146.808746 176.0
146.83287 152.0
146.888336 224.0
146.913528 136.0
146.936584 168.0
147.006561 140.0
147.03688 212.0
147.08078 12260.0
147.151382 140.0
147.206924 64.0
147.247971 56.0
147.265717 116.0
147.325272 60.0
147.354248 52.0
147.424332 68.0
147.476898 60.0
147.496826 80.0
147.542755 136.0
147.583862 44.0
147.615295 56.0
147.714447 64.0
147.847519 180.0
147.909729 160.0
147.954025 96.0
148.083206 1404.0
148.402222 144.0
148.562286 180.0
148.70787 112.0
148.751572 72.0
148.80983 104.0
148.887527 104.0
148.98468 184.0
149.018692 108.0
149.057571 68.0
149.087479 180.0
149.111038 76.0
149.222855 132.0
149.269043 100.0
149.315247 48.0
149.449036 168.0
149.570724 88.0
150.34819 204.0
151.465515 72.0
151.659088 200.0
151.906738 80.0
152.060791 160.0
152.591904 48.0
153.071426 732.0
153.495514 124.0
153.5177 96.0
154.04834 192.0
154.078018 680.0
154.438889 216.0
154.777924 200.0
155.058151 312.0
155.08522 1732.0
155.160965 140.0
155.345474 108.0
155.386108 136.0
155.500092 100.0
155.556396 40.0
155.889191 220.0
156.028381 68.0
156.052414 180.0
156.09024 440.0
156.329346 68.0
156.44632 124.0
157.063049 160.0
157.543564 192.0
158.003555 208.0
158.075134 868.0
158.266342 128.0
159.020889 136.0
159.043488 128.0
159.080093 3188.0
159.184067 36.0
159.271973 64.0
159.699249 56.0
159.736984 120.0
159.913116 364.0
159.983597 160.0
160.051987 2676.0
160.087769 612.0
160.134277 212.0
160.298416 36.0
160.500076 56.0
160.747269 164.0
160.764923 80.0
160.815399 164.0
160.855789 216.0
161.057816 1524.0
161.096405 2436.0
161.318054 104.0
161.353439 44.0
161.378723 40.0
161.751709 128.0
161.775925 60.0
162.065964 152.0
162.097015 1012.0
162.378952 140.0
162.47789 40.0
162.637756 140.0
162.805313 104.0
162.945007 132.0
163.049194 140.0
163.07547 1740.0
163.242386 56.0
163.37027 164.0
163.975571 188.0
164.01889 152.0
164.077347 500.0
164.258575 88.0
164.442291 180.0
164.462708 136.0
164.620987 88.0
165.024704 88.0
165.071243 1196.0
165.20372 72.0
165.242096 100.0
165.626083 52.0
165.644012 140.0
165.7798 156.0
165.936157 112.0
165.974609 48.0
166.071365 164.0
166.474976 208.0
166.659927 80.0
166.826981 64.0
167.251404 96.0
167.55011 260.0
168.058014 104.0
168.453003 156.0
168.496918 196.0
168.517578 176.0
168.659714 196.0
168.796722 172.0
169.071793 328.0
169.65889 48.0
169.879318 48.0
170.074768 136.0
171.080109 888.0
171.130447 92.0
171.371567 192.0
171.770432 228.0
172.058624 228.0
172.081802 400.0
172.146255 144.0
172.684601 172.0
172.823242 148.0
172.972412 120.0
173.009064 184.0
173.060272 160.0
173.097519 3072.0
173.15831 108.0
173.299759 100.0
173.713974 80.0
174.102798 740.0
174.204849 44.0
174.735886 44.0
174.817459 132.0
174.899048 140.0
175.076309 7864.0
175.139664 52.0
175.178665 184.0
175.215042 48.0
175.294083 68.0
175.411957 160.0
175.436401 68.0
176.080582 1316.0
176.125107 216.0
176.468643 152.0
176.770187 128.0
176.868103 168.0
176.902512 204.0
177.078583 464.0
177.408478 48.0
177.556961 120.0
177.73204 64.0
177.941711 268.0
178.497025 172.0
178.781647 40.0
178.962646 116.0
179.194366 72.0
180.293716 228.0
180.651993 56.0
180.871414 108.0
181.455399 52.0
181.825562 120.0
182.413757 120.0
182.639633 92.0
182.677292 76.0
183.019073 168.0
183.080261 2852.0
183.229156 68.0
183.76297 60.0
184.085129 436.0
184.868088 164.0
185.374481 92.0
185.534393 76.0
186.065704 160.0
187.085571 160.0
187.197205 164.0
187.829483 64.0
188.528412 136.0
188.851013 160.0
188.892044 180.0
188.924866 184.0
189.045135 176.0
189.091995 13192.0
189.149261 68.0
189.171158 88.0
189.266983 64.0
189.290146 112.0
189.336868 176.0
189.439514 48.0
189.530945 160.0
189.6642 140.0
189.683395 152.0
189.727249 56.0
189.818466 60.0
189.930176 72.0
190.094894 1232.0
190.35556 40.0
190.597275 128.0
190.913696 36.0
190.998642 72.0
191.037155 136.0
191.070923 176.0
191.097427 172.0
191.144455 96.0
191.232513 32.0
191.43074 192.0
191.549164 88.0
191.634567 96.0
191.659363 56.0
191.81369 84.0
193.080978 152.0
194.438477 76.0
194.566147 76.0
200.051086 236.0
200.079224 120.0
200.101746 160.0
200.256622 88.0
200.476364 176.0
200.498917 68.0
200.586288 136.0
200.639847 104.0
200.659576 40.0
200.746994 176.0
200.935974 104.0
200.998047 100.0
201.058884 184.0
201.091644 17828.0
201.148773 160.0
201.201248 116.0
201.249252 44.0
201.277481 52.0
201.421509 60.0
201.444107 76.0
201.58255 108.0
202.006638 100.0
202.051895 60.0
202.097015 1832.0
202.170731 64.0
202.388687 84.0
202.408508 72.0
202.453827 64.0
202.572784 108.0
202.694595 40.0
202.839142 80.0
202.91568 36.0
203.014923 68.0
203.097382 160.0
203.122696 132.0
203.198761 64.0
203.292923 52.0
203.38002 104.0
203.48877 92.0
203.525681 96.0
203.686951 132.0
203.73584 100.0
203.77562 64.0
205.06752 36.0
205.318405 212.0
205.432495 104.0
206.206284 116.0
206.320618 36.0
211.284363 108.0
213.041138 60.0
213.517822 112.0
216.447647 228.0
216.602859 216.0
216.813812 128.0
218.120224 924.0
219.097122 792.0
220.10257 132.0
221.566589 180.0
225.031372 156.0
226.568573 212.0
227.402176 56.0
232.882111 144.0
235.84671 140.0
235.935349 372.0
235.956757 108.0
235.999557 192.0
236.127823 10248.0
236.213638 44.0
236.31459 64.0
236.366592 44.0
236.482895 48.0
236.591324 156.0
236.642075 108.0
236.691055 72.0
236.727798 148.0
237.05864 108.0
237.132812 2024.0
237.233337 68.0
237.988037 52.0
238.137695 568.0
238.273666 148.0
238.312515 36.0
238.614807 108.0
238.796219 100.0
238.87619 68.0
238.913116 108.0
239.263931 48.0
246.900253 84.0
249.16333 76.0
252.969666 100.0
257.765778 60.0
258.277283 80.0
266.30954 96.0
266.920502 40.0
279.845673 108.0
292.187805 140.0
292.511078 104.0
298.972992 32.0
308.703796 68.0
313.8797 48.0
321.042786 140.0
322.849731 68.0
336.271606 124.0
344.297119 72.0
355.221283 108.0
360.889099 112.0
368.796234 56.0
404.705627 152.0
415.101501 40.0
415.308319 76.0
417.664093 124.0
418.852631 100.0
427.034607 76.0
443.757538 116.0
448.107483 88.0
454.398468 72.0
455.391754 88.0
506.600677 68.0
541.412292 64.0
541.787415 64.0
566.466675 68.0
590.606812 144.0
604.599304 40.0
612.932556 96.0
634.674316 160.0
651.902405 76.0
655.953613 48.0
662.458618 76.0
679.974243 88.0
686.007812 116.0
763.873718 152.0
766.075623 108.0
772.700256 216.0
773.856934 180.0
790.555664 152.0
801.223755 172.0
804.494568 212.0
808.869751 68.0
814.131165 112.0
817.615967 40.0
856.51001 196.0
869.718567 80.0
875.680359 92.0
886.052917 56.0
889.266785 96.0
899.235779 152.0
909.596436 168.0
910.064697 236.0
924.180481 160.0
929.803833 140.0
930.872253 172.0
932.117493 128.0
934.598267 112.0
942.115417 136.0
945.068359 152.0
951.178223 212.0
956.292053 76.0
960.26593 164.0
969.95459 232.0
972.975586 204.0
986.150024 200.0
994.285461 56.0
999.004089 180.0
999.161377 248.0
1003.248474 180.0
1005.430786 160.0
1016.498657 160.0
1021.982178 144.0
1022.052185 176.0
1029.55481 32.0
1031.273438 104.0
1035.777832 172.0
1036.713257 160.0
1039.098389 68.0
1041.691895 128.0
1043.729248 156.0
1043.928589 196.0
1045.633301 148.0
1048.518555 148.0
1049.046997 168.0
1049.479004 164.0
1052.763306 176.0
1052.98938 36.0
1055.548462 148.0
1059.379883 160.0
1059.606567 144.0
1059.898193 164.0
1060.617554 132.0
1066.147095 84.0
1070.323242 136.0
1076.204468 56.0
1077.425781 176.0
1081.316284 144.0
1082.62561 140.0
1084.807373 104.0
1085.849854 160.0
1087.673828 120.0
1087.772339 168.0
1087.982422 152.0
1089.368042 160.0
1090.044678 168.0
1090.143311 180.0
1091.911133 232.0
1092.030029 132.0
1092.720703 236.0
1092.806274 160.0
1094.965332 208.0
1100.299683 44.0
1101.244019 192.0
1102.069702 168.0
1104.800171 132.0
1105.064819 124.0
1107.474365 80.0
1108.94519 176.0
1109.68103 112.0
1110.158447 36.0
1111.896484 172.0
1113.210938 160.0
1116.340698 200.0
1116.945923 148.0
1124.574951 176.0
1129.40564 176.0
1133.790894 144.0
1134.816406 156.0
1135.761963 140.0
1137.795288 156.0
1138.030273 188.0
1141.934448 172.0
1144.410767 192.0
1147.415527 112.0
1148.359619 148.0
1159.155762 68.0
1159.372559 160.0
1159.982544 108.0
1162.376587 52.0
1162.695557 196.0
1164.256958 152.0
1164.324829 136.0
1166.485474 128.0
1167.498535 132.0
1168.777344 216.0
1171.269043 168.0
1171.630005 176.0
1173.701904 196.0
1176.594727 104.0
1183.513672 208.0
1183.808105 200.0
1183.951904 164.0
1187.069824 176.0
1188.798462 156.0
1189.01123 228.0
1189.6427 200.0
1196.09729 36.0
1196.716919 132.0
1197.123169 136.0
1197.426147 156.0
1198.018433 192.0
1202.893799 80.0
1203.881104 116.0
1204.433594 136.0
1204.716797 112.0
1205.151978 140.0
1206.921387 156.0
1207.848145 152.0
1210.214844 168.0
1211.440674 156.0
1217.870728 180.0
1218.739014 100.0
1225.306885 136.0
1228.457886 200.0
1229.134521 172.0
1232.444214 188.0
1234.261475 184.0
1236.171021 184.0
1239.139771 168.0
1240.24707 140.0
1240.387207 68.0
1240.779785 60.0
1241.165405 36.0
1242.427856 156.0
1243.761108 168.0
1244.701782 208.0
1244.856201 128.0
1246.598389 184.0
1250.311401 244.0
1250.494385 160.0
1251.247559 132.0
1251.69812 48.0
1255.559814 128.0
1257.083496 156.0
1258.318726 156.0
1258.75647 108.0
1258.940063 136.0
1260.176147 176.0
1264.057983 136.0
1265.700073 48.0
1268.661621 160.0
1268.803345 40.0
1269.50354 220.0
1274.672974 192.0
1276.250977 148.0
1277.431519 140.0
1279.552124 168.0
1280.841064 180.0
1280.97644 132.0
1281.411011 56.0
1284.390747 48.0
1284.811523 144.0
1285.917603 264.0
1287.338257 140.0
1288.757935 188.0
1289.495728 192.0
1289.638672 108.0
1291.23291 160.0
1291.304443 108.0
1291.426025 140.0
1292.706665 260.0
1294.71106 72.0
1296.731323 192.0
1297.075317 152.0
1300.819702 160.0
1301.570312 200.0
1305.209229 92.0
1310.103271 176.0
1310.59314 124.0
1311.169678 164.0
1312.056152 148.0
1312.914185 96.0
1313.974487 164.0
1315.338379 200.0
1316.919678 124.0
1317.945435 192.0
1318.942749 256.0
1321.24231 140.0
1321.994751 128.0
1324.043457 184.0
1324.231689 40.0
1324.506958 152.0
1324.818481 156.0
1325.782104 124.0
1326.651855 188.0
1329.233765 148.0
1329.386108 244.0
1330.010254 144.0
1332.493774 160.0
1333.067749 72.0
1334.470581 144.0
1338.130127 176.0
1339.251587 124.0
1339.929077 192.0
1340.679565 200.0
1342.96875 184.0
1345.223389 44.0
1347.136597 164.0
1347.421509 180.0
1349.065796 184.0
1350.681763 120.0
1351.881592 136.0
1357.852173 152.0
1358.534302 136.0
1359.297363 100.0
1359.818359 156.0
1360.361572 140.0
1361.213135 108.0
1362.13855 84.0
1362.902588 160.0
1363.916748 72.0
1364.232788 208.0
1364.394531 160.0
1365.460693 200.0
1365.637207 84.0
1366.843628 188.0
1367.793091 192.0
1368.26416 44.0
1369.515991 204.0
1369.714844 140.0
1372.73645 148.0
1374.831543 212.0
1375.097168 128.0
1381.029907 220.0
1381.451538 232.0
1382.657593 168.0
1383.086914 144.0
1383.434814 172.0
1385.374878 204.0
1387.286865 176.0
1387.605591 180.0
1388.680786 116.0
1389.622925 200.0
1391.433716 144.0
1391.782715 248.0
1392.822388 116.0
1393.349854 80.0
1395.594238 116.0
1398.108521 64.0
1398.167969 164.0
1401.019775 180.0
1401.198486 140.0
1404.2771 196.0
1406.291504 180.0
1406.948364 132.0
1407.836914 160.0
1408.165527 192.0
1410.130371 208.0
1411.027344 236.0
1413.411743 196.0
1414.049316 216.0
1416.070801 168.0
1416.243042 132.0
1416.497681 92.0
1417.336792 248.0
1417.606567 208.0
1418.221069 184.0
1418.828247 104.0
1420.057983 196.0
1420.328003 184.0
1421.138184 60.0
1422.001099 160.0
1423.42749 172.0
1426.282227 160.0
1426.620483 116.0
1427.400635 172.0
1429.011963 208.0
1429.297974 184.0
1431.736816 200.0
1433.145508 156.0
1434.419067 196.0
1434.976929 204.0
1435.93457 108.0
1436.530396 164.0
1437.782959 268.0
1438.824585 128.0
1440.032715 112.0
1440.810669 168.0
1445.271362 160.0
1445.460571 184.0
1446.353516 156.0
1447.723877 188.0
1449.08728 172.0
1451.755371 128.0
1452.582031 160.0
1453.279907 152.0
1453.568237 148.0
1458.003052 192.0
1459.13562 152.0
1459.553711 232.0
1459.614624 172.0
1460.291382 160.0
1461.65979 160.0
1462.832764 56.0
1464.599243 160.0
1465.772461 148.0
1465.993408 172.0
1466.237305 124.0
1466.542114 196.0
1468.471069 156.0
1468.546631 212.0
1469.271973 204.0
1470.302124 80.0
1471.355469 208.0
1472.027344 116.0
1473.096558 88.0
1474.846313 160.0
1475.908936 60.0
1477.530396 132.0
1478.196045 56.0
1479.734497 148.0
1480.123413 200.0
1481.518799 172.0
1481.978516 144.0
1482.162354 196.0
1483.863892 220.0
1484.032593 52.0
1484.584595 124.0
1487.116333 128.0
1487.208374 148.0
1488.14502 156.0
1488.889771 160.0
1489.350586 224.0
1489.596436 192.0
1489.849854 80.0
1490.97168 172.0
1494.563721 156.0
1495.70166 164.0
1497.441772 200.0
1497.572632 152.0
1498.331787 176.0
1498.882324 208.0
1499.992065 176.0
1500.385254 172.0
1500.855469 188.0
1501.726929 180.0
1501.896606 180.0
1502.614014 104.0
1502.914917 144.0
1504.828979 164.0
