>compound MLS000862187-01!SB 218795
>formula C25H20N2O3
>ionization [M+H]+
>parentmass 397.155609
#inchi InChI=1S/C25H20N2O3/c1-30-25(29)23(18-12-6-3-7-13-18)27-24(28)20-16-22(17-10-4-2-5-11-17)26-21-15-9-8-14-19(20)21/h2-16,23H,1H3,(H,27,28)/t23-/m1/s1
#inchikey IUMQXQJZIHWLIN
#Ion_Source LC-ESI
#Instrument qTof
#Compound_Source NIH Pharmacologically Active Library
#PI Dorrestein
#Data_Collector VP/LMS
#Scan -1
#Precursor_MZ 397.164
#ExactMass 396.147
#Charge 1
#CAS_Number N/A
#Pubmed_ID N/A
#Smiles COC(=O)[C@H](NC(=O)c1cc(nc2ccccc12)c3ccccc3)c4ccccc4
#INCHI_AUX N/A
#Library_Class 1
#SpectrumID CCMSLIB00000085598
#IonMode Positive
#UpdateWorkflowName UPDATE-SINGLE-ANNOTATED-GOLD
#LibraryQualityString Gold
#TaskID d252d724072548979f1f6f1ced849daf
##Scan# 2388
#SpectrumFile p4-D03_GD3_01_18363.mzXML
#LibraryName Pharm_Active_Library.mgf
#MQScore -1
#Organism Pharm_Active_Library
#TIC_Query 0
#RT_Query -1
#MZErrorPPM -1
#SharedPeaks 0
#MassDiff 0
#LibMZ -1
#SpecMZ 397.164
#SpecCharge 0
#internalFilename spec-00000.mgf

>collision 10
44.889233 204.0
44.907578 72.0
44.927673 124.0
44.947281 312.0
44.964951 124.0
44.98497 160.0
45.003662 340.0
45.019684 96.0
45.039131 136.0
45.066437 44.0
45.081734 116.0
45.099846 52.0
45.113163 104.0
45.122143 100.0
45.126755 124.0
45.149002 328.0
45.16893 144.0
45.184734 184.0
45.202824 172.0
45.225174 120.0
45.243267 112.0
45.253334 344.0
45.268833 132.0
45.287125 120.0
45.300564 84.0
45.334057 164.0
45.358185 40.0
45.368908 224.0
45.38541 180.0
45.397629 200.0
45.429256 44.0
45.439739 152.0
45.455677 180.0
45.468304 156.0
45.479816 100.0
45.48642 160.0
45.490192 88.0
45.50441 212.0
45.521866 144.0
45.535416 44.0
45.54604 168.0
45.561054 136.0
45.566704 136.0
45.573837 188.0
45.583706 244.0
45.590702 132.0
45.596947 144.0
45.616135 224.0
45.628014 168.0
45.64045 128.0
45.65202 164.0
45.664639 144.0
45.684391 164.0
45.699745 108.0
45.712147 160.0
45.723518 132.0
45.738354 180.0
45.766594 224.0
45.777367 264.0
45.798302 132.0
45.813732 60.0
45.834766 144.0
45.849682 176.0
45.872177 204.0
45.890419 356.0
45.90432 184.0
45.921421 204.0
45.940441 372.0
45.950226 180.0
45.96069 56.0
45.990993 132.0
46.005676 108.0
46.025375 160.0
46.040192 152.0
46.060593 84.0
46.078156 220.0
46.089806 232.0
46.102188 296.0
46.115913 136.0
46.133301 164.0
46.146446 144.0
46.163258 312.0
46.178185 88.0
46.19239 136.0
46.219532 284.0
46.236275 240.0
46.265896 216.0
46.280205 196.0
46.295998 376.0
46.310844 204.0
46.34063 72.0
46.350399 164.0
46.367615 188.0
46.393787 324.0
46.409756 68.0
46.426025 76.0
46.447662 84.0
46.449265 272.0
46.472557 132.0
46.483002 136.0
46.511501 160.0
46.52779 180.0
46.549397 136.0
46.57349 172.0
46.590977 84.0
46.603645 292.0
46.634113 208.0
46.644989 148.0
46.666168 80.0
46.690205 152.0
46.701614 188.0
46.719414 144.0
46.73661 136.0
46.747253 204.0
46.768764 500.0
46.798626 240.0
46.821499 100.0
46.831032 172.0
46.850456 232.0
46.866142 208.0
46.883678 112.0
46.928314 124.0
46.941326 216.0
46.962151 140.0
46.989334 128.0
47.013721 108.0
47.033676 324.0
47.044628 288.0
47.062225 248.0
47.071651 140.0
47.10247 96.0
47.118862 124.0
47.133522 148.0
47.137737 108.0
47.143841 128.0
47.160969 172.0
47.173161 120.0
47.177418 52.0
47.192772 104.0
47.213806 148.0
47.237259 264.0
47.246006 404.0
47.269886 168.0
47.273876 76.0
47.279682 196.0
47.304893 120.0
47.316788 100.0
47.348228 188.0
47.366722 88.0
47.39394 156.0
47.413998 148.0
47.437195 236.0
47.458881 168.0
47.477489 356.0
47.489471 76.0
47.500206 128.0
47.540668 128.0
47.557064 220.0
47.569386 244.0
47.594131 112.0
47.603741 220.0
47.624939 184.0
47.638081 48.0
47.668304 164.0
47.699173 160.0
47.732914 128.0
47.756191 148.0
47.766788 152.0
47.783806 180.0
47.798275 220.0
47.805363 96.0
47.824833 172.0
47.830433 140.0
47.863071 132.0
47.887047 80.0
47.898064 116.0
47.90905 156.0
47.918644 64.0
47.945007 112.0
47.983093 144.0
48.009777 156.0
48.035912 172.0
48.048267 176.0
48.060398 128.0
48.067589 100.0
48.071167 224.0
48.085865 236.0
48.097511 128.0
48.101456 152.0
48.114624 132.0
48.1339 176.0
48.154617 116.0
48.165665 116.0
48.177303 132.0
48.186939 240.0
48.199635 68.0
48.210255 132.0
48.22089 128.0
48.224236 72.0
48.248131 200.0
48.258991 68.0
48.27816 112.0
48.291447 176.0
48.31081 60.0
48.323887 80.0
48.337101 168.0
48.350384 40.0
48.360756 324.0
48.37447 36.0
48.392662 196.0
48.404202 128.0
48.415695 112.0
48.427086 296.0
48.436783 168.0
48.457829 168.0
48.473728 60.0
48.497456 124.0
48.525421 108.0
48.539341 144.0
48.549046 136.0
48.563469 120.0
48.581322 148.0
48.592049 176.0
48.601761 76.0
48.61998 164.0
48.641293 148.0
48.669773 536.0
48.688095 144.0
48.700302 256.0
48.704895 124.0
48.718613 144.0
48.73719 216.0
48.76302 192.0
48.782063 224.0
48.798988 220.0
48.815094 268.0
48.858143 160.0
48.876881 108.0
48.917557 88.0
48.935539 280.0
48.953114 204.0
48.955284 136.0
48.968285 176.0
48.981674 204.0
48.996048 156.0
49.009056 276.0
49.030354 268.0
49.039574 184.0
49.051876 160.0
49.055653 144.0
49.07188 76.0
49.089466 328.0
49.099632 356.0
49.106018 164.0
49.111111 204.0
49.143013 192.0
49.155571 104.0
49.174572 116.0
49.184879 96.0
49.201241 100.0
49.212799 52.0
49.225502 260.0
49.254425 104.0
49.267269 120.0
49.283722 216.0
49.300671 128.0
49.314358 80.0
49.331017 228.0
49.344131 328.0
49.358116 100.0
49.385044 312.0
49.396343 144.0
49.406307 360.0
49.420204 164.0
49.431648 148.0
49.447845 168.0
49.466232 172.0
49.482643 336.0
49.492535 124.0
49.502827 160.0
49.516514 148.0
49.528854 208.0
49.564781 112.0
49.576488 88.0
49.589848 188.0
49.609226 180.0
49.622746 152.0
49.6544 160.0
49.668335 276.0
49.682808 184.0
49.697083 140.0
49.710178 132.0
49.7258 164.0
49.737827 232.0
49.764454 176.0
49.789913 152.0
49.815014 188.0
49.832676 124.0
49.844189 240.0
49.856712 224.0
49.861538 252.0
49.880077 252.0
49.892303 68.0
49.903553 184.0
49.927578 140.0
49.952774 208.0
49.963955 156.0
49.969578 148.0
49.974514 148.0
49.979771 168.0
49.993843 120.0
50.00592 348.0
50.009377 124.0
50.033306 148.0
50.054108 160.0
50.07188 148.0
50.075905 92.0
50.081203 100.0
50.105404 140.0
50.1189 180.0
50.136524 144.0
50.155544 116.0
50.193607 124.0
50.204922 172.0
50.221478 124.0
50.244755 176.0
50.250515 116.0
50.279293 184.0
50.299816 356.0
50.318378 128.0
50.329384 180.0
50.346863 444.0
50.357311 92.0
50.370598 108.0
50.381325 72.0
50.392628 148.0
50.402515 216.0
50.412998 288.0
50.446331 108.0
50.459053 192.0
50.473194 128.0
50.507988 92.0
50.538788 128.0
50.558067 124.0
50.576992 140.0
50.588799 148.0
50.617523 84.0
50.629601 204.0
50.641598 52.0
50.660721 192.0
50.675129 312.0
50.686478 256.0
50.701103 208.0
50.721203 132.0
50.742596 148.0
50.757645 104.0
50.761383 92.0
50.766876 152.0
50.77766 128.0
50.797138 208.0
50.816891 132.0
50.821972 240.0
50.836018 176.0
50.858536 112.0
50.874149 192.0
50.911312 320.0
50.926105 156.0
50.957939 188.0
50.990044 148.0
51.000263 148.0
51.006111 156.0
51.034107 116.0
51.039768 84.0
51.049538 176.0
51.068501 160.0
51.070789 192.0
51.099949 192.0
51.10891 312.0
51.126534 184.0
51.155514 108.0
51.182671 136.0
51.199402 160.0
51.220547 148.0
51.239643 224.0
51.254353 152.0
51.265869 128.0
51.290985 364.0
51.304268 184.0
51.317574 100.0
51.327564 216.0
51.341782 140.0
51.36438 144.0
51.400761 176.0
51.411991 124.0
51.432064 124.0
51.451553 232.0
51.472034 120.0
51.482174 132.0
51.498417 168.0
51.53001 108.0
51.540504 120.0
51.546295 148.0
51.549744 108.0
51.559414 212.0
51.569603 148.0
51.582142 136.0
51.601124 328.0
51.630409 116.0
51.632401 164.0
51.639042 136.0
51.656082 200.0
51.675621 320.0
51.690838 132.0
51.739643 236.0
51.75074 56.0
51.772255 108.0
51.793915 136.0
51.805874 104.0
51.822147 160.0
51.831657 128.0
51.85313 108.0
51.874432 252.0
51.889633 96.0
51.901783 200.0
51.92403 256.0
51.942539 76.0
51.963078 72.0
51.977764 168.0
51.998951 148.0
52.008995 104.0
52.038074 236.0
52.047905 356.0
52.064384 192.0
52.085369 64.0
52.101803 152.0
52.114849 124.0
52.126762 88.0
52.140339 220.0
52.156879 88.0
52.169064 176.0
52.187981 156.0
52.221645 148.0
52.240345 316.0
52.250416 100.0
52.271999 128.0
52.28783 84.0
52.300743 144.0
52.312702 156.0
52.327213 200.0
52.346985 88.0
52.364204 160.0
52.385509 176.0
52.400146 104.0
52.417435 324.0
52.426823 140.0
52.430164 72.0
52.437027 200.0
52.455341 160.0
52.482449 116.0
52.5247 168.0
52.550385 176.0
52.595512 168.0
52.607182 100.0
52.624092 220.0
52.644058 284.0
52.666183 124.0
52.680767 132.0
52.71217 128.0
52.718945 132.0
52.73204 172.0
52.748478 140.0
52.75272 104.0
52.767235 208.0
52.789314 136.0
52.808571 164.0
52.848248 100.0
52.863434 156.0
52.881012 204.0
52.895916 188.0
52.923183 220.0
52.939968 144.0
52.958874 144.0
52.974976 272.0
52.998951 136.0
53.023849 212.0
53.027958 96.0
53.050442 132.0
53.074455 180.0
53.100597 284.0
53.118237 216.0
53.150005 84.0
53.172939 208.0
53.189201 128.0
53.212578 252.0
53.23336 96.0
53.243465 76.0
53.259201 144.0
53.272926 232.0
53.284138 176.0
53.297073 168.0
53.311745 160.0
53.342239 124.0
53.368168 152.0
53.381523 92.0
53.395157 168.0
53.42952 136.0
53.444069 104.0
53.467239 152.0
53.484364 128.0
53.489117 88.0
53.496277 124.0
53.525799 108.0
53.557915 120.0
53.572189 240.0
53.584755 160.0
53.590725 116.0
53.616402 136.0
53.642136 152.0
53.654152 132.0
53.65963 128.0
53.664886 132.0
53.670807 132.0
53.706741 196.0
53.724819 80.0
53.727097 108.0
53.742764 76.0
53.752979 32.0
53.770664 136.0
53.791004 148.0
53.806984 124.0
53.818665 176.0
53.829243 124.0
53.847301 144.0
53.863937 76.0
53.886501 184.0
53.92411 280.0
53.95454 136.0
53.978287 144.0
53.990063 136.0
54.001926 128.0
54.042294 88.0
54.058125 88.0
54.065079 28.0
54.068241 104.0
54.083904 160.0
54.101437 156.0
54.119869 192.0
54.151398 212.0
54.171017 200.0
54.190746 316.0
54.20837 372.0
54.226341 160.0
54.242931 136.0
54.257828 148.0
54.291313 148.0
54.311157 144.0
54.336384 204.0
54.35368 148.0
54.366867 168.0
54.373028 84.0
54.380318 196.0
54.430546 100.0
54.436329 88.0
54.458965 172.0
54.481487 156.0
54.501228 84.0
54.512661 200.0
54.521961 220.0
54.543846 144.0
54.558357 84.0
54.574074 228.0
54.584709 136.0
54.591423 100.0
54.608032 120.0
54.613335 108.0
54.61948 128.0
54.649151 192.0
54.664715 176.0
54.687992 192.0
54.71693 148.0
54.730457 156.0
54.743301 148.0
54.755188 144.0
54.771923 164.0
54.781475 132.0
54.794228 140.0
54.813171 56.0
54.837475 260.0
54.849308 108.0
54.854477 156.0
54.883926 200.0
54.91098 192.0
54.925308 180.0
54.94088 152.0
54.959595 108.0
54.97686 84.0
54.990139 144.0
55.012028 116.0
55.014313 96.0
55.032135 124.0
55.055729 300.0
55.072823 108.0
55.086117 156.0
55.098495 148.0
55.114189 148.0
55.134594 188.0
55.154373 188.0
55.174442 120.0
55.198441 124.0
55.219147 96.0
55.232246 84.0
55.243492 136.0
55.259678 220.0
55.275887 364.0
55.296665 152.0
55.31176 108.0
55.329006 164.0
55.355614 168.0
55.375183 168.0
55.396027 144.0
55.41983 332.0
55.439449 268.0
55.454556 160.0
55.469635 116.0
55.491615 148.0
55.503895 256.0
55.514946 272.0
55.538773 280.0
55.563694 80.0
55.566307 100.0
55.573311 248.0
55.595299 160.0
55.61385 160.0
55.618916 64.0
55.626015 148.0
55.652531 248.0
55.664833 200.0
55.678585 144.0
55.697929 164.0
55.715717 164.0
55.731556 176.0
55.750027 44.0
55.768944 132.0
55.774334 132.0
55.792999 160.0
55.81477 72.0
55.82618 284.0
55.848873 92.0
55.870331 112.0
55.907955 112.0
55.93544 152.0
55.944931 436.0
55.963379 192.0
55.975903 176.0
55.990898 44.0
56.013901 288.0
56.024746 148.0
56.050961 88.0
56.056122 92.0
56.079613 132.0
56.096687 104.0
56.127041 156.0
56.144245 156.0
56.149666 168.0
56.166771 368.0
56.189857 316.0
56.200611 192.0
56.220482 172.0
56.232422 124.0
56.252762 352.0
56.267429 168.0
56.278675 420.0
56.294052 256.0
56.313046 124.0
56.324997 156.0
56.339855 160.0
56.356369 72.0
56.381916 204.0
56.401886 132.0
56.415501 172.0
56.444954 136.0
56.468842 136.0
56.486431 164.0
56.503979 148.0
56.527485 128.0
56.544788 216.0
56.579578 164.0
56.606354 128.0
56.62233 232.0
56.647617 136.0
56.660336 464.0
56.675232 148.0
56.688557 124.0
56.699043 164.0
56.712536 40.0
56.734386 256.0
56.75631 120.0
56.773449 248.0
56.808773 220.0
56.829338 108.0
56.839687 128.0
56.865131 124.0
56.86755 136.0
56.878815 56.0
56.883343 128.0
56.913654 172.0
56.924507 136.0
56.948097 188.0
56.957653 196.0
56.972832 120.0
56.98008 124.0
56.984653 132.0
56.998016 176.0
57.024361 132.0
57.051826 128.0
57.069221 260.0
57.073971 100.0
57.078568 152.0
57.100876 160.0
57.126751 108.0
57.136456 132.0
57.159473 136.0
57.188351 152.0
57.193806 160.0
57.209461 172.0
57.227489 136.0
57.244671 140.0
57.282425 224.0
57.29826 72.0
57.329601 116.0
57.35537 148.0
57.368637 344.0
57.380348 276.0
57.390308 188.0
57.402939 176.0
57.421467 68.0
57.452408 152.0
57.477299 160.0
57.517929 152.0
57.539494 164.0
57.558342 168.0
57.572258 136.0
57.589733 160.0
57.605915 140.0
57.633026 152.0
57.658493 156.0
57.669411 288.0
57.68779 76.0
57.693295 164.0
57.715164 60.0
57.730286 204.0
57.755062 220.0
57.796841 108.0
57.817081 384.0
57.83606 184.0
57.85276 76.0
57.870441 128.0
57.874592 164.0
57.89893 268.0
57.918549 112.0
57.943085 136.0
57.957344 108.0
57.98127 132.0
57.990406 88.0
58.010387 140.0
58.024109 236.0
58.034794 148.0
58.062916 96.0
58.07222 92.0
58.092724 244.0
58.11655 76.0
58.137276 164.0
58.153088 264.0
58.182037 136.0
58.203762 140.0
58.224205 180.0
58.24654 128.0
58.288082 124.0
58.303326 132.0
58.31826 92.0
58.337875 140.0
58.350368 76.0
58.357346 112.0
58.364086 136.0
58.3839 156.0
58.404285 164.0
58.42012 128.0
58.438072 140.0
58.442337 164.0
58.468891 148.0
58.495007 164.0
58.504532 128.0
58.548672 104.0
58.566536 220.0
58.59795 148.0
58.602127 188.0
58.615009 196.0
58.650612 112.0
58.674084 132.0
58.685165 204.0
58.716812 148.0
58.739433 160.0
58.752575 184.0
58.778072 308.0
58.805534 204.0
58.82185 144.0
58.840309 324.0
58.8447 148.0
58.868855 108.0
58.889465 200.0
58.911041 336.0
58.936462 148.0
58.942776 188.0
58.955585 140.0
58.973061 172.0
59.004498 104.0
59.019787 156.0
59.045784 56.0
59.061081 140.0
59.082497 124.0
59.103916 284.0
59.135098 124.0
59.165386 244.0
59.180447 252.0
59.200966 120.0
59.217197 128.0
59.231297 176.0
59.251972 148.0
59.276497 68.0
59.288315 124.0
59.293575 80.0
59.306576 228.0
59.335632 112.0
59.348389 264.0
59.382053 140.0
59.407269 76.0
59.421032 140.0
59.442558 96.0
59.4533 164.0
59.46505 184.0
59.498501 116.0
59.522491 216.0
59.545052 136.0
59.571087 112.0
59.589779 136.0
59.624725 128.0
59.644382 212.0
59.65852 308.0
59.679844 100.0
59.692017 172.0
59.719921 96.0
59.748985 220.0
59.777828 132.0
59.813526 224.0
59.831814 236.0
59.844536 116.0
59.867012 140.0
59.883961 172.0
59.90509 124.0
59.927681 208.0
59.940601 160.0
59.968117 124.0
59.996964 176.0
60.030182 252.0
60.044712 152.0
60.056484 156.0
60.068478 136.0
60.086697 232.0
60.119656 148.0
60.131313 420.0
60.156136 164.0
60.181641 252.0
60.201393 208.0
60.215374 100.0
60.230049 172.0
60.240383 168.0
60.27483 288.0
60.299526 176.0
60.328705 116.0
60.351364 184.0
60.368824 164.0
60.405254 156.0
60.433048 84.0
60.450253 216.0
60.476799 144.0
60.49728 140.0
60.508675 136.0
60.524658 64.0
60.536205 148.0
60.547283 156.0
60.564236 72.0
60.582787 136.0
60.616051 36.0
60.633656 100.0
60.650211 192.0
60.688904 96.0
60.725327 164.0
60.741703 176.0
60.754684 180.0
60.768299 228.0
60.785072 108.0
60.803093 124.0
60.812531 248.0
60.826931 140.0
60.847157 192.0
60.864235 176.0
60.888786 264.0
60.919662 192.0
60.928219 164.0
60.940327 308.0
60.965561 332.0
60.979973 32.0
60.993183 120.0
61.004063 168.0
61.03516 120.0
61.050877 148.0
61.086483 100.0
61.104164 120.0
61.125271 116.0
61.146328 104.0
61.162727 108.0
61.178619 264.0
61.195419 244.0
61.208008 144.0
61.228123 96.0
61.248371 188.0
61.281082 144.0
61.302731 148.0
61.312847 104.0
61.332386 144.0
61.352417 312.0
61.383686 188.0
61.409405 152.0
61.423824 96.0
61.441803 140.0
61.471313 48.0
61.496864 192.0
61.51405 84.0
61.528442 376.0
61.556919 200.0
61.572662 100.0
61.581795 240.0
61.592434 200.0
61.610134 448.0
61.632149 252.0
61.650898 100.0
61.658649 100.0
61.661041 196.0
61.678547 112.0
61.695763 148.0
61.709377 68.0
61.722805 184.0
61.742138 144.0
61.766598 40.0
61.794758 140.0
61.816662 136.0
61.851479 176.0
61.864044 220.0
61.875328 300.0
61.90015 152.0
61.913719 92.0
61.932182 132.0
61.953148 200.0
61.973675 220.0
61.988914 64.0
62.003017 148.0
62.018906 176.0
62.034367 148.0
62.065529 140.0
62.099777 252.0
62.110214 196.0
62.127735 136.0
62.148026 76.0
62.167686 76.0
62.187119 132.0
62.209709 152.0
62.23056 144.0
62.242641 48.0
62.274441 112.0
62.294861 148.0
62.31197 152.0
62.328625 212.0
62.341869 148.0
62.351971 324.0
62.369896 368.0
62.380695 248.0
62.400089 92.0
62.420818 200.0
62.447617 44.0
62.469776 136.0
62.496098 272.0
62.528858 132.0
62.534019 164.0
62.540375 148.0
62.543617 184.0
62.577023 164.0
62.602867 292.0
62.617878 100.0
62.63802 104.0
62.655811 244.0
62.674023 88.0
62.700489 184.0
62.733429 260.0
62.764992 96.0
62.773327 144.0
62.796608 268.0
62.819942 180.0
62.826134 100.0
62.832428 128.0
62.837444 160.0
62.856091 60.0
62.872711 60.0
62.888439 112.0
62.905857 76.0
62.920067 372.0
62.966618 324.0
62.995602 120.0
63.018806 208.0
63.024071 108.0
63.028694 192.0
63.049065 120.0
63.063953 92.0
63.087524 152.0
63.09795 148.0
63.119469 136.0
63.143433 176.0
63.167648 132.0
63.184849 200.0
63.191704 220.0
63.215832 228.0
63.242542 156.0
63.268837 304.0
63.285755 284.0
63.312206 324.0
63.337547 28.0
63.354076 156.0
63.390884 120.0
63.399223 176.0
63.415794 156.0
63.434208 168.0
63.465469 268.0
63.481071 212.0
63.50362 212.0
63.516109 160.0
63.543499 96.0
63.554592 248.0
63.566376 160.0
63.586613 184.0
63.598816 160.0
63.625748 124.0
63.63969 88.0
63.661667 176.0
63.680149 224.0
63.700516 112.0
63.716682 88.0
63.729393 108.0
63.741985 304.0
63.755955 156.0
63.763336 100.0
63.793575 104.0
63.798904 152.0
63.846035 148.0
63.86293 76.0
63.884449 144.0
63.899517 164.0
63.91143 168.0
63.932266 124.0
63.947868 156.0
63.967949 128.0
63.98975 196.0
63.993607 136.0
64.000992 212.0
64.005295 184.0
64.020493 80.0
64.041191 132.0
64.057327 152.0
64.081818 68.0
64.103523 552.0
64.133049 120.0
64.156044 372.0
64.184486 144.0
64.196777 148.0
64.214577 164.0
64.264572 268.0
64.28611 216.0
64.296288 260.0
64.316765 116.0
64.32103 96.0
64.331863 152.0
64.342545 356.0
64.358871 136.0
64.381294 172.0
64.397224 232.0
64.407158 196.0
64.42083 136.0
64.454247 92.0
64.480385 132.0
64.503288 80.0
64.523399 132.0
64.540695 132.0
64.554619 68.0
64.569481 152.0
64.590652 204.0
64.616707 92.0
64.632812 88.0
64.643494 120.0
64.663208 260.0
64.684708 144.0
64.712807 232.0
64.739914 348.0
64.753532 156.0
64.768417 68.0
64.796288 144.0
64.846458 164.0
64.864937 140.0
64.877701 304.0
64.899895 144.0
64.917 196.0
64.927452 148.0
64.942726 196.0
64.976181 420.0
64.993164 124.0
65.024292 196.0
65.052704 220.0
65.07946 196.0
65.102989 204.0
65.123344 204.0
65.138054 124.0
65.158653 72.0
65.177185 92.0
65.190796 208.0
65.218147 180.0
65.23555 172.0
65.266129 188.0
65.272018 244.0
65.296043 156.0
65.313339 108.0
65.363403 156.0
65.368248 132.0
65.386093 144.0
65.398972 72.0
65.428749 136.0
65.442703 180.0
65.479401 180.0
65.499153 128.0
65.521942 132.0
65.535858 176.0
65.548744 172.0
65.566223 184.0
65.593872 112.0
65.6064 228.0
65.610435 176.0
65.615349 100.0
65.658783 324.0
65.676376 160.0
65.692421 128.0
65.708504 192.0
65.730263 212.0
65.751854 332.0
65.788361 120.0
65.799484 132.0
65.805031 108.0
65.810699 120.0
65.815269 156.0
65.83606 540.0
65.864716 160.0
65.867332 136.0
65.901161 312.0
65.911407 80.0
65.917152 248.0
65.942719 160.0
65.956543 144.0
65.974846 188.0
65.98616 160.0
66.001358 140.0
66.028206 144.0
66.049232 136.0
66.062172 104.0
66.075111 104.0
66.09314 228.0
66.105148 108.0
66.119667 172.0
66.136604 120.0
66.157608 164.0
66.161926 176.0
66.167816 184.0
66.183365 204.0
66.202919 312.0
66.237 152.0
66.249954 144.0
66.282646 148.0
66.29995 164.0
66.322632 160.0
66.352051 232.0
66.371513 168.0
66.402321 120.0
66.429985 152.0
66.449905 132.0
66.463966 68.0
66.481583 164.0
66.499489 224.0
66.535919 156.0
66.549995 96.0
66.575768 188.0
66.593536 108.0
66.600105 168.0
66.630074 104.0
66.64151 92.0
66.653366 180.0
66.674896 152.0
66.679161 124.0
66.6922 272.0
66.726494 196.0
66.738472 104.0
66.752319 108.0
66.767548 144.0
66.773796 116.0
66.80027 156.0
66.819901 116.0
66.832809 192.0
66.84549 96.0
66.866982 148.0
66.881248 136.0
66.912949 196.0
66.927216 312.0
66.937576 140.0
66.957565 332.0
66.976456 104.0
66.995613 84.0
67.028122 160.0
67.039612 112.0
67.054253 164.0
67.09034 328.0
67.130333 196.0
67.167023 112.0
67.178818 200.0
67.196106 168.0
67.210831 152.0
67.236374 196.0
67.261787 196.0
67.277168 124.0
67.297432 276.0
67.309326 164.0
67.336227 324.0
67.346283 104.0
67.36776 196.0
67.379784 232.0
67.390938 104.0
67.397926 144.0
67.437828 96.0
67.457924 100.0
67.468842 224.0
67.492996 112.0
67.506081 176.0
67.52655 264.0
67.543839 184.0
67.556824 316.0
67.56263 332.0
67.579567 188.0
67.597435 124.0
67.626968 180.0
67.653748 108.0
67.670113 228.0
67.688988 168.0
67.707047 152.0
67.722939 204.0
67.74221 188.0
67.772385 132.0
67.794266 136.0
67.804512 156.0
67.823196 160.0
67.836975 136.0
67.854477 76.0
67.86837 44.0
67.902618 140.0
67.94046 184.0
67.96875 120.0
68.003448 128.0
68.034019 116.0
68.040092 204.0
68.060234 184.0
68.088943 144.0
68.093956 120.0
68.103867 292.0
68.111923 108.0
68.144112 220.0
68.157845 180.0
68.175117 124.0
68.198341 152.0
68.216835 176.0
68.252426 144.0
68.277328 92.0
68.306061 244.0
68.317451 92.0
68.322723 112.0
68.340614 192.0
68.366203 120.0
68.384201 48.0
68.396385 208.0
68.418701 208.0
68.434891 168.0
68.450836 152.0
68.502754 120.0
68.514282 52.0
68.540726 160.0
68.561401 128.0
68.575256 276.0
68.591209 100.0
68.594162 68.0
68.604553 196.0
68.630676 148.0
68.647621 132.0
68.671852 136.0
68.69117 212.0
68.71666 160.0
68.722786 120.0
68.728615 120.0
68.759415 228.0
68.784492 232.0
68.799431 124.0
68.815178 316.0
68.827515 144.0
68.844238 208.0
68.87059 68.0
68.88546 116.0
68.898071 132.0
68.915291 72.0
68.935593 116.0
68.955139 116.0
68.972115 100.0
68.995667 116.0
69.009178 116.0
69.055115 424.0
69.069679 108.0
69.083832 200.0
69.098717 88.0
69.11692 72.0
69.129585 196.0
69.135071 128.0
69.1399 320.0
69.159737 124.0
69.164604 108.0
69.185379 120.0
69.20253 72.0
69.221687 96.0
69.260468 152.0
69.276917 188.0
69.301247 184.0
69.312309 212.0
69.335152 188.0
69.35672 160.0
69.390579 304.0
69.403648 512.0
69.418297 132.0
69.431335 76.0
69.436089 96.0
69.441261 172.0
69.468788 220.0
69.489723 264.0
69.508377 132.0
69.53376 216.0
69.561462 208.0
69.581642 300.0
69.60923 140.0
69.628731 468.0
69.652527 168.0
69.681526 244.0
69.701897 260.0
69.72715 160.0
69.74778 192.0
69.771454 176.0
69.796997 80.0
69.811279 108.0
69.834351 104.0
69.858536 188.0
69.871132 240.0
69.882812 320.0
69.915108 132.0
69.941734 148.0
69.955795 296.0
69.965935 104.0
69.980026 120.0
70.00399 92.0
70.019356 84.0
70.034554 248.0
70.059219 160.0
70.093437 156.0
70.140472 168.0
70.153725 168.0
70.199348 128.0
70.21907 152.0
70.242439 116.0
70.259796 208.0
70.262611 180.0
70.270653 128.0
70.276115 132.0
70.295921 292.0
70.319138 152.0
70.350777 220.0
70.369225 136.0
70.381859 588.0
70.394669 184.0
70.426949 92.0
70.449501 136.0
70.473724 156.0
70.487091 88.0
70.502129 108.0
70.518959 168.0
70.544182 76.0
70.584488 120.0
70.60939 152.0
70.628357 56.0
70.635429 132.0
70.64682 164.0
70.664719 316.0
70.685349 228.0
70.713722 116.0
70.727898 304.0
70.764565 292.0
70.770699 260.0
70.812843 124.0
70.823982 292.0
70.842674 212.0
70.850006 264.0
70.861839 132.0
70.866913 184.0
70.897827 364.0
70.915428 100.0
70.920235 196.0
70.94725 296.0
70.962448 160.0
70.977409 104.0
71.001114 160.0
71.013214 148.0
71.034561 96.0
71.047981 124.0
71.082573 176.0
71.100838 152.0
71.115425 272.0
71.138512 144.0
71.158089 244.0
71.173859 136.0
71.216591 216.0
71.233482 208.0
71.245193 140.0
71.257759 332.0
71.287285 116.0
71.291656 152.0
71.338066 416.0
71.365448 284.0
71.391624 164.0
71.415855 92.0
71.430939 184.0
71.468636 128.0
71.509949 152.0
71.545349 260.0
71.574051 180.0
71.587524 80.0
71.604805 380.0
71.639732 144.0
71.658264 212.0
71.672554 184.0
71.686913 152.0
71.704758 388.0
71.734268 164.0
71.745819 156.0
71.761261 108.0
71.783203 124.0
71.797951 196.0
71.812233 104.0
71.825104 112.0
71.839676 100.0
71.85218 236.0
71.883156 184.0
71.923668 180.0
71.936531 88.0
71.961426 156.0
71.979446 76.0
72.008766 92.0
72.042213 168.0
72.073387 128.0
72.101166 160.0
72.114647 160.0
72.131851 160.0
72.158066 208.0
72.188377 136.0
72.222069 128.0
72.241257 196.0
72.261009 52.0
72.288315 144.0
72.303314 128.0
72.315155 136.0
72.328697 132.0
72.343933 224.0
72.366821 108.0
72.394432 244.0
72.399925 496.0
72.420677 248.0
72.440018 284.0
72.469635 144.0
72.487755 188.0
72.502586 204.0
72.514481 252.0
72.537964 200.0
72.57988 76.0
72.61615 92.0
72.649734 160.0
72.665573 100.0
72.681206 116.0
72.700172 180.0
72.722778 104.0
72.750793 92.0
72.778343 192.0
72.814003 312.0
72.830345 264.0
72.846794 112.0
72.863937 128.0
72.877441 160.0
72.900726 140.0
72.928482 212.0
72.936012 216.0
72.95192 252.0
72.976746 88.0
72.999344 220.0
73.016968 104.0
73.031471 220.0
73.043434 284.0
73.060402 148.0
73.071388 292.0
73.104324 52.0
73.142799 164.0
73.181641 264.0
73.193817 104.0
73.236694 144.0
73.249298 116.0
73.278465 172.0
73.291451 148.0
73.301682 116.0
73.320953 216.0
73.338211 132.0
73.359802 188.0
73.387085 152.0
73.419258 164.0
73.434624 164.0
73.470055 224.0
73.483376 236.0
73.49295 112.0
73.517685 156.0
73.535492 240.0
73.550415 204.0
73.567871 124.0
73.581551 344.0
73.604401 164.0
73.616516 260.0
73.64119 176.0
73.658432 112.0
73.677864 128.0
73.693092 124.0
73.707977 92.0
73.728317 248.0
73.74044 120.0
73.774628 112.0
73.799004 236.0
73.822075 144.0
73.834747 484.0
73.850075 308.0
73.865265 132.0
73.890846 184.0
73.909264 172.0
73.922226 204.0
73.940849 160.0
73.969467 152.0
73.981415 160.0
73.987312 260.0
74.012619 260.0
74.029449 116.0
74.041443 164.0
74.049393 104.0
74.089973 268.0
74.106651 180.0
74.127182 240.0
74.143738 248.0
74.149063 160.0
74.153824 136.0
74.191399 124.0
74.217674 120.0
74.230522 116.0
74.252281 160.0
74.300117 156.0
74.317543 128.0
74.332756 148.0
74.35022 180.0
74.377068 172.0
74.379608 168.0
74.399925 168.0
74.427391 56.0
74.45224 356.0
74.473404 248.0
74.502373 140.0
74.522301 172.0
74.539879 156.0
74.555672 248.0
74.56028 168.0
74.566391 140.0
74.572006 156.0
74.59758 140.0
74.616386 120.0
74.629745 120.0
74.667976 92.0
74.688057 152.0
74.704651 112.0
74.737503 124.0
74.7724 92.0
74.792984 164.0
74.805161 304.0
74.841782 108.0
74.854828 160.0
74.872627 144.0
74.894554 256.0
74.908409 104.0
74.919952 92.0
74.92382 108.0
74.943451 148.0
74.958908 228.0
74.972481 328.0
74.993263 124.0
75.009621 320.0
75.023506 260.0
75.042572 224.0
75.056084 168.0
75.085075 192.0
75.11235 88.0
75.130638 120.0
75.160454 140.0
75.200294 120.0
75.210571 152.0
75.228348 164.0
75.259216 240.0
75.277802 200.0
75.330101 228.0
75.346344 148.0
75.358376 220.0
75.406029 152.0
75.423912 184.0
75.450706 140.0
75.475029 156.0
75.500504 352.0
75.518707 324.0
75.536781 164.0
75.554855 76.0
75.568741 176.0
75.583969 136.0
75.602348 168.0
75.633247 148.0
75.648109 96.0
75.671593 188.0
75.693047 92.0
75.713058 84.0
75.72554 184.0
75.741539 196.0
75.755791 88.0
75.774818 152.0
75.78054 148.0
75.787979 228.0
75.79438 104.0
75.818718 132.0
75.831642 228.0
75.851898 192.0
75.878349 76.0
75.893547 104.0
75.912132 56.0
75.919556 96.0
75.934669 204.0
75.957359 260.0
75.979034 140.0
75.997307 128.0
76.010742 144.0
76.047112 256.0
76.077324 96.0
76.092918 148.0
76.11441 136.0
76.127304 132.0
76.146286 124.0
76.166016 228.0
76.187012 120.0
76.201561 160.0
76.229057 100.0
76.241226 124.0
76.256454 308.0
76.282066 160.0
76.315712 164.0
76.32843 192.0
76.351738 176.0
76.36544 104.0
76.385361 244.0
76.436172 180.0
76.443604 148.0
76.481285 140.0
76.508415 176.0
76.523834 264.0
76.549797 240.0
76.566437 312.0
76.591476 116.0
76.605553 92.0
76.636078 144.0
76.655396 144.0
76.673897 192.0
76.701538 208.0
76.724724 304.0
76.759232 148.0
76.780586 128.0
76.807076 164.0
76.833237 96.0
76.877289 180.0
76.896385 316.0
76.909119 108.0
76.927139 104.0
76.956238 76.0
76.978111 240.0
77.011856 260.0
77.016762 248.0
77.047264 188.0
77.074852 188.0
77.088158 92.0
77.136635 152.0
77.148605 176.0
77.170616 280.0
77.187241 116.0
77.206779 156.0
77.221634 184.0
77.229012 120.0
77.238464 132.0
77.250122 164.0
77.279449 160.0
77.325623 276.0
77.357506 48.0
77.371407 352.0
77.391617 268.0
77.420975 240.0
77.441757 204.0
77.473572 172.0
77.491104 140.0
77.510567 92.0
77.534409 128.0
77.557198 116.0
77.586998 128.0
77.611542 76.0
77.626793 132.0
77.649063 172.0
77.665726 312.0
77.701744 140.0
77.713898 212.0
77.73494 324.0
77.753632 296.0
77.772942 192.0
77.800522 156.0
77.82402 168.0
77.843185 180.0
77.856033 124.0
77.868835 136.0
77.89315 160.0
77.909218 148.0
77.932709 236.0
77.968468 184.0
78.007774 220.0
78.031845 136.0
78.05088 148.0
78.059143 188.0
78.065231 140.0
78.08744 424.0
78.10791 88.0
78.110893 120.0
78.147125 108.0
78.171371 224.0
78.214485 132.0
78.233536 140.0
78.249992 160.0
78.279495 156.0
78.295502 152.0
78.30864 188.0
78.343948 160.0
78.363159 140.0
78.387245 200.0
78.399696 132.0
78.403145 100.0
78.410576 216.0
78.435173 244.0
78.466751 168.0
78.479729 164.0
78.499763 308.0
78.522034 248.0
78.547424 448.0
78.563034 40.0
78.57943 136.0
78.610588 164.0
78.629349 164.0
78.641258 156.0
78.661072 324.0
78.693634 124.0
78.714684 156.0
78.742989 156.0
78.780396 124.0
78.795883 152.0
78.813507 160.0
78.826042 112.0
78.842621 76.0
78.86322 68.0
78.886993 204.0
78.918022 92.0
78.931267 188.0
78.968224 256.0
79.000107 396.0
79.027679 156.0
79.041252 344.0
79.058868 96.0
79.065865 180.0
79.110962 248.0
79.133492 112.0
79.161758 252.0
79.166527 184.0
79.18853 116.0
79.197273 148.0
79.216499 224.0
79.235634 176.0
79.249626 160.0
79.273537 132.0
79.301262 108.0
79.337776 132.0
79.353737 188.0
79.371101 148.0
79.387421 364.0
79.404144 316.0
79.439316 168.0
79.465996 72.0
79.502571 144.0
79.54039 156.0
79.572037 152.0
79.585411 108.0
79.602341 184.0
79.609993 180.0
79.61599 108.0
79.623459 168.0
79.654526 336.0
79.676285 120.0
79.696129 140.0
79.731804 100.0
79.749435 200.0
79.769913 108.0
79.80014 160.0
79.850357 320.0
79.872124 68.0
79.893204 132.0
79.905289 212.0
79.911629 136.0
79.919609 104.0
79.939735 128.0
79.959679 192.0
79.987885 140.0
80.002426 124.0
80.0205 120.0
80.041306 128.0
80.067909 56.0
80.089645 88.0
80.12455 260.0
80.141045 68.0
80.165634 144.0
80.179459 124.0
80.233017 284.0
80.260147 260.0
80.275314 240.0
80.309174 116.0
80.329918 168.0
80.350586 328.0
80.366203 224.0
80.39267 164.0
80.406013 296.0
80.426277 76.0
80.438774 172.0
80.462677 112.0
80.47448 180.0
80.488228 148.0
80.50988 160.0
80.521889 216.0
80.563515 252.0
80.58181 124.0
80.602005 156.0
80.62561 92.0
80.652657 140.0
80.682793 196.0
80.711807 420.0
80.768158 276.0
80.791611 408.0
80.829605 164.0
80.852539 284.0
80.865784 80.0
80.880447 148.0
80.895126 68.0
80.915817 180.0
80.920403 156.0
80.94397 84.0
80.962708 112.0
80.97979 132.0
81.000252 132.0
81.031662 128.0
81.035149 100.0
81.061279 144.0
81.083023 164.0
81.108139 100.0
81.14666 196.0
81.165871 136.0
81.220581 136.0
81.249435 116.0
81.289711 268.0
81.316422 240.0
81.328911 152.0
81.353523 240.0
81.376122 124.0
81.396606 80.0
81.417946 204.0
81.441505 128.0
81.468788 436.0
81.492424 200.0
81.51696 68.0
81.547722 340.0
81.559883 136.0
81.565399 164.0
81.590118 156.0
81.615311 56.0
81.640274 236.0
81.678596 84.0
81.692413 288.0
81.724579 112.0
81.744591 144.0
81.772255 184.0
81.798904 152.0
81.805977 116.0
81.828583 112.0
81.867004 144.0
81.895363 88.0
81.931503 132.0
81.936317 180.0
81.964798 160.0
82.002197 140.0
82.017998 112.0
82.042267 252.0
82.053024 136.0
82.088173 276.0
82.103226 360.0
82.117737 124.0
82.150497 120.0
82.163651 276.0
82.189049 180.0
82.195511 112.0
82.202919 168.0
82.22377 116.0
82.24614 324.0
82.251854 152.0
82.271515 120.0
82.296913 228.0
82.326744 92.0
82.351089 132.0
82.371368 144.0
82.390823 92.0
82.415314 124.0
82.44503 256.0
82.460762 140.0
82.482986 68.0
82.50808 156.0
82.534683 128.0
82.549957 188.0
82.588341 60.0
82.60791 144.0
82.62059 240.0
82.644249 300.0
82.671333 292.0
82.685211 124.0
82.689034 100.0
82.712677 220.0
82.734436 212.0
82.747108 360.0
82.772629 340.0
82.790565 120.0
82.809563 196.0
82.822342 176.0
82.836823 52.0
82.852196 148.0
82.873894 332.0
82.889229 60.0
82.932892 208.0
82.952873 248.0
82.972252 148.0
82.993515 140.0
83.00621 168.0
83.037186 152.0
83.057579 224.0
83.075127 44.0
83.101456 192.0
83.137665 152.0
83.1586 88.0
83.179718 208.0
83.206039 212.0
83.234726 120.0
83.260841 216.0
83.290894 180.0
83.305679 152.0
83.309669 264.0
83.343407 184.0
83.364388 128.0
83.38945 284.0
83.402954 248.0
83.423553 152.0
83.443581 156.0
83.464333 132.0
83.482819 104.0
83.502579 132.0
83.55352 96.0
83.581635 56.0
83.618645 252.0
83.647545 132.0
83.676178 220.0
83.697083 208.0
83.714622 152.0
83.73156 140.0
83.76207 76.0
83.778656 172.0
83.796288 136.0
83.808174 132.0
83.829353 180.0
83.841415 144.0
83.85701 268.0
83.875694 80.0
83.900154 108.0
83.924301 216.0
83.943871 124.0
83.960258 216.0
83.977348 104.0
84.022102 164.0
84.053551 188.0
84.073395 132.0
84.087265 144.0
84.102287 144.0
84.133163 112.0
84.159409 224.0
84.200005 64.0
84.212791 96.0
84.226578 88.0
84.249077 196.0
84.271942 252.0
84.275436 96.0
84.306442 260.0
84.342796 144.0
84.365341 132.0
84.385071 144.0
84.399788 284.0
84.429077 128.0
84.441719 204.0
84.466484 116.0
84.502617 144.0
84.538216 136.0
84.555244 136.0
84.581734 144.0
84.585274 112.0
84.593452 112.0
84.618011 184.0
84.669991 232.0
84.693466 240.0
84.701019 160.0
84.705879 236.0
84.722313 312.0
84.753372 240.0
84.760757 196.0
84.780556 96.0
84.809494 164.0
84.826897 136.0
84.845932 308.0
84.862427 140.0
84.886269 88.0
84.906441 132.0
84.92363 128.0
84.971962 224.0
84.995857 156.0
85.013718 272.0
85.044113 108.0
85.063271 128.0
85.075249 252.0
85.087486 180.0
85.115639 332.0
85.146858 104.0
85.16494 104.0
85.178085 136.0
85.211327 124.0
85.232231 160.0
85.239838 124.0
85.248001 72.0
85.282379 168.0
85.286263 128.0
85.309387 196.0
85.350021 124.0
85.36657 244.0
85.389183 196.0
85.399261 156.0
85.420525 224.0
85.443672 160.0
85.474075 276.0
85.501953 88.0
85.521454 96.0
85.53849 112.0
85.561356 228.0
85.586357 156.0
85.600456 128.0
85.643066 288.0
85.656342 72.0
85.673447 140.0
85.695755 104.0
85.715973 240.0
85.730042 140.0
85.755173 212.0
85.801926 180.0
85.818306 104.0
85.857239 48.0
85.886627 60.0
85.90789 132.0
85.930336 236.0
85.973183 236.0
85.986603 132.0
86.019287 244.0
86.036018 200.0
86.065567 112.0
86.082382 36.0
86.112534 208.0
86.12809 624.0
86.144478 200.0
86.190666 180.0
86.215508 124.0
86.232635 152.0
86.250908 156.0
86.269753 232.0
86.297501 152.0
86.321968 180.0
86.336166 96.0
86.373444 164.0
86.386917 148.0
86.401497 148.0
86.417137 152.0
86.462662 68.0
86.486191 172.0
86.50988 128.0
86.54155 152.0
86.566872 100.0
86.588684 144.0
86.618729 40.0
86.635406 220.0
86.650978 108.0
86.683578 116.0
86.703232 256.0
86.758026 120.0
86.773712 152.0
86.806541 84.0
86.830025 136.0
86.854523 116.0
86.894951 128.0
86.909706 164.0
86.927856 284.0
86.956383 116.0
86.974655 160.0
86.997025 268.0
87.020691 112.0
87.072456 160.0
87.092918 112.0
87.109009 288.0
87.136505 76.0
87.19146 100.0
87.211418 192.0
87.232948 280.0
87.250854 164.0
87.274216 140.0
87.302727 208.0
87.319931 148.0
87.340797 100.0
87.359024 416.0
87.400467 220.0
87.433052 144.0
87.457619 112.0
87.464226 84.0
87.469933 140.0
87.483612 176.0
87.500786 148.0
87.536209 140.0
87.565353 148.0
87.605995 120.0
87.613937 164.0
87.618706 124.0
87.648849 228.0
87.668953 140.0
87.684166 200.0
87.704391 132.0
87.727577 248.0
87.732727 76.0
87.741325 308.0
87.760101 180.0
87.765862 140.0
87.788765 184.0
87.797501 40.0
87.824341 460.0
87.861557 188.0
87.876259 156.0
87.900444 152.0
87.929329 524.0
87.953888 168.0
87.967163 208.0
87.985168 152.0
88.004562 204.0
88.031509 160.0
88.05101 132.0
88.07843 236.0
88.105858 272.0
88.139816 292.0
88.153664 168.0
88.17598 196.0
88.189339 180.0
88.221542 176.0
88.260323 208.0
88.28447 360.0
88.323616 208.0
88.341637 112.0
88.367409 128.0
88.385536 196.0
88.408211 136.0
88.413933 160.0
88.452309 164.0
88.476288 96.0
88.497948 68.0
88.513145 228.0
88.55439 124.0
88.575134 292.0
88.595604 272.0
88.635994 220.0
88.656082 184.0
88.676514 116.0
88.697777 208.0
88.735321 96.0
88.750015 144.0
88.764748 108.0
88.777863 100.0
88.820175 168.0
88.840248 148.0
88.859825 320.0
88.887924 72.0
88.906479 116.0
88.927361 160.0
88.946602 220.0
88.980583 276.0
89.004768 56.0
89.033096 116.0
89.052917 36.0
89.071701 56.0
89.104935 144.0
89.117828 332.0
89.158844 148.0
89.166183 56.0
89.170647 164.0
89.199844 124.0
89.217613 180.0
89.267982 156.0
89.285622 240.0
89.313652 268.0
89.334526 344.0
89.351746 240.0
89.356377 232.0
89.369293 216.0
89.397774 140.0
89.429413 100.0
89.44696 220.0
89.458138 120.0
89.472801 132.0
89.487259 144.0
89.502205 176.0
89.530228 132.0
89.561729 132.0
89.589706 144.0
89.617126 100.0
89.662498 124.0
89.676575 180.0
89.70504 232.0
89.726707 192.0
89.74205 316.0
89.770355 176.0
89.810959 216.0
89.838882 216.0
89.880783 196.0
89.896591 488.0
89.915215 152.0
89.930885 132.0
89.966568 176.0
90.004951 112.0
90.018372 168.0
90.032265 84.0
90.047134 192.0
90.071243 144.0
90.109711 116.0
90.127747 124.0
90.154938 208.0
90.161469 160.0
90.171188 192.0
90.177483 240.0
90.19664 64.0
90.220901 172.0
90.251381 192.0
90.31884 172.0
90.3396 120.0
90.357971 268.0
90.375031 188.0
90.413361 164.0
90.448486 224.0
90.477676 248.0
90.491814 132.0
90.519348 140.0
90.548561 188.0
90.561821 204.0
90.585434 180.0
90.607178 148.0
90.626228 136.0
90.64518 196.0
90.666023 104.0
90.707977 176.0
90.736191 164.0
90.760803 244.0
90.789429 340.0
90.809303 328.0
90.830635 88.0
90.833694 148.0
90.857117 272.0
90.885994 120.0
90.900818 64.0
90.918251 72.0
90.931541 164.0
90.983765 160.0
91.004288 124.0
91.016045 280.0
91.052193 380.0
91.080132 168.0
91.100533 100.0
91.12767 160.0
91.162468 288.0
91.177971 160.0
91.193855 144.0
91.226883 212.0
91.284012 140.0
91.303909 120.0
91.325691 312.0
91.348442 252.0
91.388878 168.0
91.394073 120.0
91.414497 292.0
91.473244 144.0
91.502251 136.0
91.516624 172.0
91.538025 328.0
91.555473 516.0
91.594193 132.0
91.609962 196.0
91.650146 312.0
91.697861 88.0
91.753738 152.0
91.774101 188.0
91.807579 168.0
91.836517 208.0
91.847458 128.0
91.86396 112.0
91.882965 84.0
91.901276 128.0
91.916908 204.0
91.932579 108.0
91.954506 264.0
91.972878 308.0
91.994331 180.0
92.012413 276.0
92.049431 160.0
92.079849 252.0
92.113007 104.0
92.126686 236.0
92.138313 160.0
92.144302 172.0
92.163628 108.0
92.180801 172.0
92.209229 144.0
92.239906 176.0
92.256966 168.0
92.279587 204.0
92.283058 132.0
92.30899 284.0
92.334335 120.0
92.353134 400.0
92.388618 136.0
92.406082 124.0
92.418289 140.0
92.436882 124.0
92.468803 96.0
92.48629 100.0
92.494164 156.0
92.499794 88.0
92.5214 264.0
92.537918 128.0
92.581932 320.0
92.594254 292.0
92.607788 204.0
92.622299 80.0
92.629692 72.0
92.637566 176.0
92.672119 116.0
92.694534 132.0
92.701614 80.0
92.724327 160.0
92.760742 120.0
92.804344 124.0
92.821564 156.0
92.841454 296.0
92.860451 80.0
92.873871 112.0
92.898209 220.0
92.917656 160.0
92.987518 188.0
93.020828 280.0
93.04274 156.0
93.068497 368.0
93.110939 124.0
93.115013 152.0
93.138069 56.0
93.159889 196.0
93.190796 92.0
93.212502 180.0
93.238518 140.0
93.256737 228.0
93.276131 124.0
93.29277 148.0
93.327461 268.0
93.362732 284.0
93.379311 156.0
93.421951 148.0
93.453148 156.0
93.475555 108.0
93.500046 132.0
93.540581 144.0
93.561882 108.0
93.594185 128.0
93.612564 300.0
93.621101 172.0
93.624565 156.0
93.665802 160.0
93.680641 140.0
93.70433 272.0
93.72229 236.0
93.737312 212.0
93.760208 132.0
93.792076 180.0
93.813797 120.0
93.819321 112.0
93.839302 244.0
93.882332 104.0
93.895805 124.0
93.927948 120.0
93.948418 164.0
93.967445 280.0
93.981888 192.0
94.007683 160.0
94.036484 288.0
94.065353 252.0
94.092438 152.0
94.106995 192.0
94.131409 252.0
94.155388 204.0
94.178879 128.0
94.204842 172.0
94.231232 224.0
94.252289 92.0
94.265816 148.0
94.288422 172.0
94.307442 164.0
94.32737 132.0
94.357719 124.0
94.385666 28.0
94.4058 164.0
94.43882 160.0
94.47567 132.0
94.498428 280.0
94.504387 84.0
94.512611 228.0
94.526871 68.0
94.550697 144.0
94.602592 192.0
94.617279 140.0
94.628792 456.0
94.656326 192.0
94.694084 216.0
94.7136 124.0
94.725479 144.0
94.741226 200.0
94.785263 308.0
94.801353 172.0
94.817352 152.0
94.84079 176.0
94.865036 40.0
94.885422 276.0
94.904587 96.0
94.927208 304.0
94.940094 192.0
94.961777 160.0
95.010422 56.0
95.044708 148.0
95.060822 152.0
95.080849 208.0
95.087669 168.0
95.111504 152.0
95.117676 100.0
95.129745 128.0
95.14711 180.0
95.171417 92.0
95.203316 152.0
95.22612 268.0
95.243355 212.0
95.270874 164.0
95.27729 120.0
95.283607 168.0
95.313461 160.0
95.32933 240.0
95.342224 208.0
95.364098 196.0
95.404671 76.0
95.428818 120.0
95.461258 228.0
95.484268 280.0
95.498825 156.0
95.515984 156.0
95.520889 176.0
95.549965 148.0
95.556442 136.0
95.578583 248.0
95.600891 160.0
95.63736 244.0
95.643333 176.0
95.675903 136.0
95.688721 116.0
95.71035 136.0
95.724579 116.0
95.753525 152.0
95.798592 44.0
95.818451 144.0
95.843445 164.0
95.866364 84.0
95.896332 124.0
95.916206 112.0
95.93335 208.0
95.972694 192.0
95.996956 144.0
96.021294 256.0
96.056709 116.0
96.062653 148.0
96.088181 164.0
96.126015 128.0
96.144424 156.0
96.160576 204.0
96.185936 124.0
96.213135 224.0
96.236938 292.0
96.253304 136.0
96.268677 220.0
96.297035 104.0
96.314522 144.0
96.340912 64.0
96.36322 76.0
96.381935 212.0
96.408195 244.0
96.438309 140.0
96.459854 332.0
96.49263 204.0
96.521141 164.0
96.553963 152.0
96.569153 88.0
96.587585 260.0
96.627754 100.0
96.650261 88.0
96.654709 96.0
96.684433 116.0
96.732018 40.0
96.754974 148.0
96.769211 168.0
96.785423 228.0
96.81321 272.0
96.841667 116.0
96.871544 268.0
96.90229 176.0
96.956802 412.0
96.974419 180.0
96.988213 96.0
97.014915 92.0
97.042778 172.0
97.059967 284.0
97.084686 176.0
97.105484 172.0
97.126617 160.0
97.151375 132.0
97.173737 100.0
97.190613 148.0
97.223442 104.0
97.229347 76.0
97.244858 148.0
97.274246 144.0
97.298584 164.0
97.31427 128.0
97.331284 156.0
97.384758 92.0
97.403252 236.0
97.421364 128.0
97.440231 280.0
97.465576 120.0
97.470123 92.0
97.491661 280.0
97.515656 224.0
97.530678 172.0
97.543106 124.0
97.571976 164.0
97.623314 128.0
97.648232 120.0
97.674767 332.0
97.70787 268.0
97.723251 156.0
97.737991 104.0
97.771561 184.0
97.813751 112.0
97.829521 48.0
97.863991 196.0
97.881569 208.0
97.927269 172.0
97.944061 128.0
97.981598 224.0
98.024345 100.0
98.044594 136.0
98.065727 124.0
98.08107 108.0
98.09568 244.0
98.128265 404.0
98.15773 120.0
98.175377 200.0
98.205719 100.0
98.22998 96.0
98.261292 276.0
98.276428 52.0
98.282173 344.0
98.315086 160.0
98.330757 212.0
98.362144 156.0
98.389229 152.0
98.412529 160.0
98.445442 136.0
98.46624 132.0
98.502563 288.0
98.519569 160.0
98.536758 252.0
98.578201 256.0
98.621689 136.0
98.645058 164.0
98.674355 200.0
98.680748 224.0
98.700638 220.0
98.71801 260.0
98.767693 108.0
98.793228 256.0
98.805351 144.0
98.829071 180.0
98.847 248.0
98.873505 128.0
98.889198 116.0
98.918816 188.0
98.938774 196.0
98.952591 84.0
98.961723 184.0
98.965553 160.0
98.972885 236.0
98.991653 164.0
99.012085 144.0
99.031891 92.0
99.045761 192.0
99.059624 128.0
99.094223 168.0
99.120399 172.0
99.138123 116.0
99.162071 176.0
99.188179 96.0
99.19117 156.0
99.218033 180.0
99.264488 44.0
99.281609 140.0
99.311745 152.0
99.347473 176.0
99.366905 148.0
99.394547 184.0
99.408203 156.0
99.421112 100.0
99.429794 224.0
99.468002 140.0
99.47773 128.0
99.48867 112.0
99.527924 192.0
99.563484 244.0
99.580795 112.0
99.59774 204.0
99.621918 88.0
99.630257 92.0
99.635353 148.0
99.656776 128.0
99.683731 156.0
99.706406 164.0
99.735847 76.0
99.749863 264.0
99.775383 136.0
99.784523 132.0
99.788414 172.0
99.816658 328.0
99.831703 48.0
99.859154 72.0
99.888504 288.0
99.909943 232.0
99.93808 308.0
99.964012 224.0
99.970757 120.0
99.97599 60.0
100.005325 192.0
100.027252 176.0
100.043442 152.0
100.069847 76.0
100.101112 156.0
100.119911 140.0
100.141998 268.0
100.154114 316.0
100.172386 248.0
100.20002 276.0
100.218102 168.0
100.231125 196.0
100.253227 140.0
100.282822 224.0
100.30909 196.0
100.330605 188.0
100.336266 148.0
100.342834 184.0
100.359024 180.0
100.367867 204.0
100.385994 168.0
100.430176 144.0
100.452522 108.0
100.457886 236.0
100.465607 152.0
100.494781 216.0
100.514877 276.0
100.522026 164.0
100.529633 208.0
100.593491 216.0
100.612251 212.0
100.654999 208.0
100.66967 136.0
100.712387 364.0
100.740051 176.0
100.775642 108.0
100.781197 60.0
100.79483 176.0
100.826118 132.0
100.858612 284.0
100.874649 148.0
100.891472 332.0
100.924301 136.0
100.956436 168.0
100.970436 120.0
101.001518 140.0
101.039551 236.0
101.084923 188.0
101.10247 204.0
101.118195 168.0
101.149353 152.0
101.162888 172.0
101.205681 236.0
101.224068 148.0
101.263496 272.0
101.28334 148.0
101.322197 148.0
101.338242 140.0
101.343697 120.0
101.368675 116.0
101.380112 144.0
101.423302 300.0
101.441856 164.0
101.448143 124.0
101.481598 132.0
101.514557 108.0
101.536591 144.0
101.552696 128.0
101.565964 204.0
101.595177 120.0
101.626175 136.0
101.633919 172.0
101.660805 144.0
101.672386 144.0
101.695709 228.0
101.709862 96.0
101.745888 176.0
101.772438 240.0
101.791779 192.0
101.802757 124.0
101.850182 168.0
101.862244 240.0
101.896469 176.0
101.928284 156.0
101.952423 384.0
101.972542 176.0
101.98877 152.0
102.011887 88.0
102.040833 152.0
102.087448 336.0
102.103096 200.0
102.128883 268.0
102.154579 160.0
102.181946 200.0
102.204422 172.0
102.222977 376.0
102.25946 144.0
102.282623 92.0
102.300369 216.0
102.347046 136.0
102.369194 136.0
102.395378 248.0
102.430862 168.0
102.450897 128.0
102.473373 124.0
102.499741 268.0
102.523643 136.0
102.541954 140.0
102.573914 368.0
102.609085 144.0
102.638847 320.0
102.665863 212.0
102.693024 140.0
102.715179 120.0
102.718384 104.0
102.755898 240.0
102.790054 148.0
102.805084 140.0
102.832878 112.0
102.853065 92.0
102.891685 396.0
102.904671 156.0
102.919365 176.0
102.961143 184.0
102.983368 60.0
102.993721 164.0
103.015549 172.0
103.053108 136.0
103.090828 116.0
103.114624 256.0
103.137299 128.0
103.145073 92.0
103.167847 212.0
103.188011 164.0
103.214737 176.0
103.224495 156.0
103.232719 152.0
103.255882 196.0
103.288216 352.0
103.308739 160.0
103.317032 80.0
103.324997 124.0
103.332527 108.0
103.351105 92.0
103.377396 148.0
103.412392 88.0
103.437729 148.0
103.459717 116.0
103.479202 172.0
103.503212 172.0
103.520248 388.0
103.548058 204.0
103.589027 168.0
103.591896 128.0
103.616066 416.0
103.646706 180.0
103.669182 92.0
103.696739 100.0
103.731186 172.0
103.759338 212.0
103.78875 228.0
103.796822 164.0
103.81189 100.0
103.81665 136.0
103.859871 132.0
103.880562 144.0
103.896919 152.0
103.91539 148.0
103.936996 196.0
103.958183 280.0
103.977364 140.0
104.005806 240.0
104.050117 6016.0
104.098808 168.0
104.127907 176.0
104.148651 164.0
104.172485 156.0
104.198051 296.0
104.222481 312.0
104.24781 168.0
104.265778 80.0
104.287117 220.0
104.300903 144.0
104.32692 248.0
104.354897 180.0
104.376602 208.0
104.402954 144.0
104.421829 168.0
104.438736 112.0
104.472626 140.0
104.526741 140.0
104.580956 252.0
104.599274 228.0
104.626045 52.0
104.632866 120.0
104.647118 124.0
104.668976 148.0
104.682266 128.0
104.70945 104.0
104.740623 168.0
104.746315 80.0
104.757027 200.0
104.762627 88.0
104.791367 156.0
104.821335 56.0
104.845543 140.0
104.876106 460.0
104.917374 140.0
104.9478 96.0
104.988434 284.0
105.02916 140.0
105.052086 732.0
105.086609 140.0
105.090195 180.0
105.102303 208.0
105.134483 68.0
105.157562 348.0
105.174805 176.0
105.211731 248.0
105.229683 236.0
105.271568 188.0
105.296753 152.0
105.343117 272.0
105.371414 128.0
105.410217 92.0
105.448494 284.0
105.502434 192.0
105.538956 116.0
105.564705 304.0
105.572235 140.0
105.578148 120.0
105.596794 156.0
105.631981 176.0
105.651871 144.0
105.675858 152.0
105.711433 164.0
105.764778 124.0
105.804794 136.0
105.830177 132.0
105.848198 140.0
105.882027 128.0
105.898384 392.0
105.903549 124.0
105.911789 308.0
105.940918 212.0
105.956345 108.0
105.982979 88.0
105.987762 120.0
106.025787 220.0
106.028496 152.0
106.043884 100.0
106.06356 256.0
106.094704 140.0
106.117256 164.0
106.140968 160.0
106.170464 156.0
106.203697 84.0
106.233101 128.0
106.257065 164.0
106.263443 76.0
106.272865 84.0
106.278854 172.0
106.287643 164.0
106.32795 124.0
106.347084 160.0
106.377235 252.0
106.410362 128.0
106.453079 180.0
106.478699 224.0
106.508011 148.0
106.531219 108.0
106.555298 360.0
106.598946 188.0
106.639664 68.0
106.684708 212.0
106.710052 148.0
106.736038 400.0
106.770363 180.0
106.800041 156.0
106.818169 248.0
106.85743 120.0
106.918663 152.0
106.936127 308.0
106.952995 260.0
106.972412 132.0
106.99633 128.0
107.004662 128.0
107.01162 132.0
107.027908 44.0
107.042389 168.0
107.073219 176.0
107.091415 120.0
107.124069 172.0
107.173409 272.0
107.18914 48.0
107.218819 168.0
107.251999 136.0
107.267456 164.0
107.289658 332.0
107.330681 248.0
107.355186 212.0
107.386459 140.0
107.404327 196.0
107.430367 92.0
107.44558 244.0
107.475594 156.0
107.514961 252.0
107.532684 252.0
107.549591 316.0
107.576782 344.0
107.614685 116.0
107.630234 152.0
107.653183 156.0
107.669258 164.0
107.714729 184.0
107.759521 164.0
107.767624 180.0
107.798424 288.0
107.843346 44.0
107.886597 156.0
107.923111 188.0
107.955116 64.0
107.960304 148.0
107.992317 296.0
108.016258 224.0
108.029541 292.0
108.048058 60.0
108.070442 164.0
108.094551 136.0
108.120697 184.0
108.151321 196.0
108.174507 224.0
108.192932 56.0
108.214439 184.0
108.253922 96.0
108.271614 184.0
108.290253 84.0
108.317177 96.0
108.345825 140.0
108.377121 128.0
108.400047 100.0
108.422081 268.0
108.427147 112.0
108.451859 116.0
108.471497 156.0
108.510483 100.0
108.517616 152.0
108.535439 116.0
108.555519 136.0
108.590858 204.0
108.600998 112.0
108.605034 96.0
108.62468 256.0
108.652199 192.0
108.700836 96.0
108.740738 428.0
108.775963 212.0
108.799759 160.0
108.829422 132.0
108.854111 204.0
108.879257 96.0
108.902031 120.0
108.927483 164.0
108.945244 292.0
108.966209 220.0
108.995316 244.0
109.000282 240.0
109.011627 100.0
109.021011 120.0
109.062088 128.0
109.096909 300.0
109.126648 148.0
109.150887 152.0
109.175171 92.0
109.196838 168.0
109.20504 292.0
109.232597 96.0
109.251793 140.0
109.287636 132.0
109.293571 176.0
109.318916 180.0
109.342873 140.0
109.369492 76.0
109.395576 232.0
109.419258 368.0
109.442337 128.0
109.449707 100.0
109.455154 160.0
109.48777 256.0
109.505264 132.0
109.528175 104.0
109.533638 116.0
109.541389 176.0
109.567757 164.0
109.588295 112.0
109.614426 208.0
109.647774 192.0
109.65303 120.0
109.684265 132.0
109.705177 68.0
109.731049 172.0
109.755028 108.0
109.777199 116.0
109.830017 84.0
109.852028 144.0
109.867104 284.0
109.888756 148.0
109.908775 252.0
109.940994 228.0
109.971603 316.0
109.991081 212.0
110.016136 148.0
110.046219 136.0
110.066238 104.0
110.101479 128.0
110.139755 100.0
110.158409 216.0
110.199631 152.0
110.218666 116.0
110.235344 196.0
110.27243 152.0
110.303429 168.0
110.315315 196.0
110.356483 244.0
110.397812 232.0
110.436142 116.0
110.464561 272.0
110.46788 160.0
110.504234 180.0
110.533592 192.0
110.556709 108.0
110.57563 164.0
110.600517 200.0
110.629692 160.0
110.642792 176.0
110.674393 160.0
110.680496 68.0
110.717041 168.0
110.761208 132.0
110.781769 136.0
110.799957 180.0
110.819229 192.0
110.836205 316.0
110.857697 136.0
110.88195 88.0
110.913269 64.0
110.92733 144.0
110.957893 144.0
110.993202 152.0
111.018181 280.0
111.06031 224.0
111.079903 164.0
111.097076 180.0
111.144997 148.0
111.167015 116.0
111.189774 136.0
111.196129 168.0
111.223785 180.0
111.274254 164.0
111.293198 148.0
111.327965 248.0
111.33567 180.0
111.344513 136.0
111.360191 188.0
111.393333 104.0
111.412613 48.0
111.461952 340.0
111.501633 124.0
111.519409 152.0
111.558502 136.0
111.592903 84.0
111.616837 308.0
111.63868 248.0
111.656281 132.0
111.669662 140.0
111.696754 140.0
111.717194 172.0
111.742508 196.0
111.755409 100.0
111.777374 212.0
111.801872 400.0
111.828789 128.0
111.856293 280.0
111.875961 124.0
111.917557 100.0
111.93502 132.0
111.964584 80.0
111.980408 204.0
112.010391 92.0
112.039818 124.0
112.045189 124.0
112.074814 124.0
112.109558 120.0
112.134026 236.0
112.1483 240.0
112.164474 144.0
112.183517 176.0
112.217567 480.0
112.261597 236.0
112.276711 100.0
112.280746 104.0
112.284859 128.0
112.304268 360.0
112.313148 152.0
112.319199 304.0
112.343987 180.0
112.359924 484.0
112.387909 172.0
112.401123 108.0
112.427452 216.0
112.434113 120.0
112.484192 152.0
112.505951 36.0
112.524719 72.0
112.547295 240.0
112.591064 124.0
112.633301 328.0
112.649445 80.0
112.654854 164.0
112.679756 348.0
112.700958 192.0
112.719055 132.0
112.756706 208.0
112.776779 208.0
112.823792 124.0
112.848206 96.0
112.869751 148.0
112.88958 208.0
112.92308 160.0
112.936882 272.0
112.969452 232.0
112.98867 212.0
112.996346 156.0
113.017487 116.0
113.046753 296.0
113.085075 160.0
113.087914 152.0
113.099686 348.0
113.121223 156.0
113.158028 184.0
113.177361 148.0
113.195541 132.0
113.222954 260.0
113.257248 208.0
113.280991 176.0
113.315659 204.0
113.347481 136.0
113.368263 128.0
113.386703 92.0
113.40567 256.0
113.423996 208.0
113.445229 156.0
113.455132 180.0
113.46283 140.0
113.468826 304.0
113.505051 128.0
113.539703 208.0
113.558411 148.0
113.59166 144.0
113.608513 72.0
113.627396 256.0
113.685715 108.0
113.722939 192.0
113.752754 140.0
113.778976 100.0
113.800697 124.0
113.815773 204.0
113.832787 252.0
113.856056 180.0
113.872932 144.0
113.897079 188.0
113.904488 84.0
113.911278 224.0
113.934433 184.0
113.963966 156.0
113.996613 244.0
114.037445 80.0
114.052322 148.0
114.092033 88.0
114.129837 104.0
114.151039 348.0
114.172417 396.0
114.19371 240.0
114.232742 228.0
114.267647 204.0
114.282913 176.0
114.307526 164.0
114.329994 108.0
114.368843 84.0
114.406853 168.0
114.412659 132.0
114.438538 68.0
114.455276 108.0
114.475693 180.0
114.495102 284.0
114.513077 160.0
114.538567 192.0
114.557693 192.0
114.577034 76.0
114.591553 132.0
114.610191 144.0
114.627281 100.0
114.655602 108.0
114.686172 300.0
114.693573 408.0
114.709373 124.0
114.723785 344.0
114.773865 112.0
114.780174 72.0
114.809792 304.0
114.840675 252.0
114.854492 264.0
114.896965 152.0
114.921829 160.0
114.964798 240.0
114.99276 164.0
114.999641 84.0
115.046577 268.0
115.051987 84.0
115.058922 156.0
115.090286 332.0
115.105293 332.0
115.120476 288.0
115.136116 140.0
115.161049 264.0
115.177307 140.0
115.183525 68.0
115.199509 208.0
115.225746 384.0
115.266754 148.0
115.297012 212.0
115.32547 160.0
115.354729 116.0
115.38063 392.0
115.396492 164.0
115.420227 172.0
115.474892 160.0
115.510262 152.0
115.517723 196.0
115.541962 144.0
115.572037 160.0
115.606598 284.0
115.647766 184.0
115.68483 156.0
115.703423 168.0
115.739502 176.0
115.765518 184.0
115.801697 152.0
115.845627 208.0
115.888344 160.0
115.921768 104.0
115.949821 160.0
115.978104 88.0
116.01165 128.0
116.049904 1896.0
116.087585 80.0
116.127708 104.0
116.157303 148.0
116.185287 200.0
116.205971 224.0
116.231201 212.0
116.266701 248.0
116.327408 116.0
116.345016 280.0
116.363289 92.0
116.397949 152.0
116.423874 120.0
116.454834 136.0
116.476875 148.0
116.512001 152.0
116.563507 72.0
116.586212 268.0
116.605995 140.0
116.618309 160.0
116.639587 120.0
116.675972 208.0
116.702576 120.0
116.718468 220.0
116.732971 120.0
116.758347 132.0
116.766304 120.0
116.793167 136.0
116.813126 116.0
116.834419 272.0
116.86409 116.0
116.869774 92.0
116.881081 156.0
116.895142 136.0
116.916183 44.0
116.949272 128.0
116.964317 196.0
116.994232 184.0
117.01506 192.0
117.048073 376.0
117.054375 188.0
117.061371 204.0
117.080124 256.0
117.095871 120.0
117.114716 280.0
117.138992 280.0
117.170074 140.0
117.209549 240.0
117.240585 220.0
117.298721 156.0
117.34407 144.0
117.373154 404.0
117.392944 136.0
117.421814 208.0
117.438354 184.0
117.46286 104.0
117.467491 132.0
117.518944 204.0
117.575958 172.0
117.59198 144.0
117.632866 404.0
117.656418 284.0
117.702843 148.0
117.731079 192.0
117.748352 204.0
117.770752 108.0
117.799171 192.0
117.830315 208.0
117.838882 132.0
117.85955 152.0
117.879356 112.0
117.886497 72.0
117.902512 256.0
117.924385 168.0
117.942924 124.0
117.966583 236.0
117.985222 148.0
118.028244 116.0
118.069366 216.0
118.109154 120.0
118.154465 392.0
118.185493 196.0
118.208885 132.0
118.233521 100.0
118.256691 200.0
118.289131 148.0
118.306702 120.0
118.332199 52.0
118.355095 292.0
118.401489 216.0
118.425308 124.0
118.455757 144.0
118.474854 292.0
118.501305 132.0
118.530449 256.0
118.565948 132.0
118.595467 120.0
118.616196 172.0
118.643311 152.0
118.665298 152.0
118.683342 292.0
118.749016 148.0
118.773369 152.0
118.78788 164.0
118.806816 132.0
118.84124 256.0
118.866791 268.0
118.903542 236.0
118.93306 228.0
118.954506 248.0
118.973923 92.0
118.990746 128.0
118.998795 96.0
119.009003 76.0
119.032539 144.0
119.055099 144.0
119.089645 204.0
119.102539 72.0
119.14888 204.0
119.163864 96.0
119.191063 188.0
119.217186 64.0
119.240456 136.0
119.264999 368.0
119.295433 124.0
119.323692 224.0
119.374939 148.0
119.401978 104.0
119.44191 212.0
119.457977 176.0
119.505775 168.0
119.525909 132.0
119.533264 144.0
119.581108 276.0
119.627129 272.0
119.646484 108.0
119.655403 116.0
119.670143 204.0
119.679573 240.0
119.697418 156.0
119.729095 160.0
119.754486 120.0
119.776337 144.0
119.794853 120.0
119.815811 168.0
119.847 160.0
119.902077 112.0
119.922325 144.0
119.961563 152.0
119.999367 280.0
120.024002 164.0
120.043633 100.0
120.072205 312.0
120.097893 276.0
120.115479 144.0
120.135551 112.0
120.173981 100.0
120.199287 292.0
120.23349 156.0
120.256989 188.0
120.292191 136.0
120.322723 96.0
120.354912 268.0
120.390129 108.0
120.410316 188.0
120.437149 176.0
120.457611 312.0
120.494995 184.0
120.511993 132.0
120.542458 208.0
120.584885 144.0
120.626831 272.0
120.666237 204.0
120.688515 164.0
120.717628 136.0
120.795692 144.0
120.820137 184.0
120.848236 96.0
120.872635 132.0
120.896576 264.0
120.931396 172.0
120.950211 136.0
120.982735 132.0
121.003067 220.0
121.029015 412.0
121.064529 2912.0
121.099792 324.0
121.149925 196.0
121.190834 348.0
121.211548 156.0
121.217918 144.0
121.224998 244.0
121.266838 128.0
121.292152 204.0
121.298508 112.0
121.306389 240.0
121.345764 136.0
121.361839 152.0
121.396835 124.0
121.435318 160.0
121.469437 108.0
121.501129 148.0
121.516487 136.0
121.537331 132.0
121.556137 148.0
121.607513 120.0
121.645767 328.0
121.682121 168.0
121.700058 144.0
121.722939 256.0
121.739388 216.0
121.755402 140.0
121.810402 68.0
121.816948 88.0
121.846443 180.0
121.874084 108.0
121.882004 84.0
121.904984 156.0
121.921516 132.0
121.945267 176.0
121.966553 308.0
122.016212 164.0
122.065399 228.0
122.104477 152.0
122.141945 252.0
122.154335 116.0
122.163956 108.0
122.170235 168.0
122.212975 132.0
122.243011 140.0
122.277649 120.0
122.30648 164.0
122.340752 204.0
122.384415 144.0
122.388718 128.0
122.396751 252.0
122.438034 252.0
122.459534 188.0
122.493782 160.0
122.519005 44.0
122.544426 200.0
122.581383 164.0
122.601631 104.0
122.609856 52.0
122.617172 116.0
122.650101 236.0
122.666687 184.0
122.696205 176.0
122.712952 84.0
122.769966 56.0
122.794853 116.0
122.83551 392.0
122.867897 404.0
122.894524 108.0
122.924698 148.0
122.937935 136.0
122.949982 136.0
122.990005 160.0
123.015709 152.0
123.052719 76.0
123.085915 172.0
123.105713 256.0
123.123375 128.0
123.143501 112.0
123.178986 160.0
123.207314 64.0
123.247086 120.0
123.26255 96.0
123.297195 136.0
123.300377 496.0
123.333351 108.0
123.373611 128.0
123.411148 140.0
123.435738 144.0
123.467003 140.0
123.500854 116.0
123.549347 196.0
123.586945 328.0
123.619339 160.0
123.654175 176.0
123.699486 100.0
123.731453 108.0
123.750954 284.0
123.777359 280.0
123.802307 172.0
123.827713 180.0
123.870659 116.0
123.899513 148.0
123.907074 120.0
123.917381 164.0
123.924629 196.0
123.961845 108.0
123.982079 136.0
124.005058 164.0
124.041664 128.0
124.051819 104.0
124.057716 88.0
124.072418 168.0
124.094795 116.0
124.116966 240.0
124.150276 288.0
124.170189 108.0
124.188988 84.0
124.203461 164.0
124.237534 196.0
124.270012 152.0
124.296028 232.0
124.314392 260.0
124.352974 176.0
124.370605 176.0
124.398407 180.0
124.418961 180.0
124.440819 420.0
124.447929 100.0
124.452812 356.0
124.48185 300.0
124.519257 128.0
124.549957 112.0
124.557533 148.0
124.588951 140.0
124.61528 128.0
124.648232 212.0
124.671928 108.0
124.695099 216.0
124.732559 156.0
124.764427 156.0
124.779312 116.0
124.796265 128.0
124.815643 268.0
124.847153 180.0
124.882515 156.0
124.912636 76.0
124.941956 108.0
124.9664 244.0
124.983627 300.0
125.029335 112.0
125.057823 132.0
125.096001 140.0
125.121681 340.0
125.144394 476.0
125.157936 132.0
125.164062 140.0
125.19162 144.0
125.222435 224.0
125.252457 108.0
125.258324 100.0
125.266907 96.0
125.293564 116.0
125.30143 44.0
125.323242 208.0
125.361435 200.0
125.393066 112.0
125.409973 160.0
125.424904 200.0
125.446236 188.0
125.46209 144.0
125.486298 152.0
125.491486 280.0
125.508141 116.0
125.52639 148.0
125.5578 156.0
125.586601 124.0
125.612694 284.0
125.6213 152.0
125.627998 192.0
125.636391 228.0
125.669502 212.0
125.703926 412.0
125.727516 152.0
125.745377 128.0
125.782913 196.0
125.85379 132.0
125.905197 204.0
125.968742 168.0
126.015717 184.0
126.03759 132.0
126.069443 164.0
126.091774 280.0
126.127312 120.0
126.146904 188.0
126.195145 128.0
126.227478 244.0
126.251175 152.0
126.289589 152.0
126.293404 212.0
126.332512 120.0
126.351929 248.0
126.376381 196.0
126.382591 184.0
126.409332 120.0
126.434013 212.0
126.466675 260.0
126.492661 232.0
126.501091 160.0
126.514847 176.0
126.553871 184.0
126.590424 172.0
126.611649 244.0
126.634995 324.0
126.654228 148.0
126.663956 164.0
126.700813 172.0
126.742821 116.0
126.769615 312.0
126.784424 240.0
126.808212 300.0
126.841972 120.0
126.864143 136.0
126.883949 256.0
126.904083 196.0
126.948929 220.0
126.990791 184.0
127.041702 140.0
127.066193 108.0
127.086594 452.0
127.103752 244.0
127.121704 276.0
127.151367 128.0
127.190109 252.0
127.250793 252.0
127.257202 164.0
127.26651 312.0
127.272095 104.0
127.291855 140.0
127.334145 152.0
127.352654 116.0
127.37603 72.0
127.3965 144.0
127.421829 120.0
127.43541 276.0
127.468468 264.0
127.495476 140.0
127.50444 100.0
127.523979 208.0
127.559174 152.0
127.568512 124.0
127.603317 144.0
127.645325 280.0
127.65522 136.0
127.675667 392.0
127.697868 288.0
127.744377 156.0
127.774612 124.0
127.789734 156.0
127.830452 100.0
127.850708 416.0
127.882065 228.0
127.897652 216.0
127.923073 116.0
127.944344 132.0
127.983795 160.0
128.021133 292.0
128.04924 9816.0
128.099014 220.0
128.124863 464.0
128.185349 120.0
128.219147 188.0
128.234726 156.0
128.250702 132.0
128.294586 248.0
128.318329 100.0
128.335083 224.0
128.356552 288.0
128.388229 104.0
128.431168 104.0
128.454483 168.0
128.469986 340.0
128.497849 152.0
128.542496 156.0
128.546707 152.0
128.585587 216.0
128.601151 328.0
128.64212 144.0
128.659592 116.0
128.697372 112.0
128.721085 120.0
128.739014 164.0
128.74791 124.0
128.766159 96.0
128.774979 152.0
128.801254 44.0
128.825317 164.0
128.856049 168.0
128.893509 200.0
128.929825 164.0
128.94545 128.0
128.968155 100.0
128.972122 192.0
129.012955 216.0
129.052765 1008.0
129.099335 108.0
129.144043 216.0
129.171875 232.0
129.217422 88.0
129.24794 144.0
129.283691 168.0
129.299973 328.0
129.319046 108.0
129.362106 252.0
129.390381 224.0
129.408936 96.0
129.414993 156.0
129.443314 112.0
129.485504 252.0
129.528961 128.0
129.556625 148.0
129.585724 272.0
129.613907 232.0
129.660812 240.0
129.687622 196.0
129.723587 108.0
129.755203 88.0
129.77211 124.0
129.796463 184.0
129.819672 240.0
129.828415 236.0
129.857971 192.0
129.885498 188.0
129.902344 112.0
129.952362 124.0
129.969437 132.0
129.993134 148.0
130.016922 348.0
130.04924 156.0
130.073608 240.0
130.107468 132.0
130.155869 212.0
130.185089 124.0
130.206192 152.0
130.242859 136.0
130.25914 116.0
130.27951 212.0
130.31868 132.0
130.335938 188.0
130.393463 160.0
130.434067 240.0
130.440704 276.0
130.469772 164.0
130.493088 116.0
130.526764 168.0
130.542038 228.0
130.564606 136.0
130.586014 156.0
130.609665 128.0
130.615692 88.0
130.622421 124.0
130.638397 108.0
130.663193 116.0
130.683243 200.0
130.735428 116.0
130.753983 180.0
130.782562 316.0
130.815674 172.0
130.849747 280.0
130.876083 100.0
130.897385 136.0
130.926758 128.0
130.948196 160.0
130.985382 160.0
131.010056 68.0
131.029556 164.0
131.056 92.0
131.064026 168.0
131.095032 136.0
131.114914 204.0
131.133606 172.0
131.161118 284.0
131.1884 252.0
131.209366 196.0
131.227722 240.0
131.234451 196.0
131.242355 120.0
131.306885 168.0
131.334244 164.0
131.338837 188.0
131.358597 204.0
131.384354 272.0
131.422821 132.0
131.429214 144.0
131.444717 216.0
131.46582 128.0
131.482895 256.0
131.51329 180.0
131.558044 164.0
131.611313 312.0
131.642517 96.0
131.674347 124.0
131.691849 100.0
131.714661 180.0
131.734558 160.0
131.76358 120.0
131.787689 152.0
131.800919 164.0
131.825821 180.0
131.852905 500.0
131.887222 72.0
131.91069 172.0
131.93248 164.0
131.950607 296.0
131.967438 116.0
131.99585 240.0
132.005905 176.0
132.014145 128.0
132.043213 508.0
132.070648 236.0
132.105469 300.0
132.125198 136.0
132.139923 156.0
132.167252 164.0
132.189758 148.0
132.207169 52.0
132.230698 312.0
132.270111 244.0
132.344757 152.0
132.36145 120.0
132.391129 156.0
132.43248 344.0
132.466141 248.0
132.511276 164.0
132.551086 224.0
132.591522 172.0
132.59993 112.0
132.638351 216.0
132.660278 116.0
132.67659 204.0
132.700302 140.0
132.722092 256.0
132.739761 204.0
132.772552 392.0
132.812103 96.0
132.840836 232.0
132.890289 132.0
132.915329 276.0
132.954254 172.0
132.977036 108.0
132.994476 132.0
133.026627 140.0
133.033279 176.0
133.045929 164.0
133.051727 104.0
133.09642 116.0
133.125107 132.0
133.144913 256.0
133.169708 228.0
133.193039 104.0
133.224121 212.0
133.25415 184.0
133.28862 308.0
133.311707 220.0
133.362991 240.0
133.378998 164.0
133.413635 256.0
133.449036 180.0
133.465897 156.0
133.491898 136.0
133.51239 156.0
133.537811 120.0
133.563995 156.0
133.586105 156.0
133.613922 316.0
133.637512 256.0
133.671234 60.0
133.69426 96.0
133.723206 164.0
133.779419 224.0
133.805511 144.0
133.888702 104.0
133.908966 168.0
133.938614 176.0
133.976074 184.0
133.992096 124.0
134.029587 400.0
134.062302 136.0
134.090363 160.0
134.113419 236.0
134.157593 144.0
134.173355 296.0
134.199997 300.0
134.228683 104.0
134.251663 104.0
134.270599 116.0
134.291504 108.0
134.346817 276.0
134.396027 248.0
134.4133 236.0
134.439301 120.0
134.458862 192.0
134.477417 236.0
134.494553 116.0
134.501633 152.0
134.543793 216.0
134.562225 180.0
134.584625 312.0
134.598846 232.0
134.623825 104.0
134.664368 172.0
134.688599 144.0
134.712296 184.0
134.74707 132.0
134.794373 144.0
134.820816 276.0
134.827042 140.0
134.838379 164.0
134.847748 152.0
134.88205 136.0
134.913895 360.0
134.946777 76.0
134.972214 136.0
135.010208 148.0
135.042572 192.0
135.058334 184.0
135.080658 176.0
135.103683 240.0
135.13118 160.0
135.147049 156.0
135.168823 44.0
135.18988 128.0
135.224014 132.0
135.248062 84.0
135.266785 172.0
135.284302 148.0
135.312332 160.0
135.365189 116.0
135.381805 160.0
135.41684 156.0
135.446609 260.0
135.472519 332.0
135.489075 208.0
135.506882 136.0
135.526596 436.0
135.547653 428.0
135.589386 132.0
135.6129 160.0
135.628159 204.0
135.662155 116.0
135.693924 236.0
135.72261 104.0
135.740982 172.0
135.760101 228.0
135.790771 136.0
135.839554 136.0
135.887039 120.0
135.925293 204.0
135.952911 128.0
135.98465 120.0
136.016006 132.0
136.044693 112.0
136.053726 132.0
136.06868 248.0
136.085022 176.0
136.101959 468.0
136.12677 132.0
136.169052 140.0
136.215118 136.0
136.243271 156.0
136.276672 168.0
136.30162 248.0
136.339172 140.0
136.362259 184.0
136.369644 116.0
136.380188 72.0
136.43338 204.0
136.451828 200.0
136.491013 216.0
136.524353 140.0
136.550873 204.0
136.560104 152.0
136.59996 104.0
136.621246 84.0
136.642197 156.0
136.688553 212.0
136.695099 124.0
136.719986 152.0
136.738861 184.0
136.769043 396.0
136.794205 128.0
136.81485 156.0
136.835129 124.0
136.855438 124.0
136.904449 196.0
136.959274 152.0
136.983658 100.0
137.034302 176.0
137.066528 144.0
137.097946 64.0
137.141907 188.0
137.16272 184.0
137.189865 140.0
137.212112 136.0
137.238632 144.0
137.285065 124.0
137.331436 108.0
137.339554 252.0
137.377975 120.0
137.402084 164.0
137.429062 164.0
137.44075 124.0
137.461197 180.0
137.498611 148.0
137.540482 164.0
137.594131 364.0
137.622711 112.0
137.648407 252.0
137.652649 172.0
137.684555 288.0
137.702087 176.0
137.723831 160.0
137.742355 108.0
137.773972 52.0
137.822678 136.0
137.854111 100.0
137.869461 168.0
137.897202 212.0
137.925949 76.0
137.94162 176.0
137.97052 148.0
138.005005 284.0
138.037415 228.0
138.065979 132.0
138.097946 340.0
138.124039 132.0
138.16684 308.0
138.207748 156.0
138.234177 96.0
138.26799 124.0
138.302429 88.0
138.347488 308.0
138.37413 192.0
138.398849 112.0
138.414169 336.0
138.419205 120.0
138.429977 376.0
138.467606 192.0
138.488022 112.0
138.518906 296.0
138.581848 124.0
138.613159 376.0
138.630875 132.0
138.634552 196.0
138.657364 240.0
138.676117 164.0
138.706589 172.0
138.730759 152.0
138.759171 136.0
138.808029 228.0
138.855118 336.0
138.880981 140.0
138.912766 160.0
138.952728 188.0
138.982605 176.0
139.000977 132.0
139.028076 56.0
139.052429 152.0
139.087997 136.0
139.114883 180.0
139.142075 172.0
139.165222 168.0
139.19458 160.0
139.251633 176.0
139.299042 140.0
139.350296 188.0
139.411545 136.0
139.435867 392.0
139.47142 196.0
139.47966 164.0
139.504456 112.0
139.525192 160.0
139.565842 136.0
139.590805 136.0
139.626373 184.0
139.667465 156.0
139.732956 72.0
139.76976 132.0
139.803101 176.0
139.833969 112.0
139.853897 320.0
139.88269 276.0
139.905777 108.0
139.951721 148.0
139.975266 204.0
139.999893 156.0
140.049438 184.0
140.05867 160.0
140.077667 116.0
140.121292 120.0
140.141373 100.0
140.187271 148.0
140.206314 120.0
140.213943 88.0
140.224823 216.0
140.255463 320.0
140.283997 144.0
140.302765 56.0
140.31926 152.0
140.339188 392.0
140.353882 164.0
140.369965 200.0
140.402359 288.0
140.432571 248.0
140.457794 204.0
140.4944 304.0
140.518799 160.0
140.544632 304.0
140.564026 180.0
140.571579 280.0
140.611328 132.0
140.637009 92.0
140.658966 104.0
140.691452 240.0
140.739243 144.0
140.760483 76.0
140.803101 188.0
140.828033 100.0
140.849136 200.0
140.921463 280.0
140.945831 188.0
140.980209 216.0
141.006866 104.0
141.062469 44.0
141.087372 340.0
141.135376 256.0
141.155548 268.0
141.188217 48.0
141.214615 180.0
141.253616 196.0
141.278091 64.0
141.287323 120.0
141.299896 112.0
141.337143 96.0
141.387863 164.0
141.397858 144.0
141.418854 388.0
141.437485 136.0
141.462341 112.0
141.51593 144.0
141.56662 360.0
141.592728 356.0
141.610245 124.0
141.633179 164.0
141.672241 148.0
141.705032 308.0
141.7267 148.0
141.761932 172.0
141.810715 116.0
141.832901 164.0
141.891922 296.0
141.932892 128.0
141.990402 128.0
142.068665 156.0
142.100677 148.0
142.132812 164.0
142.149017 192.0
142.183075 244.0
142.223831 112.0
142.257248 416.0
142.27533 124.0
142.281784 108.0
142.30925 256.0
142.347031 116.0
142.388535 172.0
142.39798 120.0
142.405411 172.0
142.470184 188.0
142.491364 192.0
142.530609 84.0
142.565292 100.0
142.588577 124.0
142.64389 172.0
142.673477 172.0
142.697983 276.0
142.724167 252.0
142.76329 96.0
142.797699 176.0
142.818726 236.0
142.851456 176.0
142.857117 136.0
142.902863 164.0
142.940079 116.0
142.9664 168.0
142.991272 128.0
143.0121 128.0
143.036285 128.0
143.04451 260.0
143.069061 132.0
143.085724 144.0
143.106522 240.0
143.125809 208.0
143.169189 344.0
143.202667 132.0
143.238907 188.0
143.272125 264.0
143.297363 364.0
143.336212 128.0
143.369598 108.0
143.384201 208.0
143.412979 72.0
143.42366 148.0
143.43367 152.0
143.453857 136.0
143.484116 232.0
143.505341 60.0
143.512177 180.0
143.550964 164.0
143.58606 148.0
143.620285 328.0
143.676208 212.0
143.69577 152.0
143.729675 136.0
143.738235 244.0
143.756271 56.0
143.77298 96.0
143.811783 124.0
143.831711 136.0
143.859497 188.0
143.901596 172.0
143.923462 136.0
143.961838 140.0
143.992538 124.0
144.015305 156.0
144.04512 300.0
144.065247 88.0
144.091507 140.0
144.118683 124.0
144.124893 148.0
144.134369 164.0
144.162079 120.0
144.170746 128.0
144.179764 192.0
144.22879 184.0
144.255447 96.0
144.274567 184.0
144.298477 80.0
144.330383 140.0
144.346298 36.0
144.362411 184.0
144.387039 232.0
144.419205 232.0
144.444351 100.0
144.478439 424.0
144.506866 136.0
144.554047 160.0
144.60553 144.0
144.621704 152.0
144.632462 104.0
144.649429 592.0
144.671692 180.0
144.690399 128.0
144.696609 84.0
144.705734 292.0
144.72316 400.0
144.73996 164.0
144.776337 128.0
144.816101 116.0
144.855209 196.0
144.885422 160.0
144.909653 88.0
144.949356 124.0
144.975586 268.0
145.013489 152.0
145.023148 188.0
145.04686 124.0
145.069672 120.0
145.097763 300.0
145.105728 132.0
145.111084 196.0
145.130356 160.0
145.140305 128.0
145.149704 264.0
145.184448 80.0
145.209595 140.0
145.259598 108.0
145.27977 348.0
145.302734 164.0
145.326981 124.0
145.34346 200.0
145.375046 336.0
145.396744 340.0
145.41745 128.0
145.447952 284.0
145.503296 160.0
145.512222 152.0
145.549194 132.0
145.586929 312.0
145.611023 184.0
145.64827 124.0
145.66687 88.0
145.683685 52.0
145.70726 148.0
145.724945 116.0
145.753479 212.0
145.776154 132.0
145.803833 60.0
145.829468 108.0
145.84668 424.0
145.86882 96.0
145.901627 340.0
145.938446 204.0
145.97963 124.0
146.003372 160.0
146.028931 216.0
146.059021 1296.0
146.090866 352.0
146.130859 188.0
146.158081 256.0
146.190399 204.0
146.215927 116.0
146.246368 56.0
146.286301 128.0
146.305908 228.0
146.321426 304.0
146.33844 104.0
146.409424 132.0
146.439316 112.0
146.460403 152.0
146.477676 244.0
146.501984 152.0
146.527298 108.0
146.564865 124.0
146.595306 124.0
146.629608 136.0
146.661209 188.0
146.692383 196.0
146.731873 132.0
146.765854 168.0
146.786942 156.0
146.817963 160.0
146.845062 132.0
146.856796 80.0
146.866898 140.0
146.887299 172.0
146.910324 104.0
146.936584 84.0
146.969955 164.0
147.014603 188.0
147.023621 144.0
147.032562 116.0
147.059525 160.0
147.079849 132.0
147.089478 204.0
147.098297 100.0
147.116547 224.0
147.137527 176.0
147.153915 92.0
147.177338 204.0
147.229385 240.0
147.264465 172.0
147.318649 212.0
147.345001 292.0
147.399445 124.0
147.405136 116.0
147.426086 128.0
147.4655 112.0
147.505463 68.0
147.549789 120.0
147.581635 260.0
147.626358 180.0
147.661697 176.0
147.735855 220.0
147.787857 68.0
147.794937 52.0
147.814148 108.0
147.823196 172.0
147.856186 120.0
147.879791 280.0
147.936432 280.0
147.967896 180.0
147.997116 144.0
148.039825 116.0
148.064377 148.0
148.103485 136.0
148.165497 212.0
148.19664 180.0
148.227707 296.0
148.249863 312.0
148.294159 196.0
148.323639 148.0
148.346786 160.0
148.35849 168.0
148.367004 224.0
148.392136 248.0
148.423264 108.0
148.452698 296.0
148.49939 148.0
148.518921 96.0
148.538361 116.0
148.564575 124.0
148.615417 176.0
148.644974 500.0
148.667633 148.0
148.694733 80.0
148.719833 176.0
148.743805 220.0
148.758728 108.0
148.77977 184.0
148.808899 252.0
148.844284 316.0
148.887177 352.0
148.910156 224.0
148.929367 212.0
148.949661 140.0
148.980682 360.0
149.007019 144.0
149.023819 84.0
149.062866 508.0
149.09758 192.0
149.102066 172.0
149.106796 120.0
149.11055 148.0
149.139191 132.0
149.165939 120.0
149.199371 180.0
149.215134 160.0
149.236435 60.0
149.269501 212.0
149.319107 112.0
149.341064 180.0
149.389252 160.0
149.435333 72.0
149.444199 124.0
149.474548 308.0
149.501572 172.0
149.532394 168.0
149.551743 148.0
149.58287 80.0
149.611877 304.0
149.652939 164.0
149.682205 136.0
149.728134 260.0
149.776566 80.0
149.785797 152.0
149.792465 192.0
149.804474 108.0
149.824921 40.0
149.845123 132.0
149.855804 136.0
149.868332 212.0
149.906219 132.0
149.926712 132.0
149.944199 280.0
149.988022 236.0
150.045288 116.0
150.092224 144.0
150.113022 148.0
150.145721 108.0
150.165771 228.0
150.194885 176.0
150.225784 120.0
150.242355 264.0
150.27034 144.0
150.280838 60.0
150.295258 332.0
150.322754 104.0
150.33876 124.0
150.39064 216.0
150.430283 120.0
150.475723 124.0
150.522522 288.0
150.546631 192.0
150.56839 268.0
150.602081 264.0
150.628403 164.0
150.643051 168.0
150.665909 100.0
150.684052 152.0
150.709702 252.0
150.742569 152.0
150.762894 308.0
150.78688 156.0
150.815842 136.0
150.835617 136.0
150.886902 80.0
150.893753 140.0
150.904572 144.0
150.943649 328.0
151.005005 112.0
151.051804 556.0
151.075775 208.0
151.102829 180.0
151.148926 152.0
151.173203 184.0
151.19278 56.0
151.22052 156.0
151.254303 496.0
151.292343 348.0
151.300278 148.0
151.331696 192.0
151.38327 172.0
151.392197 140.0
151.399643 96.0
151.41922 368.0
151.436127 112.0
151.452606 196.0
151.477921 88.0
151.502121 208.0
151.536148 88.0
151.56665 244.0
151.586533 132.0
151.616455 84.0
151.633606 132.0
151.658127 80.0
151.704697 84.0
151.728653 104.0
151.792953 64.0
151.813431 196.0
151.850418 112.0
151.88855 384.0
151.909134 284.0
151.952393 88.0
151.980606 96.0
152.001465 260.0
152.040283 196.0
152.058792 232.0
152.089233 252.0
152.127853 104.0
152.159653 256.0
152.198303 456.0
152.224838 100.0
152.259216 140.0
152.29361 168.0
152.32045 120.0
152.369659 260.0
152.395218 224.0
152.433334 408.0
152.456207 104.0
152.477768 148.0
152.519958 128.0
152.556534 128.0
152.603851 260.0
152.622955 372.0
152.640915 152.0
152.649246 164.0
152.66629 104.0
152.690506 80.0
152.742676 296.0
152.771667 116.0
152.798676 244.0
152.818771 196.0
152.839371 156.0
152.890442 316.0
152.938965 128.0
152.957947 204.0
152.99733 280.0
153.021454 184.0
153.042252 284.0
153.071548 248.0
153.103897 460.0
153.151657 460.0
153.193985 104.0
153.216064 420.0
153.236938 116.0
153.265732 148.0
153.297104 212.0
153.347366 168.0
153.368027 48.0
153.374222 156.0
153.403473 260.0
153.445663 300.0
153.469727 152.0
153.498276 156.0
153.508331 180.0
153.525421 220.0
153.548706 176.0
153.569855 136.0
153.580383 208.0
153.602386 300.0
153.609558 116.0
153.621414 248.0
153.659912 400.0
153.676559 328.0
153.717758 176.0
153.773346 208.0
153.807037 284.0
153.833908 200.0
153.861237 132.0
153.905197 136.0
153.925308 188.0
153.94223 116.0
153.982346 232.0
153.991058 256.0
153.996277 364.0
154.01712 196.0
154.022171 144.0
154.034042 308.0
154.059921 140.0
154.083832 152.0
154.119812 200.0
154.13092 176.0
154.169998 380.0
154.193207 76.0
154.247116 148.0
154.270996 204.0
154.288498 116.0
154.307129 208.0
154.345764 140.0
154.374695 116.0
154.412476 176.0
154.42395 204.0
154.461441 148.0
154.486526 208.0
154.510971 228.0
154.547272 156.0
154.568298 100.0
154.592438 256.0
154.615448 120.0
154.660019 188.0
154.683426 136.0
154.715042 236.0
154.723984 180.0
154.763184 212.0
154.793106 84.0
154.824722 288.0
154.842682 128.0
154.866165 156.0
154.902557 184.0
154.940155 184.0
154.946136 116.0
154.958481 192.0
155.005905 116.0
155.029343 224.0
155.063141 128.0
155.092758 292.0
155.120712 128.0
155.139496 196.0
155.158676 140.0
155.178131 224.0
155.209641 136.0
155.238678 144.0
155.272629 80.0
155.300247 88.0
155.337326 156.0
155.376053 256.0
155.39856 120.0
155.417725 480.0
155.427368 340.0
155.450546 140.0
155.486725 184.0
155.515778 132.0
155.54982 152.0
155.554688 332.0
155.583954 180.0
155.61113 68.0
155.636841 300.0
155.674667 424.0
155.719833 336.0
155.748474 128.0
155.803452 108.0
155.807068 92.0
155.820755 44.0
155.832336 128.0
155.86441 124.0
155.884903 164.0
155.900665 160.0
155.92067 196.0
155.937012 288.0
155.958817 248.0
155.999771 188.0
156.044006 712.0
156.077621 244.0
156.085831 156.0
156.135178 272.0
156.180908 52.0
156.220398 224.0
156.247543 116.0
156.266907 228.0
156.293625 140.0
156.335724 316.0
156.370361 228.0
156.396484 204.0
156.423203 232.0
156.458588 276.0
156.483841 136.0
156.512665 108.0
156.539215 136.0
156.579666 216.0
156.603973 72.0
156.66011 216.0
156.708298 280.0
156.733093 72.0
156.740021 100.0
156.774216 116.0
156.81012 128.0
156.844391 176.0
156.873993 148.0
156.90155 180.0
156.921112 124.0
156.931442 156.0
156.970505 140.0
156.979324 128.0
156.985748 316.0
157.005997 200.0
157.03891 172.0
157.06073 204.0
157.087173 196.0
157.121307 252.0
157.132233 144.0
157.171844 244.0
157.190659 160.0
157.212357 100.0
157.238068 68.0
157.27536 196.0
157.316879 168.0
157.352585 168.0
157.399536 312.0
157.454803 192.0
157.481247 168.0
157.528336 144.0
157.545944 412.0
157.563629 96.0
157.589523 200.0
157.644531 212.0
157.669083 368.0
157.699432 164.0
157.75383 132.0
157.782211 200.0
157.810928 136.0
157.832611 84.0
157.875626 160.0
157.916275 180.0
157.93988 320.0
157.993851 64.0
158.017883 116.0
158.058777 116.0
158.079071 308.0
158.105026 120.0
158.145523 100.0
158.171753 172.0
158.215424 120.0
158.236633 236.0
158.244202 112.0
158.257507 196.0
158.289352 68.0
158.312561 80.0
158.357254 312.0
158.389526 152.0
158.396606 236.0
158.420258 136.0
158.440079 308.0
158.473099 176.0
158.495605 188.0
158.512787 156.0
158.517746 136.0
158.528931 236.0
158.548553 96.0
158.578964 184.0
158.598145 148.0
158.613602 180.0
158.648102 164.0
158.673294 120.0
158.682175 92.0
158.714233 128.0
158.744095 128.0
158.77272 308.0
158.80069 28.0
158.807617 268.0
158.862122 296.0
158.87764 228.0
158.885361 184.0
158.934845 284.0
158.959747 152.0
158.992325 176.0
158.998138 120.0
159.032272 56.0
159.059113 92.0
159.069382 220.0
159.089737 184.0
159.139084 120.0
159.150116 216.0
159.159393 280.0
159.203323 120.0
159.221725 244.0
159.264328 260.0
159.284943 80.0
159.312943 236.0
159.333862 328.0
159.379395 148.0
159.412903 84.0
159.45517 220.0
159.480087 244.0
159.50325 100.0
159.535141 124.0
159.568451 160.0
159.590286 160.0
159.610413 128.0
159.630524 388.0
159.662476 208.0
159.692322 268.0
159.718002 228.0
159.756348 304.0
159.782364 444.0
159.810135 112.0
159.839188 84.0
159.847855 140.0
159.875671 292.0
159.909775 184.0
159.929977 148.0
159.935638 100.0
159.948059 172.0
159.976898 292.0
160.000946 236.0
160.026703 260.0
160.058167 160.0
160.062149 136.0
160.104263 268.0
160.1315 468.0
160.164963 140.0
160.207642 176.0
160.254608 172.0
160.278412 240.0
160.329453 264.0
160.378479 164.0
160.400345 104.0
160.431183 156.0
160.448822 152.0
160.479919 204.0
160.505249 164.0
160.535522 388.0
160.590744 72.0
160.62085 168.0
160.650208 368.0
160.681442 216.0
160.708145 112.0
160.726486 136.0
160.768188 196.0
160.77504 132.0
160.793228 120.0
160.829437 160.0
160.848129 124.0
160.881195 156.0
160.898819 408.0
160.9328 172.0
160.983246 128.0
161.013824 276.0
161.056427 92.0
161.103973 212.0
161.125488 172.0
161.149261 316.0
161.171082 160.0
161.189468 168.0
161.216156 204.0
161.238892 188.0
161.267227 132.0
161.296494 132.0
161.335815 192.0
161.368454 200.0
161.399048 148.0
161.425964 148.0
161.454178 104.0
161.486603 192.0
161.525543 536.0
161.568024 220.0
161.595444 168.0
161.637817 128.0
161.647522 96.0
161.694534 248.0
161.732086 136.0
161.750366 144.0
161.773865 332.0
161.796738 148.0
161.815933 128.0
161.885254 152.0
161.912018 132.0
161.933167 120.0
161.964401 128.0
162.01239 176.0
162.051605 232.0
162.113556 168.0
162.140686 148.0
162.166245 232.0
162.190552 128.0
162.207138 96.0
162.249344 288.0
162.280197 176.0
162.319214 128.0
162.341782 212.0
162.357224 332.0
162.40329 160.0
162.452805 120.0
162.472946 44.0
162.499939 156.0
162.53038 208.0
162.550674 96.0
162.581131 108.0
162.606888 192.0
162.633774 264.0
162.653931 152.0
162.693649 200.0
162.724701 300.0
162.743683 292.0
162.774902 116.0
162.807846 116.0
162.834 112.0
162.871185 316.0
162.893387 148.0
162.913757 144.0
162.943665 176.0
162.971848 264.0
162.9814 144.0
163.026733 128.0
163.049026 84.0
163.059784 124.0
163.066696 252.0
163.125076 152.0
163.149063 236.0
163.183777 176.0
163.223724 308.0
163.255554 384.0
163.283875 320.0
163.315155 288.0
163.343353 196.0
163.380386 200.0
163.386948 440.0
163.424911 332.0
163.480179 120.0
163.515656 128.0
163.568802 132.0
163.595108 428.0
163.620743 60.0
163.648346 164.0
163.663742 196.0
163.684311 260.0
163.75061 104.0
163.770981 280.0
163.796448 112.0
163.829147 216.0
163.85936 92.0
163.876877 176.0
163.895599 124.0
163.930328 132.0
163.951584 316.0
163.980698 180.0
164.015228 180.0
164.020691 120.0
164.031937 172.0
164.071274 3048.0
164.111115 136.0
164.148773 116.0
164.167175 44.0
164.212433 216.0
164.244843 136.0
164.278336 148.0
164.335892 124.0
164.382843 264.0
164.400696 148.0
164.421112 268.0
164.441544 160.0
164.466995 172.0
164.511688 184.0
164.53598 156.0
164.572998 168.0
164.593109 160.0
164.634033 160.0
164.66478 124.0
164.71077 216.0
164.769638 220.0
164.799042 164.0
164.822739 44.0
164.865479 120.0
164.891617 160.0
164.929703 236.0
164.988785 228.0
165.012466 64.0
165.053329 308.0
165.075699 316.0
165.105789 32.0
165.134781 188.0
165.184555 116.0
165.231293 124.0
165.250214 152.0
165.284851 84.0
165.307892 108.0
165.336044 132.0
165.376328 176.0
165.383133 268.0
165.416656 112.0
165.432739 72.0
165.45723 208.0
165.479324 156.0
165.483231 56.0
165.512802 160.0
165.552399 220.0
165.574051 220.0
165.621307 104.0
165.645111 148.0
165.692261 200.0
165.721054 112.0
165.75473 128.0
165.77182 152.0
165.800537 192.0
165.865173 180.0
165.912094 344.0
165.929077 200.0
165.974426 244.0
166.002594 224.0
166.029099 264.0
166.046463 112.0
166.073563 104.0
166.096359 164.0
166.122574 140.0
166.162842 488.0
166.178818 160.0
166.191483 256.0
166.248001 112.0
166.277527 264.0
166.314941 156.0
166.350616 212.0
166.386002 156.0
166.408783 104.0
166.418381 136.0
166.437302 136.0
166.483353 268.0
166.505585 200.0
166.554565 272.0
166.57399 328.0
166.61554 128.0
166.638062 188.0
166.655762 244.0
166.682343 148.0
166.700333 104.0
166.743805 152.0
166.758469 128.0
166.787292 248.0
166.836273 112.0
166.8526 132.0
166.873581 124.0
166.924683 372.0
166.942673 352.0
166.964722 160.0
166.993195 204.0
167.026596 212.0
167.036285 172.0
167.04747 176.0
167.081573 160.0
167.14151 168.0
167.164856 272.0
167.182465 72.0
167.216858 160.0
167.249863 356.0
167.28598 272.0
167.317932 172.0
167.346939 124.0
167.369125 300.0
167.387146 288.0
167.420242 136.0
167.447464 348.0
167.503952 192.0
167.549362 208.0
167.564377 176.0
167.591064 192.0
167.611557 164.0
167.648682 236.0
167.670441 300.0
167.694229 232.0
167.720505 172.0
167.74707 264.0
167.786514 340.0
167.822601 76.0
167.867798 312.0
167.907623 308.0
167.94249 140.0
167.95813 152.0
167.996658 76.0
168.019409 156.0
168.05368 132.0
168.110229 152.0
168.133347 112.0
168.154449 140.0
168.183578 104.0
168.219742 300.0
168.265686 224.0
168.31897 468.0
168.343018 100.0
168.377411 76.0
168.401657 332.0
168.431259 188.0
168.456726 132.0
168.480682 320.0
168.503281 144.0
168.533279 188.0
168.55307 116.0
168.571167 116.0
168.607346 120.0
168.62796 88.0
168.654922 108.0
168.705307 172.0
168.750305 220.0
168.771576 164.0
168.794189 204.0
168.828491 264.0
168.851654 200.0
168.871323 176.0
168.882446 108.0
168.89119 112.0
168.93187 224.0
168.968643 176.0
168.991531 160.0
169.0065 188.0
169.033844 336.0
169.058228 324.0
169.085709 172.0
169.123962 128.0
169.142853 164.0
169.163437 132.0
169.210999 152.0
169.237305 136.0
169.293289 168.0
169.311676 268.0
169.328506 160.0
169.360046 216.0
169.401672 284.0
169.428452 120.0
169.449905 124.0
169.496323 96.0
169.532242 132.0
169.564163 124.0
169.585373 112.0
169.602829 164.0
169.619873 180.0
169.650955 200.0
169.662552 108.0
169.666702 128.0
169.707062 288.0
169.730042 176.0
169.771591 144.0
169.788605 128.0
169.8116 324.0
169.878662 112.0
169.92276 192.0
169.9487 372.0
169.998169 148.0
170.025726 188.0
170.09729 112.0
170.149689 248.0
170.178726 116.0
170.183258 184.0
170.203079 92.0
170.22261 144.0
170.242035 188.0
170.278946 120.0
170.290924 140.0
170.296005 228.0
170.329681 64.0
170.360657 244.0
170.39502 200.0
170.404129 108.0
170.413208 152.0
170.423447 176.0
170.433289 128.0
170.441895 132.0
170.473221 124.0
170.493271 104.0
170.508835 508.0
170.545181 240.0
170.583176 296.0
170.611389 124.0
170.669556 152.0
170.69342 68.0
170.713333 188.0
170.741898 208.0
170.768982 136.0
170.815796 100.0
170.852234 292.0
170.87883 296.0
170.911514 80.0
170.93071 164.0
170.950851 192.0
170.965729 124.0
170.983017 160.0
171.008972 228.0
171.028717 156.0
171.061935 392.0
171.084457 368.0
171.102188 64.0
171.128708 136.0
171.150726 184.0
171.178192 172.0
171.198868 128.0
171.205185 108.0
171.23288 264.0
171.258453 168.0
171.276871 164.0
171.317337 292.0
171.373047 128.0
171.432388 208.0
171.473587 588.0
171.511658 312.0
171.534225 160.0
171.577698 72.0
171.595078 132.0
171.619598 268.0
171.65004 228.0
171.682068 256.0
171.70816 88.0
171.748932 108.0
171.783844 156.0
171.794128 136.0
171.827057 196.0
171.880081 88.0
171.917267 256.0
171.932938 176.0
171.954193 144.0
171.976807 256.0
172.005829 160.0
172.029633 140.0
172.073578 308.0
172.107086 184.0
172.149796 236.0
172.179581 208.0
172.203094 200.0
172.23436 144.0
172.267578 116.0
172.288879 280.0
172.313156 372.0
172.331085 80.0
172.367676 76.0
172.419937 132.0
172.43074 120.0
172.443268 148.0
172.452087 172.0
172.507278 244.0
172.54007 244.0
172.621231 184.0
172.642151 64.0
172.665405 148.0
172.719711 152.0
172.773361 148.0
172.805191 120.0
172.836548 148.0
172.859268 144.0
172.89415 220.0
172.961792 140.0
172.9841 144.0
172.98822 120.0
173.001434 196.0
173.02565 200.0
173.052963 108.0
173.080902 84.0
173.089066 88.0
173.096039 160.0
173.118729 176.0
173.141998 292.0
173.180725 396.0
173.222717 244.0
173.241119 148.0
173.279755 196.0
173.339111 248.0
173.358673 164.0
173.365738 276.0
173.390884 100.0
173.409225 104.0
173.430191 148.0
173.454636 112.0
173.483276 96.0
173.490738 168.0
173.510574 228.0
173.541245 288.0
173.582977 144.0
173.610809 220.0
173.629791 224.0
173.659485 268.0
173.703232 100.0
173.735199 316.0
173.753326 180.0
173.799973 180.0
173.819839 216.0
173.895721 296.0
173.906403 144.0
173.914932 168.0
173.967285 204.0
173.996933 168.0
174.031555 156.0
174.051788 572.0
174.081879 160.0
174.090088 92.0
174.127625 120.0
174.16011 260.0
174.210464 328.0
174.235901 204.0
174.260101 148.0
174.28009 112.0
174.305115 412.0
174.325134 108.0
174.365463 360.0
174.382736 340.0
174.403976 124.0
174.441864 348.0
174.480072 144.0
174.485626 136.0
174.497238 152.0
174.506027 88.0
174.517685 104.0
174.550156 180.0
174.588943 160.0
174.627686 188.0
174.711121 160.0
174.775787 136.0
174.80838 64.0
174.84288 204.0
174.880051 280.0
174.91748 140.0
174.94548 84.0
174.972824 180.0
175.001083 180.0
175.017349 168.0
175.037811 108.0
175.060455 164.0
175.100967 132.0
175.129425 112.0
175.150421 196.0
175.178299 224.0
175.22345 164.0
175.245544 116.0
175.262604 180.0
175.31073 116.0
175.336075 164.0
175.368408 164.0
175.386475 104.0
175.391907 96.0
175.411545 220.0
175.439743 204.0
175.451248 112.0
175.496704 196.0
175.515106 168.0
175.553726 192.0
175.559692 136.0
175.572723 188.0
175.606262 248.0
175.649277 132.0
175.675369 300.0
175.698792 176.0
175.725067 200.0
175.749695 84.0
175.795059 188.0
175.844009 200.0
175.876419 112.0
175.906815 224.0
175.938797 172.0
175.963669 116.0
175.99205 184.0
176.060394 988.0
176.096878 152.0
176.131058 132.0
176.148529 164.0
176.189972 184.0
176.217804 96.0
176.243332 124.0
176.279266 136.0
176.302887 348.0
176.364334 224.0
176.397171 240.0
176.429428 164.0
176.467255 160.0
176.498795 116.0
176.519882 220.0
176.562073 132.0
176.599518 116.0
176.623932 196.0
176.640915 252.0
176.658691 184.0
176.688446 108.0
176.710892 136.0
176.755859 132.0
176.787994 156.0
176.802063 96.0
176.838287 152.0
176.872101 184.0
176.890656 144.0
176.91684 236.0
176.946991 256.0
176.96817 132.0
176.98732 144.0
177.010529 188.0
177.031097 252.0
177.066315 756.0
177.0961 64.0
177.12265 132.0
177.1586 184.0
177.192291 232.0
177.230392 204.0
177.267303 176.0
177.331482 244.0
177.369095 152.0
177.393127 184.0
177.409485 76.0
177.438232 184.0
177.461655 348.0
177.48613 72.0
177.507156 136.0
177.536835 152.0
177.544266 224.0
177.579254 232.0
177.604263 164.0
177.650925 168.0
177.677216 152.0
177.703705 292.0
177.725677 180.0
177.791733 280.0
177.829712 116.0
177.84993 124.0
177.890198 112.0
177.930115 192.0
177.939072 128.0
177.971344 272.0
177.998596 104.0
178.008408 100.0
178.016144 160.0
178.04393 64.0
178.078613 680.0
178.117798 164.0
178.133209 116.0
178.165405 104.0
178.187729 248.0
178.221939 120.0
178.246353 180.0
178.260376 120.0
178.294113 116.0
178.32106 140.0
178.356613 192.0
178.380051 452.0
178.427811 124.0
178.463181 260.0
178.499634 328.0
178.517944 132.0
178.557251 208.0
178.581772 240.0
178.610168 96.0
178.620468 152.0
178.657928 144.0
178.682709 180.0
178.716644 116.0
178.759109 152.0
178.776443 120.0
178.796677 168.0
178.813263 328.0
178.853729 164.0
178.886246 196.0
178.927048 128.0
178.955017 200.0
178.996826 156.0
179.016281 140.0
179.038834 116.0
179.085648 3040.0
179.141708 204.0
179.166977 100.0
179.210617 180.0
179.229248 156.0
179.273666 160.0
179.292282 236.0
179.320297 208.0
179.357224 228.0
179.388763 252.0
179.42659 208.0
179.445587 172.0
179.48056 136.0
179.505737 124.0
179.546677 148.0
179.614197 240.0
179.623154 220.0
179.654663 200.0
179.684311 128.0
179.722702 140.0
179.776108 168.0
179.812241 264.0
179.848755 180.0
179.883057 160.0
179.90332 204.0
179.949387 280.0
179.981796 136.0
180.00415 208.0
180.022614 112.0
180.043045 196.0
180.080597 2220.0
180.129593 64.0
180.182571 188.0
180.220108 260.0
180.258163 128.0
180.267365 88.0
180.286331 300.0
180.322632 60.0
180.383087 408.0
180.424377 152.0
180.449707 156.0
180.4879 132.0
180.491821 280.0
180.512772 132.0
180.555649 136.0
180.586502 180.0
180.609055 96.0
180.617615 124.0
180.651138 472.0
180.674347 180.0
180.696045 168.0
180.725693 204.0
180.749802 120.0
180.791351 168.0
180.815353 216.0
180.886017 264.0
180.938705 168.0
180.973267 72.0
181.038345 136.0
181.088501 6624.0
181.129593 264.0
181.134262 224.0
181.17691 152.0
181.217102 140.0
181.247223 264.0
181.266296 184.0
181.304108 344.0
181.322662 192.0
181.326965 320.0
181.366959 112.0
181.398743 184.0
181.448944 136.0
181.4673 144.0
181.514481 116.0
181.55098 120.0
181.594589 156.0
181.615509 132.0
181.650085 52.0
181.679199 136.0
181.683777 180.0
181.696182 288.0
181.741104 144.0
181.779846 160.0
181.787933 124.0
181.845581 348.0
181.873947 144.0
181.92778 152.0
181.958862 128.0
181.965012 368.0
182.005814 108.0
182.019485 92.0
182.059341 80.0
182.089783 1248.0
182.124222 208.0
182.167084 156.0
182.193695 180.0
182.225739 132.0
182.245621 128.0
182.253784 76.0
182.282593 152.0
182.303406 80.0
182.316452 88.0
182.332123 260.0
182.350571 152.0
182.37146 200.0
182.401199 224.0
182.428757 148.0
182.462143 388.0
182.517151 288.0
182.563766 120.0
182.573196 96.0
182.583908 172.0
182.617645 276.0
182.652786 268.0
182.679001 176.0
182.718582 168.0
182.74733 324.0
182.784836 260.0
182.804794 116.0
182.846649 164.0
182.870865 200.0
182.895462 200.0
182.93161 144.0
182.969193 96.0
182.974686 60.0
182.996124 76.0
183.012436 140.0
183.047836 160.0
183.071396 176.0
183.098495 68.0
183.119034 220.0
183.148315 316.0
183.188171 132.0
183.224548 72.0
183.264725 324.0
183.295837 128.0
183.350143 140.0
183.389069 168.0
183.437469 212.0
183.48085 232.0
183.522141 176.0
183.551575 336.0
183.584702 260.0
183.638474 136.0
183.659531 164.0
183.684097 140.0
183.72731 368.0
183.759491 232.0
183.775177 236.0
183.799438 252.0
183.822067 72.0
183.878937 204.0
183.90033 148.0
183.923676 108.0
183.93187 76.0
183.944962 88.0
183.952316 128.0
183.993027 180.0
184.042496 308.0
184.074234 304.0
184.100601 220.0
184.141586 252.0
184.163391 340.0
184.195908 160.0
184.220093 176.0
184.254929 248.0
184.30806 120.0
184.340393 92.0
184.372086 88.0
184.415894 192.0
184.44162 372.0
184.46579 176.0
184.476425 172.0
184.551575 172.0
184.574875 224.0
184.605392 124.0
184.638062 216.0
184.671661 460.0
184.695541 220.0
184.701279 272.0
184.75209 120.0
184.808823 84.0
184.844299 240.0
184.863495 160.0
184.911682 136.0
184.935928 272.0
184.969849 208.0
185.000336 116.0
185.040741 276.0
185.0849 272.0
185.118805 132.0
185.150909 268.0
185.168884 112.0
185.214661 160.0
185.234421 72.0
185.277344 124.0
185.335526 160.0
185.352844 124.0
185.362366 228.0
185.385544 252.0
185.430008 172.0
185.480316 192.0
185.501297 112.0
185.558411 292.0
185.577393 104.0
185.631546 152.0
185.638733 212.0
185.693527 200.0
185.726379 172.0
185.76561 144.0
185.802399 128.0
185.828186 104.0
185.863205 172.0
185.916916 144.0
185.926987 132.0
185.948639 256.0
185.978271 176.0
186.019608 336.0
186.046509 136.0
186.081863 100.0
186.109787 236.0
186.133636 76.0
186.174362 92.0
186.197571 220.0
186.22522 284.0
186.271088 268.0
186.317291 84.0
186.324432 112.0
186.345413 152.0
186.368484 252.0
186.410126 88.0
186.440598 76.0
186.473206 164.0
186.502762 288.0
186.549316 272.0
186.600967 124.0
186.629593 392.0
186.697144 172.0
186.722733 180.0
186.763428 176.0
186.826599 264.0
186.872665 200.0
186.891159 104.0
186.908539 276.0
186.947952 268.0
186.969711 164.0
187.016602 320.0
187.05336 204.0
187.091797 144.0
187.196518 132.0
187.233673 164.0
187.2827 208.0
187.314804 180.0
187.34938 108.0
187.375076 148.0
187.395691 148.0
187.427063 128.0
187.491425 256.0
187.511765 196.0
187.534363 156.0
187.571808 180.0
187.613724 296.0
187.631821 176.0
187.650085 292.0
187.690186 92.0
187.722488 184.0
187.756882 360.0
187.781296 328.0
187.79274 80.0
187.800964 288.0
187.82341 144.0
187.832565 176.0
187.890778 144.0
187.932053 156.0
187.956497 100.0
188.007324 184.0
188.033783 60.0
188.068756 84.0
188.090225 320.0
188.100861 160.0
188.112625 376.0
188.171097 180.0
188.188705 152.0
188.23613 300.0
188.247543 200.0
188.257065 168.0
188.319321 192.0
188.361435 44.0
188.393158 52.0
188.412537 272.0
188.462448 236.0
188.505127 148.0
188.552505 60.0
188.585449 260.0
188.616592 252.0
188.672958 88.0
188.707443 164.0
188.727646 92.0
188.795166 196.0
188.811508 132.0
188.829956 320.0
188.858231 48.0
188.876495 264.0
188.926758 144.0
188.954651 152.0
188.972672 192.0
189.026031 292.0
189.069244 512.0
189.111786 284.0
189.154037 204.0
189.186676 92.0
189.199066 104.0
189.220764 276.0
189.259155 344.0
189.294342 116.0
189.30957 84.0
189.325302 272.0
189.359375 244.0
189.38826 80.0
189.408585 132.0
189.448196 144.0
189.465454 76.0
189.476852 124.0
189.491013 44.0
189.503967 164.0
189.522476 248.0
189.552856 108.0
189.580078 304.0
189.636429 204.0
189.654175 80.0
189.68309 136.0
189.711639 204.0
189.748886 156.0
189.772446 176.0
189.804428 264.0
189.833893 112.0
189.868088 140.0
189.902451 332.0
189.939407 144.0
189.979187 188.0
189.983917 76.0
190.014923 144.0
190.034348 336.0
190.068985 216.0
190.131332 152.0
190.157257 188.0
190.223877 480.0
190.257584 104.0
190.285583 136.0
190.321808 64.0
190.351303 152.0
190.373581 72.0
190.393265 144.0
190.420013 148.0
190.450317 168.0
190.486465 108.0
190.497543 180.0
190.504593 120.0
190.536728 320.0
190.574524 232.0
190.635391 136.0
190.689896 200.0
190.715485 136.0
190.742661 212.0
190.764648 108.0
190.78389 124.0
190.816879 148.0
190.841766 192.0
190.909927 148.0
190.92746 168.0
190.995621 92.0
191.02742 164.0
191.038055 92.0
191.070633 488.0
191.10495 76.0
191.135818 160.0
191.160706 224.0
191.200485 184.0
191.210648 132.0
191.223602 156.0
191.237854 172.0
191.269577 116.0
191.312073 352.0
191.333328 128.0
191.388855 148.0
191.40976 84.0
191.420746 68.0
191.455475 244.0
191.477859 232.0
191.499313 48.0
191.520325 172.0
191.5392 100.0
191.552872 136.0
191.583603 176.0
191.647293 144.0
191.697968 148.0
191.725418 184.0
191.773651 92.0
191.812485 128.0
191.850342 124.0
191.897278 228.0
191.955673 128.0
191.96521 76.0
191.986694 128.0
191.995834 152.0
192.039398 360.0
192.074387 372.0
192.127808 208.0
192.155807 156.0
192.208755 468.0
192.238174 104.0
192.261307 136.0
192.29248 164.0
192.338852 232.0
192.373413 44.0
192.408325 80.0
192.441696 120.0
192.475052 92.0
192.52063 112.0
192.542694 132.0
192.575943 148.0
192.608536 284.0
192.654633 124.0
192.678421 128.0
192.705948 264.0
192.737823 76.0
192.77626 312.0
192.799133 124.0
192.834534 280.0
192.903488 228.0
192.95076 188.0
192.980698 156.0
193.004715 324.0
193.038467 312.0
193.05957 264.0
193.086853 2160.0
193.124832 192.0
193.135315 336.0
193.166214 332.0
193.20134 212.0
193.236893 216.0
193.262421 148.0
193.281509 188.0
193.339478 104.0
193.379623 320.0
193.407578 156.0
193.450226 188.0
193.459366 72.0
193.520905 256.0
193.548264 212.0
193.556503 200.0
193.572998 200.0
193.606033 168.0
193.628967 140.0
193.642395 64.0
193.651688 136.0
193.691284 184.0
193.727905 124.0
193.754761 120.0
193.815216 200.0
193.850937 132.0
193.885422 344.0
193.914658 332.0
193.931641 168.0
193.956497 160.0
193.997375 188.0
194.041031 308.0
194.092178 940.0
194.14003 200.0
194.193741 148.0
194.223679 208.0
194.274551 184.0
194.306686 156.0
194.329193 108.0
194.355011 152.0
194.377213 120.0
194.40947 128.0
194.437729 84.0
194.447891 128.0
194.502441 160.0
194.537445 176.0
194.56897 320.0
194.625122 196.0
194.651703 140.0
194.686462 228.0
194.711761 124.0
194.746307 192.0
194.755463 180.0
194.810333 136.0
194.841049 284.0
194.890671 144.0
194.920654 328.0
194.946472 344.0
194.952988 100.0
194.963837 244.0
195.007263 160.0
195.056152 112.0
195.08667 80.0
195.111435 300.0
195.138992 108.0
195.164963 120.0
195.201797 180.0
195.242447 160.0
195.253448 200.0
195.300003 124.0
195.309586 172.0
195.321808 184.0
195.330811 88.0
195.339264 116.0
195.372665 192.0
195.393188 260.0
195.414642 144.0
195.445602 188.0
195.517471 192.0
195.575012 108.0
195.615448 144.0
195.648788 316.0
195.692154 128.0
195.761673 144.0
195.794846 184.0
195.818848 76.0
195.847885 168.0
195.879425 140.0
195.908066 184.0
195.931046 144.0
195.986145 152.0
196.037506 132.0
196.061798 324.0
196.087326 140.0
196.131271 164.0
196.188416 136.0
196.240189 120.0
196.270737 104.0
196.296585 52.0
196.320663 264.0
196.345261 88.0
196.364731 184.0
196.399872 204.0
196.43428 156.0
196.441818 160.0
196.469345 72.0
196.497925 212.0
196.528091 140.0
196.557861 100.0
196.576157 172.0
196.671707 224.0
196.72287 252.0
196.797409 244.0
196.852417 96.0
196.892273 164.0
196.936676 188.0
196.974594 64.0
197.010818 164.0
197.014709 148.0
197.025864 208.0
197.058975 144.0
197.080109 296.0
197.112534 168.0
197.162811 164.0
197.22142 140.0
197.265778 408.0
197.323776 172.0
197.363968 108.0
197.420425 124.0
197.451385 172.0
197.478333 128.0
197.531036 204.0
197.573166 264.0
197.621658 112.0
197.6315 200.0
197.660294 316.0
197.709213 128.0
197.75798 184.0
197.798843 148.0
197.819351 128.0
197.856262 160.0
197.878052 120.0
197.900452 176.0
197.93277 252.0
197.953659 244.0
197.983856 328.0
198.01828 136.0
198.055771 168.0
198.089493 176.0
198.124069 384.0
198.164886 312.0
198.20488 184.0
198.234482 216.0
198.274292 236.0
198.301834 252.0
198.323303 144.0
198.354736 380.0
198.376923 284.0
198.425919 172.0
198.456848 200.0
198.490967 364.0
198.515945 252.0
198.542664 172.0
198.551758 100.0
198.59375 280.0
198.629028 160.0
198.653137 112.0
198.687134 52.0
198.710571 96.0
198.779556 140.0
198.798111 336.0
198.828918 144.0
198.880829 200.0
198.888412 96.0
198.899658 312.0
198.90744 228.0
198.966049 208.0
199.005768 356.0
199.044235 100.0
199.069733 116.0
199.11174 232.0
199.136124 224.0
199.201187 248.0
199.259689 312.0
199.318878 264.0
199.354004 204.0
199.375198 108.0
199.386353 124.0
199.397964 128.0
199.407211 136.0
199.432526 204.0
199.454315 196.0
199.462021 108.0
199.471359 164.0
199.517181 220.0
199.527145 136.0
199.534988 96.0
199.576538 164.0
199.583618 272.0
199.594299 344.0
199.616089 140.0
199.657364 148.0
199.679932 280.0
199.70697 124.0
199.727371 144.0
199.751877 260.0
199.782715 152.0
199.807587 188.0
199.842453 280.0
199.874466 116.0
199.920334 220.0
199.939697 176.0
199.967056 128.0
200.004425 344.0
200.025848 216.0
200.067444 308.0
200.094772 180.0
200.136993 80.0
200.17984 156.0
200.222107 180.0
200.27446 308.0
200.328964 308.0
200.385406 96.0
200.422745 108.0
200.454468 108.0
200.493347 176.0
200.525314 100.0
200.556046 232.0
200.60527 120.0
200.609741 80.0
200.631104 168.0
200.670319 328.0
200.676498 172.0
200.688553 176.0
200.699249 156.0
200.734787 148.0
200.764679 200.0
200.790543 84.0
200.813004 200.0
200.824081 164.0
200.858368 84.0
200.923523 260.0
200.976715 228.0
201.010925 148.0
201.031097 152.0
201.039062 248.0
201.049408 156.0
201.062576 160.0
201.068268 92.0
201.072983 172.0
201.098694 92.0
201.13562 108.0
201.166351 180.0
201.17482 60.0
201.188202 224.0
201.196808 228.0
201.229401 140.0
201.310287 56.0
201.371429 164.0
201.415329 148.0
201.469086 148.0
201.513916 212.0
201.55365 144.0
201.598251 252.0
201.646912 264.0
201.671387 104.0
201.706833 156.0
201.729355 236.0
201.736938 116.0
201.748398 156.0
201.791306 136.0
201.82692 292.0
201.833008 156.0
201.847122 120.0
201.899094 92.0
201.941711 340.0
201.979782 348.0
202.001678 192.0
202.021942 304.0
202.062729 644.0
202.116562 164.0
202.150787 272.0
202.205856 324.0
202.246948 388.0
202.290894 188.0
202.350647 192.0
202.397034 288.0
202.431793 168.0
202.473923 136.0
202.487167 184.0
202.520584 128.0
202.612549 336.0
202.633362 232.0
202.663391 124.0
202.699173 264.0
202.721069 212.0
202.745316 108.0
202.755478 224.0
202.766235 292.0
202.794525 260.0
202.833923 152.0
202.874893 152.0
202.92981 164.0
202.949661 64.0
202.984833 148.0
203.070969 2564.0
203.122269 120.0
203.144699 124.0
203.176544 132.0
203.215057 188.0
203.240005 384.0
203.282791 260.0
203.311752 148.0
203.332611 148.0
203.360291 64.0
203.397369 140.0
203.420181 132.0
203.424423 180.0
203.440063 88.0
203.451355 156.0
203.474747 172.0
203.529205 252.0
203.551636 260.0
203.610596 136.0
203.650223 148.0
203.656906 128.0
203.692932 344.0
203.766266 580.0
203.807526 452.0
203.853073 372.0
203.898926 132.0
203.937988 364.0
203.98912 276.0
204.038666 356.0
204.081009 114336.0
204.139771 280.0
204.176636 296.0
204.21405 196.0
204.245972 144.0
204.283173 260.0
204.324005 216.0
204.363159 912.0
204.401016 316.0
204.419464 256.0
204.446564 116.0
204.490509 332.0
204.554153 368.0
204.59256 328.0
204.627502 272.0
204.658768 344.0
204.688293 140.0
204.708359 304.0
204.717682 180.0
204.750595 144.0
204.79007 404.0
204.823792 292.0
204.829178 252.0
204.858215 260.0
204.882767 136.0
204.912582 364.0
204.945663 552.0
204.983673 556.0
205.013596 1148.0
205.029175 440.0
205.03537 704.0
205.089432 287024.0
205.196777 272.0
205.232193 200.0
205.259842 232.0
205.287689 256.0
205.353958 852.0
205.406799 540.0
205.442917 364.0
205.472122 200.0
205.482468 324.0
205.524841 604.0
205.563766 2356.0
205.608566 508.0
205.657913 108.0
205.709091 280.0
205.721588 184.0
205.74411 428.0
205.765244 592.0
205.810959 252.0
205.821808 176.0
205.827362 352.0
205.854172 140.0
205.888382 496.0
205.913483 356.0
205.955704 324.0
205.962051 116.0
205.973007 428.0
205.999374 388.0
206.049576 852.0
206.096191 257336.0
206.160004 164.0
206.17688 268.0
206.204895 296.0
206.26265 176.0
206.284927 252.0
206.309952 160.0
206.332932 148.0
206.367874 264.0
206.391159 192.0
206.417999 544.0
206.442566 172.0
206.463333 220.0
206.467834 224.0
206.495819 168.0
206.516144 332.0
206.566803 1104.0
206.593033 244.0
206.630951 280.0
206.643204 208.0
206.656998 288.0
206.661621 360.0
206.7146 476.0
206.75679 248.0
206.801407 180.0
206.833008 248.0
206.877762 268.0
206.896286 256.0
206.9422 204.0
206.968506 160.0
207.013779 272.0
207.041901 288.0
207.099396 36300.0
207.180283 104.0
207.209549 196.0
207.237213 304.0
207.282867 112.0
207.295212 240.0
207.304047 408.0
207.331558 268.0
207.361359 156.0
207.369537 392.0
207.413162 300.0
207.470581 344.0
207.475601 184.0
207.498215 208.0
207.535934 404.0
207.574753 284.0
207.604233 156.0
207.633881 484.0
207.641464 184.0
207.653473 224.0
207.674881 216.0
207.684875 228.0
207.72522 268.0
207.736267 276.0
207.753387 248.0
207.808273 308.0
207.837021 292.0
207.893066 152.0
207.922607 260.0
207.955078 296.0
208.004837 52.0
208.037155 84.0
208.075958 1464.0
208.100296 2468.0
208.130508 192.0
208.1875 128.0
208.19812 116.0
208.237625 152.0
208.281036 36.0
208.301529 280.0
208.348999 192.0
208.398926 304.0
208.424942 416.0
208.460297 220.0
208.491882 156.0
208.521927 292.0
208.562851 244.0
208.593079 276.0
208.603271 192.0
208.6203 140.0
208.656738 160.0
208.682922 156.0
208.705078 292.0
208.737564 188.0
208.7957 108.0
208.829514 664.0
208.866425 164.0
208.892197 212.0
208.911362 180.0
208.921005 152.0
208.932709 232.0
208.977432 340.0
209.012848 48.0
209.04335 340.0
209.083527 45076.0
209.149414 52.0
209.170105 172.0
209.196716 168.0
209.219879 140.0
209.264984 112.0
209.327728 352.0
209.353378 208.0
209.369949 140.0
209.423004 116.0
209.450394 112.0
209.482422 120.0
209.539719 184.0
209.585373 188.0
209.624115 140.0
209.62915 52.0
209.650589 152.0
209.674881 100.0
209.727051 148.0
209.761169 72.0
209.787979 124.0
209.797577 232.0
209.838913 204.0
209.8591 60.0
209.904404 232.0
209.930115 164.0
209.985397 148.0
210.086639 6632.0
210.127625 188.0
210.175766 108.0
210.198029 308.0
210.245346 108.0
210.290344 332.0
210.313644 132.0
210.341354 76.0
210.375565 140.0
210.397263 156.0
210.44931 140.0
210.50914 300.0
210.552307 120.0
210.631561 116.0
210.653412 176.0
210.71608 228.0
210.737289 156.0
210.762619 152.0
210.800415 292.0
210.845062 348.0
210.895065 224.0
210.927887 128.0
210.988953 128.0
211.01062 264.0
211.088928 1044.0
211.140244 128.0
211.174377 124.0
211.235977 156.0
211.27002 136.0
211.292343 76.0
211.335266 80.0
211.353439 48.0
211.399261 280.0
211.481979 208.0
211.523666 208.0
211.548782 156.0
211.607956 340.0
211.636688 52.0
211.683228 228.0
211.694168 184.0
211.703934 156.0
211.749924 116.0
211.762344 164.0
211.771149 64.0
211.784973 116.0
211.800018 180.0
211.821899 112.0
211.84465 72.0
211.880447 136.0
211.886719 148.0
211.914673 140.0
211.941864 188.0
211.970688 156.0
212.008362 72.0
212.052185 196.0
212.089661 80.0
212.137589 184.0
212.16507 184.0
212.193863 192.0
212.239395 212.0
212.27684 104.0
212.361679 248.0
212.410599 136.0
212.422531 156.0
212.431793 164.0
212.504196 136.0
212.532333 92.0
212.557388 236.0
212.58255 80.0
212.617447 140.0
212.640579 184.0
212.670425 120.0
212.709854 88.0
212.784088 140.0
212.813553 48.0
212.850677 116.0
212.890121 260.0
212.894073 128.0
212.972855 128.0
213.017319 264.0
213.074463 172.0
213.095352 160.0
213.145294 160.0
213.186569 36.0
213.22435 144.0
213.262604 172.0
213.303986 208.0
213.352249 296.0
213.372589 192.0
213.392181 76.0
213.415955 96.0
213.423721 48.0
213.435425 124.0
213.503433 108.0
213.563507 116.0
213.606644 364.0
213.630356 136.0
213.656677 208.0
213.720062 228.0
213.796463 72.0
213.802643 148.0
213.822159 108.0
213.849518 180.0
213.919388 180.0
213.937485 136.0
213.958435 132.0
213.986465 104.0
214.015198 120.0
214.022858 104.0
214.049805 368.0
214.070541 132.0
214.108765 176.0
214.130234 108.0
214.143127 104.0
214.15332 188.0
214.163086 92.0
214.193329 132.0
214.234772 308.0
214.261505 300.0
214.303406 136.0
214.359299 248.0
214.391617 88.0
214.419968 132.0
214.444565 228.0
214.450241 140.0
214.512741 136.0
214.560074 172.0
214.564056 128.0
214.607056 272.0
214.640411 164.0
214.653641 148.0
214.659866 180.0
214.758057 164.0
214.793503 224.0
214.829651 168.0
214.860275 196.0
214.910294 116.0
214.94249 124.0
215.015442 60.0
215.077362 188.0
215.107529 44.0
215.151093 384.0
215.190781 120.0
215.228546 148.0
215.270584 128.0
215.319534 128.0
215.346619 204.0
215.380417 36.0
215.401642 104.0
215.483002 160.0
215.518448 172.0
215.54985 40.0
215.58342 168.0
215.610825 128.0
215.642838 44.0
215.683655 92.0
215.715027 148.0
215.735413 88.0
215.762466 92.0
215.8022 84.0
215.851151 216.0
215.897095 148.0
215.91687 132.0
215.940323 156.0
216.007141 212.0
216.080383 2968.0
216.140518 76.0
216.182983 92.0
216.202881 280.0
216.249939 216.0
216.269028 256.0
216.313187 216.0
216.363998 68.0
216.392242 120.0
216.440521 188.0
216.476791 188.0
216.522385 300.0
216.557007 120.0
216.596268 208.0
216.647964 164.0
216.678848 204.0
216.71611 96.0
216.76001 136.0
216.79483 144.0
216.802948 108.0
216.834564 92.0
216.871201 104.0
216.880554 52.0
216.894913 140.0
216.939331 148.0
216.970612 124.0
217.03302 160.0
217.087082 4540.0
217.141388 152.0
217.197784 108.0
217.212463 144.0
217.221054 120.0
217.278442 232.0
217.335251 200.0
217.406372 192.0
217.411377 152.0
217.425232 108.0
217.431976 108.0
217.437302 124.0
217.478027 152.0
217.527679 52.0
217.589615 108.0
217.63002 96.0
217.659546 336.0
217.681107 96.0
217.70874 200.0
217.724884 160.0
217.755798 152.0
217.781113 136.0
217.792435 56.0
217.798187 148.0
217.81926 304.0
217.854095 112.0
217.862198 144.0
217.927094 356.0
218.022568 248.0
218.058182 152.0
218.093964 1488.0
218.141556 152.0
218.150726 108.0
218.163025 88.0
218.178268 72.0
218.183334 144.0
218.204102 52.0
218.240906 128.0
218.28447 332.0
218.324051 172.0
218.351166 132.0
218.383865 184.0
218.41214 88.0
218.449326 76.0
218.492508 248.0
218.520081 172.0
218.583954 136.0
218.613602 92.0
218.658386 60.0
218.704041 180.0
218.740799 200.0
218.771255 128.0
218.819107 120.0
218.882782 176.0
218.94101 136.0
218.984787 88.0
219.041595 132.0
219.096344 656.0
219.125519 132.0
219.149841 112.0
219.182129 160.0
219.211487 108.0
219.232285 64.0
219.248215 136.0
219.292953 148.0
219.346237 112.0
219.375381 92.0
219.394775 136.0
219.424255 108.0
219.44928 332.0
219.496536 348.0
219.519562 264.0
219.555466 128.0
219.590561 344.0
219.625 312.0
219.676132 176.0
219.713837 232.0
219.745544 172.0
219.800308 96.0
219.822403 132.0
219.879715 176.0
219.911285 280.0
219.966354 176.0
219.985352 164.0
220.032425 112.0
220.073212 1260.0
220.099014 2256.0
220.16095 128.0
220.213715 224.0
220.275894 124.0
220.300201 108.0
220.362473 296.0
220.384949 160.0
220.459839 152.0
220.483215 164.0
220.489563 124.0
220.499268 152.0
220.525314 128.0
220.592682 212.0
220.615189 128.0
220.627655 132.0
220.684647 160.0
220.716293 100.0
220.75148 68.0
220.792603 100.0
220.820984 196.0
220.872467 140.0
220.905396 208.0
220.942047 56.0
220.999725 160.0
221.037277 164.0
221.082672 2388.0
221.173264 124.0
221.207062 164.0
221.247894 172.0
221.287628 68.0
221.31517 144.0
221.355133 176.0
221.384262 132.0
221.412155 132.0
221.456818 216.0
221.565689 172.0
221.590805 124.0
221.629135 324.0
221.668228 296.0
221.718597 128.0
221.758423 92.0
221.766541 120.0
221.793259 168.0
221.824738 284.0
221.850861 64.0
221.866241 92.0
221.90181 228.0
221.947922 152.0
221.981644 120.0
222.024872 236.0
222.054794 112.0
222.09166 5676.0
222.144211 120.0
222.249039 236.0
222.298248 172.0
222.332764 208.0
222.373474 120.0
222.3974 148.0
222.452179 140.0
222.481445 264.0
222.510178 296.0
222.558456 108.0
222.599091 216.0
222.651138 152.0
222.683395 124.0
222.715485 356.0
222.7397 168.0
222.774323 132.0
222.799957 184.0
222.850266 264.0
222.886017 116.0
222.917038 132.0
222.962799 140.0
223.023926 108.0
223.090332 348.0
223.121536 284.0
223.160187 48.0
223.207565 196.0
223.244659 264.0
223.267456 180.0
223.33165 268.0
223.383087 204.0
223.434998 136.0
223.486542 152.0
223.513641 192.0
223.550339 96.0
223.596832 116.0
223.654602 180.0
223.754639 88.0
223.790894 144.0
223.848557 180.0
223.871841 172.0
223.901627 32.0
223.95076 192.0
224.005875 144.0
224.046036 240.0
224.098709 256.0
224.145004 384.0
224.172623 128.0
224.205154 68.0
224.281158 52.0
224.349991 272.0
224.371002 176.0
224.399246 40.0
224.435028 192.0
224.491684 60.0
224.522797 176.0
224.556076 420.0
224.592575 152.0
224.612564 128.0
224.661346 172.0
224.718018 136.0
224.752686 184.0
224.810883 92.0
224.859146 140.0
224.89238 156.0
224.911682 212.0
224.936234 72.0
224.975037 68.0
224.995941 104.0
225.088058 444.0
225.178085 80.0
225.204865 116.0
225.233994 224.0
225.286469 112.0
225.315399 132.0
225.338181 212.0
225.381226 68.0
225.428619 88.0
225.449738 168.0
225.529449 140.0
225.577972 144.0
225.620941 96.0
225.647232 136.0
225.686447 200.0
225.713211 184.0
225.748062 136.0
225.772812 296.0
225.825531 128.0
225.855927 132.0
225.888138 284.0
225.943314 224.0
225.975388 132.0
226.019867 152.0
226.055756 144.0
226.084625 252.0
226.130997 160.0
226.164917 148.0
226.200668 104.0
226.236588 112.0
226.267899 312.0
226.287964 200.0
226.336853 288.0
226.359344 152.0
226.473587 164.0
226.50148 208.0
226.524078 148.0
226.557693 144.0
226.580994 328.0
226.610443 272.0
226.652893 124.0
226.694855 100.0
226.724091 148.0
226.775528 160.0
226.808731 96.0
226.85289 228.0
226.889267 116.0
226.930832 176.0
226.981445 116.0
227.019333 120.0
227.072586 104.0
227.095657 176.0
227.105576 204.0
227.129028 132.0
227.180313 140.0
227.201721 164.0
227.227127 216.0
227.298126 216.0
227.388351 160.0
227.442841 120.0
227.451416 200.0
227.4823 92.0
227.515182 96.0
227.53479 144.0
227.57373 172.0
227.608627 200.0
227.629578 300.0
227.689392 184.0
227.745697 136.0
227.774933 104.0
227.795959 120.0
227.827896 208.0
227.84613 220.0
227.928146 184.0
227.950638 132.0
228.015305 124.0
228.048355 152.0
228.094452 248.0
228.115891 120.0
228.14122 168.0
228.186646 104.0
228.242508 168.0
228.312378 196.0
228.3535 152.0
228.42067 156.0
228.427765 316.0
228.490402 116.0
228.59137 172.0
228.645126 76.0
228.710861 76.0
228.720078 148.0
228.778397 92.0
228.803726 108.0
228.831085 148.0
228.885422 280.0
228.93071 112.0
228.99646 112.0
229.036789 260.0
229.062073 352.0
229.111191 284.0
229.134094 144.0
229.167816 60.0
229.190979 124.0
229.230957 172.0
229.270538 272.0
229.300034 164.0
229.335907 252.0
229.368027 92.0
229.427719 84.0
229.474976 140.0
229.499359 128.0
229.565704 148.0
229.603058 196.0
229.670609 136.0
229.713562 164.0
229.767792 124.0
229.809845 136.0
229.842178 128.0
229.866409 216.0
229.903046 116.0
229.910431 160.0
229.979019 76.0
230.040543 116.0
230.085403 412.0
230.148544 136.0
230.179337 124.0
230.207077 148.0
230.25618 88.0
230.280838 104.0
230.326248 116.0
230.347397 124.0
230.370956 220.0
230.391708 120.0
230.419907 172.0
230.453598 132.0
230.500473 124.0
230.511658 152.0
230.548676 180.0
230.592712 148.0
230.678574 208.0
230.6875 124.0
230.698486 152.0
230.730743 200.0
230.770645 160.0
230.79747 164.0
230.847214 172.0
230.88385 148.0
230.945892 84.0
231.006378 268.0
231.035492 144.0
231.091064 16068.0
231.16069 172.0
231.196213 184.0
231.222549 144.0
231.24762 160.0
231.272659 36.0
231.300568 152.0
231.35379 108.0
231.384476 124.0
231.448196 208.0
231.505157 156.0
231.555756 76.0
231.583755 84.0
231.620407 128.0
231.657227 156.0
231.676865 124.0
231.701294 132.0
231.756531 128.0
231.793564 144.0
231.853256 284.0
231.890533 132.0
231.912399 112.0
231.944199 124.0
231.961823 164.0
231.986649 128.0
232.016617 424.0
232.096497 10376.0
232.191116 152.0
232.211914 224.0
232.237244 164.0
232.290771 132.0
232.313232 100.0
232.33873 164.0
232.348694 132.0
232.361038 176.0
232.431381 140.0
232.476303 152.0
232.545105 176.0
232.574951 104.0
232.607574 40.0
232.660995 72.0
232.708282 324.0
232.755127 144.0
232.779221 120.0
232.800385 172.0
232.82016 164.0
232.868576 244.0
232.893524 112.0
232.951462 180.0
232.998962 144.0
233.020172 172.0
233.084854 4412.0
233.162415 208.0
233.196899 180.0
233.250122 60.0
233.259155 252.0
233.272751 136.0
233.278152 144.0
233.306244 196.0
233.319412 44.0
233.380295 188.0
233.388016 124.0
233.396957 172.0
233.443741 132.0
233.502136 184.0
233.509872 188.0
233.523117 296.0
233.547501 192.0
233.569534 168.0
233.577972 144.0
233.605164 128.0
233.642365 80.0
233.652817 68.0
233.699905 168.0
233.732697 92.0
233.782578 168.0
233.818176 80.0
233.844559 124.0
233.875565 116.0
233.90329 196.0
233.930374 96.0
233.949081 368.0
234.004776 136.0
234.027328 288.0
234.091141 67612.0
234.172379 396.0
234.197113 60.0
234.216125 180.0
234.237488 136.0
234.27417 200.0
234.30304 128.0
234.358292 204.0
234.384232 76.0
234.400467 120.0
234.42186 160.0
234.448807 140.0
234.458405 100.0
234.472 136.0
234.501312 268.0
234.525146 132.0
234.533493 72.0
234.556412 516.0
234.592209 164.0
234.60347 124.0
234.611786 132.0
234.651566 116.0
234.720856 120.0
234.773499 204.0
234.797043 120.0
234.829117 116.0
234.857132 136.0
234.872849 180.0
234.915802 180.0
234.95932 60.0
234.980072 156.0
235.002747 192.0
235.043976 204.0
235.09404 13568.0
235.170914 180.0
235.205063 148.0
235.214935 108.0
235.22496 144.0
235.251419 176.0
235.27597 192.0
235.343384 212.0
235.40477 56.0
235.449661 132.0
235.485519 148.0
235.497635 116.0
235.511124 244.0
235.557053 92.0
235.588394 76.0
235.62944 132.0
235.662659 100.0
235.691833 176.0
235.746918 168.0
235.77182 312.0
235.790985 128.0
235.80658 120.0
235.868881 320.0
235.882431 140.0
235.907272 304.0
235.961075 132.0
235.98262 156.0
236.063721 592.0
236.100571 1036.0
236.154831 124.0
236.175125 196.0
236.224808 80.0
236.248657 148.0
236.28093 340.0
236.309662 216.0
236.34375 356.0
236.366119 236.0
236.389755 168.0
236.419754 172.0
236.473862 360.0
236.483963 176.0
236.493713 328.0
236.531982 268.0
236.566864 304.0
236.596878 240.0
236.652832 288.0
236.730026 376.0
236.763214 184.0
236.769989 324.0
236.821762 512.0
236.861801 488.0
236.886398 420.0
236.907608 588.0
236.941895 336.0
236.970245 780.0
236.99704 632.0
237.020584 608.0
237.030533 952.0
237.040543 548.0
237.079681 309144.0
237.18486 236.0
237.19249 264.0
237.241837 240.0
237.276627 232.0
237.287598 136.0
237.298813 304.0
237.324997 128.0
237.359955 280.0
237.382431 332.0
237.41864 244.0
237.457977 376.0
237.487061 204.0
237.53035 216.0
237.544891 160.0
237.583984 6312.0
237.619644 216.0
237.649872 168.0
237.693558 188.0
237.715698 76.0
237.744583 456.0
237.811157 336.0
237.831985 304.0
237.838364 244.0
237.892151 412.0
237.92897 228.0
237.977844 84.0
238.014938 220.0
238.022537 328.0
238.082047 85856.0
238.125107 444.0
238.17218 172.0
238.222687 160.0
238.26181 180.0
238.305008 236.0
238.328278 308.0
238.354218 160.0
238.394165 256.0
238.463745 104.0
238.513596 256.0
238.534363 52.0
238.545517 116.0
238.597458 180.0
238.633865 192.0
238.653275 152.0
238.68602 140.0
238.71756 60.0
238.743256 72.0
238.791458 100.0
238.824356 224.0
238.855011 164.0
238.860214 124.0
238.8871 156.0
238.912262 120.0
238.934708 196.0
238.961685 324.0
239.013748 304.0
239.036194 128.0
239.083557 7812.0
239.127396 272.0
239.133347 200.0
239.149704 88.0
239.15477 168.0
239.198685 268.0
239.206635 176.0
239.286133 248.0
239.313751 124.0
239.338562 180.0
239.37529 336.0
239.402878 88.0
239.432938 152.0
239.471405 140.0
239.510147 372.0
239.543289 160.0
239.57164 404.0
239.611099 232.0
239.633148 276.0
239.671402 232.0
239.681534 124.0
239.693359 284.0
239.715256 148.0
239.744858 120.0
239.800507 368.0
239.805252 336.0
239.83168 276.0
239.864563 96.0
239.898468 488.0
239.933609 280.0
239.978958 128.0
239.989365 100.0
240.003113 200.0
240.012512 244.0
240.024323 324.0
240.040359 152.0
240.085388 744.0
240.135605 208.0
240.159042 136.0
240.223831 220.0
240.259766 160.0
240.286591 180.0
240.350388 196.0
240.366989 84.0
240.412964 72.0
240.4776 112.0
240.509079 184.0
240.554626 68.0
240.587021 244.0
240.638443 184.0
240.678696 148.0
240.70076 56.0
240.719315 172.0
240.757294 172.0
240.782913 264.0
240.813919 364.0
240.856827 116.0
240.912125 212.0
240.948517 132.0
240.979248 240.0
241.001266 160.0
241.031219 72.0
241.073624 456.0
241.155212 148.0
241.191757 56.0
241.220245 120.0
241.258804 148.0
241.303741 256.0
241.365997 108.0
241.421707 160.0
241.46257 112.0
241.510498 160.0
241.568954 80.0
241.623657 136.0
241.649445 344.0
241.701065 188.0
241.736115 108.0
241.764816 88.0
241.80307 100.0
241.827393 200.0
241.877502 272.0
241.903427 56.0
241.910995 104.0
241.946808 40.0
241.992905 64.0
242.041718 88.0
242.082947 824.0
242.136322 68.0
242.166275 368.0
242.204453 116.0
242.238525 164.0
242.258987 104.0
242.299606 220.0
242.339188 140.0
242.378174 56.0
242.399292 36.0
242.416077 180.0
242.464066 152.0
242.532898 148.0
242.568695 164.0
242.617661 116.0
242.661942 64.0
242.682129 144.0
242.756119 84.0
242.788742 100.0
242.855362 268.0
242.892319 136.0
242.911758 240.0
242.955109 312.0
242.978531 164.0
243.042587 136.0
243.091354 1048.0
243.172867 96.0
243.243225 76.0
243.269867 96.0
243.302643 112.0
243.341202 152.0
243.3871 324.0
243.438599 232.0
243.487885 200.0
243.516602 280.0
243.552078 72.0
243.582169 180.0
243.60965 68.0
243.647766 88.0
243.696976 120.0
243.75322 132.0
243.785706 96.0
243.814713 124.0
243.924133 196.0
243.946701 208.0
243.986572 124.0
244.016769 164.0
244.039368 192.0
244.097656 1128.0
244.136185 148.0
244.159805 216.0
244.181244 156.0
244.21579 108.0
244.240662 104.0
244.286652 56.0
244.305008 140.0
244.388947 72.0
244.435684 152.0
244.503098 92.0
244.527084 208.0
244.555191 192.0
244.580917 172.0
244.650146 136.0
244.713684 124.0
244.765915 124.0
244.796143 108.0
244.850693 184.0
244.906754 160.0
244.983261 164.0
245.01033 260.0
245.096146 204.0
245.141327 100.0
245.165344 136.0
245.192551 180.0
245.217392 208.0
245.294022 140.0
245.364838 72.0
245.386658 144.0
245.425964 212.0
245.472137 100.0
245.557236 120.0
245.616165 276.0
245.647293 168.0
245.700897 132.0
245.712296 68.0
245.722092 160.0
245.765884 124.0
245.794281 132.0
245.818298 148.0
245.861206 148.0
245.91301 300.0
245.984787 140.0
246.024017 164.0
246.051193 220.0
246.086258 336.0
246.154861 100.0
246.198959 112.0
246.249344 300.0
246.311951 76.0
246.338501 140.0
246.371948 232.0
246.408585 124.0
246.443359 156.0
246.472839 56.0
246.529587 100.0
246.575974 96.0
246.60025 172.0
246.611206 132.0
246.680252 124.0
246.708282 204.0
246.73851 168.0
246.772278 60.0
246.801117 232.0
246.846237 48.0
246.877502 260.0
246.931747 40.0
246.953613 152.0
246.991531 92.0
247.022598 204.0
247.085602 3736.0
247.133606 148.0
247.147675 156.0
247.230927 112.0
247.262985 196.0
247.300003 88.0
247.328629 168.0
247.333313 196.0
247.363739 144.0
247.393875 264.0
247.446426 156.0
247.472244 100.0
247.523575 160.0
247.535477 160.0
247.568146 180.0
247.600952 116.0
247.626495 272.0
247.67305 112.0
247.757217 136.0
247.864304 336.0
247.899124 108.0
247.918854 120.0
247.944153 72.0
247.968689 136.0
247.993912 88.0
248.093369 868.0
248.141022 208.0
248.181931 168.0
248.196091 52.0
248.208939 144.0
248.263992 164.0
248.338181 188.0
248.387802 148.0
248.398254 108.0
248.409027 192.0
248.452438 164.0
248.513885 168.0
248.545197 220.0
248.577087 76.0
248.627914 80.0
248.658478 156.0
248.699478 56.0
248.734009 76.0
248.784225 108.0
248.821381 168.0
248.861206 100.0
248.907959 216.0
248.970535 156.0
249.013885 136.0
249.034286 132.0
249.1017 10448.0
249.159241 292.0
249.220047 108.0
249.255341 252.0
249.310959 188.0
249.330673 188.0
249.360962 324.0
249.394012 64.0
249.424423 80.0
249.443558 104.0
249.501266 188.0
249.543839 148.0
249.5681 32.0
249.580032 68.0
249.618179 56.0
249.658218 124.0
249.685089 108.0
249.720306 80.0
249.764648 196.0
249.806839 68.0
249.877899 84.0
249.911926 108.0
249.959702 216.0
250.023773 56.0
250.103409 1596.0
250.173004 208.0
250.247955 124.0
250.266464 256.0
250.297653 120.0
250.340057 212.0
250.36232 124.0
250.381927 268.0
250.457123 136.0
250.486877 180.0
250.543808 132.0
250.550491 160.0
250.7043 132.0
250.746994 44.0
250.794998 172.0
250.82579 32.0
250.867584 140.0
250.922348 108.0
250.994217 216.0
251.017914 128.0
251.055954 64.0
251.113083 644.0
251.150269 84.0
251.15831 144.0
251.207336 64.0
251.23877 108.0
251.264969 60.0
251.295685 116.0
251.3405 156.0
251.384033 280.0
251.410278 104.0
251.431366 168.0
251.463715 144.0
251.528442 116.0
251.586029 36.0
251.629761 216.0
251.668655 164.0
251.702209 216.0
251.772324 56.0
251.81488 80.0
251.844955 328.0
251.880798 116.0
251.902267 160.0
251.928802 96.0
251.991257 116.0
252.018387 120.0
252.055237 136.0
252.087418 308.0
252.130447 156.0
252.153275 164.0
252.171906 184.0
252.203049 204.0
252.255737 92.0
252.292847 108.0
252.340164 96.0
252.393677 248.0
252.41983 40.0
252.467575 80.0
252.505524 140.0
252.562454 232.0
252.590927 108.0
252.628891 140.0
252.665176 136.0
252.711136 80.0
252.732193 136.0
252.779114 372.0
252.802902 112.0
252.850372 124.0
252.895645 144.0
252.927704 92.0
252.967178 152.0
253.01445 48.0
253.102036 144.0
253.154282 36.0
253.210526 112.0
253.249298 60.0
253.280777 132.0
253.30632 136.0
253.350662 188.0
253.411743 128.0
253.446442 248.0
253.497025 184.0
253.519379 128.0
253.562958 92.0
253.595703 60.0
253.664871 236.0
253.691742 184.0
253.775345 108.0
253.797546 180.0
253.822906 136.0
253.876816 176.0
253.918045 144.0
253.972885 172.0
254.065247 128.0
254.110748 144.0
254.144821 100.0
254.211105 116.0
254.262543 156.0
254.323242 124.0
254.35405 248.0
254.411346 172.0
254.435669 172.0
254.460663 32.0
254.48288 120.0
254.505112 116.0
254.533691 148.0
254.567001 316.0
254.64064 236.0
254.698837 140.0
254.727417 288.0
254.757324 184.0
254.799423 72.0
254.871506 204.0
254.918274 120.0
254.990723 228.0
255.057892 132.0
255.092377 80.0
255.178696 152.0
255.217499 116.0
255.252731 168.0
255.297867 144.0
255.375854 184.0
255.42038 60.0
255.449005 100.0
255.483994 184.0
255.507736 164.0
255.538086 196.0
255.563004 120.0
255.598541 92.0
255.634064 144.0
255.678085 132.0
255.778824 148.0
255.87709 108.0
255.921173 204.0
255.966446 144.0
256.001923 200.0
256.040314 72.0
256.099976 156.0
256.149323 132.0
256.17453 200.0
256.244873 72.0
256.361084 120.0
256.375305 56.0
256.384064 172.0
256.40741 100.0
256.44928 84.0
256.480713 116.0
256.511322 144.0
256.55722 108.0
256.586517 272.0
256.620972 328.0
256.660919 144.0
256.691132 156.0
256.733551 116.0
256.800781 112.0
256.864899 188.0
256.900024 184.0
256.947449 148.0
257.003723 136.0
257.038269 116.0
257.07196 184.0
257.092072 292.0
257.131348 104.0
257.160095 156.0
257.203308 96.0
257.233093 180.0
257.315552 176.0
257.352661 160.0
257.398315 160.0
257.44104 124.0
257.464417 224.0
257.501709 76.0
257.527466 304.0
257.645447 44.0
257.677399 84.0
257.702942 296.0
257.732666 108.0
257.77597 132.0
257.79776 184.0
257.85614 132.0
257.877716 220.0
257.906921 128.0
258.037415 80.0
258.078339 96.0
258.088104 200.0
258.170044 212.0
258.233612 52.0
258.283875 184.0
258.295746 132.0
258.334778 164.0
258.348389 104.0
258.359863 160.0
258.392853 104.0
258.43515 144.0
258.486206 104.0
258.52475 212.0
258.567932 96.0
258.604736 160.0
258.652771 164.0
258.676392 208.0
258.695801 144.0
258.729858 140.0
258.757507 116.0
258.806427 124.0
258.848053 140.0
258.898773 100.0
258.928772 232.0
258.951904 140.0
258.991302 132.0
259.0242 112.0
259.084625 3492.0
259.204346 208.0
259.215179 144.0
259.248474 96.0
259.279358 88.0
259.350098 96.0
259.384552 160.0
259.407715 88.0
259.432312 212.0
259.460022 76.0
259.519531 92.0
259.540161 120.0
259.575439 88.0
259.61319 140.0
259.655609 184.0
259.677582 116.0
259.686981 92.0
259.738464 168.0
259.758026 112.0
259.816467 248.0
259.875 100.0
259.921753 188.0
259.941925 112.0
259.951477 144.0
259.97937 92.0
260.03598 240.0
260.093964 8460.0
260.163788 160.0
260.197906 40.0
260.249268 184.0
260.273987 196.0
260.311981 72.0
260.358459 232.0
260.406128 152.0
260.431274 148.0
260.488037 104.0
260.511841 148.0
260.555298 204.0
260.577942 132.0
260.587646 80.0
260.616119 148.0
260.668152 148.0
260.718994 52.0
260.791992 64.0
260.878967 120.0
260.927887 124.0
260.981842 48.0
261.03006 188.0
261.097504 1920.0
261.154327 132.0
261.200531 56.0
261.225372 208.0
261.262451 124.0
261.308624 60.0
261.352325 164.0
261.397156 104.0
261.43219 132.0
261.471405 196.0
261.528748 124.0
261.612427 200.0
261.658173 156.0
261.704193 80.0
261.74585 192.0
261.759308 128.0
261.768402 160.0
261.782288 144.0
261.818512 140.0
261.896393 172.0
261.944122 80.0
261.994904 52.0
262.038666 204.0
262.083679 252.0
262.155243 144.0
262.216095 272.0
262.301788 244.0
262.329224 148.0
262.372711 40.0
262.411407 132.0
262.44043 160.0
262.480133 128.0
262.508148 68.0
262.570801 112.0
262.601654 96.0
262.637146 108.0
262.672852 116.0
262.704865 100.0
262.741119 344.0
262.81723 92.0
262.843597 108.0
262.902374 112.0
262.927521 136.0
262.950104 108.0
263.008209 116.0
263.072754 212.0
263.122437 252.0
263.188995 56.0
263.21817 308.0
263.26889 140.0
263.354645 136.0
263.431213 236.0
263.477966 184.0
263.535553 180.0
263.584015 260.0
263.648987 100.0
263.69165 100.0
263.736389 116.0
263.787506 156.0
263.827759 148.0
263.855011 116.0
263.890839 112.0
263.933075 168.0
263.954285 132.0
264.005737 108.0
264.098969 2292.0
264.156281 100.0
264.25235 92.0
264.304138 48.0
264.351074 308.0
264.410919 48.0
264.436798 76.0
264.519623 240.0
264.55011 116.0
264.61557 124.0
264.650452 192.0
264.673126 56.0
264.700806 116.0
264.773499 160.0
264.812378 176.0
264.839325 148.0
264.865814 124.0
264.919281 60.0
264.941956 72.0
264.983948 108.0
265.104584 896.0
265.171997 88.0
265.194702 36.0
265.217377 120.0
265.272095 132.0
265.304901 92.0
265.347046 80.0
265.373627 396.0
265.405426 152.0
265.434601 184.0
265.483948 108.0
265.522156 76.0
265.584503 196.0
265.613434 184.0
265.670074 120.0
265.739136 148.0
265.811737 224.0
265.862793 232.0
265.914917 128.0
265.96991 52.0
265.99588 36.0
266.073303 148.0
266.108551 84.0
266.141968 324.0
266.207703 48.0
266.253235 152.0
266.278351 100.0
266.301086 140.0
266.365479 160.0
266.399963 184.0
266.554474 44.0
266.614746 96.0
266.673248 88.0
266.679443 80.0
266.693787 152.0
266.70874 112.0
266.723114 104.0
266.738953 304.0
266.835236 116.0
266.857788 152.0
266.885956 152.0
266.943695 164.0
266.992523 128.0
267.032349 120.0
267.067505 140.0
267.097076 672.0
267.120087 376.0
267.158936 172.0
267.164703 164.0
267.299133 272.0
267.321899 176.0
267.392181 160.0
267.466888 88.0
267.493317 144.0
267.517181 200.0
267.538971 180.0
267.599182 176.0
267.639435 164.0
267.751617 128.0
267.830872 116.0
267.877991 136.0
267.944672 148.0
267.982758 100.0
268.04538 160.0
268.107574 256.0
268.165375 132.0
268.197968 132.0
268.220795 64.0
268.305237 124.0
268.350128 136.0
268.429443 212.0
268.452271 156.0
268.514252 144.0
268.561859 172.0
268.583282 352.0
268.595978 68.0
268.603271 184.0
268.638184 160.0
268.693634 112.0
268.725739 124.0
268.753387 168.0
268.845032 172.0
268.8927 68.0
268.938385 160.0
269.044556 284.0
269.095703 144.0
269.141907 160.0
269.224731 144.0
269.274689 80.0
269.333435 172.0
269.387909 84.0
269.421661 192.0
269.447815 104.0
269.477448 168.0
269.559082 192.0
269.59314 120.0
269.653656 192.0
269.683441 148.0
269.725586 156.0
269.768066 140.0
269.802307 208.0
269.834534 132.0
269.90213 136.0
269.944153 108.0
269.965515 124.0
270.046021 136.0
270.119202 84.0
270.15274 176.0
270.189941 128.0
270.213562 92.0
270.235748 176.0
270.315216 272.0
270.328949 148.0
270.337677 200.0
270.373169 52.0
270.40918 216.0
270.448456 48.0
270.509674 268.0
270.556458 160.0
270.608856 108.0
270.69809 112.0
270.750061 188.0
270.803223 68.0
270.92392 296.0
270.983856 132.0
271.041199 172.0
271.15918 128.0
271.194427 160.0
271.230133 136.0
271.287506 188.0
271.324036 176.0
271.385376 84.0
271.447662 88.0
271.481995 140.0
271.517303 104.0
271.560822 252.0
271.59201 252.0
271.618408 144.0
271.774048 112.0
271.822479 92.0
271.857727 136.0
271.880676 240.0
271.90152 104.0
271.945312 360.0
272.040527 40.0
272.088593 164.0
272.112854 132.0
272.133667 128.0
272.215912 172.0
272.272919 228.0
272.284973 140.0
272.295441 296.0
272.327179 72.0
272.360962 168.0
272.446106 176.0
272.49472 68.0
272.548615 112.0
272.570648 92.0
272.601257 172.0
272.629456 68.0
272.669312 136.0
272.71283 228.0
272.743378 192.0
272.783905 124.0
272.815094 108.0
272.879242 160.0
272.914825 108.0
272.948669 104.0
273.025665 160.0
273.081299 172.0
273.111206 264.0
273.145508 132.0
273.175507 140.0
273.224579 112.0
273.250916 304.0
273.273712 176.0
273.284454 160.0
273.299133 116.0
273.331238 232.0
273.385712 132.0
273.389465 160.0
273.425293 124.0
273.468811 148.0
273.570129 92.0
273.614716 140.0
273.634247 144.0
273.70105 104.0
273.732666 176.0
273.784149 44.0
273.822174 124.0
273.835297 68.0
273.921051 84.0
273.969086 216.0
274.004822 148.0
274.070251 112.0
274.103271 148.0
274.143219 108.0
274.167664 48.0
274.210754 104.0
274.251984 56.0
274.332489 200.0
274.360748 124.0
274.400421 216.0
274.426422 92.0
274.46048 124.0
274.489349 88.0
274.534668 92.0
274.575104 84.0
274.599335 88.0
274.650726 60.0
274.672546 124.0
274.741089 208.0
274.769714 208.0
274.813965 144.0
274.862976 192.0
274.90274 136.0
274.945923 180.0
274.959015 152.0
275.009399 272.0
275.06488 180.0
275.07843 80.0
275.094025 144.0
275.149231 72.0
275.173279 180.0
275.195465 100.0
275.224121 100.0
275.360565 116.0
275.392395 196.0
275.421661 160.0
275.449738 60.0
275.486084 88.0
275.532806 168.0
275.547119 152.0
275.608337 76.0
275.63147 112.0
275.737213 108.0
275.76947 84.0
275.791809 100.0
275.815948 112.0
275.852905 108.0
275.89917 100.0
275.95752 180.0
276.001678 96.0
276.06424 152.0
276.077484 176.0
276.089966 240.0
276.127319 100.0
276.176941 180.0
276.213623 216.0
276.258362 168.0
276.421112 164.0
276.469513 248.0
276.493591 148.0
276.634064 136.0
276.666931 108.0
276.718658 172.0
276.772491 108.0
276.805725 84.0
276.865356 132.0
276.901764 228.0
276.93158 104.0
276.96402 76.0
277.01062 264.0
277.033051 140.0
277.073975 264.0
277.100952 276.0
277.13916 144.0
277.187073 132.0
277.246338 148.0
277.29657 152.0
277.352386 236.0
277.37558 132.0
277.420563 176.0
277.44519 80.0
277.528839 156.0
277.5578 112.0
277.572449 144.0
277.645264 188.0
277.703857 140.0
277.749603 136.0
277.760101 108.0
277.794098 136.0
277.817841 132.0
277.863068 160.0
277.892914 52.0
277.93338 128.0
277.957886 120.0
278.008911 92.0
278.043457 120.0
278.068787 188.0
278.09906 428.0
278.214661 136.0
278.269409 144.0
278.282104 188.0
278.344055 172.0
278.372833 96.0
278.385162 136.0
278.412842 220.0
278.453644 144.0
278.500427 124.0
278.534088 120.0
278.634796 80.0
278.693756 140.0
278.728516 128.0
278.765686 248.0
278.792786 108.0
278.821381 200.0
278.845459 80.0
278.885864 168.0
278.939026 208.0
278.960938 156.0
279.006409 148.0
279.036652 144.0
279.101349 644.0
279.202026 164.0
279.30481 160.0
279.361359 64.0
279.384644 264.0
279.441193 180.0
279.497772 136.0
279.539734 144.0
279.567627 160.0
279.592438 80.0
279.598816 108.0
279.621277 172.0
279.706604 148.0
279.76181 216.0
279.790649 148.0
279.823364 116.0
279.854828 160.0
279.887207 52.0
279.924683 124.0
280.023743 104.0
280.106659 724.0
280.209564 144.0
280.297791 92.0
280.347015 120.0
280.403534 204.0
280.530212 92.0
280.570221 196.0
280.646881 164.0
280.674896 152.0
280.716919 52.0
280.770264 176.0
280.797974 308.0
280.813263 148.0
280.819824 164.0
280.825378 176.0
280.863678 140.0
280.910736 228.0
280.960388 84.0
280.983765 32.0
281.030457 148.0
281.065613 248.0
281.11676 404.0
281.153931 116.0
281.19397 168.0
281.234039 152.0
281.28183 124.0
281.314148 76.0
281.359222 68.0
281.411041 156.0
281.425018 112.0
281.433105 108.0
281.457703 116.0
281.509064 344.0
281.523376 132.0
281.534454 300.0
281.581268 284.0
281.616486 124.0
281.66925 176.0
281.744934 136.0
281.810577 160.0
281.862823 212.0
281.901703 184.0
282.027802 92.0
282.060791 116.0
282.127289 2280.0
282.169128 412.0
282.2099 136.0
282.24292 184.0
282.267883 180.0
282.299774 100.0
282.335815 108.0
282.378143 92.0
282.44455 180.0
282.487976 308.0
282.547302 144.0
282.667053 176.0
282.74472 84.0
282.781403 120.0
282.864838 108.0
282.874542 96.0
282.908722 356.0
282.943878 136.0
282.968994 100.0
283.008057 112.0
283.057465 112.0
283.130646 700.0
283.176605 108.0
283.206726 92.0
283.262451 120.0
283.30722 120.0
283.342529 164.0
283.373444 136.0
283.402954 180.0
283.461273 292.0
283.522614 244.0
283.551849 128.0
283.610443 132.0
283.634064 136.0
283.666534 164.0
283.68927 200.0
283.75351 248.0
283.809967 92.0
283.887238 240.0
283.947998 292.0
283.987701 96.0
284.088318 44.0
284.125824 44.0
284.149323 152.0
284.209106 40.0
284.234344 160.0
284.261292 164.0
284.30307 208.0
284.329895 96.0
284.401581 124.0
284.447388 140.0
284.504974 104.0
284.578674 336.0
284.619751 116.0
284.657562 116.0
284.689331 196.0
284.742859 52.0
284.769348 112.0
284.80658 148.0
284.888123 260.0
284.947754 112.0
284.998138 124.0
285.056519 108.0
285.068817 140.0
285.100311 132.0
285.174225 164.0
285.199799 128.0
285.230194 144.0
285.25946 128.0
285.302887 256.0
285.355652 308.0
285.399078 300.0
285.449127 256.0
285.475464 204.0
285.50238 116.0
285.574341 100.0
285.596558 128.0
285.662598 144.0
285.692657 152.0
285.810486 144.0
285.834229 216.0
285.897888 156.0
285.932983 36.0
285.98349 288.0
286.027252 184.0
286.089783 44.0
286.144836 116.0
286.183167 180.0
286.212921 280.0
286.290466 156.0
286.325073 140.0
286.348541 132.0
286.36322 56.0
286.375854 120.0
286.407166 96.0
286.412262 80.0
286.512085 188.0
286.566071 168.0
286.640198 100.0
286.680054 144.0
286.721069 140.0
286.748016 120.0
286.802429 140.0
286.835663 208.0
286.879059 292.0
286.904114 140.0
286.966461 280.0
286.971222 224.0
286.999786 332.0
287.095276 104.0
287.13089 100.0
287.263641 176.0
287.320068 152.0
287.375 160.0
287.405609 104.0
287.435974 108.0
287.477936 148.0
287.506836 96.0
287.53244 144.0
287.567596 200.0
287.682373 192.0
287.72287 132.0
287.752533 240.0
287.788605 188.0
287.901825 56.0
287.997772 108.0
288.063141 212.0
288.097412 116.0
288.151489 132.0
288.199188 160.0
288.243011 180.0
288.290314 60.0
288.334259 116.0
288.361298 272.0
288.397339 80.0
288.40274 256.0
288.426392 140.0
288.458679 84.0
288.468262 68.0
288.481506 128.0
288.596924 176.0
288.638489 80.0
288.661163 104.0
288.692596 80.0
288.733185 152.0
288.795959 224.0
288.834656 184.0
288.895538 108.0
288.91803 124.0
288.944916 128.0
289.016846 180.0
289.047791 172.0
289.093414 184.0
289.172089 104.0
289.227173 128.0
289.332794 196.0
289.421814 248.0
289.453796 216.0
289.524506 180.0
289.582672 124.0
289.649597 180.0
289.727295 244.0
289.762207 124.0
289.819794 120.0
289.897736 176.0
289.920288 116.0
289.955353 148.0
289.980469 156.0
290.0495 216.0
290.073914 184.0
290.136139 156.0
290.174713 96.0
290.208832 136.0
290.246246 236.0
290.271118 164.0
290.281677 220.0
290.35379 152.0
290.364563 80.0
290.377197 168.0
290.408112 184.0
290.545349 216.0
290.623291 144.0
290.667511 200.0
290.705353 208.0
290.736511 296.0
290.789673 120.0
290.824799 240.0
290.89151 72.0
290.939789 176.0
290.962799 224.0
290.993347 108.0
291.01712 192.0
291.106079 1124.0
291.177338 156.0
291.27475 108.0
291.363525 100.0
291.430481 160.0
291.47226 72.0
291.50827 308.0
291.545471 332.0
291.599487 100.0
291.641907 128.0
291.718628 172.0
291.750366 296.0
291.807556 184.0
291.821747 92.0
291.832855 144.0
291.871582 92.0
291.929016 152.0
291.961609 116.0
292.012787 100.0
292.042419 196.0
292.110413 4548.0
292.256561 284.0
292.325958 224.0
292.362427 104.0
292.392639 204.0
292.432404 184.0
292.546173 248.0
292.590118 168.0
292.647247 232.0
292.692596 84.0
292.703033 192.0
292.718506 180.0
292.728577 60.0
292.764893 184.0
292.801849 80.0
292.837952 124.0
292.870483 156.0
292.914764 116.0
292.951111 120.0
292.966492 176.0
293.030426 224.0
293.118011 9168.0
293.188507 120.0
293.24527 124.0
293.279358 164.0
293.303223 48.0
293.330475 176.0
293.415009 156.0
293.420288 236.0
293.451172 200.0
293.487213 148.0
293.529236 164.0
293.56308 108.0
293.625702 148.0
293.672607 108.0
293.783569 92.0
293.824982 156.0
293.87381 200.0
293.914673 152.0
293.95105 192.0
293.979767 140.0
294.017456 204.0
294.12677 17600.0
294.196503 100.0
294.265015 124.0
294.304169 100.0
294.361908 260.0
294.394989 28.0
294.438965 96.0
294.492493 172.0
294.535004 144.0
294.560028 304.0
294.588348 124.0
294.630676 176.0
294.655609 172.0
294.691528 148.0
294.719482 52.0
294.743408 84.0
294.77417 64.0
294.799347 116.0
294.836273 352.0
294.878662 172.0
294.951874 44.0
294.979218 200.0
295.037506 468.0
295.076874 144.0
295.133911 9428.0
295.237183 176.0
295.260345 108.0
295.299255 168.0
295.336548 152.0
295.371368 200.0
295.407501 152.0
295.443237 116.0
295.482727 136.0
295.542694 164.0
295.611969 212.0
295.642609 156.0
295.690674 168.0
295.730713 80.0
295.755981 152.0
295.788605 156.0
295.817322 180.0
295.847687 124.0
295.918945 188.0
295.992157 184.0
296.021027 32.0
296.055908 144.0
296.134064 1936.0
296.223114 240.0
296.273285 164.0
296.349274 132.0
296.378967 172.0
296.437225 40.0
296.464661 144.0
296.531281 128.0
296.594879 148.0
296.622314 132.0
296.719238 248.0
296.769806 144.0
296.810883 124.0
296.857147 240.0
296.946686 80.0
297.002747 80.0
297.031464 136.0
297.064941 96.0
297.137299 292.0
297.222656 80.0
297.255798 240.0
297.284973 96.0
297.350159 192.0
297.430389 104.0
297.51709 140.0
297.549683 240.0
297.561462 136.0
297.570343 208.0
297.608276 100.0
297.637817 88.0
297.696198 116.0
297.727081 160.0
297.754578 120.0
297.831238 212.0
297.907318 296.0
297.938141 108.0
297.988922 180.0
298.025757 108.0
298.047638 140.0
298.101532 100.0
298.129028 84.0
298.165619 136.0
298.206421 140.0
298.248291 356.0
298.319733 132.0
298.394501 120.0
298.434174 124.0
298.519409 168.0
298.579102 200.0
298.591553 172.0
298.630432 124.0
298.689819 144.0
298.721649 132.0
298.780212 108.0
298.815704 108.0
298.878876 188.0
298.979614 220.0
299.004913 168.0
299.061066 168.0
299.109344 144.0
299.191864 136.0
299.218475 148.0
299.295166 92.0
299.364014 184.0
299.387115 276.0
299.417084 80.0
299.463898 76.0
299.522461 112.0
299.554565 160.0
299.607086 184.0
299.616913 104.0
299.63446 124.0
299.640472 168.0
299.712158 128.0
299.739502 144.0
299.767059 88.0
299.863464 288.0
299.908356 196.0
299.935944 136.0
299.966949 108.0
299.997986 140.0
300.042542 136.0
300.052643 80.0
300.118652 148.0
300.181824 88.0
300.213531 312.0
300.256409 152.0
300.292542 140.0
300.360077 68.0
300.400818 136.0
300.453217 100.0
300.492157 68.0
300.556702 124.0
300.61261 180.0
300.642975 92.0
300.689453 112.0
300.773834 140.0
300.822449 96.0
300.903503 208.0
300.953644 144.0
301.053772 200.0
301.084869 124.0
301.122864 56.0
301.164307 176.0
301.188477 108.0
301.219513 212.0
301.267914 52.0
301.30249 100.0
301.337036 108.0
301.372528 132.0
301.423706 84.0
301.457397 172.0
301.547821 132.0
301.586975 156.0
301.67572 144.0
301.755219 184.0
301.796906 132.0
301.818359 108.0
301.858063 164.0
301.881348 76.0
301.914276 76.0
301.941956 84.0
301.969604 292.0
302.004211 76.0
302.03186 72.0
302.085022 220.0
302.096039 80.0
302.135651 144.0
302.168762 232.0
302.24881 164.0
302.314758 184.0
302.357117 144.0
302.388245 208.0
302.521606 68.0
302.574127 132.0
302.595062 272.0
302.644409 152.0
302.721802 208.0
302.783173 116.0
302.840607 208.0
302.872986 116.0
302.97467 56.0
303.016235 160.0
303.088562 196.0
303.104065 136.0
303.151886 164.0
303.181335 144.0
303.220825 132.0
303.272919 84.0
303.321838 96.0
303.348358 104.0
303.406036 228.0
303.445709 180.0
303.517578 108.0
303.559204 84.0
303.598053 136.0
303.656799 196.0
303.7276 200.0
303.784637 92.0
303.813354 144.0
303.843231 148.0
303.865234 120.0
303.912994 132.0
303.954651 120.0
304.013489 92.0
304.071716 180.0
304.109741 500.0
304.18631 164.0
304.302368 156.0
304.329498 144.0
304.381592 296.0
304.442108 132.0
304.489258 52.0
304.51825 204.0
304.540009 136.0
304.548889 164.0
304.608734 136.0
304.677155 208.0
304.732727 132.0
304.801392 140.0
304.878357 48.0
304.968719 92.0
305.018921 268.0
305.101196 164.0
305.162537 248.0
305.214783 240.0
305.314117 104.0
305.344391 140.0
305.449493 88.0
305.490295 96.0
305.525085 104.0
305.592804 148.0
305.647186 84.0
305.747986 192.0
305.845215 124.0
305.880035 76.0
305.913361 216.0
305.988739 152.0
306.012329 148.0
306.057007 148.0
306.062408 188.0
306.10202 256.0
306.127228 88.0
306.165527 64.0
306.197845 200.0
306.253662 224.0
306.288147 420.0
306.322998 172.0
306.348724 108.0
306.412842 76.0
306.443329 176.0
306.457703 132.0
306.471283 160.0
306.512482 144.0
306.582123 108.0
306.662354 160.0
306.716003 192.0
306.747375 72.0
306.831238 156.0
306.858948 84.0
306.897308 84.0
306.960052 92.0
307.027893 152.0
307.120544 1064.0
307.192017 284.0
307.219452 128.0
307.229309 160.0
307.270477 92.0
307.329407 156.0
307.368195 48.0
307.410065 84.0
307.470825 456.0
307.503601 124.0
307.513367 132.0
307.542664 192.0
307.595032 68.0
307.627869 148.0
307.640778 152.0
307.651917 164.0
307.66629 200.0
307.685425 112.0
307.699554 132.0
307.745209 264.0
307.784576 68.0
307.808014 112.0
307.842407 56.0
307.889557 168.0
307.919159 148.0
307.955322 268.0
308.017548 176.0
308.055725 108.0
308.062958 100.0
308.1297 11836.0
308.237305 208.0
308.248138 112.0
308.257324 172.0
308.287811 68.0
308.295441 148.0
308.320892 264.0
308.348969 232.0
308.371399 116.0
308.400665 160.0
308.439911 96.0
308.462433 176.0
308.526703 116.0
308.54718 208.0
308.581329 184.0
308.632782 188.0
308.685547 192.0
308.712555 112.0
308.764893 200.0
308.832977 152.0
308.857788 172.0
308.921448 320.0
308.976746 372.0
308.990692 184.0
309.006439 156.0
309.087036 296.0
309.138885 129128.0
309.207062 184.0
309.266937 248.0
309.310272 216.0
309.361847 268.0
309.413391 168.0
309.425598 308.0
309.43988 280.0
309.478973 52.0
309.483978 184.0
309.53653 292.0
309.593262 184.0
309.623749 120.0
309.652191 108.0
309.682861 116.0
309.716949 188.0
309.749786 204.0
309.778809 56.0
309.800781 288.0
309.814087 76.0
309.848358 180.0
309.891357 108.0
309.965607 432.0
309.975006 192.0
310.056702 256.0
310.140778 28592.0
310.221069 212.0
310.251312 144.0
310.358459 252.0
310.400513 396.0
310.442627 156.0
310.495605 108.0
310.558899 152.0
310.61676 124.0
310.712708 40.0
310.759369 172.0
310.807129 176.0
310.818909 116.0
310.877991 48.0
310.909302 108.0
310.934631 112.0
310.963531 180.0
310.989014 188.0
311.036682 296.0
311.142761 3924.0
311.2099 72.0
311.236023 32.0
311.288696 236.0
311.334473 112.0
311.376495 72.0
311.430939 72.0
311.478943 48.0
311.540497 228.0
311.58609 120.0
311.613617 244.0
311.640533 72.0
311.713867 240.0
311.769165 96.0
311.81488 140.0
311.847137 52.0
311.875397 252.0
311.899567 96.0
311.942871 164.0
311.979889 136.0
312.009491 192.0
312.050354 368.0
312.148132 484.0
312.224762 132.0
312.280762 116.0
312.347229 340.0
312.383301 140.0
312.416718 200.0
312.47403 232.0
312.528442 116.0
312.568146 236.0
312.618591 164.0
312.653656 384.0
312.683838 152.0
312.746826 64.0
312.795105 60.0
312.807037 28.0
312.816925 84.0
312.945801 104.0
312.987091 148.0
313.020508 164.0
313.063416 176.0
313.115509 152.0
313.179932 196.0
313.229279 68.0
313.273773 220.0
313.314636 88.0
313.376526 148.0
313.400452 152.0
313.430664 60.0
313.443481 140.0
313.480255 72.0
313.511597 348.0
313.555511 112.0
313.58606 160.0
313.636261 172.0
313.667999 268.0
313.736542 128.0
313.760986 136.0
313.78125 80.0
313.829193 100.0
313.869293 152.0
313.904816 244.0
313.960236 76.0
313.971771 112.0
313.985504 112.0
313.999573 148.0
314.03894 108.0
314.068359 80.0
314.118378 60.0
314.145264 140.0
314.169678 148.0
314.203552 112.0
314.255341 160.0
314.282867 148.0
314.325989 396.0
314.367462 200.0
314.382477 52.0
314.387421 112.0
314.495941 52.0
314.543213 196.0
314.586334 132.0
314.672455 128.0
314.731262 272.0
314.785431 124.0
314.848114 120.0
314.905518 84.0
315.003906 104.0
315.014557 32.0
315.032288 144.0
315.06842 100.0
315.110382 124.0
315.174683 104.0
315.207245 68.0
315.213562 144.0
315.295135 244.0
315.336548 140.0
315.378632 80.0
315.414307 96.0
315.46347 172.0
315.474487 156.0
315.516144 160.0
315.567017 144.0
315.605652 140.0
315.667816 68.0
315.692047 108.0
315.718384 208.0
315.769653 184.0
315.792023 68.0
315.83963 140.0
315.894379 168.0
315.992554 124.0
316.061493 36.0
316.108978 124.0
316.149963 160.0
316.177185 80.0
316.210938 192.0
316.273834 64.0
316.316315 60.0
316.341095 92.0
316.435638 124.0
316.457458 240.0
316.511292 104.0
316.54126 124.0
316.588928 156.0
316.67038 100.0
316.70871 220.0
316.77597 144.0
316.866577 156.0
316.911285 104.0
316.953094 160.0
317.031769 120.0
317.05954 136.0
317.106934 192.0
317.151703 104.0
317.226685 120.0
317.277313 260.0
317.371124 124.0
317.38501 92.0
317.428772 72.0
317.457153 84.0
317.481964 44.0
317.51239 104.0
317.549377 140.0
317.58847 188.0
317.636536 124.0
317.705444 52.0
317.733826 152.0
317.799652 272.0
317.865082 116.0
317.928101 196.0
317.938385 148.0
317.978333 172.0
318.013367 72.0
318.061829 136.0
318.114502 3876.0
318.158051 144.0
318.222656 248.0
318.258698 208.0
318.2883 184.0
318.318695 132.0
318.362061 72.0
318.451599 172.0
318.486389 180.0
318.545715 96.0
318.571625 120.0
318.632141 140.0
318.713501 56.0
318.742157 308.0
318.807159 232.0
318.850922 112.0
318.957275 120.0
318.987396 204.0
319.11853 5712.0
319.233429 176.0
319.275391 140.0
319.315277 108.0
319.387756 156.0
319.426361 144.0
319.471008 76.0
319.524719 84.0
319.556824 100.0
319.604553 68.0
319.678772 176.0
319.71228 204.0
319.735077 172.0
319.777039 160.0
319.84787 208.0
319.887177 296.0
319.925812 160.0
319.973358 196.0
320.022644 164.0
320.117096 2068.0
320.208313 364.0
320.270386 64.0
320.321808 40.0
320.410858 56.0
320.452789 156.0
320.489258 100.0
320.551483 216.0
320.624512 172.0
320.690125 140.0
320.799561 168.0
320.842102 108.0
320.867035 128.0
320.889832 112.0
320.929932 100.0
320.945038 64.0
320.953705 92.0
321.013062 180.0
321.137329 6084.0
321.235809 256.0
321.26178 116.0
321.30423 136.0
321.363251 156.0
321.454254 188.0
321.491913 152.0
321.530518 124.0
321.594635 124.0
321.637573 80.0
321.682709 180.0
321.704041 84.0
321.74115 180.0
321.804077 88.0
321.823212 44.0
321.862488 64.0
321.919647 124.0
321.950317 108.0
322.016724 84.0
322.057892 152.0
322.076416 140.0
322.141846 1288.0
322.226807 92.0
322.250549 68.0
322.271698 100.0
322.356873 128.0
322.412628 188.0
322.449188 52.0
322.529236 152.0
322.577026 168.0
322.657318 44.0
322.693756 92.0
322.739807 80.0
322.772003 128.0
322.822205 188.0
322.855316 164.0
322.902405 88.0
322.941071 152.0
323.004547 152.0
323.051086 72.0
323.140717 224.0
323.188599 116.0
323.220795 88.0
323.260162 48.0
323.276154 76.0
323.304138 184.0
323.335175 108.0
323.373901 148.0
323.393555 160.0
323.459473 52.0
323.550079 208.0
323.601898 84.0
323.678955 112.0
323.718353 92.0
323.78476 148.0
323.834534 100.0
323.904602 108.0
323.936829 136.0
323.965485 124.0
324.029968 136.0
324.067505 112.0
324.100647 208.0
324.160614 192.0
324.244965 120.0
324.298737 88.0
324.332489 176.0
324.360321 112.0
324.392761 120.0
324.435394 128.0
324.56012 232.0
324.5961 336.0
324.625671 188.0
324.655457 152.0
324.685059 128.0
324.73053 120.0
324.775604 44.0
324.85202 200.0
324.902405 128.0
325.012634 176.0
325.09082 308.0
325.118896 136.0
325.165802 128.0
325.205841 184.0
325.281342 152.0
325.371277 68.0
325.431732 48.0
325.475403 40.0
325.554413 36.0
325.608276 116.0
325.694489 128.0
325.719635 56.0
325.751953 88.0
325.830231 116.0
325.963928 128.0
325.994659 152.0
326.067902 56.0
326.081055 88.0
326.094788 88.0
326.102203 124.0
326.136444 168.0
326.175964 184.0
326.243774 96.0
326.298187 60.0
326.407257 156.0
326.4758 112.0
326.501587 164.0
326.546326 140.0
326.639832 80.0
326.666626 72.0
326.706238 148.0
326.714111 68.0
326.727783 124.0
326.772949 120.0
326.800262 368.0
326.825928 136.0
326.856171 76.0
326.920349 112.0
326.952148 100.0
326.964203 80.0
326.971893 112.0
327.024841 144.0
327.075226 88.0
327.157898 220.0
327.273376 176.0
327.343903 212.0
327.424469 128.0
327.576813 292.0
327.616577 144.0
327.643829 116.0
327.724152 252.0
327.752289 112.0
327.799805 152.0
327.939667 64.0
328.002655 144.0
328.034454 120.0
328.069885 160.0
328.141541 120.0
328.184082 200.0
328.277405 136.0
328.372314 92.0
328.408295 136.0
328.440857 40.0
328.513 84.0
328.54187 160.0
328.587463 144.0
328.628448 148.0
328.695984 156.0
328.769165 68.0
328.811615 240.0
328.858673 160.0
328.933929 124.0
328.977448 176.0
329.006927 156.0
329.056976 144.0
329.096558 288.0
329.198761 100.0
329.283936 48.0
329.293396 100.0
329.304535 140.0
329.367645 84.0
329.404297 124.0
329.46521 116.0
329.493347 144.0
329.503967 80.0
329.625031 188.0
329.727631 152.0
329.76236 96.0
329.816162 224.0
329.856323 56.0
329.896088 116.0
329.935852 144.0
329.967987 288.0
329.995697 200.0
330.055176 152.0
330.084351 168.0
330.109406 264.0
330.163666 148.0
330.239594 84.0
330.275757 96.0
330.308319 160.0
330.410614 132.0
330.46524 64.0
330.570618 152.0
330.702728 56.0
330.763 128.0
330.817383 200.0
330.846954 248.0
330.903473 212.0
330.917053 128.0
330.92749 152.0
330.973022 108.0
331.03714 156.0
331.101501 276.0
331.127075 156.0
331.159973 180.0
331.174683 132.0
331.189362 60.0
331.257202 120.0
331.310547 304.0
331.372986 88.0
331.412506 136.0
331.438812 344.0
331.484222 232.0
331.548584 188.0
331.600952 56.0
331.705811 172.0
331.738678 116.0
331.800323 76.0
331.854706 180.0
331.909088 112.0
331.951416 160.0
331.990875 128.0
332.025116 188.0
332.151611 136.0
332.18158 144.0
332.212128 424.0
332.242767 120.0
332.27179 96.0
332.308044 156.0
332.346161 164.0
332.386017 88.0
332.467407 136.0
332.486359 144.0
332.518524 60.0
332.564087 136.0
332.60321 128.0
332.682526 164.0
332.712921 160.0
332.772614 208.0
332.909607 44.0
332.954193 92.0
332.98172 176.0
333.01593 148.0
333.056213 92.0
333.085785 144.0
333.157532 252.0
333.162231 248.0
333.203156 140.0
333.278015 136.0
333.310181 144.0
333.361359 220.0
333.405792 64.0
333.448273 112.0
333.484619 164.0
333.560944 200.0
333.622986 132.0
333.670624 96.0
333.704773 116.0
333.767914 164.0
333.827972 248.0
333.924072 160.0
333.977295 136.0
334.069885 88.0
334.12793 240.0
334.178589 224.0
334.206299 232.0
334.247192 76.0
334.313843 60.0
334.34906 100.0
334.392517 252.0
334.45636 340.0
334.491272 276.0
334.577332 192.0
334.608215 96.0
334.640808 332.0
334.740509 152.0
334.783447 120.0
334.840912 188.0
334.8927 112.0
334.933777 208.0
334.988586 112.0
335.035034 124.0
335.086182 360.0
335.118011 272.0
335.144073 176.0
335.179474 164.0
335.220093 120.0
335.262421 100.0
335.323608 296.0
335.358887 172.0
335.420044 136.0
335.466187 176.0
335.518463 208.0
335.540649 220.0
335.578827 84.0
335.647827 108.0
335.694336 208.0
335.69986 244.0
335.715332 204.0
335.724274 176.0
335.754272 104.0
335.812012 312.0
335.852783 336.0
335.901031 272.0
335.947266 180.0
336.020996 436.0
336.060028 240.0
336.123779 4272.0
336.24823 516.0
336.294922 256.0
336.329346 316.0
336.383362 312.0
336.436981 412.0
336.472107 412.0
336.509216 272.0
336.562958 528.0
336.603363 428.0
336.614655 564.0
336.6521 336.0
336.678864 396.0
336.708191 416.0
336.736786 272.0
336.772949 572.0
336.797943 280.0
336.859772 1076.0
336.91629 764.0
336.966431 808.0
337.066772 2140.0
337.080627 1248.0
337.085388 2252.0
337.134857 443916.0
337.263367 228.0
337.38562 404.0
337.477081 1276.0
337.522827 572.0
337.572662 536.0
337.617828 508.0
337.688782 592.0
337.738037 11444.0
337.801331 476.0
337.848145 404.0
337.858856 472.0
337.931335 228.0
337.973083 376.0
337.979614 336.0
338.002075 348.0
338.010345 492.0
338.053558 508.0
338.136963 246880.0
338.226044 320.0
338.272949 128.0
338.345917 56.0
338.38028 288.0
338.413513 396.0
338.458588 244.0
338.490051 476.0
338.529877 252.0
338.585175 392.0
338.641235 140.0
338.684509 372.0
338.737671 576.0
338.784454 284.0
338.828491 144.0
338.885864 396.0
338.902008 220.0
338.909607 192.0
338.937531 192.0
338.97699 224.0
339.050781 280.0
339.139282 25476.0
339.219696 352.0
339.250397 136.0
339.280151 156.0
339.306763 208.0
339.313354 68.0
339.355682 156.0
339.421539 236.0
339.476593 164.0
339.51355 124.0
339.538971 156.0
339.569916 144.0
339.595428 176.0
339.608826 152.0
339.635071 104.0
339.664856 112.0
339.728607 96.0
339.785736 280.0
339.827789 136.0
339.880371 376.0
339.917084 304.0
339.962006 300.0
339.99765 268.0
340.030609 280.0
340.064117 340.0
340.143372 1680.0
340.201111 496.0
340.229584 340.0
340.237427 316.0
340.27179 452.0
340.347198 444.0
340.369141 392.0
340.379395 272.0
340.395691 636.0
340.405151 308.0
340.419281 360.0
340.436096 460.0
340.499115 344.0
340.539429 396.0
340.583344 368.0
340.621735 252.0
340.657837 220.0
340.727722 224.0
340.770752 188.0
340.82608 184.0
340.884766 172.0
340.934967 240.0
341.00708 52.0
341.019775 172.0
341.033264 156.0
341.046478 96.0
341.084625 68.0
341.109711 204.0
341.167114 248.0
341.205902 340.0
341.233063 160.0
341.285706 172.0
341.293182 136.0
341.322266 276.0
341.353699 172.0
341.367645 48.0
341.379303 368.0
341.431549 304.0
341.471252 232.0
341.527802 268.0
341.603729 136.0
341.663818 112.0
341.700226 308.0
341.762817 128.0
341.777466 200.0
341.820221 76.0
341.887878 164.0
341.919647 56.0
341.956604 116.0
342.010284 140.0
342.038696 72.0
342.074585 120.0
342.103271 176.0
342.174194 176.0
342.208771 216.0
342.342743 264.0
342.382751 76.0
342.449829 116.0
342.500977 100.0
342.592102 80.0
342.641724 92.0
342.671173 56.0
342.708221 96.0
342.767059 96.0
342.801575 124.0
342.847839 136.0
342.919495 48.0
342.963776 84.0
343.013641 116.0
343.073059 88.0
343.115784 56.0
343.230713 72.0
343.264709 52.0
343.311218 68.0
343.344391 72.0
343.414948 152.0
343.480164 84.0
343.5448 72.0
343.591553 148.0
343.634583 72.0
343.743469 64.0
343.812927 28.0
343.89325 68.0
343.945801 36.0
343.989044 56.0
344.010956 136.0
344.107544 300.0
344.215302 104.0
344.25769 84.0
344.315002 80.0
344.340851 36.0
344.380707 56.0
344.476593 32.0
344.529663 140.0
344.572266 112.0
344.601562 84.0
344.677032 76.0
344.713776 148.0
344.808228 64.0
344.926422 116.0
344.99118 44.0
345.048126 120.0
345.127991 36.0
345.19455 136.0
345.258759 152.0
345.309021 88.0
345.342468 44.0
345.419586 52.0
345.49118 80.0
345.582916 36.0
345.616211 132.0
345.64212 68.0
345.675873 132.0
345.723541 84.0
345.756836 136.0
345.793854 60.0
345.835815 48.0
345.867889 84.0
345.929565 108.0
345.936157 188.0
345.950806 120.0
345.988647 192.0
346.03952 76.0
346.089996 52.0
346.130737 136.0
346.163239 172.0
346.264038 88.0
346.312195 48.0
346.387909 100.0
346.414459 112.0
346.441833 28.0
346.471466 64.0
346.497406 60.0
346.601166 36.0
346.663025 196.0
346.716034 80.0
346.756805 44.0
346.836945 116.0
346.916199 84.0
346.98291 116.0
347.055084 156.0
347.117706 3376.0
347.17572 132.0
347.221832 84.0
347.278046 88.0
347.33255 84.0
347.433929 72.0
347.476166 144.0
347.509583 48.0
347.539246 56.0
347.565216 80.0
347.600159 68.0
347.643158 52.0
347.71521 164.0
347.787415 92.0
347.801819 80.0
347.816345 72.0
347.866577 200.0
347.895538 268.0
347.943787 68.0
347.993439 184.0
348.118683 716.0
348.170319 44.0
348.22821 88.0
348.272522 108.0
348.344879 144.0
348.44046 88.0
348.475433 192.0
348.509094 80.0
348.581787 68.0
348.607727 160.0
348.731049 208.0
348.79184 112.0
348.846527 84.0
348.891144 36.0
348.928314 48.0
349.052155 200.0
349.100098 108.0
349.192322 136.0
349.248138 152.0
349.292755 72.0
349.318787 40.0
349.400635 112.0
349.467621 52.0
349.550903 72.0
349.623901 32.0
349.70578 60.0
349.780212 116.0
349.807922 108.0
349.858398 88.0
349.96637 52.0
350.022217 52.0
350.052002 80.0
350.08551 96.0
350.112457 136.0
350.174622 108.0
350.252258 176.0
350.30899 68.0
350.365936 156.0
350.474121 112.0
350.562347 132.0
350.60556 100.0
350.642303 148.0
350.674133 68.0
350.734314 56.0
350.773987 128.0
350.834442 68.0
350.906647 120.0
350.971283 172.0
351.004425 88.0
351.046967 28.0
351.08017 128.0
351.14502 96.0
351.181213 52.0
351.216858 172.0
351.285645 44.0
351.330414 60.0
351.458496 180.0
351.497467 104.0
351.503357 80.0
351.537048 84.0
351.580414 52.0
351.606537 80.0
351.65506 48.0
351.703583 112.0
351.741241 160.0
351.811829 52.0
351.923828 92.0
351.949982 80.0
352.013458 100.0
352.065735 72.0
352.103088 152.0
352.156311 120.0
352.201569 76.0
352.263672 228.0
352.352295 144.0
352.38504 60.0
352.42807 60.0
352.454224 104.0
352.521057 68.0
352.544678 76.0
352.573792 196.0
352.611176 52.0
352.670959 152.0
352.734528 48.0
352.771912 28.0
352.827972 144.0
352.856537 96.0
352.895538 136.0
352.962585 88.0
353.007446 52.0
353.063538 120.0
353.093445 64.0
353.146942 80.0
353.217621 104.0
353.332855 56.0
353.471283 108.0
353.530792 64.0
353.587311 124.0
353.658417 92.0
353.710815 76.0
353.74826 108.0
353.831818 88.0
353.907349 96.0
353.957916 112.0
353.984131 116.0
354.044128 120.0
354.127533 68.0
354.161652 140.0
354.174774 128.0
354.268768 144.0
354.411133 92.0
354.498444 120.0
354.542297 84.0
354.624756 96.0
354.688477 72.0
354.747803 140.0
354.825653 60.0
354.910461 92.0
354.998627 116.0
355.03714 80.0
355.079773 132.0
355.115906 108.0
355.146973 112.0
355.247192 64.0
355.291046 144.0
355.322205 116.0
355.376526 76.0
355.404419 44.0
355.506073 68.0
355.581146 184.0
355.629913 100.0
355.713745 96.0
355.78006 168.0
355.803619 116.0
355.832642 56.0
355.880493 108.0
355.94104 92.0
356.076721 120.0
356.133057 48.0
356.178131 60.0
356.24115 184.0
356.309601 136.0
356.343414 168.0
356.377228 144.0
356.471161 88.0
356.520935 180.0
356.564087 44.0
356.651062 92.0
356.696655 36.0
356.746796 128.0
356.790649 100.0
356.862091 112.0
356.937286 216.0
356.970856 56.0
357.030548 60.0
357.077667 216.0
357.147888 48.0
357.204315 76.0
357.234406 148.0
357.359222 132.0
357.411224 168.0
357.475189 92.0
357.574432 120.0
357.606903 92.0
357.640778 88.0
357.666718 72.0
357.772552 172.0
357.881714 152.0
357.941956 96.0
358.109497 164.0
358.142883 104.0
358.2146 92.0
358.254333 64.0
358.31485 44.0
358.360077 44.0
358.426422 124.0
358.469635 52.0
358.507019 164.0
358.563538 104.0
358.729401 84.0
358.845123 200.0
358.914124 48.0
358.940521 60.0
358.974457 220.0
359.004639 40.0
359.114014 196.0
359.156799 116.0
359.1875 180.0
359.284607 204.0
359.468323 196.0
359.57428 112.0
359.63092 100.0
359.681549 68.0
359.861176 64.0
359.9216 156.0
359.982025 120.0
360.019775 56.0
360.087738 92.0
360.128296 136.0
360.160675 108.0
360.21994 28.0
360.265289 88.0
360.389191 160.0
360.476868 68.0
360.544891 76.0
360.59024 36.0
360.813263 52.0
360.84729 68.0
360.885101 40.0
360.938019 52.0
361.258301 112.0
361.338959 60.0
361.410828 72.0
361.456238 72.0
361.482727 108.0
361.528137 96.0
361.601532 112.0
361.647583 128.0
361.70224 64.0
361.815796 84.0
361.842316 52.0
361.876373 116.0
361.902893 136.0
362.002838 132.0
362.077087 124.0
362.183136 68.0
362.230072 132.0
362.300568 92.0
362.421783 96.0
362.487976 120.0
362.550629 160.0
362.584747 48.0
362.743927 112.0
363.104126 112.0
363.134491 108.0
363.19516 72.0
363.225525 100.0
363.255585 164.0
363.339325 116.0
363.406555 116.0
363.502472 148.0
363.714355 116.0
363.741577 140.0
363.777191 176.0
363.804596 172.0
363.864471 160.0
363.901001 164.0
363.935181 60.0
363.992126 52.0
364.117737 2880.0
364.175903 72.0
364.207611 152.0
364.254944 40.0
364.305756 140.0
364.350555 176.0
364.432739 124.0
364.478333 28.0
364.516357 108.0
364.542938 76.0
364.736786 152.0
364.801392 60.0
364.854614 80.0
364.907837 72.0
364.968689 68.0
365.044739 104.0
365.126526 5000.0
365.373962 128.0
365.406067 144.0
365.432709 132.0
365.463135 108.0
365.539246 56.0
365.611542 96.0
365.721924 32.0
365.88559 120.0
365.996002 76.0
366.065033 156.0
366.128815 1520.0
366.232117 84.0
366.434753 204.0
366.51123 120.0
366.572906 80.0
366.649872 168.0
366.761749 144.0
366.837982 72.0
366.915894 176.0
367.04541 64.0
367.136475 628.0
367.165405 120.0
367.25592 140.0
367.324677 140.0
367.488129 84.0
367.519989 116.0
367.574066 92.0
367.665649 40.0
367.781433 96.0
367.974854 56.0
368.062653 208.0
368.12735 128.0
368.154663 132.0
368.184875 188.0
368.443268 136.0
368.470825 88.0
368.484161 136.0
368.620911 164.0
368.654755 52.0
368.689148 56.0
368.731201 108.0
368.821014 32.0
368.839569 156.0
368.895538 56.0
368.972015 44.0
369.063751 72.0
369.158905 884.0
369.247314 60.0
369.434753 36.0
369.489349 132.0
369.530396 136.0
369.583008 160.0
369.671967 44.0
369.733185 44.0
370.062378 52.0
370.158112 112.0
370.27301 56.0
370.485992 168.0
370.657013 88.0
370.740387 112.0
370.801697 112.0
370.859192 108.0
370.943512 72.0
370.993347 104.0
371.039368 44.0
371.123718 32.0
371.168701 60.0
371.198486 128.0
371.254089 48.0
371.34613 188.0
371.555298 68.0
371.599304 188.0
371.699066 88.0
371.745117 96.0
371.998413 100.0
372.067535 72.0
372.113586 120.0
372.219208 196.0
372.294067 76.0
372.374725 128.0
372.444885 120.0
372.602783 96.0
372.824219 112.0
372.853271 156.0
372.930511 152.0
372.974091 112.0
373.120178 100.0
373.303314 76.0
373.378998 152.0
373.444763 132.0
373.539337 136.0
373.597046 136.0
373.687378 128.0
373.883301 232.0
374.0112 64.0
374.11734 60.0
374.201263 100.0
374.355286 152.0
374.416901 164.0
374.479431 68.0
374.634735 72.0
374.690399 52.0
374.725067 64.0
374.900726 136.0
374.979401 40.0
375.060333 184.0
375.172119 68.0
375.256927 148.0
375.317535 196.0
375.382996 116.0
375.465179 128.0
375.721344 96.0
375.893372 112.0
376.140381 84.0
376.278198 84.0
376.383606 104.0
376.503296 120.0
376.700287 88.0
376.769806 108.0
376.823914 84.0
376.862549 76.0
376.993927 48.0
377.12146 112.0
377.229706 68.0
377.256744 364.0
377.399811 88.0
377.434601 80.0
377.484863 124.0
377.655029 72.0
377.829102 116.0
377.910431 164.0
378.192841 132.0
378.258636 100.0
378.294159 136.0
378.400146 152.0
378.593506 132.0
378.626465 148.0
378.696564 124.0
378.777527 104.0
378.808533 96.0
378.959595 132.0
379.048737 96.0
379.088623 164.0
379.140778 1212.0
379.38205 68.0
379.656281 88.0
379.731018 104.0
379.859009 156.0
380.018066 56.0
380.076294 108.0
380.144775 304.0
380.305237 92.0
380.512756 44.0
380.580872 124.0
380.66394 72.0
380.73233 72.0
380.922638 52.0
380.965363 104.0
381.037231 60.0
381.105957 108.0
381.173889 140.0
381.217926 28.0
381.443481 100.0
381.563843 28.0
381.606628 136.0
381.75827 144.0
381.929382 84.0
382.131683 108.0
382.240631 84.0
382.305237 152.0
382.442993 40.0
382.501373 140.0
382.657104 132.0
382.734955 60.0
382.847046 112.0
382.953033 44.0
382.980316 156.0
383.011475 104.0
383.132599 84.0
383.235321 200.0
383.307556 152.0
383.486115 148.0
383.575562 104.0
383.599579 108.0
383.609039 168.0
383.685638 172.0
383.716827 148.0
383.919586 80.0
384.059967 84.0
384.08728 48.0
384.136047 168.0
384.184814 136.0
384.231628 140.0
384.329163 172.0
384.473541 176.0
384.500854 88.0
384.610138 112.0
384.699921 124.0
384.895142 108.0
384.961517 52.0
385.106018 136.0
385.238831 120.0
385.354523 136.0
385.410736 32.0
385.516235 228.0
385.672577 48.0
385.846405 136.0
385.931671 72.0
386.016602 168.0
386.083069 48.0
386.169128 144.0
386.223877 108.0
386.278656 40.0
386.384277 32.0
386.466431 84.0
386.685577 108.0
386.712982 120.0
386.943939 60.0
386.974884 132.0
387.026154 64.0
387.131866 124.0
387.163208 120.0
387.199768 48.0
387.207581 120.0
387.613708 120.0
387.664642 152.0
387.805725 96.0
387.91156 116.0
387.964905 72.0
388.229126 156.0
388.291901 116.0
388.338959 124.0
388.39386 188.0
388.472321 44.0
388.676331 156.0
388.706024 56.0
388.794067 180.0
389.002075 44.0
389.068817 76.0
389.123779 132.0
389.174805 180.0
389.2117 92.0
389.420807 180.0
389.5047 112.0
389.555756 168.0
389.708984 52.0
389.78363 148.0
389.940826 140.0
389.980133 32.0
390.048492 112.0
390.495178 96.0
390.573853 128.0
390.727264 56.0
390.774475 56.0
390.868927 228.0
390.902985 116.0
390.955505 80.0
391.089905 184.0
391.122772 88.0
391.231018 72.0
391.30188 100.0
391.360931 56.0
391.446655 140.0
391.557831 48.0
391.656281 168.0
391.699615 140.0
391.782349 80.0
391.838257 124.0
391.985199 140.0
392.07785 136.0
392.15274 344.0
392.188232 100.0
392.29245 108.0
392.320221 100.0
392.429291 52.0
392.499664 96.0
392.568481 204.0
392.700775 104.0
392.815186 80.0
392.846741 156.0
392.878296 64.0
392.961151 108.0
392.996643 96.0
393.115021 76.0
393.214417 172.0
393.320251 48.0
393.383423 44.0
393.428925 144.0
393.679535 36.0
393.715088 52.0
393.837524 56.0
393.909363 84.0
393.936249 140.0
394.023163 48.0
394.058746 104.0
394.120636 180.0
394.297729 192.0
394.439606 96.0
394.493439 124.0
394.539154 156.0
394.591553 176.0
394.671356 144.0
394.699036 188.0
394.761169 140.0
394.845367 96.0
394.920502 68.0
394.968628 76.0
395.041595 216.0
395.084106 112.0
395.139313 372.0
395.23468 140.0
395.292389 72.0
395.320068 88.0
395.370056 64.0
395.428741 148.0
395.476868 136.0
395.511047 128.0
395.551575 204.0
395.602509 132.0
395.664032 80.0
395.712402 140.0
395.755493 40.0
395.783203 96.0
395.837646 552.0
395.899597 316.0
395.931 176.0
395.943634 180.0
395.972565 300.0
396.063477 104.0
396.144867 388.0
396.182892 92.0
396.208405 260.0
396.255951 184.0
396.298126 112.0
396.333618 88.0
396.361511 320.0
396.403625 148.0
396.450806 180.0
396.515778 184.0
396.572571 252.0
396.609314 324.0
396.628845 160.0
396.659271 568.0
396.705841 100.0
396.735901 316.0
396.798248 256.0
396.847137 240.0
396.889832 408.0
396.933777 344.0
396.961731 420.0
396.998962 344.0
397.031464 468.0
397.105927 1696.0
397.155609 238968.0
397.296997 304.0
397.364288 24.0
397.428558 496.0
397.462311 172.0
397.526886 324.0
397.532532 260.0
397.609924 200.0
397.646118 388.0
397.682037 208.0
397.690399 184.0
397.762604 348.0
397.81015 2392.0
397.864655 672.0
397.973816 284.0
398.043823 292.0
398.055725 240.0
398.101135 632.0
398.158234 90268.0
398.262634 132.0
398.272247 240.0
398.334808 56.0
398.389618 80.0
398.425751 260.0
398.43692 244.0
398.452759 268.0
398.505157 108.0
398.559753 116.0
398.593109 220.0
398.681763 172.0
398.749023 256.0
398.810364 192.0
398.892639 128.0
398.951477 64.0
399.000458 108.0
399.046112 200.0
399.159698 11368.0
399.223602 104.0
399.238159 160.0
399.282288 148.0
399.330963 40.0
399.372284 152.0
399.425446 116.0
399.481323 60.0
399.507935 184.0
399.521912 108.0
399.534363 108.0
399.591766 192.0
399.669708 112.0
399.729645 116.0
399.778503 240.0
399.825806 140.0
399.862701 80.0
399.932343 112.0
399.967834 84.0
400.013885 76.0
400.043121 96.0
400.088348 180.0
400.161865 1312.0
400.293243 76.0
400.35321 164.0
400.402313 192.0
400.455933 148.0
400.524475 112.0
400.59201 260.0
400.618744 296.0
400.659302 144.0
400.694977 188.0
400.704773 184.0
400.764069 272.0
400.80191 192.0
400.818085 176.0
400.847931 244.0
400.90741 132.0
400.938934 284.0
401.002441 124.0
401.092194 72.0
401.100098 184.0
401.190521 28.0
401.224609 80.0
401.250916 52.0
401.296234 168.0
401.334656 184.0
401.383301 120.0
401.425079 72.0
401.475861 120.0
401.521454 32.0
401.566162 104.0
401.579681 116.0
401.595673 136.0
401.645111 88.0
401.673462 72.0
401.729767 36.0
401.77063 220.0
401.797089 40.0
401.811951 136.0
401.841064 188.0
401.86792 92.0
401.907654 84.0
401.957031 212.0
402.017487 60.0
402.050232 56.0
402.089203 72.0
402.142365 136.0
402.205719 40.0
402.240662 84.0
402.315979 68.0
402.391357 36.0
402.431274 40.0
402.474396 120.0
402.551056 120.0
402.614471 76.0
402.664001 108.0
402.716125 132.0
402.742767 164.0
402.77597 124.0
402.850128 64.0
402.882568 48.0
402.911865 56.0
402.97287 80.0
402.990112 48.0
402.995911 76.0
403.066376 32.0
403.123108 80.0
403.170258 60.0
403.31015 40.0
403.338135 76.0
403.390076 56.0
403.478027 40.0
403.506012 56.0
403.533997 64.0
403.587067 60.0
403.645966 52.0
403.733948 64.0
403.805939 128.0
403.832581 72.0
403.989929 52.0
404.021942 76.0
404.149963 56.0
404.330017 52.0
404.3797 88.0
404.426086 64.0
404.540466 64.0
404.586212 80.0
404.647522 60.0
404.832214 76.0
404.862488 88.0
404.918549 56.0
404.966614 112.0
405.047302 56.0
405.129364 120.0
405.166901 52.0
405.295105 40.0
405.351196 52.0
405.409607 84.0
405.703094 100.0
405.852264 80.0
406.004639 64.0
406.072815 64.0
406.213196 32.0
406.393738 92.0
406.445892 68.0
406.490021 92.0
406.682678 64.0
406.723541 64.0
406.903442 92.0
406.967682 36.0
407.064056 36.0
407.356232 48.0
407.467255 52.0
407.658569 68.0
407.742981 104.0
407.78717 44.0
407.923218 52.0
408.020325 72.0
408.088684 64.0
408.25354 72.0
408.293762 100.0
408.386261 92.0
408.438538 60.0
408.514984 80.0
408.583374 84.0
408.659821 48.0
408.773102 104.0
408.901245 76.0
409.286591 144.0
409.513214 56.0
409.621979 64.0
409.706573 44.0
409.85968 60.0
409.988617 48.0
410.041016 48.0
410.078949 68.0
410.266754 72.0
410.331238 44.0
410.37558 68.0
410.460266 80.0
410.629639 72.0
410.710602 108.0
410.937469 116.0
411.089539 144.0
411.250641 96.0
411.310455 60.0
411.344025 76.0
411.45282 64.0
411.577972 68.0
411.630463 40.0
411.658722 100.0
411.723358 132.0
412.022247 64.0
412.131165 96.0
412.188507 116.0
412.274384 120.0
412.333405 120.0
412.466766 84.0
412.515289 44.0
412.656769 140.0
412.723633 156.0
412.76593 52.0
412.842773 72.0
412.947937 32.0
412.988373 84.0
413.046722 104.0
413.143829 84.0
413.271545 68.0
413.388885 44.0
413.421265 52.0
413.473877 68.0
413.532776 108.0
413.615295 64.0
413.69458 108.0
413.854401 88.0
413.951569 60.0
414.000854 48.0
414.040649 92.0
414.154053 56.0
414.389038 72.0
414.587585 136.0
414.652069 140.0
414.826721 68.0
415.199738 68.0
415.402527 48.0
415.479614 60.0
415.633789 80.0
415.714935 88.0
415.796112 60.0
416.039642 96.0
416.149261 28.0
416.396973 64.0
416.70163 80.0
416.750397 52.0
417.018585 88.0
417.262482 88.0
417.380402 92.0
417.441406 80.0
417.575592 104.0
417.656952 40.0
417.693542 152.0
417.73172 52.0
417.762695 32.0
417.848145 72.0
417.982422 132.0
418.051575 60.0
418.137054 56.0
418.267303 72.0
418.421997 52.0
418.454559 92.0
418.527832 120.0
418.788483 64.0
418.937042 160.0
419.228485 48.0
419.440399 48.0
419.566772 108.0
419.623871 100.0
419.705414 40.0
419.842804 92.0
419.937866 68.0
420.035736 96.0
420.194855 52.0
420.42334 92.0
420.762146 72.0
420.884613 68.0
421.084717 88.0
421.12149 76.0
421.207245 80.0
421.362488 88.0
421.448273 32.0
421.717987 88.0
421.771149 40.0
421.807922 92.0
421.852905 72.0
421.94693 84.0
421.986053 92.0
422.192261 44.0
422.805908 48.0
422.834564 88.0
423.227539 44.0
423.395416 120.0
423.759979 108.0
423.907501 124.0
423.99704 80.0
424.214905 76.0
424.292786 40.0
424.395294 72.0
424.784882 92.0
425.125427 56.0
425.236237 52.0
425.379913 108.0
425.535889 152.0
425.675507 48.0
425.761749 104.0
426.197174 72.0
426.361542 80.0
426.66571 48.0
426.694489 88.0
426.743835 120.0
427.307281 136.0
427.443085 64.0
427.53772 64.0
427.620026 64.0
427.690002 40.0
427.784668 104.0
427.941132 52.0
428.179962 144.0
428.596008 116.0
428.624847 92.0
428.748474 56.0
429.016785 44.0
429.197815 40.0
429.24231 76.0
429.416382 56.0
429.56485 72.0
429.660858 128.0
429.696869 64.0
429.762878 80.0
430.109558 100.0
430.274658 76.0
430.468719 88.0
430.592621 44.0
430.764679 116.0
431.17514 40.0
431.501709 64.0
431.836639 80.0
432.10553 52.0
432.304138 44.0
432.56488 80.0
432.643555 52.0
432.701508 72.0
432.937531 124.0
433.10733 104.0
433.248169 36.0
433.718323 112.0
433.803467 36.0
434.160034 64.0
434.46698 56.0
434.549957 92.0
434.620483 84.0
434.886078 40.0
435.072876 64.0
435.180817 48.0
435.521362 68.0
435.646851 56.0
435.758148 80.0
435.939484 56.0
436.273468 52.0
436.733551 128.0
436.918091 108.0
437.296753 64.0
437.55481 56.0
437.733856 44.0
438.287872 68.0
438.84259 44.0
438.931458 100.0
439.150818 128.0
439.271759 84.0
439.680664 60.0
439.947815 40.0
440.465607 44.0
440.912659 28.0
441.167633 72.0
441.276337 48.0
441.754608 44.0
442.21756 56.0
442.4729 48.0
442.682251 64.0
442.971252 88.0
443.017303 76.0
443.197479 56.0
444.367249 44.0
444.413422 92.0
444.627411 56.0
444.824677 60.0
444.854065 76.0
445.005219 72.0
445.265564 84.0
445.462982 64.0
445.979797 72.0
446.261475 64.0
446.850281 88.0
447.203766 92.0
447.33847 68.0
447.662659 68.0
447.734253 64.0
448.155487 120.0
448.277679 28.0
448.45047 64.0
448.501068 60.0
449.361328 80.0
449.411957 92.0
449.648285 28.0
449.947968 48.0
449.985962 104.0
450.29422 52.0
450.520294 84.0
451.23233 28.0
451.321106 72.0
451.435272 84.0
451.811707 56.0
452.289886 88.0
452.590485 72.0
452.785278 100.0
452.963165 92.0
453.026703 72.0
453.113007 116.0
453.149567 28.0
453.259735 52.0
453.437714 96.0
453.740784 96.0
453.819214 44.0
453.912506 72.0
454.440979 108.0
455.019928 36.0
455.359619 48.0
455.856659 52.0
456.324219 48.0
456.396515 56.0
456.438171 140.0
456.596375 108.0
456.664429 48.0
456.779266 48.0
456.936676 64.0
457.111115 128.0
457.332428 120.0
457.724091 52.0
457.800751 52.0
458.21817 64.0
458.524963 116.0
458.716766 48.0
459.450256 76.0
460.24411 52.0
460.393555 76.0
460.568665 32.0
460.760895 100.0
461.102753 136.0
461.410522 68.0
461.628571 80.0
462.163269 92.0
462.23172 84.0
462.368652 112.0
462.505615 52.0
462.843842 48.0
462.886658 88.0
462.985138 84.0
463.09436 100.0
463.203583 96.0
463.68158 76.0
463.936371 96.0
464.232208 48.0
464.626801 96.0
465.081665 56.0
465.171814 52.0
465.39505 68.0
465.674194 52.0
466.10379 96.0
466.391724 84.0
466.490601 32.0
466.542175 80.0
466.80661 140.0
466.877563 148.0
466.920563 100.0
467.023773 100.0
467.122711 68.0
467.200134 48.0
467.238861 40.0
467.41098 92.0
467.445404 140.0
467.931763 160.0
468.159973 76.0
468.271973 48.0
468.371033 88.0
468.453796 128.0
468.862183 52.0
469.310516 68.0
470.350189 92.0
470.397095 116.0
470.587646 40.0
470.69989 56.0
470.760345 76.0
470.881287 52.0
471.352142 108.0
471.65036 68.0
471.983246 32.0
472.121613 60.0
472.27298 68.0
472.489288 76.0
472.753204 52.0
472.813812 48.0
472.891693 60.0
473.900696 32.0
474.228149 64.0
474.754639 64.0
475.03656 48.0
475.184052 80.0
475.231781 48.0
475.626678 80.0
475.722809 84.0
476.834137 76.0
476.864563 68.0
476.935455 116.0
477.690704 44.0
477.821228 76.0
478.021362 48.0
478.130157 72.0
478.487091 52.0
478.770142 88.0
478.992249 116.0
479.178009 56.0
479.244934 108.0
479.955414 76.0
480.04837 112.0
480.142914 72.0
480.474426 68.0
480.692566 124.0
480.7948 104.0
480.87149 60.0
481.329895 52.0
481.408478 28.0
481.460876 148.0
481.749176 48.0
482.046265 72.0
482.107452 28.0
482.264771 88.0
482.465851 108.0
482.54892 64.0
482.806915 132.0
483.134949 76.0
483.388733 36.0
483.57254 76.0
483.703156 100.0
483.954407 68.0
484.115387 108.0
484.768127 92.0
484.864532 60.0
485.434418 52.0
485.640564 92.0
485.780914 88.0
486.026611 96.0
486.083649 84.0
486.294312 84.0
486.487427 68.0
486.531342 48.0
486.78598 72.0
486.87381 76.0
487.00119 104.0
487.110992 56.0
487.458099 28.0
488.640869 100.0
489.95282 84.0
490.578613 88.0
490.891632 32.0
490.93573 52.0
491.107727 72.0
491.218018 84.0
491.756317 104.0
492.286102 36.0
492.352325 44.0
492.551086 44.0
492.708832 68.0
493.266937 64.0
493.563141 56.0
493.625061 96.0
493.779083 72.0
493.858307 108.0
493.970032 60.0
494.200073 36.0
494.39035 40.0
494.620483 96.0
494.660339 44.0
494.770996 60.0
494.970245 84.0
495.311249 120.0
495.66568 64.0
495.794189 52.0
496.006927 44.0
496.042389 72.0
496.490204 88.0
496.587799 68.0
496.985474 80.0
497.142334 44.0
497.466339 84.0
497.794891 68.0
497.999176 120.0
498.05249 64.0
498.172424 84.0
499.074615 44.0
499.310303 52.0
499.452637 52.0
499.804077 120.0
500.094543 60.0
500.364899 112.0
500.516266 88.0
500.774567 80.0
501.175476 48.0
501.206665 44.0
501.670197 100.0
501.742584 132.0
502.709412 60.0
502.785278 80.0
503.151306 116.0
503.468323 68.0
504.393005 108.0
504.554108 56.0
504.768707 64.0
504.853668 60.0
505.037048 92.0
505.770844 92.0
505.855896 40.0
505.896179 88.0
506.796387 64.0
507.356628 44.0
507.388 56.0
507.589752 72.0
507.679443 84.0
508.280548 116.0
508.361328 104.0
508.442108 84.0
508.702423 72.0
508.823639 104.0
508.967316 84.0
509.362518 72.0
509.438904 92.0
509.560181 32.0
509.744415 80.0
510.03653 64.0
510.171387 88.0
510.881927 52.0
510.998901 40.0
511.412903 68.0
511.541718 52.0
511.800049 88.0
512.381042 88.0
512.511963 80.0
513.025513 52.0
513.205872 76.0
513.308716 84.0
513.607178 64.0
513.900452 92.0
514.153137 124.0
514.631653 56.0
514.771606 76.0
514.848389 84.0
515.801697 52.0
516.032227 64.0
516.091003 96.0
516.502563 64.0
516.597534 52.0
516.706116 148.0
517.185791 96.0
517.226562 48.0
517.63855 36.0
518.009949 76.0
518.046143 40.0
518.680542 36.0
518.739502 104.0
518.807495 56.0
518.934448 80.0
519.065918 64.0
519.46051 48.0
519.496765 64.0
520.28186 116.0
520.726868 112.0
521.049377 108.0
521.099365 44.0
521.44928 112.0
521.535645 32.0
522.026611 56.0
522.126648 44.0
522.440491 108.0
522.608826 52.0
522.727173 64.0
523.091248 60.0
523.642212 104.0
524.184326 68.0
524.234436 64.0
524.713074 60.0
524.918213 44.0
525.000305 120.0
525.064148 112.0
525.342407 52.0
525.812378 52.0
526.086243 80.0
526.282532 80.0
526.414978 72.0
526.565674 76.0
526.725525 40.0
527.685242 60.0
527.868591 76.0
527.973267 32.0
528.023621 108.0
528.078491 48.0
528.43988 92.0
528.696106 84.0
528.796814 92.0
529.213379 60.0
529.268311 48.0
529.588867 60.0
529.827087 84.0
529.877441 32.0
529.996582 64.0
530.033264 64.0
530.441345 80.0
530.482422 104.0
530.532837 48.0
531.084351 100.0
531.443176 40.0
531.665771 52.0
531.858521 48.0
532.602356 48.0
532.721802 112.0
533.029602 84.0
533.57196 60.0
533.80188 88.0
534.068604 100.0
534.1698 76.0
534.261841 96.0
534.643738 112.0
535.131653 104.0
535.564514 76.0
535.656616 52.0
535.688904 76.0
535.956116 56.0
536.025208 116.0
536.26947 52.0
536.403137 32.0
537.237793 60.0
537.426941 108.0
537.782288 64.0
537.842957 88.0
538.008484 100.0
538.050049 56.0
538.196106 56.0
538.340942 52.0
538.405579 92.0
538.650391 124.0
538.946045 72.0
539.006104 68.0
539.056946 104.0
539.132568 92.0
539.371216 32.0
539.791931 124.0
539.91217 116.0
540.111023 80.0
540.198914 32.0
540.32843 72.0
540.536682 88.0
540.569092 120.0
540.772705 52.0
540.897644 64.0
540.953186 84.0
541.027283 84.0
541.453247 60.0
541.545898 96.0
542.111084 84.0
543.584167 84.0
544.045227 156.0
544.1427 56.0
544.175232 40.0
544.305237 92.0
544.885803 76.0
545.057739 64.0
545.345886 128.0
545.429504 64.0
545.541809 76.0
545.680542 48.0
546.331665 40.0
546.573608 72.0
547.080872 108.0
547.63501 52.0
547.676941 28.0
548.068237 76.0
548.711426 56.0
549.023865 72.0
549.135803 32.0
549.182434 36.0
549.527649 96.0
549.578979 32.0
549.704956 56.0
549.798279 104.0
549.858948 100.0
550.227722 108.0
550.296326 104.0
550.722717 36.0
550.769409 32.0
550.918884 44.0
551.460938 48.0
551.694641 76.0
551.750732 72.0
551.792786 76.0
551.909729 60.0
551.989197 44.0
552.096741 104.0
552.625305 92.0
552.866089 52.0
552.948181 84.0
553.552124 68.0
553.746338 128.0
554.025146 68.0
554.08606 80.0
554.461609 80.0
554.615601 72.0
554.767944 60.0
554.9953 104.0
555.40802 44.0
555.478394 48.0
555.797424 112.0
555.905334 40.0
556.116516 28.0
557.430237 52.0
557.487854 68.0
557.71344 40.0
557.934387 60.0
558.545715 80.0
559.190308 60.0
559.463318 104.0
559.548096 96.0
559.665771 84.0
559.948303 64.0
560.066101 76.0
560.59845 84.0
560.711548 44.0
561.286682 92.0
561.701721 72.0
561.824341 84.0
562.031921 92.0
562.310364 56.0
562.551086 92.0
562.938232 128.0
563.042175 100.0
563.249939 56.0
563.755493 136.0
564.403076 100.0
565.041626 40.0
565.278198 72.0
565.642639 40.0
566.043823 124.0
566.494995 112.0
566.746094 64.0
566.874023 36.0
567.148926 84.0
567.281616 96.0
567.319519 28.0
567.390686 108.0
567.613525 108.0
567.793701 96.0
567.836365 48.0
567.912292 64.0
568.168457 44.0
568.272827 56.0
568.367676 56.0
568.567017 84.0
568.60498 100.0
568.666687 64.0
568.837524 60.0
569.084412 56.0
569.502319 60.0
569.663818 92.0
569.697083 116.0
569.84436 48.0
569.891846 68.0
570.272034 84.0
570.900818 136.0
571.437073 52.0
571.82251 168.0
571.984375 84.0
572.327148 40.0
572.365234 64.0
572.517578 44.0
572.560486 88.0
572.698608 84.0
573.160706 92.0
573.770752 76.0
573.885193 84.0
574.295288 68.0
574.419312 84.0
574.467041 80.0
574.710327 48.0
575.354675 80.0
575.473999 48.0
575.540833 68.0
575.598145 76.0
576.094849 84.0
576.467529 80.0
576.553528 40.0
576.825989 48.0
577.041138 68.0
577.127197 60.0
577.304077 76.0
577.77478 128.0
578.107788 72.0
578.308777 52.0
578.366211 84.0
578.753967 60.0
578.844971 68.0
579.223328 64.0
579.323486 92.0
579.544312 72.0
579.668884 88.0
579.822266 124.0
579.865356 36.0
580.483826 48.0
581.251282 120.0
581.414429 76.0
582.0625 80.0
582.134521 124.0
582.408264 64.0
582.509155 52.0
582.758972 60.0
583.10498 76.0
583.359741 64.0
583.70105 72.0
583.782837 48.0
583.816467 52.0
583.965576 108.0
584.133911 80.0
584.562134 104.0
584.624695 40.0
584.812378 64.0
584.942322 112.0
585.467163 168.0
585.500854 48.0
585.674255 40.0
585.789856 36.0
585.982544 84.0
586.046692 128.0
586.478882 76.0
586.536743 60.0
586.686157 52.0
586.874207 28.0
587.689331 60.0
588.601624 36.0
589.302002 56.0
589.398621 92.0
589.606384 36.0
589.712708 76.0
590.298035 60.0
590.505615 84.0
591.284546 48.0
591.33783 88.0
591.579834 52.0
592.359497 96.0
592.432129 32.0
592.645325 64.0
592.684082 32.0
592.732544 60.0
592.936768 80.0
593.323853 84.0
593.401428 60.0
593.769958 52.0
594.002747 40.0
594.182251 104.0
594.648071 44.0
594.745178 116.0
595.036438 32.0
595.080139 28.0
595.152954 88.0
595.454041 76.0
595.619141 60.0
595.891235 52.0
595.925232 72.0
596.48407 76.0
596.756348 88.0
597.29126 100.0
597.36908 92.0
597.44696 104.0
597.758301 60.0
598.235291 88.0
598.288879 60.0
598.361877 84.0
598.415405 124.0
598.600464 44.0
599.175232 92.0
599.496765 40.0
600.569336 104.0
600.657166 64.0
600.710815 88.0
601.032837 132.0
601.135315 76.0
601.804016 68.0
602.136047 64.0
602.355896 40.0
602.453552 52.0
602.808716 44.0
602.986145 32.0
603.035034 96.0
603.079041 92.0
603.235474 148.0
603.294128 40.0
603.739075 56.0
604.81543 40.0
604.96228 96.0
605.309875 136.0
605.58905 56.0
605.927002 56.0
606.108337 124.0
606.211243 48.0
606.417053 64.0
606.578796 92.0
607.539978 60.0
608.295654 40.0
608.67865 84.0
609.282715 48.0
609.872437 76.0
609.96582 48.0
610.191956 52.0
610.703369 56.0
611.71698 92.0
612.347229 64.0
612.75116 52.0
612.913757 88.0
613.204529 72.0
613.579163 68.0
613.613647 108.0
614.121582 40.0
614.195557 96.0
614.703735 80.0
615.085083 60.0
615.167664 148.0
615.528076 32.0
615.597229 68.0
616.209717 144.0
616.298645 88.0
616.441956 68.0
616.684082 48.0
616.925842 84.0
617.247681 52.0
618.189575 88.0
618.256836 52.0
618.839233 88.0
619.331177 52.0
619.390625 64.0
619.469849 68.0
619.563965 72.0
620.560181 88.0
620.773376 56.0
621.140381 28.0
621.408264 60.0
621.46283 92.0
621.7854 60.0
622.003784 96.0
622.227173 80.0
622.381104 72.0
622.457886 84.0
623.563416 76.0
624.47821 40.0
624.861267 108.0
625.134888 44.0
625.488281 112.0
625.816833 48.0
626.011047 64.0
626.354675 116.0
626.775391 116.0
627.446045 60.0
627.924744 76.0
629.302002 40.0
629.546692 48.0
630.320984 52.0
630.900757 64.0
630.94574 112.0
631.750854 100.0
631.843567 68.0
631.940979 84.0
633.397766 104.0
633.538025 80.0
633.718384 68.0
634.455139 80.0
634.56543 36.0
635.152161 84.0
635.41803 56.0
635.714111 32.0
636.054993 108.0
636.406799 128.0
636.692993 48.0
639.000244 72.0
639.110901 40.0
639.287048 72.0
639.352478 100.0
639.53363 80.0
639.815552 96.0
639.956543 52.0
640.329163 104.0
641.533447 64.0
641.583862 80.0
642.158691 48.0
642.279724 88.0
643.950378 84.0
644.248413 60.0
644.677917 32.0
644.9104 60.0
645.056946 80.0
645.238953 80.0
645.572693 64.0
645.795166 56.0
646.053162 36.0
646.124023 88.0
646.382019 32.0
646.746399 76.0
646.78186 48.0
647.470398 100.0
647.683167 52.0
650.370483 100.0
651.233643 48.0
651.472412 92.0
651.604492 76.0
652.315979 112.0
652.382996 64.0
652.52948 48.0
652.743042 76.0
652.875244 48.0
652.936279 68.0
653.210938 104.0
653.750244 80.0
654.182861 64.0
654.218506 100.0
654.671631 80.0
654.824463 132.0
654.931396 72.0
655.140259 112.0
656.671204 76.0
657.082642 44.0
657.501038 92.0
658.496582 28.0
658.644714 64.0
658.698547 96.0
659.089172 52.0
659.140259 44.0
660.341614 52.0
660.83783 44.0
661.928101 68.0
662.414612 68.0
662.768127 76.0
663.275513 88.0
664.095886 52.0
664.198486 128.0
664.234375 40.0
664.326721 56.0
664.372864 56.0
664.506287 84.0
664.660217 40.0
665.620056 84.0
666.115234 88.0
666.452209 128.0
666.673157 64.0
666.873596 48.0
667.084351 64.0
667.130615 64.0
667.259094 112.0
667.660217 44.0
668.89502 48.0
669.023743 60.0
669.136963 84.0
671.120605 32.0
671.55896 100.0
671.708496 64.0
672.224426 60.0
672.673462 64.0
673.194946 80.0
673.355042 48.0
674.171265 48.0
674.93634 68.0
675.205261 96.0
675.339722 68.0
675.608704 36.0
676.234802 48.0
676.28656 40.0
676.524658 36.0
676.938904 68.0
677.192627 116.0
677.477539 52.0
677.651672 76.0
677.971924 68.0
678.239258 104.0
679.03772 84.0
679.826294 112.0
680.028687 76.0
680.677612 52.0
681.591858 104.0
681.841309 44.0
682.225952 80.0
682.579468 88.0
682.907104 128.0
682.97876 108.0
683.586975 88.0
683.854065 72.0
684.662109 76.0
685.395508 108.0
686.896973 80.0
687.340454 68.0
687.982422 32.0
688.582886 60.0
688.66217 68.0
689.063477 104.0
690.077393 28.0
690.249939 60.0
690.349304 60.0
690.992676 116.0
691.505493 40.0
691.709595 40.0
692.74646 48.0
692.982178 104.0
693.055542 100.0
693.170837 52.0
694.292664 40.0
695.383911 100.0
695.620117 36.0
696.176636 56.0
696.339478 56.0
697.600525 56.0
698.215698 64.0
700.026001 72.0
700.658081 108.0
700.721313 60.0
700.879333 92.0
701.237732 88.0
701.638306 60.0
701.754333 80.0
702.255249 56.0
703.263062 88.0
703.717041 60.0
703.922974 32.0
704.382446 36.0
704.503906 88.0
704.805054 92.0
705.069275 132.0
706.005005 76.0
706.862 84.0
707.952515 44.0
708.455688 76.0
708.535156 84.0
709.75415 92.0
710.167786 80.0
712.083801 72.0
712.205994 84.0
712.731934 36.0
712.827576 104.0
713.36438 76.0
713.70752 88.0
713.922668 44.0
714.039673 80.0
715.353882 60.0
716.280457 76.0
716.509521 88.0
718.242004 56.0
718.508728 52.0
718.730896 96.0
718.935608 96.0
720.21698 104.0
720.991638 44.0
721.73468 84.0
722.125061 96.0
722.981079 36.0
723.901855 84.0
723.939331 64.0
724.089294 80.0
724.437439 76.0
724.555298 64.0
724.962524 88.0
725.678528 48.0
725.895264 52.0
726.217041 60.0
726.5979 44.0
726.941284 92.0
727.558533 76.0
727.687378 32.0
727.87384 52.0
728.197571 116.0
729.050659 108.0
729.884949 60.0
730.428162 72.0
730.53418 68.0
731.667053 72.0
732.333557 60.0
732.430542 88.0
732.689087 104.0
732.73761 64.0
733.109375 112.0
733.465088 40.0
733.966492 32.0
735.131653 100.0
735.239563 88.0
735.29895 68.0
735.692932 56.0
735.952087 44.0
736.088867 60.0
736.583984 56.0
736.654175 68.0
736.708191 88.0
736.978333 52.0
737.223572 64.0
737.284607 88.0
737.518738 40.0
738.059387 80.0
738.654236 124.0
739.168213 36.0
739.292725 44.0
739.482117 68.0
740.02887 52.0
740.667908 48.0
740.759949 28.0
741.746216 48.0
741.984741 48.0
742.223267 72.0
742.385925 84.0
743.458252 84.0
743.992004 92.0
744.127747 56.0
744.518677 72.0
744.974915 80.0
745.599792 44.0
745.887878 60.0
746.475037 88.0
747.192993 40.0
747.410645 108.0
748.052856 68.0
748.303284 48.0
748.842346 72.0
750.335449 116.0
753.287781 48.0
753.380676 72.0
753.888794 64.0
754.096497 36.0
754.670471 36.0
754.916504 100.0
755.173584 136.0
756.158386 52.0
756.97406 56.0
757.981995 120.0
758.530029 68.0
758.612305 40.0
759.308655 36.0
760.137024 76.0
760.323608 96.0
760.565063 104.0
760.888977 36.0
761.147034 32.0
761.454529 76.0
761.591858 116.0
762.176758 76.0
763.20752 48.0
763.268005 44.0
763.46051 28.0
763.718994 104.0
763.872986 84.0
764.401184 52.0
765.107849 92.0
765.60675 120.0
765.672852 144.0
765.882141 68.0
766.614868 76.0
767.18811 60.0
767.425171 76.0
768.059326 36.0
768.147583 48.0
768.528259 84.0
769.135315 40.0
769.433411 96.0
769.681885 44.0
770.123657 96.0
770.758972 52.0
771.433289 52.0
772.0802 76.0
774.088989 48.0
774.70929 48.0
776.960083 36.0
777.220825 76.0
777.997864 140.0
778.242126 104.0
779.397461 36.0
779.441895 44.0
780.78717 104.0
782.734863 36.0
783.247253 44.0
783.291809 48.0
784.400696 84.0
785.566162 40.0
785.739075 72.0
786.015747 116.0
786.659912 80.0
786.832947 48.0
787.173584 84.0
788.318726 68.0
790.613403 84.0
790.68988 64.0
790.762634 64.0
791.053711 32.0
791.300049 132.0
791.723083 80.0
792.229675 72.0
792.470581 52.0
793.479431 60.0
794.169189 44.0
795.353088 120.0
795.835876 68.0
795.886414 80.0
796.481689 64.0
796.785034 80.0
797.172729 108.0
797.408752 48.0
799.230774 188.0
799.703491 96.0
800.818298 136.0
801.370361 32.0
804.44397 84.0
804.551208 100.0
805.533813 120.0
805.7146 60.0
806.567932 88.0
807.376404 56.0
807.823242 48.0
807.930725 60.0
808.174011 36.0
808.439941 44.0
808.739929 64.0
811.396667 32.0
811.816284 72.0
811.952393 72.0
813.876099 52.0
814.421265 100.0
815.449646 28.0
815.739563 184.0
816.200073 64.0
816.438904 72.0
816.888245 96.0
818.174316 100.0
818.390686 56.0
818.624146 100.0
818.840576 60.0
819.586792 44.0
819.706482 48.0
820.914978 44.0
821.359802 96.0
821.993103 124.0
823.203247 44.0
823.620178 52.0
824.117188 72.0
824.522949 76.0
824.68866 32.0
824.96875 80.0
825.437561 68.0
825.53479 64.0
825.769287 32.0
825.87793 88.0
825.917969 128.0
826.965027 68.0
827.050903 68.0
827.188293 120.0
827.279846 64.0
827.520325 68.0
827.577576 60.0
829.290405 44.0
829.829285 92.0
830.196289 68.0
830.976379 40.0
831.02417 40.0
831.42395 72.0
831.668518 52.0
831.756836 40.0
832.284973 40.0
832.675476 60.0
833.08905 48.0
833.13501 32.0
833.53717 56.0
833.933716 100.0
835.118164 124.0
835.50354 56.0
836.194031 64.0
838.999268 80.0
840.389221 160.0
841.861145 140.0
842.519592 88.0
842.947144 36.0
844.681641 100.0
845.705811 116.0
845.890991 56.0
848.294556 56.0
850.087158 56.0
850.325134 72.0
850.818481 36.0
851.271362 92.0
851.997437 68.0
852.139343 76.0
854.57019 84.0
855.195618 104.0
855.585632 92.0
856.173706 44.0
856.616394 92.0
857.47876 72.0
857.67688 44.0
857.863464 88.0
858.096619 132.0
858.341553 44.0
858.603943 56.0
859.146423 56.0
859.403137 48.0
860.377747 48.0
860.675537 60.0
860.763123 56.0
860.879944 96.0
861.02594 72.0
862.56842 60.0
862.702881 72.0
862.767151 44.0
863.430908 60.0
864.45166 64.0
864.61554 80.0
864.878906 92.0
865.095459 28.0
865.997253 64.0
866.090942 96.0
866.424866 88.0
867.098694 108.0
867.620361 28.0
868.417847 32.0
869.19812 88.0
869.861328 44.0
870.031555 76.0
870.700928 52.0
871.352966 60.0
871.4646 68.0
871.752808 72.0
872.058105 156.0
872.105103 116.0
873.657532 116.0
874.763855 56.0
874.875671 96.0
876.053467 40.0
876.183105 76.0
879.125366 64.0
879.644714 36.0
880.896606 72.0
881.723816 52.0
882.669678 104.0
883.255127 40.0
883.965088 92.0
884.168518 192.0
884.941772 36.0
886.031494 80.0
886.197388 44.0
886.819641 40.0
886.971069 88.0
887.643677 84.0
888.029175 44.0
889.655029 88.0
889.720337 48.0
889.862793 56.0
889.993408 72.0
890.658569 100.0
891.009033 132.0
891.329895 168.0
891.37146 156.0
892.054993 76.0
892.18573 48.0
893.071777 132.0
893.250183 88.0
895.190491 136.0
895.529907 92.0
895.791992 40.0
896.787109 60.0
897.550171 88.0
898.671509 72.0
898.868408 68.0
899.298096 40.0
899.871216 136.0
900.59375 84.0
900.970093 68.0
901.776794 36.0
903.307495 112.0
903.61261 48.0
904.606018 52.0
904.863464 64.0
907.05603 108.0
907.145935 80.0
908.081299 68.0
909.197205 40.0
910.007568 44.0
910.319824 92.0
910.451965 36.0
910.66217 72.0
913.306763 60.0
915.118164 88.0
916.461304 104.0
916.78064 80.0
919.844604 56.0
919.898926 84.0
919.989441 52.0
920.744202 84.0
921.469055 44.0
922.671753 108.0
924.601318 52.0
925.503296 92.0
927.90863 76.0
928.551453 52.0
929.127686 40.0
929.400696 36.0
930.286804 68.0
930.359619 104.0
932.327637 56.0
932.789551 44.0
933.075256 68.0
933.184692 68.0
933.555603 56.0
933.652893 116.0
934.674866 52.0
934.912231 76.0
935.58783 72.0
935.916626 48.0
936.537781 56.0
936.964172 72.0
937.037292 68.0
937.207153 104.0
937.707581 80.0
938.311035 72.0
938.774475 136.0
939.43927 36.0
939.707703 48.0
943.43927 72.0
943.769409 60.0
944.276978 64.0
944.839722 88.0
945.041626 116.0
945.261902 64.0
946.847412 52.0
948.458801 200.0
948.894043 56.0
949.411499 52.0
950.869263 72.0
951.587463 128.0
955.090271 80.0
955.520874 124.0
956.517822 48.0
957.028809 52.0
957.108826 136.0
957.385925 48.0
957.478333 104.0
958.371521 76.0
958.470093 108.0
959.727539 56.0
959.924866 92.0
960.615601 48.0
961.670776 80.0
963.029114 76.0
964.221497 60.0
965.08075 40.0
966.76532 176.0
970.293884 64.0
971.633484 140.0
971.887878 60.0
972.347107 104.0
972.632568 164.0
973.40863 84.0
973.576294 40.0
974.209839 276.0
974.874695 160.0
975.875427 96.0
977.150452 60.0
977.517517 124.0
978.021667 96.0
978.332886 52.0
978.413818 124.0
979.621948 52.0
980.325989 120.0
981.304626 84.0
981.529114 80.0
981.585205 84.0
981.7099 76.0
982.395996 32.0
983.756409 40.0
987.405457 96.0
987.54303 80.0
987.793274 112.0
988.94458 56.0
989.251282 108.0
990.888672 176.0
991.706726 84.0
991.80072 80.0
992.471497 60.0
992.828979 36.0
992.872864 108.0
993.104919 188.0
993.249146 100.0
993.945557 72.0
994.541748 76.0
996.532471 40.0
996.708374 72.0
997.63855 128.0
997.902588 92.0
998.965454 100.0
1000.072876 60.0
1000.478943 152.0
1001.193542 140.0
1001.514771 96.0
1001.65332 56.0
1002.749695 64.0
1002.80011 56.0
1003.342224 68.0
1003.537659 92.0
1003.632263 96.0
1004.332275 48.0
1004.489929 152.0
1005.038818 40.0
1005.505798 68.0
1006.389526 56.0
1008.474243 108.0
1008.537415 56.0
1009.043152 44.0
1009.112732 100.0
1009.593262 48.0
1009.998047 152.0
1010.453552 48.0
1011.079956 96.0
1011.874329 196.0
1012.418945 104.0
1012.675415 68.0
1013.302551 124.0
1013.689026 168.0
1013.784119 48.0
1015.191406 48.0
1015.749573 96.0
1016.142883 44.0
1018.180481 80.0
1018.675903 136.0
1019.698914 216.0
1020.951355 88.0
1021.832214 124.0
1021.950012 116.0
1023.420288 120.0
1023.471252 52.0
1023.745056 52.0
1023.808716 108.0
1024.133545 188.0
1025.140137 44.0
1025.618164 96.0
1026.051636 88.0
1026.418701 228.0
1028.83313 92.0
1029.771851 68.0
1031.592896 84.0
1031.957275 88.0
1032.098022 80.0
1032.213013 84.0
1033.556274 56.0
1035.37439 140.0
1036.085327 84.0
1036.253052 92.0
1036.463379 48.0
1036.711548 136.0
1036.988892 156.0
1038.290283 76.0
1038.57251 76.0
1039.310303 68.0
1041.666382 64.0
1042.765137 48.0
1043.555786 160.0
1044.095947 76.0
1044.739258 48.0
1045.176758 108.0
1045.498413 84.0
1046.14209 148.0
1047.133667 40.0
1048.125732 164.0
1048.692871 76.0
1048.80896 104.0
1049.253662 140.0
1049.795288 148.0
1049.87915 68.0
1051.382324 64.0
1051.989014 80.0
1052.053589 88.0
1052.131104 100.0
1052.182739 36.0
1053.144897 68.0
1055.077026 112.0
1055.581299 68.0
1055.820557 148.0
1056.519165 68.0
1057.263184 104.0
1058.69397 104.0
1059.244507 64.0
1059.445312 40.0
1059.743286 60.0
1059.814575 44.0
1060.23584 84.0
1060.281128 176.0
1060.579346 128.0
1060.631104 48.0
1061.01355 68.0
1061.123779 92.0
1061.875977 56.0
1061.992798 72.0
1063.653809 116.0
1065.829468 152.0
1066.069946 64.0
1066.323364 88.0
1067.487061 96.0
1068.072388 232.0
1068.169922 32.0
1068.31311 124.0
1068.397583 56.0
1068.618896 56.0
1068.872559 168.0
1069.158936 160.0
1069.907471 88.0
1070.050659 80.0
1070.584595 140.0
1070.799561 84.0
1071.235962 44.0
1072.61084 72.0
1072.733276 176.0
1073.115723 92.0
1073.236694 88.0
1073.451904 72.0
1074.8479 144.0
1075.069702 92.0
1075.559204 72.0
1077.087158 140.0
1078.862427 200.0
1079.276489 136.0
1079.407227 64.0
1080.250977 48.0
1081.474609 56.0
1082.18811 100.0
1082.24707 112.0
1082.541748 68.0
1083.360474 168.0
1084.657959 112.0
1084.802124 128.0
1085.484009 56.0
1087.872192 72.0
1088.752075 60.0
1089.014771 144.0
1089.139526 84.0
1090.401001 148.0
1090.742798 164.0
1091.071533 80.0
1091.354248 104.0
1091.518555 56.0
1093.215698 64.0
1093.538208 32.0
1094.538818 88.0
1095.322632 112.0
1095.796875 152.0
1096.053833 44.0
1096.113159 116.0
1097.121582 52.0
1097.952393 104.0
1098.268921 60.0
1098.809937 48.0
1099.285034 88.0
1100.42688 32.0
1101.252319 92.0
1101.754395 144.0
1103.029785 152.0
1103.122314 188.0
1103.221436 196.0
1104.18689 112.0
1104.768921 160.0
1105.384277 160.0
1106.443237 28.0
1106.635254 76.0
1106.727905 52.0
1110.067627 56.0
1110.127197 72.0
1111.122192 84.0
1111.30127 52.0
1111.978149 64.0
1113.0802 120.0
1113.45874 140.0
1113.564941 68.0
1114.262451 136.0
1115.09314 100.0
1115.365601 84.0
1115.551758 52.0
1115.671387 76.0
1116.037231 168.0
1116.170044 36.0
1116.362915 124.0
1117.460449 132.0
1118.298828 104.0
1118.525146 132.0
1119.523804 192.0
1119.630371 36.0
1120.257568 80.0
1121.1427 48.0
1121.489258 200.0
1121.622559 88.0
1121.809204 64.0
1122.455933 100.0
1122.782715 52.0
1123.58313 40.0
1123.749878 92.0
1123.996826 124.0
1124.357178 88.0
1124.624146 40.0
1125.56543 136.0
1126.213257 180.0
1126.627319 60.0
1127.716553 44.0
1128.525391 88.0
1128.919922 128.0
1129.394775 144.0
1129.675781 160.0
1129.80957 128.0
1130.130615 104.0
1130.425049 196.0
1130.55896 188.0
1131.308594 96.0
1131.415649 112.0
1131.482666 72.0
1132.098633 52.0
1132.440186 104.0
1132.587524 88.0
1133.083862 88.0
1133.947632 168.0
1134.309692 144.0
1138.254517 48.0
1138.382202 48.0
1139.406128 160.0
1139.483765 128.0
1140.081787 40.0
1140.303467 48.0
1140.417725 124.0
1141.170654 128.0
1141.473267 116.0
1143.262695 84.0
1144.016479 144.0
1144.218506 68.0
1144.494507 256.0
1144.54834 100.0
1145.060181 48.0
1145.194824 212.0
1145.572144 148.0
1147.324219 92.0
1148.025513 128.0
1148.409912 128.0
1150.508423 120.0
1150.69751 36.0
1150.927124 128.0
1151.359253 72.0
1151.460571 108.0
1151.696899 100.0
1151.879272 168.0
1152.811646 60.0
1153.588989 156.0
1154.454346 92.0
1154.697876 44.0
1154.80603 112.0
1155.550171 76.0
1156.14563 124.0
1156.233643 48.0
1156.456909 64.0
1157.858398 52.0
1158.007446 88.0
1158.393555 108.0
1158.881348 84.0
1160.080933 148.0
1160.324951 76.0
1161.72876 140.0
1162.157837 96.0
1162.27832 124.0
1162.91626 72.0
1163.282715 152.0
1165.428833 80.0
1168.236694 36.0
1168.808228 48.0
1168.944336 144.0
1169.236938 144.0
1171.368042 80.0
1171.674561 96.0
1171.947144 212.0
1172.44458 204.0
1172.908081 140.0
1173.17395 172.0
1174.292114 108.0
1175.670288 108.0
1175.902344 112.0
1176.195801 64.0
1176.509888 76.0
1177.172119 176.0
1177.363281 112.0
1177.820923 124.0
1178.435791 56.0
1180.801025 112.0
1181.122437 36.0
1181.18396 28.0
1181.546509 96.0
1181.744995 44.0
1182.32666 140.0
1182.846802 96.0
1183.145874 128.0
1184.558716 168.0
1185.435669 148.0
1185.52478 80.0
1185.654907 28.0
1185.997681 84.0
1186.580322 136.0
1186.690063 156.0
1187.163208 120.0
1189.15271 168.0
1189.454712 92.0
1192.710571 96.0
1193.625122 176.0
1193.70752 36.0
1194.065063 128.0
1194.890503 168.0
1195.165771 136.0
1195.778198 52.0
1195.950317 88.0
1196.184326 200.0
1196.907227 72.0
1197.285889 48.0
1199.845215 84.0
1200.469727 108.0
1200.869751 52.0
1201.152588 68.0
1201.311279 144.0
1201.904541 96.0
1202.263428 84.0
1202.477295 140.0
1202.601562 164.0
1202.670532 92.0
1203.713013 188.0
1207.022949 196.0
1207.112793 76.0
1207.216553 116.0
1207.306519 48.0
1208.56543 116.0
1209.063721 112.0
1209.342041 160.0
1210.465088 212.0
1210.58252 128.0
1210.78064 144.0
1214.731323 140.0
1215.119873 152.0
1215.175293 40.0
1215.411255 64.0
1217.361816 72.0
1217.625732 196.0
1218.070068 124.0
1218.674683 100.0
1219.293091 164.0
1220.092407 212.0
1220.161987 216.0
1220.342773 28.0
1220.613892 60.0
1220.815552 120.0
1220.864258 104.0
1221.246826 124.0
1221.932007 148.0
1222.707886 88.0
1223.215942 116.0
1223.278564 168.0
1223.376099 100.0
1224.336914 84.0
1224.650391 104.0
1225.597778 128.0
1225.848633 192.0
1226.078613 32.0
1226.183105 68.0
1226.479858 112.0
1227.061401 100.0
1227.256714 168.0
1227.451904 88.0
1227.556519 72.0
1227.640137 220.0
1228.449219 64.0
1229.998413 188.0
1230.151978 128.0
1230.291504 124.0
1230.93396 140.0
1231.010742 140.0
1231.157349 160.0
1231.345947 120.0
1232.089478 88.0
1232.116333 124.0
1232.917847 100.0
1233.183472 48.0
1233.86853 60.0
1234.022339 156.0
1234.350952 132.0
1235.092285 160.0
1235.497925 144.0
1235.984619 156.0
1236.8479 144.0
1237.009521 112.0
1237.527588 180.0
1237.940674 152.0
1238.192871 76.0
1238.500977 104.0
1238.970337 100.0
1239.180542 156.0
1240.10498 104.0
1240.610229 136.0
1241.704102 128.0
1242.307251 100.0
1242.489746 60.0
1242.651001 132.0
1242.896606 52.0
1243.437012 72.0
1243.956421 56.0
1244.637451 140.0
1245.093872 140.0
1245.494141 76.0
1245.641724 40.0
1246.364136 176.0
1246.526978 128.0
1246.751831 80.0
1247.054077 108.0
1247.173462 92.0
1247.391357 112.0
1247.693726 80.0
1248.003052 144.0
1248.433228 140.0
1248.671143 92.0
1249.424683 128.0
1250.190674 100.0
1250.641113 80.0
1250.831177 124.0
1252.154907 120.0
1252.75354 76.0
1253.620239 124.0
1253.882935 144.0
1254.811401 56.0
1255.629395 128.0
1255.970337 228.0
1256.172485 188.0
1257.237915 144.0
1257.520264 188.0
1257.866089 164.0
1258.114014 148.0
1258.565063 204.0
1258.826294 220.0
1259.223999 148.0
1259.490112 160.0
1259.730347 120.0
1259.836304 88.0
1260.246094 92.0
1260.655884 48.0
1260.945679 80.0
1261.016357 72.0
1261.327271 128.0
1261.398071 88.0
1261.44751 136.0
1261.588867 152.0
1263.158813 128.0
1263.569092 136.0
1263.753052 68.0
1263.929932 156.0
1264.135132 84.0
1264.474854 116.0
1264.800415 80.0
1264.899536 160.0
1265.274658 68.0
1266.16272 152.0
1266.436035 92.0
1267.277466 108.0
1267.526978 100.0
1267.747925 96.0
1269.008423 68.0
1269.100586 180.0
1270.001221 108.0
1270.526123 164.0
1272.335815 108.0
1272.619873 128.0
1273.841309 200.0
1274.551758 48.0
1275.447266 140.0
1275.49707 280.0
1276.122681 136.0
1276.286133 112.0
1276.897705 176.0
1277.573486 56.0
1277.630371 156.0
1277.715698 116.0
1278.220947 192.0
1278.370361 140.0
1278.690552 172.0
1279.181763 228.0
1280.102173 176.0
1280.204468 156.0
1280.427734 208.0
1281.054565 164.0
1281.498657 216.0
1282.330078 180.0
1282.551025 32.0
1282.758057 88.0
1282.942993 68.0
1283.028564 60.0
1284.483398 128.0
1284.611694 132.0
1284.875732 68.0
1285.246704 128.0
1285.851074 92.0
1287.081177 124.0
1287.373901 72.0
1287.438232 124.0
1287.738159 84.0
1288.159546 152.0
1288.245239 140.0
1289.109863 40.0
1289.788818 160.0
1290.189087 156.0
1290.439453 188.0
1290.589478 168.0
1290.653809 84.0
1290.925537 104.0
1291.10437 48.0
1291.254517 32.0
1291.44043 88.0
1291.798096 176.0
1292.119995 80.0
1292.249756 220.0
1292.348999 28.0
1292.449097 96.0
1293.286499 216.0
1293.35083 100.0
1293.744629 164.0
1293.945068 132.0
1294.045288 160.0
1294.145508 192.0
1294.194458 100.0
1294.546509 108.0
1294.854492 76.0
1295.549194 140.0
1295.635254 48.0
1295.864502 76.0
1295.971924 44.0
1296.172607 156.0
1296.287231 68.0
1296.681396 248.0
1296.846191 152.0
1297.9646 144.0
1298.246826 200.0
1298.911255 128.0
1299.183838 160.0
1299.607178 112.0
1300.403687 184.0
1300.71875 72.0
1300.78418 140.0
1300.956421 112.0
1301.037964 156.0
1302.823608 68.0
1302.902588 200.0
1303.355225 84.0
1303.520508 144.0
1303.75769 112.0
1303.925415 188.0
1304.174561 156.0
1304.315308 96.0
1304.426025 96.0
1305.331909 188.0
1305.483032 84.0
1305.547729 28.0
1305.612427 112.0
1305.943237 188.0
1306.324463 56.0
1306.5979 184.0
1306.763306 60.0
1306.979248 104.0
1307.180664 112.0
1307.302979 100.0
1307.706055 68.0
1308.109131 192.0
1308.605835 96.0
1309.109863 116.0
1309.203491 144.0
1309.678833 184.0
1309.794067 144.0
1309.851685 120.0
1309.974243 88.0
1310.608154 108.0
1310.802734 144.0
1310.917969 108.0
1311.011719 76.0
1311.170288 116.0
1311.350464 96.0
1311.487427 124.0
1311.631592 120.0
1311.840576 92.0
1312.01355 100.0
1312.157837 108.0
1312.359619 76.0
1312.511108 40.0
1312.813965 140.0
1313.4198 200.0
1313.765991 156.0
1313.88147 152.0
1314.292725 136.0
1314.487549 68.0
1315.216431 56.0
1315.27417 192.0
1315.346436 212.0
1315.425781 152.0
1315.884644 132.0
1316.248779 72.0
1316.393311 80.0
1316.848267 36.0
1317.079346 60.0
1317.375488 124.0
1317.498291 176.0
1317.572754 172.0
1317.72229 76.0
1318.014771 148.0
1318.213623 164.0
1318.546021 84.0
1318.59668 184.0
1318.68335 44.0
1318.775391 132.0
1319.760498 180.0
1319.869019 160.0
1320.295654 32.0
1320.404053 112.0
1320.512573 68.0
1320.664429 156.0
1320.72229 60.0
1321.055054 52.0
1321.25769 100.0
1321.481934 132.0
1322.075317 164.0
1322.343018 68.0
1322.79187 68.0
1323.218994 180.0
1323.421631 60.0
1323.627075 208.0
1323.711304 140.0
1323.782104 192.0
1324.066162 88.0
1324.250122 192.0
1324.384766 140.0
1324.649902 128.0
1324.708984 312.0
1325.094727 80.0
1325.159912 148.0
1325.399048 96.0
1325.50769 64.0
1325.594727 72.0
1326.529663 28.0
1326.681885 176.0
1326.801025 120.0
1327.736206 160.0
1327.950806 180.0
1328.088623 40.0
1328.410767 72.0
1328.806763 172.0
1329.064819 160.0
1329.162354 128.0
1329.322021 76.0
1329.829956 120.0
1330.047729 84.0
1330.39624 72.0
1330.476074 64.0
1330.711914 208.0
1330.795532 40.0
1330.937866 156.0
1331.674194 120.0
1331.783081 112.0
1332.102783 180.0
1332.255249 124.0
1332.335205 92.0
1332.691162 184.0
1332.763916 108.0
1333.141724 132.0
1333.243408 132.0
1333.890381 84.0
1334.079346 140.0
1334.784546 120.0
1335.977417 92.0
1336.108276 200.0
1337.934937 120.0
1338.364502 96.0
1338.700928 100.0
1338.772339 128.0
1338.903442 176.0
1339.493408 220.0
1339.821167 116.0
1340.170898 124.0
1340.243774 196.0
1340.447754 116.0
1340.717407 84.0
1341.191162 44.0
1341.614014 84.0
1341.690063 72.0
1341.752441 124.0
1342.00769 112.0
1342.095215 104.0
1342.634766 60.0
1343.006714 112.0
1343.45166 88.0
1343.612183 100.0
1343.758057 128.0
1343.922974 140.0
1344.166748 144.0
1344.786987 160.0
1345.137451 52.0
1345.224976 144.0
1345.305298 36.0
1345.455811 136.0
1345.721436 80.0
1345.787109 96.0
1346.079224 188.0
1346.232544 156.0
1346.480835 136.0
1346.58313 120.0
1346.702637 164.0
1347.057861 132.0
1347.141113 184.0
1347.342773 184.0
1347.641602 148.0
1347.700806 76.0
1347.927368 192.0
1348.080811 60.0
1348.329224 236.0
1348.963745 148.0
1349.111328 136.0
1349.374512 116.0
1349.469604 184.0
1349.666992 32.0
1349.952148 44.0
1350.076538 116.0
1350.453735 116.0
1350.89563 160.0
1350.954224 156.0
1351.052368 116.0
1351.473633 132.0
1351.546875 68.0
1352.110229 176.0
1352.227417 160.0
1352.622681 56.0
1352.74707 136.0
1353.017944 184.0
1353.110107 164.0
1353.340088 84.0
1353.693726 80.0
1354.841431 120.0
1355.039307 148.0
1355.281128 92.0
1355.36731 104.0
1355.537598 152.0
1355.801392 172.0
1356.034424 144.0
1356.365723 60.0
1356.678955 268.0
1356.761597 64.0
1356.874023 144.0
1356.952148 152.0
1357.113525 144.0
1357.705566 128.0
1358.859131 84.0
1358.947144 132.0
1359.306641 68.0
1359.536255 172.0
1360.76001 136.0
1360.82605 76.0
1360.914185 76.0
1361.134399 136.0
1361.237305 80.0
1361.406128 164.0
1361.512207 176.0
1361.736572 172.0
1362.39209 116.0
1362.440552 172.0
1362.50061 156.0
1362.698975 104.0
1362.820557 152.0
1362.94873 160.0
1363.103027 92.0
1363.257324 152.0
1363.595459 140.0
1363.702637 120.0
1363.823242 196.0
1363.940918 84.0
1364.391357 116.0
1364.727539 140.0
1364.797241 132.0
1365.117188 184.0
1365.396729 104.0
1365.712891 172.0
1365.985107 68.0
1366.257324 140.0
1366.375 104.0
1366.516602 140.0
1366.581055 92.0
1366.632446 144.0
1367.787964 80.0
1368.030884 144.0
1368.148682 160.0
1368.347412 128.0
1368.421021 108.0
1368.634521 48.0
1369.532959 28.0
1369.783447 168.0
1370.299072 124.0
1370.570068 120.0
1371.0802 112.0
1371.74353 176.0
1372.44397 108.0
1372.520142 148.0
1372.70813 116.0
1373.122437 68.0
1373.262451 80.0
1373.47644 164.0
1373.756714 64.0
1373.955322 156.0
1374.118164 188.0
1374.892944 180.0
1374.988892 200.0
1375.070068 324.0
1375.387451 80.0
1375.512939 60.0
1375.667969 52.0
1375.786133 108.0
1375.869629 120.0
1376.529541 228.0
1376.59668 148.0
1376.861328 156.0
1376.99707 76.0
1377.174316 152.0
1377.410767 80.0
1378.083008 144.0
1379.198853 84.0
1379.317139 92.0
1379.723755 76.0
1380.503296 64.0
1380.980835 44.0
1381.032593 76.0
1381.099121 148.0
1381.261841 60.0
1381.387573 148.0
1381.528198 180.0
1381.616943 48.0
1382.453003 36.0
1382.726929 60.0
1382.786133 148.0
1383.252441 104.0
1383.615112 32.0
1384.419189 192.0
1384.432739 112.0
1384.585205 100.0
1384.718506 136.0
1384.851807 88.0
1384.955444 76.0
1385.051758 148.0
1385.229492 108.0
1385.296265 28.0
1385.444336 228.0
1385.755493 80.0
1385.837036 68.0
1385.888916 160.0
1386.0 124.0
1386.570679 208.0
1386.659546 192.0
1387.230347 116.0
1387.520996 132.0
1387.576294 120.0
1387.588867 188.0
1387.727051 76.0
1387.979126 92.0
1388.127441 128.0
1388.3573 100.0
1389.080322 144.0
1389.143555 72.0
1389.806396 140.0
1390.137695 164.0
1390.352905 84.0
1390.421265 120.0
1390.531128 72.0
1390.64978 184.0
1390.701782 128.0
1390.931885 96.0
1391.317871 124.0
1391.393188 84.0
1391.562866 156.0
1391.689087 144.0
1391.775391 156.0
1392.038086 172.0
1392.10498 176.0
1392.275757 176.0
1392.498535 124.0
1392.557983 52.0
1392.647095 128.0
1392.825317 136.0
1392.877319 132.0
1392.929321 300.0
1393.152222 68.0
1393.426025 172.0
1393.716797 120.0
1393.924927 60.0
1394.036377 56.0
1394.106201 132.0
1394.281616 36.0
1394.38562 156.0
1394.883667 96.0
1394.99231 168.0
1395.21814 136.0
1396.05835 104.0
1396.772339 112.0
1396.928589 80.0
1397.047607 100.0
1397.151733 88.0
1397.375 64.0
1397.494019 100.0
1397.605591 160.0
1397.800171 52.0
1398.439087 132.0
1398.612671 184.0
1398.878296 68.0
1398.985107 100.0
1399.041992 220.0
1399.310059 104.0
1399.414062 144.0
1399.432983 140.0
1400.091919 124.0
1400.225952 104.0
1400.353516 124.0
1400.476807 124.0
1400.986206 132.0
1401.079468 196.0
1401.648804 132.0
1401.812744 28.0
1401.872314 228.0
1401.991577 108.0
1402.616821 100.0
1402.804077 72.0
1402.900879 52.0
1403.035156 124.0
1404.019409 52.0
1404.116333 84.0
1404.176025 140.0
1404.50415 84.0
1404.586182 132.0
1405.14209 172.0
1405.509033 132.0
1405.854614 164.0
1405.94812 160.0
1406.242676 76.0
1406.608398 80.0
1406.981689 44.0
1407.056274 52.0
1407.631226 116.0
1408.729126 88.0
1409.065796 112.0
1409.162476 180.0
1409.237183 148.0
1409.368164 248.0
1409.431396 124.0
1409.62854 204.0
1410.021729 124.0
1410.171265 164.0
1410.283325 140.0
1410.522583 96.0
1410.627197 100.0
1411.471313 116.0
1412.145142 88.0
1412.264771 100.0
1412.353027 80.0
1412.578979 116.0
1412.813843 80.0
1412.97876 120.0
1413.289673 176.0
1413.424316 60.0
1413.622925 128.0
1413.933228 112.0
1414.116821 148.0
1414.516968 104.0
1414.640747 136.0
1414.94519 104.0
1415.205811 92.0
1415.460327 144.0
1415.662476 80.0
1415.872192 104.0
1415.953369 160.0
1416.658691 156.0
1416.726074 164.0
1417.160645 212.0
1417.340454 92.0
1417.5802 108.0
1417.939941 116.0
1418.397217 172.0
1418.629517 84.0
1419.064331 92.0
1419.244385 116.0
1419.441284 136.0
1419.571045 168.0
1419.664307 164.0
1419.836792 124.0
1419.896729 128.0
1420.024292 72.0
1420.204224 124.0
1420.504272 140.0
1421.007812 104.0
1421.092651 204.0
1421.457153 164.0
1421.584717 68.0
1421.892334 64.0
1422.192627 172.0
1422.305176 120.0
1422.417847 116.0
1422.492798 124.0
1422.725586 120.0
1422.818115 200.0
1423.04834 136.0
1423.176025 156.0
1423.453857 112.0
1423.626587 144.0
1423.692383 204.0
1423.957031 180.0
1424.092163 132.0
1424.475342 92.0
1424.580444 36.0
1424.663086 76.0
1425.068848 168.0
1425.323364 108.0
1425.421997 116.0
1425.684937 100.0
1425.752563 72.0
1425.94043 128.0
1426.218628 124.0
1426.278687 60.0
1426.90271 176.0
1426.985352 140.0
1427.217529 140.0
1427.235474 124.0
1427.601929 148.0
1427.917847 36.0
1428.068237 180.0
1428.18103 224.0
1428.354004 180.0
1428.515747 160.0
1429.277222 140.0
1429.583374 168.0
1429.964478 140.0
1430.302979 140.0
1430.415894 172.0
1430.551392 56.0
1430.777222 52.0
1431.183716 60.0
1431.274048 36.0
1431.557495 176.0
1431.779419 144.0
1432.094971 104.0
1432.198364 116.0
1432.343506 104.0
1432.471558 64.0
1432.998901 120.0
1433.533936 140.0
1433.674072 120.0
1433.795654 120.0
1433.858032 196.0
1434.038818 180.0
1434.601685 120.0
1434.7323 44.0
1435.207275 120.0
1435.916138 136.0
1436.381348 156.0
1436.776123 100.0
1436.987305 148.0
1437.095337 76.0
1437.545654 168.0
1437.681519 56.0
1438.32312 160.0
1438.406128 280.0
1438.526855 228.0
1438.609985 140.0
1438.685425 132.0
1438.904297 136.0
1439.017578 100.0
1439.070435 48.0
1439.153564 160.0
1439.591431 128.0
1439.764404 152.0
1439.878418 52.0
1440.074829 108.0
1440.218384 112.0
1440.418945 100.0
1440.528076 140.0
1440.671509 88.0
1440.754639 180.0
1440.883057 116.0
1441.004028 84.0
1441.232422 188.0
1441.793213 132.0
1442.1073 64.0
1442.205566 144.0
1442.347656 84.0
1442.406738 176.0
1442.538086 48.0
1442.681763 124.0
1442.749756 176.0
1442.931274 132.0
1443.296143 124.0
1443.536133 48.0
1443.677856 64.0
1443.80835 184.0
1443.899048 168.0
1444.393311 136.0
1444.496582 176.0
1444.594971 164.0
1444.768921 112.0
1444.980835 84.0
1445.08667 156.0
1445.842407 120.0
1446.161255 68.0
1446.221802 84.0
1446.411133 64.0
1446.499878 244.0
1446.668457 76.0
1446.721436 52.0
1446.953369 152.0
1447.03186 160.0
1447.349854 108.0
1447.448242 120.0
1447.546753 92.0
1447.637573 92.0
1447.89502 200.0
1448.092041 116.0
1448.177246 128.0
1448.470703 120.0
1448.637329 140.0
1448.750977 132.0
1448.82959 184.0
1448.894409 124.0
1449.069214 112.0
1449.220703 116.0
1449.478394 140.0
1449.553467 140.0
1449.842041 144.0
1449.910278 104.0
1449.981323 232.0
1450.258911 120.0
1450.410522 84.0
1450.562134 168.0
1450.637939 116.0
1450.69104 164.0
1450.812256 132.0
1451.009399 176.0
1451.183716 180.0
1451.305054 184.0
1451.38855 108.0
1451.747925 112.0
1452.336426 40.0
1452.389526 116.0
1453.089722 164.0
1453.175293 272.0
1453.301392 196.0
1453.428955 104.0
1453.656494 116.0
1453.732422 124.0
1453.824829 92.0
1453.914551 108.0
1454.051147 168.0
1454.632446 136.0
1454.853394 144.0
1454.871826 100.0
1454.896484 156.0
1454.959717 172.0
1455.250488 76.0
1455.36438 132.0
1455.432739 80.0
1455.626709 168.0
1455.713745 120.0
1456.047852 120.0
1456.192139 136.0
1456.276978 96.0
1456.944214 100.0
1457.004639 112.0
1457.225342 128.0
1457.354492 140.0
1457.598022 160.0
1458.053589 104.0
1458.106812 152.0
1458.312012 164.0
1458.434082 64.0
1458.694946 92.0
1458.842285 140.0
1459.064453 176.0
1459.148193 176.0
1459.310547 176.0
1459.784668 232.0
1459.878052 80.0
1460.106201 64.0
1460.179077 60.0
1460.539795 196.0
1460.64624 116.0
1460.752808 92.0
1460.88208 168.0
1461.03418 88.0
1461.140747 156.0
1461.27771 152.0
1461.429077 124.0
1461.457031 112.0
1461.665771 108.0
1462.015747 76.0
1462.670288 92.0
1462.784546 88.0
1463.61438 80.0
1464.094116 72.0
1464.185425 152.0
1464.275513 88.0
1464.368286 128.0
1464.684204 184.0
1464.870972 92.0
1465.025757 152.0
1465.259521 144.0
1465.328125 40.0
1465.396606 108.0
1465.686157 160.0
1465.762329 36.0
1465.842285 276.0
1466.006226 296.0
1466.463501 216.0
1466.600708 136.0
1466.760742 156.0
1466.924316 112.0
1467.058105 216.0
1467.134277 176.0
1467.22583 208.0
1467.302002 200.0
1467.363037 108.0
1467.574585 128.0
1467.976196 152.0
1468.376343 176.0
1468.681519 76.0
1468.729736 168.0
1468.857666 152.0
1468.994995 96.0
1469.08374 152.0
1469.330688 68.0
1469.422241 148.0
1469.750366 108.0
1469.933472 92.0
1470.246338 124.0
1470.341675 116.0
1470.420166 92.0
1470.446533 120.0
1470.536377 176.0
1470.788208 132.0
1470.856934 160.0
1471.033325 80.0
1471.230957 124.0
1471.490601 100.0
1471.673828 136.0
1471.872314 152.0
1472.002075 144.0
1472.271973 120.0
1472.452637 36.0
1472.536743 76.0
1472.929565 168.0
1473.24707 152.0
1473.361694 152.0
1473.491577 148.0
1473.644409 156.0
1473.727295 116.0
1473.942383 68.0
1474.140991 192.0
1474.225098 64.0
1474.347412 124.0
1474.454346 92.0
1474.561401 96.0
1474.653076 160.0
1474.943481 100.0
1475.241455 140.0
1475.600952 132.0
1475.654419 60.0
1475.89917 132.0
1476.018799 128.0
1476.296753 212.0
1476.39624 196.0
1476.556763 204.0
1476.610352 84.0
1476.702148 124.0
1476.878052 80.0
1476.939209 200.0
1477.162109 112.0
1477.276978 100.0
1477.528198 96.0
1477.597046 64.0
1477.875244 216.0
1477.956665 44.0
1478.216797 196.0
1478.360229 152.0
1478.477051 28.0
1478.64563 148.0
1478.959229 112.0
1479.012817 164.0
1479.280762 152.0
1479.487427 112.0
1479.625244 132.0
1479.717041 116.0
1479.862549 92.0
1480.069336 44.0
1480.184082 80.0
1480.651245 140.0
1480.766113 176.0
1480.819702 152.0
1480.949951 140.0
1481.043823 208.0
1481.419189 124.0
1481.593384 76.0
1481.984497 76.0
1482.078735 140.0
1482.294189 172.0
1482.436279 172.0
1482.819458 132.0
1482.87439 264.0
1483.040161 136.0
1483.218018 104.0
1483.279297 104.0
1483.693237 88.0
1483.769897 136.0
1483.831299 44.0
1484.091919 76.0
1484.2146 164.0
1484.276001 124.0
1484.390991 160.0
1484.498291 216.0
1484.582764 164.0
1484.736084 68.0
1484.958496 56.0
1485.088867 52.0
1485.234619 152.0
1485.495361 156.0
1485.656494 84.0
1485.858398 88.0
1486.110229 112.0
1486.446777 80.0
1486.715332 72.0
1486.784424 76.0
1487.005127 116.0
1487.237305 152.0
1487.413818 80.0
1487.714722 120.0
1487.797607 136.0
1487.881348 128.0
1487.907715 116.0
1487.938232 168.0
1488.05481 144.0
1488.133057 144.0
1488.419556 84.0
1488.568359 124.0
1488.672974 40.0
1488.726685 340.0
1488.791626 116.0
1488.878784 120.0
1488.949463 156.0
1489.064575 88.0
1489.225952 64.0
1489.394897 52.0
1489.656006 120.0
1489.886475 92.0
1490.12207 244.0
1490.239868 40.0
1490.439697 160.0
1490.593384 124.0
1490.700928 100.0
1490.785522 72.0
1490.956787 124.0
1491.031372 132.0
1491.152344 108.0
1491.397217 128.0
1492.184448 132.0
1492.276733 104.0
1492.762573 144.0
1492.890869 168.0
1492.920776 148.0
1492.935425 132.0
1493.245605 148.0
1493.353271 144.0
1493.645508 84.0
1493.730225 100.0
1494.060913 160.0
1494.211548 104.0
1494.307129 144.0
1494.360962 64.0
1494.453369 120.0
1494.614624 96.0
1494.699585 116.0
1494.8396 168.0
1495.015015 132.0
1495.530762 160.0
1495.776489 128.0
1495.892456 84.0
1496.269775 100.0
1496.454468 136.0
1496.539185 48.0
1496.708618 64.0
1496.862549 92.0
1497.031982 112.0
1497.093628 112.0
1497.287842 184.0
1497.771362 140.0
1497.849243 72.0
1497.933105 156.0
1498.059204 152.0
1498.271851 172.0
1498.294922 112.0
1498.320923 168.0
1498.683472 184.0
1498.776001 156.0
1499.004028 100.0
1499.119629 160.0
1499.235229 52.0
1499.461426 92.0
1499.582031 32.0
1499.689941 164.0
1499.815308 108.0
1499.936646 92.0
1500.195923 156.0
1500.376221 132.0
1500.992798 208.0
1501.095215 236.0
1501.168579 60.0
1501.262695 56.0
1501.38501 88.0
1501.509521 132.0
1501.625244 108.0
1501.702271 112.0
1502.088013 28.0
1502.388794 68.0
1502.860962 140.0
1502.97522 92.0
1503.098267 80.0
1503.139893 116.0
1503.226929 116.0
1503.322388 64.0
1503.466431 132.0
1503.530762 100.0
1503.638794 296.0
1503.870361 156.0
1504.009277 84.0
1504.422363 88.0
1504.727295 52.0
1504.78125 80.0
1505.298584 128.0
