>compound 6H-Pyrido[2,3-b][1,4]benzodiazepin-6-one, 11-[[2-[(diethylamino)methyl]-1-piperidinyl]acetyl]-5,11-dihydro- [CAS]
>formula C24H31N5O2
>ionization [M+H]+
>parentmass 422.2550516840906
#inchi InChI=1S/C24H31N5O2/c1-3-27(4-2)16-18-10-7-8-15-28(18)17-22(30)29-21-13-6-5-11-19(21)24(31)26-20-12-9-14-25-23(20)29/h5-6,9,11-14,18H,3-4,7-8,10,15-17H2,1-2H3,(H,26,31)
#inchikey UBRKDAVQCKZSPO
#Ion_Source LC-ESI
#Instrument qTof
#Compound_Source Commercial
#PI Dorrestein
#Data_Collector Garg_Neha
#Scan -1
#Precursor_MZ 422.255
#ExactMass 421.248
#Charge 1
#CAS_Number N/A
#Pubmed_ID N/A
#Smiles CCN(CC)CC1CCCCN1CC(=O)N2c3ccccc3C(=O)Nc4cccnc24
#INCHI_AUX N/A
#Library_Class 1
#SpectrumID CCMSLIB00000079135
#IonMode Positive
#UpdateWorkflowName UPDATE-SINGLE-ANNOTATED-GOLD
#LibraryQualityString Gold
#TaskID 278b19f5865741e282cec7349aa7e7a1
##Scan# 1045
#SpectrumFile NCP003512_E2_F11_BD6_01_15730.mzXML
#LibraryName NIHcollectionI_05062014.mgf
#MQScore -1
#Organism NIHcollectionI_05062014
#TIC_Query 0
#RT_Query -1
#MZErrorPPM -1
#SharedPeaks 0
#MassDiff 0
#LibMZ -1
#SpecMZ 422.255
#SpecCharge 0
#internalFilename spec-00000.mgf

>collision 10
45.154251 168.0
45.388603 152.0
45.603294 156.0
45.635662 148.0
45.822746 160.0
46.219704 172.0
46.86058 284.0
47.110241 212.0
47.884357 212.0
48.299316 176.0
48.722118 164.0
48.907063 168.0
49.089573 176.0
49.391243 160.0
49.608288 144.0
51.270542 140.0
52.048744 176.0
52.058796 156.0
52.238453 184.0
52.921089 180.0
53.183479 144.0
53.602322 200.0
55.709301 144.0
56.312569 148.0
56.784019 208.0
56.851532 180.0
56.976242 140.0
57.016727 220.0
57.17915 188.0
57.239368 164.0
57.560551 156.0
58.643749 152.0
59.310165 152.0
60.267391 176.0
60.306026 176.0
60.784565 156.0
61.352261 172.0
61.487965 172.0
62.758614 232.0
63.038002 188.0
63.606579 164.0
64.519379 168.0
64.833099 164.0
65.67395 244.0
66.157097 224.0
66.233208 152.0
66.278572 168.0
66.822495 208.0
67.803879 180.0
67.851196 216.0
68.587875 156.0
69.182549 140.0
69.733253 196.0
70.718964 164.0
71.851562 192.0
72.841888 228.0
73.047569 168.0
75.058266 160.0
75.265327 168.0
75.90036 176.0
76.002693 188.0
76.19368 196.0
76.296219 168.0
76.822136 148.0
77.737198 212.0
78.076248 140.0
78.171242 160.0
78.334976 240.0
78.748398 200.0
78.878479 212.0
79.016411 164.0
79.071266 184.0
79.763 196.0
80.886772 156.0
81.209297 144.0
81.708679 204.0
82.213196 152.0
82.231239 144.0
83.334053 152.0
84.711449 240.0
85.024979 140.0
85.331741 196.0
86.703239 144.0
86.853416 212.0
87.194275 192.0
87.282417 176.0
87.500107 152.0
87.660286 204.0
87.973625 164.0
88.643204 212.0
88.778175 212.0
88.849449 156.0
88.937645 148.0
90.156197 152.0
90.388786 160.0
91.168167 148.0
92.250771 224.0
92.354027 176.0
92.512848 196.0
92.817482 176.0
92.909538 212.0
93.0746 188.0
93.443634 152.0
94.068024 188.0
94.528008 140.0
94.870827 140.0
95.377472 144.0
95.642006 160.0
96.080734 532.0
96.848686 148.0
97.087372 320.0
97.42289 176.0
98.09687 2324.0
99.100113 488.0
99.746529 184.0
100.079582 216.0
100.111267 832.0
100.264839 156.0
101.941864 240.0
102.134865 236.0
103.48494 176.0
104.473305 196.0
105.413223 140.0
105.564491 140.0
106.782669 180.0
108.078163 208.0
108.701866 216.0
108.77243 172.0
109.089493 168.0
109.679337 156.0
109.808609 192.0
109.994308 216.0
110.05938 484.0
110.097862 20320.0
110.234749 128.0
110.345268 140.0
111.069832 140.0
111.101006 1576.0
111.246101 180.0
111.902016 144.0
112.017296 124.0
112.11142 2240.0
113.118515 196.0
114.096619 156.0
115.095207 176.0
115.321655 168.0
115.603958 192.0
116.19104 152.0
116.416412 176.0
117.180008 176.0
118.039055 180.0
118.071495 152.0
119.216141 240.0
119.281342 224.0
119.469566 172.0
119.995384 184.0
120.054253 324.0
120.079613 208.0
121.956795 224.0
122.096893 164.0
122.284515 220.0
123.495796 148.0
123.736992 144.0
123.925247 160.0
124.073151 432.0
125.198807 236.0
125.663918 196.0
125.947433 160.0
126.092422 3952.0
126.338615 168.0
127.094398 436.0
127.396729 156.0
128.141388 188.0
128.276596 164.0
129.173065 196.0
129.465042 160.0
131.821793 240.0
132.162491 220.0
132.205963 140.0
133.037979 148.0
134.333557 140.0
134.462769 212.0
134.714447 220.0
135.287949 160.0
135.818604 140.0
136.415359 224.0
136.973831 200.0
137.101974 148.0
137.528778 152.0
137.862762 196.0
138.005341 168.0
138.054443 184.0
138.092697 48900.0
138.317413 164.0
138.548965 136.0
138.58815 180.0
138.829895 132.0
139.04216 176.0
139.099045 19596.0
139.31543 160.0
139.350677 164.0
139.737961 192.0
139.815079 104.0
139.921387 120.0
140.103195 2260.0
140.190399 156.0
140.457108 156.0
141.107864 316.0
141.122681 268.0
142.094284 184.0
142.935226 168.0
142.973297 188.0
143.528336 152.0
146.062134 188.0
146.87146 152.0
147.992783 140.0
149.753372 184.0
150.199417 160.0
151.124054 140.0
152.056473 176.0
152.143112 496.0
152.299545 172.0
152.466614 208.0
153.283615 152.0
154.15773 280.0
154.639404 148.0
156.331955 212.0
156.361816 208.0
157.146759 184.0
157.646149 160.0
157.708618 184.0
158.763748 188.0
158.815308 168.0
160.717163 180.0
161.146393 160.0
162.062286 140.0
162.50853 148.0
162.80806 156.0
164.404221 152.0
164.619934 128.0
165.772354 144.0
166.521454 172.0
167.465363 160.0
168.063431 264.0
169.705841 168.0
172.433945 204.0
172.59079 164.0
173.169113 144.0
173.800888 160.0
173.848129 180.0
176.835678 192.0
180.254044 236.0
181.866257 164.0
182.473358 160.0
182.893005 184.0
183.185287 7716.0
183.301178 164.0
184.091232 336.0
184.189636 916.0
185.977036 176.0
186.277115 124.0
187.194992 140.0
187.456497 140.0
188.059204 160.0
190.394547 196.0
190.831467 172.0
190.902954 212.0
191.040466 144.0
191.888687 188.0
195.074432 308.0
195.122391 160.0
195.962906 208.0
196.065903 432.0
196.086441 2316.0
197.068542 272.0
197.10173 300.0
197.459106 144.0
198.192535 180.0
198.714035 152.0
202.027145 164.0
202.055435 148.0
202.811508 236.0
204.012222 160.0
205.213638 160.0
206.06955 300.0
206.888504 148.0
207.07106 168.0
207.099701 148.0
207.721695 156.0
207.839325 148.0
209.08078 196.0
210.06749 2004.0
210.46727 148.0
211.072067 428.0
211.180038 528.0
211.319901 184.0
211.638275 184.0
211.715088 260.0
211.926392 128.0
211.984131 180.0
212.082687 7148.0
212.162674 144.0
212.182404 124.0
213.085815 824.0
213.209061 160.0
213.244415 132.0
213.76886 220.0
216.082672 164.0
216.761963 144.0
219.560547 156.0
220.087723 184.0
220.215729 140.0
221.073074 156.0
221.847641 132.0
222.068481 1108.0
222.14859 140.0
223.066742 144.0
223.711685 164.0
223.887344 220.0
224.082901 22580.0
224.169083 148.0
224.423721 172.0
224.969681 148.0
225.086807 3900.0
226.08754 332.0
226.902267 168.0
227.550293 160.0
229.629608 156.0
230.251312 164.0
231.137039 172.0
231.224808 140.0
231.361008 168.0
233.415054 164.0
234.066162 128.0
235.069092 276.0
235.380447 160.0
236.012939 144.0
236.08342 3208.0
236.248444 172.0
236.803665 184.0
236.989334 232.0
237.087814 1468.0
238.064148 1412.0
238.100479 968.0
238.271774 184.0
238.344086 120.0
238.889694 172.0
239.059372 272.0
239.102158 300.0
240.371628 200.0
240.934586 108.0
242.14299 180.0
243.22818 152.0
243.47345 180.0
244.318893 144.0
246.654556 160.0
247.283234 156.0
247.99733 148.0
248.082657 108.0
248.944794 176.0
249.090836 328.0
250.062347 272.0
250.105301 124.0
250.133224 172.0
251.116287 156.0
251.176208 188.0
251.337112 148.0
251.870636 144.0
251.914856 144.0
252.078247 43844.0
252.183441 140.0
252.947983 96.0
253.080307 6788.0
253.989685 112.0
254.082642 980.0
254.451996 96.0
254.825027 152.0
254.859802 160.0
254.970276 140.0
255.082565 168.0
255.121841 156.0
257.112579 144.0
258.441895 180.0
258.470703 180.0
259.893341 152.0
260.544983 120.0
261.931549 176.0
262.086182 184.0
262.398834 176.0
262.531036 144.0
262.727783 140.0
263.097198 144.0
264.113556 156.0
265.105804 124.0
265.412201 180.0
266.090088 364.0
266.239655 204.0
266.684753 192.0
267.114227 148.0
268.097229 164.0
272.87619 144.0
272.951813 152.0
274.713837 168.0
275.84317 204.0
276.124237 248.0
276.858917 164.0
277.103455 156.0
277.909698 164.0
278.142151 104.0
278.520538 160.0
279.120636 152.0
279.514557 172.0
280.073853 196.0
281.104523 148.0
282.112701 160.0
285.233521 152.0
285.690857 236.0
286.345795 152.0
287.742523 172.0
288.053925 220.0
288.405334 176.0
289.108795 148.0
289.318634 204.0
289.603088 144.0
290.120361 152.0
290.202881 140.0
290.85083 140.0
291.132629 140.0
292.14209 160.0
292.451752 168.0
294.473572 156.0
294.763947 152.0
294.822052 140.0
295.124512 176.0
296.12674 168.0
296.423553 176.0
298.692902 160.0
298.727295 160.0
299.169952 120.0
299.808411 152.0
300.777557 148.0
302.05011 156.0
302.107941 156.0
302.620148 208.0
304.270447 168.0
304.926941 220.0
305.136658 264.0
305.471619 136.0
307.111847 128.0
309.93811 212.0
312.796844 220.0
313.582306 180.0
313.691559 144.0
314.153534 220.0
314.336975 140.0
314.534637 212.0
314.651123 144.0
315.91983 180.0
316.128571 144.0
317.354156 264.0
318.967468 108.0
319.06897 180.0
319.111633 432.0
319.156097 5600.0
319.212891 100.0
320.159882 928.0
320.45697 156.0
320.719086 144.0
321.171753 2864.0
321.852081 140.0
322.17511 708.0
322.791321 180.0
323.156158 148.0
326.042725 232.0
326.17572 148.0
327.89975 160.0
328.438934 208.0
328.675079 160.0
329.234589 180.0
330.113892 176.0
331.154999 1488.0
331.297516 172.0
332.061066 140.0
332.159607 420.0
332.605316 156.0
333.163879 308.0
333.52063 144.0
333.793304 144.0
336.164703 160.0
336.208496 164.0
336.270538 244.0
337.154327 148.0
337.428467 232.0
340.411011 156.0
340.642395 152.0
341.388489 196.0
341.609161 144.0
342.102264 180.0
343.854736 180.0
343.978577 212.0
344.44754 152.0
345.608368 148.0
346.419159 208.0
347.060303 160.0
347.183044 156.0
347.538788 152.0
347.8685 184.0
348.249268 124.0
348.376251 160.0
348.562805 152.0
348.801453 140.0
348.903168 148.0
349.167511 79860.0
349.263458 252.0
349.396057 160.0
349.48642 224.0
349.558502 128.0
349.634583 168.0
349.910004 164.0
349.936066 164.0
349.97345 140.0
350.058502 132.0
350.170288 17308.0
350.323608 132.0
350.701996 132.0
350.772827 144.0
350.883484 232.0
350.958679 212.0
351.096954 96.0
351.171387 2612.0
351.747101 108.0
352.161835 128.0
352.230377 244.0
352.275574 108.0
352.345337 176.0
352.404419 136.0
352.63681 140.0
353.128784 116.0
353.536255 112.0
353.893707 144.0
356.333069 116.0
357.015686 232.0
361.152985 172.0
362.777435 168.0
363.589111 164.0
363.890839 148.0
364.010498 144.0
364.720917 148.0
365.219025 140.0
365.260864 144.0
365.751404 100.0
367.363556 228.0
368.566162 156.0
369.525848 148.0
370.906342 132.0
372.458496 160.0
372.919556 152.0
372.969513 144.0
375.279297 140.0
375.707397 148.0
376.761322 196.0
378.404968 172.0
378.86969 148.0
382.281525 160.0
382.913239 160.0
384.597565 184.0
385.163727 152.0
386.043091 184.0
386.9039 152.0
390.59259 168.0
391.139526 188.0
391.182831 160.0
391.300934 144.0
393.608704 232.0
398.284637 196.0
402.745697 156.0
402.933441 192.0
405.193848 204.0
407.167358 164.0
408.924255 172.0
409.693359 148.0
410.656708 196.0
412.057434 200.0
414.509399 160.0
414.738708 120.0
416.267883 144.0
416.533844 140.0
416.578522 144.0
417.676056 192.0
417.803894 96.0
417.892639 236.0
418.803528 144.0
418.850891 120.0
419.098724 104.0
419.325043 204.0
419.534882 108.0
419.97818 176.0
420.171997 112.0
420.212616 180.0
420.249725 304.0
420.28775 156.0
420.320068 144.0
420.389435 156.0
420.485107 144.0
420.518738 204.0
420.576996 96.0
420.628754 220.0
420.703247 284.0
420.81311 96.0
420.937347 108.0
421.01355 212.0
421.056458 260.0
421.120636 148.0
421.188599 284.0
421.243866 292.0
421.352295 372.0
421.461731 168.0
421.500031 280.0
421.53006 212.0
421.572418 296.0
421.635071 156.0
421.667114 172.0
421.755859 316.0
421.790283 124.0
421.825348 384.0
421.953949 344.0
422.038055 184.0
422.070343 308.0
422.10614 312.0
422.149109 632.0
422.258575 227772.0
422.365295 268.0
422.427704 132.0
422.512024 296.0
422.551636 244.0
422.625427 292.0
422.707184 356.0
422.746063 128.0
422.849274 292.0
422.882874 148.0
422.931366 4784.0
422.975494 352.0
422.991058 512.0
423.029724 160.0
423.087921 240.0
423.129456 248.0
423.172943 148.0
423.260071 94716.0
423.598663 348.0
423.650299 204.0
423.681946 332.0
423.823639 96.0
423.866241 192.0
423.932648 256.0
423.985992 188.0
424.016846 196.0
424.077301 236.0
424.166779 96.0
424.262115 14592.0
424.418884 164.0
424.533234 264.0
424.731415 108.0
424.800903 160.0
424.841187 192.0
424.896667 120.0
424.943237 188.0
425.005585 164.0
425.036133 228.0
425.268372 1540.0
425.354309 132.0
425.434753 104.0
425.48642 176.0
425.513367 400.0
425.602722 232.0
425.631744 240.0
425.675171 176.0
425.725769 176.0
425.806824 320.0
425.842468 284.0
425.885376 260.0
425.930084 424.0
425.977386 340.0
426.029205 220.0
426.071442 392.0
426.131683 220.0
426.187134 232.0
426.282257 164.0
426.349884 152.0
426.52478 204.0
426.608826 116.0
426.66153 224.0
426.722961 132.0
426.811829 100.0
426.843811 176.0
426.980713 140.0
427.041504 188.0
427.229828 112.0
427.262634 160.0
427.306396 124.0
427.675415 128.0
427.791229 128.0
429.178284 108.0
429.999451 140.0
436.902283 116.0
437.703247 148.0
438.519775 160.0
438.94693 128.0
445.243011 140.0
469.72699 140.0
511.05954 156.0
548.214539 228.0
597.044617 152.0
611.861023 140.0
630.25708 144.0
634.130371 168.0
653.000488 100.0
659.708374 160.0
689.326477 96.0
698.24762 176.0
737.172791 140.0
753.320312 100.0
840.780334 140.0
878.014587 148.0
912.150146 160.0
956.749023 168.0
1182.485107 148.0
1272.328735 172.0
1294.574829 140.0
1312.438477 152.0
1320.085327 144.0
1367.838257 180.0
1372.00769 148.0
1374.928589 204.0
1382.799561 192.0
1388.348511 156.0
1408.286743 200.0
1419.077515 176.0
1420.780029 148.0
1440.019897 208.0
1448.968506 196.0
1454.853516 180.0
1466.781128 140.0
1478.068848 192.0
1485.807251 160.0
1492.112427 140.0
1499.879761 220.0
1521.268188 140.0
1522.603638 212.0
1529.056396 240.0
1534.095825 216.0
1548.457397 172.0
1549.170166 156.0
1554.619263 144.0
1565.908569 152.0
1566.008057 100.0
1578.804199 156.0
1583.418091 200.0
1587.895874 180.0
1588.474854 172.0
1622.999878 220.0
1625.125366 192.0
1628.408569 212.0
1634.622803 196.0
1635.556396 144.0
1636.562744 216.0
1637.126343 180.0
1647.668457 152.0
1657.450317 164.0
1660.993042 172.0
1661.293213 172.0
1661.820557 168.0
1672.645264 192.0
1675.41394 148.0
1687.141113 176.0
1690.60083 148.0
1691.075562 140.0
1702.315186 140.0
1704.582397 168.0
1711.640015 208.0
1711.862427 180.0
1715.091919 152.0
1716.905762 192.0
1718.613281 164.0
1720.263794 240.0
1734.682251 148.0
1739.825439 212.0
1740.074585 248.0
1746.814209 148.0
1759.430908 140.0
1764.209473 140.0
1765.187622 144.0
1767.253662 148.0
1769.069702 188.0
1769.412964 172.0
1773.299683 164.0
1786.162964 156.0
1794.77832 184.0
1795.807129 140.0
1800.964111 196.0
1801.521606 168.0
1802.096069 192.0
1805.671753 220.0
1807.414429 140.0
1815.266724 172.0
1822.575073 156.0
1830.409058 176.0
1831.925171 156.0
1832.393677 196.0
1833.56958 160.0
1855.726196 140.0
1864.576294 164.0
1865.495972 184.0
1869.254517 236.0
1870.364746 148.0
1870.605713 168.0
1871.509644 148.0
1876.368896 156.0
1877.351929 148.0
1877.412231 148.0
1881.303589 140.0
1881.873413 168.0
1883.108276 144.0
1888.510132 148.0
1891.123047 208.0
1891.642456 160.0
1896.250366 144.0
1898.148926 176.0
1900.438843 156.0
1910.986572 152.0
1915.957764 160.0
1918.650635 200.0
1919.329346 148.0
1921.633423 212.0
1921.956177 240.0
1923.422363 188.0
1923.666748 192.0
1923.902466 140.0
1929.773438 208.0
1932.701538 144.0
1933.841064 148.0
1935.915894 220.0
1940.296997 272.0
1950.321777 164.0
1952.326294 192.0
1953.592773 140.0
1959.80835 188.0
1960.204956 180.0
1963.704712 180.0
1971.261719 156.0
1975.134033 140.0
1976.107178 168.0
1993.735107 172.0
1995.512817 168.0
1999.996338 160.0
