>compound Buflomedil HCl
>formula C17H25NO4
>ionization [M+H]+
>parentmass 308.185608
#inchi InChI=1S/C17H25NO4/c1-20-13-11-15(21-2)17(16(12-13)22-3)14(19)7-6-10-18-8-4-5-9-18/h11-12H,4-10H2,1-3H3
#inchikey OWYLAEYXIQKAOL
#Ion_Source LC-ESI
#Instrument qTof
#Compound_Source Commercial
#PI Dorrestein
#Data_Collector Garg_Neha
#Scan -1
#Precursor_MZ 308.186
#ExactMass 307.178
#Charge 1
#CAS_Number N/A
#Pubmed_ID N/A
#Smiles COc1cc(OC)c(C(=O)CCCN2CCCC2)c(OC)c1
#INCHI_AUX N/A
#Library_Class 1
#SpectrumID CCMSLIB00000079034
#IonMode Positive
#UpdateWorkflowName UPDATE-SINGLE-ANNOTATED-GOLD
#LibraryQualityString Gold
#TaskID 278b19f5865741e282cec7349aa7e7a1
##Scan# 1110
#SpectrumFile NCP003352_G2_H11_BC7_01_15721.mzXML
#LibraryName NIHcollectionI_05062014.mgf
#MQScore -1
#Organism NIHcollectionI_05062014
#TIC_Query 0
#RT_Query -1
#MZErrorPPM -1
#SharedPeaks 0
#MassDiff 0
#LibMZ -1
#SpecMZ 308.186
#SpecCharge 0
#internalFilename spec-00000.mgf

>collision 10
62.706825 196.0
65.461456 212.0
66.760925 140.0
72.579102 160.0
79.617599 160.0
91.05452 152.0
92.350334 164.0
93.590256 156.0
95.085991 244.0
95.646248 164.0
109.037849 228.0
112.117287 196.0
114.370804 208.0
115.052933 180.0
121.067375 232.0
123.078751 152.0
124.086182 188.0
126.952789 176.0
129.069519 140.0
137.019852 184.0
137.781479 160.0
138.307632 176.0
139.877975 204.0
140.042786 332.0
140.107483 5900.0
141.109177 220.0
142.895309 148.0
149.056976 156.0
151.072571 260.0
152.052139 196.0
157.065002 168.0
164.088547 208.0
165.095184 244.0
168.088547 188.0
173.025742 140.0
173.534012 220.0
174.069275 196.0
176.855896 144.0
177.088898 168.0
178.063812 160.0
178.102188 368.0
179.106506 172.0
180.049026 180.0
181.086472 1084.0
184.390594 184.0
186.97789 184.0
187.282837 176.0
189.053833 216.0
190.06311 184.0
191.07106 368.0
192.076996 168.0
193.079514 196.0
193.11824 140.0
193.483505 288.0
194.094223 140.0
194.956345 140.0
195.065231 2756.0
195.101593 300.0
196.072479 592.0
196.119675 232.0
197.03775 180.0
197.599701 180.0
198.487579 152.0
199.085175 1116.0
200.093384 184.0
201.132111 244.0
204.075455 288.0
205.091827 160.0
206.259247 140.0
206.533737 148.0
208.079483 196.0
209.1203 304.0
211.555099 176.0
221.117691 180.0
222.086319 308.0
224.090729 156.0
224.928726 152.0
227.104019 176.0
229.121033 140.0
231.101593 176.0
235.83345 156.0
237.112534 5128.0
237.213928 212.0
238.115265 736.0
239.112946 132.0
249.077621 144.0
249.876099 188.0
252.039001 140.0
255.08197 124.0
255.583954 148.0
260.067596 148.0
265.03717 160.0
265.105225 176.0
265.520203 156.0
269.115936 200.0
284.915344 152.0
285.614532 200.0
287.872589 148.0
288.988037 208.0
289.057312 2328.0
289.157166 168.0
290.060944 504.0
290.17569 400.0
291.180084 292.0
295.055573 180.0
300.999634 152.0
305.501801 144.0
306.171295 1380.0
306.212433 112.0
307.069977 1380.0
307.121368 960.0
307.17868 304.0
307.598145 180.0
307.987152 212.0
308.070251 800.0
308.122925 172.0
308.185608 10224.0
308.428894 104.0
308.894806 128.0
309.062683 128.0
309.130585 412.0
309.189209 1728.0
309.273102 168.0
310.189728 316.0
311.060425 176.0
311.131744 152.0
311.222137 172.0
312.099884 172.0
341.952637 156.0
364.197906 172.0
425.131653 168.0
426.137787 148.0
689.395691 156.0
1415.943115 208.0
1496.872925 144.0
1769.026123 168.0
1866.861328 204.0
