>compound MLS002153974-01!Isopyrin hydrochloride18342-39-7
>formula C14H19N3O
>ionization [M+H]+
>parentmass 246.16008868009052
#inchi InChI=1S/C14H19N3O/c1-10(2)15-13-11(3)16(4)17(14(13)18)12-8-6-5-7-9-12/h5-10,15H,1-4H3
#inchikey XOZLRRYPUKAKMU
#origInchi InChI=1S/C14H19N3O.ClH/c1-10(2)15-13-11(3)16(4)17(14(13)18)12-8-6-5-7-9-12;/h5-10,15H,1-4H3;1H
#Ion_Source LC-ESI
#Instrument qTof
#Compound_Source NIH Pharmacologically Active Library
#PI Dorrestein
#Data_Collector VP/LMS
#Scan -1
#Precursor_MZ 246.165
#ExactMass 245.153
#Charge 1
#CAS_Number N/A
#Pubmed_ID N/A
#Smiles CC(C)Nc1c(C)n(C)n(c2ccccc2)c1=O.Cl
#INCHI_AUX N/A
#Library_Class 3
#SpectrumID CCMSLIB00000086062
#IonMode Positive
#UpdateWorkflowName UPDATE-SINGLE-ANNOTATED-BRONZE
#LibraryQualityString Bronze
#TaskID d252d724072548979f1f6f1ced849daf
##Scan# 1155
#SpectrumFile p5-C05_GC5_01_18450.mzXML
#LibraryName Pharm_Active_Library.mgf
#MQScore -1
#Organism Pharm_Active_Library
#TIC_Query 0
#RT_Query -1
#MZErrorPPM -1
#SharedPeaks 0
#MassDiff 0
#LibMZ -1
#SpecMZ 246.165
#SpecCharge 0
#internalFilename spec-00000.mgf

>collision 10
46.957211 192.0
47.122379 168.0
47.926392 36.0
48.487427 268.0
48.968124 184.0
52.110226 236.0
52.848419 236.0
53.300804 208.0
53.35894 132.0
53.893829 184.0
54.490139 268.0
54.810883 200.0
55.032127 180.0
56.063042 160.0
56.404819 188.0
56.899166 152.0
57.761139 68.0
57.823174 204.0
58.224926 168.0
58.951588 116.0
59.006615 188.0
59.308178 104.0
59.553669 216.0
59.695057 200.0
60.855473 216.0
61.060589 116.0
61.090141 128.0
61.267609 108.0
64.175545 96.0
64.33828 232.0
65.175911 220.0
65.380127 148.0
66.030281 212.0
66.878815 112.0
67.374535 168.0
67.410477 176.0
67.623077 192.0
69.150421 140.0
71.544106 168.0
73.858734 168.0
74.250946 224.0
75.223076 80.0
76.83873 192.0
77.753868 148.0
78.748596 140.0
79.687439 164.0
80.773102 84.0
81.436287 144.0
82.351234 256.0
82.390976 88.0
85.112061 132.0
86.522499 120.0
87.112213 80.0
87.534393 144.0
88.68145 64.0
89.280342 216.0
91.564606 208.0
92.051643 220.0
93.058823 704.0
93.182869 184.0
94.067505 1328.0
94.091896 228.0
95.073242 172.0
95.135353 168.0
95.512321 92.0
95.590141 96.0
96.081841 368.0
96.411118 100.0
97.078102 100.0
97.976891 76.0
98.065559 88.0
99.523499 208.0
100.014526 132.0
100.896217 224.0
100.978203 144.0
101.036209 112.0
102.891151 188.0
103.057198 148.0
104.049751 804.0
104.191315 68.0
105.052895 300.0
105.068695 140.0
105.978546 64.0
106.065933 312.0
107.155807 48.0
107.380493 176.0
107.95874 40.0
108.08094 552.0
109.038826 188.0
109.083153 332.0
110.051201 196.0
110.090462 364.0
110.151443 128.0
111.053108 180.0
111.084717 316.0
111.09848 176.0
111.328499 80.0
111.702606 196.0
112.568817 200.0
113.922195 196.0
114.645599 196.0
115.057663 228.0
115.758545 212.0
116.863968 188.0
117.060135 144.0
117.295288 56.0
118.067291 492.0
118.119514 56.0
118.951599 140.0
119.063774 120.0
119.069733 400.0
120.04377 120.0
120.598289 76.0
121.05114 152.0
121.074272 180.0
121.946205 124.0
122.564575 64.0
122.615257 268.0
122.668159 244.0
123.091751 136.0
123.892395 44.0
124.096283 220.0
124.601067 196.0
125.10672 820.0
125.222908 64.0
126.113121 144.0
126.370285 160.0
127.740997 36.0
128.049973 576.0
128.216064 100.0
129.050323 48.0
129.492523 160.0
130.000336 48.0
130.065857 528.0
131.060959 204.0
131.812943 172.0
132.045837 1252.0
132.083969 524.0
132.105576 44.0
132.181076 40.0
132.684967 172.0
132.88678 200.0
133.047287 192.0
133.07988 300.0
133.325363 40.0
133.371323 104.0
133.433395 44.0
134.094025 316.0
134.236954 144.0
134.99437 100.0
135.266617 112.0
137.077942 212.0
138.785233 228.0
142.058716 240.0
144.0681 240.0
144.495789 132.0
145.04657 88.0
145.075821 732.0
145.250381 132.0
145.291168 48.0
145.545563 132.0
145.990112 196.0
146.05957 760.0
146.216248 136.0
146.290863 156.0
146.801636 152.0
147.057983 780.0
147.091568 184.0
148.790527 148.0
148.955658 168.0
149.055267 200.0
152.068802 140.0
153.101364 200.0
154.070709 80.0
154.106903 104.0
155.194321 172.0
156.063721 176.0
156.254822 152.0
156.882401 56.0
157.078278 184.0
157.348907 56.0
158.061554 356.0
158.087631 188.0
159.094467 1124.0
159.159088 196.0
160.089066 320.0
160.999832 148.0
161.090759 144.0
162.083603 156.0
163.087448 188.0
169.073654 120.0
170.061081 148.0
171.059479 184.0
172.059357 132.0
173.052582 112.0
173.082504 196.0
173.234406 64.0
174.078934 144.0
174.110443 160.0
176.897369 128.0
176.948746 136.0
177.104965 188.0
183.075775 236.0
184.090668 220.0
184.738373 72.0
184.916962 156.0
184.976501 224.0
185.063736 144.0
187.084183 312.0
188.079132 128.0
189.093674 220.0
191.092331 300.0
192.125443 180.0
202.095901 416.0
203.012253 108.0
203.102234 572.0
203.335648 88.0
204.111328 152.0
205.118988 160.0
215.190567 100.0
223.106995 40.0
228.460037 76.0
243.955551 20.0
246.166077 136.0
292.879059 212.0
309.901154 36.0
331.750641 104.0
427.466919 92.0
518.84082 92.0
673.657898 48.0
837.005432 160.0
853.571777 124.0
872.872803 96.0
937.802185 120.0
979.051147 144.0
1001.25824 148.0
1020.418396 216.0
1029.555664 184.0
1046.200562 160.0
1049.144653 192.0
1067.181519 56.0
1075.102173 72.0
1078.995117 220.0
1119.429321 160.0
1126.31189 44.0
1134.736938 232.0
1141.202393 228.0
1145.927124 176.0
1200.900635 156.0
1211.656372 248.0
1217.184204 92.0
1217.82312 156.0
1224.7854 164.0
1227.41272 240.0
1231.75354 172.0
1232.172729 180.0
1242.59021 200.0
1269.534668 136.0
1270.960449 180.0
1275.661865 116.0
1295.693359 196.0
1297.176758 208.0
1297.384644 80.0
1309.398438 212.0
1312.100586 148.0
1324.551514 168.0
1326.319458 180.0
1331.833862 196.0
1331.971802 176.0
1333.701172 152.0
1342.029175 136.0
1345.757446 140.0
1375.843872 196.0
1381.445312 104.0
1387.154541 196.0
1387.703125 176.0
1406.292725 224.0
1413.758667 192.0
1418.836914 196.0
1421.927246 48.0
1426.696899 148.0
1428.659546 216.0
1429.825806 56.0
1436.501465 148.0
1439.376831 136.0
1441.514526 144.0
1469.349487 88.0
1475.879639 200.0
1489.328735 196.0
1499.045288 148.0
