>compound Evista (Raloxifene Hydrochloride)
>formula C28H27NO4S
>ionization [M+H]+
>parentmass 474.174835
#inchi InChI=1S/C28H27NO4S/c30-21-8-4-20(5-9-21)28-26(24-13-10-22(31)18-25(24)34-28)27(32)19-6-11-23(12-7-19)33-17-16-29-14-2-1-3-15-29/h4-13,18,30-31H,1-3,14-17H2
#inchikey GZUITABIAKMVPG
#origInchi InChI=1S/C28H27NO4S.ClH/c30-21-8-4-20(5-9-21)28-26(24-13-10-22(31)18-25(24)34-28)27(32)19-6-11-23(12-7-19)33-17-16-29-14-2-1-3-15-29;/h4-13,18,30-31H,1-3,14-17H2;1H
#Ion_Source LC-ESI
#Instrument qTof
#Compound_Source Commercial
#PI Dorrestein
#Data_Collector Garg_Neha
#Scan -1
#Precursor_MZ 474.173
#ExactMass 473.166
#Charge 1
#CAS_Number 82640-04-8
#Pubmed_ID N/A
#Smiles C1(C=CC2=C(C=1)SC(=C2C(C3=CC=C(C=C3)OCCN4CCCCC4)=O)C5=CC=C(C=C5)O)O.Cl
#INCHI_AUX N/A
#Library_Class 1
#SpectrumID CCMSLIB00000078057
#IonMode Positive
#UpdateWorkflowName UPDATE-SINGLE-ANNOTATED-GOLD
#LibraryQualityString Gold
#TaskID 77f51c88eb8b467eb4a01dd2d0cb90d2
##Scan# 1147
#SpectrumFile Plate1_41_60_GG3_01_16490.mzXML
#LibraryName FDALibrary_2_04302014.mgf
#MQScore -1
#Organism FDALibrary_2_04302014
#TIC_Query 0
#RT_Query -1
#MZErrorPPM -1
#SharedPeaks 0
#MassDiff 0
#LibMZ -1
#SpecMZ 474.173
#SpecCharge 0
#internalFilename spec-00000.mgf

>collision 10
44.972332 144.0
45.365608 156.0
45.814472 228.0
45.864193 196.0
45.921951 180.0
45.937149 168.0
45.965885 268.0
46.081608 160.0
46.119446 148.0
46.200584 180.0
46.394245 144.0
46.957207 168.0
47.06638 156.0
47.22628 204.0
47.497494 144.0
47.728222 140.0
47.769482 144.0
47.872711 164.0
48.236965 240.0
48.480572 176.0
48.59705 176.0
48.622688 160.0
49.02256 164.0
49.10342 200.0
49.683937 192.0
49.769554 168.0
49.811687 200.0
49.859459 200.0
50.140942 140.0
50.272099 260.0
50.363869 140.0
50.441589 140.0
50.459965 164.0
50.785679 160.0
51.068336 160.0
51.371746 172.0
51.548794 176.0
51.739033 140.0
52.008533 172.0
52.076019 140.0
52.244205 156.0
52.422749 188.0
52.513577 180.0
52.802441 228.0
53.067448 328.0
53.208183 184.0
53.241581 160.0
53.266273 144.0
53.650463 160.0
53.714626 192.0
53.905891 192.0
54.675022 256.0
55.178841 208.0
55.494209 144.0
55.5298 144.0
55.786686 148.0
56.155975 180.0
56.244011 188.0
56.694069 168.0
56.755672 184.0
57.203392 232.0
57.606033 204.0
58.251373 176.0
58.377525 160.0
58.404903 196.0
58.868233 208.0
59.050098 184.0
60.006588 196.0
60.036106 196.0
60.258389 164.0
60.59568 176.0
60.792606 180.0
60.859356 216.0
60.927696 192.0
61.033386 200.0
61.104935 180.0
61.167187 164.0
61.206108 144.0
61.483959 172.0
61.852467 212.0
62.222439 176.0
63.152203 140.0
63.55777 160.0
63.586334 148.0
63.635548 156.0
63.69162 156.0
64.094521 232.0
64.636559 140.0
64.712784 164.0
64.899261 180.0
65.315216 220.0
65.35704 196.0
65.747025 160.0
65.832588 156.0
66.233696 148.0
66.70266 152.0
66.987083 176.0
67.236908 192.0
67.326706 140.0
67.37571 296.0
67.423096 220.0
67.450882 232.0
67.575172 168.0
67.684837 168.0
67.714317 208.0
68.089905 188.0
68.126038 196.0
68.295738 208.0
68.318382 200.0
68.57032 156.0
68.590248 136.0
68.759995 184.0
68.908615 164.0
69.006126 176.0
69.125221 212.0
69.17157 236.0
69.466537 248.0
69.908508 164.0
70.176697 176.0
70.296799 164.0
70.490089 160.0
70.587463 200.0
70.609207 148.0
71.57753 188.0
71.692085 160.0
71.771309 192.0
72.342377 144.0
72.37793 232.0
72.525322 220.0
72.881721 148.0
72.988808 156.0
73.170868 236.0
73.182785 156.0
73.300316 176.0
73.593895 188.0
73.879135 152.0
73.942451 148.0
73.957855 176.0
73.980461 192.0
74.132545 148.0
74.374374 168.0
74.413864 152.0
74.491142 160.0
74.613159 152.0
74.692268 144.0
74.896858 136.0
75.733131 164.0
75.951538 196.0
76.324188 180.0
76.612114 184.0
76.756783 208.0
76.833527 156.0
76.922531 200.0
77.119919 188.0
77.233574 160.0
77.620628 168.0
77.950455 148.0
78.131752 148.0
78.237343 152.0
78.435738 280.0
78.586319 168.0
78.611549 160.0
78.658676 180.0
78.826462 192.0
78.886559 224.0
79.81205 160.0
79.858292 168.0
80.071869 160.0
80.225113 208.0
80.300003 168.0
81.053947 160.0
81.17337 196.0
81.296532 184.0
81.636063 168.0
81.657646 144.0
81.874481 100.0
81.971931 224.0
82.008743 172.0
82.23481 180.0
82.639008 172.0
82.72702 184.0
82.970451 172.0
83.222649 204.0
83.271683 172.0
83.333366 180.0
83.744583 184.0
83.872131 160.0
84.082367 228.0
84.39061 168.0
84.410721 172.0
84.804337 184.0
84.973053 144.0
84.996902 180.0
85.085007 144.0
85.114388 172.0
85.423157 144.0
85.564865 204.0
86.058327 164.0
86.145798 284.0
86.254822 160.0
86.295494 180.0
86.63604 164.0
86.667542 168.0
86.810272 200.0
86.971687 188.0
88.35817 160.0
88.582825 200.0
89.20961 272.0
89.623672 164.0
89.780136 164.0
89.793343 152.0
90.136932 144.0
90.26165 172.0
90.456566 204.0
90.486855 160.0
90.625122 164.0
90.689552 156.0
90.729362 208.0
91.059547 208.0
91.399841 156.0
91.43219 192.0
91.460739 148.0
92.084236 148.0
92.252396 148.0
92.455147 168.0
92.508743 252.0
92.535545 176.0
92.932297 140.0
93.535286 180.0
93.778465 208.0
94.04657 156.0
94.593613 152.0
94.618782 148.0
94.773727 204.0
94.829926 196.0
95.144882 200.0
95.157272 280.0
95.363693 156.0
95.717766 240.0
96.080841 116.0
96.427895 144.0
96.44548 196.0
96.584312 196.0
96.8564 184.0
97.088989 336.0
97.111214 216.0
97.248566 144.0
97.478348 184.0
97.626114 120.0
97.836845 212.0
98.096855 808.0
98.346886 216.0
98.528564 244.0
98.6847 224.0
98.981514 164.0
99.345566 124.0
99.54866 184.0
100.050751 156.0
100.077599 184.0
100.276817 148.0
100.456276 176.0
100.683823 204.0
100.975616 188.0
101.213768 160.0
101.422394 148.0
101.917831 196.0
102.010284 176.0
102.191284 176.0
102.314056 152.0
102.569908 152.0
102.628372 168.0
103.021263 216.0
103.044159 172.0
103.588371 144.0
103.722115 188.0
103.782936 172.0
103.831604 164.0
103.931007 228.0
104.016251 156.0
104.556915 156.0
105.041855 188.0
105.127548 144.0
105.141838 156.0
105.243904 152.0
105.440018 184.0
105.556549 156.0
106.03064 172.0
106.257065 192.0
106.339149 168.0
106.404839 180.0
106.643135 212.0
107.182335 144.0
107.555626 164.0
108.210968 152.0
108.507248 180.0
108.58812 144.0
109.051132 196.0
109.298615 200.0
109.317345 148.0
109.435989 240.0
109.623466 140.0
109.819443 164.0
110.098076 584.0
110.155518 176.0
110.473267 140.0
110.55069 228.0
110.615089 160.0
110.883682 216.0
111.089172 148.0
111.233971 148.0
111.677338 140.0
111.706787 192.0
111.745323 140.0
111.815041 180.0
111.854095 176.0
111.885674 156.0
111.91378 180.0
111.959373 188.0
111.978134 180.0
111.997284 188.0
112.04686 172.0
112.063789 288.0
112.112877 65232.0
112.177071 112.0
112.389572 156.0
113.017662 208.0
113.115051 5524.0
113.150314 144.0
113.320435 100.0
113.504166 144.0
113.757271 124.0
113.803352 152.0
113.842361 136.0
113.869316 152.0
113.898598 132.0
114.026283 136.0
114.072632 204.0
114.119942 320.0
114.238144 104.0
114.441231 140.0
115.087303 156.0
115.510468 164.0
117.990654 184.0
119.108315 176.0
119.219124 148.0
119.340858 156.0
120.4589 168.0
120.542747 96.0
121.028275 644.0
121.066956 164.0
121.08448 208.0
121.47464 140.0
122.737083 156.0
122.88266 156.0
124.220085 136.0
124.577507 140.0
124.594101 184.0
124.907555 212.0
125.036606 172.0
125.174637 140.0
126.476257 180.0
127.007317 288.0
128.009705 160.0
128.061508 200.0
128.104294 160.0
128.444687 160.0
129.047684 144.0
129.10849 132.0
129.85614 152.0
129.956573 116.0
130.071701 164.0
130.269257 176.0
130.662567 188.0
131.049728 184.0
131.202332 152.0
131.683823 148.0
131.702087 188.0
132.372208 196.0
132.571503 188.0
132.725098 188.0
133.018768 196.0
133.085861 124.0
133.168015 168.0
133.411591 256.0
133.839539 164.0
133.90863 148.0
134.157501 164.0
134.337372 188.0
134.457367 164.0
135.194595 168.0
135.544281 176.0
135.743637 208.0
136.017105 120.0
136.152084 144.0
136.18924 160.0
136.305405 200.0
136.440216 172.0
136.78685 168.0
136.94519 180.0
137.488434 168.0
137.719574 160.0
137.83873 144.0
138.100571 144.0
138.133316 208.0
138.57579 188.0
139.469925 168.0
139.606293 180.0
140.069962 152.0
140.607559 148.0
140.671295 168.0
140.735031 144.0
140.791702 172.0
141.453751 140.0
141.828018 140.0
141.929474 136.0
142.179901 224.0
142.290619 176.0
142.523392 152.0
142.995438 136.0
143.339584 220.0
143.570816 156.0
143.768829 156.0
144.557465 156.0
144.699615 144.0
144.789688 156.0
145.329056 156.0
145.46106 176.0
145.487457 160.0
145.590714 184.0
145.619537 248.0
145.679581 144.0
145.802124 184.0
146.345795 224.0
146.411774 236.0
146.468613 188.0
146.625229 144.0
147.043839 10472.0
147.267014 216.0
147.322571 268.0
147.428894 200.0
147.569092 160.0
147.638412 120.0
147.8013 184.0
148.046509 732.0
148.130569 168.0
148.292923 264.0
148.387466 208.0
148.467484 148.0
149.037888 156.0
149.071976 144.0
149.535431 192.0
149.7276 156.0
149.862808 180.0
150.130951 140.0
150.218765 168.0
150.331009 156.0
150.372498 228.0
150.570251 144.0
150.777924 140.0
151.367508 144.0
151.463028 304.0
151.488403 144.0
152.247894 176.0
153.529037 112.0
154.033615 144.0
154.129974 148.0
154.602295 204.0
154.996048 368.0
155.283615 152.0
155.610153 164.0
155.90181 148.0
156.043503 160.0
156.297211 140.0
156.605423 160.0
156.657547 132.0
156.855911 184.0
157.286636 168.0
157.598816 184.0
158.426956 140.0
158.609894 148.0
159.044556 172.0
159.211395 192.0
159.355255 140.0
159.752487 216.0
160.142654 156.0
160.248459 208.0
160.346741 196.0
161.043106 160.0
161.151749 156.0
161.324707 220.0
161.37738 148.0
161.463882 168.0
161.672653 196.0
161.829605 156.0
162.136124 144.0
162.354156 164.0
162.475906 148.0
162.699707 152.0
163.059952 148.0
163.090454 188.0
163.268005 172.0
163.467056 104.0
163.876816 184.0
163.920135 208.0
164.471039 172.0
164.81694 144.0
165.027969 148.0
165.173737 216.0
165.775421 152.0
166.537399 172.0
167.007782 180.0
167.164719 176.0
167.77002 172.0
168.113068 160.0
168.288605 164.0
168.350571 152.0
169.058929 160.0
169.079636 164.0
169.111801 168.0
169.131393 160.0
169.358459 116.0
169.43956 156.0
169.58728 148.0
169.997055 180.0
170.306015 160.0
170.363159 144.0
170.392715 192.0
170.485275 168.0
170.537262 164.0
171.005447 176.0
171.057495 228.0
171.149338 176.0
171.3703 156.0
171.547256 208.0
171.727173 152.0
172.306702 176.0
172.421677 168.0
172.604675 180.0
172.767532 136.0
172.866257 152.0
172.970947 160.0
173.306183 196.0
173.427582 160.0
173.660721 164.0
174.292786 168.0
174.555649 180.0
174.705582 160.0
174.773987 196.0
174.89505 240.0
174.939804 148.0
175.026688 168.0
175.092514 140.0
175.888794 212.0
176.036087 148.0
176.069397 232.0
176.102676 140.0
176.864197 156.0
177.001389 116.0
177.030991 156.0
177.630005 140.0
177.991974 136.0
178.131714 180.0
178.674042 172.0
178.857666 156.0
178.945526 140.0
179.208527 140.0
179.348099 140.0
179.822571 156.0
179.899979 192.0
179.941071 164.0
180.030807 140.0
180.073547 140.0
180.335388 140.0
180.391525 156.0
180.498581 96.0
181.014923 148.0
181.056686 124.0
181.234436 148.0
181.635315 144.0
181.768188 236.0
182.114517 172.0
182.6548 144.0
182.929291 144.0
183.454605 160.0
183.696884 176.0
183.915878 148.0
184.621933 100.0
184.734665 152.0
185.043198 140.0
185.7668 140.0
186.046326 152.0
186.163086 160.0
186.40213 208.0
186.739258 176.0
187.618805 164.0
187.805664 200.0
188.097351 180.0
188.336502 160.0
188.393661 160.0
189.093887 160.0
189.291 184.0
189.310165 144.0
189.499176 160.0
189.847305 176.0
190.462112 140.0
190.562042 140.0
191.055893 220.0
191.342117 164.0
191.565659 140.0
191.680908 164.0
191.818726 140.0
191.868347 180.0
192.402802 124.0
192.4505 148.0
192.915802 224.0
193.249313 144.0
193.346161 148.0
193.501175 148.0
193.802673 108.0
193.958282 228.0
194.006119 128.0
194.333969 156.0
194.599136 160.0
195.022736 200.0
195.583267 240.0
195.836975 140.0
196.391327 144.0
196.640457 196.0
196.840668 252.0
196.9021 208.0
196.974731 140.0
197.059891 1768.0
197.133987 172.0
197.164734 144.0
197.734009 120.0
197.860794 148.0
198.061523 372.0
198.145508 128.0
198.216965 192.0
198.536057 184.0
198.620697 192.0
198.662766 176.0
198.699234 144.0
198.763779 188.0
198.831131 144.0
198.904709 192.0
199.162445 152.0
199.491211 148.0
199.524948 176.0
199.944077 152.0
200.061752 124.0
200.236893 196.0
200.324432 96.0
200.535538 152.0
200.574997 160.0
200.600372 300.0
200.83725 172.0
201.359009 112.0
201.828522 324.0
202.182129 164.0
202.213272 144.0
203.077438 216.0
203.310089 184.0
203.389557 152.0
203.497437 172.0
204.096725 140.0
204.261932 144.0
204.461105 236.0
204.589188 184.0
204.829147 108.0
205.145447 380.0
205.246628 140.0
205.489807 164.0
205.760956 140.0
205.980774 144.0
206.070938 136.0
206.152603 384.0
206.249451 164.0
206.498215 212.0
206.815811 164.0
206.858749 140.0
207.079239 144.0
207.102142 144.0
207.162308 156.0
207.302704 156.0
207.75 152.0
208.042725 160.0
208.085785 192.0
208.155563 200.0
208.411484 292.0
208.686279 224.0
209.111313 268.0
209.339478 172.0
209.592972 144.0
209.613144 228.0
209.907181 192.0
209.953323 188.0
210.065811 148.0
210.562286 140.0
210.684143 152.0
210.946594 216.0
211.516464 184.0
211.633881 308.0
212.037827 532.0
212.11319 164.0
212.178589 168.0
212.478592 144.0
212.548233 220.0
212.752563 252.0
213.035049 1176.0
214.041855 436.0
214.085159 172.0
214.113602 112.0
214.1371 184.0
214.284119 164.0
214.356964 164.0
214.593063 176.0
215.026123 312.0
215.111511 148.0
215.405121 96.0
216.029984 296.0
216.152863 212.0
216.217255 140.0
216.316772 172.0
216.510025 224.0
216.589096 204.0
216.651138 156.0
216.709213 184.0
216.73851 152.0
217.357239 180.0
217.623077 204.0
217.779999 140.0
217.845383 264.0
217.915131 140.0
218.256088 140.0
218.532578 224.0
218.557404 184.0
218.702927 168.0
219.233414 140.0
219.404373 152.0
219.489883 140.0
219.545914 176.0
219.716995 140.0
219.858627 140.0
220.196823 176.0
220.266098 164.0
220.549774 164.0
220.597061 164.0
220.865265 160.0
220.892212 208.0
220.928284 148.0
221.170654 204.0
221.724808 144.0
221.85524 164.0
221.979767 152.0
222.131027 156.0
222.432556 124.0
222.614212 156.0
222.804932 140.0
222.854965 208.0
223.021133 332.0
223.191315 140.0
223.357864 180.0
223.497696 140.0
223.625656 188.0
223.965103 140.0
224.029327 472.0
224.060425 180.0
224.261398 208.0
224.501587 148.0
224.579132 160.0
225.217896 144.0
225.322586 172.0
225.604568 220.0
225.756577 220.0
225.782791 144.0
226.018066 200.0
226.105896 156.0
226.228622 148.0
226.291504 164.0
226.442703 108.0
226.564041 144.0
226.800781 156.0
227.056854 168.0
227.123611 188.0
227.481827 108.0
227.686111 172.0
227.899185 164.0
228.118576 164.0
228.289963 152.0
228.350113 184.0
228.5056 180.0
228.611862 172.0
228.77623 148.0
228.944977 148.0
229.009277 168.0
229.073349 132.0
229.417145 124.0
229.506531 140.0
229.939255 172.0
230.016403 208.0
230.197556 140.0
230.904739 152.0
231.735504 212.0
231.950287 220.0
231.98877 144.0
232.407318 208.0
232.535675 120.0
232.574234 164.0
233.123962 148.0
233.762573 176.0
233.947128 196.0
234.06395 148.0
234.103531 152.0
234.280197 208.0
234.338089 192.0
234.85939 164.0
235.079056 140.0
235.176727 200.0
235.292023 156.0
235.427078 200.0
235.844284 188.0
236.08107 144.0
236.139191 164.0
236.315399 208.0
236.773849 176.0
237.088104 132.0
237.134308 140.0
237.324326 188.0
237.692413 180.0
237.969879 236.0
238.223587 140.0
238.38028 312.0
238.749191 144.0
239.010666 224.0
239.089142 168.0
239.139923 220.0
239.383148 216.0
239.50943 196.0
239.638809 144.0
239.847244 180.0
239.987106 144.0
240.029907 132.0
240.059601 200.0
240.749313 152.0
240.826523 148.0
240.98616 148.0
241.029892 700.0
241.076782 164.0
241.141678 148.0
241.26532 208.0
241.808197 168.0
241.952148 140.0
242.031647 172.0
242.137589 176.0
242.1875 156.0
242.782578 176.0
243.038696 172.0
243.083405 128.0
243.365967 144.0
243.416183 140.0
243.595795 140.0
243.667252 164.0
243.946945 212.0
244.232864 148.0
244.333496 204.0
244.457047 168.0
244.547302 140.0
244.615784 188.0
244.724747 172.0
244.972137 168.0
244.996902 124.0
245.151505 148.0
245.249161 120.0
245.367264 164.0
245.405502 120.0
246.015503 144.0
246.056091 144.0
246.099731 192.0
246.204651 136.0
246.590256 152.0
246.839401 104.0
246.997375 120.0
247.157471 140.0
247.334702 152.0
247.713593 172.0
247.902481 140.0
248.07135 200.0
248.114731 140.0
248.169647 128.0
248.373962 224.0
248.400116 148.0
248.585236 184.0
248.656281 164.0
248.720184 220.0
248.798264 124.0
249.20697 164.0
249.555862 148.0
249.914429 176.0
250.075638 160.0
250.698944 148.0
250.938095 200.0
251.000626 168.0
251.087479 180.0
251.779282 300.0
252.034653 168.0
252.260437 184.0
252.3526 148.0
252.747986 164.0
252.958298 136.0
253.032227 432.0
253.143036 180.0
253.175339 168.0
253.318832 236.0
253.691757 208.0
253.856186 124.0
254.135834 164.0
254.421494 144.0
254.450256 132.0
254.606735 212.0
254.86615 164.0
254.977371 196.0
255.056717 104.0
255.513016 116.0
255.699219 112.0
255.785278 204.0
255.844879 136.0
256.556213 188.0
256.683746 140.0
256.853851 180.0
257.178253 188.0
257.318817 108.0
257.427277 168.0
257.593353 188.0
257.615723 160.0
257.944336 128.0
258.029846 220.0
258.117523 172.0
258.274231 184.0
258.395813 204.0
258.584595 172.0
258.694733 144.0
258.728668 308.0
258.751068 180.0
258.831116 180.0
259.000854 144.0
259.33252 208.0
259.420654 212.0
259.449493 144.0
259.524963 112.0
259.557587 96.0
259.616241 152.0
259.734528 168.0
259.898376 160.0
259.981567 232.0
260.017273 144.0
260.061737 144.0
260.251617 180.0
260.434662 184.0
260.491364 96.0
260.684723 132.0
260.759186 176.0
260.913483 144.0
261.069397 160.0
261.096771 168.0
261.408813 156.0
261.430084 144.0
261.7565 152.0
261.865997 144.0
262.033508 168.0
262.056061 160.0
262.120392 120.0
262.311188 124.0
262.35257 140.0
262.583099 128.0
263.669556 184.0
264.034882 160.0
264.203094 176.0
264.237213 128.0
264.445984 132.0
264.539642 152.0
264.607635 140.0
265.209442 172.0
265.377197 148.0
265.476044 192.0
265.821991 176.0
265.875092 148.0
266.001678 260.0
266.046051 168.0
266.254944 144.0
266.600555 252.0
266.636871 180.0
266.823608 144.0
267.046082 344.0
267.197937 168.0
267.239899 196.0
267.42746 172.0
267.497009 160.0
267.542603 148.0
267.662964 120.0
267.91217 132.0
268.004211 236.0
268.151398 152.0
268.327759 176.0
268.611481 272.0
268.683258 172.0
268.715881 152.0
268.943085 156.0
268.974701 224.0
269.027039 31576.0
269.136322 204.0
269.275696 124.0
269.442749 96.0
269.584473 176.0
269.625214 224.0
269.653107 176.0
269.712067 108.0
269.796936 164.0
269.921814 144.0
270.029388 6164.0
270.265808 156.0
270.289185 136.0
270.427673 112.0
270.475037 124.0
270.545654 140.0
270.644684 196.0
270.876556 136.0
271.024231 1748.0
271.399048 164.0
271.60202 132.0
271.760162 160.0
271.891632 124.0
271.927887 228.0
271.969269 168.0
272.027679 200.0
272.086212 368.0
272.180634 116.0
272.290588 140.0
272.402283 140.0
272.705353 152.0
272.817291 112.0
273.004791 112.0
273.083893 200.0
273.268616 156.0
273.445312 200.0
273.487396 172.0
274.05307 144.0
274.0802 144.0
274.327789 136.0
274.386749 188.0
274.465881 152.0
274.568115 148.0
274.601074 148.0
274.808899 164.0
274.907898 164.0
274.941406 104.0
275.058838 160.0
275.221497 148.0
275.294159 148.0
276.140228 180.0
276.20636 144.0
276.309387 148.0
276.601593 100.0
276.99411 136.0
277.057922 324.0
277.385223 148.0
277.580841 152.0
278.099792 104.0
278.608368 140.0
278.711395 116.0
278.978668 148.0
279.055145 156.0
279.128296 196.0
279.276337 260.0
279.31311 148.0
279.570099 164.0
279.588226 176.0
279.690552 144.0
279.72052 200.0
279.757141 152.0
280.103485 148.0
280.337341 164.0
280.390015 148.0
280.644501 112.0
280.74881 124.0
280.815002 348.0
280.848206 228.0
281.022919 132.0
281.083679 144.0
281.484253 184.0
281.592682 240.0
281.845032 156.0
282.025482 272.0
282.095703 152.0
282.296265 152.0
282.895233 148.0
282.938751 144.0
283.032501 152.0
283.116211 104.0
283.471313 188.0
283.598663 172.0
283.65567 148.0
283.70929 140.0
283.732758 144.0
284.078186 168.0
284.185791 120.0
284.269623 148.0
284.386902 288.0
284.492493 124.0
284.621063 160.0
284.668915 208.0
284.753754 140.0
285.01828 168.0
285.127991 180.0
285.341736 176.0
285.393219 140.0
285.465363 160.0
285.769775 124.0
285.848877 244.0
286.033966 204.0
286.097931 360.0
286.249451 160.0
286.338715 152.0
286.555969 220.0
286.582642 264.0
286.668365 204.0
286.805359 144.0
286.905151 136.0
287.055969 352.0
287.183014 160.0
287.295044 148.0
287.337067 180.0
287.537292 212.0
287.966492 156.0
288.057312 152.0
288.091064 164.0
288.187775 152.0
288.369415 148.0
288.567596 180.0
288.669037 176.0
289.064331 312.0
289.095276 316.0
289.128571 96.0
289.477814 244.0
289.525665 192.0
289.803009 208.0
289.894287 180.0
290.051666 172.0
290.084381 180.0
290.257233 156.0
290.436981 140.0
290.58963 168.0
290.635315 208.0
290.709564 128.0
290.990143 192.0
291.046875 164.0
291.103149 140.0
291.540436 208.0
291.643738 116.0
291.931366 152.0
292.084686 156.0
292.397461 156.0
292.591492 168.0
292.620178 140.0
292.673218 164.0
292.707245 196.0
292.869812 160.0
292.994293 132.0
293.085754 108.0
293.131927 156.0
293.630798 176.0
293.759094 168.0
294.033325 148.0
294.091431 236.0
294.146027 216.0
294.340637 144.0
294.979553 184.0
295.038818 488.0
295.454224 156.0
295.647064 248.0
295.738922 148.0
295.990143 148.0
296.123474 144.0
296.211487 152.0
296.372498 192.0
296.536987 184.0
296.676178 116.0
296.814697 252.0
297.192535 132.0
297.347015 144.0
297.403778 284.0
297.566559 156.0
297.66571 156.0
297.793549 124.0
298.095093 152.0
298.139008 124.0
298.266174 180.0
298.360626 176.0
298.387268 200.0
299.03598 172.0
299.073792 164.0
299.421112 140.0
299.555511 96.0
299.657288 152.0
299.739075 288.0
299.947296 160.0
300.057556 196.0
300.108826 144.0
300.329529 152.0
300.508911 232.0
300.650391 160.0
300.686737 116.0
300.78714 208.0
301.075867 136.0
301.137207 152.0
301.642578 156.0
301.916321 152.0
302.381927 156.0
302.623474 160.0
302.681335 140.0
302.888733 136.0
303.039612 332.0
303.115875 168.0
303.289398 152.0
303.382507 112.0
304.036682 192.0
304.118073 132.0
304.288513 184.0
304.319763 156.0
304.424835 256.0
304.802582 156.0
304.940796 144.0
305.023499 204.0
305.06134 1316.0
305.160583 156.0
305.369232 164.0
305.424896 148.0
305.673645 164.0
305.828522 188.0
306.062744 300.0
306.211517 212.0
306.35556 196.0
306.492126 156.0
306.546783 140.0
306.831818 180.0
307.057159 128.0
307.38797 116.0
307.578369 172.0
307.630707 160.0
307.773865 160.0
307.801788 160.0
307.961029 216.0
308.041962 272.0
308.084717 148.0
308.149902 152.0
308.213989 176.0
308.313538 188.0
308.367767 180.0
308.555878 192.0
308.604614 216.0
308.830566 164.0
308.948242 148.0
309.144165 180.0
309.308685 172.0
309.669342 216.0
309.876007 152.0
309.977631 232.0
310.261536 144.0
310.572815 188.0
310.657837 152.0
310.885895 140.0
310.99118 144.0
311.07193 220.0
311.187775 176.0
311.30365 208.0
311.479279 140.0
311.696594 112.0
311.742798 144.0
311.908173 144.0
312.048584 212.0
312.075836 128.0
312.144653 164.0
312.18924 168.0
312.280701 140.0
312.370056 140.0
312.409149 192.0
312.519928 156.0
312.692352 160.0
312.78714 172.0
313.047943 164.0
313.092102 148.0
313.428375 152.0
313.555237 224.0
313.682983 116.0
313.82135 260.0
313.947235 108.0
314.046997 188.0
314.387573 168.0
314.743469 168.0
314.790009 192.0
315.050415 280.0
315.157379 156.0
315.270172 100.0
315.594147 296.0
315.981079 104.0
316.052521 352.0
316.175842 192.0
316.522766 176.0
316.665314 220.0
316.793762 140.0
316.920471 172.0
317.063751 760.0
317.242004 364.0
317.944336 160.0
318.059021 348.0
318.073822 372.0
318.327728 164.0
318.583466 192.0
318.743347 176.0
318.853516 152.0
318.896271 152.0
318.942383 152.0
319.042664 704.0
319.15213 148.0
319.37262 144.0
319.453491 284.0
319.650146 156.0
319.687042 152.0
319.73233 160.0
320.036987 208.0
320.483368 168.0
320.554626 188.0
320.618774 284.0
320.829102 140.0
320.878998 140.0
320.993561 124.0
321.067383 140.0
321.123688 200.0
321.195038 168.0
321.687164 140.0
321.972778 100.0
322.056641 156.0
322.131073 168.0
322.465973 316.0
322.58194 164.0
322.631561 184.0
322.723267 124.0
322.850098 200.0
322.908997 172.0
323.091583 180.0
323.154175 160.0
323.350983 192.0
323.708984 204.0
323.798523 144.0
323.862976 172.0
324.063599 212.0
324.110199 156.0
324.135284 200.0
324.235626 176.0
324.318054 180.0
324.359833 164.0
324.714874 208.0
324.91333 216.0
325.066772 120.0
325.125031 148.0
325.196838 184.0
325.304016 176.0
325.41684 140.0
325.587494 104.0
325.6474 268.0
325.867462 144.0
325.996796 220.0
326.148773 160.0
326.281677 144.0
326.384003 192.0
326.885956 152.0
327.015533 144.0
327.052612 196.0
327.210846 108.0
327.384491 168.0
327.419037 108.0
327.662109 160.0
327.854706 192.0
328.053253 388.0
328.150879 120.0
328.284241 164.0
328.540741 244.0
328.650421 168.0
329.058807 144.0
329.081329 480.0
329.573761 172.0
330.096008 156.0
330.261353 148.0
330.758636 140.0
330.783997 164.0
330.979492 240.0
331.044678 212.0
331.319946 160.0
331.399658 184.0
331.460907 124.0
331.960907 144.0
332.051819 188.0
332.284363 292.0
332.353302 140.0
332.596954 140.0
332.650757 220.0
332.722137 224.0
332.828796 164.0
332.915955 156.0
333.059326 1636.0
333.267761 160.0
333.370056 220.0
333.693573 292.0
333.858826 128.0
333.88739 132.0
334.06012 948.0
334.109772 132.0
334.190674 132.0
334.268555 160.0
334.450256 140.0
334.554413 164.0
334.643219 172.0
334.734253 200.0
334.781586 144.0
334.844543 160.0
334.956421 224.0
335.046936 268.0
335.102142 172.0
335.164093 192.0
335.422852 140.0
335.562683 180.0
335.805695 156.0
336.046387 204.0
336.094757 168.0
336.275391 192.0
336.371277 256.0
336.5867 140.0
336.623474 112.0
336.831757 180.0
336.984833 148.0
337.134644 156.0
337.258911 176.0
337.520508 160.0
337.612823 120.0
337.653809 172.0
337.880585 200.0
337.955048 136.0
338.162354 168.0
338.223175 124.0
338.363708 168.0
338.468109 240.0
338.62735 248.0
338.67865 160.0
338.895782 148.0
339.078003 160.0
339.17807 108.0
339.418121 108.0
339.865021 148.0
340.171082 168.0
340.218811 196.0
340.347321 160.0
340.406067 196.0
340.503113 160.0
340.737213 132.0
340.944672 108.0
341.004913 160.0
341.03064 144.0
341.225464 156.0
341.412262 136.0
341.466614 132.0
341.515991 148.0
341.872864 240.0
341.94278 184.0
342.159973 160.0
342.19455 180.0
342.285156 168.0
342.443542 212.0
342.522339 336.0
342.925293 164.0
343.040985 788.0
343.079987 176.0
343.679779 116.0
343.741241 244.0
343.800293 180.0
344.051544 340.0
344.311493 180.0
344.649628 164.0
344.960083 180.0
345.054779 2152.0
345.241089 144.0
345.302063 200.0
345.433777 168.0
345.644318 144.0
345.680481 160.0
345.84787 152.0
345.958923 176.0
346.003357 264.0
346.060547 808.0
346.185883 116.0
346.503357 140.0
346.70343 148.0
346.835114 220.0
346.892487 172.0
346.920624 204.0
346.988861 144.0
347.052063 336.0
347.341187 164.0
347.415375 296.0
347.760468 140.0
347.90036 140.0
348.003235 144.0
348.034882 100.0
348.071747 256.0
348.258026 228.0
348.402893 168.0
348.610962 252.0
348.667236 156.0
349.050934 148.0
349.272095 132.0
349.305145 176.0
349.436462 152.0
349.46994 96.0
349.711853 176.0
350.063934 164.0
350.292725 232.0
350.521667 116.0
350.624359 152.0
350.848022 140.0
351.099304 172.0
351.184021 220.0
351.22464 144.0
351.325378 160.0
351.414917 204.0
351.470886 144.0
351.642548 152.0
351.73587 160.0
351.76947 284.0
351.81427 236.0
352.15033 184.0
352.219635 200.0
352.363281 148.0
352.471619 184.0
352.553833 156.0
352.645569 272.0
352.707092 144.0
353.054016 172.0
353.271759 148.0
353.475464 196.0
353.675903 328.0
353.975403 228.0
354.122406 160.0
354.247437 208.0
354.275055 216.0
354.70224 144.0
354.75473 148.0
354.850372 168.0
355.047211 156.0
355.412598 200.0
355.564941 216.0
355.604187 96.0
355.658783 188.0
355.688812 196.0
355.752869 196.0
355.884033 176.0
355.927856 184.0
355.996674 164.0
356.055634 120.0
356.282166 140.0
356.402374 168.0
356.838379 160.0
357.003845 148.0
357.050751 152.0
357.090332 240.0
357.511719 172.0
357.576904 172.0
357.861786 228.0
358.207123 244.0
358.292969 104.0
358.449402 204.0
358.712128 148.0
358.992249 184.0
359.02243 96.0
359.211029 160.0
359.558167 152.0
359.584564 164.0
359.863922 144.0
360.0401 328.0
360.127899 272.0
360.200043 184.0
360.460724 144.0
360.549896 156.0
360.661041 148.0
360.690643 176.0
360.836975 112.0
360.997528 112.0
361.052246 3928.0
361.127594 208.0
361.213135 144.0
361.417419 160.0
361.576355 172.0
361.739136 184.0
361.769409 204.0
361.882996 188.0
361.987976 144.0
362.059479 7132.0
362.167938 148.0
362.341278 140.0
362.455872 180.0
362.788483 180.0
362.940155 176.0
362.974701 120.0
363.061829 1672.0
363.169342 220.0
363.372559 176.0
363.653351 184.0
363.706909 156.0
364.063446 732.0
364.174805 184.0
364.25592 104.0
364.598877 152.0
365.055267 188.0
365.109283 160.0
365.610718 228.0
365.677155 156.0
365.78891 108.0
365.880981 176.0
365.969025 124.0
366.056122 284.0
366.132294 240.0
366.176453 128.0
366.266876 112.0
366.324463 160.0
366.420502 108.0
366.442474 204.0
366.658051 168.0
366.722839 152.0
366.793365 104.0
367.10791 184.0
367.27066 136.0
367.417206 116.0
367.708344 188.0
367.860352 96.0
367.890106 148.0
368.088501 108.0
368.174713 172.0
368.50116 276.0
368.556366 148.0
368.661652 140.0
368.711334 392.0
368.761963 148.0
368.829834 156.0
368.902252 144.0
369.220703 140.0
369.560272 144.0
369.640656 140.0
369.743958 152.0
370.073181 184.0
370.410095 132.0
370.51944 148.0
370.785706 144.0
371.071747 564.0
371.159088 100.0
371.257263 396.0
371.449036 144.0
371.591003 288.0
371.713776 140.0
371.774841 132.0
371.817383 168.0
371.984741 120.0
372.083191 196.0
372.321167 148.0
372.954285 192.0
373.073456 204.0
373.297974 148.0
373.411835 152.0
373.78537 176.0
373.854431 176.0
374.061279 1080.0
374.180878 204.0
374.2995 160.0
374.370148 148.0
374.608154 156.0
374.655182 168.0
374.71936 112.0
374.797729 152.0
374.867096 144.0
374.900116 248.0
375.001129 180.0
375.030579 192.0
375.061096 132.0
375.140778 140.0
375.244873 140.0
375.323242 140.0
375.395233 140.0
375.507202 168.0
375.86972 168.0
375.989197 104.0
376.036682 304.0
376.247986 160.0
376.491241 216.0
376.589874 120.0
376.68161 156.0
376.750885 236.0
376.922943 128.0
377.043213 472.0
377.283356 220.0
377.621094 136.0
377.935638 256.0
378.061646 296.0
378.282562 340.0
378.920471 156.0
379.044922 236.0
379.087646 124.0
379.336212 148.0
379.49585 160.0
379.644501 240.0
379.819885 212.0
380.084961 236.0
380.493378 188.0
380.642365 104.0
380.678284 164.0
380.858917 160.0
380.895874 168.0
380.958893 128.0
381.023315 148.0
381.052277 160.0
381.136292 160.0
381.279785 152.0
381.494202 124.0
381.998169 148.0
382.082794 136.0
382.129608 192.0
382.411591 232.0
382.545715 120.0
383.135895 160.0
383.174835 168.0
383.521667 164.0
383.83139 164.0
384.024658 192.0
384.465546 148.0
384.923767 160.0
385.097473 164.0
385.465271 188.0
385.496552 168.0
385.758423 164.0
385.815796 100.0
385.8862 116.0
386.039337 160.0
386.171417 116.0
386.300415 168.0
386.337189 140.0
386.37204 124.0
386.476715 140.0
386.668304 180.0
386.744659 184.0
386.79187 232.0
386.902008 176.0
386.963043 184.0
387.146484 176.0
387.223328 116.0
387.594025 240.0
387.684143 160.0
387.786041 156.0
387.942841 172.0
388.001038 232.0
388.617188 104.0
388.77774 192.0
388.890381 148.0
388.951019 152.0
388.998108 156.0
389.079529 760.0
389.157074 156.0
389.341614 120.0
389.375061 140.0
389.682404 236.0
389.758575 128.0
389.977661 140.0
390.090881 268.0
390.253815 232.0
390.459808 164.0
390.731232 148.0
390.808655 112.0
390.884216 104.0
390.923126 208.0
391.080536 252.0
391.274353 180.0
391.307526 104.0
391.640594 148.0
391.888794 204.0
392.629883 152.0
392.760742 136.0
393.063843 172.0
393.160645 172.0
393.26358 132.0
393.498016 144.0
393.647827 128.0
393.728485 228.0
393.845551 144.0
393.883911 196.0
394.236694 148.0
394.511871 124.0
394.70105 156.0
394.75061 164.0
395.098694 172.0
395.143433 180.0
395.315277 168.0
395.415253 168.0
395.496979 148.0
395.565094 192.0
395.671509 196.0
396.036865 152.0
396.278198 96.0
396.387878 120.0
396.557251 192.0
396.601379 112.0
396.630035 104.0
397.061707 176.0
397.293488 156.0
397.409882 164.0
397.491882 152.0
397.56369 172.0
397.630768 264.0
397.741913 156.0
397.90625 136.0
398.114105 152.0
398.186615 144.0
398.553711 152.0
398.687012 228.0
398.941162 180.0
399.27713 200.0
399.45459 212.0
399.639679 216.0
399.710663 112.0
399.828613 148.0
399.861023 112.0
400.075989 140.0
400.147095 156.0
400.20166 124.0
400.344849 132.0
400.473633 240.0
400.520538 108.0
400.573944 132.0
400.688751 140.0
400.74054 172.0
400.967682 212.0
401.162994 168.0
401.198883 184.0
401.237671 108.0
401.350372 164.0
401.418182 176.0
401.797089 148.0
401.881073 128.0
402.173553 144.0
402.20813 140.0
402.303955 184.0
402.679291 156.0
403.241821 172.0
403.478119 128.0
403.56662 108.0
403.638428 188.0
403.67984 192.0
403.862396 148.0
403.954407 164.0
404.161255 108.0
405.274323 260.0
405.394867 128.0
405.558624 144.0
405.665405 264.0
405.716492 164.0
405.767365 196.0
405.937012 224.0
406.261902 156.0
406.684601 192.0
406.713867 256.0
406.759644 140.0
406.851837 164.0
407.008423 192.0
407.092773 208.0
407.385986 176.0
407.438202 152.0
407.872223 208.0
407.928497 160.0
408.072357 132.0
408.113434 164.0
408.270264 144.0
408.481628 128.0
408.575958 160.0
408.651154 296.0
408.714417 128.0
408.845551 152.0
409.062927 176.0
409.107208 188.0
409.484894 140.0
409.703247 252.0
409.793213 120.0
409.958557 176.0
410.060059 116.0
410.134644 144.0
410.224121 176.0
410.443176 144.0
410.541626 176.0
410.629913 104.0
410.727173 180.0
410.811401 164.0
410.898956 96.0
411.279968 140.0
411.538361 148.0
411.870728 144.0
412.290558 156.0
412.58075 176.0
412.644989 140.0
412.688507 320.0
412.827667 116.0
412.871887 132.0
413.18335 168.0
413.288544 156.0
413.414001 180.0
413.462555 176.0
413.89978 168.0
414.094147 160.0
414.248077 192.0
414.673553 184.0
414.742462 164.0
414.983704 176.0
415.220886 140.0
415.261444 144.0
415.484558 140.0
415.549469 244.0
416.004028 180.0
416.176788 108.0
416.438507 160.0
416.83667 200.0
416.939484 264.0
417.011414 152.0
417.381378 164.0
417.446869 144.0
417.645721 140.0
417.963043 180.0
418.047638 152.0
418.197662 148.0
418.288635 224.0
418.463715 148.0
418.606232 244.0
418.842438 144.0
419.197723 140.0
419.596375 232.0
419.628418 256.0
419.771057 152.0
420.114471 132.0
420.212219 180.0
420.295349 140.0
420.394073 128.0
420.480164 140.0
420.559113 152.0
420.690948 148.0
420.726471 196.0
420.824463 160.0
421.138916 148.0
421.215118 108.0
421.525146 200.0
421.563812 312.0
421.861664 188.0
422.085419 160.0
422.217926 196.0
422.433441 156.0
422.459351 184.0
422.557434 160.0
423.052643 176.0
423.527069 160.0
423.647766 140.0
423.716125 160.0
423.744812 156.0
423.906647 168.0
423.959015 116.0
424.039856 148.0
424.26712 128.0
424.761261 132.0
424.901245 184.0
425.142517 140.0
425.19754 136.0
425.508423 148.0
425.600983 116.0
425.730804 128.0
425.755768 148.0
425.826569 188.0
425.920624 244.0
426.28476 172.0
426.475128 148.0
426.728668 176.0
426.926025 268.0
427.000092 144.0
427.227905 228.0
427.345642 172.0
427.549561 116.0
427.645142 144.0
427.676727 204.0
427.756531 200.0
427.983643 160.0
428.021271 112.0
428.070099 152.0
428.510864 180.0
428.613312 152.0
428.741608 184.0
428.829742 168.0
428.863068 132.0
428.906494 200.0
428.980682 148.0
429.124969 184.0
429.289917 192.0
429.318787 144.0
429.780792 144.0
430.026367 144.0
430.078125 148.0
430.27356 196.0
430.492889 136.0
430.676666 196.0
431.031982 172.0
431.077423 160.0
431.312012 116.0
431.631348 180.0
431.989624 120.0
432.024292 144.0
432.296844 156.0
432.4935 124.0
432.550842 216.0
432.731995 140.0
432.781677 120.0
432.835266 200.0
433.092285 176.0
433.856659 140.0
434.079773 164.0
434.207245 200.0
434.263092 136.0
434.551544 176.0
434.649292 200.0
434.699036 140.0
434.945801 256.0
435.120148 148.0
435.290405 152.0
435.394226 148.0
435.510529 168.0
435.865784 192.0
436.086853 144.0
436.162872 168.0
436.279297 300.0
436.412323 160.0
436.594177 120.0
436.695129 160.0
436.938293 168.0
437.110046 180.0
437.232605 148.0
437.514893 140.0
437.902161 172.0
437.999268 140.0
438.247925 192.0
438.576996 100.0
438.675812 180.0
438.831451 176.0
438.989319 116.0
439.175476 112.0
439.438782 224.0
439.573944 220.0
439.995514 176.0
440.033081 144.0
440.287811 144.0
440.496643 212.0
440.766602 188.0
441.031525 156.0
441.210236 160.0
441.327271 104.0
441.403595 140.0
441.637817 212.0
441.894257 132.0
442.110596 100.0
442.451965 180.0
442.50827 144.0
442.651825 184.0
442.865875 224.0
443.417297 144.0
443.559814 164.0
443.626862 156.0
443.790375 148.0
444.079742 144.0
444.197205 140.0
444.233368 148.0
444.264496 180.0
444.520264 148.0
444.710693 160.0
444.763672 240.0
444.881226 196.0
444.969391 180.0
444.998779 148.0
445.049164 148.0
445.306274 124.0
445.942871 180.0
446.243378 156.0
446.692444 160.0
446.985138 148.0
447.117432 160.0
447.17215 348.0
447.300903 188.0
447.353149 196.0
447.552917 168.0
447.669769 140.0
447.776062 164.0
447.869171 96.0
447.922729 156.0
448.077515 172.0
448.254486 200.0
448.500244 204.0
448.713257 124.0
448.756104 168.0
448.957703 104.0
449.073547 160.0
449.338135 140.0
449.487396 164.0
449.62088 140.0
449.668701 96.0
449.726379 304.0
450.14856 168.0
450.182343 148.0
450.211914 180.0
450.498749 128.0
450.634338 140.0
450.728333 184.0
450.803375 172.0
450.887238 128.0
451.018921 180.0
451.428619 204.0
452.076599 100.0
452.207489 140.0
452.299744 140.0
452.364105 128.0
452.444519 168.0
452.599335 164.0
452.965424 156.0
453.06781 120.0
453.085388 124.0
453.503571 148.0
453.753845 104.0
453.805695 180.0
453.850922 128.0
453.986877 188.0
454.330475 156.0
454.36441 156.0
454.488892 152.0
454.75116 172.0
455.035004 148.0
455.091705 228.0
455.2789 200.0
455.369843 220.0
455.684814 148.0
455.854797 284.0
455.9375 104.0
456.15097 216.0
456.241577 264.0
456.490021 176.0
456.563629 108.0
456.752045 124.0
456.950897 156.0
457.444611 152.0
457.552155 156.0
457.781891 156.0
457.832977 180.0
457.983917 128.0
458.178009 136.0
458.559906 292.0
458.710724 148.0
458.821564 156.0
458.858063 144.0
459.178131 136.0
459.260803 172.0
459.33078 192.0
459.413147 112.0
459.542358 144.0
459.642853 108.0
459.866699 192.0
459.913635 180.0
460.050232 148.0
460.132721 164.0
460.332031 140.0
460.431641 188.0
460.58374 120.0
460.643829 156.0
460.713257 128.0
460.864655 116.0
461.088196 216.0
461.381622 188.0
461.680237 168.0
461.714935 148.0
461.879211 184.0
462.016968 104.0
462.12735 160.0
462.208649 172.0
462.281403 156.0
462.487701 100.0
462.688049 192.0
462.740723 144.0
462.77948 168.0
462.881836 136.0
462.914978 148.0
463.103424 156.0
463.159302 148.0
463.19577 208.0
463.595123 188.0
463.659424 104.0
463.696838 168.0
463.964111 136.0
464.041931 160.0
464.132996 164.0
464.406555 128.0
464.440765 164.0
464.584442 132.0
464.672516 148.0
464.894226 156.0
465.008789 156.0
465.069 96.0
465.369171 112.0
465.423767 164.0
465.675079 140.0
465.780243 332.0
465.89444 144.0
466.050659 148.0
466.106537 184.0
466.148254 124.0
466.324432 120.0
466.36441 160.0
466.422852 204.0
466.613739 152.0
466.721466 144.0
466.798248 176.0
466.929535 160.0
467.101471 136.0
467.138153 152.0
467.18573 152.0
467.258881 140.0
467.361023 108.0
467.505371 112.0
467.54718 144.0
467.754456 176.0
467.841705 152.0
467.973328 204.0
468.081696 144.0
468.117462 128.0
468.18042 136.0
468.267029 200.0
468.332031 124.0
468.525482 144.0
468.575195 120.0
468.764832 220.0
468.935333 232.0
469.090363 140.0
469.180939 324.0
469.278534 108.0
469.330322 112.0
469.425262 156.0
469.527191 132.0
469.602325 168.0
469.836243 224.0
470.100525 108.0
470.169189 116.0
470.266571 236.0
470.30307 216.0
470.446106 180.0
470.505829 128.0
470.63147 400.0
470.683563 296.0
470.741058 168.0
470.919769 212.0
471.016144 204.0
471.094055 188.0
471.20108 424.0
471.313782 140.0
471.358246 280.0
471.643555 228.0
471.694214 224.0
471.741425 240.0
471.79361 240.0
471.839722 356.0
471.91391 256.0
471.973846 152.0
472.020996 360.0
472.080963 532.0
472.151947 512.0
472.240753 180.0
472.277954 516.0
472.325287 612.0
472.365997 208.0
472.411682 240.0
472.462738 224.0
472.494843 340.0
472.557648 268.0
472.61969 336.0
472.696411 640.0
472.761505 428.0
472.832245 416.0
472.891571 492.0
472.975464 536.0
473.036285 180.0
473.084076 412.0
473.108337 400.0
473.161011 892.0
473.222504 464.0
473.256836 488.0
473.29953 260.0
473.320374 384.0
473.425964 220.0
473.45871 400.0
473.494995 376.0
473.537506 432.0
473.656281 756.0
473.761963 548.0
473.82785 672.0
473.891632 1004.0
473.934601 552.0
473.985901 1196.0
473.996552 848.0
474.03125 808.0
474.067322 1392.0
474.109802 1748.0
474.174835 276232.0
474.283844 212.0
474.329865 144.0
474.47287 548.0
474.502991 376.0
474.578674 1060.0
474.647247 784.0
474.708252 516.0
474.77594 488.0
474.830902 340.0
474.897308 17292.0
474.952484 988.0
475.005676 668.0
475.047607 320.0
475.055664 492.0
475.178528 228420.0
475.328888 484.0
475.442474 128.0
475.500336 224.0
475.570862 684.0
475.609436 636.0
475.842865 348.0
475.896271 1240.0
475.940216 468.0
475.991516 620.0
476.042145 192.0
476.069611 304.0
476.176392 76708.0
476.317688 392.0
476.365387 412.0
476.404755 140.0
476.489258 136.0
476.5755 284.0
476.637329 184.0
476.653748 300.0
476.75177 160.0
476.808502 148.0
476.893402 196.0
476.920105 260.0
476.982513 288.0
477.042145 324.0
477.092438 212.0
477.175171 10784.0
477.258148 224.0
477.311371 308.0
477.391632 256.0
477.436737 388.0
477.498047 208.0
477.567474 268.0
477.633148 208.0
477.666595 652.0
477.701355 512.0
477.753845 148.0
477.799194 512.0
477.87439 348.0
477.926941 384.0
477.983765 324.0
478.024353 392.0
478.036072 568.0
478.054199 320.0
478.067749 648.0
478.100372 364.0
478.1763 1688.0
478.284302 256.0
478.334778 284.0
478.364807 512.0
478.401215 220.0
478.501129 124.0
478.560883 104.0
478.59906 116.0
478.645203 144.0
478.690094 276.0
478.789917 308.0
478.823151 184.0
478.893127 180.0
478.944031 200.0
478.999237 212.0
479.03479 156.0
479.112335 252.0
479.182831 248.0
479.2565 96.0
479.269684 132.0
479.286163 228.0
479.323669 212.0
479.387299 128.0
479.416504 260.0
479.450775 152.0
479.565186 156.0
479.743988 116.0
479.828156 108.0
479.914948 128.0
479.996826 112.0
480.039459 136.0
480.146179 128.0
480.207672 120.0
480.365936 104.0
480.400726 96.0
481.289551 160.0
481.801605 116.0
482.218292 128.0
483.288208 128.0
483.414093 272.0
484.024506 104.0
484.530579 180.0
484.738953 108.0
484.888519 96.0
485.143219 120.0
486.379211 124.0
487.088196 204.0
487.204895 120.0
487.581543 128.0
490.475494 196.0
490.581787 96.0
491.448639 224.0
491.89566 140.0
491.964386 96.0
492.302216 100.0
492.580109 100.0
492.851715 264.0
493.191101 392.0
493.304443 216.0
493.681091 156.0
495.424561 96.0
495.713867 140.0
496.516296 180.0
496.630188 124.0
496.977631 144.0
503.758362 144.0
506.139984 120.0
509.856659 196.0
520.731689 180.0
527.621765 156.0
529.729248 444.0
530.217163 176.0
549.333008 176.0
557.66803 152.0
558.61499 100.0
569.998413 148.0
588.662598 104.0
599.538025 96.0
610.754761 152.0
625.193665 148.0
636.77301 112.0
641.228516 116.0
647.470215 168.0
648.311218 148.0
665.970093 100.0
667.552673 148.0
671.361755 100.0
696.855713 140.0
700.749084 124.0
700.865173 144.0
732.406311 144.0
756.870789 104.0
818.267273 128.0
829.651978 144.0
831.504761 176.0
859.07135 108.0
866.244873 148.0
889.016418 324.0
897.525696 108.0
1142.500244 144.0
1162.921509 196.0
1179.487183 144.0
1225.660889 180.0
1243.704712 144.0
1250.121582 228.0
1252.867676 172.0
1259.618774 152.0
1261.505615 164.0
1301.583862 200.0
1303.454224 148.0
1333.799683 160.0
1339.876221 208.0
1346.689697 172.0
1361.124512 208.0
1390.596191 156.0
1391.605713 140.0
1400.634155 140.0
1402.005127 164.0
1409.116455 184.0
1415.481812 172.0
1416.72522 192.0
1435.018433 140.0
1438.564331 168.0
1444.456299 152.0
1451.199097 184.0
1451.472046 280.0
1453.277344 156.0
1460.441284 224.0
1465.732422 188.0
1465.999146 208.0
1478.416748 160.0
1479.922607 184.0
1498.119507 148.0
1501.449463 192.0
1502.565308 152.0
1503.51709 140.0
1512.201416 176.0
1516.518433 176.0
1517.828613 164.0
1517.898438 152.0
1519.45752 176.0
1520.101562 160.0
1520.986328 152.0
1522.795532 164.0
1528.501831 156.0
1528.945435 140.0
1529.568115 208.0
1533.961548 152.0
1536.605347 192.0
1541.212891 144.0
1541.555908 208.0
1546.310913 204.0
1546.937134 176.0
1555.442505 184.0
1555.654419 200.0
1556.855713 192.0
1558.450439 204.0
1558.851196 176.0
1560.769165 160.0
1564.711182 144.0
1568.792114 188.0
1570.858276 184.0
1571.592041 172.0
1575.381714 168.0
1583.956909 152.0
1586.175659 148.0
1587.27771 200.0
1588.213623 172.0
1593.453125 160.0
1594.160278 180.0
1599.242432 208.0
1603.360107 180.0
1614.161499 160.0
1617.914062 200.0
1623.202271 168.0
1640.706543 152.0
1641.956421 168.0
1642.811401 188.0
1645.119995 160.0
1649.489746 160.0
1655.906372 184.0
1657.802124 152.0
1659.123413 144.0
1663.390503 160.0
1664.198853 164.0
1665.274292 152.0
1667.589966 152.0
1668.915039 188.0
1670.183716 144.0
1674.839722 196.0
1677.912109 192.0
1681.142212 180.0
1685.429321 208.0
1687.480957 144.0
1690.343872 208.0
1703.527954 168.0
1708.230225 168.0
1709.810059 236.0
1711.637573 176.0
1712.197632 256.0
1712.288208 160.0
1715.790283 192.0
1719.056641 164.0
1729.081299 176.0
1729.925659 200.0
1730.223633 140.0
1737.682861 148.0
1738.678711 152.0
1740.704102 188.0
1742.581543 188.0
1743.62854 140.0
1749.451294 148.0
1750.758545 180.0
1754.666504 224.0
1757.210327 184.0
1759.797852 148.0
1760.307129 160.0
1761.46814 140.0
1764.276001 144.0
1765.956787 140.0
1767.1698 208.0
1767.772339 192.0
1768.031738 160.0
1768.801758 228.0
1769.789673 168.0
1770.978882 156.0
1771.649048 212.0
1771.707642 152.0
1772.453369 156.0
1773.199219 172.0
1774.942993 176.0
1777.686035 148.0
1778.903076 184.0
1780.196167 164.0
1782.094482 192.0
1782.985352 140.0
1784.868408 144.0
1791.239502 196.0
1795.370728 136.0
1797.588257 216.0
1800.484009 172.0
1803.551025 204.0
1804.227295 216.0
1808.245361 168.0
1809.565918 208.0
1813.089844 148.0
1818.356567 176.0
1818.950806 164.0
1819.748779 184.0
1822.169434 152.0
1822.747192 160.0
1824.761719 284.0
1831.961792 156.0
1832.07251 164.0
1832.821411 124.0
1833.887573 156.0
1835.626709 156.0
1839.039429 216.0
1841.148193 180.0
1844.08728 156.0
1845.848389 148.0
1851.75354 148.0
1852.276001 188.0
1855.472534 152.0
1855.532593 184.0
1856.578735 176.0
1858.139893 200.0
1859.229736 156.0
1860.088013 192.0
1860.525879 204.0
1861.659302 144.0
1865.835327 184.0
1867.142334 184.0
1867.968018 168.0
1869.800781 208.0
1870.033203 152.0
1871.160889 140.0
1872.685181 164.0
1874.313354 208.0
1874.830444 180.0
1876.623413 164.0
1879.193726 184.0
1880.401855 140.0
1880.496826 264.0
1884.235962 144.0
1887.187866 196.0
1890.877075 152.0
1892.521973 152.0
1893.898926 172.0
1894.522583 152.0
1897.651367 172.0
1898.838257 148.0
1899.056274 156.0
1899.559326 176.0
1899.710693 144.0
1899.81958 220.0
1900.409546 168.0
1901.650513 172.0
1902.006348 192.0
1902.657471 208.0
1906.25354 144.0
1909.470215 208.0
1914.761841 180.0
1924.345459 156.0
1927.961914 192.0
1931.441772 144.0
1933.174072 144.0
1935.213623 172.0
1937.744873 216.0
1937.946411 152.0
1938.97168 152.0
1940.488281 180.0
1940.602295 144.0
1942.417603 184.0
1943.022949 156.0
1943.172119 156.0
1943.944336 156.0
1947.183838 160.0
1950.654541 140.0
1951.920654 140.0
1952.254883 212.0
1952.471436 184.0
1954.621216 204.0
1956.02063 184.0
1956.099854 208.0
1957.482178 172.0
1961.570312 160.0
1962.141968 176.0
1962.9104 216.0
1963.401733 196.0
1963.889404 188.0
1964.348022 148.0
1965.018555 224.0
1966.18335 140.0
1968.328613 156.0
1968.80542 216.0
1969.070435 236.0
1970.324707 160.0
1971.42041 148.0
1971.626221 224.0
1977.089233 196.0
1977.3573 192.0
1978.33728 140.0
1982.154785 140.0
1987.129028 140.0
1988.318115 240.0
1990.866211 152.0
1992.065308 164.0
1992.909302 180.0
1995.006714 144.0
1995.540161 140.0
1996.313843 144.0
1996.92749 156.0
2001.385986 160.0
2001.475098 232.0
