>compound Cilazapril monohydrate (Inhibace)
>formula C22H31N3O5
>ionization [M+H]+
>parentmass 418.23364754409056
#inchi InChI=1S/C22H31N3O5/c1-2-30-22(29)18(13-12-16-8-4-3-5-9-16)23-17-10-6-14-24-15-7-11-19(21(27)28)25(24)20(17)26/h3-5,8-9,17-19,23H,2,6-7,10-15H2,1H3,(H,27,28)/t17-,18-,19+/m0/s1
#inchikey HHHKFGXWKKUNCY
#origInchi InChI=1S/C22H31N3O5.H2O/c1-2-30-22(29)18(13-12-16-8-4-3-5-9-16)23-17-10-6-14-24-15-7-11-19(21(27)28)25(24)20(17)26;/h3-5,8-9,17-19,23H,2,6-7,10-15H2,1H3,(H,27,28);1H2/t17-,18-,19+;/m0./s1
#Ion_Source LC-ESI
#Instrument qTof
#Compound_Source Commercial
#PI Dorrestein
#Data_Collector Garg_Neha
#Scan -1
#Precursor_MZ 418.234
#ExactMass 417.226
#Charge 1
#CAS_Number 92077-78-6
#Pubmed_ID N/A
#Smiles C1(=CC=C(C=C1)CC[C@H](N[C@H]2CCCN3N(C2=O)[C@H](CCC3)C(O)=O)C(=O)OCC).O
#INCHI_AUX N/A
#Library_Class 1
#SpectrumID CCMSLIB00000078426
#IonMode Positive
#UpdateWorkflowName UPDATE-SINGLE-ANNOTATED-GOLD
#LibraryQualityString Gold
#TaskID 77f51c88eb8b467eb4a01dd2d0cb90d2
##Scan# 1130
#SpectrumFile Plate6_61_80_GD10_01_15777.mzXML
#LibraryName FDALibrary_2_04302014.mgf
#MQScore -1
#Organism FDALibrary_2_04302014
#TIC_Query 0
#RT_Query -1
#MZErrorPPM -1
#SharedPeaks 0
#MassDiff 0
#LibMZ -1
#SpecMZ 418.234
#SpecCharge 0
#internalFilename spec-00000.mgf

>collision 10
45.007381 164.0
45.036762 168.0
45.055466 224.0
45.078178 160.0
45.100903 188.0
45.159737 144.0
45.230042 96.0
45.260109 248.0
45.296268 156.0
45.324406 164.0
45.358273 164.0
45.424828 160.0
45.471928 264.0
45.635818 152.0
45.710274 160.0
45.735374 232.0
45.791283 200.0
45.887608 192.0
46.023888 184.0
46.068459 156.0
46.096077 172.0
46.150002 216.0
46.172539 160.0
46.226654 156.0
46.263805 320.0
46.497707 144.0
46.526215 160.0
46.546146 136.0
46.617222 144.0
46.638966 156.0
46.649841 192.0
46.663437 176.0
46.723282 176.0
46.736889 156.0
46.903042 196.0
46.923492 140.0
46.942211 176.0
46.994606 144.0
47.016441 200.0
47.084515 160.0
47.389576 208.0
47.501999 144.0
47.555515 232.0
47.565125 164.0
47.657139 176.0
47.833183 164.0
47.900658 148.0
47.964046 140.0
48.152195 112.0
48.266407 216.0
48.297527 144.0
48.321735 356.0
48.33419 152.0
48.41272 176.0
48.623684 112.0
48.638378 148.0
48.712749 108.0
48.732151 208.0
48.800259 148.0
48.82946 180.0
48.893547 132.0
48.961506 168.0
49.150627 344.0
49.376198 176.0
49.391129 136.0
49.404171 152.0
49.432793 120.0
49.472794 124.0
49.490906 128.0
49.52224 152.0
49.570797 168.0
49.625465 220.0
49.696999 140.0
49.719517 172.0
49.779819 148.0
49.838669 156.0
49.884781 108.0
49.949646 148.0
50.046997 220.0
50.218933 180.0
50.286499 176.0
50.393986 176.0
50.461548 140.0
50.490349 280.0
50.576061 172.0
50.600491 144.0
50.657139 156.0
50.679806 164.0
50.797482 164.0
50.874157 160.0
50.960476 164.0
50.98048 168.0
51.093712 156.0
51.320869 184.0
51.357948 140.0
51.480209 140.0
51.595005 196.0
51.70372 144.0
51.925793 140.0
51.954483 128.0
51.99683 180.0
52.034569 180.0
52.049271 200.0
52.128223 148.0
52.372494 164.0
52.445625 180.0
52.457829 200.0
52.554462 336.0
52.569908 256.0
52.579193 144.0
52.602089 168.0
52.620857 152.0
52.659847 160.0
52.684406 164.0
52.716194 168.0
52.773739 168.0
52.797153 144.0
52.94767 188.0
52.986336 252.0
53.009216 116.0
53.230469 200.0
53.317635 172.0
53.388874 152.0
53.428146 140.0
53.47908 180.0
53.522755 164.0
53.558014 152.0
53.811131 228.0
53.921024 208.0
53.96323 124.0
54.043865 172.0
54.084114 136.0
54.160988 144.0
54.180382 184.0
54.232788 188.0
54.480286 140.0
54.550705 132.0
54.560886 136.0
54.590809 216.0
54.62114 188.0
54.701885 128.0
54.782375 232.0
55.037231 188.0
55.13707 212.0
55.151295 148.0
55.193455 116.0
55.457848 156.0
55.733734 216.0
55.848209 156.0
55.863083 180.0
55.893654 140.0
55.951763 116.0
55.976204 160.0
56.017906 140.0
56.087944 152.0
56.147587 188.0
56.350605 144.0
56.376007 200.0
56.396931 172.0
56.423176 324.0
56.442089 176.0
56.461548 204.0
56.478218 120.0
56.593708 128.0
56.664371 164.0
56.904465 148.0
56.920254 120.0
56.973877 172.0
56.990952 132.0
57.066292 156.0
57.100147 144.0
57.115189 172.0
57.193432 216.0
57.362148 148.0
57.439053 160.0
57.455959 164.0
57.483521 152.0
57.530327 116.0
57.562969 160.0
57.588493 208.0
57.617195 176.0
57.719975 148.0
57.85038 148.0
57.872807 184.0
57.915211 168.0
57.950054 168.0
57.963692 160.0
57.975815 200.0
58.245892 152.0
58.315788 160.0
58.338593 188.0
58.795784 136.0
58.931469 228.0
58.951336 192.0
59.082836 168.0
59.102726 200.0
59.131802 148.0
59.230724 152.0
59.353939 160.0
59.570351 168.0
59.602581 112.0
59.68716 232.0
59.719456 156.0
59.731762 160.0
59.754841 144.0
59.804085 224.0
59.837555 124.0
59.960163 144.0
59.973522 156.0
60.129303 232.0
60.208691 232.0
60.238937 148.0
60.325478 148.0
60.374958 172.0
60.43383 140.0
60.568432 168.0
60.870869 140.0
60.971851 156.0
61.009155 248.0
61.08847 160.0
61.128925 152.0
61.315807 172.0
61.412666 124.0
61.429035 176.0
61.453926 148.0
61.517029 160.0
61.593548 180.0
61.646667 152.0
61.677929 180.0
61.787613 116.0
61.806835 104.0
62.003181 160.0
62.026192 108.0
62.055225 164.0
62.227818 184.0
62.268944 148.0
62.347179 144.0
62.395931 172.0
62.615383 184.0
62.698166 212.0
62.721809 192.0
62.794342 144.0
62.833778 144.0
62.855923 116.0
62.950584 208.0
62.988491 212.0
63.110184 180.0
63.141815 180.0
63.200348 212.0
63.212055 200.0
63.296906 168.0
63.353924 164.0
63.465527 136.0
63.499073 212.0
63.535065 156.0
63.642998 140.0
63.739483 176.0
63.839085 116.0
63.901672 156.0
64.018044 148.0
64.042 108.0
64.097527 196.0
64.170845 152.0
64.229858 140.0
64.280273 120.0
64.328842 140.0
64.501266 124.0
64.625244 156.0
64.779762 204.0
64.800591 188.0
64.842255 148.0
64.874321 224.0
64.965729 140.0
65.139107 144.0
65.28698 176.0
65.410385 172.0
65.534882 196.0
65.709023 148.0
65.744522 140.0
65.834122 152.0
65.909195 156.0
65.938324 140.0
66.042015 156.0
66.070923 176.0
66.109901 128.0
66.214455 144.0
66.276558 156.0
66.354355 172.0
66.396515 152.0
66.43869 172.0
66.476196 176.0
66.720039 152.0
66.768539 196.0
66.840019 152.0
67.015877 160.0
67.08596 212.0
67.136505 204.0
67.158485 176.0
67.263779 168.0
67.293159 252.0
67.306229 216.0
67.349655 236.0
67.508858 180.0
67.695419 152.0
67.946213 180.0
67.962616 144.0
68.061462 128.0
68.072639 160.0
68.187607 156.0
68.286003 156.0
68.380035 224.0
68.505333 132.0
68.529861 188.0
68.611664 144.0
68.680122 192.0
68.772942 152.0
68.864731 208.0
69.009438 136.0
69.058029 180.0
69.142555 224.0
69.203804 152.0
69.258453 188.0
69.298218 248.0
69.432495 160.0
69.553612 224.0
69.581841 168.0
69.678169 172.0
69.701378 132.0
69.747963 184.0
69.890999 148.0
69.925941 164.0
70.04583 160.0
70.094269 164.0
70.119057 148.0
70.137482 164.0
70.171989 172.0
70.258629 136.0
70.450134 180.0
70.581581 168.0
70.688843 164.0
70.754601 128.0
70.835983 140.0
70.86879 220.0
70.888474 168.0
70.909035 168.0
71.025352 132.0
71.071564 128.0
71.130417 124.0
71.213402 156.0
71.243637 156.0
71.435287 148.0
71.455475 140.0
71.484489 164.0
71.608665 148.0
71.735039 160.0
71.824417 164.0
71.907509 164.0
72.123032 128.0
72.351677 204.0
72.444817 216.0
72.470238 144.0
72.482094 196.0
72.525978 152.0
72.582108 156.0
72.595627 144.0
72.649956 164.0
72.733109 172.0
73.05088 180.0
73.086609 148.0
73.120644 272.0
73.198959 160.0
73.246643 144.0
73.374718 132.0
73.408562 172.0
73.46109 136.0
73.524574 252.0
73.630424 148.0
73.722679 196.0
73.764336 204.0
73.996368 172.0
74.03727 172.0
74.06221 152.0
74.151421 180.0
74.176254 196.0
74.284798 176.0
74.433617 148.0
74.498291 104.0
74.548904 140.0
74.595116 140.0
74.634659 168.0
74.648979 160.0
74.767502 200.0
75.166939 156.0
75.244614 140.0
75.256058 176.0
75.336151 152.0
75.427734 172.0
75.503021 164.0
75.764099 252.0
75.885529 224.0
75.966431 196.0
76.015778 132.0
76.232407 136.0
76.272568 164.0
76.681137 128.0
76.787949 324.0
76.844894 252.0
76.888725 244.0
76.921684 188.0
76.946617 256.0
76.959557 156.0
76.996376 168.0
77.034485 148.0
77.081612 156.0
77.096352 160.0
77.157532 200.0
77.205582 208.0
77.22715 168.0
77.344719 208.0
77.391983 152.0
77.410385 148.0
77.689941 156.0
77.788216 160.0
77.823334 164.0
77.856697 104.0
77.902496 156.0
77.923233 164.0
77.949806 152.0
78.039452 164.0
78.062309 224.0
78.092209 156.0
78.104523 160.0
78.35627 144.0
78.421471 164.0
78.511391 100.0
78.569595 212.0
78.611946 188.0
78.779236 156.0
78.81707 128.0
78.837997 180.0
78.958214 176.0
79.076759 240.0
79.298157 192.0
79.38858 188.0
79.404541 180.0
79.610413 168.0
79.626396 160.0
79.862434 160.0
80.042542 144.0
80.058571 140.0
80.083504 220.0
80.15992 148.0
80.204674 144.0
80.408005 144.0
80.451111 164.0
80.51754 172.0
80.722435 140.0
80.820824 152.0
80.851242 196.0
80.949707 216.0
80.965828 176.0
81.000854 144.0
81.089447 204.0
81.107376 188.0
81.258804 300.0
81.287636 148.0
81.389046 196.0
81.408798 172.0
81.459091 176.0
81.514786 140.0
81.529167 148.0
81.575897 172.0
81.592339 112.0
81.673004 204.0
81.772148 120.0
81.836777 172.0
81.874588 152.0
82.071014 140.0
82.123314 156.0
82.283699 188.0
82.348938 212.0
82.443069 196.0
82.607353 104.0
82.743156 168.0
82.83371 156.0
82.99501 144.0
83.049416 152.0
83.07663 140.0
83.201851 140.0
83.336662 248.0
83.463493 216.0
83.603569 148.0
83.718262 188.0
83.752869 148.0
83.772903 148.0
83.803879 148.0
84.070229 124.0
84.192505 96.0
84.209816 104.0
84.404419 152.0
84.466599 152.0
84.531898 168.0
84.543503 244.0
84.5709 160.0
84.608154 160.0
84.884186 156.0
84.933868 188.0
84.994255 196.0
85.068756 168.0
85.100716 152.0
85.11908 280.0
85.144791 144.0
85.168663 140.0
85.258698 168.0
85.516182 236.0
85.59903 144.0
85.619293 144.0
85.643799 144.0
85.68866 128.0
85.727989 156.0
85.837517 144.0
85.87233 136.0
85.922874 156.0
85.97142 160.0
86.098808 184.0
86.285439 152.0
86.345413 212.0
86.438965 180.0
86.483383 168.0
86.513 212.0
86.580276 168.0
86.605591 172.0
86.622864 200.0
86.728561 120.0
86.803902 156.0
86.961594 164.0
87.143585 164.0
87.239014 116.0
87.295227 180.0
87.340652 152.0
87.44223 168.0
87.529556 120.0
87.830551 168.0
87.946243 156.0
87.985443 240.0
88.002121 116.0
88.063187 120.0
88.252625 196.0
88.286003 132.0
88.632607 204.0
88.658844 156.0
88.876373 140.0
88.893265 188.0
89.092293 168.0
89.126114 140.0
89.173096 148.0
89.209801 152.0
89.287781 164.0
89.398781 148.0
89.437683 144.0
89.487251 248.0
89.575768 144.0
89.695702 224.0
89.722763 176.0
89.779221 132.0
89.834702 140.0
89.881203 140.0
90.094559 160.0
90.162582 196.0
90.181488 204.0
90.417908 152.0
90.503098 216.0
90.811127 164.0
90.829453 180.0
90.885994 140.0
90.934326 136.0
90.963806 172.0
91.052383 172.0
91.083435 160.0
91.103966 144.0
91.134735 184.0
91.184143 216.0
91.252769 160.0
91.300117 140.0
91.315331 148.0
91.337173 200.0
91.397141 152.0
91.525406 148.0
91.652298 184.0
91.713875 180.0
91.774292 212.0
91.800125 204.0
91.814331 224.0
91.868065 144.0
91.934525 172.0
91.974609 160.0
92.003242 228.0
92.177055 172.0
92.22937 248.0
92.396942 200.0
92.502205 156.0
92.687981 144.0
92.788231 200.0
92.843262 132.0
92.884071 116.0
93.13308 172.0
93.535561 144.0
93.56192 160.0
93.751907 96.0
93.806587 144.0
93.843025 204.0
93.98175 136.0
94.048325 100.0
94.067009 184.0
94.192535 212.0
94.350998 200.0
94.397408 144.0
94.419807 172.0
94.583145 148.0
94.621513 156.0
94.660591 308.0
94.877602 160.0
94.898933 160.0
94.95517 172.0
95.013359 152.0
95.028885 268.0
95.081276 176.0
95.194473 288.0
95.341522 224.0
95.430946 144.0
95.46888 168.0
95.485397 144.0
95.687775 140.0
95.718933 160.0
95.859184 144.0
95.898163 160.0
95.956497 156.0
96.043129 264.0
96.080597 192.0
96.259315 144.0
96.345039 152.0
96.669617 208.0
96.848358 96.0
96.888924 204.0
96.906555 152.0
97.026794 184.0
97.074348 804.0
97.171249 228.0
97.214417 172.0
97.235626 124.0
97.319603 192.0
97.344917 136.0
97.408798 152.0
97.490601 120.0
97.520805 180.0
97.535217 216.0
97.573883 140.0
97.626968 176.0
97.735901 172.0
97.750908 172.0
97.806015 140.0
97.835541 288.0
97.851295 148.0
97.904243 108.0
97.934006 180.0
97.953705 144.0
98.042366 180.0
98.060104 156.0
98.078468 152.0
98.202072 212.0
98.235603 148.0
98.362587 160.0
98.415207 144.0
98.436928 140.0
98.498627 184.0
98.523178 180.0
98.628571 164.0
98.739296 168.0
98.972816 156.0
99.043198 560.0
99.253555 348.0
99.324532 220.0
99.343445 180.0
99.428169 160.0
99.442657 176.0
99.500229 192.0
99.577003 204.0
99.690918 184.0
99.830078 204.0
99.851952 184.0
99.873833 144.0
99.995209 164.0
100.046906 156.0
100.074051 216.0
100.224228 192.0
100.270065 148.0
100.294044 120.0
100.313469 180.0
100.559265 172.0
100.761703 236.0
100.782936 188.0
101.026855 140.0
101.056549 176.0
101.082878 204.0
101.14492 156.0
101.162018 148.0
101.407326 180.0
101.680092 156.0
101.727036 156.0
101.894958 164.0
102.067818 196.0
102.083908 156.0
102.150284 188.0
102.176437 140.0
102.192528 140.0
102.238815 148.0
102.310097 136.0
102.40995 184.0
102.657852 196.0
102.671967 156.0
102.718361 140.0
102.736511 168.0
102.778885 144.0
102.867538 164.0
102.902008 156.0
102.964607 232.0
103.079765 140.0
103.118164 196.0
103.158401 128.0
103.223289 144.0
103.391914 132.0
103.407394 180.0
103.892319 156.0
103.928215 220.0
104.082481 176.0
104.336464 152.0
104.369347 172.0
104.383232 200.0
104.413734 176.0
104.502434 128.0
104.560219 160.0
104.585793 292.0
104.63961 188.0
104.674225 156.0
104.797333 156.0
104.873886 272.0
104.918732 144.0
104.964035 184.0
105.093781 136.0
105.367737 148.0
105.604866 176.0
105.641685 140.0
105.658058 152.0
105.676468 160.0
105.690796 140.0
105.8265 188.0
106.003204 156.0
106.321968 160.0
106.409279 248.0
106.535522 228.0
106.560524 140.0
106.586884 148.0
106.636208 180.0
106.716385 260.0
106.752571 144.0
106.799873 112.0
106.827446 160.0
106.89534 172.0
106.927505 280.0
107.092987 168.0
107.121826 168.0
107.156853 168.0
107.246895 248.0
107.285431 196.0
107.590729 108.0
107.623184 264.0
107.645714 172.0
107.802719 156.0
107.866791 184.0
107.982582 156.0
108.079811 172.0
108.197571 148.0
108.260544 184.0
108.307549 128.0
108.328262 196.0
108.355194 188.0
108.388351 140.0
108.483688 248.0
108.547318 128.0
108.579666 168.0
108.73468 164.0
108.806259 172.0
108.931061 224.0
108.994583 212.0
109.0774 184.0
109.110664 168.0
109.187607 160.0
109.220886 160.0
109.345726 148.0
109.375107 160.0
109.395683 152.0
109.49147 144.0
109.617126 164.0
109.647072 128.0
109.713974 128.0
109.803329 164.0
109.88092 212.0
110.073311 220.0
110.094543 400.0
110.301102 144.0
110.599892 152.0
110.616913 168.0
110.821465 180.0
110.897606 164.0
111.006294 152.0
111.042282 140.0
111.098412 116.0
111.150047 108.0
111.171814 180.0
111.201736 216.0
111.220627 168.0
111.264717 156.0
111.331909 140.0
111.449287 132.0
111.49015 124.0
111.589577 164.0
111.626122 144.0
111.727081 180.0
111.840721 180.0
111.954414 204.0
112.000748 140.0
112.042885 276.0
112.073494 324.0
112.141922 172.0
112.257881 184.0
112.307793 156.0
112.542755 200.0
112.640587 112.0
112.761375 172.0
112.902985 188.0
112.927376 160.0
112.944695 128.0
113.007324 136.0
113.061752 172.0
113.36351 184.0
113.495407 128.0
113.525322 116.0
113.645119 100.0
113.767052 224.0
113.800491 216.0
113.818489 148.0
113.862068 180.0
114.054367 16576.0
114.132706 148.0
114.213432 168.0
114.357468 160.0
114.439842 184.0
114.666122 124.0
114.966957 144.0
115.05777 1336.0
115.107918 212.0
115.150627 160.0
115.189079 156.0
115.299019 132.0
115.749229 180.0
115.788849 136.0
115.852882 176.0
116.048538 164.0
116.063866 196.0
116.281113 144.0
116.319748 148.0
116.360573 156.0
116.702164 188.0
116.910828 176.0
116.946007 208.0
117.089478 192.0
117.119576 144.0
117.141212 148.0
117.189247 176.0
117.308365 160.0
117.350685 108.0
117.395554 148.0
117.62426 160.0
117.658798 160.0
117.690132 188.0
117.71727 152.0
117.876953 168.0
117.976379 148.0
118.075851 164.0
118.201324 184.0
118.32592 164.0
118.383163 164.0
118.409157 160.0
118.707527 112.0
118.905655 164.0
119.057632 228.0
119.142342 172.0
119.345047 124.0
119.396667 148.0
119.487808 156.0
119.578285 184.0
119.633842 184.0
119.664322 188.0
119.740974 180.0
119.803711 160.0
119.969337 144.0
120.081749 220.0
120.13726 144.0
120.207085 140.0
120.265968 208.0
120.34024 168.0
120.364258 152.0
120.421036 164.0
120.463226 140.0
120.652122 160.0
120.787361 172.0
120.856079 156.0
120.919106 160.0
120.93924 292.0
121.080391 112.0
121.165108 144.0
121.217392 140.0
121.297684 176.0
121.373024 160.0
121.405922 164.0
121.531998 160.0
121.585754 128.0
121.670319 188.0
121.800079 192.0
121.915245 164.0
122.047623 184.0
122.096581 448.0
122.272842 208.0
122.298386 180.0
122.363983 280.0
122.691071 236.0
122.828987 148.0
122.856087 212.0
122.897385 172.0
122.917244 160.0
122.975723 132.0
123.021271 180.0
123.056747 120.0
123.092087 1016.0
123.144638 228.0
123.186905 176.0
123.215569 148.0
123.310295 176.0
123.365608 152.0
123.406822 100.0
123.430992 112.0
123.467323 176.0
123.489441 144.0
123.530365 112.0
123.657593 312.0
123.783203 168.0
123.887886 180.0
123.918961 176.0
124.094894 180.0
124.137993 124.0
124.255913 176.0
124.33802 160.0
124.466782 156.0
124.512955 196.0
124.591164 140.0
124.66449 144.0
124.712791 136.0
124.800354 196.0
124.976578 172.0
125.024498 168.0
125.062599 148.0
125.107117 180.0
125.124191 108.0
125.246696 200.0
125.303955 168.0
125.414536 144.0
125.451637 180.0
125.518303 228.0
125.877495 108.0
125.927727 208.0
125.943359 172.0
126.142235 148.0
126.238754 168.0
126.307716 196.0
126.323372 144.0
126.377068 180.0
126.484497 160.0
126.553894 148.0
126.754608 176.0
126.91465 148.0
126.932587 188.0
127.023544 144.0
127.049217 184.0
127.078819 144.0
127.183861 140.0
127.202713 192.0
127.311844 148.0
127.597214 156.0
127.781647 168.0
127.970253 172.0
127.997726 144.0
128.06897 1000.0
128.139633 140.0
128.204987 236.0
128.365036 188.0
128.527451 148.0
128.651596 156.0
128.687714 164.0
128.769012 176.0
128.804352 168.0
128.886414 120.0
128.972366 152.0
129.067963 328.0
129.113571 176.0
129.250549 172.0
129.350128 152.0
129.513168 140.0
129.610016 364.0
129.834152 168.0
129.854813 148.0
130.068848 140.0
130.102768 248.0
130.258453 144.0
130.302628 164.0
130.434677 152.0
130.466263 160.0
130.50264 216.0
130.802811 184.0
130.878082 152.0
130.894989 120.0
131.082123 392.0
131.135513 144.0
131.194092 264.0
131.235825 184.0
131.301956 140.0
131.328415 140.0
131.377228 148.0
131.525558 208.0
132.083328 260.0
132.160904 176.0
132.176926 212.0
132.277222 136.0
132.350891 160.0
132.405853 140.0
132.440201 220.0
132.618927 148.0
132.709671 152.0
132.903305 212.0
132.949203 168.0
132.979034 152.0
133.202744 160.0
133.314423 140.0
133.336349 140.0
133.383301 152.0
133.4086 144.0
133.46579 192.0
133.51207 196.0
133.584595 128.0
133.611267 96.0
133.790482 208.0
133.870239 120.0
134.288544 120.0
134.521286 172.0
134.680618 168.0
134.737305 104.0
134.81694 156.0
134.919586 184.0
135.108292 180.0
135.511139 204.0
135.533752 164.0
135.580658 140.0
135.916595 116.0
135.942444 160.0
136.032791 164.0
136.134064 200.0
136.176926 144.0
136.274506 220.0
136.483688 156.0
136.621552 192.0
136.736526 212.0
136.77771 180.0
136.930283 124.0
137.07103 2296.0
137.10524 308.0
137.214813 196.0
137.301086 236.0
137.596603 156.0
137.681503 192.0
137.784286 196.0
138.038483 128.0
138.069153 364.0
138.090454 1420.0
138.27301 156.0
138.324509 184.0
138.453293 192.0
138.517197 184.0
138.900696 204.0
138.943192 184.0
139.041626 156.0
139.092056 272.0
139.120865 508.0
139.567291 168.0
139.685181 124.0
140.070404 116.0
140.10675 5236.0
140.154083 184.0
140.208282 160.0
140.244568 140.0
140.362671 172.0
140.503036 160.0
140.676498 128.0
140.740112 144.0
140.775284 220.0
140.852432 152.0
140.908539 136.0
140.94693 144.0
141.064758 204.0
141.104401 184.0
141.131302 200.0
141.166779 196.0
141.253418 136.0
141.34082 196.0
141.408096 152.0
141.464142 300.0
141.488571 144.0
141.51825 132.0
141.836823 176.0
141.866486 140.0
141.967224 140.0
142.050735 780.0
142.106781 168.0
142.273315 248.0
142.395538 220.0
142.491806 168.0
142.563293 144.0
142.596375 140.0
142.711609 160.0
142.81987 224.0
142.878738 252.0
142.991196 192.0
143.029266 144.0
143.080505 7260.0
143.227814 264.0
143.293625 296.0
143.428284 204.0
143.484833 124.0
143.789627 172.0
143.962036 200.0
144.084167 992.0
144.138519 124.0
144.229111 176.0
144.485001 160.0
144.616608 144.0
144.662094 152.0
144.753067 416.0
144.786606 144.0
144.889603 204.0
145.026199 144.0
145.153259 208.0
145.292068 188.0
145.42067 196.0
145.467575 140.0
145.488159 172.0
145.523102 308.0
145.606842 164.0
145.779007 120.0
145.876022 164.0
145.952896 144.0
146.02005 160.0
146.106827 152.0
146.429398 180.0
146.502365 136.0
146.574402 204.0
146.733017 160.0
146.950089 144.0
146.983871 184.0
147.069092 128.0
147.274185 144.0
147.437881 160.0
147.916595 144.0
147.9991 160.0
148.074417 320.0
148.095978 284.0
148.23407 140.0
148.328598 148.0
148.353897 164.0
148.588089 192.0
148.686234 216.0
148.745041 136.0
148.932343 148.0
148.981781 200.0
149.087753 124.0
149.109634 164.0
149.428741 160.0
149.520142 264.0
149.70137 152.0
149.869446 152.0
149.966934 204.0
150.001053 164.0
150.07576 100.0
150.124298 144.0
150.21077 176.0
150.362045 180.0
150.67218 152.0
150.695679 188.0
150.762863 176.0
150.91275 168.0
150.960602 224.0
150.989944 172.0
151.350327 212.0
151.486847 200.0
151.645447 176.0
151.697586 172.0
151.891327 176.0
152.060623 140.0
152.1642 228.0
152.490448 152.0
152.613998 124.0
152.687134 152.0
152.97995 208.0
153.102997 276.0
153.122772 184.0
153.159637 136.0
153.19957 156.0
153.356842 168.0
153.481384 184.0
153.504364 144.0
153.549881 164.0
153.608353 160.0
153.76532 240.0
153.825119 224.0
153.855133 164.0
153.961319 164.0
154.085632 884.0
154.154007 156.0
155.079483 388.0
155.113754 412.0
155.229645 108.0
155.473068 116.0
155.585678 164.0
155.633591 164.0
155.660172 164.0
155.788742 200.0
155.842697 208.0
155.963287 176.0
156.051056 208.0
156.08992 256.0
156.12738 156.0
156.161118 168.0
156.224014 188.0
156.407623 176.0
156.430939 164.0
156.633591 220.0
156.652573 176.0
156.692429 180.0
156.750992 128.0
156.775513 316.0
156.856918 188.0
156.899292 144.0
156.975174 148.0
157.041443 164.0
157.061386 164.0
157.091202 140.0
157.133743 148.0
157.156113 128.0
157.207474 132.0
157.444733 140.0
157.469925 136.0
157.545685 160.0
157.638138 148.0
157.692307 148.0
157.745605 176.0
157.764374 124.0
157.798111 148.0
157.830841 128.0
157.88298 132.0
158.150345 224.0
158.195892 168.0
158.371185 168.0
158.681931 140.0
158.757156 144.0
158.930252 212.0
158.970398 332.0
159.216431 208.0
159.306854 164.0
159.526993 196.0
159.550629 148.0
159.852264 152.0
159.938034 156.0
159.980835 164.0
160.313309 160.0
160.35112 156.0
160.437698 172.0
160.509262 180.0
160.671371 156.0
160.898514 168.0
160.945663 148.0
161.053497 128.0
161.181396 168.0
161.210953 144.0
161.730209 216.0
161.836533 200.0
161.883362 120.0
161.980804 104.0
162.167633 128.0
162.236847 164.0
162.345337 224.0
162.477783 152.0
162.614594 124.0
162.78064 180.0
163.019653 236.0
163.089783 140.0
163.155884 160.0
163.214371 364.0
163.354248 160.0
163.389862 144.0
163.407669 156.0
163.585831 160.0
163.70549 160.0
163.79718 144.0
163.915359 280.0
164.108109 152.0
164.312149 176.0
164.353592 168.0
164.46225 132.0
164.47113 108.0
164.507172 96.0
164.536743 184.0
164.624954 180.0
164.69252 176.0
164.784302 160.0
164.892517 192.0
164.93782 152.0
165.101456 3828.0
165.180038 184.0
165.229355 176.0
165.256882 148.0
165.283875 144.0
165.368195 176.0
165.465927 168.0
165.587845 104.0
165.692764 176.0
165.725418 172.0
165.795258 200.0
165.843964 188.0
165.95163 172.0
165.98497 148.0
166.087479 360.0
166.10585 636.0
166.203003 140.0
166.244293 172.0
166.277435 140.0
166.346909 116.0
166.410919 144.0
166.475113 144.0
166.582993 244.0
166.699631 192.0
166.923843 188.0
166.971115 216.0
167.079544 168.0
167.120987 488.0
167.28067 120.0
167.433517 228.0
167.661102 156.0
167.722961 140.0
167.833817 160.0
167.929245 172.0
167.953476 208.0
168.045334 152.0
168.126907 124.0
168.254379 148.0
168.272461 220.0
168.32489 132.0
168.422241 200.0
168.496902 164.0
168.712219 176.0
168.769943 196.0
168.806473 144.0
168.947006 160.0
168.988403 156.0
169.096878 9832.0
169.313629 120.0
169.415024 128.0
169.514053 188.0
169.729813 220.0
169.92569 128.0
169.943497 324.0
169.988907 140.0
170.013351 280.0
170.099319 1392.0
170.178101 148.0
170.31488 168.0
170.687393 140.0
170.78363 212.0
170.87207 144.0
170.93924 168.0
171.017807 204.0
171.043839 148.0
171.099686 528.0
171.168808 160.0
171.236511 160.0
171.327469 140.0
171.377197 160.0
171.486832 112.0
171.645676 252.0
171.836838 112.0
171.888596 132.0
172.005722 288.0
172.125824 128.0
172.182556 248.0
172.316498 164.0
172.340012 212.0
172.407959 156.0
172.499435 236.0
172.577866 144.0
172.815125 108.0
172.857986 136.0
172.917953 252.0
173.156219 140.0
173.185028 164.0
173.259567 220.0
173.483749 180.0
173.622726 140.0
173.731369 192.0
174.353302 192.0
174.47403 100.0
174.519592 160.0
174.565521 160.0
174.637558 124.0
174.718094 184.0
174.749664 172.0
174.783859 140.0
174.815445 264.0
174.891769 220.0
175.004395 144.0
175.044464 140.0
175.156906 180.0
175.208374 160.0
175.280136 284.0
175.368515 176.0
175.638397 148.0
175.682327 188.0
175.77681 128.0
175.835999 132.0
175.895645 184.0
175.951508 224.0
176.036011 180.0
176.189926 132.0
176.306839 136.0
176.47995 148.0
176.506378 148.0
176.65979 148.0
176.683594 148.0
176.795242 152.0
176.932373 152.0
176.964401 124.0
177.043427 192.0
177.106705 164.0
177.279373 176.0
177.544479 192.0
177.637314 168.0
177.682419 184.0
177.777939 144.0
177.89325 200.0
177.950836 120.0
178.059357 152.0
178.216095 148.0
178.234695 164.0
178.274551 180.0
178.338348 144.0
178.375549 168.0
178.548386 192.0
178.745255 308.0
178.871582 164.0
179.078033 236.0
179.356888 184.0
179.406479 156.0
179.509781 144.0
179.564453 168.0
179.827271 148.0
180.145996 176.0
180.241211 188.0
180.298645 136.0
180.457718 360.0
180.807236 152.0
180.93129 152.0
181.175003 156.0
181.488586 288.0
181.53595 144.0
181.721939 192.0
181.901749 144.0
181.998398 164.0
182.064438 120.0
182.087021 156.0
182.271362 156.0
182.318954 160.0
182.339569 192.0
182.75174 120.0
182.78476 136.0
182.88797 108.0
183.075592 11008.0
183.112564 11268.0
183.174301 180.0
183.249741 168.0
183.314804 108.0
183.359528 212.0
183.438339 176.0
183.486313 192.0
183.530807 120.0
183.638596 128.0
183.745239 176.0
183.980042 160.0
184.017303 164.0
184.079605 1920.0
184.114578 1836.0
184.20755 96.0
184.236603 184.0
184.388992 172.0
184.417648 156.0
184.447388 204.0
184.539307 148.0
184.625839 168.0
184.739441 184.0
184.88826 168.0
184.939682 212.0
185.079544 296.0
185.113815 252.0
185.161713 172.0
185.247131 140.0
185.336197 156.0
185.389282 176.0
185.459747 148.0
185.517792 136.0
185.732651 180.0
185.815002 156.0
185.972397 180.0
186.032883 144.0
186.128952 276.0
186.159729 224.0
186.243027 216.0
186.692383 148.0
186.871307 144.0
186.920898 140.0
187.160446 176.0
187.366684 100.0
187.397415 140.0
187.471909 236.0
187.572647 112.0
187.728149 144.0
187.960632 108.0
188.013458 136.0
188.03067 216.0
188.142609 240.0
188.24028 184.0
188.294907 204.0
188.382309 172.0
188.436951 164.0
188.488876 140.0
188.655594 144.0
188.754028 164.0
188.942749 160.0
188.97934 156.0
189.011154 176.0
189.046738 312.0
189.065887 188.0
189.314667 124.0
189.448303 108.0
189.654755 152.0
189.698624 144.0
189.805542 172.0
190.137436 112.0
190.215988 180.0
190.567398 144.0
190.736267 148.0
190.810486 164.0
190.846237 232.0
190.867676 176.0
190.934235 140.0
191.104782 176.0
191.170837 164.0
191.374527 148.0
191.6362 204.0
191.731369 156.0
191.798798 172.0
191.840149 160.0
192.024231 148.0
192.105331 200.0
192.151794 148.0
192.171097 152.0
192.190018 264.0
192.425034 196.0
192.554825 160.0
192.683899 132.0
192.825577 140.0
192.847702 160.0
193.001282 208.0
193.039474 252.0
193.095505 588.0
193.176758 208.0
193.434113 140.0
193.578079 176.0
193.776031 156.0
194.024185 156.0
194.074097 156.0
194.157288 164.0
194.218307 152.0
194.273788 180.0
194.454163 148.0
194.548462 164.0
194.751251 188.0
194.792923 156.0
194.876266 212.0
195.040237 156.0
195.193146 200.0
195.621613 152.0
195.838821 184.0
195.894531 164.0
195.927322 208.0
195.985397 140.0
196.168182 184.0
196.238724 168.0
196.337723 164.0
196.661362 140.0
196.74054 200.0
196.940582 164.0
197.088654 140.0
197.190353 216.0
197.448547 124.0
197.58075 168.0
197.845764 180.0
197.891418 168.0
197.927826 140.0
197.975418 140.0
198.221954 184.0
198.378906 144.0
198.541534 156.0
198.639709 140.0
198.845383 120.0
198.885193 204.0
198.914154 140.0
199.091599 140.0
199.126587 140.0
199.324768 148.0
199.362656 120.0
199.414703 160.0
199.583237 156.0
199.821167 148.0
200.089493 132.0
200.123413 156.0
200.296692 176.0
200.379379 144.0
200.430252 140.0
200.513733 100.0
200.692795 156.0
200.729446 148.0
200.911285 128.0
200.982101 148.0
201.070633 128.0
201.093536 152.0
201.132904 164.0
201.216446 156.0
201.276886 176.0
201.362747 120.0
201.682419 168.0
201.911453 140.0
201.967773 184.0
202.083817 152.0
202.113602 220.0
202.181519 176.0
202.232468 144.0
202.345703 156.0
202.371185 184.0
202.405151 184.0
202.462845 192.0
202.518875 136.0
202.705139 160.0
202.733765 292.0
202.79895 184.0
203.184753 176.0
203.329346 184.0
203.386108 156.0
203.537552 116.0
203.7612 100.0
203.793976 156.0
203.823471 180.0
203.881958 104.0
204.0784 152.0
204.122574 240.0
204.188889 172.0
204.383652 248.0
204.431046 116.0
204.59584 152.0
204.668945 140.0
204.705322 164.0
204.769821 160.0
204.789749 216.0
204.836334 172.0
204.913254 192.0
205.069992 140.0
205.144104 144.0
205.336395 120.0
205.38649 144.0
205.447586 136.0
205.485519 124.0
205.611313 176.0
205.633759 128.0
205.768906 140.0
205.818192 184.0
205.87384 144.0
205.912567 168.0
205.993256 172.0
206.017365 220.0
206.089615 208.0
206.288864 228.0
206.308868 180.0
206.408951 236.0
206.58342 148.0
206.687943 188.0
206.780853 140.0
207.133041 160.0
207.161697 176.0
207.23587 180.0
207.405869 116.0
207.554779 160.0
207.586197 152.0
207.652237 256.0
207.705811 148.0
207.921555 144.0
207.953247 96.0
207.998428 176.0
208.088043 140.0
208.109924 180.0
208.133774 160.0
208.318695 116.0
208.348221 156.0
208.473694 124.0
208.570038 268.0
208.688553 240.0
208.72818 164.0
208.783447 152.0
208.872604 228.0
209.069962 216.0
209.558243 200.0
209.613922 216.0
209.674362 244.0
209.704239 132.0
209.779175 108.0
209.839325 424.0
209.899155 124.0
209.935913 240.0
210.012833 300.0
210.069473 204.0
210.114166 196.0
210.181641 108.0
210.202927 204.0
210.247284 272.0
210.280777 220.0
210.337814 204.0
210.378647 236.0
210.406265 124.0
210.448975 412.0
210.488312 428.0
210.509262 124.0
210.536362 196.0
210.579803 248.0
210.601471 280.0
210.644379 332.0
210.677628 268.0
210.702423 400.0
210.711151 480.0
210.721634 524.0
210.784286 228.0
210.823135 440.0
210.880173 624.0
210.907623 360.0
210.944427 476.0
210.970535 536.0
211.012375 520.0
211.110382 422844.0
211.214142 380.0
211.308441 424.0
211.377472 2780.0
211.424011 672.0
211.473404 820.0
211.505905 1952.0
211.551743 2668.0
211.585678 24872.0
211.654022 412.0
211.680283 340.0
211.689453 324.0
211.722092 236.0
211.758224 156.0
211.81012 448.0
211.854584 396.0
211.909363 412.0
211.9534 228.0
212.035675 1708.0
212.111069 200408.0
212.226654 176.0
212.260605 188.0
212.291962 340.0
212.310837 444.0
212.356918 312.0
212.37851 320.0
212.466934 260.0
212.505508 404.0
212.545044 320.0
212.584641 680.0
212.633057 224.0
212.689285 132.0
212.742279 124.0
212.798462 148.0
212.838974 172.0
212.883011 116.0
212.915909 168.0
212.999466 184.0
213.030563 228.0
213.065399 280.0
213.11264 17612.0
213.179123 188.0
213.217926 300.0
213.232727 128.0
213.271576 300.0
213.321106 164.0
213.347107 276.0
213.412323 216.0
213.450058 156.0
213.498672 520.0
213.55191 320.0
213.591736 276.0
213.624741 416.0
213.654739 300.0
213.692276 668.0
213.704681 524.0
213.74765 480.0
213.767944 364.0
213.819824 500.0
213.892914 264.0
213.922104 160.0
213.95401 304.0
214.018555 124.0
214.060043 132.0
214.1147 1136.0
214.229233 176.0
214.25589 152.0
214.281448 224.0
214.346237 168.0
214.478043 148.0
214.531097 172.0
214.581268 116.0
214.754181 140.0
214.893921 124.0
214.923126 120.0
215.352478 184.0
215.427155 156.0
215.550095 152.0
216.229706 132.0
216.282639 168.0
216.303146 116.0
216.427872 128.0
216.802383 148.0
217.038651 112.0
217.976227 160.0
218.404007 136.0
220.125153 124.0
220.775406 148.0
221.191895 156.0
221.300598 168.0
221.329193 116.0
221.792389 172.0
222.099167 96.0
222.244995 124.0
222.3535 204.0
222.697388 160.0
222.802551 100.0
223.037842 116.0
223.157761 96.0
223.386154 104.0
223.691422 192.0
223.745514 112.0
223.794373 128.0
223.88327 128.0
224.795578 108.0
225.253143 144.0
225.430725 108.0
226.311859 168.0
226.350311 124.0
227.28244 100.0
228.439056 112.0
228.887497 116.0
228.987595 156.0
229.201492 188.0
229.422882 124.0
231.192734 100.0
231.348953 176.0
232.024658 116.0
232.133713 344.0
232.526291 120.0
236.132477 152.0
236.717331 116.0
237.022797 132.0
237.857574 184.0
240.881531 144.0
242.450272 160.0
242.615952 116.0
252.519623 156.0
254.408218 172.0
256.475952 156.0
258.747284 164.0
260.163605 680.0
261.163727 196.0
261.189484 172.0
262.02005 140.0
262.177673 168.0
267.33371 180.0
268.464172 192.0
268.911133 180.0
271.699158 144.0
272.076599 152.0
277.848969 140.0
278.121094 164.0
280.019653 168.0
281.186584 140.0
282.075073 164.0
282.312469 144.0
282.657043 220.0
285.412231 144.0
286.065918 160.0
287.354492 204.0
287.830444 188.0
288.218903 144.0
288.725983 156.0
288.962769 148.0
289.714355 312.0
290.075409 156.0
290.215973 152.0
291.883209 192.0
293.746246 152.0
299.174591 152.0
299.388062 140.0
299.596069 128.0
299.780792 152.0
302.094177 184.0
304.101959 144.0
304.215057 156.0
305.901093 140.0
309.679291 160.0
310.962585 200.0
311.15213 232.0
311.23642 168.0
311.291656 136.0
311.865265 140.0
312.19574 148.0
313.463074 140.0
314.358795 188.0
315.215576 200.0
316.203613 148.0
316.348755 176.0
316.770142 196.0
318.817444 200.0
324.916534 96.0
325.171173 160.0
327.198608 196.0
327.23819 168.0
327.367828 160.0
329.5755 140.0
331.47525 140.0
332.327362 156.0
332.737518 184.0
332.933594 144.0
333.514923 140.0
334.874359 120.0
335.167206 140.0
336.195557 216.0
337.463135 140.0
339.363434 160.0
340.40921 160.0
340.919861 168.0
342.737732 160.0
344.196747 1236.0
345.196686 296.0
345.303467 156.0
346.248322 124.0
346.492645 112.0
346.888275 148.0
346.987335 132.0
347.084778 156.0
347.923309 144.0
349.324341 180.0
350.292236 148.0
350.778595 116.0
351.430023 108.0
353.795166 268.0
354.252075 156.0
355.001709 168.0
355.740875 180.0
356.896667 176.0
357.704407 160.0
360.127777 156.0
360.358215 152.0
366.751953 140.0
369.836151 112.0
371.953766 148.0
374.866608 140.0
376.178009 260.0
376.37323 108.0
376.590332 152.0
377.677307 168.0
379.387634 132.0
379.629333 140.0
379.98233 152.0
380.098724 148.0
380.226807 216.0
380.849579 100.0
381.353149 144.0
382.621307 196.0
384.726593 184.0
384.867126 196.0
387.697968 136.0
388.730743 164.0
388.895569 140.0
390.236481 248.0
390.852722 168.0
390.896027 144.0
391.12442 124.0
391.23938 124.0
391.730713 152.0
393.714722 144.0
394.338959 144.0
394.663147 192.0
395.25647 152.0
396.440521 164.0
397.473145 128.0
400.23819 176.0
401.098755 184.0
402.910522 184.0
404.996643 116.0
405.527618 184.0
405.932526 172.0
409.006104 144.0
410.271027 144.0
410.746887 220.0
410.851776 216.0
412.867371 156.0
413.476929 104.0
413.514709 160.0
414.382477 112.0
414.417786 216.0
414.571777 140.0
414.677399 128.0
414.835693 108.0
415.032318 216.0
415.217346 180.0
415.401245 116.0
415.536713 132.0
415.847565 140.0
415.91745 168.0
416.002045 96.0
416.144318 192.0
416.222717 148.0
416.246033 280.0
416.302124 244.0
416.346802 152.0
416.412598 152.0
416.508575 144.0
416.643646 240.0
416.726135 228.0
416.804291 232.0
416.984406 172.0
417.168457 176.0
417.201385 224.0
417.234833 272.0
417.264862 120.0
417.360443 264.0
417.469971 148.0
417.557953 164.0
417.590363 248.0
417.696655 204.0
417.716064 312.0
417.75528 328.0
417.786896 196.0
417.834686 196.0
417.883911 152.0
417.922333 340.0
417.99823 108.0
418.030701 376.0
418.076324 132.0
418.112335 148.0
418.140228 356.0
418.23584 210896.0
418.374023 144.0
418.493317 104.0
418.536102 224.0
418.608002 192.0
418.717438 316.0
418.837982 308.0
418.907501 2744.0
419.116852 144.0
419.238617 82648.0
419.364746 188.0
419.403931 100.0
419.501709 116.0
419.610077 164.0
419.676514 116.0
419.790253 188.0
419.862976 256.0
419.909332 384.0
419.944458 196.0
420.101837 208.0
420.146027 104.0
420.238983 15856.0
420.572571 116.0
420.612976 104.0
420.839661 200.0
420.868713 164.0
420.958954 164.0
420.998535 104.0
421.129272 176.0
421.181122 116.0
421.243042 1556.0
421.339325 184.0
421.387939 116.0
421.435699 128.0
421.512268 188.0
421.604919 168.0
421.647156 148.0
421.694305 176.0
421.74295 128.0
421.784363 184.0
421.869904 288.0
421.929321 324.0
422.00293 124.0
422.071991 228.0
422.142975 148.0
422.209717 116.0
422.24295 220.0
422.343231 160.0
422.474762 160.0
422.615692 104.0
422.66452 100.0
422.69635 224.0
422.954742 148.0
423.05835 108.0
423.099274 112.0
423.156311 176.0
423.615326 180.0
423.766296 112.0
424.56311 124.0
424.661407 96.0
432.150757 112.0
433.742401 148.0
434.866333 108.0
437.01651 104.0
437.570099 184.0
439.2789 100.0
542.816406 160.0
644.975586 148.0
701.269531 100.0
942.239929 140.0
1147.195068 148.0
1191.37793 140.0
1350.411621 156.0
1384.340576 148.0
1411.285889 184.0
1435.638794 176.0
1457.49353 228.0
1463.868164 188.0
1466.938721 236.0
1489.728638 184.0
1505.727417 216.0
1509.475586 140.0
1517.45874 164.0
1519.211548 144.0
1523.527954 176.0
1532.903931 144.0
1547.871216 164.0
1557.33728 200.0
1561.668213 184.0
1562.085083 192.0
1562.761719 184.0
1570.166748 148.0
1576.158569 172.0
1584.0625 172.0
1593.344482 276.0
1593.638428 224.0
1597.152344 140.0
1618.317139 192.0
1620.087158 160.0
1621.024536 144.0
1628.12439 220.0
1631.523315 224.0
1636.85791 148.0
1642.902954 164.0
1642.983643 252.0
1655.026611 180.0
1658.088745 228.0
1659.71814 184.0
1660.249023 148.0
1670.764404 204.0
1672.994263 208.0
1680.095703 216.0
1683.676025 164.0
1685.015747 188.0
1696.063599 180.0
1696.711304 156.0
1699.179932 184.0
1703.424316 188.0
1717.45105 184.0
1721.251831 168.0
1721.643921 148.0
1722.891113 188.0
1728.108154 180.0
1740.815674 196.0
1743.141602 172.0
1744.047485 152.0
1746.741699 156.0
1746.883179 144.0
1749.646118 144.0
1750.47876 152.0
1753.769653 184.0
1762.783325 200.0
1766.177734 196.0
1767.307129 164.0
1767.867798 204.0
1770.505005 168.0
1775.038696 160.0
1782.602295 144.0
1783.879883 160.0
1784.930786 160.0
1785.359741 176.0
1787.504883 172.0
1792.287842 196.0
1793.071655 140.0
1794.487793 140.0
1802.768677 164.0
1805.863037 168.0
1809.070068 168.0
1814.288696 172.0
1824.017334 220.0
1825.241699 152.0
1825.956055 196.0
1829.674683 140.0
1829.884399 248.0
1831.948486 156.0
1833.028809 136.0
1835.89502 164.0
1838.02771 240.0
1840.229858 212.0
1840.938599 180.0
1842.476074 176.0
1850.121948 208.0
1852.022949 140.0
1852.639771 148.0
1853.025269 164.0
1857.328857 164.0
1859.860229 244.0
1861.002075 172.0
1861.422852 148.0
1863.997803 168.0
1865.589966 256.0
1867.180786 164.0
1870.424561 144.0
1870.872192 168.0
1874.033081 164.0
1874.43811 216.0
1874.800049 200.0
1875.334351 140.0
1880.276489 164.0
1881.890747 148.0
1886.011597 208.0
1888.968994 148.0
1889.462158 188.0
1893.53064 204.0
1898.331909 156.0
1902.001953 296.0
1902.349121 184.0
1902.454102 176.0
1903.026367 172.0
1909.274414 156.0
1913.860474 140.0
1915.402588 164.0
1918.504272 168.0
1920.762939 156.0
1922.673706 160.0
1922.909424 144.0
1923.529175 180.0
1923.712524 168.0
1924.559326 156.0
1926.061523 160.0
1926.664307 188.0
1927.651611 140.0
1927.730225 168.0
1928.001221 148.0
1929.618408 184.0
1930.134277 180.0
1932.880981 164.0
1933.843628 200.0
1934.57019 172.0
1937.074707 148.0
1937.320068 160.0
1937.398926 164.0
1939.554688 148.0
1939.966675 164.0
1941.588867 152.0
1944.062866 192.0
1945.196899 116.0
1947.217651 140.0
1948.018677 164.0
1949.182495 156.0
1950.307495 140.0
1953.622681 184.0
1956.355591 136.0
1957.169678 140.0
1959.080933 184.0
1959.706421 156.0
1959.979614 188.0
1960.622925 152.0
1960.763916 140.0
1961.54834 192.0
1963.788086 204.0
1966.496826 176.0
1966.770508 184.0
1967.105957 172.0
1967.732788 212.0
1968.297852 192.0
1968.946777 156.0
1971.707397 172.0
1977.279785 144.0
1978.076416 140.0
1978.457031 156.0
1979.719849 136.0
1980.689453 176.0
1983.674927 180.0
1984.907349 156.0
1985.031494 204.0
1990.471191 144.0
1992.025513 152.0
1995.224854 232.0
1995.882812 208.0
1997.047852 140.0
1997.546021 224.0
1999.895142 216.0
2001.025757 176.0
2002.317017 232.0
