>compound MLS002639189-01!
>formula C15H28N2O
>ionization [M+H]+
>parentmass 253.227692
#inchi InChI=1S/C15H28N2O/c18-15(16-11-13-7-3-1-4-8-13)17-12-14-9-5-2-6-10-14/h13-14H,1-12H2,(H2,16,17,18)
#inchikey SVZORQBLCFZGBK
#Ion_Source LC-ESI
#Instrument qTof
#Compound_Source NIH Natural Product Library
#PI Dorrestein
#Data_Collector VVP/LMS
#Scan -1
#Precursor_MZ 253.228
#ExactMass 252.22
#Charge 1
#CAS_Number N/A
#Pubmed_ID N/A
#Smiles O=C(NCC1CCCCC1)NCC2CCCCC2
#INCHI_AUX N/A
#Library_Class 1
#SpectrumID CCMSLIB00000079378
#IonMode Positive
#UpdateWorkflowName UPDATE-SINGLE-ANNOTATED-GOLD
#LibraryQualityString Gold
#TaskID b1d8e8f6646f4e71acdff9ca3d919d08
##Scan# 2414
#SpectrumFile p1-D05_GD5_01_17913.mzXML
#LibraryName NIH_Natural_Products_Library.mgf
#MQScore -1
#Organism NIH_Natural_Products_Library
#TIC_Query 0
#RT_Query -1
#MZErrorPPM -1
#SharedPeaks 0
#MassDiff 0
#LibMZ -1
#SpecMZ 253.228
#SpecCharge 0
#internalFilename spec-00000.mgf

>collision 10
95.087158 164.0
95.248306 176.0
95.353226 132.0
95.510712 176.0
96.08342 224.0
96.538513 104.0
96.558067 156.0
96.810524 112.0
96.896706 140.0
96.975082 148.0
97.102043 17384.0
97.135864 88.0
97.159409 44.0
97.184914 176.0
97.228081 80.0
97.290886 40.0
97.341934 80.0
97.37532 68.0
97.424423 76.0
97.713417 80.0
97.79213 96.0
97.943733 36.0
97.992981 100.0
98.104111 812.0
98.199959 52.0
98.226448 64.0
98.31636 32.0
98.334122 68.0
98.671219 152.0
98.707489 56.0
98.737152 84.0
98.781921 88.0
98.853867 116.0
98.90136 140.0
99.105331 232.0
99.470238 164.0
99.897461 120.0
99.987 180.0
100.399376 100.0
101.483162 88.0
101.68576 140.0
103.083366 136.0
103.443359 64.0
103.473724 176.0
104.781631 80.0
104.895752 80.0
104.934486 104.0
105.573586 120.0
106.044456 148.0
106.473236 144.0
106.756836 68.0
107.090233 160.0
108.435226 172.0
108.545097 104.0
108.727646 220.0
108.91243 160.0
108.993446 40.0
109.532272 188.0
109.671875 148.0
110.260429 216.0
110.708115 196.0
110.984703 128.0
111.534729 144.0
112.088211 128.0
112.210464 164.0
112.560707 132.0
113.110382 204.0
113.195061 200.0
113.659271 120.0
113.708076 268.0
114.026642 204.0
114.10833 160.0
114.12851 15588.0
114.211052 60.0
114.303093 68.0
114.32225 80.0
114.339272 116.0
114.567101 68.0
114.805817 60.0
115.049049 64.0
115.131203 1112.0
115.835983 136.0
115.868118 152.0
116.028854 144.0
116.043861 92.0
116.080307 52.0
117.478294 128.0
120.937637 192.0
121.18071 52.0
122.032272 72.0
122.606781 40.0
123.79306 164.0
123.837357 32.0
123.903809 188.0
124.109924 208.0
125.778427 128.0
125.876656 256.0
126.413139 56.0
126.489235 168.0
126.912643 136.0
127.065155 208.0
127.491768 220.0
127.635635 104.0
130.275406 128.0
131.763016 164.0
132.799957 124.0
133.001862 196.0
134.108185 192.0
134.334152 204.0
134.719666 136.0
134.927658 184.0
134.943832 140.0
138.059677 192.0
138.87468 56.0
139.128113 140.0
139.7509 144.0
139.887405 204.0
140.285507 176.0
140.393967 172.0
140.556717 44.0
141.454788 148.0
142.251266 172.0
142.312988 80.0
145.964005 220.0
146.050583 180.0
146.1035 100.0
147.197723 216.0
147.258087 136.0
147.342636 88.0
148.296021 164.0
148.422089 100.0
149.605255 168.0
151.608078 48.0
151.865509 84.0
152.309769 96.0
152.540741 44.0
153.313568 176.0
153.466385 156.0
153.92038 192.0
154.206955 180.0
154.602097 184.0
154.726395 136.0
156.021393 56.0
156.862793 116.0
157.044815 132.0
157.091919 208.0
157.134171 13188.0
157.171371 60.0
157.178482 144.0
157.196991 44.0
157.217133 56.0
157.267944 64.0
157.289337 104.0
157.447205 52.0
157.469101 96.0
157.545166 112.0
157.575317 108.0
157.646469 44.0
157.726456 116.0
157.848953 68.0
157.989014 132.0
158.136398 1044.0
158.998779 96.0
159.138245 508.0
159.242294 104.0
159.405594 116.0
160.288818 280.0
160.853729 112.0
161.351395 196.0
164.59082 140.0
164.738953 60.0
166.057144 164.0
166.578186 76.0
166.917114 156.0
167.738708 120.0
167.921768 176.0
169.623077 80.0
170.994461 188.0
172.394897 160.0
172.988602 36.0
173.192841 152.0
173.347412 160.0
173.911255 184.0
174.281525 204.0
175.152298 48.0
177.130722 156.0
177.263199 148.0
181.651642 204.0
182.548676 176.0
183.852493 192.0
185.090546 188.0
185.618927 112.0
187.14595 112.0
188.558975 164.0
189.045746 336.0
191.13945 160.0
191.323853 100.0
191.869324 104.0
191.976852 48.0
193.258514 136.0
195.01387 100.0
195.528381 128.0
195.636932 264.0
196.827423 116.0
197.04248 140.0
197.696762 116.0
198.837341 120.0
199.51709 140.0
199.615799 164.0
200.696732 152.0
201.422012 92.0
202.406189 168.0
203.940948 108.0
204.083084 116.0
204.279312 56.0
205.056625 220.0
206.555603 96.0
207.434692 144.0
211.921814 32.0
216.890533 156.0
217.007797 204.0
221.285767 140.0
221.350906 192.0
221.987991 216.0
222.875504 132.0
223.163818 148.0
224.3815 144.0
226.227707 124.0
227.240646 152.0
229.439102 128.0
234.406784 56.0
236.357956 144.0
237.568115 164.0
239.865173 224.0
240.991577 192.0
241.826508 172.0
241.86673 180.0
242.030807 144.0
242.796204 212.0
245.901062 124.0
247.805405 160.0
248.100006 184.0
248.633224 196.0
249.459259 88.0
249.544144 104.0
251.081039 196.0
251.295273 96.0
251.405716 128.0
251.632965 84.0
251.674011 60.0
251.711899 108.0
251.749802 168.0
252.346985 76.0
252.381775 160.0
252.43869 104.0
252.729691 244.0
252.796143 60.0
252.895981 204.0
252.992371 188.0
253.086929 148.0
253.227692 25856.0
253.362885 44.0
253.388229 64.0
253.490524 56.0
253.526871 108.0
253.578354 72.0
253.60054 100.0
253.632233 84.0
253.679779 68.0
253.714645 48.0
253.765381 68.0
253.809769 76.0
253.838303 108.0
253.870651 60.0
253.949036 48.0
254.006393 100.0
254.098389 256.0
254.130112 72.0
254.23024 3872.0
254.33638 28.0
254.437958 68.0
254.46019 52.0
254.558868 100.0
254.664658 72.0
254.834961 68.0
254.869904 60.0
255.006546 56.0
255.127335 128.0
255.235382 548.0
255.368988 96.0
255.547134 68.0
255.696686 44.0
255.760345 36.0
255.922699 124.0
255.96727 116.0
256.06601 100.0
256.101044 92.0
256.126526 104.0
256.298676 176.0
256.811798 120.0
256.948944 76.0
257.159546 100.0
257.46286 96.0
257.689636 56.0
258.809052 64.0
262.32373 56.0
266.417297 132.0
266.752014 100.0
271.115753 80.0
271.269806 60.0
271.755157 104.0
279.094299 228.0
283.554077 84.0
321.771271 100.0
356.457092 48.0
363.894257 44.0
401.808746 112.0
420.54953 136.0
424.28418 32.0
426.817383 20.0
434.91037 84.0
443.037476 52.0
444.417664 76.0
473.751923 60.0
476.193939 84.0
483.072021 48.0
491.555847 56.0
492.200287 60.0
517.463989 64.0
568.615479 52.0
571.623596 20.0
615.009705 132.0
642.758423 68.0
765.438049 48.0
791.099976 136.0
837.178955 160.0
850.522583 188.0
872.592651 152.0
921.07489 168.0
956.023071 156.0
959.866882 160.0
960.662476 228.0
965.288391 164.0
966.890564 36.0
970.793396 200.0
971.270935 272.0
973.666626 172.0
979.575378 68.0
992.825623 168.0
998.068909 280.0
998.490234 140.0
1020.78833 168.0
1023.766418 104.0
1028.465088 192.0
1042.63208 144.0
1042.946899 188.0
1043.982056 212.0
1048.146851 208.0
1048.488403 200.0
1051.545288 180.0
1051.700195 140.0
1055.640991 176.0
1055.815674 100.0
1056.455933 52.0
1062.24707 160.0
1064.044678 144.0
1104.74939 172.0
1108.609497 220.0
1110.525391 224.0
1114.833984 136.0
1115.159668 244.0
1115.884155 216.0
1119.590454 132.0
1124.116821 124.0
1124.490479 112.0
1125.051147 184.0
1125.445068 192.0
1131.060669 184.0
1133.210205 144.0
1139.536987 224.0
1140.370239 156.0
1140.497925 160.0
1140.551758 180.0
1148.483398 208.0
1149.184937 140.0
1152.905518 176.0
1153.811157 140.0
1157.471558 204.0
1158.954834 168.0
1165.196777 108.0
1170.018433 240.0
1170.672119 160.0
1180.915771 180.0
1187.874756 104.0
1188.135498 128.0
1191.739868 176.0
1192.901245 200.0
1198.833984 68.0
1200.895386 208.0
1214.437622 200.0
1215.110474 180.0
1215.859863 200.0
1216.581787 164.0
1220.959106 152.0
1222.454712 124.0
1226.305908 224.0
1228.537231 40.0
1229.283691 168.0
1234.320068 96.0
1234.61377 212.0
1239.457764 156.0
1240.27771 132.0
1246.383179 140.0
1247.388184 216.0
1247.831055 140.0
1250.081787 128.0
1252.074097 156.0
1253.017944 156.0
1259.013428 220.0
1264.640991 176.0
1265.023193 132.0
1266.637695 96.0
1268.699707 164.0
1269.635742 188.0
1272.410034 148.0
1275.365112 184.0
1279.206177 168.0
1286.648438 152.0
1291.285889 188.0
1294.685181 192.0
1295.716675 132.0
1295.781128 208.0
1300.119141 92.0
1302.739868 156.0
1314.68457 172.0
1320.767822 144.0
1330.078613 272.0
1333.884766 224.0
1335.81897 132.0
1337.121338 148.0
1339.910156 120.0
1344.036865 144.0
1344.12439 164.0
1345.335938 120.0
1345.730103 232.0
1350.633667 232.0
1351.621216 132.0
1356.608765 176.0
1357.019287 140.0
1359.373779 160.0
1360.225098 160.0
1363.956543 136.0
1368.716431 76.0
1369.85791 156.0
1373.034668 172.0
1376.694946 100.0
1376.790894 188.0
1377.706787 248.0
1384.748535 204.0
1386.237549 196.0
1387.957275 184.0
1388.802612 92.0
1390.739136 180.0
1392.394775 64.0
1397.077515 128.0
1398.77417 124.0
1398.908081 156.0
1400.844238 220.0
1402.572876 160.0
1402.923218 164.0
1403.266235 220.0
1404.287842 188.0
1406.384399 80.0
1407.39209 112.0
1409.088501 128.0
1414.52417 84.0
1421.073975 100.0
1425.684326 196.0
1426.653931 60.0
1427.691528 176.0
1428.9552 184.0
1437.393921 220.0
1437.922119 108.0
1439.1073 188.0
1441.53186 176.0
1442.703369 180.0
1444.245972 160.0
1447.909058 192.0
1450.068237 236.0
1453.161987 44.0
1455.135254 160.0
1455.499756 280.0
1456.471802 124.0
1456.722412 180.0
1462.623047 80.0
1463.940186 220.0
1464.480835 152.0
1464.808472 192.0
1466.278931 188.0
1470.152954 148.0
1471.687256 200.0
1472.145386 168.0
1473.795288 196.0
1476.608398 124.0
1477.794067 52.0
1480.05188 188.0
1481.39978 200.0
1483.453491 172.0
1483.737183 136.0
1484.994629 104.0
1488.071777 164.0
1489.46936 176.0
1489.576904 140.0
1490.183838 80.0
1496.498169 192.0
1497.137329 132.0
1498.539185 128.0
1503.836792 160.0
