>compound MLS002153955-01!Lycorine hydrochloride2188-68-3
>formula C16H17NO4
>ionization [M+H]+
>parentmass 288.12265
#inchi InChI=1S/C16H17NO4/c18-11-3-8-1-2-17-6-9-4-12-13(21-7-20-12)5-10(9)14(15(8)17)16(11)19/h3-5,11,14-16,18-19H,1-2,6-7H2/t11-,14-,15?,16+/m0/s1
#inchikey XGVJWXAYKUHDOO
#origInchi InChI=1S/C16H17NO4.ClH/c18-11-3-8-1-2-17-6-9-4-12-13(21-7-20-12)5-10(9)14(15(8)17)16(11)19;/h3-5,11,14-16,18-19H,1-2,6-7H2;1H/t11-,14-,15?,16+;/m0./s1
#Ion_Source LC-ESI
#Instrument qTof
#Compound_Source NIH Pharmacologically Active Library
#PI Dorrestein
#Data_Collector VP/LMS
#Scan -1
#Precursor_MZ 288.122
#ExactMass 287.116
#Charge 1
#CAS_Number N/A
#Pubmed_ID N/A
#Smiles O[C@H]1C=C2CCN3Cc4cc5OCOc5cc4[C@@H](C32)[C@@H]1O.Cl
#INCHI_AUX N/A
#Library_Class 1
#SpectrumID CCMSLIB00000085929
#IonMode Positive
#UpdateWorkflowName UPDATE-SINGLE-ANNOTATED-GOLD
#LibraryQualityString Gold
#TaskID d252d724072548979f1f6f1ced849daf
##Scan# 321
#SpectrumFile p4-H02_GH2_01_18410.mzXML
#LibraryName Pharm_Active_Library.mgf
#MQScore -1
#Organism Pharm_Active_Library
#TIC_Query 0
#RT_Query -1
#MZErrorPPM -1
#SharedPeaks 0
#MassDiff 0
#LibMZ -1
#SpecMZ 288.122
#SpecCharge 0
#internalFilename spec-00000.mgf

>collision 10
45.340076 120.0
45.69997 84.0
45.993767 148.0
46.118034 212.0
46.521713 132.0
46.582825 188.0
47.278221 212.0
47.557819 120.0
47.641586 136.0
48.270107 108.0
48.608112 80.0
49.127098 112.0
49.164772 164.0
50.06765 120.0
50.568867 120.0
50.633995 200.0
50.692081 184.0
52.188099 132.0
53.19511 124.0
53.545544 136.0
54.122387 44.0
54.494953 148.0
54.602268 184.0
55.300152 92.0
56.667255 164.0
56.956799 152.0
57.444527 192.0
58.26963 68.0
59.06543 156.0
59.12204 164.0
59.749638 140.0
59.860462 104.0
63.646721 232.0
63.805611 164.0
64.053871 140.0
64.187752 144.0
65.201126 72.0
65.634171 216.0
67.166832 160.0
69.012833 200.0
69.800476 104.0
70.193466 144.0
71.362259 164.0
72.366188 188.0
72.813881 172.0
73.479469 228.0
73.850174 156.0
73.976799 116.0
74.278404 164.0
75.350945 156.0
75.62764 188.0
76.060989 164.0
78.78067 60.0
79.049423 176.0
80.257355 144.0
80.75383 164.0
81.406197 144.0
82.028732 184.0
82.449295 212.0
83.369957 156.0
84.584709 124.0
84.97139 108.0
85.65712 124.0
86.269798 232.0
86.543617 232.0
87.163162 204.0
87.310028 120.0
87.33979 180.0
87.544518 196.0
87.837143 212.0
88.466911 244.0
88.627983 136.0
89.475075 168.0
89.570328 152.0
90.316742 148.0
90.712509 236.0
90.797829 144.0
91.055672 424.0
91.128136 80.0
91.160439 184.0
91.933624 212.0
92.057617 328.0
93.65921 180.0
93.875076 228.0
94.066093 232.0
94.181953 132.0
95.046692 164.0
95.123047 176.0
95.338272 104.0
95.815384 72.0
95.916718 120.0
96.043465 188.0
96.07663 200.0
97.775536 184.0
98.716583 192.0
99.886787 116.0
99.902702 52.0
100.462509 252.0
101.512596 184.0
103.655495 84.0
104.386292 140.0
104.995209 112.0
106.065392 188.0
106.117867 156.0
106.855217 124.0
107.046646 148.0
107.232063 152.0
107.967072 56.0
108.841583 212.0
109.016083 144.0
109.86145 168.0
109.949089 156.0
110.059822 184.0
111.066811 316.0
111.114639 104.0
112.006004 196.0
112.077309 312.0
112.256813 60.0
112.837486 148.0
113.004578 264.0
113.053246 120.0
114.107491 176.0
114.456444 108.0
114.976601 172.0
115.055115 164.0
115.222168 152.0
116.589279 140.0
116.793541 176.0
116.946312 116.0
117.168114 112.0
117.312508 100.0
118.128815 136.0
118.746147 100.0
118.893684 72.0
119.049179 7052.0
119.12384 140.0
119.228142 64.0
119.399895 64.0
119.56089 40.0
119.857056 132.0
120.052017 788.0
120.144859 208.0
120.686523 104.0
120.995026 108.0
121.051888 260.0
121.084808 128.0
121.481552 88.0
121.49691 88.0
121.722984 92.0
122.061394 76.0
122.96244 104.0
123.057365 176.0
124.07312 820.0
126.252861 176.0
127.050285 140.0
127.267998 148.0
127.904236 116.0
128.058517 176.0
129.077438 212.0
129.622986 96.0
130.026657 240.0
130.542374 144.0
131.086456 144.0
132.042084 224.0
133.515442 60.0
134.060974 844.0
134.471588 160.0
134.487747 216.0
134.9729 128.0
135.040924 512.0
135.064728 204.0
135.204239 96.0
135.50528 48.0
135.665192 176.0
136.052368 600.0
136.073517 164.0
136.59874 80.0
136.954895 140.0
140.056229 128.0
141.028381 192.0
141.269577 108.0
141.293228 216.0
141.842651 176.0
141.946976 148.0
142.079849 244.0
142.219803 164.0
143.08989 156.0
144.036652 224.0
144.077271 156.0
145.062866 220.0
146.396774 44.0
146.476257 196.0
146.652161 172.0
146.714828 156.0
146.738937 132.0
146.830582 236.0
146.895706 224.0
147.043961 12520.0
147.140747 144.0
147.220825 80.0
147.272278 248.0
147.342331 152.0
147.388229 80.0
147.43898 44.0
147.455902 60.0
147.475235 68.0
147.518753 144.0
147.869492 96.0
148.048737 928.0
148.097076 44.0
148.118881 152.0
148.225494 72.0
148.341827 60.0
148.511566 92.0
148.574631 72.0
149.002823 132.0
149.060562 252.0
149.121002 92.0
149.444443 72.0
150.063171 172.0
151.064438 140.0
152.069107 164.0
153.069275 312.0
154.064728 204.0
154.16748 244.0
154.216919 80.0
154.880051 108.0
155.089828 236.0
155.145203 124.0
156.079056 240.0
157.065002 132.0
158.059372 168.0
158.104416 64.0
158.464996 56.0
159.043015 296.0
160.052719 196.0
163.096008 72.0
165.06842 340.0
166.083572 212.0
167.047409 204.0
167.083328 156.0
167.281036 56.0
168.061951 180.0
168.080017 220.0
168.317505 132.0
169.067184 68.0
169.087891 140.0
170.057236 160.0
170.103973 168.0
170.626144 232.0
171.761581 52.0
172.072144 148.0
173.052704 128.0
175.056168 40.0
175.828613 132.0
177.053864 2424.0
177.588074 92.0
178.065689 164.0
178.142868 92.0
179.055222 308.0
180.084152 160.0
180.80397 52.0
181.077057 148.0
182.074768 116.0
183.072845 172.0
183.104843 176.0
184.081345 144.0
184.109955 272.0
185.046448 148.0
185.106018 164.0
186.091141 272.0
186.930237 160.0
187.06633 108.0
187.772064 164.0
188.074921 120.0
192.071579 316.0
193.085419 160.0
194.095886 544.0
194.126251 96.0
194.899689 104.0
195.080154 112.0
196.067642 388.0
197.082123 172.0
198.087982 684.0
198.528717 104.0
198.935577 204.0
199.068756 204.0
199.092804 156.0
200.079788 156.0
201.072021 164.0
205.091171 56.0
205.661636 200.0
206.687637 152.0
207.059799 164.0
208.076416 292.0
209.063736 148.0
209.090225 216.0
210.060669 72.0
210.090088 160.0
211.068787 340.0
212.073242 116.0
212.1082 448.0
213.08699 288.0
214.083572 192.0
214.322632 52.0
215.037125 128.0
215.092575 144.0
215.592026 72.0
216.662979 52.0
217.052811 92.0
218.82756 136.0
219.608505 200.0
220.068878 100.0
220.695282 192.0
221.082809 68.0
222.093887 668.0
223.070084 104.0
223.1073 340.0
223.138458 88.0
224.073013 156.0
224.095398 168.0
225.084473 608.0
226.081161 500.0
227.09082 172.0
228.098221 92.0
228.910568 112.0
229.100327 204.0
230.05632 108.0
230.111908 132.0
235.070602 176.0
237.080231 164.0
238.079697 180.0
239.078979 124.0
239.098816 176.0
240.098892 800.0
241.087128 184.0
241.114578 152.0
242.112045 612.0
243.090424 180.0
244.815781 100.0
245.192749 164.0
247.1633 132.0
248.843369 132.0
250.086731 160.0
251.086685 172.0
251.132996 208.0
252.09848 424.0
252.448212 40.0
253.0811 100.0
253.112762 200.0
254.07547 164.0
254.187363 76.0
255.089386 152.0
256.215973 92.0
259.120148 140.0
260.127167 136.0
261.126495 128.0
263.444153 56.0
264.618134 76.0
268.087341 184.0
270.112305 592.0
270.458527 28.0
271.117706 524.0
272.110779 192.0
272.311096 72.0
272.767853 76.0
273.083496 96.0
279.874512 188.0
286.129089 100.0
288.12265 2488.0
289.125732 536.0
290.125854 100.0
290.760162 48.0
291.252502 120.0
305.140656 132.0
359.404541 64.0
447.287201 44.0
487.072174 48.0
583.801758 92.0
737.194702 76.0
776.22406 108.0
788.158813 104.0
829.506287 220.0
832.168274 48.0
900.863159 236.0
910.266724 288.0
915.311951 144.0
1048.299561 204.0
1072.403076 164.0
1118.687378 168.0
1127.572388 184.0
1136.855347 188.0
1183.543213 152.0
1192.592163 52.0
1200.578857 44.0
1237.744751 128.0
1258.382324 148.0
1259.342773 108.0
1282.431519 116.0
1288.197266 196.0
1300.004272 156.0
1304.004517 32.0
1316.150757 172.0
1318.346802 188.0
1322.013428 120.0
1328.817627 132.0
1331.430908 68.0
1337.378296 132.0
1351.331665 204.0
1356.436279 56.0
1359.568237 108.0
1362.578857 72.0
1365.41626 144.0
1365.533936 168.0
1373.444702 84.0
1375.009033 200.0
1377.091064 172.0
1386.2948 124.0
1386.420776 156.0
1389.505493 216.0
1392.898193 256.0
1411.994751 104.0
1424.001831 232.0
1429.520142 196.0
1435.373291 160.0
1442.160522 140.0
1443.642456 176.0
1450.305054 180.0
1461.42334 188.0
1489.635132 140.0
1500.733154 256.0
1503.255615 220.0
