>compound MLS001401421-01!KETOTIFEN FUMARATE
>formula C19H19NOS
>ionization [M+H]+
>parentmass 310.125153
#inchi InChI=1S/C19H19NOS/c1-20-9-6-13(7-10-20)18-15-5-3-2-4-14(15)12-17(21)19-16(18)8-11-22-19/h2-5,8,11H,6-7,9-10,12H2,1H3
#inchikey ZCVMWBYGMWKGHF
#origInchi InChI=1S/C19H19NOS.C4H4O4/c1-20-9-6-13(7-10-20)18-15-5-3-2-4-14(15)12-17(21)19-16(18)8-11-22-19;5-3(6)1-2-4(7)8/h2-5,8,11H,6-7,9-10,12H2,1H3;1-2H,(H,5,6)(H,7,8)/b;2-1+
#Ion_Source LC-ESI
#Instrument qTof
#Compound_Source NIH Pharmacologically Active Library
#PI Dorrestein
#Data_Collector VP/LMS
#Scan -1
#Precursor_MZ 310.129
#ExactMass 309.119
#Charge 1
#CAS_Number N/A
#Pubmed_ID N/A
#Smiles CN1CCC(=C2c3ccsc3C(=O)Cc4ccccc24)CC1.OC(=O)/C=C/C(=O)O
#INCHI_AUX N/A
#Library_Class 1
#SpectrumID CCMSLIB00000085143
#IonMode Positive
#UpdateWorkflowName UPDATE-SINGLE-ANNOTATED-GOLD
#LibraryQualityString Gold
#TaskID d252d724072548979f1f6f1ced849daf
##Scan# 1561
#SpectrumFile p3-F04_GF4_01_18285.mzXML
#LibraryName Pharm_Active_Library.mgf
#MQScore -1
#Organism Pharm_Active_Library
#TIC_Query 0
#RT_Query -1
#MZErrorPPM -1
#SharedPeaks 0
#MassDiff 0
#LibMZ -1
#SpecMZ 310.129
#SpecCharge 0
#internalFilename spec-00000.mgf

>collision 10
44.926659 140.0
44.985382 124.0
45.046814 156.0
45.062847 172.0
45.101604 172.0
45.110962 84.0
45.14439 156.0
45.205933 140.0
45.254124 112.0
45.327797 144.0
45.405556 112.0
45.441776 144.0
45.451172 72.0
45.531723 188.0
45.543812 136.0
45.576054 152.0
45.596214 108.0
45.640579 188.0
45.776493 176.0
45.862469 168.0
45.872459 140.0
45.904919 68.0
45.958481 116.0
46.131367 228.0
46.21928 232.0
46.286968 160.0
46.319473 204.0
46.35199 164.0
46.588089 184.0
46.651962 184.0
46.70636 176.0
46.732208 132.0
46.82206 140.0
46.837326 212.0
46.882008 160.0
46.948811 208.0
46.974213 148.0
46.993828 120.0
47.01157 112.0
47.135845 120.0
47.161812 280.0
47.294498 68.0
47.32188 60.0
47.33968 172.0
47.505535 60.0
47.530235 108.0
47.543499 204.0
47.600246 196.0
47.612606 96.0
47.623592 192.0
47.634583 140.0
47.652443 216.0
47.689548 204.0
47.781689 112.0
47.833988 164.0
48.036568 220.0
48.065544 116.0
48.106953 180.0
48.124287 180.0
48.228344 180.0
48.24234 136.0
48.385677 332.0
48.488743 172.0
48.517853 72.0
48.537266 208.0
48.606625 128.0
48.667706 144.0
48.710758 72.0
48.820568 156.0
48.85117 32.0
48.902657 212.0
49.080986 156.0
49.194004 52.0
49.223328 112.0
49.240086 140.0
49.322529 132.0
49.357479 156.0
49.379856 100.0
49.399441 200.0
49.466614 88.0
49.476414 224.0
49.53944 140.0
49.555618 160.0
49.580074 240.0
49.601101 160.0
49.643166 132.0
49.654385 144.0
49.735767 180.0
49.850941 196.0
49.919827 172.0
49.960621 120.0
50.153553 244.0
50.238167 184.0
50.259491 140.0
50.294613 180.0
50.339794 192.0
50.450008 200.0
50.53487 224.0
50.625469 132.0
50.641048 152.0
50.700558 104.0
50.726074 232.0
50.785633 144.0
50.844543 152.0
50.85516 60.0
50.928997 164.0
50.965939 204.0
50.985832 192.0
51.011421 40.0
51.027058 152.0
51.152256 144.0
51.180733 160.0
51.198521 188.0
51.231697 164.0
51.251957 184.0
51.36174 60.0
51.38171 156.0
51.420242 244.0
51.433086 212.0
51.471638 204.0
51.535919 140.0
51.56736 128.0
51.578796 172.0
51.726139 224.0
51.846458 156.0
51.866528 128.0
51.893764 148.0
51.918144 112.0
51.929619 184.0
52.034382 276.0
52.053047 124.0
52.156494 112.0
52.17231 108.0
52.300343 172.0
52.334896 184.0
52.398273 128.0
52.504948 176.0
52.536682 240.0
52.617508 104.0
52.634834 168.0
52.801033 76.0
52.815815 216.0
52.872215 200.0
52.915356 168.0
52.953007 164.0
52.995022 172.0
53.084827 168.0
53.102795 188.0
53.1763 160.0
53.215496 172.0
53.240185 192.0
53.274563 180.0
53.307014 180.0
53.398609 204.0
53.48737 128.0
53.512119 184.0
53.528137 124.0
53.558723 144.0
53.596603 164.0
53.617004 204.0
53.65345 168.0
53.698536 244.0
53.728977 168.0
53.745342 144.0
53.803726 168.0
53.85498 124.0
53.867985 112.0
53.974682 164.0
54.017097 172.0
54.24995 184.0
54.259747 176.0
54.338814 204.0
54.464207 164.0
54.499466 180.0
54.646507 180.0
54.660557 68.0
54.742191 52.0
54.815849 164.0
54.830585 196.0
54.842377 172.0
54.902832 192.0
55.051891 180.0
55.082909 72.0
55.152363 56.0
55.214466 236.0
55.258842 208.0
55.368389 240.0
55.378757 108.0
55.39357 84.0
55.44532 104.0
55.49287 156.0
55.516071 160.0
55.589291 112.0
55.6754 160.0
55.724422 40.0
55.789818 108.0
55.801712 92.0
55.819557 176.0
55.8493 136.0
55.913284 144.0
55.977303 92.0
56.111408 136.0
56.132286 124.0
56.184494 212.0
56.245678 168.0
56.272633 148.0
56.345741 200.0
56.418976 212.0
56.42944 188.0
56.48328 176.0
56.577564 168.0
56.588043 124.0
56.606014 200.0
56.628479 172.0
56.790359 160.0
56.842873 168.0
56.865383 132.0
56.90892 204.0
56.973507 216.0
56.98703 172.0
57.050156 48.0
57.268356 136.0
57.280407 164.0
57.340683 248.0
57.455288 176.0
57.556419 164.0
57.583603 332.0
57.736256 164.0
57.799797 148.0
57.867912 200.0
57.884571 136.0
57.908802 64.0
57.925465 404.0
57.939098 140.0
57.990623 148.0
58.013363 164.0
58.057335 68.0
58.13319 216.0
58.227322 212.0
58.28791 168.0
58.339771 180.0
58.356323 176.0
58.376263 132.0
58.394512 100.0
58.405163 116.0
58.52235 104.0
58.539249 164.0
58.677765 228.0
58.712212 200.0
58.790649 136.0
58.98616 188.0
59.07333 156.0
59.099339 88.0
59.140659 116.0
59.295364 244.0
59.372864 180.0
59.401165 196.0
59.43185 112.0
59.448734 196.0
59.514744 52.0
59.626888 140.0
59.646873 160.0
59.811337 184.0
59.937763 144.0
59.957798 132.0
59.979378 48.0
60.062614 176.0
60.108936 40.0
60.14172 116.0
60.155239 180.0
60.176857 132.0
60.190754 192.0
60.269535 104.0
60.289623 144.0
60.505699 228.0
60.577431 116.0
60.599121 196.0
60.699562 176.0
60.79451 84.0
60.993324 204.0
61.008869 80.0
61.094269 204.0
61.113079 156.0
61.208031 224.0
61.26878 180.0
61.301502 144.0
61.324879 192.0
61.349823 120.0
61.401279 168.0
61.438721 216.0
61.468365 152.0
61.521511 164.0
61.555786 188.0
61.613583 48.0
61.62608 132.0
61.699543 452.0
61.730816 100.0
61.851292 224.0
61.89513 196.0
61.906094 160.0
61.946815 140.0
61.982853 48.0
62.069073 316.0
62.091026 116.0
62.10828 204.0
62.208714 164.0
62.313942 32.0
62.408253 116.0
62.630161 120.0
62.656319 220.0
62.690033 172.0
62.764126 132.0
62.816444 96.0
62.858776 60.0
62.992985 132.0
63.215927 72.0
63.233337 124.0
63.274498 168.0
63.298248 92.0
63.496353 128.0
63.523319 192.0
63.562984 132.0
63.731308 180.0
63.769447 116.0
63.855309 240.0
63.990578 64.0
64.024017 232.0
64.067024 224.0
64.091492 112.0
64.272713 140.0
64.333366 132.0
64.35891 56.0
64.387657 188.0
64.52668 132.0
64.641853 236.0
64.665863 104.0
64.721893 128.0
64.741112 72.0
64.772789 180.0
64.846855 100.0
64.889336 120.0
64.979958 124.0
65.031311 88.0
65.067802 208.0
65.109993 172.0
65.236931 188.0
65.269089 188.0
65.312515 156.0
65.365608 124.0
65.549194 144.0
65.618507 88.0
65.657204 216.0
65.852501 156.0
65.888046 160.0
65.907433 160.0
65.944603 96.0
65.972084 408.0
65.999573 180.0
66.028679 348.0
66.083679 156.0
66.182419 228.0
66.248825 200.0
66.295822 188.0
66.579735 148.0
66.600853 92.0
66.781281 60.0
66.864258 184.0
66.891792 196.0
66.914726 132.0
66.973351 160.0
67.017342 112.0
67.054825 36.0
67.126556 108.0
67.173859 116.0
67.341995 248.0
67.361595 104.0
67.401894 132.0
67.528976 212.0
67.546318 36.0
67.55777 216.0
67.851471 208.0
67.911613 96.0
67.934578 144.0
68.05603 244.0
68.088875 164.0
68.134872 136.0
68.208824 48.0
68.300911 228.0
68.348625 232.0
68.398788 184.0
68.460571 244.0
68.483627 192.0
68.538803 228.0
68.735725 128.0
68.796951 152.0
68.820015 144.0
68.899345 168.0
69.099403 184.0
69.144081 128.0
69.15937 204.0
69.175888 132.0
69.231834 148.0
69.443138 212.0
69.54686 204.0
69.560135 152.0
69.644829 168.0
69.670494 124.0
69.764473 136.0
69.803726 152.0
69.879234 28.0
69.894211 152.0
69.98243 176.0
70.010742 160.0
70.150711 188.0
70.26078 240.0
70.274132 236.0
70.30368 192.0
70.349236 208.0
70.446098 152.0
70.569778 176.0
70.614929 184.0
70.648384 136.0
70.660095 112.0
70.855988 180.0
70.877769 220.0
70.916321 148.0
71.129356 120.0
71.185516 180.0
71.332619 212.0
71.351112 252.0
71.383064 332.0
71.507271 116.0
71.57827 132.0
71.606903 140.0
71.748451 92.0
71.76194 184.0
71.817596 168.0
71.874565 208.0
72.015083 244.0
72.04718 124.0
72.089424 100.0
72.12999 140.0
72.167183 100.0
72.19931 236.0
72.213882 288.0
72.312675 220.0
72.326218 60.0
72.377007 100.0
72.393944 164.0
72.443062 152.0
72.497284 44.0
72.531181 140.0
72.57357 48.0
72.665161 184.0
72.992996 160.0
73.045128 228.0
73.083153 116.0
73.15123 156.0
73.168259 160.0
73.227859 204.0
73.243187 116.0
73.365891 120.0
73.406815 160.0
73.521111 200.0
73.582565 108.0
73.712387 200.0
73.748276 168.0
73.768791 128.0
73.825218 140.0
73.878242 124.0
73.903908 188.0
73.921021 72.0
73.954971 224.0
73.974075 152.0
74.025444 236.0
74.061417 188.0
74.138512 124.0
74.232803 168.0
74.39238 112.0
74.45076 156.0
74.507446 120.0
74.54525 100.0
74.584778 180.0
74.598534 144.0
74.614006 208.0
74.631203 116.0
74.699814 204.0
74.7258 144.0
74.748169 152.0
74.772987 216.0
74.844574 116.0
74.942757 72.0
75.015144 128.0
75.172104 428.0
75.199715 200.0
75.230789 160.0
75.261871 168.0
75.280693 160.0
75.457115 148.0
75.619736 116.0
75.666473 124.0
75.99453 176.0
76.068687 176.0
76.103416 184.0
76.134514 176.0
76.318878 180.0
76.383232 144.0
76.400627 100.0
76.416283 132.0
76.432816 132.0
76.458046 200.0
76.480675 140.0
76.540443 148.0
76.635674 88.0
76.753693 200.0
76.830956 140.0
76.94091 156.0
77.022095 104.0
77.047447 140.0
77.07016 52.0
77.180283 180.0
77.236252 200.0
77.253746 108.0
77.477837 144.0
77.660149 180.0
77.695236 180.0
77.713303 160.0
77.756653 196.0
77.774208 148.0
77.844437 160.0
78.192543 120.0
78.25293 172.0
78.270004 140.0
78.388031 156.0
78.410942 100.0
78.518494 160.0
78.564354 164.0
78.647293 136.0
78.66671 136.0
78.67907 228.0
78.776207 176.0
78.810394 160.0
78.834511 68.0
78.880783 112.0
78.93705 188.0
78.989288 92.0
79.098061 168.0
79.190132 40.0
79.280495 136.0
79.378334 232.0
79.40873 196.0
79.55011 184.0
79.574966 180.0
79.619362 184.0
79.65844 212.0
79.670876 56.0
79.72596 204.0
79.798843 140.0
79.821953 152.0
79.936066 140.0
79.957161 172.0
79.998108 168.0
80.039055 204.0
80.142372 256.0
80.18158 92.0
80.282394 124.0
80.370613 176.0
80.424156 156.0
80.441231 200.0
80.587494 108.0
80.606323 128.0
80.710007 172.0
80.733253 148.0
80.760086 180.0
80.899666 344.0
81.09272 176.0
81.123711 136.0
81.176704 136.0
81.249146 144.0
81.274261 188.0
81.389923 184.0
81.425064 180.0
81.520279 168.0
81.66951 136.0
81.6875 152.0
81.767403 224.0
81.781075 156.0
81.832077 180.0
81.911865 240.0
81.970177 104.0
81.984596 172.0
82.038673 180.0
82.056702 56.0
82.094566 64.0
82.132446 100.0
82.330994 108.0
82.414085 152.0
82.446617 164.0
82.48629 160.0
82.605736 180.0
82.632874 216.0
82.667343 168.0
82.721558 132.0
82.743553 188.0
82.870064 64.0
82.886375 124.0
82.953438 120.0
83.00058 120.0
83.094902 148.0
83.256462 48.0
83.311485 136.0
83.369102 160.0
83.470901 212.0
83.569427 172.0
83.610985 108.0
83.694725 192.0
83.860512 168.0
83.944382 136.0
84.053833 204.0
84.070259 108.0
84.377884 140.0
84.395424 176.0
84.410049 264.0
84.530792 172.0
84.560074 208.0
84.635132 120.0
84.723053 76.0
84.76886 168.0
84.847679 152.0
84.967293 92.0
84.986359 144.0
85.014107 208.0
85.060791 192.0
85.106812 120.0
85.141281 184.0
85.211082 180.0
85.253349 204.0
85.347099 128.0
85.442749 80.0
85.680252 160.0
85.718948 128.0
85.811111 84.0
86.098984 124.0
86.12854 300.0
86.495659 204.0
86.540962 128.0
86.620598 196.0
86.64962 192.0
86.689156 128.0
86.772568 244.0
86.805946 224.0
86.959938 248.0
87.036049 144.0
87.060104 168.0
87.361313 220.0
87.506485 80.0
87.540001 128.0
87.599609 132.0
87.638733 196.0
87.658363 160.0
87.782265 112.0
87.948318 180.0
88.071556 176.0
88.16124 132.0
88.269669 188.0
88.303284 144.0
88.447411 124.0
88.466133 100.0
88.507324 180.0
88.539162 136.0
88.606598 92.0
88.633804 100.0
88.777176 140.0
88.83345 172.0
89.034294 180.0
89.169571 184.0
89.361382 160.0
89.505066 144.0
89.594849 148.0
89.758835 84.0
89.869461 192.0
89.896545 172.0
89.990929 144.0
90.051361 200.0
90.102371 148.0
90.14016 156.0
90.179848 124.0
90.219429 196.0
90.244125 232.0
90.261139 136.0
90.321663 140.0
90.381508 248.0
90.4617 276.0
90.546913 192.0
90.659569 208.0
90.721245 160.0
90.734512 68.0
90.764107 244.0
90.783813 56.0
90.814163 76.0
90.885895 256.0
90.92421 208.0
90.986313 212.0
91.055214 148.0
91.0989 164.0
91.140701 68.0
91.190117 140.0
91.256653 156.0
91.279472 128.0
91.296585 216.0
91.349846 152.0
91.530663 180.0
91.557549 168.0
91.669724 140.0
91.806984 208.0
91.906181 164.0
92.018593 188.0
92.052979 396.0
92.120018 40.0
92.158234 128.0
92.282478 116.0
92.31498 200.0
92.362534 144.0
92.385757 240.0
92.479523 88.0
92.50058 160.0
92.619301 152.0
92.653786 196.0
92.730438 96.0
92.753441 128.0
92.799454 92.0
92.868492 188.0
92.98362 140.0
93.023926 76.0
93.043121 176.0
93.0867 196.0
93.227531 68.0
93.365952 192.0
93.411339 228.0
93.533348 168.0
93.577629 64.0
93.606514 76.0
93.63015 180.0
93.656586 164.0
93.75293 168.0
93.767326 152.0
93.784729 136.0
93.822319 148.0
93.847382 128.0
93.887207 172.0
93.932243 144.0
94.011353 224.0
94.063904 4220.0
94.115601 176.0
94.202507 96.0
94.264343 152.0
94.326187 128.0
94.527344 188.0
94.542824 28.0
94.587158 168.0
94.61557 212.0
94.742271 164.0
94.782959 84.0
94.835281 208.0
94.885689 192.0
95.06842 264.0
95.101837 160.0
95.127312 140.0
95.151497 84.0
95.186447 52.0
95.221405 160.0
95.266083 96.0
95.29911 160.0
95.411514 184.0
95.424065 56.0
95.474068 56.0
95.540199 124.0
95.666214 176.0
95.738747 116.0
95.830444 172.0
95.875122 144.0
95.896568 80.0
95.923851 204.0
95.94725 76.0
95.982346 172.0
96.025253 204.0
96.080032 39212.0
96.115295 124.0
96.1483 120.0
96.174438 96.0
96.191109 44.0
96.208488 124.0
96.273117 60.0
96.295944 168.0
96.32708 60.0
96.399071 40.0
96.42942 44.0
96.490021 168.0
96.540863 156.0
96.673889 36.0
96.702576 164.0
96.726738 48.0
96.746315 60.0
96.760017 68.0
96.848145 216.0
96.877533 220.0
96.910835 152.0
96.971588 80.0
97.009346 2180.0
97.050011 128.0
97.085876 4600.0
97.183388 184.0
97.24865 140.0
97.452393 92.0
97.529037 240.0
97.548698 136.0
97.576218 188.0
97.597847 64.0
97.737076 144.0
97.756088 96.0
97.786713 80.0
97.81427 168.0
97.835922 84.0
97.877274 224.0
97.942268 136.0
97.983673 212.0
98.012955 240.0
98.050041 120.0
98.065025 120.0
98.094223 920.0
98.214287 164.0
98.235992 192.0
98.30793 156.0
98.376633 196.0
98.423492 116.0
98.500519 236.0
98.547935 140.0
98.6092 140.0
98.69223 164.0
98.80497 156.0
98.818817 80.0
98.842567 112.0
98.896004 140.0
98.923714 64.0
98.951431 156.0
98.965294 152.0
98.987488 228.0
99.008858 256.0
99.094276 232.0
99.135651 56.0
99.218903 196.0
99.264511 180.0
99.296242 116.0
99.312111 144.0
99.393448 184.0
99.510559 156.0
99.540352 164.0
99.709213 136.0
99.743004 264.0
99.774811 280.0
99.922325 120.0
99.953766 124.0
100.061317 192.0
100.105125 184.0
100.170853 208.0
100.332275 180.0
100.360191 96.0
100.465897 128.0
100.501816 140.0
100.519775 60.0
100.557693 200.0
100.629791 172.0
100.753387 112.0
100.819328 32.0
100.90329 136.0
101.00528 188.0
101.037292 180.0
101.179535 164.0
101.211426 124.0
101.237457 92.0
101.299553 184.0
101.385712 156.0
101.60228 192.0
101.70462 240.0
101.82032 148.0
101.839157 112.0
101.953682 176.0
102.030006 140.0
102.076309 140.0
102.21109 140.0
102.335892 60.0
102.370125 132.0
102.46077 184.0
102.571609 216.0
102.599831 204.0
102.714783 44.0
102.874207 144.0
102.922661 232.0
103.053246 576.0
103.134796 212.0
103.171188 132.0
103.232231 168.0
103.306686 52.0
103.505035 148.0
103.573898 168.0
103.596184 76.0
103.628601 132.0
103.715744 116.0
103.748177 116.0
103.770485 156.0
103.784676 220.0
103.806984 164.0
103.831322 212.0
103.884056 140.0
103.971313 116.0
103.985519 156.0
104.035278 140.0
104.072815 188.0
104.282059 144.0
104.351181 176.0
104.393883 220.0
104.576996 116.0
104.613632 148.0
104.64621 172.0
104.695694 200.0
104.743965 120.0
104.815277 32.0
104.864189 188.0
104.947769 144.0
105.039551 212.0
105.067841 504.0
105.141571 36.0
105.184433 152.0
105.226578 180.0
105.243645 140.0
105.304909 280.0
105.449982 144.0
105.47451 40.0
105.594124 104.0
105.88842 196.0
106.012489 104.0
106.018677 88.0
106.068146 168.0
106.084549 52.0
106.124275 212.0
106.140633 124.0
106.203484 88.0
106.291702 152.0
106.312225 164.0
106.351463 168.0
106.382011 132.0
106.439507 156.0
106.53318 224.0
106.558891 132.0
106.577133 172.0
106.869118 32.0
106.930855 140.0
106.971634 148.0
107.004967 212.0
107.072922 136.0
107.512062 256.0
107.573982 176.0
107.86113 164.0
107.920853 156.0
107.939697 236.0
107.991402 108.0
108.041046 236.0
108.079163 640.0
108.122765 196.0
108.140373 120.0
108.192818 128.0
108.221115 96.0
108.436119 184.0
108.498161 140.0
108.664474 164.0
108.726929 136.0
108.782974 164.0
108.807892 120.0
108.868103 164.0
108.91172 128.0
109.008545 540.0
109.059258 148.0
109.25473 124.0
109.467041 128.0
109.533691 196.0
109.579529 152.0
109.644127 160.0
109.681641 300.0
109.831779 68.0
109.961151 136.0
110.057182 184.0
110.104782 196.0
110.134453 192.0
110.318344 168.0
110.450089 144.0
110.471008 212.0
110.638435 128.0
110.837418 240.0
110.852089 144.0
110.868851 96.0
110.988426 888.0
111.024284 1028.0
111.057549 68.0
111.09951 176.0
111.271606 148.0
111.317802 144.0
111.456444 108.0
111.515289 176.0
111.565742 88.0
111.583572 196.0
111.745308 172.0
111.835007 180.0
111.877106 184.0
111.988716 152.0
112.026192 596.0
112.072487 420.0
112.277473 132.0
112.361847 136.0
112.391388 156.0
112.435783 108.0
112.581383 88.0
112.602501 120.0
112.655312 160.0
112.670097 164.0
112.68911 88.0
112.936462 104.0
113.010025 160.0
113.035721 144.0
113.078224 156.0
113.135376 136.0
113.31752 176.0
113.400169 192.0
113.434082 152.0
113.451042 156.0
113.495567 48.0
113.529503 228.0
113.561317 144.0
113.612045 144.0
113.818108 100.0
113.881821 148.0
113.949806 100.0
113.975304 128.0
113.990173 80.0
114.296394 136.0
114.349594 116.0
114.381523 220.0
114.477341 152.0
114.509285 92.0
114.6222 140.0
114.769279 96.0
114.822594 116.0
114.878052 88.0
114.922859 352.0
114.963402 232.0
115.052681 4580.0
115.095757 144.0
115.13633 96.0
115.155556 116.0
115.176918 52.0
115.471886 32.0
115.525368 216.0
115.557457 160.0
115.60025 232.0
115.631073 200.0
115.715843 152.0
115.797218 228.0
115.841209 172.0
115.867912 84.0
115.953629 148.0
115.970772 208.0
116.060326 196.0
116.091209 116.0
116.275017 184.0
116.395569 128.0
116.692093 180.0
116.842651 188.0
116.965317 108.0
117.067932 1252.0
117.11821 184.0
117.152672 128.0
117.188309 148.0
117.238861 140.0
117.277657 52.0
117.35096 116.0
117.387306 140.0
117.416908 48.0
117.499779 52.0
117.664024 180.0
117.901428 64.0
117.951141 40.0
118.011391 184.0
118.074211 384.0
118.115486 160.0
118.321075 84.0
118.425026 120.0
118.474846 36.0
118.500847 188.0
118.533348 144.0
118.559357 212.0
118.628716 152.0
118.66774 148.0
118.862961 84.0
118.921562 176.0
119.045311 320.0
119.077888 144.0
119.180183 140.0
119.369118 100.0
119.399559 132.0
119.438713 200.0
119.453941 200.0
119.484558 160.0
119.575798 116.0
119.601913 40.0
119.628036 80.0
119.667229 168.0
119.745621 148.0
119.839302 184.0
119.92865 120.0
120.002769 152.0
120.039841 116.0
120.079102 120.0
120.113998 132.0
120.306038 216.0
120.485123 152.0
120.535378 180.0
120.570343 148.0
120.64904 256.0
120.778061 140.0
120.813065 124.0
120.834946 240.0
120.970634 44.0
121.007996 328.0
121.080116 172.0
121.185265 208.0
121.628281 172.0
121.676575 196.0
121.819412 216.0
121.955566 116.0
122.036911 188.0
122.098488 180.0
122.333931 204.0
122.523331 124.0
122.587227 152.0
122.67099 176.0
122.721695 220.0
122.931259 228.0
122.948914 208.0
123.024071 1780.0
123.052666 208.0
123.072533 200.0
123.185646 188.0
123.207268 132.0
123.273552 104.0
123.344284 172.0
123.395134 224.0
123.432724 32.0
123.480583 172.0
123.578712 180.0
123.826653 128.0
123.91748 148.0
123.950714 152.0
123.972878 124.0
124.008339 192.0
124.029106 292.0
124.057106 140.0
124.079277 104.0
124.130272 176.0
124.167976 140.0
124.3255 176.0
124.345474 56.0
124.369759 136.0
124.55864 136.0
124.965485 180.0
125.003868 792.0
125.172501 240.0
125.20813 164.0
125.259361 140.0
125.299461 148.0
125.395287 124.0
125.547012 152.0
125.591499 184.0
125.776711 236.0
125.868248 136.0
126.049187 176.0
126.08271 332.0
126.117226 156.0
126.243675 172.0
126.2817 72.0
126.299591 184.0
126.333145 40.0
126.548004 152.0
126.651024 172.0
126.709084 192.0
126.803391 108.0
126.837013 196.0
126.904274 52.0
127.051262 680.0
127.422752 240.0
127.481178 80.0
127.499153 184.0
127.586823 164.0
127.679016 156.0
127.755493 176.0
127.77124 184.0
127.888405 128.0
127.949043 128.0
128.060318 2692.0
128.095428 112.0
128.133728 80.0
128.517242 128.0
128.593765 28.0
128.676224 152.0
128.769882 60.0
128.835388 96.0
128.860245 156.0
128.961929 224.0
128.986801 40.0
129.068527 7400.0
129.102112 52.0
129.285309 200.0
129.312515 96.0
129.378174 96.0
129.43251 60.0
129.783737 156.0
129.804504 128.0
129.885788 48.0
129.964966 192.0
129.969055 172.0
130.072388 1592.0
130.14679 216.0
130.260345 92.0
130.299484 176.0
130.33078 164.0
130.367142 144.0
130.392212 124.0
130.733292 220.0
130.84938 164.0
130.942749 124.0
131.02475 220.0
131.04776 404.0
131.085281 144.0
131.118179 224.0
131.136414 200.0
131.186569 176.0
131.268646 176.0
131.492218 124.0
131.531021 204.0
131.583542 252.0
131.620071 136.0
131.679443 140.0
131.789108 140.0
131.866043 176.0
131.953674 124.0
131.985687 124.0
132.038284 40.0
132.081741 148.0
132.216736 116.0
132.232758 96.0
132.264801 32.0
132.420502 144.0
132.587769 144.0
132.713852 124.0
132.86293 176.0
132.897339 192.0
132.978943 152.0
133.005219 116.0
133.062607 132.0
133.103943 180.0
133.136093 104.0
133.177429 128.0
133.221069 248.0
133.473907 124.0
133.496902 164.0
133.556702 112.0
133.586609 136.0
133.664825 156.0
133.73848 56.0
133.901962 84.0
134.016983 152.0
134.09549 116.0
134.247665 188.0
134.307632 104.0
134.35376 152.0
134.402222 80.0
134.579956 260.0
134.61467 124.0
134.760117 228.0
134.790161 48.0
134.813263 40.0
134.928848 40.0
135.024445 1484.0
135.067596 148.0
135.141632 56.0
135.16478 48.0
135.204117 140.0
135.35228 44.0
135.396271 36.0
135.602478 124.0
135.648849 80.0
135.732315 164.0
135.764771 204.0
135.820435 176.0
135.852921 192.0
135.894684 176.0
135.938766 224.0
136.019669 164.0
136.034943 184.0
136.326599 196.0
136.384705 164.0
136.484161 148.0
136.600967 164.0
136.621902 280.0
136.643066 160.0
136.675415 112.0
136.845337 136.0
137.005402 720.0
137.031189 160.0
137.106232 60.0
137.463043 104.0
137.591431 232.0
137.817993 148.0
137.903412 124.0
137.967575 120.0
138.004471 460.0
138.035385 144.0
138.079819 156.0
138.336578 208.0
138.435562 272.0
138.517532 136.0
138.693283 252.0
138.784714 92.0
138.880875 160.0
139.019867 772.0
139.051651 112.0
139.094406 136.0
139.197708 124.0
139.272873 120.0
139.289307 168.0
139.385635 144.0
139.418533 116.0
139.620728 160.0
139.664291 192.0
139.771286 184.0
139.856018 332.0
140.060867 176.0
140.19046 160.0
140.209015 160.0
140.430939 56.0
140.530029 284.0
140.63858 148.0
140.669266 128.0
140.697601 148.0
140.936157 128.0
140.957428 152.0
140.983932 148.0
141.00705 192.0
141.068619 6628.0
141.158356 168.0
141.229309 156.0
141.349976 148.0
141.380737 64.0
141.4478 180.0
141.534607 132.0
141.662506 124.0
141.71463 112.0
141.764389 132.0
141.863953 116.0
141.906616 80.0
141.981567 152.0
142.073456 948.0
142.159821 276.0
142.298111 192.0
142.393097 216.0
142.490494 188.0
142.599808 104.0
142.699661 108.0
142.730576 208.0
142.867737 144.0
142.887558 196.0
143.049393 336.0
143.082855 580.0
143.173203 132.0
143.301849 80.0
143.390015 76.0
143.585526 128.0
143.774002 132.0
143.883804 60.0
144.079803 188.0
144.258881 140.0
144.289963 148.0
144.560257 204.0
144.804459 232.0
144.902679 120.0
144.932526 228.0
144.967377 156.0
145.027298 156.0
145.06395 440.0
145.175949 176.0
145.259216 120.0
145.298035 232.0
145.372665 152.0
145.435074 116.0
145.514297 116.0
145.602951 100.0
145.694427 216.0
145.759293 36.0
145.790543 148.0
145.826584 148.0
145.958817 176.0
146.018936 108.0
146.064636 184.0
146.112762 192.0
146.247513 144.0
146.42569 160.0
146.529282 116.0
146.575058 164.0
146.654587 60.0
146.710037 104.0
146.782364 112.0
146.922272 136.0
146.968109 72.0
147.024719 768.0
147.139938 128.0
147.202255 56.0
147.290558 164.0
147.504272 108.0
147.546448 184.0
147.579224 128.0
147.644272 200.0
147.688049 272.0
147.913086 128.0
147.976044 128.0
148.03186 512.0
148.138306 220.0
148.223099 84.0
148.315201 156.0
148.339447 148.0
148.397629 44.0
148.477661 132.0
148.521317 192.0
148.698441 96.0
148.89267 148.0
148.955826 180.0
149.007812 208.0
149.067596 116.0
149.11377 164.0
149.150223 136.0
149.218292 176.0
149.247482 176.0
149.361786 44.0
149.383682 148.0
149.427475 96.0
149.451797 216.0
149.468842 132.0
149.490738 92.0
149.846252 180.0
149.912048 144.0
150.037857 176.0
150.046478 208.0
150.087555 204.0
150.121704 164.0
150.232269 204.0
150.285141 112.0
150.33638 100.0
150.372986 128.0
150.575638 204.0
150.648926 140.0
150.710159 188.0
150.7491 180.0
150.959335 140.0
151.019379 364.0
151.051559 176.0
151.093872 120.0
151.297012 176.0
151.497253 292.0
151.56398 216.0
151.693893 108.0
151.801773 180.0
151.866776 136.0
151.997894 160.0
152.025375 208.0
152.059067 1548.0
152.150192 148.0
152.233688 116.0
152.255783 40.0
152.341766 64.0
152.376266 92.0
152.440048 148.0
152.658829 168.0
152.865646 60.0
152.892548 136.0
152.936859 144.0
152.963928 144.0
153.013168 188.0
153.067795 1772.0
153.10675 168.0
153.254547 120.0
153.281662 160.0
153.686066 88.0
153.76503 136.0
153.888458 136.0
154.074677 1336.0
154.118179 128.0
154.155243 48.0
154.182419 88.0
154.310974 116.0
154.444519 52.0
154.773666 204.0
154.890076 172.0
154.986694 176.0
155.084229 5340.0
155.135406 184.0
155.18187 184.0
155.214752 164.0
155.334122 92.0
155.408234 140.0
155.475235 64.0
155.544739 156.0
155.68924 232.0
155.738419 104.0
155.803009 216.0
155.962051 88.0
156.014252 60.0
156.087891 1004.0
156.230621 100.0
156.291107 64.0
156.421616 204.0
156.447144 80.0
156.521835 108.0
156.641388 168.0
156.736053 132.0
156.833252 192.0
157.035233 184.0
157.062073 804.0
157.085663 172.0
157.122543 176.0
157.294739 152.0
157.58194 160.0
157.699387 76.0
157.884415 132.0
157.94278 288.0
157.960556 172.0
158.010941 96.0
158.064529 96.0
158.097061 300.0
158.132111 168.0
158.279816 76.0
158.312363 108.0
158.3349 136.0
158.442627 124.0
158.492737 120.0
158.730865 100.0
158.785019 196.0
158.838715 172.0
158.881363 172.0
158.979233 108.0
159.03009 224.0
159.094696 184.0
159.350861 192.0
159.458923 156.0
159.509201 188.0
159.639938 60.0
159.711685 156.0
159.828613 216.0
159.921722 48.0
159.949417 136.0
160.145828 120.0
160.249115 56.0
160.324707 196.0
160.412933 36.0
160.518829 152.0
160.564224 128.0
160.662598 144.0
160.73204 156.0
160.841766 164.0
161.041977 360.0
161.435532 180.0
161.572113 148.0
161.898651 128.0
161.967041 180.0
162.03038 36.0
162.114807 224.0
162.1875 224.0
162.357376 108.0
162.425858 196.0
162.517471 184.0
162.677078 136.0
162.740555 136.0
163.01828 232.0
163.041656 324.0
163.08606 176.0
163.136902 196.0
163.162323 136.0
163.368332 96.0
163.477737 180.0
163.627914 72.0
163.700699 172.0
163.857147 224.0
163.974365 180.0
164.02919 228.0
164.060852 324.0
164.379868 128.0
164.44368 152.0
164.487061 164.0
164.507492 188.0
164.617279 92.0
164.719452 116.0
164.839539 184.0
164.959274 108.0
164.968109 156.0
165.028687 92.0
165.068451 4644.0
165.220383 240.0
165.243546 112.0
165.427811 44.0
165.530228 172.0
165.653168 144.0
165.69928 140.0
166.022263 80.0
166.040222 92.0
166.074234 1392.0
166.132568 196.0
166.378937 188.0
166.792542 160.0
166.879959 184.0
166.910034 160.0
166.969955 52.0
167.029114 120.0
167.083221 1668.0
167.160339 156.0
167.340515 156.0
167.473206 168.0
167.541412 208.0
167.639328 136.0
167.719223 120.0
167.79657 144.0
167.920349 152.0
168.026108 192.0
168.058212 496.0
168.086823 204.0
168.255814 116.0
168.286804 192.0
168.521851 120.0
168.608597 252.0
168.80101 128.0
168.891541 172.0
168.951035 236.0
169.03125 204.0
169.06456 804.0
169.091141 524.0
169.110565 352.0
169.204666 72.0
169.292709 160.0
169.499954 124.0
169.544006 232.0
169.723633 208.0
169.830734 136.0
170.077347 484.0
170.171768 180.0
170.293823 180.0
170.363968 80.0
170.629059 56.0
170.667145 216.0
170.748672 120.0
171.024918 1292.0
171.076538 136.0
171.10257 236.0
171.136429 148.0
171.269241 176.0
171.579361 88.0
171.665405 84.0
171.866272 152.0
171.889755 132.0
171.923676 104.0
171.947174 128.0
172.024857 220.0
172.036148 144.0
172.069855 116.0
172.158646 80.0
172.276184 276.0
172.357178 176.0
172.532303 164.0
172.848785 136.0
173.038193 312.0
173.115799 188.0
173.288696 188.0
173.33847 136.0
173.78949 168.0
173.89447 72.0
174.038864 64.0
174.088745 204.0
174.475021 136.0
174.530228 112.0
174.882767 216.0
175.018005 296.0
175.127274 148.0
175.290985 156.0
175.441223 236.0
175.908173 112.0
176.032059 324.0
176.054825 288.0
176.243591 144.0
176.26738 172.0
176.317581 152.0
176.354584 176.0
176.396881 256.0
176.584625 80.0
176.788803 116.0
177.024002 224.0
177.069672 372.0
177.217331 112.0
177.25708 180.0
177.339233 220.0
177.426712 128.0
177.500961 148.0
177.538086 88.0
177.583176 164.0
177.654785 76.0
177.71051 160.0
177.731735 120.0
177.755615 168.0
177.835236 88.0
177.894897 292.0
177.940384 164.0
177.978592 64.0
177.997192 236.0
178.075577 9184.0
178.161118 112.0
178.183121 52.0
178.238922 132.0
178.346603 60.0
178.379776 60.0
178.416412 224.0
178.435608 84.0
178.53595 164.0
178.579208 60.0
178.610001 208.0
178.637741 160.0
178.656357 164.0
178.82933 128.0
178.90918 44.0
178.98407 228.0
179.018356 180.0
179.082657 4460.0
179.188828 108.0
179.364731 132.0
179.471359 32.0
179.554031 132.0
179.593369 156.0
179.764801 44.0
179.842194 224.0
179.903595 188.0
180.057877 160.0
180.088898 732.0
180.17601 208.0
180.266846 168.0
180.349701 156.0
180.42189 64.0
180.483383 56.0
180.510117 264.0
180.681305 156.0
180.705383 104.0
180.793686 88.0
181.007858 52.0
181.064789 272.0
181.100174 408.0
181.200714 216.0
181.299866 244.0
181.32666 148.0
181.35614 112.0
181.474106 196.0
181.517014 160.0
181.601486 164.0
181.694031 40.0
181.932892 140.0
182.06871 344.0
182.090973 368.0
182.147736 80.0
182.193405 236.0
182.244461 80.0
182.287445 152.0
182.53476 92.0
182.569717 168.0
182.68544 180.0
183.020081 136.0
183.078918 652.0
183.124161 172.0
183.151093 104.0
183.444824 184.0
183.512222 44.0
183.601212 80.0
183.833221 132.0
183.897995 124.0
183.927689 108.0
183.979263 188.0
184.032593 8628.0
184.070282 176.0
184.109833 372.0
184.15181 152.0
184.170715 48.0
184.213928 84.0
184.257156 124.0
184.28418 64.0
184.319305 44.0
184.342545 80.0
184.373352 128.0
184.405792 72.0
184.68428 108.0
184.708633 232.0
184.95488 132.0
184.990067 188.0
185.040054 11316.0
185.117477 532.0
185.168777 52.0
185.20903 56.0
185.250046 300.0
185.274429 52.0
185.315063 48.0
185.33403 60.0
185.358429 52.0
185.396362 224.0
185.540024 188.0
185.566956 60.0
185.765121 156.0
185.792252 88.0
185.830231 56.0
185.917068 180.0
186.044327 1520.0
186.121277 252.0
186.232025 172.0
186.291779 184.0
186.393112 176.0
186.433075 92.0
186.465683 112.0
186.517334 76.0
186.539078 56.0
186.563553 56.0
186.647308 204.0
186.688629 120.0
186.767502 68.0
186.892654 108.0
186.925308 116.0
186.952515 104.0
187.040329 260.0
187.080444 180.0
187.10495 300.0
187.145782 144.0
187.18663 180.0
187.301025 128.0
187.339157 56.0
187.453598 96.0
187.565353 148.0
187.688034 84.0
187.748032 248.0
187.813492 204.0
187.919891 68.0
188.016098 172.0
188.050873 128.0
188.160065 132.0
188.28569 128.0
188.560425 136.0
188.646545 188.0
188.679169 84.0
188.818954 136.0
188.867874 88.0
188.911636 140.0
188.960098 236.0
189.032028 256.0
189.068176 3216.0
189.186615 92.0
189.23732 148.0
189.316742 96.0
189.390686 156.0
189.409866 112.0
189.503006 144.0
189.637299 120.0
189.697601 64.0
189.885864 152.0
190.007492 144.0
190.075363 8124.0
190.194107 208.0
190.267654 188.0
190.282593 192.0
190.320404 88.0
190.402786 176.0
190.540131 68.0
190.611572 136.0
190.655548 204.0
190.705963 152.0
190.729752 148.0
190.86972 44.0
190.935059 120.0
191.044815 148.0
191.083023 6556.0
191.123383 348.0
191.14505 68.0
191.252396 104.0
191.290298 60.0
191.306839 64.0
191.40657 112.0
191.467148 220.0
191.540192 124.0
191.726135 36.0
191.770233 148.0
191.946671 168.0
192.01561 236.0
192.089691 1492.0
192.129898 84.0
192.186661 52.0
192.217728 136.0
192.282318 204.0
192.348022 248.0
192.412979 136.0
192.498581 108.0
192.53685 84.0
192.650497 200.0
192.672607 72.0
192.780365 104.0
192.823715 128.0
192.954514 124.0
193.065933 476.0
193.099152 1160.0
193.200653 184.0
193.239395 224.0
193.297501 48.0
193.582626 132.0
193.654633 140.0
193.739761 132.0
193.879059 204.0
193.909546 80.0
193.976074 104.0
194.028748 184.0
194.102127 172.0
194.132828 104.0
194.286667 56.0
194.308868 124.0
194.555878 236.0
194.600296 120.0
194.847488 168.0
195.025833 520.0
195.078644 344.0
195.099014 332.0
195.228317 152.0
195.248932 152.0
195.345139 84.0
195.55661 112.0
195.595581 160.0
195.642914 160.0
195.662399 168.0
195.748718 52.0
195.782135 44.0
195.874054 160.0
196.030975 100.0
196.057953 124.0
196.10968 376.0
196.155502 40.0
196.197311 188.0
196.391968 100.0
196.562714 28.0
196.883759 140.0
196.914474 236.0
196.967545 200.0
197.040649 14480.0
197.120239 160.0
197.302902 64.0
197.349335 132.0
197.437119 68.0
197.483261 40.0
197.593765 52.0
197.70639 80.0
197.742081 160.0
197.792465 68.0
197.884857 196.0
197.932495 228.0
197.951172 192.0
198.044861 3360.0
198.094894 172.0
198.126877 492.0
198.235153 72.0
198.302261 40.0
198.324677 76.0
198.405975 40.0
198.52655 68.0
198.633133 60.0
198.756577 92.0
198.784637 32.0
198.852005 48.0
198.919373 28.0
199.051559 1164.0
199.136215 176.0
199.160507 160.0
199.287277 40.0
199.315384 88.0
199.399689 124.0
199.514938 56.0
199.534622 124.0
199.582428 108.0
199.7146 80.0
199.784927 160.0
199.970657 164.0
200.04657 380.0
200.125824 168.0
200.342361 112.0
200.574844 96.0
200.641098 124.0
200.759521 176.0
200.866699 180.0
200.945694 144.0
201.009308 160.0
201.038483 140.0
201.042465 192.0
201.115021 104.0
201.154541 148.0
201.29007 232.0
201.34938 76.0
201.436935 80.0
201.496262 100.0
201.730835 228.0
201.829788 192.0
201.988174 96.0
202.045044 160.0
202.075546 3556.0
202.288132 104.0
202.378738 240.0
202.39856 144.0
202.475021 84.0
202.639313 44.0
202.82637 128.0
202.951111 176.0
202.9823 212.0
203.013489 180.0
203.083542 7532.0
203.155319 128.0
203.220566 52.0
203.280167 244.0
203.300034 188.0
203.402206 100.0
203.521454 188.0
203.647491 188.0
203.782761 180.0
203.825394 128.0
203.920959 108.0
203.973175 120.0
204.047546 200.0
204.090332 4528.0
204.14946 76.0
204.177902 48.0
204.357117 160.0
204.385574 132.0
204.422562 52.0
204.476639 40.0
204.505096 184.0
204.675919 84.0
204.818329 168.0
204.84111 108.0
204.902023 232.0
204.937973 208.0
204.971085 156.0
205.067093 360.0
205.099762 13676.0
205.174835 156.0
205.230209 176.0
205.286194 236.0
205.311417 68.0
205.394135 92.0
205.420319 224.0
205.450439 76.0
205.485062 32.0
205.534378 76.0
205.59671 80.0
205.665207 36.0
205.762268 44.0
205.793686 68.0
206.005035 92.0
206.030746 52.0
206.069901 456.0
206.105469 3420.0
206.179321 184.0
206.205048 212.0
206.347992 108.0
206.390869 104.0
206.413757 140.0
206.433762 56.0
206.705536 36.0
206.762772 76.0
206.89061 152.0
207.014893 184.0
207.049072 204.0
207.075928 152.0
207.110352 456.0
207.194519 144.0
207.255325 48.0
207.281128 88.0
207.309784 124.0
207.38269 76.0
207.496094 172.0
207.578293 132.0
207.656693 116.0
207.719788 176.0
207.766296 152.0
207.894821 124.0
208.033676 2844.0
208.088959 280.0
208.109863 284.0
208.270935 52.0
208.293915 72.0
208.342758 52.0
208.40596 68.0
208.587021 188.0
208.607147 88.0
208.674942 184.0
208.763351 192.0
208.805237 184.0
208.848694 72.0
208.875732 160.0
208.91774 132.0
209.039581 6944.0
209.100403 156.0
209.415741 48.0
209.457031 144.0
209.539612 60.0
209.637589 88.0
209.687042 148.0
209.77594 80.0
209.804764 64.0
209.982941 180.0
210.046936 3708.0
210.090286 164.0
210.110474 192.0
210.142212 32.0
210.220123 48.0
210.292282 72.0
210.338455 48.0
210.563675 128.0
210.621445 56.0
210.661896 132.0
210.693665 68.0
210.725449 116.0
210.933533 36.0
210.959549 208.0
210.997635 148.0
211.019241 124.0
211.05661 4840.0
211.104721 252.0
211.182205 72.0
211.208252 160.0
211.33844 60.0
211.375488 264.0
211.558395 68.0
211.624023 120.0
211.700272 148.0
211.845108 192.0
211.94072 132.0
211.972595 52.0
212.013168 172.0
212.05864 748.0
212.110138 368.0
212.204483 96.0
212.25087 144.0
212.40097 64.0
212.477112 180.0
212.555466 64.0
212.703476 108.0
212.786224 128.0
212.828323 128.0
212.868973 144.0
212.887482 128.0
212.922318 184.0
212.963654 256.0
213.035828 24608.0
213.120132 208.0
213.168961 64.0
213.20015 56.0
213.224548 204.0
213.301117 76.0
213.325241 116.0
213.361938 140.0
213.403641 52.0
213.423996 60.0
213.44809 112.0
213.49025 56.0
213.529587 112.0
213.637222 168.0
213.681168 96.0
213.720688 60.0
213.813812 144.0
213.872025 40.0
213.979736 136.0
214.0392 2644.0
214.143784 128.0
214.188934 96.0
214.355499 76.0
214.407455 156.0
214.485092 180.0
214.612015 36.0
214.642776 88.0
214.757828 56.0
214.810333 128.0
214.862854 180.0
214.929962 124.0
214.967896 332.0
215.032288 504.0
215.083908 6072.0
215.165802 80.0
215.200241 188.0
215.265656 140.0
215.356201 48.0
215.499344 116.0
215.549667 72.0
215.629593 116.0
215.741928 52.0
215.76532 32.0
215.989594 180.0
216.027786 220.0
216.046646 164.0
216.090103 3448.0
216.286041 172.0
216.373016 124.0
216.414856 92.0
216.447067 228.0
216.543716 204.0
216.675537 88.0
216.751724 184.0
216.819122 68.0
216.866882 68.0
216.974487 56.0
217.012497 116.0
217.097519 1368.0
217.291245 80.0
217.311783 52.0
217.352859 164.0
217.373398 144.0
217.446762 68.0
217.54364 64.0
217.640518 200.0
217.68457 80.0
218.069839 1048.0
218.102325 924.0
218.139984 336.0
218.184082 68.0
218.231125 108.0
218.251709 80.0
218.554688 88.0
218.601761 88.0
218.625305 68.0
218.698898 48.0
218.878479 116.0
218.946213 168.0
219.07962 676.0
219.109833 132.0
219.149475 60.0
219.211349 132.0
219.249664 112.0
219.394104 120.0
219.489746 164.0
219.783432 108.0
219.804092 200.0
219.93985 48.0
219.975281 88.0
220.043182 140.0
220.076859 212.0
220.105423 340.0
220.137665 44.0
220.196732 148.0
220.385803 96.0
220.482285 172.0
220.592682 112.0
220.642944 188.0
220.719818 136.0
220.781921 128.0
220.832199 220.0
220.934891 260.0
220.965332 168.0
221.040405 10164.0
221.09256 204.0
221.22496 192.0
221.282013 56.0
221.39119 60.0
221.461502 92.0
221.708588 104.0
221.844925 184.0
221.865677 120.0
221.893845 136.0
221.919052 84.0
221.958496 184.0
221.987259 172.0
222.047028 4140.0
222.094528 368.0
222.129547 164.0
222.159286 292.0
222.206757 96.0
222.245331 124.0
222.283905 100.0
222.402618 84.0
222.672821 84.0
222.940201 156.0
223.054596 6412.0
223.109741 140.0
223.192886 48.0
223.222626 68.0
223.264252 72.0
223.3172 40.0
223.374313 124.0
223.502243 108.0
223.6064 68.0
223.662231 124.0
223.808838 224.0
223.904129 64.0
224.030792 456.0
224.063065 3480.0
224.139481 184.0
224.210999 80.0
224.255707 92.0
224.279556 76.0
224.345139 108.0
224.375946 60.0
224.538956 64.0
224.598618 96.0
224.685135 88.0
224.816422 40.0
224.987854 120.0
225.034531 808.0
225.068909 1528.0
225.132874 56.0
225.482422 72.0
225.646835 40.0
225.669861 80.0
225.802338 84.0
226.04277 1232.0
226.116501 272.0
226.436859 160.0
226.505753 136.0
226.640564 128.0
226.661545 44.0
226.883347 100.0
227.056549 788.0
227.093704 376.0
227.183243 176.0
227.22226 108.0
227.246262 88.0
227.282257 64.0
227.396301 64.0
227.450333 236.0
227.546402 112.0
227.642487 136.0
227.66951 88.0
227.924866 176.0
227.948898 132.0
228.06311 208.0
228.090729 576.0
228.162308 160.0
228.357773 60.0
228.457047 52.0
228.676712 52.0
228.77002 56.0
229.03804 132.0
229.082916 160.0
229.478043 284.0
230.075424 160.0
230.099869 164.0
230.109268 152.0
230.118164 180.0
230.162994 84.0
230.211304 32.0
230.567795 76.0
230.809647 108.0
230.861053 132.0
230.939682 132.0
231.08049 156.0
231.112137 188.0
231.357285 172.0
231.523834 196.0
231.772232 216.0
231.954086 108.0
232.029419 236.0
232.052063 152.0
232.082977 264.0
232.100235 216.0
232.460602 100.0
232.59111 120.0
232.657898 104.0
232.779343 52.0
232.806686 108.0
232.86438 92.0
232.93425 132.0
232.998047 196.0
233.039078 740.0
233.093597 576.0
233.195572 68.0
233.262436 128.0
233.531967 88.0
233.634476 156.0
233.732346 128.0
233.890564 140.0
233.946228 160.0
233.968231 112.0
234.048203 13996.0
234.103928 468.0
234.128159 284.0
234.212021 76.0
234.271805 136.0
234.332703 216.0
234.36438 64.0
234.388565 52.0
234.431229 52.0
234.483032 100.0
234.595825 116.0
234.720825 108.0
234.836716 188.0
234.919083 60.0
234.973999 176.0
235.010605 116.0
235.055023 4572.0
235.108002 144.0
235.137527 136.0
235.31279 152.0
235.434937 112.0
235.499069 56.0
235.563217 92.0
235.61821 56.0
235.725159 144.0
235.798492 128.0
235.89325 64.0
236.061417 1524.0
236.108414 208.0
236.238831 80.0
236.266357 60.0
236.465256 80.0
236.486694 164.0
236.621384 104.0
236.645874 116.0
236.737747 44.0
236.777557 88.0
236.817368 124.0
236.91394 140.0
236.939911 60.0
236.98587 60.0
237.034729 3304.0
237.07077 3344.0
237.126831 32.0
237.246384 108.0
237.402771 76.0
237.522385 164.0
237.712601 128.0
237.758636 76.0
237.78627 64.0
237.820023 80.0
237.955109 232.0
238.04274 1236.0
238.072937 544.0
238.151642 40.0
238.406647 172.0
238.462357 64.0
238.505005 44.0
238.597229 40.0
238.960159 52.0
239.049133 1232.0
239.08847 2684.0
239.398499 80.0
239.483505 120.0
239.859436 84.0
239.90567 72.0
239.964249 144.0
240.004333 56.0
240.053986 416.0
240.088272 364.0
240.189377 60.0
240.485611 60.0
240.689362 84.0
240.800537 64.0
241.019882 84.0
241.041519 172.0
242.101868 204.0
242.167648 104.0
242.486786 40.0
242.675247 176.0
242.923996 52.0
243.084946 92.0
243.098816 232.0
243.125687 64.0
243.327454 44.0
243.588333 180.0
243.942169 124.0
244.112045 100.0
244.183228 32.0
244.284668 228.0
244.315781 116.0
245.037659 264.0
245.09729 144.0
245.121338 140.0
245.327942 156.0
245.508789 36.0
245.855087 92.0
245.970566 208.0
246.040588 416.0
246.09523 168.0
246.104568 156.0
246.116425 156.0
246.173508 144.0
247.054138 1636.0
247.102951 264.0
247.123795 196.0
247.218002 184.0
247.499405 120.0
247.530716 60.0
247.574554 200.0
247.990723 184.0
248.063644 1340.0
248.109756 120.0
248.146515 152.0
248.24678 80.0
248.342438 132.0
248.493027 92.0
248.913635 148.0
249.071228 5496.0
249.144119 160.0
249.234039 176.0
249.328323 208.0
249.359741 88.0
249.589249 188.0
249.684341 132.0
249.806259 44.0
249.935257 52.0
249.982452 224.0
250.043594 4508.0
250.120865 164.0
250.209091 176.0
250.256317 48.0
250.281509 68.0
250.372833 32.0
250.423233 132.0
250.473633 40.0
250.735153 92.0
250.800797 140.0
250.896057 88.0
251.047806 1260.0
251.123459 152.0
251.21431 96.0
251.280685 32.0
251.425842 108.0
251.463715 84.0
251.507904 96.0
251.634186 100.0
251.678391 52.0
251.763657 104.0
251.851746 112.0
251.883682 72.0
251.931061 72.0
252.003738 60.0
252.056549 472.0
252.240768 52.0
252.417816 88.0
252.468414 80.0
252.506363 60.0
252.60759 40.0
252.639221 72.0
252.778442 36.0
252.822754 148.0
252.939865 84.0
252.974686 76.0
253.066238 1728.0
253.155167 196.0
253.215332 88.0
253.329376 52.0
253.430756 48.0
253.462448 76.0
253.615738 76.0
253.807953 100.0
253.88089 112.0
254.036316 76.0
254.06485 332.0
254.325089 84.0
254.65213 112.0
255.054901 164.0
255.204575 104.0
255.742737 152.0
256.05954 140.0
257.838257 200.0
257.930939 100.0
258.11261 152.0
258.129913 160.0
258.685913 116.0
259.051422 264.0
259.076599 64.0
259.129852 212.0
259.470795 92.0
260.059418 416.0
260.128479 88.0
261.073273 408.0
261.101257 148.0
261.393036 136.0
261.616913 244.0
261.707062 120.0
261.771484 128.0
262.066284 360.0
262.100067 164.0
262.512665 108.0
263.07251 652.0
263.128998 136.0
263.280182 200.0
263.584412 108.0
263.626434 64.0
263.878571 60.0
263.994965 60.0
264.059296 1016.0
264.085754 320.0
264.405853 232.0
264.470581 76.0
265.067261 1324.0
265.141052 148.0
265.273926 156.0
266.068604 360.0
266.109039 160.0
266.315582 96.0
266.526733 80.0
266.556 68.0
266.949341 32.0
267.082794 1688.0
267.561066 108.0
268.085754 388.0
268.799683 92.0
269.073853 332.0
269.099976 180.0
269.282837 152.0
269.433105 28.0
269.929932 64.0
270.034607 176.0
270.253784 176.0
270.597473 216.0
272.401245 52.0
274.062714 152.0
274.117981 160.0
274.30661 32.0
274.619873 116.0
275.130249 36.0
276.07962 288.0
276.133301 192.0
277.089569 280.0
277.147491 312.0
277.231781 112.0
277.274872 76.0
277.437286 48.0
277.502838 192.0
278.09079 288.0
278.150513 180.0
278.293274 48.0
279.073212 244.0
279.101562 212.0
279.310242 172.0
279.886017 64.0
280.095001 268.0
280.13031 140.0
280.182465 48.0
280.222443 52.0
280.295746 52.0
280.893982 196.0
281.065216 196.0
281.116089 144.0
281.790619 104.0
282.0914 120.0
282.128937 412.0
282.469269 36.0
282.502716 204.0
282.837372 176.0
283.095184 80.0
283.132233 420.0
283.560852 64.0
283.956512 96.0
284.125549 172.0
284.973663 92.0
285.252625 120.0
286.120575 108.0
286.299042 64.0
286.427032 140.0
286.898834 84.0
287.411499 164.0
287.479004 104.0
288.373993 188.0
288.729004 120.0
288.998535 172.0
290.097839 156.0
290.215637 48.0
290.381805 204.0
290.544647 128.0
291.057159 152.0
291.087708 92.0
292.046143 92.0
292.111877 1500.0
292.223053 56.0
292.314911 48.0
292.42041 44.0
292.679138 84.0
292.726807 112.0
293.121002 208.0
293.285583 48.0
293.442383 60.0
293.824402 120.0
294.112 424.0
294.572052 96.0
295.105652 340.0
296.098938 164.0
296.313232 144.0
296.419647 108.0
296.628693 188.0
296.74527 116.0
297.122559 92.0
298.6203 120.0
299.587585 180.0
303.111847 48.0
304.266907 200.0
304.63501 32.0
305.7164 144.0
306.431824 140.0
306.858948 144.0
307.598541 72.0
308.105988 140.0
308.580261 252.0
308.846039 80.0
308.982483 104.0
309.108429 172.0
309.188934 64.0
309.325439 220.0
309.405945 100.0
309.507507 168.0
309.745667 60.0
309.805206 216.0
309.895966 208.0
309.907471 256.0
309.941864 56.0
309.983124 128.0
310.029449 136.0
310.064362 88.0
310.125153 28404.0
310.241577 100.0
310.261932 144.0
310.325775 68.0
310.34845 108.0
310.421509 140.0
310.528168 100.0
310.56665 152.0
310.641846 128.0
310.664917 176.0
310.72525 84.0
310.846771 196.0
310.930786 48.0
311.055969 176.0
311.126831 4824.0
311.205505 120.0
311.295898 48.0
311.327515 100.0
311.404785 200.0
311.471527 96.0
311.520691 52.0
311.548798 68.0
311.590973 68.0
311.682312 84.0
311.905151 204.0
311.948944 56.0
312.072479 88.0
312.12204 1216.0
312.290527 76.0
312.343292 84.0
312.452362 68.0
312.533264 40.0
312.719788 60.0
312.762024 104.0
312.881714 44.0
312.916931 56.0
313.01709 108.0
313.120026 316.0
313.219818 64.0
313.244476 132.0
313.300842 144.0
313.357208 136.0
313.434723 88.0
313.505188 120.0
313.660278 120.0
313.868286 60.0
313.935303 100.0
313.98114 144.0
314.108124 60.0
314.143402 76.0
314.344513 88.0
314.969452 88.0
318.842194 108.0
319.464478 44.0
320.696564 84.0
321.295654 100.0
321.891724 128.0
323.056946 40.0
323.400452 104.0
325.24646 84.0
325.713287 120.0
328.016327 68.0
328.063171 40.0
331.457092 76.0
332.653992 120.0
333.809387 84.0
335.896362 144.0
337.528961 36.0
340.783936 84.0
341.01178 52.0
342.161194 88.0
342.634613 44.0
343.929016 52.0
346.084381 84.0
346.99585 116.0
356.860596 68.0
369.116333 140.0
372.911804 52.0
373.396271 108.0
374.420044 76.0
375.827087 96.0
376.537415 44.0
382.181854 116.0
382.594421 76.0
383.06955 56.0
383.381256 80.0
383.689209 116.0
388.162354 80.0
393.411133 56.0
393.711243 56.0
394.232727 116.0
394.264343 128.0
398.150909 48.0
410.170837 192.0
415.825623 96.0
420.726715 116.0
428.309296 28.0
435.531647 84.0
441.642426 32.0
443.962769 76.0
444.319305 76.0
445.965485 140.0
448.204407 88.0
449.250061 136.0
449.950623 88.0
450.398285 48.0
451.526825 72.0
452.864288 52.0
459.730713 60.0
480.561432 88.0
485.359833 92.0
490.450958 60.0
491.553558 84.0
501.907166 120.0
503.562866 84.0
516.001892 88.0
527.147705 84.0
533.895996 28.0
535.774048 72.0
545.87854 100.0
545.938965 40.0
554.28125 52.0
555.317322 112.0
559.513733 92.0
559.669128 72.0
563.962219 108.0
565.698303 56.0
566.006042 40.0
566.148132 104.0
568.480591 80.0
576.299622 80.0
577.083496 52.0
578.044983 76.0
583.325684 208.0
588.306946 116.0
588.524231 88.0
615.361267 108.0
621.226013 84.0
628.884338 64.0
629.23877 44.0
647.457703 40.0
651.307434 92.0
652.832214 100.0
657.223328 40.0
663.668335 196.0
680.396118 56.0
682.89563 72.0
691.708923 96.0
699.657104 52.0
703.368408 184.0
706.26416 112.0
719.229675 180.0
722.248779 100.0
722.815857 44.0
728.053467 244.0
730.838074 92.0
739.407776 60.0
751.755615 156.0
751.799255 144.0
760.342468 84.0
761.956848 112.0
767.499573 216.0
788.657715 124.0
790.900757 152.0
796.311646 148.0
798.83551 176.0
799.606384 212.0
803.528503 96.0
807.347046 88.0
807.612915 224.0
808.042847 160.0
809.712769 40.0
810.73822 108.0
821.850037 220.0
829.800537 76.0
829.909485 156.0
830.35675 60.0
840.228027 160.0
841.948242 172.0
856.786438 184.0
857.048645 84.0
862.885498 204.0
863.856323 172.0
867.563354 48.0
876.249878 72.0
881.684692 208.0
881.909302 40.0
882.606934 164.0
889.408325 68.0
890.952332 196.0
894.085999 156.0
894.163391 180.0
894.853943 172.0
896.861572 100.0
899.301208 160.0
902.060913 172.0
905.74115 144.0
908.426697 144.0
909.710938 100.0
912.775208 264.0
916.284424 232.0
917.025635 128.0
917.737 264.0
918.352112 180.0
919.854614 92.0
926.543335 164.0
927.476562 108.0
927.543274 152.0
927.919128 204.0
936.499939 192.0
936.658325 52.0
938.413513 176.0
940.390076 176.0
940.774658 132.0
944.967285 156.0
945.775085 160.0
946.124023 80.0
946.834351 72.0
947.355042 184.0
948.917847 212.0
951.040466 156.0
952.587891 144.0
953.306824 148.0
956.07428 180.0
956.258911 152.0
956.886841 204.0
958.710144 156.0
960.979431 108.0
964.307983 172.0
968.187256 248.0
969.686646 168.0
969.785828 200.0
969.971741 192.0
973.688477 124.0
975.614807 200.0
976.771484 188.0
977.132324 132.0
977.536743 56.0
978.090698 48.0
979.367188 100.0
981.635864 240.0
982.059937 168.0
982.808594 160.0
983.276611 120.0
984.512817 192.0
986.899902 36.0
987.631653 148.0
989.621765 172.0
990.335693 196.0
992.993286 224.0
993.394714 64.0
995.403198 132.0
997.816101 104.0
999.092773 252.0
1001.13855 220.0
1002.039307 140.0
1002.083435 44.0
1002.448914 100.0
1002.883789 156.0
1003.785339 160.0
1006.789246 168.0
1007.073486 160.0
1010.044373 188.0
1013.691284 124.0
1014.420166 160.0
1017.947937 128.0
1018.583069 164.0
1018.894348 172.0
1021.85083 184.0
1022.671753 124.0
1024.486572 156.0
1024.830688 88.0
1027.56604 60.0
1029.110596 184.0
1029.781128 228.0
1030.247437 144.0
1031.46167 44.0
1031.877197 196.0
1032.196899 164.0
1033.738647 200.0
1033.975464 144.0
1037.947388 224.0
1038.133301 108.0
1039.92981 180.0
1048.271362 128.0
1049.625122 96.0
1050.560303 216.0
1051.521851 124.0
1051.786499 136.0
1052.141479 140.0
1052.748535 216.0
1053.930664 236.0
1054.473511 156.0
1056.911621 168.0
1057.675293 168.0
1059.689331 160.0
1062.788696 216.0
1063.9375 220.0
1066.19812 208.0
1068.051147 148.0
1070.511353 92.0
1072.19873 168.0
1074.037476 160.0
1074.657227 112.0
1075.198853 140.0
1076.595947 192.0
1078.497314 180.0
1078.588745 144.0
1081.552002 148.0
1081.951294 188.0
1083.228394 204.0
1083.5625 200.0
1083.870483 132.0
1086.322632 208.0
1087.470947 160.0
1090.012573 92.0
1090.827515 56.0
1091.767822 48.0
1093.313843 72.0
1094.051147 216.0
1096.185181 184.0
1096.791504 196.0
1098.189453 148.0
1099.885254 76.0
1100.129517 160.0
1100.578491 52.0
1100.750122 164.0
1101.304932 112.0
1106.105591 204.0
1106.714722 208.0
1107.675049 152.0
1109.74939 136.0
1111.016235 164.0
1111.334717 104.0
1112.648926 128.0
1112.907837 92.0
1113.014038 180.0
1113.239868 180.0
1114.335938 88.0
1114.807617 168.0
1114.86084 284.0
1115.984253 156.0
1117.420898 176.0
1118.32605 132.0
1118.55896 196.0
1119.184814 164.0
1119.677612 108.0
1120.576904 112.0
1121.349976 108.0
1122.449951 304.0
1122.970215 124.0
1125.3125 160.0
1127.196167 160.0
1130.720581 160.0
1132.079712 184.0
1132.206909 180.0
1132.515015 176.0
1132.702637 112.0
1133.714355 168.0
1136.389893 184.0
1136.725464 184.0
1138.894043 184.0
1139.082153 144.0
1139.22998 172.0
1139.680054 44.0
1139.982422 156.0
1141.360596 216.0
1143.870117 196.0
1145.72876 36.0
1146.133057 284.0
1146.827271 164.0
1147.359863 216.0
1147.595825 160.0
1147.932983 116.0
1148.108276 172.0
1148.209473 132.0
1148.321899 192.0
1150.915649 180.0
1151.536865 164.0
1151.739502 48.0
1154.00354 144.0
1156.222412 152.0
1157.000854 244.0
1157.610229 132.0
1160.646118 128.0
1161.019043 180.0
1161.37854 108.0
1161.833008 184.0
1161.934814 152.0
1162.009399 192.0
1162.918823 188.0
1163.923584 188.0
1164.568726 212.0
1165.479126 192.0
1165.642212 48.0
1167.165527 128.0
1168.27356 44.0
1171.153076 136.0
1174.090698 160.0
1174.868286 168.0
1175.107056 188.0
1175.223145 60.0
1175.366333 152.0
1175.523315 152.0
1177.168579 208.0
1177.366577 200.0
1178.91748 164.0
1182.104248 192.0
1183.247437 192.0
1183.384277 164.0
1184.849976 120.0
1186.344116 204.0
1186.830933 88.0
1188.881958 148.0
1191.97229 72.0
1192.817749 176.0
1195.307495 80.0
1196.870117 132.0
1197.503662 176.0
1199.350342 168.0
1199.508789 220.0
1199.584717 160.0
1200.384521 200.0
1202.026245 132.0
1202.129761 176.0
1202.599121 44.0
1203.082397 84.0
1203.344727 156.0
1203.579468 256.0
1205.942261 152.0
1208.02356 52.0
1209.767578 124.0
1210.314575 148.0
1211.104004 124.0
1211.699829 240.0
1213.571289 152.0
1214.479736 136.0
1214.542114 144.0
1215.777222 148.0
1217.422607 220.0
1217.860107 168.0
1220.111694 140.0
1221.078247 236.0
1221.593018 136.0
1221.697388 196.0
1222.233154 52.0
1223.618286 124.0
1224.036011 160.0
1224.279785 164.0
1224.551392 152.0
1224.983276 96.0
1225.749634 268.0
1225.979614 196.0
1226.125977 72.0
1226.300293 64.0
1227.108887 224.0
1227.58313 140.0
1228.308472 172.0
1228.573486 168.0
1229.208496 112.0
1229.536499 188.0
1234.779663 156.0
1237.729858 132.0
1238.577271 168.0
1239.424927 64.0
1240.02771 136.0
1240.553467 176.0
1241.43689 60.0
1241.535034 160.0
1241.984009 208.0
1242.17334 204.0
1243.113525 48.0
1244.166382 88.0
1244.629883 164.0
1244.728149 176.0
1245.261841 180.0
1247.081665 112.0
1247.300415 184.0
1247.510498 148.0
1248.354248 32.0
1249.324951 132.0
1249.451538 232.0
1249.571167 192.0
1249.718994 220.0
1250.626831 248.0
1251.182983 108.0
1251.253296 88.0
1251.843994 168.0
1252.041992 96.0
1253.804565 176.0
1255.178101 148.0
1255.304932 120.0
1256.525269 144.0
1257.957886 184.0
1258.487427 212.0
1258.536865 160.0
1259.567993 52.0
1260.182617 192.0
1261.05896 120.0
1261.440674 132.0
1261.603271 160.0
1265.140625 160.0
1265.218506 68.0
1265.692871 180.0
1268.087402 192.0
1268.255005 112.0
1268.456055 96.0
1269.186279 32.0
1269.569214 176.0
1269.810303 96.0
1270.569336 176.0
1272.081055 52.0
1274.041138 48.0
1274.858276 180.0
1276.799072 120.0
1277.083618 152.0
1278.536621 188.0
1280.101318 164.0
1281.825195 152.0
1282.174438 152.0
1282.979858 136.0
1283.364868 44.0
1284.27063 252.0
1285.711914 148.0
1285.81897 72.0
1288.353882 176.0
1288.518188 140.0
1288.789795 208.0
1290.22644 44.0
1290.79126 104.0
1291.127441 176.0
1292.851562 120.0
1293.073486 140.0
1293.717651 196.0
1296.303467 200.0
1296.432373 212.0
1296.668945 116.0
1297.106201 48.0
1297.24231 92.0
1298.776978 104.0
1298.954956 88.0
1299.464722 160.0
1299.745483 200.0
1299.968018 204.0
1300.235962 196.0
1300.786255 116.0
1301.152344 184.0
1301.518555 120.0
1301.906372 216.0
1303.314331 148.0
1304.478638 152.0
1305.442139 128.0
1305.794556 216.0
1306.218872 148.0
1306.621826 208.0
1307.139893 184.0
1307.41333 136.0
1309.594849 56.0
1309.717407 140.0
1310.509888 168.0
1311.014282 144.0
1311.324219 208.0
1311.879272 216.0
1314.208862 152.0
1315.941162 196.0
1317.544556 180.0
1318.628418 144.0
1319.87915 200.0
1320.732544 136.0
1321.846802 152.0
1323.113403 140.0
1323.859253 176.0
1323.960693 152.0
1324.598022 136.0
1324.938599 148.0
1325.692139 144.0
1325.873291 200.0
1325.953003 56.0
1326.938965 68.0
1327.736572 56.0
1328.540527 180.0
1328.991577 168.0
1329.485107 184.0
1330.769897 124.0
1331.11853 36.0
1331.546997 184.0
1332.069946 176.0
1332.244263 244.0
1332.447754 164.0
1332.600342 184.0
1333.952148 244.0
1334.759521 148.0
1334.911865 88.0
1335.891479 236.0
1336.377563 192.0
1336.817871 128.0
1337.057983 76.0
1337.567505 240.0
1339.184082 216.0
1339.46814 168.0
1340.772461 192.0
1340.852539 132.0
1341.282593 188.0
1341.829468 160.0
1342.040894 144.0
1345.00293 44.0
1345.113403 176.0
1345.71106 156.0
1346.368286 128.0
1347.105957 92.0
1347.683228 188.0
1348.81604 120.0
1349.846924 196.0
1352.319702 116.0
1353.644897 64.0
1354.106323 152.0
1354.809448 128.0
1355.564209 56.0
1355.747437 200.0
1356.414429 172.0
1357.109863 116.0
1357.726929 252.0
1357.939575 136.0
1358.372314 196.0
1359.377563 160.0
1359.516968 152.0
1360.618042 160.0
1361.036621 152.0
1362.233765 152.0
1362.498291 164.0
1362.814209 212.0
1364.592896 152.0
1364.872314 168.0
1365.703369 124.0
1365.968262 44.0
1366.703979 180.0
1366.755493 92.0
1367.241089 140.0
1368.514648 72.0
1369.346802 196.0
1369.685669 80.0
1369.818237 212.0
1370.510864 164.0
1371.188843 176.0
1372.021729 112.0
1372.434692 192.0
1372.921387 140.0
1374.314087 160.0
1375.179077 232.0
1375.533447 200.0
1375.695801 188.0
1375.833252 96.0
1376.042847 160.0
1376.308594 172.0
1376.618774 152.0
1377.224365 152.0
1377.556763 136.0
1378.236572 136.0
1378.319336 136.0
1379.071655 152.0
1380.461548 180.0
1381.208618 48.0
1381.297363 148.0
1381.852295 268.0
1381.978027 72.0
1382.471924 152.0
1383.265869 192.0
1383.584106 192.0
1383.976562 176.0
1384.383911 212.0
1385.428223 148.0
1385.754272 104.0
1385.872803 84.0
1386.443359 180.0
1386.532349 164.0
1387.576172 184.0
1387.644287 196.0
1388.378418 196.0
1389.471924 152.0
1389.943726 56.0
1391.717773 180.0
1392.052002 200.0
1392.326782 152.0
1392.69812 84.0
1393.091797 156.0
1393.559937 176.0
1393.857178 52.0
1394.273315 188.0
1394.778687 120.0
1394.919922 220.0
1395.960938 156.0
1396.154297 44.0
1396.726929 112.0
1397.753662 164.0
1398.216675 192.0
1398.989258 96.0
1400.567993 160.0
1400.858521 168.0
1401.178833 128.0
1402.207153 172.0
1403.310547 132.0
1403.362671 188.0
1403.765381 172.0
1404.518677 148.0
1405.04834 96.0
1405.279663 196.0
1405.361694 244.0
1405.973633 156.0
1408.004395 72.0
1408.265747 220.0
1408.407715 80.0
1409.71521 144.0
1409.767578 208.0
1410.447632 120.0
1413.357056 72.0
1414.621826 144.0
1416.411621 72.0
1416.486572 168.0
1417.265747 96.0
1417.647949 140.0
1418.27002 180.0
1419.304565 256.0
1420.692139 56.0
1421.239868 124.0
1421.810181 52.0
1423.221558 132.0
1424.964111 204.0
1425.926025 48.0
1426.399536 96.0
1426.59375 192.0
1427.219116 160.0
1427.407104 196.0
1429.588745 112.0
1430.288696 188.0
1430.82312 196.0
1430.966187 204.0
1431.207153 64.0
1431.538452 232.0
1431.952759 84.0
1432.254028 208.0
1432.304321 160.0
1433.546387 204.0
1433.599731 248.0
1433.693115 160.0
1434.213135 164.0
1434.326294 196.0
1434.431763 240.0
1434.744873 124.0
1435.585449 216.0
1436.392456 104.0
1436.445312 128.0
1438.603516 108.0
1439.079224 244.0
1439.319458 112.0
1439.494507 68.0
1439.849487 184.0
1440.03833 148.0
1440.408203 128.0
1442.358032 168.0
1442.786743 196.0
1443.613159 44.0
1444.195557 140.0
1444.339233 148.0
1444.535889 172.0
1446.605103 240.0
1447.571045 160.0
1449.449707 236.0
1449.721069 144.0
1450.237915 132.0
1450.503174 52.0
1451.206421 164.0
1451.701172 64.0
1452.43689 144.0
1453.195557 208.0
1453.263916 108.0
1453.681152 204.0
1454.508545 160.0
1454.7052 204.0
1454.842529 160.0
1455.943604 232.0
1456.042236 208.0
1456.103027 216.0
1456.452393 140.0
1456.938599 216.0
1457.379272 168.0
1458.633301 148.0
1458.823364 208.0
1459.028687 188.0
1459.778687 156.0
1459.972778 164.0
1460.572388 156.0
1460.678955 144.0
1460.762573 76.0
1465.582031 164.0
1466.006104 152.0
1466.123047 116.0
1467.335083 168.0
1467.777344 164.0
1468.539917 136.0
1468.791626 264.0
1469.981934 196.0
1470.058228 124.0
1470.279541 104.0
1471.073364 140.0
1471.218384 176.0
1471.562012 180.0
1471.630737 200.0
1471.936157 224.0
1473.005493 144.0
1473.105835 208.0
1473.601318 192.0
1475.810303 172.0
1476.376221 192.0
1477.470093 132.0
1478.189331 140.0
1478.281128 180.0
1478.885742 124.0
1479.100098 240.0
1479.161377 192.0
1479.360352 176.0
1479.44458 160.0
1479.674316 152.0
1479.781494 148.0
1481.175293 152.0
1481.49707 220.0
1481.673218 168.0
1483.236694 136.0
1485.214966 180.0
1485.989868 156.0
1486.342773 148.0
1487.647583 40.0
1488.115967 220.0
1489.175781 112.0
1489.290894 144.0
1490.074585 80.0
1490.427979 128.0
1490.681519 132.0
1490.942871 92.0
1491.588501 124.0
1492.703369 144.0
1494.195557 60.0
1494.441772 64.0
1494.895874 136.0
1495.026611 36.0
1495.265259 148.0
1495.603882 156.0
1496.450684 164.0
1496.720215 192.0
1496.843506 232.0
1497.421021 152.0
1497.783081 180.0
1498.353149 148.0
1499.13916 164.0
1499.230103 204.0
1499.647827 200.0
1499.709473 112.0
1500.541992 168.0
1501.614014 128.0
1501.783691 144.0
1502.099854 164.0
1502.609131 88.0
1502.717163 64.0
1503.04895 76.0
1503.218628 108.0
1503.303589 136.0
1504.152588 152.0
1504.584961 232.0
1505.15625 72.0
1505.264404 148.0
