>compound Imiquimod
>formula C14H16N4
>ionization [M+H]+
>parentmass 241.14477296409052
#inchi InChI=1S/C14H16N4/c1-9(2)7-18-8-16-12-13(18)10-5-3-4-6-11(10)17-14(12)15/h3-6,8-9H,7H2,1-2H3,(H2,15,17)
#inchikey DOUYETYNHWVLEO
#Ion_Source LC-ESI
#Instrument qTof
#Compound_Source Commercial
#PI Dorrestein
#Data_Collector Garg_Neha
#Scan -1
#Precursor_MZ 241.145
#ExactMass 240.137
#Charge 1
#CAS_Number 99011-02-6, 99011-78-6 (HCl), 896106-16-4 (Maleic acid)
#Pubmed_ID N/A
#Smiles N1=C2C(=C3C(=C1N)N=CN3CC(C)C)C=CC=C2
#INCHI_AUX N/A
#Library_Class 1
#SpectrumID CCMSLIB00000078049
#IonMode Positive
#UpdateWorkflowName UPDATE-SINGLE-ANNOTATED-GOLD
#LibraryQualityString Gold
#TaskID 77f51c88eb8b467eb4a01dd2d0cb90d2
##Scan# 1092
#SpectrumFile Plate1_41_60_GG3_01_16490.mzXML
#LibraryName FDALibrary_2_04302014.mgf
#MQScore -1
#Organism FDALibrary_2_04302014
#TIC_Query 0
#RT_Query -1
#MZErrorPPM -1
#SharedPeaks 0
#MassDiff 0
#LibMZ -1
#SpecMZ 241.145
#SpecCharge 0
#internalFilename spec-00000.mgf

>collision 10
44.913597 152.0
45.004021 196.0
45.071136 156.0
45.173965 224.0
45.310638 224.0
45.464844 168.0
45.683865 144.0
45.711658 152.0
45.755573 152.0
45.85622 196.0
46.015404 164.0
46.105907 172.0
46.116718 172.0
46.152191 236.0
46.176212 160.0
46.211384 176.0
46.406425 140.0
46.476959 184.0
46.527176 184.0
46.536682 140.0
46.599159 164.0
46.622498 208.0
46.641289 168.0
46.957546 164.0
47.055435 196.0
47.236256 308.0
47.322929 156.0
47.449471 172.0
47.526279 156.0
47.631992 192.0
47.642982 180.0
47.725449 152.0
47.806374 140.0
47.890594 144.0
47.930546 152.0
47.996712 192.0
48.118134 180.0
48.238327 188.0
48.369743 168.0
48.662262 144.0
48.685871 156.0
48.888844 176.0
48.911652 196.0
49.187115 160.0
49.215038 292.0
49.266712 184.0
49.353367 180.0
49.377144 224.0
49.420509 176.0
49.463894 180.0
49.509251 180.0
49.589958 148.0
49.831329 168.0
50.028229 188.0
50.104279 140.0
50.233978 180.0
50.261391 196.0
50.37656 192.0
50.448402 208.0
50.47691 164.0
50.576824 180.0
50.635414 260.0
50.716175 180.0
50.820541 204.0
50.921913 180.0
50.987267 316.0
51.088226 160.0
51.209221 184.0
51.320377 200.0
51.36887 172.0
51.405319 204.0
51.54734 240.0
51.562153 176.0
51.634548 180.0
51.647419 156.0
51.806316 188.0
51.849304 140.0
51.922421 208.0
51.942501 160.0
52.137775 204.0
52.192402 320.0
52.244179 176.0
52.25713 152.0
52.304619 156.0
52.36478 164.0
52.385433 168.0
52.424164 144.0
52.548828 132.0
52.562416 184.0
52.733017 140.0
52.790848 280.0
52.851601 160.0
52.897915 200.0
52.98864 168.0
53.047123 220.0
53.064522 188.0
53.184929 160.0
53.235592 224.0
53.28368 148.0
53.29821 224.0
53.386887 188.0
53.44569 264.0
53.474216 160.0
53.68689 148.0
53.76202 184.0
53.868908 152.0
54.173622 184.0
54.249828 144.0
54.283043 196.0
54.42762 112.0
54.568417 156.0
54.818649 184.0
54.870243 164.0
54.94841 184.0
54.960911 144.0
54.998585 180.0
55.039921 176.0
55.093094 160.0
55.240929 168.0
55.262421 116.0
55.345337 164.0
55.37859 212.0
55.737202 216.0
55.776253 200.0
55.800041 140.0
55.887794 184.0
56.047119 152.0
56.088852 152.0
56.133579 196.0
56.155224 140.0
56.188572 184.0
56.341049 160.0
56.467518 212.0
56.528236 148.0
56.546021 168.0
56.647732 204.0
56.727158 156.0
56.739151 196.0
56.850151 144.0
56.922207 164.0
57.019039 148.0
57.095028 140.0
57.135643 184.0
57.156517 188.0
57.179283 188.0
57.40353 160.0
57.436935 180.0
57.507854 196.0
57.657379 212.0
57.677029 140.0
57.741787 140.0
57.802559 152.0
57.826771 188.0
57.86916 184.0
58.014606 148.0
58.059082 136.0
58.12101 180.0
58.236153 144.0
58.306046 144.0
58.604309 148.0
58.63744 216.0
58.778137 244.0
58.811813 184.0
58.929302 140.0
59.010311 152.0
59.043953 172.0
59.204647 248.0
59.242943 144.0
59.324165 304.0
59.367096 140.0
59.377831 236.0
59.485199 144.0
59.523624 244.0
59.740341 200.0
59.797276 184.0
59.88895 156.0
59.979031 168.0
60.07618 176.0
60.164146 224.0
60.355736 156.0
60.473312 156.0
60.58654 132.0
60.608295 124.0
60.759995 156.0
60.8438 204.0
61.00071 196.0
61.092461 160.0
61.132915 172.0
61.343185 236.0
61.499172 152.0
61.551083 160.0
61.576908 168.0
61.692875 204.0
61.799225 228.0
61.855568 180.0
61.951092 216.0
62.23497 168.0
62.328018 204.0
62.392162 172.0
62.417244 232.0
62.442989 108.0
62.558849 204.0
62.598213 144.0
62.65649 200.0
62.828339 184.0
62.895378 124.0
62.949875 172.0
63.057304 204.0
63.142681 148.0
63.205963 140.0
63.266106 204.0
63.307274 144.0
63.375389 144.0
63.394405 168.0
63.438366 136.0
63.475254 228.0
63.567261 180.0
63.621338 168.0
63.646629 172.0
63.668861 156.0
63.68951 212.0
63.706982 140.0
63.724731 212.0
63.75465 348.0
63.863628 204.0
63.902538 172.0
64.048996 168.0
64.06015 200.0
64.079269 164.0
64.125481 140.0
64.256241 176.0
64.334526 164.0
64.356796 212.0
64.377556 160.0
64.407906 256.0
64.495789 156.0
64.599731 184.0
64.734177 208.0
64.817474 224.0
64.852737 164.0
64.923279 160.0
64.971405 212.0
65.062881 144.0
65.165672 156.0
65.255676 148.0
65.276581 168.0
65.36161 168.0
65.463257 168.0
65.590538 200.0
65.647469 168.0
65.667931 200.0
65.772812 152.0
66.00708 148.0
66.049133 180.0
66.061523 248.0
66.186989 176.0
66.295235 200.0
66.384392 140.0
66.627869 180.0
66.695396 196.0
66.73436 192.0
66.773392 184.0
66.831108 204.0
67.041168 212.0
67.125938 176.0
67.232574 132.0
67.276009 156.0
67.386765 192.0
67.483955 160.0
67.503166 140.0
67.534363 160.0
67.552124 176.0
67.599686 140.0
67.842094 240.0
67.853569 188.0
67.999107 200.0
68.053246 200.0
68.098083 160.0
68.119438 144.0
68.273941 140.0
68.323288 200.0
68.440147 144.0
68.479668 160.0
68.6082 244.0
68.664268 144.0
68.75531 216.0
68.857368 176.0
68.870583 220.0
68.915192 180.0
69.158295 152.0
69.202988 180.0
69.325569 144.0
69.431671 168.0
69.542831 160.0
69.632492 236.0
69.733841 168.0
69.82196 144.0
69.906807 320.0
69.978386 164.0
70.051666 144.0
70.184998 168.0
70.240036 164.0
70.306778 232.0
70.349289 144.0
70.455383 152.0
70.481148 372.0
70.624222 144.0
70.682777 152.0
70.717926 208.0
70.788239 180.0
70.90551 144.0
71.043007 180.0
71.214233 152.0
71.278069 316.0
71.359772 124.0
71.419296 232.0
71.436775 184.0
71.484909 148.0
71.523621 208.0
71.616722 192.0
71.828621 152.0
71.874168 172.0
71.885986 208.0
71.980515 148.0
72.002472 192.0
72.064972 196.0
72.090324 164.0
72.10891 156.0
72.207756 112.0
72.433182 224.0
72.527596 144.0
72.551376 216.0
72.628723 156.0
72.87149 148.0
72.883736 192.0
72.92247 180.0
72.966667 232.0
73.162323 156.0
73.388924 208.0
73.486145 260.0
73.498085 180.0
73.636772 168.0
73.744011 156.0
73.93782 364.0
74.062263 180.0
74.084534 144.0
74.291969 152.0
74.307411 160.0
74.472214 176.0
74.60453 148.0
74.685867 200.0
74.841965 148.0
74.866074 152.0
74.895348 200.0
74.969437 236.0
75.119446 180.0
75.321411 152.0
75.432007 280.0
75.502899 200.0
75.537491 156.0
75.563446 160.0
75.584206 156.0
75.669022 144.0
75.682869 248.0
75.74894 220.0
75.809326 152.0
75.861328 148.0
75.937622 160.0
76.024368 232.0
76.0504 144.0
76.17543 160.0
76.387505 180.0
76.552856 152.0
76.567902 144.0
76.676552 156.0
76.749771 144.0
76.765465 168.0
76.926369 156.0
76.975433 248.0
77.023773 240.0
77.177567 160.0
77.370033 240.0
77.426064 180.0
77.478615 176.0
77.553963 168.0
77.673203 152.0
77.727592 160.0
77.762688 228.0
77.829399 176.0
77.848099 192.0
77.985756 148.0
78.050804 208.0
78.103569 280.0
78.237305 180.0
78.277802 232.0
78.318314 164.0
78.400452 116.0
78.543938 204.0
78.822136 168.0
78.925514 192.0
79.003235 208.0
79.02816 140.0
79.04393 176.0
79.235161 152.0
79.274139 232.0
79.689369 164.0
79.817345 164.0
79.901123 200.0
80.020187 220.0
80.201897 192.0
80.408798 172.0
80.486755 180.0
80.594528 192.0
80.819824 196.0
80.887833 168.0
81.147606 220.0
81.240868 172.0
81.301872 144.0
81.582077 160.0
81.673103 312.0
81.819557 196.0
82.06279 204.0
82.111473 176.0
82.136726 168.0
82.189049 204.0
82.252213 176.0
82.447281 204.0
82.476204 196.0
82.491982 176.0
82.547493 176.0
82.572029 148.0
82.61364 200.0
82.742416 152.0
82.771103 180.0
82.896095 140.0
82.943558 192.0
83.062897 168.0
83.140915 204.0
83.186295 164.0
83.253479 156.0
83.320686 144.0
83.392693 332.0
83.458817 188.0
83.506104 196.0
83.54612 180.0
83.649849 168.0
83.751823 168.0
83.804657 188.0
83.837456 196.0
84.041695 184.0
84.184074 196.0
84.200516 204.0
84.237045 208.0
84.280891 236.0
84.381424 160.0
84.452744 204.0
84.536903 148.0
84.56208 180.0
84.584488 208.0
84.643074 184.0
84.75927 148.0
84.879463 152.0
84.910637 212.0
85.253952 192.0
85.323807 144.0
85.367935 196.0
85.388168 144.0
85.616379 184.0
85.644005 148.0
85.813553 164.0
85.881447 132.0
85.97773 156.0
86.134674 224.0
86.162262 124.0
86.326233 224.0
86.383049 192.0
86.433037 208.0
86.458237 188.0
86.52858 156.0
86.598953 156.0
86.673058 208.0
86.706413 144.0
86.813194 148.0
87.096519 176.0
87.157616 144.0
87.220551 220.0
87.363556 120.0
87.413979 216.0
87.432587 160.0
87.53582 136.0
87.553596 196.0
87.663696 164.0
87.711975 148.0
87.728752 236.0
87.863029 172.0
87.915276 168.0
88.081505 252.0
88.496628 224.0
88.652107 152.0
88.692139 160.0
88.796822 148.0
88.835861 232.0
88.892143 176.0
89.104324 176.0
89.222733 148.0
89.386368 228.0
89.401421 144.0
89.442406 160.0
89.484245 252.0
89.533211 152.0
89.572205 136.0
89.594215 124.0
89.642258 188.0
89.779793 228.0
89.849884 152.0
89.945999 172.0
90.079384 120.0
90.117989 160.0
90.184135 172.0
90.356216 212.0
90.47924 164.0
90.689514 236.0
90.733109 164.0
90.812759 152.0
90.848801 164.0
90.868935 176.0
90.915207 148.0
90.972015 164.0
91.327499 204.0
91.581039 236.0
91.658768 208.0
91.792198 244.0
92.021179 160.0
92.086105 180.0
92.164429 144.0
92.321182 156.0
92.358604 248.0
92.382393 144.0
92.455101 176.0
92.545074 188.0
92.581451 184.0
92.633171 160.0
92.665741 196.0
92.746025 188.0
92.881561 180.0
92.920738 144.0
93.051254 144.0
93.212746 160.0
93.297173 148.0
93.312553 160.0
93.449112 168.0
93.556892 208.0
93.681221 136.0
93.766296 180.0
93.793839 212.0
93.975121 140.0
94.087059 248.0
94.191345 140.0
94.233849 220.0
94.270844 220.0
94.359474 152.0
94.417488 164.0
94.477455 148.0
94.603241 172.0
94.641968 216.0
94.679382 124.0
94.711685 180.0
94.73687 180.0
94.785309 160.0
94.800812 168.0
94.920601 176.0
94.994705 148.0
95.136368 164.0
95.241234 160.0
95.482246 148.0
95.542549 140.0
95.659309 176.0
95.688515 204.0
95.857841 196.0
95.885262 188.0
96.134193 168.0
96.152458 140.0
96.193451 216.0
96.453255 208.0
96.551018 140.0
96.753769 240.0
96.872025 184.0
97.069984 140.0
97.169296 216.0
97.207848 300.0
97.313301 232.0
97.360847 224.0
97.488121 212.0
97.574852 96.0
97.645401 140.0
97.757179 172.0
97.846123 168.0
98.08252 156.0
98.096321 204.0
98.114059 176.0
98.133781 164.0
98.147583 196.0
98.267899 172.0
98.323151 176.0
98.50724 192.0
98.629303 148.0
98.749916 292.0
98.925102 232.0
99.082481 168.0
99.096344 196.0
99.117607 172.0
99.256905 148.0
99.278717 200.0
99.47316 172.0
99.588333 148.0
99.667801 156.0
99.798988 176.0
99.95414 160.0
100.046822 156.0
100.075562 260.0
100.13327 180.0
100.171158 144.0
100.276764 144.0
100.412346 152.0
100.476173 172.0
100.599907 172.0
100.67778 180.0
100.871597 196.0
100.966148 124.0
101.081604 172.0
101.201828 192.0
101.355934 172.0
101.492241 216.0
101.582497 332.0
101.704903 196.0
101.732002 160.0
101.92984 156.0
101.974052 232.0
102.04039 160.0
102.237518 148.0
102.277771 164.0
102.370483 176.0
102.463806 180.0
102.548286 160.0
102.567841 160.0
102.666634 144.0
102.7453 160.0
102.817947 196.0
102.967346 188.0
103.011787 144.0
103.048149 164.0
103.1325 168.0
103.221985 168.0
103.284683 168.0
103.46479 184.0
103.529587 160.0
103.554916 152.0
103.774773 216.0
104.028381 152.0
104.052582 152.0
104.119751 140.0
104.192879 164.0
104.349373 148.0
104.419052 152.0
104.53244 204.0
104.731964 176.0
104.841988 156.0
104.97654 212.0
105.056679 124.0
105.133621 220.0
105.170143 152.0
105.223434 140.0
105.311249 164.0
105.368446 192.0
105.460403 232.0
105.542221 208.0
105.617851 164.0
105.726288 164.0
105.761086 140.0
105.806122 192.0
105.825859 160.0
105.904419 212.0
105.955627 292.0
106.047844 160.0
106.250862 176.0
106.274254 208.0
106.337044 156.0
106.431984 180.0
106.456123 144.0
106.494606 184.0
106.75396 172.0
106.93309 184.0
107.031906 156.0
107.062798 168.0
107.081337 320.0
107.105331 172.0
107.336884 196.0
107.406837 148.0
107.489532 164.0
107.51429 160.0
107.576218 212.0
108.028793 140.0
108.306175 164.0
108.41806 152.0
108.461586 144.0
108.478172 164.0
108.535507 220.0
108.552811 192.0
108.598442 172.0
108.644073 160.0
108.736351 128.0
108.785194 204.0
108.832947 188.0
108.914978 144.0
109.007439 184.0
109.02198 160.0
109.055779 184.0
109.100967 184.0
109.194542 192.0
109.306412 228.0
109.388054 152.0
109.548401 144.0
109.602577 148.0
109.627579 188.0
109.76725 156.0
109.850677 144.0
110.036423 224.0
110.067741 200.0
110.160255 144.0
110.211868 192.0
110.301735 180.0
110.348412 132.0
110.408371 140.0
110.743248 156.0
110.7621 176.0
110.816406 204.0
110.852196 176.0
110.969574 188.0
111.04155 260.0
111.208725 140.0
111.235382 212.0
111.383011 152.0
111.43541 144.0
111.536407 140.0
111.574242 168.0
111.675186 168.0
111.689903 140.0
111.774063 224.0
111.80352 152.0
111.999336 168.0
112.024612 212.0
112.07518 180.0
112.351379 152.0
112.56456 248.0
112.62307 148.0
112.665947 204.0
112.685074 144.0
112.710312 184.0
112.809654 156.0
112.966141 180.0
112.987297 216.0
113.016914 168.0
113.103691 192.0
113.188377 200.0
113.256149 224.0
113.311798 148.0
113.362083 180.0
113.726746 200.0
113.750221 228.0
113.839394 244.0
113.941353 184.0
114.035103 1072.0
114.139023 156.0
114.217934 156.0
114.246101 116.0
114.394341 192.0
114.644882 108.0
114.67807 140.0
114.730934 144.0
114.814095 208.0
114.958298 168.0
114.985939 132.0
115.125679 196.0
115.179077 228.0
115.305145 152.0
115.320107 164.0
115.392784 212.0
115.424858 180.0
115.662338 264.0
115.732994 232.0
115.829369 224.0
115.857216 168.0
115.959274 108.0
116.048676 144.0
116.150902 380.0
116.341896 232.0
116.409843 260.0
116.438522 152.0
116.455704 300.0
116.62545 188.0
116.752304 196.0
116.827591 184.0
116.958504 148.0
116.999756 140.0
117.070816 160.0
117.141891 144.0
117.32753 144.0
117.477318 168.0
117.624931 252.0
117.76313 144.0
117.804169 172.0
117.862823 216.0
118.004692 200.0
118.070038 188.0
118.106804 192.0
118.273422 192.0
118.342697 188.0
118.363228 232.0
118.580574 144.0
118.693726 304.0
118.752281 144.0
118.81871 180.0
118.945396 236.0
119.010529 204.0
119.085365 208.0
119.194405 172.0
119.44519 144.0
119.477821 256.0
119.607613 212.0
119.659653 160.0
119.739418 180.0
119.758636 160.0
119.928589 148.0
120.041962 192.0
120.1241 200.0
120.273483 136.0
120.465393 168.0
120.510483 144.0
120.534294 112.0
120.594315 148.0
120.747368 216.0
120.909271 188.0
120.94429 168.0
121.08223 156.0
121.202835 152.0
121.250931 160.0
121.353958 164.0
121.380692 120.0
121.505295 176.0
121.562347 160.0
121.619041 120.0
121.839005 172.0
121.944489 232.0
122.05381 176.0
122.16658 144.0
122.217178 168.0
122.38887 184.0
122.59153 148.0
122.611366 176.0
122.653244 252.0
122.884804 152.0
122.99736 140.0
123.019432 156.0
123.067726 188.0
123.117165 228.0
123.154137 228.0
123.240295 148.0
123.284485 168.0
123.339745 148.0
123.375114 156.0
123.481255 160.0
123.596291 144.0
123.644974 180.0
123.791092 148.0
124.005989 200.0
124.165627 156.0
124.360878 152.0
124.55175 220.0
124.614037 252.0
125.016518 172.0
125.05658 220.0
125.10778 180.0
125.185707 156.0
125.230255 188.0
125.303764 232.0
125.430511 188.0
125.447075 236.0
125.522202 156.0
125.572014 240.0
125.59697 168.0
125.622574 152.0
125.852455 220.0
125.944016 172.0
125.961884 152.0
126.020897 204.0
126.062431 156.0
126.16301 180.0
126.299423 144.0
126.359825 204.0
126.43367 140.0
126.760628 212.0
126.899605 164.0
127.088013 160.0
127.20472 220.0
127.223457 392.0
127.348427 196.0
127.540092 200.0
127.587379 180.0
127.652512 120.0
127.757545 176.0
127.946594 148.0
128.12677 176.0
128.357635 196.0
128.41658 348.0
128.5755 180.0
128.679337 192.0
128.756805 168.0
128.91626 364.0
128.952682 172.0
128.977539 144.0
129.009186 232.0
129.102753 168.0
129.36087 228.0
129.527161 180.0
129.645233 140.0
129.781235 172.0
129.847 148.0
129.881027 152.0
129.915054 156.0
129.985382 216.0
130.103409 200.0
130.130661 236.0
130.348557 172.0
130.365097 216.0
130.420868 156.0
130.585388 196.0
130.730759 140.0
130.785233 184.0
130.844574 204.0
130.86734 156.0
130.902283 160.0
130.940445 204.0
131.060318 672.0
131.104248 180.0
131.156036 312.0
131.197006 184.0
131.29689 200.0
131.325409 196.0
131.350494 204.0
131.366959 184.0
131.448608 188.0
131.553589 184.0
131.574722 156.0
131.65863 256.0
131.69931 212.0
132.022003 148.0
132.045731 232.0
132.074753 184.0
132.102066 200.0
132.136368 160.0
132.378494 144.0
132.750259 220.0
133.418472 176.0
133.560852 124.0
133.580429 152.0
133.635742 140.0
133.722015 212.0
133.764343 208.0
133.871719 232.0
133.953766 180.0
134.037582 188.0
134.076752 184.0
134.187881 152.0
134.452682 264.0
134.627472 220.0
134.734909 180.0
134.859177 172.0
134.914658 272.0
135.166763 140.0
135.211853 232.0
135.286072 132.0
135.317215 228.0
135.339417 204.0
135.386688 140.0
135.574844 220.0
135.780685 164.0
135.878357 148.0
136.036667 172.0
136.149689 168.0
136.285904 164.0
136.328583 148.0
136.407608 148.0
136.428528 152.0
136.805405 188.0
136.834442 228.0
136.868271 188.0
136.949783 208.0
137.028976 156.0
137.217773 152.0
137.297058 160.0
137.376358 188.0
137.490494 140.0
137.523376 180.0
137.581726 152.0
137.600403 208.0
137.793289 164.0
137.887726 180.0
137.92746 176.0
138.175354 172.0
138.256302 188.0
138.371964 172.0
138.486084 168.0
138.681046 204.0
138.737442 164.0
138.803085 200.0
139.111084 192.0
139.469269 160.0
139.728531 148.0
139.760666 164.0
139.872086 156.0
139.947433 176.0
139.989197 148.0
140.037415 164.0
140.085602 168.0
140.251205 152.0
140.372726 144.0
140.447052 164.0
140.465912 160.0
140.94519 176.0
141.044601 6448.0
141.134293 244.0
141.235992 192.0
141.311691 152.0
141.596603 180.0
141.675797 172.0
141.861145 204.0
142.047974 708.0
142.191589 204.0
142.276306 140.0
142.445328 164.0
142.539948 160.0
142.868423 212.0
142.906143 160.0
142.925171 160.0
142.977524 144.0
143.041794 160.0
143.060135 236.0
143.148941 168.0
143.220383 428.0
143.422928 200.0
143.530212 168.0
143.676865 164.0
143.837982 152.0
144.064438 164.0
144.104218 144.0
144.148468 144.0
144.294281 148.0
144.349274 152.0
144.394714 180.0
144.476425 232.0
144.507141 176.0
144.589172 188.0
144.8974 192.0
145.053177 180.0
145.144287 176.0
145.18985 156.0
145.333984 184.0
145.462784 128.0
145.573822 160.0
145.718018 140.0
145.919846 156.0
145.958313 144.0
146.1315 316.0
146.220535 232.0
146.287933 144.0
146.364975 140.0
146.497986 144.0
146.538406 228.0
146.568268 164.0
146.637207 140.0
146.670944 140.0
146.76738 248.0
146.88797 204.0
147.007339 156.0
147.049973 148.0
147.208984 144.0
147.378067 300.0
147.414322 148.0
147.530334 172.0
147.631897 200.0
147.883514 172.0
147.92807 304.0
148.023926 152.0
148.055405 188.0
148.176529 168.0
148.195908 168.0
148.237106 220.0
148.278305 176.0
148.302536 228.0
148.38739 220.0
148.583847 208.0
148.603134 164.0
149.088913 208.0
149.108353 180.0
149.164261 156.0
149.336899 196.0
149.50235 148.0
149.589966 148.0
149.751419 224.0
149.907074 164.0
150.076126 140.0
150.113815 184.0
150.245529 164.0
150.274811 160.0
150.821838 152.0
150.911835 188.0
150.945984 176.0
151.227875 148.0
151.357346 204.0
151.399261 160.0
151.546249 204.0
151.700653 164.0
151.815063 168.0
152.080856 176.0
152.125107 188.0
152.240448 264.0
152.346069 220.0
152.365723 196.0
152.444351 172.0
152.468933 196.0
152.495956 152.0
152.515625 232.0
152.532837 152.0
152.633636 144.0
152.717255 184.0
152.748199 172.0
152.867325 164.0
152.939774 192.0
153.007629 148.0
153.09874 164.0
153.261322 172.0
153.362366 140.0
153.446182 176.0
153.603958 156.0
153.653931 156.0
153.796494 156.0
153.92981 168.0
153.994019 212.0
154.050827 160.0
154.097778 184.0
154.147736 180.0
154.228745 168.0
154.25708 160.0
154.394409 144.0
154.430435 132.0
154.523041 196.0
154.5849 148.0
154.619537 208.0
154.683899 212.0
154.706177 140.0
154.748795 240.0
154.78981 160.0
154.821732 180.0
154.875565 120.0
154.941452 264.0
154.961273 208.0
155.005875 224.0
155.023224 168.0
155.062881 196.0
155.082703 144.0
155.199371 192.0
155.269211 164.0
155.591248 188.0
155.685608 240.0
155.97879 176.0
156.026138 176.0
156.590897 168.0
156.640717 164.0
156.906204 196.0
157.044708 156.0
157.108002 200.0
157.196716 148.0
157.216675 180.0
157.309021 144.0
157.378937 172.0
157.566254 196.0
157.673706 220.0
157.711197 144.0
157.991272 156.0
158.070374 776.0
158.202835 268.0
158.36676 144.0
158.4319 168.0
158.504562 176.0
158.547165 156.0
158.578323 184.0
158.62236 160.0
158.654938 144.0
158.680008 156.0
158.707596 224.0
158.742706 296.0
158.832993 160.0
158.93837 144.0
159.018677 236.0
159.06012 316.0
159.121597 160.0
159.225204 108.0
159.256592 160.0
159.418289 168.0
159.440613 148.0
159.460724 256.0
159.514114 180.0
159.639221 232.0
159.675385 148.0
159.747375 168.0
159.958755 148.0
159.994003 156.0
160.054428 168.0
160.276047 192.0
160.310745 160.0
160.392029 164.0
160.424561 168.0
160.490356 144.0
160.528183 172.0
160.688629 196.0
160.856171 212.0
160.978867 196.0
161.068298 292.0
161.333633 180.0
161.356384 176.0
161.406616 208.0
161.517609 144.0
161.596664 184.0
161.624496 212.0
161.870041 224.0
161.965698 156.0
162.044815 156.0
162.09549 140.0
162.348999 176.0
162.716675 156.0
162.965836 176.0
163.04985 204.0
163.309036 188.0
163.356445 120.0
163.448959 168.0
163.644958 164.0
163.680603 200.0
163.728989 160.0
163.785034 160.0
163.813049 172.0
163.965927 212.0
163.996521 224.0
164.03476 172.0
164.085739 180.0
164.167343 144.0
164.190231 156.0
164.21431 220.0
164.364487 184.0
164.667557 172.0
164.828506 156.0
165.068802 192.0
165.112274 184.0
165.276001 172.0
165.319504 148.0
166.024017 224.0
166.267731 176.0
166.290833 148.0
166.5065 180.0
166.598221 164.0
166.691467 140.0
167.057098 156.0
167.12291 192.0
167.249573 172.0
167.272736 168.0
167.378296 156.0
167.437531 152.0
167.478745 152.0
167.532837 148.0
167.745621 212.0
167.795715 140.0
167.896149 164.0
168.014938 148.0
168.05632 17304.0
168.08786 228.0
168.220673 128.0
168.25563 292.0
168.466721 180.0
168.487396 180.0
168.753601 148.0
168.807907 176.0
168.848099 236.0
168.921707 152.0
169.058578 2584.0
169.266983 160.0
169.309967 188.0
169.348816 180.0
169.401398 160.0
169.584595 188.0
169.722 168.0
169.867233 228.0
169.888 168.0
169.997818 172.0
170.0672 424.0
170.147385 156.0
170.381256 156.0
170.459213 328.0
170.59697 176.0
170.862885 144.0
171.014557 344.0
171.057419 176.0
171.080719 160.0
171.166763 172.0
171.265732 164.0
171.372543 184.0
171.398605 192.0
171.684311 208.0
171.711441 180.0
171.734909 192.0
171.930588 224.0
172.021942 144.0
172.052414 156.0
172.186447 164.0
172.588898 204.0
172.716156 176.0
172.756287 180.0
172.82692 164.0
172.855713 144.0
172.980423 148.0
173.004898 208.0
173.033691 200.0
173.258942 220.0
173.308716 256.0
173.358505 220.0
173.384705 220.0
173.489563 160.0
173.573456 156.0
173.764938 380.0
173.785934 176.0
173.817413 152.0
174.132446 180.0
174.321609 316.0
174.516418 148.0
174.576614 148.0
174.787064 160.0
174.908127 172.0
174.945496 184.0
174.971298 144.0
175.066101 196.0
175.205704 228.0
175.408615 192.0
175.491318 136.0
175.569458 180.0
175.62207 152.0
175.656708 196.0
175.788788 204.0
175.920395 152.0
176.061218 192.0
176.152786 188.0
176.295456 156.0
176.329819 144.0
176.496368 156.0
176.538681 152.0
176.670929 164.0
176.866745 204.0
176.935577 188.0
177.036209 148.0
177.375351 152.0
177.513214 172.0
177.598083 144.0
177.765228 152.0
177.903244 188.0
178.00415 180.0
178.121002 160.0
178.190079 148.0
178.280426 152.0
178.360153 160.0
178.495758 220.0
178.515289 220.0
178.918808 164.0
178.969391 176.0
179.134766 136.0
179.494339 216.0
179.534332 172.0
179.59285 200.0
179.634109 216.0
179.873184 208.0
179.921249 148.0
180.177887 216.0
180.217712 204.0
180.345993 148.0
180.399445 204.0
180.460938 148.0
180.498749 176.0
180.608032 148.0
180.690964 224.0
181.062805 132.0
181.089828 156.0
181.127319 156.0
181.156799 148.0
181.273895 116.0
181.390167 188.0
181.725174 148.0
181.771347 208.0
181.800308 208.0
181.858231 168.0
181.907669 208.0
181.964661 264.0
182.072952 268.0
182.179916 168.0
182.224579 152.0
182.310562 164.0
182.431519 216.0
182.533691 152.0
182.595535 236.0
182.614563 160.0
182.716583 152.0
182.851135 140.0
182.89151 164.0
183.023422 212.0
183.047668 188.0
183.074585 240.0
183.106903 160.0
183.174255 144.0
183.204803 140.0
183.373306 160.0
183.388107 220.0
183.551575 204.0
183.59761 172.0
183.66713 104.0
183.699921 140.0
183.726898 164.0
183.826721 244.0
183.96727 168.0
184.076019 772.0
184.211975 204.0
184.266861 152.0
184.303452 108.0
184.431717 292.0
184.487396 140.0
184.524185 156.0
184.550125 180.0
184.624771 208.0
184.650726 208.0
184.690063 176.0
184.772446 180.0
184.80098 168.0
184.862091 216.0
184.915924 180.0
185.002304 280.0
185.083145 173204.0
185.153687 172.0
185.187714 280.0
185.30513 180.0
185.373566 112.0
185.396835 276.0
185.430145 132.0
185.453186 264.0
185.48114 272.0
185.528732 868.0
185.575027 148.0
185.608124 132.0
185.653183 268.0
185.708954 252.0
185.746445 352.0
185.795319 168.0
185.820969 236.0
185.915558 112.0
185.947693 140.0
186.001846 136.0
186.037506 212.0
186.067932 15796.0
186.082275 14152.0
186.174194 256.0
186.19487 236.0
186.257126 180.0
186.277069 152.0
186.320999 400.0
186.360596 144.0
186.450958 164.0
186.495651 164.0
186.529785 140.0
186.571014 120.0
186.601624 132.0
186.637253 136.0
186.676758 228.0
186.696838 132.0
186.727844 100.0
186.921432 156.0
186.970428 164.0
186.989471 244.0
187.024292 200.0
187.031464 108.0
187.072021 912.0
187.085678 920.0
187.144501 204.0
187.24733 136.0
187.285522 104.0
187.297485 136.0
187.325211 188.0
187.396606 120.0
187.440109 232.0
187.470016 108.0
187.510956 136.0
187.543961 152.0
187.618576 108.0
187.666199 116.0
187.774139 240.0
187.862442 108.0
187.997864 212.0
188.065582 128.0
188.131607 140.0
188.321915 232.0
188.41243 160.0
188.46698 136.0
188.594177 320.0
188.721756 268.0
188.740891 176.0
188.7612 140.0
189.05275 144.0
189.091782 152.0
189.114182 172.0
189.20932 160.0
189.515533 176.0
189.797852 168.0
189.973389 160.0
190.258804 204.0
190.322144 172.0
190.791779 220.0
191.025543 192.0
191.132843 144.0
191.275955 192.0
191.419128 156.0
191.598694 208.0
191.705627 244.0
191.86824 152.0
192.008881 188.0
192.168884 140.0
192.356552 156.0
192.978149 144.0
193.050049 212.0
193.101501 152.0
193.187775 192.0
193.39035 156.0
193.609085 144.0
193.860397 184.0
193.96373 152.0
194.055222 188.0
194.08017 192.0
194.227158 168.0
194.576828 164.0
195.094559 136.0
195.129715 152.0
195.46907 172.0
195.556488 116.0
195.755798 180.0
195.830994 148.0
195.973068 192.0
196.394028 304.0
196.491669 180.0
196.790314 148.0
196.821014 176.0
196.854538 140.0
196.91597 140.0
197.047501 96.0
197.081589 1772.0
197.164627 192.0
197.259659 184.0
197.335144 144.0
197.435822 160.0
197.709991 160.0
197.784531 184.0
197.871109 208.0
197.990402 200.0
198.040359 156.0
198.089325 4820.0
198.317764 208.0
198.409225 140.0
198.48317 144.0
198.56131 232.0
198.774902 168.0
198.863007 152.0
198.941437 228.0
199.056335 140.0
199.094803 1784.0
199.170761 168.0
199.198853 224.0
199.221329 164.0
199.240997 148.0
199.425339 140.0
199.84549 184.0
199.883865 112.0
200.084564 232.0
200.261536 228.0
200.356171 156.0
200.510071 152.0
200.625641 152.0
200.893555 160.0
201.178589 172.0
201.531631 164.0
201.650177 224.0
201.69838 148.0
201.848221 172.0
201.939941 232.0
202.148071 156.0
202.201843 168.0
202.496292 164.0
202.575607 152.0
202.632278 196.0
203.071671 164.0
203.219177 168.0
203.256073 288.0
203.361069 168.0
203.471786 164.0
203.496475 224.0
203.62674 240.0
203.718872 172.0
203.772842 148.0
204.455307 240.0
204.634644 156.0
204.969437 168.0
205.081909 180.0
205.187378 156.0
205.213043 140.0
205.347076 156.0
205.432648 152.0
205.578171 144.0
205.772263 228.0
205.911865 176.0
206.009308 144.0
206.037888 184.0
206.237823 372.0
206.380859 148.0
206.432327 216.0
206.536652 124.0
206.735565 184.0
206.881546 160.0
206.904449 208.0
206.99321 176.0
207.246765 332.0
207.454514 200.0
207.474579 164.0
207.554855 144.0
207.721207 140.0
207.979462 196.0
208.019653 152.0
208.13736 216.0
208.370026 224.0
208.596375 204.0
208.631561 184.0
208.83316 108.0
208.864105 212.0
208.998642 196.0
209.054382 172.0
209.100433 180.0
209.15799 168.0
209.278915 188.0
209.319229 164.0
209.736984 148.0
209.76004 252.0
209.78598 168.0
209.837875 192.0
209.883057 112.0
209.915726 180.0
210.036865 140.0
210.123413 148.0
210.650116 208.0
210.677719 152.0
210.756577 124.0
210.946487 204.0
211.098938 1244.0
211.224091 160.0
211.412155 176.0
211.470901 216.0
211.498993 236.0
211.69725 208.0
212.103958 552.0
212.190857 136.0
212.217453 172.0
212.301559 152.0
212.533615 188.0
212.725876 132.0
212.791946 164.0
212.835495 140.0
213.186996 144.0
213.282913 156.0
213.760757 148.0
213.870483 148.0
214.023178 336.0
214.096695 144.0
214.215836 232.0
214.727112 144.0
215.036377 168.0
215.144379 176.0
215.16481 188.0
215.220291 192.0
215.293304 156.0
215.57959 160.0
215.610794 196.0
215.631805 180.0
216.167389 184.0
216.218872 216.0
216.337158 180.0
216.370407 188.0
216.404495 168.0
216.548935 160.0
217.043259 224.0
217.436371 204.0
217.495071 184.0
217.660355 120.0
217.737656 120.0
217.91864 224.0
217.997299 244.0
218.088409 168.0
218.317734 148.0
218.663254 152.0
218.726715 176.0
219.012817 196.0
219.171432 164.0
219.271622 164.0
219.380692 216.0
219.405823 388.0
219.44014 168.0
219.51796 236.0
219.743439 188.0
219.767044 208.0
219.876236 196.0
220.076965 172.0
220.215775 196.0
220.369385 156.0
220.942963 200.0
221.013977 208.0
221.144196 248.0
221.185623 164.0
221.209015 236.0
221.428421 188.0
221.60321 220.0
221.65062 216.0
221.674316 140.0
221.778046 156.0
221.825317 140.0
221.917389 180.0
222.193222 200.0
222.341583 148.0
222.412827 236.0
222.466263 280.0
222.834518 140.0
222.95636 244.0
223.006882 144.0
223.04097 180.0
223.399399 148.0
223.887558 144.0
223.911377 180.0
224.116714 324.0
224.31987 128.0
224.384293 120.0
224.53035 164.0
224.716248 216.0
224.793823 160.0
224.856506 212.0
224.943054 260.0
225.118256 444.0
225.23349 196.0
225.285416 112.0
225.411972 200.0
225.78566 140.0
226.022003 204.0
226.11084 124.0
226.243484 208.0
226.429138 184.0
226.489929 136.0
226.527985 160.0
226.650818 180.0
226.884964 204.0
227.097412 112.0
227.223145 164.0
227.3311 140.0
227.476959 248.0
227.854004 156.0
227.887054 168.0
228.124481 164.0
228.162292 216.0
228.416183 204.0
228.517822 168.0
228.659897 232.0
228.888321 160.0
228.991089 156.0
229.03627 148.0
229.338913 200.0
229.533554 204.0
229.599899 148.0
230.004211 216.0
230.080505 324.0
230.442108 248.0
230.469299 160.0
230.701248 124.0
230.819946 260.0
230.862289 160.0
231.088867 124.0
231.222305 148.0
231.346405 164.0
231.628036 192.0
231.697708 144.0
231.767395 200.0
231.88559 224.0
232.231247 188.0
232.45575 176.0
232.592331 192.0
232.850418 176.0
232.871674 144.0
233.008377 152.0
233.081299 184.0
233.440002 160.0
233.698563 172.0
233.768555 228.0
233.942047 172.0
234.060791 204.0
234.377579 148.0
234.446747 172.0
234.639709 140.0
234.699646 188.0
234.725082 200.0
234.844025 192.0
234.914185 168.0
235.04538 208.0
235.103363 188.0
235.16745 180.0
235.204071 152.0
235.231552 168.0
235.396423 144.0
235.549133 172.0
235.610229 184.0
236.080963 144.0
236.194214 140.0
236.419174 180.0
236.604202 180.0
236.677689 180.0
236.895142 184.0
237.008499 148.0
237.121887 148.0
237.216904 220.0
237.290482 152.0
237.538895 164.0
237.56958 184.0
237.646957 180.0
237.67099 220.0
237.73526 144.0
237.761047 120.0
237.817139 152.0
237.859924 176.0
238.057602 184.0
238.263412 116.0
238.445786 148.0
238.825958 184.0
238.888275 368.0
238.995178 152.0
239.021912 180.0
239.124374 276.0
239.213684 200.0
239.360306 368.0
239.401505 168.0
239.423065 272.0
239.444626 148.0
239.521545 300.0
239.646622 244.0
239.668488 356.0
239.721893 156.0
239.750076 140.0
239.810425 188.0
239.845184 152.0
239.987793 124.0
240.03923 212.0
240.08075 128.0
240.106018 228.0
240.154877 340.0
240.210205 332.0
240.276428 100.0
240.301712 112.0
240.332458 304.0
240.368713 112.0
240.394012 192.0
240.417084 264.0
240.5047 192.0
240.528839 144.0
240.558105 324.0
240.620316 164.0
240.675766 232.0
240.731384 496.0
240.776352 292.0
240.796844 376.0
240.821899 332.0
240.855011 148.0
240.922531 332.0
240.947495 388.0
240.987976 664.0
241.033676 228.0
241.060013 396.0
241.084854 488.0
241.109909 776.0
241.146774 212764.0
241.362595 380.0
241.438583 312.0
241.471878 292.0
241.502777 232.0
241.531754 240.0
241.568176 188.0
241.61882 284.0
241.654602 9828.0
241.71199 520.0
241.77298 120.0
241.805603 132.0
241.84436 276.0
241.875244 176.0
241.931946 132.0
241.969025 108.0
242.022308 152.0
242.065857 252.0
242.101639 160.0
242.148224 60596.0
242.212814 344.0
242.36911 248.0
242.452621 204.0
242.474411 204.0
242.520599 152.0
242.661865 144.0
242.704666 96.0
242.797104 180.0
242.828583 128.0
242.963089 168.0
242.988312 260.0
243.020615 132.0
243.10199 224.0
243.150192 4756.0
243.254349 248.0
243.326019 128.0
243.485718 168.0
243.546158 124.0
243.592194 104.0
243.666428 148.0
243.702042 184.0
243.736877 156.0
243.781509 132.0
243.835968 368.0
243.869675 144.0
243.908142 272.0
243.961121 232.0
244.016937 372.0
244.153061 280.0
244.230484 128.0
244.671097 104.0
244.925507 120.0
250.32402 100.0
250.545471 120.0
252.147751 100.0
254.227737 308.0
254.321503 128.0
260.559814 144.0
261.874268 124.0
274.178925 172.0
321.37674 108.0
402.289001 172.0
440.722046 176.0
606.233826 152.0
766.293274 144.0
846.123169 148.0
1171.679688 252.0
1205.888428 164.0
1250.395386 144.0
1253.571655 196.0
1303.34314 148.0
1352.919312 164.0
1354.874634 160.0
1383.183228 148.0
1392.06543 212.0
1395.357178 140.0
1416.275024 152.0
1462.259033 172.0
1503.539429 140.0
1503.871338 224.0
1507.725342 140.0
1507.99585 220.0
1511.406372 160.0
1513.751831 168.0
1514.836182 152.0
1523.082153 220.0
1523.454956 144.0
1534.927612 184.0
1536.643555 172.0
1542.406982 148.0
1543.572021 156.0
1543.642334 200.0
1561.059448 148.0
1564.51355 148.0
1568.04248 200.0
1573.888184 140.0
1582.799805 212.0
1588.466675 152.0
1596.671753 160.0
1597.180786 148.0
1602.825439 148.0
1603.327515 244.0
1610.061035 204.0
1615.696411 220.0
1627.374023 168.0
1628.964233 168.0
1632.171021 196.0
1646.362061 152.0
1650.212646 196.0
1651.526733 160.0
1653.921753 152.0
1654.949951 184.0
1661.482544 204.0
1667.280273 172.0
1672.624146 244.0
1674.627197 164.0
1675.343994 160.0
1676.590698 220.0
1680.863892 144.0
1690.432983 152.0
1691.611694 156.0
1694.052002 160.0
1694.838501 152.0
1695.994141 168.0
1696.461304 292.0
1698.585327 172.0
1699.832397 156.0
1700.30835 224.0
1700.899292 152.0
1707.341064 192.0
1710.121948 196.0
1715.253662 208.0
1733.909058 204.0
1736.99353 208.0
1743.503052 256.0
1744.301025 148.0
1751.498901 160.0
1752.223755 200.0
1753.148682 196.0
1755.799805 264.0
1759.112305 156.0
1765.261841 148.0
1769.035278 148.0
1771.87439 148.0
1773.399536 140.0
1777.441772 216.0
1781.572754 204.0
1785.78418 216.0
1786.221558 140.0
1787.660278 172.0
1789.975342 164.0
1790.564819 148.0
1790.750122 180.0
1792.20752 152.0
1796.397705 244.0
1798.017212 120.0
1799.680786 184.0
1800.043945 164.0
1811.445068 156.0
1812.156738 184.0
1814.216309 244.0
1816.904663 164.0
1823.230713 176.0
1829.165649 188.0
1830.206299 200.0
1837.306152 244.0
1842.710571 256.0
1844.351318 148.0
1845.642334 152.0
1849.269653 212.0
1849.457886 260.0
1850.784912 160.0
1852.189453 180.0
1854.657227 160.0
1854.845825 208.0
1855.274536 196.0
1855.526611 116.0
1857.041016 172.0
1859.417603 164.0
1861.606812 176.0
1864.381714 184.0
1864.776978 180.0
1865.963379 144.0
1867.081177 144.0
1872.839233 144.0
1873.442261 188.0
1874.286621 160.0
1877.390015 160.0
1878.174805 156.0
1881.549072 172.0
1882.464355 152.0
1883.872192 180.0
1885.358398 192.0
1885.799194 148.0
1888.22876 176.0
1888.401733 196.0
1889.716675 148.0
1890.832886 220.0
1891.984253 164.0
1897.052246 164.0
1901.42395 172.0
1903.108032 160.0
1903.40332 160.0
1904.263062 240.0
1907.347656 164.0
1908.008301 196.0
1908.773438 156.0
1910.634888 180.0
1914.543213 204.0
1915.231201 144.0
1918.717041 220.0
1923.724609 156.0
1925.671875 144.0
1926.510498 200.0
1932.445801 100.0
1934.304565 136.0
1939.996338 260.0
1942.688599 200.0
1943.390503 144.0
1950.486572 208.0
1951.822998 196.0
1953.04541 184.0
1954.417847 152.0
1956.380615 200.0
1959.577637 268.0
1961.498779 148.0
1963.517944 152.0
1968.309937 184.0
1969.767212 168.0
1969.92627 144.0
1970.98645 148.0
1971.596191 220.0
1973.903564 172.0
1976.433472 216.0
1977.734375 212.0
1980.762817 168.0
1980.87793 164.0
1984.13916 156.0
1986.240967 164.0
1986.382935 148.0
1986.613525 168.0
1987.243408 140.0
1989.231445 144.0
1989.910156 132.0
1992.463989 184.0
1997.638062 196.0
1997.789307 160.0
1997.958374 140.0
1998.243042 232.0
1999.177368 208.0
1999.613525 228.0
