>compound 64-77-7
>formula C12H18N2O3S 
>ionization [M+H]+
>parentmass 271.111786
#inchi InChI=1S/C12H18N2O3S/c1-3-4-9-13-12(15)14-18(16,17)11-7-5-10(2)6-8-11/h5-8H,3-4,9H2,1-2H3,(H2,13,14,15)
#inchikey JLRGJRBPOGGCBT
#Ion_Source LC-ESI
#Instrument qTof
#Compound_Source Commercial
#PI Dorrestein
#Data_Collector Garg_Neha
#Scan -1
#Precursor_MZ 271.112
#ExactMass 270.104
#Charge 1
#CAS_Number N/A
#Pubmed_ID N/A
#Smiles N/A
#INCHI_AUX N/A
#Library_Class 1
#SpectrumID CCMSLIB00000077024
#IonMode Positive
#UpdateWorkflowName UPDATE-SINGLE-ANNOTATED-GOLD
#LibraryQualityString Gold
#TaskID 48f7f52fc6d249b5abbcc6e7b3df5969
##Scan# 1389
#SpectrumFile NCP003017_A2_B11_BA6_01_15701.mzXML
#LibraryName NIH_Clinical_Collection_2.mgf
#MQScore -1
#Organism NIHcollection2_04212014_2_mgf
#TIC_Query 0
#RT_Query -1
#MZErrorPPM -1
#SharedPeaks 0
#MassDiff 0
#LibMZ -1
#SpecMZ 271.112
#SpecCharge 0
#internalFilename spec-00000.mgf

>collision 10
50.523804 144.0
53.323097 232.0
53.805256 148.0
53.859287 172.0
55.491364 196.0
56.12775 160.0
58.814861 240.0
59.232307 196.0
64.823875 148.0
66.509277 180.0
67.838745 200.0
68.827553 232.0
72.648903 152.0
76.131752 160.0
78.101509 148.0
79.05777 188.0
86.598442 140.0
86.659576 160.0
90.931671 156.0
91.054359 1464.0
91.420097 168.0
92.059341 372.0
93.065941 152.0
95.746185 160.0
99.989098 144.0
100.77478 244.0
101.595627 176.0
104.19799 144.0
106.0755 152.0
108.307144 172.0
109.064499 324.0
113.12149 160.0
114.237701 228.0
115.293137 208.0
118.243874 228.0
120.062309 160.0
123.563736 160.0
137.498001 180.0
142.426086 160.0
148.159592 144.0
149.093781 156.0
153.633499 208.0
154.031555 568.0
154.958649 312.0
154.99086 164.0
155.016464 16288.0
155.247696 176.0
155.43718 140.0
155.516602 160.0
156.01973 1860.0
157.012329 740.0
158.569458 192.0
158.960678 368.0
161.930466 228.0
166.079971 192.0
171.718643 172.0
172.043167 20244.0
172.11351 104.0
173.045456 1648.0
174.038635 844.0
181.10144 356.0
182.105438 188.0
185.144974 168.0
188.518341 164.0
194.903259 144.0
195.133942 172.0
196.1194 164.0
208.141357 148.0
221.00589 140.0
239.097031 176.0
264.348145 172.0
269.707977 144.0
270.273743 208.0
271.111786 10080.0
271.187866 464.0
272.112946 1084.0
272.187012 248.0
273.107819 680.0
273.998657 104.0
1166.335815 168.0
1270.543945 168.0
1304.595215 172.0
1333.676147 176.0
1354.054443 140.0
1409.517822 148.0
1449.096313 168.0
1531.657227 180.0
1535.842896 152.0
1582.255127 208.0
1608.06604 160.0
1615.64917 156.0
1617.849976 168.0
1632.026611 160.0
1663.559692 184.0
1689.711792 152.0
1762.190918 168.0
1794.968384 144.0
1810.026245 164.0
1831.393677 148.0
1843.363159 148.0
1869.251709 152.0
1931.459229 160.0
1952.91394 176.0
1966.147217 148.0
1969.519897 140.0
1970.491699 164.0
1981.790161 156.0
