>compound Amitriptyline HCl
>formula C20H23N
>ionization [M+H]+
>parentmass 278.1903261880906
#inchi InChI=1S/C20H23N/c1-21(2)15-7-12-20-18-10-5-3-8-16(18)13-14-17-9-4-6-11-19(17)20/h3-6,8-12H,7,13-15H2,1-2H3
#inchikey KRMDCWKBEZIMAB
#origInchi InChI=1S/C20H23N.ClH/c1-21(2)15-7-12-20-18-10-5-3-8-16(18)13-14-17-9-4-6-11-19(17)20;/h3-6,8-12H,7,13-15H2,1-2H3;1H
#Ion_Source LC-ESI
#Instrument qTof
#Compound_Source Commercial
#PI Dorrestein
#Data_Collector Garg_Neha
#Scan -1
#Precursor_MZ 278.19
#ExactMass 277.183
#Charge 1
#CAS_Number 549-18-8 ,50-48-6(free base)
#Pubmed_ID N/A
#Smiles C(CC=C1C2C(CCC3C1=CC=CC=3)=CC=CC=2)N(C)C.Cl
#INCHI_AUX N/A
#Library_Class 1
#SpectrumID CCMSLIB00000078599
#IonMode Positive
#UpdateWorkflowName UPDATE-SINGLE-ANNOTATED-GOLD
#LibraryQualityString Gold
#TaskID 77f51c88eb8b467eb4a01dd2d0cb90d2
##Scan# 1186
#SpectrumFile Plate9_61_80_GC7_01_15756.mzXML
#LibraryName FDALibrary_2_04302014.mgf
#MQScore -1
#Organism FDALibrary_2_04302014
#TIC_Query 0
#RT_Query -1
#MZErrorPPM -1
#SharedPeaks 0
#MassDiff 0
#LibMZ -1
#SpecMZ 278.19
#SpecCharge 0
#internalFilename spec-00000.mgf

>collision 10
45.013992 148.0
45.233261 148.0
45.611237 108.0
45.775677 152.0
45.815956 168.0
45.923923 160.0
46.296947 208.0
46.447392 188.0
46.542393 180.0
46.856701 232.0
47.104465 120.0
47.382587 244.0
47.667984 160.0
47.80275 176.0
48.381077 240.0
48.47654 252.0
48.515041 160.0
48.53487 220.0
48.582024 148.0
48.633369 220.0
48.827885 144.0
48.943012 148.0
49.607025 204.0
49.702396 164.0
49.744503 200.0
49.786625 204.0
49.840004 176.0
49.913097 148.0
50.409294 156.0
50.57618 156.0
50.665394 228.0
51.142529 140.0
51.656223 152.0
51.713459 156.0
51.871021 164.0
51.892525 140.0
52.087414 180.0
52.201244 220.0
52.405643 168.0
52.615376 124.0
53.163361 144.0
53.310036 188.0
53.382721 164.0
53.577763 160.0
53.617947 180.0
53.822792 144.0
53.840317 144.0
53.879757 160.0
53.897289 140.0
54.05814 180.0
54.147442 188.0
54.176739 204.0
54.229492 156.0
54.338009 180.0
54.408455 144.0
54.899906 152.0
54.994331 156.0
55.099174 200.0
55.116905 180.0
55.17091 104.0
55.208557 184.0
55.467663 236.0
55.682503 116.0
55.913254 204.0
55.977268 164.0
56.054729 148.0
56.58049 192.0
56.593967 184.0
56.818787 216.0
57.007977 248.0
57.107204 180.0
57.527786 140.0
57.603119 140.0
58.00412 176.0
58.653191 152.0
58.668438 192.0
58.848465 180.0
58.964836 112.0
59.105255 236.0
59.132801 192.0
59.256836 140.0
59.393276 168.0
59.540619 208.0
59.631264 216.0
59.671234 164.0
59.761978 144.0
59.81892 156.0
60.125648 144.0
60.21674 148.0
60.24918 180.0
60.343452 184.0
60.447086 172.0
60.670124 192.0
60.901337 168.0
60.973034 164.0
61.39159 156.0
61.435265 176.0
61.691376 220.0
61.728901 144.0
61.741409 192.0
62.43774 204.0
62.793678 184.0
63.0937 160.0
63.356411 156.0
63.670597 164.0
63.741966 184.0
63.761036 144.0
64.00602 164.0
64.079292 144.0
64.147217 192.0
64.435074 208.0
64.719772 140.0
64.841522 164.0
64.947342 164.0
65.484863 176.0
65.639908 140.0
65.863998 276.0
66.016769 204.0
66.478462 204.0
66.692848 168.0
66.764381 172.0
67.284172 216.0
67.779762 196.0
67.865417 156.0
68.402214 148.0
68.6576 164.0
69.004364 176.0
69.096321 200.0
69.285004 204.0
69.423294 140.0
69.600853 172.0
69.728767 156.0
70.094887 148.0
70.209915 140.0
70.301666 156.0
70.345062 176.0
70.448601 208.0
70.56559 160.0
70.731209 180.0
70.764687 160.0
70.890312 164.0
71.068062 196.0
71.769463 208.0
71.890915 164.0
72.064835 160.0
72.167938 188.0
72.364204 208.0
72.384529 152.0
72.620094 184.0
72.82547 228.0
72.874733 180.0
72.893425 188.0
72.913818 188.0
73.317162 172.0
73.480858 140.0
73.508156 188.0
73.891357 208.0
73.940521 140.0
73.998726 168.0
74.094635 164.0
74.252289 144.0
74.300362 180.0
74.38102 188.0
74.403336 148.0
75.046806 164.0
75.088196 180.0
75.196152 152.0
75.464645 148.0
75.487122 144.0
75.552849 208.0
75.658417 140.0
75.737793 248.0
76.754761 188.0
76.86116 272.0
76.885597 212.0
77.035751 188.0
77.604546 168.0
77.679955 184.0
78.076912 144.0
78.089226 164.0
78.284576 192.0
78.481934 180.0
78.614227 208.0
78.745628 140.0
79.202972 188.0
79.229546 208.0
79.456207 160.0
79.986046 188.0
80.078636 168.0
80.308563 280.0
80.32283 180.0
80.356728 160.0
80.756874 144.0
82.020958 152.0
82.09108 188.0
82.414383 152.0
82.723648 304.0
82.975464 140.0
83.031677 228.0
83.055252 152.0
83.351181 144.0
83.605766 168.0
83.959198 156.0
84.077782 184.0
84.582237 216.0
85.214928 148.0
85.280083 180.0
85.562531 156.0
85.58094 144.0
86.298096 112.0
86.339157 136.0
86.392693 236.0
86.678139 164.0
86.730026 248.0
87.052849 180.0
87.324181 196.0
87.496941 124.0
87.576164 156.0
87.825211 164.0
88.222954 188.0
88.50547 180.0
88.593498 152.0
88.655327 256.0
88.775307 148.0
88.996727 208.0
89.259789 148.0
89.713547 164.0
89.907822 180.0
90.314659 180.0
90.778038 164.0
90.876274 152.0
91.054764 7132.0
91.095001 280.0
91.22802 172.0
91.303307 128.0
91.461998 216.0
92.057396 856.0
92.086105 136.0
92.163811 172.0
92.272758 144.0
92.293785 160.0
92.523384 192.0
92.651695 172.0
93.712234 172.0
93.795097 152.0
94.028732 156.0
94.469032 156.0
94.527237 148.0
94.631599 172.0
94.736183 160.0
94.846321 148.0
94.920311 144.0
95.036301 140.0
95.553513 228.0
95.899521 152.0
96.147827 216.0
96.184174 148.0
96.220055 192.0
96.446655 148.0
96.493576 212.0
96.524857 152.0
96.612869 164.0
96.922218 148.0
97.124146 160.0
97.322357 192.0
97.550255 160.0
98.195572 164.0
98.302635 176.0
98.84803 308.0
99.055916 180.0
99.26799 200.0
99.325508 208.0
100.040886 156.0
100.457375 140.0
100.601059 152.0
100.629005 156.0
100.802788 172.0
100.896729 172.0
101.016716 184.0
101.192825 232.0
101.206841 196.0
101.512398 180.0
101.667892 148.0
101.736137 152.0
102.043945 208.0
102.07328 180.0
102.333244 152.0
102.891716 176.0
103.053909 1584.0
103.287804 160.0
103.919868 268.0
104.057327 352.0
104.718781 144.0
105.012276 156.0
105.07 19688.0
105.114388 144.0
105.939171 140.0
106.038643 172.0
106.074837 1768.0
106.173958 148.0
106.272415 204.0
106.648224 172.0
108.249191 196.0
108.329964 224.0
108.370895 196.0
108.600937 160.0
108.686569 188.0
109.047913 168.0
109.214249 168.0
109.24337 184.0
109.445244 160.0
109.659821 144.0
109.997726 288.0
110.85524 156.0
111.068848 172.0
111.192879 180.0
111.367142 200.0
112.133003 160.0
112.210999 248.0
112.350189 168.0
112.371284 160.0
112.449364 152.0
112.918396 156.0
113.110947 140.0
113.151169 164.0
113.26976 220.0
113.312126 212.0
113.636513 152.0
113.793571 164.0
114.093132 156.0
114.394775 136.0
114.414375 144.0
114.772316 168.0
115.00058 152.0
115.054665 6724.0
115.297455 144.0
115.359436 192.0
115.441101 184.0
115.528381 164.0
115.676033 232.0
116.008072 176.0
116.059067 1172.0
116.440498 188.0
116.819809 160.0
116.848297 228.0
116.987663 152.0
117.011345 288.0
117.070107 25020.0
117.140213 208.0
117.159767 144.0
117.42939 144.0
117.474693 188.0
117.498421 156.0
117.594902 124.0
117.645172 184.0
117.813614 152.0
117.83522 160.0
118.038399 264.0
118.055481 204.0
118.073479 2260.0
118.286591 132.0
118.315346 168.0
118.540604 156.0
119.073135 152.0
119.322006 156.0
119.652695 204.0
119.92717 212.0
120.145233 172.0
120.291443 144.0
120.318817 136.0
120.955971 148.0
121.287842 128.0
121.418282 164.0
121.633301 164.0
121.738686 200.0
121.890259 140.0
122.134293 180.0
122.332336 160.0
122.387375 160.0
122.411598 164.0
122.578133 108.0
122.759773 268.0
123.944611 160.0
124.117508 196.0
124.845871 152.0
124.939285 144.0
124.990463 172.0
125.319054 188.0
125.605354 176.0
125.666199 148.0
125.790565 176.0
125.99202 172.0
126.011658 144.0
126.045174 296.0
126.351494 204.0
126.901108 144.0
127.05455 592.0
127.243477 180.0
127.279404 164.0
127.36924 196.0
127.510788 140.0
127.641174 156.0
128.062622 1792.0
128.147614 148.0
128.246765 144.0
128.84024 172.0
128.947083 200.0
129.070007 9264.0
129.752304 148.0
130.047195 160.0
130.072998 1240.0
130.291168 128.0
130.713074 200.0
130.785904 152.0
130.810944 176.0
130.945282 160.0
131.087036 396.0
131.104752 160.0
131.471924 156.0
131.808029 216.0
131.835022 216.0
131.899017 152.0
132.06015 172.0
132.09021 184.0
132.494003 200.0
133.476349 156.0
133.906693 160.0
134.516449 124.0
134.746353 140.0
134.896576 160.0
134.931244 168.0
135.023743 152.0
135.104706 172.0
135.347717 164.0
135.373642 164.0
136.152405 156.0
136.354523 144.0
136.474548 172.0
136.543945 168.0
137.40004 176.0
138.163986 160.0
138.398041 156.0
139.050766 116.0
140.030136 172.0
140.050751 160.0
140.414307 164.0
140.617249 176.0
140.652603 140.0
141.030533 148.0
141.070343 4688.0
141.108231 184.0
141.297745 140.0
141.46814 164.0
141.572327 184.0
142.07431 1400.0
142.105652 144.0
142.129379 192.0
142.60997 120.0
142.82309 180.0
142.861145 168.0
142.968979 164.0
143.082779 488.0
143.962326 176.0
144.103256 140.0
144.447586 116.0
144.686813 148.0
145.067886 208.0
145.176941 116.0
145.196045 232.0
145.564362 196.0
145.939209 204.0
145.968063 144.0
146.057053 236.0
146.291351 220.0
146.683121 192.0
147.098022 152.0
147.180115 156.0
147.254974 140.0
147.450668 168.0
147.653748 156.0
147.761765 196.0
147.876343 156.0
147.975586 140.0
148.067535 140.0
148.096664 208.0
148.40686 164.0
148.431107 140.0
148.54509 176.0
148.991776 168.0
149.045227 196.0
149.159454 152.0
149.27858 148.0
149.748276 156.0
150.533569 192.0
150.76564 168.0
150.885406 140.0
151.049255 180.0
151.470291 144.0
152.060837 456.0
152.284622 144.0
152.319016 148.0
152.407455 208.0
152.54509 228.0
153.069443 1824.0
153.517624 188.0
153.542282 164.0
153.65712 156.0
153.945755 188.0
154.075882 1156.0
154.107574 148.0
154.29541 176.0
154.349808 240.0
154.552643 196.0
154.907471 136.0
155.017517 184.0
155.086029 17920.0
155.16394 216.0
155.189194 176.0
155.539001 156.0
155.658157 188.0
155.710312 176.0
156.089066 3128.0
156.147308 176.0
156.252777 200.0
156.413971 148.0
156.808777 156.0
157.092926 320.0
157.283905 152.0
157.973587 212.0
158.096176 148.0
158.391617 160.0
158.669785 180.0
158.98082 156.0
159.013443 184.0
159.061127 176.0
159.576126 200.0
159.865402 148.0
160.522888 176.0
160.547272 160.0
160.785248 144.0
161.012466 164.0
161.080658 160.0
161.252243 128.0
161.310608 172.0
161.429443 156.0
161.639404 168.0
161.697601 208.0
162.896927 164.0
163.016342 140.0
163.36467 168.0
163.607559 220.0
163.641525 204.0
164.062439 148.0
164.37616 180.0
164.705505 180.0
164.838348 156.0
165.069778 1680.0
165.495728 180.0
165.567429 184.0
166.076599 416.0
166.249359 220.0
166.718079 192.0
167.085449 480.0
167.189941 144.0
167.71402 140.0
168.092377 184.0
168.334534 216.0
168.383591 168.0
168.698837 144.0
168.88533 160.0
169.068695 160.0
169.156708 184.0
170.73967 184.0
170.90332 148.0
172.034424 148.0
172.111176 172.0
172.36351 180.0
172.598465 160.0
172.622299 156.0
173.121155 300.0
173.470596 148.0
173.719711 192.0
174.557556 204.0
174.76535 140.0
174.796921 220.0
175.170792 200.0
175.326233 156.0
175.563507 176.0
175.925125 144.0
176.133865 196.0
176.445419 144.0
176.94545 164.0
177.067566 124.0
177.125534 220.0
177.329559 196.0
177.472702 148.0
177.992767 172.0
178.038971 140.0
178.077972 13020.0
178.253098 160.0
178.388641 148.0
178.569443 220.0
178.790268 204.0
178.878098 200.0
178.943161 128.0
179.085251 21048.0
179.210999 160.0
179.549423 176.0
180.087448 2488.0
180.408875 96.0
180.536819 176.0
180.577774 236.0
180.839981 140.0
180.931 152.0
181.096359 372.0
181.320099 152.0
181.452316 108.0
181.735046 144.0
182.043732 168.0
182.274323 128.0
182.769516 140.0
182.874466 156.0
183.254166 140.0
183.458649 156.0
183.887878 152.0
184.410782 104.0
184.476715 148.0
185.061096 184.0
185.143677 176.0
185.18837 208.0
185.210037 216.0
185.440353 168.0
185.733185 192.0
185.890533 176.0
186.122421 208.0
186.710953 168.0
186.88504 168.0
187.056503 152.0
187.131363 144.0
187.424164 164.0
187.563156 164.0
187.764923 184.0
187.838562 176.0
188.078995 144.0
188.14624 172.0
188.196075 168.0
188.537537 204.0
189.069061 1328.0
189.158401 188.0
189.266617 120.0
189.511688 184.0
190.031387 220.0
190.076706 4428.0
190.147888 176.0
190.253571 100.0
190.329758 144.0
190.454559 132.0
190.504837 156.0
190.547485 176.0
190.603745 168.0
190.696075 188.0
190.782394 164.0
190.808472 176.0
190.833618 228.0
190.864105 128.0
190.923721 132.0
190.949677 168.0
191.013397 164.0
191.042099 160.0
191.085922 63152.0
191.287735 124.0
191.805344 152.0
191.969101 164.0
192.091354 15104.0
192.185837 144.0
192.323532 120.0
192.371933 180.0
192.487885 148.0
192.672943 144.0
192.824921 152.0
193.037796 144.0
193.100372 7576.0
193.225876 148.0
193.323837 124.0
193.54808 156.0
193.582932 304.0
193.713104 152.0
194.10379 984.0
194.271866 164.0
195.105209 296.0
195.286957 148.0
196.504303 200.0
196.621506 140.0
196.663376 184.0
197.339401 148.0
198.891403 172.0
198.913849 192.0
199.756866 264.0
200.156509 164.0
200.198364 144.0
200.500183 144.0
200.69751 148.0
200.861694 112.0
201.083984 168.0
201.453888 152.0
201.493439 160.0
201.558426 168.0
201.756271 144.0
201.807159 164.0
202.077438 2064.0
202.172058 152.0
202.322083 188.0
202.72995 160.0
202.795135 164.0
202.994965 132.0
203.016266 148.0
203.086288 17008.0
203.467422 196.0
203.593735 148.0
203.853714 188.0
203.926132 124.0
203.950348 192.0
204.093292 18304.0
204.506042 140.0
204.943542 176.0
205.040436 168.0
205.064758 156.0
205.101288 25360.0
205.252518 100.0
205.361008 136.0
205.478378 192.0
205.634567 128.0
205.697769 104.0
205.808075 160.0
205.847763 188.0
206.001999 140.0
206.06485 168.0
206.104416 4240.0
206.144852 140.0
206.24025 180.0
206.331223 160.0
206.41069 180.0
206.4888 116.0
206.595963 108.0
207.067108 140.0
207.116089 1948.0
207.776413 112.0
208.118652 460.0
209.153412 144.0
209.345367 100.0
209.674728 164.0
210.54599 152.0
210.693314 164.0
210.853256 180.0
211.492874 152.0
211.995361 152.0
212.952744 164.0
214.282135 184.0
214.436584 168.0
214.61441 200.0
214.929428 236.0
215.08786 496.0
215.130814 172.0
215.215469 148.0
215.387772 172.0
215.913879 252.0
216.094757 1360.0
216.484543 180.0
216.677856 168.0
216.959213 192.0
217.013519 176.0
217.100967 8912.0
217.298233 120.0
217.723709 124.0
217.812851 156.0
217.91597 120.0
217.942413 204.0
218.017136 140.0
218.062607 168.0
218.109329 39116.0
218.206528 112.0
218.256165 140.0
218.29892 156.0
218.396103 148.0
218.492218 100.0
218.683487 188.0
219.112885 6992.0
219.698212 132.0
219.856003 172.0
220.114548 532.0
220.419815 144.0
220.620071 140.0
221.230896 276.0
221.704803 196.0
221.757568 200.0
221.853012 144.0
222.871002 176.0
223.587662 236.0
224.368073 164.0
225.188675 224.0
225.6698 144.0
225.8582 148.0
226.337036 160.0
227.449295 148.0
227.558914 124.0
228.25145 156.0
228.356705 188.0
228.510117 164.0
228.768936 200.0
229.08667 228.0
229.247833 156.0
229.956924 108.0
230.515259 224.0
231.116806 2520.0
232.123184 1216.0
232.255005 168.0
232.371353 172.0
232.487991 128.0
232.726532 188.0
232.772766 172.0
232.814255 172.0
232.983643 112.0
233.048264 148.0
233.088974 300.0
233.132736 96196.0
233.442169 180.0
233.539078 120.0
233.569809 176.0
233.741058 172.0
234.094803 168.0
234.136002 15692.0
234.22995 140.0
234.271973 140.0
234.298721 228.0
234.343658 172.0
234.804871 196.0
235.083603 132.0
235.141968 1220.0
235.187759 188.0
235.597702 252.0
235.633148 128.0
235.728806 144.0
235.759415 216.0
235.825562 104.0
235.855118 140.0
235.928833 108.0
235.976379 192.0
236.141434 200.0
237.683533 156.0
238.058029 156.0
238.113312 160.0
239.509689 164.0
239.845551 148.0
240.41304 156.0
241.768677 144.0
242.15361 172.0
244.625244 160.0
245.134491 152.0
246.668472 172.0
246.91861 172.0
248.848907 168.0
249.071869 172.0
250.169327 144.0
250.736282 172.0
251.599228 136.0
253.926315 236.0
255.307831 160.0
255.498672 168.0
258.930084 140.0
260.684906 148.0
261.469604 144.0
262.081451 148.0
262.158783 176.0
262.400543 208.0
262.929535 160.0
263.875977 152.0
264.769073 204.0
265.002319 148.0
267.376038 148.0
267.48175 160.0
268.027344 256.0
268.131622 176.0
271.233398 152.0
271.686676 140.0
272.06662 168.0
272.368744 156.0
273.124756 140.0
273.318848 148.0
273.434021 148.0
274.001709 100.0
274.735565 164.0
275.465118 200.0
276.173645 236.0
276.309906 348.0
276.779816 196.0
276.841339 128.0
276.981171 176.0
277.009155 220.0
277.064453 340.0
277.179504 288.0
277.242371 104.0
277.371124 160.0
277.449585 180.0
277.513031 208.0
277.536133 312.0
277.611877 196.0
277.712372 140.0
277.758514 232.0
277.793274 128.0
277.85675 272.0
277.871765 288.0
277.917572 304.0
277.942749 360.0
277.996521 244.0
278.03891 344.0
278.090668 644.0
278.145508 552.0
278.192993 230820.0
278.365601 156.0
278.431396 184.0
278.503113 396.0
278.599884 244.0
278.673035 156.0
278.702362 228.0
278.737549 8184.0
278.785706 592.0
278.857208 256.0
278.907196 176.0
278.962555 220.0
278.98941 124.0
279.059357 100.0
279.151947 168.0
279.194885 86772.0
279.241547 396.0
279.378113 148.0
279.458527 108.0
279.548309 144.0
279.614868 184.0
279.6716 188.0
279.755707 180.0
279.825134 156.0
279.925568 104.0
279.998413 160.0
280.042816 124.0
280.09137 124.0
280.197388 9688.0
280.252533 272.0
280.448425 124.0
280.573364 124.0
280.59845 180.0
280.645325 148.0
280.724121 156.0
280.761444 188.0
280.792084 156.0
280.84021 228.0
280.875305 268.0
280.920013 240.0
281.013641 240.0
281.03595 220.0
281.083221 108.0
281.125854 120.0
281.161865 192.0
281.200897 324.0
281.265472 180.0
281.301605 244.0
281.335785 188.0
281.382355 128.0
281.585785 104.0
281.643799 120.0
281.676086 144.0
281.802856 108.0
281.929749 124.0
282.15036 156.0
282.194397 108.0
282.310059 184.0
282.882263 160.0
283.149628 144.0
283.579041 124.0
284.096252 100.0
284.401733 180.0
290.496796 164.0
292.465576 100.0
293.196503 140.0
294.599213 112.0
296.560059 140.0
298.420166 152.0
303.059021 180.0
306.824219 136.0
309.012878 144.0
377.194244 140.0
437.442078 160.0
494.613373 100.0
544.904602 144.0
600.29187 176.0
631.642944 128.0
646.225952 152.0
704.552551 160.0
801.467712 152.0
902.89093 148.0
950.484985 148.0
997.892639 216.0
1093.751953 148.0
1106.711304 168.0
1137.546265 144.0
1151.396484 152.0
1185.733887 144.0
1253.962402 140.0
1306.911499 152.0
1308.790039 156.0
1315.494995 140.0
1316.144775 164.0
1316.578003 164.0
1319.873291 180.0
1354.67749 148.0
1361.72644 268.0
1362.887085 148.0
1367.019653 164.0
1375.768555 140.0
1388.947876 152.0
1390.61731 188.0
1397.959961 204.0
1400.768066 124.0
1405.762207 160.0
1442.40686 148.0
1450.589722 156.0
1463.451782 196.0
1467.200317 248.0
1467.756836 196.0
1482.180786 164.0
1491.182495 220.0
1524.942871 148.0
1534.018799 204.0
1539.93335 184.0
1544.45813 168.0
1565.681641 152.0
1566.161987 152.0
1581.875732 216.0
1590.357178 180.0
1592.755127 148.0
1594.002441 168.0
1605.393921 216.0
1608.943481 136.0
1609.934692 152.0
1612.53125 168.0
1618.090698 220.0
1618.402954 160.0
1629.535522 176.0
1634.898926 244.0
1636.991943 196.0
1646.007324 196.0
1646.265747 172.0
1647.5177 180.0
1654.893555 144.0
1659.884888 196.0
1661.012207 196.0
1672.851929 184.0
1673.552002 168.0
1674.944702 160.0
1678.375732 168.0
1693.232178 152.0
1707.973267 240.0
1708.030884 180.0
1708.78772 192.0
1710.375977 148.0
1716.447754 200.0
1717.709595 160.0
1733.840942 148.0
1735.241821 184.0
1743.201904 164.0
1748.865479 184.0
1751.738281 164.0
1757.699463 220.0
1762.843384 216.0
1768.145386 144.0
1769.467896 144.0
1772.58374 156.0
1774.545166 176.0
1781.86377 152.0
1784.166504 148.0
1799.913696 168.0
1808.469238 164.0
1811.374634 140.0
1816.322998 168.0
1817.392822 188.0
1819.930664 204.0
1822.419312 184.0
1822.759155 156.0
1825.832642 188.0
1826.738159 148.0
1826.959351 152.0
1828.099487 244.0
1829.18042 236.0
1832.442017 216.0
1834.598267 148.0
1836.593628 160.0
1844.662964 180.0
1845.517822 180.0
1850.934204 212.0
1852.535767 144.0
1863.68042 176.0
1868.684448 168.0
1869.699829 156.0
1874.444824 164.0
1874.83252 156.0
1877.01355 200.0
1878.678101 200.0
1879.73938 188.0
1882.510376 160.0
1882.730957 180.0
1883.18396 208.0
1884.116943 164.0
1888.27771 136.0
1893.614746 148.0
1893.718628 192.0
1894.463623 184.0
1897.13269 156.0
1897.392822 188.0
1899.456787 152.0
1906.906616 160.0
1908.140991 224.0
1909.349609 144.0
1910.019409 148.0
1919.111328 208.0
1921.946045 168.0
1924.77417 144.0
1929.230103 164.0
1929.79834 156.0
1932.142334 144.0
1933.866089 216.0
1939.690918 164.0
1940.541382 156.0
1945.26123 228.0
1949.714355 144.0
1952.817871 144.0
1953.486328 140.0
1957.843262 220.0
1958.69751 184.0
1960.230591 188.0
1965.494873 180.0
1968.708008 180.0
1976.009277 148.0
1976.371948 224.0
1985.070557 160.0
1988.28186 212.0
1990.35022 200.0
1993.210449 144.0
1997.131104 228.0
1998.687866 288.0
2000.975342 200.0
