>compound Lafutidine
>formula C22H29N3O4S
>ionization [M+Na]+
>parentmass 454.176331
#inchi InChI=1S/C22H29N3O4S/c26-21(18-30(27)17-20-7-6-14-28-20)23-9-2-5-13-29-22-15-19(8-10-24-22)16-25-11-3-1-4-12-25/h2,5-8,10,14-15H,1,3-4,9,11-13,16-18H2,(H,23,26)/b5-2-
#inchikey KMZQAVXSMUKBPD
#Ion_Source LC-ESI
#Instrument qTof
#Compound_Source Commercial
#PI Dorrestein
#Data_Collector Garg_Neha
#Scan -1
#Precursor_MZ 454.177
#ExactMass 431.188
#Charge 1
#CAS_Number 118288-08-7
#Pubmed_ID N/A
#Smiles C1=C(N=CC=C1CN2CCCCC2)OC/C=C\CNC(CS(=O)CC3=CC=CO3)=O
#INCHI_AUX N/A
#Library_Class 1
#SpectrumID CCMSLIB00000078417
#IonMode Positive
#UpdateWorkflowName UPDATE-SINGLE-ANNOTATED-GOLD
#LibraryQualityString Gold
#TaskID 77f51c88eb8b467eb4a01dd2d0cb90d2
##Scan# 1022
#SpectrumFile Plate6_61_80_GD10_01_15777.mzXML
#LibraryName FDALibrary_2_04302014.mgf
#MQScore -1
#Organism FDALibrary_2_04302014
#TIC_Query 0
#RT_Query -1
#MZErrorPPM -1
#SharedPeaks 0
#MassDiff 0
#LibMZ -1
#SpecMZ 454.177
#SpecCharge 0
#internalFilename spec-00000.mgf

>collision 10
50.086365 188.0
67.618378 196.0
74.157303 168.0
111.985847 160.0
113.405746 168.0
118.864258 216.0
120.042526 156.0
131.033859 3852.0
132.034775 768.0
132.792999 144.0
134.059677 296.0
135.8564 152.0
156.035156 172.0
164.011002 168.0
181.011032 164.0
182.026276 508.0
190.013748 188.0
198.014359 164.0
213.10379 144.0
215.114182 172.0
227.111725 148.0
228.15976 148.0
233.126083 160.0
235.11171 164.0
242.102859 132.0
284.172852 1096.0
285.173767 384.0
287.17868 160.0
290.066742 320.0
292.076111 144.0
292.226379 140.0
296.162567 140.0
307.350555 144.0
321.869965 168.0
346.921143 164.0
356.142456 312.0
357.144501 128.0
358.150787 148.0
372.365417 144.0
372.941772 156.0
373.142639 12948.0
374.145447 2656.0
375.136169 992.0
376.143402 140.0
377.154785 172.0
377.943756 156.0
398.173706 140.0
436.012207 192.0
453.341522 136.0
453.930725 172.0
454.176331 6172.0
454.364777 284.0
454.757996 184.0
455.179047 1696.0
455.454376 136.0
456.174469 828.0
456.227783 160.0
457.175659 456.0
954.263794 172.0
1463.279907 164.0
1590.943848 160.0
1643.231567 248.0
1809.042236 188.0
1874.35791 216.0
