>compound Linezolid
>formula C16H20FN3O4 
>ionization [M+H]+
>parentmass 338.152283
#inchi InChI=1S/C16H20FN3O4/c1-11(21)18-9-13-10-20(16(22)24-13)12-2-3-15(14(17)8-12)19-4-6-23-7-5-19/h2-3,8,13H,4-7,9-10H2,1H3,(H,18,21)/t13-/m0/s1
#inchikey TYZROVQLWOKYKF
#Ion_Source LC-ESI
#Instrument qTof
#Compound_Source Isolated
#PI Sirenas
#Data_Collector Ed Esquenazi 
#Scan -1
#Precursor_MZ 338.151
#ExactMass 0.0
#Charge 1
#CAS_Number N/A
#Pubmed_ID N/A
#Smiles N/A
#INCHI_AUX N/A
#Library_Class 3
#SpectrumID CCMSLIB00000005896
#IonMode Positive
#UpdateWorkflowName UPDATE-SINGLE-ANNOTATED-BRONZE
#LibraryQualityString Bronze
#TaskID d19310cd93df49b68e9fcbec27720eb5
##Scan# 2
#SpectrumFile Linezolid.mgf
#LibraryName fda_library.mgf
#MQScore -1
#Organism fda_library
#TIC_Query 0
#RT_Query -1
#MZErrorPPM -1
#SharedPeaks 0
#MassDiff 0
#LibMZ -1
#SpecMZ 338.151
#SpecCharge 0
#internalFilename spec-00000.mgf

>collision 10
100.078156 33.30616
101.038261 7.757576
103.052773 42.560032
104.052361 75.102791
106.064873 86.968079
107.029587 74.684212
108.083611 31.477631
108.564407 3.375
109.043419 34.001259
114.092697 39.762192
114.55365 5.898148
115.052811 76.338226
115.921021 23.40958
116.050392 88.605003
116.07061 924.061523
116.118645 13.69365
116.291138 4.028846
116.347427 5.334877
116.786942 8.647059
116.821091 11.84052
117.056213 46.296299
118.158264 28.05357
119.065605 18.87179
120.077324 11.70417
121.027885 7.69482
121.045631 31.026711
122.036209 24.78676
122.244156 13.61111
123.046867 121.166
123.396927 6.679598
124.056099 1359.843994
124.101448 6.358334
124.14003 11.06349
124.155533 11.14982
124.927971 6.552536
125.060364 5.333333
125.384392 21.87756
125.445312 14.37862
126.073486 62.621799
129.190292 2.020833
130.378357 3.857143
131.061462 146.032303
132.069489 45.35355
133.11824 6.265351
133.291428 6.125
134.253082 8.05235
134.482956 25.33333
135.046219 799.909729
135.124283 12.34722
135.133133 17.687929
135.307419 25.50234
135.392975 5.708333
135.631134 9.094697
135.908813 8.958333
136.055038 623.973572
136.085327 5.358334
136.121826 5.401515
136.281937 9.469444
136.292343 5.013889
136.379669 24.41143
137.038025 30.07427
137.063004 1628.055054
137.113968 8.213384
137.24437 4.694444
137.329956 12.69482
137.560089 14.76587
138.054657 18.2124
138.122009 4.408333
138.483093 50.189758
139.338989 11.21333
139.400513 9.573529
142.066101 158.888504
143.0224 24.93202
143.05896 211.342606
143.35495 6.342593
144.081985 116.3937
145.045517 14.74359
145.076279 50.000408
145.088913 30.68981
145.634033 5.333333
146.037445 46.668369
146.061234 86.459717
147.090622 72.628464
147.208618 14.07407
147.253586 5.782407
147.268967 12.55556
147.326767 31.68297
147.398438 8.684211
147.504303 7.314103
147.694229 6.672619
147.827621 18.564659
147.931091 13.25494
148.05542 4733.437988
148.110962 22.12155
148.1259 10.94737
148.161469 25.345169
148.175018 16.22315
148.189301 5.801667
148.210281 9.684524
148.232819 18.304199
148.268692 11.00758
148.296616 19.85294
148.325348 22.73847
148.350555 9.421875
148.368393 31.125561
148.418076 11.16333
148.460632 4.8
148.490143 21.055401
148.555923 13.88167
148.596146 8.383333
148.676712 20.461809
148.736755 17.480021
148.884659 5.69697
149.062622 2766.290039
149.114456 14.36566
149.143799 54.55809
149.232727 18.006941
149.245544 8.698232
149.293106 7.111111
149.332825 9.333333
149.397079 13.66568
149.435562 22.59968
149.453979 5.083333
149.475296 11.44298
149.517838 24.74168
149.52887 11.53333
149.564606 5.694445
149.687958 10.71667
149.837097 5.88587
149.88063 12.23184
150.070724 943.413513
150.203476 19.0056
150.28476 26.360729
150.339935 4.008333
150.357025 9.226851
150.869339 4.363636
151.066513 2187.383057
151.120255 8.190705
151.130875 9.630208
151.201294 8.533334
151.255203 18.23188
151.322479 14.00219
151.348358 26.366751
151.365417 8.716666
151.382614 10.73016
151.395386 6.005952
151.430389 7.335318
151.571671 16.724541
151.594498 10.58333
151.608383 12.14881
152.074738 748.696289
152.192383 7.840278
152.660812 17.93919
152.713028 37.685711
152.735275 15.3346
153.05368 45.826839
153.081879 1088.482056
153.133957 4.8
153.142548 4.75
153.151169 6.04529
153.192184 11.79167
153.29332 6.201666
153.400986 20.375
154.062225 112.333801
154.11145 5.852273
154.298523 16.406401
154.576202 9.338889
156.069748 314.657898
156.116562 19.378151
157.074509 306.081604
159.089188 405.611908
159.203049 15.98975
159.302353 12.67222
159.354553 8.132247
159.598068 7.242816
159.870651 15.68627
160.041672 30.938789
160.055542 37.37014
160.07843 17.02043
160.147873 10.00556
160.363693 11.68056
160.41214 5.00641
161.048813 127.705498
161.0625 83.677147
161.21814 17.355551
161.254761 10.43561
161.316666 13.66755
161.338806 12.08681
161.360855 7.671568
161.459305 13.82353
161.674774 8.348485
162.071686 1362.342041
162.168625 20.247761
162.206802 10.11111
162.291565 61.089951
162.316803 14.0
162.334183 41.887951
162.344131 11.03716
162.383423 30.436251
162.466995 8.016666
162.501221 19.04859
162.547363 6.095238
162.613892 6.666667
162.715942 9.334302
162.738144 10.44537
162.773636 5.672222
162.809143 7.724359
162.866867 12.21894
162.955673 11.722
163.046616 82.578621
163.066528 4892.130859
163.12001 16.74395
163.133362 6.340909
163.142242 14.37186
163.157013 7.240079
163.195572 6.017857
163.221146 15.82738
163.240555 33.38599
163.27565 30.667139
163.305298 18.578699
163.325638 27.682619
163.355606 15.72149
163.389526 27.447741
163.431381 12.96037
163.453491 29.509081
163.482422 17.440041
163.505539 9.720239
163.55983 8.897436
163.572388 7.225
163.709274 3.708333
163.753952 14.94167
164.009521 10.76894
164.0867 442.313599
164.121277 13.48457
164.187164 29.76059
164.78154 8.370833
165.081024 2269.011963
165.116898 6.691667
165.161179 6.615
165.258865 6.075
165.267502 7.446428
165.353653 4.734848
165.375641 7.429762
165.390671 13.7219
165.474655 6.522727
165.502655 8.823718
165.725555 31.798849
165.80777 9.897988
165.917786 17.006149
166.052261 10.50347
166.425476 10.74405
166.724899 19.56019
167.098679 480.584198
167.206406 8.349638
167.273849 9.667424
167.39827 14.75
167.906158 12.89302
168.077545 130.0242
168.164612 20.64814
168.211411 17.03141
168.260666 7.012931
168.270767 19.53146
168.373428 7.422101
168.978729 34.168282
169.076218 3120.884033
169.150726 7.078432
169.179611 13.49679
169.198639 11.2877
169.241333 11.3373
169.281296 7.75
169.398651 7.42803
169.558014 9.088768
169.590012 9.685185
169.712341 8.491228
169.741699 16.75362
169.916229 9.742284
170.292953 13.37045
170.621765 32.779629
170.711105 4.388889
170.729309 14.60093
170.80629 15.72
171.091919 1096.692017
171.211227 9.0
171.384247 7.102273
171.434723 15.39167
171.66156 7.402778
171.944916 10.32143
172.054276 251.2267
172.113724 26.748739
172.519974 10.49597
173.046021 8.007576
173.065399 104.5737
173.078506 6.341667
173.9673 4.691667
174.060333 1128.764038
174.090225 190.479599
174.114273 3.361111
174.214798 18.34248
174.408417 23.765631
174.476929 21.32752
174.619293 9.671296
174.881424 6.011364
174.991852 5.720238
175.049545 87.680199
175.076019 253.7883
175.227707 11.82095
175.885925 17.004629
175.964233 3.335526
176.075089 887.799805
176.201904 24.51956
176.296661 12.06667
176.412155 14.37337
176.63855 13.32003
176.884689 11.13333
176.971695 11.6901
177.044983 489.369904
177.080658 1932.871948
177.180054 12.40333
177.217056 21.825211
177.242172 20.57468
177.269684 30.87417
177.302109 4.761905
177.320282 5.592949
177.346756 8.166667
177.356018 10.5328
177.42543 6.927469
177.4487 5.755435
177.579941 11.24886
177.657425 39.499729
177.689484 10.70833
177.759323 13.52447
178.135269 25.0434
179.023224 5.840278
179.061279 161.849106
179.097198 1010.627991
179.139557 8.716666
179.26474 7.047619
179.349152 14.3343
179.433395 6.673611
179.482193 2.341667
179.543137 7.653986
179.722061 8.109649
179.787369 15.76313
180.092178 492.9758
180.133102 10.3649
180.179413 11.02042
180.208939 41.029579
180.268143 6.673611
180.348206 9.926471
180.534485 4.7
180.54808 8.506945
180.674744 9.423913
181.089813 1399.864014
181.192734 5.408333
181.264297 8.748334
181.297073 5.177632
181.381531 5.666667
181.401108 9.630208
181.465988 5.75
181.564301 8.008721
181.639313 8.372808
181.662766 14.29167
181.688812 16.49238
181.883469 18.386669
182.005203 13.1276
182.861099 13.80556
183.051086 70.979683
183.109543 6.708333
184.09845 39.55307
184.227203 5.37037
184.477798 5.939394
185.071106 96.031937
185.106613 872.360718
185.211288 11.3344
185.512848 15.20833
185.627548 11.33772
185.741333 5.840278
185.784058 20.745621
185.798218 12.03409
185.807877 6.615
185.992691 5.357143
186.088272 121.318199
186.132996 6.408333
186.215759 7.030303
186.472183 10.08333
186.519699 16.700001
186.730911 11.13038
186.77066 8.185897
187.066254 353.547913
187.118942 110.001198
187.228302 10.24242
187.266388 12.60333
187.366562 13.90645
187.542603 9.061869
187.709381 7.667857
187.890564 13.04012
187.923935 11.36012
187.936081 29.95833
187.962082 10.09058
187.991653 11.05093
188.079956 269.115601
188.113419 63.30764
188.153244 9.866667
188.167236 19.36364
188.241211 6.0
188.459137 29.366699
188.655151 12.37306
188.687759 7.344697
189.051254 40.025379
189.082169 10827.169922
189.139938 83.759949
189.161041 22.21121
189.177536 58.306679
189.217102 34.385719
189.262817 10.08333
189.290451 27.05608
189.305862 11.51868
189.340164 53.614269
189.362518 16.022221
189.379852 39.887291
189.405045 24.34783
189.421677 19.88801
189.437927 5.066667
189.477066 16.0
189.507767 7.008333
189.536942 35.68121
189.562408 33.56535
189.611176 8.0
189.722305 34.939251
189.781006 26.091311
189.932434 13.76529
189.953171 10.75543
190.066742 24.979811
190.152908 27.38373
190.198181 12.04741
190.255646 31.41691
190.283951 20.735109
190.305054 14.615
190.31871 41.41806
190.359268 11.01647
190.366257 133.817902
190.522446 7.017544
190.618576 27.21497
190.641708 15.08333
191.00293 6.335145
191.059753 73.737289
191.098129 6645.5
191.161957 40.50349
191.17923 20.16987
191.194199 47.851219
191.221069 22.33333
191.276398 53.251091
191.324982 55.74931
191.395279 19.00432
191.4599 42.295311
191.502213 13.98994
191.513077 9.739865
191.585266 6.25
191.619949 42.206551
191.652557 13.34099
191.724808 12.36111
191.760193 14.41667
191.817581 9.826923
191.836227 10.14674
191.850311 6.98077
191.996826 13.00463
192.019302 23.961241
192.048203 18.79167
192.084091 70.92598
192.148804 10.0264
192.16861 40.03968
192.387802 10.08333
192.407669 10.19022
192.554123 18.978399
193.058487 13.16346
193.107681 91.108437
193.152725 21.448721
193.520996 36.9884
193.574341 15.12354
193.779495 13.10897
193.835632 5.04529
193.872574 17.07443
193.884415 6.208333
193.903442 9.823148
193.931351 18.97543
193.954819 19.934259
193.966431 10.125
193.988022 25.23311
194.022842 41.261211
194.057327 37.6124
194.086319 192.084305
194.100235 129.688507
194.127365 7.865196
194.160278 8.67
194.178253 86.971069
194.199066 30.708719
194.246124 8.150001
194.266937 10.15
194.299057 25.29517
194.323288 9.787037
194.344528 13.37186
194.363922 14.35833
194.402725 11.36915
194.427216 13.46897
194.545288 11.3952
194.620071 8.037879
194.879578 7.5625
194.975967 20.271669
194.997498 61.393242
195.021896 112.428596
195.056946 955.040283
195.093048 28895.070312
195.150864 33.01339
195.226395 52.428329
195.242844 19.41905
195.262589 168.884705
195.300064 35.934269
195.315353 79.156197
195.353867 110.414902
195.378174 58.911701
195.387253 27.04092
195.399734 54.408642
195.430054 65.761368
195.452606 31.706921
195.478256 16.48856
195.498383 106.755699
195.574768 78.387749
195.629181 29.60944
195.6521 44.819439
195.686752 42.87973
195.711105 43.172218
195.7509 16.375561
195.801559 34.84359
195.942047 5.15
195.955505 28.97242
196.164566 57.729511
196.182098 35.823231
196.236115 13.18543
196.284424 12.00309
196.330612 28.15731
196.474564 18.39715
196.547714 11.00463
196.59314 10.40741
196.728271 13.63706
196.76236 85.513908
196.774094 6.520833
196.851105 7.827381
196.903946 5.083333
196.928116 9.378623
196.972275 22.407459
197.007401 22.130341
197.07193 1848.529053
197.10791 3056.284912
197.226593 19.853531
197.241486 18.736839
197.263397 38.012779
197.291183 9.8
197.387177 5.714285
197.402161 8.386905
197.430359 14.29825
197.449219 30.681919
197.520325 7.481667
197.543884 6.71627
197.573257 3.013889
197.607681 8.605556
197.793365 8.462607
197.825821 38.863541
197.883606 31.267111
197.970779 8.893518
198.087494 86.406548
198.122787 46.867779
198.200851 33.31044
198.576965 11.38851
198.636124 8.097222
199.031555 17.33333
199.043015 4.402778
199.075455 24.932079
199.632385 7.334677
199.654495 2.958333
200.043015 26.50231
200.088516 121.4077
200.188248 6.075
200.325668 12.87879
201.080261 30.06234
201.102097 138.021103
201.40799 10.38075
201.946808 7.291667
202.048965 44.621399
202.085129 99.849297
202.128479 74.862099
202.710541 6.160088
203.117554 1420.050049
203.179718 12.04762
203.222702 10.81855
203.276398 3.677083
203.415314 11.26759
203.49469 5.675
204.101547 38.296299
204.229858 5.840278
204.32431 4.382936
204.463562 8.348333
204.481354 24.84783
204.563782 8.801667
204.686874 5.802778
204.896576 13.41667
205.026764 23.58333
205.073776 59.33213
205.30014 6.720238
205.340012 11.04167
205.634079 16.086809
205.788559 10.84052
205.993805 4.531863
206.088806 204.408203
206.109711 297.357513
206.298279 14.33418
207.053253 51.700272
207.092545 351.083496
207.137848 4.733333
207.279312 26.044081
207.539368 5.160714
207.650085 4.225
207.825104 8.037499
207.840973 12.81492
207.925415 10.72464
208.061539 19.099211
208.122986 251.0495
208.22113 10.79167
208.246643 34.191139
208.300751 8.080129
208.362381 13.15648
208.99559 15.70833
209.073975 45.31778
209.108398 8230.56543
209.169998 33.607738
209.188385 46.177719
209.271622 11.56019
209.302536 13.48981
209.317032 6.670455
209.334396 22.04847
209.362625 10.16667
209.376236 11.03922
209.398666 11.03716
209.424042 18.461809
209.443146 6.001667
209.483688 23.79974
209.528778 10.12255
209.563187 12.43622
209.589874 4.963235
209.603806 9.858334
209.662872 32.884918
209.730209 5.681667
209.836639 22.39035
209.946915 10.01333
209.967392 15.74697
210.022537 16.005951
210.075745 103.917999
210.287888 10.2803
210.36174 4.888889
210.598267 9.1875
210.713806 12.79839
211.006805 8.679598
211.067474 7.130208
211.138214 6.75
211.482101 6.668011
212.210785 11.53333
213.065674 155.227203
213.099045 8.728536
213.846222 23.08667
213.863037 16.52099
213.989182 21.3447
214.024841 34.367821
214.127518 63.943291
214.182373 9.769231
214.22142 21.408331
214.27887 7.671568
214.457291 20.34524
214.858887 9.555555
215.117889 6722.725098
215.181534 44.457779
215.199448 14.19048
215.222794 21.547871
215.251968 29.91456
215.279037 30.1553
215.289536 19.7803
215.324173 17.795931
215.346832 25.28846
215.426239 44.544361
215.467545 11.26667
215.487488 6.03858
215.555939 5.678572
215.594742 6.391026
215.709106 13.89583
215.890793 11.00926
215.961029 16.48522
215.988281 9.108871
216.05983 9.423913
216.197922 18.53706
216.38829 8.595239
216.658707 9.739865
217.073792 19.019609
217.273453 8.086538
217.317719 1.6875
217.417068 31.300489
217.442017 16.7631
217.529663 6.916667
217.559601 6.225
217.852737 13.57353
218.097031 197.625397
218.135803 6.680555
218.182037 5.840278
218.320816 4.673077
218.675278 6.011364
219.102371 97.94091
219.798569 11.46136
219.953339 6.666667
220.011612 12.69338
220.124084 19.710529
220.175034 12.39919
220.283798 8.333333
220.78479 10.43622
220.851685 5.760417
221.064194 15.89189
221.108582 1085.865967
221.171112 38.14423
221.194244 7.407609
221.426468 20.21335
221.60228 7.078432
221.686081 10.74167
221.752487 5.333333
221.771225 16.33712
221.836044 6.371212
221.964951 8.033603
222.069473 40.753639
222.10405 2594.99292
222.26355 19.26759
222.296783 6.713542
222.329041 16.688601
222.36644 9.25641
222.412506 19.18433
222.442047 9.117248
222.515472 28.72208
222.535553 16.327629
222.611237 12.31317
222.649689 10.00417
222.691422 4.671297
222.704819 9.816358
222.748276 10.90909
222.841721 12.00134
223.033936 14.00682
223.087234 895.266785
223.123062 1992.44104
223.185913 5.375
223.204666 14.42731
223.299515 51.748581
223.366562 12.53086
223.380951 35.050941
223.477463 3.375
223.507278 7.347222
223.526428 19.35677
223.55899 21.70491
223.574585 8.677381
223.600601 10.02671
223.668228 5.016304
223.694244 14.4226
223.836548 18.480261
223.954025 19.3631
224.500229 4.669445
225.102295 80.909393
226.345261 9.687091
227.132645 30.559589
228.114853 11.50521
230.092438 5.703703
230.111389 27.284189
230.12793 124.164803
231.093262 234.938507
232.143707 227.846603
232.218719 15.32527
232.273041 9.231482
232.351242 6.041667
232.403656 6.713542
232.669525 8.666667
233.067352 100.042
233.109222 961.28302
233.216095 13.8023
233.296646 17.222219
233.319687 10.38075
233.449478 15.79688
233.636307 6.333333
233.656494 10.22222
233.714066 62.886341
233.75029 15.88982
233.764908 197.368103
233.775269 45.924671
233.794785 23.509979
233.814331 112.615501
233.840103 50.197929
233.87648 73.739693
233.925568 31.996469
233.951309 15.96305
233.972977 26.36282
234.002319 15.5
234.035049 11.73707
234.050522 14.2402
234.077652 101.6521
234.13298 91.44091
234.145569 82.75219
234.200333 8.720239
234.216766 66.630478
234.264206 5.375
234.354904 15.46944
234.397339 9.204166
234.508621 14.01818
234.536026 27.97522
234.654572 76.035767
234.745209 28.917641
235.060486 58.58556
235.091629 202.475098
235.124557 35089.800781
235.278992 60.723751
235.326675 57.468109
235.36235 38.10334
235.385803 92.878143
235.417252 116.094597
235.45076 102.402901
235.478088 19.510969
235.493256 122.068497
235.520142 40.94965
235.546799 63.87603
235.572495 116.208702
235.620682 87.717491
235.641541 16.30513
235.688141 81.262962
235.725983 78.384247
235.843979 25.271669
235.858429 23.80188
235.889221 37.149879
235.927902 16.319941
235.960541 26.80913
236.195709 2.339286
236.244202 8.345239
236.289322 10.675
236.302643 3.727941
236.599655 16.00379
236.703903 28.295151
236.792389 32.624249
236.875824 20.5418
236.923386 7.33477
237.314453 8.130208
237.394867 12.68519
237.687897 3.854167
238.09816 397.907806
238.112518 48.096779
238.734543 20.43964
238.959549 47.4814
239.083023 358.816498
239.12114 163.701797
239.149673 7.898148
239.226181 13.2272
239.522217 5.013889
239.559906 15.6859
239.64389 10.26667
239.67244 16.786671
239.705627 36.314251
239.77533 9.342054
239.861526 8.377451
239.877686 6.017857
240.007019 12.35376
240.325119 8.706141
240.384445 12.3947
240.400925 8.388441
240.440247 16.586809
240.53627 8.518678
240.779007 17.81818
241.052704 51.413849
241.067444 32.518009
241.09877 12309.469727
241.162827 24.47917
241.18338 10.00093
241.20993 26.068701
241.245178 24.031561
241.269196 30.186689
241.28299 27.48321
241.310318 72.978767
241.332611 55.829781
241.347702 45.67083
241.374634 22.096491
241.418213 87.666786
241.462524 54.035431
241.484299 10.08333
241.508469 76.174423
241.53656 8.401667
241.570465 32.621521
241.615768 18.002871
241.639053 39.311581
241.661896 30.636089
241.686096 10.33667
241.720245 29.618361
241.743576 32.448189
241.899017 9.149692
242.598663 8.095239
242.964157 10.35088
243.072571 44.137901
243.118256 7.382936
243.276062 5.333333
243.361069 15.17926
244.011887 16.366791
244.144821 620.30127
244.278503 23.281969
244.321732 14.6832
244.700882 5.964285
244.837921 10.025
246.083649 33.134998
246.122742 142.088593
246.130524 73.107529
246.161438 31.136539
247.119522 102.203201
247.704758 7.386905
248.000412 15.67581
248.120071 259.803497
248.260818 6.041667
248.654129 25.69467
248.801041 12.34444
248.813873 20.48802
249.094604 71.929398
249.127548 879.929016
249.252609 10.45581
249.371078 21.796881
249.421463 13.00144
249.531387 15.04167
249.619339 8.705247
249.800919 25.050529
249.938675 6.606061
249.9673 9.053572
250.070297 11.04167
250.098129 2689.461914
250.132339 1109.947021
250.162964 12.67738
250.180313 10.9881
250.21344 13.69792
250.259277 22.367519
250.355942 16.02696
250.373398 9.490196
250.483032 44.334961
250.51004 20.84301
250.543594 13.48316
250.60405 21.676769
250.620667 18.125
250.698303 24.35
250.723282 17.375
250.755478 16.3787
251.012207 20.325199
251.074234 51.868992
251.230896 34.403858
251.270981 12.32051
251.341522 5.791667
251.381592 10.73986
251.449646 15.03409
251.679108 12.69565
251.767532 16.014669
251.811951 10.33422
251.850342 8.757883
252.050339 8.966954
252.114853 3763.25293
252.148392 1219.145996
252.19165 14.89815
252.209213 6.003205
252.259048 15.42708
252.297577 8.684524
252.310501 41.178711
252.330887 8.686275
252.359879 32.75098
252.395844 25.006411
252.419312 8.670138
252.453033 29.790279
252.475922 20.79487
252.515305 42.939899
252.563126 11.00641
252.592392 10.17339
252.617767 10.49963
252.690475 43.407101
252.740646 37.832779
253.033203 6.671297
253.097809 556.630371
253.263123 20.096979
253.343185 5.742284
253.49826 8.666667
253.55365 9.122549
253.79747 27.86128
253.873886 23.108049
253.897217 5.674242
254.280472 12.00397
255.257141 15.33586
257.368042 13.04012
257.624817 4.333333
258.114594 19.84375
259.108093 19.111771
259.132721 69.247589
259.756805 17.217739
260.121399 16.93548
261.100739 82.429512
261.739685 9.075
263.453522 28.67061
264.143005 22.93939
265.09726 112.669502
265.131287 129.919098
265.736023 20.378731
266.090057 91.696472
266.33786 14.76587
266.516479 25.82353
267.096161 67.310402
267.109619 73.361107
268.110687 184.000305
268.231049 12.83333
268.297943 15.68103
274.154663 240.996307
274.213593 1.833333
274.470245 5.742284
274.55069 12.33333
275.537292 9.011363
276.151245 612.118713
276.38681 6.095238
276.447815 21.293011
276.600861 11.66779
276.733948 13.92161
276.862854 20.002529
277.087219 19.804411
277.137665 3113.791016
277.533081 13.78392
277.730347 29.791861
277.803589 7.852273
277.869415 9.001263
278.339722 6.306159
278.386719 19.48485
278.684235 26.47167
278.753418 14.62593
278.826752 9.003788
278.922241 4.815476
278.937561 17.120371
279.071533 40.71471
279.169495 5.823718
279.281158 20.32428
279.364014 35.59663
279.466461 7.671297
279.675873 12.36029
279.797943 7.366667
279.890503 9.349999
280.109924 156.835602
280.508423 4.721491
280.550049 14.15051
280.794006 4.774123
287.492889 13.16346
288.131378 60.375
289.272308 11.75758
290.494415 9.081897
291.474457 9.724359
291.801239 57.882038
292.148804 9.75
292.327606 38.328781
292.371979 15.16462
292.40155 10.74074
292.431427 9.688597
292.490814 5.692308
292.568176 16.53186
292.644531 9.259408
292.771606 38.222221
292.946136 8.833333
292.972931 12.03571
293.115967 411.458008
293.152039 17.69482
293.168579 4.791667
293.227783 12.66667
293.252869 17.404341
293.336273 8.20119
293.401825 8.671053
293.443542 6.700269
293.562744 11.87843
294.045746 8.724999
294.098663 86.07962
294.12616 566.525818
294.161499 7634.948242
294.23587 40.544628
294.25473 38.342339
294.27597 28.234329
294.29422 56.13097
294.318695 33.204269
294.339417 62.158329
294.361267 171.953598
294.385986 138.634903
294.436615 161.377502
294.460144 110.568199
294.496857 181.557999
294.532654 147.108002
294.562714 150.506195
294.586456 87.9888
294.636658 44.136631
294.688965 190.266205
294.730591 178.363602
294.760651 60.45311
294.78299 42.95573
294.80603 18.887409
294.832092 158.992294
294.915955 26.895599
294.951752 156.215195
294.983185 17.337299
295.014038 44.070438
295.054779 28.33378
295.19751 27.195339
295.240234 21.20833
295.272827 56.86834
295.313019 25.75279
295.618439 30.64361
295.655365 11.89352
295.799316 175.321701
295.891876 31.355301
295.992432 14.83532
296.078278 235.198303
296.102478 158.661102
296.141235 69941.09375
296.370728 45.046249
296.416962 52.98732
296.618652 32.354759
296.654907 129.777603
296.67038 24.18005
296.762177 107.2593
296.815125 38.83567
296.85376 90.788239
296.893524 82.018784
296.914795 135.529999
296.964569 34.816769
296.987213 47.061279
297.005615 28.4
297.024139 43.997238
297.05127 80.086197
297.19519 49.553009
297.225922 11.075
297.270996 75.04306
297.401917 13.95402
297.43927 24.26759
297.47998 42.33466
297.51236 44.15266
297.630096 44.259819
297.681244 19.003969
297.793884 9.04529
297.833618 66.498444
297.872467 12.31317
297.961853 44.372559
298.159485 21.631531
298.315674 56.45874
298.53006 20.040251
299.21051 7.334459
299.355042 24.055401
299.413208 6.672222
299.499481 22.67354
299.884552 6.916667
300.131989 7.605556
300.469391 11.00198
300.487762 16.428459
300.734924 7.2
301.018585 6.840517
301.308319 11.00278
301.423065 6.667929
301.447235 8.367424
301.551331 3.1875
301.591339 7.520833
301.839966 6.666667
302.015259 5.333333
302.069672 4.363636
303.030396 4.927083
303.534546 6.927469
306.201294 8.789634
306.434204 13.68056
309.103333 29.615391
310.112946 97.08075
316.973358 8.518678
318.144165 23.807409
318.975677 13.64477
320.138123 107.8815
320.41803 5.802778
323.114624 7.360043
332.233337 17.246981
332.52478 10.73016
333.401093 11.5126
334.029968 11.39951
335.054413 9.028153
335.8255 6.927469
335.844604 7.088768
335.887299 35.839958
335.914612 23.46726
335.942688 26.937019
335.963684 86.5858
335.999878 75.500763
336.03598 184.570999
336.056793 27.71212
336.086426 73.8452
336.115662 67.099327
336.137512 100.079597
336.15506 77.665871
336.177307 38.489658
336.197479 104.195099
336.224701 172.1996
336.251282 100.3722
336.279114 136.589996
336.313507 75.789948
336.355682 84.39048
336.411987 102.435898
336.451965 27.040119
336.483887 49.213509
336.570282 82.169312
336.929169 30.674999
336.989594 56.477409
337.018768 14.89943
337.095245 19.13732
337.37796 9.852564
337.395508 9.344048
337.43335 37.170761
337.462952 39.77652
337.506104 26.627279
337.580872 5.391026
337.644775 8.001811
337.665283 2.14881
337.787048 20.505079
337.851837 20.909309
337.909637 27.493971
338.039764 36.27499
338.152283 116004.601562
338.41803 42.483521
338.48999 53.077042
338.523071 43.166752
338.635284 40.150459
338.699127 130.028305
338.717773 12.99164
338.740997 51.454041
338.7612 296.000397
338.792999 26.249889
338.811676 101.2043
338.842529 189.873901
338.874329 91.529289
338.901184 142.865601
338.933777 146.306396
338.963074 94.881767
339.001343 260.263885
339.055511 143.239304
339.081451 54.92234
339.099548 114.762901
339.121033 75.651062
339.228363 96.824364
339.396545 44.512161
339.514679 58.337261
339.554413 19.934521
339.647003 103.2015
339.686554 37.107811
339.794037 29.11104
340.037964 31.775089
340.238708 61.214802
340.282654 51.013889
340.328491 6.734848
340.565704 17.42857
340.587799 32.011108
340.611206 15.14982
340.756989 19.835991
340.836212 26.081301
341.012848 8.013888
341.181854 10.20167
341.37204 16.75362
341.452667 7.333333
341.7966 29.06052
341.830292 19.80476
341.857422 6.466667
342.055542 23.1738
342.124695 8.666667
342.147308 45.009491
342.539856 12.46136
342.575562 5.75
342.855438 16.71512
343.087433 10.68314
343.665924 9.777778
343.880432 8.010135
343.932007 16.723869
344.564606 7.486111
345.097809 16.049601
345.171783 3.746795
346.057922 10.66667
346.265045 10.33854
346.536987 5.667929
352.64505 8.022223
363.894104 8.132247
377.981232 16.79365
383.06546 37.024731
401.246613 42.799999
474.08371 8.866667
664.502441 22.340281
726.372498 1.720238
868.026123 9.670138
1010.726379 31.04167
1364.037842 15.92803
1392.508667 11.01071
1656.589722 29.27899
