>compound MLS002153299-01!N,N-Dihexyl-2-(4-fluorophenyl)indole-3-acetamide142720-24-9
>formula C28H37FN2O
>ionization [M+H]+
>parentmass 437.2962684760905
#inchi InChI=1S/C28H37FN2O/c1-3-5-7-11-19-31(20-12-8-6-4-2)27(32)21-25-24-13-9-10-14-26(24)30-28(25)22-15-17-23(29)18-16-22/h9-10,13-18,30H,3-8,11-12,19-21H2,1-2H3
#inchikey VUWXAQFLTSBUDB
#Ion_Source LC-ESI
#Instrument qTof
#Compound_Source NIH Pharmacologically Active Library
#PI Dorrestein
#Data_Collector VP/LMS
#Scan -1
#Precursor_MZ 437.301
#ExactMass 436.289
#Charge 1
#CAS_Number N/A
#Pubmed_ID N/A
#Smiles CCCCCCN(CCCCCC)C(=O)Cc1c([nH]c2ccccc12)c3ccc(F)cc3
#INCHI_AUX N/A
#Library_Class 1
#SpectrumID CCMSLIB00000084834
#IonMode Positive
#UpdateWorkflowName UPDATE-SINGLE-ANNOTATED-GOLD
#LibraryQualityString Gold
#TaskID d252d724072548979f1f6f1ced849daf
##Scan# 3190
#SpectrumFile p3-B05_GB5_01_18238.mzXML
#LibraryName Pharm_Active_Library.mgf
#MQScore -1
#Organism Pharm_Active_Library
#TIC_Query 0
#RT_Query -1
#MZErrorPPM -1
#SharedPeaks 0
#MassDiff 0
#LibMZ -1
#SpecMZ 437.301
#SpecCharge 0
#internalFilename spec-00000.mgf

>collision 10
44.88913 108.0
44.901131 308.0
44.934444 148.0
44.949158 124.0
44.986996 148.0
45.002884 168.0
45.018574 172.0
45.035141 168.0
45.085369 148.0
45.10696 184.0
45.156673 84.0
45.168266 168.0
45.192348 128.0
45.225166 176.0
45.243874 152.0
45.260612 172.0
45.305531 116.0
45.315529 148.0
45.335629 164.0
45.35305 140.0
45.38382 168.0
45.397293 136.0
45.416073 48.0
45.430828 196.0
45.442902 180.0
45.502884 52.0
45.512478 148.0
45.529369 180.0
45.551647 28.0
45.572929 152.0
45.594444 164.0
45.613461 144.0
45.668591 84.0
45.725098 164.0
45.741249 160.0
45.768177 160.0
45.834888 368.0
45.844486 160.0
45.86208 108.0
45.897533 32.0
45.912228 156.0
45.915527 140.0
45.929901 148.0
45.94474 124.0
45.959099 224.0
45.996017 88.0
46.01762 36.0
46.039223 128.0
46.088211 220.0
46.100018 80.0
46.150032 176.0
46.182487 204.0
46.222534 204.0
46.249847 184.0
46.282635 120.0
46.301891 72.0
46.306423 148.0
46.350361 180.0
46.374615 156.0
46.380058 140.0
46.415424 160.0
46.43848 132.0
46.454758 128.0
46.503475 164.0
46.564705 176.0
46.585079 116.0
46.626823 144.0
46.658466 104.0
46.677502 252.0
46.686863 156.0
46.69622 136.0
46.699795 224.0
46.730549 128.0
46.757919 212.0
46.778835 208.0
46.80405 372.0
46.844086 212.0
46.872158 40.0
46.881695 108.0
46.899174 136.0
46.91441 80.0
46.951244 280.0
46.984417 216.0
47.01125 104.0
47.064487 80.0
47.07951 200.0
47.101929 96.0
47.106689 40.0
47.110329 92.0
47.133167 172.0
47.151917 192.0
47.164967 124.0
47.199078 248.0
47.21207 152.0
47.240795 124.0
47.254406 160.0
47.275002 144.0
47.296898 104.0
47.30785 232.0
47.32864 216.0
47.346188 164.0
47.355774 132.0
47.373581 156.0
47.395882 188.0
47.409206 224.0
47.421543 116.0
47.436619 196.0
47.451664 160.0
47.475666 92.0
47.495583 124.0
47.51479 148.0
47.540859 168.0
47.557331 176.0
47.56831 216.0
47.602634 156.0
47.639721 148.0
47.666256 140.0
47.67794 152.0
47.697433 188.0
47.718056 144.0
47.730431 108.0
47.760967 156.0
47.78545 124.0
47.800064 180.0
47.812927 124.0
47.825356 76.0
47.846004 160.0
47.865284 228.0
47.885941 136.0
47.903847 148.0
47.987915 104.0
47.999382 88.0
48.017506 348.0
48.043125 128.0
48.080208 172.0
48.123127 40.0
48.135555 180.0
48.171127 164.0
48.201328 156.0
48.230885 152.0
48.263302 152.0
48.283424 116.0
48.297913 312.0
48.326305 148.0
48.3535 252.0
48.398735 184.0
48.434135 224.0
48.455429 192.0
48.482784 100.0
48.506344 160.0
48.536846 56.0
48.550713 72.0
48.564373 132.0
48.592327 348.0
48.629208 132.0
48.657444 148.0
48.670055 100.0
48.717278 344.0
48.793713 64.0
48.804836 156.0
48.848507 100.0
48.92588 164.0
48.952335 116.0
49.010841 116.0
49.070961 60.0
49.09082 212.0
49.107029 180.0
49.126812 220.0
49.154465 168.0
49.224258 104.0
49.24707 180.0
49.271248 156.0
49.323612 212.0
49.361202 136.0
49.376587 204.0
49.387775 180.0
49.397568 172.0
49.454937 148.0
49.47015 212.0
49.487137 128.0
49.512341 160.0
49.533352 52.0
49.543156 156.0
49.552963 168.0
49.565083 156.0
49.578186 128.0
49.593605 104.0
49.648281 164.0
49.674931 172.0
49.691769 76.0
49.738079 184.0
49.761436 244.0
49.801266 144.0
49.829529 164.0
49.87714 112.0
49.894802 124.0
49.91967 176.0
49.969048 180.0
49.991062 120.0
50.00795 128.0
50.043865 184.0
50.071205 164.0
50.076126 152.0
50.088627 108.0
50.106522 204.0
50.120544 164.0
50.172764 168.0
50.193913 132.0
50.210835 228.0
50.229172 124.0
50.278522 180.0
50.312145 212.0
50.336235 172.0
50.352554 180.0
50.374565 148.0
50.39394 196.0
50.399651 196.0
50.40313 148.0
50.414421 216.0
50.444031 204.0
50.455185 240.0
50.494713 128.0
50.542229 68.0
50.566868 92.0
50.584679 196.0
50.606506 172.0
50.620056 212.0
50.647575 156.0
50.668823 200.0
50.698578 112.0
50.714169 148.0
50.743938 140.0
50.755283 76.0
50.793575 160.0
50.810917 160.0
50.85033 76.0
50.89576 156.0
50.925224 112.0
50.936348 200.0
50.952572 220.0
50.968273 152.0
50.985252 152.0
51.006573 96.0
51.02932 136.0
51.047802 268.0
51.059181 68.0
51.101856 124.0
51.124729 244.0
51.181564 104.0
51.20435 188.0
51.214317 152.0
51.226093 88.0
51.23996 224.0
51.281033 180.0
51.302208 124.0
51.316181 184.0
51.340202 184.0
51.389664 84.0
51.401554 360.0
51.434929 156.0
51.498158 208.0
51.518158 196.0
51.539795 224.0
51.555305 144.0
51.572456 188.0
51.583893 160.0
51.639656 144.0
51.668266 132.0
51.682575 180.0
51.714058 160.0
51.765598 144.0
51.795979 132.0
51.822891 196.0
51.845821 176.0
51.864861 136.0
51.895992 80.0
51.9132 76.0
51.928974 92.0
51.991905 264.0
52.003582 152.0
52.039471 120.0
52.059589 216.0
52.083992 288.0
52.09692 136.0
52.146225 220.0
52.170212 140.0
52.197529 160.0
52.221664 148.0
52.253906 164.0
52.26749 176.0
52.28384 88.0
52.296795 120.0
52.311188 168.0
52.323975 200.0
52.336609 220.0
52.370228 176.0
52.393002 168.0
52.439384 192.0
52.449474 192.0
52.518688 180.0
52.551868 140.0
52.582172 108.0
52.600555 324.0
52.616386 364.0
52.632698 152.0
52.647648 192.0
52.677467 172.0
52.694805 104.0
52.71648 196.0
52.736713 232.0
52.74683 96.0
52.759842 160.0
52.775745 148.0
52.785866 136.0
52.796753 280.0
52.835045 80.0
52.857883 160.0
52.887138 216.0
52.913197 200.0
52.926403 164.0
52.968227 64.0
52.99865 144.0
53.008793 156.0
53.020386 88.0
53.045029 124.0
53.0825 156.0
53.100124 184.0
53.113178 92.0
53.141743 196.0
53.185299 308.0
53.213314 192.0
53.230736 124.0
53.248367 168.0
53.267048 52.0
53.280121 352.0
53.290802 148.0
53.312088 112.0
53.326031 128.0
53.344063 152.0
53.414398 152.0
53.451347 188.0
53.475784 144.0
53.533207 128.0
53.547771 124.0
53.57399 132.0
53.608959 124.0
53.627907 188.0
53.64423 304.0
53.676014 228.0
53.690598 136.0
53.724751 164.0
53.753326 168.0
53.786896 100.0
53.814632 156.0
53.829987 140.0
53.868668 212.0
53.89045 176.0
53.902271 220.0
53.922733 176.0
53.971127 176.0
53.995136 176.0
54.017773 164.0
54.044109 120.0
54.083622 140.0
54.12429 200.0
54.152439 216.0
54.168549 88.0
54.221298 176.0
54.240353 148.0
54.282871 184.0
54.294601 144.0
54.328339 80.0
54.356216 184.0
54.368877 172.0
54.394375 132.0
54.420799 132.0
54.436951 300.0
54.45734 136.0
54.46751 104.0
54.519218 180.0
54.579487 96.0
54.604576 232.0
54.691296 108.0
54.708069 172.0
54.737045 108.0
54.785538 92.0
54.806168 104.0
54.832417 172.0
54.873371 188.0
54.907169 116.0
54.947708 72.0
54.981766 148.0
54.995865 120.0
55.024048 160.0
55.028477 116.0
55.073799 116.0
55.085976 152.0
55.121941 260.0
55.151497 132.0
55.164803 108.0
55.19437 372.0
55.20472 100.0
55.246136 112.0
55.280167 192.0
55.292004 128.0
55.302364 108.0
55.357635 168.0
55.407505 128.0
55.434258 144.0
55.457886 156.0
55.482437 204.0
55.529057 112.0
55.54092 204.0
55.572903 244.0
55.589882 176.0
55.621197 160.0
55.684895 280.0
55.710144 100.0
55.752613 172.0
55.771069 60.0
55.7962 332.0
55.833668 216.0
55.888275 128.0
55.91415 160.0
55.92725 104.0
55.988293 116.0
56.025528 124.0
56.046146 148.0
56.059799 272.0
56.099049 172.0
56.136066 124.0
56.171619 168.0
56.190826 96.0
56.213398 56.0
56.226028 208.0
56.238766 60.0
56.25071 84.0
56.314915 164.0
56.388126 176.0
56.40321 308.0
56.422009 144.0
56.450916 184.0
56.471611 148.0
56.515236 96.0
56.533192 124.0
56.544666 264.0
56.560524 92.0
56.574772 324.0
56.609539 36.0
56.678638 184.0
56.699425 196.0
56.720409 80.0
56.739452 148.0
56.762386 104.0
56.776955 168.0
56.782833 120.0
56.826546 272.0
56.892921 124.0
56.908115 132.0
56.928955 88.0
56.966507 112.0
56.983147 156.0
57.035694 180.0
57.052162 236.0
57.077724 144.0
57.095768 148.0
57.140366 136.0
57.151985 140.0
57.178516 228.0
57.19136 172.0
57.201382 228.0
57.232708 180.0
57.255295 144.0
57.298977 140.0
57.326099 248.0
57.338123 172.0
57.375954 108.0
57.469349 404.0
57.50629 284.0
57.542198 240.0
57.613274 244.0
57.626377 152.0
57.653576 128.0
57.665665 224.0
57.683804 216.0
57.700748 212.0
57.718357 164.0
57.73708 152.0
57.753361 88.0
57.76395 204.0
57.78513 160.0
57.797016 168.0
57.819931 240.0
57.836582 108.0
57.859718 224.0
57.883514 152.0
57.894112 120.0
57.926888 220.0
57.944099 216.0
57.980465 116.0
57.995621 56.0
58.007748 60.0
58.022907 64.0
58.036552 156.0
58.057316 332.0
58.083569 72.0
58.146595 252.0
58.178631 168.0
58.215611 228.0
58.232315 220.0
58.254478 236.0
58.277889 172.0
58.289886 152.0
58.316795 372.0
58.355877 168.0
58.382835 104.0
58.419601 164.0
58.445847 356.0
58.471443 128.0
58.477406 160.0
58.496025 268.0
58.525814 184.0
58.547134 48.0
58.559319 224.0
58.606544 144.0
58.658592 112.0
58.704098 156.0
58.73613 192.0
58.764179 184.0
58.788002 96.0
58.80764 180.0
58.876545 144.0
58.893345 376.0
58.919315 296.0
58.934593 172.0
58.952209 288.0
59.020168 288.0
59.050774 72.0
59.068668 120.0
59.084427 32.0
59.099728 184.0
59.119617 96.0
59.140652 140.0
59.160946 180.0
59.177788 184.0
59.1968 172.0
59.225258 104.0
59.257431 220.0
59.271221 44.0
59.298805 160.0
59.309532 64.0
59.339497 88.0
59.356331 84.0
59.36845 252.0
59.412788 168.0
59.423878 128.0
59.436951 96.0
59.443546 168.0
59.464447 92.0
59.47826 116.0
59.505894 180.0
59.519711 268.0
59.531998 124.0
59.575005 64.0
59.608807 176.0
59.628735 124.0
59.753338 96.0
59.767185 64.0
59.797962 140.0
59.813354 176.0
59.853382 196.0
59.871372 176.0
59.887817 156.0
59.909325 224.0
59.930061 164.0
59.97509 124.0
59.99667 136.0
60.021339 172.0
60.032135 132.0
60.042931 124.0
60.063316 592.0
60.089935 160.0
60.127785 112.0
60.152477 236.0
60.212696 120.0
60.243587 264.0
60.28067 132.0
60.320206 200.0
60.348682 160.0
60.370613 88.0
60.37759 144.0
60.382008 188.0
60.41209 96.0
60.42741 180.0
60.483273 260.0
60.497276 172.0
60.52972 128.0
60.540993 128.0
60.559143 160.0
60.569984 136.0
60.587025 204.0
60.636524 144.0
60.640152 176.0
60.64814 64.0
60.678463 132.0
60.710293 220.0
60.726536 216.0
60.748253 112.0
60.760052 136.0
60.796825 392.0
60.838257 212.0
60.875523 328.0
60.886395 164.0
60.922119 156.0
60.942314 140.0
60.976501 56.0
61.00404 212.0
61.029358 192.0
61.042801 192.0
61.113029 156.0
61.128906 124.0
61.139801 192.0
61.161922 188.0
61.174046 160.0
61.203625 256.0
61.228539 144.0
61.265923 132.0
61.297733 144.0
61.331371 396.0
61.373463 196.0
61.42025 160.0
61.44677 224.0
61.533421 100.0
61.542011 184.0
61.558414 212.0
61.579456 116.0
61.602348 200.0
61.657574 156.0
61.673203 176.0
61.685707 112.0
61.702904 192.0
61.741993 132.0
61.770344 32.0
61.795448 116.0
61.810825 128.0
61.843689 108.0
61.859257 144.0
61.877369 140.0
61.903183 116.0
61.921974 184.0
61.932938 344.0
61.953304 144.0
61.977036 136.0
62.017548 172.0
62.028522 92.0
62.055534 104.0
62.103786 136.0
62.12104 220.0
62.174389 104.0
62.193222 40.0
62.221478 164.0
62.232468 132.0
62.278702 168.0
62.298431 208.0
62.310162 236.0
62.331425 152.0
62.351227 200.0
62.362282 328.0
62.38747 200.0
62.406872 148.0
62.450722 208.0
62.467094 164.0
62.496525 176.0
62.538391 332.0
62.554424 152.0
62.575222 176.0
62.592541 180.0
62.624039 100.0
62.658474 172.0
62.687279 340.0
62.701736 152.0
62.726738 204.0
62.767448 112.0
62.808453 176.0
62.821815 204.0
62.838428 192.0
62.859299 176.0
62.887348 208.0
62.914181 156.0
62.928391 140.0
62.963131 172.0
62.985241 116.0
63.057922 164.0
63.096546 136.0
63.149624 156.0
63.192337 208.0
63.204994 100.0
63.219238 156.0
63.248241 184.0
63.261971 132.0
63.303616 212.0
63.328476 156.0
63.361225 344.0
63.379169 176.0
63.396603 192.0
63.409279 168.0
63.447323 56.0
63.45842 56.0
63.479034 156.0
63.5121 212.0
63.562145 132.0
63.572361 308.0
63.622265 192.0
63.65239 208.0
63.664703 112.0
63.683105 176.0
63.717121 148.0
63.744568 168.0
63.76638 132.0
63.780113 212.0
63.83633 132.0
63.847462 80.0
63.861618 160.0
63.865356 144.0
63.871742 196.0
63.90398 144.0
63.941326 92.0
63.970303 176.0
63.984554 128.0
63.997459 204.0
64.024109 172.0
64.05806 148.0
64.07827 140.0
64.116035 140.0
64.132454 112.0
64.161148 96.0
64.173897 336.0
64.194626 240.0
64.222855 160.0
64.261185 352.0
64.31588 212.0
64.338226 160.0
64.363777 124.0
64.382935 140.0
64.426064 128.0
64.438843 164.0
64.470802 164.0
64.483589 228.0
64.504364 116.0
64.534126 228.0
64.593094 144.0
64.606133 100.0
64.646713 96.0
64.66272 164.0
64.6791 152.0
64.757179 168.0
64.769989 204.0
64.797226 100.0
64.828293 164.0
64.846901 116.0
64.871605 180.0
64.927063 48.0
64.943222 440.0
64.967552 116.0
65.005669 184.0
65.049004 128.0
65.066666 208.0
65.08593 160.0
65.097168 360.0
65.129288 136.0
65.169456 76.0
65.208023 168.0
65.233742 128.0
65.278755 116.0
65.305199 280.0
65.323792 172.0
65.376884 180.0
65.402634 140.0
65.413902 148.0
65.454155 128.0
65.47348 196.0
65.497635 132.0
65.508911 144.0
65.536301 168.0
65.560471 188.0
65.591095 156.0
65.619476 220.0
65.649139 120.0
65.660423 172.0
65.680962 104.0
65.713661 328.0
65.767166 176.0
65.783051 120.0
65.795967 60.0
65.82019 220.0
65.888023 144.0
65.923569 156.0
65.968826 136.0
66.004333 208.0
66.036591 220.0
66.07737 152.0
66.091743 144.0
66.11116 60.0
66.13382 180.0
66.172806 144.0
66.239357 112.0
66.276329 168.0
66.310356 144.0
66.336296 208.0
66.3582 220.0
66.379105 256.0
66.400574 180.0
66.414124 168.0
66.43132 120.0
66.446571 132.0
66.479614 232.0
66.560188 64.0
66.575958 224.0
66.613785 240.0
66.651154 120.0
66.672272 172.0
66.696655 172.0
66.741547 192.0
66.76458 236.0
66.786972 132.0
66.81749 208.0
66.849533 136.0
66.875572 168.0
66.888596 188.0
66.901619 124.0
66.914642 188.0
66.932549 104.0
66.978149 188.0
66.989555 200.0
67.004066 88.0
67.022141 160.0
67.092224 84.0
67.113876 128.0
67.124352 232.0
67.130493 212.0
67.146034 140.0
67.165604 112.0
67.201492 136.0
67.22316 188.0
67.242287 124.0
67.261879 172.0
67.301056 92.0
67.320984 376.0
67.370232 124.0
67.384354 156.0
67.40361 184.0
67.421936 44.0
67.436646 188.0
67.44754 212.0
67.466072 324.0
67.484055 108.0
67.497131 140.0
67.521667 212.0
67.533112 48.0
67.547623 212.0
67.550369 80.0
67.556374 136.0
67.639275 300.0
67.688583 116.0
67.725975 164.0
67.775398 192.0
67.797501 180.0
67.837677 136.0
67.860634 108.0
67.87867 152.0
67.929756 176.0
67.959038 192.0
67.9935 160.0
68.054237 200.0
68.072937 124.0
68.108429 168.0
68.124855 120.0
68.148651 140.0
68.172508 192.0
68.202087 180.0
68.230034 124.0
68.247437 328.0
68.285942 176.0
68.370941 144.0
68.4282 116.0
68.494232 184.0
68.508156 280.0
68.529572 104.0
68.546219 116.0
68.554588 156.0
68.592201 128.0
68.61528 140.0
68.630119 84.0
68.653198 80.0
68.68647 188.0
68.698769 140.0
68.725784 160.0
68.748886 128.0
68.79792 160.0
68.819862 308.0
68.839836 276.0
68.859497 140.0
68.882477 136.0
68.899139 128.0
68.954376 156.0
68.975471 168.0
68.98838 120.0
69.003258 140.0
69.0644 148.0
69.085289 192.0
69.120689 144.0
69.13356 180.0
69.147171 132.0
69.172913 276.0
69.195618 224.0
69.214241 156.0
69.233261 172.0
69.261414 144.0
69.27964 136.0
69.324738 328.0
69.339287 116.0
69.353676 276.0
69.375755 144.0
69.394196 132.0
69.409554 176.0
69.442078 120.0
69.476913 284.0
69.491844 172.0
69.516739 108.0
69.537056 212.0
69.551437 132.0
69.570038 152.0
69.607208 168.0
69.622978 212.0
69.665581 272.0
69.739281 76.0
69.750916 100.0
69.782967 100.0
69.798004 160.0
69.811356 124.0
69.83342 84.0
69.878967 172.0
69.938873 176.0
69.965508 184.0
70.058769 168.0
70.07753 200.0
70.113197 120.0
70.134865 144.0
70.141953 96.0
70.151169 420.0
70.180435 92.0
70.200439 140.0
70.213783 116.0
70.25882 160.0
70.287529 212.0
70.303421 148.0
70.360619 160.0
70.374771 160.0
70.395683 196.0
70.410713 136.0
70.435768 108.0
70.449135 196.0
70.466705 192.0
70.483444 104.0
70.51931 48.0
70.552742 184.0
70.586647 216.0
70.63134 108.0
70.650833 116.0
70.676514 156.0
70.693245 148.0
70.731735 200.0
70.785309 232.0
70.797035 176.0
70.808754 144.0
70.828514 196.0
70.890846 128.0
70.910957 144.0
70.934425 148.0
70.981369 172.0
71.016586 188.0
71.057327 84.0
71.069664 156.0
71.091263 320.0
71.125648 256.0
71.152504 128.0
71.174332 136.0
71.204979 176.0
71.231438 128.0
71.259468 188.0
71.312561 184.0
71.396149 136.0
71.43029 188.0
71.481674 176.0
71.500717 156.0
71.522339 288.0
71.547585 180.0
71.577888 56.0
71.608208 108.0
71.639175 248.0
71.670532 100.0
71.682327 52.0
71.716492 208.0
71.737091 180.0
71.763237 164.0
71.78186 176.0
71.800339 120.0
71.813828 152.0
71.830132 192.0
71.846649 140.0
71.86869 120.0
71.873528 72.0
71.880486 148.0
71.907532 112.0
71.958153 144.0
71.987656 80.0
72.041702 140.0
72.053528 56.0
72.080566 128.0
72.107124 272.0
72.158318 164.0
72.185165 164.0
72.192673 264.0
72.221649 180.0
72.249641 232.0
72.261482 44.0
72.336838 244.0
72.376579 88.0
72.400436 228.0
72.413834 44.0
72.435852 120.0
72.461266 156.0
72.5121 176.0
72.529053 160.0
72.549393 208.0
72.595169 196.0
72.617218 184.0
72.649445 188.0
72.67659 132.0
72.693558 208.0
72.715622 180.0
72.73278 144.0
72.772781 304.0
72.81749 212.0
72.840157 220.0
72.880341 436.0
72.892235 120.0
72.939827 180.0
72.969696 252.0
72.989601 200.0
73.007835 152.0
73.043549 148.0
73.080978 136.0
73.095604 328.0
73.152458 144.0
73.172882 76.0
73.201828 140.0
73.222954 148.0
73.246109 416.0
73.271667 192.0
73.304039 116.0
73.317673 176.0
73.34153 124.0
73.356873 124.0
73.401596 368.0
73.42337 148.0
73.438438 152.0
73.45787 192.0
73.498428 152.0
73.513786 80.0
73.548302 124.0
73.667885 172.0
73.687012 80.0
73.704361 168.0
73.727821 156.0
73.737366 96.0
73.799042 32.0
73.828117 244.0
73.845215 152.0
73.867455 204.0
73.889023 200.0
73.923912 76.0
73.943558 100.0
73.993462 76.0
74.021484 148.0
74.077484 184.0
74.110558 156.0
74.146545 116.0
74.16288 240.0
74.204826 152.0
74.218536 72.0
74.261414 156.0
74.273422 116.0
74.297493 116.0
74.37294 132.0
74.38839 160.0
74.402122 100.0
74.421577 156.0
74.436005 212.0
74.47831 108.0
74.492477 104.0
74.518021 124.0
74.53421 216.0
74.59304 144.0
74.632347 156.0
74.692673 148.0
74.718338 92.0
74.756195 188.0
74.816437 116.0
74.831932 132.0
74.861656 196.0
74.875687 200.0
74.899437 200.0
74.912872 164.0
74.933548 96.0
74.96801 228.0
74.988686 144.0
75.014641 72.0
75.042992 156.0
75.061096 200.0
75.093857 184.0
75.132332 132.0
75.152222 168.0
75.202835 276.0
75.233627 136.0
75.285759 84.0
75.306152 120.0
75.335518 116.0
75.353951 352.0
75.396637 164.0
75.405838 132.0
75.466866 176.0
75.54287 152.0
75.564491 252.0
75.613899 108.0
75.676216 68.0
75.717781 168.0
75.773209 168.0
75.800125 156.0
75.8339 164.0
75.85466 100.0
75.93615 132.0
75.97084 144.0
76.043663 128.0
76.071144 160.0
76.101006 160.0
76.116631 144.0
76.130524 276.0
76.163521 116.0
76.185982 112.0
76.206955 232.0
76.219116 196.0
76.244881 160.0
76.262016 164.0
76.320267 376.0
76.389496 172.0
76.413857 152.0
76.445175 120.0
76.493904 188.0
76.509575 284.0
76.530655 112.0
76.565292 60.0
76.598389 32.0
76.627998 100.0
76.645424 152.0
76.664833 88.0
76.690735 284.0
76.709412 140.0
76.720093 200.0
76.763954 156.0
76.779655 184.0
76.801125 168.0
76.837265 132.0
76.866875 176.0
76.880836 52.0
76.898285 136.0
76.963753 220.0
77.003662 340.0
77.076416 152.0
77.09214 32.0
77.119003 184.0
77.131088 156.0
77.167305 120.0
77.189079 220.0
77.211021 108.0
77.227547 124.0
77.254745 152.0
77.287842 192.0
77.291107 184.0
77.312485 272.0
77.368805 184.0
77.3825 172.0
77.400009 132.0
77.41227 148.0
77.4543 128.0
77.480583 152.0
77.534004 172.0
77.580475 332.0
77.598946 112.0
77.617287 144.0
77.687447 204.0
77.724663 132.0
77.805527 112.0
77.838387 104.0
77.867432 244.0
77.904442 124.0
77.991226 156.0
78.042542 196.0
78.06916 208.0
78.09848 176.0
78.12603 176.0
78.141548 144.0
78.161217 200.0
78.177147 244.0
78.195251 124.0
78.21109 72.0
78.275635 176.0
78.288559 168.0
78.330826 148.0
78.348442 180.0
78.362541 176.0
78.380157 164.0
78.397987 136.0
78.42585 164.0
78.470047 88.0
78.50708 216.0
78.524712 160.0
78.563522 164.0
78.59848 152.0
78.650414 164.0
78.67823 328.0
78.711777 232.0
78.771828 68.0
78.813423 176.0
78.840332 212.0
78.866852 128.0
78.881386 152.0
78.899063 128.0
78.91674 176.0
78.960815 108.0
78.96785 160.0
78.982933 144.0
78.994553 180.0
79.019135 152.0
79.038788 200.0
79.068275 156.0
79.170044 160.0
79.191566 224.0
79.221146 140.0
79.30407 160.0
79.325172 136.0
79.366234 120.0
79.407257 116.0
79.455833 188.0
79.506607 136.0
79.540329 64.0
79.553261 184.0
79.568733 132.0
79.581161 160.0
79.611351 192.0
79.641884 168.0
79.657532 276.0
79.739265 184.0
79.76059 164.0
79.777451 140.0
79.789032 160.0
79.810036 148.0
79.817307 120.0
79.848351 212.0
79.939484 232.0
79.964523 152.0
79.997177 116.0
80.047028 212.0
80.059494 104.0
80.089882 192.0
80.105797 228.0
80.12896 120.0
80.146774 216.0
80.169945 132.0
80.209152 172.0
80.233627 164.0
80.278687 196.0
80.298302 172.0
80.339325 284.0
80.354973 192.0
80.374207 124.0
80.394264 152.0
80.405823 164.0
80.430336 140.0
80.447273 156.0
80.501747 256.0
80.541931 152.0
80.576767 136.0
80.630371 176.0
80.662544 200.0
80.703667 168.0
80.728653 156.0
80.755524 152.0
80.78772 188.0
80.805573 184.0
80.824242 204.0
80.853928 140.0
80.875404 80.0
80.898674 336.0
80.926704 184.0
80.95356 244.0
80.977501 172.0
81.011528 196.0
81.073341 208.0
81.101082 180.0
81.154869 128.0
81.202629 132.0
81.230186 152.0
81.255302 164.0
81.321701 52.0
81.388123 184.0
81.402618 164.0
81.440201 116.0
81.459961 116.0
81.479721 108.0
81.510124 152.0
81.549797 152.0
81.582153 156.0
81.636093 196.0
81.675659 232.0
81.700386 156.0
81.73143 44.0
81.783623 124.0
81.802391 140.0
81.820114 204.0
81.841225 120.0
81.888046 216.0
81.956505 188.0
82.020897 284.0
82.052147 180.0
82.088089 48.0
82.113335 112.0
82.141891 120.0
82.16745 152.0
82.203438 148.0
82.230606 184.0
82.283859 200.0
82.295593 300.0
82.31102 144.0
82.324486 128.0
82.338394 132.0
82.354874 116.0
82.375053 140.0
82.401047 144.0
82.418419 60.0
82.436485 128.0
82.487091 188.0
82.511711 136.0
82.53952 248.0
82.554909 268.0
82.572861 104.0
82.599205 296.0
82.619308 348.0
82.669762 76.0
82.702621 156.0
82.725868 128.0
82.846901 180.0
82.865318 140.0
82.883438 172.0
82.896126 152.0
82.944313 120.0
82.964996 132.0
83.004883 136.0
83.031342 332.0
83.095573 148.0
83.12056 268.0
83.232079 116.0
83.28437 200.0
83.304352 148.0
83.331596 76.0
83.360672 148.0
83.377525 160.0
83.41156 172.0
83.427917 216.0
83.458824 164.0
83.495193 152.0
83.508888 144.0
83.524574 156.0
83.546127 184.0
83.560684 156.0
83.577057 132.0
83.591614 160.0
83.616798 148.0
83.622971 192.0
83.667427 104.0
83.704475 132.0
83.751823 136.0
83.81131 116.0
83.859322 104.0
83.908539 144.0
83.952301 156.0
83.977234 220.0
84.0084 116.0
84.03849 180.0
84.051292 180.0
84.069557 160.0
84.092781 188.0
84.119148 152.0
84.155296 256.0
84.178581 148.0
84.196846 116.0
84.249374 216.0
84.273186 116.0
84.304626 28.0
84.318939 168.0
84.357628 172.0
84.37114 144.0
84.417969 196.0
84.449059 120.0
84.481979 156.0
84.502106 128.0
84.51857 200.0
84.540535 72.0
84.561378 164.0
84.585739 128.0
84.61924 108.0
84.632057 164.0
84.675179 212.0
84.703476 72.0
84.769432 196.0
84.804253 148.0
84.82737 196.0
84.862915 384.0
84.900772 168.0
84.949112 136.0
84.980797 244.0
85.021278 180.0
85.055542 124.0
85.089928 180.0
85.121635 188.0
85.136322 144.0
85.158363 208.0
85.18383 208.0
85.235474 168.0
85.313408 116.0
85.332939 220.0
85.361 204.0
85.37339 152.0
85.395462 200.0
85.43409 180.0
85.465401 204.0
85.516891 176.0
85.549622 164.0
85.566589 140.0
85.581322 104.0
85.597893 148.0
85.621239 148.0
85.640038 348.0
85.696724 244.0
85.73452 144.0
85.76001 160.0
85.805573 268.0
85.883041 232.0
85.926697 164.0
85.944427 144.0
85.964844 180.0
85.98658 128.0
86.004166 184.0
86.020096 80.0
86.065544 304.0
86.09655 196.0
86.114258 112.0
86.129036 192.0
86.158592 148.0
86.19268 160.0
86.230659 168.0
86.245445 52.0
86.265778 68.0
86.284264 188.0
86.311157 132.0
86.328186 388.0
86.365089 164.0
86.37999 144.0
86.451126 132.0
86.500702 164.0
86.532066 136.0
86.569206 172.0
86.614906 280.0
86.648529 136.0
86.692383 292.0
86.715569 176.0
86.757088 268.0
86.782303 124.0
86.827087 132.0
86.854622 144.0
86.886162 172.0
86.901001 200.0
86.913994 120.0
86.941826 192.0
86.96595 84.0
86.985542 216.0
87.014259 168.0
87.045662 128.0
87.054932 164.0
87.060577 120.0
87.090355 156.0
87.166519 60.0
87.181335 140.0
87.211121 128.0
87.224136 128.0
87.243279 160.0
87.256493 168.0
87.277412 192.0
87.311523 200.0
87.328262 196.0
87.348717 160.0
87.435913 152.0
87.456642 140.0
87.488289 152.0
87.503181 224.0
87.533508 180.0
87.563454 176.0
87.5765 172.0
87.629936 68.0
87.661407 232.0
87.691322 112.0
87.746742 180.0
87.765266 204.0
87.778191 100.0
87.838623 120.0
87.867485 136.0
87.931274 328.0
87.961777 132.0
87.975632 104.0
88.031357 164.0
88.075676 120.0
88.09623 168.0
88.120514 176.0
88.152275 120.0
88.167229 104.0
88.195946 256.0
88.229782 188.0
88.268173 200.0
88.285004 156.0
88.330299 184.0
88.356079 144.0
88.378006 156.0
88.41674 172.0
88.445908 196.0
88.48307 136.0
88.523827 148.0
88.590088 156.0
88.608574 356.0
88.629433 172.0
88.666916 108.0
88.698303 176.0
88.760696 204.0
88.786896 172.0
88.815872 108.0
88.848793 108.0
88.895699 100.0
88.93795 164.0
88.961395 200.0
89.02523 168.0
89.045891 144.0
89.095245 188.0
89.114571 208.0
89.129501 108.0
89.145454 116.0
89.158615 176.0
89.173645 68.0
89.186806 128.0
89.205597 92.0
89.231972 308.0
89.29287 368.0
89.322189 144.0
89.344757 200.0
89.40126 136.0
89.437828 148.0
89.467087 204.0
89.491562 132.0
89.523567 296.0
89.570656 144.0
89.604721 96.0
89.634712 196.0
89.647903 364.0
89.668633 116.0
89.719528 168.0
89.73838 188.0
89.757233 148.0
89.787407 144.0
89.815758 128.0
89.84729 144.0
89.86805 64.0
89.887169 172.0
89.916214 188.0
89.932579 224.0
89.955116 104.0
89.996445 232.0
90.031235 168.0
90.057297 144.0
90.08062 196.0
90.119637 120.0
90.157333 168.0
90.178215 136.0
90.219803 124.0
90.242485 164.0
90.347923 164.0
90.378578 168.0
90.382973 160.0
90.392494 212.0
90.43544 148.0
90.465729 120.0
90.494125 292.0
90.511238 428.0
90.601227 184.0
90.618874 120.0
90.664604 184.0
90.706306 148.0
90.732658 168.0
90.76075 128.0
90.816277 200.0
90.842834 160.0
90.873184 144.0
90.897858 188.0
90.922523 128.0
90.949097 180.0
90.977684 200.0
90.99276 140.0
91.02124 104.0
91.05352 120.0
91.082008 276.0
91.102173 124.0
91.116936 124.0
91.178909 192.0
91.194115 96.0
91.218826 76.0
91.239731 92.0
91.25985 160.0
91.298676 128.0
91.311989 112.0
91.327637 160.0
91.36525 88.0
91.413765 144.0
91.429947 172.0
91.468849 136.0
91.480621 160.0
91.499977 172.0
91.536545 144.0
91.565117 176.0
91.578445 108.0
91.620354 128.0
91.700386 168.0
91.728973 184.0
91.741356 176.0
91.769012 148.0
91.818001 168.0
91.848503 216.0
91.851479 148.0
91.904427 108.0
91.948318 144.0
91.965492 136.0
91.990906 192.0
92.014114 188.0
92.099869 340.0
92.123985 136.0
92.204231 120.0
92.220657 244.0
92.313202 156.0
92.366753 180.0
92.404343 148.0
92.409554 96.0
92.450935 220.0
92.476036 172.0
92.529411 148.0
92.542816 168.0
92.573448 164.0
92.588768 132.0
92.60984 156.0
92.638573 196.0
92.70755 188.0
92.784439 208.0
92.812035 212.0
92.860916 260.0
92.891121 252.0
92.906952 184.0
92.983704 84.0
93.013977 316.0
93.03553 148.0
93.089294 212.0
93.11319 124.0
93.141418 140.0
93.179565 104.0
93.193016 140.0
93.211617 200.0
93.23423 200.0
93.278168 220.0
93.296799 172.0
93.32756 216.0
93.379478 168.0
93.428543 168.0
93.453957 156.0
93.517044 192.0
93.535774 192.0
93.579605 56.0
93.595009 184.0
93.643326 180.0
93.659447 148.0
93.725075 120.0
93.820427 176.0
93.854996 112.0
93.90065 212.0
93.926804 196.0
93.951569 168.0
93.992081 144.0
94.013313 136.0
94.041977 192.0
94.054771 152.0
94.146515 76.0
94.183739 160.0
94.200043 212.0
94.256622 152.0
94.281746 176.0
94.312668 200.0
94.330063 172.0
94.347458 140.0
94.419006 92.0
94.449951 192.0
94.477028 188.0
94.494438 180.0
94.517616 172.0
94.53466 56.0
94.564102 164.0
94.589264 160.0
94.60923 368.0
94.626099 148.0
94.653152 48.0
94.674454 136.0
94.701569 28.0
94.758728 192.0
94.775185 164.0
94.790688 128.0
94.80619 152.0
94.841591 180.0
94.860458 96.0
94.874031 212.0
94.924438 148.0
94.960602 192.0
94.990379 124.0
95.023361 156.0
95.038025 116.0
95.102921 144.0
95.14563 136.0
95.163101 204.0
95.219414 136.0
95.269913 188.0
95.308769 100.0
95.380676 156.0
95.403717 160.0
95.429726 220.0
95.472389 164.0
95.501228 172.0
95.538193 84.0
95.563301 180.0
95.643272 100.0
95.676361 160.0
95.699722 168.0
95.715302 180.0
95.736725 148.0
95.762276 164.0
95.781517 144.0
95.795151 272.0
95.849701 108.0
95.894524 88.0
95.921814 160.0
95.942093 188.0
95.962753 184.0
96.013603 156.0
96.062904 292.0
96.07843 128.0
96.153915 152.0
96.177338 128.0
96.226143 104.0
96.284721 168.0
96.307716 160.0
96.364304 108.0
96.407799 152.0
96.437111 136.0
96.478874 176.0
96.503578 96.0
96.521179 204.0
96.555534 160.0
96.615112 140.0
96.63266 292.0
96.646362 44.0
96.671799 136.0
96.687454 120.0
96.702629 212.0
96.736191 120.0
96.785332 180.0
96.807449 188.0
96.826454 180.0
96.86367 152.0
96.893051 152.0
96.910683 172.0
96.928322 152.0
96.969475 176.0
97.008675 100.0
97.038597 168.0
97.06498 200.0
97.096909 152.0
97.138351 184.0
97.165558 196.0
97.214615 132.0
97.237068 100.0
97.299171 196.0
97.365776 120.0
97.385414 104.0
97.478546 128.0
97.520988 136.0
97.551628 188.0
97.573074 160.0
97.59436 148.0
97.661972 164.0
97.705116 240.0
97.725502 236.0
97.739273 76.0
97.784943 168.0
97.819962 92.0
97.885895 160.0
97.903931 208.0
97.929588 172.0
97.963715 160.0
97.983734 196.0
98.031471 348.0
98.050407 84.0
98.127289 144.0
98.142387 164.0
98.162979 120.0
98.198273 132.0
98.23378 236.0
98.272781 200.0
98.289024 32.0
98.318619 144.0
98.344276 176.0
98.364662 232.0
98.393631 164.0
98.407448 208.0
98.434792 160.0
98.45089 172.0
98.487656 156.0
98.531265 364.0
98.549515 112.0
98.640564 112.0
98.678123 116.0
98.713028 208.0
98.720695 136.0
98.783928 164.0
98.797012 176.0
98.819008 188.0
98.865799 132.0
98.91552 128.0
98.93531 96.0
98.949173 200.0
98.978035 180.0
99.010551 164.0
99.028709 96.0
99.06601 140.0
99.083839 396.0
99.11158 152.0
99.168579 168.0
99.188873 152.0
99.21019 212.0
99.221184 228.0
99.276108 176.0
99.301888 176.0
99.323708 136.0
99.345528 128.0
99.407036 152.0
99.424896 252.0
99.460617 124.0
99.481483 352.0
99.51429 112.0
99.557899 216.0
99.591667 120.0
99.62146 104.0
99.642944 128.0
99.679024 140.0
99.702927 140.0
99.743111 164.0
99.749779 160.0
99.756592 96.0
99.763351 160.0
99.823135 144.0
99.845734 192.0
99.881866 84.0
99.907288 220.0
99.937569 128.0
99.961441 92.0
99.981346 100.0
99.998413 208.0
100.05101 208.0
100.079659 184.0
100.110779 440.0
100.124741 144.0
100.16053 188.0
100.18586 140.0
100.214325 168.0
100.228271 104.0
100.256165 124.0
100.270119 104.0
100.296028 104.0
100.353836 32.0
100.381752 180.0
100.395714 112.0
100.423637 124.0
100.459541 192.0
100.473503 124.0
100.525879 96.0
100.559303 40.0
100.607956 140.0
100.626335 124.0
100.64315 60.0
100.657127 184.0
100.676735 44.0
100.68856 140.0
100.709053 156.0
100.750847 108.0
100.794952 196.0
100.828926 140.0
100.876892 140.0
100.908882 236.0
100.948875 148.0
100.966873 80.0
100.980873 196.0
101.010872 184.0
101.038879 312.0
101.07489 180.0
101.103371 172.0
101.20369 184.0
101.225021 280.0
101.275085 60.0
101.290947 192.0
101.32917 188.0
101.371254 148.0
101.401314 316.0
101.435387 176.0
101.471046 120.0
101.485504 108.0
101.511574 88.0
101.547668 52.0
101.587784 132.0
101.658989 320.0
101.676071 84.0
101.768867 252.0
101.801949 176.0
101.857567 292.0
101.887802 172.0
101.916389 124.0
101.943161 120.0
101.969284 180.0
101.99617 152.0
102.044106 284.0
102.077843 220.0
102.129044 3044.0
102.18042 168.0
102.201546 184.0
102.231476 196.0
102.270981 168.0
102.287079 172.0
102.31929 140.0
102.34417 168.0
102.371643 196.0
102.41581 176.0
102.443298 180.0
102.465355 156.0
102.507782 164.0
102.534821 68.0
102.548927 184.0
102.583191 116.0
102.612404 228.0
102.627548 32.0
102.732422 156.0
102.752594 144.0
102.78109 196.0
102.820541 340.0
102.881752 64.0
102.912033 92.0
102.930206 152.0
102.956459 172.0
102.977394 124.0
102.990791 124.0
103.019073 116.0
103.053421 152.0
103.079689 140.0
103.099892 256.0
103.130287 132.0
103.157524 168.0
103.188835 108.0
103.209053 208.0
103.241402 180.0
103.267693 172.0
103.300652 136.0
103.337677 148.0
103.354683 236.0
103.401512 172.0
103.456497 180.0
103.472961 264.0
103.498238 152.0
103.579399 164.0
103.60495 228.0
103.638153 192.0
103.656387 152.0
103.700165 160.0
103.735107 152.0
103.761787 176.0
103.789551 196.0
103.825089 140.0
103.844925 212.0
103.877022 160.0
103.905365 196.0
103.927422 168.0
103.973778 172.0
103.997093 268.0
104.034264 160.0
104.053566 156.0
104.058434 128.0
104.067032 184.0
104.091179 192.0
104.150841 100.0
104.169945 160.0
104.188446 204.0
104.238762 136.0
104.259087 184.0
104.310234 200.0
104.354622 104.0
104.379326 108.0
104.40139 104.0
104.444992 256.0
104.46241 172.0
104.521408 144.0
104.549896 248.0
104.580894 164.0
104.598236 112.0
104.631317 156.0
104.756462 160.0
104.77668 212.0
104.802628 176.0
104.824814 92.0
104.851128 140.0
104.94915 188.0
104.966698 132.0
104.980385 164.0
105.017479 180.0
105.036842 152.0
105.054626 200.0
105.080292 120.0
105.093521 240.0
105.111305 176.0
105.132736 128.0
105.1651 340.0
105.183754 60.0
105.200089 164.0
105.228668 152.0
105.247047 120.0
105.265419 356.0
105.312622 144.0
105.33078 184.0
105.365501 56.0
105.390205 180.0
105.406364 48.0
105.426804 140.0
105.456795 136.0
105.514694 160.0
105.537186 172.0
105.565811 212.0
105.600578 88.0
105.629211 88.0
105.645576 120.0
105.69059 144.0
105.738815 260.0
105.789558 180.0
105.808128 196.0
105.822365 136.0
105.860245 172.0
105.868355 152.0
105.911385 136.0
105.944458 324.0
105.976624 160.0
105.991585 224.0
106.035774 156.0
106.056648 208.0
106.085861 132.0
106.102257 164.0
106.150864 368.0
106.182228 136.0
106.196587 136.0
106.229713 264.0
106.272484 164.0
106.287956 200.0
106.30822 180.0
106.346367 48.0
106.368942 272.0
106.405891 72.0
106.420265 208.0
106.451065 148.0
106.477394 112.0
106.511665 268.0
106.570198 176.0
106.588692 208.0
106.607185 228.0
106.631851 224.0
106.662682 144.0
106.695145 212.0
106.72744 144.0
106.749031 304.0
106.803978 128.0
106.827187 112.0
106.876556 84.0
106.924141 132.0
106.971161 116.0
107.003036 240.0
107.007042 152.0
107.016861 192.0
107.03936 132.0
107.072121 108.0
107.109192 412.0
107.152451 136.0
107.170998 88.0
107.217567 140.0
107.264236 164.0
107.322182 340.0
107.347702 96.0
107.362701 132.0
107.387444 96.0
107.422516 216.0
107.451393 136.0
107.509171 40.0
107.54586 216.0
107.589668 132.0
107.610313 220.0
107.633026 136.0
107.668129 60.0
107.687599 244.0
107.745117 176.0
107.824463 172.0
107.85614 156.0
107.880951 164.0
107.943398 232.0
107.989464 156.0
108.007088 92.0
108.025703 96.0
108.074989 180.0
108.146194 224.0
108.173943 184.0
108.21196 60.0
108.25544 104.0
108.274078 212.0
108.29686 304.0
108.325859 160.0
108.363144 144.0
108.381798 156.0
108.414528 156.0
108.435677 64.0
108.453438 280.0
108.475052 140.0
108.509537 208.0
108.516396 132.0
108.523445 200.0
108.559639 176.0
108.620636 156.0
108.654564 160.0
108.677689 164.0
108.695953 180.0
108.723602 172.0
108.782059 112.0
108.787903 64.0
108.883804 152.0
108.906868 152.0
108.945717 200.0
109.008842 208.0
109.028778 276.0
109.048035 156.0
109.081184 244.0
109.114449 40.0
109.149742 148.0
109.170372 188.0
109.193466 144.0
109.216347 84.0
109.237343 128.0
109.270432 200.0
109.284996 84.0
109.322449 164.0
109.346931 152.0
109.354599 116.0
109.362892 204.0
109.385292 144.0
109.445259 104.0
109.46817 292.0
109.498589 204.0
109.504578 124.0
109.511902 140.0
109.541061 116.0
109.670036 224.0
109.69735 128.0
109.724449 128.0
109.791176 260.0
109.822777 208.0
109.84597 264.0
109.868347 152.0
109.902641 164.0
109.939987 168.0
109.980438 152.0
110.02356 128.0
110.056183 164.0
110.070801 152.0
110.085419 104.0
110.1063 72.0
110.120918 104.0
110.142502 144.0
110.158516 184.0
110.210747 152.0
110.248299 144.0
110.287102 208.0
110.325798 160.0
110.344513 72.0
110.373779 200.0
110.400963 196.0
110.419785 136.0
110.454811 212.0
110.498825 148.0
110.548721 196.0
110.62606 144.0
110.706718 340.0
110.731628 160.0
110.766632 208.0
110.817513 112.0
110.848938 136.0
110.910873 152.0
110.935219 144.0
110.986336 256.0
111.048103 56.0
111.06488 132.0
111.113129 56.0
111.128441 160.0
111.15509 224.0
111.172729 188.0
111.205093 140.0
111.257935 116.0
111.274727 196.0
111.333809 116.0
111.377502 196.0
111.47007 156.0
111.529259 216.0
111.554779 148.0
111.579361 156.0
111.625618 148.0
111.659897 160.0
111.741302 32.0
111.768753 176.0
111.829681 176.0
111.846107 164.0
111.869675 120.0
111.909958 212.0
111.932533 140.0
111.960213 148.0
112.001472 124.0
112.0439 104.0
112.086151 204.0
112.105568 120.0
112.135071 112.0
112.158257 176.0
112.179337 176.0
112.198311 180.0
112.233788 116.0
112.255013 148.0
112.302238 140.0
112.327141 128.0
112.334015 148.0
112.343163 180.0
112.37336 128.0
112.394287 152.0
112.426109 272.0
112.483093 60.0
112.52652 144.0
112.548538 40.0
112.578995 160.0
112.603447 128.0
112.635132 156.0
112.681602 188.0
112.696129 160.0
112.747108 216.0
112.795715 116.0
112.828377 196.0
112.860039 160.0
112.962639 128.0
112.99662 172.0
113.047218 232.0
113.091568 124.0
113.123718 208.0
113.148994 48.0
113.180756 144.0
113.215858 192.0
113.2444 148.0
113.265915 344.0
113.290886 116.0
113.307198 120.0
113.313583 84.0
113.319557 180.0
113.385208 140.0
113.426132 108.0
113.43457 140.0
113.477386 236.0
113.526154 132.0
113.562202 156.0
113.591904 100.0
113.608871 88.0
113.625847 220.0
113.654312 168.0
113.692909 204.0
113.700928 124.0
113.72982 152.0
113.750397 220.0
113.785583 216.0
113.831726 148.0
113.848007 204.0
113.869949 168.0
113.896416 188.0
113.914558 48.0
113.952171 204.0
113.966454 252.0
113.992607 196.0
114.022301 192.0
114.055275 108.0
114.097313 144.0
114.134384 312.0
114.171738 236.0
114.218529 224.0
114.265076 168.0
114.290855 136.0
114.320648 120.0
114.341095 256.0
114.384499 112.0
114.415855 224.0
114.472321 192.0
114.49646 116.0
114.524475 108.0
114.542961 296.0
114.561951 180.0
114.597717 164.0
114.661385 164.0
114.711227 416.0
114.748779 124.0
114.776497 120.0
114.800026 116.0
114.819145 200.0
114.855408 184.0
114.945007 120.0
115.015434 124.0
115.036781 92.0
115.062737 176.0
115.08802 204.0
115.149948 172.0
115.186256 148.0
115.214027 128.0
115.273857 436.0
115.325661 132.0
115.37645 196.0
115.399445 180.0
115.449142 100.0
115.502548 136.0
115.538979 140.0
115.630348 120.0
115.653595 320.0
115.670448 348.0
115.727318 176.0
115.806549 152.0
115.84082 148.0
115.8601 168.0
115.875099 124.0
115.897652 112.0
115.91391 140.0
115.932953 252.0
115.968674 244.0
116.014397 96.0
116.031517 168.0
116.103157 172.0
116.140915 100.0
116.166656 140.0
116.187263 92.0
116.215996 176.0
116.242683 192.0
116.373413 164.0
116.476402 280.0
116.501534 136.0
116.520866 116.0
116.581032 108.0
116.621864 44.0
116.659866 124.0
116.68969 204.0
116.776672 156.0
116.792686 232.0
116.819687 156.0
116.834747 128.0
116.918663 128.0
116.945374 136.0
116.987541 84.0
117.024139 180.0
117.064308 116.0
117.080124 268.0
117.118889 116.0
117.243851 152.0
117.267128 160.0
117.286957 164.0
117.31929 232.0
117.346794 132.0
117.351028 100.0
117.3592 204.0
117.405907 188.0
117.460579 368.0
117.487503 152.0
117.515549 144.0
117.556709 104.0
117.591072 104.0
117.643242 212.0
117.67627 200.0
117.692238 116.0
117.7314 160.0
117.750793 140.0
117.766273 192.0
117.798355 136.0
117.821243 152.0
117.843155 168.0
117.862244 384.0
117.880455 128.0
117.930611 76.0
117.957329 180.0
118.003578 140.0
118.032906 144.0
118.053391 164.0
118.070114 180.0
118.094482 132.0
118.122231 164.0
118.14106 180.0
118.194633 176.0
118.21563 132.0
118.287407 244.0
118.349838 96.0
118.375824 216.0
118.404381 148.0
118.442131 264.0
118.490616 88.0
118.546715 148.0
118.553848 132.0
118.558289 172.0
118.579262 184.0
118.642563 160.0
118.668198 184.0
118.697784 172.0
118.741661 172.0
118.746094 140.0
118.770256 156.0
118.833168 200.0
118.889587 152.0
118.936378 164.0
118.95253 132.0
118.980751 68.0
119.00029 32.0
119.01757 176.0
119.033401 192.0
119.119728 76.0
119.210983 180.0
119.239235 104.0
119.272636 336.0
119.345749 176.0
119.36097 144.0
119.394714 248.0
119.461014 92.0
119.482773 200.0
119.511055 156.0
119.538971 164.0
119.566963 52.0
119.5886 164.0
119.617226 132.0
119.645988 128.0
119.679337 152.0
119.683586 180.0
119.692741 152.0
119.699287 172.0
119.733269 96.0
119.768951 180.0
119.800339 248.0
119.853767 192.0
119.896149 184.0
119.941864 160.0
119.947136 132.0
119.956009 192.0
119.972763 144.0
120.004814 180.0
120.011429 120.0
120.090515 224.0
120.107964 140.0
120.127426 104.0
120.173042 240.0
120.195412 96.0
120.26506 172.0
120.297806 140.0
120.339287 80.0
120.376045 172.0
120.425842 132.0
120.452003 208.0
120.498718 116.0
120.514015 192.0
120.540237 140.0
120.563255 124.0
120.602837 328.0
120.649513 228.0
120.667007 252.0
120.712921 296.0
120.732109 160.0
120.752602 112.0
120.778534 124.0
120.820091 180.0
120.841972 204.0
120.874794 228.0
120.916374 68.0
121.006119 324.0
121.044518 348.0
121.078377 148.0
121.177032 216.0
121.213577 156.0
121.297478 404.0
121.325974 192.0
121.383018 116.0
121.483871 424.0
121.523361 160.0
121.553024 156.0
121.601204 244.0
121.661621 200.0
121.707726 180.0
121.740669 172.0
121.7938 288.0
121.824074 316.0
121.831352 236.0
121.870262 148.0
121.909813 128.0
121.935936 104.0
121.977951 176.0
122.039505 288.0
122.083481 228.0
122.129669 180.0
122.171463 120.0
122.193459 144.0
122.237465 152.0
122.299088 188.0
122.322044 364.0
122.356323 108.0
122.391548 152.0
122.424675 180.0
122.452042 144.0
122.47303 152.0
122.501663 232.0
122.5187 180.0
122.563354 164.0
122.622849 140.0
122.642685 196.0
122.69339 112.0
122.722046 92.0
122.779961 184.0
122.832314 248.0
122.84996 96.0
122.874229 140.0
122.898186 168.0
122.939934 156.0
122.954582 116.0
122.991188 80.0
123.02668 240.0
123.052086 176.0
123.144768 148.0
123.181084 124.0
123.209801 132.0
123.284599 192.0
123.315865 140.0
123.373337 104.0
123.414238 208.0
123.429581 100.0
123.435959 148.0
123.481682 184.0
123.522697 184.0
123.545113 124.0
123.560387 200.0
123.585655 168.0
123.638618 124.0
123.669746 160.0
123.701881 108.0
123.721649 196.0
123.798149 52.0
123.838463 204.0
123.896812 308.0
123.902603 204.0
123.909554 136.0
123.939919 284.0
123.987335 140.0
124.046295 140.0
124.061813 120.0
124.110588 156.0
124.133873 136.0
124.161591 192.0
124.179329 272.0
124.211044 188.0
124.24366 144.0
124.270279 100.0
124.290848 152.0
124.316879 152.0
124.352028 172.0
124.37236 184.0
124.393356 96.0
124.445618 160.0
124.474487 112.0
124.513283 76.0
124.538887 40.0
124.574432 108.0
124.628326 292.0
124.6633 148.0
124.696632 216.0
124.713341 132.0
124.862282 152.0
124.934555 124.0
124.970154 128.0
125.005089 160.0
125.011078 112.0
125.034081 132.0
125.05938 208.0
125.076767 172.0
125.103683 112.0
125.136154 272.0
125.170479 140.0
125.237289 104.0
125.270699 156.0
125.308571 100.0
125.339767 120.0
125.359818 140.0
125.413307 196.0
125.460114 148.0
125.490051 140.0
125.498657 196.0
125.515854 152.0
125.569374 164.0
125.618446 88.0
125.647446 128.0
125.684288 152.0
125.73893 164.0
125.759018 340.0
125.776878 164.0
125.823753 132.0
125.846077 192.0
125.881294 192.0
125.907768 96.0
125.930939 104.0
125.98455 132.0
126.011353 128.0
126.030334 152.0
126.081284 244.0
126.111916 192.0
126.167793 128.0
126.208038 172.0
126.271049 204.0
126.341141 168.0
126.398163 156.0
126.425018 196.0
126.44487 184.0
126.472015 320.0
126.522278 168.0
126.559372 180.0
126.576164 140.0
126.611794 148.0
126.686981 132.0
126.707031 152.0
126.729546 116.0
126.794533 196.0
126.824837 136.0
126.855049 108.0
126.886436 80.0
126.90213 80.0
126.931274 224.0
126.956924 128.0
127.018745 184.0
127.050148 156.0
127.081772 336.0
127.132889 184.0
127.180504 160.0
127.199112 148.0
127.238663 40.0
127.265671 132.0
127.308937 156.0
127.339706 204.0
127.372948 180.0
127.417236 128.0
127.440796 396.0
127.496803 164.0
127.504303 152.0
127.523026 128.0
127.548943 140.0
127.5783 152.0
127.62735 184.0
127.669968 132.0
127.684006 164.0
127.709648 124.0
127.742043 156.0
127.764542 76.0
127.780289 128.0
127.81501 148.0
127.896507 260.0
127.942551 364.0
127.96563 184.0
128.008636 164.0
128.023376 192.0
128.051712 580.0
128.111618 256.0
128.145493 388.0
128.162064 188.0
128.221542 128.0
128.305038 192.0
128.320175 168.0
128.34787 60.0
128.392975 148.0
128.417709 124.0
128.426498 120.0
128.445435 200.0
128.552292 180.0
128.610306 156.0
128.636398 200.0
128.670197 208.0
128.690582 180.0
128.695892 132.0
128.749634 352.0
128.803741 152.0
128.844406 136.0
128.880386 52.0
128.905411 60.0
128.958221 184.0
129.025818 168.0
129.054993 244.0
129.072418 172.0
129.122665 156.0
129.147141 168.0
129.194809 96.0
129.21402 164.0
129.253296 160.0
129.297913 176.0
129.334213 412.0
129.351715 212.0
129.412079 176.0
129.439819 252.0
129.449142 196.0
129.495865 220.0
129.563812 140.0
129.588745 136.0
129.607651 144.0
129.623199 132.0
129.642227 228.0
129.665283 72.0
129.671509 152.0
129.69072 48.0
129.724716 96.0
129.754181 208.0
129.815399 148.0
129.861328 208.0
129.896423 108.0
129.928818 148.0
129.957703 152.0
130.029846 416.0
130.070801 140.0
130.109436 196.0
130.146393 120.0
130.185287 148.0
130.21936 144.0
130.244339 140.0
130.28978 100.0
130.310562 164.0
130.327301 116.0
130.334457 60.0
130.34288 96.0
130.398849 124.0
130.423843 116.0
130.491592 164.0
130.532974 236.0
130.580734 152.0
130.651367 152.0
130.67717 196.0
130.705841 364.0
130.751419 148.0
130.854965 164.0
130.86972 332.0
130.887939 120.0
130.979034 224.0
130.99498 156.0
131.038269 168.0
131.059952 124.0
131.10434 128.0
131.122116 256.0
131.170441 152.0
131.200073 108.0
131.248688 100.0
131.263916 148.0
131.302689 164.0
131.330933 280.0
131.368835 156.0
131.421295 228.0
131.441833 180.0
131.480637 184.0
131.501175 32.0
131.518158 208.0
131.536438 168.0
131.555954 140.0
131.592484 176.0
131.64798 196.0
131.688385 104.0
131.759201 112.0
131.873184 136.0
131.880692 240.0
131.916885 516.0
131.946594 188.0
132.01062 176.0
132.032486 164.0
132.053406 136.0
132.131851 168.0
132.162277 148.0
132.186188 272.0
132.225662 164.0
132.246429 160.0
132.270554 184.0
132.303482 140.0
132.369888 192.0
132.388565 100.0
132.41568 132.0
132.438995 200.0
132.483017 112.0
132.50502 128.0
132.523346 156.0
132.556122 172.0
132.736511 188.0
132.766327 140.0
132.795639 92.0
132.837097 164.0
132.854034 184.0
132.876419 148.0
132.940674 80.0
132.995758 180.0
133.018707 180.0
133.055969 188.0
133.088196 540.0
133.133499 164.0
133.169281 228.0
133.180771 152.0
133.203003 228.0
133.246048 196.0
133.29744 144.0
133.319046 204.0
133.36554 180.0
133.420715 120.0
133.47287 180.0
133.495804 220.0
133.501831 144.0
133.581696 228.0
133.617081 188.0
133.646103 184.0
133.665543 164.0
133.692123 220.0
133.740463 64.0
133.756958 144.0
133.832764 160.0
133.877731 208.0
133.903931 220.0
133.932358 220.0
133.979935 220.0
133.996063 184.0
134.014496 92.0
134.042999 140.0
134.082733 144.0
134.115891 192.0
134.139328 120.0
134.171219 276.0
134.187363 116.0
134.208099 104.0
134.279587 204.0
134.309494 124.0
134.332916 168.0
134.350784 144.0
134.383392 124.0
134.422623 180.0
134.45723 144.0
134.491928 176.0
134.542633 176.0
134.59343 212.0
134.69043 84.0
134.718155 156.0
134.750488 196.0
134.797531 168.0
134.81691 156.0
134.833679 168.0
134.868637 156.0
134.898987 172.0
134.932449 200.0
134.988556 184.0
135.058868 280.0
135.072433 152.0
135.192123 196.0
135.230682 312.0
135.275452 100.0
135.319443 160.0
135.376556 192.0
135.474609 88.0
135.523651 208.0
135.61348 184.0
135.650711 48.0
135.676666 164.0
135.743454 104.0
135.794647 324.0
135.829269 208.0
135.859421 76.0
135.894623 140.0
135.942947 120.0
135.968369 164.0
135.996277 164.0
136.028824 116.0
136.077576 40.0
136.1008 116.0
136.126328 140.0
136.168137 188.0
136.186722 124.0
136.239822 116.0
136.32843 184.0
136.344696 116.0
136.367935 116.0
136.391068 168.0
136.417648 156.0
136.437393 180.0
136.466095 160.0
136.490417 176.0
136.498978 120.0
136.560913 160.0
136.614548 136.0
136.658112 220.0
136.679565 196.0
136.708252 120.0
136.734863 188.0
136.770325 164.0
136.826187 40.0
136.851807 296.0
136.885269 224.0
136.930969 104.0
136.951935 104.0
136.986618 224.0
137.003174 140.0
137.07074 76.0
137.088028 348.0
137.14299 256.0
137.221512 140.0
137.26561 200.0
137.287537 104.0
137.324844 156.0
137.371506 188.0
137.387833 208.0
137.51384 140.0
137.590866 188.0
137.656235 108.0
137.682404 156.0
137.70575 180.0
137.738678 176.0
137.803391 116.0
137.882843 184.0
137.912766 224.0
137.932571 148.0
137.996384 84.0
138.013748 156.0
138.035187 140.0
138.090851 128.0
138.106216 256.0
138.145828 284.0
138.17981 136.0
138.230331 216.0
138.257019 176.0
138.299881 116.0
138.342728 188.0
138.359085 152.0
138.381088 108.0
138.413864 172.0
138.447067 180.0
138.498932 136.0
138.53331 152.0
138.556732 160.0
138.601242 356.0
138.645767 76.0
138.697327 60.0
138.746445 160.0
138.774689 44.0
138.791107 136.0
138.815125 196.0
138.841003 144.0
138.870834 56.0
138.887253 172.0
138.930328 228.0
138.995804 148.0
139.037064 108.0
139.060883 88.0
139.092987 212.0
139.15625 224.0
139.183212 144.0
139.197571 180.0
139.22052 120.0
139.241653 332.0
139.258102 124.0
139.298035 148.0
139.336395 180.0
139.370865 184.0
139.398743 148.0
139.44136 192.0
139.463654 248.0
139.525986 48.0
139.551987 132.0
139.583511 200.0
139.602234 212.0
139.636017 180.0
139.69548 148.0
139.774582 280.0
139.798813 168.0
139.8853 172.0
139.932983 176.0
139.963593 280.0
139.997253 192.0
140.063736 200.0
140.079651 144.0
140.099274 132.0
140.126114 192.0
140.142609 164.0
140.169067 240.0
140.186432 236.0
140.224655 260.0
140.269867 188.0
140.308975 228.0
140.331161 156.0
140.354568 172.0
140.385391 140.0
140.460861 168.0
140.498596 120.0
140.515121 180.0
140.555222 96.0
140.597702 160.0
140.614227 68.0
140.647263 156.0
140.689758 136.0
140.720642 288.0
140.747253 148.0
140.771744 176.0
140.79837 84.0
140.831436 116.0
140.847961 180.0
140.890488 116.0
140.921249 184.0
140.942459 156.0
141.023438 212.0
141.063004 44.0
141.089005 212.0
141.12204 148.0
141.157562 188.0
141.190674 148.0
141.21196 124.0
141.230148 180.0
141.268723 180.0
141.3255 188.0
141.389389 92.0
141.426239 240.0
141.47496 160.0
141.519333 188.0
141.533905 180.0
141.570572 188.0
141.590149 200.0
141.619598 204.0
141.664047 100.0
141.697861 192.0
141.712967 148.0
141.7612 40.0
141.814789 252.0
141.834198 200.0
141.893921 128.0
141.912888 148.0
141.93187 292.0
141.953827 160.0
141.985611 180.0
142.048065 112.0
142.078903 104.0
142.131104 116.0
142.154831 128.0
142.18631 152.0
142.27713 120.0
142.300751 196.0
142.318619 200.0
142.349487 184.0
142.404114 100.0
142.421799 136.0
142.439728 120.0
142.462067 120.0
142.4832 244.0
142.528885 156.0
142.612244 104.0
142.64505 128.0
142.672607 372.0
142.734436 148.0
142.76059 92.0
142.795441 264.0
142.917587 132.0
142.964584 228.0
143.062149 140.0
143.14978 144.0
143.17424 156.0
143.253265 176.0
143.288147 156.0
143.349716 248.0
143.365891 164.0
143.408142 124.0
143.438721 140.0
143.454773 156.0
143.48526 192.0
143.509018 232.0
143.541336 124.0
143.572647 204.0
143.660904 156.0
143.69191 120.0
143.727692 128.0
143.774582 148.0
143.820572 188.0
143.847031 220.0
143.873291 160.0
143.899551 164.0
143.930969 152.0
143.96402 188.0
143.985504 156.0
144.023727 144.0
144.046768 160.0
144.081055 180.0
144.106766 168.0
144.144699 364.0
144.202911 124.0
144.241165 184.0
144.271225 236.0
144.288971 228.0
144.322449 144.0
144.346359 176.0
144.389313 224.0
144.404846 228.0
144.455414 332.0
144.478531 124.0
144.49704 132.0
144.528137 84.0
144.562286 120.0
144.606522 132.0
144.623871 148.0
144.710052 160.0
144.733994 136.0
144.754028 156.0
144.774704 164.0
144.801041 124.0
144.823334 220.0
144.885651 112.0
145.091431 188.0
145.096115 220.0
145.172501 272.0
145.227661 184.0
145.26358 332.0
145.315399 132.0
145.397995 160.0
145.419601 168.0
145.438797 152.0
145.463043 160.0
145.491608 68.0
145.545334 256.0
145.579559 172.0
145.633286 140.0
145.670944 176.0
145.694443 148.0
145.721115 208.0
145.771133 92.0
145.792328 160.0
145.815887 100.0
145.834976 220.0
145.855911 128.0
145.864471 164.0
145.898224 172.0
145.921646 168.0
145.957718 268.0
145.979355 148.0
145.999878 132.0
146.038925 460.0
146.062531 552.0
146.110825 184.0
146.140518 184.0
146.174377 160.0
146.217514 288.0
146.239182 88.0
146.256027 188.0
146.29454 152.0
146.330643 192.0
146.368103 108.0
146.404388 64.0
146.461929 296.0
146.498611 156.0
146.547409 144.0
146.589828 192.0
146.623917 176.0
146.660675 132.0
146.743286 164.0
146.766739 124.0
146.827026 44.0
146.851151 176.0
146.882843 172.0
146.94281 44.0
146.96817 100.0
146.986237 132.0
147.021103 224.0
147.04248 180.0
147.061874 176.0
147.12381 100.0
147.229065 128.0
147.26387 136.0
147.285736 152.0
147.376938 124.0
147.415665 192.0
147.425247 160.0
147.457153 148.0
147.485535 172.0
147.5345 132.0
147.574249 208.0
147.591217 96.0
147.643295 152.0
147.66507 136.0
147.681992 124.0
147.730377 216.0
147.790863 68.0
147.835403 128.0
147.875549 132.0
147.892502 144.0
147.910461 144.0
147.994171 152.0
148.053055 304.0
148.095871 140.0
148.164764 440.0
148.22438 148.0
148.272736 168.0
148.311523 164.0
148.353821 124.0
148.373917 184.0
148.408493 132.0
148.427887 156.0
148.444855 124.0
148.546722 132.0
148.670456 136.0
148.700134 124.0
148.723862 224.0
148.774826 160.0
148.848175 192.0
148.905945 128.0
148.945648 140.0
148.993393 228.0
149.020721 112.0
149.083298 204.0
149.135666 124.0
149.17067 236.0
149.20726 76.0
149.236435 148.0
149.287491 176.0
149.339905 168.0
149.350006 140.0
149.419815 80.0
149.443176 344.0
149.467499 172.0
149.507233 184.0
149.55159 144.0
149.571945 140.0
149.652481 56.0
149.67926 140.0
149.71579 120.0
149.740143 156.0
149.757202 160.0
149.861938 208.0
149.917984 48.0
149.948318 144.0
149.983795 136.0
150.050003 224.0
150.076431 120.0
150.161285 176.0
150.19104 116.0
150.239548 176.0
150.246429 148.0
150.253189 340.0
150.336121 200.0
150.354507 128.0
150.395859 356.0
150.422852 212.0
150.465576 208.0
150.500977 116.0
150.526184 168.0
150.553284 216.0
150.637741 40.0
150.701263 56.0
150.72699 188.0
150.747681 320.0
150.781693 188.0
150.801422 164.0
150.921234 140.0
150.977478 72.0
150.998581 240.0
151.031281 152.0
151.053848 680.0
151.072464 320.0
151.094666 208.0
151.137161 112.0
151.165833 124.0
151.209045 176.0
151.272202 156.0
151.31514 160.0
151.351868 72.0
151.392532 152.0
151.407639 36.0
151.454727 148.0
151.485748 176.0
151.525757 156.0
151.585571 156.0
151.610458 128.0
151.633575 456.0
151.686707 176.0
151.727844 232.0
151.768402 188.0
151.786407 176.0
151.900833 120.0
151.91713 192.0
151.970734 236.0
151.986542 120.0
152.040604 128.0
152.04393 124.0
152.084625 200.0
152.116776 144.0
152.148682 132.0
152.17569 152.0
152.205063 104.0
152.247406 168.0
152.268997 168.0
152.31813 260.0
152.358398 184.0
152.389374 164.0
152.410599 112.0
152.415573 72.0
152.425125 160.0
152.44342 148.0
152.495041 96.0
152.54361 136.0
152.560989 216.0
152.608109 136.0
152.62738 172.0
152.671677 184.0
152.69664 116.0
152.743362 132.0
152.769547 168.0
152.850662 172.0
152.862808 80.0
152.869858 136.0
152.89064 140.0
152.91806 164.0
152.952515 124.0
153.016937 236.0
153.071671 364.0
153.137192 136.0
153.20517 160.0
153.256149 192.0
153.304932 132.0
153.366318 296.0
153.419693 208.0
153.509903 84.0
153.54631 216.0
153.562103 180.0
153.578369 188.0
153.623749 240.0
153.649902 152.0
153.689377 124.0
153.711258 328.0
153.751068 144.0
153.768341 132.0
153.83342 332.0
153.861877 148.0
153.946091 56.0
153.965851 156.0
153.993423 172.0
154.037247 172.0
154.04953 132.0
154.053146 116.0
154.069534 164.0
154.094299 100.0
154.111588 148.0
154.136292 236.0
154.164673 176.0
154.215378 152.0
154.259018 404.0
154.306839 132.0
154.326614 124.0
154.346405 132.0
154.41774 148.0
154.458176 184.0
154.487366 132.0
154.525711 160.0
154.560211 228.0
154.635834 108.0
154.677917 188.0
154.702667 96.0
154.729904 28.0
154.834961 192.0
154.87352 48.0
154.899536 144.0
154.942886 196.0
154.967651 120.0
155.010498 208.0
155.034805 124.0
155.05687 140.0
155.089737 192.0
155.123978 152.0
155.171951 168.0
155.327118 172.0
155.390244 184.0
155.4328 60.0
155.596191 168.0
155.612503 364.0
155.66658 144.0
155.702728 108.0
155.754883 96.0
155.813675 128.0
155.843491 148.0
155.860886 112.0
155.878265 136.0
155.902771 172.0
155.943359 256.0
155.959457 144.0
155.990112 180.0
156.024918 128.0
156.0448 176.0
156.072159 156.0
156.124374 288.0
156.24678 152.0
156.31369 172.0
156.338318 156.0
156.355042 128.0
156.415466 144.0
156.435379 216.0
156.457779 292.0
156.482681 104.0
156.500107 172.0
156.517548 116.0
156.554886 152.0
156.574814 48.0
156.631729 188.0
156.701859 180.0
156.722641 196.0
156.745773 108.0
156.775238 196.0
156.796539 136.0
156.81398 200.0
156.856354 120.0
156.886917 200.0
156.910049 112.0
156.941116 208.0
156.963562 164.0
157.006836 136.0
157.037079 136.0
157.07579 140.0
157.097672 240.0
157.164261 204.0
157.190552 184.0
157.240463 148.0
157.272903 128.0
157.309265 184.0
157.332565 156.0
157.37706 216.0
157.427185 212.0
157.445175 184.0
157.464279 136.0
157.48764 48.0
157.523956 260.0
157.54509 144.0
157.593124 176.0
157.628769 428.0
157.665024 160.0
157.685013 140.0
157.710052 204.0
157.736481 128.0
157.757507 136.0
157.787506 176.0
157.820007 36.0
157.847504 104.0
157.874039 216.0
157.922394 140.0
157.926437 64.0
157.954422 168.0
158.015778 172.0
158.052048 148.0
158.137695 204.0
158.209198 184.0
158.266464 164.0
158.29541 112.0
158.329407 216.0
158.385574 108.0
158.408127 160.0
158.480942 236.0
158.520859 256.0
158.560959 168.0
158.61293 120.0
158.642197 300.0
158.691299 164.0
158.728912 156.0
158.794113 260.0
158.813004 144.0
158.868591 132.0
158.910797 256.0
158.972244 180.0
158.999847 172.0
159.070114 156.0
159.110291 192.0
159.132874 148.0
159.169052 188.0
159.197067 256.0
159.220337 164.0
159.251282 156.0
159.276016 176.0
159.313705 180.0
159.347763 180.0
159.384048 52.0
159.411682 164.0
159.456924 176.0
159.504593 120.0
159.539871 32.0
159.640442 136.0
159.705826 156.0
159.723434 132.0
159.800705 140.0
159.817245 140.0
159.859299 164.0
159.907104 172.0
159.94487 84.0
159.967514 148.0
159.985138 176.0
160.118988 76.0
160.168961 116.0
160.213669 112.0
160.244492 196.0
160.289139 200.0
160.316666 204.0
160.35289 204.0
160.4319 316.0
160.461288 168.0
160.478928 76.0
160.531876 112.0
160.557098 116.0
160.655472 96.0
160.683212 116.0
160.705933 124.0
160.739639 356.0
160.804337 108.0
160.852295 164.0
160.895721 176.0
160.933075 124.0
160.97554 152.0
161.02182 140.0
161.061493 156.0
161.077728 160.0
161.112396 44.0
161.130081 204.0
161.19072 160.0
161.229996 236.0
161.281693 200.0
161.327194 144.0
161.347427 216.0
161.372711 232.0
161.408096 172.0
161.440979 148.0
161.461212 144.0
161.502304 96.0
161.520493 228.0
161.592743 168.0
161.620575 304.0
161.691757 124.0
161.729385 152.0
161.749634 176.0
161.78746 132.0
161.820526 172.0
161.87117 172.0
161.923492 204.0
161.947144 76.0
161.980072 116.0
162.013474 148.0
162.089005 180.0
162.127731 156.0
162.201523 212.0
162.251221 124.0
162.336853 124.0
162.362167 232.0
162.36998 176.0
162.375809 204.0
162.398285 140.0
162.444717 92.0
162.472733 196.0
162.502289 128.0
162.522583 148.0
162.554825 176.0
162.580948 128.0
162.611572 120.0
162.66217 140.0
162.701218 148.0
162.725632 72.0
162.75325 160.0
162.805389 160.0
162.850067 132.0
162.924561 220.0
162.949432 168.0
162.969452 112.0
162.987244 184.0
163.05452 280.0
163.081268 160.0
163.107086 152.0
163.128418 108.0
163.177872 212.0
163.226181 136.0
163.295044 164.0
163.394043 104.0
163.447479 56.0
163.569489 144.0
163.610367 180.0
163.644684 208.0
163.683762 200.0
163.723404 392.0
163.751709 172.0
163.775879 212.0
163.811539 148.0
163.848602 204.0
163.916 124.0
163.969513 212.0
164.008728 228.0
164.048706 256.0
164.147507 156.0
164.154495 128.0
164.186417 184.0
164.217224 172.0
164.25499 116.0
164.288239 56.0
164.34436 92.0
164.368942 132.0
164.40329 148.0
164.479614 64.0
164.524536 352.0
164.580734 132.0
164.596161 228.0
164.614929 164.0
164.656631 108.0
164.691544 152.0
164.719635 124.0
164.747208 228.0
164.888275 40.0
164.916382 160.0
164.944504 176.0
164.968369 156.0
165.067566 268.0
165.131149 228.0
165.159943 204.0
165.269287 76.0
165.299118 188.0
165.335312 184.0
165.342148 152.0
165.372147 148.0
165.409653 180.0
165.414627 152.0
165.425888 148.0
165.430969 180.0
165.468918 124.0
165.497086 180.0
165.527817 184.0
165.582428 208.0
165.632812 72.0
165.660065 192.0
165.681488 160.0
165.712234 220.0
165.7686 120.0
165.79422 460.0
165.830109 148.0
165.860855 108.0
165.889053 224.0
165.932281 236.0
166.019379 184.0
166.03511 236.0
166.083939 44.0
166.210022 188.0
166.246552 296.0
166.266739 128.0
166.309723 144.0
166.332825 136.0
166.354156 168.0
166.376465 192.0
166.486679 156.0
166.615112 160.0
166.651276 88.0
166.722961 236.0
166.743774 184.0
166.761765 116.0
166.80925 132.0
166.891617 160.0
166.921158 132.0
166.946869 156.0
167.011169 96.0
167.03688 120.0
167.07547 120.0
167.119217 148.0
167.18869 108.0
167.216812 152.0
167.271042 180.0
167.391281 228.0
167.440979 300.0
167.482193 56.0
167.510452 152.0
167.562042 88.0
167.581924 168.0
167.665115 156.0
167.752747 152.0
167.779099 160.0
167.836731 160.0
167.861038 72.0
167.881653 140.0
167.902298 156.0
167.941513 116.0
167.947403 188.0
168.002121 216.0
168.011841 152.0
168.020233 288.0
168.029205 360.0
168.07254 292.0
168.107147 204.0
168.133148 176.0
168.170609 176.0
168.298721 140.0
168.382309 112.0
168.42511 244.0
168.493958 364.0
168.54248 200.0
168.565964 180.0
168.627747 140.0
168.669403 152.0
168.748428 152.0
168.875961 308.0
168.917343 188.0
168.966492 296.0
169.015656 212.0
169.059494 148.0
169.076523 292.0
169.100235 256.0
169.173523 36.0
169.240829 96.0
169.261551 104.0
169.313339 156.0
169.344421 148.0
169.437424 168.0
169.483078 176.0
169.521317 184.0
169.550659 156.0
169.617233 152.0
169.637207 208.0
169.657959 160.0
169.690842 152.0
169.713577 152.0
169.739868 196.0
169.761658 192.0
169.814026 212.0
169.923828 308.0
169.958801 160.0
169.999527 196.0
170.048843 452.0
170.103058 96.0
170.123535 160.0
170.13002 132.0
170.161255 132.0
170.191498 196.0
170.222229 188.0
170.259918 172.0
170.306671 60.0
170.366409 208.0
170.392395 208.0
170.431915 168.0
170.472046 128.0
170.513443 156.0
170.543106 200.0
170.590759 96.0
170.618484 220.0
170.67569 144.0
170.697327 212.0
170.756302 184.0
170.813522 164.0
170.852539 248.0
170.909775 112.0
170.935608 160.0
170.965012 196.0
171.011276 216.0
171.057922 308.0
171.089355 48.0
171.129532 196.0
171.171249 212.0
171.193512 140.0
171.232574 144.0
171.267654 212.0
171.345306 404.0
171.375839 228.0
171.421417 248.0
171.445114 116.0
171.47998 180.0
171.517868 196.0
171.563766 152.0
171.615631 132.0
171.712112 84.0
171.73558 96.0
171.790039 220.0
171.85405 132.0
171.884293 156.0
171.902557 144.0
171.92067 136.0
171.941696 176.0
171.961517 196.0
172.005646 216.0
172.027084 140.0
172.060211 420.0
172.116516 148.0
172.185547 176.0
172.223663 180.0
172.254868 140.0
172.328156 164.0
172.380554 160.0
172.407089 196.0
172.459137 144.0
172.498032 284.0
172.52417 148.0
172.615677 144.0
172.636185 176.0
172.661453 332.0
172.712448 168.0
172.733368 240.0
172.754288 156.0
172.792603 180.0
172.842438 180.0
172.866791 200.0
172.887726 152.0
172.926987 44.0
173.040588 160.0
173.070969 88.0
173.110031 132.0
173.183578 196.0
173.212387 144.0
173.251678 104.0
173.276352 192.0
173.318665 232.0
173.360703 176.0
173.383392 104.0
173.435104 176.0
173.512817 316.0
173.540375 204.0
173.623779 108.0
173.671082 92.0
173.723053 216.0
173.778641 96.0
173.823242 140.0
173.852966 208.0
173.903992 176.0
173.979706 184.0
174.0 148.0
174.041107 144.0
174.071136 128.0
174.146149 136.0
174.180283 180.0
174.230255 180.0
174.261734 352.0
174.301468 228.0
174.326019 188.0
174.351944 144.0
174.382523 128.0
174.427292 88.0
174.445694 148.0
174.477234 68.0
174.495636 144.0
174.535568 172.0
174.583588 128.0
174.649307 204.0
174.706909 180.0
174.745483 232.0
174.787582 72.0
174.815781 404.0
174.860428 200.0
174.908646 112.0
174.927078 124.0
175.002029 192.0
175.055115 316.0
175.129822 164.0
175.174606 140.0
175.195679 100.0
175.232559 216.0
175.27356 320.0
175.310791 52.0
175.358658 164.0
175.38826 156.0
175.413239 248.0
175.44603 212.0
175.498749 228.0
175.525116 48.0
175.545197 124.0
175.614792 200.0
175.633255 100.0
175.668533 148.0
175.713913 180.0
175.765152 136.0
175.831741 156.0
175.870712 132.0
175.904541 128.0
175.934067 188.0
175.956329 192.0
175.986862 96.0
176.062149 1336.0
176.118469 168.0
176.161179 144.0
176.179657 36.0
176.20224 124.0
176.300644 168.0
176.343491 232.0
176.390762 104.0
176.422791 184.0
176.441299 220.0
176.477554 196.0
176.517319 164.0
176.544418 180.0
176.636978 120.0
176.655502 212.0
176.716339 388.0
176.744461 228.0
176.797806 148.0
176.840393 164.0
176.86232 148.0
176.873398 180.0
176.92012 128.0
176.93866 212.0
176.963333 108.0
177.004852 116.0
177.035263 148.0
177.070068 12036.0
177.14035 320.0
177.177002 156.0
177.212479 204.0
177.261795 120.0
177.280334 124.0
177.309494 76.0
177.424866 320.0
177.44696 176.0
177.4552 144.0
177.502151 92.0
177.518921 216.0
177.630081 140.0
177.644714 220.0
177.705994 272.0
177.735184 172.0
177.759644 128.0
177.764954 48.0
177.807053 176.0
177.834854 312.0
177.858505 188.0
177.903625 160.0
177.959381 172.0
177.981033 208.0
178.012817 140.0
178.074356 1604.0
178.138382 60.0
178.155914 124.0
178.182388 116.0
178.230301 152.0
178.268478 132.0
178.29213 196.0
178.31694 272.0
178.352539 160.0
178.393372 212.0
178.429642 68.0
178.44931 428.0
178.464706 212.0
178.510361 200.0
178.551956 160.0
178.578552 248.0
178.600235 204.0
178.671646 112.0
178.690262 124.0
178.726669 100.0
178.754333 236.0
178.766357 128.0
178.817581 180.0
178.842514 224.0
178.879211 168.0
178.900513 148.0
178.997223 148.0
179.052078 164.0
179.073792 172.0
179.132187 120.0
179.159286 140.0
179.186951 224.0
179.224472 168.0
179.24295 132.0
179.278717 180.0
179.302704 52.0
179.380005 224.0
179.409317 64.0
179.432434 108.0
179.452499 124.0
179.523972 188.0
179.545303 44.0
179.566635 152.0
179.609314 172.0
179.659714 152.0
179.669968 136.0
179.692017 152.0
179.713364 60.0
179.754883 164.0
179.77948 164.0
179.839645 148.0
179.876144 136.0
179.897507 136.0
179.916183 232.0
179.954742 172.0
179.990952 164.0
180.013855 152.0
180.041687 80.0
180.095093 220.0
180.138733 200.0
180.153564 308.0
180.18689 144.0
180.258057 188.0
180.28479 188.0
180.322205 264.0
180.452515 208.0
180.522308 220.0
180.57753 112.0
180.613632 332.0
180.639374 208.0
180.6698 144.0
180.734009 132.0
180.763123 148.0
180.808975 176.0
180.858612 236.0
180.894592 288.0
180.926712 124.0
180.961517 212.0
180.999496 172.0
181.047211 124.0
181.068466 552.0
181.115356 144.0
181.13559 148.0
181.177689 112.0
181.210602 128.0
181.366028 192.0
181.422318 144.0
181.474823 148.0
181.515427 184.0
181.547867 208.0
181.580154 120.0
181.590927 104.0
181.634155 44.0
181.68512 124.0
181.733414 216.0
181.767044 232.0
181.788528 268.0
181.832703 172.0
181.867188 212.0
181.913223 204.0
181.950806 344.0
181.993759 124.0
182.052643 212.0
182.136795 168.0
182.177643 132.0
182.213333 96.0
182.238174 116.0
182.287018 160.0
182.308044 132.0
182.337601 132.0
182.36647 168.0
182.396729 136.0
182.430099 212.0
182.478821 240.0
182.501572 336.0
182.533844 68.0
182.606461 172.0
182.721069 144.0
182.762482 132.0
182.835129 124.0
182.872803 148.0
182.905106 80.0
182.929337 108.0
183.018173 156.0
183.054535 296.0
183.083511 168.0
183.168091 156.0
183.212097 124.0
183.239029 28.0
183.263275 180.0
183.280502 112.0
183.315826 204.0
183.348083 212.0
183.43576 164.0
183.484283 192.0
183.505844 200.0
183.542084 376.0
183.605621 116.0
183.670349 148.0
183.714874 148.0
183.739304 128.0
183.747833 92.0
183.807938 188.0
183.869995 64.0
183.900421 44.0
183.950974 112.0
183.977966 60.0
183.999512 176.0
184.066803 252.0
184.129181 164.0
184.20607 4764.0
184.260468 160.0
184.294983 220.0
184.340515 188.0
184.361511 224.0
184.389465 140.0
184.409256 144.0
184.451569 200.0
184.491241 144.0
184.520493 224.0
184.560593 148.0
184.590073 232.0
184.606964 120.0
184.644882 128.0
184.665771 380.0
184.685928 56.0
184.742828 360.0
184.79007 132.0
184.807663 260.0
184.834732 148.0
184.854004 288.0
184.877625 164.0
184.933777 64.0
184.942261 168.0
184.988998 160.0
185.013351 116.0
185.069641 156.0
185.164993 140.0
185.206863 732.0
185.253342 136.0
185.291763 80.0
185.346039 216.0
185.399139 208.0
185.452179 160.0
185.478897 112.0
185.523956 432.0
185.543365 168.0
185.57959 168.0
185.630875 140.0
185.653214 180.0
185.695343 276.0
185.718033 228.0
185.757568 204.0
185.795944 212.0
185.829361 168.0
185.865738 144.0
185.913223 176.0
185.96608 184.0
185.974716 152.0
186.00972 172.0
186.045898 320.0
186.067383 392.0
186.105438 396.0
186.146515 140.0
186.16806 468.0
186.174728 352.0
186.222366 175992.0
186.26973 560.0
186.332397 276.0
186.357483 236.0
186.37648 60.0
186.404938 56.0
186.4422 120.0
186.475616 72.0
186.503342 136.0
186.532547 168.0
186.552994 392.0
186.591568 100.0
186.607422 96.0
186.61348 116.0
186.635284 260.0
186.669449 792.0
186.70488 72.0
186.714188 160.0
186.735489 84.0
186.743713 116.0
186.765076 272.0
186.793655 252.0
186.855774 192.0
186.862183 232.0
186.895859 156.0
186.936859 324.0
186.98497 172.0
187.023285 268.0
187.058029 208.0
187.112793 200.0
187.153534 156.0
187.225098 20456.0
187.301743 212.0
187.375107 252.0
187.397476 164.0
187.427689 72.0
187.446548 84.0
187.475784 224.0
187.512314 192.0
187.535843 168.0
187.56485 176.0
187.614487 152.0
187.642227 244.0
187.697693 48.0
187.725647 220.0
187.74678 240.0
187.790604 164.0
187.83223 76.0
187.842178 176.0
187.851868 188.0
187.880432 32.0
187.889633 172.0
187.933258 316.0
187.962753 172.0
187.994186 252.0
188.014297 184.0
188.102783 160.0
188.108856 96.0
188.120758 120.0
188.150238 244.0
188.228088 1096.0
188.263992 76.0
188.313065 116.0
188.352234 172.0
188.381577 76.0
188.406418 328.0
188.436783 120.0
188.466156 132.0
188.506866 320.0
188.531265 284.0
188.55838 116.0
188.597244 228.0
188.625076 168.0
188.651917 144.0
188.685852 292.0
188.712814 168.0
188.740463 160.0
188.774719 104.0
188.794373 148.0
188.83519 156.0
188.876312 168.0
188.904831 192.0
188.94313 64.0
188.978699 96.0
189.025223 72.0
189.085419 40.0
189.110657 168.0
189.129211 124.0
189.180069 152.0
189.202042 152.0
189.225021 196.0
189.244034 68.0
189.265488 144.0
189.290741 28.0
189.313614 168.0
189.34111 116.0
189.366898 148.0
189.394119 80.0
189.414856 88.0
189.44696 104.0
189.512604 124.0
189.537155 156.0
189.587509 180.0
189.614075 124.0
189.657837 124.0
189.690735 132.0
189.739197 200.0
189.793304 272.0
189.847809 164.0
189.88266 36.0
189.916183 168.0
189.962204 152.0
190.033539 104.0
190.058228 160.0
190.10762 172.0
190.162506 80.0
190.209167 208.0
190.232101 124.0
190.270096 224.0
190.294266 48.0
190.348907 160.0
190.384888 68.0
190.463211 136.0
190.502991 196.0
190.53595 56.0
190.560669 188.0
190.582657 152.0
190.616592 216.0
190.659592 160.0
190.687073 148.0
190.720062 340.0
190.744797 116.0
190.782501 156.0
190.830017 104.0
190.879517 116.0
190.912506 220.0
190.962021 380.0
191.011795 120.0
191.03569 264.0
191.072037 252.0
191.105972 120.0
191.120651 96.0
191.130234 124.0
191.17363 52.0
191.220734 112.0
191.267426 204.0
191.305634 148.0
191.346451 68.0
191.410583 88.0
191.440506 148.0
191.512482 132.0
191.573395 140.0
191.618469 168.0
191.652969 124.0
191.705322 76.0
191.760437 140.0
191.807709 108.0
191.832108 224.0
191.865814 176.0
191.899719 144.0
191.946518 112.0
191.995453 184.0
192.027878 48.0
192.04718 144.0
192.078674 272.0
192.110626 140.0
192.190628 168.0
192.232025 32.0
192.262375 160.0
192.284454 132.0
192.320328 68.0
192.356461 520.0
192.398743 168.0
192.454453 144.0
192.519104 256.0
192.551666 172.0
192.601959 172.0
192.630798 168.0
192.755249 132.0
192.844666 148.0
192.86998 160.0
192.910233 160.0
193.017014 88.0
193.049683 208.0
193.071808 204.0
193.104996 124.0
193.135422 124.0
193.182449 64.0
193.290421 152.0
193.348022 152.0
193.389969 136.0
193.428726 160.0
193.450867 64.0
193.481323 56.0
193.546982 184.0
193.569916 124.0
193.614227 136.0
193.656387 228.0
193.708817 212.0
193.77211 228.0
193.790451 116.0
193.824753 108.0
193.877029 176.0
193.927292 136.0
193.955002 132.0
194.052429 340.0
194.126068 188.0
194.261993 260.0
194.314209 136.0
194.351578 136.0
194.40123 116.0
194.457031 152.0
194.499466 156.0
194.553894 120.0
194.623581 144.0
194.662338 176.0
194.697067 136.0
194.742996 136.0
194.779099 28.0
194.918015 196.0
194.955215 208.0
194.988754 220.0
195.059296 500.0
195.109787 148.0
195.137589 88.0
195.157059 140.0
195.180725 148.0
195.211731 156.0
195.250473 128.0
195.293137 124.0
195.343384 68.0
195.368423 48.0
195.396896 320.0
195.44632 104.0
195.508301 456.0
195.531189 160.0
195.538757 204.0
195.562149 168.0
195.647736 172.0
195.678696 188.0
195.711838 208.0
195.7565 212.0
195.833267 308.0
195.852768 176.0
195.875046 104.0
195.897339 128.0
195.931854 132.0
195.956879 152.0
195.986481 192.0
196.00769 164.0
196.068878 37068.0
196.124084 96.0
196.160385 100.0
196.244553 136.0
196.295883 64.0
196.329086 224.0
196.363708 232.0
196.400681 60.0
196.443695 200.0
196.467148 128.0
196.496002 48.0
196.520096 228.0
196.557571 196.0
196.630646 80.0
196.669724 152.0
196.699982 180.0
196.733749 136.0
196.769211 312.0
196.792068 152.0
196.8535 212.0
196.861267 176.0
196.880798 448.0
196.912613 52.0
196.932953 512.0
196.962616 312.0
196.994247 216.0
197.000443 316.0
197.030533 644.0
197.076996 112992.0
197.171432 144.0
197.212921 244.0
197.256073 80.0
197.275452 160.0
197.314789 192.0
197.364746 156.0
197.375595 160.0
197.380539 292.0
197.440826 48.0
197.464813 76.0
197.506638 252.0
197.537292 484.0
197.585373 180.0
197.623154 152.0
197.641556 136.0
197.677719 176.0
197.71756 176.0
197.771988 152.0
197.795334 204.0
197.822937 128.0
197.831451 92.0
197.841797 116.0
197.864792 180.0
197.888535 84.0
197.933746 108.0
197.95488 100.0
197.972534 276.0
197.992142 140.0
198.022186 168.0
198.03891 80.0
198.079849 15644.0
198.137085 208.0
198.146255 160.0
198.181335 176.0
198.209122 156.0
198.228561 188.0
198.252518 152.0
198.28717 268.0
198.309921 120.0
198.373688 68.0
198.396027 256.0
198.426834 236.0
198.482788 88.0
198.513794 344.0
198.534286 96.0
198.585587 144.0
198.602509 312.0
198.648605 264.0
198.689621 180.0
198.733536 204.0
198.765823 160.0
198.789078 56.0
198.816132 56.0
198.84227 264.0
198.877106 196.0
198.900833 112.0
198.949966 160.0
198.970367 256.0
198.993607 72.0
199.021835 116.0
199.053696 724.0
199.081085 996.0
199.139191 332.0
199.175461 308.0
199.19635 172.0
199.256989 184.0
199.298019 156.0
199.326874 104.0
199.334198 116.0
199.369568 44.0
199.408295 184.0
199.432312 120.0
199.457687 152.0
199.494598 352.0
199.540863 68.0
199.571075 140.0
199.627426 208.0
199.646469 100.0
199.675354 52.0
199.715378 152.0
199.749557 52.0
199.8284 112.0
199.838715 52.0
199.845978 84.0
199.9095 216.0
199.929199 64.0
199.957336 72.0
200.010818 160.0
200.052444 192.0
200.084747 136.0
200.131317 104.0
200.179733 124.0
200.22197 48.0
200.250137 80.0
200.272675 160.0
200.306473 156.0
200.346069 180.0
200.368439 40.0
200.410706 152.0
200.50087 160.0
200.551605 88.0
200.588257 48.0
200.630539 36.0
200.687042 212.0
200.740005 184.0
200.808182 196.0
200.827927 160.0
200.857254 140.0
201.01976 52.0
201.065689 252.0
201.115463 136.0
201.147888 184.0
201.189102 180.0
201.21109 132.0
201.239319 168.0
201.262512 172.0
201.302048 176.0
201.324631 68.0
201.365295 152.0
201.424515 132.0
201.46521 172.0
201.483047 160.0
201.505402 228.0
201.536865 208.0
201.57605 124.0
201.595825 176.0
201.662781 144.0
201.68428 208.0
201.748444 160.0
201.783524 164.0
201.875961 164.0
201.914291 188.0
201.960526 128.0
202.033554 292.0
202.064011 124.0
202.099701 140.0
202.140839 168.0
202.161392 144.0
202.215698 128.0
202.238678 168.0
202.274597 160.0
202.319901 200.0
202.387848 184.0
202.435471 188.0
202.460663 84.0
202.523773 120.0
202.591751 128.0
202.631424 148.0
202.659744 88.0
202.683945 140.0
202.710754 104.0
202.735229 176.0
202.869476 64.0
202.908691 148.0
202.943176 232.0
202.978287 324.0
203.071091 500.0
203.098938 160.0
203.136032 108.0
203.167496 88.0
203.238159 128.0
203.388367 168.0
203.420624 136.0
203.490768 184.0
203.535934 136.0
203.621384 156.0
203.715637 216.0
203.843735 208.0
203.931061 68.0
203.97113 164.0
204.023819 216.0
204.040192 224.0
204.081268 25968.0
204.126373 268.0
204.189789 220.0
204.229599 60.0
204.263733 48.0
204.290146 196.0
204.329163 80.0
204.356186 160.0
204.451508 84.0
204.498978 224.0
204.610611 144.0
204.687042 188.0
204.789124 184.0
204.810242 80.0
204.843353 160.0
204.919022 108.0
205.006241 232.0
205.038177 196.0
205.083801 3504.0
205.124512 148.0
205.177841 148.0
205.273315 140.0
205.311859 64.0
205.334671 200.0
205.364227 144.0
205.412262 156.0
205.435287 180.0
205.457321 136.0
205.485855 60.0
205.51152 200.0
205.547501 236.0
205.628525 120.0
205.654205 216.0
205.747284 216.0
205.779724 132.0
205.787491 128.0
205.799927 92.0
205.806381 132.0
205.901688 88.0
205.948288 128.0
205.969711 152.0
206.007172 156.0
206.079239 444.0
206.095108 220.0
206.210358 144.0
206.25116 36.0
206.285461 56.0
206.339783 92.0
206.401932 136.0
206.44252 176.0
206.467972 168.0
206.502777 140.0
206.559982 320.0
206.637222 120.0
206.682999 92.0
206.711609 160.0
206.788879 140.0
206.832458 196.0
206.918289 172.0
206.947495 176.0
206.992126 160.0
207.03508 208.0
207.062607 668.0
207.103821 96.0
207.143921 208.0
207.194839 232.0
207.249924 56.0
207.310089 128.0
207.364548 336.0
207.4104 200.0
207.450531 164.0
207.490677 200.0
207.566177 60.0
207.656982 180.0
207.728409 168.0
207.774582 64.0
207.806152 88.0
207.843445 156.0
207.89502 144.0
207.963974 72.0
208.059967 408.0
208.147705 132.0
208.230988 188.0
208.317154 164.0
208.357376 168.0
208.401581 244.0
208.44931 128.0
208.503906 140.0
208.541275 136.0
208.56427 96.0
208.613663 220.0
208.670639 132.0
208.732269 164.0
208.759766 196.0
208.802399 180.0
208.992752 132.0
209.027283 196.0
209.064331 2352.0
209.11937 48.0
209.182693 136.0
209.205627 120.0
209.320892 176.0
209.35257 40.0
209.384247 96.0
209.436676 136.0
209.550674 144.0
209.557907 112.0
209.566772 176.0
209.60318 120.0
209.68277 168.0
209.827988 88.0
209.892426 220.0
209.928909 40.0
209.970825 172.0
209.980682 172.0
210.018311 60.0
210.067795 548.0
210.096649 176.0
210.1539 156.0
210.191406 128.0
210.254898 84.0
210.283752 232.0
210.329926 100.0
210.364578 172.0
210.456955 36.0
210.482941 124.0
210.534912 160.0
210.741562 148.0
210.810837 164.0
210.832474 164.0
210.872925 100.0
210.90184 224.0
210.936523 156.0
211.078247 3120.0
211.134796 76.0
211.139832 264.0
211.193863 356.0
211.240143 48.0
211.285248 148.0
211.328613 124.0
211.371841 132.0
211.394928 168.0
211.460037 192.0
211.555557 160.0
211.587402 144.0
211.680542 72.0
211.7901 104.0
211.830658 164.0
211.936676 188.0
211.978424 168.0
212.016083 156.0
212.085022 772.0
212.152313 64.0
212.197678 272.0
212.250885 40.0
212.284653 124.0
212.32338 112.0
212.349091 136.0
212.453903 184.0
212.497421 136.0
212.51886 124.0
212.578262 224.0
212.662827 192.0
212.694763 164.0
212.795792 144.0
212.837006 76.0
212.902084 196.0
212.988846 112.0
213.01918 200.0
213.085464 164.0
213.158585 164.0
213.192459 132.0
213.217545 108.0
213.264053 172.0
213.296021 112.0
213.322189 68.0
213.371597 140.0
213.408798 248.0
213.450104 40.0
213.480362 128.0
213.502457 96.0
213.540253 48.0
213.566437 232.0
213.650436 296.0
213.72934 192.0
213.771347 128.0
213.842834 72.0
213.872543 176.0
213.901047 204.0
213.944717 168.0
213.994751 188.0
214.064087 128.0
214.090302 76.0
214.112961 168.0
214.154739 224.0
214.221359 132.0
214.229446 216.0
214.287384 188.0
214.308762 100.0
214.367538 160.0
214.404266 144.0
214.43515 140.0
214.502655 236.0
214.553574 196.0
214.591476 212.0
214.620758 184.0
214.673111 212.0
214.706146 220.0
214.78685 136.0
214.858124 196.0
214.928391 148.0
214.958984 64.0
214.988174 148.0
215.023193 112.0
215.049454 304.0
215.068954 112.0
215.119507 160.0
215.151611 144.0
215.180817 136.0
215.214706 168.0
215.285934 132.0
215.31221 100.0
215.406204 176.0
215.496231 120.0
215.528244 148.0
215.56636 164.0
215.61322 112.0
215.645264 168.0
215.667572 204.0
215.721268 164.0
215.765121 256.0
215.788498 156.0
215.849899 164.0
215.874725 164.0
215.881485 80.0
215.892181 148.0
215.956863 184.0
215.978577 196.0
216.016602 232.0
216.083893 176.0
216.1297 116.0
216.206787 76.0
216.318008 124.0
216.347275 60.0
216.426331 132.0
216.449753 160.0
216.508316 96.0
216.583664 176.0
216.707504 56.0
216.810226 144.0
216.862823 176.0
216.915115 152.0
217.018188 112.0
217.05043 224.0
217.154755 56.0
217.223465 136.0
217.264542 184.0
217.320282 156.0
217.356506 196.0
217.40831 60.0
217.583557 248.0
217.745789 196.0
217.781158 80.0
217.819351 220.0
217.91629 104.0
218.077911 224.0
218.104141 160.0
218.163162 236.0
218.204315 232.0
218.224899 180.0
218.298401 124.0
218.361359 156.0
218.369537 64.0
218.379623 168.0
218.439575 52.0
218.516068 160.0
218.593964 160.0
218.636703 144.0
218.681915 144.0
218.696747 100.0
218.719116 312.0
218.76326 124.0
218.816254 156.0
218.869247 68.0
218.910095 124.0
218.987045 144.0
219.104874 152.0
219.154434 136.0
219.174194 144.0
219.261032 100.0
219.308197 148.0
219.346512 164.0
219.370087 144.0
219.392258 148.0
219.414307 160.0
219.443802 224.0
219.514557 132.0
219.591232 56.0
219.620728 132.0
219.653168 168.0
219.675217 168.0
219.712173 84.0
219.751556 96.0
219.80069 132.0
219.853806 224.0
219.924637 208.0
220.010696 192.0
220.074326 124.0
220.128342 52.0
220.219879 212.0
220.243515 112.0
220.315094 188.0
220.367584 148.0
220.419678 140.0
220.5242 100.0
220.547852 84.0
220.604004 40.0
220.646164 200.0
220.673294 164.0
220.695663 112.0
220.731613 100.0
220.772537 116.0
220.828735 72.0
220.952957 168.0
221.021011 244.0
221.041733 136.0
221.061829 160.0
221.100906 60.0
221.130066 136.0
221.15863 48.0
221.177582 176.0
221.240021 112.0
221.277451 268.0
221.311539 156.0
221.336304 116.0
221.391022 176.0
221.460266 168.0
221.527267 160.0
221.56282 208.0
221.601334 160.0
221.628006 184.0
221.675659 292.0
221.714249 148.0
221.762726 112.0
221.841171 164.0
221.848923 140.0
221.879929 272.0
221.916702 200.0
221.952545 132.0
221.994202 340.0
222.071716 13264.0
222.14682 120.0
222.188354 172.0
222.215057 328.0
222.235825 256.0
222.270355 156.0
222.301956 124.0
222.341019 44.0
222.376572 204.0
222.387024 88.0
222.39476 200.0
222.424591 328.0
222.461899 188.0
222.494019 488.0
222.531815 172.0
222.588852 200.0
222.617218 268.0
222.669785 144.0
222.683563 96.0
222.729034 84.0
222.780579 304.0
222.795242 188.0
222.804123 192.0
222.859329 116.0
222.88588 248.0
222.950577 164.0
223.009933 368.0
223.079834 27940.0
223.154663 164.0
223.181961 80.0
223.196014 284.0
223.256744 144.0
223.268799 116.0
223.311172 212.0
223.341965 236.0
223.362427 264.0
223.398483 252.0
223.425751 108.0
223.444229 104.0
223.451706 264.0
223.493393 212.0
223.502472 272.0
223.515656 700.0
223.538803 176.0
223.578644 340.0
223.615692 196.0
223.637863 196.0
223.664841 192.0
223.682602 260.0
223.713242 452.0
223.74118 428.0
223.783295 696.0
223.839691 308.0
223.886841 592.0
223.899521 420.0
223.933365 696.0
223.946503 576.0
223.95755 704.0
223.990875 756.0
224.034882 1404.0
224.089081 485620.0
224.167908 432.0
224.176941 268.0
224.184631 272.0
224.195999 188.0
224.246094 264.0
224.289719 340.0
224.324829 256.0
224.361328 540.0
224.392593 496.0
224.416016 424.0
224.443878 204.0
224.465027 272.0
224.542755 1100.0
224.579758 10860.0
224.630386 356.0
224.673172 176.0
224.717087 184.0
224.740829 144.0
224.776611 384.0
224.799728 288.0
224.83168 208.0
224.865829 288.0
224.901794 236.0
224.90715 196.0
224.942612 256.0
224.953568 256.0
224.996155 160.0
225.091232 146080.0
225.164551 240.0
225.229523 152.0
225.300293 76.0
225.325546 192.0
225.353073 436.0
225.37883 136.0
225.411636 84.0
225.439911 140.0
225.453156 92.0
225.463089 180.0
225.482697 264.0
225.519608 248.0
225.549988 152.0
225.583511 372.0
225.606293 236.0
225.617111 228.0
225.625702 128.0
225.675354 100.0
225.69519 168.0
225.723862 128.0
225.757645 140.0
225.787048 112.0
225.829788 184.0
225.837646 224.0
225.84845 116.0
225.905441 236.0
225.927887 112.0
225.998032 220.0
226.02832 336.0
226.093857 9636.0
226.150742 44.0
226.1586 120.0
226.197357 124.0
226.221771 96.0
226.259064 212.0
226.289902 216.0
226.300156 276.0
226.337616 268.0
226.371521 236.0
226.403992 288.0
226.448074 312.0
226.500305 192.0
226.537155 304.0
226.603455 344.0
226.628967 460.0
226.652435 240.0
226.705856 456.0
226.749023 228.0
226.798935 312.0
226.84819 324.0
226.88089 320.0
226.891953 212.0
226.928696 208.0
226.985046 192.0
227.043381 76.0
227.093933 540.0
227.182632 124.0
227.216293 212.0
227.259842 168.0
227.293335 48.0
227.355682 108.0
227.386292 228.0
227.428146 120.0
227.478912 48.0
227.507126 224.0
227.54306 96.0
227.580215 148.0
227.643845 120.0
227.651245 96.0
227.689484 120.0
227.712769 124.0
227.759201 124.0
227.815048 108.0
227.856812 140.0
227.866592 164.0
227.878693 172.0
227.923401 176.0
227.968964 60.0
228.021362 52.0
228.076294 204.0
228.11853 120.0
228.206436 52.0
228.242371 84.0
228.259293 80.0
228.312668 48.0
228.338745 100.0
228.364304 76.0
228.392868 96.0
228.419952 48.0
228.444016 96.0
228.463562 80.0
228.508194 120.0
228.566116 48.0
228.595673 88.0
228.622757 88.0
228.667023 136.0
228.699173 40.0
228.767502 48.0
228.796585 100.0
228.837616 96.0
229.012375 68.0
229.055069 128.0
229.085205 68.0
229.169922 136.0
229.257645 68.0
229.313995 60.0
229.363922 120.0
229.525223 48.0
229.57045 144.0
229.597595 112.0
229.621719 76.0
229.66394 40.0
229.715118 120.0
229.75174 76.0
229.843933 72.0
229.878143 28.0
229.923401 88.0
229.956604 72.0
230.137726 56.0
230.172943 120.0
230.264557 56.0
230.312881 68.0
230.457886 28.0
230.54248 56.0
230.563644 76.0
230.615021 36.0
230.663376 48.0
230.690582 40.0
230.784302 44.0
230.856873 92.0
230.992981 64.0
231.14122 60.0
231.162399 140.0
231.222931 68.0
231.272583 108.0
231.298584 92.0
231.381836 80.0
231.44693 44.0
231.846786 48.0
231.964981 88.0
232.195419 72.0
232.256073 48.0
232.290451 48.0
232.474518 72.0
232.509293 52.0
232.565567 68.0
232.683945 72.0
232.732529 44.0
232.796295 84.0
232.832733 112.0
232.884079 84.0
232.929932 76.0
233.008911 48.0
233.042328 88.0
233.084869 84.0
233.166916 40.0
233.200348 120.0
233.245941 36.0
233.407059 84.0
233.477798 92.0
233.656464 92.0
233.720352 48.0
233.791962 104.0
233.82991 112.0
233.854263 92.0
233.954712 136.0
234.024734 104.0
234.073563 132.0
234.097809 104.0
234.158707 80.0
234.22876 120.0
234.268372 44.0
234.309494 64.0
234.465195 72.0
234.502991 72.0
234.564255 156.0
234.641083 72.0
234.671417 152.0
234.810913 52.0
234.878021 108.0
234.918991 100.0
234.951233 92.0
234.97258 64.0
235.076126 108.0
235.097687 180.0
235.177032 60.0
235.506775 100.0
235.577042 84.0
235.628967 64.0
235.689697 96.0
235.697266 148.0
235.793762 56.0
235.876495 112.0
235.900513 56.0
235.974319 104.0
236.020187 128.0
236.064941 252.0
236.118042 172.0
236.208679 76.0
236.396423 144.0
236.453629 80.0
236.546387 48.0
236.654633 100.0
236.700867 104.0
236.74234 56.0
236.840347 112.0
236.89241 112.0
237.070114 96.0
237.167068 132.0
237.244827 44.0
237.274673 76.0
237.312164 76.0
237.401184 32.0
237.491486 72.0
237.545334 124.0
237.90744 132.0
238.067383 172.0
238.10173 108.0
238.165375 28.0
238.303619 124.0
238.328201 64.0
238.384674 116.0
238.411163 64.0
238.444962 36.0
238.530334 88.0
238.574066 44.0
238.644775 48.0
238.761627 108.0
238.838516 64.0
238.946991 76.0
238.973862 52.0
239.06926 152.0
239.109268 72.0
239.146194 132.0
239.238541 28.0
239.37709 68.0
239.438675 88.0
239.493301 100.0
239.561874 84.0
239.68512 56.0
239.719009 76.0
239.755981 72.0
239.863861 60.0
239.925522 132.0
239.984085 96.0
240.095245 88.0
240.138275 52.0
240.26474 104.0
240.301773 104.0
240.381989 36.0
240.465317 128.0
240.536301 88.0
240.875961 76.0
241.002625 116.0
241.033524 36.0
241.092239 104.0
241.126236 140.0
241.243683 48.0
241.308609 48.0
241.457031 60.0
241.521988 112.0
241.552917 80.0
241.867569 64.0
241.983063 88.0
242.119308 36.0
242.171967 96.0
242.252289 60.0
242.425995 68.0
242.701874 72.0
242.863129 40.0
243.039963 84.0
243.083405 52.0
243.375183 60.0
243.449692 48.0
243.595474 64.0
243.676437 108.0
243.828705 92.0
243.996552 140.0
244.139587 80.0
244.394653 40.0
244.590714 84.0
244.612503 72.0
244.842896 112.0
245.216751 88.0
245.756226 40.0
245.868561 80.0
245.934097 40.0
246.208847 68.0
246.28067 108.0
246.452484 88.0
246.721268 188.0
246.827576 88.0
247.137222 68.0
247.851105 68.0
248.014069 64.0
248.268021 128.0
248.333878 172.0
249.033783 112.0
249.084045 128.0
249.656052 68.0
250.093353 124.0
251.06955 132.0
251.100754 124.0
252.042282 208.0
252.085968 404.0
252.118118 184.0
252.503799 48.0
252.779022 132.0
253.105057 72.0
253.174713 68.0
253.345749 52.0
253.99559 72.0
254.0952 332.0
255.682678 136.0
256.823273 56.0
256.979584 76.0
257.04657 72.0
257.362579 44.0
257.53183 64.0
258.306976 228.0
258.913452 108.0
259.522278 52.0
260.449707 44.0
260.584625 64.0
260.793518 40.0
260.947815 88.0
261.642731 68.0
261.951874 112.0
262.106506 108.0
263.067596 92.0
263.35498 76.0
263.497101 80.0
263.729767 56.0
264.17276 56.0
264.402496 164.0
264.476929 188.0
265.118195 72.0
265.328857 128.0
266.214661 96.0
266.279602 108.0
266.610962 68.0
267.075897 48.0
267.332886 124.0
267.505402 52.0
267.739838 80.0
269.014679 104.0
269.266083 72.0
269.589508 56.0
269.952362 84.0
270.750854 88.0
270.90152 80.0
271.376709 156.0
271.625946 100.0
272.003296 128.0
274.071869 100.0
274.421234 92.0
274.566315 172.0
274.61911 72.0
274.718048 168.0
274.975403 44.0
275.193268 76.0
275.784576 44.0
276.035828 68.0
276.244202 68.0
276.409637 76.0
277.549072 108.0
278.106384 120.0
279.136261 216.0
279.272614 116.0
279.721802 44.0
279.755096 144.0
279.846588 108.0
279.89743 144.0
280.651276 60.0
280.754639 68.0
281.068207 68.0
281.111572 104.0
281.742615 64.0
282.481384 124.0
282.986725 52.0
283.515961 100.0
283.854553 72.0
284.468506 92.0
284.807648 92.0
285.207489 32.0
285.415924 92.0
285.528748 64.0
286.516479 100.0
286.647888 108.0
286.836609 60.0
288.007446 56.0
288.575165 48.0
289.387177 52.0
289.631012 116.0
290.030823 112.0
290.756622 92.0
290.967072 100.0
292.387878 116.0
292.704468 88.0
293.382477 156.0
294.443634 136.0
294.583679 212.0
295.007385 52.0
295.157837 48.0
295.185181 36.0
295.345917 160.0
295.575134 88.0
295.86264 100.0
295.941376 64.0
295.975616 96.0
297.573364 152.0
298.700531 104.0
299.554199 128.0
300.56781 100.0
302.776703 64.0
303.681274 92.0
303.754089 88.0
303.785309 180.0
303.837372 132.0
304.604523 44.0
304.851227 112.0
306.828217 148.0
306.918854 92.0
307.627075 68.0
308.032135 124.0
308.181335 424.0
308.423492 44.0
308.62973 84.0
308.776611 68.0
309.571014 96.0
310.412018 60.0
313.256348 468.0
314.26001 88.0
316.380524 52.0
316.600037 68.0
316.674408 168.0
317.535645 72.0
317.634949 48.0
318.135284 164.0
318.184998 124.0
319.29361 52.0
319.318512 28.0
320.137024 116.0
320.272369 40.0
320.660889 80.0
320.988678 68.0
321.22049 68.0
321.795044 92.0
322.377258 52.0
322.849152 56.0
323.332092 108.0
323.561188 156.0
323.604126 64.0
324.180817 44.0
324.496246 60.0
324.722137 64.0
325.084473 132.0
327.165527 76.0
327.320343 40.0
327.554443 36.0
327.712952 60.0
328.924652 88.0
329.283051 76.0
329.693939 56.0
331.202637 92.0
331.873047 112.0
333.314026 28.0
334.299469 52.0
334.849152 104.0
334.958435 80.0
335.202515 140.0
335.570648 120.0
336.340393 80.0
336.625153 60.0
336.88446 76.0
337.114655 104.0
337.688599 64.0
338.270386 84.0
338.336273 36.0
338.870972 116.0
338.914917 84.0
340.595123 220.0
340.683289 68.0
340.944153 108.0
341.308075 60.0
341.561829 124.0
341.683228 68.0
343.045776 108.0
343.108459 72.0
343.307556 60.0
343.521484 80.0
343.613708 112.0
343.886749 88.0
344.023346 112.0
344.968994 72.0
345.505219 76.0
346.282532 100.0
346.380585 72.0
346.445526 104.0
346.786407 72.0
347.049622 36.0
347.546631 88.0
348.044006 88.0
348.772125 60.0
351.25943 128.0
351.852478 104.0
352.790466 92.0
352.913818 88.0
353.20874 140.0
353.721893 76.0
354.193024 160.0
354.276093 92.0
354.568359 88.0
355.014465 164.0
355.367065 36.0
355.640991 84.0
355.674774 84.0
356.918274 84.0
357.730896 76.0
357.8815 68.0
358.476624 56.0
359.087341 88.0
359.947754 132.0
360.61264 88.0
360.910248 44.0
361.194916 80.0
361.482452 88.0
361.622467 88.0
362.629913 88.0
363.141754 112.0
363.312439 128.0
363.502136 72.0
364.018372 92.0
364.690826 68.0
364.768005 44.0
365.158447 180.0
365.61499 124.0
365.839539 64.0
367.764496 84.0
368.375427 68.0
368.944824 80.0
369.273651 80.0
369.499329 92.0
370.851074 108.0
371.433868 84.0
371.587311 116.0
371.901978 76.0
373.611938 88.0
373.965942 84.0
374.817017 84.0
375.395203 36.0
375.584167 84.0
376.576111 100.0
376.842651 72.0
378.327728 128.0
378.96286 128.0
380.230865 44.0
380.490936 152.0
380.929749 116.0
381.015228 48.0
381.380493 44.0
382.555206 88.0
383.770691 40.0
383.957886 72.0
387.679535 72.0
387.730499 32.0
388.600983 92.0
388.989502 108.0
390.069733 104.0
392.106567 96.0
393.027344 44.0
393.197021 132.0
393.591797 48.0
394.425354 60.0
394.943329 120.0
396.023865 176.0
397.141571 68.0
398.066254 36.0
398.674011 52.0
399.019836 48.0
399.357819 112.0
399.882996 68.0
400.002411 48.0
400.030273 76.0
400.089996 84.0
401.034027 112.0
401.656036 84.0
402.270538 80.0
402.550018 116.0
403.648895 80.0
403.784851 88.0
404.048859 180.0
404.12088 36.0
404.17688 84.0
405.173828 88.0
405.249939 52.0
405.322052 148.0
405.530457 100.0
405.859161 96.0
406.818024 96.0
407.235596 92.0
407.496704 40.0
407.94281 100.0
408.531036 72.0
408.698883 52.0
409.157684 124.0
409.359009 92.0
411.358765 96.0
412.477661 124.0
412.522125 48.0
412.890869 100.0
413.391693 48.0
414.031311 72.0
414.225708 76.0
414.318878 84.0
414.797058 92.0
416.14389 52.0
417.074158 124.0
417.549866 68.0
419.259705 76.0
419.341217 76.0
419.691803 80.0
419.956879 84.0
420.279144 156.0
421.161713 84.0
421.565369 60.0
422.648987 44.0
422.796295 84.0
423.63974 96.0
424.053589 160.0
424.131439 112.0
424.434814 64.0
424.894165 100.0
425.35788 88.0
425.538513 72.0
425.649384 44.0
426.088837 72.0
426.257294 60.0
426.812225 60.0
427.433319 40.0
429.876862 64.0
430.116211 124.0
430.772766 52.0
431.078491 72.0
431.628265 52.0
432.589813 116.0
433.105682 104.0
433.287964 72.0
433.922058 64.0
434.145935 184.0
434.179138 76.0
434.353333 96.0
434.77652 124.0
435.652588 80.0
436.504608 116.0
437.012054 44.0
437.061981 160.0
437.107758 120.0
437.207611 52.0
437.292419 5484.0
437.384033 124.0
437.424042 40.0
437.561432 32.0
437.62204 144.0
437.665527 100.0
437.88205 80.0
437.924377 100.0
438.07782 92.0
438.119476 52.0
438.186584 108.0
438.297516 2424.0
438.408234 92.0
438.465302 148.0
438.565338 40.0
438.602844 60.0
438.652863 68.0
438.715393 68.0
438.790436 28.0
438.826813 104.0
438.936371 40.0
439.301056 100.0
439.499481 64.0
439.65802 72.0
439.687256 52.0
439.92099 52.0
440.272644 88.0
440.459656 36.0
440.67688 140.0
441.069702 56.0
441.2612 64.0
441.399963 40.0
441.445984 108.0
441.70108 88.0
441.87262 68.0
441.993927 76.0
442.111115 72.0
442.194794 140.0
442.429199 72.0
442.47525 32.0
442.508759 92.0
442.818634 88.0
442.919159 80.0
443.157928 48.0
443.765656 60.0
444.231171 64.0
445.293091 76.0
446.503448 60.0
446.818939 84.0
447.698639 96.0
448.334747 92.0
449.652924 92.0
450.934418 60.0
452.072052 64.0
452.397949 112.0
454.309143 36.0
457.59848 52.0
461.217438 92.0
463.259125 72.0
463.342712 44.0
465.246826 72.0
465.60318 88.0
466.651642 28.0
466.982758 76.0
467.128998 80.0
468.98053 56.0
469.476318 32.0
470.479492 72.0
470.611145 36.0
471.846802 120.0
472.642609 40.0
473.036438 64.0
473.590668 60.0
474.687103 68.0
475.246643 124.0
476.449249 72.0
479.072479 48.0
480.74234 48.0
482.961731 96.0
483.491119 64.0
485.409821 48.0
486.436432 52.0
486.695465 72.0
486.73938 48.0
488.066345 60.0
488.884521 64.0
489.76944 44.0
490.518494 84.0
491.356384 104.0
493.830048 120.0
494.365356 64.0
494.60434 32.0
495.224213 52.0
496.336548 96.0
497.072845 44.0
497.951843 128.0
501.466583 56.0
502.621582 60.0
503.393799 52.0
504.363281 76.0
506.484161 92.0
506.64093 72.0
506.878387 48.0
506.990417 68.0
507.6763 40.0
508.605011 76.0
508.654388 76.0
509.071899 32.0
511.423187 52.0
511.643738 64.0
512.513 48.0
513.112427 88.0
514.181458 56.0
515.545288 56.0
516.616821 100.0
517.177917 104.0
518.867554 100.0
519.321045 80.0
519.434448 108.0
519.960754 116.0
521.950439 96.0
522.53717 48.0
523.106018 48.0
524.171692 84.0
525.147278 76.0
526.288147 136.0
527.786804 44.0
528.257874 40.0
529.382141 80.0
529.718079 100.0
530.029663 180.0
535.44104 68.0
535.519348 76.0
536.473145 104.0
538.702026 48.0
538.900635 88.0
539.838989 92.0
541.268799 52.0
543.349854 76.0
545.160706 96.0
547.523926 44.0
548.511658 64.0
549.024536 80.0
553.73999 104.0
555.023987 80.0
555.478943 76.0
555.94342 72.0
556.027893 48.0
558.21698 92.0
558.61676 76.0
559.854614 80.0
560.735596 84.0
561.565369 76.0
562.055969 72.0
564.516968 88.0
564.682495 68.0
566.03595 56.0
570.105957 108.0
573.075134 40.0
575.464661 52.0
575.961304 56.0
576.204895 60.0
577.065186 108.0
578.960022 56.0
579.458191 36.0
582.922424 128.0
583.840576 60.0
585.7995 76.0
586.580139 112.0
587.843689 44.0
588.833374 116.0
589.630493 88.0
593.260681 76.0
594.283997 40.0
598.137756 40.0
598.712219 84.0
599.238281 84.0
600.178955 40.0
602.189514 116.0
602.296997 56.0
606.703308 136.0
612.538879 128.0
614.935181 108.0
616.555054 80.0
618.954224 56.0
619.26123 88.0
620.936401 96.0
623.826172 60.0
624.194092 44.0
624.31842 112.0
625.044678 128.0
625.100525 88.0
627.739502 76.0
630.330139 84.0
632.230408 76.0
633.076416 104.0
639.432068 48.0
645.344055 68.0
645.753662 112.0
646.699768 72.0
647.140198 84.0
648.594116 72.0
650.800842 60.0
652.157227 60.0
652.813049 88.0
653.158875 40.0
654.095093 44.0
654.186768 68.0
660.964417 56.0
661.552979 44.0
664.484314 104.0
666.635742 72.0
667.586731 108.0
667.67926 36.0
668.569275 96.0
670.577759 116.0
675.369141 72.0
678.911621 116.0
682.011047 52.0
683.311096 48.0
690.917542 44.0
692.95929 68.0
695.166748 76.0
697.372498 96.0
698.30835 88.0
698.639709 68.0
698.708069 140.0
699.123779 120.0
704.290466 40.0
704.570435 96.0
705.437134 80.0
706.88623 52.0
708.358093 112.0
710.014954 88.0
711.555847 64.0
714.460754 92.0
719.066589 52.0
721.34729 72.0
721.705444 84.0
721.839172 152.0
721.994202 40.0
724.279541 76.0
725.394104 136.0
729.027649 64.0
734.023071 84.0
734.384399 120.0
737.89978 36.0
741.548218 84.0
747.957275 96.0
748.795776 104.0
750.217896 44.0
753.530518 100.0
753.650757 92.0
756.582153 96.0
756.844971 76.0
756.976379 84.0
759.409607 188.0
761.561157 68.0
761.923645 40.0
762.907349 136.0
764.827148 60.0
764.992249 104.0
765.961426 44.0
766.027527 64.0
769.104309 92.0
773.493103 104.0
777.222839 68.0
780.399841 96.0
782.224609 72.0
782.630981 72.0
790.288757 84.0
791.867371 64.0
793.07196 44.0
793.195251 44.0
794.182129 104.0
795.102234 56.0
795.955505 156.0
802.696533 64.0
807.32135 68.0
808.871582 100.0
809.024414 80.0
809.494385 28.0
809.667725 52.0
810.230652 116.0
811.868713 60.0
812.407593 164.0
820.095337 60.0
820.163696 84.0
831.780884 96.0
834.88916 80.0
838.533386 84.0
838.746643 44.0
843.115662 92.0
843.456665 44.0
845.926636 64.0
849.223572 84.0
851.260559 60.0
855.603821 116.0
856.471497 96.0
857.858276 64.0
858.14978 76.0
859.427124 84.0
859.526306 44.0
861.961243 72.0
862.183289 28.0
866.46051 36.0
868.559143 108.0
873.422668 224.0
879.745422 92.0
894.94043 56.0
895.190552 144.0
903.923645 148.0
904.749573 32.0
904.947144 48.0
911.010315 100.0
914.497864 48.0
915.551453 132.0
916.587524 128.0
919.572632 120.0
928.344727 68.0
935.909912 52.0
936.878235 88.0
942.515625 144.0
953.355591 44.0
956.929321 152.0
958.111755 152.0
958.234985 52.0
960.250671 60.0
960.886047 72.0
967.393433 104.0
968.322205 180.0
971.117432 40.0
972.761719 80.0
973.842102 68.0
974.444641 32.0
976.813171 96.0
979.975708 144.0
981.072571 176.0
981.914307 112.0
983.455383 160.0
987.347656 52.0
989.118286 32.0
991.448181 92.0
998.322205 80.0
1001.393372 176.0
1003.189148 92.0
1009.003357 68.0
1009.319458 76.0
1012.451843 80.0
1018.356262 44.0
1021.051025 68.0
1028.645874 176.0
1032.018921 48.0
1034.136353 120.0
1037.794189 108.0
1038.942139 60.0
1040.61084 56.0
1041.940186 56.0
1042.550659 32.0
1045.270752 60.0
1047.820435 48.0
1047.923462 68.0
1050.547363 52.0
1052.025146 96.0
1052.102661 160.0
1055.669189 140.0
1056.031372 92.0
1058.982666 156.0
1060.33667 176.0
1061.568481 124.0
1062.08728 116.0
1062.24292 84.0
1064.014526 96.0
1064.137939 64.0
1066.4375 96.0
1066.847046 88.0
1067.471191 176.0
1080.319824 80.0
1084.019043 148.0
1084.425293 164.0
1088.07251 172.0
1088.276001 112.0
1088.811646 124.0
1089.024658 52.0
1091.350952 176.0
1091.922974 124.0
1092.830811 200.0
1094.272095 108.0
1096.248169 152.0
1097.625854 40.0
1098.945068 176.0
1099.129761 228.0
1099.327759 184.0
1100.859253 60.0
1101.869751 200.0
1102.821411 128.0
1103.052734 68.0
1105.427002 96.0
1106.267578 72.0
1107.525635 64.0
1108.234497 184.0
1108.479614 44.0
1109.380981 132.0
1111.536499 172.0
1112.299683 76.0
1114.258789 108.0
1117.25708 176.0
1118.561279 132.0
1119.014038 152.0
1119.100586 228.0
1123.05896 236.0
1126.362915 124.0
1128.120361 60.0
1128.187134 140.0
1129.691772 116.0
1130.200317 204.0
1130.615112 220.0
1131.224243 180.0
1131.659424 140.0
1132.630371 156.0
1132.704102 196.0
1135.774048 84.0
1136.122803 152.0
1140.467407 124.0
1143.164185 136.0
1144.119995 168.0
1144.73938 156.0
1146.78064 204.0
1147.636841 208.0
1147.798584 172.0
1147.941772 212.0
1148.371826 72.0
1149.194824 228.0
1149.646973 228.0
1150.477173 88.0
1151.719604 176.0
1153.658936 132.0
1153.760376 92.0
1158.50415 32.0
1159.025879 64.0
1161.147705 148.0
1162.144775 156.0
1162.619873 148.0
1162.735229 84.0
1163.617554 124.0
1164.928345 200.0
1166.776733 124.0
1168.374878 140.0
1169.416016 220.0
1169.524902 128.0
1170.130737 212.0
1170.185181 204.0
1171.663086 200.0
1171.772095 148.0
1172.753296 120.0
1173.359985 92.0
1174.266968 124.0
1174.498779 148.0
1174.580688 204.0
1176.59375 80.0
1177.652222 112.0
1179.285156 216.0
1179.633667 68.0
1180.385742 168.0
1180.638794 112.0
1181.671631 88.0
1181.7948 104.0
1186.143433 140.0
1186.266846 108.0
1188.262451 164.0
1188.722168 84.0
1189.36731 116.0
1189.662476 112.0
1191.667847 208.0
1192.066406 164.0
1192.959839 76.0
1193.991211 64.0
1194.066895 196.0
1194.19751 72.0
1196.062134 112.0
1196.860718 204.0
1197.046631 64.0
1198.169312 148.0
1200.064575 136.0
1200.409424 100.0
1200.919678 116.0
1203.652588 92.0
1203.928711 184.0
1204.046143 160.0
1205.918457 128.0
1206.032104 224.0
1206.319336 88.0
1208.788452 204.0
1208.940674 144.0
1209.300537 160.0
1210.221191 112.0
1210.685181 104.0
1213.248779 124.0
1214.691162 152.0
1214.857666 100.0
1216.967407 160.0
1219.079102 204.0
1221.762939 84.0
1222.24292 48.0
1222.500366 156.0
1223.565308 220.0
1223.676758 168.0
1225.592041 180.0
1225.919556 128.0
1227.125488 192.0
1228.018066 176.0
1228.70166 96.0
1229.378418 128.0
1231.542725 164.0
1232.814209 128.0
1232.947021 168.0
1235.541138 132.0
1237.864746 168.0
1238.130859 104.0
1238.19397 140.0
1239.076538 88.0
1239.756226 168.0
1239.973389 124.0
1240.295898 188.0
1240.520142 88.0
1241.768188 184.0
1246.12085 188.0
1247.132324 132.0
1247.89856 128.0
1248.665039 172.0
1249.150269 84.0
1249.64978 132.0
1249.980469 36.0
1251.282593 52.0
1251.719116 168.0
1252.268433 136.0
1252.761475 208.0
1253.430786 196.0
1253.67749 100.0
1253.959351 200.0
1254.149658 188.0
1254.332886 172.0
1254.480957 152.0
1255.002686 176.0
1255.972046 216.0
1256.900024 108.0
1257.598633 436.0
1258.022217 192.0
1260.797974 144.0
1261.575439 188.0
1262.36731 212.0
1262.586548 184.0
1262.678467 160.0
1263.400024 56.0
1264.397705 164.0
1265.23291 176.0
1265.353271 152.0
1265.516113 172.0
1267.322144 188.0
1267.711914 164.0
1269.74646 116.0
1270.00708 172.0
1271.548584 84.0
1271.697632 160.0
1271.86084 180.0
1272.031128 112.0
1273.479614 88.0
1274.197144 152.0
1274.261108 180.0
1274.339233 168.0
1275.753418 172.0
1276.244019 140.0
1276.414673 184.0
1276.834229 204.0
1276.997803 156.0
1277.268066 40.0
1278.214355 96.0
1279.125122 212.0
1279.474121 196.0
1279.737793 192.0
1280.043701 172.0
1280.456665 200.0
1281.325684 144.0
1281.760376 172.0
1282.387451 140.0
1282.69397 152.0
1283.563721 172.0
1287.502808 68.0
1288.731445 148.0
1290.218018 136.0
1290.678589 152.0
1290.847168 80.0
1291.655273 156.0
1292.910645 176.0
1294.72583 60.0
1294.890503 132.0
1294.940674 104.0
1295.484985 176.0
1296.144165 116.0
1296.796265 160.0
1297.362549 152.0
1298.646118 156.0
1300.210083 196.0
1301.365723 196.0
1301.444702 184.0
1302.148438 112.0
1302.543579 180.0
1303.254761 152.0
1305.073242 52.0
1305.145142 152.0
1305.598145 148.0
1306.266968 156.0
1307.000854 208.0
1308.269653 204.0
1309.397949 160.0
1309.63562 88.0
1309.779663 88.0
1310.075073 128.0
1311.155884 152.0
1311.299927 132.0
1312.160767 104.0
1313.066284 204.0
1314.133911 60.0
1314.884399 116.0
1316.385986 164.0
1317.165894 164.0
1317.5271 116.0
1317.801636 108.0
1318.553223 128.0
1319.65918 164.0
1319.767578 156.0
1320.24707 148.0
1320.902954 104.0
1321.546875 176.0
1322.140259 188.0
1322.350098 176.0
1322.473145 176.0
1323.030518 56.0
1324.667114 160.0
1324.927856 132.0
1325.101807 216.0
1325.41333 88.0
1326.094482 184.0
1326.841187 156.0
1327.682251 208.0
1328.160889 208.0
1328.69043 200.0
1329.220093 180.0
1329.466797 104.0
1330.054688 192.0
1330.279785 140.0
1331.521362 124.0
1333.448975 368.0
1334.493408 160.0
1334.849609 244.0
1335.155029 212.0
1337.082031 164.0
1337.53418 188.0
1338.801025 104.0
1339.871704 80.0
1340.068481 196.0
1341.569702 172.0
1342.459229 208.0
1342.612427 116.0
1344.501831 164.0
1344.96167 64.0
1345.268311 120.0
1345.355835 204.0
1345.633301 180.0
1346.129761 192.0
1347.517578 200.0
1347.722168 148.0
1347.955933 120.0
1348.029053 180.0
1349.659058 128.0
1350.251465 88.0
1350.35376 124.0
1350.807251 152.0
1350.931641 204.0
1351.048706 100.0
1351.729126 180.0
1352.051147 180.0
1352.885498 124.0
1353.266235 112.0
1353.48584 132.0
1353.793457 148.0
1353.852051 176.0
1354.335327 48.0
1354.862793 164.0
1355.510376 156.0
1355.764038 156.0
1355.881226 176.0
1355.95459 152.0
1356.423706 88.0
1356.584595 184.0
1357.054077 208.0
1357.20813 48.0
1357.868042 64.0
1358.403564 136.0
1358.454834 244.0
1358.975708 84.0
1361.192383 92.0
1361.456787 124.0
1361.802002 156.0
1362.029663 180.0
1362.286743 128.0
1362.676147 188.0
1363.69751 104.0
1363.90332 140.0
1364.109131 84.0
1364.454712 112.0
1364.57959 172.0
1364.682617 156.0
1366.88916 120.0
1367.92688 160.0
1369.296387 148.0
1369.384766 188.0
1369.495239 180.0
1370.022705 144.0
1370.659302 136.0
1370.769775 92.0
1371.44043 140.0
1371.779541 196.0
1371.838501 152.0
1372.332397 148.0
1372.546265 160.0
1372.5979 172.0
1373.394287 152.0
1373.593506 200.0
1373.925415 212.0
1375.268433 128.0
1375.36438 64.0
1375.766113 128.0
1376.065674 196.0
1376.626831 112.0
1376.826172 152.0
1376.87793 72.0
1377.513062 200.0
1377.897217 164.0
1379.670898 128.0
1380.188477 160.0
1380.942749 116.0
1381.208984 192.0
1383.266113 108.0
1383.55481 148.0
1383.617676 196.0
1384.117432 84.0
1384.487793 172.0
1384.672852 148.0
1384.850586 172.0
1385.19873 140.0
1385.361694 168.0
1385.413574 140.0
1386.006348 84.0
1386.095215 52.0
1386.332397 52.0
1386.62085 128.0
1386.665283 60.0
1386.812134 136.0
1387.120483 200.0
1388.875244 180.0
1389.031128 44.0
1389.461304 156.0
1390.017822 164.0
1390.39624 240.0
1390.64856 160.0
1391.086548 180.0
1391.361206 108.0
1392.081421 128.0
1393.321777 172.0
1393.500122 148.0
1393.953369 132.0
1395.090454 168.0
1395.246582 72.0
1395.744751 72.0
1396.643188 248.0
1397.209961 156.0
1397.373657 100.0
1397.440552 88.0
1397.567017 156.0
1397.953979 92.0
1398.795044 56.0
1399.286377 232.0
1399.800049 104.0
1400.239502 56.0
1400.902344 256.0
1401.394043 120.0
1401.654907 80.0
1402.631104 124.0
1402.914429 164.0
1404.040283 124.0
1404.346069 140.0
1406.353149 132.0
1406.696533 48.0
1407.988159 172.0
1408.500366 160.0
1409.033936 136.0
1409.198242 108.0
1409.362671 72.0
1409.452271 196.0
1409.586792 128.0
1409.68396 132.0
1410.371582 220.0
1410.902222 100.0
1411.066772 176.0
1411.186401 212.0
1412.166016 212.0
1412.801758 60.0
1413.579956 172.0
1413.692139 176.0
1413.774414 140.0
1413.991455 96.0
1414.979614 168.0
1415.129272 132.0
1415.189209 128.0
1415.286499 80.0
1415.638428 156.0
1416.0354 160.0
1416.886963 128.0
1417.237671 168.0
1417.352783 164.0
1417.541138 120.0
1418.403076 136.0
1418.522949 84.0
1418.777832 164.0
1418.890259 84.0
1419.25769 252.0
1420.172607 180.0
1420.937744 160.0
1422.333496 156.0
1423.179932 156.0
1424.022827 136.0
1424.479736 176.0
1424.698853 188.0
1425.73584 136.0
1426.352051 60.0
1426.765503 104.0
1426.848267 136.0
1427.112671 192.0
1427.246704 164.0
1427.697876 224.0
1427.878418 128.0
1428.728394 168.0
1429.601196 100.0
1430.287964 152.0
1430.790405 152.0
1430.948486 116.0
1431.415283 148.0
1431.844604 32.0
1432.15332 212.0
1432.326538 148.0
1432.530029 144.0
1432.853882 80.0
1433.403931 124.0
1433.456665 340.0
1433.592285 112.0
1434.225342 152.0
1435.602661 136.0
1436.034912 84.0
1436.5177 132.0
1436.804321 120.0
1437.410034 148.0
1437.755127 216.0
1438.65332 212.0
1439.053345 180.0
1439.831177 176.0
1440.193726 216.0
1440.609131 136.0
1440.782837 244.0
1441.674438 132.0
1442.362183 96.0
1442.808228 136.0
1443.307251 80.0
1444.17688 188.0
1444.509766 152.0
1446.408936 172.0
1446.772339 164.0
1447.779419 76.0
1447.839966 112.0
1448.279175 160.0
1448.370117 76.0
1448.680664 128.0
1449.589844 156.0
1450.400757 156.0
1450.5979 160.0
1450.683594 208.0
1450.885986 148.0
1450.938965 200.0
1451.431885 156.0
1452.334229 80.0
1452.402588 180.0
1452.652832 104.0
1453.365967 184.0
1453.449463 264.0
1453.59729 168.0
1454.010986 148.0
1454.287231 120.0
1454.473999 172.0
1454.747314 204.0
1455.286255 212.0
1455.833008 136.0
1456.12915 196.0
1457.147095 52.0
1457.731079 180.0
1457.960083 208.0
1458.218506 184.0
1458.363037 156.0
1458.628906 132.0
1459.495605 172.0
1459.571655 136.0
1459.75415 156.0
1460.043091 80.0
1460.408203 148.0
1460.545044 176.0
1460.674438 200.0
1460.758057 156.0
1461.275391 172.0
1461.442749 144.0
1461.754761 88.0
1461.877686 184.0
1462.00354 212.0
1462.081909 136.0
1462.279785 132.0
1462.540283 200.0
1462.728882 60.0
1463.276978 204.0
1463.924194 152.0
1464.160278 148.0
1464.678223 144.0
1464.79248 168.0
1464.876221 152.0
1465.251709 112.0
1465.424805 116.0
1465.942871 180.0
1466.072388 124.0
1466.125732 68.0
1466.209595 40.0
1466.278198 176.0
1467.063232 192.0
1467.429199 156.0
1469.046021 192.0
1469.572388 156.0
1469.68689 168.0
1469.831787 136.0
1470.808716 192.0
1470.953735 48.0
1471.075806 220.0
1471.404053 116.0
1471.556763 52.0
1471.755249 172.0
1472.503662 144.0
1472.627197 188.0
1474.146118 108.0
1474.275146 136.0
1474.643188 152.0
1474.94104 36.0
1475.720703 188.0
1476.676636 120.0
1477.082031 200.0
1477.234985 128.0
1479.301025 108.0
1479.553711 120.0
1479.64563 156.0
1479.768066 168.0
1480.12793 116.0
1480.518433 188.0
1480.847778 188.0
1481.085205 176.0
1481.353271 116.0
1481.418823 172.0
1481.537109 144.0
1482.134766 228.0
1482.196045 172.0
1482.456543 152.0
1482.617554 148.0
1482.678833 120.0
1483.184692 48.0
1483.245972 132.0
1483.514282 136.0
1483.612793 52.0
1483.795654 120.0
1484.227295 148.0
1484.395996 176.0
1484.534058 196.0
1484.978882 132.0
1485.078491 132.0
1485.868652 140.0
1487.011963 140.0
1487.741211 152.0
1488.048218 56.0
1488.639526 184.0
1489.269287 104.0
1489.530396 124.0
1490.19873 164.0
1490.552246 104.0
1491.205444 144.0
1491.282227 144.0
1491.528198 160.0
1491.689575 120.0
1491.766479 204.0
1491.95874 176.0
1492.127808 200.0
1492.327759 144.0
1492.390869 192.0
1492.646851 172.0
1492.835205 184.0
1492.904419 184.0
1493.204346 220.0
1493.365845 260.0
1494.619751 152.0
1495.032959 144.0
1495.512451 144.0
1495.720337 200.0
1495.828125 224.0
1495.905029 188.0
1496.182129 128.0
1496.305298 140.0
1496.559448 132.0
1496.766846 136.0
1497.175415 164.0
1497.337158 124.0
1497.598999 164.0
1497.698486 148.0
1497.862549 152.0
1498.045776 92.0
1498.145996 128.0
1498.253784 28.0
1498.592773 176.0
1498.993408 132.0
1499.833496 104.0
1500.010742 60.0
1500.141846 244.0
1500.247314 104.0
1500.373047 180.0
1500.542725 212.0
1500.635254 220.0
1501.421753 28.0
1501.630005 120.0
1502.312378 120.0
1502.586426 224.0
1503.007446 340.0
1503.115723 100.0
1503.296265 132.0
1503.574097 168.0
1503.705322 48.0
1503.875122 156.0
1504.098999 104.0
1504.423218 104.0
1504.77832 232.0
1504.909546 164.0
1505.009888 144.0
1505.063965 96.0
