>compound MLS001049094-01!
>formula C17H14O4
>ionization [M+H]+
>parentmass 283.097504
#inchi InChI=1S/C17H14O4/c1-19-12-8-15(20-2)17-13(18)10-14(21-16(17)9-12)11-6-4-3-5-7-11/h3-10H,1-2H3
#inchikey JRFZSUMZAUHNSL
#Ion_Source LC-ESI
#Instrument qTof
#Compound_Source NIH Natural Product Library
#PI Dorrestein
#Data_Collector VVP/LMS
#Scan -1
#Precursor_MZ 283.097
#ExactMass 282.089
#Charge 1
#CAS_Number N/A
#Pubmed_ID N/A
#Smiles COc1cc(OC)c2c(=O)cc(oc2c1)c3ccccc3
#INCHI_AUX N/A
#Library_Class 1
#SpectrumID CCMSLIB00000079852
#IonMode Positive
#UpdateWorkflowName UPDATE-SINGLE-ANNOTATED-GOLD
#LibraryQualityString Gold
#TaskID b1d8e8f6646f4e71acdff9ca3d919d08
##Scan# 2024
#SpectrumFile p1-A12_GA12_01_17884.mzXML
#LibraryName NIH_Natural_Products_Library.mgf
#MQScore -1
#Organism NIH_Natural_Products_Library
#TIC_Query 0
#RT_Query -1
#MZErrorPPM -1
#SharedPeaks 0
#MassDiff 0
#LibMZ -1
#SpecMZ 283.097
#SpecCharge 0
#internalFilename spec-00000.mgf

>collision 10
94.968254 120.0
95.012245 2360.0
95.04483 136.0
95.096313 168.0
95.109894 152.0
95.1698 140.0
95.197556 184.0
95.212799 196.0
95.243011 72.0
95.284668 160.0
95.303017 144.0
95.352226 224.0
95.375999 176.0
95.393494 80.0
95.415886 116.0
95.484985 144.0
95.515549 132.0
95.531189 104.0
95.549431 172.0
95.566582 68.0
95.607445 132.0
95.621063 180.0
95.643463 196.0
95.665199 172.0
95.706718 100.0
95.755402 84.0
95.769035 128.0
95.785927 156.0
95.822868 160.0
95.839729 192.0
95.870338 48.0
95.904335 172.0
95.925484 192.0
95.950256 172.0
95.982857 176.0
96.016487 128.0
96.045807 144.0
96.120354 176.0
96.139458 256.0
96.158974 124.0
96.176537 220.0
96.246819 32.0
96.268974 136.0
96.287827 196.0
96.319077 196.0
96.357147 196.0
96.403641 192.0
96.42849 140.0
96.450226 164.0
96.488297 124.0
96.510551 172.0
96.527313 204.0
96.545792 164.0
96.588821 40.0
96.635773 160.0
96.708382 188.0
96.788353 188.0
96.819458 176.0
96.835381 136.0
96.880486 40.0
96.902039 112.0
96.917824 136.0
96.984657 124.0
97.024239 256.0
97.039154 212.0
97.065651 260.0
97.140007 144.0
97.168671 140.0
97.192215 212.0
97.221367 208.0
97.234528 128.0
97.262444 148.0
97.267357 208.0
97.311943 156.0
97.362999 192.0
97.395302 116.0
97.416031 96.0
97.454506 328.0
97.46907 32.0
97.598801 216.0
97.619339 184.0
97.633904 164.0
97.661728 100.0
97.695168 152.0
97.71711 156.0
97.731964 200.0
97.745193 336.0
97.771904 136.0
97.789246 212.0
97.817177 296.0
97.830956 136.0
97.84938 256.0
97.868362 148.0
97.899864 92.0
97.940956 132.0
97.960922 256.0
98.037766 180.0
98.055496 92.0
98.077179 280.0
98.098862 164.0
98.130409 204.0
98.149879 32.0
98.17112 160.0
98.207314 132.0
98.27636 100.0
98.294113 120.0
98.366348 176.0
98.375137 200.0
98.436241 104.0
98.478874 156.0
98.522217 180.0
98.536041 204.0
98.58287 140.0
98.608109 164.0
98.630905 224.0
98.667404 140.0
98.704971 132.0
98.758369 140.0
98.782341 132.0
98.80545 264.0
98.811218 212.0
98.908745 256.0
98.987068 192.0
99.017639 152.0
99.045547 176.0
99.075081 76.0
99.100838 204.0
99.172401 144.0
99.197945 140.0
99.223022 160.0
99.250221 192.0
99.286224 168.0
99.297707 152.0
99.324524 168.0
99.36747 248.0
99.384789 188.0
99.420082 232.0
99.46772 160.0
99.501465 68.0
99.523308 72.0
99.543159 244.0
99.582878 184.0
99.59948 112.0
99.64843 148.0
99.683929 176.0
99.699142 176.0
99.717415 152.0
99.731895 28.0
99.75972 144.0
99.80545 160.0
99.823341 160.0
99.972542 116.0
99.996422 128.0
100.097946 216.0
100.125824 40.0
100.164764 124.0
100.177895 196.0
100.23806 164.0
100.25943 124.0
100.303589 164.0
100.308891 200.0
100.316254 140.0
100.337036 160.0
100.370934 72.0
100.420792 152.0
100.486618 144.0
100.544487 208.0
100.558899 248.0
100.582405 232.0
100.653313 116.0
100.682236 120.0
100.711319 208.0
100.72094 116.0
100.800095 132.0
100.82547 196.0
100.840065 164.0
100.86425 156.0
100.878922 168.0
100.910309 224.0
100.934021 204.0
100.950012 168.0
100.97364 192.0
101.022346 196.0
101.060204 212.0
101.108055 136.0
101.14476 224.0
101.168098 192.0
101.262207 136.0
101.292252 144.0
101.311531 160.0
101.344337 120.0
101.405548 160.0
101.4245 88.0
101.446548 144.0
101.508705 236.0
101.522743 136.0
101.5448 168.0
101.572884 120.0
101.590469 172.0
101.62764 284.0
101.679222 68.0
101.715347 176.0
101.75148 156.0
101.769547 220.0
101.791634 100.0
101.819748 116.0
101.83992 192.0
101.86496 212.0
101.928734 176.0
101.956741 148.0
102.004852 188.0
102.026711 148.0
102.047539 156.0
102.072823 124.0
102.155411 104.0
102.191628 88.0
102.219795 124.0
102.241928 84.0
102.363281 356.0
102.391846 172.0
102.43119 148.0
102.477524 128.0
102.493645 188.0
102.565102 176.0
102.580299 92.0
102.594414 104.0
102.616035 232.0
102.623451 168.0
102.661453 160.0
102.680244 240.0
102.715775 132.0
102.846558 172.0
102.915199 92.0
102.929329 200.0
102.967636 132.0
102.989914 168.0
103.008095 112.0
103.054367 2508.0
103.101036 152.0
103.131348 180.0
103.156563 312.0
103.169121 152.0
103.189972 84.0
103.204124 96.0
103.259773 216.0
103.289062 112.0
103.307266 140.0
103.331543 152.0
103.394272 184.0
103.430702 168.0
103.450943 56.0
103.487389 132.0
103.509659 112.0
103.54641 136.0
103.6008 140.0
103.64888 148.0
103.712196 168.0
103.736572 164.0
103.754814 196.0
103.778839 244.0
103.829842 100.0
103.858047 132.0
103.894257 132.0
103.946968 168.0
103.975906 192.0
104.025482 236.0
104.040863 176.0
104.060074 408.0
104.174889 124.0
104.204147 160.0
104.23835 176.0
104.260223 256.0
104.296806 132.0
104.365929 108.0
104.392136 72.0
104.420616 148.0
104.455589 140.0
104.502205 156.0
104.515373 76.0
104.5429 124.0
104.557144 140.0
104.593781 144.0
104.641258 136.0
104.65892 144.0
104.675209 180.0
104.731606 156.0
104.750565 144.0
104.783165 88.0
104.809647 88.0
104.880974 240.0
104.963646 196.0
105.009422 124.0
105.033516 5492.0
105.093697 220.0
105.116821 236.0
105.135216 304.0
105.1502 136.0
105.165558 168.0
105.184402 132.0
105.264519 120.0
105.285515 156.0
105.356186 160.0
105.453636 156.0
105.461563 196.0
105.564903 200.0
105.579224 132.0
105.595581 120.0
105.621422 208.0
105.713524 240.0
105.732651 200.0
105.824768 220.0
105.872375 152.0
105.888245 100.0
105.925629 208.0
105.950737 252.0
105.966087 204.0
105.982986 176.0
106.034363 1076.0
106.058304 136.0
106.125954 124.0
106.148506 92.0
106.232803 136.0
106.278923 188.0
106.296196 148.0
106.350922 360.0
106.394569 168.0
106.435776 48.0
106.518822 184.0
106.544853 148.0
106.605682 168.0
106.618073 172.0
106.635765 148.0
106.704704 180.0
106.752708 180.0
106.810921 200.0
106.826263 352.0
106.851624 160.0
106.918449 164.0
106.94149 220.0
106.960915 156.0
107.015717 144.0
107.047218 288.0
107.077377 208.0
107.093849 48.0
107.112389 192.0
107.170074 116.0
107.205101 148.0
107.225708 144.0
107.273117 148.0
107.320534 140.0
107.363838 144.0
107.38652 172.0
107.411278 108.0
107.42778 116.0
107.483482 156.0
107.530342 148.0
107.62384 152.0
107.644485 92.0
107.722969 136.0
107.771912 220.0
107.830795 164.0
107.860199 168.0
107.925499 112.0
107.959717 132.0
107.997498 136.0
108.020996 20992.0
108.067184 128.0
108.10466 152.0
108.12616 172.0
108.178062 204.0
108.206886 84.0
108.248291 148.0
108.28344 132.0
108.303986 220.0
108.33017 188.0
108.351852 36.0
108.385002 140.0
108.407799 92.0
108.438889 88.0
108.46376 228.0
108.477097 212.0
108.492775 156.0
108.527733 260.0
108.555305 128.0
108.584015 104.0
108.625343 112.0
108.628189 188.0
108.64801 192.0
108.664909 148.0
108.695656 352.0
108.737541 120.0
108.752068 220.0
108.807053 116.0
108.933815 188.0
108.97551 140.0
109.026413 2460.0
109.065697 204.0
109.103111 60.0
109.119644 160.0
109.15509 60.0
109.172768 176.0
109.200844 128.0
109.25621 188.0
109.277809 156.0
109.345154 84.0
109.37442 160.0
109.419334 136.0
109.435989 56.0
109.465141 132.0
109.565613 84.0
109.610954 200.0
109.647278 176.0
109.742264 124.0
109.800514 180.0
109.832184 168.0
109.841324 112.0
109.846077 224.0
109.866051 124.0
109.898407 164.0
109.929993 128.0
109.964676 136.0
110.007652 180.0
110.014336 88.0
110.035538 1424.0
110.064743 216.0
110.084465 128.0
110.099083 136.0
110.152023 464.0
110.178459 140.0
110.197197 128.0
110.236961 84.0
110.26622 148.0
110.303841 112.0
110.338882 204.0
110.360283 144.0
110.389915 140.0
110.439751 192.0
110.46199 120.0
110.510872 132.0
110.554817 92.0
110.599503 148.0
110.643745 148.0
110.667847 48.0
110.703445 352.0
110.79351 112.0
110.810204 120.0
110.841698 132.0
110.875229 180.0
110.90876 160.0
110.929665 148.0
110.934441 144.0
110.976433 100.0
111.017303 188.0
111.040718 428.0
111.135246 132.0
111.152031 64.0
111.177338 132.0
111.225487 236.0
111.273575 176.0
111.325333 244.0
111.356926 180.0
111.420776 368.0
111.441086 232.0
111.520958 208.0
111.574196 292.0
111.591011 132.0
111.605728 128.0
111.626755 168.0
111.649818 124.0
111.691956 132.0
111.717476 152.0
111.734024 92.0
111.748756 148.0
111.767174 196.0
111.809776 124.0
111.832924 160.0
111.85527 156.0
111.864159 196.0
111.898003 188.0
111.940292 164.0
111.961349 108.0
111.988731 164.0
112.014458 188.0
112.060356 96.0
112.172043 160.0
112.21637 160.0
112.30793 144.0
112.323143 92.0
112.349182 84.0
112.375839 176.0
112.404037 248.0
112.461014 180.0
112.488792 124.0
112.512032 168.0
112.533638 360.0
112.588219 240.0
112.621483 160.0
112.670067 164.0
112.699646 136.0
112.726654 184.0
112.734512 124.0
112.801086 180.0
112.877197 128.0
112.973228 188.0
112.991409 52.0
113.010452 32.0
113.041039 172.0
113.060425 168.0
113.08548 148.0
113.110176 228.0
113.154945 340.0
113.179779 156.0
113.199257 100.0
113.224365 220.0
113.266609 68.0
113.281433 128.0
113.306854 60.0
113.370422 112.0
113.484886 92.0
113.620621 100.0
113.742424 120.0
113.803139 268.0
113.854103 160.0
113.908455 284.0
113.926811 156.0
113.951813 132.0
113.970932 92.0
114.006905 112.0
114.026184 164.0
114.089027 156.0
114.106956 152.0
114.15374 184.0
114.179634 156.0
114.199211 52.0
114.211395 180.0
114.243721 156.0
114.265495 140.0
114.286377 168.0
114.397659 192.0
114.436729 160.0
114.463669 160.0
114.553864 136.0
114.613289 228.0
114.648537 92.0
114.675316 144.0
114.730736 160.0
114.77977 112.0
114.794701 184.0
114.875748 72.0
114.905609 208.0
114.965355 212.0
114.990967 136.0
115.054298 920.0
115.106239 212.0
115.154358 196.0
115.236389 180.0
115.290359 168.0
115.351936 56.0
115.381866 176.0
115.4132 128.0
115.443871 136.0
115.487854 68.0
115.508034 96.0
115.582909 292.0
115.624107 208.0
115.665955 204.0
115.692062 180.0
115.711327 164.0
115.74987 168.0
115.788414 136.0
115.803406 128.0
115.839821 40.0
115.899811 156.0
115.941811 392.0
115.983917 256.0
116.041267 260.0
116.05835 320.0
116.078178 148.0
116.115494 260.0
116.132439 372.0
116.159218 228.0
116.191391 108.0
116.233971 128.0
116.283661 132.0
116.300835 140.0
116.32444 156.0
116.350258 160.0
116.410324 28.0
116.43824 144.0
116.470459 176.0
116.5392 120.0
116.573578 108.0
116.627304 112.0
116.659554 120.0
116.704697 232.0
116.719749 372.0
116.739105 124.0
116.793228 128.0
116.810074 44.0
116.893982 180.0
116.921959 212.0
116.965004 44.0
116.980072 136.0
117.03389 144.0
117.048965 68.0
117.070679 208.0
117.102806 256.0
117.145882 120.0
117.160965 128.0
117.1782 160.0
117.205055 120.0
117.229912 148.0
117.262238 144.0
117.281319 164.0
117.344147 164.0
117.391586 136.0
117.454124 116.0
117.477859 88.0
117.516685 188.0
117.581421 188.0
117.610634 180.0
117.626511 144.0
117.633766 128.0
117.640289 176.0
117.695412 164.0
117.713112 156.0
117.759109 212.0
117.782097 276.0
117.808136 240.0
117.84919 228.0
117.873772 124.0
117.901047 48.0
117.933464 176.0
117.9767 148.0
117.991829 152.0
118.017776 140.0
118.043724 304.0
118.076157 88.0
118.124435 200.0
118.145378 140.0
118.176994 156.0
118.253563 164.0
118.273048 132.0
118.364983 180.0
118.415947 48.0
118.438454 244.0
118.474426 132.0
118.511261 112.0
118.715012 156.0
118.741035 172.0
118.764893 172.0
118.814789 192.0
118.847328 48.0
118.869026 112.0
118.895073 200.0
118.914085 168.0
118.946083 216.0
119.013252 196.0
119.039322 240.0
119.070915 124.0
119.127388 172.0
119.167603 212.0
119.184624 236.0
119.209953 144.0
119.233856 112.0
119.259941 204.0
119.281677 192.0
119.351036 168.0
119.407784 56.0
119.434425 192.0
119.455635 96.0
119.477386 148.0
119.502808 236.0
119.518723 84.0
119.539215 168.0
119.555717 96.0
119.607948 160.0
119.656418 200.0
119.686325 372.0
119.801804 184.0
119.85186 144.0
119.88237 116.0
119.908524 132.0
119.945572 132.0
119.96418 144.0
120.020554 1480.0
120.051147 256.0
120.106926 40.0
120.128738 184.0
120.144012 76.0
120.159279 96.0
120.178917 40.0
120.198555 68.0
120.218193 144.0
120.261841 184.0
120.277122 144.0
120.327332 92.0
120.364449 152.0
120.379227 172.0
120.414673 100.0
120.466003 40.0
120.504234 176.0
120.613983 164.0
120.650665 164.0
120.671196 204.0
120.703133 124.0
120.744682 144.0
120.766556 96.0
120.790611 104.0
120.881523 116.0
120.900948 224.0
120.91703 180.0
120.960777 152.0
120.990555 192.0
121.027565 1052.0
121.055435 100.0
121.079521 192.0
121.156189 104.0
121.178093 196.0
121.202194 160.0
121.294243 188.0
121.338081 184.0
121.375359 140.0
121.403862 184.0
121.43325 140.0
121.523338 128.0
121.558151 144.0
121.626541 176.0
121.682526 116.0
121.716499 204.0
121.733871 156.0
121.757187 164.0
121.781342 148.0
121.831863 96.0
121.847244 152.0
121.86702 128.0
121.902176 180.0
121.921951 76.0
121.959312 104.0
121.98349 104.0
122.035812 432.0
122.069237 140.0
122.122017 152.0
122.17701 200.0
122.293846 164.0
122.320045 176.0
122.337654 112.0
122.394341 204.0
122.416916 140.0
122.431206 96.0
122.467567 196.0
122.487396 56.0
122.507217 120.0
122.543205 252.0
122.560936 136.0
122.588737 184.0
122.641632 216.0
122.684517 172.0
122.719833 160.0
122.74929 168.0
122.776123 132.0
122.802719 204.0
122.844498 124.0
122.879791 176.0
122.894135 136.0
122.955223 152.0
122.982948 284.0
123.008095 8840.0
123.058067 160.0
123.091949 228.0
123.132927 136.0
123.191071 96.0
123.224205 192.0
123.25293 148.0
123.30471 180.0
123.336906 196.0
123.374565 216.0
123.414284 104.0
123.471771 88.0
123.493889 156.0
123.546982 104.0
123.578522 108.0
123.668396 232.0
123.728447 116.0
123.761658 164.0
123.78952 212.0
123.919464 108.0
123.952148 244.0
123.987022 228.0
124.010246 704.0
124.047447 120.0
124.062965 44.0
124.078484 68.0
124.122955 188.0
124.160522 144.0
124.182701 188.0
124.2071 100.0
124.238152 40.0
124.266998 76.0
124.377983 212.0
124.414787 168.0
124.431229 104.0
124.468979 148.0
124.48896 68.0
124.508949 172.0
124.533379 164.0
124.552521 168.0
124.649292 224.0
124.685333 220.0
124.744469 248.0
124.79451 188.0
124.860085 124.0
124.91124 160.0
124.929031 276.0
124.956795 148.0
124.974251 136.0
124.997429 240.0
125.02224 976.0
125.059662 312.0
125.20726 160.0
125.307297 132.0
125.338005 196.0
125.389946 168.0
125.418915 148.0
125.443436 84.0
125.514778 160.0
125.545998 180.0
125.598213 288.0
125.694008 216.0
125.725876 304.0
125.755707 176.0
125.774078 156.0
125.896362 236.0
126.045006 152.0
126.081779 124.0
126.113068 108.0
126.163956 340.0
126.206955 148.0
126.234825 168.0
126.253067 200.0
126.28299 80.0
126.300888 144.0
126.352333 136.0
126.379181 56.0
126.439598 176.0
126.456612 180.0
126.488838 48.0
126.506744 148.0
126.524658 180.0
126.562508 172.0
126.609741 120.0
126.632141 212.0
126.665733 208.0
126.715019 212.0
126.753113 96.0
126.842758 128.0
126.865173 144.0
126.902962 140.0
126.932434 192.0
126.961586 72.0
126.988495 168.0
127.020111 168.0
127.051918 348.0
127.105148 132.0
127.1231 120.0
127.147789 96.0
127.172478 136.0
127.199409 76.0
127.255898 124.0
127.273491 108.0
127.331879 164.0
127.383286 144.0
127.406006 160.0
127.423431 224.0
127.446587 128.0
127.463264 156.0
127.484642 164.0
127.611504 200.0
127.653236 84.0
127.668983 28.0
127.686974 80.0
127.751358 128.0
127.790443 208.0
127.821632 116.0
127.855698 56.0
127.902962 176.0
127.938751 156.0
127.992439 196.0
128.017792 108.0
128.062195 392.0
128.099152 128.0
128.177719 68.0
128.204758 128.0
128.222641 176.0
128.288162 160.0
128.321976 140.0
128.347427 164.0
128.389618 120.0
128.421188 260.0
128.448257 124.0
128.51651 140.0
128.552032 124.0
128.579224 176.0
128.605499 280.0
128.631027 244.0
128.647278 180.0
128.662003 128.0
128.696503 120.0
128.742035 100.0
128.809418 84.0
128.839264 188.0
128.889587 132.0
128.916672 76.0
128.965424 348.0
128.985382 156.0
128.992386 136.0
129.033585 20164.0
129.067871 264.0
129.112289 156.0
129.154251 108.0
129.184937 168.0
129.201675 108.0
129.219803 180.0
129.249756 228.0
129.281738 120.0
129.313629 68.0
129.36795 168.0
129.388336 104.0
129.428055 152.0
129.500839 240.0
129.537796 124.0
129.63295 204.0
129.674225 132.0
129.690948 68.0
129.72377 112.0
129.779877 148.0
129.821106 172.0
129.836975 172.0
129.87326 116.0
129.902756 68.0
129.946396 100.0
129.97731 120.0
129.990494 316.0
130.013931 76.0
130.037155 1688.0
130.069 160.0
130.115509 164.0
130.136505 100.0
130.23642 124.0
130.299103 140.0
130.322449 152.0
130.381821 136.0
130.507141 184.0
130.565704 176.0
130.60463 132.0
130.654678 52.0
130.690048 140.0
130.735153 164.0
130.766174 252.0
130.782104 116.0
130.808319 224.0
130.882278 200.0
130.930099 132.0
130.96051 56.0
130.976913 164.0
131.002686 252.0
131.046738 512.0
131.119186 168.0
131.1716 164.0
131.216782 132.0
131.260513 208.0
131.287567 144.0
131.340347 168.0
131.365433 60.0
131.383621 196.0
131.431595 84.0
131.453415 156.0
131.48288 212.0
131.500061 132.0
131.594315 192.0
131.62883 252.0
131.669006 148.0
131.758087 176.0
131.840332 116.0
131.962585 108.0
132.000351 124.0
132.022934 160.0
132.051605 176.0
132.088181 184.0
132.107849 204.0
132.187927 164.0
132.206238 112.0
132.234787 172.0
132.278061 188.0
132.316101 128.0
132.350449 196.0
132.459442 228.0
132.502258 156.0
132.588821 220.0
132.620224 204.0
132.689392 132.0
132.75145 168.0
132.898239 196.0
132.953308 60.0
132.976273 144.0
132.996918 80.0
133.029526 252.0
133.05661 100.0
133.086456 172.0
133.114014 168.0
133.14386 328.0
133.169128 100.0
133.233307 180.0
133.274796 124.0
133.316162 52.0
133.383545 132.0
133.414993 144.0
133.440277 144.0
133.460632 340.0
133.46611 168.0
133.500061 148.0
133.548355 116.0
133.640518 188.0
133.716736 172.0
133.755432 164.0
133.885803 100.0
133.90863 192.0
133.958069 264.0
133.986938 144.0
134.035843 212.0
134.061966 224.0
134.111526 240.0
134.148529 136.0
134.174698 168.0
134.225342 188.0
134.259964 224.0
134.289993 124.0
134.368423 64.0
134.426666 148.0
134.444565 112.0
134.462234 116.0
134.49765 144.0
134.525345 220.0
134.626938 68.0
134.651581 184.0
134.689285 148.0
134.727432 200.0
134.753479 188.0
134.770142 172.0
134.800186 120.0
134.862579 172.0
134.895264 148.0
134.92038 84.0
134.950638 180.0
134.97879 152.0
135.011185 176.0
135.047424 552.0
135.077621 220.0
135.135452 164.0
135.1586 172.0
135.193298 44.0
135.228012 144.0
135.248856 240.0
135.336823 208.0
135.392395 192.0
135.42482 64.0
135.452606 136.0
135.475784 136.0
135.52211 124.0
135.553055 148.0
135.56424 44.0
135.607849 200.0
135.633347 156.0
135.686188 308.0
135.721527 216.0
135.800293 192.0
135.821167 76.0
135.9021 164.0
135.930206 112.0
135.957382 180.0
135.965805 128.0
135.974457 224.0
136.016022 11720.0
136.076218 128.0
136.154541 88.0
136.171631 116.0
136.224579 256.0
136.262802 144.0
136.290115 208.0
136.341232 184.0
136.378418 236.0
136.404816 208.0
136.427231 84.0
136.443497 76.0
136.478378 248.0
136.501633 92.0
136.578369 116.0
136.608612 172.0
136.652817 132.0
136.70517 184.0
136.749039 196.0
136.774261 152.0
136.811813 200.0
136.842606 168.0
136.915314 176.0
136.952972 140.0
136.967331 208.0
137.023758 38284.0
137.059189 112.0
137.068832 344.0
137.092468 144.0
137.181961 168.0
137.204773 112.0
137.229691 180.0
137.251404 236.0
137.279388 72.0
137.322586 148.0
137.365677 56.0
137.385895 132.0
137.403671 92.0
137.45813 212.0
137.47345 212.0
137.518753 240.0
137.557022 212.0
137.573364 196.0
137.644104 68.0
137.670593 188.0
137.73761 132.0
137.766586 248.0
137.80899 112.0
137.823639 132.0
137.851303 96.0
137.901123 240.0
137.923752 200.0
137.949463 152.0
137.996216 124.0
138.030701 17132.0
138.089676 116.0
138.125443 140.0
138.14769 180.0
138.191666 140.0
138.2173 100.0
138.234253 220.0
138.25531 68.0
138.29097 132.0
138.314758 124.0
138.353195 164.0
138.384613 92.0
138.506378 100.0
138.532715 184.0
138.558548 212.0
138.602478 224.0
138.628418 352.0
138.663803 64.0
138.693832 56.0
138.739563 164.0
138.764374 132.0
138.796982 152.0
138.827469 236.0
138.886093 88.0
138.906891 120.0
138.930099 84.0
138.968842 88.0
139.034698 1380.0
139.101974 112.0
139.160339 144.0
139.165359 124.0
139.21936 160.0
139.238144 120.0
139.256943 164.0
139.334457 188.0
139.36734 172.0
139.397339 152.0
139.41243 148.0
139.430786 108.0
139.4655 136.0
139.493042 132.0
139.52951 148.0
139.548325 88.0
139.581238 228.0
139.607101 48.0
139.626984 160.0
139.655823 176.0
139.701187 92.0
139.755295 100.0
139.823151 48.0
139.863022 168.0
139.886322 172.0
139.921494 156.0
139.943588 148.0
139.993042 80.0
140.02063 152.0
140.038284 164.0
140.060074 288.0
140.109222 172.0
140.13768 128.0
140.190918 120.0
140.21048 160.0
140.242767 112.0
140.379501 180.0
140.396011 60.0
140.433517 152.0
140.461243 164.0
140.497437 108.0
140.513947 204.0
140.546982 148.0
140.584305 156.0
140.619766 128.0
140.653183 116.0
140.687073 144.0
140.723999 124.0
140.740524 80.0
140.856247 180.0
140.889557 156.0
140.910583 184.0
140.940155 124.0
140.96019 156.0
140.983826 196.0
141.014557 280.0
141.041855 224.0
141.071121 5012.0
141.168213 36.0
141.201324 144.0
141.228333 176.0
141.269913 160.0
141.324326 92.0
141.376938 136.0
141.402298 156.0
141.419052 176.0
141.468689 96.0
141.494003 200.0
141.533249 76.0
141.613129 180.0
141.636826 176.0
141.676071 124.0
141.696045 140.0
141.750534 148.0
141.799911 120.0
141.840591 68.0
141.892746 136.0
141.916458 68.0
141.973373 108.0
142.03978 124.0
142.074448 1260.0
142.135925 288.0
142.255707 96.0
142.350677 132.0
142.393433 156.0
142.431534 168.0
142.486069 80.0
142.530746 124.0
142.609634 152.0
142.683319 188.0
142.740387 136.0
142.806976 140.0
142.826004 148.0
142.852158 128.0
142.890228 56.0
142.937805 168.0
142.959229 128.0
143.028244 140.0
143.045395 204.0
143.080444 340.0
143.1297 120.0
143.149673 44.0
143.194916 40.0
143.213379 164.0
143.244934 144.0
143.354523 84.0
143.383118 92.0
143.430786 148.0
143.48085 208.0
143.503418 132.0
143.523773 48.0
143.56192 172.0
143.626312 180.0
143.73143 136.0
143.771851 132.0
143.788559 112.0
143.848221 88.0
143.872101 84.0
143.94133 228.0
143.977158 96.0
144.048813 48.0
144.067581 172.0
144.077225 148.0
144.085678 172.0
144.125259 208.0
144.144379 112.0
144.165878 220.0
144.206085 156.0
144.260941 104.0
144.278214 304.0
144.311691 204.0
144.383423 76.0
144.404953 76.0
144.481491 172.0
144.548492 124.0
144.594711 244.0
144.625885 164.0
144.665237 164.0
144.689697 48.0
144.718903 208.0
144.732056 128.0
144.764908 216.0
144.820343 112.0
144.862122 200.0
144.89566 208.0
144.920441 116.0
144.941177 192.0
144.960205 136.0
145.011642 180.0
145.027451 164.0
145.058624 92.0
145.106995 200.0
145.158569 116.0
145.165085 196.0
145.202484 128.0
145.250031 160.0
145.259949 104.0
145.26564 156.0
145.295822 140.0
145.301697 276.0
145.346405 188.0
145.430405 200.0
145.456802 316.0
145.483215 136.0
145.523376 88.0
145.576843 252.0
145.598465 156.0
145.636887 128.0
145.660904 144.0
145.682526 204.0
145.704147 140.0
145.732986 148.0
145.766617 236.0
145.809875 188.0
145.838715 136.0
145.942871 108.0
145.981064 176.0
146.007019 152.0
146.030273 172.0
146.053574 208.0
146.119156 244.0
146.164261 108.0
146.213913 144.0
146.252411 240.0
146.286118 48.0
146.334259 160.0
146.392044 192.0
146.411316 164.0
146.46019 204.0
146.505966 160.0
146.526932 120.0
146.551025 172.0
146.570618 124.0
146.619705 176.0
146.640182 104.0
146.678757 192.0
146.725082 128.0
146.760727 176.0
146.783081 160.0
146.83194 224.0
146.857178 80.0
146.874069 108.0
146.923294 104.0
146.94603 116.0
146.98587 152.0
146.996063 140.0
147.001251 128.0
147.044876 1972.0
147.074326 140.0
147.154373 152.0
147.198502 232.0
147.207977 200.0
147.308548 176.0
147.347198 196.0
147.371368 148.0
147.406189 156.0
147.448685 108.0
147.477692 88.0
147.535126 128.0
147.561584 164.0
147.579224 40.0
147.634842 104.0
147.700134 96.0
147.763031 184.0
147.784805 80.0
147.805954 136.0
147.83078 112.0
147.869507 252.0
147.88887 220.0
147.942123 128.0
147.959061 160.0
147.984009 200.0
148.017197 368.0
148.045425 248.0
148.061615 192.0
148.094666 152.0
148.123734 96.0
148.167343 108.0
148.256989 100.0
148.315155 208.0
148.339401 128.0
148.400009 44.0
148.428391 136.0
148.497009 128.0
148.513977 52.0
148.577042 44.0
148.652054 184.0
148.673676 204.0
148.677841 192.0
148.688416 116.0
148.694382 180.0
148.734787 160.0
148.827606 184.0
148.868317 164.0
148.941162 180.0
148.9776 152.0
149.024689 1040.0
149.058502 176.0
149.077225 124.0
149.101517 68.0
149.127563 84.0
149.219421 192.0
149.269257 100.0
149.322754 164.0
149.342209 188.0
149.388153 172.0
149.449249 196.0
149.539154 148.0
149.567154 160.0
149.590408 172.0
149.633514 164.0
149.673187 164.0
149.695099 208.0
149.722641 168.0
149.801514 168.0
149.836365 128.0
149.921646 128.0
149.950897 116.0
149.975266 44.0
150.027267 252.0
150.09343 288.0
150.160568 144.0
150.197144 184.0
150.226425 176.0
150.258133 184.0
150.277649 168.0
150.321564 136.0
150.426514 36.0
150.522186 192.0
150.553482 140.0
150.60405 68.0
150.625092 136.0
150.734238 108.0
150.797791 176.0
150.883331 180.0
150.976257 144.0
150.999847 192.0
151.031204 144.0
151.051239 212.0
151.083878 136.0
151.113235 136.0
151.132797 92.0
151.176849 124.0
151.211105 148.0
151.228241 112.0
151.260056 144.0
151.286026 212.0
151.292892 116.0
151.345749 44.0
151.367783 144.0
151.409668 152.0
151.435104 188.0
151.490234 136.0
151.637207 176.0
151.644272 172.0
151.678925 124.0
151.712524 136.0
151.745667 140.0
151.769379 200.0
151.796753 128.0
151.84758 132.0
151.92659 196.0
152.002655 148.0
152.034546 120.0
152.062637 956.0
152.12291 84.0
152.167099 148.0
152.216202 180.0
152.248123 140.0
152.284134 176.0
152.341461 156.0
152.378311 168.0
152.42865 140.0
152.454483 136.0
152.555756 156.0
152.587219 120.0
152.619125 188.0
152.628372 184.0
152.638672 324.0
152.673737 192.0
152.793793 128.0
152.862686 180.0
152.894943 156.0
153.022598 120.0
153.025604 328.0
153.070084 8780.0
153.107986 192.0
153.135956 224.0
153.155655 60.0
153.188354 204.0
153.261597 160.0
153.374954 164.0
153.397141 76.0
153.455505 292.0
153.477463 48.0
153.547348 156.0
153.569733 276.0
153.648666 72.0
153.669235 40.0
153.717926 112.0
153.791794 72.0
153.934982 128.0
153.979431 188.0
154.026672 1736.0
154.077057 4424.0
154.146042 108.0
154.169662 160.0
154.248749 160.0
154.270996 160.0
154.291977 72.0
154.32785 136.0
154.366592 128.0
154.395355 188.0
154.432861 224.0
154.449036 300.0
154.47377 40.0
154.531738 212.0
154.590057 64.0
154.627853 132.0
154.664017 172.0
154.715347 348.0
154.758362 52.0
154.779755 200.0
154.849991 88.0
154.935684 168.0
154.983765 48.0
155.033249 4276.0
155.083969 2812.0
155.108093 232.0
155.19223 72.0
155.219238 68.0
155.257553 424.0
155.355652 28.0
155.373016 112.0
155.396896 312.0
155.417908 84.0
155.507782 128.0
155.551682 28.0
155.585358 176.0
155.625549 212.0
155.631378 160.0
155.642105 136.0
155.680786 36.0
155.730453 148.0
155.78511 44.0
155.807465 156.0
155.862122 176.0
155.954666 184.0
156.038956 312.0
156.048996 152.0
156.056427 256.0
156.090973 776.0
156.146683 144.0
156.181198 156.0
156.197739 212.0
156.301712 352.0
156.371918 184.0
156.399292 112.0
156.434143 112.0
156.456543 116.0
156.536209 92.0
156.568954 136.0
156.595978 124.0
156.628357 80.0
156.652496 180.0
156.706757 176.0
156.743591 128.0
156.799225 132.0
156.885025 52.0
156.920486 216.0
156.970108 260.0
157.03537 184.0
157.054459 160.0
157.061142 140.0
157.145004 148.0
157.164352 136.0
157.22258 252.0
157.266663 148.0
157.29982 216.0
157.343674 128.0
157.403976 148.0
157.424866 152.0
157.442413 92.0
157.471405 188.0
157.511368 136.0
157.605194 100.0
157.628784 92.0
157.66127 156.0
157.69136 116.0
157.743973 132.0
157.761246 200.0
157.786255 160.0
157.822632 196.0
157.848755 140.0
157.93129 312.0
157.986099 140.0
158.021347 156.0
158.041351 196.0
158.062668 140.0
158.093903 188.0
158.192993 176.0
158.244461 160.0
158.264114 128.0
158.326721 168.0
158.366791 148.0
158.421906 108.0
158.464493 144.0
158.531128 148.0
158.677521 160.0
158.707611 128.0
158.765274 132.0
158.785339 172.0
158.89296 128.0
158.986038 136.0
159.076401 204.0
159.096481 188.0
159.154221 156.0
159.189377 184.0
159.224533 48.0
159.252167 164.0
159.322495 172.0
159.427032 264.0
159.436066 160.0
159.44754 136.0
159.454407 80.0
159.651764 140.0
159.679428 144.0
159.727219 184.0
159.75766 156.0
159.825333 160.0
159.853012 180.0
159.998993 116.0
160.026688 332.0
160.046005 172.0
160.104736 156.0
160.139999 164.0
160.171478 248.0
160.197388 188.0
160.223129 100.0
160.292908 212.0
160.331467 300.0
160.355316 164.0
160.384399 100.0
160.446228 136.0
160.472626 112.0
160.518021 184.0
160.555847 172.0
160.583588 332.0
160.61235 140.0
160.641602 108.0
160.702148 88.0
160.745041 180.0
160.805603 112.0
160.827194 144.0
160.868713 164.0
160.929291 216.0
160.965591 216.0
161.020203 304.0
161.05304 124.0
161.100815 216.0
161.187546 260.0
161.230347 112.0
161.308243 164.0
161.356277 92.0
161.417328 220.0
161.47966 196.0
161.509323 136.0
161.538345 84.0
161.578827 84.0
161.611725 140.0
161.673401 316.0
161.788879 152.0
161.844574 172.0
161.961075 216.0
162.029465 100.0
162.05098 128.0
162.144608 416.0
162.189117 68.0
162.218552 124.0
162.239105 276.0
162.305725 100.0
162.361511 100.0
162.394485 196.0
162.41478 192.0
162.437607 136.0
162.464905 184.0
162.518784 76.0
162.584763 184.0
162.655823 136.0
162.676132 152.0
162.754547 140.0
162.764099 124.0
162.788712 336.0
162.879044 88.0
163.001923 556.0
163.052368 848.0
163.079102 328.0
163.113052 104.0
163.151169 132.0
163.174057 220.0
163.30748 264.0
163.346985 176.0
163.38768 116.0
163.405487 152.0
163.424057 204.0
163.440018 140.0
163.525085 368.0
163.541733 164.0
163.567871 172.0
163.614182 172.0
163.647278 112.0
163.6651 200.0
163.685471 192.0
163.72113 160.0
163.758026 196.0
163.817902 116.0
163.899429 160.0
163.969299 172.0
164.061996 1392.0
164.13649 104.0
164.184937 120.0
164.202789 80.0
164.220642 204.0
164.269104 156.0
164.302261 96.0
164.320129 220.0
164.360947 196.0
164.390472 160.0
164.414017 196.0
164.440063 64.0
164.463028 48.0
164.50795 160.0
164.55365 96.0
164.590668 184.0
164.608551 108.0
164.66217 120.0
164.689545 168.0
164.722031 120.0
164.787338 108.0
164.818008 128.0
164.888443 304.0
164.944656 164.0
164.981567 148.0
165.0168 728.0
165.069305 5936.0
165.103745 420.0
165.152893 96.0
165.178467 160.0
165.201492 148.0
165.24498 128.0
165.265137 224.0
165.269165 196.0
165.328003 188.0
165.34549 116.0
165.370377 144.0
165.394913 116.0
165.47171 184.0
165.558228 172.0
165.618729 68.0
165.636658 56.0
165.721207 48.0
165.828827 152.0
165.855957 116.0
165.874969 164.0
165.933929 52.0
165.966095 224.0
165.986176 212.0
166.02594 15920.0
166.075516 364.0
166.104462 56.0
166.117203 120.0
166.190399 148.0
166.222443 328.0
166.277649 120.0
166.393814 92.0
166.416153 184.0
166.444504 196.0
166.510712 256.0
166.545059 184.0
166.632034 404.0
166.687561 180.0
166.741577 56.0
166.752716 192.0
166.75589 244.0
166.853729 236.0
166.899307 144.0
166.962418 160.0
167.030106 1476.0
167.086533 692.0
167.115356 176.0
167.152878 220.0
167.210571 184.0
167.236771 184.0
167.254318 204.0
167.307068 220.0
167.349564 212.0
167.386658 340.0
167.442276 248.0
167.484085 220.0
167.529846 164.0
167.548721 160.0
167.609711 108.0
167.71022 156.0
167.769501 40.0
167.822037 212.0
167.839111 304.0
167.906158 200.0
167.984695 276.0
168.004181 156.0
168.031479 360.0
168.055283 280.0
168.094086 156.0
168.128571 168.0
168.148682 120.0
168.199921 84.0
168.206345 128.0
168.235352 164.0
168.254501 172.0
168.280319 176.0
168.362503 208.0
168.402145 112.0
168.447067 196.0
168.468857 124.0
168.489517 84.0
168.577362 188.0
168.60321 288.0
168.672989 68.0
168.729309 188.0
168.749588 108.0
168.821808 136.0
168.859146 128.0
168.903122 200.0
168.934418 80.0
168.96521 124.0
169.000977 140.0
169.00473 116.0
169.018982 172.0
169.06427 2748.0
169.14267 152.0
169.224014 128.0
169.252487 128.0
169.286652 148.0
169.324997 372.0
169.400116 192.0
169.443481 108.0
169.470062 44.0
169.552979 92.0
169.597046 120.0
169.679993 164.0
169.705917 188.0
169.744812 184.0
169.770752 140.0
169.788895 68.0
169.858932 124.0
169.929932 228.0
169.962585 184.0
169.993835 164.0
170.071915 548.0
170.095062 68.0
170.139374 164.0
170.165146 180.0
170.185913 144.0
170.22171 184.0
170.263824 128.0
170.291519 84.0
170.349533 148.0
170.375504 112.0
170.415604 92.0
170.435272 172.0
170.476837 184.0
170.560013 100.0
170.588608 48.0
170.630554 124.0
170.658798 44.0
170.687393 168.0
170.765411 208.0
170.783432 168.0
170.921341 128.0
170.944916 204.0
170.963135 148.0
170.989151 92.0
171.044144 748.0
171.079483 2412.0
171.111496 272.0
171.12973 136.0
171.155762 120.0
171.187012 228.0
171.226074 84.0
171.280762 84.0
171.304214 124.0
171.398865 132.0
171.434479 188.0
171.506104 164.0
171.552368 52.0
171.596085 84.0
171.616943 96.0
171.637802 176.0
171.683868 140.0
171.696869 104.0
171.736893 156.0
171.768204 148.0
171.786453 236.0
171.804718 180.0
171.853348 176.0
171.943008 268.0
171.971725 156.0
172.000427 40.0
172.050858 164.0
172.078873 204.0
172.100937 148.0
172.175354 208.0
172.209305 120.0
172.240662 160.0
172.27652 220.0
172.319031 340.0
172.355606 144.0
172.384354 92.0
172.410629 68.0
172.431381 124.0
172.541168 100.0
172.58049 140.0
172.606537 116.0
172.65361 96.0
172.688858 160.0
172.744614 176.0
172.869186 196.0
172.896896 228.0
172.917831 184.0
172.957092 116.0
172.983276 144.0
173.043213 196.0
173.062424 652.0
173.103714 144.0
173.137756 108.0
173.166397 136.0
173.285416 172.0
173.297394 144.0
173.404968 208.0
173.462631 152.0
173.504929 148.0
173.593735 136.0
173.6147 56.0
173.637756 172.0
173.644241 136.0
173.677536 172.0
173.756348 132.0
173.973969 160.0
174.060806 180.0
174.117065 184.0
174.237808 132.0
174.265686 112.0
174.347137 72.0
174.404953 160.0
174.457535 184.0
174.475937 52.0
174.541656 168.0
174.642502 140.0
174.720505 36.0
174.78891 68.0
174.812592 104.0
174.84288 148.0
174.905914 324.0
174.936295 140.0
174.991577 236.0
175.015274 200.0
175.036346 212.0
175.065857 172.0
175.119415 116.0
175.153503 164.0
175.241608 120.0
175.323471 108.0
175.389435 136.0
175.42363 116.0
175.539642 120.0
175.56073 108.0
175.637222 116.0
175.707657 176.0
175.768448 192.0
175.821899 92.0
175.911636 172.0
175.940674 148.0
175.959167 100.0
175.979095 124.0
176.040604 156.0
176.062134 324.0
176.18689 156.0
176.262909 176.0
176.281403 108.0
176.408264 160.0
176.437347 180.0
176.46907 72.0
176.506729 244.0
176.540466 160.0
176.558365 156.0
176.582779 148.0
176.65155 100.0
176.670059 108.0
176.704453 164.0
176.75737 140.0
176.823532 168.0
176.916809 132.0
176.950592 168.0
176.971771 56.0
176.993927 140.0
177.022079 180.0
177.040619 88.0
177.069809 772.0
177.148224 132.0
177.18364 140.0
177.288895 160.0
177.310577 344.0
177.345291 180.0
177.37381 152.0
177.388382 156.0
177.461929 188.0
177.510757 228.0
177.567993 136.0
177.589218 164.0
177.640884 348.0
177.703476 108.0
177.824554 176.0
178.070129 140.0
178.104126 192.0
178.218353 128.0
178.26088 88.0
178.287445 156.0
178.318283 212.0
178.374496 228.0
178.421494 204.0
178.449585 116.0
178.489471 192.0
178.532028 144.0
178.561707 172.0
178.595459 108.0
178.64035 132.0
178.6996 100.0
178.758133 104.0
178.832657 168.0
178.933807 148.0
179.010025 192.0
179.039429 168.0
179.043823 388.0
179.090729 176.0
179.162842 136.0
179.210785 188.0
179.245377 184.0
179.272079 216.0
179.290726 204.0
179.328049 224.0
179.365356 136.0
179.394684 228.0
179.425751 196.0
179.473221 160.0
179.493332 108.0
179.58667 216.0
179.650681 148.0
179.677353 152.0
179.749405 108.0
179.794769 96.0
179.872162 140.0
179.954926 268.0
179.986969 176.0
180.056396 300.0
180.08577 200.0
180.115158 128.0
180.176819 144.0
180.259018 196.0
180.312866 160.0
180.356018 244.0
180.382355 152.0
180.40564 172.0
180.446518 176.0
180.499985 132.0
180.518707 76.0
180.5401 156.0
180.569519 124.0
180.598938 124.0
180.625687 124.0
180.680923 220.0
180.813263 184.0
180.858475 144.0
180.901306 92.0
180.962875 204.0
180.986969 88.0
181.064178 7604.0
181.128906 252.0
181.16806 136.0
181.193466 40.0
181.228027 172.0
181.257141 416.0
181.27626 152.0
181.30307 180.0
181.375427 148.0
181.405991 80.0
181.434402 128.0
181.45665 176.0
181.47998 56.0
181.507507 120.0
181.5336 116.0
181.55722 188.0
181.577911 256.0
181.607239 144.0
181.628159 124.0
181.659668 156.0
181.681122 76.0
181.736877 220.0
181.761612 124.0
181.80455 108.0
181.82428 124.0
181.842117 212.0
181.893112 224.0
181.930267 136.0
181.982071 148.0
182.025223 136.0
182.070221 1580.0
182.140335 180.0
182.20462 136.0
182.264709 208.0
182.290604 220.0
182.313583 140.0
182.379288 144.0
182.408859 116.0
182.44873 168.0
182.497574 56.0
182.521774 144.0
182.625854 108.0
182.67775 204.0
182.696579 224.0
182.735352 156.0
182.761536 208.0
182.817657 68.0
182.85257 176.0
182.919937 128.0
182.957428 220.0
183.002151 96.0
183.044327 592.0
183.079956 2636.0
183.119446 148.0
183.216553 136.0
183.276016 148.0
183.310455 88.0
183.334717 216.0
183.372437 44.0
183.424713 152.0
183.478943 108.0
183.504532 196.0
183.53688 116.0
183.568573 212.0
183.593506 168.0
183.613815 204.0
183.647446 112.0
183.709488 180.0
183.728363 60.0
183.793121 64.0
183.820099 96.0
183.84169 176.0
183.867737 92.0
183.909164 128.0
183.936874 180.0
183.945343 128.0
183.969238 140.0
184.041489 400.0
184.080811 360.0
184.133255 128.0
184.166565 156.0
184.220871 108.0
184.244003 180.0
184.294266 132.0
184.317627 224.0
184.346664 136.0
184.470993 48.0
184.575851 128.0
184.627213 108.0
184.673798 192.0
184.738708 112.0
184.779282 176.0
184.817169 136.0
184.87941 48.0
184.914078 160.0
184.949768 140.0
184.96965 144.0
185.037888 136.0
185.059906 124.0
185.086731 108.0
185.125748 44.0
185.161346 192.0
185.217834 36.0
185.248978 212.0
185.267395 176.0
185.286301 156.0
185.362869 144.0
185.380386 172.0
185.40477 152.0
185.486084 136.0
185.509079 224.0
185.529449 228.0
185.578262 120.0
185.607147 128.0
185.673157 192.0
185.694855 116.0
185.759964 220.0
185.809982 136.0
185.849487 48.0
185.879333 248.0
185.919067 224.0
185.941742 144.0
185.979752 124.0
186.003479 220.0
186.066528 1852.0
186.104614 132.0
186.138016 244.0
186.188263 316.0
186.270279 252.0
186.423416 176.0
186.557953 176.0
186.601822 76.0
186.641571 200.0
186.701111 132.0
186.768036 260.0
186.895554 52.0
186.936844 164.0
186.958145 68.0
187.069794 276.0
187.102402 208.0
187.172989 160.0
187.219482 176.0
187.288895 176.0
187.322983 60.0
187.35022 120.0
187.373856 184.0
187.408615 132.0
187.442047 400.0
187.478287 108.0
187.516434 108.0
187.552597 164.0
187.611954 160.0
187.650009 88.0
187.704544 180.0
187.829987 160.0
187.895935 116.0
187.916763 104.0
187.994064 208.0
188.045547 152.0
188.168381 160.0
188.203873 156.0
188.273895 56.0
188.293991 160.0
188.324875 192.0
188.371979 304.0
188.400024 136.0
188.474274 132.0
188.532654 220.0
188.59726 168.0
188.658157 172.0
188.706604 164.0
188.7565 216.0
188.768539 184.0
188.849899 188.0
188.87764 160.0
188.929626 124.0
188.969162 108.0
189.018417 116.0
189.07077 148.0
189.156708 120.0
189.164368 180.0
189.20726 116.0
189.234131 172.0
189.256546 64.0
189.303101 92.0
189.324997 184.0
189.418442 140.0
189.450989 156.0
189.475647 124.0
189.548889 208.0
189.60556 168.0
189.648285 136.0
189.694885 180.0
189.756592 132.0
189.779861 60.0
189.80455 112.0
189.856644 104.0
189.930695 172.0
189.960876 224.0
189.988297 216.0
190.016556 240.0
190.139618 108.0
190.176895 164.0
190.217194 252.0
190.265472 108.0
190.291107 156.0
190.331314 204.0
190.391785 152.0
190.452209 100.0
190.496155 88.0
190.525269 188.0
190.561508 208.0
190.617035 92.0
190.641769 168.0
190.671997 200.0
190.701416 228.0
190.759949 140.0
190.834183 132.0
190.883682 200.0
190.90567 148.0
190.949677 84.0
191.007431 212.0
191.037048 188.0
191.081711 180.0
191.133804 116.0
191.141022 108.0
191.151566 176.0
191.18454 196.0
191.192886 148.0
191.263336 56.0
191.35112 240.0
191.412003 104.0
191.458817 184.0
191.500122 36.0
191.668167 200.0
191.72879 200.0
191.782822 104.0
191.819748 80.0
191.858704 264.0
192.018661 164.0
192.056015 3412.0
192.134109 152.0
192.174805 112.0
192.222153 132.0
192.239594 296.0
192.28035 132.0
192.299667 68.0
192.338318 216.0
192.374207 192.0
192.405212 196.0
192.473587 120.0
192.517776 296.0
192.537109 140.0
192.590027 148.0
192.632492 224.0
192.705597 184.0
192.771835 144.0
192.83194 128.0
192.882462 136.0
193.006866 128.0
193.063446 936.0
193.161743 108.0
193.183868 120.0
193.255798 160.0
193.275177 200.0
193.30838 164.0
193.349884 140.0
193.38472 164.0
193.468903 84.0
193.488281 268.0
193.529816 216.0
193.549194 136.0
193.604019 100.0
193.646118 72.0
193.682129 108.0
193.729218 136.0
193.818649 184.0
193.839172 204.0
193.864975 88.0
194.021118 192.0
194.073318 852.0
194.10614 148.0
194.128326 160.0
194.185608 128.0
194.233719 96.0
194.267014 148.0
194.339142 156.0
194.364105 60.0
194.4263 116.0
194.452911 112.0
194.480667 344.0
194.533508 104.0
194.563934 88.0
194.613647 148.0
194.620804 188.0
194.663635 128.0
194.691208 100.0
194.708328 136.0
194.734573 156.0
194.765976 196.0
194.791656 52.0
194.830536 124.0
194.916672 76.0
194.936127 128.0
194.96669 180.0
194.990112 56.0
195.012314 144.0
195.040176 144.0
195.07869 604.0
195.125122 320.0
195.205765 124.0
195.272507 172.0
195.330917 132.0
195.389328 56.0
195.428284 120.0
195.579391 160.0
195.611954 104.0
195.697632 160.0
195.77066 76.0
195.817993 312.0
195.855209 148.0
195.901566 152.0
195.926636 56.0
196.013 176.0
196.051926 244.0
196.078934 176.0
196.185806 148.0
196.205322 164.0
196.228226 148.0
196.297562 96.0
196.328003 148.0
196.450729 104.0
196.534424 160.0
196.55954 216.0
196.590164 164.0
196.639603 168.0
196.729782 148.0
196.790039 168.0
196.835876 168.0
196.92804 140.0
196.974365 204.0
196.982315 120.0
197.00531 192.0
197.059113 4956.0
197.132782 120.0
197.15712 184.0
197.187866 148.0
197.341614 112.0
197.467438 160.0
197.501984 92.0
197.542419 164.0
197.57373 68.0
197.618591 132.0
197.633698 120.0
197.690231 240.0
197.738831 64.0
197.792664 152.0
197.8228 124.0
198.018097 96.0
198.064301 584.0
198.158295 200.0
198.20369 104.0
198.24852 168.0
198.325424 100.0
198.331268 84.0
198.342529 184.0
198.366241 152.0
198.391464 116.0
198.433517 224.0
198.464355 164.0
198.486786 112.0
198.514053 188.0
198.525558 136.0
198.53038 300.0
198.614441 116.0
198.640076 256.0
198.68959 236.0
198.711472 168.0
198.767288 152.0
198.817383 124.0
198.854279 44.0
198.885162 116.0
198.935684 44.0
198.983414 72.0
199.003052 116.0
199.041428 96.0
199.064972 192.0
199.105133 308.0
199.204941 228.0
199.285019 88.0
199.334503 68.0
199.45816 128.0
199.480652 44.0
199.50032 168.0
199.556549 168.0
199.581848 112.0
199.660431 136.0
199.671188 104.0
199.678925 216.0
199.7099 384.0
199.812683 168.0
199.936295 216.0
199.981323 212.0
200.011017 152.0
200.034805 196.0
200.063461 44.0
200.226257 192.0
200.249908 60.0
200.274139 156.0
200.350189 172.0
200.378174 60.0
200.402954 192.0
200.419174 148.0
200.541809 156.0
200.561539 180.0
200.606628 112.0
200.660202 80.0
200.741959 192.0
200.778625 128.0
200.804001 124.0
200.888626 64.0
200.939407 156.0
200.961975 196.0
201.015594 160.0
201.048904 192.0
201.096939 180.0
201.213165 132.0
201.244217 136.0
201.28093 80.0
201.303513 40.0
201.375854 124.0
201.430939 168.0
201.467331 180.0
201.600128 160.0
201.634033 104.0
201.769714 104.0
201.863022 532.0
201.891296 180.0
201.930893 148.0
202.010086 132.0
202.060013 216.0
202.083649 168.0
202.106277 164.0
202.143829 132.0
202.175461 268.0
202.206482 144.0
202.238358 244.0
202.249298 164.0
202.278915 116.0
202.305847 132.0
202.369507 96.0
202.564911 148.0
202.597809 228.0
202.627228 208.0
202.647064 188.0
202.72641 68.0
202.754745 124.0
202.774826 92.0
202.831268 160.0
202.941299 212.0
202.974625 120.0
203.012711 128.0
203.059616 164.0
203.083954 168.0
203.219788 140.0
203.250992 72.0
203.28595 112.0
203.32193 208.0
203.36734 196.0
203.52916 216.0
203.618134 144.0
203.630447 212.0
203.679672 180.0
203.710922 68.0
203.765869 164.0
203.796143 140.0
203.915802 192.0
203.96463 168.0
204.069 116.0
204.136063 96.0
204.354691 124.0
204.401779 56.0
204.423904 140.0
204.578247 160.0
204.599701 164.0
204.639328 132.0
204.686432 136.0
204.797501 96.0
204.825729 136.0
204.882675 248.0
204.919983 168.0
204.996918 148.0
205.047989 196.0
205.053024 180.0
205.064011 140.0
205.090973 248.0
205.113846 152.0
205.210693 112.0
205.262024 128.0
205.296234 152.0
205.319061 224.0
205.350433 168.0
205.377884 200.0
205.421738 236.0
205.44455 84.0
205.501617 136.0
205.53595 160.0
205.628494 164.0
205.672836 124.0
205.738495 208.0
205.784714 208.0
205.828796 228.0
205.875549 92.0
205.961227 116.0
206.004074 84.0
206.081207 168.0
206.204086 60.0
206.249405 84.0
206.27182 304.0
206.372742 60.0
206.415619 44.0
206.467102 244.0
206.604401 88.0
206.635864 184.0
206.655884 196.0
206.720856 304.0
206.770355 172.0
206.816147 196.0
206.953995 132.0
207.045364 292.0
207.131104 144.0
207.214188 192.0
207.269974 212.0
207.315308 108.0
207.383255 120.0
207.423294 136.0
207.433624 132.0
207.444534 212.0
207.498367 148.0
207.529449 72.0
207.555252 208.0
207.618347 156.0
207.739456 212.0
207.784714 96.0
207.862183 64.0
207.984009 180.0
208.025772 236.0
208.051956 196.0
208.081177 120.0
208.121552 164.0
208.167053 212.0
208.350266 136.0
208.422104 112.0
208.524994 164.0
208.640533 184.0
208.674332 216.0
208.735931 132.0
208.835297 180.0
208.910843 216.0
208.939423 116.0
208.982773 144.0
209.008667 112.0
209.059387 1676.0
209.132416 124.0
209.155441 196.0
209.193497 200.0
209.214355 180.0
209.276184 136.0
209.299377 84.0
209.319534 188.0
209.368484 40.0
209.400177 204.0
209.509628 112.0
209.550644 324.0
209.596054 184.0
209.625275 176.0
209.694183 240.0
209.750549 124.0
209.794922 252.0
209.815109 156.0
209.841049 112.0
209.866272 80.0
209.887177 108.0
209.956131 224.0
209.990555 308.0
210.028625 252.0
210.067978 38392.0
210.157852 272.0
210.251068 196.0
210.282394 152.0
210.304001 140.0
210.39473 148.0
210.401611 212.0
210.43071 136.0
210.49025 76.0
210.524902 76.0
210.561859 328.0
210.593292 164.0
210.617325 128.0
210.64006 64.0
210.675095 128.0
210.708282 288.0
210.746323 116.0
210.772354 144.0
210.791901 168.0
210.834 248.0
210.878601 148.0
210.913757 208.0
211.000839 156.0
211.038818 648.0
211.073563 13656.0
211.135193 72.0
211.164078 124.0
211.223984 316.0
211.254547 168.0
211.279663 348.0
211.316895 304.0
211.357407 88.0
211.415268 52.0
211.444214 60.0
211.470261 48.0
211.504456 196.0
211.528152 64.0
211.549149 176.0
211.60257 68.0
211.655258 172.0
211.683151 112.0
211.710556 124.0
211.742401 112.0
211.772888 136.0
211.79454 52.0
211.84668 92.0
211.893036 88.0
211.945709 172.0
211.968369 44.0
211.988647 208.0
212.041611 372.0
212.07959 3820.0
212.154297 52.0
212.176041 196.0
212.206039 128.0
212.233002 80.0
212.261642 228.0
212.333633 48.0
212.377136 160.0
212.407715 132.0
212.43515 32.0
212.45546 140.0
212.505356 120.0
212.526108 136.0
212.55397 88.0
212.596725 180.0
212.619507 140.0
212.669052 164.0
212.725739 280.0
212.781998 364.0
212.804581 200.0
212.840332 128.0
212.903839 124.0
212.947708 136.0
213.052017 452.0
213.086609 984.0
213.107132 136.0
213.115494 208.0
213.14473 128.0
213.177582 140.0
213.224915 96.0
213.288101 124.0
213.309601 172.0
213.350769 160.0
213.384781 60.0
213.442932 84.0
213.463287 208.0
213.521637 124.0
213.559265 88.0
213.649429 76.0
213.722168 152.0
213.768402 36.0
213.835663 48.0
213.922974 156.0
213.9505 132.0
213.996017 184.0
214.03154 152.0
214.061081 388.0
214.097672 160.0
214.164658 172.0
214.20253 84.0
214.243301 144.0
214.278259 156.0
214.301575 164.0
214.369995 116.0
214.45311 156.0
214.540558 132.0
214.6064 192.0
214.660095 68.0
214.683426 100.0
214.759247 160.0
214.808838 160.0
214.840927 156.0
214.984055 72.0
215.063873 412.0
215.121002 176.0
215.179459 132.0
215.20015 132.0
215.249069 128.0
215.285934 128.0
215.416916 152.0
215.535782 52.0
215.629303 64.0
215.728668 192.0
215.839294 148.0
215.843643 124.0
215.855392 188.0
215.947968 168.0
215.997696 68.0
216.018173 144.0
216.0466 156.0
216.126419 328.0
216.152756 124.0
216.208359 104.0
216.246399 56.0
216.280701 200.0
216.304947 156.0
216.395691 96.0
216.441681 164.0
216.511139 132.0
216.539169 120.0
216.562607 88.0
216.660736 64.0
216.766953 212.0
216.799911 180.0
216.829224 188.0
216.86351 188.0
216.90213 160.0
217.043213 160.0
217.094223 192.0
217.100006 76.0
217.112045 144.0
217.155045 216.0
217.207443 144.0
217.252274 128.0
217.371735 144.0
217.392273 64.0
217.453903 120.0
217.48912 180.0
217.685822 176.0
217.710648 132.0
217.753372 152.0
217.923752 104.0
217.944305 116.0
217.985443 120.0
218.017776 124.0
218.063583 184.0
218.070236 108.0
218.083206 168.0
218.479401 124.0
218.516129 180.0
218.54509 208.0
218.608246 136.0
218.660095 88.0
218.762344 160.0
218.786957 252.0
218.986816 176.0
219.035278 200.0
219.085831 112.0
219.123352 152.0
219.227264 160.0
219.366821 160.0
219.433594 108.0
219.460129 80.0
219.527939 180.0
219.598724 132.0
219.629242 196.0
219.66066 72.0
219.683838 140.0
219.766861 188.0
219.799332 64.0
219.870148 288.0
219.958694 204.0
219.997925 164.0
220.032486 192.0
220.061646 128.0
220.109253 36.0
220.129929 72.0
220.224426 36.0
220.248062 184.0
220.275467 172.0
220.353363 212.0
220.389862 180.0
220.445999 136.0
220.485931 204.0
220.536758 232.0
220.599686 136.0
220.673599 148.0
220.69725 356.0
220.821457 76.0
220.858032 208.0
220.95752 180.0
220.990067 96.0
221.058136 652.0
221.155777 152.0
221.209061 284.0
221.279465 148.0
221.354126 220.0
221.374695 276.0
221.514069 180.0
221.561935 148.0
221.5961 156.0
221.632568 208.0
221.656265 164.0
221.67984 172.0
221.706039 156.0
221.754059 160.0
221.803574 108.0
221.881531 116.0
221.917099 172.0
221.970474 156.0
222.009018 156.0
222.064468 424.0
222.097992 140.0
222.128098 268.0
222.175125 124.0
222.228531 152.0
222.311615 168.0
222.359085 124.0
222.391739 176.0
222.44899 124.0
222.486725 132.0
222.549072 108.0
222.679733 128.0
222.80545 124.0
222.866882 132.0
222.899567 212.0
223.006546 264.0
223.034515 300.0
223.074982 4296.0
223.175995 160.0
223.205734 132.0
223.249115 136.0
223.303864 88.0
223.324677 64.0
223.360382 172.0
223.41095 108.0
223.455017 172.0
223.493698 108.0
223.539001 104.0
223.589478 220.0
223.628159 124.0
223.674683 76.0
223.72937 60.0
223.768066 132.0
223.81868 144.0
223.862213 136.0
223.888474 92.0
223.935623 164.0
223.959778 148.0
223.98381 108.0
224.04808 864.0
224.078308 608.0
224.168564 200.0
224.21669 72.0
224.247665 124.0
224.279419 104.0
224.308151 148.0
224.355042 160.0
224.3647 120.0
224.41832 160.0
224.47876 152.0
224.542999 336.0
224.565964 136.0
224.597717 372.0
224.658173 144.0
224.752838 188.0
224.817184 124.0
224.857224 220.0
224.885086 288.0
224.90625 84.0
224.939316 208.0
224.996887 304.0
225.012833 268.0
225.020111 248.0
225.055115 82856.0
225.141632 80.0
225.164871 140.0
225.1716 76.0
225.182526 180.0
225.219681 112.0
225.227585 80.0
225.236984 76.0
225.249649 44.0
225.264755 76.0
225.311966 256.0
225.360245 316.0
225.399567 48.0
225.410904 144.0
225.419815 80.0
225.46698 224.0
225.50267 72.0
225.518112 60.0
225.544571 236.0
225.606216 144.0
225.665588 120.0
225.690506 96.0
225.740341 44.0
225.779221 140.0
225.834183 108.0
225.856979 96.0
225.881561 184.0
225.910324 48.0
225.938202 180.0
225.984787 144.0
226.012329 156.0
226.057648 9500.0
226.125031 176.0
226.16539 192.0
226.265915 80.0
226.29187 148.0
226.317841 56.0
226.373627 68.0
226.397736 200.0
226.4496 52.0
226.491531 40.0
226.545532 156.0
226.593384 180.0
226.622665 140.0
226.644318 172.0
226.755188 92.0
226.791153 124.0
226.824127 88.0
226.911072 180.0
226.957642 60.0
227.025009 172.0
227.061615 1076.0
227.101578 360.0
227.162979 56.0
227.187195 52.0
227.212372 96.0
227.234604 200.0
227.264969 176.0
227.291977 148.0
227.314133 136.0
227.357925 128.0
227.396011 108.0
227.419968 80.0
227.451782 80.0
227.481628 184.0
227.509888 136.0
227.541153 116.0
227.589127 80.0
227.618484 120.0
227.665634 200.0
227.727692 192.0
227.801437 104.0
227.838409 112.0
227.865204 96.0
227.916428 116.0
227.930145 60.0
227.939346 148.0
228.003677 160.0
228.067047 236.0
228.103195 72.0
228.132523 92.0
228.217102 124.0
228.293518 116.0
228.326385 160.0
228.346405 152.0
228.418579 248.0
228.440384 548.0
228.462204 64.0
228.584 160.0
228.606369 164.0
228.630463 104.0
228.65416 144.0
228.708252 208.0
228.751648 128.0
228.77153 132.0
228.796661 156.0
228.818359 172.0
228.85408 428.0
228.897034 124.0
228.908447 120.0
228.918762 148.0
228.944031 188.0
228.984894 132.0
229.025467 116.0
229.046539 372.0
229.072647 168.0
229.107941 120.0
229.135056 32.0
229.189285 76.0
229.246078 160.0
229.2827 140.0
229.385178 136.0
229.407257 148.0
229.448486 32.0
229.469589 92.0
229.490692 40.0
229.557022 140.0
229.580139 220.0
229.608292 112.0
229.740448 128.0
229.958267 112.0
229.992554 144.0
230.030701 148.0
230.06398 176.0
230.136078 168.0
230.187698 68.0
230.218658 236.0
230.39006 188.0
230.435364 60.0
230.458389 232.0
230.529037 152.0
230.583435 116.0
230.649933 180.0
230.77446 336.0
230.876678 132.0
230.911194 196.0
230.997665 140.0
231.121704 192.0
231.161041 132.0
231.221054 188.0
231.273865 184.0
231.319885 132.0
231.340393 164.0
231.437073 124.0
231.471436 156.0
231.554596 116.0
231.580643 208.0
231.619995 216.0
231.709076 92.0
231.793915 120.0
231.86058 156.0
231.896942 64.0
231.918167 72.0
231.945435 76.0
231.97879 84.0
232.015961 76.0
232.071686 408.0
232.179184 172.0
232.307983 100.0
232.339661 132.0
232.373032 112.0
232.488327 108.0
232.521713 96.0
232.603668 104.0
232.6492 80.0
232.691696 168.0
232.728134 104.0
232.756134 180.0
232.858704 204.0
232.919449 124.0
232.980209 144.0
233.013626 44.0
233.122284 152.0
233.13443 116.0
233.189865 176.0
233.226349 32.0
233.348083 196.0
233.545593 92.0
233.645981 56.0
233.679443 80.0
233.804199 72.0
233.834869 160.0
233.892471 136.0
233.916824 128.0
233.947891 116.0
234.005585 124.0
234.128204 112.0
234.330978 256.0
234.425446 168.0
234.468109 100.0
234.562592 132.0
234.611359 148.0
234.66153 272.0
234.724167 164.0
234.751617 184.0
234.826141 100.0
234.896652 144.0
234.942047 184.0
234.983429 112.0
235.032867 136.0
235.080292 188.0
235.117691 176.0
235.157364 112.0
235.212296 192.0
235.255035 104.0
235.276398 208.0
235.319153 188.0
235.355026 256.0
235.45961 112.0
235.493164 152.0
235.52565 232.0
235.544998 180.0
235.584839 100.0
235.621506 228.0
235.652054 192.0
235.697876 160.0
235.731491 140.0
235.79567 124.0
235.820114 84.0
235.911819 188.0
235.983139 220.0
236.012711 140.0
236.045578 176.0
236.057526 124.0
236.255997 176.0
236.314774 168.0
236.335098 168.0
236.376846 164.0
236.399429 164.0
236.52153 324.0
236.636871 124.0
236.667496 96.0
236.701172 152.0
236.7677 132.0
236.802765 252.0
236.898407 180.0
236.954086 300.0
236.986023 132.0
237.053772 4372.0
237.116425 72.0
237.170792 192.0
237.199631 188.0
237.223022 160.0
237.249588 188.0
237.277191 144.0
237.323792 572.0
237.350342 116.0
237.403534 96.0
237.439087 176.0
237.471588 120.0
237.515381 200.0
237.560242 200.0
237.633621 220.0
237.681961 152.0
237.735397 248.0
237.773819 132.0
237.82164 376.0
237.877808 284.0
237.888901 120.0
237.933884 228.0
237.997528 500.0
238.062592 57264.0
238.142166 136.0
238.173019 308.0
238.196762 140.0
238.20575 356.0
238.234421 196.0
238.288925 232.0
238.318787 252.0
238.360092 212.0
238.398834 120.0
238.453308 128.0
238.46434 156.0
238.472565 308.0
238.502853 168.0
238.54039 288.0
238.563675 272.0
238.593277 184.0
238.628036 60.0
238.649261 340.0
238.662949 144.0
238.688339 212.0
238.69838 216.0
238.726089 236.0
238.734085 212.0
238.792542 476.0
238.815399 508.0
238.848724 160.0
238.880066 252.0
238.902557 588.0
238.920959 292.0
238.956833 568.0
238.990891 536.0
239.071426 311932.0
239.143723 212.0
239.182602 352.0
239.219223 96.0
239.248596 160.0
239.261581 56.0
239.292145 156.0
239.336929 204.0
239.397415 364.0
239.442184 308.0
239.490219 120.0
239.539368 360.0
239.578186 2592.0
239.608215 376.0
239.643219 412.0
239.694305 240.0
239.722473 64.0
239.736755 132.0
239.74733 76.0
239.75676 72.0
239.79393 184.0
239.804459 72.0
239.82692 184.0
239.859741 416.0
239.881134 332.0
239.922012 168.0
239.947769 124.0
239.975891 160.0
239.996643 164.0
240.023758 336.0
240.07515 72584.0
240.134628 140.0
240.178223 120.0
240.189056 124.0
240.222458 296.0
240.270035 92.0
240.320114 116.0
240.331772 112.0
240.349472 184.0
240.359039 128.0
240.391953 240.0
240.419205 64.0
240.43248 60.0
240.442047 40.0
240.473801 60.0
240.500046 56.0
240.53363 132.0
240.584076 216.0
240.627258 252.0
240.67215 180.0
240.730484 120.0
240.754974 88.0
240.810516 240.0
240.842819 240.0
240.892258 204.0
240.93573 228.0
240.964157 248.0
241.012756 128.0
241.078476 8948.0
241.128799 152.0
241.161621 36.0
241.20369 132.0
241.224976 88.0
241.253235 76.0
241.300674 96.0
241.330612 108.0
241.39444 168.0
241.423676 188.0
241.435699 148.0
241.473618 144.0
241.504364 188.0
241.527649 192.0
241.553055 264.0
241.581711 288.0
241.623993 208.0
241.667282 140.0
241.69429 88.0
241.76207 100.0
241.787338 148.0
241.827728 148.0
241.838226 208.0
241.862946 132.0
241.87088 240.0
241.896454 424.0
241.930908 92.0
241.939529 224.0
241.94989 164.0
241.962448 80.0
241.983521 312.0
242.03772 212.0
242.080872 928.0
242.153137 56.0
242.187943 168.0
242.233215 112.0
242.280884 60.0
242.303604 64.0
242.33107 80.0
242.354156 52.0
242.391678 188.0
242.421555 48.0
242.458481 96.0
242.467651 92.0
242.49025 232.0
242.514526 116.0
242.574646 128.0
242.612244 152.0
242.648682 128.0
242.686218 96.0
242.706726 264.0
242.732803 68.0
242.79924 96.0
242.845947 116.0
242.878479 104.0
242.90831 144.0
242.934204 92.0
242.969025 84.0
243.023346 148.0
243.077469 176.0
243.11618 216.0
243.135605 140.0
243.217758 132.0
243.27594 68.0
243.298813 76.0
243.327255 120.0
243.395554 48.0
243.46698 300.0
243.528412 88.0
243.567123 148.0
243.595169 160.0
243.640915 104.0
243.710373 96.0
243.78685 132.0
243.848541 160.0
243.929916 132.0
243.994644 68.0
244.069824 288.0
244.116455 232.0
244.150665 88.0
244.175552 88.0
244.228424 80.0
244.30307 48.0
244.346634 40.0
244.405746 80.0
244.523987 96.0
244.586243 68.0
244.644836 216.0
244.779266 76.0
244.807968 200.0
244.857117 76.0
245.047134 68.0
245.093872 148.0
245.202927 132.0
245.224747 56.0
245.292358 220.0
245.339035 108.0
245.386841 52.0
245.508453 112.0
245.645676 132.0
245.667526 96.0
245.701279 156.0
245.761108 136.0
245.935867 28.0
245.9702 164.0
246.120056 120.0
246.157532 132.0
246.235596 68.0
246.300125 164.0
246.373032 140.0
246.441772 52.0
246.594879 84.0
246.635513 44.0
246.719925 80.0
246.813705 192.0
246.938797 36.0
246.991974 152.0
247.021576 64.0
247.067047 160.0
247.113968 124.0
247.233475 168.0
247.283112 80.0
247.392502 84.0
247.502075 120.0
247.524002 64.0
247.545914 116.0
247.658661 40.0
247.692032 172.0
247.749496 236.0
247.801239 132.0
247.82782 96.0
247.959442 88.0
247.984512 108.0
248.073898 176.0
248.141251 108.0
248.216492 140.0
248.301834 132.0
248.354477 120.0
248.381729 76.0
248.463257 148.0
248.539566 88.0
248.586639 80.0
248.646271 112.0
248.724731 80.0
248.781525 128.0
248.824921 236.0
248.891113 84.0
249.004166 96.0
249.05098 332.0
249.240814 96.0
249.330719 68.0
249.365463 32.0
249.462906 40.0
249.513214 136.0
249.560364 88.0
249.628036 96.0
249.656921 136.0
249.714447 60.0
249.752197 276.0
249.815109 136.0
249.852859 132.0
249.974869 156.0
250.029755 124.0
250.062195 776.0
250.18959 188.0
250.240387 148.0
250.306076 92.0
250.356461 40.0
250.411407 152.0
250.46669 72.0
250.523148 148.0
250.63681 92.0
250.778625 192.0
250.819595 160.0
250.907867 148.0
251.002457 136.0
251.069839 2640.0
251.122284 72.0
251.16188 152.0
251.197983 124.0
251.242157 144.0
251.273697 100.0
251.311569 88.0
251.355743 128.0
251.450409 84.0
251.510376 180.0
251.55986 148.0
251.598755 132.0
251.668213 136.0
251.697174 116.0
251.788208 60.0
251.813477 148.0
251.870331 176.0
251.924026 52.0
251.961945 100.0
251.99353 100.0
252.041275 3796.0
252.076782 684.0
252.140762 156.0
252.20842 232.0
252.295868 72.0
252.363327 52.0
252.385452 160.0
252.415894 160.0
252.515106 60.0
252.540405 40.0
252.575195 104.0
252.646179 156.0
252.765671 116.0
252.840973 100.0
252.891602 56.0
253.049683 1448.0
253.079056 276.0
253.119965 132.0
253.155579 116.0
253.214539 40.0
253.280563 156.0
253.442627 48.0
253.471146 48.0
253.512329 44.0
253.599762 164.0
253.625031 100.0
253.870285 144.0
253.88179 132.0
253.946671 68.0
253.992416 188.0
254.057083 408.0
254.200455 56.0
254.263931 140.0
254.29567 168.0
254.317886 172.0
254.375015 40.0
254.397232 172.0
254.428986 32.0
254.456543 88.0
254.555984 36.0
254.586548 80.0
254.698898 56.0
254.727478 100.0
254.792664 108.0
254.888794 88.0
255.054642 128.0
255.05954 136.0
255.138794 148.0
255.169205 148.0
255.251877 48.0
255.312302 92.0
255.364822 148.0
255.524353 184.0
255.58905 88.0
255.63678 200.0
255.659058 116.0
255.703613 92.0
255.757721 256.0
256.025146 96.0
256.057007 80.0
256.165283 164.0
256.22583 64.0
256.292725 48.0
256.401062 156.0
256.4823 132.0
256.538116 220.0
256.565582 124.0
256.624207 40.0
256.758118 120.0
256.877899 80.0
256.923981 184.0
256.995178 128.0
257.032471 76.0
257.0867 132.0
257.134583 116.0
257.204803 80.0
257.271851 40.0
257.318756 204.0
257.377197 168.0
257.536865 148.0
257.73175 52.0
257.798828 32.0
257.833038 148.0
257.971436 168.0
257.997009 228.0
258.077484 160.0
258.108917 84.0
258.137695 112.0
258.180969 164.0
258.208038 44.0
258.419159 232.0
258.572754 188.0
258.684784 136.0
259.0242 120.0
259.168365 140.0
259.232452 176.0
259.306152 36.0
259.399109 88.0
259.533752 116.0
259.700531 100.0
259.731262 116.0
259.921875 108.0
259.978424 92.0
260.030975 164.0
260.074219 196.0
260.20752 132.0
260.272064 196.0
260.300659 136.0
260.419464 172.0
260.451599 124.0
260.573669 168.0
260.618652 168.0
260.684845 120.0
260.743958 120.0
260.790527 148.0
260.850037 148.0
260.940033 172.0
261.023651 156.0
261.089783 204.0
261.163361 232.0
261.203735 100.0
261.229462 136.0
261.280945 116.0
261.302612 76.0
261.378662 140.0
261.454712 168.0
261.618835 180.0
261.667145 48.0
261.704468 128.0
261.78949 48.0
261.863556 140.0
261.9151 156.0
262.066498 228.0
262.108398 192.0
262.140564 184.0
262.288879 124.0
262.414581 184.0
262.475861 176.0
262.575836 44.0
262.598389 176.0
262.740326 164.0
262.772583 120.0
262.891968 136.0
262.959747 112.0
263.001709 72.0
263.146973 100.0
263.260956 212.0
263.379486 292.0
263.440857 176.0
263.486084 156.0
263.617584 40.0
263.705811 76.0
263.753906 164.0
263.880371 112.0
263.945038 200.0
264.080872 244.0
264.197296 228.0
264.254425 140.0
264.300842 72.0
264.338989 136.0
264.361572 156.0
264.397919 48.0
264.530609 128.0
264.601837 112.0
264.747559 112.0
264.864136 108.0
264.900696 128.0
264.980774 140.0
265.003448 124.0
265.04834 508.0
265.086792 204.0
265.133057 128.0
265.217316 168.0
265.27243 144.0
265.322357 284.0
265.38266 100.0
265.405334 176.0
265.463898 128.0
265.52533 132.0
265.586945 192.0
265.638855 176.0
265.66156 160.0
265.730347 96.0
265.796082 104.0
265.852997 104.0
265.927612 84.0
265.950348 72.0
265.978485 232.0
266.015259 152.0
266.05426 392.0
266.122406 164.0
266.289215 128.0
266.339966 152.0
266.396118 196.0
266.410492 208.0
266.453674 200.0
266.484528 144.0
266.540344 160.0
266.595306 176.0
266.62442 68.0
266.682983 200.0
266.716034 332.0
266.728729 180.0
266.749969 200.0
266.786102 92.0
266.822144 224.0
266.877472 100.0
266.898468 272.0
266.933228 148.0
266.943237 324.0
266.98111 116.0
267.006165 140.0
267.065613 81768.0
267.151978 128.0
267.178162 312.0
267.199951 296.0
267.244904 172.0
267.251251 140.0
267.277466 76.0
267.321228 168.0
267.360596 144.0
267.395447 220.0
267.455597 112.0
267.480499 144.0
267.508728 208.0
267.545563 248.0
267.570862 244.0
267.594086 172.0
267.623779 468.0
267.655518 124.0
267.707245 484.0
267.748993 100.0
267.815674 140.0
267.825073 244.0
267.836823 432.0
267.884949 216.0
267.932739 240.0
268.074036 229728.0
268.155548 288.0
268.193573 108.0
268.198853 220.0
268.258331 136.0
268.289368 108.0
268.300446 108.0
268.332855 200.0
268.380737 200.0
268.405121 296.0
268.444366 248.0
268.479462 176.0
268.489746 140.0
268.53537 152.0
268.565918 56.0
268.609344 1012.0
268.642639 244.0
268.67395 64.0
268.722839 208.0
268.750336 144.0
268.792236 48.0
268.826416 76.0
268.887787 176.0
268.939331 88.0
268.969818 188.0
269.076111 33336.0
269.172333 168.0
269.209473 60.0
269.232605 100.0
269.257843 200.0
269.285309 220.0
269.316681 76.0
269.366028 68.0
269.413239 132.0
269.469421 136.0
269.505432 124.0
269.562042 72.0
269.612732 172.0
269.658722 184.0
269.697418 84.0
269.736511 124.0
269.761871 204.0
269.790131 72.0
269.805481 164.0
269.837555 60.0
269.880493 180.0
269.957916 140.0
269.989594 232.0
270.053162 4224.0
270.075043 3832.0
270.13028 112.0
270.183807 144.0
270.235077 116.0
270.264038 180.0
270.320679 52.0
270.382843 152.0
270.416931 72.0
270.456909 64.0
270.483063 92.0
270.543884 200.0
270.57959 316.0
270.609436 92.0
270.633087 164.0
270.678528 104.0
270.736511 196.0
270.78949 108.0
270.827332 100.0
270.878754 176.0
270.958069 380.0
271.054962 632.0
271.135773 212.0
271.152466 252.0
271.19696 84.0
271.211884 32.0
271.220276 88.0
271.245819 120.0
271.279419 148.0
271.322937 200.0
271.411438 112.0
271.463928 108.0
271.522644 172.0
271.550171 132.0
271.618073 40.0
271.675079 104.0
271.713196 84.0
271.75708 96.0
271.821472 36.0
271.867401 96.0
271.93631 88.0
271.987762 172.0
272.031372 96.0
272.059357 124.0
272.13327 112.0
272.156281 112.0
272.185822 40.0
272.231781 124.0
272.273193 72.0
272.295471 72.0
272.392731 68.0
272.504425 76.0
272.547119 136.0
272.576691 72.0
272.612854 104.0
272.63559 96.0
272.697418 136.0
272.735779 132.0
272.81662 100.0
272.869232 108.0
272.913849 76.0
273.211243 92.0
273.254028 200.0
273.306671 48.0
273.336273 48.0
273.373505 64.0
273.427673 212.0
273.471191 208.0
273.520569 108.0
273.546906 128.0
273.688477 36.0
273.724701 64.0
273.767487 44.0
273.839294 164.0
273.961823 84.0
274.027161 48.0
274.033325 40.0
274.045746 76.0
274.196381 196.0
274.334198 84.0
274.553528 132.0
274.682037 56.0
274.708191 136.0
274.772827 92.0
274.83551 88.0
274.993896 116.0
275.063202 176.0
275.248108 72.0
275.27121 52.0
275.409912 40.0
275.479279 68.0
275.66098 64.0
275.758423 132.0
276.054352 32.0
276.090729 36.0
276.881683 96.0
276.931366 176.0
277.17984 56.0
277.232849 92.0
277.332275 44.0
277.390472 120.0
277.6008 52.0
277.723511 140.0
277.95575 128.0
278.055298 128.0
278.317535 76.0
278.354065 48.0
278.596527 104.0
278.62973 132.0
278.662964 108.0
278.832428 128.0
278.886627 72.0
279.025024 140.0
279.30899 156.0
279.351105 100.0
279.387726 116.0
279.425751 176.0
279.520782 132.0
279.896942 124.0
279.953552 104.0
279.986847 76.0
280.063446 76.0
280.092285 156.0
280.151886 144.0
280.323303 96.0
280.40329 104.0
280.646637 108.0
280.689972 76.0
280.720642 20.0
280.790009 76.0
280.901398 104.0
280.946777 64.0
281.026855 88.0
281.067841 128.0
281.12027 252.0
281.160339 92.0
281.194885 272.0
281.240417 80.0
281.300507 196.0
281.417358 52.0
281.517517 120.0
281.567627 92.0
281.621063 200.0
281.661133 112.0
281.701233 76.0
281.764709 96.0
281.861603 56.0
281.950287 44.0
281.998596 136.0
282.042603 168.0
282.092896 136.0
282.130188 120.0
282.224609 196.0
282.261627 200.0
282.286102 132.0
282.32959 40.0
282.433258 56.0
282.498383 192.0
282.548767 76.0
282.600525 104.0
282.651001 180.0
282.717651 72.0
282.767853 192.0
282.790009 148.0
282.840973 192.0
282.890991 116.0
282.92511 344.0
282.933258 372.0
282.99762 132.0
283.039368 672.0
283.097504 147924.0
283.196167 92.0
283.220673 128.0
283.322388 104.0
283.359955 80.0
283.433319 160.0
283.489594 224.0
283.498077 76.0
283.535034 176.0
283.565247 152.0
283.602386 124.0
283.647644 588.0
283.691345 160.0
283.746765 92.0
283.782867 308.0
283.817535 68.0
283.85144 60.0
283.881683 124.0
283.918945 100.0
283.928833 84.0
283.947144 108.0
283.975983 120.0
284.000793 176.0
284.028534 180.0
284.100189 20160.0
284.18158 104.0
284.186462 116.0
284.23111 196.0
284.319305 64.0
284.33902 64.0
284.385651 80.0
284.397827 108.0
284.442505 72.0
284.473145 164.0
284.550568 72.0
284.577728 60.0
284.628357 72.0
284.668365 144.0
284.714264 136.0
284.736877 100.0
284.781891 72.0
284.836945 136.0
284.876892 68.0
284.924774 184.0
284.947571 100.0
285.019867 100.0
285.101379 2816.0
285.151215 68.0
285.204376 176.0
285.259186 128.0
285.287872 68.0
285.338959 80.0
285.364166 76.0
285.448456 80.0
285.507019 96.0
285.543518 72.0
285.577179 96.0
285.668243 240.0
285.729187 68.0
285.774414 172.0
285.791107 60.0
285.796173 160.0
285.827789 148.0
285.838806 108.0
285.876801 80.0
285.910461 172.0
285.955139 164.0
285.988739 72.0
286.034149 232.0
286.04837 224.0
286.064362 92.0
286.071716 92.0
286.103455 268.0
286.181244 80.0
286.220581 228.0
286.278931 84.0
286.312073 120.0
286.371552 88.0
286.434326 48.0
286.530151 72.0
286.554047 52.0
286.662262 92.0
286.692627 72.0
286.742523 76.0
286.793549 112.0
286.869019 172.0
286.949921 92.0
287.002136 108.0
287.07132 104.0
287.118164 148.0
287.15033 68.0
287.269043 140.0
287.403229 80.0
287.617859 108.0
287.722504 112.0
287.844055 72.0
287.96225 52.0
288.139343 96.0
288.212219 164.0
288.246033 80.0
288.33725 64.0
288.408234 56.0
288.431885 80.0
288.546844 60.0
288.674194 84.0
288.88501 36.0
289.092255 112.0
289.132019 60.0
289.958344 48.0
290.270233 48.0
290.480499 36.0
290.545471 52.0
290.597809 76.0
290.826599 112.0
291.223846 136.0
291.254425 88.0
292.209656 52.0
292.291321 64.0
292.485291 88.0
292.631683 100.0
292.679352 56.0
292.778107 64.0
292.866638 136.0
292.910919 40.0
293.07785 84.0
293.207336 40.0
293.231201 100.0
293.497101 60.0
293.609619 44.0
294.203339 92.0
294.384277 84.0
294.637024 52.0
294.924072 72.0
295.002686 104.0
295.334381 88.0
295.94693 76.0
296.005157 116.0
296.083893 128.0
296.440186 84.0
296.597321 80.0
296.745239 56.0
296.786377 100.0
297.06073 60.0
297.084747 92.0
297.187683 84.0
298.578888 60.0
298.950409 96.0
299.167236 96.0
299.580475 68.0
300.042267 60.0
300.431976 68.0
300.559631 84.0
301.215576 64.0
301.343384 36.0
301.388306 64.0
301.415955 76.0
301.578369 40.0
302.10202 100.0
302.782349 104.0
303.884674 60.0
303.98877 116.0
304.155334 104.0
304.196991 72.0
304.471283 96.0
304.83606 136.0
305.705383 108.0
306.49234 64.0
306.704926 80.0
307.440826 116.0
309.14267 76.0
310.901855 76.0
311.429291 88.0
312.374023 124.0
313.109619 48.0
314.02948 32.0
314.131775 92.0
314.72113 104.0
314.74939 36.0
315.332275 64.0
315.434784 96.0
316.524445 68.0
317.945923 100.0
319.281708 44.0
319.552032 136.0
319.854523 84.0
320.705811 64.0
320.983887 72.0
321.975922 36.0
322.372467 88.0
322.558319 72.0
322.801422 124.0
322.865784 40.0
323.230682 40.0
323.738983 28.0
324.251801 132.0
325.119141 112.0
325.614563 100.0
325.833679 84.0
327.751373 76.0
328.43631 92.0
328.721344 84.0
328.945099 108.0
329.840912 112.0
330.065063 64.0
330.130157 44.0
332.368744 68.0
333.392761 128.0
333.836273 96.0
334.731445 128.0
336.291748 40.0
337.881287 64.0
339.027344 88.0
340.619659 84.0
341.465027 60.0
342.145752 100.0
342.830841 36.0
343.98526 88.0
344.177216 88.0
344.206757 44.0
345.918518 116.0
346.503632 56.0
346.985413 48.0
347.816376 112.0
348.180237 48.0
348.503387 48.0
349.075806 56.0
349.8013 124.0
350.266754 32.0
350.333801 84.0
352.987457 68.0
353.571045 80.0
354.331146 32.0
354.454803 64.0
354.747131 64.0
356.248169 68.0
357.616852 104.0
357.684601 64.0
358.052277 92.0
360.653076 56.0
360.740021 48.0
361.295929 112.0
363.379608 96.0
363.736328 36.0
363.87677 112.0
365.739471 80.0
366.851746 64.0
367.122437 72.0
367.233032 56.0
367.706146 60.0
368.492737 120.0
368.855804 76.0
368.897827 144.0
369.984283 124.0
370.880615 76.0
373.441589 44.0
373.864777 76.0
374.584747 136.0
374.927673 104.0
375.182068 28.0
375.438324 120.0
376.219788 64.0
377.262817 100.0
377.692047 84.0
377.827423 52.0
378.411835 100.0
378.582184 92.0
378.950165 136.0
379.302826 116.0
379.806885 40.0
380.652954 64.0
381.503815 112.0
382.106598 116.0
382.382874 84.0
382.410126 100.0
382.93573 60.0
383.021423 76.0
383.446106 64.0
384.128418 36.0
385.080811 104.0
385.354248 76.0
385.580872 92.0
386.691589 84.0
386.859894 76.0
388.545013 40.0
388.686279 68.0
388.756897 100.0
389.204376 52.0
390.060822 64.0
390.218079 84.0
390.398956 96.0
390.658539 68.0
391.599274 96.0
392.091736 80.0
393.010529 132.0
393.882996 60.0
394.729614 92.0
395.496246 92.0
396.640961 40.0
398.673004 64.0
401.595215 108.0
403.819855 132.0
404.287933 116.0
404.367065 88.0
404.620148 76.0
405.212891 112.0
407.10611 80.0
407.656433 108.0
407.86142 88.0
407.92572 48.0
408.830688 80.0
409.213074 76.0
411.434479 144.0
411.88269 52.0
413.317871 68.0
414.89743 68.0
415.534149 84.0
415.645905 44.0
416.08609 60.0
418.570312 56.0
418.688416 72.0
419.234314 80.0
420.231537 100.0
423.577362 168.0
424.039398 120.0
424.237091 76.0
424.450287 92.0
425.348755 68.0
426.626282 92.0
426.889404 112.0
427.325409 104.0
427.885132 120.0
429.236572 80.0
430.379517 88.0
430.429047 80.0
430.503387 80.0
430.790192 124.0
430.875122 60.0
432.714691 100.0
432.98053 104.0
433.237335 96.0
434.111877 76.0
434.281891 80.0
434.38974 68.0
435.589386 92.0
435.618469 88.0
436.549438 116.0
436.632629 76.0
436.670044 44.0
437.16095 60.0
439.636292 68.0
439.924255 84.0
440.145538 44.0
440.178955 80.0
440.316742 92.0
440.772095 44.0
441.466003 84.0
441.783875 40.0
442.302734 92.0
442.562286 136.0
442.884766 188.0
443.810883 84.0
444.154785 96.0
444.276428 64.0
447.2052 72.0
448.58255 44.0
449.042145 76.0
449.181335 48.0
450.067596 28.0
450.261841 40.0
450.730743 92.0
451.952698 44.0
452.050018 72.0
453.201752 64.0
454.020752 132.0
455.055206 80.0
455.089172 96.0
455.492615 128.0
455.573334 128.0
458.019257 76.0
458.300415 88.0
458.44104 112.0
458.845947 60.0
460.475983 68.0
461.069824 68.0
462.793701 64.0
467.304596 108.0
469.22113 44.0
469.44101 84.0
470.299561 76.0
471.253906 80.0
471.612579 64.0
472.001648 152.0
472.680756 72.0
472.832214 32.0
473.025238 100.0
473.77182 56.0
474.278809 84.0
474.872803 48.0
476.14444 32.0
478.662292 80.0
479.73407 100.0
481.88559 84.0
481.946777 80.0
483.048462 56.0
485.308228 60.0
485.685364 36.0
486.435699 120.0
488.052399 64.0
488.135956 36.0
489.618958 64.0
489.685028 56.0
491.249786 36.0
492.406189 76.0
493.714355 64.0
494.302673 52.0
494.926788 68.0
495.055206 68.0
495.582336 88.0
495.799438 68.0
496.712799 112.0
497.169769 116.0
497.733521 96.0
498.230957 72.0
498.759766 76.0
499.186554 32.0
500.134155 68.0
500.236542 108.0
502.455811 48.0
503.357391 84.0
503.804016 104.0
503.85318 68.0
504.317902 64.0
504.621887 64.0
506.770172 92.0
508.088287 72.0
508.402374 84.0
508.577393 40.0
508.99939 100.0
509.430542 88.0
511.854706 80.0
514.636719 84.0
514.736023 64.0
515.62146 56.0
517.648132 36.0
519.733215 40.0
519.887512 76.0
520.459412 64.0
523.642639 76.0
524.490112 80.0
525.082825 60.0
526.24646 108.0
527.379333 112.0
530.523987 132.0
533.829773 72.0
534.823486 80.0
535.090515 40.0
535.679993 104.0
538.133362 64.0
539.644226 96.0
540.328674 92.0
541.198792 52.0
541.333069 68.0
541.986206 80.0
542.6026 96.0
543.455994 76.0
544.184692 128.0
546.169006 40.0
546.23877 48.0
548.096313 64.0
549.397095 76.0
550.975037 92.0
551.792847 104.0
553.018433 44.0
553.767578 100.0
555.023499 84.0
555.483093 96.0
557.224731 64.0
558.559814 48.0
558.851501 92.0
561.86676 100.0
562.060181 28.0
562.546265 76.0
563.405762 80.0
563.760132 68.0
563.963318 56.0
564.034241 80.0
564.251709 80.0
564.946899 56.0
565.822388 48.0
568.680725 44.0
569.112732 76.0
570.162537 96.0
572.407837 40.0
572.455444 52.0
575.927368 104.0
579.764404 40.0
579.873779 96.0
580.771179 104.0
581.414062 60.0
583.287231 60.0
583.59491 52.0
584.470276 72.0
588.596313 84.0
590.374573 80.0
594.273865 112.0
594.342468 88.0
594.434021 48.0
595.031006 64.0
597.962097 124.0
598.36615 104.0
598.969971 56.0
599.13562 156.0
600.64679 108.0
601.495789 88.0
603.855713 104.0
604.81958 60.0
606.396729 48.0
606.553589 64.0
607.333191 56.0
609.065857 60.0
609.439209 136.0
609.596436 80.0
610.441895 92.0
612.257751 40.0
613.474792 40.0
614.850891 100.0
616.119873 84.0
616.519348 128.0
617.533569 216.0
620.425354 56.0
620.881531 48.0
621.71991 40.0
624.19873 44.0
625.78595 96.0
628.392578 84.0
632.165039 84.0
634.258484 36.0
635.120911 48.0
637.80719 100.0
639.93512 36.0
640.297668 32.0
642.818237 84.0
649.055176 84.0
649.760132 52.0
652.309448 52.0
653.280701 76.0
656.377258 88.0
660.421875 64.0
662.37207 92.0
663.125244 80.0
663.99939 96.0
669.753235 52.0
674.774231 80.0
676.372742 72.0
676.937073 68.0
678.968445 52.0
679.876343 56.0
682.733521 60.0
684.450745 44.0
685.805237 96.0
688.3302 80.0
689.87146 112.0
690.807495 80.0
691.22345 40.0
691.351624 68.0
691.869812 136.0
692.372498 64.0
693.902527 92.0
695.423767 60.0
699.560486 56.0
700.313477 28.0
700.787537 76.0
701.646606 48.0
707.923706 72.0
710.833862 100.0
711.035522 72.0
711.348694 44.0
712.295959 204.0
717.141113 92.0
720.69519 72.0
721.36322 64.0
723.722534 92.0
725.49585 40.0
740.334595 80.0
742.784363 116.0
744.450562 44.0
745.064331 76.0
746.912537 68.0
747.750427 96.0
748.512573 144.0
748.948242 68.0
750.25061 108.0
752.891418 68.0
754.022278 68.0
758.806458 48.0
759.239624 44.0
759.398682 92.0
763.605713 104.0
765.658508 76.0
766.925659 36.0
768.646301 48.0
769.137451 184.0
770.042969 104.0
770.302551 96.0
772.214966 68.0
775.6922 64.0
782.480713 56.0
782.65332 32.0
783.945618 92.0
792.656372 96.0
792.707703 56.0
796.876709 56.0
797.29248 64.0
802.848877 80.0
803.401611 96.0
808.59436 80.0
813.167969 56.0
813.219055 56.0
813.474487 108.0
814.172852 164.0
815.638672 180.0
815.979797 108.0
816.82428 20.0
817.299316 88.0
820.682556 36.0
822.508118 68.0
822.87915 48.0
824.587097 128.0
825.902161 136.0
836.477234 136.0
839.617371 256.0
840.447998 52.0
842.745972 100.0
845.087585 56.0
847.391907 88.0
851.063293 84.0
851.545288 176.0
859.882446 64.0
860.250122 100.0
862.545776 204.0
867.210754 136.0
867.75592 124.0
876.289673 160.0
883.226013 100.0
884.474487 52.0
884.746826 68.0
885.800903 124.0
886.83783 92.0
888.290527 88.0
888.385437 112.0
891.449036 152.0
891.793762 68.0
894.637024 104.0
899.053589 132.0
902.273071 128.0
903.463135 164.0
903.684509 60.0
903.869995 56.0
904.719849 180.0
905.863647 100.0
907.859497 44.0
911.605347 36.0
914.299438 52.0
914.528137 208.0
914.919434 104.0
916.684143 152.0
917.467712 92.0
917.600342 164.0
918.49884 52.0
920.71051 144.0
923.941589 132.0
926.120789 176.0
928.423767 160.0
934.479797 200.0
936.360718 48.0
936.951599 144.0
937.018616 160.0
939.152161 56.0
940.15271 96.0
941.214844 76.0
941.457092 212.0
942.075989 72.0
944.031799 216.0
944.478271 72.0
950.709045 76.0
951.476257 40.0
952.35437 136.0
952.716797 160.0
953.730713 164.0
954.794312 248.0
955.237183 168.0
956.566345 180.0
960.158386 192.0
961.916809 88.0
962.20697 140.0
963.571838 36.0
965.283936 140.0
965.624084 148.0
967.585571 140.0
968.279114 28.0
968.929504 204.0
969.245483 168.0
971.669739 176.0
972.92334 144.0
973.314453 164.0
973.842346 168.0
975.687866 116.0
975.855713 64.0
977.012451 212.0
977.914734 92.0
979.004211 116.0
982.232666 212.0
985.910034 104.0
988.242432 108.0
992.144165 168.0
993.103577 144.0
994.986023 60.0
995.237183 196.0
995.74585 160.0
996.70697 76.0
997.190857 224.0
998.385315 140.0
1000.083984 76.0
1001.311707 36.0
1002.12561 76.0
1003.277649 160.0
1003.428955 112.0
1003.529846 48.0
1004.627197 64.0
1004.721802 168.0
1005.207642 92.0
1008.049194 120.0
1010.382263 132.0
1011.090942 152.0
1011.647949 52.0
1015.944458 84.0
1018.083435 156.0
1018.45813 136.0
1018.629639 156.0
1018.921875 136.0
1022.692688 176.0
1026.138916 144.0
1026.374878 172.0
1031.085938 120.0
1034.059814 168.0
1036.954712 72.0
1040.39917 168.0
1041.606445 52.0
1042.743652 156.0
1044.383179 52.0
1045.817993 32.0
1046.313599 152.0
1047.02832 80.0
1047.20874 184.0
1049.077271 248.0
1049.850952 180.0
1050.728271 224.0
1051.993042 108.0
1053.491211 148.0
1053.601074 92.0
1054.046875 128.0
1054.453979 156.0
1055.953979 172.0
1056.704224 116.0
1059.118896 120.0
1059.299072 152.0
1059.390991 228.0
1060.168457 180.0
1061.147217 148.0
1061.224976 144.0
1062.106934 104.0
1062.191284 228.0
1062.314575 32.0
1062.840088 80.0
1066.678223 148.0
1067.744507 148.0
1068.856934 52.0
1068.902466 180.0
1069.240845 148.0
1072.19751 168.0
1072.999268 140.0
1073.188354 188.0
1073.527344 128.0
1073.807861 108.0
1074.21228 152.0
1074.871216 96.0
1075.197388 148.0
1076.111328 176.0
1077.116943 212.0
1078.351929 116.0
1078.508789 148.0
1080.715332 144.0
1080.795288 168.0
1081.177124 36.0
1081.956055 52.0
1086.104004 108.0
1086.766602 56.0
1086.904419 80.0
1088.742432 204.0
1089.215332 264.0
1089.799927 152.0
1092.192871 196.0
1092.495483 132.0
1093.962891 208.0
1095.945312 68.0
1096.709717 80.0
1098.753906 132.0
1101.348145 64.0
1101.453857 132.0
1102.147461 164.0
1102.814941 116.0
1104.719238 144.0
1104.917725 280.0
1107.12854 52.0
1107.956421 168.0
1108.234741 80.0
1109.361328 40.0
1109.891724 292.0
1110.031006 208.0
1110.276367 152.0
1110.60791 92.0
1111.112061 184.0
1111.350952 152.0
1112.286621 136.0
1113.986572 140.0
1115.967041 208.0
1116.991089 140.0
1117.689697 184.0
1119.813232 156.0
1120.286133 116.0
1120.466064 124.0
1122.81897 56.0
1123.292603 176.0
1123.672852 164.0
1124.193237 160.0
1125.968994 256.0
1126.924194 108.0
1127.839722 156.0
1127.919922 128.0
1129.210449 100.0
1129.926147 136.0
1130.019775 144.0
1130.140259 100.0
1131.170898 120.0
1131.331543 148.0
1131.793457 200.0
1135.103516 80.0
1135.177246 136.0
1136.069336 48.0
1136.424927 60.0
1137.847778 112.0
1138.149902 148.0
1139.095947 160.0
1140.353271 192.0
1140.487671 184.0
1141.254028 136.0
1142.24939 88.0
1145.042603 156.0
1145.911499 184.0
1146.848267 52.0
1146.906494 156.0
1147.650391 52.0
1150.571777 228.0
1150.841797 88.0
1151.125366 132.0
1151.544067 132.0
1151.665649 132.0
1151.996704 136.0
1152.158813 144.0
1152.233154 172.0
1152.510132 180.0
1154.057983 132.0
1154.882935 136.0
1156.946777 52.0
1157.460449 164.0
1157.799927 108.0
1157.915039 84.0
1158.235718 160.0
1159.968018 128.0
1160.171387 132.0
1160.293457 80.0
1160.473389 144.0
1160.727295 48.0
1161.269897 100.0
1161.391968 164.0
1161.561523 148.0
1162.212769 100.0
1162.377441 224.0
1162.918579 160.0
1162.988525 132.0
1164.174561 160.0
1165.037109 168.0
1165.247681 76.0
1165.750488 92.0
1167.103149 128.0
1167.21875 140.0
1168.626709 132.0
1168.871704 80.0
1169.436523 120.0
1170.212524 172.0
1170.56665 56.0
1171.30896 148.0
1176.914795 164.0
1177.24939 244.0
1177.454224 68.0
1178.553955 116.0
1178.704346 164.0
1178.759033 68.0
1178.813721 136.0
1178.916138 172.0
1179.011841 156.0
1180.379028 208.0
1180.714111 116.0
1180.891968 104.0
1182.027588 128.0
1182.178101 180.0
1182.574951 96.0
1182.657104 88.0
1182.848755 176.0
1182.896729 44.0
1183.102051 92.0
1184.690796 168.0
1186.622314 180.0
1186.799927 192.0
1187.03479 200.0
1187.686279 136.0
1189.497803 152.0
1189.703735 156.0
1190.280518 88.0
1190.912231 124.0
1191.695435 224.0
1191.915283 200.0
1192.004639 212.0
1192.602417 132.0
1193.104248 132.0
1193.75061 200.0
1195.456543 96.0
1197.852539 192.0
1198.08667 180.0
1200.795654 48.0
1201.37915 196.0
1201.83728 144.0
1203.176147 168.0
1203.797607 156.0
1204.184326 172.0
1204.453735 132.0
1204.688599 164.0
1205.731934 152.0
1205.883911 172.0
1206.651245 144.0
1207.128296 232.0
1207.494751 180.0
1207.674683 104.0
1208.269531 156.0
1210.87915 52.0
1211.322388 116.0
1211.675659 220.0
1211.890503 192.0
1212.056763 68.0
1213.089355 40.0
1213.172607 52.0
1213.394409 224.0
1213.630127 140.0
1213.727173 124.0
1213.921387 56.0
1215.308594 240.0
1215.41272 144.0
1215.92627 52.0
1216.453735 120.0
1217.259155 184.0
1217.592407 180.0
1217.654907 184.0
1218.516235 136.0
1218.724731 184.0
1218.926147 80.0
1220.775269 100.0
1221.825562 192.0
1222.064819 144.0
1223.078125 160.0
1223.384399 124.0
1224.317383 92.0
1224.498413 128.0
1224.595947 96.0
1224.999878 148.0
1225.083496 184.0
1225.411011 84.0
1225.487549 196.0
1225.996216 76.0
1226.093872 44.0
1226.300781 188.0
1226.595703 108.0
1228.262207 132.0
1228.352783 64.0
1228.541138 124.0
1229.692505 160.0
1230.62085 196.0
1231.025879 140.0
1231.493774 88.0
1232.366943 124.0
1232.877075 80.0
1233.023804 144.0
1233.224609 132.0
1233.387329 100.0
1233.694824 128.0
1233.848633 120.0
1234.575806 148.0
1235.5271 80.0
1237.031616 136.0
1237.745728 140.0
1238.18689 192.0
1238.663208 104.0
1238.754272 232.0
1240.141602 212.0
1240.674316 160.0
1241.073975 148.0
1243.290649 140.0
1243.613403 128.0
1245.122925 144.0
1245.24231 108.0
1245.88855 192.0
1246.307007 204.0
1246.647339 128.0
1247.814087 68.0
1247.98291 224.0
1248.032104 208.0
1248.784546 156.0
1248.847778 124.0
1249.811646 112.0
1250.902466 184.0
1251.141724 148.0
1251.564209 96.0
1251.766602 144.0
1252.141602 120.0
1252.303589 144.0
1252.4375 200.0
1252.789673 204.0
1253.38855 56.0
1253.726807 136.0
1254.072021 140.0
1254.510498 176.0
1254.706543 36.0
1255.468018 104.0
1256.123901 164.0
1256.638916 192.0
1257.273926 152.0
1257.393921 232.0
1257.640991 72.0
1257.951538 60.0
1259.462646 132.0
1260.543579 76.0
1260.918091 148.0
1261.292725 132.0
1261.363403 136.0
1261.730957 60.0
1262.430908 240.0
1262.657227 64.0
1262.784546 208.0
1263.598022 92.0
1264.546265 188.0
1264.624023 104.0
1265.786743 152.0
1266.238281 100.0
1266.542847 168.0
1267.825195 40.0
1268.668701 176.0
1270.157837 220.0
1271.626465 100.0
1272.847534 192.0
1273.27356 172.0
1274.118896 120.0
1274.531006 216.0
1274.772583 196.0
1275.071045 144.0
1275.255859 108.0
1275.362427 108.0
1275.412109 100.0
1276.578125 136.0
1278.271118 136.0
1278.769287 128.0
1278.932983 124.0
1279.082397 40.0
1279.139404 132.0
1279.851318 172.0
1281.090576 180.0
1281.539307 96.0
1281.995361 156.0
1282.757935 100.0
1283.093018 144.0
1283.25708 128.0
1284.733276 140.0
1285.040039 92.0
1285.346802 200.0
1285.396851 188.0
1286.774292 144.0
1287.283447 164.0
1287.53833 208.0
1287.716919 128.0
1288.831299 196.0
1289.402954 152.0
1289.531616 168.0
1289.610229 64.0
1290.368042 40.0
1290.468018 172.0
1290.961426 52.0
1291.011475 60.0
1291.254639 176.0
1291.463135 140.0
1291.516724 56.0
1292.964478 108.0
1293.537109 124.0
1293.966675 128.0
1295.878906 108.0
1296.100952 128.0
1297.578979 164.0
1297.87146 112.0
1298.014771 200.0
1298.502441 108.0
1298.939941 52.0
1299.133667 204.0
1301.573853 128.0
1301.652832 60.0
1301.825195 52.0
1303.779175 148.0
1304.814209 132.0
1305.238403 232.0
1305.360596 144.0
1305.511597 168.0
1305.576416 132.0
1305.900024 44.0
1307.238159 128.0
1307.605103 136.0
1307.66272 120.0
1307.907471 216.0
1308.036987 148.0
1308.28894 52.0
1308.940918 168.0
1309.188965 180.0
1309.275391 168.0
1309.34021 40.0
1309.729126 212.0
1310.572021 160.0
1311.04126 148.0
1311.667358 176.0
1311.789917 240.0
1312.092651 160.0
1313.188721 76.0
1313.282471 168.0
1313.799561 140.0
1314.393433 192.0
1315.421265 240.0
1315.650513 92.0
1315.735962 120.0
1315.981445 184.0
1316.414673 200.0
1317.057373 100.0
1317.404053 156.0
1318.19165 156.0
1318.269775 220.0
1318.740845 76.0
1319.152832 60.0
1319.239624 172.0
1319.420288 220.0
1320.411011 212.0
1321.315186 228.0
1322.082153 52.0
1322.291992 180.0
1322.574219 172.0
1322.820312 172.0
1323.761597 76.0
1323.891846 108.0
1324.145386 220.0
1324.217773 132.0
1325.181274 208.0
1325.615967 172.0
1325.797119 104.0
1326.137817 148.0
1328.087158 128.0
1328.160645 64.0
1328.653931 128.0
1329.082031 128.0
1329.539185 180.0
1330.124634 224.0
1330.330322 148.0
1330.591675 152.0
1330.736816 108.0
1331.034546 192.0
1331.165283 144.0
1331.550171 36.0
1331.768066 176.0
1332.334595 100.0
1332.63562 164.0
1333.125854 124.0
1333.206543 80.0
1333.358276 164.0
1333.381958 144.0
1333.397095 184.0
1333.475464 128.0
1334.027832 144.0
1334.129639 156.0
1334.980225 164.0
1335.692993 64.0
1336.92981 108.0
1337.264648 152.0
1337.490234 192.0
1337.723145 188.0
1337.806519 100.0
1338.494873 128.0
1341.117554 160.0
1341.314331 176.0
1341.511108 172.0
1341.627808 160.0
1342.065186 168.0
1342.415283 156.0
1342.714233 188.0
1343.881348 76.0
1344.319214 144.0
1345.326416 48.0
1345.479736 180.0
1346.867065 160.0
1347.480713 204.0
1347.648804 132.0
1347.963013 188.0
1348.174927 108.0
1348.379517 200.0
1348.654419 168.0
1349.212769 100.0
1349.288574 144.0
1350.828979 156.0
1352.058105 180.0
1353.373413 180.0
1354.686646 36.0
1354.737915 92.0
1354.811157 100.0
1354.862427 156.0
1354.921021 124.0
1355.221436 100.0
1355.859009 188.0
1355.954224 184.0
1356.078857 48.0
1356.144775 144.0
1356.284058 196.0
1357.285278 180.0
1357.435059 56.0
1357.831055 124.0
1358.13562 100.0
1358.491211 164.0
1359.312866 224.0
1359.731201 60.0
1359.973389 76.0
1360.230347 164.0
1360.575317 184.0
1361.816284 96.0
1362.036621 92.0
1362.176147 116.0
1362.999023 40.0
1363.373779 112.0
1363.947021 52.0
1364.005859 144.0
1364.285156 176.0
1364.498413 188.0
1364.83667 136.0
1365.932373 88.0
1366.925659 136.0
1367.212646 96.0
1367.455444 164.0
1369.627441 172.0
1370.161865 208.0
1370.401001 168.0
1371.034668 172.0
1371.609619 184.0
1371.889648 128.0
1373.371826 136.0
1373.659424 96.0
1374.500488 176.0
1374.61853 172.0
1375.489502 112.0
1375.585449 96.0
1375.747803 120.0
1377.232056 128.0
1377.335449 160.0
1377.431396 176.0
1377.571777 92.0
1377.782227 156.0
1378.746582 180.0
1378.820435 92.0
1379.55957 136.0
1380.772217 148.0
1380.92749 128.0
1381.467529 136.0
1382.361816 164.0
1383.088013 156.0
1383.264282 164.0
1383.37146 240.0
1383.418457 188.0
1383.924561 148.0
1384.013428 120.0
1384.442871 200.0
1384.605835 204.0
1385.420532 104.0
1385.509521 92.0
1386.413452 132.0
1386.672852 188.0
1387.451172 144.0
1388.311157 128.0
1388.957397 332.0
1389.112183 132.0
1389.453491 40.0
1389.512817 96.0
1389.891235 124.0
1390.173218 124.0
1390.336426 124.0
1390.915405 152.0
1391.041504 216.0
1391.169189 376.0
1391.308838 160.0
1392.01416 72.0
1392.162598 140.0
1393.248047 176.0
1393.811768 32.0
1393.945435 188.0
1394.296875 184.0
1394.62915 160.0
1395.454346 184.0
1396.34668 136.0
1396.562378 108.0
1396.934204 52.0
1397.596313 136.0
1397.782349 164.0
1398.303345 92.0
1398.623291 124.0
1398.690308 44.0
1398.958374 160.0
1399.166748 232.0
1399.509277 48.0
1400.060303 148.0
1400.50708 128.0
1400.931763 160.0
1401.170044 184.0
1401.315918 188.0
1401.875488 108.0
1402.75 160.0
1403.040649 80.0
1403.152466 160.0
1403.696777 72.0
1403.96521 184.0
1404.912476 160.0
1405.442261 140.0
1405.606323 104.0
1405.822754 160.0
1406.11377 144.0
1408.189331 172.0
1408.271484 68.0
1409.123047 156.0
1409.69519 224.0
1410.356079 104.0
1410.474731 152.0
1410.984863 168.0
1411.066284 312.0
1411.163696 196.0
1412.427246 204.0
1412.479614 156.0
1412.621704 136.0
1413.706543 112.0
1413.803833 204.0
1414.069702 164.0
1414.241577 140.0
1414.522339 128.0
1414.979004 188.0
1416.012329 196.0
1416.446777 60.0
1417.053345 136.0
1417.323364 116.0
1417.862793 80.0
1418.762329 80.0
1419.504517 184.0
1419.729492 132.0
1419.812012 132.0
1419.909546 212.0
1420.164551 84.0
1420.269531 128.0
1420.592041 96.0
1420.824585 140.0
1421.927612 160.0
1422.795654 124.0
1423.13623 80.0
1423.286377 84.0
1424.127441 124.0
1424.713379 176.0
1425.584961 180.0
1426.065918 212.0
1426.494385 252.0
1426.719849 92.0
1426.795044 148.0
1426.870239 196.0
1426.960449 116.0
1427.20105 188.0
1427.599609 132.0
1428.216309 36.0
1429.065552 108.0
1429.141602 144.0
1429.510254 96.0
1429.879028 136.0
1430.473633 168.0
1430.594116 96.0
1431.015625 152.0
1431.113525 168.0
1431.821411 172.0
1433.380737 132.0
1433.991089 116.0
1435.151978 88.0
1435.777954 128.0
1435.830688 52.0
1436.501953 184.0
1437.090454 128.0
1437.171265 204.0
1437.482788 180.0
1437.746948 220.0
1437.912964 180.0
1438.192139 164.0
1438.501709 140.0
1438.901733 72.0
1439.156128 64.0
1439.26416 176.0
1439.513306 144.0
1440.457397 116.0
1440.517822 176.0
1440.714233 76.0
1440.872925 152.0
1441.199829 144.0
1441.567993 172.0
1441.847656 120.0
1441.908081 128.0
1442.641235 104.0
1443.435181 180.0
1443.722534 156.0
1444.266968 184.0
1444.463623 188.0
1444.539307 136.0
1444.690674 140.0
1444.887329 100.0
1445.205078 184.0
1445.749878 164.0
1445.810425 252.0
1446.423462 172.0
1446.703613 152.0
1447.225952 52.0
1447.294067 140.0
1447.513672 164.0
1447.80896 76.0
1448.30127 124.0
1448.460327 144.0
1448.95752 220.0
1449.19519 168.0
1449.44519 176.0
1449.80896 120.0
1450.165161 60.0
1450.240967 184.0
1450.331909 108.0
1451.120239 156.0
1451.287109 164.0
1451.772339 152.0
1451.962036 204.0
1452.866943 248.0
1453.28186 80.0
1453.97998 60.0
1454.184937 144.0
1454.94397 124.0
1455.293213 92.0
1456.280396 132.0
1456.553833 168.0
1457.184326 40.0
1457.275513 76.0
1457.997437 208.0
1458.111328 140.0
1458.46106 160.0
1458.94751 156.0
1459.02356 132.0
1459.130005 120.0
1459.705811 172.0
1460.460693 168.0
1460.784302 156.0
1461.086548 116.0
1461.449585 128.0
1461.601807 140.0
1461.921387 136.0
1462.317139 60.0
1462.6521 184.0
1463.094482 168.0
1463.200195 120.0
1463.268677 160.0
1463.405762 156.0
1464.045288 160.0
1464.418457 120.0
1464.58606 180.0
1465.73645 84.0
1465.835449 168.0
1466.125 176.0
1466.406982 108.0
1467.123535 152.0
1468.412109 196.0
1468.694336 140.0
1470.075195 172.0
1470.197388 128.0
1470.548462 196.0
1470.830811 68.0
1470.968262 160.0
1471.12854 44.0
1471.334595 192.0
1471.601807 188.0
1472.110962 152.0
1472.709106 196.0
1472.82373 200.0
1473.145386 144.0
1473.457764 124.0
1474.107178 148.0
1474.252319 72.0
1474.473999 144.0
1474.578735 136.0
1475.100708 152.0
1475.689331 152.0
1476.446411 56.0
1476.805786 128.0
1476.887329 216.0
1477.247925 96.0
1477.463623 144.0
1477.685547 180.0
1478.029907 180.0
1478.259399 168.0
1478.810425 132.0
1479.055298 144.0
1479.170166 104.0
1479.330933 188.0
1479.928101 212.0
1480.234375 148.0
1480.54834 92.0
1481.023193 200.0
1481.249878 184.0
1481.382935 160.0
1482.038208 288.0
1482.77002 68.0
1483.107178 60.0
1483.368652 160.0
1483.459839 120.0
1483.936035 168.0
1484.241821 152.0
1484.364502 196.0
1484.494873 176.0
1486.05957 140.0
1486.182373 144.0
1486.251465 148.0
1486.335815 132.0
1486.443237 148.0
1486.773193 180.0
1486.873047 136.0
1486.957397 176.0
1487.287476 148.0
1487.579102 232.0
1488.116577 124.0
1488.492798 132.0
1489.045654 160.0
1489.452759 100.0
1489.521851 212.0
1489.660156 152.0
1490.105713 76.0
1490.538086 188.0
1490.635864 60.0
1492.026978 204.0
1492.198853 160.0
1492.43457 68.0
1492.511353 184.0
1493.380371 152.0
1493.526489 228.0
1493.580322 88.0
1494.95752 152.0
1495.311523 104.0
1495.403931 68.0
1495.636841 104.0
1495.742554 156.0
1495.958008 96.0
1496.165894 68.0
1496.304443 180.0
1497.367065 184.0
1498.168213 128.0
1498.853882 140.0
1498.969482 136.0
1499.023438 96.0
1499.208374 192.0
1499.262329 152.0
1499.424072 172.0
1499.763184 156.0
1499.863403 144.0
1500.017578 168.0
1500.218018 152.0
1500.64978 204.0
1500.927368 152.0
1501.636841 148.0
1501.883545 132.0
1502.11499 136.0
1502.546997 112.0
1502.886475 116.0
1503.210571 36.0
1503.46521 148.0
1503.565552 184.0
1504.1521 176.0
1504.260132 84.0
