>compound MLS001097701-01!
>formula C49H63NO17
>ionization [M+Na]+
>parentmass 960.399
#inchi InChI=1S/C49H63NO17/c1-7-8-11-20-33(53)50-35(27-16-12-9-13-17-27)38(56)44(60)64-30-22-49(61)42(66-43(59)28-18-14-10-15-19-28)40-47(6,41(58)37(55)34(25(30)2)46(49,4)5)31(21-32-48(40,24-63-32)67-26(3)51)65-45-39(57)36(54)29(52)23-62-45/h9-10,12-19,29-32,35-40,42,45,52,54-57,61H,7-8,11,20-24H2,1-6H3,(H,50,53)/t29?,30-,31-,32+,35-,36?,37+,38+,39?,40?,42-,45?,47+,48-,49+/m0/s1
#inchikey XGWGQEYABFGJID
#Ion_Source LC-ESI
#Instrument qTof
#Compound_Source NIH Natural Product Library
#PI Dorrestein
#Data_Collector VVP/LMS
#Scan -1
#Precursor_MZ 960.399
#ExactMass 937.41
#Charge 1
#CAS_Number N/A
#Pubmed_ID N/A
#Smiles CCCCCC(=O)N[C@H]([C@@H](O)C(=O)O[C@H]/1C[C@@]2(O)[C@@H](OC(=O)c3ccccc3)C4[C@@]5(CO[C@@H]5C[C@H](OC6OCC(O)C(O)C6O)[C@@]4(C)C(=O)[C@H](O)\C(=C1/C)\C2(C)C)OC(=O)C)c7ccccc7
#INCHI_AUX N/A
#Library_Class 1
#SpectrumID CCMSLIB00000079822
#IonMode Positive
#UpdateWorkflowName UPDATE-SINGLE-ANNOTATED-GOLD
#LibraryQualityString Gold
#TaskID b1d8e8f6646f4e71acdff9ca3d919d08
##Scan# 2151
#SpectrumFile p1-E11_GE11_01_17931.mzXML
#LibraryName NIH_Natural_Products_Library.mgf
#MQScore -1
#Organism NIH_Natural_Products_Library
#TIC_Query 0
#RT_Query -1
#MZErrorPPM -1
#SharedPeaks 0
#MassDiff 0
#LibMZ -1
#SpecMZ 960.399
#SpecCharge 0
#internalFilename spec-00000.mgf

>collision 10
95.153152 248.0
96.764069 112.0
97.091408 132.0
97.315178 172.0
97.686729 56.0
97.800896 20.0
98.839287 84.0
99.142357 232.0
99.895096 184.0
100.21772 132.0
100.912514 132.0
101.485321 148.0
103.122475 164.0
103.5252 136.0
105.103142 224.0
105.135559 148.0
106.004143 20.0
106.134346 52.0
106.487427 152.0
107.152061 136.0
108.10424 132.0
108.129082 52.0
108.234688 128.0
109.131332 172.0
109.175011 220.0
110.244789 192.0
111.116127 272.0
111.950859 144.0
112.40844 124.0
112.638641 180.0
112.981209 48.0
113.091278 152.0
114.103455 124.0
114.51001 144.0
115.122276 176.0
115.229111 92.0
115.674065 124.0
116.181824 508.0
117.143341 76.0
117.192902 120.0
118.14106 120.0
118.719482 64.0
118.893082 72.0
119.134171 236.0
119.159912 180.0
119.373329 132.0
119.704201 148.0
119.741234 88.0
120.157707 180.0
120.172981 152.0
120.391335 128.0
120.435028 108.0
121.100151 172.0
121.143013 300.0
121.183426 200.0
122.501999 36.0
122.576927 176.0
122.753334 60.0
122.821724 192.0
123.159538 164.0
123.193726 216.0
123.2192 168.0
123.258987 208.0
124.755501 184.0
126.149216 148.0
127.429276 48.0
128.144958 204.0
128.70903 104.0
129.157379 232.0
130.070084 164.0
130.554169 116.0
130.57692 112.0
131.06424 168.0
131.130341 184.0
131.897491 228.0
132.499527 100.0
132.903183 56.0
133.153259 432.0
133.195251 200.0
133.970291 152.0
134.20314 200.0
134.272339 52.0
134.981522 136.0
135.137924 192.0
135.166763 156.0
135.210617 172.0
136.160919 288.0
136.242783 56.0
136.854645 220.0
137.127289 224.0
137.159927 188.0
137.178268 184.0
137.631332 140.0
137.783188 80.0
138.175369 340.0
138.26503 64.0
140.031097 148.0
140.097076 188.0
140.861633 168.0
141.15242 140.0
141.606934 120.0
142.268707 160.0
142.511032 172.0
142.658417 104.0
143.17392 192.0
144.1772 164.0
144.248932 88.0
145.159012 220.0
145.191772 192.0
147.14122 340.0
147.17366 136.0
148.061417 56.0
148.180145 176.0
148.728378 120.0
149.15358 128.0
149.199783 132.0
149.545303 160.0
150.117996 92.0
150.146347 148.0
150.196075 244.0
151.114899 148.0
151.218521 216.0
151.291168 184.0
152.21579 124.0
153.003937 260.0
153.160309 172.0
154.152054 168.0
154.67955 160.0
155.130249 256.0
155.183334 616.0
155.391006 124.0
156.186203 140.0
157.201019 216.0
157.555176 32.0
158.175552 92.0
159.11705 164.0
159.187408 320.0
159.228958 200.0
160.202682 172.0
161.165314 232.0
161.198303 692.0
161.293152 96.0
162.09314 148.0
162.204697 112.0
162.99678 152.0
163.178268 168.0
163.218597 288.0
163.525909 216.0
163.897827 108.0
165.17543 200.0
165.19519 332.0
166.21521 132.0
166.505371 144.0
167.179138 160.0
167.552612 140.0
168.210419 132.0
169.125748 204.0
169.209076 180.0
169.506561 76.0
169.555817 60.0
170.557983 132.0
170.875336 40.0
171.195969 224.0
171.224258 260.0
171.312851 140.0
172.179367 180.0
172.199982 96.0
173.146347 188.0
173.209915 104.0
173.264954 196.0
173.372406 44.0
174.078308 96.0
174.21492 152.0
174.6409 56.0
174.701416 208.0
175.199127 204.0
175.225479 96.0
175.248535 80.0
176.368484 92.0
176.606522 44.0
176.876495 152.0
177.204987 524.0
178.099258 156.0
178.181625 168.0
179.120621 144.0
179.184952 176.0
179.203598 100.0
179.990692 140.0
180.180389 188.0
180.201767 148.0
180.260574 220.0
181.217789 184.0
182.0103 136.0
182.197418 1092.0
182.432236 40.0
183.196457 148.0
183.235001 144.0
183.406982 144.0
183.960144 48.0
184.19989 196.0
184.268112 204.0
185.218262 208.0
185.247742 184.0
185.266708 156.0
186.255371 92.0
187.089523 48.0
187.198761 148.0
187.228134 204.0
189.216904 192.0
189.249771 176.0
189.274429 172.0
189.320984 204.0
189.342911 52.0
190.200226 148.0
191.226898 180.0
192.045456 236.0
192.191727 152.0
192.219315 136.0
192.448486 48.0
193.22583 348.0
193.601944 156.0
194.062073 84.0
194.236832 104.0
194.892227 164.0
195.120209 100.0
195.189728 128.0
195.24379 672.0
195.919174 36.0
196.144958 76.0
196.223038 220.0
196.254364 244.0
196.317871 112.0
197.178009 144.0
197.208755 156.0
197.263412 160.0
198.22496 56.0
199.083633 208.0
199.176987 124.0
199.197754 148.0
199.246597 316.0
199.275787 224.0
200.245499 184.0
200.270859 124.0
201.182419 188.0
201.213577 156.0
201.252548 168.0
202.222473 96.0
202.256454 128.0
202.372559 56.0
203.203262 152.0
203.232941 160.0
203.49852 112.0
204.196198 164.0
204.223267 168.0
204.272934 268.0
205.209015 44.0
205.254639 148.0
207.247574 172.0
208.226242 300.0
208.25766 128.0
209.175201 152.0
209.232788 144.0
209.265472 228.0
209.293274 104.0
209.327835 132.0
209.520874 132.0
209.878372 124.0
210.238358 136.0
210.331451 192.0
210.721436 140.0
211.24968 168.0
211.282196 308.0
212.253052 96.0
213.264206 256.0
213.98822 164.0
215.216095 168.0
215.242386 180.0
215.464432 52.0
216.983841 156.0
217.195038 208.0
217.241989 148.0
217.976227 116.0
218.705811 104.0
218.988556 52.0
219.200729 200.0
219.250839 292.0
219.280319 180.0
220.166534 152.0
220.201126 124.0
220.264999 432.0
221.180115 204.0
221.248215 172.0
221.273849 164.0
221.594833 76.0
222.278214 168.0
222.811615 196.0
223.252899 300.0
224.263077 308.0
224.294052 200.0
225.23703 260.0
225.272552 420.0
225.304413 176.0
226.279587 184.0
226.311203 148.0
226.446014 84.0
226.493942 228.0
227.201614 132.0
227.231628 144.0
227.256393 240.0
227.282654 252.0
227.86232 108.0
228.205048 180.0
228.250168 72.0
229.216721 176.0
229.268372 160.0
229.298111 104.0
229.319214 244.0
229.626831 72.0
230.248749 44.0
230.269897 196.0
231.595062 40.0
233.258392 48.0
233.288803 128.0
234.2995 260.0
234.586029 80.0
234.756821 48.0
234.979553 72.0
235.258942 148.0
235.302643 928.0
235.434509 128.0
235.513931 124.0
235.996933 100.0
236.261871 180.0
236.296768 232.0
237.222733 76.0
237.279739 176.0
237.31839 184.0
238.284851 80.0
239.210037 128.0
239.261383 216.0
239.32399 64.0
240.316772 88.0
241.276703 112.0
241.316772 256.0
242.240326 108.0
242.304855 180.0
242.317459 148.0
242.686737 124.0
242.885284 44.0
243.251556 96.0
243.293625 156.0
243.347824 88.0
244.022232 128.0
246.276001 124.0
247.267426 160.0
247.302948 288.0
248.151062 176.0
248.229477 32.0
248.283478 168.0
249.127411 128.0
249.292892 184.0
249.322281 164.0
250.045837 208.0
250.29776 152.0
250.329254 152.0
251.306335 708.0
252.270264 36.0
253.010757 112.0
253.216644 124.0
253.257828 228.0
253.286346 136.0
253.325455 244.0
254.333328 184.0
255.241928 56.0
255.297943 256.0
255.646057 164.0
256.295258 292.0
256.340485 76.0
257.189087 128.0
257.287964 140.0
257.300751 136.0
258.295013 92.0
258.323792 176.0
259.301025 152.0
260.289062 136.0
261.10556 132.0
261.226685 124.0
261.285767 88.0
262.324158 164.0
263.229919 160.0
263.252533 176.0
263.310913 428.0
264.235474 156.0
264.290497 148.0
264.315613 172.0
265.421295 212.0
267.234283 132.0
267.289612 184.0
267.313293 292.0
267.335175 232.0
269.28537 340.0
269.326355 140.0
270.269653 120.0
270.312195 120.0
270.446442 160.0
271.34668 192.0
271.370514 64.0
272.269775 128.0
272.335602 48.0
272.361908 56.0
273.268341 124.0
274.280823 112.0
275.29071 136.0
275.323761 124.0
276.25946 156.0
276.30246 144.0
277.249756 152.0
277.291351 244.0
277.322693 128.0
278.26178 104.0
278.291656 96.0
279.002869 204.0
279.169159 164.0
279.262329 92.0
280.114716 140.0
280.231354 92.0
280.3349 1644.0
280.401337 52.0
281.18869 44.0
281.214355 236.0
281.33609 292.0
282.343262 100.0
282.352753 304.0
283.357269 188.0
283.403107 96.0
283.510376 44.0
284.30777 420.0
284.335632 284.0
284.362488 132.0
285.225983 144.0
285.319366 292.0
285.589233 196.0
286.026794 52.0
287.280731 156.0
287.321228 152.0
287.46637 104.0
287.945892 132.0
288.319519 120.0
289.288696 136.0
290.291168 84.0
290.332581 136.0
291.302582 156.0
291.324951 568.0
291.629913 164.0
292.055054 76.0
292.315247 172.0
293.282471 76.0
293.349426 68.0
294.216644 148.0
294.287903 120.0
294.311798 244.0
294.339142 132.0
294.564606 184.0
294.820953 96.0
295.251831 168.0
295.275787 156.0
295.30658 160.0
296.107697 76.0
296.728119 96.0
297.343231 128.0
297.555206 48.0
299.050995 156.0
299.271393 76.0
299.352234 416.0
299.578003 36.0
299.6297 80.0
300.064087 100.0
300.26416 88.0
300.30899 60.0
300.354614 216.0
300.384918 80.0
301.289856 136.0
301.759827 160.0
301.98465 52.0
302.261505 192.0
302.332214 7752.0
302.399963 112.0
302.493469 64.0
302.524628 60.0
302.618134 84.0
302.867554 124.0
303.334473 1052.0
303.379333 68.0
303.553955 60.0
303.588654 52.0
303.74826 52.0
303.959961 76.0
304.08493 52.0
304.192566 108.0
304.337555 560.0
304.466949 116.0
304.62677 44.0
304.748383 92.0
304.873535 36.0
305.109955 64.0
305.203857 88.0
305.238647 88.0
305.269958 148.0
305.332153 196.0
305.351593 136.0
305.402161 108.0
305.436127 84.0
305.54483 92.0
305.642273 80.0
305.809357 132.0
308.30838 356.0
309.248352 140.0
309.279877 116.0
309.348022 508.0
310.352203 76.0
311.299927 220.0
311.368927 340.0
312.329987 172.0
312.379272 172.0
312.428528 100.0
312.488342 68.0
312.569305 160.0
313.241974 156.0
313.280731 124.0
313.378174 92.0
314.292908 128.0
314.367737 180.0
315.059296 164.0
315.349121 208.0
315.51178 120.0
315.720459 76.0
316.63382 108.0
317.374664 156.0
317.669128 52.0
318.303131 152.0
318.377014 148.0
319.332001 208.0
319.81958 68.0
321.348846 132.0
321.377411 60.0
323.303802 164.0
323.341461 80.0
324.357361 108.0
325.207733 268.0
326.314484 188.0
327.232239 124.0
327.318665 144.0
327.367218 160.0
328.377167 212.0
328.475922 152.0
329.161865 184.0
329.394806 192.0
329.425598 200.0
330.297058 184.0
330.328613 160.0
331.314087 144.0
333.357971 116.0
334.252777 140.0
334.340149 92.0
335.309204 144.0
335.805206 116.0
336.32959 300.0
337.054108 100.0
337.317108 148.0
339.309418 192.0
339.342438 152.0
340.315033 144.0
341.395691 164.0
342.359528 116.0
343.304291 180.0
343.337067 60.0
343.392395 120.0
345.390411 576.0
346.389069 136.0
347.028625 48.0
348.134735 52.0
348.331635 124.0
349.360687 148.0
349.774872 80.0
350.214355 96.0
350.35437 140.0
350.594513 120.0
350.669067 40.0
350.743622 60.0
350.937561 108.0
351.291962 176.0
351.340454 144.0
351.635345 96.0
353.294922 164.0
353.346039 620.0
353.406219 172.0
353.459595 116.0
354.347809 460.0
354.557159 112.0
355.296051 164.0
355.361725 280.0
355.69397 152.0
356.276215 144.0
356.346527 140.0
356.682861 108.0
357.713165 132.0
357.867584 132.0
358.08606 88.0
358.964417 92.0
359.183228 116.0
359.337952 80.0
359.415192 168.0
360.418152 120.0
360.705444 32.0
361.378815 176.0
362.337006 196.0
362.985321 68.0
363.34198 140.0
363.83551 116.0
365.396362 152.0
366.411011 112.0
367.380402 316.0
367.723175 80.0
368.059204 52.0
368.39856 292.0
369.408752 260.0
370.377502 156.0
370.423492 228.0
371.421539 124.0
371.81189 52.0
371.934753 68.0
372.510925 36.0
373.297729 172.0
373.367279 120.0
373.407227 176.0
375.356354 144.0
377.592682 40.0
378.293243 144.0
378.932434 120.0
379.335602 84.0
379.979553 116.0
380.942657 48.0
381.315765 92.0
381.400879 140.0
381.86026 116.0
383.362976 372.0
383.430603 204.0
383.722198 100.0
384.35788 120.0
384.430206 96.0
385.209534 72.0
385.35022 148.0
385.408234 180.0
385.823242 64.0
386.347443 164.0
387.306824 108.0
387.334229 140.0
387.408691 120.0
389.376556 128.0
389.460876 164.0
391.356964 84.0
391.400299 144.0
391.457642 208.0
391.668182 136.0
392.401398 136.0
393.328735 108.0
393.790863 128.0
395.325256 72.0
395.386353 232.0
395.424225 108.0
395.455902 176.0
396.410645 204.0
397.354614 128.0
397.398285 108.0
397.451721 208.0
399.440918 152.0
399.53244 184.0
400.412384 148.0
401.229492 60.0
401.383331 120.0
401.420959 132.0
402.442749 112.0
403.389893 348.0
403.649841 184.0
403.709869 108.0
404.402191 84.0
406.402527 176.0
407.390472 120.0
407.423401 100.0
408.110077 168.0
408.399719 104.0
408.705566 180.0
409.375946 168.0
409.41684 188.0
410.396271 388.0
410.435059 180.0
411.394592 356.0
413.375671 148.0
417.388733 148.0
417.442413 172.0
417.885101 36.0
418.31662 140.0
418.455078 124.0
418.675049 68.0
419.388245 104.0
419.416809 96.0
419.718567 60.0
422.373993 84.0
422.439453 64.0
423.352478 180.0
423.99585 128.0
424.524872 108.0
425.119873 100.0
425.49762 184.0
426.397491 108.0
426.430359 48.0
427.447937 700.0
428.459717 284.0
429.41626 92.0
429.44928 208.0
431.076385 256.0
431.262421 120.0
431.444641 116.0
433.510406 132.0
435.909698 96.0
436.125854 108.0
436.337921 124.0
436.425262 124.0
436.454376 172.0
437.47403 120.0
439.195526 148.0
441.121094 184.0
441.43808 172.0
442.45285 148.0
443.450195 140.0
443.482635 124.0
444.430695 140.0
446.5065 168.0
446.750549 124.0
447.419891 168.0
449.941772 44.0
450.161407 132.0
450.355713 132.0
450.457123 148.0
451.41684 188.0
452.60202 80.0
454.463348 148.0
455.418823 172.0
455.508057 96.0
455.546295 100.0
456.494385 152.0
458.129303 92.0
459.233643 108.0
460.394867 156.0
460.792236 56.0
461.399323 120.0
461.461578 192.0
463.484344 148.0
466.446533 184.0
466.958374 128.0
467.509216 164.0
468.46106 120.0
469.435425 32.0
469.481018 176.0
470.449677 96.0
471.488678 236.0
471.502319 64.0
472.508392 160.0
472.953278 48.0
473.468658 128.0
474.248779 48.0
478.032684 108.0
478.816528 196.0
478.855743 92.0
482.176941 144.0
485.663147 84.0
486.602539 48.0
487.274719 116.0
487.424133 116.0
487.512054 188.0
487.617554 104.0
489.320984 168.0
489.501648 144.0
490.073822 128.0
490.451813 108.0
490.494476 360.0
491.449921 156.0
491.493713 244.0
491.529358 48.0
491.595581 172.0
491.736847 196.0
492.52301 148.0
492.973785 132.0
493.044525 64.0
493.35022 140.0
493.477844 204.0
493.549896 124.0
494.531006 80.0
495.970978 88.0
497.217682 116.0
498.132629 140.0
499.516205 1124.0
499.929413 152.0
500.334595 88.0
500.517456 148.0
500.566193 136.0
501.430725 152.0
501.497467 644.0
502.472931 116.0
502.505707 256.0
502.536957 120.0
502.702118 116.0
502.755676 120.0
503.479126 116.0
503.796356 60.0
504.283569 152.0
504.909668 60.0
505.473511 128.0
505.674957 120.0
506.485626 148.0
508.490448 96.0
509.544006 428.0
511.552368 140.0
512.531128 124.0
513.544617 288.0
513.806335 124.0
515.486511 140.0
516.53125 116.0
517.509033 156.0
517.717407 100.0
518.50592 136.0
519.090942 124.0
519.531006 104.0
520.61615 112.0
521.47052 168.0
521.998047 92.0
522.371094 172.0
522.432251 120.0
522.721558 160.0
522.803467 176.0
523.427307 184.0
523.527527 128.0
524.461792 60.0
524.885925 112.0
525.46991 68.0
525.784851 116.0
526.479004 128.0
527.621704 100.0
527.653687 72.0
530.557129 144.0
531.525879 128.0
531.560486 488.0
531.786865 124.0
532.565857 164.0
533.578918 184.0
534.407043 108.0
534.549744 84.0
534.918518 196.0
535.622803 136.0
535.691956 100.0
536.581665 132.0
537.813721 60.0
538.612793 152.0
538.806824 160.0
539.578918 104.0
541.555786 264.0
541.587036 112.0
542.533447 160.0
542.573486 184.0
543.544861 116.0
549.567932 1000.0
550.053284 96.0
550.568909 728.0
550.655823 212.0
550.842712 44.0
551.132446 64.0
551.53418 140.0
551.5672 228.0
551.824402 176.0
552.624451 76.0
552.811646 132.0
553.532776 124.0
554.516846 124.0
555.196899 112.0
555.698914 52.0
556.684937 128.0
556.731934 104.0
558.565979 180.0
559.574951 1716.0
559.996887 64.0
560.175903 112.0
560.584351 924.0
560.636597 112.0
561.593445 272.0
561.689514 80.0
562.076477 120.0
562.25116 88.0
562.595215 148.0
563.781738 92.0
563.899963 64.0
565.548706 100.0
565.598511 44.0
566.562012 88.0
567.380188 92.0
567.581238 124.0
567.626831 52.0
568.001648 172.0
568.590149 64.0
569.360596 136.0
569.915466 112.0
574.582825 124.0
575.045837 100.0
575.169983 84.0
576.244812 68.0
576.306946 60.0
576.555481 100.0
577.612488 352.0
578.502808 116.0
579.748474 72.0
580.606873 128.0
581.840454 104.0
581.907715 48.0
583.046509 124.0
583.243591 136.0
583.330139 80.0
583.575562 132.0
583.637939 128.0
584.582581 136.0
584.788025 92.0
584.903625 52.0
584.942139 108.0
587.31842 128.0
589.651855 140.0
590.618469 152.0
591.588745 344.0
591.625305 176.0
591.758057 56.0
592.618469 132.0
593.582703 124.0
593.614136 156.0
593.81134 52.0
594.35968 128.0
594.607239 116.0
597.645325 96.0
597.698914 172.0
598.312317 44.0
598.663025 152.0
600.613159 128.0
602.639709 104.0
603.045471 104.0
603.598938 136.0
603.730103 192.0
604.043274 44.0
604.606079 152.0
604.703979 148.0
606.296204 100.0
606.359924 116.0
608.926636 120.0
610.977051 84.0
611.996155 136.0
612.084839 120.0
612.562683 164.0
613.016113 96.0
614.342834 128.0
615.661133 92.0
616.6297 108.0
617.666077 172.0
618.539551 104.0
618.643494 100.0
620.496948 116.0
620.68042 136.0
621.553711 96.0
621.63208 1492.0
621.717529 140.0
621.901245 108.0
622.109741 92.0
622.63147 532.0
623.065857 52.0
623.520874 96.0
623.603088 172.0
623.643188 448.0
624.612793 116.0
624.654846 140.0
626.377686 144.0
626.631836 128.0
627.240051 40.0
629.036377 116.0
631.290405 128.0
632.010925 152.0
632.22113 152.0
633.673706 80.0
634.054688 80.0
634.385559 132.0
634.46582 104.0
636.312622 100.0
637.593933 148.0
638.00116 56.0
638.530518 172.0
638.632263 216.0
639.626526 28.0
639.666809 100.0
640.665894 216.0
641.674988 116.0
642.641113 148.0
643.332764 100.0
644.070251 172.0
644.681763 128.0
645.055908 76.0
645.597046 132.0
645.661743 192.0
645.80957 160.0
646.158691 108.0
646.680054 164.0
648.144104 124.0
651.092285 36.0
651.153259 136.0
652.357849 88.0
653.680664 428.0
654.658325 44.0
654.739868 84.0
655.137268 140.0
660.575623 96.0
661.491943 100.0
662.475403 124.0
662.659912 188.0
662.702698 128.0
663.67511 368.0
663.722107 180.0
664.116211 76.0
664.675354 124.0
664.906616 128.0
665.394409 60.0
665.678528 152.0
666.761169 56.0
669.158997 68.0
669.298035 196.0
669.854431 52.0
670.319885 64.0
670.993713 36.0
671.376648 68.0
671.612732 76.0
671.80365 52.0
671.886169 100.0
671.999756 128.0
672.133911 48.0
672.314575 36.0
672.603699 88.0
672.639832 68.0
672.789612 68.0
672.854309 120.0
672.949707 112.0
673.037537 88.0
673.073669 76.0
673.151123 56.0
673.533447 104.0
673.698792 60.0
673.771118 132.0
674.029541 104.0
674.313904 84.0
674.639648 76.0
674.680969 80.0
676.207397 52.0
676.347229 84.0
676.466309 64.0
676.60614 80.0
676.647522 132.0
677.139648 100.0
677.523071 80.0
677.67334 104.0
677.859924 156.0
678.015442 148.0
678.139893 56.0
678.644958 128.0
679.021545 128.0
679.33606 124.0
679.389954 184.0
679.540466 128.0
679.688477 116.0
679.903809 108.0
680.093262 120.0
680.391846 36.0
680.469788 88.0
680.516479 164.0
680.575256 208.0
680.658691 128.0
681.058472 120.0
681.160645 136.0
681.31134 160.0
681.45813 212.0
681.516663 136.0
681.589172 176.0
681.605774 172.0
681.69281 28380.0
681.836609 148.0
681.86731 100.0
681.879089 192.0
681.901672 64.0
681.922485 136.0
682.037048 180.0
682.139221 64.0
682.256104 44.0
682.270691 52.0
682.310425 104.0
682.364258 128.0
682.466919 180.0
682.524414 284.0
682.556396 72.0
682.69635 8980.0
682.84906 104.0
682.887329 156.0
682.979004 180.0
683.0625 144.0
683.115845 120.0
683.150574 76.0
683.18866 48.0
683.251099 52.0
683.397583 112.0
683.438477 128.0
683.523865 48.0
683.703003 2784.0
683.830933 92.0
683.886169 116.0
683.988159 68.0
684.084045 44.0
684.156921 116.0
684.206543 116.0
684.380859 40.0
684.422546 40.0
684.537109 56.0
684.594421 44.0
684.63092 44.0
684.711609 1040.0
684.823669 52.0
684.872009 120.0
684.964355 64.0
685.006042 108.0
685.089417 36.0
685.261353 48.0
685.337463 84.0
685.461853 56.0
685.579346 104.0
685.699097 156.0
685.768127 176.0
685.87323 128.0
686.064209 48.0
686.105957 92.0
686.175842 188.0
686.389038 116.0
686.46582 92.0
686.53363 112.0
686.570129 96.0
686.637817 104.0
686.695374 316.0
686.749268 60.0
686.888428 52.0
687.034973 88.0
687.90625 56.0
688.078613 36.0
688.574158 96.0
688.65448 64.0
688.841309 48.0
689.417053 76.0
689.620117 64.0
689.72467 72.0
690.650452 40.0
691.184204 112.0
691.911987 72.0
692.048157 72.0
694.711365 80.0
696.265503 48.0
697.698975 172.0
698.347412 84.0
698.665649 192.0
699.706909 88.0
700.016235 36.0
700.637939 100.0
701.597412 68.0
704.025269 92.0
704.352844 40.0
704.717468 108.0
705.47345 44.0
708.639282 28.0
708.805298 140.0
710.102783 40.0
711.482849 48.0
711.950256 100.0
714.03949 168.0
715.697571 184.0
716.69104 64.0
719.572388 44.0
722.734497 84.0
722.753357 92.0
723.626282 28.0
723.770874 156.0
724.719238 104.0
733.729919 116.0
736.763855 108.0
738.2724 36.0
768.75531 76.0
768.981689 108.0
772.663025 136.0
774.196716 80.0
778.651428 116.0
784.049622 96.0
784.782349 100.0
787.800354 144.0
794.795349 176.0
795.036682 120.0
796.805847 172.0
799.821106 56.0
806.953979 36.0
816.779236 168.0
820.441956 80.0
826.852478 124.0
827.310852 20.0
827.803406 60.0
828.874939 180.0
841.873901 72.0
843.815979 232.0
844.648987 128.0
844.799438 100.0
844.871826 172.0
845.407166 96.0
845.88147 152.0
846.414734 84.0
846.8927 148.0
846.936096 112.0
847.869202 128.0
848.878174 100.0
850.073547 96.0
850.915466 108.0
854.859497 204.0
854.904114 112.0
855.014771 100.0
855.86438 132.0
860.85791 108.0
862.87439 124.0
864.916687 124.0
872.880432 144.0
877.102966 56.0
883.387878 92.0
899.920776 44.0
900.948547 132.0
901.300964 96.0
901.946594 96.0
905.693481 56.0
911.322388 64.0
914.932068 144.0
915.974182 104.0
916.915649 116.0
917.87323 132.0
917.945618 144.0
926.446228 68.0
930.984558 140.0
931.30658 76.0
931.944641 132.0
940.448608 48.0
953.338501 48.0
959.532593 96.0
960.026062 84.0
961.025879 244.0
962.013428 252.0
962.816345 104.0
964.021362 140.0
966.76178 140.0
968.446228 92.0
968.811829 80.0
975.286011 100.0
976.747681 84.0
976.992493 1160.0
977.164612 100.0
977.289062 168.0
977.994263 632.0
978.085632 112.0
978.567078 60.0
978.764709 48.0
979.007263 376.0
979.213196 60.0
979.48114 48.0
979.954712 100.0
980.007019 152.0
980.054443 136.0
980.210266 56.0
980.459656 56.0
980.796326 36.0
980.987366 108.0
981.961182 156.0
982.040466 200.0
984.134949 92.0
986.991272 84.0
1021.628662 68.0
1041.823608 68.0
1043.038574 128.0
1046.958008 84.0
1063.468994 116.0
1080.554077 212.0
1091.234863 108.0
1102.106934 84.0
1106.957031 76.0
1116.915283 104.0
1150.263794 148.0
1151.248901 112.0
1165.254272 44.0
1190.535889 108.0
1190.899902 60.0
1197.284424 100.0
1217.477661 148.0
1234.507812 180.0
1235.991333 192.0
1265.889526 144.0
1267.94458 128.0
1295.793823 248.0
1301.081177 200.0
1313.635498 120.0
1324.546997 48.0
1326.89563 284.0
1338.633911 144.0
1345.139282 196.0
1359.621338 108.0
1385.207031 160.0
1386.11853 96.0
1392.559937 100.0
1402.667603 196.0
1414.533325 56.0
1423.458008 80.0
1428.216797 116.0
1448.194824 128.0
1457.164062 88.0
1460.616455 80.0
1462.542114 204.0
1468.311646 100.0
1469.333984 164.0
1483.522827 80.0
1484.138306 144.0
1494.118286 120.0
