>compound Glipizide (Glucotrol)
>formula C21H27N5O4S
>ionization [M+H]+
>parentmass 446.184937
#inchi InChI=1S/C21H27N5O4S/c1-15-13-24-19(14-23-15)20(27)22-12-11-16-7-9-18(10-8-16)31(29,30)26-21(28)25-17-5-3-2-4-6-17/h7-10,13-14,17H,2-6,11-12H2,1H3,(H,22,27)(H2,25,26,28)
#inchikey ZJJXGWJIGJFDTL
#Ion_Source LC-ESI
#Instrument qTof
#Compound_Source Commercial
#PI Dorrestein
#Data_Collector Garg_Neha
#Scan -1
#Precursor_MZ 446.186
#ExactMass 445.178
#Charge 1
#CAS_Number 29094-61-9
#Pubmed_ID N/A
#Smiles C1(=CC=C(C=C1)CCNC(C2=CN=C(C=N2)C)=O)S(NC(NC3CCCCC3)=O)(=O)=O
#INCHI_AUX N/A
#Library_Class 1
#SpectrumID CCMSLIB00000078250
#IonMode Positive
#UpdateWorkflowName UPDATE-SINGLE-ANNOTATED-GOLD
#LibraryQualityString Gold
#TaskID 77f51c88eb8b467eb4a01dd2d0cb90d2
##Scan# 1299
#SpectrumFile Plate4_21_40_GH3_01_16504.mzXML
#LibraryName FDALibrary_2_04302014.mgf
#MQScore -1
#Organism FDALibrary_2_04302014
#TIC_Query 0
#RT_Query -1
#MZErrorPPM -1
#SharedPeaks 0
#MassDiff 0
#LibMZ -1
#SpecMZ 446.186
#SpecCharge 0
#internalFilename spec-00000.mgf

>collision 10
45.053722 188.0
45.30286 160.0
45.570305 160.0
45.592678 184.0
45.77935 200.0
45.938713 152.0
46.701332 184.0
46.810204 184.0
47.065193 196.0
47.23481 144.0
47.551167 208.0
47.853584 228.0
47.879745 188.0
48.053429 144.0
48.275738 144.0
48.665184 192.0
49.014305 212.0
49.206783 172.0
49.811768 260.0
50.057892 188.0
50.277805 164.0
50.526493 184.0
50.662399 160.0
51.354652 148.0
52.127735 168.0
52.175167 144.0
52.290241 184.0
52.310394 184.0
52.455883 204.0
52.510674 156.0
52.556835 164.0
52.684303 188.0
53.006531 220.0
53.461159 108.0
53.509087 208.0
54.015659 160.0
54.484577 188.0
54.674255 144.0
54.709583 144.0
54.911449 144.0
55.029503 196.0
55.611946 176.0
55.724884 220.0
55.91 184.0
56.120033 244.0
56.205051 148.0
56.282669 152.0
56.303574 172.0
56.388733 192.0
56.71352 180.0
56.798985 172.0
56.998657 148.0
57.218254 148.0
57.335743 164.0
57.62093 188.0
57.828094 188.0
58.021988 204.0
58.093266 216.0
58.520317 160.0
58.687916 524.0
58.852703 252.0
58.886299 192.0
59.01619 172.0
59.15847 168.0
59.184498 172.0
59.241165 156.0
59.497269 192.0
59.6432 176.0
59.97105 260.0
60.069733 208.0
60.125278 168.0
60.146885 180.0
60.304432 208.0
60.493141 140.0
60.66354 160.0
61.222885 184.0
61.317921 156.0
61.642517 168.0
61.686279 140.0
62.071423 144.0
62.15456 164.0
62.951065 156.0
63.148609 228.0
63.166008 144.0
63.210308 220.0
63.409843 180.0
63.694447 140.0
63.967358 192.0
64.072464 212.0
64.139313 164.0
64.738518 204.0
64.93885 232.0
65.248764 180.0
65.303436 168.0
65.556198 164.0
65.631958 184.0
65.709373 160.0
65.874039 152.0
66.39035 180.0
66.516907 156.0
66.576981 172.0
66.685829 200.0
66.900543 168.0
67.032471 184.0
67.133537 220.0
67.198784 200.0
67.210205 164.0
67.7006 196.0
68.19278 172.0
68.605934 168.0
68.927773 156.0
69.008766 160.0
69.842911 160.0
70.01268 204.0
70.034325 184.0
70.256027 204.0
70.317764 148.0
70.357826 272.0
70.88636 188.0
72.471016 184.0
72.721252 160.0
72.904823 184.0
72.959068 164.0
73.115555 200.0
73.233025 160.0
73.910767 196.0
74.00148 140.0
74.039154 172.0
74.518883 156.0
75.477783 212.0
75.562531 188.0
75.843063 168.0
75.956558 176.0
75.985268 224.0
76.178673 176.0
76.565773 224.0
76.705223 168.0
76.804611 160.0
76.860435 216.0
76.919777 224.0
76.933739 196.0
76.986122 156.0
77.491638 152.0
77.505653 160.0
77.52668 200.0
77.751152 140.0
77.988258 188.0
78.162361 156.0
78.389511 140.0
78.715851 256.0
78.853645 208.0
78.973877 140.0
79.118973 212.0
79.182449 156.0
79.24295 196.0
79.370567 160.0
79.496506 144.0
79.821587 152.0
80.015526 180.0
80.209702 176.0
80.471939 204.0
80.670242 196.0
80.850891 264.0
80.9207 148.0
82.343094 236.0
83.550316 212.0
83.958328 140.0
84.636276 168.0
84.665573 152.0
84.799316 200.0
85.373947 172.0
85.388664 196.0
85.956055 148.0
86.197952 144.0
86.473503 140.0
87.178238 224.0
87.777641 152.0
87.800667 196.0
88.001549 184.0
88.029556 180.0
88.134163 140.0
88.407173 140.0
88.486481 172.0
88.584183 236.0
88.731216 176.0
88.87188 156.0
89.307709 156.0
89.322762 148.0
89.593834 160.0
89.644707 220.0
89.886078 164.0
90.122101 184.0
90.23172 164.0
90.809273 140.0
91.053368 208.0
91.36393 164.0
91.440041 160.0
91.777222 176.0
91.88784 140.0
91.981354 156.0
92.298492 140.0
92.846161 152.0
93.044167 956.0
93.147499 176.0
93.285858 148.0
93.585976 160.0
93.79789 264.0
93.896225 184.0
94.013908 196.0
94.047958 320.0
94.160629 164.0
94.328728 144.0
94.660454 208.0
94.810661 168.0
95.130699 284.0
95.185059 152.0
95.998459 140.0
96.065704 176.0
96.175995 176.0
97.109291 188.0
97.409599 152.0
98.082565 164.0
98.167343 144.0
98.353317 136.0
98.552254 216.0
99.290611 224.0
99.449333 176.0
99.542641 168.0
99.600235 172.0
99.649902 184.0
99.940186 144.0
100.111214 5680.0
100.181084 216.0
100.631805 188.0
100.667747 144.0
100.825562 196.0
100.857544 172.0
101.11412 168.0
101.544296 164.0
101.71685 212.0
101.988022 196.0
102.045677 604.0
102.27343 196.0
102.565697 160.0
102.751221 168.0
102.916306 116.0
103.053787 7084.0
103.128838 184.0
103.221832 172.0
103.401276 160.0
103.629761 164.0
103.664139 128.0
103.6996 180.0
104.030167 124.0
104.057594 680.0
104.192696 164.0
104.249588 188.0
104.444763 176.0
104.597374 184.0
104.782684 180.0
105.062508 172.0
105.100746 168.0
105.28038 140.0
106.253471 172.0
106.334724 140.0
106.556496 216.0
106.681854 168.0
106.951324 168.0
107.016014 160.0
107.049805 348.0
107.522232 148.0
107.608932 176.0
107.931252 196.0
108.052872 140.0
108.150543 164.0
108.177452 164.0
108.440514 156.0
108.683136 192.0
108.950966 172.0
109.01844 228.0
109.127625 156.0
109.142174 168.0
109.518852 168.0
109.579262 164.0
110.08403 140.0
110.359268 172.0
110.401672 184.0
111.053459 352.0
111.282715 180.0
111.714668 184.0
112.534485 200.0
112.914848 176.0
113.567184 216.0
113.65416 144.0
113.90892 144.0
114.204376 176.0
114.655739 228.0
115.315208 156.0
116.255379 192.0
116.298302 164.0
116.568901 140.0
116.846268 180.0
117.005524 144.0
117.022751 164.0
117.043053 196.0
117.061508 192.0
117.259705 196.0
117.436501 156.0
118.036865 152.0
118.064102 128.0
118.253197 208.0
118.411247 172.0
118.532562 184.0
118.708145 164.0
118.864326 172.0
118.964165 204.0
119.047676 1044.0
119.074547 640.0
119.124863 204.0
119.836258 188.0
119.879837 140.0
119.956123 144.0
120.055389 2244.0
120.079132 144.0
120.114624 124.0
120.25058 184.0
120.466751 172.0
120.547585 188.0
120.569443 148.0
120.685295 140.0
120.847153 152.0
120.884346 176.0
120.969704 160.0
121.011299 224.0
121.039253 2092.0
121.064682 1128.0
121.719521 140.0
122.038803 436.0
122.067436 264.0
122.099693 148.0
122.310913 156.0
122.335121 196.0
122.45623 172.0
122.764763 320.0
122.98539 140.0
123.044991 196.0
123.095772 148.0
123.169357 252.0
123.197372 176.0
123.212837 224.0
123.94075 220.0
124.029396 308.0
124.271118 228.0
124.373199 152.0
124.426476 168.0
124.573044 148.0
124.702759 180.0
125.590302 140.0
125.735321 168.0
126.092651 160.0
126.139595 196.0
126.390076 176.0
126.524956 136.0
126.898506 148.0
126.974747 140.0
127.36528 180.0
127.720421 180.0
127.78791 176.0
127.979225 152.0
128.242798 184.0
128.734619 192.0
129.026093 140.0
130.000046 196.0
130.245239 156.0
130.354507 128.0
130.529327 192.0
130.558884 192.0
130.995895 180.0
131.060211 1912.0
131.118927 192.0
131.52034 192.0
132.062958 556.0
132.189972 172.0
132.661789 240.0
132.764481 180.0
133.02652 192.0
133.141327 144.0
133.626343 164.0
133.941727 184.0
134.056915 324.0
134.084152 200.0
134.3535 164.0
135.285675 268.0
136.048355 188.0
136.133011 216.0
136.282928 164.0
136.334045 148.0
137.097351 244.0
137.654892 140.0
137.762329 160.0
138.017075 152.0
138.064346 204.0
138.162079 208.0
138.239288 200.0
138.46637 164.0
138.609268 168.0
138.739182 224.0
139.02066 1824.0
139.049728 1672.0
139.545792 188.0
139.762177 152.0
139.954071 156.0
140.02066 248.0
140.054947 188.0
140.115341 184.0
140.596359 160.0
140.700226 148.0
140.955307 140.0
140.997849 148.0
141.013931 304.0
141.26976 168.0
141.790665 216.0
142.371902 152.0
142.771149 176.0
142.811584 208.0
143.034393 236.0
143.068848 204.0
143.304352 156.0
143.633331 216.0
143.702515 212.0
143.819443 164.0
143.891052 148.0
144.127518 208.0
144.493317 152.0
144.634506 196.0
144.699142 156.0
145.147202 180.0
145.283905 260.0
145.310287 156.0
145.567123 208.0
145.798737 220.0
145.99968 164.0
146.064621 212.0
146.165665 200.0
146.196945 220.0
146.493088 204.0
147.509003 160.0
147.660538 156.0
147.716965 212.0
147.771225 216.0
147.825836 208.0
147.858505 200.0
147.90329 228.0
148.02037 2928.0
148.06308 192.0
148.087311 140.0
148.28598 188.0
148.598785 140.0
148.652176 192.0
149.004227 964.0
149.026871 444.0
149.057495 148.0
149.926437 152.0
150.008881 208.0
150.065689 10880.0
150.148743 108.0
150.23555 124.0
150.523712 140.0
150.704849 152.0
150.802444 184.0
151.066864 988.0
151.096039 184.0
151.19635 196.0
151.299164 168.0
151.558777 220.0
151.644547 228.0
151.908157 148.0
152.072586 164.0
152.37825 140.0
152.405273 212.0
152.459335 212.0
152.948776 172.0
153.271896 176.0
153.328079 140.0
153.397079 168.0
153.51297 148.0
154.026321 148.0
154.050949 144.0
154.107834 200.0
154.488571 156.0
154.674164 180.0
154.864822 160.0
155.01944 380.0
155.067978 172.0
155.298569 140.0
155.869553 156.0
155.924225 144.0
156.013702 196.0
156.078491 180.0
156.143005 184.0
156.327087 148.0
156.444077 140.0
156.72052 192.0
156.879074 148.0
157.491379 148.0
157.563812 172.0
157.805618 112.0
158.058151 184.0
158.236572 188.0
158.301682 140.0
158.514008 168.0
158.675018 184.0
158.695068 160.0
158.84053 184.0
159.390335 156.0
159.749863 220.0
159.978867 164.0
160.351654 184.0
160.674408 172.0
161.165863 172.0
161.588974 216.0
161.658157 176.0
161.75853 140.0
162.146057 180.0
162.48584 144.0
162.587341 200.0
162.617798 204.0
162.762497 172.0
163.025131 164.0
163.461517 172.0
163.698257 212.0
164.042206 172.0
164.450317 156.0
164.695435 172.0
165.025101 140.0
165.050659 188.0
165.173416 176.0
165.396027 208.0
165.890411 176.0
166.030655 3688.0
166.070648 208.0
166.352158 240.0
166.598679 148.0
166.936935 212.0
166.969696 116.0
167.015991 27500.0
167.279633 108.0
167.390854 160.0
167.479904 104.0
167.66391 140.0
167.764435 184.0
168.01825 3292.0
168.073929 184.0
168.631729 140.0
169.010239 1792.0
169.23317 232.0
169.350998 184.0
169.381058 160.0
169.698257 256.0
169.975784 152.0
170.01712 408.0
170.295105 156.0
170.328873 252.0
170.523743 148.0
171.023117 144.0
173.253143 224.0
173.371048 140.0
174.07933 224.0
174.673309 360.0
174.773285 144.0
175.010178 152.0
175.273575 152.0
175.603088 212.0
175.732346 216.0
176.070236 220.0
178.484344 144.0
178.548172 140.0
178.753006 172.0
179.099106 144.0
179.258957 148.0
179.54686 148.0
180.064606 184.0
180.323761 172.0
180.521591 144.0
180.636597 140.0
180.687424 148.0
180.723572 212.0
181.019333 160.0
181.072891 316.0
182.137695 148.0
182.239777 200.0
182.9207 164.0
183.089111 1500.0
183.221786 184.0
183.566788 180.0
184.016388 236.0
184.043076 2000.0
184.074097 156.0
184.096497 360.0
184.59021 180.0
185.030472 468.0
185.041519 268.0
185.153091 164.0
185.621902 288.0
185.754791 236.0
186.032822 132.0
186.479767 180.0
186.92305 140.0
187.077499 176.0
187.786636 176.0
188.808075 148.0
188.928421 156.0
189.459518 164.0
189.640366 148.0
190.430542 140.0
190.842743 144.0
191.44812 184.0
191.618896 176.0
191.795258 160.0
193.04039 212.0
193.087402 168.0
193.133942 116.0
193.347458 176.0
193.762802 228.0
194.642029 160.0
194.959763 180.0
195.092422 228.0
195.192215 152.0
195.221863 164.0
195.272873 152.0
196.095139 208.0
197.026184 180.0
197.105362 488.0
197.797989 180.0
198.030624 772.0
198.069595 176.0
198.120346 176.0
198.223694 144.0
198.504013 168.0
199.082077 168.0
199.253418 148.0
200.404129 260.0
200.846725 316.0
201.318054 212.0
201.970917 216.0
202.036133 148.0
202.09256 196.0
202.281616 140.0
202.480377 208.0
202.515533 136.0
203.064056 160.0
204.337906 196.0
204.874863 140.0
204.971741 148.0
205.054382 220.0
205.182648 120.0
205.656174 220.0
206.073105 144.0
206.461853 140.0
206.536224 152.0
207.039932 176.0
207.075912 136.0
207.102951 172.0
207.495529 160.0
207.74791 208.0
208.062103 164.0
208.480057 156.0
209.236542 184.0
209.657089 152.0
210.020294 1808.0
210.06073 176.0
210.103714 116.0
210.66983 216.0
210.853348 164.0
211.026443 192.0
211.084351 2104.0
211.676331 156.0
212.015259 440.0
212.086929 360.0
212.374771 140.0
212.429886 144.0
212.52562 140.0
213.024963 220.0
213.059692 172.0
213.105255 332.0
213.132462 168.0
213.269058 168.0
214.051636 172.0
214.698563 160.0
214.858994 240.0
214.914429 272.0
215.422409 180.0
216.276245 176.0
216.607117 148.0
216.926529 156.0
217.040863 148.0
217.496674 172.0
218.818436 156.0
219.360504 160.0
219.982925 164.0
220.086533 128.0
220.945251 156.0
221.03508 160.0
221.095139 176.0
221.218567 140.0
221.473221 180.0
221.962219 140.0
222.102158 3564.0
223.089493 604.0
223.098923 644.0
223.786591 176.0
223.863998 144.0
224.09169 136.0
224.362579 192.0
224.394379 144.0
225.086609 880.0
225.723068 228.0
225.787308 112.0
226.095718 1744.0
226.13591 208.0
226.345474 200.0
227.104584 336.0
228.100555 140.0
228.538681 152.0
229.099609 164.0
229.847321 140.0
230.285049 168.0
230.647629 140.0
230.813904 352.0
230.949997 200.0
231.058899 140.0
231.294937 188.0
232.35556 204.0
232.449631 152.0
232.734955 340.0
233.117691 140.0
233.439911 152.0
233.522018 204.0
233.652817 212.0
235.008606 168.0
235.466492 156.0
236.031845 148.0
236.077713 168.0
236.319351 168.0
237.090942 220.0
237.400635 184.0
237.507965 184.0
237.670563 184.0
237.856842 132.0
238.096039 4256.0
239.100449 736.0
239.20105 156.0
239.814011 216.0
240.059525 176.0
240.113129 5048.0
240.199432 140.0
240.473801 156.0
240.54924 176.0
240.707718 156.0
241.002106 168.0
241.042267 160.0
241.113327 760.0
241.694717 152.0
241.778259 208.0
241.840164 220.0
241.991852 216.0
242.125244 188.0
242.447189 152.0
242.664169 160.0
242.910004 132.0
242.971207 196.0
243.014648 184.0
243.05188 264.0
243.090973 252.0
244.372467 156.0
244.465424 156.0
244.798828 192.0
244.826843 228.0
245.051117 236.0
245.768234 148.0
246.483276 164.0
246.942825 144.0
247.011642 156.0
247.205612 176.0
248.562454 260.0
249.473267 144.0
250.921417 148.0
251.044388 164.0
251.451355 152.0
251.735474 156.0
251.814423 152.0
253.285187 160.0
254.082794 352.0
254.217194 120.0
254.99855 168.0
255.100296 1096.0
255.214706 192.0
255.908325 200.0
256.052429 144.0
256.108154 4804.0
256.912872 200.0
257.114105 624.0
257.371826 148.0
257.547455 140.0
258.06781 1544.0
258.201141 184.0
259.070648 288.0
259.364899 208.0
259.560455 140.0
259.865173 168.0
260.065247 196.0
260.22464 160.0
260.436584 144.0
260.590942 216.0
260.717529 188.0
260.841431 176.0
261.066498 216.0
261.11795 160.0
261.278778 196.0
261.317383 140.0
261.581757 208.0
261.801086 192.0
261.949341 172.0
262.009583 184.0
262.476929 144.0
263.080231 152.0
263.535614 160.0
263.810333 208.0
264.069 148.0
264.360168 236.0
264.997711 152.0
265.396942 108.0
266.549011 168.0
266.912323 140.0
267.648438 152.0
268.050476 308.0
268.088196 176.0
268.156616 152.0
268.264191 160.0
269.050385 180.0
269.635071 164.0
269.945648 176.0
270.514923 144.0
271.019287 160.0
271.166748 144.0
272.100647 164.0
272.377472 180.0
272.411499 200.0
272.863831 152.0
274.988495 140.0
276.99884 152.0
277.840851 176.0
277.90387 200.0
278.010071 152.0
279.162781 176.0
280.337891 160.0
280.467865 152.0
281.235016 232.0
281.565094 236.0
281.602295 172.0
281.963104 176.0
283.164185 244.0
284.616211 164.0
284.686737 160.0
285.046173 172.0
285.133545 204.0
285.227661 156.0
285.291534 172.0
285.696838 204.0
285.7388 128.0
285.863312 156.0
285.930054 164.0
285.95752 140.0
286.010376 240.0
286.063324 14640.0
286.420319 144.0
286.449249 104.0
286.586761 156.0
286.75824 172.0
286.927643 240.0
287.065918 1880.0
287.225525 168.0
287.33017 180.0
287.433563 224.0
288.059631 864.0
288.477173 248.0
288.512848 148.0
288.636658 168.0
288.987854 144.0
289.058899 248.0
289.207825 168.0
289.480591 160.0
289.753021 172.0
289.797058 184.0
290.095276 144.0
290.295319 160.0
291.024872 184.0
291.490204 164.0
292.263092 172.0
292.479889 156.0
294.109161 336.0
294.81955 216.0
295.445251 304.0
295.561584 180.0
295.736115 184.0
295.883301 200.0
296.421051 156.0
296.664398 164.0
296.71582 176.0
296.962708 148.0
297.007294 156.0
297.337677 164.0
297.638763 172.0
298.167786 212.0
298.621613 188.0
299.282318 192.0
300.126495 148.0
300.609406 176.0
300.650818 276.0
300.775055 140.0
300.806122 204.0
300.902802 184.0
301.624786 188.0
303.090302 384.0
303.216919 140.0
303.438751 212.0
303.851471 216.0
304.00415 152.0
304.074646 13428.0
304.125031 192.0
304.132568 200.0
304.384247 104.0
305.077271 2068.0
305.303375 168.0
305.435547 164.0
306.071991 808.0
306.612366 216.0
307.163269 176.0
307.320251 148.0
307.637848 188.0
307.784454 184.0
307.932007 128.0
307.994019 160.0
308.943939 176.0
309.34024 144.0
310.093323 160.0
310.605225 184.0
311.693542 172.0
312.052063 176.0
312.833069 176.0
313.262695 188.0
313.597443 144.0
313.960571 164.0
313.99231 144.0
314.253326 164.0
314.719238 148.0
315.72049 228.0
316.37738 228.0
316.586456 224.0
316.717316 148.0
317.095795 132.0
317.358765 200.0
317.578613 176.0
317.894348 200.0
318.157013 140.0
318.309692 156.0
318.58316 160.0
318.93692 176.0
319.327942 144.0
319.406372 152.0
319.558289 128.0
319.785553 136.0
319.86377 128.0
319.957611 124.0
320.025085 164.0
320.093109 176.0
320.130005 252.0
320.226593 152.0
320.258942 384.0
320.304871 188.0
320.339203 176.0
320.417084 144.0
320.500458 200.0
320.607697 332.0
320.651459 144.0
320.741364 200.0
320.808746 176.0
320.895203 160.0
320.979279 272.0
321.027649 180.0
321.050751 444.0
321.102936 161476.0
321.192505 244.0
321.2677 148.0
321.328461 200.0
321.36673 180.0
321.378754 216.0
321.500793 112.0
321.530609 156.0
321.628998 124.0
321.689636 924.0
321.750763 136.0
321.791565 216.0
321.828461 112.0
321.855225 212.0
321.963959 152.0
322.104218 29128.0
322.19519 288.0
322.240936 104.0
322.301392 152.0
322.506897 148.0
322.554565 96.0
322.668884 188.0
323.019379 172.0
323.098999 8972.0
323.17514 156.0
323.243622 140.0
323.596375 232.0
323.689667 104.0
323.853973 116.0
324.100128 752.0
324.236938 184.0
324.284943 184.0
324.363525 256.0
324.430847 124.0
324.467651 324.0
325.09137 124.0
325.154205 228.0
325.236267 108.0
325.299438 140.0
325.408844 108.0
326.12146 200.0
327.421722 160.0
328.297424 148.0
332.952789 184.0
334.052673 156.0
334.71109 132.0
336.151276 180.0
336.742676 152.0
339.125916 232.0
339.300476 196.0
340.335114 240.0
343.090485 104.0
343.129883 112.0
343.39682 152.0
346.340332 104.0
346.59082 164.0
346.661224 160.0
346.802063 160.0
346.933716 368.0
346.987518 132.0
347.08139 56360.0
347.174927 188.0
347.301727 96.0
347.332764 124.0
347.468689 108.0
347.805634 224.0
347.850189 104.0
347.980438 164.0
348.023376 196.0
348.083893 10072.0
348.34726 120.0
348.445251 132.0
348.578827 164.0
348.742279 140.0
348.881226 96.0
348.919861 100.0
349.080292 3864.0
349.170776 168.0
350.078003 356.0
350.243073 120.0
350.309357 112.0
350.435028 120.0
350.543213 156.0
351.087128 112.0
351.237122 148.0
354.051697 180.0
364.110107 332.0
365.113342 236.0
444.640289 144.0
445.274261 144.0
446.076782 144.0
446.120911 116.0
446.184937 2932.0
446.387878 160.0
447.18811 580.0
447.688202 204.0
448.192322 312.0
449.20639 132.0
452.31131 140.0
478.513306 144.0
484.273102 156.0
551.016541 144.0
920.184265 144.0
1169.412476 168.0
1249.04834 152.0
1261.840576 192.0
1268.417114 160.0
1271.694092 148.0
1318.036621 180.0
1324.533203 168.0
1327.461182 140.0
1333.334106 204.0
1336.300781 148.0
1344.257568 196.0
1351.740234 180.0
1380.036987 180.0
1416.893188 184.0
1420.04895 240.0
1420.843994 148.0
1430.545776 228.0
1436.612061 212.0
1442.199829 224.0
1449.381592 152.0
1468.653198 156.0
1484.0625 180.0
1484.906006 212.0
1492.45459 180.0
1498.319336 164.0
1498.60437 152.0
1506.094971 180.0
1512.566895 200.0
1513.545288 204.0
1519.494751 172.0
1522.879272 224.0
1535.269165 196.0
1542.116211 168.0
1546.503784 180.0
1555.596191 192.0
1563.589844 208.0
1570.491455 192.0
1576.92627 160.0
1597.200195 168.0
1600.638184 180.0
1606.536011 188.0
1617.883789 152.0
1625.168945 216.0
1631.819214 180.0
1635.994507 152.0
1638.386353 148.0
1640.610474 172.0
1644.990845 188.0
1656.449097 144.0
1657.704834 140.0
1663.520142 196.0
1671.020996 172.0
1673.104492 192.0
1682.112305 180.0
1689.720459 156.0
1690.636841 212.0
1693.690674 152.0
1697.21106 216.0
1698.854858 192.0
1700.192261 188.0
1700.339966 176.0
1701.349609 188.0
1705.629395 188.0
1707.824707 172.0
1710.622314 168.0
1713.587036 220.0
1729.872559 188.0
1736.526123 196.0
1738.849121 184.0
1739.787109 152.0
1744.285522 156.0
1750.062988 152.0
1755.420654 172.0
1756.730103 172.0
1762.223145 176.0
1770.15271 184.0
1771.693848 160.0
1789.018433 172.0
1790.870972 232.0
1791.797607 236.0
1793.811646 160.0
1804.676758 256.0
1808.204224 160.0
1810.083496 200.0
1815.252441 176.0
1816.236206 244.0
1820.174072 184.0
1822.373901 144.0
1827.262573 148.0
1827.415771 160.0
1832.455933 168.0
1850.083008 168.0
1852.223755 160.0
1855.274414 164.0
1863.268188 212.0
1883.283447 152.0
1890.20813 196.0
1891.887207 176.0
1892.605713 180.0
1893.177246 196.0
1895.334106 156.0
1904.460449 228.0
1906.02417 144.0
1919.201172 172.0
1920.553833 148.0
1923.660278 172.0
1928.167114 164.0
1935.15625 200.0
1935.988159 172.0
1937.652344 184.0
1942.105469 188.0
1947.406738 168.0
1952.187622 144.0
1953.383789 204.0
1956.26123 152.0
1958.991089 216.0
1970.574463 212.0
1970.768799 184.0
1975.348267 184.0
1976.905396 164.0
1977.701904 184.0
1981.908325 188.0
1983.476929 192.0
1984.487549 140.0
1986.08374 148.0
1986.234619 144.0
1988.701172 176.0
1989.855225 172.0
1991.302612 220.0
1994.190063 160.0
1994.270142 176.0
1996.421631 144.0
1996.884033 220.0
1998.102661 184.0
1999.312744 200.0
1999.917969 200.0
2001.538208 232.0
