>compound Sulfamethazine
>formula C12H14N4O2S
>ionization [M+H]+
>parentmass 279.09102314009056
#inchi InChI=1S/C12H14N4O2S/c1-8-7-9(2)15-12(14-8)16-19(17,18)11-5-3-10(13)4-6-11/h3-7H,13H2,1-2H3,(H,14,15,16)
#inchikey ASWVTGNCAZCNNR
#Ion_Source LC-ESI
#Instrument qTof
#Compound_Source Commercial
#PI Dorrestein
#Data_Collector Garg_Neha
#Scan -1
#Precursor_MZ 279.091
#ExactMass 278.084
#Charge 1
#CAS_Number 57-68-1
#Pubmed_ID N/A
#Smiles C1=C(C=CC(=C1)S(NC2=NC(=CC(=N2)C)C)(=O)=O)N
#INCHI_AUX N/A
#Library_Class 1
#SpectrumID CCMSLIB00000078582
#IonMode Positive
#UpdateWorkflowName UPDATE-SINGLE-ANNOTATED-GOLD
#LibraryQualityString Gold
#TaskID 77f51c88eb8b467eb4a01dd2d0cb90d2
##Scan# 1041
#SpectrumFile Plate9_41_60_GC6_01_15755.mzXML
#LibraryName FDALibrary_2_04302014.mgf
#MQScore -1
#Organism FDALibrary_2_04302014
#TIC_Query 0
#RT_Query -1
#MZErrorPPM -1
#SharedPeaks 0
#MassDiff 0
#LibMZ -1
#SpecMZ 279.091
#SpecCharge 0
#internalFilename spec-00000.mgf

>collision 10
45.118149 152.0
45.258633 148.0
45.434208 148.0
45.791771 196.0
45.921856 248.0
47.563538 184.0
47.603352 168.0
48.45718 172.0
48.562534 164.0
49.296234 152.0
49.311607 168.0
49.986172 168.0
50.203114 144.0
50.393677 208.0
51.099762 160.0
51.296291 216.0
51.576073 156.0
51.829384 192.0
51.863781 148.0
51.994297 152.0
52.201168 156.0
52.506474 148.0
53.186504 196.0
53.356472 216.0
53.666592 148.0
53.720551 200.0
54.973591 144.0
55.867046 248.0
55.978676 168.0
56.094891 188.0
56.270931 176.0
56.507076 152.0
56.706238 164.0
57.123669 176.0
58.57235 228.0
58.592152 248.0
58.621101 140.0
58.662254 180.0
58.733925 192.0
58.904888 224.0
59.100578 208.0
59.420803 144.0
59.462234 156.0
60.153347 156.0
61.844582 196.0
63.104679 212.0
63.319889 188.0
63.826122 180.0
64.35672 176.0
64.425972 212.0
66.118591 152.0
66.450783 148.0
66.593636 168.0
66.980759 160.0
67.524284 188.0
67.717415 152.0
67.892776 168.0
67.981361 160.0
68.521133 148.0
68.84729 148.0
69.285622 244.0
69.798492 144.0
70.440147 152.0
70.829903 148.0
71.071312 152.0
71.392159 172.0
72.194893 180.0
72.528427 148.0
74.091103 164.0
74.718605 152.0
75.554474 200.0
75.834991 204.0
75.864464 156.0
77.352158 216.0
78.127808 168.0
78.619408 176.0
79.660019 156.0
79.704933 148.0
80.032219 144.0
80.783592 160.0
81.898315 156.0
81.954163 200.0
82.430527 204.0
83.060577 180.0
83.414673 180.0
83.481941 236.0
83.536507 140.0
84.262085 148.0
87.102867 176.0
88.011711 144.0
88.271439 252.0
88.288269 176.0
88.722679 140.0
89.15815 172.0
89.184464 140.0
89.775314 116.0
90.472855 168.0
91.224091 200.0
91.82579 180.0
92.029976 160.0
92.049591 1356.0
92.196167 192.0
92.324249 160.0
92.50985 140.0
92.841324 144.0
92.985214 156.0
93.053963 436.0
94.06636 156.0
94.41861 160.0
95.060005 476.0
95.751923 192.0
96.067696 208.0
96.696877 148.0
97.33007 164.0
98.91716 172.0
99.509926 164.0
100.062637 152.0
100.377457 172.0
100.590935 148.0
100.622871 160.0
100.754684 244.0
100.856598 232.0
101.154648 156.0
102.071526 212.0
102.709953 148.0
103.168343 208.0
103.558884 204.0
103.674362 160.0
104.232414 168.0
104.36454 192.0
105.04068 140.0
105.177391 212.0
106.095886 164.0
106.190208 176.0
107.062454 1096.0
107.315659 196.0
107.678253 164.0
107.837341 152.0
107.957253 188.0
108.04467 9660.0
108.350525 144.0
109.047806 656.0
109.118431 180.0
110.050171 204.0
110.392685 176.0
111.877968 172.0
112.557175 156.0
113.153122 164.0
113.218765 200.0
113.534531 188.0
113.549377 212.0
114.097221 140.0
114.36525 184.0
114.908661 228.0
115.645905 144.0
115.727249 148.0
116.475708 220.0
116.679855 140.0
116.965973 192.0
117.614784 248.0
117.670914 180.0
118.603287 164.0
119.01548 176.0
119.689537 140.0
119.741806 176.0
119.922638 144.0
120.055634 156.0
120.118881 184.0
120.548996 144.0
120.594887 196.0
121.545341 156.0
122.071861 2760.0
122.880913 168.0
123.053062 168.0
123.077553 568.0
123.607857 172.0
123.700813 156.0
123.873535 144.0
123.914757 148.0
123.948868 148.0
124.053032 212.0
124.087364 24836.0
124.125641 240.0
124.208252 224.0
124.360481 172.0
124.974045 108.0
125.026489 148.0
125.068611 296.0
125.090088 1816.0
125.114922 140.0
125.460228 212.0
125.830574 160.0
126.081612 176.0
126.219345 148.0
126.317757 176.0
126.416199 184.0
126.596794 148.0
126.953842 168.0
128.057327 184.0
128.569107 148.0
128.761002 188.0
129.045731 172.0
129.073166 152.0
129.543625 140.0
130.570206 128.0
130.619598 168.0
131.435226 152.0
131.866837 148.0
132.081757 208.0
132.498398 140.0
133.078659 212.0
133.384201 276.0
134.042435 208.0
134.958801 184.0
135.379944 244.0
136.466309 184.0
137.210938 164.0
137.675278 140.0
138.599274 180.0
138.868866 164.0
138.892334 144.0
139.070648 160.0
140.015808 148.0
140.742111 164.0
140.803513 160.0
140.942886 160.0
141.247864 188.0
141.65976 220.0
142.278702 164.0
143.027512 180.0
143.54451 148.0
143.561203 168.0
144.110214 140.0
144.962051 224.0
146.078491 144.0
146.485321 184.0
147.083328 140.0
147.467377 156.0
148.474548 172.0
149.091187 228.0
150.116058 140.0
150.924316 164.0
151.71022 160.0
151.823013 192.0
152.262299 192.0
152.365234 184.0
153.386734 148.0
154.006073 148.0
155.208817 168.0
155.63559 144.0
155.754807 236.0
155.921265 148.0
155.943634 164.0
156.011932 21552.0
156.782364 244.0
157.014236 2332.0
157.59584 164.0
157.785797 148.0
157.943329 148.0
158.008087 1260.0
158.068802 188.0
158.265167 124.0
159.013214 172.0
159.38237 144.0
163.422958 240.0
164.294281 164.0
165.411011 256.0
166.341522 244.0
167.085739 712.0
167.135666 228.0
168.094223 148.0
168.807175 148.0
169.734207 176.0
171.082657 156.0
171.433014 164.0
171.488663 148.0
172.084885 184.0
172.209122 204.0
172.368484 192.0
172.389389 276.0
173.01976 148.0
173.048553 168.0
173.750946 184.0
173.861145 208.0
173.937271 176.0
174.024185 216.0
174.103287 156.0
174.896683 140.0
175.026566 160.0
175.452515 164.0
176.019775 140.0
176.286575 216.0
177.947372 184.0
178.699539 208.0
180.189926 140.0
180.665787 156.0
180.807602 140.0
180.889145 224.0
181.051224 148.0
181.879349 156.0
183.081512 152.0
183.895706 172.0
184.257553 144.0
185.654266 208.0
185.713928 152.0
185.936401 176.0
185.999832 156.0
186.033981 49604.0
186.106003 144.0
186.479248 180.0
186.982742 152.0
187.03566 3432.0
187.38031 196.0
187.524734 140.0
188.030426 1216.0
188.257019 128.0
188.282013 136.0
188.358719 104.0
188.432281 256.0
188.495422 188.0
188.556595 220.0
188.725616 128.0
188.755951 144.0
189.033218 268.0
189.415543 168.0
190.504578 160.0
190.705154 172.0
191.412186 184.0
193.651901 208.0
193.920654 140.0
194.578079 252.0
195.078781 200.0
195.247742 248.0
195.773727 204.0
195.99379 228.0
196.055084 236.0
196.083054 116.0
196.466431 132.0
196.961853 184.0
197.088226 168.0
197.893112 164.0
198.095566 316.0
198.234833 140.0
198.798492 144.0
199.089798 172.0
200.088654 144.0
203.276962 180.0
203.893204 180.0
204.006897 232.0
204.04425 30348.0
204.568268 120.0
205.04631 2260.0
205.627975 104.0
206.041092 1016.0
206.454437 120.0
207.044266 120.0
207.078415 132.0
207.114426 192.0
208.047653 172.0
208.393906 168.0
208.848114 164.0
209.977142 228.0
212.102402 104.0
212.807236 164.0
213.113739 6916.0
213.197571 160.0
213.267105 132.0
213.312744 188.0
214.115433 1356.0
214.926025 140.0
215.028336 144.0
215.126862 828.0
217.123108 160.0
218.003815 164.0
218.165466 208.0
219.345917 164.0
220.831116 148.0
223.132233 164.0
225.821976 172.0
227.049911 144.0
229.006485 168.0
229.708801 156.0
230.122253 148.0
233.028244 180.0
236.151474 144.0
236.442093 156.0
236.763535 164.0
237.113235 140.0
237.62796 172.0
239.102921 160.0
239.262985 168.0
240.962326 220.0
241.104462 176.0
242.717285 156.0
242.940582 152.0
243.30368 196.0
246.918243 144.0
247.509705 144.0
247.7164 180.0
248.001541 160.0
248.311951 244.0
248.801453 160.0
250.682358 216.0
256.077637 196.0
256.60025 164.0
260.511047 224.0
261.079987 512.0
261.713867 176.0
261.868439 204.0
262.079315 172.0
262.293762 160.0
262.432404 160.0
263.080872 256.0
263.691345 156.0
264.142426 176.0
264.370514 236.0
265.102386 172.0
265.903412 144.0
269.04129 164.0
269.201263 188.0
269.328644 224.0
270.260345 168.0
270.319244 140.0
270.767761 172.0
271.905396 188.0
273.055267 196.0
273.5159 240.0
274.870453 184.0
276.963165 144.0
277.178223 136.0
277.476807 152.0
277.650299 164.0
277.71225 168.0
277.752075 184.0
277.999268 180.0
278.079437 132.0
278.163116 1004.0
278.468323 148.0
278.518494 284.0
278.567291 156.0
278.611938 120.0
278.642303 184.0
278.665039 136.0
278.724365 188.0
278.760498 124.0
278.845337 108.0
278.916443 216.0
278.950348 288.0
279.093201 155188.0
279.218781 192.0
279.251526 108.0
279.3013 128.0
279.333313 140.0
279.363464 204.0
279.412354 344.0
279.456879 280.0
279.515259 184.0
279.555298 144.0
279.602051 156.0
279.640747 3244.0
279.682251 356.0
279.730286 316.0
279.812347 188.0
279.846863 164.0
279.905273 136.0
280.036438 240.0
280.094482 32424.0
280.183502 164.0
280.250214 212.0
280.407532 148.0
280.436768 168.0
280.503387 136.0
280.601135 120.0
280.668854 196.0
280.733734 180.0
280.791473 196.0
280.931274 168.0
280.984894 176.0
281.0271 124.0
281.089203 10384.0
281.164337 1904.0
281.388763 104.0
281.486237 152.0
281.52887 104.0
281.692932 220.0
281.739746 184.0
281.764801 172.0
281.790192 292.0
281.837524 164.0
281.872345 116.0
281.94046 96.0
282.015503 112.0
282.090637 1504.0
282.150818 212.0
282.268829 112.0
282.672913 108.0
283.410461 120.0
283.569824 204.0
284.44458 104.0
285.161316 156.0
291.30957 144.0
292.024902 160.0
1164.955078 144.0
1231.67627 152.0
1269.514038 144.0
1312.102417 168.0
1391.016113 244.0
1410.65979 160.0
1435.820923 156.0
1439.934082 188.0
1482.354858 160.0
1486.150513 148.0
1493.779297 144.0
1514.164185 168.0
1532.239746 156.0
1533.307373 188.0
1539.423584 208.0
1567.680298 208.0
1567.885254 180.0
1577.34082 140.0
1615.16748 140.0
1624.748291 200.0
1635.725586 180.0
1636.884888 212.0
1643.478516 188.0
1650.036865 164.0
1682.705811 164.0
1683.579468 140.0
1703.343018 168.0
1713.255615 140.0
1747.082275 184.0
1760.418213 148.0
1765.549316 144.0
1767.624023 208.0
1771.349609 212.0
1781.920044 148.0
1790.5 204.0
1799.750732 192.0
1810.396973 200.0
1844.848389 148.0
1846.344727 164.0
1849.441895 160.0
1850.674683 180.0
1850.940063 152.0
1851.582275 208.0
1860.7146 236.0
1867.064575 208.0
1869.912231 192.0
1875.209106 192.0
1876.553833 160.0
1880.711914 200.0
1890.893433 148.0
1892.815308 208.0
1903.88916 172.0
1911.80896 144.0
1924.623047 140.0
1927.636597 160.0
1936.20105 256.0
1936.454956 220.0
1945.197021 212.0
1947.172607 200.0
1952.11145 208.0
1963.75415 152.0
1974.652954 140.0
1974.900635 160.0
1988.571899 140.0
1991.075562 164.0
1997.724243 180.0
