>compound Nalidixic acid (NegGram)
>formula C12H12N2O3
>ionization [M+H]+
>parentmass 233.090942
#inchi InChI=1S/C12H12N2O3/c1-3-14-6-9(12(16)17)10(15)8-5-4-7(2)13-11(8)14/h4-6H,3H2,1-2H3,(H,16,17)
#inchikey MHWLWQUZZRMNGJ
#Ion_Source LC-ESI
#Instrument qTof
#Compound_Source Commercial
#PI Dorrestein
#Data_Collector Garg_Neha
#Scan -1
#Precursor_MZ 233.092
#ExactMass 232.085
#Charge 1
#CAS_Number 389-08-2
#Pubmed_ID N/A
#Smiles C1=C(C(C2=C(N1CC)N=C(C=C2)C)=O)C(O)=O
#INCHI_AUX N/A
#Library_Class 1
#SpectrumID CCMSLIB00000078462
#IonMode Positive
#UpdateWorkflowName UPDATE-SINGLE-ANNOTATED-GOLD
#LibraryQualityString Gold
#TaskID 77f51c88eb8b467eb4a01dd2d0cb90d2
##Scan# 1203
#SpectrumFile Plate7_21_40_GD3_01_15768.mzXML
#LibraryName FDALibrary_2_04302014.mgf
#MQScore -1
#Organism FDALibrary_2_04302014
#TIC_Query 0
#RT_Query -1
#MZErrorPPM -1
#SharedPeaks 0
#MassDiff 0
#LibMZ -1
#SpecMZ 233.092
#SpecCharge 0
#internalFilename spec-00000.mgf

>collision 10
52.719288 184.0
54.364975 220.0
55.548321 168.0
59.40929 248.0
65.759109 168.0
66.80265 176.0
67.7659 148.0
71.844658 184.0
82.309074 156.0
82.77742 176.0
84.541458 168.0
84.578064 212.0
84.775864 220.0
87.219589 148.0
90.654404 260.0
94.95681 140.0
96.087013 256.0
100.096375 164.0
100.852509 152.0
102.762344 252.0
104.045418 164.0
106.789955 256.0
107.047218 184.0
113.424423 148.0
116.338478 236.0
118.883781 132.0
123.656898 164.0
131.060043 404.0
131.089127 168.0
131.570404 172.0
132.061218 152.0
133.819565 156.0
134.139801 140.0
135.054214 184.0
135.677139 172.0
139.209854 196.0
143.060684 272.0
144.07132 164.0
147.055222 292.0
148.076675 272.0
157.162476 172.0
158.124588 176.0
159.055359 2800.0
159.35083 172.0
160.058716 176.0
163.946198 152.0
164.760178 192.0
172.788284 168.0
173.094513 216.0
173.65274 160.0
180.827972 152.0
185.322586 156.0
185.504166 228.0
186.85936 188.0
187.00209 140.0
187.049515 15720.0
188.003815 204.0
188.052841 2556.0
188.121185 152.0
189.055603 152.0
193.881027 148.0
195.970703 152.0
204.629318 172.0
204.999619 212.0
205.059357 1888.0
206.057999 152.0
210.892761 108.0
214.185242 140.0
214.406174 140.0
214.976822 152.0
215.021942 164.0
215.079895 27172.0
215.142258 132.0
216.084076 2084.0
216.265381 112.0
217.084885 152.0
217.6427 100.0
221.105942 160.0
223.2836 148.0
233.090942 8972.0
234.092148 1372.0
235.084732 152.0
235.131348 456.0
1349.312256 144.0
1622.581543 144.0
1694.720703 180.0
1695.474609 148.0
1854.74707 200.0
1926.199585 168.0
1989.332275 192.0
1995.044556 172.0
