>compound MLS002153359-01!FORMESTANE566-48-3
>formula C19H26O3
>ionization [M+H]+
>parentmass 303.194092
#inchi InChI=1S/C19H26O3/c1-18-10-8-15(20)17(22)14(18)4-3-11-12-5-6-16(21)19(12,2)9-7-13(11)18/h11-13,22H,3-10H2,1-2H3/t11-,12-,13-,18+,19-/m0/s1
#inchikey OSVMTWJCGUFAOD
#Ion_Source LC-ESI
#Instrument qTof
#Compound_Source NIH Pharmacologically Active Library
#PI Dorrestein
#Data_Collector VP/LMS
#Scan -1
#Precursor_MZ 303.194
#ExactMass 302.188
#Charge 1
#CAS_Number N/A
#Pubmed_ID N/A
#Smiles C[C@@]12CC[C@H]3[C@@H](CCC4=C(O)C(=O)CC[C@]34C)[C@@H]2CCC1=O
#INCHI_AUX N/A
#Library_Class 1
#SpectrumID CCMSLIB00000085052
#IonMode Positive
#UpdateWorkflowName UPDATE-SINGLE-ANNOTATED-GOLD
#LibraryQualityString Gold
#TaskID d252d724072548979f1f6f1ced849daf
##Scan# 2166
#SpectrumFile p3-E03_GE3_01_18272.mzXML
#LibraryName Pharm_Active_Library.mgf
#MQScore -1
#Organism Pharm_Active_Library
#TIC_Query 0
#RT_Query -1
#MZErrorPPM -1
#SharedPeaks 0
#MassDiff 0
#LibMZ -1
#SpecMZ 303.194
#SpecCharge 0
#internalFilename spec-00000.mgf

>collision 10
45.092331 124.0
45.196648 188.0
46.032799 132.0
46.77174 92.0
47.596176 148.0
47.670357 128.0
48.087669 216.0
48.687183 232.0
49.106121 204.0
50.118336 176.0
51.578793 224.0
52.07579 204.0
53.028328 152.0
53.34623 224.0
54.037544 136.0
54.649403 160.0
54.720055 220.0
55.390553 168.0
56.057678 176.0
56.402458 184.0
57.021511 188.0
58.070889 164.0
58.764599 152.0
58.950897 172.0
61.159626 132.0
61.310707 184.0
61.7682 180.0
63.28857 156.0
64.199142 184.0
65.439445 152.0
66.839355 124.0
67.035034 188.0
67.379326 128.0
67.749077 128.0
68.307243 168.0
69.617981 156.0
70.490921 200.0
71.172707 160.0
71.729599 88.0
71.923592 164.0
72.793846 160.0
72.815926 200.0
73.409889 188.0
74.150169 128.0
74.223885 172.0
74.426369 160.0
75.059608 144.0
75.156212 168.0
75.634941 184.0
75.998886 128.0
76.016243 172.0
76.215942 132.0
76.433304 92.0
76.83754 112.0
77.234108 164.0
77.617661 212.0
78.516312 52.0
78.752823 204.0
78.860603 232.0
78.883583 160.0
78.987915 188.0
79.368111 156.0
79.881989 168.0
79.922913 172.0
80.152618 196.0
81.849014 92.0
81.912048 32.0
82.373856 140.0
82.53833 176.0
82.574501 144.0
83.281387 140.0
83.645065 188.0
84.608978 140.0
85.302444 96.0
86.570038 232.0
87.219421 192.0
87.409126 108.0
87.8563 236.0
88.39817 192.0
88.519844 212.0
88.709084 256.0
88.954834 152.0
89.007408 232.0
89.078781 336.0
89.294945 60.0
90.923576 124.0
91.039391 84.0
91.053215 548.0
91.102074 156.0
91.217995 72.0
91.286438 56.0
91.37394 32.0
91.823509 160.0
92.70295 128.0
92.923462 200.0
93.507652 240.0
93.653984 64.0
93.873703 180.0
94.112984 80.0
94.165123 196.0
94.366104 156.0
94.660225 72.0
94.900505 140.0
95.048996 180.0
95.082855 160.0
95.345047 188.0
95.800369 172.0
96.276306 128.0
97.065109 192.0
98.065651 164.0
98.685532 224.0
98.742668 220.0
99.040726 284.0
99.501839 144.0
100.185997 96.0
100.335472 188.0
100.477074 112.0
101.016479 260.0
101.980492 208.0
102.552635 140.0
103.051094 184.0
103.676384 188.0
104.059769 100.0
105.069061 1000.0
105.850075 124.0
105.952492 136.0
106.07135 172.0
106.383163 240.0
107.050362 236.0
107.083504 308.0
107.473991 108.0
107.90361 116.0
107.920151 72.0
107.988396 124.0
108.085632 140.0
108.213966 132.0
109.06662 144.0
109.081169 224.0
109.100929 168.0
109.29747 168.0
109.720291 100.0
110.037422 188.0
110.06456 148.0
110.10215 172.0
110.339203 152.0
111.02301 168.0
111.037689 228.0
111.082832 196.0
111.243324 116.0
111.316811 60.0
112.950241 100.0
113.05851 4212.0
113.118782 124.0
113.373703 40.0
113.452133 128.0
113.634529 60.0
113.655746 100.0
113.732147 60.0
113.868042 72.0
114.061142 348.0
114.097534 120.0
114.318756 56.0
114.795944 112.0
114.89193 156.0
114.987953 132.0
115.05764 204.0
116.063309 144.0
116.205589 116.0
116.538399 156.0
117.070587 536.0
117.345543 160.0
117.454926 172.0
117.477097 172.0
118.077599 176.0
119.046394 196.0
119.083817 804.0
119.113678 92.0
119.25927 152.0
120.077942 196.0
120.313614 220.0
120.652245 152.0
120.763771 188.0
121.068024 148.0
121.100441 368.0
121.127129 76.0
121.526138 108.0
122.447235 172.0
122.581619 156.0
123.077042 592.0
123.938408 168.0
124.092789 160.0
124.819656 164.0
124.859688 168.0
125.031723 160.0
125.059647 5648.0
125.104454 184.0
125.13562 104.0
125.177925 72.0
125.200195 56.0
125.342773 116.0
125.4832 64.0
125.806694 100.0
125.994293 240.0
126.064713 612.0
126.110497 60.0
126.298325 80.0
126.739357 60.0
126.891777 60.0
126.941109 52.0
126.97699 180.0
126.997177 76.0
127.065727 316.0
127.125061 48.0
127.630493 168.0
127.8442 200.0
128.05748 220.0
128.072006 156.0
129.070877 308.0
129.625992 152.0
130.077469 184.0
130.24765 112.0
130.288528 192.0
131.057571 136.0
131.08551 832.0
131.28096 188.0
132.0923 528.0
132.151413 68.0
133.068085 180.0
133.101913 552.0
133.30928 84.0
133.467896 40.0
134.066422 132.0
134.105606 272.0
134.336197 212.0
134.784103 104.0
134.86731 180.0
134.941284 248.0
135.085953 188.0
135.115189 724.0
137.059418 760.0
137.097763 172.0
137.133148 220.0
137.251617 72.0
138.909851 152.0
139.074951 604.0
139.240814 136.0
139.30423 156.0
139.868607 172.0
140.07515 372.0
140.219559 112.0
141.070068 416.0
141.549622 188.0
142.077286 296.0
142.12326 108.0
142.47229 164.0
142.624374 136.0
143.084839 508.0
143.43132 276.0
143.538605 144.0
143.7724 180.0
143.834442 124.0
144.094208 376.0
145.100372 868.0
145.164719 68.0
146.108643 196.0
146.147186 132.0
147.048492 184.0
147.076859 228.0
147.117737 512.0
147.23439 144.0
147.712982 60.0
148.042145 128.0
148.085739 152.0
148.118347 208.0
148.475952 44.0
149.058594 160.0
149.09877 336.0
149.132935 412.0
149.267654 180.0
149.335739 180.0
149.535263 136.0
150.144348 160.0
151.075333 148.0
151.34668 156.0
151.630844 68.0
152.055145 160.0
152.07666 204.0
154.074432 336.0
154.353668 128.0
155.056732 136.0
155.082199 828.0
155.565231 72.0
155.965179 156.0
156.095322 240.0
156.78653 124.0
156.978485 160.0
157.065781 104.0
157.105896 236.0
157.145615 116.0
157.515106 92.0
158.103699 460.0
158.485825 188.0
159.082001 180.0
159.116837 524.0
159.281128 80.0
159.932388 36.0
160.121231 64.0
160.590027 172.0
160.716171 28.0
161.031723 144.0
161.095337 152.0
161.130783 588.0
161.914413 216.0
161.942276 156.0
162.132294 44.0
163.070053 176.0
163.1073 292.0
163.150162 128.0
163.50882 40.0
163.669205 48.0
163.827118 108.0
164.110016 68.0
164.173767 92.0
164.495255 52.0
164.932068 64.0
164.985748 80.0
165.092102 384.0
165.264542 124.0
165.361786 72.0
167.079803 264.0
168.089844 284.0
169.099792 764.0
171.069183 152.0
171.116898 620.0
172.085968 148.0
172.119904 332.0
172.932968 160.0
173.095215 340.0
173.13121 1820.0
173.805664 68.0
174.086548 160.0
174.13382 156.0
175.075363 120.0
175.111664 148.0
175.147141 356.0
175.196533 36.0
175.937607 40.0
176.119812 132.0
176.273041 64.0
177.08728 176.0
177.133148 156.0
177.196503 212.0
177.249496 48.0
178.079849 184.0
178.154251 48.0
178.997406 192.0
179.082993 168.0
179.144943 204.0
180.089523 108.0
181.032288 136.0
181.098099 508.0
182.102386 176.0
182.79332 52.0
183.075974 196.0
183.114883 968.0
183.221436 48.0
184.119675 168.0
185.133957 528.0
185.686722 212.0
186.132874 184.0
186.32193 52.0
186.781357 72.0
187.111679 156.0
187.680099 108.0
188.116623 168.0
188.152557 176.0
188.239487 192.0
189.0952 64.0
189.129044 204.0
189.623795 104.0
190.09552 148.0
191.109543 232.0
191.144455 236.0
192.09137 308.0
193.068054 132.0
193.103119 336.0
193.157745 196.0
193.339172 112.0
194.100296 176.0
194.60878 140.0
195.111649 340.0
196.108246 152.0
197.098007 128.0
197.130753 300.0
197.677811 80.0
198.13562 312.0
199.108429 172.0
199.145905 356.0
200.086136 168.0
200.159348 124.0
201.096252 196.0
201.121826 304.0
201.453934 44.0
203.081589 104.0
204.109665 188.0
204.357132 216.0
205.103531 172.0
207.115677 368.0
208.115036 148.0
209.0961 164.0
209.133728 580.0
209.165176 180.0
210.103012 160.0
210.832291 56.0
211.115616 328.0
211.143768 196.0
211.668335 60.0
212.233383 176.0
213.124496 172.0
213.165176 92.0
213.851532 76.0
214.189301 136.0
215.107849 184.0
215.13121 128.0
215.195435 184.0
215.616089 176.0
216.11322 108.0
219.124588 264.0
220.110886 148.0
220.276276 180.0
220.870438 140.0
221.107147 128.0
221.136963 164.0
222.527069 168.0
223.145386 368.0
224.157089 336.0
225.131317 160.0
225.159592 160.0
226.164764 212.0
227.141678 568.0
227.549088 144.0
227.822388 52.0
228.119904 124.0
229.125473 148.0
230.198868 92.0
233.134384 116.0
234.138336 124.0
234.235809 152.0
239.142792 144.0
239.179459 188.0
239.208954 52.0
240.179306 272.0
240.994644 84.0
241.15947 108.0
243.169495 292.0
243.584671 140.0
243.823929 28.0
244.181458 140.0
245.183975 140.0
246.166672 136.0
249.114014 124.0
249.160004 212.0
250.183243 56.0
254.664108 120.0
255.093094 160.0
257.188385 272.0
258.166779 196.0
259.203979 148.0
267.167786 432.0
267.879303 144.0
269.801453 196.0
272.140778 176.0
279.648529 132.0
284.227051 176.0
285.184723 672.0
286.193756 112.0
287.194366 128.0
290.010956 56.0
293.403564 48.0
303.194092 512.0
303.939117 40.0
304.198547 348.0
305.161774 224.0
305.203491 136.0
306.118683 116.0
374.513611 116.0
389.729523 116.0
451.755371 60.0
554.186157 120.0
586.515381 88.0
660.6026 56.0
728.624084 136.0
734.858826 56.0
782.482727 172.0
864.990967 180.0
884.919617 156.0
925.596924 76.0
929.968018 212.0
942.36084 152.0
980.218445 164.0
1002.351746 164.0
1024.770386 148.0
1059.627563 144.0
1065.440674 172.0
1067.611694 100.0
1087.650757 148.0
1105.836548 72.0
1115.487915 136.0
1116.505249 172.0
1142.734619 152.0
1143.744141 224.0
1147.13916 188.0
1148.487793 56.0
1166.724487 132.0
1168.159424 208.0
1195.446289 228.0
1208.003906 72.0
1214.161621 260.0
1214.931641 124.0
1227.841919 160.0
1228.825439 200.0
1231.443237 192.0
1248.418091 188.0
1255.206665 184.0
1255.255981 88.0
1270.328369 180.0
1271.19397 168.0
1283.22229 204.0
1284.434692 184.0
1289.211304 136.0
1300.714233 40.0
1304.190796 204.0
1307.794434 168.0
1313.443604 180.0
1313.862061 216.0
1316.662842 164.0
1329.455444 184.0
1332.933838 160.0
1348.756592 192.0
1353.20459 176.0
1357.931152 44.0
1363.672852 232.0
1366.894043 188.0
1370.288574 168.0
1374.853027 192.0
1389.660278 48.0
1391.293091 140.0
1394.702759 172.0
1397.647949 52.0
1399.851318 184.0
1403.614502 128.0
1407.756104 216.0
1410.595337 128.0
1422.401245 124.0
1430.25647 160.0
1443.073975 176.0
1448.174561 208.0
1452.017334 220.0
1456.427124 176.0
1463.431396 224.0
1469.139893 60.0
1473.377075 92.0
1479.770996 164.0
1484.038696 144.0
1484.092407 108.0
1488.619751 200.0
1497.117554 132.0
1500.592896 152.0
1501.163452 28.0
