>compound MLS000521341-01!Acridinamine
>formula C13H10N2
>ionization [M+H]+
>parentmass 195.092743
#inchi InChI=1S/C13H10N2/c14-11-5-3-7-13-10(11)8-9-4-1-2-6-12(9)15-13/h1-8H,14H2
#inchikey LOMMDWBTANPFEJ
#Ion_Source LC-ESI
#Instrument qTof
#Compound_Source NIH Pharmacologically Active Library
#PI Dorrestein
#Data_Collector VP/LMS
#Scan -1
#Precursor_MZ 195.095
#ExactMass 194.084
#Charge 1
#CAS_Number N/A
#Pubmed_ID N/A
#Smiles Nc1cccc2nc3ccccc3cc12
#INCHI_AUX N/A
#Library_Class 1
#SpectrumID CCMSLIB00000084875
#IonMode Positive
#UpdateWorkflowName UPDATE-SINGLE-ANNOTATED-GOLD
#LibraryQualityString Gold
#TaskID d252d724072548979f1f6f1ced849daf
##Scan# 1320
#SpectrumFile p3-B11_GB11_01_18244.mzXML
#LibraryName Pharm_Active_Library.mgf
#MQScore -1
#Organism Pharm_Active_Library
#TIC_Query 0
#RT_Query -1
#MZErrorPPM -1
#SharedPeaks 0
#MassDiff 0
#LibMZ -1
#SpecMZ 195.095
#SpecCharge 0
#internalFilename spec-00000.mgf

>collision 10
44.963032 196.0
44.977959 208.0
45.012104 160.0
45.07412 152.0
45.254696 208.0
45.278801 228.0
45.293533 164.0
45.346268 224.0
45.359192 188.0
45.368576 156.0
45.396736 136.0
45.521538 140.0
45.537655 140.0
45.563175 112.0
45.603489 168.0
45.657269 156.0
45.679939 136.0
45.684914 116.0
45.716465 124.0
45.73922 216.0
45.771656 144.0
46.122433 188.0
46.192749 168.0
46.234695 108.0
46.311871 240.0
46.325417 164.0
46.383007 184.0
46.418938 96.0
46.436565 156.0
46.513908 200.0
46.568222 100.0
46.60762 168.0
46.656548 164.0
46.784431 152.0
46.899731 212.0
46.950668 176.0
46.965672 76.0
46.992226 224.0
47.054375 164.0
47.110367 108.0
47.210148 208.0
47.251698 256.0
47.26897 112.0
47.294975 48.0
47.347004 128.0
47.385357 120.0
47.408653 148.0
47.429211 136.0
47.447254 148.0
47.533443 112.0
47.802784 92.0
47.816544 180.0
47.841324 48.0
47.870235 116.0
47.889519 120.0
47.928093 200.0
47.991497 180.0
48.013977 172.0
48.050804 240.0
48.10601 140.0
48.162624 176.0
48.267662 156.0
48.424042 104.0
48.446205 128.0
48.464218 152.0
48.60778 120.0
48.627857 192.0
48.75285 116.0
48.771099 156.0
48.800114 128.0
48.976231 148.0
48.999142 104.0
49.031193 160.0
49.162285 132.0
49.195786 104.0
49.234882 204.0
49.433395 88.0
49.557865 180.0
49.633713 196.0
49.644928 140.0
49.702694 224.0
49.727703 212.0
50.183495 108.0
50.25684 164.0
50.294945 136.0
50.337299 228.0
50.465885 140.0
50.512554 56.0
50.614456 208.0
50.689533 132.0
50.754738 188.0
50.819984 132.0
50.851204 148.0
50.930717 124.0
50.940662 140.0
51.044415 236.0
51.068592 108.0
51.108425 164.0
51.155739 164.0
51.171642 272.0
51.203804 152.0
51.324936 112.0
51.456203 248.0
51.551907 248.0
51.644901 180.0
51.902618 100.0
51.926998 136.0
51.97612 116.0
52.051853 132.0
52.075611 184.0
52.287621 144.0
52.335125 192.0
52.424435 196.0
52.510937 180.0
52.541229 144.0
52.551327 180.0
52.571529 176.0
52.607616 108.0
52.723167 164.0
52.736176 132.0
52.746292 192.0
52.825825 136.0
52.867786 168.0
52.877918 148.0
52.93148 160.0
53.063335 168.0
53.073486 184.0
53.083637 128.0
53.273773 176.0
53.378422 168.0
53.411873 192.0
53.463657 236.0
53.571999 136.0
53.662357 260.0
53.744038 128.0
53.987988 144.0
54.053818 388.0
54.157627 172.0
54.184132 156.0
54.228092 144.0
54.27647 168.0
54.379162 216.0
54.399712 168.0
54.431572 160.0
54.51281 140.0
54.567192 96.0
54.667217 188.0
54.684879 172.0
54.779118 168.0
54.815948 172.0
54.846901 200.0
54.978165 168.0
55.001781 112.0
55.031307 136.0
55.041641 136.0
55.094814 176.0
55.168705 216.0
55.204193 128.0
55.315159 136.0
55.424755 148.0
55.469215 80.0
55.512215 152.0
55.53466 148.0
55.690308 228.0
55.709839 216.0
55.721504 144.0
55.775002 164.0
55.794327 152.0
55.85976 204.0
55.870174 244.0
55.981808 228.0
56.030964 112.0
56.047352 184.0
56.072685 180.0
56.144249 140.0
56.223316 88.0
56.242722 220.0
56.308414 256.0
56.330822 156.0
56.375645 100.0
56.424973 128.0
56.478806 156.0
56.522194 184.0
56.532669 164.0
56.54464 140.0
56.584862 184.0
56.612011 176.0
56.622494 160.0
56.700401 208.0
56.74987 176.0
56.800858 88.0
56.872883 168.0
56.952465 208.0
56.965984 108.0
57.042622 104.0
57.114799 204.0
57.205086 180.0
57.370419 192.0
57.402462 116.0
57.543396 208.0
57.61377 168.0
57.6591 144.0
57.67614 204.0
57.698402 164.0
57.786121 204.0
57.845909 192.0
57.866341 136.0
57.887539 124.0
57.902683 164.0
57.917828 96.0
57.931461 196.0
57.96328 36.0
58.134636 128.0
58.151329 192.0
58.166508 260.0
58.204464 136.0
58.260323 144.0
58.274334 76.0
58.298645 100.0
58.310806 144.0
58.426369 128.0
58.531391 216.0
58.641079 136.0
58.753918 120.0
58.801224 224.0
58.86076 148.0
58.882141 212.0
58.895576 236.0
58.909634 164.0
58.95853 140.0
58.982983 176.0
59.051922 184.0
59.068615 172.0
59.080853 212.0
59.093094 32.0
59.189522 132.0
59.275303 128.0
59.309021 128.0
59.450123 76.0
59.56374 176.0
59.628422 204.0
59.643642 208.0
59.655941 164.0
59.716564 160.0
59.730358 112.0
59.742058 176.0
59.869812 196.0
59.991539 164.0
60.011581 132.0
60.057716 196.0
60.11623 128.0
60.238445 148.0
60.32962 100.0
60.436337 140.0
60.451813 68.0
60.485035 180.0
60.518372 164.0
60.545448 124.0
60.602013 136.0
60.696564 104.0
60.713623 200.0
60.727581 116.0
60.884335 116.0
60.953125 184.0
60.986877 224.0
61.016415 112.0
61.111286 108.0
61.171982 156.0
61.215576 204.0
61.235825 128.0
61.255093 216.0
61.442474 232.0
61.536789 216.0
61.561775 80.0
61.636757 136.0
61.689896 192.0
61.768082 192.0
61.789986 36.0
61.874496 140.0
61.951656 164.0
62.035858 148.0
62.046833 188.0
62.089169 156.0
62.223221 224.0
62.239819 104.0
62.274368 252.0
62.412663 160.0
62.451748 164.0
62.475574 176.0
62.486588 136.0
62.50547 156.0
62.675529 160.0
62.716503 152.0
62.763798 128.0
62.82373 200.0
62.931053 132.0
62.980007 108.0
63.044785 276.0
63.08588 208.0
63.1175 116.0
63.131733 128.0
63.144386 152.0
63.174438 132.0
63.318478 80.0
63.394524 152.0
63.440487 148.0
63.470612 160.0
63.51519 148.0
63.52771 72.0
63.646309 176.0
63.697563 124.0
63.719807 120.0
63.76112 156.0
63.830593 188.0
63.907417 120.0
63.939243 176.0
64.114433 88.0
64.254753 140.0
64.285065 192.0
64.313797 180.0
64.411194 108.0
64.487892 168.0
64.515068 228.0
64.535851 184.0
64.662231 40.0
64.679832 180.0
64.718254 32.0
64.841606 228.0
64.905731 164.0
64.99395 164.0
65.416641 44.0
65.506035 172.0
65.582169 220.0
65.642204 132.0
65.658333 124.0
65.826164 188.0
66.016853 204.0
66.075081 156.0
66.168953 140.0
66.19162 164.0
66.207809 116.0
66.270988 156.0
66.414421 184.0
66.468811 128.0
66.498016 96.0
66.613304 152.0
66.645798 164.0
66.686424 212.0
66.813263 180.0
66.935333 248.0
66.956429 180.0
67.057518 212.0
67.073814 136.0
67.202652 124.0
67.22876 136.0
67.48333 180.0
67.501564 196.0
67.557175 192.0
67.586624 156.0
67.647179 136.0
67.740524 180.0
67.817535 140.0
67.840485 192.0
67.983185 172.0
68.149033 144.0
68.181892 136.0
68.198334 104.0
68.24929 112.0
68.313438 136.0
68.393814 132.0
68.494507 256.0
68.509338 200.0
68.652733 172.0
68.748413 180.0
68.786377 168.0
68.816093 144.0
68.849243 212.0
68.863983 172.0
68.921806 72.0
68.936676 128.0
68.954857 128.0
69.001137 40.0
69.065636 96.0
69.169876 204.0
69.236107 104.0
69.32225 144.0
69.343796 148.0
69.425034 144.0
69.444931 160.0
69.567726 92.0
69.853554 204.0
69.939011 156.0
70.011673 192.0
70.025925 248.0
70.17997 132.0
70.222374 244.0
70.33345 212.0
70.351105 132.0
70.430298 192.0
70.45536 92.0
70.514565 176.0
70.553955 200.0
70.606873 136.0
70.639244 164.0
70.708595 216.0
70.808304 92.0
70.900444 160.0
70.999519 184.0
71.158768 60.0
71.177238 92.0
71.225945 164.0
71.257858 96.0
71.27462 148.0
71.299866 188.0
71.557831 216.0
71.570702 104.0
71.592926 164.0
71.617859 156.0
71.670082 236.0
71.690308 192.0
71.732437 192.0
71.747612 172.0
71.765465 224.0
71.777962 168.0
71.798195 32.0
71.826874 36.0
71.860107 108.0
71.892708 168.0
71.961876 228.0
72.137581 140.0
72.149414 164.0
72.174774 168.0
72.206902 180.0
72.232277 64.0
72.29657 156.0
72.337189 364.0
72.364281 176.0
72.570984 216.0
72.586243 120.0
72.626945 152.0
72.68293 112.0
72.711784 116.0
72.806854 148.0
72.825539 160.0
72.854416 152.0
72.990379 84.0
73.116264 152.0
73.134987 240.0
73.201385 152.0
73.237152 364.0
73.366661 44.0
73.399055 176.0
73.422928 200.0
73.516754 104.0
73.542358 108.0
73.578209 48.0
73.627724 212.0
73.644806 108.0
73.719055 164.0
73.793472 236.0
73.824966 192.0
73.858459 120.0
73.897804 168.0
74.000504 140.0
74.034744 80.0
74.137535 136.0
74.183815 112.0
74.235191 176.0
74.403397 164.0
74.429153 188.0
74.628471 156.0
74.743713 116.0
74.915886 184.0
74.931389 168.0
74.943451 100.0
74.976189 176.0
75.014114 148.0
75.043419 56.0
75.06073 208.0
75.089981 236.0
75.16243 192.0
75.221115 132.0
75.404198 164.0
75.601357 136.0
75.620392 148.0
75.664162 184.0
75.705223 204.0
75.729469 168.0
75.80809 276.0
75.847298 172.0
75.99292 140.0
76.168312 152.0
76.262138 148.0
76.328201 156.0
76.380371 104.0
76.408211 184.0
76.46389 224.0
76.486519 140.0
76.509148 160.0
76.629845 160.0
76.653709 48.0
76.775742 204.0
76.798416 232.0
76.938011 164.0
77.042793 188.0
77.063759 80.0
77.228088 192.0
77.250824 80.0
77.308563 180.0
77.432869 212.0
77.513451 132.0
77.606354 204.0
77.678253 140.0
77.720016 164.0
77.758965 168.0
77.816895 184.0
77.945114 184.0
78.05793 224.0
78.12973 184.0
78.253693 212.0
78.342743 156.0
78.388557 196.0
78.540176 88.0
78.60611 236.0
78.699005 180.0
78.801445 124.0
78.824417 132.0
78.856224 120.0
78.875671 152.0
78.923401 128.0
78.942856 144.0
78.983536 176.0
79.022453 128.0
79.057838 208.0
79.220734 176.0
79.383797 164.0
79.484909 160.0
79.513306 200.0
79.563004 140.0
79.641663 200.0
79.740631 168.0
79.797516 196.0
79.84375 92.0
80.036346 176.0
80.048401 132.0
80.124992 188.0
80.258667 116.0
80.38353 184.0
80.431717 184.0
80.563858 192.0
80.585136 176.0
80.680023 156.0
80.755127 168.0
80.94841 164.0
80.975273 128.0
81.003929 80.0
81.072014 148.0
81.147301 192.0
81.263878 212.0
81.32489 124.0
81.337456 188.0
81.495491 200.0
81.635704 208.0
81.716644 64.0
81.776031 188.0
81.801231 164.0
82.249428 168.0
82.347572 248.0
82.427063 160.0
82.46682 184.0
82.479469 140.0
82.573494 156.0
82.591583 132.0
82.617851 284.0
82.649467 184.0
82.683853 164.0
82.720055 164.0
82.88784 208.0
82.94149 228.0
82.979919 144.0
83.067978 256.0
83.147812 164.0
83.204086 172.0
83.313049 192.0
83.434807 128.0
83.51651 164.0
83.542107 168.0
83.576675 236.0
83.600327 128.0
83.667824 148.0
83.722298 228.0
83.853271 108.0
83.877167 128.0
83.908211 140.0
83.940979 196.0
84.04422 204.0
84.103348 128.0
84.161423 168.0
84.212906 168.0
84.23671 124.0
84.287804 116.0
84.531006 152.0
84.60788 100.0
84.684479 164.0
84.884544 64.0
84.963417 168.0
84.996445 128.0
85.012955 148.0
85.05275 164.0
85.128609 172.0
85.165337 124.0
85.1782 152.0
85.300728 188.0
85.441078 140.0
85.470512 224.0
85.545326 216.0
85.665672 176.0
85.678566 48.0
85.704361 148.0
85.757805 96.0
85.774391 124.0
85.800201 112.0
85.82048 188.0
85.897934 168.0
86.23584 144.0
86.308556 156.0
86.339371 264.0
86.515152 284.0
86.681847 156.0
86.774521 228.0
86.796768 176.0
86.817169 252.0
86.961884 216.0
87.119713 236.0
87.180916 200.0
87.260124 188.0
87.331619 132.0
87.353943 184.0
87.441399 200.0
87.508408 176.0
87.582901 44.0
87.599663 128.0
87.750618 136.0
87.793503 108.0
87.82148 316.0
87.846703 176.0
87.881172 104.0
87.967026 124.0
88.023033 208.0
88.084663 184.0
88.126213 168.0
88.153793 160.0
88.217346 200.0
88.247253 188.0
88.281525 172.0
88.321251 204.0
88.337021 124.0
88.408119 180.0
88.496101 152.0
88.563515 132.0
88.651573 168.0
88.734047 144.0
88.760292 88.0
88.797798 168.0
88.870964 128.0
88.895355 152.0
88.916298 152.0
88.940399 228.0
88.959167 160.0
89.049301 144.0
89.145111 172.0
89.167664 124.0
89.237213 140.0
89.301155 108.0
89.398979 184.0
89.478035 208.0
89.504395 200.0
89.547707 132.0
89.589149 304.0
89.611755 188.0
89.662636 220.0
89.683365 220.0
89.766479 192.0
89.804039 156.0
89.822899 216.0
89.928566 76.0
89.987083 216.0
90.00219 136.0
90.033791 1000.0
90.104179 152.0
90.257278 76.0
90.28083 140.0
90.385902 140.0
90.49379 196.0
90.682785 208.0
90.72113 124.0
91.041824 356.0
91.077881 128.0
91.095779 180.0
91.134872 188.0
91.18998 148.0
91.273628 128.0
91.520988 196.0
91.549553 116.0
91.585739 188.0
91.610497 128.0
91.62574 148.0
91.675278 52.0
91.701958 72.0
91.851151 212.0
91.869759 48.0
91.906013 128.0
91.967079 140.0
91.99662 184.0
92.050041 1004.0
92.263161 176.0
92.370255 232.0
92.473579 112.0
92.488892 148.0
92.559723 44.0
92.724472 120.0
92.767769 204.0
92.851006 176.0
92.908554 172.0
92.969955 208.0
93.05838 3972.0
93.125465 32.0
93.138908 36.0
93.165802 140.0
93.217674 208.0
93.231918 88.0
93.333008 112.0
93.352242 168.0
93.425331 196.0
93.446487 180.0
93.496521 156.0
93.525261 180.0
93.623581 104.0
93.64669 212.0
93.722023 152.0
93.754578 84.0
93.868317 232.0
94.060936 356.0
94.080551 232.0
94.094345 192.0
94.111137 176.0
94.192558 128.0
94.25824 144.0
94.273705 68.0
94.412331 208.0
94.480591 152.0
94.511543 144.0
94.604446 136.0
94.650909 92.0
94.685768 152.0
94.705139 160.0
94.782631 104.0
94.838829 256.0
94.935768 136.0
94.978439 168.0
95.063805 152.0
95.094856 92.0
95.397873 152.0
95.418327 176.0
95.482452 360.0
95.557343 312.0
95.572906 204.0
95.59626 148.0
95.658539 148.0
95.716949 176.0
95.745827 212.0
95.81823 72.0
95.855247 160.0
96.038506 200.0
96.23951 164.0
96.294189 124.0
96.577599 192.0
96.60498 132.0
96.736092 168.0
96.751755 196.0
96.77916 152.0
96.798744 136.0
96.871208 232.0
96.959381 132.0
96.990738 236.0
97.065239 176.0
97.173119 156.0
97.2313 160.0
97.30658 184.0
97.501045 152.0
97.542976 144.0
97.662262 320.0
97.703575 200.0
97.811028 212.0
97.969337 188.0
98.077721 152.0
98.122406 156.0
98.17791 108.0
98.205879 180.0
98.267036 176.0
98.478256 144.0
98.557281 152.0
98.582474 208.0
98.604706 148.0
98.671913 184.0
98.715416 144.0
98.933052 36.0
98.946915 176.0
98.964729 160.0
98.991287 212.0
99.125175 184.0
99.178688 188.0
99.256004 116.0
99.346954 196.0
99.38295 108.0
99.5616 136.0
99.63311 44.0
99.959183 56.0
100.020882 124.0
100.052734 132.0
100.14035 184.0
100.397438 172.0
100.519127 132.0
100.563034 156.0
100.710785 60.0
100.846649 188.0
100.877831 244.0
101.004608 40.0
101.033745 240.0
101.090637 104.0
101.156685 216.0
101.182709 148.0
101.234772 136.0
101.248787 148.0
101.346947 136.0
101.376297 148.0
101.411072 140.0
101.47522 76.0
101.561447 160.0
101.593079 172.0
101.627655 204.0
101.673805 220.0
101.861305 208.0
101.89669 184.0
102.021294 192.0
102.042053 184.0
102.191483 212.0
102.252609 176.0
102.303841 240.0
102.42215 196.0
102.540611 204.0
102.555786 148.0
102.584961 172.0
102.613182 76.0
102.730148 180.0
102.788658 172.0
102.853241 72.0
103.053581 200.0
103.158264 148.0
103.18499 216.0
103.24704 176.0
103.277565 84.0
103.301834 244.0
103.396935 196.0
103.632881 156.0
103.685493 180.0
103.976555 152.0
104.042458 160.0
104.062996 192.0
104.104454 136.0
104.41539 160.0
104.478447 196.0
104.49472 108.0
104.576118 220.0
104.594437 208.0
104.619545 216.0
104.948914 304.0
105.103935 148.0
105.152908 196.0
105.179443 132.0
105.203941 200.0
105.222313 316.0
105.342804 208.0
105.359146 120.0
105.375488 204.0
105.510376 136.0
105.58194 184.0
105.649445 120.0
105.70723 148.0
105.817261 224.0
105.89917 112.0
105.913506 120.0
105.946281 164.0
105.995453 152.0
106.242271 240.0
106.366669 212.0
106.417992 108.0
106.646011 188.0
106.732361 160.0
106.818733 100.0
106.898972 168.0
106.942192 104.0
106.98336 168.0
107.104858 116.0
107.302689 160.0
107.329491 128.0
107.502762 176.0
107.564682 132.0
107.59771 208.0
107.67411 140.0
107.727348 196.0
107.791862 192.0
107.820793 188.0
107.934494 196.0
107.974998 136.0
108.011009 172.0
108.120667 140.0
108.253159 184.0
108.298721 152.0
108.406456 108.0
108.481064 248.0
108.630371 172.0
108.666382 172.0
108.719589 152.0
108.841507 208.0
108.864906 60.0
108.927216 180.0
108.997856 160.0
109.016556 144.0
109.332657 72.0
109.361794 136.0
109.57003 164.0
109.615868 216.0
109.645042 188.0
109.726334 140.0
109.76503 136.0
109.824348 148.0
109.841034 136.0
109.922401 212.0
110.010056 188.0
110.072693 220.0
110.10611 228.0
110.137436 232.0
110.212639 244.0
110.229362 148.0
110.262794 160.0
110.300415 188.0
110.317139 132.0
110.331772 116.0
110.346405 220.0
110.411232 104.0
110.494904 224.0
110.549301 124.0
110.637207 100.0
110.676987 216.0
110.697929 208.0
110.817322 204.0
110.920013 64.0
111.127625 136.0
111.32074 124.0
111.437782 172.0
111.505608 172.0
111.553955 152.0
111.665451 140.0
111.781097 156.0
111.934761 176.0
112.014793 172.0
112.196022 96.0
112.259277 200.0
112.487144 144.0
112.544144 132.0
112.662415 96.0
112.818802 140.0
112.839943 160.0
112.882225 168.0
112.977402 72.0
113.038765 120.0
113.059921 48.0
113.14624 108.0
113.31826 160.0
113.335205 136.0
113.485695 164.0
113.502663 144.0
113.544495 264.0
113.587494 196.0
113.602341 164.0
113.668114 124.0
113.78273 192.0
113.829437 48.0
113.925011 240.0
113.950508 128.0
114.01638 160.0
114.17157 204.0
114.190712 44.0
114.452461 208.0
114.573868 188.0
114.697464 128.0
114.808327 56.0
114.894791 116.0
115.019547 260.0
115.053818 360.0
115.077187 156.0
115.100677 128.0
115.122032 152.0
115.169014 132.0
115.299347 172.0
115.423332 152.0
115.568779 116.0
115.740013 152.0
115.819252 104.0
115.903267 148.0
116.009964 108.0
116.049477 288.0
116.134331 180.0
116.243744 76.0
116.271645 124.0
116.417625 100.0
116.621727 116.0
116.722763 164.0
116.968025 316.0
117.044846 7504.0
117.077835 132.0
117.120049 60.0
117.138138 244.0
117.187691 132.0
117.204926 72.0
117.271729 144.0
117.331787 144.0
117.453148 204.0
117.506432 172.0
117.534828 140.0
117.556404 216.0
117.60173 56.0
117.694557 132.0
117.817665 132.0
117.839272 188.0
117.878159 104.0
117.904091 184.0
117.930031 180.0
118.014336 164.0
118.052834 4340.0
118.08786 148.0
118.115982 88.0
118.15229 240.0
118.228485 76.0
118.302078 108.0
118.448845 140.0
118.518654 72.0
118.540321 176.0
118.67038 96.0
118.707237 160.0
118.768738 56.0
118.817856 68.0
118.954575 320.0
119.057899 680.0
119.08268 96.0
119.123955 124.0
119.14904 80.0
119.230415 96.0
119.279121 156.0
119.302147 132.0
119.441315 80.0
119.543694 148.0
119.614662 220.0
119.767815 192.0
119.83535 180.0
119.865852 104.0
119.883286 192.0
119.948669 184.0
120.064232 168.0
120.090401 164.0
120.214752 156.0
120.232208 76.0
120.278046 208.0
120.356636 116.0
120.500793 112.0
120.769676 120.0
120.817795 168.0
120.90094 132.0
120.977554 116.0
121.073891 156.0
121.181221 344.0
121.211899 176.0
121.300728 128.0
121.320618 172.0
121.413574 164.0
121.529839 120.0
121.602257 132.0
121.707626 96.0
121.845993 132.0
121.865768 100.0
122.0504 216.0
122.193359 196.0
122.250572 152.0
122.268181 152.0
122.345215 136.0
122.38044 168.0
122.675659 132.0
122.730774 168.0
122.841049 164.0
122.870201 248.0
122.933716 200.0
123.083817 200.0
123.284836 152.0
123.466118 224.0
123.554588 224.0
123.581139 104.0
123.687363 172.0
123.731636 148.0
123.800278 148.0
123.849007 116.0
123.897736 192.0
123.930969 212.0
124.061729 100.0
124.327896 184.0
124.34565 160.0
124.494392 44.0
124.62767 116.0
124.643227 172.0
124.669289 148.0
124.727676 220.0
124.747681 152.0
124.845512 164.0
124.901367 176.0
124.992325 196.0
125.038467 328.0
125.110901 232.0
125.149933 228.0
125.190445 64.0
125.259491 108.0
125.36866 196.0
125.598305 184.0
125.61615 168.0
125.689774 160.0
125.754486 164.0
125.848244 160.0
125.881737 148.0
126.040337 100.0
126.073853 148.0
126.230339 144.0
126.281769 160.0
126.407051 168.0
126.433907 220.0
126.471954 196.0
126.553543 224.0
126.644363 132.0
126.666763 136.0
126.684677 100.0
126.839302 184.0
126.886375 100.0
126.908798 176.0
126.991768 168.0
127.053726 1324.0
127.09272 136.0
127.200439 176.0
127.258812 164.0
127.283508 160.0
127.350883 116.0
127.386818 144.0
127.48793 104.0
127.531273 196.0
127.577835 60.0
127.618301 160.0
127.828285 160.0
128.025589 192.0
128.050186 824.0
128.097656 60.0
128.346222 196.0
128.411942 204.0
128.579498 120.0
128.663696 72.0
128.751755 44.0
128.786942 240.0
128.826294 188.0
128.891815 120.0
128.982208 216.0
129.009338 220.0
129.045975 1132.0
129.08168 116.0
129.147263 188.0
129.174408 60.0
129.251328 104.0
129.432419 164.0
129.554718 116.0
129.620422 188.0
129.63855 76.0
129.665741 128.0
129.715607 68.0
129.828003 164.0
129.928345 200.0
130.03981 172.0
130.092178 140.0
130.114868 144.0
130.133041 52.0
130.162552 92.0
130.230682 232.0
130.294296 116.0
130.475891 128.0
130.543976 244.0
130.751328 132.0
130.876526 124.0
130.931183 164.0
130.951675 168.0
131.045074 172.0
131.076981 132.0
131.099762 172.0
131.131668 148.0
131.254776 128.0
131.279861 152.0
131.460068 44.0
131.503433 124.0
131.626709 128.0
131.761475 312.0
132.012894 152.0
132.065491 192.0
132.111237 84.0
132.168747 204.0
132.307968 172.0
132.48439 80.0
132.521332 164.0
132.596664 176.0
133.046249 156.0
133.165649 196.0
133.213882 220.0
133.264435 156.0
133.370132 300.0
133.494293 176.0
133.528778 188.0
133.586288 184.0
133.712845 172.0
133.846359 172.0
134.055969 72.0
134.194275 144.0
134.274811 160.0
134.300354 188.0
134.341873 144.0
134.381088 172.0
134.48494 176.0
134.653488 148.0
134.701981 172.0
134.868347 92.0
134.923828 172.0
134.943054 164.0
135.032516 180.0
135.056137 476.0
135.145859 180.0
135.356491 64.0
135.412079 180.0
135.516312 164.0
135.597427 164.0
135.731873 68.0
135.854797 160.0
135.954575 156.0
136.053833 152.0
136.084564 128.0
136.105453 152.0
136.165833 172.0
136.184418 72.0
136.334045 196.0
136.367966 204.0
136.521408 84.0
136.570251 144.0
136.595825 224.0
136.621368 184.0
136.647003 164.0
136.758713 188.0
136.809921 216.0
136.961273 196.0
137.082428 176.0
137.17099 220.0
137.359863 40.0
137.453186 156.0
137.600235 152.0
137.688965 124.0
137.791748 204.0
137.859512 176.0
137.890137 188.0
138.030151 148.0
138.046524 64.0
138.088608 152.0
138.161133 96.0
138.357712 192.0
138.381119 128.0
138.466843 152.0
138.568481 152.0
138.72081 144.0
138.862335 180.0
138.894333 172.0
138.971878 144.0
139.056519 540.0
139.079712 68.0
139.10788 96.0
139.159515 108.0
139.204132 204.0
139.322723 180.0
139.575409 124.0
139.676529 200.0
139.780045 160.0
139.850647 132.0
139.869476 152.0
139.939316 144.0
140.05127 524.0
140.156799 208.0
140.206284 84.0
140.578888 128.0
140.614288 148.0
140.878738 68.0
141.055222 288.0
141.071777 844.0
141.123642 172.0
141.190735 176.0
141.304276 216.0
141.323212 248.0
141.647537 168.0
141.678329 116.0
141.704391 148.0
141.814957 164.0
141.832367 76.0
141.889252 120.0
141.92482 100.0
141.958023 112.0
142.007812 148.0
142.026794 204.0
142.071243 232.0
142.119308 208.0
142.233231 92.0
142.259338 116.0
142.275955 176.0
142.387558 148.0
142.461182 200.0
142.477814 196.0
142.57048 148.0
142.677444 324.0
142.803467 176.0
142.903381 144.0
142.934814 172.0
143.065506 100.0
143.093781 164.0
143.25293 256.0
143.343887 88.0
143.408234 164.0
143.580582 152.0
143.617172 176.0
143.718246 180.0
143.754517 252.0
143.81131 156.0
143.854279 172.0
143.916351 180.0
143.942612 144.0
143.978439 140.0
144.033371 68.0
144.057251 176.0
144.36319 32.0
144.46843 124.0
144.506699 216.0
144.55217 124.0
144.571304 76.0
144.63353 112.0
144.705353 176.0
144.756577 248.0
144.85144 224.0
144.875397 152.0
144.940079 48.0
145.06459 164.0
145.189377 148.0
145.21817 164.0
145.503723 244.0
145.599762 144.0
145.664612 156.0
145.688385 116.0
145.758316 184.0
146.004623 188.0
146.06218 484.0
146.097321 152.0
146.164688 180.0
146.217621 148.0
146.256134 180.0
146.488525 180.0
146.506561 144.0
146.57402 128.0
146.61499 148.0
146.805435 168.0
146.862061 184.0
147.058762 100.0
147.075653 76.0
147.140823 156.0
147.288132 200.0
147.32196 204.0
147.355606 164.0
147.392014 36.0
147.411346 176.0
147.454849 152.0
147.54187 156.0
147.580551 88.0
147.670029 172.0
147.924088 248.0
148.035461 164.0
148.110535 176.0
148.226822 140.0
148.263168 208.0
148.333466 148.0
148.626907 124.0
148.668167 144.0
148.707001 132.0
148.856476 168.0
149.040741 552.0
149.085861 76.0
149.141754 144.0
149.234131 132.0
149.291138 172.0
149.328979 172.0
149.540649 128.0
149.625839 56.0
149.652618 160.0
149.810928 156.0
149.884018 84.0
150.000992 184.0
150.046097 3264.0
150.098526 148.0
150.232666 44.0
150.574387 96.0
150.625671 176.0
150.658661 184.0
150.703857 100.0
150.730728 88.0
150.896927 232.0
150.938965 84.0
150.962952 64.0
151.054199 13960.0
151.118744 52.0
151.148865 60.0
151.220764 232.0
151.243301 216.0
151.291641 252.0
151.329422 52.0
151.434891 196.0
151.469574 124.0
151.496521 284.0
151.533264 72.0
151.614136 140.0
151.687195 192.0
151.744049 184.0
151.934174 228.0
151.972137 164.0
152.001587 48.0
152.053696 3244.0
152.124298 156.0
152.166031 96.0
152.235306 56.0
152.264252 60.0
152.406738 128.0
152.473083 132.0
152.534531 96.0
152.569519 160.0
152.60582 36.0
152.625488 184.0
152.760254 176.0
152.809952 84.0
152.837021 164.0
152.923157 40.0
152.995682 56.0
153.057816 536.0
153.12941 176.0
153.163315 148.0
153.253143 68.0
153.297485 204.0
153.450317 140.0
153.56868 180.0
153.647614 68.0
153.755798 204.0
153.820358 116.0
153.901825 176.0
153.975906 120.0
154.025299 268.0
154.066101 1368.0
154.107956 96.0
154.311966 148.0
154.387039 156.0
154.470245 140.0
154.507355 164.0
154.628601 196.0
154.735031 60.0
154.81427 152.0
154.856369 52.0
154.886093 172.0
154.935638 160.0
154.962891 108.0
155.053497 1208.0
155.112183 164.0
155.252899 148.0
155.297546 36.0
155.337234 48.0
155.369476 144.0
155.473694 176.0
155.503479 152.0
155.644974 168.0
155.697128 72.0
155.726929 48.0
155.851135 108.0
155.885208 168.0
155.923203 176.0
155.954086 276.0
155.993301 136.0
156.034439 144.0
156.058823 200.0
156.16188 136.0
156.20665 208.0
156.275238 164.0
156.373352 136.0
156.552597 148.0
156.597427 196.0
156.687103 136.0
156.854065 252.0
156.878998 180.0
156.93837 220.0
156.955917 196.0
157.031097 208.0
157.064758 168.0
157.16214 144.0
157.250656 92.0
157.290588 176.0
157.450378 172.0
157.630249 164.0
157.65274 148.0
157.892731 160.0
157.975281 256.0
158.005295 212.0
158.067841 172.0
158.378281 144.0
158.52359 124.0
158.724121 172.0
158.740524 96.0
158.759232 148.0
158.857056 56.0
158.914749 184.0
159.030182 144.0
159.108002 96.0
159.163239 64.0
159.241089 220.0
159.44458 148.0
159.479767 56.0
159.575302 40.0
159.752243 144.0
159.873337 132.0
159.924957 200.0
159.96524 180.0
160.093643 156.0
160.203964 160.0
160.305252 276.0
160.633011 140.0
160.761688 92.0
160.786911 92.0
161.30217 136.0
161.362839 172.0
161.395706 116.0
161.413406 208.0
161.588928 196.0
161.618286 212.0
161.711929 260.0
162.011948 256.0
162.066452 140.0
162.089264 164.0
162.137405 28.0
162.363266 88.0
162.383331 220.0
162.446732 208.0
162.500183 184.0
162.675125 188.0
162.763977 124.0
162.817307 180.0
163.045319 176.0
163.117126 272.0
163.145081 168.0
163.274765 168.0
163.363785 64.0
163.496094 292.0
163.600449 88.0
163.633545 72.0
163.692108 172.0
163.898438 72.0
163.934097 160.0
163.97998 176.0
164.051346 164.0
164.11763 144.0
164.252792 40.0
164.441605 116.0
164.584564 184.0
164.676498 124.0
164.786346 128.0
164.817001 228.0
164.934555 52.0
164.957565 196.0
165.052353 164.0
165.103302 88.0
165.123764 80.0
165.149338 156.0
165.205612 192.0
165.256775 160.0
165.594681 176.0
165.746811 136.0
165.825272 216.0
165.868835 136.0
165.922668 228.0
165.997025 160.0
166.036423 88.0
166.064011 1608.0
166.138092 176.0
166.189407 140.0
166.264999 96.0
166.327988 104.0
166.476898 176.0
166.515915 192.0
166.556519 84.0
166.692673 228.0
166.759491 164.0
166.924026 208.0
166.957458 196.0
166.98317 204.0
167.017044 144.0
167.07251 5744.0
167.116943 148.0
167.141052 144.0
167.165833 264.0
167.19928 76.0
167.284225 124.0
167.312546 48.0
167.335709 84.0
167.474365 128.0
167.503098 60.0
167.523712 192.0
167.603577 68.0
167.621613 96.0
167.662842 156.0
167.686035 116.0
167.74823 92.0
167.788239 160.0
167.925812 128.0
167.982559 116.0
168.077026 4324.0
168.176086 188.0
168.235458 272.0
168.256104 144.0
168.292252 52.0
168.390381 40.0
168.457535 176.0
168.475616 132.0
168.545624 164.0
168.576385 48.0
168.690109 172.0
168.730133 192.0
168.809036 136.0
168.863342 64.0
168.91507 160.0
168.984924 180.0
169.004013 148.0
169.035461 128.0
169.066849 3220.0
169.179993 272.0
169.285172 96.0
169.305176 100.0
169.327209 132.0
169.368057 188.0
169.440582 88.0
169.468399 136.0
169.590881 172.0
169.650497 180.0
169.759399 32.0
169.78273 164.0
169.870926 40.0
169.896866 68.0
170.020432 128.0
170.062439 600.0
170.122635 148.0
170.174561 100.0
170.218063 200.0
170.384933 188.0
170.420547 164.0
170.473267 68.0
170.70723 116.0
170.780045 200.0
170.847672 152.0
171.067734 288.0
171.089706 144.0
171.227707 124.0
171.255768 160.0
171.373581 56.0
171.436111 36.0
171.470001 80.0
171.511566 76.0
171.626404 152.0
171.775055 156.0
171.822021 132.0
172.058853 176.0
172.116943 84.0
172.759888 136.0
172.924728 192.0
172.977081 140.0
173.20488 172.0
173.304443 32.0
173.375183 140.0
173.519348 164.0
173.61113 168.0
173.855103 176.0
173.967957 180.0
173.996841 152.0
174.232834 228.0
174.338303 192.0
174.430283 100.0
174.535446 132.0
174.722183 216.0
174.748489 200.0
174.861649 204.0
174.966934 152.0
175.045929 160.0
175.254013 188.0
175.325165 124.0
175.433228 176.0
175.456955 164.0
175.629578 152.0
175.79985 212.0
175.844711 144.0
175.91861 128.0
175.97142 212.0
175.992538 128.0
176.016296 128.0
176.047684 628.0
176.074402 96.0
176.145706 100.0
176.187973 164.0
176.232895 208.0
176.269882 108.0
176.372955 172.0
176.465485 48.0
176.486633 144.0
176.563324 152.0
176.613571 104.0
176.666336 156.0
176.692932 196.0
176.748489 108.0
176.784302 224.0
176.8517 80.0
176.944351 188.0
177.005356 184.0
177.057281 11616.0
177.108536 120.0
177.127075 220.0
177.150909 56.0
177.201248 108.0
177.222443 72.0
177.258286 144.0
177.399277 160.0
177.415909 340.0
177.458328 176.0
177.492798 180.0
177.567062 80.0
177.630707 96.0
177.692871 252.0
177.731522 132.0
177.787247 216.0
177.83461 256.0
177.856262 112.0
177.937057 140.0
177.967758 128.0
178.009293 316.0
178.033218 180.0
178.065292 22676.0
178.103012 116.0
178.112885 160.0
178.168716 72.0
178.188828 268.0
178.236023 136.0
178.281204 36.0
178.30777 144.0
178.391235 80.0
178.416748 96.0
178.461945 84.0
178.523102 76.0
178.547043 52.0
178.586945 168.0
178.658752 128.0
178.709305 72.0
178.828064 64.0
178.880966 136.0
178.943008 144.0
179.030289 176.0
179.068253 5924.0
179.143753 64.0
179.180557 52.0
179.266769 100.0
179.304535 180.0
179.351105 48.0
179.395966 120.0
179.480392 72.0
179.497726 164.0
179.537735 40.0
179.673767 156.0
179.700439 56.0
179.719894 184.0
179.743134 96.0
179.788498 84.0
179.884583 224.0
179.914505 96.0
179.940643 204.0
179.975357 92.0
179.996719 84.0
180.066574 728.0
180.13826 228.0
180.164978 80.0
180.186356 52.0
180.231766 72.0
180.34935 72.0
180.376083 240.0
180.395554 228.0
180.448257 88.0
180.472321 160.0
180.520462 104.0
180.566956 120.0
180.694321 176.0
180.72821 168.0
180.755859 140.0
180.829498 200.0
180.865585 144.0
181.004318 180.0
181.022614 104.0
181.065247 140.0
181.117279 160.0
181.2164 232.0
181.246643 96.0
181.299469 64.0
181.355743 136.0
181.414719 116.0
181.67215 120.0
182.058624 200.0
182.083527 152.0
182.115051 144.0
182.166092 184.0
182.27356 208.0
182.292374 184.0
182.359558 144.0
182.453629 180.0
182.483215 172.0
182.504089 120.0
182.633804 48.0
182.951324 136.0
183.053421 340.0
183.201767 28.0
183.228714 100.0
183.267624 252.0
183.544052 52.0
183.576416 140.0
183.616867 68.0
183.738251 112.0
183.778717 160.0
183.908249 60.0
184.048004 156.0
184.075638 120.0
184.189056 72.0
184.361969 108.0
184.389008 140.0
184.407913 52.0
184.470093 176.0
184.521454 224.0
184.670181 108.0
184.764862 76.0
184.797318 164.0
185.030075 160.0
185.072342 372.0
185.104034 208.0
185.149216 160.0
185.241302 168.0
185.360519 120.0
185.54541 92.0
185.637009 36.0
185.745499 36.0
185.805176 140.0
186.016846 192.0
186.066376 196.0
186.090149 132.0
186.149872 124.0
186.329147 200.0
186.519363 164.0
186.70697 228.0
186.731445 116.0
186.823929 168.0
186.897385 152.0
187.052505 128.0
187.093338 180.0
187.166855 120.0
187.194077 72.0
187.243103 64.0
187.263336 128.0
187.700912 164.0
187.784439 172.0
187.845459 140.0
187.946411 36.0
188.036469 56.0
188.112885 64.0
188.380493 176.0
188.686569 184.0
189.124252 128.0
189.595322 176.0
189.732376 188.0
189.81189 56.0
189.83931 44.0
189.916107 156.0
190.275574 244.0
190.443085 116.0
190.56395 84.0
190.590179 132.0
190.625168 200.0
190.671127 160.0
190.704102 176.0
190.750824 76.0
190.770065 132.0
190.841553 196.0
190.893799 216.0
191.056076 140.0
191.232178 172.0
191.317505 48.0
191.361557 176.0
191.504761 172.0
191.71846 148.0
191.92363 184.0
192.017395 148.0
192.068939 760.0
192.19043 176.0
192.229813 68.0
192.27597 176.0
192.392654 104.0
192.414734 88.0
192.450623 132.0
192.558319 84.0
192.621857 176.0
192.668808 188.0
192.713013 56.0
192.735123 212.0
193.038193 116.0
193.075699 5804.0
193.130447 140.0
193.196838 176.0
193.285965 112.0
193.335175 100.0
193.356171 48.0
193.454193 124.0
193.48465 60.0
193.567719 216.0
193.703415 80.0
193.767914 92.0
193.810822 156.0
193.901306 104.0
193.925613 148.0
193.994385 60.0
194.084061 24196.0
194.143814 76.0
194.169571 156.0
194.195206 200.0
194.233826 272.0
194.268723 224.0
194.320847 68.0
194.365234 132.0
194.371155 64.0
194.389969 228.0
194.448883 168.0
194.471481 124.0
194.499268 260.0
194.533249 172.0
194.59166 216.0
194.667938 224.0
194.690628 64.0
194.715088 156.0
194.769135 228.0
194.798294 108.0
194.827652 400.0
194.855225 204.0
194.864517 216.0
194.872711 628.0
194.919159 148.0
194.977509 388.0
195.044617 664.0
195.092743 183824.0
195.1427 176.0
195.180084 164.0
195.192078 92.0
195.200378 116.0
195.219254 152.0
195.25029 156.0
195.28624 400.0
195.323151 164.0
195.333694 120.0
195.343292 180.0
195.382233 84.0
195.402039 180.0
195.445602 132.0
195.475739 132.0
195.516159 176.0
195.549713 1420.0
195.583633 268.0
195.602753 160.0
195.645676 216.0
195.676804 40.0
195.685944 68.0
195.713058 132.0
195.73436 220.0
195.778671 184.0
195.796295 296.0
195.818237 296.0
195.85614 76.0
195.886658 92.0
195.914627 32.0
195.946579 176.0
195.969223 188.0
196.001663 180.0
196.040558 372.0
196.094742 31840.0
196.15097 208.0
196.172531 48.0
196.207245 100.0
196.242905 76.0
196.284317 112.0
196.333115 144.0
196.362183 92.0
196.389999 112.0
196.418625 80.0
196.454315 128.0
196.473587 64.0
196.500198 148.0
196.544403 140.0
196.618042 44.0
196.64621 132.0
196.703445 72.0
196.735672 48.0
196.744659 44.0
196.790344 36.0
196.815475 68.0
196.8414 56.0
196.878006 172.0
196.899246 128.0
196.941147 144.0
196.98584 52.0
197.010971 96.0
197.053574 212.0
197.097214 1248.0
197.145248 136.0
197.187012 120.0
197.224548 56.0
197.278946 184.0
197.31897 48.0
197.361435 112.0
197.411087 224.0
197.455231 136.0
197.495239 244.0
197.501114 104.0
197.549744 404.0
197.572479 192.0
197.627945 112.0
197.686356 216.0
197.711395 96.0
197.736679 156.0
197.813553 88.0
197.837936 160.0
197.861145 84.0
197.886337 48.0
197.907394 84.0
197.962708 60.0
197.998337 48.0
198.083542 272.0
198.149597 112.0
198.197235 76.0
198.264481 108.0
198.331757 76.0
198.463516 152.0
198.544571 44.0
198.619781 172.0
198.670929 96.0
198.758026 56.0
198.94606 64.0
199.007828 52.0
199.238129 64.0
199.316803 80.0
199.412338 68.0
199.552902 100.0
199.701935 76.0
199.783508 132.0
200.495865 104.0
200.684738 76.0
200.758041 92.0
201.269608 112.0
201.650162 52.0
203.043091 132.0
203.497101 100.0
203.837952 44.0
203.911835 60.0
204.058182 668.0
204.102295 128.0
204.137909 92.0
204.57457 80.0
204.722626 88.0
204.893524 112.0
204.953354 104.0
205.055191 156.0
205.341049 136.0
205.546448 48.0
205.580688 52.0
205.74884 92.0
205.95755 88.0
206.073029 180.0
206.303314 108.0
206.35762 96.0
206.403381 48.0
206.497742 40.0
206.927933 108.0
207.067291 132.0
207.233429 64.0
207.471298 100.0
207.996262 40.0
208.52475 64.0
208.567856 140.0
208.659851 68.0
208.817993 52.0
208.875519 120.0
208.944565 88.0
209.2957 96.0
209.318741 116.0
209.5578 84.0
210.076736 288.0
210.59053 96.0
210.891968 60.0
211.057007 172.0
211.090485 200.0
211.243774 80.0
212.173355 64.0
212.387939 124.0
212.492371 48.0
212.533005 84.0
213.421799 52.0
214.079422 172.0
214.75264 32.0
216.228073 92.0
217.409119 84.0
218.55513 80.0
219.388611 48.0
220.244354 144.0
220.353653 100.0
222.020142 104.0
224.130692 72.0
224.983688 100.0
225.772491 152.0
226.074799 160.0
227.081253 136.0
229.016846 92.0
229.19458 52.0
232.514938 64.0
236.709656 132.0
239.424316 96.0
240.151657 60.0
240.802887 60.0
241.643692 72.0
244.551346 56.0
244.943665 192.0
246.450485 68.0
248.118652 92.0
250.170059 60.0
250.601517 144.0
259.773682 40.0
262.923645 56.0
264.361725 44.0
265.483398 80.0
268.741913 88.0
271.128967 120.0
272.106445 72.0
273.306091 28.0
274.195221 88.0
278.938263 64.0
280.272797 72.0
283.57782 48.0
285.790802 60.0
286.134125 104.0
300.227997 100.0
306.255035 92.0
306.645264 80.0
307.562561 48.0
311.645874 80.0
313.997345 60.0
314.025543 36.0
316.495728 68.0
318.49231 112.0
321.568573 112.0
321.904144 56.0
322.518616 52.0
329.48642 32.0
329.721283 68.0
331.244537 68.0
338.726593 72.0
339.257935 76.0
342.882141 148.0
344.380035 72.0
350.352173 108.0
354.660675 92.0
358.463959 64.0
365.122894 108.0
369.953461 116.0
374.430511 48.0
381.503662 52.0
385.967773 96.0
390.446014 148.0
393.823669 68.0
399.444244 56.0
404.163849 52.0
405.497345 124.0
410.514526 96.0
414.091064 52.0
429.302582 64.0
433.879761 80.0
435.398407 60.0
437.685547 72.0
437.960388 84.0
439.982819 128.0
446.242035 68.0
447.609497 84.0
450.878784 60.0
452.202545 60.0
453.392609 64.0
454.032776 76.0
454.117584 56.0
459.059326 40.0
470.502686 40.0
474.257416 80.0
482.248596 84.0
483.464417 76.0
487.977997 44.0
489.795471 160.0
511.931702 136.0
521.254822 64.0
530.107483 212.0
533.913147 72.0
535.675964 40.0
561.037476 88.0
572.761047 52.0
578.725769 80.0
579.166382 140.0
592.84436 64.0
594.022522 76.0
601.003845 72.0
604.370361 84.0
610.029968 64.0
611.416992 76.0
639.624207 88.0
640.60614 76.0
648.757324 72.0
649.152771 120.0
662.450256 84.0
664.408569 152.0
668.98999 20.0
669.275696 76.0
676.627869 104.0
680.386475 76.0
684.738708 76.0
708.137207 52.0
715.693909 148.0
720.013245 48.0
736.383179 140.0
748.438354 212.0
752.544006 72.0
755.16156 120.0
763.580322 96.0
767.716187 68.0
771.863281 80.0
771.957275 152.0
776.736877 156.0
783.608032 68.0
784.103943 152.0
796.665588 124.0
815.868652 48.0
832.846008 160.0
840.329651 204.0
840.860535 120.0
841.645569 208.0
845.935364 72.0
862.449402 228.0
862.502014 80.0
866.106384 132.0
872.920105 44.0
883.649231 152.0
884.229126 228.0
889.21344 88.0
889.533936 60.0
892.022888 108.0
898.8302 88.0
904.537659 128.0
904.992676 124.0
908.288757 232.0
914.953003 164.0
920.765747 172.0
923.582214 80.0
944.274109 68.0
944.39032 52.0
944.922485 144.0
954.177185 192.0
958.430176 220.0
962.562866 124.0
963.161926 168.0
963.90332 196.0
964.138123 144.0
969.373474 156.0
971.779297 184.0
973.16333 92.0
973.983093 172.0
975.026855 176.0
976.773987 132.0
984.745972 156.0
989.27301 160.0
994.212036 160.0
1001.574341 152.0
1003.546875 132.0
1005.540222 176.0
1011.494202 128.0
1012.640259 188.0
1015.67627 76.0
1019.04718 72.0
1022.901001 168.0
1023.703247 172.0
1028.076294 164.0
1028.7146 164.0
1029.787354 148.0
1030.317505 224.0
1032.477905 136.0
1032.970459 164.0
1034.800659 180.0
1035.293701 192.0
1036.715942 204.0
1037.26709 152.0
1038.382812 128.0
1042.015991 172.0
1042.182983 128.0
1042.292236 160.0
1042.33728 92.0
1043.211304 128.0
1048.334595 128.0
1049.894653 140.0
1053.431641 116.0
1054.672241 184.0
1061.139282 188.0
1067.313965 136.0
1073.050049 172.0
1076.181885 192.0
1077.899658 112.0
1084.72583 180.0
1085.899536 52.0
1089.095947 220.0
1089.759399 148.0
1090.528198 88.0
1092.579834 220.0
1093.678711 224.0
1094.462158 232.0
1100.963989 40.0
1101.637695 124.0
1101.783081 168.0
1102.437134 172.0
1107.471924 184.0
1111.442871 40.0
1113.427734 56.0
1113.474121 52.0
1114.165039 184.0
1115.394409 60.0
1119.779053 140.0
1123.051636 184.0
1124.584595 132.0
1124.622681 192.0
1124.966675 120.0
1130.139404 152.0
1132.268066 188.0
1135.43811 36.0
1136.129028 236.0
1136.618774 196.0
1137.793335 172.0
1138.807251 204.0
1139.976196 164.0
1141.199585 112.0
1141.986328 184.0
1142.342896 64.0
1143.85022 164.0
1150.247192 168.0
1152.192017 236.0
1153.563843 180.0
1156.24231 216.0
1157.555542 148.0
1158.232788 188.0
1159.960693 120.0
1160.937012 152.0
1161.303223 112.0
1161.371094 152.0
1162.422607 212.0
1165.145386 152.0
1165.301636 168.0
1168.939331 220.0
1169.898926 208.0
1171.703613 168.0
1173.155273 148.0
1173.646118 48.0
1175.17395 160.0
1175.474121 172.0
1175.699341 152.0
1176.18396 204.0
1177.986694 96.0
1185.033081 168.0
1185.389404 164.0
1186.780884 120.0
1188.543701 156.0
1189.003418 204.0
1190.925781 88.0
1193.736694 112.0
1195.29126 220.0
1196.158447 152.0
1199.637085 136.0
1202.541016 132.0
1204.011597 180.0
1205.545288 160.0
1206.077393 116.0
1208.055054 132.0
1208.629272 224.0
1209.736572 64.0
1210.172729 72.0
1210.678223 72.0
1212.666626 44.0
1214.067017 132.0
1214.802246 176.0
1219.961914 116.0
1220.761475 168.0
1222.117798 188.0
1222.778931 236.0
1225.19519 104.0
1225.675903 108.0
1226.505249 60.0
1226.832886 176.0
1227.585815 188.0
1228.583252 44.0
1228.897217 128.0
1229.755493 204.0
1231.98999 216.0
1233.324585 164.0
1233.946777 188.0
1234.415283 68.0
1235.156616 156.0
1235.641235 72.0
1236.590942 228.0
1236.716919 92.0
1239.371094 136.0
1242.420898 60.0
1244.329834 96.0
1246.268311 100.0
1246.598511 68.0
1249.636108 172.0
1249.812012 212.0
1251.374512 124.0
1252.148682 196.0
1255.792969 72.0
1257.062744 108.0
1257.168579 188.0
1259.448975 156.0
1259.639771 224.0
1262.572998 176.0
1265.658203 184.0
1267.280273 140.0
1267.995972 44.0
1268.959961 148.0
1269.456299 196.0
1270.24353 168.0
1271.86145 196.0
1272.997314 124.0
1273.885132 100.0
1274.020142 180.0
1275.228027 140.0
1276.628662 172.0
1277.005493 60.0
1278.887085 184.0
1279.311035 116.0
1279.823608 156.0
1280.955933 176.0
1283.207886 172.0
1284.691284 180.0
1284.990967 160.0
1287.282104 196.0
1288.496338 172.0
1291.513062 176.0
1291.978027 188.0
1292.543213 188.0
1293.946045 204.0
1294.475952 140.0
1295.58606 160.0
1295.650513 152.0
1301.868896 140.0
1303.535889 184.0
1303.751465 160.0
1304.463013 272.0
1308.750854 116.0
1309.953491 92.0
1310.241699 136.0
1310.421753 156.0
1311.171143 208.0
1311.236084 200.0
1311.286499 208.0
1311.855957 184.0
1312.461548 160.0
1312.685059 184.0
1313.550537 168.0
1316.069214 148.0
1317.109131 192.0
1318.257935 172.0
1320.072266 120.0
1320.947388 100.0
1323.603516 168.0
1323.733887 160.0
1324.820312 124.0
1325.61731 96.0
1326.044312 160.0
1326.414551 120.0
1330.542236 156.0
1333.018921 136.0
1333.92749 156.0
1335.447144 164.0
1339.377563 104.0
1341.250244 216.0
1341.614746 72.0
1342.26355 164.0
1342.416748 144.0
1342.868896 88.0
1347.168213 112.0
1347.409302 192.0
1347.599243 84.0
1348.220337 212.0
1352.235352 172.0
1352.286621 140.0
1352.432983 116.0
1353.735229 152.0
1354.329346 176.0
1354.842163 128.0
1355.017944 144.0
1355.230469 220.0
1357.319458 164.0
1357.378052 176.0
1359.035767 124.0
1360.38623 196.0
1361.817993 32.0
1363.654785 184.0
1364.272339 204.0
1364.441406 140.0
1365.081055 132.0
1366.015137 164.0
1366.861206 136.0
1367.913574 44.0
1368.281738 156.0
1368.745605 220.0
1368.833984 240.0
1369.946045 148.0
1370.307007 160.0
1370.365967 120.0
1370.99231 152.0
1371.228149 168.0
1371.559814 192.0
1373.211426 28.0
1374.22937 124.0
1375.506104 296.0
1376.008179 184.0
1378.216553 176.0
1379.665039 116.0
1381.484253 160.0
1381.861572 208.0
1382.631104 192.0
1385.074463 212.0
1386.326538 204.0
1387.453125 44.0
1388.639648 144.0
1390.962036 88.0
1392.380127 180.0
1392.862915 220.0
1393.070923 212.0
1393.130371 64.0
1393.182373 152.0
1394.192871 204.0
1395.248291 76.0
1396.01416 152.0
1397.21167 60.0
1397.382812 168.0
1397.702759 152.0
1399.310425 176.0
1400.591309 168.0
1400.784912 64.0
1403.095093 136.0
1403.378418 152.0
1404.452271 124.0
1404.504517 192.0
1404.638794 52.0
1405.660889 232.0
1406.362427 136.0
1409.775513 132.0
1409.977295 280.0
1411.352661 144.0
1411.599487 204.0
1411.741577 140.0
1411.876099 176.0
1412.721313 140.0
1413.282471 176.0
1413.761353 184.0
1415.89502 244.0
1416.389282 52.0
1416.449219 164.0
1418.165039 156.0
1419.522095 56.0
1419.881958 188.0
1421.164795 204.0
1421.907593 220.0
1422.630249 188.0
1423.161255 168.0
1423.51416 136.0
1424.069946 220.0
1424.43042 156.0
1424.858643 132.0
1425.061523 176.0
1426.075928 116.0
1426.346558 212.0
1426.978027 172.0
1428.489624 188.0
1428.971069 224.0
1429.47522 176.0
1431.500244 180.0
1431.846558 180.0
1432.426514 172.0
1434.069214 116.0
1434.521484 204.0
1435.66748 192.0
1436.761108 88.0
1439.682251 112.0
1440.173096 164.0
1441.555664 92.0
1441.789917 204.0
1442.175415 180.0
1442.44751 52.0
1443.218628 124.0
1445.147339 196.0
1445.760254 92.0
1446.093262 176.0
1446.252197 224.0
1446.343018 160.0
1446.577759 176.0
1447.22876 64.0
1447.789185 64.0
1448.266235 84.0
1449.061646 60.0
1449.304077 108.0
1449.645142 120.0
1450.084717 168.0
1450.228638 152.0
1450.349976 56.0
1451.562988 176.0
1451.744995 172.0
1452.21521 216.0
1453.041992 152.0
1454.453491 172.0
1455.281006 248.0
1455.501099 100.0
1455.903564 180.0
1458.030762 140.0
1458.083984 108.0
1458.144775 220.0
1459.16333 104.0
1459.383789 208.0
1460.387695 156.0
1461.171143 112.0
1461.376587 148.0
1461.475464 156.0
1461.802734 176.0
1464.459595 52.0
1465.457642 144.0
1466.737915 108.0
1466.913208 156.0
1467.622192 228.0
1469.185669 208.0
1469.94104 104.0
1470.017334 128.0
1470.620239 188.0
1470.872192 156.0
1471.566895 172.0
1471.772949 152.0
1471.914551 208.0
1472.185303 132.0
1472.613037 144.0
1473.315796 172.0
1474.110352 196.0
1474.417236 152.0
1475.18042 96.0
1475.883789 232.0
1476.052002 144.0
1479.7323 148.0
1480.176392 208.0
1481.049438 232.0
1481.662231 176.0
1483.309814 176.0
1485.081055 216.0
1485.219116 188.0
1485.809814 256.0
1486.109009 120.0
1487.643921 124.0
1487.843506 208.0
1488.127563 220.0
1488.411743 108.0
1488.887817 220.0
1488.9646 304.0
1489.110474 160.0
1489.55603 172.0
1490.055298 136.0
1490.147583 124.0
1491.815186 132.0
1493.737671 200.0
1494.637817 172.0
1495.46521 168.0
1496.061646 100.0
1497.224365 76.0
1497.463013 168.0
1497.832764 104.0
1499.373779 160.0
1499.828491 192.0
1499.974854 144.0
1500.108154 128.0
1500.923218 156.0
1501.046509 128.0
1501.100586 76.0
1502.378662 196.0
1502.866943 36.0
1503.422485 160.0
1504.186646 136.0
1504.310059 76.0
1505.004883 92.0
