>compound NCGC00160232-01!VERBENALIN
>formula C17H24O10
>ionization [M+H]+
>parentmass 389.145
#inchi InChI=1S/C17H24O10/c1-6-3-8(19)11-7(15(23)24-2)5-25-16(10(6)11)27-17-14(22)13(21)12(20)9(4-18)26-17/h5-6,9-14,16-18,20-22H,3-4H2,1-2H3/t6-,9?,10+,11+,12-,13?,14?,16?,17+/m0/s1
#inchikey HLXRWTJXGMHOFN
#Ion_Source LC-ESI
#Instrument qTOF
#Compound_Source Prestwick Phytochem Lib
#PI Dorrestein
#Data_Collector VVP/LMS
#Scan -1
#Precursor_MZ 389.145
#ExactMass 389.145
#Charge 1
#CAS_Number N/A
#Pubmed_ID N/A
#Smiles COC(=O)C1=COC(O[C@H]2OC(CO)[C@H](O)C(O)C2O)[C@@H]3[C@@H](C)CC(=O)[C@@H]13
#INCHI_AUX N/A
#Library_Class 1
#SpectrumID CCMSLIB00000078768
#IonMode Positive
#UpdateWorkflowName UPDATE-SINGLE-ANNOTATED-GOLD
#LibraryQualityString Gold
#TaskID 67c915c6594c435cadc1fe2b5358144d
##Scan# 1387
#SpectrumFile p1-F03_GF3_01_17935.mzXML
#LibraryName phytochem_lib.mgf
#MQScore -1
#Organism phytochem_lib
#TIC_Query 0
#RT_Query -1
#MZErrorPPM -1
#SharedPeaks 0
#MassDiff 0
#LibMZ -1
#SpecMZ 389.145
#SpecCharge 0
#internalFilename spec-00000.mgf

>collision 10
95.560585 120.0
96.117836 128.0
96.504578 136.0
97.023399 192.0
97.068497 172.0
97.305908 212.0
97.616356 136.0
99.445763 208.0
99.954506 196.0
100.602249 140.0
103.052444 128.0
103.185837 128.0
103.38002 200.0
105.070816 184.0
105.33593 144.0
106.690483 44.0
107.050598 164.0
107.642372 220.0
108.43055 180.0
109.030327 204.0
109.063583 140.0
111.047119 220.0
111.078583 360.0
111.523727 200.0
112.566566 176.0
113.065468 144.0
113.703377 188.0
115.046478 124.0
119.053604 164.0
119.470924 200.0
120.593903 68.0
121.024925 132.0
121.064529 332.0
121.950607 60.0
122.064926 144.0
123.083427 128.0
123.485146 220.0
125.024826 180.0
125.058205 156.0
125.084915 176.0
125.657646 184.0
126.066261 152.0
126.513596 224.0
127.037979 320.0
129.268524 180.0
130.327454 236.0
130.51384 172.0
131.044159 208.0
132.387268 44.0
132.912201 176.0
133.026962 160.0
133.066025 216.0
135.052399 188.0
137.195694 180.0
138.656586 88.0
138.701111 244.0
139.001541 204.0
139.038254 764.0
139.073761 1292.0
139.094696 192.0
140.079391 276.0
141.019547 132.0
145.058929 188.0
146.214233 164.0
147.033646 116.0
148.405212 96.0
149.021774 200.0
149.058716 1724.0
149.092163 172.0
149.722244 188.0
150.063828 292.0
151.074829 160.0
152.017761 128.0
152.071762 168.0
153.047699 196.0
155.078354 164.0
156.394745 128.0
157.072495 80.0
158.041809 92.0
162.029968 160.0
164.757217 164.0
165.074142 144.0
166.06012 244.0
167.010437 136.0
167.06871 296.0
167.306366 120.0
167.450562 84.0
168.076981 148.0
168.91922 176.0
171.106888 148.0
174.928848 268.0
176.165802 184.0
176.427429 196.0
176.525253 52.0
176.646912 192.0
176.803024 92.0
176.842712 196.0
177.053009 4944.0
177.184311 60.0
177.2267 56.0
177.247894 100.0
177.271744 44.0
177.295593 48.0
177.560715 104.0
178.003891 40.0
178.022476 84.0
178.054169 596.0
178.365204 92.0
178.426346 92.0
178.601852 164.0
178.830673 64.0
178.984894 168.0
179.061905 156.0
179.32074 48.0
179.691391 108.0
181.081406 144.0
181.100159 136.0
187.040573 224.0
189.687469 32.0
190.074173 108.0
191.093536 168.0
191.509216 124.0
192.825272 44.0
194.642548 204.0
194.728638 76.0
194.814743 120.0
194.987015 216.0
195.064301 3588.0
195.173264 64.0
195.214981 52.0
195.320663 164.0
195.345688 80.0
195.39299 104.0
195.434723 48.0
195.59613 56.0
196.069382 720.0
196.125366 32.0
197.071396 104.0
201.008057 216.0
202.854904 112.0
209.080276 524.0
214.990829 188.0
220.107468 88.0
221.011948 120.0
223.004776 156.0
227.089233 156.0
233.127365 120.0
234.125183 176.0
247.059158 196.0
254.544861 220.0
255.040466 136.0
260.842041 116.0
265.160706 156.0
283.171539 116.0
284.180542 92.0
285.036774 112.0
288.998688 172.0
292.167023 148.0
300.18924 168.0
300.882782 48.0
301.400848 148.0
328.190033 208.0
341.19931 172.0
345.251587 148.0
360.221527 168.0
360.26358 148.0
386.049408 148.0
387.203888 76.0
387.246948 132.0
391.181335 112.0
392.241425 356.0
393.195465 76.0
399.786011 64.0
414.123138 20.0
438.226776 96.0
478.118408 40.0
501.854187 84.0
761.998352 152.0
781.921997 96.0
861.352356 148.0
881.811707 152.0
920.103149 52.0
928.301697 200.0
1108.030151 204.0
1110.814453 108.0
1168.492065 204.0
1200.093994 192.0
1214.00647 44.0
1216.393188 244.0
1220.061035 28.0
1224.56311 160.0
1278.109985 220.0
1280.366577 160.0
1284.279419 64.0
1291.200195 208.0
1306.284058 164.0
1317.717773 160.0
1322.823364 36.0
1337.282349 176.0
1347.213745 192.0
1390.755859 84.0
1396.610718 196.0
1414.698608 224.0
1415.364868 140.0
1435.352295 180.0
1435.646362 172.0
1457.257202 164.0
1462.572876 216.0
1481.479858 72.0
1499.814453 192.0
1501.873169 80.0
