>compound 7-Acetoxy-4-methylcoumarin
>formula C12H10O4
>ionization [M+H]+
>parentmass 219.06518525209054
#inchi InChI=1S/C12H10O4/c1-7-5-12(14)16-11-6-9(15-8(2)13)3-4-10(7)11/h3-6H,1-2H3
#inchikey HXVZGASCDAGAPS
#Ion_Source DI-ESI
#Instrument qTof
#Compound_Source Isolated
#PI Norberto Lopes
#Data_Collector Denise Silva
#Scan -1
#Precursor_MZ 219.07
#ExactMass 218.058
#Charge 1
#CAS_Number 2747-05-09
#Pubmed_ID N/A
#Smiles O=C1C=C(C)C2=CC=C(OC(C)=O)C=C2O1
#INCHI_AUX N/A
#Library_Class 3
#SpectrumID CCMSLIB00000081747
#IonMode Positive
#UpdateWorkflowName UPDATE-SINGLE-ANNOTATED-BRONZE
#LibraryQualityString Bronze
#TaskID 52bd5f0db6314c93924d5ce5c86348eb
##Scan# 1
#SpectrumFile gnps_7_Acetoxy_4_methylcoumarin_pos_MplusH.mgf
#LibraryName gnps_library.mgf
#MQScore -1
#Organism batch_27_05_V02
#TIC_Query 0
#RT_Query -1
#MZErrorPPM -1
#SharedPeaks 0
#MassDiff 0
#LibMZ -1
#SpecMZ 219.07
#SpecCharge 0
#internalFilename spec-00000.mgf

>collision 10
115.050011 3941.0
116.054749 386.0
121.060341 30356.0
122.063408 1910.0
122.993202 305.0
131.045059 6119.0
132.052002 2549.0
133.061172 3060.0
134.032166 2765.0
137.019272 1104.0
147.039917 763.0
148.047806 489.0
149.055344 4390.0
177.051834 60758.0
178.054245 4326.0
