>compound BALSALAZIDE
>formula C17H15N3O6
>ionization [M+H]+
>parentmass 358.102722
#inchi InChI=1S/C17H15N3O6/c21-14-6-5-12(9-13(14)17(25)26)20-19-11-3-1-10(2-4-11)16(24)18-8-7-15(22)23/h1-6,9,21H,7-8H2,(H,18,24)(H,22,23)(H,25,26)
#inchikey IPOKCKJONYRRHP
#Ion_Source LC-ESI
#Instrument qTof
#Compound_Source Commercial
#PI Dorrestein
#Data_Collector Garg_Neha
#Scan -1
#Precursor_MZ 358.103
#ExactMass 357.096
#Charge 1
#CAS_Number N/A
#Pubmed_ID N/A
#Smiles OC(=O)CCNC(=O)c1ccc(N=Nc2ccc(O)c(c2)C(=O)O)cc1
#INCHI_AUX N/A
#Library_Class 1
#SpectrumID CCMSLIB00000079084
#IonMode Positive
#UpdateWorkflowName UPDATE-SINGLE-ANNOTATED-GOLD
#LibraryQualityString Gold
#TaskID 278b19f5865741e282cec7349aa7e7a1
##Scan# 1157
#SpectrumFile NCP003432_E2_F11_BD2_01_15724.mzXML
#LibraryName NIHcollectionI_05062014.mgf
#MQScore -1
#Organism NIHcollectionI_05062014
#TIC_Query 0
#RT_Query -1
#MZErrorPPM -1
#SharedPeaks 0
#MassDiff 0
#LibMZ -1
#SpecMZ 358.103
#SpecCharge 0
#internalFilename spec-00000.mgf

>collision 10
45.49881 164.0
56.935833 140.0
66.149277 140.0
71.239067 144.0
77.68663 192.0
87.83963 260.0
98.772163 188.0
103.679817 176.0
108.893303 196.0
113.523148 232.0
114.428322 172.0
116.973747 204.0
118.06765 152.0
119.025063 232.0
123.022499 148.0
126.486824 148.0
127.428703 160.0
128.351517 188.0
129.071823 152.0
129.288986 188.0
130.613998 184.0
139.054367 1120.0
139.079803 180.0
140.048752 268.0
145.255646 140.0
146.024155 312.0
148.022446 140.0
151.125916 196.0
155.604309 192.0
157.454422 152.0
160.090164 176.0
161.334061 164.0
163.179703 160.0
165.034439 140.0
165.07074 436.0
166.055923 196.0
166.083237 156.0
167.059402 428.0
168.046524 156.0
169.934784 172.0
173.073975 152.0
175.585144 228.0
179.374054 224.0
186.444931 148.0
188.655441 188.0
195.053589 452.0
196.046738 140.0
196.75856 156.0
203.876633 180.0
218.804169 144.0
220.328873 200.0
222.069412 176.0
223.051666 1836.0
224.057114 536.0
225.063141 292.0
226.783279 148.0
228.30542 140.0
233.045181 168.0
241.064087 280.0
250.342041 140.0
250.838287 124.0
250.887115 144.0
251.011414 160.0
251.046249 20232.0
251.147003 188.0
251.73172 108.0
252.04834 2076.0
253.057281 188.0
255.18367 132.0
257.512695 184.0
265.796021 200.0
268.073639 184.0
268.209137 160.0
268.267792 184.0
268.368866 160.0
268.86795 140.0
268.967621 288.0
269.056885 23692.0
269.125824 196.0
269.455963 96.0
269.772705 156.0
269.990631 104.0
270.02121 244.0
270.059723 3848.0
271.062408 676.0
271.852051 120.0
273.538544 192.0
279.19635 156.0
287.067688 740.0
288.06546 192.0
290.095581 156.0
294.088959 260.0
298.08255 136.0
299.971619 160.0
301.562836 172.0
305.815063 140.0
312.094513 156.0
322.084808 424.0
328.734131 176.0
331.225159 156.0
339.898499 164.0
340.094696 1864.0
341.099091 300.0
342.091034 196.0
351.704498 208.0
358.102722 2988.0
359.100739 512.0
359.212952 192.0
360.099945 260.0
360.134644 184.0
391.089966 164.0
391.842102 160.0
1786.14502 148.0
